# vtk DataFile Version 2.0
Time step 60
ASCII
DATASET UNSTRUCTURED_GRID
POINTS 5000 float
202706.0 254889.0 0
207581.0 252946.0 0
214157.0 254470.0 0
232739.0 254470.0 0
277794.0 254642.0 0
297464.0 253263.0 0
202416.0 259916.0 0
206634.0 257298.0 0
209495.0 256099.0 0
211337.0 259205.0 0
217397.0 259243.0 0
222087.0 256625.0 0
229017.0 256209.0 0
226307.0 259739.0 0
233038.0 257826.0 0
237657.0 256999.0 0
243188.0 258678.0 0
249828.0 259526.0 0
256039.0 258239.0 0
261238.0 259980.0 0
266188.0 258860.0 0
271088.0 256085.0 0
274952.0 260094.0 0
280408.0 260136.0 0
285597.0 257631.0 0
291096.0 255344.0 0
297166.0 258544.0 0
203017.0 265152.0 0
207063.0 261644.0 0
214083.0 263379.0 0
222166.0 262096.0 0
227202.0 264127.0 0
230311.0 260769.0 0
235010.0 261913.0 0
240028.0 263274.0 0
245126.0 263866.0 0
249649.0 264977.0 0
253661.0 264190.0 0
257774.0 262637.0 0
264034.0 263192.0 0
268325.0 263906.0 0
270478.0 260568.0 0
273051.0 264987.0 0
277697.0 264214.0 0
284078.0 262639.0 0
281301.0 264206.0 0
287665.0 262129.0 0
292071.0 260856.0 0
296672.0 264541.0 0
201899.0 269590.0 0
206116.0 269820.0 0
209610.0 266124.0 0
218383.0 265635.0 0
214335.0 268648.0 0
218884.0 270194.0 0
223217.0 267693.0 0
228482.0 269224.0 0
231924.0 265727.0 0
233199.0 269917.0 0
236457.0 266786.0 0
241567.0 268580.0 0
247123.0 268402.0 0
251939.0 268488.0 0
256686.0 268207.0 0
260697.0 265741.0 0
260882.0 270046.0 0
265239.0 267981.0 0
269844.0 267769.0 0
276263.0 268100.0 0
280455.0 267945.0 0
285070.0 266707.0 0
289004.0 265496.0 0
288887.0 269895.0 0
292355.0 267171.0 0
202761.0 273803.0 0
210676.0 273117.0 0
216832.0 275241.0 0
222889.0 273415.0 0
227083.0 273081.0 0
230793.0 273671.0 0
237138.0 271262.0 0
234826.0 274317.0 0
240642.0 274559.0 0
249723.0 272712.0 0
245050.0 272759.0 0
254437.0 272632.0 0
258924.0 273991.0 0
264492.0 274096.0 0
268598.0 271278.0 0
272943.0 270829.0 0
270561.0 273646.0 0
273374.0 275497.0 0
278022.0 272899.0 0
283764.0 271886.0 0
287831.0 274055.0 0
291374.0 273441.0 0
296212.0 271477.0 0
202048.0 278147.0 0
206717.0 277475.0 0
211974.0 278829.0 0
221717.0 278689.0 0
226993.0 277363.0 0
232641.0 278374.0 0
237136.0 277317.0 0
243753.0 279122.0 0
240662.0 279059.0 0
247121.0 277201.0 0
251855.0 276790.0 0
254384.0 280447.0 0
255811.0 276633.0 0
259657.0 279273.0 0
269288.0 276298.0 0
265883.0 280433.0 0
271805.0 279613.0 0
277495.0 279179.0 0
281939.0 276344.0 0
282694.0 280401.0 0
290205.0 276781.0 0
285993.0 277686.0 0
290533.0 280603.0 0
293631.0 276313.0 0
294410.0 279771.0 0
297549.0 277259.0 0
202032.0 281725.0 0
202300.0 285577.0 0
206854.0 283093.0 0
212569.0 284161.0 0
216857.0 281009.0 0
220887.0 283085.0 0
229463.0 281436.0 0
225384.0 282864.0 0
232455.0 282939.0 0
229677.0 285268.0 0
237003.0 282382.0 0
242537.0 283075.0 0
246292.0 281245.0 0
248086.0 284303.0 0
250123.0 280978.0 0
252524.0 285110.0 0
256971.0 283658.0 0
261541.0 284742.0 0
270137.0 283784.0 0
274368.0 283499.0 0
280332.0 283011.0 0
277813.0 284028.0 0
283640.0 284808.0 0
286370.0 281539.0 0
288928.0 284584.0 0
294047.0 284269.0 0
297852.0 281573.0 0
298375.0 285143.0 0
201937.0 289422.0 0
205546.0 288361.0 0
209398.0 287427.0 0
213046.0 289593.0 0
217768.0 287100.0 0
222647.0 286461.0 0
222086.0 290812.0 0
226411.0 288221.0 0
233774.0 286960.0 0
230422.0 290450.0 0
239435.0 287994.0 0
244912.0 287521.0 0
249146.0 287741.0 0
252350.0 290570.0 0
257163.0 288584.0 0
262871.0 289877.0 0
266034.0 286058.0 0
269302.0 286981.0 0
268089.0 290692.0 0
272979.0 287792.0 0
276498.0 286476.0 0
279671.0 286578.0 0
277302.0 290519.0 0
282413.0 289979.0 0
286567.0 288043.0 0
291175.0 288509.0 0
295368.0 288635.0 0
298500.0 288050.0 0
201649.0 292387.0 0
202339.0 295695.0 0
208670.0 291996.0 0
204629.0 292512.0 0
212760.0 293662.0 0
217108.0 293283.0 0
221786.0 295731.0 0
226343.0 293217.0 0
231417.0 295818.0 0
235085.0 291630.0 0
239228.0 293018.0 0
243300.0 292077.0 0
247574.0 291742.0 0
245838.0 295148.0 0
259524.0 292359.0 0
255839.0 294343.0 0
264901.0 294096.0 0
269624.0 295518.0 0
272739.0 292073.0 0
275089.0 295032.0 0
279413.0 294762.0 0
283344.0 294278.0 0
287764.0 292391.0 0
293387.0 292566.0 0
297868.0 291449.0 0
297841.0 295266.0 0
202725.0 299903.0 0
205815.0 296418.0 0
207160.0 300373.0 0
209845.0 296676.0 0
213874.0 296670.0 0
211915.0 300567.0 0
217112.0 298817.0 0
221766.0 300865.0 0
226063.0 298105.0 0
229731.0 300610.0 0
233538.0 300639.0 0
236672.0 296368.0 0
241849.0 297031.0 0
246190.0 298913.0 0
250591.0 296143.0 0
255997.0 300678.0 0
260786.0 296243.0 0
261552.0 301014.0 0
265742.0 298739.0 0
272513.0 298878.0 0
277180.0 299014.0 0
282273.0 298893.0 0
285926.0 296856.0 0
289953.0 296643.0 0
286852.0 300230.0 0
294340.0 296665.0 0
297299.0 299889.0 0
201742.0 303462.0 0
205230.0 303608.0 0
208923.0 303922.0 0
212801.0 304585.0 0
214856.0 301987.0 0
217339.0 304344.0 0
222016.0 306043.0 0
226483.0 303442.0 0
231484.0 304329.0 0
237788.0 301155.0 0
235488.0 305782.0 0
239711.0 306014.0 0
242582.0 302149.0 0
246466.0 302981.0 0
250298.0 301610.0 0
252885.0 305234.0 0
260253.0 304702.0 0
264763.0 304263.0 0
269190.0 301832.0 0
273826.0 303711.0 0
278888.0 303278.0 0
283682.0 303789.0 0
288336.0 304567.0 0
292033.0 301367.0 0
296479.0 305456.0 0
202588.0 306910.0 0
206619.0 306946.0 0
207895.0 311085.0 0
210493.0 307549.0 0
214621.0 308161.0 0
218554.0 309382.0 0
222774.0 310964.0 0
228819.0 307197.0 0
225758.0 307970.0 0
232156.0 309200.0 0
236983.0 311059.0 0
244431.0 307086.0 0
241055.0 309708.0 0
249137.0 306365.0 0
247818.0 310648.0 0
251985.0 309984.0 0
256731.0 307838.0 0
261849.0 308420.0 0
269236.0 306272.0 0
265552.0 308710.0 0
268600.0 311205.0 0
272743.0 309235.0 0
280603.0 307000.0 0
276821.0 307956.0 0
282961.0 308539.0 0
285796.0 307894.0 0
289472.0 309608.0 0
292109.0 306619.0 0
293565.0 310365.0 0
297449.0 310411.0 0
203008.0 311359.0 0
202575.0 316054.0 0
206257.0 315640.0 0
212559.0 311594.0 0
210609.0 315657.0 0
216184.0 311838.0 0
215685.0 316261.0 0
219551.0 313606.0 0
223726.0 315107.0 0
227668.0 311838.0 0
232014.0 314003.0 0
241137.0 312818.0 0
244075.0 311739.0 0
239929.0 315822.0 0
243472.0 315285.0 0
246603.0 313980.0 0
250135.0 314385.0 0
259603.0 312003.0 0
255192.0 314266.0 0
259887.0 316291.0 0
264022.0 313398.0 0
268113.0 314680.0 0
271968.0 313939.0 0
275668.0 312823.0 0
279993.0 311729.0 0
277801.0 315450.0 0
285318.0 312682.0 0
290655.0 314474.0 0
296287.0 315400.0 0
202773.0 320255.0 0
207735.0 319836.0 0
212241.0 319992.0 0
217018.0 321369.0 0
220435.0 317984.0 0
227921.0 316652.0 0
224656.0 318948.0 0
231717.0 319130.0 0
235931.0 316456.0 0
235472.0 320701.0 0
238825.0 320014.0 0
242358.0 319247.0 0
246807.0 318063.0 0
251854.0 319312.0 0
256843.0 319652.0 0
262991.0 317969.0 0
260646.0 321061.0 0
266461.0 317757.0 0
270393.0 317663.0 0
268474.0 320792.0 0
274761.0 317375.0 0
272102.0 321044.0 0
278691.0 319058.0 0
281755.0 316368.0 0
282337.0 320087.0 0
286469.0 318242.0 0
292011.0 319006.0 0
297035.0 320637.0 0
201520.0 323734.0 0
205793.0 324070.0 0
209829.0 322976.0 0
213195.0 323355.0 0
215629.0 325982.0 0
219222.0 325221.0 0
222249.0 322343.0 0
227954.0 321864.0 0
225502.0 325411.0 0
233079.0 324303.0 0
237235.0 323598.0 0
244649.0 322512.0 0
240690.0 323697.0 0
243456.0 326159.0 0
248391.0 322412.0 0
246829.0 326051.0 0
254659.0 323188.0 0
251286.0 325322.0 0
257762.0 324135.0 0
264911.0 321823.0 0
261060.0 325016.0 0
264613.0 325869.0 0
269094.0 324843.0 0
273400.0 324050.0 0
275919.0 321768.0 0
280035.0 322930.0 0
276846.0 326142.0 0
284284.0 323211.0 0
288646.0 321964.0 0
288370.0 326094.0 0
292550.0 323183.0 0
296727.0 325686.0 0
201971.0 326634.0 0
202708.0 330714.0 0
204850.0 327810.0 0
207678.0 327204.0 0
207310.0 330280.0 0
210859.0 326623.0 0
211086.0 331295.0 0
214676.0 329515.0 0
219080.0 329444.0 0
222505.0 327440.0 0
222926.0 331508.0 0
229585.0 326825.0 0
226123.0 329418.0 0
233694.0 328906.0 0
230228.0 331024.0 0
237400.0 327447.0 0
240960.0 327568.0 0
240350.0 331043.0 0
244269.0 329696.0 0
248704.0 329298.0 0
252699.0 329414.0 0
255290.0 326848.0 0
258498.0 327959.0 0
256080.0 330629.0 0
261883.0 329185.0 0
266189.0 329233.0 0
270190.0 329761.0 0
272934.0 327092.0 0
274382.0 330665.0 0
278237.0 330324.0 0
281018.0 326758.0 0
284328.0 326842.0 0
282546.0 330827.0 0
286276.0 329706.0 0
290122.0 331171.0 0
292483.0 327689.0 0
293464.0 330658.0 0
296930.0 330597.0 0
197272.0 333459.0 0
202121.0 334917.0 0
205390.0 333480.0 0
208661.0 334574.0 0
214225.0 333554.0 0
212156.0 335583.0 0
217145.0 332646.0 0
220354.0 333973.0 0
223720.0 335836.0 0
226996.0 333657.0 0
233306.0 332843.0 0
230862.0 335201.0 0
236604.0 331993.0 0
234712.0 336241.0 0
238944.0 335844.0 0
242870.0 334133.0 0
246639.0 333075.0 0
249121.0 335859.0 0
250636.0 332616.0 0
253569.0 332693.0 0
252112.0 335853.0 0
259249.0 332022.0 0
256312.0 335386.0 0
260463.0 336671.0 0
263434.0 333394.0 0
267627.0 332745.0 0
267052.0 335875.0 0
271241.0 334287.0 0
275750.0 334390.0 0
279878.0 334926.0 0
283991.0 334492.0 0
286640.0 333370.0 0
290103.0 335313.0 0
293806.0 333873.0 0
297699.0 334958.0 0
202262.0 338571.0 0
205407.0 336884.0 0
209144.0 337985.0 0
206311.0 339968.0 0
212980.0 338863.0 0
209946.0 341000.0 0
216868.0 336973.0 0
220867.0 337358.0 0
223890.0 339269.0 0
220405.0 340497.0 0
227850.0 338113.0 0
231571.0 338039.0 0
233904.0 339837.0 0
237096.0 339942.0 0
242384.0 337713.0 0
240630.0 340332.0 0
244172.0 340671.0 0
245730.0 337483.0 0
249486.0 339153.0 0
247155.0 340984.0 0
253523.0 339911.0 0
257709.0 340500.0 0
264557.0 337927.0 0
261768.0 340894.0 0
268990.0 338797.0 0
265774.0 341326.0 0
273491.0 338173.0 0
280425.0 339135.0 0
277314.0 338419.0 0
275738.0 341820.0 0
283536.0 337957.0 0
282891.0 340897.0 0
286905.0 336895.0 0
289936.0 339045.0 0
286598.0 341006.0 0
293763.0 337935.0 0
295019.0 341782.0 0
297755.0 338435.0 0
298396.0 341275.0 0
203087.0 342676.0 0
202003.0 346397.0 0
207755.0 343670.0 0
212864.0 342153.0 0
211530.0 345040.0 0
216758.0 341889.0 0
215551.0 346131.0 0
222816.0 342821.0 0
220203.0 345619.0 0
226506.0 342362.0 0
224590.0 346170.0 0
228732.0 346273.0 0
230861.0 341999.0 0
232426.0 346074.0 0
235090.0 343677.0 0
238530.0 343929.0 0
242322.0 343952.0 0
246081.0 343910.0 0
250285.0 343962.0 0
254905.0 344591.0 0
258858.0 343994.0 0
263050.0 344860.0 0
268722.0 342767.0 0
266765.0 345674.0 0
271827.0 342073.0 0
270568.0 345921.0 0
273944.0 344967.0 0
279419.0 342316.0 0
277043.0 345275.0 0
280351.0 346402.0 0
283375.0 344094.0 0
287344.0 345394.0 0
291194.0 342526.0 0
294940.0 345286.0 0
297914.0 344085.0 0
202876.0 350053.0 0
205878.0 347002.0 0
207212.0 351222.0 0
210118.0 348506.0 0
214072.0 349603.0 0
218267.0 349079.0 0
222490.0 349498.0 0
219925.0 351689.0 0
226099.0 348780.0 0
229400.0 349951.0 0
233016.0 349535.0 0
236425.0 347910.0 0
238620.0 351744.0 0
244491.0 347087.0 0
240342.0 347984.0 0
243797.0 351771.0 0
247906.0 347785.0 0
248907.0 351811.0 0
252052.0 348366.0 0
255057.0 351035.0 0
257483.0 346962.0 0
255277.0 348513.0 0
258969.0 351337.0 0
260387.0 347402.0 0
263541.0 349209.0 0
267094.0 349169.0 0
274438.0 348419.0 0
270768.0 349517.0 0
277568.0 347760.0 0
279865.0 349503.0 0
277153.0 350580.0 0
284004.0 348726.0 0
288189.0 350336.0 0
291655.0 347092.0 0
295149.0 348955.0 0
292541.0 351862.0 0
297992.0 347055.0 0
297922.0 350173.0 0
302750.0 347192.0 0
202253.0 353673.0 0
205513.0 353902.0 0
208137.0 356711.0 0
211502.0 353476.0 0
216352.0 352503.0 0
219206.0 355211.0 0
215496.0 356374.0 0
221946.0 353566.0 0
222748.0 356565.0 0
226140.0 353131.0 0
231713.0 353127.0 0
229925.0 356228.0 0
234126.0 356800.0 0
235568.0 352518.0 0
237594.0 355672.0 0
240469.0 354874.0 0
247147.0 355473.0 0
252728.0 353314.0 0
250092.0 356735.0 0
257114.0 355979.0 0
262495.0 353145.0 0
265257.0 352234.0 0
261651.0 356888.0 0
268490.0 353088.0 0
265512.0 356295.0 0
273464.0 353652.0 0
278317.0 353486.0 0
281606.0 352112.0 0
285096.0 353568.0 0
288673.0 354260.0 0
291984.0 355665.0 0
296902.0 353618.0 0
298162.0 357112.0 0
304194.0 352962.0 0
203065.0 357483.0 0
202959.0 361528.0 0
207024.0 360780.0 0
212304.0 357222.0 0
213819.0 359430.0 0
210934.0 359941.0 0
216612.0 359480.0 0
219821.0 358959.0 0
223423.0 360574.0 0
226138.0 358536.0 0
230310.0 359725.0 0
233322.0 361057.0 0
237027.0 359580.0 0
239867.0 358734.0 0
243811.0 357436.0 0
242380.0 361162.0 0
247660.0 358947.0 0
245605.0 361287.0 0
253074.0 358446.0 0
250041.0 361468.0 0
254557.0 361719.0 0
258285.0 360811.0 0
262646.0 360982.0 0
269921.0 357453.0 0
266429.0 360576.0 0
272923.0 358550.0 0
270646.0 361525.0 0
274528.0 361804.0 0
276241.0 357588.0 0
278522.0 361383.0 0
281144.0 357330.0 0
285469.0 357217.0 0
283306.0 361492.0 0
288504.0 358418.0 0
294816.0 357154.0 0
292398.0 360102.0 0
296751.0 360681.0 0
197681.0 365124.0 0
201531.0 364360.0 0
202480.0 366956.0 0
208203.0 363904.0 0
204964.0 364781.0 0
211702.0 363071.0 0
209343.0 367088.0 0
212469.0 366119.0 0
215305.0 362438.0 0
215548.0 366270.0 0
219596.0 363437.0 0
224474.0 364145.0 0
227885.0 362357.0 0
227728.0 365557.0 0
231205.0 364272.0 0
234445.0 366240.0 0
235983.0 363013.0 0
239431.0 363245.0 0
237954.0 367110.0 0
243335.0 365205.0 0
247439.0 364358.0 0
249959.0 366180.0 0
252553.0 364822.0 0
259897.0 364395.0 0
256458.0 364794.0 0
263615.0 364656.0 0
267601.0 365057.0 0
272014.0 365648.0 0
274767.0 367204.0 0
276267.0 365018.0 0
280159.0 365367.0 0
283903.0 367020.0 0
287748.0 363484.0 0
293047.0 364811.0 0
297793.0 364220.0 0
202386.0 370030.0 0
206471.0 368414.0 0
205528.0 371326.0 0
207715.0 371963.0 0
209889.0 371377.0 0
211835.0 369401.0 0
215257.0 369414.0 0
218556.0 367461.0 0
217962.0 369887.0 0
221959.0 367678.0 0
221322.0 371340.0 0
225858.0 368262.0 0
224963.0 371904.0 0
228765.0 370822.0 0
229628.0 367515.0 0
232307.0 368712.0 0
232073.0 372040.0 0
234837.0 369701.0 0
237296.0 370710.0 0
240812.0 367842.0 0
239889.0 370707.0 0
243309.0 370363.0 0
246619.0 368481.0 0
246347.0 372392.0 0
250116.0 369752.0 0
253858.0 368278.0 0
253180.0 372038.0 0
257764.0 367898.0 0
256628.0 371854.0 0
261897.0 367923.0 0
264854.0 367825.0 0
260639.0 371975.0 0
264424.0 370795.0 0
266724.0 369252.0 0
269981.0 368673.0 0
268793.0 371142.0 0
272969.0 369635.0 0
276920.0 369375.0 0
280352.0 369772.0 0
283255.0 370338.0 0
287832.0 368411.0 0
286657.0 372274.0 0
290097.0 372280.0 0
291839.0 368952.0 0
294629.0 371035.0 0
297969.0 370660.0 0
297328.0 367412.0 0
202292.0 372861.0 0
200360.0 375553.0 0
204065.0 377055.0 0
204857.0 374034.0 0
207362.0 374249.0 0
208981.0 376548.0 0
210234.0 374007.0 0
214284.0 372787.0 0
212436.0 375349.0 0
217814.0 372518.0 0
216027.0 375649.0 0
218552.0 375245.0 0
221423.0 374850.0 0
227806.0 373792.0 0
225258.0 375952.0 0
230329.0 375411.0 0
233264.0 376966.0 0
234960.0 373666.0 0
238670.0 374581.0 0
236253.0 376926.0 0
241377.0 373536.0 0
244398.0 375578.0 0
248916.0 373159.0 0
248096.0 377316.0 0
251526.0 373815.0 0
251934.0 376431.0 0
258963.0 374918.0 0
255611.0 375896.0 0
262788.0 374620.0 0
260284.0 376768.0 0
263658.0 377227.0 0
266195.0 373707.0 0
269171.0 374620.0 0
270080.0 377399.0 0
271353.0 372511.0 0
274910.0 373114.0 0
272047.0 375427.0 0
274436.0 376831.0 0
278673.0 373502.0 0
277464.0 377425.0 0
282505.0 374532.0 0
285158.0 377219.0 0
288599.0 376127.0 0
292227.0 373250.0 0
295147.0 374939.0 0
292204.0 376586.0 0
298002.0 373537.0 0
297530.0 376896.0 0
196859.0 379465.0 0
194814.0 381239.0 0
197423.0 382502.0 0
199398.0 378520.0 0
202383.0 379926.0 0
200002.0 382021.0 0
204189.0 381750.0 0
206795.0 378197.0 0
207208.0 382170.0 0
212135.0 378637.0 0
210761.0 381970.0 0
215429.0 378459.0 0
218820.0 378116.0 0
217519.0 381046.0 0
215407.0 382624.0 0
222162.0 378740.0 0
228172.0 378717.0 0
224962.0 380900.0 0
229105.0 382461.0 0
231555.0 379265.0 0
232051.0 381903.0 0
238877.0 377936.0 0
235845.0 381141.0 0
241690.0 378024.0 0
239824.0 381010.0 0
242258.0 382209.0 0
244971.0 380617.0 0
248079.0 382311.0 0
251488.0 380386.0 0
258428.0 378161.0 0
255149.0 379927.0 0
259066.0 381735.0 0
261644.0 379035.0 0
264240.0 381859.0 0
266671.0 378271.0 0
268999.0 380998.0 0
272438.0 380197.0 0
275824.0 381416.0 0
279097.0 381164.0 0
280848.0 378179.0 0
283494.0 380020.0 0
288030.0 379775.0 0
290141.0 381055.0 0
285865.0 381952.0 0
293095.0 379763.0 0
299804.0 377773.0 0
296392.0 379419.0 0
300167.0 380988.0 0
296776.0 381919.0 0
302486.0 379519.0 0
304985.0 381095.0 0
307710.0 382387.0 0
186074.0 385912.0 0
183999.0 387314.0 0
188475.0 387344.0 0
192481.0 383067.0 0
189852.0 384660.0 0
192834.0 386928.0 0
194844.0 385065.0 0
197395.0 384925.0 0
195796.0 387136.0 0
198577.0 386919.0 0
200951.0 384359.0 0
200802.0 387276.0 0
203231.0 384472.0 0
205935.0 386335.0 0
208998.0 387308.0 0
212560.0 385315.0 0
217563.0 385115.0 0
214835.0 387692.0 0
220608.0 382713.0 0
223067.0 385756.0 0
219997.0 387310.0 0
225987.0 383901.0 0
227706.0 386652.0 0
231004.0 385825.0 0
234718.0 386052.0 0
238869.0 385104.0 0
242547.0 385658.0 0
246297.0 385863.0 0
251605.0 384940.0 0
255372.0 384000.0 0
256887.0 387107.0 0
264703.0 386328.0 0
260750.0 385746.0 0
267817.0 383941.0 0
271751.0 384292.0 0
275353.0 385665.0 0
278959.0 384568.0 0
280294.0 386524.0 0
281739.0 382850.0 0
283688.0 385045.0 0
286748.0 386835.0 0
287639.0 383797.0 0
290330.0 383969.0 0
289864.0 387446.0 0
294242.0 383003.0 0
293117.0 385386.0 0
299192.0 382966.0 0
298608.0 385400.0 0
296127.0 385092.0 0
304012.0 383604.0 0
302093.0 384654.0 0
305796.0 385259.0 0
309510.0 384331.0 0
308394.0 386735.0 0
312274.0 385313.0 0
314760.0 386521.0 0
177709.0 391003.0 0
182138.0 388668.0 0
180391.0 390433.0 0
186057.0 389687.0 0
183913.0 391244.0 0
186956.0 392201.0 0
190449.0 389824.0 0
189785.0 392469.0 0
193382.0 389427.0 0
196457.0 389214.0 0
194182.0 392225.0 0
198512.0 390698.0 0
202988.0 388530.0 0
201066.0 392381.0 0
205445.0 390813.0 0
207986.0 391693.0 0
210536.0 389530.0 0
212718.0 390923.0 0
217290.0 389887.0 0
220877.0 391249.0 0
224662.0 388823.0 0
227856.0 389886.0 0
230670.0 389656.0 0
233136.0 389510.0 0
233421.0 391946.0 0
236075.0 390003.0 0
238742.0 388655.0 0
242022.0 389166.0 0
240715.0 392667.0 0
245327.0 389936.0 0
249319.0 388104.0 0
248364.0 391139.0 0
253516.0 388375.0 0
251552.0 390593.0 0
255189.0 390841.0 0
258645.0 390802.0 0
262529.0 389490.0 0
265462.0 389873.0 0
269203.0 388372.0 0
269496.0 392803.0 0
273045.0 388602.0 0
273235.0 391800.0 0
275734.0 390424.0 0
277885.0 388481.0 0
280044.0 390863.0 0
282710.0 388789.0 0
285722.0 390967.0 0
289331.0 390429.0 0
293456.0 388410.0 0
292452.0 391137.0 0
295630.0 391533.0 0
295967.0 387793.0 0
299538.0 388593.0 0
298521.0 391533.0 0
302763.0 387886.0 0
305656.0 388829.0 0
303537.0 392222.0 0
310512.0 389028.0 0
308060.0 391168.0 0
312401.0 388069.0 0
314509.0 389650.0 0
311801.0 391367.0 0
313783.0 391675.0 0
316819.0 388563.0 0
319208.0 389350.0 0
321202.0 390794.0 0
317375.0 392013.0 0
323540.0 392011.0 0
167356.0 397576.0 0
173301.0 393958.0 0
169517.0 396424.0 0
171241.0 395193.0 0
175857.0 392978.0 0
177505.0 394955.0 0
173838.0 396533.0 0
178357.0 397382.0 0
180578.0 393235.0 0
182862.0 394710.0 0
181235.0 397566.0 0
185894.0 395330.0 0
192469.0 393278.0 0
189314.0 395956.0 0
192435.0 395912.0 0
196138.0 392858.0 0
196658.0 394868.0 0
194705.0 396696.0 0
199362.0 395435.0 0
203931.0 394349.0 0
202849.0 397558.0 0
206824.0 395016.0 0
205712.0 397931.0 0
210383.0 393297.0 0
209432.0 396421.0 0
212174.0 396176.0 0
214362.0 393330.0 0
217818.0 395136.0 0
221885.0 395790.0 0
224060.0 393009.0 0
224066.0 397333.0 0
227609.0 393712.0 0
227144.0 397415.0 0
230814.0 393483.0 0
234622.0 394223.0 0
232619.0 396646.0 0
229860.0 397873.0 0
235948.0 397093.0 0
237208.0 393269.0 0
237940.0 396555.0 0
244156.0 393360.0 0
240830.0 396501.0 0
246613.0 393107.0 0
249554.0 394601.0 0
246461.0 395938.0 0
253360.0 394358.0 0
257266.0 394777.0 0
262028.0 393139.0 0
260842.0 396841.0 0
265181.0 397317.0 0
265598.0 393198.0 0
268482.0 396632.0 0
271883.0 395238.0 0
275045.0 395074.0 0
271264.0 397802.0 0
277668.0 393169.0 0
279892.0 395882.0 0
282056.0 393441.0 0
284792.0 394978.0 0
282647.0 397217.0 0
287833.0 397241.0 0
289084.0 393588.0 0
291922.0 397459.0 0
295211.0 394650.0 0
292399.0 394021.0 0
300844.0 393655.0 0
297719.0 394555.0 0
300852.0 396389.0 0
298663.0 397951.0 0
305004.0 394447.0 0
303288.0 396833.0 0
309267.0 393872.0 0
307277.0 396500.0 0
315250.0 394647.0 0
311948.0 395318.0 0
314981.0 397957.0 0
320238.0 393730.0 0
317990.0 396237.0 0
325536.0 393339.0 0
322303.0 395696.0 0
325334.0 396354.0 0
328132.0 395216.0 0
330196.0 397001.0 0
161161.0 402363.0 0
163028.0 400595.0 0
165871.0 399653.0 0
165957.0 402565.0 0
170153.0 398442.0 0
171890.0 398144.0 0
172896.0 400055.0 0
169173.0 400775.0 0
171460.0 402814.0 0
174849.0 398623.0 0
177161.0 400589.0 0
182494.0 399873.0 0
179607.0 401801.0 0
183496.0 402160.0 0
185482.0 398541.0 0
187451.0 400626.0 0
190214.0 398961.0 0
192547.0 401016.0 0
195977.0 399284.0 0
197377.0 402097.0 0
199279.0 398111.0 0
200151.0 401368.0 0
202846.0 400644.0 0
204998.0 402912.0 0
208119.0 399964.0 0
211334.0 400675.0 0
214984.0 399233.0 0
218106.0 401872.0 0
220247.0 398246.0 0
222526.0 400938.0 0
226605.0 401256.0 0
229885.0 401315.0 0
233181.0 400427.0 0
236555.0 400430.0 0
239105.0 399119.0 0
243826.0 398136.0 0
241251.0 401009.0 0
249310.0 398569.0 0
246327.0 401870.0 0
253323.0 399271.0 0
257185.0 398706.0 0
258540.0 401765.0 0
261938.0 400765.0 0
268689.0 400235.0 0
265636.0 401671.0 0
271933.0 401429.0 0
275235.0 398831.0 0
278756.0 398998.0 0
279390.0 403035.0 0
281261.0 399526.0 0
282619.0 402619.0 0
283866.0 399628.0 0
287495.0 400733.0 0
290191.0 402581.0 0
295520.0 398037.0 0
291674.0 400247.0 0
294668.0 401094.0 0
297806.0 401860.0 0
300560.0 401204.0 0
305421.0 399043.0 0
303031.0 400048.0 0
308941.0 398761.0 0
306730.0 402115.0 0
309221.0 401670.0 0
311513.0 398302.0 0
313173.0 400539.0 0
315576.0 401368.0 0
316848.0 399174.0 0
318906.0 398616.0 0
321331.0 398405.0 0
317887.0 401076.0 0
320259.0 401718.0 0
323329.0 401214.0 0
325795.0 399814.0 0
328647.0 399270.0 0
328104.0 402690.0 0
330750.0 401833.0 0
332612.0 398460.0 0
334703.0 400207.0 0
337623.0 400601.0 0
156681.0 404782.0 0
154768.0 406813.0 0
158870.0 403551.0 0
162673.0 404452.0 0
159836.0 406176.0 0
163837.0 407019.0 0
166245.0 405480.0 0
169783.0 406327.0 0
173211.0 407695.0 0
175149.0 403224.0 0
176258.0 406324.0 0
180695.0 403836.0 0
183072.0 405363.0 0
178884.0 405561.0 0
180907.0 407215.0 0
186392.0 403568.0 0
184475.0 407881.0 0
187530.0 406687.0 0
190186.0 403205.0 0
190570.0 406071.0 0
193003.0 407604.0 0
194123.0 403934.0 0
197273.0 405368.0 0
198215.0 407917.0 0
200807.0 404132.0 0
201377.0 406600.0 0
204233.0 406611.0 0
207248.0 407497.0 0
208474.0 404352.0 0
211415.0 404608.0 0
209846.0 407766.0 0
212258.0 407809.0 0
213898.0 408148.0 0
214420.0 404347.0 0
216474.0 406073.0 0
219141.0 405323.0 0
222830.0 405227.0 0
226657.0 404967.0 0
229769.0 405601.0 0
232967.0 404358.0 0
233685.0 407478.0 0
236146.0 404305.0 0
239231.0 403257.0 0
237029.0 407880.0 0
240461.0 406408.0 0
242499.0 403428.0 0
244226.0 406636.0 0
247711.0 406270.0 0
250579.0 403080.0 0
253416.0 404140.0 0
250608.0 406718.0 0
253712.0 407510.0 0
255888.0 403175.0 0
257292.0 407032.0 0
260613.0 405287.0 0
264235.0 404969.0 0
267280.0 406204.0 0
267945.0 403522.0 0
270372.0 404121.0 0
273196.0 406269.0 0
275821.0 403844.0 0
280299.0 406808.0 0
282584.0 405613.0 0
284949.0 407267.0 0
285769.0 403740.0 0
288803.0 405421.0 0
291719.0 407124.0 0
293544.0 404331.0 0
295827.0 407042.0 0
297303.0 404031.0 0
299229.0 406739.0 0
304660.0 403674.0 0
301772.0 404925.0 0
304482.0 408020.0 0
306891.0 405986.0 0
309657.0 406664.0 0
311498.0 403822.0 0
314270.0 405208.0 0
315134.0 407758.0 0
316427.0 403612.0 0
319308.0 404648.0 0
318075.0 407213.0 0
324252.0 404196.0 0
322239.0 405995.0 0
325767.0 407463.0 0
327257.0 405289.0 0
330762.0 407747.0 0
332029.0 404712.0 0
334602.0 403217.0 0
334905.0 407002.0 0
337593.0 405431.0 0
339513.0 403113.0 0
341802.0 406558.0 0
342364.0 403528.0 0
344286.0 404970.0 0
346446.0 407173.0 0
144494.0 412636.0 0
146978.0 411373.0 0
149840.0 410340.0 0
152030.0 408214.0 0
157132.0 409191.0 0
153935.0 410783.0 0
157153.0 412150.0 0
160821.0 408426.0 0
159727.0 413192.0 0
162061.0 410768.0 0
164804.0 409258.0 0
166316.0 410447.0 0
163906.0 412545.0 0
166227.0 413238.0 0
168881.0 409834.0 0
169674.0 412461.0 0
173029.0 410374.0 0
173010.0 412842.0 0
177220.0 409823.0 0
176345.0 412985.0 0
180474.0 410140.0 0
187945.0 409752.0 0
183995.0 411339.0 0
190484.0 410875.0 0
193025.0 412212.0 0
195201.0 409875.0 0
196867.0 412191.0 0
200174.0 410495.0 0
203489.0 410510.0 0
206801.0 410965.0 0
210353.0 410981.0 0
213175.0 411775.0 0
216121.0 408498.0 0
216761.0 412119.0 0
219559.0 408750.0 0
222143.0 411017.0 0
223852.0 408365.0 0
225083.0 412969.0 0
226787.0 409249.0 0
230644.0 410202.0 0
234622.0 410975.0 0
238056.0 412112.0 0
241199.0 410448.0 0
245316.0 410613.0 0
248209.0 409526.0 0
251208.0 411400.0 0
255987.0 412758.0 0
259781.0 409752.0 0
262402.0 408925.0 0
260690.0 412860.0 0
264016.0 412482.0 0
270137.0 408194.0 0
265429.0 408505.0 0
268017.0 411615.0 0
274183.0 410541.0 0
277353.0 408286.0 0
279823.0 411859.0 0
282737.0 409935.0 0
285878.0 411075.0 0
288177.0 408979.0 0
289654.0 412180.0 0
292381.0 409814.0 0
295062.0 409402.0 0
296627.0 411862.0 0
299227.0 410085.0 0
302529.0 409673.0 0
301184.0 413222.0 0
306373.0 410308.0 0
308847.0 409706.0 0
310363.0 411880.0 0
312146.0 408489.0 0
313866.0 411740.0 0
320074.0 409690.0 0
317574.0 411249.0 0
322882.0 408935.0 0
325113.0 412036.0 0
327934.0 410100.0 0
330180.0 412173.0 0
333429.0 410331.0 0
336525.0 411100.0 0
338593.0 408685.0 0
340832.0 410514.0 0
343814.0 408740.0 0
344970.0 412078.0 0
349018.0 408925.0 0
348258.0 411945.0 0
352055.0 409624.0 0
353745.0 411862.0 0
356133.0 413255.0 0
136285.0 416902.0 0
140309.0 414767.0 0
138254.0 415496.0 0
142240.0 413899.0 0
140786.0 418312.0 0
138341.0 418308.0 0
143719.0 418110.0 0
145578.0 416020.0 0
148375.0 415589.0 0
151461.0 414069.0 0
151723.0 417341.0 0
154605.0 413990.0 0
156493.0 416556.0 0
159288.0 417797.0 0
161983.0 415431.0 0
164641.0 416893.0 0
168317.0 415920.0 0
172139.0 416178.0 0
175660.0 416576.0 0
179355.0 413715.0 0
182043.0 414409.0 0
178837.0 416858.0 0
182428.0 417255.0 0
186258.0 413837.0 0
185375.0 416844.0 0
188516.0 417922.0 0
189142.0 414171.0 0
191575.0 415112.0 0
191887.0 418331.0 0
194341.0 414232.0 0
195552.0 417422.0 0
197804.0 414358.0 0
200522.0 413910.0 0
199437.0 417289.0 0
203327.0 414265.0 0
202680.0 417678.0 0
206382.0 414358.0 0
205789.0 417744.0 0
208318.0 417240.0 0
209457.0 414410.0 0
212292.0 416262.0 0
215962.0 416182.0 0
219247.0 418232.0 0
219272.0 416232.0 0
220304.0 413507.0 0
223180.0 416745.0 0
226742.0 417413.0 0
228170.0 414024.0 0
229380.0 417684.0 0
231763.0 415355.0 0
234566.0 414029.0 0
236997.0 416144.0 0
240496.0 414784.0 0
242836.0 417768.0 0
243744.0 414267.0 0
240000.0 417754.0 0
245890.0 417615.0 0
247894.0 414209.0 0
249713.0 418278.0 0
251293.0 415238.0 0
253187.0 417068.0 0
260391.0 416786.0 0
263665.0 416016.0 0
267531.0 416191.0 0
271661.0 413535.0 0
271311.0 418304.0 0
274682.0 415689.0 0
277104.0 413812.0 0
279189.0 417641.0 0
282049.0 415406.0 0
284133.0 413326.0 0
284914.0 418196.0 0
286777.0 413822.0 0
288259.0 417182.0 0
290797.0 415562.0 0
293389.0 413413.0 0
293730.0 418071.0 0
296435.0 415053.0 0
299581.0 416269.0 0
305103.0 413378.0 0
302497.0 417832.0 0
304911.0 416721.0 0
308686.0 414160.0 0
310990.0 415549.0 0
308089.0 417289.0 0
314163.0 415341.0 0
319364.0 414073.0 0
317498.0 416581.0 0
320496.0 418134.0 0
322256.0 413930.0 0
322881.0 417134.0 0
325337.0 417098.0 0
327425.0 415075.0 0
330467.0 414730.0 0
333817.0 413950.0 0
331928.0 417470.0 0
334966.0 417967.0 0
337166.0 415960.0 0
338058.0 413581.0 0
341813.0 413353.0 0
339795.0 418179.0 0
346618.0 415150.0 0
342123.0 415983.0 0
346113.0 417570.0 0
350871.0 413924.0 0
351228.0 416608.0 0
354758.0 416413.0 0
356609.0 418139.0 0
358548.0 414562.0 0
361332.0 415035.0 0
359363.0 417015.0 0
362738.0 416523.0 0
129853.0 421028.0 0
127813.0 423445.0 0
134537.0 418812.0 0
132835.0 420718.0 0
134723.0 423135.0 0
136999.0 420719.0 0
140708.0 421225.0 0
138244.0 422129.0 0
142459.0 423238.0 0
144968.0 421302.0 0
148387.0 418389.0 0
152028.0 420509.0 0
148390.0 421539.0 0
154427.0 418692.0 0
156656.0 420720.0 0
153299.0 423136.0 0
156557.0 423001.0 0
161176.0 420651.0 0
160085.0 423087.0 0
168298.0 419752.0 0
164621.0 420652.0 0
171997.0 419079.0 0
170068.0 422310.0 0
175348.0 419696.0 0
173645.0 422418.0 0
178583.0 420439.0 0
181923.0 420685.0 0
185621.0 419206.0 0
185124.0 422029.0 0
188353.0 420945.0 0
191858.0 422309.0 0
195484.0 421008.0 0
199037.0 420661.0 0
202582.0 421893.0 0
206430.0 421092.0 0
209834.0 419701.0 0
210236.0 422654.0 0
213268.0 420171.0 0
216639.0 420138.0 0
220731.0 420388.0 0
224267.0 420883.0 0
226909.0 420414.0 0
227572.0 423453.0 0
230282.0 420534.0 0
233973.0 419291.0 0
237923.0 420553.0 0
241954.0 421071.0 0
246086.0 421429.0 0
253057.0 420450.0 0
250218.0 422735.0 0
256724.0 418492.0 0
258515.0 421935.0 0
255661.0 422238.0 0
261373.0 420544.0 0
264941.0 419229.0 0
268443.0 421097.0 0
271532.0 423273.0 0
274978.0 421541.0 0
276086.0 418426.0 0
278968.0 422405.0 0
282447.0 420720.0 0
284787.0 423408.0 0
287365.0 421972.0 0
290340.0 420249.0 0
291401.0 423434.0 0
293437.0 421835.0 0
297033.0 418394.0 0
296903.0 422081.0 0
299687.0 420139.0 0
306039.0 420083.0 0
302958.0 421687.0 0
310530.0 418951.0 0
309268.0 421784.0 0
313496.0 418375.0 0
314627.0 421252.0 0
317026.0 419298.0 0
320386.0 421399.0 0
323838.0 421351.0 0
326735.0 420000.0 0
329587.0 419402.0 0
331502.0 422067.0 0
328285.0 423459.0 0
334293.0 421126.0 0
336780.0 423130.0 0
339124.0 420862.0 0
343372.0 419504.0 0
343150.0 422217.0 0
348116.0 420336.0 0
351772.0 419816.0 0
354389.0 420443.0 0
355247.0 422908.0 0
360988.0 419439.0 0
358046.0 421146.0 0
364213.0 418396.0 0
366763.0 419440.0 0
362254.0 422088.0 0
364352.0 421404.0 0
368834.0 421654.0 0
371869.0 422897.0 0
118470.0 428519.0 0
120854.0 427147.0 0
122866.0 425614.0 0
125509.0 424856.0 0
127065.0 428239.0 0
130739.0 424264.0 0
132365.0 426159.0 0
129540.0 428499.0 0
136420.0 424714.0 0
134828.0 427802.0 0
139263.0 424660.0 0
139613.0 427248.0 0
142109.0 427860.0 0
146371.0 424989.0 0
143308.0 425608.0 0
146854.0 427782.0 0
150172.0 424287.0 0
150299.0 426960.0 0
153048.0 426110.0 0
156374.0 426331.0 0
159530.0 426393.0 0
162502.0 426250.0 0
164939.0 424046.0 0
165147.0 427622.0 0
168282.0 425179.0 0
167223.0 428292.0 0
171084.0 427091.0 0
173351.0 425783.0 0
177321.0 423960.0 0
176038.0 427851.0 0
180471.0 424788.0 0
179819.0 428191.0 0
187812.0 423905.0 0
183864.0 425588.0 0
186433.0 428239.0 0
186658.0 426301.0 0
189844.0 426069.0 0
197170.0 423602.0 0
194380.0 425762.0 0
197927.0 427463.0 0
200074.0 424751.0 0
201650.0 427721.0 0
204202.0 425146.0 0
207751.0 424953.0 0
212991.0 423512.0 0
211259.0 426502.0 0
214272.0 427421.0 0
217086.0 424479.0 0
219452.0 428501.0 0
221478.0 423878.0 0
223754.0 427493.0 0
225092.0 423721.0 0
228008.0 426710.0 0
230849.0 423619.0 0
234349.0 423648.0 0
231790.0 426523.0 0
235014.0 428551.0 0
238431.0 424798.0 0
243085.0 424891.0 0
241780.0 427864.0 0
247039.0 426552.0 0
253543.0 424329.0 0
251306.0 426993.0 0
256967.0 425504.0 0
265081.0 423916.0 0
260625.0 424775.0 0
263667.0 427949.0 0
268991.0 425113.0 0
272462.0 427382.0 0
274915.0 425006.0 0
277706.0 426094.0 0
280371.0 427168.0 0
281980.0 424988.0 0
282801.0 427725.0 0
285705.0 426612.0 0
289079.0 425144.0 0
292614.0 428213.0 0
294109.0 424968.0 0
297493.0 426202.0 0
301173.0 425008.0 0
304729.0 426769.0 0
306391.0 424107.0 0
309523.0 424880.0 0
308557.0 427291.0 0
312395.0 423788.0 0
312062.0 427409.0 0
315046.0 425350.0 0
315456.0 428015.0 0
317817.0 423490.0 0
319042.0 427212.0 0
322890.0 424189.0 0
321486.0 425215.0 0
325775.0 424458.0 0
324510.0 426894.0 0
329319.0 426454.0 0
330960.0 428564.0 0
331914.0 424888.0 0
334571.0 426152.0 0
339434.0 425661.0 0
341643.0 424341.0 0
338164.0 428084.0 0
341924.0 427717.0 0
344118.0 426609.0 0
347029.0 424074.0 0
351404.0 423525.0 0
348861.0 427271.0 0
351956.0 428118.0 0
353753.0 425215.0 0
357073.0 426438.0 0
359647.0 424399.0 0
364218.0 423782.0 0
366940.0 424057.0 0
362400.0 426902.0 0
366394.0 426619.0 0
369618.0 425694.0 0
369626.0 428032.0 0
374089.0 425252.0 0
377174.0 426167.0 0
372636.0 427953.0 0
379631.0 427458.0 0
111869.0 433152.0 0
113684.0 430961.0 0
116661.0 430501.0 0
117196.0 433503.0 0
121882.0 430169.0 0
120329.0 431975.0 0
124374.0 428927.0 0
124061.0 432623.0 0
126640.0 431983.0 0
131873.0 430409.0 0
128725.0 432044.0 0
132030.0 432926.0 0
137138.0 429992.0 0
135611.0 433223.0 0
140086.0 431416.0 0
143742.0 430576.0 0
146652.0 432152.0 0
148626.0 430384.0 0
151249.0 429185.0 0
150409.0 431606.0 0
152856.0 431169.0 0
153328.0 429140.0 0
156398.0 429822.0 0
153585.0 433472.0 0
156546.0 433076.0 0
159508.0 429997.0 0
162416.0 430162.0 0
159330.0 433150.0 0
165740.0 430205.0 0
166858.0 433550.0 0
169422.0 429414.0 0
172845.0 429336.0 0
170590.0 432525.0 0
174725.0 431828.0 0
178488.0 431527.0 0
183463.0 429119.0 0
181754.0 431960.0 0
188370.0 429424.0 0
186101.0 431451.0 0
189324.0 433406.0 0
192711.0 430146.0 0
197006.0 430552.0 0
200599.0 430988.0 0
203429.0 432846.0 0
205469.0 429109.0 0
207069.0 433059.0 0
209344.0 429572.0 0
212995.0 430095.0 0
216354.0 429380.0 0
215844.0 432981.0 0
220617.0 432776.0 0
225898.0 431365.0 0
230378.0 430074.0 0
233492.0 432854.0 0
238813.0 429093.0 0
237790.0 432718.0 0
241039.0 430967.0 0
244625.0 430202.0 0
249594.0 430761.0 0
252699.0 433153.0 0
254612.0 429103.0 0
256716.0 433485.0 0
259752.0 430002.0 0
263882.0 431532.0 0
268042.0 429369.0 0
266456.0 433455.0 0
272170.0 431248.0 0
276260.0 429839.0 0
280504.0 430635.0 0
284825.0 430798.0 0
288689.0 429243.0 0
288595.0 433153.0 0
291693.0 431685.0 0
293760.0 432694.0 0
300970.0 428781.0 0
297159.0 430468.0 0
301510.0 432873.0 0
304087.0 430379.0 0
305293.0 433618.0 0
308228.0 430459.0 0
311792.0 430558.0 0
314604.0 430421.0 0
316400.0 433128.0 0
318744.0 430875.0 0
322343.0 428668.0 0
322344.0 431700.0 0
325457.0 431420.0 0
327009.0 428907.0 0
328291.0 433339.0 0
329527.0 430835.0 0
333637.0 429333.0 0
336597.0 430296.0 0
332472.0 432082.0 0
335717.0 431991.0 0
334763.0 432979.0 0
340740.0 430042.0 0
336738.0 433349.0 0
339007.0 432240.0 0
345413.0 429390.0 0
342992.0 431000.0 0
348487.0 430186.0 0
347213.0 432721.0 0
350609.0 430988.0 0
350830.0 433454.0 0
354146.0 430176.0 0
357083.0 429236.0 0
354053.0 432859.0 0
360818.0 429550.0 0
358795.0 431728.0 0
362023.0 433288.0 0
365239.0 429344.0 0
362422.0 431454.0 0
364647.0 432544.0 0
368383.0 430191.0 0
367452.0 432613.0 0
371220.0 432178.0 0
373781.0 431018.0 0
376521.0 429429.0 0
375935.0 433288.0 0
378628.0 431195.0 0
381741.0 429884.0 0
384220.0 431614.0 0
387483.0 432336.0 0
104715.0 438084.0 0
109322.0 434156.0 0
107189.0 436082.0 0
110162.0 437595.0 0
114024.0 435396.0 0
114519.0 438151.0 0
119555.0 435694.0 0
118723.0 438614.0 0
123151.0 435542.0 0
127066.0 435284.0 0
123494.0 438744.0 0
127094.0 438000.0 0
130031.0 435024.0 0
130071.0 437489.0 0
133981.0 436289.0 0
137857.0 434890.0 0
140120.0 434041.0 0
138133.0 437175.0 0
141790.0 437512.0 0
143221.0 434028.0 0
145600.0 435238.0 0
147409.0 434183.0 0
145314.0 438116.0 0
150218.0 434748.0 0
148714.0 438226.0 0
153372.0 436415.0 0
156655.0 436470.0 0
162478.0 434350.0 0
159745.0 437123.0 0
164212.0 437943.0 0
167225.0 437029.0 0
170486.0 436515.0 0
172893.0 435371.0 0
175595.0 434836.0 0
175247.0 437800.0 0
178830.0 435355.0 0
181600.0 435299.0 0
182680.0 438489.0 0
184475.0 433942.0 0
186807.0 437094.0 0
190595.0 438316.0 0
191517.0 435303.0 0
193983.0 434089.0 0
197820.0 434290.0 0
194508.0 437960.0 0
198392.0 438365.0 0
201342.0 435737.0 0
205740.0 436516.0 0
209138.0 438327.0 0
210769.0 434059.0 0
213535.0 437273.0 0
217316.0 437587.0 0
221080.0 437488.0 0
224251.0 435694.0 0
226780.0 438469.0 0
229356.0 434771.0 0
232172.0 438172.0 0
235501.0 436254.0 0
238650.0 437236.0 0
241971.0 434456.0 0
244442.0 437911.0 0
241374.0 438206.0 0
246751.0 433983.0 0
247904.0 438195.0 0
250486.0 435816.0 0
253201.0 438566.0 0
254811.0 435774.0 0
257658.0 438285.0 0
259902.0 435075.0 0
262882.0 434701.0 0
266164.0 437852.0 0
270166.0 434493.0 0
270286.0 438446.0 0
273432.0 438291.0 0
274852.0 434238.0 0
279258.0 435212.0 0
283199.0 434080.0 0
283084.0 437215.0 0
285641.0 438288.0 0
286067.0 435254.0 0
288804.0 437778.0 0
291920.0 438590.0 0
291728.0 435283.0 0
295738.0 434914.0 0
294456.0 437452.0 0
299022.0 434847.0 0
297951.0 438467.0 0
301436.0 436932.0 0
303698.0 435273.0 0
304912.0 438768.0 0
308618.0 433864.0 0
306930.0 436582.0 0
310645.0 438093.0 0
312773.0 434434.0 0
315108.0 437564.0 0
320098.0 434297.0 0
317883.0 436354.0 0
320667.0 438471.0 0
325449.0 434045.0 0
323140.0 435751.0 0
327307.0 436873.0 0
331601.0 435606.0 0
335918.0 436450.0 0
340160.0 435098.0 0
341781.0 438725.0 0
343692.0 434235.0 0
345268.0 437913.0 0
347892.0 435678.0 0
351156.0 436575.0 0
357088.0 434795.0 0
354228.0 437017.0 0
360791.0 434572.0 0
362447.0 437520.0 0
365343.0 435808.0 0
368124.0 435595.0 0
369366.0 433775.0 0
372211.0 434997.0 0
370851.0 436862.0 0
374270.0 435311.0 0
376606.0 437670.0 0
378375.0 435193.0 0
380795.0 434415.0 0
380627.0 438615.0 0
384631.0 435156.0 0
387230.0 436616.0 0
382911.0 437222.0 0
389765.0 434638.0 0
392344.0 436546.0 0
394996.0 438039.0 0
96023.9 442383.0 0
99000.9 441465.0 0
102054.0 439969.0 0
107053.0 440015.0 0
104227.0 443298.0 0
110842.0 440239.0 0
107620.0 442744.0 0
116250.0 440521.0 0
112421.0 442220.0 0
115878.0 443383.0 0
120111.0 440791.0 0
121021.0 443077.0 0
124236.0 441327.0 0
127818.0 440691.0 0
130687.0 440030.0 0
131425.0 443241.0 0
133766.0 438975.0 0
137261.0 439175.0 0
134684.0 442509.0 0
138156.0 441751.0 0
141403.0 440935.0 0
144888.0 441351.0 0
152217.0 439512.0 0
148007.0 441328.0 0
151501.0 442729.0 0
155683.0 440000.0 0
155238.0 443233.0 0
158500.0 440358.0 0
161874.0 439336.0 0
160960.0 441532.0 0
158545.0 443686.0 0
162954.0 442893.0 0
165000.0 440773.0 0
167731.0 443020.0 0
168690.0 439513.0 0
172476.0 438938.0 0
171302.0 442433.0 0
178555.0 439688.0 0
174823.0 441714.0 0
180634.0 443475.0 0
183871.0 441737.0 0
187134.0 441173.0 0
190442.0 441625.0 0
194035.0 442030.0 0
198133.0 441986.0 0
202582.0 440002.0 0
204848.0 443836.0 0
206445.0 440396.0 0
208767.0 442736.0 0
212442.0 440762.0 0
215477.0 441657.0 0
219363.0 441868.0 0
222123.0 443867.0 0
223076.0 439929.0 0
225376.0 442552.0 0
229555.0 441343.0 0
232402.0 443805.0 0
235658.0 441151.0 0
239089.0 440590.0 0
242139.0 441351.0 0
246246.0 442215.0 0
250332.0 440984.0 0
255654.0 441188.0 0
258560.0 443142.0 0
261787.0 439473.0 0
262551.0 443730.0 0
265722.0 442418.0 0
269339.0 441342.0 0
271997.0 441390.0 0
274712.0 442657.0 0
277087.0 439348.0 0
281078.0 439983.0 0
284105.0 440443.0 0
286970.0 440990.0 0
290707.0 441869.0 0
294695.0 440695.0 0
298186.0 443827.0 0
301611.0 440825.0 0
304593.0 442839.0 0
308304.0 441525.0 0
312465.0 443571.0 0
313406.0 440656.0 0
317404.0 441292.0 0
324626.0 439980.0 0
321593.0 443341.0 0
325632.0 443875.0 0
328454.0 440175.0 0
331575.0 439149.0 0
331340.0 441599.0 0
329053.0 443613.0 0
333180.0 443766.0 0
335240.0 440927.0 0
338940.0 439293.0 0
338427.0 443681.0 0
341883.0 442362.0 0
345584.0 441714.0 0
348977.0 438888.0 0
349666.0 442669.0 0
352162.0 439860.0 0
355723.0 440427.0 0
359049.0 438860.0 0
360872.0 442379.0 0
366976.0 439797.0 0
364028.0 441132.0 0
369221.0 438780.0 0
369181.0 443599.0 0
371800.0 441391.0 0
374070.0 439234.0 0
376972.0 442440.0 0
379367.0 440550.0 0
381716.0 443170.0 0
384345.0 439534.0 0
387271.0 439088.0 0
383777.0 441668.0 0
386564.0 443529.0 0
388244.0 441637.0 0
390409.0 439085.0 0
390997.0 441942.0 0
393276.0 441000.0 0
397760.0 438949.0 0
394524.0 443797.0 0
395926.0 441882.0 0
400184.0 440940.0 0
398505.0 443238.0 0
402970.0 441954.0 0
405348.0 443114.0 0
86510.0 448879.0 0
88154.8 446530.0 0
91278.8 446500.0 0
93911.0 444823.0 0
96624.0 446254.0 0
93759.2 448856.0 0
99267.2 444684.0 0
97227.9 448661.0 0
99906.0 448715.0 0
102255.0 446158.0 0
106237.0 445766.0 0
104461.0 448746.0 0
109166.0 445067.0 0
112245.0 445010.0 0
108315.0 448683.0 0
115751.0 446344.0 0
112624.0 447407.0 0
117328.0 448293.0 0
118578.0 444217.0 0
119104.0 446681.0 0
125265.0 444383.0 0
122500.0 446634.0 0
125511.0 448227.0 0
128399.0 444659.0 0
128289.0 447804.0 0
132173.0 446301.0 0
131650.0 448784.0 0
135260.0 445512.0 0
134491.0 447921.0 0
137374.0 447700.0 0
138187.0 444730.0 0
141332.0 444746.0 0
140957.0 448796.0 0
144957.0 444586.0 0
145357.0 448102.0 0
148452.0 444304.0 0
151804.0 445469.0 0
149433.0 447518.0 0
152812.0 448967.0 0
154546.0 446260.0 0
157532.0 447542.0 0
161264.0 445828.0 0
165041.0 444309.0 0
164566.0 447720.0 0
168509.0 446451.0 0
172809.0 445997.0 0
176906.0 444674.0 0
177785.0 448828.0 0
182196.0 447232.0 0
185522.0 444533.0 0
186317.0 448245.0 0
188798.0 444847.0 0
189520.0 448215.0 0
192063.0 445217.0 0
192802.0 448451.0 0
195845.0 445680.0 0
200538.0 445373.0 0
203752.0 447496.0 0
207687.0 447428.0 0
212467.0 445507.0 0
216395.0 444984.0 0
219370.0 447703.0 0
224163.0 447079.0 0
228316.0 445588.0 0
231618.0 448449.0 0
235298.0 445532.0 0
239027.0 445069.0 0
242934.0 444965.0 0
242504.0 448145.0 0
246293.0 447196.0 0
249381.0 445029.0 0
253558.0 444661.0 0
257208.0 447302.0 0
260905.0 447614.0 0
265886.0 447428.0 0
268929.0 444481.0 0
271881.0 444034.0 0
270846.0 447270.0 0
274691.0 447215.0 0
278929.0 443907.0 0
278661.0 448447.0 0
283822.0 444285.0 0
281457.0 447406.0 0
283970.0 448977.0 0
287822.0 444309.0 0
287055.0 447646.0 0
293959.0 444553.0 0
291241.0 447232.0 0
296136.0 448647.0 0
300816.0 447690.0 0
302350.0 444808.0 0
305573.0 446504.0 0
309555.0 445510.0 0
312902.0 447401.0 0
315578.0 444902.0 0
316265.0 448899.0 0
318756.0 446320.0 0
322391.0 447397.0 0
325615.0 447331.0 0
329065.0 447309.0 0
332581.0 447309.0 0
336143.0 446623.0 0
340663.0 447927.0 0
342931.0 445433.0 0
345470.0 444769.0 0
345619.0 447907.0 0
348479.0 446296.0 0
353766.0 444158.0 0
352514.0 447453.0 0
355964.0 447279.0 0
357951.0 444090.0 0
359384.0 447559.0 0
362596.0 445556.0 0
365879.0 444429.0 0
364619.0 448352.0 0
367292.0 447421.0 0
368606.0 447199.0 0
372258.0 447100.0 0
374703.0 444487.0 0
377260.0 448372.0 0
379531.0 445701.0 0
382388.0 447315.0 0
384589.0 445395.0 0
386717.0 448597.0 0
389048.0 446086.0 0
391783.0 445248.0 0
397043.0 445907.0 0
394766.0 448018.0 0
402144.0 445189.0 0
400296.0 447326.0 0
404704.0 445495.0 0
407379.0 443941.0 0
403434.0 448798.0 0
405472.0 448843.0 0
406650.0 446743.0 0
409118.0 446319.0 0
411548.0 447064.0 0
413630.0 448789.0 0
81132.4 452463.0 0
84173.4 450974.0 0
85768.1 453372.0 0
89733.2 449627.0 0
89423.5 453509.0 0
96020.0 451278.0 0
92839.8 451991.0 0
100486.0 450796.0 0
98602.8 453975.0 0
103343.0 451739.0 0
111254.0 450427.0 0
107476.0 452827.0 0
111110.0 453569.0 0
114082.0 449493.0 0
114814.0 452923.0 0
118457.0 451373.0 0
121554.0 449741.0 0
125595.0 450398.0 0
123450.0 452259.0 0
128926.0 451553.0 0
135117.0 450779.0 0
138923.0 452490.0 0
143244.0 451432.0 0
145141.0 450941.0 0
145782.0 453269.0 0
148473.0 451049.0 0
151662.0 451583.0 0
155654.0 450795.0 0
159789.0 449460.0 0
158318.0 452611.0 0
162604.0 451187.0 0
167016.0 450502.0 0
166015.0 453351.0 0
169347.0 449753.0 0
169482.0 452960.0 0
173278.0 451089.0 0
176360.0 453750.0 0
179731.0 452865.0 0
183039.0 451282.0 0
186515.0 452338.0 0
190209.0 451215.0 0
193259.0 452705.0 0
197146.0 449984.0 0
201123.0 449247.0 0
200354.0 452633.0 0
203524.0 450350.0 0
203138.0 453339.0 0
206635.0 452006.0 0
211194.0 450572.0 0
213523.0 453940.0 0
215135.0 449473.0 0
217818.0 453456.0 0
222351.0 451450.0 0
226972.0 450095.0 0
229625.0 452676.0 0
233552.0 453154.0 0
235961.0 449018.0 0
237274.0 452194.0 0
239555.0 449627.0 0
242454.0 450699.0 0
245604.0 451745.0 0
250372.0 449520.0 0
254406.0 449423.0 0
253526.0 453385.0 0
257926.0 451913.0 0
263255.0 452667.0 0
267419.0 451665.0 0
269655.0 449940.0 0
269774.0 453213.0 0
273042.0 451739.0 0
276956.0 451860.0 0
281087.0 451808.0 0
284859.0 453513.0 0
286771.0 450821.0 0
289771.0 451222.0 0
293079.0 451096.0 0
295860.0 453899.0 0
299696.0 451395.0 0
304047.0 450231.0 0
309385.0 450214.0 0
306731.0 453528.0 0
314242.0 452196.0 0
319494.0 450181.0 0
318329.0 453165.0 0
322989.0 450550.0 0
322190.0 453681.0 0
326189.0 451004.0 0
329408.0 450369.0 0
332829.0 450626.0 0
336985.0 450782.0 0
341164.0 452689.0 0
343857.0 450239.0 0
344955.0 454053.0 0
350090.0 449525.0 0
347295.0 451160.0 0
354706.0 449701.0 0
352619.0 452523.0 0
357892.0 450953.0 0
361113.0 452358.0 0
362252.0 449839.0 0
367034.0 451075.0 0
364188.0 452908.0 0
370153.0 449801.0 0
369053.0 453956.0 0
372139.0 452658.0 0
374539.0 451024.0 0
376573.0 453613.0 0
382642.0 450060.0 0
379594.0 451453.0 0
384074.0 452184.0 0
383408.0 454046.0 0
386345.0 452334.0 0
389601.0 450548.0 0
392111.0 449456.0 0
389256.0 453336.0 0
396518.0 450554.0 0
392923.0 452197.0 0
395389.0 452998.0 0
399637.0 450541.0 0
402829.0 451310.0 0
399778.0 453660.0 0
407249.0 451213.0 0
405035.0 453432.0 0
409273.0 449524.0 0
411601.0 450337.0 0
409436.0 453345.0 0
411742.0 452703.0 0
416110.0 450406.0 0
414950.0 452825.0 0
417582.0 454059.0 0
419076.0 451909.0 0
421430.0 453816.0 0
75322.4 455289.0 0
72787.5 457923.0 0
75942.3 458253.0 0
78199.9 454215.0 0
79414.0 457786.0 0
82250.1 455427.0 0
84603.0 456281.0 0
82780.9 459020.0 0
88788.8 458037.0 0
93600.8 454510.0 0
95782.3 456089.0 0
92986.7 456714.0 0
100708.0 456989.0 0
103224.0 454341.0 0
106067.0 455921.0 0
103720.0 458689.0 0
111065.0 456526.0 0
108473.0 457569.0 0
115707.0 455922.0 0
113082.0 458460.0 0
119920.0 454461.0 0
118391.0 458106.0 0
126181.0 454448.0 0
122683.0 456611.0 0
125955.0 458039.0 0
132369.0 454190.0 0
129067.0 456786.0 0
136259.0 455492.0 0
133064.0 458120.0 0
135962.0 458180.0 0
139941.0 457026.0 0
142969.0 454377.0 0
145108.0 457385.0 0
148935.0 455381.0 0
150194.0 459011.0 0
153590.0 454345.0 0
154081.0 458554.0 0
158114.0 456349.0 0
161942.0 454827.0 0
161656.0 458333.0 0
165086.0 457295.0 0
168960.0 456080.0 0
172935.0 456335.0 0
177947.0 457306.0 0
182634.0 455936.0 0
186292.0 456534.0 0
187683.0 459091.0 0
189862.0 455223.0 0
190701.0 458825.0 0
193454.0 456533.0 0
196824.0 455186.0 0
198213.0 458676.0 0
200563.0 456253.0 0
204723.0 456993.0 0
208549.0 458828.0 0
209534.0 454676.0 0
211855.0 457421.0 0
214832.0 457899.0 0
218532.0 458472.0 0
221420.0 455268.0 0
222418.0 458710.0 0
225547.0 454613.0 0
229968.0 456412.0 0
233785.0 458628.0 0
236785.0 455372.0 0
241106.0 454402.0 0
242240.0 459122.0 0
245272.0 456851.0 0
249260.0 454606.0 0
252622.0 458014.0 0
256636.0 456737.0 0
260280.0 456151.0 0
263930.0 458827.0 0
267286.0 455613.0 0
271688.0 456442.0 0
275954.0 455839.0 0
279525.0 455210.0 0
282880.0 456820.0 0
288148.0 454588.0 0
286445.0 457599.0 0
289542.0 457409.0 0
291827.0 454700.0 0
298009.0 458267.0 0
299674.0 455124.0 0
303127.0 454494.0 0
301806.0 458336.0 0
304508.0 457974.0 0
306636.0 456958.0 0
310326.0 455581.0 0
314150.0 456511.0 0
316112.0 458518.0 0
317148.0 455788.0 0
318823.0 458408.0 0
320193.0 456222.0 0
326153.0 455092.0 0
323086.0 458006.0 0
330403.0 454314.0 0
326811.0 459067.0 0
329843.0 458510.0 0
335429.0 454669.0 0
333048.0 457686.0 0
339708.0 456378.0 0
343180.0 456403.0 0
343675.0 458981.0 0
346315.0 457547.0 0
349474.0 454907.0 0
356572.0 454757.0 0
353075.0 456971.0 0
360393.0 454834.0 0
361553.0 457657.0 0
364003.0 455848.0 0
366962.0 455604.0 0
365360.0 458541.0 0
368083.0 458079.0 0
371215.0 456430.0 0
374336.0 455405.0 0
376067.0 458620.0 0
378520.0 456367.0 0
380872.0 454483.0 0
380827.0 458865.0 0
386502.0 455783.0 0
383575.0 457695.0 0
391756.0 455086.0 0
389016.0 458190.0 0
397135.0 455685.0 0
394222.0 457589.0 0
402317.0 455191.0 0
399183.0 458188.0 0
403019.0 458946.0 0
406627.0 456999.0 0
408945.0 455505.0 0
411430.0 457334.0 0
413630.0 455532.0 0
417032.0 457507.0 0
419925.0 456234.0 0
421948.0 457706.0 0
424175.0 455511.0 0
426507.0 457696.0 0
429517.0 458373.0 0
63727.1 462693.0 0
69493.4 459615.0 0
66406.7 460867.0 0
70054.0 462540.0 0
73238.8 460899.0 0
76042.5 460615.0 0
74590.8 462419.0 0
79013.9 461384.0 0
76662.8 463839.0 0
81388.6 463118.0 0
85382.3 461826.0 0
88627.4 463988.0 0
91873.7 461450.0 0
94927.8 459522.0 0
98004.6 460112.0 0
101165.0 461543.0 0
97104.7 463729.0 0
105805.0 461154.0 0
102875.0 462978.0 0
108549.0 460111.0 0
111080.0 461357.0 0
115214.0 460117.0 0
112926.0 463383.0 0
115831.0 462663.0 0
119834.0 461891.0 0
122678.0 459733.0 0
125492.0 461073.0 0
123041.0 464066.0 0
129656.0 460412.0 0
134112.0 462109.0 0
138295.0 460600.0 0
142371.0 459900.0 0
140461.0 463481.0 0
146601.0 460454.0 0
144070.0 462822.0 0
148633.0 462960.0 0
151955.0 462497.0 0
158072.0 460309.0 0
155151.0 462441.0 0
161664.0 461935.0 0
165672.0 460888.0 0
168946.0 459381.0 0
168670.0 463892.0 0
172342.0 461142.0 0
175402.0 459376.0 0
174471.0 464024.0 0
177038.0 461959.0 0
180706.0 459943.0 0
179745.0 464095.0 0
182720.0 462617.0 0
184279.0 459485.0 0
186918.0 463480.0 0
191486.0 462058.0 0
194856.0 459655.0 0
194438.0 464088.0 0
197876.0 462136.0 0
200778.0 463437.0 0
201249.0 460141.0 0
205318.0 462890.0 0
211293.0 461905.0 0
215779.0 462220.0 0
220044.0 463272.0 0
224046.0 462371.0 0
226659.0 459234.0 0
227155.0 464075.0 0
229890.0 461164.0 0
232433.0 462657.0 0
238487.0 459358.0 0
235730.0 464092.0 0
240607.0 463650.0 0
244691.0 462064.0 0
248670.0 459926.0 0
251963.0 463019.0 0
255596.0 461106.0 0
258668.0 464124.0 0
259853.0 460086.0 0
263037.0 464204.0 0
268420.0 459451.0 0
266508.0 462674.0 0
271255.0 460158.0 0
274804.0 460559.0 0
279603.0 459653.0 0
278036.0 463341.0 0
284402.0 461409.0 0
288761.0 460717.0 0
293484.0 459289.0 0
291585.0 463860.0 0
297863.0 461904.0 0
301621.0 462051.0 0
305582.0 460805.0 0
308652.0 459397.0 0
309051.0 463269.0 0
312413.0 460391.0 0
321164.0 460382.0 0
317162.0 462435.0 0
321597.0 463692.0 0
324692.0 462377.0 0
328551.0 462407.0 0
336666.0 459541.0 0
332964.0 462379.0 0
337922.0 464121.0 0
340713.0 461137.0 0
344377.0 462346.0 0
346785.0 461082.0 0
349648.0 459194.0 0
349828.0 463384.0 0
353567.0 460856.0 0
356497.0 463729.0 0
358043.0 459407.0 0
362020.0 462072.0 0
359315.0 463546.0 0
363039.0 459522.0 0
365213.0 461111.0 0
367204.0 463669.0 0
369148.0 461005.0 0
371450.0 463595.0 0
372742.0 459928.0 0
374887.0 463092.0 0
379236.0 462337.0 0
385859.0 459784.0 0
387596.0 461373.0 0
383905.0 461880.0 0
391708.0 460214.0 0
395828.0 460101.0 0
394617.0 462341.0 0
397025.0 463330.0 0
398316.0 461108.0 0
401085.0 462806.0 0
405468.0 461260.0 0
404211.0 463949.0 0
409134.0 459828.0 0
412162.0 461971.0 0
408180.0 462990.0 0
413962.0 459734.0 0
414893.0 464205.0 0
415978.0 461980.0 0
418668.0 460736.0 0
421007.0 459644.0 0
423411.0 459769.0 0
420248.0 463761.0 0
426914.0 461332.0 0
423770.0 462840.0 0
431718.0 460295.0 0
429614.0 463144.0 0
434582.0 462010.0 0
437044.0 463324.0 0
54902.1 468449.0 0
57943.7 466624.0 0
60969.4 465068.0 0
63389.3 467017.0 0
65690.1 469029.0 0
66678.6 464521.0 0
69139.8 467727.0 0
71928.7 464742.0 0
74334.4 466260.0 0
72536.8 469244.0 0
76297.3 467666.0 0
78248.2 465511.0 0
81307.3 466432.0 0
78528.0 468116.0 0
84948.2 465910.0 0
84958.8 468991.0 0
87671.8 466574.0 0
90721.1 465914.0 0
91250.3 468809.0 0
94072.2 464432.0 0
94685.1 467839.0 0
97688.9 467180.0 0
100093.0 464494.0 0
101642.0 466804.0 0
104919.0 464828.0 0
105268.0 468316.0 0
108519.0 464410.0 0
111339.0 465736.0 0
108370.0 468267.0 0
115680.0 465632.0 0
113466.0 467895.0 0
117295.0 467833.0 0
118880.0 465627.0 0
118917.0 468743.0 0
121294.0 467178.0 0
124304.0 466321.0 0
127054.0 464420.0 0
123670.0 468524.0 0
126253.0 467469.0 0
130830.0 465495.0 0
128294.0 468965.0 0
131662.0 469274.0 0
137120.0 464812.0 0
134471.0 466793.0 0
137970.0 467942.0 0
141700.0 467237.0 0
146423.0 466264.0 0
150749.0 465214.0 0
150314.0 467724.0 0
157924.0 464474.0 0
153848.0 466058.0 0
156602.0 468239.0 0
160798.0 464872.0 0
160207.0 467140.0 0
164303.0 465823.0 0
167817.0 469088.0 0
171911.0 466168.0 0
176233.0 466806.0 0
182667.0 465193.0 0
180299.0 467665.0 0
184398.0 467789.0 0
188424.0 468892.0 0
190912.0 465758.0 0
193301.0 468335.0 0
197780.0 466613.0 0
201830.0 466624.0 0
205087.0 468715.0 0
208871.0 466490.0 0
213071.0 466002.0 0
216823.0 466511.0 0
220234.0 468115.0 0
223569.0 465946.0 0
226815.0 468057.0 0
230872.0 465987.0 0
234387.0 469125.0 0
238627.0 467926.0 0
243345.0 467336.0 0
247766.0 465616.0 0
251861.0 467738.0 0
258108.0 467789.0 0
255118.0 465628.0 0
260977.0 467606.0 0
263920.0 469326.0 0
266613.0 466788.0 0
270604.0 464387.0 0
273110.0 468451.0 0
275088.0 465418.0 0
275705.0 469063.0 0
278608.0 467178.0 0
281114.0 464338.0 0
282100.0 469219.0 0
283972.0 465767.0 0
285770.0 469024.0 0
288029.0 465573.0 0
295238.0 464534.0 0
292153.0 468548.0 0
296313.0 468533.0 0
299856.0 465863.0 0
305065.0 465176.0 0
302666.0 468074.0 0
309468.0 467796.0 0
313272.0 465587.0 0
316991.0 466971.0 0
319943.0 466019.0 0
319908.0 469352.0 0
324002.0 467211.0 0
327468.0 465611.0 0
330990.0 466571.0 0
335421.0 467198.0 0
339620.0 468359.0 0
342176.0 465101.0 0
346614.0 465493.0 0
344436.0 469294.0 0
350592.0 468999.0 0
353337.0 465126.0 0
357038.0 466101.0 0
355222.0 467979.0 0
358516.0 469058.0 0
359993.0 466240.0 0
363832.0 465731.0 0
369408.0 466775.0 0
374360.0 467265.0 0
378641.0 466480.0 0
382101.0 468134.0 0
382728.0 464921.0 0
386233.0 464642.0 0
385916.0 468606.0 0
390928.0 464405.0 0
389779.0 468244.0 0
392763.0 469302.0 0
395222.0 466741.0 0
399069.0 465635.0 0
402692.0 466720.0 0
406808.0 465162.0 0
406177.0 468523.0 0
409697.0 466670.0 0
410880.0 464412.0 0
411535.0 468552.0 0
413437.0 466153.0 0
417515.0 465325.0 0
414890.0 468565.0 0
417306.0 467666.0 0
421370.0 467882.0 0
428146.0 466205.0 0
424693.0 466402.0 0
432916.0 464926.0 0
430937.0 468253.0 0
434892.0 466695.0 0
437539.0 466671.0 0
439759.0 464799.0 0
442107.0 466885.0 0
440479.0 469171.0 0
444928.0 468060.0 0
45875.6 473713.0 0
49134.7 472384.0 0
52113.9 470470.0 0
53031.9 473100.0 0
55352.8 473845.0 0
56290.9 471235.0 0
59079.6 469595.0 0
58873.9 473011.0 0
61708.3 470128.0 0
64558.0 472057.0 0
61404.1 474135.0 0
68406.7 471709.0 0
75331.1 470648.0 0
71619.3 472968.0 0
75492.0 474180.0 0
78759.1 471268.0 0
80277.7 474111.0 0
82128.5 469778.0 0
83198.4 472680.0 0
85890.0 472291.0 0
87968.5 469677.0 0
89235.8 472862.0 0
94924.4 470722.0 0
92212.0 471991.0 0
96769.6 473183.0 0
97546.6 470024.0 0
100660.0 469980.0 0
99472.6 472745.0 0
104032.0 471822.0 0
111048.0 469757.0 0
108187.0 472429.0 0
112150.0 472653.0 0
115823.0 470957.0 0
120658.0 471126.0 0
117937.0 474209.0 0
125022.0 472008.0 0
129406.0 472480.0 0
134802.0 469536.0 0
137159.0 470863.0 0
132976.0 471970.0 0
135765.0 473039.0 0
140328.0 472062.0 0
144331.0 470626.0 0
144551.0 473882.0 0
146983.0 473786.0 0
152629.0 470413.0 0
148061.0 470839.0 0
149709.0 474070.0 0
153229.0 474101.0 0
156399.0 471790.0 0
159406.0 470112.0 0
162779.0 469824.0 0
160103.0 473130.0 0
164577.0 472943.0 0
172479.0 470077.0 0
168856.0 473566.0 0
172764.0 474124.0 0
177255.0 471713.0 0
182029.0 471170.0 0
183983.0 473967.0 0
185363.0 470984.0 0
187087.0 473347.0 0
190578.0 472283.0 0
196861.0 470211.0 0
194257.0 472066.0 0
197332.0 474323.0 0
200664.0 471000.0 0
204462.0 473219.0 0
208031.0 470951.0 0
207692.0 474327.0 0
210920.0 469464.0 0
211327.0 473451.0 0
214367.0 469778.0 0
215630.0 473829.0 0
217764.0 470366.0 0
223457.0 469822.0 0
220736.0 473779.0 0
225876.0 472476.0 0
229945.0 470737.0 0
233015.0 473930.0 0
237284.0 472765.0 0
240524.0 470232.0 0
243362.0 471234.0 0
240917.0 473507.0 0
247758.0 471555.0 0
252496.0 472018.0 0
255714.0 469799.0 0
259824.0 471356.0 0
263411.0 474263.0 0
269800.0 469476.0 0
266925.0 472218.0 0
270236.0 473940.0 0
273856.0 472388.0 0
278199.0 471447.0 0
281621.0 473349.0 0
285656.0 472780.0 0
288708.0 470041.0 0
290684.0 473209.0 0
295507.0 472565.0 0
299694.0 470395.0 0
302667.0 470532.0 0
303216.0 473269.0 0
306322.0 470070.0 0
306807.0 474289.0 0
312568.0 469440.0 0
315805.0 470477.0 0
311500.0 473768.0 0
319336.0 473628.0 0
323394.0 472161.0 0
328631.0 470965.0 0
333340.0 470196.0 0
333771.0 473968.0 0
336861.0 471367.0 0
340921.0 472825.0 0
343975.0 473259.0 0
347627.0 472711.0 0
350551.0 474348.0 0
353134.0 473128.0 0
355571.0 471124.0 0
362142.0 469548.0 0
359736.0 472621.0 0
366422.0 469870.0 0
363894.0 472611.0 0
371403.0 471060.0 0
368236.0 473674.0 0
376693.0 470398.0 0
375132.0 472841.0 0
378904.0 470000.0 0
381339.0 471555.0 0
378939.0 473445.0 0
384131.0 472845.0 0
387689.0 472228.0 0
390398.0 471422.0 0
397179.0 470376.0 0
393814.0 472000.0 0
396374.0 474297.0 0
400616.0 469542.0 0
404108.0 472016.0 0
408997.0 470985.0 0
412874.0 471623.0 0
408824.0 474046.0 0
415953.0 471161.0 0
416765.0 473399.0 0
418622.0 470091.0 0
422942.0 471157.0 0
419690.0 472488.0 0
423321.0 474368.0 0
426954.0 470618.0 0
426297.0 474445.0 0
430469.0 473490.0 0
433682.0 470746.0 0
437582.0 469888.0 0
438586.0 472599.0 0
435906.0 473937.0 0
441973.0 472123.0 0
445003.0 471136.0 0
447960.0 470204.0 0
446552.0 473871.0 0
450451.0 472497.0 0
453700.0 474139.0 0
40011.5 476946.0 0
37775.4 479487.0 0
43327.6 475978.0 0
45664.2 477895.0 0
41661.0 479134.0 0
48155.7 475962.0 0
49114.1 479075.0 0
51246.8 475134.0 0
54199.9 476068.0 0
55855.7 477657.0 0
51998.7 478057.0 0
57422.5 475123.0 0
59302.0 477668.0 0
63675.3 476170.0 0
62820.6 479162.0 0
66669.3 475498.0 0
69680.0 475949.0 0
70275.4 478953.0 0
73226.5 476816.0 0
75203.3 479273.0 0
77605.2 475894.0 0
78800.9 478973.0 0
84036.1 475036.0 0
81700.8 476762.0 0
84797.8 478405.0 0
87015.2 475308.0 0
90392.4 475474.0 0
88851.6 478270.0 0
93709.9 474827.0 0
93054.7 478788.0 0
97663.3 476632.0 0
100933.0 474657.0 0
101109.0 478297.0 0
104617.0 476034.0 0
109304.0 477013.0 0
114237.0 476122.0 0
121342.0 475618.0 0
117995.0 478196.0 0
125966.0 476823.0 0
129644.0 475269.0 0
129712.0 478770.0 0
132846.0 475280.0 0
137593.0 475454.0 0
134804.0 477964.0 0
138424.0 479290.0 0
141550.0 476085.0 0
142270.0 479592.0 0
146436.0 477512.0 0
151405.0 477325.0 0
156430.0 475732.0 0
158854.0 478318.0 0
161558.0 476296.0 0
165567.0 476990.0 0
170093.0 478075.0 0
175866.0 477235.0 0
180541.0 475190.0 0
180398.0 478745.0 0
185082.0 478201.0 0
189017.0 476163.0 0
192856.0 475992.0 0
196214.0 478753.0 0
201134.0 476388.0 0
205686.0 477439.0 0
209242.0 476880.0 0
212927.0 478124.0 0
217377.0 477637.0 0
224649.0 476737.0 0
228803.0 475127.0 0
227942.0 478562.0 0
231543.0 478119.0 0
235992.0 477662.0 0
240209.0 477358.0 0
244167.0 475528.0 0
247559.0 477700.0 0
251343.0 476114.0 0
254275.0 479295.0 0
256050.0 474637.0 0
258070.0 478388.0 0
259910.0 475629.0 0
262202.0 479330.0 0
267370.0 477592.0 0
272661.0 477099.0 0
277637.0 476214.0 0
283179.0 477682.0 0
287710.0 476169.0 0
291058.0 478235.0 0
293888.0 476123.0 0
299976.0 474721.0 0
297311.0 477474.0 0
301409.0 479197.0 0
304214.0 477047.0 0
307929.0 477576.0 0
316096.0 474590.0 0
315507.0 478220.0 0
318882.0 477117.0 0
326015.0 475582.0 0
322300.0 476842.0 0
330464.0 476517.0 0
335136.0 478652.0 0
337689.0 475294.0 0
339219.0 478819.0 0
341339.0 476549.0 0
345320.0 476545.0 0
349013.0 476709.0 0
356504.0 474776.0 0
353131.0 477745.0 0
357818.0 477795.0 0
361169.0 476383.0 0
364886.0 475666.0 0
364846.0 479309.0 0
372010.0 474606.0 0
367843.0 477109.0 0
371054.0 477018.0 0
375325.0 476543.0 0
382403.0 475700.0 0
378937.0 477250.0 0
387734.0 476173.0 0
384617.0 478655.0 0
391712.0 474997.0 0
391456.0 479151.0 0
395054.0 477458.0 0
400496.0 474905.0 0
398874.0 479402.0 0
405773.0 475512.0 0
403366.0 478594.0 0
407168.0 479049.0 0
408783.0 476631.0 0
412807.0 475200.0 0
411026.0 478811.0 0
417042.0 477264.0 0
420426.0 475423.0 0
422102.0 477873.0 0
425346.0 478017.0 0
430168.0 478234.0 0
434402.0 476728.0 0
438623.0 475743.0 0
437339.0 479359.0 0
441778.0 475559.0 0
444983.0 475691.0 0
446150.0 478577.0 0
449469.0 476208.0 0
453765.0 476812.0 0
451370.0 479319.0 0
456749.0 475117.0 0
458998.0 477756.0 0
34412.6 480852.0 0
31689.0 484168.0 0
35662.9 483534.0 0
38634.1 482661.0 0
41855.5 482159.0 0
45039.6 480880.0 0
45767.6 484073.0 0
49521.9 482485.0 0
54226.7 480912.0 0
58153.4 481237.0 0
61879.0 482218.0 0
64999.1 483435.0 0
66657.4 479715.0 0
68551.2 483127.0 0
72032.4 481897.0 0
75965.3 482828.0 0
79073.9 482505.0 0
82092.3 480718.0 0
86522.3 481039.0 0
83501.3 483242.0 0
89959.2 481826.0 0
87025.4 484158.0 0
96919.3 480757.0 0
93353.4 483333.0 0
101075.0 482468.0 0
104907.0 479645.0 0
105355.0 482681.0 0
108288.0 481014.0 0
110183.0 482986.0 0
113653.0 481088.0 0
117034.0 484660.0 0
118485.0 481438.0 0
122214.0 480116.0 0
125858.0 481807.0 0
132500.0 480095.0 0
129727.0 482986.0 0
134808.0 482610.0 0
139964.0 482976.0 0
144479.0 481977.0 0
149085.0 481495.0 0
152590.0 483318.0 0
154381.0 480069.0 0
155754.0 484036.0 0
162327.0 480419.0 0
158195.0 481577.0 0
166316.0 480523.0 0
164408.0 484137.0 0
168761.0 482894.0 0
172799.0 481523.0 0
177339.0 481858.0 0
181794.0 482246.0 0
185921.0 483219.0 0
190717.0 480801.0 0
195776.0 483625.0 0
203180.0 479832.0 0
199764.0 480942.0 0
203049.0 483555.0 0
208708.0 480418.0 0
205590.0 481339.0 0
212058.0 483047.0 0
216157.0 481489.0 0
218717.0 484016.0 0
220814.0 479892.0 0
225295.0 481147.0 0
229453.0 481700.0 0
233998.0 481937.0 0
239250.0 482428.0 0
243780.0 480219.0 0
247171.0 481747.0 0
249275.0 484627.0 0
250462.0 480704.0 0
252980.0 483712.0 0
257705.0 482722.0 0
261803.0 483827.0 0
265617.0 482739.0 0
270963.0 482370.0 0
275437.0 480222.0 0
279561.0 481492.0 0
283877.0 483581.0 0
287526.0 480866.0 0
291640.0 483209.0 0
294766.0 480398.0 0
298411.0 481189.0 0
301680.0 483717.0 0
306249.0 481505.0 0
310629.0 483985.0 0
311286.0 479598.0 0
315175.0 482655.0 0
320366.0 481377.0 0
326156.0 480407.0 0
331126.0 480690.0 0
329762.0 484038.0 0
334386.0 482910.0 0
338721.0 482515.0 0
343400.0 480876.0 0
348609.0 480240.0 0
347263.0 483667.0 0
350579.0 484557.0 0
352194.0 481966.0 0
354838.0 484678.0 0
356803.0 481337.0 0
361153.0 480484.0 0
364796.0 483106.0 0
369149.0 480793.0 0
373896.0 480222.0 0
373328.0 484626.0 0
377251.0 483872.0 0
377913.0 480539.0 0
381469.0 480081.0 0
381398.0 483684.0 0
385099.0 482502.0 0
388282.0 480871.0 0
388652.0 484569.0 0
391387.0 482742.0 0
394999.0 481806.0 0
402013.0 481775.0 0
399124.0 483361.0 0
405655.0 482186.0 0
409564.0 482637.0 0
414464.0 479621.0 0
417406.0 481652.0 0
413679.0 482687.0 0
420472.0 480282.0 0
420458.0 484169.0 0
424230.0 482198.0 0
428237.0 482579.0 0
433493.0 481697.0 0
431341.0 484454.0 0
437400.0 483319.0 0
441864.0 479598.0 0
441467.0 484274.0 0
445187.0 482394.0 0
448481.0 481244.0 0
449913.0 484448.0 0
453000.0 483084.0 0
455942.0 480007.0 0
458098.0 483616.0 0
461143.0 482241.0 0
462258.0 479623.0 0
464233.0 484265.0 0
465710.0 481534.0 0
468867.0 483255.0 0
20334.9 489686.0 0
23885.8 487513.0 0
27609.5 486340.0 0
35703.6 486646.0 0
31926.7 489156.0 0
39168.8 486195.0 0
36110.5 489704.0 0
39052.2 489793.0 0
42740.4 484928.0 0
43095.0 488617.0 0
46654.7 487196.0 0
49528.1 486029.0 0
53798.3 484872.0 0
51269.8 488385.0 0
55979.2 488925.0 0
58578.8 485171.0 0
60325.8 489493.0 0
62260.5 486549.0 0
66193.2 486788.0 0
69600.8 486134.0 0
68514.4 489714.0 0
72835.9 485119.0 0
76147.3 486451.0 0
72180.1 488369.0 0
80337.8 485650.0 0
84506.3 486026.0 0
82886.1 488800.0 0
90327.7 485718.0 0
87013.8 487552.0 0
96662.0 485251.0 0
93357.6 488284.0 0
99974.9 486288.0 0
98002.3 488575.0 0
100717.0 488264.0 0
103601.0 486179.0 0
103170.0 489129.0 0
106846.0 488916.0 0
107747.0 485345.0 0
112343.0 487105.0 0
121760.0 484798.0 0
117755.0 488570.0 0
122153.0 489507.0 0
126089.0 485821.0 0
130937.0 486934.0 0
136299.0 486577.0 0
142653.0 484821.0 0
140134.0 486455.0 0
142703.0 488371.0 0
146060.0 485226.0 0
150025.0 485810.0 0
152416.0 489085.0 0
153481.0 485936.0 0
156140.0 487393.0 0
159738.0 485009.0 0
158797.0 489059.0 0
162439.0 488312.0 0
167496.0 487669.0 0
171151.0 484971.0 0
171676.0 488488.0 0
174398.0 485015.0 0
175414.0 488142.0 0
178822.0 486061.0 0
182865.0 485681.0 0
181700.0 489657.0 0
188741.0 485563.0 0
185788.0 487899.0 0
191911.0 485634.0 0
194749.0 488397.0 0
198312.0 487299.0 0
199797.0 484710.0 0
202477.0 488144.0 0
207080.0 485368.0 0
211231.0 487694.0 0
215578.0 486017.0 0
222378.0 484707.0 0
219488.0 488593.0 0
223990.0 489347.0 0
226752.0 485464.0 0
228370.0 489465.0 0
231152.0 485732.0 0
235713.0 486376.0 0
240359.0 487966.0 0
244596.0 485288.0 0
248306.0 489090.0 0
251714.0 487248.0 0
255274.0 487307.0 0
259563.0 486992.0 0
263542.0 486760.0 0
267748.0 486929.0 0
272543.0 488090.0 0
276107.0 484831.0 0
277109.0 489780.0 0
280493.0 486796.0 0
284802.0 488234.0 0
287972.0 485555.0 0
288261.0 489239.0 0
292158.0 488020.0 0
296551.0 484897.0 0
296136.0 489309.0 0
300782.0 488551.0 0
306490.0 487478.0 0
313571.0 485968.0 0
311246.0 488028.0 0
316026.0 486071.0 0
318750.0 485523.0 0
321007.0 488457.0 0
324733.0 485524.0 0
329648.0 488509.0 0
333683.0 486655.0 0
337853.0 486444.0 0
343018.0 486056.0 0
348062.0 487487.0 0
352557.0 487709.0 0
356367.0 487574.0 0
360588.0 485264.0 0
359476.0 489479.0 0
365920.0 487442.0 0
368715.0 484785.0 0
371089.0 488413.0 0
376490.0 489006.0 0
379028.0 486275.0 0
381757.0 488093.0 0
385553.0 486004.0 0
392544.0 486336.0 0
389235.0 488496.0 0
396292.0 485149.0 0
395827.0 488660.0 0
399188.0 487236.0 0
403210.0 485570.0 0
407882.0 485847.0 0
405894.0 489630.0 0
412509.0 486234.0 0
410393.0 489111.0 0
413152.0 488988.0 0
416970.0 485204.0 0
416092.0 488790.0 0
420680.0 488290.0 0
424228.0 486054.0 0
427821.0 486351.0 0
429227.0 489743.0 0
432104.0 487809.0 0
434721.0 485386.0 0
437336.0 486406.0 0
435569.0 489437.0 0
439859.0 488852.0 0
446425.0 485339.0 0
444288.0 488134.0 0
448470.0 488340.0 0
451802.0 487865.0 0
455052.0 486156.0 0
457228.0 489584.0 0
461266.0 487091.0 0
466920.0 485346.0 0
465523.0 488259.0 0
468432.0 486476.0 0
468385.0 488799.0 0
471808.0 485984.0 0
475555.0 487935.0 0
478933.0 488695.0 0
10719.2 494875.0 0
17807.0 491861.0 0
22907.8 490410.0 0
20585.5 493378.0 0
24881.1 494061.0 0
26367.6 489810.0 0
28639.6 491028.0 0
28972.9 493957.0 0
35445.4 492704.0 0
31872.3 493109.0 0
38869.4 493097.0 0
43041.0 492502.0 0
47877.7 490438.0 0
46915.2 494111.0 0
52234.1 492493.0 0
57782.8 492493.0 0
61068.5 492149.0 0
64292.9 490434.0 0
71390.2 491724.0 0
67580.6 492846.0 0
70618.7 494885.0 0
74947.8 490348.0 0
74951.7 493749.0 0
78731.1 490256.0 0
78990.5 493640.0 0
85980.9 490559.0 0
82526.7 492451.0 0
86578.4 494095.0 0
89405.6 489982.0 0
90980.9 493274.0 0
95778.5 492167.0 0
100400.0 490866.0 0
99993.8 494382.0 0
104431.0 492163.0 0
109792.0 491604.0 0
114455.0 491422.0 0
118450.0 493171.0 0
126431.0 489997.0 0
123374.0 493637.0 0
127534.0 494261.0 0
130164.0 491013.0 0
131979.0 494407.0 0
134259.0 490486.0 0
136736.0 493800.0 0
138813.0 490026.0 0
141845.0 493100.0 0
147283.0 489971.0 0
151322.0 493352.0 0
155703.0 491224.0 0
160194.0 492873.0 0
164804.0 491747.0 0
169376.0 493727.0 0
173637.0 491471.0 0
177472.0 490925.0 0
179985.0 494375.0 0
185140.0 493317.0 0
189866.0 490031.0 0
194172.0 493190.0 0
198343.0 490926.0 0
201940.0 493208.0 0
207001.0 491420.0 0
211207.0 491357.0 0
211592.0 494597.0 0
215271.0 490983.0 0
219515.0 493776.0 0
222949.0 492905.0 0
226464.0 493180.0 0
232416.0 489806.0 0
229886.0 492586.0 0
233358.0 494075.0 0
236635.0 490905.0 0
240468.0 492494.0 0
244153.0 490858.0 0
247763.0 494460.0 0
252536.0 491441.0 0
257452.0 490798.0 0
255914.0 494755.0 0
264998.0 490405.0 0
261370.0 490081.0 0
260777.0 494217.0 0
265594.0 494895.0 0
269267.0 491586.0 0
273794.0 493061.0 0
277747.0 493863.0 0
281877.0 492094.0 0
286577.0 492613.0 0
290184.0 491880.0 0
293970.0 493079.0 0
298193.0 492068.0 0
301957.0 493450.0 0
304064.0 491057.0 0
306157.0 492973.0 0
309977.0 491882.0 0
315821.0 490404.0 0
320439.0 492917.0 0
325309.0 491457.0 0
330221.0 493420.0 0
335344.0 491529.0 0
340305.0 490110.0 0
345318.0 491874.0 0
350695.0 491263.0 0
353497.0 494770.0 0
355602.0 491543.0 0
360410.0 493484.0 0
363561.0 490158.0 0
364667.0 493655.0 0
368522.0 492142.0 0
373220.0 492114.0 0
376795.0 493592.0 0
381055.0 492715.0 0
385540.0 489989.0 0
385545.0 493540.0 0
389023.0 492160.0 0
393155.0 491237.0 0
401825.0 490026.0 0
398117.0 492227.0 0
403560.0 493839.0 0
408781.0 492942.0 0
413794.0 492491.0 0
422205.0 492190.0 0
418859.0 492105.0 0
425151.0 490090.0 0
425060.0 493691.0 0
428525.0 493524.0 0
432269.0 492112.0 0
436141.0 492983.0 0
439338.0 492659.0 0
443247.0 492147.0 0
447263.0 491529.0 0
450578.0 491693.0 0
453477.0 491071.0 0
449884.0 494600.0 0
456322.0 493434.0 0
461687.0 491325.0 0
459227.0 493119.0 0
465212.0 491560.0 0
468090.0 492196.0 0
471437.0 490761.0 0
473770.0 494679.0 0
475593.0 491778.0 0
478888.0 492357.0 0
481336.0 490615.0 0
483888.0 493036.0 0
487133.0 493997.0 0
8829.36 496849.0 0
6361.76 498728.0 0
11258.7 498583.0 0
14582.5 494917.0 0
15277.1 499151.0 0
18467.9 496043.0 0
19187.3 499176.0 0
21217.8 495997.0 0
22993.4 498610.0 0
27017.3 497591.0 0
30387.5 497127.0 0
33886.0 495743.0 0
33923.6 499206.0 0
37314.2 496640.0 0
40690.4 499395.0 0
41033.8 495774.0 0
44117.6 496670.0 0
44427.5 499900.0 0
50049.1 495810.0 0
47761.7 498346.0 0
52552.6 497866.0 0
55291.1 495100.0 0
59499.3 495491.0 0
56756.7 498456.0 0
61034.2 498954.0 0
63599.6 494898.0 0
64951.8 499221.0 0
67256.7 496106.0 0
68983.6 498622.0 0
73066.3 497690.0 0
77658.8 496895.0 0
82029.8 495863.0 0
85237.4 497917.0 0
89450.8 497931.0 0
92888.6 496265.0 0
96226.0 496458.0 0
99487.4 499106.0 0
103164.0 495950.0 0
104447.0 499018.0 0
107416.0 495245.0 0
109428.0 498907.0 0
112971.0 495264.0 0
116666.0 497152.0 0
120862.0 497109.0 0
125347.0 497662.0 0
129606.0 498266.0 0
134247.0 498185.0 0
139277.0 497319.0 0
146161.0 495067.0 0
142905.0 497320.0 0
145065.0 498838.0 0
149599.0 498284.0 0
155549.0 496248.0 0
160298.0 497203.0 0
163133.0 499873.0 0
164337.0 495852.0 0
167470.0 498609.0 0
171475.0 498637.0 0
174936.0 495367.0 0
175137.0 499849.0 0
178057.0 498021.0 0
182135.0 498469.0 0
186432.0 497851.0 0
189859.0 495400.0 0
189407.0 499598.0 0
193623.0 498590.0 0
198019.0 495774.0 0
201689.0 497864.0 0
204637.0 495845.0 0
204661.0 498954.0 0
208126.0 496928.0 0
212566.0 499414.0 0
215450.0 495679.0 0
218411.0 499348.0 0
223690.0 496992.0 0
229377.0 496917.0 0
234505.0 498149.0 0
237702.0 495042.0 0
239777.0 498850.0 0
242892.0 495145.0 0
244799.0 498494.0 0
252007.0 495862.0 0
254639.0 499200.0 0
258722.0 497857.0 0
262923.0 498845.0 0
267087.0 499036.0 0
270414.0 496392.0 0
275683.0 498496.0 0
280567.0 496723.0 0
285166.0 497207.0 0
289952.0 495902.0 0
294289.0 498062.0 0
297932.0 495605.0 0
298544.0 499766.0 0
301124.0 496935.0 0
302281.0 499624.0 0
304571.0 496574.0 0
308868.0 496836.0 0
313161.0 494902.0 0
313282.0 499236.0 0
317792.0 496899.0 0
323648.0 496608.0 0
327409.0 495713.0 0
330140.0 497941.0 0
333354.0 495945.0 0
340650.0 495077.0 0
336749.0 496534.0 0
338590.0 499573.0 0
342203.0 499101.0 0
345357.0 497246.0 0
349380.0 495571.0 0
349158.0 499925.0 0
353363.0 498422.0 0
357602.0 496896.0 0
363059.0 496971.0 0
367834.0 497078.0 0
373346.0 496554.0 0
379199.0 497428.0 0
383884.0 496757.0 0
382895.0 499797.0 0
388067.0 496255.0 0
391737.0 494959.0 0
392258.0 499632.0 0
395478.0 495802.0 0
399940.0 496802.0 0
407359.0 496334.0 0
404233.0 498699.0 0
412033.0 497144.0 0
417386.0 495968.0 0
415590.0 499686.0 0
422038.0 495892.0 0
419609.0 499974.0 0
423434.0 499942.0 0
425924.0 496408.0 0
427483.0 499808.0 0
429633.0 496560.0 0
432109.0 499932.0 0
433728.0 496034.0 0
438392.0 496513.0 0
442330.0 496202.0 0
445494.0 498045.0 0
446636.0 495171.0 0
453280.0 495253.0 0
452503.0 498649.0 0
449374.0 497944.0 0
458149.0 495991.0 0
456005.0 498421.0 0
462721.0 495319.0 0
460310.0 498721.0 0
467055.0 495333.0 0
465062.0 498852.0 0
470667.0 495006.0 0
469433.0 498908.0 0
473652.0 498027.0 0
477037.0 496355.0 0
479310.0 499165.0 0
481069.0 495757.0 0
482386.0 499467.0 0
485789.0 497598.0 0
489599.0 496119.0 0
492282.0 498216.0 0
496774.0 499998.0 0
2486.43 500044.0 0
2033.48 503034.0 0
6992.02 501966.0 0
11627.5 502143.0 0
16704.9 502684.0 0
21794.2 503195.0 0
26447.9 501207.0 0
30563.8 500768.0 0
29243.0 503773.0 0
33964.1 503884.0 0
36864.6 500448.0 0
39155.7 503302.0 0
43042.6 503318.0 0
46957.1 502289.0 0
50271.6 500646.0 0
50067.5 503947.0 0
53733.7 501569.0 0
57988.6 502180.0 0
61931.3 502024.0 0
64934.2 502862.0 0
67515.9 501201.0 0
71011.9 501714.0 0
68076.5 503353.0 0
75718.7 501056.0 0
73771.3 504228.0 0
81046.3 500598.0 0
86192.2 501567.0 0
83325.5 504964.0 0
89882.6 502211.0 0
93999.4 500362.0 0
97114.0 503888.0 0
101607.0 503010.0 0
105956.0 502537.0 0
110938.0 503363.0 0
114041.0 500077.0 0
115014.0 504626.0 0
117984.0 500905.0 0
122808.0 501398.0 0
127519.0 501850.0 0
131753.0 501893.0 0
137024.0 501493.0 0
134599.0 505101.0 0
141796.0 501188.0 0
146211.0 502184.0 0
150070.0 502872.0 0
153354.0 500856.0 0
158063.0 501831.0 0
162267.0 504530.0 0
166125.0 502340.0 0
170018.0 502713.0 0
174702.0 503994.0 0
178601.0 501308.0 0
185422.0 502774.0 0
190947.0 503069.0 0
198299.0 500265.0 0
194928.0 502644.0 0
198315.0 505030.0 0
202430.0 502157.0 0
207550.0 501741.0 0
211368.0 503623.0 0
215076.0 503346.0 0
219067.0 504703.0 0
222889.0 501720.0 0
226724.0 500216.0 0
226841.0 504154.0 0
231287.0 501978.0 0
235939.0 501809.0 0
239112.0 504000.0 0
242967.0 502023.0 0
249448.0 500008.0 0
246305.0 503956.0 0
249614.0 505063.0 0
253629.0 504022.0 0
259300.0 503065.0 0
265728.0 503600.0 0
270772.0 501377.0 0
274975.0 504565.0 0
277929.0 502277.0 0
281399.0 501199.0 0
286244.0 502562.0 0
290608.0 500476.0 0
290439.0 504939.0 0
295289.0 503339.0 0
301352.0 504250.0 0
305694.0 500716.0 0
309606.0 501528.0 0
306721.0 504852.0 0
313272.0 503064.0 0
316787.0 502173.0 0
321460.0 501200.0 0
324821.0 504927.0 0
326892.0 500691.0 0
330841.0 501521.0 0
334403.0 500012.0 0
333157.0 503891.0 0
337531.0 504256.0 0
341153.0 502148.0 0
345588.0 502336.0 0
352377.0 501594.0 0
356941.0 502845.0 0
361229.0 500182.0 0
365383.0 500562.0 0
362986.0 504013.0 0
366914.0 503608.0 0
370720.0 501632.0 0
376360.0 501345.0 0
380501.0 501743.0 0
387381.0 500312.0 0
384620.0 503937.0 0
390406.0 503790.0 0
396805.0 500046.0 0
394490.0 503994.0 0
401052.0 501392.0 0
398322.0 503969.0 0
405248.0 503063.0 0
408735.0 500156.0 0
409096.0 503895.0 0
412780.0 502146.0 0
414852.0 505023.0 0
417389.0 503041.0 0
421462.0 503337.0 0
425176.0 503656.0 0
429641.0 503441.0 0
437214.0 500533.0 0
433731.0 503143.0 0
437404.0 504828.0 0
442006.0 500791.0 0
446829.0 500992.0 0
444801.0 504329.0 0
450921.0 501278.0 0
453949.0 501084.0 0
449009.0 504576.0 0
453632.0 504572.0 0
458132.0 502274.0 0
462558.0 501280.0 0
466525.0 502446.0 0
473116.0 501673.0 0
469860.0 503036.0 0
476810.0 500347.0 0
476467.0 504445.0 0
480946.0 503036.0 0
488932.0 500372.0 0
485432.0 502455.0 0
492290.0 502088.0 0
497119.0 503921.0 0
2061.96 506149.0 0
1775.96 508771.0 0
5248.1 505102.0 0
9052.81 505379.0 0
6452.62 509025.0 0
13312.3 505763.0 0
10576.0 508318.0 0
14859.4 509630.0 0
18110.0 506927.0 0
22354.4 507988.0 0
25901.1 505242.0 0
29836.6 507310.0 0
26116.8 508889.0 0
34098.7 509848.0 0
37854.5 506707.0 0
39404.0 510036.0 0
41555.6 506436.0 0
42972.2 509261.0 0
45981.1 506184.0 0
50218.9 507635.0 0
53798.8 505282.0 0
53512.1 508434.0 0
57212.7 505662.0 0
61176.8 506229.0 0
56588.7 508971.0 0
66219.7 506373.0 0
63852.5 510025.0 0
70293.9 505948.0 0
71342.0 509012.0 0
74216.1 507699.0 0
78075.5 505155.0 0
80687.0 508359.0 0
84793.5 509469.0 0
87604.8 505659.0 0
89422.2 509332.0 0
92479.6 505768.0 0
96207.8 507921.0 0
99937.0 507346.0 0
103657.0 506402.0 0
106135.0 508947.0 0
107510.0 505856.0 0
111194.0 508836.0 0
116133.0 509634.0 0
119507.0 505322.0 0
121452.0 510149.0 0
124718.0 505886.0 0
129803.0 506449.0 0
133724.0 509291.0 0
136859.0 508213.0 0
139049.0 505199.0 0
140130.0 508952.0 0
143138.0 505606.0 0
143935.0 509219.0 0
148106.0 507022.0 0
153396.0 505352.0 0
157763.0 507813.0 0
162324.0 508205.0 0
166467.0 506466.0 0
170745.0 507364.0 0
175400.0 509468.0 0
180012.0 505433.0 0
184307.0 507495.0 0
188604.0 507137.0 0
191911.0 509989.0 0
193783.0 506286.0 0
196667.0 509864.0 0
202031.0 508785.0 0
204901.0 505221.0 0
206605.0 509974.0 0
208480.0 506484.0 0
209942.0 509880.0 0
213006.0 507161.0 0
217124.0 508660.0 0
221529.0 509756.0 0
223050.0 505839.0 0
226154.0 508516.0 0
230493.0 507187.0 0
234846.0 505761.0 0
238580.0 508677.0 0
242868.0 506601.0 0
247175.0 509077.0 0
251652.0 508393.0 0
256601.0 509162.0 0
262380.0 508460.0 0
267099.0 508501.0 0
270635.0 506408.0 0
274700.0 509411.0 0
279197.0 505270.0 0
279548.0 509709.0 0
283590.0 509567.0 0
282917.0 505994.0 0
286870.0 507734.0 0
290046.0 508055.0 0
293636.0 508379.0 0
298643.0 509739.0 0
304304.0 509017.0 0
310808.0 505458.0 0
308676.0 508709.0 0
315115.0 506105.0 0
312577.0 508957.0 0
319826.0 506618.0 0
324424.0 509010.0 0
329396.0 505371.0 0
329012.0 510117.0 0
334089.0 508362.0 0
339306.0 509296.0 0
342360.0 505932.0 0
343933.0 509803.0 0
346186.0 506699.0 0
350637.0 505295.0 0
347851.0 509687.0 0
351777.0 509969.0 0
356495.0 508610.0 0
360604.0 506806.0 0
366272.0 506382.0 0
363902.0 507903.0 0
369507.0 506416.0 0
367469.0 509193.0 0
374177.0 506200.0 0
379759.0 506232.0 0
384322.0 507810.0 0
388350.0 506904.0 0
392635.0 507428.0 0
397759.0 508218.0 0
402183.0 505954.0 0
407049.0 507696.0 0
411790.0 506704.0 0
416614.0 505997.0 0
415775.0 509108.0 0
419477.0 506301.0 0
423221.0 506656.0 0
420549.0 510063.0 0
427642.0 506921.0 0
433113.0 507378.0 0
438066.0 508737.0 0
441348.0 505342.0 0
441999.0 509190.0 0
445815.0 508129.0 0
450722.0 508274.0 0
458108.0 506723.0 0
454530.0 508244.0 0
463210.0 505470.0 0
461613.0 509953.0 0
468160.0 506235.0 0
466202.0 509508.0 0
472306.0 505726.0 0
471193.0 509632.0 0
475484.0 508483.0 0
480139.0 507431.0 0
484533.0 506916.0 0
489082.0 505418.0 0
493830.0 505381.0 0
493055.0 508819.0 0
497685.0 507581.0 0
2663.84 511940.0 0
7374.12 514067.0 0
11186.0 511618.0 0
11971.2 515293.0 0
15735.3 513302.0 0
19387.2 511132.0 0
23920.8 512399.0 0
28611.3 512088.0 0
32147.6 514843.0 0
37398.9 514009.0 0
41977.8 513068.0 0
46898.3 511088.0 0
49649.6 514641.0 0
52236.7 511410.0 0
56404.0 513014.0 0
59917.5 510526.0 0
60430.5 514276.0 0
62128.2 512189.0 0
65368.7 514214.0 0
68380.8 510405.0 0
69595.0 514634.0 0
72866.5 512257.0 0
77116.3 510251.0 0
80662.6 512500.0 0
76730.1 514928.0 0
84005.2 514118.0 0
87221.6 512485.0 0
90245.3 513594.0 0
93444.2 510572.0 0
98323.5 512075.0 0
102685.0 510510.0 0
102453.0 514737.0 0
107100.0 512977.0 0
112699.0 514260.0 0
117909.0 514677.0 0
126509.0 510470.0 0
123475.0 514631.0 0
127991.0 513918.0 0
130715.0 511400.0 0
136600.0 512841.0 0
142014.0 512370.0 0
147028.0 512562.0 0
152528.0 510375.0 0
151538.0 515248.0 0
156683.0 513393.0 0
160540.0 511319.0 0
165135.0 511326.0 0
170290.0 512713.0 0
177470.0 512747.0 0
181007.0 510655.0 0
179197.0 514764.0 0
182871.0 515268.0 0
186096.0 511376.0 0
189876.0 513859.0 0
194244.0 514187.0 0
199526.0 514843.0 0
204202.0 513170.0 0
208412.0 513928.0 0
213581.0 512118.0 0
218376.0 512811.0 0
222289.0 514151.0 0
225205.0 512056.0 0
229115.0 511656.0 0
234083.0 511019.0 0
231379.0 515065.0 0
238936.0 512914.0 0
242639.0 511318.0 0
246286.0 513789.0 0
252213.0 512428.0 0
255808.0 513457.0 0
260805.0 513070.0 0
265739.0 513125.0 0
270012.0 515031.0 0
270563.0 511075.0 0
274199.0 514111.0 0
278639.0 514304.0 0
282359.0 513447.0 0
285967.0 512195.0 0
289885.0 510990.0 0
289199.0 515020.0 0
293998.0 513758.0 0
298311.0 514693.0 0
302636.0 513870.0 0
308095.0 513594.0 0
313022.0 512835.0 0
316531.0 510299.0 0
317128.0 515245.0 0
320819.0 511949.0 0
325324.0 513284.0 0
329403.0 514865.0 0
332566.0 512565.0 0
336778.0 513036.0 0
341933.0 514015.0 0
346314.0 513112.0 0
350325.0 513584.0 0
354645.0 513347.0 0
361468.0 510350.0 0
359056.0 513484.0 0
364861.0 510931.0 0
363809.0 514733.0 0
371755.0 510851.0 0
367903.0 513166.0 0
371001.0 515283.0 0
376561.0 510738.0 0
379699.0 510527.0 0
382568.0 510431.0 0
380127.0 513993.0 0
386459.0 510691.0 0
384059.0 513688.0 0
390376.0 510986.0 0
388263.0 515121.0 0
391946.0 514816.0 0
394538.0 511804.0 0
403040.0 510619.0 0
399194.0 513607.0 0
411537.0 510419.0 0
408259.0 512548.0 0
411695.0 515275.0 0
413747.0 512910.0 0
417741.0 513191.0 0
422591.0 514367.0 0
425179.0 510725.0 0
427277.0 515100.0 0
430145.0 511486.0 0
435268.0 511976.0 0
439776.0 512657.0 0
444091.0 512667.0 0
448939.0 512418.0 0
453412.0 511356.0 0
453048.0 515026.0 0
457192.0 510388.0 0
455880.0 513328.0 0
459586.0 513349.0 0
468276.0 512462.0 0
464536.0 513575.0 0
471880.0 514142.0 0
478516.0 510746.0 0
475256.0 512323.0 0
479076.0 514294.0 0
483409.0 511707.0 0
488321.0 510252.0 0
487633.0 515300.0 0
492539.0 513084.0 0
497308.0 511219.0 0
497406.0 515147.0 0
2507.1 515697.0 0
2063.77 519302.0 0
9762.85 517524.0 0
6184.92 518775.0 0
12756.0 519088.0 0
15790.5 517000.0 0
20721.5 515921.0 0
23412.7 520073.0 0
26582.2 516542.0 0
35494.2 518242.0 0
30852.7 518838.0 0
40462.7 517327.0 0
45303.0 515912.0 0
49366.4 518317.0 0
53008.9 515820.0 0
53397.5 519789.0 0
57026.4 517431.0 0
62640.8 519158.0 0
68476.1 518335.0 0
72808.5 517125.0 0
80580.2 516902.0 0
76784.8 519547.0 0
84789.8 518198.0 0
87264.3 515407.0 0
89698.4 518339.0 0
94296.6 515397.0 0
94597.4 520144.0 0
98989.7 517577.0 0
105937.0 518196.0 0
109365.0 516116.0 0
110662.0 518707.0 0
114790.0 519020.0 0
120408.0 519847.0 0
126895.0 518514.0 0
131753.0 515456.0 0
131320.0 520034.0 0
135548.0 518424.0 0
141069.0 517099.0 0
146782.0 517754.0 0
150968.0 519977.0 0
155333.0 517881.0 0
161492.0 515417.0 0
159377.0 519769.0 0
166229.0 515744.0 0
164229.0 519567.0 0
169857.0 518661.0 0
174767.0 515721.0 0
179361.0 519027.0 0
184399.0 519967.0 0
186449.0 515920.0 0
189910.0 518929.0 0
195237.0 519216.0 0
204542.0 518033.0 0
208588.0 518258.0 0
211714.0 516901.0 0
215902.0 516753.0 0
218512.0 520074.0 0
219582.0 516383.0 0
222690.0 518447.0 0
227031.0 516193.0 0
231147.0 519717.0 0
236037.0 516627.0 0
242072.0 516430.0 0
246528.0 517881.0 0
249745.0 515819.0 0
253940.0 516644.0 0
258288.0 516060.0 0
262645.0 517289.0 0
267270.0 517936.0 0
272009.0 518836.0 0
276843.0 518239.0 0
280987.0 517816.0 0
285167.0 516894.0 0
291737.0 518700.0 0
296541.0 518640.0 0
300328.0 517590.0 0
304009.0 518389.0 0
308009.0 519018.0 0
312255.0 517286.0 0
319097.0 518727.0 0
322130.0 516771.0 0
326289.0 517209.0 0
329749.0 519161.0 0
333521.0 516703.0 0
338345.0 518030.0 0
343031.0 519096.0 0
348050.0 518018.0 0
353213.0 517031.0 0
352238.0 520198.0 0
356807.0 516575.0 0
360550.0 518109.0 0
364787.0 519536.0 0
368125.0 517392.0 0
372128.0 519196.0 0
375227.0 515373.0 0
379045.0 518156.0 0
383892.0 518001.0 0
387992.0 518957.0 0
391485.0 518227.0 0
395315.0 516598.0 0
399705.0 518587.0 0
404230.0 516039.0 0
407573.0 520139.0 0
409001.0 516492.0 0
412301.0 519360.0 0
415101.0 516397.0 0
416332.0 520256.0 0
419276.0 517250.0 0
424526.0 518702.0 0
432300.0 515553.0 0
429561.0 519185.0 0
437219.0 516230.0 0
434440.0 519909.0 0
441908.0 516696.0 0
446130.0 516813.0 0
450089.0 516743.0 0
453017.0 518929.0 0
456924.0 516909.0 0
461566.0 516260.0 0
460471.0 519834.0 0
468191.0 515620.0 0
465540.0 518632.0 0
471517.0 518698.0 0
475719.0 516065.0 0
479422.0 517542.0 0
476697.0 520195.0 0
482769.0 516364.0 0
485160.0 518727.0 0
492673.0 517811.0 0
497387.0 519260.0 0
3324.34 523515.0 0
9483.06 520890.0 0
8606.39 525191.0 0
12582.6 522779.0 0
17954.7 521732.0 0
22949.7 523986.0 0
27580.9 521984.0 0
33156.8 522247.0 0
38364.7 521743.0 0
44510.2 521369.0 0
49663.9 522499.0 0
50537.6 525353.0 0
53612.1 524365.0 0
57518.2 521848.0 0
61072.9 523907.0 0
67059.7 523121.0 0
72248.7 521879.0 0
81148.1 521171.0 0
77240.2 524711.0 0
86135.4 522453.0 0
88919.4 525208.0 0
90867.0 522735.0 0
94611.9 524932.0 0
98489.6 522525.0 0
102309.0 520935.0 0
106610.0 523207.0 0
111350.0 522787.0 0
116128.0 523674.0 0
124656.0 523016.0 0
128691.0 523117.0 0
133670.0 523044.0 0
138805.0 523059.0 0
143803.0 521151.0 0
147381.0 522290.0 0
150637.0 524489.0 0
154710.0 522369.0 0
158593.0 524068.0 0
163053.0 524629.0 0
167210.0 522805.0 0
171076.0 524083.0 0
174624.0 521026.0 0
174838.0 525255.0 0
179133.0 524281.0 0
183853.0 524593.0 0
187602.0 523116.0 0
192299.0 524085.0 0
196509.0 523394.0 0
199990.0 520841.0 0
204104.0 523453.0 0
207850.0 521490.0 0
213231.0 522369.0 0
218123.0 523720.0 0
221761.0 522791.0 0
226463.0 521591.0 0
239330.0 520665.0 0
235245.0 521915.0 0
238723.0 525400.0 0
244288.0 522408.0 0
248065.0 525042.0 0
250850.0 521371.0 0
256853.0 520687.0 0
260128.0 524983.0 0
255279.0 525415.0 0
260849.0 520885.0 0
264893.0 522307.0 0
268853.0 521063.0 0
269974.0 525393.0 0
275237.0 522827.0 0
279789.0 521675.0 0
283254.0 520697.0 0
283850.0 524600.0 0
287540.0 521544.0 0
292561.0 523940.0 0
297341.0 523010.0 0
301075.0 521219.0 0
305259.0 522546.0 0
310802.0 524041.0 0
315661.0 520493.0 0
316415.0 525159.0 0
320027.0 522143.0 0
324878.0 521410.0 0
329565.0 523425.0 0
334562.0 522183.0 0
340434.0 523617.0 0
346177.0 523425.0 0
356611.0 521032.0 0
352181.0 524533.0 0
361942.0 523060.0 0
365842.0 525437.0 0
368373.0 522094.0 0
372402.0 523196.0 0
376320.0 521658.0 0
380833.0 521430.0 0
384814.0 522914.0 0
389905.0 522254.0 0
395463.0 521778.0 0
400332.0 523005.0 0
403237.0 520926.0 0
405898.0 524841.0 0
410840.0 523971.0 0
414331.0 522782.0 0
417803.0 524244.0 0
420520.0 521201.0 0
422118.0 525110.0 0
423659.0 522352.0 0
427459.0 524059.0 0
432133.0 522697.0 0
435968.0 524045.0 0
439409.0 520859.0 0
444255.0 521192.0 0
448969.0 520589.0 0
452513.0 522860.0 0
449068.0 524618.0 0
456170.0 521113.0 0
455995.0 525331.0 0
459416.0 523546.0 0
463388.0 523300.0 0
468430.0 522944.0 0
473507.0 523666.0 0
478364.0 524588.0 0
481988.0 521036.0 0
482110.0 525382.0 0
488489.0 520888.0 0
485153.0 523891.0 0
493876.0 522714.0 0
498278.0 522467.0 0
497891.0 525338.0 0
3697.29 529363.0 0
10095.1 529805.0 0
14037.8 526555.0 0
19487.4 527487.0 0
23635.3 530209.0 0
25952.5 526383.0 0
28338.7 530012.0 0
30617.8 525954.0 0
33050.8 530484.0 0
35873.9 526235.0 0
41444.2 526392.0 0
47526.5 526819.0 0
52876.4 529261.0 0
58039.7 527020.0 0
61134.4 530269.0 0
63637.7 526779.0 0
68736.7 528009.0 0
72879.3 526586.0 0
72275.5 530418.0 0
75343.2 529181.0 0
79752.2 530351.0 0
82452.4 525758.0 0
86572.2 527325.0 0
84270.3 530006.0 0
91097.2 528152.0 0
95682.9 529686.0 0
98607.1 526678.0 0
100876.0 530578.0 0
102549.0 525648.0 0
105537.0 528971.0 0
108894.0 526555.0 0
109821.0 530522.0 0
112901.0 527138.0 0
116753.0 527710.0 0
120713.0 525744.0 0
126192.0 527576.0 0
130896.0 525744.0 0
130953.0 529681.0 0
134784.0 527190.0 0
139513.0 528899.0 0
144148.0 525563.0 0
144047.0 530386.0 0
148052.0 528391.0 0
151355.0 527554.0 0
154827.0 527054.0 0
159475.0 528341.0 0
163466.0 528892.0 0
167440.0 527232.0 0
172475.0 528103.0 0
176645.0 528675.0 0
181828.0 529344.0 0
187766.0 527883.0 0
192480.0 528830.0 0
195229.0 527039.0 0
199643.0 526803.0 0
204408.0 528890.0 0
208209.0 526166.0 0
212908.0 529264.0 0
216662.0 526584.0 0
220119.0 526766.0 0
224377.0 526497.0 0
221980.0 529416.0 0
228960.0 525726.0 0
233669.0 526425.0 0
236904.0 530567.0 0
242356.0 526927.0 0
246065.0 528093.0 0
248926.0 530496.0 0
251020.0 527509.0 0
254951.0 529837.0 0
259590.0 530189.0 0
264642.0 527998.0 0
274405.0 527092.0 0
279242.0 526944.0 0
284146.0 530106.0 0
288023.0 526687.0 0
292544.0 529833.0 0
296494.0 526955.0 0
301644.0 526458.0 0
306874.0 528522.0 0
311877.0 530339.0 0
316857.0 529713.0 0
321246.0 526982.0 0
324376.0 530543.0 0
326531.0 526531.0 0
332352.0 527790.0 0
336826.0 526552.0 0
340261.0 529026.0 0
343967.0 527316.0 0
348539.0 528761.0 0
353970.0 530354.0 0
357880.0 526550.0 0
362492.0 527538.0 0
366282.0 529853.0 0
370152.0 526751.0 0
374934.0 526219.0 0
373184.0 529910.0 0
377389.0 530086.0 0
379886.0 525623.0 0
382067.0 530372.0 0
384150.0 526963.0 0
385993.0 529870.0 0
388118.0 526475.0 0
393101.0 526567.0 0
398264.0 526998.0 0
401988.0 525890.0 0
400610.0 529518.0 0
404106.0 529480.0 0
409726.0 529248.0 0
414409.0 526840.0 0
419596.0 529442.0 0
424583.0 527932.0 0
432431.0 526514.0 0
428759.0 529204.0 0
436647.0 527641.0 0
440531.0 525948.0 0
439105.0 530594.0 0
445317.0 525514.0 0
448350.0 528208.0 0
444201.0 530179.0 0
452103.0 527063.0 0
456515.0 529924.0 0
460551.0 527169.0 0
465778.0 527830.0 0
470758.0 526829.0 0
475155.0 528207.0 0
480057.0 529304.0 0
484707.0 528188.0 0
489212.0 525916.0 0
487749.0 530365.0 0
494029.0 527153.0 0
491268.0 530140.0 0
497528.0 529339.0 0
3207.97 535371.0 0
7928.93 533406.0 0
15240.3 531711.0 0
19832.1 532101.0 0
22366.9 534073.0 0
26418.0 533967.0 0
30937.0 534767.0 0
34991.0 534761.0 0
38501.3 531464.0 0
43965.0 530748.0 0
42099.8 534459.0 0
45595.0 534724.0 0
48789.0 532144.0 0
53100.9 534605.0 0
57180.3 532276.0 0
65259.9 531253.0 0
61454.7 534312.0 0
65552.0 535135.0 0
69594.4 533493.0 0
75044.0 534148.0 0
80101.3 535353.0 0
84177.0 534027.0 0
87967.8 531466.0 0
92127.1 532626.0 0
96701.0 534386.0 0
101627.0 535152.0 0
105841.0 533451.0 0
114565.0 531306.0 0
116814.0 535688.0 0
120005.0 530948.0 0
121052.0 535289.0 0
125406.0 533195.0 0
130554.0 533829.0 0
135206.0 532354.0 0
140994.0 535024.0 0
147416.0 533608.0 0
151797.0 530881.0 0
152387.0 535147.0 0
156267.0 531769.0 0
161231.0 533024.0 0
166034.0 531686.0 0
169801.0 530642.0 0
169267.0 534776.0 0
173846.0 532672.0 0
178123.0 532089.0 0
182338.0 534634.0 0
185878.0 532444.0 0
190502.0 532987.0 0
196128.0 532032.0 0
201332.0 531981.0 0
204265.0 534047.0 0
207941.0 532323.0 0
218431.0 530784.0 0
214857.0 534913.0 0
219983.0 534529.0 0
222450.0 532396.0 0
227086.0 531030.0 0
224639.0 535366.0 0
232174.0 531022.0 0
229630.0 535491.0 0
234326.0 534944.0 0
239086.0 534910.0 0
241881.0 530966.0 0
243237.0 535186.0 0
246369.0 532685.0 0
251645.0 532519.0 0
255781.0 533852.0 0
259950.0 535054.0 0
264124.0 533098.0 0
269108.0 531149.0 0
274304.0 531175.0 0
279280.0 532663.0 0
288361.0 533161.0 0
298257.0 531314.0 0
303158.0 531750.0 0
307574.0 533300.0 0
311407.0 535118.0 0
315588.0 534246.0 0
320750.0 533318.0 0
325985.0 534582.0 0
328356.0 530700.0 0
336282.0 531399.0 0
331696.0 534568.0 0
340505.0 533953.0 0
344602.0 531887.0 0
349855.0 534578.0 0
355142.0 535098.0 0
358421.0 530999.0 0
359799.0 535015.0 0
362118.0 531345.0 0
365107.0 535139.0 0
370017.0 532909.0 0
374666.0 534070.0 0
379825.0 534920.0 0
385798.0 534759.0 0
390420.0 531010.0 0
395632.0 531043.0 0
393364.0 533581.0 0
395509.0 535667.0 0
400519.0 533666.0 0
406842.0 533879.0 0
412198.0 534283.0 0
414784.0 530942.0 0
417231.0 534299.0 0
421313.0 533999.0 0
424834.0 531854.0 0
429463.0 533608.0 0
433239.0 535657.0 0
433944.0 531088.0 0
437455.0 534972.0 0
442124.0 534891.0 0
447232.0 534492.0 0
451233.0 531181.0 0
451702.0 535441.0 0
455242.0 533889.0 0
459138.0 535407.0 0
461467.0 531520.0 0
466224.0 532302.0 0
468875.0 535020.0 0
470992.0 531239.0 0
472696.0 535712.0 0
475948.0 532734.0 0
480421.0 533971.0 0
484703.0 532586.0 0
494523.0 532136.0 0
489937.0 535168.0 0
498017.0 532961.0 0
2020.82 539684.0 0
6021.43 539928.0 0
8638.64 537017.0 0
12986.6 536399.0 0
10726.8 540484.0 0
15304.8 540743.0 0
18540.0 536614.0 0
23600.3 537248.0 0
21548.0 539267.0 0
28307.5 538788.0 0
33566.5 538733.0 0
38702.7 537554.0 0
44072.2 537914.0 0
48800.7 537303.0 0
52787.6 538791.0 0
57578.5 537836.0 0
63039.2 538653.0 0
68067.6 538282.0 0
72637.5 538761.0 0
78205.7 540365.0 0
84104.0 538812.0 0
88966.9 536407.0 0
91046.8 539953.0 0
93701.3 538159.0 0
98775.2 539832.0 0
105280.0 539102.0 0
110941.0 535871.0 0
114436.0 540312.0 0
119340.0 540101.0 0
123498.0 538066.0 0
128343.0 537909.0 0
134408.0 538426.0 0
145291.0 537195.0 0
148918.0 538601.0 0
153277.0 539133.0 0
157180.0 536728.0 0
162139.0 539994.0 0
165102.0 535759.0 0
167831.0 539291.0 0
172690.0 538080.0 0
177796.0 536433.0 0
182054.0 539137.0 0
186721.0 537093.0 0
192936.0 536821.0 0
197215.0 537388.0 0
201726.0 536481.0 0
200531.0 540373.0 0
206134.0 537087.0 0
210268.0 536627.0 0
214343.0 540126.0 0
219003.0 538460.0 0
223264.0 538739.0 0
227307.0 539528.0 0
232082.0 539317.0 0
236845.0 539180.0 0
241927.0 539483.0 0
248983.0 535833.0 0
247544.0 540644.0 0
253243.0 538345.0 0
258233.0 538901.0 0
263415.0 537366.0 0
268017.0 536412.0 0
274064.0 536818.0 0
279161.0 537007.0 0
277699.0 540698.0 0
283784.0 535857.0 0
281315.0 539773.0 0
288971.0 538249.0 0
294401.0 535793.0 0
299860.0 535856.0 0
297775.0 539651.0 0
304058.0 535965.0 0
302074.0 540046.0 0
308201.0 538453.0 0
313838.0 539432.0 0
318556.0 537756.0 0
323083.0 538226.0 0
328256.0 539276.0 0
334037.0 540419.0 0
336841.0 536137.0 0
339996.0 539798.0 0
344511.0 537036.0 0
348677.0 539635.0 0
353077.0 538950.0 0
357327.0 538658.0 0
361963.0 539606.0 0
369204.0 537045.0 0
372807.0 538054.0 0
377194.0 539474.0 0
382826.0 540181.0 0
391158.0 535908.0 0
388574.0 539632.0 0
393378.0 539607.0 0
398703.0 539854.0 0
404163.0 538335.0 0
409496.0 538596.0 0
415340.0 539355.0 0
420379.0 537731.0 0
425492.0 536810.0 0
430398.0 537484.0 0
428717.0 540760.0 0
434005.0 539784.0 0
439392.0 539644.0 0
444713.0 539114.0 0
449796.0 539133.0 0
455324.0 538739.0 0
464243.0 536238.0 0
460545.0 540045.0 0
469288.0 538630.0 0
472987.0 539112.0 0
476955.0 537001.0 0
483986.0 537492.0 0
480099.0 540137.0 0
488175.0 540628.0 0
493042.0 540226.0 0
496298.0 536520.0 0
2728.08 543727.0 0
7924.26 544246.0 0
12759.1 544584.0 0
19768.0 541733.0 0
17160.7 545085.0 0
23909.1 541325.0 0
22520.0 545696.0 0
27947.4 544206.0 0
31593.9 541726.0 0
33504.4 544927.0 0
36748.1 542101.0 0
41992.8 541591.0 0
44619.7 544703.0 0
50374.9 541225.0 0
46594.1 541339.0 0
49268.3 545495.0 0
54645.6 543135.0 0
60387.6 542834.0 0
65636.8 542735.0 0
70105.9 542161.0 0
73671.3 544122.0 0
83533.7 544070.0 0
87972.8 541598.0 0
93269.2 542909.0 0
97764.1 545319.0 0
102591.0 544021.0 0
110001.0 541006.0 0
107287.0 544258.0 0
112304.0 545055.0 0
117032.0 544063.0 0
120982.0 544140.0 0
125185.0 542387.0 0
130039.0 542284.0 0
134623.0 545906.0 0
140155.0 541520.0 0
145154.0 540911.0 0
144471.0 545365.0 0
148670.0 543317.0 0
151850.0 545137.0 0
152239.0 542259.0 0
156521.0 542304.0 0
166287.0 544203.0 0
171013.0 542655.0 0
176706.0 542465.0 0
181321.0 542559.0 0
185510.0 542498.0 0
190556.0 540823.0 0
189091.0 545142.0 0
196098.0 543196.0 0
204848.0 541728.0 0
208192.0 545273.0 0
209745.0 540955.0 0
213219.0 545127.0 0
217732.0 542935.0 0
221647.0 542131.0 0
225245.0 543296.0 0
230079.0 544355.0 0
236574.0 544302.0 0
242974.0 545241.0 0
251828.0 543122.0 0
256282.0 543143.0 0
261008.0 542064.0 0
270377.0 540910.0 0
265653.0 541158.0 0
269297.0 545432.0 0
274719.0 544839.0 0
284924.0 540924.0 0
280947.0 544082.0 0
288499.0 542926.0 0
293426.0 542064.0 0
298787.0 544119.0 0
305732.0 542242.0 0
310045.0 543661.0 0
314908.0 544534.0 0
320043.0 542899.0 0
325670.0 543671.0 0
330218.0 543723.0 0
340457.0 544642.0 0
344645.0 542203.0 0
349772.0 544739.0 0
356082.0 543714.0 0
362382.0 545397.0 0
367478.0 541615.0 0
373122.0 542610.0 0
377883.0 544275.0 0
386761.0 543439.0 0
391360.0 543944.0 0
396570.0 545104.0 0
402143.0 544518.0 0
406521.0 542501.0 0
411355.0 543749.0 0
415921.0 544377.0 0
423411.0 541851.0 0
419865.0 545438.0 0
427413.0 544641.0 0
431960.0 544535.0 0
437206.0 544422.0 0
442720.0 544015.0 0
447511.0 543234.0 0
452459.0 542997.0 0
457440.0 543894.0 0
462547.0 544997.0 0
465418.0 541115.0 0
467580.0 544768.0 0
471428.0 542506.0 0
475931.0 541282.0 0
474661.0 545264.0 0
479360.0 544885.0 0
483816.0 542728.0 0
487687.0 544958.0 0
491119.0 543596.0 0
497562.0 541102.0 0
497922.0 545141.0 0
4688.45 548445.0 0
1209.68 550027.0 0
10275.3 547926.0 0
14536.7 549175.0 0
19193.3 548703.0 0
23078.5 550829.0 0
25903.2 548117.0 0
30316.9 549176.0 0
39898.1 546118.0 0
35724.2 549664.0 0
45016.3 549007.0 0
49810.2 550637.0 0
53355.3 548025.0 0
58151.8 547530.0 0
63361.4 547142.0 0
69179.1 546747.0 0
74161.5 548667.0 0
78598.1 546468.0 0
82808.2 549342.0 0
88982.2 547217.0 0
94414.3 548500.0 0
98965.2 550155.0 0
104093.0 548818.0 0
109422.0 549764.0 0
115087.0 549884.0 0
120142.0 548442.0 0
123859.0 546414.0 0
124989.0 550685.0 0
127971.0 546446.0 0
130209.0 550568.0 0
140325.0 546661.0 0
138910.0 550805.0 0
143930.0 550393.0 0
149044.0 548505.0 0
155191.0 547866.0 0
160809.0 546005.0 0
164547.0 549858.0 0
173058.0 546610.0 0
169002.0 548292.0 0
177097.0 549091.0 0
181108.0 546144.0 0
185630.0 547539.0 0
192476.0 548042.0 0
201714.0 546487.0 0
248597.0 546090.0 0
263811.0 546720.0 0
285658.0 546847.0 0
290629.0 546362.0 0
294957.0 547042.0 0
304130.0 547434.0 0
309924.0 548768.0 0
314851.0 549505.0 0
318972.0 547816.0 0
323272.0 547936.0 0
329196.0 547905.0 0
335025.0 546829.0 0
340135.0 548834.0 0
344633.0 547557.0 0
352733.0 549616.0 0
358126.0 549629.0 0
364198.0 550040.0 0
367793.0 547494.0 0
373811.0 548672.0 0
379581.0 550178.0 0
382804.0 546035.0 0
387930.0 547722.0 0
392996.0 549011.0 0
399597.0 547459.0 0
402462.0 549355.0 0
406972.0 547388.0 0
411848.0 548644.0 0
416517.0 548813.0 0
421321.0 549925.0 0
424152.0 546755.0 0
428588.0 549465.0 0
434655.0 549401.0 0
440352.0 548785.0 0
446466.0 548853.0 0
450124.0 545932.0 0
454077.0 548407.0 0
459294.0 548220.0 0
465773.0 549487.0 0
471029.0 547901.0 0
475769.0 549377.0 0
480099.0 549485.0 0
484600.0 548228.0 0
494013.0 546407.0 0
490166.0 547504.0 0
493665.0 550980.0 0
497787.0 549225.0 0
2837.94 553636.0 0
8386.45 551695.0 0
12480.9 553923.0 0
18155.6 553858.0 0
23335.2 555739.0 0
27402.6 553483.0 0
32323.7 553994.0 0
40663.8 551307.0 0
37260.0 554700.0 0
42050.3 555555.0 0
46225.9 553793.0 0
55567.5 552063.0 0
60917.5 552107.0 0
66211.2 551440.0 0
70737.7 551248.0 0
69580.3 555712.0 0
74144.4 553193.0 0
78145.1 551338.0 0
81221.4 554675.0 0
86761.6 553693.0 0
92004.8 551942.0 0
96060.2 554281.0 0
102577.0 554100.0 0
107221.0 553869.0 0
112098.0 554269.0 0
116521.0 554434.0 0
120569.0 553180.0 0
127939.0 554243.0 0
131789.0 554706.0 0
134440.0 551748.0 0
152510.0 552182.0 0
159562.0 551489.0 0
326447.0 551753.0 0
331805.0 552431.0 0
337599.0 552211.0 0
342573.0 551960.0 0
348016.0 551735.0 0
355214.0 553795.0 0
361784.0 553354.0 0
367178.0 551940.0 0
370631.0 553134.0 0
376685.0 553017.0 0
380335.0 555178.0 0
384400.0 551177.0 0
389206.0 552638.0 0
393938.0 554077.0 0
397994.0 551053.0 0
399434.0 555815.0 0
404113.0 553984.0 0
408924.0 552259.0 0
413671.0 552872.0 0
418278.0 553462.0 0
423900.0 554269.0 0
428550.0 554459.0 0
432726.0 554206.0 0
438134.0 553865.0 0
442975.0 553132.0 0
446123.0 556017.0 0
450940.0 553802.0 0
456679.0 553320.0 0
461246.0 552009.0 0
465840.0 555281.0 0
472002.0 553624.0 0
478139.0 553816.0 0
482670.0 552534.0 0
488943.0 551166.0 0
486313.0 555862.0 0
492528.0 556090.0 0
497569.0 553663.0 0
1344.81 557410.0 0
3830.41 559867.0 0
7509.82 556595.0 0
7553.02 560898.0 0
13524.8 559579.0 0
20060.5 559986.0 0
27875.3 558746.0 0
33817.6 558882.0 0
39262.2 559509.0 0
45383.3 557879.0 0
51370.8 556201.0 0
58018.6 556532.0 0
64218.4 556343.0 0
77025.4 556508.0 0
91780.3 556330.0 0
88579.9 558320.0 0
136991.0 556171.0 0
385481.0 556126.0 0
410742.0 557333.0 0
420020.0 558074.0 0
424949.0 559305.0 0
430212.0 558864.0 0
435696.0 558590.0 0
441796.0 557661.0 0
449894.0 559498.0 0
454856.0 557501.0 0
460330.0 556969.0 0
464130.0 560225.0 0
470006.0 559532.0 0
475582.0 558538.0 0
481236.0 557790.0 0
484561.0 560644.0 0
489187.0 560314.0 0
494822.0 560611.0 0
497910.0 558078.0 0
POINT_DATA 5000
SCALARS Radius float 1
LOOKUP_TABLE default
5415.48 5120.0 6182.6 3163.97 6810.52 5073.35 4834.9 3863.18 2356.98 4998.37 5492.18 5258.36 5061.3 3951.75 3642.12 5812.43 5906.14 7513.1 5254.28 4436.4 5733.48 5580.89 5645.7 5553.16 6110.27 5840.26 5670.04 6044.04 5085.53 5351.6 5867.73 5013.56 4499.64 5542.27 5122.66 5484.19 3557.27 4688.68 4402.52 4182.53 4672.91 3588.44 5176.86 4366.19 3672.51 2938.66 4008.92 5561.06 6716.79 3850.77 5325.36 5484.83 4715.55 5538.89 4730.36 6059.59 5701.86 4375.68 4238.81 5054.98 6030.06 5170.02 4927.31 5185.34 4517.56 4432.58 5903.42 3761.32 4118.05 5065.13 4940.78 3615.22 5305.17 4380.59 5546.39 6759.9 7021.47 5926.61 2720.68 4955.55 4468.59 3563.63 5885.03 5200.76 5325.02 4862.64 5205.43 6684.56 3955.56 5292.64 2635.86 4385.06 6166.5 5936.02 4231.61 3379.84 7613.27 4133.88 5945.65 5418.62 5416.38 6051.14 5836.15 4345.55 2837.58 3653.41 5246.2 5017.13 4827.23 3673.74 6116.18 3968.64 7447.37 4688.67 7184.19 4290.3 3867.67 3942.53 4861.08 4827.82 3607.45 3589.27 4951.03 4094.62 4665.12 6483.19 6230.49 5493.32 4601.27 4195.44 5740.68 3261.21 4277.89 6704.06 5600.93 3871.88 3856.01 4390.66 5279.39 4911.47 5803.39 4924.6 4733.32 2924.37 2899.43 5399.73 4003.05 4805.87 5759.91 4333.2 3260.67 3936.02 4927.02 4174.52 5109.54 7054.71 3641.64 5489.43 5747.75 5539.32 4796.33 6496.85 5541.59 4124.71 5728.85 6337.56 5863.59 4381.97 3255.82 6257.19 5242.73 2812.98 4065.69 5603.15 5390.22 4712.33 5227.21 3997.1 3038.33 3383.4 4780.03 5980.74 3856.1 3829.13 6458.82 5527.54 5054.25 7325.81 5360.19 4874.39 4839.34 5083.08 2980.99 3998.5 5525.39 4024.3 5555.28 4737.14 4686.65 4695.45 4660.72 6038.78 5123.52 4295.38 4392.68 5495.39 4044.71 4487.31 5816.2 3091.3 5693.81 5789.98 6138.47 5573.7 4727.62 4055.8 4794.96 6186.19 4840.01 6834.49 7933.0 5938.34 5173.87 6394.38 5169.36 5834.74 5556.96 3888.21 5697.78 3921.18 4667.36 5529.52 3554.9 3996.0 4002.16 4138.16 2540.31 6029.66 6302.8 5697.4 5206.78 6425.26 5280.17 5028.96 5143.58 4484.76 5611.2 4220.65 4455.12 5380.13 5118.27 5932.23 5788.23 6052.7 5891.05 6902.81 7199.21 5252.48 4015.92 5708.81 4778.34 4684.5 5120.49 5409.61 4005.44 4270.95 5555.88 6732.43 6362.12 3866.16 5152.36 4511.82 5826.64 6820.42 4894.16 5711.87 4896.52 4941.22 5791.61 3798.62 5581.75 3666.57 4254.17 5615.42 4091.31 4523.7 5255.32 6124.89 5337.48 5542.21 5043.05 5924.89 3486.22 6894.71 4414.54 5262.61 6038.2 5713.22 3183.98 4524.28 5017.78 3794.63 3778.1 4727.24 4816.2 6959.81 4829.35 6321.41 3372.79 5282.64 4479.66 6392.01 3369.13 6644.76 6372.62 7565.34 5637.59 5481.78 4937.14 5551.36 5201.36 5094.81 4306.53 5972.06 5861.71 4312.67 4359.04 5015.69 6175.81 6677.09 5813.4 4089.76 5201.67 4751.02 5184.56 3192.41 4715.72 4987.87 5367.2 5308.1 3043.85 6730.19 4937.02 6037.08 3103.0 6084.86 3307.12 4467.94 4933.21 4850.81 6038.14 6135.57 5024.9 5998.38 4270.24 4947.52 4989.15 4164.13 4520.1 4642.34 4305.57 5874.89 3791.79 5526.55 4754.05 4951.47 6084.93 3315.57 4669.66 4808.52 5607.24 5461.13 4907.89 5655.21 5629.19 6756.95 4049.23 5601.05 3586.91 3115.91 4948.92 5478.92 5810.84 5094.44 5375.47 4723.12 4809.42 5659.17 4717.05 4562.29 5287.2 5423.8 3417.33 5080.66 4926.42 5153.74 4165.81 4293.03 4424.7 4389.21 4925.44 5246.61 5215.15 4764.96 5046.33 5053.92 4726.76 3599.45 5839.13 5090.24 5923.5 5091.39 2240.39 6324.23 4929.8 4382.74 4516.43 4749.8 3748.24 4230.54 4655.49 4566.18 4964.09 5856.11 4234.94 4109.88 5013.13 4980.85 5714.58 5110.45 5248.77 4083.97 4528.09 3556.85 3895.51 4128.98 6291.51 5882.89 6246.22 4307.28 4100.38 5804.71 5020.12 6352.26 3735.44 4073.93 4645.41 5096.78 4727.24 4651.28 4384.42 4493.48 4362.19 5082.6 3693.63 6163.38 3459.9 4093.08 4997.27 5543.27 3327.49 3960.8 4923.9 3329.99 4973.78 3947.47 5208.32 4607.02 3296.27 6673.96 5174.89 4188.32 5370.52 5538.93 4739.42 5727.3 3847.38 4242.52 4745.45 4907.06 3057.03 4786.6 4433.59 5163.9 5740.84 4973.83 4612.68 3320.52 6355.42 4151.94 5690.56 3937.74 5478.47 6061.47 6142.37 4449.22 5806.08 5628.24 4853.39 5365.89 5992.26 4511.54 5070.39 4613.31 5091.68 4713.25 6243.0 5441.96 4288.3 5774.81 3697.96 5344.77 4899.11 4723.48 4278.07 5356.51 3818.59 4863.72 5495.68 6043.3 5530.87 3912.37 4310.18 5927.43 5244.78 5492.26 5762.84 5119.37 3982.23 5243.29 4336.42 3130.65 5004.67 5409.33 5196.0 4178.15 4204.84 6119.09 7531.29 5069.25 5935.03 5048.89 3161.47 3435.9 3991.03 6826.57 4652.29 4495.87 5027.98 5281.28 5097.87 2631.9 4087.15 4143.08 5489.34 5952.75 6445.94 4281.49 5537.72 4129.43 4320.28 5293.9 4685.34 4220.88 6519.71 6640.13 5351.39 4583.31 5210.03 3402.32 4306.11 7589.94 4466.03 5419.37 5985.29 4898.94 4247.23 4733.04 4755.47 6390.78 4485.99 7435.25 4788.87 3746.31 5543.46 5346.27 5498.32 7267.18 4758.21 5002.48 5708.14 4262.82 5542.14 6342.25 3843.58 6142.94 6327.9 6082.81 5449.18 3092.35 3629.96 4714.54 3320.11 6022.17 4503.89 5903.66 4528.49 5275.32 4268.65 4694.83 5788.66 4354.08 3903.75 4520.62 5475.8 5475.7 5314.69 6050.81 6022.72 6475.1 5527.33 2691.29 4969.21 6256.02 6255.18 4277.88 7500.97 3920.42 6623.85 6332.36 4218.06 4931.53 6691.39 4329.05 3191.99 5110.37 5367.52 4048.37 5030.91 4659.59 4322.15 5507.24 5101.59 6851.54 5935.47 5313.66 2651.49 5512.23 5349.31 4649.22 5509.42 5394.55 5936.36 5229.48 4016.18 5127.16 4249.46 4244.99 4643.31 6917.52 5402.21 2845.98 4668.71 7228.46 5102.36 8332.24 7134.64 4602.25 4931.38 5664.98 3485.26 3240.09 4548.16 5025.39 4377.07 3813.22 3848.93 5570.3 6020.48 5234.29 5200.05 4645.58 4711.62 4114.24 5670.2 2976.22 5094.52 4256.43 2682.24 5928.32 5415.19 3950.63 5526.75 5435.74 4275.57 5560.26 5327.45 5965.81 2330.66 6185.89 3702.37 4177.19 3691.0 3990.25 4880.14 5320.92 3948.23 5228.18 5787.31 5978.82 4342.9 6122.55 5978.9 4270.53 5480.13 4736.58 4792.73 5264.06 4556.36 3369.23 4515.71 3688.8 5893.5 3817.13 3695.36 4547.19 3963.86 5076.35 4091.8 5273.35 5181.4 4662.56 5166.79 5417.15 3405.98 4946.74 5996.33 4612.62 6631.19 3619.07 4467.04 2983.99 6385.23 4750.17 3997.96 3460.94 5660.85 3758.07 4373.45 4752.51 4989.09 3587.05 4982.31 6362.14 5269.18 6719.88 5065.11 6155.31 2739.94 4790.08 6308.71 4194.5 5082.47 4501.51 5379.87 3708.04 5513.6 4901.41 5138.31 4551.24 5358.59 6387.01 6202.55 7111.16 5023.15 3844.9 4871.44 4564.34 6375.99 6259.23 4853.02 4998.21 3457.48 3931.07 3688.16 7440.72 4681.72 3949.6 4945.39 5661.62 4867.08 5626.61 2614.4 5817.25 6363.92 4439.35 6205.93 6184.4 3828.81 6229.37 5289.52 5314.85 4406.1 5034.59 4553.56 4223.33 4942.77 5911.67 5191.63 4187.56 4840.84 3629.62 5344.25 5344.0 4593.7 4043.57 4138.42 5987.17 6013.14 5925.6 3979.82 4602.86 4581.13 2765.2 3856.59 4621.75 4219.07 3610.4 6338.89 5584.06 6480.17 3838.56 6445.22 6248.81 5872.05 4962.77 5088.44 4256.67 6079.11 6430.39 5376.71 5703.6 6326.18 6648.68 5407.78 5061.98 4923.24 6632.99 5830.72 5309.98 6718.19 4307.48 3848.54 4305.43 5450.44 5080.18 3927.99 5069.84 5266.5 5329.64 4051.44 4997.27 4716.19 3323.28 5135.69 4301.06 3456.98 6045.46 4290.14 4763.45 4150.99 3771.48 4478.15 5681.38 5011.31 4292.06 4481.53 5006.58 5077.33 5586.81 4746.52 3948.17 5572.95 5413.79 6723.16 5372.61 5402.24 3686.21 5013.42 5651.07 6101.92 5323.3 4635.6 4427.28 3082.32 3658.37 4765.02 4448.13 5070.29 6157.04 4807.28 4266.03 5075.55 4713.74 4220.03 4084.49 6179.96 4537.6 4419.61 7177.44 6260.79 4082.57 4563.46 4236.14 4407.87 5282.91 5941.4 6510.17 4263.33 5868.82 4454.63 4066.38 4050.9 6695.82 6049.55 5514.76 6405.76 5709.62 4877.67 5835.78 4020.32 3815.26 3498.2 4245.72 5445.87 4216.92 4571.7 4704.72 4177.94 3929.19 4107.03 4271.69 3970.25 5198.77 5643.58 4850.01 5215.05 5147.67 5577.04 4986.77 6318.18 3824.16 5330.45 5045.38 3689.45 3868.18 5350.88 5130.91 4948.5 5383.07 4527.02 4247.15 4519.22 4531.14 4602.85 5210.48 7552.94 3627.55 6239.84 4409.63 5865.39 5521.25 5370.85 3178.54 5949.46 3661.9 3776.94 5629.39 2684.03 4768.61 5246.47 2261.36 5280.69 4522.21 6923.84 5449.46 5703.07 6166.29 6113.54 5147.36 4662.43 3963.76 5733.62 4043.66 5169.9 5282.51 4425.84 5331.02 3797.33 7256.35 4871.96 4800.69 4523.88 5742.65 4241.89 3279.1 4978.31 5912.61 5054.74 4099.77 5941.72 4981.9 6562.18 5794.24 4127.74 5908.1 4541.21 4344.58 6048.7 5896.46 4742.68 5634.83 5499.11 4502.5 5922.5 5347.48 3633.87 2775.04 3821.72 4810.12 6898.19 4138.46 6035.6 5137.34 5198.29 3975.31 5423.0 5344.43 5125.78 6034.41 5452.83 5178.99 4959.34 4790.78 4591.87 6422.84 6552.22 5379.09 7644.38 6004.68 4051.34 6799.4 5278.36 5107.23 5136.08 5558.68 4010.57 6191.29 4187.31 5506.19 7422.36 6719.94 4950.67 5227.59 5453.6 4709.05 5294.77 5528.53 6553.94 5255.18 5726.66 3004.16 5460.65 4460.92 5945.89 4042.28 5592.32 4105.55 4863.23 4402.67 5381.16 4948.98 4403.98 4414.48 4560.84 5227.52 4537.32 5163.02 4656.78 3066.13 4302.5 4156.38 2476.04 5105.16 6006.16 6009.88 4164.68 5050.65 5316.75 5495.84 6268.1 3784.5 4862.21 6261.42 5113.21 4374.35 4011.77 4527.08 6396.74 7099.43 5315.4 5526.14 6449.45 4044.45 5262.19 3627.82 4244.9 6070.58 4285.32 5490.43 4373.47 5022.28 6169.11 5197.52 5615.35 5172.53 4027.09 4135.62 5801.99 4860.33 4502.18 5534.94 3685.13 3312.06 3418.99 5180.76 3361.26 4993.35 6218.95 5222.16 5533.72 5533.42 3678.08 4802.32 4599.38 5518.57 5463.48 3240.51 5730.33 4527.99 5161.01 4298.15 4376.7 5190.61 4628.4 5832.37 6051.83 5409.63 4263.16 3077.84 4630.82 4813.08 6799.88 4540.86 3062.43 5426.78 4767.78 5235.17 4340.76 6566.1 4435.36 3555.86 6065.22 5565.13 6386.78 4996.99 4470.61 6193.35 6086.96 4729.43 5233.78 4092.24 5991.09 4562.74 4678.38 5126.91 3942.07 5448.61 7443.72 4827.33 5022.8 3937.08 7055.53 6133.92 5013.67 3719.84 4178.4 5669.65 5253.55 5820.48 7034.11 5782.6 6125.34 2586.12 5975.63 5965.78 4274.61 5252.34 2965.79 4287.63 4410.55 3921.08 5776.37 4190.31 4516.28 5486.68 5678.96 5100.25 6048.86 4986.51 6894.26 5339.38 4285.66 4896.11 4318.48 6132.95 5266.22 5226.97 5754.18 5132.68 4480.95 6595.03 4983.39 5366.52 4690.55 5417.8 5146.37 7132.12 4836.16 5151.11 5680.94 5545.46 4543.1 6550.44 8325.01 3764.06 4642.93 4440.81 5941.9 6024.75 3973.12 6642.76 6109.49 5860.67 5987.42 5990.52 2967.38 5652.0 5463.41 4779.5 4421.12 4929.75 5254.49 4221.28 6045.22 4456.39 4631.83 4384.88 3701.27 6887.27 4806.34 6008.49 5776.57 7144.24 5133.97 3600.43 6600.94 5371.02 5513.57 5260.34 5729.23 5206.48 5934.22 6586.45 3780.23 5826.04 5624.49 3745.84 4359.62 3471.03 5011.84 5696.88 4730.41 5690.26 6057.22 5062.71 6946.21 4289.17 5433.8 5564.02 6444.77 6314.07 5083.41 7055.42 5683.61 5805.86 4049.02 4470.4 5346.68 5296.29 5311.03 4611.53 5094.48 5255.12 3872.61 5576.92 4238.4 6408.83 3930.79 4004.35 5365.24 4763.96 5293.51 5008.63 4446.06 3450.93 4270.74 6293.89 5737.75 2761.07 3778.02 4558.15 6552.21 4350.12 5227.02 3603.51 5670.0 4232.16 5300.96 4344.51 3781.77 5581.55 3834.43 4707.06 5193.01 5491.37 3474.5 3860.83 5732.27 4523.39 5434.47 5829.22 6917.62 4497.78 5567.93 5811.18 5332.65 3764.1 6451.33 4835.83 5604.35 4159.35 5225.33 6477.91 4237.98 6439.37 6649.96 4081.97 4614.3 4896.39 3633.79 4303.19 6081.14 5480.83 5421.53 4607.85 5653.9 4220.46 4287.53 5683.26 5598.74 4906.82 5046.21 5894.61 5131.24 4788.58 6155.1 5687.83 4709.35 5196.67 6496.67 5876.71 5474.8 5226.0 4373.3 5339.78 3095.48 4750.78 4166.08 3979.26 5960.66 5188.81 6608.73 3999.48 4203.26 4004.04 3923.03 5411.85 5607.14 4156.2 6072.45 6915.83 4497.59 4470.98 3901.8 5511.88 5759.46 4512.11 5443.58 6248.6 3836.45 5687.85 4558.46 6401.43 5020.71 5997.88 2681.29 5839.71 4360.23 6234.32 4585.31 4586.19 6625.18 5323.91 5097.45 4047.87 4185.61 5742.47 4917.99 4367.78 4095.75 4298.45 5222.51 6609.84 5135.96 5658.37 6074.94 4250.88 5699.53 6348.03 3475.67 3783.54 4792.39 5278.56 5146.37 4814.12 5631.14 4243.79 6137.8 5433.65 4442.22 4887.76 5413.31 4008.15 3012.99 3091.67 6316.56 4332.87 5401.99 6420.81 5514.84 5134.39 4256.57 5784.3 3914.2 6088.68 5937.08 6070.3 5612.21 5128.57 4135.08 4929.14 6000.7 5945.08 5004.23 5139.5 6442.69 6320.71 4648.04 3527.05 5029.78 6262.72 5762.59 4861.06 3664.11 3365.82 6481.79 5320.28 4569.12 4796.58 4298.67 5873.69 6222.42 4962.09 5654.31 5470.77 4643.85 6062.05 5082.74 4735.33 4413.85 4844.57 3999.94 6171.13 4027.46 5092.37 4864.22 5941.61 4933.65 6098.1 5708.99 2435.33 6333.29 4074.48 4477.04 4558.47 5731.57 5703.74 5662.55 4747.55 3755.95 5737.92 2685.81 3056.7 5591.76 5010.04 5889.35 4394.56 4570.98 5388.78 4275.07 5825.38 5099.21 4573.72 4163.74 6969.28 5698.96 5636.4 6471.42 3319.67 5283.8 4076.59 5164.1 4428.14 6016.19 6464.15 4972.17 4479.11 6685.4 4222.77 4850.06 5268.38 7038.89 5527.23 4805.33 3863.67 5980.95 4013.38 5067.56 3352.35 4343.78 2735.53 5263.3 4909.65 6523.86 4669.06 4811.32 6400.08 4743.59 4715.58 3317.83 5208.14 5580.92 4450.7 3532.3 5151.52 5769.98 5973.33 2221.99 3583.21 4643.56 5442.32 5067.46 3580.58 4863.01 5620.74 5604.21 3979.54 5233.29 3169.67 4968.03 7493.3 4814.55 5304.13 5944.09 5833.06 5698.77 6607.87 4163.5 5374.51 6515.84 4143.78 4123.6 4538.95 7092.87 5224.12 4970.88 4850.14 5463.38 3637.61 6098.14 5945.21 5750.71 3493.7 4472.17 4938.74 4200.03 4831.47 3474.39 5516.95 6939.12 5563.79 4406.4 6853.85 3493.47 4020.4 2395.5 4596.75 3374.08 3497.9 5782.48 4188.87 5564.23 4031.78 5950.04 3735.24 4231.83 6817.57 3614.96 3886.68 6853.04 4745.43 5831.96 5464.68 4539.07 4510.8 4475.83 5480.3 7509.24 5896.26 4587.67 5951.81 6101.13 3924.14 5599.7 4296.69 3665.95 6238.32 6804.79 6372.13 5369.5 5404.01 4124.49 5535.91 3230.13 5714.25 5325.96 5412.24 6332.01 5016.02 7044.29 4234.18 7085.01 4049.16 3936.95 6193.08 6069.3 5887.01 5116.6 5168.35 3747.03 2783.85 4286.49 7693.4 4437.07 6184.88 3449.37 5829.32 4396.25 3763.05 5551.95 5092.24 4347.74 5369.08 4518.04 5291.9 4766.06 4009.62 5356.79 4011.37 4874.18 2081.58 2511.46 4312.56 2775.69 4778.82 5204.04 4612.06 3361.92 5467.84 3306.14 5029.47 5490.58 4863.79 4750.58 4702.06 5395.14 2477.07 5117.47 3464.83 4923.41 5724.64 2990.77 4925.63 5965.15 4763.66 4888.6 4666.81 6739.08 7042.12 4797.52 6343.14 4471.58 5501.93 5462.21 6313.06 5374.98 6345.13 5274.19 6470.3 4719.7 5599.49 4097.57 5313.22 3436.15 5328.22 4151.76 3905.51 4216.17 6484.17 4721.02 3546.71 4254.37 4938.72 5768.57 5956.65 4498.25 5151.21 6574.95 5398.64 4693.52 4568.41 3624.7 3420.08 4912.04 4320.42 4691.91 4255.34 5344.83 5064.79 7046.11 4863.97 3427.63 4146.81 5756.75 6342.48 4840.44 5093.82 5212.43 5454.12 6918.35 4834.3 6348.54 4066.57 5642.35 5156.76 6357.47 6101.57 4891.38 4793.65 5955.86 4532.89 2949.12 6176.67 4533.37 4848.46 5742.09 2779.99 5887.38 4581.37 4920.21 6942.34 5851.61 3658.05 5478.11 6153.94 6836.82 3862.77 3858.17 3477.1 4631.99 4740.98 3185.39 5388.39 4356.49 3728.18 4326.48 5335.47 4526.81 3994.07 5048.19 5491.9 4219.94 5907.46 6405.0 4264.91 3918.87 4659.16 5399.29 3101.75 5549.49 5423.42 6605.86 6505.78 5657.36 4785.25 6124.08 6519.43 3619.79 5876.64 6710.88 5053.95 3967.48 6667.68 6213.04 4497.31 3163.78 4305.16 4721.32 3293.56 5092.28 5882.65 5078.86 4739.14 4780.2 5163.55 4918.77 6326.39 6817.32 6471.55 4319.79 5960.56 6643.85 4020.95 5774.97 6049.79 5862.86 5226.56 4390.41 6113.95 4050.08 4901.07 5452.42 5017.5 5005.85 4893.49 5711.11 4575.94 5325.44 5102.75 5021.88 4597.29 5931.77 4200.09 5097.95 5108.06 4914.45 4222.4 3573.73 4000.43 4698.87 3984.88 4661.03 5318.53 5160.59 5262.35 4732.09 7165.9 4281.98 5783.48 4701.5 4449.98 4771.65 5589.37 5439.49 6639.64 5216.26 3687.65 4887.52 5478.95 3851.85 6318.23 4058.87 4206.98 5174.75 5932.07 4984.46 5948.71 3856.53 5460.89 6040.74 5260.85 2884.65 5393.65 5807.46 4961.99 4648.21 4393.16 3311.29 4549.69 5526.31 5030.15 3644.78 4078.93 5934.82 5128.77 7122.87 5633.61 4243.26 6799.23 4153.84 4888.27 6740.71 5789.55 6487.56 4854.11 4633.05 4901.2 2275.45 5971.22 4909.31 6522.59 5012.5 5711.62 5435.19 5461.55 4270.15 7093.13 3298.2 6306.21 5926.11 5253.37 5211.38 5235.11 3830.46 6515.8 6031.67 6413.11 5529.42 5274.14 5257.12 4636.5 4819.73 4434.19 4903.82 5100.1 3382.7 4940.42 3954.91 5085.71 4371.99 3703.1 5923.4 4946.42 4623.61 4082.47 5203.08 2965.01 6235.57 6263.44 4863.27 3492.19 5122.63 4584.5 4118.84 6766.43 2315.64 5916.16 4703.08 4890.5 6934.37 3731.84 4488.85 4579.69 3981.07 3554.48 5186.3 6496.52 3991.42 5966.61 4388.63 4514.79 4940.28 4834.87 2216.82 4509.89 3672.21 5760.22 6752.75 5938.17 5269.38 4795.43 2928.82 5607.3 4811.76 5313.12 5498.42 5351.56 3344.57 6448.66 5220.76 6945.98 5138.2 6412.67 7001.83 4504.35 4593.7 5012.97 4349.13 4036.91 4891.67 5110.11 6379.14 3634.5 6631.28 6571.31 4392.65 6413.15 6103.11 5048.55 6459.51 4024.31 5844.72 3992.97 4147.31 5989.05 4054.22 7228.94 4441.22 5853.89 6551.93 4595.12 3110.13 4386.8 6484.43 6423.81 4625.67 6192.77 3485.54 4458.64 4312.15 4583.52 4501.78 6418.11 6015.02 4922.49 3572.94 5797.36 5001.58 4820.17 5119.86 4729.42 4592.15 5084.17 4901.44 4998.22 5533.19 5417.21 6602.43 4383.56 3562.79 4798.17 4990.79 6865.76 4953.1 2895.63 5424.46 6449.64 5266.01 5767.9 4857.84 2978.76 2040.66 7016.27 5384.76 6622.11 6138.12 4689.15 4428.78 6790.73 4965.89 5746.28 5187.7 5659.95 5409.66 6090.91 3561.29 3295.83 4186.6 4537.14 4152.85 5551.9 4219.78 4963.34 5644.82 6413.02 4440.57 5412.31 6736.03 5548.29 5374.07 3623.87 7480.41 5163.77 3423.15 6027.62 5765.42 5010.2 6098.95 6123.03 4997.83 3718.69 5148.08 6192.0 5885.28 6579.31 3004.34 3022.6 3804.5 5375.1 4172.6 4638.18 4196.37 5211.6 5806.31 3556.79 5456.71 4453.97 3503.41 7317.04 3971.08 6204.65 4482.9 6550.4 3766.69 5513.8 6818.91 3503.65 4521.75 4027.63 3429.57 5569.2 5350.88 4642.74 5420.67 6735.97 5305.59 5416.45 4330.58 5754.6 4955.16 3288.01 4904.51 2202.77 5751.15 5950.88 4149.55 5474.01 6201.86 7554.58 3380.69 4140.4 3639.44 5446.4 4725.01 5966.75 5510.9 3657.69 4883.63 3492.83 6280.13 5244.22 5585.14 7039.98 4438.76 6456.58 5089.26 4159.81 3886.72 5244.98 5415.45 3776.8 5096.43 6156.21 6104.26 3568.28 5583.61 5166.79 5425.98 4516.53 5996.66 5818.95 4093.99 3940.49 6464.8 5079.22 4908.49 4452.54 4684.44 4962.21 4749.59 5089.62 5884.9 3685.65 3468.42 3685.13 4590.55 5243.43 4673.35 4741.26 3876.21 4655.16 5920.32 3701.16 4916.22 5251.4 6022.7 3867.19 4188.3 4345.67 4453.64 5081.78 5019.93 3885.86 4459.28 5235.29 4260.92 6116.33 4479.94 5499.39 6250.23 4407.9 4718.54 4435.51 8659.64 3087.09 4588.7 4055.54 5683.95 3766.55 5469.13 6107.89 4976.12 4233.8 4817.16 5530.49 5453.98 5660.55 5578.94 5653.03 4157.29 7610.49 4777.03 4286.17 4246.61 3684.56 6028.09 5323.55 5452.36 6486.37 5561.74 6083.28 5975.23 6100.73 4745.79 4198.94 5470.04 4908.75 6556.26 5684.25 5438.92 4244.49 4050.03 5036.98 4775.04 4120.07 5188.53 3840.21 4882.66 6746.66 4954.76 5410.33 3908.56 4844.83 5244.78 3636.15 5652.87 6114.89 5135.63 6384.7 4355.83 6870.97 3896.27 5351.86 6056.87 5230.02 5307.35 4342.18 6016.08 5166.89 5491.63 5725.37 3868.62 5138.33 4505.28 3743.76 3425.69 4971.29 5510.45 3684.15 5832.29 4730.14 2606.51 3994.39 6006.89 4618.73 2955.36 3814.65 3668.93 3965.3 5792.98 4960.64 6592.93 4983.3 4385.81 6350.71 4034.05 6436.74 2460.79 4456.11 4653.83 6063.64 6479.39 4986.71 4122.92 4405.42 4997.91 3604.14 3598.08 4599.81 5381.54 4406.05 5810.77 4680.94 4858.44 5089.1 5799.69 5828.35 5571.72 5876.72 5869.4 5689.26 5297.19 4992.42 7051.9 4940.84 4255.85 5097.69 5511.6 6261.75 4517.73 3757.34 5177.64 6415.61 4338.08 4541.8 5453.3 4255.31 5191.08 3838.47 2588.37 4062.5 5887.15 4199.45 5415.85 7234.66 4207.54 6599.66 4886.12 6419.12 4301.61 4936.96 5206.33 3184.64 4446.84 5065.26 4304.41 3746.36 4892.44 6789.23 3989.7 5107.0 5069.89 6212.15 6813.72 5327.75 4609.02 4946.23 4896.65 4852.58 4532.7 4504.86 4788.08 4473.29 6163.54 5212.37 4211.82 5965.58 6003.78 2628.22 3352.34 5058.51 4901.29 4607.18 3899.7 4124.76 7200.89 4813.33 4952.52 4802.98 4833.55 3646.95 4081.34 7224.99 6334.53 5377.37 5869.67 4311.48 5483.7 4899.73 5018.69 3152.86 5952.38 6394.19 5973.89 5807.52 5963.36 5518.11 5087.14 5712.35 5169.48 5701.52 4731.21 4743.9 3124.7 6064.71 6102.98 3719.11 6060.17 5153.18 6711.21 4763.4 4236.86 5393.76 4941.02 3864.92 4983.1 6119.99 4128.1 7123.04 4009.24 5372.82 4402.17 5690.96 7778.01 5127.82 5798.38 3862.91 4125.9 5096.24 5366.11 6171.71 3908.98 7382.3 4668.88 3628.89 2995.67 4022.56 5027.43 5522.21 3772.3 5698.23 4855.01 7300.58 2711.19 4028.32 4714.83 5236.43 3809.69 4099.92 3208.96 4771.13 5285.07 4680.14 3858.06 5895.77 4732.09 4608.41 4765.72 4833.46 3988.3 5857.79 2908.7 4039.91 5750.07 4642.66 6136.49 5276.7 6543.13 5149.72 4752.14 4950.97 5037.06 5660.16 5842.56 4094.73 6134.99 6200.54 5424.88 5148.58 4652.01 3583.49 3548.39 5421.64 3673.28 4858.51 4366.74 3375.28 4603.5 5354.66 5625.65 4647.67 4214.44 4481.76 5378.23 5375.12 4787.97 5452.78 4356.36 4981.43 4741.28 5473.72 2603.64 4215.2 2856.55 4553.68 2205.51 5361.87 3894.64 3703.49 6502.97 4268.19 4374.74 4783.07 3758.22 4757.2 6200.63 6816.66 3217.67 3844.54 5079.64 5034.69 4509.46 996.652 4680.69 6500.49 6127.39 4972.18 5329.76 2403.72 5078.59 5134.33 5419.57 4147.49 5162.67 5760.98 4705.68 5469.35 5384.86 4749.96 4658.24 4906.11 4387.39 4564.1 5457.66 5509.51 4848.14 5366.22 6193.73 5254.24 3742.11 4192.21 3597.43 5144.56 4158.91 6776.22 3360.86 5321.17 3034.16 4869.25 4467.13 5545.21 3877.8 4333.87 6273.6 5902.67 5136.87 5024.32 5454.11 5806.61 3779.45 5784.37 6010.59 3682.35 3756.96 5182.13 5906.57 4446.58 5401.4 5053.15 5910.86 5124.17 5805.1 6239.68 7320.78 5039.12 3419.87 4064.58 4234.88 4824.81 6589.82 6328.42 7307.21 5522.75 5867.64 3608.06 5474.15 6208.9 7519.2 4923.57 3340.09 6633.61 4884.59 5217.95 4478.6 6355.68 4083.79 4184.23 4511.7 4144.57 4351.38 4304.63 4187.94 5980.59 5933.7 5550.75 4809.67 5021.77 4757.74 4687.64 4378.3 5469.47 5036.58 4419.71 4244.21 5512.16 5411.02 3197.63 4287.16 4989.56 5175.29 3645.12 4863.96 5199.44 5471.74 5713.03 4928.27 5849.65 5134.67 5775.31 4847.14 5052.84 4165.21 4215.0 5297.16 3950.27 3566.79 5116.66 5003.78 3629.44 5374.67 3299.24 6246.56 4061.6 5826.78 4508.18 6214.73 5175.89 5064.67 6618.21 5232.85 4062.56 3205.68 3717.47 4051.18 5969.37 4928.35 4337.32 1937.5 5849.53 5241.75 4731.53 3763.9 4651.99 3538.53 4420.11 4788.7 5863.0 5640.12 5084.5 4918.64 6638.25 4759.99 4368.12 2646.13 4365.58 5214.4 3629.49 4636.53 5399.43 5766.05 5117.64 3835.81 3916.42 4019.34 5429.3 4869.48 5510.96 3623.19 4745.16 6653.07 4697.91 5825.55 5071.98 5719.79 3199.4 4316.5 4371.08 7261.51 4968.14 4914.03 5086.29 5527.13 5311.55 5139.18 4278.57 5551.43 5049.99 4201.03 5001.87 3667.93 5684.05 5638.7 4708.17 2741.2 4644.88 5790.42 5293.13 3142.09 5591.77 7350.26 5167.53 6110.48 7541.76 4775.49 4932.29 4681.29 5499.59 3220.29 5749.6 3845.9 4141.21 4834.44 4384.28 5782.43 5769.14 4456.26 5944.3 5113.6 3563.14 4810.98 3381.82 3619.72 5135.5 5347.9 4646.51 4438.58 6059.93 4565.93 4504.52 5602.53 6061.63 5484.36 4829.35 4867.7 3953.55 4075.28 4063.9 5263.27 4277.24 4469.54 6834.41 4314.56 6300.92 7248.4 4356.25 3796.15 5161.1 5776.96 5329.59 4888.12 4209.49 6119.63 5464.25 3498.16 5486.48 5439.9 4752.9 4409.27 4588.99 4947.24 4617.55 3875.05 3540.11 4321.21 3456.47 5950.45 4344.34 5088.57 5580.34 3852.6 5009.83 5131.15 5210.38 4110.59 5717.8 3332.49 4706.5 5210.75 4811.22 3683.86 4474.83 4918.76 6555.44 5293.75 4208.41 5114.07 5730.61 7124.45 6358.93 5836.26 4383.68 6666.67 2617.39 6063.44 5144.44 4583.94 4826.52 5120.92 5046.31 4685.4 6240.42 5146.0 5721.14 4288.45 4577.73 4987.28 6206.98 6562.03 4815.47 4410.82 6443.99 3889.98 5193.58 5490.64 5695.44 4507.46 3422.21 5603.68 4944.51 5532.72 4584.81 3220.8 5179.17 5579.39 5270.51 5148.1 5490.75 5224.64 5214.63 5949.73 3495.68 4312.48 5783.94 6370.33 5081.08 6318.25 6864.06 4493.79 4932.56 4279.44 5813.79 4899.19 5058.34 4028.22 3918.94 3768.46 5487.63 3852.82 5003.3 4507.36 6245.52 5800.81 4990.23 3954.77 3784.94 6016.87 3125.13 4439.71 6715.73 4174.44 5667.51 4708.31 4564.41 3873.92 4027.33 4198.9 5431.29 5091.22 5026.76 6282.38 5023.41 5640.72 4546.44 5851.63 7107.63 5727.79 5073.02 5212.92 4831.93 2279.05 6545.43 5788.97 6760.92 4989.2 4023.93 5868.89 8137.11 5291.05 3928.53 6650.77 6045.67 4216.95 5466.33 5742.74 3946.28 5280.12 3821.94 5984.81 4209.31 7013.17 3805.67 5718.28 4247.69 5301.47 4640.06 6242.79 6506.86 5391.48 4803.57 4923.43 5966.42 4568.64 5666.95 4642.2 4127.53 4489.99 4548.45 4945.0 4658.11 4212.15 5658.14 4551.26 6570.35 4385.49 4242.63 4263.18 3269.54 7142.95 5064.23 4559.74 6015.22 4454.74 2904.46 5512.44 6449.06 4924.07 4629.02 5914.5 3565.32 6006.16 3419.07 5407.96 4608.62 4071.75 5344.44 4626.72 5131.77 5549.71 4967.51 5173.82 7212.97 5698.53 3769.2 5034.34 4450.49 5036.14 3468.45 5635.32 4526.34 4316.45 5610.95 5042.75 4598.92 5241.22 6647.08 4979.52 3422.29 4501.05 4407.79 4537.03 6548.29 3990.96 5352.24 7362.42 4202.77 5836.14 5473.05 6008.81 5537.34 5192.49 3487.31 5726.42 6643.4 4674.9 5575.11 5461.72 6599.28 7145.73 4168.52 4556.19 5403.97 5106.46 6793.1 5166.05 4068.31 3671.06 4506.66 5077.29 5515.73 5209.55 4850.5 6331.74 5951.86 5763.05 5129.68 4252.18 4833.67 5357.39 4659.88 5325.91 3791.41 4092.07 5657.55 4184.21 4224.3 4700.07 5188.82 3472.91 4464.73 5615.84 4928.85 4717.73 6440.38 5556.0 5484.32 4711.04 5007.21 6226.14 7144.05 4173.54 5599.29 5606.51 4801.8 7216.98 6038.68 4444.97 5721.05 5046.12 5271.02 4807.4 4264.54 4350.15 6329.53 4590.01 6541.45 5367.73 4263.78 4601.74 4514.39 6101.86 5078.31 4227.41 5993.0 4807.35 6761.81 6047.14 3903.91 5467.63 4728.55 4929.6 4554.68 3919.62 5750.35 4368.28 5984.8 3127.83 5236.24 5260.52 4585.04 5678.58 6102.49 3185.09 3469.18 2945.34 5114.23 3372.95 4489.29 5495.0 7407.91 6061.85 5846.95 5716.42 5268.15 5819.0 6347.72 3200.6 3460.93 5124.86 4927.73 4602.57 4571.74 3763.85 4096.86 5710.33 3622.48 5001.51 6432.8 3186.07 5115.42 4369.86 4082.4 5482.76 3745.02 5728.58 3720.7 4887.73 4211.36 5378.24 3604.31 3856.73 5817.74 5887.71 5661.6 4827.61 5409.08 5285.75 5385.03 5481.64 4169.15 5673.75 5360.67 5968.54 6263.3 5592.54 3247.97 5124.34 4114.2 4326.06 5034.46 5757.29 5793.12 5016.46 5469.17 5061.75 4373.2 3769.24 6022.78 5884.99 4087.32 6647.85 7025.09 3392.26 4433.12 2549.95 4361.24 5138.93 6224.85 6406.8 5368.66 4795.08 6562.92 5501.73 4697.24 3612.44 7035.54 4983.43 5233.76 5426.4 5866.91 6405.69 2820.07 5679.74 5076.84 5853.12 5247.01 4213.05 4208.37 5157.38 6203.03 5235.87 5702.4 5273.37 5069.9 952.938 5043.14 5473.89 6089.45 4732.37 4985.3 4966.07 5072.5 3904.07 3274.85 5713.36 5748.9 4619.2 5545.59 4506.18 5166.41 5740.65 6542.5 7104.73 3000.29 5067.56 2596.96 3834.47 6349.67 5701.75 3272.75 2781.96 5262.47 5261.19 3512.94 7043.44 3516.27 4139.3 3831.52 4750.49 4263.65 4643.9 6106.43 5228.75 5644.81 6545.99 5334.36 2918.64 5630.9 4512.07 4140.92 4756.8 4692.32 4896.43 5463.06 4176.32 3986.41 4639.8 6069.78 4241.68 5532.75 6949.65 4095.83 4975.85 5695.25 5676.61 4301.93 5796.26 5701.63 4603.04 4870.94 4620.95 5293.37 5368.93 5271.88 4488.39 6121.56 7168.2 5740.78 4796.12 5997.91 5385.86 6791.86 4209.0 4930.72 5485.84 6424.77 6297.99 5918.95 4538.89 5689.56 6556.86 3242.31 4898.29 6099.28 5372.25 3234.26 4830.13 4778.37 3494.16 5370.9 5134.17 4074.16 4904.35 6172.27 5390.33 4904.37 5078.73 4651.64 4358.81 5278.54 5729.0 5729.92 5275.57 4179.87 6224.13 4761.84 3661.67 5517.65 4009.68 4622.73 2569.12 4161.32 5161.74 7336.37 5099.9 6945.69 5118.86 7086.69 5648.78 6875.73 5226.42 4436.48 6081.3 5615.35 5117.52 3967.76 6311.89 4683.28 4217.36 6549.8 4825.73 4851.18 4165.36 5288.33 4841.7 6296.54 5797.21 5685.74 6740.35 3673.6 4678.7 5810.17 3306.84 5265.21 4657.24 4400.14 4749.18 5553.94 5494.28 4067.96 4824.12 3663.0 4099.26 5206.47 2970.9 4834.39 4383.47 6162.3 3926.11 5971.21 5493.89 4057.17 5464.83 3622.8 4184.47 4770.51 5414.58 7066.96 4431.23 4467.0 4991.35 3104.96 4994.65 4587.7 5601.55 4258.98 4462.87 5196.92 5759.79 3787.08 4013.86 4598.54 4177.47 4816.51 5218.42 4218.16 4933.49 5345.73 4770.63 6139.64 4841.23 3990.94 4357.11 5477.8 5486.89 4462.35 4549.51 5196.08 3587.93 4517.29 6257.79 4495.75 4849.5 5323.95 6229.83 6171.01 4468.26 5578.18 5106.33 5198.94 5933.54 5559.79 5879.24 2980.31 3148.79 6348.93 6824.53 4332.64 5232.16 4742.82 4422.23 4820.68 6031.22 3989.26 3618.64 5703.84 4335.79 5453.69 3530.82 5797.32 5432.04 3921.27 3702.45 3161.1 5265.63 5684.88 4431.06 6523.78 5730.2 5620.88 4941.52 4529.77 5900.0 4325.13 4262.74 3783.79 5317.19 4248.14 5279.19 4016.6 5192.92 7050.08 4786.66 5891.25 5370.1 5129.4 5114.51 4746.15 3303.49 3720.38 4655.37 5585.25 5256.75 5023.61 6351.89 5932.28 2960.5 4975.32 4298.7 6170.9 4183.4 3902.48 4304.64 4733.79 5833.78 4905.53 4823.06 5758.98 5288.64 6213.24 6734.39 5942.45 4150.76 4228.53 5005.72 5368.52 6142.88 4871.77 5811.26 5062.77 5388.73 6019.35 6075.99 4884.93 6028.63 4600.71 5262.79 3450.07 5927.2 4550.92 5146.1 6215.87 5191.26 5866.42 3669.32 4704.92 5610.53 3742.31 4762.1 4954.81 4316.0 6304.49 4546.96 4580.06 5424.55 4608.34 5755.15 5134.72 4835.97 3814.16 5695.79 4191.01 6419.64 4589.06 5340.05 6506.63 4920.88 4140.04 5995.4 5577.41 5917.34 6511.37 5740.98 4346.07 3999.5 6710.14 4012.92 5034.05 4426.02 4711.15 3825.48 4474.39 4658.59 5188.22 3810.68 4196.62 2804.54 5005.6 2809.19 5589.53 4104.04 7208.19 5025.42 5234.2 4965.24 6379.38 5327.05 5438.55 5353.23 5977.66 4523.81 5209.5 5065.74 5791.25 4873.23 4028.35 5464.05 5410.6 5453.2 5264.83 3901.53 5136.51 6815.51 5313.86 4457.05 5189.91 5777.26 4171.02 7012.36 5028.06 4886.99 4002.99 5587.3 5159.67 5764.52 3770.22 4390.64 5150.84 4645.86 4045.67 5087.97 6005.95 4308.49 4930.17 4581.1 6241.77 4745.44 4085.96 5762.82 7360.12 6223.98 5821.49 5617.29 3035.06 5580.44 5998.13 5095.52 4878.93 6275.25 6892.33 4758.84 4731.37 4505.3 3976.0 4672.86 6530.78 5059.37 5560.23 3043.77 5237.55 4139.39 6264.03 3909.94 6030.39 3799.01 7392.65 5254.49 3757.23 5319.1 4181.93 6828.8 5987.88 3579.59 6123.46 6161.94 4065.28 5155.28 5057.59 5111.26 4461.14 5285.6 5205.38 4574.54 4949.55 3132.34 4764.83 3957.38 4494.15 5035.71 6485.77 4419.79 4710.88 6060.06 5544.27 3869.39 3484.81 3987.69 5960.5 5308.33 6502.99 4287.25 4666.12 4921.1 4392.75 4271.07 6219.34 6023.07 4420.6 5674.63 5287.25 5939.22 4215.05 3626.86 4668.8 3495.3 6371.96 5890.25 4271.93 5125.17 5322.11 5700.79 4216.44 5735.08 4697.49 7133.44 4726.2 4750.81 3953.26 4282.11 5467.51 4625.53 5459.92 2347.41 4096.47 6478.35 4542.16 5453.77 5114.67 4916.7 2638.82 5030.33 5593.79 5104.39 5847.91 4612.13 4934.66 5846.6 4109.44 4903.84 4290.49 4557.1 4434.65 6688.53 5927.1 6175.27 6500.45 5876.51 6731.89 4286.61 2932.52 4733.41 4603.66 4969.68 3557.46 6636.43 5431.14 6298.8 3689.24 5178.07 5151.19 6509.54 6119.0 3792.06 5128.59 4993.49 4293.3 5310.33 6583.37 3572.73 3688.83 4864.38 3402.44 4848.98 4491.96 5184.98 4608.01 4467.51 5339.82 4519.03 5460.57 5110.27 5703.34 4612.68 6668.98 6649.52 4232.33 5462.6 4747.68 4262.19 5770.92 3093.38 4597.88 4845.91 2002.78 5631.32 6322.0 5793.14 4452.36 4491.26 4068.41 4511.34 6463.71 4742.35 5783.38 5394.79 5645.54 5264.08 5088.64 4526.87 3562.8 6589.8 4151.74 5192.82 6920.92 3729.16 3038.91 3783.36 3922.28 4067.89 6570.43 6883.86 3350.99 4979.5 4745.37 5939.29 5418.98 5575.11 5615.06 1969.87 5490.54 4841.28 4047.95 5203.54 5507.38 6889.5 5001.69 5407.69 4416.87 5300.17 5152.78 5393.43 4117.9 6896.55 5534.23 4638.09 4753.76 4685.65 6025.77 4441.91 5377.01 5330.26 6470.23 4475.38 5828.25 4725.11 5418.12 5934.05 4604.1 4714.66 5322.07 4859.01 5076.11 5524.45 5990.75 5600.21 4656.01 6589.13 4037.86 5602.62 5714.51 3543.37 4938.33 2030.03 5628.97 5353.66 4484.78 5527.27 5157.73 4541.22 5765.14 4946.08 3539.68 4696.03 4984.01 6217.33 4605.39 4698.7 6270.59 6045.26 6263.87 4907.55 5743.8 4094.63 4103.76 6605.11 4757.87 6379.33 5971.95 5130.57 5652.73 3979.46 6321.97 6412.84 2589.19 6079.55 3856.4 4696.06 5485.61 4937.36 5308.4 6581.13 4569.32 5537.61 6084.88 4397.06 4199.44 4053.12 4479.5 6261.67 4014.44 3435.13 5065.78 4431.46 4521.42 3207.84 3977.98 6043.34 4128.93 4939.56 4959.72 4712.17 3808.04 4723.71 4461.67 4405.61 6126.5 4034.88 6007.1 6345.2 4609.65 4832.21 5704.61 5009.21 5410.73 4379.91 4574.03 5290.37 5850.38 4227.66 4691.01 4594.89 4174.22 5245.95 3573.84 5821.42 6294.09 4515.02 3463.53 4571.57 3445.92 3820.19 5131.07 5236.69 4121.07 4586.82 5524.28 3133.28 6026.04 6200.05 5731.43 4052.49 5859.17 3518.14 4034.41 5061.74 5326.03 6189.67 4420.35 6142.94 4948.96 5117.83 5256.82 6581.56 4052.43 4061.87 4057.4 3980.46 4896.67 3934.11 5383.9 5158.44 4781.9 4466.22 4496.51 6815.96 5339.6 6153.71 5917.08 5483.37 5259.21 5092.93 4256.08 2803.01 5881.93 4399.52 4444.0 6771.18 4554.24 5770.07 5101.6 4984.17 5327.39 5781.62 4981.81 4138.59 5141.03 4970.55 8123.59 4819.83 4621.33 4767.54 4801.16 5121.08 2927.84 5688.77 6177.68 5368.28 5466.13 6229.64 2848.44 4220.43 4975.56 7282.36 6666.34 5084.76 4645.91 5581.01 6834.92 5749.53 5247.73 5090.48 5402.45 5034.02 3985.93 5582.28 5945.25 6071.59 5985.75 5475.83 4137.16 6189.29 5984.55 5803.3 3228.27 4721.98 5252.82 4142.1 3543.98 5056.26 5878.55 5445.91 6604.72 6002.77 3794.47 4610.55 4967.02 4614.49 5400.69 4462.5 5573.31 5004.68 4023.88 5348.11 5428.24 5108.84 3511.5 4520.14 5067.92 5488.96 3188.21 5128.03 3720.92 5087.3 4942.63 6139.74 4975.57 7066.26 4730.97 3057.3 3677.85 5214.71 4677.84 4811.11 4924.52 6126.03 4866.8 6044.69 2970.24 4197.87 5105.54 5462.1 6353.81 6032.45 3414.67 5444.36 4150.44 4026.03 5522.34 5771.98 5717.45 5899.78 5772.57 5000.74 4813.81 5268.27 4013.86 4645.93 5165.31 4585.37 5448.64 3798.09 5901.8 6417.61 4288.5 3886.56 5715.51 4511.05 3456.3 6561.94 5317.83 6738.9 4460.89 5992.06 4157.1 8052.53 3939.96 6182.19 4867.12 5910.66 7415.84 4637.3 1458.87 5734.07 4840.44 3997.68 6033.28 6286.27 5071.38 6327.54 5616.66 2943.17 4802.36 5327.71 4880.78 5257.38 5075.23 5625.02 5212.05 4829.77 3826.01 4444.92 6959.88 4125.75 3746.62 4532.67 4876.37 4769.62 5260.13 4649.5 4810.74 5181.31 3900.93 5784.38 4149.17 4329.8 5728.27 3074.49 5672.46 5202.33 3956.24 7558.99 3393.59 5043.14 5333.04 4812.59 4521.99 5394.78 6842.54 2853.68 7115.67 5675.45 5329.84 4998.37 3361.11 6038.56 2807.46 6559.82 5599.16 4179.8 3488.34 4577.98 5658.35 5886.81 4487.51 4582.12 4295.25 7394.47 5357.14 4729.45 4850.95 5919.27 4793.06 6637.38 6188.33 6111.23 6150.31 6916.18 5873.62 3868.69 4996.91 3920.44 5379.52 3768.62 5314.67 5658.05 6593.1 4066.36 4000.51 6033.93 5011.37 2827.92 5092.44 5044.68 4441.44 2649.69 6908.32 3467.11 4817.75 6153.26 5637.53 5244.95 3882.37 4439.09 4634.25 5523.81 4095.4 5188.57 6351.48 5395.12 5357.33 5783.69 3721.69 6074.39 3830.7 5350.9 3483.61 4262.52 7430.48 5640.67 5545.68 6080.69 5555.89 4970.12 4766.47 4967.93 6369.66 6044.01 6520.19 5973.57 5922.62 6241.48 4414.09 5125.45 5957.82 4188.16 3784.68 3717.22 6649.21 5507.07 4654.92 3470.69 5286.55 5522.18 4322.56 5223.1 5509.09 4850.49 3873.72 4981.55 4592.49 3625.98 5479.86 6474.5 3928.99 4702.32 4763.04 5944.52 5971.9 4413.56 5050.2 2513.38 5316.05 4908.32 3995.08 5019.84 4028.13 4457.73 6476.35 6260.58 4067.24 3053.19 6571.26 4313.38 5580.95 6598.99 3549.92 4032.06 5246.81 2468.16 5089.1 5888.95 5203.75 3463.34 5122.38 2459.88 5262.85 4210.24 5470.67 5901.71 3879.83 6565.95 5733.12 5043.34 6436.29 4246.24 6805.02 5354.48 5640.63 4900.26 6261.13 4167.55 5374.09 6271.22 3421.81 5378.75 3920.64 6186.24 5822.7 5786.06 4137.41 5466.49 5447.74 4450.51 4038.17 5007.41 6033.72 4907.48 3851.47 3692.99 4966.74 5563.47 5651.46 3162.27 1635.31 5639.4 6185.73 5516.37 6520.96 4232.44 5336.61 4612.4 3312.3 5563.09 4746.19 4848.15 3282.57 6381.58 4798.13 5648.59 4718.61 6697.45 3873.79 5717.67 5515.59 5252.37 6210.0 3224.81 5432.4 4499.54 5037.58 6457.89 4844.2 6572.17 3751.73 3374.62 4926.62 4871.1 3917.09 6009.93 5678.08 4083.1 3482.73 5872.45 5270.1 5130.56 5191.29 4957.99 4063.26 4947.64 6305.9 4542.62 5093.28 4859.95 4132.08 6009.88 4699.77 5093.41 5144.23 5464.34 6188.62 3621.63 6153.07 4414.06 5908.57 7296.47 5742.39 4821.41 4780.16 4924.53 5616.11 4499.52 3874.12 4813.24 5759.19 3113.64 4490.2 4304.75 5480.86 6139.9 4720.22 2832.83 5827.3 5250.56 6036.99 3010.1 3633.58 6294.14 3825.98 4339.97 4589.22 5087.03 4667.84 5169.09 3906.41 4691.15 4512.6 4260.38 4636.45 4932.27 5225.11 5342.9 5252.22 4962.35 5402.81 4600.81 4919.13 4124.33 5168.97 5783.88 5002.38 4720.34 5244.47 6705.93 4731.16 5510.89 6470.87 4495.33 3780.07 5282.67 4159.89 5747.9 5178.55 5146.69 6203.24 6818.23 6213.74 4959.94 2329.93 4369.87 6938.87 5412.07 5512.57 4083.24 4806.99 3771.91 5432.2 5217.62 3839.0 6178.19 5349.85 4616.81 5715.25 5212.2 4362.94 4611.21 4469.82 5108.42 4630.5 3354.94 6296.36 4404.87 4432.32 5237.27 4451.76 3775.38 7885.41 4046.22 4104.97 4575.72 4081.77 5114.61 4948.21 4987.01 6118.13 4420.3 2181.29 6332.64 4735.99 6492.44 4613.32 5145.39 3996.93 6351.95 5195.09 5345.05 4997.89 7679.2 4881.51 6131.52 2626.41 4311.92 6729.99 6664.54 6842.35 5161.73 5259.48 4777.96 5801.89 6833.5 2613.78 5417.07 3834.01 5738.37 6789.66 4433.23 4739.41 5312.2 5847.27 4706.59 5734.84 3982.31 4950.07 4582.24 3916.15 4474.96 4084.87 4790.63 5259.29 3584.05 4916.75 4818.53 5097.85 5584.64 4123.08 6189.04 6224.64 4221.03 3799.55 5638.51 6793.49 3563.33 4337.93 6060.19 3550.88 5536.0 6786.37 4333.23 3860.8 4328.76 5145.13 5561.63 5940.5 4358.06 5093.51 5647.93 6201.49 4865.11 5449.09 5502.14 4605.61 4465.56 4131.08 5386.95 3864.19 4287.93 5315.71 6158.93 4488.41 5081.65 4823.14 6679.12 5652.19 5806.74 6578.62 4813.55 5856.43 3465.03 4796.04 5229.56 6011.4 5799.86 5172.1 6052.22 6545.78 5376.41 4870.14 2932.2 5105.72 5767.65 4082.01 5003.49 4750.76 5782.25 5497.27 5617.91 4444.95 4706.31 4721.2 4202.12 5161.02 6265.48 2694.25 5003.81 4203.68 4739.56 3818.37 3352.46 4701.03 5663.36 6225.05 5434.04 5200.1 3997.52 4444.54 5779.9 4909.74 5310.33 5299.03 5036.84 3922.98 4565.36 5813.68 4025.08 4008.67 5254.93 4803.4 8013.28 6608.94 3796.73 5283.65 4644.68 2892.36 3082.16 5656.84 5416.41 4694.27 6760.64 2515.5 5177.88 5551.79 3793.83 6981.47 5367.05 4449.73 4758.76 5647.11 4088.72 3945.62 3743.85 6236.46 5342.17 6379.3 3795.63 5189.4 4576.71 4550.77 5082.66 4894.15 6157.59 4345.51 5201.3 4048.73 6223.33 5438.6 3747.96 5611.29 4521.88 6568.45 5004.22 4280.92 4696.92 5154.74 6437.99 6898.8 6632.04 6540.57 5332.11 4893.72 4072.4 5373.78 5345.65 5438.5 4621.32 5699.4 3878.8 6284.12 4698.94 3948.21 5669.15 5296.05 5263.86 4672.34 5056.32 5533.52 5410.33 5003.63 4747.24 4695.7 4944.08 4380.86 5576.16 5269.39 4305.35 3964.03 4907.03 4216.33 5832.72 2451.27 3903.9 5606.22 3943.77 5242.38 3124.49 6081.35 6262.18 5459.52 5566.5 4752.31 4276.59 5579.04 5125.53 5994.21 4884.93 5403.81 5082.25 6964.78 4374.05 5282.51 5504.65 5669.41 5732.11 5040.9 3618.53 5596.68 4770.21 4868.66 3846.55 5159.9 4987.48 5943.61 5981.54 5911.29 5020.37 4414.23 4542.25 5233.88 4849.21 4785.55 5245.4 6189.81 5015.67 6538.04 5848.41 4090.28 4246.83 7370.52 4726.5 5467.05 3724.23 5103.3 4601.54 7263.57 3832.09 5705.96 5267.65 5739.69 3509.34 5360.88 7360.62 4977.64 6004.72 4983.56 5699.51 2489.44 4489.18 5863.36 4632.75 5237.76 4994.98 4286.84 6423.96 6058.13 5894.69 6988.4 3330.85 6635.51 4060.17 6051.35 5302.53 4909.13 4287.61 5648.02 5210.22 3308.75 4604.34 4439.17 5677.42 4929.35 5051.39 6673.92 4633.59 5151.68 4884.94 4609.98 5362.15 4455.61 4738.72 5240.97 5569.85 5405.6 3929.35 5523.96 4223.53 4759.38 4535.94 6960.97 4287.15 5126.08 5604.0 3760.4 4951.02 3919.47 4602.7 3783.35 4037.16 4004.39 4248.58 5479.17 4963.88 5888.94 4727.98 4122.2 5175.88 4516.26 4790.16 3647.26 3731.58 3166.37 5369.42 4985.45 5205.53 4714.52 5499.37 4587.19 5543.05 4883.13 4836.76 4752.94 5551.09 3950.53 4501.1 5581.47 4384.91 4274.05 6550.61 4987.01 4713.56 6094.34 6779.82 5543.67 3999.81 4867.13 6210.48 6377.45 4863.27 2701.42 4502.12 5442.79 3255.93 6853.07 6327.61 5733.59 5575.8 5268.93 3695.72 6874.6 5106.9 5306.31 4733.37 4523.9 3037.72 6395.63 5207.08 6028.89 5333.16 4888.17 5755.98 5392.85 5077.2 5275.27 4277.54 5529.09 4531.46 5925.82 5448.68 4739.5 4072.95 4491.62 3865.5 4182.05 
SCALARS Velocity float 1
LOOKUP_TABLE default
1.51876 1.51446 1.50918 1.53008 1.52294 1.50268 1.51891 1.51449 1.51291 1.51551 1.51575 1.52292 1.52899 1.52442 1.53 1.51867 1.54011 1.51596 1.54867 1.53364 1.52314 1.52233 1.5193 1.52712 1.51017 1.50329 1.50213 1.52034 1.51415 1.52256 1.5229 1.52136 1.53027 1.52504 1.52617 1.53155 1.51683 1.50061 1.53691 1.52533 1.52459 1.52207 1.51909 1.52475 1.52986 1.52935 1.50912 1.50246 1.50096 1.5215 1.52363 1.5167 1.52788 1.52417 1.52734 1.52457 1.51447 1.52905 1.5147 1.52262 1.52898 1.52137 1.50961 1.51316 1.52359 1.52158 1.52534 1.52505 1.52627 1.52993 1.53058 1.5154 1.51677 1.49839 1.52284 1.53296 1.53124 1.52252 1.51305 1.51056 1.5159 1.50104 1.49145 1.51246 1.52375 1.51085 1.51836 1.52514 1.52495 1.53262 1.52985 1.53448 1.53011 1.53125 1.51423 1.51772 1.49669 1.52224 1.52982 1.5342 1.52414 1.51351 1.50279 1.48736 1.49124 1.48841 1.51664 1.50931 1.51212 1.51398 1.51785 1.53087 1.52711 1.53803 1.53591 1.53222 1.51034 1.51682 1.5076 1.5138 1.49309 1.49348 1.49621 1.52103 1.51848 1.52591 1.53013 1.529 1.52528 1.50288 1.5181 1.49756 1.49805 1.48947 1.48454 1.50763 1.49771 1.50211 1.5056 1.51394 1.52264 1.55015 1.542 1.56247 1.52463 1.51365 1.50637 1.51351 1.49198 1.493 1.49196 1.51394 1.52241 1.52405 1.52083 1.52557 1.52388 1.52042 1.52175 1.50143 1.55299 1.4771 1.47882 1.49776 1.50244 1.5128 1.52286 1.52894 1.54862 1.54066 1.57036 1.52007 1.49551 1.49503 1.51088 1.53831 1.47712 1.49455 1.49164 1.51007 1.50803 1.51819 1.52102 1.51355 1.51373 1.50912 1.52743 1.56949 1.49216 1.46186 1.46881 1.49092 1.49091 1.51161 1.50849 1.53431 1.58703 1.63085 1.48437 1.46105 1.48694 1.51319 1.49466 1.49282 1.49205 1.49476 1.48727 1.49326 1.50948 1.50868 1.50363 1.50318 1.49889 1.51203 1.53057 1.64532 1.45167 1.46967 1.49809 1.50288 1.52009 1.51748 1.54228 1.5536 1.40548 1.48005 1.49484 1.50068 1.52569 1.50793 1.49712 1.49756 1.4884 1.49235 1.49581 1.49849 1.49713 1.49744 1.50301 1.51489 1.56669 1.43413 1.42702 1.46169 1.48098 1.49886 1.51004 1.5175 1.53042 1.49863 1.39116 1.4377 1.48608 1.50515 1.50572 1.50912 1.50011 1.48236 1.49717 1.49842 1.49529 1.49407 1.50062 1.50667 1.54692 1.51278 1.50406 1.45694 1.48659 1.47032 1.50515 1.4944 1.50822 1.51363 1.50897 1.42591 1.48213 1.45685 1.44494 1.49382 1.46506 1.49711 1.50324 1.50632 1.50762 1.50315 1.49727 1.47292 1.45379 1.50241 1.48943 1.48507 1.49415 1.48758 1.49644 1.49995 1.51319 1.49072 1.47172 1.48454 1.4687 1.48068 1.48891 1.49766 1.50543 1.50521 1.49988 1.49241 1.47051 1.45911 1.45517 1.48272 1.46922 1.49834 1.50407 1.49712 1.45415 1.4859 1.48224 1.47932 1.48886 1.49694 1.49096 1.48426 1.46759 1.47221 1.47187 1.47681 1.48825 1.49764 1.49956 1.49922 1.50031 1.49131 1.4691 1.48698 1.46923 1.47877 1.46519 1.48194 1.4773 1.49598 1.50213 1.49159 1.45573 1.46406 1.48105 1.47552 1.47187 1.47351 1.48077 1.48463 1.47685 1.47793 1.47399 1.48244 1.47583 1.48 1.49009 1.48642 1.49748 1.49202 1.50004 1.50609 1.50489 1.5322 1.49878 1.46894 1.4577 1.46134 1.4518 1.48124 1.50081 1.49643 1.49905 1.47872 1.4581 1.45523 1.46202 1.45357 1.45599 1.46898 1.46433 1.46511 1.46774 1.47412 1.46882 1.47736 1.47229 1.47598 1.47382 1.47583 1.47631 1.47675 1.48059 1.48946 1.49378 1.497 1.49778 1.49871 1.51183 1.5415 1.49873 1.47284 1.45261 1.45183 1.45679 1.4772 1.4627 1.49119 1.46399 1.48228 1.47251 1.46786 1.19178 1.44973 1.4496 1.45671 1.46212 1.46352 1.46159 1.46308 1.46789 1.46954 1.47303 1.47034 1.47421 1.4701 1.47368 1.48247 1.48187 1.48104 1.4948 1.49614 1.5033 1.50148 1.50687 1.49621 1.51315 1.55044 1.5305 1.47302 1.44799 1.47613 1.41977 1.45922 1.44896 1.45451 1.45685 1.44628 1.44563 1.45295 1.43808 1.46516 1.44871 1.4575 1.46258 1.46863 1.46017 1.46726 1.46638 1.46569 1.46463 1.48079 1.47535 1.4818 1.48475 1.47589 1.47254 1.52072 1.5244 1.48203 1.47544 1.45031 1.40874 1.45869 1.46554 1.48716 1.50671 1.40629 1.41555 1.4261 1.43414 1.40882 1.44735 1.45534 1.45669 1.4581 1.44313 1.44257 1.43303 1.47041 1.47293 1.45475 1.44665 1.47047 1.46337 1.4697 1.46539 1.47238 1.46204 1.43738 1.45288 1.46946 1.46932 1.47515 1.46656 1.54898 1.54036 1.40191 1.41986 1.40337 1.44968 1.4189 1.51821 1.459 1.4832 1.43477 1.40342 1.41049 1.43262 1.45491 1.46052 1.43832 1.43659 1.45356 1.4702 1.45403 1.44772 1.45564 1.42977 1.47387 1.49379 1.44556 1.45615 1.44826 1.45957 1.47076 1.46633 1.48414 1.50703 1.48175 1.65291 1.66021 1.6823 1.43038 1.37737 1.38449 1.42311 1.50258 1.38533 1.48435 1.42265 1.52137 1.40137 1.45752 1.43719 1.45683 1.45086 1.46029 1.45848 1.19178 1.42338 1.4596 1.46015 1.45607 1.45986 1.43138 1.45479 1.44315 1.46986 1.48742 1.45708 1.4608 1.45501 1.44546 1.43462 1.43272 1.48948 1.31424 1.3947 1.46411 1.43686 1.39832 1.43553 1.40418 1.40334 1.42377 1.50452 1.4165 1.37147 1.51501 1.40882 1.45663 1.46517 1.19178 1.40902 1.36226 1.41596 1.45455 1.47909 1.44499 1.50909 1.46352 1.45577 1.47339 1.46038 1.43051 1.41747 1.4224 1.45286 1.44722 1.4153 1.4319 1.36472 1.39036 1.42065 1.45857 1.40049 1.42529 1.42576 1.38552 1.43614 1.33736 1.39705 1.414 1.49408 1.28341 1.42101 1.5173 1.4343 1.42011 1.46233 1.19178 1.30609 1.33529 1.37701 1.44792 1.44503 1.36068 1.49377 1.54383 1.52326 1.46936 1.45303 1.49086 1.45965 1.43609 1.44258 1.38665 1.3683 1.30385 1.45028 1.4354 1.37563 1.43951 1.42973 1.40422 1.4107 1.40234 1.42424 1.42579 1.32542 1.46045 1.37944 1.52805 1.44432 1.45353 1.43156 1.47609 1.31183 1.10469 1.49994 1.44793 1.5464 1.50672 1.53061 1.45185 1.48533 1.41753 1.39313 1.31455 1.36263 1.45518 1.4188 1.42435 1.247 1.362 1.45545 1.48075 1.45241 1.33699 1.29384 1.39285 1.40131 1.39404 1.37041 1.48707 1.35905 1.53338 1.31533 1.41933 1.40523 1.44143 1.36459 1.4686 1.49772 1.42166 1.50633 1.44472 1.60982 1.54228 1.38527 1.30689 1.41582 1.72911 4.5867 1.94421 1.08978 1.371 1.52366 1.5856 1.58287 1.31723 1.52063 1.67123 1.39018 1.51994 1.32351 1.34944 1.35185 1.33742 1.2882 1.28152 1.28016 1.60637 1.32611 1.27117 1.35517 1.30534 1.30108 1.63908 1.43502 1.31327 1.18736 1.35184 1.32741 1.4244 1.47553 1.41734 1.45384 1.4187 1.37603 1.53037 1.51697 1.46164 1.28689 1.52892 1.69597 1.84692 1.54193 1.23742 2.44683 1.30434 1.25219 1.15382 1.28666 2.63195 1.30434 1.4759 1.52114 1.4303 1.52028 1.72726 1.68335 1.42778 1.16504 1.09995 1.47987 1.29081 1.30401 1.23247 1.29015 1.17653 1.21617 1.19502 1.32835 1.34456 1.18704 1.29865 1.32354 1.28333 0.989464 1.34936 1.07929 1.20769 1.3099 1.39337 1.4337 1.43372 1.36721 1.595 1.58126 1.35582 1.38907 1.57529 1.31715 1.66143 0.578776 1.52944 1.58418 1.32026 0.398546 0.930045 1.05472 0.856711 0.812704 1.11529 1.24888 1.19611 1.12899 1.26954 1.33913 1.32523 1.09845 1.57805 1.63377 1.36289 1.5368 1.26744 0.719607 1.30769 1.33114 1.41515 1.30591 1.42875 1.28505 1.20664 1.12223 1.16673 1.2857 1.22668 1.24547 1.29438 1.28898 1.29711 1.21955 1.2391 1.35036 1.35812 1.44084 1.3461 1.18432 1.21375 1.28684 1.31996 1.33618 1.45193 1.42057 1.63395 1.06619 1.22543 1.41898 1.29135 0.985337 1.59877 1.11586 1.02486 1.20836 1.10548 1.08734 0.861025 0.807531 0.840756 0.940998 0.882586 0.98669 0.936956 0.970178 0.963864 0.511235 0.889412 1.18295 1.28252 1.15551 1.29144 0.929689 0.524556 1.49264 1.19799 1.24253 1.26977 1.12698 1.11628 1.08922 1.1272 1.27356 1.27966 1.24971 1.26651 1.23526 1.18042 1.22736 1.26378 1.06316 1.12383 1.29756 1.25058 1.24088 1.16458 1.15263 1.35256 1.20959 1.28502 1.38626 1.26838 1.27904 1.15686 1.35314 1.38247 1.28428 1.18244 1.03107 1.19604 1.18842 1.29055 1.00018 1.24177 1.09308 0.904299 1.01108 1.03986 1.0289 1.05231 1.04953 1.04182 1.05275 1.04145 1.04186 1.00145 0.913291 0.989814 0.963807 0.87914 0.917957 0.946679 0.921051 0.907987 0.950662 0.942515 0.95909 0.964811 0.936464 0.913842 1.00711 1.04973 1.04091 1.08009 1.16825 1.13597 1.10406 1.09057 1.1411 0.939119 0.992469 1.25839 1.04966 1.18179 1.20367 1.11937 1.11295 1.15906 1.14 1.06898 1.12112 1.08738 1.17645 1.24026 1.2153 1.23332 1.25221 1.22195 1.12456 1.15697 0.990506 1.09284 1.23758 1.10609 1.1965 1.246 1.15009 1.13286 1.06716 1.04787 1.46439 1.34317 1.23015 1.18109 1.31048 1.29601 1.27614 1.27745 1.2176 1.32336 1.172 1.17067 1.14221 1.14506 1.07172 1.19061 0.954405 0.924981 1.01628 0.96288 0.95712 0.959789 1.00654 1.00945 0.913527 0.939827 0.859088 0.798368 1.03261 0.866557 1.01634 0.78672 0.986229 0.944792 0.89215 0.888365 0.834927 0.899218 0.902969 0.960334 0.906596 0.938622 0.982432 0.967396 1.05474 0.986173 0.932904 1.07558 0.993697 1.10545 1.0966 1.08904 1.00515 0.972174 1.12439 0.921751 1.042 1.1216 1.21156 1.11932 1.16627 1.13318 1.16132 1.10355 1.15688 1.14984 1.09138 1.06676 1.03168 0.912537 1.22821 1.1503 1.28705 1.01138 0.99718 1.03578 0.950991 1.2345 1.16033 1.03204 0.840078 0.827543 1.18003 1.11658 1.08252 1.17283 1.13172 1.16647 1.18509 0.850244 1.3312 1.10857 0.89594 0.887514 0.823495 0.943777 0.949336 0.962243 0.819876 0.807783 0.909435 0.939623 0.948644 0.887079 0.868599 0.802505 0.778151 0.761063 1.04861 0.992705 1.00353 0.57065 0.997917 1.07425 0.768598 0.903255 0.895101 0.876651 0.886298 0.959381 0.79568 0.898553 0.813898 0.693857 0.787492 0.868827 0.93008 0.912496 0.893668 0.907906 1.12105 1.0035 1.08586 1.05111 1.09476 1.0795 1.03321 1.12221 1.03522 0.947368 0.977943 1.06498 1.10037 1.18855 1.24454 1.11014 1.06057 1.11386 1.07555 1.09699 1.13851 0.975998 0.993735 1.06292 1.08161 1.11266 1.16312 0.917039 1.16177 0.947154 1.00842 0.903275 1.03944 1.15822 1.12548 1.40288 0.745047 0.866931 0.965903 1.03018 1.07379 1.0774 1.1887 1.1463 0.696359 0.754187 0.842193 1.04297 0.980324 1.05924 1.10727 0.928403 1.06528 1.01913 1.1553 0.97981 1.05613 0.880593 0.86606 0.90644 0.869666 0.920521 0.880948 0.906322 0.908319 0.853496 0.783029 0.83347 0.779668 0.760555 0.793562 0.758548 0.784339 0.855348 0.935061 0.902192 0.912652 0.874688 0.735706 0.735183 0.657805 0.647886 0.577822 0.672009 0.540675 0.936548 0.608547 0.826008 0.990742 0.901264 0.822207 0.824446 0.838634 0.822133 0.797297 0.889721 0.79696 0.941571 0.951171 1.0081 1.04966 1.08838 1.06203 1.02571 0.938487 0.847966 0.715304 0.857014 0.993716 0.983053 0.971597 1.09057 1.06696 1.09048 0.988577 0.957371 0.981555 1.05228 1.13811 1.1207 0.87501 0.853586 1.17819 0.903068 1.33615 0.818061 1.23917 1.08303 0.918765 0.957311 0.992888 1.03373 1.04488 0.999056 1.0495 0.462349 0.689009 0.737589 0.862816 0.979446 0.832369 0.956178 0.965291 0.953973 1.0929 0.927726 0.833715 0.820407 0.880128 0.909113 0.862589 0.854499 0.907213 0.871369 0.834345 0.857194 0.856251 0.880663 0.877097 0.839283 0.855809 0.843119 0.837203 0.669142 0.937044 0.880043 0.911391 0.758642 0.881285 0.747039 0.727515 0.755145 0.720951 0.701578 0.743537 0.646398 0.800288 0.78002 0.871843 0.893867 0.823878 0.844268 0.828813 0.829067 0.880849 0.917437 0.91679 0.907321 0.912406 0.928442 0.941234 0.967762 1.00278 0.959841 1.0461 1.07272 1.03553 1.01494 0.979489 0.97479 0.957801 0.913211 0.898994 0.87098 0.879928 0.971786 0.958171 0.948722 1.09248 1.11142 1.14023 1.05444 0.998007 0.98928 0.961624 0.896276 0.848025 0.940018 0.932355 1.14404 1.11809 0.964922 0.997641 0.859522 0.855818 1.26182 0.998528 0.946836 0.913338 0.974929 0.97522 0.989738 0.978531 0.995402 0.972036 0.990652 0.951212 1.02765 0.691489 0.897076 0.8224 0.86543 0.84176 0.87731 0.806748 0.89823 0.930024 0.872906 0.956311 0.822658 0.951092 0.875132 0.854997 0.80236 0.771877 0.923724 0.929678 0.927591 0.955538 0.950093 0.796926 0.924688 0.827203 0.930268 0.946681 0.84859 0.721212 0.85093 0.818645 0.804059 0.76162 0.829243 0.792774 0.802674 0.796361 0.624878 0.669328 0.648737 0.633273 0.673271 0.762586 0.710848 0.716539 0.696724 0.726771 0.741986 0.67348 0.685922 0.648048 0.723041 0.723513 0.80066 0.824179 0.834812 0.858255 0.84271 0.848604 0.857229 0.880382 0.875632 0.905369 0.895804 0.849767 0.85246 0.954374 0.955907 0.947012 0.982133 0.993521 0.966068 1.022 0.951671 0.898027 0.947507 1.11668 1.06817 1.05883 0.918262 1.00041 0.976991 0.882518 0.820386 1.04243 0.869788 0.970043 0.913471 0.81843 0.873639 0.778803 0.953234 0.957065 0.928489 0.978814 1.00664 1.01541 0.931976 0.96411 0.947398 0.971702 0.950313 0.945194 0.919086 0.932803 0.950024 0.84977 0.92726 0.934419 0.853264 0.900348 0.856531 0.90903 0.879008 0.847307 0.7817 0.701133 0.752489 0.790445 0.805553 0.828864 0.639979 0.87401 0.846612 0.774025 0.754434 0.769166 0.757159 0.763137 0.748946 0.77883 0.784661 0.72098 0.75375 0.757438 0.738641 0.704439 0.673477 0.699441 0.708552 0.734449 0.656725 0.691298 0.673908 0.694306 0.613318 0.687375 0.752277 0.833222 0.48635 0.7417 0.814349 0.63796 0.84519 0.803767 0.806571 0.820489 0.848148 0.853632 0.844034 0.85791 0.834844 0.8535 0.869984 0.866799 0.847 0.854409 0.819067 0.9424 0.779743 0.977177 0.968848 0.930107 0.935037 0.890963 0.84814 1.01575 0.925219 1.00351 0.947139 0.790271 0.974072 1.07136 0.909214 0.975676 1.04775 0.968649 0.936418 0.900095 0.97622 0.891598 0.93134 0.827077 0.790338 0.899271 0.804885 1.06358 0.866222 0.907726 0.838897 0.870206 0.793843 0.830166 0.891989 0.902147 0.989014 1.01159 0.715289 0.906081 0.913202 0.96452 0.958241 0.901148 0.957548 0.932689 0.938666 0.91176 0.868603 0.858544 0.863718 0.868449 0.861496 0.853015 0.871984 0.825588 0.816196 0.941791 0.791167 0.977916 0.798821 0.799504 0.805898 0.831404 0.798281 0.765793 0.670206 0.76734 0.734344 0.774742 0.818948 0.78971 0.790811 0.818403 0.79288 0.740598 0.773798 0.738934 0.825389 0.814912 0.742454 0.758596 0.750647 0.70531 0.697569 0.684664 0.722305 0.680534 0.695193 0.695133 0.698113 0.723207 0.684775 0.738799 0.66251 0.684762 0.608821 0.690966 1.12751 0.877433 1.07322 0.828245 0.884125 0.828501 0.837651 0.805086 0.813114 0.807431 0.813996 0.8331 0.840075 0.837285 0.834293 0.840259 0.828497 0.837917 0.847368 0.846645 0.851112 0.840821 0.844057 0.845983 0.874013 0.852886 0.930921 0.916363 0.887642 0.853116 0.829898 0.91452 0.949173 0.909808 0.798943 0.811357 0.893251 0.759232 0.689812 0.896387 0.890191 0.893483 0.888283 0.796398 0.816968 0.800713 0.821872 1.0119 0.968445 0.834709 0.795802 0.810567 0.815935 0.859433 0.841718 0.891749 0.99677 0.752903 0.931775 0.988451 1.01001 0.926809 0.917437 0.941995 0.876654 0.895187 0.945538 0.967869 0.91577 0.83087 0.873819 0.95957 0.814838 0.804783 0.802386 0.801105 0.831313 0.81605 0.807733 0.809878 0.809327 0.809282 0.805494 0.802793 0.748658 0.799726 0.792882 0.767724 0.751216 0.778135 0.761024 0.7934 0.775857 0.863779 0.85306 0.769697 0.599024 0.99097 1.00715 0.854699 0.659449 0.979137 0.768812 0.949498 0.955795 0.644077 0.693644 0.856026 0.773812 0.706204 0.749061 0.743198 0.611256 0.659192 0.617644 0.641626 0.688683 0.648275 0.657188 0.648001 0.626498 0.518481 0.624002 0.68137 0.646878 0.87715 0.824452 0.585281 0.824934 1.22287 0.935509 0.890805 0.856278 0.839492 0.837261 0.802227 0.77959 0.809139 0.812341 0.846094 0.847488 0.838505 0.828332 0.835258 0.838039 0.875475 0.821806 0.832015 0.8191 0.853527 0.85909 0.897297 0.84333 0.850401 0.804119 0.819531 0.772266 0.900072 0.931191 0.824781 0.843012 0.826373 0.636122 0.814907 0.899871 0.852499 0.814722 0.943432 0.943084 0.84709 0.819488 0.794624 0.77171 0.830202 0.735574 0.772723 0.86002 0.777965 0.91559 0.925724 0.898224 0.785901 0.828898 0.876409 0.89239 0.956169 0.968877 0.794664 0.774968 0.833975 0.82445 0.779485 0.820622 0.816671 0.961173 0.946799 0.915642 0.892829 0.936366 0.8897 0.842915 0.778184 0.964474 0.907261 0.97191 0.873038 0.943927 0.876307 0.910905 0.863211 0.7982 0.835018 0.812313 0.810464 0.810199 0.782729 0.735913 0.759261 0.748273 0.743704 0.739648 0.756502 0.748229 0.8368 0.717521 0.96166 0.933688 0.937977 1.08343 0.898465 0.662006 0.299352 0.941866 0.69664 0.55246 0.723845 0.719937 0.716712 0.73425 0.725357 0.735738 0.768987 0.640598 0.632221 0.638731 0.640458 0.671264 0.668482 0.686261 0.658766 0.669504 0.666832 0.663702 0.713215 0.79334 0.814434 0.820092 0.861931 0.603513 0.721246 0.803312 0.813674 0.737557 0.787742 0.771332 0.799229 0.817016 0.885225 0.843777 0.844254 0.832738 0.845331 0.682075 0.755419 0.82131 0.77851 0.767485 0.818734 0.836892 0.870208 0.806219 0.806246 0.850008 0.795038 0.716149 0.803479 0.826973 0.78494 0.813266 0.780139 0.713722 0.89408 0.846145 0.847319 0.86054 0.871671 0.778878 0.63518 0.841537 0.854147 0.836538 0.784911 0.565459 0.854206 0.875924 0.876338 0.870337 0.889032 0.894964 0.94646 0.840524 0.821284 0.807747 0.774174 0.80005 0.793008 0.77694 0.740501 1.02327 1.03393 0.745591 0.936582 1.06263 0.903444 0.819103 0.866727 0.823498 0.804682 0.799819 0.800192 0.796016 0.798304 0.795053 0.839087 0.830521 0.789865 0.728311 0.750319 0.747814 0.752877 0.759029 0.721347 0.729317 0.786749 0.749442 0.884517 0.780363 0.832893 0.920692 0.764732 0.779441 0.793049 0.644775 0.708823 0.700936 0.791888 0.678693 0.725537 0.709894 0.743058 0.735922 0.722632 0.745165 0.756611 0.717284 0.752906 0.716804 0.742848 0.716528 0.988926 0.958312 0.602655 0.518046 0.635106 0.219709 0.491798 0.482285 0.592368 0.561794 0.632287 0.629437 0.607824 0.661981 0.670367 0.670034 0.663048 0.67136 0.748216 0.708892 0.733197 0.768754 0.732473 0.751117 0.779636 0.795187 0.800125 0.782201 0.802904 0.794287 0.7621 0.760883 0.757643 0.733041 0.701681 0.751019 0.784427 0.812574 0.785 0.766902 0.816608 0.849204 0.814268 0.839726 0.72068 0.846651 0.874394 0.79339 0.731853 0.817346 0.76802 0.757129 0.759283 0.763134 0.78547 0.778453 0.81733 0.804077 0.896851 0.846903 0.823202 0.789296 0.762446 0.793551 0.857502 0.811987 0.821744 0.781106 0.696852 0.768645 0.82597 0.871575 0.858776 0.950885 0.922069 1.00013 0.832256 0.813909 0.835237 0.787632 0.809541 0.817994 0.788386 0.801422 0.791607 0.768028 0.76219 0.721141 0.777805 0.779975 0.683963 0.796196 0.910894 0.859608 0.827613 0.838031 0.865386 0.776239 0.766666 0.793514 0.814419 0.795939 0.801749 0.795006 0.818941 0.749163 0.76182 0.735488 0.727236 0.725694 0.733283 0.72827 0.747772 0.723012 0.746337 0.726039 0.879253 0.753914 0.80697 0.824392 0.745016 0.69944 0.831081 0.651501 0.651238 0.570841 0.724947 0.574828 0.702443 0.686063 0.6761 0.724639 0.693348 0.710586 0.722856 0.718187 0.194709 0.0875791 1.09184 0.593759 0.858964 0.763661 1.24952 0.552915 0.410517 0.48799 0.661751 0.631033 0.656593 0.642584 0.66379 0.690908 0.697734 0.731261 0.727 0.757488 0.752343 0.755449 0.747505 0.757915 0.759769 0.786697 0.767661 0.806622 0.779015 0.74553 0.865437 0.842292 0.829589 0.773022 0.704034 0.956853 0.721364 0.689343 0.826627 0.632994 0.758032 0.781197 0.741981 0.789979 0.784099 0.799802 0.807365 0.838198 0.808668 0.811996 0.836057 0.820301 0.822014 0.789611 0.789177 0.802232 0.808723 0.82482 0.844811 0.833224 0.809805 0.783393 0.803982 0.813561 0.839456 0.869166 0.904561 0.885159 0.868108 0.792496 0.822995 0.820725 0.823075 0.81883 0.780707 0.774491 0.778436 0.755121 0.751885 0.742348 0.732246 0.726536 0.7896 0.850096 0.831787 0.792782 0.824145 0.68236 0.760822 0.781442 0.787619 0.829462 0.809119 0.819409 0.802352 0.751727 0.7927 0.733016 0.716531 0.727324 0.782231 0.695249 0.744977 0.839099 0.77056 0.727753 0.732467 0.736903 0.749655 0.742681 0.767206 0.734593 0.737955 0.761071 0.694829 0.640128 0.798293 0.704947 0.635535 0.630298 0.646382 0.676557 0.642817 0.705095 0.717332 0.652694 0.674836 0.718783 0.707877 0.699883 0.703783 0.678185 0.617253 0.648944 0.632085 0.528031 0.635979 0.700688 0.78056 0.665675 0.745737 1.1184 0.410659 0.943585 0.648165 0.598707 0.629585 0.647141 0.667724 0.66011 0.659804 0.628969 0.67227 0.68719 0.735756 0.727462 0.727995 0.734952 0.726583 0.735286 0.717588 0.722379 0.727613 0.740087 0.756785 0.779779 0.790046 0.795447 0.815334 0.781676 0.834804 0.699002 0.755857 0.459844 0.778157 0.719402 0.741676 0.68864 0.667391 0.778865 0.848992 0.810742 0.79049 0.786664 0.788761 0.813347 0.819042 0.820006 0.819254 0.814657 0.821316 0.812472 0.809262 0.806979 0.811282 0.814051 0.817217 0.837196 0.839237 0.827789 0.81746 0.830066 0.836317 0.855475 0.86958 0.874318 0.849039 0.816788 0.81608 0.8153 0.797189 0.802516 0.797415 0.787279 0.778113 0.765066 0.757607 0.758331 0.743237 0.734626 0.730533 0.665509 0.63393 0.640882 0.60332 1.10789 0.807059 0.940316 0.702563 0.979912 0.669589 0.75689 0.669304 0.777817 0.788317 0.784404 0.787445 0.806464 0.74711 0.79392 0.741821 0.734885 0.728123 0.713777 0.721331 0.720828 0.759718 0.698904 0.708622 0.649223 0.848135 0.641908 0.705766 0.77728 0.68448 0.719925 0.649628 0.676434 0.636742 0.670433 0.686704 0.65446 0.645489 0.668278 0.653464 0.688289 0.693328 0.675176 0.660543 0.645597 0.656836 0.651177 0.649515 0.652609 0.665605 0.643308 0.661094 0.678032 0.681455 0.68022 0.657144 0.722277 0.835462 0.844925 0.8008 0.65099 0.719792 0.704634 0.66993 0.636777 0.649157 0.680098 0.732159 0.72742 0.673372 0.713686 0.7266 0.753156 0.744233 0.75046 0.731981 0.702926 0.830202 0.865264 0.804556 0.840794 0.722728 0.746862 0.666515 0.713846 0.602437 0.763783 0.532714 0.713148 0.792575 0.786486 0.769336 0.762546 0.751481 0.732694 0.703908 0.715055 0.682495 0.788888 0.763456 0.795396 0.786805 0.800796 0.801615 0.815588 0.816002 0.821204 0.821192 0.820492 0.821241 0.819807 0.818235 0.816317 0.830065 0.83401 0.837859 0.838511 0.831894 0.835605 0.83876 0.838819 0.845552 0.860071 0.875561 0.90453 0.846623 0.838122 0.820281 0.83146 0.812698 0.803993 0.793199 0.802386 0.789247 0.761332 0.74046 0.719904 0.725583 0.705227 0.237895 0.727578 0.435924 0.707592 0.784941 0.708105 0.593873 0.648505 0.724361 0.739621 0.772987 0.78316 0.775521 0.773146 0.740896 0.730439 0.73848 0.744183 0.716155 0.676741 0.613643 0.736298 0.692391 0.7431 0.707152 0.79941 0.792121 0.77183 0.708479 0.734524 0.687678 0.700526 0.672223 0.6756 0.671119 0.673355 0.720515 0.662359 0.682409 0.640696 0.692645 0.701654 0.709096 0.709547 0.707127 0.682858 0.729013 0.632148 0.714561 0.649458 0.642443 0.641341 0.602153 0.663031 0.659939 0.653531 0.647508 0.620702 0.649615 0.662353 0.650874 0.664052 0.631191 0.635595 0.665994 0.718158 0.688242 0.757934 0.710023 0.755689 0.713017 0.724332 0.695442 0.738287 0.723366 0.660731 0.720844 0.729708 0.686602 0.687747 0.733593 0.696199 0.750126 0.737903 0.718086 0.734919 0.71729 0.720692 0.701754 0.7575 0.719543 0.758103 0.714629 0.666238 0.687931 0.713004 0.725822 0.413182 0.807399 0.723394 0.717352 0.702121 0.616226 0.690251 0.647402 0.612398 0.638863 0.741871 0.769276 0.809968 0.747786 0.716726 0.735551 0.722627 0.751699 0.780241 0.779434 0.797868 0.806215 0.813342 0.813415 0.818382 0.824777 0.825706 0.822906 0.825651 0.82233 0.838899 0.843003 0.843305 0.839005 0.84682 0.848735 0.839124 0.839027 0.83287 0.920914 0.852256 0.843602 0.830539 0.84629 0.829233 0.824865 0.82917 0.822131 0.822633 0.818533 0.812652 0.821266 0.814907 0.783013 0.751161 0.767949 0.726534 0.722698 0.713837 0.704429 0.703657 0.660945 0.738974 0.71205 0.647776 0.668301 0.68644 0.717563 0.676085 0.729362 0.780019 0.73242 0.756723 0.714183 0.738841 0.744196 0.646437 0.603071 0.753298 0.761366 0.745533 0.669244 0.707794 0.720455 0.676768 0.745093 0.687793 0.634767 0.667558 0.73611 0.707555 0.643623 0.662162 0.669702 0.674759 0.707922 0.687231 0.689358 0.69096 0.626198 0.760882 0.633611 0.577266 0.555617 0.44285 0.586773 0.527233 0.513388 0.522289 0.583413 0.65922 0.671996 0.670353 0.641826 0.655109 0.639862 0.626801 0.626068 0.552888 0.573072 0.60612 0.667708 0.593054 0.656087 0.714678 0.663131 0.699118 0.676429 0.691346 0.714785 0.704847 0.745493 0.719594 0.67444 0.698137 0.680015 0.682806 0.686765 0.735739 0.71632 0.727182 0.709661 0.685886 0.635894 0.66843 0.732492 0.63387 0.112986 0.692339 0.31033 0.712465 0.69709 0.716017 0.717603 0.684776 0.710573 0.711777 0.698303 0.6877 0.67466 0.744659 0.71823 0.770956 0.803076 0.78372 0.791125 0.750655 0.738323 0.74753 0.747753 0.75407 0.763856 0.793514 0.784203 0.793605 0.805459 0.809561 0.810818 0.810963 0.813059 0.81716 0.824234 0.826051 0.826519 0.823584 0.826739 0.829476 0.833234 0.84425 0.847799 0.845784 0.851873 0.850899 0.849514 0.859963 0.857287 0.853243 0.827488 0.860071 0.751413 0.823358 0.856611 0.840847 0.840566 0.831815 0.824958 0.831 0.819955 0.79643 0.764708 0.768489 0.770717 0.781816 0.729455 0.714572 0.750905 0.720016 0.703362 0.716839 0.705591 0.711337 0.678518 0.687476 0.658853 0.690903 0.699831 0.752336 0.740699 0.725548 0.697908 0.787111 0.71514 0.729475 0.743225 0.587968 0.741167 0.659261 0.672723 0.674864 0.661963 0.698926 0.692381 0.737073 0.794298 0.793535 0.631806 0.631546 0.681964 0.658692 0.449276 0.658854 0.660943 0.688432 0.694962 0.681324 0.697624 0.682361 0.690504 0.687993 0.630558 0.562417 0.594203 0.676549 0.564298 0.537077 0.538495 0.561927 0.5435 0.54371 0.582 0.550813 0.602794 0.571685 0.551117 0.645369 0.668374 0.669575 0.63772 0.577533 0.628589 0.611137 0.546706 0.542628 0.555524 0.581201 0.595456 0.648032 0.650311 0.661227 0.678825 0.616619 0.627609 0.61469 0.598884 0.653538 0.654027 0.60999 0.618801 0.585456 0.656043 0.682251 0.661122 0.671898 0.666326 0.640639 0.631458 0.636249 0.600194 0.598249 0.61321 0.483461 0.765552 0.889505 0.708003 0.723949 0.721853 0.723792 0.719376 0.721558 0.773856 0.75905 0.775464 0.774656 0.754763 0.747431 0.752357 0.754179 0.761559 0.776822 0.793163 0.804371 0.810416 0.8146 0.820639 0.828275 0.830893 0.836714 0.839119 0.848072 0.859019 0.858984 0.853323 0.852304 0.861417 0.862174 0.863067 0.848253 0.839273 0.82983 0.799877 0.828573 0.847804 0.843731 0.838341 0.837763 0.827458 0.810956 0.820655 0.815601 0.786711 0.777017 0.732912 0.745682 0.726333 0.717807 0.719778 0.730605 0.713541 0.689664 0.703266 0.692723 0.656119 0.659096 0.754432 0.70691 0.74385 0.708623 0.699877 0.674405 0.720649 0.704323 0.720728 0.747058 0.674388 0.708786 0.660646 0.675469 0.610779 0.615095 0.586035 0.63552 0.510874 0.673222 0.665452 0.626183 0.510915 0.556052 0.48887 0.581468 0.687012 0.635191 0.573723 0.578854 0.592119 0.609931 0.613972 0.530317 0.544847 0.558103 0.586216 0.539612 0.577988 0.529798 0.513447 0.545291 0.537142 0.505466 0.464773 0.483034 0.460474 0.473001 0.583566 0.536655 0.540368 0.557756 0.695028 0.608839 0.694857 0.654022 0.559543 0.585436 0.585789 0.570478 0.553598 0.576097 0.548499 0.63606 0.594269 0.637307 0.635661 0.625134 0.646152 0.64406 0.633085 0.655568 0.64701 0.628889 0.647305 0.974926 0.769243 0.760263 0.711138 0.723967 0.733322 0.752589 0.746359 0.755933 0.757514 0.769271 0.768661 0.752739 0.752692 0.749284 0.755616 0.761495 0.770502 0.777487 0.795941 0.806632 0.804263 0.805587 0.813549 0.807142 0.81925 0.825367 0.828272 0.828638 0.834723 0.846239 0.860781 0.874957 0.853946 0.854457 0.860851 0.857876 0.856891 0.847455 0.828223 0.814986 0.817651 0.835689 0.845716 0.847783 0.846218 0.843731 0.829817 0.826941 0.820161 0.788754 0.780733 0.769227 0.759865 0.733219 0.724292 0.729734 0.724921 0.721417 0.713597 0.701843 0.637727 0.70087 0.75216 0.682113 0.708046 0.709079 0.702469 0.67676 0.682889 0.709535 0.689885 0.662918 0.691562 0.688006 0.667408 0.675275 0.671964 0.664585 0.649888 0.618298 0.604746 0.55657 0.621579 0.596285 0.529293 0.562803 0.534909 0.640539 0.617714 0.633372 0.594582 0.543506 0.611023 0.525089 0.599615 0.439397 0.499741 0.522443 0.553976 0.545022 0.527529 0.52393 0.514587 0.510309 0.512385 0.504329 0.491784 0.320272 0.514857 0.513378 0.503369 0.529901 0.463067 0.487649 0.445421 0.459271 0.559054 0.616619 0.598556 0.519122 0.52197 0.528086 0.484362 0.563521 0.597874 0.524768 0.473858 0.517833 0.495757 0.562959 0.546988 0.568807 0.537377 0.546446 0.578817 0.558376 0.625556 0.611999 0.634674 0.616682 0.619528 0.627534 0.615477 0.621058 0.63629 0.643013 0.655047 0.653163 0.678457 0.710301 0.7092 0.749855 0.728723 0.718497 0.740012 0.740544 0.748895 0.755862 0.757044 0.754033 0.754943 0.74906 0.745474 0.737229 0.741347 0.740646 0.752982 0.764528 0.76819 0.774516 0.784843 0.782044 0.783348 0.786703 0.797519 0.801035 0.80355 0.806921 0.811016 0.818112 0.823281 0.833276 0.829906 0.838365 0.83959 0.847098 0.853681 0.870684 0.901888 0.854405 0.866482 0.858439 0.846296 0.841478 0.822491 0.815458 0.823804 0.833909 0.83653 0.846744 0.853492 0.850414 0.853941 0.852964 0.836132 0.845482 0.827427 0.801624 0.770356 0.781645 0.768027 0.745838 0.746626 0.732878 0.730302 0.719299 0.716831 0.707548 0.708957 0.738988 0.715973 0.706201 0.711999 0.69719 0.671606 0.685723 0.671178 0.662451 0.665302 0.670924 0.644055 0.667666 0.615275 0.640383 0.590192 0.612007 0.629465 0.603771 0.630321 0.63869 0.635986 0.595455 0.680049 0.642647 0.576757 0.559315 0.510592 0.622568 0.605688 0.615807 0.655148 0.612202 0.479366 0.510116 0.52586 0.564353 0.543119 0.545695 0.531635 0.506362 0.525236 0.498927 0.508487 0.467673 0.425568 0.362452 0.208721 0.283043 0.571102 0.469207 0.421713 0.422166 0.534279 0.475819 0.409348 0.451714 0.26399 0.384634 0.516115 0.542453 0.613015 0.580756 0.549944 0.533661 0.546632 0.511859 0.532722 0.576102 0.546875 0.58278 0.571787 0.562768 0.546368 0.568956 0.588985 0.586328 0.600118 0.605326 0.613055 0.63244 0.649825 0.643634 0.673169 0.698896 0.692484 0.718652 0.718322 0.730197 0.734342 0.731507 0.737173 0.752866 0.754843 0.757719 0.753852 0.744079 0.735427 0.727902 0.758697 0.779135 0.799576 0.797778 0.790859 0.799956 0.803487 0.808038 0.813415 0.81958 0.820391 0.825445 0.83365 0.843195 0.853204 0.856607 0.851469 0.857869 0.872502 0.926983 0.909645 0.874753 0.84879 0.839342 0.844395 0.812616 0.841699 0.843244 0.820195 0.822991 0.824263 0.838975 0.856782 0.853238 0.862053 0.858578 0.839615 0.826078 0.811253 0.805105 0.792936 0.773122 0.764922 0.736572 0.731812 0.724545 0.711764 0.716352 0.718505 0.714618 0.722949 0.71265 0.719195 0.720191 0.724454 0.680729 0.680764 0.667021 0.662381 0.658335 0.653728 0.668531 0.605513 0.630141 0.611901 0.592129 0.649536 0.698901 0.767352 0.54073 0.519299 0.755967 0.677497 0.669952 0.570715 0.515387 0.526169 0.542339 0.549771 0.520208 0.504089 0.529098 0.505148 0.517632 0.518062 0.475098 0.460421 0.41791 0.442526 0.231356 0.240516 0.191886 0.136857 0.146592 0.228627 0.258376 0.250243 0.350495 0.31161 0.372642 0.452431 0.496657 0.510814 0.477747 0.342383 0.334116 0.494621 0.453382 0.559641 0.576708 0.737411 0.65947 0.534473 0.541433 0.525365 0.530338 0.519802 0.515176 0.508947 0.514835 0.518359 0.540628 0.553822 0.546865 0.569802 0.589487 0.596972 0.613681 0.621973 0.637128 0.637806 0.652479 0.654099 0.655516 0.693239 0.698061 0.718798 0.735389 0.724814 0.760158 0.762541 0.759099 0.76411 0.760717 0.753274 0.746384 0.739024 0.731246 0.705183 0.765459 0.784627 0.814894 0.803465 0.814206 0.799124 0.797094 0.795033 0.801574 0.804378 0.81056 0.812581 0.815366 0.818497 0.824308 0.829029 0.836269 0.850427 0.858274 0.870273 0.880591 0.846695 0.903895 0.909618 0.847296 0.854516 0.84732 0.838731 0.827929 0.822225 0.824084 0.8641 0.841836 0.871113 0.865908 0.843752 0.845229 0.830591 0.822958 0.817157 0.793715 0.791327 0.795165 0.773075 0.76624 0.723139 0.732164 0.728819 0.72233 0.7274 0.729887 0.72984 0.724793 0.723863 0.728595 0.72308 0.714117 0.710034 0.719369 0.672871 0.67267 0.661609 0.666862 0.654793 0.63987 0.64341 0.599505 0.618992 0.594201 0.614118 0.5549 0.686406 0.490846 0.998297 0.529351 0.985931 0.685864 0.236069 0.711778 0.536598 0.721075 0.653141 0.479481 0.510174 0.50493 0.511613 0.490439 0.506889 0.487435 0.487169 0.476381 0.474132 0.470999 0.451634 0.488121 0.436654 0.425889 0.41917 0.395464 0.447259 0.422991 0.289439 0.165259 0.111069 1.43089 0.324695 0.0702429 0.120155 0.227656 0.27092 0.349021 0.417637 0.383589 0.365 0.349968 0.342184 0.44475 0.508655 0.576784 0.535514 0.439252 0.506194 0.499256 0.491751 0.494033 0.496864 0.523798 0.495118 0.545283 0.540904 0.558889 0.592123 0.592027 0.61167 0.620615 0.62193 0.613234 0.626862 0.681204 0.686875 0.727935 0.716593 0.72795 0.734359 0.736888 0.774352 0.786136 0.761948 0.758361 0.753791 0.752725 0.745057 0.71583 0.685632 0.774174 0.814105 0.798587 0.794728 0.807039 0.808755 0.804608 0.815258 0.815412 0.82074 0.824689 0.827613 0.836777 0.851826 0.855278 0.866121 0.869354 0.853849 0.863574 0.866786 0.847933 0.78803 0.83498 0.864978 0.849568 0.840359 0.830118 0.818571 0.823833 0.870919 0.860144 0.885169 0.877891 0.888353 0.826486 0.812141 0.780868 0.817042 0.80967 0.762066 0.783442 0.803516 0.773952 0.740476 0.729166 0.739385 0.738716 0.734205 0.733363 0.72857 0.723044 0.71241 0.704061 0.71685 0.699052 0.711934 0.687332 0.678414 0.664765 0.669306 0.656557 0.621258 0.643727 0.629481 0.642089 0.632482 0.576651 0.550375 0.504783 0.576223 0.57903 0.768437 0.664906 0.287492 0.745093 0.473893 0.655016 0.490123 0.496178 0.370926 0.482936 0.469572 0.413963 0.425363 0.460988 0.465341 0.441986 0.406018 0.429786 0.410191 0.390889 0.385208 0.229934 0.322725 0.177657 0.0817772 0.0384095 0.0597888 0.115077 0.150071 0.1194 0.265765 0.205622 0.278754 0.295944 0.363548 0.403478 0.35755 0.421721 0.379783 0.490826 0.498961 0.459139 0.368676 0.459504 0.438448 0.435323 0.490398 0.474346 0.478091 0.505693 0.487922 0.489971 0.520178 0.535774 0.55233 0.564828 0.581323 0.617235 0.621374 0.659422 0.643785 0.63862 0.611673 0.57628 0.633392 0.649606 0.720161 0.813215 0.759804 0.778277 0.747555 0.745813 0.792321 0.764332 0.752351 0.73694 0.747643 0.739076 0.748559 0.749085 0.732837 0.724621 0.713491 0.806744 0.798168 0.781329 0.80307 0.818498 0.808483 0.807596 0.825852 0.8231 0.821875 0.815806 0.818758 0.82053 0.829147 0.840957 0.856045 0.85813 0.87522 0.869456 0.864927 0.862987 0.835476 0.790942 0.868809 0.845134 0.852315 0.837092 0.833144 0.828144 0.849 0.866603 0.867159 0.861235 0.872106 0.879255 0.881071 0.814331 0.820487 0.748138 0.852867 0.771858 0.685834 0.780538 0.789786 0.757105 0.743956 0.747134 0.740358 0.740403 0.744466 0.740114 0.735778 0.743772 0.742685 0.731304 0.719859 0.702293 0.716524 0.701533 0.704834 0.703132 0.684749 0.6724 0.666737 0.647288 0.638195 0.668022 0.734248 0.495976 0.624444 0.600618 0.683762 0.653747 0.640077 0.605298 0.508884 0.543213 0.177366 0.30319 0.302803 0.374705 0.426027 0.410308 0.447789 0.431348 0.431275 0.450472 0.415306 0.434676 0.402772 0.378072 0.327815 0.263864 0.263505 0.288368 0.153134 0.0844817 0.139795 0.211797 0.351686 0.35658 0.34479 0.394422 0.404282 0.394341 0.435181 0.466556 0.446859 0.483288 0.482359 0.5095 0.492303 0.496637 0.496447 0.515065 0.524028 0.545868 0.561961 0.574579 0.592119 0.595039 0.613303 0.638994 0.685332 0.680271 0.64038 0.52827 0.531915 0.637659 0.927722 0.80932 0.761141 0.766132 0.75403 0.76125 0.739956 0.729633 0.748969 0.745778 0.746092 0.722618 0.728582 0.715546 0.795774 0.800011 0.804134 0.811068 0.825614 0.821745 0.799439 0.8382 0.827868 0.817334 0.814389 0.834927 0.843325 0.841476 0.888034 0.871579 0.859525 0.871838 0.851227 0.833621 0.804375 0.874049 0.868079 0.866366 0.84346 0.833668 0.831646 0.830919 0.854518 0.90493 0.890851 0.887716 0.897952 0.874042 0.833487 0.809283 0.829082 0.670943 0.760463 0.72501 0.781237 0.778912 0.747538 0.737934 0.739595 0.735913 0.752951 0.74888 0.739791 0.722321 0.734618 0.717269 0.720839 0.700512 0.710081 0.705477 0.694507 0.683634 0.679499 0.685611 0.664903 0.670574 0.666554 0.653017 0.609548 0.631876 0.652298 0.619838 0.142892 0.751571 0.739085 0.438506 0.548764 0.578686 0.612867 0.604141 0.638235 0.570117 0.515603 0.353183 0.314978 0.393718 0.377025 0.421478 0.425076 0.441375 0.454815 0.45253 0.455382 0.39225 0.419736 0.399715 0.355137 0.298379 0.330996 0.309932 0.215049 0.26832 0.123912 0.237708 0.372495 0.149429 0.499742 0.449798 0.411818 0.395989 0.396757 0.450094 0.384214 0.48298 0.491066 0.526509 0.515714 0.559052 0.555735 0.52136 0.569459 0.602798 0.596796 0.616522 0.62881 0.651171 0.710053 0.644554 0.676032 0.561777 1.00705 0.979184 1.1544 0.828782 0.743668 0.729666 0.722514 0.721464 0.722542 0.727025 0.750257 0.745644 0.725681 0.736423 0.742985 0.776499 0.801374 0.770569 0.793268 0.824735 0.826418 0.821992 0.797407 0.836148 0.813847 0.805445 0.837467 0.838431 0.828851 0.844871 0.819332 0.871059 0.878056 0.852155 0.832389 0.785596 0.86313 0.869676 0.878368 0.858406 0.849125 0.829142 0.837234 0.864285 0.909475 0.903778 0.861069 0.837458 0.824354 0.850245 0.711991 0.712501 0.778473 0.765501 0.743051 0.73736 0.737842 0.737438 0.764234 0.747593 0.752065 0.745364 0.742093 0.722243 0.715288 0.705981 0.696308 0.690124 0.679155 0.651916 0.633672 0.615419 0.611688 0.629418 0.647213 0.689234 0.674593 0.539984 0.585158 0.562542 0.579783 0.630255 0.597248 0.623687 0.624162 0.52403 0.365057 0.348385 0.388338 0.429668 0.469612 0.466978 0.455953 0.465841 0.464939 0.442043 0.432268 0.455061 0.362076 0.302833 0.326417 0.283047 0.254041 0.587891 0.561854 0.47031 0.438297 0.388359 0.404529 0.441758 0.504751 0.504532 0.565114 0.578405 0.551118 0.546305 0.46681 0.625647 0.665207 0.579229 0.560133 0.653482 0.834513 0.818715 0.617794 0.63886 1.17306 0.114623 0.793033 0.730484 0.713439 0.7167 0.702091 0.716781 0.736483 0.749114 0.733301 0.725176 0.746391 0.792261 0.77587 0.840779 0.794864 0.762937 0.806653 0.825981 0.803015 0.803248 0.856562 0.835757 0.79483 0.801583 0.834021 0.824959 0.818138 0.844573 0.880446 0.827464 0.908872 0.801234 0.856147 0.877767 0.879736 0.868426 0.889195 0.861092 0.85902 0.852312 0.859383 0.833336 0.831161 0.911237 0.935991 0.915161 0.913088 0.870893 0.843107 0.833599 0.839835 0.741576 0.741609 0.708642 0.775592 0.742701 0.732579 0.733315 0.744192 0.758094 0.743548 0.761172 0.773756 0.720705 0.707041 0.701284 0.682995 0.677433 0.648169 0.62713 0.608211 0.62451 0.636465 0.645452 0.634993 0.599087 0.579016 0.587815 0.580578 0.565913 0.573217 0.555726 0.707182 0.574089 0.387896 0.336863 0.175791 0.42599 0.439497 0.451749 0.459598 0.475358 0.458329 0.441444 0.434196 0.453632 0.378823 0.480775 0.291553 0.2898 0.291191 0.399125 0.59587 0.440465 0.418982 0.443581 0.410161 0.367721 0.432327 0.489611 0.484916 0.502072 0.535595 0.554784 0.534421 0.583045 0.605964 0.381204 0.520786 0.50121 0.519089 0.505096 0.555572 0.824659 0.896666 0.591146 0.45496 0.287895 0.695809 0.874319 1.0705 0.779966 0.719752 0.782841 0.734821 0.71588 0.700828 0.69396 0.697956 0.706433 0.718007 0.737019 0.731023 0.728743 0.741384 0.741068 0.764283 0.794969 0.794082 0.789991 0.787548 0.824976 0.81561 0.787603 0.744014 0.837476 0.906111 0.815579 0.833527 0.837672 0.809113 0.835123 0.80999 0.85744 0.779745 0.76629 0.751488 0.825143 0.856574 0.886724 0.886611 0.872559 0.866504 0.844331 0.8133 0.806544 0.932606 0.931017 0.891372 0.859222 0.844984 0.821234 0.736122 0.739757 0.76875 0.779476 0.735768 0.730271 0.733915 0.741785 0.737439 0.739082 0.762717 0.781831 0.81746 0.715928 0.712774 0.732182 0.679949 0.684434 0.676463 0.678855 0.679478 0.670938 0.657947 0.636928 0.595334 0.67765 0.605385 0.636163 0.624294 0.59698 0.57618 0.588854 0.541506 0.591206 0.648873 0.655707 0.435683 0.279879 0.531622 0.257643 0.444283 0.450707 0.480148 0.475252 0.449334 0.448622 0.473821 0.397721 0.429374 0.258689 0.395972 0.311766 0.390569 0.593996 0.44639 0.417003 0.437827 0.414421 0.521171 0.488245 0.490397 0.527448 0.530048 0.556326 0.551401 0.54787 0.550972 0.51217 0.546915 0.549307 0.493006 0.525479 0.629131 0.851316 0.677149 0.488007 0.541258 0.620471 0.859859 0.725348 0.721802 0.697561 0.68636 0.693367 0.692059 0.705839 0.722764 0.730438 0.742054 0.755352 0.752911 0.782528 0.78047 0.769271 0.775495 0.793033 0.798802 0.820458 0.819449 0.806391 0.792368 0.881889 0.891467 0.918245 0.805182 0.827164 0.789957 0.79065 0.841442 0.809302 0.787401 0.810997 0.782733 0.755519 0.756629 0.7721 0.834449 0.820712 0.904465 0.885401 0.857109 0.86033 0.850124 0.820212 0.77298 0.895917 0.875485 0.851221 0.822168 0.775343 0.732885 0.766008 0.780037 0.747488 0.79586 0.734512 0.735071 0.731891 0.735366 0.766048 0.770828 0.766703 0.771773 0.923992 0.724584 0.686071 0.683673 0.676077 0.674843 0.6763 0.681281 0.705544 0.631965 0.633178 0.620793 0.61745 0.594677 0.584944 0.509995 0.574209 0.607168 0.624898 0.439627 0.513384 0.362326 0.431097 0.440873 0.486209 0.467678 0.486573 0.470011 0.493413 0.486037 0.461084 0.460749 0.467795 0.43683 0.406541 0.311496 0.425254 0.325137 0.653245 0.571579 0.609815 0.608893 0.440254 0.450069 0.423805 0.471388 0.508218 0.520414 0.563579 0.543635 0.54634 0.541575 0.539922 0.500644 0.61629 0.635674 0.777107 0.581487 0.524835 0.583387 0.600042 0.746306 0.73625 0.736038 0.741107 0.701344 0.689173 0.702354 0.725164 0.744362 0.764266 0.764154 0.744776 0.76719 0.780263 0.786964 0.797252 0.811989 0.820913 0.84068 0.777857 0.893582 0.941131 0.905559 0.920854 0.8171 0.793289 0.822443 0.812307 0.801082 0.770365 0.778686 0.824221 0.835659 0.898383 0.896434 0.85245 0.837963 0.850947 0.828026 0.786964 0.815681 0.828053 0.790008 0.934729 0.894564 0.938017 0.899692 0.93032 0.851247 0.807655 0.763206 0.725237 0.795713 0.786216 0.759214 0.74846 0.73588 0.738305 0.716293 0.741022 0.80537 0.908686 0.601004 0.62084 0.671105 0.679801 0.681107 0.680645 0.693901 0.688618 0.650124 0.634664 0.620635 0.640434 0.486942 0.666578 0.550127 0.609065 0.473213 0.483331 0.463728 0.508714 0.51145 0.465903 0.482145 0.489732 0.472386 0.514786 0.428753 0.2844 0.476751 0.337189 0.238202 0.578828 0.519132 0.620256 0.461158 0.530971 0.463207 0.481353 0.429509 0.690419 0.581324 0.543451 0.532913 0.546205 0.528006 0.53869 0.54942 0.51099 0.551967 0.589985 0.746722 0.707896 0.641322 0.624276 0.718859 0.735532 0.744954 0.729992 0.744291 0.749893 0.699343 0.67627 0.680584 0.698895 0.795156 0.782473 0.753625 0.754641 0.760983 0.755518 0.7296 0.785422 0.796169 0.814433 0.815003 0.849488 0.8472 0.763728 0.941759 0.936547 0.928764 0.827767 0.80497 0.806885 0.811813 0.806645 0.778112 0.789627 0.890719 0.897964 0.898521 0.83413 0.846302 0.872455 0.821739 0.803024 0.824967 0.775158 0.908665 0.923938 0.862296 0.850009 0.821133 0.773443 0.877373 0.787169 0.746752 0.738837 0.742621 0.702317 0.819466 0.957628 0.606596 0.626973 0.675577 0.685181 0.698967 0.699743 0.677767 0.653026 0.634162 0.624158 0.608648 0.640286 0.679693 0.681314 0.548808 0.480945 0.492029 0.503401 0.524731 0.522202 0.542567 0.477159 0.492737 0.501916 0.487984 0.532365 0.513419 0.404437 0.527277 0.542311 0.311924 0.206723 0.347406 0.593026 0.595365 0.537496 0.493689 0.417681 0.698743 0.460634 0.58603 0.546747 0.514438 0.583056 0.52986 0.566897 0.612256 0.639635 0.768713 0.749538 0.731394 0.5495 0.629262 0.754956 0.65609 0.755934 0.688384 0.679871 0.675993 0.687651 0.698066 0.679464 0.780289 0.754529 0.75489 0.746238 0.745312 0.789188 0.730688 0.820635 0.819239 0.808169 0.760869 0.847972 0.853107 0.824873 0.733162 0.827655 0.928051 0.829715 0.821394 0.7909 0.662766 0.731917 0.745748 0.796119 0.76048 0.738164 0.833641 0.706608 0.845094 0.959504 0.58123 0.624396 0.658316 0.673421 0.687232 0.707742 0.704589 0.680627 0.66099 0.636959 0.607912 0.614423 0.645018 0.681351 0.641788 0.534775 0.451582 0.499585 0.500456 0.543138 0.556006 0.521597 0.476154 0.379757 0.611639 0.72519 0.585153 0.546315 0.132091 0.43044 0.621395 0.589908 0.503234 0.427459 0.38177 0.687675 0.424179 0.733943 0.657829 0.561687 0.661901 0.594498 0.585758 0.587861 0.622072 0.635032 0.661446 0.738954 0.718068 0.609576 0.634119 0.737458 0.700838 0.637074 0.751179 0.689466 0.683257 0.677116 0.758044 0.747683 0.687502 0.743595 0.795906 0.757342 0.855818 0.785216 0.782484 0.935235 0.497309 0.595288 0.61858 0.650056 0.670634 0.680623 0.704667 0.710545 0.708099 0.680865 0.664168 0.639424 0.715086 0.597376 0.5179 0.655532 0.654189 0.692661 0.536445 0.511024 0.493519 0.569257 0.563819 0.524301 0.433322 0.685428 0.676359 0.547957 0.560416 0.176399 0.553358 0.520491 0.634021 0.596933 0.540312 0.459907 0.39764 0.631277 0.665176 0.574079 0.626175 0.617007 0.64777 0.690618 0.711703 0.677017 0.642455 0.680882 0.69648 0.710642 0.608624 0.37847 0.64381 0.614751 0.529349 0.51062 0.537079 0.569253 0.543026 0.688467 0.674115 0.607418 0.537811 0.564077 
SCALARS Stress float 1
LOOKUP_TABLE default
-194518000000.0 -133868000000.0 -227261000000.0 -53081100000.0 -290365000000.0 -128271000000.0 -357850000000.0 -221464000000.0 -133429000000.0 -562041000000.0 -457060000000.0 -152598000000.0 -155984000000.0 -354365000000.0 -230642000000.0 -309738000000.0 -377279000000.0 -477652000000.0 -206158000000.0 -146282000000.0 -263927000000.0 -189702000000.0 -816521000000.0 -812512000000.0 -284822000000.0 -192757000000.0 -421437000000.0 -1.06301e+12 -738745000000.0 -1.06829e+12 -1.03102e+12 -632021000000.0 -652807000000.0 -951628000000.0 -584162000000.0 -1.07638e+12 -333753000000.0 -522584000000.0 -572118000000.0 -592164000000.0 -649767000000.0 -429584000000.0 -832655000000.0 -473072000000.0 -625561000000.0 -401097000000.0 -750953000000.0 -779943000000.0 -1.63966e+12 -1.2576e+12 -1.80656e+12 -1.02747e+12 -814501000000.0 -1.49074e+12 -1.88955e+12 -2.24097e+12 -1.61186e+12 -318686000000.0 -760387000000.0 -1.04666e+12 -736571000000.0 -1.63371e+12 -1.33492e+12 -882959000000.0 -919299000000.0 -1.514e+12 -1.70119e+12 -896007000000.0 -1.21302e+12 -1.54429e+12 -898044000000.0 -658361000000.0 -1.4446e+12 -1.66945e+12 -1.69613e+12 -2.78537e+12 -2.7918e+12 -1.77622e+12 -441279000000.0 -1.53207e+12 -1.19344e+12 -640776000000.0 -2.4959e+12 -2.25218e+12 -3.01779e+12 -1.03769e+12 -2.20792e+12 -2.35757e+12 -1.28028e+12 -1.6924e+12 -829319000000.0 -832396000000.0 -1.45452e+12 -2.00318e+12 -2.17834e+12 -689644000000.0 -1.75569e+12 -1.36169e+12 -2.73424e+12 -1.73966e+12 -1.86281e+12 -2.17973e+12 -2.57902e+12 -2.10231e+12 -422043000000.0 -1.01511e+12 -1.59161e+12 -2.21562e+12 -1.97242e+12 -1.25624e+12 -2.26132e+12 -1.00854e+12 -4.4989e+12 -1.21843e+12 -3.5502e+12 -1.33299e+12 -592010000000.0 -1.456e+12 -1.5709e+12 -1.78342e+12 -768377000000.0 -815901000000.0 -1.37949e+12 -1.34724e+12 -2.00123e+12 -3.24978e+12 -4.1806e+12 -2.44408e+12 -3.19932e+12 -2.51134e+12 -2.43402e+12 -1.10544e+12 -1.84038e+12 -4.13359e+12 -2.71754e+12 -1.64767e+12 -1.13975e+12 -1.11811e+12 -1.20493e+12 -3.38753e+12 -3.36935e+12 -2.90005e+12 -2.47214e+12 -869399000000.0 -975220000000.0 -2.29205e+12 -1.70172e+12 -2.36215e+12 -2.06387e+12 -1.05463e+12 -469841000000.0 -1.58098e+12 -3.10544e+12 -2.6679e+12 -3.2241e+12 -5.31993e+12 -1.7965e+12 -3.52738e+12 -3.66467e+12 -2.95685e+12 -2.34742e+12 -3.45298e+12 -3.07128e+12 -2.47799e+12 -3.71761e+12 -3.52184e+12 -3.41979e+12 -1.78609e+12 -2.31668e+12 -4.69533e+12 -2.72004e+12 -730608000000.0 -1.57278e+12 -2.29383e+12 -2.20456e+12 -3.2798e+12 -3.12439e+12 -1.61727e+12 -639712000000.0 -1.59562e+12 -2.73099e+12 -4.71832e+12 -1.89464e+12 -2.67134e+12 -4.55976e+12 -3.57325e+12 -2.31371e+12 -6.3177e+12 -3.43387e+12 -3.90769e+12 -2.39775e+12 -3.10387e+12 -593603000000.0 -3.11858e+12 -3.35376e+12 -1.85647e+12 -3.87597e+12 -3.44501e+12 -2.64318e+12 -2.28669e+12 -3.08277e+12 -3.71198e+12 -1.76962e+12 -1.16962e+12 -1.5949e+12 -2.78054e+12 -1.90792e+12 -2.49061e+12 -5.45447e+12 -1.33228e+12 -4.20315e+12 -3.71973e+12 -5.70207e+12 -4.37187e+12 -4.41922e+12 -2.59694e+12 -3.00731e+12 -4.21244e+12 -3.04897e+12 -4.85799e+12 -6.28931e+12 -4.28931e+12 -5.17555e+12 -5.53309e+12 -3.82223e+12 -4.73137e+12 -3.00573e+12 -2.43964e+12 -4.6156e+12 -1.23252e+12 -3.83907e+12 -3.22362e+12 -1.79427e+12 -2.06297e+12 -1.72977e+12 -2.67232e+12 -1.74123e+12 -5.30587e+12 -7.22868e+12 -4.57952e+12 -4.10037e+12 -5.27525e+12 -4.41574e+12 -3.73043e+12 -3.71936e+12 -3.95937e+12 -4.97295e+12 -3.30819e+12 -3.55815e+12 -3.47258e+12 -4.08038e+12 -4.30437e+12 -5.36057e+12 -5.20619e+12 -6.14389e+12 -7.06005e+12 -5.55751e+12 -3.16596e+12 -2.22033e+12 -5.20095e+12 -3.51783e+12 -3.5465e+12 -4.49798e+12 -5.4792e+12 -3.09726e+12 -3.94091e+12 -5.24634e+12 -5.91408e+12 -6.28248e+12 -3.33392e+12 -4.515e+12 -3.43482e+12 -5.71468e+12 -6.23188e+12 -3.64083e+12 -5.38114e+12 -4.5982e+12 -4.42851e+12 -5.58445e+12 -3.06802e+12 -5.09782e+12 -2.69313e+12 -3.9905e+12 -5.95509e+12 -3.51284e+12 -3.42719e+12 -4.13273e+12 -4.44759e+12 -4.1714e+12 -5.87891e+12 -4.2694e+12 -6.67189e+12 -2.40583e+12 -7.69473e+12 -3.35774e+12 -4.85126e+12 -5.73274e+12 -5.79775e+12 -2.18918e+12 -3.76034e+12 -4.48895e+12 -2.67372e+12 -3.06659e+12 -3.71752e+12 -4.44299e+12 -7.24619e+12 -4.18787e+12 -5.43382e+12 -2.57184e+12 -4.98775e+12 -3.16641e+12 -6.74071e+12 -2.37169e+12 -7.75239e+12 -7.19759e+12 -6.84478e+12 -3.9219e+12 -5.41072e+12 -4.46744e+12 -5.03057e+12 -4.79919e+12 -4.72055e+12 -3.96067e+12 -6.7889e+12 -6.50012e+12 -4.42645e+12 -3.70275e+12 -4.5741e+12 -6.56865e+12 -7.275e+12 -6.19825e+12 -3.55327e+12 -4.86864e+12 -4.18687e+12 -5.06319e+12 -2.36474e+12 -3.0298e+12 -4.49564e+12 -5.24421e+12 -5.36615e+12 -1.98262e+12 -7.22117e+12 -4.26112e+12 -4.85211e+12 -1.44027e+12 -5.90279e+12 -2.4116e+12 -4.21613e+12 -4.68981e+12 -5.06385e+12 -6.1408e+12 -6.3978e+12 -5.6361e+12 -6.15896e+12 -4.10893e+12 -4.91425e+12 -4.14991e+12 -3.87847e+12 -4.61961e+12 -4.44818e+12 -4.09623e+12 -5.95893e+12 -2.51114e+12 -5.34295e+12 -4.31433e+12 -5.34973e+12 -6.03864e+12 -2.76814e+12 -3.95632e+12 -4.28314e+12 -5.38326e+12 -4.96038e+12 -5.2626e+12 -6.00112e+12 -6.4968e+12 -6.76601e+12 -2.27887e+12 -4.3213e+12 -3.41631e+12 -2.797e+12 -5.09126e+12 -4.91637e+12 -6.80771e+12 -5.46458e+12 -5.56798e+12 -4.7044e+12 -4.78435e+12 -6.45507e+12 -4.98806e+12 -4.2367e+12 -5.87428e+12 -4.90466e+12 -2.6287e+12 -4.98623e+12 -4.41343e+12 -5.25642e+12 -3.48639e+12 -3.57153e+12 -3.55948e+12 -3.78606e+12 -5.01366e+12 -5.75523e+12 -5.82797e+12 -5.13637e+12 -5.11486e+12 -5.11568e+12 -4.29238e+12 -3.22053e+12 -6.62731e+12 -5.82194e+12 -7.13747e+12 -5.79906e+12 -2.09167e+12 -5.80115e+12 -12549700000.0 -2.91303e+12 -4.80964e+12 -5.02038e+12 -3.61447e+12 -4.166e+12 -5.12124e+12 -4.58934e+12 -5.25132e+12 -6.98295e+12 -4.06907e+12 -3.83566e+12 -4.8428e+12 -4.81228e+12 -6.03362e+12 -5.37712e+12 -5.77553e+12 -3.97711e+12 -4.40804e+12 -3.06941e+12 -3.57679e+12 -3.42958e+12 -7.50892e+12 -7.0653e+12 -7.47356e+12 -4.78394e+12 -4.11535e+12 -6.66011e+12 -5.4001e+12 -8.01158e+12 -3.7102e+12 -3.83607e+12 -5.03073e+12 -5.93492e+12 -3.51936e+12 -3.26864e+12 -4.32132e+12 -4.48774e+12 -4.51747e+12 -5.85709e+12 -3.51061e+12 -7.502e+12 -3.12843e+12 -3.97575e+12 -5.46672e+12 -6.32186e+12 -2.90268e+12 -3.91352e+12 -5.15091e+12 -2.87494e+12 -5.19748e+12 -3.60558e+12 -5.44808e+12 -4.70616e+12 -2.84194e+12 -9.09e+12 -5.9637e+12 -4.08467e+12 -6.40021e+12 -6.26049e+12 -5.19834e+12 -7.0172e+12 -3.85627e+12 -4.2938e+12 -5.2141e+12 -5.32136e+12 -2.71209e+12 -5.16007e+12 -4.77964e+12 -5.80045e+12 -6.61978e+12 -5.49254e+12 -3.49205e+12 -2.09922e+12 -6.2712e+12 -3.31888e+12 -7.23405e+12 -4.1254e+12 -6.64433e+12 -7.98181e+12 -8.24019e+12 -4.97624e+12 -7.29209e+12 -7.06152e+12 -5.71357e+12 -6.28031e+12 -7.60299e+12 -4.98425e+12 -5.48984e+12 -4.92111e+12 -5.89141e+12 -5.11702e+12 -7.90635e+12 -6.32741e+12 -4.44415e+12 -7.08166e+12 -3.71082e+12 -6.02699e+12 -5.55948e+12 -5.11189e+12 -4.44896e+12 -6.04963e+12 -3.69345e+12 -5.4982e+12 -6.93414e+12 -8.48284e+12 -6.49904e+12 -3.80958e+12 -3.23036e+12 -5.96467e+12 -6.76124e+12 -7.49541e+12 -7.76175e+12 -6.44035e+12 -4.28367e+12 -6.1729e+12 -4.66232e+12 -3.37196e+12 -6.06915e+12 -6.43354e+12 -5.604e+12 -4.23476e+12 -4.93923e+12 -8.19844e+12 -1.1957e+13 -6.1132e+12 -8.0608e+12 -5.60762e+12 -3.05775e+12 -3.41556e+12 -4.06274e+12 -9.5727e+12 -5.40739e+12 -4.85509e+12 -5.76577e+12 -6.33117e+12 -6.34593e+12 -2.29139e+12 -4.15459e+12 -4.47269e+12 -7.04618e+12 -8.32713e+12 -9.32705e+12 -4.82328e+12 -7.17161e+12 -2.91538e+12 -3.40597e+12 -12549700000.0 -4.05477e+12 -5.28118e+12 -9.9232e+12 -1.00142e+13 -6.8734e+12 -5.47666e+12 -6.56466e+12 -3.57605e+12 -5.38512e+12 -1.18541e+13 -5.40513e+12 -7.40304e+12 -7.92482e+12 -5.31704e+12 -4.34115e+12 -5.58002e+12 -5.96738e+12 -8.87846e+12 -4.9104e+12 -1.15507e+13 -5.58925e+12 -3.85969e+12 -7.52026e+12 -7.41927e+12 -7.39116e+12 -1.15199e+13 -6.45334e+12 -6.24693e+12 -7.78787e+12 -5.13641e+12 -7.51872e+12 -6.7522e+12 -3.24378e+12 -12549700000.0 -7.39346e+12 -6.43927e+12 -7.6461e+12 -3.45997e+12 -3.81968e+12 -5.80119e+12 -3.56112e+12 -8.21539e+12 -5.78958e+12 -8.41904e+12 -5.76377e+12 -6.3989e+12 -4.67935e+12 -5.23561e+12 -7.79567e+12 -5.19459e+12 -4.1319e+12 -5.3859e+12 -7.3509e+12 -6.87998e+12 -6.99919e+12 -8.72297e+12 -8.10692e+12 -9.74105e+12 -7.67754e+12 -2.91422e+12 -6.81761e+12 -8.90068e+12 -9.63637e+12 -6.04616e+12 -1.25084e+13 -4.65859e+12 -1.08462e+13 -9.48928e+12 -5.30771e+12 -7.43561e+12 -8.08861e+12 -12549700000.0 -2.27578e+12 -4.93447e+12 -6.84681e+12 -4.72418e+12 -5.93083e+12 -5.71967e+12 -4.98182e+12 -7.32524e+12 -6.66687e+12 -1.13457e+13 -8.57096e+12 -6.66891e+12 -2.84023e+12 -7.17044e+12 -6.29289e+12 -5.55714e+12 -6.75141e+12 -6.46898e+12 -8.29801e+12 -6.46894e+12 -4.50409e+12 -6.08059e+12 -5.28313e+12 -5.17967e+12 -5.64229e+12 -1.03238e+13 -7.69258e+12 -2.93026e+12 -6.04399e+12 -1.15254e+13 -7.38535e+12 -1.56521e+13 -1.23669e+13 -4.58578e+12 -4.65709e+12 -8.00666e+12 -3.81184e+12 -3.28041e+12 -5.0997e+12 -6.43676e+12 -5.03037e+12 -4.58786e+12 -4.22736e+12 -8.08547e+12 -8.37545e+12 -7.03561e+12 -7.24521e+12 -5.84026e+12 -5.39289e+12 -4.69817e+12 -7.17575e+12 -2.96117e+12 -5.90784e+12 -4.69102e+12 -2.444e+12 -8.52862e+12 -7.21573e+12 -4.41089e+12 -6.97691e+12 -7.31889e+12 -5.0396e+12 -7.83098e+12 -7.31798e+12 -8.22507e+12 -2.21692e+12 -9.05199e+12 -3.92678e+12 -4.69272e+12 -4.21443e+12 -4.13653e+12 -5.94571e+12 -7.53338e+12 -4.81399e+12 -7.74406e+12 -9.29273e+12 -9.27995e+12 -6.58076e+12 -9.01934e+12 -9.23989e+12 -3.76689e+12 -5.91385e+12 -4.91661e+12 -4.03804e+12 -7.02418e+12 -5.25206e+12 -3.26202e+12 -5.32795e+12 -3.88829e+12 -8.31859e+12 -4.62064e+12 -4.23524e+12 -6.04805e+12 -4.16811e+12 -6.91952e+12 -4.99165e+12 -7.29359e+12 -6.66815e+12 -5.72979e+12 -6.62921e+12 -6.67134e+12 -4.133e+12 -5.85974e+12 -8.6901e+12 -5.1969e+12 -1.02421e+13 -3.86511e+12 -5.73942e+12 -3.09276e+12 -9.15732e+12 -5.38905e+12 -4.42904e+12 -3.80221e+12 -7.3017e+12 -4.46582e+12 -5.37256e+12 -5.42707e+12 -6.72731e+12 -3.99391e+12 -6.56259e+12 -9.71892e+12 -7.24021e+12 -1.09163e+13 -7.27661e+12 -9.38169e+12 -3.06649e+12 -6.23319e+12 -9.67482e+12 -4.1226e+12 -6.35469e+12 -4.64655e+12 -6.57139e+12 -5.04623e+12 -7.2561e+12 -6.99354e+12 -8.45736e+12 -6.75132e+12 -8.61052e+12 -1.11009e+13 -9.36303e+12 -1.27048e+13 -6.63977e+12 -4.88125e+12 -6.31544e+12 -6.77325e+12 -1.0184e+13 -9.09954e+12 -6.76697e+12 -6.80383e+12 -4.15347e+12 -4.90693e+12 -4.25117e+12 -1.25103e+13 -5.77179e+12 -4.56519e+12 -6.16226e+12 -7.96397e+12 -6.89396e+12 -8.11399e+12 -2.77925e+12 -8.51036e+12 -9.80161e+12 -5.36804e+12 -1.00135e+13 -9.28075e+12 -4.76826e+12 -9.02753e+12 -7.70315e+12 -7.59124e+12 -5.83139e+12 -6.96446e+12 -5.92061e+12 -5.24966e+12 -6.42847e+12 -9.26067e+12 -5.69957e+12 -5.84326e+12 -7.03498e+12 -4.77944e+12 -6.47014e+12 -5.91158e+12 -4.73639e+12 -4.26093e+12 -4.38285e+12 -1.00553e+13 -7.32299e+12 -7.25202e+12 -6.45319e+12 -7.67966e+12 -7.1092e+12 -3.68794e+12 -5.00185e+12 -6.54064e+12 -5.36894e+12 -4.74531e+12 -1.07915e+13 -9.39096e+12 -1.0233e+13 -4.59713e+12 -1.01361e+13 -9.96474e+12 -8.11903e+12 -7.71236e+12 -6.43787e+12 -5.39513e+12 -8.75045e+12 -9.99354e+12 -7.8136e+12 -7.67222e+12 -9.60877e+12 -1.04631e+13 -8.04458e+12 -6.75931e+12 -7.59745e+12 -1.07682e+13 -8.90819e+12 -8.01024e+12 -1.10515e+13 -5.56228e+12 -4.70994e+12 -5.26688e+12 -7.93023e+12 -7.86263e+12 -4.94055e+12 -7.6027e+12 -8.22695e+12 -8.05838e+12 -5.52188e+12 -6.94381e+12 -6.72584e+12 -4.29399e+12 -8.21393e+12 -6.43802e+12 -5.15979e+12 -7.99062e+12 -6.26064e+12 -5.25632e+12 -4.11081e+12 -4.06176e+12 -4.4589e+12 -7.77945e+12 -8.2137e+12 -7.6565e+12 -6.98638e+12 -7.88317e+12 -9.05629e+12 -1.01222e+13 -6.93663e+12 -4.95744e+12 -8.92274e+12 -8.62876e+12 -1.21346e+13 -9.1386e+12 -7.82263e+12 -4.69839e+12 -7.34649e+12 -9.23827e+12 -9.8335e+12 -7.64465e+12 -6.23663e+12 -5.02509e+12 -3.32023e+12 -4.09313e+12 -5.82029e+12 -5.82746e+12 -6.65956e+12 -8.5894e+12 -5.80815e+12 -5.36573e+12 -6.10741e+12 -5.72905e+12 -5.24281e+12 -5.33983e+12 -9.45226e+12 -6.13622e+12 -5.90191e+12 -1.26465e+13 -9.16335e+12 -5.14154e+12 -6.37393e+12 -5.6534e+12 -5.66284e+12 -7.43133e+12 -9.4418e+12 -1.14599e+13 -6.09502e+12 -9.06129e+12 -5.96533e+12 -6.16271e+12 -5.67965e+12 -1.27518e+13 -9.80414e+12 -9.23749e+12 -1.20175e+13 -1.09178e+13 -8.7681e+12 -1.03513e+13 -5.39285e+12 -5.19804e+12 -5.55898e+12 -6.69501e+12 -6.52253e+12 -4.28184e+12 -5.10016e+12 -8.21918e+12 -5.09016e+12 -3.79431e+12 -4.11646e+12 -4.21218e+12 -3.72553e+12 -6.33134e+12 -1.02042e+13 -8.33474e+12 -8.79025e+12 -8.70988e+12 -9.7348e+12 -9.19864e+12 -1.13319e+13 -5.47261e+12 -9.02207e+12 -8.03655e+12 -4.81328e+12 -4.70772e+12 -8.15848e+12 -8.17685e+12 -7.54339e+12 -8.98682e+12 -6.71204e+12 -5.983e+12 -6.48295e+12 -5.85772e+12 -6.47891e+12 -8.09861e+12 -1.41555e+13 -4.60115e+12 -1.02952e+13 -5.68387e+12 -7.69273e+12 -8.24904e+12 -6.83702e+12 -3.4388e+12 -8.38869e+12 -3.72073e+12 -4.15809e+12 -7.76324e+12 -2.43698e+12 -6.22521e+12 -7.13542e+12 -2.22022e+12 -6.97674e+12 -5.53482e+12 -1.08658e+13 -8.09217e+12 -8.80752e+12 -9.28578e+12 -9.73581e+12 -6.88845e+12 -6.2332e+12 -5.23059e+12 -8.14566e+12 -5.15904e+12 -6.84837e+12 -7.83603e+12 -6.41742e+12 -7.9928e+12 -4.70425e+12 -1.3762e+13 -7.64121e+12 -6.85127e+12 -6.58031e+12 -9.76114e+12 -5.97615e+12 -4.22368e+12 -6.91338e+12 -9.68578e+12 -8.37226e+12 -5.76358e+12 -1.00382e+13 -7.47798e+12 -1.2363e+13 -1.03663e+13 -7.10234e+12 -1.10154e+13 -7.69353e+12 -4.98161e+12 -1.20529e+13 -1.15894e+13 -5.15083e+12 -8.26194e+12 -6.81235e+12 -5.00738e+12 -8.28985e+12 -1.04259e+13 -5.32893e+12 -3.29536e+12 -6.31548e+12 -8.07448e+12 -1.51944e+13 -5.84127e+12 -1.09613e+13 -7.87229e+12 -8.7432e+12 -6.1711e+12 -1.04043e+13 -8.76964e+12 -7.96226e+12 -1.05444e+13 -8.64453e+12 -8.47553e+12 -7.61e+12 -7.25585e+12 -6.18068e+12 -1.10303e+13 -1.12471e+13 -7.97157e+12 -1.42296e+13 -9.50026e+12 -5.98784e+12 -1.12154e+13 -7.08837e+12 -7.1922e+12 -6.61493e+12 -7.4153e+12 -4.45706e+12 -9.15539e+12 -5.1195e+12 -8.62262e+12 -1.24102e+13 -1.01622e+13 -6.49059e+12 -6.87917e+12 -8.12964e+12 -6.40038e+12 -6.8233e+12 -7.94838e+12 -1.08849e+13 -7.15086e+12 -8.19407e+12 -3.58074e+12 -7.73512e+12 -6.13866e+12 -9.46599e+12 -4.92763e+12 -8.6444e+12 -6.38758e+12 -6.76237e+12 -6.69803e+12 -8.10688e+12 -7.75528e+12 -6.22043e+12 -6.60366e+12 -5.97591e+12 -8.74011e+12 -6.78505e+12 -7.95166e+12 -7.26622e+12 -3.48477e+12 -6.03876e+12 -6.81667e+12 -2.99225e+12 -8.00734e+12 -1.1337e+13 -1.13935e+13 -7.0915e+12 -8.84352e+12 -1.10198e+13 -6.51293e+12 -1.01283e+13 -4.08254e+12 -5.63926e+12 -8.86953e+12 -6.33708e+12 -8.19011e+12 -6.35373e+12 -6.55917e+12 -1.25027e+13 -1.42784e+13 -1.00864e+13 -9.4401e+12 -1.27325e+13 -5.47244e+12 -8.6993e+12 -4.38281e+12 -6.83138e+12 -1.11344e+13 -6.97672e+12 -9.41566e+12 -7.27431e+12 -7.89587e+12 -1.04434e+13 -8.90482e+12 -8.88943e+12 -7.02404e+12 -5.67584e+12 -5.68983e+12 -9.20947e+12 -7.15413e+12 -6.59974e+12 -7.72094e+12 -4.32047e+12 -3.38613e+12 -3.07648e+12 -7.65098e+12 -3.30742e+12 -6.99273e+12 -9.58178e+12 -7.26455e+12 -7.66666e+12 -7.53602e+12 -4.60661e+12 -6.10915e+12 -5.47236e+12 -7.40401e+12 -7.33769e+12 -3.88986e+12 -8.54843e+12 -5.8323e+12 -7.21144e+12 -5.20335e+12 -5.50649e+12 -7.13576e+12 -5.42423e+12 -8.16376e+12 -8.7204e+12 -7.42299e+12 -4.88918e+12 -3.10033e+12 -6.1812e+12 -6.89283e+12 -1.14433e+13 -6.1348e+12 -3.44729e+12 -8.07528e+12 -6.09377e+12 -8.62374e+12 -5.82497e+12 -1.15924e+13 -5.86597e+12 -4.87412e+12 -8.96301e+12 -9.38374e+12 -1.05677e+13 -7.73889e+12 -6.08598e+12 -1.00928e+13 -1.0006e+13 -7.11837e+12 -8.92576e+12 -5.54841e+12 -1.09493e+13 -6.96186e+12 -7.96886e+12 -8.74285e+12 -6.88455e+12 -8.85572e+12 -1.605e+13 -7.8041e+12 -9.14041e+12 -7.15109e+12 -1.50675e+13 -9.0167e+12 -1.05205e+13 -3.7204e+12 -4.70722e+12 -8.01725e+12 -6.38469e+12 -8.49714e+12 -1.13536e+13 -7.31615e+12 -1.2374e+13 -4.53514e+12 -1.15011e+13 -1.0226e+13 -6.55073e+12 -9.29291e+12 -3.93192e+12 -6.16283e+12 -6.11112e+12 -5.71052e+12 -1.07827e+13 -6.2653e+12 -7.20955e+12 -9.94381e+12 -9.65854e+12 -8.33397e+12 -1.07901e+13 -7.88533e+12 -1.21862e+13 -7.92764e+12 -5.92488e+12 -7.03766e+12 -5.40193e+12 -1.01691e+13 -7.41972e+12 -7.42859e+12 -8.41432e+12 -6.76812e+12 -5.89725e+12 -1.08621e+13 -7.08861e+12 -7.29629e+12 -6.20065e+12 -7.23434e+12 -7.18502e+12 -1.1182e+13 -6.17817e+12 -6.80381e+12 -8.46088e+12 -7.48797e+12 -5.49786e+12 -1.01107e+13 -1.55995e+13 -4.60372e+12 -5.62873e+12 -5.78175e+12 -8.46657e+12 -9.15455e+12 -5.11145e+12 -9.87678e+12 -9.17823e+12 -8.96997e+12 -8.58139e+12 -8.72826e+12 -3.53978e+12 -8.76886e+12 -7.90054e+12 -6.52786e+12 -5.91764e+12 -6.80028e+12 -7.51889e+12 -6.6351e+12 -9.40598e+12 -5.8512e+12 -6.71763e+12 -5.21881e+12 -5.29138e+12 -1.22211e+13 -7.76932e+12 -1.12479e+13 -9.6319e+12 -1.41387e+13 -8.70142e+12 -6.00188e+12 -1.31093e+13 -9.21515e+12 -1.02456e+13 -9.74601e+12 -1.17846e+13 -9.72778e+12 -8.48533e+12 -1.43791e+13 -3.99044e+12 -8.405e+12 -6.62454e+12 -3.16252e+12 -4.53799e+12 -3.33162e+12 -6.45228e+12 -1.06527e+13 -7.50369e+12 -9.42117e+12 -1.25091e+13 -8.69358e+12 -1.51476e+13 -6.95197e+12 -8.47799e+12 -9.7536e+12 -1.15437e+13 -1.26389e+13 -8.43684e+12 -1.43146e+13 -9.09835e+12 -9.74125e+12 -5.71004e+12 -7.13435e+12 -9.12171e+12 -7.12917e+12 -8.00722e+12 -6.06388e+12 -7.44799e+12 -8.13512e+12 -5.2206e+12 -8.86295e+12 -5.26123e+12 -1.04901e+13 -5.37324e+12 -4.95348e+12 -7.82537e+12 -6.47474e+12 -7.37703e+12 -6.6588e+12 -5.68621e+12 -4.06845e+12 -5.3323e+12 -1.00137e+13 -8.07851e+12 -3.10717e+12 -4.46135e+12 -5.65386e+12 -9.88554e+12 -4.82944e+12 -7.21607e+12 -4.02535e+12 -7.76519e+12 -4.9679e+12 -7.13936e+12 -5.15765e+12 -3.97497e+12 -7.56404e+12 -4.2305e+12 -5.74885e+12 -6.86915e+12 -7.30061e+12 -4.20064e+12 -4.62907e+12 -8.29427e+12 -5.46777e+12 -8.09253e+12 -9.19091e+12 -1.12376e+13 -5.86511e+12 -7.72818e+12 -8.3602e+12 -7.11227e+12 -4.33359e+12 -9.86822e+12 -6.32657e+12 -8.30839e+12 -5.26821e+12 -8.02241e+12 -1.10274e+13 -5.49183e+12 -1.01697e+13 -1.17212e+13 -5.75397e+12 -6.30769e+12 -6.51626e+12 -4.88403e+12 -6.03427e+12 -1.01456e+13 -8.85093e+12 -8.11957e+12 -7.083e+12 -9.7288e+12 -5.52981e+12 -6.44638e+12 -1.00553e+13 -9.5999e+12 -8.85854e+12 -7.86221e+12 -1.03989e+13 -7.65607e+12 -7.32659e+12 -1.11557e+13 -9.80557e+12 -7.40191e+12 -8.20272e+12 -1.27176e+13 -1.07825e+13 -9.61467e+12 -1.06706e+13 -6.68143e+12 -6.63036e+12 -2.59165e+12 -8.12178e+12 -4.4125e+12 -4.08935e+12 -8.93537e+12 -5.95269e+12 -1.07021e+13 -5.81912e+12 -6.82918e+12 -6.46434e+12 -5.35524e+12 -8.69514e+12 -1.00317e+13 -7.10649e+12 -1.08297e+13 -1.29996e+13 -6.89939e+12 -6.84642e+12 -5.17356e+12 -9.19946e+12 -9.89709e+12 -6.80535e+12 -8.94217e+12 -1.18516e+13 -6.24075e+12 -8.70952e+12 -6.78862e+12 -1.05276e+13 -8.12446e+12 -9.99273e+12 -3.14611e+12 -8.52757e+12 -5.829e+12 -9.95588e+12 -6.55115e+12 -6.66993e+12 -1.06022e+13 -7.40203e+12 -6.67278e+12 -4.8342e+12 -5.04087e+12 -8.24524e+12 -6.66583e+12 -5.11255e+12 -4.16634e+12 -4.58044e+12 -6.33468e+12 -9.45787e+12 -6.95431e+12 -7.64017e+12 -8.79366e+12 -4.85334e+12 -7.81139e+12 -9.45264e+12 -3.63093e+12 -4.02132e+12 -5.95548e+12 -7.18591e+12 -7.11027e+12 -6.34254e+12 -7.43441e+12 -5.33027e+12 -8.71758e+12 -7.31458e+12 -5.06433e+12 -6.13634e+12 -7.27025e+12 -4.4113e+12 -3.70202e+12 -4.01685e+12 -1.01812e+13 -5.99882e+12 -8.65764e+12 -1.00101e+13 -9.06628e+12 -6.91989e+12 -5.56174e+12 -8.82656e+12 -5.41312e+12 -9.15894e+12 -9.5497e+12 -1.01686e+13 -8.95976e+12 -7.85357e+12 -5.88854e+12 -7.65137e+12 -9.82592e+12 -1.08544e+13 -9.15338e+12 -8.7086e+12 -1.25965e+13 -1.22624e+13 -7.50948e+12 -5.32183e+12 -8.42756e+12 -1.20132e+13 -7.66558e+12 -5.12276e+12 -5.6465e+12 -4.89709e+12 -9.69201e+12 -5.9728e+12 -4.65892e+12 -5.24503e+12 -4.37177e+12 -7.66551e+12 -1.19191e+13 -8.0882e+12 -1.07377e+13 -9.36801e+12 -8.00811e+12 -1.03921e+13 -8.02765e+12 -7.66339e+12 -6.4586e+12 -8.1382e+12 -5.91134e+12 -1.05652e+13 -6.24868e+12 -7.89386e+12 -7.087e+12 -9.29409e+12 -8.09174e+12 -9.80874e+12 -8.66961e+12 -3.28158e+12 -1.15079e+13 -4.68865e+12 -5.75665e+12 -6.76318e+12 -9.33485e+12 -8.86363e+12 -9.00209e+12 -7.01022e+12 -4.99576e+12 -9.01775e+12 -2.82918e+12 -3.14551e+12 -8.60835e+12 -6.63548e+12 -9.53413e+12 -5.66753e+12 -5.92823e+12 -7.35111e+12 -5.63829e+12 -8.30611e+12 -6.734e+12 -5.56973e+12 -4.718e+12 -1.07267e+13 -8.08405e+12 -8.00176e+12 -9.29248e+12 -3.28811e+12 -6.73468e+12 -4.34738e+12 -6.60623e+12 -5.22244e+12 -8.06868e+12 -9.32987e+12 -6.50169e+12 -5.18998e+12 -9.83755e+12 -4.67567e+12 -6.09769e+12 -6.69271e+12 -1.11952e+13 -7.47332e+12 -6.65853e+12 -4.81828e+12 -8.43729e+12 -4.69389e+12 -6.2634e+12 -3.15555e+12 -5.18437e+12 -2.75444e+12 -6.78747e+12 -5.92563e+12 -9.74362e+12 -5.78661e+12 -7.03376e+12 -1.02064e+13 -6.36217e+12 -6.9105e+12 -3.92221e+12 -7.10016e+12 -8.18237e+12 -5.64323e+12 -4.61683e+12 -7.25997e+12 -9.04852e+12 -8.96956e+12 -2.63046e+12 -4.82112e+12 -6.71873e+12 -7.79226e+12 -7.09797e+12 -4.55663e+12 -6.91652e+12 -8.9596e+12 -9.64046e+12 -4.98004e+12 -8.27736e+12 -3.91156e+12 -7.70583e+12 -1.61204e+13 -8.819e+12 -8.25765e+12 -1.03358e+13 -1.01207e+13 -1.05216e+13 -1.24976e+13 -6.34844e+12 -8.783e+12 -1.20524e+13 -6.72209e+12 -7.61487e+12 -6.5505e+12 -1.21219e+13 -5.73065e+12 -8.36788e+12 -5.55283e+12 -6.64461e+12 -3.69615e+12 -9.01524e+12 -9.98031e+12 -1.0603e+13 -5.3143e+12 -7.19795e+12 -7.74869e+12 -6.00448e+12 -8.20308e+12 -5.19965e+12 -8.69103e+12 -1.35865e+13 -8.97587e+12 -6.29777e+12 -1.32325e+13 -4.59058e+12 -5.48506e+12 -2.36116e+12 -6.30965e+12 -3.89241e+12 -4.54196e+12 -9.38836e+12 -6.00515e+12 -8.14673e+12 -5.40496e+12 -1.01825e+13 -5.09123e+12 -5.34784e+12 -1.22562e+13 -4.79078e+12 -5.28505e+12 -1.13868e+13 -6.55783e+12 -8.79987e+12 -7.58752e+12 -5.77706e+12 -6.11436e+12 -5.39361e+12 -8.04235e+12 -1.2962e+13 -8.80544e+12 -5.60755e+12 -8.17998e+12 -8.97878e+12 -4.92878e+12 -7.85393e+12 -5.45628e+12 -4.05179e+12 -9.19631e+12 -1.01318e+13 -9.50001e+12 -7.21901e+12 -6.90183e+12 -4.68204e+12 -6.94973e+12 -3.35733e+12 -7.46407e+12 -6.67406e+12 -6.43028e+12 -8.91011e+12 -6.28568e+12 -1.04362e+13 -5.12714e+12 -1.09614e+13 -4.96957e+12 -5.02402e+12 -8.61539e+12 -8.45864e+12 -8.20131e+12 -7.06228e+12 -6.41064e+12 -4.4142e+12 -2.88684e+12 -5.65081e+12 -1.28685e+13 -5.4115e+12 -8.87696e+12 -3.76642e+12 -8.11322e+12 -5.6735e+12 -4.43527e+12 -7.6241e+12 -7.20772e+12 -5.60573e+12 -7.29336e+12 -5.69445e+12 -7.39923e+12 -6.86213e+12 -4.82892e+12 -7.67104e+12 -4.58505e+12 -6.50386e+12 -1.76079e+12 -2.75829e+12 -5.05921e+12 -3.19004e+12 -7.13975e+12 -8.70234e+12 -6.34841e+12 -4.42683e+12 -8.99153e+12 -4.36478e+12 -7.27754e+12 -1.00634e+13 -7.06484e+12 -7.0169e+12 -6.8853e+12 -8.36382e+12 -2.66658e+12 -7.98707e+12 -4.64512e+12 -7.52156e+12 -1.01914e+13 -3.95616e+12 -7.03095e+12 -1.07911e+13 -9.14954e+12 -7.81211e+12 -8.48938e+12 -9.29046e+12 -1.06135e+13 -5.56303e+12 -8.95896e+12 -4.95455e+12 -6.6375e+12 -1.00723e+13 -1.23253e+13 -9.2875e+12 -1.15808e+13 -8.5015e+12 -1.17053e+13 -7.04327e+12 -9.36893e+12 -6.18093e+12 -7.81443e+12 -4.31642e+12 -8.69167e+12 -5.7694e+12 -5.67075e+12 -5.34399e+12 -1.1699e+13 -6.92565e+12 -4.47444e+12 -5.93205e+12 -6.87532e+12 -9.31645e+12 -9.67162e+12 -6.62316e+12 -7.17865e+12 -1.03075e+13 -8.01435e+12 -6.64429e+12 -5.74972e+12 -4.91627e+12 -4.07874e+12 -6.86246e+12 -5.36403e+12 -5.92367e+12 -5.32698e+12 -7.36096e+12 -7.10191e+12 -1.09873e+13 -6.17053e+12 -3.99728e+12 -5.38963e+12 -8.21312e+12 -9.5238e+12 -6.64078e+12 -6.68435e+12 -6.94276e+12 -7.20587e+12 -1.05998e+13 -6.32568e+12 -8.64595e+12 -4.64644e+12 -7.70264e+12 -6.42716e+12 -9.08376e+12 -7.89141e+12 -5.74455e+12 -5.11279e+12 -7.62665e+12 -5.01162e+12 -2.7106e+12 -8.22271e+12 -5.16911e+12 -5.27463e+12 -6.79036e+12 -2.65353e+12 -7.28684e+12 -5.13715e+12 -5.64068e+12 -9.98842e+12 -8.05254e+12 -3.91023e+12 -6.55864e+12 -8.61106e+12 -1.00397e+13 -4.50026e+12 -4.09299e+12 -3.29306e+12 -5.21122e+12 -5.36371e+12 -3.39859e+12 -6.71248e+12 -5.29875e+12 -4.03411e+12 -5.30441e+12 -7.23502e+12 -5.50614e+12 -4.15231e+12 -6.52227e+12 -7.80611e+12 -5.02948e+12 -8.76826e+12 -9.68672e+12 -5.64152e+12 -5.21206e+12 -5.78541e+12 -8.02369e+12 -3.64221e+12 -7.96853e+12 -8.31663e+12 -1.05379e+13 -1.15164e+13 -8.73281e+12 -6.93553e+12 -1.03842e+13 -1.14619e+13 -5.24226e+12 -9.13411e+12 -1.31283e+13 -7.62772e+12 -5.92327e+12 -1.26559e+13 -9.81898e+12 -6.12804e+12 -4.16693e+12 -6.44169e+12 -6.97993e+12 -4.55994e+12 -7.89901e+12 -9.62658e+12 -9.16824e+12 -7.2048e+12 -7.74521e+12 -9.14912e+12 -7.79783e+12 -8.96174e+12 -9.72181e+12 -8.53818e+12 -4.64848e+12 -7.41091e+12 -9.14376e+12 -6.94233e+12 -1.0451e+13 -1.07979e+13 -1.00095e+13 -7.61544e+12 -6.0544e+12 -1.01935e+13 -5.28841e+12 -7.27118e+12 -8.63986e+12 -7.95708e+12 -7.41881e+12 -7.3926e+12 -8.54494e+12 -6.7284e+12 -8.31421e+12 -7.49598e+12 -7.09167e+12 -6.58076e+12 -9.64926e+12 -6.08724e+12 -7.25097e+12 -7.16907e+12 -6.77409e+12 -5.33443e+12 -3.92414e+12 -4.40897e+12 -6.10964e+12 -3.99628e+12 -6.0705e+12 -7.23679e+12 -7.20813e+12 -6.74983e+12 -6.32088e+12 -1.22253e+13 -5.81724e+12 -8.11604e+12 -5.95907e+12 -5.40071e+12 -5.59765e+12 -7.28931e+12 -7.72246e+12 -9.82483e+12 -6.78638e+12 -4.1879e+12 -6.11814e+12 -6.67686e+12 -4.03967e+12 -8.17294e+12 -4.39872e+12 -4.31689e+12 -6.30202e+12 -7.59481e+12 -5.69586e+12 -7.00181e+12 -3.73211e+12 -6.42184e+12 -7.78777e+12 -6.40517e+12 -2.98424e+12 -6.18992e+12 -7.13008e+12 -5.7061e+12 -5.16638e+12 -4.46726e+12 -2.77884e+12 -5.04186e+12 -7.28426e+12 -6.2151e+12 -3.6131e+12 -4.36923e+12 -7.80279e+12 -6.80222e+12 -1.10214e+13 -7.64535e+12 -5.20025e+12 -1.05483e+13 -4.72161e+12 -6.51851e+12 -1.06257e+13 -8.98656e+12 -1.01685e+13 -6.2754e+12 -5.85774e+12 -7.1065e+12 -2.67781e+12 -9.01934e+12 -6.47147e+12 -1.05257e+13 -7.99937e+12 -8.47208e+12 -8.2405e+12 -8.21374e+12 -6.11987e+12 -1.29198e+13 -4.94988e+12 -1.13127e+13 -9.69338e+12 -8.549e+12 -9.33406e+12 -8.19428e+12 -5.10617e+12 -1.10912e+13 -1.09336e+13 -1.1594e+13 -9.37219e+12 -8.12962e+12 -8.74772e+12 -7.21613e+12 -7.11755e+12 -5.82055e+12 -7.35937e+12 -7.27273e+12 -5.04742e+12 -7.51971e+12 -5.85772e+12 -5.51699e+12 -6.72405e+12 -5.44612e+12 -7.43957e+12 -8.19912e+12 -4.55507e+12 -3.92832e+12 -6.13202e+12 -2.64893e+12 -7.79527e+12 -7.79414e+12 -6.93502e+12 -5.18789e+12 -8.63006e+12 -6.48415e+12 -6.02891e+12 -1.25764e+13 -3.73485e+12 -9.94745e+12 -6.41188e+12 -7.78196e+12 -1.39764e+13 -4.91146e+12 -5.94742e+12 -5.79525e+12 -5.06624e+12 -4.27755e+12 -7.95422e+12 -1.08008e+13 -5.31633e+12 -9.54887e+12 -5.85075e+12 -6.06432e+12 -7.3159e+12 -6.39081e+12 -2.63262e+12 -6.33182e+12 -4.7197e+12 -9.07351e+12 -1.12736e+13 -9.63358e+12 -7.67089e+12 -6.12124e+12 -3.15079e+12 -8.17964e+12 -6.04725e+12 -7.25193e+12 -7.80964e+12 -7.38141e+12 -3.8878e+12 -9.64544e+12 -6.80775e+12 -1.17882e+13 -7.46376e+12 -9.84386e+12 -1.0904e+13 -5.48018e+12 -5.59762e+12 -5.77935e+12 -4.63426e+12 -4.41338e+12 -5.89908e+12 -6.82778e+12 -8.91282e+12 -3.88991e+12 -9.19258e+12 -8.98997e+12 -4.89052e+12 -8.2139e+12 -8.1786e+12 -6.16228e+12 -8.18841e+12 -4.19036e+12 -6.24423e+12 -4.36625e+12 -3.88603e+12 -7.52856e+12 -4.56546e+12 -9.85041e+12 -4.88193e+12 -7.45734e+12 -8.46324e+12 -4.8297e+12 -2.49349e+12 -4.38e+12 -8.06431e+12 -8.87096e+12 -5.38276e+12 -7.80177e+12 -3.48616e+12 -4.6633e+12 -5.03844e+12 -5.07961e+12 -5.85597e+12 -8.60785e+12 -7.98313e+12 -6.1191e+12 -4.15048e+12 -8.02462e+12 -6.64822e+12 -6.27166e+12 -6.52871e+12 -5.77272e+12 -6.11909e+12 -6.4634e+12 -6.05465e+12 -6.23487e+12 -7.75938e+12 -8.01467e+12 -1.1344e+13 -5.54935e+12 -4.5189e+12 -6.4434e+12 -6.92801e+12 -1.16605e+13 -7.21492e+12 -3.75039e+12 -8.84787e+12 -1.06302e+13 -8.22349e+12 -8.8657e+12 -7.27602e+12 -3.76583e+12 -2.2009e+12 -1.34237e+13 -9.59257e+12 -1.20209e+13 -1.06708e+13 -7.53328e+12 -6.39085e+12 -1.36322e+13 -7.27077e+12 -9.33748e+12 -7.77365e+12 -9.00633e+12 -8.99452e+12 -1.00303e+13 -4.33038e+12 -2.77155e+12 -6.46756e+12 -6.5846e+12 -5.13632e+12 -6.54068e+12 -4.11183e+12 -5.42932e+12 -6.45101e+12 -8.52489e+12 -7.15953e+12 -8.52504e+12 -1.30154e+13 -8.05274e+12 -8.07434e+12 -4.61452e+12 -1.50508e+13 -8.14348e+12 -4.82878e+12 -1.04669e+13 -9.42655e+12 -7.73292e+12 -9.38459e+12 -9.7843e+12 -6.88919e+12 -4.73041e+12 -7.68689e+12 -9.90468e+12 -8.9402e+12 -1.13159e+13 -3.40919e+12 -3.09754e+12 -4.70349e+12 -7.76843e+12 -5.30076e+12 -5.81231e+12 -5.08833e+12 -7.18727e+12 -8.04785e+12 -3.64373e+12 -7.30047e+12 -5.7446e+12 -3.84274e+12 -1.1853e+13 -5.04025e+12 -8.86976e+12 -5.32969e+12 -8.77311e+12 -3.96074e+12 -6.88133e+12 -9.76216e+12 -3.67255e+12 -4.71564e+12 -3.77142e+12 -3.40498e+12 -6.91352e+12 -6.59414e+12 -4.72548e+12 -6.45812e+12 -8.16915e+12 -6.31025e+12 -6.51907e+12 -4.72806e+12 -6.35911e+12 -5.23503e+12 -3.02959e+12 -5.10486e+12 -1.89319e+12 -6.46447e+12 -6.83954e+12 -4.44291e+12 -6.22083e+12 -7.61172e+12 -1.07951e+13 -3.26275e+12 -3.99515e+12 -3.43526e+12 -5.71631e+12 -5.02093e+12 -7.03744e+12 -6.16295e+12 -3.41039e+12 -5.22399e+12 -3.59856e+12 -8.12758e+12 -6.57231e+12 -7.45915e+12 -1.09385e+13 -5.50329e+12 -9.11371e+12 -6.24851e+12 -4.32403e+12 -4.35879e+12 -6.56629e+12 -7.23747e+12 -4.36016e+12 -6.84315e+12 -9.54664e+12 -9.14772e+12 -4.57854e+12 -7.96865e+12 -6.91332e+12 -7.57243e+12 -5.88499e+12 -9.65483e+12 -8.76093e+12 -4.69451e+12 -5.27463e+12 -1.01706e+13 -6.78084e+12 -6.66754e+12 -5.70314e+12 -6.50389e+12 -7.4291e+12 -6.64251e+12 -7.34391e+12 -9.15877e+12 -4.67874e+12 -4.1393e+12 -4.7492e+12 -5.96826e+12 -8.10873e+12 -6.71168e+12 -7.01069e+12 -5.04351e+12 -6.74418e+12 -9.70359e+12 -5.2499e+12 -7.01013e+12 -7.32757e+12 -1.07636e+13 -4.93301e+12 -5.77194e+12 -5.90749e+12 -6.14836e+12 -4.99996e+12 -8.08502e+12 -6.05416e+12 -4.2321e+12 -5.67381e+12 -4.36308e+12 -7.31756e+12 -6.67772e+12 -6.40315e+12 -1.0309e+13 -6.79739e+12 -7.14478e+12 -7.41645e+12 -1.88021e+13 -3.83118e+12 -6.59724e+12 -6.12595e+12 -8.53638e+12 -5.49551e+12 -7.58527e+12 -9.46769e+12 -6.73914e+12 -5.3281e+12 -6.48715e+12 -7.70557e+12 -8.23238e+12 -8.44872e+12 -8.76511e+12 -8.68747e+12 -5.69203e+12 -1.41692e+13 -6.70301e+12 -5.77422e+12 -5.76027e+12 -4.7018e+12 -9.39853e+12 -7.21551e+12 -7.50272e+12 -9.87965e+12 -7.4792e+12 -8.75834e+12 -8.82317e+12 -8.78548e+12 -6.3657e+12 -4.90323e+12 -6.93057e+12 -5.92557e+12 -9.39613e+12 -7.29646e+12 -6.49464e+12 -4.5551e+12 -3.93527e+12 -5.76365e+12 -4.82968e+12 -4.32934e+12 -5.6595e+12 -3.58088e+12 -5.39417e+12 -8.98587e+12 -6.17568e+12 -6.48876e+12 -3.82338e+12 -4.52058e+12 -5.47387e+12 -3.51619e+12 -6.56424e+12 -7.31466e+12 -5.58719e+12 -7.65095e+12 -4.84931e+12 -8.45716e+12 -3.65922e+12 -5.85922e+12 -7.1766e+12 -5.56031e+12 -5.53353e+12 -4.66011e+12 -6.54515e+12 -5.84826e+12 -5.89004e+12 -6.41646e+12 -3.57489e+12 -5.49761e+12 -4.50263e+12 -3.11767e+12 -3.12574e+12 -5.58335e+12 -6.55503e+12 -4.02761e+12 -7.29046e+12 -5.09351e+12 -2.21242e+12 -4.03384e+12 -8.23209e+12 -5.42651e+12 -2.8403e+12 -3.72688e+12 -3.50694e+12 -3.88043e+12 -7.61365e+12 -5.71167e+12 -9.84209e+12 -5.77468e+12 -5.06603e+12 -9.92237e+12 -5.37968e+12 -9.89069e+12 -2.43599e+12 -5.01464e+12 -5.72528e+12 -9.35479e+12 -9.97538e+12 -7.72851e+12 -5.65133e+12 -5.10776e+12 -6.00945e+12 -4.26062e+12 -3.53137e+12 -5.4624e+12 -7.78877e+12 -5.68923e+12 -9.22625e+12 -5.93986e+12 -6.94867e+12 -7.48253e+12 -8.73948e+12 -8.92652e+12 -8.65678e+12 -9.54945e+12 -8.75258e+12 -8.65034e+12 -8.58608e+12 -7.6915e+12 -1.31478e+13 -7.54458e+12 -6.03843e+12 -7.08366e+12 -8.66366e+12 -1.04838e+13 -6.42426e+12 -5.23038e+12 -5.61017e+12 -8.57356e+12 -4.48784e+12 -4.8182e+12 -5.81933e+12 -4.32429e+12 -7.80573e+12 -5.18683e+12 -2.70167e+12 -5.26521e+12 -9.64744e+12 -4.59535e+12 -8.08248e+12 -1.3364e+13 -6.03901e+12 -1.18025e+13 -7.13384e+12 -1.15755e+13 -5.38528e+12 -6.03497e+12 -7.10067e+12 -3.62867e+12 -5.5715e+12 -6.44729e+12 -5.47713e+12 -3.80678e+12 -6.14831e+12 -1.11096e+13 -4.8981e+12 -6.9179e+12 -6.57874e+12 -1.01982e+13 -1.10776e+13 -7.47469e+12 -5.94124e+12 -5.98643e+12 -5.97747e+12 -6.02403e+12 -5.47262e+12 -5.37025e+12 -6.22383e+12 -5.18078e+12 -8.19371e+12 -6.51923e+12 -4.86423e+12 -7.93871e+12 -7.71606e+12 -2.67802e+12 -3.28557e+12 -5.38417e+12 -5.27551e+12 -4.49714e+12 -3.83376e+12 -4.2842e+12 -9.10011e+12 -5.24425e+12 -4.84199e+12 -4.78074e+12 -4.85828e+12 -3.336e+12 -3.76512e+12 -9.16159e+12 -7.28176e+12 -5.55795e+12 -6.05593e+12 -4.43672e+12 -6.30433e+12 -4.68919e+12 -5.20703e+12 -3.03126e+12 -7.15418e+12 -7.32184e+12 -6.84986e+12 -6.35059e+12 -6.82497e+12 -5.72796e+12 -5.06371e+12 -6.44176e+12 -5.31841e+12 -5.21134e+12 -4.79395e+12 -4.96843e+12 -2.90411e+12 -7.16065e+12 -6.89999e+12 -3.50163e+12 -6.59472e+12 -5.61672e+12 -8.29878e+12 -5.07654e+12 -4.31101e+12 -5.97591e+12 -5.15566e+12 -3.86697e+12 -5.37077e+12 -7.92005e+12 -4.362e+12 -1.03373e+13 -4.30458e+12 -6.25381e+12 -4.98967e+12 -8.61584e+12 -1.22714e+13 -6.8024e+12 -8.03569e+12 -4.22169e+12 -4.62018e+12 -7.00777e+12 -7.28788e+12 -9.33577e+12 -4.54121e+12 -1.27707e+13 -5.71533e+12 -3.97631e+12 -3.0009e+12 -4.78057e+12 -6.44996e+12 -7.54399e+12 -4.94709e+12 -8.03296e+12 -6.91522e+12 -1.23977e+13 -2.99434e+12 -5.36791e+12 -6.59593e+12 -7.87453e+12 -4.55716e+12 -5.91788e+12 -3.58323e+12 -6.58613e+12 -7.68566e+12 -6.84333e+12 -4.7403e+12 -9.80311e+12 -6.54474e+12 -6.14739e+12 -7.71453e+12 -6.37429e+12 -5.53761e+12 -9.96583e+12 -3.11161e+12 -5.37651e+12 -8.48836e+12 -6.6867e+12 -1.10101e+13 -5.44126e+12 -1.1896e+13 -5.69597e+12 -4.92602e+12 -5.02022e+12 -4.61476e+12 -6.09247e+12 -9.36108e+12 -5.92792e+12 -1.04999e+13 -1.0378e+13 -8.15386e+12 -7.32503e+12 -6.53353e+12 -3.73943e+12 -4.50223e+12 -7.81377e+12 -4.33366e+12 -7.03405e+12 -5.45441e+12 -3.68132e+12 -6.33887e+12 -7.00221e+12 -8.09881e+12 -5.46511e+12 -5.39746e+12 -5.7629e+12 -7.25588e+12 -7.45267e+12 -6.17909e+12 -7.58707e+12 -5.19329e+12 -6.38311e+12 -5.86012e+12 -6.68415e+12 -2.54888e+12 -5.03861e+12 -2.82909e+12 -5.14871e+12 -2.07482e+12 -7.37713e+12 -4.13357e+12 -3.79564e+12 -9.80924e+12 -5.07978e+12 -5.10698e+12 -6.09948e+12 -4.33382e+12 -5.58273e+12 -8.98977e+12 -1.00496e+13 -3.26016e+12 -4.19479e+12 -6.04822e+12 -5.76794e+12 -4.88608e+12 -895785000000.0 -5.25156e+12 -9.17817e+12 -7.44016e+12 -5.59332e+12 -5.59301e+12 -1.70429e+12 -5.50108e+12 -5.46613e+12 -5.26713e+12 -4.27576e+12 -4.77156e+12 -6.01426e+12 -4.96306e+12 -5.60387e+12 -5.54834e+12 -4.57287e+12 -4.15118e+12 -4.26064e+12 -3.97644e+12 -3.89545e+12 -5.34207e+12 -5.33248e+12 -4.18342e+12 -4.57067e+12 -6.81075e+12 -5.4361e+12 -3.17019e+12 -3.37883e+12 -2.97476e+12 -4.09582e+12 -3.3377e+12 -7.8273e+12 -2.56669e+12 -5.73682e+12 -2.20383e+12 -4.70246e+12 -3.74054e+12 -5.09712e+12 -3.59075e+12 -4.29031e+12 -6.97546e+12 -6.83598e+12 -4.05091e+12 -5.44767e+12 -5.73047e+12 -6.52447e+12 -3.49001e+12 -6.55993e+12 -7.39773e+12 -3.82823e+12 -3.82513e+12 -6.08842e+12 -7.08068e+12 -4.74021e+12 -7.04554e+12 -6.20591e+12 -7.64264e+12 -6.63539e+12 -7.81773e+12 -8.66507e+12 -1.08151e+13 -6.61861e+12 -3.25561e+12 -4.44804e+12 -4.70704e+12 -5.56892e+12 -9.96064e+12 -1.01527e+13 -1.24921e+13 -7.73495e+12 -8.19145e+12 -4.29605e+12 -7.81358e+12 -8.97868e+12 -1.34716e+13 -6.48086e+12 -3.81402e+12 -1.0513e+13 -6.94312e+12 -7.57758e+12 -5.90476e+12 -9.71281e+12 -5.31275e+12 -5.06003e+12 -5.62736e+12 -4.53842e+12 -5.64132e+12 -5.25694e+12 -4.90127e+12 -9.65868e+12 -9.78153e+12 -8.85609e+12 -7.06364e+12 -8.38462e+12 -6.80292e+12 -6.78389e+12 -4.03208e+12 -5.96973e+12 -6.96733e+12 -3.95811e+12 -3.71705e+12 -5.91673e+12 -5.78979e+12 -3.65254e+12 -4.69478e+12 -6.81068e+12 -7.75661e+12 -4.31846e+12 -6.46316e+12 -7.93271e+12 -7.78028e+12 -8.90382e+12 -7.07123e+12 -9.00748e+12 -7.03014e+12 -8.42188e+12 -6.04618e+12 -6.6164e+12 -4.61765e+12 -5.05779e+12 -7.23561e+12 -4.4424e+12 -3.75181e+12 -6.54831e+12 -6.28161e+12 -3.90876e+12 -6.94401e+12 -3.04116e+12 -8.92241e+12 -4.79833e+12 -8.71999e+12 -5.70493e+12 -9.17308e+12 -6.98256e+12 -6.71931e+12 -9.84102e+12 -6.49592e+12 -4.061e+12 -3.03915e+12 -3.8134e+12 -3.95299e+12 -7.77463e+12 -6.27179e+12 -4.48243e+12 -1.49749e+12 -6.98579e+12 -6.21039e+12 -5.03598e+12 -3.65167e+12 -4.9933e+12 -3.23716e+12 -4.53594e+12 -4.81456e+12 -6.90207e+12 -6.34117e+12 -5.34237e+12 -5.57946e+12 -7.9647e+12 -4.73535e+12 -4.10504e+12 -1.6764e+12 -3.51256e+12 -5.27751e+12 -3.21805e+12 -4.831e+12 -5.51628e+12 -5.67943e+12 -4.59656e+12 -2.70614e+12 -3.21116e+12 -3.42447e+12 -4.93236e+12 -4.51073e+12 -5.70532e+12 -2.83778e+12 -4.65719e+12 -6.01025e+12 -4.00859e+12 -6.00872e+12 -4.48861e+12 -4.9331e+12 -2.34419e+12 -4.24703e+12 -4.26509e+12 -7.67619e+12 -5.52305e+12 -4.4637e+12 -4.05151e+12 -5.22818e+12 -4.6375e+12 -4.94935e+12 -3.71139e+12 -4.68291e+12 -4.84884e+12 -3.48233e+12 -3.69818e+12 -2.93697e+12 -4.84862e+12 -4.99457e+12 -4.28986e+12 -2.22025e+12 -4.69186e+12 -6.52719e+12 -6.23338e+12 -3.18839e+12 -6.06632e+12 -8.07533e+12 -5.4278e+12 -7.91439e+12 -1.05399e+13 -5.59084e+12 -5.1297e+12 -5.12862e+12 -6.19098e+12 -3.40374e+12 -7.40284e+12 -3.89475e+12 -4.3804e+12 -5.6094e+12 -5.39934e+12 -7.20266e+12 -7.83482e+12 -5.0082e+12 -8.7213e+12 -5.95781e+12 -3.83507e+12 -5.89604e+12 -3.55776e+12 -3.70545e+12 -6.19637e+12 -7.01405e+12 -6.01203e+12 -5.06283e+12 -9.08441e+12 -5.61757e+12 -5.85865e+12 -8.30723e+12 -9.36163e+12 -8.06137e+12 -6.36585e+12 -5.89649e+12 -4.3315e+12 -5.18313e+12 -4.74897e+12 -7.24964e+12 -4.98644e+12 -6.03657e+12 -1.26104e+13 -6.29095e+12 -1.08276e+13 -1.28746e+13 -5.97518e+12 -5.1775e+12 -7.2468e+12 -8.17973e+12 -7.43896e+12 -4.8359e+12 -5.53054e+12 -6.97992e+12 -5.61567e+12 -2.64739e+12 -5.06035e+12 -5.33252e+12 -6.10598e+12 -5.93964e+12 -6.0792e+12 -6.87382e+12 -6.12688e+12 -4.48506e+12 -3.92098e+12 -5.16724e+12 -3.92119e+12 -8.65736e+12 -5.92701e+12 -6.39325e+12 -8.01369e+12 -4.7329e+12 -6.54003e+12 -6.87598e+12 -6.63771e+12 -4.7825e+12 -7.66687e+12 -3.70223e+12 -5.79006e+12 -6.52307e+12 -5.62792e+12 -4.29399e+12 -5.46549e+12 -6.08032e+12 -9.50665e+12 -6.86919e+12 -5.0641e+12 -6.658e+12 -8.32921e+12 -1.11716e+13 -9.72193e+12 -8.33898e+12 -5.17497e+12 -9.77037e+12 -2.71622e+12 -7.61051e+12 -5.73877e+12 -4.73208e+12 -5.45547e+12 -5.7808e+12 -5.62053e+12 -4.97285e+12 -7.17717e+12 -5.42397e+12 -5.90012e+12 -4.33832e+12 -4.30343e+12 -4.87614e+12 -6.63491e+12 -7.39153e+12 -4.46013e+12 -4.16857e+12 -5.76104e+12 -3.24365e+12 -5.31926e+12 -4.98135e+12 -4.83121e+12 -2.9957e+12 -2.44746e+12 -4.6941e+12 -4.76009e+12 -5.14378e+12 -3.76985e+12 -2.19198e+12 -4.66881e+12 -4.99294e+12 -4.81089e+12 -5.07933e+12 -4.93392e+12 -4.77033e+12 -4.48408e+12 -5.69768e+12 -2.58557e+12 -3.93713e+12 -4.68911e+12 -5.59244e+12 -4.04748e+12 -5.72532e+12 -7.17738e+12 -4.21067e+12 -4.34351e+12 -3.92802e+12 -5.87868e+12 -4.38798e+12 -4.59517e+12 -2.99046e+12 -3.62474e+12 -3.4576e+12 -5.22909e+12 -3.36674e+12 -6.17749e+12 -4.10039e+12 -7.70563e+12 -5.95907e+12 -5.2359e+12 -3.58975e+12 -3.45532e+12 -7.02322e+12 -2.74116e+12 -4.71953e+12 -8.49486e+12 -4.40154e+12 -6.69421e+12 -5.21029e+12 -4.80004e+12 -4.16649e+12 -4.3548e+12 -4.47402e+12 -6.5174e+12 -6.11616e+12 -5.94549e+12 -8.65043e+12 -6.08813e+12 -7.74086e+12 -5.55694e+12 -8.21805e+12 -1.20977e+13 -7.90011e+12 -6.69121e+12 -6.93731e+12 -5.97403e+12 -2.34422e+12 -1.01257e+13 -8.04255e+12 -1.04957e+13 -6.28107e+12 -5.03463e+12 -8.76631e+12 -1.4708e+13 -8.11093e+12 -4.80045e+12 -1.13367e+13 -9.54836e+12 -5.41219e+12 -7.9806e+12 -9.24304e+12 -4.94949e+12 -7.52693e+12 -3.48614e+12 -6.30435e+12 -3.72658e+12 -8.68591e+12 -4.60189e+12 -8.02267e+12 -4.70919e+12 -7.52307e+12 -5.65094e+12 -9.66431e+12 -1.02895e+13 -7.14723e+12 -6.02055e+12 -6.18728e+12 -8.35304e+12 -5.57851e+12 -7.42769e+12 -5.71251e+12 -4.41051e+12 -5.1668e+12 -5.11576e+12 -5.53647e+12 -5.61051e+12 -4.72506e+12 -7.81794e+12 -5.45655e+12 -9.21972e+12 -5.26299e+12 -4.80258e+12 -4.69806e+12 -3.58606e+12 -1.074e+13 -6.29982e+12 -5.37234e+12 -7.98938e+12 -4.40439e+12 -2.93853e+12 -6.42631e+12 -7.8756e+12 -4.51214e+12 -4.25265e+12 -6.30222e+12 -3.05873e+12 -6.67065e+12 -2.48266e+12 -5.29541e+12 -4.73385e+12 -3.73838e+12 -5.31716e+12 -3.81843e+12 -4.9213e+12 -5.79018e+12 -4.42674e+12 -4.55556e+12 -7.05277e+12 -4.79885e+12 -2.95317e+12 -4.47878e+12 -3.4543e+12 -4.05807e+12 -2.36154e+12 -4.87599e+12 -2.98571e+12 -3.17217e+12 -3.90246e+12 -4.29251e+12 -3.52929e+12 -4.37849e+12 -5.84343e+12 -3.89144e+12 -2.11132e+12 -2.97995e+12 -3.03973e+12 -3.1251e+12 -6.31552e+12 -3.02191e+12 -4.45167e+12 -7.6753e+12 -3.45066e+12 -5.45593e+12 -4.71818e+12 -6.38999e+12 -5.2061e+12 -5.00504e+12 -2.53701e+12 -5.56984e+12 -6.72045e+12 -3.44357e+12 -5.39018e+12 -4.6513e+12 -6.05824e+12 -8.63878e+12 -3.93934e+12 -3.49205e+12 -5.14651e+12 -4.509e+12 -8.31533e+12 -5.0031e+12 -3.43538e+12 -2.42016e+12 -4.40776e+12 -4.7655e+12 -6.27536e+12 -6.00728e+12 -5.28952e+12 -8.20914e+12 -7.57814e+12 -7.1687e+12 -5.89435e+12 -4.29577e+12 -5.51306e+12 -5.96464e+12 -5.01412e+12 -6.45707e+12 -3.44268e+12 -4.37281e+12 -7.21075e+12 -4.75014e+12 -4.51808e+12 -5.63221e+12 -6.61388e+12 -4.17425e+12 -5.62347e+12 -7.55768e+12 -6.33459e+12 -5.93263e+12 -9.65628e+12 -7.91599e+12 -8.11223e+12 -5.71753e+12 -6.62911e+12 -9.46348e+12 -1.21281e+13 -5.53423e+12 -8.21671e+12 -7.62841e+12 -6.66637e+12 -1.228e+13 -9.29676e+12 -6.09002e+12 -5.90488e+12 -6.95704e+12 -4.83209e+12 -4.20362e+12 -2.91318e+12 -3.35639e+12 -7.08382e+12 -5.88362e+12 -1.00125e+13 -7.08032e+12 -4.75864e+12 -5.32238e+12 -5.87591e+12 -8.65314e+12 -6.38114e+12 -4.85601e+12 -9.21574e+12 -6.35422e+12 -1.03853e+13 -8.8673e+12 -4.26155e+12 -7.18353e+12 -5.7141e+12 -5.79811e+12 -4.9773e+12 -4.30776e+12 -7.3384e+12 -4.82204e+12 -7.74853e+12 -3.06073e+12 -6.14735e+12 -6.23045e+12 -4.98607e+12 -7.03026e+12 -7.46491e+12 -2.94289e+12 -3.02651e+12 -2.2029e+12 -5.83146e+12 -2.94205e+12 -4.41069e+12 -6.78364e+12 -1.03534e+13 -6.87115e+12 -7.1091e+12 -6.09989e+12 -5.2983e+12 -6.15333e+12 -7.73484e+12 -2.44294e+12 -2.92357e+12 -5.07474e+12 -4.99724e+12 -4.43828e+12 -3.93022e+12 -3.10124e+12 -3.02506e+12 -5.42195e+12 -2.82236e+12 -4.74784e+12 -6.51957e+12 -2.17499e+12 -4.61114e+12 -3.57343e+12 -3.61344e+12 -4.78835e+12 -2.98251e+12 -5.79711e+12 -2.72139e+12 -3.88161e+12 -3.51866e+12 -4.8426e+12 -2.37574e+12 -2.96879e+12 -4.17637e+12 -4.04661e+12 -5.25415e+12 -3.37285e+12 -4.67164e+12 -3.33322e+12 -3.89226e+12 -5.03352e+12 -2.37072e+12 -5.3566e+12 -4.65168e+12 -5.55675e+12 -4.71126e+12 -4.17263e+12 -1.53332e+12 -3.64534e+12 -2.29607e+12 -2.65297e+12 -3.56176e+12 -4.91725e+12 -5.44548e+12 -3.37757e+12 -4.44773e+12 -3.95795e+12 -3.00499e+12 -2.74945e+12 -5.14299e+12 -5.11609e+12 -3.327e+12 -7.0795e+12 -6.20643e+12 -2.54934e+12 -3.92376e+12 -1.87446e+12 -3.19061e+12 -4.80258e+12 -5.46572e+12 -6.92174e+12 -5.73861e+12 -3.99426e+12 -6.7475e+12 -5.46023e+12 -4.0288e+12 -3.23084e+12 -7.99215e+12 -5.81321e+12 -4.93544e+12 -6.77859e+12 -7.15897e+12 -7.24872e+12 -2.8674e+12 -6.83821e+12 -5.49169e+12 -6.95192e+12 -5.50111e+12 -4.612e+12 -4.58734e+12 -6.08254e+12 -8.18396e+12 -6.44197e+12 -7.3379e+12 -6.35125e+12 -6.24155e+12 -827964000000.0 -6.41595e+12 -6.78692e+12 -8.14633e+12 -5.78515e+12 -6.37879e+12 -6.015e+12 -6.08835e+12 -4.4602e+12 -3.75919e+12 -7.22463e+12 -8.0768e+12 -6.176e+12 -8.01751e+12 -5.58258e+12 -6.46921e+12 -8.25194e+12 -1.02243e+13 -1.19068e+13 -2.78047e+12 -6.5402e+12 -2.58143e+12 -4.3461e+12 -6.86706e+12 -5.95989e+12 -2.08809e+12 -1.86671e+12 -4.73999e+12 -6.16588e+12 -3.64839e+12 -1.03432e+13 -4.05814e+12 -4.82959e+12 -4.08395e+12 -5.45932e+12 -4.84995e+12 -5.15872e+12 -8.19839e+12 -6.61565e+12 -7.23538e+12 -9.45603e+12 -6.45432e+12 -2.6567e+12 -6.88531e+12 -4.60611e+12 -4.17022e+12 -4.73447e+12 -5.28768e+12 -4.71688e+12 -6.44123e+12 -4.02311e+12 -4.03602e+12 -4.92253e+12 -6.8088e+12 -4.10976e+12 -6.10102e+12 -9.04084e+12 -3.8064e+12 -5.34575e+12 -6.05708e+12 -6.19871e+12 -4.3192e+12 -5.38615e+12 -5.99195e+12 -3.54821e+12 -4.37958e+12 -4.91688e+12 -5.40395e+12 -5.9137e+12 -4.9976e+12 -4.08827e+12 -6.15035e+12 -8.81425e+12 -5.94073e+12 -3.93329e+12 -5.35591e+12 -5.78639e+12 -5.36088e+12 -3.86434e+12 -4.26629e+12 -5.00851e+12 -5.32397e+12 -5.56388e+12 -5.4025e+12 -2.9091e+12 -4.83369e+12 -4.26091e+12 -2.71814e+12 -3.37459e+12 -5.05003e+12 -2.9149e+12 -2.02696e+12 -3.25663e+12 -3.59342e+12 -2.10589e+12 -4.45482e+12 -4.19669e+12 -2.55245e+12 -2.814e+12 -3.24102e+12 -2.38276e+12 -3.15831e+12 -3.28239e+12 -3.39138e+12 -3.06631e+12 -3.02215e+12 -4.42138e+12 -5.07879e+12 -3.81952e+12 -3.14234e+12 -4.44362e+12 -3.12724e+12 -2.51526e+12 -3.89631e+12 -3.24315e+12 -2.82702e+12 -1.71027e+12 -2.00626e+12 -3.71859e+12 -6.3672e+12 -5.05486e+12 -7.66679e+12 -4.53147e+12 -6.68086e+12 -6.37246e+12 -7.14941e+12 -5.14578e+12 -4.17001e+12 -6.09128e+12 -6.12333e+12 -5.06466e+12 -3.77209e+12 -6.3736e+12 -5.14967e+12 -4.19548e+12 -7.56916e+12 -5.21495e+12 -5.08828e+12 -3.84014e+12 -5.11329e+12 -5.86431e+12 -7.33602e+12 -6.59243e+12 -7.04827e+12 -9.2867e+12 -3.7157e+12 -5.33109e+12 -7.53368e+12 -3.02913e+12 -5.58052e+12 -5.34844e+12 -4.98489e+12 -5.74824e+12 -7.50679e+12 -7.03361e+12 -4.30677e+12 -5.9519e+12 -3.65465e+12 -4.75605e+12 -7.3928e+12 -3.16241e+12 -5.7712e+12 -4.96201e+12 -9.2744e+12 -4.39224e+12 -7.94137e+12 -7.02648e+12 -2.87749e+12 -5.48668e+12 -2.80577e+12 -2.93391e+12 -3.79305e+12 -6.46486e+12 -7.84158e+12 -4.86045e+12 -4.83818e+12 -5.75711e+12 -3.05488e+12 -6.14934e+12 -5.31091e+12 -6.51229e+12 -4.64109e+12 -4.89106e+12 -5.95529e+12 -6.90303e+12 -3.95949e+12 -4.17555e+12 -4.92008e+12 -4.6897e+12 -5.03188e+12 -5.8586e+12 -4.62602e+12 -5.60002e+12 -6.08639e+12 -4.94547e+12 -7.51447e+12 -4.4946e+12 -3.91094e+12 -4.00772e+12 -6.07053e+12 -6.49387e+12 -4.36128e+12 -4.71754e+12 -4.74727e+12 -3.14372e+12 -4.92373e+12 -6.79436e+12 -4.5741e+12 -4.41472e+12 -5.48983e+12 -7.13441e+12 -6.04919e+12 -4.26586e+12 -5.71069e+12 -4.59529e+12 -4.73893e+12 -5.99552e+12 -5.62566e+12 -6.40004e+12 -1.74394e+12 -1.93829e+12 -6.18306e+12 -6.97814e+12 -3.51718e+12 -4.42195e+12 -3.27151e+12 -2.34707e+12 -3.29503e+12 -5.31771e+12 -2.47839e+12 -2.54426e+12 -4.32096e+12 -3.4767e+12 -4.56658e+12 -1.74574e+12 -3.71739e+12 -4.12535e+12 -1.62044e+12 -2.24082e+12 -1.45542e+12 -3.61797e+12 -2.83011e+12 -3.09287e+12 -3.74266e+12 -2.86592e+12 -2.72688e+12 -2.7108e+12 -2.93045e+12 -2.91919e+12 -1.87527e+12 -1.64171e+12 -1.59046e+12 -3.38402e+12 -2.85895e+12 -3.46472e+12 -2.43093e+12 -3.39958e+12 -4.96371e+12 -3.79413e+12 -3.28508e+12 -3.59677e+12 -3.34365e+12 -4.18857e+12 -3.33951e+12 -2.05532e+12 -2.53249e+12 -3.1729e+12 -3.31662e+12 -4.97557e+12 -3.55042e+12 -4.67892e+12 -5.27752e+12 -1.5764e+12 -3.63734e+12 -3.81017e+12 -5.28889e+12 -3.28704e+12 -1.93759e+12 -3.48757e+12 -3.29304e+12 -5.96775e+12 -3.90289e+12 -4.17082e+12 -4.85632e+12 -5.01977e+12 -6.85104e+12 -6.9015e+12 -5.53205e+12 -3.05143e+12 -3.73479e+12 -4.93043e+12 -5.92069e+12 -6.34164e+12 -4.64158e+12 -6.6217e+12 -5.88241e+12 -5.94515e+12 -7.18711e+12 -7.71625e+12 -5.36942e+12 -7.00376e+12 -4.58748e+12 -5.59182e+12 -2.83277e+12 -6.95004e+12 -4.92626e+12 -6.08426e+12 -7.65759e+12 -6.14696e+12 -7.48197e+12 -3.76681e+12 -5.3081e+12 -6.49956e+12 -3.48463e+12 -4.79287e+12 -5.61658e+12 -4.30311e+12 -8.80114e+12 -5.09156e+12 -5.49383e+12 -6.62357e+12 -5.35848e+12 -7.13391e+12 -6.02414e+12 -5.76588e+12 -3.86536e+12 -7.54144e+12 -4.9995e+12 -9.17382e+12 -3.68535e+12 -4.93467e+12 -4.76022e+12 -2.59572e+12 -2.52218e+12 -6.40928e+12 -6.35401e+12 -7.56673e+12 -8.42308e+12 -6.73575e+12 -4.58227e+12 -4.06467e+12 -8.35641e+12 -4.2476e+12 -5.37983e+12 -4.20064e+12 -4.84191e+12 -3.42824e+12 -4.00482e+12 -4.46952e+12 -5.12034e+12 -3.25563e+12 -3.46262e+12 -1.91299e+12 -4.64616e+12 -1.94409e+12 -6.54713e+12 -3.85314e+12 -9.46344e+12 -4.85263e+12 -5.09365e+12 -5.09998e+12 -6.99916e+12 -4.9447e+12 -5.40503e+12 -5.57196e+12 -6.86376e+12 -3.65662e+12 -4.35627e+12 -4.48381e+12 -5.87919e+12 -3.611e+12 -2.21598e+12 -5.32576e+12 -4.61956e+12 -4.22345e+12 -4.59506e+12 -3.20309e+12 -5.40813e+12 -6.42161e+12 -4.27461e+12 -3.50338e+12 -2.95759e+12 -3.61983e+12 -2.37488e+12 -5.37529e+12 -2.75397e+12 -2.91025e+12 -2.52253e+12 -3.46519e+12 -2.28695e+12 -3.40077e+12 -1.92721e+12 -1.99293e+12 -2.46648e+12 -2.20795e+12 -2.16627e+12 -3.30399e+12 -3.25082e+12 -2.64281e+12 -2.70716e+12 -2.82469e+12 -2.902e+12 -2.83408e+12 -2.41995e+12 -3.91326e+12 -5.75376e+12 -3.24116e+12 -4.3576e+12 -3.56102e+12 -2.20187e+12 -3.04018e+12 -4.11308e+12 -3.20851e+12 -3.19659e+12 -3.69753e+12 -4.58538e+12 -2.69869e+12 -2.94049e+12 -1.98716e+12 -2.74201e+12 -2.48699e+12 -6.53087e+12 -4.09207e+12 -4.03423e+12 -1.4067e+12 -3.47469e+12 -3.0529e+12 -4.88727e+12 -3.01681e+12 -4.75743e+12 -3.63516e+12 -7.01917e+12 -5.29882e+12 -2.21928e+12 -4.05327e+12 -3.34051e+12 -7.36276e+12 -6.0738e+12 -2.58354e+12 -6.28211e+12 -6.19244e+12 -2.55954e+12 -4.96117e+12 -4.02271e+12 -5.16101e+12 -4.12231e+12 -5.28342e+12 -5.54794e+12 -4.73029e+12 -4.33587e+12 -2.19794e+12 -4.02095e+12 -2.81951e+12 -3.95316e+12 -5.35712e+12 -7.9005e+12 -4.9083e+12 -4.89794e+12 -6.84066e+12 -6.30015e+12 -3.61157e+12 -2.79487e+12 -3.90513e+12 -6.9371e+12 -5.36339e+12 -8.26879e+12 -4.81577e+12 -5.1675e+12 -5.75558e+12 -4.55191e+12 -4.29461e+12 -7.84478e+12 -7.29599e+12 -4.91129e+12 -7.33057e+12 -6.75287e+12 -5.78261e+12 -2.64503e+12 -2.22944e+12 -4.74147e+12 -2.85544e+12 -6.35475e+12 -7.17346e+12 -4.07036e+12 -5.04697e+12 -6.05402e+12 -6.46822e+12 -4.08453e+12 -6.76394e+12 -5.05085e+12 -8.96714e+12 -5.05021e+12 -4.30726e+12 -2.98894e+12 -3.88468e+12 -5.16161e+12 -4.19512e+12 -5.37549e+12 -1.51718e+12 -4.20028e+12 -6.77935e+12 -3.24679e+12 -5.77571e+12 -5.07499e+12 -4.33931e+12 -2.01078e+12 -4.80821e+12 -5.33152e+12 -5.30047e+12 -5.41069e+12 -3.55734e+12 -4.07342e+12 -5.13884e+12 -3.29497e+12 -4.05556e+12 -3.45951e+12 -4.49752e+12 -4.53024e+12 -6.86434e+12 -5.47493e+12 -6.80397e+12 -6.93989e+12 -5.96386e+12 -6.36091e+12 -3.14422e+12 -1.16444e+12 -3.50995e+12 -2.897e+12 -3.71731e+12 -2.13378e+12 -5.97723e+12 -4.34269e+12 -4.32985e+12 -2.3062e+12 -3.2098e+12 -3.24126e+12 -4.15985e+12 -3.84082e+12 -1.87002e+12 -2.74696e+12 -2.81186e+12 -1.74967e+12 -2.52934e+12 -3.65329e+12 -1.72782e+12 -1.39388e+12 -2.28009e+12 -1.26953e+12 -1.97071e+12 -1.65334e+12 -2.12453e+12 -3.19496e+12 -2.03249e+12 -2.90196e+12 -1.34295e+12 -3.22015e+12 -3.06593e+12 -2.2717e+12 -2.9152e+12 -3.80283e+12 -5.496e+12 -2.46836e+12 -3.45953e+12 -1.53729e+12 -2.60765e+12 -2.51082e+12 -1.11302e+12 -2.14429e+12 -1.98244e+12 -834110000000.0 -3.93753e+12 -3.26748e+12 -3.94671e+12 -2.6446e+12 -2.78637e+12 -1.62612e+12 -2.74228e+12 -4.55101e+12 -2.81461e+12 -3.86888e+12 -3.1262e+12 -2.60645e+12 -2.84395e+12 -3.91807e+12 -2.47533e+12 -1.90296e+12 -4.4725e+12 -2.14377e+12 -4.96779e+12 -6.39826e+12 -2.47371e+12 -1.67537e+12 -2.20128e+12 -2.27675e+12 -2.48995e+12 -7.0609e+12 -6.57855e+12 -2.21253e+12 -3.51012e+12 -3.12807e+12 -4.42949e+12 -5.08844e+12 -4.77366e+12 -5.6516e+12 -1.30019e+12 -4.47841e+12 -4.36015e+12 -2.88298e+12 -4.75739e+12 -5.85179e+12 -8.33343e+12 -4.81896e+12 -4.98947e+12 -4.07534e+12 -4.414e+12 -5.35594e+12 -5.88768e+12 -3.7291e+12 -8.79413e+12 -5.75549e+12 -4.53385e+12 -4.36069e+12 -4.90741e+12 -6.13573e+12 -4.00868e+12 -6.07125e+12 -5.73972e+12 -8.19235e+12 -5.0537e+12 -6.64141e+12 -3.59052e+12 -4.40688e+12 -5.42366e+12 -3.56843e+12 -3.89167e+12 -4.88693e+12 -4.31399e+12 -4.61241e+12 -5.57993e+12 -6.04107e+12 -5.26923e+12 -3.65735e+12 -7.21959e+12 -3.28766e+12 -5.07182e+12 -5.5023e+12 -2.09061e+12 -4.49474e+12 -1.11528e+12 -4.90633e+12 -4.72687e+12 -3.66144e+12 -4.87911e+12 -4.8791e+12 -3.32933e+12 -5.20138e+12 -4.11699e+12 -2.69955e+12 -3.61493e+12 -4.06135e+12 -5.18573e+12 -3.40849e+12 -3.11199e+12 -5.86493e+12 -4.47832e+12 -5.58276e+12 -3.33945e+12 -4.75158e+12 -2.77264e+12 -1.96608e+12 -3.85326e+12 -3.39642e+12 -4.55513e+12 -4.23709e+12 -2.54847e+12 -2.97385e+12 -2.59606e+12 -4.971e+12 -4.18432e+12 -1.57712e+12 -4.37992e+12 -2.63317e+12 -2.23374e+12 -2.80697e+12 -3.40909e+12 -3.16936e+12 -2.70196e+12 -2.93691e+12 -2.59399e+12 -3.43403e+12 -1.59816e+12 -1.56846e+12 -2.1719e+12 -1.62485e+12 -3.35132e+12 -1.57791e+12 -808083000000.0 -2.45908e+12 -1.53864e+12 -1.40167e+12 -1.3939e+12 -1.11753e+12 -3.09655e+12 -2.19326e+12 -2.469e+12 -1.29313e+12 -2.2456e+12 -1.13562e+12 -2.1419e+12 -2.28087e+12 -2.00634e+12 -2.9401e+12 -2.16949e+12 -4.30164e+12 -3.26631e+12 -2.75548e+12 -2.57929e+12 -2.55445e+12 -2.26153e+12 -3.77465e+12 -2.05017e+12 -3.273e+12 -3.01674e+12 -2.98573e+12 -2.3541e+12 -3.14737e+12 -3.22006e+12 -2.25882e+12 -3.92761e+12 -2.3094e+12 -4.11119e+12 -5.33579e+12 -3.11457e+12 -1.89044e+12 -2.94693e+12 -2.85908e+12 -2.40246e+12 -3.12672e+12 -4.66297e+12 -3.08018e+12 -3.31103e+12 -3.74027e+12 -1.67605e+12 -5.83526e+12 -5.79711e+12 -4.80953e+12 -3.02319e+12 -4.56097e+12 -1.80227e+12 -2.46296e+12 -4.12518e+12 -4.53192e+12 -6.79368e+12 -2.71101e+12 -6.89235e+12 -4.46138e+12 -4.59867e+12 -4.7992e+12 -6.89035e+12 -3.16222e+12 -2.78447e+12 -3.29042e+12 -3.38099e+12 -4.51747e+12 -3.45848e+12 -4.67685e+12 -5.03282e+12 -4.92806e+12 -3.65269e+12 -3.51669e+12 -7.81788e+12 -5.13646e+12 -5.73813e+12 -6.1953e+12 -4.42619e+12 -3.67754e+12 -3.66994e+12 -3.10566e+12 -1.58932e+12 -5.87825e+12 -3.29204e+12 -4.25615e+12 -6.73562e+12 -3.43478e+12 -3.93063e+12 -3.89098e+12 -4.43889e+12 -4.27752e+12 -5.67751e+12 -3.83622e+12 -2.54079e+12 -4.0084e+12 -3.88261e+12 -9.17655e+12 -2.97828e+12 -2.64688e+12 -3.22219e+12 -2.4021e+12 -3.86661e+12 -1.64044e+12 -3.70885e+12 -5.91809e+12 -3.96175e+12 -3.35457e+12 -5.10421e+12 -2.26921e+12 -2.61562e+12 -2.44663e+12 -5.83802e+12 -5.31471e+12 -2.55015e+12 -3.00268e+12 -3.51884e+12 -5.11025e+12 -3.5661e+12 -3.15434e+12 -2.9517e+12 -2.5511e+12 -2.26193e+12 -1.72579e+12 -2.87598e+12 -1.97577e+12 -3.31489e+12 -3.64696e+12 -2.22361e+12 -2.51019e+12 -3.57612e+12 -3.34702e+12 -1.98753e+12 -1.2423e+12 -3.09316e+12 -3.10622e+12 -1.23987e+12 -1.69181e+12 -2.73282e+12 -2.52834e+12 -1.59206e+12 -3.279e+12 -2.0021e+12 -969987000000.0 -2.10971e+12 -2.55469e+12 -2.02133e+12 -2.31413e+12 -1.55934e+12 -2.31893e+12 -2.16292e+12 -1.09969e+12 -1.92923e+12 -2.59768e+12 -1.75507e+12 -1.5631e+12 -2.18905e+12 -2.86475e+12 -3.17928e+12 -1.76578e+12 -1.9045e+12 -1.79626e+12 -2.62463e+12 -2.52464e+12 -4.41148e+12 -3.0626e+12 -5.32096e+12 -3.04976e+12 -1.76227e+12 -2.29689e+12 -3.8297e+12 -3.05507e+12 -2.80698e+12 -2.41884e+12 -4.30373e+12 -3.71008e+12 -3.92884e+12 -1.19585e+12 -1.88597e+12 -3.72832e+12 -4.04566e+12 -5.14548e+12 -5.70623e+12 -1.9695e+12 -3.55273e+12 -2.40982e+12 -2.01522e+12 -4.83205e+12 -4.44488e+12 -5.37386e+12 -5.43299e+12 -5.57866e+12 -3.9125e+12 -3.48157e+12 -4.6548e+12 -3.36521e+12 -3.30998e+12 -4.03216e+12 -4.18516e+12 -5.01426e+12 -2.97612e+12 -4.79643e+12 -5.94738e+12 -2.99442e+12 -2.92586e+12 -5.16428e+12 -3.44545e+12 -2.60896e+12 -7.31192e+12 -3.84923e+12 -5.21722e+12 -3.62829e+12 -4.39912e+12 -3.32876e+12 -8.495e+12 -1.72576e+12 -4.47644e+12 -2.68072e+12 -4.95773e+12 -7.18106e+12 -3.48358e+12 -653634000000.0 -5.06879e+12 -3.47361e+12 -3.17107e+12 -5.12507e+12 -4.3488e+12 -2.88676e+12 -3.96476e+12 -3.52108e+12 -1.85182e+12 -3.32726e+12 -3.89873e+12 -3.03143e+12 -4.24398e+12 -2.90863e+12 -3.30224e+12 -2.65332e+12 -3.64799e+12 -1.29464e+12 -2.09881e+12 -4.49058e+12 -2.32e+12 -1.12139e+12 -1.1936e+12 -2.43565e+12 -2.59434e+12 -1.77072e+12 -2.84435e+12 -1.75129e+12 -2.01215e+12 -1.76737e+12 -2.24732e+12 -987452000000.0 -2.15866e+12 -1.59948e+12 -610217000000.0 -2.67578e+12 -2.16065e+12 -1.22818e+12 -2.91494e+12 -1.31371e+12 -2.84672e+12 -1.89751e+12 -2.68046e+12 -1.65884e+12 -1.55071e+12 -2.34164e+12 -1.23264e+12 -2.53935e+12 -2.41921e+12 -1.46717e+12 -1.54089e+12 -1.52266e+12 -2.59376e+12 -955169000000.0 -2.20399e+12 -2.59326e+12 -679366000000.0 -778946000000.0 -1.17165e+12 -2.12146e+12 -1.89911e+12 -1.71234e+12 -1.82594e+12 -812632000000.0 -2.70141e+12 -2.80666e+12 -1.665e+12 -2.33081e+12 -2.06896e+12 -3.0373e+12 -3.70104e+12 -2.60028e+12 -3.76688e+12 -4.0075e+12 -4.82767e+12 -3.34608e+12 -1.07873e+12 -1.80947e+12 -1.91635e+12 -2.32156e+12 -1.93147e+12 -2.5264e+12 -3.51174e+12 -4.33712e+12 -1.78588e+12 -2.18334e+12 -4.29995e+12 -2.99642e+12 -835051000000.0 -3.44954e+12 -4.23395e+12 -2.71457e+12 -1.79818e+12 -5.4563e+12 -1.93593e+12 -3.06615e+12 -5.53692e+12 -3.97928e+12 -3.8875e+12 -1.75028e+12 -2.74611e+12 -3.49163e+12 -4.61691e+12 -3.35074e+12 -4.21689e+12 -6.56732e+12 -4.56637e+12 -4.21018e+12 -3.88848e+12 -2.29619e+12 -4.80731e+12 -2.21806e+12 -2.93664e+12 -1.60877e+12 -1.97466e+12 -4.22291e+12 -3.93328e+12 -3.98526e+12 -4.05649e+12 -3.97967e+12 -3.41431e+12 -2.83258e+12 -2.77517e+12 -5.50961e+12 -4.81452e+12 -5.63265e+12 -3.25586e+12 -3.63366e+12 -4.52692e+12 -3.06506e+12 -2.88864e+12 -3.82439e+12 -2.38527e+12 -1.86121e+12 -1.65857e+12 -4.34275e+12 -3.92222e+12 -2.86896e+12 -1.52341e+12 -2.89865e+12 -3.65758e+12 -2.88573e+12 -1.15213e+12 -3.39951e+12 -2.12033e+12 -1.49567e+12 -2.05169e+12 -1.8333e+12 -1.25265e+12 -2.73512e+12 -2.95216e+12 -1.46632e+12 -1.82362e+12 -1.47903e+12 -3.1523e+12 -3.4558e+12 -2.12814e+12 -2.25096e+12 -1.23616e+12 -1.9526e+12 -1.88419e+12 -1.57306e+12 -1.25746e+12 -848714000000.0 -1.08724e+12 -2.27282e+12 -2.22966e+12 -1.33862e+12 -905533000000.0 -1.98566e+12 -984356000000.0 -2.07694e+12 -2.83847e+12 -1.19234e+12 -1.32757e+12 -2.4226e+12 -171294000000.0 -2.03041e+12 -2.7312e+12 -827890000000.0 -1.42542e+12 -1.49503e+12 -511902000000.0 -1.37962e+12 -856155000000.0 -904558000000.0 -1.84445e+12 -1.9993e+12 -2.30603e+12 -1.12524e+12 -1.23079e+12 -2.35089e+12 -1.63295e+12 -2.68467e+12 -1.94071e+12 -953355000000.0 -1.55883e+12 -2.91182e+12 -1.99658e+12 -2.65942e+12 -2.58866e+12 -732060000000.0 -2.52039e+12 -1.61603e+12 -4.19119e+12 -2.43809e+12 -2.63835e+12 -1.60988e+12 -2.56789e+12 -2.15416e+12 -1.23626e+12 -1.35989e+12 -1.90518e+12 -2.90674e+12 -2.12747e+12 -2.10406e+12 -1.83211e+12 -2.9113e+12 -3.27909e+12 -2.51444e+12 -1.54811e+12 -443300000000.0 -3.36271e+12 -2.65683e+12 -3.78941e+12 -2.86678e+12 -2.61969e+12 -3.78954e+12 -1.99293e+12 -1.16649e+12 -2.72258e+12 -1.91078e+12 -3.11221e+12 -689752000000.0 -3.82755e+12 -2.73908e+12 -2.71423e+12 -2.48532e+12 -5.28963e+12 -2.34523e+12 -4.34176e+12 -3.02561e+12 -3.42447e+12 -4.80328e+12 -1.23436e+12 -4.78638e+12 -3.57627e+12 -2.89919e+12 -3.18842e+12 -2.91969e+12 -4.48377e+12 -1.97101e+12 -1.38251e+12 -2.57263e+12 -2.72166e+12 -1.81246e+12 -3.05385e+12 -4.50188e+12 -2.59171e+12 -1.79691e+12 -4.47573e+12 -2.70155e+12 -2.4037e+12 -3.2291e+12 -2.66063e+12 -2.22938e+12 -1.0211e+12 -2.25697e+12 -2.6039e+12 -2.06251e+12 -2.42791e+12 -1.03571e+12 -3.02397e+12 -1.9695e+12 -1.80643e+12 -1.92026e+12 -1.84228e+12 -2.5474e+12 -1.32926e+12 -2.46967e+12 -1.42146e+12 -2.20333e+12 -2.1214e+12 -1.39295e+12 -2.03674e+12 -1.358e+12 -1.41551e+12 -1.33536e+12 -1.40801e+12 -1.34246e+12 -1.48273e+12 -1.68519e+12 -542493000000.0 -1.02627e+12 -1.67212e+12 -993492000000.0 -945965000000.0 -1.06406e+12 -693101000000.0 -1.16112e+12 -1.09634e+12 -1.45527e+12 -216088000000.0 -396545000000.0 -1.68928e+12 -200265000000.0 -928562000000.0 -820678000000.0 -874810000000.0 -543107000000.0 -957319000000.0 -829900000000.0 -1.29711e+12 -314636000000.0 -414777000000.0 -822563000000.0 -843898000000.0 -435976000000.0 -1.38732e+12 -666474000000.0 -1.08684e+12 -883572000000.0 -708183000000.0 -1.13912e+12 -1.15001e+12 -1.42118e+12 -990036000000.0 -1.43088e+12 -2.8362e+12 -2.31718e+12 -2.83128e+12 -1.47711e+12 -2.67547e+12 -1.92669e+12 -1.09504e+12 -1.22565e+12 -1.92753e+12 -1.54471e+12 -1.25055e+12 -1.73737e+12 -1.88183e+12 -3.10819e+12 -3.42279e+12 -4.16445e+12 -2.03467e+12 -994723000000.0 -1.21693e+12 -3.26029e+12 -1.74118e+12 -2.07019e+12 -1.94163e+12 -1.59416e+12 -1.46274e+12 -3.29315e+12 -2.84642e+12 -1.62716e+12 -3.74691e+12 -2.62675e+12 -1.18796e+12 -2.8046e+12 -1.9287e+12 -2.6914e+12 -2.65536e+12 -1.44415e+12 -1.90768e+12 -3.56896e+12 -1.34801e+12 -4.418e+12 -1.41571e+12 -1.45265e+12 -2.69603e+12 -1.62674e+12 -1.41809e+12 -5.41968e+12 -2.04933e+12 -1.95304e+12 -1.43986e+12 -1.82949e+12 -1.7267e+12 -2.19795e+12 -1.59416e+12 -2.13796e+12 -2.06874e+12 -797536000000.0 -3.96824e+12 -1.10122e+12 -3.39712e+12 -2.09452e+12 -1.69162e+12 -1.81781e+12 -2.46182e+12 -2.37972e+12 -2.35226e+12 -2.31231e+12 -3.40339e+12 -840776000000.0 -2.09635e+12 -985414000000.0 -1.13285e+12 -2.51437e+12 -2.04414e+12 -2.80887e+12 -1.48817e+12 -1.54238e+12 -2.19691e+12 -2.80476e+12 -1.05108e+12 -303877000000.0 -1.68277e+12 -1.09438e+12 -1.72701e+12 -1.91313e+12 -1.72187e+12 -354279000000.0 -980220000000.0 -1.81089e+12 -800973000000.0 -1.05182e+12 -511979000000.0 -542134000000.0 -784132000000.0 -575111000000.0 -493958000000.0 -477280000000.0 -611446000000.0 -723252000000.0 -366744000000.0 -409284000000.0 -711113000000.0 -944648000000.0 -1.01513e+12 -850680000000.0 -616410000000.0 -818693000000.0 -731557000000.0 -166576000000.0 -655869000000.0 -1.4918e+12 -275360000000.0 -814438000000.0 -1.04465e+12 -660484000000.0 -825799000000.0 -1.79965e+12 -346285000000.0 -626597000000.0 -907704000000.0 -702696000000.0 -734020000000.0 -596092000000.0 -869595000000.0 -1.14191e+12 -1.23826e+12 -1.46568e+12 -2.38199e+12 -977854000000.0 -1.31952e+12 -1.23396e+12 -377131000000.0 -957102000000.0 -943769000000.0 -1.35596e+12 -1.16554e+12 -1.51262e+12 -1.09405e+12 -1.6268e+12 -1.44751e+12 -1.61838e+12 -3.06382e+12 -2.6351e+12 -2.70884e+12 -2.01821e+12 -1.87701e+12 -2.67567e+12 -1.07306e+12 -1.47626e+12 -1.10152e+12 -2.57079e+12 -2.86231e+12 -2.19825e+12 -2.60655e+12 -4.405e+12 -2.3594e+12 -1.72129e+12 -710615000000.0 -2.27324e+12 -2.33322e+12 -832732000000.0 -2.21783e+12 -1.70195e+12 -2.66227e+12 -1.87449e+12 -2.79483e+12 -795047000000.0 -1.74947e+12 -1.38264e+12 -1.27089e+12 -487332000000.0 -2.99062e+12 -425593000000.0 -788938000000.0 -985757000000.0 -1.99044e+12 -1.12964e+12 -705493000000.0 -1.81108e+12 -923081000000.0 -1.79749e+12 -1.3405e+12 -1.46217e+12 -1.22453e+12 -540390000000.0 -1.19914e+12 -1.37378e+12 -654359000000.0 -1.7161e+12 -1.28986e+12 -790057000000.0 -384948000000.0 -1.45253e+12 -279227000000.0 -746644000000.0 -1.12891e+12 -1.92055e+12 -1.93103e+12 -1.98195e+12 -464355000000.0 -1.05712e+12 -1.05834e+12 -331875000000.0 -424785000000.0 -990196000000.0 -480510000000.0 -523467000000.0 -663770000000.0 -210690000000.0 -254160000000.0 -1.0779e+12 -325231000000.0 -912727000000.0 -555381000000.0 -94089700000.0 -344164000000.0 -150616000000.0 -94420900000.0 -181515000000.0 -154938000000.0 -215133000000.0 -121551000000.0 -211675000000.0 -157488000000.0 -174922000000.0 -532679000000.0 -438573000000.0 -341855000000.0 -302969000000.0 -289253000000.0 -379340000000.0 -240117000000.0 -540901000000.0 -735050000000.0 -503053000000.0 -677523000000.0 -617785000000.0 -423631000000.0 -1.01419e+12 -750776000000.0 -697634000000.0 -737664000000.0 -726451000000.0 -1.46876e+12 -1.40901e+12 -1.74334e+12 -1.30156e+12 -1.27444e+12 -892771000000.0 -964821000000.0 -1.02082e+12 -902821000000.0 -899878000000.0 -1.66935e+12 -1.5287e+12 -731668000000.0 -2.82462e+12 -1.1928e+12 -1.3744e+12 -1.81473e+12 -1.24549e+12 -1.00768e+12 -1.12147e+12 -2.03275e+12 -2.30746e+12 -1.36019e+12 -2.71707e+12 -1.87387e+12 -1.24202e+12 -2.19014e+12 -1.93238e+12 -1.60048e+12 -1.83437e+12 -1.85648e+12 -1.74664e+12 -1.4776e+12 -1.3838e+12 -2.47963e+12 -410900000000.0 -1.00299e+12 -1.48717e+12 -628147000000.0 -935166000000.0 -647350000000.0 -2.6474e+12 -1.77461e+12 -1.18268e+12 -1.18675e+12 -343941000000.0 -870633000000.0 -1.64245e+12 -619967000000.0 -1.29626e+12 -672501000000.0 -1.45528e+12 -545799000000.0 -893342000000.0 -513464000000.0 -837232000000.0 -752547000000.0 -752481000000.0 -613718000000.0 -509469000000.0 -742468000000.0 -338608000000.0 -514388000000.0 -284490000000.0 -745443000000.0 -441202000000.0 -169965000000.0 -330110000000.0 -441028000000.0 -744529000000.0 -210647000000.0 -404725000000.0 -257370000000.0 -185549000000.0 -365668000000.0 -190475000000.0 -169324000000.0 -245540000000.0 -119026000000.0 -285796000000.0 -219225000000.0 -71819400000.0 -72947100000.0 -514625000000.0 -379430000000.0 -336281000000.0 -426248000000.0 -406572000000.0 -247783000000.0 -975692000000.0 -331674000000.0 -815719000000.0 -468674000000.0 -639022000000.0 -235199000000.0 -782683000000.0 -1.39822e+12 -867159000000.0 -1.59117e+12 -556439000000.0 -1.34801e+12 -260265000000.0 -886965000000.0 -1.32954e+12 -1.15699e+12 -1.01453e+12 -1.32126e+12 -1.26212e+12 -1.09657e+12 -1.51284e+12 -1.83691e+12 -1.62932e+12 -1.57977e+12 -2.36336e+12 -585357000000.0 -1.63841e+12 -1.59943e+12 -1.35884e+12 -1.29954e+12 -1.02879e+12 -1.94568e+12 -708174000000.0 -765009000000.0 -663133000000.0 -614915000000.0 -1.41891e+12 -1.14229e+12 -1.25362e+12 -663867000000.0 -1.27677e+12 -756789000000.0 -745942000000.0 -842046000000.0 -244017000000.0 -570940000000.0 -843498000000.0 -738284000000.0 -822730000000.0 -805960000000.0 -191196000000.0 -370306000000.0 -480958000000.0 -362595000000.0 -858183000000.0 -339551000000.0 -326962000000.0 -249407000000.0 -109045000000.0 -153142000000.0 -104681000000.0 -137852000000.0 -121545000000.0 -109911000000.0 -476548000000.0 -104198000000.0 -184561000000.0 -186329000000.0 -250123000000.0 -111116000000.0 -83213800000.0 -158613000000.0 -101657000000.0 -113875000000.0 -96351200000.0 -125203000000.0 -118451000000.0 -252109000000.0 -411427000000.0 -534763000000.0 -151281000000.0 -733193000000.0 -138764000000.0 -310994000000.0 -601622000000.0 -642365000000.0 -589866000000.0 -503603000000.0 -571232000000.0 -177578000000.0 -906358000000.0 -539344000000.0 -268189000000.0 -1.08708e+12 -688200000000.0 -610681000000.0 -757474000000.0 -941505000000.0 -846486000000.0 -566452000000.0 -464601000000.0 -731906000000.0 -621283000000.0 -374133000000.0 -225627000000.0 -171229000000.0 -412628000000.0 -69264200000.0 -360730000000.0 -363423000000.0 -210844000000.0 -224766000000.0 -171393000000.0 -64001300000.0 -474035000000.0 -163778000000.0 -201435000000.0 -162600000000.0 -228390000000.0 -51200600000.0 -236990000000.0 -244332000000.0 -222334000000.0 -190790000000.0 -192905000000.0 -342065000000.0 -343576000000.0 -189180000000.0 -179282000000.0 -119878000000.0 -326496000000.0 -140321000000.0 -303323000000.0 -258917000000.0 -221937000000.0 -93001800000.0 -138072000000.0 -98345400000.0 -136569000000.0 