# vtk DataFile Version 2.0
Time step 97
ASCII
DATASET UNSTRUCTURED_GRID
POINTS 4650 float
294633.0 273580.0 0
208878.0 274570.0 0
215500.0 274208.0 0
219222.0 275613.0 0
236896.0 276030.0 0
243849.0 275787.0 0
247266.0 273713.0 0
250781.0 275618.0 0
257729.0 275516.0 0
275516.0 276241.0 0
284399.0 275607.0 0
291203.0 275595.0 0
298003.0 275694.0 0
201998.0 278559.0 0
205430.0 276561.0 0
208879.0 278569.0 0
212312.0 276584.0 0
215755.0 278559.0 0
222996.0 276884.0 0
226593.0 278591.0 0
233517.0 278168.0 0
240443.0 277877.0 0
247365.0 277692.0 0
254282.0 277541.0 0
261208.0 277483.0 0
265095.0 276569.0 0
271756.0 278518.0 0
280971.0 277625.0 0
287816.0 277644.0 0
294594.0 277677.0 0
205440.0 280550.0 0
212334.0 280571.0 0
219568.0 279571.0 0
223297.0 280852.0 0
230166.0 280343.0 0
237066.0 280004.0 0
243964.0 279765.0 0
250864.0 279599.0 0
257757.0 279497.0 0
261205.0 281461.0 0
266842.0 280152.0 0
277571.0 279655.0 0
284416.0 279627.0 0
291214.0 279671.0 0
298005.0 279690.0 0
201997.0 282535.0 0
208887.0 282543.0 0
215803.0 282552.0 0
219672.0 283522.0 0
226848.0 282562.0 0
233714.0 282145.0 0
237247.0 283971.0 0
240592.0 281856.0 0
244092.0 283734.0 0
247465.0 281662.0 0
250939.0 283571.0 0
254336.0 281525.0 0
257782.0 283476.0 0
264609.0 283445.0 0
270249.0 282213.0 0
274178.0 281689.0 0
277699.0 283625.0 0
281042.0 281620.0 0
284468.0 283623.0 0
287832.0 281643.0 0
291236.0 283657.0 0
294616.0 281675.0 0
298006.0 283681.0 0
201996.0 286496.0 0
205433.0 284514.0 0
208860.0 286492.0 0
212339.0 284534.0 0
215788.0 286529.0 0
223444.0 284812.0 0
227048.0 286508.0 0
230386.0 284316.0 0
233932.0 286102.0 0
240748.0 285823.0 0
247566.0 285628.0 0
254385.0 285500.0 0
261195.0 285447.0 0
267970.0 285446.0 0
274401.0 285634.0 0
281127.0 285613.0 0
287872.0 285633.0 0
294628.0 285661.0 0
205411.0 288465.0 0
212261.0 288477.0 0
219664.0 287451.0 0
223423.0 288755.0 0
230646.0 288245.0 0
237436.0 287931.0 0
244219.0 287697.0 0
251012.0 287537.0 0
257803.0 287452.0 0
264571.0 287442.0 0
271166.0 287641.0 0
277815.0 287613.0 0
284527.0 287614.0 0
291262.0 287640.0 0
298007.0 287662.0 0
201994.0 290450.0 0
208796.0 290440.0 0
215630.0 290477.0 0
219451.0 291352.0 0
227428.0 290408.0 0
234159.0 290054.0 0
237620.0 291892.0 0
240903.0 289785.0 0
244341.0 291656.0 0
247664.0 289588.0 0
251083.0 291496.0 0
254432.0 289467.0 0
257824.0 291422.0 0
261188.0 289431.0 0
264520.0 291467.0 0
267852.0 289551.0 0
271204.0 291587.0 0
274525.0 289619.0 0
277890.0 291596.0 0
281202.0 289603.0 0
284576.0 291598.0 0
287911.0 289617.0 0
291285.0 291615.0 0
294640.0 289639.0 0
298008.0 291633.0 0
201992.0 294400.0 0
205380.0 292418.0 0
208731.0 294402.0 0
212139.0 292417.0 0
215434.0 294382.0 0
224288.0 292570.0 0
227765.0 294359.0 0
230933.0 292197.0 0
234379.0 294020.0 0
241048.0 293744.0 0
247755.0 293541.0 0
254478.0 293425.0 0
261183.0 293412.0 0
267870.0 293507.0 0
274568.0 293575.0 0
281252.0 293581.0 0
287943.0 293592.0 0
294650.0 293607.0 0
205353.0 296374.0 0
212043.0 296386.0 0
218262.0 296845.0 0
221255.0 294750.0 0
224659.0 296535.0 0
231183.0 296170.0 0
237789.0 295856.0 0
244452.0 295607.0 0
251149.0 295444.0 0
257850.0 295381.0 0
264539.0 295426.0 0
271234.0 295521.0 0
277927.0 295557.0 0
284610.0 295569.0 0
291302.0 295581.0 0
298009.0 295593.0 0
201990.0 298345.0 0
208677.0 298379.0 0
215089.0 298696.0 0
221568.0 298696.0 0
228029.0 298340.0 0
234568.0 297992.0 0
241176.0 297700.0 0
244547.0 299549.0 0
247837.0 297483.0 0
251209.0 299376.0 0
254525.0 297369.0 0
257888.0 299317.0 0
261211.0 297362.0 0
264570.0 299359.0 0
267900.0 297442.0 0
271261.0 299446.0 0
274596.0 297514.0 0
277949.0 299501.0 0
281280.0 297541.0 0
284627.0 299524.0 0
287962.0 297554.0 0
291312.0 299532.0 0
294657.0 297563.0 0
298010.0 299539.0 0
201988.0 302282.0 0
205321.0 300326.0 0
211863.0 300532.0 0
218385.0 300728.0 0
224893.0 300511.0 0
228215.0 302319.0 0
231381.0 300150.0 0
234720.0 301961.0 0
237933.0 299819.0 0
241282.0 301647.0 0
247907.0 301409.0 0
254570.0 301291.0 0
261244.0 301286.0 0
267927.0 301360.0 0
274615.0 301441.0 0
281293.0 301485.0 0
287971.0 301500.0 0
294661.0 301503.0 0
205296.0 304277.0 0
208589.0 302375.0 0
211894.0 304460.0 0
215154.0 302615.0 0
218501.0 304615.0 0
221719.0 302620.0 0
225045.0 304471.0 0
231533.0 304121.0 0
238047.0 303774.0 0
244622.0 303475.0 0
251260.0 303286.0 0
257923.0 303228.0 0
264597.0 303270.0 0
271279.0 303360.0 0
277959.0 303431.0 0
284633.0 303462.0 0
291315.0 303467.0 0
298010.0 303467.0 0
201987.0 306201.0 0
208613.0 306307.0 0
215249.0 306503.0 0
221857.0 306544.0 0
228358.0 306284.0 0
234841.0 305922.0 0
241362.0 305584.0 0
244674.0 307378.0 0
247960.0 305311.0 0
251297.0 307170.0 0
254606.0 305188.0 0
257944.0 307114.0 0
261269.0 305185.0 0
264608.0 307159.0 0
267944.0 305262.0 0
271284.0 307259.0 0
274623.0 305356.0 0
277957.0 307348.0 0
281295.0 305414.0 0
284628.0 307386.0 0
287971.0 305429.0 0
291312.0 307384.0 0
294661.0 305426.0 0
298011.0 307377.0 0
201987.0 310079.0 0
205312.0 308184.0 0
211967.0 308345.0 0
218634.0 308503.0 0
225198.0 308435.0 0
231662.0 308081.0 0
234938.0 309878.0 0
238134.0 307722.0 0
241414.0 309509.0 0
247995.0 309184.0 0
254626.0 309060.0 0
261272.0 309061.0 0
267940.0 309144.0 0
274616.0 309258.0 0
281286.0 309330.0 0
287963.0 309341.0 0
294658.0 309327.0 0
205337.0 312040.0 0
208663.0 310184.0 0
212045.0 312191.0 0
215355.0 310365.0 0
218763.0 312367.0 0
222034.0 310473.0 0
225450.0 312435.0 0
228514.0 310245.0 0
231780.0 312045.0 0
238194.0 311667.0 0
244701.0 311249.0 0
251317.0 311026.0 0
257941.0 310977.0 0
264591.0 311025.0 0
271267.0 311141.0 0
277941.0 311253.0 0
284615.0 311293.0 0
291304.0 311279.0 0
298011.0 311264.0 0
201988.0 313911.0 0
208712.0 314013.0 0
215449.0 314196.0 0
222179.0 314360.0 0
228857.0 314450.0 0
235014.0 313838.0 0
241437.0 313429.0 0
244707.0 315063.0 0
248013.0 313019.0 0
251320.0 314856.0 0
254622.0 312910.0 0
257898.0 314823.0 0
261240.0 312915.0 0
264527.0 314866.0 0
267904.0 313003.0 0
271215.0 315000.0 0
274588.0 313145.0 0
277908.0 315143.0 0
281265.0 313232.0 0
284596.0 315185.0 0
287950.0 313234.0 0
291295.0 315152.0 0
294654.0 313205.0 0
298011.0 315127.0 0
201988.0 317700.0 0
205358.0 315847.0 0
208746.0 317799.0 0
212108.0 315998.0 0
215516.0 317995.0 0
218864.0 316203.0 0
225578.0 316372.0 0
232261.0 316464.0 0
238230.0 315615.0 0
241439.0 317358.0 0
248032.0 316809.0 0
254578.0 316750.0 0
261152.0 316749.0 0
267812.0 316830.0 0
274528.0 317012.0 0
281239.0 317118.0 0
287939.0 317108.0 0
294651.0 317058.0 0
205370.0 319613.0 0
212143.0 319769.0 0
218923.0 320014.0 0
222271.0 318229.0 0
225651.0 320297.0 0
228957.0 318395.0 0
232333.0 320396.0 0
235672.0 318456.0 0
239091.0 320436.0 0
244743.0 318760.0 0
251273.0 318681.0 0
257809.0 318661.0 0
264383.0 318677.0 0
271102.0 318824.0 0
277862.0 319011.0 0
284586.0 319060.0 0
291294.0 319002.0 0
298012.0 318965.0 0
201988.0 321449.0 0
208758.0 321547.0 0
215538.0 321763.0 0
222318.0 322075.0 0
229004.0 322333.0 0
235714.0 322372.0 0
244487.0 322326.0 0
247955.0 320593.0 0
251167.0 322488.0 0
254490.0 320582.0 0
257691.0 322494.0 0
261016.0 320578.0 0
264187.0 322498.0 0
267579.0 320605.0 0
270690.0 322544.0 0
274432.0 320841.0 0
277837.0 322840.0 0
281228.0 320984.0 0
284612.0 322921.0 0
287946.0 320963.0 0
291314.0 322829.0 0
294656.0 320885.0 0
298013.0 322783.0 0
201987.0 325165.0 0
205370.0 323342.0 0
208742.0 325266.0 0
212140.0 323509.0 0
215504.0 325503.0 0
218920.0 323791.0 0
222282.0 325871.0 0
225677.0 324235.0 0
232363.0 324319.0 0
237777.0 325606.0 0
241071.0 323786.0 0
247779.0 324310.0 0
254377.0 324400.0 0
260864.0 324416.0 0
267297.0 324428.0 0
273669.0 324482.0 0
281276.0 324827.0 0
288001.0 324808.0 0
294679.0 324691.0 0
205358.0 327045.0 0
212090.0 327226.0 0
218843.0 327533.0 0
225714.0 328203.0 0
229032.0 326269.0 0
234509.0 327492.0 0
241084.0 327681.0 0
244384.0 326017.0 0
247704.0 328050.0 0
251043.0 326259.0 0
254277.0 328204.0 0
257570.0 326326.0 0
260730.0 328266.0 0
263994.0 326349.0 0
267072.0 328299.0 0
270329.0 326375.0 0
273316.0 328307.0 0
276570.0 326331.0 0
279450.0 328058.0 0
284727.0 326778.0 0
291384.0 326642.0 0
298016.0 326587.0 0
201985.0 328851.0 0
205337.0 330726.0 0
208707.0 328969.0 0
212016.0 330945.0 0
215389.0 329222.0 0
222175.0 329594.0 0
231257.0 329422.0 0
237842.0 329504.0 0
244406.0 329792.0 0
250986.0 330036.0 0
257477.0 330157.0 0
263852.0 330222.0 0
270114.0 330253.0 0
276298.0 330160.0 0
282381.0 329639.0 0
288160.0 328663.0 0
291542.0 330458.0 0
294738.0 328489.0 0
298021.0 330396.0 0
201982.0 332511.0 0
208649.0 332659.0 0
215272.0 332982.0 0
218614.0 331229.0 0
221717.0 333176.0 0
228015.0 331382.0 0
231445.0 333344.0 0
234626.0 331392.0 0
237984.0 333379.0 0
241170.0 331543.0 0
244488.0 333599.0 0
247716.0 331826.0 0
254229.0 332011.0 0
260642.0 332123.0 0
266942.0 332188.0 0
273148.0 332172.0 0
279316.0 331889.0 0
282398.0 333456.0 0
285420.0 331118.0 0
288573.0 332629.0 0
294823.0 332308.0 0
201978.0 336157.0 0
205278.0 334389.0 0
211922.0 334655.0 0
218476.0 335048.0 0
225196.0 333904.0 0
228490.0 335563.0 0
234850.0 335278.0 0
241314.0 335395.0 0
247784.0 335626.0 0
250993.0 333830.0 0
254233.0 335826.0 0
257435.0 333991.0 0
260612.0 335978.0 0
263778.0 334100.0 0
266897.0 336076.0 0
270018.0 334141.0 0
273100.0 336045.0 0
276203.0 334004.0 0
279290.0 335706.0 0
285542.0 334936.0 0
291751.0 334345.0 0
294914.0 336162.0 0
298026.0 334222.0 0
205200.0 338083.0 0
208484.0 336322.0 0
211562.0 338270.0 0
215182.0 336750.0 0
218624.0 338829.0 0
221861.0 336788.0 0
225455.0 337834.0 0
231841.0 337306.0 0
238196.0 337252.0 0
244617.0 337423.0 0
251047.0 337639.0 0
257442.0 337824.0 0
263769.0 337969.0 0
270012.0 338029.0 0
276196.0 337855.0 0
282421.0 337217.0 0
285597.0 338685.0 0
288700.0 336485.0 0
291850.0 338189.0 0
298030.0 338065.0 0
201975.0 339786.0 0
208283.0 340069.0 0
214404.0 340229.0 0
222539.0 340363.0 0
228874.0 339463.0 0
232199.0 341237.0 0
235163.0 339195.0 0
238456.0 341141.0 0
241503.0 339251.0 0
244778.0 341262.0 0
247891.0 339443.0 0
254278.0 339646.0 0
260629.0 339824.0 0
266918.0 339954.0 0
273131.0 339929.0 0
279303.0 339537.0 0
282448.0 340927.0 0
288783.0 340264.0 0
294963.0 340007.0 0
201974.0 343354.0 0
205138.0 341846.0 0
208107.0 343949.0 0
211192.0 342073.0 0
217037.0 342059.0 0
220096.0 342994.0 0
223324.0 344213.0 0
226002.0 341727.0 0
229313.0 343394.0 0
235476.0 343110.0 0
241721.0 343119.0 0
248023.0 343274.0 0
251134.0 341458.0 0
254349.0 343468.0 0
257484.0 341652.0 0
260671.0 343657.0 0
263804.0 341824.0 0
266980.0 343815.0 0
270068.0 341914.0 0
273215.0 343830.0 0
276252.0 341735.0 0
279366.0 343425.0 0
285690.0 342364.0 0
291918.0 341997.0 0
294991.0 343837.0 0
298033.0 341904.0 0
205088.0 345701.0 0
210972.0 345978.0 0
214026.0 344041.0 0
217235.0 345578.0 0
220481.0 346705.0 0
226528.0 345679.0 0
232567.0 345172.0 0
238724.0 345036.0 0
244959.0 345114.0 0
251240.0 345285.0 0
257541.0 345475.0 0
263849.0 345655.0 0
270164.0 345793.0 0
276346.0 345651.0 0
282577.0 344513.0 0
285830.0 346000.0 0
288875.0 344004.0 0
291958.0 345795.0 0
298035.0 345729.0 0
201967.0 346753.0 0
207896.0 347961.0 0
214154.0 347698.0 0
223690.0 348043.0 0
229726.0 347336.0 0
232916.0 349101.0 0
235792.0 347028.0 0
238993.0 348937.0 0
241947.0 346997.0 0
245144.0 348978.0 0
248169.0 347117.0 0
251354.0 349120.0 0
254432.0 347293.0 0
260716.0 347477.0 0
267021.0 347644.0 0
273366.0 347758.0 0
279404.0 347400.0 0
282726.0 347929.0 0
288919.0 347751.0 0
294997.0 347652.0 0
201960.0 349909.0 0
205133.0 350298.0 0
211087.0 349737.0 0
214394.0 351310.0 0
217461.0 349123.0 0
220748.0 350395.0 0
223994.0 351828.0 0
226882.0 349567.0 0
230061.0 351237.0 0
236091.0 350943.0 0
242171.0 350882.0 0
248317.0 350969.0 0
254515.0 351123.0 0
257601.0 349296.0 0
260749.0 351294.0 0
263875.0 349471.0 0
267013.0 351459.0 0
270185.0 349622.0 0
273299.0 351620.0 0
276543.0 349781.0 0
282560.0 351249.0 0
285836.0 349646.0 0
288842.0 351485.0 0
291944.0 349578.0 0
294979.0 351435.0 0
298035.0 349533.0 0
201970.0 353146.0 0
205163.0 354193.0 0
208164.0 351910.0 0
211380.0 353465.0 0
217743.0 352711.0 0
221059.0 354083.0 0
227198.0 353409.0 0
233223.0 353005.0 0
239247.0 352839.0 0
245326.0 352850.0 0
251465.0 352965.0 0
257652.0 353122.0 0
263871.0 353288.0 0
270104.0 353457.0 0
276209.0 353794.0 0
279335.0 352217.0 0
285619.0 353246.0 0
291872.0 353311.0 0
298034.0 353306.0 0
201978.0 356565.0 0
208347.0 355681.0 0
214719.0 354917.0 0
218102.0 356313.0 0
224315.0 355593.0 0
227515.0 357230.0 0
230368.0 355107.0 0
233505.0 356892.0 0
236363.0 354846.0 0
239481.0 356738.0 0
242383.0 354773.0 0
245497.0 356730.0 0
248459.0 354831.0 0
251569.0 356818.0 0
254590.0 354960.0 0
257690.0 356956.0 0
260762.0 355118.0 0
266952.0 355288.0 0
273081.0 355533.0 0
279135.0 356087.0 0
282316.0 354752.0 0
288675.0 355151.0 0
291763.0 356961.0 0
294941.0 355167.0 0
298033.0 357046.0 0
205236.0 357945.0 0
208578.0 359311.0 0
211676.0 357095.0 0
215142.0 358472.0 0
221424.0 357775.0 0
224667.0 359360.0 0
230664.0 358965.0 0
236613.0 358741.0 0
242578.0 358665.0 0
248591.0 358702.0 0
254657.0 358808.0 0
260760.0 358954.0 0
263838.0 357118.0 0
266864.0 359140.0 0
269962.0 357326.0 0
272923.0 359418.0 0
276018.0 357695.0 0
282172.0 358381.0 0
285417.0 356839.0 0
288516.0 358790.0 0
294898.0 358837.0 0
201983.0 360124.0 0
205376.0 361591.0 0
212198.0 360576.0 0
215669.0 362036.0 0
218536.0 359933.0 0
221832.0 361486.0 0
227840.0 361053.0 0
233772.0 360774.0 0
239696.0 360635.0 0
245655.0 360615.0 0
251664.0 360681.0 0
257718.0 360802.0 0
263792.0 360964.0 0
269849.0 361194.0 0
275876.0 361543.0 0
278989.0 359887.0 0
285271.0 360461.0 0
291667.0 360520.0 0
294899.0 362454.0 0
298033.0 360763.0 0
302245.0 362608.0 0
201985.0 363733.0 0
209336.0 362655.0 0
212859.0 364099.0 0
219020.0 363588.0 0
225035.0 363146.0 0
228162.0 364893.0 0
230954.0 362827.0 0
234025.0 364661.0 0
236846.0 362636.0 0
239894.0 364535.0 0
242757.0 362560.0 0
245800.0 364506.0 0
248712.0 362580.0 0
251751.0 364553.0 0
254715.0 362667.0 0
257742.0 364658.0 0
260750.0 362803.0 0
263753.0 364816.0 0
266789.0 362995.0 0
272813.0 363279.0 0
278838.0 363663.0 0
282009.0 362041.0 0
285042.0 364069.0 0
288382.0 362443.0 0
291646.0 363920.0 0
298033.0 364501.0 0
203986.0 366596.0 0
206697.0 364736.0 0
210145.0 366170.0 0
216247.0 365651.0 0
219507.0 367296.0 0
222256.0 365232.0 0
225396.0 366962.0 0
231232.0 366704.0 0
237063.0 366536.0 0
242923.0 366459.0 0
248825.0 366464.0 0
254770.0 366534.0 0
260744.0 366658.0 0
266733.0 366846.0 0
269764.0 365048.0 0
272731.0 367118.0 0
275778.0 365379.0 0
281788.0 365734.0 0
287999.0 366071.0 0
291224.0 366998.0 0
294873.0 366044.0 0
201938.0 369063.0 0
207396.0 368210.0 0
210835.0 369692.0 0
213534.0 367689.0 0
216796.0 369330.0 0
222658.0 369020.0 0
228467.0 368756.0 0
234262.0 368558.0 0
240079.0 368439.0 0
245935.0 368401.0 0
251833.0 368433.0 0
257768.0 368522.0 0
263725.0 368669.0 0
269700.0 368888.0 0
275699.0 369196.0 0
278749.0 367479.0 0
281718.0 369570.0 0
284645.0 367710.0 0
290142.0 370110.0 0
293703.0 369218.0 0
298018.0 368280.0 0
201973.0 372828.0 0
204835.0 370393.0 0
208227.0 371708.0 0
214108.0 371326.0 0
219944.0 371057.0 0
225726.0 370808.0 0
228740.0 372640.0 0
231489.0 370596.0 0
234479.0 372467.0 0
237265.0 370443.0 0
240251.0 372350.0 0
243078.0 370363.0 0
246064.0 372302.0 0
248932.0 370355.0 0
251915.0 372318.0 0
254825.0 370408.0 0
257800.0 372391.0 0
260747.0 370518.0 0
263710.0 372520.0 0
266692.0 370689.0 0
272664.0 370940.0 0
278673.0 371275.0 0
284697.0 371658.0 0
287255.0 369648.0 0
292020.0 372481.0 0
295975.0 371205.0 0
301474.0 370620.0 0
200997.0 376641.0 0
205600.0 373730.0 0
211466.0 373302.0 0
214565.0 375031.0 0
217245.0 373060.0 0
220285.0 374853.0 0
223004.0 372844.0 0
226006.0 374674.0 0
231718.0 374502.0 0
237450.0 374359.0 0
243224.0 374273.0 0
249038.0 374250.0 0
254885.0 374287.0 0
260759.0 374379.0 0
266662.0 374528.0 0
269650.0 372717.0 0
272607.0 374748.0 0
275633.0 372996.0 0
278618.0 375047.0 0
281667.0 373342.0 0
284828.0 375238.0 0
288126.0 373342.0 0
294453.0 374476.0 0
298045.0 373521.0 0
299514.0 376969.0 0
198217.0 378388.0 0
201402.0 379392.0 0
203689.0 376150.0 0
206579.0 377452.0 0
208849.0 375266.0 0
211903.0 376981.0 0
217563.0 376830.0 0
223266.0 376682.0 0
228972.0 376535.0 0
234673.0 376385.0 0
240409.0 376267.0 0
246188.0 376206.0 0
252001.0 376207.0 0
257840.0 376263.0 0
263706.0 376371.0 0
269607.0 376539.0 0
275573.0 376778.0 0
281669.0 377034.0 0
287692.0 377179.0 0
290864.0 375715.0 0
296606.0 376884.0 0
302361.0 378753.0 0
192508.0 381955.0 0
195400.0 380149.0 0
198488.0 381370.0 0
204233.0 379768.0 0
209413.0 379047.0 0
214844.0 378779.0 0
220501.0 378658.0 0
226217.0 378540.0 0
229149.0 380426.0 0
231912.0 378415.0 0
234835.0 380308.0 0
237614.0 378281.0 0
240553.0 380185.0 0
243362.0 378185.0 0
246312.0 380112.0 0
249145.0 378149.0 0
252092.0 380100.0 0
254952.0 378171.0 0
257889.0 380140.0 0
260782.0 378243.0 0
263710.0 380226.0 0
266640.0 378366.0 0
269564.0 380359.0 0
272549.0 378547.0 0
275496.0 380546.0 0
278566.0 378787.0 0
284612.0 379007.0 0
290500.0 379365.0 0
293508.0 377976.0 0
296326.0 380299.0 0
299233.0 379851.0 0
302259.0 381833.0 0
305247.0 380557.0 0
189547.0 383803.0 0
195531.0 383177.0 0
198546.0 384429.0 0
201517.0 382414.0 0
204335.0 383371.0 0
206956.0 381219.0 0
209623.0 382856.0 0
212207.0 380774.0 0
214962.0 382577.0 0
217715.0 380612.0 0
220568.0 382434.0 0
223420.0 380501.0 0
226342.0 382372.0 0
232059.0 382326.0 0
237755.0 382203.0 0
243496.0 382096.0 0
249256.0 382050.0 0
255026.0 382059.0 0
260813.0 382113.0 0
266624.0 382210.0 0
272477.0 382347.0 0
278422.0 382547.0 0
281530.0 380793.0 0
284535.0 382766.0 0
287535.0 380957.0 0
290797.0 382907.0 0
293520.0 381523.0 0
299297.0 382900.0 0
305220.0 383714.0 0
308148.0 382369.0 0
311063.0 384189.0 0
186521.0 385693.0 0
189457.0 386829.0 0
192523.0 384993.0 0
195511.0 386228.0 0
201486.0 385626.0 0
206992.0 384945.0 0
212255.0 384587.0 0
214864.0 386382.0 0
217699.0 384396.0 0
223451.0 384257.0 0
229254.0 384296.0 0
234959.0 384226.0 0
240686.0 384098.0 0
246439.0 384018.0 0
252189.0 383998.0 0
257947.0 384024.0 0
263721.0 384089.0 0
269521.0 384191.0 0
275364.0 384332.0 0
281355.0 384520.0 0
285709.0 385969.0 0
288163.0 384402.0 0
293795.0 385099.0 0
296483.0 383762.0 0
299434.0 386147.0 0
302307.0 384997.0 0
305258.0 386937.0 0
308148.0 385542.0 0
311090.0 387338.0 0
314005.0 386026.0 0
180346.0 389552.0 0
183444.0 387615.0 0
186345.0 388713.0 0
189280.0 389857.0 0
192413.0 388033.0 0
195378.0 389291.0 0
198481.0 387565.0 0
201368.0 388954.0 0
204261.0 386965.0 0
206887.0 388675.0 0
209570.0 386651.0 0
212100.0 388392.0 0
217473.0 388146.0 0
220477.0 386146.0 0
223341.0 387908.0 0
226363.0 386138.0 0
229263.0 388127.0 0
232141.0 386222.0 0
235040.0 388124.0 0
237872.0 386112.0 0
240820.0 387993.0 0
243631.0 386000.0 0
246570.0 387922.0 0
249373.0 385954.0 0
252291.0 387903.0 0
255108.0 385956.0 0
258011.0 387919.0 0
260852.0 385994.0 0
263740.0 387965.0 0
266612.0 386066.0 0
269478.0 388044.0 0
272390.0 386171.0 0
275213.0 388155.0 0
278218.0 386319.0 0
280509.0 388722.0 0
283170.0 387341.0 0
288601.0 388106.0 0
291176.0 386550.0 0
294027.0 388761.0 0
296682.0 387314.0 0
302389.0 388265.0 0
308197.0 388761.0 0
314068.0 389144.0 0
316984.0 387886.0 0
320013.0 389777.0 0
177257.0 391485.0 0
183223.0 390647.0 0
186155.0 391749.0 0
192231.0 391085.0 0
195179.0 392371.0 0
198304.0 390758.0 0
204130.0 390568.0 0
209408.0 390482.0 0
214599.0 390202.0 0
220170.0 389730.0 0
222961.0 391382.0 0
226252.0 389800.0 0
232149.0 390084.0 0
237990.0 389989.0 0
243771.0 389897.0 0
249492.0 389863.0 0
255194.0 389862.0 0
260898.0 389887.0 0
266606.0 389940.0 0
272306.0 390029.0 0
277782.0 390313.0 0
283182.0 391041.0 0
285935.0 389620.0 0
291400.0 390279.0 0
296844.0 390927.0 0
299573.0 389551.0 0
302499.0 391622.0 0
305331.0 390228.0 0
308289.0 392018.0 0
311170.0 390517.0 0
314200.0 392281.0 0
317101.0 390957.0 0
320193.0 392814.0 0
323093.0 391700.0 0
174202.0 393399.0 0
177123.0 394603.0 0
180139.0 392619.0 0
183109.0 393715.0 0
186110.0 394854.0 0
189112.0 392918.0 0
192060.0 394184.0 0
198047.0 394021.0 0
201129.0 392310.0 0
203848.0 394095.0 0
206795.0 392456.0 0
209446.0 394437.0 0
211880.0 392214.0 0
214189.0 394116.0 0
217090.0 391882.0 0
219829.0 393200.0 0
225609.0 393225.0 0
229120.0 391898.0 0
235113.0 391968.0 0
240963.0 391870.0 0
243912.0 393792.0 0
246701.0 391829.0 0
249608.0 393780.0 0
252395.0 391818.0 0
255281.0 393781.0 0
258080.0 391828.0 0
260950.0 393797.0 0
263766.0 391859.0 0
266613.0 393835.0 0
269444.0 391921.0 0
272223.0 393939.0 0
275015.0 392093.0 0
280441.0 392547.0 0
285990.0 393270.0 0
288732.0 391814.0 0
291512.0 394001.0 0
294173.0 392460.0 0
299700.0 393040.0 0
305446.0 393583.0 0
311305.0 393707.0 0
317294.0 394041.0 0
323342.0 394703.0 0
326225.0 393657.0 0
168218.0 397144.0 0
171183.0 395294.0 0
174158.0 396576.0 0
180181.0 395723.0 0
183276.0 396865.0 0
189099.0 396072.0 0
192027.0 397401.0 0
194974.0 395481.0 0
197688.0 397414.0 0
200763.0 395680.0 0
206497.0 396096.0 0
211867.0 396651.0 0
216859.0 395544.0 0
222497.0 394930.0 0
224781.0 396924.0 0
227935.0 395180.0 0
230415.0 396773.0 0
232124.0 393859.0 0
235251.0 395743.0 0
238131.0 393830.0 0
241116.0 395740.0 0
246825.0 395742.0 0
252495.0 395744.0 0
258153.0 395751.0 0
263804.0 395770.0 0
269429.0 395828.0 0
274980.0 395995.0 0
277716.0 394212.0 0
280482.0 396339.0 0
283224.0 394748.0 0
288820.0 395512.0 0
294267.0 396183.0 0
296954.0 394563.0 0
299797.0 396556.0 0
302626.0 395027.0 0
305600.0 396998.0 0
308426.0 395306.0 0
311490.0 396889.0 0
314396.0 395423.0 0
317543.0 397129.0 0
320446.0 395862.0 0
323646.0 397716.0 0
326531.0 396659.0 0
329386.0 395633.0 0
332543.0 397607.0 0
164869.0 399216.0 0
167539.0 399984.0 0
171286.0 398581.0 0
174603.0 399709.0 0
177330.0 397720.0 0
180499.0 398879.0 0
183673.0 400057.0 0
186387.0 398068.0 0
189523.0 399383.0 0
194862.0 398682.0 0
200075.0 399045.0 0
203364.0 397555.0 0
206001.0 399647.0 0
209066.0 398279.0 0
214672.0 398050.0 0
219481.0 396629.0 0
221593.0 398631.0 0
227340.0 398751.0 0
233049.0 398229.0 0
238311.0 397660.0 0
244040.0 397694.0 0
249713.0 397707.0 0
255367.0 397714.0 0
261012.0 397723.0 0
266640.0 397750.0 0
272230.0 397842.0 0
277768.0 398060.0 0
283308.0 398456.0 0
286080.0 396920.0 0
288941.0 399236.0 0
291612.0 397736.0 0
297009.0 398224.0 0
302769.0 398417.0 0
308603.0 398612.0 0
311705.0 400043.0 0
314635.0 398569.0 0
317844.0 400213.0 0
320748.0 398922.0 0
326840.0 399685.0 0
329712.0 398666.0 0
335657.0 399556.0 0
161704.0 401200.0 0
164455.0 402243.0 0
169880.0 401331.0 0
172604.0 402079.0 0
177822.0 400911.0 0
181019.0 402093.0 0
186885.0 401292.0 0
190240.0 402564.0 0
192755.0 400830.0 0
196623.0 401064.0 0
199488.0 402058.0 0
202801.0 400873.0 0
208504.0 401925.0 0
211702.0 400535.0 0
214809.0 401375.0 0
217894.0 399670.0 0
220686.0 401897.0 0
224149.0 400486.0 0
230116.0 400348.0 0
235798.0 399811.0 0
238581.0 401638.0 0
241255.0 399628.0 0
244146.0 401611.0 0
246931.0 399665.0 0
249803.0 401644.0 0
252586.0 399681.0 0
255449.0 401657.0 0
258229.0 399687.0 0
261087.0 401660.0 0
263862.0 399697.0 0
266710.0 401672.0 0
269467.0 399737.0 0
272311.0 401721.0 0
275056.0 399864.0 0
277945.0 401876.0 0
280606.0 400115.0 0
286180.0 400526.0 0
291711.0 401523.0 0
294318.0 399984.0 0
296977.0 401917.0 0
299870.0 400053.0 0
302986.0 401689.0 0
305818.0 400483.0 0
308812.0 401938.0 0
314953.0 401704.0 0
321019.0 402027.0 0
323934.0 400762.0 0
327009.0 402780.0 0
329942.0 401753.0 0
332826.0 400700.0 0
335888.0 402705.0 0
338723.0 401475.0 0
155610.0 405018.0 0
158634.0 403124.0 0
161446.0 404325.0 0
164266.0 405484.0 0
167117.0 403356.0 0
169986.0 404557.0 0
172910.0 405448.0 0
175496.0 403148.0 0
178522.0 404259.0 0
181656.0 405367.0 0
184245.0 403272.0 0
187573.0 404449.0 0
191106.0 405453.0 0
194112.0 403546.0 0
201606.0 404115.0 0
205127.0 403092.0 0
210929.0 404340.0 0
217560.0 403435.0 0
223602.0 403847.0 0
226954.0 402231.0 0
229937.0 403860.0 0
232981.0 401921.0 0
235806.0 403651.0 0
241396.0 403577.0 0
247013.0 403599.0 0
252665.0 403627.0 0
258310.0 403633.0 0
263947.0 403629.0 0
269576.0 403639.0 0
275201.0 403681.0 0
280942.0 403886.0 0
283455.0 402188.0 0
288950.0 402989.0 0
294363.0 403973.0 0
299890.0 403437.0 0
302987.0 404655.0 0
306113.0 404099.0 0
312056.0 403097.0 0
315272.0 404911.0 0
318116.0 403337.0 0
321003.0 405266.0 0
324026.0 403895.0 0
327087.0 405896.0 0
330066.0 404883.0 0
332999.0 403838.0 0
338877.0 404678.0 0
341736.0 403361.0 0
344711.0 405223.0 0
152610.0 406895.0 0
155495.0 408220.0 0
158463.0 406297.0 0
161356.0 407533.0 0
167162.0 406635.0 0
170139.0 407773.0 0
175894.0 406497.0 0
178959.0 407550.0 0
184912.0 406470.0 0
188308.0 407533.0 0
194293.0 406745.0 0
197496.0 404591.0 0
200277.0 406946.0 0
203935.0 406345.0 0
207462.0 405390.0 0
214303.0 404569.0 0
216837.0 407123.0 0
220289.0 405427.0 0
223617.0 407192.0 0
226760.0 405613.0 0
232874.0 405586.0 0
238605.0 405540.0 0
244227.0 405553.0 0
249871.0 405589.0 0
255528.0 405608.0 0
261178.0 405602.0 0
266826.0 405586.0 0
272489.0 405582.0 0
278179.0 405589.0 0
284071.0 406062.0 0
286242.0 404088.0 0
288168.0 406901.0 0
291471.0 405246.0 0
297302.0 405636.0 0
300632.0 406834.0 0
304318.0 407380.0 0
309364.0 405174.0 0
312568.0 406140.0 0
317933.0 406627.0 0
324050.0 407007.0 0
330013.0 408069.0 0
333020.0 407038.0 0
335972.0 405911.0 0
338912.0 407925.0 0
341829.0 406595.0 0
347661.0 407068.0 0
146635.0 410634.0 0
149622.0 408766.0 0
152532.0 410117.0 0
158424.0 409513.0 0
161398.0 410762.0 0
164299.0 408725.0 0
167285.0 409890.0 0
173131.0 408753.0 0
176154.0 409788.0 0
182111.0 408579.0 0
185333.0 409607.0 0
188501.0 410694.0 0
191641.0 408702.0 0
197091.0 407782.0 0
202390.0 409497.0 0
205989.0 408782.0 0
209471.0 407931.0 0
212905.0 407496.0 0
220508.0 408655.0 0
223859.0 410594.0 0
226809.0 409093.0 0
229835.0 407393.0 0
232752.0 409285.0 0
235722.0 407451.0 0
238536.0 409402.0 0
241413.0 407497.0 0
244237.0 409483.0 0
247067.0 407544.0 0
249916.0 409539.0 0
252731.0 407579.0 0
255602.0 409560.0 0
258399.0 407582.0 0
261292.0 409541.0 0
264065.0 407557.0 0
266988.0 409485.0 0
269746.0 407517.0 0
272741.0 409391.0 0
275492.0 407470.0 0
278664.0 409244.0 0
281317.0 407400.0 0
285544.0 409163.0 0
291295.0 408396.0 0
294735.0 407921.0 0
298294.0 409065.0 0
302014.0 409858.0 0
307532.0 407647.0 0
310941.0 408485.0 0
314798.0 408499.0 0
318048.0 409644.0 0
321002.0 408471.0 0
323700.0 410164.0 0
326922.0 409058.0 0
332992.0 410259.0 0
335968.0 409157.0 0
341819.0 409872.0 0
344751.0 408474.0 0
347652.0 410321.0 0
350602.0 408907.0 0
353559.0 410754.0 0
143643.0 412505.0 0
149569.0 412001.0 0
152539.0 413364.0 0
155485.0 411452.0 0
158479.0 412752.0 0
164406.0 411976.0 0
167438.0 413158.0 0
170310.0 411020.0 0
173341.0 412058.0 0
176391.0 413086.0 0
179223.0 410791.0 0
182326.0 411761.0 0
185389.0 412802.0 0
191632.0 411737.0 0
194982.0 410399.0 0
198855.0 410256.0 0
200962.0 412779.0 0
204398.0 412111.0 0
207818.0 411444.0 0
211139.0 410848.0 0
214521.0 410323.0 0
217789.0 410447.0 0
221173.0 412081.0 0
226761.0 412751.0 0
229749.0 411044.0 0
235590.0 411250.0 0
241356.0 411389.0 0
247074.0 411482.0 0
252782.0 411529.0 0
258496.0 411526.0 0
264221.0 411474.0 0
269970.0 411362.0 0
275867.0 411158.0 0
282223.0 410644.0 0
285374.0 412544.0 0
288903.0 410789.0 0
292880.0 411192.0 0
296308.0 411555.0 0
299900.0 412322.0 0
305596.0 410477.0 0
309032.0 410921.0 0
312728.0 411207.0 0
316148.0 411778.0 0
320322.0 411885.0 0
323705.0 412993.0 0
326876.0 412104.0 0
329967.0 411225.0 0
333007.0 413496.0 0
335943.0 412451.0 0
338879.0 411225.0 0
344680.0 411767.0 0
350574.0 412134.0 0
356569.0 412633.0 0
140632.0 414386.0 0
143611.0 415741.0 0
146599.0 413876.0 0
149582.0 415261.0 0
155547.0 414707.0 0
161507.0 414014.0 0
164560.0 415255.0 0
170484.0 414306.0 0
173522.0 415379.0 0
179475.0 414062.0 0
182593.0 415039.0 0
188350.0 413890.0 0
191124.0 414827.0 0
194270.0 413828.0 0
197417.0 413180.0 0
206171.0 414903.0 0
209446.0 414350.0 0
212639.0 413816.0 0
215686.0 413566.0 0
218657.0 413689.0 0
221109.0 415879.0 0
223903.0 414332.0 0
229532.0 414779.0 0
232585.0 413037.0 0
235419.0 415049.0 0
238417.0 413247.0 0
244188.0 413395.0 0
249930.0 413482.0 0
255673.0 413505.0 0
261426.0 413467.0 0
267208.0 413365.0 0
273038.0 413144.0 0
276198.0 414766.0 0
279201.0 412688.0 0
282462.0 414189.0 0
288021.0 414101.0 0
291212.0 414035.0 0
294645.0 414519.0 0
298061.0 414994.0 0
303514.0 413018.0 0
307103.0 413585.0 0
310692.0 413891.0 0
314176.0 414340.0 0
317795.0 414461.0 0
321000.0 415079.0 0
324207.0 415837.0 0
327100.0 415065.0 0
330059.0 414353.0 0
335705.0 415871.0 0
338692.0 414628.0 0
341687.0 413215.0 0
344520.0 415083.0 0
347565.0 413593.0 0
353561.0 413926.0 0
356644.0 415745.0 0
359654.0 414559.0 0
134488.0 418225.0 0
137584.0 416290.0 0
140583.0 417596.0 0
146608.0 417142.0 0
149633.0 418542.0 0
152600.0 416633.0 0
155656.0 417984.0 0
158591.0 416015.0 0
161666.0 417294.0 0
167625.0 416466.0 0
170688.0 417653.0 0
176558.0 416394.0 0
179603.0 417327.0 0
182667.0 418250.0 0
185761.0 416191.0 0
188993.0 417434.0 0
192769.0 417263.0 0
196093.0 416595.0 0
199408.0 415993.0 0
202831.0 415501.0 0
207971.0 417804.0 0
211271.0 417303.0 0
214517.0 416931.0 0
217757.0 416783.0 0
223541.0 418206.0 0
226491.0 416605.0 0
232356.0 416787.0 0
238259.0 417084.0 0
241250.0 415265.0 0
244089.0 417294.0 0
247036.0 415407.0 0
249916.0 417409.0 0
252817.0 415470.0 0
255744.0 417437.0 0
258601.0 415458.0 0
261575.0 417373.0 0
264409.0 415369.0 0
267466.0 417212.0 0
270275.0 415188.0 0
273441.0 416902.0 0
279285.0 416222.0 0
285603.0 416544.0 0
289301.0 417197.0 0
292784.0 417422.0 0
296277.0 417875.0 0
301580.0 415616.0 0
305154.0 416193.0 0
308760.0 416628.0 0
312282.0 417020.0 0
315841.0 417287.0 0
319206.0 417744.0 0
322589.0 418301.0 0
326272.0 418307.0 0
329542.0 417633.0 0
332680.0 416864.0 0
338339.0 418110.0 0
341438.0 416598.0 0
347453.0 416854.0 0
350526.0 415358.0 0
353597.0 417075.0 0
356752.0 418840.0 0
359803.0 417640.0 0
362808.0 416530.0 0
366022.0 418539.0 0
131342.0 420191.0 0
137499.0 419469.0 0
140544.0 420813.0 0
143602.0 418997.0 0
146639.0 420428.0 0
152695.0 419919.0 0
158746.0 419301.0 0
161870.0 420597.0 0
164763.0 418572.0 0
167863.0 419824.0 0
170949.0 421078.0 0
173730.0 418758.0 0
176773.0 419760.0 0
179857.0 420647.0 0
185690.0 419424.0 0
188369.0 420636.0 0
191358.0 420255.0 0
194695.0 419963.0 0
197970.0 419390.0 0
201281.0 418838.0 0
204645.0 418332.0 0
213295.0 420269.0 0
216715.0 419939.0 0
220231.0 419308.0 0
226009.0 420572.0 0
229201.0 418490.0 0
235222.0 418836.0 0
241084.0 419133.0 0
246960.0 419314.0 0
252840.0 419392.0 0
258717.0 419374.0 0
264607.0 419235.0 0
270616.0 418978.0 0
276668.0 418535.0 0
282329.0 417407.0 0
283908.0 420061.0 0
287344.0 419981.0 0
290943.0 420415.0 0
299760.0 418356.0 0
303294.0 418877.0 0
306874.0 419339.0 0
310441.0 419756.0 0
314005.0 420075.0 0
317489.0 420468.0 0
320992.0 420873.0 0
324687.0 420967.0 0
328427.0 420760.0 0
331928.0 420179.0 0
335214.0 419346.0 0
341130.0 419963.0 0
344327.0 418378.0 0
347446.0 420064.0 0
350528.0 418555.0 0
353669.0 420199.0 0
359990.0 420704.0 0
363030.0 419599.0 0
369286.0 420580.0 0
128156.0 422183.0 0
131171.0 423356.0 0
134357.0 421386.0 0
137421.0 422647.0 0
143608.0 422269.0 0
146684.0 423734.0 0
149703.0 421839.0 0
152807.0 423217.0 0
155795.0 421282.0 0
158930.0 422604.0 0
165018.0 421929.0 0
168165.0 423232.0 0
174001.0 422206.0 0
177072.0 423156.0 0
183012.0 421568.0 0
186167.0 423109.0 0
189546.0 423618.0 0
196307.0 422783.0 0
199686.0 422235.0 0
203077.0 421703.0 0
206489.0 421202.0 0
209895.0 420703.0 0
215460.0 423142.0 0
219086.0 422599.0 0
222696.0 421853.0 0
228939.0 421984.0 0
232132.0 420482.0 0
234925.0 422646.0 0
238024.0 420927.0 0
240840.0 422980.0 0
243940.0 421173.0 0
249882.0 421312.0 0
255812.0 421348.0 0
261746.0 421265.0 0
267700.0 421019.0 0
270830.0 422717.0 0
273878.0 420637.0 0
277346.0 422222.0 0
280012.0 419911.0 0
281770.0 422835.0 0
285522.0 423124.0 0
294457.0 420764.0 0
297974.0 421203.0 0
301500.0 421654.0 0
305061.0 422095.0 0
308636.0 422507.0 0
312221.0 422859.0 0
315775.0 423210.0 0
319353.0 423534.0 0
323049.0 423649.0 0
326816.0 423541.0 0
330602.0 423224.0 0
334328.0 422704.0 0
337846.0 421617.0 0
341293.0 423153.0 0
344346.0 421577.0 0
350575.0 421762.0 0
353787.0 423297.0 0
356909.0 421905.0 0
360196.0 423756.0 0
363277.0 422659.0 0
366308.0 421614.0 0
369596.0 423687.0 0
372568.0 422633.0 0
121732.0 426203.0 0
124947.0 424191.0 0
127959.0 425370.0 0
131033.0 426524.0 0
134244.0 424547.0 0
137369.0 425822.0 0
140523.0 424032.0 0
143636.0 425566.0 0
149782.0 425153.0 0
155949.0 424597.0 0
159125.0 425912.0 0
162110.0 423910.0 0
165327.0 425321.0 0
171294.0 424593.0 0
174368.0 425715.0 0
180211.0 423948.0 0
183483.0 424773.0 0
192884.0 423195.0 0
197980.0 425596.0 0
201442.0 425069.0 0
204913.0 424550.0 0
208405.0 424049.0 0
211914.0 423574.0 0
221386.0 425250.0 0
225080.0 424542.0 0
228473.0 425187.0 0
231790.0 424179.0 0
237649.0 424771.0 0
243761.0 425010.0 0
246861.0 423193.0 0
249837.0 425187.0 0
252853.0 423291.0 0
255872.0 425237.0 0
258837.0 423269.0 0
261927.0 425132.0 0
264841.0 423096.0 0
268003.0 424853.0 0
273942.0 424205.0 0
280054.0 425656.0 0
283624.0 426029.0 0
289064.0 423317.0 0
292631.0 423702.0 0
296172.0 424083.0 0
299722.0 424498.0 0
303286.0 424906.0 0
306868.0 425298.0 0
310467.0 425652.0 0
328775.0 426176.0 0
332358.0 425871.0 0
335679.0 425664.0 0
338529.0 424816.0 0
344391.0 424853.0 0
347484.0 423299.0 0
350695.0 424991.0 0
353912.0 426378.0 0
357067.0 424954.0 0
363504.0 425726.0 0
366572.0 424703.0 0
372905.0 425777.0 0
375858.0 424691.0 0
379122.0 426734.0 0
118527.0 428209.0 0
124742.0 427417.0 0
127815.0 428570.0 0
134165.0 427707.0 0
137352.0 428987.0 0
140533.0 427249.0 0
146742.0 427072.0 0
149866.0 428488.0 0
152921.0 426525.0 0
156092.0 427933.0 0
162365.0 427201.0 0
165655.0 428733.0 0
168549.0 426669.0 0
171788.0 428226.0 0
177484.0 426554.0 0
180720.0 427177.0 0
184114.0 427592.0 0
187274.0 426462.0 0
190957.0 426452.0 0
194481.0 426053.0 0
199736.0 428410.0 0
203254.0 427885.0 0
206795.0 427364.0 0
210371.0 426860.0 0
213988.0 426374.0 0
217668.0 425851.0 0
223426.0 428062.0 0
226972.0 428034.0 0
230894.0 427840.0 0
234365.0 426496.0 0
240552.0 426753.0 0
246752.0 427041.0 0
252859.0 427173.0 0
258945.0 427141.0 0
265101.0 426933.0 0
271210.0 426587.0 0
274369.0 428088.0 0
276828.0 425593.0 0
287227.0 426341.0 0
290786.0 426632.0 0
294359.0 427000.0 0
297932.0 427376.0 0
301519.0 427759.0 0
305117.0 428129.0 0
314065.0 425981.0 0
317682.0 426263.0 0
321364.0 426400.0 0
325081.0 426364.0 0
334351.0 428731.0 0
338079.0 428354.0 0
341346.0 426658.0 0
344692.0 428054.0 0
347689.0 426539.0 0
354150.0 429404.0 0
357263.0 427979.0 0
360396.0 426798.0 0
363814.0 428767.0 0
366868.0 427784.0 0
369905.0 426800.0 0
373166.0 428967.0 0
376165.0 427899.0 0
382343.0 428753.0 0
115347.0 430201.0 0
118373.0 431548.0 0
121538.0 429481.0 0
124604.0 430666.0 0
130946.0 429702.0 0
134134.0 430866.0 0
140589.0 430443.0 0
143697.0 428909.0 0
146817.0 430461.0 0
153033.0 429840.0 0
156254.0 431315.0 0
159291.0 429212.0 0
162550.0 430423.0 0
168971.0 430040.0 0
174954.0 429271.0 0
178387.0 429866.0 0
181963.0 430253.0 0
185729.0 430064.0 0
189091.0 429490.0 0
192684.0 429292.0 0
196216.0 428889.0 0
205088.0 430678.0 0
208699.0 430145.0 0
212351.0 429628.0 0
216041.0 429112.0 0
219747.0 428584.0 0
233663.0 430245.0 0
237196.0 428530.0 0
240349.0 430392.0 0
243600.0 428792.0 0
249771.0 429035.0 0
255939.0 429107.0 0
262068.0 428960.0 0
265221.0 430694.0 0
268400.0 428649.0 0
271804.0 430641.0 0
278030.0 428795.0 0
281636.0 428967.0 0
285280.0 429286.0 0
288911.0 429604.0 0
292517.0 429928.0 0
296126.0 430283.0 0
299739.0 430640.0 0
308731.0 428472.0 0
312357.0 428784.0 0
316004.0 429046.0 0
319690.0 429203.0 0
323396.0 429233.0 0
327088.0 429140.0 0
330740.0 428949.0 0
336006.0 431548.0 0
339173.0 431516.0 0
341681.0 429891.0 0
347949.0 429849.0 0
350890.0 428338.0 0
354719.0 432212.0 0
357728.0 430921.0 0
360755.0 429791.0 0
367054.0 430928.0 0
370125.0 429965.0 0
376328.0 431173.0 0
379357.0 430017.0 0
385525.0 430747.0 0
109064.0 434136.0 0
112196.0 432174.0 0
115253.0 433601.0 0
121451.0 432799.0 0
124571.0 433962.0 0
127714.0 431787.0 0
130862.0 432879.0 0
134030.0 433996.0 0
137371.0 432131.0 0
140653.0 433573.0 0
143783.0 432344.0 0
146841.0 433926.0 0
149948.0 431850.0 0
153229.0 433131.0 0
159440.0 432531.0 0
162708.0 433572.0 0
165800.0 432165.0 0
169051.0 433103.0 0
172392.0 431990.0 0
176075.0 432569.0 0
179806.0 432952.0 0
183616.0 433016.0 0
187308.0 432844.0 0
190831.0 432458.0 0
194421.0 432168.0 0
197970.0 431733.0 0
201517.0 431221.0 0
206937.0 433440.0 0
210610.0 432895.0 0
214308.0 432382.0 0
218008.0 431895.0 0
221688.0 431447.0 0
225328.0 431194.0 0
229142.0 430936.0 0
237049.0 432144.0 0
243413.0 432572.0 0
246614.0 430887.0 0
249668.0 432839.0 0
252849.0 431033.0 0
256004.0 432933.0 0
259090.0 431019.0 0
262314.0 432820.0 0
268340.0 432191.0 0
275685.0 431499.0 0
279576.0 431941.0 0
283303.0 432223.0 0
286991.0 432546.0 0
290653.0 432873.0 0
294297.0 433204.0 0
297944.0 433543.0 0
303364.0 430991.0 0
307000.0 431320.0 0
310651.0 431619.0 0
314320.0 431872.0 0
318012.0 432046.0 0
321715.0 432127.0 0
325396.0 432114.0 0
329023.0 432010.0 0
332563.0 431840.0 0
341757.0 433720.0 0
344738.0 431264.0 0
348191.0 432991.0 0
351332.0 431814.0 0
357607.0 434080.0 0
360827.0 432943.0 0
363957.0 431900.0 0
366995.0 434156.0 0
370146.0 433209.0 0
373257.0 432227.0 0
376325.0 434501.0 0
379436.0 433362.0 0
382503.0 432107.0 0
385619.0 434169.0 0
388677.0 432723.0 0
105935.0 436093.0 0
112164.0 435620.0 0
118352.0 434937.0 0
121493.0 436168.0 0
127730.0 435055.0 0
130926.0 436124.0 0
137181.0 435203.0 0
140294.0 436458.0 0
143721.0 435960.0 0
150138.0 435161.0 0
153527.0 436340.0 0
156534.0 434821.0 0
159765.0 435891.0 0
163297.0 436428.0 0
166701.0 435679.0 0
170608.0 435697.0 0
174069.0 435404.0 0
177765.0 435721.0 0
181548.0 435887.0 0
185306.0 435892.0 0
188992.0 435715.0 0
192587.0 435402.0 0
196187.0 435066.0 0
199738.0 434577.0 0
203311.0 434012.0 0
212507.0 435650.0 0
216202.0 435190.0 0
219867.0 434784.0 0
223492.0 434475.0 0
227132.0 434198.0 0
230726.0 433975.0 0
234136.0 433859.0 0
240092.0 433971.0 0
246417.0 434770.0 0
252816.0 434877.0 0
259250.0 434880.0 0
265648.0 434606.0 0
270780.0 434306.0 0
274161.0 434554.0 0
277726.0 434828.0 0
281418.0 435187.0 0
285103.0 435497.0 0
288785.0 435818.0 0
292462.0 436142.0 0
301597.0 433876.0 0
305261.0 434192.0 0
308938.0 434481.0 0
312631.0 434730.0 0
316341.0 434917.0 0
320057.0 435036.0 0
323762.0 435083.0 0
327431.0 435058.0 0
331043.0 434961.0 0
334602.0 434757.0 0
338115.0 434566.0 0
345113.0 434165.0 0
347533.0 436408.0 0
350788.0 435358.0 0
353986.0 434959.0 0
356890.0 437009.0 0
360469.0 436113.0 0
363787.0 435118.0 0
369968.0 436495.0 0
373169.0 435537.0 0
379362.0 436753.0 0
382511.0 435517.0 0
388711.0 436206.0 0
391805.0 434683.0 0
394925.0 436637.0 0
99563.7 440077.0 0
102776.0 438069.0 0
105966.0 439550.0 0
109082.0 437608.0 0
112254.0 439109.0 0
115295.0 437051.0 0
118464.0 438375.0 0
124675.0 437305.0 0
127908.0 438363.0 0
131206.0 439403.0 0
134162.0 437239.0 0
137464.0 438478.0 0
141106.0 439232.0 0
147124.0 437342.0 0
150429.0 438473.0 0
153776.0 439315.0 0
157167.0 438477.0 0
160962.0 439004.0 0
164909.0 439032.0 0
168545.0 438670.0 0
172261.0 438675.0 0
175848.0 438643.0 0
179564.0 438796.0 0
183315.0 438875.0 0
187050.0 438828.0 0
190735.0 438644.0 0
194369.0 438352.0 0
197982.0 437990.0 0
201513.0 437403.0 0
205118.0 436763.0 0
208801.0 436168.0 0
214362.0 438466.0 0
218027.0 438094.0 0
221661.0 437786.0 0
225288.0 437521.0 0
228905.0 437307.0 0
232516.0 437165.0 0
236196.0 436797.0 0
239657.0 437230.0 0
243157.0 436370.0 0
249537.0 436540.0 0
256036.0 436670.0 0
262612.0 436583.0 0
268396.0 437077.0 0
272180.0 437632.0 0
275870.0 437892.0 0
279540.0 438167.0 0
283236.0 438481.0 0
286929.0 438785.0 0
296137.0 436463.0 0
299818.0 436781.0 0
303508.0 437084.0 0
307210.0 437364.0 0
310927.0 437610.0 0
314660.0 437808.0 0
318400.0 437951.0 0
322135.0 438039.0 0
325850.0 438072.0 0
329526.0 438044.0 0
333151.0 437925.0 0
336719.0 437690.0 0
340343.0 437127.0 0
343806.0 436889.0 0
350027.0 438825.0 0
353344.0 438103.0 0
359842.0 439121.0 0
363359.0 438304.0 0
366709.0 437409.0 0
372927.0 438870.0 0
376167.0 437867.0 0
382378.0 438975.0 0
385563.0 437640.0 0
388600.0 439729.0 0
391790.0 438218.0 0
398048.0 438593.0 0
96305.7 442116.0 0
102783.0 441502.0 0
106066.0 442996.0 0
109195.0 441108.0 0
115461.0 440546.0 0
118694.0 441859.0 0
121671.0 439585.0 0
124929.0 440677.0 0
128254.0 441679.0 0
134604.0 440482.0 0
138224.0 441577.0 0
144449.0 439511.0 0
147923.0 440956.0 0
151402.0 441865.0 0
155274.0 441962.0 0
158844.0 441731.0 0
162723.0 441858.0 0
166582.0 441848.0 0
170275.0 441727.0 0
173974.0 441761.0 0
177643.0 441794.0 0
192519.0 441613.0 0
196188.0 441320.0 0
199831.0 440946.0 0
203305.0 440161.0 0
206962.0 439450.0 0
210667.0 438907.0 0
219788.0 441090.0 0
223416.0 440839.0 0
227040.0 440625.0 0
230670.0 440453.0 0
234336.0 440232.0 0
237926.0 440234.0 0
241809.0 440017.0 0
245524.0 439266.0 0
249108.0 439974.0 0
252673.0 438762.0 0
256063.0 440154.0 0
259427.0 438736.0 0
262912.0 440141.0 0
266535.0 440163.0 0
270217.0 440545.0 0
273967.0 440929.0 0
277680.0 441209.0 0
290624.0 439095.0 0
294322.0 439404.0 0
298026.0 439706.0 0
301740.0 439996.0 0
305466.0 440266.0 0
309205.0 440508.0 0
312959.0 440712.0 0
316724.0 440871.0 0
320490.0 440986.0 0
324249.0 441058.0 0
327989.0 441085.0 0
331699.0 441047.0 0
335365.0 440895.0 0
338990.0 440426.0 0
342703.0 439876.0 0
346403.0 439420.0 0
352662.0 441432.0 0
356266.0 439978.0 0
359338.0 442129.0 0
362819.0 441403.0 0
366271.0 440634.0 0
369632.0 439784.0 0
372539.0 442208.0 0
375870.0 441257.0 0
379147.0 440181.0 0
385375.0 441162.0 0
391639.0 441784.0 0
394869.0 440210.0 0
401190.0 440563.0 0
404360.0 442541.0 0
93022.9 444172.0 0
99538.8 443519.0 0
102847.0 444915.0 0
112453.0 442626.0 0
115732.0 444095.0 0
121971.0 443031.0 0
125314.0 444054.0 0
131678.0 442640.0 0
135257.0 443574.0 0
138862.0 444852.0 0
141724.0 442328.0 0
145134.0 442863.0 0
181363.0 441878.0 0
185100.0 441898.0 0
188824.0 441813.0 0
201755.0 443955.0 0
205128.0 442771.0 0
208799.0 442149.0 0
212486.0 441716.0 0
216150.0 441376.0 0
228756.0 443763.0 0
232402.0 443586.0 0
236023.0 443484.0 0
239709.0 443322.0 0
243329.0 443205.0 0
246842.0 442962.0 0
250525.0 443177.0 0
254021.0 443101.0 0
257749.0 443249.0 0
261230.0 443313.0 0
264851.0 443464.0 0
268445.0 443648.0 0
281379.0 441488.0 0
285084.0 441781.0 0
288791.0 442074.0 0
292505.0 442366.0 0
296228.0 442654.0 0
299961.0 442929.0 0
303706.0 443189.0 0
307465.0 443424.0 0
311237.0 443629.0 0
315021.0 443799.0 0
318810.0 443931.0 0
322599.0 444029.0 0
326384.0 444091.0 0
330160.0 444113.0 0
333924.0 444053.0 0
337681.0 443790.0 0
341556.0 442822.0 0
345349.0 442417.0 0
349071.0 442003.0 0
355815.0 442852.0 0
362224.0 444529.0 0
365703.0 443828.0 0
369152.0 443062.0 0
375421.0 444656.0 0
378796.0 443639.0 0
382109.0 442473.0 0
385062.0 444726.0 0
388373.0 443299.0 0
394700.0 443801.0 0
397968.0 442178.0 0
401103.0 444151.0 0
407566.0 444545.0 0
89739.6 446231.0 0
93006.3 447726.0 0
96265.3 445601.0 0
99576.1 446951.0 0
106246.0 446396.0 0
109402.0 444624.0 0
112739.0 446174.0 0
119034.0 445387.0 0
122395.0 446489.0 0
128744.0 444964.0 0
132277.0 445793.0 0
135883.0 446633.0 0
142258.0 445569.0 0
145734.0 445884.0 0
149018.0 444581.0 0
152911.0 444852.0 0
156789.0 444871.0 0
160598.0 444737.0 0
164468.0 444784.0 0
168283.0 444813.0 0
172011.0 444814.0 0
175728.0 444873.0 0
179435.0 444928.0 0
183162.0 444975.0 0
186896.0 444955.0 0
190619.0 444831.0 0
194334.0 444605.0 0
198048.0 444303.0 0
206826.0 445371.0 0
210532.0 444930.0 0
214206.0 444626.0 0
217853.0 444375.0 0
221490.0 444147.0 0
225122.0 443942.0 0
241380.0 446558.0 0
245006.0 446444.0 0
248572.0 446392.0 0
252217.0 446481.0 0
255820.0 446483.0 0
272111.0 443953.0 0
275826.0 444261.0 0
279537.0 444534.0 0
283247.0 444806.0 0
286965.0 445082.0 0
290692.0 445356.0 0
294428.0 445626.0 0
298175.0 445887.0 0
301935.0 446134.0 0
305709.0 446361.0 0
309496.0 446564.0 0
336046.0 447099.0 0
340633.0 445699.0 0
344300.0 445392.0 0
347992.0 445081.0 0
351694.0 444746.0 0
355106.0 445568.0 0
358715.0 445160.0 0
364940.0 447034.0 0
368487.0 446328.0 0
371985.0 445544.0 0
378286.0 447110.0 0
381707.0 446006.0 0
388035.0 446909.0 0
391391.0 445388.0 0
397812.0 445780.0 0
404289.0 446127.0 0
407528.0 448122.0 0
410819.0 446578.0 0
83197.8 450336.0 0
86467.2 448284.0 0
89781.3 449879.0 0
96332.0 449106.0 0
99714.6 450380.0 0
102972.0 448282.0 0
106439.0 449711.0 0
109675.0 448182.0 0
116118.0 447701.0 0
119516.0 448949.0 0
125831.0 447413.0 0
129327.0 448210.0 0
132832.0 448929.0 0
136338.0 449543.0 0
139672.0 448362.0 0
143402.0 448727.0 0
147228.0 448568.0 0
150756.0 447849.0 0
154615.0 447830.0 0
158545.0 447752.0 0
162399.0 447717.0 0
166235.0 447789.0 0
170024.0 447866.0 0
173765.0 447933.0 0
177495.0 448011.0 0
181223.0 448071.0 0
184959.0 448093.0 0
188695.0 448040.0 0
192419.0 447871.0 0
196152.0 447609.0 0
199906.0 447311.0 0
203658.0 447079.0 0
208401.0 448040.0 0
212144.0 447816.0 0
215824.0 447626.0 0
219486.0 447432.0 0
223141.0 447248.0 0
226791.0 447078.0 0
230442.0 446920.0 0
234083.0 446795.0 0
237741.0 446665.0 0
259450.0 446627.0 0
263060.0 446712.0 0
266687.0 446875.0 0
270323.0 447081.0 0
274001.0 447340.0 0
277708.0 447606.0 0
281424.0 447863.0 0
285148.0 448119.0 0
288882.0 448375.0 0
292628.0 448627.0 0
296385.0 448872.0 0
300156.0 449105.0 0
313294.0 446739.0 0
317100.0 446884.0 0
320906.0 447000.0 0
324710.0 447087.0 0
328507.0 447146.0 0
332295.0 447170.0 0
339336.0 448376.0 0
343073.0 448404.0 0
346728.0 448176.0 0
350354.0 447936.0 0
353840.0 448194.0 0
357642.0 448123.0 0
361340.0 447659.0 0
367602.0 449575.0 0
371224.0 448858.0 0
374789.0 448049.0 0
381153.0 449555.0 0
384627.0 448330.0 0
391077.0 449005.0 0
394476.0 447406.0 0
400976.0 447753.0 0
404206.0 449712.0 0
410820.0 450155.0 0
414116.0 448640.0 0
417455.0 450728.0 0
79910.1 452397.0 0
86590.8 452014.0 0
93155.2 451323.0 0
96582.8 452637.0 0
103125.0 451625.0 0
106578.0 452890.0 0
113108.0 449720.0 0
116647.0 451382.0 0
123009.0 449942.0 0
126571.0 450760.0 0
130181.0 451479.0 0
133859.0 452081.0 0
137736.0 452175.0 0
141269.0 451678.0 0
145080.0 451668.0 0
148886.0 451382.0 0
152544.0 450930.0 0
156486.0 450703.0 0
160383.0 450693.0 0
164212.0 450755.0 0
168010.0 450870.0 0
171777.0 450987.0 0
175520.0 451089.0 0
179259.0 451177.0 0
183001.0 451232.0 0
186748.0 451236.0 0
190490.0 451157.0 0
194204.0 450927.0 0
197952.0 450626.0 0
201741.0 450365.0 0
205547.0 450256.0 0
209878.0 450845.0 0
213658.0 450802.0 0
217385.0 450673.0 0
221085.0 450526.0 0
224767.0 450379.0 0
228440.0 450240.0 0
232103.0 450117.0 0
235766.0 450002.0 0
239421.0 449903.0 0
243067.0 449816.0 0
246692.0 449765.0 0
250310.0 449762.0 0
253958.0 449814.0 0
257585.0 449880.0 0
261236.0 449991.0 0
264878.0 450111.0 0
268530.0 450279.0 0
272199.0 450482.0 0
275893.0 450712.0 0
279609.0 450950.0 0
283337.0 451187.0 0
287077.0 451424.0 0
290828.0 451658.0 0
303940.0 449322.0 0
307738.0 449520.0 0
311548.0 449695.0 0
315366.0 449848.0 0
319187.0 449978.0 0
323002.0 450087.0 0
326805.0 450176.0 0
330588.0 450250.0 0
334333.0 450331.0 0
337825.0 451048.0 0
341585.0 451300.0 0
345339.0 451252.0 0
349018.0 451085.0 0
352621.0 451095.0 0
356354.0 450987.0 0
360172.0 450698.0 0
363924.0 450201.0 0
370238.0 452138.0 0
373936.0 451406.0 0
377584.0 450564.0 0
384046.0 451960.0 0
387612.0 450540.0 0
394226.0 451014.0 0
397630.0 449392.0 0
400859.0 451367.0 0
404113.0 453305.0 0
407485.0 451699.0 0
414154.0 452229.0 0
420821.0 452834.0 0
75979.5 454824.0 0
83398.5 454119.0 0
86971.7 455772.0 0
90050.0 453572.0 0
93557.6 454961.0 0
100027.0 453861.0 0
103487.0 455011.0 0
109976.0 451805.0 0
113502.0 453165.0 0
120226.0 452499.0 0
123881.0 453361.0 0
127595.0 454071.0 0
131392.0 454666.0 0
135324.0 454984.0 0
139223.0 455022.0 0
142940.0 454807.0 0
146745.0 454648.0 0
150532.0 454348.0 0
154533.0 453688.0 0
158409.0 453653.0 0
162229.0 453742.0 0
166011.0 453874.0 0
169774.0 454025.0 0
173524.0 454166.0 0
177267.0 454283.0 0
181014.0 454371.0 0
184770.0 454417.0 0
188532.0 454406.0 0
192282.0 454315.0 0
195964.0 453980.0 0
199739.0 453639.0 0
203545.0 453457.0 0
207376.0 453465.0 0
211333.0 453821.0 0
215180.0 453830.0 0
218953.0 453754.0 0
222685.0 453650.0 0
226392.0 453538.0 0
230082.0 453431.0 0
233765.0 453330.0 0
237438.0 453241.0 0
241105.0 453166.0 0
244759.0 453115.0 0
248407.0 453097.0 0
252057.0 453116.0 0
255714.0 453175.0 0
259373.0 453255.0 0
263040.0 453366.0 0
266709.0 453501.0 0
270388.0 453669.0 0
274083.0 453861.0 0
277797.0 454071.0 0
281527.0 454287.0 0
294593.0 451886.0 0
298370.0 452105.0 0
302162.0 452310.0 0
305967.0 452499.0 0
309786.0 452670.0 0
313614.0 452824.0 0
317447.0 452964.0 0
321278.0 453093.0 0
325090.0 453210.0 0
328874.0 453323.0 0
332607.0 453457.0 0
336216.0 453849.0 0
339982.0 454156.0 0
343798.0 454239.0 0
347577.0 454174.0 0
351296.0 454102.0 0
355056.0 453958.0 0
358868.0 453692.0 0
362702.0 453302.0 0
366495.0 452775.0 0
372848.0 454722.0 0
376624.0 453969.0 0
380367.0 453082.0 0
387102.0 454146.0 0
390743.0 452625.0 0
394178.0 454584.0 0
397514.0 453005.0 0
403997.0 456901.0 0
407424.0 455273.0 0
410814.0 453735.0 0
414165.0 455836.0 0
417510.0 454347.0 0
424197.0 454948.0 0
72667.7 456908.0 0
75942.9 458482.0 0
79161.7 456095.0 0
82226.2 457635.0 0
90614.6 457308.0 0
94268.9 458635.0 0
97093.8 456220.0 0
100643.0 457385.0 0
107040.0 455985.0 0
110556.0 455499.0 0
114166.0 456474.0 0
117533.0 455113.0 0
121246.0 456018.0 0
125030.0 456722.0 0
128893.0 457290.0 0
140704.0 458036.0 0
144520.0 457918.0 0
148229.0 457767.0 0
152871.0 456698.0 0
156579.0 456659.0 0
160305.0 456753.0 0
164037.0 456901.0 0
167770.0 457070.0 0
171507.0 457241.0 0
197734.0 456961.0 0
201486.0 456688.0 0
205264.0 456600.0 0
209059.0 456693.0 0
212946.0 456878.0 0
220555.0 456874.0 0
224301.0 456805.0 0
228023.0 456726.0 0
231731.0 456644.0 0
235429.0 456569.0 0
239117.0 456504.0 0
242797.0 456456.0 0
246471.0 456431.0 0
250142.0 456436.0 0
253815.0 456472.0 0
257494.0 456538.0 0
261176.0 456627.0 0
264864.0 456743.0 0
268558.0 456883.0 0
285271.0 454504.0 0
289028.0 454720.0 0
292797.0 454931.0 0
296580.0 455134.0 0
300376.0 455326.0 0
304186.0 455505.0 0
308008.0 455669.0 0
311843.0 455819.0 0
315686.0 455958.0 0
319533.0 456096.0 0
323373.0 456239.0 0
327182.0 456386.0 0
330946.0 456552.0 0
334643.0 456824.0 0
338390.0 457066.0 0
342208.0 457199.0 0
346039.0 457205.0 0
349850.0 457135.0 0
353668.0 456982.0 0
357510.0 456732.0 0
361366.0 456383.0 0
365221.0 455934.0 0
369050.0 455378.0 0
375398.0 457343.0 0
379241.0 456564.0 0
383140.0 455552.0 0
387807.0 457599.0 0
390948.0 456151.0 0
397396.0 456701.0 0
400738.0 455031.0 0
407357.0 458836.0 0
410781.0 457322.0 0
417517.0 457997.0 0
420874.0 456495.0 0
424228.0 458664.0 0
427575.0 457065.0 0
66046.7 461061.0 0
69360.9 458983.0 0
72692.6 460668.0 0
79157.8 459963.0 0
85313.0 459039.0 0
88491.4 460263.0 0
97905.2 459833.0 0
104233.0 458405.0 0
107909.0 459082.0 0
111463.0 459122.0 0
115173.0 459652.0 0
118736.0 458808.0 0
122523.0 459472.0 0
126407.0 459998.0 0
132840.0 457704.0 0
136798.0 457937.0 0
151094.0 459486.0 0
154742.0 459720.0 0
158389.0 459810.0 0
162069.0 459959.0 0
165767.0 460141.0 0
169473.0 460327.0 0
175246.0 457392.0 0
178992.0 457509.0 0
182752.0 457589.0 0
186527.0 457624.0 0
190313.0 457609.0 0
194092.0 457533.0 0
203158.0 459792.0 0
206930.0 459789.0 0
210735.0 459883.0 0
216776.0 456911.0 0
272263.0 457046.0 0
275981.0 457226.0 0
279715.0 457418.0 0
283463.0 457615.0 0
287224.0 457812.0 0
290998.0 458006.0 0
294785.0 458194.0 0
298584.0 458373.0 0
302396.0 458540.0 0
306220.0 458694.0 0
310055.0 458836.0 0
313902.0 458969.0 0
317758.0 459100.0 0
321622.0 459246.0 0
325480.0 459427.0 0
329288.0 459622.0 0
333048.0 459860.0 0
356073.0 459802.0 0
359958.0 459488.0 0
363840.0 459088.0 0
367713.0 458600.0 0
371564.0 458019.0 0
381304.0 459466.0 0
384650.0 458755.0 0
390744.0 459879.0 0
394079.0 458314.0 0
400581.0 458784.0 0
403898.0 460452.0 0
410724.0 460920.0 0
414136.0 459466.0 0
420853.0 460204.0 0
427569.0 460839.0 0
430948.0 459178.0 0
434313.0 461287.0 0
62716.8 463147.0 0
69429.6 462808.0 0
76022.9 462285.0 0
79359.3 463839.0 0
82388.5 461482.0 0
85707.1 462848.0 0
91829.6 461318.0 0
95316.3 462399.0 0
101553.0 460913.0 0
105264.0 461780.0 0
108998.0 462298.0 0
112636.0 462551.0 0
120117.0 462393.0 0
123995.0 462818.0 0
130332.0 460439.0 0
134252.0 460781.0 0
138104.0 461014.0 0
141823.0 461243.0 0
145439.0 461336.0 0
173195.0 460506.0 0
176933.0 460654.0 0
180688.0 460760.0 0
184463.0 460827.0 0
188256.0 460857.0 0
192053.0 460857.0 0
195825.0 460884.0 0
199401.0 459960.0 0
214577.0 460005.0 0
218391.0 460047.0 0
222173.0 460035.0 0
225929.0 459994.0 0
229666.0 459940.0 0
233390.0 459882.0 0
237103.0 459829.0 0
240809.0 459787.0 0
244507.0 459761.0 0
248202.0 459758.0 0
251896.0 459780.0 0
255592.0 459829.0 0
259292.0 459902.0 0
262997.0 459998.0 0
266707.0 460116.0 0
270425.0 460255.0 0
274154.0 460410.0 0
277895.0 460578.0 0
281649.0 460754.0 0
285415.0 460933.0 0
289194.0 461110.0 0
292984.0 461283.0 0
296786.0 461449.0 0
300599.0 461605.0 0
304423.0 461750.0 0
308257.0 461883.0 0
312101.0 462005.0 0
315955.0 462124.0 0
319822.0 462250.0 0
336816.0 460071.0 0
340621.0 460201.0 0
344463.0 460234.0 0
348322.0 460176.0 0
352192.0 460033.0 0
362395.0 462255.0 0
366289.0 461824.0 0
370158.0 461320.0 0
373983.0 460742.0 0
377728.0 460106.0 0
383784.0 462368.0 0
387323.0 461316.0 0
393750.0 462082.0 0
397194.0 460485.0 0
403817.0 463904.0 0
407285.0 462383.0 0
414033.0 463133.0 0
417455.0 461693.0 0
424164.0 462434.0 0
430901.0 463009.0 0
437675.0 463394.0 0
59366.4 465245.0 0
66143.0 464936.0 0
69590.9 466690.0 0
72828.6 464508.0 0
76251.6 466151.0 0
82756.4 465314.0 0
89134.3 464023.0 0
92646.3 465075.0 0
98921.7 463477.0 0
102625.0 464435.0 0
106394.0 465195.0 0
110150.0 465638.0 0
116384.0 462774.0 0
127883.0 463248.0 0
131763.0 463637.0 0
135600.0 463969.0 0
139350.0 464254.0 0
143038.0 464516.0 0
148863.0 462030.0 0
152611.0 462641.0 0
156341.0 462871.0 0
160036.0 463031.0 0
163731.0 463226.0 0
167423.0 463438.0 0
171120.0 463635.0 0
174837.0 463807.0 0
178582.0 463939.0 0
182351.0 464030.0 0
186143.0 464086.0 0
189948.0 464125.0 0
193749.0 464178.0 0
197539.0 464292.0 0
201004.0 462998.0 0
204785.0 462938.0 0
208577.0 462984.0 0
212387.0 463082.0 0
216210.0 463180.0 0
220018.0 463227.0 0
223804.0 463233.0 0
227571.0 463212.0 0
231323.0 463179.0 0
235063.0 463141.0 0
238794.0 463108.0 0
242518.0 463086.0 0
246236.0 463079.0 0
249953.0 463093.0 0
253669.0 463128.0 0
257388.0 463186.0 0
261110.0 463266.0 0
264837.0 463365.0 0
268570.0 463484.0 0
272312.0 463618.0 0
276063.0 463765.0 0
279825.0 463920.0 0
283598.0 464081.0 0
287382.0 464242.0 0
291177.0 464401.0 0
294982.0 464554.0 0
298797.0 464700.0 0
323706.0 462411.0 0
327602.0 462663.0 0
331417.0 462914.0 0
335225.0 463130.0 0
339034.0 463272.0 0
342872.0 463311.0 0
346752.0 463244.0 0
350656.0 463106.0 0
354570.0 462894.0 0
358486.0 462611.0 0
364819.0 465052.0 0
368718.0 464611.0 0
372585.0 464112.0 0
376404.0 463568.0 0
380159.0 463029.0 0
386536.0 464999.0 0
390208.0 463587.0 0
396815.0 464291.0 0
400319.0 462647.0 0
407106.0 465939.0 0
410588.0 464543.0 0
417286.0 465434.0 0
420736.0 463965.0 0
423989.0 466256.0 0
427459.0 464664.0 0
434228.0 465179.0 0
441038.0 465500.0 0
55994.0 467357.0 0
59482.2 469200.0 0
62827.6 467064.0 0
66311.1 468857.0 0
73071.6 468397.0 0
79718.6 467717.0 0
83254.2 469140.0 0
86244.4 466614.0 0
89816.1 467740.0 0
96243.4 466106.0 0
99937.2 467089.0 0
103718.0 467965.0 0
113968.0 465844.0 0
117998.0 465736.0 0
121748.0 465798.0 0
125552.0 466163.0 0
129370.0 466550.0 0
133179.0 466920.0 0
136949.0 467261.0 0
140662.0 467578.0 0
146607.0 464898.0 0
150309.0 465393.0 0
154118.0 465807.0 0
157898.0 466069.0 0
161626.0 466297.0 0
165330.0 466550.0 0
169018.0 466786.0 0
172712.0 466980.0 0
176441.0 467128.0 0
180200.0 467239.0 0
202580.0 466081.0 0
206395.0 466109.0 0
210207.0 466197.0 0
214025.0 466302.0 0
217846.0 466392.0 0
221655.0 466443.0 0
225450.0 466461.0 0
229230.0 466456.0 0
232997.0 466439.0 0
236755.0 466419.0 0
240504.0 466403.0 0
244248.0 466397.0 0
247987.0 466406.0 0
251725.0 466433.0 0
255464.0 466479.0 0
259204.0 466544.0 0
262948.0 466628.0 0
266697.0 466729.0 0
270453.0 466845.0 0
274216.0 466973.0 0
277988.0 467111.0 0
281770.0 467254.0 0
302621.0 464835.0 0
306453.0 464960.0 0
310291.0 465074.0 0
314136.0 465180.0 0
317990.0 465285.0 0
321860.0 465404.0 0
325763.0 465578.0 0
329733.0 465965.0 0
333589.0 466201.0 0
337431.0 466401.0 0
341264.0 466461.0 0
345159.0 466364.0 0
349084.0 466213.0 0
353023.0 466010.0 0
356964.0 465750.0 0
360899.0 465432.0 0
371132.0 467452.0 0
375010.0 466966.0 0
378872.0 466445.0 0
382774.0 465937.0 0
389571.0 467223.0 0
393240.0 465815.0 0
399860.0 466565.0 0
403534.0 467295.0 0
410303.0 468195.0 0
413814.0 466843.0 0
416988.0 469225.0 0
420500.0 467781.0 0
427238.0 468536.0 0
430754.0 466890.0 0
434060.0 469128.0 0
437557.0 467336.0 0
444412.0 467612.0 0
62991.8 471023.0 0
69828.0 470611.0 0
76600.9 470045.0 0
80193.9 471610.0 0
86873.6 470366.0 0
93451.5 468772.0 0
97153.1 469756.0 0
107555.0 468686.0 0
111404.0 468940.0 0
115785.0 468777.0 0
119584.0 468970.0 0
123311.0 469200.0 0
127071.0 469545.0 0
130841.0 469911.0 0
134605.0 470272.0 0
138351.0 470617.0 0
144335.0 467906.0 0
148043.0 468261.0 0
151831.0 468647.0 0
155660.0 469007.0 0
159448.0 469340.0 0
163169.0 469641.0 0
166859.0 469936.0 0
183987.0 467313.0 0
187795.0 467368.0 0
191614.0 467433.0 0
195435.0 467541.0 0
199258.0 467727.0 0
204151.0 469209.0 0
207996.0 469313.0 0
211829.0 469433.0 0
215660.0 469545.0 0
219488.0 469633.0 0
223306.0 469688.0 0
227113.0 469714.0 0
230908.0 469721.0 0
234693.0 469717.0 0
238468.0 469712.0 0
242237.0 469711.0 0
246000.0 469719.0 0
249761.0 469741.0 0
253520.0 469778.0 0
257280.0 469832.0 0
261042.0 469902.0 0
285561.0 467400.0 0
289362.0 467545.0 0
293172.0 467687.0 0
296991.0 467822.0 0
300816.0 467949.0 0
304647.0 468067.0 0
308482.0 468174.0 0
312318.0 468273.0 0
316155.0 468366.0 0
319992.0 468458.0 0
323832.0 468565.0 0
327692.0 468727.0 0
331936.0 469286.0 0
335761.0 469529.0 0
339637.0 469704.0 0
343563.0 469551.0 0
347502.0 469368.0 0
351453.0 469157.0 0
355410.0 468910.0 0
359364.0 468621.0 0
363305.0 468283.0 0
367229.0 467893.0 0
377411.0 469862.0 0
381292.0 469313.0 0
385568.0 468703.0 0
388862.0 470813.0 0
392642.0 469526.0 0
396295.0 468099.0 0
399345.0 470487.0 0
403093.0 470690.0 0
406732.0 469489.0 0
409843.0 471858.0 0
413439.0 470586.0 0
420136.0 471654.0 0
423697.0 470133.0 0
430503.0 470805.0 0
440900.0 469472.0 0
66534.6 472816.0 0
70120.4 474561.0 0
73391.7 472311.0 0
77012.7 473952.0 0
83874.7 472969.0 0
87624.9 474111.0 0
90564.6 471439.0 0
94308.2 472437.0 0
100903.0 470685.0 0
104642.0 471542.0 0
108312.0 472344.0 0
113561.0 471686.0 0
117333.0 472046.0 0
121075.0 472328.0 0
124810.0 472617.0 0
128561.0 472958.0 0
132317.0 473311.0 0
136073.0 473660.0 0
142077.0 470938.0 0
145805.0 471244.0 0
149566.0 471551.0 0
153382.0 471893.0 0
157212.0 472277.0 0
160995.0 472715.0 0
164670.0 473076.0 0
170548.0 470175.0 0
174263.0 470337.0 0
178013.0 470460.0 0
181796.0 470545.0 0
185605.0 470606.0 0
189433.0 470671.0 0
193274.0 470766.0 0
197128.0 470924.0 0
200996.0 471178.0 0
205726.0 472389.0 0
209599.0 472550.0 0
213457.0 472692.0 0
264807.0 469988.0 0
268578.0 470088.0 0
272354.0 470200.0 0
276138.0 470322.0 0
279930.0 470450.0 0
283730.0 470581.0 0
287538.0 470714.0 0
291355.0 470844.0 0
295178.0 470970.0 0
299007.0 471089.0 0
302840.0 471201.0 0
306676.0 471304.0 0
310510.0 471399.0 0
314340.0 471487.0 0
318161.0 471570.0 0
321970.0 471652.0 0
325765.0 471738.0 0
329571.0 471790.0 0
334508.0 472914.0 0
338259.0 473138.0 0
342075.0 472836.0 0
345967.0 472594.0 0
349897.0 472354.0 0
353848.0 472102.0 0
357806.0 471829.0 0
361759.0 471522.0 0
365699.0 471174.0 0
369621.0 470781.0 0
373524.0 470343.0 0
383717.0 472102.0 0
392278.0 473215.0 0
395800.0 471895.0 0
402512.0 474135.0 0
406196.0 473051.0 0
412898.0 474348.0 0
416542.0 473053.0 0
423297.0 474061.0 0
426914.0 472448.0 0
73750.2 476244.0 0
80816.0 475515.0 0
84670.2 476804.0 0
91415.3 475126.0 0
98082.4 473400.0 0
101857.0 474338.0 0
105589.0 475227.0 0
111221.0 474456.0 0
114979.0 475045.0 0
118753.0 475418.0 0
122522.0 475729.0 0
126287.0 476047.0 0
130054.0 476387.0 0
139828.0 473986.0 0
143580.0 474285.0 0
147343.0 474559.0 0
151131.0 474832.0 0
154947.0 475169.0 0
158764.0 475631.0 0
162516.0 476240.0 0
168342.0 473372.0 0
172047.0 473564.0 0
175791.0 473696.0 0
179573.0 473788.0 0
183385.0 473851.0 0
187218.0 473909.0 0
191068.0 473987.0 0
194936.0 474110.0 0
198828.0 474311.0 0
202751.0 474653.0 0
217305.0 472811.0 0
221145.0 472899.0 0
224977.0 472955.0 0
228799.0 472987.0 0
232610.0 473003.0 0
236412.0 473011.0 0
240206.0 473018.0 0
243994.0 473029.0 0
247777.0 473049.0 0
251558.0 473081.0 0
255337.0 473126.0 0
259118.0 473186.0 0
262900.0 473260.0 0
266687.0 473346.0 0
270477.0 473444.0 0
274274.0 473551.0 0
278077.0 473665.0 0
281887.0 473784.0 0
285704.0 473904.0 0
289528.0 474024.0 0
293358.0 474141.0 0
297193.0 474253.0 0
301032.0 474359.0 0
304871.0 474459.0 0
308710.0 474551.0 0
312543.0 474637.0 0
316366.0 474718.0 0
320175.0 474793.0 0
323964.0 474861.0 0
327738.0 474887.0 0
331502.0 474727.0 0
348387.0 475629.0 0
352303.0 475346.0 0
356246.0 475067.0 0
360197.0 474777.0 0
364144.0 474461.0 0
368077.0 474110.0 0
371992.0 473719.0 0
375891.0 473280.0 0
379797.0 472780.0 0
385454.0 475327.0 0
388854.0 474458.0 0
395214.0 475756.0 0
398770.0 474431.0 0
405513.0 476645.0 0
409225.0 475533.0 0
415931.0 476892.0 0
419642.0 475569.0 0
426528.0 476388.0 0
430173.0 474745.0 0
77589.2 477861.0 0
88517.6 477853.0 0
92361.4 478815.0 0
95228.2 476098.0 0
99048.4 477073.0 0
102822.0 478070.0 0
108732.0 477209.0 0
112499.0 477962.0 0
133823.0 476726.0 0
137593.0 477052.0 0
141363.0 477353.0 0
145137.0 477618.0 0
156460.0 478500.0 0
160183.0 479101.0 0
166123.0 476591.0 0
169807.0 476808.0 0
173542.0 476951.0 0
177323.0 477044.0 0
181142.0 477106.0 0
184983.0 477158.0 0
188837.0 477220.0 0
192703.0 477312.0 0
196588.0 477456.0 0
200504.0 477691.0 0
207318.0 475623.0 0
211226.0 475816.0 0
215104.0 475976.0 0
218969.0 476097.0 0
222826.0 476183.0 0
226674.0 476241.0 0
230512.0 476277.0 0
234340.0 476301.0 0
238159.0 476318.0 0
241970.0 476335.0 0
245776.0 476357.0 0
249579.0 476386.0 0
253378.0 476426.0 0
257177.0 476477.0 0
260977.0 476541.0 0
264780.0 476617.0 0
268585.0 476702.0 0
272395.0 476797.0 0
276210.0 476899.0 0
280031.0 477006.0 0
283858.0 477115.0 0
287690.0 477225.0 0
291529.0 477333.0 0
295372.0 477439.0 0
299218.0 477540.0 0
303065.0 477635.0 0
306911.0 477725.0 0
310754.0 477810.0 0
314590.0 477889.0 0
337075.0 476725.0 0
340744.0 476289.0 0
344522.0 475933.0 0
358629.0 478060.0 0
362573.0 477762.0 0
366511.0 477445.0 0
370430.0 477100.0 0
374318.0 476719.0 0
378154.0 476295.0 0
381889.0 475840.0 0
387977.0 478177.0 0
391633.0 477016.0 0
398088.0 478394.0 0
401788.0 477660.0 0
408483.0 479220.0 0
412212.0 478136.0 0
85675.6 480643.0 0
89555.1 481629.0 0
96215.7 479774.0 0
100010.0 480823.0 0
106143.0 479947.0 0
116337.0 478448.0 0
120174.0 478815.0 0
123992.0 479149.0 0
127794.0 479484.0 0
131589.0 479821.0 0
135378.0 480143.0 0
148914.0 477862.0 0
152690.0 478129.0 0
204541.0 478165.0 0
208964.0 478893.0 0
212884.0 479121.0 0
216780.0 479284.0 0
220664.0 479401.0 0
224537.0 479484.0 0
228401.0 479542.0 0
232254.0 479583.0 0
236097.0 479613.0 0
239932.0 479638.0 0
243761.0 479663.0 0
247584.0 479693.0 0
251404.0 479729.0 0
255222.0 479775.0 0
259039.0 479831.0 0
262858.0 479898.0 0
266678.0 479974.0 0
270502.0 480058.0 0
274330.0 480149.0 0
278162.0 480245.0 0
281999.0 480344.0 0
318416.0 477962.0 0
322230.0 478025.0 0
326034.0 478053.0 0
329836.0 477971.0 0
333602.0 477579.0 0
339402.0 479889.0 0
343113.0 479414.0 0
346913.0 479009.0 0
350781.0 478663.0 0
354693.0 478353.0 0
368870.0 480473.0 0
372785.0 480142.0 0
376668.0 479784.0 0
380500.0 479396.0 0
384266.0 478930.0 0
390731.0 480741.0 0
394450.0 479603.0 0
400958.0 481292.0 0
404717.0 480279.0 0
413021.0 481950.0 0
416811.0 480725.0 0
93419.7 482503.0 0
97192.8 483525.0 0
103407.0 482647.0 0
109948.0 480863.0 0
113861.0 481427.0 0
117773.0 481858.0 0
121661.0 482228.0 0
125516.0 482582.0 0
129352.0 482927.0 0
139165.0 480442.0 0
142955.0 480708.0 0
146743.0 480943.0 0
150522.0 481175.0 0
154284.0 481460.0 0
158010.0 481917.0 0
163678.0 479979.0 0
167421.0 480098.0 0
171218.0 480224.0 0
175040.0 480312.0 0
178884.0 480369.0 0
182739.0 480418.0 0
186599.0 480470.0 0
190463.0 480541.0 0
194334.0 480645.0 0
198215.0 480804.0 0
202119.0 481045.0 0
206543.0 481776.0 0
210644.0 482230.0 0
214580.0 482457.0 0
218495.0 482610.0 0
222396.0 482720.0 0
226283.0 482799.0 0
230160.0 482858.0 0
234026.0 482902.0 0
285842.0 480445.0 0
289689.0 480545.0 0
293541.0 480644.0 0
297395.0 480739.0 0
301252.0 480831.0 0
305109.0 480918.0 0
308964.0 481000.0 0
312816.0 481077.0 0
316662.0 481148.0 0
320503.0 481207.0 0
324342.0 481239.0 0
328186.0 481197.0 0
332029.0 480986.0 0
335795.0 480512.0 0
341701.0 483012.0 0
345447.0 482501.0 0
349270.0 482068.0 0
353147.0 481703.0 0
357061.0 481382.0 0
360995.0 481082.0 0
364936.0 480784.0 0
382976.0 482483.0 0
386855.0 481863.0 0
393573.0 483391.0 0
397270.0 482289.0 0
403874.0 483972.0 0
407648.0 482900.0 0
87255.0 484844.0 0
91953.6 486044.0 0
100590.0 485416.0 0
107243.0 483679.0 0
111388.0 484410.0 0
115360.0 484875.0 0
119312.0 485278.0 0
123223.0 485664.0 0
127103.0 486029.0 0
133173.0 483258.0 0
136986.0 483560.0 0
140795.0 483825.0 0
144604.0 484055.0 0
148411.0 484264.0 0
152209.0 484490.0 0
155994.0 484812.0 0
161277.0 483472.0 0
165058.0 483512.0 0
168897.0 483530.0 0
172761.0 483589.0 0
176631.0 483642.0 0
180501.0 483688.0 0
184370.0 483736.0 0
188237.0 483794.0 0
192103.0 483875.0 0
195971.0 483990.0 0
199850.0 484150.0 0
203761.0 484340.0 0
208425.0 485295.0 0
212391.0 485616.0 0
237883.0 482937.0 0
241733.0 482968.0 0
245577.0 483000.0 0
249417.0 483036.0 0
253253.0 483079.0 0
257088.0 483129.0 0
260922.0 483189.0 0
264758.0 483256.0 0
268595.0 483331.0 0
272436.0 483413.0 0
276280.0 483500.0 0
280128.0 483591.0 0
283981.0 483683.0 0
287837.0 483776.0 0
291698.0 483868.0 0
295563.0 483958.0 0
299430.0 484044.0 0
303298.0 484128.0 0
307166.0 484207.0 0
311033.0 484281.0 0
314899.0 484349.0 0
318764.0 484406.0 0
322631.0 484440.0 0
326505.0 484422.0 0
330385.0 484299.0 0
334244.0 484017.0 0
338018.0 483540.0 0
343977.0 486104.0 0
347757.0 485564.0 0
351600.0 485124.0 0
355487.0 484755.0 0
359406.0 484433.0 0
363342.0 484135.0 0
367286.0 483841.0 0
371227.0 483542.0 0
375157.0 483225.0 0
379072.0 482883.0 0
389793.0 484359.0 0
396366.0 486154.0 0
400113.0 485044.0 0
406793.0 486674.0 0
410794.0 485202.0 0
88873.7 488501.0 0
95785.4 487145.0 0
104415.0 486405.0 0
108745.0 487268.0 0
112973.0 487907.0 0
116982.0 488315.0 0
120926.0 488731.0 0
124846.0 489125.0 0
130964.0 486378.0 0
134812.0 486695.0 0
138648.0 486969.0 0
142482.0 487196.0 0
146319.0 487384.0 0
150160.0 487562.0 0
154006.0 487778.0 0
158990.0 486868.0 0
162814.0 486903.0 0
166667.0 486899.0 0
170534.0 486896.0 0
174409.0 486931.0 0
178286.0 486973.0 0
182161.0 487017.0 0
186031.0 487069.0 0
189898.0 487135.0 0
193763.0 487223.0 0
197632.0 487338.0 0
201516.0 487475.0 0
205423.0 487616.0 0
216334.0 485813.0 0
220258.0 485952.0 0
224167.0 486054.0 0
228064.0 486130.0 0
231950.0 486188.0 0
235828.0 486234.0 0
239697.0 486272.0 0
243561.0 486309.0 0
247419.0 486346.0 0
251273.0 486387.0 0
255124.0 486434.0 0
258974.0 486488.0 0
262825.0 486549.0 0
266676.0 486617.0 0
270529.0 486691.0 0
274385.0 486770.0 0
278244.0 486853.0 0
282107.0 486938.0 0
285974.0 487023.0 0
289844.0 487109.0 0
293718.0 487193.0 0
297595.0 487275.0 0
301474.0 487354.0 0
305355.0 487430.0 0
309237.0 487501.0 0
313119.0 487566.0 0
317004.0 487620.0 0
320893.0 487656.0 0
324789.0 487653.0 0
328694.0 487580.0 0
332595.0 487402.0 0
336463.0 487088.0 0
340256.0 486638.0 0
346236.0 489156.0 0
350043.0 488619.0 0
353903.0 488186.0 0
357802.0 487824.0 0
361728.0 487508.0 0
365672.0 487216.0 0
369624.0 486931.0 0
373580.0 486641.0 0
377537.0 486333.0 0
381499.0 485982.0 0
385491.0 485534.0 0
388690.0 487871.0 0
392591.0 487130.0 0
399246.0 488819.0 0
403025.0 487738.0 0
413729.0 487851.0 0
92876.2 489857.0 0
97869.3 490479.0 0
101631.0 489225.0 0
105922.0 489980.0 0
110402.0 490809.0 0
114672.0 491361.0 0
128745.0 489494.0 0
132634.0 489836.0 0
136505.0 490133.0 0
140368.0 490368.0 0
144233.0 490541.0 0
148109.0 490677.0 0
152004.0 490810.0 0
156717.0 490224.0 0
160590.0 490244.0 0
164473.0 490247.0 0
168351.0 490241.0 0
172223.0 490249.0 0
176098.0 490277.0 0
179974.0 490316.0 0
183847.0 490362.0 0
187716.0 490418.0 0
191582.0 490489.0 0
195450.0 490578.0 0
199323.0 490681.0 0
210279.0 488799.0 0
214212.0 489025.0 0
218143.0 489189.0 0
222064.0 489311.0 0
225975.0 489404.0 0
229877.0 489475.0 0
233771.0 489531.0 0
237658.0 489578.0 0
241538.0 489619.0 0
245413.0 489659.0 0
249283.0 489700.0 0
253151.0 489745.0 0
257016.0 489796.0 0
260880.0 489852.0 0
264745.0 489914.0 0
268610.0 489981.0 0
272478.0 490054.0 0
276348.0 490129.0 0
280221.0 490208.0 0
284097.0 490287.0 0
287977.0 490367.0 0
291861.0 490446.0 0
295747.0 490523.0 0
299637.0 490598.0 0
303529.0 490670.0 0
307424.0 490737.0 0
311321.0 490799.0 0
315222.0 490851.0 0
319129.0 490887.0 0
334802.0 490526.0 0
338679.0 490205.0 0
342499.0 489783.0 0
360092.0 490913.0 0
364028.0 490608.0 0
367979.0 490325.0 0
371942.0 490049.0 0
375912.0 489768.0 0
379888.0 489462.0 0
383865.0 489107.0 0
395325.0 490071.0 0
402248.0 491541.0 0
409908.0 489035.0 0
94971.0 493202.0 0
103230.0 492847.0 0
107591.0 493506.0 0
112204.0 494304.0 0
118635.0 491794.0 0
122579.0 492215.0 0
126507.0 492610.0 0
130432.0 492966.0 0
134356.0 493304.0 0
203208.0 490789.0 0
207106.0 490886.0 0
212151.0 492279.0 0
216065.0 492448.0 0
219985.0 492582.0 0
223901.0 492686.0 0
227813.0 492768.0 0
231719.0 492833.0 0
235619.0 492887.0 0
239513.0 492934.0 0
243403.0 492976.0 0
247288.0 493019.0 0
251170.0 493063.0 0
255049.0 493111.0 0
258926.0 493164.0 0
262803.0 493221.0 0
266680.0 493284.0 0
323042.0 490894.0 0
326964.0 490852.0 0
330889.0 490737.0 0
348470.0 492196.0 0
352302.0 491679.0 0
356180.0 491262.0 0
370260.0 493463.0 0
374229.0 493200.0 0
378205.0 492931.0 0
382176.0 492642.0 0
387168.0 491242.0 0
391386.0 490761.0 0
398431.0 492577.0 0
404848.0 494531.0 0
408406.0 492717.0 0
412547.0 491976.0 0
99467.6 494089.0 0
116336.0 494856.0 0
120304.0 495306.0 0
124249.0 495728.0 0
138256.0 493568.0 0
142156.0 493744.0 0
146057.0 493846.0 0
149985.0 493910.0 0
154449.0 493551.0 0
158364.0 493564.0 0
162271.0 493576.0 0
166167.0 493582.0 0
170051.0 493588.0 0
173929.0 493604.0 0
177805.0 493634.0 0
181681.0 493673.0 0
185553.0 493722.0 0
189424.0 493781.0 0
193294.0 493852.0 0
197166.0 493934.0 0
201045.0 494020.0 0
204933.0 494098.0 0
208830.0 494147.0 0
214032.0 495750.0 0
217937.0 495879.0 0
270559.0 493350.0 0
274439.0 493420.0 0
278322.0 493493.0 0
282208.0 493567.0 0
286098.0 493641.0 0
289990.0 493715.0 0
293886.0 493788.0 0
297785.0 493858.0 0
301688.0 493926.0 0
305594.0 493990.0 0
309504.0 494048.0 0
313418.0 494098.0 0
317339.0 494135.0 0
321267.0 494149.0 0
325202.0 494127.0 0
329143.0 494052.0 0
333080.0 493907.0 0
337001.0 493679.0 0
340889.0 493365.0 0
344733.0 492981.0 0
350680.0 495238.0 0
354537.0 494752.0 0
358433.0 494357.0 0
362357.0 494026.0 0
366301.0 493734.0 0
385566.0 494617.0 0
389716.0 494238.0 0
393829.0 493851.0 0
407804.0 497205.0 0
95677.5 497095.0 0
99555.9 498045.0 0
104968.0 496406.0 0
109409.0 496982.0 0
113927.0 497856.0 0
117999.0 498372.0 0
128202.0 496102.0 0
132159.0 496437.0 0
136140.0 496784.0 0
140087.0 496982.0 0
144026.0 497087.0 0
147966.0 497087.0 0
152198.0 496870.0 0
156145.0 496869.0 0
160070.0 496891.0 0
163981.0 496911.0 0
167879.0 496927.0 0
171767.0 496945.0 0
175649.0 496969.0 0
179528.0 497002.0 0
183406.0 497043.0 0
187282.0 497094.0 0
191157.0 497153.0 0
195033.0 497220.0 0
198913.0 497289.0 0
202799.0 497354.0 0
206692.0 497401.0 0
210589.0 497410.0 0
221850.0 495987.0 0
225764.0 496074.0 0
229676.0 496145.0 0
233585.0 496204.0 0
237490.0 496254.0 0
241392.0 496300.0 0
245289.0 496344.0 0
249183.0 496388.0 0
253075.0 496435.0 0
256964.0 496485.0 0
260853.0 496539.0 0
264741.0 496598.0 0
268630.0 496660.0 0
272520.0 496725.0 0
276413.0 496792.0 0
280307.0 496861.0 0
284205.0 496931.0 0
288106.0 497000.0 0
292011.0 497069.0 0
295919.0 497135.0 0
299831.0 497199.0 0
303747.0 497260.0 0
307667.0 497315.0 0
311593.0 497362.0 0
315525.0 497399.0 0
319464.0 497418.0 0
323411.0 497410.0 0
327364.0 497363.0 0
331317.0 497262.0 0
335263.0 497098.0 0
339192.0 496863.0 0
343094.0 496561.0 0
346962.0 496213.0 0
352868.0 498293.0 0
356749.0 497843.0 0
360660.0 497475.0 0
364594.0 497165.0 0
368545.0 496890.0 0
372508.0 496636.0 0
376476.0 496392.0 0
380445.0 496152.0 0
383904.0 498010.0 0
387983.0 497711.0 0
392040.0 497416.0 0
397042.0 496166.0 0
401023.0 495735.0 0
96792.6 500917.0 0
103090.0 499851.0 0
107061.0 500089.0 0
111130.0 500533.0 0
115632.0 501425.0 0
121971.0 498861.0 0
125939.0 499243.0 0
129920.0 499597.0 0
133889.0 499889.0 0
138053.0 500253.0 0
142023.0 500371.0 0
146003.0 500386.0 0
149991.0 500210.0 0
153954.0 500167.0 0
157883.0 500198.0 0
161800.0 500232.0 0
165707.0 500262.0 0
169605.0 500288.0 0
173496.0 500314.0 0
177383.0 500344.0 0
181268.0 500381.0 0
185151.0 500425.0 0
189033.0 500475.0 0
192916.0 500531.0 0
196801.0 500589.0 0
200690.0 500643.0 0
204584.0 500686.0 0
208482.0 500704.0 0
212379.0 500683.0 0
215923.0 499216.0 0
219824.0 499315.0 0
223733.0 499400.0 0
227646.0 499472.0 0
231560.0 499532.0 0
235473.0 499585.0 0
239383.0 499633.0 0
243290.0 499677.0 0
247195.0 499722.0 0
251097.0 499768.0 0
254997.0 499816.0 0
258896.0 499868.0 0
262794.0 499923.0 0
266692.0 499981.0 0
270591.0 500042.0 0
274492.0 500106.0 0
278395.0 500171.0 0
282301.0 500236.0 0
286210.0 500301.0 0
290122.0 500366.0 0
294038.0 500429.0 0
297958.0 500489.0 0
301882.0 500546.0 0
305812.0 500598.0 0
309746.0 500644.0 0
313688.0 500680.0 0
317637.0 500702.0 0
321593.0 500703.0 0
325557.0 500675.0 0
329522.0 500608.0 0
333485.0 500489.0 0
337439.0 500311.0 0
341378.0 500073.0 0
345295.0 499786.0 0
349186.0 499470.0 0
355035.0 501369.0 0
358937.0 500958.0 0
362861.0 500620.0 0
366804.0 500334.0 0
370757.0 500082.0 0
374716.0 499852.0 0
378673.0 499638.0 0
395299.0 499659.0 0
399343.0 499376.0 0
100371.0 502728.0 0
104911.0 503384.0 0
108877.0 503697.0 0
112838.0 504125.0 0
119595.0 501931.0 0
123679.0 502421.0 0
127661.0 502749.0 0
131708.0 503086.0 0
135694.0 503303.0 0
140052.0 503707.0 0
144043.0 503725.0 0
147998.0 503682.0 0
151833.0 503478.0 0
155715.0 503510.0 0
159623.0 503552.0 0
163533.0 503594.0 0
167440.0 503631.0 0
171342.0 503664.0 0
175239.0 503696.0 0
179134.0 503730.0 0
217823.0 502679.0 0
221723.0 502754.0 0
225633.0 502819.0 0
229547.0 502877.0 0
233463.0 502929.0 0
237379.0 502976.0 0
241294.0 503021.0 0
245206.0 503065.0 0
249117.0 503110.0 0
253026.0 503157.0 0
256933.0 503207.0 0
260839.0 503260.0 0
264746.0 503315.0 0
268653.0 503373.0 0
272561.0 503433.0 0
276472.0 503494.0 0
280385.0 503556.0 0
284301.0 503618.0 0
288220.0 503679.0 0
292143.0 503739.0 0
296070.0 503796.0 0
339610.0 503544.0 0
343561.0 503306.0 0
347493.0 503036.0 0
351404.0 502749.0 0
361103.0 504101.0 0
365039.0 503797.0 0
368986.0 503539.0 0
372938.0 503315.0 0
376890.0 503117.0 0
382160.0 501414.0 0
386210.0 501190.0 0
390219.0 500948.0 0
393496.0 503159.0 0
397529.0 502934.0 0
401742.0 502547.0 0
117252.0 505048.0 0
121246.0 505486.0 0
125454.0 505965.0 0
183026.0 503770.0 0
186917.0 503814.0 0
190808.0 503861.0 0
194700.0 503911.0 0
198596.0 503958.0 0
202495.0 503996.0 0
206397.0 504017.0 0
210300.0 504012.0 0
214198.0 503969.0 0
219733.0 506140.0 0
223635.0 506193.0 0
227546.0 506243.0 0
231462.0 506290.0 0
235381.0 506333.0 0
300002.0 503850.0 0
303938.0 503900.0 0
307880.0 503943.0 0
311829.0 503978.0 0
315785.0 504002.0 0
319750.0 504009.0 0
323721.0 503994.0 0
327698.0 503951.0 0
331676.0 503869.0 0
335646.0 503735.0 0
353615.0 506047.0 0
357184.0 504472.0 0
380388.0 504863.0 0
384368.0 504648.0 0
388404.0 504462.0 0
98673.6 506332.0 0
102657.0 506608.0 0
106715.0 506954.0 0
110894.0 507512.0 0
114937.0 508205.0 0
129438.0 506236.0 0
133576.0 506551.0 0
137564.0 506701.0 0
142658.0 507303.0 0
146652.0 507327.0 0
153473.0 506815.0 0
157419.0 506867.0 0
161347.0 506924.0 0
165268.0 506973.0 0
169182.0 507015.0 0
173092.0 507053.0 0
176999.0 507089.0 0
180902.0 507126.0 0
184804.0 507166.0 0
188705.0 507208.0 0
192607.0 507251.0 0
196511.0 507293.0 0
200417.0 507328.0 0
204325.0 507350.0 0
208235.0 507352.0 0
212142.0 507328.0 0
216043.0 507270.0 0
239301.0 506376.0 0
243220.0 506419.0 0
247137.0 506463.0 0
251052.0 506509.0 0
254967.0 506558.0 0
258880.0 506609.0 0
262793.0 506662.0 0
266707.0 506717.0 0
270622.0 506774.0 0
274539.0 506833.0 0
278458.0 506891.0 0
282380.0 506950.0 0
286306.0 507008.0 0
290235.0 507065.0 0
294168.0 507120.0 0
298105.0 507171.0 0
302048.0 507219.0 0
305996.0 507260.0 0
309950.0 507294.0 0
313912.0 507319.0 0
317882.0 507330.0 0
321860.0 507323.0 0
325844.0 507296.0 0
329834.0 507242.0 0
333823.0 507149.0 0
337805.0 506993.0 0
341781.0 506792.0 0
345743.0 506560.0 0
349687.0 506308.0 0
359316.0 507606.0 0
363249.0 507277.0 0
367194.0 507008.0 0
371143.0 506784.0 0
375090.0 506593.0 0
378583.0 508343.0 0
382549.0 508143.0 0
386522.0 507921.0 0
391682.0 506686.0 0
395675.0 506467.0 0
399931.0 506107.0 0
100467.0 509922.0 0
104452.0 510165.0 0
108420.0 510581.0 0
112375.0 511199.0 0
118935.0 508658.0 0
122999.0 509016.0 0
127285.0 509491.0 0
131287.0 509697.0 0
135493.0 510008.0 0
139779.0 509908.0 0
144671.0 510693.0 0
150230.0 509068.0 0
155200.0 510160.0 0
159148.0 510246.0 0
163085.0 510313.0 0
167015.0 510367.0 0
170940.0 510413.0 0
174860.0 510453.0 0
178777.0 510491.0 0
182692.0 510529.0 0
186605.0 510568.0 0
190518.0 510607.0 0
194431.0 510644.0 0
198346.0 510676.0 0
202262.0 510699.0 0
206179.0 510707.0 0
210095.0 510694.0 0
214007.0 510655.0 0
217911.0 510587.0 0
221653.0 509597.0 0
225558.0 509633.0 0
229472.0 509670.0 0
233392.0 509707.0 0
237314.0 509746.0 0
241237.0 509786.0 0
245159.0 509829.0 0
249079.0 509874.0 0
252998.0 509921.0 0
256917.0 509970.0 0
260835.0 510022.0 0
264755.0 510075.0 0
268675.0 510130.0 0
272597.0 510185.0 0
276521.0 510242.0 0
280448.0 510298.0 0
284379.0 510354.0 0
288313.0 510408.0 0
292251.0 510460.0 0
296194.0 510510.0 0
300141.0 510555.0 0
304094.0 510595.0 0
308053.0 510629.0 0
312019.0 510653.0 0
315992.0 510667.0 0
319973.0 510666.0 0
323962.0 510649.0 0
327957.0 510611.0 0
331958.0 510551.0 0
335978.0 510436.0 0
339971.0 510260.0 0
343954.0 510057.0 0
347923.0 509835.0 0
351876.0 509600.0 0
355818.0 509363.0 0
361434.0 510775.0 0
365378.0 510485.0 0
369331.0 510257.0 0
373280.0 510070.0 0
388724.0 511160.0 0
392658.0 510528.0 0
396646.0 510313.0 0
400631.0 510033.0 0
116595.0 511833.0 0
120733.0 512223.0 0
124819.0 512539.0 0
129183.0 512987.0 0
133166.0 513159.0 0
137771.0 513248.0 0
141785.0 513301.0 0
148178.0 512457.0 0
152129.0 512623.0 0
156927.0 513549.0 0
160889.0 513647.0 0
164839.0 513718.0 0
168782.0 513774.0 0
172718.0 513821.0 0
176650.0 513862.0 0
180579.0 513901.0 0
184505.0 513939.0 0
188430.0 513975.0 0
192354.0 514009.0 0
196279.0 514040.0 0
200205.0 514062.0 0
204130.0 514074.0 0
208055.0 514069.0 0
211976.0 514044.0 0
215893.0 513995.0 0
219801.0 513922.0 0
223582.0 513051.0 0
227492.0 513074.0 0
231409.0 513100.0 0
235332.0 513131.0 0
239257.0 513166.0 0
243182.0 513206.0 0
247106.0 513250.0 0
251029.0 513297.0 0
254951.0 513345.0 0
258873.0 513395.0 0
262796.0 513446.0 0
266721.0 513499.0 0
270647.0 513553.0 0
274575.0 513607.0 0
278506.0 513661.0 0
282441.0 513715.0 0
286379.0 513767.0 0
290322.0 513817.0 0
294268.0 513865.0 0
298220.0 513909.0 0
302177.0 513949.0 0
306139.0 513982.0 0
310108.0 514007.0 0
314084.0 514022.0 0
318066.0 514025.0 0
322056.0 514015.0 0
326051.0 513989.0 0
330051.0 513946.0 0
334097.0 513863.0 0
338150.0 513724.0 0
342143.0 513541.0 0
346127.0 513342.0 0
350099.0 513130.0 0
354059.0 512912.0 0
358010.0 512695.0 0
363541.0 513980.0 0
367490.0 513727.0 0
371455.0 513549.0 0
376762.0 511846.0 0
380727.0 511649.0 0
384706.0 511435.0 0
398823.0 513656.0 0
99279.0 513725.0 0
103256.0 513922.0 0
107261.0 514374.0 0
111210.0 514960.0 0
115151.0 515510.0 0
119105.0 515810.0 0
123066.0 516051.0 0
127037.0 516258.0 0
135428.0 516391.0 0
139807.0 516648.0 0
145296.0 515197.0 0
149983.0 515977.0 0
153956.0 516164.0 0
229435.0 516514.0 0
233356.0 516533.0 0
237281.0 516561.0 0
241207.0 516597.0 0
245133.0 516638.0 0
249059.0 516685.0 0
252984.0 516733.0 0
348296.0 516648.0 0
352269.0 516446.0 0
356233.0 516241.0 0
360190.0 516040.0 0
374928.0 515368.0 0
378892.0 515166.0 0
382873.0 514957.0 0
386900.0 514704.0 0
390889.0 514457.0 0
394832.0 513864.0 0
100870.0 517600.0 0
104854.0 517549.0 0
108789.0 518086.0 0
112736.0 518649.0 0
131189.0 516558.0 0
143249.0 518618.0 0
147221.0 518828.0 0
158680.0 516969.0 0
162654.0 517065.0 0
166618.0 517135.0 0
170573.0 517192.0 0
174520.0 517239.0 0
178463.0 517280.0 0
182403.0 517318.0 0
186341.0 517354.0 0
190279.0 517386.0 0
194215.0 517415.0 0
198151.0 517439.0 0
202086.0 517453.0 0
206019.0 517455.0 0
209950.0 517440.0 0
213877.0 517405.0 0
217797.0 517349.0 0
221709.0 517275.0 0
225521.0 516503.0 0
256908.0 516782.0 0
260833.0 516833.0 0
264760.0 516884.0 0
268689.0 516936.0 0
272620.0 516988.0 0
276554.0 517041.0 0
280492.0 517092.0 0
284433.0 517142.0 0
288379.0 517191.0 0
292329.0 517237.0 0
296284.0 517280.0 0
300244.0 517319.0 0
304210.0 517353.0 0
308181.0 517379.0 0
312158.0 517396.0 0
316142.0 517402.0 0
320132.0 517397.0 0
324127.0 517379.0 0
328126.0 517348.0 0
332170.0 517279.0 0
336268.0 517167.0 0
340322.0 517023.0 0
344313.0 516841.0 0
365639.0 517225.0 0
369578.0 516998.0 0
376238.0 519094.0 0
380202.0 518879.0 0
384163.0 518676.0 0
388124.0 518456.0 0
392091.0 518231.0 0
396030.0 517666.0 0
400015.0 517556.0 0
116892.0 519100.0 0
120901.0 519364.0 0
124896.0 519580.0 0
128890.0 519773.0 0
133487.0 519815.0 0
137483.0 519772.0 0
151801.0 519515.0 0
155789.0 519697.0 0
160467.0 520408.0 0
164453.0 520496.0 0
168427.0 520565.0 0
172391.0 520622.0 0
176348.0 520666.0 0
180302.0 520705.0 0
184253.0 520741.0 0
188203.0 520773.0 0
192152.0 520802.0 0
196100.0 520827.0 0
200045.0 520844.0 0
203988.0 520851.0 0
207928.0 520845.0 0
211864.0 520821.0 0
215794.0 520779.0 0
219717.0 520718.0 0
223632.0 520644.0 0
227468.0 519952.0 0
231385.0 519955.0 0
235308.0 519972.0 0
239234.0 520000.0 0
243160.0 520039.0 0
247085.0 520084.0 0
251012.0 520133.0 0
254939.0 520183.0 0
258866.0 520234.0 0
262794.0 520284.0 0
266724.0 520334.0 0
270657.0 520385.0 0
274593.0 520436.0 0
278533.0 520486.0 0
282476.0 520534.0 0
286424.0 520582.0 0
290377.0 520627.0 0
294334.0 520669.0 0
298297.0 520707.0 0
302265.0 520741.0 0
306238.0 520769.0 0
310217.0 520788.0 0
314202.0 520797.0 0
318192.0 520795.0 0
322187.0 520783.0 0
326186.0 520761.0 0
330230.0 520703.0 0
334334.0 520598.0 0
338441.0 520484.0 0
342489.0 520339.0 0
346478.0 520160.0 0
350461.0 519972.0 0
354436.0 519778.0 0
358403.0 519584.0 0
362362.0 519394.0 0
367747.0 520510.0 0
372333.0 519711.0 0
394262.0 521565.0 0
398248.0 521472.0 0
100817.0 521600.0 0
104812.0 521523.0 0
108769.0 522061.0 0
112726.0 522618.0 0
116691.0 523063.0 0
120668.0 523315.0 0
124643.0 523522.0 0
128614.0 523711.0 0
132581.0 523650.0 0
136552.0 523550.0 0
141036.0 521941.0 0
145043.0 522180.0 0
149032.0 522383.0 0
153634.0 523056.0 0
157641.0 523226.0 0
162295.0 523858.0 0
166286.0 523940.0 0
170267.0 524008.0 0
174238.0 524063.0 0
178201.0 524099.0 0
182166.0 524137.0 0
186130.0 524167.0 0
190091.0 524197.0 0
194050.0 524224.0 0
198006.0 524244.0 0
201960.0 524257.0 0
205910.0 524258.0 0
209856.0 524245.0 0
213796.0 524214.0 0
217729.0 524166.0 0
221654.0 524102.0 0
225571.0 524030.0 0
229421.0 523400.0 0
233340.0 523400.0 0
237262.0 523419.0 0
241184.0 523453.0 0
245108.0 523496.0 0
249033.0 523544.0 0
252960.0 523595.0 0
256889.0 523647.0 0
260821.0 523698.0 0
264753.0 523748.0 0
268687.0 523797.0 0
272623.0 523847.0 0
276564.0 523896.0 0
280508.0 523943.0 0
284457.0 523989.0 0
288411.0 524033.0 0
292370.0 524074.0 0
296335.0 524113.0 0
300305.0 524147.0 0
304280.0 524176.0 0
308261.0 524198.0 0
312247.0 524210.0 0
316239.0 524211.0 0
320235.0 524203.0 0
324234.0 524187.0 0
328278.0 524137.0 0
332389.0 524038.0 0
336502.0 523929.0 0
340608.0 523817.0 0
344651.0 523675.0 0
348641.0 523497.0 0
352626.0 523312.0 0
356606.0 523124.0 0
360582.0 522934.0 0
364560.0 522860.0 0
370532.0 523264.0 0
374491.0 522985.0 0
378397.0 522421.0 0
382350.0 522218.0 0
386315.0 522007.0 0
390285.0 521784.0 0
102000.0 525554.0 0
106000.0 525481.0 0
110266.0 525753.0 0
114330.0 526270.0 0
118473.0 526632.0 0
138950.0 526696.0 0
142791.0 525610.0 0
146782.0 525793.0 0
150778.0 525973.0 0
155404.0 526633.0 0
159423.0 526798.0 0
235294.0 526853.0 0
239208.0 526882.0 0
243124.0 526921.0 0
247045.0 526968.0 0
250970.0 527018.0 0
254899.0 527070.0 0
258831.0 527122.0 0
262769.0 527175.0 0
342767.0 527168.0 0
346813.0 527026.0 0
350806.0 526847.0 0
354795.0 526663.0 0
358783.0 526474.0 0
362777.0 526418.0 0
366796.0 526385.0 0
375016.0 526899.0 0
378958.0 526347.0 0
382934.0 526142.0 0
386909.0 525931.0 0
390883.0 525710.0 0
394859.0 525510.0 0
398848.0 525495.0 0
122487.0 526860.0 0
126482.0 527055.0 0
130673.0 527127.0 0
134692.0 527029.0 0
163981.0 527405.0 0
168029.0 527459.0 0
172039.0 527513.0 0
176072.0 527534.0 0
180076.0 527540.0 0
184062.0 527569.0 0
188036.0 527600.0 0
192003.0 527630.0 0
195969.0 527654.0 0
199933.0 527671.0 0
203894.0 527679.0 0
207851.0 527675.0 0
211802.0 527656.0 0
215746.0 527620.0 0
219681.0 527568.0 0
223606.0 527502.0 0
227522.0 527432.0 0
231379.0 526849.0 0
266708.0 527226.0 0
270645.0 527275.0 0
274585.0 527323.0 0
278529.0 527369.0 0
282479.0 527414.0 0
286433.0 527457.0 0
290393.0 527497.0 0
294358.0 527535.0 0
298329.0 527569.0 0
302306.0 527599.0 0
306288.0 527626.0 0
310278.0 527640.0 0
314273.0 527645.0 0
318271.0 527640.0 0
322271.0 527628.0 0
326318.0 527583.0 0
330434.0 527489.0 0
334555.0 527385.0 0
338666.0 527277.0 0
371035.0 527178.0 0
101633.0 529563.0 0
105626.0 529472.0 0
109608.0 529680.0 0
113562.0 530179.0 0
117532.0 530500.0 0
121508.0 530714.0 0
125487.0 530897.0 0
129473.0 530914.0 0
133460.0 530787.0 0
137464.0 530400.0 0
141542.0 529712.0 0
145527.0 529797.0 0
149514.0 529764.0 0
153485.0 530139.0 0
157474.0 530288.0 0
161462.0 530505.0 0
165921.0 530845.0 0
169947.0 530911.0 0
173997.0 530945.0 0
178027.0 530960.0 0
182013.0 530980.0 0
185991.0 531013.0 0
189963.0 531046.0 0
193936.0 531073.0 0
197908.0 531094.0 0
201878.0 531109.0 0
205846.0 531113.0 0
209810.0 531104.0 0
213768.0 531080.0 0
217717.0 531039.0 0
221654.0 530983.0 0
225576.0 530916.0 0
229483.0 530852.0 0
233334.0 530303.0 0
237230.0 530329.0 0
241134.0 530362.0 0
245047.0 530405.0 0
248967.0 530454.0 0
252893.0 530506.0 0
256825.0 530558.0 0
260763.0 530610.0 0
264706.0 530660.0 0
268657.0 530719.0 0
272617.0 530780.0 0
276583.0 530837.0 0
280554.0 530893.0 0
284529.0 530946.0 0
288509.0 530997.0 0
292494.0 531045.0 0
296483.0 531088.0 0
300478.0 531128.0 0
304495.0 531176.0 0
308534.0 531214.0 0
312544.0 531226.0 0
316544.0 531223.0 0
320544.0 531210.0 0
324552.0 531150.0 0
328583.0 531013.0 0
332649.0 530880.0 0
336733.0 530759.0 0
340812.0 530639.0 0
344908.0 530526.0 0
349020.0 530408.0 0
353156.0 530294.0 0
357521.0 530248.0 0
361642.0 530241.0 0
365637.0 530334.0 0
369588.0 530872.0 0
373572.0 530594.0 0
377812.0 530160.0 0
381807.0 529961.0 0
385813.0 529758.0 0
389869.0 529560.0 0
394000.0 529439.0 0
398000.0 529462.0 0
102000.0 533554.0 0
106000.0 533481.0 0
110042.0 533646.0 0
114104.0 534131.0 0
118093.0 534448.0 0
138074.0 534348.0 0
142018.0 533709.0 0
146014.0 533766.0 0
150013.0 533763.0 0
154133.0 534084.0 0
158140.0 534230.0 0
162216.0 534430.0 0
166472.0 534766.0 0
222668.0 534816.0 0
226645.0 534732.0 0
230620.0 534645.0 0
234551.0 534090.0 0
238524.0 534088.0 0
242499.0 534097.0 0
246475.0 534119.0 0
250453.0 534148.0 0
254434.0 534180.0 0
258419.0 534212.0 0
262407.0 534242.0 0
266397.0 534273.0 0
270416.0 534304.0 0
274428.0 534340.0 0
278427.0 534379.0 0
282427.0 534420.0 0
286425.0 534461.0 0
290423.0 534502.0 0
294419.0 534542.0 0
334312.0 534513.0 0
338296.0 534435.0 0
342280.0 534354.0 0
346264.0 534281.0 0
350247.0 534209.0 0
354231.0 534139.0 0
358216.0 534175.0 0
362201.0 534195.0 0
366184.0 534343.0 0
374125.0 534534.0 0
378093.0 534137.0 0
382077.0 533938.0 0
386063.0 533737.0 0
390051.0 533543.0 0
394044.0 533438.0 0
398042.0 533462.0 0
122093.0 534655.0 0
126095.0 534829.0 0
130094.0 534848.0 0
134093.0 534706.0 0
170505.0 534831.0 0
174549.0 534867.0 0
178571.0 534884.0 0
182589.0 534895.0 0
186632.0 534914.0 0
190715.0 534931.0 0
194760.0 534944.0 0
198757.0 534960.0 0
202750.0 534970.0 0
206740.0 534970.0 0
210726.0 534957.0 0
214709.0 534928.0 0
218690.0 534882.0 0
298414.0 534582.0 0
302407.0 534624.0 0
306398.0 534689.0 0
310389.0 534751.0 0
314380.0 534773.0 0
318369.0 534775.0 0
322357.0 534769.0 0
326344.0 534720.0 0
330328.0 534608.0 0
370146.0 534810.0 0
102000.0 537554.0 0
106000.0 537481.0 0
109998.0 537638.0 0
113987.0 538121.0 0
117987.0 538439.0 0
121990.0 538643.0 0
125992.0 538814.0 0
129996.0 538836.0 0
133995.0 538686.0 0
137994.0 538343.0 0
141966.0 537713.0 0
145964.0 537766.0 0
149959.0 537763.0 0
153940.0 538078.0 0
157928.0 538224.0 0
161911.0 538416.0 0
165886.0 538697.0 0
169871.0 538755.0 0
173857.0 538783.0 0
177844.0 538796.0 0
181831.0 538795.0 0
185819.0 538803.0 0
189809.0 538803.0 0
193800.0 538802.0 0
197793.0 538818.0 0
201788.0 538828.0 0
205784.0 538830.0 0
209782.0 538821.0 0
213782.0 538797.0 0
217791.0 538759.0 0
221816.0 538704.0 0
225850.0 538631.0 0
229862.0 538547.0 0
233937.0 538033.0 0
237936.0 538030.0 0
241944.0 538045.0 0
245949.0 538072.0 0
249952.0 538106.0 0
253953.0 538142.0 0
257953.0 538177.0 0
261953.0 538212.0 0
265952.0 538244.0 0
269952.0 538273.0 0
273951.0 538308.0 0
277950.0 538347.0 0
281949.0 538387.0 0
285948.0 538428.0 0
289947.0 538469.0 0
293946.0 538510.0 0
297946.0 538550.0 0
301945.0 538593.0 0
305945.0 538661.0 0
309944.0 538723.0 0
313944.0 538746.0 0
317943.0 538748.0 0
321943.0 538743.0 0
325943.0 538697.0 0
329956.0 538588.0 0
333963.0 538495.0 0
337967.0 538418.0 0
341971.0 538339.0 0
345974.0 538267.0 0
349977.0 538195.0 0
353981.0 538127.0 0
357984.0 538160.0 0
361995.0 538186.0 0
366000.0 538346.0 0
369980.0 538791.0 0
373987.0 538517.0 0
377997.0 538128.0 0
381997.0 537929.0 0
385998.0 537728.0 0
389999.0 537534.0 0
394000.0 537439.0 0
398000.0 537462.0 0
102000.0 541554.0 0
106000.0 541481.0 0
110000.0 541635.0 0
114001.0 542118.0 0
138000.0 542341.0 0
142000.0 541713.0 0
146000.0 541766.0 0
150000.0 541766.0 0
154001.0 542077.0 0
158001.0 542224.0 0
230015.0 542532.0 0
234002.0 542027.0 0
238002.0 542023.0 0
242002.0 542038.0 0
246002.0 542066.0 0
250002.0 542101.0 0
254002.0 542137.0 0
258002.0 542174.0 0
262002.0 542210.0 0
266002.0 542241.0 0
270002.0 542271.0 0
274002.0 542306.0 0
278003.0 542345.0 0
342001.0 542337.0 0
346001.0 542265.0 0
350001.0 542193.0 0
354000.0 542124.0 0
358000.0 542156.0 0
362000.0 542183.0 0
378000.0 542124.0 0
382000.0 541924.0 0
386000.0 541723.0 0
390000.0 541530.0 0
394000.0 541439.0 0
398000.0 541462.0 0
118001.0 542435.0 0
122000.0 542638.0 0
126000.0 542807.0 0
130000.0 542830.0 0
134000.0 542676.0 0
162002.0 542415.0 0
166008.0 542682.0 0
170009.0 542741.0 0
174010.0 542769.0 0
178011.0 542781.0 0
182013.0 542778.0 0
186015.0 542785.0 0
190018.0 542785.0 0
194019.0 542784.0 0
198020.0 542799.0 0
202020.0 542809.0 0
206020.0 542811.0 0
210019.0 542803.0 0
214019.0 542780.0 0
218018.0 542743.0 0
222017.0 542689.0 0
226016.0 542618.0 0
282003.0 542385.0 0
286003.0 542426.0 0
290003.0 542467.0 0
294003.0 542508.0 0
298003.0 542548.0 0
302003.0 542590.0 0
306003.0 542659.0 0
310003.0 542721.0 0
314003.0 542744.0 0
318003.0 542746.0 0
322003.0 542741.0 0
326003.0 542695.0 0
330002.0 542586.0 0
334002.0 542493.0 0
338001.0 542417.0 0
366000.0 542346.0 0
370001.0 542782.0 0
374000.0 542510.0 0
POINT_DATA 4650
SCALARS Radius float 1
LOOKUP_TABLE default
4000.0 4000.0 4000.0 4000.0 4000.0 4000.0 4000.0 4000.0 4000.0 4000.0 4000.0 4000.0 4000.0 4000.0 4000.0 4000.0 4000.0 4000.0 4000.0 4000.0 4000.0 4000.0 4000.0 4000.0 4000.0 4000.0 4000.0 4000.0 4000.0 4000.0 4000.0 4000.0 4000.0 4000.0 4000.0 4000.0 4000.0 4000.0 4000.0 4000.0 4000.0 4000.0 4000.0 4000.0 4000.0 4000.0 4000.0 4000.0 4000.0 4000.0 4000.0 4000.0 4000.0 4000.0 4000.0 4000.0 4000.0 4000.0 4000.0 4000.0 4000.0 4000.0 4000.0 4000.0 4000.0 4000.0 4000.0 4000.0 4000.0 4000.0 4000.0 4000.0 4000.0 4000.0 4000.0 4000.0 4000.0 4000.0 4000.0 4000.0 4000.0 4000.0 4000.0 4000.0 4000.0 4000.0 4000.0 4000.0 4000.0 4000.0 4000.0 4000.0 4000.0 4000.0 4000.0 4000.0 4000.0 4000.0 4000.0 4000.0 4000.0 4000.0 4000.0 4000.0 4000.0 4000.0 4000.0 4000.0 4000.0 4000.0 4000.0 4000.0 4000.0 4000.0 4000.0 4000.0 4000.0 4000.0 4000.0 4000.0 4000.0 4000.0 4000.0 4000.0 4000.0 4000.0 4000.0 4000.0 4000.0 4000.0 4000.0 4000.0 4000.0 4000.0 4000.0 4000.0 4000.0 4000.0 4000.0 4000.0 4000.0 4000.0 4000.0 4000.0 4000.0 4000.0 4000.0 4000.0 4000.0 4000.0 4000.0 4000.0 4000.0 4000.0 4000.0 4000.0 4000.0 4000.0 4000.0 4000.0 4000.0 4000.0 4000.0 4000.0 4000.0 4000.0 4000.0 4000.0 4000.0 4000.0 4000.0 4000.0 4000.0 4000.0 4000.0 4000.0 4000.0 4000.0 4000.0 4000.0 4000.0 4000.0 4000.0 4000.0 4000.0 4000.0 4000.0 4000.0 4000.0 4000.0 4000.0 4000.0 4000.0 4000.0 4000.0 4000.0 4000.0 4000.0 4000.0 4000.0 4000.0 4000.0 4000.0 4000.0 4000.0 4000.0 4000.0 4000.0 4000.0 4000.0 4000.0 4000.0 4000.0 4000.0 4000.0 4000.0 4000.0 4000.0 4000.0 4000.0 4000.0 4000.0 4000.0 4000.0 4000.0 4000.0 4000.0 4000.0 4000.0 4000.0 4000.0 4000.0 4000.0 4000.0 4000.0 4000.0 4000.0 4000.0 4000.0 4000.0 4000.0 4000.0 4000.0 4000.0 4000.0 4000.0 4000.0 4000.0 4000.0 4000.0 4000.0 4000.0 4000.0 4000.0 4000.0 4000.0 4000.0 4000.0 4000.0 4000.0 4000.0 4000.0 4000.0 4000.0 4000.0 4000.0 4000.0 4000.0 4000.0 4000.0 4000.0 4000.0 4000.0 4000.0 4000.0 4000.0 4000.0 4000.0 4000.0 4000.0 4000.0 4000.0 4000.0 4000.0 4000.0 4000.0 4000.0 4000.0 4000.0 4000.0 4000.0 4000.0 4000.0 4000.0 4000.0 4000.0 4000.0 4000.0 4000.0 4000.0 4000.0 4000.0 4000.0 4000.0 4000.0 4000.0 4000.0 4000.0 4000.0 4000.0 4000.0 4000.0 4000.0 4000.0 4000.0 4000.0 4000.0 4000.0 4000.0 4000.0 4000.0 4000.0 4000.0 4000.0 4000.0 4000.0 4000.0 4000.0 4000.0 4000.0 4000.0 4000.0 4000.0 4000.0 4000.0 4000.0 4000.0 4000.0 4000.0 4000.0 4000.0 4000.0 4000.0 4000.0 4000.0 4000.0 4000.0 4000.0 4000.0 4000.0 4000.0 4000.0 4000.0 4000.0 4000.0 4000.0 4000.0 4000.0 4000.0 4000.0 4000.0 4000.0 4000.0 4000.0 4000.0 4000.0 4000.0 4000.0 4000.0 4000.0 4000.0 4000.0 4000.0 4000.0 4000.0 4000.0 4000.0 4000.0 4000.0 4000.0 4000.0 4000.0 4000.0 4000.0 4000.0 4000.0 4000.0 4000.0 4000.0 4000.0 4000.0 4000.0 4000.0 4000.0 4000.0 4000.0 4000.0 4000.0 4000.0 4000.0 4000.0 4000.0 4000.0 4000.0 4000.0 4000.0 4000.0 4000.0 4000.0 4000.0 4000.0 4000.0 4000.0 4000.0 4000.0 4000.0 4000.0 4000.0 4000.0 4000.0 4000.0 4000.0 4000.0 4000.0 4000.0 4000.0 4000.0 4000.0 4000.0 4000.0 4000.0 4000.0 4000.0 4000.0 4000.0 4000.0 4000.0 4000.0 4000.0 4000.0 4000.0 4000.0 4000.0 4000.0 4000.0 4000.0 4000.0 4000.0 4000.0 4000.0 4000.0 4000.0 4000.0 4000.0 4000.0 4000.0 4000.0 4000.0 4000.0 4000.0 4000.0 4000.0 4000.0 4000.0 4000.0 4000.0 4000.0 4000.0 4000.0 4000.0 4000.0 4000.0 4000.0 4000.0 4000.0 4000.0 4000.0 4000.0 4000.0 4000.0 4000.0 4000.0 4000.0 4000.0 4000.0 4000.0 4000.0 4000.0 4000.0 4000.0 4000.0 4000.0 4000.0 4000.0 4000.0 4000.0 4000.0 4000.0 4000.0 4000.0 4000.0 4000.0 4000.0 4000.0 4000.0 4000.0 4000.0 4000.0 4000.0 4000.0 4000.0 4000.0 4000.0 4000.0 4000.0 4000.0 4000.0 4000.0 4000.0 4000.0 4000.0 4000.0 4000.0 4000.0 4000.0 4000.0 4000.0 4000.0 4000.0 4000.0 4000.0 4000.0 4000.0 4000.0 4000.0 4000.0 4000.0 4000.0 4000.0 4000.0 4000.0 4000.0 4000.0 4000.0 4000.0 4000.0 4000.0 4000.0 4000.0 4000.0 4000.0 4000.0 4000.0 4000.0 4000.0 4000.0 4000.0 4000.0 4000.0 4000.0 4000.0 4000.0 4000.0 4000.0 4000.0 4000.0 4000.0 4000.0 4000.0 4000.0 4000.0 4000.0 4000.0 4000.0 4000.0 4000.0 4000.0 4000.0 4000.0 4000.0 4000.0 4000.0 4000.0 4000.0 4000.0 4000.0 4000.0 4000.0 4000.0 4000.0 4000.0 4000.0 4000.0 4000.0 4000.0 4000.0 4000.0 4000.0 4000.0 4000.0 4000.0 4000.0 4000.0 4000.0 4000.0 4000.0 4000.0 4000.0 4000.0 4000.0 4000.0 4000.0 4000.0 4000.0 4000.0 4000.0 4000.0 4000.0 4000.0 4000.0 4000.0 4000.0 4000.0 4000.0 4000.0 4000.0 4000.0 4000.0 4000.0 4000.0 4000.0 4000.0 4000.0 4000.0 4000.0 4000.0 4000.0 4000.0 4000.0 4000.0 4000.0 4000.0 4000.0 4000.0 4000.0 4000.0 4000.0 4000.0 4000.0 4000.0 4000.0 4000.0 4000.0 4000.0 4000.0 4000.0 4000.0 4000.0 4000.0 4000.0 4000.0 4000.0 4000.0 4000.0 4000.0 4000.0 4000.0 4000.0 4000.0 4000.0 4000.0 4000.0 4000.0 4000.0 4000.0 4000.0 4000.0 4000.0 4000.0 4000.0 4000.0 4000.0 4000.0 4000.0 4000.0 4000.0 4000.0 4000.0 4000.0 4000.0 4000.0 4000.0 4000.0 4000.0 4000.0 4000.0 4000.0 4000.0 4000.0 4000.0 4000.0 4000.0 4000.0 4000.0 4000.0 4000.0 4000.0 4000.0 4000.0 4000.0 4000.0 4000.0 4000.0 4000.0 4000.0 4000.0 4000.0 4000.0 4000.0 4000.0 4000.0 4000.0 4000.0 4000.0 4000.0 4000.0 4000.0 4000.0 4000.0 4000.0 4000.0 4000.0 4000.0 4000.0 4000.0 4000.0 4000.0 4000.0 4000.0 4000.0 4000.0 4000.0 4000.0 4000.0 4000.0 4000.0 4000.0 4000.0 4000.0 4000.0 4000.0 4000.0 4000.0 4000.0 4000.0 4000.0 4000.0 4000.0 4000.0 4000.0 4000.0 4000.0 4000.0 4000.0 4000.0 4000.0 4000.0 4000.0 4000.0 4000.0 4000.0 4000.0 4000.0 4000.0 4000.0 4000.0 4000.0 4000.0 4000.0 4000.0 4000.0 4000.0 4000.0 4000.0 4000.0 4000.0 4000.0 4000.0 4000.0 4000.0 4000.0 4000.0 4000.0 4000.0 4000.0 4000.0 4000.0 4000.0 4000.0 4000.0 4000.0 4000.0 4000.0 4000.0 4000.0 4000.0 4000.0 4000.0 4000.0 4000.0 4000.0 4000.0 4000.0 4000.0 4000.0 4000.0 4000.0 4000.0 4000.0 4000.0 4000.0 4000.0 4000.0 4000.0 4000.0 4000.0 4000.0 4000.0 4000.0 4000.0 4000.0 4000.0 4000.0 4000.0 4000.0 4000.0 4000.0 4000.0 4000.0 4000.0 4000.0 4000.0 4000.0 4000.0 4000.0 4000.0 4000.0 4000.0 4000.0 4000.0 4000.0 4000.0 4000.0 4000.0 4000.0 4000.0 4000.0 4000.0 4000.0 4000.0 4000.0 4000.0 4000.0 4000.0 4000.0 4000.0 4000.0 4000.0 4000.0 4000.0 4000.0 4000.0 4000.0 4000.0 4000.0 4000.0 4000.0 4000.0 4000.0 4000.0 4000.0 4000.0 4000.0 4000.0 4000.0 4000.0 4000.0 4000.0 4000.0 4000.0 4000.0 4000.0 4000.0 4000.0 4000.0 4000.0 4000.0 4000.0 4000.0 4000.0 4000.0 4000.0 4000.0 4000.0 4000.0 4000.0 4000.0 4000.0 4000.0 4000.0 4000.0 4000.0 4000.0 4000.0 4000.0 4000.0 4000.0 4000.0 4000.0 4000.0 4000.0 4000.0 4000.0 4000.0 4000.0 4000.0 4000.0 4000.0 4000.0 4000.0 4000.0 4000.0 4000.0 4000.0 4000.0 4000.0 4000.0 4000.0 4000.0 4000.0 4000.0 4000.0 4000.0 4000.0 4000.0 4000.0 4000.0 4000.0 4000.0 4000.0 4000.0 4000.0 4000.0 4000.0 4000.0 4000.0 4000.0 4000.0 4000.0 4000.0 4000.0 4000.0 4000.0 4000.0 4000.0 4000.0 4000.0 4000.0 4000.0 4000.0 4000.0 4000.0 4000.0 4000.0 4000.0 4000.0 4000.0 4000.0 4000.0 4000.0 4000.0 4000.0 4000.0 4000.0 4000.0 4000.0 4000.0 4000.0 4000.0 4000.0 4000.0 4000.0 4000.0 4000.0 4000.0 4000.0 4000.0 4000.0 4000.0 4000.0 4000.0 4000.0 4000.0 4000.0 4000.0 4000.0 4000.0 4000.0 4000.0 4000.0 4000.0 4000.0 4000.0 4000.0 4000.0 4000.0 4000.0 4000.0 4000.0 4000.0 4000.0 4000.0 4000.0 4000.0 4000.0 4000.0 4000.0 4000.0 4000.0 4000.0 4000.0 4000.0 4000.0 4000.0 4000.0 4000.0 4000.0 4000.0 4000.0 4000.0 4000.0 4000.0 4000.0 4000.0 4000.0 4000.0 4000.0 4000.0 4000.0 4000.0 4000.0 4000.0 4000.0 4000.0 4000.0 4000.0 4000.0 4000.0 4000.0 4000.0 4000.0 4000.0 4000.0 4000.0 4000.0 4000.0 4000.0 4000.0 4000.0 4000.0 4000.0 4000.0 4000.0 4000.0 4000.0 4000.0 4000.0 4000.0 4000.0 4000.0 4000.0 4000.0 4000.0 4000.0 4000.0 4000.0 4000.0 4000.0 4000.0 4000.0 4000.0 4000.0 4000.0 4000.0 4000.0 4000.0 4000.0 4000.0 4000.0 4000.0 4000.0 4000.0 4000.0 4000.0 4000.0 4000.0 4000.0 4000.0 4000.0 4000.0 4000.0 4000.0 4000.0 4000.0 4000.0 4000.0 4000.0 4000.0 4000.0 4000.0 4000.0 4000.0 4000.0 4000.0 4000.0 4000.0 4000.0 4000.0 4000.0 4000.0 4000.0 4000.0 4000.0 4000.0 4000.0 4000.0 4000.0 4000.0 4000.0 4000.0 4000.0 4000.0 4000.0 4000.0 4000.0 4000.0 4000.0 4000.0 4000.0 4000.0 4000.0 4000.0 4000.0 4000.0 4000.0 4000.0 4000.0 4000.0 4000.0 4000.0 4000.0 4000.0 4000.0 4000.0 4000.0 4000.0 4000.0 4000.0 4000.0 4000.0 4000.0 4000.0 4000.0 4000.0 4000.0 4000.0 4000.0 4000.0 4000.0 4000.0 4000.0 4000.0 4000.0 4000.0 4000.0 4000.0 4000.0 4000.0 4000.0 4000.0 4000.0 4000.0 4000.0 4000.0 4000.0 4000.0 4000.0 4000.0 4000.0 4000.0 4000.0 4000.0 4000.0 4000.0 4000.0 4000.0 4000.0 4000.0 4000.0 4000.0 4000.0 4000.0 4000.0 4000.0 4000.0 4000.0 4000.0 4000.0 4000.0 4000.0 4000.0 4000.0 4000.0 4000.0 4000.0 4000.0 4000.0 4000.0 4000.0 4000.0 4000.0 4000.0 4000.0 4000.0 4000.0 4000.0 4000.0 4000.0 4000.0 4000.0 4000.0 4000.0 4000.0 4000.0 4000.0 4000.0 4000.0 4000.0 4000.0 4000.0 4000.0 4000.0 4000.0 4000.0 4000.0 4000.0 4000.0 4000.0 4000.0 4000.0 4000.0 4000.0 4000.0 4000.0 4000.0 4000.0 4000.0 4000.0 4000.0 4000.0 4000.0 4000.0 4000.0 4000.0 4000.0 4000.0 4000.0 4000.0 4000.0 4000.0 4000.0 4000.0 4000.0 4000.0 4000.0 4000.0 4000.0 4000.0 4000.0 4000.0 4000.0 4000.0 4000.0 4000.0 4000.0 4000.0 4000.0 4000.0 4000.0 4000.0 4000.0 4000.0 4000.0 4000.0 4000.0 4000.0 4000.0 4000.0 4000.0 4000.0 4000.0 4000.0 4000.0 4000.0 4000.0 4000.0 4000.0 4000.0 4000.0 4000.0 4000.0 4000.0 4000.0 4000.0 4000.0 4000.0 4000.0 4000.0 4000.0 4000.0 4000.0 4000.0 4000.0 4000.0 4000.0 4000.0 4000.0 4000.0 4000.0 4000.0 4000.0 4000.0 4000.0 4000.0 4000.0 4000.0 4000.0 4000.0 4000.0 4000.0 4000.0 4000.0 4000.0 4000.0 4000.0 4000.0 4000.0 4000.0 4000.0 4000.0 4000.0 4000.0 4000.0 4000.0 4000.0 4000.0 4000.0 4000.0 4000.0 4000.0 4000.0 4000.0 4000.0 4000.0 4000.0 4000.0 4000.0 4000.0 4000.0 4000.0 4000.0 4000.0 4000.0 4000.0 4000.0 4000.0 4000.0 4000.0 4000.0 4000.0 4000.0 4000.0 4000.0 4000.0 4000.0 4000.0 4000.0 4000.0 4000.0 4000.0 4000.0 4000.0 4000.0 4000.0 4000.0 4000.0 4000.0 4000.0 4000.0 4000.0 4000.0 4000.0 4000.0 4000.0 4000.0 4000.0 4000.0 4000.0 4000.0 4000.0 4000.0 4000.0 4000.0 4000.0 4000.0 4000.0 4000.0 4000.0 4000.0 4000.0 4000.0 4000.0 4000.0 4000.0 4000.0 4000.0 4000.0 4000.0 4000.0 4000.0 4000.0 4000.0 4000.0 4000.0 4000.0 4000.0 4000.0 4000.0 4000.0 4000.0 4000.0 4000.0 4000.0 4000.0 4000.0 4000.0 4000.0 4000.0 4000.0 4000.0 4000.0 4000.0 4000.0 4000.0 4000.0 4000.0 4000.0 4000.0 4000.0 4000.0 4000.0 4000.0 4000.0 4000.0 4000.0 4000.0 4000.0 4000.0 4000.0 4000.0 4000.0 4000.0 4000.0 4000.0 4000.0 4000.0 4000.0 4000.0 4000.0 4000.0 4000.0 4000.0 4000.0 4000.0 4000.0 4000.0 4000.0 4000.0 4000.0 4000.0 4000.0 4000.0 4000.0 4000.0 4000.0 4000.0 4000.0 4000.0 4000.0 4000.0 4000.0 4000.0 4000.0 4000.0 4000.0 4000.0 4000.0 4000.0 4000.0 4000.0 4000.0 4000.0 4000.0 4000.0 4000.0 4000.0 4000.0 4000.0 4000.0 4000.0 4000.0 4000.0 4000.0 4000.0 4000.0 4000.0 4000.0 4000.0 4000.0 4000.0 4000.0 4000.0 4000.0 4000.0 4000.0 4000.0 4000.0 4000.0 4000.0 4000.0 4000.0 4000.0 4000.0 4000.0 4000.0 4000.0 4000.0 4000.0 4000.0 4000.0 4000.0 4000.0 4000.0 4000.0 4000.0 4000.0 4000.0 4000.0 4000.0 4000.0 4000.0 4000.0 4000.0 4000.0 4000.0 4000.0 4000.0 4000.0 4000.0 4000.0 4000.0 4000.0 4000.0 4000.0 4000.0 4000.0 4000.0 4000.0 4000.0 4000.0 4000.0 4000.0 4000.0 4000.0 4000.0 4000.0 4000.0 4000.0 4000.0 4000.0 4000.0 4000.0 4000.0 4000.0 4000.0 4000.0 4000.0 4000.0 4000.0 4000.0 4000.0 4000.0 4000.0 4000.0 4000.0 4000.0 4000.0 4000.0 4000.0 4000.0 4000.0 4000.0 4000.0 4000.0 4000.0 4000.0 4000.0 4000.0 4000.0 4000.0 4000.0 4000.0 4000.0 4000.0 4000.0 4000.0 4000.0 4000.0 4000.0 4000.0 4000.0 4000.0 4000.0 4000.0 4000.0 4000.0 4000.0 4000.0 4000.0 4000.0 4000.0 4000.0 4000.0 4000.0 4000.0 4000.0 4000.0 4000.0 4000.0 4000.0 4000.0 4000.0 4000.0 4000.0 4000.0 4000.0 4000.0 4000.0 4000.0 4000.0 4000.0 4000.0 4000.0 4000.0 4000.0 4000.0 4000.0 4000.0 4000.0 4000.0 4000.0 4000.0 4000.0 4000.0 4000.0 4000.0 4000.0 4000.0 4000.0 4000.0 4000.0 4000.0 4000.0 4000.0 4000.0 4000.0 4000.0 4000.0 4000.0 4000.0 4000.0 4000.0 4000.0 4000.0 4000.0 4000.0 4000.0 4000.0 4000.0 4000.0 4000.0 4000.0 4000.0 4000.0 4000.0 4000.0 4000.0 4000.0 4000.0 4000.0 4000.0 4000.0 4000.0 4000.0 4000.0 4000.0 4000.0 4000.0 4000.0 4000.0 4000.0 4000.0 4000.0 4000.0 4000.0 4000.0 4000.0 4000.0 4000.0 4000.0 4000.0 4000.0 4000.0 4000.0 4000.0 4000.0 4000.0 4000.0 4000.0 4000.0 4000.0 4000.0 4000.0 4000.0 4000.0 4000.0 4000.0 4000.0 4000.0 4000.0 4000.0 4000.0 4000.0 4000.0 4000.0 4000.0 4000.0 4000.0 4000.0 4000.0 4000.0 4000.0 4000.0 4000.0 4000.0 4000.0 4000.0 4000.0 4000.0 4000.0 4000.0 4000.0 4000.0 4000.0 4000.0 4000.0 4000.0 4000.0 4000.0 4000.0 4000.0 4000.0 4000.0 4000.0 4000.0 4000.0 4000.0 4000.0 4000.0 4000.0 4000.0 4000.0 4000.0 4000.0 4000.0 4000.0 4000.0 4000.0 4000.0 4000.0 4000.0 4000.0 4000.0 4000.0 4000.0 4000.0 4000.0 4000.0 4000.0 4000.0 4000.0 4000.0 4000.0 4000.0 4000.0 4000.0 4000.0 4000.0 4000.0 4000.0 4000.0 4000.0 4000.0 4000.0 4000.0 4000.0 4000.0 4000.0 4000.0 4000.0 4000.0 4000.0 4000.0 4000.0 4000.0 4000.0 4000.0 4000.0 4000.0 4000.0 4000.0 4000.0 4000.0 4000.0 4000.0 4000.0 4000.0 4000.0 4000.0 4000.0 4000.0 4000.0 4000.0 4000.0 4000.0 4000.0 4000.0 4000.0 4000.0 4000.0 4000.0 4000.0 4000.0 4000.0 4000.0 4000.0 4000.0 4000.0 4000.0 4000.0 4000.0 4000.0 4000.0 4000.0 4000.0 4000.0 4000.0 4000.0 4000.0 4000.0 4000.0 4000.0 4000.0 4000.0 4000.0 4000.0 4000.0 4000.0 4000.0 4000.0 4000.0 4000.0 4000.0 4000.0 4000.0 4000.0 4000.0 4000.0 4000.0 4000.0 4000.0 4000.0 4000.0 4000.0 4000.0 4000.0 4000.0 4000.0 4000.0 4000.0 4000.0 4000.0 4000.0 4000.0 4000.0 4000.0 4000.0 4000.0 4000.0 4000.0 4000.0 4000.0 4000.0 4000.0 4000.0 4000.0 4000.0 4000.0 4000.0 4000.0 4000.0 4000.0 4000.0 4000.0 4000.0 4000.0 4000.0 4000.0 4000.0 4000.0 4000.0 4000.0 4000.0 4000.0 4000.0 4000.0 4000.0 4000.0 4000.0 4000.0 4000.0 4000.0 4000.0 4000.0 4000.0 4000.0 4000.0 4000.0 4000.0 4000.0 4000.0 4000.0 4000.0 4000.0 4000.0 4000.0 4000.0 4000.0 4000.0 4000.0 4000.0 4000.0 4000.0 4000.0 4000.0 4000.0 4000.0 4000.0 4000.0 4000.0 4000.0 4000.0 4000.0 4000.0 4000.0 4000.0 4000.0 4000.0 4000.0 4000.0 4000.0 4000.0 4000.0 4000.0 4000.0 4000.0 4000.0 4000.0 4000.0 4000.0 4000.0 4000.0 4000.0 4000.0 4000.0 4000.0 4000.0 4000.0 4000.0 4000.0 4000.0 4000.0 4000.0 4000.0 4000.0 4000.0 4000.0 4000.0 4000.0 4000.0 4000.0 4000.0 4000.0 4000.0 4000.0 4000.0 4000.0 4000.0 4000.0 4000.0 4000.0 4000.0 4000.0 4000.0 4000.0 4000.0 4000.0 4000.0 4000.0 4000.0 4000.0 4000.0 4000.0 4000.0 4000.0 4000.0 4000.0 4000.0 4000.0 4000.0 4000.0 4000.0 4000.0 4000.0 4000.0 4000.0 4000.0 4000.0 4000.0 4000.0 4000.0 4000.0 4000.0 4000.0 4000.0 4000.0 4000.0 4000.0 4000.0 4000.0 4000.0 4000.0 4000.0 4000.0 4000.0 4000.0 4000.0 4000.0 4000.0 4000.0 4000.0 4000.0 4000.0 4000.0 4000.0 4000.0 4000.0 4000.0 4000.0 4000.0 4000.0 4000.0 4000.0 4000.0 4000.0 4000.0 4000.0 4000.0 4000.0 4000.0 4000.0 4000.0 4000.0 4000.0 4000.0 4000.0 4000.0 4000.0 4000.0 4000.0 4000.0 4000.0 4000.0 4000.0 4000.0 4000.0 4000.0 4000.0 4000.0 4000.0 4000.0 4000.0 4000.0 4000.0 4000.0 4000.0 4000.0 4000.0 4000.0 4000.0 4000.0 4000.0 4000.0 4000.0 4000.0 4000.0 4000.0 4000.0 4000.0 4000.0 4000.0 4000.0 4000.0 4000.0 4000.0 4000.0 4000.0 4000.0 4000.0 4000.0 4000.0 4000.0 4000.0 4000.0 4000.0 4000.0 4000.0 4000.0 4000.0 4000.0 4000.0 4000.0 4000.0 4000.0 4000.0 4000.0 4000.0 4000.0 4000.0 4000.0 4000.0 4000.0 4000.0 4000.0 4000.0 4000.0 4000.0 4000.0 4000.0 4000.0 4000.0 4000.0 4000.0 4000.0 4000.0 4000.0 4000.0 4000.0 4000.0 4000.0 4000.0 4000.0 4000.0 4000.0 4000.0 4000.0 4000.0 4000.0 4000.0 4000.0 4000.0 4000.0 4000.0 4000.0 4000.0 4000.0 4000.0 4000.0 4000.0 4000.0 4000.0 4000.0 4000.0 4000.0 4000.0 4000.0 4000.0 4000.0 4000.0 4000.0 4000.0 4000.0 4000.0 4000.0 4000.0 4000.0 4000.0 4000.0 4000.0 4000.0 4000.0 4000.0 4000.0 4000.0 4000.0 4000.0 4000.0 4000.0 4000.0 4000.0 4000.0 4000.0 4000.0 4000.0 4000.0 4000.0 4000.0 4000.0 4000.0 4000.0 4000.0 4000.0 4000.0 4000.0 4000.0 4000.0 4000.0 4000.0 4000.0 4000.0 4000.0 4000.0 4000.0 4000.0 4000.0 4000.0 4000.0 4000.0 4000.0 4000.0 4000.0 4000.0 4000.0 4000.0 4000.0 4000.0 4000.0 4000.0 4000.0 4000.0 4000.0 4000.0 4000.0 4000.0 4000.0 4000.0 4000.0 4000.0 4000.0 4000.0 4000.0 4000.0 4000.0 4000.0 4000.0 4000.0 4000.0 4000.0 4000.0 4000.0 4000.0 4000.0 4000.0 4000.0 4000.0 4000.0 4000.0 4000.0 4000.0 4000.0 4000.0 4000.0 4000.0 4000.0 4000.0 4000.0 4000.0 4000.0 4000.0 4000.0 4000.0 4000.0 4000.0 4000.0 4000.0 4000.0 4000.0 4000.0 4000.0 4000.0 4000.0 4000.0 4000.0 4000.0 4000.0 4000.0 4000.0 4000.0 4000.0 4000.0 4000.0 4000.0 4000.0 4000.0 4000.0 4000.0 4000.0 4000.0 4000.0 4000.0 4000.0 4000.0 4000.0 4000.0 4000.0 4000.0 4000.0 4000.0 4000.0 4000.0 4000.0 4000.0 4000.0 4000.0 4000.0 4000.0 4000.0 4000.0 4000.0 4000.0 4000.0 4000.0 4000.0 4000.0 4000.0 4000.0 4000.0 4000.0 4000.0 4000.0 4000.0 4000.0 4000.0 4000.0 4000.0 4000.0 4000.0 4000.0 4000.0 4000.0 4000.0 4000.0 4000.0 4000.0 4000.0 4000.0 4000.0 4000.0 4000.0 4000.0 4000.0 4000.0 4000.0 4000.0 4000.0 4000.0 4000.0 4000.0 4000.0 4000.0 4000.0 4000.0 4000.0 4000.0 4000.0 4000.0 4000.0 4000.0 4000.0 4000.0 4000.0 4000.0 4000.0 4000.0 4000.0 4000.0 4000.0 4000.0 4000.0 4000.0 4000.0 4000.0 4000.0 4000.0 4000.0 4000.0 4000.0 4000.0 4000.0 4000.0 4000.0 4000.0 4000.0 4000.0 4000.0 4000.0 4000.0 4000.0 4000.0 4000.0 4000.0 4000.0 4000.0 4000.0 4000.0 4000.0 4000.0 4000.0 4000.0 4000.0 4000.0 4000.0 4000.0 4000.0 4000.0 4000.0 4000.0 4000.0 4000.0 4000.0 4000.0 4000.0 4000.0 4000.0 4000.0 4000.0 4000.0 4000.0 4000.0 4000.0 4000.0 4000.0 4000.0 4000.0 4000.0 4000.0 4000.0 4000.0 4000.0 4000.0 4000.0 4000.0 4000.0 4000.0 4000.0 4000.0 4000.0 4000.0 4000.0 4000.0 4000.0 4000.0 4000.0 4000.0 4000.0 4000.0 4000.0 4000.0 4000.0 4000.0 4000.0 4000.0 4000.0 4000.0 4000.0 4000.0 4000.0 4000.0 4000.0 4000.0 4000.0 4000.0 4000.0 4000.0 4000.0 4000.0 4000.0 4000.0 4000.0 4000.0 4000.0 4000.0 4000.0 4000.0 4000.0 4000.0 4000.0 4000.0 4000.0 4000.0 4000.0 4000.0 4000.0 4000.0 4000.0 4000.0 4000.0 4000.0 4000.0 4000.0 4000.0 4000.0 4000.0 4000.0 4000.0 4000.0 4000.0 4000.0 4000.0 4000.0 4000.0 4000.0 4000.0 4000.0 4000.0 4000.0 4000.0 4000.0 4000.0 4000.0 4000.0 4000.0 4000.0 4000.0 4000.0 4000.0 4000.0 4000.0 4000.0 4000.0 4000.0 4000.0 4000.0 4000.0 4000.0 4000.0 4000.0 4000.0 4000.0 4000.0 4000.0 4000.0 4000.0 4000.0 4000.0 4000.0 4000.0 4000.0 4000.0 4000.0 4000.0 4000.0 4000.0 4000.0 4000.0 4000.0 4000.0 4000.0 4000.0 4000.0 4000.0 4000.0 4000.0 4000.0 4000.0 4000.0 4000.0 4000.0 4000.0 4000.0 4000.0 4000.0 4000.0 4000.0 4000.0 4000.0 4000.0 4000.0 4000.0 4000.0 4000.0 4000.0 4000.0 4000.0 4000.0 4000.0 4000.0 4000.0 4000.0 4000.0 4000.0 4000.0 4000.0 4000.0 4000.0 4000.0 4000.0 4000.0 4000.0 4000.0 4000.0 4000.0 4000.0 4000.0 4000.0 4000.0 4000.0 4000.0 4000.0 4000.0 4000.0 4000.0 4000.0 4000.0 4000.0 4000.0 4000.0 4000.0 4000.0 4000.0 4000.0 4000.0 4000.0 4000.0 4000.0 4000.0 4000.0 4000.0 4000.0 4000.0 4000.0 4000.0 4000.0 4000.0 4000.0 4000.0 4000.0 4000.0 4000.0 4000.0 4000.0 4000.0 4000.0 4000.0 4000.0 4000.0 4000.0 4000.0 4000.0 4000.0 4000.0 4000.0 4000.0 4000.0 4000.0 4000.0 4000.0 4000.0 4000.0 4000.0 4000.0 4000.0 4000.0 4000.0 4000.0 4000.0 4000.0 4000.0 4000.0 4000.0 4000.0 4000.0 4000.0 4000.0 4000.0 4000.0 4000.0 4000.0 4000.0 4000.0 4000.0 4000.0 4000.0 4000.0 4000.0 4000.0 4000.0 4000.0 4000.0 4000.0 4000.0 4000.0 4000.0 4000.0 4000.0 4000.0 4000.0 4000.0 4000.0 4000.0 4000.0 4000.0 4000.0 4000.0 4000.0 4000.0 4000.0 4000.0 4000.0 4000.0 4000.0 4000.0 4000.0 4000.0 4000.0 4000.0 4000.0 4000.0 4000.0 4000.0 4000.0 4000.0 4000.0 4000.0 4000.0 4000.0 4000.0 4000.0 4000.0 4000.0 4000.0 4000.0 4000.0 4000.0 4000.0 4000.0 4000.0 4000.0 4000.0 4000.0 4000.0 4000.0 4000.0 4000.0 4000.0 4000.0 4000.0 4000.0 4000.0 4000.0 4000.0 4000.0 4000.0 4000.0 4000.0 4000.0 4000.0 4000.0 4000.0 4000.0 4000.0 4000.0 4000.0 4000.0 4000.0 4000.0 4000.0 4000.0 4000.0 4000.0 4000.0 4000.0 4000.0 4000.0 4000.0 4000.0 4000.0 4000.0 4000.0 4000.0 4000.0 4000.0 4000.0 4000.0 4000.0 4000.0 4000.0 4000.0 4000.0 4000.0 4000.0 4000.0 4000.0 4000.0 4000.0 4000.0 4000.0 4000.0 4000.0 4000.0 4000.0 4000.0 4000.0 4000.0 4000.0 4000.0 4000.0 4000.0 4000.0 4000.0 4000.0 4000.0 4000.0 4000.0 4000.0 4000.0 4000.0 4000.0 4000.0 4000.0 4000.0 4000.0 4000.0 4000.0 4000.0 4000.0 4000.0 4000.0 4000.0 4000.0 4000.0 4000.0 4000.0 4000.0 4000.0 4000.0 4000.0 4000.0 4000.0 4000.0 4000.0 4000.0 4000.0 4000.0 4000.0 4000.0 4000.0 4000.0 4000.0 4000.0 4000.0 4000.0 4000.0 4000.0 4000.0 4000.0 4000.0 4000.0 4000.0 4000.0 4000.0 4000.0 4000.0 4000.0 4000.0 4000.0 4000.0 4000.0 4000.0 4000.0 4000.0 4000.0 4000.0 4000.0 4000.0 4000.0 4000.0 4000.0 4000.0 4000.0 4000.0 4000.0 4000.0 4000.0 4000.0 4000.0 4000.0 4000.0 4000.0 4000.0 4000.0 4000.0 4000.0 4000.0 4000.0 4000.0 4000.0 4000.0 4000.0 4000.0 4000.0 4000.0 4000.0 4000.0 4000.0 4000.0 4000.0 4000.0 4000.0 4000.0 4000.0 4000.0 4000.0 4000.0 4000.0 4000.0 4000.0 4000.0 4000.0 4000.0 4000.0 4000.0 4000.0 4000.0 4000.0 4000.0 4000.0 4000.0 4000.0 4000.0 4000.0 4000.0 4000.0 4000.0 4000.0 4000.0 4000.0 4000.0 4000.0 4000.0 4000.0 4000.0 4000.0 4000.0 4000.0 4000.0 4000.0 4000.0 4000.0 4000.0 4000.0 4000.0 4000.0 4000.0 4000.0 4000.0 4000.0 4000.0 4000.0 4000.0 4000.0 4000.0 4000.0 4000.0 4000.0 4000.0 4000.0 4000.0 4000.0 4000.0 4000.0 4000.0 4000.0 4000.0 4000.0 4000.0 4000.0 4000.0 4000.0 4000.0 4000.0 4000.0 4000.0 4000.0 4000.0 4000.0 4000.0 4000.0 4000.0 4000.0 4000.0 4000.0 4000.0 4000.0 4000.0 4000.0 4000.0 4000.0 4000.0 4000.0 4000.0 4000.0 4000.0 4000.0 4000.0 4000.0 4000.0 4000.0 4000.0 4000.0 4000.0 4000.0 4000.0 4000.0 4000.0 4000.0 4000.0 4000.0 4000.0 4000.0 4000.0 4000.0 4000.0 4000.0 4000.0 4000.0 4000.0 4000.0 4000.0 4000.0 4000.0 4000.0 4000.0 4000.0 4000.0 4000.0 4000.0 4000.0 4000.0 4000.0 4000.0 4000.0 4000.0 4000.0 4000.0 4000.0 4000.0 4000.0 4000.0 4000.0 4000.0 4000.0 4000.0 4000.0 4000.0 4000.0 4000.0 4000.0 4000.0 4000.0 4000.0 4000.0 4000.0 4000.0 4000.0 4000.0 4000.0 4000.0 4000.0 4000.0 4000.0 4000.0 4000.0 4000.0 4000.0 4000.0 4000.0 4000.0 4000.0 4000.0 4000.0 4000.0 4000.0 4000.0 4000.0 4000.0 4000.0 4000.0 4000.0 4000.0 4000.0 4000.0 4000.0 4000.0 4000.0 4000.0 4000.0 4000.0 4000.0 4000.0 4000.0 4000.0 4000.0 4000.0 4000.0 4000.0 4000.0 4000.0 4000.0 4000.0 4000.0 4000.0 4000.0 4000.0 4000.0 4000.0 4000.0 4000.0 4000.0 4000.0 4000.0 4000.0 4000.0 4000.0 4000.0 4000.0 4000.0 4000.0 4000.0 4000.0 4000.0 4000.0 4000.0 4000.0 4000.0 4000.0 4000.0 4000.0 4000.0 4000.0 4000.0 4000.0 4000.0 4000.0 4000.0 4000.0 4000.0 4000.0 4000.0 4000.0 4000.0 4000.0 4000.0 4000.0 4000.0 4000.0 4000.0 4000.0 4000.0 4000.0 4000.0 4000.0 4000.0 4000.0 4000.0 4000.0 4000.0 4000.0 4000.0 4000.0 4000.0 4000.0 4000.0 4000.0 4000.0 4000.0 4000.0 4000.0 4000.0 4000.0 4000.0 4000.0 4000.0 4000.0 4000.0 4000.0 4000.0 4000.0 4000.0 4000.0 4000.0 4000.0 4000.0 4000.0 4000.0 4000.0 4000.0 4000.0 4000.0 4000.0 4000.0 4000.0 4000.0 4000.0 4000.0 4000.0 4000.0 4000.0 4000.0 4000.0 4000.0 4000.0 4000.0 4000.0 4000.0 4000.0 4000.0 4000.0 4000.0 4000.0 4000.0 4000.0 4000.0 4000.0 4000.0 4000.0 4000.0 4000.0 4000.0 4000.0 4000.0 4000.0 4000.0 4000.0 4000.0 4000.0 4000.0 4000.0 4000.0 4000.0 4000.0 4000.0 4000.0 4000.0 4000.0 4000.0 4000.0 4000.0 4000.0 4000.0 4000.0 4000.0 4000.0 4000.0 4000.0 4000.0 4000.0 4000.0 4000.0 4000.0 4000.0 4000.0 4000.0 4000.0 4000.0 4000.0 4000.0 4000.0 4000.0 4000.0 4000.0 4000.0 4000.0 4000.0 4000.0 4000.0 4000.0 4000.0 4000.0 4000.0 4000.0 4000.0 4000.0 4000.0 4000.0 4000.0 4000.0 4000.0 4000.0 4000.0 4000.0 4000.0 4000.0 4000.0 4000.0 4000.0 4000.0 4000.0 4000.0 4000.0 4000.0 4000.0 4000.0 4000.0 4000.0 4000.0 4000.0 4000.0 4000.0 4000.0 4000.0 4000.0 4000.0 4000.0 4000.0 4000.0 4000.0 4000.0 4000.0 4000.0 4000.0 4000.0 4000.0 4000.0 4000.0 4000.0 4000.0 4000.0 4000.0 4000.0 4000.0 4000.0 4000.0 4000.0 4000.0 4000.0 4000.0 4000.0 4000.0 4000.0 4000.0 4000.0 4000.0 4000.0 4000.0 4000.0 4000.0 4000.0 4000.0 4000.0 4000.0 4000.0 4000.0 4000.0 4000.0 4000.0 4000.0 4000.0 4000.0 4000.0 4000.0 4000.0 4000.0 4000.0 4000.0 4000.0 4000.0 4000.0 4000.0 4000.0 4000.0 4000.0 4000.0 4000.0 4000.0 4000.0 4000.0 4000.0 4000.0 4000.0 4000.0 4000.0 4000.0 4000.0 4000.0 4000.0 4000.0 4000.0 4000.0 4000.0 4000.0 4000.0 4000.0 4000.0 4000.0 4000.0 4000.0 4000.0 4000.0 4000.0 4000.0 4000.0 4000.0 4000.0 4000.0 4000.0 4000.0 4000.0 4000.0 4000.0 4000.0 4000.0 4000.0 4000.0 4000.0 4000.0 4000.0 4000.0 4000.0 4000.0 4000.0 4000.0 4000.0 4000.0 4000.0 4000.0 4000.0 4000.0 4000.0 4000.0 4000.0 4000.0 4000.0 4000.0 4000.0 4000.0 4000.0 4000.0 4000.0 4000.0 4000.0 4000.0 4000.0 4000.0 4000.0 4000.0 4000.0 4000.0 4000.0 4000.0 4000.0 4000.0 4000.0 4000.0 4000.0 4000.0 4000.0 4000.0 4000.0 4000.0 4000.0 4000.0 4000.0 4000.0 4000.0 4000.0 4000.0 4000.0 4000.0 4000.0 4000.0 4000.0 4000.0 4000.0 4000.0 4000.0 4000.0 4000.0 4000.0 4000.0 4000.0 4000.0 4000.0 4000.0 4000.0 4000.0 4000.0 4000.0 4000.0 4000.0 4000.0 4000.0 4000.0 4000.0 4000.0 4000.0 4000.0 4000.0 4000.0 4000.0 4000.0 4000.0 4000.0 4000.0 4000.0 4000.0 4000.0 4000.0 4000.0 4000.0 4000.0 4000.0 4000.0 4000.0 4000.0 4000.0 4000.0 4000.0 4000.0 4000.0 4000.0 4000.0 4000.0 4000.0 4000.0 4000.0 4000.0 4000.0 4000.0 4000.0 4000.0 4000.0 4000.0 4000.0 4000.0 4000.0 4000.0 4000.0 4000.0 4000.0 4000.0 4000.0 4000.0 4000.0 4000.0 4000.0 4000.0 4000.0 4000.0 4000.0 4000.0 4000.0 4000.0 4000.0 4000.0 4000.0 4000.0 4000.0 4000.0 4000.0 4000.0 4000.0 4000.0 4000.0 4000.0 4000.0 4000.0 4000.0 4000.0 4000.0 4000.0 4000.0 4000.0 4000.0 4000.0 4000.0 4000.0 4000.0 4000.0 4000.0 4000.0 4000.0 4000.0 4000.0 4000.0 4000.0 4000.0 4000.0 4000.0 4000.0 4000.0 4000.0 4000.0 4000.0 4000.0 4000.0 4000.0 4000.0 4000.0 4000.0 4000.0 4000.0 4000.0 4000.0 4000.0 4000.0 4000.0 4000.0 4000.0 4000.0 4000.0 4000.0 4000.0 4000.0 4000.0 4000.0 4000.0 4000.0 4000.0 4000.0 4000.0 4000.0 4000.0 4000.0 4000.0 4000.0 4000.0 4000.0 4000.0 4000.0 4000.0 4000.0 4000.0 4000.0 4000.0 4000.0 4000.0 4000.0 4000.0 4000.0 4000.0 4000.0 4000.0 4000.0 4000.0 4000.0 4000.0 4000.0 4000.0 4000.0 4000.0 4000.0 4000.0 4000.0 4000.0 4000.0 4000.0 4000.0 4000.0 4000.0 4000.0 4000.0 4000.0 4000.0 4000.0 4000.0 4000.0 4000.0 4000.0 4000.0 4000.0 4000.0 4000.0 4000.0 4000.0 4000.0 4000.0 4000.0 4000.0 4000.0 4000.0 4000.0 4000.0 4000.0 4000.0 4000.0 4000.0 4000.0 4000.0 4000.0 4000.0 4000.0 4000.0 4000.0 4000.0 4000.0 4000.0 4000.0 4000.0 4000.0 4000.0 4000.0 4000.0 4000.0 4000.0 4000.0 4000.0 4000.0 4000.0 4000.0 4000.0 4000.0 4000.0 4000.0 4000.0 4000.0 4000.0 4000.0 4000.0 4000.0 4000.0 4000.0 4000.0 4000.0 4000.0 4000.0 4000.0 4000.0 4000.0 4000.0 4000.0 4000.0 4000.0 4000.0 4000.0 4000.0 4000.0 4000.0 4000.0 4000.0 4000.0 4000.0 4000.0 4000.0 4000.0 4000.0 4000.0 4000.0 4000.0 4000.0 4000.0 4000.0 4000.0 4000.0 4000.0 4000.0 4000.0 4000.0 4000.0 4000.0 4000.0 4000.0 4000.0 4000.0 4000.0 4000.0 4000.0 4000.0 4000.0 4000.0 4000.0 4000.0 4000.0 4000.0 4000.0 4000.0 4000.0 4000.0 4000.0 4000.0 4000.0 4000.0 4000.0 4000.0 4000.0 4000.0 4000.0 4000.0 4000.0 4000.0 4000.0 4000.0 4000.0 4000.0 4000.0 4000.0 4000.0 4000.0 4000.0 4000.0 4000.0 4000.0 4000.0 4000.0 4000.0 4000.0 4000.0 4000.0 4000.0 4000.0 4000.0 4000.0 4000.0 4000.0 4000.0 4000.0 4000.0 4000.0 4000.0 4000.0 4000.0 4000.0 4000.0 4000.0 4000.0 4000.0 4000.0 4000.0 4000.0 4000.0 4000.0 4000.0 4000.0 4000.0 4000.0 4000.0 4000.0 4000.0 4000.0 4000.0 4000.0 4000.0 4000.0 4000.0 4000.0 4000.0 4000.0 4000.0 4000.0 4000.0 4000.0 4000.0 4000.0 4000.0 4000.0 4000.0 4000.0 4000.0 4000.0 4000.0 4000.0 4000.0 4000.0 4000.0 4000.0 4000.0 4000.0 4000.0 4000.0 4000.0 4000.0 4000.0 4000.0 4000.0 4000.0 4000.0 4000.0 4000.0 4000.0 4000.0 4000.0 4000.0 4000.0 4000.0 4000.0 4000.0 4000.0 4000.0 4000.0 4000.0 4000.0 4000.0 4000.0 4000.0 4000.0 4000.0 4000.0 4000.0 4000.0 4000.0 4000.0 4000.0 4000.0 4000.0 4000.0 4000.0 4000.0 4000.0 4000.0 4000.0 4000.0 4000.0 4000.0 4000.0 4000.0 4000.0 4000.0 4000.0 4000.0 4000.0 4000.0 4000.0 4000.0 4000.0 4000.0 4000.0 4000.0 4000.0 4000.0 4000.0 4000.0 4000.0 4000.0 4000.0 4000.0 4000.0 4000.0 4000.0 4000.0 4000.0 4000.0 4000.0 4000.0 4000.0 4000.0 4000.0 4000.0 4000.0 4000.0 4000.0 4000.0 4000.0 4000.0 4000.0 4000.0 4000.0 4000.0 4000.0 4000.0 4000.0 4000.0 4000.0 4000.0 4000.0 4000.0 4000.0 4000.0 4000.0 4000.0 4000.0 4000.0 4000.0 4000.0 4000.0 4000.0 4000.0 4000.0 4000.0 4000.0 4000.0 4000.0 4000.0 4000.0 4000.0 4000.0 4000.0 4000.0 4000.0 4000.0 4000.0 4000.0 4000.0 4000.0 4000.0 4000.0 4000.0 4000.0 4000.0 4000.0 4000.0 4000.0 4000.0 4000.0 4000.0 4000.0 4000.0 4000.0 4000.0 4000.0 4000.0 4000.0 4000.0 4000.0 4000.0 4000.0 4000.0 4000.0 4000.0 4000.0 4000.0 4000.0 4000.0 4000.0 4000.0 4000.0 4000.0 4000.0 4000.0 4000.0 4000.0 4000.0 4000.0 4000.0 4000.0 4000.0 4000.0 4000.0 4000.0 4000.0 4000.0 4000.0 4000.0 4000.0 4000.0 4000.0 4000.0 4000.0 4000.0 4000.0 4000.0 4000.0 4000.0 4000.0 4000.0 4000.0 4000.0 4000.0 4000.0 4000.0 4000.0 4000.0 4000.0 4000.0 4000.0 4000.0 4000.0 4000.0 4000.0 4000.0 4000.0 4000.0 4000.0 4000.0 4000.0 4000.0 4000.0 4000.0 4000.0 4000.0 4000.0 4000.0 4000.0 4000.0 4000.0 4000.0 4000.0 4000.0 4000.0 4000.0 4000.0 4000.0 4000.0 4000.0 4000.0 4000.0 4000.0 4000.0 4000.0 4000.0 4000.0 4000.0 4000.0 4000.0 4000.0 4000.0 4000.0 4000.0 4000.0 4000.0 4000.0 4000.0 4000.0 4000.0 4000.0 4000.0 4000.0 4000.0 4000.0 4000.0 4000.0 4000.0 4000.0 4000.0 4000.0 4000.0 4000.0 4000.0 4000.0 4000.0 4000.0 4000.0 4000.0 4000.0 4000.0 4000.0 4000.0 4000.0 4000.0 4000.0 4000.0 4000.0 4000.0 4000.0 4000.0 4000.0 4000.0 4000.0 4000.0 4000.0 4000.0 4000.0 4000.0 4000.0 4000.0 4000.0 4000.0 4000.0 4000.0 4000.0 4000.0 4000.0 4000.0 4000.0 4000.0 4000.0 4000.0 4000.0 4000.0 4000.0 4000.0 4000.0 4000.0 4000.0 4000.0 4000.0 4000.0 4000.0 4000.0 4000.0 4000.0 4000.0 4000.0 4000.0 4000.0 4000.0 4000.0 4000.0 4000.0 4000.0 4000.0 4000.0 4000.0 4000.0 4000.0 4000.0 4000.0 4000.0 4000.0 4000.0 4000.0 4000.0 4000.0 4000.0 4000.0 4000.0 4000.0 4000.0 4000.0 4000.0 4000.0 4000.0 4000.0 4000.0 4000.0 4000.0 4000.0 4000.0 4000.0 4000.0 4000.0 4000.0 4000.0 4000.0 4000.0 4000.0 4000.0 4000.0 4000.0 4000.0 4000.0 4000.0 4000.0 4000.0 4000.0 4000.0 4000.0 4000.0 4000.0 4000.0 4000.0 4000.0 4000.0 4000.0 4000.0 4000.0 4000.0 4000.0 4000.0 4000.0 4000.0 4000.0 4000.0 4000.0 4000.0 4000.0 4000.0 4000.0 4000.0 4000.0 4000.0 4000.0 4000.0 4000.0 4000.0 4000.0 4000.0 4000.0 4000.0 4000.0 4000.0 4000.0 4000.0 4000.0 4000.0 4000.0 4000.0 4000.0 4000.0 4000.0 4000.0 4000.0 4000.0 4000.0 4000.0 4000.0 4000.0 4000.0 4000.0 4000.0 4000.0 4000.0 4000.0 4000.0 4000.0 4000.0 4000.0 4000.0 4000.0 4000.0 4000.0 4000.0 4000.0 4000.0 4000.0 4000.0 4000.0 4000.0 4000.0 4000.0 4000.0 4000.0 4000.0 4000.0 4000.0 4000.0 4000.0 4000.0 4000.0 4000.0 4000.0 4000.0 4000.0 4000.0 4000.0 4000.0 4000.0 4000.0 4000.0 4000.0 4000.0 4000.0 4000.0 4000.0 4000.0 4000.0 4000.0 4000.0 4000.0 4000.0 4000.0 4000.0 4000.0 4000.0 4000.0 4000.0 4000.0 4000.0 4000.0 4000.0 4000.0 4000.0 4000.0 4000.0 4000.0 4000.0 4000.0 4000.0 4000.0 4000.0 4000.0 4000.0 4000.0 4000.0 4000.0 4000.0 4000.0 4000.0 4000.0 4000.0 4000.0 4000.0 4000.0 4000.0 4000.0 4000.0 4000.0 4000.0 4000.0 4000.0 4000.0 4000.0 4000.0 4000.0 4000.0 4000.0 4000.0 4000.0 4000.0 4000.0 4000.0 4000.0 4000.0 4000.0 4000.0 4000.0 4000.0 4000.0 4000.0 4000.0 4000.0 4000.0 4000.0 4000.0 4000.0 4000.0 4000.0 4000.0 4000.0 4000.0 4000.0 4000.0 4000.0 4000.0 4000.0 4000.0 4000.0 4000.0 4000.0 4000.0 4000.0 4000.0 4000.0 4000.0 4000.0 4000.0 4000.0 4000.0 4000.0 4000.0 4000.0 4000.0 4000.0 4000.0 4000.0 4000.0 4000.0 4000.0 4000.0 4000.0 4000.0 4000.0 4000.0 4000.0 4000.0 4000.0 4000.0 4000.0 4000.0 4000.0 4000.0 4000.0 4000.0 4000.0 4000.0 4000.0 4000.0 4000.0 4000.0 4000.0 4000.0 4000.0 4000.0 4000.0 4000.0 4000.0 4000.0 4000.0 4000.0 4000.0 4000.0 4000.0 4000.0 4000.0 4000.0 4000.0 4000.0 4000.0 4000.0 4000.0 4000.0 4000.0 4000.0 4000.0 4000.0 4000.0 4000.0 4000.0 4000.0 4000.0 4000.0 4000.0 4000.0 4000.0 4000.0 4000.0 4000.0 4000.0 4000.0 4000.0 4000.0 4000.0 4000.0 4000.0 4000.0 4000.0 4000.0 4000.0 4000.0 4000.0 4000.0 4000.0 4000.0 4000.0 4000.0 4000.0 4000.0 4000.0 4000.0 4000.0 4000.0 4000.0 4000.0 4000.0 4000.0 4000.0 4000.0 4000.0 4000.0 4000.0 4000.0 4000.0 4000.0 4000.0 4000.0 4000.0 4000.0 4000.0 4000.0 4000.0 4000.0 4000.0 4000.0 4000.0 4000.0 4000.0 4000.0 4000.0 4000.0 4000.0 4000.0 4000.0 4000.0 4000.0 4000.0 4000.0 4000.0 4000.0 4000.0 4000.0 4000.0 4000.0 4000.0 4000.0 4000.0 4000.0 4000.0 4000.0 4000.0 4000.0 4000.0 4000.0 4000.0 4000.0 4000.0 4000.0 4000.0 4000.0 4000.0 4000.0 4000.0 4000.0 4000.0 4000.0 4000.0 4000.0 4000.0 4000.0 4000.0 4000.0 4000.0 SCALARS Mass float 1
LOOKUP_TABLE default
11309700000.0 11309700000.0 11309700000.0 11309700000.0 11309700000.0 11309700000.0 11309700000.0 11309700000.0 11309700000.0 11309700000.0 11309700000.0 11309700000.0 11309700000.0 11309700000.0 11309700000.0 11309700000.0 11309700000.0 11309700000.0 11309700000.0 11309700000.0 11309700000.0 11309700000.0 11309700000.0 11309700000.0 11309700000.0 11309700000.0 11309700000.0 11309700000.0 11309700000.0 11309700000.0 11309700000.0 11309700000.0 11309700000.0 11309700000.0 11309700000.0 11309700000.0 11309700000.0 11309700000.0 11309700000.0 11309700000.0 11309700000.0 11309700000.0 11309700000.0 11309700000.0 11309700000.0 11309700000.0 11309700000.0 11309700000.0 11309700000.0 11309700000.0 11309700000.0 11309700000.0 11309700000.0 11309700000.0 11309700000.0 11309700000.0 11309700000.0 11309700000.0 11309700000.0 11309700000.0 11309700000.0 11309700000.0 11309700000.0 11309700000.0 11309700000.0 11309700000.0 11309700000.0 11309700000.0 11309700000.0 11309700000.0 11309700000.0 11309700000.0 11309700000.0 11309700000.0 11309700000.0 11309700000.0 11309700000.0 11309700000.0 11309700000.0 11309700000.0 11309700000.0 11309700000.0 11309700000.0 11309700000.0 11309700000.0 11309700000.0 11309700000.0 11309700000.0 11309700000.0 11309700000.0 11309700000.0 11309700000.0 11309700000.0 11309700000.0 11309700000.0 11309700000.0 11309700000.0 11309700000.0 11309700000.0 11309700000.0 11309700000.0 11309700000.0 11309700000.0 11309700000.0 11309700000.0 11309700000.0 11309700000.0 11309700000.0 11309700000.0 11309700000.0 11309700000.0 11309700000.0 11309700000.0 11309700000.0 11309700000.0 11309700000.0 11309700000.0 11309700000.0 11309700000.0 11309700000.0 11309700000.0 11309700000.0 11309700000.0 11309700000.0 11309700000.0 11309700000.0 11309700000.0 11309700000.0 11309700000.0 11309700000.0 11309700000.0 11309700000.0 11309700000.0 11309700000.0 11309700000.0 11309700000.0 11309700000.0 11309700000.0 11309700000.0 11309700000.0 11309700000.0 11309700000.0 11309700000.0 11309700000.0 11309700000.0 11309700000.0 11309700000.0 11309700000.0 11309700000.0 11309700000.0 11309700000.0 11309700000.0 11309700000.0 11309700000.0 11309700000.0 11309700000.0 11309700000.0 11309700000.0 11309700000.0 11309700000.0 11309700000.0 11309700000.0 11309700000.0 11309700000.0 11309700000.0 11309700000.0 11309700000.0 11309700000.0 11309700000.0 11309700000.0 11309700000.0 11309700000.0 11309700000.0 11309700000.0 11309700000.0 11309700000.0 11309700000.0 11309700000.0 11309700000.0 11309700000.0 11309700000.0 11309700000.0 11309700000.0 11309700000.0 11309700000.0 11309700000.0 11309700000.0 11309700000.0 11309700000.0 11309700000.0 11309700000.0 11309700000.0 11309700000.0 11309700000.0 11309700000.0 11309700000.0 11309700000.0 11309700000.0 11309700000.0 11309700000.0 11309700000.0 11309700000.0 11309700000.0 11309700000.0 11309700000.0 11309700000.0 11309700000.0 11309700000.0 11309700000.0 11309700000.0 11309700000.0 11309700000.0 11309700000.0 11309700000.0 11309700000.0 11309700000.0 11309700000.0 11309700000.0 11309700000.0 11309700000.0 11309700000.0 11309700000.0 11309700000.0 11309700000.0 11309700000.0 11309700000.0 11309700000.0 11309700000.0 11309700000.0 11309700000.0 11309700000.0 11309700000.0 11309700000.0 11309700000.0 11309700000.0 11309700000.0 11309700000.0 11309700000.0 11309700000.0 11309700000.0 11309700000.0 11309700000.0 11309700000.0 11309700000.0 11309700000.0 11309700000.0 11309700000.0 11309700000.0 11309700000.0 11309700000.0 11309700000.0 11309700000.0 11309700000.0 11309700000.0 11309700000.0 11309700000.0 11309700000.0 11309700000.0 11309700000.0 11309700000.0 11309700000.0 11309700000.0 11309700000.0 11309700000.0 11309700000.0 11309700000.0 11309700000.0 11309700000.0 11309700000.0 11309700000.0 11309700000.0 11309700000.0 11309700000.0 11309700000.0 11309700000.0 11309700000.0 11309700000.0 11309700000.0 11309700000.0 11309700000.0 11309700000.0 11309700000.0 11309700000.0 11309700000.0 11309700000.0 11309700000.0 11309700000.0 11309700000.0 11309700000.0 11309700000.0 11309700000.0 11309700000.0 11309700000.0 11309700000.0 11309700000.0 11309700000.0 11309700000.0 11309700000.0 11309700000.0 11309700000.0 11309700000.0 11309700000.0 11309700000.0 11309700000.0 11309700000.0 11309700000.0 11309700000.0 11309700000.0 11309700000.0 11309700000.0 11309700000.0 11309700000.0 11309700000.0 11309700000.0 11309700000.0 11309700000.0 11309700000.0 11309700000.0 11309700000.0 11309700000.0 11309700000.0 11309700000.0 11309700000.0 11309700000.0 11309700000.0 11309700000.0 11309700000.0 11309700000.0 11309700000.0 11309700000.0 11309700000.0 11309700000.0 11309700000.0 11309700000.0 11309700000.0 11309700000.0 11309700000.0 11309700000.0 11309700000.0 11309700000.0 11309700000.0 11309700000.0 11309700000.0 11309700000.0 11309700000.0 11309700000.0 11309700000.0 11309700000.0 11309700000.0 11309700000.0 11309700000.0 11309700000.0 11309700000.0 11309700000.0 11309700000.0 11309700000.0 11309700000.0 11309700000.0 11309700000.0 11309700000.0 11309700000.0 11309700000.0 11309700000.0 11309700000.0 11309700000.0 11309700000.0 11309700000.0 11309700000.0 11309700000.0 11309700000.0 11309700000.0 11309700000.0 11309700000.0 11309700000.0 11309700000.0 11309700000.0 11309700000.0 11309700000.0 11309700000.0 11309700000.0 11309700000.0 11309700000.0 11309700000.0 11309700000.0 11309700000.0 11309700000.0 11309700000.0 11309700000.0 11309700000.0 11309700000.0 11309700000.0 11309700000.0 11309700000.0 11309700000.0 11309700000.0 11309700000.0 11309700000.0 11309700000.0 11309700000.0 11309700000.0 11309700000.0 11309700000.0 11309700000.0 11309700000.0 11309700000.0 11309700000.0 11309700000.0 11309700000.0 11309700000.0 11309700000.0 11309700000.0 11309700000.0 11309700000.0 11309700000.0 11309700000.0 11309700000.0 11309700000.0 11309700000.0 11309700000.0 11309700000.0 11309700000.0 11309700000.0 11309700000.0 11309700000.0 11309700000.0 11309700000.0 11309700000.0 11309700000.0 11309700000.0 11309700000.0 11309700000.0 11309700000.0 11309700000.0 11309700000.0 11309700000.0 11309700000.0 11309700000.0 11309700000.0 11309700000.0 11309700000.0 11309700000.0 11309700000.0 11309700000.0 11309700000.0 11309700000.0 11309700000.0 11309700000.0 11309700000.0 11309700000.0 11309700000.0 11309700000.0 11309700000.0 11309700000.0 11309700000.0 11309700000.0 11309700000.0 11309700000.0 11309700000.0 11309700000.0 11309700000.0 11309700000.0 11309700000.0 11309700000.0 11309700000.0 11309700000.0 11309700000.0 11309700000.0 11309700000.0 11309700000.0 11309700000.0 11309700000.0 11309700000.0 11309700000.0 11309700000.0 11309700000.0 11309700000.0 11309700000.0 11309700000.0 11309700000.0 11309700000.0 11309700000.0 11309700000.0 11309700000.0 11309700000.0 11309700000.0 11309700000.0 11309700000.0 11309700000.0 11309700000.0 11309700000.0 11309700000.0 11309700000.0 11309700000.0 11309700000.0 11309700000.0 11309700000.0 11309700000.0 11309700000.0 11309700000.0 11309700000.0 11309700000.0 11309700000.0 11309700000.0 11309700000.0 11309700000.0 11309700000.0 11309700000.0 11309700000.0 11309700000.0 11309700000.0 11309700000.0 11309700000.0 11309700000.0 11309700000.0 11309700000.0 11309700000.0 11309700000.0 11309700000.0 11309700000.0 11309700000.0 11309700000.0 11309700000.0 11309700000.0 11309700000.0 11309700000.0 11309700000.0 11309700000.0 11309700000.0 11309700000.0 11309700000.0 11309700000.0 11309700000.0 11309700000.0 11309700000.0 11309700000.0 11309700000.0 11309700000.0 11309700000.0 11309700000.0 11309700000.0 11309700000.0 11309700000.0 11309700000.0 11309700000.0 11309700000.0 11309700000.0 11309700000.0 11309700000.0 11309700000.0 11309700000.0 11309700000.0 11309700000.0 11309700000.0 11309700000.0 11309700000.0 11309700000.0 11309700000.0 11309700000.0 11309700000.0 11309700000.0 11309700000.0 11309700000.0 11309700000.0 11309700000.0 11309700000.0 11309700000.0 11309700000.0 11309700000.0 11309700000.0 11309700000.0 11309700000.0 11309700000.0 11309700000.0 11309700000.0 11309700000.0 11309700000.0 11309700000.0 11309700000.0 11309700000.0 11309700000.0 11309700000.0 11309700000.0 11309700000.0 11309700000.0 11309700000.0 11309700000.0 11309700000.0 11309700000.0 11309700000.0 11309700000.0 11309700000.0 11309700000.0 11309700000.0 11309700000.0 11309700000.0 11309700000.0 11309700000.0 11309700000.0 11309700000.0 11309700000.0 11309700000.0 11309700000.0 11309700000.0 11309700000.0 11309700000.0 11309700000.0 11309700000.0 11309700000.0 11309700000.0 11309700000.0 11309700000.0 11309700000.0 11309700000.0 11309700000.0 11309700000.0 11309700000.0 11309700000.0 11309700000.0 11309700000.0 11309700000.0 11309700000.0 11309700000.0 11309700000.0 11309700000.0 11309700000.0 11309700000.0 11309700000.0 11309700000.0 11309700000.0 11309700000.0 11309700000.0 11309700000.0 11309700000.0 11309700000.0 11309700000.0 11309700000.0 11309700000.0 11309700000.0 11309700000.0 11309700000.0 11309700000.0 11309700000.0 11309700000.0 11309700000.0 11309700000.0 11309700000.0 11309700000.0 11309700000.0 11309700000.0 11309700000.0 11309700000.0 11309700000.0 11309700000.0 11309700000.0 11309700000.0 11309700000.0 11309700000.0 11309700000.0 11309700000.0 11309700000.0 11309700000.0 11309700000.0 11309700000.0 11309700000.0 11309700000.0 11309700000.0 11309700000.0 11309700000.0 11309700000.0 11309700000.0 11309700000.0 11309700000.0 11309700000.0 11309700000.0 11309700000.0 11309700000.0 11309700000.0 11309700000.0 11309700000.0 11309700000.0 11309700000.0 11309700000.0 11309700000.0 11309700000.0 11309700000.0 11309700000.0 11309700000.0 11309700000.0 11309700000.0 11309700000.0 11309700000.0 11309700000.0 11309700000.0 11309700000.0 11309700000.0 11309700000.0 11309700000.0 11309700000.0 11309700000.0 11309700000.0 11309700000.0 11309700000.0 11309700000.0 11309700000.0 11309700000.0 11309700000.0 11309700000.0 11309700000.0 11309700000.0 11309700000.0 11309700000.0 11309700000.0 11309700000.0 11309700000.0 11309700000.0 11309700000.0 11309700000.0 11309700000.0 11309700000.0 11309700000.0 11309700000.0 11309700000.0 11309700000.0 11309700000.0 11309700000.0 11309700000.0 11309700000.0 11309700000.0 11309700000.0 11309700000.0 11309700000.0 11309700000.0 11309700000.0 11309700000.0 11309700000.0 11309700000.0 11309700000.0 11309700000.0 11309700000.0 11309700000.0 11309700000.0 11309700000.0 11309700000.0 11309700000.0 11309700000.0 11309700000.0 11309700000.0 11309700000.0 11309700000.0 11309700000.0 11309700000.0 11309700000.0 11309700000.0 11309700000.0 11309700000.0 11309700000.0 11309700000.0 11309700000.0 11309700000.0 11309700000.0 11309700000.0 11309700000.0 11309700000.0 11309700000.0 11309700000.0 11309700000.0 11309700000.0 11309700000.0 11309700000.0 11309700000.0 11309700000.0 11309700000.0 11309700000.0 11309700000.0 11309700000.0 11309700000.0 11309700000.0 11309700000.0 11309700000.0 11309700000.0 11309700000.0 11309700000.0 11309700000.0 11309700000.0 11309700000.0 11309700000.0 11309700000.0 11309700000.0 11309700000.0 11309700000.0 11309700000.0 11309700000.0 11309700000.0 11309700000.0 11309700000.0 11309700000.0 11309700000.0 11309700000.0 11309700000.0 11309700000.0 11309700000.0 11309700000.0 11309700000.0 11309700000.0 11309700000.0 11309700000.0 11309700000.0 11309700000.0 11309700000.0 11309700000.0 11309700000.0 11309700000.0 11309700000.0 11309700000.0 11309700000.0 11309700000.0 11309700000.0 11309700000.0 11309700000.0 11309700000.0 11309700000.0 11309700000.0 11309700000.0 11309700000.0 11309700000.0 11309700000.0 11309700000.0 11309700000.0 11309700000.0 11309700000.0 11309700000.0 11309700000.0 11309700000.0 11309700000.0 11309700000.0 11309700000.0 11309700000.0 11309700000.0 11309700000.0 11309700000.0 11309700000.0 11309700000.0 11309700000.0 11309700000.0 11309700000.0 11309700000.0 11309700000.0 11309700000.0 11309700000.0 11309700000.0 11309700000.0 11309700000.0 11309700000.0 11309700000.0 11309700000.0 11309700000.0 11309700000.0 11309700000.0 11309700000.0 11309700000.0 11309700000.0 11309700000.0 11309700000.0 11309700000.0 11309700000.0 11309700000.0 11309700000.0 11309700000.0 11309700000.0 11309700000.0 11309700000.0 11309700000.0 11309700000.0 11309700000.0 11309700000.0 11309700000.0 11309700000.0 11309700000.0 11309700000.0 11309700000.0 11309700000.0 11309700000.0 11309700000.0 11309700000.0 11309700000.0 11309700000.0 11309700000.0 11309700000.0 11309700000.0 11309700000.0 11309700000.0 11309700000.0 11309700000.0 11309700000.0 11309700000.0 11309700000.0 11309700000.0 11309700000.0 11309700000.0 11309700000.0 11309700000.0 11309700000.0 11309700000.0 11309700000.0 11309700000.0 11309700000.0 11309700000.0 11309700000.0 11309700000.0 11309700000.0 11309700000.0 11309700000.0 11309700000.0 11309700000.0 11309700000.0 11309700000.0 11309700000.0 11309700000.0 11309700000.0 11309700000.0 11309700000.0 11309700000.0 11309700000.0 11309700000.0 11309700000.0 11309700000.0 11309700000.0 11309700000.0 11309700000.0 11309700000.0 11309700000.0 11309700000.0 11309700000.0 11309700000.0 11309700000.0 11309700000.0 11309700000.0 11309700000.0 11309700000.0 11309700000.0 11309700000.0 11309700000.0 11309700000.0 11309700000.0 11309700000.0 11309700000.0 11309700000.0 11309700000.0 11309700000.0 11309700000.0 11309700000.0 11309700000.0 11309700000.0 11309700000.0 11309700000.0 11309700000.0 11309700000.0 11309700000.0 11309700000.0 11309700000.0 11309700000.0 11309700000.0 11309700000.0 11309700000.0 11309700000.0 11309700000.0 11309700000.0 11309700000.0 11309700000.0 11309700000.0 11309700000.0 11309700000.0 11309700000.0 11309700000.0 11309700000.0 11309700000.0 11309700000.0 11309700000.0 11309700000.0 11309700000.0 11309700000.0 11309700000.0 11309700000.0 11309700000.0 11309700000.0 11309700000.0 11309700000.0 11309700000.0 11309700000.0 11309700000.0 11309700000.0 11309700000.0 11309700000.0 11309700000.0 11309700000.0 11309700000.0 11309700000.0 11309700000.0 11309700000.0 11309700000.0 11309700000.0 11309700000.0 11309700000.0 11309700000.0 11309700000.0 11309700000.0 11309700000.0 11309700000.0 11309700000.0 11309700000.0 11309700000.0 11309700000.0 11309700000.0 11309700000.0 11309700000.0 11309700000.0 11309700000.0 11309700000.0 11309700000.0 11309700000.0 11309700000.0 11309700000.0 11309700000.0 11309700000.0 11309700000.0 11309700000.0 11309700000.0 11309700000.0 11309700000.0 11309700000.0 11309700000.0 11309700000.0 11309700000.0 11309700000.0 11309700000.0 11309700000.0 11309700000.0 11309700000.0 11309700000.0 11309700000.0 11309700000.0 11309700000.0 11309700000.0 11309700000.0 11309700000.0 11309700000.0 11309700000.0 11309700000.0 11309700000.0 11309700000.0 11309700000.0 11309700000.0 11309700000.0 11309700000.0 11309700000.0 11309700000.0 11309700000.0 11309700000.0 11309700000.0 11309700000.0 11309700000.0 11309700000.0 11309700000.0 11309700000.0 11309700000.0 11309700000.0 11309700000.0 11309700000.0 11309700000.0 11309700000.0 11309700000.0 11309700000.0 11309700000.0 11309700000.0 11309700000.0 11309700000.0 11309700000.0 11309700000.0 11309700000.0 11309700000.0 11309700000.0 11309700000.0 11309700000.0 11309700000.0 11309700000.0 11309700000.0 11309700000.0 11309700000.0 11309700000.0 11309700000.0 11309700000.0 11309700000.0 11309700000.0 11309700000.0 11309700000.0 11309700000.0 11309700000.0 11309700000.0 11309700000.0 11309700000.0 11309700000.0 11309700000.0 11309700000.0 11309700000.0 11309700000.0 11309700000.0 11309700000.0 11309700000.0 11309700000.0 11309700000.0 11309700000.0 11309700000.0 11309700000.0 11309700000.0 11309700000.0 11309700000.0 11309700000.0 11309700000.0 11309700000.0 11309700000.0 11309700000.0 11309700000.0 11309700000.0 11309700000.0 11309700000.0 11309700000.0 11309700000.0 11309700000.0 11309700000.0 11309700000.0 11309700000.0 11309700000.0 11309700000.0 11309700000.0 11309700000.0 11309700000.0 11309700000.0 11309700000.0 11309700000.0 11309700000.0 11309700000.0 11309700000.0 11309700000.0 11309700000.0 11309700000.0 11309700000.0 11309700000.0 11309700000.0 11309700000.0 11309700000.0 11309700000.0 11309700000.0 11309700000.0 11309700000.0 11309700000.0 11309700000.0 11309700000.0 11309700000.0 11309700000.0 11309700000.0 11309700000.0 11309700000.0 11309700000.0 11309700000.0 11309700000.0 11309700000.0 11309700000.0 11309700000.0 11309700000.0 11309700000.0 11309700000.0 11309700000.0 11309700000.0 11309700000.0 11309700000.0 11309700000.0 11309700000.0 11309700000.0 11309700000.0 11309700000.0 11309700000.0 11309700000.0 11309700000.0 11309700000.0 11309700000.0 11309700000.0 11309700000.0 11309700000.0 11309700000.0 11309700000.0 11309700000.0 11309700000.0 11309700000.0 11309700000.0 11309700000.0 11309700000.0 11309700000.0 11309700000.0 11309700000.0 11309700000.0 11309700000.0 11309700000.0 11309700000.0 11309700000.0 11309700000.0 11309700000.0 11309700000.0 11309700000.0 11309700000.0 11309700000.0 11309700000.0 11309700000.0 11309700000.0 11309700000.0 11309700000.0 11309700000.0 11309700000.0 11309700000.0 11309700000.0 11309700000.0 11309700000.0 11309700000.0 11309700000.0 11309700000.0 11309700000.0 11309700000.0 11309700000.0 11309700000.0 11309700000.0 11309700000.0 11309700000.0 11309700000.0 11309700000.0 11309700000.0 11309700000.0 11309700000.0 11309700000.0 11309700000.0 11309700000.0 11309700000.0 11309700000.0 11309700000.0 11309700000.0 11309700000.0 11309700000.0 11309700000.0 11309700000.0 11309700000.0 11309700000.0 11309700000.0 11309700000.0 11309700000.0 11309700000.0 11309700000.0 11309700000.0 11309700000.0 11309700000.0 11309700000.0 11309700000.0 11309700000.0 11309700000.0 11309700000.0 11309700000.0 11309700000.0 11309700000.0 11309700000.0 11309700000.0 11309700000.0 11309700000.0 11309700000.0 11309700000.0 11309700000.0 11309700000.0 11309700000.0 11309700000.0 11309700000.0 11309700000.0 11309700000.0 11309700000.0 11309700000.0 11309700000.0 11309700000.0 11309700000.0 11309700000.0 11309700000.0 11309700000.0 11309700000.0 11309700000.0 11309700000.0 11309700000.0 11309700000.0 11309700000.0 11309700000.0 11309700000.0 11309700000.0 11309700000.0 11309700000.0 11309700000.0 11309700000.0 11309700000.0 11309700000.0 11309700000.0 11309700000.0 11309700000.0 11309700000.0 11309700000.0 11309700000.0 11309700000.0 11309700000.0 11309700000.0 11309700000.0 11309700000.0 11309700000.0 11309700000.0 11309700000.0 11309700000.0 11309700000.0 11309700000.0 11309700000.0 11309700000.0 11309700000.0 11309700000.0 11309700000.0 11309700000.0 11309700000.0 11309700000.0 11309700000.0 11309700000.0 11309700000.0 11309700000.0 11309700000.0 11309700000.0 11309700000.0 11309700000.0 11309700000.0 11309700000.0 11309700000.0 11309700000.0 11309700000.0 11309700000.0 11309700000.0 11309700000.0 11309700000.0 11309700000.0 11309700000.0 11309700000.0 11309700000.0 11309700000.0 11309700000.0 11309700000.0 11309700000.0 11309700000.0 11309700000.0 11309700000.0 11309700000.0 11309700000.0 11309700000.0 11309700000.0 11309700000.0 11309700000.0 11309700000.0 11309700000.0 11309700000.0 11309700000.0 11309700000.0 11309700000.0 11309700000.0 11309700000.0 11309700000.0 11309700000.0 11309700000.0 11309700000.0 11309700000.0 11309700000.0 11309700000.0 11309700000.0 11309700000.0 11309700000.0 11309700000.0 11309700000.0 11309700000.0 11309700000.0 11309700000.0 11309700000.0 11309700000.0 11309700000.0 11309700000.0 11309700000.0 11309700000.0 11309700000.0 11309700000.0 11309700000.0 11309700000.0 11309700000.0 11309700000.0 11309700000.0 11309700000.0 11309700000.0 11309700000.0 11309700000.0 11309700000.0 11309700000.0 11309700000.0 11309700000.0 11309700000.0 11309700000.0 11309700000.0 11309700000.0 11309700000.0 11309700000.0 11309700000.0 11309700000.0 11309700000.0 11309700000.0 11309700000.0 11309700000.0 11309700000.0 11309700000.0 11309700000.0 11309700000.0 11309700000.0 11309700000.0 11309700000.0 11309700000.0 11309700000.0 11309700000.0 11309700000.0 11309700000.0 11309700000.0 11309700000.0 11309700000.0 11309700000.0 11309700000.0 11309700000.0 11309700000.0 11309700000.0 11309700000.0 11309700000.0 11309700000.0 11309700000.0 11309700000.0 11309700000.0 11309700000.0 11309700000.0 11309700000.0 11309700000.0 11309700000.0 11309700000.0 11309700000.0 11309700000.0 11309700000.0 11309700000.0 11309700000.0 11309700000.0 11309700000.0 11309700000.0 11309700000.0 11309700000.0 11309700000.0 11309700000.0 11309700000.0 11309700000.0 11309700000.0 11309700000.0 11309700000.0 11309700000.0 11309700000.0 11309700000.0 11309700000.0 11309700000.0 11309700000.0 11309700000.0 11309700000.0 11309700000.0 11309700000.0 11309700000.0 11309700000.0 11309700000.0 11309700000.0 11309700000.0 11309700000.0 11309700000.0 11309700000.0 11309700000.0 11309700000.0 11309700000.0 11309700000.0 11309700000.0 11309700000.0 11309700000.0 11309700000.0 11309700000.0 11309700000.0 11309700000.0 11309700000.0 11309700000.0 11309700000.0 11309700000.0 11309700000.0 11309700000.0 11309700000.0 11309700000.0 11309700000.0 11309700000.0 11309700000.0 11309700000.0 11309700000.0 11309700000.0 11309700000.0 11309700000.0 11309700000.0 11309700000.0 11309700000.0 11309700000.0 11309700000.0 11309700000.0 11309700000.0 11309700000.0 11309700000.0 11309700000.0 11309700000.0 11309700000.0 11309700000.0 11309700000.0 11309700000.0 11309700000.0 11309700000.0 11309700000.0 11309700000.0 11309700000.0 11309700000.0 11309700000.0 11309700000.0 11309700000.0 11309700000.0 11309700000.0 11309700000.0 11309700000.0 11309700000.0 11309700000.0 11309700000.0 11309700000.0 11309700000.0 11309700000.0 11309700000.0 11309700000.0 11309700000.0 11309700000.0 11309700000.0 11309700000.0 11309700000.0 11309700000.0 11309700000.0 11309700000.0 11309700000.0 11309700000.0 11309700000.0 11309700000.0 11309700000.0 11309700000.0 11309700000.0 11309700000.0 11309700000.0 11309700000.0 11309700000.0 11309700000.0 11309700000.0 11309700000.0 11309700000.0 11309700000.0 11309700000.0 11309700000.0 11309700000.0 11309700000.0 11309700000.0 11309700000.0 11309700000.0 11309700000.0 11309700000.0 11309700000.0 11309700000.0 11309700000.0 11309700000.0 11309700000.0 11309700000.0 11309700000.0 11309700000.0 11309700000.0 11309700000.0 11309700000.0 11309700000.0 11309700000.0 11309700000.0 11309700000.0 11309700000.0 11309700000.0 11309700000.0 11309700000.0 11309700000.0 11309700000.0 11309700000.0 11309700000.0 11309700000.0 11309700000.0 11309700000.0 11309700000.0 11309700000.0 11309700000.0 11309700000.0 11309700000.0 11309700000.0 11309700000.0 11309700000.0 11309700000.0 11309700000.0 11309700000.0 11309700000.0 11309700000.0 11309700000.0 11309700000.0 11309700000.0 11309700000.0 11309700000.0 11309700000.0 11309700000.0 11309700000.0 11309700000.0 11309700000.0 11309700000.0 11309700000.0 11309700000.0 11309700000.0 11309700000.0 11309700000.0 11309700000.0 11309700000.0 11309700000.0 11309700000.0 11309700000.0 11309700000.0 11309700000.0 11309700000.0 11309700000.0 11309700000.0 11309700000.0 11309700000.0 11309700000.0 11309700000.0 11309700000.0 11309700000.0 11309700000.0 11309700000.0 11309700000.0 11309700000.0 11309700000.0 11309700000.0 11309700000.0 11309700000.0 11309700000.0 11309700000.0 11309700000.0 11309700000.0 11309700000.0 11309700000.0 11309700000.0 11309700000.0 11309700000.0 11309700000.0 11309700000.0 11309700000.0 11309700000.0 11309700000.0 11309700000.0 11309700000.0 11309700000.0 11309700000.0 11309700000.0 11309700000.0 11309700000.0 11309700000.0 11309700000.0 11309700000.0 11309700000.0 11309700000.0 11309700000.0 11309700000.0 11309700000.0 11309700000.0 11309700000.0 11309700000.0 11309700000.0 11309700000.0 11309700000.0 11309700000.0 11309700000.0 11309700000.0 11309700000.0 11309700000.0 11309700000.0 11309700000.0 11309700000.0 11309700000.0 11309700000.0 11309700000.0 11309700000.0 11309700000.0 11309700000.0 11309700000.0 11309700000.0 11309700000.0 11309700000.0 11309700000.0 11309700000.0 11309700000.0 11309700000.0 11309700000.0 11309700000.0 11309700000.0 11309700000.0 11309700000.0 11309700000.0 11309700000.0 11309700000.0 11309700000.0 11309700000.0 11309700000.0 11309700000.0 11309700000.0 11309700000.0 11309700000.0 11309700000.0 11309700000.0 11309700000.0 11309700000.0 11309700000.0 11309700000.0 11309700000.0 11309700000.0 11309700000.0 11309700000.0 11309700000.0 11309700000.0 11309700000.0 11309700000.0 11309700000.0 11309700000.0 11309700000.0 11309700000.0 11309700000.0 11309700000.0 11309700000.0 11309700000.0 11309700000.0 11309700000.0 11309700000.0 11309700000.0 11309700000.0 11309700000.0 11309700000.0 11309700000.0 11309700000.0 11309700000.0 11309700000.0 11309700000.0 11309700000.0 11309700000.0 11309700000.0 11309700000.0 11309700000.0 11309700000.0 11309700000.0 11309700000.0 11309700000.0 11309700000.0 11309700000.0 11309700000.0 11309700000.0 11309700000.0 11309700000.0 11309700000.0 11309700000.0 11309700000.0 11309700000.0 11309700000.0 11309700000.0 11309700000.0 11309700000.0 11309700000.0 11309700000.0 11309700000.0 11309700000.0 11309700000.0 11309700000.0 11309700000.0 11309700000.0 11309700000.0 11309700000.0 11309700000.0 11309700000.0 11309700000.0 11309700000.0 11309700000.0 11309700000.0 11309700000.0 11309700000.0 11309700000.0 11309700000.0 11309700000.0 11309700000.0 11309700000.0 11309700000.0 11309700000.0 11309700000.0 11309700000.0 11309700000.0 11309700000.0 11309700000.0 11309700000.0 11309700000.0 11309700000.0 11309700000.0 11309700000.0 11309700000.0 11309700000.0 11309700000.0 11309700000.0 11309700000.0 11309700000.0 11309700000.0 11309700000.0 11309700000.0 11309700000.0 11309700000.0 11309700000.0 11309700000.0 11309700000.0 11309700000.0 11309700000.0 11309700000.0 11309700000.0 11309700000.0 11309700000.0 11309700000.0 11309700000.0 11309700000.0 11309700000.0 11309700000.0 11309700000.0 11309700000.0 11309700000.0 11309700000.0 11309700000.0 11309700000.0 11309700000.0 11309700000.0 11309700000.0 11309700000.0 11309700000.0 11309700000.0 11309700000.0 11309700000.0 11309700000.0 11309700000.0 11309700000.0 11309700000.0 11309700000.0 11309700000.0 11309700000.0 11309700000.0 11309700000.0 11309700000.0 11309700000.0 11309700000.0 11309700000.0 11309700000.0 11309700000.0 11309700000.0 11309700000.0 11309700000.0 11309700000.0 11309700000.0 11309700000.0 11309700000.0 11309700000.0 11309700000.0 11309700000.0 11309700000.0 11309700000.0 11309700000.0 11309700000.0 11309700000.0 11309700000.0 11309700000.0 11309700000.0 11309700000.0 11309700000.0 11309700000.0 11309700000.0 11309700000.0 11309700000.0 11309700000.0 11309700000.0 11309700000.0 11309700000.0 11309700000.0 11309700000.0 11309700000.0 11309700000.0 11309700000.0 11309700000.0 11309700000.0 11309700000.0 11309700000.0 11309700000.0 11309700000.0 11309700000.0 11309700000.0 11309700000.0 11309700000.0 11309700000.0 11309700000.0 11309700000.0 11309700000.0 11309700000.0 11309700000.0 11309700000.0 11309700000.0 11309700000.0 11309700000.0 11309700000.0 11309700000.0 11309700000.0 11309700000.0 11309700000.0 11309700000.0 11309700000.0 11309700000.0 11309700000.0 11309700000.0 11309700000.0 11309700000.0 11309700000.0 11309700000.0 11309700000.0 11309700000.0 11309700000.0 11309700000.0 11309700000.0 11309700000.0 11309700000.0 11309700000.0 11309700000.0 11309700000.0 11309700000.0 11309700000.0 11309700000.0 11309700000.0 11309700000.0 11309700000.0 11309700000.0 11309700000.0 11309700000.0 11309700000.0 11309700000.0 11309700000.0 11309700000.0 11309700000.0 11309700000.0 11309700000.0 11309700000.0 11309700000.0 11309700000.0 11309700000.0 11309700000.0 11309700000.0 11309700000.0 11309700000.0 11309700000.0 11309700000.0 11309700000.0 11309700000.0 11309700000.0 11309700000.0 11309700000.0 11309700000.0 11309700000.0 11309700000.0 11309700000.0 11309700000.0 11309700000.0 11309700000.0 11309700000.0 11309700000.0 11309700000.0 11309700000.0 11309700000.0 11309700000.0 11309700000.0 11309700000.0 11309700000.0 11309700000.0 11309700000.0 11309700000.0 11309700000.0 11309700000.0 11309700000.0 11309700000.0 11309700000.0 11309700000.0 11309700000.0 11309700000.0 11309700000.0 11309700000.0 11309700000.0 11309700000.0 11309700000.0 11309700000.0 11309700000.0 11309700000.0 11309700000.0 11309700000.0 11309700000.0 11309700000.0 11309700000.0 11309700000.0 11309700000.0 11309700000.0 11309700000.0 11309700000.0 11309700000.0 11309700000.0 11309700000.0 11309700000.0 11309700000.0 11309700000.0 11309700000.0 11309700000.0 11309700000.0 11309700000.0 11309700000.0 11309700000.0 11309700000.0 11309700000.0 11309700000.0 11309700000.0 11309700000.0 11309700000.0 11309700000.0 11309700000.0 11309700000.0 11309700000.0 11309700000.0 11309700000.0 11309700000.0 11309700000.0 11309700000.0 11309700000.0 11309700000.0 11309700000.0 11309700000.0 11309700000.0 11309700000.0 11309700000.0 11309700000.0 11309700000.0 11309700000.0 11309700000.0 11309700000.0 11309700000.0 11309700000.0 11309700000.0 11309700000.0 11309700000.0 11309700000.0 11309700000.0 11309700000.0 11309700000.0 11309700000.0 11309700000.0 11309700000.0 11309700000.0 11309700000.0 11309700000.0 11309700000.0 11309700000.0 11309700000.0 11309700000.0 11309700000.0 11309700000.0 11309700000.0 11309700000.0 11309700000.0 11309700000.0 11309700000.0 11309700000.0 11309700000.0 11309700000.0 11309700000.0 11309700000.0 11309700000.0 11309700000.0 11309700000.0 11309700000.0 11309700000.0 11309700000.0 11309700000.0 11309700000.0 11309700000.0 11309700000.0 11309700000.0 11309700000.0 11309700000.0 11309700000.0 11309700000.0 11309700000.0 11309700000.0 11309700000.0 11309700000.0 11309700000.0 11309700000.0 11309700000.0 11309700000.0 11309700000.0 11309700000.0 11309700000.0 11309700000.0 11309700000.0 11309700000.0 11309700000.0 11309700000.0 11309700000.0 11309700000.0 11309700000.0 11309700000.0 11309700000.0 11309700000.0 11309700000.0 11309700000.0 11309700000.0 11309700000.0 11309700000.0 11309700000.0 11309700000.0 11309700000.0 11309700000.0 11309700000.0 11309700000.0 11309700000.0 11309700000.0 11309700000.0 11309700000.0 11309700000.0 11309700000.0 11309700000.0 11309700000.0 11309700000.0 11309700000.0 11309700000.0 11309700000.0 11309700000.0 11309700000.0 11309700000.0 11309700000.0 11309700000.0 11309700000.0 11309700000.0 11309700000.0 11309700000.0 11309700000.0 11309700000.0 11309700000.0 11309700000.0 11309700000.0 11309700000.0 11309700000.0 11309700000.0 11309700000.0 11309700000.0 11309700000.0 11309700000.0 11309700000.0 11309700000.0 11309700000.0 11309700000.0 11309700000.0 11309700000.0 11309700000.0 11309700000.0 11309700000.0 11309700000.0 11309700000.0 11309700000.0 11309700000.0 11309700000.0 11309700000.0 11309700000.0 11309700000.0 11309700000.0 11309700000.0 11309700000.0 11309700000.0 11309700000.0 11309700000.0 11309700000.0 11309700000.0 11309700000.0 11309700000.0 11309700000.0 11309700000.0 11309700000.0 11309700000.0 11309700000.0 11309700000.0 11309700000.0 11309700000.0 11309700000.0 11309700000.0 11309700000.0 11309700000.0 11309700000.0 11309700000.0 11309700000.0 11309700000.0 11309700000.0 11309700000.0 11309700000.0 11309700000.0 11309700000.0 11309700000.0 11309700000.0 11309700000.0 11309700000.0 11309700000.0 11309700000.0 11309700000.0 11309700000.0 11309700000.0 11309700000.0 11309700000.0 11309700000.0 11309700000.0 11309700000.0 11309700000.0 11309700000.0 11309700000.0 11309700000.0 11309700000.0 11309700000.0 11309700000.0 11309700000.0 11309700000.0 11309700000.0 11309700000.0 11309700000.0 11309700000.0 11309700000.0 11309700000.0 11309700000.0 11309700000.0 11309700000.0 11309700000.0 11309700000.0 11309700000.0 11309700000.0 11309700000.0 11309700000.0 11309700000.0 11309700000.0 11309700000.0 11309700000.0 11309700000.0 11309700000.0 11309700000.0 11309700000.0 11309700000.0 11309700000.0 11309700000.0 11309700000.0 11309700000.0 11309700000.0 11309700000.0 11309700000.0 11309700000.0 11309700000.0 11309700000.0 11309700000.0 11309700000.0 11309700000.0 11309700000.0 11309700000.0 11309700000.0 11309700000.0 11309700000.0 11309700000.0 11309700000.0 11309700000.0 11309700000.0 11309700000.0 11309700000.0 11309700000.0 11309700000.0 11309700000.0 11309700000.0 11309700000.0 11309700000.0 11309700000.0 11309700000.0 11309700000.0 11309700000.0 11309700000.0 11309700000.0 11309700000.0 11309700000.0 11309700000.0 11309700000.0 11309700000.0 11309700000.0 11309700000.0 11309700000.0 11309700000.0 11309700000.0 11309700000.0 11309700000.0 11309700000.0 11309700000.0 11309700000.0 11309700000.0 11309700000.0 11309700000.0 11309700000.0 11309700000.0 11309700000.0 11309700000.0 11309700000.0 11309700000.0 11309700000.0 11309700000.0 11309700000.0 11309700000.0 11309700000.0 11309700000.0 11309700000.0 11309700000.0 11309700000.0 11309700000.0 11309700000.0 11309700000.0 11309700000.0 11309700000.0 11309700000.0 11309700000.0 11309700000.0 11309700000.0 11309700000.0 11309700000.0 11309700000.0 11309700000.0 11309700000.0 11309700000.0 11309700000.0 11309700000.0 11309700000.0 11309700000.0 11309700000.0 11309700000.0 11309700000.0 11309700000.0 11309700000.0 11309700000.0 11309700000.0 11309700000.0 11309700000.0 11309700000.0 11309700000.0 11309700000.0 11309700000.0 11309700000.0 11309700000.0 11309700000.0 11309700000.0 11309700000.0 11309700000.0 11309700000.0 11309700000.0 11309700000.0 11309700000.0 11309700000.0 11309700000.0 11309700000.0 11309700000.0 11309700000.0 11309700000.0 11309700000.0 11309700000.0 11309700000.0 11309700000.0 11309700000.0 11309700000.0 11309700000.0 11309700000.0 11309700000.0 11309700000.0 11309700000.0 11309700000.0 11309700000.0 11309700000.0 11309700000.0 11309700000.0 11309700000.0 11309700000.0 11309700000.0 11309700000.0 11309700000.0 11309700000.0 11309700000.0 11309700000.0 11309700000.0 11309700000.0 11309700000.0 11309700000.0 11309700000.0 11309700000.0 11309700000.0 11309700000.0 11309700000.0 11309700000.0 11309700000.0 11309700000.0 11309700000.0 11309700000.0 11309700000.0 11309700000.0 11309700000.0 11309700000.0 11309700000.0 11309700000.0 11309700000.0 11309700000.0 11309700000.0 11309700000.0 11309700000.0 11309700000.0 11309700000.0 11309700000.0 11309700000.0 11309700000.0 11309700000.0 11309700000.0 11309700000.0 11309700000.0 11309700000.0 11309700000.0 11309700000.0 11309700000.0 11309700000.0 11309700000.0 11309700000.0 11309700000.0 11309700000.0 11309700000.0 11309700000.0 11309700000.0 11309700000.0 11309700000.0 11309700000.0 11309700000.0 11309700000.0 11309700000.0 11309700000.0 11309700000.0 11309700000.0 11309700000.0 11309700000.0 11309700000.0 11309700000.0 11309700000.0 11309700000.0 11309700000.0 11309700000.0 11309700000.0 11309700000.0 11309700000.0 11309700000.0 11309700000.0 11309700000.0 11309700000.0 11309700000.0 11309700000.0 11309700000.0 11309700000.0 11309700000.0 11309700000.0 11309700000.0 11309700000.0 11309700000.0 11309700000.0 11309700000.0 11309700000.0 11309700000.0 11309700000.0 11309700000.0 11309700000.0 11309700000.0 11309700000.0 11309700000.0 11309700000.0 11309700000.0 11309700000.0 11309700000.0 11309700000.0 11309700000.0 11309700000.0 11309700000.0 11309700000.0 11309700000.0 11309700000.0 11309700000.0 11309700000.0 11309700000.0 11309700000.0 11309700000.0 11309700000.0 11309700000.0 11309700000.0 11309700000.0 11309700000.0 11309700000.0 11309700000.0 11309700000.0 11309700000.0 11309700000.0 11309700000.0 11309700000.0 11309700000.0 11309700000.0 11309700000.0 11309700000.0 11309700000.0 11309700000.0 11309700000.0 11309700000.0 11309700000.0 11309700000.0 11309700000.0 11309700000.0 11309700000.0 11309700000.0 11309700000.0 11309700000.0 11309700000.0 11309700000.0 11309700000.0 11309700000.0 11309700000.0 11309700000.0 11309700000.0 11309700000.0 11309700000.0 11309700000.0 11309700000.0 11309700000.0 11309700000.0 11309700000.0 11309700000.0 11309700000.0 11309700000.0 11309700000.0 11309700000.0 11309700000.0 11309700000.0 11309700000.0 11309700000.0 11309700000.0 11309700000.0 11309700000.0 11309700000.0 11309700000.0 11309700000.0 11309700000.0 11309700000.0 11309700000.0 11309700000.0 11309700000.0 11309700000.0 11309700000.0 11309700000.0 11309700000.0 11309700000.0 11309700000.0 11309700000.0 11309700000.0 11309700000.0 11309700000.0 11309700000.0 11309700000.0 11309700000.0 11309700000.0 11309700000.0 11309700000.0 11309700000.0 11309700000.0 11309700000.0 11309700000.0 11309700000.0 11309700000.0 11309700000.0 11309700000.0 11309700000.0 11309700000.0 11309700000.0 11309700000.0 11309700000.0 11309700000.0 11309700000.0 11309700000.0 11309700000.0 11309700000.0 11309700000.0 11309700000.0 11309700000.0 11309700000.0 11309700000.0 11309700000.0 11309700000.0 11309700000.0 11309700000.0 11309700000.0 11309700000.0 11309700000.0 11309700000.0 11309700000.0 11309700000.0 11309700000.0 11309700000.0 11309700000.0 11309700000.0 11309700000.0 11309700000.0 11309700000.0 11309700000.0 11309700000.0 11309700000.0 11309700000.0 11309700000.0 11309700000.0 11309700000.0 11309700000.0 11309700000.0 11309700000.0 11309700000.0 11309700000.0 11309700000.0 11309700000.0 11309700000.0 11309700000.0 11309700000.0 11309700000.0 11309700000.0 11309700000.0 11309700000.0 11309700000.0 11309700000.0 11309700000.0 11309700000.0 11309700000.0 11309700000.0 11309700000.0 11309700000.0 11309700000.0 11309700000.0 11309700000.0 11309700000.0 11309700000.0 11309700000.0 11309700000.0 11309700000.0 11309700000.0 11309700000.0 11309700000.0 11309700000.0 11309700000.0 11309700000.0 11309700000.0 11309700000.0 11309700000.0 11309700000.0 11309700000.0 11309700000.0 11309700000.0 11309700000.0 11309700000.0 11309700000.0 11309700000.0 11309700000.0 11309700000.0 11309700000.0 11309700000.0 11309700000.0 11309700000.0 11309700000.0 11309700000.0 11309700000.0 11309700000.0 11309700000.0 11309700000.0 11309700000.0 11309700000.0 11309700000.0 11309700000.0 11309700000.0 11309700000.0 11309700000.0 11309700000.0 11309700000.0 11309700000.0 11309700000.0 11309700000.0 11309700000.0 11309700000.0 11309700000.0 11309700000.0 11309700000.0 11309700000.0 11309700000.0 11309700000.0 11309700000.0 11309700000.0 11309700000.0 11309700000.0 11309700000.0 11309700000.0 11309700000.0 11309700000.0 11309700000.0 11309700000.0 11309700000.0 11309700000.0 11309700000.0 11309700000.0 11309700000.0 11309700000.0 11309700000.0 11309700000.0 11309700000.0 11309700000.0 11309700000.0 11309700000.0 11309700000.0 11309700000.0 11309700000.0 11309700000.0 11309700000.0 11309700000.0 11309700000.0 11309700000.0 11309700000.0 11309700000.0 11309700000.0 11309700000.0 11309700000.0 11309700000.0 11309700000.0 11309700000.0 11309700000.0 11309700000.0 11309700000.0 11309700000.0 11309700000.0 11309700000.0 11309700000.0 11309700000.0 11309700000.0 11309700000.0 11309700000.0 11309700000.0 11309700000.0 11309700000.0 11309700000.0 11309700000.0 11309700000.0 11309700000.0 11309700000.0 11309700000.0 11309700000.0 11309700000.0 11309700000.0 11309700000.0 11309700000.0 11309700000.0 11309700000.0 11309700000.0 11309700000.0 11309700000.0 11309700000.0 11309700000.0 11309700000.0 11309700000.0 11309700000.0 11309700000.0 11309700000.0 11309700000.0 11309700000.0 11309700000.0 11309700000.0 11309700000.0 11309700000.0 11309700000.0 11309700000.0 11309700000.0 11309700000.0 11309700000.0 11309700000.0 11309700000.0 11309700000.0 11309700000.0 11309700000.0 11309700000.0 11309700000.0 11309700000.0 11309700000.0 11309700000.0 11309700000.0 11309700000.0 11309700000.0 11309700000.0 11309700000.0 11309700000.0 11309700000.0 11309700000.0 11309700000.0 11309700000.0 11309700000.0 11309700000.0 11309700000.0 11309700000.0 11309700000.0 11309700000.0 11309700000.0 11309700000.0 11309700000.0 11309700000.0 11309700000.0 11309700000.0 11309700000.0 11309700000.0 11309700000.0 11309700000.0 11309700000.0 11309700000.0 11309700000.0 11309700000.0 11309700000.0 11309700000.0 11309700000.0 11309700000.0 11309700000.0 11309700000.0 11309700000.0 11309700000.0 11309700000.0 11309700000.0 11309700000.0 11309700000.0 11309700000.0 11309700000.0 11309700000.0 11309700000.0 11309700000.0 11309700000.0 11309700000.0 11309700000.0 11309700000.0 11309700000.0 11309700000.0 11309700000.0 11309700000.0 11309700000.0 11309700000.0 11309700000.0 11309700000.0 11309700000.0 11309700000.0 11309700000.0 11309700000.0 11309700000.0 11309700000.0 11309700000.0 11309700000.0 11309700000.0 11309700000.0 11309700000.0 11309700000.0 11309700000.0 11309700000.0 11309700000.0 11309700000.0 11309700000.0 11309700000.0 11309700000.0 11309700000.0 11309700000.0 11309700000.0 11309700000.0 11309700000.0 11309700000.0 11309700000.0 11309700000.0 11309700000.0 11309700000.0 11309700000.0 11309700000.0 11309700000.0 11309700000.0 11309700000.0 11309700000.0 11309700000.0 11309700000.0 11309700000.0 11309700000.0 11309700000.0 11309700000.0 11309700000.0 11309700000.0 11309700000.0 11309700000.0 11309700000.0 11309700000.0 11309700000.0 11309700000.0 11309700000.0 11309700000.0 11309700000.0 11309700000.0 11309700000.0 11309700000.0 11309700000.0 11309700000.0 11309700000.0 11309700000.0 11309700000.0 11309700000.0 11309700000.0 11309700000.0 11309700000.0 11309700000.0 11309700000.0 11309700000.0 11309700000.0 11309700000.0 11309700000.0 11309700000.0 11309700000.0 11309700000.0 11309700000.0 11309700000.0 11309700000.0 11309700000.0 11309700000.0 11309700000.0 11309700000.0 11309700000.0 11309700000.0 11309700000.0 11309700000.0 11309700000.0 11309700000.0 11309700000.0 11309700000.0 11309700000.0 11309700000.0 11309700000.0 11309700000.0 11309700000.0 11309700000.0 11309700000.0 11309700000.0 11309700000.0 11309700000.0 11309700000.0 11309700000.0 11309700000.0 11309700000.0 11309700000.0 11309700000.0 11309700000.0 11309700000.0 11309700000.0 11309700000.0 11309700000.0 11309700000.0 11309700000.0 11309700000.0 11309700000.0 11309700000.0 11309700000.0 11309700000.0 11309700000.0 11309700000.0 11309700000.0 11309700000.0 11309700000.0 11309700000.0 11309700000.0 11309700000.0 11309700000.0 11309700000.0 11309700000.0 11309700000.0 11309700000.0 11309700000.0 11309700000.0 11309700000.0 11309700000.0 11309700000.0 11309700000.0 11309700000.0 11309700000.0 11309700000.0 11309700000.0 11309700000.0 11309700000.0 11309700000.0 11309700000.0 11309700000.0 11309700000.0 11309700000.0 11309700000.0 11309700000.0 11309700000.0 11309700000.0 11309700000.0 11309700000.0 11309700000.0 11309700000.0 11309700000.0 11309700000.0 11309700000.0 11309700000.0 11309700000.0 11309700000.0 11309700000.0 11309700000.0 11309700000.0 11309700000.0 11309700000.0 11309700000.0 11309700000.0 11309700000.0 11309700000.0 11309700000.0 11309700000.0 11309700000.0 11309700000.0 11309700000.0 11309700000.0 11309700000.0 11309700000.0 11309700000.0 11309700000.0 11309700000.0 11309700000.0 11309700000.0 11309700000.0 11309700000.0 11309700000.0 11309700000.0 11309700000.0 11309700000.0 11309700000.0 11309700000.0 11309700000.0 11309700000.0 11309700000.0 11309700000.0 11309700000.0 11309700000.0 11309700000.0 11309700000.0 11309700000.0 11309700000.0 11309700000.0 11309700000.0 11309700000.0 11309700000.0 11309700000.0 11309700000.0 11309700000.0 11309700000.0 11309700000.0 11309700000.0 11309700000.0 11309700000.0 11309700000.0 11309700000.0 11309700000.0 11309700000.0 11309700000.0 11309700000.0 11309700000.0 11309700000.0 11309700000.0 11309700000.0 11309700000.0 11309700000.0 11309700000.0 11309700000.0 11309700000.0 11309700000.0 11309700000.0 11309700000.0 11309700000.0 11309700000.0 11309700000.0 11309700000.0 11309700000.0 11309700000.0 11309700000.0 11309700000.0 11309700000.0 11309700000.0 11309700000.0 11309700000.0 11309700000.0 11309700000.0 11309700000.0 11309700000.0 11309700000.0 11309700000.0 11309700000.0 11309700000.0 11309700000.0 11309700000.0 11309700000.0 11309700000.0 11309700000.0 11309700000.0 11309700000.0 11309700000.0 11309700000.0 11309700000.0 11309700000.0 11309700000.0 11309700000.0 11309700000.0 11309700000.0 11309700000.0 11309700000.0 11309700000.0 11309700000.0 11309700000.0 11309700000.0 11309700000.0 11309700000.0 11309700000.0 11309700000.0 11309700000.0 11309700000.0 11309700000.0 11309700000.0 11309700000.0 11309700000.0 11309700000.0 11309700000.0 11309700000.0 11309700000.0 11309700000.0 11309700000.0 11309700000.0 11309700000.0 11309700000.0 11309700000.0 11309700000.0 11309700000.0 11309700000.0 11309700000.0 11309700000.0 11309700000.0 11309700000.0 11309700000.0 11309700000.0 11309700000.0 11309700000.0 11309700000.0 11309700000.0 11309700000.0 11309700000.0 11309700000.0 11309700000.0 11309700000.0 11309700000.0 11309700000.0 11309700000.0 11309700000.0 11309700000.0 11309700000.0 11309700000.0 11309700000.0 11309700000.0 11309700000.0 11309700000.0 11309700000.0 11309700000.0 11309700000.0 11309700000.0 11309700000.0 11309700000.0 11309700000.0 11309700000.0 11309700000.0 11309700000.0 11309700000.0 11309700000.0 11309700000.0 11309700000.0 11309700000.0 11309700000.0 11309700000.0 11309700000.0 11309700000.0 11309700000.0 11309700000.0 11309700000.0 11309700000.0 11309700000.0 11309700000.0 11309700000.0 11309700000.0 11309700000.0 11309700000.0 11309700000.0 11309700000.0 11309700000.0 11309700000.0 11309700000.0 11309700000.0 11309700000.0 11309700000.0 11309700000.0 11309700000.0 11309700000.0 11309700000.0 11309700000.0 11309700000.0 11309700000.0 11309700000.0 11309700000.0 11309700000.0 11309700000.0 11309700000.0 11309700000.0 11309700000.0 11309700000.0 11309700000.0 11309700000.0 11309700000.0 11309700000.0 11309700000.0 11309700000.0 11309700000.0 11309700000.0 11309700000.0 11309700000.0 11309700000.0 11309700000.0 11309700000.0 11309700000.0 11309700000.0 11309700000.0 11309700000.0 11309700000.0 11309700000.0 11309700000.0 11309700000.0 11309700000.0 11309700000.0 11309700000.0 11309700000.0 11309700000.0 11309700000.0 11309700000.0 11309700000.0 11309700000.0 11309700000.0 11309700000.0 11309700000.0 11309700000.0 11309700000.0 11309700000.0 11309700000.0 11309700000.0 11309700000.0 11309700000.0 11309700000.0 11309700000.0 11309700000.0 11309700000.0 11309700000.0 11309700000.0 11309700000.0 11309700000.0 11309700000.0 11309700000.0 11309700000.0 11309700000.0 11309700000.0 11309700000.0 11309700000.0 11309700000.0 11309700000.0 11309700000.0 11309700000.0 11309700000.0 11309700000.0 11309700000.0 11309700000.0 11309700000.0 11309700000.0 11309700000.0 11309700000.0 11309700000.0 11309700000.0 11309700000.0 11309700000.0 11309700000.0 11309700000.0 11309700000.0 11309700000.0 11309700000.0 11309700000.0 11309700000.0 11309700000.0 11309700000.0 11309700000.0 11309700000.0 11309700000.0 11309700000.0 11309700000.0 11309700000.0 11309700000.0 11309700000.0 11309700000.0 11309700000.0 11309700000.0 11309700000.0 11309700000.0 11309700000.0 11309700000.0 11309700000.0 11309700000.0 11309700000.0 11309700000.0 11309700000.0 11309700000.0 11309700000.0 11309700000.0 11309700000.0 11309700000.0 11309700000.0 11309700000.0 11309700000.0 11309700000.0 11309700000.0 11309700000.0 11309700000.0 11309700000.0 11309700000.0 11309700000.0 11309700000.0 11309700000.0 11309700000.0 11309700000.0 11309700000.0 11309700000.0 11309700000.0 11309700000.0 11309700000.0 11309700000.0 11309700000.0 11309700000.0 11309700000.0 11309700000.0 11309700000.0 11309700000.0 11309700000.0 11309700000.0 11309700000.0 11309700000.0 11309700000.0 11309700000.0 11309700000.0 11309700000.0 11309700000.0 11309700000.0 11309700000.0 11309700000.0 11309700000.0 11309700000.0 11309700000.0 11309700000.0 11309700000.0 11309700000.0 11309700000.0 11309700000.0 11309700000.0 11309700000.0 11309700000.0 11309700000.0 11309700000.0 11309700000.0 11309700000.0 11309700000.0 11309700000.0 11309700000.0 11309700000.0 11309700000.0 11309700000.0 11309700000.0 11309700000.0 11309700000.0 11309700000.0 11309700000.0 11309700000.0 11309700000.0 11309700000.0 11309700000.0 11309700000.0 11309700000.0 11309700000.0 11309700000.0 11309700000.0 11309700000.0 11309700000.0 11309700000.0 11309700000.0 11309700000.0 11309700000.0 11309700000.0 11309700000.0 11309700000.0 11309700000.0 11309700000.0 11309700000.0 11309700000.0 11309700000.0 11309700000.0 11309700000.0 11309700000.0 11309700000.0 11309700000.0 11309700000.0 11309700000.0 11309700000.0 11309700000.0 11309700000.0 11309700000.0 11309700000.0 11309700000.0 11309700000.0 11309700000.0 11309700000.0 11309700000.0 11309700000.0 11309700000.0 11309700000.0 11309700000.0 11309700000.0 11309700000.0 11309700000.0 11309700000.0 11309700000.0 11309700000.0 11309700000.0 11309700000.0 11309700000.0 11309700000.0 11309700000.0 11309700000.0 11309700000.0 11309700000.0 11309700000.0 11309700000.0 11309700000.0 11309700000.0 11309700000.0 11309700000.0 11309700000.0 11309700000.0 11309700000.0 11309700000.0 11309700000.0 11309700000.0 11309700000.0 11309700000.0 11309700000.0 11309700000.0 11309700000.0 11309700000.0 11309700000.0 11309700000.0 11309700000.0 11309700000.0 11309700000.0 11309700000.0 11309700000.0 11309700000.0 11309700000.0 11309700000.0 11309700000.0 11309700000.0 11309700000.0 11309700000.0 11309700000.0 11309700000.0 11309700000.0 11309700000.0 11309700000.0 11309700000.0 11309700000.0 11309700000.0 11309700000.0 11309700000.0 11309700000.0 11309700000.0 11309700000.0 11309700000.0 11309700000.0 11309700000.0 11309700000.0 11309700000.0 11309700000.0 11309700000.0 11309700000.0 11309700000.0 11309700000.0 11309700000.0 11309700000.0 11309700000.0 11309700000.0 11309700000.0 11309700000.0 11309700000.0 11309700000.0 11309700000.0 11309700000.0 11309700000.0 11309700000.0 11309700000.0 11309700000.0 11309700000.0 11309700000.0 11309700000.0 11309700000.0 11309700000.0 11309700000.0 11309700000.0 11309700000.0 11309700000.0 11309700000.0 11309700000.0 11309700000.0 11309700000.0 11309700000.0 11309700000.0 11309700000.0 11309700000.0 11309700000.0 11309700000.0 11309700000.0 11309700000.0 11309700000.0 11309700000.0 11309700000.0 11309700000.0 11309700000.0 11309700000.0 11309700000.0 11309700000.0 11309700000.0 11309700000.0 11309700000.0 11309700000.0 11309700000.0 11309700000.0 11309700000.0 11309700000.0 11309700000.0 11309700000.0 11309700000.0 11309700000.0 11309700000.0 11309700000.0 11309700000.0 11309700000.0 11309700000.0 11309700000.0 11309700000.0 11309700000.0 11309700000.0 11309700000.0 11309700000.0 11309700000.0 11309700000.0 11309700000.0 11309700000.0 11309700000.0 11309700000.0 11309700000.0 11309700000.0 11309700000.0 11309700000.0 11309700000.0 11309700000.0 11309700000.0 11309700000.0 11309700000.0 11309700000.0 11309700000.0 11309700000.0 11309700000.0 11309700000.0 11309700000.0 11309700000.0 11309700000.0 11309700000.0 11309700000.0 11309700000.0 11309700000.0 11309700000.0 11309700000.0 11309700000.0 11309700000.0 11309700000.0 11309700000.0 11309700000.0 11309700000.0 11309700000.0 11309700000.0 11309700000.0 11309700000.0 11309700000.0 11309700000.0 11309700000.0 11309700000.0 11309700000.0 11309700000.0 11309700000.0 11309700000.0 11309700000.0 11309700000.0 11309700000.0 11309700000.0 11309700000.0 11309700000.0 11309700000.0 11309700000.0 11309700000.0 11309700000.0 11309700000.0 11309700000.0 11309700000.0 11309700000.0 11309700000.0 11309700000.0 11309700000.0 11309700000.0 11309700000.0 11309700000.0 11309700000.0 11309700000.0 11309700000.0 11309700000.0 11309700000.0 11309700000.0 11309700000.0 11309700000.0 11309700000.0 11309700000.0 11309700000.0 11309700000.0 11309700000.0 11309700000.0 11309700000.0 11309700000.0 11309700000.0 11309700000.0 11309700000.0 11309700000.0 11309700000.0 11309700000.0 11309700000.0 11309700000.0 11309700000.0 11309700000.0 11309700000.0 11309700000.0 11309700000.0 11309700000.0 11309700000.0 11309700000.0 11309700000.0 11309700000.0 11309700000.0 11309700000.0 11309700000.0 11309700000.0 11309700000.0 11309700000.0 11309700000.0 11309700000.0 11309700000.0 11309700000.0 11309700000.0 11309700000.0 11309700000.0 11309700000.0 11309700000.0 11309700000.0 11309700000.0 11309700000.0 11309700000.0 11309700000.0 11309700000.0 11309700000.0 11309700000.0 11309700000.0 11309700000.0 11309700000.0 11309700000.0 11309700000.0 11309700000.0 11309700000.0 11309700000.0 11309700000.0 11309700000.0 11309700000.0 11309700000.0 11309700000.0 11309700000.0 11309700000.0 11309700000.0 11309700000.0 11309700000.0 11309700000.0 11309700000.0 11309700000.0 11309700000.0 11309700000.0 11309700000.0 11309700000.0 11309700000.0 11309700000.0 11309700000.0 11309700000.0 11309700000.0 11309700000.0 11309700000.0 11309700000.0 11309700000.0 11309700000.0 11309700000.0 11309700000.0 11309700000.0 11309700000.0 11309700000.0 11309700000.0 11309700000.0 11309700000.0 11309700000.0 11309700000.0 11309700000.0 11309700000.0 11309700000.0 11309700000.0 11309700000.0 11309700000.0 11309700000.0 11309700000.0 11309700000.0 11309700000.0 11309700000.0 11309700000.0 11309700000.0 11309700000.0 11309700000.0 11309700000.0 11309700000.0 11309700000.0 11309700000.0 11309700000.0 11309700000.0 11309700000.0 11309700000.0 11309700000.0 11309700000.0 11309700000.0 11309700000.0 11309700000.0 11309700000.0 11309700000.0 11309700000.0 11309700000.0 11309700000.0 11309700000.0 11309700000.0 11309700000.0 11309700000.0 11309700000.0 11309700000.0 11309700000.0 11309700000.0 11309700000.0 11309700000.0 11309700000.0 11309700000.0 11309700000.0 11309700000.0 11309700000.0 11309700000.0 11309700000.0 11309700000.0 11309700000.0 11309700000.0 11309700000.0 11309700000.0 11309700000.0 11309700000.0 11309700000.0 11309700000.0 11309700000.0 11309700000.0 11309700000.0 11309700000.0 11309700000.0 11309700000.0 11309700000.0 11309700000.0 11309700000.0 11309700000.0 11309700000.0 11309700000.0 11309700000.0 11309700000.0 11309700000.0 11309700000.0 11309700000.0 11309700000.0 11309700000.0 11309700000.0 11309700000.0 11309700000.0 11309700000.0 11309700000.0 11309700000.0 11309700000.0 11309700000.0 11309700000.0 11309700000.0 11309700000.0 11309700000.0 11309700000.0 11309700000.0 11309700000.0 11309700000.0 11309700000.0 11309700000.0 11309700000.0 11309700000.0 11309700000.0 11309700000.0 11309700000.0 11309700000.0 11309700000.0 11309700000.0 11309700000.0 11309700000.0 11309700000.0 11309700000.0 11309700000.0 11309700000.0 11309700000.0 11309700000.0 11309700000.0 11309700000.0 11309700000.0 11309700000.0 11309700000.0 11309700000.0 11309700000.0 11309700000.0 11309700000.0 11309700000.0 11309700000.0 11309700000.0 11309700000.0 11309700000.0 11309700000.0 11309700000.0 11309700000.0 11309700000.0 11309700000.0 11309700000.0 11309700000.0 11309700000.0 11309700000.0 11309700000.0 11309700000.0 11309700000.0 11309700000.0 11309700000.0 11309700000.0 11309700000.0 11309700000.0 11309700000.0 11309700000.0 11309700000.0 11309700000.0 11309700000.0 11309700000.0 11309700000.0 11309700000.0 11309700000.0 11309700000.0 11309700000.0 11309700000.0 11309700000.0 11309700000.0 11309700000.0 11309700000.0 11309700000.0 11309700000.0 11309700000.0 11309700000.0 11309700000.0 11309700000.0 11309700000.0 11309700000.0 11309700000.0 11309700000.0 11309700000.0 11309700000.0 11309700000.0 11309700000.0 11309700000.0 11309700000.0 11309700000.0 11309700000.0 11309700000.0 11309700000.0 11309700000.0 11309700000.0 11309700000.0 11309700000.0 11309700000.0 11309700000.0 11309700000.0 11309700000.0 11309700000.0 11309700000.0 11309700000.0 11309700000.0 11309700000.0 11309700000.0 11309700000.0 11309700000.0 11309700000.0 11309700000.0 11309700000.0 11309700000.0 11309700000.0 11309700000.0 11309700000.0 11309700000.0 11309700000.0 11309700000.0 11309700000.0 11309700000.0 11309700000.0 11309700000.0 11309700000.0 11309700000.0 11309700000.0 11309700000.0 11309700000.0 11309700000.0 11309700000.0 11309700000.0 11309700000.0 11309700000.0 11309700000.0 11309700000.0 11309700000.0 11309700000.0 11309700000.0 11309700000.0 11309700000.0 11309700000.0 11309700000.0 11309700000.0 11309700000.0 11309700000.0 11309700000.0 11309700000.0 11309700000.0 11309700000.0 11309700000.0 11309700000.0 11309700000.0 11309700000.0 11309700000.0 11309700000.0 11309700000.0 11309700000.0 11309700000.0 11309700000.0 11309700000.0 11309700000.0 11309700000.0 11309700000.0 11309700000.0 11309700000.0 11309700000.0 11309700000.0 11309700000.0 11309700000.0 11309700000.0 11309700000.0 11309700000.0 11309700000.0 11309700000.0 11309700000.0 11309700000.0 11309700000.0 11309700000.0 11309700000.0 11309700000.0 11309700000.0 11309700000.0 11309700000.0 11309700000.0 11309700000.0 11309700000.0 11309700000.0 11309700000.0 11309700000.0 11309700000.0 11309700000.0 11309700000.0 11309700000.0 11309700000.0 11309700000.0 11309700000.0 11309700000.0 11309700000.0 11309700000.0 11309700000.0 11309700000.0 11309700000.0 11309700000.0 11309700000.0 11309700000.0 11309700000.0 11309700000.0 11309700000.0 11309700000.0 11309700000.0 11309700000.0 11309700000.0 11309700000.0 11309700000.0 11309700000.0 11309700000.0 11309700000.0 11309700000.0 11309700000.0 11309700000.0 11309700000.0 11309700000.0 11309700000.0 11309700000.0 11309700000.0 11309700000.0 11309700000.0 11309700000.0 11309700000.0 11309700000.0 11309700000.0 11309700000.0 11309700000.0 11309700000.0 11309700000.0 11309700000.0 11309700000.0 11309700000.0 11309700000.0 11309700000.0 11309700000.0 11309700000.0 11309700000.0 11309700000.0 11309700000.0 11309700000.0 11309700000.0 11309700000.0 11309700000.0 11309700000.0 11309700000.0 11309700000.0 11309700000.0 11309700000.0 11309700000.0 11309700000.0 11309700000.0 11309700000.0 11309700000.0 11309700000.0 11309700000.0 11309700000.0 11309700000.0 11309700000.0 11309700000.0 11309700000.0 11309700000.0 11309700000.0 11309700000.0 11309700000.0 11309700000.0 11309700000.0 11309700000.0 11309700000.0 11309700000.0 11309700000.0 11309700000.0 11309700000.0 11309700000.0 11309700000.0 11309700000.0 11309700000.0 11309700000.0 11309700000.0 11309700000.0 11309700000.0 11309700000.0 11309700000.0 11309700000.0 11309700000.0 11309700000.0 11309700000.0 11309700000.0 11309700000.0 11309700000.0 11309700000.0 11309700000.0 11309700000.0 11309700000.0 11309700000.0 11309700000.0 11309700000.0 11309700000.0 11309700000.0 11309700000.0 11309700000.0 11309700000.0 11309700000.0 11309700000.0 11309700000.0 11309700000.0 11309700000.0 11309700000.0 11309700000.0 11309700000.0 11309700000.0 11309700000.0 11309700000.0 11309700000.0 11309700000.0 11309700000.0 11309700000.0 11309700000.0 11309700000.0 11309700000.0 11309700000.0 11309700000.0 11309700000.0 11309700000.0 11309700000.0 11309700000.0 11309700000.0 11309700000.0 11309700000.0 11309700000.0 11309700000.0 11309700000.0 11309700000.0 11309700000.0 11309700000.0 11309700000.0 11309700000.0 11309700000.0 11309700000.0 11309700000.0 11309700000.0 11309700000.0 11309700000.0 11309700000.0 11309700000.0 11309700000.0 11309700000.0 11309700000.0 11309700000.0 11309700000.0 11309700000.0 11309700000.0 11309700000.0 11309700000.0 11309700000.0 11309700000.0 11309700000.0 11309700000.0 11309700000.0 11309700000.0 11309700000.0 11309700000.0 11309700000.0 11309700000.0 11309700000.0 11309700000.0 11309700000.0 11309700000.0 11309700000.0 11309700000.0 11309700000.0 11309700000.0 11309700000.0 11309700000.0 11309700000.0 11309700000.0 11309700000.0 11309700000.0 11309700000.0 11309700000.0 11309700000.0 11309700000.0 11309700000.0 11309700000.0 11309700000.0 11309700000.0 11309700000.0 11309700000.0 11309700000.0 11309700000.0 11309700000.0 11309700000.0 11309700000.0 11309700000.0 11309700000.0 11309700000.0 11309700000.0 11309700000.0 11309700000.0 11309700000.0 11309700000.0 11309700000.0 11309700000.0 11309700000.0 11309700000.0 11309700000.0 11309700000.0 11309700000.0 11309700000.0 11309700000.0 11309700000.0 11309700000.0 11309700000.0 11309700000.0 11309700000.0 11309700000.0 11309700000.0 11309700000.0 11309700000.0 11309700000.0 11309700000.0 11309700000.0 11309700000.0 11309700000.0 11309700000.0 11309700000.0 11309700000.0 11309700000.0 11309700000.0 11309700000.0 11309700000.0 11309700000.0 11309700000.0 11309700000.0 11309700000.0 11309700000.0 11309700000.0 11309700000.0 11309700000.0 11309700000.0 11309700000.0 11309700000.0 11309700000.0 11309700000.0 11309700000.0 11309700000.0 11309700000.0 11309700000.0 11309700000.0 11309700000.0 11309700000.0 11309700000.0 11309700000.0 11309700000.0 11309700000.0 11309700000.0 11309700000.0 11309700000.0 11309700000.0 11309700000.0 11309700000.0 11309700000.0 11309700000.0 11309700000.0 11309700000.0 11309700000.0 11309700000.0 11309700000.0 11309700000.0 11309700000.0 11309700000.0 11309700000.0 11309700000.0 11309700000.0 11309700000.0 11309700000.0 11309700000.0 11309700000.0 11309700000.0 11309700000.0 11309700000.0 11309700000.0 11309700000.0 11309700000.0 11309700000.0 11309700000.0 11309700000.0 11309700000.0 11309700000.0 11309700000.0 11309700000.0 11309700000.0 11309700000.0 11309700000.0 11309700000.0 11309700000.0 11309700000.0 11309700000.0 11309700000.0 11309700000.0 11309700000.0 11309700000.0 11309700000.0 11309700000.0 11309700000.0 11309700000.0 11309700000.0 11309700000.0 11309700000.0 11309700000.0 11309700000.0 11309700000.0 11309700000.0 11309700000.0 11309700000.0 11309700000.0 11309700000.0 11309700000.0 11309700000.0 11309700000.0 11309700000.0 11309700000.0 11309700000.0 11309700000.0 11309700000.0 11309700000.0 11309700000.0 11309700000.0 11309700000.0 11309700000.0 11309700000.0 11309700000.0 11309700000.0 11309700000.0 11309700000.0 11309700000.0 11309700000.0 11309700000.0 11309700000.0 11309700000.0 11309700000.0 11309700000.0 11309700000.0 11309700000.0 11309700000.0 11309700000.0 11309700000.0 11309700000.0 11309700000.0 11309700000.0 11309700000.0 11309700000.0 11309700000.0 11309700000.0 11309700000.0 11309700000.0 11309700000.0 11309700000.0 11309700000.0 11309700000.0 11309700000.0 11309700000.0 11309700000.0 11309700000.0 11309700000.0 11309700000.0 11309700000.0 11309700000.0 11309700000.0 11309700000.0 11309700000.0 11309700000.0 11309700000.0 11309700000.0 11309700000.0 11309700000.0 11309700000.0 11309700000.0 11309700000.0 11309700000.0 11309700000.0 11309700000.0 11309700000.0 11309700000.0 11309700000.0 11309700000.0 11309700000.0 11309700000.0 11309700000.0 11309700000.0 11309700000.0 11309700000.0 11309700000.0 11309700000.0 11309700000.0 11309700000.0 11309700000.0 11309700000.0 11309700000.0 11309700000.0 11309700000.0 11309700000.0 11309700000.0 11309700000.0 11309700000.0 11309700000.0 11309700000.0 11309700000.0 11309700000.0 11309700000.0 11309700000.0 11309700000.0 11309700000.0 11309700000.0 11309700000.0 11309700000.0 11309700000.0 11309700000.0 11309700000.0 11309700000.0 11309700000.0 11309700000.0 11309700000.0 11309700000.0 11309700000.0 11309700000.0 11309700000.0 11309700000.0 11309700000.0 11309700000.0 11309700000.0 11309700000.0 11309700000.0 11309700000.0 11309700000.0 11309700000.0 11309700000.0 11309700000.0 11309700000.0 11309700000.0 11309700000.0 11309700000.0 11309700000.0 11309700000.0 11309700000.0 11309700000.0 11309700000.0 11309700000.0 11309700000.0 11309700000.0 11309700000.0 11309700000.0 11309700000.0 11309700000.0 11309700000.0 11309700000.0 11309700000.0 11309700000.0 11309700000.0 11309700000.0 11309700000.0 11309700000.0 11309700000.0 11309700000.0 11309700000.0 11309700000.0 11309700000.0 11309700000.0 11309700000.0 11309700000.0 11309700000.0 11309700000.0 11309700000.0 11309700000.0 11309700000.0 11309700000.0 11309700000.0 11309700000.0 11309700000.0 11309700000.0 11309700000.0 11309700000.0 11309700000.0 11309700000.0 11309700000.0 11309700000.0 11309700000.0 11309700000.0 11309700000.0 11309700000.0 11309700000.0 11309700000.0 11309700000.0 11309700000.0 11309700000.0 11309700000.0 11309700000.0 11309700000.0 11309700000.0 11309700000.0 11309700000.0 11309700000.0 11309700000.0 11309700000.0 11309700000.0 11309700000.0 11309700000.0 11309700000.0 11309700000.0 11309700000.0 11309700000.0 11309700000.0 11309700000.0 11309700000.0 11309700000.0 11309700000.0 11309700000.0 11309700000.0 11309700000.0 11309700000.0 11309700000.0 11309700000.0 11309700000.0 11309700000.0 11309700000.0 11309700000.0 11309700000.0 11309700000.0 11309700000.0 11309700000.0 11309700000.0 11309700000.0 11309700000.0 11309700000.0 11309700000.0 11309700000.0 11309700000.0 11309700000.0 11309700000.0 11309700000.0 11309700000.0 11309700000.0 11309700000.0 11309700000.0 11309700000.0 11309700000.0 11309700000.0 11309700000.0 11309700000.0 11309700000.0 11309700000.0 11309700000.0 11309700000.0 11309700000.0 11309700000.0 11309700000.0 11309700000.0 11309700000.0 11309700000.0 11309700000.0 11309700000.0 11309700000.0 11309700000.0 11309700000.0 11309700000.0 11309700000.0 11309700000.0 11309700000.0 11309700000.0 11309700000.0 11309700000.0 11309700000.0 11309700000.0 11309700000.0 11309700000.0 11309700000.0 11309700000.0 11309700000.0 11309700000.0 11309700000.0 11309700000.0 11309700000.0 11309700000.0 11309700000.0 11309700000.0 11309700000.0 11309700000.0 11309700000.0 11309700000.0 11309700000.0 
SCALARS Velocity float 1
LOOKUP_TABLE default
1.07778 1.06936 1.07834 1.10251 1.08045 1.08014 1.07926 1.07841 1.0745 1.01029 1.0817 1.07703 1.07194 1.06633 1.06788 1.06875 1.07014 1.07068 1.07917 1.08028 1.08034 1.08057 1.07943 1.07719 1.07202 1.01237 1.03625 1.07913 1.07356 1.07181 1.06705 1.06949 1.10241 1.0792 1.08006 1.08037 1.0801 1.07859 1.07465 1.07145 1.02944 1.0836 1.07376 1.07102 1.07153 1.06612 1.06767 1.07081 1.10094 1.07982 1.08 1.07995 1.08025 1.07984 1.07942 1.07843 1.07722 1.07512 1.06285 1.00715 1.07996 1.08022 1.07707 1.07369 1.07233 1.07099 1.07105 1.07089 1.06565 1.06631 1.0668 1.06845 1.07046 1.07934 1.07928 1.07949 1.07932 1.07988 1.07907 1.07699 1.07139 1.04552 1.07847 1.07635 1.07209 1.07063 1.06564 1.06791 1.09912 1.07919 1.07842 1.07959 1.07944 1.07786 1.07477 1.06104 1.07671 1.0778 1.07368 1.07099 1.0705 1.065 1.06632 1.06968 1.09671 1.07789 1.07909 1.07952 1.07956 1.07901 1.07853 1.07709 1.07604 1.0737 1.07133 1.07901 1.0794 1.07754 1.07707 1.07628 1.07538 1.07336 1.07203 1.07095 1.07047 1.07028 1.0643 1.06483 1.06529 1.06864 1.07095 1.07496 1.07755 1.07864 1.07942 1.07938 1.07793 1.07534 1.07467 1.07886 1.07674 1.0746 1.07189 1.07035 1.06385 1.06813 1.05989 1.07327 1.07534 1.07894 1.07969 1.07861 1.07649 1.07483 1.07778 1.07748 1.07559 1.07299 1.07085 1.0701 1.06388 1.06313 1.05611 1.06929 1.07758 1.07977 1.07926 1.0782 1.07738 1.07617 1.07549 1.07526 1.07567 1.07686 1.07775 1.07684 1.07635 1.07506 1.0741 1.07263 1.07166 1.07066 1.07021 1.06989 1.06355 1.06324 1.05518 1.06021 1.07365 1.07713 1.07924 1.08005 1.07982 1.07906 1.07685 1.07534 1.0756 1.07678 1.0758 1.07365 1.07138 1.07 1.06198 1.05997 1.05596 1.05591 1.05911 1.06659 1.0726 1.07943 1.07983 1.07764 1.07561 1.07501 1.07602 1.07615 1.07457 1.07226 1.07041 1.06965 1.06347 1.0593 1.05577 1.06417 1.07721 1.08024 1.0787 1.07672 1.07601 1.07464 1.07476 1.07436 1.07506 1.07519 1.07592 1.07548 1.07523 1.07406 1.0732 1.07184 1.07105 1.0701 1.06975 1.06939 1.06464 1.0622 1.05679 1.05751 1.07281 1.07972 1.0805 1.07972 1.07822 1.07465 1.07377 1.07429 1.07516 1.07471 1.07271 1.07066 1.06948 1.06392 1.06023 1.0582 1.05618 1.05753 1.06074 1.06008 1.07748 1.08038 1.07981 1.07529 1.07312 1.0734 1.07439 1.07499 1.07359 1.07137 1.0698 1.06919 1.06704 1.06234 1.05693 1.06005 1.0609 1.08123 1.0782 1.07302 1.07249 1.07086 1.07234 1.07226 1.0734 1.07362 1.07455 1.07475 1.07436 1.07318 1.0722 1.07089 1.07029 1.06964 1.06931 1.06915 1.07047 1.0668 1.06534 1.05985 1.05773 1.0579 1.06249 1.06207 1.08091 1.07971 1.06896 1.07071 1.07258 1.07398 1.07416 1.07167 1.07007 1.06939 1.07065 1.06231 1.06093 1.06238 1.06714 1.06363 1.06413 1.06331 1.0657 1.06815 1.06817 1.07153 1.07282 1.07476 1.07275 1.07049 1.06982 1.06938 1.07446 1.06909 1.06054 1.06993 1.06698 1.06659 1.06199 1.06445 1.06745 1.0699 1.07149 1.07228 1.07285 1.07289 1.07338 1.07388 1.07257 1.07117 1.07026 1.07018 1.07055 1.0699 1.06991 1.07885 1.07509 1.07349 1.06532 1.06436 1.06896 1.08788 1.07489 1.06849 1.01856 1.03414 1.06458 1.07002 1.07276 1.07349 1.07156 1.07084 1.07093 1.07088 1.08098 1.06791 1.08259 1.08502 1.07167 0.998378 1.03913 1.05522 1.06272 1.06774 1.07053 1.0721 1.07388 1.07385 1.07441 1.07342 1.07128 1.06827 1.06473 1.07039 1.07199 1.07052 1.08401 1.0884 1.07924 1.06866 1.06305 1.12424 0.965175 1.0265 1.05472 1.06732 1.07304 1.0752 1.07357 1.06734 1.06529 1.0727 1.07381 1.07204 1.07068 1.08697 1.08633 1.05398 1.10109 1.18919 0.935709 0.96592 1.00709 1.03915 1.04584 1.05675 1.06244 1.07083 1.07522 1.07552 1.07051 1.06388 1.06731 1.07105 1.07493 1.07276 1.07712 1.094 1.07689 1.14218 0.51608 0.745912 1.02842 1.05197 1.06267 1.0672 1.07092 1.07385 1.07651 1.07682 1.07725 1.07403 1.07004 1.06562 1.06202 1.0747 1.07537 1.07204 1.06957 1.07187 1.10528 1.14208 1.05168 1.32949 1.23553 0.640378 0.963899 1.04738 1.05797 1.06688 1.07422 1.0787 1.07574 1.0631 1.07114 1.08178 1.07871 1.07648 1.06611 1.05674 1.06163 1.18762 1.12596 0.890178 0.975422 1.02164 1.03795 1.05251 1.0569 1.06225 1.07041 1.07728 1.08014 1.07093 1.05717 1.08009 1.0839 1.06866 1.04096 1.03378 0.994613 1.03026 1.69687 0.476005 0.916789 1.01095 1.02343 1.01195 1.04735 1.06059 1.06579 1.06884 1.07358 1.07662 1.08031 1.08348 1.08009 1.07622 1.05911 1.04582 1.09378 1.07493 1.06185 1.05962 1.00626 1.10611 1.19006 1.20558 0.548398 1.04294 1.03495 1.03064 1.0535 1.06359 1.07149 1.07977 1.08664 1.05675 1.10527 1.09971 1.08604 1.07026 1.05058 1.03866 1.09222 1.26763 0.875523 1.0404 1.03434 1.03135 1.03621 1.04269 1.04957 1.05751 1.06015 1.06599 1.07392 1.08306 1.08789 1.03099 1.12578 1.08636 1.05264 1.03372 1.09757 1.1582 1.15388 1.13312 0.804036 0.900227 0.980759 1.0089 1.03029 1.0418 1.05331 1.06203 1.06794 1.06957 1.07618 1.07808 1.08609 1.09119 1.08863 1.13068 1.10757 1.09222 1.06453 1.04263 1.0406 1.04691 1.10481 1.11767 1.12908 1.04941 0.905623 0.965367 1.01394 1.03246 1.04574 1.0556 1.06341 1.07079 1.08087 1.12668 1.14076 1.11886 1.05984 1.03285 1.07835 1.12604 1.11596 1.02967 0.9324 0.963932 0.987203 0.996225 1.01785 1.02252 1.03605 1.03898 1.04829 1.05021 1.05715 1.05823 1.06433 1.07223 1.09507 1.13513 1.13667 1.10497 1.05285 1.03391 1.03161 1.11916 1.13623 1.12391 1.08418 0.952021 0.961289 0.978838 1.00414 1.02641 1.04151 1.05164 1.05882 1.06492 1.06692 1.07833 1.08641 1.11231 1.13766 1.13332 1.13172 1.02701 1.09394 1.14438 1.08251 1.07663 1.03539 0.991425 0.972175 0.987007 1.01062 1.02986 1.0435 1.05255 1.05919 1.0698 1.09144 1.11683 1.14817 1.03688 1.02858 1.04865 0.893832 1.10302 1.07964 1.09589 1.05092 0.986679 0.985699 0.978432 0.982345 0.993824 0.998079 1.01499 1.01866 1.03278 1.0351 1.04496 1.04578 1.05278 1.05164 1.05909 1.06998 1.09134 1.11919 1.1328 1.18929 0.987291 1.12323 0.903363 1.03977 1.10905 1.09334 1.07403 1.02317 1.01123 0.983232 0.983731 1.00145 1.02205 1.03652 1.04509 1.04857 1.05676 1.04969 1.06673 1.09799 1.23386 0.869601 1.06658 0.538177 1.05987 1.12886 1.12418 1.11801 1.05376 1.00098 0.977696 0.983671 1.00523 1.02449 1.03662 1.04206 1.04111 1.04145 1.06704 1.09513 1.14587 0.975215 0.880942 1.2579 0.531602 0.845235 1.05067 1.14154 1.10341 1.03797 1.0178 0.987508 0.970483 0.970422 0.965407 0.985219 0.989143 1.00893 1.01124 1.02542 1.02404 1.03444 1.03018 1.03625 1.02783 1.04585 1.16546 1.24685 1.06542 1.21444 0.893832 0.44779 0.888303 1.1161 1.137 1.13991 1.13847 1.08875 1.07089 0.992741 0.954246 0.966162 0.993508 1.01063 1.02033 1.02323 1.02541 1.0112 1.01297 1.00154 1.07727 1.12813 1.17823 1.13791 0.363929 0.427522 0.44675 0.53139 0.757865 0.907528 1.02722 1.07846 1.15269 1.13159 1.03943 0.964955 0.945805 0.971316 0.99485 1.00688 1.0156 1.01467 0.993153 1.03477 1.25666 1.22006 0.765246 0.508609 0.523346 0.47501 0.49902 0.81738 0.973094 1.10992 1.17164 1.11568 1.07702 1.00535 0.965053 0.940871 0.927485 0.946356 0.954582 0.976319 0.975679 0.991662 0.984955 1.00154 0.995925 1.01069 1.00921 1.00584 0.991031 0.968803 1.15361 1.18711 1.10108 0.931043 0.699478 0.705877 0.580003 0.547055 0.524138 0.575999 0.629386 0.818737 0.881391 0.923271 1.01914 1.0607 1.14494 1.17609 1.17723 1.16189 1.02729 0.933063 0.931382 0.95902 0.96856 0.977066 0.995106 1.01045 0.995635 1.00274 1.06475 1.33942 1.19236 1.13584 0.868206 0.685624 0.601839 0.587797 0.57908 0.582126 0.573677 0.586737 0.697077 0.854481 0.986166 1.02784 1.11411 1.19093 1.12998 0.978044 0.91485 0.942253 0.95342 0.958251 0.971547 1.0033 1.01769 1.19543 1.1898 1.52514 1.21597 1.09635 0.938381 0.782732 0.718169 0.649281 0.598703 0.56304 0.621726 0.60405 0.601889 0.599986 0.623892 0.642404 0.65371 0.747821 0.809992 0.846476 0.898448 1.0062 1.08583 1.13721 1.15199 1.16425 1.18666 1.06147 0.991499 0.926187 0.909553 0.926557 0.930436 0.940138 0.92757 0.941341 0.927722 0.948213 0.942386 0.971486 0.984728 1.03119 1.10157 1.09843 0.768483 0.991035 0.989849 1.29517 1.16728 1.15825 0.821899 0.66492 0.564289 0.542888 0.516948 0.624913 0.625374 0.610966 0.657881 0.717339 0.712956 0.835057 0.918442 1.01871 1.091 1.08656 1.10623 1.06646 0.891052 0.926506 0.919283 0.911067 0.916919 0.942773 1.01976 0.997737 0.624231 0.649478 0.973141 1.07463 0.997427 0.875952 0.752068 0.698938 0.612317 0.578428 0.534665 0.517445 0.511204 0.609878 0.627289 0.633816 0.620898 0.569457 0.599653 0.6909 0.769673 0.796788 0.900485 0.918167 1.06228 1.10754 0.927142 1.07305 1.09023 0.954313 1.32289 0.919103 0.926014 0.937619 0.921528 0.893988 0.898691 0.879566 0.895897 0.883875 0.909379 0.907022 0.952921 0.938252 0.995444 0.853532 0.632928 0.695257 0.793209 0.962004 0.958338 0.797008 0.64325 0.557345 0.51736 0.520447 0.561313 0.589003 0.610257 0.624851 0.602263 0.507537 0.751093 0.801879 0.855308 0.853995 1.01259 0.895665 1.21074 1.01293 1.16788 1.37009 0.666101 1.04509 1.04365 0.929824 0.967156 0.902974 0.868567 0.864122 0.874726 0.892405 0.91558 0.960085 0.903355 0.786141 0.675979 0.842231 0.93562 0.887168 0.871238 0.813824 0.735321 0.682897 0.612118 0.59101 0.549243 0.563637 0.542178 0.553774 0.597308 0.53092 0.548244 0.583654 0.605898 0.626218 0.648835 0.68922 0.573194 0.58205 1.02035 0.841726 0.960151 0.961118 0.96165 1.10938 0.955799 1.08038 0.988612 0.521538 1.00988 0.92703 0.866888 0.848719 0.850963 0.860358 0.868266 0.907049 0.90121 0.763728 0.710261 0.745575 0.849768 0.844191 0.761542 0.720514 0.654979 0.632796 0.603103 0.579742 0.575366 0.631371 0.51328 0.52214 0.56573 0.563336 0.615522 0.607287 0.8186 1.16808 1.18836 0.722343 0.634854 0.904052 0.929889 0.939727 0.947892 0.9674 0.901647 0.978247 0.423503 0.638061 0.854187 0.971845 0.895344 0.87588 0.837358 0.839182 0.81927 0.832605 0.816655 0.836345 0.818579 0.839399 0.814857 0.84581 0.845614 0.923745 0.861423 0.711926 0.823514 0.826599 0.835274 0.828236 0.814805 0.780054 0.691683 0.636466 0.602907 0.608536 0.591325 0.619309 0.648234 0.658039 0.493208 0.503032 0.503789 0.518016 0.547385 0.546743 0.5459 0.565181 0.540277 0.51988 0.630685 0.643388 0.223504 0.639872 1.02109 0.945411 0.833637 0.845292 0.901379 0.741807 0.525365 0.519192 0.671782 0.83972 0.84109 0.811789 0.801405 0.799256 0.800995 0.792947 0.88404 1.00645 0.68321 0.835404 0.833271 0.843813 0.817804 0.742824 0.704645 0.643961 0.66352 0.632448 0.618026 0.59369 0.618999 0.664109 0.670908 0.661997 0.484894 0.485574 0.492135 0.494309 0.520705 0.51239 0.516933 0.468573 0.481978 0.267439 0.593498 0.659547 0.927659 0.79414 0.824037 0.795544 0.844023 0.825954 0.990143 0.724198 0.534751 0.762964 0.812748 0.806422 0.791315 0.783766 0.782136 0.789497 0.779245 1.09503 0.997213 0.878793 0.541779 0.83234 0.838891 0.835323 0.79236 0.751634 0.644317 0.643895 0.578137 0.585061 0.634971 0.644546 0.666869 0.628048 0.461147 0.474853 0.476971 0.481204 0.479499 0.499426 0.501684 0.497386 0.461893 0.424825 0.313891 0.332262 0.358268 0.7146 0.816799 0.76805 0.757783 0.788114 0.621428 0.779942 0.603467 0.495172 0.577695 0.658038 0.709063 0.765838 0.758909 0.789016 0.77168 0.783616 0.764733 0.772632 0.754498 0.765959 0.75045 0.770426 0.771116 0.794733 0.818585 0.76614 1.15511 0.87785 0.959625 0.884359 0.845627 0.810169 0.795409 0.726725 0.56484 0.664706 0.612531 0.600431 0.552326 0.59078 0.615113 0.63763 0.610242 0.587632 0.523682 0.441905 0.466604 0.464791 0.474443 0.465335 0.482189 0.477422 0.491883 0.460125 0.413774 0.423733 0.36333 0.367784 0.414016 0.679697 0.815662 0.778428 0.784648 0.799275 0.800236 0.735311 0.618117 0.13068 0.761105 0.593311 0.665955 0.724481 0.751738 0.755147 0.747709 0.736726 0.742423 0.784317 0.767205 0.872681 0.858304 0.853428 0.869699 0.841722 0.818569 0.799206 0.804617 0.84641 0.534103 0.554214 0.572579 0.558854 0.516196 0.537051 0.584132 0.623364 0.555338 0.453089 0.420406 0.424811 0.449597 0.454444 0.458585 0.459223 0.46369 0.456659 0.41527 0.377581 0.381068 0.418204 0.515608 0.663163 0.752105 0.754682 0.735692 0.663904 0.540121 0.143874 0.128834 0.543911 0.761328 0.664745 0.69023 0.69497 0.729769 0.741888 0.741167 0.731629 0.721341 0.741572 0.749493 0.809043 0.981094 0.378428 0.699182 0.742409 0.771155 0.807207 0.766579 0.726232 0.674809 0.70326 0.574043 0.544642 0.532995 0.536708 0.505973 0.56376 0.615415 0.603482 0.58618 0.492791 0.446849 0.410043 0.4001 0.406748 0.395074 0.439417 0.442347 0.449335 0.439326 0.446626 0.44138 0.452401 0.426676 0.369269 0.391591 0.424025 0.401904 0.491064 0.582762 0.668917 0.718778 0.747039 0.689706 0.645242 0.529555 0.126934 0.517813 0.728379 0.734296 0.703243 0.707393 0.709443 0.726014 0.720563 0.732922 0.723729 0.729035 0.720383 0.718903 0.715741 0.712421 0.701721 0.869458 0.665909 0.476729 0.637488 0.684248 0.765839 0.740145 0.704301 0.656435 0.643037 0.638841 0.584038 0.543718 0.546057 0.522515 0.481039 0.569607 0.570552 0.545897 0.496747 0.40727 0.394476 0.381891 0.37161 0.395564 0.383887 0.370471 0.412823 0.432989 0.43095 0.426843 0.415406 0.450126 0.432902 0.405948 0.386237 0.395516 0.424819 0.463907 0.521819 0.554118 0.604008 0.645071 0.681508 0.695656 0.544318 0.261261 0.287924 0.688368 0.756365 0.716753 0.703697 0.707953 0.716152 0.714543 0.720215 0.721657 0.738994 1.11739 0.760979 0.77414 0.639766 0.712657 0.705787 0.681354 0.64439 0.613031 0.58614 0.575946 0.528532 0.518175 0.543448 0.499009 0.515145 0.566395 0.546806 0.497744 0.456852 0.359191 0.350787 0.369813 0.391844 0.385542 0.384801 0.364322 0.407562 0.433507 0.43297 0.415655 0.41865 0.402431 0.425777 0.413197 0.406836 0.434341 0.444491 0.515466 0.513705 0.575161 0.605576 0.647902 0.655061 0.627985 0.409592 0.404456 0.509107 0.711283 0.729599 0.712702 0.709239 0.696191 0.697242 0.707442 0.711279 0.711833 0.731499 0.764447 0.738082 0.757847 0.917774 0.727201 0.785109 0.650221 0.666436 0.670894 0.66146 0.641065 0.611831 0.571092 0.545975 0.513617 0.493439 0.490066 0.559182 0.444599 0.466451 0.546801 0.47665 0.509362 0.416434 0.418083 0.367097 0.384928 0.395165 0.37432 0.39166 0.390148 0.38581 0.399204 0.380146 0.352611 0.346355 0.413313 0.431138 0.403857 0.375184 0.386713 0.417148 0.414388 0.441357 0.459939 0.480747 0.555687 0.573374 0.606235 0.625959 0.612917 0.562286 0.520398 0.545981 0.688196 0.708596 0.702323 0.689817 0.696155 0.695749 0.704928 0.702747 0.708939 0.7132 0.725216 0.752748 0.781204 0.117352 0.459927 0.712654 0.643418 0.640933 0.645401 0.636803 0.621487 0.601419 0.429389 0.421992 0.540591 0.330615 0.467614 0.519958 0.42807 0.457744 0.458993 0.357987 0.39024 0.415534 0.359733 0.267593 0.371022 0.395746 0.412896 0.397209 0.395484 0.348318 0.456315 0.437189 0.402953 0.384107 0.361861 0.450001 0.421979 0.444342 0.436354 0.4525 0.381197 0.49123 0.528513 0.556461 0.575826 0.597287 0.607862 0.580379 0.510476 0.482062 0.568056 0.617165 0.707361 0.696727 0.684386 0.690543 0.69508 0.707477 0.728774 0.816422 0.729373 0.717478 0.619856 0.625503 0.607366 0.623106 0.623362 0.614307 0.56015 0.521911 0.493255 0.461372 0.449376 0.429365 0.421836 0.455462 0.383566 0.483762 0.28736 0.391885 0.285947 0.356531 0.422015 0.371134 0.342024 0.172902 0.349808 0.3725 0.393925 0.386031 0.431248 0.417231 0.43482 0.445564 0.446439 0.380291 0.398751 0.361681 0.352426 0.438674 0.427539 0.412105 0.40872 0.461034 0.508036 0.532331 0.555062 0.60627 0.610328 0.579115 0.556197 0.555295 0.659899 0.688352 0.674286 0.681442 0.686734 0.697248 0.720488 0.749504 0.752358 0.657258 0.505535 0.332539 0.478816 0.57267 0.592371 0.596392 0.610321 0.598396 0.561402 0.515095 0.462359 0.449333 0.435952 0.421179 0.400084 0.394763 0.454054 0.405635 0.320118 0.497866 0.277922 0.238305 0.228837 0.337155 0.317889 0.237226 0.0927034 0.296921 0.320039 0.37921 0.347124 0.368892 0.40423 0.377494 0.328088 0.332002 0.2539 0.318324 0.446682 0.395417 0.31124 0.44192 0.487249 0.556212 0.33427 0.434037 0.391489 0.404735 0.447803 0.477241 0.505824 0.51431 0.545479 0.584269 0.647982 0.637696 0.616402 0.600308 0.602037 0.618588 0.656549 0.702576 0.669658 0.68263 0.677651 0.688085 0.691776 0.70568 0.716558 0.766026 0.567251 0.495079 0.448835 0.50996 0.562425 0.578931 0.596165 0.609497 0.597528 0.577681 0.542535 0.487801 0.450176 0.449087 0.432435 0.421357 0.430254 0.450475 0.403523 0.477578 0.440066 0.162081 0.192407 0.279896 0.323732 0.357749 0.314198 0.254205 0.136124 0.0762336 0.0299337 0.239647 0.34584 0.325835 0.340498 0.322359 0.256434 0.297429 0.500144 0.388833 0.355848 0.336811 0.423094 0.283397 0.170895 0.416888 0.234022 0.377358 0.409159 0.437962 0.466131 0.484347 0.497886 0.510459 0.56253 0.618776 0.671833 0.643228 0.624378 0.621881 0.637583 0.623399 0.648319 0.649236 0.684622 0.683647 0.705591 0.755379 0.638538 0.566955 0.562096 0.525619 0.512026 0.537524 0.571806 0.605507 0.601153 0.590954 0.568025 0.534522 0.489845 0.452136 0.444543 0.434968 0.409277 0.390444 0.476678 0.48591 0.527309 0.399833 0.375526 0.279278 0.226952 0.342118 0.361125 0.252321 0.190834 0.0795053 0.0277378 0.101274 0.161928 0.17639 0.237961 0.29126 0.323267 0.316189 0.324478 0.325668 0.247566 0.180033 0.177208 0.120219 0.215725 0.31305 0.271244 0.152887 0.34339 0.23078 0.256577 0.355043 0.369108 0.424932 0.444164 0.467503 0.489477 0.503508 0.515374 0.52562 0.619378 0.700859 0.697692 0.676984 0.644799 0.627866 0.630342 0.631354 0.633471 0.631269 0.634663 0.666109 0.6614 0.692736 0.698076 0.626064 0.6076 0.571272 0.569467 0.550272 0.551544 0.586822 0.599061 0.600116 0.593725 0.583568 0.56771 0.530701 0.486966 0.464762 0.454485 0.440501 0.416955 0.429455 0.477371 0.49079 0.473759 0.231736 0.224515 0.275129 0.326825 0.311383 0.187299 0.115266 0.0582705 0.0646473 0.151404 0.165801 0.170374 0.182485 0.282378 0.315841 0.294221 0.322066 0.259223 0.178689 0.109885 0.148873 0.0852924 0.253703 0.144586 0.193996 0.270885 0.29637 0.32578 0.406397 0.428466 0.460784 0.542607 0.551958 0.560695 0.759435 0.763072 0.723495 0.632107 0.627037 0.628059 0.631708 0.63051 0.633424 0.642223 0.692071 0.64555 0.685479 0.673434 0.719585 0.666113 0.62885 0.618251 0.597953 0.575096 0.56589 0.585713 0.593697 0.596419 0.592731 0.586143 0.57624 0.554099 0.518909 0.49336 0.463322 0.457205 0.441256 0.451786 0.484196 0.468628 0.471223 0.223497 0.213596 0.152012 0.229023 0.299425 0.298029 0.301546 0.268795 0.125554 0.057521 0.0216444 0.191088 0.154573 0.144039 0.123059 0.155551 0.3336 0.307144 0.258027 0.191116 0.156827 0.156325 0.215108 0.249642 0.233678 0.481435 0.500169 0.523922 0.520531 0.833347 0.771264 0.7009 0.654308 0.627869 0.630166 0.632053 0.635051 0.625428 0.66161 0.633164 0.669213 0.654907 0.654939 0.645611 0.629762 0.576444 0.575767 0.578187 0.586318 0.592661 0.594188 0.591689 0.586939 0.577978 0.562987 0.538053 0.512712 0.487188 0.46733 0.455799 0.447394 0.492453 0.46031 0.399578 0.316205 0.240972 0.231989 0.272093 0.309141 0.274251 0.194857 0.1145 0.046014 0.059302 0.0208735 0.0639989 0.174809 0.114578 0.102184 0.148311 0.153318 0.142348 0.342299 0.382792 0.262164 0.241962 0.172242 0.185514 0.210183 0.240195 0.201053 0.151785 0.104467 0.192971 0.319516 0.364219 0.400675 0.44675 0.475289 0.499445 0.520226 0.542701 0.564651 0.577427 0.57239 0.859355 0.728154 0.659466 0.630947 0.624687 0.62492 0.629581 0.639895 0.645392 0.64906 0.656539 0.620725 0.605533 0.597792 0.597739 0.594768 0.591735 0.595146 0.595278 0.593484 0.589807 0.581625 0.444439 0.491387 0.462581 0.390452 0.436556 0.0799867 0.244162 0.265732 0.287354 0.310693 0.313979 0.23076 0.0794177 0.0321504 0.0432087 0.082642 0.163444 0.201554 0.00816558 0.0554382 0.0522794 0.123812 0.177638 0.192216 0.253323 0.47486 0.293711 0.2539 0.198114 0.177463 0.230523 0.284095 0.187849 0.18916 0.270507 0.0281055 0.0929255 0.299546 0.392785 0.429942 0.448192 0.48185 0.515208 0.539931 0.560531 0.581164 0.593521 0.588856 0.558323 0.517606 0.81729 0.678652 0.634038 0.626261 0.627344 0.628022 0.630738 0.632082 0.632734 0.652569 0.646832 0.640159 0.630863 0.627444 0.622714 0.614251 0.607418 0.604242 0.60052 0.599524 0.597619 0.569048 0.550862 0.526417 0.50524 0.483207 0.469318 0.506826 0.454351 0.410561 0.387583 0.125106 0.133947 0.235076 0.294592 0.330427 0.343985 0.277155 0.0946898 0.0655402 0.0636635 0.147618 0.189004 0.172022 0.203402 0.173943 0.0134772 0.0397895 0.0806389 0.099189 0.200676 0.242711 0.408451 0.290933 0.252375 0.243023 0.211849 0.270183 0.382321 0.183409 0.295333 0.233072 0.0212685 0.343492 0.419368 0.453778 0.463653 0.482 0.516805 0.552712 0.580903 0.597559 0.609297 0.600639 0.572142 0.5439 0.504439 0.735652 0.654128 0.637967 0.635896 0.634755 0.634801 0.635615 0.634853 0.633055 0.636648 0.640874 0.647517 0.649767 0.652761 0.649093 0.644408 0.638742 0.635321 0.63274 0.626398 0.618947 0.613468 0.610266 0.594897 0.588516 0.578024 0.562663 0.539866 0.516684 0.491911 0.47582 0.446953 0.484252 0.452956 0.416826 0.404294 0.292031 0.202925 0.197129 0.249276 0.320994 0.349453 0.403759 0.127225 0.0967085 0.105171 0.0981151 0.186255 0.227001 0.226246 0.204758 0.198431 0.79229 0.0692412 0.0662097 0.0523276 0.0979832 0.105846 0.0957646 0.649623 0.459647 0.289003 0.327842 0.2656 0.258458 0.414066 0.26729 0.112084 0.419932 0.245753 0.640273 0.516643 0.470126 0.459376 0.473621 0.507586 0.549323 0.591127 0.616901 0.626468 0.624076 0.574561 0.553424 0.521758 0.462653 0.644732 0.653587 0.648426 0.644729 0.642406 0.640765 0.639613 0.637924 0.638238 0.640332 0.644629 0.648393 0.650521 0.651027 0.64843 0.645076 0.641755 0.638063 0.633454 0.62803 0.606889 0.60457 0.601764 0.597044 0.589113 0.576606 0.557505 0.531189 0.499779 0.473565 0.442738 0.447046 0.436038 0.414169 0.398785 0.350019 0.295962 0.250013 0.250528 0.283144 0.336282 0.372792 0.499484 0.11096 0.128298 0.269685 0.207158 0.250582 0.204294 0.246169 0.257192 0.163671 0.196179 0.718335 0.643504 0.637486 0.657827 0.113932 0.226126 0.199567 0.240767 0.385997 0.735156 0.628281 0.383806 0.387346 0.367449 0.305596 0.366448 0.275458 1.00918 1.04843 0.727193 0.544001 0.464585 0.464463 0.503605 0.554292 0.53351 0.504956 0.492521 0.63078 0.651181 0.648529 0.646709 0.644595 0.642751 0.64194 0.642295 0.644379 0.647367 0.649881 0.651027 0.650925 0.649393 0.647048 0.622843 0.61866 0.615327 0.612761 0.610128 0.606775 0.601511 0.592994 0.578775 0.555009 0.517387 0.477284 0.43376 0.411005 0.391619 0.386307 0.388749 0.371968 0.334204 0.306973 0.293845 0.296177 0.314787 0.365508 0.42495 0.828603 0.429322 0.325147 0.304371 0.273174 0.219618 0.211882 0.182477 0.169073 0.175629 0.197647 0.61431 0.655711 0.623264 0.529702 0.641346 0.58029 0.30211 0.410013 0.533404 0.699608 0.682456 0.417281 0.441513 0.399409 0.389346 0.460446 1.14611 0.713147 0.517844 0.443764 0.448045 0.479917 0.545087 0.585847 0.622391 0.641335 0.642112 0.642741 0.527184 0.51406 0.553232 0.651715 0.643649 0.639532 0.635184 0.630805 0.626488 0.622783 0.619811 0.617348 0.615036 0.612312 0.608563 0.60172 0.587361 0.557468 0.503408 0.446435 0.386309 0.347673 0.340119 0.33693 0.337585 0.352364 0.594633 0.591645 0.32952 0.324005 0.338294 0.269709 0.274466 0.185865 0.158729 0.219405 0.247141 0.273119 0.587347 0.602689 0.532258 0.445909 0.503244 0.499403 0.515759 0.430194 0.343928 0.416258 0.35092 0.523578 0.411639 0.434762 0.38135 0.500314 0.680526 0.845038 1.25331 0.548226 0.592627 0.626139 0.645918 0.655048 0.649996 0.637939 0.536568 0.626396 0.644095 0.64834 0.64918 0.648256 0.646766 0.645718 0.645225 0.645875 0.647576 0.649684 0.651187 0.651704 0.65145 0.650063 0.647702 0.64443 0.640622 0.636639 0.6326 0.62877 0.62547 0.622718 0.620566 0.619018 0.618524 0.618395 0.615964 0.605553 0.345104 0.325922 0.344263 0.366952 0.361736 0.380006 0.38363 0.390424 0.42013 0.470777 0.49165 0.326783 0.396979 0.385474 0.420937 0.268638 0.24327 0.184718 0.226645 0.258428 0.288101 0.569458 0.582095 0.54817 0.547986 0.461422 0.407505 0.489538 0.47778 0.400958 0.368354 0.269338 0.267956 0.621127 0.4037 0.350066 0.412736 0.372387 0.790618 1.3802 0.642051 0.338901 0.350555 0.399446 0.429772 0.514823 0.594521 0.650918 0.657577 0.661393 0.659784 0.646264 0.629027 0.535367 0.535316 0.550778 0.582294 0.622141 0.63785 0.646066 0.648147 0.648401 0.64869 0.648242 0.648003 0.648721 0.650084 0.651465 0.65229 0.65227 0.651561 0.649985 0.647521 0.644315 0.640632 0.63674 0.632908 0.629365 0.626336 0.623845 0.575146 0.488763 0.410212 0.307232 0.259694 0.296782 0.340285 0.361368 0.366797 0.37313 0.420556 0.43458 0.461448 0.503009 0.548426 0.276857 0.374458 0.521357 0.571731 0.387249 0.282502 0.267035 0.2367 0.257742 0.255933 0.282033 0.297718 0.559563 0.554033 0.565684 0.546436 0.484447 0.370577 0.342718 0.41775 0.441215 0.43017 0.37695 0.325093 0.526611 0.559049 0.456144 0.428955 0.380567 0.372577 0.47064 0.673383 0.556399 0.901736 0.495518 0.245659 0.256182 0.376973 0.467945 0.564927 0.655061 0.690932 0.548694 0.55658 0.572362 0.594295 0.620884 0.635605 0.644015 0.647236 0.64931 0.650124 0.650172 0.650502 0.651255 0.652157 0.652828 0.653003 0.652542 0.651379 0.64943 0.646683 0.643336 0.639599 0.622238 0.622401 0.625123 0.63035 0.637122 0.641863 0.629611 0.467603 0.361295 0.21239 0.243982 0.29893 0.347663 0.370926 0.395559 0.409989 0.489974 0.521227 0.560623 0.502046 0.545838 0.515496 0.672624 0.573068 0.421672 0.305493 0.329505 0.283027 0.270147 0.269203 0.288278 0.294421 0.296993 0.541281 0.501278 0.396631 0.317173 0.327712 0.418191 0.410923 0.140332 0.314534 0.50365 0.515258 0.465634 0.451676 0.427515 0.479629 0.598633 0.505767 0.471188 0.573282 0.27933 0.148313 0.211039 0.456529 0.674349 0.665691 0.65532 0.637425 0.618385 0.566102 0.571103 0.582684 0.601963 0.622505 0.635122 0.642307 0.647025 0.650327 0.651588 0.652233 0.652844 0.65341 0.653776 0.653804 0.653444 0.635701 0.631875 0.62838 0.625324 0.622974 0.622112 0.623961 0.629944 0.642646 0.665227 0.703894 0.767532 0.464012 0.403121 0.3137 0.216545 0.275897 0.340013 0.393614 0.429419 0.447801 0.465085 0.565568 0.592436 0.203131 0.588379 0.543431 0.598204 0.717781 0.701845 0.571821 0.580407 0.447538 0.349127 0.275511 0.298713 0.29407 0.510545 0.458282 0.43558 0.363719 0.234435 0.300515 0.324831 0.341885 0.437424 0.483757 0.708323 0.44697 0.452206 0.477918 0.474145 0.469059 0.487197 0.5532 0.612041 0.591811 0.459898 0.367167 0.0772247 0.188454 0.360242 0.636873 0.646837 0.709986 0.698327 0.675012 0.660441 0.644449 0.626118 0.607908 0.580065 0.57759 0.591923 0.652523 0.650834 0.648388 0.645292 0.641702 0.637768 0.633689 0.629652 0.625803 0.622354 0.619727 0.618864 0.621408 0.629889 0.648265 0.684601 0.762894 0.960713 0.86314 0.761554 0.11891 0.122752 0.257823 0.35091 0.422647 0.461997 0.486345 0.510519 0.537378 0.501117 0.609065 0.638728 0.676963 0.668622 0.566152 0.46844 0.374036 0.328522 0.392399 0.174357 0.228307 0.293799 0.374502 0.372484 0.389635 0.564452 0.433216 0.443977 0.476117 0.486174 0.518383 0.616379 0.672643 0.627532 0.458138 0.226917 0.173859 0.258699 0.773569 0.678912 0.742238 0.724205 0.685904 0.661734 0.647954 0.63267 0.616455 0.595826 0.608944 0.623701 0.634552 0.642864 0.648755 0.651789 0.653341 0.654244 0.654728 0.654949 0.654851 0.65441 0.65354 0.65205 0.649801 0.646886 0.643428 0.639497 0.635205 0.630712 0.626152 0.621654 0.617399 0.613802 0.611775 0.613034 0.620426 0.637761 0.677486 0.783621 1.17931 0.137244 0.276359 0.386992 0.455814 0.496602 0.52461 0.548376 0.570716 0.590855 0.713743 0.651123 0.620303 0.688113 0.669633 0.687389 0.598451 0.476874 0.379699 0.348083 0.178075 0.252126 0.232331 0.279955 0.296495 0.309437 0.617998 0.505499 0.528385 0.569861 0.640993 0.654043 0.0813695 0.311923 0.727971 0.738386 0.784077 0.750341 0.696451 0.659298 0.644136 0.634483 0.622983 0.609565 0.585971 0.587704 0.600399 0.613744 0.626776 0.637993 0.64577 0.650622 0.653484 0.655081 0.655854 0.6561 0.655916 0.655394 0.654514 0.653135 0.651075 0.648303 0.644947 0.641075 0.636707 0.631917 0.626818 0.621503 0.616046 0.610571 0.605397 0.601221 0.599841 0.69045 0.204781 0.053855 0.42932 0.489447 0.529817 0.560822 0.589571 0.630836 0.721249 0.630087 0.60786 0.509555 0.513274 0.716071 0.663475 0.0909585 0.191483 0.235264 0.283381 0.56423 0.465847 0.475077 0.480233 0.522015 0.545902 0.583776 0.607393 0.438125 0.582933 0.594005 0.599126 0.608123 0.621022 0.6327 0.642436 0.648914 0.652942 0.655386 0.656691 0.657111 0.656942 0.656339 0.655426 0.654094 0.652196 0.649625 0.646393 0.642581 0.638221 0.603914 0.620744 0.677818 0.866513 1.25198 0.371889 0.201166 0.061912 0.190819 0.325404 0.563101 0.601441 0.640882 0.695681 0.692747 0.617654 0.562307 0.327389 0.457342 0.768752 0.687559 0.185072 0.200405 0.549254 0.58306 0.479584 0.479598 0.472876 0.495499 0.53109 0.607791 0.641453 0.665916 0.602226 0.461408 0.469091 1.44988 1.03575 0.75686 0.722783 0.685928 0.658158 0.639106 0.631154 0.625164 0.617409 0.606205 0.625851 0.605842 0.608406 0.617582 0.629013 0.639122 0.647063 0.652508 0.633337 0.627989 0.62222 0.616041 0.609514 0.602766 0.596008 0.590283 0.588164 0.594584 0.627808 0.733885 0.944832 1.24746 0.305357 0.182111 0.122661 0.263063 0.386434 0.469495 0.522964 0.690017 0.634421 0.56743 0.464162 0.332709 0.430445 0.708885 0.885885 0.542308 0.526386 0.52998 0.494492 0.487372 0.492927 0.516197 0.576178 0.603075 0.634528 0.65862 0.656734 0.619729 0.666093 1.31386 1.16365 0.861196 0.689183 0.666957 0.651437 0.634768 0.625858 0.624021 0.621991 0.617962 0.613062 0.626109 0.613409 0.655888 0.657498 0.658015 0.65787 0.657229 0.656288 0.654981 0.653168 0.650773 0.647748 0.644075 0.639789 0.63493 0.629533 0.623629 0.617213 0.610278 0.602925 0.595395 0.588309 0.583691 0.5862 0.608669 0.675216 0.804611 1.0009 0.97365 0.300058 0.150176 0.207327 0.329506 0.435647 0.506298 0.554738 0.5953 0.636578 0.677403 0.618829 0.568339 0.0942833 0.394505 0.481908 0.862353 0.904663 0.558227 0.448912 0.515349 0.499729 0.526726 0.529212 0.550692 0.571439 0.610632 0.639326 0.651524 0.642473 0.661729 1.13917 1.01769 0.901913 0.757655 0.669694 0.648411 0.636179 0.627311 0.624841 0.625884 0.625786 0.625875 0.628535 0.61846 0.627613 0.637586 0.646081 0.652313 0.656362 0.658525 0.659279 0.659016 0.658238 0.657157 0.655794 0.65403 0.651732 0.648901 0.645471 0.641367 0.636628 0.63132 0.625481 0.619128 0.612232 0.604863 0.597346 0.590269 0.585155 0.585476 0.599602 0.642333 0.726575 0.853893 0.993583 0.88366 0.258589 0.185923 0.285293 0.393297 0.47927 0.537136 0.581381 0.62288 0.657545 0.6846 0.66087 0.651795 0.551836 0.474123 0.265701 0.890617 0.680554 0.847913 0.552157 0.578418 0.434042 0.510917 0.542458 0.55847 0.572519 0.59393 0.627672 0.63463 0.609347 0.997424 0.915311 0.868854 0.806237 0.728085 0.670877 0.647918 0.636417 0.631749 0.631721 0.632665 0.634033 0.624113 0.62306 0.629485 0.638182 0.646617 0.653186 0.657511 0.659922 0.660765 0.660494 0.659542 0.658195 0.656612 0.654807 0.6526 0.649863 0.646642 0.642821 0.638316 0.6332 0.627552 0.621408 0.614787 0.607745 0.600577 0.593869 0.588866 0.588207 0.597127 0.871531 0.970619 1.02019 0.441931 0.511669 0.562523 0.60431 0.641726 0.665744 0.669725 0.96554 0.236779 0.807582 0.668298 0.545199 0.625334 0.383786 0.538943 0.55385 0.563573 0.570642 0.561647 0.63776 0.64351 0.628454 0.633243 0.640784 0.648805 0.655335 0.659887 0.662418 0.66314 0.662519 0.661113 0.659378 0.657535 0.655507 0.653342 0.650732 0.624555 0.679202 0.763527 0.222109 0.250546 0.345966 0.582138 0.621283 0.649261 0.663534 0.673292 0.615723 0.633882 0.531898 0.730693 0.738964 0.76237 0.526662 0.555704 0.576689 0.555405 0.573624 0.607514 0.586414 0.870517 0.856264 0.826987 0.791048 0.7493 0.703472 0.667647 0.651307 0.643567 0.640637 0.640502 0.64153 0.644419 0.649866 0.658821 0.636354 0.644236 0.647623 0.644042 0.639856 0.635024 0.629646 0.623803 0.617538 0.610935 0.604249 0.598007 0.593192 0.59179 0.597238 0.615089 0.651255 0.707966 0.784574 0.873418 0.956098 1.0027 0.231927 0.307855 0.400006 0.478935 0.536 0.686818 0.630176 0.786962 0.756358 0.595271 0.671037 0.553195 0.68021 0.403983 0.542635 0.589909 0.590996 0.529441 0.52789 0.544321 0.587358 0.7883 0.794508 0.783215 0.762347 0.737902 0.711893 0.686415 0.666861 0.656835 0.651538 0.649183 0.649235 0.651267 0.655548 0.662135 0.671245 0.65217 0.658929 0.663755 0.666233 0.666592 0.665457 0.66352 0.661087 0.658638 0.656242 0.653887 0.651418 0.648481 0.645056 0.641151 0.636673 0.631621 0.626106 0.620228 0.614083 0.60789 0.602087 0.597443 0.595436 0.59839 0.609778 0.633561 0.672797 0.726677 0.792955 0.862167 0.919521 0.947751 0.274926 0.360723 0.443204 0.508159 0.557793 0.599663 0.633316 0.654137 0.695592 0.657632 0.79449 0.540249 0.893479 0.58395 0.628488 0.541606 0.707606 0.388505 0.596827 0.600063 0.617691 0.594156 0.502134 0.505236 0.533384 0.74317 0.763504 0.744806 0.731437 0.719896 0.705517 0.690903 0.678053 0.667701 0.661429 0.658156 0.657077 0.658177 0.661162 0.66608 0.672614 0.68048 0.646668 0.655919 0.663338 0.668622 0.671305 0.671549 0.669783 0.666907 0.663669 0.660329 0.6573 0.654427 0.651833 0.649139 0.645943 0.642221 0.638048 0.633371 0.628204 0.622692 0.616979 0.611254 0.605859 0.601359 0.598829 0.599955 0.606928 0.62236 0.648579 0.687833 0.73584 0.790343 0.843582 0.885248 0.90451 0.325989 0.407497 0.476638 0.531788 0.575689 0.611925 0.64166 0.672427 0.812596 0.80737 0.643757 0.735695 0.73572 0.563064 0.62251 0.63416 0.611825 0.612535 0.517941 0.537827 0.645147 0.753899 0.723807 0.708754 0.701087 0.694826 0.687274 0.68005 0.673758 0.658732 0.667849 0.674072 0.677409 0.677991 0.675917 0.672023 0.667458 0.662974 0.658937 0.655397 0.652256 0.649481 0.646603 0.643159 0.639187 0.634815 0.630012 0.62484 0.619518 0.614232 0.78141 0.823488 0.85632 0.870695 0.446122 0.504505 0.55315 0.590208 0.621384 0.711187 0.691155 0.784449 0.717225 0.821202 0.788872 0.468156 0.606367 0.641967 0.668767 0.665619 0.664283 0.664653 0.666509 0.670096 0.675025 0.680797 0.686404 0.671533 0.679567 0.684193 0.685496 0.683811 0.609202 0.604824 0.601907 0.601682 0.605596 0.615377 0.632468 0.658443 0.696448 0.738755 0.845888 0.375017 0.722348 0.726219 0.774636 0.817723 0.811743 0.706281 0.810308 0.798238 0.651033 0.610057 0.659258 0.643576 0.715139 0.707288 0.694855 0.686431 0.682844 0.679786 0.67734 0.675078 0.67283 0.67136 0.670025 0.66977 0.671157 0.673619 0.677291 0.68193 0.686508 0.688925 0.679507 0.673193 0.667009 0.661499 0.656972 0.653145 0.649821 0.646954 0.643906 0.640181 0.63598 0.631458 0.626634 0.621665 0.616779 0.612063 0.607792 0.604625 0.60339 0.605165 0.611102 0.62219 0.638875 0.662675 0.701075 0.738714 0.770492 0.804686 0.831566 0.418246 0.478791 0.529895 0.569592 0.601112 0.733754 0.743788 0.778317 0.726465 0.808263 0.807218 0.844379 0.762343 0.757487 0.773822 0.796027 0.623284 0.658091 0.676149 0.644576 0.656095 0.662733 0.825128 0.686265 0.677415 0.672369 0.671637 0.672505 0.673642 0.675051 0.674144 0.673571 0.673793 0.674051 0.675589 0.678548 0.682548 0.686672 0.689238 0.68855 0.684504 0.691055 0.693698 0.692515 0.688493 0.68231 0.673904 0.665857 0.65928 0.654562 0.650581 0.647233 0.644324 0.641015 0.637002 0.632585 0.62804 0.623452 0.618869 0.614378 0.610272 0.606947 0.604932 0.605158 0.608465 0.615579 0.626775 0.642142 0.663205 0.705128 0.733944 0.760624 0.788843 0.812475 0.829633 0.455313 0.507387 0.549938 0.582936 0.777501 0.748941 0.800395 0.813366 0.81066 0.81936 0.655928 0.640671 0.727973 0.632254 0.662102 0.794284 0.77596 0.669054 0.665246 0.664886 0.667066 0.671343 0.67336 0.67539 0.676026 0.675399 0.675676 0.676547 0.678058 0.681211 0.68551 0.689 0.689649 0.685839 0.697283 0.701894 0.701717 0.698174 0.691665 0.684976 0.675475 0.665003 0.657041 0.651627 0.647777 0.644586 0.64148 0.637865 0.633592 0.629173 0.624825 0.620446 0.616174 0.61228 0.608857 0.606261 0.605299 0.606648 0.610935 0.618586 0.629235 0.642791 0.667198 0.704879 0.726883 0.750896 0.776639 0.800749 0.822224 0.485113 0.530121 0.567332 0.744841 0.754112 0.776364 0.814379 0.883987 0.719895 0.716253 0.776393 0.858965 0.821291 0.810604 0.790082 0.740916 0.627853 0.809456 0.78315 0.771099 0.710516 0.707417 0.702577 0.694499 0.687176 0.679679 0.666375 0.743566 0.769277 0.795996 0.821619 0.752998 0.76111 0.776474 0.773447 0.800323 0.789935 0.904177 0.697293 0.791391 0.823047 0.844689 0.791085 0.773824 0.658899 0.660073 0.662185 0.665687 0.671453 0.673607 0.677793 0.679053 0.678776 0.675865 0.676587 0.67873 0.681952 0.686181 0.689193 0.68791 0.681247 0.709743 0.655207 0.648586 0.64479 0.641756 0.638475 0.634472 0.630184 0.625809 0.621482 0.61746 0.613845 0.610404 0.607442 0.605437 0.605187 0.607402 0.612213 0.619689 0.628924 0.65141 0.665044 0.701424 0.721334 0.510853 0.553928 0.793759 0.800909 0.805168 0.810738 0.828386 0.820497 0.912181 0.853327 0.825415 0.806595 0.799976 0.837315 0.754946 0.774254 0.77012 0.656058 0.65737 0.659082 0.664748 0.675498 0.677898 0.684599 0.686728 0.678936 0.675099 0.675046 0.677201 0.681125 0.685145 0.687038 0.684185 0.67437 0.718847 0.717092 0.711188 0.70435 0.697631 0.689385 0.685817 0.674012 0.654902 0.645251 0.641814 0.639294 0.635266 0.630913 0.626484 0.622189 0.618275 0.614733 0.61162 0.608576 0.605741 0.603994 0.604468 0.607218 0.612112 0.618833 0.638945 0.652881 0.660291 0.698221 0.716873 0.740122 0.769255 0.797962 0.82521 0.545552 0.71854 0.844514 0.91391 0.89353 0.685453 0.795771 0.82762 0.815399 0.78996 0.77013 0.756887 0.73726 0.678399 0.836917 0.780648 0.77505 0.771006 0.772103 0.652568 0.653049 0.65382 0.675668 0.67741 0.69255 0.690787 0.684549 0.674955 0.673072 0.672833 0.674093 0.67858 0.682682 0.683087 0.678223 0.665132 0.726428 0.720268 0.710717 0.70477 0.701627 0.694507 0.68924 0.687487 0.661507 0.643418 0.640839 0.636466 0.631579 0.62691 0.622611 0.618656 0.615106 0.612103 0.609586 0.60649 0.603164 0.601947 0.603194 0.606128 0.610984 0.629236 0.641591 0.650561 0.662421 0.696303 0.71628 0.743809 0.772046 0.803488 0.847089 0.716136 0.727211 0.804648 0.804531 0.809557 0.823637 0.893832 0.893832 0.817169 0.826301 0.810037 0.79083 0.919159 0.89393 0.85741 0.849537 0.846018 0.716661 0.709451 0.705479 0.703671 0.701606 0.695154 0.687524 0.696647 0.710104 0.696341 0.722845 0.748604 0.780059 0.82337 0.893832 0.686187 0.777471 0.779259 0.785313 0.79943 0.823905 0.904875 0.785779 0.766431 0.756424 0.71837 0.740241 0.79585 0.795311 0.823135 0.6733 0.69755 0.684741 0.673338 0.668264 0.668519 0.669114 0.670876 0.674918 0.678296 0.677474 0.670383 0.651598 0.730565 0.647823 0.639805 0.632678 0.627508 0.622848 0.618653 0.615077 0.61207 0.609533 0.607902 0.602898 0.600054 0.599682 0.601665 0.604709 0.621035 0.633443 0.639476 0.668842 0.671975 0.895929 0.904057 0.8471 0.846586 0.839014 0.826414 0.807348 0.813347 0.777705 0.870061 0.726931 0.892496 0.888094 0.882288 0.885455 0.877927 0.792256 0.790793 0.804087 0.702202 0.708587 0.684095 0.662861 0.661912 0.661898 0.662546 0.663903 0.666858 0.669983 0.671692 0.669887 0.659863 0.632473 0.727192 0.710799 0.706533 0.707181 0.705676 0.704258 0.701052 0.697203 0.707093 0.763892 0.764384 0.762236 0.758802 0.755567 0.752878 0.750769 0.749165 0.749286 0.760362 0.763369 0.765599 0.767316 0.769502 0.777489 0.786614 0.792645 0.801326 0.788327 0.760753 0.823787 0.833368 0.83736 0.86438 0.914223 0.804089 0.817187 0.852658 0.850903 0.852007 0.854747 0.894 0.893832 0.893832 0.893832 0.859669 0.859293 0.855122 0.877052 0.900382 0.891396 0.895687 0.881943 0.888197 0.881968 0.755405 0.767442 0.767024 0.744461 0.839474 0.821991 0.824408 0.832885 0.843451 0.846913 0.848743 0.848718 0.864399 0.870923 0.873591 0.87311 0.872675 0.872153 0.871538 0.870767 0.879793 0.878459 0.878324 0.873776 0.875097 0.873491 0.855515 0.875406 0.901211 0.827312 0.856812 0.853896 0.853867 0.855739 0.895698 0.894483 0.845359 0.828128 0.83954 0.79835 0.75665 0.759315 0.760057 0.748263 0.730905 0.74537 0.737054 0.737548 0.739833 0.742895 0.746928 0.753429 0.760882 0.869678 0.870393 0.879228 0.876327 0.875345 0.874868 0.874617 0.877294 0.880116 0.81728 0.893832 0.893832 0.862173 0.858881 0.856097 0.845873 0.827133 0.843359 0.800266 0.872909 0.894486 0.894111 0.897167 0.889392 0.894645 0.888863 0.766767 0.773442 0.779954 0.78998 0.764405 0.764793 0.779766 0.779492 0.779262 0.78086 0.783161 0.787376 0.793567 0.800601 0.802132 0.796568 0.773642 0.848945 0.828814 0.831446 0.83922 0.848541 0.854631 0.863131 0.874111 0.87429 0.877349 0.8788 0.877838 0.877121 0.876414 0.875716 0.874832 0.873656 0.874994 0.881936 0.878327 0.877005 0.876255 0.875623 0.877989 0.880713 0.880573 0.878208 0.878083 0.876873 0.873818 0.871112 0.853823 0.87223 0.893832 0.816603 0.824179 0.855405 0.852048 0.852005 0.853479 0.893832 0.893772 0.893832 0.893832 0.862928 0.858266 0.871411 0.893832 0.893706 0.893832 0.891174 0.893814 0.768429 0.84824 0.826716 0.831775 0.838708 0.848428 0.861082 0.873825 0.879702 0.874733 0.877131 0.878179 0.877135 0.876317 0.875496 0.871823 0.868444 0.852641 0.869547 0.854788 0.851302 0.851361 0.852758 0.893832 0.893766 0.856036 0.845379 0.82661 0.845331 0.801069 0.887947 0.764024 0.770616 0.776572 0.783939 0.762321 0.763956 0.775419 0.777693 0.775784 0.776186 0.778815 0.783629 0.79031 0.797565 0.79959 0.793852 0.876374 0.875668 0.874946 0.874095 0.872952 0.874721 0.880875 0.877029 0.875628 0.874954 0.874179 0.876431 0.879411 0.879332 0.876936 0.893832 0.81583 0.822315 
SCALARS Axial_Stress float 1
LOOKUP_TABLE default
-97590800000.0 -92274900000.0 -104123000000.0 -147261000000.0 -59482300000.0 -70434100000.0 -61945800000.0 -72657900000.0 -62014800000.0 -41522900000.0 -101249000000.0 -179933000000.0 -174904000000.0 -161857000000.0 -148250000000.0 -229484000000.0 -253784000000.0 -257433000000.0 -127445000000.0 -134504000000.0 -70817800000.0 -84788000000.0 -184377000000.0 -104502000000.0 -85087000000.0 -52175000000.0 -50953700000.0 -178951000000.0 -351121000000.0 -395840000000.0 -303497000000.0 -251333000000.0 -383949000000.0 -360821000000.0 -162105000000.0 -220179000000.0 -254781000000.0 -257499000000.0 -234678000000.0 -322243000000.0 -120154000000.0 -287629000000.0 -402128000000.0 -540394000000.0 -260426000000.0 -258081000000.0 -334086000000.0 -121985000000.0 -299172000000.0 -381737000000.0 -309044000000.0 -465851000000.0 -346159000000.0 -474888000000.0 -371666000000.0 -468561000000.0 -344687000000.0 -445589000000.0 -435484000000.0 -226147000000.0 -288481000000.0 -630257000000.0 -477901000000.0 -596456000000.0 -539808000000.0 -633013000000.0 -567611000000.0 -351987000000.0 -360892000000.0 -447800000000.0 -493017000000.0 -289769000000.0 -218512000000.0 -258643000000.0 -325311000000.0 -403651000000.0 -588508000000.0 -585178000000.0 -583897000000.0 -563064000000.0 -543328000000.0 -625843000000.0 -880175000000.0 -695172000000.0 -686337000000.0 -697232000000.0 -624404000000.0 -558207000000.0 -409660000000.0 -339509000000.0 -705835000000.0 -710351000000.0 -696160000000.0 -682386000000.0 -662637000000.0 -628446000000.0 -1.25983e+12 -849489000000.0 -764919000000.0 -762358000000.0 -435997000000.0 -461714000000.0 -711527000000.0 -614545000000.0 -647003000000.0 -965071000000.0 -839369000000.0 -938492000000.0 -813451000000.0 -912605000000.0 -797769000000.0 -894980000000.0 -779985000000.0 -879996000000.0 -750293000000.0 -997764000000.0 -1.08305e+12 -1.14678e+12 -1.06762e+12 -1.01386e+12 -873284000000.0 -916279000000.0 -830937000000.0 -893989000000.0 -827468000000.0 -521785000000.0 -566085000000.0 -811982000000.0 -887797000000.0 -846792000000.0 -1.0927e+12 -1.2495e+12 -1.2444e+12 -1.01706e+12 -1.08278e+12 -1.02985e+12 -1.0092e+12 -992255000000.0 -1.01915e+12 -1.12673e+12 -1.11976e+12 -1.01889e+12 -966463000000.0 -955354000000.0 -996414000000.0 -971364000000.0 -2.33619e+12 -1.81593e+12 -1.54506e+12 -1.25083e+12 -1.15585e+12 -1.12317e+12 -1.10448e+12 -1.10132e+12 -1.13908e+12 -1.18496e+12 -1.11617e+12 -1.04847e+12 -1.02053e+12 -609613000000.0 -687390000000.0 -994956000000.0 -1.89429e+12 -1.89054e+12 -1.45109e+12 -1.29266e+12 -1.23732e+12 -1.32954e+12 -1.2177e+12 -1.31125e+12 -1.20146e+12 -1.2916e+12 -1.20008e+12 -1.28276e+12 -1.2239e+12 -1.27114e+12 -1.19962e+12 -1.21374e+12 -1.13244e+12 -1.16182e+12 -1.08993e+12 -1.13885e+12 -1.07777e+12 -699361000000.0 -822537000000.0 -1.21456e+12 -1.65025e+12 -1.92437e+12 -1.64878e+12 -1.5795e+12 -1.4409e+12 -1.47887e+12 -1.35582e+12 -1.43399e+12 -1.42466e+12 -1.39836e+12 -1.36836e+12 -1.34155e+12 -1.29277e+12 -1.23433e+12 -1.201e+12 -1.19325e+12 -1.4764e+12 -1.4402e+12 -1.61826e+12 -1.74752e+12 -1.74259e+12 -1.75287e+12 -1.64043e+12 -1.59452e+12 -1.54106e+12 -1.53306e+12 -1.51417e+12 -1.47385e+12 -1.42832e+12 -1.37454e+12 -1.30837e+12 -1.26328e+12 -1.2485e+12 -790946000000.0 -986602000000.0 -1.57684e+12 -1.66266e+12 -1.65505e+12 -1.66381e+12 -1.64869e+12 -1.61671e+12 -1.73906e+12 -1.63248e+12 -1.71932e+12 -1.59226e+12 -1.65557e+12 -1.53409e+12 -1.57578e+12 -1.46689e+12 -1.48145e+12 -1.38819e+12 -1.39506e+12 -1.32664e+12 -1.35357e+12 -1.30209e+12 -1.35125e+12 -1.3024e+12 -884688000000.0 -1.13223e+12 -1.62693e+12 -1.64695e+12 -1.6218e+12 -1.59091e+12 -1.74371e+12 -1.80224e+12 -1.70795e+12 -1.7761e+12 -1.84933e+12 -1.78957e+12 -1.70111e+12 -1.59423e+12 -1.47633e+12 -1.40558e+12 -1.39406e+12 -1.40805e+12 -1.74159e+12 -1.67794e+12 -1.70209e+12 -1.65006e+12 -1.58872e+12 -1.47844e+12 -1.16136e+12 -1.79364e+12 -1.87712e+12 -1.8508e+12 -1.964e+12 -1.93457e+12 -1.84136e+12 -1.72467e+12 -1.5833e+12 -1.46502e+12 -1.43007e+12 -1.45001e+12 -981539000000.0 -1.26944e+12 -1.77443e+12 -1.6809e+12 -1.44681e+12 -1.07544e+12 -1.90895e+12 -1.8863e+12 -2.24835e+12 -2.08986e+12 -2.17591e+12 -1.99707e+12 -2.02674e+12 -1.87002e+12 -1.87972e+12 -1.72151e+12 -1.6695e+12 -1.54463e+12 -1.50172e+12 -1.46286e+12 -1.48876e+12 -1.47767e+12 -1.55071e+12 -1.51585e+12 -1.08319e+12 -1.40459e+12 -1.85474e+12 -1.88688e+12 -1.78108e+12 -1.75077e+12 -1.60735e+12 -1.27054e+12 -1.03594e+12 -1.91744e+12 -1.78936e+12 -2.43088e+12 -2.17636e+12 -2.06109e+12 -1.84787e+12 -1.56251e+12 -1.48597e+12 -1.55649e+12 -1.63624e+12 -1.98808e+12 -1.8948e+12 -1.68128e+12 -1.48909e+12 -1.28219e+12 -1.19436e+12 -1.16108e+12 -977639000000.0 -779150000000.0 -2.96477e+12 -2.34247e+12 -2.19594e+12 -2.11063e+12 -1.67243e+12 -1.47535e+12 -1.52918e+12 -1.66461e+12 -1.19271e+12 -1.544e+12 -2.0305e+12 -1.87576e+12 -1.5536e+12 -1.21099e+12 -1.10697e+12 -2.40578e+12 -2.56739e+12 -2.42286e+12 -2.31409e+12 -2.34193e+12 -2.24555e+12 -2.32723e+12 -2.18624e+12 -2.42534e+12 -1.38837e+12 -1.2881e+12 -1.47126e+12 -1.54653e+12 -1.63655e+12 -1.8127e+12 -1.7881e+12 -1.31561e+12 -1.69113e+12 -2.1565e+12 -2.2202e+12 -2.05233e+12 -2.05003e+12 -1.83127e+12 -1.78531e+12 -1.11849e+12 -1.1914e+12 -1.58431e+12 -1.41372e+12 -2.3675e+12 -2.41542e+12 -2.40788e+12 -2.48059e+12 -2.90375e+12 -1.27783e+12 -1.7261e+12 -2.00236e+12 -2.35797e+12 -2.27703e+12 -2.02804e+12 -905780000000.0 -1.13693e+12 -1.57648e+12 -1.87958e+12 -2.16583e+12 -2.34693e+12 -2.41492e+12 -2.48448e+12 -2.46401e+12 -2.54718e+12 -2.51692e+12 -2.6836e+12 -2.75516e+12 -3.05904e+12 -3.26017e+12 -3.46088e+12 -1.41813e+12 -2.03168e+12 -1.45881e+12 -1.85242e+12 -2.59856e+12 -2.43159e+12 -2.47737e+12 -2.34117e+12 -1.92565e+12 -1.4307e+12 -1.87085e+12 -2.24743e+12 -2.47027e+12 -2.56686e+12 -2.66194e+12 -2.88656e+12 -3.27664e+12 -3.45556e+12 -1.76569e+12 -2.38955e+12 -2.31338e+12 -1.60704e+12 -2.05306e+12 -2.64968e+12 -2.46457e+12 -2.49092e+12 -3.30542e+12 -1.06732e+12 -1.51207e+12 -1.7941e+12 -2.09289e+12 -2.12077e+12 -2.37938e+12 -2.43419e+12 -2.57327e+12 -2.6607e+12 -2.7988e+12 -3.07631e+12 -3.34898e+12 -3.31744e+12 -3.21742e+12 -2.84928e+12 -2.66605e+12 -2.27398e+12 -2.94502e+12 -2.59536e+12 -2.51509e+12 -1.9001e+12 -2.1209e+12 -2.03377e+12 -2.32962e+12 -2.55469e+12 -2.56911e+12 -2.67774e+12 -2.66771e+12 -2.75594e+12 -2.76185e+12 -2.85989e+12 -2.93723e+12 -3.04341e+12 -3.19027e+12 -3.18534e+12 -3.20769e+12 -2.95304e+12 -3.07969e+12 -1.75872e+12 -3.24923e+12 -3.07435e+12 -3.24998e+12 -2.1516e+12 -1.48113e+12 -2.5517e+12 -1.81321e+12 -2.19521e+12 -2.3235e+12 -2.53721e+12 -2.68687e+12 -2.76905e+12 -2.83329e+12 -2.93658e+12 -3.08919e+12 -3.26438e+12 -3.36952e+12 -3.18399e+12 -3.28762e+12 -1.93091e+12 -2.52451e+12 -3.32634e+12 -3.88035e+12 -2.3347e+12 -2.33171e+12 -2.50612e+12 -2.40652e+12 -2.58842e+12 -2.53457e+12 -2.70753e+12 -2.69429e+12 -2.792e+12 -2.84319e+12 -2.88831e+12 -2.96727e+12 -3.01328e+12 -3.38333e+12 -3.49023e+12 -3.38397e+12 -2.8673e+12 -3.38678e+12 -3.34498e+12 -3.55238e+12 -4.85854e+12 -3.7486e+12 -3.27536e+12 -2.49387e+12 -2.68691e+12 -2.67622e+12 -2.74683e+12 -2.84428e+12 -2.81671e+12 -2.9144e+12 -2.87652e+12 -2.94018e+12 -2.89216e+12 -2.89762e+12 -2.90386e+12 -2.85396e+12 -2.95073e+12 -2.65103e+12 -3.71191e+12 -3.56434e+12 -3.60283e+12 -2.07415e+12 -3.25037e+12 -3.50605e+12 -4.10584e+12 -4.17097e+12 -3.60749e+12 -3.06333e+12 -2.81704e+12 -2.81977e+12 -2.88408e+12 -2.95385e+12 -2.99191e+12 -2.97704e+12 -2.82032e+12 -2.80472e+12 -3.94781e+12 -4.15613e+12 -3.79279e+12 -3.76376e+12 -2.19315e+12 -3.52898e+12 -2.75625e+12 -3.81224e+12 -3.4207e+12 -3.07553e+12 -3.11842e+12 -2.93495e+12 -3.0395e+12 -2.94532e+12 -3.05581e+12 -2.99874e+12 -3.09408e+12 -3.04263e+12 -3.04938e+12 -2.97497e+12 -2.52939e+12 -2.48887e+12 -4.62758e+12 -3.98951e+12 -3.75165e+12 -3.86125e+12 -3.16495e+12 -3.44097e+12 -3.66368e+12 -3.77934e+12 -3.58506e+12 -3.53915e+12 -3.33821e+12 -3.32958e+12 -3.17899e+12 -3.13438e+12 -3.15104e+12 -3.17357e+12 -3.11388e+12 -3.16837e+12 -3.08348e+12 -3.08647e+12 -2.9047e+12 -2.74679e+12 -2.02095e+12 -4.33713e+12 -4.33546e+12 -4.0262e+12 -3.88729e+12 -3.84943e+12 -2.29631e+12 -3.31416e+12 -3.09879e+12 -3.34165e+12 -3.57551e+12 -3.70099e+12 -3.67678e+12 -3.52137e+12 -3.34687e+12 -3.24356e+12 -3.22048e+12 -3.23295e+12 -3.23957e+12 -3.20542e+12 -3.06364e+12 -3.01577e+12 -2.91106e+12 -4.06992e+12 -3.95261e+12 -2.37798e+12 -2.66339e+12 -3.39585e+12 -3.69101e+12 -3.80584e+12 -3.68055e+12 -3.67494e+12 -3.51855e+12 -3.52424e+12 -3.37823e+12 -3.41723e+12 -3.30908e+12 -3.37336e+12 -3.29773e+12 -3.36747e+12 -3.30399e+12 -3.36652e+12 -3.29376e+12 -3.23244e+12 -3.18223e+12 -3.33861e+12 -3.82242e+12 -3.92243e+12 -3.96636e+12 -3.89133e+12 -2.41688e+12 -3.0976e+12 -3.17377e+12 -3.55478e+12 -3.85513e+12 -3.82038e+12 -3.82148e+12 -3.66768e+12 -3.53845e+12 -3.46193e+12 -3.43521e+12 -3.43167e+12 -3.42473e+12 -3.34186e+12 -3.41135e+12 -3.315e+12 -3.44248e+12 -3.3729e+12 -3.74212e+12 -3.86316e+12 -3.79053e+12 -3.88495e+12 -2.22784e+12 -2.35696e+12 -3.86918e+12 -4.04613e+12 -3.95134e+12 -3.967e+12 -3.80749e+12 -3.66349e+12 -3.56135e+12 -3.51021e+12 -3.49511e+12 -3.49339e+12 -3.49133e+12 -3.50562e+12 -3.60198e+12 -3.59194e+12 -3.78155e+12 -4.00294e+12 -3.9139e+12 -2.39946e+12 -9035750000.0 -1.60562e+12 -3.95739e+12 -4.1646e+12 -4.11436e+12 -3.94992e+12 -3.91906e+12 -3.78937e+12 -3.77525e+12 -3.6668e+12 -3.67959e+12 -3.59232e+12 -3.62994e+12 -3.5608e+12 -3.61409e+12 -3.55491e+12 -3.61807e+12 -3.55894e+12 -3.6329e+12 -3.57227e+12 -3.61376e+12 -3.78781e+12 -3.82628e+12 -3.89437e+12 -3.50739e+12 -4.19971e+12 -2.25409e+12 -3.98136e+12 -4.5655e+12 -4.47372e+12 -4.26942e+12 -4.27549e+12 -4.10294e+12 -4.06076e+12 -3.88831e+12 -3.77011e+12 -3.70182e+12 -3.67344e+12 -3.67187e+12 -3.68715e+12 -3.71537e+12 -3.66379e+12 -3.75635e+12 -3.72236e+12 -4.00835e+12 -3.63667e+12 -5.18816e+12 -3.60954e+12 -3.01172e+12 -4.51069e+12 -4.70474e+12 -4.50389e+12 -4.48849e+12 -4.22502e+12 -4.01251e+12 -3.86529e+12 -3.7757e+12 -3.73306e+12 -3.72311e+12 -3.73568e+12 -3.76294e+12 -3.80003e+12 -3.84448e+12 -3.81901e+12 -3.89753e+12 -4.2863e+12 -5.1898e+12 -4.86094e+12 -1.47934e+12 -2.00369e+12 -4.6821e+12 -5.09749e+12 -4.71637e+12 -4.42569e+12 -4.15909e+12 -4.0953e+12 -3.97061e+12 -3.93915e+12 -3.85316e+12 -3.85296e+12 -3.79243e+12 -3.82056e+12 -3.77287e+12 -3.82077e+12 -3.77969e+12 -3.84286e+12 -3.80546e+12 -3.88032e+12 -3.84297e+12 -3.87935e+12 -3.93407e+12 -4.00858e+12 -5.04505e+12 -4.42977e+12 -4.36374e+12 -9035750000.0 -4.73033e+12 -5.05379e+12 -5.02709e+12 -4.92388e+12 -4.65198e+12 -4.56243e+12 -4.3423e+12 -4.25877e+12 -4.04266e+12 -3.91972e+12 -3.86648e+12 -3.85922e+12 -3.87589e+12 -3.91121e+12 -3.95706e+12 -3.92039e+12 -3.9892e+12 -3.95207e+12 -4.02166e+12 -4.05966e+12 -3.73758e+12 -2.45707e+12 -4.90026e+12 -3.01329e+12 -4.7348e+12 -4.91284e+12 -6.8191e+12 -5.64319e+12 -5.73488e+12 -5.17973e+12 -5.14521e+12 -4.81065e+12 -4.46983e+12 -4.17779e+12 -4.00164e+12 -3.91478e+12 -3.89414e+12 -3.90596e+12 -3.93656e+12 -3.98361e+12 -4.02983e+12 -4.04133e+12 -3.93495e+12 -4.05084e+12 -4.45625e+12 -5.69172e+12 -4.64551e+12 -4.56609e+12 -4.731e+12 -7.11713e+12 -5.94524e+12 -5.51157e+12 -5.0511e+12 -4.71532e+12 -4.37757e+12 -4.26799e+12 -4.11077e+12 -4.05535e+12 -3.97433e+12 -3.96589e+12 -3.92714e+12 -3.95699e+12 -3.93318e+12 -3.97772e+12 -3.95816e+12 -4.01376e+12 -4.00117e+12 -4.06903e+12 -4.05744e+12 -4.12757e+12 -4.09079e+12 -4.10593e+12 -4.00291e+12 -4.08224e+12 -4.94108e+12 -5.34994e+12 -5.64684e+12 -6.51162e+12 -6.85965e+12 -4.56075e+12 -4.40975e+12 -7.10682e+12 -6.87483e+12 -6.67387e+12 -6.07798e+12 -5.91185e+12 -5.65882e+12 -5.35509e+12 -5.20281e+12 -4.94243e+12 -4.88198e+12 -4.63094e+12 -4.52886e+12 -4.17339e+12 -4.02159e+12 -3.98033e+12 -3.99597e+12 -4.02387e+12 -4.0721e+12 -4.13836e+12 -4.18006e+12 -4.08956e+12 -3.99065e+12 -3.7762e+12 -4.47794e+12 -5.25279e+12 -5.508e+12 -6.28257e+12 -6.94776e+12 -4.5277e+12 -4.49684e+12 -4.26568e+12 -6.99331e+12 -7.05233e+12 -6.90861e+12 -6.53395e+12 -5.93119e+12 -5.48958e+12 -5.29608e+12 -5.07404e+12 -4.82441e+12 -4.35864e+12 -4.09895e+12 -4.01295e+12 -4.01341e+12 -4.03403e+12 -4.0712e+12 -4.13347e+12 -4.20475e+12 -4.21626e+12 -3.78576e+12 -5.56654e+12 -5.05432e+12 -5.55932e+12 -5.69879e+12 -6.20252e+12 -6.66094e+12 -6.7813e+12 -7.00436e+12 -7.03668e+12 -4.44099e+12 -4.12947e+12 -4.16505e+12 -6.92966e+12 -6.83961e+12 -6.8677e+12 -6.77131e+12 -6.68169e+12 -6.39638e+12 -6.10207e+12 -5.84232e+12 -5.6572e+12 -5.54538e+12 -5.16222e+12 -5.06637e+12 -5.01964e+12 -4.69949e+12 -4.41252e+12 -4.21297e+12 -4.11963e+12 -4.06484e+12 -4.06292e+12 -4.0336e+12 -4.06059e+12 -4.04579e+12 -4.07164e+12 -4.0699e+12 -4.10643e+12 -4.12107e+12 -4.17489e+12 -4.19703e+12 -4.26609e+12 -4.27191e+12 -4.26794e+12 -4.00853e+12 -5.1179e+12 -5.50372e+12 -5.51166e+12 -5.39057e+12 -5.6155e+12 -5.76665e+12 -6.4865e+12 -6.85828e+12 -7.0343e+12 -4.3602e+12 -4.2444e+12 -4.13623e+12 -6.89217e+12 -6.82681e+12 -6.75701e+12 -6.75312e+12 -6.56088e+12 -6.03302e+12 -5.48488e+12 -5.24016e+12 -5.30589e+12 -5.44744e+12 -4.83078e+12 -4.16844e+12 -4.09889e+12 -4.0819e+12 -4.07893e+12 -4.09417e+12 -4.14669e+12 -4.23622e+12 -4.32368e+12 -4.70394e+12 -5.42431e+12 -5.63725e+12 -5.54329e+12 -5.81308e+12 -6.12536e+12 -6.33598e+12 -6.59652e+12 -6.70409e+12 -6.89862e+12 -6.88326e+12 -7.00765e+12 -6.94005e+12 -4.11533e+12 -4.12577e+12 -6.76552e+12 -6.86212e+12 -6.83161e+12 -6.83209e+12 -6.80177e+12 -6.78278e+12 -6.49697e+12 -6.33375e+12 -6.03575e+12 -5.64394e+12 -4.89567e+12 -5.53512e+12 -4.77566e+12 -5.10973e+12 -5.72191e+12 -5.27739e+12 -4.1634e+12 -4.09592e+12 -4.11295e+12 -4.12138e+12 -4.09448e+12 -4.09179e+12 -4.08827e+12 -4.0962e+12 -4.11869e+12 -4.1507e+12 -4.19497e+12 -4.25542e+12 -4.30498e+12 -4.45859e+12 -4.56053e+12 -5.10613e+12 -5.4711e+12 -5.5168e+12 -5.51558e+12 -5.64133e+12 -6.06515e+12 -6.39663e+12 -6.75821e+12 -6.85127e+12 -6.8534e+12 -3.99069e+12 -3.62321e+12 -4.06409e+12 -6.57589e+12 -6.77528e+12 -6.75078e+12 -6.87239e+12 -6.91489e+12 -6.93044e+12 -6.32932e+12 -6.33675e+12 -5.56274e+12 -4.96099e+12 -5.27614e+12 -5.63222e+12 -5.32258e+12 -5.32579e+12 -5.46483e+12 -3.68441e+12 -3.83883e+12 -4.137e+12 -4.15645e+12 -4.10702e+12 -4.08348e+12 -4.10967e+12 -4.19574e+12 -4.36235e+12 -4.67495e+12 -4.85009e+12 -5.11894e+12 -5.3004e+12 -5.36841e+12 -5.52166e+12 -5.80487e+12 -5.999e+12 -6.21587e+12 -6.15027e+12 -6.55263e+12 -6.63645e+12 -6.72989e+12 -6.69465e+12 -6.77092e+12 -6.71374e+12 -6.768e+12 -3.9398e+12 -3.98497e+12 -3.75986e+12 -6.39354e+12 -5.84942e+12 -6.40735e+12 -6.68936e+12 -6.67648e+12 -6.62997e+12 -6.71579e+12 -6.64418e+12 -7.09774e+12 -5.8901e+12 -5.94417e+12 -5.71826e+12 -5.14505e+12 -4.63721e+12 -6.10925e+12 -5.32154e+12 -5.49134e+12 -5.19145e+12 -4.03721e+12 -4.13414e+12 -4.08322e+12 -4.07806e+12 -4.13507e+12 -4.27209e+12 -4.52017e+12 -4.90778e+12 -5.31517e+12 -5.41036e+12 -5.18731e+12 -5.37444e+12 -5.69482e+12 -6.10427e+12 -6.41846e+12 -6.5122e+12 -6.56878e+12 -6.61642e+12 -6.65171e+12 -6.67612e+12 -6.75148e+12 -4.07174e+12 -4.09223e+12 -6.79671e+12 -7.05471e+12 -6.71726e+12 -6.53988e+12 -6.54828e+12 -6.51877e+12 -6.09461e+12 -6.33735e+12 -5.12401e+12 -6.54462e+12 -6.28543e+12 -4.96175e+12 -3.77327e+12 -5.42973e+12 -4.02003e+12 -4.85457e+12 -5.35097e+12 -5.34345e+12 -4.73196e+12 -4.4131e+12 -4.12769e+12 -4.11105e+12 -4.09694e+12 -4.05446e+12 -4.0587e+12 -4.04231e+12 -4.08293e+12 -4.10625e+12 -4.18312e+12 -4.2623e+12 -4.39067e+12 -4.55032e+12 -4.7054e+12 -4.8875e+12 -5.14673e+12 -5.59674e+12 -5.1833e+12 -5.15965e+12 -5.49759e+12 -5.87781e+12 -5.88026e+12 -5.77086e+12 -6.24171e+12 -6.4996e+12 -6.65902e+12 -6.6832e+12 -6.59024e+12 -6.63663e+12 -6.75774e+12 -6.77555e+12 -4.16679e+12 -4.23001e+12 -4.20447e+12 -6.8993e+12 -6.8538e+12 -6.96953e+12 -6.9105e+12 -6.57877e+12 -6.70048e+12 -6.59254e+12 -6.46049e+12 -6.47196e+12 -6.29053e+12 -5.89362e+12 -5.17802e+12 -5.72512e+12 -5.5519e+12 -3.70937e+12 -4.74567e+12 -4.79456e+12 -5.19667e+12 -5.08712e+12 -5.06407e+12 -4.71542e+12 -4.25182e+12 -4.06349e+12 -4.01652e+12 -4.04091e+12 -4.15546e+12 -4.37327e+12 -4.74975e+12 -4.99449e+12 -5.311e+12 -5.01639e+12 -4.30012e+12 -6.06795e+12 -6.70533e+12 -4.84441e+12 -6.64668e+12 -6.58222e+12 -6.73637e+12 -6.49602e+12 -6.61128e+12 -6.55567e+12 -6.54648e+12 -6.63909e+12 -6.76654e+12 -4.2369e+12 -4.27676e+12 -4.21845e+12 -6.77472e+12 -6.85661e+12 -6.77039e+12 -6.73969e+12 -6.59898e+12 -6.48672e+12 -6.37087e+12 -6.23779e+12 -5.81993e+12 -5.71553e+12 -4.91647e+12 -5.58394e+12 -5.51461e+12 -4.99009e+12 -5.19093e+12 -2.66244e+12 -4.43012e+12 -4.89567e+12 -4.95649e+12 -4.86687e+12 -4.44275e+12 -4.13291e+12 -4.0079e+12 -3.99099e+12 -4.06116e+12 -4.23349e+12 -4.51051e+12 -5.0105e+12 -4.498e+12 -5.99438e+12 -3.53834e+12 -4.77262e+12 -5.13616e+12 -5.87721e+12 -5.85131e+12 -6.31193e+12 -6.89851e+12 -6.43171e+12 -6.67063e+12 -6.36752e+12 -6.46981e+12 -6.61645e+12 -6.59901e+12 -6.74835e+12 -4.28866e+12 -4.1375e+12 -4.18541e+12 -6.68317e+12 -6.68174e+12 -6.56824e+12 -6.64441e+12 -6.50377e+12 -6.36966e+12 -6.26887e+12 -6.22362e+12 -5.97548e+12 -5.82287e+12 -5.61262e+12 -6.48058e+12 -5.22011e+12 -5.0281e+12 -4.45933e+12 -4.39008e+12 -4.60275e+12 -5.01229e+12 -4.9562e+12 -4.90443e+12 -4.66482e+12 -4.58613e+12 -4.35577e+12 -4.24728e+12 -4.09879e+12 -4.03613e+12 -3.95334e+12 -3.95893e+12 -3.9248e+12 -3.98279e+12 -3.99482e+12 -4.10622e+12 -4.17595e+12 -4.33786e+12 -4.46012e+12 -4.66091e+12 -4.759e+12 -5.25584e+12 -4.11898e+12 -5.48926e+12 -2.98261e+12 -4.85056e+12 -5.31243e+12 -5.57385e+12 -5.99895e+12 -5.59895e+12 -6.66688e+12 -6.58238e+12 -6.19175e+12 -6.33443e+12 -6.26663e+12 -6.42833e+12 -6.59361e+12 -6.7255e+12 -6.67962e+12 -4.2597e+12 -4.18201e+12 -4.07429e+12 -6.59031e+12 -6.49005e+12 -6.58621e+12 -6.47882e+12 -6.4328e+12 -6.28856e+12 -6.34555e+12 -6.15453e+12 -6.03089e+12 -6.16733e+12 -6.09185e+12 -6.06961e+12 -5.90199e+12 -4.45664e+12 -5.50067e+12 -5.49744e+12 -5.15177e+12 -4.87088e+12 -4.86177e+12 -4.51317e+12 -5.32862e+12 -5.48389e+12 -4.72232e+12 -4.74485e+12 -4.42506e+12 -4.17228e+12 -3.97646e+12 -3.8878e+12 -3.90815e+12 -4.02395e+12 -4.26601e+12 -4.55295e+12 -4.09329e+12 -4.2758e+12 -2.7723e+12 -4.28024e+12 -4.23114e+12 -4.87565e+12 -5.78243e+12 -5.78169e+12 -5.70288e+12 -5.94986e+12 -5.2804e+12 -6.25613e+12 -6.13325e+12 -6.15047e+12 -6.20286e+12 -6.28592e+12 -6.43342e+12 -6.54297e+12 -6.63238e+12 -4.03361e+12 -3.98872e+12 -6.42238e+12 -6.50225e+12 -6.39313e+12 -6.37991e+12 -6.3614e+12 -6.22123e+12 -6.12894e+12 -5.96033e+12 -5.92625e+12 -5.88727e+12 -5.97953e+12 -6.71024e+12 -5.96781e+12 -5.38272e+12 -5.09419e+12 -5.0747e+12 -5.00234e+12 -5.48472e+12 -6.54419e+12 -5.64013e+12 -4.9642e+12 -4.55458e+12 -4.48819e+12 -4.29093e+12 -4.23438e+12 -4.01701e+12 -3.87436e+12 -3.84223e+12 -3.90858e+12 -4.06021e+12 -4.37172e+12 -4.3969e+12 -4.34705e+12 -4.46763e+12 -5.75506e+12 -4.47464e+12 -4.7945e+12 -4.69178e+12 -5.30803e+12 -5.63985e+12 -5.60741e+12 -5.95413e+12 -5.67279e+12 -6.56009e+12 -7.08328e+12 -6.44185e+12 -6.24908e+12 -6.04898e+12 -6.17841e+12 -6.38236e+12 -6.30531e+12 -6.47992e+12 -6.57739e+12 -6.47675e+12 -3.83459e+12 -3.70669e+12 -3.86416e+12 -6.34376e+12 -6.30126e+12 -6.17773e+12 -6.28073e+12 -6.15814e+12 -6.26607e+12 -6.14751e+12 -6.08155e+12 -5.91229e+12 -5.84953e+12 -5.83646e+12 -5.97683e+12 -5.69429e+12 -5.19963e+12 -5.75997e+12 -5.56772e+12 -5.31322e+12 -5.28122e+12 -5.08491e+12 -5.04615e+12 -5.17071e+12 -5.67787e+12 -4.72879e+12 -4.27102e+12 -4.36691e+12 -4.11636e+12 -4.06523e+12 -3.89565e+12 -3.87862e+12 -3.76738e+12 -3.79448e+12 -3.73392e+12 -3.81367e+12 -3.80181e+12 -3.91672e+12 -3.91171e+12 -4.07598e+12 -4.04628e+12 -4.79758e+12 -3.08706e+12 -4.72109e+12 -4.52939e+12 -4.72732e+12 -4.99872e+12 -5.27795e+12 -5.44749e+12 -5.64275e+12 -5.6636e+12 -6.00934e+12 -6.35262e+12 -6.64027e+12 -6.30622e+12 -6.08504e+12 -5.74273e+12 -6.08316e+12 -6.21466e+12 -6.41388e+12 -6.38486e+12 -6.26292e+12 -6.30666e+12 -3.61559e+12 -3.40591e+12 -3.54015e+12 -6.22988e+12 -6.13914e+12 -6.21723e+12 -6.07848e+12 -6.05591e+12 -6.03842e+12 -5.92371e+12 -5.9993e+12 -5.86469e+12 -5.6572e+12 -5.75207e+12 -5.67151e+12 -5.72757e+12 -5.81023e+12 -6.66453e+12 -5.79153e+12 -5.76228e+12 -5.39127e+12 -5.21184e+12 -5.15069e+12 -4.9505e+12 -5.11115e+12 -5.00357e+12 -3.37772e+12 -4.45002e+12 -4.20282e+12 -3.92553e+12 -3.7469e+12 -3.67533e+12 -3.68157e+12 -3.79925e+12 -3.82901e+12 -4.01799e+12 -5.91795e+12 -4.56716e+12 -4.08453e+12 -4.56719e+12 -4.80708e+12 -5.00508e+12 -5.17509e+12 -5.37057e+12 -5.45877e+12 -5.68724e+12 -5.89625e+12 -5.91894e+12 -6.04464e+12 -5.77721e+12 -5.6014e+12 -5.51338e+12 -5.95091e+12 -6.02191e+12 -6.20302e+12 -6.17678e+12 -6.08263e+12 -6.11244e+12 -3.24838e+12 -3.39083e+12 -5.90261e+12 -6.07662e+12 -6.01586e+12 -5.99099e+12 -5.8372e+12 -5.94406e+12 -5.8176e+12 -5.91694e+12 -5.79254e+12 -5.75007e+12 -5.62748e+12 -5.51248e+12 -5.48101e+12 -5.94407e+12 -5.68398e+12 -5.65932e+12 -5.24856e+12 -5.09901e+12 -5.02103e+12 -4.9932e+12 -4.93827e+12 -4.74257e+12 -4.53085e+12 -4.05177e+12 -4.88021e+12 -4.42947e+12 -4.02437e+12 -3.94789e+12 -3.73935e+12 -3.73856e+12 -3.63644e+12 -3.59769e+12 -3.6396e+12 -3.81213e+12 -3.81209e+12 -3.66168e+12 -2.79003e+12 -4.18967e+12 -4.04656e+12 -4.42685e+12 -4.55773e+12 -4.69719e+12 -4.80796e+12 -4.94195e+12 -5.09528e+12 -5.22312e+12 -5.3919e+12 -5.5536e+12 -5.56751e+12 -5.49826e+12 -5.35542e+12 -4.56691e+12 -4.5221e+12 -5.62443e+12 -5.86375e+12 -5.95424e+12 -6.02347e+12 -6.06523e+12 -5.89029e+12 -5.88927e+12 -5.92561e+12 -5.75152e+12 -3.14184e+12 -3.20873e+12 -3.27868e+12 -5.73224e+12 -5.676e+12 -5.852e+12 -5.80916e+12 -5.93189e+12 -5.74181e+12 -5.70118e+12 -5.65465e+12 -5.52498e+12 -5.6818e+12 -5.44001e+12 -5.29792e+12 -5.22018e+12 -5.64008e+12 -5.84056e+12 -5.30614e+12 -4.959e+12 -4.88816e+12 -4.84262e+12 -4.8002e+12 -4.7572e+12 -3.85063e+12 -2.39967e+12 -5.10034e+12 -4.4398e+12 -3.63175e+12 -3.56578e+12 -3.58846e+12 -3.48196e+12 -3.52629e+12 -3.43554e+12 -3.51461e+12 -3.44336e+12 -3.5913e+12 -3.56679e+12 -3.98503e+12 -4.23771e+12 -4.35393e+12 -4.26094e+12 -4.46878e+12 -4.53061e+12 -4.64394e+12 -4.74517e+12 -4.86126e+12 -4.97614e+12 -5.40525e+12 -5.46361e+12 -5.67405e+12 -5.80847e+12 -5.5682e+12 -5.76826e+12 -5.75541e+12 -5.93029e+12 -5.90177e+12 -5.67513e+12 -5.68727e+12 -5.64695e+12 -3.11525e+12 -3.13902e+12 -3.17495e+12 -5.57646e+12 -5.50188e+12 -5.64697e+12 -5.6289e+12 -5.73778e+12 -5.58076e+12 -5.45584e+12 -5.58756e+12 -5.3802e+12 -5.43056e+12 -5.01717e+12 -5.33112e+12 -4.61804e+12 -5.33344e+12 -5.88344e+12 -6.21659e+12 -4.13492e+12 -5.01883e+12 -4.97708e+12 -4.75161e+12 -4.69846e+12 -4.64693e+12 -4.58806e+12 -4.50203e+12 -4.27316e+12 -3.45179e+12 -3.72872e+12 -3.23096e+12 -3.45002e+12 -3.54578e+12 -3.4062e+12 -3.31877e+12 -3.33462e+12 -3.32001e+12 -3.32718e+12 -3.76135e+12 -5.39608e+12 -4.36469e+12 -4.29827e+12 -4.39748e+12 -4.46792e+12 -4.56028e+12 -4.65409e+12 -5.12078e+12 -5.2598e+12 -5.32631e+12 -5.35737e+12 -5.10161e+12 -4.17205e+12 -5.23414e+12 -5.64249e+12 -5.62565e+12 -5.82001e+12 -5.72811e+12 -5.67799e+12 -5.63054e+12 -5.56874e+12 -5.57212e+12 -5.50778e+12 -5.58131e+12 -3.14246e+12 -3.14785e+12 -5.31303e+12 -5.45132e+12 -5.3818e+12 -5.45533e+12 -5.44184e+12 -5.56676e+12 -5.44242e+12 -5.27969e+12 -5.35955e+12 -5.1046e+12 -5.30661e+12 -5.347e+12 -4.79649e+12 -4.65237e+12 -5.19607e+12 -5.47772e+12 -5.09731e+12 -4.67955e+12 -4.87233e+12 -4.7946e+12 -4.49429e+12 -4.43926e+12 -4.35809e+12 -4.19284e+12 -3.93471e+12 -1.98816e+12 -3.14712e+12 -3.63696e+12 -3.42677e+12 -3.29744e+12 -3.21188e+12 -3.33302e+12 -3.37024e+12 -3.11214e+12 -1.61421e+12 -4.31669e+12 -4.05673e+12 -4.13509e+12 -4.19715e+12 -4.22281e+12 -4.29948e+12 -4.37158e+12 -4.74835e+12 -4.85959e+12 -4.97248e+12 -5.04287e+12 -5.08437e+12 -5.10569e+12 -5.10675e+12 -5.28187e+12 -6.19817e+12 -5.14434e+12 -5.16804e+12 -5.39878e+12 -6.43067e+12 -6.05143e+12 -5.75998e+12 -5.57355e+12 -5.49713e+12 -5.40944e+12 -5.4637e+12 -3.10537e+12 -3.02022e+12 -3.09982e+12 -5.14722e+12 -5.24692e+12 -5.21638e+12 -5.34989e+12 -5.37941e+12 -5.49351e+12 -5.41771e+12 -5.30201e+12 -4.98553e+12 -4.71654e+12 -5.10878e+12 -5.1804e+12 -5.17666e+12 -5.3945e+12 -4.64143e+12 -5.68946e+12 -2.70031e+12 -4.33646e+12 -4.76103e+12 -4.77626e+12 -4.80203e+12 -4.56531e+12 -4.59565e+12 -4.55847e+12 -4.53482e+12 -4.30701e+12 -4.25796e+12 -4.14456e+12 -3.96624e+12 -3.70919e+12 -3.69868e+12 -3.11762e+12 -3.26755e+12 -3.15281e+12 -3.11148e+12 -3.11346e+12 -3.04377e+12 -2.98463e+12 -3.00326e+12 -2.95139e+12 -4.07917e+12 -2.78659e+12 -3.69431e+12 -3.83271e+12 -3.96146e+12 -4.05262e+12 -4.115e+12 -4.18518e+12 -4.45502e+12 -4.5351e+12 -4.62024e+12 -4.71026e+12 -4.77981e+12 -4.83889e+12 -4.90771e+12 -5.00087e+12 -5.19012e+12 -4.14687e+12 -5.32388e+12 -5.61153e+12 -4.41778e+12 -6.14346e+12 -5.93671e+12 -5.71455e+12 -5.52197e+12 -5.41867e+12 -5.38213e+12 -5.20803e+12 -5.23785e+12 -5.27105e+12 -5.0292e+12 -3.03359e+12 -2.90528e+12 -4.95406e+12 -5.08187e+12 -5.03623e+12 -5.23998e+12 -5.34168e+12 -5.69369e+12 -6.11458e+12 -3.63968e+12 -4.92058e+12 -5.01984e+12 -4.55503e+12 -5.02939e+12 -5.58633e+12 -3.87902e+12 -4.27204e+12 -3.79718e+12 -4.32632e+12 -4.44032e+12 -4.52169e+12 -4.49786e+12 -4.35935e+12 -4.32157e+12 -4.32885e+12 -4.32935e+12 -4.14398e+12 -4.02162e+12 -3.86649e+12 -3.8192e+12 -3.68705e+12 -3.71916e+12 -4.02755e+12 -3.63815e+12 -2.56019e+12 -2.66236e+12 -2.54151e+12 -2.4853e+12 -3.98956e+12 -3.88673e+12 -3.59205e+12 -3.74541e+12 -3.78157e+12 -3.86001e+12 -3.93525e+12 -4.25685e+12 -4.33053e+12 -4.39863e+12 -4.46439e+12 -4.52184e+12 -4.56826e+12 -4.62114e+12 -4.68589e+12 -4.78049e+12 -4.87196e+12 -5.18661e+12 -6.41035e+12 -5.68599e+12 -5.11075e+12 -5.47038e+12 -5.52541e+12 -5.75432e+12 -5.66781e+12 -5.25738e+12 -5.20736e+12 -4.98005e+12 -5.0037e+12 -4.76526e+12 -2.92909e+12 -2.79199e+12 -2.50621e+12 -2.73093e+12 -4.58422e+12 -4.75056e+12 -4.67945e+12 -4.88478e+12 -4.82199e+12 -5.03145e+12 -5.08686e+12 -5.19578e+12 -5.50733e+12 -5.61543e+12 -5.06694e+12 -4.49862e+12 -5.06825e+12 -5.70298e+12 -3.04962e+12 -4.47408e+12 -4.50018e+12 -4.05707e+12 -4.25546e+12 -4.04617e+12 -4.16616e+12 -4.22953e+12 -4.25147e+12 -4.20846e+12 -4.10622e+12 -4.01793e+12 -4.1176e+12 -4.19002e+12 -4.21081e+12 -4.08389e+12 -3.93828e+12 -3.82303e+12 -3.68564e+12 -3.60067e+12 -3.67779e+12 -2.66878e+12 -4.5485e+12 -2.66746e+12 -3.12323e+12 -2.70147e+12 -2.61494e+12 -2.40935e+12 -3.54876e+12 -3.52821e+12 -3.51317e+12 -3.61473e+12 -3.67715e+12 -3.99925e+12 -4.06606e+12 -4.13269e+12 -4.19338e+12 -4.24277e+12 -4.28385e+12 -4.31908e+12 -4.34973e+12 -4.38734e+12 -4.43852e+12 -4.50085e+12 -4.74774e+12 -4.58807e+12 -5.25677e+12 -5.0199e+12 -5.24257e+12 -5.31005e+12 -5.41242e+12 -5.35006e+12 -4.98982e+12 -4.96951e+12 -4.70239e+12 -4.73209e+12 -4.44068e+12 -4.48333e+12 -2.6376e+12 -2.28229e+12 -4.36825e+12 -4.31675e+12 -4.45145e+12 -4.57871e+12 -4.50287e+12 -4.78207e+12 -4.7971e+12 -4.86862e+12 -5.25445e+12 -4.84714e+12 -4.31532e+12 -4.01227e+12 -4.49575e+12 -4.2082e+12 -3.92004e+12 -4.1144e+12 -4.20472e+12 -4.04401e+12 -4.08992e+12 -3.96996e+12 -3.91426e+12 -3.80663e+12 -3.59434e+12 -4.05611e+12 -4.24304e+12 -4.19854e+12 -3.83503e+12 -3.68353e+12 -3.56424e+12 -3.50072e+12 -3.16334e+12 -3.38808e+12 -2.6697e+12 -1.67072e+12 -3.35253e+12 -1.65647e+12 -3.73823e+12 -1.72757e+12 -2.93811e+12 -2.55078e+12 -2.96646e+12 -3.32345e+12 -3.38291e+12 -3.75001e+12 -3.81835e+12 -3.88098e+12 -3.94283e+12 -3.999e+12 -4.04272e+12 -4.07279e+12 -4.09583e+12 -4.11054e+12 -4.11691e+12 -4.11892e+12 -4.1126e+12 -4.15155e+12 -4.22304e+12 -4.88689e+12 -4.88724e+12 -4.33276e+12 -5.25497e+12 -5.29858e+12 -5.15702e+12 -5.12402e+12 -5.05071e+12 -4.75502e+12 -4.7028e+12 -4.68901e+12 -4.3896e+12 -4.14021e+12 -4.21037e+12 -2.48222e+12 -2.31504e+12 -2.08828e+12 -4.08568e+12 -4.09719e+12 -4.35428e+12 -4.1828e+12 -4.47661e+12 -4.5202e+12 -4.95004e+12 -4.8733e+12 -4.34591e+12 -4.71385e+12 -4.50381e+12 -3.98712e+12 -3.99266e+12 -3.97613e+12 -2.99148e+12 -4.36444e+12 -4.34186e+12 -4.18137e+12 -3.9996e+12 -3.42948e+12 -3.26586e+12 -3.32667e+12 -3.09071e+12 -3.2392e+12 -2.46886e+12 -3.31103e+12 -2.77523e+12 -3.09994e+12 -3.04139e+12 -3.03109e+12 -2.89751e+12 -3.42905e+12 -3.50814e+12 -3.57376e+12 -3.63966e+12 -3.70234e+12 -3.76065e+12 -3.81349e+12 -3.85564e+12 -3.88362e+12 -3.90024e+12 -3.90818e+12 -3.90144e+12 -3.87427e+12 -3.805e+12 -3.67437e+12 -3.12453e+12 -4.48259e+12 -4.54577e+12 -4.39612e+12 -5.46974e+12 -5.11989e+12 -4.93321e+12 -4.83845e+12 -4.40899e+12 -4.36114e+12 -4.36049e+12 -3.9774e+12 -4.05867e+12 -3.86277e+12 -3.95856e+12 -3.73648e+12 -2.1436e+12 -1.87951e+12 -3.41266e+12 -3.77796e+12 -3.83934e+12 -4.05026e+12 -4.06949e+12 -3.95406e+12 -4.11938e+12 -4.14894e+12 -4.61285e+12 -4.67586e+12 -4.73839e+12 -4.52967e+12 -5.1493e+12 -2.66984e+12 -3.56472e+12 -3.89986e+12 -3.81388e+12 -3.94031e+12 -4.00922e+12 -3.92604e+12 -3.89184e+12 -3.80818e+12 -3.77352e+12 -3.73659e+12 -3.68971e+12 -3.59864e+12 -3.43793e+12 -4.43322e+12 -4.29687e+12 -4.05508e+12 -3.83861e+12 -3.66719e+12 -3.53132e+12 -3.06761e+12 -2.94916e+12 -2.83711e+12 -3.06199e+12 -2.83199e+12 -3.05135e+12 -3.21516e+12 -3.28271e+12 -3.34145e+12 -3.40855e+12 -3.47057e+12 -3.53078e+12 -3.58739e+12 -3.63741e+12 -3.6784e+12 -3.70727e+12 -3.03143e+12 -5.09751e+12 -4.70509e+12 -4.38741e+12 -3.6579e+12 -5.5039e+12 -5.40827e+12 -4.76168e+12 -4.61149e+12 -4.50164e+12 -3.98428e+12 -3.95021e+12 -3.59614e+12 -3.74115e+12 -3.62151e+12 -3.55663e+12 -3.38668e+12 -1.95293e+12 -1.30993e+12 -1.62862e+12 -2.93675e+12 -3.54627e+12 -3.73736e+12 -3.92774e+12 -3.98268e+12 -3.5115e+12 -3.62596e+12 -3.62626e+12 -4.29957e+12 -4.52189e+12 -4.90989e+12 -5.47875e+12 -2.96514e+12 -4.16181e+12 -4.10323e+12 -2.89822e+12 -3.47461e+12 -3.76179e+12 -3.78109e+12 -3.83416e+12 -3.83511e+12 -3.75682e+12 -3.68923e+12 -3.60353e+12 -3.53479e+12 -3.45942e+12 -3.40036e+12 -3.2939e+12 -3.11402e+12 -2.73663e+12 -4.31832e+12 -4.08745e+12 -3.81051e+12 -3.62267e+12 -3.48059e+12 -3.36656e+12 -3.24997e+12 -3.21166e+12 -3.09026e+12 -3.07002e+12 -2.93364e+12 -2.96154e+12 -2.9553e+12 -3.03884e+12 -3.13154e+12 -3.19464e+12 -3.25281e+12 -3.31204e+12 -3.36908e+12 -3.42295e+12 -3.47123e+12 -3.7234e+12 -3.72994e+12 -3.72685e+12 -3.7061e+12 -3.6532e+12 -3.51808e+12 -4.85034e+12 -4.84473e+12 -4.5536e+12 -4.23419e+12 -4.63771e+12 -4.99635e+12 -4.92974e+12 -4.36359e+12 -4.23029e+12 -4.09512e+12 -3.43926e+12 -3.44637e+12 -3.24964e+12 -3.47452e+12 -3.4165e+12 -3.29161e+12 -3.17911e+12 -1.74932e+12 -1.54536e+12 -873342000000.0 -2.36389e+12 -3.11506e+12 -3.36256e+12 -4.04201e+12 -4.49987e+12 -3.45356e+12 -2.63221e+12 -3.81318e+12 -4.06754e+12 -4.36495e+12 -4.6636e+12 -4.34781e+12 -3.33136e+12 -3.56352e+12 -3.35004e+12 -3.05399e+12 -3.62017e+12 -3.74277e+12 -3.72639e+12 -3.70365e+12 -3.65079e+12 -3.56181e+12 -3.47138e+12 -3.37145e+12 -3.27063e+12 -3.15291e+12 -3.12682e+12 -3.05379e+12 -2.96835e+12 -2.61924e+12 -3.97029e+12 -3.71142e+12 -3.53569e+12 -3.40473e+12 -3.29516e+12 -3.19445e+12 -3.12647e+12 -3.0411e+12 -2.98796e+12 -2.9167e+12 -2.88315e+12 -2.8424e+12 -2.87974e+12 -2.85806e+12 -2.90378e+12 -2.8775e+12 -2.90484e+12 -2.93115e+12 -2.98963e+12 -3.05432e+12 -3.11006e+12 -3.16343e+12 -3.21641e+12 -3.51134e+12 -3.54137e+12 -3.55929e+12 -3.56588e+12 -3.56396e+12 -3.55552e+12 -3.53179e+12 -3.46613e+12 -3.11424e+12 -4.29491e+12 -4.46163e+12 -4.4196e+12 -4.26449e+12 -4.39702e+12 -4.4249e+12 -4.5203e+12 -4.47963e+12 -3.9476e+12 -3.78324e+12 -3.59235e+12 -2.65096e+12 -2.96908e+12 -2.99863e+12 -3.248e+12 -3.12654e+12 -3.03224e+12 -3.1196e+12 -2.94464e+12 -1.36843e+12 -1.78651e+12 -1.61844e+12 -1.65982e+12 -2.51616e+12 -2.79239e+12 -3.70165e+12 -4.16861e+12 -2.79156e+12 -3.54817e+12 -3.11626e+12 -3.46747e+12 -3.75365e+12 -3.93076e+12 -3.813e+12 -3.60806e+12 -3.09933e+12 -2.96589e+12 -2.614e+12 -3.70947e+12 -3.72713e+12 -3.69159e+12 -3.61617e+12 -3.53969e+12 -3.45022e+12 -3.3456e+12 -3.23616e+12 -3.11507e+12 -2.97791e+12 -2.78325e+12 -2.91901e+12 -3.02912e+12 -2.93655e+12 -2.70041e+12 -3.40932e+12 -3.38425e+12 -3.30254e+12 -3.21175e+12 -3.12202e+12 -3.04689e+12 -2.97316e+12 -2.91411e+12 -2.85732e+12 -2.81919e+12 -2.79155e+12 -2.76639e+12 -2.78933e+12 -2.78129e+12 -2.80348e+12 -2.81111e+12 -2.84005e+12 -2.87462e+12 -2.92244e+12 -2.97394e+12 -3.26726e+12 -3.31389e+12 -3.3539e+12 -3.38535e+12 -3.40637e+12 -3.41534e+12 -3.41288e+12 -3.4016e+12 -3.39463e+12 -3.38112e+12 -3.31595e+12 -3.64863e+12 -3.93231e+12 -4.03383e+12 -4.05695e+12 -4.13239e+12 -4.13725e+12 -4.10931e+12 -4.11869e+12 -4.06303e+12 -3.50441e+12 -3.25052e+12 -2.90988e+12 -2.05379e+12 -2.44587e+12 -2.94932e+12 -3.00504e+12 -2.79738e+12 -2.86513e+12 -2.90617e+12 -2.67271e+12 -2.68084e+12 -1.20189e+12 -1.4815e+12 -2.64612e+12 -2.64879e+12 -3.1332e+12 -1.83038e+12 -2.41488e+12 -3.16695e+12 -3.54899e+12 -4.54865e+12 -2.72857e+12 -3.73221e+12 -2.01559e+12 -2.7795e+12 -3.1594e+12 -3.37723e+12 -2.86614e+12 -2.67716e+12 -2.58918e+12 -4.59316e+12 -4.04251e+12 -3.7644e+12 -3.60394e+12 -3.47417e+12 -3.35476e+12 -3.16085e+12 -3.11446e+12 -3.03188e+12 -3.0441e+12 -3.23677e+12 -3.12622e+12 -3.04246e+12 -2.96566e+12 -2.89563e+12 -2.83583e+12 -2.78358e+12 -2.74389e+12 -2.71453e+12 -2.69244e+12 -2.68572e+12 -2.69312e+12 -2.69807e+12 -2.71677e+12 -2.73623e+12 -3.02315e+12 -3.07141e+12 -3.11888e+12 -3.16381e+12 -3.20417e+12 -3.23783e+12 -3.26315e+12 -3.27775e+12 -3.27873e+12 -3.26337e+12 -3.23e+12 -3.21819e+12 -3.20165e+12 -3.3603e+12 -3.4882e+12 -3.61603e+12 -3.70626e+12 -3.80408e+12 -3.83123e+12 -3.81528e+12 -3.78124e+12 -3.74606e+12 -3.66113e+12 -3.01059e+12 -2.42785e+12 -1.90002e+12 -3.84468e+12 -3.36708e+12 -2.68297e+12 -2.78278e+12 -2.72488e+12 -2.67338e+12 -2.39251e+12 -2.39556e+12 -2.0778e+12 -1.03275e+12 -921920000000.0 -1.19592e+12 -2.15966e+12 -2.54981e+12 -3.35271e+12 -3.28024e+12 -2.91065e+12 -3.88252e+12 -3.99008e+12 -2.855e+12 -3.58446e+12 -1.90817e+12 -2.59795e+12 -2.95195e+12 -3.3621e+12 -3.25024e+12 -4.80947e+12 -4.35594e+12 -3.87708e+12 -3.61752e+12 -3.43682e+12 -3.28149e+12 -3.23464e+12 -3.11233e+12 -2.98212e+12 -2.83064e+12 -2.63008e+12 -2.1906e+12 -3.13189e+12 -3.07091e+12 -3.02711e+12 -3.20297e+12 -2.76634e+12 -2.80181e+12 -2.84366e+12 -2.88803e+12 -2.93229e+12 -2.9762e+12 -3.01922e+12 -3.05974e+12 -3.09596e+12 -3.12635e+12 -3.14911e+12 -3.16063e+12 -3.15466e+12 -3.12027e+12 -3.03484e+12 -3.02009e+12 -3.07236e+12 -3.51423e+12 -3.49754e+12 -3.45759e+12 -3.39235e+12 -3.26637e+12 -3.27549e+12 -3.96059e+12 -3.12471e+12 -2.82634e+12 -2.20335e+12 -2.81848e+12 -2.54983e+12 -2.4388e+12 -2.07915e+12 -1.72678e+12 -863001000000.0 -670442000000.0 -655557000000.0 -1.66246e+12 -2.16401e+12 -2.13017e+12 -2.7566e+12 -2.80092e+12 -2.83868e+12 -2.67349e+12 -3.17403e+12 -3.25203e+12 -3.13509e+12 -2.94121e+12 -1.87947e+12 -2.60373e+12 -3.07683e+12 -3.12518e+12 -3.13944e+12 -3.32577e+12 -2.91327e+12 -3.13977e+12 -3.00261e+12 -2.86935e+12 -2.72501e+12 -2.55532e+12 -2.31937e+12 -1.98883e+12 -3.19886e+12 -3.06815e+12 -3.02208e+12 -2.95104e+12 -2.87748e+12 -2.80994e+12 -2.75095e+12 -2.70024e+12 -2.6603e+12 -2.62994e+12 -2.60761e+12 -2.59565e+12 -2.59328e+12 -2.60037e+12 -2.61165e+12 -2.63121e+12 -2.65496e+12 -2.68506e+12 -2.71929e+12 -2.75726e+12 -2.79721e+12 -2.83776e+12 -2.87838e+12 -2.91842e+12 -2.95658e+12 -2.99175e+12 -3.02302e+12 -3.04848e+12 -3.06326e+12 -3.05563e+12 -3.16325e+12 -3.24003e+12 -3.33132e+12 -3.43999e+12 -3.50259e+12 -3.19734e+12 -3.15795e+12 -3.10322e+12 -3.03678e+12 -2.95435e+12 -2.93775e+12 -3.17238e+12 -2.45723e+12 -2.28672e+12 -3.14694e+12 -2.78176e+12 -2.25348e+12 -2.13378e+12 -1.7364e+12 -1.33565e+12 -471339000000.0 -399579000000.0 -1.19078e+12 -1.18324e+12 -1.66988e+12 -1.63742e+12 -2.17348e+12 -2.64481e+12 -2.4398e+12 -2.72092e+12 -2.6854e+12 -2.51548e+12 -2.47448e+12 -3.25986e+12 -2.83254e+12 -2.94886e+12 -3.05046e+12 -3.1834e+12 -3.13738e+12 -3.59563e+12 -4.05319e+12 -3.83077e+12 -3.58747e+12 -3.37976e+12 -3.20152e+12 -3.04461e+12 -2.89742e+12 -2.76555e+12 -2.62823e+12 -2.48396e+12 -2.31794e+12 -2.14352e+12 -1.86535e+12 -3.13941e+12 -3.07846e+12 -2.97832e+12 -2.91592e+12 -2.8933e+12 -2.84047e+12 -2.77639e+12 -2.71349e+12 -2.65737e+12 -2.6086e+12 -2.56922e+12 -2.53881e+12 -2.51614e+12 -2.50184e+12 -2.49585e+12 -2.49801e+12 -2.50752e+12 -2.52231e+12 -2.5431e+12 -2.5682e+12 -2.59759e+12 -2.63012e+12 -2.66529e+12 -2.70216e+12 -2.74001e+12 -2.77851e+12 -2.81724e+12 -2.9987e+12 -2.78138e+12 -2.79625e+12 -2.81798e+12 -2.8792e+12 -2.9549e+12 -3.07806e+12 -3.16512e+12 -3.20577e+12 -3.21394e+12 -2.91045e+12 -2.86402e+12 -2.80102e+12 -2.72921e+12 -2.64853e+12 -1.94861e+12 -2.51452e+12 -1.90906e+12 -1.51766e+12 -2.78754e+12 -2.46157e+12 -1.86963e+12 -1.77514e+12 -1.36881e+12 -1.34859e+12 -901842000000.0 -281695000000.0 -153092000000.0 -347295000000.0 -753349000000.0 -725485000000.0 -1.14288e+12 -1.55112e+12 -1.51047e+12 -2.13915e+12 -2.07059e+12 -2.3472e+12 -2.25131e+12 -1.99857e+12 -2.26553e+12 -2.7794e+12 -2.52295e+12 -2.69166e+12 -2.79517e+12 -2.8862e+12 -3.00974e+12 -3.08655e+12 -3.41136e+12 -3.5504e+12 -3.61442e+12 -3.46712e+12 -3.27699e+12 -3.09771e+12 -2.93279e+12 -2.78351e+12 -2.6526e+12 -2.53036e+12 -3.01164e+12 -2.94088e+12 -2.8281e+12 -2.7551e+12 -2.70965e+12 -2.65719e+12 -2.60264e+12 -2.55233e+12 -2.50743e+12 -2.47006e+12 -2.44082e+12 -2.41867e+12 -2.40356e+12 -2.39565e+12 -2.39495e+12 -2.40101e+12 -2.41296e+12 -2.4298e+12 -2.45134e+12 -2.47652e+12 -2.50483e+12 -2.53565e+12 -2.85565e+12 -2.89376e+12 -2.93171e+12 -2.96853e+12 -2.99958e+12 -3.00887e+12 -2.94085e+12 -2.32609e+12 -2.50932e+12 -2.43311e+12 -2.51327e+12 -2.70684e+12 -2.82911e+12 -2.8989e+12 -2.9312e+12 -2.93422e+12 -2.57585e+12 -2.47995e+12 -2.35918e+12 -1.79461e+12 -2.08832e+12 -2.05291e+12 -1.28742e+12 -3.06078e+12 -2.30375e+12 -2.03618e+12 -1.53269e+12 -1.40953e+12 -943402000000.0 -914559000000.0 -382467000000.0 -509416000000.0 -91475700000.0 -297013000000.0 -676966000000.0 -1.03556e+12 -781927000000.0 -1.52803e+12 -2.0054e+12 -1.94595e+12 -1.54706e+12 -1.99039e+12 -3.08447e+12 -2.85556e+12 -2.62649e+12 -2.66066e+12 -2.72518e+12 -2.80712e+12 -2.91652e+12 -3.25451e+12 -3.32281e+12 -3.35068e+12 -3.31748e+12 -3.1468e+12 -2.9786e+12 -2.80403e+12 -2.40477e+12 -2.2764e+12 -2.14617e+12 -2.00969e+12 -1.75165e+12 -2.83047e+12 -2.74692e+12 -2.63659e+12 -2.56835e+12 -2.51948e+12 -2.47429e+12 -2.4325e+12 -2.39448e+12 -2.36163e+12 -2.33532e+12 -2.31494e+12 -2.30037e+12 -2.29186e+12 -2.28954e+12 -2.29321e+12 -2.30227e+12 -2.56861e+12 -2.60323e+12 -2.6393e+12 -2.67691e+12 -2.71616e+12 -2.75776e+12 -2.80338e+12 -2.85567e+12 -2.91884e+12 -2.99978e+12 -3.11332e+12 -3.29829e+12 -2.18432e+12 -2.11573e+12 -1.71849e+12 -2.25961e+12 -2.48331e+12 -2.60031e+12 -2.6591e+12 -2.68125e+12 -2.6732e+12 -2.63887e+12 -2.21903e+12 -2.18846e+12 -885689000000.0 -1.46017e+12 -1.57977e+12 -1.61644e+12 -1.18191e+12 -2.85744e+12 -2.60353e+12 -2.03954e+12 -1.74244e+12 -946897000000.0 -925082000000.0 -528048000000.0 -167663000000.0 -227354000000.0 -162053000000.0 -595759000000.0 -409790000000.0 -802461000000.0 -1.00562e+12 -1.57347e+12 -1.59611e+12 -1.85361e+12 -1.81693e+12 -1.75385e+12 -3.23066e+12 -2.89861e+12 -2.6628e+12 -2.5347e+12 -2.55721e+12 -2.62348e+12 -2.71524e+12 -3.04272e+12 -3.13306e+12 -3.16664e+12 -3.15733e+12 -3.07632e+12 -2.82033e+12 -2.65703e+12 -2.65686e+12 -2.52682e+12 -2.41268e+12 -2.31021e+12 -2.20954e+12 -2.11113e+12 -2.00895e+12 -1.89004e+12 -1.59902e+12 -2.58378e+12 -2.50566e+12 -2.42499e+12 -2.31608e+12 -2.33408e+12 -2.35577e+12 -2.38035e+12 -2.40739e+12 -2.43657e+12 -2.46769e+12 -2.50065e+12 -2.53572e+12 -2.57337e+12 -2.61455e+12 -2.66141e+12 -2.71754e+12 -2.78885e+12 -2.88655e+12 -3.0334e+12 -3.28901e+12 -3.63919e+12 -2.02702e+12 -1.76582e+12 -1.95449e+12 -2.20634e+12 -2.3428e+12 -2.41667e+12 -2.45117e+12 -2.45428e+12 -2.43353e+12 -2.38853e+12 -2.31621e+12 -1.4771e+12 -2.15413e+12 -1.60877e+12 -2.55203e+12 -2.32638e+12 -1.3968e+12 -1.1209e+12 -360018000000.0 -507112000000.0 -127307000000.0 -150711000000.0 -256485000000.0 -1.19281e+12 -1.56424e+12 -1.49802e+12 -1.34766e+12 -2.81871e+12 -2.71283e+12 -2.51897e+12 -2.41593e+12 -2.38125e+12 -2.42266e+12 -2.82121e+12 -2.91921e+12 -2.99386e+12 -3.03133e+12 -3.0342e+12 -2.90173e+12 -2.43357e+12 -2.5055e+12 -2.39554e+12 -2.28035e+12 -2.19289e+12 -2.12035e+12 -2.05032e+12 -1.97998e+12 -1.90013e+12 -1.78416e+12 -1.35538e+12 -2.36682e+12 -2.3275e+12 -2.29578e+12 -2.26762e+12 -2.24236e+12 -2.22129e+12 -2.20441e+12 -2.19186e+12 -2.18406e+12 -2.18126e+12 -2.18351e+12 -2.19049e+12 -2.2017e+12 -2.21676e+12 -2.23522e+12 -2.25651e+12 -2.2801e+12 -2.30574e+12 -2.3333e+12 -2.36278e+12 -2.39445e+12 -2.42888e+12 -2.46694e+12 -2.5104e+12 -2.56254e+12 -2.62827e+12 -2.71601e+12 -2.8419e+12 -3.03931e+12 -3.35249e+12 -3.62158e+12 -2.16025e+12 -2.22363e+12 -2.25423e+12 -2.26063e+12 -2.24581e+12 -2.21175e+12 -2.14888e+12 -2.03716e+12 -1.80549e+12 -2.96232e+12 -2.92644e+12 -1.54051e+12 -1.06785e+12 -1.96787e+12 -1.7178e+12 -710087000000.0 -332040000000.0 -123216000000.0 -120904000000.0 -116801000000.0 -633926000000.0 -959712000000.0 -1.27745e+12 -1.26181e+12 -1.01865e+12 -2.09619e+12 -2.17143e+12 -2.50415e+12 -2.60628e+12 -2.71421e+12 -2.82173e+12 -3.10984e+12 -2.97549e+12 -2.2947e+12 -2.23679e+12 -2.1372e+12 -2.06041e+12 -2.01119e+12 -1.96751e+12 -1.9289e+12 -1.89011e+12 -1.84504e+12 -1.78242e+12 -2.28289e+12 -2.26069e+12 -2.1981e+12 -2.16182e+12 -2.1412e+12 -2.12536e+12 -2.11077e+12 -2.09761e+12 -2.08637e+12 -2.07752e+12 -2.07182e+12 -2.06977e+12 -2.07165e+12 -2.07739e+12 -2.08669e+12 -2.09932e+12 -2.115e+12 -2.1333e+12 -2.15376e+12 -2.17609e+12 -2.2002e+12 -2.22609e+12 -2.25395e+12 -2.28433e+12 -2.31794e+12 -2.35588e+12 -2.40037e+12 -2.45492e+12 -2.52425e+12 -1.89514e+12 -1.96563e+12 -2.05263e+12 -2.09744e+12 -2.08183e+12 -2.05441e+12 -2.02055e+12 -1.9925e+12 -2.00228e+12 -2.25772e+12 -2.16627e+12 -2.0637e+12 -986112000000.0 -2.07219e+12 -1.41724e+12 -949450000000.0 -98046900000.0 -382453000000.0 -1.14019e+12 -969485000000.0 -1.4721e+12 -2.19253e+12 -2.18247e+12 -2.18852e+12 -2.21421e+12 -2.27573e+12 -2.36934e+12 -2.92456e+12 -3.02411e+12 -1.00727e+12 -2.05227e+12 -1.99818e+12 -1.97182e+12 -1.96697e+12 -1.96693e+12 -1.96606e+12 -1.96355e+12 -1.9602e+12 -1.95694e+12 -1.95489e+12 -1.95485e+12 -1.95739e+12 -1.96275e+12 -1.97091e+12 -1.98173e+12 -1.99512e+12 -2.01081e+12 -2.02843e+12 -2.04772e+12 -2.06856e+12 -2.61627e+12 -2.7448e+12 -2.92181e+12 -3.12465e+12 -3.07386e+12 -1.97586e+12 -1.94957e+12 -2.01555e+12 -2.07273e+12 -2.09568e+12 -1.85322e+12 -1.80063e+12 -1.75416e+12 -1.76587e+12 -1.97472e+12 -1.70094e+12 -1.45037e+12 -1.43825e+12 -1.5748e+12 -353339000000.0 -171784000000.0 -1.06858e+12 -1.04731e+12 -947289000000.0 -1.33196e+12 -1.67658e+12 -1.84179e+12 -1.9343e+12 -1.98745e+12 -2.03936e+12 -2.48637e+12 -2.61182e+12 -2.7511e+12 -2.91351e+12 -3.10589e+12 -3.24242e+12 -1.77235e+12 -1.85147e+12 -1.84172e+12 -1.84818e+12 -1.86782e+12 -1.86371e+12 -1.85677e+12 -1.85226e+12 -1.85804e+12 -1.89592e+12 -2.02126e+12 -876499000000.0 -1.7026e+12 -1.73139e+12 -1.76585e+12 -1.79085e+12 -1.80813e+12 -1.81918e+12 -1.82592e+12 -2.09095e+12 -2.11499e+12 -2.14106e+12 -2.16977e+12 -2.20181e+12 -2.23832e+12 -2.28145e+12 -2.33402e+12 -2.39915e+12 -2.48123e+12 -2.5808e+12 -2.67739e+12 -2.67918e+12 -2.42875e+12 -1.92865e+12 -1.88652e+12 -1.9444e+12 -1.96725e+12 -1.96178e+12 -1.93758e+12 -1.89975e+12 -1.26849e+12 -1.04379e+12 -1.30624e+12 -1.00766e+12 -1.12006e+12 -1.16379e+12 -100037000000.0 -623308000000.0 -519406000000.0 -809464000000.0 -1.09459e+12 -1.42082e+12 -1.64068e+12 -1.73028e+12 -1.79287e+12 -2.11638e+12 -2.22657e+12 -2.35866e+12 -2.51394e+12 -2.69917e+12 -2.92144e+12 -3.09982e+12 -1.57617e+12 -1.59953e+12 -1.55377e+12 -1.62134e+12 -1.71227e+12 -1.74694e+12 -1.76583e+12 -1.78257e+12 -1.80706e+12 -1.85604e+12 -1.95693e+12 -2.0428e+12 -933971000000.0 -1.41458e+12 -1.83e+12 -1.83307e+12 -1.83635e+12 -1.84065e+12 -1.84653e+12 -1.85426e+12 -1.86393e+12 -1.87555e+12 -1.88904e+12 -1.90418e+12 -1.92071e+12 -1.93853e+12 -1.95762e+12 -1.97803e+12 -1.99997e+12 -2.02385e+12 -2.05019e+12 -2.07956e+12 -2.11291e+12 -2.1518e+12 -2.19768e+12 -2.25114e+12 -2.30948e+12 -2.35839e+12 -2.35689e+12 -2.26157e+12 -2.13163e+12 -1.77461e+12 -1.82314e+12 -1.85828e+12 -1.85311e+12 -1.8212e+12 -1.77146e+12 -1.7095e+12 -1.63326e+12 -1.53784e+12 -1.42954e+12 -1.67445e+12 -727726000000.0 -1.0429e+12 -644868000000.0 -538130000000.0 -128716000000.0 -439247000000.0 -762304000000.0 -766945000000.0 -1.11141e+12 -1.39601e+12 -1.48106e+12 -1.53736e+12 -1.85341e+12 -1.94615e+12 -2.07016e+12 -2.22894e+12 -2.42501e+12 -2.6507e+12 -2.83298e+12 -1.50864e+12 -1.58209e+12 -1.5022e+12 -1.48539e+12 -1.5789e+12 -1.63271e+12 -1.66628e+12 -1.69449e+12 -1.7263e+12 -1.77351e+12 -1.85008e+12 -1.94725e+12 -2.01708e+12 -1.53238e+12 -1.59762e+12 -1.63855e+12 -1.66582e+12 -1.6844e+12 -1.69728e+12 -1.70671e+12 -1.71438e+12 -1.72145e+12 -1.72875e+12 -1.73679e+12 -1.74593e+12 -1.75633e+12 -1.76803e+12 -1.78102e+12 -1.79513e+12 -1.81023e+12 -1.82629e+12 -1.84333e+12 -1.86146e+12 -1.88091e+12 -1.90202e+12 -1.92515e+12 -1.95062e+12 -1.97895e+12 -2.01074e+12 -2.04557e+12 -2.0802e+12 -2.10522e+12 -2.0996e+12 -2.04232e+12 -1.9136e+12 -1.79466e+12 -1.70689e+12 -1.76185e+12 -1.7623e+12 -1.72832e+12 -1.67177e+12 -1.60017e+12 -1.51245e+12 -1.39818e+12 -1.25119e+12 -1.03436e+12 -482816000000.0 -1.37795e+12 -972650000000.0 -829249000000.0 -868477000000.0 -100951000000.0 -306037000000.0 -360945000000.0 -329185000000.0 -729425000000.0 -753292000000.0 -1.21422e+12 -1.58975e+12 -1.64444e+12 -1.74834e+12 -1.89451e+12 -2.09976e+12 -2.33093e+12 -2.522e+12 -1.40761e+12 -1.48237e+12 -1.47414e+12 -1.46588e+12 -1.4867e+12 -1.52856e+12 -1.56462e+12 -1.59622e+12 -1.62977e+12 -1.67307e+12 -1.73468e+12 -1.81451e+12 -1.01749e+12 -1.29797e+12 -1.39928e+12 -1.46321e+12 -1.50682e+12 -1.53768e+12 -1.56003e+12 -1.57664e+12 -1.58957e+12 -1.60023e+12 -1.60967e+12 -1.61869e+12 -1.62784e+12 -1.63751e+12 -1.64787e+12 -1.65902e+12 -1.67098e+12 -1.68368e+12 -1.69702e+12 -1.71099e+12 -1.72568e+12 -1.7412e+12 -1.7577e+12 -1.7754e+12 -1.79443e+12 -1.81473e+12 -1.83619e+12 -1.8582e+12 -1.87811e+12 -1.75356e+12 -1.60553e+12 -1.38153e+12 -1.594e+12 -1.51847e+12 -1.42704e+12 -1.31187e+12 -1.16373e+12 -967238000000.0 -614937000000.0 -30175400000.0 -392736000000.0 -461326000000.0 -243453000000.0 -367087000000.0 -728518000000.0 -795463000000.0 -1.26079e+12 -1.29727e+12 -1.32375e+12 -1.37388e+12 -1.38164e+12 -1.91388e+12 -1.98911e+12 -1.00954e+12 -1.20575e+12 -1.2882e+12 -1.34623e+12 -1.38866e+12 -1.42029e+12 -1.44426e+12 -1.46281e+12 -1.47759e+12 -1.48976e+12 -1.5003e+12 -1.50998e+12 -1.5193e+12 -1.52872e+12 -1.53836e+12 -1.88962e+12 -1.88148e+12 -1.84171e+12 -1.66785e+12 -1.68372e+12 -1.65182e+12 -1.25273e+12 -1.11516e+12 -937527000000.0 -681619000000.0 -1.31957e+12 -830360000000.0 -697836000000.0 -118799000000.0 -66320000000.0 -102563000000.0 -269096000000.0 -1.10377e+12 -1.06994e+12 -1.06893e+12 -1.50048e+12 -1.70207e+12 -1.96602e+12 -2.19523e+12 -1.28577e+12 -1.40171e+12 -1.42478e+12 -1.42692e+12 -1.4296e+12 -1.44141e+12 -1.46613e+12 -1.49401e+12 -1.5252e+12 -1.56357e+12 -1.61405e+12 -1.6782e+12 -1.75613e+12 -1.84949e+12 -1.89074e+12 -967076000000.0 -1.12046e+12 -1.54837e+12 -1.55888e+12 -1.56981e+12 -1.58106e+12 -1.59263e+12 -1.60465e+12 -1.61717e+12 -1.63023e+12 -1.6439e+12 -1.65796e+12 -1.67184e+12 -1.68471e+12 -1.69465e+12 -1.69744e+12 -1.6867e+12 -1.65595e+12 -1.59618e+12 -1.49501e+12 -1.33428e+12 -1.08362e+12 -1.60036e+12 -1.58594e+12 -1.53009e+12 -1.45461e+12 -1.36314e+12 -1.21051e+12 -765794000000.0 -227547000000.0 -34231200000.0 -139622000000.0 -195012000000.0 -405251000000.0 -719855000000.0 -735604000000.0 -991220000000.0 -1.09546e+12 -1.15404e+12 -961270000000.0 -1.23568e+12 -1.48823e+12 -1.83982e+12 -1.169e+12 -1.34532e+12 -1.37272e+12 -1.37418e+12 -1.36969e+12 -1.36844e+12 -1.37552e+12 -1.39301e+12 -1.41799e+12 -1.45032e+12 -1.4918e+12 -1.54347e+12 -1.60498e+12 -1.67552e+12 -1.74931e+12 -1.76766e+12 -1.18877e+12 -1.24068e+12 -1.28058e+12 -1.31151e+12 -1.33564e+12 -1.35464e+12 -1.36979e+12 -1.38214e+12 -1.39267e+12 -1.40202e+12 -1.41072e+12 -1.41919e+12 -1.42754e+12 -1.43596e+12 -1.44464e+12 -1.45346e+12 -1.46229e+12 -1.47117e+12 -1.4802e+12 -1.48932e+12 -1.4985e+12 -1.50753e+12 -1.51574e+12 -1.52211e+12 -1.52506e+12 -1.52167e+12 -1.50789e+12 -1.48014e+12 -1.43507e+12 -1.36609e+12 -1.26398e+12 -1.11969e+12 -904065000000.0 -1.50983e+12 -1.47563e+12 -1.40162e+12 -1.31105e+12 -1.20647e+12 -1.0824e+12 -929631000000.0 -692924000000.0 -1.04661e+12 -696667000000.0 -291158000000.0 -662631000000.0 -9028620000.0 -68237500000.0 -390304000000.0 -378489000000.0 -628458000000.0 -647357000000.0 -750349000000.0 -859669000000.0 -894615000000.0 -1.14594e+12 -715683000000.0 -990820000000.0 -1.19683e+12 -1.08078e+12 -1.34554e+12 -1.33639e+12 -1.32037e+12 -1.30309e+12 -1.29214e+12 -1.28883e+12 -1.29475e+12 -1.311e+12 -1.33618e+12 -1.36965e+12 -1.41133e+12 -1.46047e+12 -1.51578e+12 -1.57388e+12 -1.63033e+12 -1.63244e+12 -911446000000.0 -1.03885e+12 -1.0972e+12 -1.1437e+12 -1.18061e+12 -1.2098e+12 -1.23281e+12 -1.25091e+12 -1.26519e+12 -1.2766e+12 -1.28609e+12 -1.29423e+12 -1.30162e+12 -1.30858e+12 -1.31517e+12 -1.32164e+12 -1.32814e+12 -1.33452e+12 -1.34064e+12 -1.34654e+12 -1.35224e+12 -1.35763e+12 -1.36252e+12 -1.36635e+12 -1.36804e+12 -1.36613e+12 -1.35842e+12 -1.34193e+12 -1.31375e+12 -1.27271e+12 -1.22037e+12 -1.15073e+12 -1.05919e+12 -936626000000.0 -752312000000.0 -1.40457e+12 -1.3549e+12 -1.26652e+12 -1.16633e+12 -1.05595e+12 -929320000000.0 -758670000000.0 -478106000000.0 -167609000000.0 -122628000000.0 -355004000000.0 -483134000000.0 -489607000000.0 -788768000000.0 -552921000000.0 -795882000000.0 -780612000000.0 -1.04122e+12 -490937000000.0 -838933000000.0 -907974000000.0 -1.66648e+12 -1.36935e+12 -1.27873e+12 -1.23156e+12 -1.20758e+12 -1.19662e+12 -1.19532e+12 -1.20383e+12 -851947000000.0 -960896000000.0 -1.01208e+12 -1.05381e+12 -1.08739e+12 -1.11396e+12 -1.13462e+12 -1.15053e+12 -1.16273e+12 -1.1722e+12 -1.17979e+12 -1.18602e+12 -1.19157e+12 -1.19658e+12 -1.20104e+12 -1.20522e+12 -1.20923e+12 -1.21288e+12 -1.21601e+12 -1.21866e+12 -1.22077e+12 -954342000000.0 -880036000000.0 -778732000000.0 -621563000000.0 -1.22567e+12 -1.12832e+12 -1.02473e+12 -914586000000.0 -762898000000.0 -912780000000.0 -611677000000.0 -371731000000.0 -364892000000.0 -157180000000.0 -67199900000.0 -459918000000.0 -594581000000.0 -499937000000.0 -1.22192e+12 -1.24821e+12 -1.28175e+12 -1.32144e+12 -1.36588e+12 -1.41284e+12 -1.45909e+12 -1.50055e+12 -1.49122e+12 -792982000000.0 -887304000000.0 -932945000000.0 -970227000000.0 -999973000000.0 -1.22216e+12 -1.2224e+12 -1.2206e+12 -1.21539e+12 -1.20493e+12 -1.1867e+12 -1.1579e+12 -1.11557e+12 -1.06158e+12 -1.00939e+12 -508715000000.0 -1.28744e+12 -745836000000.0 -636835000000.0 -415154000000.0 -54935500000.0 -238238000000.0 -323766000000.0 -358589000000.0 -314088000000.0 -752501000000.0 -693011000000.0 -857398000000.0 -668147000000.0 -466507000000.0 -1.19236e+12 -1.17818e+12 -1.13236e+12 -1.10583e+12 -1.09251e+12 -1.08864e+12 -1.0933e+12 -1.10633e+12 -1.12704e+12 -1.15417e+12 -1.1866e+12 -1.22301e+12 -1.26169e+12 -1.30038e+12 -1.33616e+12 -1.36515e+12 -1.3481e+12 -1.02289e+12 -1.03987e+12 -1.05236e+12 -1.06134e+12 -1.06799e+12 -1.073e+12 -1.07686e+12 -1.08018e+12 -1.08289e+12 -1.08491e+12 -1.0865e+12 -1.08775e+12 -1.08839e+12 -1.08829e+12 -1.08745e+12 -1.08576e+12 -1.08293e+12 -1.07833e+12 -1.07082e+12 -1.05881e+12 -1.04013e+12 -1.01194e+12 -970486000000.0 -908567000000.0 -830142000000.0 -815928000000.0 -784235000000.0 -725504000000.0 -642485000000.0 -1.16074e+12 -1.09402e+12 -991968000000.0 -889684000000.0 -758844000000.0 -622842000000.0 -589476000000.0 -581454000000.0 -223171000000.0 -171655000000.0 -82655100000.0 -108807000000.0 -326070000000.0 -210679000000.0 -300377000000.0 -312826000000.0 -496122000000.0 -447132000000.0 -674213000000.0 -529447000000.0 -746155000000.0 -662335000000.0 -228126000000.0 -1.10502e+12 -1.0297e+12 -990756000000.0 -975011000000.0 -971641000000.0 -976028000000.0 -987294000000.0 -1.00444e+12 -1.02715e+12 -1.05439e+12 -1.08495e+12 -1.11756e+12 -1.15043e+12 -1.18172e+12 -1.20877e+12 -1.228e+12 -1.207e+12 -736474000000.0 -818852000000.0 -859715000000.0 -892440000000.0 -917477000000.0 -935456000000.0 -947248000000.0 -954971000000.0 -959848000000.0 -963108000000.0 -965062000000.0 -966283000000.0 -967129000000.0 -967225000000.0 -966503000000.0 -965271000000.0 -963516000000.0 -960935000000.0 -957396000000.0 -952862000000.0 -947219000000.0 -940101000000.0 -930720000000.0 -917880000000.0 -899840000000.0 -874134000000.0 -837346000000.0 -783926000000.0 -689833000000.0 -640425000000.0 -664068000000.0 -641372000000.0 -593685000000.0 -525604000000.0 -414293000000.0 -1.02892e+12 -967953000000.0 -854205000000.0 -726192000000.0 -338851000000.0 -156020000000.0 -143994000000.0 -42017900000.0 -239148000000.0 -284435000000.0 -375498000000.0 -433525000000.0 -557085000000.0 -513241000000.0 -573477000000.0 -449695000000.0 -288215000000.0 -875193000000.0 -850045000000.0 -839057000000.0 -840897000000.0 -849591000000.0 -862453000000.0 -879187000000.0 -899619000000.0 -923101000000.0 -949810000000.0 -977976000000.0 -1.00643e+12 -1.03399e+12 -1.05919e+12 -1.07966e+12 -1.09242e+12 -1.07088e+12 -684138000000.0 -756372000000.0 -792606000000.0 -820135000000.0 -838984000000.0 -850284000000.0 -855393000000.0 -857065000000.0 -857223000000.0 -856667000000.0 -855429000000.0 -853943000000.0 -852051000000.0 -849248000000.0 -845567000000.0 -841332000000.0 -836378000000.0 -830361000000.0 -823185000000.0 -814799000000.0 -805131000000.0 -793819000000.0 -780140000000.0 -763020000000.0 -740739000000.0 -710830000000.0 -670260000000.0 -613057000000.0 -540356000000.0 -545337000000.0 -545841000000.0 -521644000000.0 -481161000000.0 -427351000000.0 -341926000000.0 -899969000000.0 -859295000000.0 -666779000000.0 -514064000000.0 -490950000000.0 -435158000000.0 -36211200000.0 -75389600000.0 -228541000000.0 -121264000000.0 -294544000000.0 -313075000000.0 -365694000000.0 -398346000000.0 -371498000000.0 -481534000000.0 -570249000000.0 -100335000000.0 -279833000000.0 -238674000000.0 -700706000000.0 -732122000000.0 -752731000000.0 -763130000000.0 -765230000000.0 -763056000000.0 -757736000000.0 -413652000000.0 -383359000000.0 -349421000000.0 -296655000000.0 -379759000000.0 -393423000000.0 -330988000000.0 -270026000000.0 -226459000000.0 -128500000000.0 -41079300000.0 -249997000000.0 -231369000000.0 -189148000000.0 -263757000000.0 -184277000000.0 -137039000000.0 -667410000000.0 -679594000000.0 -695162000000.0 -710868000000.0 -731135000000.0 -749991000000.0 -771433000000.0 -792678000000.0 -817081000000.0 -841325000000.0 -866308000000.0 -890699000000.0 -913775000000.0 -934643000000.0 -951197000000.0 -961107000000.0 -942990000000.0 -637143000000.0 -752508000000.0 -747946000000.0 -743667000000.0 -739475000000.0 -734609000000.0 -728613000000.0 -721888000000.0 -714512000000.0 -706116000000.0 -696497000000.0 -685558000000.0 -673106000000.0 -659376000000.0 -644171000000.0 -627149000000.0 -607663000000.0 -583456000000.0 -552409000000.0 -512065000000.0 -459330000000.0 -436901000000.0 -448123000000.0 -436209000000.0 -783346000000.0 -820608000000.0 -327751000000.0 -368330000000.0 -375422000000.0 -323012000000.0 -250266000000.0 -102512000000.0 -35331600000.0 -161663000000.0 -212409000000.0 -249080000000.0 -257602000000.0 -285282000000.0 -518345000000.0 -152626000000.0 -160394000000.0 -486293000000.0 -533400000000.0 -561393000000.0 -586874000000.0 -618173000000.0 -641611000000.0 -663673000000.0 -688168000000.0 -708970000000.0 -729238000000.0 -750430000000.0 -770880000000.0 -790733000000.0 -809577000000.0 -825423000000.0 -837062000000.0 -826858000000.0 -596794000000.0 -653823000000.0 -678279000000.0 -688470000000.0 -686648000000.0 -678722000000.0 -668614000000.0 -656938000000.0 -644890000000.0 -636264000000.0 -629460000000.0 -622701000000.0 -614296000000.0 -605097000000.0 -595295000000.0 -584523000000.0 -572515000000.0 -559222000000.0 -544379000000.0 -527417000000.0 -509460000000.0 -490874000000.0 -472861000000.0 -453394000000.0 -429881000000.0 -400074000000.0 -362282000000.0 -347922000000.0 -334857000000.0 -342576000000.0 -328839000000.0 -314048000000.0 -300214000000.0 -293333000000.0 -300538000000.0 -513650000000.0 -542894000000.0 -130521000000.0 -36883900000.0 -17960300000.0 -78878400000.0 -109735000000.0 -146574000000.0 -176532000000.0 -234232000000.0 -279024000000.0 -312501000000.0 -340538000000.0 -466267000000.0 -22775100000.0 -46334600000.0 -80411100000.0 -69467400000.0 -71047300000.0 -361879000000.0 -400959000000.0 -432915000000.0 -466089000000.0 -516189000000.0 -526929000000.0 -561863000000.0 -582825000000.0 -597042000000.0 -613148000000.0 -630175000000.0 -647130000000.0 -665526000000.0 -684878000000.0 -704056000000.0 -723420000000.0 -726101000000.0 -568013000000.0 -617817000000.0 -629474000000.0 -621550000000.0 -607139000000.0 -589709000000.0 -570438000000.0 -553145000000.0 -535022000000.0 -521454000000.0 -513562000000.0 -502662000000.0 -490750000000.0 -478591000000.0 -465490000000.0 -451089000000.0 -435374000000.0 -418513000000.0 -399677000000.0 -376540000000.0 -353302000000.0 -335062000000.0 -318451000000.0 -302404000000.0 -282256000000.0 -257855000000.0 -245648000000.0 -241063000000.0 -236595000000.0 -228763000000.0 -224021000000.0 -221634000000.0 -221636000000.0 -228102000000.0 -170684000000.0 -369210000000.0 -428608000000.0 -379700000000.0 -314478000000.0 -273378000000.0 -236200000000.0 -9035750000.0 -9035750000.0 -105411000000.0 -97033800000.0 -110481000000.0 -176897000000.0 -35855400000.0 -17898000000.0 -31003100000.0 -31219300000.0 -29483200000.0 -594063000000.0 -572019000000.0 -549254000000.0 -522541000000.0 -494814000000.0 -470055000000.0 -444088000000.0 -426265000000.0 -162976000000.0 -116439000000.0 -127770000000.0 -132646000000.0 -141331000000.0 -79973000000.0 -9035750000.0 -228186000000.0 -185999000000.0 -185178000000.0 -183985000000.0 -177830000000.0 -86123100000.0 -30367800000.0 -138644000000.0 -171451000000.0 -152122000000.0 -233596000000.0 -261007000000.0 -272650000000.0 -266056000000.0 -278334000000.0 -333675000000.0 -424612000000.0 -460158000000.0 -472548000000.0 -480655000000.0 -492292000000.0 -504571000000.0 -518801000000.0 -537812000000.0 -560992000000.0 -589253000000.0 -624318000000.0 -646460000000.0 -559792000000.0 -401276000000.0 -394118000000.0 -378308000000.0 -363878000000.0 -348369000000.0 -331447000000.0 -312974000000.0 -293532000000.0 -273969000000.0 -250462000000.0 -211276000000.0 -191698000000.0 -175241000000.0 -164443000000.0 -159367000000.0 -146365000000.0 -137308000000.0 -134453000000.0 -153838000000.0 -195372000000.0 -21061000000.0 -46046500000.0 -120704000000.0 -127752000000.0 -140876000000.0 -157678000000.0 -174315000000.0 -145465000000.0 -177660000000.0 -36829700000.0 -80849400000.0 -63630400000.0 -64044800000.0 -60314100000.0 -46813700000.0 -38895100000.0 -209999000000.0 -207467000000.0 -197701000000.0 -243609000000.0 -306212000000.0 -344176000000.0 -343486000000.0 -343225000000.0 -347114000000.0 -353911000000.0 -361771000000.0 -374921000000.0 -396809000000.0 -428512000000.0 -476233000000.0 -540965000000.0 -591916000000.0 -591973000000.0 -536528000000.0 -503453000000.0 -465075000000.0 -425815000000.0 -393272000000.0 -361517000000.0 -333547000000.0 -310273000000.0 -241655000000.0 -209540000000.0 -191189000000.0 -174267000000.0 -157367000000.0 -140014000000.0 -122231000000.0 -103966000000.0 -82987700000.0 -60062800000.0 -63850900000.0 -65266800000.0 -65844900000.0 -65255700000.0 -58501700000.0 -54022000000.0 -53674600000.0 -53090600000.0 -72138900000.0 -86705400000.0 -52694400000.0 -54512500000.0 -72659800000.0 -51869300000.0 -42028400000.0 -153304000000.0 -126413000000.0 -70987700000.0 -72614400000.0 -72093800000.0 -69890900000.0 -9073620000.0 -9035750000.0 -9035750000.0 -9035750000.0 -43653200000.0 -45473200000.0 -49301500000.0 -42356200000.0 -24236400000.0 -19138700000.0 -11990200000.0 -15731500000.0 -12197600000.0 -18355000000.0 -137964000000.0 -200805000000.0 -213943000000.0 -244682000000.0 -183415000000.0 -186095000000.0 -179386000000.0 -166667000000.0 -146469000000.0 -125361000000.0 -102269000000.0 -85913500000.0 -58677800000.0 -29764700000.0 -27725900000.0 -29705400000.0 -32545800000.0 -36688800000.0 -41717000000.0 -47934500000.0 -83094000000.0 -86123400000.0 -87790200000.0 -92688100000.0 -91533600000.0 -94244700000.0 -110331000000.0 -88771900000.0 -56981000000.0 -126389000000.0 -96387800000.0 -91933800000.0 -85360300000.0 -76747700000.0 -25200900000.0 -14414900000.0 -59841400000.0 -78759400000.0 -65068100000.0 -112536000000.0 -136000000000.0 -130068000000.0 -125625000000.0 -143187000000.0 -152121000000.0 -137789000000.0 -143386000000.0 -156437000000.0 -169201000000.0 -180690000000.0 -190245000000.0 -195846000000.0 -196911000000.0 -55776100000.0 -61801300000.0 -56457600000.0 -62056700000.0 -67562400000.0 -73500100000.0 -79393400000.0 -80989700000.0 -81374200000.0 -127803000000.0 -9035750000.0 -9035750000.0 -28679900000.0 -30389900000.0 -32433000000.0 -38638700000.0 -49468100000.0 -40712500000.0 -66145500000.0 -20404900000.0 -13368900000.0 -22157200000.0 -31798000000.0 -43839600000.0 -52517800000.0 -67739700000.0 -142298000000.0 -137821000000.0 -131907000000.0 -125173000000.0 -136105000000.0 -130433000000.0 -115838000000.0 -109144000000.0 -102238000000.0 -94644900000.0 -86452000000.0 -78319100000.0 -71102700000.0 -65871600000.0 -65080000000.0 -68710200000.0 -82263000000.0 -37961600000.0 -49943200000.0 -47495000000.0 -43587700000.0 -39428400000.0 -34709500000.0 -27957600000.0 -22166800000.0 -23229400000.0 -21654800000.0 -21010800000.0 -21790200000.0 -22237900000.0 -22490200000.0 -22598600000.0 -22743600000.0 -22942200000.0 -21609600000.0 -17011700000.0 -19506100000.0 -20269400000.0 -20528200000.0 -20510100000.0 -18609700000.0 -17041500000.0 -17127600000.0 -18611000000.0 -18518200000.0 -19454500000.0 -21398500000.0 -23054200000.0 -32960700000.0 -22256900000.0 -9035750000.0 -55763800000.0 -51115500000.0 -32792900000.0 -34809000000.0 -34887500000.0 -34170000000.0 -9035750000.0 -9074080000.0 -9035750000.0 -9035750000.0 -15051100000.0 -15685200000.0 -12406000000.0 -9035750000.0 -9061670000.0 -9035880000.0 -9811940000.0 -9035400000.0 -31927900000.0 -17839400000.0 -21685400000.0 -21146100000.0 -19833700000.0 -18941800000.0 -17324200000.0 -14214700000.0 -11966900000.0 -12767800000.0 -12206000000.0 -11955800000.0 -12147300000.0 -12034400000.0 -12316900000.0 -13008400000.0 -13528600000.0 -16494500000.0 -13292400000.0 -16482800000.0 -17117700000.0 -17139800000.0 -16952600000.0 -9035750000.0 -9048200000.0 -16326500000.0 -18248600000.0 -21628300000.0 -18835300000.0 -26944900000.0 -10043700000.0 -32626900000.0 -31490000000.0 -30320100000.0 -28643800000.0 -33164200000.0 -32544400000.0 -30294000000.0 -29932600000.0 -30156900000.0 -30555500000.0 -30707100000.0 -30334800000.0 -29446000000.0 -28202800000.0 -27666800000.0 -28275800000.0 -12283500000.0 -12420600000.0 -12560600000.0 -12728600000.0 -12961500000.0 -12712700000.0 -11340600000.0 -12035300000.0 -12299500000.0 -12441000000.0 -12558500000.0 -12070100000.0 -11588100000.0 -11600500000.0 -12104200000.0 -9035750000.0 -23681700000.0 -22259100000.0 
SCALARS Shear_Stress float 1
LOOKUP_TABLE default
25779500000.0 20927800000.0 32691800000.0 4983940000.0 54129100000.0 46833000000.0 48365000000.0 38462700000.0 44225200000.0 25223500000.0 29064400000.0 64807900000.0 51790900000.0 7974160000.0 21489800000.0 13232800000.0 58377700000.0 129056000000.0 384159000.0 3594150000.0 38926000000.0 32791100000.0 72329700000.0 11770600000.0 37451500000.0 16158900000.0 30772900000.0 51502700000.0 147862000000.0 166933000000.0 8763310000.0 40716500000.0 23039300000.0 36249200000.0 5507780000.0 63386000000.0 42467000000.0 25143600000.0 20832700000.0 31624500000.0 28016200000.0 8808520000.0 166296000000.0 204430000000.0 68066900000.0 75795500000.0 78015700000.0 37969800000.0 205729000000.0 11533300000.0 30663700000.0 13680900000.0 6428410000.0 25212800000.0 18391300000.0 34577200000.0 33088900000.0 67640300000.0 145844000000.0 31924800000.0 2959350000.0 163028000000.0 176640000000.0 233507000000.0 213830000000.0 197595000000.0 211465000000.0 69244900000.0 92714400000.0 48033600000.0 77044000000.0 149381000000.0 110211000000.0 156456000000.0 233661000000.0 52731600000.0 31202900000.0 72817200000.0 56145500000.0 86868600000.0 155339000000.0 181998000000.0 204983000000.0 267170000000.0 236521000000.0 212873000000.0 8735480000.0 83690700000.0 273259000000.0 247695000000.0 3556640000.0 113584000000.0 100368000000.0 96318300000.0 144060000000.0 264291000000.0 393401000000.0 302705000000.0 275263000000.0 225376000000.0 51597400000.0 73055100000.0 67871600000.0 59893100000.0 218524000000.0 55108100000.0 166512000000.0 228885000000.0 158016000000.0 169488000000.0 121845000000.0 145417000000.0 141370000000.0 197651000000.0 235741000000.0 344057000000.0 369002000000.0 187568000000.0 320751000000.0 305740000000.0 307625000000.0 286587000000.0 258842000000.0 237835000000.0 220886000000.0 30154900000.0 48947500000.0 112091000000.0 232319000000.0 132276000000.0 82805500000.0 183700000000.0 394058000000.0 272537000000.0 332481000000.0 240011000000.0 169324000000.0 174649000000.0 272264000000.0 210638000000.0 217161000000.0 289301000000.0 258909000000.0 218760000000.0 192227000000.0 287838000000.0 547687000000.0 286831000000.0 557884000000.0 451568000000.0 333638000000.0 220665000000.0 169625000000.0 208006000000.0 221828000000.0 150362000000.0 240904000000.0 266199000000.0 229425000000.0 1366260000.0 32464500000.0 352740000000.0 599678000000.0 515451000000.0 563573000000.0 439255000000.0 303698000000.0 245875000000.0 190495000000.0 162987000000.0 173146000000.0 163183000000.0 198302000000.0 153578000000.0 153424000000.0 132780000000.0 175519000000.0 200381000000.0 244333000000.0 229789000000.0 236612000000.0 201036000000.0 199328000000.0 46258800000.0 44792900000.0 274515000000.0 554156000000.0 239249000000.0 584648000000.0 575829000000.0 534174000000.0 493449000000.0 402285000000.0 344355000000.0 180791000000.0 138597000000.0 136142000000.0 117435000000.0 152755000000.0 207017000000.0 199469000000.0 161383000000.0 281573000000.0 470285000000.0 241326000000.0 277187000000.0 181023000000.0 376911000000.0 540119000000.0 548416000000.0 449088000000.0 239945000000.0 128841000000.0 113418000000.0 102168000000.0 112694000000.0 172748000000.0 191386000000.0 156308000000.0 104931000000.0 127006000000.0 208652000000.0 93478800000.0 347335000000.0 558758000000.0 532195000000.0 374771000000.0 195369000000.0 139131000000.0 81300400000.0 95622600000.0 72233100000.0 84706100000.0 53345300000.0 79699100000.0 80283200000.0 130820000000.0 145760000000.0 174705000000.0 150438000000.0 153523000000.0 98248700000.0 106498000000.0 175817000000.0 289705000000.0 100505000000.0 42241100000.0 68452000000.0 615682000000.0 587355000000.0 594544000000.0 498543000000.0 418572000000.0 66956600000.0 64008300000.0 43320300000.0 27123000000.0 97872100000.0 139156000000.0 99126000000.0 37425200000.0 100983000000.0 13066500000.0 134107000000.0 56691700000.0 69115500000.0 162060000000.0 297656000000.0 676987000000.0 680299000000.0 568146000000.0 83013000000.0 42370300000.0 55517700000.0 2600520000.0 22937400000.0 106209000000.0 102103000000.0 28887700000.0 255333000000.0 460198000000.0 204501000000.0 200160000000.0 9615360000.0 226424000000.0 645493000000.0 520360000000.0 184745000000.0 29203700000.0 75670400000.0 78949200000.0 75902800000.0 13787500000.0 67340400000.0 56470600000.0 86679400000.0 36475000000.0 27677200000.0 87795700000.0 42057500000.0 36647600000.0 45671700000.0 40635800000.0 336319000000.0 610148000000.0 278053000000.0 355802000000.0 289220000000.0 326496000000.0 190728000000.0 216664000000.0 127940000000.0 597974000000.0 646641000000.0 4103680000.0 115962000000.0 41316600000.0 199252000000.0 104656000000.0 1983250000.0 24520200000.0 115928000000.0 409590000000.0 404638000000.0 302807000000.0 69533300000.0 234378000000.0 227941000000.0 129878000000.0 16138900000.0 28144600000.0 366928000000.0 91341900000.0 121506000000.0 7298610000.0 387695000000.0 145176000000.0 19139700000.0 109681000000.0 404871000000.0 726542000000.0 451738000000.0 413650000000.0 212201000000.0 207037000000.0 2367270000.0 683207000000.0 100636000000.0 281487000.0 122483000000.0 169973000000.0 135000000000.0 182041000000.0 57178600000.0 55878000000.0 545796000000.0 531306000000.0 112851000000.0 51213200000.0 57956400000.0 131904000000.0 163783000000.0 435942000000.0 809950000000.0 480832000000.0 469198000000.0 460663000000.0 446097000000.0 397935000000.0 385472000000.0 311713000000.0 57307100000.0 190097000000.0 288690000000.0 305621000000.0 97583500000.0 251975000000.0 299339000000.0 97877900000.0 370497000000.0 9625130000.0 137666000000.0 499645000000.0 401865000000.0 486193000000.0 305013000000.0 121742000000.0 185181000000.0 261324000000.0 343805000000.0 175834000000.0 76978900000.0 99713400000.0 212178000000.0 347314000000.0 378998000000.0 526642000000.0 452174000000.0 525052000000.0 356690000000.0 666858000000.0 108983000000.0 59410100000.0 391668000000.0 867654000000.0 471847000000.0 434376000000.0 318465000000.0 260922000000.0 755205000000.0 233329000000.0 253362000000.0 42910500000.0 4721210000.0 256765000000.0 489687000000.0 613292000000.0 581127000000.0 902148000000.0 187557000000.0 233416000000.0 33341600000.0 276906000000.0 870335000000.0 411310000000.0 85255000000.0 113808000000.0 155035000000.0 226088000000.0 327520000000.0 247358000000.0 290523000000.0 233763000000.0 132246000000.0 12515400000.0 165179000000.0 400714000000.0 598495000000.0 620663000000.0 606617000000.0 507976000000.0 991568000000.0 902347000000.0 297868000000.0 848519000000.0 269868000000.0 455194000000.0 154871000000.0 992074000000.0 689421000000.0 372037000000.0 297590000000.0 165445000000.0 126848000000.0 241718000000.0 304319000000.0 416425000000.0 517732000000.0 593370000000.0 645886000000.0 648154000000.0 590880000000.0 577683000000.0 451150000000.0 589393000000.0 527293000000.0 141594000000.0 95324400000.0 86747200000.0 26331900000.0 634995000000.0 722544000000.0 556692000000.0 556685000000.0 708981000000.0 408234000000.0 271986000000.0 237114000000.0 337141000000.0 494716000000.0 635274000000.0 643252000000.0 275724000000.0 184384000000.0 524173000000.0 526679000000.0 46564500000.0 921661000000.0 469771000000.0 24594300000.0 378141000000.0 579220000000.0 711514000000.0 602912000000.0 557537000000.0 409354000000.0 398817000000.0 293923000000.0 308032000000.0 402215000000.0 545226000000.0 682764000000.0 754713000000.0 1096890000.0 349049000000.0 580525000000.0 1.20463e+12 562420000000.0 1.03271e+12 703646000000.0 480614000000.0 1.25271e+12 935862000000.0 730714000000.0 790713000000.0 689505000000.0 530842000000.0 406006000000.0 333159000000.0 368301000000.0 360007000000.0 385154000000.0 433268000000.0 437601000000.0 602558000000.0 749140000000.0 734910000000.0 1.13423e+12 43862100000.0 510214000000.0 585106000000.0 37971000000.0 1.2839e+12 581342000000.0 447120000000.0 181401000000.0 465088000000.0 983382000000.0 800219000000.0 655961000000.0 512620000000.0 420084000000.0 388573000000.0 385003000000.0 434315000000.0 941212000000.0 278865000000.0 131977000000.0 364139000000.0 512425000000.0 77961800000.0 1.43938e+12 763042000000.0 48453700000.0 678143000000.0 879759000000.0 834466000000.0 764838000000.0 734609000000.0 629055000000.0 607801000000.0 505189000000.0 502329000000.0 430817000000.0 392714000000.0 372583000000.0 473603000000.0 1.47574e+12 401223000000.0 410811000000.0 534326000000.0 1.33204e+12 1.6869e+12 195485000000.0 187898000000.0 206131000000.0 253588000000.0 491870000000.0 772792000000.0 788952000000.0 807269000000.0 709310000000.0 592407000000.0 500318000000.0 434910000000.0 437985000000.0 390406000000.0 408239000000.0 382710000000.0 535461000000.0 600352000000.0 443012000000.0 148416000000.0 271948000000.0 419319000000.0 407136000000.0 155364000000.0 1.37441e+12 863871000000.0 802527000000.0 97597700000.0 159500000000.0 209770000000.0 650558000000.0 807087000000.0 788164000000.0 687419000000.0 581440000000.0 501326000000.0 457413000000.0 511345000000.0 1.03467e+12 1.25536e+12 100560000000.0 183100000000.0 257525000000.0 1.20697e+12 166153000000.0 228679000000.0 78725000000.0 454461000000.0 632659000000.0 742379000000.0 804874000000.0 820317000000.0 823454000000.0 770267000000.0 752196000000.0 669395000000.0 656563000000.0 575808000000.0 580499000000.0 515043000000.0 528110000000.0 797893000000.0 762045000000.0 213657000000.0 57153100000.0 167384000000.0 206876000000.0 350147000000.0 106697000000.0 642220000000.0 344366000000.0 262969000000.0 253789000000.0 507057000000.0 754342000000.0 842190000000.0 817119000000.0 736053000000.0 651943000000.0 604121000000.0 559244000000.0 647551000000.0 686183000000.0 767560000000.0 804017000000.0 7555420000.0 146685000000.0 2337140000.0 14037400000.0 1.05695e+12 929305000000.0 482472000000.0 107079000000.0 42485500000.0 371025000000.0 688336000000.0 833095000000.0 857727000000.0 805412000000.0 724822000000.0 659853000000.0 651620000000.0 715492000000.0 707338000000.0 539649000000.0 157182000000.0 660924000000.0 100132000000.0 331514000000.0 9035750000.0 1.02383e+12 768482000000.0 174737000000.0 237477000000.0 612382000000.0 775241000000.0 808929000000.0 881488000000.0 876861000000.0 894816000000.0 858331000000.0 850936000000.0 792992000000.0 783701000000.0 721594000000.0 727394000000.0 681935000000.0 705600000000.0 695655000000.0 714634000000.0 579871000000.0 120211000000.0 83234700000.0 29531500000.0 1.25723e+12 205159000000.0 43763800000.0 440488000000.0 79985800000.0 165936000000.0 456465000000.0 529467000000.0 731878000000.0 876793000000.0 918648000000.0 896751000000.0 840932000000.0 779488000000.0 736158000000.0 712334000000.0 705183000000.0 674341000000.0 656631000000.0 493317000000.0 281458000000.0 841536000000.0 449440000000.0 164946000000.0 351633000000.0 30538700000.0 168762000000.0 422320000000.0 679905000000.0 861794000000.0 933797000000.0 932110000000.0 890066000000.0 831833000000.0 778244000000.0 737268000000.0 692152000000.0 620120000000.0 590024000000.0 550112000000.0 651193000000.0 608888000000.0 297345000000.0 611530000000.0 332069000000.0 483733000000.0 176274000000.0 359903000000.0 629733000000.0 828571000000.0 924810000000.0 938590000000.0 979330000000.0 959885000000.0 964969000000.0 930850000000.0 921585000000.0 879935000000.0 869717000000.0 824555000000.0 817251000000.0 774422000000.0 761842000000.0 721845000000.0 647876000000.0 559642000000.0 347830000000.0 1.18903e+12 1.16866e+12 684339000000.0 9035750000.0 395555000000.0 290395000000.0 386663000000.0 569832000000.0 579914000000.0 711242000000.0 775199000000.0 870623000000.0 982094000000.0 993134000000.0 956770000000.0 910137000000.0 860430000000.0 806607000000.0 736856000000.0 687125000000.0 631735000000.0 584590000000.0 491829000000.0 445754000000.0 36426600000.0 268482000000.0 172107000000.0 460312000000.0 157647000000.0 427439000000.0 325903000000.0 1.25421e+12 908949000000.0 304055000000.0 554610000000.0 686007000000.0 779068000000.0 949393000000.0 1.01083e+12 986787000000.0 943535000000.0 900112000000.0 851147000000.0 789764000000.0 696599000000.0 548903000000.0 286322000000.0 781539000000.0 248307000000.0 945653000000.0 389133000000.0 239565000000.0 296034000000.0 356759000000.0 1.07456e+12 845275000000.0 681831000000.0 701625000000.0 830362000000.0 927928000000.0 1.00093e+12 1.0206e+12 1.01081e+12 987635000000.0 969214000000.0 955321000000.0 932828000000.0 927254000000.0 892397000000.0 885656000000.0 839805000000.0 825681000000.0 765463000000.0 731748000000.0 636262000000.0 553891000000.0 423677000000.0 494425000000.0 301839000000.0 511921000000.0 704319000000.0 375502000000.0 211977000000.0 395463000000.0 183158000000.0 374730000000.0 331425000000.0 241102000000.0 797344000000.0 834187000000.0 885434000000.0 809533000000.0 807132000000.0 719127000000.0 584626000000.0 671831000000.0 692977000000.0 987780000000.0 997927000000.0 964341000000.0 952104000000.0 925188000000.0 878474000000.0 808505000000.0 690965000000.0 527084000000.0 396864000000.0 144250000000.0 253922000000.0 561353000000.0 606270000000.0 113729000000.0 103179000000.0 365735000000.0 307216000000.0 163169000000.0 344751000000.0 353942000000.0 425888000000.0 93509600000.0 753576000000.0 844491000000.0 892568000000.0 735256000000.0 443036000000.0 863033000000.0 989960000000.0 956499000000.0 962501000000.0 955650000000.0 924175000000.0 870641000000.0 793429000000.0 676384000000.0 57425900000.0 387993000000.0 329872000000.0 697904000000.0 718171000000.0 137514000000.0 82056700000.0 24894100000.0 110706000000.0 173514000000.0 260020000000.0 211915000000.0 174889000000.0 305064000000.0 357828000000.0 386410000000.0 470805000000.0 295181000000.0 52334800000.0 597120000000.0 771227000000.0 911242000000.0 808625000000.0 788200000000.0 359674000000.0 87533100000.0 455230000000.0 748271000000.0 923995000000.0 872336000000.0 930085000000.0 911772000000.0 952158000000.0 973327000000.0 973410000000.0 987413000000.0 961305000000.0 967270000000.0 923487000000.0 923476000000.0 865080000000.0 872552000000.0 801302000000.0 819797000000.0 564891000000.0 1.25011e+12 897005000000.0 815712000000.0 754540000000.0 757872000000.0 705344000000.0 35678900000.0 90889400000.0 208468000000.0 192398000000.0 153644000000.0 253491000000.0 254103000000.0 284169000000.0 363742000000.0 486191000000.0 188584000000.0 361507000000.0 1.11865e+12 1.11571e+12 123914000000.0 159625000000.0 50235400000.0 708363000000.0 828416000000.0 947349000000.0 999479000000.0 1.00077e+12 972488000000.0 929620000000.0 900902000000.0 1.28569e+12 729233000000.0 614829000000.0 834869000000.0 655631000000.0 284770000000.0 91026400000.0 54039100000.0 89273900000.0 197477000000.0 240007000000.0 275539000000.0 283518000000.0 108470000000.0 285966000000.0 275363000000.0 232051000000.0 228031000000.0 158798000000.0 277577000000.0 189502000000.0 99945600000.0 13002700000.0 232671000000.0 565905000000.0 724094000000.0 872816000000.0 980679000000.0 725714000000.0 59607400000.0 262106000000.0 146555000000.0 667310000000.0 885435000000.0 965130000000.0 993407000000.0 1.02914e+12 1.02206e+12 1.04032e+12 1.0121e+12 1.02128e+12 979028000000.0 988354000000.0 947797000000.0 1.02651e+12 1.10088e+12 934416000000.0 587009000000.0 779342000000.0 820741000000.0 795581000000.0 313846000000.0 153425000000.0 269533000000.0 314537000000.0 311232000000.0 119111000000.0 298415000000.0 405252000000.0 312090000000.0 274126000000.0 240956000000.0 1798760000.0 329171000000.0 422316000000.0 1.0123e+12 62054000000.0 287693000000.0 1.23106e+12 1.31531e+12 587893000000.0 387790000000.0 63887500000.0 459581000000.0 84657000.0 402344000000.0 776331000000.0 913578000000.0 1.01982e+12 1.05646e+12 1.0533e+12 1.02852e+12 1.01416e+12 1.0105e+12 1.04034e+12 839848000000.0 702561000000.0 822787000000.0 913760000000.0 620009000000.0 230565000000.0 27322700000.0 324138000000.0 105575000000.0 388396000000.0 284322000000.0 383086000000.0 319132000000.0 324482000000.0 245791000000.0 164108000000.0 238201000000.0 318815000000.0 25301000000.0 702532000000.0 454521000000.0 288063000000.0 248199000000.0 233950000000.0 204075000000.0 224159000000.0 88404800000.0 719916000000.0 141827000000.0 382480000000.0 833875000000.0 53743700000.0 234873000000.0 71006600000.0 196137000000.0 969524000000.0 810290000000.0 997755000000.0 1.05867e+12 1.07538e+12 1.06014e+12 1.03721e+12 990226000000.0 906197000000.0 746452000000.0 497243000000.0 961452000000.0 874715000000.0 608994000000.0 237423000000.0 116686000000.0 597104000000.0 334031000000.0 388970000000.0 312789000000.0 223272000000.0 153120000000.0 289988000000.0 342005000000.0 13121900000.0 537604000000.0 909226000000.0 259984000000.0 222231000000.0 300943000000.0 837560000000.0 410379000000.0 46724300000.0 233798000000.0 168297000000.0 190648000000.0 1.45716e+12 488556000000.0 328716000000.0 269794000000.0 16782700000.0 204904000000.0 1.21168e+12 1.18346e+12 969724000000.0 1.03345e+12 1.04878e+12 1.0826e+12 1.08536e+12 1.10012e+12 1.08502e+12 1.08321e+12 1.05966e+12 1.03644e+12 1.01872e+12 944730000000.0 878393000000.0 666980000000.0 806958000000.0 348521000000.0 768420000000.0 1.33065e+12 635359000000.0 37553000000.0 807718000000.0 751414000000.0 204188000000.0 214529000000.0 154149000000.0 283080000000.0 267756000000.0 164454000000.0 111761000000.0 59939200000.0 345080000000.0 330836000000.0 333231000000.0 59336200000.0 75049600000.0 448846000000.0 29111600000.0 302424000000.0 466159000000.0 143234000000.0 139798000000.0 278676000000.0 449298000000.0 546889000000.0 1.12814e+12 971957000000.0 210213000000.0 1.00199e+12 1.0535e+12 668293000000.0 220527000000.0 32979200000.0 519200000000.0 863882000000.0 1.09711e+12 1.07131e+12 1.10294e+12 1.10083e+12 1.06118e+12 966857000000.0 802042000000.0 280475000000.0 1.13816e+12 1.58794e+12 1.66656e+12 194989000000.0 289554000000.0 1.07583e+12 637324000000.0 599655000000.0 176344000000.0 248392000000.0 397571000000.0 235741000000.0 130410000000.0 87682500000.0 50741200000.0 361886000000.0 370919000000.0 326085000000.0 106572000000.0 88743000000.0 70609800000.0 83443000000.0 63945600000.0 139688000000.0 47823800000.0 425938000000.0 699190000000.0 529544000000.0 1.22981e+12 49551100000.0 340882000000.0 108001000000.0 174818000000.0 943909000000.0 878350000000.0 476816000000.0 314217000000.0 461702000000.0 978951000000.0 1.07976e+12 1.09522e+12 1.10723e+12 1.08302e+12 1.00148e+12 823917000000.0 559733000000.0 389705000000.0 510988000000.0 589239000000.0 475720000000.0 307705000000.0 286712000000.0 290888000000.0 54496000000.0 56562900000.0 704308000000.0 349198000000.0 242315000000.0 106621000000.0 59128700000.0 20392000000.0 46349500000.0 357453000000.0 299243000000.0 318282000000.0 121955000000.0 117935000000.0 121162000000.0 45905000000.0 39460200000.0 140043000000.0 57093900000.0 280314000000.0 434317000000.0 408551000000.0 1.07684e+12 234534000000.0 361161000000.0 187367000000.0 414243000000.0 837353000000.0 803326000000.0 262568000000.0 191552000000.0 179482000000.0 530405000000.0 755185000000.0 867299000000.0 1.00938e+12 1.0346e+12 1.08531e+12 1.08968e+12 1.10329e+12 1.09184e+12 1.09247e+12 1.05087e+12 1.0364e+12 948837000000.0 882316000000.0 658447000000.0 557936000000.0 16045100000.0 60024800000.0 767472000000.0 506067000000.0 1.03977e+12 549409000000.0 584888000000.0 509373000000.0 736741000000.0 246187000000.0 51165700000.0 413751000000.0 1.10044e+12 538507000000.0 86955200000.0 16072200000.0 12632200000.0 50157300000.0 110028000000.0 298773000000.0 190187000000.0 259909000000.0 133823000000.0 153425000000.0 138060000000.0 154008000000.0 89568100000.0 58244400000.0 59050700000.0 66140900000.0 11209500000.0 55776800000.0 145018000000.0 63743300000.0 1.0131e+12 560119000000.0 1.04437e+12 54979700000.0 172842000000.0 443887000000.0 361861000000.0 713742000000.0 50251500000.0 625695000000.0 727549000000.0 448374000000.0 706329000000.0 929974000000.0 1.0516e+12 1.07968e+12 1.05718e+12 971514000000.0 810940000000.0 259553000000.0 499701000000.0 558932000000.0 555746000000.0 755692000000.0 445125000000.0 266397000000.0 420048000000.0 266454000000.0 234044000000.0 808893000000.0 1.06129e+12 1.26486e+12 592098000000.0 277259000000.0 218910000000.0 219216000000.0 132838000000.0 71396400000.0 206619000000.0 81170600000.0 186144000000.0 198159000000.0 153251000000.0 164167000000.0 169162000000.0 150548000000.0 95193200000.0 9399280000.0 127301000000.0 124342000000.0 344472000000.0 486324000000.0 107662000000.0 778473000000.0 324406000000.0 581513000000.0 784320000000.0 1.22771e+12 1.28694e+12 295061000000.0 557126000000.0 898141000000.0 418959000000.0 552599000000.0 658556000000.0 804075000000.0 975996000000.0 1.04447e+12 1.05135e+12 987696000000.0 840683000000.0 613112000000.0 498952000000.0 344068000000.0 783008000000.0 350688000000.0 1.01625e+12 314347000000.0 310391000000.0 401851000000.0 455942000000.0 157014000000.0 348032000000.0 311282000000.0 388640000000.0 4735270000.0 109380000000.0 163951000000.0 364485000000.0 272769000000.0 35371200000.0 178916000000.0 192216000000.0 359100000000.0 466840000000.0 18934500000.0 53552000000.0 110753000000.0 302694000000.0 184282000000.0 203306000000.0 192125000000.0 202590000000.0 183910000000.0 183126000000.0 31462800000.0 122596000000.0 125255000000.0 36153800000.0 83457700000.0 406847000000.0 867361000000.0 632040000000.0 181718000000.0 296206000000.0 297090000000.0 579893000000.0 752198000000.0 704941000000.0 100826000000.0 748935000000.0 1.21693e+12 409436000000.0 797593000000.0 878670000000.0 899210000000.0 984835000000.0 959810000000.0 1.02076e+12 977702000000.0 1.00139e+12 918950000000.0 869144000000.0 676069000000.0 662420000000.0 434796000000.0 562859000000.0 1.07943e+12 473959000000.0 297096000000.0 138502000000.0 98508800000.0 306445000000.0 271662000000.0 236492000000.0 1052090000.0 10569600000.0 445404000000.0 405506000000.0 69431200000.0 248616000000.0 306037000000.0 74115400000.0 381778000000.0 336964000000.0 505899000000.0 620982000000.0 517624000000.0 31431200000.0 64335500000.0 21214100000.0 399993000000.0 399995000000.0 244985000000.0 221336000000.0 243681000000.0 227080000000.0 249978000000.0 89523800000.0 2976850000.0 284603000000.0 241716000000.0 204144000000.0 5767950000.0 527628000000.0 288956000000.0 835682000000.0 396584000000.0 489350000000.0 457574000000.0 466554000000.0 298486000000.0 187045000000.0 31719500000.0 1.5218e+12 116789000000.0 708261000000.0 800328000000.0 879653000000.0 930668000000.0 914358000000.0 807535000000.0 417178000000.0 440731000000.0 226643000000.0 376685000000.0 515843000000.0 35235000000.0 80716700000.0 135525000000.0 224149000000.0 266148000000.0 148755000000.0 200825000000.0 532823000000.0 696040000000.0 571451000000.0 124824000000.0 220128000000.0 638503000000.0 497966000000.0 455212000000.0 414564000000.0 683099000000.0 641962000000.0 519297000000.0 57442100000.0 12385000000.0 462855000000.0 454554000000.0 524289000000.0 288324000000.0 245339000000.0 250644000000.0 315321000000.0 244295000000.0 300196000000.0 92423900000.0 28908000000.0 382612000000.0 256244000000.0 438432000000.0 760948000000.0 73742600000.0 165614000000.0 288505000000.0 312598000000.0 319069000000.0 370560000000.0 282433000000.0 347620000000.0 87893400000.0 577868000000.0 442083000000.0 863945000000.0 792425000000.0 550462000000.0 749099000000.0 841955000000.0 873825000000.0 808402000000.0 681944000000.0 758878000000.0 161424000000.0 995662000000.0 168572000000.0 1.05943e+12 355347000000.0 167668000000.0 58203400000.0 38742200000.0 152945000000.0 235550000000.0 240085000000.0 304230000000.0 557704000000.0 755974000000.0 875180000000.0 1.02469e+12 947729000000.0 613834000000.0 273235000000.0 486143000000.0 470768000000.0 837333000000.0 778043000000.0 767476000000.0 622551000000.0 479764000000.0 444491000000.0 46778100000.0 66733200000.0 29119600000.0 430515000000.0 560987000000.0 577280000000.0 665351000000.0 521009000000.0 286726000000.0 291910000000.0 286407000000.0 412996000000.0 402104000000.0 140310000000.0 545061000000.0 546504000000.0 109898000000.0 1.02708e+12 196491000000.0 36113600000.0 133054000000.0 131295000000.0 103500000000.0 15239000000.0 378911000000.0 1.03436e+12 322567000000.0 683581000000.0 511407000000.0 520841000000.0 741999000000.0 698531000000.0 828909000000.0 758744000000.0 796359000000.0 626919000000.0 687870000000.0 545702000000.0 592191000000.0 853612000000.0 79766300000.0 204745000000.0 44491700000.0 63050600000.0 30021100000.0 114433000000.0 208227000000.0 267181000000.0 332030000000.0 269740000000.0 757707000000.0 452438000000.0 716236000000.0 539484000000.0 279833000000.0 1.01514e+12 917601000000.0 716664000000.0 570515000000.0 332777000000.0 21059100000.0 91867900000.0 123925000000.0 372701000000.0 500768000000.0 696122000000.0 815939000000.0 682352000000.0 226193000000.0 315718000000.0 394614000000.0 262364000000.0 688014000000.0 226265000000.0 308826000000.0 886287000000.0 339188000000.0 64579000000.0 481409000000.0 107558000000.0 495174000000.0 89458800000.0 19068900000.0 13662800000.0 42473400000.0 143897000000.0 331451000000.0 452834000000.0 387190000000.0 436373000000.0 251933000000.0 531989000000.0 51102300000.0 656683000000.0 700766000000.0 738959000000.0 376079000000.0 1.04949e+12 364705000000.0 320671000000.0 18596300000.0 125310000000.0 21791500000.0 33637900000.0 118322000000.0 198983000000.0 349214000000.0 507979000000.0 615595000000.0 579702000000.0 868994000000.0 923289000000.0 426729000000.0 732937000000.0 449414000000.0 1.27402e+12 1.03147e+12 888099000000.0 597824000000.0 517651000000.0 431937000000.0 266128000000.0 231787000000.0 146063000000.0 177565000000.0 197004000000.0 279310000000.0 356285000000.0 658263000000.0 837956000000.0 920998000000.0 157389000000.0 143556000000.0 537872000000.0 2345410000.0 446412000000.0 943146000000.0 1.2115e+12 280328000000.0 184292000000.0 687206000000.0 227277000000.0 240975000000.0 119386000000.0 8743430000.0 116418000000.0 218746000000.0 329079000000.0 365607000000.0 241152000000.0 667318000000.0 198534000000.0 240347000000.0 419375000000.0 486568000000.0 548986000000.0 635616000000.0 786461000000.0 363197000000.0 40272300000.0 419111000000.0 27063700000.0 84265900000.0 55919200000.0 18286100000.0 77638600000.0 138219000000.0 274407000000.0 365508000000.0 492022000000.0 575100000000.0 568028000000.0 488955000000.0 423357000000.0 719579000000.0 258116000000.0 313555000000.0 825009000000.0 142641000000.0 733196000000.0 635542000000.0 642422000000.0 370387000000.0 321226000000.0 192247000000.0 187931000000.0 195408000000.0 186093000000.0 198648000000.0 135662000000.0 245289000000.0 297012000000.0 452206000000.0 552951000000.0 616241000000.0 1.02705e+12 1.35572e+12 271008000000.0 309668000000.0 491261000000.0 837868000000.0 309761000000.0 1.19723e+12 447083000000.0 650557000000.0 619777000000.0 622370000000.0 822125000000.0 688667000000.0 327289000000.0 10124600000.0 64136400000.0 8583270000.0 39642600000.0 255345000000.0 355103000000.0 354945000000.0 251115000000.0 6046090000.0 409156000000.0 974284000000.0 582779000000.0 418429000000.0 680266000000.0 73740300000.0 552791000000.0 161758000000.0 606780000000.0 278337000000.0 279191000000.0 1.05488e+12 795281000000.0 273293000000.0 184754000000.0 137676000000.0 131263000000.0 181605000000.0 214659000000.0 290977000000.0 374376000000.0 467515000000.0 525944000000.0 497916000000.0 369894000000.0 147694000000.0 92512300000.0 747392000000.0 1.27402e+12 242120000000.0 412093000000.0 730740000000.0 488470000000.0 422195000000.0 326896000000.0 247401000000.0 208040000000.0 179464000000.0 161369000000.0 158014000000.0 122466000000.0 238400000000.0 88806700000.0 128147000000.0 154442000000.0 183828000000.0 376097000000.0 455282000000.0 551718000000.0 922211000000.0 266141000000.0 629574000000.0 1.35224e+12 543711000000.0 199472000000.0 636439000000.0 273727000000.0 387706000000.0 336332000000.0 506051000000.0 635534000000.0 535860000000.0 280905000000.0 55669800000.0 9287550000.0 13467400000.0 110936000000.0 367362000000.0 238788000000.0 29938800000.0 26422000000.0 201719000000.0 614390000000.0 268723000000.0 940127000000.0 922958000000.0 553122000000.0 438810000000.0 506821000000.0 292165000000.0 636722000000.0 228615000000.0 143311000000.0 133503000000.0 159665000000.0 181176000000.0 244745000000.0 315997000000.0 393040000000.0 472533000000.0 522694000000.0 517029000000.0 446265000000.0 311803000000.0 181440000000.0 54425000000.0 703382000000.0 489129000000.0 429366000000.0 627098000000.0 660644000000.0 1.22717e+12 819785000000.0 471502000000.0 294536000000.0 216876000000.0 150747000000.0 123362000000.0 86355200000.0 261166000000.0 258783000000.0 86260600000.0 26898500000.0 386806000000.0 172035000000.0 133302000000.0 99891500000.0 106090000000.0 263757000000.0 391527000000.0 575870000000.0 529341000000.0 592303000000.0 925309000000.0 22200900000.0 109819000000.0 691487000000.0 193038000000.0 1.21625e+12 884751000000.0 140344000000.0 234845000000.0 49300200000.0 410828000000.0 486614000000.0 402915000000.0 223503000000.0 48343700000.0 127671000000.0 63480600000.0 221231000000.0 389299000000.0 268010000000.0 89157800000.0 29340600000.0 140248000000.0 216747000000.0 43972100000.0 882454000000.0 311320000000.0 461570000000.0 625746000000.0 718211000000.0 535041000000.0 142263000000.0 459190000000.0 43914500000.0 18591300000.0 125418000000.0 147529000000.0 215882000000.0 274637000000.0 342382000000.0 416215000000.0 489123000000.0 541521000000.0 556129000000.0 522467000000.0 434893000000.0 310559000000.0 153288000000.0 321610000000.0 285601000000.0 723332000000.0 133556000000.0 382117000000.0 1.17764e+12 757843000000.0 443419000000.0 266557000000.0 189850000000.0 99101500000.0 81847200000.0 70449100000.0 63248200000.0 203086000000.0 85834000000.0 563100000000.0 644430000000.0 226323000000.0 49641900000.0 62570700000.0 155859000000.0 292989000000.0 510632000000.0 885282000000.0 748377000000.0 38478900000.0 498240000000.0 627298000000.0 567380000000.0 247282000000.0 880809000000.0 676826000000.0 255515000000.0 260161000000.0 205931000000.0 190007000000.0 50084800000.0 285421000000.0 92469800000.0 391461000000.0 399112000000.0 5265020000.0 106634000000.0 162742000000.0 92816700000.0 378495000000.0 294948000000.0 394031000000.0 734860000000.0 684377000000.0 699351000000.0 736335000000.0 636683000000.0 307313000000.0 537868000000.0 56495900000.0 199126000000.0 84209200000.0 189363000000.0 238066000000.0 295730000000.0 363380000000.0 434898000000.0 505296000000.0 562744000000.0 594654000000.0 593705000000.0 559134000000.0 488830000000.0 372413000000.0 297074000000.0 108615000000.0 1.10985e+12 873737000000.0 324734000000.0 1.62083e+12 1.02172e+12 814116000000.0 579909000000.0 387266000000.0 328845000000.0 224504000000.0 146739000000.0 50615900000.0 76261500000.0 74328200000.0 142305000000.0 62050500000.0 33976900000.0 597714000000.0 828219000000.0 174915000000.0 13258400000.0 176258000000.0 390130000000.0 856834000000.0 1.2923e+12 90588000000.0 716318000000.0 930128000000.0 349201000000.0 374426000000.0 307645000000.0 317659000000.0 142254000000.0 394953000000.0 298357000000.0 131423000000.0 152928000000.0 275667000000.0 145109000000.0 300824000000.0 504391000000.0 904418000000.0 339677000000.0 752320000000.0 487054000000.0 768162000000.0 505788000000.0 465835000000.0 78871700000.0 134813000000.0 180603000000.0 240166000000.0 305299000000.0 373492000000.0 444640000000.0 513328000000.0 572122000000.0 612059000000.0 628983000000.0 626910000000.0 610409000000.0 570422000000.0 536264000000.0 190180000000.0 1.73744e+12 1.22933e+12 790396000000.0 1.55916e+12 651778000000.0 576354000000.0 454656000000.0 299554000000.0 171474000000.0 83747300000.0 47979200000.0 59027500000.0 167184000000.0 142976000000.0 230924000000.0 27857600000.0 56707900000.0 346400000000.0 489069000000.0 727692000000.0 1.042e+12 272307000000.0 322536000000.0 31329900000.0 214510000000.0 690241000000.0 1.0807e+12 1.71399e+12 246190000000.0 702177000000.0 52887200000.0 998707000000.0 933062000000.0 712064000000.0 780144000000.0 575275000000.0 326822000000.0 277884000000.0 249263000000.0 293463000000.0 283183000000.0 248582000000.0 208172000000.0 128341000000.0 551662000000.0 437643000000.0 218947000000.0 51785600000.0 57864900000.0 130693000000.0 362494000000.0 589287000000.0 654925000000.0 411154000000.0 612908000000.0 126516000000.0 50246500000.0 64816500000.0 101785000000.0 164526000000.0 228653000000.0 297590000000.0 369516000000.0 441612000000.0 510729000000.0 570639000000.0 192147000000.0 1.28773e+12 838907000000.0 774992000000.0 187219000000.0 1.03468e+12 780830000000.0 640217000000.0 538151000000.0 425974000000.0 278221000000.0 122864000000.0 124661000000.0 145778000000.0 237108000000.0 347237000000.0 440260000000.0 100101000000.0 66870800000.0 102564000000.0 189075000000.0 477432000000.0 617465000000.0 1.03223e+12 1.43907e+12 245751000000.0 94389000000.0 106901000000.0 408534000000.0 531237000000.0 587190000000.0 975023000000.0 60699100000.0 886673000000.0 498309000000.0 51846800000.0 855517000000.0 956687000000.0 732613000000.0 639317000000.0 474137000000.0 319427000000.0 269502000000.0 241483000000.0 236421000000.0 195106000000.0 191381000000.0 217389000000.0 163569000000.0 105871000000.0 943350000000.0 482698000000.0 202418000000.0 55838100000.0 47799900000.0 119379000000.0 206045000000.0 210503000000.0 290133000000.0 428188000000.0 526719000000.0 431476000000.0 320535000000.0 122723000000.0 4406160000.0 68029900000.0 132747000000.0 203724000000.0 276185000000.0 350780000000.0 425234000000.0 613310000000.0 633034000000.0 632769000000.0 614045000000.0 569148000000.0 425659000000.0 727146000000.0 685619000000.0 416257000000.0 14268300000.0 724028000000.0 1.07149e+12 804780000000.0 695377000000.0 574823000000.0 440981000000.0 265886000000.0 97584200000.0 340676000000.0 310254000000.0 325137000000.0 460489000000.0 504999000000.0 148710000000.0 165379000000.0 163158000000.0 154693000000.0 273590000000.0 353666000000.0 839903000000.0 1.34845e+12 819796000000.0 144032000000.0 327156000000.0 492222000000.0 623373000000.0 974889000000.0 681370000000.0 10355300000.0 639737000000.0 294604000000.0 272677000000.0 995189000000.0 810717000000.0 600909000000.0 483398000000.0 365268000000.0 272047000000.0 236101000000.0 212996000000.0 175400000000.0 73563700000.0 111874000000.0 236771000000.0 317862000000.0 204438000000.0 1.18004e+12 548962000000.0 287911000000.0 112402000000.0 14461200000.0 118437000000.0 180911000000.0 252850000000.0 321146000000.0 431686000000.0 519138000000.0 512260000000.0 463666000000.0 478324000000.0 411910000000.0 419901000000.0 335349000000.0 225948000000.0 91195900000.0 14547100000.0 93096900000.0 168037000000.0 243970000000.0 496004000000.0 558442000000.0 605689000000.0 630082000000.0 625273000000.0 590606000000.0 518266000000.0 369863000000.0 231417000000.0 362581000000.0 743631000000.0 579450000000.0 283722000000.0 662334000000.0 1.00111e+12 1.03148e+12 846867000000.0 757976000000.0 643592000000.0 485205000000.0 349483000000.0 417826000000.0 632584000000.0 391846000000.0 310757000000.0 578152000000.0 583063000000.0 502425000000.0 150149000000.0 163054000000.0 491026000000.0 497338000000.0 140688000000.0 193643000000.0 370522000000.0 533689000000.0 10244000000.0 1.10408e+12 308654000000.0 552558000000.0 774347000000.0 1.10144e+12 1.25234e+12 816739000000.0 285991000000.0 485863000000.0 206072000000.0 1.15654e+12 752237000000.0 551642000000.0 413827000000.0 327601000000.0 256313000000.0 212009000000.0 198077000000.0 180615000000.0 113279000000.0 123472000000.0 17335700000.0 350899000000.0 413642000000.0 476818000000.0 1.12166e+12 657518000000.0 349774000000.0 145342000000.0 1090950000.0 103957000000.0 189258000000.0 263312000000.0 344127000000.0 414798000000.0 450940000000.0 452281000000.0 418181000000.0 404073000000.0 364877000000.0 329540000000.0 249398000000.0 151598000000.0 45876000000.0 46892100000.0 320170000000.0 396010000000.0 468859000000.0 534978000000.0 589401000000.0 625102000000.0 630638000000.0 587772000000.0 492519000000.0 321084000000.0 32411800000.0 256826000000.0 743258000000.0 758710000000.0 595704000000.0 712216000000.0 922411000000.0 1.03353e+12 1.00719e+12 880718000000.0 799265000000.0 702679000000.0 524730000000.0 1.1737e+12 977477000000.0 292512000000.0 277002000000.0 815104000000.0 751683000000.0 617049000000.0 536893000000.0 450441000000.0 105719000000.0 122538000000.0 11250400000.0 650585000000.0 621099000000.0 279710000000.0 154032000000.0 224070000000.0 290991000000.0 1.02868e+12 390239000000.0 969963000000.0 334584000000.0 444067000000.0 801481000000.0 1.11644e+12 994663000000.0 383381000000.0 447590000000.0 809575000000.0 283810000000.0 262657000000.0 238126000000.0 213252000000.0 190385000000.0 75474200000.0 271016000000.0 303919000000.0 488276000000.0 751446000000.0 297566000000.0 125787000000.0 3978640000.0 106298000000.0 190368000000.0 265818000000.0 330341000000.0 375307000000.0 397045000000.0 389252000000.0 365132000000.0 341671000000.0 301442000000.0 249308000000.0 127625000000.0 205360000000.0 282300000000.0 357692000000.0 430608000000.0 498677000000.0 559066000000.0 607999000000.0 637880000000.0 630754000000.0 546874000000.0 400771000000.0 188806000000.0 294180000000.0 581747000000.0 756787000000.0 759078000000.0 820280000000.0 929005000000.0 1.0119e+12 1.0308e+12 984025000000.0 889987000000.0 775862000000.0 814282000000.0 929575000000.0 332096000000.0 120499000000.0 41277200000.0 150178000000.0 878014000000.0 684729000000.0 401292000000.0 358477000000.0 253210000000.0 58302700000.0 110053000000.0 121257000000.0 21711900000.0 670433000000.0 814392000000.0 953393000000.0 197416000000.0 512318000000.0 648075000000.0 276945000000.0 743814000000.0 382355000000.0 564536000000.0 946001000000.0 1.31992e+12 1.31811e+12 22960400000.0 142664000000.0 46685700000.0 65369700000.0 63532400000.0 62654000000.0 165407000000.0 163738000000.0 178735000000.0 174938000000.0 101968000000.0 330748000000.0 285809000000.0 337049000000.0 452652000000.0 517526000000.0 173352000000.0 86725300000.0 2701280000.0 86609500000.0 165088000000.0 240965000000.0 314679000000.0 385388000000.0 452080000000.0 513601000000.0 569188000000.0 618055000000.0 655530000000.0 657074000000.0 525519000000.0 355675000000.0 338134000000.0 1.01555e+12 1.02532e+12 995244000000.0 926409000000.0 834270000000.0 824971000000.0 758852000000.0 81190800000.0 84703900000.0 103434000000.0 1.09657e+12 634214000000.0 492197000000.0 260406000000.0 166859000000.0 10246000000.0 46569200000.0 91965900000.0 30108000000.0 233821000000.0 470444000000.0 586331000000.0 468034000000.0 904339000000.0 447183000000.0 361751000000.0 540577000000.0 429866000000.0 69156500000.0 38498200000.0 659879000000.0 1.08129e+12 1.02393e+12 718956000000.0 311969000000.0 419770000000.0 83190000000.0 105471000000.0 135428000000.0 163114000000.0 143476000000.0 13608500000.0 374804000000.0 219291000000.0 539036000000.0 401566000000.0 240536000000.0 100645000000.0 13869500000.0 106907000000.0 185035000000.0 250278000000.0 299829000000.0 330994000000.0 340314000000.0 330278000000.0 308218000000.0 278115000000.0 233711000000.0 176588000000.0 105833000000.0 28444100000.0 50549200000.0 127084000000.0 200354000000.0 270653000000.0 337493000000.0 400035000000.0 457828000000.0 511330000000.0 563126000000.0 618864000000.0 685415000000.0 487186000000.0 643385000000.0 765253000000.0 878174000000.0 964433000000.0 989152000000.0 895785000000.0 726012000000.0 418934000000.0 195135000000.0 49729800000.0 159125000000.0 86862200000.0 27890400000.0 1.1555e+12 824754000000.0 366529000000.0 289588000000.0 145356000000.0 89452100000.0 78589900000.0 74477700000.0 31973900000.0 57932600000.0 111707000000.0 209779000000.0 328416000000.0 353231000000.0 290437000000.0 58084200000.0 381313000000.0 408348000000.0 545570000000.0 512877000000.0 779577000000.0 764494000000.0 593446000000.0 344373000000.0 29638200000.0 447190000000.0 587745000000.0 312714000000.0 116219000000.0 18167000000.0 43046000000.0 44386300000.0 6705600000.0 74050700000.0 125520000000.0 147274000000.0 95006900000.0 30265500000.0 315493000000.0 361908000000.0 368021000000.0 364044000000.0 404099000000.0 413098000000.0 314897000000.0 192155000000.0 78387500000.0 19456000000.0 101937000000.0 170130000000.0 223801000000.0 261723000000.0 281946000000.0 284622000000.0 272451000000.0 248584000000.0 214141000000.0 167694000000.0 110892000000.0 45503900000.0 24241900000.0 94901700000.0 163801000000.0 229605000000.0 291424000000.0 348295000000.0 747464000000.0 531050000000.0 421099000000.0 436237000000.0 516911000000.0 672384000000.0 865131000000.0 979313000000.0 1.03081e+12 1.03233e+12 920585000000.0 791548000000.0 599883000000.0 336410000000.0 41754000000.0 231493000000.0 417990000000.0 66346500000.0 349453000000.0 765965000000.0 515030000000.0 157269000000.0 126778000000.0 34643100000.0 89760700000.0 31932400000.0 67270200000.0 80519700000.0 53483900000.0 36588900000.0 44095900000.0 58084600000.0 272768000000.0 100519000000.0 127304000000.0 10478200000.0 30030300000.0 320846000000.0 580473000000.0 702845000000.0 718870000000.0 25847700000.0 324002000000.0 431884000000.0 411098000000.0 275738000000.0 96960400000.0 115570000000.0 387394000000.0 626896000000.0 363640000000.0 113974000000.0 51412300000.0 145892000000.0 111059000000.0 14453500000.0 69709100000.0 493008000000.0 436957000000.0 379342000000.0 366786000000.0 337191000000.0 255808000000.0 158479000000.0 64668900000.0 18484900000.0 89209600000.0 147042000000.0 190774000000.0 219110000000.0 231806000000.0 229874000000.0 215045000000.0 188916000000.0 152414000000.0 106112000000.0 51849300000.0 8135140000.0 70805700000.0 399451000000.0 444856000000.0 486380000000.0 530442000000.0 593218000000.0 711801000000.0 963709000000.0 550045000000.0 504194000000.0 394780000000.0 517484000000.0 819617000000.0 969746000000.0 1.03531e+12 1.0425e+12 1.00256e+12 717535000000.0 610429000000.0 668037000000.0 534964000000.0 790629000000.0 363101000000.0 516488000000.0 1.17568e+12 447798000000.0 248905000000.0 60856700000.0 7593090000.0 46200900000.0 55189800000.0 79864700000.0 96724100000.0 46394500000.0 42724700000.0 10955400000.0 35415600000.0 46179500000.0 124377000000.0 108560000000.0 251395000000.0 480833000000.0 555713000000.0 792575000000.0 199949000000.0 33567200000.0 114210000000.0 180625000000.0 184787000000.0 148422000000.0 103934000000.0 298844000000.0 558228000000.0 560153000000.0 229381000000.0 41998300000.0 178526000000.0 131949000000.0 147631000000.0 111012000000.0 40680500000.0 196727000000.0 589767000000.0 478475000000.0 388678000000.0 342914000000.0 291868000000.0 219971000000.0 139879000000.0 61365100000.0 9828240000.0 70643700000.0 119099000000.0 154035000000.0 174979000000.0 182146000000.0 176482000000.0 159231000000.0 133508000000.0 194014000000.0 250575000000.0 301703000000.0 345991000000.0 382274000000.0 410129000000.0 430627000000.0 448407000000.0 477477000000.0 559398000000.0 931776000000.0 234562000000.0 453075000000.0 467989000000.0 818903000000.0 942044000000.0 1.01387e+12 1.03273e+12 1.00325e+12 934665000000.0 835821000000.0 553725000000.0 690720000000.0 349039000000.0 1.14368e+12 724065000000.0 176004000000.0 662511000000.0 1.01919e+12 751852000000.0 434228000000.0 199218000000.0 90515200000.0 46699700000.0 68716400000.0 6507620000.0 8766130000.0 40354600000.0 75208400000.0 158129000000.0 112767000000.0 315742000000.0 280106000000.0 363472000000.0 284113000000.0 117363000000.0 186526000000.0 545609000000.0 218491000000.0 31562600000.0 35883600000.0 27953700000.0 73784000000.0 109008000000.0 138282000000.0 219644000000.0 402612000000.0 557154000000.0 455609000000.0 45166700000.0 311307000000.0 179068000000.0 96688600000.0 11371700000.0 104848000000.0 163986000000.0 188716000000.0 192604000000.0 184729000000.0 57413400000.0 655346000000.0 507609000000.0 398336000000.0 131615000000.0 94803300000.0 50133300000.0 485270000.0 54848200000.0 110482000000.0 165079000000.0 216497000000.0 262751000000.0 301965000000.0 332317000000.0 351956000000.0 359225000000.0 353497000000.0 337339000000.0 325156000000.0 395148000000.0 705753000000.0 318211000000.0 36620100000.0 397455000000.0 721420000000.0 884291000000.0 956549000000.0 963188000000.0 918979000000.0 837583000000.0 732743000000.0 626802000000.0 511365000000.0 74298300000.0 159335000000.0 753423000000.0 669200000000.0 174618000000.0 58554800000.0 44630100000.0 72290800000.0 89303800000.0 70293800000.0 183877000000.0 435372000000.0 344917000000.0 139423000000.0 178296000000.0 26840400000.0 295496000000.0 182972000000.0 69009100000.0 12087100000.0 26646800000.0 139381000000.0 186296000000.0 281820000000.0 411928000000.0 505190000000.0 335374000000.0 443686000000.0 291546000000.0 167338000000.0 37043700000.0 81708600000.0 163650000000.0 215021000000.0 256303000000.0 313627000000.0 398668000000.0 66791100000.0 325976000000.0 267704000000.0 202725000000.0 132867000000.0 64724700000.0 3354720000.0 48381200000.0 88594500000.0 116279000000.0 131288000000.0 134087000000.0 125465000000.0 106476000000.0 78375000000.0 42533300000.0 507484000.0 45827400000.0 94392500000.0 142993000000.0 189470000000.0 231697000000.0 267640000000.0 295359000000.0 312839000000.0 318004000000.0 309342000000.0 287161000000.0 257994000000.0 251277000000.0 302228000000.0 128215000000.0 584795000000.0 776276000000.0 859080000000.0 861725000000.0 806699000000.0 714365000000.0 609154000000.0 546905000000.0 566969000000.0 740726000000.0 333690000000.0 325822000000.0 750852000000.0 570585000000.0 430850000000.0 94667000000.0 59541100000.0 65000800000.0 76608800000.0 84764800000.0 312736000000.0 464013000000.0 468315000000.0 275239000000.0 103863000000.0 198077000000.0 322271000000.0 60953400000.0 101546000000.0 148371000000.0 200543000000.0 219752000000.0 388536000000.0 533902000000.0 270711000000.0 102111000000.0 52472800000.0 164646000000.0 219521000000.0 255206000000.0 306228000000.0 408380000000.0 636282000000.0 693573000000.0 527719000000.0 390124000000.0 315159000000.0 256305000000.0 194779000000.0 131776000000.0 71868600000.0 18845800000.0 24817500000.0 57779900000.0 79415900000.0 89654700000.0 88939100000.0 78074800000.0 58153100000.0 30463500000.0 3575210000.0 42373300000.0 84123900000.0 126892000000.0 168688000000.0 207510000000.0 241395000000.0 268569000000.0 287478000000.0 296802000000.0 296101000000.0 287360000000.0 829431000000.0 246804000000.0 237576000000.0 754790000000.0 746170000000.0 672298000000.0 532819000000.0 305371000000.0 92122700000.0 612577000000.0 71190300000.0 71315400000.0 632761000000.0 477098000000.0 440467000000.0 124311000000.0 54297400000.0 102674000000.0 360170000000.0 52999500000.0 129854000000.0 413332000000.0 293190000000.0 157627000000.0 76577200000.0 53604100000.0 66811900000.0 240490000000.0 266740000000.0 108427000000.0 703893000000.0 482455000000.0 373823000000.0 307208000000.0 248192000000.0 189495000000.0 132283000000.0 79602900000.0 34138800000.0 2351390000.0 28891800000.0 45153600000.0 51297300000.0 47793900000.0 35440200000.0 15317400000.0 11312600000.0 43059700000.0 78378000000.0 115573000000.0 277721000000.0 286802000000.0 336602000000.0 351606000000.0 336082000000.0 570882000000.0 169975000000.0 236134000000.0 522748000000.0 685613000000.0 573968000000.0 432286000000.0 217772000000.0 8361080000.0 38432300000.0 491936000000.0 134845000000.0 243612000000.0 477723000000.0 190227000000.0 87357300000.0 266215000000.0 98671700000.0 18584000000.0 272868000000.0 565975000000.0 509157000000.0 352690000000.0 211851000000.0 124495000000.0 111959000000.0 157106000000.0 180788000000.0 179867000000.0 141959000000.0 90995800000.0 668191000000.0 143162000000.0 43666700000.0 134927000000.0 199987000000.0 224193000000.0 233549000000.0 249477000000.0 290934000000.0 389796000000.0 672718000000.0 58752500000.0 624925000000.0 446644000000.0 359799000000.0 293349000000.0 234965000000.0 180587000000.0 130230000000.0 152884000000.0 188548000000.0 220854000000.0 248277000000.0 269671000000.0 284460000000.0 293078000000.0 298165000000.0 306653000000.0 332694000000.0 390503000000.0 448737000000.0 277753000000.0 413198000000.0 409386000000.0 97236400000.0 251585000000.0 479637000000.0 613977000000.0 668805000000.0 652928000000.0 348226000000.0 205157000000.0 11044700000.0 447525000000.0 320195000000.0 410294000000.0 28855500000.0 304174000000.0 109468000000.0 286233000000.0 500658000000.0 615161000000.0 513169000000.0 344914000000.0 224707000000.0 86781900000.0 90697300000.0 129954000000.0 181662000000.0 221607000000.0 251441000000.0 220211000000.0 531070000000.0 122944000000.0 71836600000.0 176629000000.0 219291000000.0 220804000000.0 211475000000.0 204528000000.0 214905000000.0 264272000000.0 407390000000.0 602821000000.0 44202200000.0 455407000000.0 85270800000.0 47339900000.0 17680900000.0 3040790000.0 14658800000.0 17379600000.0 11727800000.0 1505640000.0 21309500000.0 46509000000.0 75781800000.0 107670000000.0 140651000000.0 173218000000.0 203934000000.0 231542000000.0 255182000000.0 274677000000.0 290853000000.0 306263000000.0 326376000000.0 360281000000.0 415736000000.0 475892000000.0 439652000000.0 153071000000.0 300571000000.0 360331000000.0 13352400000.0 264276000000.0 447671000000.0 558309000000.0 603855000000.0 593327000000.0 537732000000.0 453457000000.0 387446000000.0 699057000000.0 278696000000.0 182628000000.0 35920600000.0 87365800000.0 31675700000.0 192786000000.0 262013000000.0 273442000000.0 474828000000.0 532123000000.0 411442000000.0 305031000000.0 146684000000.0 113574000000.0 123497000000.0 181570000000.0 270148000000.0 370004000000.0 457232000000.0 249648000000.0 6147210000.0 51881800000.0 94793700000.0 159779000000.0 180102000000.0 174450000000.0 162691000000.0 160026000000.0 183527000000.0 259907000000.0 395221000000.0 515948000000.0 380928000000.0 315100000000.0 259865000000.0 210599000000.0 165263000000.0 123982000000.0 87730000000.0 57535400000.0 34351900000.0 18840700000.0 11190400000.0 11213900000.0 18441700000.0 32135100000.0 51345700000.0 74982200000.0 101837000000.0 130625000000.0 160061000000.0 188950000000.0 216286000000.0 241417000000.0 264285000000.0 285726000000.0 307863000000.0 334605000000.0 371635000000.0 423032000000.0 478482000000.0 488193000000.0 376230000000.0 63579700000.0 300527000000.0 289981000000.0 47786500000.0 273523000000.0 425375000000.0 517934000000.0 558259000000.0 559233000000.0 537179000000.0 516529000000.0 507746000000.0 218984000000.0 783397000000.0 268849000000.0 365020000000.0 193851000000.0 16223200000.0 172345000000.0 78138300000.0 91462700000.0 288121000000.0 211885000000.0 454488000000.0 233053000000.0 164419000000.0 134140000000.0 172620000000.0 284030000000.0 438128000000.0 606738000000.0 13055200000.0 149216000000.0 138724000000.0 92092100000.0 86653300000.0 114230000000.0 123167000000.0 118858000000.0 114756000000.0 125463000000.0 166810000000.0 244307000000.0 39326800000.0 251443000000.0 264364000000.0 242129000000.0 211321000000.0 178362000000.0 145561000000.0 114529000000.0 86888800000.0 63990600000.0 46787000000.0 35908800000.0 31647100000.0 33902400000.0 42273800000.0 56127000000.0 74622400000.0 96777500000.0 121529000000.0 147802000000.0 174598000000.0 201104000000.0 226817000000.0 251708000000.0 276461000000.0 302683000000.0 332984000000.0 370613000000.0 417386000000.0 299705000000.0 12363900000.0 362707000000.0 407352000000.0 482065000000.0 516528000000.0 521488000000.0 501007000000.0 441176000000.0 177848000000.0 4077700000.0 145252000000.0 106808000000.0 128752000000.0 50339700000.0 220284000000.0 185615000000.0 413621000000.0 336837000000.0 291350000000.0 289170000000.0 192061000000.0 349411000000.0 411961000000.0 113698000000.0 119081000000.0 164913000000.0 172011000000.0 162420000000.0 144995000000.0 124270000000.0 103017000000.0 83256700000.0 66680100000.0 54531100000.0 47547400000.0 46079300000.0 50143300000.0 59436100000.0 466785000000.0 492781000000.0 453498000000.0 175537000000.0 101337000000.0 283936000000.0 460206000000.0 445927000000.0 370903000000.0 149263000000.0 652908000000.0 475552000000.0 407794000000.0 727756000.0 30860400000.0 8340380000.0 96763000000.0 438922000000.0 336618000000.0 304615000000.0 176882000000.0 257575000000.0 435229000000.0 673760000000.0 210212000000.0 276044000000.0 220085000000.0 151958000000.0 96815700000.0 75557600000.0 77177400000.0 77303500000.0 76202200000.0 82582000000.0 107111000000.0 155824000000.0 227002000000.0 315029000000.0 320789000000.0 169753000000.0 31110800000.0 73389800000.0 91245200000.0 112167000000.0 135296000000.0 159798000000.0 184986000000.0 210455000000.0 236190000000.0 262682000000.0 291081000000.0 323144000000.0 360655000000.0 403918000000.0 448050000000.0 478023000000.0 470347000000.0 396007000000.0 229268000000.0 33278100000.0 366237000000.0 73569200000.0 148366000000.0 290575000000.0 385596000000.0 439992000000.0 534565000000.0 373728000000.0 22174600000.0 3601030000.0 101927000000.0 40777900000.0 147767000000.0 199848000000.0 174427000000.0 421196000000.0 331927000000.0 439337000000.0 256115000000.0 274100000000.0 355526000000.0 647478000000.0 335655000000.0 361306000000.0 272291000000.0 196218000000.0 129601000000.0 80587000000.0 55602000000.0 47849100000.0 46241700000.0 50826800000.0 67133000000.0 99903600000.0 149938000000.0 213574000000.0 274833000000.0 236107000000.0 88993900000.0 113367000000.0 119033000000.0 113995000000.0 103135000000.0 89902300000.0 76708700000.0 65305600000.0 57150300000.0 53283000000.0 54152600000.0 59765800000.0 69875700000.0 83983000000.0 101427000000.0 121529000000.0 143632000000.0 167154000000.0 191730000000.0 217336000000.0 244344000000.0 273567000000.0 306179000000.0 343159000000.0 384173000000.0 425372000000.0 456530000000.0 462079000000.0 426368000000.0 334968000000.0 176937000000.0 41092200000.0 310595000000.0 12380700000.0 183874000000.0 287486000000.0 353347000000.0 382682000000.0 374645000000.0 320817000000.0 135983000000.0 421284000000.0 333897000000.0 56655800000.0 339824000000.0 8957970000.0 34635400000.0 38692500000.0 67969000000.0 160804000000.0 148940000000.0 266561000000.0 347989000000.0 332040000000.0 464259000000.0 192798000000.0 333785000000.0 487748000000.0 369260000000.0 392910000000.0 267722000000.0 203297000000.0 145107000000.0 94940300000.0 57903400000.0 36808600000.0 28824300000.0 30035900000.0 40905500000.0 63792000000.0 99833100000.0 146706000000.0 195364000000.0 228945000000.0 160600000000.0 208449000000.0 28766100000.0 33197200000.0 67139000000.0 82716500000.0 86413400000.0 82763300000.0 75197500000.0 66578300000.0 59031500000.0 54102800000.0 52830200000.0 55712600000.0 62776700000.0 73759900000.0 88192200000.0 105532000000.0 125271000000.0 146944000000.0 170208000000.0 194993000000.0 221579000000.0 250556000000.0 282727000000.0 318743000000.0 358212000000.0 398187000000.0 431359000000.0 445465000000.0 427563000000.0 373923000000.0 282204000000.0 146242000000.0 31115500000.0 252569000000.0 80712400000.0 206151000000.0 272173000000.0 303866000000.0 298624000000.0 247423000000.0 95174300000.0 186568000000.0 58206000000.0 29305500000.0 86477700000.0 74294100000.0 86371600000.0 338561000000.0 205020000000.0 352540000000.0 310011000000.0 429763000000.0 150110000000.0 326908000000.0 87883200000.0 91178800000.0 132777000000.0 166026000000.0 141359000000.0 104227000000.0 68884900000.0 41914900000.0 26002600000.0 232165000000.0 69501900000.0 6890070000.0 31872900000.0 53093400000.0 61700900000.0 62094000000.0 57950800000.0 52234600000.0 47346500000.0 44985700000.0 46063500000.0 50878100000.0 59393000000.0 71372600000.0 86380600000.0 103968000000.0 123775000000.0 145518000000.0 169072000000.0 194597000000.0 248567000000.0 132632000000.0 14648700000.0 198886000000.0 212262000000.0 242356000000.0 238984000000.0 198556000000.0 71864900000.0 298497000000.0 292818000000.0 100659000000.0 112121000000.0 64582200000.0 25823700000.0 169731000000.0 259350000000.0 170971000000.0 21113200000.0 26348900000.0 41859200000.0 67685300000.0 102247000000.0 140240000000.0 171410000000.0 181211000000.0 95230600000.0 243601000000.0 96333900000.0 34924500000.0 5234910000.0 28388600000.0 222514000000.0 253426000000.0 287880000000.0 325653000000.0 364750000000.0 400289000000.0 423487000000.0 420948000000.0 382509000000.0 324191000000.0 154958000000.0 129319000000.0 155627000000.0 256769000000.0 140324000000.0 10984200000.0 75186100000.0 119838000000.0 158626000000.0 88494500000.0 321512000000.0 264368000000.0 303536000000.0 255677000000.0 227248000000.0 445704000000.0 285795000000.0 183555000000.0 127571000000.0 87988900000.0 57511800000.0 35752500000.0 24051100000.0 22818300000.0 31126900000.0 48547400000.0 73722000000.0 102539000000.0 128483000000.0 142644000000.0 133833000000.0 39586900000.0 38411900000.0 39499300000.0 36364000000.0 32407600000.0 29752700000.0 29781800000.0 33176100000.0 39979100000.0 50037900000.0 63141800000.0 78940800000.0 97078000000.0 117312000000.0 139515000000.0 163688000000.0 190033000000.0 219020000000.0 251187000000.0 286555000000.0 323983000000.0 360417000000.0 390393000000.0 405588000000.0 390087000000.0 338251000000.0 300609000000.0 232051000000.0 123506000000.0 2000410000.0 157099000000.0 204391000000.0 200965000000.0 160760000000.0 48963100000.0 36685500000.0 138329000000.0 206696000000.0 76725200000.0 105298000000.0 45611500000.0 36359800000.0 125664000000.0 65067500000.0 163568000000.0 113750000000.0 196444000000.0 166112000000.0 296964000000.0 211652000000.0 201704000000.0 38428600000.0 19481800000.0 376401000000.0 236669000000.0 161415000000.0 114219000000.0 79660500000.0 53886500000.0 37057000000.0 28846400000.0 30034100000.0 40110900000.0 56756300000.0 77196400000.0 97150200000.0 110419000000.0 109695000000.0 87316000000.0 7513900000.0 245559000000.0 112685000000.0 54011400000.0 15464100000.0 5872920000.0 13980100000.0 13246800000.0 9307790000.0 6336730000.0 6022690000.0 8742810000.0 14609300000.0 23433600000.0 35104100000.0 49471700000.0 66254400000.0 85218500000.0 106207000000.0 129044000000.0 153671000000.0 180411000000.0 209754000000.0 241943000000.0 276456000000.0 311325000000.0 342905000000.0 366021000000.0 373044000000.0 339345000000.0 307019000000.0 283377000000.0 206315000000.0 105502000000.0 149163000.0 122092000000.0 165348000000.0 191517000000.0 155710000000.0 40940500000.0 97620200000.0 41850300000.0 63887600000.0 16048400000.0 126147000000.0 140946000000.0 165272000000.0 148908000000.0 195941000000.0 204329000000.0 132321000000.0 86584500000.0 75322600000.0 330771000000.0 220381000000.0 154135000000.0 109754000000.0 77468800000.0 55252000000.0 42217500000.0 37339000000.0 39836100000.0 49351900000.0 62258300000.0 75135900000.0 84498800000.0 85582300000.0 72992000000.0 42017600000.0 47695900000.0 240871000000.0 121917000000.0 67889900000.0 34271800000.0 18143500000.0 14285100000.0 18037200000.0 23363100000.0 25448700000.0 23280800000.0 17510900000.0 9096910000.0 1664340000.0 14966900000.0 30772500000.0 48836500000.0 68856400000.0 90566100000.0 113811000000.0 138543000000.0 164955000000.0 193455000000.0 224114000000.0 255798000000.0 285400000000.0 307893000000.0 316619000000.0 298798000000.0 262465000000.0 261117000000.0 229198000000.0 158838000000.0 75050600000.0 7070460000.0 97878500000.0 149841000000.0 183631000000.0 77960100000.0 21823900000.0 101358000000.0 157270000000.0 9211040000.0 5473820000.0 108389000000.0 55429500000.0 88002700000.0 5315440000.0 2550050000.0 46467200000.0 96780700000.0 191062000000.0 169282000000.0 6344270000.0 55174900000.0 4623020000.0 127883000000.0 81230100000.0 56029100000.0 48093300000.0 49160200000.0 53590100000.0 59816300000.0 107761000000.0 41118500000.0 19995900000.0 81286200000.0 33084900000.0 98343500000.0 156380000000.0 147973000000.0 82868700000.0 27313200000.0 22174100000.0 27757800000.0 266570000.0 74221000000.0 112440000000.0 40693900000.0 23333400000.0 275723000000.0 200849000000.0 146935000000.0 102564000000.0 74042200000.0 57254500000.0 49215100000.0 47384200000.0 51069600000.0 55828200000.0 61504900000.0 65372100000.0 63976100000.0 53974800000.0 32527600000.0 2386370000.0 82837100000.0 232915000000.0 61517500000.0 56751200000.0 48162600000.0 37571700000.0 24951300000.0 9844830000.0 7702570000.0 27079900000.0 47972400000.0 70345600000.0 93880600000.0 117985000000.0 142918000000.0 169379000000.0 197313000000.0 224589000000.0 246384000000.0 256726000000.0 248609000000.0 221545000000.0 212585000000.0 209869000000.0 169124000000.0 76119900000.0 112179000000.0 37507800000.0 29053000000.0 26160700000.0 17777200000.0 10255300000.0 38417500000.0 17576300000.0 108602000000.0 145419000000.0 169235000000.0 165527000000.0 178405000000.0 285011000000.0 46652400000.0 36200200000.0 224755000000.0 180304000000.0 128283000000.0 84764300000.0 68287600000.0 60449900000.0 57371800000.0 60155900000.0 57873300000.0 55588400000.0 52556700000.0 46995400000.0 35718600000.0 16145200000.0 11948900000.0 47358900000.0 115682000000.0 226098000000.0 135298000000.0 100491000000.0 88019900000.0 88002200000.0 90419300000.0 92088200000.0 95653600000.0 98541500000.0 93126100000.0 82545300000.0 70220400000.0 55924400000.0 38713300000.0 19516600000.0 1029520000.0 22856100000.0 45847800000.0 69369400000.0 91840500000.0 114152000000.0 138216000000.0 163051000000.0 184267000000.0 196725000000.0 194497000000.0 176451000000.0 167876000000.0 165444000000.0 155271000000.0 111846000000.0 64104000000.0 13245800000.0 35155700000.0 71400800000.0 100228000000.0 7819720000.0 18413000000.0 19246300000.0 989204000.0 34236700000.0 60405300000.0 64701800000.0 43484600000.0 54268400000.0 57632300000.0 34320300000.0 42896700000.0 222025000000.0 13490900000.0 10487300000.0 16689200000.0 40159200000.0 33645000000.0 186557000000.0 147189000000.0 101209000000.0 60489200000.0 63419500000.0 67009800000.0 69648800000.0 62221600000.0 53953600000.0 46192200000.0 35543300000.0 20962400000.0 766714000.0 26541100000.0 59719700000.0 94635800000.0 151508000000.0 226635000000.0 152496000000.0 137270000000.0 137563000000.0 136094000000.0 134724000000.0 131673000000.0 126896000000.0 129812000000.0 129786000000.0 119811000000.0 107283000000.0 90547200000.0 71186300000.0 50615500000.0 28999600000.0 6333120000.0 17357900000.0 40751400000.0 60091200000.0 80450500000.0 103994000000.0 123406000000.0 137191000000.0 138794000000.0 127598000000.0 120342000000.0 118674000000.0 119492000000.0 102442000000.0 69554000000.0 38207400000.0 13840100000.0 8964060000.0 32507600000.0 63779100000.0 739726000.0 57334900000.0 24140600000.0 5923790000.0 23598000000.0 9035750000.0 9035750000.0 71659400000.0 63584800000.0 71177900000.0 35069900000.0 14261100000.0 64957100.0 23576200000.0 21522800000.0 20399800000.0 198666000000.0 205727000000.0 196106000000.0 186735000000.0 177496000000.0 167730000000.0 156071000000.0 146420000000.0 82743500000.0 54696500000.0 42673300000.0 33217200000.0 52233200000.0 41334200000.0 9035750000.0 95196400000.0 26573800000.0 22475100000.0 19884200000.0 16411900000.0 33361600000.0 12658700000.0 86277800000.0 106917000000.0 98189400000.0 151119000000.0 149708000000.0 155062000000.0 147895000000.0 151211000000.0 134785000000.0 99654100000.0 61685100000.0 44721200000.0 36933400000.0 26470500000.0 12135000000.0 8373730000.0 36656700000.0 72042600000.0 111242000000.0 147585000000.0 199253000000.0 244924000000.0 161860000000.0 161522000000.0 146865000000.0 126916000000.0 105972000000.0 83881400000.0 60636500000.0 36558100000.0 12108200000.0 10800500000.0 28917400000.0 55822400000.0 74356500000.0 84964800000.0 87364300000.0 79058200000.0 71968100000.0 69860700000.0 77644900000.0 136227000000.0 3130000000.0 27666600000.0 9476950000.0 2356700000.0 3754530000.0 9867510000.0 40101900000.0 34910100000.0 113411000000.0 31211400000.0 15249700000.0 43454800000.0 32245200000.0 22924500000.0 16103000000.0 4718580000.0 144746000000.0 144218000000.0 136104000000.0 119302000000.0 87625800000.0 67264000000.0 47388100000.0 46151600000.0 40135900000.0 28765800000.0 13285700000.0 10079600000.0 45093300000.0 91970300000.0 145516000000.0 196838000000.0 257815000000.0 302737000000.0 296040000000.0 267421000000.0 244554000000.0 225432000000.0 209024000000.0 192787000000.0 174760000000.0 150183000000.0 135501000000.0 108513000000.0 87561800000.0 68098400000.0 48550800000.0 28541800000.0 7893070000.0 13874500000.0 33629800000.0 36273100000.0 39538500000.0 40687300000.0 41131800000.0 40938200000.0 36575200000.0 32855300000.0 32131900000.0 31928700000.0 39907800000.0 48628900000.0 36445700000.0 40841800000.0 62438000000.0 31865800000.0 22717700000.0 61163500000.0 83299200000.0 64148500000.0 65841300000.0 65943100000.0 64937600000.0 9073610000.0 9035750000.0 9035750000.0 9035750000.0 43129000000.0 44594900000.0 48265600000.0 11961700000.0 5479510000.0 985327000.0 6967290000.0 15461700000.0 12052200000.0 17867700000.0 131706000000.0 15668600000.0 12570700000.0 12653700000.0 48184500000.0 31998300000.0 30776300000.0 30098600000.0 27557800000.0 19965700000.0 13065100000.0 8891680000.0 10896500000.0 24019000000.0 21608300000.0 21032900000.0 19195700000.0 16212200000.0 12464700000.0 7858650000.0 39145900000.0 38489100000.0 38405600000.0 34517200000.0 34362800000.0 30430200000.0 13148400000.0 26886200000.0 38052400000.0 29916500000.0 4519930000.0 12671500000.0 19461100000.0 25701300000.0 7018220000.0 3687460000.0 58414100000.0 75238000000.0 61861500000.0 96158600000.0 129372000000.0 123317000000.0 119046000000.0 134524000000.0 141166000000.0 125011000000.0 116780000000.0 102937000000.0 87153400000.0 70416700000.0 53149200000.0 36809000000.0 23434600000.0 2308700000.0 5412280000.0 15249500000.0 14500900000.0 17458900000.0 21949700000.0 27263400000.0 33966200000.0 38168600000.0 39101100000.0 9035750000.0 9035750000.0 28676600000.0 30364000000.0 32410100000.0 38610900000.0 49429900000.0 40685400000.0 66096300000.0 20398500000.0 4702730000.0 4045990000.0 12642800000.0 20141200000.0 32827700000.0 40687800000.0 22000500000.0 21749700000.0 20074200000.0 16127800000.0 32431700000.0 38138700000.0 34859800000.0 40116200000.0 47155600000.0 53607900000.0 59505300000.0 63229000000.0 63678000000.0 61499800000.0 61233600000.0 65168900000.0 78279000000.0 35381100000.0 47080500000.0 46432600000.0 42737500000.0 38765700000.0 34189300000.0 27439500000.0 20177900000.0 19228300000.0 16777300000.0 15560200000.0 15965200000.0 16360400000.0 16957000000.0 17727900000.0 18673700000.0 19958000000.0 19843100000.0 15479200000.0 17350700000.0 18240200000.0 18912500000.0 19660100000.0 18476100000.0 16946200000.0 17042500000.0 18521800000.0 18439900000.0 19378500000.0 21320900000.0 22978500000.0 32846800000.0 22209100000.0 9035750000.0 55647400000.0 51043400000.0 32773600000.0 34794500000.0 34877900000.0 34164100000.0 9035750000.0 9074070000.0 9035750000.0 9035750000.0 15051100000.0 15685000000.0 12406000000.0 9035750000.0 9061410000.0 9035620000.0 9811560000.0 9035400000.0 31311200000.0 17751300000.0 21393700000.0 20769600000.0 19566000000.0 18665400000.0 17142500000.0 14213000000.0 11965900000.0 12766500000.0 12204800000.0 11954700000.0 12146100000.0 12034000000.0 12316500000.0 13008100000.0 13528300000.0 16473300000.0 13271500000.0 16482800000.0 17117700000.0 17139800000.0 16952600000.0 9035750000.0 9048200000.0 16326300000.0 18248500000.0 21628200000.0 18835300000.0 26944900000.0 10042600000.0 32577200000.0 31429700000.0 30249400000.0 28565600000.0 33050400000.0 32415700000.0 30161800000.0 29789500000.0 29549400000.0 28999900000.0 28207800000.0 27054200000.0 25703100000.0 24495300000.0 24608000000.0 26415100000.0 12282200000.0 12419200000.0 12559100000.0 12727000000.0 12959700000.0 12711000000.0 11339500000.0 12033800000.0 12297900000.0 12439300000.0 12556700000.0 12068500000.0 11587300000.0 11599900000.0 12103700000.0 9035750000.0 23680900000.0 22258700000.0 