# vtk DataFile Version 2.0
Time step 119
ASCII
DATASET UNSTRUCTURED_GRID
POINTS 4650 float
208370.0 219030.0 0
215333.0 218819.0 0
247640.0 217965.0 0
296192.0 218396.0 0
204974.0 221141.0 0
211914.0 220886.0 0
219237.0 219678.0 0
222810.0 221469.0 0
237158.0 220093.0 0
244200.0 219990.0 0
251120.0 219927.0 0
258020.0 219885.0 0
285724.0 220116.0 0
292653.0 220251.0 0
299982.0 221368.0 0
200001.0 223227.0 0
208538.0 223018.0 0
215541.0 222802.0 0
219443.0 223664.0 0
226716.0 222320.0 0
233713.0 222118.0 0
237350.0 224069.0 0
240764.0 222014.0 0
244261.0 223972.0 0
247683.0 221952.0 0
251151.0 223917.0 0
254582.0 221902.0 0
258037.0 223878.0 0
261481.0 221868.0 0
264928.0 223857.0 0
271811.0 223883.0 0
275295.0 221930.0 0
278731.0 223970.0 0
282225.0 222041.0 0
285655.0 224101.0 0
289152.0 222172.0 0
296117.0 222382.0 0
203622.0 224896.0 0
207147.0 226743.0 0
212127.0 224871.0 0
215791.0 226773.0 0
223015.0 225457.0 0
226912.0 226291.0 0
230275.0 224147.0 0
233919.0 226092.0 0
240856.0 225993.0 0
247732.0 225933.0 0
254604.0 225889.0 0
261479.0 225859.0 0
268355.0 225863.0 0
275246.0 225916.0 0
282161.0 226023.0 0
289087.0 226152.0 0
292583.0 224235.0 0
296067.0 226356.0 0
299938.0 225366.0 0
200141.0 227218.0 0
203769.0 228872.0 0
210673.0 228571.0 0
219679.0 227640.0 0
223224.0 229449.0 0
230493.0 228119.0 0
237476.0 228027.0 0
244331.0 227948.0 0
251186.0 227898.0 0
258044.0 227863.0 0
264905.0 227849.0 0
271779.0 227874.0 0
278674.0 227951.0 0
285593.0 228072.0 0
292529.0 228203.0 0
299884.0 229363.0 0
199793.0 231190.0 0
207298.0 230707.0 0
214192.0 230400.0 0
218062.0 231266.0 0
227121.0 230227.0 0
234113.0 230046.0 0
240951.0 229966.0 0
244403.0 231920.0 0
247785.0 229909.0 0
251220.0 231873.0 0
254624.0 229868.0 0
258045.0 231841.0 0
261468.0 229843.0 0
264879.0 231828.0 0
268322.0 229846.0 0
271732.0 231847.0 0
275197.0 229892.0 0
278614.0 231913.0 0
282101.0 229989.0 0
289028.0 230114.0 0
296006.0 230319.0 0
203435.0 232822.0 0
210822.0 232529.0 0
214348.0 234341.0 0
221586.0 233084.0 0
227478.0 234111.0 0
230774.0 232065.0 0
234248.0 234000.0 0
237589.0 231986.0 0
241039.0 233932.0 0
247834.0 233880.0 0
254639.0 233842.0 0
261452.0 233818.0 0
268280.0 233817.0 0
275136.0 233851.0 0
282031.0 233937.0 0
285529.0 232026.0 0
288963.0 234057.0 0
292466.0 232155.0 0
296097.0 234273.0 0
301468.0 233032.0 0
199941.0 235168.0 0
203596.0 236770.0 0
206980.0 234643.0 0
210526.0 236452.0 0
218197.0 235229.0 0
224175.0 236062.0 0
230936.0 236020.0 0
237693.0 235944.0 0
244466.0 235886.0 0
251248.0 235843.0 0
258041.0 235812.0 0
264846.0 235797.0 0
271672.0 235806.0 0
278538.0 235856.0 0
285451.0 235960.0 0
292451.0 236090.0 0
299435.0 236467.0 0
200104.0 239138.0 0
207149.0 238575.0 0
214068.0 238246.0 0
220894.0 238066.0 0
227625.0 238028.0 0
234369.0 237955.0 0
241114.0 237893.0 0
247874.0 237845.0 0
254646.0 237809.0 0
261430.0 237785.0 0
264806.0 239758.0 0
268229.0 237777.0 0
271600.0 239754.0 0
275055.0 237794.0 0
278428.0 239779.0 0
281940.0 237865.0 0
288881.0 237972.0 0
295843.0 238209.0 0
203768.0 240705.0 0
210707.0 240373.0 0
214338.0 242147.0 0
217587.0 240051.0 0
221043.0 241995.0 0
224330.0 240004.0 0
227759.0 241951.0 0
231058.0 239960.0 0
234461.0 241903.0 0
237780.0 239900.0 0
241170.0 241850.0 0
244515.0 239847.0 0
247899.0 241803.0 0
251266.0 239806.0 0
254645.0 241769.0 0
258030.0 239776.0 0
261401.0 241744.0 0
268170.0 241729.0 0
274959.0 241729.0 0
281776.0 241768.0 0
285351.0 239872.0 0
288775.0 241870.0 0
292298.0 240004.0 0
296749.0 242045.0 0
300745.0 240228.0 0
199306.0 243028.0 0
203505.0 244627.0 0
207322.0 242483.0 0
211157.0 244237.0 0
217807.0 244012.0 0
224476.0 243922.0 0
231159.0 243896.0 0
237839.0 243851.0 0
244545.0 243801.0 0
251272.0 243761.0 0
258011.0 243732.0 0
264759.0 243711.0 0
271521.0 243697.0 0
278301.0 243702.0 0
285101.0 243754.0 0
292197.0 243880.0 0
300139.0 244145.0 0
200212.0 246882.0 0
208027.0 246292.0 0
214628.0 246086.0 0
221230.0 245924.0 0
227876.0 245873.0 0
234522.0 245848.0 0
241199.0 245799.0 0
247909.0 245752.0 0
254634.0 245720.0 0
261366.0 245695.0 0
268106.0 245674.0 0
274859.0 245661.0 0
281626.0 245676.0 0
288403.0 245729.0 0
295661.0 245816.0 0
204918.0 248277.0 0
211483.0 248157.0 0
214907.0 250036.0 0
218044.0 247969.0 0
221427.0 249859.0 0
224623.0 247831.0 0
227962.0 249810.0 0
231225.0 247836.0 0
234531.0 249794.0 0
237862.0 247796.0 0
241199.0 249733.0 0
244552.0 247742.0 0
247900.0 249686.0 0
251265.0 247704.0 0
254613.0 249659.0 0
257985.0 247679.0 0
261327.0 249638.0 0
264710.0 247656.0 0
268043.0 249613.0 0
271442.0 247633.0 0
274767.0 249587.0 0
278184.0 247623.0 0
281497.0 249583.0 0
284934.0 247647.0 0
288223.0 249615.0 0
291673.0 247702.0 0
294919.0 249638.0 0
299043.0 247929.0 0
201975.0 250404.0 0
205235.0 252243.0 0
208340.0 250195.0 0
211752.0 252079.0 0
218323.0 251928.0 0
224758.0 251732.0 0
231203.0 251794.0 0
237847.0 251725.0 0
244535.0 251666.0 0
251244.0 251633.0 0
257953.0 251615.0 0
264660.0 251593.0 0
271368.0 251563.0 0
278084.0 251537.0 0
284800.0 251542.0 0
291495.0 251581.0 0
298019.0 251708.0 0
201984.0 254234.0 0
208578.0 254107.0 0
215174.0 253962.0 0
221760.0 253819.0 0
227866.0 253804.0 0
234493.0 253718.0 0
241168.0 253648.0 0
247873.0 253601.0 0
254583.0 253583.0 0
261286.0 253570.0 0
267985.0 253542.0 0
274687.0 253504.0 0
281395.0 253483.0 0
288093.0 253501.0 0
294716.0 253575.0 0
205322.0 256097.0 0
208703.0 257949.0 0
211975.0 255970.0 0
215421.0 257832.0 0
218634.0 255836.0 0
222307.0 257644.0 0
226204.0 257297.0 0
231130.0 255711.0 0
234412.0 257611.0 0
237795.0 255630.0 0
241105.0 257537.0 0
244494.0 255565.0 0
247826.0 257490.0 0
251209.0 255542.0 0
254544.0 257490.0 0
257916.0 255537.0 0
261244.0 257489.0 0
264611.0 255520.0 0
267933.0 257461.0 0
271305.0 255481.0 0
274625.0 257408.0 0
278004.0 255439.0 0
281323.0 257368.0 0
284704.0 255428.0 0
288010.0 257378.0 0
291371.0 255473.0 0
294677.0 257438.0 0
298014.0 255553.0 0
201987.0 258026.0 0
205367.0 259890.0 0
212125.0 259795.0 0
218947.0 259652.0 0
229661.0 259245.0 0
237705.0 259506.0 0
244426.0 259431.0 0
251163.0 259428.0 0
257876.0 259443.0 0
264567.0 259435.0 0
271254.0 259386.0 0
277950.0 259323.0 0
284647.0 259296.0 0
291331.0 259328.0 0
298013.0 259379.0 0
201989.0 261790.0 0
208775.0 261732.0 0
215589.0 261628.0 0
222416.0 261518.0 0
226265.0 261182.0 0
229693.0 263117.0 0
233105.0 261195.0 0
236548.0 263131.0 0
241006.0 261396.0 0
247762.0 261348.0 0
254499.0 261376.0 0
261202.0 261394.0 0
267889.0 261366.0 0
274582.0 261294.0 0
277923.0 263183.0 0
281284.0 261231.0 0
284631.0 263138.0 0
287981.0 261226.0 0
291326.0 263155.0 0
294669.0 261268.0 0
298013.0 263194.0 0
201989.0 265531.0 0
205389.0 263643.0 0
208800.0 265477.0 0
212206.0 263565.0 0
215633.0 265406.0 0
219037.0 263479.0 0
222461.0 265374.0 0
226292.0 265046.0 0
233117.0 265046.0 0
239994.0 265061.0 0
244327.0 263250.0 0
247692.0 265165.0 0
251108.0 263285.0 0
254449.0 265239.0 0
257832.0 263331.0 0
261161.0 265284.0 0
264527.0 263336.0 0
267856.0 265254.0 0
271218.0 263274.0 0
274563.0 265156.0 0
281282.0 265065.0 0
287989.0 265048.0 0
294675.0 265079.0 0
205386.0 267372.0 0
212206.0 267308.0 0
219045.0 267279.0 0
229697.0 266976.0 0
236549.0 266961.0 0
244228.0 266979.0 0
251048.0 267115.0 0
257784.0 267200.0 0
264490.0 267223.0 0
271202.0 267140.0 0
277932.0 267013.0 0
284657.0 266951.0 0
291346.0 266962.0 0
298014.0 267000.0 0
201988.0 269261.0 0
208770.0 269201.0 0
215599.0 269156.0 0
222443.0 269193.0 0
226280.0 268903.0 0
229682.0 270817.0 0
233114.0 268880.0 0
237488.0 270610.0 0
240833.0 268759.0 0
244227.0 270762.0 0
247625.0 268950.0 0
250984.0 270925.0 0
254391.0 269080.0 0
261114.0 269158.0 0
267833.0 269123.0 0
271213.0 270976.0 0
274579.0 268989.0 0
277997.0 270803.0 0
281328.0 268867.0 0
284735.0 270739.0 0
288032.0 268849.0 0
291387.0 270762.0 0
294691.0 268882.0 0
298016.0 270803.0 0
201986.0 272991.0 0
205362.0 271097.0 0
208704.0 272927.0 0
212125.0 271029.0 0
215433.0 272865.0 0
218980.0 271047.0 0
222386.0 272962.0 0
226251.0 272761.0 0
234184.0 272481.0 0
240871.0 272574.0 0
247587.0 272747.0 0
254314.0 272906.0 0
257721.0 271053.0 0
261045.0 273016.0 0
264448.0 271094.0 0
267811.0 272958.0 0
274653.0 272781.0 0
281461.0 272633.0 0
288107.0 272643.0 0
294716.0 272683.0 0
205326.0 274828.0 0
212003.0 274763.0 0
218647.0 274732.0 0
230926.0 274364.0 0
237556.0 274426.0 0
244217.0 274563.0 0
250913.0 274734.0 0
257619.0 274890.0 0
264379.0 274950.0 0
271243.0 274760.0 0
278227.0 274528.0 0
284856.0 274526.0 0
291442.0 274563.0 0
298017.0 274607.0 0
201984.0 276727.0 0
205291.0 278570.0 0
208628.0 276669.0 0
211885.0 278523.0 0
215238.0 276619.0 0
218414.0 278504.0 0
221754.0 276597.0 0
224778.0 278401.0 0
227727.0 276265.0 0
231061.0 278202.0 0
234283.0 276301.0 0
237596.0 278251.0 0
240886.0 276392.0 0
244181.0 278373.0 0
247531.0 276551.0 0
250808.0 278546.0 0
254204.0 276728.0 0
257456.0 278733.0 0
260900.0 276854.0 0
264153.0 278778.0 0
267783.0 276740.0 0
272072.0 278341.0 0
275099.0 276450.0 0
278503.0 278312.0 0
281646.0 276411.0 0
284988.0 278330.0 0
288197.0 276445.0 0
291499.0 278372.0 0
294744.0 276488.0 0
298019.0 278415.0 0
201982.0 280469.0 0
208562.0 280423.0 0
215100.0 280398.0 0
221563.0 280391.0 0
227950.0 280198.0 0
234348.0 280138.0 0
240872.0 280215.0 0
247440.0 280362.0 0
254040.0 280557.0 0
260662.0 280707.0 0
269103.0 280153.0 0
275418.0 280227.0 0
281824.0 280225.0 0
288284.0 280259.0 0
294771.0 280300.0 0
205261.0 282320.0 0
211800.0 282290.0 0
218294.0 282287.0 0
224757.0 282215.0 0
227955.0 284041.0 0
231158.0 282077.0 0
234372.0 283987.0 0
237602.0 282084.0 0
240827.0 284044.0 0
244114.0 282194.0 0
250652.0 282365.0 0
257205.0 282602.0 0
263088.0 283436.0 0
266130.0 281846.0 0
269276.0 283929.0 0
272357.0 282115.0 0
275590.0 284037.0 0
278700.0 282133.0 0
285102.0 282153.0 0
291549.0 282189.0 0
298021.0 282225.0 0
201980.0 284212.0 0
205240.0 286067.0 0
208514.0 284180.0 0
211748.0 286050.0 0
215019.0 284170.0 0
218238.0 286046.0 0
221504.0 284156.0 0
224716.0 285996.0 0
231150.0 285913.0 0
237574.0 285920.0 0
244019.0 286023.0 0
247315.0 284187.0 0
250462.0 286209.0 0
253795.0 284400.0 0
256750.0 286578.0 0
259964.0 284994.0 0
266145.0 285635.0 0
272462.0 285901.0 0
278807.0 285957.0 0
281948.0 284055.0 0
285178.0 285981.0 0
288353.0 284083.0 0
291586.0 286008.0 0
294793.0 284114.0 0
298022.0 286035.0 0
201979.0 287951.0 0
208483.0 287929.0 0
214974.0 287923.0 0
221457.0 287909.0 0
227915.0 287844.0 0
234337.0 287816.0 0
240755.0 287876.0 0
247171.0 288028.0 0
253513.0 288308.0 0
259760.0 288842.0 0
262969.0 287255.0 0
269295.0 287689.0 0
275654.0 287838.0 0
282014.0 287880.0 0
288396.0 287906.0 0
294808.0 287927.0 0
201978.0 291682.0 0
205226.0 289807.0 0
208461.0 291666.0 0
211714.0 289796.0 0
214939.0 291662.0 0
218195.0 289792.0 0
221409.0 291653.0 0
224666.0 289761.0 0
227858.0 291623.0 0
231101.0 289721.0 0
234271.0 291625.0 0
237509.0 289745.0 0
240662.0 291701.0 0
243908.0 289858.0 0
250268.0 290080.0 0
256553.0 290471.0 0
262865.0 291025.0 0
266090.0 289389.0 0
269256.0 291430.0 0
272471.0 289669.0 0
275653.0 291617.0 0
278844.0 289765.0 0
282031.0 291688.0 0
285214.0 289802.0 0
288412.0 291718.0 0
291606.0 289823.0 0
294814.0 291731.0 0
298023.0 289838.0 0
205215.0 293535.0 0
211688.0 293527.0 0
218155.0 293526.0 0
224609.0 293514.0 0
231033.0 293508.0 0
237425.0 293555.0 0
243791.0 293688.0 0
247026.0 291875.0 0
250122.0 293930.0 0
253341.0 292180.0 0
256430.0 294307.0 0
259643.0 292650.0 0
266020.0 293125.0 0
272435.0 293417.0 0
278833.0 293551.0 0
285217.0 293606.0 0
291610.0 293625.0 0
298023.0 293628.0 0
201977.0 295401.0 0
208444.0 295389.0 0
214906.0 295388.0 0
221360.0 295389.0 0
227792.0 295387.0 0
234191.0 295416.0 0
240561.0 295514.0 0
246901.0 295706.0 0
253219.0 296012.0 0
259553.0 296430.0 0
262782.0 294779.0 0
265949.0 296853.0 0
269196.0 295160.0 0
275615.0 295375.0 0
282013.0 295476.0 0
288405.0 295514.0 0
294812.0 295519.0 0
201976.0 299108.0 0
205206.0 297249.0 0
208427.0 299099.0 0
211663.0 297245.0 0
214873.0 299103.0 0
218114.0 297250.0 0
221309.0 299115.0 0
224550.0 297257.0 0
227723.0 299136.0 0
230957.0 297278.0 0
234106.0 299192.0 0
237333.0 297350.0 0
240460.0 299310.0 0
243680.0 297501.0 0
246791.0 299512.0 0
250006.0 297750.0 0
256333.0 298104.0 0
262705.0 298521.0 0
269126.0 298881.0 0
272377.0 297152.0 0
275556.0 299117.0 0
278793.0 297317.0 0
281971.0 299244.0 0
285194.0 297390.0 0
288380.0 299289.0 0
291599.0 297407.0 0
294804.0 299284.0 0
298024.0 297399.0 0
205198.0 300951.0 0
211639.0 300951.0 0
218072.0 300964.0 0
224488.0 300988.0 0
230879.0 301034.0 0
237240.0 301128.0 0
243576.0 301292.0 0
249902.0 301541.0 0
253117.0 299809.0 0
256242.0 301872.0 0
259469.0 300188.0 0
262622.0 302250.0 0
265872.0 300574.0 0
272305.0 300875.0 0
278734.0 301064.0 0
285151.0 301154.0 0
291576.0 301167.0 0
298023.0 301145.0 0
201975.0 302802.0 0
205189.0 304639.0 0
208411.0 302795.0 0
211614.0 304644.0 0
214840.0 302806.0 0
218029.0 304667.0 0
221257.0 302831.0 0
224427.0 304707.0 0
227652.0 302873.0 0
230800.0 304775.0 0
234019.0 302951.0 0
237147.0 304887.0 0
240361.0 303085.0 0
246688.0 303293.0 0
253020.0 303579.0 0
259380.0 303927.0 0
265785.0 304286.0 0
269045.0 302594.0 0
272219.0 304587.0 0
275482.0 302845.0 0
278657.0 304794.0 0
281911.0 302992.0 0
288338.0 303040.0 0
294788.0 303023.0 0
298023.0 304860.0 0
201974.0 306482.0 0
208394.0 306479.0 0
214807.0 306498.0 0
221205.0 306536.0 0
227582.0 306597.0 0
233933.0 306693.0 0
240265.0 306841.0 0
243476.0 305061.0 0
246586.0 307051.0 0
249801.0 305306.0 0
252918.0 307325.0 0
256145.0 305617.0 0
262528.0 305967.0 0
268951.0 306297.0 0
275392.0 306558.0 0
281833.0 306722.0 0
285091.0 304896.0 0
288282.0 306768.0 0
291541.0 304899.0 0
294767.0 306729.0 0
205180.0 308313.0 0
211589.0 308325.0 0
217987.0 308359.0 0
224366.0 308415.0 0
230722.0 308501.0 0
237055.0 308629.0 0
243375.0 308810.0 0
249696.0 309050.0 0
256038.0 309344.0 0
259279.0 307650.0 0
262417.0 309671.0 0
265682.0 307987.0 0
268836.0 309989.0 0
272117.0 308287.0 0
278563.0 308509.0 0
285013.0 308619.0 0
291494.0 308599.0 0
298022.0 308538.0 0
201973.0 310149.0 0
205172.0 311975.0 0
208378.0 310150.0 0
211565.0 311993.0 0
214773.0 310177.0 0
217945.0 312038.0 0
221154.0 310229.0 0
224306.0 312111.0 0
227512.0 310307.0 0
230645.0 312213.0 0
233848.0 310420.0 0
236964.0 312354.0 0
240167.0 310579.0 0
243272.0 312541.0 0
246481.0 310790.0 0
252806.0 311053.0 0
259161.0 311358.0 0
265557.0 311677.0 0
271992.0 311974.0 0
275282.0 310257.0 0
278449.0 312208.0 0
281737.0 310435.0 0
284916.0 312325.0 0
288208.0 310469.0 0
291434.0 312262.0 0
294739.0 310396.0 0
298021.0 312173.0 0
201972.0 313802.0 0
208362.0 313807.0 0
214741.0 313844.0 0
221103.0 313910.0 0
227444.0 314005.0 0
233764.0 314133.0 0
240068.0 314300.0 0
246369.0 314512.0 0
249583.0 312777.0 0
252682.0 314767.0 0
255915.0 313056.0 0
259022.0 315055.0 0
262283.0 313363.0 0
265404.0 315356.0 0
268696.0 313669.0 0
275148.0 313941.0 0
281618.0 314134.0 0
288115.0 314143.0 0
294704.0 314015.0 0
201971.0 317440.0 0
205164.0 315622.0 0
208346.0 317450.0 0
211541.0 315647.0 0
214710.0 317498.0 0
217905.0 315706.0 0
221055.0 317579.0 0
224248.0 315794.0 0
227378.0 317691.0 0
230569.0 315913.0 0
233679.0 317833.0 0
236871.0 316065.0 0
243164.0 316257.0 0
249461.0 316489.0 0
255776.0 316757.0 0
262124.0 317046.0 0
268520.0 317335.0 0
271836.0 315645.0 0
274977.0 317606.0 0
278307.0 315891.0 0
284793.0 316019.0 0
287997.0 317785.0 0
291359.0 315879.0 0
294664.0 317576.0 0
298019.0 315757.0 0
302245.0 316153.0 0
205156.0 319255.0 0
211518.0 319289.0 0
217866.0 319360.0 0
224191.0 319465.0 0
230493.0 319600.0 0
236776.0 319764.0 0
239966.0 318009.0 0
243050.0 319961.0 0
246250.0 318222.0 0
249327.0 320192.0 0
252545.0 318470.0 0
255619.0 320451.0 0
258862.0 318744.0 0
265218.0 319027.0 0
271630.0 319299.0 0
278124.0 319552.0 0
281472.0 317820.0 0
284644.0 319713.0 0
291273.0 319434.0 0
298018.0 319287.0 0
201970.0 321064.0 0
205148.0 322873.0 0
208331.0 321079.0 0
211497.0 322916.0 0
214680.0 321139.0 0
217828.0 323002.0 0
221008.0 321236.0 0
227312.0 321364.0 0
233594.0 321521.0 0
239860.0 321706.0 0
246123.0 321921.0 0
252394.0 322165.0 0
258683.0 322430.0 0
261939.0 320725.0 0
265001.0 322698.0 0
268301.0 320995.0 0
271367.0 322946.0 0
274733.0 321244.0 0
277822.0 323169.0 0
281287.0 321488.0 0
287870.0 321386.0 0
291241.0 322906.0 0
294632.0 321065.0 0
298022.0 322770.0 0
201970.0 324673.0 0
208317.0 324694.0 0
214651.0 324766.0 0
220963.0 324880.0 0
224136.0 323125.0 0
227248.0 325027.0 0
230418.0 323276.0 0
233508.0 325199.0 0
236680.0 323453.0 0
239750.0 325394.0 0
242931.0 323656.0 0
245987.0 325613.0 0
249183.0 323886.0 0
255447.0 324140.0 0
261731.0 324405.0 0
268044.0 324659.0 0
274406.0 324879.0 0
280876.0 325076.0 0
284476.0 323428.0 0
287861.0 324902.0 0
294744.0 324490.0 0
302175.0 324237.0 0
201969.0 328267.0 0
205140.0 326476.0 0
208303.0 328293.0 0
211476.0 326528.0 0
217793.0 326631.0 0
224083.0 326773.0 0
230344.0 326943.0 0
236580.0 327133.0 0
242804.0 327343.0 0
249028.0 327575.0 0
252230.0 325855.0 0
255261.0 327828.0 0
258486.0 326116.0 0
261507.0 328090.0 0
264760.0 326375.0 0
267763.0 328339.0 0
271058.0 326608.0 0
277398.0 326793.0 0
283780.0 327035.0 0
285940.0 329530.0 0
291605.0 326241.0 0
294886.0 328011.0 0
298029.0 326277.0 0
205133.0 330064.0 0
211456.0 330126.0 0
214624.0 328378.0 0
217759.0 330245.0 0
220921.0 328512.0 0
224032.0 330410.0 0
227186.0 328680.0 0
230271.0 330601.0 0
233421.0 328870.0 0
236479.0 330808.0 0
239635.0 329076.0 0
245842.0 329299.0 0
252053.0 329542.0 0
258276.0 329802.0 0
264505.0 330064.0 0
270729.0 330298.0 0
274029.0 328544.0 0
276928.0 330487.0 0
280284.0 328725.0 0
282850.0 330894.0 0
288788.0 328079.0 0
291896.0 329839.0 0
298035.0 329835.0 0
201968.0 331845.0 0
208289.0 331877.0 0
214598.0 331976.0 0
220880.0 332131.0 0
227126.0 332324.0 0
233335.0 332535.0 0
239516.0 332755.0 0
242671.0 331027.0 0
245686.0 332983.0 0
248861.0 331260.0 0
251862.0 333226.0 0
255061.0 331513.0 0
258051.0 333489.0 0
261270.0 331780.0 0
267473.0 332040.0 0
273644.0 332259.0 0
279681.0 332529.0 0
285663.0 333123.0 0
288842.0 331620.0 0
294964.0 331624.0 0
197757.0 335780.0 0
201967.0 335409.0 0
205126.0 333637.0 0
208276.0 335445.0 0
211436.0 333707.0 0
214572.0 335558.0 0
217727.0 333846.0 0
220841.0 335737.0 0
223984.0 334035.0 0
227069.0 335959.0 0
230200.0 334253.0 0
236377.0 334480.0 0
242530.0 334708.0 0
248680.0 334944.0 0
254844.0 335196.0 0
261022.0 335471.0 0
264242.0 333763.0 0
267186.0 335757.0 0
270403.0 334021.0 0
273284.0 336016.0 0
276482.0 334256.0 0
279331.0 336278.0 0
282497.0 334626.0 0
285462.0 336682.0 0
288674.0 335112.0 0
291869.0 333420.0 0
294929.0 335198.0 0
298037.0 333414.0 0
205118.0 337194.0 0
211416.0 337273.0 0
217696.0 337430.0 0
223939.0 337649.0 0
230132.0 337899.0 0
233251.0 336197.0 0
236276.0 338152.0 0
239395.0 336433.0 0
242384.0 338394.0 0
245519.0 336667.0 0
248482.0 338629.0 0
251651.0 336908.0 0
257807.0 337171.0 0
263973.0 337465.0 0
270095.0 337768.0 0
276158.0 338009.0 0
282270.0 338277.0 0
288536.0 338599.0 0
291754.0 336933.0 0
298036.0 336950.0 0
201966.0 338959.0 0
205110.0 340737.0 0
208261.0 338998.0 0
211395.0 340822.0 0
214546.0 339123.0 0
217664.0 340998.0 0
220804.0 339328.0 0
223896.0 341251.0 0
227016.0 339584.0 0
233170.0 339856.0 0
239273.0 340116.0 0
245344.0 340358.0 0
251415.0 340591.0 0
254601.0 338875.0 0
257530.0 340845.0 0
260754.0 339155.0 0
263689.0 341155.0 0
266903.0 339479.0 0
272986.0 339775.0 0
279086.0 339968.0 0
285314.0 340218.0 0
291666.0 340408.0 0
294873.0 338705.0 0
298033.0 340436.0 0
201965.0 342495.0 0
208245.0 342535.0 0
214519.0 342671.0 0
220769.0 342902.0 0
226966.0 343200.0 0
230069.0 341540.0 0
233094.0 343514.0 0
236179.0 341826.0 0
239154.0 343807.0 0
242237.0 342088.0 0
248270.0 342325.0 0
254318.0 342551.0 0
260445.0 342820.0 0
266619.0 343182.0 0
269816.0 341517.0 0
272730.0 343525.0 0
275905.0 341729.0 0
278904.0 343608.0 0
282106.0 341875.0 0
285214.0 343726.0 0
288439.0 342071.0 0
291612.0 343852.0 0
294835.0 342164.0 0
201964.0 346020.0 0
205100.0 344266.0 0
208226.0 346057.0 0
211371.0 344355.0 0
214489.0 346201.0 0
217633.0 344548.0 0
220733.0 346458.0 0
223856.0 344837.0 0
230011.0 345175.0 0
236087.0 345505.0 0
242092.0 345797.0 0
245165.0 344065.0 0
248053.0 346042.0 0
251159.0 344290.0 0
254008.0 346248.0 0
257189.0 344505.0 0
260024.0 346446.0 0
263358.0 344808.0 0
269549.0 345259.0 0
275705.0 345414.0 0
282000.0 345425.0 0
288385.0 345523.0 0
294814.0 345590.0 0
298032.0 343881.0 0
205089.0 347784.0 0
211345.0 347871.0 0
217599.0 348076.0 0
223818.0 348407.0 0
226921.0 346805.0 0
229958.0 348803.0 0
233024.0 347172.0 0
239041.0 347509.0 0
244988.0 347792.0 0
250896.0 348017.0 0
256811.0 348194.0 0
262813.0 348365.0 0
266292.0 346831.0 0
269263.0 348972.0 0
272508.0 347267.0 0
275602.0 349045.0 0
278796.0 347195.0 0
281976.0 348933.0 0
285168.0 347205.0 0
288368.0 348958.0 0
291587.0 347274.0 0
294805.0 348991.0 0
298032.0 347295.0 0
201963.0 349537.0 0
205077.0 351291.0 0
208206.0 349566.0 0
211316.0 351371.0 0
214457.0 349710.0 0
217563.0 351579.0 0
220698.0 349991.0 0
226878.0 350396.0 0
232960.0 350829.0 0
236001.0 349189.0 0
238934.0 351224.0 0
241953.0 349524.0 0
244816.0 351545.0 0
247837.0 349789.0 0
250638.0 351783.0 0
253692.0 349985.0 0
259563.0 350121.0 0
265517.0 350246.0 0
272436.0 350982.0 0
278822.0 350729.0 0
285175.0 350666.0 0
291583.0 350682.0 0
298032.0 350683.0 0
201962.0 353046.0 0
208183.0 353063.0 0
214422.0 353200.0 0
220663.0 353499.0 0
223781.0 351956.0 0
226839.0 353970.0 0
229908.0 352422.0 0
235919.0 352880.0 0
241818.0 353271.0 0
247628.0 353569.0 0
253389.0 353769.0 0
256439.0 351939.0 0
259133.0 353876.0 0
262250.0 352027.0 0
264808.0 353961.0 0
267933.0 352168.0 0
270387.0 353774.0 0
275754.0 352614.0 0
278949.0 354283.0 0
282023.0 352430.0 0
285219.0 354126.0 0
288382.0 352385.0 0
291593.0 354080.0 0
294805.0 352375.0 0
298032.0 354048.0 0
201961.0 356549.0 0
205064.0 354789.0 0
208163.0 356545.0 0
211287.0 354856.0 0
214388.0 356671.0 0
217527.0 355055.0 0
220629.0 356976.0 0
223747.0 355481.0 0
229859.0 356033.0 0
232897.0 354484.0 0
235835.0 356576.0 0
238828.0 354952.0 0
244648.0 355326.0 0
250389.0 355589.0 0
256093.0 355740.0 0
261759.0 355816.0 0
267421.0 355834.0 0
273191.0 354901.0 0
276109.0 356377.0 0
282113.0 355940.0 0
288412.0 355811.0 0
294808.0 355743.0 0
205053.0 358276.0 0
211262.0 358327.0 0
217489.0 358498.0 0
223710.0 358982.0 0
226798.0 357528.0 0
232829.0 358138.0 0
238715.0 358694.0 0
241681.0 357039.0 0
244475.0 359135.0 0
247423.0 357383.0 0
250150.0 359432.0 0
253104.0 357597.0 0
255781.0 359586.0 0
258752.0 357698.0 0
261418.0 359618.0 0
264409.0 357717.0 0
267226.0 359432.0 0
270287.0 357332.0 0
273189.0 358606.0 0
279125.0 357909.0 0
282198.0 359470.0 0
285275.0 357592.0 0
288436.0 359238.0 0
291605.0 357474.0 0
294806.0 359091.0 0
298033.0 357387.0 0
201960.0 360045.0 0
205048.0 361747.0 0
208149.0 360010.0 0
211252.0 361787.0 0
214353.0 360132.0 0
217459.0 361902.0 0
220596.0 360419.0 0
226753.0 361069.0 0
229802.0 359634.0 0
232743.0 361793.0 0
235737.0 360280.0 0
241531.0 360828.0 0
247217.0 361228.0 0
252839.0 361461.0 0
258455.0 361535.0 0
264184.0 361417.0 0
270138.0 360883.0 0
273069.0 362203.0 0
276127.0 360016.0 0
279126.0 361461.0 0
285303.0 361058.0 0
291600.0 360863.0 0
298033.0 360687.0 0
201960.0 363532.0 0
208164.0 363450.0 0
214350.0 363593.0 0
220584.0 363824.0 0
223680.0 362456.0 0
226698.0 364601.0 0
229729.0 363231.0 0
235608.0 363992.0 0
238578.0 362450.0 0
241351.0 364634.0 0
244288.0 362967.0 0
249917.0 363305.0 0
255520.0 363451.0 0
261190.0 363393.0 0
267053.0 363025.0 0
269977.0 364436.0 0
276027.0 363563.0 0
282171.0 362951.0 0
285238.0 364490.0 0
288419.0 362660.0 0
291545.0 364241.0 0
294786.0 362402.0 0
298031.0 363926.0 0
201961.0 366994.0 0
205068.0 365186.0 0
208252.0 366834.0 0
211308.0 365240.0 0
214452.0 367089.0 0
217472.0 365255.0 0
220586.0 367203.0 0
223650.0 365915.0 0
229619.0 366833.0 0
232620.0 365453.0 0
238395.0 366218.0 0
244073.0 366815.0 0
247000.0 365096.0 0
249689.0 367193.0 0
252603.0 365344.0 0
255313.0 367314.0 0
258238.0 365363.0 0
261028.0 367153.0 0
264012.0 365099.0 0
266907.0 366626.0 0
272922.0 365748.0 0
275890.0 367057.0 0
279025.0 364939.0 0
282052.0 366378.0 0
288309.0 366059.0 0
294730.0 365637.0 0
205123.0 368543.0 0
208687.0 370013.0 0
211597.0 368666.0 0
217509.0 368566.0 0
223611.0 369373.0 0
226613.0 368137.0 0
232417.0 369128.0 0
235416.0 367716.0 0
238147.0 369991.0 0
241125.0 368449.0 0
246765.0 368974.0 0
252393.0 369227.0 0
258086.0 369181.0 0
263896.0 368780.0 0
269846.0 367994.0 0
272805.0 369274.0 0
278881.0 368366.0 0
281875.0 369773.0 0
285081.0 367890.0 0
288084.0 369443.0 0
291391.0 367594.0 0
294569.0 368709.0 0
298026.0 367064.0 0
201986.0 370404.0 0
205871.0 371549.0 0
211969.0 372141.0 0
214662.0 370771.0 0
217624.0 371774.0 0
220618.0 370563.0 0
226379.0 371714.0 0
229404.0 370459.0 0
235143.0 371444.0 0
240838.0 372262.0 0
243818.0 370667.0 0
249459.0 371079.0 0
255155.0 371162.0 0
260939.0 370907.0 0
263875.0 372459.0 0
266830.0 370239.0 0
269803.0 371563.0 0
272796.0 372810.0 0
275778.0 370533.0 0
278764.0 371773.0 0
284812.0 371275.0 0
291029.0 370918.0 0
294842.0 371557.0 0
298035.0 370034.0 0
201928.0 373533.0 0
204545.0 373902.0 0
207450.0 375139.0 0
209312.0 373168.0 0
213764.0 374987.0 0
216820.0 374668.0 0
220230.0 374016.0 0
223332.0 372898.0 0
226006.0 375281.0 0
229074.0 374091.0 0
232117.0 372811.0 0
234776.0 375170.0 0
237821.0 373760.0 0
243511.0 374511.0 0
246501.0 372849.0 0
249211.0 374948.0 0
252199.0 373090.0 0
255035.0 374970.0 0
258003.0 372979.0 0
260943.0 374646.0 0
266881.0 373863.0 0
269936.0 375151.0 0
275800.0 374029.0 0
278805.0 375190.0 0
281731.0 373186.0 0
284571.0 374761.0 0
287619.0 372822.0 0
289606.0 374806.0 0
292504.0 373496.0 0
298041.0 372996.0 0
299344.0 375852.0 0
196916.0 379196.0 0
199572.0 377550.0 0
202094.0 376664.0 0
204995.0 377141.0 0
210854.0 376369.0 0
216421.0 377871.0 0
219598.0 377206.0 0
222878.0 376367.0 0
228640.0 377711.0 0
231716.0 376491.0 0
237401.0 377514.0 0
240478.0 376059.0 0
246191.0 376710.0 0
252007.0 376907.0 0
257983.0 376738.0 0
263980.0 376116.0 0
267119.0 377473.0 0
273027.0 376374.0 0
276105.0 377582.0 0
281830.0 376664.0 0
286620.0 376764.0 0
292526.0 376589.0 0
295664.0 374926.0 0
295753.0 377825.0 0
298528.0 379001.0 0
301643.0 378304.0 0
194135.0 380932.0 0
199734.0 380649.0 0
202544.0 379967.0 0
205506.0 380040.0 0
208262.0 378327.0 0
210795.0 380186.0 0
213475.0 378673.0 0
219093.0 380509.0 0
222290.0 379709.0 0
225515.0 378800.0 0
231228.0 380177.0 0
234304.0 378892.0 0
240021.0 379823.0 0
243136.0 378334.0 0
248925.0 378782.0 0
254946.0 378703.0 0
258023.0 380439.0 0
261033.0 378343.0 0
264209.0 379692.0 0
270354.0 378723.0 0
273576.0 379966.0 0
276942.0 381102.0 0
279253.0 378576.0 0
283645.0 379008.0 0
286605.0 380321.0 0
289436.0 378221.0 0
292461.0 379628.0 0
295390.0 380978.0 0
298359.0 381870.0 0
301462.0 381236.0 0
304483.0 380078.0 0
307437.0 381898.0 0
188927.0 384198.0 0
191508.0 382584.0 0
194028.0 384230.0 0
196724.0 382251.0 0
199330.0 383765.0 0
202004.0 383343.0 0
208024.0 381848.0 0
213105.0 382446.0 0
216000.0 381309.0 0
221671.0 383091.0 0
224896.0 382239.0 0
228113.0 381300.0 0
233758.0 382648.0 0
236850.0 381249.0 0
242663.0 382118.0 0
245816.0 380551.0 0
248581.0 382570.0 0
251789.0 380648.0 0
254837.0 382307.0 0
261223.0 381977.0 0
267628.0 380987.0 0
264964.0 383007.0 0
270801.0 382300.0 0
273953.0 383407.0 0
277154.0 384286.0 0
280670.0 381273.0 0
283747.0 382502.0 0
286935.0 383782.0 0
289649.0 381611.0 0
292817.0 382899.0 0
299437.0 384392.0 0
302380.0 383977.0 0
304814.0 383124.0 0
310382.0 383753.0 0
184095.0 387217.0 0
186445.0 385746.0 0
191138.0 385997.0 0
196903.0 385464.0 0
200249.0 386693.0 0
204831.0 382963.0 0
206973.0 385144.0 0
210210.0 383889.0 0
212434.0 386087.0 0
215438.0 384896.0 0
218494.0 383920.0 0
224161.0 385674.0 0
227432.0 384807.0 0
230675.0 383861.0 0
236235.0 385044.0 0
239381.0 383519.0 0
241860.0 385769.0 0
245354.0 384372.0 0
251531.0 384288.0 0
257993.0 384054.0 0
262503.0 385061.0 0
268257.0 384683.0 0
271340.0 385982.0 0
280333.0 384547.0 0
283314.0 385642.0 0
286096.0 386732.0 0
290188.0 384902.0 0
293263.0 386077.0 0
296030.0 384275.0 0
298547.0 387036.0 0
301923.0 386804.0 0
304990.0 386496.0 0
307646.0 384826.0 0
310464.0 386899.0 0
313193.0 385503.0 0
181630.0 388754.0 0
185310.0 389561.0 0
188106.0 387758.0 0
190848.0 389024.0 0
193977.0 387298.0 0
196987.0 388226.0 0
203569.0 386094.0 0
205935.0 388266.0 0
209263.0 387260.0 0
214610.0 388459.0 0
217736.0 387422.0 0
220913.0 386516.0 0
226579.0 388275.0 0
229919.0 387414.0 0
233227.0 386471.0 0
238660.0 387283.0 0
244208.0 387888.0 0
248282.0 386314.0 0
251426.0 387886.0 0
254639.0 385753.0 0
257239.0 388033.0 0
259936.0 386716.0 0
262650.0 388643.0 0
265678.0 386557.0 0
268898.0 388654.0 0
274622.0 386867.0 0
277960.0 387523.0 0
281050.0 388191.0 0
288950.0 387528.0 0
291848.0 388546.0 0
295940.0 387545.0 0
300553.0 389383.0 0
303914.0 389393.0 0
307766.0 387797.0 0
313125.0 388479.0 0
316025.0 387282.0 0
318903.0 389067.0 0
176200.0 392139.0 0
178967.0 390417.0 0
182311.0 391365.0 0
188208.0 390911.0 0
191175.0 392297.0 0
193604.0 390172.0 0
196252.0 391054.0 0
199508.0 389901.0 0
202603.0 389095.0 0
204750.0 391406.0 0
208111.0 390515.0 0
211419.0 389529.0 0
216755.0 390924.0 0
219980.0 389981.0 0
223255.0 389114.0 0
228915.0 390908.0 0
232339.0 390067.0 0
235760.0 389154.0 0
240913.0 389623.0 0
246809.0 389548.0 0
249523.0 390801.0 0
254461.0 389280.0 0
259679.0 390463.0 0
265724.0 389763.0 0
272302.0 389523.0 0
275708.0 390260.0 0
279003.0 390991.0 0
284075.0 389270.0 0
287186.0 390190.0 0
290212.0 391088.0 0
294685.0 389903.0 0
297997.0 390587.0 0
301722.0 391891.0 0
306763.0 390111.0 0
310213.0 390173.0 0
313360.0 391256.0 0
316122.0 390297.0 0
319543.0 391624.0 0
322152.0 391097.0 0
173251.0 393984.0 0
176274.0 394916.0 0
179364.0 393243.0 0
182292.0 394349.0 0
185190.0 392560.0 0
188068.0 393896.0 0
194238.0 393491.0 0
198103.0 393052.0 0
201442.0 392287.0 0
206857.0 393723.0 0
210207.0 392843.0 0
213514.0 391903.0 0
218849.0 393447.0 0
222160.0 392565.0 0
225516.0 391729.0 0
231089.0 393615.0 0
234532.0 392846.0 0
237931.0 392077.0 0
241084.0 393234.0 0
243887.0 391619.0 0
246673.0 393314.0 0
252633.0 391784.0 0
256320.0 392263.0 0
259513.0 393717.0 0
263133.0 392132.0 0
267061.0 392415.0 0
270352.0 392338.0 0
273720.0 393029.0 0
277064.0 393746.0 0
282158.0 391831.0 0
285351.0 392752.0 0
288507.0 393666.0 0
293128.0 392238.0 0
296369.0 393061.0 0
299614.0 393758.0 0
304898.0 392564.0 0
308236.0 392791.0 0
311198.0 393365.0 0
314380.0 393961.0 0
316876.0 393035.0 0
319456.0 394620.0 0
322284.0 394076.0 0
325066.0 392932.0 0
327942.0 394716.0 0
170239.0 395866.0 0
173096.0 396900.0 0
179189.0 396194.0 0
182077.0 397245.0 0
185255.0 395652.0 0
188255.0 397067.0 0
190895.0 395282.0 0
193443.0 396451.0 0
196627.0 395721.0 0
200130.0 395343.0 0
203510.0 394576.0 0
205466.0 396925.0 0
208853.0 396105.0 0
212218.0 395254.0 0
215547.0 394358.0 0
217524.0 396875.0 0
220876.0 396021.0 0
224244.0 395190.0 0
227649.0 394390.0 0
233081.0 396440.0 0
236554.0 395796.0 0
239942.0 396207.0 0
243714.0 395811.0 0
247316.0 396729.0 0
250041.0 394276.0 0
253610.0 395004.0 0
256856.0 395995.0 0
262301.0 395224.0 0
265421.0 395291.0 0
268764.0 395615.0 0
271981.0 395934.0 0
275282.0 396563.0 0
280339.0 394529.0 0
283578.0 395353.0 0
286798.0 396238.0 0
289964.0 397192.0 0
291561.0 394687.0 0
294768.0 395540.0 0
298018.0 396280.0 0
301216.0 397044.0 0
303020.0 394886.0 0
306495.0 395360.0 0
309723.0 395925.0 0
312978.0 396390.0 0
316494.0 396413.0 0
319613.0 397276.0 0
322550.0 396958.0 0
325229.0 396043.0 0
327964.0 397620.0 0
330875.0 396558.0 0
163977.0 399773.0 0
167252.0 397718.0 0
170052.0 398909.0 0
172795.0 399850.0 0
175939.0 397687.0 0
178758.0 399113.0 0
181554.0 400045.0 0
184960.0 398580.0 0
187805.0 399912.0 0
191249.0 398771.0 0
195050.0 398793.0 0
198493.0 398207.0 0
202034.0 397677.0 0
207380.0 399332.0 0
210782.0 398548.0 0
214166.0 397729.0 0
219420.0 399460.0 0
222801.0 398658.0 0
226198.0 397878.0 0
229622.0 397130.0 0
234690.0 399464.0 0
238018.0 399261.0 0
241602.0 399192.0 0
244973.0 399413.0 0
248474.0 400121.0 0
250939.0 397551.0 0
254385.0 398540.0 0
259943.0 397452.0 0
263387.0 398375.0 0
266747.0 398629.0 0
270100.0 399014.0 0
273432.0 399449.0 0
278595.0 397273.0 0
281891.0 398044.0 0
285153.0 398860.0 0
288385.0 399744.0 0
293194.0 398051.0 0
296461.0 398813.0 0
299710.0 399555.0 0
304680.0 397764.0 0
308026.0 398385.0 0
311374.0 398871.0 0
314821.0 399019.0 0
318013.0 399555.0 0
321588.0 399801.0 0
324947.0 399300.0 0
328165.0 400242.0 0
331199.0 399376.0 0
333966.0 398489.0 0
336816.0 400282.0 0
160775.0 401779.0 0
163620.0 402608.0 0
166799.0 400333.0 0
169667.0 401935.0 0
175595.0 400521.0 0
178438.0 402165.0 0
184325.0 401446.0 0
190322.0 401799.0 0
193492.0 401409.0 0
197027.0 401194.0 0
200462.0 400646.0 0
203951.0 400060.0 0
209221.0 401808.0 0
212637.0 401051.0 0
216038.0 400267.0 0
221202.0 402122.0 0
224581.0 401378.0 0
227960.0 400664.0 0
231332.0 400001.0 0
251956.0 400981.0 0
257606.0 399775.0 0
260930.0 400910.0 0
264433.0 401565.0 0
267880.0 401938.0 0
276808.0 400062.0 0
280182.0 400768.0 0
283535.0 401539.0 0
286842.0 402358.0 0
291648.0 400591.0 0
294937.0 401364.0 0
298225.0 402094.0 0
303017.0 400163.0 0
306370.0 400822.0 0
309752.0 401347.0 0
313185.0 401631.0 0
316449.0 402051.0 0
319869.0 402208.0 0
323399.0 402184.0 0
326536.0 402350.0 0
330374.0 402263.0 0
333748.0 401589.0 0
340019.0 402271.0 0
157551.0 403793.0 0
160299.0 404673.0 0
166571.0 403032.0 0
169330.0 405080.0 0
172450.0 402766.0 0
175425.0 403371.0 0
178383.0 405378.0 0
181237.0 403010.0 0
184106.0 404650.0 0
186990.0 402797.0 0
189299.0 404866.0 0
195446.0 404090.0 0
198880.0 403705.0 0
202317.0 403134.0 0
205786.0 402518.0 0
210988.0 404347.0 0
214410.0 403621.0 0
217815.0 402878.0 0
226208.0 404197.0 0
229548.0 403568.0 0
232867.0 403014.0 0
236176.0 402673.0 0
239544.0 402482.0 0
242905.0 402579.0 0
246257.0 402922.0 0
249663.0 403570.0 0
255330.0 402218.0 0
258484.0 403495.0 0
261939.0 404272.0 0
265406.0 404804.0 0
268777.0 405215.0 0
271305.0 402375.0 0
274747.0 402857.0 0
278220.0 403479.0 0
281704.0 404185.0 0
290145.0 403169.0 0
293457.0 403941.0 0
296776.0 404664.0 0
301547.0 402727.0 0
304858.0 403316.0 0
308222.0 403854.0 0
311635.0 404226.0 0
314961.0 404625.0 0
318348.0 404821.0 0
321744.0 404845.0 0
325027.0 405040.0 0
328409.0 404729.0 0
331804.0 404657.0 0
334757.0 404315.0 0
337257.0 403067.0 0
340804.0 405047.0 0
343295.0 404311.0 0
151235.0 407740.0 0
154231.0 405856.0 0
156692.0 406593.0 0
159096.0 407454.0 0
163113.0 405356.0 0
166077.0 405666.0 0
172321.0 405612.0 0
175307.0 406128.0 0
181373.0 406003.0 0
183637.0 408201.0 0
186580.0 406135.0 0
192278.0 404558.0 0
193638.0 407240.0 0
197080.0 406723.0 0
200588.0 406240.0 0
204068.0 405660.0 0
207543.0 405036.0 0
209235.0 407615.0 0
212671.0 406954.0 0
216086.0 406268.0 0
219480.0 405571.0 0
222852.0 404873.0 0
227703.0 407116.0 0
231004.0 406583.0 0
234294.0 406157.0 0
237605.0 405892.0 0
240916.0 405833.0 0
244251.0 406005.0 0
247635.0 406390.0 0
251169.0 406969.0 0
253062.0 404469.0 0
256022.0 406163.0 0
259569.0 407008.0 0
272012.0 405652.0 0
275150.0 406127.0 0
278226.0 406692.0 0
281276.0 407279.0 0
285170.0 404973.0 0
288606.0 405767.0 0
291988.0 406537.0 0
295352.0 407259.0 0
300118.0 405309.0 0
303460.0 405901.0 0
306811.0 406421.0 0
310200.0 406837.0 0
313552.0 407235.0 0
316932.0 407487.0 0
320295.0 407595.0 0
323556.0 407740.0 0
326869.0 407637.0 0
330001.0 407471.0 0
333033.0 407461.0 0
335883.0 407010.0 0
338319.0 405830.0 0
343576.0 407391.0 0
346257.0 406168.0 0
349238.0 408035.0 0
148311.0 409571.0 0
151161.0 410875.0 0
153932.0 408936.0 0
156613.0 409937.0 0
161719.0 408116.0 0
164621.0 408468.0 0
167717.0 408241.0 0
170597.0 408297.0 0
173662.0 408758.0 0
177025.0 408614.0 0
180076.0 408580.0 0
187007.0 408740.0 0
190187.0 407696.0 0
191945.0 410293.0 0
195372.0 409819.0 0
198815.0 409310.0 0
202299.0 408801.0 0
205773.0 408230.0 0
214259.0 409638.0 0
217658.0 408996.0 0
221032.0 408351.0 0
224379.0 407717.0 0
232416.0 409678.0 0
235696.0 409350.0 0
238974.0 409191.0 0
242254.0 409218.0 0
245538.0 409429.0 0
248835.0 409764.0 0
252171.0 410064.0 0
255278.0 409634.0 0
263130.0 407627.0 0
266580.0 408132.0 0
269924.0 408607.0 0
273211.0 409075.0 0
276455.0 409588.0 0
279686.0 410145.0 0
284337.0 407890.0 0
287459.0 408502.0 0
290675.0 409187.0 0
293995.0 409889.0 0
298724.0 407912.0 0
302098.0 408508.0 0
305478.0 409038.0 0
308869.0 409476.0 0
312244.0 409876.0 0
315635.0 410169.0 0
319017.0 410348.0 0
322338.0 410505.0 0
325662.0 410488.0 0
328917.0 410413.0 0
332062.0 410346.0 0
335216.0 410101.0 0
338212.0 409259.0 0
340884.0 408268.0 0
343578.0 410538.0 0
346456.0 409170.0 0
352235.0 409913.0 0
142138.0 413424.0 0
145221.0 411496.0 0
147970.0 412515.0 0
154020.0 412167.0 0
156924.0 413247.0 0
159386.0 410739.0 0
162441.0 411159.0 0
165629.0 411259.0 0
168677.0 411251.0 0
171771.0 411405.0 0
175109.0 411480.0 0
178370.0 411495.0 0
181725.0 411158.0 0
184994.0 411177.0 0
188670.0 411008.0 0
193541.0 412927.0 0
196986.0 412443.0 0
200444.0 411937.0 0
203920.0 411421.0 0
207386.0 410861.0 0
210835.0 410265.0 0
215761.0 412396.0 0
219143.0 411801.0 0
222497.0 411212.0 0
225824.0 410644.0 0
229127.0 410125.0 0
237093.0 412609.0 0
240369.0 412537.0 0
243647.0 412629.0 0
246940.0 412853.0 0
250267.0 413113.0 0
258426.0 410204.0 0
261607.0 410633.0 0
264878.0 411085.0 0
268193.0 411560.0 0
271515.0 412019.0 0
274825.0 412493.0 0
278127.0 413004.0 0
282917.0 410716.0 0
286149.0 411304.0 0
289385.0 411927.0 0
292679.0 412573.0 0
297369.0 410538.0 0
300764.0 411135.0 0
304172.0 411673.0 0
307588.0 412136.0 0
310994.0 412543.0 0
314404.0 412865.0 0
317811.0 413091.0 0
331196.0 413203.0 0
334478.0 412974.0 0
337739.0 412396.0 0
340736.0 411542.0 0
346441.0 412137.0 0
349421.0 411039.0 0
352366.0 413003.0 0
355193.0 411767.0 0
139058.0 415352.0 0
144929.0 414464.0 0
147736.0 415616.0 0
150653.0 413839.0 0
153262.0 415004.0 0
160163.0 413740.0 0
163445.0 414028.0 0
166652.0 414173.0 0
169826.0 414236.0 0
173097.0 414268.0 0
176416.0 414325.0 0
179807.0 414171.0 0
183126.0 414019.0 0
186615.0 413776.0 0
190164.0 413513.0 0
195056.0 415584.0 0
198520.0 415104.0 0
201988.0 414607.0 0
205459.0 414096.0 0
208916.0 413554.0 0
212352.0 412985.0 0
217202.0 415223.0 0
220572.0 414677.0 0
223915.0 414144.0 0
227233.0 413643.0 0
230533.0 413197.0 0
233817.0 412839.0 0
253645.0 413170.0 0
256797.0 413274.0 0
260038.0 413726.0 0
263304.0 414131.0 0
266598.0 414552.0 0
269922.0 414984.0 0
273256.0 415427.0 0
281431.0 413541.0 0
284727.0 414109.0 0
288023.0 414706.0 0
291342.0 415308.0 0
296042.0 413199.0 0
299446.0 413787.0 0
302876.0 414327.0 0
306320.0 414804.0 0
309763.0 415226.0 0
313204.0 415573.0 0
321186.0 413267.0 0
324562.0 413313.0 0
327900.0 413275.0 0
333677.0 415800.0 0
337098.0 415312.0 0
340404.0 414700.0 0
343388.0 413746.0 0
346267.0 415040.0 0
349387.0 414021.0 0
352465.0 416021.0 0
355360.0 414936.0 0
358127.0 413604.0 0
360971.0 415392.0 0
135982.0 417278.0 0
138844.0 418372.0 0
141893.0 416412.0 0
144786.0 417514.0 0
147711.0 418766.0 0
150514.0 417122.0 0
153178.0 418436.0 0
155698.0 416106.0 0
158494.0 416468.0 0
161520.0 416778.0 0
164641.0 417004.0 0
167817.0 417118.0 0
171054.0 417134.0 0
174355.0 417145.0 0
177748.0 417083.0 0
181145.0 416954.0 0
184601.0 416707.0 0
188094.0 416433.0 0
191619.0 416097.0 0
199989.0 417803.0 0
203464.0 417322.0 0
206931.0 416826.0 0
210379.0 416308.0 0
213804.0 415770.0 0
221978.0 417613.0 0
225320.0 417137.0 0
228641.0 416701.0 0
231945.0 416330.0 0
235237.0 416056.0 0
238527.0 415909.0 0
241820.0 415907.0 0
245124.0 416034.0 0
248454.0 416233.0 0
251825.0 416382.0 0
255138.0 416545.0 0
258392.0 416805.0 0
261692.0 417199.0 0
265010.0 417587.0 0
268345.0 417981.0 0
276591.0 415896.0 0
279928.0 416396.0 0
283261.0 416936.0 0
286597.0 417504.0 0
289952.0 418077.0 0
294708.0 415901.0 0
298120.0 416469.0 0
301566.0 417000.0 0
305036.0 417483.0 0
308516.0 417915.0 0
316638.0 415836.0 0
320051.0 416032.0 0
323466.0 416121.0 0
326868.0 416112.0 0
330261.0 416027.0 0
336284.0 418145.0 0
339773.0 417617.0 0
343193.0 417005.0 0
346393.0 417754.0 0
349467.0 416907.0 0
355270.0 418144.0 0
358188.0 416912.0 0
363734.0 417134.0 0
366395.0 418791.0 0
129788.0 421151.0 0
132878.0 419219.0 0
135722.0 420307.0 0
138617.0 421373.0 0
141767.0 419434.0 0
144730.0 420579.0 0
150560.0 420572.0 0
156108.0 419274.0 0
159172.0 419540.0 0
162327.0 419791.0 0
165554.0 419956.0 0
168842.0 420018.0 0
172175.0 420013.0 0
175574.0 419960.0 0
179016.0 419864.0 0
182499.0 419670.0 0
185996.0 419410.0 0
189514.0 419106.0 0
193036.0 418740.0 0
196511.0 418270.0 0
201412.0 420542.0 0
204892.0 420082.0 0
208356.0 419607.0 0
211800.0 419117.0 0
215219.0 418615.0 0
218612.0 418110.0 0
223387.0 420601.0 0
226737.0 420182.0 0
230068.0 419810.0 0
233386.0 419512.0 0
236697.0 419314.0 0
240009.0 419236.0 0
243330.0 419280.0 0
246670.0 419413.0 0
250036.0 419565.0 0
253392.0 419740.0 0
256721.0 419970.0 0
260041.0 420275.0 0
263386.0 420640.0 0
271696.0 418393.0 0
275053.0 418827.0 0
278412.0 419293.0 0
281770.0 419798.0 0
285135.0 420333.0 0
293339.0 418640.0 0
296763.0 419183.0 0
300222.0 419698.0 0
303713.0 420175.0 0
307224.0 420611.0 0
311999.0 418285.0 0
315474.0 418581.0 0
318927.0 418808.0 0
322366.0 418931.0 0
325804.0 418950.0 0
329252.0 418857.0 0
332741.0 418609.0 0
335300.0 420967.0 0
338831.0 420509.0 0
342261.0 420029.0 0
345414.0 420242.0 0
348982.0 419929.0 0
352193.0 419112.0 0
354875.0 421320.0 0
358005.0 420250.0 0
360921.0 418824.0 0
363471.0 420758.0 0
369193.0 420532.0 0
126690.0 423090.0 0
132668.0 422291.0 0
135603.0 423394.0 0
141551.0 422424.0 0
144486.0 423566.0 0
147726.0 421852.0 0
153431.0 421717.0 0
156624.0 422280.0 0
159854.0 422537.0 0
163146.0 422742.0 0
166495.0 422856.0 0
169886.0 422885.0 0
173318.0 422844.0 0
176788.0 422759.0 0
180299.0 422610.0 0
183824.0 422394.0 0
187357.0 422121.0 0
190896.0 421803.0 0
194425.0 421429.0 0
197923.0 420991.0 0
202807.0 423323.0 0
206291.0 422886.0 0
209757.0 422436.0 0
213200.0 421977.0 0
216620.0 421511.0 0
220015.0 421049.0 0
231525.0 422965.0 0
234863.0 422734.0 0
238199.0 422601.0 0
241539.0 422575.0 0
244892.0 422644.0 0
248263.0 422767.0 0
251639.0 422928.0 0
255006.0 423134.0 0
266746.0 421008.0 0
270116.0 421390.0 0
273493.0 421794.0 0
276873.0 422228.0 0
280255.0 422698.0 0
283643.0 423197.0 0
288517.0 420876.0 0
291926.0 421412.0 0
295365.0 421931.0 0
298837.0 422426.0 0
302340.0 422890.0 0
305871.0 423318.0 0
310749.0 420995.0 0
314275.0 421320.0 0
317787.0 421582.0 0
321273.0 421758.0 0
324727.0 421807.0 0
328196.0 421721.0 0
331712.0 421457.0 0
337907.0 423373.0 0
341394.0 422992.0 0
344708.0 422998.0 0
348122.0 422689.0 0
351604.0 422163.0 0
357539.0 423532.0 0
360665.0 422359.0 0
366162.0 422077.0 0
369199.0 423746.0 0
372101.0 422345.0 0
123564.0 425047.0 0
126533.0 426178.0 0
129619.0 424234.0 0
132619.0 425401.0 0
135681.0 426520.0 0
138598.0 424465.0 0
141650.0 425559.0 0
144819.0 426704.0 0
147491.0 424661.0 0
150660.0 424049.0 0
153961.0 424781.0 0
157318.0 425253.0 0
160676.0 425496.0 0
164073.0 425653.0 0
167513.0 425727.0 0
170989.0 425722.0 0
174495.0 425655.0 0
178030.0 425534.0 0
181584.0 425360.0 0
185144.0 425129.0 0
188703.0 424850.0 0
192257.0 424530.0 0
195795.0 424160.0 0
199309.0 423749.0 0
207679.0 425732.0 0
211149.0 425310.0 0
214598.0 424882.0 0
218025.0 424454.0 0
221430.0 424035.0 0
224813.0 423636.0 0
228177.0 423273.0 0
258367.0 423397.0 0
261732.0 423711.0 0
265115.0 424056.0 0
268507.0 424414.0 0
271906.0 424790.0 0
275308.0 425195.0 0
278711.0 425632.0 0
287048.0 423708.0 0
290475.0 424217.0 0
293929.0 424713.0 0
297412.0 425187.0 0
300925.0 425634.0 0
309426.0 423705.0 0
312997.0 424046.0 0
316573.0 424335.0 0
320139.0 424560.0 0
323669.0 424697.0 0
327135.0 424634.0 0
330662.0 424356.0 0
334323.0 423782.0 0
336971.0 426205.0 0
340515.0 425908.0 0
343937.0 425805.0 0
347393.0 425548.0 0
350834.0 425086.0 0
354256.0 424441.0 0
360176.0 425776.0 0
363276.0 424510.0 0
366242.0 425116.0 0
372010.0 425664.0 0
374964.0 424142.0 0
377808.0 425924.0 0
117222.0 429016.0 0
120407.0 427023.0 0
123406.0 428152.0 0
126508.0 429255.0 0
129594.0 427323.0 0
132733.0 428524.0 0
138814.0 427596.0 0
142070.0 428659.0 0
148346.0 427287.0 0
151471.0 427295.0 0
154792.0 427858.0 0
158177.0 428232.0 0
161604.0 428428.0 0
165081.0 428542.0 0
168598.0 428577.0 0
172143.0 428543.0 0
175710.0 428450.0 0
179292.0 428309.0 0
182880.0 428120.0 0
186465.0 427884.0 0
190043.0 427605.0 0
193610.0 427289.0 0
197157.0 426933.0 0
200682.0 426545.0 0
204189.0 426144.0 0
212548.0 428224.0 0
216007.0 427828.0 0
219445.0 427438.0 0
222863.0 427062.0 0
226262.0 426713.0 0
229644.0 426405.0 0
233014.0 426156.0 0
236377.0 425986.0 0
239740.0 425907.0 0
243110.0 425917.0 0
246493.0 425998.0 0
249883.0 426130.0 0
253275.0 426310.0 0
256665.0 426539.0 0
260058.0 426815.0 0
263460.0 427126.0 0
266873.0 427460.0 0
270293.0 427813.0 0
273715.0 428191.0 0
282122.0 426096.0 0
285548.0 426576.0 0
288993.0 427057.0 0
292461.0 427529.0 0
295955.0 427983.0 0
299476.0 428413.0 0
304466.0 426050.0 0
308035.0 426430.0 0
311628.0 426771.0 0
315244.0 427070.0 0
318875.0 427322.0 0
322511.0 427517.0 0
326119.0 427625.0 0
329589.0 427342.0 0
333330.0 426565.0 0
339596.0 428786.0 0
343091.0 428651.0 0
346585.0 428426.0 0
350069.0 428048.0 0
353512.0 427497.0 0
356904.0 426755.0 0
359468.0 429155.0 0
362660.0 428150.0 0
365689.0 427996.0 0
368992.0 427058.0 0
371669.0 429028.0 0
374781.0 427516.0 0
377595.0 429290.0 0
380677.0 427718.0 0
114016.0 431024.0 0
120247.0 430159.0 0
123377.0 431244.0 0
129706.0 430396.0 0
132987.0 431645.0 0
135933.0 429648.0 0
139232.0 430678.0 0
142697.0 431608.0 0
145568.0 429610.0 0
148956.0 430230.0 0
152221.0 430480.0 0
155599.0 430913.0 0
159066.0 431187.0 0
162585.0 431335.0 0
166148.0 431408.0 0
169739.0 431412.0 0
173345.0 431354.0 0
176959.0 431245.0 0
180576.0 431093.0 0
184190.0 430899.0 0
187794.0 430663.0 0
191386.0 430390.0 0
194963.0 430084.0 0
198519.0 429745.0 0
202054.0 429381.0 0
205570.0 429004.0 0
209069.0 428617.0 0
217434.0 430814.0 0
220886.0 430462.0 0
224320.0 430129.0 0
227737.0 429828.0 0
231140.0 429573.0 0
234534.0 429380.0 0
237924.0 429262.0 0
241316.0 429224.0 0
244715.0 429260.0 0
248121.0 429357.0 0
251532.0 429505.0 0
254945.0 429703.0 0
258362.0 429944.0 0
261785.0 430223.0 0
265217.0 430530.0 0
268656.0 430859.0 0
277142.0 428598.0 0
280575.0 429030.0 0
284020.0 429478.0 0
287482.0 429931.0 0
290965.0 430379.0 0
294471.0 430813.0 0
303023.0 428815.0 0
306596.0 429184.0 0
310195.0 429518.0 0
313819.0 429814.0 0
317469.0 430069.0 0
321149.0 430281.0 0
324868.0 430442.0 0
328639.0 430533.0 0
332363.0 429297.0 0
336019.0 429004.0 0
345727.0 431329.0 0
349227.0 431016.0 0
352709.0 430561.0 0
356135.0 429945.0 0
361970.0 431676.0 0
365112.0 431130.0 0
368394.0 430266.0 0
374419.0 430877.0 0
380485.0 431064.0 0
383592.0 429540.0 0
386554.0 431392.0 0
110798.0 433040.0 0
113876.0 434259.0 0
117065.0 432197.0 0
120220.0 433286.0 0
123472.0 434321.0 0
126608.0 432311.0 0
129940.0 433435.0 0
136318.0 432747.0 0
139746.0 433673.0 0
146187.0 432651.0 0
149598.0 433283.0 0
152953.0 433611.0 0
156457.0 433911.0 0
181884.0 433897.0 0
185515.0 433703.0 0
189133.0 433473.0 0
192736.0 433209.0 0
196322.0 432915.0 0
199888.0 432594.0 0
203434.0 432253.0 0
206962.0 431901.0 0
210472.0 431540.0 0
213963.0 431176.0 0
222350.0 433522.0 0
225802.0 433232.0 0
229239.0 432977.0 0
232665.0 432772.0 0
236084.0 432628.0 0
239501.0 432554.0 0
242921.0 432550.0 0
246346.0 432609.0 0
249775.0 432724.0 0
253209.0 432889.0 0
256647.0 433098.0 0
260090.0 433346.0 0
263541.0 433625.0 0
272099.0 431213.0 0
275547.0 431592.0 0
279001.0 431994.0 0
282466.0 432413.0 0
285946.0 432839.0 0
289444.0 433264.0 0
292961.0 433678.0 0
298000.0 431227.0 0
301554.0 431615.0 0
305130.0 431974.0 0
308729.0 432300.0 0
312348.0 432592.0 0
315985.0 432847.0 0
319636.0 433065.0 0
323291.0 433249.0 0
326919.0 433418.0 0
331917.0 431965.0 0
335321.0 431811.0 0
338769.0 431657.0 0
342236.0 431525.0 0
348284.0 433999.0 0
351806.0 433619.0 0
355290.0 433116.0 0
358693.0 432479.0 0
364534.0 434437.0 0
367821.0 433557.0 0
371132.0 432335.0 0
373954.0 434196.0 0
377273.0 432613.0 0
380234.0 434359.0 0
383446.0 432887.0 0
389556.0 433270.0 0
104368.0 437073.0 0
107577.0 435059.0 0
110691.0 436339.0 0
117061.0 435374.0 0
120336.0 436410.0 0
126814.0 435337.0 0
130248.0 436427.0 0
133347.0 434770.0 0
136751.0 435825.0 0
140182.0 436669.0 0
143234.0 434567.0 0
146816.0 435780.0 0
150223.0 436405.0 0
153808.0 436631.0 0
160038.0 434109.0 0
163658.0 434215.0 0
167299.0 434255.0 0
170949.0 434238.0 0
174598.0 434168.0 0
178244.0 434052.0 0
190485.0 436315.0 0
194098.0 436061.0 0
197694.0 435782.0 0
201271.0 435480.0 0
204829.0 435161.0 0
208370.0 434832.0 0
211892.0 434498.0 0
215396.0 434164.0 0
218882.0 433836.0 0
230769.0 436159.0 0
234219.0 435999.0 0
237663.0 435898.0 0
241107.0 435860.0 0
244552.0 435885.0 0
248002.0 435966.0 0
251455.0 436098.0 0
254913.0 436277.0 0
266999.0 433930.0 0
270462.0 434260.0 0
273930.0 434612.0 0
277404.0 434987.0 0
280888.0 435378.0 0
284385.0 435779.0 0
287898.0 436181.0 0
296500.0 434075.0 0
300061.0 434450.0 0
303643.0 434799.0 0
307244.0 435118.0 0
310864.0 435407.0 0
314498.0 435664.0 0
318142.0 435892.0 0
321785.0 436098.0 0
325401.0 436313.0 0
330264.0 434152.0 0
334084.0 434643.0 0
337687.0 434567.0 0
341223.0 434441.0 0
344752.0 434266.0 0
350760.0 436675.0 0
354310.0 436254.0 0
357814.0 435733.0 0
361240.0 435088.0 0
367219.0 436955.0 0
370591.0 435693.0 0
376908.0 435877.0 0
383283.0 436198.0 0
386460.0 434758.0 0
389492.0 436672.0 0
392579.0 435162.0 0
101178.0 439078.0 0
107537.0 438439.0 0
110821.0 439651.0 0
113912.0 437495.0 0
117212.0 438555.0 0
120560.0 439536.0 0
123689.0 437388.0 0
127114.0 438339.0 0
130614.0 439369.0 0
133706.0 437949.0 0
136989.0 438945.0 0
143770.0 437445.0 0
147358.0 439085.0 0
151173.0 439373.0 0
157469.0 436851.0 0
161156.0 436999.0 0
164846.0 437078.0 0
168534.0 437101.0 0
172217.0 437073.0 0
175891.0 436999.0 0
179557.0 436881.0 0
183212.0 436726.0 0
186855.0 436537.0 0
195476.0 438948.0 0
199083.0 438683.0 0
202672.0 438400.0 0
206243.0 438103.0 0
209797.0 437798.0 0
213333.0 437491.0 0
216852.0 437187.0 0
220354.0 436893.0 0
223840.0 436617.0 0
227310.0 436369.0 0
258376.0 436494.0 0
261846.0 436746.0 0
265322.0 437026.0 0
268803.0 437331.0 0
272291.0 437659.0 0
275785.0 438008.0 0
279287.0 438374.0 0
282802.0 438750.0 0
291428.0 436576.0 0
294978.0 436957.0 0
298547.0 437319.0 0
302135.0 437658.0 0
305741.0 437970.0 0
309363.0 438255.0 0
312999.0 438513.0 0
316644.0 438746.0 0
320289.0 438965.0 0
328892.0 436797.0 0
332527.0 437151.0 0
336315.0 437378.0 0
339987.0 437343.0 0
343601.0 437210.0 0
347190.0 436993.0 0
353160.0 439375.0 0
356744.0 438926.0 0
360306.0 438380.0 0
363815.0 437794.0 0
370024.0 439118.0 0
373491.0 437516.0 0
376679.0 439066.0 0
380017.0 437602.0 0
383112.0 439498.0 0
386340.0 438120.0 0
392524.0 438614.0 0
395605.0 437057.0 0
398613.0 438942.0 0
98014.2 441067.0 0
104421.0 440551.0 0
107788.0 441829.0 0
114186.0 440753.0 0
117594.0 441775.0 0
123926.0 440450.0 0
127273.0 441310.0 0
130578.0 442139.0 0
134020.0 441347.0 0
137695.0 442014.0 0
140431.0 439577.0 0
143842.0 440158.0 0
154928.0 439580.0 0
158668.0 439763.0 0
162396.0 439887.0 0
166114.0 439952.0 0
169823.0 439965.0 0
173522.0 439931.0 0
177212.0 439854.0 0
180891.0 439738.0 0
184558.0 439586.0 0
188212.0 439402.0 0
191852.0 439189.0 0
200492.0 441618.0 0
204094.0 441353.0 0
207678.0 441078.0 0
211246.0 440798.0 0
214797.0 440518.0 0
218331.0 440244.0 0
221850.0 439984.0 0
225354.0 439745.0 0
228845.0 439536.0 0
232326.0 439368.0 0
235799.0 439249.0 0
239269.0 439186.0 0
242738.0 439180.0 0
246208.0 439230.0 0
249682.0 439331.0 0
253160.0 439478.0 0
256643.0 439667.0 0
260131.0 439891.0 0
263625.0 440146.0 0
267125.0 440426.0 0
270631.0 440731.0 0
274144.0 441056.0 0
277665.0 441397.0 0
286330.0 439130.0 0
289873.0 439505.0 0
293434.0 439871.0 0
297012.0 440220.0 0
300608.0 440549.0 0
304219.0 440854.0 0
307846.0 441135.0 0
311485.0 441392.0 0
315133.0 441627.0 0
323920.0 439194.0 0
327497.0 439550.0 0
331137.0 439865.0 0
334840.0 440063.0 0
338595.0 440175.0 0
342293.0 440129.0 0
345945.0 439980.0 0
349565.0 439730.0 0
355495.0 442104.0 0
359100.0 441619.0 0
362721.0 441053.0 0
366416.0 440408.0 0
370610.0 442397.0 0
373430.0 440813.0 0
376503.0 442290.0 0
379814.0 440840.0 0
386230.0 441486.0 0
389401.0 440095.0 0
392403.0 442118.0 0
395521.0 440573.0 0
401599.0 440818.0 0
404581.0 442675.0 0
91138.3 445337.0 0
94839.9 443056.0 0
98325.2 444754.0 0
101361.0 442682.0 0
104823.0 444035.0 0
111240.0 442975.0 0
114727.0 444039.0 0
121031.0 442725.0 0
124493.0 443610.0 0
128025.0 444411.0 0
131871.0 444652.0 0
135310.0 444579.0 0
141393.0 442558.0 0
145352.0 442495.0 0
148843.0 442161.0 0
152528.0 442359.0 0
156241.0 442541.0 0
159968.0 442695.0 0
163698.0 442798.0 0
167424.0 442850.0 0
171143.0 442855.0 0
174854.0 442817.0 0
178555.0 442739.0 0
182245.0 442625.0 0
185923.0 442477.0 0
189588.0 442300.0 0
193239.0 442095.0 0
196874.0 441867.0 0
209136.0 444085.0 0
212718.0 443829.0 0
216284.0 443576.0 0
219835.0 443333.0 0
223371.0 443106.0 0
226894.0 442902.0 0
230406.0 442732.0 0
233909.0 442602.0 0
237406.0 442520.0 0
240900.0 442490.0 0
244393.0 442512.0 0
247888.0 442584.0 0
251387.0 442703.0 0
254889.0 442863.0 0
258396.0 443060.0 0
261908.0 443289.0 0
265426.0 443546.0 0
268951.0 443827.0 0
272481.0 444129.0 0
281196.0 441750.0 0
284740.0 442109.0 0
288297.0 442466.0 0
291870.0 442816.0 0
295458.0 443152.0 0
299061.0 443472.0 0
302680.0 443770.0 0
306312.0 444047.0 0
318786.0 441848.0 0
322434.0 442075.0 0
326062.0 442362.0 0
329725.0 442638.0 0
333433.0 442845.0 0
337161.0 442969.0 0
340900.0 443014.0 0
344604.0 442947.0 0
348265.0 442780.0 0
351889.0 442500.0 0
357682.0 444909.0 0
361170.0 444429.0 0
364552.0 443880.0 0
367713.0 443476.0 0
373473.0 444598.0 0
376718.0 445378.0 0
379837.0 444045.0 0
383025.0 442785.0 0
386042.0 444907.0 0
389246.0 443565.0 0
395354.0 444153.0 0
398482.0 442520.0 0
407620.0 444570.0 0
87873.9 447391.0 0
94149.2 446556.0 0
101952.0 446289.0 0
105624.0 447500.0 0
108377.0 445220.0 0
111934.0 446324.0 0
115512.0 447344.0 0
118244.0 445026.0 0
121800.0 445932.0 0
125434.0 446728.0 0
129240.0 447234.0 0
138985.0 445044.0 0
142841.0 445249.0 0
146564.0 445311.0 0
150159.0 445229.0 0
153841.0 445379.0 0
157554.0 445529.0 0
161285.0 445654.0 0
165021.0 445738.0 0
168756.0 445778.0 0
172485.0 445775.0 0
176207.0 445733.0 0
179919.0 445654.0 0
183620.0 445542.0 0
187308.0 445399.0 0
190984.0 445228.0 0
194646.0 445034.0 0
198293.0 444818.0 0
201924.0 444585.0 0
205538.0 444339.0 0
217796.0 446666.0 0
221363.0 446452.0 0
224917.0 446258.0 0
228459.0 446089.0 0
231992.0 445954.0 0
235517.0 445859.0 0
239037.0 445810.0 0
242555.0 445809.0 0
246072.0 445855.0 0
249592.0 445947.0 0
253114.0 446081.0 0
256640.0 446252.0 0
260171.0 446456.0 0
263707.0 446690.0 0
276020.0 444448.0 0
279568.0 444779.0 0
283128.0 445117.0 0
286700.0 445456.0 0
290285.0 445791.0 0
293884.0 446115.0 0
297497.0 446425.0 0
301123.0 446716.0 0
309956.0 444300.0 0
313608.0 444534.0 0
317267.0 444754.0 0
320927.0 444972.0 0
324587.0 445216.0 0
328273.0 445455.0 0
331998.0 445656.0 0
335749.0 445807.0 0
339492.0 445889.0 0
343221.0 445899.0 0
346909.0 445820.0 0
350546.0 445639.0 0
354135.0 445327.0 0
363380.0 447316.0 0
366811.0 446808.0 0
370268.0 445953.0 0
379587.0 447423.0 0
382818.0 446178.0 0
388968.0 447081.0 0
392197.0 445681.0 0
398279.0 446168.0 0
401418.0 444440.0 0
404405.0 446210.0 0
407536.0 448023.0 0
410744.0 446520.0 0
84640.7 449419.0 0
91026.3 448887.0 0
94134.3 450315.0 0
97011.2 447998.0 0
100003.0 449140.0 0
109228.0 448651.0 0
112838.0 449700.0 0
119131.0 448275.0 0
122814.0 449091.0 0
126594.0 449721.0 0
132946.0 447557.0 0
136562.0 447694.0 0
140326.0 447959.0 0
144077.0 448162.0 0
147787.0 448251.0 0
151448.0 448282.0 0
155151.0 448409.0 0
158878.0 448535.0 0
162619.0 448637.0 0
166365.0 448704.0 0
170110.0 448732.0 0
173849.0 448723.0 0
177582.0 448677.0 0
181305.0 448598.0 0
185017.0 448488.0 0
188717.0 448350.0 0
192403.0 448187.0 0
196077.0 448003.0 0
199735.0 447800.0 0
203378.0 447583.0 0
207006.0 447356.0 0
210617.0 447124.0 0
214214.0 446892.0 0
230050.0 449302.0 0
233603.0 449200.0 0
237149.0 449137.0 0
240692.0 449117.0 0
244233.0 449142.0 0
247774.0 449210.0 0
251317.0 449318.0 0
267250.0 446948.0 0
270798.0 447227.0 0
274355.0 447524.0 0
277919.0 447834.0 0
281494.0 448153.0 0
285081.0 448475.0 0
288679.0 448795.0 0
292290.0 449107.0 0
295913.0 449407.0 0
304762.0 446988.0 0
308411.0 447239.0 0
312068.0 447470.0 0
315732.0 447686.0 0
319402.0 447895.0 0
323077.0 448108.0 0
326775.0 448314.0 0
330510.0 448495.0 0
334280.0 448647.0 0
338071.0 448778.0 0
341823.0 448845.0 0
345537.0 448852.0 0
349204.0 448768.0 0
352822.0 448559.0 0
359907.0 447795.0 0
356388.0 448220.0 0
365769.0 450140.0 0
369319.0 449375.0 0
372797.0 448369.0 0
376086.0 448302.0 0
382333.0 449633.0 0
385678.0 448388.0 0
391881.0 449266.0 0
395129.0 447793.0 0
401206.0 448136.0 0
404263.0 449683.0 0
410785.0 449946.0 0
413955.0 448525.0 0
417195.0 450553.0 0
81395.1 451450.0 0
84696.9 453073.0 0
87881.9 451019.0 0
91149.6 452568.0 0
97341.1 451679.0 0
103259.0 450022.0 0
106696.0 451096.0 0
110250.0 452134.0 0
116486.0 450652.0 0
120190.0 451497.0 0
123959.0 452203.0 0
130362.0 450210.0 0
134108.0 450532.0 0
137826.0 450722.0 0
141570.0 450961.0 0
145316.0 451143.0 0
149040.0 451254.0 0
152746.0 451335.0 0
156474.0 451450.0 0
160219.0 451558.0 0
163974.0 451642.0 0
167731.0 451695.0 0
171487.0 451714.0 0
175238.0 451699.0 0
178981.0 451650.0 0
182714.0 451571.0 0
186437.0 451464.0 0
190148.0 451332.0 0
193846.0 451177.0 0
197531.0 451003.0 0
201201.0 450814.0 0
204857.0 450613.0 0
208497.0 450404.0 0
212123.0 450194.0 0
215734.0 449986.0 0
219332.0 449787.0 0
222916.0 449602.0 0
226488.0 449438.0 0
254863.0 449465.0 0
258413.0 449645.0 0
261967.0 449855.0 0
265527.0 450091.0 0
269094.0 450349.0 0
272667.0 450625.0 0
276248.0 450916.0 0
279839.0 451216.0 0
283440.0 451521.0 0
287052.0 451826.0 0
299548.0 449692.0 0
303195.0 449959.0 0
306851.0 450206.0 0
310515.0 450435.0 0
314185.0 450648.0 0
317861.0 450848.0 0
321544.0 451041.0 0
325244.0 451221.0 0
328975.0 451376.0 0
332744.0 451505.0 0
336558.0 451625.0 0
340404.0 451786.0 0
344147.0 451875.0 0
347845.0 451883.0 0
351503.0 451774.0 0
355111.0 451527.0 0
358683.0 451146.0 0
362230.0 450682.0 0
368289.0 452783.0 0
371829.0 451944.0 0
375244.0 451416.0 0
378819.0 450678.0 0
385128.0 451874.0 0
388540.0 450613.0 0
394814.0 451440.0 0
398076.0 449888.0 0
404342.0 452971.0 0
407577.0 451406.0 0
410815.0 453387.0 0
414023.0 451987.0 0
420435.0 452583.0 0
74741.5 455605.0 0
78102.6 453507.0 0
81431.1 455089.0 0
88056.7 454693.0 0
94484.6 454033.0 0
97936.2 455277.0 0
100713.0 452742.0 0
104146.0 453675.0 0
107673.0 454660.0 0
113884.0 453091.0 0
117583.0 453954.0 0
121342.0 454707.0 0
127744.0 452784.0 0
131535.0 453230.0 0
135311.0 453544.0 0
139060.0 453776.0 0
142820.0 453997.0 0
146579.0 454170.0 0
150326.0 454295.0 0
154067.0 454398.0 0
157820.0 454505.0 0
161583.0 454599.0 0
165352.0 454669.0 0
169122.0 454711.0 0
172889.0 454722.0 0
176651.0 454701.0 0
180405.0 454651.0 0
184149.0 454573.0 0
187883.0 454469.0 0
191605.0 454342.0 0
195314.0 454196.0 0
199010.0 454033.0 0
202692.0 453857.0 0
206360.0 453672.0 0
210014.0 453483.0 0
213653.0 453293.0 0
217279.0 453109.0 0
220892.0 452936.0 0
224493.0 452779.0 0
228083.0 452645.0 0
231664.0 452540.0 0
235237.0 452468.0 0
238805.0 452434.0 0
242370.0 452440.0 0
245934.0 452487.0 0
249498.0 452574.0 0
253064.0 452697.0 0
256633.0 452855.0 0
260206.0 453043.0 0
263784.0 453257.0 0
267367.0 453494.0 0
270957.0 453751.0 0
274555.0 454022.0 0
278161.0 454305.0 0
281776.0 454594.0 0
290675.0 452126.0 0
294310.0 452417.0 0
297955.0 452695.0 0
301611.0 452957.0 0
305276.0 453202.0 0
308949.0 453429.0 0
312627.0 453638.0 0
316309.0 453833.0 0
319997.0 454014.0 0
323696.0 454177.0 0
327415.0 454313.0 0
331162.0 454417.0 0
334948.0 454496.0 0
338794.0 454591.0 0
342729.0 454883.0 0
346471.0 454980.0 0
361082.0 454035.0 0
364688.0 453481.0 0
374436.0 454728.0 0
378010.0 453949.0 0
381604.0 452999.0 0
384431.0 455315.0 0
387972.0 454133.0 0
391435.0 452840.0 0
394361.0 455066.0 0
397773.0 453609.0 0
401056.0 451953.0 0
404190.0 456107.0 0
407580.0 454805.0 0
413966.0 455488.0 0
417227.0 454065.0 0
423675.0 454613.0 0
71370.5 457714.0 0
78009.4 457111.0 0
84843.6 456728.0 0
88395.6 458343.0 0
91513.9 456251.0 0
95072.2 457715.0 0
101480.0 456307.0 0
105055.0 457253.0 0
111295.0 455601.0 0
114989.0 456471.0 0
118739.0 457252.0 0
125131.0 455352.0 0
128937.0 455882.0 0
132744.0 456295.0 0
136535.0 456608.0 0
140314.0 456852.0 0
144095.0 457064.0 0
147874.0 457233.0 0
151646.0 457365.0 0
155417.0 457475.0 0
196807.0 457244.0 0
200514.0 457092.0 0
204208.0 456930.0 0
207888.0 456761.0 0
211555.0 456590.0 0
215208.0 456422.0 0
218849.0 456261.0 0
222477.0 456113.0 0
226095.0 455984.0 0
229702.0 455878.0 0
233302.0 455800.0 0
236895.0 455756.0 0
240484.0 455748.0 0
244070.0 455778.0 0
247656.0 455845.0 0
251242.0 455948.0 0
254830.0 456084.0 0
258422.0 456251.0 0
262017.0 456445.0 0
265618.0 456662.0 0
269225.0 456899.0 0
272839.0 457153.0 0
285402.0 454885.0 0
289038.0 455173.0 0
292685.0 455454.0 0
296342.0 455725.0 0
300009.0 455982.0 0
303685.0 456224.0 0
307367.0 456449.0 0
311055.0 456657.0 0
314747.0 456848.0 0
318442.0 457023.0 0
322144.0 457178.0 0
325855.0 457306.0 0
350175.0 454970.0 0
353830.0 454827.0 0
357466.0 454492.0 0
363611.0 456828.0 0
367271.0 456167.0 0
370888.0 455409.0 0
377204.0 457293.0 0
380829.0 456370.0 0
387287.0 457633.0 0
390855.0 456399.0 0
397283.0 457326.0 0
400702.0 455845.0 0
407244.0 458197.0 0
410664.0 456884.0 0
417117.0 457610.0 0
420426.0 456144.0 0
423634.0 458228.0 0
426917.0 456645.0 0
67994.0 459827.0 0
74648.0 459236.0 0
77916.3 460778.0 0
81249.9 458667.0 0
84414.0 460257.0 0
92058.3 459900.0 0
98721.3 458856.0 0
102384.0 459860.0 0
108693.0 458171.0 0
112395.0 459040.0 0
116147.0 459841.0 0
122529.0 457941.0 0
126340.0 458531.0 0
130161.0 459018.0 0
133981.0 459407.0 0
137793.0 459711.0 0
141599.0 459954.0 0
145405.0 460158.0 0
159192.0 457576.0 0
162973.0 457659.0 0
166757.0 457719.0 0
170539.0 457752.0 0
174317.0 457755.0 0
178090.0 457731.0 0
181854.0 457679.0 0
185609.0 457602.0 0
189354.0 457502.0 0
193086.0 457382.0 0
213120.0 459727.0 0
216787.0 459579.0 0
220442.0 459441.0 0
224086.0 459318.0 0
227720.0 459214.0 0
231345.0 459134.0 0
234963.0 459083.0 0
238576.0 459064.0 0
242185.0 459079.0 0
245792.0 459129.0 0
249398.0 459214.0 0
253006.0 459331.0 0
256616.0 459478.0 0
260229.0 459653.0 0
276460.0 457418.0 0
280090.0 457692.0 0
283730.0 457969.0 0
287379.0 458245.0 0
291039.0 458517.0 0
294708.0 458780.0 0
298387.0 459032.0 0
302074.0 459270.0 0
305768.0 459494.0 0
309468.0 459701.0 0
313172.0 459891.0 0
329578.0 457399.0 0
333316.0 457455.0 0
337078.0 457486.0 0
340888.0 457548.0 0
345087.0 458068.0 0
348813.0 458140.0 0
352507.0 458126.0 0
356227.0 457840.0 0
359925.0 457393.0 0
366254.0 459541.0 0
369936.0 458824.0 0
373573.0 458092.0 0
380023.0 459777.0 0
383670.0 458762.0 0
390155.0 459957.0 0
393747.0 458681.0 0
400154.0 459713.0 0
403672.0 459259.0 0
410272.0 460362.0 0
413745.0 459021.0 0
416872.0 461167.0 0
420291.0 459734.0 0
426851.0 460315.0 0
430164.0 458679.0 0
433419.0 460718.0 0
64613.4 461943.0 0
67941.7 463520.0 0
71296.3 461375.0 0
74607.5 462927.0 0
81162.2 462365.0 0
87532.3 461777.0 0
90662.5 463157.0 0
95978.6 461370.0 0
99729.8 462460.0 0
106069.0 460782.0 0
109795.0 461652.0 0
113559.0 462468.0 0
119936.0 460562.0 0
123752.0 461198.0 0
127581.0 461743.0 0
131417.0 462192.0 0
135255.0 462554.0 0
149207.0 460324.0 0
153004.0 460459.0 0
156798.0 460571.0 0
160594.0 460666.0 0
164392.0 460741.0 0
168189.0 460792.0 0
171983.0 460817.0 0
175773.0 460815.0 0
179556.0 460787.0 0
183331.0 460735.0 0
187096.0 460660.0 0
190851.0 460564.0 0
194594.0 460450.0 0
198325.0 460321.0 0
202043.0 460181.0 0
205749.0 460032.0 0
209441.0 459880.0 0
263847.0 459851.0 0
267470.0 460070.0 0
271099.0 460306.0 0
274736.0 460555.0 0
278381.0 460814.0 0
282034.0 461077.0 0
285697.0 461342.0 0
289369.0 461604.0 0
293051.0 461860.0 0
296742.0 462106.0 0
300442.0 462341.0 0
316880.0 460064.0 0
320590.0 460217.0 0
324303.0 460343.0 0
328019.0 460438.0 0
331733.0 460495.0 0
335439.0 460513.0 0
339133.0 460502.0 0
342839.0 460438.0 0
347508.0 461329.0 0
351138.0 461466.0 0
354922.0 461173.0 0
358754.0 460756.0 0
362531.0 460174.0 0
368992.0 462228.0 0
372676.0 461485.0 0
376354.0 460679.0 0
382859.0 462238.0 0
386523.0 461146.0 0
393027.0 462298.0 0
396627.0 461016.0 0
403037.0 462573.0 0
406684.0 461570.0 0
409768.0 463815.0 0
413365.0 462534.0 0
420039.0 463332.0 0
423481.0 461871.0 0
430077.0 462402.0 0
436683.0 462763.0 0
57841.4 466183.0 0
61228.7 464062.0 0
64579.9 465669.0 0
71289.6 465086.0 0
77922.4 464507.0 0
81262.6 466110.0 0
84418.3 463963.0 0
87738.1 465490.0 0
93905.1 464287.0 0
97331.4 465208.0 0
103450.0 463417.0 0
107193.0 464297.0 0
110970.0 465127.0 0
117355.0 463216.0 0
121174.0 463891.0 0
125010.0 464484.0 0
128856.0 464985.0 0
132711.0 465396.0 0
139091.0 462844.0 0
142925.0 463080.0 0
146755.0 463278.0 0
150580.0 463442.0 0
154399.0 463577.0 0
158214.0 463687.0 0
162028.0 463777.0 0
165840.0 463844.0 0
169650.0 463888.0 0
173456.0 463906.0 0
177257.0 463900.0 0
181050.0 463870.0 0
184835.0 463818.0 0
188610.0 463744.0 0
192375.0 463653.0 0
196128.0 463546.0 0
199869.0 463426.0 0
203598.0 463298.0 0
207314.0 463163.0 0
211018.0 463026.0 0
214710.0 462892.0 0
218390.0 462765.0 0
222059.0 462648.0 0
225718.0 462548.0 0
229368.0 462468.0 0
233010.0 462413.0 0
236646.0 462386.0 0
240277.0 462390.0 0
243906.0 462426.0 0
247533.0 462494.0 0
251160.0 462594.0 0
254788.0 462723.0 0
258419.0 462880.0 0
262053.0 463060.0 0
265692.0 463262.0 0
269337.0 463482.0 0
272989.0 463715.0 0
276648.0 463959.0 0
280315.0 464210.0 0
283991.0 464463.0 0
287676.0 464716.0 0
291371.0 464963.0 0
304149.0 462562.0 0
307862.0 462768.0 0
311581.0 462957.0 0
315304.0 463130.0 0
319029.0 463283.0 0
322756.0 463413.0 0
326484.0 463513.0 0
330206.0 463580.0 0
333916.0 463609.0 0
337601.0 463599.0 0
341248.0 463524.0 0
344846.0 463204.0 0
351006.0 465101.0 0
354528.0 464689.0 0
358047.0 464171.0 0
361627.0 463534.0 0
365300.0 462920.0 0
371742.0 464908.0 0
375462.0 464103.0 0
379169.0 463220.0 0
385701.0 464687.0 0
389380.0 463533.0 0
392249.0 465923.0 0
395904.0 464684.0 0
399496.0 463463.0 0
402457.0 466058.0 0
406109.0 464982.0 0
412908.0 466036.0 0
416515.0 464715.0 0
423231.0 465533.0 0
426684.0 464015.0 0
429899.0 466156.0 0
433314.0 464488.0 0
439960.0 464814.0 0
54453.9 468304.0 0
61215.2 467826.0 0
67954.0 467255.0 0
71351.8 468834.0 0
74655.4 466665.0 0
78052.6 468264.0 0
84674.8 467687.0 0
91174.2 466857.0 0
94712.1 467987.0 0
100922.0 466126.0 0
104632.0 466994.0 0
108398.0 467826.0 0
114775.0 465900.0 0
118602.0 466608.0 0
122447.0 467245.0 0
126302.0 467797.0 0
136572.0 465730.0 0
140439.0 466000.0 0
144299.0 466230.0 0
148150.0 466424.0 0
151994.0 466586.0 0
155831.0 466719.0 0
159663.0 466826.0 0
163493.0 466910.0 0
167319.0 466970.0 0
171141.0 467007.0 0
174958.0 467021.0 0
178769.0 467011.0 0
182572.0 466979.0 0
186367.0 466927.0 0
190151.0 466857.0 0
193925.0 466770.0 0
197688.0 466671.0 0
201439.0 466560.0 0
205178.0 466443.0 0
208905.0 466322.0 0
212620.0 466201.0 0
216324.0 466085.0 0
220017.0 465977.0 0
223699.0 465881.0 0
227373.0 465803.0 0
231038.0 465746.0 0
234697.0 465713.0 0
238350.0 465708.0 0
241999.0 465732.0 0
245646.0 465787.0 0
249292.0 465872.0 0
252939.0 465985.0 0
256587.0 466125.0 0
260238.0 466289.0 0
263892.0 466475.0 0
267552.0 466679.0 0
271218.0 466897.0 0
274891.0 467128.0 0
278572.0 467366.0 0
282260.0 467608.0 0
295074.0 465204.0 0
298786.0 465435.0 0
302507.0 465653.0 0
306234.0 465857.0 0
309968.0 466046.0 0
313707.0 466219.0 0
317451.0 466372.0 0
321198.0 466505.0 0
324948.0 466611.0 0
328697.0 466687.0 0
332444.0 466727.0 0
336185.0 466724.0 0
339929.0 466655.0 0
343698.0 466404.0 0
347475.0 465585.0 0
360654.0 467020.0 0
364314.0 466352.0 0
368021.0 465657.0 0
374517.0 467559.0 0
378267.0 466698.0 0
381996.0 465745.0 0
384830.0 468264.0 0
388551.0 467135.0 0
395152.0 468330.0 0
398827.0 467129.0 0
405541.0 468474.0 0
409240.0 467290.0 0
416099.0 468257.0 0
419709.0 466931.0 0
426437.0 467745.0 0
433130.0 468292.0 0
436563.0 466575.0 0
439830.0 468660.0 0
443251.0 466874.0 0
446560.0 468945.0 0
51065.5 470427.0 0
57854.6 469990.0 0
64609.9 469438.0 0
68022.6 471027.0 0
74783.0 470425.0 0
81517.1 469854.0 0
85092.1 471380.0 0
88205.1 469170.0 0
91847.4 470529.0 0
98316.3 468909.0 0
102040.0 469740.0 0
112202.0 468615.0 0
116033.0 469350.0 0
119885.0 470024.0 0
123749.0 470625.0 0
130169.0 468256.0 0
134048.0 468623.0 0
137952.0 468918.0 0
141843.0 469180.0 0
145720.0 469407.0 0
149588.0 469598.0 0
153447.0 469756.0 0
157299.0 469885.0 0
161147.0 469987.0 0
164990.0 470065.0 0
168829.0 470120.0 0
172662.0 470151.0 0
176490.0 470160.0 0
180310.0 470148.0 0
184123.0 470115.0 0
187926.0 470064.0 0
191719.0 469997.0 0
195502.0 469915.0 0
199274.0 469823.0 0
203035.0 469722.0 0
206783.0 469616.0 0
210521.0 469509.0 0
214246.0 469404.0 0
217961.0 469304.0 0
221666.0 469215.0 0
225362.0 469139.0 0
229049.0 469081.0 0
232729.0 469045.0 0
236404.0 469034.0 0
240073.0 469049.0 0
243740.0 469092.0 0
247405.0 469163.0 0
251069.0 469262.0 0
254733.0 469387.0 0
258400.0 469536.0 0
262070.0 469707.0 0
265745.0 469896.0 0
269425.0 470101.0 0
285958.0 467851.0 0
289665.0 468091.0 0
293381.0 468325.0 0
297106.0 468551.0 0
300839.0 468766.0 0
304580.0 468969.0 0
308329.0 469157.0 0
312085.0 469328.0 0
315847.0 469482.0 0
319614.0 469616.0 0
323387.0 469726.0 0
327164.0 469807.0 0
330944.0 469855.0 0
334729.0 469858.0 0
338522.0 469797.0 0
342333.0 469606.0 0
346137.0 469131.0 0
349760.0 468640.0 0
353356.0 468157.0 0
357000.0 467655.0 0
363292.0 469835.0 0
367017.0 469121.0 0
370763.0 468362.0 0
377292.0 470198.0 0
381082.0 469281.0 0
387674.0 470774.0 0
391431.0 469555.0 0
398107.0 470762.0 0
401828.0 469612.0 0
408681.0 470808.0 0
412422.0 469554.0 0
419342.0 470524.0 0
422923.0 469219.0 0
426139.0 471514.0 0
429656.0 469945.0 0
436379.0 470421.0 0
443118.0 470746.0 0
449891.0 471029.0 0
47676.4 472550.0 0
54496.8 472156.0 0
57947.2 473847.0 0
61274.4 471639.0 0
64708.6 473255.0 0
71447.8 472607.0 0
78279.4 472021.0 0
81888.4 473571.0 0
88776.8 472816.0 0
92565.0 474232.0 0
95548.7 471671.0 0
99380.2 472504.0 0
105814.0 470566.0 0
109624.0 471363.0 0
113456.0 472117.0 0
117312.0 472822.0 0
127627.0 471138.0 0
131522.0 471546.0 0
135474.0 471837.0 0
139396.0 472132.0 0
143297.0 472393.0 0
147185.0 472615.0 0
151065.0 472801.0 0
154937.0 472953.0 0
208413.0 472817.0 0
212160.0 472723.0 0
215896.0 472633.0 0
219622.0 472550.0 0
223338.0 472478.0 0
227046.0 472421.0 0
230747.0 472383.0 0
234441.0 472366.0 0
238130.0 472374.0 0
241816.0 472408.0 0
245498.0 472468.0 0
249179.0 472554.0 0
252860.0 472666.0 0
273111.0 470318.0 0
276805.0 470544.0 0
280506.0 470775.0 0
284216.0 471009.0 0
287935.0 471241.0 0
291663.0 471469.0 0
295400.0 471690.0 0
299145.0 471902.0 0
302900.0 472102.0 0
306662.0 472288.0 0
310433.0 472459.0 0
314212.0 472613.0 0
317999.0 472747.0 0
321793.0 472859.0 0
325595.0 472944.0 0
340903.0 472809.0 0
344757.0 472507.0 0
348524.0 472117.0 0
352219.0 471650.0 0
355889.0 471116.0 0
359587.0 470506.0 0
365959.0 472626.0 0
369727.0 471858.0 0
373507.0 471051.0 0
380066.0 472818.0 0
383903.0 471871.0 0
390583.0 473194.0 0
394361.0 471971.0 0
401112.0 473199.0 0
404900.0 472013.0 0
412125.0 473093.0 0
415715.0 471801.0 0
422576.0 472940.0 0
429377.0 473773.0 0
432895.0 472133.0 0
439648.0 472540.0 0
446432.0 472836.0 0
453239.0 473124.0 0
44280.3 474678.0 0
47779.1 476494.0 0
51138.9 474324.0 0
54622.6 476057.0 0
61410.4 475503.0 0
68153.9 474847.0 0
71597.2 476438.0 0
74868.9 474180.0 0
78257.4 475748.0 0
85596.7 475048.0 0
89394.9 476457.0 0
96715.3 475249.0 0
103197.0 473329.0 0
107025.0 474135.0 0
110868.0 474909.0 0
114725.0 475639.0 0
121185.0 473467.0 0
125071.0 474033.0 0
128975.0 474503.0 0
133039.0 474767.0 0
136974.0 475090.0 0
140888.0 475386.0 0
144792.0 475640.0 0
158803.0 473076.0 0
162664.0 473173.0 0
166520.0 473245.0 0
170370.0 473293.0 0
174214.0 473320.0 0
178051.0 473325.0 0
181880.0 473310.0 0
185701.0 473277.0 0
189513.0 473227.0 0
193315.0 473163.0 0
197106.0 473087.0 0
200886.0 473003.0 0
204656.0 472911.0 0
256543.0 472801.0 0
260227.0 472958.0 0
263916.0 473133.0 0
267609.0 473325.0 0
271308.0 473529.0 0
275014.0 473744.0 0
278727.0 473965.0 0
282449.0 474189.0 0
286179.0 474414.0 0
289918.0 474635.0 0
293666.0 474852.0 0
297424.0 475059.0 0
301191.0 475257.0 0
304967.0 475442.0 0
329404.0 472996.0 0
333222.0 473007.0 0
337054.0 472956.0 0
350962.0 475127.0 0
354717.0 474630.0 0
358459.0 474024.0 0
362205.0 473351.0 0
368627.0 475395.0 0
372430.0 474580.0 0
376243.0 473725.0 0
382803.0 475449.0 0
386737.0 474464.0 0
389706.0 476849.0 0
393523.0 475622.0 0
397324.0 474397.0 0
401626.0 476798.0 0
405094.0 475604.0 0
408590.0 474371.0 0
415334.0 475420.0 0
418938.0 474128.0 0
422223.0 476710.0 0
425828.0 475335.0 0
432630.0 476019.0 0
436151.0 474308.0 0
439431.0 476455.0 0
442945.0 474646.0 0
446276.0 476752.0 0
449769.0 474947.0 0
456602.0 475228.0 0
51295.3 478270.0 0
58121.8 477756.0 0
64882.8 477122.0 0
68360.8 478723.0 0
75022.8 478025.0 0
81620.5 477263.0 0
84976.0 478684.0 0
93928.2 477829.0 0
97924.2 478877.0 0
100564.0 476105.0 0
104410.0 476927.0 0
108262.0 477719.0 0
118600.0 476323.0 0
122486.0 476940.0 0
126381.0 477472.0 0
130665.0 477699.0 0
134589.0 478065.0 0
148688.0 475854.0 0
152579.0 476031.0 0
156463.0 476176.0 0
160342.0 476292.0 0
164215.0 476382.0 0
168082.0 476448.0 0
171942.0 476491.0 0
175796.0 476513.0 0
179641.0 476515.0 0
183479.0 476499.0 0
187308.0 476465.0 0
191128.0 476417.0 0
194937.0 476357.0 0
198736.0 476287.0 0
202524.0 476210.0 0
206302.0 476128.0 0
210068.0 476045.0 0
213823.0 475964.0 0
217568.0 475888.0 0
221304.0 475821.0 0
225031.0 475766.0 0
228751.0 475726.0 0
232464.0 475706.0 0
236172.0 475708.0 0
239875.0 475734.0 0
243575.0 475785.0 0
247272.0 475860.0 0
250968.0 475960.0 0
254665.0 476083.0 0
258364.0 476227.0 0
262065.0 476390.0 0
265771.0 476569.0 0
269482.0 476762.0 0
273200.0 476965.0 0
276924.0 477176.0 0
280657.0 477392.0 0
284398.0 477609.0 0
288147.0 477824.0 0
291906.0 478035.0 0
308751.0 475612.0 0
312546.0 475765.0 0
316349.0 475900.0 0
320163.0 476012.0 0
323986.0 476099.0 0
327819.0 476155.0 0
331664.0 476172.0 0
335523.0 476134.0 0
339401.0 476017.0 0
343291.0 475798.0 0
347161.0 475512.0 0
357239.0 477573.0 0
361038.0 476902.0 0
364831.0 476171.0 0
371300.0 478148.0 0
375124.0 477292.0 0
378958.0 476395.0 0
385452.0 478117.0 0
394730.0 479090.0 0
398175.0 477959.0 0
404645.0 479279.0 0
408193.0 478018.0 0
411754.0 476727.0 0
414913.0 479096.0 0
418528.0 477780.0 0
425505.0 479216.0 0
429079.0 477650.0 0
435899.0 478244.0 0
442747.0 478572.0 0
449629.0 478905.0 0
453117.0 477070.0 0
456465.0 479201.0 0
459978.0 477341.0 0
54830.7 480007.0 0
58386.0 481715.0 0
61630.0 479422.0 0
65140.3 481040.0 0
71829.5 480338.0 0
75302.3 481934.0 0
78454.4 479575.0 0
81919.2 481070.0 0
88341.2 479971.0 0
91819.3 480925.0 0
101784.0 479730.0 0
105639.0 480544.0 0
112121.0 478474.0 0
115994.0 479191.0 0
119879.0 479857.0 0
123767.0 480453.0 0
128298.0 480610.0 0
138501.0 478394.0 0
142411.0 478679.0 0
146320.0 478919.0 0
150226.0 479120.0 0
154129.0 479287.0 0
158025.0 479423.0 0
161916.0 479532.0 0
165800.0 479615.0 0
169676.0 479675.0 0
173546.0 479714.0 0
177408.0 479732.0 0
181262.0 479731.0 0
185107.0 479713.0 0
188943.0 479679.0 0
192770.0 479634.0 0
196587.0 479577.0 0
200393.0 479513.0 0
204188.0 479444.0 0
207972.0 479372.0 0
211746.0 479300.0 0
215509.0 479231.0 0
219262.0 479169.0 0
223007.0 479116.0 0
226745.0 479077.0 0
230475.0 479054.0 0
234200.0 479052.0 0
237920.0 479071.0 0
241636.0 479113.0 0
245349.0 479180.0 0
249060.0 479269.0 0
252770.0 479381.0 0
256481.0 479514.0 0
260195.0 479665.0 0
263912.0 479833.0 0
267635.0 480015.0 0
271363.0 480208.0 0
275098.0 480409.0 0
278840.0 480616.0 0
295675.0 478239.0 0
299453.0 478434.0 0
303241.0 478617.0 0
307038.0 478786.0 0
310846.0 478939.0 0
314665.0 479073.0 0
318494.0 479187.0 0
322335.0 479275.0 0
326188.0 479335.0 0
330054.0 479357.0 0
333934.0 479332.0 0
337830.0 479240.0 0
341741.0 479066.0 0
345657.0 478820.0 0
349586.0 478561.0 0
353428.0 478143.0 0
359802.0 480470.0 0
363643.0 479743.0 0
367473.0 478965.0 0
373958.0 480906.0 0
377786.0 480016.0 0
381624.0 479090.0 0
387736.0 481050.0 0
391273.0 480163.0 0
397556.0 481694.0 0
401104.0 480504.0 0
407708.0 481716.0 0
411308.0 480417.0 0
418082.0 481481.0 0
421841.0 480526.0 0
428735.0 481576.0 0
432337.0 479957.0 0
439208.0 480411.0 0
446098.0 480680.0 0
61972.3 483398.0 0
68622.5 482653.0 0
72129.4 484287.0 0
78811.8 483442.0 0
85442.2 482477.0 0
89070.0 483697.0 0
95442.7 481745.0 0
99195.5 482576.0 0
103020.0 483391.0 0
109504.0 481326.0 0
113375.0 482072.0 0
117256.0 482780.0 0
121139.0 483435.0 0
132215.0 481053.0 0
136126.0 481423.0 0
140040.0 481737.0 0
143960.0 482001.0 0
147882.0 482224.0 0
151801.0 482412.0 0
155715.0 482568.0 0
159623.0 482695.0 0
163524.0 482796.0 0
167418.0 482873.0 0
171303.0 482927.0 0
175181.0 482961.0 0
179051.0 482975.0 0
182912.0 482971.0 0
186764.0 482952.0 0
190607.0 482920.0 0
194440.0 482876.0 0
198263.0 482824.0 0
202075.0 482766.0 0
205877.0 482705.0 0
209667.0 482643.0 0
213447.0 482581.0 0
217217.0 482525.0 0
220978.0 482475.0 0
224731.0 482436.0 0
228477.0 482412.0 0
232218.0 482405.0 0
235953.0 482418.0 0
239684.0 482454.0 0
243411.0 482512.0 0
247135.0 482593.0 0
250858.0 482695.0 0
254581.0 482818.0 0
258306.0 482959.0 0
262034.0 483116.0 0
282591.0 480826.0 0
286351.0 481035.0 0
290119.0 481241.0 0
293898.0 481442.0 0
297687.0 481634.0 0
301485.0 481814.0 0
305294.0 481982.0 0
309114.0 482135.0 0
312945.0 482269.0 0
316788.0 482384.0 0
320644.0 482474.0 0
324513.0 482536.0 0
328396.0 482565.0 0
332293.0 482551.0 0
336203.0 482483.0 0
340124.0 482345.0 0
344047.0 482132.0 0
347979.0 481859.0 0
352057.0 481644.0 0
355941.0 481133.0 0
366283.0 482561.0 0
370125.0 481751.0 0
380373.0 482800.0 0
384100.0 481905.0 0
390354.0 483869.0 0
393985.0 482835.0 0
400483.0 484229.0 0
404102.0 482995.0 0
410797.0 484150.0 0
414437.0 482818.0 0
421398.0 484385.0 0
425122.0 483144.0 0
442569.0 482531.0 0
68889.5 486599.0 0
75669.9 485882.0 0
79299.2 487289.0 0
82413.6 484884.0 0
86110.2 486237.0 0
92766.9 484645.0 0
96534.3 485462.0 0
106874.0 484190.0 0
110739.0 484963.0 0
114616.0 485707.0 0
125914.0 483511.0 0
129823.0 484029.0 0
133745.0 484464.0 0
137671.0 484815.0 0
141606.0 485102.0 0
145545.0 485345.0 0
149482.0 485551.0 0
153414.0 485726.0 0
157340.0 485872.0 0
161257.0 485991.0 0
215170.0 485889.0 0
218946.0 485843.0 0
222713.0 485806.0 0
226474.0 485780.0 0
230228.0 485769.0 0
233977.0 485777.0 0
237722.0 485806.0 0
265766.0 483288.0 0
269504.0 483471.0 0
273248.0 483664.0 0
276999.0 483862.0 0
280759.0 484065.0 0
284528.0 484268.0 0
288305.0 484470.0 0
292093.0 484666.0 0
295891.0 484855.0 0
299699.0 485034.0 0
303518.0 485201.0 0
307349.0 485353.0 0
311191.0 485488.0 0
315046.0 485603.0 0
318914.0 485696.0 0
322796.0 485762.0 0
326692.0 485796.0 0
330604.0 485793.0 0
334528.0 485744.0 0
338461.0 485639.0 0
342393.0 485470.0 0
346313.0 485225.0 0
350226.0 484893.0 0
354641.0 484723.0 0
358546.0 484051.0 0
362426.0 483331.0 0
368943.0 485383.0 0
372781.0 484553.0 0
376595.0 483692.0 0
386686.0 484780.0 0
393150.0 486545.0 0
396838.0 485422.0 0
403473.0 486732.0 0
407144.0 485451.0 0
413910.0 486585.0 0
417582.0 485226.0 0
445969.0 484627.0 0
82998.1 488677.0 0
89904.4 487430.0 0
93766.0 488335.0 0
100363.0 486259.0 0
104217.0 487066.0 0
108088.0 487860.0 0
111960.0 488635.0 0
118500.0 486415.0 0
123497.0 486405.0 0
127402.0 487006.0 0
131328.0 487485.0 0
135293.0 487909.0 0
139255.0 488223.0 0
143216.0 488484.0 0
165167.0 486085.0 0
169069.0 486155.0 0
172963.0 486204.0 0
176848.0 486232.0 0
180725.0 486243.0 0
184592.0 486237.0 0
188450.0 486217.0 0
192299.0 486185.0 0
196138.0 486145.0 0
199966.0 486098.0 0
203783.0 486046.0 0
207590.0 485993.0 0
211385.0 485940.0 0
241462.0 485858.0 0
245198.0 485931.0 0
248932.0 486025.0 0
252666.0 486139.0 0
256400.0 486271.0 0
260137.0 486419.0 0
263877.0 486581.0 0
267623.0 486755.0 0
271376.0 486939.0 0
275135.0 487130.0 0
278903.0 487326.0 0
282679.0 487523.0 0
286465.0 487720.0 0
290260.0 487913.0 0
294066.0 488099.0 0
297883.0 488277.0 0
301711.0 488443.0 0
348576.0 488334.0 0
352474.0 487877.0 0
357349.0 487663.0 0
361222.0 486943.0 0
365089.0 486182.0 0
371616.0 488222.0 0
375443.0 487383.0 0
379238.0 486524.0 0
382986.0 485652.0 0
389431.0 487570.0 0
396049.0 489148.0 0
399778.0 487967.0 0
406508.0 489222.0 0
410219.0 487912.0 0
417058.0 489014.0 0
420971.0 488300.0 0
79793.8 491138.0 0
83549.2 492486.0 0
86760.0 489998.0 0
90528.4 491240.0 0
97652.9 489136.0 0
101525.0 489949.0 0
105400.0 490757.0 0
115840.0 489386.0 0
121035.0 489298.0 0
124938.0 489971.0 0
128874.0 490535.0 0
132841.0 490942.0 0
147173.0 488708.0 0
151123.0 488901.0 0
155066.0 489065.0 0
159001.0 489201.0 0
162927.0 489312.0 0
166845.0 489398.0 0
170754.0 489462.0 0
174655.0 489505.0 0
178547.0 489529.0 0
182429.0 489536.0 0
186302.0 489528.0 0
190166.0 489507.0 0
194019.0 489477.0 0
197863.0 489439.0 0
201695.0 489398.0 0
205516.0 489353.0 0
209327.0 489308.0 0
213126.0 489264.0 0
216915.0 489223.0 0
220695.0 489187.0 0
224467.0 489160.0 0
228234.0 489146.0 0
231995.0 489149.0 0
235752.0 489172.0 0
239503.0 489217.0 0
243250.0 489284.0 0
246994.0 489371.0 0
250736.0 489478.0 0
254478.0 489601.0 0
258222.0 489741.0 0
261970.0 489894.0 0
265723.0 490059.0 0
269482.0 490235.0 0
273248.0 490419.0 0
277022.0 490608.0 0
280804.0 490800.0 0
284597.0 490992.0 0
305551.0 488595.0 0
309403.0 488730.0 0
313267.0 488847.0 0
317146.0 488941.0 0
321038.0 489010.0 0
324946.0 489051.0 0
328869.0 489057.0 0
332806.0 489024.0 0
336755.0 488945.0 0
340708.0 488816.0 0
344654.0 488624.0 0
354974.0 490632.0 0
360050.0 490599.0 0
363912.0 489832.0 0
367770.0 489039.0 0
374314.0 491080.0 0
378138.0 490237.0 0
381935.0 489382.0 0
385696.0 488502.0 0
392282.0 490266.0 0
399020.0 491715.0 0
402778.0 490495.0 0
409572.0 491705.0 0
413322.0 490382.0 0
80405.2 495034.0 0
87293.3 493837.0 0
94928.8 492006.0 0
98801.2 492835.0 0
102684.0 493659.0 0
109278.0 491558.0 0
113155.0 492344.0 0
118518.0 492190.0 0
122418.0 492927.0 0
126357.0 493561.0 0
136922.0 491367.0 0
140903.0 491643.0 0
144878.0 491883.0 0
148846.0 492092.0 0
152807.0 492273.0 0
156758.0 492428.0 0
160700.0 492555.0 0
164632.0 492657.0 0
168557.0 492736.0 0
172473.0 492793.0 0
176380.0 492830.0 0
180278.0 492850.0 0
184165.0 492853.0 0
188043.0 492843.0 0
191910.0 492822.0 0
195768.0 492794.0 0
199615.0 492760.0 0
203450.0 492724.0 0
207274.0 492688.0 0
211087.0 492651.0 0
214888.0 492616.0 0
218679.0 492583.0 0
222463.0 492555.0 0
226239.0 492538.0 0
230011.0 492535.0 0
233778.0 492552.0 0
237539.0 492590.0 0
241295.0 492651.0 0
245047.0 492733.0 0
248796.0 492833.0 0
252544.0 492950.0 0
256293.0 493082.0 0
260046.0 493227.0 0
263804.0 493385.0 0
267567.0 493553.0 0
288399.0 491181.0 0
292212.0 491365.0 0
296037.0 491541.0 0
299872.0 491707.0 0
303720.0 491859.0 0
307580.0 491996.0 0
311454.0 492114.0 0
315341.0 492210.0 0
319242.0 492283.0 0
323159.0 492329.0 0
327091.0 492344.0 0
331038.0 492324.0 0
334998.0 492264.0 0
338970.0 492161.0 0
342952.0 492014.0 0
346938.0 491796.0 0
350898.0 491427.0 0
357501.0 493464.0 0
362753.0 493525.0 0
366613.0 492723.0 0
370469.0 491909.0 0
380882.0 493100.0 0
384706.0 492228.0 0
388502.0 491297.0 0
395220.0 492883.0 0
402042.0 494287.0 0
405812.0 493018.0 0
412647.0 494219.0 0
416446.0 492838.0 0
84175.4 496340.0 0
89097.1 497311.0 0
92131.5 494778.0 0
95986.7 495770.0 0
99873.8 496577.0 0
106575.0 494480.0 0
110469.0 495285.0 0
115944.0 495078.0 0
119843.0 495876.0 0
130445.0 494046.0 0
134429.0 494393.0 0
138620.0 494832.0 0
142605.0 495082.0 0
146587.0 495304.0 0
150563.0 495500.0 0
154529.0 495671.0 0
158486.0 495816.0 0
162433.0 495935.0 0
166372.0 496027.0 0
170303.0 496097.0 0
174226.0 496147.0 0
178139.0 496179.0 0
182041.0 496195.0 0
185933.0 496196.0 0
189814.0 496184.0 0
193684.0 496163.0 0
197545.0 496137.0 0
201393.0 496108.0 0
205230.0 496079.0 0
209056.0 496050.0 0
212869.0 496021.0 0
216671.0 495993.0 0
220464.0 495967.0 0
224249.0 495947.0 0
228028.0 495938.0 0
231803.0 495947.0 0
235573.0 495979.0 0
239336.0 496034.0 0
243094.0 496111.0 0
246847.0 496207.0 0
271338.0 493729.0 0
275117.0 493912.0 0
278905.0 494098.0 0
282702.0 494286.0 0
286510.0 494472.0 0
290329.0 494653.0 0
294160.0 494828.0 0
298002.0 494993.0 0
301857.0 495146.0 0
305725.0 495284.0 0
309605.0 495404.0 0
313500.0 495504.0 0
317409.0 495581.0 0
321332.0 495632.0 0
325271.0 495654.0 0
329225.0 495645.0 0
333192.0 495601.0 0
337171.0 495520.0 0
341159.0 495399.0 0
345190.0 495220.0 0
349253.0 494977.0 0
353598.0 494190.0 0
360079.0 496315.0 0
365463.0 496442.0 0
369325.0 495618.0 0
373186.0 494789.0 0
377040.0 493950.0 0
383663.0 495952.0 0
387537.0 495048.0 0
391390.0 494015.0 0
398233.0 495469.0 0
405080.0 496847.0 0
408871.0 495537.0 0
415768.0 496691.0 0
86018.7 499835.0 0
93137.7 498575.0 0
103753.0 497416.0 0
107626.0 498275.0 0
113316.0 497970.0 0
117205.0 498807.0 0
123790.0 496568.0 0
127962.0 497098.0 0
132093.0 497558.0 0
136095.0 497849.0 0
140359.0 498313.0 0
144350.0 498541.0 0
148337.0 498747.0 0
152318.0 498933.0 0
250598.0 496319.0 0
254351.0 496444.0 0
258107.0 496582.0 0
261867.0 496732.0 0
265633.0 496892.0 0
269407.0 497062.0 0
273189.0 497238.0 0
276980.0 497419.0 0
280781.0 497602.0 0
284593.0 497784.0 0
288417.0 497964.0 0
292252.0 498137.0 0
296100.0 498302.0 0
299961.0 498456.0 0
303835.0 498595.0 0
307723.0 498718.0 0
311624.0 498821.0 0
315539.0 498902.0 0
319469.0 498959.0 0
331344.0 498958.0 0
335327.0 498896.0 0
339319.0 498800.0 0
343359.0 498634.0 0
347416.0 498450.0 0
352105.0 497713.0 0
356181.0 497104.0 0
372050.0 498517.0 0
375924.0 497674.0 0
379795.0 496823.0 0
386447.0 498802.0 0
390441.0 497790.0 0
394377.0 496637.0 0
401226.0 498094.0 0
408125.0 499413.0 0
411916.0 498099.0 0
90061.0 501142.0 0
94262.2 502382.0 0
97091.2 499566.0 0
101002.0 500337.0 0
104892.0 501189.0 0
110620.0 500849.0 0
121194.0 499560.0 0
125430.0 500130.0 0
129625.0 500641.0 0
133811.0 501069.0 0
137802.0 501325.0 0
156288.0 499096.0 0
160249.0 499231.0 0
164201.0 499338.0 0
168146.0 499420.0 0
172085.0 499481.0 0
176014.0 499525.0 0
179932.0 499553.0 0
183838.0 499566.0 0
187732.0 499562.0 0
191615.0 499548.0 0
195488.0 499528.0 0
199349.0 499506.0 0
203198.0 499483.0 0
207035.0 499461.0 0
210861.0 499440.0 0
214674.0 499420.0 0
218475.0 499398.0 0
222267.0 499376.0 0
226053.0 499361.0 0
229834.0 499361.0 0
233608.0 499384.0 0
237377.0 499432.0 0
241138.0 499505.0 0
244894.0 499599.0 0
248646.0 499707.0 0
252398.0 499827.0 0
256154.0 499958.0 0
259915.0 500101.0 0
263682.0 500254.0 0
267456.0 500416.0 0
271239.0 500586.0 0
275031.0 500762.0 0
278834.0 500940.0 0
282649.0 501119.0 0
286475.0 501296.0 0
290314.0 501468.0 0
323413.0 498988.0 0
327372.0 498988.0 0
350304.0 501134.0 0
354702.0 500694.0 0
358816.0 500004.0 0
362706.0 499188.0 0
368177.0 499358.0 0
374780.0 501418.0 0
378668.0 500564.0 0
382557.0 499695.0 0
393474.0 500412.0 0
397397.0 499240.0 0
404237.0 500713.0 0
415048.0 500577.0 0
102177.0 504123.0 0
107908.0 503761.0 0
114516.0 501730.0 0
118541.0 502517.0 0
122856.0 503147.0 0
127106.0 503705.0 0
131358.0 504184.0 0
142133.0 501808.0 0
146132.0 502019.0 0
150124.0 502214.0 0
154106.0 502394.0 0
158080.0 502547.0 0
162046.0 502670.0 0
166004.0 502763.0 0
169957.0 502832.0 0
173903.0 502886.0 0
177839.0 502927.0 0
181761.0 502952.0 0
185670.0 502960.0 0
189565.0 502952.0 0
193449.0 502937.0 0
197320.0 502920.0 0
201179.0 502903.0 0
205026.0 502886.0 0
208863.0 502871.0 0
212688.0 502860.0 0
216500.0 502846.0 0
220299.0 502827.0 0
224092.0 502806.0 0
227876.0 502797.0 0
231652.0 502810.0 0
235421.0 502848.0 0
239185.0 502916.0 0
242939.0 503009.0 0
246688.0 503117.0 0
250438.0 503232.0 0
254191.0 503357.0 0
257950.0 503493.0 0
261714.0 503639.0 0
265487.0 503795.0 0
269268.0 503958.0 0
294166.0 501633.0 0
298032.0 501787.0 0
301911.0 501929.0 0
305805.0 502054.0 0
309712.0 502162.0 0
313634.0 502248.0 0
317570.0 502310.0 0
321519.0 502346.0 0
325483.0 502356.0 0
329458.0 502337.0 0
333444.0 502289.0 0
337438.0 502214.0 0
341507.0 502066.0 0
345529.0 501909.0 0
357359.0 503631.0 0
361473.0 502920.0 0
365364.0 502085.0 0
370896.0 502273.0 0
381409.0 503463.0 0
385310.0 502577.0 0
389327.0 501556.0 0
396503.0 503045.0 0
400346.0 501957.0 0
111801.0 504646.0 0
115860.0 505466.0 0
120208.0 506124.0 0
135559.0 504597.0 0
139551.0 504820.0 0
143936.0 505316.0 0
147949.0 505515.0 0
151938.0 505712.0 0
155925.0 505881.0 0
159906.0 506023.0 0
163880.0 506133.0 0
167843.0 506206.0 0
171806.0 506262.0 0
175759.0 506314.0 0
179701.0 506353.0 0
183629.0 506377.0 0
187539.0 506379.0 0
191433.0 506365.0 0
195312.0 506352.0 0
199178.0 506340.0 0
203032.0 506328.0 0
206877.0 506317.0 0
210712.0 506309.0 0
214539.0 506309.0 0
218350.0 506300.0 0
222151.0 506275.0 0
225941.0 506257.0 0
229716.0 506261.0 0
233480.0 506287.0 0
237236.0 506342.0 0
240988.0 506436.0 0
244728.0 506549.0 0
248472.0 506661.0 0
273059.0 504128.0 0
276861.0 504301.0 0
280676.0 504476.0 0
284503.0 504650.0 0
288344.0 504821.0 0
292199.0 504985.0 0
296068.0 505140.0 0
299952.0 505284.0 0
303851.0 505413.0 0
307765.0 505524.0 0
311693.0 505616.0 0
315635.0 505684.0 0
319591.0 505728.0 0
323559.0 505746.0 0
327539.0 505738.0 0
331528.0 505703.0 0
335525.0 505643.0 0
339614.0 505506.0 0
343650.0 505381.0 0
348452.0 504568.0 0
352863.0 504150.0 0
360013.0 506583.0 0
364151.0 505850.0 0
368046.0 505000.0 0
373615.0 505190.0 0
377510.0 504329.0 0
384145.0 506372.0 0
388184.0 505351.0 0
392345.0 504169.0 0
124539.0 506750.0 0
128849.0 507276.0 0
133118.0 507744.0 0
137346.0 508139.0 0
141338.0 508331.0 0
145778.0 508834.0 0
149769.0 509048.0 0
153776.0 509233.0 0
157776.0 509391.0 0
252220.0 506781.0 0
255973.0 506910.0 0
259733.0 507049.0 0
263500.0 507197.0 0
267277.0 507354.0 0
271064.0 507518.0 0
274863.0 507686.0 0
278675.0 507857.0 0
282501.0 508028.0 0
286341.0 508196.0 0
290197.0 508360.0 0
294069.0 508515.0 0
297956.0 508660.0 0
301860.0 508792.0 0
305780.0 508908.0 0
309715.0 509005.0 0
313665.0 509081.0 0
317628.0 509132.0 0
321604.0 509159.0 0
325589.0 509159.0 0
329584.0 509138.0 0
333587.0 509089.0 0
337695.0 508960.0 0
341739.0 508851.0 0
346595.0 508040.0 0
350988.0 507618.0 0
355508.0 507110.0 0
362680.0 509541.0 0
366843.0 508791.0 0
370744.0 507932.0 0
376322.0 508121.0 0
380226.0 507255.0 0
391213.0 507966.0 0
395345.0 506826.0 0
143176.0 511849.0 0
161770.0 509520.0 0
165755.0 509616.0 0
169724.0 509658.0 0
173691.0 509716.0 0
177652.0 509765.0 0
181605.0 509803.0 0
185543.0 509825.0 0
189455.0 509819.0 0
193331.0 509807.0 0
197198.0 509799.0 0
201056.0 509790.0 0
204905.0 509782.0 0
208745.0 509775.0 0
212580.0 509775.0 0
216416.0 509789.0 0
220242.0 509769.0 0
224041.0 509741.0 0
227815.0 509738.0 0
231568.0 509757.0 0
235308.0 509799.0 0
239038.0 509873.0 0
242766.0 510005.0 0
246503.0 510116.0 0
250243.0 510230.0 0
253989.0 510353.0 0
257740.0 510485.0 0
261499.0 510626.0 0
265268.0 510776.0 0
269048.0 510933.0 0
272840.0 511096.0 0
276646.0 511262.0 0
280468.0 511429.0 0
284305.0 511595.0 0
288160.0 511757.0 0
292032.0 511912.0 0
344692.0 511524.0 0
349119.0 511122.0 0
353623.0 510605.0 0
358151.0 510091.0 0
171620.0 513133.0 0
175606.0 513189.0 0
179584.0 513235.0 0
183559.0 513270.0 0
187540.0 513286.0 0
194645.0 513542.0 0
198633.0 513489.0 0
202609.0 513433.0 0
206570.0 513374.0 0
210516.0 513316.0 0
214446.0 513268.0 0
218360.0 513268.0 0
222283.0 513288.0 0
226225.0 513366.0 0
230185.0 513469.0 0
234159.0 513592.0 0
238146.0 513735.0 0
295922.0 512058.0 0
299829.0 512192.0 0
303755.0 512312.0 0
307698.0 512414.0 0
311656.0 512496.0 0
315630.0 512556.0 0
319615.0 512592.0 0
323610.0 512602.0 0
327610.0 512589.0 0
331633.0 512551.0 0
335754.0 512430.0 0
339812.0 512331.0 0
POINT_DATA 4650
SCALARS Radius float 1
LOOKUP_TABLE default
4000.0 4000.0 4000.0 4000.0 4000.0 4000.0 4000.0 4000.0 4000.0 4000.0 4000.0 4000.0 4000.0 4000.0 4000.0 4000.0 4000.0 4000.0 4000.0 4000.0 4000.0 4000.0 4000.0 4000.0 4000.0 4000.0 4000.0 4000.0 4000.0 4000.0 4000.0 4000.0 4000.0 4000.0 4000.0 4000.0 4000.0 4000.0 4000.0 4000.0 4000.0 4000.0 4000.0 4000.0 4000.0 4000.0 4000.0 4000.0 4000.0 4000.0 4000.0 4000.0 4000.0 4000.0 4000.0 4000.0 4000.0 4000.0 4000.0 4000.0 4000.0 4000.0 4000.0 4000.0 4000.0 4000.0 4000.0 4000.0 4000.0 4000.0 4000.0 4000.0 4000.0 4000.0 4000.0 4000.0 4000.0 4000.0 4000.0 4000.0 4000.0 4000.0 4000.0 4000.0 4000.0 4000.0 4000.0 4000.0 4000.0 4000.0 4000.0 4000.0 4000.0 4000.0 4000.0 4000.0 4000.0 4000.0 4000.0 4000.0 4000.0 4000.0 4000.0 4000.0 4000.0 4000.0 4000.0 4000.0 4000.0 4000.0 4000.0 4000.0 4000.0 4000.0 4000.0 4000.0 4000.0 4000.0 4000.0 4000.0 4000.0 4000.0 4000.0 4000.0 4000.0 4000.0 4000.0 4000.0 4000.0 4000.0 4000.0 4000.0 4000.0 4000.0 4000.0 4000.0 4000.0 4000.0 4000.0 4000.0 4000.0 4000.0 4000.0 4000.0 4000.0 4000.0 4000.0 4000.0 4000.0 4000.0 4000.0 4000.0 4000.0 4000.0 4000.0 4000.0 4000.0 4000.0 4000.0 4000.0 4000.0 4000.0 4000.0 4000.0 4000.0 4000.0 4000.0 4000.0 4000.0 4000.0 4000.0 4000.0 4000.0 4000.0 4000.0 4000.0 4000.0 4000.0 4000.0 4000.0 4000.0 4000.0 4000.0 4000.0 4000.0 4000.0 4000.0 4000.0 4000.0 4000.0 4000.0 4000.0 4000.0 4000.0 4000.0 4000.0 4000.0 4000.0 4000.0 4000.0 4000.0 4000.0 4000.0 4000.0 4000.0 4000.0 4000.0 4000.0 4000.0 4000.0 4000.0 4000.0 4000.0 4000.0 4000.0 4000.0 4000.0 4000.0 4000.0 4000.0 4000.0 4000.0 4000.0 4000.0 4000.0 4000.0 4000.0 4000.0 4000.0 4000.0 4000.0 4000.0 4000.0 4000.0 4000.0 4000.0 4000.0 4000.0 4000.0 4000.0 4000.0 4000.0 4000.0 4000.0 4000.0 4000.0 4000.0 4000.0 4000.0 4000.0 4000.0 4000.0 4000.0 4000.0 4000.0 4000.0 4000.0 4000.0 4000.0 4000.0 4000.0 4000.0 4000.0 4000.0 4000.0 4000.0 4000.0 4000.0 4000.0 4000.0 4000.0 4000.0 4000.0 4000.0 4000.0 4000.0 4000.0 4000.0 4000.0 4000.0 4000.0 4000.0 4000.0 4000.0 4000.0 4000.0 4000.0 4000.0 4000.0 4000.0 4000.0 4000.0 4000.0 4000.0 4000.0 4000.0 4000.0 4000.0 4000.0 4000.0 4000.0 4000.0 4000.0 4000.0 4000.0 4000.0 4000.0 4000.0 4000.0 4000.0 4000.0 4000.0 4000.0 4000.0 4000.0 4000.0 4000.0 4000.0 4000.0 4000.0 4000.0 4000.0 4000.0 4000.0 4000.0 4000.0 4000.0 4000.0 4000.0 4000.0 4000.0 4000.0 4000.0 4000.0 4000.0 4000.0 4000.0 4000.0 4000.0 4000.0 4000.0 4000.0 4000.0 4000.0 4000.0 4000.0 4000.0 4000.0 4000.0 4000.0 4000.0 4000.0 4000.0 4000.0 4000.0 4000.0 4000.0 4000.0 4000.0 4000.0 4000.0 4000.0 4000.0 4000.0 4000.0 4000.0 4000.0 4000.0 4000.0 4000.0 4000.0 4000.0 4000.0 4000.0 4000.0 4000.0 4000.0 4000.0 4000.0 4000.0 4000.0 4000.0 4000.0 4000.0 4000.0 4000.0 4000.0 4000.0 4000.0 4000.0 4000.0 4000.0 4000.0 4000.0 4000.0 4000.0 4000.0 4000.0 4000.0 4000.0 4000.0 4000.0 4000.0 4000.0 4000.0 4000.0 4000.0 4000.0 4000.0 4000.0 4000.0 4000.0 4000.0 4000.0 4000.0 4000.0 4000.0 4000.0 4000.0 4000.0 4000.0 4000.0 4000.0 4000.0 4000.0 4000.0 4000.0 4000.0 4000.0 4000.0 4000.0 4000.0 4000.0 4000.0 4000.0 4000.0 4000.0 4000.0 4000.0 4000.0 4000.0 4000.0 4000.0 4000.0 4000.0 4000.0 4000.0 4000.0 4000.0 4000.0 4000.0 4000.0 4000.0 4000.0 4000.0 4000.0 4000.0 4000.0 4000.0 4000.0 4000.0 4000.0 4000.0 4000.0 4000.0 4000.0 4000.0 4000.0 4000.0 4000.0 4000.0 4000.0 4000.0 4000.0 4000.0 4000.0 4000.0 4000.0 4000.0 4000.0 4000.0 4000.0 4000.0 4000.0 4000.0 4000.0 4000.0 4000.0 4000.0 4000.0 4000.0 4000.0 4000.0 4000.0 4000.0 4000.0 4000.0 4000.0 4000.0 4000.0 4000.0 4000.0 4000.0 4000.0 4000.0 4000.0 4000.0 4000.0 4000.0 4000.0 4000.0 4000.0 4000.0 4000.0 4000.0 4000.0 4000.0 4000.0 4000.0 4000.0 4000.0 4000.0 4000.0 4000.0 4000.0 4000.0 4000.0 4000.0 4000.0 4000.0 4000.0 4000.0 4000.0 4000.0 4000.0 4000.0 4000.0 4000.0 4000.0 4000.0 4000.0 4000.0 4000.0 4000.0 4000.0 4000.0 4000.0 4000.0 4000.0 4000.0 4000.0 4000.0 4000.0 4000.0 4000.0 4000.0 4000.0 4000.0 4000.0 4000.0 4000.0 4000.0 4000.0 4000.0 4000.0 4000.0 4000.0 4000.0 4000.0 4000.0 4000.0 4000.0 4000.0 4000.0 4000.0 4000.0 4000.0 4000.0 4000.0 4000.0 4000.0 4000.0 4000.0 4000.0 4000.0 4000.0 4000.0 4000.0 4000.0 4000.0 4000.0 4000.0 4000.0 4000.0 4000.0 4000.0 4000.0 4000.0 4000.0 4000.0 4000.0 4000.0 4000.0 4000.0 4000.0 4000.0 4000.0 4000.0 4000.0 4000.0 4000.0 4000.0 4000.0 4000.0 4000.0 4000.0 4000.0 4000.0 4000.0 4000.0 4000.0 4000.0 4000.0 4000.0 4000.0 4000.0 4000.0 4000.0 4000.0 4000.0 4000.0 4000.0 4000.0 4000.0 4000.0 4000.0 4000.0 4000.0 4000.0 4000.0 4000.0 4000.0 4000.0 4000.0 4000.0 4000.0 4000.0 4000.0 4000.0 4000.0 4000.0 4000.0 4000.0 4000.0 4000.0 4000.0 4000.0 4000.0 4000.0 4000.0 4000.0 4000.0 4000.0 4000.0 4000.0 4000.0 4000.0 4000.0 4000.0 4000.0 4000.0 4000.0 4000.0 4000.0 4000.0 4000.0 4000.0 4000.0 4000.0 4000.0 4000.0 4000.0 4000.0 4000.0 4000.0 4000.0 4000.0 4000.0 4000.0 4000.0 4000.0 4000.0 4000.0 4000.0 4000.0 4000.0 4000.0 4000.0 4000.0 4000.0 4000.0 4000.0 4000.0 4000.0 4000.0 4000.0 4000.0 4000.0 4000.0 4000.0 4000.0 4000.0 4000.0 4000.0 4000.0 4000.0 4000.0 4000.0 4000.0 4000.0 4000.0 4000.0 4000.0 4000.0 4000.0 4000.0 4000.0 4000.0 4000.0 4000.0 4000.0 4000.0 4000.0 4000.0 4000.0 4000.0 4000.0 4000.0 4000.0 4000.0 4000.0 4000.0 4000.0 4000.0 4000.0 4000.0 4000.0 4000.0 4000.0 4000.0 4000.0 4000.0 4000.0 4000.0 4000.0 4000.0 4000.0 4000.0 4000.0 4000.0 4000.0 4000.0 4000.0 4000.0 4000.0 4000.0 4000.0 4000.0 4000.0 4000.0 4000.0 4000.0 4000.0 4000.0 4000.0 4000.0 4000.0 4000.0 4000.0 4000.0 4000.0 4000.0 4000.0 4000.0 4000.0 4000.0 4000.0 4000.0 4000.0 4000.0 4000.0 4000.0 4000.0 4000.0 4000.0 4000.0 4000.0 4000.0 4000.0 4000.0 4000.0 4000.0 4000.0 4000.0 4000.0 4000.0 4000.0 4000.0 4000.0 4000.0 4000.0 4000.0 4000.0 4000.0 4000.0 4000.0 4000.0 4000.0 4000.0 4000.0 4000.0 4000.0 4000.0 4000.0 4000.0 4000.0 4000.0 4000.0 4000.0 4000.0 4000.0 4000.0 4000.0 4000.0 4000.0 4000.0 4000.0 4000.0 4000.0 4000.0 4000.0 4000.0 4000.0 4000.0 4000.0 4000.0 4000.0 4000.0 4000.0 4000.0 4000.0 4000.0 4000.0 4000.0 4000.0 4000.0 4000.0 4000.0 4000.0 4000.0 4000.0 4000.0 4000.0 4000.0 4000.0 4000.0 4000.0 4000.0 4000.0 4000.0 4000.0 4000.0 4000.0 4000.0 4000.0 4000.0 4000.0 4000.0 4000.0 4000.0 4000.0 4000.0 4000.0 4000.0 4000.0 4000.0 4000.0 4000.0 4000.0 4000.0 4000.0 4000.0 4000.0 4000.0 4000.0 4000.0 4000.0 4000.0 4000.0 4000.0 4000.0 4000.0 4000.0 4000.0 4000.0 4000.0 4000.0 4000.0 4000.0 4000.0 4000.0 4000.0 4000.0 4000.0 4000.0 4000.0 4000.0 4000.0 4000.0 4000.0 4000.0 4000.0 4000.0 4000.0 4000.0 4000.0 4000.0 4000.0 4000.0 4000.0 4000.0 4000.0 4000.0 4000.0 4000.0 4000.0 4000.0 4000.0 4000.0 4000.0 4000.0 4000.0 4000.0 4000.0 4000.0 4000.0 4000.0 4000.0 4000.0 4000.0 4000.0 4000.0 4000.0 4000.0 4000.0 4000.0 4000.0 4000.0 4000.0 4000.0 4000.0 4000.0 4000.0 4000.0 4000.0 4000.0 4000.0 4000.0 4000.0 4000.0 4000.0 4000.0 4000.0 4000.0 4000.0 4000.0 4000.0 4000.0 4000.0 4000.0 4000.0 4000.0 4000.0 4000.0 4000.0 4000.0 4000.0 4000.0 4000.0 4000.0 4000.0 4000.0 4000.0 4000.0 4000.0 4000.0 4000.0 4000.0 4000.0 4000.0 4000.0 4000.0 4000.0 4000.0 4000.0 4000.0 4000.0 4000.0 4000.0 4000.0 4000.0 4000.0 4000.0 4000.0 4000.0 4000.0 4000.0 4000.0 4000.0 4000.0 4000.0 4000.0 4000.0 4000.0 4000.0 4000.0 4000.0 4000.0 4000.0 4000.0 4000.0 4000.0 4000.0 4000.0 4000.0 4000.0 4000.0 4000.0 4000.0 4000.0 4000.0 4000.0 4000.0 4000.0 4000.0 4000.0 4000.0 4000.0 4000.0 4000.0 4000.0 4000.0 4000.0 4000.0 4000.0 4000.0 4000.0 4000.0 4000.0 4000.0 4000.0 4000.0 4000.0 4000.0 4000.0 4000.0 4000.0 4000.0 4000.0 4000.0 4000.0 4000.0 4000.0 4000.0 4000.0 4000.0 4000.0 4000.0 4000.0 4000.0 4000.0 4000.0 4000.0 4000.0 4000.0 4000.0 4000.0 4000.0 4000.0 4000.0 4000.0 4000.0 4000.0 4000.0 4000.0 4000.0 4000.0 4000.0 4000.0 4000.0 4000.0 4000.0 4000.0 4000.0 4000.0 4000.0 4000.0 4000.0 4000.0 4000.0 4000.0 4000.0 4000.0 4000.0 4000.0 4000.0 4000.0 4000.0 4000.0 4000.0 4000.0 4000.0 4000.0 4000.0 4000.0 4000.0 4000.0 4000.0 4000.0 4000.0 4000.0 4000.0 4000.0 4000.0 4000.0 4000.0 4000.0 4000.0 4000.0 4000.0 4000.0 4000.0 4000.0 4000.0 4000.0 4000.0 4000.0 4000.0 4000.0 4000.0 4000.0 4000.0 4000.0 4000.0 4000.0 4000.0 4000.0 4000.0 4000.0 4000.0 4000.0 4000.0 4000.0 4000.0 4000.0 4000.0 4000.0 4000.0 4000.0 4000.0 4000.0 4000.0 4000.0 4000.0 4000.0 4000.0 4000.0 4000.0 4000.0 4000.0 4000.0 4000.0 4000.0 4000.0 4000.0 4000.0 4000.0 4000.0 4000.0 4000.0 4000.0 4000.0 4000.0 4000.0 4000.0 4000.0 4000.0 4000.0 4000.0 4000.0 4000.0 4000.0 4000.0 4000.0 4000.0 4000.0 4000.0 4000.0 4000.0 4000.0 4000.0 4000.0 4000.0 4000.0 4000.0 4000.0 4000.0 4000.0 4000.0 4000.0 4000.0 4000.0 4000.0 4000.0 4000.0 4000.0 4000.0 4000.0 4000.0 4000.0 4000.0 4000.0 4000.0 4000.0 4000.0 4000.0 4000.0 4000.0 4000.0 4000.0 4000.0 4000.0 4000.0 4000.0 4000.0 4000.0 4000.0 4000.0 4000.0 4000.0 4000.0 4000.0 4000.0 4000.0 4000.0 4000.0 4000.0 4000.0 4000.0 4000.0 4000.0 4000.0 4000.0 4000.0 4000.0 4000.0 4000.0 4000.0 4000.0 4000.0 4000.0 4000.0 4000.0 4000.0 4000.0 4000.0 4000.0 4000.0 4000.0 4000.0 4000.0 4000.0 4000.0 4000.0 4000.0 4000.0 4000.0 4000.0 4000.0 4000.0 4000.0 4000.0 4000.0 4000.0 4000.0 4000.0 4000.0 4000.0 4000.0 4000.0 4000.0 4000.0 4000.0 4000.0 4000.0 4000.0 4000.0 4000.0 4000.0 4000.0 4000.0 4000.0 4000.0 4000.0 4000.0 4000.0 4000.0 4000.0 4000.0 4000.0 4000.0 4000.0 4000.0 4000.0 4000.0 4000.0 4000.0 4000.0 4000.0 4000.0 4000.0 4000.0 4000.0 4000.0 4000.0 4000.0 4000.0 4000.0 4000.0 4000.0 4000.0 4000.0 4000.0 4000.0 4000.0 4000.0 4000.0 4000.0 4000.0 4000.0 4000.0 4000.0 4000.0 4000.0 4000.0 4000.0 4000.0 4000.0 4000.0 4000.0 4000.0 4000.0 4000.0 4000.0 4000.0 4000.0 4000.0 4000.0 4000.0 4000.0 4000.0 4000.0 4000.0 4000.0 4000.0 4000.0 4000.0 4000.0 4000.0 4000.0 4000.0 4000.0 4000.0 4000.0 4000.0 4000.0 4000.0 4000.0 4000.0 4000.0 4000.0 4000.0 4000.0 4000.0 4000.0 4000.0 4000.0 4000.0 4000.0 4000.0 4000.0 4000.0 4000.0 4000.0 4000.0 4000.0 4000.0 4000.0 4000.0 4000.0 4000.0 4000.0 4000.0 4000.0 4000.0 4000.0 4000.0 4000.0 4000.0 4000.0 4000.0 4000.0 4000.0 4000.0 4000.0 4000.0 4000.0 4000.0 4000.0 4000.0 4000.0 4000.0 4000.0 4000.0 4000.0 4000.0 4000.0 4000.0 4000.0 4000.0 4000.0 4000.0 4000.0 4000.0 4000.0 4000.0 4000.0 4000.0 4000.0 4000.0 4000.0 4000.0 4000.0 4000.0 4000.0 4000.0 4000.0 4000.0 4000.0 4000.0 4000.0 4000.0 4000.0 4000.0 4000.0 4000.0 4000.0 4000.0 4000.0 4000.0 4000.0 4000.0 4000.0 4000.0 4000.0 4000.0 4000.0 4000.0 4000.0 4000.0 4000.0 4000.0 4000.0 4000.0 4000.0 4000.0 4000.0 4000.0 4000.0 4000.0 4000.0 4000.0 4000.0 4000.0 4000.0 4000.0 4000.0 4000.0 4000.0 4000.0 4000.0 4000.0 4000.0 4000.0 4000.0 4000.0 4000.0 4000.0 4000.0 4000.0 4000.0 4000.0 4000.0 4000.0 4000.0 4000.0 4000.0 4000.0 4000.0 4000.0 4000.0 4000.0 4000.0 4000.0 4000.0 4000.0 4000.0 4000.0 4000.0 4000.0 4000.0 4000.0 4000.0 4000.0 4000.0 4000.0 4000.0 4000.0 4000.0 4000.0 4000.0 4000.0 4000.0 4000.0 4000.0 4000.0 4000.0 4000.0 4000.0 4000.0 4000.0 4000.0 4000.0 4000.0 4000.0 4000.0 4000.0 4000.0 4000.0 4000.0 4000.0 4000.0 4000.0 4000.0 4000.0 4000.0 4000.0 4000.0 4000.0 4000.0 4000.0 4000.0 4000.0 4000.0 4000.0 4000.0 4000.0 4000.0 4000.0 4000.0 4000.0 4000.0 4000.0 4000.0 4000.0 4000.0 4000.0 4000.0 4000.0 4000.0 4000.0 4000.0 4000.0 4000.0 4000.0 4000.0 4000.0 4000.0 4000.0 4000.0 4000.0 4000.0 4000.0 4000.0 4000.0 4000.0 4000.0 4000.0 4000.0 4000.0 4000.0 4000.0 4000.0 4000.0 4000.0 4000.0 4000.0 4000.0 4000.0 4000.0 4000.0 4000.0 4000.0 4000.0 4000.0 4000.0 4000.0 4000.0 4000.0 4000.0 4000.0 4000.0 4000.0 4000.0 4000.0 4000.0 4000.0 4000.0 4000.0 4000.0 4000.0 4000.0 4000.0 4000.0 4000.0 4000.0 4000.0 4000.0 4000.0 4000.0 4000.0 4000.0 4000.0 4000.0 4000.0 4000.0 4000.0 4000.0 4000.0 4000.0 4000.0 4000.0 4000.0 4000.0 4000.0 4000.0 4000.0 4000.0 4000.0 4000.0 4000.0 4000.0 4000.0 4000.0 4000.0 4000.0 4000.0 4000.0 4000.0 4000.0 4000.0 4000.0 4000.0 4000.0 4000.0 4000.0 4000.0 4000.0 4000.0 4000.0 4000.0 4000.0 4000.0 4000.0 4000.0 4000.0 4000.0 4000.0 4000.0 4000.0 4000.0 4000.0 4000.0 4000.0 4000.0 4000.0 4000.0 4000.0 4000.0 4000.0 4000.0 4000.0 4000.0 4000.0 4000.0 4000.0 4000.0 4000.0 4000.0 4000.0 4000.0 4000.0 4000.0 4000.0 4000.0 4000.0 4000.0 4000.0 4000.0 4000.0 4000.0 4000.0 4000.0 4000.0 4000.0 4000.0 4000.0 4000.0 4000.0 4000.0 4000.0 4000.0 4000.0 4000.0 4000.0 4000.0 4000.0 4000.0 4000.0 4000.0 4000.0 4000.0 4000.0 4000.0 4000.0 4000.0 4000.0 4000.0 4000.0 4000.0 4000.0 4000.0 4000.0 4000.0 4000.0 4000.0 4000.0 4000.0 4000.0 4000.0 4000.0 4000.0 4000.0 4000.0 4000.0 4000.0 4000.0 4000.0 4000.0 4000.0 4000.0 4000.0 4000.0 4000.0 4000.0 4000.0 4000.0 4000.0 4000.0 4000.0 4000.0 4000.0 4000.0 4000.0 4000.0 4000.0 4000.0 4000.0 4000.0 4000.0 4000.0 4000.0 4000.0 4000.0 4000.0 4000.0 4000.0 4000.0 4000.0 4000.0 4000.0 4000.0 4000.0 4000.0 4000.0 4000.0 4000.0 4000.0 4000.0 4000.0 4000.0 4000.0 4000.0 4000.0 4000.0 4000.0 4000.0 4000.0 4000.0 4000.0 4000.0 4000.0 4000.0 4000.0 4000.0 4000.0 4000.0 4000.0 4000.0 4000.0 4000.0 4000.0 4000.0 4000.0 4000.0 4000.0 4000.0 4000.0 4000.0 4000.0 4000.0 4000.0 4000.0 4000.0 4000.0 4000.0 4000.0 4000.0 4000.0 4000.0 4000.0 4000.0 4000.0 4000.0 4000.0 4000.0 4000.0 4000.0 4000.0 4000.0 4000.0 4000.0 4000.0 4000.0 4000.0 4000.0 4000.0 4000.0 4000.0 4000.0 4000.0 4000.0 4000.0 4000.0 4000.0 4000.0 4000.0 4000.0 4000.0 4000.0 4000.0 4000.0 4000.0 4000.0 4000.0 4000.0 4000.0 4000.0 4000.0 4000.0 4000.0 4000.0 4000.0 4000.0 4000.0 4000.0 4000.0 4000.0 4000.0 4000.0 4000.0 4000.0 4000.0 4000.0 4000.0 4000.0 4000.0 4000.0 4000.0 4000.0 4000.0 4000.0 4000.0 4000.0 4000.0 4000.0 4000.0 4000.0 4000.0 4000.0 4000.0 4000.0 4000.0 4000.0 4000.0 4000.0 4000.0 4000.0 4000.0 4000.0 4000.0 4000.0 4000.0 4000.0 4000.0 4000.0 4000.0 4000.0 4000.0 4000.0 4000.0 4000.0 4000.0 4000.0 4000.0 4000.0 4000.0 4000.0 4000.0 4000.0 4000.0 4000.0 4000.0 4000.0 4000.0 4000.0 4000.0 4000.0 4000.0 4000.0 4000.0 4000.0 4000.0 4000.0 4000.0 4000.0 4000.0 4000.0 4000.0 4000.0 4000.0 4000.0 4000.0 4000.0 4000.0 4000.0 4000.0 4000.0 4000.0 4000.0 4000.0 4000.0 4000.0 4000.0 4000.0 4000.0 4000.0 4000.0 4000.0 4000.0 4000.0 4000.0 4000.0 4000.0 4000.0 4000.0 4000.0 4000.0 4000.0 4000.0 4000.0 4000.0 4000.0 4000.0 4000.0 4000.0 4000.0 4000.0 4000.0 4000.0 4000.0 4000.0 4000.0 4000.0 4000.0 4000.0 4000.0 4000.0 4000.0 4000.0 4000.0 4000.0 4000.0 4000.0 4000.0 4000.0 4000.0 4000.0 4000.0 4000.0 4000.0 4000.0 4000.0 4000.0 4000.0 4000.0 4000.0 4000.0 4000.0 4000.0 4000.0 4000.0 4000.0 4000.0 4000.0 4000.0 4000.0 4000.0 4000.0 4000.0 4000.0 4000.0 4000.0 4000.0 4000.0 4000.0 4000.0 4000.0 4000.0 4000.0 4000.0 4000.0 4000.0 4000.0 4000.0 4000.0 4000.0 4000.0 4000.0 4000.0 4000.0 4000.0 4000.0 4000.0 4000.0 4000.0 4000.0 4000.0 4000.0 4000.0 4000.0 4000.0 4000.0 4000.0 4000.0 4000.0 4000.0 4000.0 4000.0 4000.0 4000.0 4000.0 4000.0 4000.0 4000.0 4000.0 4000.0 4000.0 4000.0 4000.0 4000.0 4000.0 4000.0 4000.0 4000.0 4000.0 4000.0 4000.0 4000.0 4000.0 4000.0 4000.0 4000.0 4000.0 4000.0 4000.0 4000.0 4000.0 4000.0 4000.0 4000.0 4000.0 4000.0 4000.0 4000.0 4000.0 4000.0 4000.0 4000.0 4000.0 4000.0 4000.0 4000.0 4000.0 4000.0 4000.0 4000.0 4000.0 4000.0 4000.0 4000.0 4000.0 4000.0 4000.0 4000.0 4000.0 4000.0 4000.0 4000.0 4000.0 4000.0 4000.0 4000.0 4000.0 4000.0 4000.0 4000.0 4000.0 4000.0 4000.0 4000.0 4000.0 4000.0 4000.0 4000.0 4000.0 4000.0 4000.0 4000.0 4000.0 4000.0 4000.0 4000.0 4000.0 4000.0 4000.0 4000.0 4000.0 4000.0 4000.0 4000.0 4000.0 4000.0 4000.0 4000.0 4000.0 4000.0 4000.0 4000.0 4000.0 4000.0 4000.0 4000.0 4000.0 4000.0 4000.0 4000.0 4000.0 4000.0 4000.0 4000.0 4000.0 4000.0 4000.0 4000.0 4000.0 4000.0 4000.0 4000.0 4000.0 4000.0 4000.0 4000.0 4000.0 4000.0 4000.0 4000.0 4000.0 4000.0 4000.0 4000.0 4000.0 4000.0 4000.0 4000.0 4000.0 4000.0 4000.0 4000.0 4000.0 4000.0 4000.0 4000.0 4000.0 4000.0 4000.0 4000.0 4000.0 4000.0 4000.0 4000.0 4000.0 4000.0 4000.0 4000.0 4000.0 4000.0 4000.0 4000.0 4000.0 4000.0 4000.0 4000.0 4000.0 4000.0 4000.0 4000.0 4000.0 4000.0 4000.0 4000.0 4000.0 4000.0 4000.0 4000.0 4000.0 4000.0 4000.0 4000.0 4000.0 4000.0 4000.0 4000.0 4000.0 4000.0 4000.0 4000.0 4000.0 4000.0 4000.0 4000.0 4000.0 4000.0 4000.0 4000.0 4000.0 4000.0 4000.0 4000.0 4000.0 4000.0 4000.0 4000.0 4000.0 4000.0 4000.0 4000.0 4000.0 4000.0 4000.0 4000.0 4000.0 4000.0 4000.0 4000.0 4000.0 4000.0 4000.0 4000.0 4000.0 4000.0 4000.0 4000.0 4000.0 4000.0 4000.0 4000.0 4000.0 4000.0 4000.0 4000.0 4000.0 4000.0 4000.0 4000.0 4000.0 4000.0 4000.0 4000.0 4000.0 4000.0 4000.0 4000.0 4000.0 4000.0 4000.0 4000.0 4000.0 4000.0 4000.0 4000.0 4000.0 4000.0 4000.0 4000.0 4000.0 4000.0 4000.0 4000.0 4000.0 4000.0 4000.0 4000.0 4000.0 4000.0 4000.0 4000.0 4000.0 4000.0 4000.0 4000.0 4000.0 4000.0 4000.0 4000.0 4000.0 4000.0 4000.0 4000.0 4000.0 4000.0 4000.0 4000.0 4000.0 4000.0 4000.0 4000.0 4000.0 4000.0 4000.0 4000.0 4000.0 4000.0 4000.0 4000.0 4000.0 4000.0 4000.0 4000.0 4000.0 4000.0 4000.0 4000.0 4000.0 4000.0 4000.0 4000.0 4000.0 4000.0 4000.0 4000.0 4000.0 4000.0 4000.0 4000.0 4000.0 4000.0 4000.0 4000.0 4000.0 4000.0 4000.0 4000.0 4000.0 4000.0 4000.0 4000.0 4000.0 4000.0 4000.0 4000.0 4000.0 4000.0 4000.0 4000.0 4000.0 4000.0 4000.0 4000.0 4000.0 4000.0 4000.0 4000.0 4000.0 4000.0 4000.0 4000.0 4000.0 4000.0 4000.0 4000.0 4000.0 4000.0 4000.0 4000.0 4000.0 4000.0 4000.0 4000.0 4000.0 4000.0 4000.0 4000.0 4000.0 4000.0 4000.0 4000.0 4000.0 4000.0 4000.0 4000.0 4000.0 4000.0 4000.0 4000.0 4000.0 4000.0 4000.0 4000.0 4000.0 4000.0 4000.0 4000.0 4000.0 4000.0 4000.0 4000.0 4000.0 4000.0 4000.0 4000.0 4000.0 4000.0 4000.0 4000.0 4000.0 4000.0 4000.0 4000.0 4000.0 4000.0 4000.0 4000.0 4000.0 4000.0 4000.0 4000.0 4000.0 4000.0 4000.0 4000.0 4000.0 4000.0 4000.0 4000.0 4000.0 4000.0 4000.0 4000.0 4000.0 4000.0 4000.0 4000.0 4000.0 4000.0 4000.0 4000.0 4000.0 4000.0 4000.0 4000.0 4000.0 4000.0 4000.0 4000.0 4000.0 4000.0 4000.0 4000.0 4000.0 4000.0 4000.0 4000.0 4000.0 4000.0 4000.0 4000.0 4000.0 4000.0 4000.0 4000.0 4000.0 4000.0 4000.0 4000.0 4000.0 4000.0 4000.0 4000.0 4000.0 4000.0 4000.0 4000.0 4000.0 4000.0 4000.0 4000.0 4000.0 4000.0 4000.0 4000.0 4000.0 4000.0 4000.0 4000.0 4000.0 4000.0 4000.0 4000.0 4000.0 4000.0 4000.0 4000.0 4000.0 4000.0 4000.0 4000.0 4000.0 4000.0 4000.0 4000.0 4000.0 4000.0 4000.0 4000.0 4000.0 4000.0 4000.0 4000.0 4000.0 4000.0 4000.0 4000.0 4000.0 4000.0 4000.0 4000.0 4000.0 4000.0 4000.0 4000.0 4000.0 4000.0 4000.0 4000.0 4000.0 4000.0 4000.0 4000.0 4000.0 4000.0 4000.0 4000.0 4000.0 4000.0 4000.0 4000.0 4000.0 4000.0 4000.0 4000.0 4000.0 4000.0 4000.0 4000.0 4000.0 4000.0 4000.0 4000.0 4000.0 4000.0 4000.0 4000.0 4000.0 4000.0 4000.0 4000.0 4000.0 4000.0 4000.0 4000.0 4000.0 4000.0 4000.0 4000.0 4000.0 4000.0 4000.0 4000.0 4000.0 4000.0 4000.0 4000.0 4000.0 4000.0 4000.0 4000.0 4000.0 4000.0 4000.0 4000.0 4000.0 4000.0 4000.0 4000.0 4000.0 4000.0 4000.0 4000.0 4000.0 4000.0 4000.0 4000.0 4000.0 4000.0 4000.0 4000.0 4000.0 4000.0 4000.0 4000.0 4000.0 4000.0 4000.0 4000.0 4000.0 4000.0 4000.0 4000.0 4000.0 4000.0 4000.0 4000.0 4000.0 4000.0 4000.0 4000.0 4000.0 4000.0 4000.0 4000.0 4000.0 4000.0 4000.0 4000.0 4000.0 4000.0 4000.0 4000.0 4000.0 4000.0 4000.0 4000.0 4000.0 4000.0 4000.0 4000.0 4000.0 4000.0 4000.0 4000.0 4000.0 4000.0 4000.0 4000.0 4000.0 4000.0 4000.0 4000.0 4000.0 4000.0 4000.0 4000.0 4000.0 4000.0 4000.0 4000.0 4000.0 4000.0 4000.0 4000.0 4000.0 4000.0 4000.0 4000.0 4000.0 4000.0 4000.0 4000.0 4000.0 4000.0 4000.0 4000.0 4000.0 4000.0 4000.0 4000.0 4000.0 4000.0 4000.0 4000.0 4000.0 4000.0 4000.0 4000.0 4000.0 4000.0 4000.0 4000.0 4000.0 4000.0 4000.0 4000.0 4000.0 4000.0 4000.0 4000.0 4000.0 4000.0 4000.0 4000.0 4000.0 4000.0 4000.0 4000.0 4000.0 4000.0 4000.0 4000.0 4000.0 4000.0 4000.0 4000.0 4000.0 4000.0 4000.0 4000.0 4000.0 4000.0 4000.0 4000.0 4000.0 4000.0 4000.0 4000.0 4000.0 4000.0 4000.0 4000.0 4000.0 4000.0 4000.0 4000.0 4000.0 4000.0 4000.0 4000.0 4000.0 4000.0 4000.0 4000.0 4000.0 4000.0 4000.0 4000.0 4000.0 4000.0 4000.0 4000.0 4000.0 4000.0 4000.0 4000.0 4000.0 4000.0 4000.0 4000.0 4000.0 4000.0 4000.0 4000.0 4000.0 4000.0 4000.0 4000.0 4000.0 4000.0 4000.0 4000.0 4000.0 4000.0 4000.0 4000.0 4000.0 4000.0 4000.0 4000.0 4000.0 4000.0 4000.0 4000.0 4000.0 4000.0 4000.0 4000.0 4000.0 4000.0 4000.0 4000.0 4000.0 4000.0 4000.0 4000.0 4000.0 4000.0 4000.0 4000.0 4000.0 4000.0 4000.0 4000.0 4000.0 4000.0 4000.0 4000.0 4000.0 4000.0 4000.0 4000.0 4000.0 4000.0 4000.0 4000.0 4000.0 4000.0 4000.0 4000.0 4000.0 4000.0 4000.0 4000.0 4000.0 4000.0 4000.0 4000.0 4000.0 4000.0 4000.0 4000.0 4000.0 4000.0 4000.0 4000.0 4000.0 4000.0 4000.0 4000.0 4000.0 4000.0 4000.0 4000.0 4000.0 4000.0 4000.0 4000.0 4000.0 4000.0 4000.0 4000.0 4000.0 4000.0 4000.0 4000.0 4000.0 4000.0 4000.0 4000.0 4000.0 4000.0 4000.0 4000.0 4000.0 4000.0 4000.0 4000.0 4000.0 4000.0 4000.0 4000.0 4000.0 4000.0 4000.0 4000.0 4000.0 4000.0 4000.0 4000.0 4000.0 4000.0 4000.0 4000.0 4000.0 4000.0 4000.0 4000.0 4000.0 4000.0 4000.0 4000.0 4000.0 4000.0 4000.0 4000.0 4000.0 4000.0 4000.0 4000.0 4000.0 4000.0 4000.0 4000.0 4000.0 4000.0 4000.0 4000.0 4000.0 4000.0 4000.0 4000.0 4000.0 4000.0 4000.0 4000.0 4000.0 4000.0 4000.0 4000.0 4000.0 4000.0 4000.0 4000.0 4000.0 4000.0 4000.0 4000.0 4000.0 4000.0 4000.0 4000.0 4000.0 4000.0 4000.0 4000.0 4000.0 4000.0 4000.0 4000.0 4000.0 4000.0 4000.0 4000.0 4000.0 4000.0 4000.0 4000.0 4000.0 4000.0 4000.0 4000.0 4000.0 4000.0 4000.0 4000.0 4000.0 4000.0 4000.0 4000.0 4000.0 4000.0 4000.0 4000.0 4000.0 4000.0 4000.0 4000.0 4000.0 4000.0 4000.0 4000.0 4000.0 4000.0 4000.0 4000.0 4000.0 4000.0 4000.0 4000.0 4000.0 4000.0 4000.0 4000.0 4000.0 4000.0 4000.0 4000.0 4000.0 4000.0 4000.0 4000.0 4000.0 4000.0 4000.0 4000.0 4000.0 4000.0 4000.0 4000.0 4000.0 4000.0 4000.0 4000.0 4000.0 4000.0 4000.0 4000.0 4000.0 4000.0 4000.0 4000.0 4000.0 4000.0 4000.0 4000.0 4000.0 4000.0 4000.0 4000.0 4000.0 4000.0 4000.0 4000.0 4000.0 4000.0 4000.0 4000.0 4000.0 4000.0 4000.0 4000.0 4000.0 4000.0 4000.0 4000.0 4000.0 4000.0 4000.0 4000.0 4000.0 4000.0 4000.0 4000.0 4000.0 4000.0 4000.0 4000.0 4000.0 4000.0 4000.0 4000.0 4000.0 4000.0 4000.0 4000.0 4000.0 4000.0 4000.0 4000.0 4000.0 4000.0 4000.0 4000.0 4000.0 4000.0 4000.0 4000.0 4000.0 4000.0 4000.0 4000.0 4000.0 4000.0 4000.0 4000.0 4000.0 4000.0 4000.0 4000.0 4000.0 4000.0 4000.0 4000.0 4000.0 4000.0 4000.0 4000.0 4000.0 4000.0 4000.0 4000.0 4000.0 4000.0 4000.0 4000.0 4000.0 4000.0 4000.0 4000.0 4000.0 4000.0 4000.0 4000.0 4000.0 4000.0 4000.0 4000.0 4000.0 4000.0 4000.0 4000.0 4000.0 4000.0 4000.0 4000.0 4000.0 4000.0 4000.0 4000.0 4000.0 4000.0 4000.0 4000.0 4000.0 4000.0 4000.0 4000.0 4000.0 4000.0 4000.0 4000.0 4000.0 4000.0 4000.0 4000.0 4000.0 4000.0 4000.0 4000.0 4000.0 4000.0 4000.0 4000.0 4000.0 4000.0 4000.0 4000.0 4000.0 4000.0 4000.0 4000.0 4000.0 4000.0 4000.0 4000.0 4000.0 4000.0 4000.0 4000.0 4000.0 4000.0 4000.0 4000.0 4000.0 4000.0 4000.0 4000.0 4000.0 4000.0 4000.0 4000.0 4000.0 4000.0 4000.0 4000.0 4000.0 4000.0 4000.0 4000.0 4000.0 4000.0 4000.0 4000.0 4000.0 4000.0 4000.0 4000.0 4000.0 4000.0 4000.0 4000.0 4000.0 4000.0 4000.0 4000.0 4000.0 4000.0 4000.0 4000.0 4000.0 4000.0 4000.0 4000.0 4000.0 4000.0 4000.0 4000.0 4000.0 4000.0 4000.0 4000.0 4000.0 4000.0 4000.0 4000.0 4000.0 4000.0 4000.0 4000.0 4000.0 4000.0 4000.0 4000.0 4000.0 4000.0 4000.0 4000.0 4000.0 4000.0 4000.0 4000.0 4000.0 4000.0 4000.0 4000.0 4000.0 4000.0 4000.0 4000.0 4000.0 4000.0 4000.0 4000.0 4000.0 4000.0 4000.0 4000.0 4000.0 4000.0 4000.0 4000.0 4000.0 4000.0 4000.0 4000.0 4000.0 4000.0 4000.0 4000.0 4000.0 4000.0 4000.0 4000.0 4000.0 4000.0 4000.0 4000.0 4000.0 4000.0 4000.0 4000.0 4000.0 4000.0 4000.0 4000.0 4000.0 4000.0 4000.0 4000.0 4000.0 4000.0 4000.0 4000.0 4000.0 4000.0 4000.0 4000.0 4000.0 4000.0 4000.0 4000.0 4000.0 4000.0 4000.0 4000.0 4000.0 4000.0 4000.0 4000.0 4000.0 4000.0 4000.0 4000.0 4000.0 4000.0 4000.0 4000.0 4000.0 4000.0 4000.0 4000.0 4000.0 4000.0 4000.0 4000.0 4000.0 4000.0 4000.0 4000.0 4000.0 4000.0 4000.0 4000.0 4000.0 4000.0 4000.0 4000.0 4000.0 4000.0 4000.0 4000.0 4000.0 4000.0 4000.0 4000.0 4000.0 4000.0 4000.0 4000.0 4000.0 4000.0 4000.0 4000.0 4000.0 4000.0 4000.0 4000.0 4000.0 4000.0 4000.0 4000.0 4000.0 4000.0 4000.0 4000.0 4000.0 4000.0 4000.0 4000.0 4000.0 4000.0 4000.0 4000.0 4000.0 4000.0 4000.0 4000.0 4000.0 4000.0 4000.0 4000.0 4000.0 4000.0 4000.0 4000.0 4000.0 4000.0 4000.0 4000.0 4000.0 4000.0 4000.0 4000.0 4000.0 4000.0 4000.0 4000.0 4000.0 4000.0 4000.0 4000.0 4000.0 4000.0 4000.0 4000.0 4000.0 4000.0 4000.0 4000.0 4000.0 4000.0 4000.0 4000.0 4000.0 4000.0 4000.0 4000.0 4000.0 4000.0 4000.0 4000.0 4000.0 4000.0 4000.0 4000.0 4000.0 4000.0 4000.0 4000.0 4000.0 4000.0 4000.0 4000.0 4000.0 4000.0 4000.0 4000.0 4000.0 4000.0 4000.0 4000.0 4000.0 4000.0 4000.0 4000.0 4000.0 4000.0 4000.0 4000.0 4000.0 4000.0 4000.0 4000.0 4000.0 4000.0 4000.0 4000.0 4000.0 4000.0 4000.0 4000.0 4000.0 4000.0 4000.0 4000.0 4000.0 4000.0 4000.0 4000.0 4000.0 4000.0 4000.0 4000.0 4000.0 4000.0 4000.0 4000.0 4000.0 4000.0 4000.0 4000.0 4000.0 4000.0 4000.0 4000.0 4000.0 4000.0 4000.0 4000.0 4000.0 4000.0 4000.0 4000.0 4000.0 4000.0 4000.0 4000.0 4000.0 4000.0 4000.0 4000.0 4000.0 4000.0 4000.0 4000.0 4000.0 4000.0 4000.0 4000.0 4000.0 4000.0 4000.0 4000.0 4000.0 4000.0 4000.0 4000.0 4000.0 4000.0 4000.0 4000.0 4000.0 4000.0 4000.0 4000.0 4000.0 4000.0 4000.0 4000.0 4000.0 4000.0 4000.0 4000.0 4000.0 4000.0 4000.0 4000.0 4000.0 4000.0 4000.0 4000.0 4000.0 4000.0 4000.0 4000.0 4000.0 4000.0 4000.0 4000.0 4000.0 4000.0 4000.0 4000.0 4000.0 4000.0 4000.0 4000.0 4000.0 4000.0 4000.0 4000.0 4000.0 4000.0 4000.0 4000.0 4000.0 4000.0 4000.0 4000.0 4000.0 4000.0 4000.0 4000.0 4000.0 4000.0 4000.0 4000.0 4000.0 4000.0 4000.0 4000.0 4000.0 4000.0 4000.0 4000.0 4000.0 4000.0 4000.0 4000.0 4000.0 4000.0 4000.0 4000.0 4000.0 4000.0 4000.0 4000.0 4000.0 4000.0 4000.0 4000.0 4000.0 4000.0 4000.0 4000.0 4000.0 4000.0 4000.0 4000.0 4000.0 4000.0 4000.0 4000.0 4000.0 4000.0 4000.0 4000.0 4000.0 4000.0 4000.0 4000.0 4000.0 4000.0 4000.0 4000.0 4000.0 4000.0 4000.0 4000.0 4000.0 4000.0 4000.0 4000.0 4000.0 4000.0 4000.0 4000.0 4000.0 4000.0 4000.0 4000.0 4000.0 4000.0 4000.0 4000.0 4000.0 4000.0 4000.0 4000.0 4000.0 4000.0 4000.0 4000.0 4000.0 4000.0 4000.0 4000.0 4000.0 4000.0 4000.0 4000.0 4000.0 4000.0 4000.0 4000.0 4000.0 4000.0 4000.0 4000.0 4000.0 4000.0 4000.0 4000.0 4000.0 4000.0 4000.0 4000.0 4000.0 4000.0 4000.0 4000.0 4000.0 4000.0 4000.0 4000.0 4000.0 4000.0 4000.0 4000.0 4000.0 4000.0 4000.0 4000.0 4000.0 4000.0 4000.0 4000.0 4000.0 4000.0 4000.0 4000.0 4000.0 4000.0 4000.0 4000.0 4000.0 4000.0 4000.0 4000.0 4000.0 4000.0 4000.0 4000.0 4000.0 4000.0 4000.0 4000.0 4000.0 4000.0 4000.0 4000.0 4000.0 4000.0 4000.0 4000.0 4000.0 4000.0 4000.0 4000.0 4000.0 4000.0 4000.0 4000.0 4000.0 4000.0 4000.0 4000.0 4000.0 4000.0 4000.0 4000.0 4000.0 4000.0 4000.0 4000.0 4000.0 4000.0 4000.0 4000.0 4000.0 4000.0 4000.0 4000.0 4000.0 4000.0 4000.0 4000.0 4000.0 4000.0 4000.0 4000.0 4000.0 4000.0 4000.0 4000.0 4000.0 4000.0 4000.0 4000.0 4000.0 4000.0 4000.0 4000.0 4000.0 4000.0 4000.0 4000.0 4000.0 4000.0 4000.0 4000.0 4000.0 4000.0 4000.0 4000.0 4000.0 4000.0 4000.0 4000.0 4000.0 4000.0 4000.0 4000.0 4000.0 4000.0 4000.0 4000.0 4000.0 4000.0 4000.0 4000.0 4000.0 4000.0 4000.0 4000.0 4000.0 4000.0 4000.0 4000.0 4000.0 4000.0 4000.0 4000.0 4000.0 4000.0 4000.0 4000.0 4000.0 4000.0 4000.0 4000.0 4000.0 4000.0 4000.0 4000.0 4000.0 4000.0 4000.0 4000.0 4000.0 4000.0 4000.0 4000.0 4000.0 4000.0 4000.0 4000.0 4000.0 4000.0 4000.0 4000.0 4000.0 4000.0 4000.0 4000.0 4000.0 4000.0 4000.0 4000.0 4000.0 4000.0 4000.0 4000.0 4000.0 4000.0 4000.0 4000.0 4000.0 4000.0 4000.0 4000.0 4000.0 4000.0 4000.0 4000.0 4000.0 4000.0 4000.0 4000.0 4000.0 4000.0 4000.0 4000.0 4000.0 4000.0 4000.0 4000.0 4000.0 4000.0 4000.0 4000.0 4000.0 4000.0 4000.0 4000.0 4000.0 4000.0 4000.0 4000.0 4000.0 4000.0 4000.0 4000.0 4000.0 4000.0 4000.0 4000.0 4000.0 4000.0 4000.0 4000.0 4000.0 4000.0 4000.0 4000.0 4000.0 4000.0 4000.0 4000.0 4000.0 4000.0 4000.0 4000.0 4000.0 4000.0 4000.0 4000.0 4000.0 4000.0 4000.0 4000.0 4000.0 4000.0 4000.0 4000.0 4000.0 4000.0 4000.0 4000.0 4000.0 4000.0 4000.0 4000.0 4000.0 4000.0 4000.0 4000.0 4000.0 4000.0 4000.0 4000.0 4000.0 4000.0 4000.0 4000.0 4000.0 4000.0 4000.0 4000.0 4000.0 4000.0 4000.0 4000.0 4000.0 4000.0 4000.0 4000.0 4000.0 4000.0 4000.0 4000.0 4000.0 4000.0 4000.0 4000.0 4000.0 4000.0 4000.0 4000.0 4000.0 4000.0 4000.0 4000.0 4000.0 4000.0 4000.0 4000.0 4000.0 4000.0 4000.0 4000.0 4000.0 4000.0 4000.0 4000.0 4000.0 4000.0 4000.0 4000.0 4000.0 4000.0 4000.0 4000.0 4000.0 4000.0 4000.0 4000.0 4000.0 4000.0 4000.0 4000.0 4000.0 4000.0 4000.0 4000.0 4000.0 4000.0 4000.0 4000.0 4000.0 4000.0 4000.0 4000.0 4000.0 4000.0 4000.0 4000.0 4000.0 4000.0 4000.0 4000.0 4000.0 4000.0 4000.0 4000.0 4000.0 4000.0 4000.0 4000.0 4000.0 4000.0 4000.0 4000.0 4000.0 4000.0 4000.0 4000.0 4000.0 4000.0 4000.0 4000.0 4000.0 4000.0 4000.0 4000.0 4000.0 4000.0 4000.0 4000.0 4000.0 4000.0 4000.0 4000.0 4000.0 4000.0 4000.0 4000.0 4000.0 4000.0 4000.0 4000.0 4000.0 4000.0 4000.0 4000.0 4000.0 4000.0 4000.0 4000.0 4000.0 4000.0 4000.0 4000.0 4000.0 4000.0 4000.0 4000.0 4000.0 4000.0 4000.0 4000.0 4000.0 4000.0 4000.0 4000.0 4000.0 4000.0 4000.0 4000.0 4000.0 4000.0 4000.0 4000.0 4000.0 4000.0 4000.0 4000.0 4000.0 4000.0 4000.0 4000.0 4000.0 4000.0 4000.0 4000.0 4000.0 4000.0 4000.0 4000.0 4000.0 4000.0 4000.0 4000.0 4000.0 4000.0 4000.0 4000.0 4000.0 4000.0 4000.0 4000.0 4000.0 4000.0 4000.0 4000.0 4000.0 4000.0 4000.0 4000.0 4000.0 4000.0 4000.0 4000.0 4000.0 4000.0 4000.0 4000.0 4000.0 4000.0 4000.0 4000.0 4000.0 4000.0 4000.0 4000.0 4000.0 4000.0 4000.0 4000.0 4000.0 4000.0 4000.0 4000.0 4000.0 4000.0 4000.0 4000.0 4000.0 4000.0 4000.0 4000.0 4000.0 4000.0 4000.0 4000.0 4000.0 4000.0 4000.0 4000.0 4000.0 4000.0 4000.0 4000.0 4000.0 4000.0 4000.0 4000.0 4000.0 4000.0 4000.0 4000.0 4000.0 4000.0 4000.0 4000.0 4000.0 4000.0 4000.0 4000.0 4000.0 4000.0 4000.0 4000.0 4000.0 4000.0 4000.0 4000.0 4000.0 4000.0 4000.0 4000.0 4000.0 4000.0 4000.0 4000.0 4000.0 4000.0 4000.0 4000.0 4000.0 4000.0 4000.0 4000.0 4000.0 4000.0 4000.0 4000.0 4000.0 4000.0 4000.0 4000.0 4000.0 4000.0 4000.0 4000.0 4000.0 4000.0 4000.0 4000.0 4000.0 4000.0 4000.0 4000.0 4000.0 4000.0 4000.0 4000.0 4000.0 4000.0 4000.0 4000.0 4000.0 4000.0 4000.0 4000.0 4000.0 4000.0 4000.0 4000.0 4000.0 4000.0 4000.0 4000.0 4000.0 4000.0 4000.0 4000.0 4000.0 4000.0 4000.0 4000.0 4000.0 4000.0 4000.0 4000.0 4000.0 4000.0 4000.0 4000.0 4000.0 4000.0 4000.0 4000.0 4000.0 4000.0 4000.0 4000.0 4000.0 4000.0 4000.0 4000.0 4000.0 4000.0 4000.0 4000.0 4000.0 4000.0 4000.0 4000.0 4000.0 4000.0 4000.0 4000.0 4000.0 4000.0 4000.0 4000.0 4000.0 4000.0 4000.0 4000.0 4000.0 4000.0 4000.0 4000.0 4000.0 4000.0 4000.0 4000.0 4000.0 4000.0 4000.0 4000.0 4000.0 4000.0 4000.0 4000.0 4000.0 4000.0 4000.0 4000.0 4000.0 4000.0 4000.0 4000.0 4000.0 4000.0 4000.0 4000.0 4000.0 4000.0 4000.0 4000.0 4000.0 4000.0 4000.0 4000.0 4000.0 4000.0 4000.0 4000.0 4000.0 4000.0 4000.0 4000.0 4000.0 4000.0 4000.0 4000.0 4000.0 4000.0 4000.0 4000.0 4000.0 4000.0 4000.0 4000.0 4000.0 4000.0 4000.0 4000.0 4000.0 4000.0 4000.0 4000.0 4000.0 4000.0 4000.0 4000.0 4000.0 4000.0 4000.0 4000.0 4000.0 4000.0 4000.0 4000.0 4000.0 4000.0 4000.0 4000.0 4000.0 4000.0 4000.0 4000.0 4000.0 4000.0 4000.0 4000.0 4000.0 4000.0 4000.0 4000.0 4000.0 4000.0 4000.0 4000.0 4000.0 4000.0 4000.0 4000.0 4000.0 4000.0 4000.0 4000.0 4000.0 4000.0 4000.0 4000.0 4000.0 4000.0 4000.0 4000.0 4000.0 4000.0 4000.0 4000.0 4000.0 4000.0 4000.0 4000.0 4000.0 4000.0 4000.0 4000.0 4000.0 4000.0 4000.0 4000.0 4000.0 4000.0 4000.0 4000.0 4000.0 4000.0 4000.0 4000.0 4000.0 4000.0 4000.0 4000.0 4000.0 4000.0 4000.0 4000.0 4000.0 4000.0 4000.0 4000.0 4000.0 4000.0 4000.0 4000.0 4000.0 4000.0 4000.0 4000.0 4000.0 4000.0 4000.0 4000.0 4000.0 4000.0 4000.0 4000.0 4000.0 4000.0 4000.0 4000.0 4000.0 4000.0 4000.0 4000.0 4000.0 4000.0 4000.0 4000.0 4000.0 4000.0 4000.0 4000.0 4000.0 4000.0 4000.0 4000.0 4000.0 4000.0 4000.0 4000.0 4000.0 4000.0 4000.0 4000.0 4000.0 4000.0 4000.0 4000.0 4000.0 4000.0 4000.0 4000.0 4000.0 4000.0 4000.0 4000.0 4000.0 4000.0 4000.0 4000.0 4000.0 4000.0 4000.0 4000.0 4000.0 4000.0 4000.0 4000.0 4000.0 4000.0 4000.0 4000.0 4000.0 4000.0 4000.0 4000.0 4000.0 4000.0 4000.0 4000.0 4000.0 4000.0 4000.0 4000.0 4000.0 4000.0 4000.0 4000.0 4000.0 4000.0 4000.0 4000.0 4000.0 4000.0 4000.0 4000.0 4000.0 4000.0 4000.0 4000.0 4000.0 4000.0 4000.0 4000.0 4000.0 4000.0 4000.0 4000.0 4000.0 4000.0 4000.0 4000.0 4000.0 4000.0 4000.0 4000.0 4000.0 4000.0 4000.0 4000.0 4000.0 4000.0 4000.0 SCALARS Mass float 1
LOOKUP_TABLE default
11309700000.0 11309700000.0 11309700000.0 11309700000.0 11309700000.0 11309700000.0 11309700000.0 11309700000.0 11309700000.0 11309700000.0 11309700000.0 11309700000.0 11309700000.0 11309700000.0 11309700000.0 11309700000.0 11309700000.0 11309700000.0 11309700000.0 11309700000.0 11309700000.0 11309700000.0 11309700000.0 11309700000.0 11309700000.0 11309700000.0 11309700000.0 11309700000.0 11309700000.0 11309700000.0 11309700000.0 11309700000.0 11309700000.0 11309700000.0 11309700000.0 11309700000.0 11309700000.0 11309700000.0 11309700000.0 11309700000.0 11309700000.0 11309700000.0 11309700000.0 11309700000.0 11309700000.0 11309700000.0 11309700000.0 11309700000.0 11309700000.0 11309700000.0 11309700000.0 11309700000.0 11309700000.0 11309700000.0 11309700000.0 11309700000.0 11309700000.0 11309700000.0 11309700000.0 11309700000.0 11309700000.0 11309700000.0 11309700000.0 11309700000.0 11309700000.0 11309700000.0 11309700000.0 11309700000.0 11309700000.0 11309700000.0 11309700000.0 11309700000.0 11309700000.0 11309700000.0 11309700000.0 11309700000.0 11309700000.0 11309700000.0 11309700000.0 11309700000.0 11309700000.0 11309700000.0 11309700000.0 11309700000.0 11309700000.0 11309700000.0 11309700000.0 11309700000.0 11309700000.0 11309700000.0 11309700000.0 11309700000.0 11309700000.0 11309700000.0 11309700000.0 11309700000.0 11309700000.0 11309700000.0 11309700000.0 11309700000.0 11309700000.0 11309700000.0 11309700000.0 11309700000.0 11309700000.0 11309700000.0 11309700000.0 11309700000.0 11309700000.0 11309700000.0 11309700000.0 11309700000.0 11309700000.0 11309700000.0 11309700000.0 11309700000.0 11309700000.0 11309700000.0 11309700000.0 11309700000.0 11309700000.0 11309700000.0 11309700000.0 11309700000.0 11309700000.0 11309700000.0 11309700000.0 11309700000.0 11309700000.0 11309700000.0 11309700000.0 11309700000.0 11309700000.0 11309700000.0 11309700000.0 11309700000.0 11309700000.0 11309700000.0 11309700000.0 11309700000.0 11309700000.0 11309700000.0 11309700000.0 11309700000.0 11309700000.0 11309700000.0 11309700000.0 11309700000.0 11309700000.0 11309700000.0 11309700000.0 11309700000.0 11309700000.0 11309700000.0 11309700000.0 11309700000.0 11309700000.0 11309700000.0 11309700000.0 11309700000.0 11309700000.0 11309700000.0 11309700000.0 11309700000.0 11309700000.0 11309700000.0 11309700000.0 11309700000.0 11309700000.0 11309700000.0 11309700000.0 11309700000.0 11309700000.0 11309700000.0 11309700000.0 11309700000.0 11309700000.0 11309700000.0 11309700000.0 11309700000.0 11309700000.0 11309700000.0 11309700000.0 11309700000.0 11309700000.0 11309700000.0 11309700000.0 11309700000.0 11309700000.0 11309700000.0 11309700000.0 11309700000.0 11309700000.0 11309700000.0 11309700000.0 11309700000.0 11309700000.0 11309700000.0 11309700000.0 11309700000.0 11309700000.0 11309700000.0 11309700000.0 11309700000.0 11309700000.0 11309700000.0 11309700000.0 11309700000.0 11309700000.0 11309700000.0 11309700000.0 11309700000.0 11309700000.0 11309700000.0 11309700000.0 11309700000.0 11309700000.0 11309700000.0 11309700000.0 11309700000.0 11309700000.0 11309700000.0 11309700000.0 11309700000.0 11309700000.0 11309700000.0 11309700000.0 11309700000.0 11309700000.0 11309700000.0 11309700000.0 11309700000.0 11309700000.0 11309700000.0 11309700000.0 11309700000.0 11309700000.0 11309700000.0 11309700000.0 11309700000.0 11309700000.0 11309700000.0 11309700000.0 11309700000.0 11309700000.0 11309700000.0 11309700000.0 11309700000.0 11309700000.0 11309700000.0 11309700000.0 11309700000.0 11309700000.0 11309700000.0 11309700000.0 11309700000.0 11309700000.0 11309700000.0 11309700000.0 11309700000.0 11309700000.0 11309700000.0 11309700000.0 11309700000.0 11309700000.0 11309700000.0 11309700000.0 11309700000.0 11309700000.0 11309700000.0 11309700000.0 11309700000.0 11309700000.0 11309700000.0 11309700000.0 11309700000.0 11309700000.0 11309700000.0 11309700000.0 11309700000.0 11309700000.0 11309700000.0 11309700000.0 11309700000.0 11309700000.0 11309700000.0 11309700000.0 11309700000.0 11309700000.0 11309700000.0 11309700000.0 11309700000.0 11309700000.0 11309700000.0 11309700000.0 11309700000.0 11309700000.0 11309700000.0 11309700000.0 11309700000.0 11309700000.0 11309700000.0 11309700000.0 11309700000.0 11309700000.0 11309700000.0 11309700000.0 11309700000.0 11309700000.0 11309700000.0 11309700000.0 11309700000.0 11309700000.0 11309700000.0 11309700000.0 11309700000.0 11309700000.0 11309700000.0 11309700000.0 11309700000.0 11309700000.0 11309700000.0 11309700000.0 11309700000.0 11309700000.0 11309700000.0 11309700000.0 11309700000.0 11309700000.0 11309700000.0 11309700000.0 11309700000.0 11309700000.0 11309700000.0 11309700000.0 11309700000.0 11309700000.0 11309700000.0 11309700000.0 11309700000.0 11309700000.0 11309700000.0 11309700000.0 11309700000.0 11309700000.0 11309700000.0 11309700000.0 11309700000.0 11309700000.0 11309700000.0 11309700000.0 11309700000.0 11309700000.0 11309700000.0 11309700000.0 11309700000.0 11309700000.0 11309700000.0 11309700000.0 11309700000.0 11309700000.0 11309700000.0 11309700000.0 11309700000.0 11309700000.0 11309700000.0 11309700000.0 11309700000.0 11309700000.0 11309700000.0 11309700000.0 11309700000.0 11309700000.0 11309700000.0 11309700000.0 11309700000.0 11309700000.0 11309700000.0 11309700000.0 11309700000.0 11309700000.0 11309700000.0 11309700000.0 11309700000.0 11309700000.0 11309700000.0 11309700000.0 11309700000.0 11309700000.0 11309700000.0 11309700000.0 11309700000.0 11309700000.0 11309700000.0 11309700000.0 11309700000.0 11309700000.0 11309700000.0 11309700000.0 11309700000.0 11309700000.0 11309700000.0 11309700000.0 11309700000.0 11309700000.0 11309700000.0 11309700000.0 11309700000.0 11309700000.0 11309700000.0 11309700000.0 11309700000.0 11309700000.0 11309700000.0 11309700000.0 11309700000.0 11309700000.0 11309700000.0 11309700000.0 11309700000.0 11309700000.0 11309700000.0 11309700000.0 11309700000.0 11309700000.0 11309700000.0 11309700000.0 11309700000.0 11309700000.0 11309700000.0 11309700000.0 11309700000.0 11309700000.0 11309700000.0 11309700000.0 11309700000.0 11309700000.0 11309700000.0 11309700000.0 11309700000.0 11309700000.0 11309700000.0 11309700000.0 11309700000.0 11309700000.0 11309700000.0 11309700000.0 11309700000.0 11309700000.0 11309700000.0 11309700000.0 11309700000.0 11309700000.0 11309700000.0 11309700000.0 11309700000.0 11309700000.0 11309700000.0 11309700000.0 11309700000.0 11309700000.0 11309700000.0 11309700000.0 11309700000.0 11309700000.0 11309700000.0 11309700000.0 11309700000.0 11309700000.0 11309700000.0 11309700000.0 11309700000.0 11309700000.0 11309700000.0 11309700000.0 11309700000.0 11309700000.0 11309700000.0 11309700000.0 11309700000.0 11309700000.0 11309700000.0 11309700000.0 11309700000.0 11309700000.0 11309700000.0 11309700000.0 11309700000.0 11309700000.0 11309700000.0 11309700000.0 11309700000.0 11309700000.0 11309700000.0 11309700000.0 11309700000.0 11309700000.0 11309700000.0 11309700000.0 11309700000.0 11309700000.0 11309700000.0 11309700000.0 11309700000.0 11309700000.0 11309700000.0 11309700000.0 11309700000.0 11309700000.0 11309700000.0 11309700000.0 11309700000.0 11309700000.0 11309700000.0 11309700000.0 11309700000.0 11309700000.0 11309700000.0 11309700000.0 11309700000.0 11309700000.0 11309700000.0 11309700000.0 11309700000.0 11309700000.0 11309700000.0 11309700000.0 11309700000.0 11309700000.0 11309700000.0 11309700000.0 11309700000.0 11309700000.0 11309700000.0 11309700000.0 11309700000.0 11309700000.0 11309700000.0 11309700000.0 11309700000.0 11309700000.0 11309700000.0 11309700000.0 11309700000.0 11309700000.0 11309700000.0 11309700000.0 11309700000.0 11309700000.0 11309700000.0 11309700000.0 11309700000.0 11309700000.0 11309700000.0 11309700000.0 11309700000.0 11309700000.0 11309700000.0 11309700000.0 11309700000.0 11309700000.0 11309700000.0 11309700000.0 11309700000.0 11309700000.0 11309700000.0 11309700000.0 11309700000.0 11309700000.0 11309700000.0 11309700000.0 11309700000.0 11309700000.0 11309700000.0 11309700000.0 11309700000.0 11309700000.0 11309700000.0 11309700000.0 11309700000.0 11309700000.0 11309700000.0 11309700000.0 11309700000.0 11309700000.0 11309700000.0 11309700000.0 11309700000.0 11309700000.0 11309700000.0 11309700000.0 11309700000.0 11309700000.0 11309700000.0 11309700000.0 11309700000.0 11309700000.0 11309700000.0 11309700000.0 11309700000.0 11309700000.0 11309700000.0 11309700000.0 11309700000.0 11309700000.0 11309700000.0 11309700000.0 11309700000.0 11309700000.0 11309700000.0 11309700000.0 11309700000.0 11309700000.0 11309700000.0 11309700000.0 11309700000.0 11309700000.0 11309700000.0 11309700000.0 11309700000.0 11309700000.0 11309700000.0 11309700000.0 11309700000.0 11309700000.0 11309700000.0 11309700000.0 11309700000.0 11309700000.0 11309700000.0 11309700000.0 11309700000.0 11309700000.0 11309700000.0 11309700000.0 11309700000.0 11309700000.0 11309700000.0 11309700000.0 11309700000.0 11309700000.0 11309700000.0 11309700000.0 11309700000.0 11309700000.0 11309700000.0 11309700000.0 11309700000.0 11309700000.0 11309700000.0 11309700000.0 11309700000.0 11309700000.0 11309700000.0 11309700000.0 11309700000.0 11309700000.0 11309700000.0 11309700000.0 11309700000.0 11309700000.0 11309700000.0 11309700000.0 11309700000.0 11309700000.0 11309700000.0 11309700000.0 11309700000.0 11309700000.0 11309700000.0 11309700000.0 11309700000.0 11309700000.0 11309700000.0 11309700000.0 11309700000.0 11309700000.0 11309700000.0 11309700000.0 11309700000.0 11309700000.0 11309700000.0 11309700000.0 11309700000.0 11309700000.0 11309700000.0 11309700000.0 11309700000.0 11309700000.0 11309700000.0 11309700000.0 11309700000.0 11309700000.0 11309700000.0 11309700000.0 11309700000.0 11309700000.0 11309700000.0 11309700000.0 11309700000.0 11309700000.0 11309700000.0 11309700000.0 11309700000.0 11309700000.0 11309700000.0 11309700000.0 11309700000.0 11309700000.0 11309700000.0 11309700000.0 11309700000.0 11309700000.0 11309700000.0 11309700000.0 11309700000.0 11309700000.0 11309700000.0 11309700000.0 11309700000.0 11309700000.0 11309700000.0 11309700000.0 11309700000.0 11309700000.0 11309700000.0 11309700000.0 11309700000.0 11309700000.0 11309700000.0 11309700000.0 11309700000.0 11309700000.0 11309700000.0 11309700000.0 11309700000.0 11309700000.0 11309700000.0 11309700000.0 11309700000.0 11309700000.0 11309700000.0 11309700000.0 11309700000.0 11309700000.0 11309700000.0 11309700000.0 11309700000.0 11309700000.0 11309700000.0 11309700000.0 11309700000.0 11309700000.0 11309700000.0 11309700000.0 11309700000.0 11309700000.0 11309700000.0 11309700000.0 11309700000.0 11309700000.0 11309700000.0 11309700000.0 11309700000.0 11309700000.0 11309700000.0 11309700000.0 11309700000.0 11309700000.0 11309700000.0 11309700000.0 11309700000.0 11309700000.0 11309700000.0 11309700000.0 11309700000.0 11309700000.0 11309700000.0 11309700000.0 11309700000.0 11309700000.0 11309700000.0 11309700000.0 11309700000.0 11309700000.0 11309700000.0 11309700000.0 11309700000.0 11309700000.0 11309700000.0 11309700000.0 11309700000.0 11309700000.0 11309700000.0 11309700000.0 11309700000.0 11309700000.0 11309700000.0 11309700000.0 11309700000.0 11309700000.0 11309700000.0 11309700000.0 11309700000.0 11309700000.0 11309700000.0 11309700000.0 11309700000.0 11309700000.0 11309700000.0 11309700000.0 11309700000.0 11309700000.0 11309700000.0 11309700000.0 11309700000.0 11309700000.0 11309700000.0 11309700000.0 11309700000.0 11309700000.0 11309700000.0 11309700000.0 11309700000.0 11309700000.0 11309700000.0 11309700000.0 11309700000.0 11309700000.0 11309700000.0 11309700000.0 11309700000.0 11309700000.0 11309700000.0 11309700000.0 11309700000.0 11309700000.0 11309700000.0 11309700000.0 11309700000.0 11309700000.0 11309700000.0 11309700000.0 11309700000.0 11309700000.0 11309700000.0 11309700000.0 11309700000.0 11309700000.0 11309700000.0 11309700000.0 11309700000.0 11309700000.0 11309700000.0 11309700000.0 11309700000.0 11309700000.0 11309700000.0 11309700000.0 11309700000.0 11309700000.0 11309700000.0 11309700000.0 11309700000.0 11309700000.0 11309700000.0 11309700000.0 11309700000.0 11309700000.0 11309700000.0 11309700000.0 11309700000.0 11309700000.0 11309700000.0 11309700000.0 11309700000.0 11309700000.0 11309700000.0 11309700000.0 11309700000.0 11309700000.0 11309700000.0 11309700000.0 11309700000.0 11309700000.0 11309700000.0 11309700000.0 11309700000.0 11309700000.0 11309700000.0 11309700000.0 11309700000.0 11309700000.0 11309700000.0 11309700000.0 11309700000.0 11309700000.0 11309700000.0 11309700000.0 11309700000.0 11309700000.0 11309700000.0 11309700000.0 11309700000.0 11309700000.0 11309700000.0 11309700000.0 11309700000.0 11309700000.0 11309700000.0 11309700000.0 11309700000.0 11309700000.0 11309700000.0 11309700000.0 11309700000.0 11309700000.0 11309700000.0 11309700000.0 11309700000.0 11309700000.0 11309700000.0 11309700000.0 11309700000.0 11309700000.0 11309700000.0 11309700000.0 11309700000.0 11309700000.0 11309700000.0 11309700000.0 11309700000.0 11309700000.0 11309700000.0 11309700000.0 11309700000.0 11309700000.0 11309700000.0 11309700000.0 11309700000.0 11309700000.0 11309700000.0 11309700000.0 11309700000.0 11309700000.0 11309700000.0 11309700000.0 11309700000.0 11309700000.0 11309700000.0 11309700000.0 11309700000.0 11309700000.0 11309700000.0 11309700000.0 11309700000.0 11309700000.0 11309700000.0 11309700000.0 11309700000.0 11309700000.0 11309700000.0 11309700000.0 11309700000.0 11309700000.0 11309700000.0 11309700000.0 11309700000.0 11309700000.0 11309700000.0 11309700000.0 11309700000.0 11309700000.0 11309700000.0 11309700000.0 11309700000.0 11309700000.0 11309700000.0 11309700000.0 11309700000.0 11309700000.0 11309700000.0 11309700000.0 11309700000.0 11309700000.0 11309700000.0 11309700000.0 11309700000.0 11309700000.0 11309700000.0 11309700000.0 11309700000.0 11309700000.0 11309700000.0 11309700000.0 11309700000.0 11309700000.0 11309700000.0 11309700000.0 11309700000.0 11309700000.0 11309700000.0 11309700000.0 11309700000.0 11309700000.0 11309700000.0 11309700000.0 11309700000.0 11309700000.0 11309700000.0 11309700000.0 11309700000.0 11309700000.0 11309700000.0 11309700000.0 11309700000.0 11309700000.0 11309700000.0 11309700000.0 11309700000.0 11309700000.0 11309700000.0 11309700000.0 11309700000.0 11309700000.0 11309700000.0 11309700000.0 11309700000.0 11309700000.0 11309700000.0 11309700000.0 11309700000.0 11309700000.0 11309700000.0 11309700000.0 11309700000.0 11309700000.0 11309700000.0 11309700000.0 11309700000.0 11309700000.0 11309700000.0 11309700000.0 11309700000.0 11309700000.0 11309700000.0 11309700000.0 11309700000.0 11309700000.0 11309700000.0 11309700000.0 11309700000.0 11309700000.0 11309700000.0 11309700000.0 11309700000.0 11309700000.0 11309700000.0 11309700000.0 11309700000.0 11309700000.0 11309700000.0 11309700000.0 11309700000.0 11309700000.0 11309700000.0 11309700000.0 11309700000.0 11309700000.0 11309700000.0 11309700000.0 11309700000.0 11309700000.0 11309700000.0 11309700000.0 11309700000.0 11309700000.0 11309700000.0 11309700000.0 11309700000.0 11309700000.0 11309700000.0 11309700000.0 11309700000.0 11309700000.0 11309700000.0 11309700000.0 11309700000.0 11309700000.0 11309700000.0 11309700000.0 11309700000.0 11309700000.0 11309700000.0 11309700000.0 11309700000.0 11309700000.0 11309700000.0 11309700000.0 11309700000.0 11309700000.0 11309700000.0 11309700000.0 11309700000.0 11309700000.0 11309700000.0 11309700000.0 11309700000.0 11309700000.0 11309700000.0 11309700000.0 11309700000.0 11309700000.0 11309700000.0 11309700000.0 11309700000.0 11309700000.0 11309700000.0 11309700000.0 11309700000.0 11309700000.0 11309700000.0 11309700000.0 11309700000.0 11309700000.0 11309700000.0 11309700000.0 11309700000.0 11309700000.0 11309700000.0 11309700000.0 11309700000.0 11309700000.0 11309700000.0 11309700000.0 11309700000.0 11309700000.0 11309700000.0 11309700000.0 11309700000.0 11309700000.0 11309700000.0 11309700000.0 11309700000.0 11309700000.0 11309700000.0 11309700000.0 11309700000.0 11309700000.0 11309700000.0 11309700000.0 11309700000.0 11309700000.0 11309700000.0 11309700000.0 11309700000.0 11309700000.0 11309700000.0 11309700000.0 11309700000.0 11309700000.0 11309700000.0 11309700000.0 11309700000.0 11309700000.0 11309700000.0 11309700000.0 11309700000.0 11309700000.0 11309700000.0 11309700000.0 11309700000.0 11309700000.0 11309700000.0 11309700000.0 11309700000.0 11309700000.0 11309700000.0 11309700000.0 11309700000.0 11309700000.0 11309700000.0 11309700000.0 11309700000.0 11309700000.0 11309700000.0 11309700000.0 11309700000.0 11309700000.0 11309700000.0 11309700000.0 11309700000.0 11309700000.0 11309700000.0 11309700000.0 11309700000.0 11309700000.0 11309700000.0 11309700000.0 11309700000.0 11309700000.0 11309700000.0 11309700000.0 11309700000.0 11309700000.0 11309700000.0 11309700000.0 11309700000.0 11309700000.0 11309700000.0 11309700000.0 11309700000.0 11309700000.0 11309700000.0 11309700000.0 11309700000.0 11309700000.0 11309700000.0 11309700000.0 11309700000.0 11309700000.0 11309700000.0 11309700000.0 11309700000.0 11309700000.0 11309700000.0 11309700000.0 11309700000.0 11309700000.0 11309700000.0 11309700000.0 11309700000.0 11309700000.0 11309700000.0 11309700000.0 11309700000.0 11309700000.0 11309700000.0 11309700000.0 11309700000.0 11309700000.0 11309700000.0 11309700000.0 11309700000.0 11309700000.0 11309700000.0 11309700000.0 11309700000.0 11309700000.0 11309700000.0 11309700000.0 11309700000.0 11309700000.0 11309700000.0 11309700000.0 11309700000.0 11309700000.0 11309700000.0 11309700000.0 11309700000.0 11309700000.0 11309700000.0 11309700000.0 11309700000.0 11309700000.0 11309700000.0 11309700000.0 11309700000.0 11309700000.0 11309700000.0 11309700000.0 11309700000.0 11309700000.0 11309700000.0 11309700000.0 11309700000.0 11309700000.0 11309700000.0 11309700000.0 11309700000.0 11309700000.0 11309700000.0 11309700000.0 11309700000.0 11309700000.0 11309700000.0 11309700000.0 11309700000.0 11309700000.0 11309700000.0 11309700000.0 11309700000.0 11309700000.0 11309700000.0 11309700000.0 11309700000.0 11309700000.0 11309700000.0 11309700000.0 11309700000.0 11309700000.0 11309700000.0 11309700000.0 11309700000.0 11309700000.0 11309700000.0 11309700000.0 11309700000.0 11309700000.0 11309700000.0 11309700000.0 11309700000.0 11309700000.0 11309700000.0 11309700000.0 11309700000.0 11309700000.0 11309700000.0 11309700000.0 11309700000.0 11309700000.0 11309700000.0 11309700000.0 11309700000.0 11309700000.0 11309700000.0 11309700000.0 11309700000.0 11309700000.0 11309700000.0 11309700000.0 11309700000.0 11309700000.0 11309700000.0 11309700000.0 11309700000.0 11309700000.0 11309700000.0 11309700000.0 11309700000.0 11309700000.0 11309700000.0 11309700000.0 11309700000.0 11309700000.0 11309700000.0 11309700000.0 11309700000.0 11309700000.0 11309700000.0 11309700000.0 11309700000.0 11309700000.0 11309700000.0 11309700000.0 11309700000.0 11309700000.0 11309700000.0 11309700000.0 11309700000.0 11309700000.0 11309700000.0 11309700000.0 11309700000.0 11309700000.0 11309700000.0 11309700000.0 11309700000.0 11309700000.0 11309700000.0 11309700000.0 11309700000.0 11309700000.0 11309700000.0 11309700000.0 11309700000.0 11309700000.0 11309700000.0 11309700000.0 11309700000.0 11309700000.0 11309700000.0 11309700000.0 11309700000.0 11309700000.0 11309700000.0 11309700000.0 11309700000.0 11309700000.0 11309700000.0 11309700000.0 11309700000.0 11309700000.0 11309700000.0 11309700000.0 11309700000.0 11309700000.0 11309700000.0 11309700000.0 11309700000.0 11309700000.0 11309700000.0 11309700000.0 11309700000.0 11309700000.0 11309700000.0 11309700000.0 11309700000.0 11309700000.0 11309700000.0 11309700000.0 11309700000.0 11309700000.0 11309700000.0 11309700000.0 11309700000.0 11309700000.0 11309700000.0 11309700000.0 11309700000.0 11309700000.0 11309700000.0 11309700000.0 11309700000.0 11309700000.0 11309700000.0 11309700000.0 11309700000.0 11309700000.0 11309700000.0 11309700000.0 11309700000.0 11309700000.0 11309700000.0 11309700000.0 11309700000.0 11309700000.0 11309700000.0 11309700000.0 11309700000.0 11309700000.0 11309700000.0 11309700000.0 11309700000.0 11309700000.0 11309700000.0 11309700000.0 11309700000.0 11309700000.0 11309700000.0 11309700000.0 11309700000.0 11309700000.0 11309700000.0 11309700000.0 11309700000.0 11309700000.0 11309700000.0 11309700000.0 11309700000.0 11309700000.0 11309700000.0 11309700000.0 11309700000.0 11309700000.0 11309700000.0 11309700000.0 11309700000.0 11309700000.0 11309700000.0 11309700000.0 11309700000.0 11309700000.0 11309700000.0 11309700000.0 11309700000.0 11309700000.0 11309700000.0 11309700000.0 11309700000.0 11309700000.0 11309700000.0 11309700000.0 11309700000.0 11309700000.0 11309700000.0 11309700000.0 11309700000.0 11309700000.0 11309700000.0 11309700000.0 11309700000.0 11309700000.0 11309700000.0 11309700000.0 11309700000.0 11309700000.0 11309700000.0 11309700000.0 11309700000.0 11309700000.0 11309700000.0 11309700000.0 11309700000.0 11309700000.0 11309700000.0 11309700000.0 11309700000.0 11309700000.0 11309700000.0 11309700000.0 11309700000.0 11309700000.0 11309700000.0 11309700000.0 11309700000.0 11309700000.0 11309700000.0 11309700000.0 11309700000.0 11309700000.0 11309700000.0 11309700000.0 11309700000.0 11309700000.0 11309700000.0 11309700000.0 11309700000.0 11309700000.0 11309700000.0 11309700000.0 11309700000.0 11309700000.0 11309700000.0 11309700000.0 11309700000.0 11309700000.0 11309700000.0 11309700000.0 11309700000.0 11309700000.0 11309700000.0 11309700000.0 11309700000.0 11309700000.0 11309700000.0 11309700000.0 11309700000.0 11309700000.0 11309700000.0 11309700000.0 11309700000.0 11309700000.0 11309700000.0 11309700000.0 11309700000.0 11309700000.0 11309700000.0 11309700000.0 11309700000.0 11309700000.0 11309700000.0 11309700000.0 11309700000.0 11309700000.0 11309700000.0 11309700000.0 11309700000.0 11309700000.0 11309700000.0 11309700000.0 11309700000.0 11309700000.0 11309700000.0 11309700000.0 11309700000.0 11309700000.0 11309700000.0 11309700000.0 11309700000.0 11309700000.0 11309700000.0 11309700000.0 11309700000.0 11309700000.0 11309700000.0 11309700000.0 11309700000.0 11309700000.0 11309700000.0 11309700000.0 11309700000.0 11309700000.0 11309700000.0 11309700000.0 11309700000.0 11309700000.0 11309700000.0 11309700000.0 11309700000.0 11309700000.0 11309700000.0 11309700000.0 11309700000.0 11309700000.0 11309700000.0 11309700000.0 11309700000.0 11309700000.0 11309700000.0 11309700000.0 11309700000.0 11309700000.0 11309700000.0 11309700000.0 11309700000.0 11309700000.0 11309700000.0 11309700000.0 11309700000.0 11309700000.0 11309700000.0 11309700000.0 11309700000.0 11309700000.0 11309700000.0 11309700000.0 11309700000.0 11309700000.0 11309700000.0 11309700000.0 11309700000.0 11309700000.0 11309700000.0 11309700000.0 11309700000.0 11309700000.0 11309700000.0 11309700000.0 11309700000.0 11309700000.0 11309700000.0 11309700000.0 11309700000.0 11309700000.0 11309700000.0 11309700000.0 11309700000.0 11309700000.0 11309700000.0 11309700000.0 11309700000.0 11309700000.0 11309700000.0 11309700000.0 11309700000.0 11309700000.0 11309700000.0 11309700000.0 11309700000.0 11309700000.0 11309700000.0 11309700000.0 11309700000.0 11309700000.0 11309700000.0 11309700000.0 11309700000.0 11309700000.0 11309700000.0 11309700000.0 11309700000.0 11309700000.0 11309700000.0 11309700000.0 11309700000.0 11309700000.0 11309700000.0 11309700000.0 11309700000.0 11309700000.0 11309700000.0 11309700000.0 11309700000.0 11309700000.0 11309700000.0 11309700000.0 11309700000.0 11309700000.0 11309700000.0 11309700000.0 11309700000.0 11309700000.0 11309700000.0 11309700000.0 11309700000.0 11309700000.0 11309700000.0 11309700000.0 11309700000.0 11309700000.0 11309700000.0 11309700000.0 11309700000.0 11309700000.0 11309700000.0 11309700000.0 11309700000.0 11309700000.0 11309700000.0 11309700000.0 11309700000.0 11309700000.0 11309700000.0 11309700000.0 11309700000.0 11309700000.0 11309700000.0 11309700000.0 11309700000.0 11309700000.0 11309700000.0 11309700000.0 11309700000.0 11309700000.0 11309700000.0 11309700000.0 11309700000.0 11309700000.0 11309700000.0 11309700000.0 11309700000.0 11309700000.0 11309700000.0 11309700000.0 11309700000.0 11309700000.0 11309700000.0 11309700000.0 11309700000.0 11309700000.0 11309700000.0 11309700000.0 11309700000.0 11309700000.0 11309700000.0 11309700000.0 11309700000.0 11309700000.0 11309700000.0 11309700000.0 11309700000.0 11309700000.0 11309700000.0 11309700000.0 11309700000.0 11309700000.0 11309700000.0 11309700000.0 11309700000.0 11309700000.0 11309700000.0 11309700000.0 11309700000.0 11309700000.0 11309700000.0 11309700000.0 11309700000.0 11309700000.0 11309700000.0 11309700000.0 11309700000.0 11309700000.0 11309700000.0 11309700000.0 11309700000.0 11309700000.0 11309700000.0 11309700000.0 11309700000.0 11309700000.0 11309700000.0 11309700000.0 11309700000.0 11309700000.0 11309700000.0 11309700000.0 11309700000.0 11309700000.0 11309700000.0 11309700000.0 11309700000.0 11309700000.0 11309700000.0 11309700000.0 11309700000.0 11309700000.0 11309700000.0 11309700000.0 11309700000.0 11309700000.0 11309700000.0 11309700000.0 11309700000.0 11309700000.0 11309700000.0 11309700000.0 11309700000.0 11309700000.0 11309700000.0 11309700000.0 11309700000.0 11309700000.0 11309700000.0 11309700000.0 11309700000.0 11309700000.0 11309700000.0 11309700000.0 11309700000.0 11309700000.0 11309700000.0 11309700000.0 11309700000.0 11309700000.0 11309700000.0 11309700000.0 11309700000.0 11309700000.0 11309700000.0 11309700000.0 11309700000.0 11309700000.0 11309700000.0 11309700000.0 11309700000.0 11309700000.0 11309700000.0 11309700000.0 11309700000.0 11309700000.0 11309700000.0 11309700000.0 11309700000.0 11309700000.0 11309700000.0 11309700000.0 11309700000.0 11309700000.0 11309700000.0 11309700000.0 11309700000.0 11309700000.0 11309700000.0 11309700000.0 11309700000.0 11309700000.0 11309700000.0 11309700000.0 11309700000.0 11309700000.0 11309700000.0 11309700000.0 11309700000.0 11309700000.0 11309700000.0 11309700000.0 11309700000.0 11309700000.0 11309700000.0 11309700000.0 11309700000.0 11309700000.0 11309700000.0 11309700000.0 11309700000.0 11309700000.0 11309700000.0 11309700000.0 11309700000.0 11309700000.0 11309700000.0 11309700000.0 11309700000.0 11309700000.0 11309700000.0 11309700000.0 11309700000.0 11309700000.0 11309700000.0 11309700000.0 11309700000.0 11309700000.0 11309700000.0 11309700000.0 11309700000.0 11309700000.0 11309700000.0 11309700000.0 11309700000.0 11309700000.0 11309700000.0 11309700000.0 11309700000.0 11309700000.0 11309700000.0 11309700000.0 11309700000.0 11309700000.0 11309700000.0 11309700000.0 11309700000.0 11309700000.0 11309700000.0 11309700000.0 11309700000.0 11309700000.0 11309700000.0 11309700000.0 11309700000.0 11309700000.0 11309700000.0 11309700000.0 11309700000.0 11309700000.0 11309700000.0 11309700000.0 11309700000.0 11309700000.0 11309700000.0 11309700000.0 11309700000.0 11309700000.0 11309700000.0 11309700000.0 11309700000.0 11309700000.0 11309700000.0 11309700000.0 11309700000.0 11309700000.0 11309700000.0 11309700000.0 11309700000.0 11309700000.0 11309700000.0 11309700000.0 11309700000.0 11309700000.0 11309700000.0 11309700000.0 11309700000.0 11309700000.0 11309700000.0 11309700000.0 11309700000.0 11309700000.0 11309700000.0 11309700000.0 11309700000.0 11309700000.0 11309700000.0 11309700000.0 11309700000.0 11309700000.0 11309700000.0 11309700000.0 11309700000.0 11309700000.0 11309700000.0 11309700000.0 11309700000.0 11309700000.0 11309700000.0 11309700000.0 11309700000.0 11309700000.0 11309700000.0 11309700000.0 11309700000.0 11309700000.0 11309700000.0 11309700000.0 11309700000.0 11309700000.0 11309700000.0 11309700000.0 11309700000.0 11309700000.0 11309700000.0 11309700000.0 11309700000.0 11309700000.0 11309700000.0 11309700000.0 11309700000.0 11309700000.0 11309700000.0 11309700000.0 11309700000.0 11309700000.0 11309700000.0 11309700000.0 11309700000.0 11309700000.0 11309700000.0 11309700000.0 11309700000.0 11309700000.0 11309700000.0 11309700000.0 11309700000.0 11309700000.0 11309700000.0 11309700000.0 11309700000.0 11309700000.0 11309700000.0 11309700000.0 11309700000.0 11309700000.0 11309700000.0 11309700000.0 11309700000.0 11309700000.0 11309700000.0 11309700000.0 11309700000.0 11309700000.0 11309700000.0 11309700000.0 11309700000.0 11309700000.0 11309700000.0 11309700000.0 11309700000.0 11309700000.0 11309700000.0 11309700000.0 11309700000.0 11309700000.0 11309700000.0 11309700000.0 11309700000.0 11309700000.0 11309700000.0 11309700000.0 11309700000.0 11309700000.0 11309700000.0 11309700000.0 11309700000.0 11309700000.0 11309700000.0 11309700000.0 11309700000.0 11309700000.0 11309700000.0 11309700000.0 11309700000.0 11309700000.0 11309700000.0 11309700000.0 11309700000.0 11309700000.0 11309700000.0 11309700000.0 11309700000.0 11309700000.0 11309700000.0 11309700000.0 11309700000.0 11309700000.0 11309700000.0 11309700000.0 11309700000.0 11309700000.0 11309700000.0 11309700000.0 11309700000.0 11309700000.0 11309700000.0 11309700000.0 11309700000.0 11309700000.0 11309700000.0 11309700000.0 11309700000.0 11309700000.0 11309700000.0 11309700000.0 11309700000.0 11309700000.0 11309700000.0 11309700000.0 11309700000.0 11309700000.0 11309700000.0 11309700000.0 11309700000.0 11309700000.0 11309700000.0 11309700000.0 11309700000.0 11309700000.0 11309700000.0 11309700000.0 11309700000.0 11309700000.0 11309700000.0 11309700000.0 11309700000.0 11309700000.0 11309700000.0 11309700000.0 11309700000.0 11309700000.0 11309700000.0 11309700000.0 11309700000.0 11309700000.0 11309700000.0 11309700000.0 11309700000.0 11309700000.0 11309700000.0 11309700000.0 11309700000.0 11309700000.0 11309700000.0 11309700000.0 11309700000.0 11309700000.0 11309700000.0 11309700000.0 11309700000.0 11309700000.0 11309700000.0 11309700000.0 11309700000.0 11309700000.0 11309700000.0 11309700000.0 11309700000.0 11309700000.0 11309700000.0 11309700000.0 11309700000.0 11309700000.0 11309700000.0 11309700000.0 11309700000.0 11309700000.0 11309700000.0 11309700000.0 11309700000.0 11309700000.0 11309700000.0 11309700000.0 11309700000.0 11309700000.0 11309700000.0 11309700000.0 11309700000.0 11309700000.0 11309700000.0 11309700000.0 11309700000.0 11309700000.0 11309700000.0 11309700000.0 11309700000.0 11309700000.0 11309700000.0 11309700000.0 11309700000.0 11309700000.0 11309700000.0 11309700000.0 11309700000.0 11309700000.0 11309700000.0 11309700000.0 11309700000.0 11309700000.0 11309700000.0 11309700000.0 11309700000.0 11309700000.0 11309700000.0 11309700000.0 11309700000.0 11309700000.0 11309700000.0 11309700000.0 11309700000.0 11309700000.0 11309700000.0 11309700000.0 11309700000.0 11309700000.0 11309700000.0 11309700000.0 11309700000.0 11309700000.0 11309700000.0 11309700000.0 11309700000.0 11309700000.0 11309700000.0 11309700000.0 11309700000.0 11309700000.0 11309700000.0 11309700000.0 11309700000.0 11309700000.0 11309700000.0 11309700000.0 11309700000.0 11309700000.0 11309700000.0 11309700000.0 11309700000.0 11309700000.0 11309700000.0 11309700000.0 11309700000.0 11309700000.0 11309700000.0 11309700000.0 11309700000.0 11309700000.0 11309700000.0 11309700000.0 11309700000.0 11309700000.0 11309700000.0 11309700000.0 11309700000.0 11309700000.0 11309700000.0 11309700000.0 11309700000.0 11309700000.0 11309700000.0 11309700000.0 11309700000.0 11309700000.0 11309700000.0 11309700000.0 11309700000.0 11309700000.0 11309700000.0 11309700000.0 11309700000.0 11309700000.0 11309700000.0 11309700000.0 11309700000.0 11309700000.0 11309700000.0 11309700000.0 11309700000.0 11309700000.0 11309700000.0 11309700000.0 11309700000.0 11309700000.0 11309700000.0 11309700000.0 11309700000.0 11309700000.0 11309700000.0 11309700000.0 11309700000.0 11309700000.0 11309700000.0 11309700000.0 11309700000.0 11309700000.0 11309700000.0 11309700000.0 11309700000.0 11309700000.0 11309700000.0 11309700000.0 11309700000.0 11309700000.0 11309700000.0 11309700000.0 11309700000.0 11309700000.0 11309700000.0 11309700000.0 11309700000.0 11309700000.0 11309700000.0 11309700000.0 11309700000.0 11309700000.0 11309700000.0 11309700000.0 11309700000.0 11309700000.0 11309700000.0 11309700000.0 11309700000.0 11309700000.0 11309700000.0 11309700000.0 11309700000.0 11309700000.0 11309700000.0 11309700000.0 11309700000.0 11309700000.0 11309700000.0 11309700000.0 11309700000.0 11309700000.0 11309700000.0 11309700000.0 11309700000.0 11309700000.0 11309700000.0 11309700000.0 11309700000.0 11309700000.0 11309700000.0 11309700000.0 11309700000.0 11309700000.0 11309700000.0 11309700000.0 11309700000.0 11309700000.0 11309700000.0 11309700000.0 11309700000.0 11309700000.0 11309700000.0 11309700000.0 11309700000.0 11309700000.0 11309700000.0 11309700000.0 11309700000.0 11309700000.0 11309700000.0 11309700000.0 11309700000.0 11309700000.0 11309700000.0 11309700000.0 11309700000.0 11309700000.0 11309700000.0 11309700000.0 11309700000.0 11309700000.0 11309700000.0 11309700000.0 11309700000.0 11309700000.0 11309700000.0 11309700000.0 11309700000.0 11309700000.0 11309700000.0 11309700000.0 11309700000.0 11309700000.0 11309700000.0 11309700000.0 11309700000.0 11309700000.0 11309700000.0 11309700000.0 11309700000.0 11309700000.0 11309700000.0 11309700000.0 11309700000.0 11309700000.0 11309700000.0 11309700000.0 11309700000.0 11309700000.0 11309700000.0 11309700000.0 11309700000.0 11309700000.0 11309700000.0 11309700000.0 11309700000.0 11309700000.0 11309700000.0 11309700000.0 11309700000.0 11309700000.0 11309700000.0 11309700000.0 11309700000.0 11309700000.0 11309700000.0 11309700000.0 11309700000.0 11309700000.0 11309700000.0 11309700000.0 11309700000.0 11309700000.0 11309700000.0 11309700000.0 11309700000.0 11309700000.0 11309700000.0 11309700000.0 11309700000.0 11309700000.0 11309700000.0 11309700000.0 11309700000.0 11309700000.0 11309700000.0 11309700000.0 11309700000.0 11309700000.0 11309700000.0 11309700000.0 11309700000.0 11309700000.0 11309700000.0 11309700000.0 11309700000.0 11309700000.0 11309700000.0 11309700000.0 11309700000.0 11309700000.0 11309700000.0 11309700000.0 11309700000.0 11309700000.0 11309700000.0 11309700000.0 11309700000.0 11309700000.0 11309700000.0 11309700000.0 11309700000.0 11309700000.0 11309700000.0 11309700000.0 11309700000.0 11309700000.0 11309700000.0 11309700000.0 11309700000.0 11309700000.0 11309700000.0 11309700000.0 11309700000.0 11309700000.0 11309700000.0 11309700000.0 11309700000.0 11309700000.0 11309700000.0 11309700000.0 11309700000.0 11309700000.0 11309700000.0 11309700000.0 11309700000.0 11309700000.0 11309700000.0 11309700000.0 11309700000.0 11309700000.0 11309700000.0 11309700000.0 11309700000.0 11309700000.0 11309700000.0 11309700000.0 11309700000.0 11309700000.0 11309700000.0 11309700000.0 11309700000.0 11309700000.0 11309700000.0 11309700000.0 11309700000.0 11309700000.0 11309700000.0 11309700000.0 11309700000.0 11309700000.0 11309700000.0 11309700000.0 11309700000.0 11309700000.0 11309700000.0 11309700000.0 11309700000.0 11309700000.0 11309700000.0 11309700000.0 11309700000.0 11309700000.0 11309700000.0 11309700000.0 11309700000.0 11309700000.0 11309700000.0 11309700000.0 11309700000.0 11309700000.0 11309700000.0 11309700000.0 11309700000.0 11309700000.0 11309700000.0 11309700000.0 11309700000.0 11309700000.0 11309700000.0 11309700000.0 11309700000.0 11309700000.0 11309700000.0 11309700000.0 11309700000.0 11309700000.0 11309700000.0 11309700000.0 11309700000.0 11309700000.0 11309700000.0 11309700000.0 11309700000.0 11309700000.0 11309700000.0 11309700000.0 11309700000.0 11309700000.0 11309700000.0 11309700000.0 11309700000.0 11309700000.0 11309700000.0 11309700000.0 11309700000.0 11309700000.0 11309700000.0 11309700000.0 11309700000.0 11309700000.0 11309700000.0 11309700000.0 11309700000.0 11309700000.0 11309700000.0 11309700000.0 11309700000.0 11309700000.0 11309700000.0 11309700000.0 11309700000.0 11309700000.0 11309700000.0 11309700000.0 11309700000.0 11309700000.0 11309700000.0 11309700000.0 11309700000.0 11309700000.0 11309700000.0 11309700000.0 11309700000.0 11309700000.0 11309700000.0 11309700000.0 11309700000.0 11309700000.0 11309700000.0 11309700000.0 11309700000.0 11309700000.0 11309700000.0 11309700000.0 11309700000.0 11309700000.0 11309700000.0 11309700000.0 11309700000.0 11309700000.0 11309700000.0 11309700000.0 11309700000.0 11309700000.0 11309700000.0 11309700000.0 11309700000.0 11309700000.0 11309700000.0 11309700000.0 11309700000.0 11309700000.0 11309700000.0 11309700000.0 11309700000.0 11309700000.0 11309700000.0 11309700000.0 11309700000.0 11309700000.0 11309700000.0 11309700000.0 11309700000.0 11309700000.0 11309700000.0 11309700000.0 11309700000.0 11309700000.0 11309700000.0 11309700000.0 11309700000.0 11309700000.0 11309700000.0 11309700000.0 11309700000.0 11309700000.0 11309700000.0 11309700000.0 11309700000.0 11309700000.0 11309700000.0 11309700000.0 11309700000.0 11309700000.0 11309700000.0 11309700000.0 11309700000.0 11309700000.0 11309700000.0 11309700000.0 11309700000.0 11309700000.0 11309700000.0 11309700000.0 11309700000.0 11309700000.0 11309700000.0 11309700000.0 11309700000.0 11309700000.0 11309700000.0 11309700000.0 11309700000.0 11309700000.0 11309700000.0 11309700000.0 11309700000.0 11309700000.0 11309700000.0 11309700000.0 11309700000.0 11309700000.0 11309700000.0 11309700000.0 11309700000.0 11309700000.0 11309700000.0 11309700000.0 11309700000.0 11309700000.0 11309700000.0 11309700000.0 11309700000.0 11309700000.0 11309700000.0 11309700000.0 11309700000.0 11309700000.0 11309700000.0 11309700000.0 11309700000.0 11309700000.0 11309700000.0 11309700000.0 11309700000.0 11309700000.0 11309700000.0 11309700000.0 11309700000.0 11309700000.0 11309700000.0 11309700000.0 11309700000.0 11309700000.0 11309700000.0 11309700000.0 11309700000.0 11309700000.0 11309700000.0 11309700000.0 11309700000.0 11309700000.0 11309700000.0 11309700000.0 11309700000.0 11309700000.0 11309700000.0 11309700000.0 11309700000.0 11309700000.0 11309700000.0 11309700000.0 11309700000.0 11309700000.0 11309700000.0 11309700000.0 11309700000.0 11309700000.0 11309700000.0 11309700000.0 11309700000.0 11309700000.0 11309700000.0 11309700000.0 11309700000.0 11309700000.0 11309700000.0 11309700000.0 11309700000.0 11309700000.0 11309700000.0 11309700000.0 11309700000.0 11309700000.0 11309700000.0 11309700000.0 11309700000.0 11309700000.0 11309700000.0 11309700000.0 11309700000.0 11309700000.0 11309700000.0 11309700000.0 11309700000.0 11309700000.0 11309700000.0 11309700000.0 11309700000.0 11309700000.0 11309700000.0 11309700000.0 11309700000.0 11309700000.0 11309700000.0 11309700000.0 11309700000.0 11309700000.0 11309700000.0 11309700000.0 11309700000.0 11309700000.0 11309700000.0 11309700000.0 11309700000.0 11309700000.0 11309700000.0 11309700000.0 11309700000.0 11309700000.0 11309700000.0 11309700000.0 11309700000.0 11309700000.0 11309700000.0 11309700000.0 11309700000.0 11309700000.0 11309700000.0 11309700000.0 11309700000.0 11309700000.0 11309700000.0 11309700000.0 11309700000.0 11309700000.0 11309700000.0 11309700000.0 11309700000.0 11309700000.0 11309700000.0 11309700000.0 11309700000.0 11309700000.0 11309700000.0 11309700000.0 11309700000.0 11309700000.0 11309700000.0 11309700000.0 11309700000.0 11309700000.0 11309700000.0 11309700000.0 11309700000.0 11309700000.0 11309700000.0 11309700000.0 11309700000.0 11309700000.0 11309700000.0 11309700000.0 11309700000.0 11309700000.0 11309700000.0 11309700000.0 11309700000.0 11309700000.0 11309700000.0 11309700000.0 11309700000.0 11309700000.0 11309700000.0 11309700000.0 11309700000.0 11309700000.0 11309700000.0 11309700000.0 11309700000.0 11309700000.0 11309700000.0 11309700000.0 11309700000.0 11309700000.0 11309700000.0 11309700000.0 11309700000.0 11309700000.0 11309700000.0 11309700000.0 11309700000.0 11309700000.0 11309700000.0 11309700000.0 11309700000.0 11309700000.0 11309700000.0 11309700000.0 11309700000.0 11309700000.0 11309700000.0 11309700000.0 11309700000.0 11309700000.0 11309700000.0 11309700000.0 11309700000.0 11309700000.0 11309700000.0 11309700000.0 11309700000.0 11309700000.0 11309700000.0 11309700000.0 11309700000.0 11309700000.0 11309700000.0 11309700000.0 11309700000.0 11309700000.0 11309700000.0 11309700000.0 11309700000.0 11309700000.0 11309700000.0 11309700000.0 11309700000.0 11309700000.0 11309700000.0 11309700000.0 11309700000.0 11309700000.0 11309700000.0 11309700000.0 11309700000.0 11309700000.0 11309700000.0 11309700000.0 11309700000.0 11309700000.0 11309700000.0 11309700000.0 11309700000.0 11309700000.0 11309700000.0 11309700000.0 11309700000.0 11309700000.0 11309700000.0 11309700000.0 11309700000.0 11309700000.0 11309700000.0 11309700000.0 11309700000.0 11309700000.0 11309700000.0 11309700000.0 11309700000.0 11309700000.0 11309700000.0 11309700000.0 11309700000.0 11309700000.0 11309700000.0 11309700000.0 11309700000.0 11309700000.0 11309700000.0 11309700000.0 11309700000.0 11309700000.0 11309700000.0 11309700000.0 11309700000.0 11309700000.0 11309700000.0 11309700000.0 11309700000.0 11309700000.0 11309700000.0 11309700000.0 11309700000.0 11309700000.0 11309700000.0 11309700000.0 11309700000.0 11309700000.0 11309700000.0 11309700000.0 11309700000.0 11309700000.0 11309700000.0 11309700000.0 11309700000.0 11309700000.0 11309700000.0 11309700000.0 11309700000.0 11309700000.0 11309700000.0 11309700000.0 11309700000.0 11309700000.0 11309700000.0 11309700000.0 11309700000.0 11309700000.0 11309700000.0 11309700000.0 11309700000.0 11309700000.0 11309700000.0 11309700000.0 11309700000.0 11309700000.0 11309700000.0 11309700000.0 11309700000.0 11309700000.0 11309700000.0 11309700000.0 11309700000.0 11309700000.0 11309700000.0 11309700000.0 11309700000.0 11309700000.0 11309700000.0 11309700000.0 11309700000.0 11309700000.0 11309700000.0 11309700000.0 11309700000.0 11309700000.0 11309700000.0 11309700000.0 11309700000.0 11309700000.0 11309700000.0 11309700000.0 11309700000.0 11309700000.0 11309700000.0 11309700000.0 11309700000.0 11309700000.0 11309700000.0 11309700000.0 11309700000.0 11309700000.0 11309700000.0 11309700000.0 11309700000.0 11309700000.0 11309700000.0 11309700000.0 11309700000.0 11309700000.0 11309700000.0 11309700000.0 11309700000.0 11309700000.0 11309700000.0 11309700000.0 11309700000.0 11309700000.0 11309700000.0 11309700000.0 11309700000.0 11309700000.0 11309700000.0 11309700000.0 11309700000.0 11309700000.0 11309700000.0 11309700000.0 11309700000.0 11309700000.0 11309700000.0 11309700000.0 11309700000.0 11309700000.0 11309700000.0 11309700000.0 11309700000.0 11309700000.0 11309700000.0 11309700000.0 11309700000.0 11309700000.0 11309700000.0 11309700000.0 11309700000.0 11309700000.0 11309700000.0 11309700000.0 11309700000.0 11309700000.0 11309700000.0 11309700000.0 11309700000.0 11309700000.0 11309700000.0 11309700000.0 11309700000.0 11309700000.0 11309700000.0 11309700000.0 11309700000.0 11309700000.0 11309700000.0 11309700000.0 11309700000.0 11309700000.0 11309700000.0 11309700000.0 11309700000.0 11309700000.0 11309700000.0 11309700000.0 11309700000.0 11309700000.0 11309700000.0 11309700000.0 11309700000.0 11309700000.0 11309700000.0 11309700000.0 11309700000.0 11309700000.0 11309700000.0 11309700000.0 11309700000.0 11309700000.0 11309700000.0 11309700000.0 11309700000.0 11309700000.0 11309700000.0 11309700000.0 11309700000.0 11309700000.0 11309700000.0 11309700000.0 11309700000.0 11309700000.0 11309700000.0 11309700000.0 11309700000.0 11309700000.0 11309700000.0 11309700000.0 11309700000.0 11309700000.0 11309700000.0 11309700000.0 11309700000.0 11309700000.0 11309700000.0 11309700000.0 11309700000.0 11309700000.0 11309700000.0 11309700000.0 11309700000.0 11309700000.0 11309700000.0 11309700000.0 11309700000.0 11309700000.0 11309700000.0 11309700000.0 11309700000.0 11309700000.0 11309700000.0 11309700000.0 11309700000.0 11309700000.0 11309700000.0 11309700000.0 11309700000.0 11309700000.0 11309700000.0 11309700000.0 11309700000.0 11309700000.0 11309700000.0 11309700000.0 11309700000.0 11309700000.0 11309700000.0 11309700000.0 11309700000.0 11309700000.0 11309700000.0 11309700000.0 11309700000.0 11309700000.0 11309700000.0 11309700000.0 11309700000.0 11309700000.0 11309700000.0 11309700000.0 11309700000.0 11309700000.0 11309700000.0 11309700000.0 11309700000.0 11309700000.0 11309700000.0 11309700000.0 11309700000.0 11309700000.0 11309700000.0 11309700000.0 11309700000.0 11309700000.0 11309700000.0 11309700000.0 11309700000.0 11309700000.0 11309700000.0 11309700000.0 11309700000.0 11309700000.0 11309700000.0 11309700000.0 11309700000.0 11309700000.0 11309700000.0 11309700000.0 11309700000.0 11309700000.0 11309700000.0 11309700000.0 11309700000.0 11309700000.0 11309700000.0 11309700000.0 11309700000.0 11309700000.0 11309700000.0 11309700000.0 11309700000.0 11309700000.0 11309700000.0 11309700000.0 11309700000.0 11309700000.0 11309700000.0 11309700000.0 11309700000.0 11309700000.0 11309700000.0 11309700000.0 11309700000.0 11309700000.0 11309700000.0 11309700000.0 11309700000.0 11309700000.0 11309700000.0 11309700000.0 11309700000.0 11309700000.0 11309700000.0 11309700000.0 11309700000.0 11309700000.0 11309700000.0 11309700000.0 11309700000.0 11309700000.0 11309700000.0 11309700000.0 11309700000.0 11309700000.0 11309700000.0 11309700000.0 11309700000.0 11309700000.0 11309700000.0 11309700000.0 11309700000.0 11309700000.0 11309700000.0 11309700000.0 11309700000.0 11309700000.0 11309700000.0 11309700000.0 11309700000.0 11309700000.0 11309700000.0 11309700000.0 11309700000.0 11309700000.0 11309700000.0 11309700000.0 11309700000.0 11309700000.0 11309700000.0 11309700000.0 11309700000.0 11309700000.0 11309700000.0 11309700000.0 11309700000.0 11309700000.0 11309700000.0 11309700000.0 11309700000.0 11309700000.0 11309700000.0 11309700000.0 11309700000.0 11309700000.0 11309700000.0 11309700000.0 11309700000.0 11309700000.0 11309700000.0 11309700000.0 11309700000.0 11309700000.0 11309700000.0 11309700000.0 11309700000.0 11309700000.0 11309700000.0 11309700000.0 11309700000.0 11309700000.0 11309700000.0 11309700000.0 11309700000.0 11309700000.0 11309700000.0 11309700000.0 11309700000.0 11309700000.0 11309700000.0 11309700000.0 11309700000.0 11309700000.0 11309700000.0 11309700000.0 11309700000.0 11309700000.0 11309700000.0 11309700000.0 11309700000.0 11309700000.0 11309700000.0 11309700000.0 11309700000.0 11309700000.0 11309700000.0 11309700000.0 11309700000.0 11309700000.0 11309700000.0 11309700000.0 11309700000.0 11309700000.0 11309700000.0 11309700000.0 11309700000.0 11309700000.0 11309700000.0 11309700000.0 11309700000.0 11309700000.0 11309700000.0 11309700000.0 11309700000.0 11309700000.0 11309700000.0 11309700000.0 11309700000.0 11309700000.0 11309700000.0 11309700000.0 11309700000.0 11309700000.0 11309700000.0 11309700000.0 11309700000.0 11309700000.0 11309700000.0 11309700000.0 11309700000.0 11309700000.0 11309700000.0 11309700000.0 11309700000.0 11309700000.0 11309700000.0 11309700000.0 11309700000.0 11309700000.0 11309700000.0 11309700000.0 11309700000.0 11309700000.0 11309700000.0 11309700000.0 11309700000.0 11309700000.0 11309700000.0 11309700000.0 11309700000.0 11309700000.0 11309700000.0 11309700000.0 11309700000.0 11309700000.0 11309700000.0 11309700000.0 11309700000.0 11309700000.0 11309700000.0 11309700000.0 11309700000.0 11309700000.0 11309700000.0 11309700000.0 11309700000.0 11309700000.0 11309700000.0 11309700000.0 11309700000.0 11309700000.0 11309700000.0 11309700000.0 11309700000.0 11309700000.0 11309700000.0 11309700000.0 11309700000.0 11309700000.0 11309700000.0 11309700000.0 11309700000.0 11309700000.0 11309700000.0 11309700000.0 11309700000.0 11309700000.0 11309700000.0 11309700000.0 11309700000.0 11309700000.0 11309700000.0 11309700000.0 11309700000.0 11309700000.0 11309700000.0 11309700000.0 11309700000.0 11309700000.0 11309700000.0 11309700000.0 11309700000.0 11309700000.0 11309700000.0 11309700000.0 11309700000.0 11309700000.0 11309700000.0 11309700000.0 11309700000.0 11309700000.0 11309700000.0 11309700000.0 11309700000.0 11309700000.0 11309700000.0 11309700000.0 11309700000.0 11309700000.0 11309700000.0 11309700000.0 11309700000.0 11309700000.0 11309700000.0 11309700000.0 11309700000.0 11309700000.0 11309700000.0 11309700000.0 11309700000.0 11309700000.0 11309700000.0 11309700000.0 11309700000.0 11309700000.0 11309700000.0 11309700000.0 11309700000.0 11309700000.0 11309700000.0 11309700000.0 11309700000.0 11309700000.0 11309700000.0 11309700000.0 11309700000.0 11309700000.0 11309700000.0 11309700000.0 11309700000.0 11309700000.0 11309700000.0 11309700000.0 11309700000.0 11309700000.0 11309700000.0 11309700000.0 11309700000.0 11309700000.0 11309700000.0 11309700000.0 11309700000.0 11309700000.0 11309700000.0 11309700000.0 11309700000.0 11309700000.0 11309700000.0 11309700000.0 11309700000.0 11309700000.0 11309700000.0 11309700000.0 11309700000.0 11309700000.0 11309700000.0 11309700000.0 11309700000.0 11309700000.0 11309700000.0 11309700000.0 11309700000.0 11309700000.0 11309700000.0 11309700000.0 11309700000.0 11309700000.0 11309700000.0 11309700000.0 11309700000.0 11309700000.0 11309700000.0 11309700000.0 11309700000.0 11309700000.0 11309700000.0 11309700000.0 11309700000.0 11309700000.0 11309700000.0 11309700000.0 11309700000.0 11309700000.0 11309700000.0 11309700000.0 11309700000.0 11309700000.0 11309700000.0 11309700000.0 11309700000.0 11309700000.0 11309700000.0 11309700000.0 11309700000.0 11309700000.0 11309700000.0 11309700000.0 11309700000.0 11309700000.0 11309700000.0 11309700000.0 11309700000.0 11309700000.0 11309700000.0 11309700000.0 11309700000.0 11309700000.0 11309700000.0 11309700000.0 11309700000.0 11309700000.0 11309700000.0 11309700000.0 11309700000.0 11309700000.0 11309700000.0 11309700000.0 11309700000.0 11309700000.0 11309700000.0 11309700000.0 11309700000.0 11309700000.0 11309700000.0 11309700000.0 11309700000.0 11309700000.0 11309700000.0 11309700000.0 11309700000.0 11309700000.0 11309700000.0 11309700000.0 11309700000.0 11309700000.0 11309700000.0 11309700000.0 11309700000.0 11309700000.0 11309700000.0 11309700000.0 11309700000.0 11309700000.0 11309700000.0 11309700000.0 11309700000.0 11309700000.0 11309700000.0 11309700000.0 11309700000.0 11309700000.0 11309700000.0 11309700000.0 11309700000.0 11309700000.0 11309700000.0 11309700000.0 11309700000.0 11309700000.0 11309700000.0 11309700000.0 11309700000.0 11309700000.0 11309700000.0 11309700000.0 11309700000.0 11309700000.0 11309700000.0 11309700000.0 11309700000.0 11309700000.0 11309700000.0 11309700000.0 11309700000.0 11309700000.0 11309700000.0 11309700000.0 11309700000.0 11309700000.0 11309700000.0 11309700000.0 11309700000.0 11309700000.0 11309700000.0 11309700000.0 11309700000.0 11309700000.0 11309700000.0 11309700000.0 11309700000.0 11309700000.0 11309700000.0 11309700000.0 11309700000.0 11309700000.0 11309700000.0 11309700000.0 11309700000.0 11309700000.0 11309700000.0 11309700000.0 11309700000.0 11309700000.0 11309700000.0 11309700000.0 11309700000.0 11309700000.0 11309700000.0 11309700000.0 11309700000.0 11309700000.0 11309700000.0 11309700000.0 11309700000.0 11309700000.0 11309700000.0 11309700000.0 11309700000.0 11309700000.0 11309700000.0 11309700000.0 11309700000.0 11309700000.0 11309700000.0 11309700000.0 11309700000.0 11309700000.0 11309700000.0 11309700000.0 11309700000.0 11309700000.0 11309700000.0 11309700000.0 11309700000.0 11309700000.0 11309700000.0 11309700000.0 11309700000.0 11309700000.0 11309700000.0 11309700000.0 11309700000.0 11309700000.0 11309700000.0 11309700000.0 11309700000.0 11309700000.0 11309700000.0 11309700000.0 11309700000.0 11309700000.0 11309700000.0 11309700000.0 11309700000.0 11309700000.0 11309700000.0 11309700000.0 11309700000.0 11309700000.0 11309700000.0 11309700000.0 11309700000.0 11309700000.0 11309700000.0 11309700000.0 11309700000.0 11309700000.0 11309700000.0 11309700000.0 11309700000.0 11309700000.0 11309700000.0 11309700000.0 11309700000.0 11309700000.0 11309700000.0 11309700000.0 11309700000.0 11309700000.0 11309700000.0 11309700000.0 11309700000.0 11309700000.0 11309700000.0 11309700000.0 11309700000.0 11309700000.0 11309700000.0 11309700000.0 11309700000.0 11309700000.0 11309700000.0 11309700000.0 11309700000.0 11309700000.0 11309700000.0 11309700000.0 11309700000.0 11309700000.0 11309700000.0 11309700000.0 11309700000.0 11309700000.0 11309700000.0 11309700000.0 11309700000.0 11309700000.0 11309700000.0 11309700000.0 11309700000.0 11309700000.0 11309700000.0 11309700000.0 11309700000.0 11309700000.0 11309700000.0 11309700000.0 11309700000.0 11309700000.0 11309700000.0 11309700000.0 11309700000.0 11309700000.0 11309700000.0 11309700000.0 11309700000.0 11309700000.0 11309700000.0 11309700000.0 11309700000.0 11309700000.0 11309700000.0 11309700000.0 11309700000.0 11309700000.0 11309700000.0 11309700000.0 11309700000.0 11309700000.0 11309700000.0 11309700000.0 11309700000.0 11309700000.0 11309700000.0 11309700000.0 11309700000.0 11309700000.0 11309700000.0 11309700000.0 11309700000.0 11309700000.0 11309700000.0 11309700000.0 11309700000.0 11309700000.0 11309700000.0 11309700000.0 11309700000.0 11309700000.0 11309700000.0 11309700000.0 11309700000.0 11309700000.0 11309700000.0 11309700000.0 11309700000.0 11309700000.0 11309700000.0 11309700000.0 11309700000.0 11309700000.0 11309700000.0 11309700000.0 11309700000.0 11309700000.0 11309700000.0 11309700000.0 11309700000.0 11309700000.0 11309700000.0 11309700000.0 11309700000.0 11309700000.0 11309700000.0 11309700000.0 11309700000.0 11309700000.0 11309700000.0 11309700000.0 11309700000.0 11309700000.0 11309700000.0 11309700000.0 11309700000.0 11309700000.0 11309700000.0 11309700000.0 11309700000.0 11309700000.0 11309700000.0 11309700000.0 11309700000.0 11309700000.0 11309700000.0 11309700000.0 11309700000.0 11309700000.0 11309700000.0 11309700000.0 11309700000.0 11309700000.0 11309700000.0 11309700000.0 11309700000.0 11309700000.0 11309700000.0 11309700000.0 11309700000.0 11309700000.0 11309700000.0 11309700000.0 11309700000.0 11309700000.0 11309700000.0 11309700000.0 11309700000.0 11309700000.0 11309700000.0 11309700000.0 11309700000.0 11309700000.0 11309700000.0 11309700000.0 11309700000.0 11309700000.0 11309700000.0 11309700000.0 11309700000.0 11309700000.0 11309700000.0 11309700000.0 11309700000.0 11309700000.0 11309700000.0 11309700000.0 11309700000.0 11309700000.0 11309700000.0 11309700000.0 11309700000.0 11309700000.0 11309700000.0 11309700000.0 11309700000.0 11309700000.0 11309700000.0 11309700000.0 11309700000.0 11309700000.0 11309700000.0 11309700000.0 11309700000.0 11309700000.0 11309700000.0 11309700000.0 11309700000.0 11309700000.0 11309700000.0 11309700000.0 11309700000.0 11309700000.0 11309700000.0 11309700000.0 11309700000.0 11309700000.0 11309700000.0 11309700000.0 11309700000.0 11309700000.0 11309700000.0 11309700000.0 11309700000.0 11309700000.0 11309700000.0 11309700000.0 11309700000.0 11309700000.0 11309700000.0 11309700000.0 11309700000.0 11309700000.0 11309700000.0 11309700000.0 11309700000.0 11309700000.0 11309700000.0 11309700000.0 11309700000.0 11309700000.0 11309700000.0 11309700000.0 11309700000.0 11309700000.0 11309700000.0 11309700000.0 11309700000.0 11309700000.0 11309700000.0 11309700000.0 11309700000.0 11309700000.0 11309700000.0 11309700000.0 11309700000.0 11309700000.0 11309700000.0 11309700000.0 11309700000.0 11309700000.0 11309700000.0 11309700000.0 11309700000.0 11309700000.0 11309700000.0 11309700000.0 11309700000.0 11309700000.0 11309700000.0 11309700000.0 11309700000.0 11309700000.0 11309700000.0 11309700000.0 11309700000.0 11309700000.0 11309700000.0 11309700000.0 11309700000.0 11309700000.0 11309700000.0 11309700000.0 11309700000.0 11309700000.0 11309700000.0 11309700000.0 11309700000.0 11309700000.0 11309700000.0 11309700000.0 11309700000.0 11309700000.0 11309700000.0 11309700000.0 11309700000.0 11309700000.0 11309700000.0 11309700000.0 11309700000.0 11309700000.0 11309700000.0 11309700000.0 11309700000.0 11309700000.0 11309700000.0 11309700000.0 11309700000.0 11309700000.0 11309700000.0 11309700000.0 11309700000.0 11309700000.0 11309700000.0 11309700000.0 11309700000.0 11309700000.0 11309700000.0 11309700000.0 11309700000.0 11309700000.0 11309700000.0 11309700000.0 11309700000.0 11309700000.0 11309700000.0 11309700000.0 11309700000.0 11309700000.0 11309700000.0 11309700000.0 11309700000.0 11309700000.0 11309700000.0 11309700000.0 11309700000.0 11309700000.0 11309700000.0 11309700000.0 11309700000.0 11309700000.0 11309700000.0 11309700000.0 11309700000.0 11309700000.0 11309700000.0 11309700000.0 11309700000.0 11309700000.0 11309700000.0 11309700000.0 11309700000.0 11309700000.0 11309700000.0 11309700000.0 11309700000.0 11309700000.0 11309700000.0 11309700000.0 11309700000.0 11309700000.0 11309700000.0 11309700000.0 11309700000.0 11309700000.0 11309700000.0 11309700000.0 11309700000.0 11309700000.0 11309700000.0 11309700000.0 11309700000.0 11309700000.0 11309700000.0 11309700000.0 11309700000.0 11309700000.0 11309700000.0 11309700000.0 11309700000.0 11309700000.0 11309700000.0 11309700000.0 11309700000.0 11309700000.0 11309700000.0 11309700000.0 11309700000.0 11309700000.0 11309700000.0 11309700000.0 11309700000.0 11309700000.0 11309700000.0 11309700000.0 11309700000.0 11309700000.0 11309700000.0 11309700000.0 11309700000.0 11309700000.0 11309700000.0 11309700000.0 11309700000.0 11309700000.0 11309700000.0 11309700000.0 11309700000.0 11309700000.0 11309700000.0 11309700000.0 11309700000.0 11309700000.0 11309700000.0 11309700000.0 11309700000.0 11309700000.0 11309700000.0 11309700000.0 11309700000.0 11309700000.0 11309700000.0 11309700000.0 11309700000.0 11309700000.0 11309700000.0 11309700000.0 11309700000.0 11309700000.0 11309700000.0 11309700000.0 11309700000.0 11309700000.0 11309700000.0 11309700000.0 11309700000.0 11309700000.0 11309700000.0 11309700000.0 11309700000.0 11309700000.0 11309700000.0 11309700000.0 11309700000.0 11309700000.0 11309700000.0 11309700000.0 11309700000.0 11309700000.0 11309700000.0 11309700000.0 11309700000.0 11309700000.0 11309700000.0 11309700000.0 11309700000.0 11309700000.0 11309700000.0 11309700000.0 11309700000.0 11309700000.0 11309700000.0 11309700000.0 11309700000.0 11309700000.0 11309700000.0 11309700000.0 11309700000.0 11309700000.0 11309700000.0 11309700000.0 11309700000.0 11309700000.0 11309700000.0 11309700000.0 11309700000.0 11309700000.0 11309700000.0 11309700000.0 11309700000.0 11309700000.0 11309700000.0 11309700000.0 11309700000.0 11309700000.0 11309700000.0 11309700000.0 11309700000.0 11309700000.0 11309700000.0 11309700000.0 11309700000.0 11309700000.0 11309700000.0 11309700000.0 11309700000.0 11309700000.0 11309700000.0 11309700000.0 11309700000.0 11309700000.0 11309700000.0 11309700000.0 11309700000.0 11309700000.0 11309700000.0 11309700000.0 11309700000.0 11309700000.0 11309700000.0 11309700000.0 11309700000.0 11309700000.0 11309700000.0 11309700000.0 11309700000.0 11309700000.0 11309700000.0 11309700000.0 11309700000.0 11309700000.0 11309700000.0 11309700000.0 11309700000.0 11309700000.0 11309700000.0 11309700000.0 11309700000.0 11309700000.0 11309700000.0 11309700000.0 11309700000.0 11309700000.0 11309700000.0 11309700000.0 11309700000.0 11309700000.0 11309700000.0 11309700000.0 11309700000.0 11309700000.0 11309700000.0 11309700000.0 11309700000.0 11309700000.0 11309700000.0 11309700000.0 11309700000.0 11309700000.0 11309700000.0 11309700000.0 11309700000.0 11309700000.0 11309700000.0 11309700000.0 11309700000.0 11309700000.0 11309700000.0 11309700000.0 11309700000.0 11309700000.0 11309700000.0 11309700000.0 11309700000.0 11309700000.0 11309700000.0 11309700000.0 11309700000.0 11309700000.0 11309700000.0 11309700000.0 11309700000.0 11309700000.0 11309700000.0 11309700000.0 11309700000.0 11309700000.0 11309700000.0 11309700000.0 11309700000.0 11309700000.0 11309700000.0 11309700000.0 11309700000.0 11309700000.0 11309700000.0 11309700000.0 11309700000.0 11309700000.0 11309700000.0 11309700000.0 11309700000.0 11309700000.0 11309700000.0 11309700000.0 11309700000.0 11309700000.0 11309700000.0 11309700000.0 11309700000.0 11309700000.0 11309700000.0 11309700000.0 11309700000.0 11309700000.0 11309700000.0 11309700000.0 11309700000.0 11309700000.0 11309700000.0 11309700000.0 11309700000.0 11309700000.0 11309700000.0 11309700000.0 11309700000.0 11309700000.0 11309700000.0 11309700000.0 11309700000.0 11309700000.0 11309700000.0 11309700000.0 11309700000.0 11309700000.0 11309700000.0 11309700000.0 11309700000.0 11309700000.0 11309700000.0 11309700000.0 11309700000.0 11309700000.0 11309700000.0 11309700000.0 11309700000.0 11309700000.0 11309700000.0 11309700000.0 11309700000.0 11309700000.0 11309700000.0 11309700000.0 11309700000.0 11309700000.0 11309700000.0 11309700000.0 11309700000.0 11309700000.0 11309700000.0 11309700000.0 11309700000.0 11309700000.0 11309700000.0 11309700000.0 11309700000.0 11309700000.0 11309700000.0 11309700000.0 11309700000.0 11309700000.0 11309700000.0 11309700000.0 11309700000.0 11309700000.0 11309700000.0 11309700000.0 11309700000.0 11309700000.0 11309700000.0 11309700000.0 11309700000.0 11309700000.0 11309700000.0 11309700000.0 11309700000.0 11309700000.0 11309700000.0 11309700000.0 11309700000.0 11309700000.0 11309700000.0 11309700000.0 11309700000.0 11309700000.0 11309700000.0 11309700000.0 11309700000.0 11309700000.0 11309700000.0 11309700000.0 11309700000.0 11309700000.0 11309700000.0 11309700000.0 11309700000.0 11309700000.0 11309700000.0 11309700000.0 11309700000.0 11309700000.0 11309700000.0 11309700000.0 11309700000.0 11309700000.0 11309700000.0 11309700000.0 11309700000.0 11309700000.0 11309700000.0 11309700000.0 11309700000.0 11309700000.0 11309700000.0 11309700000.0 11309700000.0 11309700000.0 11309700000.0 11309700000.0 11309700000.0 11309700000.0 11309700000.0 11309700000.0 11309700000.0 11309700000.0 11309700000.0 11309700000.0 11309700000.0 11309700000.0 11309700000.0 11309700000.0 11309700000.0 11309700000.0 11309700000.0 11309700000.0 11309700000.0 11309700000.0 11309700000.0 11309700000.0 11309700000.0 11309700000.0 11309700000.0 11309700000.0 11309700000.0 11309700000.0 11309700000.0 11309700000.0 11309700000.0 11309700000.0 11309700000.0 11309700000.0 11309700000.0 11309700000.0 11309700000.0 11309700000.0 11309700000.0 11309700000.0 11309700000.0 11309700000.0 11309700000.0 11309700000.0 11309700000.0 11309700000.0 11309700000.0 11309700000.0 11309700000.0 11309700000.0 11309700000.0 11309700000.0 11309700000.0 11309700000.0 11309700000.0 11309700000.0 11309700000.0 11309700000.0 11309700000.0 11309700000.0 11309700000.0 11309700000.0 11309700000.0 11309700000.0 11309700000.0 11309700000.0 11309700000.0 11309700000.0 11309700000.0 11309700000.0 11309700000.0 11309700000.0 11309700000.0 11309700000.0 11309700000.0 11309700000.0 11309700000.0 11309700000.0 11309700000.0 11309700000.0 11309700000.0 11309700000.0 11309700000.0 11309700000.0 11309700000.0 11309700000.0 11309700000.0 11309700000.0 11309700000.0 11309700000.0 11309700000.0 11309700000.0 11309700000.0 11309700000.0 11309700000.0 11309700000.0 11309700000.0 11309700000.0 11309700000.0 11309700000.0 11309700000.0 11309700000.0 11309700000.0 11309700000.0 11309700000.0 11309700000.0 11309700000.0 11309700000.0 11309700000.0 11309700000.0 11309700000.0 11309700000.0 11309700000.0 11309700000.0 11309700000.0 11309700000.0 11309700000.0 11309700000.0 11309700000.0 11309700000.0 11309700000.0 11309700000.0 11309700000.0 11309700000.0 11309700000.0 11309700000.0 11309700000.0 11309700000.0 11309700000.0 11309700000.0 11309700000.0 11309700000.0 11309700000.0 11309700000.0 11309700000.0 11309700000.0 11309700000.0 11309700000.0 11309700000.0 11309700000.0 11309700000.0 11309700000.0 11309700000.0 11309700000.0 11309700000.0 11309700000.0 11309700000.0 11309700000.0 11309700000.0 11309700000.0 11309700000.0 11309700000.0 11309700000.0 11309700000.0 11309700000.0 11309700000.0 11309700000.0 11309700000.0 11309700000.0 11309700000.0 11309700000.0 11309700000.0 11309700000.0 11309700000.0 11309700000.0 11309700000.0 11309700000.0 11309700000.0 11309700000.0 11309700000.0 11309700000.0 11309700000.0 11309700000.0 11309700000.0 11309700000.0 11309700000.0 11309700000.0 11309700000.0 11309700000.0 11309700000.0 11309700000.0 11309700000.0 11309700000.0 11309700000.0 11309700000.0 11309700000.0 11309700000.0 11309700000.0 11309700000.0 11309700000.0 11309700000.0 11309700000.0 11309700000.0 11309700000.0 11309700000.0 11309700000.0 11309700000.0 11309700000.0 11309700000.0 11309700000.0 11309700000.0 11309700000.0 11309700000.0 11309700000.0 11309700000.0 11309700000.0 11309700000.0 11309700000.0 11309700000.0 11309700000.0 11309700000.0 11309700000.0 11309700000.0 11309700000.0 11309700000.0 11309700000.0 11309700000.0 11309700000.0 11309700000.0 11309700000.0 11309700000.0 11309700000.0 11309700000.0 11309700000.0 11309700000.0 11309700000.0 11309700000.0 11309700000.0 11309700000.0 
SCALARS Velocity float 1
LOOKUP_TABLE default
0.977365 1.01996 1.06021 1.02569 0.963748 0.986041 0.97328 0.946501 1.07513 1.06369 1.05724 1.0518 1.04752 1.04303 0.919005 1.00858 0.976931 1.02204 0.973235 1.09175 1.0801 1.07341 1.06847 1.06386 1.06023 1.05762 1.055 1.05252 1.05032 1.04984 1.04877 1.04885 1.05122 1.05156 1.04856 1.04643 1.02345 1.04494 1.05897 0.986927 1.01972 0.94508 1.09339 1.09356 1.07892 1.06838 1.06071 1.05547 1.05129 1.05056 1.04988 1.05205 1.04642 1.04281 1.01876 0.91848 1.00354 1.03864 1.07572 0.968667 0.94043 1.09039 1.07314 1.06427 1.05833 1.05375 1.05109 1.05004 1.05178 1.05084 1.04201 0.91753 0.997892 1.05491 1.09198 1.03838 1.09472 1.07905 1.06852 1.06512 1.06154 1.05958 1.05662 1.05552 1.05298 1.05304 1.05124 1.05115 1.05072 1.05145 1.05288 1.04648 1.01148 1.03207 1.07383 1.08992 1.01072 1.09557 1.08819 1.08011 1.07343 1.06943 1.06271 1.05832 1.05519 1.05376 1.05085 1.05003 1.05541 1.04678 1.04103 0.999055 0.930995 0.987341 1.02161 1.05145 1.07191 1.03293 1.11279 1.08839 1.07487 1.06638 1.06114 1.05773 1.05582 1.05517 1.04846 1.06611 1.04034 0.983874 0.974244 1.05153 1.08473 1.11862 1.09915 1.08183 1.07095 1.06426 1.06034 1.058 1.0592 1.05746 1.06025 1.05731 1.05824 1.03222 1.04161 0.987568 1.00334 1.07776 1.09241 1.12415 1.11933 1.11177 1.10171 1.09097 1.08402 1.07668 1.07262 1.06799 1.06602 1.06302 1.06256 1.06026 1.06105 1.06137 1.06303 1.04718 1.0688 1.03736 1.05656 1.11248 1.05904 1.02023 1.07643 1.05569 1.08485 1.11195 1.11255 1.09297 1.0784 1.06964 1.06499 1.0629 1.06262 1.06382 1.0595 1.05822 1.06459 1.06691 1.01715 1.07872 1.09315 1.11364 1.10291 1.08539 1.07414 1.06777 1.0648 1.06399 1.06453 1.06367 1.05435 1.05773 1.09343 1.11746 1.08265 1.09039 1.10454 1.10893 1.11169 1.10155 1.09331 1.08554 1.07955 1.07549 1.07116 1.06935 1.0669 1.0669 1.06541 1.06661 1.06553 1.06669 1.06543 1.06436 1.06035 1.0564 1.05512 1.05582 1.06651 1.08966 1.05777 1.11208 1.09777 1.0852 1.08359 1.09908 1.11273 1.09137 1.08057 1.07244 1.0686 1.06764 1.0678 1.06687 1.06146 1.05501 1.06432 1.083 1.09579 1.0835 1.08871 1.10337 1.09676 1.08589 1.07683 1.07058 1.06874 1.0687 1.06851 1.06549 1.05806 1.05638 1.07316 1.08639 1.08026 1.08229 1.08668 1.09707 1.10416 1.05588 1.09107 1.08718 1.08191 1.07829 1.07325 1.0712 1.06993 1.07018 1.06948 1.07031 1.06959 1.06984 1.06813 1.06643 1.06271 1.05951 1.05631 1.0561 1.06036 1.06296 1.07035 1.08529 1.07996 1.08128 1.09793 1.0563 1.08377 1.07299 1.07072 1.07083 1.07081 1.069 1.06357 1.05705 1.05674 1.06139 1.07918 1.07822 1.08756 1.1019 1.0546 1.05719 1.05814 1.06019 1.08025 1.07091 1.07112 1.07134 1.07059 1.06704 1.06408 1.0603 1.0572 1.05534 1.05411 1.05673 1.05557 1.07599 1.07676 1.07731 1.08109 1.08576 1.09406 1.09817 1.05482 1.05968 1.0629 1.07049 1.07026 1.07107 1.07114 1.07146 1.07165 1.07145 1.07091 1.06947 1.06735 1.06051 1.05454 1.05305 1.07536 1.08014 1.08967 1.05855 1.06229 1.06456 1.07013 1.07108 1.0716 1.06954 1.06405 1.05698 1.05254 1.05228 1.07441 1.07674 1.08328 1.09331 1.05652 1.06062 1.06152 1.05115 1.0534 1.06131 1.06698 1.06741 1.0698 1.07116 1.07078 1.06922 1.06727 1.06341 1.0602 1.05659 1.05402 1.05198 1.05128 1.05084 1.07351 1.07466 1.07616 1.07929 1.08154 1.08432 1.08784 1.0594 1.05044 1.05502 1.06373 1.06717 1.06955 1.07003 1.07129 1.07018 1.06694 1.05926 1.054 1.05089 1.07405 1.07802 1.08013 1.05061 1.05266 1.05926 1.06428 1.0671 1.07115 1.06823 1.06149 1.05653 1.05231 1.05074 1.07276 1.07322 1.07523 1.07606 1.07842 1.07784 1.08062 1.06076 1.0523 1.05178 1.05166 1.05316 1.05524 1.05765 1.061 1.06136 1.06406 1.06487 1.06859 1.07155 1.06939 1.06338 1.06412 1.0617 1.05903 1.05713 1.05455 1.05327 1.05149 1.05149 1.07187 1.07383 1.07601 1.07221 1.05485 1.05234 1.05481 1.05875 1.0611 1.0687 1.06081 1.06357 1.05987 1.05566 1.05267 1.07206 1.07401 1.07324 1.0613 1.05653 1.05336 1.05308 1.05323 1.05406 1.05612 1.05888 1.06447 1.05065 1.05574 1.06034 1.06312 1.06331 1.06222 1.05838 1.05465 1.0527 1.07074 1.07062 1.07216 1.07151 1.0727 1.06956 1.06779 1.06107 1.0545 1.05314 1.05447 1.05661 1.05637 1.05861 1.04977 1.04793 1.05538 1.06222 1.0628 1.06098 1.05993 1.0572 1.05634 1.05412 1.05417 1.06937 1.07017 1.06968 1.06508 1.05719 1.05347 1.05307 1.05414 1.05368 1.04872 1.05043 1.05893 1.06311 1.06232 1.05906 1.05587 1.06779 1.06891 1.0681 1.06904 1.06707 1.06671 1.06307 1.06041 1.05712 1.05493 1.05334 1.05271 1.05175 1.05253 1.05248 1.04964 1.05016 1.05415 1.05763 1.06134 1.06332 1.06368 1.06419 1.06189 1.06146 1.05838 1.05801 1.05594 1.06709 1.06674 1.06441 1.05948 1.05475 1.05186 1.05026 1.05112 1.0489 1.04992 1.04737 1.04816 1.05303 1.0608 1.06516 1.06458 1.06105 1.05813 1.06611 1.06607 1.06482 1.06138 1.05657 1.05273 1.05011 1.04811 1.04635 1.04604 1.04893 1.05138 1.05648 1.064 1.06685 1.0647 1.06075 1.06437 1.06525 1.06414 1.06465 1.06284 1.06245 1.05986 1.0584 1.05573 1.05412 1.05181 1.05069 1.04835 1.0479 1.04521 1.04548 1.04412 1.04665 1.05517 1.06049 1.06508 1.06727 1.0702 1.06812 1.06862 1.06442 1.0638 1.06074 1.06342 1.06274 1.06074 1.05727 1.05326 1.04937 1.04563 1.04221 1.04273 1.04034 1.04288 1.04324 1.04904 1.06015 1.06973 1.07218 1.06833 1.06388 1.06261 1.06163 1.0623 1.06098 1.06108 1.05922 1.05848 1.05617 1.05478 1.05232 1.05076 1.0481 1.04665 1.04255 1.03916 1.03896 1.0454 1.05307 1.0586 1.06588 1.07138 1.07366 1.07323 1.06786 1.06815 1.0608 1.06053 1.05949 1.05723 1.05385 1.04977 1.04519 1.04361 1.04026 1.03919 1.03588 1.03656 1.0391 1.04953 1.06479 1.07598 1.07644 1.07879 1.07368 1.07337 1.05982 1.05933 1.05786 1.05516 1.05146 1.04704 1.04201 1.03674 1.03315 1.03495 1.03482 1.0411 1.0453 1.0553 1.07054 1.07961 1.08065 1.07337 1.0589 1.05791 1.05878 1.05771 1.05802 1.05662 1.05612 1.05428 1.05302 1.05077 1.04896 1.0463 1.0441 1.04096 1.03858 1.03344 1.03143 1.03666 1.0508 1.06135 1.06683 1.07535 1.07961 1.08397 1.08831 1.08012 1.07869 1.05678 1.05695 1.0566 1.05513 1.05234 1.0484 1.04347 1.0377 1.03512 1.0321 1.03087 1.02932 1.03128 1.0333 1.04043 1.05553 1.07039 1.0879 1.08752 1.05427 1.05578 1.05489 1.05602 1.05514 1.05545 1.05423 1.05354 1.05182 1.05028 1.04808 1.04589 1.04053 1.03463 1.02998 1.02931 1.03691 1.04459 1.04802 1.05865 1.07411 1.09183 1.09778 1.09303 1.08343 0.893832 1.05324 1.05414 1.05426 1.05289 1.04995 1.04578 1.04328 1.04066 1.03765 1.03518 1.03214 1.0306 1.02909 1.03147 1.04026 1.04794 1.05898 1.06024 1.10783 1.08403 1.05118 1.05008 1.05243 1.05188 1.05351 1.05296 1.05333 1.05141 1.04795 1.04344 1.03827 1.03347 1.03026 1.02977 1.032 1.03471 1.03802 1.04234 1.04047 1.04315 1.10074 1.10659 1.09236 1.07428 1.04724 1.04934 1.05158 1.05238 1.05228 1.05104 1.04974 1.04789 1.04585 1.04375 1.04119 1.03926 1.03644 1.03262 1.03158 1.03475 1.03933 1.03019 1.04264 1.11999 1.07703 0.893832 1.04208 1.04598 1.04528 1.04903 1.05143 1.05166 1.04954 1.04593 1.04178 1.03797 1.0354 1.03502 1.03284 1.03405 1.03351 1.035 1.03659 1.03649 1.00621 0.895499 1.06265 1.08024 1.07949 1.04059 1.04524 1.04911 1.04945 1.05127 1.0509 1.05066 1.04929 1.04779 1.04582 1.04393 1.04017 1.03725 1.03556 1.03496 1.03405 1.03527 1.02612 1.02454 0.973109 1.06558 1.08622 1.09743 1.03551 1.03998 1.04581 1.04975 1.05014 1.04753 1.04374 1.04204 1.04045 1.03908 1.03837 1.03703 1.037 1.03615 1.03383 1.02662 0.995036 0.93691 1.00709 1.10235 0.893832 1.02786 1.03383 1.03353 1.04035 1.04164 1.04674 1.0476 1.04974 1.0492 1.04886 1.0454 1.04167 1.03911 1.03781 1.03625 1.03527 1.03143 1.02848 1.01375 1.00623 0.980435 0.9661 0.959684 0.99992 1.06458 1.09063 1.10525 1.02609 1.0346 1.0434 1.04795 1.04794 1.04699 1.04453 1.04299 1.0404 1.03966 1.0377 1.03796 1.03677 1.0334 1.02093 0.992623 0.965942 1.00136 1.0499 1.09837 1.01983 1.01797 1.02628 1.02831 1.03689 1.03972 1.04498 1.04572 1.04757 1.04589 1.04156 1.03765 1.03552 1.03656 1.03419 1.03413 1.02898 1.02645 1.00418 0.974653 0.970772 1.04164 1.07856 1.09074 1.0117 1.01858 1.03181 1.04221 1.04541 1.04631 1.04399 1.043 1.0393 1.03815 1.0346 1.03284 1.02989 1.02128 1.01513 0.99829 0.986034 0.972937 0.967781 0.977875 1.0023 1.03781 1.07065 1.00327 1.01032 1.01091 1.02176 1.02659 1.03551 1.03895 1.04315 1.04405 1.04066 1.03492 1.03432 1.03004 1.03114 1.02708 1.029 1.02342 1.02364 1.01143 0.982285 0.971321 1.0054 1.0668 1.08522 1.00304 1.01451 1.03111 1.04004 1.04293 1.04112 1.04151 1.03622 1.02991 1.02537 1.02212 1.01628 1.01613 1.01151 0.993712 0.979932 0.973347 0.97631 0.984548 1.01049 1.03848 1.06728 1.08303 0.997329 0.998908 1.00505 1.00461 1.02093 1.02459 1.03424 1.0384 1.03791 1.03743 1.03255 1.03086 1.02513 1.02459 1.01919 1.02036 1.01645 1.00877 0.988093 0.976083 0.991929 1.0412 1.08546 1.00238 1.00282 1.00994 1.02825 1.03462 1.03277 1.03665 1.034 1.02687 1.01931 1.01396 1.01517 1.01029 1.01088 1.00892 1.00663 0.980103 0.980831 0.97974 0.98306 0.999905 1.01633 1.04453 1.07259 1.0959 1.03145 1.0024 1.01624 0.996926 0.993428 1.01526 1.01178 1.02692 1.02727 1.03303 1.02878 1.02873 1.02117 1.01397 1.00919 1.00779 1.00032 0.983847 0.976928 0.989914 1.02047 1.08464 1.02393 0.99566 0.989025 1.01273 1.01988 1.0255 1.02682 1.02435 1.02004 1.01595 1.01089 1.00915 1.00571 1.00613 1.00492 1.00475 0.999408 0.986104 0.979642 0.980087 0.996155 1.00688 1.01883 1.04392 1.1085 1.12142 1.06222 1.03374 1.02158 0.995313 0.977771 0.96916 0.996353 1.01246 1.01982 1.01882 1.02542 1.02465 1.01515 1.00699 1.00451 1.00502 0.986974 0.968264 0.968642 0.975807 1.01049 1.03174 1.17486 1.13122 1.03856 0.982283 0.95935 0.993843 0.994962 1.0088 1.02127 1.02623 1.02386 1.02043 1.01054 1.00546 1.00739 1.00145 0.982027 0.949924 0.997816 0.999536 1.00592 1.00281 1.15742 1.2784 1.29711 1.10371 1.07325 0.944364 0.957426 0.906935 0.924869 0.97128 0.991651 1.00936 1.02271 1.02257 1.01683 1.0145 1.00867 1.00985 1.00761 1.01541 1.00969 1.00208 0.948887 0.931088 0.958374 0.993952 0.959047 1.25236 1.21989 1.09673 0.805477 0.834163 0.94003 0.971961 1.00071 1.01525 1.01419 1.02287 1.02215 1.0161 1.01624 1.01476 0.968494 0.923474 0.96907 1.113 1.01643 0.987475 0.925008 1.26377 1.43955 1.54996 1.22779 0.562732 0.977592 0.676682 0.864486 0.986617 0.985987 0.996318 1.01423 1.02394 1.02576 1.02088 1.02986 1.01803 0.992621 0.940312 0.88044 0.918911 0.973292 1.21876 0.838156 0.88305 1.57298 1.92961 0.854672 1.03235 1.41165 1.49906 0.976874 1.02807 1.0017 0.959338 0.963735 0.97588 0.972431 1.00013 1.02484 1.03332 1.03955 1.02974 1.03305 1.03334 1.05414 0.972067 0.916419 0.867726 0.919027 1.28248 1.48614 1.15438 0.608267 0.129537 1.83989 2.93115 0.488049 0.301674 1.94814 0.935511 1.66013 0.757238 0.874605 0.955471 0.921404 0.941527 0.981328 1.00241 1.0472 1.03105 1.04461 1.02947 0.976818 0.830183 0.824904 1.61864 0.91232 0.244159 1.04265 1.3262 1.98211 0.532667 0.628885 0.480807 1.51254 1.35264 1.40668 1.19372 1.12899 0.810441 0.859769 0.907439 0.900113 0.939801 0.983531 1.02784 1.04854 1.01887 1.03853 1.08227 1.02736 0.892547 0.861688 0.985051 1.07907 1.17548 1.07862 0.785442 0.767183 1.11155 1.32182 1.14411 0.803264 0.873892 0.472683 0.548508 0.614661 0.65717 0.671198 1.21981 1.14671 0.95981 0.84059 0.809169 0.839892 0.869618 0.901121 0.960029 1.01448 1.0755 1.05091 1.01593 0.977899 1.13624 0.910538 0.95208 0.837826 0.795621 0.817198 0.828231 1.34746 1.41368 0.982494 1.03064 1.02976 1.08392 0.908636 0.760996 0.36435 0.388522 0.677535 0.610907 0.850618 1.30264 1.07539 0.963751 0.892909 0.844362 0.831904 0.816135 0.840209 0.855818 0.949574 0.939978 0.935924 1.13255 0.989949 1.01429 1.06973 0.876622 0.808156 0.349958 0.934827 0.333142 1.29953 1.2724 0.960992 0.741997 0.89276 0.939331 0.754452 0.729689 0.746359 0.510015 0.662525 0.718365 0.702134 0.70313 0.809616 1.11395 1.00035 0.950252 0.837056 0.817553 0.833347 0.814913 0.83402 0.854824 0.901536 1.13531 1.05609 1.02142 0.973206 0.866413 0.792645 0.943882 0.976965 0.914645 0.747456 0.72876 0.802181 0.147338 0.567585 1.10786 0.613992 0.71374 0.911181 0.679409 0.672635 0.643998 0.578368 0.541945 0.630864 0.66608 0.697308 0.722105 0.756694 0.813982 0.977376 0.911658 0.901305 0.8728 0.835519 0.83023 0.827656 0.796944 0.814864 0.796401 0.959004 0.900329 0.678787 0.961897 0.861373 0.86328 0.770612 0.690884 0.763796 0.789726 0.568937 0.442708 0.483893 0.743239 0.694404 0.550994 0.695431 0.661183 0.629722 0.595436 0.522469 0.604188 0.61797 0.61571 0.656055 0.641313 0.694752 0.776888 0.876075 0.912923 0.839411 0.837187 0.829657 0.805108 0.803303 0.799279 0.782031 0.819389 0.867811 0.900854 1.17314 0.752143 0.690188 0.868757 0.858937 0.923121 0.819026 0.864058 0.734425 0.707261 0.766497 0.743071 0.609809 0.622565 0.637575 0.727404 0.698662 0.598091 0.60481 0.612007 0.578771 0.598306 0.528213 0.516852 0.502966 0.58138 0.603856 0.658161 0.667729 0.678093 0.708101 0.744373 0.778351 0.840248 0.86904 0.861282 0.805092 0.799952 0.824374 0.802962 0.7679 0.778692 0.785745 0.785705 0.761797 0.870446 0.784105 0.58694 0.668165 0.711623 0.722 0.795151 0.951227 0.891983 0.859567 0.83433 0.78604 0.710798 0.703533 0.681851 0.648202 0.609081 0.662654 0.685923 0.70335 0.698634 0.668756 0.60491 0.614394 0.591223 0.586551 0.514942 0.509361 0.503904 0.509336 0.548447 0.589809 0.611442 0.602615 0.631082 0.622805 0.637984 0.635422 0.692433 0.750432 0.792015 0.811286 0.823922 0.768241 0.77247 0.776133 0.749768 0.75934 0.763708 0.765113 0.647702 0.755037 0.64263 0.591461 0.618317 0.676618 0.676373 0.85122 0.981074 1.0776 1.02551 1.06743 0.755446 0.705627 0.660329 0.656397 0.652809 0.669557 0.670439 0.683293 0.655713 0.625848 0.607156 0.595924 0.564607 0.517364 0.4829 0.510742 0.504529 0.502329 0.514056 0.560775 0.592525 0.55002 0.613347 0.577108 0.627301 0.752269 0.761259 0.773624 0.7808 0.765054 0.716572 0.714984 0.733603 0.716305 0.722237 0.717351 0.705065 0.618642 0.703663 0.81805 1.01494 1.33597 1.10454 1.03272 0.892676 0.716953 0.650081 0.64682 0.64712 0.671693 0.663619 0.649821 0.623283 0.608785 0.582449 0.557325 0.532301 0.492132 0.516386 0.513777 0.423677 0.604857 0.564903 0.516799 0.531721 0.544703 0.542473 0.627841 0.615358 0.690431 0.775978 0.732462 0.726589 0.726462 0.726114 0.668403 0.677254 0.695173 0.682845 0.66976 0.654837 0.677144 0.673184 0.616247 0.575817 0.587545 0.577678 0.444436 0.567245 0.665965 0.968346 1.46324 1.82208 1.93608 1.81293 0.670683 0.637485 0.623843 0.637939 0.636299 0.637166 0.626089 0.607647 0.585952 0.565279 0.544884 0.530459 0.493768 0.550317 0.497146 0.563613 0.425011 0.286919 0.30508 0.297566 0.577684 0.502306 0.523714 0.507588 0.531982 0.59244 0.601011 0.70405 0.734163 0.664553 0.665397 0.66919 0.679182 0.671213 0.629685 0.629519 0.64369 0.662645 0.681979 0.643854 0.633529 0.643769 0.638434 0.633569 0.585538 0.575768 0.554204 0.5977 0.492768 0.49189 1.55735 1.76502 1.69456 1.45992 1.52828 1.05571 0.814431 0.677869 0.611682 0.603912 0.602421 0.600719 0.591445 0.572883 0.556045 0.536593 0.526136 0.515242 0.503564 0.604035 0.514971 0.462107 0.262323 0.282844 0.271502 0.281135 0.286164 0.511511 0.450763 0.483619 0.505087 0.51001 0.522734 0.530927 0.559607 0.565818 0.651168 0.626287 0.621226 0.619555 0.628218 0.632423 0.602189 0.619108 0.637864 0.651017 0.616903 0.616132 0.611545 0.591251 0.577864 0.5516 0.485715 0.533063 0.844047 1.06286 0.977002 0.741093 0.541285 0.435035 1.0583 0.613491 0.626903 0.617262 0.618637 0.591215 0.578005 0.569763 0.56226 0.548697 0.532601 0.511163 0.493365 0.475606 0.462077 0.481227 0.575279 0.5886 0.614457 0.261583 0.380843 0.242221 0.187496 0.259745 0.440762 0.604665 0.5818 0.483961 0.496944 0.500659 0.505237 0.514386 0.54519 0.555878 0.557689 0.621076 0.581854 0.579332 0.584888 0.59582 0.599138 0.596951 0.589028 0.603592 0.617164 0.623146 0.605285 0.591199 0.583025 0.56491 0.543929 0.509487 0.556632 0.917655 0.847175 0.770131 0.570741 0.346399 0.133751 0.424961 0.457372 0.482047 0.518133 0.602063 0.581813 0.565565 0.552738 0.541272 0.52847 0.51402 0.409454 0.424188 0.459628 0.644795 0.517142 0.402873 0.515503 0.445489 0.338406 0.253156 0.360536 0.336131 0.366345 0.500023 0.470879 0.484521 0.487952 0.495803 0.515508 0.53067 0.541167 0.577678 0.583964 0.558798 0.559521 0.571255 0.576488 0.576195 0.576502 0.578307 0.58773 0.59852 0.601883 0.600864 0.60083 0.494947 0.513884 0.70068 0.806302 0.709301 0.590587 0.440486 0.0847415 0.265217 0.379867 0.436746 0.545188 0.557716 0.554044 0.545106 0.534529 0.521861 0.4927 0.46839 0.440263 0.372874 0.413356 0.430884 0.585278 0.520097 0.589937 0.382257 0.45094 0.370679 0.308141 0.350201 0.362422 0.339853 0.393225 0.398078 0.343121 0.400205 0.578194 0.43778 0.448098 0.461073 0.466286 0.471496 0.484414 0.495769 0.517436 0.539735 0.54833 0.550519 0.54702 0.556312 0.559611 0.561209 0.564924 0.57576 0.585621 0.591191 0.590653 0.580667 0.569261 0.54976 0.53948 0.515272 0.498919 0.499106 0.586072 0.666255 0.668474 0.582084 0.300972 0.22577 0.279782 0.355521 0.40422 0.489051 0.52262 0.536544 0.537464 0.532443 0.509055 0.491044 0.468427 0.437754 0.397722 0.402851 0.422146 0.245065 0.164056 0.147902 0.350245 0.363318 0.265295 0.226895 0.283365 0.334022 0.365577 0.352987 0.356881 0.25323 0.291762 0.508298 0.397549 0.426539 0.426724 0.432992 0.452757 0.466019 0.486911 0.507951 0.51913 0.531367 0.540822 0.548432 0.531425 0.540081 0.544632 0.546783 0.554875 0.566979 0.565084 0.574994 0.579815 0.57646 0.56611 0.542311 0.530367 0.51333 0.500249 0.498294 0.53241 0.582641 0.59726 0.491427 0.39375 0.351873 0.367596 0.398296 0.455841 0.493033 0.515474 0.525651 0.527769 0.524403 0.51499 0.503582 0.487648 0.467038 0.440325 0.410834 0.442211 0.4247 0.328913 0.27497 0.0791291 0.230907 0.217876 0.325064 0.300009 0.277596 0.243123 0.239263 0.306737 0.299384 0.275516 0.18516 0.335703 0.42494 0.427755 0.393938 0.40978 0.408493 0.427336 0.446249 0.464756 0.482367 0.493245 0.504146 0.52318 0.527091 0.527748 0.52182 0.527747 0.536989 0.539053 0.54829 0.557279 0.567926 0.563899 0.548407 0.529694 0.508499 0.497764 0.496261 0.509334 0.567143 0.502886 0.445709 0.420098 0.425721 0.441967 0.426572 0.450088 0.478255 0.498773 0.511774 0.517975 0.525542 0.520959 0.514247 0.504987 0.49371 0.483049 0.471624 0.516798 0.434267 0.334914 0.32529 0.112541 0.272091 0.339388 0.22593 0.313939 0.279742 0.20881 0.21525 0.253013 0.259896 0.240537 0.233486 0.123414 0.315208 0.486968 0.324887 0.353275 0.418512 0.40003 0.4074 0.422617 0.440852 0.458208 0.466988 0.476373 0.487142 0.495099 0.506404 0.512548 0.511836 0.523096 0.529192 0.530631 0.54041 0.548688 0.557377 0.56502 0.538226 0.554234 0.539872 0.506585 0.472255 0.457546 0.460608 0.452539 0.463893 0.476446 0.490035 0.500467 0.519658 0.518568 0.516111 0.512694 0.507532 0.501585 0.499017 0.500948 0.513273 0.521563 0.430155 0.373293 0.366428 0.215523 0.289517 0.421282 0.395592 0.273678 0.286837 0.307315 0.178767 0.193493 0.191745 0.198965 0.226379 0.219215 0.149997 0.228888 0.247472 0.222019 0.369178 0.400376 0.381859 0.410449 0.43711 0.453906 0.460644 0.465457 0.476379 0.486125 0.48617 0.495351 0.505878 0.504995 0.518973 0.518497 0.525621 0.535904 0.542527 0.549552 0.555101 0.555528 0.549797 0.534987 0.515153 0.500968 0.494218 0.499718 0.515834 0.526684 0.52209 0.503649 0.486097 0.478377 0.467304 0.471972 0.475991 0.481199 0.48773 0.493773 0.507109 0.510638 0.511874 0.510831 0.50826 0.506051 0.503902 0.505046 0.50406 0.524548 0.480055 0.442896 0.414104 0.389881 0.320988 0.354882 0.358838 0.0761618 0.24825 0.296992 0.324282 0.337636 0.347519 0.172643 0.183907 0.189231 0.204538 0.19307 0.182014 0.210348 0.154532 0.1505 0.282144 0.291818 0.364254 0.398402 0.419759 0.431287 0.444239 0.45521 0.460591 0.465305 0.472056 0.479813 0.482868 0.488134 0.501452 0.504136 0.513582 0.514869 0.522949 0.530817 0.536738 0.542723 0.544923 0.543345 0.535429 0.522449 0.5084 0.498467 0.496942 0.503914 0.511092 0.509332 0.500253 0.492057 0.478545 0.481105 0.482606 0.483602 0.485513 0.487863 0.498166 0.500783 0.501704 0.500219 0.497335 0.495383 0.496545 0.498476 0.509136 0.513308 0.484517 0.467342 0.461742 0.440364 0.447746 0.268573 0.136307 0.324492 0.349165 0.342559 0.32009 0.159596 0.177782 0.177956 0.186065 0.196546 0.192991 0.193368 0.2058 0.200427 0.24263 0.299471 0.306556 0.410566 0.459021 0.46332 0.475137 0.481296 0.484852 0.496917 0.500634 0.503966 0.508436 0.514645 0.52556 0.531561 0.53627 0.536322 0.531787 0.523731 0.512944 0.503111 0.497762 0.499054 0.502529 0.50209 0.497711 0.487939 0.487293 0.487249 0.487368 0.487275 0.487448 0.487892 0.489995 0.49139 0.492269 0.49284 0.491411 0.486667 0.481548 0.478637 0.479894 0.503865 0.511373 0.518007 0.497286 0.500953 0.508955 0.535388 0.491396 0.393496 0.310142 0.277319 0.321693 0.310188 0.32322 0.358743 0.306914 0.159287 0.16193 0.176712 0.183267 0.199252 0.199634 0.214178 0.212637 0.235468 0.253004 0.238594 0.264154 0.314747 0.356793 0.423267 0.424195 0.427802 0.438752 0.452444 0.460629 0.471809 0.48088 0.484357 0.489853 0.495719 0.499814 0.506066 0.511983 0.519125 0.52962 0.528545 0.523059 0.51533 0.507323 0.500715 0.499076 0.499672 0.494244 0.492176 0.490811 0.490018 0.48917 0.488552 0.48793 0.48776 0.487062 0.486109 0.485376 0.48404 0.479264 0.472311 0.465588 0.460494 0.481984 0.496164 0.500469 0.480403 0.486478 0.531534 0.546772 0.622256 0.569779 0.515796 0.473554 0.340495 0.335268 0.365484 0.348984 0.286266 0.17149 0.174536 0.184587 0.187669 0.201711 0.21342 0.209185 0.220856 0.237297 0.245189 0.262604 0.267721 0.294759 0.340381 0.413424 0.417263 0.419491 0.424879 0.435546 0.447807 0.455149 0.457444 0.462084 0.477798 0.481582 0.486502 0.493377 0.498296 0.504003 0.508815 0.515136 0.521073 0.52683 0.498555 0.497246 0.495682 0.493966 0.492669 0.491174 0.489962 0.488859 0.487298 0.486116 0.48435 0.482259 0.480485 0.479259 0.475348 0.46734 0.458165 0.453316 0.448522 0.459094 0.453312 0.445839 0.491125 0.499046 0.533288 0.743743 0.604295 0.723425 0.552567 0.373823 0.361238 0.381965 0.364926 0.28178 0.294031 0.271684 0.178472 0.188899 0.20309 0.211536 0.227376 0.226685 0.239603 0.242666 0.257747 0.274641 0.272686 0.278343 0.37871 0.407357 0.41226 0.418376 0.42571 0.433753 0.44411 0.455935 0.460341 0.46265 0.470857 0.480446 0.485887 0.492143 0.49667 0.501388 0.506165 0.51197 0.51722 0.521492 0.523338 0.521633 0.517406 0.510862 0.505113 0.501983 0.499941 0.498667 0.497788 0.496702 0.495345 0.493495 0.491843 0.490277 0.487753 0.48652 0.484961 0.482843 0.480293 0.477759 0.476027 0.473476 0.467058 0.449515 0.438569 0.424432 0.414161 0.417138 0.410163 0.413354 0.468817 0.407908 0.573243 0.968129 0.917565 0.756082 0.227699 0.145589 0.257496 0.302771 0.349957 0.300455 0.205966 0.223727 0.174964 0.504918 0.206106 0.209391 0.21652 0.256134 0.221153 0.237236 0.231585 0.245861 0.25254 0.262786 0.275284 0.287121 0.307691 0.327953 0.35808 0.385799 0.401374 0.409781 0.418362 0.426508 0.435804 0.44634 0.456277 0.462277 0.463443 0.468079 0.474779 0.4904 0.494695 0.499275 0.50412 0.509136 0.513472 0.516662 0.517751 0.516625 0.51288 0.508614 0.504858 0.501977 0.500117 0.498923 0.497723 0.496012 0.494213 0.492249 0.488863 0.487493 0.485982 0.484204 0.481892 0.479235 0.476566 0.474522 0.458958 0.451615 0.442732 0.426357 0.393577 0.377761 0.365334 0.327214 0.335141 0.403455 0.276883 0.437609 1.24348 0.983832 0.269543 0.36568 0.117426 0.264122 0.202669 0.239333 0.252285 0.138049 0.0835099 0.381806 0.426462 0.332293 0.273479 0.2492 0.232255 0.244058 0.238001 0.248919 0.260048 0.269504 0.293098 0.310463 0.322209 0.340177 0.363416 0.384929 0.397752 0.40761 0.418167 0.428766 0.438298 0.446786 0.455654 0.461939 0.463402 0.467455 0.474292 0.48041 0.485432 0.497599 0.502386 0.506807 0.510344 0.512855 0.513565 0.512369 0.50993 0.50687 0.504092 0.50192 0.500287 0.498689 0.49685 0.490451 0.488922 0.48742 0.485766 0.483706 0.48125 0.478598 0.476003 0.472921 0.46886 0.46274 0.456581 0.450571 0.436987 0.408389 0.363045 0.352356 0.328839 0.2703 0.320544 0.371721 0.919353 0.754711 0.353656 0.481874 0.203783 0.195337 0.222915 0.188671 0.0900829 0.0800151 0.158673 0.00907446 0.297708 0.317117 0.173378 0.449817 0.504944 0.255086 0.246621 0.253776 0.259196 0.270265 0.27486 0.29388 0.310063 0.319905 0.333052 0.347984 0.366277 0.383775 0.396015 0.40777 0.419255 0.429279 0.438446 0.446718 0.454158 0.4609 0.464473 0.468514 0.474358 0.479625 0.484193 0.488559 0.492897 0.508208 0.510102 0.510529 0.509615 0.507763 0.505631 0.503563 0.494869 0.492822 0.490879 0.489236 0.487699 0.485772 0.483447 0.480833 0.478113 0.473706 0.471951 0.469053 0.464397 0.460363 0.460794 0.459469 0.448219 0.412403 0.338389 0.300458 0.243663 0.235967 0.319872 0.484838 0.380204 0.732448 0.486074 0.573262 0.823137 0.423781 0.2338 0.197076 0.263121 0.121614 0.117255 0.110077 0.111963 0.0712471 0.240667 0.231399 0.278657 0.175173 0.275053 0.272557 0.295796 0.264679 0.250603 0.256438 0.270816 0.276376 0.290547 0.310797 0.320542 0.331418 0.3435 0.356684 0.371459 0.385923 0.397795 0.409449 0.419841 0.42909 0.438035 0.446204 0.453494 0.46045 0.465123 0.468719 0.473577 0.478288 0.482576 0.486976 0.491688 0.496524 0.501086 0.505022 0.501732 0.499855 0.497917 0.495923 0.493727 0.49169 0.490008 0.488208 0.486033 0.483484 0.475427 0.472937 0.470983 0.468905 0.465867 0.463133 0.464294 0.469118 0.472727 0.468168 0.429796 0.270567 0.211812 0.246756 0.296506 0.356655 0.488591 0.721735 0.500676 0.384204 0.395951 0.599874 0.375409 0.261533 0.204441 0.250471 0.523621 0.316898 0.115417 0.00871401 0.00143514 0.167472 0.163614 0.228141 0.217369 0.0275968 0.251874 0.421859 0.36107 0.340379 0.240701 0.247474 0.257986 0.27922 0.289922 0.303808 0.317687 0.32926 0.341085 0.353561 0.365202 0.378258 0.390469 0.401557 0.412089 0.421546 0.429795 0.437958 0.446207 0.453252 0.459179 0.464048 0.46791 0.472278 0.476895 0.481481 0.486293 0.491161 0.495887 0.500241 0.503953 0.506732 0.508306 0.508583 0.507874 0.506531 0.504872 0.503118 0.501232 0.499313 0.497239 0.494994 0.492927 0.491023 0.488947 0.486539 0.480718 0.477867 0.475034 0.472291 0.469876 0.467681 0.465043 0.462597 0.463382 0.471631 0.484554 0.498925 0.5096 0.472202 0.106806 0.22449 0.571676 0.625839 0.197534 0.333495 0.456123 0.354661 0.328436 0.251612 0.224246 0.127255 0.333205 0.614826 0.20484 0.0927554 0.0890032 0.0654055 0.148131 0.191694 0.27232 0.388018 0.215522 0.237985 0.423266 0.42956 0.291153 0.274756 0.250859 0.277142 0.286307 0.295177 0.311645 0.328597 0.339803 0.351327 0.363088 0.374487 0.462352 0.466765 0.471396 0.476377 0.481292 0.486262 0.491133 0.495712 0.499869 0.503284 0.505764 0.507105 0.507441 0.506922 0.505853 0.504399 0.502677 0.500843 0.498751 0.496498 0.494365 0.492219 0.483862 0.480963 0.477907 0.474841 0.471781 0.468843 0.46625 0.463531 0.460801 0.459807 0.464469 0.475208 0.273237 0.320172 0.421359 0.575285 0.480279 0.366049 0.178996 0.291356 0.328382 0.320372 0.323577 0.360195 0.499502 0.190268 0.0741656 0.131569 0.128873 0.135739 0.12764 0.176096 0.265642 0.344523 0.448097 0.443972 0.263606 0.517488 0.335861 0.315178 0.282507 0.26653 0.280079 0.285639 0.298449 0.31488 0.334891 0.350342 0.385731 0.395903 0.405817 0.415299 0.42345 0.430887 0.438371 0.445667 0.452011 0.457424 0.481716 0.486699 0.491494 0.495868 0.499743 0.502867 0.5051 0.506373 0.506737 0.506351 0.505357 0.503968 0.502279 0.500255 0.489859 0.487298 0.484538 0.48154 0.478301 0.474954 0.471636 0.46828 0.464999 0.461731 0.458305 0.493372 0.526628 0.583928 0.691938 0.177833 0.192039 0.259327 0.398807 0.503877 0.510886 0.366132 0.208538 0.149863 0.258016 0.291105 0.346826 0.354232 0.686622 0.373699 0.208243 0.204861 0.117467 0.140489 0.16219 0.16845 0.133193 0.131232 0.144455 0.212694 0.358967 0.537138 0.536281 0.346606 0.514994 0.401054 0.339254 0.308227 0.264629 0.274758 0.278524 0.2871 0.300892 0.362201 0.373572 0.383705 0.392799 0.401538 0.410209 0.418046 0.425108 0.431815 0.438415 0.444867 0.450754 0.456052 0.461267 0.466422 0.471481 0.476632 0.498081 0.495865 0.493508 0.490981 0.488297 0.485438 0.48236 0.479001 0.475394 0.471747 0.468148 0.455504 0.456434 0.46125 0.46824 0.483178 0.510195 0.566126 0.826205 0.454068 0.277613 0.523158 0.500253 0.569353 0.405853 0.296625 0.175867 0.171673 0.230403 0.234545 0.306021 0.484182 0.513173 0.373178 0.293495 0.196922 0.163709 0.164214 0.176381 0.161948 0.150188 0.142578 0.161038 0.278334 0.322406 0.373715 0.272668 0.595025 0.703726 0.434636 0.355324 0.327445 0.279293 0.279253 0.282203 0.270791 0.282652 0.322027 0.347002 0.362146 0.372669 0.383091 0.39159 0.399178 0.406652 0.414065 0.42059 0.426593 0.432676 0.438801 0.444694 0.450367 0.45591 0.461403 0.466864 0.472145 0.477347 0.48248 0.487396 0.492016 0.496169 0.499753 0.502631 0.504673 0.505832 0.506163 0.505765 0.504816 0.503403 0.5016 0.499552 0.497311 0.494868 0.492244 0.489453 0.486471 0.483286 0.479875 0.476156 0.464494 0.4607 0.456641 0.452229 0.449681 0.451428 0.455682 0.460455 0.463346 0.458185 0.557632 0.868826 0.540421 0.72636 0.518336 0.548097 0.543098 0.331096 0.253496 0.166926 0.168748 0.197221 0.0884807 0.124858 0.191747 0.225351 0.379283 0.307257 0.241795 0.188425 0.18303 0.184733 0.172191 0.177435 0.158006 0.157224 0.144871 0.176869 0.229639 0.264634 0.267713 0.200869 0.531659 0.321782 0.321816 0.34 0.299077 0.292315 0.289107 0.271213 0.303288 0.338879 0.362712 0.374859 0.383718 0.391631 0.398281 0.404535 0.411011 0.417242 0.422827 0.428329 0.434058 0.439848 0.445458 0.450984 0.456596 0.462203 0.467711 0.473059 0.478265 0.483348 0.48815 0.492576 0.496518 0.499867 0.502497 0.504315 0.505308 0.505537 0.505112 0.504106 0.50263 0.500793 0.498634 0.4962 0.493545 0.490678 0.48759 0.484287 0.472214 0.468341 0.464579 0.460595 0.456182 0.451349 0.446662 0.445027 0.449271 0.45778 0.466475 0.470134 0.522649 0.737895 1.06939 0.459506 0.514376 0.4051 0.321223 0.256248 0.24168 0.226495 0.0905184 0.089595 0.0623269 0.273245 0.305614 0.233662 0.212054 0.199357 0.185192 0.178909 0.181482 0.181766 0.196051 0.147428 0.167508 0.156699 0.160497 0.209746 0.256818 0.253847 0.104558 0.116873 0.540313 0.409476 0.322913 0.300237 0.298925 0.275497 0.25055 0.276908 0.336003 0.362152 0.376797 0.385591 0.392202 0.398187 0.403582 0.409026 0.414693 0.42004 0.425073 0.43024 0.435674 0.441192 0.446622 0.452063 0.457648 0.46324 0.468699 0.474035 0.479219 0.484205 0.488878 0.493139 0.496891 0.499997 0.502368 0.503953 0.504779 0.504895 0.504367 0.503289 0.501733 0.499753 0.497424 0.494799 0.480792 0.477074 0.473056 0.468869 0.464818 0.460918 0.456771 0.452118 0.447067 0.443126 0.44381 0.451947 0.46632 0.488785 0.529499 0.648258 0.788092 0.54115 0.427035 0.458951 0.395356 0.44486 0.366302 0.365688 0.36691 0.248895 0.178055 0.301858 0.275517 0.312088 0.280332 0.248827 0.228648 0.237278 0.203206 0.185304 0.189378 0.205058 0.144184 0.16052 0.17197 0.174154 0.176518 0.221412 0.230177 0.294683 0.2429 0.645802 0.501811 0.524876 0.394394 0.351284 0.302865 0.305259 0.244698 0.233319 0.338959 0.36691 0.378812 0.388061 0.393982 0.398416 0.469726 0.475012 0.480152 0.485049 0.489602 0.4937 0.497234 0.500093 0.502215 0.503597 0.50425 0.504215 0.503558 0.4919 0.488738 0.485329 0.481729 0.478 0.474076 0.469864 0.465532 0.46141 0.457447 0.453216 0.448582 0.444265 0.441965 0.44546 0.564877 0.641191 0.564358 0.555618 0.454316 0.32914 0.508133 0.440858 0.355916 0.423739 0.452596 0.40802 0.379777 0.553505 0.454401 0.490703 0.297055 0.293427 0.228338 0.203163 0.190936 0.2011 0.204686 0.153008 0.146128 0.151811 0.161714 0.185039 0.213898 0.304111 0.320582 0.400428 0.343362 0.685842 0.566931 0.408812 0.385212 0.335874 0.310029 0.275461 0.243511 0.230399 0.367079 0.38037 0.383181 0.388556 0.403048 0.407652 0.412535 0.41751 0.422301 0.427124 0.432139 0.437304 0.442561 0.44787 0.453273 0.458801 0.464329 0.502336 0.500611 0.498456 0.495927 0.493054 0.489877 0.486435 0.482761 0.478943 0.475064 0.471038 0.466733 0.462319 0.458232 0.459291 0.486931 0.521707 0.535155 0.529908 0.563787 0.554814 0.463337 0.407943 0.387565 0.47279 0.730999 0.824169 0.683658 0.636059 0.790751 0.736948 0.617295 0.438003 0.326618 0.336777 0.265693 0.222781 0.2004 0.204071 0.200801 0.20596 0.207449 0.208828 0.150591 0.181246 0.191578 0.253355 0.364165 0.472496 0.522984 0.979022 0.492139 0.47674 0.423085 0.362386 0.29041 0.241629 0.226035 0.41119 0.385051 0.394724 0.398541 0.402497 0.406543 0.410722 0.41524 0.419812 0.424297 0.428947 0.433792 0.438789 0.44392 0.449166 0.454523 0.459962 0.465404 0.470767 0.476025 0.481113 0.485917 0.490329 0.494237 0.497537 0.500149 0.502044 0.503214 0.503669 0.503444 0.502589 0.501166 0.499242 0.496876 0.494111 0.490985 0.487543 0.483843 0.47997 0.476057 0.472152 0.454494 0.450502 0.446186 0.442933 0.442908 0.449032 0.467492 0.502613 0.532762 0.564765 0.525231 0.541468 0.580199 0.550906 0.414985 0.404973 0.41281 0.760521 0.801111 0.788405 0.572524 0.571031 0.532473 0.472219 0.399573 0.310284 0.253593 0.212156 0.208606 0.208864 0.208467 0.21123 0.211552 0.166663 0.185313 0.201871 0.229401 0.314452 0.391339 0.43888 0.451315 0.53506 0.618206 0.457503 0.419612 0.31409 0.311913 0.26848 0.215052 0.442515 0.381178 0.385551 0.392703 0.397877 0.401788 0.405442 0.409068 0.413089 0.417355 0.42165 0.426034 0.430607 0.435337 0.440225 0.445254 0.450434 0.455757 0.461147 0.46654 0.471881 0.477107 0.482129 0.486817 0.491062 0.494755 0.497808 0.50017 0.501817 0.502742 0.502953 0.502488 0.501402 0.49976 0.497618 0.495022 0.492007 0.488629 0.484969 0.468126 0.463818 0.459419 0.455455 0.452042 0.448691 0.445608 0.444044 0.445413 0.452915 0.474124 0.501428 0.525285 0.511209 0.494415 0.508032 0.531109 0.521477 0.471182 0.425816 0.41827 0.458027 0.784943 0.79217 0.495039 0.518795 0.474194 0.511204 0.433455 0.368762 0.277868 0.246012 0.20959 0.210386 0.207967 0.325414 0.366041 0.456069 0.339935 0.318147 0.613977 0.509712 0.478028 0.369792 0.313886 0.294292 0.250614 0.399402 0.379503 0.381177 0.389389 0.395531 0.399797 0.40372 0.407389 0.411013 0.41495 0.419176 0.423405 0.427678 0.432108 0.436758 0.441616 0.446614 0.451754 0.457035 0.462389 0.467762 0.473095 0.478279 0.483206 0.487753 0.4918 0.495251 0.498035 0.500113 0.501472 0.502109 0.502046 0.501323 0.499999 0.498128 0.481097 0.477119 0.473178 0.46932 0.465389 0.461184 0.456946 0.453264 0.450291 0.447903 0.446623 0.447092 0.449415 0.457462 0.472239 0.487979 0.504024 0.505807 0.484554 0.51918 0.471059 0.427692 0.499364 0.6572 0.599518 0.512794 0.340268 0.411976 0.441615 0.477582 0.393208 0.332656 0.215886 0.371619 0.419006 0.343013 0.290679 0.12683 0.501204 0.537741 0.450189 0.367708 0.339684 0.463859 0.408637 0.384351 0.377718 0.384867 0.392098 0.397046 0.401529 0.405329 0.40891 0.474389 0.479521 0.484344 0.48872 0.49253 0.495689 0.498155 0.495754 0.492912 0.489649 0.486057 0.482241 0.478289 0.474309 0.47042 0.466682 0.462921 0.458913 0.45492 0.4516 0.449363 0.448375 0.448875 0.450886 0.454584 0.460052 0.463944 0.473624 0.480592 0.507678 0.504422 0.496855 0.491138 0.439314 0.419642 0.472748 0.64967 0.432091 0.369264 0.310445 0.405282 0.456596 0.44879 0.221483 0.173948 0.277449 0.416436 0.49297 0.504358 0.461355 0.36236 0.30534 0.489083 0.420446 0.386773 0.379827 0.381308 0.388987 0.412714 0.416809 0.420883 0.424946 0.429179 0.433605 0.438238 0.443042 0.447998 0.45312 0.458384 0.463726 0.469086 0.499912 0.500954 0.501289 0.500945 0.499965 0.498395 0.496272 0.493641 0.490564 0.48712 0.483398 0.479488 0.475501 0.471565 0.467805 0.46426 0.46075 0.485925 0.51438 0.482578 0.471871 0.464542 0.447486 0.471834 0.506359 0.602891 0.512912 0.341446 0.277545 0.339456 0.362992 0.456615 0.453208 0.318931 0.192796 0.0668679 0.315666 0.417114 0.440457 0.451769 0.33272 0.511659 0.447216 0.391293 0.383134 0.394194 0.398698 0.402995 0.406814 0.410476 0.414364 0.418462 0.422448 0.426478 0.430693 0.435114 0.439735 0.444521 0.449456 0.454553 0.459789 0.46512 0.470477 0.475768 0.480844 0.485529 0.48968 0.493185 0.495996 0.498106 0.499524 0.500249 0.500286 0.499661 0.498406 0.496564 0.494192 0.491346 0.488081 0.484485 0.480679 0.476777 0.457101 0.453536 0.450749 0.449395 0.449605 0.451406 0.454766 0.458768 0.460238 0.462269 0.4592 0.493305 0.472209 0.462366 0.455426 0.475059 0.494237 0.554499 0.567326 0.425628 0.276115 0.276706 0.317076 0.408615 0.299897 0.129255 0.35216 0.395588 0.427952 0.484226 0.342068 0.527716 0.485488 0.40752 0.382124 0.386687 0.39184 0.395994 0.400456 0.404569 0.408231 0.412112 0.416167 0.420059 0.423867 0.42791 0.432227 0.436711 0.441307 0.446041 0.45095 0.456028 0.461241 0.46657 0.47195 0.477237 0.482225 0.486706 0.490544 0.493677 0.496108 0.497856 0.498937 0.499345 0.499078 0.498161 0.496636 0.49455 0.491954 0.472854 0.468994 0.465363 0.462039 0.458867 0.455697 0.452787 0.450794 0.450234 0.451247 0.45397 0.457949 0.461171 0.462754 0.466345 0.457639 0.515524 0.503243 0.462456 0.457917 0.459215 0.540157 0.550631 0.514343 0.328352 0.233299 0.272788 0.316959 0.502447 0.187847 0.363664 0.294268 0.419831 0.50998 0.425358 0.493302 0.527127 0.513822 0.389032 0.386746 0.387107 0.390037 0.394284 0.397997 0.4023 0.406188 0.410074 0.41391 0.417688 0.421429 0.425327 0.429458 0.433822 0.43833 0.442935 0.447657 0.452531 0.457551 0.462715 0.468064 0.473502 0.478787 0.483619 0.487774 0.491195 0.49393 0.495983 0.497373 0.498117 0.488913 0.485509 0.481837 0.478003 0.474121 0.470284 0.466589 0.463171 0.460126 0.457356 0.45474 0.452546 0.451367 0.451634 0.453317 0.456174 0.459604 0.463346 0.467279 0.474502 0.476673 0.498444 0.509571 0.457067 0.463188 0.471849 0.506752 0.526014 0.505303 0.38777 0.322027 0.130579 0.310071 0.477296 0.450071 0.432552 0.531321 0.509477 0.482124 0.516527 0.448796 0.413601 0.389237 0.389672 0.388904 0.393826 0.396045 0.400081 0.498204 0.497645 0.496465 0.494692 0.492371 0.48958 0.486403 0.482914 0.479202 0.475386 0.471578 0.467857 0.464331 0.461187 0.458514 0.456199 0.454224 0.452796 0.452279 0.45817 0.461388 0.465743 0.471143 0.502266 0.420711 0.504323 0.475668 0.498945 0.523425 0.514467 0.408606 0.371298 0.111448 0.162593 0.273924 0.411667 0.416468 0.405668 0.499054 0.546246 0.480854 0.479767 0.453838 0.414955 0.390972 0.390609 0.404217 0.407915 0.411684 0.415539 0.419267 0.422933 0.426809 0.431076 0.435547 0.440096 0.444693 0.449367 0.45417 0.459083 0.464174 0.469615 0.475176 0.480413 0.4849 0.488551 0.49156 0.493901 0.495565 0.496595 0.497027 0.496841 0.496015 0.494573 0.492565 0.490065 0.487144 0.483856 0.480286 0.476578 0.472852 0.469178 0.452946 0.455011 0.465639 0.409014 0.503088 0.521323 0.460592 0.495672 0.513949 0.51887 0.435825 0.270407 0.0737782 0.366847 0.522912 0.462011 0.48543 0.471993 0.489739 0.452637 0.41546 0.392865 0.394707 0.39783 0.402323 0.406141 0.409469 0.413369 0.417261 0.420889 0.424441 0.42851 0.432923 0.437462 0.442018 0.446542 0.451156 0.455849 0.460572 0.465577 0.471313 0.477078 0.481979 0.485733 0.488966 0.491593 0.493512 0.494786 0.495523 0.495709 0.495248 0.494156 0.492496 0.490317 0.487661 0.465639 0.462343 0.459478 0.457143 0.455291 0.453958 0.453288 0.453358 0.45426 0.456269 0.45926 0.463145 0.471455 0.492634 0.394407 0.508333 0.533566 0.4799 0.530868 0.503895 0.433093 0.390668 0.250651 0.483974 0.438081 0.48207 0.391273 0.393667 0.392762 0.396336 0.400697 0.405177 0.407378 0.410799 0.415311 0.419302 0.422448 0.426227 0.430345 0.43504 0.439723 0.444025 0.448438 0.452972 0.457529 0.461964 0.466903 0.473516 0.479202 0.482735 0.486102 0.488972 0.491232 0.492703 0.493671 0.494204 0.484614 0.481275 0.477725 0.474067 0.470432 0.466934 0.463634 0.460635 0.458079 0.456066 0.454632 0.453856 0.453786 0.454323 0.455469 0.45717 0.460293 0.471162 0.490357 0.456699 0.458441 0.398738 0.517511 0.546875 0.492616 0.515504 0.520699 0.452848 0.465539 0.488877 0.452003 0.413994 0.393496 0.394012 0.394408 0.399868 0.403635 0.405669 0.494121 0.493412 0.492115 0.490265 0.487914 0.485158 0.48209 0.478756 0.47526 0.471731 0.468239 0.464914 0.461868 0.459164 0.456924 0.455236 0.454185 0.453873 0.454273 0.455195 0.456534 0.457939 0.469809 0.488094 0.458686 0.444576 0.4472 0.419559 0.531692 0.560757 0.503977 0.526186 0.488884 0.43659 0.395088 0.408697 0.412685 0.418211 0.420525 0.424239 0.428267 0.432533 0.437834 0.441828 0.44604 0.450364 0.454803 0.459239 0.463163 0.468561 0.477032 0.479536 0.482961 0.485997 0.488542 0.490458 0.491475 0.4923 0.492585 0.492268 0.491344 0.489853 0.487868 0.485453 0.482681 0.479638 0.476378 0.472976 0.469581 0.466323 0.458881 0.443705 0.428554 0.452488 0.418524 0.422433 0.426628 0.430874 0.435853 0.434326 0.440186 0.446448 0.453066 0.460024 0.465517 0.473097 0.469539 0.471442 0.47422 0.477841 0.482124 0.463254 0.460427 0.457943 0.455961 0.4546 0.453928 0.454009 0.454817 0.456046 0.457884 0.468427 0.484846 
SCALARS Axial_Stress float 1
LOOKUP_TABLE default
-31181400000.0 -50303800000.0 -65874700000.0 -46067700000.0 -32119000000.0 -53457900000.0 -38502600000.0 -33465100000.0 -60170800000.0 -91538200000.0 -93525900000.0 -74191500000.0 -57264300000.0 -65067900000.0 -21831400000.0 -49803600000.0 -89104100000.0 -101693000000.0 -75096000000.0 -67634900000.0 -77717200000.0 -195466000000.0 -105979000000.0 -251014000000.0 -181359000000.0 -247542000000.0 -173768000000.0 -217044000000.0 -113639000000.0 -149450000000.0 -92423700000.0 -59348000000.0 -97488600000.0 -75338000000.0 -138750000000.0 -84071000000.0 -116999000000.0 -138513000000.0 -236340000000.0 -94235700000.0 -157862000000.0 -89754800000.0 -229372000000.0 -96558600000.0 -208594000000.0 -320563000000.0 -330052000000.0 -306281000000.0 -261138000000.0 -235983000000.0 -183987000000.0 -179681000000.0 -182463000000.0 -150554000000.0 -161108000000.0 -26544600000.0 -76177000000.0 -209133000000.0 -274736000000.0 -202735000000.0 -134685000000.0 -226710000000.0 -473527000000.0 -414046000000.0 -392678000000.0 -358391000000.0 -319133000000.0 -277654000000.0 -245195000000.0 -231963000000.0 -209859000000.0 -34248600000.0 -94453100000.0 -300093000000.0 -358992000000.0 -277316000000.0 -419955000000.0 -562779000000.0 -517371000000.0 -579837000000.0 -482495000000.0 -540578000000.0 -449742000000.0 -504183000000.0 -412639000000.0 -467644000000.0 -375997000000.0 -430003000000.0 -337232000000.0 -386577000000.0 -299387000000.0 -259232000000.0 -210518000000.0 -226489000000.0 -382505000000.0 -462140000000.0 -211961000000.0 -1.01428e+12 -655036000000.0 -745583000000.0 -634185000000.0 -684865000000.0 -635606000000.0 -594792000000.0 -558343000000.0 -525753000000.0 -484540000000.0 -419070000000.0 -329462000000.0 -349408000000.0 -290068000000.0 -219369000000.0 -34119200000.0 -120319000000.0 -282324000000.0 -313012000000.0 -411879000000.0 -346500000000.0 -898801000000.0 -908149000000.0 -800664000000.0 -735889000000.0 -687057000000.0 -647464000000.0 -614927000000.0 -585663000000.0 -526991000000.0 -431606000000.0 -302676000000.0 -86784100000.0 -149574000000.0 -399860000000.0 -546441000000.0 -1.00033e+12 -1.0469e+12 -932696000000.0 -844064000000.0 -782996000000.0 -736885000000.0 -701446000000.0 -759238000000.0 -675708000000.0 -742199000000.0 -650371000000.0 -724050000000.0 -524537000000.0 -469015000000.0 -303579000000.0 -358761000000.0 -468173000000.0 -1.03535e+12 -770278000000.0 -1.13142e+12 -1.10634e+12 -1.19379e+12 -1.06185e+12 -1.09062e+12 -964603000000.0 -993860000000.0 -884504000000.0 -923556000000.0 -828372000000.0 -874135000000.0 -787185000000.0 -840354000000.0 -823066000000.0 -819129000000.0 -866649000000.0 -551733000000.0 -607524000000.0 -540212000000.0 -302220000000.0 -118806000000.0 -152249000000.0 -335066000000.0 -503319000000.0 -1.33901e+12 -1.16986e+12 -1.3041e+12 -1.2271e+12 -1.11088e+12 -1.0236e+12 -963770000000.0 -921751000000.0 -898735000000.0 -896163000000.0 -925013000000.0 -1.02462e+12 -650707000000.0 -227177000000.0 -231308000000.0 -1.61989e+12 -1.34852e+12 -1.38838e+12 -1.37751e+12 -1.23939e+12 -1.12701e+12 -1.05724e+12 -1.00547e+12 -973337000000.0 -965099000000.0 -986540000000.0 -1.05757e+12 -1.17263e+12 -456357000000.0 -1.61825e+12 -1.52773e+12 -1.50301e+12 -1.4466e+12 -1.67657e+12 -1.60535e+12 -1.60471e+12 -1.3918e+12 -1.33833e+12 -1.23313e+12 -1.25152e+12 -1.15435e+12 -1.18433e+12 -1.09277e+12 -1.12982e+12 -1.04971e+12 -1.0985e+12 -1.03127e+12 -1.09881e+12 -1.04382e+12 -1.13774e+12 -1.09603e+12 -1.22216e+12 -1.20188e+12 -1.36006e+12 -1.38454e+12 -1.38323e+12 -322338000000.0 -1.61207e+12 -2.02542e+12 -1.68438e+12 -1.62621e+12 -1.54061e+12 -2.16373e+12 -1.43056e+12 -1.35055e+12 -1.27933e+12 -1.21476e+12 -1.16942e+12 -1.15438e+12 -1.17902e+12 -1.24733e+12 -1.36173e+12 -1.50102e+12 -1.37617e+12 -1.43107e+12 -1.83403e+12 -1.58095e+12 -1.63251e+12 -1.39143e+12 -1.44935e+12 -1.36851e+12 -1.3051e+12 -1.24584e+12 -1.21361e+12 -1.22065e+12 -1.27404e+12 -1.37141e+12 -1.50172e+12 -1.77569e+12 -1.93746e+12 -1.82737e+12 -1.70724e+12 -1.58224e+12 -1.55515e+12 -857539000000.0 -725282000000.0 -1.49091e+12 -1.50359e+12 -1.46205e+12 -1.47443e+12 -1.40038e+12 -1.41842e+12 -1.3286e+12 -1.35176e+12 -1.27894e+12 -1.31606e+12 -1.26503e+12 -1.32794e+12 -1.30049e+12 -1.39673e+12 -1.3848e+12 -1.50793e+12 -1.50372e+12 -1.65113e+12 -1.68777e+12 -1.79262e+12 -1.26129e+12 -1.40666e+12 -1.895e+12 -1.71909e+12 -1.22421e+12 -915259000000.0 -1.51632e+12 -1.52057e+12 -1.43149e+12 -1.37676e+12 -1.35943e+12 -1.40642e+12 -1.51051e+12 -1.6405e+12 -1.76985e+12 -1.27604e+12 -1.42967e+12 -1.82987e+12 -1.5425e+12 -1.09752e+12 -1.06342e+12 -1.13645e+12 -998047000000.0 -1.045e+12 -1.51551e+12 -1.51613e+12 -1.44849e+12 -1.4022e+12 -1.41652e+12 -1.50486e+12 -1.62648e+12 -1.63669e+12 -1.763e+12 -1.76287e+12 -1.86695e+12 -1.85482e+12 -1.3245e+12 -1.47841e+12 -1.90846e+12 -1.87956e+12 -1.73744e+12 -1.65328e+12 -1.4158e+12 -1.2747e+12 -1.19455e+12 -1.17543e+12 -1.01321e+12 -1.62642e+12 -1.61757e+12 -1.52965e+12 -1.53453e+12 -1.46033e+12 -1.46714e+12 -1.43138e+12 -1.47887e+12 -1.49245e+12 -1.59492e+12 -1.75867e+12 -1.88147e+12 -1.95175e+12 -1.99345e+12 -1.84101e+12 -1.55487e+12 -1.22727e+12 -1.1711e+12 -1.56327e+12 -1.61751e+12 -1.52866e+12 -1.46958e+12 -1.54836e+12 -1.73388e+12 -1.89284e+12 -1.98831e+12 -1.3858e+12 -1.5438e+12 -2.02031e+12 -1.77738e+12 -1.42294e+12 -1.1947e+12 -1.1861e+12 -1.20562e+12 -1.69701e+12 -1.53472e+12 -1.74996e+12 -1.66131e+12 -1.70581e+12 -1.6144e+12 -1.50587e+12 -1.49944e+12 -1.54105e+12 -1.65435e+12 -1.8292e+12 -1.88748e+12 -2.06931e+12 -2.02628e+12 -2.12836e+12 -2.07398e+12 -1.45105e+12 -1.618e+12 -2.13831e+12 -2.20224e+12 -2.05431e+12 -2.11994e+12 -1.60079e+12 -1.45335e+12 -1.02435e+12 -1.85099e+12 -1.83502e+12 -1.81469e+12 -1.70705e+12 -1.5833e+12 -1.50886e+12 -1.45635e+12 -1.46447e+12 -1.57013e+12 -2.12458e+12 -2.18728e+12 -2.21022e+12 -2.30872e+12 -2.28137e+12 -2.39444e+12 -1.97673e+12 -1.98036e+12 -1.9317e+12 -1.84255e+12 -1.65687e+12 -1.31794e+12 -1.39594e+12 -2.20943e+12 -2.25926e+12 -2.27526e+12 -1.5159e+12 -1.69419e+12 -2.48005e+12 -2.38997e+12 -2.49575e+12 -2.42999e+12 -2.65118e+12 -2.78701e+12 -2.9241e+12 -1.95737e+12 -2.23638e+12 -2.1213e+12 -2.18548e+12 -2.05005e+12 -2.12026e+12 -1.98328e+12 -2.00485e+12 -1.82768e+12 -1.72998e+12 -1.5613e+12 -1.4079e+12 -1.37265e+12 -2.99722e+12 -2.57427e+12 -2.5591e+12 -2.35816e+12 -2.43834e+12 -2.34789e+12 -2.41826e+12 -2.34923e+12 -1.57948e+12 -1.77103e+12 -2.56681e+12 -2.63177e+12 -2.8651e+12 -2.58634e+12 -2.32032e+12 -2.24747e+12 -2.17198e+12 -1.97958e+12 -1.49672e+12 -3.3296e+12 -2.85324e+12 -2.57459e+12 -2.49751e+12 -2.48297e+12 -2.64059e+12 -2.66598e+12 -2.77542e+12 -2.78169e+12 -2.68938e+12 -2.53572e+12 -2.53846e+12 -2.37897e+12 -2.43512e+12 -2.30914e+12 -2.21048e+12 -1.71775e+12 -3.29334e+12 -3.44434e+12 -3.31521e+12 -3.13597e+12 -2.96862e+12 -2.76027e+12 -2.60004e+12 -2.55155e+12 -1.64338e+12 -1.84928e+12 -2.78478e+12 -2.72058e+12 -2.80276e+12 -2.76917e+12 -2.84205e+12 -2.83007e+12 -2.81308e+12 -2.67914e+12 -2.56883e+12 -2.49481e+12 -2.36659e+12 -2.42616e+12 -2.21597e+12 -2.60687e+12 -3.01498e+12 -3.31518e+12 -3.13755e+12 -2.88022e+12 -2.73081e+12 -2.73123e+12 -2.6329e+12 -2.673e+12 -2.60739e+12 -1.71008e+12 -1.92839e+12 -2.85442e+12 -2.87351e+12 -2.88171e+12 -2.79539e+12 -2.69591e+12 -2.61561e+12 -2.56293e+12 -2.62846e+12 -2.96165e+12 -3.17528e+12 -3.2141e+12 -3.02183e+12 -2.84333e+12 -2.74941e+12 -2.72084e+12 -2.00768e+12 -2.91454e+12 -2.97545e+12 -2.92018e+12 -2.97843e+12 -2.92859e+12 -2.96756e+12 -2.89427e+12 -2.90806e+12 -2.80892e+12 -2.83863e+12 -2.73131e+12 -2.78219e+12 -2.6768e+12 -2.68948e+12 -2.82075e+12 -3.09036e+12 -3.18844e+12 -3.1554e+12 -3.11935e+12 -3.05153e+12 -2.95644e+12 -2.92625e+12 -2.83586e+12 -2.84769e+12 -2.7805e+12 -2.82227e+12 -1.78142e+12 -3.03482e+12 -3.03329e+12 -3.02784e+12 -2.99543e+12 -2.93628e+12 -2.88182e+12 -2.85218e+12 -2.76741e+12 -2.87314e+12 -2.82937e+12 -2.9552e+12 -2.99861e+12 -3.13465e+12 -3.11335e+12 -3.01038e+12 -2.91942e+12 -2.874e+12 -1.85797e+12 -2.08683e+12 -3.09138e+12 -3.08639e+12 -3.06899e+12 -3.02496e+12 -2.97523e+12 -2.93881e+12 -2.93511e+12 -2.97568e+12 -3.06376e+12 -3.09275e+12 -3.13851e+12 -3.13831e+12 -3.07865e+12 -2.99057e+12 -2.9299e+12 -2.91175e+12 -2.16597e+12 -3.15071e+12 -3.2054e+12 -3.14565e+12 -3.19676e+12 -3.1343e+12 -3.17785e+12 -3.10552e+12 -3.14365e+12 -3.06236e+12 -3.10709e+12 -3.02433e+12 -3.08176e+12 -3.00641e+12 -3.07814e+12 -3.02016e+12 -3.06532e+12 -3.13355e+12 -3.15478e+12 -3.12592e+12 -3.11081e+12 -3.05564e+12 -3.04407e+12 -2.98727e+12 -2.99855e+12 -2.95446e+12 -2.99002e+12 -1.9395e+12 -3.26489e+12 -3.25818e+12 -3.24466e+12 -3.21947e+12 -3.18645e+12 -3.15809e+12 -3.1437e+12 -3.14743e+12 -3.09857e+12 -3.16652e+12 -3.14046e+12 -3.19345e+12 -3.17361e+12 -3.15541e+12 -3.09836e+12 -3.04326e+12 -3.02322e+12 -2.02571e+12 -2.24519e+12 -3.37855e+12 -3.31885e+12 -3.37107e+12 -3.30866e+12 -3.35696e+12 -3.29011e+12 -3.33463e+12 -3.26229e+12 -3.3077e+12 -3.23369e+12 -3.28414e+12 -3.21313e+12 -3.20557e+12 -3.21007e+12 -3.22276e+12 -3.22625e+12 -3.19211e+12 -3.19633e+12 -3.14906e+12 -3.13982e+12 -3.09035e+12 -3.05545e+12 -3.05833e+12 -2.11676e+12 -2.3246e+12 -3.43221e+12 -3.4214e+12 -3.40364e+12 -3.37972e+12 -3.35534e+12 -3.33591e+12 -3.2692e+12 -3.3234e+12 -3.26366e+12 -3.31581e+12 -3.2642e+12 -3.26383e+12 -3.24208e+12 -3.19105e+12 -3.12945e+12 -3.08851e+12 -3.10093e+12 -3.08176e+12 -3.11809e+12 -3.49209e+12 -3.48418e+12 -3.47e+12 -3.44956e+12 -3.42594e+12 -3.40414e+12 -3.38694e+12 -3.37366e+12 -3.3609e+12 -3.30862e+12 -3.34113e+12 -3.28945e+12 -3.30026e+12 -3.24413e+12 -3.17826e+12 -3.12047e+12 -3.13097e+12 -2.21281e+12 -2.40427e+12 -3.60554e+12 -3.54556e+12 -3.59731e+12 -3.53442e+12 -3.58306e+12 -3.51724e+12 -3.56358e+12 -3.49543e+12 -3.54143e+12 -3.47288e+12 -3.51974e+12 -3.45273e+12 -3.49976e+12 -3.43546e+12 -3.41883e+12 -3.39778e+12 -3.36051e+12 -3.29615e+12 -3.2339e+12 -3.21056e+12 -3.15822e+12 -3.13087e+12 -3.13261e+12 -3.17078e+12 -3.17035e+12 -2.31284e+12 -2.48424e+12 -3.65878e+12 -3.64733e+12 -3.63031e+12 -3.60935e+12 -3.58721e+12 -3.56558e+12 -3.54412e+12 -3.48026e+12 -3.52077e+12 -3.45811e+12 -3.4905e+12 -3.42494e+12 -3.44125e+12 -3.36544e+12 -3.27487e+12 -3.17011e+12 -3.14494e+12 -3.21672e+12 -2.56445e+12 -3.71879e+12 -3.77172e+12 -3.71022e+12 -3.75984e+12 -3.6957e+12 -3.74252e+12 -3.67642e+12 -3.72157e+12 -3.6546e+12 -3.69911e+12 -3.63222e+12 -3.60953e+12 -3.58511e+12 -3.55639e+12 -3.51529e+12 -3.44498e+12 -3.35231e+12 -3.31244e+12 -3.23076e+12 -3.09957e+12 -3.12857e+12 -3.20258e+12 -3.26476e+12 -2.41448e+12 -9035750000.0 -3.83165e+12 -3.82272e+12 -3.80764e+12 -3.78796e+12 -3.76583e+12 -3.74253e+12 -3.67585e+12 -3.71748e+12 -3.65085e+12 -3.6891e+12 -3.62243e+12 -3.65552e+12 -3.58632e+12 -3.53217e+12 -3.43304e+12 -3.2241e+12 -3.14929e+12 -2.96511e+12 -3.23535e+12 -2.52043e+12 -2.64477e+12 -3.9439e+12 -3.88417e+12 -3.93461e+12 -3.87173e+12 -3.91873e+12 -3.8537e+12 -3.83218e+12 -3.80911e+12 -3.78445e+12 -3.75658e+12 -3.72402e+12 -3.6838e+12 -3.61065e+12 -3.62965e+12 -3.54012e+12 -3.53867e+12 -3.39992e+12 -3.33254e+12 -3.02611e+12 -3.03154e+12 -3.28816e+12 -3.38078e+12 -2.7197e+12 -2.7249e+12 -3.99593e+12 -3.98286e+12 -3.96372e+12 -3.89813e+12 -3.94115e+12 -3.87531e+12 -3.91743e+12 -3.85124e+12 -3.89194e+12 -3.82441e+12 -3.86197e+12 -3.7928e+12 -3.75492e+12 -3.70776e+12 -3.64303e+12 -3.52727e+12 -3.18062e+12 -2.35997e+12 -2.76722e+12 -3.89994e+12 -9035750000.0 -2.80436e+12 -4.05526e+12 -4.10675e+12 -4.04571e+12 -4.02883e+12 -4.00683e+12 -3.983e+12 -3.95852e+12 -3.93083e+12 -3.8967e+12 -3.82564e+12 -3.85421e+12 -3.78135e+12 -3.80353e+12 -3.72751e+12 -3.74317e+12 -3.65178e+12 -3.49941e+12 -2.92424e+12 -4.97162e+12 -4.15215e+12 -4.31781e+12 -2.88635e+12 -4.1654e+12 -4.15582e+12 -4.09307e+12 -4.13782e+12 -4.07246e+12 -4.11384e+12 -4.04831e+12 -4.08852e+12 -4.0239e+12 -4.06402e+12 -3.99842e+12 -3.96753e+12 -3.92773e+12 -3.87802e+12 -3.82102e+12 -3.75611e+12 -3.65822e+12 -3.68265e+12 -3.47496e+12 -4.18229e+12 -5.08673e+12 -4.72355e+12 -3.00227e+12 -2.88251e+12 -4.21637e+12 -4.20223e+12 -4.17976e+12 -4.15325e+12 -4.12785e+12 -4.10336e+12 -4.03687e+12 -4.07353e+12 -4.00144e+12 -4.03129e+12 -3.95388e+12 -3.97428e+12 -3.89654e+12 -3.83425e+12 -3.7812e+12 -4.0156e+12 -4.66274e+12 -4.97673e+12 -4.60863e+12 -9035750000.0 -2.95875e+12 -4.2741e+12 -4.32476e+12 -4.26483e+12 -4.31043e+12 -4.24567e+12 -4.28559e+12 -4.21887e+12 -4.25546e+12 -4.19118e+12 -4.16661e+12 -4.14184e+12 -4.10772e+12 -4.05549e+12 -3.98757e+12 -3.90883e+12 -3.91569e+12 -3.84708e+12 -3.91389e+12 -3.94233e+12 -4.14833e+12 -4.30613e+12 -4.52225e+12 -4.69925e+12 -4.72521e+12 -4.66288e+12 -3.12148e+12 -4.38136e+12 -4.3729e+12 -4.35266e+12 -4.32179e+12 -4.29009e+12 -4.22812e+12 -4.26443e+12 -4.20491e+12 -4.24274e+12 -4.17937e+12 -4.2157e+12 -4.13798e+12 -4.07241e+12 -3.9922e+12 -3.92456e+12 -4.04051e+12 -4.33015e+12 -4.58846e+12 -4.64423e+12 -3.19439e+12 -3.03252e+12 -4.48724e+12 -4.43204e+12 -4.48037e+12 -4.41807e+12 -4.45958e+12 -4.39037e+12 -4.42297e+12 -4.35458e+12 -4.32333e+12 -4.30014e+12 -4.28e+12 -4.2506e+12 -4.16231e+12 -4.17754e+12 -4.07936e+12 -4.07187e+12 -3.98724e+12 -3.96015e+12 -4.1944e+12 -4.47015e+12 -4.5981e+12 -4.6305e+12 -3.24307e+12 -3.10301e+12 -4.53844e+12 -4.52578e+12 -4.49504e+12 -4.45081e+12 -4.38461e+12 -4.41243e+12 -4.35541e+12 -4.38603e+12 -4.33496e+12 -4.31654e+12 -4.28477e+12 -4.1758e+12 -4.03156e+12 -3.94163e+12 -3.91649e+12 -4.06325e+12 -4.20367e+12 -4.33783e+12 -4.46016e+12 -4.54554e+12 -4.58768e+12 -4.60932e+12 -3.16907e+12 -4.59171e+12 -4.64387e+12 -4.58763e+12 -4.63422e+12 -4.56748e+12 -4.60088e+12 -4.52327e+12 -4.47479e+12 -4.43809e+12 -4.41423e+12 -4.3683e+12 -4.39936e+12 -4.35243e+12 -4.38887e+12 -4.32111e+12 -4.3653e+12 -4.13218e+12 -3.86069e+12 -4.02458e+12 -4.35555e+12 -4.55151e+12 -4.62119e+12 -3.29207e+12 -4.69412e+12 -4.69461e+12 -4.67824e+12 -4.62399e+12 -4.54511e+12 -4.56144e+12 -4.4954e+12 -4.4605e+12 -4.43849e+12 -4.42777e+12 -4.42883e+12 -4.42577e+12 -3.96475e+12 -3.23071e+12 -3.71313e+12 -3.98174e+12 -4.21802e+12 -4.4354e+12 -4.4982e+12 -4.59999e+12 -4.61538e+12 -4.66905e+12 -3.34863e+12 -3.23061e+12 -4.79524e+12 -4.74836e+12 -4.80013e+12 -4.74366e+12 -4.79329e+12 -4.7095e+12 -4.63818e+12 -4.57288e+12 -4.51199e+12 -4.5228e+12 -4.47777e+12 -4.48766e+12 -4.45747e+12 -4.47109e+12 -4.45448e+12 -4.47765e+12 -4.47205e+12 -3.03775e+12 -4.35908e+12 -4.57813e+12 -4.67855e+12 -3.41707e+12 -3.28938e+12 -4.85201e+12 -4.85212e+12 -4.82371e+12 -4.72635e+12 -4.73247e+12 -4.64599e+12 -4.57801e+12 -4.52458e+12 -4.48909e+12 -4.48257e+12 -4.48325e+12 -4.51973e+12 -4.53475e+12 -4.86321e+12 -5.18571e+12 -5.46994e+12 -4.15309e+12 -4.51734e+12 -4.55619e+12 -4.69323e+12 -4.68415e+12 -4.76841e+12 -4.74909e+12 -3.5007e+12 -3.34882e+12 -4.89678e+12 -4.96081e+12 -4.90508e+12 -4.9592e+12 -4.91633e+12 -4.9438e+12 -4.83288e+12 -4.72918e+12 -4.64633e+12 -4.63663e+12 -4.57306e+12 -4.51515e+12 -4.48475e+12 -4.5002e+12 -4.67751e+12 -5.27759e+12 -4.62009e+12 -4.75497e+12 -4.71298e+12 -4.7921e+12 -4.85269e+12 -5.00049e+12 -5.01056e+12 -5.04958e+12 -4.94466e+12 -4.82829e+12 -4.71731e+12 -4.6123e+12 -4.55488e+12 -4.52257e+12 -4.49586e+12 -4.47431e+12 -4.48318e+12 -4.517e+12 -4.58022e+12 -4.74128e+12 -4.94092e+12 -5.02529e+12 -5.0793e+12 -4.76873e+12 -4.84391e+12 -4.92362e+12 -4.83146e+12 -4.90556e+12 -4.86895e+12 -4.96609e+12 -3.60308e+12 -3.40374e+12 -5.09235e+12 -5.06907e+12 -5.10561e+12 -5.05937e+12 -5.21274e+12 -5.07611e+12 -4.93494e+12 -4.81651e+12 -4.78872e+12 -4.68977e+12 -4.57023e+12 -4.48147e+12 -4.47242e+12 -4.60927e+12 -4.86716e+12 -4.89423e+12 -4.81422e+12 -4.86079e+12 -4.96227e+12 -4.97821e+12 -4.95202e+12 -3.72675e+12 -3.45674e+12 -5.169e+12 -5.1344e+12 -5.24143e+12 -5.07281e+12 -5.0533e+12 -4.91021e+12 -4.73685e+12 -4.64121e+12 -4.57065e+12 -4.51226e+12 -4.44825e+12 -4.51362e+12 -4.71579e+12 -4.88674e+12 -4.84264e+12 -4.92398e+12 -5.04534e+12 -5.08064e+12 -4.99674e+12 -4.96494e+12 -5.06522e+12 -3.87116e+12 -3.52544e+12 -5.17307e+12 -5.15108e+12 -5.14291e+12 -5.16328e+12 -5.46383e+12 -5.44155e+12 -5.22025e+12 -5.0122e+12 -4.85938e+12 -4.65639e+12 -4.48957e+12 -4.45183e+12 -4.40672e+12 -4.4443e+12 -4.47685e+12 -4.5841e+12 -4.6574e+12 -4.79146e+12 -4.82325e+12 -4.87348e+12 -5.01517e+12 -5.06327e+12 -5.16888e+12 -5.04217e+12 -5.09156e+12 -5.0331e+12 -5.53854e+12 -5.20953e+12 -5.79172e+12 -5.44059e+12 -5.20042e+12 -4.90662e+12 -4.76848e+12 -4.66127e+12 -4.5615e+12 -4.4085e+12 -4.39371e+12 -4.5236e+12 -4.73103e+12 -4.85711e+12 -4.9664e+12 -5.22803e+12 -5.41507e+12 -5.1999e+12 -5.12673e+12 -4.85968e+12 -4.99833e+12 -3.96692e+12 -3.03619e+12 -4.96957e+12 -5.24571e+12 -4.6701e+12 -6.3442e+12 -5.81078e+12 -5.28895e+12 -5.07702e+12 -4.78538e+12 -4.54396e+12 -4.45611e+12 -4.34691e+12 -4.41727e+12 -4.57903e+12 -4.67397e+12 -4.79957e+12 -4.90296e+12 -5.07906e+12 -5.15694e+12 -5.49659e+12 -5.50367e+12 -4.24077e+12 -5.96241e+12 -4.45093e+12 -4.55354e+12 -6.64614e+12 -6.41751e+12 -5.83882e+12 -4.48687e+12 -5.5406e+12 -5.99373e+12 -5.56447e+12 -5.34847e+12 -5.1184e+12 -4.93427e+12 -4.78558e+12 -4.6557e+12 -4.40792e+12 -4.34593e+12 -4.25859e+12 -4.32376e+12 -4.34459e+12 -4.43639e+12 -4.4705e+12 -4.77322e+12 -4.92775e+12 -5.32752e+12 -5.84022e+12 -5.79926e+12 -5.56169e+12 -4.85265e+12 -5.72869e+12 -6.61929e+12 -5.22662e+12 -4.12547e+12 -5.30529e+12 -4.8563e+12 -6.40891e+12 -7.03054e+12 -5.22758e+12 -5.46557e+12 -5.62938e+12 -5.64804e+12 -5.12336e+12 -4.93766e+12 -4.63698e+12 -4.51884e+12 -4.24633e+12 -4.21968e+12 -4.31123e+12 -4.59803e+12 -4.67543e+12 -5.16163e+12 -5.39235e+12 -5.91552e+12 -5.01588e+12 -6.47336e+12 -6.07388e+12 -5.81568e+12 -6.76572e+12 -5.01757e+12 -5.32354e+12 -7.50628e+12 -6.51373e+12 -7.23228e+12 -6.72601e+12 -6.08765e+12 -5.36374e+12 -5.58628e+12 -5.51568e+12 -5.36862e+12 -4.87673e+12 -4.75726e+12 -4.48898e+12 -4.3356e+12 -4.11884e+12 -4.23697e+12 -4.0599e+12 -4.30452e+12 -4.4322e+12 -4.90758e+12 -4.93271e+12 -4.69813e+12 -5.87452e+12 -4.66256e+12 -5.65899e+12 -6.1689e+12 -6.4159e+12 -6.85224e+12 -7.16624e+12 -7.07352e+12 -4.69165e+12 -4.99391e+12 -5.30017e+12 -5.31288e+12 -7.57567e+12 -7.87869e+12 -7.55435e+12 -6.97027e+12 -6.97288e+12 -5.86461e+12 -5.61976e+12 -5.50198e+12 -5.31627e+12 -5.07084e+12 -4.60557e+12 -4.61202e+12 -4.20587e+12 -4.06907e+12 -3.87727e+12 -4.06728e+12 -4.14482e+12 -3.56491e+12 -4.78496e+12 -4.88367e+12 -4.88646e+12 -5.04044e+12 -5.52262e+12 -4.75166e+12 -5.09325e+12 -5.20699e+12 -6.15695e+12 -6.73712e+12 -7.35597e+12 -7.28088e+12 -7.37197e+12 -4.95165e+12 -5.08891e+12 -5.12828e+12 -7.34925e+12 -7.5904e+12 -6.62996e+12 -7.12914e+12 -6.67243e+12 -6.38395e+12 -6.20757e+12 -5.85994e+12 -5.63711e+12 -5.31071e+12 -5.05161e+12 -4.69817e+12 -4.41357e+12 -4.56102e+12 -4.23548e+12 -3.58761e+12 -3.94741e+12 -3.33577e+12 -5.43808e+12 -4.32684e+12 -4.54637e+12 -4.7081e+12 -5.6958e+12 -6.38469e+12 -5.99556e+12 -6.69287e+12 -6.90439e+12 -7.15227e+12 -7.79761e+12 -7.34433e+12 -8.03451e+12 -7.8801e+12 -5.19839e+12 -5.13988e+12 -7.05485e+12 -7.25057e+12 -7.61411e+12 -7.44796e+12 -7.00553e+12 -6.86766e+12 -6.76882e+12 -6.52065e+12 -6.01483e+12 -5.74198e+12 -5.51986e+12 -5.04291e+12 -4.701e+12 -4.11698e+12 -4.46571e+12 -4.29853e+12 -3.2964e+12 -3.86579e+12 -4.41585e+12 -4.85561e+12 -5.68627e+12 -5.39547e+12 -5.01934e+12 -3.00636e+12 -5.19303e+12 -5.31771e+12 -5.42993e+12 -6.26461e+12 -6.07348e+12 -6.81161e+12 -7.42846e+12 -7.4959e+12 -7.48156e+12 -7.90254e+12 -4.9771e+12 -4.62369e+12 -4.90236e+12 -5.1082e+12 -7.32309e+12 -7.51023e+12 -7.16505e+12 -7.28982e+12 -7.2745e+12 -7.24464e+12 -7.03088e+12 -6.69447e+12 -6.48636e+12 -6.27413e+12 -5.81602e+12 -5.56395e+12 -5.31513e+12 -4.69291e+12 -4.20034e+12 -3.20626e+12 -3.51731e+12 -4.91092e+12 -4.85924e+12 -5.64005e+12 -4.20646e+12 -5.93161e+12 -4.59906e+12 -5.03831e+12 -5.34304e+12 -6.08898e+12 -6.38748e+12 -6.29417e+12 -6.59509e+12 -6.47124e+12 -7.03121e+12 -7.232e+12 -7.59908e+12 -7.58579e+12 -7.64015e+12 -7.76654e+12 -4.58288e+12 -4.60819e+12 -7.34194e+12 -7.36723e+12 -7.42321e+12 -7.57244e+12 -7.49605e+12 -6.79037e+12 -6.78146e+12 -6.96461e+12 -6.47018e+12 -6.2702e+12 -6.05843e+12 -5.58483e+12 -5.32415e+12 -5.04192e+12 -4.3407e+12 -3.76283e+12 -2.97203e+12 -4.90358e+12 -4.43538e+12 -4.05981e+12 -4.92441e+12 -3.32115e+12 -4.81789e+12 -3.71277e+12 -4.64516e+12 -3.9589e+12 -4.68661e+12 -5.01968e+12 -5.58288e+12 -5.94896e+12 -6.12156e+12 -6.47803e+12 -6.76421e+12 -6.47217e+12 -7.63582e+12 -7.51511e+12 -7.70533e+12 -7.53307e+12 -7.52407e+12 -7.53945e+12 -7.62888e+12 -4.87223e+12 -5.04555e+12 -4.56443e+12 -7.24264e+12 -7.27916e+12 -7.12304e+12 -7.25777e+12 -6.9893e+12 -7.07957e+12 -7.25035e+12 -7.01977e+12 -6.97723e+12 -6.71918e+12 -6.41394e+12 -6.21927e+12 -6.03175e+12 -5.82287e+12 -5.56788e+12 -5.32369e+12 -5.05167e+12 -4.74429e+12 -3.89611e+12 -3.11216e+12 -4.40183e+12 -2.13419e+12 -4.10783e+12 -4.74651e+12 -4.29358e+12 -4.43088e+12 -6.31364e+12 -5.0907e+12 -4.97204e+12 -4.54838e+12 -4.8211e+12 -5.31607e+12 -5.54188e+12 -5.78065e+12 -6.02284e+12 -6.29565e+12 -6.48873e+12 -6.60036e+12 -6.57906e+12 -7.11872e+12 -7.22142e+12 -7.38567e+12 -7.37285e+12 -7.5669e+12 -7.53095e+12 -7.62419e+12 -7.85435e+12 -7.65346e+12 -4.62485e+12 -3.92712e+12 -4.35815e+12 -7.39529e+12 -7.11214e+12 -7.31038e+12 -7.15573e+12 -7.07881e+12 -7.00045e+12 -6.86174e+12 -6.41578e+12 -6.70112e+12 -6.66221e+12 -6.5897e+12 -6.17609e+12 -5.9848e+12 -5.78615e+12 -5.2966e+12 -5.04335e+12 -4.75399e+12 -4.40944e+12 -3.9557e+12 -4.02721e+12 -3.72849e+12 -3.85513e+12 -4.44269e+12 -4.41108e+12 -4.53249e+12 -5.34923e+12 -5.43181e+12 -4.9077e+12 -4.85364e+12 -4.74692e+12 -5.04715e+12 -5.25698e+12 -5.45139e+12 -5.69546e+12 -6.21621e+12 -6.34665e+12 -6.50599e+12 -6.91351e+12 -7.14003e+12 -7.28455e+12 -7.23031e+12 -7.35529e+12 -7.59575e+12 -7.49245e+12 -7.50607e+12 -7.71379e+12 -4.69318e+12 -4.27477e+12 -3.90013e+12 -6.8767e+12 -7.30349e+12 -7.17077e+12 -7.2563e+12 -7.1053e+12 -7.04172e+12 -7.14869e+12 -6.67706e+12 -6.75735e+12 -6.51232e+12 -6.36491e+12 -5.91521e+12 -5.72682e+12 -5.52352e+12 -5.0365e+12 -4.7882e+12 -4.517e+12 -4.22734e+12 -4.74914e+12 -4.69787e+12 -4.84156e+12 -4.91272e+12 -4.7979e+12 -4.90534e+12 -5.07727e+12 -5.24297e+12 -5.42488e+12 -5.9157e+12 -6.07463e+12 -6.23261e+12 -6.54811e+12 -6.7994e+12 -6.99395e+12 -7.07581e+12 -7.27469e+12 -7.30855e+12 -7.40831e+12 -7.28751e+12 -7.30149e+12 -7.13847e+12 -4.04402e+12 -3.78721e+12 -6.93471e+12 -7.18367e+12 -6.86894e+12 -6.74717e+12 -7.12732e+12 -6.87786e+12 -7.21876e+12 -7.2045e+12 -7.3745e+12 -7.17874e+12 -6.57559e+12 -6.47061e+12 -6.25345e+12 -6.09566e+12 -5.65224e+12 -5.4672e+12 -5.26416e+12 -4.58594e+12 -4.35298e+12 -4.20368e+12 -4.16108e+12 -3.98064e+12 -4.16764e+12 -4.3398e+12 -4.79587e+12 -4.52381e+12 -4.21854e+12 -4.59633e+12 -4.85156e+12 -5.02124e+12 -4.80037e+12 -4.66847e+12 -4.58258e+12 -4.73245e+12 -5.63308e+12 -5.80066e+12 -5.95394e+12 -6.3697e+12 -6.47101e+12 -6.66735e+12 -6.79998e+12 -6.99948e+12 -7.12854e+12 -7.17647e+12 -7.50128e+12 -7.34225e+12 -7.44773e+12 -7.36847e+12 -6.87502e+12 -7.17584e+12 -4.37936e+12 -4.66799e+12 -4.23271e+12 -7.03708e+12 -7.1406e+12 -7.14574e+12 -7.36491e+12 -7.18391e+12 -7.37468e+12 -7.34035e+12 -6.60001e+12 -6.84207e+12 -6.81206e+12 -6.24807e+12 -6.17055e+12 -6.1059e+12 -5.96595e+12 -5.82327e+12 -5.57612e+12 -5.40472e+12 -5.22191e+12 -5.02459e+12 -4.80994e+12 -4.45811e+12 -4.3418e+12 -4.20151e+12 -4.12721e+12 -4.17869e+12 -4.3338e+12 -4.49823e+12 -4.49957e+12 -5.12504e+12 -3.12213e+12 -3.65529e+12 -5.16675e+12 -5.26208e+12 -5.54736e+12 -5.70238e+12 -4.88329e+12 -5.09855e+12 -5.44114e+12 -5.64843e+12 -6.09212e+12 -6.22998e+12 -6.35871e+12 -6.49327e+12 -6.67134e+12 -6.83586e+12 -6.94943e+12 -7.16853e+12 -7.30775e+12 -7.41351e+12 -7.69207e+12 -7.49634e+12 -7.2614e+12 -7.66687e+12 -4.7738e+12 -4.6529e+12 -4.49708e+12 -7.34404e+12 -7.55115e+12 -7.30667e+12 -7.4685e+12 -7.69434e+12 -7.18646e+12 -7.20572e+12 -7.47885e+12 -7.11333e+12 -6.98243e+12 -6.89011e+12 -6.1065e+12 -6.27582e+12 -6.17343e+12 -6.01414e+12 -5.88622e+12 -5.73127e+12 -5.17163e+12 -5.00248e+12 -4.82457e+12 -4.63987e+12 -4.28576e+12 -4.21385e+12 -4.23468e+12 -4.34837e+12 -4.5825e+12 -4.96404e+12 -5.35528e+12 -3.75288e+12 -4.36598e+12 -4.83383e+12 -5.06206e+12 -5.25911e+12 -5.43461e+12 -5.5782e+12 -5.73637e+12 -5.5541e+12 -5.35268e+12 -5.44554e+12 -5.80417e+12 -5.9423e+12 -6.08031e+12 -6.1922e+12 -6.33605e+12 -6.48521e+12 -6.60665e+12 -6.77401e+12 -6.89639e+12 -7.04167e+12 -7.22284e+12 -7.55324e+12 -7.56268e+12 -7.39059e+12 -7.41446e+12 -7.72359e+12 -4.58088e+12 -4.35166e+12 -4.39918e+12 -7.43437e+12 -6.99908e+12 -6.69191e+12 -7.2894e+12 -7.4199e+12 -7.1273e+12 -7.09298e+12 -7.14867e+12 -7.00466e+12 -7.04936e+12 -6.59902e+12 -6.76009e+12 -6.53329e+12 -5.99902e+12 -5.8873e+12 -5.75044e+12 -5.62385e+12 -5.48139e+12 -5.33248e+12 -4.9719e+12 -4.82565e+12 -4.67508e+12 -4.52587e+12 -4.40777e+12 -4.25269e+12 -4.30856e+12 -4.44517e+12 -4.66705e+12 -4.93176e+12 -4.7382e+12 -4.63193e+12 -4.73305e+12 -4.91777e+12 -5.04967e+12 -5.16744e+12 -5.2721e+12 -5.63127e+12 -5.57152e+12 -5.43862e+12 -5.36642e+12 -5.56069e+12 -5.67968e+12 -5.80122e+12 -5.9146e+12 -6.03413e+12 -6.16276e+12 -6.28079e+12 -6.81781e+12 -7.02626e+12 -7.19178e+12 -7.32872e+12 -7.44169e+12 -7.4685e+12 -7.22941e+12 -4.54535e+12 -4.28506e+12 -7.35834e+12 -7.37706e+12 -7.26037e+12 -6.86445e+12 -7.10687e+12 -7.07757e+12 -7.01439e+12 -6.9554e+12 -6.81759e+12 -6.80667e+12 -6.56513e+12 -6.56608e+12 -6.3035e+12 -6.22787e+12 -5.73119e+12 -5.61842e+12 -5.49786e+12 -5.38017e+12 -5.25043e+12 -5.11444e+12 -4.8113e+12 -4.68792e+12 -4.56238e+12 -4.44696e+12 -4.34413e+12 -4.26961e+12 -4.69787e+12 -4.40146e+12 -4.71202e+12 -4.7072e+12 -4.77994e+12 -4.88241e+12 -4.97074e+12 -5.34837e+12 -5.36574e+12 -5.34835e+12 -5.31134e+12 -5.40223e+12 -5.47513e+12 -5.56519e+12 -5.65796e+12 -5.76044e+12 -5.86917e+12 -6.41893e+12 -6.53726e+12 -6.6479e+12 -6.6271e+12 -6.76536e+12 -6.78961e+12 -7.05784e+12 -7.03128e+12 -7.13241e+12 -7.09597e+12 -7.13891e+12 -4.58106e+12 -4.56321e+12 -4.18764e+12 -7.06258e+12 -7.24014e+12 -7.19753e+12 -7.2205e+12 -7.12008e+12 -7.14747e+12 -7.08552e+12 -7.07886e+12 -7.07374e+12 -6.94802e+12 -6.81021e+12 -6.64749e+12 -6.56635e+12 -6.41491e+12 -6.34665e+12 -6.14405e+12 -6.02209e+12 -5.9088e+12 -5.37662e+12 -5.27146e+12 -5.16467e+12 -5.05077e+12 -4.93246e+12 -4.57361e+12 -4.46981e+12 -4.37395e+12 -4.29764e+12 -4.25703e+12 -4.26892e+12 -4.3441e+12 -4.47759e+12 -4.64002e+12 -4.62718e+12 -4.597e+12 -4.51536e+12 -4.65652e+12 -4.70077e+12 -4.75531e+12 -5.04955e+12 -5.11031e+12 -5.1503e+12 -5.17825e+12 -5.19623e+12 -5.30173e+12 -5.33273e+12 -5.38716e+12 -5.45083e+12 -5.52385e+12 -5.97845e+12 -6.10823e+12 -6.2248e+12 -6.33593e+12 -6.46852e+12 -6.43699e+12 -6.47298e+12 -6.08583e+12 -7.02876e+12 -7.11625e+12 -6.91014e+12 -6.93438e+12 -4.39753e+12 -4.51793e+12 -4.0866e+12 -4.1421e+12 -6.98584e+12 -6.91461e+12 -6.98179e+12 -6.94368e+12 -6.75256e+12 -6.87519e+12 -6.67339e+12 -6.61977e+12 -6.52603e+12 -6.3992e+12 -6.30211e+12 -6.18839e+12 -6.10891e+12 -5.96299e+12 -5.84227e+12 -5.73107e+12 -5.62114e+12 -5.48084e+12 -5.16725e+12 -5.07459e+12 -4.98074e+12 -4.88262e+12 -4.78195e+12 -4.67906e+12 -4.46901e+12 -4.38169e+12 -4.30495e+12 -4.25001e+12 -4.23149e+12 -4.2623e+12 -4.3403e+12 -4.44512e+12 -4.48443e+12 -4.49419e+12 -4.4994e+12 -4.51164e+12 -4.59511e+12 -4.8178e+12 -4.87461e+12 -4.92033e+12 -4.96164e+12 -5.0056e+12 -5.2025e+12 -5.22082e+12 -5.25413e+12 -5.29512e+12 -5.34141e+12 -5.60597e+12 -5.69478e+12 -5.8045e+12 -5.9387e+12 -6.05835e+12 -6.18726e+12 -6.31012e+12 -6.20961e+12 -6.34299e+12 -6.20809e+12 -6.27883e+12 -6.93066e+12 -6.94517e+12 -6.61996e+12 -6.57599e+12 -6.57153e+12 -5.98595e+12 -4.42348e+12 -3.95716e+12 -6.90283e+12 -6.83179e+12 -6.90633e+12 -6.9958e+12 -6.89996e+12 -6.55322e+12 -6.47278e+12 -6.33101e+12 -6.266e+12 -6.16404e+12 -6.06386e+12 -5.96189e+12 -5.87931e+12 -5.77101e+12 -5.66863e+12 -5.56667e+12 -5.47189e+12 -5.37277e+12 -5.2602e+12 -4.98338e+12 -4.9024e+12 -4.82067e+12 -4.73615e+12 -4.64909e+12 -4.55931e+12 -4.23151e+12 -4.19389e+12 -4.1921e+12 -4.23027e+12 -4.29625e+12 -4.343e+12 -4.36991e+12 -4.39034e+12 -4.64098e+12 -4.68253e+12 -4.7236e+12 -4.76011e+12 -4.79928e+12 -4.84484e+12 -5.04645e+12 -5.07985e+12 -5.10649e+12 -5.13647e+12 -5.16887e+12 -5.20172e+12 -5.39169e+12 -5.44646e+12 -5.51674e+12 -5.61023e+12 -5.78233e+12 -5.92431e+12 -6.04205e+12 -6.04483e+12 -6.02752e+12 -6.19077e+12 -6.30292e+12 -6.59343e+12 -6.28718e+12 -6.17324e+12 -6.49562e+12 -6.79826e+12 -4.41181e+12 -3.78306e+12 -6.53055e+12 -6.75634e+12 -6.68478e+12 -6.60771e+12 -6.79496e+12 -6.82084e+12 -6.78297e+12 -6.97688e+12 -5.63363e+12 -6.21176e+12 -6.14472e+12 -6.03788e+12 -5.95066e+12 -5.84951e+12 -5.75108e+12 -5.66693e+12 -5.57897e+12 -5.49555e+12 -5.41004e+12 -5.32691e+12 -5.24533e+12 -5.15835e+12 -5.06577e+12 -4.74704e+12 -4.6752e+12 -4.60035e+12 -4.52231e+12 -4.4434e+12 -4.36563e+12 -4.29254e+12 -4.41792e+12 -4.45601e+12 -4.5119e+12 -4.54994e+12 -4.5818e+12 -4.61351e+12 -4.64968e+12 -4.89429e+12 -4.93929e+12 -4.97785e+12 -5.01251e+12 -5.04606e+12 -5.23214e+12 -5.25801e+12 -5.2835e+12 -5.31449e+12 -5.36537e+12 -5.63236e+12 -5.72333e+12 -5.9385e+12 -5.80047e+12 -5.81645e+12 -5.93483e+12 -6.07235e+12 -6.13749e+12 -6.28941e+12 -5.88023e+12 -5.06037e+12 -6.7736e+12 -6.55152e+12 -4.30334e+12 -4.17154e+12 -3.40441e+12 -3.5934e+12 -6.26783e+12 -6.24399e+12 -6.49714e+12 -6.39342e+12 -6.56658e+12 -6.47004e+12 -6.05977e+12 -5.79465e+12 -5.97522e+12 -5.85967e+12 -5.73344e+12 -5.63161e+12 -5.54319e+12 -5.46637e+12 -5.39219e+12 -5.32336e+12 -5.2548e+12 -5.18486e+12 -5.11494e+12 -5.0439e+12 -4.9682e+12 -4.89033e+12 -4.81785e+12 -4.53602e+12 -4.46751e+12 -4.3974e+12 -4.32774e+12 -4.26003e+12 -4.19868e+12 -4.15181e+12 -4.1289e+12 -4.13729e+12 -4.17252e+12 -4.21099e+12 -4.24226e+12 -4.26818e+12 -4.29686e+12 -4.33262e+12 -4.37158e+12 -4.41162e+12 -4.44235e+12 -4.47142e+12 -4.69382e+12 -4.74341e+12 -4.79264e+12 -4.83695e+12 -4.87657e+12 -4.91353e+12 -5.07774e+12 -5.10488e+12 -5.1233e+12 -5.12887e+12 -5.11559e+12 -5.07913e+12 -4.99414e+12 -5.33539e+12 -5.7091e+12 -5.57719e+12 -5.6867e+12 -5.79368e+12 -5.88147e+12 -5.92921e+12 -5.9766e+12 -5.67766e+12 -5.10262e+12 -6.12814e+12 -6.61891e+12 -6.20343e+12 -6.25573e+12 -6.04819e+12 -4.03244e+12 -3.22725e+12 -5.99105e+12 -5.96764e+12 -6.19425e+12 -6.03322e+12 -6.29776e+12 -6.18759e+12 -5.96173e+12 -6.09124e+12 -5.86721e+12 -5.5637e+12 -5.56206e+12 -5.48101e+12 -5.39131e+12 -5.32432e+12 -5.26659e+12 -5.21018e+12 -5.15498e+12 -5.09981e+12 -5.04366e+12 -4.98446e+12 -4.92374e+12 -4.86136e+12 -4.79514e+12 -4.72815e+12 -4.66416e+12 -4.60102e+12 -4.33524e+12 -4.27256e+12 -4.21039e+12 -4.15118e+12 -4.10079e+12 -4.06641e+12 -4.05459e+12 -4.06579e+12 -4.08966e+12 -4.11675e+12 -4.14292e+12 -4.17057e+12 -4.20245e+12 -4.23699e+12 -4.27049e+12 -4.30163e+12 -4.50547e+12 -4.54664e+12 -4.59392e+12 -4.64305e+12 -4.6893e+12 -4.73128e+12 -4.9483e+12 -4.97934e+12 -5.004e+12 -5.01749e+12 -5.00876e+12 -4.95154e+12 -4.7733e+12 -3.88855e+12 -5.36716e+12 -5.51792e+12 -5.62531e+12 -5.65991e+12 -5.69299e+12 -5.70552e+12 -5.20773e+12 -5.62968e+12 -6.00756e+12 -5.89769e+12 -5.88784e+12 -3.87701e+12 -3.71557e+12 -3.05919e+12 -5.42349e+12 -5.71193e+12 -5.69466e+12 -5.67958e+12 -5.93764e+12 -5.86548e+12 -5.90553e+12 -5.74252e+12 -5.68934e+12 -5.45294e+12 -5.12447e+12 -5.16789e+12 -4.90183e+12 -4.85251e+12 -4.80017e+12 -4.74607e+12 -4.69065e+12 -4.63226e+12 -4.5733e+12 -4.51569e+12 -4.45766e+12 -4.39754e+12 -4.14617e+12 -4.09053e+12 -4.03972e+12 -3.99956e+12 -3.9754e+12 -3.96955e+12 -3.97873e+12 -3.99679e+12 -4.01874e+12 -4.04336e+12 -4.07121e+12 -4.10146e+12 -4.13169e+12 -4.33068e+12 -4.36282e+12 -4.40104e+12 -4.44489e+12 -4.4917e+12 -4.53762e+12 -4.58013e+12 -4.77016e+12 -4.80691e+12 -4.84103e+12 -4.87178e+12 -4.89835e+12 -4.91999e+12 -4.93717e+12 -4.94521e+12 -4.79743e+12 -6.20131e+12 -5.86497e+12 -5.65047e+12 -5.60409e+12 -5.48858e+12 -5.47522e+12 -5.45905e+12 -5.41556e+12 -5.17327e+12 -5.43445e+12 -5.6876e+12 -5.42398e+12 -5.71621e+12 -5.5714e+12 -5.71357e+12 -3.57294e+12 -2.69253e+12 -2.89301e+12 -5.11803e+12 -5.42126e+12 -5.41669e+12 -5.66431e+12 -5.6202e+12 -5.6067e+12 -5.45961e+12 -5.18152e+12 -5.58313e+12 -5.1284e+12 -4.67327e+12 -4.78886e+12 -5.13966e+12 -5.10421e+12 -5.07243e+12 -5.03574e+12 -4.99418e+12 -4.94886e+12 -4.62412e+12 -4.57552e+12 -4.52594e+12 -4.47396e+12 -4.4207e+12 -4.36786e+12 -4.31408e+12 -4.25897e+12 -4.20276e+12 -3.92629e+12 -3.8949e+12 -3.87765e+12 -3.87446e+12 -3.88233e+12 -3.89744e+12 -3.91709e+12 -3.94041e+12 -4.16049e+12 -4.18933e+12 -4.22024e+12 -4.25549e+12 -4.29556e+12 -4.33895e+12 -4.38292e+12 -4.6194e+12 -4.65628e+12 -4.69072e+12 -4.72212e+12 -4.7494e+12 -4.77108e+12 -4.78755e+12 -4.79654e+12 -4.75024e+12 -5.04205e+12 -5.7417e+12 -5.66831e+12 -5.56159e+12 -5.51029e+12 -5.27805e+12 -5.2263e+12 -5.15936e+12 -4.99774e+12 -4.73991e+12 -5.10786e+12 -5.29823e+12 -5.45346e+12 -5.54612e+12 -5.35546e+12 -3.45368e+12 -2.41461e+12 -4.73401e+12 -4.84427e+12 -5.16625e+12 -5.22721e+12 -5.3106e+12 -5.40434e+12 -5.3815e+12 -5.28111e+12 -5.22987e+12 -5.05656e+12 -5.02201e+12 -3.3631e+12 -4.38444e+12 -4.86791e+12 -4.89098e+12 -4.88663e+12 -4.86725e+12 -4.83729e+12 -4.80033e+12 -4.75922e+12 -4.71609e+12 -4.67121e+12 -4.40895e+12 -4.36383e+12 -4.31675e+12 -4.26828e+12 -4.21966e+12 -4.17025e+12 -4.12003e+12 -4.06887e+12 -4.01765e+12 -3.9687e+12 -3.96644e+12 -3.99329e+12 -4.02011e+12 -4.04743e+12 -4.07676e+12 -4.10928e+12 -4.14556e+12 -4.18499e+12 -4.42487e+12 -4.46384e+12 -4.50022e+12 -4.53432e+12 -4.56604e+12 -4.59444e+12 -4.617e+12 -4.63266e+12 -4.64238e+12 -4.95405e+12 -5.00168e+12 -5.32802e+12 -5.37052e+12 -5.34316e+12 -5.31278e+12 -5.01452e+12 -4.93371e+12 -4.81449e+12 -4.66891e+12 -3.88737e+12 -4.78288e+12 -5.27498e+12 -5.34481e+12 -5.19293e+12 -5.27172e+12 -5.16671e+12 -3.36199e+12 -3.26803e+12 -2.04953e+12 -4.21928e+12 -4.41821e+12 -4.96478e+12 -5.08462e+12 -5.45187e+12 -5.73571e+12 -6.19435e+12 -3.80897e+12 -4.97505e+12 -5.44095e+12 -5.95001e+12 -4.60385e+12 -4.69103e+12 -4.71263e+12 -4.70347e+12 -4.6802e+12 -4.64917e+12 -4.6134e+12 -4.57491e+12 -4.53531e+12 -4.49468e+12 -4.45251e+12 -4.20252e+12 -4.15976e+12 -4.11575e+12 -4.07122e+12 -4.026e+12 -3.97993e+12 -3.93329e+12 -3.88759e+12 -3.84557e+12 -3.81074e+12 -3.78618e+12 -3.7734e+12 -3.7719e+12 -3.7792e+12 -3.79279e+12 -3.81112e+12 -3.83264e+12 -3.85597e+12 -3.88027e+12 -3.90557e+12 -3.93268e+12 -3.96241e+12 -3.99506e+12 -4.22591e+12 -4.26628e+12 -4.30455e+12 -4.34026e+12 -4.37362e+12 -4.40505e+12 -4.43453e+12 -4.45983e+12 -4.47819e+12 -4.63574e+12 -4.74551e+12 -4.83033e+12 -4.85564e+12 -5.03232e+12 -5.08861e+12 -5.0888e+12 -5.06688e+12 -4.73397e+12 -4.6072e+12 -4.36544e+12 -3.41073e+12 -5.22992e+12 -4.7561e+12 -5.15068e+12 -5.15694e+12 -5.09173e+12 -5.11021e+12 -4.88858e+12 -4.94095e+12 -3.16542e+12 -3.10459e+12 -2.29489e+12 -1.4863e+12 -2.38891e+12 -3.4926e+12 -3.85653e+12 -4.61502e+12 -4.76057e+12 -5.2294e+12 -5.42141e+12 -5.5891e+12 -4.99344e+12 -4.74187e+12 -5.28605e+12 -4.66788e+12 -4.42186e+12 -4.56609e+12 -4.56459e+12 -4.55944e+12 -4.54361e+12 -4.52027e+12 -4.4923e+12 -4.46108e+12 -4.42779e+12 -4.3932e+12 -4.3576e+12 -4.32128e+12 -4.28345e+12 -4.2438e+12 -3.96313e+12 -3.92244e+12 -3.88089e+12 -3.83865e+12 -3.79663e+12 -3.75662e+12 -3.72111e+12 -3.69268e+12 -3.67338e+12 -3.6641e+12 -3.66389e+12 -3.67107e+12 -3.68387e+12 -3.70068e+12 -3.72016e+12 -3.7414e+12 -3.76413e+12 -3.7886e+12 -3.81531e+12 -4.03041e+12 -4.06764e+12 -4.10546e+12 -4.14236e+12 -4.1772e+12 -4.20964e+12 -4.24026e+12 -4.27006e+12 -4.4912e+12 -4.50149e+12 -4.56496e+12 -4.61518e+12 -4.6439e+12 -4.67257e+12 -4.76759e+12 -4.81129e+12 -4.81846e+12 -4.79458e+12 -4.5851e+12 -4.63787e+12 -4.70523e+12 -5.55497e+12 -3.8093e+12 -5.88766e+12 -5.37405e+12 -5.14395e+12 -4.91977e+12 -4.86404e+12 -4.62453e+12 -4.68405e+12 -2.98229e+12 -2.1923e+12 -3.92255e+12 -2.68259e+12 -3.61897e+12 -4.19038e+12 -4.38388e+12 -4.51592e+12 -4.88635e+12 -5.00152e+12 -5.05043e+12 -4.80578e+12 -4.91676e+12 -4.6164e+12 -4.6008e+12 -4.37218e+12 -4.39968e+12 -4.38573e+12 -4.37045e+12 -4.35043e+12 -4.32692e+12 -4.3008e+12 -4.27285e+12 -4.24373e+12 -4.21358e+12 -4.18216e+12 -4.14942e+12 -4.11513e+12 -4.07916e+12 -4.04173e+12 -4.00301e+12 -3.73496e+12 -3.69667e+12 -3.65939e+12 -3.62485e+12 -3.59507e+12 -3.57207e+12 -3.55719e+12 -3.55062e+12 -3.5516e+12 -3.55876e+12 -3.57065e+12 -3.58598e+12 -3.60374e+12 -3.62338e+12 -3.84445e+12 -3.87586e+12 -3.90914e+12 -3.94361e+12 -3.9782e+12 -4.01162e+12 -4.043e+12 -4.07253e+12 -4.29844e+12 -4.32224e+12 -4.34098e+12 -4.36016e+12 -4.40379e+12 -4.43541e+12 -4.43822e+12 -4.42441e+12 -4.45373e+12 -4.50573e+12 -4.53835e+12 -4.56093e+12 -4.56634e+12 -4.47614e+12 -4.8385e+12 -4.91396e+12 -5.44989e+12 -5.07823e+12 -4.57979e+12 -4.56777e+12 -4.32797e+12 -4.44025e+12 -4.53769e+12 -4.51752e+12 -2.78259e+12 -2.0058e+12 -3.84359e+12 -3.88911e+12 -4.55559e+12 -4.47426e+12 -3.9684e+12 -4.14115e+12 -4.60566e+12 -4.63228e+12 -4.52253e+12 -4.82116e+12 -4.57676e+12 -4.4461e+12 -4.42803e+12 -4.34898e+12 -4.21891e+12 -4.20709e+12 -4.18976e+12 -4.1727e+12 -4.15389e+12 -4.13323e+12 -4.11063e+12 -4.08659e+12 -4.06166e+12 -4.03558e+12 -4.00767e+12 -3.97816e+12 -3.94735e+12 -3.91512e+12 -3.88149e+12 -3.84653e+12 -3.81032e+12 -3.77305e+12 -3.49221e+12 -3.46754e+12 -3.44916e+12 -3.43784e+12 -3.43347e+12 -3.43531e+12 -3.44231e+12 -3.64486e+12 -3.6684e+12 -3.69407e+12 -3.72173e+12 -3.75106e+12 -3.78171e+12 -3.81309e+12 -3.84423e+12 -3.87405e+12 -4.1015e+12 -4.13102e+12 -4.15959e+12 -4.18517e+12 -4.21184e+12 -4.25227e+12 -4.28514e+12 -4.28825e+12 -4.2481e+12 -4.1647e+12 -4.19116e+12 -4.20381e+12 -4.22598e+12 -4.25927e+12 -4.36909e+12 -4.29053e+12 -4.36498e+12 -4.40913e+12 -3.78985e+12 -5.3233e+12 -4.81706e+12 -4.66772e+12 -4.21885e+12 -4.2392e+12 -3.95198e+12 -4.30586e+12 -4.44967e+12 -2.59174e+12 -2.43824e+12 -1.80287e+12 -3.05932e+12 -3.43628e+12 -3.43274e+12 -4.06756e+12 -3.76716e+12 -3.81799e+12 -3.86411e+12 -4.23471e+12 -4.26535e+12 -4.22494e+12 -4.52268e+12 -4.45294e+12 -4.25181e+12 -4.2192e+12 -4.17425e+12 -4.10822e+12 -4.02848e+12 -4.00637e+12 -3.98891e+12 -3.97337e+12 -3.95785e+12 -3.94091e+12 -3.92214e+12 -3.90212e+12 -3.88105e+12 -3.85848e+12 -3.83392e+12 -3.80774e+12 -3.78043e+12 -3.7518e+12 -3.72167e+12 -3.69006e+12 -3.6571e+12 -3.6231e+12 -3.5886e+12 -3.5544e+12 -3.52174e+12 -3.45332e+12 -3.46729e+12 -3.4835e+12 -3.50171e+12 -3.52193e+12 -3.54414e+12 -3.56816e+12 -3.5937e+12 -3.62041e+12 -3.64799e+12 -3.90221e+12 -3.92962e+12 -3.95817e+12 -3.98877e+12 -4.02009e+12 -4.05321e+12 -4.09581e+12 -4.13839e+12 -4.16231e+12 -4.14694e+12 -4.05996e+12 -3.82365e+12 -3.86194e+12 -3.85753e+12 -3.87938e+12 -3.92577e+12 -4.02844e+12 -4.16589e+12 -4.07658e+12 -3.97304e+12 -4.48207e+12 -4.7777e+12 -4.32304e+12 -4.25291e+12 -3.82483e+12 -3.82359e+12 -4.73555e+12 -4.51542e+12 -4.32688e+12 -4.25715e+12 -2.2801e+12 -1.51171e+12 -1.59435e+12 -2.75153e+12 -2.94247e+12 -3.35511e+12 -3.3392e+12 -3.81961e+12 -3.58165e+12 -3.57958e+12 -3.91279e+12 -3.9348e+12 -3.91958e+12 -4.21826e+12 -4.18227e+12 -4.10076e+12 -4.00977e+12 -3.9675e+12 -3.92585e+12 -3.87514e+12 -3.82431e+12 -3.80282e+12 -3.7878e+12 -3.77561e+12 -3.76374e+12 -3.7503e+12 -3.7352e+12 -3.71897e+12 -3.7015e+12 -3.68232e+12 -3.66112e+12 -3.63829e+12 -3.61433e+12 -3.58899e+12 -3.56199e+12 -3.5334e+12 -3.50355e+12 -3.47292e+12 -3.44213e+12 -3.41199e+12 -3.38375e+12 -3.35884e+12 -3.33864e+12 -3.32411e+12 -3.31557e+12 -3.31284e+12 -3.31526e+12 -3.32197e+12 -3.33201e+12 -3.34461e+12 -3.35938e+12 -3.37617e+12 -3.39488e+12 -3.41534e+12 -3.43721e+12 -3.46006e+12 -3.67596e+12 -3.70347e+12 -3.72981e+12 -3.75526e+12 -3.78148e+12 -3.81072e+12 -3.84379e+12 -3.88059e+12 -3.92523e+12 -3.9768e+12 -4.02561e+12 -4.05812e+12 -4.04773e+12 -3.9227e+12 -3.26391e+12 -3.4765e+12 -3.79493e+12 -3.98612e+12 -4.02808e+12 -4.1728e+12 -4.28853e+12 -3.87376e+12 -3.88742e+12 -3.84536e+12 -3.40788e+12 -3.28641e+12 -2.89976e+12 -4.7424e+12 -4.56554e+12 -4.00245e+12 -3.97027e+12 -2.09756e+12 -1.39612e+12 -2.8689e+12 -2.38947e+12 -2.12056e+12 -2.81823e+12 -2.54594e+12 -3.32266e+12 -3.27622e+12 -3.59994e+12 -3.61715e+12 -3.61072e+12 -3.91648e+12 -3.8987e+12 -3.8612e+12 -3.81476e+12 -3.75567e+12 -3.71886e+12 -3.68539e+12 -3.64896e+12 -3.61646e+12 -3.46962e+12 -3.44876e+12 -3.42639e+12 -3.40229e+12 -3.3767e+12 -3.35006e+12 -3.3229e+12 -3.2958e+12 -3.26965e+12 -3.2456e+12 -3.22489e+12 -3.2085e+12 -3.19701e+12 -3.19061e+12 -3.18902e+12 -3.19169e+12 -3.19786e+12 -3.20681e+12 -3.21807e+12 -3.23138e+12 -3.24658e+12 -3.26347e+12 -3.48363e+12 -3.5078e+12 -3.53217e+12 -3.55605e+12 -3.57915e+12 -3.60244e+12 -3.62821e+12 -3.65881e+12 -3.6952e+12 -3.73882e+12 -3.79168e+12 -3.85371e+12 -3.46326e+12 -3.46782e+12 -3.61518e+12 -3.57341e+12 -3.70743e+12 -3.75675e+12 -3.74211e+12 -3.81773e+12 -3.48666e+12 -3.47292e+12 -2.92146e+12 -2.33234e+12 -4.19774e+12 -4.10215e+12 -3.62448e+12 -3.62263e+12 -3.24892e+12 -1.90574e+12 -1.26657e+12 -2.72641e+12 -2.72604e+12 -2.9551e+12 -3.31405e+12 -1.94193e+12 -2.79996e+12 -2.9424e+12 -3.28362e+12 -3.2982e+12 -3.3051e+12 -3.60844e+12 -3.60552e+12 -3.59008e+12 -3.56779e+12 -3.53594e+12 -3.50001e+12 -3.47694e+12 -3.59945e+12 -3.58825e+12 -3.57985e+12 -3.57143e+12 -3.56136e+12 -3.5498e+12 -3.53718e+12 -3.52317e+12 -3.50718e+12 -3.48918e+12 -3.22036e+12 -3.19703e+12 -3.17334e+12 -3.1499e+12 -3.12759e+12 -3.10745e+12 -3.0904e+12 -3.07714e+12 -3.06804e+12 -3.06316e+12 -3.06225e+12 -3.06477e+12 -3.07017e+12 -3.07795e+12 -3.2817e+12 -3.30081e+12 -3.32047e+12 -3.34059e+12 -3.36116e+12 -3.38189e+12 -3.40223e+12 -3.42232e+12 -3.44377e+12 -3.46919e+12 -3.5008e+12 -3.92264e+12 -3.999e+12 -4.08338e+12 -4.1451e+12 -2.82408e+12 -3.11097e+12 -2.93089e+12 -3.09636e+12 -3.33338e+12 -3.30519e+12 -3.43014e+12 -3.60864e+12 -3.4173e+12 -3.46063e+12 -3.11543e+12 -3.07245e+12 -2.30373e+12 -4.04468e+12 -3.62186e+12 -3.6473e+12 -3.24253e+12 -3.24785e+12 -2.87038e+12 -1.70727e+12 -1.5052e+12 -1.13105e+12 -2.26363e+12 -2.50984e+12 -2.47788e+12 -2.87412e+12 -3.62116e+12 -3.75162e+12 -1.89946e+12 -2.42289e+12 -2.97117e+12 -2.98117e+12 -2.99405e+12 -3.30182e+12 -3.30113e+12 -3.29953e+12 -3.29272e+12 -3.28042e+12 -3.45396e+12 -3.4299e+12 -3.40968e+12 -3.39794e+12 -3.39088e+12 -3.38604e+12 -3.38074e+12 -3.37389e+12 -3.36584e+12 -3.35671e+12 -3.34585e+12 -3.3328e+12 -3.31785e+12 -3.3014e+12 -3.28353e+12 -3.26404e+12 -3.24286e+12 -3.08777e+12 -3.09944e+12 -3.11274e+12 -3.12735e+12 -3.14281e+12 -3.1587e+12 -3.17485e+12 -3.19135e+12 -3.20829e+12 -3.22537e+12 -3.24217e+12 -3.53968e+12 -3.5867e+12 -3.64504e+12 -3.71985e+12 -3.82152e+12 -3.97297e+12 -4.23455e+12 -4.55482e+12 -2.83514e+12 -2.41872e+12 -2.45755e+12 -2.57891e+12 -3.07876e+12 -3.13788e+12 -3.24377e+12 -3.34415e+12 -3.08226e+12 -3.10932e+12 -2.78227e+12 -2.72937e+12 -3.11886e+12 -3.48608e+12 -3.04702e+12 -3.18302e+12 -2.85298e+12 -2.86059e+12 -2.49741e+12 -1.30598e+12 -845030000000.0 -991160000000.0 -2.00473e+12 -2.21898e+12 -2.49692e+12 -2.54906e+12 -3.07274e+12 -3.1697e+12 -3.40364e+12 -2.66649e+12 -2.6495e+12 -2.69192e+12 -2.69201e+12 -2.99821e+12 -2.99538e+12 -2.99565e+12 -2.99338e+12 -2.99429e+12 -3.26362e+12 -3.25485e+12 -3.24436e+12 -3.23042e+12 -3.21636e+12 -3.20489e+12 -3.19834e+12 -3.19545e+12 -3.19389e+12 -3.1915e+12 -3.1878e+12 -3.18311e+12 -3.17714e+12 -3.16915e+12 -3.159e+12 -3.14711e+12 -3.13377e+12 -3.11889e+12 -3.10231e+12 -3.08414e+12 -3.06482e+12 -3.04481e+12 -3.02455e+12 -3.00465e+12 -2.98597e+12 -2.96933e+12 -2.95539e+12 -2.94463e+12 -2.93731e+12 -2.9334e+12 -2.93266e+12 -2.9347e+12 -2.93909e+12 -2.94549e+12 -2.95366e+12 -2.96338e+12 -2.97435e+12 -2.98618e+12 -2.99844e+12 -3.01083e+12 -3.02331e+12 -3.03609e+12 -3.2593e+12 -3.27884e+12 -3.30317e+12 -3.33392e+12 -3.37154e+12 -3.41708e+12 -3.47521e+12 -3.55559e+12 -3.67743e+12 -3.88495e+12 -4.2746e+12 -4.73985e+12 -2.99078e+12 -3.30624e+12 -3.27034e+12 -2.98756e+12 -3.06351e+12 -2.91404e+12 -2.97334e+12 -3.03332e+12 -2.73242e+12 -2.76358e+12 -2.46933e+12 -2.51892e+12 -2.46154e+12 -2.59042e+12 -2.82817e+12 -2.68269e+12 -2.80338e+12 -2.43531e+12 -2.47115e+12 -2.09322e+12 -2.13521e+12 -1.11346e+12 -684046000000.0 -1.73216e+12 -1.95954e+12 -1.90675e+12 -2.18436e+12 -2.13686e+12 -2.56659e+12 -2.99634e+12 -2.55007e+12 -2.50103e+12 -2.46949e+12 -2.43407e+12 -2.69431e+12 -2.68914e+12 -2.68433e+12 -2.67467e+12 -2.99305e+12 -3.01636e+12 -3.02417e+12 -3.02107e+12 -3.01396e+12 -3.00714e+12 -3.00202e+12 -3.00033e+12 -3.00134e+12 -3.00284e+12 -3.00337e+12 -3.00289e+12 -3.00146e+12 -2.9984e+12 -2.9932e+12 -2.98604e+12 -2.97733e+12 -2.96715e+12 -2.95527e+12 -2.94163e+12 -2.92653e+12 -2.91044e+12 -2.89372e+12 -2.87678e+12 -2.86026e+12 -2.84489e+12 -2.83126e+12 -2.81986e+12 -2.811e+12 -2.80483e+12 -2.80133e+12 -2.80034e+12 -2.80154e+12 -2.80464e+12 -2.80939e+12 -2.81558e+12 -2.82294e+12 -2.83115e+12 -2.83982e+12 -2.84858e+12 -3.04935e+12 -3.06276e+12 -3.07598e+12 -3.09003e+12 -3.10704e+12 -3.12872e+12 -3.15584e+12 -3.18859e+12 -3.22784e+12 -3.27712e+12 -3.34267e+12 -3.43402e+12 -3.5597e+12 -3.65091e+12 -2.60577e+12 -2.93948e+12 -2.8511e+12 -2.86068e+12 -2.65266e+12 -2.6675e+12 -2.70428e+12 -2.33038e+12 -2.37623e+12 -2.21014e+12 -2.29088e+12 -2.32915e+12 -2.49807e+12 -2.34779e+12 -2.42377e+12 -2.03211e+12 -1.73164e+12 -1.79298e+12 -1.4808e+12 -931443000000.0 -759209000000.0 -507406000000.0 -1.43062e+12 -1.70143e+12 -1.68282e+12 -1.80639e+12 -2.06634e+12 -1.96634e+12 -2.4499e+12 -2.04715e+12 -2.20531e+12 -2.19783e+12 -2.417e+12 -2.39608e+12 -2.37373e+12 -2.3529e+12 -2.66999e+12 -2.67827e+12 -2.76006e+12 -2.79306e+12 -2.80346e+12 -2.80317e+12 -2.80141e+12 -2.80029e+12 -2.8006e+12 -2.80364e+12 -2.80835e+12 -2.81284e+12 -2.8164e+12 -2.81922e+12 -2.82091e+12 -2.82071e+12 -2.81844e+12 -2.81446e+12 -2.809e+12 -2.80193e+12 -2.79301e+12 -2.78235e+12 -2.77039e+12 -2.7575e+12 -2.74396e+12 -2.73021e+12 -2.71684e+12 -2.7044e+12 -2.69328e+12 -2.68379e+12 -2.67617e+12 -2.67055e+12 -2.66696e+12 -2.66527e+12 -2.66527e+12 -2.66675e+12 -2.66951e+12 -2.67332e+12 -2.85725e+12 -2.86592e+12 -2.87494e+12 -2.88447e+12 -2.8941e+12 -2.90363e+12 -2.91431e+12 -2.92794e+12 -2.9454e+12 -2.96735e+12 -2.99436e+12 -3.02603e+12 -3.0637e+12 -3.11488e+12 -3.18314e+12 -3.22624e+12 -2.95783e+12 -2.91755e+12 -2.97376e+12 -3.01284e+12 -2.64289e+12 -2.6015e+12 -2.62137e+12 -2.36379e+12 -2.31609e+12 -1.8928e+12 -2.10343e+12 -1.98876e+12 -2.16653e+12 -1.90195e+12 -2.11057e+12 -2.12063e+12 -1.97392e+12 -1.53019e+12 -1.65329e+12 -1.39706e+12 -1.20537e+12 -585701000000.0 -321516000000.0 -1.09418e+12 -1.08466e+12 -1.41003e+12 -1.40384e+12 -1.67834e+12 -1.59836e+12 -1.4342e+12 -1.78005e+12 -1.10854e+12 -1.57605e+12 -1.85899e+12 -2.16783e+12 -2.14845e+12 -2.12312e+12 -2.0751e+12 -2.31455e+12 -2.26373e+12 -2.4973e+12 -2.55726e+12 -2.57951e+12 -2.58532e+12 -2.58757e+12 -2.59079e+12 -2.63239e+12 -2.62477e+12 -2.61595e+12 -2.60618e+12 -2.59573e+12 -2.58504e+12 -2.57454e+12 -2.56457e+12 -2.55536e+12 -2.54712e+12 -2.54009e+12 -2.53443e+12 -2.53023e+12 -2.67793e+12 -2.683e+12 -2.68817e+12 -2.69318e+12 -2.69798e+12 -2.70274e+12 -2.7079e+12 -2.71362e+12 -2.71936e+12 -2.72497e+12 -2.73174e+12 -2.74101e+12 -2.75318e+12 -2.76921e+12 -2.78968e+12 -2.86354e+12 -2.73417e+12 -2.70053e+12 -2.65332e+12 -2.65869e+12 -2.67297e+12 -2.34338e+12 -2.35212e+12 -2.36859e+12 -2.04028e+12 -1.86489e+12 -1.76993e+12 -1.88053e+12 -1.65928e+12 -1.7745e+12 -2.31089e+12 -2.1576e+12 -1.53652e+12 -1.19134e+12 -1.30088e+12 -1.09937e+12 -958798000000.0 -422540000000.0 -113915000000.0 -341058000000.0 -730610000000.0 -726982000000.0 -1.08146e+12 -1.41444e+12 -1.44238e+12 -1.74017e+12 -1.9916e+12 -1.36563e+12 -1.4248e+12 -1.61494e+12 -1.87964e+12 -1.87655e+12 -1.86342e+12 -1.80979e+12 -2.03365e+12 -1.97628e+12 -1.81031e+12 -2.32585e+12 -2.34851e+12 -2.35862e+12 -2.3621e+12 -2.59475e+12 -2.60032e+12 -2.60799e+12 -2.61628e+12 -2.62389e+12 -2.63081e+12 -2.63701e+12 -2.64173e+12 -2.64445e+12 -2.64532e+12 -2.64465e+12 -2.64244e+12 -2.63839e+12 -2.52741e+12 -2.52583e+12 -2.52532e+12 -2.52569e+12 -2.52675e+12 -2.52822e+12 -2.52978e+12 -2.53115e+12 -2.53221e+12 -2.53296e+12 -2.53367e+12 -2.53488e+12 -2.53664e+12 -2.53829e+12 -2.81267e+12 -2.83669e+12 -2.86201e+12 -2.31199e+12 -2.28849e+12 -2.29143e+12 -2.33177e+12 -2.08434e+12 -2.10584e+12 -2.0968e+12 -1.73351e+12 -1.29101e+12 -1.43882e+12 -1.45167e+12 -1.53769e+12 -2.59455e+12 -2.57502e+12 -2.49214e+12 -2.03005e+12 -1.98291e+12 -1.28924e+12 -1.0544e+12 -835366000000.0 -967199000000.0 -690394000000.0 -845512000000.0 -633885000000.0 -698539000000.0 -265029000000.0 -348677000000.0 -726879000000.0 -1.10875e+12 -1.151e+12 -1.51823e+12 -2.2808e+12 -2.51928e+12 -1.16549e+12 -1.33073e+12 -1.64369e+12 -1.63562e+12 -1.61533e+12 -1.74225e+12 -1.68015e+12 -1.50202e+12 -2.27123e+12 -2.18628e+12 -2.36552e+12 -2.37226e+12 -2.38085e+12 -2.39035e+12 -2.40136e+12 -2.41342e+12 -2.42517e+12 -2.43623e+12 -2.44676e+12 -2.45629e+12 -2.46408e+12 -2.46998e+12 -2.47422e+12 -2.47692e+12 -2.47785e+12 -2.47671e+12 -2.47366e+12 -2.46911e+12 -2.46339e+12 -2.4567e+12 -2.44929e+12 -2.44149e+12 -2.4335e+12 -2.42544e+12 -2.41746e+12 -2.40977e+12 -2.40267e+12 -2.3964e+12 -2.39108e+12 -2.38669e+12 -2.38312e+12 -2.38023e+12 -2.37783e+12 -2.37572e+12 -2.37365e+12 -2.37134e+12 -2.36864e+12 -2.36554e+12 -2.36207e+12 -2.53969e+12 -2.54194e+12 -2.54591e+12 -2.55211e+12 -2.56171e+12 -2.57437e+12 -2.58536e+12 -2.58708e+12 -2.56783e+12 -2.49116e+12 -2.36448e+12 -1.91791e+12 -2.00052e+12 -2.05742e+12 -1.85006e+12 -1.86236e+12 -1.81406e+12 -1.32814e+12 -2.62355e+12 -2.59476e+12 -2.27846e+12 -2.23273e+12 -2.13457e+12 -1.79322e+12 -1.75236e+12 -716576000000.0 -738823000000.0 -463864000000.0 -500823000000.0 -322414000000.0 -464638000000.0 -162667000000.0 -87023800000.0 -343871000000.0 -303559000000.0 -738806000000.0 -882576000000.0 -1.13295e+12 -1.135e+12 -1.69905e+12 -1.87784e+12 -2.7437e+12 -2.21454e+12 -1.41161e+12 -1.39914e+12 -1.57244e+12 -1.48788e+12 -1.40569e+12 -1.23265e+12 -2.11709e+12 -2.14516e+12 -2.13247e+12 -2.13396e+12 -2.1436e+12 -2.15745e+12 -2.1722e+12 -2.18754e+12 -2.20371e+12 -2.21981e+12 -2.23518e+12 -2.25006e+12 -2.26433e+12 -2.27722e+12 -2.2883e+12 -2.29767e+12 -2.30544e+12 -2.31146e+12 -2.31537e+12 -2.31708e+12 -2.31699e+12 -2.31553e+12 -2.31294e+12 -2.30936e+12 -2.30496e+12 -2.2998e+12 -2.29383e+12 -2.28702e+12 -2.27951e+12 -2.27164e+12 -2.2638e+12 -2.25634e+12 -2.24942e+12 -2.24303e+12 -2.23706e+12 -2.23136e+12 -2.22575e+12 -2.22005e+12 -2.21402e+12 -2.35859e+12 -2.35567e+12 -2.35326e+12 -2.35052e+12 -2.34726e+12 -2.34432e+12 -2.34237e+12 -2.34181e+12 -2.34328e+12 -2.34516e+12 -2.33909e+12 -2.31179e+12 -2.25284e+12 -2.16951e+12 -1.85145e+12 -1.86751e+12 -1.63686e+12 -1.75214e+12 -1.81235e+12 -1.63234e+12 -1.61607e+12 -1.56821e+12 -2.20806e+12 -2.66513e+12 -2.29622e+12 -2.29668e+12 -1.89037e+12 -1.85177e+12 -1.45987e+12 -989354000000.0 -337619000000.0 -309631000000.0 -238443000000.0 -441500000000.0 -193937000000.0 -863436000000.0 -698172000000.0 -1.26442e+12 -1.98549e+12 -1.78349e+12 -1.57712e+12 -1.35392e+12 -1.2576e+12 -1.35103e+12 -1.26997e+12 -1.16507e+12 -994683000000.0 -2.00843e+12 -1.91946e+12 -1.88591e+12 -1.88735e+12 -1.90217e+12 -1.92267e+12 -1.94437e+12 -1.96554e+12 -1.98655e+12 -2.00727e+12 -2.02721e+12 -2.04658e+12 -2.06559e+12 -2.08363e+12 -2.10006e+12 -2.1148e+12 -2.12791e+12 -2.13924e+12 -2.1484e+12 -2.15511e+12 -2.15964e+12 -2.16256e+12 -2.16427e+12 -2.16494e+12 -2.16461e+12 -2.16317e+12 -2.1603e+12 -2.15569e+12 -2.14929e+12 -2.14139e+12 -2.13252e+12 -2.12329e+12 -2.11411e+12 -2.10514e+12 -2.09634e+12 -2.2075e+12 -2.20047e+12 -2.19296e+12 -2.18507e+12 -2.1772e+12 -2.16993e+12 -2.16303e+12 -2.15551e+12 -2.14707e+12 -2.13834e+12 -2.12962e+12 -2.12063e+12 -2.11129e+12 -2.0989e+12 -2.07368e+12 -2.0299e+12 -1.98503e+12 -1.94476e+12 -1.21888e+12 -1.42827e+12 -1.54262e+12 -1.60064e+12 -1.56086e+12 -1.724e+12 -2.09272e+12 -2.27236e+12 -1.89216e+12 -1.90525e+12 -1.513e+12 -1.49954e+12 -675118000000.0 -376140000000.0 -166129000000.0 -129460000000.0 -551832000000.0 -905869000000.0 -1.34921e+12 -1.15152e+12 -1.3987e+12 -1.17327e+12 -1.17498e+12 -1.09192e+12 -959862000000.0 -1.88293e+12 -1.79186e+12 -1.65168e+12 -1.60401e+12 -1.61662e+12 -1.64451e+12 -1.67533e+12 -1.70592e+12 -1.73442e+12 -1.76126e+12 -2.0105e+12 -2.01563e+12 -2.01991e+12 -2.02309e+12 -2.02449e+12 -2.02333e+12 -2.01914e+12 -2.08753e+12 -2.07855e+12 -2.06925e+12 -2.05949e+12 -2.04909e+12 -2.03802e+12 -2.02636e+12 -2.01419e+12 -2.00162e+12 -1.98913e+12 -1.97718e+12 -1.96537e+12 -1.95262e+12 -1.93853e+12 -1.92334e+12 -1.90647e+12 -1.88695e+12 -1.86425e+12 -1.83511e+12 -1.79498e+12 -1.75821e+12 -1.77426e+12 -1.91842e+12 -761186000000.0 -1.23434e+12 -1.42912e+12 -1.35828e+12 -1.42526e+12 -1.48705e+12 -1.75414e+12 -1.72578e+12 -1.84978e+12 -1.49292e+12 -1.51014e+12 -1.13692e+12 -1.18079e+12 -114038000000.0 -816142000000.0 -729745000000.0 -778785000000.0 -1.08694e+12 -998910000000.0 -921813000000.0 -807785000000.0 -779108000000.0 -1.60417e+12 -1.49811e+12 -1.39532e+12 -1.22474e+12 -1.30387e+12 -1.36564e+12 -1.78706e+12 -1.81185e+12 -1.83588e+12 -1.85967e+12 -1.88292e+12 -1.9049e+12 -1.9253e+12 -1.94408e+12 -1.96108e+12 -1.97583e+12 -1.98783e+12 -1.99714e+12 -2.00446e+12 -2.01207e+12 -2.00276e+12 -1.9921e+12 -1.98088e+12 -1.96956e+12 -1.95816e+12 -1.94649e+12 -1.93434e+12 -1.92157e+12 -1.90807e+12 -1.89376e+12 -1.87855e+12 -1.86255e+12 -1.84592e+12 -1.82877e+12 -1.81125e+12 -1.79384e+12 -1.51212e+12 -1.72118e+12 -895081000000.0 -1.13387e+12 -1.26914e+12 -1.18887e+12 -1.26306e+12 -1.34481e+12 -1.47984e+12 -1.54382e+12 -1.35785e+12 -1.4521e+12 -1.10978e+12 -1.13136e+12 -716015000000.0 -169627000000.0 -361892000000.0 -536553000000.0 -681313000000.0 -559133000000.0 -881812000000.0 -817348000000.0 -737446000000.0 -605000000000.0 -1.31664e+12 -1.19884e+12 -999701000000.0 -1.1839e+12 -1.41457e+12 -1.45684e+12 -1.494e+12 -1.52751e+12 -1.55875e+12 -1.58856e+12 -1.61749e+12 -1.64615e+12 -1.67461e+12 -1.70227e+12 -1.72861e+12 -1.75352e+12 -1.77671e+12 -1.79757e+12 -1.81535e+12 -1.8297e+12 -1.84135e+12 -1.8515e+12 -1.86098e+12 -1.87013e+12 -1.87871e+12 -1.88576e+12 -1.88969e+12 -1.88918e+12 -1.884e+12 -1.87489e+12 -1.8631e+12 -1.84996e+12 -1.8364e+12 -1.82265e+12 -1.80839e+12 -1.79333e+12 -1.77727e+12 -1.76012e+12 -1.74186e+12 -1.72247e+12 -1.70199e+12 -1.77685e+12 -1.75969e+12 -1.7413e+12 -1.72112e+12 -1.69858e+12 -1.67204e+12 -1.63995e+12 -1.60083e+12 -1.55231e+12 -1.49214e+12 -1.44517e+12 -1.63979e+12 -805982000000.0 -1.0009e+12 -1.11015e+12 -1.01661e+12 -1.08678e+12 -1.17762e+12 -1.33396e+12 -1.20123e+12 -1.00657e+12 -1.06873e+12 -746019000000.0 -714644000000.0 -131061000000.0 -450194000000.0 -751187000000.0 -657940000000.0 -562268000000.0 -668781000000.0 -519014000000.0 -1.03902e+12 -915546000000.0 -736827000000.0 -952927000000.0 -1.07242e+12 -1.14417e+12 -1.19959e+12 -1.24568e+12 -1.28564e+12 -1.32206e+12 -1.35694e+12 -1.39095e+12 -1.42466e+12 -1.45825e+12 -1.49148e+12 -1.52396e+12 -1.5555e+12 -1.5856e+12 -1.61336e+12 -1.63766e+12 -1.65763e+12 -1.67367e+12 -1.68737e+12 -1.70059e+12 -1.71435e+12 -1.72878e+12 -1.74283e+12 -1.75411e+12 -1.75947e+12 -1.75772e+12 -1.74961e+12 -1.73689e+12 -1.72168e+12 -1.70579e+12 -1.6899e+12 -1.67335e+12 -1.65568e+12 -1.63659e+12 -1.68063e+12 -1.65864e+12 -1.63613e+12 -1.61333e+12 -1.59066e+12 -1.56829e+12 -1.5455e+12 -1.52123e+12 -1.49449e+12 -1.4638e+12 -1.42683e+12 -1.38106e+12 -1.32284e+12 -1.24737e+12 -1.12292e+12 -992931000000.0 -963479000000.0 -1.31657e+12 -698197000000.0 -859108000000.0 -946711000000.0 -883307000000.0 -933982000000.0 -1.03704e+12 -878104000000.0 -657654000000.0 -730160000000.0 -400712000000.0 -472172000000.0 -306648000000.0 -397708000000.0 -620323000000.0 -371851000000.0 -479570000000.0 -444469000000.0 -425616000000.0 -788901000000.0 -632476000000.0 -816208000000.0 -983941000000.0 -780888000000.0 -872714000000.0 -938721000000.0 -992488000000.0 -1.03774e+12 -1.077e+12 -1.11632e+12 -1.15559e+12 -1.19473e+12 -1.23373e+12 -1.27217e+12 -1.31011e+12 -1.34866e+12 -1.38672e+12 -1.42271e+12 -1.45471e+12 -1.48103e+12 -1.50214e+12 -1.51894e+12 -1.53437e+12 -1.55149e+12 -1.57148e+12 -1.59363e+12 -1.61487e+12 -1.62976e+12 -1.63403e+12 -1.62816e+12 -1.61458e+12 -1.59667e+12 -1.61597e+12 -1.5938e+12 -1.57017e+12 -1.54511e+12 -1.51883e+12 -1.49163e+12 -1.46381e+12 -1.43556e+12 -1.40713e+12 -1.37893e+12 -1.35092e+12 -1.3224e+12 -1.29228e+12 -1.25909e+12 -1.22062e+12 -1.17415e+12 -1.11687e+12 -1.04465e+12 -958073000000.0 -872994000000.0 -535429000000.0 -1.2182e+12 -1.01429e+12 -592001000000.0 -713260000000.0 -779269000000.0 -829680000000.0 -624794000000.0 -512430000000.0 -645945000000.0 -700794000000.0 -372562000000.0 -423680000000.0 -307070000000.0 -137432000000.0 -205709000000.0 -429246000000.0 -300304000000.0 -611920000000.0 -450714000000.0 -535643000000.0 -623330000000.0 -644936000000.0 -794719000000.0 -602185000000.0 -677160000000.0 -738338000000.0 -787855000000.0 -1.57782e+12 -1.5599e+12 -1.54143e+12 -1.52154e+12 -1.49976e+12 -1.47592e+12 -1.44999e+12 -1.42209e+12 -1.39238e+12 -1.36102e+12 -1.32833e+12 -1.29473e+12 -1.26058e+12 -1.22616e+12 -1.19182e+12 -1.15789e+12 -1.1243e+12 -1.09037e+12 -1.055e+12 -917865000000.0 -851643000000.0 -762836000000.0 -754037000000.0 -524919000000.0 -780876000000.0 -891938000000.0 -558886000000.0 -603782000000.0 -630625000000.0 -372537000000.0 -366493000000.0 -603329000000.0 -345575000000.0 -140383000000.0 -156049000000.0 -98742000000.0 -78031900000.0 -138005000000.0 -282744000000.0 -239000000000.0 -313767000000.0 -372772000000.0 -424560000000.0 -448026000000.0 -477888000000.0 -590973000000.0 -825547000000.0 -865048000000.0 -909936000000.0 -955640000000.0 -1.00108e+12 -1.04516e+12 -1.08641e+12 -1.13045e+12 -1.17792e+12 -1.22456e+12 -1.26659e+12 -1.3001e+12 -1.32686e+12 -1.34803e+12 -1.3639e+12 -1.38073e+12 -1.40414e+12 -1.43475e+12 -1.46928e+12 -1.4978e+12 -1.51375e+12 -1.51276e+12 -1.49844e+12 -1.47623e+12 -1.45243e+12 -1.43253e+12 -1.41258e+12 -1.39097e+12 -1.36695e+12 -1.34023e+12 -1.31077e+12 -1.2787e+12 -1.24425e+12 -1.20768e+12 -1.1693e+12 -1.12954e+12 -1.01612e+12 -971393000000.0 -655169000000.0 -568034000000.0 -694951000000.0 -743878000000.0 -468937000000.0 -405796000000.0 -421453000000.0 -418257000000.0 -382989000000.0 -477033000000.0 -104466000000.0 -109855000000.0 -79737700000.0 -131295000000.0 -265707000000.0 -250390000000.0 -239902000000.0 -258136000000.0 -274798000000.0 -436388000000.0 -489295000000.0 -544703000000.0 -571244000000.0 -605978000000.0 -647955000000.0 -704986000000.0 -760085000000.0 -812490000000.0 -854907000000.0 -898980000000.0 -953198000000.0 -1.01608e+12 -1.07383e+12 -1.11567e+12 -1.14814e+12 -1.17434e+12 -1.19415e+12 -1.20482e+12 -1.22301e+12 -1.25975e+12 -1.31292e+12 -1.36105e+12 -1.39281e+12 -1.40766e+12 -1.3934e+12 -1.36355e+12 -1.32905e+12 -1.30724e+12 -1.28647e+12 -1.26386e+12 -1.23824e+12 -1.20914e+12 -1.17649e+12 -1.08891e+12 -1.04791e+12 -1.00692e+12 -966430000000.0 -926831000000.0 -888120000000.0 -849840000000.0 -810802000000.0 -768086000000.0 -720236000000.0 -663893000000.0 -594212000000.0 -582116000000.0 -460237000000.0 -435807000000.0 -463567000000.0 -505857000000.0 -348802000000.0 -224383000000.0 -215599000000.0 -263008000000.0 -282409000000.0 -88290100000.0 -96836900000.0 -90874700000.0 -87190900000.0 -294290000000.0 -398108000000.0 -284976000000.0 -342665000000.0 -320410000000.0 -342064000000.0 -376171000000.0 -422499000000.0 -510002000000.0 -579846000000.0 -618781000000.0 -659149000000.0 -706113000000.0 -782333000000.0 -878298000000.0 -930272000000.0 -967303000000.0 -998102000000.0 -1.02299e+12 -1.03854e+12 -1.03114e+12 -1.05292e+12 -1.1365e+12 -1.21642e+12 -1.2683e+12 -1.30274e+12 -1.31547e+12 -1.26812e+12 -1.20531e+12 -1.18243e+12 -1.14042e+12 -1.10124e+12 -1.05932e+12 -1.01502e+12 -968795000000.0 -921218000000.0 -872921000000.0 -824526000000.0 -776631000000.0 -729940000000.0 -685104000000.0 -642472000000.0 -601959000000.0 -562250000000.0 -517957000000.0 -470464000000.0 -422038000000.0 -423279000000.0 -348208000000.0 -480412000000.0 -432641000000.0 -264418000000.0 -258982000000.0 -292717000000.0 -231347000000.0 -242330000000.0 -76922900000.0 -87544200000.0 -244453000000.0 -83654100000.0 -88746500000.0 -93214500000.0 -101732000000.0 -227198000000.0 -168181000000.0 -101036000000.0 -94311300000.0 -102225000000.0 -1.16217e+12 -1.13981e+12 -1.11358e+12 -1.08282e+12 -1.04745e+12 -1.00767e+12 -963831000000.0 -916433000000.0 -865990000000.0 -812994000000.0 -758040000000.0 -701846000000.0 -645182000000.0 -588870000000.0 -533833000000.0 -481203000000.0 -432194000000.0 -387938000000.0 -349141000000.0 -314204000000.0 -266972000000.0 -253937000000.0 -256701000000.0 -228305000000.0 -281755000000.0 -273107000000.0 -269881000000.0 -89569200000.0 -84475200000.0 -105483000000.0 -76597800000.0 -75754000000.0 -78182400000.0 -91532100000.0 -98533600000.0 -128786000000.0 -180221000000.0 -378923000000.0 -385102000000.0 -415190000000.0 -448776000000.0 -498447000000.0 -654076000000.0 -751745000000.0 -783266000000.0 -816704000000.0 -847909000000.0 -872127000000.0 -875821000000.0 -796583000000.0 -902718000000.0 -1.05884e+12 -1.13398e+12 -1.19032e+12 -1.22845e+12 -1.24604e+12 -1.06951e+12 -1.05275e+12 -1.03716e+12 -1.01777e+12 -992693000000.0 -961419000000.0 -924011000000.0 -880863000000.0 -832507000000.0 -779550000000.0 -722681000000.0 -662555000000.0 -599804000000.0 -535173000000.0 -94686200000.0 -93173800000.0 -94835400000.0 -88317700000.0 -120004000000.0 -163609000000.0 -183744000000.0 -177240000000.0 -127122000000.0 -105337000000.0 -153882000000.0 -206997000000.0 -264593000000.0 -326710000000.0 -390878000000.0 -404052000000.0 -348714000000.0 -270279000000.0 -202211000000.0 -143610000000.0 -95028600000.0 -469499000000.0 -403731000000.0 -339001000000.0 -276737000000.0 -218808000000.0 -167579000000.0 -126113000000.0 -98292900000.0 -87922700000.0 -87296100000.0 -86973500000.0 -83378300000.0 
SCALARS Shear_Stress float 1
LOOKUP_TABLE default
26149800000.0 24978300000.0 24436200000.0 34341200000.0 22966300000.0 17765800000.0 18839700000.0 14833300000.0 47942200000.0 25173100000.0 160521000.0 871849000.0 31151400000.0 32491000000.0 3390790000.0 7771950000.0 56135000000.0 62729000000.0 49726600000.0 57220100000.0 41809200000.0 99710300000.0 25759700000.0 17257600000.0 23403100000.0 19965400000.0 28924500000.0 25662900000.0 13358200000.0 31730100000.0 313953000.0 28297700000.0 26404600000.0 31947800000.0 74522500000.0 33643500000.0 69456700000.0 27842900000.0 51924500000.0 58175500000.0 73024500000.0 11819500000.0 140019000000.0 38724400000.0 99606200000.0 43512500.0 15900500000.0 33941600000.0 38309800000.0 47792800000.0 37918300000.0 78763900000.0 96798600000.0 82801800000.0 115740000000.0 8752570000.0 32109700000.0 76073800000.0 49878500000.0 19039000000.0 38571800000.0 103077000000.0 25636700000.0 31611000000.0 45573500000.0 49120900000.0 53866800000.0 13483900000.0 63422600000.0 120935000000.0 146455000000.0 9050400000.0 62947100000.0 109682000000.0 59138500000.0 17280600000.0 251662000000.0 334646000.0 56990900000.0 85366500000.0 60964600000.0 83749000000.0 64605700000.0 79148000000.0 62849100000.0 58743300000.0 29741400000.0 4610300000.0 43247600000.0 103064000000.0 121289000000.0 167598000000.0 149285000000.0 149181000000.0 125934000000.0 158545000000.0 3613000000.0 52900700000.0 35154600000.0 81972300000.0 51118400000.0 104952000000.0 105858000000.0 98888800000.0 83939300000.0 36494300000.0 64928600000.0 171860000000.0 179306000000.0 256852000000.0 203177000000.0 205174000000.0 22807500000.0 88688900000.0 195182000000.0 195870000000.0 218588000000.0 208257000.0 181067000000.0 123525000000.0 122393000000.0 128930000000.0 119738000000.0 107213000000.0 76529000000.0 444823000.0 145331000000.0 249452000000.0 300223000000.0 34336600000.0 94344700000.0 262156000000.0 245541000000.0 165093000000.0 31671100000.0 152191000000.0 152594000000.0 140144000000.0 127668000000.0 107993000000.0 100872000000.0 57251800000.0 29688500000.0 50882800000.0 103626000000.0 240220000000.0 326724000000.0 180636000000.0 211604000000.0 322356000000.0 36093100000.0 245149000000.0 118816000000.0 119657000000.0 116846000000.0 139922000000.0 197211000000.0 178165000000.0 185496000000.0 161261000000.0 157934000000.0 144406000000.0 145963000000.0 131145000000.0 130411000000.0 86965800000.0 1226600000.0 127866000000.0 319358000000.0 361109000000.0 340543000000.0 229344000000.0 107051000000.0 137340000000.0 262277000000.0 370161000000.0 60823300000.0 310801000000.0 114793000000.0 215001000000.0 213464000000.0 170719000000.0 152647000000.0 146595000000.0 125268000000.0 70252000000.0 10386500000.0 140418000000.0 451360000000.0 167898000000.0 147563000000.0 104868000000.0 318473000000.0 256779000000.0 237489000000.0 257653000000.0 186812000000.0 152629000000.0 149710000000.0 146073000000.0 116025000000.0 57122700000.0 25326700000.0 121218000000.0 285717000000.0 349659000000.0 270429000000.0 343816000000.0 432439000000.0 488392000000.0 199670000000.0 534450000000.0 344429000000.0 243763000000.0 209230000000.0 153006000000.0 149555000000.0 119975000000.0 140230000000.0 135629000000.0 149638000000.0 150509000000.0 142848000000.0 134525000000.0 103850000000.0 86589100000.0 43333800000.0 27571300000.0 29923300000.0 5285770000.0 88726300000.0 137474000000.0 245641000000.0 46696300000.0 455766000000.0 250502000000.0 230274000000.0 337988000000.0 617101000000.0 292718000000.0 158010000000.0 94535300000.0 104206000000.0 137221000000.0 148270000000.0 117432000000.0 62734800000.0 24171500000.0 56705600000.0 59088900000.0 392638000000.0 179667000000.0 169941000000.0 197919000000.0 305773000000.0 159962000000.0 86396500000.0 56937000000.0 101418000000.0 140789000000.0 136405000000.0 88289400000.0 37237600000.0 39081300000.0 280415000000.0 54582800000.0 160248000000.0 19730700000.0 167725000000.0 23871800000.0 259209000000.0 194218000000.0 77301700000.0 25627300000.0 70903500000.0 5227530000.0 662694000.0 40654900000.0 42453100000.0 45901100000.0 107667000000.0 116342000000.0 138932000000.0 119928000000.0 108640000000.0 61345800000.0 47622900000.0 3135370000.0 17607200000.0 9671830000.0 88083300000.0 6487290000.0 337253000000.0 565309000000.0 331705000000.0 289645000000.0 386834000000.0 327823000000.0 103560000000.0 154279000000.0 47402100000.0 62629300000.0 114524000000.0 75886400000.0 3255720000.0 35750700000.0 47109100000.0 406976000000.0 684135000000.0 408009000000.0 429666000000.0 116586000000.0 83529900000.0 222331000000.0 389208000000.0 463671000000.0 163391000000.0 184967000000.0 24351600000.0 78014400000.0 82677000000.0 3898620000.0 90495500000.0 68219300000.0 120089000000.0 81541100000.0 120933000000.0 110544000000.0 435871000000.0 743717000000.0 484469000000.0 531499000000.0 490491000000.0 499020000000.0 358718000000.0 161403000000.0 80034400000.0 328240000000.0 571010000000.0 458055000000.0 319976000000.0 145867000000.0 97750400000.0 5988470000.0 26208100000.0 74323200000.0 15416500000.0 14289500000.0 89825000000.0 167597000000.0 143938000000.0 133563000000.0 512332000000.0 561600000000.0 444424000000.0 260041000000.0 512271000000.0 573046000000.0 224249000000.0 55272400000.0 13653600000.0 93312900000.0 220294000000.0 190619000000.0 131597000000.0 434897000000.0 738507000000.0 502397000000.0 603372000000.0 323175000000.0 96316800000.0 455492000000.0 496140000000.0 282012000000.0 302523000000.0 299938000000.0 350555000000.0 233716000000.0 154759000000.0 39172300000.0 113540000000.0 310988000000.0 241714000000.0 426079000000.0 276148000000.0 169217000000.0 141423000000.0 82749700000.0 101473000000.0 409213000000.0 687600000000.0 433823000000.0 370830000000.0 471432000000.0 417232000000.0 679325000000.0 645320000000.0 242616000000.0 210027000000.0 129605000000.0 227263000000.0 157482000000.0 110748000000.0 129861000000.0 70141300000.0 355078000000.0 634307000000.0 215074000000.0 64922600000.0 31546800000.0 307034000000.0 267568000000.0 283892000000.0 80310800000.0 49013200000.0 144110000000.0 161883000000.0 95623900000.0 229060000000.0 752075000000.0 265578000000.0 42284000000.0 6593520000.0 368810000000.0 623148000000.0 185688000000.0 214601000000.0 90404800000.0 100758000000.0 49958900000.0 61422700000.0 753276000000.0 194372000000.0 218472000000.0 53134500000.0 82905100000.0 15983900000.0 11213500000.0 109778000000.0 58508800000.0 91731900000.0 28762600000.0 107761000000.0 379959000000.0 705825000000.0 41740800000.0 214214000000.0 130920000000.0 6658350000.0 120715000000.0 54206700000.0 105468000000.0 54062400000.0 327180000000.0 570095000000.0 98163000000.0 24098400000.0 143792000000.0 571253000000.0 199343000000.0 96240400000.0 26734000000.0 30642800000.0 81956600000.0 209469000000.0 215879000000.0 218670000000.0 168134000000.0 132436000000.0 100945000000.0 16240800000.0 68091000000.0 189193000000.0 274864000000.0 360153000000.0 275226000000.0 188215000000.0 193019000000.0 115844000000.0 109659000000.0 240447000000.0 803347000000.0 553174000000.0 289085000000.0 268024000000.0 299436000000.0 297309000000.0 242394000000.0 185195000000.0 297231000000.0 540842000000.0 59107100000.0 43823800000.0 8819440000.0 24653500000.0 6168300000.0 26679700000.0 88693100000.0 257475000000.0 248121000000.0 226281000000.0 177381000000.0 309736000000.0 290381000000.0 881601000000.0 911765000000.0 322715000000.0 240247000000.0 309787000000.0 302376000000.0 286723000000.0 241597000000.0 228502000000.0 186395000000.0 288351000000.0 536036000000.0 32026500000.0 7897360000.0 4712090000.0 165063000000.0 248036000000.0 257423000000.0 307242000000.0 590161000000.0 482838000000.0 403430000000.0 166383000000.0 248293000000.0 296528000000.0 262242000000.0 206730000000.0 548511000000.0 47662900000.0 38395500000.0 23665100000.0 24757800000.0 14216100000.0 3055970000.0 58950400000.0 120780000000.0 196295000000.0 220805000000.0 255960000000.0 282646000000.0 300279000000.0 449632000000.0 577277000000.0 212408000000.0 153251000000.0 77839800000.0 151079000000.0 168474000000.0 254016000000.0 245881000000.0 272629000000.0 239907000000.0 230616000000.0 191274000000.0 305645000000.0 51114200000.0 36032700000.0 18772800000.0 49789700000.0 163916000000.0 248287000000.0 324175000000.0 374270000000.0 410344000000.0 487976000000.0 390684000000.0 320007000000.0 72891500000.0 79326200000.0 181712000000.0 224727000000.0 196883000000.0 350387000000.0 570097000000.0 47892800000.0 32227100000.0 5841480000.0 101474000000.0 199776000000.0 279159000000.0 350402000000.0 370656000000.0 220501000000.0 137718000000.0 38606300000.0 28728000000.0 99791200000.0 180503000000.0 188590000000.0 143082000000.0 595286000000.0 59110500000.0 56686400000.0 44551600000.0 35817400000.0 18585000000.0 8421850000.0 46911800000.0 91052600000.0 144662000000.0 180500000000.0 231299000000.0 253618000000.0 300437000000.0 296839000000.0 334872000000.0 271651000000.0 91653300000.0 1247260000.0 31171000000.0 46346500000.0 114852000000.0 114911000000.0 161534000000.0 119699000000.0 135322000000.0 66524400000.0 421149000000.0 67729200000.0 50742700000.0 17930900000.0 45022500000.0 129899000000.0 207006000000.0 258680000000.0 262851000000.0 275957000000.0 190743000000.0 151269000000.0 55482600000.0 14762400000.0 3572790000.0 56833900000.0 93520100000.0 52021800000.0 516153000000.0 621688000000.0 76083400000.0 64367500000.0 56019900000.0 38398600000.0 18343900000.0 9332680000.0 42276000000.0 83008800000.0 116372000000.0 160770000000.0 180860000000.0 220019000000.0 241853000000.0 204801000000.0 100403000000.0 8130990000.0 21593900000.0 35086700000.0 1929610000.0 4658400000.0 53199000000.0 39628100000.0 36228400000.0 634656000000.0 648592000000.0 71514300000.0 41331800000.0 8357100000.0 75322900000.0 141908000000.0 187944000000.0 216399000000.0 196392000000.0 204945000000.0 154397000000.0 134536000000.0 25095400000.0 45921300000.0 40166800000.0 4413430000.0 25542600000.0 49739100000.0 51458800000.0 166817000000.0 84399400000.0 61389700000.0 20218600000.0 38503900000.0 104097000000.0 157507000000.0 181697000000.0 163502000000.0 97799000000.0 63750200000.0 1494920000.0 31203000000.0 72852600000.0 68758400000.0 45847100000.0 38483300000.0 178668000000.0 776868000000.0 676004000000.0 93170400000.0 78847300000.0 67504600000.0 45223700000.0 23467600000.0 5867800000.0 34332000000.0 68147200000.0 94178400000.0 126017000000.0 139832000000.0 162439000000.0 157583000000.0 164020000000.0 122798000000.0 41608800000.0 51255800000.0 107183000000.0 85405800000.0 100092000000.0 58500200000.0 90837800000.0 149411000000.0 339406000000.0 330784000000.0 942431000000.0 704129000000.0 86949900000.0 50306700000.0 2466050000.0 62352500000.0 114777000000.0 145604000000.0 145132000000.0 138312000000.0 108474000000.0 79227900000.0 36602700000.0 10201000000.0 58091300000.0 99098100000.0 139896000000.0 111673000000.0 264717000000.0 537078000000.0 733115000000.0 102820000000.0 96200400000.0 74754900000.0 56653300000.0 27844200000.0 1292660000.0 30568600000.0 58813800000.0 87744900000.0 109235000000.0 129263000000.0 144533000000.0 127994000000.0 78114800000.0 2740740000.0 106124000000.0 149706000000.0 213103000000.0 170911000000.0 114845000000.0 413291000000.0 551134000000.0 788968000000.0 1.12519e+12 9035750000.0 113576000000.0 83358800000.0 33147800000.0 27857100000.0 85621400000.0 126374000000.0 137953000000.0 141903000000.0 138587000000.0 130177000000.0 109334000000.0 92169800000.0 50202800000.0 38387200000.0 160402000000.0 301172000000.0 185344000000.0 96599000000.0 833841000000.0 1.29343e+12 762931000000.0 125418000000.0 106771000000.0 93425700000.0 64317900000.0 39362600000.0 5085920000.0 58131300000.0 109994000000.0 139372000000.0 142639000000.0 121934000000.0 79690000000.0 27561600000.0 13167300000.0 70688100000.0 98327700000.0 227626000000.0 309557000000.0 424275000000.0 710784000000.0 1.20057e+12 1.00522e+12 1.2325e+12 793274000000.0 118623000000.0 73419700000.0 8948890000.0 26495100000.0 60515400000.0 88301300000.0 117443000000.0 131448000000.0 149862000000.0 148876000000.0 155799000000.0 141997000000.0 116633000000.0 75924700000.0 11823300000.0 113316000000.0 389417000000.0 384110000000.0 1.3345e+12 672245000000.0 9035750000.0 823511000000.0 138028000000.0 131493000000.0 104977000000.0 46735000000.0 26320100000.0 95941200000.0 144883000000.0 165308000000.0 161165000000.0 141988000000.0 145020000000.0 117752000000.0 130305000000.0 86557000000.0 120155000000.0 33284300000.0 87523200000.0 319695000000.0 822883000000.0 635202000000.0 152621000000.0 1.00597e+12 150774000000.0 117933000000.0 84164500000.0 55788800000.0 13339700000.0 26644800000.0 65683100000.0 108220000000.0 131818000000.0 167261000000.0 170080000000.0 177882000000.0 166069000000.0 154397000000.0 161639000000.0 189688000000.0 94147100000.0 235828000000.0 79791300000.0 977385000000.0 207953000000.0 129348000000.0 836825000000.0 852699000000.0 144882000000.0 96829100000.0 19147200000.0 72757400000.0 152913000000.0 201407000000.0 192474000000.0 211247000000.0 187495000000.0 193663000000.0 171796000000.0 180692000000.0 175464000000.0 222679000000.0 304351000000.0 623881000000.0 46268800000.0 113220000000.0 79641000000.0 9035750000.0 879702000000.0 162713000000.0 158068000000.0 132103000000.0 111739000000.0 67325100000.0 27661300000.0 26258900000.0 80285800000.0 124149000000.0 198731000000.0 233292000000.0 224951000000.0 195472000000.0 197048000000.0 216551000000.0 290723000000.0 326153000000.0 450796000000.0 485784000000.0 399966000000.0 387592000000.0 116183000000.0 277739000000.0 41943200000.0 86214300000.0 822455000000.0 172642000000.0 147163000000.0 82399700000.0 23531400000.0 142067000000.0 179704000000.0 238248000000.0 244652000000.0 289653000000.0 261660000000.0 284514000000.0 230752000000.0 192122000000.0 229242000000.0 413622000000.0 414229000000.0 102224000000.0 346473000000.0 262245000000.0 963274000000.0 903240000000.0 179283000000.0 170076000000.0 162606000000.0 129181000000.0 102223000000.0 40503500000.0 16674700000.0 86422800000.0 210300000000.0 298682000000.0 332559000000.0 298604000000.0 223742000000.0 195134000000.0 183496000000.0 172842000000.0 293707000000.0 458255000000.0 192340000000.0 234330000000.0 404331000000.0 305439000000.0 1.11797e+12 921826000000.0 179781000000.0 149227000000.0 59376100000.0 89375400000.0 159984000000.0 242442000000.0 283549000000.0 360476000000.0 359960000000.0 371756000000.0 298828000000.0 128624000000.0 174803000000.0 420390000000.0 420586000000.0 283618000000.0 9484800000.0 97766000000.0 344482000000.0 422229000000.0 500892000000.0 459709000000.0 933839000000.0 181394000000.0 186342000000.0 177605000000.0 171682000000.0 128159000000.0 85864600000.0 4053310000.0 176158000000.0 332018000000.0 439690000000.0 420918000000.0 479982000000.0 405051000000.0 430060000000.0 277525000000.0 222896000000.0 6303430000.0 344184000000.0 88288000000.0 259167000000.0 481316000000.0 554940000000.0 1.23467e+12 178737000000.0 190976000000.0 161500000000.0 14575000000.0 88276000000.0 190451000000.0 274681000000.0 426676000000.0 519219000000.0 535127000000.0 445710000000.0 116571000000.0 248018000000.0 368361000000.0 287903000000.0 142960000000.0 201202000000.0 315835000000.0 407738000000.0 501303000000.0 552924000000.0 605084000000.0 1.31781e+12 938831000000.0 171524000000.0 190048000000.0 200822000000.0 194608000000.0 204790000000.0 120878000000.0 83682500000.0 306983000000.0 381952000000.0 494989000000.0 523850000000.0 619806000000.0 596250000000.0 667173000000.0 584780000000.0 456778000000.0 111187000000.0 54012500000.0 192844000000.0 406400000000.0 564079000000.0 1.37907e+12 939864000000.0 194871000000.0 213700000000.0 163779000000.0 38766400000.0 80846200000.0 205135000000.0 434008000000.0 608701000000.0 709126000000.0 728844000000.0 629720000000.0 673223000000.0 475180000000.0 660287000000.0 103898000000.0 866564000000.0 3139920000.0 34212200000.0 267253000000.0 353459000000.0 479764000000.0 544445000000.0 625738000000.0 1.43455e+12 941926000000.0 166560000000.0 206181000000.0 205953000000.0 214219000000.0 257832000000.0 212629000000.0 62030500000.0 225825000000.0 343255000000.0 489793000000.0 564548000000.0 716200000000.0 786155000000.0 778505000000.0 758412000000.0 452142000000.0 1.38061e+12 650908000000.0 163836000000.0 431705000000.0 638694000000.0 172203000000.0 202625000000.0 328820000000.0 79315700000.0 84337600000.0 388443000000.0 634412000000.0 690391000000.0 802027000000.0 810022000000.0 882852000000.0 845330000000.0 882677000000.0 824363000000.0 759432000000.0 645571000000.0 281654000000.0 276614000000.0 632014000000.0 208998000000.0 76811200000.0 286711000000.0 382954000000.0 509082000000.0 679209000000.0 1.50632e+12 947552000000.0 218804000000.0 238726000000.0 188886000000.0 176878000000.0 420007000000.0 260101000000.0 117458000000.0 264283000000.0 451645000000.0 552875000000.0 764240000000.0 890828000000.0 927093000000.0 848240000000.0 512138000000.0 246920000000.0 353938000000.0 338298000000.0 50364500000.0 253021000000.0 474887000000.0 1.62506e+12 983162000000.0 337957000000.0 43377400000.0 261731000000.0 56052600000.0 198256000000.0 334415000000.0 625467000000.0 702554000000.0 817879000000.0 868177000000.0 948722000000.0 912964000000.0 694199000000.0 302448000000.0 272381000000.0 162433000000.0 160669000000.0 286064000000.0 364331000000.0 464510000000.0 808859000000.0 1.82576e+12 1.07893e+12 378490000000.0 690258000000.0 183822000000.0 514167000000.0 492345000000.0 201027000000.0 29188800000.0 463438000000.0 543108000000.0 751216000000.0 905397000000.0 942697000000.0 969444000000.0 954198000000.0 882237000000.0 817429000000.0 671219000000.0 495669000000.0 363015000000.0 265619000000.0 123610000000.0 73771200000.0 218078000000.0 361275000000.0 1.12557e+12 887914000000.0 622555000000.0 21119900000.0 643537000000.0 301877000000.0 385454000000.0 612047000000.0 680354000000.0 770745000000.0 841324000000.0 956655000000.0 918725000000.0 770268000000.0 509994000000.0 328022000000.0 295617000000.0 95046300000.0 128828000000.0 273010000000.0 243580000000.0 415154000000.0 1.59158e+12 2.19607e+12 2.08544e+12 1.33303e+12 828851000000.0 1.74081e+12 427401000000.0 180025000000.0 450408000000.0 542073000000.0 706372000000.0 824419000000.0 905051000000.0 937410000000.0 784214000000.0 642022000000.0 472394000000.0 422647000000.0 400523000000.0 392260000000.0 208283000000.0 27872300000.0 290862000.0 814883000000.0 825789000000.0 2.1791e+12 1.02794e+12 521162000000.0 479814000000.0 325177000000.0 1.15493e+12 195840000000.0 37469700000.0 304650000000.0 405761000000.0 561264000000.0 646119000000.0 718580000000.0 757305000000.0 863351000000.0 932430000000.0 848561000000.0 808221000000.0 575492000000.0 668609000000.0 541321000000.0 413543000000.0 396122000000.0 403541000000.0 5063020000.0 61138300000.0 468271000000.0 96068100000.0 631417000000.0 437132000000.0 1.59351e+12 1.71132e+12 465491000000.0 675465000000.0 331312000000.0 244733000000.0 906174000000.0 249505000000.0 56890800000.0 141217000000.0 542834000000.0 676593000000.0 716388000000.0 754162000000.0 879126000000.0 589010000000.0 486349000000.0 261381000000.0 187516000000.0 470342000000.0 538400000000.0 98603900000.0 452190000000.0 763538000000.0 719641000000.0 901163000000.0 123074000000.0 28533400000.0 906922000000.0 78684700000.0 808856000000.0 292269000000.0 121840000000.0 942201000000.0 1.11185e+12 225302000000.0 141324000000.0 311341000000.0 710038000000.0 775197000000.0 596753000000.0 765680000000.0 703098000000.0 173177000000.0 151527000000.0 341079000000.0 259547000000.0 226273000000.0 52343700000.0 753530000000.0 569432000000.0 161737000000.0 376080000000.0 208813000000.0 506527000000.0 281688000000.0 470824000000.0 578997000000.0 415693000000.0 287759000000.0 1.09434e+12 888711000000.0 239817000000.0 112015000000.0 456120000000.0 1.23839e+12 359943000000.0 823778000000.0 533059000000.0 270926000000.0 276211000000.0 461244000000.0 922854000000.0 764853000000.0 515343000000.0 803510000000.0 487121000000.0 257627000000.0 375922000000.0 503374000000.0 386839000000.0 505660000000.0 526237000000.0 251760000000.0 31829600000.0 507423000000.0 416698000000.0 438580000000.0 35609500000.0 372331000000.0 224503000000.0 100288000000.0 705876000000.0 699372000000.0 408444000000.0 1.06012e+12 251054000000.0 487715000000.0 435340000000.0 134185000000.0 245629000000.0 341586000000.0 465720000000.0 588707000000.0 414620000000.0 295739000000.0 357706000000.0 600114000000.0 1.0828e+12 546057000000.0 570773000000.0 353521000000.0 22831600000.0 290744000000.0 160012000000.0 1.10369e+12 568547000000.0 574087000000.0 217276000000.0 377822000000.0 117839000000.0 60475500000.0 192651000000.0 384324000000.0 288350000000.0 801913000000.0 536684000000.0 586846000000.0 298913000000.0 159833000000.0 462468000000.0 389239000000.0 254849000000.0 150953000000.0 852116000000.0 726597000000.0 72545800000.0 103340000000.0 377008000000.0 433522000000.0 347072000000.0 275394000000.0 373036000000.0 725808000000.0 645706000000.0 85343700000.0 1573670000.0 242614000000.0 659283000000.0 2.00542e+12 1.07172e+12 339473000000.0 631408000000.0 1.58524e+12 281455000000.0 356624000000.0 982849000000.0 584316000000.0 368291000000.0 28373600000.0 70276100000.0 4831400000.0 530467000000.0 630303000000.0 418289000000.0 1235750000.0 87519900000.0 330976000000.0 516041000000.0 330004000000.0 317487000000.0 159263000000.0 324405000000.0 446213000000.0 12966200000.0 139300000000.0 48428900000.0 148636000000.0 308466000000.0 333931000000.0 287641000000.0 238978000000.0 348868000000.0 698476000000.0 176699000000.0 859090000000.0 826737000000.0 52442800000.0 856708000000.0 362494000000.0 285010000000.0 300295000000.0 474377000000.0 462919000000.0 268815000000.0 391551000000.0 250575000000.0 107137000000.0 663772000000.0 103375000000.0 9434050000.0 646437000000.0 171038000000.0 97373800000.0 686933000000.0 273674000000.0 680766000000.0 390123000000.0 441673000000.0 101076000000.0 122620000000.0 1.09149e+12 617038000000.0 254021000000.0 45658900000.0 24355500000.0 168273000000.0 235622000000.0 255085000000.0 234152000000.0 385773000000.0 750260000000.0 1.43732e+12 208004000000.0 1.22086e+12 91474400000.0 202921000000.0 468768000000.0 161681000000.0 1.52633e+12 591206000000.0 1.17105e+12 505666000000.0 457875000000.0 590861000000.0 312163000000.0 260504000000.0 152880000000.0 76281000000.0 328169000000.0 60359200000.0 267381000000.0 460728000000.0 275065000000.0 507179000000.0 611028000000.0 149010000000.0 567885000000.0 184737000000.0 414151000000.0 155663000000.0 211494000000.0 502593000000.0 398230000000.0 697369000000.0 293409000000.0 267744000000.0 271794000000.0 177857000000.0 99685400000.0 173025000000.0 69116800000.0 31562400000.0 147923000000.0 132822000000.0 206311000000.0 242800000000.0 270130000000.0 459329000000.0 1.10021e+12 444847000000.0 610288000000.0 546529000000.0 275311000000.0 42997300000.0 917490000000.0 172791000000.0 1.02472e+12 762356000000.0 1.06673e+12 645391000000.0 429822000000.0 380154000000.0 255948000000.0 105992000000.0 146154000000.0 8970390000.0 34370600000.0 12704800000.0 572711000000.0 226272000000.0 204758000000.0 348227000000.0 31096100000.0 83120500000.0 144426000000.0 648349000000.0 818066000000.0 149602000000.0 207424000000.0 178404000000.0 223215000000.0 22442100000.0 489583000000.0 37689900000.0 416144000000.0 413628000000.0 779834000000.0 753969000000.0 885955000000.0 390744000000.0 331462000000.0 128621000000.0 54416500000.0 33366800000.0 139070000000.0 214706000000.0 270691000000.0 321888000000.0 974023000000.0 600451000000.0 642194000000.0 820861000000.0 52421300000.0 417179000000.0 340558000000.0 320363000000.0 277100000000.0 474716000000.0 523192000000.0 602254000000.0 481501000000.0 386499000000.0 300233000000.0 128040000000.0 19141600000.0 58838400000.0 139672000000.0 296964000000.0 255902000000.0 312457000000.0 50290800000.0 320148000000.0 679929000000.0 29252000000.0 49297400000.0 15795400000.0 667030000000.0 159247000000.0 163249000000.0 300009000000.0 697810000000.0 338172000000.0 476314000000.0 283674000000.0 148266000000.0 47573200000.0 83965900000.0 312871000000.0 206459000000.0 219026000000.0 123641000000.0 50474700000.0 41209500000.0 194388000000.0 311990000000.0 455974000000.0 667886000000.0 51961700000.0 743858000000.0 3573800000.0 278433000000.0 19557800000.0 414745000000.0 327017000000.0 282597000000.0 186838000000.0 21237400000.0 85463200000.0 155698000000.0 83085100000.0 271588000000.0 312691000000.0 136813000000.0 248525000000.0 245002000000.0 86117500000.0 431722000000.0 1.03902e+12 802607000000.0 242774000000.0 218774000000.0 45568100000.0 722032000000.0 344225000000.0 322532000000.0 710673000000.0 624468000000.0 435226000000.0 648037000000.0 107370000000.0 338151000000.0 210754000000.0 138201000000.0 179975000000.0 190646000000.0 115222000000.0 23465700000.0 79261800000.0 454566000000.0 648992000000.0 855427000000.0 872568000000.0 954847000000.0 848322000000.0 739816000000.0 332722000000.0 878790000000.0 570700000000.0 82646800000.0 93913900000.0 455242000000.0 35167800000.0 178851000000.0 454134000000.0 614191000000.0 22840700000.0 82618000000.0 167052000000.0 185027000000.0 196613000000.0 300680000000.0 218100000000.0 280500000000.0 249171000000.0 39667100000.0 363320000000.0 81957700000.0 6791760000.0 37688300000.0 85844400000.0 507614000000.0 653008000000.0 453839000000.0 592535000000.0 679587000000.0 784355000000.0 78397200000.0 494863000000.0 2813270000.0 282003000000.0 217042000000.0 122170000000.0 681846000000.0 518449000000.0 477612000000.0 341973000000.0 336182000000.0 261537000000.0 205298000000.0 155673000000.0 66757000000.0 36254500000.0 157059000000.0 297071000000.0 619663000000.0 786952000000.0 922725000000.0 1.01356e+12 984272000000.0 757025000000.0 254783000000.0 1.11326e+12 376944000000.0 298234000000.0 152144000000.0 676778000000.0 684680000000.0 537303000000.0 406577000000.0 583832000000.0 382853000000.0 259830000000.0 245801000000.0 215569000000.0 257161000000.0 286936000000.0 264571000000.0 298912000000.0 257446000000.0 86252200000.0 117822000000.0 140844000000.0 410140000000.0 282526000000.0 342361000000.0 603554000000.0 208749000000.0 293874000000.0 316990000000.0 95460100000.0 191828000000.0 126162000000.0 539633000000.0 552670000000.0 186784000000.0 608685000000.0 534990000000.0 83493000000.0 181839000000.0 280946000000.0 622209000000.0 508148000000.0 58386400000.0 179557000000.0 210272000000.0 248844000000.0 213105000000.0 818243000.0 121465000000.0 265036000000.0 430686000000.0 905069000000.0 1.05097e+12 1.11118e+12 1.08079e+12 944108000000.0 724975000000.0 457248000000.0 1.56018e+12 13465800000.0 278247000000.0 493828000000.0 565284000000.0 537871000000.0 411179000000.0 302977000000.0 230671000000.0 70266200000.0 159720000000.0 269449000000.0 303823000000.0 340201000000.0 325248000000.0 354149000000.0 343418000000.0 251211000000.0 258788000000.0 127602000000.0 35595500000.0 96430800000.0 152318000000.0 338641000000.0 329360000000.0 139413000000.0 283882000000.0 409946000000.0 249229000000.0 277060000000.0 36527800000.0 216234000000.0 342904000000.0 242413000000.0 20817700000.0 55526600000.0 188392000000.0 43661800000.0 38694800000.0 259045000000.0 163569000000.0 288246000000.0 381059000000.0 188531000000.0 230761000000.0 233238000000.0 231395000000.0 180080000000.0 104101000000.0 83665700000.0 223944000000.0 383879000000.0 561896000000.0 730461000000.0 1.10036e+12 1.12186e+12 1.04176e+12 849931000000.0 588038000000.0 953321000000.0 1.01428e+12 779156000000.0 582164000000.0 511786000000.0 450675000000.0 363135000000.0 293121000000.0 218152000000.0 117570000000.0 50722000000.0 266279000000.0 329110000000.0 375658000000.0 387612000000.0 406100000000.0 408843000000.0 365771000000.0 345207000000.0 412246000000.0 173144000000.0 141078000000.0 584905000000.0 249272000000.0 221551000000.0 449107000000.0 239184000000.0 144867000000.0 124478000000.0 161792000000.0 167833000000.0 393655000000.0 216053000000.0 68321600000.0 26998400000.0 38892400000.0 237977000000.0 125240000000.0 282095000000.0 311892000000.0 409468000000.0 266353000000.0 259645000000.0 235829000000.0 202541000000.0 133332000000.0 37223800000.0 174610000000.0 325098000000.0 491937000000.0 663743000000.0 837646000000.0 996405000000.0 957756000000.0 1.36368e+12 887199000000.0 818295000000.0 676177000000.0 542508000000.0 456328000000.0 278650000000.0 217191000000.0 125430000000.0 2959090000.0 211262000000.0 316665000000.0 389278000000.0 426696000000.0 453516000000.0 460463000000.0 372996000000.0 318160000000.0 275362000000.0 622149000000.0 565245000000.0 302610000000.0 253412000000.0 935442000000.0 491146000000.0 167197000000.0 22939700000.0 620761000000.0 721136000000.0 197225000000.0 251074000000.0 215664000000.0 247020000000.0 393282000000.0 368946000000.0 323319000000.0 656987000000.0 680483000000.0 358697000000.0 145030000000.0 22874700000.0 29560100000.0 173495000000.0 245098000000.0 345293000000.0 343496000000.0 404914000000.0 415126000000.0 270885000000.0 222833000000.0 161102000000.0 71801600000.0 41169800000.0 418073000000.0 582386000000.0 750483000000.0 907676000000.0 1.02866e+12 1.08508e+12 1.05291e+12 926459000000.0 734451000000.0 770925000000.0 935768000000.0 1.00421e+12 765035000000.0 672570000000.0 575576000000.0 379769000000.0 310735000000.0 243011000000.0 147681000000.0 25956100000.0 148650000000.0 275657000000.0 374762000000.0 441984000000.0 488284000000.0 436041000000.0 441344000000.0 423306000000.0 421216000000.0 511139000000.0 807472000000.0 758578000000.0 31676000000.0 689908000000.0 262463000000.0 93114400000.0 100168000000.0 1.01042e+12 277004000000.0 178291000000.0 234125000000.0 151587000000.0 231694000000.0 355614000000.0 399174000000.0 743184000000.0 12684400000.0 57134800000.0 64355700000.0 163706000000.0 215668000000.0 272321000000.0 334424000000.0 423767000000.0 437950000000.0 444676000000.0 457535000000.0 423361000000.0 310504000000.0 261713000000.0 191998000000.0 108543000000.0 3519630000.0 121189000000.0 262766000000.0 493279000000.0 652615000000.0 806842000000.0 937208000000.0 1.01822e+12 1.02613e+12 954492000000.0 825066000000.0 776162000000.0 818541000000.0 853535000000.0 802400000000.0 659475000000.0 486614000000.0 414342000000.0 353440000000.0 281905000000.0 183044000000.0 99133900000.0 224315000000.0 336390000000.0 427397000000.0 499268000000.0 509607000000.0 496900000000.0 481562000000.0 471725000000.0 483613000000.0 575946000000.0 713267000000.0 824564000000.0 646539000000.0 98041000000.0 673120000000.0 615143000000.0 278389000000.0 273315000000.0 49204300000.0 257660000000.0 1.10069e+12 279717000000.0 119869000000.0 188375000000.0 208936000000.0 230326000000.0 158546000000.0 776973000000.0 104651000000.0 288322000000.0 238555000000.0 320156000000.0 375155000000.0 409101000000.0 434555000000.0 487925000000.0 518253000000.0 519914000000.0 505420000000.0 482598000000.0 423917000000.0 325793000000.0 234562000000.0 148681000000.0 49651700000.0 65726100000.0 196057000000.0 339441000000.0 832902000000.0 932578000000.0 976295000000.0 950804000000.0 868910000000.0 804721000000.0 789325000000.0 789332000000.0 579438000000.0 508532000000.0 444807000000.0 388043000000.0 317405000000.0 223192000000.0 67592000000.0 53567600000.0 171275000000.0 284274000000.0 386073000000.0 476373000000.0 547418000000.0 561639000000.0 549227000000.0 500114000000.0 495915000000.0 561102000000.0 670913000000.0 812284000000.0 433781000000.0 729145000000.0 759486000000.0 563994000000.0 158963000000.0 190412000000.0 519909000000.0 43897500000.0 540394000000.0 74720300000.0 419685000000.0 320927000000.0 307821000000.0 333865000000.0 267444000000.0 304356000000.0 449496000000.0 605033000000.0 510214000000.0 451045000000.0 486251000000.0 425994000000.0 470294000000.0 514237000000.0 538806000000.0 561725000000.0 581003000000.0 585639000000.0 566307000000.0 533601000000.0 486328000000.0 410704000000.0 315336000000.0 98811600000.0 8283570000.0 127679000000.0 259318000000.0 401910000000.0 551240000000.0 699178000000.0 756758000000.0 680287000000.0 583807000000.0 518836000000.0 465096000000.0 411704000000.0 345306000000.0 111357000000.0 4722910000.0 118987000000.0 228439000000.0 330934000000.0 552587000000.0 607262000000.0 635190000000.0 614554000000.0 510899000000.0 538406000000.0 646483000000.0 1.01351e+12 977390000000.0 663614000000.0 778143000000.0 778444000000.0 660852000000.0 443283000000.0 31215000000.0 1.41301e+12 416774000000.0 24829200000.0 537812000000.0 439785000000.0 15341600000.0 39608400000.0 474505000000.0 644910000000.0 521685000000.0 465780000000.0 428286000000.0 647718000000.0 557815000000.0 291489000000.0 315414000000.0 472942000000.0 530992000000.0 594787000000.0 628198000000.0 644317000000.0 649077000000.0 644245000000.0 622130000000.0 584106000000.0 536201000000.0 471074000000.0 383982000000.0 287454000000.0 195326000000.0 60895600000.0 183440000000.0 314669000000.0 452253000000.0 591300000000.0 722947000000.0 832911000000.0 903197000000.0 918098000000.0 879646000000.0 825768000000.0 788054000000.0 764922000000.0 732304000000.0 673946000000.0 600570000000.0 530501000000.0 477900000000.0 427595000000.0 256844000000.0 152235000000.0 41507600000.0 68439300000.0 174057000000.0 273259000000.0 426015000000.0 513572000000.0 592910000000.0 665768000000.0 722239000000.0 724542000000.0 512970000000.0 458338000000.0 1.2727e+12 873477000000.0 833005000000.0 794650000000.0 687993000000.0 533357000000.0 298826000000.0 60288300000.0 1.13107e+12 233989000000.0 3111100000.0 60471300000.0 16762300000.0 153995000000.0 349279000000.0 6680070000.0 503728000000.0 693899000000.0 773570000000.0 626814000000.0 527213000000.0 750845000000.0 1.02008e+12 685593000000.0 520250000000.0 74883900000.0 474566000000.0 634879000000.0 690396000000.0 729777000000.0 738501000000.0 725888000000.0 704218000000.0 675286000000.0 634084000000.0 579869000000.0 517482000000.0 441746000000.0 348447000000.0 249900000000.0 152507000000.0 50510900000.0 232320000000.0 359850000000.0 489953000000.0 616174000000.0 728726000000.0 814655000000.0 859683000000.0 858773000000.0 827993000000.0 790534000000.0 757260000000.0 720811000000.0 670674000000.0 608602000000.0 546011000000.0 490595000000.0 364794000000.0 283632000000.0 187343000000.0 83667400000.0 21052000000.0 122852000000.0 365404000000.0 450594000000.0 529820000000.0 608445000000.0 696541000000.0 816928000000.0 1.00442e+12 469467000000.0 1.79423e+12 1.21888e+12 674401000000.0 641530000000.0 520413000000.0 287861000000.0 625176000000.0 92691400000.0 198984000000.0 165535000000.0 283903000000.0 298698000000.0 273319000000.0 13712800000.0 500948000000.0 508144000000.0 696279000000.0 888730000000.0 893349000000.0 1.07218e+12 760455000000.0 1.03861e+12 643243000000.0 523414000000.0 416088000000.0 713505000000.0 676271000000.0 623775000000.0 558638000000.0 486063000000.0 404321000000.0 309116000000.0 210021000000.0 110122000000.0 3693160000.0 110411000000.0 395088000000.0 515719000000.0 627887000000.0 721533000000.0 785544000000.0 812944000000.0 807741000000.0 783362000000.0 751741000000.0 715003000000.0 669550000000.0 615190000000.0 558237000000.0 439435000000.0 379938000000.0 305497000000.0 217680000000.0 121617000000.0 22643000000.0 74935800000.0 218798000000.0 307318000000.0 387046000000.0 456229000000.0 512710000000.0 549844000000.0 549387000000.0 454691000000.0 35352700000.0 808728000000.0 486702000000.0 527516000000.0 628133000000.0 585575000000.0 506885000000.0 324160000000.0 19619600000.0 20025100000.0 118005000000.0 199513000000.0 388375000000.0 398967000000.0 559074000000.0 316863000000.0 285253000000.0 108052000000.0 50277800000.0 460661000000.0 678056000000.0 852214000000.0 1.10469e+12 1.33159e+12 718368000000.0 940150000000.0 1.43946e+12 1.36644e+12 479714000000.0 718439000000.0 842708000000.0 815991000000.0 833021000000.0 825682000000.0 798427000000.0 759931000000.0 718949000000.0 528102000000.0 449330000000.0 363785000000.0 269500000000.0 169575000000.0 67231300000.0 40497900000.0 154139000000.0 273204000000.0 628477000000.0 704639000000.0 751803000000.0 768926000000.0 762183000000.0 740084000000.0 708443000000.0 668034000000.0 504266000000.0 451359000000.0 393365000000.0 324587000000.0 244277000000.0 155537000000.0 62693600000.0 167969000000.0 254249000000.0 332124000000.0 399760000000.0 454527000000.0 490381000000.0 493827000000.0 434384000000.0 212298000000.0 343941000000.0 1.01732e+12 597398000000.0 559171000000.0 589563000000.0 507750000000.0 399315000000.0 219956000000.0 138128000000.0 56982900000.0 248894000000.0 812584000000.0 469877000000.0 259043000000.0 185216000000.0 322658000000.0 214118000000.0 422644000000.0 558014000000.0 601392000000.0 689824000000.0 736140000000.0 1.05824e+12 1.34515e+12 1.79837e+12 293007000000.0 799706000000.0 2.05876e+12 791708000000.0 1.25625e+12 933776000000.0 926955000000.0 888647000000.0 849115000000.0 805631000000.0 757864000000.0 708229000000.0 656485000000.0 597731000000.0 411055000000.0 323324000000.0 228784000000.0 129041000000.0 26302800000.0 80783400000.0 192100000000.0 306583000000.0 421220000000.0 531043000000.0 619825000000.0 568207000000.0 516226000000.0 463396000000.0 406485000000.0 341827000000.0 267785000000.0 185758000000.0 30201900000.0 119829000000.0 203674000000.0 279817000000.0 346391000000.0 401247000000.0 440586000000.0 456524000000.0 434360000000.0 478817000000.0 769574000000.0 930780000000.0 706711000000.0 620981000000.0 571208000000.0 440090000000.0 385746000000.0 237007000000.0 173275000000.0 1.00602e+12 800591000000.0 884456000000.0 718437000000.0 613684000000.0 359332000000.0 49607600000.0 396477000000.0 458916000000.0 201827000000.0 358609000000.0 528616000000.0 615145000000.0 628682000000.0 732059000000.0 687368000000.0 918097000000.0 349866000000.0 1.07298e+12 854527000000.0 1.0437e+12 1.02578e+12 959895000000.0 911939000000.0 868268000000.0 828089000000.0 785520000000.0 737050000000.0 683151000000.0 626527000000.0 564348000000.0 492055000000.0 282613000000.0 188299000000.0 89655600000.0 11994300000.0 116978000000.0 224717000000.0 333304000000.0 439212000000.0 537210000000.0 620345000000.0 681552000000.0 716915000000.0 727534000000.0 718914000000.0 696424000000.0 662972000000.0 621457000000.0 574952000000.0 525726000000.0 474277000000.0 419026000000.0 357725000000.0 288872000000.0 98989900000.0 11233600000.0 74215400000.0 154913000000.0 228996000000.0 294657000000.0 350093000000.0 393217000000.0 420623000000.0 346929000000.0 506880000000.0 728679000000.0 824443000000.0 858022000000.0 718606000000.0 608769000000.0 513549000000.0 352201000000.0 367072000000.0 594242000000.0 868627000000.0 98301700000.0 250253000000.0 1.17757e+12 874556000000.0 280597000000.0 144486000000.0 40275000000.0 77169600000.0 497862000000.0 255257000000.0 203021000000.0 359005000000.0 725606000000.0 192291000000.0 470686000000.0 585376000000.0 606422000000.0 626103000000.0 662533000000.0 1.0115e+12 818030000000.0 89780000000.0 1.35815e+12 839879000000.0 152603000000.0 668395000000.0 781454000000.0 837764000000.0 844486000000.0 825952000000.0 795401000000.0 755573000000.0 707470000000.0 652371000000.0 592167000000.0 527143000000.0 453806000000.0 371549000000.0 52160400000.0 47515500000.0 149408000000.0 252265000000.0 353750000000.0 450164000000.0 536255000000.0 606187000000.0 655216000000.0 681577000000.0 687378000000.0 676293000000.0 652078000000.0 618185000000.0 577501000000.0 532152000000.0 483195000000.0 430412000000.0 372420000000.0 212865000000.0 132086000000.0 49767000000.0 31105500000.0 108294000000.0 179949000000.0 244237000000.0 299435000000.0 426759000000.0 410285000000.0 520401000000.0 687327000000.0 789131000000.0 815522000000.0 790897000000.0 667200000000.0 529058000000.0 412066000000.0 102721000000.0 415333000000.0 1.0025e+12 752596000000.0 1.18308e+12 790105000000.0 426158000000.0 387488000000.0 133638000000.0 59955500000.0 178183000000.0 194029000000.0 58313700000.0 161855000000.0 528194000000.0 566283000000.0 474869000000.0 529951000000.0 555052000000.0 622157000000.0 637813000000.0 728437000000.0 986803000000.0 1.09565e+12 931119000000.0 1.02284e+12 783165000000.0 420597000000.0 655074000000.0 749748000000.0 799406000000.0 809294000000.0 794169000000.0 764052000000.0 723710000000.0 674909000000.0 618224000000.0 555576000000.0 488140000000.0 413552000000.0 330892000000.0 242164000000.0 149001000000.0 178035000000.0 275158000000.0 368879000000.0 455364000000.0 529978000000.0 588202000000.0 627125000000.0 646359000000.0 647625000000.0 634019000000.0 608863000000.0 575035000000.0 534798000000.0 489679000000.0 308119000000.0 237662000000.0 162648000000.0 85645600000.0 9256940000.0 64270500000.0 133054000000.0 195420000000.0 344308000000.0 378371000000.0 402107000000.0 423912000000.0 518800000000.0 663585000000.0 780158000000.0 811271000000.0 781344000000.0 685279000000.0 508791000000.0 308465000000.0 112920000000.0 287614000000.0 136643000000.0 44503300000.0 241180000000.0 129941000000.0 48007400000.0 73195800000.0 328854000000.0 323539000000.0 288333000000.0 560798000000.0 30058900000.0 88988200000.0 31588300000.0 581928000000.0 650875000000.0 988723000000.0 431241000000.0 518356000000.0 740546000000.0 938607000000.0 1.07824e+12 907742000000.0 629527000000.0 902418000000.0 913759000000.0 745343000000.0 567929000000.0 676421000000.0 740283000000.0 774114000000.0 778506000000.0 761868000000.0 731030000000.0 689461000000.0 639290000000.0 581585000000.0 517250000000.0 447724000000.0 372302000000.0 290163000000.0 202593000000.0 111028000000.0 16423500000.0 80274300000.0 455943000000.0 519878000000.0 567933000000.0 598383000000.0 611397000000.0 608789000000.0 593170000000.0 440142000000.0 385749000000.0 325882000000.0 260602000000.0 190978000000.0 118899000000.0 46762400000.0 23178600000.0 89102900000.0 249867000000.0 295445000000.0 332903000000.0 365690000000.0 403639000000.0 486613000000.0 613745000000.0 747174000000.0 844611000000.0 808232000000.0 706007000000.0 533864000000.0 337677000000.0 131240000000.0 195296000000.0 64988500000.0 226122000000.0 179023000000.0 974913000000.0 566633000000.0 289279000000.0 129622000000.0 11934200000.0 174385000000.0 625093000000.0 803580000000.0 440123000000.0 5410640000.0 36477200000.0 51574400000.0 276254000000.0 95904600000.0 55534200000.0 266465000000.0 936254000000.0 203217000000.0 215439000000.0 668818000000.0 855918000000.0 998689000000.0 1.07799e+12 970887000000.0 790012000000.0 868827000000.0 844907000000.0 733794000000.0 646864000000.0 695980000000.0 733597000000.0 751792000000.0 748698000000.0 728656000000.0 695814000000.0 652662000000.0 601148000000.0 542440000000.0 477154000000.0 406606000000.0 331018000000.0 249757000000.0 163737000000.0 74341700000.0 17424300000.0 110475000000.0 203330000000.0 293910000000.0 379312000000.0 567220000000.0 533269000000.0 493134000000.0 447810000000.0 397471000000.0 342067000000.0 281735000000.0 217094000000.0 149650000000.0 81535000000.0 149495000000.0 202963000000.0 248513000000.0 286721000000.0 321339000000.0 361380000000.0 430536000000.0 536108000000.0 665153000000.0 807944000000.0 937548000000.0 764656000000.0 562055000000.0 377902000000.0 189292000000.0 9219350000.0 46264200000.0 126968000.0 224102000000.0 336361000000.0 486255000000.0 601965000000.0 312310000000.0 151231000000.0 26282700000.0 296253000000.0 996278000000.0 601657000000.0 347121000000.0 326359000000.0 48142600000.0 142942000000.0 210836000000.0 617657000000.0 292225000000.0 199866000000.0 107236000000.0 212453000000.0 302351000000.0 46440700000.0 488347000000.0 711018000000.0 882029000000.0 1.06228e+12 1.0586e+12 958036000000.0 845425000000.0 851521000000.0 811931000000.0 736469000000.0 688402000000.0 706285000000.0 723146000000.0 727695000000.0 717077000000.0 693067000000.0 658014000000.0 613404000000.0 560634000000.0 501211000000.0 435836000000.0 365118000000.0 289669000000.0 209555000000.0 125494000000.0 38701600000.0 49663800000.0 138276000000.0 225436000000.0 308901000000.0 385806000000.0 452935000000.0 507219000000.0 546398000000.0 569602000000.0 577426000000.0 571544000000.0 554141000000.0 527413000000.0 493261000000.0 452974000000.0 407265000000.0 356522000000.0 300962000000.0 241086000000.0 178102000000.0 14927300000.0 48359800000.0 106885000000.0 159430000000.0 205047000000.0 243672000000.0 277882000000.0 314564000000.0 367304000000.0 442293000000.0 536800000000.0 655669000000.0 826893000000.0 1.11192e+12 655438000000.0 467466000000.0 158292000000.0 298168000000.0 468394000000.0 648976000000.0 555834000000.0 506772000000.0 332364000000.0 180833000000.0 166594000000.0 113887000000.0 911039000000.0 999940000000.0 490233000000.0 327619000000.0 306996000000.0 62664800000.0 132576000000.0 349582000000.0 852985000000.0 989809000000.0 293945000000.0 152580000000.0 117102000000.0 99457300000.0 345899000000.0 579097000000.0 760807000000.0 985886000000.0 1.03348e+12 1.01159e+12 933931000000.0 860774000000.0 838777000000.0 796651000000.0 740876000000.0 706514000000.0 322741000000.0 248006000000.0 169392000000.0 87659100000.0 4022950000.0 80281800000.0 163799000000.0 244690000000.0 320690000000.0 389152000000.0 447361000000.0 492952000000.0 524453000000.0 541539000000.0 544997000000.0 536332000000.0 517381000000.0 489946000000.0 455443000000.0 414928000000.0 369086000000.0 318286000000.0 113845000000.0 50336700000.0 10631900000.0 67667200000.0 119663000000.0 165663000000.0 205173000000.0 239358000000.0 272377000000.0 311652000000.0 360199000000.0 414094000000.0 254041000000.0 72140500000.0 85913700000.0 468137000000.0 404198000000.0 164644000000.0 650275000000.0 634557000000.0 475083000000.0 338344000000.0 15289700000.0 1.02126e+12 674869000000.0 387108000000.0 388704000000.0 301074000000.0 264539000000.0 83967800000.0 130288000000.0 301509000000.0 150536000000.0 313898000000.0 161005000000.0 916798000000.0 280888000000.0 292542000000.0 296212000000.0 493487000000.0 654814000000.0 883787000000.0 959004000000.0 987446000000.0 967984000000.0 915393000000.0 863560000000.0 829207000000.0 705830000000.0 707066000000.0 700390000000.0 682823000000.0 654831000000.0 617433000000.0 571500000000.0 518112000000.0 458419000000.0 393121000000.0 29717200000.0 109404000000.0 187303000000.0 261522000000.0 329934000000.0 390220000000.0 440166000000.0 478043000000.0 502934000000.0 514863000000.0 514653000000.0 503660000000.0 483388000000.0 455237000000.0 263065000000.0 204489000000.0 144066000000.0 83541900000.0 24648600000.0 31167900000.0 82863700000.0 129689000000.0 171115000000.0 207282000000.0 239914000000.0 470482000000.0 538949000000.0 661359000000.0 1.09969e+12 269935000000.0 298564000000.0 106858000000.0 247334000000.0 347567000000.0 607434000000.0 458281000000.0 551125000000.0 649531000000.0 581941000000.0 412986000000.0 280438000000.0 691547000000.0 897558000000.0 692122000000.0 483383000000.0 561366000000.0 398475000000.0 206991000000.0 103099000000.0 115124000000.0 123728000000.0 307968000000.0 305468000000.0 201514000000.0 140428000.0 129766000000.0 507200000000.0 438183000000.0 291436000000.0 343161000000.0 459547000000.0 580784000000.0 777449000000.0 864276000000.0 918494000000.0 942534000000.0 934364000000.0 784316000000.0 737515000000.0 706600000000.0 694276000000.0 684137000000.0 668824000000.0 645649000000.0 614056000000.0 574359000000.0 527221000000.0 473415000000.0 413774000000.0 348919000000.0 279303000000.0 205717000000.0 129059000000.0 50204400000.0 420407000000.0 379738000000.0 333808000000.0 283300000000.0 229157000000.0 172598000000.0 115093000000.0 58241400000.0 3509680000.0 48078400000.0 95934400000.0 272588000000.0 306351000000.0 336018000000.0 352616000000.0 348133000000.0 324575000000.0 357315000000.0 698686000000.0 394069000000.0 109862000000.0 744555000000.0 873843000000.0 776450000000.0 512207000000.0 588439000000.0 655562000000.0 592367000000.0 514973000000.0 330478000000.0 106819000000.0 803718000000.0 937942000000.0 942510000000.0 753385000000.0 553062000000.0 331606000000.0 147742000000.0 121078000000.0 75966200000.0 105155000000.0 280449000000.0 261820000000.0 82255500000.0 72799500000.0 41281100000.0 22964900000.0 867503000000.0 777527000000.0 303287000000.0 400877000000.0 513286000000.0 686521000000.0 765761000000.0 826425000000.0 873350000000.0 908927000000.0 901892000000.0 860378000000.0 815908000000.0 767948000000.0 724061000000.0 692753000000.0 672717000000.0 654438000000.0 632618000000.0 604935000000.0 570413000000.0 528825000000.0 480658000000.0 426617000000.0 367224000000.0 302992000000.0 234558000000.0 162759000000.0 88592600000.0 13062000000.0 62683500000.0 137271000000.0 209129000000.0 276469000000.0 337374000000.0 389908000000.0 432335000000.0 463429000000.0 482671000000.0 490272000000.0 487038000000.0 474085000000.0 452641000000.0 423857000000.0 388663000000.0 347824000000.0 302114000000.0 252416000000.0 199788000000.0 145478000000.0 90858900000.0 37277800000.0 139639000000.0 179057000000.0 214958000000.0 248955000000.0 281260000000.0 308302000000.0 323090000000.0 317043000000.0 281611000000.0 224618000000.0 178657000000.0 73019900000.0 439613000000.0 196835000000.0 19016600000.0 278382000000.0 469890000000.0 602099000000.0 651799000000.0 640608000000.0 511234000000.0 435133000000.0 405845000000.0 244680000000.0 134430000000.0 738776000000.0 992717000000.0 969690000000.0 790005000000.0 410843000000.0 242119000000.0 165930000000.0 93653800000.0 114409000000.0 46360700000.0 221104000000.0 271602000000.0 276544000000.0 205327000000.0 205387000000.0 228733000000.0 34114100000.0 158870000000.0 174534000000.0 189153000000.0 373767000000.0 610998000000.0 683758000000.0 741385000000.0 789359000000.0 920959000000.0 896694000000.0 841881000000.0 788878000000.0 740391000000.0 699057000000.0 667476000000.0 642779000000.0 618877000000.0 592205000000.0 560863000000.0 523743000000.0 480553000000.0 431680000000.0 377651000000.0 318803000000.0 255548000000.0 188631000000.0 119032000000.0 47811900000.0 23957500000.0 95094000000.0 164198000000.0 229749000000.0 290160000000.0 343810000000.0 389140000000.0 424844000000.0 450077000000.0 464569000000.0 468596000000.0 462833000000.0 448207000000.0 425705000000.0 396244000000.0 360681000000.0 319869000000.0 274688000000.0 226097000000.0 175163000000.0 14157400000.0 62831700000.0 108606000000.0 151543000000.0 192000000000.0 230850000000.0 268658000000.0 304316000000.0 335296000000.0 360261000000.0 386415000000.0 448649000000.0 618718000000.0 901375000000.0 655371000000.0 171605000000.0 344295000000.0 502551000000.0 626571000000.0 635306000000.0 591370000000.0 500573000000.0 436598000000.0 456764000000.0 332334000000.0 997098000000.0 1.06026e+12 1.02636e+12 743950000000.0 261100000000.0 95821700000.0 49007400000.0 28590700000.0 93510500000.0 64489800000.0 16076700000.0 159082000000.0 200954000000.0 187227000000.0 367141000000.0 364842000000.0 628534000000.0 447972000000.0 365332000000.0 71884300000.0 169405000000.0 505162000000.0 597688000000.0 660203000000.0 710227000000.0 842258000000.0 913853000000.0 929421000000.0 864016000000.0 800452000000.0 747723000000.0 702785000000.0 664828000000.0 633335000000.0 605534000000.0 577717000000.0 547474000000.0 513248000000.0 474086000000.0 429738000000.0 380487000000.0 326665000000.0 268527000000.0 206521000000.0 141470000000.0 74428600000.0 6497440000.0 61167600000.0 127314000000.0 190603000000.0 249700000000.0 303293000000.0 350092000000.0 388901000000.0 418753000000.0 439048000000.0 449612000000.0 450670000000.0 442763000000.0 426614000000.0 403039000000.0 372905000000.0 337091000000.0 123047000000.0 70938100000.0 19908700000.0 29351000000.0 76713900000.0 122406000000.0 166776000000.0 210486000000.0 254306000000.0 298023000000.0 340821000000.0 384420000000.0 436125000000.0 510305000000.0 623412000000.0 694716000000.0 4762960000.0 302625000000.0 139183000000.0 87701900000.0 303624000000.0 448436000000.0 562840000000.0 644578000000.0 628429000000.0 426039000000.0 547681000000.0 595735000000.0 797598000000.0 1.33015e+12 1.24286e+12 809480000000.0 437008000000.0 241683000000.0 174573000000.0 35653300000.0 39590800000.0 57810200000.0 18368600000.0 102319000000.0 51983800000.0 116308000000.0 84558700000.0 153117000000.0 578339000000.0 836194000000.0 843647000000.0 510893000000.0 375943000000.0 429420000000.0 319199000000.0 424473000000.0 513793000000.0 583127000000.0 766791000000.0 892188000000.0 973259000000.0 869183000000.0 794661000000.0 740016000000.0 696337000000.0 658008000000.0 28603300000.0 35733800000.0 98941900000.0 159758000000.0 216996000000.0 269613000000.0 316654000000.0 357177000000.0 390285000000.0 415220000000.0 431462000000.0 438799000000.0 437341000000.0 296477000000.0 251974000000.0 204553000000.0 155241000000.0 105038000000.0 54854000000.0 5423650000.0 42945000000.0 90546100000.0 137969000000.0 185724000000.0 234366000000.0 284505000000.0 336523000000.0 391501000000.0 703871000000.0 429354000000.0 129337000000.0 18837300000.0 74280400000.0 183678000000.0 380284000000.0 486695000000.0 573290000000.0 651196000000.0 587495000000.0 655296000000.0 605771000000.0 1.06563e+12 1.25311e+12 763327000000.0 871349000000.0 386688000000.0 145134000000.0 74210300000.0 22489600000.0 62877900000.0 58252800000.0 65505200000.0 30086900000.0 43996900000.0 6095550000.0 15332200000.0 38317400000.0 74797300000.0 121997000000.0 95344200000.0 982924000000.0 953374000000.0 509095000000.0 369800000000.0 402818000000.0 454208000000.0 501072000000.0 636842000000.0 696209000000.0 798723000000.0 967562000000.0 809968000000.0 746411000000.0 706615000000.0 623774000000.0 592581000000.0 562495000000.0 531680000000.0 498650000000.0 462113000000.0 421369000000.0 376316000000.0 327064000000.0 273702000000.0 216444000000.0 155845000000.0 92850600000.0 427478000000.0 409830000000.0 385176000000.0 354383000000.0 318352000000.0 277994000000.0 234211000000.0 187901000000.0 139944000000.0 91127800000.0 42079800000.0 6812350000.0 55593800000.0 104819000000.0 453934000000.0 533837000000.0 636790000000.0 202902000000.0 119607000000.0 160907000000.0 264572000000.0 429265000000.0 515393000000.0 594764000000.0 584628000000.0 402303000000.0 705548000000.0 816875000000.0 904868000000.0 55921200000.0 312623000000.0 562440000000.0 613462000000.0 704555000000.0 254356000000.0 145162000000.0 16698000000.0 8751120000.0 7632350000.0 63258400000.0 117093000000.0 5784130000.0 58773200000.0 47681800000.0 62391400000.0 50489600000.0 126324000000.0 182475000000.0 7237510000.0 172856000000.0 356259000000.0 397647000000.0 399576000000.0 381594000000.0 391187000000.0 540210000000.0 573311000000.0 605705000000.0 827614000000.0 684504000000.0 674383000000.0 642681000000.0 610202000000.0 577936000000.0 546114000000.0 514094000000.0 480968000000.0 445746000000.0 407502000000.0 365769000000.0 320423000000.0 271367000000.0 218573000000.0 162311000000.0 103254000000.0 42443400000.0 18873400000.0 79386800000.0 137789000000.0 192921000000.0 243925000000.0 290181000000.0 331135000000.0 366161000000.0 394536000000.0 415523000000.0 428509000000.0 433134000000.0 429378000000.0 417572000000.0 398352000000.0 372549000000.0 341073000000.0 304827000000.0 264684000000.0 221491000000.0 176054000000.0 129049000000.0 80974600000.0 155236000000.0 207492000000.0 262218000000.0 320020000000.0 381729000000.0 449770000000.0 529270000000.0 621094000000.0 695205000000.0 637905000000.0 434274000000.0 214580000000.0 278841000000.0 349020000000.0 438228000000.0 471089000000.0 511640000000.0 228482000000.0 349516000000.0 171166000000.0 182507000000.0 357703000000.0 487824000000.0 481083000000.0 584447000000.0 11968700000.0 69586000000.0 66419700000.0 69998800000.0 57073900000.0 84074800000.0 5145310000.0 44373300000.0 63438100000.0 72809400000.0 177189000000.0 275981000000.0 240546000000.0 297894000000.0 124886000000.0 53592000000.0 327777000000.0 640921000000.0 333600000000.0 335717000000.0 419593000000.0 446551000000.0 455280000000.0 431057000000.0 666638000000.0 650071000000.0 642851000000.0 633748000000.0 615692000000.0 589890000000.0 559783000000.0 527702000000.0 494565000000.0 460722000000.0 425798000000.0 388933000000.0 349496000000.0 307235000000.0 261928000000.0 213272000000.0 161138000000.0 105858000000.0 48281500000.0 10365000000.0 68635800000.0 125022000000.0 178203000000.0 227310000000.0 271996000000.0 312200000000.0 347800000000.0 378368000000.0 403124000000.0 421100000000.0 431418000000.0 433545000000.0 427434000000.0 413518000000.0 392566000000.0 365498000000.0 333252000000.0 296717000000.0 256685000000.0 32176700000.0 17216200000.0 67527400000.0 119500000000.0 173856000000.0 231147000000.0 292035000000.0 357285000000.0 427473000000.0 503255000000.0 582525000000.0 649819000000.0 673081000000.0 694161000000.0 468212000000.0 247819000000.0 373547000000.0 386609000000.0 412386000000.0 346601000000.0 335640000000.0 287454000000.0 650799000000.0 446616000000.0 87973100000.0 32713300000.0 305518000000.0 378208000000.0 497868000000.0 157812000000.0 36515200000.0 29942900000.0 2634250000.0 125535000000.0 59324300000.0 185842000000.0 277807000000.0 11000800000.0 3386040000.0 62723600000.0 477945000000.0 38078800000.0 179389000000.0 352401000000.0 354388000000.0 341231000000.0 290490000000.0 595991000000.0 557727000000.0 568628000000.0 583362000000.0 581286000000.0 564117000000.0 537335000000.0 505811000000.0 472254000000.0 437799000000.0 402629000000.0 366290000000.0 328252000000.0 288204000000.0 245856000000.0 200768000000.0 152525000000.0 101002000000.0 46591000000.0 9697610000.0 66314600000.0 121415000000.0 173261000000.0 220692000000.0 263409000000.0 301849000000.0 336652000000.0 368049000000.0 395507000000.0 417808000000.0 433483000000.0 441329000000.0 440769000000.0 431957000000.0 415619000000.0 213858000000.0 168868000000.0 122202000000.0 74132300000.0 24754500000.0 26026800000.0 78693900000.0 134049000000.0 192751000000.0 255131000000.0 321461000000.0 391799000000.0 464606000000.0 533815000000.0 584035000000.0 597626000000.0 602864000000.0 751121000000.0 460088000000.0 317774000000.0 390436000000.0 365543000000.0 132077000000.0 487240000000.0 96594800000.0 117475000000.0 154054000000.0 215827000000.0 349117000000.0 400981000000.0 56492800000.0 96442900000.0 28488800000.0 74458100000.0 247164000000.0 194096000000.0 228644000000.0 471475000000.0 12674400000.0 60672800000.0 250571000000.0 274642000000.0 260636000000.0 491398000000.0 544379000000.0 508549000000.0 513478000000.0 540289000000.0 547519000000.0 535611000000.0 511214000000.0 480123000000.0 446155000000.0 177978000000.0 224634000000.0 265634000000.0 301665000000.0 334305000000.0 364962000000.0 393860000000.0 392733000000.0 364279000000.0 331151000000.0 294133000000.0 253904000000.0 211052000000.0 166033000000.0 119100000000.0 70320700000.0 19642900000.0 33191500000.0 88762400000.0 147774000000.0 210629000000.0 277264000000.0 347073000000.0 417703000000.0 482804000000.0 528880000000.0 533490000000.0 485264000000.0 440372000000.0 603589000000.0 319383000000.0 461559000000.0 424511000000.0 311630000000.0 237031000000.0 96536500000.0 217599000000.0 147089000000.0 146282000000.0 289551000000.0 301091000000.0 368694000000.0 416401000000.0 95007900000.0 461643000000.0 461154000000.0 412993000000.0 171761000000.0 227807000000.0 229257000000.0 199833000000.0 189763000000.0 349083000000.0 438576000000.0 568154000000.0 513202000000.0 522643000000.0 521792000000.0 411216000000.0 375988000000.0 340086000000.0 302833000000.0 264005000000.0 223628000000.0 181429000000.0 136753000000.0 88933300000.0 37763300000.0 16227800000.0 71645800000.0 126356000000.0 419770000000.0 440573000000.0 454142000000.0 459097000000.0 455192000000.0 443142000000.0 424072000000.0 399053000000.0 369021000000.0 334777000000.0 296980000000.0 256162000000.0 212767000000.0 167110000000.0 119296000000.0 69251900000.0 16804700000.0 315848000000.0 314602000000.0 270907000000.0 342626000000.0 346521000000.0 210835000000.0 114541000000.0 46542000000.0 212533000000.0 88630800000.0 334469000000.0 297411000000.0 328734000000.0 367769000000.0 470436000000.0 76310600000.0 313676000000.0 410316000000.0 490390000000.0 352821000000.0 333307000000.0 248078000000.0 212313000000.0 117878000000.0 242280000000.0 378498000000.0 424141000000.0 595959000000.0 506987000000.0 482126000000.0 450252000000.0 415123000000.0 379778000000.0 345178000000.0 310278000000.0 273829000000.0 235565000000.0 196069000000.0 155712000000.0 113979000000.0 69714000000.0 21968200000.0 29410800000.0 83603600000.0 138618000000.0 191456000000.0 239017000000.0 279491000000.0 313248000000.0 342611000000.0 370706000000.0 399395000000.0 427998000000.0 453800000000.0 473399000000.0 484112000000.0 484993000000.0 476814000000.0 461050000000.0 438967000000.0 411574000000.0 379686000000.0 343975000000.0 304961000000.0 263048000000.0 38406400000.0 96980800000.0 159411000000.0 225571000000.0 294605000000.0 364556000000.0 430636000000.0 482974000000.0 507666000000.0 482198000000.0 392994000000.0 440580000000.0 180315000000.0 252899000000.0 254757000000.0 160769000000.0 90035600000.0 13079200000.0 6230040000.0 281420000000.0 447483000000.0 340501000000.0 368121000000.0 381488000000.0 89855900000.0 296959000000.0 318601000000.0 256314000000.0 244903000000.0 178597000000.0 82866200000.0 155727000000.0 313130000000.0 366087000000.0 443121000000.0 476555000000.0 467036000000.0 445370000000.0 414371000000.0 378078000000.0 341895000000.0 308410000000.0 275969000000.0 241885000000.0 204496000000.0 164541000000.0 124206000000.0 84313700000.0 43355700000.0 780229000.0 49226200000.0 101596000000.0 156622000000.0 211730000000.0 262521000000.0 304913000000.0 337770000000.0 363664000000.0 387422000000.0 413654000000.0 443450000000.0 474033000000.0 500406000000.0 517667000000.0 523437000000.0 518596000000.0 505446000000.0 485626000000.0 460276000000.0 218555000000.0 171683000000.0 122442000000.0 70697600000.0 16224300000.0 41340600000.0 102439000000.0 167197000000.0 234932000000.0 303878000000.0 370361000000.0 428404000000.0 471344000000.0 499652000000.0 494396000000.0 418640000000.0 296946000000.0 247123000000.0 119967000000.0 193945000000.0 198816000000.0 177060000000.0 170809000000.0 187117000000.0 493816000000.0 361111000000.0 342787000000.0 264730000000.0 381472000000.0 215650000000.0 156305000000.0 219310000000.0 142348000000.0 189132000000.0 178209000000.0 91960700000.0 107929000000.0 238719000000.0 410754000000.0 510802000000.0 353413000000.0 392432000000.0 391025000000.0 369084000000.0 334096000000.0 295972000000.0 263518000000.0 235451000000.0 206705000000.0 172544000000.0 131828000000.0 88677300000.0 48152900000.0 9653540000.0 30723300000.0 76054700000.0 126262000000.0 179646000000.0 235990000000.0 291926000000.0 340112000000.0 375296000000.0 398880000000.0 417817000000.0 439286000000.0 467598000000.0 501918000000.0 536145000000.0 561712000000.0 430225000000.0 396106000000.0 358422000000.0 317580000000.0 273935000000.0 227751000000.0 179139000000.0 128067000000.0 74423500000.0 18019900000.0 41424400000.0 104060000000.0 169376000000.0 235710000000.0 300286000000.0 358448000000.0 403361000000.0 427236000000.0 434259000000.0 427490000000.0 226509000000.0 469215000000.0 174923000000.0 87021000000.0 156726000000.0 182155000000.0 181953000000.0 281227000000.0 310425000000.0 398448000000.0 495603000000.0 246644000000.0 264922000000.0 239089000000.0 45136800000.0 172465000000.0 139089000000.0 34990200000.0 62136100000.0 162534000000.0 286500000000.0 301297000000.0 321067000000.0 404301000000.0 275785000000.0 314294000000.0 312011000000.0 283135000000.0 572972000000.0 570748000000.0 559297000000.0 540898000000.0 516843000000.0 487937000000.0 454763000000.0 417815000000.0 377504000000.0 334153000000.0 288049000000.0 239462000000.0 188569000000.0 135401000000.0 79930900000.0 22105400000.0 38150200000.0 100609000000.0 164075000000.0 326528000000.0 353985000000.0 349782000000.0 362630000000.0 191339000000.0 388338000000.0 352328000000.0 158508000000.0 196880000000.0 226194000000.0 230551000000.0 305453000000.0 462300000000.0 243722000000.0 91452100000.0 85066900000.0 83602400000.0 50056200000.0 53089400000.0 123807000000.0 55221600000.0 25940500000.0 191590000000.0 196156000000.0 212248000000.0 235018000000.0 297747000000.0 243640000000.0 209580000000.0 185301000000.0 165801000000.0 140363000000.0 102183000000.0 54099700000.0 7468440000.0 31815200000.0 68442700000.0 110447000000.0 159146000000.0 210069000000.0 263136000000.0 321751000000.0 379858000000.0 423600000000.0 448060000000.0 462876000000.0 480668000000.0 504329000000.0 538559000000.0 580994000000.0 618133000000.0 636576000000.0 635816000000.0 624837000000.0 606835000000.0 583200000000.0 554658000000.0 521698000000.0 484738000000.0 444154000000.0 400289000000.0 353490000000.0 304106000000.0 225623000000.0 281471000000.0 260636000000.0 277755000000.0 266154000000.0 96075400000.0 77367500000.0 153749000000.0 192115000000.0 220009000000.0 332676000000.0 392530000000.0 74010600000.0 83842900000.0 60778900000.0 20149200000.0 130887000000.0 130793000000.0 106697000000.0 118406000000.0 128198000000.0 206285000000.0 239233000000.0 225838000000.0 185212000000.0 153812000000.0 123771000000.0 112812000000.0 105313000000.0 77666100000.0 28025900000.0 28581300000.0 79151800000.0 115322000000.0 153382000000.0 202605000000.0 251909000000.0 299501000000.0 349408000000.0 412891000000.0 474754000000.0 508016000000.0 519897000000.0 538226000000.0 563732000000.0 589697000000.0 634661000000.0 688134000000.0 718081000000.0 716401000000.0 704221000000.0 685522000000.0 661465000000.0 632508000000.0 598965000000.0 252445000000.0 198783000000.0 143355000000.0 86361300000.0 27978900000.0 31553200000.0 91568000000.0 150216000000.0 202756000000.0 245144000000.0 272019000000.0 271136000000.0 281347000000.0 168845000000.0 210130000000.0 172053000000.0 49694500000.0 75117800000.0 141632000000.0 146941000000.0 177758000000.0 224998000000.0 56690200000.0 29709700000.0 50388100000.0 40668200000.0 142952000000.0 196404000000.0 133474000000.0 150253000000.0 117127000000.0 101846000000.0 74091100000.0 40723800000.0 54593500000.0 55117300000.0 10617600000.0 43694200000.0 113228000000.0 170711000000.0 208628000000.0 261295000000.0 310135000000.0 352751000000.0 391410000000.0 432092000000.0 505442000000.0 566368000000.0 579588000000.0 605516000000.0 647820000000.0 680471000000.0 703171000000.0 769797000000.0 822241000000.0 814038000000.0 561130000000.0 519327000000.0 473931000000.0 425338000000.0 373962000000.0 320279000000.0 264782000000.0 207928000000.0 150202000000.0 92166500000.0 34423200000.0 22375300000.0 77288000000.0 128273000000.0 167064000000.0 192848000000.0 195936000000.0 203548000000.0 135692000000.0 179305000000.0 178710000000.0 124813000000.0 96997800000.0 18972900000.0 69021800000.0 117974000000.0 52976300000.0 61869400000.0 187949000000.0 38365200000.0 41071300000.0 44754000000.0 45060300000.0 106257000000.0 60328000000.0 41824800000.0 48777700000.0 41148400000.0 798817000000.0 778773000000.0 753862000000.0 723944000000.0 689051000000.0 649369000000.0 605225000000.0 557056000000.0 505326000000.0 450535000000.0 393261000000.0 334129000000.0 273829000000.0 213150000000.0 153011000000.0 94507500000.0 38881600000.0 12578600000.0 58817500000.0 99172800000.0 117758000000.0 124292000000.0 123628000000.0 94194500000.0 103241000000.0 112327000000.0 110242000000.0 44471600000.0 30892000000.0 7223490000.0 46250200000.0 48474700000.0 64775900000.0 74589500000.0 41953700000.0 14636300000.0 37997200000.0 7876300000.0 11187600000.0 40451500000.0 94382400000.0 185773000000.0 283657000000.0 341862000000.0 378876000000.0 417512000000.0 453629000000.0 481519000000.0 497391000000.0 567932000000.0 608901000000.0 665660000000.0 745020000000.0 799331000000.0 834694000000.0 844993000000.0 946902000000.0 923634000000.0 907123000000.0 887636000000.0 862808000000.0 831968000000.0 795093000000.0 752497000000.0 704668000000.0 652166000000.0 595615000000.0 535675000000.0 472976000000.0 408204000000.0 31072300000.0 40706900000.0 38560700000.0 36522200000.0 21589100000.0 23516500000.0 45068600000.0 39876700000.0 9913200000.0 41573600000.0 9943590000.0 66198400000.0 126907000000.0 191714000000.0 255536000000.0 271940000000.0 212438000000.0 134436000000.0 64451900000.0 4016490000.0 45920600000.0 342163000000.0 275805000000.0 210311000000.0 147167000000.0 88291800000.0 36179900000.0 5940260000.0 34047600000.0 44216600000.0 44393200000.0 42398800000.0 41871300000.0 