# vtk DataFile Version 2.0
Time step 114
ASCII
DATASET UNSTRUCTURED_GRID
POINTS 4650 float
208465.0 231267.0 0
215434.0 231335.0 0
219415.0 231662.0 0
247389.0 230563.0 0
295505.0 230749.0 0
204994.0 233259.0 0
211932.0 233258.0 0
223010.0 233402.0 0
237011.0 232746.0 0
243955.0 232601.0 0
247446.0 234549.0 0
250873.0 232514.0 0
254331.0 234486.0 0
257764.0 232466.0 0
261217.0 234454.0 0
274703.0 234330.0 0
281564.0 234449.0 0
285050.0 232503.0 0
288483.0 234551.0 0
291984.0 232636.0 0
298981.0 232882.0 0
201468.0 235357.0 0
208463.0 235246.0 0
215571.0 235312.0 0
219550.0 235644.0 0
226635.0 235078.0 0
230185.0 236908.0 0
233589.0 234813.0 0
237125.0 236725.0 0
240530.0 234646.0 0
244038.0 236582.0 0
250912.0 236506.0 0
257773.0 236461.0 0
264994.0 235695.0 0
271248.0 236311.0 0
278100.0 236414.0 0
284998.0 236490.0 0
291926.0 236620.0 0
295441.0 234732.0 0
298921.0 236866.0 0
201531.0 239339.0 0
204996.0 237239.0 0
208592.0 239200.0 0
212068.0 237228.0 0
215748.0 239268.0 0
219728.0 239611.0 0
223145.0 237380.0 0
226768.0 239055.0 0
233713.0 238790.0 0
240655.0 238622.0 0
247513.0 238531.0 0
254356.0 238476.0 0
261192.0 238440.0 0
267886.0 238411.0 0
274653.0 238385.0 0
281526.0 238437.0 0
288431.0 238532.0 0
295371.0 238697.0 0
205066.0 241197.0 0
212065.0 241176.0 0
223324.0 241338.0 0
230317.0 240881.0 0
237302.0 240681.0 0
244137.0 240558.0 0
250962.0 240492.0 0
257776.0 240456.0 0
264537.0 240478.0 0
271274.0 240432.0 0
278073.0 240403.0 0
281481.0 242411.0 0
284947.0 240462.0 0
288362.0 242493.0 0
291859.0 240588.0 0
298839.0 240833.0 0
201467.0 243307.0 0
208551.0 243132.0 0
215508.0 243196.0 0
219468.0 243560.0 0
226940.0 243009.0 0
230689.0 244810.0 0
233976.0 242738.0 0
237469.0 244640.0 0
240790.0 242594.0 0
244244.0 244533.0 0
247590.0 242510.0 0
251016.0 244474.0 0
254384.0 242465.0 0
257775.0 244453.0 0
261151.0 242465.0 0
264527.0 244462.0 0
267907.0 242460.0 0
271284.0 244427.0 0
274670.0 242410.0 0
278055.0 244392.0 0
284872.0 244419.0 0
291778.0 244539.0 0
295285.0 242646.0 0
299125.0 244779.0 0
201460.0 247259.0 0
205020.0 245137.0 0
208535.0 247043.0 0
212012.0 245103.0 0
215446.0 247112.0 0
219393.0 247510.0 0
223049.0 245273.0 0
227452.0 246899.0 0
234180.0 246693.0 0
240923.0 246563.0 0
247670.0 246487.0 0
254415.0 246452.0 0
261155.0 246449.0 0
267902.0 246439.0 0
274655.0 246397.0 0
281427.0 246382.0 0
288241.0 246428.0 0
295225.0 246575.0 0
205177.0 249053.0 0
211935.0 249011.0 0
224271.0 248986.0 0
230932.0 248762.0 0
237630.0 248603.0 0
244347.0 248504.0 0
251071.0 248454.0 0
257796.0 248437.0 0
264528.0 248435.0 0
271269.0 248406.0 0
278016.0 248371.0 0
284783.0 248375.0 0
291568.0 248450.0 0
298623.0 248684.0 0
201985.0 251158.0 0
208568.0 251003.0 0
215231.0 250993.0 0
221123.0 251028.0 0
227724.0 250845.0 0
231141.0 252720.0 0
234369.0 250654.0 0
237774.0 252567.0 0
241048.0 250530.0 0
244440.0 252472.0 0
247746.0 250460.0 0
251126.0 252426.0 0
254453.0 250430.0 0
257822.0 252410.0 0
261168.0 250424.0 0
264530.0 252402.0 0
267893.0 250408.0 0
271247.0 252373.0 0
274624.0 250371.0 0
277969.0 252338.0 0
281364.0 250348.0 0
284696.0 252332.0 0
288112.0 250375.0 0
291414.0 252387.0 0
294850.0 250468.0 0
298016.0 252554.0 0
201988.0 255069.0 0
205298.0 253047.0 0
208592.0 255006.0 0
211879.0 252980.0 0
215003.0 255166.0 0
218188.0 253266.0 0
221470.0 255085.0 0
224546.0 252931.0 0
227942.0 254799.0 0
234527.0 254616.0 0
241154.0 254494.0 0
247813.0 254425.0 0
254491.0 254398.0 0
261180.0 254389.0 0
267881.0 254371.0 0
274590.0 254334.0 0
281302.0 254306.0 0
288012.0 254323.0 0
294677.0 254424.0 0
205294.0 257003.0 0
211800.0 257082.0 0
218293.0 257157.0 0
224790.0 256906.0 0
231306.0 256679.0 0
237888.0 256528.0 0
244515.0 256432.0 0
251172.0 256387.0 0
257845.0 256373.0 0
264529.0 256361.0 0
271223.0 256331.0 0
277924.0 256292.0 0
284627.0 256279.0 0
291315.0 256329.0 0
298011.0 256424.0 0
201987.0 258982.0 0
208559.0 258998.0 0
215085.0 259103.0 0
221614.0 259014.0 0
228115.0 258760.0 0
231423.0 260637.0 0
234644.0 258575.0 0
237962.0 260481.0 0
241231.0 258449.0 0
244565.0 260379.0 0
247864.0 258379.0 0
251204.0 260335.0 0
254520.0 258355.0 0
257859.0 260324.0 0
261189.0 258346.0 0
264525.0 260312.0 0
267868.0 258325.0 0
271201.0 260278.0 0
274557.0 258285.0 0
277887.0 260232.0 0
281253.0 258250.0 0
284581.0 260208.0 0
287947.0 258258.0 0
291283.0 260234.0 0
294648.0 258323.0 0
298010.0 260284.0 0
201986.0 262883.0 0
205286.0 260942.0 0
208598.0 262925.0 0
211858.0 261020.0 0
215205.0 263008.0 0
218416.0 261055.0 0
221750.0 262934.0 0
224928.0 260843.0 0
228221.0 262705.0 0
234707.0 262528.0 0
241274.0 262391.0 0
247893.0 262317.0 0
254537.0 262297.0 0
261191.0 262292.0 0
267854.0 262268.0 0
274529.0 262221.0 0
281218.0 262174.0 0
287919.0 262163.0 0
294640.0 262194.0 0
205307.0 264839.0 0
211948.0 264910.0 0
218591.0 264957.0 0
225053.0 264763.0 0
231461.0 264589.0 0
237991.0 264418.0 0
244584.0 264305.0 0
251217.0 264266.0 0
257863.0 264262.0 0
264516.0 264252.0 0
271179.0 264212.0 0
277859.0 264152.0 0
284557.0 264110.0 0
291273.0 264110.0 0
298010.0 264134.0 0
201987.0 266751.0 0
208655.0 266798.0 0
215339.0 266872.0 0
222017.0 266873.0 0
228218.0 266667.0 0
234714.0 266460.0 0
237970.0 268332.0 0
241276.0 266311.0 0
244567.0 268204.0 0
247895.0 266233.0 0
251206.0 268175.0 0
254537.0 266223.0 0
257852.0 268184.0 0
261184.0 266225.0 0
264501.0 268179.0 0
267837.0 266200.0 0
271159.0 268131.0 0
274506.0 266140.0 0
277840.0 268050.0 0
281197.0 266073.0 0
284547.0 267984.0 0
287908.0 266039.0 0
291272.0 267961.0 0
294639.0 266045.0 0
298011.0 267971.0 0
201988.0 270580.0 0
205333.0 268688.0 0
208707.0 270621.0 0
212039.0 268750.0 0
215459.0 270686.0 0
218773.0 268807.0 0
222269.0 270696.0 0
225996.0 269761.0 0
231439.0 268514.0 0
234665.0 270366.0 0
241231.0 270205.0 0
247866.0 270120.0 0
254516.0 270129.0 0
261166.0 270143.0 0
267818.0 270119.0 0
274488.0 270039.0 0
281188.0 269946.0 0
287909.0 269889.0 0
294642.0 269879.0 0
205354.0 272494.0 0
212110.0 272545.0 0
218912.0 272599.0 0
226066.0 273646.0 0
229425.0 271734.0 0
232847.0 273699.0 0
237896.0 272219.0 0
244505.0 272063.0 0
251167.0 272058.0 0
257824.0 272088.0 0
264479.0 272093.0 0
271141.0 272033.0 0
277831.0 271924.0 0
284549.0 271831.0 0
287922.0 273714.0 0
291279.0 271791.0 0
294650.0 273695.0 0
298011.0 271794.0 0
201988.0 274373.0 0
205364.0 276265.0 0
208742.0 274402.0 0
215535.0 274458.0 0
222348.0 274521.0 0
229470.0 275613.0 0
236276.0 275646.0 0
241131.0 274072.0 0
244391.0 275860.0 0
247798.0 273970.0 0
251091.0 275911.0 0
254469.0 274010.0 0
257777.0 275968.0 0
261135.0 274044.0 0
264449.0 275990.0 0
267796.0 274023.0 0
271124.0 275916.0 0
274477.0 273916.0 0
277834.0 275769.0 0
281192.0 273791.0 0
284569.0 275651.0 0
291298.0 275602.0 0
298013.0 275605.0 0
201988.0 278139.0 0
208746.0 278150.0 0
212143.0 276303.0 0
215548.0 278206.0 0
218958.0 276375.0 0
222368.0 278318.0 0
226097.0 277521.0 0
232878.0 277559.0 0
239710.0 277592.0 0
247674.0 277780.0 0
254396.0 277861.0 0
261090.0 277925.0 0
267771.0 277912.0 0
274476.0 277768.0 0
281217.0 277604.0 0
287954.0 277516.0 0
294666.0 277499.0 0
205355.0 280010.0 0
212127.0 280034.0 0
218946.0 280126.0 0
226097.0 281396.0 0
229486.0 279480.0 0
232890.0 281400.0 0
236296.0 279485.0 0
240727.0 281256.0 0
244156.0 279543.0 0
250984.0 279723.0 0
257708.0 279820.0 0
264409.0 279871.0 0
271114.0 279777.0 0
277862.0 279581.0 0
281285.0 281381.0 0
284618.0 279441.0 0
288019.0 281299.0 0
291333.0 279396.0 0
294689.0 281294.0 0
298014.0 279408.0 0
201986.0 281888.0 0
205330.0 283746.0 0
208711.0 281878.0 0
212044.0 283744.0 0
215501.0 281926.0 0
218871.0 283842.0 0
222338.0 282076.0 0
229488.0 283333.0 0
237365.0 283102.0 0
244101.0 283301.0 0
247529.0 281530.0 0
250868.0 283502.0 0
254299.0 281679.0 0
257607.0 283645.0 0
261023.0 281781.0 0
264344.0 283730.0 0
267741.0 281786.0 0
271117.0 283604.0 0
274501.0 281587.0 0
277947.0 283347.0 0
284726.0 283205.0 0
291387.0 283185.0 0
298016.0 283207.0 0
201984.0 285630.0 0
208648.0 285605.0 0
215338.0 285607.0 0
222262.0 285785.0 0
226087.0 285277.0 0
234049.0 284978.0 0
240732.0 285079.0 0
247449.0 285298.0 0
254180.0 285476.0 0
260902.0 285613.0 0
267691.0 285645.0 0
274584.0 285356.0 0
281464.0 285114.0 0
288113.0 285079.0 0
294719.0 285089.0 0
205298.0 287484.0 0
211928.0 287466.0 0
218550.0 287478.0 0
227580.0 288798.0 0
230781.0 286873.0 0
234144.0 288804.0 0
237415.0 286925.0 0
240739.0 288899.0 0
244069.0 287088.0 0
247375.0 289082.0 0
250763.0 287283.0 0
254040.0 289270.0 0
257465.0 287456.0 0
264182.0 287556.0 0
271149.0 287357.0 0
275206.0 288965.0 0
278266.0 287028.0 0
281691.0 288878.0 0
284875.0 286975.0 0
288217.0 288871.0 0
291451.0 286978.0 0
294751.0 288890.0 0
298018.0 287007.0 0
201982.0 289373.0 0
205266.0 291227.0 0
208579.0 289343.0 0
211821.0 291212.0 0
215153.0 289336.0 0
218318.0 291226.0 0
221628.0 289346.0 0
224687.0 291017.0 0
230933.0 290718.0 0
237457.0 290754.0 0
244030.0 290890.0 0
250641.0 291073.0 0
257272.0 291271.0 0
260712.0 289444.0 0
263911.0 291402.0 0
267427.0 289460.0 0
272236.0 290833.0 0
278585.0 290803.0 0
285025.0 290772.0 0
291514.0 290781.0 0
298020.0 290809.0 0
201980.0 293114.0 0
208521.0 293091.0 0
215028.0 293095.0 0
221492.0 293079.0 0
227861.0 292752.0 0
234226.0 292648.0 0
240733.0 292723.0 0
247286.0 292882.0 0
253860.0 293073.0 0
260436.0 293304.0 0
266265.0 294173.0 0
269290.0 292575.0 0
275525.0 292731.0 0
281882.0 292689.0 0
288310.0 292680.0 0
294779.0 292696.0 0
201979.0 296852.0 0
205242.0 294971.0 0
208484.0 296837.0 0
211751.0 294966.0 0
214973.0 296842.0 0
218234.0 294973.0 0
221459.0 296806.0 0
224698.0 294825.0 0
227894.0 296605.0 0
231066.0 294607.0 0
234277.0 296506.0 0
237482.0 294592.0 0
240708.0 296552.0 0
243976.0 294705.0 0
247183.0 296697.0 0
250499.0 294881.0 0
253652.0 296904.0 0
257005.0 295103.0 0
263153.0 295726.0 0
269335.0 296345.0 0
272458.0 294598.0 0
275652.0 296522.0 0
278770.0 294615.0 0
281993.0 296511.0 0
285141.0 294591.0 0
288377.0 296498.0 0
291565.0 294592.0 0
294800.0 296504.0 0
298021.0 294613.0 0
205227.0 298708.0 0
211716.0 298707.0 0
218201.0 298701.0 0
224677.0 298596.0 0
231084.0 298453.0 0
237478.0 298432.0 0
243906.0 298528.0 0
250345.0 298709.0 0
256700.0 299008.0 0
259943.0 297295.0 0
262953.0 299563.0 0
266162.0 297978.0 0
272493.0 298355.0 0
278845.0 298422.0 0
285205.0 298410.0 0
291599.0 298404.0 0
298023.0 298414.0 0
201978.0 300579.0 0
208464.0 300570.0 0
214946.0 300570.0 0
221429.0 300533.0 0
227873.0 300409.0 0
231054.0 302264.0 0
234267.0 300341.0 0
237439.0 302258.0 0
240662.0 300382.0 0
243823.0 302353.0 0
247071.0 300524.0 0
253447.0 300767.0 0
259742.0 301179.0 0
266065.0 301736.0 0
269291.0 300087.0 0
272461.0 302095.0 0
275670.0 300294.0 0
278850.0 302208.0 0
282035.0 300320.0 0
285224.0 302216.0 0
288410.0 300310.0 0
291612.0 302206.0 0
294813.0 300306.0 0
298024.0 302205.0 0
201977.0 304293.0 0
205218.0 302432.0 0
208452.0 304286.0 0
211696.0 302430.0 0
214925.0 304284.0 0
218175.0 302420.0 0
221395.0 304256.0 0
224640.0 302350.0 0
227831.0 304185.0 0
234222.0 304151.0 0
240594.0 304202.0 0
246959.0 304351.0 0
250198.0 302550.0 0
253301.0 304611.0 0
256525.0 302874.0 0
259624.0 305005.0 0
262840.0 303359.0 0
269228.0 303817.0 0
275640.0 304049.0 0
282029.0 304110.0 0
288414.0 304107.0 0
294816.0 304096.0 0
205212.0 306140.0 0
211681.0 306138.0 0
218147.0 306131.0 0
224596.0 306091.0 0
231003.0 306048.0 0
237375.0 306066.0 0
243732.0 306170.0 0
250076.0 306375.0 0
256407.0 306697.0 0
262759.0 307129.0 0
265990.0 305481.0 0
269166.0 307543.0 0
272408.0 305827.0 0
278817.0 305974.0 0
285210.0 306002.0 0
291609.0 305991.0 0
298024.0 305980.0 0
201976.0 307992.0 0
205206.0 309831.0 0
208441.0 307986.0 0
211665.0 309832.0 0
214904.0 307987.0 0
218117.0 309832.0 0
221356.0 307973.0 0
224548.0 309819.0 0
227778.0 307940.0 0
230941.0 309812.0 0
234159.0 307938.0 0
237299.0 309854.0 0
240513.0 308006.0 0
243638.0 309970.0 0
246854.0 308163.0 0
249969.0 310177.0 0
253188.0 308423.0 0
259534.0 308791.0 0
265924.0 309217.0 0
272349.0 309556.0 0
275589.0 307793.0 0
278767.0 309727.0 0
281995.0 307880.0 0
285176.0 309767.0 0
288397.0 307883.0 0
291593.0 309753.0 0
294811.0 307867.0 0
298024.0 309735.0 0
201975.0 311674.0 0
208430.0 311671.0 0
214880.0 311677.0 0
221315.0 311680.0 0
227720.0 311679.0 0
234087.0 311707.0 0
240426.0 311792.0 0
246752.0 311954.0 0
253086.0 312205.0 0
256310.0 310484.0 0
259448.0 312546.0 0
262686.0 310877.0 0
269104.0 311267.0 0
275530.0 311531.0 0
281945.0 311633.0 0
288366.0 311637.0 0
294802.0 311614.0 0
201974.0 315340.0 0
205200.0 313506.0 0
208418.0 315340.0 0
211647.0 313511.0 0
218083.0 313524.0 0
224496.0 313535.0 0
230873.0 313559.0 0
237217.0 313623.0 0
243540.0 313749.0 0
249864.0 313952.0 0
256211.0 314239.0 0
262605.0 314602.0 0
265856.0 312941.0 0
269036.0 314984.0 0
272286.0 313284.0 0
275464.0 315266.0 0
278707.0 313471.0 0
281887.0 315373.0 0
285130.0 313512.0 0
288329.0 315367.0 0
291570.0 313491.0 0
294790.0 315334.0 0
298024.0 313466.0 0
205194.0 317165.0 0
211628.0 317177.0 0
214854.0 315355.0 0
218048.0 317204.0 0
221272.0 315376.0 0
224443.0 317239.0 0
227659.0 315404.0 0
230803.0 317290.0 0
234010.0 315458.0 0
237131.0 317375.0 0
240333.0 315559.0 0
243438.0 317509.0 0
246647.0 315722.0 0
249749.0 317703.0 0
252977.0 315958.0 0
256096.0 317966.0 0
259350.0 316273.0 0
265775.0 316648.0 0
272216.0 317008.0 0
278640.0 317209.0 0
285079.0 317238.0 0
291544.0 317202.0 0
298024.0 317171.0 0
201974.0 318990.0 0
208406.0 318994.0 0
214827.0 319020.0 0
221228.0 319061.0 0
227597.0 319115.0 0
233931.0 319193.0 0
240237.0 319308.0 0
246534.0 319471.0 0
252849.0 319688.0 0
259222.0 319971.0 0
262502.0 318303.0 0
265667.0 320330.0 0
268953.0 318687.0 0
275391.0 319001.0 0
281824.0 319100.0 0
288290.0 319072.0 0
294777.0 319027.0 0
201973.0 322625.0 0
205187.0 320809.0 0
208392.0 322633.0 0
211608.0 320829.0 0
214799.0 322672.0 0
218013.0 320871.0 0
221183.0 322733.0 0
224390.0 320929.0 0
227535.0 322812.0 0
230733.0 321007.0 0
233851.0 322914.0 0
237042.0 321112.0 0
240138.0 323044.0 0
243331.0 321253.0 0
246413.0 323206.0 0
249621.0 321437.0 0
255947.0 321670.0 0
262357.0 321972.0 0
268844.0 322366.0 0
272133.0 320726.0 0
275310.0 322735.0 0
278569.0 320943.0 0
281765.0 322814.0 0
285029.0 320943.0 0
288260.0 322751.0 0
291522.0 320885.0 0
294770.0 322692.0 0
298023.0 320850.0 0
205180.0 324437.0 0
211588.0 324466.0 0
217977.0 324525.0 0
224337.0 324607.0 0
230662.0 324709.0 0
236953.0 324835.0 0
243220.0 324985.0 0
249481.0 325162.0 0
252699.0 323404.0 0
255764.0 325365.0 0
259038.0 323644.0 0
262117.0 325605.0 0
265504.0 323974.0 0
272026.0 324432.0 0
278501.0 324674.0 0
284997.0 324625.0 0
291511.0 324542.0 0
298024.0 324505.0 0
201972.0 326243.0 0
205173.0 328050.0 0
208379.0 326258.0 0
211567.0 328089.0 0
214772.0 326310.0 0
217941.0 328166.0 0
221140.0 326391.0 0
224285.0 328272.0 0
227474.0 326496.0 0
233772.0 326621.0 0
240038.0 326767.0 0
246285.0 326933.0 0
252532.0 327117.0 0
258807.0 327317.0 0
265164.0 327549.0 0
268672.0 325997.0 0
271873.0 328108.0 0
275224.0 326466.0 0
278486.0 328395.0 0
281737.0 326510.0 0
285011.0 328285.0 0
288256.0 326405.0 0
291524.0 328179.0 0
294770.0 326335.0 0
298024.0 328141.0 0
302245.0 326711.0 0
201971.0 329846.0 0
208365.0 329867.0 0
214744.0 329934.0 0
221096.0 330037.0 0
227413.0 330167.0 0
230592.0 328399.0 0
233692.0 330317.0 0
236863.0 328546.0 0
239936.0 330481.0 0
243105.0 328709.0 0
246155.0 330656.0 0
249333.0 328885.0 0
252359.0 330837.0 0
255562.0 329069.0 0
258560.0 331015.0 0
261814.0 329257.0 0
268135.0 329470.0 0
275221.0 330167.0 0
281792.0 330187.0 0
288297.0 330042.0 0
294782.0 329963.0 0
201970.0 333434.0 0
205166.0 331647.0 0
208351.0 333461.0 0
211547.0 331698.0 0
214716.0 333543.0 0
217906.0 331793.0 0
224233.0 331923.0 0
230522.0 332077.0 0
236773.0 332246.0 0
242990.0 332425.0 0
249184.0 332608.0 0
255360.0 332788.0 0
261516.0 332959.0 0
264761.0 331187.0 0
267590.0 333147.0 0
270858.0 331429.0 0
273506.0 333197.0 0
278628.0 332120.0 0
285109.0 331932.0 0
288376.0 333686.0 0
291560.0 331807.0 0
294803.0 333584.0 0
298026.0 331765.0 0
205158.0 335229.0 0
211526.0 335291.0 0
217870.0 335406.0 0
221052.0 333669.0 0
224181.0 335561.0 0
227352.0 333825.0 0
230452.0 335742.0 0
233612.0 334000.0 0
236682.0 335936.0 0
239834.0 334186.0 0
242876.0 336135.0 0
246025.0 334375.0 0
252191.0 334562.0 0
258330.0 334741.0 0
264409.0 334919.0 0
270398.0 335097.0 0
276285.0 334693.0 0
279268.0 336071.0 0
282006.0 333865.0 0
285262.0 335617.0 0
291612.0 335440.0 0
298027.0 335381.0 0
302175.0 334795.0 0
201970.0 337006.0 0
205151.0 338797.0 0
208337.0 337041.0 0
211504.0 338871.0 0
214687.0 337139.0 0
221008.0 337287.0 0
227292.0 337470.0 0
233532.0 337673.0 0
239732.0 337882.0 0
245897.0 338090.0 0
249039.0 336331.0 0
252033.0 338290.0 0
255173.0 336520.0 0
258131.0 338483.0 0
261262.0 336703.0 0
264181.0 338667.0 0
267285.0 336882.0 0
270229.0 338769.0 0
273316.0 336859.0 0
276341.0 338387.0 0
282322.0 337697.0 0
288472.0 337352.0 0
294828.0 337204.0 0
298029.0 338990.0 0
201969.0 340563.0 0
208323.0 340606.0 0
214658.0 340721.0 0
217834.0 339006.0 0
220964.0 340892.0 0
224129.0 339186.0 0
227230.0 341104.0 0
230382.0 339396.0 0
236591.0 339617.0 0
242761.0 339837.0 0
248899.0 340050.0 0
255007.0 340254.0 0
261078.0 340449.0 0
267134.0 340595.0 0
273258.0 340485.0 0
279363.0 339875.0 0
282402.0 341464.0 0
285426.0 339364.0 0
288555.0 341038.0 0
291665.0 339080.0 0
294850.0 340820.0 0
201968.0 344106.0 0
205143.0 342350.0 0
208308.0 344158.0 0
211483.0 342437.0 0
217797.0 342592.0 0
224076.0 342799.0 0
230310.0 343038.0 0
233450.0 341335.0 0
236497.0 343287.0 0
239628.0 341570.0 0
242644.0 343530.0 0
245770.0 341797.0 0
248762.0 343760.0 0
251885.0 342013.0 0
254860.0 343978.0 0
257973.0 342220.0 0
264042.0 342395.0 0
270145.0 342427.0 0
273187.0 344129.0 0
276303.0 342059.0 0
279339.0 343600.0 0
285474.0 343079.0 0
291703.0 342719.0 0
298031.0 342588.0 0
197757.0 346338.0 0
205136.0 345890.0 0
211460.0 345990.0 0
214629.0 344289.0 0
217759.0 346165.0 0
220919.0 344485.0 0
224021.0 346400.0 0
227167.0 344726.0 0
233367.0 344988.0 0
239520.0 345248.0 0
245640.0 345494.0 0
251742.0 345723.0 0
257839.0 345936.0 0
260946.0 344176.0 0
263942.0 346103.0 0
267041.0 344289.0 0
270067.0 346096.0 0
276232.0 345728.0 0
282387.0 345172.0 0
285459.0 346752.0 0
288578.0 344698.0 0
291711.0 346329.0 0
294865.0 344423.0 0
298032.0 346168.0 0
201967.0 347634.0 0
205129.0 349417.0 0
208293.0 347698.0 0
214598.0 347845.0 0
220873.0 348065.0 0
227103.0 348336.0 0
230236.0 346670.0 0
233280.0 348631.0 0
236400.0 346949.0 0
239408.0 348919.0 0
242521.0 347214.0 0
248619.0 347457.0 0
254719.0 347681.0 0
260834.0 347878.0 0
266959.0 347983.0 0
273105.0 347794.0 0
276152.0 349397.0 0
279278.0 347287.0 0
282340.0 348843.0 0
288562.0 348318.0 0
294867.0 347998.0 0
201966.0 351144.0 0
208278.0 351225.0 0
211437.0 349530.0 0
214568.0 351388.0 0
217721.0 349725.0 0
220827.0 351632.0 0
223966.0 349989.0 0
230160.0 350293.0 0
236299.0 350603.0 0
242391.0 350892.0 0
245500.0 349181.0 0
248461.0 351141.0 0
251589.0 349414.0 0
254558.0 351358.0 0
257705.0 349626.0 0
260709.0 351553.0 0
263847.0 349795.0 0
266872.0 351684.0 0
269985.0 349785.0 0
273022.0 351474.0 0
279216.0 350951.0 0
285422.0 350394.0 0
288532.0 351894.0 0
291700.0 349897.0 0
294865.0 351534.0 0
298033.0 349723.0 0
201966.0 354633.0 0
205123.0 352931.0 0
208265.0 354742.0 0
211414.0 353058.0 0
217683.0 353273.0 0
223912.0 353567.0 0
227038.0 351937.0 0
230084.0 353906.0 0
233192.0 352266.0 0
236195.0 354252.0 0
239291.0 352584.0 0
245349.0 352862.0 0
251406.0 353087.0 0
257534.0 353282.0 0
263733.0 353468.0 0
269899.0 353496.0 0
276089.0 353061.0 0
279192.0 354598.0 0
282302.0 352491.0 0
285395.0 354023.0 0
291688.0 353413.0 0
298034.0 353248.0 0
205121.0 356434.0 0
211397.0 356574.0 0
214539.0 354917.0 0
217652.0 356807.0 0
220783.0 355188.0 0
223863.0 357133.0 0
226975.0 355527.0 0
233102.0 355895.0 0
239167.0 356246.0 0
242253.0 354567.0 0
245187.0 356545.0 0
248283.0 354822.0 0
251192.0 356761.0 0
254336.0 355008.0 0
257248.0 356893.0 0
260528.0 355187.0 0
263554.0 357095.0 0
266766.0 355393.0 0
269813.0 357225.0 0
272955.0 355160.0 0
276082.0 356707.0 0
282312.0 356133.0 0
285408.0 357675.0 0
288512.0 355417.0 0
291700.0 356868.0 0
294870.0 355026.0 0
298036.0 356749.0 0
201966.0 358094.0 0
205125.0 359928.0 0
208260.0 358247.0 0
214519.0 358432.0 0
220749.0 358730.0 0
226918.0 359110.0 0
230010.0 357513.0 0
233012.0 359520.0 0
236087.0 357898.0 0
242107.0 358242.0 0
248091.0 358509.0 0
254073.0 358670.0 0
260123.0 358733.0 0
266611.0 359093.0 0
272958.0 358820.0 0
279254.0 358231.0 0
282412.0 359797.0 0
288534.0 358860.0 0
294911.0 358480.0 0
201966.0 361511.0 0
208263.0 361740.0 0
211389.0 360077.0 0
214521.0 361930.0 0
217634.0 360325.0 0
220740.0 362258.0 0
223828.0 360689.0 0
229942.0 361116.0 0
235975.0 361544.0 0
239037.0 359909.0 0
241949.0 361921.0 0
245013.0 360232.0 0
250964.0 360452.0 0
256913.0 360543.0 0
262913.0 360521.0 0
265409.0 362349.0 0
269838.0 360946.0 0
273163.0 362434.0 0
276190.0 360318.0 0
279387.0 361859.0 0
285526.0 361409.0 0
288722.0 362118.0 0
291816.0 360251.0 0
295027.0 361933.0 0
298041.0 360248.0 0
201969.0 364850.0 0
205139.0 363421.0 0
208294.0 365205.0 0
211412.0 363563.0 0
217658.0 363824.0 0
223820.0 364238.0 0
226876.0 362687.0 0
229880.0 364721.0 0
232923.0 363147.0 0
238896.0 363575.0 0
244826.0 363925.0 0
247888.0 362207.0 0
250731.0 364162.0 0
253803.0 362368.0 0
256599.0 364256.0 0
259692.0 362380.0 0
262337.0 364241.0 0
267907.0 363878.0 0
276350.0 363943.0 0
279454.0 365483.0 0
282547.0 363473.0 0
285632.0 365257.0 0
292049.0 363592.0 0
298044.0 363789.0 0
205182.0 366923.0 0
211530.0 367009.0 0
214586.0 365405.0 0
217768.0 367307.0 0
220779.0 365775.0 0
226849.0 366266.0 0
232833.0 366782.0 0
235857.0 365196.0 0
238741.0 367252.0 0
241776.0 365606.0 0
247671.0 365913.0 0
253543.0 366093.0 0
259328.0 366143.0 0
265004.0 366043.0 0
267872.0 367480.0 0
270699.0 364927.0 0
273586.0 366255.0 0
276517.0 367674.0 0
282457.0 367119.0 0
285193.0 369050.0 0
288987.0 365128.0 0
291920.0 366995.0 0
295046.0 365457.0 0
298041.0 367320.0 0
201972.0 368043.0 0
201970.0 371010.0 0
208480.0 368585.0 0
211932.0 370389.0 0
214805.0 368847.0 0
220851.0 369305.0 0
223837.0 367791.0 0
226841.0 369857.0 0
229826.0 368335.0 0
235726.0 368863.0 0
241580.0 369301.0 0
244618.0 367624.0 0
247432.0 369621.0 0
250489.0 367880.0 0
256320.0 368012.0 0
259098.0 369906.0 0
262056.0 368005.0 0
264902.0 369689.0 0
270751.0 368678.0 0
273621.0 369996.0 0
279423.0 369179.0 0
282187.0 370876.0 0
288369.0 368086.0 0
291387.0 370139.0 0
294898.0 368916.0 0
201931.0 374091.0 0
205538.0 370399.0 0
209175.0 371760.0 0
214973.0 372375.0 0
217899.0 370827.0 0
220992.0 372846.0 0
223890.0 371357.0 0
229758.0 371973.0 0
232731.0 370436.0 0
235572.0 372550.0 0
238565.0 370945.0 0
244383.0 371330.0 0
250228.0 371591.0 0
253289.0 369826.0 0
256094.0 371747.0 0
261938.0 371724.0 0
267807.0 371103.0 0
270699.0 372376.0 0
276477.0 371395.0 0
279254.0 372935.0 0
284867.0 372772.0 0
287972.0 371367.0 0
294349.0 372125.0 0
298020.0 370751.0 0
298050.0 373894.0 0
200039.0 377256.0 0
203017.0 376958.0 0
204651.0 373582.0 0
207513.0 373795.0 0
212052.0 373977.0 0
218160.0 374330.0 0
223915.0 374977.0 0
226814.0 373483.0 0
232599.0 374114.0 0
238366.0 374657.0 0
241363.0 373013.0 0
244132.0 375052.0 0
247161.0 373327.0 0
249927.0 375282.0 0
253029.0 373528.0 0
258948.0 373616.0 0
264831.0 373353.0 0
267755.0 374760.0 0
273568.0 373707.0 0
276370.0 375142.0 0
281940.0 374643.0 0
284575.0 376482.0 0
290770.0 373361.0 0
292661.0 375767.0 0
295394.0 374952.0 0
300439.0 377538.0 0
303209.0 379275.0 0
194633.0 380625.0 0
197443.0 378873.0 0
200851.0 380138.0 0
204246.0 379642.0 0
206196.0 376778.0 0
209636.0 376162.0 0
212972.0 377440.0 0
215410.0 375799.0 0
218302.0 377964.0 0
221078.0 376471.0 0
226734.0 377156.0 0
229649.0 375645.0 0
232418.0 377818.0 0
235384.0 376257.0 0
241129.0 376742.0 0
246885.0 377050.0 0
252694.0 377176.0 0
255461.0 378978.0 0
255871.0 375418.0 0
258788.0 377258.0 0
261853.0 375432.0 0
264798.0 377041.0 0
270681.0 376068.0 0
273548.0 377444.0 0
279080.0 376714.0 0
281711.0 378409.0 0
287554.0 374834.0 0
289867.0 377057.0 0
295002.0 378331.0 0
297865.0 377303.0 0
300348.0 380452.0 0
305914.0 380972.0 0
191775.0 382408.0 0
194533.0 383593.0 0
197700.0 381657.0 0
200123.0 383491.0 0
206364.0 382006.0 0
207819.0 379406.0 0
210714.0 379306.0 0
215681.0 379561.0 0
221063.0 380173.0 0
223870.0 378663.0 0
226586.0 380879.0 0
229480.0 379353.0 0
235145.0 379980.0 0
238134.0 378384.0 0
240874.0 380477.0 0
243879.0 378791.0 0
246630.0 380793.0 0
249633.0 378995.0 0
252377.0 380867.0 0
258190.0 380681.0 0
261768.0 379128.0 0
264928.0 380709.0 0
267810.0 378434.0 0
270789.0 379795.0 0
276309.0 378934.0 0
278959.0 380533.0 0
284227.0 380253.0 0
287038.0 378549.0 0
289574.0 380724.0 0
292240.0 379457.0 0
294699.0 381755.0 0
297562.0 380633.0 0
303205.0 382412.0 0
308580.0 382641.0 0
311119.0 384230.0 0
186385.0 385780.0 0
189149.0 384058.0 0
192122.0 385628.0 0
197064.0 384642.0 0
203045.0 382595.0 0
204795.0 385162.0 0
207840.0 384554.0 0
210026.0 382479.0 0
213154.0 381298.0 0
215716.0 383375.0 0
218354.0 381734.0 0
223749.0 382406.0 0
229242.0 383101.0 0
232174.0 381546.0 0
237859.0 382110.0 0
243626.0 382528.0 0
249385.0 382744.0 0
255106.0 382651.0 0
260691.0 382395.0 0
263296.0 383685.0 0
268076.0 382135.0 0
273648.0 381249.0 0
276381.0 382806.0 0
281492.0 382232.0 0
283950.0 383988.0 0
286770.0 382200.0 0
289409.0 384245.0 0
292048.0 383234.0 0
297309.0 383924.0 0
300199.0 383397.0 0
303256.0 385343.0 0
306182.0 384269.0 0
309188.0 386169.0 0
313474.0 385701.0 0
183732.0 387437.0 0
189198.0 387111.0 0
191919.0 388684.0 0
195058.0 387029.0 0
198756.0 386795.0 0
201843.0 386007.0 0
207033.0 387670.0 0
210205.0 386289.0 0
212778.0 384725.0 0
218266.0 385541.0 0
220981.0 383955.0 0
223565.0 386211.0 0
226370.0 384654.0 0
231858.0 385301.0 0
234844.0 383712.0 0
237533.0 385823.0 0
240592.0 384197.0 0
246400.0 384538.0 0
252141.0 384621.0 0
254883.0 386435.0 0
257761.0 384414.0 0
260547.0 386032.0 0
266029.0 384818.0 0
268804.0 386115.0 0
271058.0 383596.0 0
273876.0 385134.0 0
279007.0 384457.0 0
281535.0 386180.0 0
286408.0 385740.0 0
291954.0 387130.0 0
294510.0 385306.0 0
297511.0 387093.0 0
300326.0 386346.0 0
303552.0 388234.0 0
306396.0 387259.0 0
312084.0 388032.0 0
315867.0 387195.0 0
318370.0 388744.0 0
178180.0 390905.0 0
180942.0 389176.0 0
183797.0 390437.0 0
186650.0 388981.0 0
189508.0 390395.0 0
194254.0 390104.0 0
197307.0 389448.0 0
200749.0 389175.0 0
203962.0 388466.0 0
206122.0 390904.0 0
209441.0 389635.0 0
212576.0 388410.0 0
215399.0 386981.0 0
218009.0 389235.0 0
220819.0 387773.0 0
226072.0 388493.0 0
228929.0 386898.0 0
231479.0 389086.0 0
234477.0 387447.0 0
237142.0 389505.0 0
240273.0 387878.0 0
243366.0 386237.0 0
246190.0 388252.0 0
249192.0 386509.0 0
251995.0 388412.0 0
257727.0 388131.0 0
260711.0 389644.0 0
263462.0 387342.0 0
266362.0 388620.0 0
271552.0 387583.0 0
274277.0 389100.0 0
276596.0 386737.0 0
279208.0 388444.0 0
284055.0 387892.0 0
286751.0 389460.0 0
289053.0 387336.0 0
294849.0 388724.0 0
297934.0 390221.0 0
300702.0 389311.0 0
306683.0 390267.0 0
309439.0 389295.0 0
312187.0 391446.0 0
314810.0 389728.0 0
317821.0 391240.0 0
321118.0 390464.0 0
175372.0 392658.0 0
178202.0 393942.0 0
181071.0 392229.0 0
183981.0 393571.0 0
186532.0 392128.0 0
189073.0 393411.0 0
192175.0 392383.0 0
195793.0 392541.0 0
199140.0 391956.0 0
202716.0 391557.0 0
206320.0 393864.0 0
209181.0 392785.0 0
212192.0 391765.0 0
215172.0 390598.0 0
220470.0 391579.0 0
223281.0 390078.0 0
228547.0 390746.0 0
234073.0 391197.0 0
239871.0 391493.0 0
243084.0 389884.0 0
249049.0 390260.0 0
254880.0 390183.0 0
257897.0 391788.0 0
263723.0 391013.0 0
269200.0 390038.0 0
272014.0 391564.0 0
276928.0 390753.0 0
281801.0 390156.0 0
284575.0 391701.0 0
289968.0 390330.0 0
292758.0 390946.0 0
295566.0 392244.0 0
300991.0 392435.0 0
303817.0 391190.0 0
306493.0 393394.0 0
309527.0 392479.0 0
315066.0 392831.0 0
318445.0 393776.0 0
321250.0 393126.0 0
324168.0 392366.0 0
169795.0 396145.0 0
172592.0 394398.0 0
175478.0 395733.0 0
181053.0 395248.0 0
184001.0 396463.0 0
186860.0 395660.0 0
190660.0 395597.0 0
193827.0 395110.0 0
197276.0 395034.0 0
200449.0 394543.0 0
203496.0 394276.0 0
211525.0 395183.0 0
214597.0 394138.0 0
217596.0 392949.0 0
222855.0 393955.0 0
225690.0 392389.0 0
231063.0 392892.0 0
233675.0 394961.0 0
236747.0 393183.0 0
239494.0 395131.0 0
242639.0 393412.0 0
245381.0 395311.0 0
245967.0 391892.0 0
248939.0 393932.0 0
251977.0 392165.0 0
255039.0 393868.0 0
260982.0 393270.0 0
264025.0 394728.0 0
266671.0 392422.0 0
269569.0 393919.0 0
274757.0 393201.0 0
277434.0 394892.0 0
279561.0 392478.0 0
282373.0 393995.0 0
287706.0 392821.0 0
290821.0 393733.0 0
293796.0 394657.0 0
298480.0 393457.0 0
303430.0 394389.0 0
306330.0 396474.0 0
309447.0 395377.0 0
312575.0 394834.0 0
315880.0 395698.0 0
319224.0 396382.0 0
322123.0 395724.0 0
324784.0 395125.0 0
327357.0 394352.0 0
330243.0 396174.0 0
164087.0 399714.0 0
166951.0 397923.0 0
169854.0 399172.0 0
172704.0 397464.0 0
178438.0 397064.0 0
181544.0 398358.0 0
185057.0 399057.0 0
188617.0 397994.0 0
192159.0 398166.0 0
195454.0 397838.0 0
198819.0 397675.0 0
202021.0 397346.0 0
205252.0 397049.0 0
208480.0 396230.0 0
213763.0 397614.0 0
216918.0 396568.0 0
219959.0 395366.0 0
225215.0 396310.0 0
228104.0 394637.0 0
230641.0 396682.0 0
236405.0 396845.0 0
242257.0 397027.0 0
247963.0 397149.0 0
250518.0 398729.0 0
252097.0 395839.0 0
255407.0 397503.0 0
258197.0 395420.0 0
261309.0 396942.0 0
267014.0 396225.0 0
272417.0 395525.0 0
275202.0 397197.0 0
280225.0 396383.0 0
283203.0 397664.0 0
285429.0 395227.0 0
288590.0 396228.0 0
291730.0 397172.0 0
296889.0 395777.0 0
294890.0 398081.0 0
300473.0 396097.0 0
303529.0 397405.0 0
308509.0 398465.0 0
311669.0 397902.0 0
314584.0 398145.0 0
317778.0 398700.0 0
321392.0 398712.0 0
324577.0 398191.0 0
327508.0 397438.0 0
332959.0 397866.0 0
161214.0 401509.0 0
166978.0 400969.0 0
169945.0 402175.0 0
172839.0 400487.0 0
175701.0 398781.0 0
178832.0 400078.0 0
182163.0 401171.0 0
187506.0 400758.0 0
190562.0 400904.0 0
193899.0 400851.0 0
197169.0 400605.0 0
200506.0 400395.0 0
203843.0 400046.0 0
207270.0 399453.0 0
210585.0 398619.0 0
216002.0 400057.0 0
219237.0 399035.0 0
222314.0 397814.0 0
227605.0 398552.0 0
233322.0 398730.0 0
239223.0 398812.0 0
244935.0 399014.0 0
247650.0 400779.0 0
253313.0 399993.0 0
258583.0 399104.0 0
264368.0 398473.0 0
267417.0 400010.0 0
269978.0 397779.0 0
272907.0 399473.0 0
278042.0 398801.0 0
280968.0 400161.0 0
286376.0 398693.0 0
289587.0 399638.0 0
292833.0 400519.0 0
298346.0 398680.0 0
301509.0 399506.0 0
305164.0 399949.0 0
307993.0 401282.0 0
311098.0 400909.0 0
314071.0 400974.0 0
317018.0 401300.0 0
320286.0 401255.0 0
323773.0 401062.0 0
327081.0 400529.0 0
330069.0 399492.0 0
332834.0 400812.0 0
335832.0 399662.0 0
338811.0 401526.0 0
158301.0 403326.0 0
161201.0 404558.0 0
164105.0 402791.0 0
167033.0 404013.0 0
170036.0 405156.0 0
175904.0 401742.0 0
179038.0 402960.0 0
185012.0 402512.0 0
188389.0 403696.0 0
191983.0 403685.0 0
195445.0 403610.0 0
198842.0 403359.0 0
202323.0 403025.0 0
205829.0 402510.0 0
209315.0 401848.0 0
212712.0 401016.0 0
218254.0 402531.0 0
221578.0 401547.0 0
224692.0 400257.0 0
230227.0 400364.0 0
236172.0 400429.0 0
233136.0 402522.0 0
236097.0 403840.0 0
242024.0 400724.0 0
241905.0 404357.0 0
244813.0 402837.0 0
250637.0 402278.0 0
256180.0 401434.0 0
259047.0 402975.0 0
261662.0 400663.0 0
264782.0 402211.0 0
270475.0 401577.0 0
275800.0 401106.0 0
278662.0 402701.0 0
284178.0 401178.0 0
287443.0 402116.0 0
290747.0 402982.0 0
296209.0 401185.0 0
299484.0 401938.0 0
302916.0 402423.0 0
305997.0 403398.0 0
309591.0 403901.0 0
312826.0 403890.0 0
315992.0 404085.0 0
319265.0 404030.0 0
322637.0 403752.0 0
326166.0 403355.0 0
329636.0 402709.0 0
332812.0 403447.0 0
335968.0 402597.0 0
338576.0 404725.0 0
341603.0 403281.0 0
152268.0 407097.0 0
155310.0 405195.0 0
158212.0 406296.0 0
161134.0 407611.0 0
164104.0 405878.0 0
167040.0 407043.0 0
170046.0 408104.0 0
172988.0 403492.0 0
176066.0 404705.0 0
179068.0 406089.0 0
181907.0 404262.0 0
184848.0 405444.0 0
187426.0 406564.0 0
190496.0 406481.0 0
193846.0 406523.0 0
197249.0 406352.0 0
200773.0 405944.0 0
204340.0 405504.0 0
207896.0 404933.0 0
211418.0 404248.0 0
214871.0 403438.0 0
217005.0 405913.0 0
220473.0 405058.0 0
223933.0 404110.0 0
227076.0 402639.0 0
230046.0 403667.0 0
239080.0 402537.0 0
245059.0 406703.0 0
247779.0 404325.0 0
251017.0 405807.0 0
253649.0 403752.0 0
256370.0 405396.0 0
262155.0 404374.0 0
267860.0 403765.0 0
270989.0 405190.0 0
273592.0 403394.0 0
276401.0 405359.0 0
281973.0 403688.0 0
285313.0 404615.0 0
288675.0 405475.0 0
294122.0 403710.0 0
297452.0 404421.0 0
300851.0 405003.0 0
304098.0 405755.0 0
307608.0 406267.0 0
311169.0 406671.0 0
314567.0 406841.0 0
317976.0 406859.0 0
321378.0 406611.0 0
324835.0 406147.0 0
328281.0 405692.0 0
331454.0 405801.0 0
335170.0 405485.0 0
339648.0 407547.0 0
342031.0 406256.0 0
344650.0 405169.0 0
149195.0 409019.0 0
152072.0 410083.0 0
155156.0 408159.0 0
158091.0 409260.0 0
164041.0 408978.0 0
166972.0 410059.0 0
173093.0 406508.0 0
176126.0 407737.0 0
182116.0 407477.0 0
185053.0 408910.0 0
188359.0 409449.0 0
191862.0 409314.0 0
195512.0 409305.0 0
199224.0 408848.0 0
202843.0 408453.0 0
206435.0 407965.0 0
209996.0 407379.0 0
213521.0 406699.0 0
218837.0 408561.0 0
222085.0 407878.0 0
225189.0 407258.0 0
228223.0 406463.0 0
231895.0 406286.0 0
235112.0 406716.0 0
238658.0 406364.0 0
241811.0 407457.0 0
248466.0 407663.0 0
253516.0 407819.0 0
259499.0 406682.0 0
262780.0 407989.0 0
265298.0 405982.0 0
268237.0 407548.0 0
271612.0 408324.0 0
274780.0 408316.0 0
279832.0 406242.0 0
283241.0 407147.0 0
286653.0 408000.0 0
292072.0 406235.0 0
295452.0 406948.0 0
298853.0 407570.0 0
302200.0 408230.0 0
305676.0 408726.0 0
309213.0 409124.0 0
312796.0 409449.0 0
316390.0 409582.0 0
319958.0 409505.0 0
323516.0 409023.0 0
326939.0 408642.0 0
330170.0 408585.0 0
333508.0 408220.0 0
336787.0 407893.0 0
342093.0 409723.0 0
344735.0 408423.0 0
347451.0 406938.0 0
350088.0 408585.0 0
352836.0 410301.0 0
142962.0 412916.0 0
146066.0 410974.0 0
148864.0 412001.0 0
154986.0 411125.0 0
157926.0 412219.0 0
161025.0 410684.0 0
163909.0 412113.0 0
166844.0 413043.0 0
169992.0 411028.0 0
173070.0 409559.0 0
176116.0 410690.0 0
179236.0 409195.0 0
182296.0 410757.0 0
192176.0 412143.0 0
195125.0 412342.0 0
198216.0 411773.0 0
201568.0 411426.0 0
205027.0 411001.0 0
208528.0 410498.0 0
212020.0 409923.0 0
215469.0 409274.0 0
220606.0 411399.0 0
223856.0 410833.0 0
227056.0 410211.0 0
230153.0 409592.0 0
233367.0 409632.0 0
236799.0 409653.0 0
239902.0 410094.0 0
243461.0 410258.0 0
246766.0 410282.0 0
250663.0 410302.0 0
256706.0 409091.0 0
259749.0 410265.0 0
262928.0 411153.0 0
266071.0 410344.0 0
278042.0 408978.0 0
281374.0 409782.0 0
284759.0 410593.0 0
290079.0 408777.0 0
293497.0 409498.0 0
296919.0 410148.0 0
300313.0 410772.0 0
303759.0 411277.0 0
307215.0 411679.0 0
310647.0 412009.0 0
314014.0 412256.0 0
317181.0 412404.0 0
320055.0 412383.0 0
322973.0 411899.0 0
326108.0 411594.0 0
329265.0 411463.0 0
332517.0 411160.0 0
335752.0 410833.0 0
338963.0 410580.0 0
344581.0 411914.0 0
347233.0 410427.0 0
349862.0 411767.0 0
355705.0 412091.0 0
139888.0 414838.0 0
145740.0 414015.0 0
148547.0 415037.0 0
151681.0 413010.0 0
154514.0 413985.0 0
157353.0 415015.0 0
160814.0 413792.0 0
163670.0 415265.0 0
170018.0 413850.0 0
173101.0 412653.0 0
176147.0 413674.0 0
179142.0 412258.0 0
182049.0 413846.0 0
185500.0 412077.0 0
189008.0 412127.0 0
200203.0 414534.0 0
203583.0 414121.0 0
207018.0 413656.0 0
210470.0 413149.0 0
213905.0 412597.0 0
217292.0 412002.0 0
225731.0 413790.0 0
228938.0 413290.0 0
231947.0 412899.0 0
234974.0 412776.0 0
237976.0 413177.0 0
241288.0 413322.0 0
244745.0 413433.0 0
248296.0 413332.0 0
251807.0 413767.0 0
254173.0 411470.0 0
257313.0 412999.0 0
260800.0 413765.0 0
269518.0 411054.0 0
273032.0 411539.0 0
276334.0 411897.0 0
279642.0 412556.0 0
282994.0 413285.0 0
288182.0 411359.0 0
291619.0 412078.0 0
295062.0 412742.0 0
298497.0 413361.0 0
301953.0 413888.0 0
308839.0 414694.0 0
325207.0 414666.0 0
328364.0 414438.0 0
331591.0 414143.0 0
334837.0 413808.0 0
338093.0 413472.0 0
341418.0 412836.0 0
347106.0 414083.0 0
350081.0 414704.0 0
352898.0 413411.0 0
355567.0 415373.0 0
358470.0 413826.0 0
361234.0 415554.0 0
136893.0 416716.0 0
139666.0 418025.0 0
142633.0 416011.0 0
145409.0 417088.0 0
151387.0 416032.0 0
154264.0 417006.0 0
160028.0 416714.0 0
162208.0 418205.0 0
166854.0 415898.0 0
169948.0 416586.0 0
173093.0 415837.0 0
176231.0 416466.0 0
179324.0 415482.0 0
184187.0 415360.0 0
187176.0 414997.0 0
190370.0 415110.0 0
193568.0 415265.0 0
196954.0 415039.0 0
208843.0 416384.0 0
212284.0 415888.0 0
215704.0 415370.0 0
219087.0 414836.0 0
222428.0 414312.0 0
231373.0 416343.0 0
235058.0 416208.0 0
238771.0 416390.0 0
242369.0 416498.0 0
245897.0 416527.0 0
249240.0 416634.0 0
252522.0 416938.0 0
255622.0 416160.0 0
259002.0 416586.0 0
264495.0 413960.0 0
267759.0 413962.0 0
271183.0 414457.0 0
274607.0 414931.0 0
277949.0 415438.0 0
281301.0 416075.0 0
286394.0 414011.0 0
289826.0 414708.0 0
293279.0 415367.0 0
296740.0 415982.0 0
300218.0 416526.0 0
305408.0 414326.0 0
312229.0 415007.0 0
315549.0 415281.0 0
318829.0 415393.0 0
322076.0 415081.0 0
330615.0 417169.0 0
333894.0 416811.0 0
337199.0 416416.0 0
340554.0 415837.0 0
343890.0 415075.0 0
349267.0 417374.0 0
352655.0 416705.0 0
355200.0 418728.0 0
358225.0 417112.0 0
364076.0 417328.0 0
131089.0 420355.0 0
133966.0 418551.0 0
136783.0 419984.0 0
142487.0 419207.0 0
145344.0 420297.0 0
148205.0 418087.0 0
151014.0 419038.0 0
153821.0 419961.0 0
157162.0 418104.0 0
159695.0 420446.0 0
165094.0 418519.0 0
168155.0 419106.0 0
171584.0 419090.0 0
174682.0 419010.0 0
178303.0 418736.0 0
181609.0 417794.0 0
185049.0 418192.0 0
188312.0 418023.0 0
191660.0 418114.0 0
195132.0 418021.0 0
198592.0 417752.0 0
201971.0 417294.0 0
205400.0 416856.0 0
210587.0 419158.0 0
214044.0 418685.0 0
217491.0 418200.0 0
220927.0 417709.0 0
224369.0 417221.0 0
227837.0 416752.0 0
250661.0 419961.0 0
262571.0 416947.0 0
266075.0 417208.0 0
269446.0 417449.0 0
272856.0 417896.0 0
276256.0 418391.0 0
279633.0 418938.0 0
284689.0 416742.0 0
288112.0 417401.0 0
291564.0 418037.0 0
295038.0 418639.0 0
298532.0 419188.0 0
303697.0 416994.0 0
307161.0 417396.0 0
310601.0 417744.0 0
314007.0 418049.0 0
317418.0 418211.0 0
320835.0 418102.0 0
324137.0 417794.0 0
327359.0 417485.0 0
332842.0 419853.0 0
336186.0 419418.0 0
339572.0 418857.0 0
342939.0 418192.0 0
346223.0 417396.0 0
348546.0 420287.0 0
351926.0 419721.0 0
357902.0 420365.0 0
361015.0 418737.0 0
364098.0 420434.0 0
367058.0 419186.0 0
370082.0 421077.0 0
128242.0 422135.0 0
133958.0 421883.0 0
136860.0 423313.0 0
139653.0 421290.0 0
142574.0 422479.0 0
148238.0 421312.0 0
151177.0 422280.0 0
154180.0 423227.0 0
156625.0 420956.0 0
162870.0 421286.0 0
166063.0 421670.0 0
169492.0 421875.0 0
172867.0 421950.0 0
176305.0 421631.0 0
179758.0 421262.0 0
182913.0 420930.0 0
186343.0 421072.0 0
189708.0 420995.0 0
193185.0 420938.0 0
196697.0 420773.0 0
200201.0 420477.0 0
203658.0 420054.0 0
207124.0 419618.0 0
215766.0 421521.0 0
219245.0 421064.0 0
222722.0 420605.0 0
226203.0 420157.0 0
229692.0 419749.0 0
233185.0 419475.0 0
236708.0 419457.0 0
240269.0 419587.0 0
243798.0 419676.0 0
247251.0 419791.0 0
254174.0 419843.0 0
257416.0 419697.0 0
260827.0 419971.0 0
264297.0 420272.0 0
267747.0 420568.0 0
271149.0 420905.0 0
274558.0 421354.0 0
283027.0 419543.0 0
286450.0 420157.0 0
289902.0 420761.0 0
293381.0 421340.0 0
302036.0 419674.0 0
305538.0 420099.0 0
309026.0 420470.0 0
312498.0 420789.0 0
315979.0 420990.0 0
319462.0 420999.0 0
322885.0 420840.0 0
326216.0 420567.0 0
329522.0 420232.0 0
335112.0 422460.0 0
338539.0 421889.0 0
341949.0 421277.0 0
345306.0 420600.0 0
351070.0 422689.0 0
354616.0 421954.0 0
358230.0 423339.0 0
361139.0 421781.0 0
364207.0 423576.0 0
367154.0 422319.0 0
373124.0 422981.0 0
122365.0 425804.0 0
125341.0 423945.0 0
128341.0 425416.0 0
131177.0 423732.0 0
134097.0 425276.0 0
139818.0 424605.0 0
142839.0 425778.0 0
145545.0 423573.0 0
148577.0 424583.0 0
151690.0 425525.0 0
157547.0 423669.0 0
160588.0 423732.0 0
163886.0 424330.0 0
167281.0 424563.0 0
170717.0 424722.0 0
174208.0 424639.0 0
177612.0 424370.0 0
180941.0 424153.0 0
184252.0 423957.0 0
187707.0 423980.0 0
191180.0 423873.0 0
194708.0 423747.0 0
198255.0 423536.0 0
201793.0 423225.0 0
205297.0 422830.0 0
208794.0 422409.0 0
212282.0 421970.0 0
217445.0 424393.0 0
220945.0 423967.0 0
224436.0 423549.0 0
227915.0 423163.0 0
231378.0 422860.0 0
234836.0 422713.0 0
238321.0 422728.0 0
241834.0 422820.0 0
245329.0 422929.0 0
248810.0 423058.0 0
252329.0 423078.0 0
255774.0 423070.0 0
259143.0 423119.0 0
262568.0 423361.0 0
266015.0 423650.0 0
269453.0 423976.0 0
272874.0 424357.0 0
277967.0 421858.0 0
281379.0 422401.0 0
284812.0 422968.0 0
288270.0 423535.0 0
291755.0 424086.0 0
296886.0 421880.0 0
300408.0 422370.0 0
303939.0 422807.0 0
307468.0 423194.0 0
310993.0 423526.0 0
314527.0 423758.0 0
318062.0 423851.0 0
321556.0 423801.0 0
324984.0 423619.0 0
328359.0 423315.0 0
331725.0 422926.0 0
337476.0 424930.0 0
340920.0 424350.0 0
344312.0 423747.0 0
347637.0 423288.0 0
355820.0 424889.0 0
361219.0 424928.0 0
367275.0 425488.0 0
370215.0 424250.0 0
373274.0 426199.0 0
376168.0 424885.0 0
119337.0 427697.0 0
125378.0 427155.0 0
128454.0 428652.0 0
131335.0 427158.0 0
137066.0 426683.0 0
140109.0 427938.0 0
145944.0 426846.0 0
149131.0 427819.0 0
155017.0 426196.0 0
158314.0 426647.0 0
161559.0 426877.0 0
164981.0 427265.0 0
168428.0 427456.0 0
171926.0 427511.0 0
175392.0 427421.0 0
178791.0 427242.0 0
182191.0 427065.0 0
185609.0 426923.0 0
189121.0 426858.0 0
192655.0 426724.0 0
196223.0 426554.0 0
199800.0 426315.0 0
203361.0 426004.0 0
206898.0 425632.0 0
210423.0 425232.0 0
213937.0 424816.0 0
222585.0 426923.0 0
226074.0 426562.0 0
229543.0 426256.0 0
232998.0 426051.0 0
236459.0 425972.0 0
239943.0 425998.0 0
243444.0 426083.0 0
246949.0 426186.0 0
250472.0 426254.0 0
253968.0 426303.0 0
257423.0 426370.0 0
260847.0 426509.0 0
264291.0 426755.0 0
267740.0 427054.0 0
276299.0 424811.0 0
279732.0 425307.0 0
283179.0 425828.0 0
286648.0 426357.0 0
290142.0 426877.0 0
295267.0 424609.0 0
298802.0 425092.0 0
302354.0 425531.0 0
305916.0 425924.0 0
309482.0 426264.0 0
313061.0 426523.0 0
316642.0 426676.0 0
320200.0 426713.0 0
323707.0 426624.0 0
327154.0 426390.0 0
330572.0 426020.0 0
334002.0 425536.0 0
339894.0 427416.0 0
343293.0 426887.0 0
346593.0 426414.0 0
349840.0 425880.0 0
352973.0 425282.0 0
355485.0 428107.0 0
358456.0 426900.0 0
361305.0 428111.0 0
364290.0 426726.0 0
367406.0 428666.0 0
370348.0 427453.0 0
376251.0 428167.0 0
379182.0 426774.0 0
382175.0 428649.0 0
113228.0 431520.0 0
116275.0 429612.0 0
119231.0 430924.0 0
122335.0 429008.0 0
125404.0 430324.0 0
128565.0 431776.0 0
131515.0 430640.0 0
134299.0 428703.0 0
137331.0 430064.0 0
140540.0 431230.0 0
143268.0 429062.0 0
146512.0 430087.0 0
149853.0 430968.0 0
152454.0 428609.0 0
155815.0 429226.0 0
159197.0 429647.0 0
162584.0 429907.0 0
166056.0 430191.0 0
169558.0 430322.0 0
173064.0 430349.0 0
180012.0 430126.0 0
183487.0 429976.0 0
186992.0 429839.0 0
190550.0 429727.0 0
194131.0 429566.0 0
197730.0 429370.0 0
201328.0 429122.0 0
204912.0 428816.0 0
208474.0 428464.0 0
212022.0 428088.0 0
215555.0 427699.0 0
219077.0 427308.0 0
231141.0 429412.0 0
234609.0 429276.0 0
238086.0 429236.0 0
241581.0 429271.0 0
245092.0 429347.0 0
248616.0 429423.0 0
252133.0 429496.0 0
255629.0 429581.0 0
259099.0 429705.0 0
271185.0 427402.0 0
274628.0 427803.0 0
278078.0 428252.0 0
281542.0 428731.0 0
285024.0 429221.0 0
293661.0 427378.0 0
297207.0 427846.0 0
300774.0 428277.0 0
304358.0 428668.0 0
307956.0 429012.0 0
311570.0 429289.0 0
315194.0 429482.0 0
318811.0 429582.0 0
322398.0 429581.0 0
325927.0 429452.0 0
329387.0 429133.0 0
332858.0 428642.0 0
336408.0 427964.0 0
338913.0 430438.0 0
342381.0 429978.0 0
345763.0 429533.0 0
349085.0 429048.0 0
352335.0 428521.0 0
358296.0 430398.0 0
361439.0 431007.0 0
364474.0 429869.0 0
370268.0 430762.0 0
373274.0 429491.0 0
376167.0 431500.0 0
379198.0 430104.0 0
385163.0 430521.0 0
110187.0 433425.0 0
116209.0 432902.0 0
122225.0 432182.0 0
125244.0 433407.0 0
134480.0 432161.0 0
137748.0 433360.0 0
143841.0 432314.0 0
147218.0 433282.0 0
153248.0 431696.0 0
156684.0 432254.0 0
160140.0 432639.0 0
163608.0 432897.0 0
167130.0 433109.0 0
176546.0 430273.0 0
188391.0 432733.0 0
191993.0 432591.0 0
195608.0 432415.0 0
199231.0 432206.0 0
202849.0 431955.0 0
206451.0 431661.0 0
210033.0 431330.0 0
213596.0 430981.0 0
217142.0 430625.0 0
220670.0 430273.0 0
224179.0 429938.0 0
227668.0 429641.0 0
262556.0 429894.0 0
266017.0 430156.0 0
269481.0 430469.0 0
272945.0 430831.0 0
276414.0 431235.0 0
279895.0 431672.0 0
283393.0 432125.0 0
288529.0 429710.0 0
292059.0 430185.0 0
295613.0 430635.0 0
299191.0 431054.0 0
302790.0 431437.0 0
306408.0 431778.0 0
310047.0 432063.0 0
313702.0 432280.0 0
317365.0 432422.0 0
321022.0 432484.0 0
324651.0 432456.0 0
328215.0 432278.0 0
331691.0 431795.0 0
335350.0 430955.0 0
341457.0 433021.0 0
344908.0 432622.0 0
348308.0 432180.0 0
351663.0 431692.0 0
354974.0 431217.0 0
360649.0 433755.0 0
364108.0 433133.0 0
367236.0 431996.0 0
369974.0 434124.0 0
373093.0 432839.0 0
379067.0 433466.0 0
382143.0 432012.0 0
388161.0 432396.0 0
391182.0 434286.0 0
107142.0 435331.0 0
113207.0 434857.0 0
116287.0 436230.0 0
119244.0 434208.0 0
122330.0 435455.0 0
125509.0 436642.0 0
128290.0 434628.0 0
131551.0 434246.0 0
134915.0 435471.0 0
141110.0 434481.0 0
144539.0 435537.0 0
150642.0 434110.0 0
154106.0 434780.0 0
157600.0 435284.0 0
161111.0 435634.0 0
164645.0 435868.0 0
170666.0 433209.0 0
174207.0 433218.0 0
177743.0 433142.0 0
181276.0 433013.0 0
184822.0 432873.0 0
197090.0 435279.0 0
200732.0 435066.0 0
204365.0 434820.0 0
207981.0 434541.0 0
211577.0 434235.0 0
215151.0 433917.0 0
218706.0 433597.0 0
222240.0 433289.0 0
225754.0 433007.0 0
229252.0 432773.0 0
232739.0 432606.0 0
236228.0 432518.0 0
239726.0 432503.0 0
243238.0 432542.0 0
246763.0 432607.0 0
250290.0 432685.0 0
253808.0 432777.0 0
257311.0 432897.0 0
260798.0 433062.0 0
264279.0 433283.0 0
267761.0 433561.0 0
271246.0 433886.0 0
274736.0 434251.0 0
278234.0 434648.0 0
286910.0 432583.0 0
290451.0 433031.0 0
294015.0 433461.0 0
297602.0 433865.0 0
301210.0 434237.0 0
304841.0 434570.0 0
308493.0 434856.0 0
312166.0 435085.0 0
315854.0 435251.0 0
319552.0 435351.0 0
323250.0 435385.0 0
326939.0 435337.0 0
330575.0 435078.0 0
334316.0 433868.0 0
337936.0 433410.0 0
347451.0 435303.0 0
350843.0 434861.0 0
354188.0 434400.0 0
357505.0 433764.0 0
363379.0 436201.0 0
366774.0 435316.0 0
372752.0 436209.0 0
375936.0 434865.0 0
381988.0 435395.0 0
385101.0 433906.0 0
391118.0 437665.0 0
394246.0 436201.0 0
100985.0 439182.0 0
104079.0 437247.0 0
107177.0 438711.0 0
110201.0 436792.0 0
113315.0 438219.0 0
119431.0 437522.0 0
122668.0 438721.0 0
129036.0 437387.0 0
132252.0 437731.0 0
135607.0 438809.0 0
138339.0 436619.0 0
141813.0 437710.0 0
145328.0 438767.0 0
148002.0 436473.0 0
151492.0 437258.0 0
155008.0 437873.0 0
158548.0 438324.0 0
168214.0 436033.0 0
171799.0 436105.0 0
175394.0 436096.0 0
178989.0 436019.0 0
182584.0 435899.0 0
186190.0 435763.0 0
189811.0 435619.0 0
193448.0 435462.0 0
202234.0 437955.0 0
205879.0 437719.0 0
209506.0 437459.0 0
213111.0 437181.0 0
216695.0 436896.0 0
220259.0 436616.0 0
223802.0 436353.0 0
227327.0 436122.0 0
230840.0 435942.0 0
234348.0 435823.0 0
237859.0 435770.0 0
241378.0 435773.0 0
244907.0 435815.0 0
248442.0 435884.0 0
251975.0 435973.0 0
255499.0 436088.0 0
259014.0 436238.0 0
262520.0 436433.0 0
266023.0 436677.0 0
269529.0 436967.0 0
273038.0 437297.0 0
281748.0 435066.0 0
285280.0 435492.0 0
288832.0 435914.0 0
292406.0 436323.0 0
296003.0 436710.0 0
299621.0 437069.0 0
303260.0 437394.0 0
306920.0 437678.0 0
310599.0 437913.0 0
333568.0 436676.0 0
337075.0 436354.0 0
340557.0 436040.0 0
344020.0 435695.0 0
349979.0 438024.0 0
353381.0 437593.0 0
356742.0 437065.0 0
360008.0 436774.0 0
366120.0 438536.0 0
369497.0 437471.0 0
375580.0 438241.0 0
378813.0 436844.0 0
381736.0 438786.0 0
384941.0 437303.0 0
388087.0 435790.0 0
394211.0 439561.0 0
397362.0 438148.0 0
400533.0 440131.0 0
97853.8 441141.0 0
104112.0 440629.0 0
107303.0 442094.0 0
110328.0 440181.0 0
116495.0 439571.0 0
119754.0 440818.0 0
126100.0 439687.0 0
129502.0 440457.0 0
132839.0 441111.0 0
139063.0 439881.0 0
142594.0 440940.0 0
148850.0 439684.0 0
152383.0 440425.0 0
155941.0 440980.0 0
162117.0 438631.0 0
165714.0 438832.0 0
169342.0 438958.0 0
172987.0 439003.0 0
176638.0 438979.0 0
180288.0 438901.0 0
183937.0 438787.0 0
187590.0 438654.0 0
191249.0 438509.0 0
194914.0 438348.0 0
198577.0 438164.0 0
214644.0 440168.0 0
218238.0 439917.0 0
221812.0 439676.0 0
225368.0 439457.0 0
228909.0 439274.0 0
232441.0 439139.0 0
235970.0 439058.0 0
239502.0 439031.0 0
243041.0 439048.0 0
246585.0 439100.0 0
250130.0 439179.0 0
253672.0 439285.0 0
257209.0 439423.0 0
260739.0 439598.0 0
264265.0 439814.0 0
267792.0 440073.0 0
276557.0 437658.0 0
280087.0 438042.0 0
283634.0 438437.0 0
287199.0 438832.0 0
290785.0 439219.0 0
294392.0 439589.0 0
298019.0 439935.0 0
301666.0 440251.0 0
314294.0 438093.0 0
318000.0 438218.0 0
321710.0 438288.0 0
325418.0 438307.0 0
329108.0 438284.0 0
332388.0 439249.0 0
336029.0 439311.0 0
339556.0 439067.0 0
343056.0 438768.0 0
346534.0 438420.0 0
352494.0 440774.0 0
355945.0 440314.0 0
359322.0 439914.0 0
362719.0 439358.0 0
365459.0 441801.0 0
368887.0 440778.0 0
372278.0 439572.0 0
375125.0 441608.0 0
378467.0 440223.0 0
384706.0 440705.0 0
387937.0 439190.0 0
390997.0 441033.0 0
394138.0 442899.0 0
397371.0 441500.0 0
403752.0 442144.0 0
94686.3 443122.0 0
97851.4 444542.0 0
101003.0 442569.0 0
104221.0 444004.0 0
107506.0 445474.0 0
110549.0 443584.0 0
113534.0 441596.0 0
116802.0 442914.0 0
120152.0 444085.0 0
123134.0 441896.0 0
126550.0 442823.0 0
129983.0 443625.0 0
136271.0 442110.0 0
139791.0 443126.0 0
146173.0 442030.0 0
149731.0 442932.0 0
153298.0 443616.0 0
159540.0 441366.0 0
163178.0 441623.0 0
166847.0 441786.0 0
170538.0 441877.0 0
174240.0 441901.0 0
177941.0 441868.0 0
181636.0 441791.0 0
185327.0 441683.0 0
189016.0 441556.0 0
192704.0 441414.0 0
196390.0 441255.0 0
200070.0 441076.0 0
203739.0 440876.0 0
207394.0 440655.0 0
211029.0 440417.0 0
226944.0 442597.0 0
230503.0 442455.0 0
234056.0 442358.0 0
237606.0 442308.0 0
241159.0 442302.0 0
244715.0 442334.0 0
248274.0 442398.0 0
251831.0 442492.0 0
255387.0 442617.0 0
258938.0 442774.0 0
271322.0 440370.0 0
274860.0 440698.0 0
278408.0 441049.0 0
281971.0 441414.0 0
285550.0 441784.0 0
289148.0 442149.0 0
292766.0 442501.0 0
296403.0 442833.0 0
305332.0 440531.0 0
309016.0 440769.0 0
312713.0 440961.0 0
316417.0 441105.0 0
320119.0 441205.0 0
323805.0 441271.0 0
327444.0 441332.0 0
330885.0 441819.0 0
334604.0 442104.0 0
338305.0 442056.0 0
341915.0 441826.0 0
345478.0 441525.0 0
349005.0 441171.0 0
355024.0 443512.0 0
358535.0 443099.0 0
362006.0 442569.0 0
368232.0 444123.0 0
371704.0 442920.0 0
378055.0 443588.0 0
381418.0 442175.0 0
387732.0 442591.0 0
390838.0 444379.0 0
397344.0 444835.0 0
400584.0 443493.0 0
407006.0 444180.0 0
88265.6 447141.0 0
91485.7 445125.0 0
94661.5 446546.0 0
101085.0 445950.0 0
104390.0 447366.0 0
113829.0 444993.0 0
117163.0 446265.0 0
123559.0 445108.0 0
127014.0 446004.0 0
130504.0 446829.0 0
133421.0 444414.0 0
136935.0 445380.0 0
140510.0 446350.0 0
143388.0 444157.0 0
147041.0 445351.0 0
150614.0 446230.0 0
156923.0 444082.0 0
160604.0 444394.0 0
164322.0 444600.0 0
168062.0 444728.0 0
171810.0 444794.0 0
175557.0 444805.0 0
179297.0 444769.0 0
183028.0 444695.0 0
186749.0 444595.0 0
190465.0 444475.0 0
194175.0 444339.0 0
197877.0 444187.0 0
201570.0 444017.0 0
205250.0 443830.0 0
208913.0 443628.0 0
212558.0 443413.0 0
216182.0 443193.0 0
219787.0 442977.0 0
223373.0 442774.0 0
262487.0 442968.0 0
266035.0 443200.0 0
269586.0 443467.0 0
273143.0 443765.0 0
276709.0 444086.0 0
280288.0 444423.0 0
283882.0 444767.0 0
287494.0 445110.0 0
291123.0 445444.0 0
300058.0 443140.0 0
303732.0 443416.0 0
307421.0 443655.0 0
311122.0 443855.0 0
314829.0 444016.0 0
318533.0 444141.0 0
322223.0 444240.0 0
325878.0 444344.0 0
329444.0 444634.0 0
333107.0 444852.0 0
336861.0 444929.0 0
340588.0 444825.0 0
344254.0 444594.0 0
347875.0 444289.0 0
351462.0 443928.0 0
361175.0 445800.0 0
364730.0 445100.0 0
367503.0 447513.0 0
371080.0 446285.0 0
374604.0 444962.0 0
377612.0 446927.0 0
381067.0 445552.0 0
384430.0 444110.0 0
387496.0 446002.0 0
390648.0 447693.0 0
394031.0 446210.0 0
400588.0 446848.0 0
403831.0 445534.0 0
407093.0 447612.0 0
410280.0 446230.0 0
85029.5 449167.0 0
91457.5 448587.0 0
94706.9 449982.0 0
97904.4 447940.0 0
101217.0 449320.0 0
107757.0 448846.0 0
110828.0 447012.0 0
114165.0 448419.0 0
120555.0 447379.0 0
124013.0 448345.0 0
127523.0 449211.0 0
134021.0 447679.0 0
137573.0 448642.0 0
144159.0 447336.0 0
147878.0 448790.0 0
154267.0 446792.0 0
158002.0 447152.0 0
161777.0 447398.0 0
165568.0 447563.0 0
169362.0 447667.0 0
173152.0 447718.0 0
176932.0 447723.0 0
180700.0 447687.0 0
184456.0 447620.0 0
188201.0 447527.0 0
191936.0 447416.0 0
195662.0 447289.0 0
199378.0 447147.0 0
203081.0 446990.0 0
206770.0 446819.0 0
210442.0 446636.0 0
214096.0 446446.0 0
217731.0 446256.0 0
221347.0 446073.0 0
224948.0 445907.0 0
228536.0 445767.0 0
232113.0 445662.0 0
235686.0 445596.0 0
239257.0 445572.0 0
242829.0 445585.0 0
246402.0 445633.0 0
249976.0 445713.0 0
253548.0 445823.0 0
257119.0 445964.0 0
260688.0 446138.0 0
264257.0 446346.0 0
267829.0 446587.0 0
271405.0 446857.0 0
274990.0 447150.0 0
278586.0 447461.0 0
282195.0 447781.0 0
294770.0 445763.0 0
298435.0 446060.0 0
302116.0 446330.0 0
305813.0 446570.0 0
309520.0 446776.0 0
313234.0 446948.0 0
316946.0 447091.0 0
320648.0 447212.0 0
324329.0 447333.0 0
327967.0 447533.0 0
331647.0 447707.0 0
335380.0 447785.0 0
339144.0 447759.0 0
342889.0 447614.0 0
346593.0 447369.0 0
350265.0 447050.0 0
353920.0 446669.0 0
357556.0 446265.0 0
363851.0 448414.0 0
370409.0 449671.0 0
374053.0 448307.0 0
380747.0 448910.0 0
384147.0 447520.0 0
390443.0 450951.0 0
393899.0 449489.0 0
397279.0 448154.0 0
400541.0 450207.0 0
403844.0 448931.0 0
410353.0 449713.0 0
413561.0 448285.0 0
416841.0 450341.0 0
81788.2 451197.0 0
88242.2 450642.0 0
91512.3 452066.0 0
98013.7 451343.0 0
101375.0 452683.0 0
104595.0 450710.0 0
108043.0 452187.0 0
111153.0 450491.0 0
114519.0 451897.0 0
117540.0 449647.0 0
120993.0 450688.0 0
124512.0 451595.0 0
131069.0 450053.0 0
134641.0 450949.0 0
141136.0 449567.0 0
144720.0 450419.0 0
151579.0 449508.0 0
155392.0 449907.0 0
159232.0 450185.0 0
163076.0 450387.0 0
166912.0 450527.0 0
170739.0 450615.0 0
174554.0 450659.0 0
178355.0 450662.0 0
182142.0 450630.0 0
185916.0 450569.0 0
189678.0 450486.0 0
193428.0 450384.0 0
197166.0 450268.0 0
200892.0 450138.0 0
204605.0 449995.0 0
208302.0 449841.0 0
211983.0 449680.0 0
215647.0 449515.0 0
219293.0 449353.0 0
222923.0 449202.0 0
226539.0 449070.0 0
230143.0 448964.0 0
233740.0 448890.0 0
237332.0 448852.0 0
240923.0 448850.0 0
244513.0 448883.0 0
248103.0 448947.0 0
251693.0 449042.0 0
255282.0 449167.0 0
258871.0 449323.0 0
262460.0 449510.0 0
266051.0 449727.0 0
269647.0 449972.0 0
273250.0 450240.0 0
276863.0 450526.0 0
285820.0 448102.0 0
289461.0 448418.0 0
293119.0 448723.0 0
296794.0 449009.0 0
300485.0 449273.0 0
304189.0 449511.0 0
307905.0 449721.0 0
311627.0 449902.0 0
315350.0 450056.0 0
319068.0 450190.0 0
322773.0 450319.0 0
326459.0 450476.0 0
330164.0 450617.0 0
333903.0 450696.0 0
337667.0 450692.0 0
341440.0 450602.0 0
345198.0 450419.0 0
348928.0 450151.0 0
352639.0 449806.0 0
356352.0 449412.0 0
360087.0 448967.0 0
362551.0 451605.0 0
366574.0 450910.0 0
373817.0 451636.0 0
377269.0 450224.0 0
380423.0 452271.0 0
383885.0 450962.0 0
387244.0 449455.0 0
393809.0 452729.0 0
397192.0 451465.0 0
403759.0 452351.0 0
407080.0 451064.0 0
413596.0 451831.0 0
420115.0 452394.0 0
75296.4 455265.0 0
78544.6 453230.0 0
81812.1 454804.0 0
85022.6 452718.0 0
88316.9 454168.0 0
94829.5 453437.0 0
98194.1 454768.0 0
104778.0 454023.0 0
108227.0 455427.0 0
111490.0 454081.0 0
117968.0 453044.0 0
121498.0 454006.0 0
128082.0 452437.0 0
131694.0 453293.0 0
135343.0 454239.0 0
138226.0 451948.0 0
141776.0 452834.0 0
145367.0 453368.0 0
148940.0 452287.0 0
152829.0 452683.0 0
156725.0 452977.0 0
160608.0 453208.0 0
164476.0 453382.0 0
168331.0 453506.0 0
172173.0 453585.0 0
176002.0 453624.0 0
179816.0 453627.0 0
183616.0 453600.0 0
187403.0 453546.0 0
191177.0 453473.0 0
194938.0 453382.0 0
198686.0 453277.0 0
202422.0 453160.0 0
206143.0 453033.0 0
209850.0 452898.0 0
213540.0 452758.0 0
217214.0 452618.0 0
220872.0 452484.0 0
224516.0 452362.0 0
228147.0 452261.0 0
231769.0 452185.0 0
235384.0 452139.0 0
238996.0 452125.0 0
242605.0 452144.0 0
246213.0 452194.0 0
249820.0 452274.0 0
253428.0 452384.0 0
257035.0 452523.0 0
260643.0 452691.0 0
264254.0 452887.0 0
267868.0 453109.0 0
280487.0 450822.0 0
284126.0 451123.0 0
287780.0 451422.0 0
291449.0 451711.0 0
295134.0 451987.0 0
298835.0 452244.0 0
302548.0 452479.0 0
306273.0 452690.0 0
310005.0 452875.0 0
313741.0 453037.0 0
317475.0 453180.0 0
321203.0 453313.0 0
324923.0 453449.0 0
339960.0 453597.0 0
343740.0 453460.0 0
347503.0 453244.0 0
351247.0 452946.0 0
354985.0 452568.0 0
358738.0 452135.0 0
364375.0 454472.0 0
367625.0 454118.0 0
370633.0 452976.0 0
376912.0 453577.0 0
383568.0 454409.0 0
387034.0 453014.0 0
390406.0 454070.0 0
397013.0 454810.0 0
400399.0 453594.0 0
406927.0 454549.0 0
410289.0 453228.0 0
413474.0 455410.0 0
416827.0 453955.0 0
423382.0 454443.0 0
78594.8 456890.0 0
85135.8 456301.0 0
88510.9 457730.0 0
91659.9 455570.0 0
95051.1 456915.0 0
101591.0 456074.0 0
105017.0 457353.0 0
108526.0 458561.0 0
114950.0 455405.0 0
118495.0 456448.0 0
125083.0 454858.0 0
128711.0 455681.0 0
132377.0 456540.0 0
139032.0 455324.0 0
142761.0 456093.0 0
146812.0 456001.0 0
150483.0 455591.0 0
154333.0 455822.0 0
158204.0 456054.0 0
162077.0 456250.0 0
165943.0 456402.0 0
215113.0 455868.0 0
218798.0 455752.0 0
222469.0 455644.0 0
226127.0 455551.0 0
229774.0 455477.0 0
233414.0 455428.0 0
237047.0 455406.0 0
240676.0 455414.0 0
244303.0 455452.0 0
247929.0 455519.0 0
251555.0 455614.0 0
255181.0 455738.0 0
271489.0 453354.0 0
275119.0 453616.0 0
278759.0 453891.0 0
282411.0 454172.0 0
286078.0 454453.0 0
289759.0 454728.0 0
293455.0 454993.0 0
297165.0 455242.0 0
300889.0 455473.0 0
304623.0 455683.0 0
308366.0 455870.0 0
312115.0 456037.0 0
328653.0 453569.0 0
332406.0 453645.0 0
336178.0 453658.0 0
349802.0 456097.0 0
353530.0 455776.0 0
357226.0 455388.0 0
360865.0 454946.0 0
366672.0 457465.0 0
370202.0 456631.0 0
373483.0 455280.0 0
376533.0 456908.0 0
380056.0 455634.0 0
386586.0 456681.0 0
390095.0 457098.0 0
393609.0 456012.0 0
396623.0 458206.0 0
400088.0 457024.0 0
403524.0 455809.0 0
406605.0 458061.0 0
410065.0 456772.0 0
416642.0 457605.0 0
420044.0 456083.0 0
423252.0 458200.0 0
426648.0 456491.0 0
429927.0 458546.0 0
65544.1 461374.0 0
68801.0 459334.0 0
72050.1 457297.0 0
75379.0 458982.0 0
81947.9 458437.0 0
85354.1 459908.0 0
91937.3 459103.0 0
95414.8 460423.0 0
98486.0 458226.0 0
101964.0 459502.0 0
105505.0 460706.0 0
112009.0 457790.0 0
115561.0 458939.0 0
122094.0 457331.0 0
125719.0 458138.0 0
129335.0 458948.0 0
132883.0 459811.0 0
136101.0 457531.0 0
140030.0 458689.0 0
144552.0 458877.0 0
148400.0 458888.0 0
152094.0 458808.0 0
155892.0 458975.0 0
169801.0 456512.0 0
173649.0 456583.0 0
177484.0 456618.0 0
181307.0 456623.0 0
185116.0 456600.0 0
188913.0 456554.0 0
192696.0 456489.0 0
196466.0 456410.0 0
200224.0 456317.0 0
203968.0 456214.0 0
207698.0 456103.0 0
211413.0 455986.0 0
258808.0 455888.0 0
262437.0 456065.0 0
266069.0 456267.0 0
269707.0 456490.0 0
273353.0 456731.0 0
277009.0 456985.0 0
280676.0 457247.0 0
284355.0 457511.0 0
288048.0 457772.0 0
291755.0 458025.0 0
295476.0 458266.0 0
299209.0 458492.0 0
315865.0 456185.0 0
319613.0 456319.0 0
323360.0 456445.0 0
327114.0 456554.0 0
330882.0 456628.0 0
334667.0 456651.0 0
338461.0 456615.0 0
342256.0 456512.0 0
346041.0 456340.0 0
355826.0 458662.0 0
359506.0 458289.0 0
363120.0 457882.0 0
369248.0 460129.0 0
372843.0 459106.0 0
376156.0 460072.0 0
379632.0 459006.0 0
383114.0 457894.0 0
389470.0 460148.0 0
393090.0 459300.0 0
399570.0 460480.0 0
403106.0 459294.0 0
409664.0 460336.0 0
413183.0 459017.0 0
419795.0 459809.0 0
426474.0 460299.0 0
433234.0 460616.0 0
62267.6 463424.0 0
68938.4 463142.0 0
72163.1 461070.0 0
78760.7 460580.0 0
82194.0 462099.0 0
88818.8 461307.0 0
92340.1 462649.0 0
98949.7 461705.0 0
102556.0 462933.0 0
109164.0 461675.0 0
112759.0 461537.0 0
116361.0 462485.0 0
119177.0 459866.0 0
122829.0 460677.0 0
126471.0 461470.0 0
130057.0 462323.0 0
136210.0 460841.0 0
159731.0 459160.0 0
163588.0 459322.0 0
167448.0 459452.0 0
171305.0 459548.0 0
175155.0 459611.0 0
178995.0 459644.0 0
182823.0 459649.0 0
186640.0 459631.0 0
190444.0 459592.0 0
194235.0 459537.0 0
198014.0 459468.0 0
201779.0 459388.0 0
205532.0 459299.0 0
209270.0 459205.0 0
212994.0 459107.0 0
216705.0 459009.0 0
220401.0 458916.0 0
224085.0 458833.0 0
227757.0 458765.0 0
231421.0 458716.0 0
235076.0 458691.0 0
238727.0 458692.0 0
242374.0 458720.0 0
246020.0 458775.0 0
249664.0 458857.0 0
253308.0 458966.0 0
256953.0 459101.0 0
260600.0 459261.0 0
264250.0 459444.0 0
267905.0 459648.0 0
271567.0 459869.0 0
275238.0 460104.0 0
278919.0 460348.0 0
282611.0 460596.0 0
286316.0 460842.0 0
290035.0 461084.0 0
302954.0 458699.0 0
306708.0 458887.0 0
310469.0 459056.0 0
314234.0 459207.0 0
318001.0 459342.0 0
321769.0 459463.0 0
325545.0 459566.0 0
329331.0 459639.0 0
333130.0 459671.0 0
336938.0 459653.0 0
340749.0 459580.0 0
344554.0 459445.0 0
348342.0 459249.0 0
352103.0 458989.0 0
365543.0 460784.0 0
371718.0 462868.0 0
375229.0 463102.0 0
378907.0 462416.0 0
382441.0 461411.0 0
385959.0 460375.0 0
388618.0 463336.0 0
392315.0 462586.0 0
395979.0 461599.0 0
402506.0 462790.0 0
406103.0 461589.0 0
412704.0 462638.0 0
416281.0 461283.0 0
419363.0 463571.0 0
422950.0 461984.0 0
429732.0 462391.0 0
437282.0 463122.0 0
58960.3 465493.0 0
65686.5 465211.0 0
69152.0 466977.0 0
75571.0 462734.0 0
79027.4 464303.0 0
85689.6 463533.0 0
89245.1 464895.0 0
95922.0 463936.0 0
99577.7 465173.0 0
106258.0 464041.0 0
110010.0 464902.0 0
113649.0 465246.0 0
120048.0 463287.0 0
123740.0 464058.0 0
127392.0 464880.0 0
133493.0 463345.0 0
139098.0 462037.0 0
142433.0 461718.0 0
146169.0 461943.0 0
149914.0 461985.0 0
153643.0 462010.0 0
157437.0 462141.0 0
161268.0 462288.0 0
165118.0 462421.0 0
168976.0 462531.0 0
172833.0 462614.0 0
176685.0 462670.0 0
180529.0 462700.0 0
184363.0 462707.0 0
188186.0 462693.0 0
191996.0 462661.0 0
195795.0 462615.0 0
199581.0 462557.0 0
203354.0 462490.0 0
207114.0 462415.0 0
210861.0 462337.0 0
214594.0 462257.0 0
218315.0 462180.0 0
222023.0 462108.0 0
225720.0 462048.0 0
229407.0 462004.0 0
233086.0 461978.0 0
236758.0 461974.0 0
240426.0 461995.0 0
244090.0 462040.0 0
247753.0 462111.0 0
251416.0 462207.0 0
255079.0 462328.0 0
258743.0 462472.0 0
262410.0 462639.0 0
266082.0 462825.0 0
269760.0 463029.0 0
273446.0 463246.0 0
277141.0 463473.0 0
293766.0 461316.0 0
297509.0 461535.0 0
301264.0 461739.0 0
305029.0 461926.0 0
308801.0 462095.0 0
312580.0 462247.0 0
316364.0 462383.0 0
320151.0 462502.0 0
323946.0 462602.0 0
327749.0 462675.0 0
331564.0 462714.0 0
335388.0 462711.0 0
339216.0 462661.0 0
343043.0 462559.0 0
346861.0 462403.0 0
350656.0 462191.0 0
354421.0 461919.0 0
358153.0 461593.0 0
361860.0 461222.0 0
373984.0 466195.0 0
377782.0 465727.0 0
381498.0 464921.0 0
385086.0 463984.0 0
391445.0 465904.0 0
395173.0 464978.0 0
398866.0 463929.0 0
405437.0 465129.0 0
409085.0 463912.0 0
415719.0 464973.0 0
422469.0 465784.0 0
426152.0 464115.0 0
430811.0 466036.0 0
433959.0 464386.0 0
437285.0 466839.0 0
440610.0 465212.0 0
55627.7 467578.0 0
59080.2 469367.0 0
62397.2 467278.0 0
65875.8 469062.0 0
72375.3 464877.0 0
75854.0 466520.0 0
82545.8 465778.0 0
86130.7 467166.0 0
92861.4 466195.0 0
96545.3 467435.0 0
103323.0 466336.0 0
107144.0 467407.0 0
110967.0 468315.0 0
117363.0 465978.0 0
121106.0 466707.0 0
130942.0 465859.0 0
136598.0 464617.0 0
140289.0 465088.0 0
143892.0 464995.0 0
147633.0 465096.0 0
151394.0 465144.0 0
155166.0 465203.0 0
158976.0 465312.0 0
162813.0 465432.0 0
166666.0 465544.0 0
170525.0 465637.0 0
174384.0 465709.0 0
178239.0 465759.0 0
182086.0 465786.0 0
185925.0 465795.0 0
189753.0 465785.0 0
193569.0 465761.0 0
197374.0 465724.0 0
201167.0 465676.0 0
204947.0 465622.0 0
208715.0 465561.0 0
212471.0 465499.0 0
216214.0 465436.0 0
219945.0 465378.0 0
223665.0 465328.0 0
227375.0 465289.0 0
231076.0 465265.0 0
234770.0 465260.0 0
238458.0 465276.0 0
242143.0 465314.0 0
245824.0 465376.0 0
249505.0 465461.0 0
253186.0 465569.0 0
256867.0 465699.0 0
260551.0 465851.0 0
264239.0 466021.0 0
267933.0 466209.0 0
280846.0 463705.0 0
284563.0 463938.0 0
288292.0 464168.0 0
292034.0 464390.0 0
295787.0 464603.0 0
299552.0 464802.0 0
303328.0 464987.0 0
307112.0 465155.0 0
310903.0 465307.0 0
314702.0 465443.0 0
318506.0 465562.0 0
322317.0 465661.0 0
326137.0 465735.0 0
329966.0 465779.0 0
333805.0 465787.0 0
337650.0 465755.0 0
341499.0 465679.0 0
345344.0 465556.0 0
349178.0 465387.0 0
352987.0 465165.0 0
356763.0 464883.0 0
360514.0 464539.0 0
364255.0 464128.0 0
368007.0 463565.0 0
380380.0 468331.0 0
384112.0 467512.0 0
387760.0 466726.0 0
394282.0 468382.0 0
398035.0 467377.0 0
401755.0 466289.0 0
408353.0 467503.0 0
412045.0 466272.0 0
418672.0 467361.0 0
427638.0 467576.0 0
433974.0 468327.0 0
440553.0 469020.0 0
443930.0 467294.0 0
447258.0 469379.0 0
48899.1 471788.0 0
52273.6 469676.0 0
55740.3 471474.0 0
62569.9 471153.0 0
69406.0 470819.0 0
72660.5 468727.0 0
79394.9 468047.0 0
83004.1 469469.0 0
89774.2 468484.0 0
93473.6 469735.0 0
100302.0 468614.0 0
104122.0 469735.0 0
107966.0 470855.0 0
114786.0 468801.0 0
118564.0 469442.0 0
124828.0 467476.0 0
128478.0 468377.0 0
134049.0 467379.0 0
137749.0 467945.0 0
141551.0 468194.0 0
145298.0 468202.0 0
149087.0 468268.0 0
152885.0 468324.0 0
156693.0 468395.0 0
160523.0 468491.0 0
164371.0 468593.0 0
168230.0 468687.0 0
172093.0 468768.0 0
175955.0 468831.0 0
179814.0 468876.0 0
183665.0 468903.0 0
187508.0 468913.0 0
191341.0 468908.0 0
195163.0 468890.0 0
198974.0 468862.0 0
202773.0 468825.0 0
206561.0 468783.0 0
210336.0 468736.0 0
214100.0 468689.0 0
217853.0 468644.0 0
221594.0 468604.0 0
225326.0 468572.0 0
229049.0 468553.0 0
232764.0 468548.0 0
236472.0 468562.0 0
240177.0 468595.0 0
243877.0 468649.0 0
247576.0 468725.0 0
271633.0 466410.0 0
275342.0 466621.0 0
279060.0 466838.0 0
282789.0 467058.0 0
286529.0 467277.0 0
290281.0 467490.0 0
294044.0 467695.0 0
297819.0 467889.0 0
301604.0 468070.0 0
305399.0 468237.0 0
309202.0 468388.0 0
313014.0 468524.0 0
316832.0 468642.0 0
320659.0 468742.0 0
324493.0 468818.0 0
328337.0 468867.0 0
332189.0 468883.0 0
336050.0 468864.0 0
339916.0 468807.0 0
343785.0 468708.0 0
347652.0 468570.0 0
351512.0 468398.0 0
355337.0 468169.0 0
359129.0 467868.0 0
362902.0 467487.0 0
366663.0 466998.0 0
370377.0 466430.0 0
376566.0 469003.0 0
383025.0 470966.0 0
386786.0 470169.0 0
390529.0 469310.0 0
397124.0 470844.0 0
400897.0 469795.0 0
404640.0 468679.0 0
407507.0 471117.0 0
411233.0 469931.0 0
414948.0 468687.0 0
421086.0 470203.0 0
424416.0 468979.0 0
427350.0 471468.0 0
430690.0 469948.0 0
437163.0 470674.0 0
443842.0 471155.0 0
450597.0 471471.0 0
45510.0 473910.0 0
52384.1 473596.0 0
59246.6 473265.0 0
66101.2 472927.0 0
69670.3 474658.0 0
76225.9 470330.0 0
79866.4 471801.0 0
86672.1 470807.0 0
90384.3 472077.0 0
97227.1 470922.0 0
101023.0 472057.0 0
104843.0 473172.0 0
112322.0 471722.0 0
116161.0 472306.0 0
119980.0 472877.0 0
122350.0 470121.0 0
126094.0 470927.0 0
131466.0 470263.0 0
135209.0 470815.0 0
139057.0 471166.0 0
142918.0 471334.0 0
146742.0 471387.0 0
150572.0 471452.0 0
154402.0 471517.0 0
158239.0 471593.0 0
162088.0 471681.0 0
165948.0 471770.0 0
169814.0 471852.0 0
251274.0 468822.0 0
254973.0 468941.0 0
258673.0 469079.0 0
262377.0 469235.0 0
266086.0 469408.0 0
269800.0 469594.0 0
273522.0 469791.0 0
277253.0 469995.0 0
280993.0 470202.0 0
284744.0 470410.0 0
288506.0 470614.0 0
292280.0 470811.0 0
296064.0 470999.0 0
299858.0 471177.0 0
303663.0 471341.0 0
307477.0 471491.0 0
311300.0 471626.0 0
346073.0 471748.0 0
349969.0 471598.0 0
353867.0 471437.0 0
357711.0 471200.0 0
361525.0 470864.0 0
365317.0 470431.0 0
369076.0 469928.0 0
372786.0 469510.0 0
379207.0 471709.0 0
385721.0 473622.0 0
389534.0 472761.0 0
393334.0 471831.0 0
399970.0 473318.0 0
403754.0 472245.0 0
414013.0 472470.0 0
417610.0 471311.0 0
423922.0 472831.0 0
430383.0 473876.0 0
433791.0 472280.0 0
436958.0 474592.0 0
440407.0 472894.0 0
447153.0 473285.0 0
453952.0 473571.0 0
49022.0 475738.0 0
55897.0 475394.0 0
59429.2 477185.0 0
62778.4 475049.0 0
66346.0 476828.0 0
73037.0 472621.0 0
76722.9 474156.0 0
83564.6 473167.0 0
87303.3 474461.0 0
94129.0 473282.0 0
97884.7 474429.0 0
101605.0 475541.0 0
109473.0 474158.0 0
113841.0 475179.0 0
117748.0 475777.0 0
121649.0 476255.0 0
123807.0 473524.0 0
128872.0 473218.0 0
132677.0 473730.0 0
136561.0 474112.0 0
140471.0 474362.0 0
144367.0 474502.0 0
148234.0 474579.0 0
152094.0 474652.0 0
173682.0 471923.0 0
177548.0 471980.0 0
181410.0 472021.0 0
185265.0 472048.0 0
189112.0 472060.0 0
192950.0 472060.0 0
196777.0 472049.0 0
200594.0 472030.0 0
204399.0 472004.0 0
208194.0 471973.0 0
211977.0 471940.0 0
215749.0 471907.0 0
219511.0 471878.0 0
223263.0 471855.0 0
227007.0 471841.0 0
230742.0 471839.0 0
234470.0 471852.0 0
238194.0 471882.0 0
241913.0 471931.0 0
245630.0 472000.0 0
249345.0 472088.0 0
253060.0 472196.0 0
256777.0 472322.0 0
260496.0 472466.0 0
264219.0 472626.0 0
267947.0 472799.0 0
271682.0 472982.0 0
275425.0 473174.0 0
279177.0 473369.0 0
282939.0 473566.0 0
286711.0 473761.0 0
290493.0 473951.0 0
294287.0 474133.0 0
315131.0 471744.0 0
318971.0 471844.0 0
322819.0 471922.0 0
326676.0 471976.0 0
330541.0 472000.0 0
334414.0 471992.0 0
338294.0 471949.0 0
342181.0 471867.0 0
356247.0 474518.0 0
360121.0 474249.0 0
363958.0 473869.0 0
367764.0 473395.0 0
371548.0 472911.0 0
375364.0 472356.0 0
381886.0 474400.0 0
388480.0 476238.0 0
392330.0 475312.0 0
396161.0 474339.0 0
402816.0 475829.0 0
406596.0 474751.0 0
410334.0 473629.0 0
416820.0 475124.0 0
420404.0 474021.0 0
426899.0 475349.0 0
433489.0 476240.0 0
440194.0 476821.0 0
443692.0 475062.0 0
447015.0 477244.0 0
450482.0 475410.0 0
457320.0 475679.0 0
52539.3 477552.0 0
56080.4 479353.0 0
62989.1 478965.0 0
70138.5 478493.0 0
73585.4 476532.0 0
80459.9 475567.0 0
84235.8 476879.0 0
91059.9 475693.0 0
94825.0 476867.0 0
98580.2 478009.0 0
105202.0 476662.0 0
108689.0 477636.0 0
112205.0 478368.0 0
126292.0 476229.0 0
130166.0 476692.0 0
155951.0 474725.0 0
159811.0 474802.0 0
163676.0 474885.0 0
167546.0 474965.0 0
171418.0 475039.0 0
175291.0 475103.0 0
179161.0 475155.0 0
183027.0 475194.0 0
186886.0 475221.0 0
190737.0 475236.0 0
194579.0 475241.0 0
198412.0 475237.0 0
202234.0 475226.0 0
206046.0 475210.0 0
209847.0 475191.0 0
213638.0 475171.0 0
217418.0 475152.0 0
221189.0 475138.0 0
224952.0 475130.0 0
228706.0 475132.0 0
232454.0 475147.0 0
236195.0 475176.0 0
239933.0 475221.0 0
243667.0 475284.0 0
247399.0 475365.0 0
251131.0 475464.0 0
254863.0 475580.0 0
258597.0 475713.0 0
262334.0 475861.0 0
266075.0 476022.0 0
269823.0 476194.0 0
273578.0 476374.0 0
277341.0 476558.0 0
298090.0 474306.0 0
301904.0 474467.0 0
305728.0 474616.0 0
309561.0 474750.0 0
313403.0 474868.0 0
317255.0 474968.0 0
321115.0 475049.0 0
324984.0 475106.0 0
328862.0 475138.0 0
332746.0 475139.0 0
336637.0 475108.0 0
340535.0 475041.0 0
344440.0 474936.0 0
348353.0 474796.0 0
352282.0 474633.0 0
366442.0 476881.0 0
370273.0 476366.0 0
374135.0 475766.0 0
378012.0 475111.0 0
384612.0 477090.0 0
391296.0 478819.0 0
395161.0 477858.0 0
399003.0 476864.0 0
405663.0 478394.0 0
409436.0 477324.0 0
413161.0 476227.0 0
419710.0 477825.0 0
423332.0 476666.0 0
429959.0 477806.0 0
436674.0 478552.0 0
443489.0 478992.0 0
453814.0 477545.0 0
59643.9 481137.0 0
66867.5 480743.0 0
70750.9 482361.0 0
77364.3 478003.0 0
81203.7 479346.0 0
88012.5 478143.0 0
91798.2 479345.0 0
95594.7 480497.0 0
102293.0 479156.0 0
105999.0 480276.0 0
109751.0 481232.0 0
115861.0 478842.0 0
119664.0 479238.0 0
134087.0 477077.0 0
138028.0 477368.0 0
141965.0 477569.0 0
145881.0 477700.0 0
149775.0 477791.0 0
153657.0 477872.0 0
157533.0 477950.0 0
161409.0 478028.0 0
165286.0 478106.0 0
169165.0 478181.0 0
173044.0 478249.0 0
176922.0 478308.0 0
180796.0 478356.0 0
184666.0 478394.0 0
188529.0 478422.0 0
192384.0 478441.0 0
196230.0 478450.0 0
200067.0 478453.0 0
203895.0 478451.0 0
207712.0 478444.0 0
211520.0 478436.0 0
215317.0 478428.0 0
219106.0 478423.0 0
222886.0 478422.0 0
226658.0 478429.0 0
230424.0 478446.0 0
234183.0 478475.0 0
237938.0 478518.0 0
241689.0 478577.0 0
245438.0 478652.0 0
249185.0 478744.0 0
252932.0 478852.0 0
256680.0 478976.0 0
260431.0 479114.0 0
281112.0 476745.0 0
284894.0 476931.0 0
288686.0 477114.0 0
292488.0 477290.0 0
296300.0 477459.0 0
300122.0 477616.0 0
303955.0 477763.0 0
307797.0 477895.0 0
311649.0 478013.0 0
315511.0 478114.0 0
319382.0 478197.0 0
323262.0 478258.0 0
327151.0 478296.0 0
331047.0 478307.0 0
334949.0 478287.0 0
338856.0 478235.0 0
342767.0 478144.0 0
346683.0 478016.0 0
350605.0 477852.0 0
354539.0 477674.0 0
358695.0 477624.0 0
362588.0 477308.0 0
372873.0 479227.0 0
376780.0 478546.0 0
380696.0 477831.0 0
387414.0 479748.0 0
394146.0 481400.0 0
398012.0 480427.0 0
401853.0 479428.0 0
408519.0 481012.0 0
412296.0 479957.0 0
416029.0 478896.0 0
422664.0 480517.0 0
426344.0 479232.0 0
429435.0 481739.0 0
433101.0 480211.0 0
439943.0 480789.0 0
63511.2 482887.0 0
74249.8 480446.0 0
78186.1 481852.0 0
84982.4 480629.0 0
88783.3 481861.0 0
92626.2 483018.0 0
99376.4 481646.0 0
103159.0 482788.0 0
106976.0 483868.0 0
113613.0 481870.0 0
117452.0 482328.0 0
123772.0 479315.0 0
127697.0 479704.0 0
131648.0 480075.0 0
135612.0 480384.0 0
139574.0 480624.0 0
143521.0 480801.0 0
147449.0 480928.0 0
151357.0 481027.0 0
155254.0 481113.0 0
159145.0 481195.0 0
163033.0 481273.0 0
166920.0 481348.0 0
170806.0 481418.0 0
174691.0 481481.0 0
178574.0 481536.0 0
182452.0 481583.0 0
186325.0 481621.0 0
190192.0 481651.0 0
194051.0 481672.0 0
197901.0 481687.0 0
201743.0 481697.0 0
205575.0 481702.0 0
209398.0 481706.0 0
213212.0 481708.0 0
217016.0 481711.0 0
220812.0 481718.0 0
224601.0 481730.0 0
228383.0 481750.0 0
232159.0 481780.0 0
235930.0 481822.0 0
264185.0 479264.0 0
267945.0 479425.0 0
271711.0 479594.0 0
275484.0 479769.0 0
279266.0 479947.0 0
283057.0 480125.0 0
286857.0 480300.0 0
290667.0 480471.0 0
294488.0 480634.0 0
298318.0 480788.0 0
302159.0 480932.0 0
306009.0 481063.0 0
309870.0 481181.0 0
313740.0 481282.0 0
317621.0 481367.0 0
321511.0 481432.0 0
325410.0 481475.0 0
329317.0 481494.0 0
333231.0 481486.0 0
337149.0 481447.0 0
341069.0 481374.0 0
344991.0 481262.0 0
348911.0 481111.0 0
352829.0 480924.0 0
356751.0 480695.0 0
361198.0 480741.0 0
365102.0 480384.0 0
368973.0 479885.0 0
375543.0 482025.0 0
379470.0 481290.0 0
383400.0 480539.0 0
390271.0 482360.0 0
397005.0 484010.0 0
400869.0 483039.0 0
404708.0 482043.0 0
411392.0 483674.0 0
415184.0 482645.0 0
418936.0 481616.0 0
425703.0 483128.0 0
443312.0 482933.0 0
71622.0 486224.0 0
75123.7 484336.0 0
81957.4 483166.0 0
85757.3 484402.0 0
89673.8 485584.0 0
96447.8 484160.0 0
100262.0 485301.0 0
104084.0 486422.0 0
111116.0 484684.0 0
115016.0 485409.0 0
121424.0 482525.0 0
125329.0 482791.0 0
129274.0 483124.0 0
133239.0 483432.0 0
137209.0 483693.0 0
141173.0 483900.0 0
145124.0 484062.0 0
149057.0 484187.0 0
152976.0 484289.0 0
156884.0 484379.0 0
160785.0 484461.0 0
164683.0 484538.0 0
168578.0 484610.0 0
172471.0 484677.0 0
176361.0 484737.0 0
180247.0 484790.0 0
239697.0 481878.0 0
243461.0 481949.0 0
247224.0 482036.0 0
250985.0 482137.0 0
254747.0 482253.0 0
258510.0 482382.0 0
262277.0 482523.0 0
266048.0 482675.0 0
269825.0 482835.0 0
273608.0 483000.0 0
277400.0 483170.0 0
281199.0 483340.0 0
285008.0 483509.0 0
288826.0 483674.0 0
292654.0 483832.0 0
296492.0 483983.0 0
300340.0 484124.0 0
304197.0 484254.0 0
308066.0 484371.0 0
311944.0 484473.0 0
315832.0 484559.0 0
319731.0 484626.0 0
323639.0 484674.0 0
335411.0 484677.0 0
339345.0 484620.0 0
343279.0 484528.0 0
347212.0 484396.0 0
351140.0 484223.0 0
355056.0 484001.0 0
358964.0 483686.0 0
363765.0 483907.0 0
367679.0 483492.0 0
371618.0 482741.0 0
378277.0 484794.0 0
382199.0 484025.0 0
386147.0 483230.0 0
393132.0 484976.0 0
403724.0 485706.0 0
407568.0 484704.0 0
418117.0 485428.0 0
421943.0 484402.0 0
78938.1 485751.0 0
82753.5 487006.0 0
86698.9 488168.0 0
93526.3 486717.0 0
97352.9 487850.0 0
108378.0 487323.0 0
112250.0 488234.0 0
119074.0 485695.0 0
123007.0 485969.0 0
126947.0 486237.0 0
130906.0 486526.0 0
134876.0 486790.0 0
138848.0 487016.0 0
142812.0 487201.0 0
146764.0 487352.0 0
150702.0 487474.0 0
154627.0 487578.0 0
184130.0 484836.0 0
188006.0 484874.0 0
191876.0 484905.0 0
195738.0 484931.0 0
199593.0 484951.0 0
203438.0 484968.0 0
207275.0 484981.0 0
211103.0 484993.0 0
214922.0 485005.0 0
218733.0 485019.0 0
222537.0 485037.0 0
226334.0 485060.0 0
230125.0 485092.0 0
233912.0 485135.0 0
237694.0 485189.0 0
241472.0 485257.0 0
245249.0 485339.0 0
249023.0 485435.0 0
252798.0 485544.0 0
256574.0 485666.0 0
260352.0 485800.0 0
264134.0 485943.0 0
267921.0 486094.0 0
271714.0 486252.0 0
275514.0 486413.0 0
279322.0 486577.0 0
283138.0 486739.0 0
286964.0 486899.0 0
290799.0 487053.0 0
327556.0 484700.0 0
331481.0 484702.0 0
349445.0 487541.0 0
353384.0 487349.0 0
357302.0 487078.0 0
361189.0 486660.0 0
366603.0 487256.0 0
370460.0 486315.0 0
374365.0 485556.0 0
384950.0 486770.0 0
388983.0 485856.0 0
395982.0 487617.0 0
399860.0 486664.0 0
406581.0 488411.0 0
410448.0 487386.0 0
414287.0 486381.0 0
90613.7 489322.0 0
94444.3 490447.0 0
101176.0 488979.0 0
105542.0 489907.0 0
109389.0 490954.0 0
116727.0 488816.0 0
120672.0 489158.0 0
124643.0 489403.0 0
158543.0 487668.0 0
162453.0 487750.0 0
166358.0 487825.0 0
170259.0 487895.0 0
174158.0 487959.0 0
178052.0 488017.0 0
181943.0 488068.0 0
185828.0 488113.0 0
189708.0 488153.0 0
193581.0 488187.0 0
197446.0 488216.0 0
201304.0 488242.0 0
205153.0 488265.0 0
208994.0 488286.0 0
212826.0 488307.0 0
216651.0 488328.0 0
220468.0 488351.0 0
224279.0 488379.0 0
228084.0 488413.0 0
231884.0 488456.0 0
235680.0 488509.0 0
239472.0 488575.0 0
243262.0 488653.0 0
247049.0 488745.0 0
250836.0 488849.0 0
254623.0 488965.0 0
258411.0 489092.0 0
262203.0 489228.0 0
266000.0 489373.0 0
269801.0 489523.0 0
273610.0 489678.0 0
294643.0 487201.0 0
298498.0 487340.0 0
302362.0 487468.0 0
306237.0 487584.0 0
310122.0 487686.0 0
314017.0 487773.0 0
317923.0 487843.0 0
321839.0 487895.0 0
325764.0 487926.0 0
329699.0 487936.0 0
333641.0 487922.0 0
337590.0 487881.0 0
341541.0 487808.0 0
345492.0 487695.0 0
363445.0 489608.0 0
369544.0 489993.0 0
373310.0 489169.0 0
377149.0 488359.0 0
381040.0 487561.0 0
387807.0 489430.0 0
391833.0 488499.0 0
398807.0 490302.0 0
402695.0 489384.0 0
409479.0 491099.0 0
413341.0 490125.0 0
417231.0 489275.0 0
83752.2 490826.0 0
87685.2 491951.0 0
91539.6 493095.0 0
98272.2 491569.0 0
102652.0 492497.0 0
106480.0 493598.0 0
113978.0 491572.0 0
128604.0 489668.0 0
132574.0 489925.0 0
136547.0 490157.0 0
140519.0 490358.0 0
144483.0 490528.0 0
148437.0 490670.0 0
152378.0 490790.0 0
156309.0 490892.0 0
160231.0 490982.0 0
164147.0 491062.0 0
168058.0 491135.0 0
171965.0 491203.0 0
175868.0 491264.0 0
179766.0 491320.0 0
183660.0 491371.0 0
187548.0 491416.0 0
191430.0 491457.0 0
195306.0 491494.0 0
199174.0 491527.0 0
203035.0 491559.0 0
206887.0 491589.0 0
210731.0 491618.0 0
214568.0 491646.0 0
218397.0 491675.0 0
222219.0 491707.0 0
226037.0 491743.0 0
229849.0 491787.0 0
233658.0 491839.0 0
237463.0 491903.0 0
241264.0 491979.0 0
245063.0 492067.0 0
248861.0 492168.0 0
277426.0 489834.0 0
281249.0 489991.0 0
285082.0 490146.0 0
288923.0 490297.0 0
292774.0 490441.0 0
296635.0 490577.0 0
300505.0 490704.0 0
304385.0 490819.0 0
308276.0 490922.0 0
312177.0 491010.0 0
316089.0 491082.0 0
320010.0 491137.0 0
323942.0 491173.0 0
327884.0 491190.0 0
331836.0 491184.0 0
335796.0 491155.0 0
339765.0 491099.0 0
343738.0 491009.0 0
347723.0 490862.0 0
351695.0 490701.0 0
355654.0 490487.0 0
359580.0 490162.0 0
366339.0 491898.0 0
372234.0 492883.0 0
376039.0 492017.0 0
379889.0 491163.0 0
383785.0 490350.0 0
390672.0 492109.0 0
394684.0 491174.0 0
401570.0 493073.0 0
405523.0 492135.0 0
412327.0 493886.0 0
84784.8 494663.0 0
88621.6 495772.0 0
95376.4 494203.0 0
99754.4 495126.0 0
103579.0 496238.0 0
111184.0 494320.0 0
118282.0 492339.0 0
122355.0 492585.0 0
126323.0 492850.0 0
130294.0 493098.0 0
134271.0 493330.0 0
138248.0 493539.0 0
142221.0 493722.0 0
146186.0 493881.0 0
150140.0 494016.0 0
154084.0 494132.0 0
158019.0 494232.0 0
161946.0 494319.0 0
165867.0 494397.0 0
169783.0 494468.0 0
173694.0 494533.0 0
177600.0 494593.0 0
181502.0 494648.0 0
185398.0 494698.0 0
189288.0 494744.0 0
193173.0 494786.0 0
197050.0 494826.0 0
200921.0 494865.0 0
204784.0 494902.0 0
208639.0 494939.0 0
212486.0 494974.0 0
252658.0 492279.0 0
256456.0 492401.0 0
260257.0 492531.0 0
264062.0 492669.0 0
267872.0 492813.0 0
271688.0 492962.0 0
275511.0 493113.0 0
279341.0 493265.0 0
283180.0 493415.0 0
287027.0 493562.0 0
290884.0 493703.0 0
294750.0 493838.0 0
298625.0 493963.0 0
302511.0 494078.0 0
306407.0 494181.0 0
310313.0 494270.0 0
314229.0 494344.0 0
318156.0 494402.0 0
322093.0 494442.0 0
326040.0 494464.0 0
329997.0 494465.0 0
333964.0 494446.0 0
337941.0 494402.0 0
341928.0 494333.0 0
345968.0 494188.0 0
349962.0 494052.0 0
353957.0 493876.0 0
357950.0 493644.0 0
361907.0 493254.0 0
378735.0 494845.0 0
382612.0 493969.0 0
386631.0 493044.0 0
393528.0 494816.0 0
397517.0 493900.0 0
404345.0 495858.0 0
408443.0 494817.0 0
92495.5 496890.0 0
96863.4 497800.0 0
100692.0 498903.0 0
108282.0 496993.0 0
115395.0 495088.0 0
120079.0 495768.0 0
124055.0 496056.0 0
128032.0 496304.0 0
132014.0 496533.0 0
135996.0 496745.0 0
139976.0 496938.0 0
143950.0 497109.0 0
147916.0 497258.0 0
151872.0 497388.0 0
155818.0 497500.0 0
159756.0 497596.0 0
163687.0 497680.0 0
167612.0 497755.0 0
171532.0 497824.0 0
216326.0 495010.0 0
220159.0 495046.0 0
223987.0 495085.0 0
227810.0 495129.0 0
231630.0 495181.0 0
235446.0 495243.0 0
239259.0 495317.0 0
243068.0 495403.0 0
246876.0 495500.0 0
250682.0 495608.0 0
254488.0 495726.0 0
258297.0 495851.0 0
262109.0 495984.0 0
265926.0 496123.0 0
269748.0 496266.0 0
273577.0 496412.0 0
277414.0 496559.0 0
281258.0 496705.0 0
285111.0 496849.0 0
288973.0 496988.0 0
292844.0 497120.0 0
296724.0 497245.0 0
300614.0 497359.0 0
304515.0 497462.0 0
308425.0 497552.0 0
312346.0 497628.0 0
344168.0 497518.0 0
348166.0 497409.0 0
352187.0 497261.0 0
356201.0 497076.0 0
360235.0 496841.0 0
365083.0 495460.0 0
368910.0 494777.0 0
374899.0 495762.0 0
381452.0 497644.0 0
385410.0 496691.0 0
389485.0 495752.0 0
400260.0 496739.0 0
407263.0 498530.0 0
411228.0 497663.0 0
89598.9 499601.0 0
93992.9 500529.0 0
97823.7 501612.0 0
112580.0 497897.0 0
117223.0 498460.0 0
121773.0 499269.0 0
125786.0 499536.0 0
129775.0 499766.0 0
133763.0 499979.0 0
137750.0 500177.0 0
141731.0 500357.0 0
175447.0 497887.0 0
179356.0 497946.0 0
183259.0 498000.0 0
187157.0 498050.0 0
191049.0 498096.0 0
194935.0 498141.0 0
198815.0 498184.0 0
202687.0 498228.0 0
206552.0 498272.0 0
210409.0 498314.0 0
214258.0 498357.0 0
218101.0 498398.0 0
221937.0 498440.0 0
225770.0 498484.0 0
229599.0 498535.0 0
233425.0 498595.0 0
237247.0 498666.0 0
241066.0 498751.0 0
244882.0 498846.0 0
248696.0 498952.0 0
252509.0 499067.0 0
256324.0 499189.0 0
260142.0 499317.0 0
263965.0 499451.0 0
267793.0 499589.0 0
271627.0 499730.0 0
275469.0 499873.0 0
279318.0 500016.0 0
283175.0 500156.0 0
316276.0 497689.0 0
320217.0 497733.0 0
324168.0 497759.0 0
328129.0 497767.0 0
332100.0 497755.0 0
336079.0 497723.0 0
340067.0 497667.0 0
346326.0 500773.0 0
350361.0 500647.0 0
354384.0 500504.0 0
358377.0 500336.0 0
363606.0 498895.0 0
367608.0 498492.0 0
371485.0 497670.0 0
377604.0 498600.0 0
384210.0 500384.0 0
388239.0 499419.0 0
392326.0 498486.0 0
396349.0 497573.0 0
403040.0 499568.0 0
409981.0 501431.0 0
91117.8 503272.0 0
105367.0 499685.0 0
109675.0 500607.0 0
114468.0 501284.0 0
118874.0 501959.0 0
145707.0 500519.0 0
149673.0 500662.0 0
153631.0 500786.0 0
157579.0 500893.0 0
161519.0 500985.0 0
165453.0 501064.0 0
169382.0 501135.0 0
173306.0 501202.0 0
177224.0 501265.0 0
181134.0 501323.0 0
185038.0 501376.0 0
188937.0 501425.0 0
192830.0 501472.0 0
196717.0 501520.0 0
200598.0 501568.0 0
204471.0 501617.0 0
208336.0 501667.0 0
212195.0 501716.0 0
216046.0 501764.0 0
219891.0 501810.0 0
223731.0 501855.0 0
227567.0 501904.0 0
231401.0 501961.0 0
235232.0 502029.0 0
239060.0 502111.0 0
242883.0 502206.0 0
246702.0 502312.0 0
250521.0 502425.0 0
254341.0 502544.0 0
258163.0 502668.0 0
287041.0 500293.0 0
290917.0 500424.0 0
294802.0 500548.0 0
298696.0 500663.0 0
302600.0 500767.0 0
306515.0 500858.0 0
310439.0 500936.0 0
314373.0 500999.0 0
318318.0 501047.0 0
322272.0 501078.0 0
326235.0 501091.0 0
330208.0 501087.0 0
334189.0 501063.0 0
338177.0 501020.0 0
342317.0 500855.0 0
361825.0 502241.0 0
365956.0 502049.0 0
370283.0 501435.0 0
374163.0 500504.0 0
380354.0 501400.0 0
391066.0 502177.0 0
395130.0 501269.0 0
399045.0 500471.0 0
94973.0 504382.0 0
102453.0 502400.0 0
106785.0 503330.0 0
111594.0 504014.0 0
116128.0 504817.0 0
123513.0 502763.0 0
127555.0 503027.0 0
131548.0 503240.0 0
135539.0 503440.0 0
139528.0 503627.0 0
143512.0 503798.0 0
147489.0 503953.0 0
151457.0 504090.0 0
155415.0 504210.0 0
159365.0 504311.0 0
163307.0 504396.0 0
167245.0 504469.0 0
171178.0 504538.0 0
175105.0 504604.0 0
179024.0 504668.0 0
182935.0 504725.0 0
186839.0 504775.0 0
190738.0 504823.0 0
194631.0 504873.0 0
198518.0 504925.0 0
202397.0 504978.0 0
206270.0 505033.0 0
210137.0 505088.0 0
213997.0 505143.0 0
217849.0 505195.0 0
221696.0 505244.0 0
225539.0 505291.0 0
261990.0 502798.0 0
265822.0 502932.0 0
269660.0 503069.0 0
273506.0 503208.0 0
277359.0 503347.0 0
281220.0 503485.0 0
285090.0 503620.0 0
288969.0 503750.0 0
292858.0 503873.0 0
296756.0 503988.0 0
300664.0 504093.0 0
304582.0 504186.0 0
308510.0 504266.0 0
312447.0 504333.0 0
316395.0 504384.0 0
320352.0 504419.0 0
324318.0 504438.0 0
328293.0 504440.0 0
332275.0 504424.0 0
336263.0 504391.0 0
340442.0 504214.0 0
344441.0 504145.0 0
348492.0 504040.0 0
352515.0 503929.0 0
356507.0 503816.0 0
368570.0 505006.0 0
373053.0 504292.0 0
376917.0 503328.0 0
383126.0 504161.0 0
386983.0 503124.0 0
393861.0 504982.0 0
401793.0 503334.0 0
405985.0 502248.0 0
99561.3 505153.0 0
103902.0 506068.0 0
108721.0 506766.0 0
120608.0 505459.0 0
125277.0 506266.0 0
129350.0 506530.0 0
133345.0 506730.0 0
137338.0 506918.0 0
141330.0 507097.0 0
145317.0 507262.0 0
149297.0 507411.0 0
153266.0 507545.0 0
157226.0 507658.0 0
161178.0 507753.0 0
165122.0 507828.0 0
169063.0 507894.0 0
173000.0 507962.0 0
176929.0 508032.0 0
180848.0 508096.0 0
184758.0 508150.0 0
229380.0 505343.0 0
233217.0 505407.0 0
237051.0 505486.0 0
240880.0 505580.0 0
244704.0 505686.0 0
248525.0 505799.0 0
252348.0 505917.0 0
256173.0 506038.0 0
260002.0 506164.0 0
263837.0 506294.0 0
267678.0 506428.0 0
271526.0 506563.0 0
275381.0 506699.0 0
279245.0 506835.0 0
283118.0 506968.0 0
287000.0 507097.0 0
290892.0 507220.0 0
294794.0 507335.0 0
298705.0 507441.0 0
302627.0 507536.0 0
306558.0 507619.0 0
310499.0 507688.0 0
314450.0 507743.0 0
318410.0 507782.0 0
322379.0 507806.0 0
326356.0 507814.0 0
330340.0 507807.0 0
334330.0 507782.0 0
338540.0 507595.0 0
342538.0 507538.0 0
346584.0 507441.0 0
350610.0 507355.0 0
354604.0 507277.0 0
360015.0 505632.0 0
364053.0 505495.0 0
375838.0 507143.0 0
379704.0 506159.0 0
385896.0 506922.0 0
389758.0 505891.0 0
397779.0 504226.0 0
404744.0 506014.0 0
101039.0 508840.0 0
105847.0 509533.0 0
113270.0 507580.0 0
117875.0 508345.0 0
122373.0 508980.0 0
127069.0 509781.0 0
131165.0 510046.0 0
135161.0 510237.0 0
139155.0 510414.0 0
143157.0 510588.0 0
147148.0 510748.0 0
151128.0 510897.0 0
188661.0 508197.0 0
192560.0 508245.0 0
196450.0 508299.0 0
200334.0 508356.0 0
204212.0 508414.0 0
208085.0 508474.0 0
211953.0 508535.0 0
215815.0 508595.0 0
219669.0 508650.0 0
223519.0 508698.0 0
227365.0 508746.0 0
231207.0 508802.0 0
235044.0 508875.0 0
238877.0 508967.0 0
242703.0 509076.0 0
246525.0 509192.0 0
250347.0 509309.0 0
254173.0 509428.0 0
258004.0 509551.0 0
261839.0 509677.0 0
265681.0 509807.0 0
269530.0 509939.0 0
273387.0 510072.0 0
277252.0 510206.0 0
281127.0 510337.0 0
285011.0 510465.0 0
288905.0 510587.0 0
336617.0 511000.0 0
340616.0 510952.0 0
344661.0 510863.0 0
348678.0 510787.0 0
352675.0 510728.0 0
358148.0 509049.0 0
362156.0 508958.0 0
366652.0 508484.0 0
371329.0 507846.0 0
378630.0 509994.0 0
382500.0 509004.0 0
388661.0 509707.0 0
392522.0 508705.0 0
396462.0 507992.0 0
400394.0 507222.0 0
110412.0 510359.0 0
115030.0 511138.0 0
119652.0 511894.0 0
124171.0 512519.0 0
155101.0 511023.0 0
159065.0 511130.0 0
163019.0 511217.0 0
166963.0 511276.0 0
170909.0 511338.0 0
174847.0 511412.0 0
178777.0 511485.0 0
182698.0 511548.0 0
186607.0 511597.0 0
190508.0 511640.0 0
194398.0 511695.0 0
198282.0 511754.0 0
202162.0 511814.0 0
206038.0 511876.0 0
209912.0 511940.0 0
213784.0 512008.0 0
217649.0 512072.0 0
221509.0 512124.0 0
225362.0 512169.0 0
229209.0 512219.0 0
233046.0 512284.0 0
236877.0 512368.0 0
240704.0 512479.0 0
244521.0 512603.0 0
248341.0 512721.0 0
252166.0 512838.0 0
255995.0 512958.0 0
259830.0 513081.0 0
292809.0 510703.0 0
296723.0 510810.0 0
300648.0 510907.0 0
304583.0 510993.0 0
308528.0 511065.0 0
312483.0 511124.0 0
316446.0 511168.0 0
320419.0 511196.0 0
324398.0 511209.0 0
328386.0 511208.0 0
332379.0 511194.0 0
356236.0 512491.0 0
360236.0 512426.0 0
364739.0 511975.0 0
369428.0 511327.0 0
374085.0 510707.0 0
385296.0 511862.0 0
391016.0 512882.0 0
394887.0 511879.0 0
128884.0 513314.0 0
132995.0 513579.0 0
136994.0 513764.0 0
140988.0 513924.0 0
145010.0 514097.0 0
148998.0 514265.0 0
152984.0 514405.0 0
156964.0 514524.0 0
160934.0 514624.0 0
164892.0 514704.0 0
168833.0 514736.0 0
172772.0 514809.0 0
176714.0 514890.0 0
180653.0 514962.0 0
184583.0 515023.0 0
188490.0 515063.0 0
192368.0 515114.0 0
196246.0 515174.0 0
200123.0 515235.0 0
203999.0 515298.0 0
207874.0 515362.0 0
211750.0 515429.0 0
215629.0 515505.0 0
219509.0 515566.0 0
223381.0 515615.0 0
227234.0 515657.0 0
231070.0 515717.0 0
263671.0 513208.0 0
267519.0 513336.0 0
271375.0 513467.0 0
275240.0 513597.0 0
279115.0 513727.0 0
283000.0 513853.0 0
286895.0 513976.0 0
290801.0 514092.0 0
294718.0 514200.0 0
298646.0 514299.0 0
302585.0 514387.0 0
306534.0 514463.0 0
310493.0 514526.0 0
314461.0 514574.0 0
318438.0 514607.0 0
322422.0 514626.0 0
326412.0 514630.0 0
330407.0 514622.0 0
334674.0 514428.0 0
338675.0 514388.0 0
342725.0 514307.0 0
346737.0 514238.0 0
350733.0 514181.0 0
362811.0 515469.0 0
367525.0 514826.0 0
372183.0 514210.0 0
376858.0 513569.0 0
381422.0 512851.0 0
142847.0 517440.0 0
170654.0 518252.0 0
174638.0 518304.0 0
178608.0 518382.0 0
182575.0 518452.0 0
186552.0 518515.0 0
234892.0 515794.0 0
238704.0 515891.0 0
242513.0 516035.0 0
246330.0 516154.0 0
250153.0 516270.0 0
253979.0 516387.0 0
257811.0 516507.0 0
261649.0 516630.0 0
265494.0 516756.0 0
269348.0 516883.0 0
273210.0 517011.0 0
277083.0 517138.0 0
280967.0 517264.0 0
284862.0 517385.0 0
288769.0 517501.0 0
292688.0 517610.0 0
296619.0 517711.0 0
300561.0 517802.0 0
304515.0 517881.0 0
308479.0 517947.0 0
312453.0 518000.0 0
316436.0 518039.0 0
320426.0 518062.0 0
324421.0 518072.0 0
328420.0 518069.0 0
332704.0 517876.0 0
336718.0 517846.0 0
340775.0 517771.0 0
344792.0 517708.0 0
348790.0 517650.0 0
354299.0 515959.0 0
358297.0 515902.0 0
193774.0 518818.0 0
197763.0 518833.0 0
201739.0 518852.0 0
205702.0 518875.0 0
209650.0 518903.0 0
213584.0 518941.0 0
217503.0 519011.0 0
221419.0 519069.0 0
225346.0 519140.0 0
229293.0 519260.0 0
233258.0 519405.0 0
237239.0 519575.0 0
POINT_DATA 4650
SCALARS Radius float 1
LOOKUP_TABLE default
4000.0 4000.0 4000.0 4000.0 4000.0 4000.0 4000.0 4000.0 4000.0 4000.0 4000.0 4000.0 4000.0 4000.0 4000.0 4000.0 4000.0 4000.0 4000.0 4000.0 4000.0 4000.0 4000.0 4000.0 4000.0 4000.0 4000.0 4000.0 4000.0 4000.0 4000.0 4000.0 4000.0 4000.0 4000.0 4000.0 4000.0 4000.0 4000.0 4000.0 4000.0 4000.0 4000.0 4000.0 4000.0 4000.0 4000.0 4000.0 4000.0 4000.0 4000.0 4000.0 4000.0 4000.0 4000.0 4000.0 4000.0 4000.0 4000.0 4000.0 4000.0 4000.0 4000.0 4000.0 4000.0 4000.0 4000.0 4000.0 4000.0 4000.0 4000.0 4000.0 4000.0 4000.0 4000.0 4000.0 4000.0 4000.0 4000.0 4000.0 4000.0 4000.0 4000.0 4000.0 4000.0 4000.0 4000.0 4000.0 4000.0 4000.0 4000.0 4000.0 4000.0 4000.0 4000.0 4000.0 4000.0 4000.0 4000.0 4000.0 4000.0 4000.0 4000.0 4000.0 4000.0 4000.0 4000.0 4000.0 4000.0 4000.0 4000.0 4000.0 4000.0 4000.0 4000.0 4000.0 4000.0 4000.0 4000.0 4000.0 4000.0 4000.0 4000.0 4000.0 4000.0 4000.0 4000.0 4000.0 4000.0 4000.0 4000.0 4000.0 4000.0 4000.0 4000.0 4000.0 4000.0 4000.0 4000.0 4000.0 4000.0 4000.0 4000.0 4000.0 4000.0 4000.0 4000.0 4000.0 4000.0 4000.0 4000.0 4000.0 4000.0 4000.0 4000.0 4000.0 4000.0 4000.0 4000.0 4000.0 4000.0 4000.0 4000.0 4000.0 4000.0 4000.0 4000.0 4000.0 4000.0 4000.0 4000.0 4000.0 4000.0 4000.0 4000.0 4000.0 4000.0 4000.0 4000.0 4000.0 4000.0 4000.0 4000.0 4000.0 4000.0 4000.0 4000.0 4000.0 4000.0 4000.0 4000.0 4000.0 4000.0 4000.0 4000.0 4000.0 4000.0 4000.0 4000.0 4000.0 4000.0 4000.0 4000.0 4000.0 4000.0 4000.0 4000.0 4000.0 4000.0 4000.0 4000.0 4000.0 4000.0 4000.0 4000.0 4000.0 4000.0 4000.0 4000.0 4000.0 4000.0 4000.0 4000.0 4000.0 4000.0 4000.0 4000.0 4000.0 4000.0 4000.0 4000.0 4000.0 4000.0 4000.0 4000.0 4000.0 4000.0 4000.0 4000.0 4000.0 4000.0 4000.0 4000.0 4000.0 4000.0 4000.0 4000.0 4000.0 4000.0 4000.0 4000.0 4000.0 4000.0 4000.0 4000.0 4000.0 4000.0 4000.0 4000.0 4000.0 4000.0 4000.0 4000.0 4000.0 4000.0 4000.0 4000.0 4000.0 4000.0 4000.0 4000.0 4000.0 4000.0 4000.0 4000.0 4000.0 4000.0 4000.0 4000.0 4000.0 4000.0 4000.0 4000.0 4000.0 4000.0 4000.0 4000.0 4000.0 4000.0 4000.0 4000.0 4000.0 4000.0 4000.0 4000.0 4000.0 4000.0 4000.0 4000.0 4000.0 4000.0 4000.0 4000.0 4000.0 4000.0 4000.0 4000.0 4000.0 4000.0 4000.0 4000.0 4000.0 4000.0 4000.0 4000.0 4000.0 4000.0 4000.0 4000.0 4000.0 4000.0 4000.0 4000.0 4000.0 4000.0 4000.0 4000.0 4000.0 4000.0 4000.0 4000.0 4000.0 4000.0 4000.0 4000.0 4000.0 4000.0 4000.0 4000.0 4000.0 4000.0 4000.0 4000.0 4000.0 4000.0 4000.0 4000.0 4000.0 4000.0 4000.0 4000.0 4000.0 4000.0 4000.0 4000.0 4000.0 4000.0 4000.0 4000.0 4000.0 4000.0 4000.0 4000.0 4000.0 4000.0 4000.0 4000.0 4000.0 4000.0 4000.0 4000.0 4000.0 4000.0 4000.0 4000.0 4000.0 4000.0 4000.0 4000.0 4000.0 4000.0 4000.0 4000.0 4000.0 4000.0 4000.0 4000.0 4000.0 4000.0 4000.0 4000.0 4000.0 4000.0 4000.0 4000.0 4000.0 4000.0 4000.0 4000.0 4000.0 4000.0 4000.0 4000.0 4000.0 4000.0 4000.0 4000.0 4000.0 4000.0 4000.0 4000.0 4000.0 4000.0 4000.0 4000.0 4000.0 4000.0 4000.0 4000.0 4000.0 4000.0 4000.0 4000.0 4000.0 4000.0 4000.0 4000.0 4000.0 4000.0 4000.0 4000.0 4000.0 4000.0 4000.0 4000.0 4000.0 4000.0 4000.0 4000.0 4000.0 4000.0 4000.0 4000.0 4000.0 4000.0 4000.0 4000.0 4000.0 4000.0 4000.0 4000.0 4000.0 4000.0 4000.0 4000.0 4000.0 4000.0 4000.0 4000.0 4000.0 4000.0 4000.0 4000.0 4000.0 4000.0 4000.0 4000.0 4000.0 4000.0 4000.0 4000.0 4000.0 4000.0 4000.0 4000.0 4000.0 4000.0 4000.0 4000.0 4000.0 4000.0 4000.0 4000.0 4000.0 4000.0 4000.0 4000.0 4000.0 4000.0 4000.0 4000.0 4000.0 4000.0 4000.0 4000.0 4000.0 4000.0 4000.0 4000.0 4000.0 4000.0 4000.0 4000.0 4000.0 4000.0 4000.0 4000.0 4000.0 4000.0 4000.0 4000.0 4000.0 4000.0 4000.0 4000.0 4000.0 4000.0 4000.0 4000.0 4000.0 4000.0 4000.0 4000.0 4000.0 4000.0 4000.0 4000.0 4000.0 4000.0 4000.0 4000.0 4000.0 4000.0 4000.0 4000.0 4000.0 4000.0 4000.0 4000.0 4000.0 4000.0 4000.0 4000.0 4000.0 4000.0 4000.0 4000.0 4000.0 4000.0 4000.0 4000.0 4000.0 4000.0 4000.0 4000.0 4000.0 4000.0 4000.0 4000.0 4000.0 4000.0 4000.0 4000.0 4000.0 4000.0 4000.0 4000.0 4000.0 4000.0 4000.0 4000.0 4000.0 4000.0 4000.0 4000.0 4000.0 4000.0 4000.0 4000.0 4000.0 4000.0 4000.0 4000.0 4000.0 4000.0 4000.0 4000.0 4000.0 4000.0 4000.0 4000.0 4000.0 4000.0 4000.0 4000.0 4000.0 4000.0 4000.0 4000.0 4000.0 4000.0 4000.0 4000.0 4000.0 4000.0 4000.0 4000.0 4000.0 4000.0 4000.0 4000.0 4000.0 4000.0 4000.0 4000.0 4000.0 4000.0 4000.0 4000.0 4000.0 4000.0 4000.0 4000.0 4000.0 4000.0 4000.0 4000.0 4000.0 4000.0 4000.0 4000.0 4000.0 4000.0 4000.0 4000.0 4000.0 4000.0 4000.0 4000.0 4000.0 4000.0 4000.0 4000.0 4000.0 4000.0 4000.0 4000.0 4000.0 4000.0 4000.0 4000.0 4000.0 4000.0 4000.0 4000.0 4000.0 4000.0 4000.0 4000.0 4000.0 4000.0 4000.0 4000.0 4000.0 4000.0 4000.0 4000.0 4000.0 4000.0 4000.0 4000.0 4000.0 4000.0 4000.0 4000.0 4000.0 4000.0 4000.0 4000.0 4000.0 4000.0 4000.0 4000.0 4000.0 4000.0 4000.0 4000.0 4000.0 4000.0 4000.0 4000.0 4000.0 4000.0 4000.0 4000.0 4000.0 4000.0 4000.0 4000.0 4000.0 4000.0 4000.0 4000.0 4000.0 4000.0 4000.0 4000.0 4000.0 4000.0 4000.0 4000.0 4000.0 4000.0 4000.0 4000.0 4000.0 4000.0 4000.0 4000.0 4000.0 4000.0 4000.0 4000.0 4000.0 4000.0 4000.0 4000.0 4000.0 4000.0 4000.0 4000.0 4000.0 4000.0 4000.0 4000.0 4000.0 4000.0 4000.0 4000.0 4000.0 4000.0 4000.0 4000.0 4000.0 4000.0 4000.0 4000.0 4000.0 4000.0 4000.0 4000.0 4000.0 4000.0 4000.0 4000.0 4000.0 4000.0 4000.0 4000.0 4000.0 4000.0 4000.0 4000.0 4000.0 4000.0 4000.0 4000.0 4000.0 4000.0 4000.0 4000.0 4000.0 4000.0 4000.0 4000.0 4000.0 4000.0 4000.0 4000.0 4000.0 4000.0 4000.0 4000.0 4000.0 4000.0 4000.0 4000.0 4000.0 4000.0 4000.0 4000.0 4000.0 4000.0 4000.0 4000.0 4000.0 4000.0 4000.0 4000.0 4000.0 4000.0 4000.0 4000.0 4000.0 4000.0 4000.0 4000.0 4000.0 4000.0 4000.0 4000.0 4000.0 4000.0 4000.0 4000.0 4000.0 4000.0 4000.0 4000.0 4000.0 4000.0 4000.0 4000.0 4000.0 4000.0 4000.0 4000.0 4000.0 4000.0 4000.0 4000.0 4000.0 4000.0 4000.0 4000.0 4000.0 4000.0 4000.0 4000.0 4000.0 4000.0 4000.0 4000.0 4000.0 4000.0 4000.0 4000.0 4000.0 4000.0 4000.0 4000.0 4000.0 4000.0 4000.0 4000.0 4000.0 4000.0 4000.0 4000.0 4000.0 4000.0 4000.0 4000.0 4000.0 4000.0 4000.0 4000.0 4000.0 4000.0 4000.0 4000.0 4000.0 4000.0 4000.0 4000.0 4000.0 4000.0 4000.0 4000.0 4000.0 4000.0 4000.0 4000.0 4000.0 4000.0 4000.0 4000.0 4000.0 4000.0 4000.0 4000.0 4000.0 4000.0 4000.0 4000.0 4000.0 4000.0 4000.0 4000.0 4000.0 4000.0 4000.0 4000.0 4000.0 4000.0 4000.0 4000.0 4000.0 4000.0 4000.0 4000.0 4000.0 4000.0 4000.0 4000.0 4000.0 4000.0 4000.0 4000.0 4000.0 4000.0 4000.0 4000.0 4000.0 4000.0 4000.0 4000.0 4000.0 4000.0 4000.0 4000.0 4000.0 4000.0 4000.0 4000.0 4000.0 4000.0 4000.0 4000.0 4000.0 4000.0 4000.0 4000.0 4000.0 4000.0 4000.0 4000.0 4000.0 4000.0 4000.0 4000.0 4000.0 4000.0 4000.0 4000.0 4000.0 4000.0 4000.0 4000.0 4000.0 4000.0 4000.0 4000.0 4000.0 4000.0 4000.0 4000.0 4000.0 4000.0 4000.0 4000.0 4000.0 4000.0 4000.0 4000.0 4000.0 4000.0 4000.0 4000.0 4000.0 4000.0 4000.0 4000.0 4000.0 4000.0 4000.0 4000.0 4000.0 4000.0 4000.0 4000.0 4000.0 4000.0 4000.0 4000.0 4000.0 4000.0 4000.0 4000.0 4000.0 4000.0 4000.0 4000.0 4000.0 4000.0 4000.0 4000.0 4000.0 4000.0 4000.0 4000.0 4000.0 4000.0 4000.0 4000.0 4000.0 4000.0 4000.0 4000.0 4000.0 4000.0 4000.0 4000.0 4000.0 4000.0 4000.0 4000.0 4000.0 4000.0 4000.0 4000.0 4000.0 4000.0 4000.0 4000.0 4000.0 4000.0 4000.0 4000.0 4000.0 4000.0 4000.0 4000.0 4000.0 4000.0 4000.0 4000.0 4000.0 4000.0 4000.0 4000.0 4000.0 4000.0 4000.0 4000.0 4000.0 4000.0 4000.0 4000.0 4000.0 4000.0 4000.0 4000.0 4000.0 4000.0 4000.0 4000.0 4000.0 4000.0 4000.0 4000.0 4000.0 4000.0 4000.0 4000.0 4000.0 4000.0 4000.0 4000.0 4000.0 4000.0 4000.0 4000.0 4000.0 4000.0 4000.0 4000.0 4000.0 4000.0 4000.0 4000.0 4000.0 4000.0 4000.0 4000.0 4000.0 4000.0 4000.0 4000.0 4000.0 4000.0 4000.0 4000.0 4000.0 4000.0 4000.0 4000.0 4000.0 4000.0 4000.0 4000.0 4000.0 4000.0 4000.0 4000.0 4000.0 4000.0 4000.0 4000.0 4000.0 4000.0 4000.0 4000.0 4000.0 4000.0 4000.0 4000.0 4000.0 4000.0 4000.0 4000.0 4000.0 4000.0 4000.0 4000.0 4000.0 4000.0 4000.0 4000.0 4000.0 4000.0 4000.0 4000.0 4000.0 4000.0 4000.0 4000.0 4000.0 4000.0 4000.0 4000.0 4000.0 4000.0 4000.0 4000.0 4000.0 4000.0 4000.0 4000.0 4000.0 4000.0 4000.0 4000.0 4000.0 4000.0 4000.0 4000.0 4000.0 4000.0 4000.0 4000.0 4000.0 4000.0 4000.0 4000.0 4000.0 4000.0 4000.0 4000.0 4000.0 4000.0 4000.0 4000.0 4000.0 4000.0 4000.0 4000.0 4000.0 4000.0 4000.0 4000.0 4000.0 4000.0 4000.0 4000.0 4000.0 4000.0 4000.0 4000.0 4000.0 4000.0 4000.0 4000.0 4000.0 4000.0 4000.0 4000.0 4000.0 4000.0 4000.0 4000.0 4000.0 4000.0 4000.0 4000.0 4000.0 4000.0 4000.0 4000.0 4000.0 4000.0 4000.0 4000.0 4000.0 4000.0 4000.0 4000.0 4000.0 4000.0 4000.0 4000.0 4000.0 4000.0 4000.0 4000.0 4000.0 4000.0 4000.0 4000.0 4000.0 4000.0 4000.0 4000.0 4000.0 4000.0 4000.0 4000.0 4000.0 4000.0 4000.0 4000.0 4000.0 4000.0 4000.0 4000.0 4000.0 4000.0 4000.0 4000.0 4000.0 4000.0 4000.0 4000.0 4000.0 4000.0 4000.0 4000.0 4000.0 4000.0 4000.0 4000.0 4000.0 4000.0 4000.0 4000.0 4000.0 4000.0 4000.0 4000.0 4000.0 4000.0 4000.0 4000.0 4000.0 4000.0 4000.0 4000.0 4000.0 4000.0 4000.0 4000.0 4000.0 4000.0 4000.0 4000.0 4000.0 4000.0 4000.0 4000.0 4000.0 4000.0 4000.0 4000.0 4000.0 4000.0 4000.0 4000.0 4000.0 4000.0 4000.0 4000.0 4000.0 4000.0 4000.0 4000.0 4000.0 4000.0 4000.0 4000.0 4000.0 4000.0 4000.0 4000.0 4000.0 4000.0 4000.0 4000.0 4000.0 4000.0 4000.0 4000.0 4000.0 4000.0 4000.0 4000.0 4000.0 4000.0 4000.0 4000.0 4000.0 4000.0 4000.0 4000.0 4000.0 4000.0 4000.0 4000.0 4000.0 4000.0 4000.0 4000.0 4000.0 4000.0 4000.0 4000.0 4000.0 4000.0 4000.0 4000.0 4000.0 4000.0 4000.0 4000.0 4000.0 4000.0 4000.0 4000.0 4000.0 4000.0 4000.0 4000.0 4000.0 4000.0 4000.0 4000.0 4000.0 4000.0 4000.0 4000.0 4000.0 4000.0 4000.0 4000.0 4000.0 4000.0 4000.0 4000.0 4000.0 4000.0 4000.0 4000.0 4000.0 4000.0 4000.0 4000.0 4000.0 4000.0 4000.0 4000.0 4000.0 4000.0 4000.0 4000.0 4000.0 4000.0 4000.0 4000.0 4000.0 4000.0 4000.0 4000.0 4000.0 4000.0 4000.0 4000.0 4000.0 4000.0 4000.0 4000.0 4000.0 4000.0 4000.0 4000.0 4000.0 4000.0 4000.0 4000.0 4000.0 4000.0 4000.0 4000.0 4000.0 4000.0 4000.0 4000.0 4000.0 4000.0 4000.0 4000.0 4000.0 4000.0 4000.0 4000.0 4000.0 4000.0 4000.0 4000.0 4000.0 4000.0 4000.0 4000.0 4000.0 4000.0 4000.0 4000.0 4000.0 4000.0 4000.0 4000.0 4000.0 4000.0 4000.0 4000.0 4000.0 4000.0 4000.0 4000.0 4000.0 4000.0 4000.0 4000.0 4000.0 4000.0 4000.0 4000.0 4000.0 4000.0 4000.0 4000.0 4000.0 4000.0 4000.0 4000.0 4000.0 4000.0 4000.0 4000.0 4000.0 4000.0 4000.0 4000.0 4000.0 4000.0 4000.0 4000.0 4000.0 4000.0 4000.0 4000.0 4000.0 4000.0 4000.0 4000.0 4000.0 4000.0 4000.0 4000.0 4000.0 4000.0 4000.0 4000.0 4000.0 4000.0 4000.0 4000.0 4000.0 4000.0 4000.0 4000.0 4000.0 4000.0 4000.0 4000.0 4000.0 4000.0 4000.0 4000.0 4000.0 4000.0 4000.0 4000.0 4000.0 4000.0 4000.0 4000.0 4000.0 4000.0 4000.0 4000.0 4000.0 4000.0 4000.0 4000.0 4000.0 4000.0 4000.0 4000.0 4000.0 4000.0 4000.0 4000.0 4000.0 4000.0 4000.0 4000.0 4000.0 4000.0 4000.0 4000.0 4000.0 4000.0 4000.0 4000.0 4000.0 4000.0 4000.0 4000.0 4000.0 4000.0 4000.0 4000.0 4000.0 4000.0 4000.0 4000.0 4000.0 4000.0 4000.0 4000.0 4000.0 4000.0 4000.0 4000.0 4000.0 4000.0 4000.0 4000.0 4000.0 4000.0 4000.0 4000.0 4000.0 4000.0 4000.0 4000.0 4000.0 4000.0 4000.0 4000.0 4000.0 4000.0 4000.0 4000.0 4000.0 4000.0 4000.0 4000.0 4000.0 4000.0 4000.0 4000.0 4000.0 4000.0 4000.0 4000.0 4000.0 4000.0 4000.0 4000.0 4000.0 4000.0 4000.0 4000.0 4000.0 4000.0 4000.0 4000.0 4000.0 4000.0 4000.0 4000.0 4000.0 4000.0 4000.0 4000.0 4000.0 4000.0 4000.0 4000.0 4000.0 4000.0 4000.0 4000.0 4000.0 4000.0 4000.0 4000.0 4000.0 4000.0 4000.0 4000.0 4000.0 4000.0 4000.0 4000.0 4000.0 4000.0 4000.0 4000.0 4000.0 4000.0 4000.0 4000.0 4000.0 4000.0 4000.0 4000.0 4000.0 4000.0 4000.0 4000.0 4000.0 4000.0 4000.0 4000.0 4000.0 4000.0 4000.0 4000.0 4000.0 4000.0 4000.0 4000.0 4000.0 4000.0 4000.0 4000.0 4000.0 4000.0 4000.0 4000.0 4000.0 4000.0 4000.0 4000.0 4000.0 4000.0 4000.0 4000.0 4000.0 4000.0 4000.0 4000.0 4000.0 4000.0 4000.0 4000.0 4000.0 4000.0 4000.0 4000.0 4000.0 4000.0 4000.0 4000.0 4000.0 4000.0 4000.0 4000.0 4000.0 4000.0 4000.0 4000.0 4000.0 4000.0 4000.0 4000.0 4000.0 4000.0 4000.0 4000.0 4000.0 4000.0 4000.0 4000.0 4000.0 4000.0 4000.0 4000.0 4000.0 4000.0 4000.0 4000.0 4000.0 4000.0 4000.0 4000.0 4000.0 4000.0 4000.0 4000.0 4000.0 4000.0 4000.0 4000.0 4000.0 4000.0 4000.0 4000.0 4000.0 4000.0 4000.0 4000.0 4000.0 4000.0 4000.0 4000.0 4000.0 4000.0 4000.0 4000.0 4000.0 4000.0 4000.0 4000.0 4000.0 4000.0 4000.0 4000.0 4000.0 4000.0 4000.0 4000.0 4000.0 4000.0 4000.0 4000.0 4000.0 4000.0 4000.0 4000.0 4000.0 4000.0 4000.0 4000.0 4000.0 4000.0 4000.0 4000.0 4000.0 4000.0 4000.0 4000.0 4000.0 4000.0 4000.0 4000.0 4000.0 4000.0 4000.0 4000.0 4000.0 4000.0 4000.0 4000.0 4000.0 4000.0 4000.0 4000.0 4000.0 4000.0 4000.0 4000.0 4000.0 4000.0 4000.0 4000.0 4000.0 4000.0 4000.0 4000.0 4000.0 4000.0 4000.0 4000.0 4000.0 4000.0 4000.0 4000.0 4000.0 4000.0 4000.0 4000.0 4000.0 4000.0 4000.0 4000.0 4000.0 4000.0 4000.0 4000.0 4000.0 4000.0 4000.0 4000.0 4000.0 4000.0 4000.0 4000.0 4000.0 4000.0 4000.0 4000.0 4000.0 4000.0 4000.0 4000.0 4000.0 4000.0 4000.0 4000.0 4000.0 4000.0 4000.0 4000.0 4000.0 4000.0 4000.0 4000.0 4000.0 4000.0 4000.0 4000.0 4000.0 4000.0 4000.0 4000.0 4000.0 4000.0 4000.0 4000.0 4000.0 4000.0 4000.0 4000.0 4000.0 4000.0 4000.0 4000.0 4000.0 4000.0 4000.0 4000.0 4000.0 4000.0 4000.0 4000.0 4000.0 4000.0 4000.0 4000.0 4000.0 4000.0 4000.0 4000.0 4000.0 4000.0 4000.0 4000.0 4000.0 4000.0 4000.0 4000.0 4000.0 4000.0 4000.0 4000.0 4000.0 4000.0 4000.0 4000.0 4000.0 4000.0 4000.0 4000.0 4000.0 4000.0 4000.0 4000.0 4000.0 4000.0 4000.0 4000.0 4000.0 4000.0 4000.0 4000.0 4000.0 4000.0 4000.0 4000.0 4000.0 4000.0 4000.0 4000.0 4000.0 4000.0 4000.0 4000.0 4000.0 4000.0 4000.0 4000.0 4000.0 4000.0 4000.0 4000.0 4000.0 4000.0 4000.0 4000.0 4000.0 4000.0 4000.0 4000.0 4000.0 4000.0 4000.0 4000.0 4000.0 4000.0 4000.0 4000.0 4000.0 4000.0 4000.0 4000.0 4000.0 4000.0 4000.0 4000.0 4000.0 4000.0 4000.0 4000.0 4000.0 4000.0 4000.0 4000.0 4000.0 4000.0 4000.0 4000.0 4000.0 4000.0 4000.0 4000.0 4000.0 4000.0 4000.0 4000.0 4000.0 4000.0 4000.0 4000.0 4000.0 4000.0 4000.0 4000.0 4000.0 4000.0 4000.0 4000.0 4000.0 4000.0 4000.0 4000.0 4000.0 4000.0 4000.0 4000.0 4000.0 4000.0 4000.0 4000.0 4000.0 4000.0 4000.0 4000.0 4000.0 4000.0 4000.0 4000.0 4000.0 4000.0 4000.0 4000.0 4000.0 4000.0 4000.0 4000.0 4000.0 4000.0 4000.0 4000.0 4000.0 4000.0 4000.0 4000.0 4000.0 4000.0 4000.0 4000.0 4000.0 4000.0 4000.0 4000.0 4000.0 4000.0 4000.0 4000.0 4000.0 4000.0 4000.0 4000.0 4000.0 4000.0 4000.0 4000.0 4000.0 4000.0 4000.0 4000.0 4000.0 4000.0 4000.0 4000.0 4000.0 4000.0 4000.0 4000.0 4000.0 4000.0 4000.0 4000.0 4000.0 4000.0 4000.0 4000.0 4000.0 4000.0 4000.0 4000.0 4000.0 4000.0 4000.0 4000.0 4000.0 4000.0 4000.0 4000.0 4000.0 4000.0 4000.0 4000.0 4000.0 4000.0 4000.0 4000.0 4000.0 4000.0 4000.0 4000.0 4000.0 4000.0 4000.0 4000.0 4000.0 4000.0 4000.0 4000.0 4000.0 4000.0 4000.0 4000.0 4000.0 4000.0 4000.0 4000.0 4000.0 4000.0 4000.0 4000.0 4000.0 4000.0 4000.0 4000.0 4000.0 4000.0 4000.0 4000.0 4000.0 4000.0 4000.0 4000.0 4000.0 4000.0 4000.0 4000.0 4000.0 4000.0 4000.0 4000.0 4000.0 4000.0 4000.0 4000.0 4000.0 4000.0 4000.0 4000.0 4000.0 4000.0 4000.0 4000.0 4000.0 4000.0 4000.0 4000.0 4000.0 4000.0 4000.0 4000.0 4000.0 4000.0 4000.0 4000.0 4000.0 4000.0 4000.0 4000.0 4000.0 4000.0 4000.0 4000.0 4000.0 4000.0 4000.0 4000.0 4000.0 4000.0 4000.0 4000.0 4000.0 4000.0 4000.0 4000.0 4000.0 4000.0 4000.0 4000.0 4000.0 4000.0 4000.0 4000.0 4000.0 4000.0 4000.0 4000.0 4000.0 4000.0 4000.0 4000.0 4000.0 4000.0 4000.0 4000.0 4000.0 4000.0 4000.0 4000.0 4000.0 4000.0 4000.0 4000.0 4000.0 4000.0 4000.0 4000.0 4000.0 4000.0 4000.0 4000.0 4000.0 4000.0 4000.0 4000.0 4000.0 4000.0 4000.0 4000.0 4000.0 4000.0 4000.0 4000.0 4000.0 4000.0 4000.0 4000.0 4000.0 4000.0 4000.0 4000.0 4000.0 4000.0 4000.0 4000.0 4000.0 4000.0 4000.0 4000.0 4000.0 4000.0 4000.0 4000.0 4000.0 4000.0 4000.0 4000.0 4000.0 4000.0 4000.0 4000.0 4000.0 4000.0 4000.0 4000.0 4000.0 4000.0 4000.0 4000.0 4000.0 4000.0 4000.0 4000.0 4000.0 4000.0 4000.0 4000.0 4000.0 4000.0 4000.0 4000.0 4000.0 4000.0 4000.0 4000.0 4000.0 4000.0 4000.0 4000.0 4000.0 4000.0 4000.0 4000.0 4000.0 4000.0 4000.0 4000.0 4000.0 4000.0 4000.0 4000.0 4000.0 4000.0 4000.0 4000.0 4000.0 4000.0 4000.0 4000.0 4000.0 4000.0 4000.0 4000.0 4000.0 4000.0 4000.0 4000.0 4000.0 4000.0 4000.0 4000.0 4000.0 4000.0 4000.0 4000.0 4000.0 4000.0 4000.0 4000.0 4000.0 4000.0 4000.0 4000.0 4000.0 4000.0 4000.0 4000.0 4000.0 4000.0 4000.0 4000.0 4000.0 4000.0 4000.0 4000.0 4000.0 4000.0 4000.0 4000.0 4000.0 4000.0 4000.0 4000.0 4000.0 4000.0 4000.0 4000.0 4000.0 4000.0 4000.0 4000.0 4000.0 4000.0 4000.0 4000.0 4000.0 4000.0 4000.0 4000.0 4000.0 4000.0 4000.0 4000.0 4000.0 4000.0 4000.0 4000.0 4000.0 4000.0 4000.0 4000.0 4000.0 4000.0 4000.0 4000.0 4000.0 4000.0 4000.0 4000.0 4000.0 4000.0 4000.0 4000.0 4000.0 4000.0 4000.0 4000.0 4000.0 4000.0 4000.0 4000.0 4000.0 4000.0 4000.0 4000.0 4000.0 4000.0 4000.0 4000.0 4000.0 4000.0 4000.0 4000.0 4000.0 4000.0 4000.0 4000.0 4000.0 4000.0 4000.0 4000.0 4000.0 4000.0 4000.0 4000.0 4000.0 4000.0 4000.0 4000.0 4000.0 4000.0 4000.0 4000.0 4000.0 4000.0 4000.0 4000.0 4000.0 4000.0 4000.0 4000.0 4000.0 4000.0 4000.0 4000.0 4000.0 4000.0 4000.0 4000.0 4000.0 4000.0 4000.0 4000.0 4000.0 4000.0 4000.0 4000.0 4000.0 4000.0 4000.0 4000.0 4000.0 4000.0 4000.0 4000.0 4000.0 4000.0 4000.0 4000.0 4000.0 4000.0 4000.0 4000.0 4000.0 4000.0 4000.0 4000.0 4000.0 4000.0 4000.0 4000.0 4000.0 4000.0 4000.0 4000.0 4000.0 4000.0 4000.0 4000.0 4000.0 4000.0 4000.0 4000.0 4000.0 4000.0 4000.0 4000.0 4000.0 4000.0 4000.0 4000.0 4000.0 4000.0 4000.0 4000.0 4000.0 4000.0 4000.0 4000.0 4000.0 4000.0 4000.0 4000.0 4000.0 4000.0 4000.0 4000.0 4000.0 4000.0 4000.0 4000.0 4000.0 4000.0 4000.0 4000.0 4000.0 4000.0 4000.0 4000.0 4000.0 4000.0 4000.0 4000.0 4000.0 4000.0 4000.0 4000.0 4000.0 4000.0 4000.0 4000.0 4000.0 4000.0 4000.0 4000.0 4000.0 4000.0 4000.0 4000.0 4000.0 4000.0 4000.0 4000.0 4000.0 4000.0 4000.0 4000.0 4000.0 4000.0 4000.0 4000.0 4000.0 4000.0 4000.0 4000.0 4000.0 4000.0 4000.0 4000.0 4000.0 4000.0 4000.0 4000.0 4000.0 4000.0 4000.0 4000.0 4000.0 4000.0 4000.0 4000.0 4000.0 4000.0 4000.0 4000.0 4000.0 4000.0 4000.0 4000.0 4000.0 4000.0 4000.0 4000.0 4000.0 4000.0 4000.0 4000.0 4000.0 4000.0 4000.0 4000.0 4000.0 4000.0 4000.0 4000.0 4000.0 4000.0 4000.0 4000.0 4000.0 4000.0 4000.0 4000.0 4000.0 4000.0 4000.0 4000.0 4000.0 4000.0 4000.0 4000.0 4000.0 4000.0 4000.0 4000.0 4000.0 4000.0 4000.0 4000.0 4000.0 4000.0 4000.0 4000.0 4000.0 4000.0 4000.0 4000.0 4000.0 4000.0 4000.0 4000.0 4000.0 4000.0 4000.0 4000.0 4000.0 4000.0 4000.0 4000.0 4000.0 4000.0 4000.0 4000.0 4000.0 4000.0 4000.0 4000.0 4000.0 4000.0 4000.0 4000.0 4000.0 4000.0 4000.0 4000.0 4000.0 4000.0 4000.0 4000.0 4000.0 4000.0 4000.0 4000.0 4000.0 4000.0 4000.0 4000.0 4000.0 4000.0 4000.0 4000.0 4000.0 4000.0 4000.0 4000.0 4000.0 4000.0 4000.0 4000.0 4000.0 4000.0 4000.0 4000.0 4000.0 4000.0 4000.0 4000.0 4000.0 4000.0 4000.0 4000.0 4000.0 4000.0 4000.0 4000.0 4000.0 4000.0 4000.0 4000.0 4000.0 4000.0 4000.0 4000.0 4000.0 4000.0 4000.0 4000.0 4000.0 4000.0 4000.0 4000.0 4000.0 4000.0 4000.0 4000.0 4000.0 4000.0 4000.0 4000.0 4000.0 4000.0 4000.0 4000.0 4000.0 4000.0 4000.0 4000.0 4000.0 4000.0 4000.0 4000.0 4000.0 4000.0 4000.0 4000.0 4000.0 4000.0 4000.0 4000.0 4000.0 4000.0 4000.0 4000.0 4000.0 4000.0 4000.0 4000.0 4000.0 4000.0 4000.0 4000.0 4000.0 4000.0 4000.0 4000.0 4000.0 4000.0 4000.0 4000.0 4000.0 4000.0 4000.0 4000.0 4000.0 4000.0 4000.0 4000.0 4000.0 4000.0 4000.0 4000.0 4000.0 4000.0 4000.0 4000.0 4000.0 4000.0 4000.0 4000.0 4000.0 4000.0 4000.0 4000.0 4000.0 4000.0 4000.0 4000.0 4000.0 4000.0 4000.0 4000.0 4000.0 4000.0 4000.0 4000.0 4000.0 4000.0 4000.0 4000.0 4000.0 4000.0 4000.0 4000.0 4000.0 4000.0 4000.0 4000.0 4000.0 4000.0 4000.0 4000.0 4000.0 4000.0 4000.0 4000.0 4000.0 4000.0 4000.0 4000.0 4000.0 4000.0 4000.0 4000.0 4000.0 4000.0 4000.0 4000.0 4000.0 4000.0 4000.0 4000.0 4000.0 4000.0 4000.0 4000.0 4000.0 4000.0 4000.0 4000.0 4000.0 4000.0 4000.0 4000.0 4000.0 4000.0 4000.0 4000.0 4000.0 4000.0 4000.0 4000.0 4000.0 4000.0 4000.0 4000.0 4000.0 4000.0 4000.0 4000.0 4000.0 4000.0 4000.0 4000.0 4000.0 4000.0 4000.0 4000.0 4000.0 4000.0 4000.0 4000.0 4000.0 4000.0 4000.0 4000.0 4000.0 4000.0 4000.0 4000.0 4000.0 4000.0 4000.0 4000.0 4000.0 4000.0 4000.0 4000.0 4000.0 4000.0 4000.0 4000.0 4000.0 4000.0 4000.0 4000.0 4000.0 4000.0 4000.0 4000.0 4000.0 4000.0 4000.0 4000.0 4000.0 4000.0 4000.0 4000.0 4000.0 4000.0 4000.0 4000.0 4000.0 4000.0 4000.0 4000.0 4000.0 4000.0 4000.0 4000.0 4000.0 4000.0 4000.0 4000.0 4000.0 4000.0 4000.0 4000.0 4000.0 4000.0 4000.0 4000.0 4000.0 4000.0 4000.0 4000.0 4000.0 4000.0 4000.0 4000.0 4000.0 4000.0 4000.0 4000.0 4000.0 4000.0 4000.0 4000.0 4000.0 4000.0 4000.0 4000.0 4000.0 4000.0 4000.0 4000.0 4000.0 4000.0 4000.0 4000.0 4000.0 4000.0 4000.0 4000.0 4000.0 4000.0 4000.0 4000.0 4000.0 4000.0 4000.0 4000.0 4000.0 4000.0 4000.0 4000.0 4000.0 4000.0 4000.0 4000.0 4000.0 4000.0 4000.0 4000.0 4000.0 4000.0 4000.0 4000.0 4000.0 4000.0 4000.0 4000.0 4000.0 4000.0 4000.0 4000.0 4000.0 4000.0 4000.0 4000.0 4000.0 4000.0 4000.0 4000.0 4000.0 4000.0 4000.0 4000.0 4000.0 4000.0 4000.0 4000.0 4000.0 4000.0 4000.0 4000.0 4000.0 4000.0 4000.0 4000.0 4000.0 4000.0 4000.0 4000.0 4000.0 4000.0 4000.0 4000.0 4000.0 4000.0 4000.0 4000.0 4000.0 4000.0 4000.0 4000.0 4000.0 4000.0 4000.0 4000.0 4000.0 4000.0 4000.0 4000.0 4000.0 4000.0 4000.0 4000.0 4000.0 4000.0 4000.0 4000.0 4000.0 4000.0 4000.0 4000.0 4000.0 4000.0 4000.0 4000.0 4000.0 4000.0 4000.0 4000.0 4000.0 4000.0 4000.0 4000.0 4000.0 4000.0 4000.0 4000.0 4000.0 4000.0 4000.0 4000.0 4000.0 4000.0 4000.0 4000.0 4000.0 4000.0 4000.0 4000.0 4000.0 4000.0 4000.0 4000.0 4000.0 4000.0 4000.0 4000.0 4000.0 4000.0 4000.0 4000.0 4000.0 4000.0 4000.0 4000.0 4000.0 4000.0 4000.0 4000.0 4000.0 4000.0 4000.0 4000.0 4000.0 4000.0 4000.0 4000.0 4000.0 4000.0 4000.0 4000.0 4000.0 4000.0 4000.0 4000.0 4000.0 4000.0 4000.0 4000.0 4000.0 4000.0 4000.0 4000.0 4000.0 4000.0 4000.0 4000.0 4000.0 4000.0 4000.0 4000.0 4000.0 4000.0 4000.0 4000.0 4000.0 4000.0 4000.0 4000.0 4000.0 4000.0 4000.0 4000.0 4000.0 4000.0 4000.0 4000.0 4000.0 4000.0 4000.0 4000.0 4000.0 4000.0 4000.0 4000.0 4000.0 4000.0 4000.0 4000.0 4000.0 4000.0 4000.0 4000.0 4000.0 4000.0 4000.0 4000.0 4000.0 4000.0 4000.0 4000.0 4000.0 4000.0 4000.0 4000.0 4000.0 4000.0 4000.0 4000.0 4000.0 4000.0 4000.0 4000.0 4000.0 4000.0 4000.0 4000.0 4000.0 4000.0 4000.0 4000.0 4000.0 4000.0 4000.0 4000.0 4000.0 4000.0 4000.0 4000.0 4000.0 4000.0 4000.0 4000.0 4000.0 4000.0 4000.0 4000.0 4000.0 4000.0 4000.0 4000.0 4000.0 4000.0 4000.0 4000.0 4000.0 4000.0 4000.0 4000.0 4000.0 4000.0 4000.0 4000.0 4000.0 4000.0 4000.0 4000.0 4000.0 4000.0 4000.0 4000.0 4000.0 4000.0 4000.0 4000.0 4000.0 4000.0 4000.0 4000.0 4000.0 4000.0 4000.0 4000.0 4000.0 4000.0 4000.0 4000.0 4000.0 4000.0 4000.0 4000.0 4000.0 4000.0 4000.0 4000.0 4000.0 4000.0 4000.0 4000.0 4000.0 4000.0 4000.0 4000.0 4000.0 4000.0 4000.0 4000.0 4000.0 4000.0 4000.0 4000.0 4000.0 4000.0 4000.0 4000.0 4000.0 4000.0 4000.0 4000.0 4000.0 4000.0 4000.0 4000.0 4000.0 4000.0 4000.0 4000.0 4000.0 4000.0 4000.0 4000.0 4000.0 4000.0 4000.0 4000.0 4000.0 4000.0 4000.0 4000.0 4000.0 4000.0 4000.0 4000.0 4000.0 4000.0 4000.0 4000.0 4000.0 4000.0 4000.0 4000.0 4000.0 4000.0 4000.0 4000.0 4000.0 4000.0 4000.0 4000.0 4000.0 4000.0 4000.0 4000.0 4000.0 4000.0 4000.0 4000.0 4000.0 4000.0 4000.0 4000.0 4000.0 4000.0 4000.0 4000.0 4000.0 4000.0 4000.0 4000.0 4000.0 4000.0 4000.0 4000.0 4000.0 4000.0 4000.0 4000.0 4000.0 4000.0 4000.0 4000.0 4000.0 4000.0 4000.0 4000.0 4000.0 4000.0 4000.0 4000.0 4000.0 4000.0 4000.0 4000.0 4000.0 4000.0 4000.0 4000.0 4000.0 4000.0 4000.0 4000.0 4000.0 4000.0 4000.0 4000.0 4000.0 4000.0 4000.0 4000.0 4000.0 4000.0 4000.0 4000.0 4000.0 4000.0 4000.0 4000.0 4000.0 4000.0 4000.0 4000.0 4000.0 4000.0 4000.0 4000.0 4000.0 4000.0 4000.0 4000.0 4000.0 4000.0 4000.0 4000.0 4000.0 4000.0 4000.0 4000.0 4000.0 4000.0 4000.0 4000.0 4000.0 4000.0 4000.0 4000.0 4000.0 4000.0 4000.0 4000.0 4000.0 4000.0 4000.0 4000.0 4000.0 4000.0 4000.0 4000.0 4000.0 4000.0 4000.0 4000.0 4000.0 4000.0 4000.0 4000.0 4000.0 4000.0 4000.0 4000.0 4000.0 4000.0 4000.0 4000.0 4000.0 4000.0 4000.0 4000.0 4000.0 4000.0 4000.0 4000.0 4000.0 4000.0 4000.0 4000.0 4000.0 4000.0 4000.0 4000.0 4000.0 4000.0 4000.0 4000.0 4000.0 4000.0 4000.0 4000.0 4000.0 4000.0 4000.0 4000.0 4000.0 4000.0 4000.0 4000.0 4000.0 4000.0 4000.0 4000.0 4000.0 4000.0 4000.0 4000.0 4000.0 4000.0 4000.0 4000.0 4000.0 4000.0 4000.0 4000.0 4000.0 4000.0 4000.0 4000.0 4000.0 4000.0 4000.0 4000.0 4000.0 4000.0 4000.0 4000.0 4000.0 4000.0 4000.0 4000.0 4000.0 4000.0 4000.0 4000.0 4000.0 4000.0 4000.0 4000.0 4000.0 4000.0 4000.0 4000.0 4000.0 4000.0 4000.0 4000.0 4000.0 4000.0 4000.0 4000.0 4000.0 4000.0 4000.0 4000.0 4000.0 4000.0 4000.0 4000.0 4000.0 4000.0 4000.0 4000.0 4000.0 4000.0 4000.0 4000.0 4000.0 4000.0 4000.0 4000.0 4000.0 4000.0 4000.0 4000.0 4000.0 4000.0 4000.0 4000.0 4000.0 4000.0 4000.0 4000.0 4000.0 4000.0 4000.0 4000.0 4000.0 4000.0 4000.0 4000.0 4000.0 4000.0 4000.0 4000.0 4000.0 4000.0 4000.0 4000.0 4000.0 4000.0 4000.0 4000.0 4000.0 4000.0 4000.0 4000.0 4000.0 4000.0 4000.0 4000.0 4000.0 4000.0 4000.0 4000.0 4000.0 4000.0 4000.0 4000.0 4000.0 4000.0 4000.0 4000.0 4000.0 4000.0 4000.0 4000.0 4000.0 4000.0 4000.0 4000.0 4000.0 4000.0 4000.0 4000.0 4000.0 4000.0 4000.0 4000.0 4000.0 4000.0 4000.0 4000.0 4000.0 4000.0 4000.0 4000.0 4000.0 4000.0 4000.0 4000.0 4000.0 4000.0 4000.0 4000.0 4000.0 4000.0 4000.0 4000.0 4000.0 4000.0 4000.0 4000.0 4000.0 4000.0 4000.0 4000.0 4000.0 4000.0 4000.0 4000.0 4000.0 4000.0 4000.0 4000.0 4000.0 4000.0 4000.0 4000.0 4000.0 4000.0 4000.0 4000.0 4000.0 4000.0 4000.0 4000.0 4000.0 4000.0 4000.0 4000.0 4000.0 4000.0 4000.0 4000.0 4000.0 4000.0 4000.0 4000.0 4000.0 4000.0 4000.0 4000.0 4000.0 4000.0 4000.0 4000.0 4000.0 4000.0 4000.0 4000.0 4000.0 4000.0 4000.0 4000.0 4000.0 4000.0 4000.0 4000.0 4000.0 4000.0 4000.0 4000.0 4000.0 4000.0 4000.0 4000.0 4000.0 4000.0 4000.0 4000.0 4000.0 4000.0 4000.0 4000.0 4000.0 4000.0 4000.0 4000.0 4000.0 4000.0 4000.0 4000.0 4000.0 4000.0 4000.0 4000.0 4000.0 4000.0 4000.0 4000.0 4000.0 4000.0 4000.0 4000.0 4000.0 4000.0 4000.0 4000.0 4000.0 4000.0 4000.0 4000.0 4000.0 4000.0 4000.0 4000.0 4000.0 4000.0 4000.0 4000.0 4000.0 4000.0 4000.0 4000.0 4000.0 4000.0 4000.0 4000.0 4000.0 4000.0 4000.0 4000.0 4000.0 4000.0 4000.0 4000.0 4000.0 4000.0 4000.0 4000.0 4000.0 4000.0 4000.0 4000.0 4000.0 4000.0 4000.0 4000.0 4000.0 4000.0 4000.0 4000.0 4000.0 4000.0 4000.0 4000.0 4000.0 4000.0 4000.0 4000.0 4000.0 4000.0 4000.0 4000.0 4000.0 4000.0 4000.0 4000.0 4000.0 4000.0 4000.0 4000.0 4000.0 4000.0 4000.0 4000.0 4000.0 4000.0 4000.0 4000.0 4000.0 4000.0 4000.0 4000.0 4000.0 4000.0 4000.0 4000.0 4000.0 4000.0 4000.0 4000.0 4000.0 4000.0 4000.0 4000.0 4000.0 4000.0 4000.0 4000.0 4000.0 4000.0 4000.0 4000.0 4000.0 4000.0 4000.0 4000.0 4000.0 4000.0 4000.0 4000.0 4000.0 4000.0 4000.0 4000.0 4000.0 4000.0 4000.0 4000.0 4000.0 4000.0 4000.0 4000.0 4000.0 4000.0 4000.0 4000.0 4000.0 4000.0 4000.0 4000.0 4000.0 4000.0 4000.0 4000.0 4000.0 4000.0 4000.0 4000.0 4000.0 4000.0 4000.0 4000.0 4000.0 4000.0 4000.0 4000.0 4000.0 4000.0 4000.0 4000.0 4000.0 4000.0 4000.0 4000.0 4000.0 4000.0 4000.0 4000.0 4000.0 4000.0 4000.0 4000.0 4000.0 4000.0 4000.0 4000.0 4000.0 4000.0 4000.0 4000.0 4000.0 4000.0 4000.0 4000.0 4000.0 4000.0 4000.0 4000.0 4000.0 4000.0 4000.0 4000.0 4000.0 4000.0 4000.0 4000.0 4000.0 4000.0 4000.0 4000.0 4000.0 4000.0 4000.0 4000.0 4000.0 4000.0 4000.0 4000.0 4000.0 4000.0 4000.0 4000.0 4000.0 4000.0 4000.0 4000.0 4000.0 4000.0 4000.0 4000.0 4000.0 4000.0 4000.0 4000.0 4000.0 4000.0 4000.0 4000.0 4000.0 4000.0 4000.0 4000.0 4000.0 4000.0 4000.0 4000.0 4000.0 4000.0 4000.0 4000.0 4000.0 4000.0 4000.0 4000.0 4000.0 4000.0 4000.0 4000.0 4000.0 4000.0 4000.0 4000.0 4000.0 4000.0 4000.0 4000.0 4000.0 4000.0 4000.0 4000.0 4000.0 4000.0 4000.0 4000.0 4000.0 4000.0 4000.0 4000.0 4000.0 4000.0 4000.0 4000.0 4000.0 4000.0 4000.0 4000.0 4000.0 4000.0 4000.0 4000.0 4000.0 4000.0 4000.0 4000.0 4000.0 4000.0 4000.0 4000.0 4000.0 4000.0 4000.0 4000.0 4000.0 4000.0 4000.0 4000.0 4000.0 4000.0 4000.0 4000.0 4000.0 4000.0 4000.0 4000.0 4000.0 4000.0 4000.0 4000.0 4000.0 4000.0 4000.0 4000.0 4000.0 4000.0 4000.0 4000.0 4000.0 4000.0 4000.0 4000.0 4000.0 4000.0 4000.0 4000.0 4000.0 4000.0 4000.0 4000.0 4000.0 4000.0 4000.0 4000.0 4000.0 4000.0 4000.0 4000.0 4000.0 4000.0 4000.0 4000.0 4000.0 4000.0 4000.0 4000.0 4000.0 4000.0 4000.0 4000.0 4000.0 4000.0 4000.0 4000.0 4000.0 4000.0 4000.0 4000.0 4000.0 4000.0 4000.0 4000.0 4000.0 4000.0 4000.0 4000.0 4000.0 4000.0 4000.0 4000.0 4000.0 4000.0 4000.0 4000.0 4000.0 4000.0 4000.0 4000.0 4000.0 4000.0 4000.0 4000.0 4000.0 4000.0 4000.0 4000.0 4000.0 4000.0 4000.0 4000.0 4000.0 4000.0 4000.0 4000.0 4000.0 4000.0 4000.0 4000.0 4000.0 4000.0 4000.0 4000.0 4000.0 4000.0 4000.0 4000.0 4000.0 4000.0 4000.0 4000.0 4000.0 4000.0 4000.0 4000.0 4000.0 4000.0 4000.0 4000.0 4000.0 4000.0 4000.0 4000.0 4000.0 4000.0 4000.0 4000.0 4000.0 4000.0 4000.0 4000.0 4000.0 4000.0 4000.0 4000.0 4000.0 4000.0 4000.0 4000.0 4000.0 4000.0 4000.0 4000.0 4000.0 4000.0 4000.0 4000.0 4000.0 4000.0 4000.0 4000.0 4000.0 4000.0 4000.0 4000.0 4000.0 4000.0 4000.0 4000.0 4000.0 4000.0 4000.0 4000.0 4000.0 4000.0 4000.0 4000.0 4000.0 4000.0 4000.0 4000.0 4000.0 4000.0 4000.0 4000.0 4000.0 4000.0 4000.0 4000.0 4000.0 4000.0 4000.0 4000.0 4000.0 4000.0 4000.0 4000.0 4000.0 4000.0 4000.0 4000.0 4000.0 4000.0 4000.0 4000.0 4000.0 4000.0 4000.0 4000.0 4000.0 4000.0 4000.0 4000.0 4000.0 4000.0 4000.0 4000.0 4000.0 4000.0 4000.0 4000.0 4000.0 4000.0 4000.0 4000.0 4000.0 4000.0 4000.0 4000.0 4000.0 4000.0 4000.0 4000.0 4000.0 4000.0 4000.0 4000.0 4000.0 4000.0 4000.0 4000.0 4000.0 4000.0 4000.0 4000.0 4000.0 4000.0 4000.0 4000.0 4000.0 4000.0 4000.0 4000.0 4000.0 4000.0 4000.0 4000.0 4000.0 4000.0 4000.0 4000.0 4000.0 4000.0 4000.0 4000.0 4000.0 4000.0 4000.0 4000.0 4000.0 4000.0 4000.0 4000.0 4000.0 4000.0 4000.0 4000.0 4000.0 4000.0 4000.0 4000.0 4000.0 4000.0 4000.0 4000.0 4000.0 4000.0 4000.0 4000.0 4000.0 4000.0 4000.0 4000.0 4000.0 4000.0 4000.0 4000.0 4000.0 4000.0 4000.0 4000.0 4000.0 4000.0 4000.0 4000.0 4000.0 4000.0 4000.0 4000.0 4000.0 4000.0 4000.0 4000.0 4000.0 4000.0 4000.0 4000.0 4000.0 4000.0 4000.0 4000.0 4000.0 4000.0 4000.0 4000.0 4000.0 4000.0 4000.0 4000.0 4000.0 4000.0 4000.0 4000.0 4000.0 4000.0 4000.0 4000.0 4000.0 4000.0 4000.0 4000.0 4000.0 4000.0 4000.0 4000.0 4000.0 4000.0 4000.0 4000.0 4000.0 4000.0 4000.0 4000.0 4000.0 4000.0 4000.0 4000.0 4000.0 4000.0 4000.0 4000.0 4000.0 4000.0 4000.0 4000.0 4000.0 4000.0 4000.0 4000.0 4000.0 4000.0 4000.0 4000.0 4000.0 4000.0 4000.0 4000.0 4000.0 4000.0 4000.0 4000.0 4000.0 4000.0 4000.0 4000.0 4000.0 4000.0 4000.0 4000.0 4000.0 4000.0 4000.0 4000.0 4000.0 4000.0 4000.0 4000.0 4000.0 4000.0 4000.0 4000.0 4000.0 4000.0 4000.0 4000.0 4000.0 4000.0 4000.0 4000.0 4000.0 4000.0 4000.0 4000.0 4000.0 4000.0 4000.0 4000.0 4000.0 4000.0 4000.0 4000.0 4000.0 4000.0 4000.0 4000.0 4000.0 4000.0 4000.0 4000.0 4000.0 4000.0 4000.0 4000.0 4000.0 4000.0 4000.0 4000.0 4000.0 4000.0 4000.0 4000.0 4000.0 4000.0 4000.0 4000.0 4000.0 4000.0 4000.0 4000.0 4000.0 4000.0 4000.0 4000.0 4000.0 4000.0 4000.0 4000.0 4000.0 4000.0 4000.0 4000.0 4000.0 4000.0 4000.0 4000.0 4000.0 4000.0 4000.0 4000.0 4000.0 4000.0 4000.0 4000.0 4000.0 4000.0 4000.0 4000.0 4000.0 4000.0 4000.0 4000.0 4000.0 4000.0 4000.0 4000.0 4000.0 4000.0 4000.0 4000.0 4000.0 4000.0 4000.0 4000.0 4000.0 4000.0 4000.0 4000.0 4000.0 4000.0 4000.0 4000.0 4000.0 4000.0 4000.0 4000.0 4000.0 4000.0 4000.0 4000.0 4000.0 4000.0 4000.0 4000.0 4000.0 4000.0 4000.0 4000.0 4000.0 4000.0 4000.0 4000.0 4000.0 4000.0 4000.0 4000.0 4000.0 4000.0 4000.0 4000.0 4000.0 4000.0 4000.0 4000.0 4000.0 4000.0 4000.0 4000.0 4000.0 4000.0 4000.0 4000.0 4000.0 4000.0 4000.0 4000.0 4000.0 4000.0 4000.0 4000.0 4000.0 4000.0 4000.0 4000.0 4000.0 4000.0 4000.0 4000.0 4000.0 4000.0 4000.0 4000.0 4000.0 4000.0 4000.0 4000.0 4000.0 4000.0 4000.0 4000.0 4000.0 4000.0 4000.0 4000.0 4000.0 4000.0 4000.0 4000.0 4000.0 4000.0 4000.0 4000.0 4000.0 4000.0 4000.0 4000.0 4000.0 4000.0 4000.0 4000.0 4000.0 4000.0 4000.0 4000.0 4000.0 4000.0 4000.0 4000.0 4000.0 4000.0 4000.0 4000.0 4000.0 4000.0 4000.0 4000.0 4000.0 4000.0 4000.0 SCALARS Mass float 1
LOOKUP_TABLE default
11309700000.0 11309700000.0 11309700000.0 11309700000.0 11309700000.0 11309700000.0 11309700000.0 11309700000.0 11309700000.0 11309700000.0 11309700000.0 11309700000.0 11309700000.0 11309700000.0 11309700000.0 11309700000.0 11309700000.0 11309700000.0 11309700000.0 11309700000.0 11309700000.0 11309700000.0 11309700000.0 11309700000.0 11309700000.0 11309700000.0 11309700000.0 11309700000.0 11309700000.0 11309700000.0 11309700000.0 11309700000.0 11309700000.0 11309700000.0 11309700000.0 11309700000.0 11309700000.0 11309700000.0 11309700000.0 11309700000.0 11309700000.0 11309700000.0 11309700000.0 11309700000.0 11309700000.0 11309700000.0 11309700000.0 11309700000.0 11309700000.0 11309700000.0 11309700000.0 11309700000.0 11309700000.0 11309700000.0 11309700000.0 11309700000.0 11309700000.0 11309700000.0 11309700000.0 11309700000.0 11309700000.0 11309700000.0 11309700000.0 11309700000.0 11309700000.0 11309700000.0 11309700000.0 11309700000.0 11309700000.0 11309700000.0 11309700000.0 11309700000.0 11309700000.0 11309700000.0 11309700000.0 11309700000.0 11309700000.0 11309700000.0 11309700000.0 11309700000.0 11309700000.0 11309700000.0 11309700000.0 11309700000.0 11309700000.0 11309700000.0 11309700000.0 11309700000.0 11309700000.0 11309700000.0 11309700000.0 11309700000.0 11309700000.0 11309700000.0 11309700000.0 11309700000.0 11309700000.0 11309700000.0 11309700000.0 11309700000.0 11309700000.0 11309700000.0 11309700000.0 11309700000.0 11309700000.0 11309700000.0 11309700000.0 11309700000.0 11309700000.0 11309700000.0 11309700000.0 11309700000.0 11309700000.0 11309700000.0 11309700000.0 11309700000.0 11309700000.0 11309700000.0 11309700000.0 11309700000.0 11309700000.0 11309700000.0 11309700000.0 11309700000.0 11309700000.0 11309700000.0 11309700000.0 11309700000.0 11309700000.0 11309700000.0 11309700000.0 11309700000.0 11309700000.0 11309700000.0 11309700000.0 11309700000.0 11309700000.0 11309700000.0 11309700000.0 11309700000.0 11309700000.0 11309700000.0 11309700000.0 11309700000.0 11309700000.0 11309700000.0 11309700000.0 11309700000.0 11309700000.0 11309700000.0 11309700000.0 11309700000.0 11309700000.0 11309700000.0 11309700000.0 11309700000.0 11309700000.0 11309700000.0 11309700000.0 11309700000.0 11309700000.0 11309700000.0 11309700000.0 11309700000.0 11309700000.0 11309700000.0 11309700000.0 11309700000.0 11309700000.0 11309700000.0 11309700000.0 11309700000.0 11309700000.0 11309700000.0 11309700000.0 11309700000.0 11309700000.0 11309700000.0 11309700000.0 11309700000.0 11309700000.0 11309700000.0 11309700000.0 11309700000.0 11309700000.0 11309700000.0 11309700000.0 11309700000.0 11309700000.0 11309700000.0 11309700000.0 11309700000.0 11309700000.0 11309700000.0 11309700000.0 11309700000.0 11309700000.0 11309700000.0 11309700000.0 11309700000.0 11309700000.0 11309700000.0 11309700000.0 11309700000.0 11309700000.0 11309700000.0 11309700000.0 11309700000.0 11309700000.0 11309700000.0 11309700000.0 11309700000.0 11309700000.0 11309700000.0 11309700000.0 11309700000.0 11309700000.0 11309700000.0 11309700000.0 11309700000.0 11309700000.0 11309700000.0 11309700000.0 11309700000.0 11309700000.0 11309700000.0 11309700000.0 11309700000.0 11309700000.0 11309700000.0 11309700000.0 11309700000.0 11309700000.0 11309700000.0 11309700000.0 11309700000.0 11309700000.0 11309700000.0 11309700000.0 11309700000.0 11309700000.0 11309700000.0 11309700000.0 11309700000.0 11309700000.0 11309700000.0 11309700000.0 11309700000.0 11309700000.0 11309700000.0 11309700000.0 11309700000.0 11309700000.0 11309700000.0 11309700000.0 11309700000.0 11309700000.0 11309700000.0 11309700000.0 11309700000.0 11309700000.0 11309700000.0 11309700000.0 11309700000.0 11309700000.0 11309700000.0 11309700000.0 11309700000.0 11309700000.0 11309700000.0 11309700000.0 11309700000.0 11309700000.0 11309700000.0 11309700000.0 11309700000.0 11309700000.0 11309700000.0 11309700000.0 11309700000.0 11309700000.0 11309700000.0 11309700000.0 11309700000.0 11309700000.0 11309700000.0 11309700000.0 11309700000.0 11309700000.0 11309700000.0 11309700000.0 11309700000.0 11309700000.0 11309700000.0 11309700000.0 11309700000.0 11309700000.0 11309700000.0 11309700000.0 11309700000.0 11309700000.0 11309700000.0 11309700000.0 11309700000.0 11309700000.0 11309700000.0 11309700000.0 11309700000.0 11309700000.0 11309700000.0 11309700000.0 11309700000.0 11309700000.0 11309700000.0 11309700000.0 11309700000.0 11309700000.0 11309700000.0 11309700000.0 11309700000.0 11309700000.0 11309700000.0 11309700000.0 11309700000.0 11309700000.0 11309700000.0 11309700000.0 11309700000.0 11309700000.0 11309700000.0 11309700000.0 11309700000.0 11309700000.0 11309700000.0 11309700000.0 11309700000.0 11309700000.0 11309700000.0 11309700000.0 11309700000.0 11309700000.0 11309700000.0 11309700000.0 11309700000.0 11309700000.0 11309700000.0 11309700000.0 11309700000.0 11309700000.0 11309700000.0 11309700000.0 11309700000.0 11309700000.0 11309700000.0 11309700000.0 11309700000.0 11309700000.0 11309700000.0 11309700000.0 11309700000.0 11309700000.0 11309700000.0 11309700000.0 11309700000.0 11309700000.0 11309700000.0 11309700000.0 11309700000.0 11309700000.0 11309700000.0 11309700000.0 11309700000.0 11309700000.0 11309700000.0 11309700000.0 11309700000.0 11309700000.0 11309700000.0 11309700000.0 11309700000.0 11309700000.0 11309700000.0 11309700000.0 11309700000.0 11309700000.0 11309700000.0 11309700000.0 11309700000.0 11309700000.0 11309700000.0 11309700000.0 11309700000.0 11309700000.0 11309700000.0 11309700000.0 11309700000.0 11309700000.0 11309700000.0 11309700000.0 11309700000.0 11309700000.0 11309700000.0 11309700000.0 11309700000.0 11309700000.0 11309700000.0 11309700000.0 11309700000.0 11309700000.0 11309700000.0 11309700000.0 11309700000.0 11309700000.0 11309700000.0 11309700000.0 11309700000.0 11309700000.0 11309700000.0 11309700000.0 11309700000.0 11309700000.0 11309700000.0 11309700000.0 11309700000.0 11309700000.0 11309700000.0 11309700000.0 11309700000.0 11309700000.0 11309700000.0 11309700000.0 11309700000.0 11309700000.0 11309700000.0 11309700000.0 11309700000.0 11309700000.0 11309700000.0 11309700000.0 11309700000.0 11309700000.0 11309700000.0 11309700000.0 11309700000.0 11309700000.0 11309700000.0 11309700000.0 11309700000.0 11309700000.0 11309700000.0 11309700000.0 11309700000.0 11309700000.0 11309700000.0 11309700000.0 11309700000.0 11309700000.0 11309700000.0 11309700000.0 11309700000.0 11309700000.0 11309700000.0 11309700000.0 11309700000.0 11309700000.0 11309700000.0 11309700000.0 11309700000.0 11309700000.0 11309700000.0 11309700000.0 11309700000.0 11309700000.0 11309700000.0 11309700000.0 11309700000.0 11309700000.0 11309700000.0 11309700000.0 11309700000.0 11309700000.0 11309700000.0 11309700000.0 11309700000.0 11309700000.0 11309700000.0 11309700000.0 11309700000.0 11309700000.0 11309700000.0 11309700000.0 11309700000.0 11309700000.0 11309700000.0 11309700000.0 11309700000.0 11309700000.0 11309700000.0 11309700000.0 11309700000.0 11309700000.0 11309700000.0 11309700000.0 11309700000.0 11309700000.0 11309700000.0 11309700000.0 11309700000.0 11309700000.0 11309700000.0 11309700000.0 11309700000.0 11309700000.0 11309700000.0 11309700000.0 11309700000.0 11309700000.0 11309700000.0 11309700000.0 11309700000.0 11309700000.0 11309700000.0 11309700000.0 11309700000.0 11309700000.0 11309700000.0 11309700000.0 11309700000.0 11309700000.0 11309700000.0 11309700000.0 11309700000.0 11309700000.0 11309700000.0 11309700000.0 11309700000.0 11309700000.0 11309700000.0 11309700000.0 11309700000.0 11309700000.0 11309700000.0 11309700000.0 11309700000.0 11309700000.0 11309700000.0 11309700000.0 11309700000.0 11309700000.0 11309700000.0 11309700000.0 11309700000.0 11309700000.0 11309700000.0 11309700000.0 11309700000.0 11309700000.0 11309700000.0 11309700000.0 11309700000.0 11309700000.0 11309700000.0 11309700000.0 11309700000.0 11309700000.0 11309700000.0 11309700000.0 11309700000.0 11309700000.0 11309700000.0 11309700000.0 11309700000.0 11309700000.0 11309700000.0 11309700000.0 11309700000.0 11309700000.0 11309700000.0 11309700000.0 11309700000.0 11309700000.0 11309700000.0 11309700000.0 11309700000.0 11309700000.0 11309700000.0 11309700000.0 11309700000.0 11309700000.0 11309700000.0 11309700000.0 11309700000.0 11309700000.0 11309700000.0 11309700000.0 11309700000.0 11309700000.0 11309700000.0 11309700000.0 11309700000.0 11309700000.0 11309700000.0 11309700000.0 11309700000.0 11309700000.0 11309700000.0 11309700000.0 11309700000.0 11309700000.0 11309700000.0 11309700000.0 11309700000.0 11309700000.0 11309700000.0 11309700000.0 11309700000.0 11309700000.0 11309700000.0 11309700000.0 11309700000.0 11309700000.0 11309700000.0 11309700000.0 11309700000.0 11309700000.0 11309700000.0 11309700000.0 11309700000.0 11309700000.0 11309700000.0 11309700000.0 11309700000.0 11309700000.0 11309700000.0 11309700000.0 11309700000.0 11309700000.0 11309700000.0 11309700000.0 11309700000.0 11309700000.0 11309700000.0 11309700000.0 11309700000.0 11309700000.0 11309700000.0 11309700000.0 11309700000.0 11309700000.0 11309700000.0 11309700000.0 11309700000.0 11309700000.0 11309700000.0 11309700000.0 11309700000.0 11309700000.0 11309700000.0 11309700000.0 11309700000.0 11309700000.0 11309700000.0 11309700000.0 11309700000.0 11309700000.0 11309700000.0 11309700000.0 11309700000.0 11309700000.0 11309700000.0 11309700000.0 11309700000.0 11309700000.0 11309700000.0 11309700000.0 11309700000.0 11309700000.0 11309700000.0 11309700000.0 11309700000.0 11309700000.0 11309700000.0 11309700000.0 11309700000.0 11309700000.0 11309700000.0 11309700000.0 11309700000.0 11309700000.0 11309700000.0 11309700000.0 11309700000.0 11309700000.0 11309700000.0 11309700000.0 11309700000.0 11309700000.0 11309700000.0 11309700000.0 11309700000.0 11309700000.0 11309700000.0 11309700000.0 11309700000.0 11309700000.0 11309700000.0 11309700000.0 11309700000.0 11309700000.0 11309700000.0 11309700000.0 11309700000.0 11309700000.0 11309700000.0 11309700000.0 11309700000.0 11309700000.0 11309700000.0 11309700000.0 11309700000.0 11309700000.0 11309700000.0 11309700000.0 11309700000.0 11309700000.0 11309700000.0 11309700000.0 11309700000.0 11309700000.0 11309700000.0 11309700000.0 11309700000.0 11309700000.0 11309700000.0 11309700000.0 11309700000.0 11309700000.0 11309700000.0 11309700000.0 11309700000.0 11309700000.0 11309700000.0 11309700000.0 11309700000.0 11309700000.0 11309700000.0 11309700000.0 11309700000.0 11309700000.0 11309700000.0 11309700000.0 11309700000.0 11309700000.0 11309700000.0 11309700000.0 11309700000.0 11309700000.0 11309700000.0 11309700000.0 11309700000.0 11309700000.0 11309700000.0 11309700000.0 11309700000.0 11309700000.0 11309700000.0 11309700000.0 11309700000.0 11309700000.0 11309700000.0 11309700000.0 11309700000.0 11309700000.0 11309700000.0 11309700000.0 11309700000.0 11309700000.0 11309700000.0 11309700000.0 11309700000.0 11309700000.0 11309700000.0 11309700000.0 11309700000.0 11309700000.0 11309700000.0 11309700000.0 11309700000.0 11309700000.0 11309700000.0 11309700000.0 11309700000.0 11309700000.0 11309700000.0 11309700000.0 11309700000.0 11309700000.0 11309700000.0 11309700000.0 11309700000.0 11309700000.0 11309700000.0 11309700000.0 11309700000.0 11309700000.0 11309700000.0 11309700000.0 11309700000.0 11309700000.0 11309700000.0 11309700000.0 11309700000.0 11309700000.0 11309700000.0 11309700000.0 11309700000.0 11309700000.0 11309700000.0 11309700000.0 11309700000.0 11309700000.0 11309700000.0 11309700000.0 11309700000.0 11309700000.0 11309700000.0 11309700000.0 11309700000.0 11309700000.0 11309700000.0 11309700000.0 11309700000.0 11309700000.0 11309700000.0 11309700000.0 11309700000.0 11309700000.0 11309700000.0 11309700000.0 11309700000.0 11309700000.0 11309700000.0 11309700000.0 11309700000.0 11309700000.0 11309700000.0 11309700000.0 11309700000.0 11309700000.0 11309700000.0 11309700000.0 11309700000.0 11309700000.0 11309700000.0 11309700000.0 11309700000.0 11309700000.0 11309700000.0 11309700000.0 11309700000.0 11309700000.0 11309700000.0 11309700000.0 11309700000.0 11309700000.0 11309700000.0 11309700000.0 11309700000.0 11309700000.0 11309700000.0 11309700000.0 11309700000.0 11309700000.0 11309700000.0 11309700000.0 11309700000.0 11309700000.0 11309700000.0 11309700000.0 11309700000.0 11309700000.0 11309700000.0 11309700000.0 11309700000.0 11309700000.0 11309700000.0 11309700000.0 11309700000.0 11309700000.0 11309700000.0 11309700000.0 11309700000.0 11309700000.0 11309700000.0 11309700000.0 11309700000.0 11309700000.0 11309700000.0 11309700000.0 11309700000.0 11309700000.0 11309700000.0 11309700000.0 11309700000.0 11309700000.0 11309700000.0 11309700000.0 11309700000.0 11309700000.0 11309700000.0 11309700000.0 11309700000.0 11309700000.0 11309700000.0 11309700000.0 11309700000.0 11309700000.0 11309700000.0 11309700000.0 11309700000.0 11309700000.0 11309700000.0 11309700000.0 11309700000.0 11309700000.0 11309700000.0 11309700000.0 11309700000.0 11309700000.0 11309700000.0 11309700000.0 11309700000.0 11309700000.0 11309700000.0 11309700000.0 11309700000.0 11309700000.0 11309700000.0 11309700000.0 11309700000.0 11309700000.0 11309700000.0 11309700000.0 11309700000.0 11309700000.0 11309700000.0 11309700000.0 11309700000.0 11309700000.0 11309700000.0 11309700000.0 11309700000.0 11309700000.0 11309700000.0 11309700000.0 11309700000.0 11309700000.0 11309700000.0 11309700000.0 11309700000.0 11309700000.0 11309700000.0 11309700000.0 11309700000.0 11309700000.0 11309700000.0 11309700000.0 11309700000.0 11309700000.0 11309700000.0 11309700000.0 11309700000.0 11309700000.0 11309700000.0 11309700000.0 11309700000.0 11309700000.0 11309700000.0 11309700000.0 11309700000.0 11309700000.0 11309700000.0 11309700000.0 11309700000.0 11309700000.0 11309700000.0 11309700000.0 11309700000.0 11309700000.0 11309700000.0 11309700000.0 11309700000.0 11309700000.0 11309700000.0 11309700000.0 11309700000.0 11309700000.0 11309700000.0 11309700000.0 11309700000.0 11309700000.0 11309700000.0 11309700000.0 11309700000.0 11309700000.0 11309700000.0 11309700000.0 11309700000.0 11309700000.0 11309700000.0 11309700000.0 11309700000.0 11309700000.0 11309700000.0 11309700000.0 11309700000.0 11309700000.0 11309700000.0 11309700000.0 11309700000.0 11309700000.0 11309700000.0 11309700000.0 11309700000.0 11309700000.0 11309700000.0 11309700000.0 11309700000.0 11309700000.0 11309700000.0 11309700000.0 11309700000.0 11309700000.0 11309700000.0 11309700000.0 11309700000.0 11309700000.0 11309700000.0 11309700000.0 11309700000.0 11309700000.0 11309700000.0 11309700000.0 11309700000.0 11309700000.0 11309700000.0 11309700000.0 11309700000.0 11309700000.0 11309700000.0 11309700000.0 11309700000.0 11309700000.0 11309700000.0 11309700000.0 11309700000.0 11309700000.0 11309700000.0 11309700000.0 11309700000.0 11309700000.0 11309700000.0 11309700000.0 11309700000.0 11309700000.0 11309700000.0 11309700000.0 11309700000.0 11309700000.0 11309700000.0 11309700000.0 11309700000.0 11309700000.0 11309700000.0 11309700000.0 11309700000.0 11309700000.0 11309700000.0 11309700000.0 11309700000.0 11309700000.0 11309700000.0 11309700000.0 11309700000.0 11309700000.0 11309700000.0 11309700000.0 11309700000.0 11309700000.0 11309700000.0 11309700000.0 11309700000.0 11309700000.0 11309700000.0 11309700000.0 11309700000.0 11309700000.0 11309700000.0 11309700000.0 11309700000.0 11309700000.0 11309700000.0 11309700000.0 11309700000.0 11309700000.0 11309700000.0 11309700000.0 11309700000.0 11309700000.0 11309700000.0 11309700000.0 11309700000.0 11309700000.0 11309700000.0 11309700000.0 11309700000.0 11309700000.0 11309700000.0 11309700000.0 11309700000.0 11309700000.0 11309700000.0 11309700000.0 11309700000.0 11309700000.0 11309700000.0 11309700000.0 11309700000.0 11309700000.0 11309700000.0 11309700000.0 11309700000.0 11309700000.0 11309700000.0 11309700000.0 11309700000.0 11309700000.0 11309700000.0 11309700000.0 11309700000.0 11309700000.0 11309700000.0 11309700000.0 11309700000.0 11309700000.0 11309700000.0 11309700000.0 11309700000.0 11309700000.0 11309700000.0 11309700000.0 11309700000.0 11309700000.0 11309700000.0 11309700000.0 11309700000.0 11309700000.0 11309700000.0 11309700000.0 11309700000.0 11309700000.0 11309700000.0 11309700000.0 11309700000.0 11309700000.0 11309700000.0 11309700000.0 11309700000.0 11309700000.0 11309700000.0 11309700000.0 11309700000.0 11309700000.0 11309700000.0 11309700000.0 11309700000.0 11309700000.0 11309700000.0 11309700000.0 11309700000.0 11309700000.0 11309700000.0 11309700000.0 11309700000.0 11309700000.0 11309700000.0 11309700000.0 11309700000.0 11309700000.0 11309700000.0 11309700000.0 11309700000.0 11309700000.0 11309700000.0 11309700000.0 11309700000.0 11309700000.0 11309700000.0 11309700000.0 11309700000.0 11309700000.0 11309700000.0 11309700000.0 11309700000.0 11309700000.0 11309700000.0 11309700000.0 11309700000.0 11309700000.0 11309700000.0 11309700000.0 11309700000.0 11309700000.0 11309700000.0 11309700000.0 11309700000.0 11309700000.0 11309700000.0 11309700000.0 11309700000.0 11309700000.0 11309700000.0 11309700000.0 11309700000.0 11309700000.0 11309700000.0 11309700000.0 11309700000.0 11309700000.0 11309700000.0 11309700000.0 11309700000.0 11309700000.0 11309700000.0 11309700000.0 11309700000.0 11309700000.0 11309700000.0 11309700000.0 11309700000.0 11309700000.0 11309700000.0 11309700000.0 11309700000.0 11309700000.0 11309700000.0 11309700000.0 11309700000.0 11309700000.0 11309700000.0 11309700000.0 11309700000.0 11309700000.0 11309700000.0 11309700000.0 11309700000.0 11309700000.0 11309700000.0 11309700000.0 11309700000.0 11309700000.0 11309700000.0 11309700000.0 11309700000.0 11309700000.0 11309700000.0 11309700000.0 11309700000.0 11309700000.0 11309700000.0 11309700000.0 11309700000.0 11309700000.0 11309700000.0 11309700000.0 11309700000.0 11309700000.0 11309700000.0 11309700000.0 11309700000.0 11309700000.0 11309700000.0 11309700000.0 11309700000.0 11309700000.0 11309700000.0 11309700000.0 11309700000.0 11309700000.0 11309700000.0 11309700000.0 11309700000.0 11309700000.0 11309700000.0 11309700000.0 11309700000.0 11309700000.0 11309700000.0 11309700000.0 11309700000.0 11309700000.0 11309700000.0 11309700000.0 11309700000.0 11309700000.0 11309700000.0 11309700000.0 11309700000.0 11309700000.0 11309700000.0 11309700000.0 11309700000.0 11309700000.0 11309700000.0 11309700000.0 11309700000.0 11309700000.0 11309700000.0 11309700000.0 11309700000.0 11309700000.0 11309700000.0 11309700000.0 11309700000.0 11309700000.0 11309700000.0 11309700000.0 11309700000.0 11309700000.0 11309700000.0 11309700000.0 11309700000.0 11309700000.0 11309700000.0 11309700000.0 11309700000.0 11309700000.0 11309700000.0 11309700000.0 11309700000.0 11309700000.0 11309700000.0 11309700000.0 11309700000.0 11309700000.0 11309700000.0 11309700000.0 11309700000.0 11309700000.0 11309700000.0 11309700000.0 11309700000.0 11309700000.0 11309700000.0 11309700000.0 11309700000.0 11309700000.0 11309700000.0 11309700000.0 11309700000.0 11309700000.0 11309700000.0 11309700000.0 11309700000.0 11309700000.0 11309700000.0 11309700000.0 11309700000.0 11309700000.0 11309700000.0 11309700000.0 11309700000.0 11309700000.0 11309700000.0 11309700000.0 11309700000.0 11309700000.0 11309700000.0 11309700000.0 11309700000.0 11309700000.0 11309700000.0 11309700000.0 11309700000.0 11309700000.0 11309700000.0 11309700000.0 11309700000.0 11309700000.0 11309700000.0 11309700000.0 11309700000.0 11309700000.0 11309700000.0 11309700000.0 11309700000.0 11309700000.0 11309700000.0 11309700000.0 11309700000.0 11309700000.0 11309700000.0 11309700000.0 11309700000.0 11309700000.0 11309700000.0 11309700000.0 11309700000.0 11309700000.0 11309700000.0 11309700000.0 11309700000.0 11309700000.0 11309700000.0 11309700000.0 11309700000.0 11309700000.0 11309700000.0 11309700000.0 11309700000.0 11309700000.0 11309700000.0 11309700000.0 11309700000.0 11309700000.0 11309700000.0 11309700000.0 11309700000.0 11309700000.0 11309700000.0 11309700000.0 11309700000.0 11309700000.0 11309700000.0 11309700000.0 11309700000.0 11309700000.0 11309700000.0 11309700000.0 11309700000.0 11309700000.0 11309700000.0 11309700000.0 11309700000.0 11309700000.0 11309700000.0 11309700000.0 11309700000.0 11309700000.0 11309700000.0 11309700000.0 11309700000.0 11309700000.0 11309700000.0 11309700000.0 11309700000.0 11309700000.0 11309700000.0 11309700000.0 11309700000.0 11309700000.0 11309700000.0 11309700000.0 11309700000.0 11309700000.0 11309700000.0 11309700000.0 11309700000.0 11309700000.0 11309700000.0 11309700000.0 11309700000.0 11309700000.0 11309700000.0 11309700000.0 11309700000.0 11309700000.0 11309700000.0 11309700000.0 11309700000.0 11309700000.0 11309700000.0 11309700000.0 11309700000.0 11309700000.0 11309700000.0 11309700000.0 11309700000.0 11309700000.0 11309700000.0 11309700000.0 11309700000.0 11309700000.0 11309700000.0 11309700000.0 11309700000.0 11309700000.0 11309700000.0 11309700000.0 11309700000.0 11309700000.0 11309700000.0 11309700000.0 11309700000.0 11309700000.0 11309700000.0 11309700000.0 11309700000.0 11309700000.0 11309700000.0 11309700000.0 11309700000.0 11309700000.0 11309700000.0 11309700000.0 11309700000.0 11309700000.0 11309700000.0 11309700000.0 11309700000.0 11309700000.0 11309700000.0 11309700000.0 11309700000.0 11309700000.0 11309700000.0 11309700000.0 11309700000.0 11309700000.0 11309700000.0 11309700000.0 11309700000.0 11309700000.0 11309700000.0 11309700000.0 11309700000.0 11309700000.0 11309700000.0 11309700000.0 11309700000.0 11309700000.0 11309700000.0 11309700000.0 11309700000.0 11309700000.0 11309700000.0 11309700000.0 11309700000.0 11309700000.0 11309700000.0 11309700000.0 11309700000.0 11309700000.0 11309700000.0 11309700000.0 11309700000.0 11309700000.0 11309700000.0 11309700000.0 11309700000.0 11309700000.0 11309700000.0 11309700000.0 11309700000.0 11309700000.0 11309700000.0 11309700000.0 11309700000.0 11309700000.0 11309700000.0 11309700000.0 11309700000.0 11309700000.0 11309700000.0 11309700000.0 11309700000.0 11309700000.0 11309700000.0 11309700000.0 11309700000.0 11309700000.0 11309700000.0 11309700000.0 11309700000.0 11309700000.0 11309700000.0 11309700000.0 11309700000.0 11309700000.0 11309700000.0 11309700000.0 11309700000.0 11309700000.0 11309700000.0 11309700000.0 11309700000.0 11309700000.0 11309700000.0 11309700000.0 11309700000.0 11309700000.0 11309700000.0 11309700000.0 11309700000.0 11309700000.0 11309700000.0 11309700000.0 11309700000.0 11309700000.0 11309700000.0 11309700000.0 11309700000.0 11309700000.0 11309700000.0 11309700000.0 11309700000.0 11309700000.0 11309700000.0 11309700000.0 11309700000.0 11309700000.0 11309700000.0 11309700000.0 11309700000.0 11309700000.0 11309700000.0 11309700000.0 11309700000.0 11309700000.0 11309700000.0 11309700000.0 11309700000.0 11309700000.0 11309700000.0 11309700000.0 11309700000.0 11309700000.0 11309700000.0 11309700000.0 11309700000.0 11309700000.0 11309700000.0 11309700000.0 11309700000.0 11309700000.0 11309700000.0 11309700000.0 11309700000.0 11309700000.0 11309700000.0 11309700000.0 11309700000.0 11309700000.0 11309700000.0 11309700000.0 11309700000.0 11309700000.0 11309700000.0 11309700000.0 11309700000.0 11309700000.0 11309700000.0 11309700000.0 11309700000.0 11309700000.0 11309700000.0 11309700000.0 11309700000.0 11309700000.0 11309700000.0 11309700000.0 11309700000.0 11309700000.0 11309700000.0 11309700000.0 11309700000.0 11309700000.0 11309700000.0 11309700000.0 11309700000.0 11309700000.0 11309700000.0 11309700000.0 11309700000.0 11309700000.0 11309700000.0 11309700000.0 11309700000.0 11309700000.0 11309700000.0 11309700000.0 11309700000.0 11309700000.0 11309700000.0 11309700000.0 11309700000.0 11309700000.0 11309700000.0 11309700000.0 11309700000.0 11309700000.0 11309700000.0 11309700000.0 11309700000.0 11309700000.0 11309700000.0 11309700000.0 11309700000.0 11309700000.0 11309700000.0 11309700000.0 11309700000.0 11309700000.0 11309700000.0 11309700000.0 11309700000.0 11309700000.0 11309700000.0 11309700000.0 11309700000.0 11309700000.0 11309700000.0 11309700000.0 11309700000.0 11309700000.0 11309700000.0 11309700000.0 11309700000.0 11309700000.0 11309700000.0 11309700000.0 11309700000.0 11309700000.0 11309700000.0 11309700000.0 11309700000.0 11309700000.0 11309700000.0 11309700000.0 11309700000.0 11309700000.0 11309700000.0 11309700000.0 11309700000.0 11309700000.0 11309700000.0 11309700000.0 11309700000.0 11309700000.0 11309700000.0 11309700000.0 11309700000.0 11309700000.0 11309700000.0 11309700000.0 11309700000.0 11309700000.0 11309700000.0 11309700000.0 11309700000.0 11309700000.0 11309700000.0 11309700000.0 11309700000.0 11309700000.0 11309700000.0 11309700000.0 11309700000.0 11309700000.0 11309700000.0 11309700000.0 11309700000.0 11309700000.0 11309700000.0 11309700000.0 11309700000.0 11309700000.0 11309700000.0 11309700000.0 11309700000.0 11309700000.0 11309700000.0 11309700000.0 11309700000.0 11309700000.0 11309700000.0 11309700000.0 11309700000.0 11309700000.0 11309700000.0 11309700000.0 11309700000.0 11309700000.0 11309700000.0 11309700000.0 11309700000.0 11309700000.0 11309700000.0 11309700000.0 11309700000.0 11309700000.0 11309700000.0 11309700000.0 11309700000.0 11309700000.0 11309700000.0 11309700000.0 11309700000.0 11309700000.0 11309700000.0 11309700000.0 11309700000.0 11309700000.0 11309700000.0 11309700000.0 11309700000.0 11309700000.0 11309700000.0 11309700000.0 11309700000.0 11309700000.0 11309700000.0 11309700000.0 11309700000.0 11309700000.0 11309700000.0 11309700000.0 11309700000.0 11309700000.0 11309700000.0 11309700000.0 11309700000.0 11309700000.0 11309700000.0 11309700000.0 11309700000.0 11309700000.0 11309700000.0 11309700000.0 11309700000.0 11309700000.0 11309700000.0 11309700000.0 11309700000.0 11309700000.0 11309700000.0 11309700000.0 11309700000.0 11309700000.0 11309700000.0 11309700000.0 11309700000.0 11309700000.0 11309700000.0 11309700000.0 11309700000.0 11309700000.0 11309700000.0 11309700000.0 11309700000.0 11309700000.0 11309700000.0 11309700000.0 11309700000.0 11309700000.0 11309700000.0 11309700000.0 11309700000.0 11309700000.0 11309700000.0 11309700000.0 11309700000.0 11309700000.0 11309700000.0 11309700000.0 11309700000.0 11309700000.0 11309700000.0 11309700000.0 11309700000.0 11309700000.0 11309700000.0 11309700000.0 11309700000.0 11309700000.0 11309700000.0 11309700000.0 11309700000.0 11309700000.0 11309700000.0 11309700000.0 11309700000.0 11309700000.0 11309700000.0 11309700000.0 11309700000.0 11309700000.0 11309700000.0 11309700000.0 11309700000.0 11309700000.0 11309700000.0 11309700000.0 11309700000.0 11309700000.0 11309700000.0 11309700000.0 11309700000.0 11309700000.0 11309700000.0 11309700000.0 11309700000.0 11309700000.0 11309700000.0 11309700000.0 11309700000.0 11309700000.0 11309700000.0 11309700000.0 11309700000.0 11309700000.0 11309700000.0 11309700000.0 11309700000.0 11309700000.0 11309700000.0 11309700000.0 11309700000.0 11309700000.0 11309700000.0 11309700000.0 11309700000.0 11309700000.0 11309700000.0 11309700000.0 11309700000.0 11309700000.0 11309700000.0 11309700000.0 11309700000.0 11309700000.0 11309700000.0 11309700000.0 11309700000.0 11309700000.0 11309700000.0 11309700000.0 11309700000.0 11309700000.0 11309700000.0 11309700000.0 11309700000.0 11309700000.0 11309700000.0 11309700000.0 11309700000.0 11309700000.0 11309700000.0 11309700000.0 11309700000.0 11309700000.0 11309700000.0 11309700000.0 11309700000.0 11309700000.0 11309700000.0 11309700000.0 11309700000.0 11309700000.0 11309700000.0 11309700000.0 11309700000.0 11309700000.0 11309700000.0 11309700000.0 11309700000.0 11309700000.0 11309700000.0 11309700000.0 11309700000.0 11309700000.0 11309700000.0 11309700000.0 11309700000.0 11309700000.0 11309700000.0 11309700000.0 11309700000.0 11309700000.0 11309700000.0 11309700000.0 11309700000.0 11309700000.0 11309700000.0 11309700000.0 11309700000.0 11309700000.0 11309700000.0 11309700000.0 11309700000.0 11309700000.0 11309700000.0 11309700000.0 11309700000.0 11309700000.0 11309700000.0 11309700000.0 11309700000.0 11309700000.0 11309700000.0 11309700000.0 11309700000.0 11309700000.0 11309700000.0 11309700000.0 11309700000.0 11309700000.0 11309700000.0 11309700000.0 11309700000.0 11309700000.0 11309700000.0 11309700000.0 11309700000.0 11309700000.0 11309700000.0 11309700000.0 11309700000.0 11309700000.0 11309700000.0 11309700000.0 11309700000.0 11309700000.0 11309700000.0 11309700000.0 11309700000.0 11309700000.0 11309700000.0 11309700000.0 11309700000.0 11309700000.0 11309700000.0 11309700000.0 11309700000.0 11309700000.0 11309700000.0 11309700000.0 11309700000.0 11309700000.0 11309700000.0 11309700000.0 11309700000.0 11309700000.0 11309700000.0 11309700000.0 11309700000.0 11309700000.0 11309700000.0 11309700000.0 11309700000.0 11309700000.0 11309700000.0 11309700000.0 11309700000.0 11309700000.0 11309700000.0 11309700000.0 11309700000.0 11309700000.0 11309700000.0 11309700000.0 11309700000.0 11309700000.0 11309700000.0 11309700000.0 11309700000.0 11309700000.0 11309700000.0 11309700000.0 11309700000.0 11309700000.0 11309700000.0 11309700000.0 11309700000.0 11309700000.0 11309700000.0 11309700000.0 11309700000.0 11309700000.0 11309700000.0 11309700000.0 11309700000.0 11309700000.0 11309700000.0 11309700000.0 11309700000.0 11309700000.0 11309700000.0 11309700000.0 11309700000.0 11309700000.0 11309700000.0 11309700000.0 11309700000.0 11309700000.0 11309700000.0 11309700000.0 11309700000.0 11309700000.0 11309700000.0 11309700000.0 11309700000.0 11309700000.0 11309700000.0 11309700000.0 11309700000.0 11309700000.0 11309700000.0 11309700000.0 11309700000.0 11309700000.0 11309700000.0 11309700000.0 11309700000.0 11309700000.0 11309700000.0 11309700000.0 11309700000.0 11309700000.0 11309700000.0 11309700000.0 11309700000.0 11309700000.0 11309700000.0 11309700000.0 11309700000.0 11309700000.0 11309700000.0 11309700000.0 11309700000.0 11309700000.0 11309700000.0 11309700000.0 11309700000.0 11309700000.0 11309700000.0 11309700000.0 11309700000.0 11309700000.0 11309700000.0 11309700000.0 11309700000.0 11309700000.0 11309700000.0 11309700000.0 11309700000.0 11309700000.0 11309700000.0 11309700000.0 11309700000.0 11309700000.0 11309700000.0 11309700000.0 11309700000.0 11309700000.0 11309700000.0 11309700000.0 11309700000.0 11309700000.0 11309700000.0 11309700000.0 11309700000.0 11309700000.0 11309700000.0 11309700000.0 11309700000.0 11309700000.0 11309700000.0 11309700000.0 11309700000.0 11309700000.0 11309700000.0 11309700000.0 11309700000.0 11309700000.0 11309700000.0 11309700000.0 11309700000.0 11309700000.0 11309700000.0 11309700000.0 11309700000.0 11309700000.0 11309700000.0 11309700000.0 11309700000.0 11309700000.0 11309700000.0 11309700000.0 11309700000.0 11309700000.0 11309700000.0 11309700000.0 11309700000.0 11309700000.0 11309700000.0 11309700000.0 11309700000.0 11309700000.0 11309700000.0 11309700000.0 11309700000.0 11309700000.0 11309700000.0 11309700000.0 11309700000.0 11309700000.0 11309700000.0 11309700000.0 11309700000.0 11309700000.0 11309700000.0 11309700000.0 11309700000.0 11309700000.0 11309700000.0 11309700000.0 11309700000.0 11309700000.0 11309700000.0 11309700000.0 11309700000.0 11309700000.0 11309700000.0 11309700000.0 11309700000.0 11309700000.0 11309700000.0 11309700000.0 11309700000.0 11309700000.0 11309700000.0 11309700000.0 11309700000.0 11309700000.0 11309700000.0 11309700000.0 11309700000.0 11309700000.0 11309700000.0 11309700000.0 11309700000.0 11309700000.0 11309700000.0 11309700000.0 11309700000.0 11309700000.0 11309700000.0 11309700000.0 11309700000.0 11309700000.0 11309700000.0 11309700000.0 11309700000.0 11309700000.0 11309700000.0 11309700000.0 11309700000.0 11309700000.0 11309700000.0 11309700000.0 11309700000.0 11309700000.0 11309700000.0 11309700000.0 11309700000.0 11309700000.0 11309700000.0 11309700000.0 11309700000.0 11309700000.0 11309700000.0 11309700000.0 11309700000.0 11309700000.0 11309700000.0 11309700000.0 11309700000.0 11309700000.0 11309700000.0 11309700000.0 11309700000.0 11309700000.0 11309700000.0 11309700000.0 11309700000.0 11309700000.0 11309700000.0 11309700000.0 11309700000.0 11309700000.0 11309700000.0 11309700000.0 11309700000.0 11309700000.0 11309700000.0 11309700000.0 11309700000.0 11309700000.0 11309700000.0 11309700000.0 11309700000.0 11309700000.0 11309700000.0 11309700000.0 11309700000.0 11309700000.0 11309700000.0 11309700000.0 11309700000.0 11309700000.0 11309700000.0 11309700000.0 11309700000.0 11309700000.0 11309700000.0 11309700000.0 11309700000.0 11309700000.0 11309700000.0 11309700000.0 11309700000.0 11309700000.0 11309700000.0 11309700000.0 11309700000.0 11309700000.0 11309700000.0 11309700000.0 11309700000.0 11309700000.0 11309700000.0 11309700000.0 11309700000.0 11309700000.0 11309700000.0 11309700000.0 11309700000.0 11309700000.0 11309700000.0 11309700000.0 11309700000.0 11309700000.0 11309700000.0 11309700000.0 11309700000.0 11309700000.0 11309700000.0 11309700000.0 11309700000.0 11309700000.0 11309700000.0 11309700000.0 11309700000.0 11309700000.0 11309700000.0 11309700000.0 11309700000.0 11309700000.0 11309700000.0 11309700000.0 11309700000.0 11309700000.0 11309700000.0 11309700000.0 11309700000.0 11309700000.0 11309700000.0 11309700000.0 11309700000.0 11309700000.0 11309700000.0 11309700000.0 11309700000.0 11309700000.0 11309700000.0 11309700000.0 11309700000.0 11309700000.0 11309700000.0 11309700000.0 11309700000.0 11309700000.0 11309700000.0 11309700000.0 11309700000.0 11309700000.0 11309700000.0 11309700000.0 11309700000.0 11309700000.0 11309700000.0 11309700000.0 11309700000.0 11309700000.0 11309700000.0 11309700000.0 11309700000.0 11309700000.0 11309700000.0 11309700000.0 11309700000.0 11309700000.0 11309700000.0 11309700000.0 11309700000.0 11309700000.0 11309700000.0 11309700000.0 11309700000.0 11309700000.0 11309700000.0 11309700000.0 11309700000.0 11309700000.0 11309700000.0 11309700000.0 11309700000.0 11309700000.0 11309700000.0 11309700000.0 11309700000.0 11309700000.0 11309700000.0 11309700000.0 11309700000.0 11309700000.0 11309700000.0 11309700000.0 11309700000.0 11309700000.0 11309700000.0 11309700000.0 11309700000.0 11309700000.0 11309700000.0 11309700000.0 11309700000.0 11309700000.0 11309700000.0 11309700000.0 11309700000.0 11309700000.0 11309700000.0 11309700000.0 11309700000.0 11309700000.0 11309700000.0 11309700000.0 11309700000.0 11309700000.0 11309700000.0 11309700000.0 11309700000.0 11309700000.0 11309700000.0 11309700000.0 11309700000.0 11309700000.0 11309700000.0 11309700000.0 11309700000.0 11309700000.0 11309700000.0 11309700000.0 11309700000.0 11309700000.0 11309700000.0 11309700000.0 11309700000.0 11309700000.0 11309700000.0 11309700000.0 11309700000.0 11309700000.0 11309700000.0 11309700000.0 11309700000.0 11309700000.0 11309700000.0 11309700000.0 11309700000.0 11309700000.0 11309700000.0 11309700000.0 11309700000.0 11309700000.0 11309700000.0 11309700000.0 11309700000.0 11309700000.0 11309700000.0 11309700000.0 11309700000.0 11309700000.0 11309700000.0 11309700000.0 11309700000.0 11309700000.0 11309700000.0 11309700000.0 11309700000.0 11309700000.0 11309700000.0 11309700000.0 11309700000.0 11309700000.0 11309700000.0 11309700000.0 11309700000.0 11309700000.0 11309700000.0 11309700000.0 11309700000.0 11309700000.0 11309700000.0 11309700000.0 11309700000.0 11309700000.0 11309700000.0 11309700000.0 11309700000.0 11309700000.0 11309700000.0 11309700000.0 11309700000.0 11309700000.0 11309700000.0 11309700000.0 11309700000.0 11309700000.0 11309700000.0 11309700000.0 11309700000.0 11309700000.0 11309700000.0 11309700000.0 11309700000.0 11309700000.0 11309700000.0 11309700000.0 11309700000.0 11309700000.0 11309700000.0 11309700000.0 11309700000.0 11309700000.0 11309700000.0 11309700000.0 11309700000.0 11309700000.0 11309700000.0 11309700000.0 11309700000.0 11309700000.0 11309700000.0 11309700000.0 11309700000.0 11309700000.0 11309700000.0 11309700000.0 11309700000.0 11309700000.0 11309700000.0 11309700000.0 11309700000.0 11309700000.0 11309700000.0 11309700000.0 11309700000.0 11309700000.0 11309700000.0 11309700000.0 11309700000.0 11309700000.0 11309700000.0 11309700000.0 11309700000.0 11309700000.0 11309700000.0 11309700000.0 11309700000.0 11309700000.0 11309700000.0 11309700000.0 11309700000.0 11309700000.0 11309700000.0 11309700000.0 11309700000.0 11309700000.0 11309700000.0 11309700000.0 11309700000.0 11309700000.0 11309700000.0 11309700000.0 11309700000.0 11309700000.0 11309700000.0 11309700000.0 11309700000.0 11309700000.0 11309700000.0 11309700000.0 11309700000.0 11309700000.0 11309700000.0 11309700000.0 11309700000.0 11309700000.0 11309700000.0 11309700000.0 11309700000.0 11309700000.0 11309700000.0 11309700000.0 11309700000.0 11309700000.0 11309700000.0 11309700000.0 11309700000.0 11309700000.0 11309700000.0 11309700000.0 11309700000.0 11309700000.0 11309700000.0 11309700000.0 11309700000.0 11309700000.0 11309700000.0 11309700000.0 11309700000.0 11309700000.0 11309700000.0 11309700000.0 11309700000.0 11309700000.0 11309700000.0 11309700000.0 11309700000.0 11309700000.0 11309700000.0 11309700000.0 11309700000.0 11309700000.0 11309700000.0 11309700000.0 11309700000.0 11309700000.0 11309700000.0 11309700000.0 11309700000.0 11309700000.0 11309700000.0 11309700000.0 11309700000.0 11309700000.0 11309700000.0 11309700000.0 11309700000.0 11309700000.0 11309700000.0 11309700000.0 11309700000.0 11309700000.0 11309700000.0 11309700000.0 11309700000.0 11309700000.0 11309700000.0 11309700000.0 11309700000.0 11309700000.0 11309700000.0 11309700000.0 11309700000.0 11309700000.0 11309700000.0 11309700000.0 11309700000.0 11309700000.0 11309700000.0 11309700000.0 11309700000.0 11309700000.0 11309700000.0 11309700000.0 11309700000.0 11309700000.0 11309700000.0 11309700000.0 11309700000.0 11309700000.0 11309700000.0 11309700000.0 11309700000.0 11309700000.0 11309700000.0 11309700000.0 11309700000.0 11309700000.0 11309700000.0 11309700000.0 11309700000.0 11309700000.0 11309700000.0 11309700000.0 11309700000.0 11309700000.0 11309700000.0 11309700000.0 11309700000.0 11309700000.0 11309700000.0 11309700000.0 11309700000.0 11309700000.0 11309700000.0 11309700000.0 11309700000.0 11309700000.0 11309700000.0 11309700000.0 11309700000.0 11309700000.0 11309700000.0 11309700000.0 11309700000.0 11309700000.0 11309700000.0 11309700000.0 11309700000.0 11309700000.0 11309700000.0 11309700000.0 11309700000.0 11309700000.0 11309700000.0 11309700000.0 11309700000.0 11309700000.0 11309700000.0 11309700000.0 11309700000.0 11309700000.0 11309700000.0 11309700000.0 11309700000.0 11309700000.0 11309700000.0 11309700000.0 11309700000.0 11309700000.0 11309700000.0 11309700000.0 11309700000.0 11309700000.0 11309700000.0 11309700000.0 11309700000.0 11309700000.0 11309700000.0 11309700000.0 11309700000.0 11309700000.0 11309700000.0 11309700000.0 11309700000.0 11309700000.0 11309700000.0 11309700000.0 11309700000.0 11309700000.0 11309700000.0 11309700000.0 11309700000.0 11309700000.0 11309700000.0 11309700000.0 11309700000.0 11309700000.0 11309700000.0 11309700000.0 11309700000.0 11309700000.0 11309700000.0 11309700000.0 11309700000.0 11309700000.0 11309700000.0 11309700000.0 11309700000.0 11309700000.0 11309700000.0 11309700000.0 11309700000.0 11309700000.0 11309700000.0 11309700000.0 11309700000.0 11309700000.0 11309700000.0 11309700000.0 11309700000.0 11309700000.0 11309700000.0 11309700000.0 11309700000.0 11309700000.0 11309700000.0 11309700000.0 11309700000.0 11309700000.0 11309700000.0 11309700000.0 11309700000.0 11309700000.0 11309700000.0 11309700000.0 11309700000.0 11309700000.0 11309700000.0 11309700000.0 11309700000.0 11309700000.0 11309700000.0 11309700000.0 11309700000.0 11309700000.0 11309700000.0 11309700000.0 11309700000.0 11309700000.0 11309700000.0 11309700000.0 11309700000.0 11309700000.0 11309700000.0 11309700000.0 11309700000.0 11309700000.0 11309700000.0 11309700000.0 11309700000.0 11309700000.0 11309700000.0 11309700000.0 11309700000.0 11309700000.0 11309700000.0 11309700000.0 11309700000.0 11309700000.0 11309700000.0 11309700000.0 11309700000.0 11309700000.0 11309700000.0 11309700000.0 11309700000.0 11309700000.0 11309700000.0 11309700000.0 11309700000.0 11309700000.0 11309700000.0 11309700000.0 11309700000.0 11309700000.0 11309700000.0 11309700000.0 11309700000.0 11309700000.0 11309700000.0 11309700000.0 11309700000.0 11309700000.0 11309700000.0 11309700000.0 11309700000.0 11309700000.0 11309700000.0 11309700000.0 11309700000.0 11309700000.0 11309700000.0 11309700000.0 11309700000.0 11309700000.0 11309700000.0 11309700000.0 11309700000.0 11309700000.0 11309700000.0 11309700000.0 11309700000.0 11309700000.0 11309700000.0 11309700000.0 11309700000.0 11309700000.0 11309700000.0 11309700000.0 11309700000.0 11309700000.0 11309700000.0 11309700000.0 11309700000.0 11309700000.0 11309700000.0 11309700000.0 11309700000.0 11309700000.0 11309700000.0 11309700000.0 11309700000.0 11309700000.0 11309700000.0 11309700000.0 11309700000.0 11309700000.0 11309700000.0 11309700000.0 11309700000.0 11309700000.0 11309700000.0 11309700000.0 11309700000.0 11309700000.0 11309700000.0 11309700000.0 11309700000.0 11309700000.0 11309700000.0 11309700000.0 11309700000.0 11309700000.0 11309700000.0 11309700000.0 11309700000.0 11309700000.0 11309700000.0 11309700000.0 11309700000.0 11309700000.0 11309700000.0 11309700000.0 11309700000.0 11309700000.0 11309700000.0 11309700000.0 11309700000.0 11309700000.0 11309700000.0 11309700000.0 11309700000.0 11309700000.0 11309700000.0 11309700000.0 11309700000.0 11309700000.0 11309700000.0 11309700000.0 11309700000.0 11309700000.0 11309700000.0 11309700000.0 11309700000.0 11309700000.0 11309700000.0 11309700000.0 11309700000.0 11309700000.0 11309700000.0 11309700000.0 11309700000.0 11309700000.0 11309700000.0 11309700000.0 11309700000.0 11309700000.0 11309700000.0 11309700000.0 11309700000.0 11309700000.0 11309700000.0 11309700000.0 11309700000.0 11309700000.0 11309700000.0 11309700000.0 11309700000.0 11309700000.0 11309700000.0 11309700000.0 11309700000.0 11309700000.0 11309700000.0 11309700000.0 11309700000.0 11309700000.0 11309700000.0 11309700000.0 11309700000.0 11309700000.0 11309700000.0 11309700000.0 11309700000.0 11309700000.0 11309700000.0 11309700000.0 11309700000.0 11309700000.0 11309700000.0 11309700000.0 11309700000.0 11309700000.0 11309700000.0 11309700000.0 11309700000.0 11309700000.0 11309700000.0 11309700000.0 11309700000.0 11309700000.0 11309700000.0 11309700000.0 11309700000.0 11309700000.0 11309700000.0 11309700000.0 11309700000.0 11309700000.0 11309700000.0 11309700000.0 11309700000.0 11309700000.0 11309700000.0 11309700000.0 11309700000.0 11309700000.0 11309700000.0 11309700000.0 11309700000.0 11309700000.0 11309700000.0 11309700000.0 11309700000.0 11309700000.0 11309700000.0 11309700000.0 11309700000.0 11309700000.0 11309700000.0 11309700000.0 11309700000.0 11309700000.0 11309700000.0 11309700000.0 11309700000.0 11309700000.0 11309700000.0 11309700000.0 11309700000.0 11309700000.0 11309700000.0 11309700000.0 11309700000.0 11309700000.0 11309700000.0 11309700000.0 11309700000.0 11309700000.0 11309700000.0 11309700000.0 11309700000.0 11309700000.0 11309700000.0 11309700000.0 11309700000.0 11309700000.0 11309700000.0 11309700000.0 11309700000.0 11309700000.0 11309700000.0 11309700000.0 11309700000.0 11309700000.0 11309700000.0 11309700000.0 11309700000.0 11309700000.0 11309700000.0 11309700000.0 11309700000.0 11309700000.0 11309700000.0 11309700000.0 11309700000.0 11309700000.0 11309700000.0 11309700000.0 11309700000.0 11309700000.0 11309700000.0 11309700000.0 11309700000.0 11309700000.0 11309700000.0 11309700000.0 11309700000.0 11309700000.0 11309700000.0 11309700000.0 11309700000.0 11309700000.0 11309700000.0 11309700000.0 11309700000.0 11309700000.0 11309700000.0 11309700000.0 11309700000.0 11309700000.0 11309700000.0 11309700000.0 11309700000.0 11309700000.0 11309700000.0 11309700000.0 11309700000.0 11309700000.0 11309700000.0 11309700000.0 11309700000.0 11309700000.0 11309700000.0 11309700000.0 11309700000.0 11309700000.0 11309700000.0 11309700000.0 11309700000.0 11309700000.0 11309700000.0 11309700000.0 11309700000.0 11309700000.0 11309700000.0 11309700000.0 11309700000.0 11309700000.0 11309700000.0 11309700000.0 11309700000.0 11309700000.0 11309700000.0 11309700000.0 11309700000.0 11309700000.0 11309700000.0 11309700000.0 11309700000.0 11309700000.0 11309700000.0 11309700000.0 11309700000.0 11309700000.0 11309700000.0 11309700000.0 11309700000.0 11309700000.0 11309700000.0 11309700000.0 11309700000.0 11309700000.0 11309700000.0 11309700000.0 11309700000.0 11309700000.0 11309700000.0 11309700000.0 11309700000.0 11309700000.0 11309700000.0 11309700000.0 11309700000.0 11309700000.0 11309700000.0 11309700000.0 11309700000.0 11309700000.0 11309700000.0 11309700000.0 11309700000.0 11309700000.0 11309700000.0 11309700000.0 11309700000.0 11309700000.0 11309700000.0 11309700000.0 11309700000.0 11309700000.0 11309700000.0 11309700000.0 11309700000.0 11309700000.0 11309700000.0 11309700000.0 11309700000.0 11309700000.0 11309700000.0 11309700000.0 11309700000.0 11309700000.0 11309700000.0 11309700000.0 11309700000.0 11309700000.0 11309700000.0 11309700000.0 11309700000.0 11309700000.0 11309700000.0 11309700000.0 11309700000.0 11309700000.0 11309700000.0 11309700000.0 11309700000.0 11309700000.0 11309700000.0 11309700000.0 11309700000.0 11309700000.0 11309700000.0 11309700000.0 11309700000.0 11309700000.0 11309700000.0 11309700000.0 11309700000.0 11309700000.0 11309700000.0 11309700000.0 11309700000.0 11309700000.0 11309700000.0 11309700000.0 11309700000.0 11309700000.0 11309700000.0 11309700000.0 11309700000.0 11309700000.0 11309700000.0 11309700000.0 11309700000.0 11309700000.0 11309700000.0 11309700000.0 11309700000.0 11309700000.0 11309700000.0 11309700000.0 11309700000.0 11309700000.0 11309700000.0 11309700000.0 11309700000.0 11309700000.0 11309700000.0 11309700000.0 11309700000.0 11309700000.0 11309700000.0 11309700000.0 11309700000.0 11309700000.0 11309700000.0 11309700000.0 11309700000.0 11309700000.0 11309700000.0 11309700000.0 11309700000.0 11309700000.0 11309700000.0 11309700000.0 11309700000.0 11309700000.0 11309700000.0 11309700000.0 11309700000.0 11309700000.0 11309700000.0 11309700000.0 11309700000.0 11309700000.0 11309700000.0 11309700000.0 11309700000.0 11309700000.0 11309700000.0 11309700000.0 11309700000.0 11309700000.0 11309700000.0 11309700000.0 11309700000.0 11309700000.0 11309700000.0 11309700000.0 11309700000.0 11309700000.0 11309700000.0 11309700000.0 11309700000.0 11309700000.0 11309700000.0 11309700000.0 11309700000.0 11309700000.0 11309700000.0 11309700000.0 11309700000.0 11309700000.0 11309700000.0 11309700000.0 11309700000.0 11309700000.0 11309700000.0 11309700000.0 11309700000.0 11309700000.0 11309700000.0 11309700000.0 11309700000.0 11309700000.0 11309700000.0 11309700000.0 11309700000.0 11309700000.0 11309700000.0 11309700000.0 11309700000.0 11309700000.0 11309700000.0 11309700000.0 11309700000.0 11309700000.0 11309700000.0 11309700000.0 11309700000.0 11309700000.0 11309700000.0 11309700000.0 11309700000.0 11309700000.0 11309700000.0 11309700000.0 11309700000.0 11309700000.0 11309700000.0 11309700000.0 11309700000.0 11309700000.0 11309700000.0 11309700000.0 11309700000.0 11309700000.0 11309700000.0 11309700000.0 11309700000.0 11309700000.0 11309700000.0 11309700000.0 11309700000.0 11309700000.0 11309700000.0 11309700000.0 11309700000.0 11309700000.0 11309700000.0 11309700000.0 11309700000.0 11309700000.0 11309700000.0 11309700000.0 11309700000.0 11309700000.0 11309700000.0 11309700000.0 11309700000.0 11309700000.0 11309700000.0 11309700000.0 11309700000.0 11309700000.0 11309700000.0 11309700000.0 11309700000.0 11309700000.0 11309700000.0 11309700000.0 11309700000.0 11309700000.0 11309700000.0 11309700000.0 11309700000.0 11309700000.0 11309700000.0 11309700000.0 11309700000.0 11309700000.0 11309700000.0 11309700000.0 11309700000.0 11309700000.0 11309700000.0 11309700000.0 11309700000.0 11309700000.0 11309700000.0 11309700000.0 11309700000.0 11309700000.0 11309700000.0 11309700000.0 11309700000.0 11309700000.0 11309700000.0 11309700000.0 11309700000.0 11309700000.0 11309700000.0 11309700000.0 11309700000.0 11309700000.0 11309700000.0 11309700000.0 11309700000.0 11309700000.0 11309700000.0 11309700000.0 11309700000.0 11309700000.0 11309700000.0 11309700000.0 11309700000.0 11309700000.0 11309700000.0 11309700000.0 11309700000.0 11309700000.0 11309700000.0 11309700000.0 11309700000.0 11309700000.0 11309700000.0 11309700000.0 11309700000.0 11309700000.0 11309700000.0 11309700000.0 11309700000.0 11309700000.0 11309700000.0 11309700000.0 11309700000.0 11309700000.0 11309700000.0 11309700000.0 11309700000.0 11309700000.0 11309700000.0 11309700000.0 11309700000.0 11309700000.0 11309700000.0 11309700000.0 11309700000.0 11309700000.0 11309700000.0 11309700000.0 11309700000.0 11309700000.0 11309700000.0 11309700000.0 11309700000.0 11309700000.0 11309700000.0 11309700000.0 11309700000.0 11309700000.0 11309700000.0 11309700000.0 11309700000.0 11309700000.0 11309700000.0 11309700000.0 11309700000.0 11309700000.0 11309700000.0 11309700000.0 11309700000.0 11309700000.0 11309700000.0 11309700000.0 11309700000.0 11309700000.0 11309700000.0 11309700000.0 11309700000.0 11309700000.0 11309700000.0 11309700000.0 11309700000.0 11309700000.0 11309700000.0 11309700000.0 11309700000.0 11309700000.0 11309700000.0 11309700000.0 11309700000.0 11309700000.0 11309700000.0 11309700000.0 11309700000.0 11309700000.0 11309700000.0 11309700000.0 11309700000.0 11309700000.0 11309700000.0 11309700000.0 11309700000.0 11309700000.0 11309700000.0 11309700000.0 11309700000.0 11309700000.0 11309700000.0 11309700000.0 11309700000.0 11309700000.0 11309700000.0 11309700000.0 11309700000.0 11309700000.0 11309700000.0 11309700000.0 11309700000.0 11309700000.0 11309700000.0 11309700000.0 11309700000.0 11309700000.0 11309700000.0 11309700000.0 11309700000.0 11309700000.0 11309700000.0 11309700000.0 11309700000.0 11309700000.0 11309700000.0 11309700000.0 11309700000.0 11309700000.0 11309700000.0 11309700000.0 11309700000.0 11309700000.0 11309700000.0 11309700000.0 11309700000.0 11309700000.0 11309700000.0 11309700000.0 11309700000.0 11309700000.0 11309700000.0 11309700000.0 11309700000.0 11309700000.0 11309700000.0 11309700000.0 11309700000.0 11309700000.0 11309700000.0 11309700000.0 11309700000.0 11309700000.0 11309700000.0 11309700000.0 11309700000.0 11309700000.0 11309700000.0 11309700000.0 11309700000.0 11309700000.0 11309700000.0 11309700000.0 11309700000.0 11309700000.0 11309700000.0 11309700000.0 11309700000.0 11309700000.0 11309700000.0 11309700000.0 11309700000.0 11309700000.0 11309700000.0 11309700000.0 11309700000.0 11309700000.0 11309700000.0 11309700000.0 11309700000.0 11309700000.0 11309700000.0 11309700000.0 11309700000.0 11309700000.0 11309700000.0 11309700000.0 11309700000.0 11309700000.0 11309700000.0 11309700000.0 11309700000.0 11309700000.0 11309700000.0 11309700000.0 11309700000.0 11309700000.0 11309700000.0 11309700000.0 11309700000.0 11309700000.0 11309700000.0 11309700000.0 11309700000.0 11309700000.0 11309700000.0 11309700000.0 11309700000.0 11309700000.0 11309700000.0 11309700000.0 11309700000.0 11309700000.0 11309700000.0 11309700000.0 11309700000.0 11309700000.0 11309700000.0 11309700000.0 11309700000.0 11309700000.0 11309700000.0 11309700000.0 11309700000.0 11309700000.0 11309700000.0 11309700000.0 11309700000.0 11309700000.0 11309700000.0 11309700000.0 11309700000.0 11309700000.0 11309700000.0 11309700000.0 11309700000.0 11309700000.0 11309700000.0 11309700000.0 11309700000.0 11309700000.0 11309700000.0 11309700000.0 11309700000.0 11309700000.0 11309700000.0 11309700000.0 11309700000.0 11309700000.0 11309700000.0 11309700000.0 11309700000.0 11309700000.0 11309700000.0 11309700000.0 11309700000.0 11309700000.0 11309700000.0 11309700000.0 11309700000.0 11309700000.0 11309700000.0 11309700000.0 11309700000.0 11309700000.0 11309700000.0 11309700000.0 11309700000.0 11309700000.0 11309700000.0 11309700000.0 11309700000.0 11309700000.0 11309700000.0 11309700000.0 11309700000.0 11309700000.0 11309700000.0 11309700000.0 11309700000.0 11309700000.0 11309700000.0 11309700000.0 11309700000.0 11309700000.0 11309700000.0 11309700000.0 11309700000.0 11309700000.0 11309700000.0 11309700000.0 11309700000.0 11309700000.0 11309700000.0 11309700000.0 11309700000.0 11309700000.0 11309700000.0 11309700000.0 11309700000.0 11309700000.0 11309700000.0 11309700000.0 11309700000.0 11309700000.0 11309700000.0 11309700000.0 11309700000.0 11309700000.0 11309700000.0 11309700000.0 11309700000.0 11309700000.0 11309700000.0 11309700000.0 11309700000.0 11309700000.0 11309700000.0 11309700000.0 11309700000.0 11309700000.0 11309700000.0 11309700000.0 11309700000.0 11309700000.0 11309700000.0 11309700000.0 11309700000.0 11309700000.0 11309700000.0 11309700000.0 11309700000.0 11309700000.0 11309700000.0 11309700000.0 11309700000.0 11309700000.0 11309700000.0 11309700000.0 11309700000.0 11309700000.0 11309700000.0 11309700000.0 11309700000.0 11309700000.0 11309700000.0 11309700000.0 11309700000.0 11309700000.0 11309700000.0 11309700000.0 11309700000.0 11309700000.0 11309700000.0 11309700000.0 11309700000.0 11309700000.0 11309700000.0 11309700000.0 11309700000.0 11309700000.0 11309700000.0 11309700000.0 11309700000.0 11309700000.0 11309700000.0 11309700000.0 11309700000.0 11309700000.0 11309700000.0 11309700000.0 11309700000.0 11309700000.0 11309700000.0 11309700000.0 11309700000.0 11309700000.0 11309700000.0 11309700000.0 11309700000.0 11309700000.0 11309700000.0 11309700000.0 11309700000.0 11309700000.0 11309700000.0 11309700000.0 11309700000.0 11309700000.0 11309700000.0 11309700000.0 11309700000.0 11309700000.0 11309700000.0 11309700000.0 11309700000.0 11309700000.0 11309700000.0 11309700000.0 11309700000.0 11309700000.0 11309700000.0 11309700000.0 11309700000.0 11309700000.0 11309700000.0 11309700000.0 11309700000.0 11309700000.0 11309700000.0 11309700000.0 11309700000.0 11309700000.0 11309700000.0 11309700000.0 11309700000.0 11309700000.0 11309700000.0 11309700000.0 11309700000.0 11309700000.0 11309700000.0 11309700000.0 11309700000.0 11309700000.0 11309700000.0 11309700000.0 11309700000.0 11309700000.0 11309700000.0 11309700000.0 11309700000.0 11309700000.0 11309700000.0 11309700000.0 11309700000.0 11309700000.0 11309700000.0 11309700000.0 11309700000.0 11309700000.0 11309700000.0 11309700000.0 11309700000.0 11309700000.0 11309700000.0 11309700000.0 11309700000.0 11309700000.0 11309700000.0 11309700000.0 11309700000.0 11309700000.0 11309700000.0 11309700000.0 11309700000.0 11309700000.0 11309700000.0 11309700000.0 11309700000.0 11309700000.0 11309700000.0 11309700000.0 11309700000.0 11309700000.0 11309700000.0 11309700000.0 11309700000.0 11309700000.0 11309700000.0 11309700000.0 11309700000.0 11309700000.0 11309700000.0 11309700000.0 11309700000.0 11309700000.0 11309700000.0 11309700000.0 11309700000.0 11309700000.0 11309700000.0 11309700000.0 11309700000.0 11309700000.0 11309700000.0 11309700000.0 11309700000.0 11309700000.0 11309700000.0 11309700000.0 11309700000.0 11309700000.0 11309700000.0 11309700000.0 11309700000.0 11309700000.0 11309700000.0 11309700000.0 11309700000.0 11309700000.0 11309700000.0 11309700000.0 11309700000.0 11309700000.0 11309700000.0 11309700000.0 11309700000.0 11309700000.0 11309700000.0 11309700000.0 11309700000.0 11309700000.0 11309700000.0 11309700000.0 11309700000.0 11309700000.0 11309700000.0 11309700000.0 11309700000.0 11309700000.0 11309700000.0 11309700000.0 11309700000.0 11309700000.0 11309700000.0 11309700000.0 11309700000.0 11309700000.0 11309700000.0 11309700000.0 11309700000.0 11309700000.0 11309700000.0 11309700000.0 11309700000.0 11309700000.0 11309700000.0 11309700000.0 11309700000.0 11309700000.0 11309700000.0 11309700000.0 11309700000.0 11309700000.0 11309700000.0 11309700000.0 11309700000.0 11309700000.0 11309700000.0 11309700000.0 11309700000.0 11309700000.0 11309700000.0 11309700000.0 11309700000.0 11309700000.0 11309700000.0 11309700000.0 11309700000.0 11309700000.0 11309700000.0 11309700000.0 11309700000.0 11309700000.0 11309700000.0 11309700000.0 11309700000.0 11309700000.0 11309700000.0 11309700000.0 11309700000.0 11309700000.0 11309700000.0 11309700000.0 11309700000.0 11309700000.0 11309700000.0 11309700000.0 11309700000.0 11309700000.0 11309700000.0 11309700000.0 11309700000.0 11309700000.0 11309700000.0 11309700000.0 11309700000.0 11309700000.0 11309700000.0 11309700000.0 11309700000.0 11309700000.0 11309700000.0 11309700000.0 11309700000.0 11309700000.0 11309700000.0 11309700000.0 11309700000.0 11309700000.0 11309700000.0 11309700000.0 11309700000.0 11309700000.0 11309700000.0 11309700000.0 11309700000.0 11309700000.0 11309700000.0 11309700000.0 11309700000.0 11309700000.0 11309700000.0 11309700000.0 11309700000.0 11309700000.0 11309700000.0 11309700000.0 11309700000.0 11309700000.0 11309700000.0 11309700000.0 11309700000.0 11309700000.0 11309700000.0 11309700000.0 11309700000.0 11309700000.0 11309700000.0 11309700000.0 11309700000.0 11309700000.0 11309700000.0 11309700000.0 11309700000.0 11309700000.0 11309700000.0 11309700000.0 11309700000.0 11309700000.0 11309700000.0 11309700000.0 11309700000.0 11309700000.0 11309700000.0 11309700000.0 11309700000.0 11309700000.0 11309700000.0 11309700000.0 11309700000.0 11309700000.0 11309700000.0 11309700000.0 11309700000.0 11309700000.0 11309700000.0 11309700000.0 11309700000.0 11309700000.0 11309700000.0 11309700000.0 11309700000.0 11309700000.0 11309700000.0 11309700000.0 11309700000.0 11309700000.0 11309700000.0 11309700000.0 11309700000.0 11309700000.0 11309700000.0 11309700000.0 11309700000.0 11309700000.0 11309700000.0 11309700000.0 11309700000.0 11309700000.0 11309700000.0 11309700000.0 11309700000.0 11309700000.0 11309700000.0 11309700000.0 11309700000.0 11309700000.0 11309700000.0 11309700000.0 11309700000.0 11309700000.0 11309700000.0 11309700000.0 11309700000.0 11309700000.0 11309700000.0 11309700000.0 11309700000.0 11309700000.0 11309700000.0 11309700000.0 11309700000.0 11309700000.0 11309700000.0 11309700000.0 11309700000.0 11309700000.0 11309700000.0 11309700000.0 11309700000.0 11309700000.0 11309700000.0 11309700000.0 11309700000.0 11309700000.0 11309700000.0 11309700000.0 11309700000.0 11309700000.0 11309700000.0 11309700000.0 11309700000.0 11309700000.0 11309700000.0 11309700000.0 11309700000.0 11309700000.0 11309700000.0 11309700000.0 11309700000.0 11309700000.0 11309700000.0 11309700000.0 11309700000.0 11309700000.0 11309700000.0 11309700000.0 11309700000.0 11309700000.0 11309700000.0 11309700000.0 11309700000.0 11309700000.0 11309700000.0 11309700000.0 11309700000.0 11309700000.0 11309700000.0 11309700000.0 11309700000.0 11309700000.0 11309700000.0 11309700000.0 11309700000.0 11309700000.0 11309700000.0 11309700000.0 11309700000.0 11309700000.0 11309700000.0 11309700000.0 11309700000.0 11309700000.0 11309700000.0 11309700000.0 11309700000.0 11309700000.0 11309700000.0 11309700000.0 11309700000.0 11309700000.0 11309700000.0 11309700000.0 11309700000.0 11309700000.0 11309700000.0 11309700000.0 11309700000.0 11309700000.0 11309700000.0 11309700000.0 11309700000.0 11309700000.0 11309700000.0 11309700000.0 11309700000.0 11309700000.0 11309700000.0 11309700000.0 11309700000.0 11309700000.0 11309700000.0 11309700000.0 11309700000.0 11309700000.0 11309700000.0 11309700000.0 11309700000.0 11309700000.0 11309700000.0 11309700000.0 11309700000.0 11309700000.0 11309700000.0 11309700000.0 11309700000.0 11309700000.0 11309700000.0 11309700000.0 11309700000.0 11309700000.0 11309700000.0 11309700000.0 11309700000.0 11309700000.0 11309700000.0 11309700000.0 11309700000.0 11309700000.0 11309700000.0 11309700000.0 11309700000.0 11309700000.0 11309700000.0 11309700000.0 11309700000.0 11309700000.0 11309700000.0 11309700000.0 11309700000.0 11309700000.0 11309700000.0 11309700000.0 11309700000.0 11309700000.0 11309700000.0 11309700000.0 11309700000.0 11309700000.0 11309700000.0 11309700000.0 11309700000.0 11309700000.0 11309700000.0 11309700000.0 11309700000.0 11309700000.0 11309700000.0 11309700000.0 11309700000.0 11309700000.0 11309700000.0 11309700000.0 11309700000.0 11309700000.0 11309700000.0 11309700000.0 11309700000.0 11309700000.0 11309700000.0 11309700000.0 11309700000.0 11309700000.0 11309700000.0 11309700000.0 11309700000.0 11309700000.0 11309700000.0 11309700000.0 11309700000.0 11309700000.0 11309700000.0 11309700000.0 11309700000.0 11309700000.0 11309700000.0 11309700000.0 11309700000.0 11309700000.0 11309700000.0 11309700000.0 11309700000.0 11309700000.0 11309700000.0 11309700000.0 11309700000.0 11309700000.0 11309700000.0 11309700000.0 11309700000.0 11309700000.0 11309700000.0 11309700000.0 11309700000.0 11309700000.0 11309700000.0 11309700000.0 11309700000.0 11309700000.0 11309700000.0 11309700000.0 11309700000.0 11309700000.0 11309700000.0 11309700000.0 11309700000.0 11309700000.0 11309700000.0 11309700000.0 11309700000.0 11309700000.0 11309700000.0 11309700000.0 11309700000.0 11309700000.0 11309700000.0 11309700000.0 11309700000.0 11309700000.0 11309700000.0 11309700000.0 11309700000.0 11309700000.0 11309700000.0 11309700000.0 11309700000.0 11309700000.0 11309700000.0 11309700000.0 11309700000.0 11309700000.0 11309700000.0 11309700000.0 11309700000.0 11309700000.0 11309700000.0 11309700000.0 11309700000.0 11309700000.0 11309700000.0 11309700000.0 11309700000.0 11309700000.0 11309700000.0 11309700000.0 11309700000.0 11309700000.0 11309700000.0 11309700000.0 11309700000.0 11309700000.0 11309700000.0 11309700000.0 11309700000.0 11309700000.0 11309700000.0 11309700000.0 11309700000.0 11309700000.0 11309700000.0 11309700000.0 11309700000.0 11309700000.0 11309700000.0 11309700000.0 11309700000.0 11309700000.0 11309700000.0 11309700000.0 11309700000.0 11309700000.0 11309700000.0 11309700000.0 11309700000.0 11309700000.0 11309700000.0 11309700000.0 11309700000.0 11309700000.0 11309700000.0 11309700000.0 11309700000.0 11309700000.0 11309700000.0 11309700000.0 11309700000.0 11309700000.0 11309700000.0 11309700000.0 11309700000.0 11309700000.0 11309700000.0 11309700000.0 11309700000.0 11309700000.0 11309700000.0 11309700000.0 11309700000.0 11309700000.0 11309700000.0 11309700000.0 11309700000.0 11309700000.0 11309700000.0 11309700000.0 11309700000.0 11309700000.0 11309700000.0 11309700000.0 11309700000.0 11309700000.0 11309700000.0 11309700000.0 11309700000.0 11309700000.0 11309700000.0 11309700000.0 11309700000.0 11309700000.0 11309700000.0 11309700000.0 11309700000.0 11309700000.0 11309700000.0 11309700000.0 11309700000.0 11309700000.0 11309700000.0 11309700000.0 11309700000.0 11309700000.0 11309700000.0 11309700000.0 11309700000.0 11309700000.0 11309700000.0 11309700000.0 11309700000.0 11309700000.0 11309700000.0 11309700000.0 11309700000.0 11309700000.0 11309700000.0 11309700000.0 11309700000.0 11309700000.0 11309700000.0 11309700000.0 11309700000.0 11309700000.0 11309700000.0 11309700000.0 11309700000.0 11309700000.0 11309700000.0 11309700000.0 11309700000.0 11309700000.0 11309700000.0 11309700000.0 11309700000.0 11309700000.0 11309700000.0 11309700000.0 11309700000.0 11309700000.0 11309700000.0 11309700000.0 11309700000.0 11309700000.0 11309700000.0 11309700000.0 11309700000.0 11309700000.0 11309700000.0 11309700000.0 11309700000.0 11309700000.0 11309700000.0 11309700000.0 11309700000.0 11309700000.0 11309700000.0 11309700000.0 11309700000.0 11309700000.0 11309700000.0 11309700000.0 11309700000.0 11309700000.0 11309700000.0 11309700000.0 11309700000.0 11309700000.0 11309700000.0 11309700000.0 11309700000.0 11309700000.0 11309700000.0 11309700000.0 11309700000.0 11309700000.0 11309700000.0 11309700000.0 11309700000.0 11309700000.0 11309700000.0 11309700000.0 11309700000.0 11309700000.0 11309700000.0 11309700000.0 11309700000.0 11309700000.0 11309700000.0 11309700000.0 11309700000.0 11309700000.0 11309700000.0 11309700000.0 11309700000.0 11309700000.0 11309700000.0 11309700000.0 11309700000.0 11309700000.0 11309700000.0 11309700000.0 11309700000.0 11309700000.0 11309700000.0 11309700000.0 11309700000.0 11309700000.0 11309700000.0 11309700000.0 11309700000.0 11309700000.0 11309700000.0 11309700000.0 11309700000.0 11309700000.0 11309700000.0 11309700000.0 11309700000.0 11309700000.0 11309700000.0 11309700000.0 11309700000.0 11309700000.0 11309700000.0 11309700000.0 11309700000.0 11309700000.0 11309700000.0 11309700000.0 11309700000.0 11309700000.0 11309700000.0 11309700000.0 11309700000.0 11309700000.0 11309700000.0 11309700000.0 11309700000.0 11309700000.0 11309700000.0 11309700000.0 11309700000.0 11309700000.0 11309700000.0 11309700000.0 11309700000.0 11309700000.0 11309700000.0 11309700000.0 11309700000.0 11309700000.0 11309700000.0 11309700000.0 11309700000.0 11309700000.0 11309700000.0 11309700000.0 11309700000.0 11309700000.0 11309700000.0 11309700000.0 11309700000.0 11309700000.0 11309700000.0 
SCALARS Velocity float 1
LOOKUP_TABLE default
1.08062 1.08662 1.04047 1.06995 1.05519 1.06659 1.09435 1.05578 1.07069 1.06865 1.07031 1.07085 1.07069 1.06935 1.07028 1.03595 1.05554 1.05275 1.04943 1.05055 1.05259 1.04735 1.07843 1.08885 1.04046 1.07186 1.07729 1.0737 1.07064 1.0697 1.06935 1.07072 1.07 1.02095 1.03798 1.05566 1.05181 1.05137 1.05635 1.05056 1.04242 1.06794 1.07878 1.0937 1.09398 1.04215 1.05451 1.07149 1.0736 1.07002 1.07012 1.07069 1.06946 1.06682 1.05129 1.05636 1.05039 1.06001 1.07447 1.09074 1.05339 1.07773 1.07117 1.06965 1.07058 1.07083 1.07827 1.07675 1.06008 1.06123 1.05466 1.0525 1.05419 1.04908 1.04597 1.07373 1.10701 1.05119 1.07201 1.077 1.07382 1.07117 1.06999 1.0697 1.07008 1.07077 1.07102 1.07317 1.07603 1.07843 1.08018 1.07828 1.07621 1.06871 1.06322 1.0626 1.06289 1.05619 1.05037 1.06436 1.07287 1.0873 1.10632 1.04839 1.05935 1.07616 1.07344 1.06996 1.07012 1.07226 1.07643 1.07891 1.07727 1.06911 1.05562 1.06336 1.06335 1.08673 1.08326 1.07548 1.07105 1.06967 1.0712 1.07462 1.07823 1.07808 1.07462 1.0661 1.05999 1.05172 1.05614 1.07293 1.10224 1.07794 1.07818 1.0753 1.07278 1.07074 1.06985 1.06956 1.07017 1.0714 1.07305 1.07549 1.07716 1.07868 1.07873 1.07874 1.07762 1.07709 1.07362 1.06902 1.06104 1.0576 1.06171 1.05785 1.05963 1.06318 1.07232 1.08629 1.08581 1.09628 1.09291 1.08224 1.07847 1.07254 1.0696 1.07007 1.07337 1.07776 1.07937 1.07834 1.07441 1.06289 1.05689 1.06555 1.07737 1.09191 1.08499 1.07534 1.07047 1.06931 1.07133 1.07573 1.07909 1.07964 1.07654 1.06983 1.05733 1.05507 1.06361 1.07205 1.08422 1.0897 1.07994 1.07554 1.07235 1.07014 1.06928 1.06899 1.06982 1.071 1.07321 1.07531 1.07774 1.07886 1.07971 1.08001 1.07919 1.07703 1.07391 1.06871 1.06332 1.05699 1.05342 1.05176 1.0669 1.06789 1.07284 1.07752 1.0823 1.08789 1.08761 1.0854 1.07988 1.07203 1.06895 1.06946 1.07265 1.07697 1.0793 1.07901 1.07314 1.06242 1.05208 1.06994 1.07713 1.08506 1.08588 1.07487 1.06986 1.06862 1.0705 1.07433 1.07783 1.07888 1.07673 1.06755 1.05623 1.05063 1.06914 1.07347 1.08066 1.08626 1.07838 1.07188 1.06967 1.06861 1.06818 1.06903 1.06989 1.0718 1.07301 1.07557 1.07615 1.07787 1.07693 1.07753 1.07473 1.0724 1.06692 1.06126 1.05625 1.05234 1.05105 1.0706 1.07128 1.07389 1.07677 1.07971 1.08307 1.08637 1.06105 1.07506 1.07214 1.06823 1.06857 1.07082 1.07383 1.07589 1.07498 1.07084 1.06148 1.05291 1.07217 1.07658 1.08265 1.0613 1.06145 1.06154 1.06962 1.0676 1.06926 1.07153 1.07413 1.07466 1.07214 1.06605 1.06123 1.05694 1.05435 1.05211 1.0716 1.07276 1.0742 1.07929 1.08508 1.06172 1.06166 1.0678 1.06671 1.06809 1.06854 1.06974 1.06986 1.07193 1.07217 1.07393 1.07255 1.07245 1.0694 1.0683 1.06405 1.05762 1.05385 1.07227 1.07433 1.07643 1.07864 1.08172 1.08347 1.06179 1.0616 1.06214 1.06758 1.06828 1.06997 1.07243 1.07012 1.06562 1.06024 1.05563 1.0731 1.07606 1.08063 1.06245 1.06187 1.06146 1.06149 1.06333 1.06487 1.06707 1.0679 1.07043 1.07076 1.06714 1.06313 1.06185 1.05874 1.05747 1.05588 1.05494 1.07272 1.0733 1.07421 1.07535 1.07777 1.07951 1.08169 1.06184 1.06368 1.06387 1.06547 1.06504 1.0663 1.06561 1.06794 1.06886 1.07213 1.06905 1.06793 1.06512 1.05942 1.05673 1.05517 1.07306 1.0741 1.07627 1.07983 1.06299 1.0648 1.06319 1.06391 1.0643 1.06556 1.07446 1.06495 1.05979 1.05731 1.05549 1.07349 1.07491 1.07723 1.06868 1.0664 1.06475 1.06363 1.06309 1.06314 1.06282 1.06335 1.06257 1.06388 1.06579 1.06627 1.05955 1.06119 1.05871 1.05775 1.05622 1.05584 1.05476 1.05479 1.0733 1.07365 1.07411 1.07483 1.07579 1.07635 1.07663 1.07341 1.06648 1.06377 1.06273 1.06208 1.06222 1.06547 1.06738 1.07862 1.05684 1.0595 1.05688 1.0549 1.05398 1.07342 1.07417 1.07544 1.0753 1.06946 1.0651 1.06312 1.06221 1.06101 1.06613 1.04416 1.04948 1.05871 1.05765 1.05525 1.05376 1.07334 1.07371 1.07406 1.07468 1.07484 1.07535 1.07407 1.07259 1.06977 1.06726 1.06572 1.06409 1.06322 1.06251 1.06173 1.06142 1.06025 1.0597 1.04325 1.0498 1.05568 1.05642 1.05786 1.05599 1.05573 1.05391 1.05377 1.05244 1.05281 1.07351 1.07425 1.07435 1.07195 1.06777 1.06447 1.06228 1.06049 1.05467 1.04546 1.04463 1.04568 1.05307 1.05538 1.05398 1.05223 1.05125 1.07295 1.07364 1.07408 1.07312 1.0698 1.068 1.06615 1.06469 1.06327 1.06187 1.06098 1.05726 1.04769 1.04615 1.04885 1.05058 1.05344 1.05244 1.0536 1.05159 1.05202 1.05017 1.05069 1.04925 1.07218 1.07296 1.07286 1.07356 1.0732 1.07343 1.07232 1.07142 1.06968 1.06636 1.06315 1.05989 1.05866 1.05541 1.0528 1.04874 1.0463 1.04778 1.05057 1.05073 1.04955 1.04843 1.07199 1.0726 1.07252 1.07093 1.06804 1.06473 1.06129 1.05728 1.05195 1.04708 1.04648 1.04683 1.04845 1.04944 1.04872 1.04757 1.04679 1.07094 1.07054 1.0717 1.07131 1.07215 1.07149 1.07155 1.0704 1.06946 1.06797 1.06642 1.06467 1.06291 1.06079 1.05899 1.05633 1.0543 1.04899 1.04637 1.0466 1.04793 1.04647 1.04764 1.04549 1.04659 1.04447 1.04567 1.04388 1.06916 1.07008 1.07082 1.07068 1.06916 1.06639 1.0627 1.05834 1.0535 1.05134 1.04871 1.04712 1.0458 1.04547 1.04437 1.0432 1.04245 1.06674 1.06853 1.0679 1.06959 1.07024 1.06976 1.06784 1.06464 1.06046 1.05565 1.05069 1.04661 1.04581 1.04462 1.04486 1.04308 1.04347 1.04084 1.04193 1.0394 1.04094 1.03883 1.04056 1.06586 1.06732 1.06909 1.06861 1.0696 1.06892 1.06875 1.06766 1.06638 1.06471 1.06264 1.06037 1.05794 1.05517 1.05282 1.0499 1.04803 1.04485 1.04321 1.04025 1.03795 1.03703 1.03692 1.06357 1.06504 1.06684 1.06817 1.0682 1.06641 1.06279 1.05781 1.05218 1.04697 1.04562 1.04347 1.04329 1.04067 1.03683 1.03519 1.0349 1.05952 1.06239 1.06136 1.06437 1.06391 1.06648 1.06628 1.06778 1.06742 1.06741 1.06649 1.06495 1.06323 1.06058 1.05805 1.05494 1.04895 1.04409 1.04175 1.04176 1.03826 1.03656 1.03208 1.03343 1.03054 1.03278 1.03075 1.03303 1.05799 1.06059 1.06369 1.06623 1.06705 1.06538 1.06121 1.05513 1.05174 1.04815 1.04545 1.04162 1.04143 1.04086 1.03196 1.02825 1.02829 1.02894 1.05443 1.05252 1.05673 1.05583 1.06014 1.06006 1.06375 1.06412 1.06632 1.06661 1.06403 1.0588 1.05177 1.04411 1.03734 1.03959 1.04112 1.03593 1.02587 1.02619 1.02258 1.02557 1.02364 1.02642 1.02463 0.893832 1.04815 1.051 1.05538 1.06043 1.06477 1.0665 1.06672 1.06603 1.06524 1.06235 1.06026 1.05596 1.05257 1.04791 1.04351 1.03961 1.03251 1.03361 1.01958 1.02049 1.02191 1.04041 1.04581 1.04402 1.04998 1.04955 1.05547 1.06129 1.06568 1.06689 1.06413 1.05766 1.04856 1.03864 1.03486 1.03198 1.03098 1.01502 1.0221 1.01709 1.01487 1.01875 1.01727 1.02021 1.03764 1.04293 1.04984 1.05618 1.05761 1.06263 1.06444 1.06676 1.06793 1.0669 1.06665 1.06259 1.0544 1.04382 1.03407 1.02561 0.996898 1.00026 1.01414 1.01034 1.0135 1.01579 0.893832 1.03077 1.02759 1.03549 1.03433 1.04253 1.05096 1.05979 1.06663 1.06904 1.06594 1.06046 1.05749 1.05028 1.04508 1.03847 1.03153 1.02779 1.01672 1.00889 0.997476 1.00336 1.00822 1.01239 1.01051 1.02006 1.02557 1.03413 1.04305 1.04465 1.05303 1.05613 1.06266 1.06905 1.06993 1.06456 1.05334 1.03811 1.02138 1.00304 0.996398 0.992646 1.00039 0.999137 1.00724 1.00632 1.01216 1.01619 1.01577 1.0243 1.03492 1.04752 1.06029 1.06618 1.07016 1.07158 1.07397 1.07041 1.0701 1.06213 1.05801 1.04735 1.02819 1.00881 0.996061 0.993197 0.987147 0.987694 0.999153 1.00351 0.893832 1.0072 1.01547 1.02468 1.02607 1.03714 1.04096 1.0517 1.0653 1.07436 1.07594 1.06844 1.0512 1.03843 1.02571 1.01524 1.00135 0.984913 0.977746 0.969928 0.987327 0.993055 1.00014 0.999908 1.01108 1.00484 1.00758 1.01618 1.02911 1.04671 1.05726 1.06406 1.07106 1.07715 1.07856 1.07702 1.06458 1.04047 1.01008 0.98779 0.971856 0.972253 0.956146 0.976612 0.999125 1.01674 1.00215 1.01103 1.01252 1.01914 1.02257 1.03427 1.05376 1.07146 1.08317 1.08228 1.08489 1.07645 1.07317 1.0573 1.04542 1.0252 1.00659 0.994488 0.977068 0.950579 0.949424 0.976492 0.996395 1.00908 1.00923 1.02292 1.00864 1.00086 1.0079 1.01522 1.0288 1.04109 1.05073 1.06224 1.07175 1.07951 1.08866 1.08553 1.06586 1.0282 0.98816 0.954817 0.930588 0.932855 0.929085 1.00883 1.03086 1.00721 0.999935 1.01411 1.01687 1.02152 1.0262 1.03787 1.06052 1.08089 1.08727 1.09414 1.09274 1.09447 1.08313 1.07682 1.05341 1.03398 1.00471 0.983477 0.967326 0.943058 0.916386 0.904162 0.994753 1.02894 1.03072 1.05927 1.02989 1.00823 1.0138 1.01034 1.01964 1.03562 1.04723 1.0593 1.07085 1.08966 1.09908 1.09285 1.0664 1.00419 0.963798 0.92011 0.899026 1.03048 1.07115 1.05177 1.04354 0.989212 1.0046 1.02183 1.02954 1.0315 1.04675 1.06931 1.08054 1.08892 1.09685 1.10115 1.08742 1.04931 1.02264 0.986829 0.961045 0.943063 0.934575 0.854268 1.13848 1.06579 1.0723 1.08846 1.12625 1.05097 1.13806 1.02024 1.02158 1.02962 1.03487 1.04353 1.05711 1.07772 1.0948 1.10141 1.10308 1.09993 1.09622 1.07831 1.05688 1.01381 0.930979 0.9001 0.919005 0.864916 1.03145 1.21039 1.10651 1.08321 1.00975 1.03185 1.04012 1.03222 1.05403 1.06606 1.07165 1.08396 1.09748 1.10266 1.08919 1.03091 1.00357 0.984156 0.954929 0.93557 0.882157 0.917741 1.13502 1.16672 1.06979 1.37994 1.16071 1.11287 1.32321 1.1551 1.06585 1.02324 1.0279 1.02229 1.03922 1.05938 1.0743 1.0864 1.0846 1.09771 1.10358 1.10356 1.07075 1.03512 0.968561 0.949196 0.895681 0.89194 0.967245 0.857044 1.05285 0.979417 1.24623 1.6211 1.00721 0.998382 0.989975 1.01616 1.02565 1.04422 1.05012 1.0639 1.07089 1.07934 1.09826 1.10954 1.09295 0.987957 0.950871 0.93071 0.912982 0.95909 1.06212 0.751653 1.72078 1.87264 1.15204 1.39441 1.48273 1.50892 1.1247 0.986568 0.983617 1.00444 1.03156 1.05643 1.06506 1.05997 1.05965 1.04201 1.07517 1.10611 1.04372 0.973344 0.944547 0.951483 0.93893 1.0059 1.10356 1.02702 0.469058 0.992689 0.851375 1.08122 1.27934 1.22689 1.04371 1.59816 1.07485 0.994482 0.984876 0.964483 0.970048 0.982583 1.00557 1.01193 1.03886 1.05932 1.04661 1.03126 1.0101 1.08499 1.06273 1.12201 1.04166 0.931733 0.955413 0.949217 0.984112 0.986405 1.03742 0.976888 1.77322 1.17781 0.715738 0.937311 0.891977 1.08101 1.14124 0.954031 1.31951 0.858807 0.921278 0.964839 0.953613 0.955585 0.983181 1.01996 1.04673 1.05341 1.05913 1.05186 1.02729 1.01282 0.906203 1.18689 1.0529 0.943414 0.958967 0.975225 0.999695 0.957838 0.996991 0.996408 1.02904 0.565583 1.39513 0.987739 0.5821 0.281899 0.715505 0.802227 0.795173 0.991729 1.17694 0.571277 0.807602 0.783898 1.01059 1.04794 0.956515 0.952202 0.956525 0.984326 1.02695 1.06312 1.04903 0.952567 1.04388 0.533615 1.02909 0.989055 0.997726 0.953095 0.897131 0.918403 0.799501 0.848044 0.985364 0.944274 0.619336 0.879933 0.876401 0.0999264 0.679743 0.644035 0.613888 0.714189 0.923418 0.797405 0.643087 1.06076 1.22061 0.96113 0.928073 0.908639 0.936392 0.957672 0.988734 0.990377 1.03667 1.06491 1.00561 0.966761 0.962288 0.836387 0.48276 0.69083 1.04372 1.03077 0.97889 0.933313 0.89191 0.84145 0.728052 0.924663 0.861606 0.699318 0.600875 0.69784 0.129487 0.16411 0.650074 0.677042 0.569905 0.526023 0.524317 0.842902 1.02028 0.823841 0.558566 0.666866 0.962138 1.15847 1.13499 0.950916 0.893439 0.922389 0.935728 0.932906 0.95529 0.953438 1.00344 1.05067 1.06203 1.07905 1.01875 0.852216 0.721294 0.565951 0.621077 0.865959 1.0041 1.02346 1.00248 0.91304 0.921942 0.946776 0.86178 0.930367 0.792038 0.573458 0.76758 0.826497 0.839897 0.773251 0.365458 0.634208 0.648952 0.619952 0.64021 0.56457 0.680731 0.720649 0.928712 0.873076 0.750445 0.604983 0.543562 0.852588 0.955879 0.916287 0.912923 0.92979 0.921292 0.951418 1.01427 1.12704 0.875935 0.757013 0.665484 0.751665 0.81673 0.998087 0.908189 0.892929 0.925119 0.877967 0.94733 0.749419 0.611629 0.584764 0.735312 0.712908 0.610408 0.668932 0.531878 0.619155 0.630066 0.654442 0.66734 0.676413 0.656802 0.609942 0.660595 0.509857 0.377537 0.380632 0.815754 0.910232 0.893962 0.91261 0.923865 0.920664 0.896072 0.917207 0.906944 0.900748 0.851496 1.03688 1.23109 0.98347 0.781693 0.716311 0.741947 0.737594 0.824133 0.748691 0.669576 0.82309 0.844408 0.881441 0.893916 0.901529 1.10544 0.72288 0.687091 0.782679 0.854554 0.75426 0.696606 0.667688 0.631738 0.651037 0.663953 0.575142 0.597933 0.623336 0.643865 0.659852 0.672302 0.656564 0.619377 0.584819 0.502954 0.379074 0.201721 0.573699 0.684469 0.921767 0.91976 0.894344 0.927249 0.937958 0.911898 0.885453 0.872366 1.17837 0.597379 1.02619 0.807524 0.741346 0.755346 0.783452 0.858873 0.850106 0.730762 0.757814 0.834546 0.831584 0.821476 0.95122 0.783399 1.20379 1.65705 0.58236 0.725009 0.353068 0.439256 0.614008 0.626295 0.648836 0.6916 0.552316 0.595175 0.617943 0.643009 0.657318 0.673282 0.669311 0.654376 0.625659 0.526131 0.423629 0.395527 0.61482 0.760007 0.895826 0.90236 0.879548 0.888532 0.957028 0.859701 0.883003 1.00827 0.819134 0.19902 0.781665 0.777087 0.772428 0.815159 0.867348 0.741192 0.716397 0.777985 0.776564 0.745698 0.748845 0.73144 0.794335 0.749634 0.311376 0.365272 0.304168 0.436681 0.577856 0.646044 0.678016 0.712663 0.693002 0.691956 0.522207 0.53891 0.56639 0.578137 0.599228 0.653252 0.650247 0.679518 0.669742 0.537218 0.500186 0.556895 0.695453 0.80693 0.870052 0.904793 0.860673 0.86619 0.930884 0.876321 0.859979 0.784179 0.899154 0.917929 0.806652 0.827485 0.355492 0.548138 0.663353 0.762249 0.795864 0.754757 0.901059 0.731527 0.750084 0.752727 0.738887 0.70447 0.644338 0.783835 0.749966 0.691845 0.503384 0.406794 0.370587 0.443522 0.554484 0.630008 0.695288 0.716171 0.70864 0.702382 0.457346 0.486648 0.505172 0.514653 0.542016 0.549635 0.57242 0.63091 0.634243 0.644293 0.654939 0.637913 0.667432 0.640549 0.618686 0.810649 0.908432 0.874928 0.82221 0.852823 0.875152 0.839095 0.840011 0.942865 0.930488 0.809266 0.905507 0.661892 0.626278 0.379308 0.254334 0.580533 0.685672 0.741468 0.668672 0.862066 0.631204 0.744563 0.743355 0.73401 0.702344 0.658325 0.761384 0.73288 0.804164 0.727464 0.748594 0.467996 0.550048 0.512949 0.559869 0.596517 0.672232 0.599381 0.740346 0.709809 0.431609 0.438198 0.467466 0.486207 0.510207 0.52341 0.602171 0.610279 0.649121 0.714383 0.807441 0.87194 0.933417 0.935991 0.910866 0.781789 0.78252 0.817019 0.689703 0.548224 0.67273 0.768465 0.696736 0.855202 0.814471 0.740962 0.536969 0.576325 0.603293 0.608393 0.83933 0.712974 0.642453 0.550544 0.702518 0.716634 0.71433 0.7088 0.677194 0.726447 0.707384 0.683469 0.729365 0.7571 1.07986 0.873968 0.634646 0.551975 0.546104 0.563161 0.619313 0.568577 0.694506 0.68513 0.573777 0.53509 0.389899 0.40878 0.412691 0.44641 0.464045 0.487434 0.482938 0.502598 0.548395 0.569991 0.571404 0.606137 0.605281 0.823741 0.928629 0.554785 0.688392 0.558945 0.59732 0.679852 0.711861 0.591727 0.631274 0.734793 0.696296 0.729559 0.84029 0.761308 0.653145 0.550723 0.520232 0.569758 0.614856 0.555301 0.656105 0.616557 0.663385 0.678363 0.697723 0.671877 0.69357 0.679061 0.645863 0.569775 0.512429 0.412217 1.13465 0.664266 0.329795 0.360419 0.374767 0.457009 0.506746 0.561822 0.393054 0.496964 0.412818 0.420569 0.384583 0.392419 0.39368 0.416923 0.425423 0.446574 0.457981 0.458071 0.515335 0.533773 0.535337 0.565196 0.518372 0.485494 0.401654 0.69107 0.614936 0.562099 0.613893 0.648741 0.638298 0.666097 0.706905 0.658472 0.786231 0.820472 0.656457 0.57928 0.52544 0.466721 0.552031 0.580014 0.559721 0.651242 0.601263 0.582519 0.618261 0.640009 0.675632 0.657593 0.663103 0.658811 0.646799 0.537139 0.305289 0.324751 0.354921 0.41966 0.416218 0.466873 0.302087 0.378273 0.362805 0.271524 0.234226 0.119067 0.381483 0.357448 0.37717 0.378549 0.403501 0.416891 0.443695 0.443855 0.474826 0.488236 0.497786 0.509349 0.509302 0.436237 0.273085 0.191993 0.0971408 0.648505 0.583008 0.596178 0.607699 0.590411 0.606428 0.602179 0.67266 0.696724 0.605114 0.549675 0.510631 0.416599 0.616609 0.571642 0.585941 0.620591 0.609457 0.595515 0.597961 0.612893 0.646958 0.639457 0.639951 0.635622 0.63411 0.599925 0.55302 0.775618 0.449653 0.0568253 0.326277 0.384897 0.428201 0.457259 0.474949 0.277287 0.256844 0.231763 0.0865077 0.0236452 0.367728 0.392088 0.334393 0.362762 0.378963 0.390054 0.398486 0.413423 0.436261 0.432692 0.453987 0.471912 0.485322 0.483929 0.477895 0.454435 0.348533 0.151993 0.129037 0.394758 0.642888 0.736444 0.632545 0.569308 0.580814 0.582144 0.584376 0.608377 0.630147 0.469763 0.570682 0.587647 0.598038 0.596226 0.595116 0.598514 0.621754 0.620789 0.620559 0.617121 0.618809 0.612587 0.56742 0.55573 0.658357 0.543347 0.41468 0.197112 0.307557 0.345136 0.408132 0.41372 0.487063 0.422019 0.289025 0.228206 0.16458 0.104153 0.0803283 0.044388 0.0593543 0.329641 0.34153 0.31369 0.328807 0.361927 0.381825 0.39061 0.40009 0.42629 0.434767 0.444927 0.455006 0.458885 0.442691 0.435856 0.39805 0.289225 0.242729 0.358876 0.493648 0.618702 0.668061 0.590009 0.57245 0.571233 0.580558 0.58967 0.586766 0.609924 0.651051 0.633341 0.574283 0.527923 0.509291 0.583706 0.569145 0.573824 0.583104 0.588606 0.590278 0.603975 0.604893 0.603847 0.602882 0.599879 0.569984 0.55613 0.577183 0.530977 0.487517 0.41097 0.293078 0.33179 0.419167 0.455085 0.508738 0.464427 0.235767 0.232256 0.160797 0.107855 0.0235025 0.0465204 0.00506841 0.256662 0.27982 0.291085 0.320095 0.342143 0.33785 0.351444 0.364622 0.373231 0.370582 0.402513 0.41771 0.419136 0.426861 0.431739 0.423687 0.414071 0.411475 0.366246 0.34256 0.358774 0.439342 0.495454 0.56264 0.610258 0.576581 0.567108 0.561244 0.562331 0.568794 0.572882 0.586497 0.606576 0.611547 0.58775 0.54396 0.499612 0.500718 0.530242 0.564406 0.565853 0.572285 0.578739 0.58246 0.591518 0.593033 0.593114 0.590461 0.58929 0.60602 0.590834 0.571017 0.554108 0.551754 0.511408 0.493467 0.460067 0.401062 0.356373 0.374303 0.472763 0.52642 0.508064 0.353771 0.219988 0.0680825 0.143873 0.106689 0.117835 0.0611189 0.213294 0.269634 0.323909 0.327481 0.319439 0.32963 0.361802 0.358899 0.373508 0.389773 0.403335 0.402052 0.407356 0.40785 0.405424 0.404946 0.393981 0.389657 0.386682 0.425847 0.442433 0.500917 0.563432 0.583975 0.568351 0.561358 0.555622 0.561949 0.569098 0.582098 0.588506 0.579389 0.553908 0.518604 0.506435 0.514092 0.53541 0.556345 0.562952 0.56944 0.584175 0.585158 0.584592 0.581426 0.578758 0.591316 0.581397 0.568889 0.557742 0.55156 0.524015 0.501322 0.477087 0.43582 0.400652 0.392222 0.435071 0.523143 0.562607 0.429501 0.333239 0.280567 0.322607 0.145332 0.0834041 0.126917 0.22483 0.16447 0.10768 0.110802 0.14234 0.162629 0.184945 0.236 0.269391 0.309624 0.289594 0.328321 0.331812 0.306219 0.313311 0.345214 0.353054 0.342444 0.349364 0.358725 0.37884 0.387682 0.387027 0.392918 0.39885 0.402236 0.405262 0.408094 0.426031 0.428788 0.465755 0.510689 0.550849 0.562233 0.554857 0.552125 0.551572 0.566443 0.571428 0.569374 0.554605 0.531854 0.516011 0.511229 0.521855 0.538878 0.573838 0.575773 0.577024 0.577047 0.574636 0.577079 0.572189 0.563966 0.554266 0.547199 0.535161 0.519622 0.485934 0.45718 0.428305 0.406746 0.424934 0.461218 0.486522 0.539931 0.494993 0.414231 0.350221 0.335241 0.355603 0.234331 0.151355 0.109026 0.130976 0.133093 0.172653 0.16551 0.199756 0.293868 0.296875 0.311093 0.288263 0.323561 0.328932 0.336406 0.350979 0.369221 0.375905 0.379954 0.402934 0.426103 0.432321 0.452064 0.472097 0.502618 0.533508 0.544663 0.544485 0.547968 0.549578 0.550977 0.558086 0.553681 0.560729 0.565531 0.568126 0.56917 0.569285 0.567958 0.571571 0.567694 0.563734 0.557884 0.552074 0.543695 0.53533 0.525714 0.504865 0.476797 0.454182 0.428082 0.4182 0.457657 0.508921 0.496247 0.438494 0.361448 0.303733 0.114589 0.102168 0.157983 0.195446 0.160123 0.164434 0.166673 0.188913 0.186931 0.167298 0.180968 0.252407 0.258194 0.285595 0.265226 0.24706 0.297082 0.284354 0.296067 0.303147 0.325142 0.32861 0.346293 0.364518 0.371573 0.391847 0.402492 0.407897 0.413781 0.420433 0.461282 0.478838 0.501055 0.522501 0.536439 0.541803 0.547303 0.548009 0.549431 0.553475 0.559335 0.559202 0.553137 0.539333 0.524546 0.516399 0.517272 0.529103 0.542354 0.552124 0.557662 0.561097 0.562386 0.56242 0.565394 0.561373 0.557625 0.55253 0.548297 0.540711 0.535091 0.524978 0.509617 0.498567 0.485186 0.466127 0.419062 0.461103 0.47084 0.47314 0.378781 0.299527 0.293271 0.127456 0.189788 0.237866 0.192105 0.189519 0.188038 0.195621 0.18767 0.111118 0.1411 0.174848 0.176551 0.226346 0.258765 0.287808 0.225837 0.249003 0.249894 0.267898 0.265597 0.300519 0.315832 0.319356 0.326369 0.3484 0.382869 0.396944 0.408302 0.417369 0.427625 0.43035 0.439123 0.450815 0.487552 0.503308 0.521602 0.53408 0.539641 0.5432 0.545655 0.547741 0.549498 0.552 0.550369 0.541692 0.531694 0.522247 0.520063 0.525105 0.534478 0.543737 0.550499 0.554512 0.556542 0.561402 0.559678 0.556419 0.552842 0.548038 0.543622 0.537273 0.531373 0.521575 0.472741 0.468801 0.492208 0.502259 0.453528 0.360188 0.308005 0.184336 0.214187 0.269874 0.249623 0.182444 0.203493 0.22044 0.20644 0.183353 0.184978 0.186393 0.110142 0.142546 0.150396 0.185815 0.228209 0.262202 0.251346 0.231895 0.205216 0.238108 0.271397 0.317113 0.321473 0.335598 0.36383 0.375648 0.388141 0.403198 0.416076 0.429481 0.436764 0.446476 0.453984 0.463236 0.475238 0.530866 0.535985 0.539797 0.543127 0.546479 0.548055 0.546596 0.542592 0.535418 0.528061 0.524491 0.525806 0.53081 0.537825 0.544332 0.548726 0.556956 0.55605 0.554283 0.551761 0.548893 0.544651 0.53947 0.533275 0.511052 0.502988 0.497844 0.492273 0.481238 0.54076 0.48849 0.494322 0.512222 0.502822 0.456901 0.386187 0.260368 0.209868 0.208376 0.325018 0.304909 0.285984 0.215888 0.222282 0.234611 0.188681 0.161478 0.180783 0.175195 0.11069 0.102323 0.114667 0.118559 0.109283 0.192776 0.211873 0.221654 0.23814 0.257574 0.238074 0.198436 0.216661 0.237564 0.305191 0.318071 0.335566 0.349633 0.370561 0.383325 0.397457 0.41352 0.429377 0.441638 0.451756 0.459163 0.46612 0.473851 0.482347 0.49493 0.508209 0.521322 0.541712 0.544669 0.544787 0.542068 0.537453 0.532591 0.529085 0.528149 0.530429 0.53496 0.551269 0.552267 0.55173 0.550034 0.547639 0.54477 0.541322 0.536749 0.526965 0.517724 0.50895 0.503226 0.497076 0.490237 0.483164 0.495596 0.516753 0.501506 0.51137 0.522599 0.51209 0.484808 0.412679 0.26848 0.34911 0.378588 0.26503 0.229481 0.238958 0.148474 0.162783 0.187428 0.158115 0.120988 0.12106 0.0890445 0.0847849 0.0734425 0.181005 0.240749 0.261021 0.214702 0.163809 0.158673 0.196009 0.20567 0.266167 0.319739 0.343663 0.337277 0.363993 0.38202 0.398581 0.413499 0.428705 0.442988 0.454812 0.461198 0.467098 0.471944 0.479177 0.488624 0.499317 0.509843 0.520064 0.5281 0.533295 0.537704 0.539866 0.544091 0.546772 0.547926 0.547882 0.546729 0.544537 0.541524 0.538107 0.530532 0.523328 0.514897 0.507493 0.501445 0.495031 0.488017 0.480828 0.4845 0.487911 0.499014 0.498599 0.511315 0.534877 0.526639 0.442837 0.226717 0.477754 0.487189 0.334242 0.302257 0.31947 0.267945 0.316298 0.149744 0.151942 0.188992 0.175805 0.154164 0.138785 0.109215 0.117993 0.104761 0.0877661 0.0577241 0.0645828 0.181565 0.24812 0.26626 0.232896 0.189431 0.132962 0.181537 0.268324 0.366239 0.323356 0.360565 0.383501 0.401557 0.417082 0.429507 0.441374 0.452472 0.46052 0.465592 0.471103 0.477533 0.484188 0.492041 0.501845 0.511497 0.519923 0.526684 0.532151 0.536628 0.540104 0.541975 0.541741 0.539106 0.535817 0.533019 0.531291 0.531754 0.534098 0.537499 0.540809 0.543151 0.544376 0.544595 0.543752 0.54194 0.533826 0.528533 0.521799 0.513445 0.506243 0.500338 0.493122 0.485427 0.478319 0.474777 0.471112 0.470386 0.476498 0.486172 0.513387 0.549572 0.521 0.498328 0.492881 0.709103 0.380664 0.308516 0.356386 0.400288 0.27595 0.198569 0.193662 0.185173 0.1142 0.109245 0.072427 0.140704 0.103829 0.126438 0.0943258 0.104249 0.0569032 0.111683 0.241067 0.306397 0.273245 0.270061 0.24571 0.170655 0.147784 0.245138 0.306891 0.296303 0.362022 0.391333 0.408356 0.419632 0.429413 0.439785 0.447677 0.456148 0.463731 0.469924 0.475915 0.481756 0.48792 0.495806 0.504852 0.513485 0.520811 0.526938 0.532135 0.536208 0.539043 0.540364 0.54004 0.538326 0.536003 0.534264 0.533701 0.534579 0.536557 0.538761 0.540621 0.541769 0.541983 0.541257 0.539246 0.535847 0.53153 0.52654 0.52042 0.513261 0.506137 0.499054 0.49206 0.484709 0.476405 0.469465 0.461484 0.454063 0.452996 0.460296 0.476699 0.514229 0.523448 0.448477 0.514636 0.575582 1.0923 0.262418 0.184394 0.331426 0.352222 0.476996 0.219062 0.208592 0.172769 0.158714 0.0815497 0.0338064 0.0760829 0.0677779 0.0832236 0.0956901 0.100356 0.0843919 0.100652 0.161792 0.265441 0.338062 0.308516 0.285907 0.243241 0.294969 0.431604 0.264742 0.289795 0.205005 0.263853 0.393365 0.415757 0.42001 0.42422 0.429193 0.43628 0.442957 0.451196 0.460136 0.467237 0.473429 0.479339 0.485519 0.491937 0.499591 0.507771 0.515586 0.52239 0.528086 0.532772 0.536359 0.538729 0.539757 0.539484 0.538157 0.536576 0.535641 0.53566 0.53646 0.537768 0.539146 0.540057 0.539725 0.537323 0.53413 0.530111 0.52526 0.519425 0.513121 0.506473 0.499215 0.492107 0.48514 0.477181 0.468571 0.443081 0.447799 0.454494 0.469923 0.384026 0.41969 1.02734 0.860999 0.991602 0.371306 0.514018 0.6215 0.338524 0.0977183 0.165168 0.177012 0.122828 0.109398 0.057662 0.0159538 0.0820934 0.0578357 0.10557 0.107075 0.0613225 0.155515 0.187033 0.327947 0.317017 0.307082 0.266779 0.347213 0.597452 0.403339 0.239578 0.757939 0.512729 0.468613 0.441884 0.43072 0.428674 0.517823 0.524159 0.529312 0.533595 0.536895 0.538839 0.539504 0.53919 0.538251 0.537362 0.53693 0.537002 0.540165 0.539482 0.538001 0.535695 0.532643 0.528907 0.524427 0.519158 0.513381 0.507128 0.500345 0.49359 0.459067 0.447515 0.440515 0.424877 0.438872 0.296855 0.406256 0.486339 0.630381 0.761593 0.862877 0.628777 0.697802 0.466776 0.123641 0.246738 0.188825 0.193835 0.190104 0.143227 0.100582 0.0449504 0.028931 0.0186631 0.0175872 0.0106627 0.0233943 0.0734434 0.0782617 0.11892 0.100028 0.0765397 0.0685394 0.07991 0.0326095 0.0911345 0.373069 0.329581 0.268594 0.194989 0.234904 0.567238 1.12399 0.668238 0.83781 0.604725 0.497666 0.451409 0.432507 0.43896 0.446078 0.454831 0.462926 0.469404 0.476118 0.482707 0.489224 0.495823 0.503011 0.510523 0.537649 0.538503 0.539041 0.539091 0.538374 0.536809 0.534448 0.531432 0.527867 0.523756 0.519038 0.513815 0.486995 0.479724 0.471194 0.461389 0.449039 0.438159 0.435978 0.43621 0.423586 0.384313 0.477566 0.770521 0.0335684 0.665994 0.837686 0.742308 0.660765 0.532223 0.418942 0.265766 0.227156 0.169238 0.138991 0.0648511 0.0342465 0.012219 0.024375 0.0606658 0.0552599 0.080669 0.150203 0.126544 0.134866 0.0731977 0.0916861 0.393524 0.407242 0.395508 0.334953 0.268864 0.0834996 0.478025 1.5039 0.432689 0.425325 0.425991 0.433966 0.440777 0.448302 0.457086 0.464766 0.471822 0.479221 0.48628 0.492722 0.499146 0.506184 0.513372 0.520037 0.525832 0.530689 0.534581 0.537425 0.539017 0.539392 0.539212 0.538785 0.53819 0.538 0.53819 0.538415 0.538626 0.538469 0.537643 0.536039 0.533675 0.530686 0.527158 0.523236 0.508207 0.502126 0.49587 0.489708 0.482869 0.475021 0.46645 0.456292 0.445547 0.441082 0.445529 0.43935 0.40545 0.39378 0.462358 0.346644 0.677642 0.484836 0.549319 0.608422 0.27416 0.387345 0.341202 0.254285 0.210054 0.165526 0.124136 0.101078 0.0647562 0.0373808 0.556821 0.0161427 0.0687671 0.15357 0.123581 0.12534 0.140066 0.164897 0.161794 0.173927 0.283561 0.501571 0.447605 0.41566 0.339112 0.445247 1.53371 1.37177 0.925805 0.597542 0.497115 0.443756 0.427218 0.422047 0.420096 0.424853 0.434115 0.441534 0.450223 0.45937 0.467358 0.475019 0.482518 0.48931 0.495743 0.502419 0.509354 0.516101 0.522253 0.527663 0.532116 0.535517 0.53786 0.539185 0.539684 0.53961 0.539398 0.539174 0.538945 0.538828 0.538643 0.538154 0.537145 0.535505 0.533272 0.518916 0.514208 0.509226 0.503932 0.498374 0.492699 0.486434 0.479519 0.472406 0.464585 0.455379 0.448694 0.452322 0.464761 0.456486 0.431997 0.430681 0.450686 0.541684 0.585438 0.398343 0.325116 0.359907 0.221675 0.301011 0.296981 0.237197 0.199132 0.152363 0.169269 0.0569269 0.454173 0.392155 0.515878 0.530605 0.0977504 0.0760508 0.116594 0.0832873 0.171398 0.19926 0.167329 0.20331 0.191087 0.225963 0.209279 0.386628 0.605707 0.411623 0.51057 1.24802 1.1416 0.856346 0.635218 0.476912 0.427383 0.412351 0.410297 0.41405 0.417454 0.425606 0.435092 0.443692 0.453143 0.462242 0.470356 0.478071 0.485329 0.492135 0.498888 0.505711 0.512393 0.51873 0.524488 0.529441 0.533432 0.536337 0.53834 0.53957 0.540094 0.540207 0.540105 0.539821 0.539438 0.538963 0.538167 0.536921 0.530411 0.526964 0.523085 0.518912 0.51455 0.510037 0.505374 0.500622 0.495731 0.490116 0.48364 0.477263 0.471249 0.465791 0.461766 0.463427 0.474384 0.486258 0.482363 0.471925 0.46065 0.432626 0.375682 0.119389 0.348676 0.261115 0.193223 0.221267 0.261698 0.257291 0.225569 0.192981 0.172344 0.465457 0.409844 0.486815 0.498323 0.469134 0.117179 0.126916 0.0482348 0.0732003 0.0505535 0.173782 0.174992 0.240636 0.243454 0.278416 0.249088 0.293355 0.556927 0.514026 0.294112 0.451396 0.969985 1.41817 0.918408 0.605174 0.48887 0.409568 0.395806 0.400979 0.406386 0.413034 0.419036 0.428443 0.437255 0.446686 0.456393 0.465234 0.473292 0.480959 0.488228 0.495219 0.502175 0.508954 0.515338 0.521252 0.526573 0.531051 0.534578 0.537183 0.538942 0.540058 0.540638 0.540719 0.535246 0.533087 0.530387 0.527116 0.52335 0.519278 0.51508 0.510811 0.506533 0.502297 0.498084 0.493516 0.488085 0.482283 0.476779 0.472063 0.47005 0.473448 0.483954 0.49821 0.50645 0.50077 0.481619 0.448965 0.29932 0.252672 0.152952 0.406598 0.305193 0.194049 0.174553 0.230375 0.249805 0.247884 0.254598 0.236958 0.209705 0.411557 0.45093 0.369897 0.391431 0.396625 0.465462 0.444609 0.0640776 0.083269 0.0374027 0.0335847 0.0549958 0.252932 0.274573 0.263457 0.309761 0.322721 0.370754 0.46202 0.51683 0.619892 0.259319 0.529803 0.653255 1.24212 0.924118 0.651254 0.481387 0.422248 0.392557 0.39429 0.400339 0.407265 0.413988 0.422407 0.540506 0.540114 0.539437 0.538424 0.537062 0.535306 0.533146 0.530534 0.527428 0.52385 0.519929 0.515839 0.511706 0.507631 0.503659 0.499865 0.496186 0.515478 0.522744 0.488303 0.449132 0.345097 0.280106 0.157801 0.350811 0.352298 0.237557 0.178383 0.198326 0.245341 0.264148 0.296524 0.36168 0.374 0.318504 0.342155 0.334129 0.407617 0.444587 0.429997 0.0856206 0.0484224 0.0562489 0.0240357 0.0585242 0.328739 0.375646 0.321976 0.354514 0.359496 0.41214 0.490378 0.976596 1.09134 0.707326 0.289086 0.366622 1.02759 0.850963 0.664896 0.516416 0.431316 0.402035 0.391415 0.432189 0.440658 0.450142 0.459645 0.468258 0.476391 0.484154 0.491533 0.498657 0.505544 0.512085 0.518132 0.523611 0.52844 0.532485 0.535675 0.538039 0.539664 0.540628 0.541045 0.541032 0.540657 0.539945 0.538884 0.537462 0.535668 0.533471 0.530877 0.527879 0.52447 0.52072 0.516756 0.512729 0.492028 0.487164 0.482123 0.477447 0.475102 0.477106 0.487499 0.503109 0.445039 0.373812 0.312326 0.215246 0.265314 0.332613 0.313217 0.195764 0.197175 0.221489 0.274755 0.285663 0.287402 0.348086 0.363498 0.317812 0.280117 0.347577 0.412917 0.410012 0.428853 0.427601 0.102669 0.0402195 0.044813 0.29767 0.591298 0.393348 0.401257 0.397996 0.425763 0.468231 0.629565 0.77442 0.838518 0.825915 0.757202 0.396616 0.402993 0.410759 0.418621 0.427708 0.436244 0.444786 0.454062 0.463166 0.471727 0.479943 0.487776 0.495188 0.502214 0.508843 0.51504 0.52071 0.525757 0.530141 0.533828 0.536763 0.538917 0.540323 0.541082 0.541313 0.541079 0.540422 0.539396 0.538008 0.536216 0.534017 0.531439 0.528494 0.508748 0.504903 0.501294 0.498001 0.494815 0.491463 0.487668 0.48326 0.479772 0.479863 0.48608 0.500813 0.514916 0.526643 0.520017 0.304989 0.272059 0.306982 0.353885 0.250796 0.211167 0.228783 0.249704 0.296199 0.309409 0.315939 0.33565 0.332902 0.255617 0.263053 0.35995 0.428455 0.0704184 0.302691 0.330947 0.454769 0.448065 0.426102 0.460988 0.484063 0.51623 0.504976 0.483772 0.635491 0.704967 0.646908 0.540345 0.460414 0.414037 0.399508 0.399871 0.404945 0.410358 0.417297 0.424838 0.432911 0.440681 0.449218 0.458365 0.467348 0.47581 0.483915 0.491668 0.498938 0.50568 0.511957 0.517783 0.523062 0.527734 0.531779 0.535154 0.537794 0.539666 0.540814 0.541332 0.541301 0.5408 0.539883 0.538557 0.525194 0.521574 0.517737 0.513817 0.509917 0.506136 0.502582 0.499404 0.496649 0.494162 0.491589 0.488387 0.485469 0.484513 0.486575 0.49504 0.508891 0.520684 0.52838 0.519262 0.371127 0.321754 0.294951 0.318918 0.327371 0.199612 0.255585 0.276088 0.289156 0.315471 0.321846 0.329081 0.31515 0.270696 0.20553 0.198674 0.283967 0.325382 0.647205 0.490275 0.45238 0.467055 0.519098 0.508138 0.500648 0.499353 0.590634 0.496634 0.57082 0.687091 0.619659 0.554214 0.490052 0.443395 0.416706 0.410355 0.412475 0.414076 0.417912 0.423623 0.43031 0.437694 0.44578 0.454487 0.463352 0.471926 0.480161 0.488145 0.495677 0.502583 0.508948 0.514869 0.520328 0.525267 0.529627 0.533351 0.536377 0.53866 0.53682 0.534682 0.532155 0.529262 0.526031 0.52251 0.51878 0.514941 0.511098 0.507372 0.503857 0.50064 0.497842 0.49559 0.493891 0.492188 0.490297 0.489327 0.490005 0.49272 0.500454 0.50885 0.520758 0.52932 0.543299 0.329315 0.286836 0.238917 0.297457 0.310243 0.285444 0.254244 0.31315 0.320946 0.316152 0.320663 0.314024 0.3197 0.234544 0.298547 0.314699 0.679685 0.495628 0.490569 0.513131 0.531827 0.529927 0.531261 0.251712 0.445663 0.600409 0.58225 0.60968 0.566498 0.517372 0.474648 0.442413 0.426501 0.42216 0.421112 0.421502 0.424667 0.429801 0.4363 0.443498 0.451406 0.540203 0.541051 0.541288 0.541 0.540242 0.539036 0.537403 0.535363 0.532926 0.530106 0.526947 0.523514 0.519883 0.516134 0.512348 0.508628 0.505098 0.501857 0.498987 0.49661 0.494876 0.493736 0.492927 0.495773 0.496211 0.50089 0.506125 0.511718 0.543487 0.594325 0.288836 0.285089 0.232548 0.287403 0.295165 0.238646 0.307192 0.339061 0.320792 0.300476 0.290585 0.520633 0.542449 0.502114 0.55662 0.558257 0.249941 0.189126 0.552572 0.593021 0.605221 0.574828 0.537253 0.500001 0.468423 0.446585 0.436518 0.430958 0.459841 0.468387 0.47671 0.484781 0.492453 0.499522 0.506009 0.512027 0.517618 0.522748 0.527361 0.531387 0.534741 0.537368 0.539264 0.540457 0.541003 0.54097 0.540416 0.539381 0.537901 0.535996 0.533679 0.530966 0.5279 0.524555 0.521013 0.517356 0.513657 0.493162 0.494371 0.494514 0.513715 0.566462 0.653867 0.268028 0.194412 0.247734 0.24651 0.271523 0.349754 0.359155 0.321631 0.315634 0.294879 0.562711 0.570832 0.572934 0.279346 0.276797 0.548398 0.553307 0.579826 0.427624 0.428853 0.431926 0.436088 0.441902 0.449157 0.457173 0.465333 0.473514 0.481588 0.489336 0.496518 0.503111 0.50924 0.514956 0.52023 0.525024 0.52928 0.532907 0.535835 0.538047 0.539563 0.540425 0.540677 0.540368 0.53955 0.538262 0.536524 0.534354 0.531782 0.528846 0.509981 0.506427 0.503108 0.500111 0.497536 0.495556 0.494396 0.493914 0.494123 0.495691 0.497888 0.499856 0.501822 0.498134 0.689861 0.168814 0.206628 0.231089 0.266763 0.245897 0.282883 0.424248 0.355141 0.322478 0.310036 0.317003 0.550399 0.54322 0.585338 0.581765 0.35318 0.331461 0.474137 0.577202 0.545575 0.518298 0.488093 0.467326 0.45239 0.442695 0.437083 0.434687 0.434962 0.437397 0.441847 0.447985 0.455306 0.462836 0.470564 0.478552 0.486345 0.493594 0.500268 0.506489 0.51231 0.517709 0.522648 0.527077 0.53092 0.534104 0.536598 0.538413 0.539571 0.54011 0.540075 0.525611 0.522163 0.518594 0.51498 0.511371 0.507834 0.50447 0.501372 0.498613 0.496309 0.494712 0.494059 0.494138 0.495165 0.497788 0.502058 0.504905 0.50529 0.48289 0.491849 0.526792 0.598484 0.727295 0.189755 0.185181 0.188149 0.304203 0.268603 0.304961 0.358921 0.34937 0.323154 0.576767 0.568107 0.590053 0.404164 0.405274 0.511171 0.511594 0.53885 0.567609 0.547843 0.525815 0.50308 0.482739 0.468587 0.45557 0.44679 0.442195 0.43988 0.440576 0.443012 0.447335 0.453636 0.460933 0.468185 0.475757 0.483484 0.490778 0.497494 0.503777 0.509684 0.515177 0.539506 0.538437 0.536895 0.534909 0.532511 0.52974 0.526649 0.523313 0.519832 0.516296 0.512769 0.509292 0.505924 0.502739 0.499831 0.497354 0.495472 0.494275 0.493837 0.49432 0.496075 0.500695 0.508291 0.510529 0.486535 0.477955 0.50829 0.538777 0.623438 0.195709 0.309171 0.286174 0.324114 0.393934 0.370652 0.333483 0.608586 0.439771 0.442067 0.534151 0.410809 0.505737 0.548326 0.538417 0.527102 0.511933 0.495583 0.481703 0.467197 0.456902 0.450746 0.446616 0.443774 0.444538 0.44769 0.520227 0.524793 0.528812 0.532218 0.534969 0.537052 0.538484 0.539298 0.539532 0.539222 0.538394 0.537075 0.535299 0.533105 0.530534 0.527627 0.524441 0.521063 0.5176 0.514138 0.510725 0.507404 0.50423 0.501255 0.498577 0.496401 0.477499 0.48419 0.49811 0.533909 0.562468 0.640717 0.757508 0.207135 0.30521 0.201538 0.326673 0.308452 0.370658 0.305209 0.586856 0.471167 0.464904 0.418448 0.492889 0.499099 0.52492 0.525305 0.517171 0.504897 0.490916 0.452557 0.459241 0.466222 0.47328 0.480772 0.488106 0.494858 0.501147 0.507094 0.51265 0.517767 0.522425 0.526586 0.530191 0.533181 0.535513 0.537195 0.538265 0.538755 0.538697 0.538118 0.537041 0.535498 0.533529 0.531178 0.528484 0.52549 0.522258 0.518888 0.494988 0.494368 0.494424 0.495357 0.497703 0.504221 0.517452 0.473266 0.502199 0.521233 0.560779 0.545561 0.694016 0.786184 0.286475 0.290814 0.273025 0.373279 0.397242 0.335849 0.295729 0.456281 0.554598 0.437469 0.520506 0.473029 0.477018 0.46655 0.458917 0.453131 0.448251 0.447035 0.448931 0.452424 0.457703 0.464312 0.471138 0.478284 0.485555 0.492363 0.498647 0.504589 0.510168 0.515295 0.519982 0.524233 0.528012 0.531239 0.533815 0.535725 0.537023 0.537743 0.537924 0.537596 0.536776 0.535483 0.515488 0.512126 0.508846 0.505702 0.502749 0.500029 0.497673 0.495941 0.495087 0.495036 0.495791 0.497774 0.501953 0.511778 0.467213 0.562325 0.590098 0.755489 0.779717 0.292485 0.343012 0.40301 0.337529 0.494018 0.562545 0.460064 0.545032 0.460748 0.472177 0.525869 0.521314 0.511077 0.496783 0.484255 0.47557 0.466906 0.459638 0.453852 0.450373 0.450387 0.452854 0.456996 0.46271 0.469265 0.476042 0.483115 0.489966 0.49627 0.502165 0.507765 0.512896 0.517495 0.521734 0.525648 0.529139 0.533755 0.531638 0.529173 0.526397 0.523357 0.520126 0.516808 0.513496 0.510245 0.507117 0.504206 0.50154 0.499125 0.497137 0.495934 0.495817 0.496465 0.497942 0.501421 0.508725 0.451724 0.465497 0.487792 0.516635 0.535127 0.678595 0.745493 0.775716 0.315946 0.334299 0.380028 0.333681 0.343135 0.561967 0.482711 0.559987 0.48679 0.468038 0.523528 0.515801 0.503676 0.489191 0.482393 0.474737 0.466556 0.458796 0.454671 0.452888 0.453642 0.456885 0.461664 0.467803 0.474138 0.531976 0.534089 0.53559 0.536509 0.536899 0.53681 0.536256 0.535232 0.533761 0.531886 0.529656 0.527114 0.524298 0.521252 0.518054 0.514812 0.511616 0.508507 0.505571 0.502928 0.500582 0.498538 0.496981 0.496332 0.496978 0.498419 0.500805 0.505878 0.441691 0.451595 0.479992 0.5016 0.519612 0.557495 0.590861 0.753262 0.790369 0.37704 0.392478 0.390985 0.352261 0.48923 0.573014 0.483636 0.474042 0.489679 0.466167 0.51979 0.509222 0.498306 0.486775 0.48111 0.471871 0.480854 0.487612 0.493961 0.499823 0.505367 0.510609 0.515146 0.519093 0.523004 0.526849 0.530025 0.532281 0.533982 0.535085 0.535647 0.535762 0.535459 0.534709 0.533513 0.531897 0.529911 0.527608 0.525025 0.522195 0.519172 0.516044 0.512919 0.434826 0.442819 0.467566 0.489978 0.502667 0.557607 0.577023 0.700241 0.628425 0.772315 0.811562 0.446929 0.468742 0.736843 0.753 0.502429 0.491958 0.478551 0.489851 0.464262 0.458741 0.456757 0.45495 0.456685 0.460979 0.467011 0.472982 0.47899 0.48526 0.491588 0.497498 0.502982 0.508171 0.513072 0.516739 0.519855 0.524247 0.528042 0.530279 0.532144 0.533481 0.534192 0.534465 0.534391 0.533894 0.532968 0.531628 0.509863 0.506917 0.504199 0.501836 0.499833 0.498212 0.497135 0.497131 0.498496 0.500653 0.503446 0.550559 0.569941 0.70034 0.622641 0.656124 0.851783 0.683762 0.705835 0.463355 0.51517 0.503426 0.497005 0.485715 0.477177 0.469061 0.46256 0.459253 0.460469 0.458173 0.459566 0.466866 0.47229 0.477702 0.483328 0.489147 0.495074 0.500548 0.505658 0.510441 0.515197 0.516988 0.520571 0.526293 0.52803 0.530014 0.529908 0.527852 0.525502 0.522903 0.520099 0.517146 0.514123 0.511121 0.508204 0.505445 0.502988 0.500935 0.4993 0.49811 0.497569 0.498275 0.500296 0.502638 0.430837 0.436368 0.459158 0.478662 0.489511 0.695855 0.612376 0.663258 0.685827 0.795206 0.497343 0.473137 0.466786 0.47176 0.47666 0.481545 0.531561 0.532589 0.532913 0.53305 0.532786 0.53211 0.53104 0.529594 0.527801 0.525702 0.523349 0.520783 0.518039 0.515165 0.512246 0.509391 0.506674 0.504158 0.501982 0.500271 0.499039 0.498282 0.498254 0.499555 0.501921 0.431894 0.43131 0.454861 0.470212 0.481147 0.542543 0.559476 0.476225 0.482919 0.490205 0.497915 0.505761 0.515116 0.518247 0.523248 0.52039 0.520389 0.52073 0.521472 
SCALARS Axial_Stress float 1
LOOKUP_TABLE default
-59858400000.0 -73777000000.0 -63854700000.0 -68892800000.0 -55661900000.0 -55264900000.0 -85311100000.0 -75423000000.0 -58480200000.0 -89357400000.0 -209579000000.0 -108563000000.0 -223602000000.0 -85814000000.0 -147052000000.0 -77504100000.0 -96996400000.0 -60819300000.0 -98550600000.0 -72953400000.0 -55165100000.0 -49048400000.0 -152404000000.0 -161497000000.0 -130400000000.0 -79138400000.0 -85074200000.0 -65326900000.0 -174596000000.0 -100032000000.0 -284296000000.0 -302426000000.0 -287016000000.0 -126723000000.0 -145509000000.0 -198750000000.0 -177921000000.0 -159250000000.0 -144878000000.0 -118039000000.0 -123261000000.0 -138007000000.0 -248934000000.0 -190956000000.0 -230500000000.0 -186284000000.0 -161247000000.0 -173059000000.0 -192164000000.0 -363988000000.0 -393523000000.0 -385548000000.0 -368870000000.0 -384809000000.0 -251476000000.0 -269194000000.0 -207344000000.0 -213699000000.0 -254482000000.0 -281484000000.0 -251474000000.0 -226639000000.0 -515637000000.0 -485258000000.0 -481697000000.0 -448076000000.0 -657676000000.0 -501219000000.0 -349572000000.0 -455380000000.0 -333946000000.0 -362046000000.0 -238069000000.0 -184639000000.0 -175130000000.0 -380200000000.0 -400801000000.0 -302187000000.0 -295440000000.0 -769543000000.0 -620801000000.0 -726604000000.0 -597393000000.0 -685931000000.0 -579790000000.0 -661177000000.0 -562153000000.0 -667444000000.0 -642359000000.0 -731463000000.0 -688805000000.0 -674460000000.0 -539439000000.0 -581435000000.0 -546111000000.0 -334081000000.0 -308453000000.0 -223828000000.0 -236321000000.0 -299483000000.0 -616452000000.0 -481011000000.0 -521080000000.0 -332345000000.0 -359522000000.0 -1.00917e+12 -863945000000.0 -803500000000.0 -764163000000.0 -745239000000.0 -765301000000.0 -770119000000.0 -704648000000.0 -660723000000.0 -657976000000.0 -327932000000.0 -859832000000.0 -876862000000.0 -1.27251e+12 -1.03839e+12 -937534000000.0 -875179000000.0 -837430000000.0 -822811000000.0 -834557000000.0 -803179000000.0 -762143000000.0 -762144000000.0 -873639000000.0 -299926000000.0 -1.01006e+12 -991668000000.0 -1.23295e+12 -1.36724e+12 -1.24534e+12 -1.26203e+12 -1.08891e+12 -1.13716e+12 -998400000000.0 -1.05479e+12 -940575000000.0 -999941000000.0 -904838000000.0 -966384000000.0 -894240000000.0 -954589000000.0 -885275000000.0 -935335000000.0 -854663000000.0 -925067000000.0 -847025000000.0 -960883000000.0 -907915000000.0 -1.09115e+12 -1.07323e+12 -1.15293e+12 -917156000000.0 -1.29826e+12 -1.23744e+12 -1.17635e+12 -1.82858e+12 -2.30249e+12 -1.86948e+12 -1.37941e+12 -1.43478e+12 -1.29139e+12 -1.18126e+12 -1.10619e+12 -1.05365e+12 -1.02392e+12 -1.0084e+12 -997812000000.0 -1.01824e+12 -1.10215e+12 -1.39636e+12 -1.43616e+12 -1.69336e+12 -1.94428e+12 -1.69444e+12 -1.45813e+12 -1.32138e+12 -1.22342e+12 -1.15259e+12 -1.10295e+12 -1.07733e+12 -1.06533e+12 -1.07633e+12 -1.13227e+12 -1.29231e+12 -1.01833e+12 -967352000000.0 -1.56589e+12 -1.78891e+12 -1.82839e+12 -1.66296e+12 -1.65612e+12 -1.47553e+12 -1.48562e+12 -1.34976e+12 -1.38304e+12 -1.26265e+12 -1.29672e+12 -1.19404e+12 -1.23187e+12 -1.14982e+12 -1.19593e+12 -1.13018e+12 -1.18891e+12 -1.13325e+12 -1.21498e+12 -1.17185e+12 -1.28246e+12 -1.26931e+12 -1.38588e+12 -1.41184e+12 -1.0247e+12 -1.07208e+12 -1.61072e+12 -1.6711e+12 -1.69394e+12 -1.72885e+12 -1.83747e+12 -1.8606e+12 -1.84245e+12 -1.85607e+12 -1.63091e+12 -1.50707e+12 -1.41135e+12 -1.32569e+12 -1.26809e+12 -1.24496e+12 -1.25876e+12 -1.30988e+12 -1.38948e+12 -1.47211e+12 -1.71145e+12 -1.71791e+12 -1.69943e+12 -2.13524e+12 -1.77388e+12 -1.63969e+12 -1.53658e+12 -1.43234e+12 -1.35098e+12 -1.30531e+12 -1.30248e+12 -1.3414e+12 -1.4087e+12 -1.48235e+12 -1.07275e+12 -1.1769e+12 -1.74277e+12 -1.71106e+12 -1.56619e+12 -1.83609e+12 -1.77653e+12 -1.78048e+12 -1.65331e+12 -1.68932e+12 -1.55341e+12 -1.55817e+12 -1.44695e+12 -1.4571e+12 -1.3748e+12 -1.40048e+12 -1.34784e+12 -1.40227e+12 -1.37247e+12 -1.45594e+12 -1.43321e+12 -1.52771e+12 -1.50306e+12 -1.58856e+12 -1.55835e+12 -1.14019e+12 -1.27852e+12 -1.78717e+12 -1.80871e+12 -1.75436e+12 -1.72071e+12 -1.63532e+12 -1.29653e+12 -989858000000.0 -1.85663e+12 -1.84563e+12 -1.78478e+12 -1.68893e+12 -1.55462e+12 -1.46538e+12 -1.43342e+12 -1.47257e+12 -1.54938e+12 -1.61983e+12 -1.66356e+12 -1.8643e+12 -1.80685e+12 -1.601e+12 -1.21768e+12 -1.08421e+12 -1.116e+12 -1.85071e+12 -1.85304e+12 -1.6704e+12 -1.54544e+12 -1.47617e+12 -1.48403e+12 -1.56095e+12 -1.64718e+12 -1.74506e+12 -1.70681e+12 -1.7868e+12 -1.2182e+12 -1.37709e+12 -1.96375e+12 -1.88883e+12 -1.76342e+12 -1.46183e+12 -1.25754e+12 -1.13058e+12 -1.83129e+12 -2.06831e+12 -1.81534e+12 -1.74583e+12 -1.64031e+12 -1.61566e+12 -1.53623e+12 -1.52543e+12 -1.49406e+12 -1.54113e+12 -1.55681e+12 -1.65775e+12 -1.66337e+12 -1.77275e+12 -1.84049e+12 -1.30242e+12 -1.47624e+12 -2.00127e+12 -1.89056e+12 -1.87708e+12 -1.71278e+12 -1.60802e+12 -1.26407e+12 -1.28134e+12 -1.06701e+12 -1.85355e+12 -1.70916e+12 -1.58411e+12 -1.51503e+12 -1.61912e+12 -1.77982e+12 -1.88524e+12 -1.93029e+12 -2.1045e+12 -2.02185e+12 -1.83908e+12 -1.22553e+12 -1.3088e+12 -1.29837e+12 -1.27195e+12 -1.46827e+12 -1.65292e+12 -1.79958e+12 -1.67197e+12 -1.53723e+12 -1.55896e+12 -1.74547e+12 -1.90732e+12 -1.91391e+12 -2.06055e+12 -1.99684e+12 -2.08984e+12 -1.38872e+12 -1.57509e+12 -2.27669e+12 -2.17288e+12 -2.24687e+12 -2.01258e+12 -1.90837e+12 -1.73305e+12 -1.25024e+12 -1.6448e+12 -1.81195e+12 -1.78574e+12 -1.8445e+12 -1.77601e+12 -1.73972e+12 -1.6084e+12 -1.49183e+12 -1.46117e+12 -1.49461e+12 -1.63827e+12 -1.80065e+12 -2.12718e+12 -2.16784e+12 -1.47265e+12 -1.67053e+12 -2.36638e+12 -2.35016e+12 -1.69744e+12 -1.01486e+12 -1.79215e+12 -1.83764e+12 -1.92001e+12 -1.85967e+12 -1.66081e+12 -1.20428e+12 -1.50063e+12 -2.21021e+12 -2.25026e+12 -2.25509e+12 -2.45736e+12 -2.47107e+12 -2.60519e+12 -1.82173e+12 -1.89364e+12 -2.09684e+12 -1.96936e+12 -2.07976e+12 -1.99862e+12 -2.09079e+12 -1.97762e+12 -1.99747e+12 -1.8304e+12 -1.52945e+12 -1.45004e+12 -2.89093e+12 -2.38169e+12 -2.49247e+12 -2.34848e+12 -2.43163e+12 -2.33871e+12 -2.41506e+12 -1.55165e+12 -1.76107e+12 -2.62978e+12 -2.55369e+12 -2.67108e+12 -2.63041e+12 -2.89792e+12 -3.18198e+12 -2.98737e+12 -2.19909e+12 -2.19995e+12 -2.19221e+12 -2.15261e+12 -1.96438e+12 -1.71768e+12 -1.49729e+12 -1.46825e+12 -3.33023e+12 -2.76565e+12 -2.54899e+12 -2.49807e+12 -1.62622e+12 -1.8485e+12 -2.72386e+12 -2.82519e+12 -3.06052e+12 -2.60154e+12 -2.32815e+12 -2.29406e+12 -2.27593e+12 -2.19328e+12 -1.69072e+12 -3.39093e+12 -3.54999e+12 -3.09957e+12 -2.72095e+12 -2.59422e+12 -2.5627e+12 -1.93502e+12 -2.78682e+12 -2.87044e+12 -2.83156e+12 -2.92819e+12 -2.94921e+12 -2.97427e+12 -2.87102e+12 -2.75144e+12 -2.56607e+12 -2.58314e+12 -2.41591e+12 -2.49467e+12 -2.38446e+12 -2.46429e+12 -2.34555e+12 -2.41077e+12 -2.18677e+12 -3.09533e+12 -3.38412e+12 -3.34973e+12 -3.13521e+12 -2.93283e+12 -2.86247e+12 -2.71663e+12 -2.73414e+12 -2.64138e+12 -2.69523e+12 -1.69914e+12 -2.92573e+12 -2.95042e+12 -2.98625e+12 -2.91088e+12 -2.7411e+12 -2.62721e+12 -2.57258e+12 -2.54502e+12 -2.63571e+12 -2.65095e+12 -3.00575e+12 -3.23827e+12 -3.24067e+12 -3.01044e+12 -2.84081e+12 -2.76684e+12 -1.77325e+12 -2.02074e+12 -2.99405e+12 -3.01363e+12 -3.00654e+12 -2.87681e+12 -2.8873e+12 -2.76237e+12 -2.80366e+12 -2.68602e+12 -2.75538e+12 -2.65253e+12 -2.68601e+12 -2.8406e+12 -3.12066e+12 -3.22665e+12 -3.16779e+12 -3.12163e+12 -3.04591e+12 -2.95117e+12 -2.93143e+12 -2.84745e+12 -2.87284e+12 -2.81157e+12 -1.84962e+12 -2.10498e+12 -3.04869e+12 -3.1071e+12 -3.05575e+12 -3.10773e+12 -3.05799e+12 -3.08415e+12 -2.9958e+12 -2.99924e+12 -2.9178e+12 -2.85929e+12 -2.83917e+12 -2.7571e+12 -2.87123e+12 -2.83323e+12 -2.96078e+12 -3.01528e+12 -3.1479e+12 -3.10887e+12 -3.00814e+12 -2.93737e+12 -2.91124e+12 -3.16324e+12 -3.16115e+12 -3.1494e+12 -3.09913e+12 -3.02414e+12 -2.96272e+12 -2.92787e+12 -2.93161e+12 -2.97638e+12 -3.06319e+12 -3.09878e+12 -3.12905e+12 -3.13284e+12 -3.06802e+12 -2.99823e+12 -2.96085e+12 -1.92752e+12 -2.18825e+12 -3.2751e+12 -3.21751e+12 -3.26875e+12 -3.20941e+12 -3.2518e+12 -3.18207e+12 -3.21095e+12 -3.1219e+12 -3.15638e+12 -3.06231e+12 -3.11102e+12 -3.01958e+12 -3.0851e+12 -3.00491e+12 -3.08338e+12 -3.02164e+12 -3.06316e+12 -3.1202e+12 -3.12661e+12 -3.10647e+12 -3.08611e+12 -3.04892e+12 -3.04985e+12 -3.00891e+12 -3.03425e+12 -2.99569e+12 -2.00562e+12 -2.27111e+12 -3.32804e+12 -3.31628e+12 -3.28973e+12 -3.24454e+12 -3.19986e+12 -3.16793e+12 -3.15447e+12 -3.15611e+12 -3.10012e+12 -3.1622e+12 -3.12847e+12 -3.14073e+12 -3.11155e+12 -3.08018e+12 -3.06765e+12 -3.06828e+12 -2.35381e+12 -3.3868e+12 -3.4395e+12 -3.37856e+12 -3.36029e+12 -3.32656e+12 -3.28509e+12 -3.25055e+12 -3.22997e+12 -3.22252e+12 -3.21769e+12 -3.204e+12 -3.16318e+12 -3.16664e+12 -3.13313e+12 -3.11402e+12 -3.0996e+12 -3.10254e+12 -3.0913e+12 -3.11834e+12 -3.09773e+12 -3.13408e+12 -2.08301e+12 -3.49909e+12 -3.49006e+12 -3.42644e+12 -3.472e+12 -3.40199e+12 -3.44341e+12 -3.36636e+12 -3.41036e+12 -3.33157e+12 -3.38277e+12 -3.30653e+12 -3.36566e+12 -3.29375e+12 -3.35641e+12 -3.28474e+12 -3.33715e+12 -3.26378e+12 -3.21806e+12 -3.13798e+12 -3.10121e+12 -3.12495e+12 -3.1569e+12 -2.1596e+12 -2.43638e+12 -3.55184e+12 -3.53849e+12 -3.51613e+12 -3.48661e+12 -3.45811e+12 -3.43737e+12 -3.42611e+12 -3.41612e+12 -3.37429e+12 -3.28835e+12 -3.28056e+12 -3.19669e+12 -3.099e+12 -3.11267e+12 -3.16591e+12 -3.20024e+12 -2.51871e+12 -3.61192e+12 -3.66462e+12 -3.60254e+12 -3.65132e+12 -3.58513e+12 -3.6306e+12 -3.56006e+12 -3.60484e+12 -3.53223e+12 -3.58008e+12 -3.50885e+12 -3.56181e+12 -3.49417e+12 -3.55241e+12 -3.48685e+12 -3.4722e+12 -3.385e+12 -3.22086e+12 -3.12283e+12 -3.03904e+12 -3.07694e+12 -3.10563e+12 -3.15297e+12 -3.21952e+12 -3.21976e+12 -3.27651e+12 -2.23625e+12 -3.72484e+12 -3.71529e+12 -3.69848e+12 -3.67565e+12 -3.65086e+12 -3.62973e+12 -3.61639e+12 -3.61206e+12 -3.54801e+12 -3.6112e+12 -3.52548e+12 -3.58022e+12 -3.34189e+12 -3.04742e+12 -2.9991e+12 -3.18721e+12 -3.29789e+12 -2.31463e+12 -2.60057e+12 -3.83731e+12 -3.77727e+12 -3.82759e+12 -3.76406e+12 -3.81121e+12 -3.74445e+12 -3.78969e+12 -3.72085e+12 -3.69805e+12 -3.68078e+12 -3.67236e+12 -3.67398e+12 -3.6803e+12 -3.64886e+12 -3.1677e+12 -2.51767e+12 -2.85752e+12 -2.87135e+12 -3.09752e+12 -3.25582e+12 -3.29588e+12 -3.40617e+12 -3.37404e+12 -2.39542e+12 -9035750000.0 -2.68161e+12 -3.88915e+12 -3.87599e+12 -3.85703e+12 -3.8346e+12 -3.76649e+12 -3.81259e+12 -3.74622e+12 -3.79513e+12 -3.73291e+12 -3.78604e+12 -3.72996e+12 -3.79004e+12 -3.74023e+12 -3.81472e+12 -3.76302e+12 -3.74127e+12 -2.27846e+12 -3.13623e+12 -3.42142e+12 -3.49564e+12 -2.76137e+12 -3.94869e+12 -3.9996e+12 -3.93881e+12 -3.98647e+12 -3.92267e+12 -3.90188e+12 -3.87941e+12 -3.85908e+12 -3.84457e+12 -3.84036e+12 -3.85452e+12 -3.90519e+12 -3.87259e+12 -4.18815e+12 -4.43923e+12 -4.80542e+12 -2.48639e+12 -3.41461e+12 -3.57417e+12 -3.54068e+12 -3.63758e+12 -2.4793e+12 -4.05827e+12 -4.04825e+12 -4.03236e+12 -3.96791e+12 -4.01199e+12 -3.94607e+12 -3.98987e+12 -3.92424e+12 -3.96909e+12 -3.90581e+12 -3.95259e+12 -3.89445e+12 -3.89669e+12 -3.92787e+12 -4.07305e+12 -4.55747e+12 -4.58429e+12 -3.84058e+12 -3.30563e+12 -3.5874e+12 -3.69302e+12 -2.56775e+12 -9035750000.0 -2.83926e+12 -4.16525e+12 -4.10782e+12 -4.15516e+12 -4.0949e+12 -4.07672e+12 -4.05526e+12 -4.03347e+12 -4.01387e+12 -3.99929e+12 -3.94492e+12 -3.99691e+12 -3.95735e+12 -4.03147e+12 -4.03345e+12 -4.16212e+12 -4.28279e+12 -4.41487e+12 -4.60907e+12 -4.28182e+12 -3.83756e+12 -3.74205e+12 -3.79303e+12 -2.66279e+12 -2.91527e+12 -4.21315e+12 -4.2006e+12 -4.13977e+12 -4.18309e+12 -4.11983e+12 -4.16209e+12 -4.09802e+12 -4.07695e+12 -4.05839e+12 -4.046e+12 -4.05367e+12 -4.11583e+12 -4.26015e+12 -4.33181e+12 -3.98662e+12 -3.96864e+12 -3.87139e+12 -3.94036e+12 -3.8564e+12 -3.955e+12 -2.99093e+12 -4.26941e+12 -4.31576e+12 -4.25899e+12 -4.24434e+12 -4.22519e+12 -4.20389e+12 -4.14059e+12 -4.18311e+12 -4.12029e+12 -4.16328e+12 -4.10243e+12 -4.14566e+12 -4.09341e+12 -4.13938e+12 -4.11302e+12 -4.18404e+12 -4.27124e+12 -4.1922e+12 -4.14827e+12 -4.02655e+12 -3.99785e+12 -4.02731e+12 -2.76583e+12 -9035750000.0 -4.372e+12 -4.36045e+12 -4.30328e+12 -4.34595e+12 -4.2866e+12 -4.32775e+12 -4.26644e+12 -4.24557e+12 -4.22567e+12 -4.20552e+12 -4.18601e+12 -4.17499e+12 -4.16061e+12 -4.17597e+12 -4.20313e+12 -4.16865e+12 -4.08838e+12 -4.03119e+12 -4.07297e+12 -4.07278e+12 -4.17198e+12 -4.1171e+12 -2.87703e+12 -3.06904e+12 -4.47361e+12 -4.41664e+12 -4.40386e+12 -4.3874e+12 -4.36839e+12 -4.30742e+12 -4.34837e+12 -4.28739e+12 -4.32921e+12 -4.26814e+12 -4.24545e+12 -4.2173e+12 -4.18614e+12 -4.14049e+12 -4.10014e+12 -4.0474e+12 -4.04429e+12 -4.07251e+12 -4.18117e+12 -4.26823e+12 -3.15282e+12 -4.51659e+12 -4.46117e+12 -4.50451e+12 -4.44604e+12 -4.48666e+12 -4.42791e+12 -4.40867e+12 -4.38923e+12 -4.37068e+12 -4.31001e+12 -4.35014e+12 -4.2789e+12 -4.29763e+12 -4.22877e+12 -4.20666e+12 -4.15776e+12 -4.05506e+12 -4.06809e+12 -4.01008e+12 -4.05427e+12 -4.12393e+12 -4.29674e+12 -4.3134e+12 -4.42438e+12 -2.9923e+12 -3.24375e+12 -4.57082e+12 -4.61223e+12 -4.5611e+12 -4.54651e+12 -4.52724e+12 -4.46808e+12 -4.50873e+12 -4.44907e+12 -4.48883e+12 -4.42966e+12 -4.41104e+12 -4.38692e+12 -4.28693e+12 -4.12983e+12 -3.92492e+12 -4.00547e+12 -4.07177e+12 -4.11098e+12 -4.14982e+12 -4.47764e+12 -3.11057e+12 -4.65333e+12 -4.65787e+12 -4.60631e+12 -4.64954e+12 -4.58794e+12 -4.628e+12 -4.56783e+12 -4.54858e+12 -4.52649e+12 -4.46837e+12 -4.50408e+12 -4.44944e+12 -4.48561e+12 -4.41932e+12 -4.44863e+12 -4.21722e+12 -4.01183e+12 -3.9019e+12 -3.65222e+12 -3.89145e+12 -3.97929e+12 -4.15504e+12 -4.0841e+12 -4.44824e+12 -4.69524e+12 -4.61178e+12 -3.23961e+12 -3.34899e+12 -4.70766e+12 -4.70001e+12 -4.70587e+12 -4.69169e+12 -4.67055e+12 -4.60867e+12 -4.64842e+12 -4.58659e+12 -4.56007e+12 -4.53583e+12 -4.52057e+12 -4.4802e+12 -3.24501e+12 -3.79099e+12 -4.11241e+12 -4.13801e+12 -4.64598e+12 -4.89328e+12 -3.48581e+12 -4.77796e+12 -4.74479e+12 -4.8015e+12 -4.75467e+12 -4.80678e+12 -4.7373e+12 -4.71191e+12 -4.6824e+12 -4.61961e+12 -4.64567e+12 -4.58797e+12 -4.56376e+12 -4.55757e+12 -4.48386e+12 -5.13359e+12 -2.98213e+12 -3.91769e+12 -4.07221e+12 -4.16524e+12 -3.63892e+12 -5.2404e+12 -5.07077e+12 -5.23339e+12 -3.37444e+12 -3.65233e+12 -4.71051e+12 -4.83971e+12 -4.81729e+12 -4.86863e+12 -4.86262e+12 -4.78113e+12 -4.8151e+12 -4.74731e+12 -4.70793e+12 -4.66374e+12 -4.60945e+12 -4.62627e+12 -4.59008e+12 -4.61765e+12 -4.59512e+12 -4.86698e+12 -5.35843e+12 -4.24034e+12 -4.36238e+12 -4.0773e+12 -3.21293e+12 -5.59237e+12 -3.44357e+12 -4.48641e+12 -4.90379e+12 -4.91059e+12 -5.04661e+12 -4.9538e+12 -4.89322e+12 -4.84299e+12 -4.7738e+12 -4.78604e+12 -4.72376e+12 -4.67489e+12 -4.64344e+12 -4.7402e+12 -5.20787e+12 -4.9708e+12 -4.53075e+12 -4.52879e+12 -4.57505e+12 -4.37108e+12 -4.60896e+12 -5.94201e+12 -5.46832e+12 -5.32156e+12 -3.49591e+12 -3.85679e+12 -4.18033e+12 -4.96505e+12 -5.26219e+12 -5.157e+12 -5.07775e+12 -4.98626e+12 -5.01314e+12 -4.91945e+12 -4.851e+12 -4.78953e+12 -4.73204e+12 -4.73664e+12 -4.68379e+12 -4.70164e+12 -4.8014e+12 -4.91908e+12 -4.93911e+12 -4.59767e+12 -4.63336e+12 -4.62894e+12 -4.87174e+12 -5.05909e+12 -5.09057e+12 -5.01184e+12 -5.14066e+12 -4.04483e+12 -5.36465e+12 -5.19317e+12 -5.14486e+12 -5.2483e+12 -5.12877e+12 -5.0066e+12 -4.92351e+12 -4.90669e+12 -4.84367e+12 -4.79067e+12 -4.74733e+12 -4.70992e+12 -4.75712e+12 -4.80481e+12 -4.74551e+12 -4.62408e+12 -4.7187e+12 -4.89679e+12 -5.16115e+12 -5.39072e+12 -4.03875e+12 -3.1996e+12 -4.01699e+12 -5.04404e+12 -6.56778e+12 -6.29727e+12 -6.09914e+12 -4.83029e+12 -5.36348e+12 -5.22269e+12 -5.10667e+12 -4.98248e+12 -4.87845e+12 -4.83117e+12 -4.82151e+12 -4.79855e+12 -4.82287e+12 -4.76378e+12 -4.77176e+12 -4.72606e+12 -4.63078e+12 -4.73255e+12 -4.89466e+12 -5.16987e+12 -5.41645e+12 -5.19512e+12 -5.95578e+12 -6.77803e+12 -4.61574e+12 -5.24647e+12 -4.9832e+12 -4.94536e+12 -6.47298e+12 -6.8181e+12 -6.55037e+12 -5.82282e+12 -5.87792e+12 -5.36329e+12 -5.38753e+12 -5.33694e+12 -5.16021e+12 -5.06698e+12 -5.01868e+12 -4.94211e+12 -4.84956e+12 -4.82065e+12 -4.86486e+12 -4.91031e+12 -4.7477e+12 -4.61829e+12 -4.61712e+12 -4.49013e+12 -4.68669e+12 -4.85726e+12 -5.10705e+12 -5.35704e+12 -5.50546e+12 -6.00199e+12 -6.8458e+12 -6.42365e+12 -7.16222e+12 -5.21361e+12 -5.19736e+12 -7.54152e+12 -7.25312e+12 -7.29886e+12 -6.86099e+12 -6.22914e+12 -6.8593e+12 -5.57369e+12 -5.33952e+12 -5.26185e+12 -5.17517e+12 -5.09655e+12 -4.95998e+12 -4.89719e+12 -4.85632e+12 -4.82661e+12 -4.80892e+12 -4.83084e+12 -4.85775e+12 -4.92021e+12 -3.99379e+12 -4.01367e+12 -4.58835e+12 -4.76438e+12 -5.03562e+12 -5.22916e+12 -5.76458e+12 -5.91445e+12 -6.24256e+12 -6.14166e+12 -6.7417e+12 -6.68412e+12 -7.47299e+12 -5.20028e+12 -5.08457e+12 -5.22775e+12 -5.12854e+12 -7.47764e+12 -7.48163e+12 -7.0555e+12 -7.12854e+12 -7.25871e+12 -5.93957e+12 -6.25681e+12 -5.93433e+12 -5.48072e+12 -5.24785e+12 -5.08846e+12 -5.02945e+12 -4.90658e+12 -4.82435e+12 -4.79141e+12 -4.88682e+12 -5.47446e+12 -5.47905e+12 -4.42067e+12 -4.92163e+12 -5.07959e+12 -5.52841e+12 -5.93804e+12 -6.2172e+12 -6.36809e+12 -5.83967e+12 -6.68727e+12 -7.01493e+12 -7.20826e+12 -7.28024e+12 -7.09386e+12 -5.10755e+12 -5.19233e+12 -7.84423e+12 -7.40407e+12 -7.311e+12 -7.20502e+12 -7.18423e+12 -7.04378e+12 -6.63243e+12 -6.00224e+12 -5.66692e+12 -5.36231e+12 -5.21932e+12 -5.14092e+12 -5.00623e+12 -4.95745e+12 -4.90991e+12 -4.86195e+12 -4.78847e+12 -4.78738e+12 -4.91869e+12 -5.17805e+12 -5.44469e+12 -5.10376e+12 -4.85594e+12 -4.69747e+12 -4.89451e+12 -5.24711e+12 -5.46027e+12 -6.55428e+12 -5.22575e+12 -6.63081e+12 -6.71057e+12 -6.79335e+12 -7.06206e+12 -7.19313e+12 -6.93641e+12 -5.18395e+12 -5.19336e+12 -5.11998e+12 -5.19788e+12 -7.9657e+12 -7.6562e+12 -7.52454e+12 -7.43755e+12 -7.30004e+12 -7.26912e+12 -7.03818e+12 -6.27319e+12 -6.46406e+12 -6.3558e+12 -5.86245e+12 -5.68524e+12 -5.42718e+12 -5.05086e+12 -5.01985e+12 -4.94068e+12 -4.9367e+12 -4.93413e+12 -4.86809e+12 -4.82562e+12 -4.76429e+12 -4.72885e+12 -4.72712e+12 -5.10214e+12 -5.15639e+12 -5.27534e+12 -4.99497e+12 -4.83348e+12 -5.01662e+12 -5.11079e+12 -5.23434e+12 -5.89993e+12 -6.60116e+12 -7.10653e+12 -6.65786e+12 -6.88529e+12 -6.78758e+12 -7.11663e+12 -7.30952e+12 -7.17912e+12 -7.35976e+12 -7.23616e+12 -4.77667e+12 -5.1332e+12 -7.87364e+12 -7.80991e+12 -7.64377e+12 -7.57343e+12 -7.38223e+12 -7.04982e+12 -7.1182e+12 -6.72517e+12 -6.29816e+12 -6.96491e+12 -6.74712e+12 -6.50066e+12 -6.13346e+12 -5.37562e+12 -5.16633e+12 -4.89382e+12 -4.86805e+12 -4.93863e+12 -4.82001e+12 -4.64845e+12 -4.8067e+12 -4.89723e+12 -5.02004e+12 -4.83805e+12 -4.73264e+12 -5.13699e+12 -5.50117e+12 -6.08748e+12 -6.48763e+12 -5.99681e+12 -6.78971e+12 -6.86363e+12 -7.26839e+12 -7.05672e+12 -6.85323e+12 -7.63897e+12 -7.30623e+12 -7.09296e+12 -4.46512e+12 -5.005e+12 -5.07705e+12 -7.79347e+12 -7.83075e+12 -7.5028e+12 -6.71138e+12 -7.0715e+12 -6.97097e+12 -7.07168e+12 -6.86617e+12 -6.92362e+12 -6.40392e+12 -6.10961e+12 -5.73461e+12 -5.06678e+12 -4.9289e+12 -4.86473e+12 -4.7584e+12 -4.93245e+12 -4.92967e+12 -5.00197e+12 -4.98621e+12 -4.6643e+12 -4.18199e+12 -4.53145e+12 -4.56387e+12 -4.93304e+12 -4.84982e+12 -4.87871e+12 -4.82124e+12 -4.96213e+12 -5.26285e+12 -5.22077e+12 -5.70439e+12 -6.29133e+12 -6.38448e+12 -6.28647e+12 -7.08502e+12 -7.12683e+12 -7.04019e+12 -7.1663e+12 -6.42032e+12 -7.2976e+12 -7.623e+12 -7.4533e+12 -7.34838e+12 -4.63281e+12 -4.90044e+12 -4.84802e+12 -4.91764e+12 -7.66132e+12 -7.70355e+12 -7.65899e+12 -7.43506e+12 -6.46223e+12 -6.64579e+12 -6.9728e+12 -6.8578e+12 -6.93858e+12 -6.9807e+12 -7.08901e+12 -6.76135e+12 -6.0724e+12 -5.73472e+12 -5.35637e+12 -4.74087e+12 -4.71827e+12 -4.84268e+12 -4.95871e+12 -5.03657e+12 -5.33943e+12 -5.72716e+12 -3.70542e+12 -4.0908e+12 -4.72452e+12 -4.77023e+12 -4.79029e+12 -4.78717e+12 -5.03425e+12 -5.3981e+12 -5.6763e+12 -6.00272e+12 -6.19574e+12 -6.39645e+12 -6.66782e+12 -6.56825e+12 -6.437e+12 -7.24169e+12 -7.09809e+12 -6.83132e+12 -6.39955e+12 -6.95641e+12 -7.4663e+12 -7.55628e+12 -7.68291e+12 -5.00706e+12 -4.78757e+12 -7.57431e+12 -7.47579e+12 -7.51485e+12 -7.55869e+12 -7.30261e+12 -6.68191e+12 -7.36183e+12 -6.92622e+12 -6.92096e+12 -6.74599e+12 -6.77843e+12 -6.76106e+12 -6.60622e+12 -6.38697e+12 -5.73589e+12 -5.34762e+12 -4.95179e+12 -4.42439e+12 -4.5595e+12 -4.87664e+12 -5.03528e+12 -5.49607e+12 -5.18834e+12 -4.48566e+12 -4.71736e+12 -4.75392e+12 -4.84869e+12 -4.76037e+12 -5.11679e+12 -5.28013e+12 -5.95125e+12 -6.1611e+12 -6.37596e+12 -6.49175e+12 -6.70142e+12 -6.57141e+12 -7.37902e+12 -7.15394e+12 -6.81756e+12 -6.86088e+12 -7.05878e+12 -7.30449e+12 -7.37838e+12 -7.42468e+12 -7.28795e+12 -4.72229e+12 -4.74933e+12 -4.67674e+12 -7.48855e+12 -7.5071e+12 -7.37746e+12 -7.283e+12 -7.36209e+12 -7.05424e+12 -6.82763e+12 -6.19914e+12 -6.37005e+12 -6.49974e+12 -6.45004e+12 -6.50762e+12 -6.38233e+12 -6.26631e+12 -6.05477e+12 -5.35037e+12 -4.82829e+12 -4.37466e+12 -4.77454e+12 -5.13078e+12 -4.11931e+12 -5.64084e+12 -5.11981e+12 -4.80104e+12 -4.64071e+12 -5.48071e+12 -4.61881e+12 -4.51224e+12 -4.61819e+12 -4.66751e+12 -4.91486e+12 -4.97803e+12 -4.60571e+12 -5.6593e+12 -5.88753e+12 -6.09629e+12 -6.37631e+12 -6.62337e+12 -6.47635e+12 -6.95055e+12 -7.13576e+12 -7.04019e+12 -7.06096e+12 -7.09058e+12 -6.98502e+12 -7.03528e+12 -6.78966e+12 -7.3229e+12 -7.50245e+12 -6.87427e+12 -4.48612e+12 -4.34992e+12 -4.49862e+12 -7.42058e+12 -7.30811e+12 -7.31011e+12 -7.16074e+12 -7.11711e+12 -7.30993e+12 -7.15703e+12 -7.09975e+12 -7.13642e+12 -6.58235e+12 -7.14997e+12 -6.69703e+12 -6.46719e+12 -6.31397e+12 -6.31833e+12 -6.22346e+12 -6.10683e+12 -5.95491e+12 -5.71241e+12 -5.26466e+12 -4.65104e+12 -3.75089e+12 -3.57301e+12 -6.03772e+12 -4.76249e+12 -3.27524e+12 -5.2778e+12 -5.2895e+12 -4.89525e+12 -4.13966e+12 -4.79386e+12 -4.75781e+12 -4.90159e+12 -4.36488e+12 -3.79564e+12 -5.27613e+12 -5.55884e+12 -5.78954e+12 -6.20098e+12 -6.36845e+12 -6.39147e+12 -6.6581e+12 -6.68183e+12 -6.90762e+12 -6.90816e+12 -6.8893e+12 -6.88013e+12 -6.95071e+12 -6.91657e+12 -7.04495e+12 -7.15373e+12 -7.41874e+12 -7.16653e+12 -4.75041e+12 -4.18629e+12 -7.04178e+12 -7.25513e+12 -7.24882e+12 -7.07953e+12 -6.90858e+12 -7.09578e+12 -7.02317e+12 -6.8164e+12 -6.72537e+12 -5.99876e+12 -5.48519e+12 -5.40267e+12 -5.91799e+12 -6.02303e+12 -5.9688e+12 -5.83465e+12 -5.61617e+12 -5.13713e+12 -4.97696e+12 -4.95278e+12 -3.81649e+12 -4.28991e+12 -5.52974e+12 -3.80847e+12 -6.04509e+12 -5.50166e+12 -3.67557e+12 -4.52429e+12 -4.40987e+12 -4.61341e+12 -4.4259e+12 -5.35151e+12 -4.29619e+12 -4.729e+12 -5.14896e+12 -5.44045e+12 -5.94999e+12 -6.12121e+12 -6.21546e+12 -6.42947e+12 -6.48885e+12 -6.53264e+12 -6.58609e+12 -6.33491e+12 -5.81223e+12 -6.48033e+12 -6.6936e+12 -7.07903e+12 -7.18499e+12 -7.34304e+12 -7.32967e+12 -7.25864e+12 -4.81013e+12 -4.93533e+12 -4.79784e+12 -4.1937e+12 -4.15278e+12 -6.99144e+12 -6.93852e+12 -6.93685e+12 -7.12884e+12 -6.77544e+12 -6.489e+12 -6.91134e+12 -6.94519e+12 -6.95076e+12 -6.78043e+12 -6.48977e+12 -6.41997e+12 -6.68269e+12 -6.32535e+12 -6.19548e+12 -5.99079e+12 -5.81386e+12 -5.63324e+12 -5.41437e+12 -5.09233e+12 -4.99926e+12 -4.62884e+12 -4.33991e+12 -5.50285e+12 -5.01891e+12 -5.0073e+12 -4.7925e+12 -4.27559e+12 -3.08273e+12 -4.29338e+12 -4.74331e+12 -6.0257e+12 -3.01962e+12 -4.55221e+12 -4.86548e+12 -5.13733e+12 -5.65451e+12 -5.84471e+12 -5.9933e+12 -6.1875e+12 -6.32674e+12 -6.46392e+12 -6.62841e+12 -6.77622e+12 -6.66161e+12 -7.05708e+12 -6.67856e+12 -6.68745e+12 -6.82495e+12 -6.92392e+12 -7.02217e+12 -7.395e+12 -6.99507e+12 -6.81525e+12 -7.19499e+12 -4.81466e+12 -4.30456e+12 -6.96449e+12 -6.84886e+12 -6.8943e+12 -6.84425e+12 -7.03725e+12 -6.73514e+12 -6.18689e+12 -6.78161e+12 -6.70047e+12 -6.7187e+12 -6.85361e+12 -5.94288e+12 -5.42256e+12 -6.09274e+12 -6.13899e+12 -5.93727e+12 -5.74688e+12 -5.58797e+12 -5.42416e+12 -5.24178e+12 -4.78172e+12 -4.46382e+12 -5.05623e+12 -5.44217e+12 -4.94803e+12 -4.53306e+12 -4.58905e+12 -3.89638e+12 -4.1297e+12 -4.05457e+12 -3.18134e+12 -4.76999e+12 -4.5369e+12 -4.82535e+12 -4.52158e+12 -4.70229e+12 -4.91003e+12 -5.35733e+12 -5.55219e+12 -5.71988e+12 -5.89899e+12 -6.04836e+12 -6.32991e+12 -6.66916e+12 -6.69526e+12 -6.74668e+12 -6.80597e+12 -6.96358e+12 -7.09091e+12 -6.09567e+12 -7.30349e+12 -7.40696e+12 -7.1231e+12 -4.73958e+12 -4.62168e+12 -4.38976e+12 -6.99723e+12 -7.0102e+12 -6.90347e+12 -6.77931e+12 -6.75731e+12 -6.51834e+12 -6.96771e+12 -6.87244e+12 -7.19845e+12 -6.46523e+12 -7.13727e+12 -6.63141e+12 -6.46419e+12 -6.40564e+12 -6.62812e+12 -6.73702e+12 -6.48377e+12 -5.49294e+12 -5.36126e+12 -5.22226e+12 -5.09095e+12 -4.97502e+12 -3.51048e+12 -3.17001e+12 -3.84644e+12 -4.26893e+12 -4.32435e+12 -4.7171e+12 -5.56382e+12 -3.19382e+12 -4.10295e+12 -4.62704e+12 -4.05137e+12 -4.49267e+12 -4.6441e+12 -4.60334e+12 -4.74942e+12 -5.1029e+12 -5.27976e+12 -5.44365e+12 -5.60871e+12 -5.7561e+12 -6.18778e+12 -6.48491e+12 -6.70511e+12 -7.0036e+12 -6.94757e+12 -6.57897e+12 -6.62949e+12 -6.73196e+12 -6.77032e+12 -6.77976e+12 -6.51463e+12 -7.18892e+12 -6.75188e+12 -6.92289e+12 -4.3934e+12 -4.37592e+12 -4.40967e+12 -6.88265e+12 -6.90521e+12 -6.85086e+12 -6.84194e+12 -6.8319e+12 -6.94308e+12 -6.97807e+12 -6.30542e+12 -7.05469e+12 -7.25889e+12 -6.8851e+12 -6.74393e+12 -6.49959e+12 -5.13887e+12 -6.22291e+12 -6.14775e+12 -6.3524e+12 -6.22191e+12 -6.06362e+12 -5.80799e+12 -5.63813e+12 -5.2561e+12 -5.12839e+12 -4.99194e+12 -4.83879e+12 -4.61493e+12 -4.25614e+12 -4.87397e+12 -4.40768e+12 -4.5067e+12 -4.27678e+12 -4.44748e+12 -4.5559e+12 -4.61725e+12 -4.90446e+12 -5.05371e+12 -5.19675e+12 -5.3419e+12 -5.4789e+12 -5.8921e+12 -6.02238e+12 -6.15412e+12 -6.32947e+12 -6.54526e+12 -6.65154e+12 -6.61454e+12 -6.55504e+12 -6.44198e+12 -6.52241e+12 -6.58221e+12 -6.60426e+12 -6.30414e+12 -6.48718e+12 -6.45714e+12 -6.34966e+12 -6.75181e+12 -6.79802e+12 -4.24988e+12 -4.1235e+12 -4.34907e+12 -6.71432e+12 -6.63914e+12 -6.80077e+12 -6.72664e+12 -6.84237e+12 -6.90508e+12 -7.09557e+12 -7.2321e+12 -6.93726e+12 -6.85312e+12 -6.64904e+12 -6.65663e+12 -6.20067e+12 -5.73625e+12 -5.7874e+12 -6.08802e+12 -6.02767e+12 -5.97071e+12 -5.86646e+12 -5.71694e+12 -5.52257e+12 -5.38279e+12 -4.89062e+12 -4.74788e+12 -4.569e+12 -4.34407e+12 -4.05701e+12 -3.82198e+12 -3.93648e+12 -4.22786e+12 -4.35091e+12 -4.54821e+12 -4.49181e+12 -3.95807e+12 -4.20561e+12 -4.33087e+12 -4.36808e+12 -4.31506e+12 -4.41248e+12 -4.74166e+12 -4.86768e+12 -4.9898e+12 -5.11123e+12 -5.60582e+12 -5.7273e+12 -5.84756e+12 -5.99159e+12 -6.15297e+12 -6.28049e+12 -6.36437e+12 -6.38832e+12 -6.38932e+12 -6.28294e+12 -6.36338e+12 -6.40238e+12 -6.30633e+12 -6.14049e+12 -5.48642e+12 -6.35233e+12 -6.78276e+12 -6.6281e+12 -6.67426e+12 -4.03739e+12 -4.05735e+12 -4.2236e+12 -6.5653e+12 -6.54046e+12 -6.45947e+12 -6.55698e+12 -6.48102e+12 -6.68069e+12 -6.68026e+12 -6.73194e+12 -6.53612e+12 -6.3796e+12 -6.6485e+12 -6.41904e+12 -6.34637e+12 -6.08053e+12 -5.8116e+12 -5.78979e+12 -5.70567e+12 -5.82289e+12 -5.71985e+12 -5.64993e+12 -5.54775e+12 -5.41974e+12 -5.26786e+12 -5.14218e+12 -5.01917e+12 -4.66002e+12 -4.51366e+12 -4.34441e+12 -4.15578e+12 -3.99937e+12 -3.97251e+12 -4.08165e+12 -4.22865e+12 -4.35807e+12 -4.51723e+12 -4.42167e+12 -4.32977e+12 -4.10895e+12 -4.19526e+12 -4.25022e+12 -4.28029e+12 -4.29745e+12 -4.50743e+12 -4.59598e+12 -4.70407e+12 -4.81106e+12 -4.91519e+12 -5.23101e+12 -5.3458e+12 -5.4541e+12 -5.56158e+12 -5.68022e+12 -5.80435e+12 -5.91921e+12 -6.02743e+12 -6.123e+12 -6.16609e+12 -6.21108e+12 -6.1546e+12 -6.2141e+12 -6.2018e+12 -6.29895e+12 -6.92992e+12 -6.67505e+12 -6.48954e+12 -6.55039e+12 -6.4703e+12 -4.00595e+12 -3.90362e+12 -6.47571e+12 -6.36066e+12 -6.22348e+12 -6.3604e+12 -6.25536e+12 -6.44652e+12 -6.42843e+12 -6.52177e+12 -6.41587e+12 -6.22706e+12 -6.21257e+12 -6.08252e+12 -5.90959e+12 -5.75085e+12 -5.6543e+12 -5.57952e+12 -5.52194e+12 -5.5178e+12 -5.43308e+12 -5.35677e+12 -5.26201e+12 -5.1507e+12 -5.02484e+12 -4.9069e+12 -4.78731e+12 -4.31784e+12 -4.17951e+12 -4.05967e+12 -4.00163e+12 -4.01862e+12 -4.09204e+12 -4.1941e+12 -4.28899e+12 -4.28106e+12 -4.24655e+12 -4.18183e+12 -4.10458e+12 -4.14148e+12 -4.17714e+12 -4.37608e+12 -4.4637e+12 -4.553e+12 -4.64764e+12 -4.74023e+12 -5.01639e+12 -5.11536e+12 -5.2103e+12 -5.30306e+12 -5.39889e+12 -5.49278e+12 -5.58054e+12 -5.67324e+12 -5.77362e+12 -5.8819e+12 -5.95361e+12 -6.02302e+12 -6.0323e+12 -6.08434e+12 -6.22572e+12 -6.34581e+12 -6.27606e+12 -6.24684e+12 -6.47821e+12 -6.55888e+12 -6.47739e+12 -6.43831e+12 -6.43196e+12 -6.32426e+12 -3.95393e+12 -3.87102e+12 -3.74701e+12 -3.83325e+12 -6.22467e+12 -6.29999e+12 -6.22964e+12 -6.02376e+12 -5.7148e+12 -6.14246e+12 -5.97746e+12 -5.95291e+12 -6.20648e+12 -6.15569e+12 -6.05475e+12 -6.29888e+12 -6.21601e+12 -6.09358e+12 -5.9185e+12 -5.85624e+12 -5.71286e+12 -5.60208e+12 -5.40935e+12 -5.34317e+12 -5.27877e+12 -5.23791e+12 -5.16329e+12 -5.08852e+12 -5.00431e+12 -4.9059e+12 -4.79658e+12 -4.68686e+12 -4.57261e+12 -4.4502e+12 -3.99765e+12 -3.97566e+12 -3.99748e+12 -4.0527e+12 -4.11788e+12 -4.136e+12 -4.13033e+12 -4.10367e+12 -4.06988e+12 -4.21351e+12 -4.25817e+12 -4.33073e+12 -4.41113e+12 -4.49339e+12 -4.8291e+12 -4.91371e+12 -4.9952e+12 -5.07465e+12 -5.15279e+12 -5.22385e+12 -5.28521e+12 -5.34395e+12 -5.40745e+12 -5.48901e+12 -5.63999e+12 -5.70782e+12 -5.94104e+12 -5.79153e+12 -5.8326e+12 -5.89729e+12 -5.94821e+12 -5.951e+12 -5.17228e+12 -6.73905e+12 -6.63953e+12 -6.25742e+12 -6.27657e+12 -6.06945e+12 -6.12358e+12 -3.76131e+12 -3.6356e+12 -6.05719e+12 -6.22627e+12 -6.35773e+12 -5.59349e+12 -5.6609e+12 -5.88484e+12 -5.79872e+12 -5.96807e+12 -5.86477e+12 -5.73453e+12 -5.59843e+12 -5.50512e+12 -5.50817e+12 -5.03141e+12 -4.98005e+12 -4.91423e+12 -4.84743e+12 -4.77085e+12 -4.68266e+12 -4.58588e+12 -4.48534e+12 -4.38031e+12 -4.27212e+12 -4.1634e+12 -4.06488e+12 -4.04731e+12 -4.07268e+12 -4.10682e+12 -4.1502e+12 -4.20467e+12 -4.27289e+12 -4.34574e+12 -4.5763e+12 -4.65667e+12 -4.73236e+12 -4.80365e+12 -4.87215e+12 -4.93764e+12 -4.99495e+12 -5.03956e+12 -5.07037e+12 -5.08872e+12 -5.09394e+12 -5.12755e+12 -5.26041e+12 -5.69385e+12 -5.59693e+12 -5.64174e+12 -5.67061e+12 -5.66745e+12 -5.76964e+12 -5.85114e+12 -6.43928e+12 -6.32353e+12 -5.99626e+12 -6.01773e+12 -5.84632e+12 -5.90857e+12 -3.62875e+12 -3.48691e+12 -3.51208e+12 -5.84258e+12 -5.79597e+12 -6.0351e+12 -6.07457e+12 -6.17496e+12 -6.5858e+12 -4.40014e+12 -5.27794e+12 -5.62276e+12 -5.52938e+12 -5.71516e+12 -5.6177e+12 -5.50731e+12 -5.3858e+12 -5.26764e+12 -5.40529e+12 -5.32247e+12 -5.23558e+12 -5.15648e+12 -5.09106e+12 -4.68628e+12 -4.62522e+12 -4.55624e+12 -4.47784e+12 -4.39181e+12 -4.3022e+12 -4.2109e+12 -4.12093e+12 -4.03705e+12 -3.96946e+12 -3.92881e+12 -3.92036e+12 -3.94058e+12 -3.97655e+12 -3.99935e+12 -4.00542e+12 -3.99758e+12 -3.98197e+12 -3.96948e+12 -3.97119e+12 -3.99734e+12 -4.03456e+12 -4.08207e+12 -4.13846e+12 -4.4192e+12 -4.4917e+12 -4.56095e+12 -4.626e+12 -4.68712e+12 -4.74458e+12 -4.79489e+12 -4.83397e+12 -4.85652e+12 -4.85416e+12 -4.81135e+12 -4.67836e+12 -4.19105e+12 -5.39929e+12 -5.55357e+12 -5.48528e+12 -5.4953e+12 -5.5708e+12 -5.27504e+12 -5.77011e+12 -5.99355e+12 -5.70759e+12 -5.77819e+12 -5.6216e+12 -5.69445e+12 -5.33666e+12 -3.31578e+12 -3.19919e+12 -3.36803e+12 -5.42375e+12 -5.62326e+12 -5.55645e+12 -5.77218e+12 -5.74736e+12 -5.47561e+12 -4.97874e+12 -5.19679e+12 -5.34368e+12 -5.29593e+12 -5.17109e+12 -5.44952e+12 -5.35852e+12 -5.25587e+12 -5.14416e+12 -5.18764e+12 -5.1111e+12 -5.03972e+12 -4.9711e+12 -4.9051e+12 -4.84793e+12 -4.79298e+12 -4.7432e+12 -4.41972e+12 -4.35813e+12 -4.28904e+12 -4.21379e+12 -4.13624e+12 -4.05928e+12 -3.98598e+12 -3.92154e+12 -3.87323e+12 -3.84682e+12 -3.84364e+12 -3.85724e+12 -3.87225e+12 -3.88135e+12 -3.88159e+12 -3.87617e+12 -3.87083e+12 -3.87263e+12 -3.88713e+12 -3.91695e+12 -3.957e+12 -4.2017e+12 -4.26691e+12 -4.33156e+12 -4.39429e+12 -4.45419e+12 -4.51059e+12 -4.56312e+12 -4.60999e+12 -4.64957e+12 -5.83178e+12 -5.63507e+12 -5.50817e+12 -5.47865e+12 -5.28994e+12 -5.30558e+12 -5.20087e+12 -5.48995e+12 -5.47788e+12 -5.63217e+12 -5.44747e+12 -5.54284e+12 -5.31015e+12 -5.40528e+12 -5.49971e+12 -5.15962e+12 -3.11508e+12 -2.89835e+12 -3.01514e+12 -5.219e+12 -5.13519e+12 -5.33109e+12 -5.49516e+12 -5.42354e+12 -5.44068e+12 -5.23337e+12 -4.93205e+12 -5.12274e+12 -5.00033e+12 -5.08382e+12 -4.9817e+12 -4.86445e+12 -5.03592e+12 -4.94676e+12 -4.88403e+12 -4.82684e+12 -4.77458e+12 -4.72163e+12 -4.66915e+12 -4.61863e+12 -4.57136e+12 -4.52548e+12 -4.4748e+12 -4.04946e+12 -3.98305e+12 -3.91811e+12 -3.85789e+12 -3.80715e+12 -3.77125e+12 -3.75305e+12 -3.7502e+12 -3.75503e+12 -3.76069e+12 -3.76322e+12 -3.76247e+12 -3.7615e+12 -3.76467e+12 -3.77606e+12 -3.79814e+12 -4.0055e+12 -4.0599e+12 -4.11742e+12 -4.17514e+12 -4.23139e+12 -4.28553e+12 -4.33714e+12 -4.38557e+12 -4.67807e+12 -4.68947e+12 -4.67175e+12 -4.58983e+12 -4.0313e+12 -5.52391e+12 -5.67046e+12 -5.46937e+12 -5.35948e+12 -5.31143e+12 -5.06197e+12 -4.99894e+12 -5.14633e+12 -5.33555e+12 -5.03698e+12 -5.15572e+12 -5.32574e+12 -5.05288e+12 -5.20613e+12 -5.08676e+12 -5.20758e+12 -5.0599e+12 -4.88495e+12 -4.94691e+12 -2.68757e+12 -2.82399e+12 -4.75918e+12 -4.9978e+12 -4.92756e+12 -4.82402e+12 -4.99464e+12 -5.23768e+12 -5.14238e+12 -4.99663e+12 -5.23183e+12 -5.08697e+12 -4.91267e+12 -4.92794e+12 -4.82227e+12 -4.77721e+12 -4.67332e+12 -4.53081e+12 -4.76762e+12 -4.69457e+12 -4.6397e+12 -4.60142e+12 -4.56684e+12 -4.53173e+12 -4.49264e+12 -4.44989e+12 -4.40749e+12 -4.36606e+12 -4.32441e+12 -4.279e+12 -4.22959e+12 -4.17514e+12 -4.11458e+12 -3.73173e+12 -3.69135e+12 -3.66381e+12 -3.64938e+12 -3.64447e+12 -3.64434e+12 -3.64529e+12 -3.64577e+12 -3.64666e+12 -3.65053e+12 -3.83107e+12 -3.87214e+12 -3.91917e+12 -3.96955e+12 -4.02096e+12 -4.07144e+12 -4.11996e+12 -4.16617e+12 -4.42965e+12 -4.4688e+12 -4.50217e+12 -4.52858e+12 -4.54627e+12 -4.5499e+12 -4.43779e+12 -4.80266e+12 -5.16878e+12 -5.25182e+12 -5.1909e+12 -5.13273e+12 -5.08899e+12 -4.77419e+12 -4.7929e+12 -4.90218e+12 -4.6464e+12 -4.84842e+12 -4.81858e+12 -4.97275e+12 -4.87902e+12 -4.77411e+12 -4.668e+12 -4.70686e+12 -2.49741e+12 -2.47034e+12 -2.64326e+12 -4.51112e+12 -4.70139e+12 -4.63071e+12 -4.87179e+12 -4.74071e+12 -4.86755e+12 -4.73805e+12 -4.60343e+12 -4.71167e+12 -4.61887e+12 -4.50188e+12 -4.6739e+12 -4.24782e+12 -4.0959e+12 -4.44285e+12 -4.40461e+12 -4.38042e+12 -4.3642e+12 -4.35179e+12 -4.33536e+12 -4.31279e+12 -4.28302e+12 -4.24806e+12 -4.21153e+12 -4.17512e+12 -4.13751e+12 -4.09683e+12 -4.05267e+12 -4.00406e+12 -3.95081e+12 -3.89432e+12 -3.83703e+12 -3.78166e+12 -3.6603e+12 -3.67802e+12 -3.7044e+12 -3.73869e+12 -3.77884e+12 -3.82268e+12 -3.86806e+12 -3.91318e+12 -3.95673e+12 -4.20977e+12 -4.25021e+12 -4.28682e+12 -4.31953e+12 -4.34849e+12 -4.37269e+12 -4.39042e+12 -4.37956e+12 -4.5879e+12 -4.69139e+12 -4.84543e+12 -4.91821e+12 -4.90977e+12 -4.87997e+12 -4.83677e+12 -4.42984e+12 -4.49554e+12 -3.91392e+12 -4.27977e+12 -4.57225e+12 -4.34068e+12 -4.58896e+12 -4.7412e+12 -4.51884e+12 -4.50481e+12 -4.61681e+12 -4.42962e+12 -4.45152e+12 -4.19112e+12 -2.32707e+12 -2.30163e+12 -4.25805e+12 -4.23037e+12 -4.46021e+12 -4.40725e+12 -4.51004e+12 -4.60267e+12 -4.45958e+12 -4.60822e+12 -4.50595e+12 -4.41296e+12 -4.46228e+12 -4.37487e+12 -4.31153e+12 -3.1616e+12 -4.02691e+12 -4.06273e+12 -4.0968e+12 -4.11931e+12 -4.1323e+12 -4.13604e+12 -4.12927e+12 -4.11337e+12 -4.08906e+12 -4.05904e+12 -4.02728e+12 -3.99498e+12 -3.96116e+12 -3.92442e+12 -3.88444e+12 -3.84092e+12 -3.79382e+12 -3.74424e+12 -3.69434e+12 -3.64713e+12 -3.60578e+12 -3.57316e+12 -3.55074e+12 -3.5377e+12 -3.53139e+12 -3.52887e+12 -3.52826e+12 -3.52917e+12 -3.53278e+12 -3.54096e+12 -3.55535e+12 -3.57674e+12 -3.60493e+12 -3.63882e+12 -3.67658e+12 -3.71629e+12 -3.99803e+12 -4.03671e+12 -4.07266e+12 -4.10569e+12 -4.13602e+12 -4.16435e+12 -4.19039e+12 -4.21385e+12 -4.23492e+12 -4.35544e+12 -4.4442e+12 -4.49734e+12 -4.58149e+12 -4.63625e+12 -4.64652e+12 -4.62243e+12 -4.55701e+12 -4.5056e+12 -3.80826e+12 -3.12013e+12 -3.90763e+12 -4.24296e+12 -4.39525e+12 -4.26604e+12 -4.3765e+12 -4.40901e+12 -4.21854e+12 -4.19391e+12 -3.90314e+12 -2.15954e+12 -1.97469e+12 -2.13548e+12 -3.97694e+12 -3.96957e+12 -4.20005e+12 -4.20217e+12 -4.34808e+12 -4.19392e+12 -4.10496e+12 -3.94749e+12 -4.3134e+12 -4.21801e+12 -4.15873e+12 -4.32062e+12 -4.23258e+12 -4.37907e+12 -4.57926e+12 -3.41732e+12 -3.64968e+12 -3.78859e+12 -3.86886e+12 -3.91336e+12 -3.93665e+12 -3.9447e+12 -3.94036e+12 -3.9266e+12 -3.90506e+12 -3.87877e+12 -3.85107e+12 -3.82238e+12 -3.79146e+12 -3.75789e+12 -3.72182e+12 -3.68278e+12 -3.64071e+12 -3.59683e+12 -3.55345e+12 -3.51328e+12 -3.47875e+12 -3.45168e+12 -3.4326e+12 -3.42063e+12 -3.414e+12 -3.41091e+12 -3.41047e+12 -3.41291e+12 -3.41923e+12 -3.43061e+12 -3.44778e+12 -3.47082e+12 -3.49908e+12 -3.53127e+12 -3.75623e+12 -3.79509e+12 -3.83201e+12 -3.86639e+12 -3.89803e+12 -3.927e+12 -3.95388e+12 -3.97989e+12 -4.00546e+12 -4.03057e+12 -4.05944e+12 -4.13548e+12 -4.2044e+12 -4.25239e+12 -4.28952e+12 -4.3439e+12 -4.38914e+12 -4.39918e+12 -4.35515e+12 -4.27495e+12 -4.12821e+12 -3.45682e+12 -2.47548e+12 -3.93822e+12 -4.15385e+12 -3.95437e+12 -3.94345e+12 -4.07928e+12 -4.43469e+12 -4.28322e+12 -3.98199e+12 -3.92513e+12 -3.55998e+12 -1.76719e+12 -1.76362e+12 -1.94803e+12 -3.34008e+12 -3.6756e+12 -3.66862e+12 -3.96637e+12 -3.98677e+12 -4.24999e+12 -4.38978e+12 -3.19585e+12 -3.87254e+12 -3.85772e+12 -4.10404e+12 -4.03837e+12 -3.90072e+12 -4.16085e+12 -4.33707e+12 -4.5779e+12 -2.27474e+12 -3.17914e+12 -3.47954e+12 -3.62508e+12 -3.70047e+12 -3.73945e+12 -3.75914e+12 -3.76485e+12 -3.75988e+12 -3.74692e+12 -3.72747e+12 -3.70458e+12 -3.68041e+12 -3.65437e+12 -3.62594e+12 -3.59555e+12 -3.56307e+12 -3.52778e+12 -3.48995e+12 -3.45113e+12 -3.4135e+12 -3.37919e+12 -3.35005e+12 -3.32722e+12 -3.31084e+12 -3.30016e+12 -3.29395e+12 -3.29127e+12 -3.29183e+12 -3.29602e+12 -3.30452e+12 -3.31793e+12 -3.33643e+12 -3.5657e+12 -3.60073e+12 -3.63502e+12 -3.66768e+12 -3.69812e+12 -3.72598e+12 -3.75122e+12 -3.77445e+12 -3.79705e+12 -3.82032e+12 -3.8447e+12 -3.8731e+12 -3.92458e+12 -4.0777e+12 -4.12147e+12 -4.15625e+12 -4.14326e+12 -4.07955e+12 -3.93275e+12 -4.13432e+12 -5.1403e+12 -4.55185e+12 -4.04052e+12 -3.5971e+12 -3.14712e+12 -4.75519e+12 -4.25185e+12 -4.07902e+12 -3.67715e+12 -3.60378e+12 -3.22193e+12 -3.14834e+12 -1.53363e+12 -2.97941e+12 -3.34081e+12 -3.35351e+12 -3.6837e+12 -3.70654e+12 -4.0759e+12 -4.28055e+12 -4.50212e+12 -3.40254e+12 -3.50487e+12 -3.85536e+12 -3.82533e+12 -3.69678e+12 -3.59937e+12 -3.3916e+12 -3.85635e+12 -2.89954e+12 -3.29162e+12 -3.43096e+12 -3.50774e+12 -3.55065e+12 -3.37478e+12 -3.34078e+12 -3.30654e+12 -3.27388e+12 -3.24452e+12 -3.21983e+12 -3.20052e+12 -3.18649e+12 -3.17714e+12 -3.17179e+12 -3.17003e+12 -3.17185e+12 -3.35966e+12 -3.3867e+12 -3.41618e+12 -3.44658e+12 -3.47654e+12 -3.50512e+12 -3.53173e+12 -3.55605e+12 -3.57797e+12 -3.59784e+12 -3.61674e+12 -3.63651e+12 -3.97719e+12 -4.01693e+12 -4.0472e+12 -3.93938e+12 -3.94275e+12 -3.95262e+12 -4.00243e+12 -4.17902e+12 -4.15956e+12 -3.54288e+12 -4.28526e+12 -3.89955e+12 -2.88083e+12 -4.78009e+12 -4.56399e+12 -4.1407e+12 -3.93243e+12 -3.78417e+12 -3.42525e+12 -3.31005e+12 -2.77037e+12 -2.67701e+12 -2.17103e+12 -1.2694e+12 -980651000000.0 -1.20137e+12 -1.38909e+12 -1.56919e+12 -2.60012e+12 -2.99127e+12 -2.99588e+12 -3.3844e+12 -3.41579e+12 -3.7644e+12 -3.88173e+12 -4.02963e+12 -2.49264e+12 -3.03363e+12 -3.60599e+12 -3.71748e+12 -3.83357e+12 -3.94936e+12 -3.20557e+12 -2.47191e+12 -3.80036e+12 -3.5806e+12 -3.23763e+12 -3.30314e+12 -3.57482e+12 -3.58686e+12 -3.58894e+12 -3.58344e+12 -3.57136e+12 -3.55415e+12 -3.53447e+12 -3.51314e+12 -3.48943e+12 -3.4637e+12 -3.43638e+12 -3.40689e+12 -3.17755e+12 -3.18753e+12 -3.20196e+12 -3.2206e+12 -3.24283e+12 -3.26759e+12 -3.29356e+12 -3.31944e+12 -3.34424e+12 -3.36728e+12 -3.38821e+12 -3.40697e+12 -3.65846e+12 -3.68391e+12 -3.72039e+12 -3.75928e+12 -3.7905e+12 -3.81322e+12 -3.83368e+12 -3.85894e+12 -3.90033e+12 -3.69189e+12 -3.71454e+12 -3.82214e+12 -3.37012e+12 -2.51225e+12 -4.92768e+12 -4.25598e+12 -3.63089e+12 -4.3834e+12 -4.34857e+12 -3.69239e+12 -3.55245e+12 -3.01818e+12 -2.88515e+12 -2.23332e+12 -1.66084e+12 -646249000000.0 -1.00533e+12 -1.88742e+12 -2.22284e+12 -2.6092e+12 -2.61916e+12 -3.01579e+12 -3.04388e+12 -3.45988e+12 -3.49016e+12 -4.017e+12 -2.27728e+12 -2.81898e+12 -3.26629e+12 -3.49892e+12 -3.70952e+12 -3.89987e+12 -4.38198e+12 -3.34268e+12 -3.37242e+12 -3.39344e+12 -3.40766e+12 -3.41471e+12 -3.41499e+12 -3.40952e+12 -3.39848e+12 -3.38374e+12 -3.36715e+12 -3.34834e+12 -3.32701e+12 -3.30394e+12 -3.27924e+12 -3.25231e+12 -3.22314e+12 -3.19275e+12 -3.16264e+12 -3.13438e+12 -3.10932e+12 -3.08838e+12 -3.07198e+12 -3.05995e+12 -3.05196e+12 -3.0477e+12 -3.04701e+12 -3.04996e+12 -3.05675e+12 -3.06746e+12 -3.08193e+12 -3.09969e+12 -3.11994e+12 -3.14161e+12 -3.16356e+12 -3.18478e+12 -3.20455e+12 -3.42378e+12 -3.43928e+12 -3.4551e+12 -3.4732e+12 -3.49458e+12 -3.52133e+12 -3.54952e+12 -3.57313e+12 -3.58916e+12 -3.6011e+12 -3.61232e+12 -3.62871e+12 -3.66073e+12 -3.68907e+12 -3.54418e+12 -2.35865e+12 -4.38241e+12 -4.27157e+12 -3.75674e+12 -2.93509e+12 -3.5857e+12 -3.83373e+12 -3.80422e+12 -3.27024e+12 -3.15208e+12 -2.56168e+12 -2.37661e+12 -1.69165e+12 -1.66402e+12 -1.11142e+12 -1.45613e+12 -814648000000.0 -1.58003e+12 -1.48412e+12 -2.20754e+12 -2.2111e+12 -2.63421e+12 -2.6605e+12 -3.0556e+12 -3.03444e+12 -3.43306e+12 -3.20679e+12 -2.14529e+12 -3.17372e+12 -3.46906e+12 -3.72056e+12 -3.9075e+12 -5.3052e+12 -3.39621e+12 -3.57624e+12 -3.38702e+12 -3.19502e+12 -3.19179e+12 -3.20159e+12 -3.21413e+12 -3.22689e+12 -3.23704e+12 -3.24193e+12 -3.24203e+12 -3.23728e+12 -3.22789e+12 -3.21601e+12 -3.20217e+12 -3.18553e+12 -3.16647e+12 -3.14584e+12 -3.12346e+12 -3.09892e+12 -3.0726e+12 -3.04561e+12 -3.01933e+12 -2.99501e+12 -2.97364e+12 -2.95582e+12 -2.94178e+12 -2.93152e+12 -2.92485e+12 -2.92165e+12 -2.92192e+12 -2.92568e+12 -2.93297e+12 -2.94363e+12 -2.95727e+12 -2.97328e+12 -2.99082e+12 -3.22239e+12 -3.23816e+12 -3.25208e+12 -3.26453e+12 -3.27654e+12 -3.29013e+12 -3.3068e+12 -3.32682e+12 -3.34715e+12 -3.36386e+12 -3.37391e+12 -3.37832e+12 -3.38034e+12 -3.37945e+12 -3.38221e+12 -3.40156e+12 -3.41919e+12 -3.42817e+12 -3.46672e+12 -3.33286e+12 -3.68307e+12 -3.61953e+12 -3.32987e+12 -3.32344e+12 -3.38159e+12 -3.35464e+12 -2.86125e+12 -2.72908e+12 -2.01857e+12 -1.16389e+12 -1.11408e+12 -2.35961e+12 -2.01051e+12 -2.205e+12 -1.21841e+12 -637962000000.0 -1.06417e+12 -1.31696e+12 -1.21416e+12 -1.79581e+12 -1.76493e+12 -2.22928e+12 -2.25981e+12 -2.67409e+12 -2.65266e+12 -2.91623e+12 -2.63656e+12 -1.98485e+12 -2.75927e+12 -3.14597e+12 -3.77362e+12 -4.03075e+12 -3.86082e+12 -3.24941e+12 -3.23405e+12 -3.13071e+12 -3.04216e+12 -3.03226e+12 -3.03578e+12 -3.0451e+12 -3.05644e+12 -3.06518e+12 -3.06962e+12 -3.07034e+12 -3.06672e+12 -3.05973e+12 -3.05075e+12 -3.03903e+12 -3.02422e+12 -3.00736e+12 -2.98901e+12 -2.96879e+12 -2.94656e+12 -2.92302e+12 -2.89931e+12 -2.87655e+12 -2.85569e+12 -2.83741e+12 -2.82214e+12 -2.81012e+12 -2.80138e+12 -2.79587e+12 -2.79357e+12 -2.79448e+12 -2.79857e+12 -2.8057e+12 -2.81556e+12 -3.00891e+12 -3.02664e+12 -3.04326e+12 -3.05825e+12 -3.07128e+12 -3.08248e+12 -3.09219e+12 -3.10095e+12 -3.11016e+12 -3.12153e+12 -3.13553e+12 -3.15e+12 -3.1617e+12 -3.16792e+12 -3.1671e+12 -3.16189e+12 -3.15407e+12 -3.1392e+12 -3.12094e+12 -3.12813e+12 -3.14573e+12 -3.1659e+12 -3.18669e+12 -3.07752e+12 -3.17399e+12 -3.17324e+12 -3.28739e+12 -2.97764e+12 -2.98636e+12 -2.94783e+12 -2.45622e+12 -2.27964e+12 -1.26656e+12 -2.58012e+12 -1.7573e+12 -1.72421e+12 -968593000000.0 -735000000000.0 -279842000000.0 -464361000000.0 -817234000000.0 -974907000000.0 -1.10143e+12 -1.25782e+12 -1.77996e+12 -1.83155e+12 -2.29394e+12 -2.30289e+12 -2.56813e+12 -2.38502e+12 -1.83059e+12 -2.23706e+12 -2.74353e+12 -3.49124e+12 -3.63294e+12 -2.81975e+12 -3.26502e+12 -3.2144e+12 -2.98003e+12 -2.94798e+12 -2.90008e+12 -2.863e+12 -2.85778e+12 -2.86313e+12 -2.87383e+12 -2.88509e+12 -2.89334e+12 -2.89855e+12 -2.90038e+12 -2.89842e+12 -2.89408e+12 -2.88729e+12 -2.87709e+12 -2.86414e+12 -2.84954e+12 -2.83332e+12 -2.81511e+12 -2.79516e+12 -2.77438e+12 -2.75377e+12 -2.73417e+12 -2.71624e+12 -2.70054e+12 -2.68741e+12 -2.67707e+12 -2.66959e+12 -2.82763e+12 -2.84124e+12 -2.85559e+12 -2.86985e+12 -2.88334e+12 -2.89553e+12 -2.90602e+12 -2.9147e+12 -2.92185e+12 -2.92783e+12 -2.93334e+12 -2.93966e+12 -2.94778e+12 -2.95693e+12 -2.96451e+12 -2.96797e+12 -2.96539e+12 -2.95591e+12 -2.94304e+12 -2.92553e+12 -2.89259e+12 -2.83794e+12 -2.83594e+12 -2.84405e+12 -2.87361e+12 -2.86628e+12 -2.71954e+12 -3.0364e+12 -2.79873e+12 -2.91616e+12 -2.9644e+12 -2.63523e+12 -2.62147e+12 -2.56459e+12 -2.20439e+12 -2.06093e+12 -1.76198e+12 -2.44593e+12 -2.66271e+12 -2.09023e+12 -2.00533e+12 -1.60558e+12 -1.30221e+12 -527134000000.0 -82982300000.0 -569395000000.0 -734401000000.0 -857251000000.0 -809205000000.0 -1.25303e+12 -1.34304e+12 -1.89875e+12 -1.96369e+12 -2.26886e+12 -2.17039e+12 -1.98051e+12 -2.07729e+12 -2.34745e+12 -2.75065e+12 -3.18577e+12 -3.46813e+12 -2.23434e+12 -2.72792e+12 -2.82338e+12 -2.82214e+12 -2.73271e+12 -2.71308e+12 -2.6939e+12 -2.67985e+12 -2.6812e+12 -2.69031e+12 -2.70279e+12 -2.66499e+12 -2.66325e+12 -2.66437e+12 -2.66823e+12 -2.67456e+12 -2.68296e+12 -2.69288e+12 -2.70365e+12 -2.71453e+12 -2.72487e+12 -2.7342e+12 -2.74216e+12 -2.74846e+12 -2.75318e+12 -2.75665e+12 -2.75919e+12 -2.76138e+12 -2.69842e+12 -2.64243e+12 -2.50443e+12 -2.48861e+12 -2.51049e+12 -2.54689e+12 -2.56297e+12 -2.86335e+12 -2.68423e+12 -2.48799e+12 -2.57865e+12 -2.62335e+12 -2.30949e+12 -2.27929e+12 -1.88392e+12 -1.96609e+12 -2.02183e+12 -1.50319e+12 -1.47237e+12 -1.11186e+12 -1.22083e+12 -906575000000.0 -326486000000.0 -284990000000.0 -486493000000.0 -424802000000.0 -624606000000.0 -404978000000.0 -558419000000.0 -763023000000.0 -1.45644e+12 -1.57733e+12 -2.0137e+12 -2.08734e+12 -2.27029e+12 -1.92637e+12 -1.84368e+12 -2.01709e+12 -2.73915e+12 -3.22128e+12 -1.78453e+12 -2.27305e+12 -2.43458e+12 -2.51425e+12 -2.53614e+12 -2.51043e+12 -2.50524e+12 -2.71429e+12 -2.72307e+12 -2.72935e+12 -2.73233e+12 -2.73249e+12 -2.73038e+12 -2.725e+12 -2.71626e+12 -2.70539e+12 -2.69297e+12 -2.67866e+12 -2.66237e+12 -2.64473e+12 -2.62665e+12 -2.60887e+12 -2.592e+12 -2.57657e+12 -2.56302e+12 -2.55166e+12 -2.54267e+12 -2.53611e+12 -2.53204e+12 -2.53045e+12 -2.53128e+12 -2.53433e+12 -2.53929e+12 -2.54572e+12 -2.55306e+12 -2.56068e+12 -2.56793e+12 -2.57437e+12 -2.57971e+12 -2.58364e+12 -2.76401e+12 -2.76744e+12 -2.77061e+12 -2.77149e+12 -2.76859e+12 -2.75942e+12 -2.74348e+12 -2.72495e+12 -2.00858e+12 -2.09456e+12 -2.15249e+12 -2.23619e+12 -2.43294e+12 -2.58924e+12 -2.36345e+12 -2.15351e+12 -2.25973e+12 -2.30454e+12 -2.00307e+12 -1.97495e+12 -1.9308e+12 -1.6496e+12 -1.81307e+12 -1.46541e+12 -967388000000.0 -744160000000.0 -858037000000.0 -409865000000.0 -598267000000.0 -110408000000.0 -235847000000.0 -179174000000.0 -341904000000.0 -556800000000.0 -356905000000.0 -930702000000.0 -1.16971e+12 -1.67004e+12 -1.77553e+12 -1.93821e+12 -2.86676e+12 -3.10674e+12 -2.92005e+12 -1.37238e+12 -1.85827e+12 -2.50014e+12 -2.49919e+12 -2.5068e+12 -2.51928e+12 -2.53309e+12 -2.54493e+12 -2.55469e+12 -2.56197e+12 -2.56639e+12 -2.56863e+12 -2.56804e+12 -2.5638e+12 -2.55682e+12 -2.5481e+12 -2.53759e+12 -2.52499e+12 -2.51063e+12 -2.49531e+12 -2.47977e+12 -2.46451e+12 -2.45e+12 -2.43668e+12 -2.42491e+12 -2.41492e+12 -2.40686e+12 -2.40082e+12 -2.39685e+12 -2.39493e+12 -2.39496e+12 -2.39669e+12 -2.39979e+12 -2.40383e+12 -2.40827e+12 -2.58601e+12 -2.58705e+12 -2.587e+12 -2.58598e+12 -2.58426e+12 -2.58239e+12 -2.58052e+12 -2.57762e+12 -2.57276e+12 -2.56504e+12 -2.55179e+12 -2.53346e+12 -2.5137e+12 -2.48144e+12 -2.3998e+12 -1.79969e+12 -1.9674e+12 -2.17223e+12 -2.28911e+12 -1.98117e+12 -1.89964e+12 -1.98113e+12 -2.00908e+12 -1.70354e+12 -1.67777e+12 -1.64741e+12 -1.29957e+12 -1.35684e+12 -880753000000.0 -536292000000.0 -519054000000.0 -188434000000.0 -134085000000.0 -195258000000.0 -267321000000.0 -526603000000.0 -844380000000.0 -1.2787e+12 -1.39078e+12 -1.57427e+12 -2.19847e+12 -2.40086e+12 -2.18348e+12 -2.39397e+12 -2.06127e+12 -2.06763e+12 -2.19696e+12 -2.27157e+12 -2.30339e+12 -2.30535e+12 -2.31021e+12 -2.3151e+12 -2.3228e+12 -2.33481e+12 -2.34998e+12 -2.3646e+12 -2.37718e+12 -2.38796e+12 -2.39632e+12 -2.4026e+12 -2.40653e+12 -2.40693e+12 -2.40403e+12 -2.39903e+12 -2.39225e+12 -2.38332e+12 -2.37233e+12 -2.35995e+12 -2.3469e+12 -2.33368e+12 -2.32066e+12 -2.30822e+12 -2.29665e+12 -2.28624e+12 -2.27717e+12 -2.26957e+12 -2.26357e+12 -2.25922e+12 -2.25649e+12 -2.41251e+12 -2.41608e+12 -2.41871e+12 -2.42019e+12 -2.42025e+12 -2.41891e+12 -2.4164e+12 -2.41275e+12 -2.40782e+12 -2.4017e+12 -2.39479e+12 -2.38709e+12 -2.37848e+12 -2.36912e+12 -2.35832e+12 -2.34476e+12 -2.33111e+12 -2.32431e+12 -2.32493e+12 -2.34631e+12 -1.55987e+12 -1.71334e+12 -1.75436e+12 -1.92954e+12 -2.01779e+12 -1.68723e+12 -1.69735e+12 -1.7252e+12 -1.72311e+12 -1.40107e+12 -1.37501e+12 -1.33325e+12 -699492000000.0 -803817000000.0 -198665000000.0 -282900000000.0 -187046000000.0 -123225000000.0 -196656000000.0 -464375000000.0 -912873000000.0 -965992000000.0 -1.21364e+12 -1.74738e+12 -1.84454e+12 -1.69542e+12 -2.10192e+12 -1.64282e+12 -1.06751e+12 -1.50709e+12 -1.73305e+12 -1.89025e+12 -1.99594e+12 -2.06263e+12 -2.09693e+12 -2.11171e+12 -2.12412e+12 -2.13589e+12 -2.14885e+12 -2.16489e+12 -2.18183e+12 -2.19708e+12 -2.21097e+12 -2.22292e+12 -2.23286e+12 -2.24095e+12 -2.24591e+12 -2.24725e+12 -2.24605e+12 -2.24294e+12 -2.23767e+12 -2.23009e+12 -2.22076e+12 -2.21039e+12 -2.19952e+12 -2.18847e+12 -2.17748e+12 -2.16676e+12 -2.25523e+12 -2.25519e+12 -2.25603e+12 -2.25734e+12 -2.25861e+12 -2.25935e+12 -2.25924e+12 -2.25814e+12 -2.25586e+12 -2.2522e+12 -2.24727e+12 -2.24116e+12 -2.23365e+12 -2.22446e+12 -2.21362e+12 -2.20135e+12 -2.18793e+12 -2.17382e+12 -2.15963e+12 -2.14638e+12 -2.13575e+12 -2.13244e+12 -2.15048e+12 -2.21756e+12 -2.33592e+12 -1.27336e+12 -1.30392e+12 -1.41516e+12 -1.58429e+12 -1.73632e+12 -1.83431e+12 -1.59355e+12 -1.48829e+12 -1.45885e+12 -1.42493e+12 -1.11391e+12 -1.06608e+12 -921793000000.0 -197759000000.0 -120904000000.0 -121971000000.0 -186839000000.0 -538329000000.0 -672837000000.0 -904192000000.0 -1.39304e+12 -1.4954e+12 -1.4461e+12 -1.93185e+12 -1.02754e+12 -1.27462e+12 -1.32426e+12 -1.48176e+12 -1.62292e+12 -1.73431e+12 -1.81525e+12 -1.87072e+12 -1.90419e+12 -1.92573e+12 -1.94377e+12 -1.95994e+12 -1.97729e+12 -1.99643e+12 -2.01445e+12 -2.03122e+12 -2.04652e+12 -2.15653e+12 -2.14698e+12 -2.13829e+12 -2.13064e+12 -2.12417e+12 -2.11897e+12 -2.11497e+12 -2.11199e+12 -2.10977e+12 -2.10801e+12 -2.10631e+12 -2.10421e+12 -2.10136e+12 -2.09759e+12 -2.09282e+12 -2.08683e+12 -2.07954e+12 -2.07104e+12 -2.0612e+12 -2.04959e+12 -2.03593e+12 -2.0202e+12 -2.00254e+12 -1.94237e+12 -1.9256e+12 -1.91803e+12 -1.92542e+12 -1.96932e+12 -2.06717e+12 -2.19053e+12 -998762000000.0 -689540000000.0 -1.31905e+12 -1.4627e+12 -1.5893e+12 -1.59447e+12 -1.46642e+12 -1.14186e+12 -1.11603e+12 -483444000000.0 -232093000000.0 -110773000000.0 -308282000000.0 -587791000000.0 -1.10312e+12 -1.20625e+12 -1.67282e+12 -1.20142e+12 -1.2551e+12 -1.20738e+12 -1.27775e+12 -1.38607e+12 -1.48856e+12 -1.573e+12 -1.63916e+12 -1.68659e+12 -1.71981e+12 -1.74522e+12 -2.05984e+12 -2.0717e+12 -2.08109e+12 -2.08681e+12 -2.08947e+12 -2.09001e+12 -2.08832e+12 -2.08416e+12 -2.07791e+12 -2.07034e+12 -2.06206e+12 -2.05335e+12 -2.04435e+12 -2.03512e+12 -2.02572e+12 -2.01628e+12 -2.00699e+12 -1.9981e+12 -1.98985e+12 -1.98245e+12 -1.97595e+12 -1.97025e+12 -1.96515e+12 -1.96041e+12 -1.95574e+12 -1.95077e+12 -1.94515e+12 -1.93865e+12 -1.93123e+12 -1.98339e+12 -1.96289e+12 -1.70742e+12 -1.74081e+12 -1.82917e+12 -1.96083e+12 -349588000000.0 -1.03158e+12 -1.26295e+12 -1.36696e+12 -1.44006e+12 -1.31305e+12 -1.24018e+12 -786912000000.0 -860778000000.0 -811713000000.0 -829795000000.0 -931888000000.0 -1.2405e+12 -1.35636e+12 -1.05532e+12 -1.1204e+12 -961659000000.0 -1.11754e+12 -1.76637e+12 -1.78651e+12 -1.80821e+12 -1.829e+12 -1.84831e+12 -1.86697e+12 -1.88388e+12 -1.89923e+12 -1.91277e+12 -1.92294e+12 -1.92964e+12 -1.93383e+12 -1.93565e+12 -1.93481e+12 -1.9316e+12 -1.92683e+12 -1.92124e+12 -1.91519e+12 -1.90869e+12 -1.9016e+12 -1.89375e+12 -1.8851e+12 -1.87577e+12 -1.86606e+12 -1.85635e+12 -1.84701e+12 -1.83824e+12 -1.83005e+12 -1.82226e+12 -1.81467e+12 -1.80707e+12 -1.92278e+12 -1.91312e+12 -1.90224e+12 -1.89013e+12 -1.87642e+12 -1.86064e+12 -1.84251e+12 -1.82189e+12 -1.79883e+12 -1.77305e+12 -1.74397e+12 -1.71404e+12 -1.68892e+12 -1.68169e+12 -1.50492e+12 -1.28567e+12 -1.24284e+12 -1.28378e+12 -1.3557e+12 -1.16631e+12 -1.25422e+12 -1.12375e+12 -877967000000.0 -742962000000.0 -574847000000.0 -140188000000.0 -219773000000.0 -494875000000.0 -626481000000.0 -1.01247e+12 -1.07103e+12 -988289000000.0 -1.22081e+12 -1.17714e+12 -1.26162e+12 -1.34109e+12 -1.40981e+12 -1.46443e+12 -1.50661e+12 -1.54033e+12 -1.56753e+12 -1.5915e+12 -1.61601e+12 -1.64032e+12 -1.66249e+12 -1.68413e+12 -1.7048e+12 -1.72367e+12 -1.74107e+12 -1.75577e+12 -1.76683e+12 -1.77482e+12 -1.78011e+12 -1.78245e+12 -1.7821e+12 -1.77996e+12 -1.77699e+12 -1.77374e+12 -1.77021e+12 -1.76598e+12 -1.76054e+12 -1.75349e+12 -1.74478e+12 -1.73472e+12 -1.72385e+12 -1.79919e+12 -1.79074e+12 -1.78147e+12 -1.77127e+12 -1.76016e+12 -1.74802e+12 -1.73472e+12 -1.72029e+12 -1.70451e+12 -1.68688e+12 -1.66702e+12 -1.64463e+12 -1.61929e+12 -1.59053e+12 -1.55641e+12 -1.51597e+12 -1.46785e+12 -1.41119e+12 -1.45803e+12 -1.44245e+12 -1.42921e+12 -1.46016e+12 -1.77474e+12 -1.03609e+12 -1.10244e+12 -1.17157e+12 -1.18674e+12 -997684000000.0 -1.05933e+12 -791036000000.0 -612526000000.0 -377869000000.0 -128837000000.0 -321560000000.0 -765106000000.0 -821067000000.0 -835004000000.0 -930742000000.0 -607273000000.0 -985800000000.0 -1.00113e+12 -1.05366e+12 -1.12086e+12 -1.18606e+12 -1.24298e+12 -1.28999e+12 -1.32987e+12 -1.36296e+12 -1.39143e+12 -1.41936e+12 -1.44763e+12 -1.47352e+12 -1.49782e+12 -1.52198e+12 -1.54485e+12 -1.56611e+12 -1.58529e+12 -1.60109e+12 -1.61331e+12 -1.62221e+12 -1.62763e+12 -1.62986e+12 -1.62994e+12 -1.71277e+12 -1.70193e+12 -1.69145e+12 -1.68118e+12 -1.67093e+12 -1.66048e+12 -1.64968e+12 -1.63833e+12 -1.62618e+12 -1.61312e+12 -1.59917e+12 -1.58432e+12 -1.56846e+12 -1.55156e+12 -1.53362e+12 -1.51425e+12 -1.4929e+12 -1.46923e+12 -1.4428e+12 -1.41297e+12 -1.37871e+12 -1.33667e+12 -1.2834e+12 -1.20011e+12 -1.29319e+12 -1.19507e+12 -1.12181e+12 -961543000000.0 -728549000000.0 -964092000000.0 -1.07233e+12 -965240000000.0 -846832000000.0 -860225000000.0 -540925000000.0 -595515000000.0 -485922000000.0 -578709000000.0 -657984000000.0 -721108000000.0 -787858000000.0 -814508000000.0 -802859000000.0 -854968000000.0 -909386000000.0 -969218000000.0 -1.02515e+12 -1.07375e+12 -1.11646e+12 -1.15338e+12 -1.18569e+12 -1.21742e+12 -1.24958e+12 -1.2801e+12 -1.3081e+12 -1.62922e+12 -1.62863e+12 -1.62833e+12 -1.62778e+12 -1.62585e+12 -1.6215e+12 -1.61428e+12 -1.60441e+12 -1.59264e+12 -1.57993e+12 -1.56711e+12 -1.55452e+12 -1.542e+12 -1.52927e+12 -1.51615e+12 -1.50247e+12 -1.48815e+12 -1.47302e+12 -1.45698e+12 -1.44001e+12 -1.4222e+12 -1.40354e+12 -1.38399e+12 -1.36359e+12 -1.34227e+12 -1.31952e+12 -1.15221e+12 -1.05689e+12 -988921000000.0 -857641000000.0 -411943000000.0 -1.49754e+12 -1.199e+12 -758904000000.0 -932629000000.0 -848390000000.0 -811070000000.0 -528105000000.0 -472168000000.0 -231061000000.0 -217707000000.0 -346499000000.0 -444935000000.0 -647638000000.0 -826136000000.0 -613974000000.0 -631720000000.0 -698757000000.0 -759049000000.0 -812516000000.0 -860205000000.0 -1.33535e+12 -1.36207e+12 -1.38746e+12 -1.41124e+12 -1.43228e+12 -1.44949e+12 -1.4625e+12 -1.47105e+12 -1.4756e+12 -1.47733e+12 -1.47804e+12 -1.47943e+12 -1.48222e+12 -1.48596e+12 -1.48906e+12 -1.48912e+12 -1.48469e+12 -1.47572e+12 -1.46325e+12 -1.4488e+12 -1.43388e+12 -1.41932e+12 -1.40476e+12 -1.38982e+12 -1.37421e+12 -1.35779e+12 -1.34049e+12 -1.32228e+12 -1.30309e+12 -1.29483e+12 -1.26791e+12 -1.23809e+12 -1.20467e+12 -1.16628e+12 -1.11965e+12 -1.05755e+12 -925552000000.0 -859342000000.0 -724994000000.0 -469306000000.0 -1.12147e+12 -511312000000.0 -789375000000.0 -659735000000.0 -807591000000.0 -655422000000.0 -672506000000.0 -687901000000.0 -301364000000.0 -111523000000.0 -106193000000.0 -504405000000.0 -534402000000.0 -606696000000.0 -601049000000.0 -902492000000.0 -940751000000.0 -975022000000.0 -1.00871e+12 -1.04524e+12 -1.08132e+12 -1.11465e+12 -1.14552e+12 -1.17496e+12 -1.2038e+12 -1.23264e+12 -1.25987e+12 -1.28338e+12 -1.30153e+12 -1.31345e+12 -1.32033e+12 -1.32317e+12 -1.32411e+12 -1.32589e+12 -1.33071e+12 -1.33882e+12 -1.34847e+12 -1.35585e+12 -1.35659e+12 -1.34968e+12 -1.33669e+12 -1.31999e+12 -1.30236e+12 -1.28584e+12 -1.26949e+12 -1.28293e+12 -1.26191e+12 -1.24015e+12 -1.21765e+12 -1.19447e+12 -1.17076e+12 -1.14635e+12 -1.12069e+12 -1.09329e+12 -1.0638e+12 -1.03144e+12 -995709000000.0 -955255000000.0 -902105000000.0 -1.00246e+12 -931091000000.0 -517611000000.0 -285498000000.0 -567996000000.0 -631180000000.0 -499370000000.0 -527045000000.0 -375482000000.0 -101536000000.0 -329215000000.0 -392006000000.0 -412523000000.0 -435550000000.0 -520997000000.0 -488793000000.0 -553615000000.0 -607718000000.0 -650566000000.0 -689785000000.0 -726681000000.0 -761121000000.0 -794055000000.0 -831490000000.0 -874877000000.0 -916266000000.0 -953366000000.0 -985548000000.0 -1.0144e+12 -1.04677e+12 -1.08208e+12 -1.11457e+12 -1.14016e+12 -1.15575e+12 -1.16485e+12 -1.16906e+12 -1.16918e+12 -1.16884e+12 -1.17256e+12 -1.18375e+12 -1.20122e+12 -1.25262e+12 -1.2348e+12 -1.21583e+12 -1.19564e+12 -1.17428e+12 -1.1518e+12 -1.12824e+12 -1.10374e+12 -1.07851e+12 -1.0527e+12 -1.0264e+12 -999802000000.0 -973091000000.0 -946079000000.0 -918236000000.0 -889062000000.0 -857893000000.0 -823864000000.0 -787375000000.0 -742793000000.0 -833361000000.0 -781462000000.0 -729996000000.0 -615898000000.0 -440662000000.0 -325748000000.0 -312432000000.0 -393450000000.0 -568868000000.0 -640891000000.0 -379670000000.0 -157423000000.0 -239790000000.0 -181982000000.0 -242390000000.0 -234071000000.0 -430112000000.0 -391189000000.0 -356607000000.0 -407392000000.0 -452910000000.0 -478299000000.0 -513279000000.0 -546567000000.0 -574462000000.0 -609823000000.0 -651957000000.0 -709372000000.0 -760180000000.0 -797818000000.0 -822172000000.0 -850261000000.0 -892886000000.0 -1.21912e+12 -1.23049e+12 -1.22814e+12 -1.21495e+12 -1.19477e+12 -1.17255e+12 -1.15395e+12 -1.13609e+12 -1.11767e+12 -1.098e+12 -1.07676e+12 -1.05387e+12 -1.02939e+12 -1.00348e+12 -976305000000.0 -948049000000.0 -918970000000.0 -889378000000.0 -859494000000.0 -829533000000.0 -799834000000.0 -770628000000.0 -741777000000.0 -712816000000.0 -683092000000.0 -651202000000.0 -615883000000.0 -575623000000.0 -656635000000.0 -625996000000.0 -582456000000.0 -509903000000.0 -386520000000.0 -696571000000.0 -418532000000.0 -201354000000.0 -212080000000.0 -460025000000.0 -458923000000.0 -219216000000.0 -98819900000.0 -85947300000.0 -75856500000.0 -257863000000.0 -264503000000.0 -257297000000.0 -248422000000.0 -222843000000.0 -253892000000.0 -301506000000.0 -302736000000.0 -337601000000.0 -350568000000.0 -941166000000.0 -980081000000.0 -999495000000.0 -1.01023e+12 -1.01561e+12 -1.01633e+12 -1.01137e+12 -1.00849e+12 -1.0165e+12 -1.04241e+12 -1.07495e+12 -1.10247e+12 -1.11462e+12 -1.10237e+12 -1.07626e+12 -1.04414e+12 -1.02318e+12 -1.00425e+12 -984830000000.0 -963818000000.0 -940724000000.0 -915403000000.0 -887941000000.0 -858564000000.0 -827564000000.0 -795247000000.0 -761941000000.0 -472553000000.0 -450351000000.0 -430638000000.0 -378218000000.0 -317328000000.0 -467905000000.0 -319425000000.0 -229146000000.0 -304737000000.0 -102213000000.0 -87274000000.0 -333297000000.0 -304012000000.0 -70455100000.0 -51398300000.0 -85440900000.0 -87734600000.0 -90311200000.0 -88387100000.0 -381013000000.0 -420444000000.0 -467058000000.0 -564863000000.0 -622619000000.0 -633404000000.0 -647034000000.0 -681605000000.0 -749953000000.0 -825680000000.0 -848167000000.0 -858483000000.0 -863777000000.0 -865142000000.0 -861045000000.0 -843959000000.0 -835216000000.0 -861165000000.0 -916101000000.0 -969029000000.0 -1.00011e+12 -1.01273e+12 -973573000000.0 -915472000000.0 -892192000000.0 -873096000000.0 -853665000000.0 -832140000000.0 -728046000000.0 -693975000000.0 -660073000000.0 -626725000000.0 -594410000000.0 -563475000000.0 -533933000000.0 -505410000000.0 -476891000000.0 -444962000000.0 -402769000000.0 -263325000000.0 -201462000000.0 -146091000000.0 -182447000000.0 -173765000000.0 -25093100000.0 -100321000000.0 -91183100000.0 -88955400000.0 -79645200000.0 -87976900000.0 -176149000000.0 -171008000000.0 -124297000000.0 -144851000000.0 -179372000000.0 -224456000000.0 -282172000000.0 -485300000000.0 -470339000000.0 -439909000000.0 -456553000000.0 -505090000000.0 -662239000000.0 -712410000000.0 -710830000000.0 -712621000000.0 -714508000000.0 -713150000000.0 -701316000000.0 -642116000000.0 -650417000000.0 -715794000000.0 -826033000000.0 -878813000000.0 -807810000000.0 -780485000000.0 -750274000000.0 -717476000000.0 -682504000000.0 -645815000000.0 -607873000000.0 -569165000000.0 -530236000000.0 -491633000000.0 -453869000000.0 -417539000000.0 -383321000000.0 -351800000000.0 -323317000000.0 -297821000000.0 -274147000000.0 -242522000000.0 -278998000000.0 -270014000000.0 -261453000000.0 -241956000000.0 -227742000000.0 -52813600000.0 -65960000000.0 -59294200000.0 -54262900000.0 -31778400000.0 -81627900000.0 -115548000000.0 -175296000000.0 -205974000000.0 -192658000000.0 -128052000000.0 -916958000000.0 -938755000000.0 -777896000000.0 -756530000000.0 -740306000000.0 -723089000000.0 -702600000000.0 -678067000000.0 -649381000000.0 -616774000000.0 -580673000000.0 -541635000000.0 -500285000000.0 -457261000000.0 -413198000000.0 -368749000000.0 -324612000000.0 -281492000000.0 -240123000000.0 -201371000000.0 -166219000000.0 -135709000000.0 -110949000000.0 -93275200000.0 -83759200000.0 -93660900000.0 -91186100000.0 -87314100000.0 -86558100000.0 -85051100000.0 -91090900000.0 -74480400000.0 -101464000000.0 -149140000000.0 -200262000000.0 -254223000000.0 -310535000000.0 -367882000000.0 -399053000000.0 -382646000000.0 -321525000000.0 -242131000000.0 -169298000000.0 -102794000000.0 
SCALARS Shear_Stress float 1
LOOKUP_TABLE default
52826800000.0 39359300000.0 24953500000.0 26647100000.0 40920600000.0 50261100000.0 56765000000.0 35144100000.0 48233600000.0 29427100000.0 10222300000.0 13022200000.0 64494100000.0 9005360000.0 26669900000.0 19433600000.0 5000940000.0 27846900000.0 23523100000.0 28287100000.0 37558300000.0 46582700000.0 138415000000.0 112739000000.0 75382200000.0 40400100000.0 51760800000.0 50058700000.0 110056000000.0 35217000000.0 2438380000.0 65057200000.0 91847700000.0 32025000000.0 49312900000.0 48200000000.0 50800600000.0 78890300000.0 94877400000.0 99364100000.0 102049000000.0 132807000000.0 226690000000.0 158177000000.0 207516000000.0 128696000000.0 104194000000.0 117552000000.0 115481000000.0 12402300000.0 60130000000.0 107955000000.0 114721000000.0 130833000000.0 101862000000.0 4508960000.0 81666100000.0 159626000000.0 190606000000.0 247194000000.0 159846000000.0 139175000000.0 5068400000.0 76261900000.0 122694000000.0 173641000000.0 244020000000.0 205668000000.0 89710500000.0 46334000000.0 60572300000.0 136217000000.0 132440000000.0 148013000000.0 164788000000.0 287738000000.0 230008000000.0 110069000000.0 211030000000.0 51271100000.0 23325300000.0 111290000000.0 102960000000.0 159337000000.0 135531000000.0 190365000000.0 180710000000.0 249531000000.0 245608000000.0 209988000000.0 250668000000.0 230951000000.0 204923000000.0 169022000000.0 3472830000.0 235988000000.0 218016000000.0 218209000000.0 231293000000.0 281849000000.0 92514200000.0 259145000000.0 302382000000.0 142051000000.0 226101000000.0 78690500000.0 162284000000.0 186073000000.0 204915000000.0 238683000000.0 229617000000.0 202649000000.0 208914000000.0 120740000000.0 36157300000.0 320491000000.0 120240000000.0 47006400000.0 175896000000.0 230895000000.0 222435000000.0 227482000000.0 241577000000.0 251340000000.0 208854000000.0 211524000000.0 190665000000.0 100353000000.0 23812700000.0 284052000000.0 980342000.0 331802000000.0 131586000000.0 318064000000.0 297990000000.0 347881000000.0 283113000000.0 306681000000.0 260417000000.0 274941000000.0 253332000000.0 265477000000.0 258452000000.0 256145000000.0 235143000000.0 224297000000.0 209535000000.0 214902000000.0 209759000000.0 200905000000.0 170396000000.0 168969000000.0 120632000000.0 156670000000.0 87019800000.0 89367800000.0 90341000000.0 453713000000.0 513810000000.0 396505000000.0 616344000000.0 560729000000.0 629844000000.0 386162000000.0 408688000000.0 364838000000.0 309595000000.0 275391000000.0 265481000000.0 244760000000.0 222385000000.0 210449000000.0 187697000000.0 174496000000.0 251835000000.0 354043000000.0 579102000000.0 287991000000.0 535002000000.0 424548000000.0 357339000000.0 292385000000.0 268823000000.0 257919000000.0 236103000000.0 217692000000.0 194457000000.0 169988000000.0 169301000000.0 294715000000.0 93903600000.0 484903000000.0 373857000000.0 414400000000.0 490607000000.0 493110000000.0 417510000000.0 365940000000.0 323445000000.0 274978000000.0 269869000000.0 250495000000.0 259347000000.0 249328000000.0 247926000000.0 237325000000.0 227553000000.0 209161000000.0 200009000000.0 164631000000.0 164483000000.0 116349000000.0 135146000000.0 33193200000.0 18190600000.0 342921000000.0 166116000000.0 278878000000.0 216485000000.0 295321000000.0 158009000000.0 285344000000.0 473855000000.0 437122000000.0 570206000000.0 416398000000.0 300860000000.0 234008000000.0 236238000000.0 238974000000.0 220116000000.0 172272000000.0 108726000000.0 33961100000.0 81290000000.0 91219800000.0 57761100000.0 93121500000.0 688379000000.0 459114000000.0 334657000000.0 218024000000.0 207981000000.0 225330000000.0 224968000000.0 185817000000.0 112296000000.0 30741500000.0 62789200000.0 382025000000.0 305983000000.0 20824800000.0 79090000000.0 36877300000.0 449551000000.0 366505000000.0 272758000000.0 246696000000.0 111447000000.0 164654000000.0 139644000000.0 192825000000.0 181620000000.0 214223000000.0 197293000000.0 198894000000.0 147282000000.0 126540000000.0 41495900000.0 31516900000.0 57013200000.0 56860500000.0 132774000000.0 139945000000.0 419033000000.0 450673000000.0 104814000000.0 224630000000.0 167318000000.0 307496000000.0 208977000000.0 231579000000.0 39626000000.0 315826000000.0 220896000000.0 176260000000.0 59375000000.0 125720000000.0 169555000000.0 164370000000.0 63952800000.0 56385400000.0 134025000000.0 179044000000.0 269050000000.0 354438000000.0 415517000000.0 31245600000.0 182929000000.0 264266000000.0 128330000000.0 72623600000.0 45510100000.0 111104000000.0 153010000000.0 92635600000.0 46044900000.0 143281000000.0 197731000000.0 183248000000.0 197154000000.0 448907000000.0 567273000000.0 373087000000.0 374944000000.0 460332000000.0 216418000000.0 117710000000.0 359888000000.0 59118300000.0 389810000000.0 75287300000.0 99801100000.0 23282400000.0 12136500000.0 101721000000.0 89430500000.0 116886000000.0 13470900000.0 18870100000.0 157845000000.0 155463000000.0 227239000000.0 209176000000.0 462555000000.0 633506000000.0 452266000000.0 474723000000.0 536785000000.0 467258000000.0 312487000000.0 35555100000.0 231243000000.0 460193000000.0 312378000000.0 106356000000.0 9732620000.0 52888000000.0 137286000000.0 270990000000.0 238144000000.0 182078000000.0 389162000000.0 529254000000.0 556177000000.0 38617500000.0 168533000000.0 408083000000.0 411933000000.0 259882000000.0 681833000000.0 258378000000.0 101449000000.0 3526060000.0 123132000000.0 314664000000.0 406055000000.0 297252000000.0 208312000000.0 188956000000.0 126288000000.0 453002000000.0 644143000000.0 323839000000.0 419313000000.0 436612000000.0 624967000000.0 771407000000.0 473543000000.0 366416000000.0 266476000000.0 361833000000.0 445826000000.0 314395000000.0 211914000000.0 172751000000.0 102783000000.0 161532000000.0 45476500000.0 429544000000.0 337337000000.0 587702000000.0 243757000000.0 112421000000.0 421217000000.0 616118000000.0 299655000000.0 434273000000.0 846127000000.0 129839000000.0 204234000000.0 99061400000.0 296035000000.0 229800000000.0 137224000000.0 296266000000.0 795002000000.0 290428000000.0 95080600000.0 38706600000.0 220969000000.0 241103000000.0 372126000000.0 215655000000.0 76379200000.0 72189900000.0 24733900000.0 6087600000.0 166531000000.0 137998000000.0 221848000000.0 144878000000.0 151954000000.0 167235000000.0 821442000000.0 178211000000.0 316646000000.0 21791800000.0 61106300000.0 54975200000.0 281148000.0 57422600000.0 377379000000.0 577106000000.0 127678000000.0 163773000000.0 78790500000.0 121511000000.0 24186600000.0 150524000000.0 800394000000.0 250064000000.0 111728000000.0 11732100000.0 74503400000.0 33547900000.0 26976000000.0 141985000000.0 447259000000.0 65899400000.0 179263000000.0 138569000000.0 111571000000.0 336481000000.0 549728000000.0 71379200000.0 6094310000.0 4433570000.0 673903000000.0 239862000000.0 118838000000.0 20189600000.0 32051400000.0 180435000000.0 766594000000.0 460587000000.0 242835000000.0 250360000000.0 179912000000.0 137064000000.0 544945000000.0 71517800000.0 41490300000.0 21625500000.0 23138300000.0 11939700000.0 55908000000.0 205231000000.0 335496000000.0 433344000000.0 329609000000.0 224155000000.0 213560000000.0 120677000000.0 163073000000.0 100732000000.0 255963000000.0 238949000000.0 902294000000.0 268042000000.0 263003000000.0 256908000000.0 306375000000.0 301423000000.0 256959000000.0 242873000000.0 189619000000.0 183236000000.0 312087000000.0 56618300000.0 38404100000.0 61732300000.0 89067500000.0 312830000000.0 283566000000.0 222002000000.0 257977000000.0 578754000000.0 880602000000.0 447104000000.0 360625000000.0 157300000000.0 271793000000.0 275909000000.0 219289000000.0 312675000000.0 562346000000.0 53587400000.0 60124100000.0 47371900000.0 196281000000.0 229502000000.0 289861000000.0 278891000000.0 269000000000.0 279998000000.0 266889000000.0 420641000000.0 547378000000.0 173570000000.0 119298000000.0 79514700000.0 172530000000.0 195758000000.0 262607000000.0 236601000000.0 241879000000.0 202189000000.0 189408000000.0 340815000000.0 593931000000.0 69095300000.0 76786500000.0 65783100000.0 76998500000.0 69919900000.0 36784500000.0 50722400000.0 132976000000.0 245367000000.0 280868000000.0 312125000000.0 345962000000.0 380556000000.0 460523000000.0 351754000000.0 280151000000.0 54533100000.0 106853000000.0 196331000000.0 198108000000.0 158149000000.0 91011900000.0 85938700000.0 68265200000.0 35347100000.0 179838000000.0 257537000000.0 292323000000.0 328735000000.0 331958000000.0 178947000000.0 106667000000.0 33548000000.0 43833800000.0 133138000000.0 173519000000.0 150479000000.0 393859000000.0 630818000000.0 113024000000.0 98519300000.0 100762000000.0 85362100000.0 66459300000.0 30372100000.0 27558900000.0 101341000000.0 149425000000.0 210922000000.0 232825000000.0 268649000000.0 272373000000.0 296876000000.0 275402000000.0 299892000000.0 222069000000.0 62678500000.0 33184900000.0 71850000000.0 92147500000.0 133871000000.0 105450000000.0 131385000000.0 76724800000.0 97839200000.0 465703000000.0 668159000000.0 116898000000.0 91345100000.0 28027300000.0 83414100000.0 184936000000.0 244987000000.0 258651000000.0 220067000000.0 224327000000.0 121793000000.0 98255900000.0 16393200000.0 58068200000.0 81557500000.0 53705200000.0 18136400000.0 704353000000.0 132594000000.0 132528000000.0 112772000000.0 66905700000.0 21961000000.0 129319000000.0 209387000000.0 243120000000.0 220325000000.0 136092000000.0 18688500000.0 13538500000.0 15597300000.0 27731300000.0 53900400000.0 67077700000.0 34738000000.0 36915600000.0 30473900000.0 9767280000.0 71682000000.0 548856000000.0 149742000000.0 123544000000.0 97357600000.0 69802700000.0 28921800000.0 16589600000.0 71533100000.0 115074000000.0 165236000000.0 190827000000.0 221636000000.0 220056000000.0 223163000000.0 183851000000.0 156507000000.0 70040300000.0 34963300000.0 56565300000.0 15224800000.0 48828800000.0 35452500000.0 102084000000.0 634972000000.0 739188000000.0 146383000000.0 104181000000.0 32258800000.0 62483900000.0 151053000000.0 205619000000.0 204460000000.0 126770000000.0 37469700000.0 70482000000.0 165437000000.0 82118900000.0 49237700000.0 17189000000.0 119550000000.0 160999000000.0 772862000000.0 165100000000.0 159190000000.0 133915000000.0 111906000000.0 74737300000.0 37321700000.0 10876800000.0 55022000000.0 104744000000.0 141795000000.0 178908000000.0 198964000000.0 210040000000.0 206162000000.0 176857000000.0 54605100000.0 170885000000.0 224311000000.0 21050200000.0 21472500000.0 24468100000.0 90937200000.0 117845000000.0 204959000000.0 190364000000.0 234371000000.0 714091000000.0 179219000000.0 144206000000.0 81131900000.0 4854490000.0 97316700000.0 173299000000.0 212789000000.0 197974000000.0 141387000000.0 104412000000.0 30478500000.0 127223000000.0 348278000000.0 133405000000.0 35915900000.0 201978000000.0 255520000000.0 774422000000.0 805551000000.0 192361000000.0 171302000000.0 154365000000.0 120283000000.0 88357700000.0 43440300000.0 1215460000.0 48679900000.0 136472000000.0 199981000000.0 223390000000.0 191594000000.0 76045600000.0 235187000000.0 603986000000.0 832871000000.0 131209000000.0 83088200000.0 174339000000.0 242761000000.0 259290000000.0 266163000000.0 271185000000.0 808219000000.0 9035750000.0 837275000000.0 182721000000.0 128873000000.0 49982300000.0 43302400000.0 92056300000.0 133872000000.0 172254000000.0 205258000000.0 223626000000.0 246962000000.0 235237000000.0 254250000000.0 195875000000.0 223515000000.0 74446400000.0 377640000000.0 608023000000.0 187339000000.0 224481000000.0 261826000000.0 867846000000.0 204499000000.0 193143000000.0 164084000000.0 137135000000.0 95777200000.0 6970100000.0 88433800000.0 173701000000.0 236695000000.0 273419000000.0 287589000000.0 291087000000.0 132462000000.0 368592000000.0 149168000000.0 443748000000.0 64902800000.0 120379000000.0 103435000000.0 215164000000.0 216853000000.0 817437000000.0 215346000000.0 172880000000.0 102789000000.0 56350900000.0 12002500000.0 38938100000.0 86252400000.0 133023000000.0 176212000000.0 211546000000.0 247511000000.0 268096000000.0 306618000000.0 342208000000.0 424410000000.0 337686000000.0 1.01573e+12 1.19571e+12 101292000000.0 120456000000.0 128805000000.0 813731000000.0 9035750000.0 896972000000.0 224411000000.0 202079000000.0 180165000000.0 144521000000.0 62011700000.0 35848300000.0 133622000000.0 217104000000.0 281305000000.0 300778000000.0 334824000000.0 349015000000.0 398017000000.0 420696000000.0 444225000000.0 441999000000.0 255722000000.0 270613000000.0 385151000000.0 659382000000.0 43774300000.0 161705000000.0 812887000000.0 924870000000.0 209049000000.0 150587000000.0 108862000000.0 66558600000.0 15886700000.0 34395600000.0 85741800000.0 179604000000.0 254358000000.0 311481000000.0 366604000000.0 417525000000.0 347860000000.0 149553000000.0 638573000000.0 466599000000.0 357674000000.0 140610000000.0 50427100000.0 125376000000.0 953377000000.0 231147000000.0 213729000000.0 185534000000.0 113693000000.0 18249100000.0 87433000000.0 136129000000.0 185087000000.0 222364000000.0 259062000000.0 285529000000.0 305966000000.0 333893000000.0 337633000000.0 378124000000.0 371191000000.0 204464000000.0 180534000000.0 281810000000.0 397103000000.0 285639000000.0 24924900000.0 828765000000.0 9035750000.0 235204000000.0 189185000000.0 155168000000.0 117551000000.0 69744000000.0 19008300000.0 34990000000.0 141424000000.0 230061000000.0 285099000000.0 307051000000.0 310997000000.0 350335000000.0 298476000000.0 289696000000.0 236298000000.0 250440000000.0 312456000000.0 197461000000.0 86568800000.0 88983200000.0 132449000000.0 868973000000.0 986089000000.0 237374000000.0 215320000000.0 158867000000.0 71833400000.0 38135700000.0 91863400000.0 150619000000.0 194306000000.0 243205000000.0 267473000000.0 292902000000.0 278644000000.0 260165000000.0 283761000000.0 226201000000.0 224749000000.0 276370000000.0 219584000000.0 11349900000.0 193128000000.0 1.0284e+12 212689000000.0 192001000000.0 163064000000.0 120989000000.0 73592100000.0 17738000000.0 100010000000.0 208668000000.0 284602000000.0 292076000000.0 297671000000.0 272335000000.0 213304000000.0 218142000000.0 139481000000.0 223242000000.0 288381000000.0 291759000000.0 242499000000.0 199649000000.0 163493000000.0 124869000000.0 199845000000.0 277206000000.0 928963000000.0 1.0902e+12 235701000000.0 209555000000.0 193898000000.0 125846000000.0 14594000000.0 44180400000.0 113729000000.0 164859000000.0 230113000000.0 263432000000.0 314790000000.0 279224000000.0 106176000000.0 83923500000.0 336255000000.0 162680000000.0 137533000000.0 183247000000.0 245088000000.0 332373000000.0 981595000000.0 225773000000.0 194489000000.0 170494000000.0 131961000000.0 74256200000.0 7431800000.0 56186600000.0 187459000000.0 291902000000.0 311601000000.0 351034000000.0 331602000000.0 337410000000.0 235532000000.0 169706000000.0 64727900000.0 323676000000.0 244603000000.0 278294000000.0 165604000000.0 42855700000.0 218142000000.0 544864000000.0 277597000000.0 469324000000.0 344584000000.0 970967000000.0 1.18782e+12 194895000000.0 214953000000.0 183239000000.0 74763300000.0 78428400000.0 136610000000.0 224273000000.0 261867000000.0 346658000000.0 382729000000.0 341884000000.0 84907600000.0 421320000000.0 2685960000.0 86515000000.0 221183000000.0 574358000000.0 284200000000.0 1.36014e+12 260420000000.0 207900000000.0 205757000000.0 143830000000.0 57655300000.0 13713600000.0 178934000000.0 308820000000.0 330570000000.0 388536000000.0 392431000000.0 413010000000.0 364660000000.0 58833900000.0 230826000000.0 18642900000.0 162010000000.0 15498700000.0 46668800000.0 1.04362e+12 818957000000.0 486309000000.0 14278400000.0 833472000000.0 1.66523e+12 116855000000.0 441021000000.0 267784000000.0 138686000000.0 75195400000.0 127010000000.0 244414000000.0 280614000000.0 382902000000.0 432197000000.0 430555000000.0 467591000000.0 454918000000.0 524753000000.0 430568000000.0 686054000000.0 984373000000.0 252381000000.0 256352000000.0 88757800000.0 1.11059e+12 173525000000.0 775373000000.0 54566600000.0 322472000000.0 223299000000.0 8989820000.0 29189400000.0 204089000000.0 363615000000.0 376194000000.0 450308000000.0 438176000000.0 462063000000.0 513387000000.0 665690000000.0 570730000000.0 515921000000.0 1.54228e+12 1.01934e+12 709083000000.0 329843000000.0 988013000000.0 773230000000.0 540441000000.0 17284900000.0 962008000000.0 2.03695e+12 2.29012e+12 721257000000.0 173518000000.0 13698000000.0 126513000000.0 165857000000.0 339916000000.0 347829000000.0 458061000000.0 498774000000.0 470858000000.0 480259000000.0 482499000000.0 585052000000.0 594629000000.0 685536000000.0 470861000000.0 947510000000.0 839534000000.0 606570000000.0 728697000000.0 871387000000.0 867441000000.0 509910000000.0 1.18049e+12 693778000000.0 300089000000.0 17357800000.0 79420300000.0 381433000000.0 347704000000.0 470984000000.0 461684000000.0 537470000000.0 522090000000.0 522152000000.0 465299000000.0 499217000000.0 469277000000.0 569079000000.0 550275000000.0 787908000000.0 773725000000.0 806650000000.0 703759000000.0 365275000000.0 1.54232e+12 1.90406e+12 1.19646e+12 561265000000.0 283656000000.0 1.42253e+12 204577000000.0 319920000000.0 406276000000.0 549909000000.0 498366000000.0 555086000000.0 578336000000.0 558876000000.0 574585000000.0 523443000000.0 499818000000.0 394073000000.0 370822000000.0 515952000000.0 590385000000.0 823525000000.0 890353000000.0 773784000000.0 633038000000.0 610064000000.0 1.34681e+12 486007000000.0 746331000000.0 726088000000.0 433643000000.0 7982880000.0 417198000000.0 739725000000.0 184071000000.0 205433000000.0 758989000000.0 383549000000.0 669120000000.0 616533000000.0 642087000000.0 589421000000.0 633002000000.0 597724000000.0 592974000000.0 578123000000.0 429660000000.0 311119000000.0 204632000000.0 92837400000.0 499719000000.0 462246000000.0 782385000000.0 930990000000.0 911569000000.0 802819000000.0 70392800000.0 763455000000.0 292494000000.0 875824000000.0 121010000000.0 821432000000.0 903811000000.0 324511000000.0 802399000000.0 538717000000.0 666573000000.0 487700000000.0 149156000000.0 802567000000.0 768102000000.0 713972000000.0 772113000000.0 694809000000.0 632384000000.0 600192000000.0 575131000000.0 591854000000.0 599825000000.0 581290000000.0 574018000000.0 165681000000.0 143503000000.0 89884600000.0 611365000000.0 873979000000.0 1.03592e+12 1.05475e+12 746877000000.0 583400000000.0 461723000000.0 1.19962e+12 333380000000.0 563959000000.0 337798000000.0 1.12753e+12 1.26165e+12 762846000000.0 301213000000.0 333754000000.0 151451000000.0 95813200000.0 472730000000.0 45035800000.0 7320440000.0 636929000000.0 795736000000.0 848897000000.0 834845000000.0 802287000000.0 698478000000.0 575645000000.0 540395000000.0 642709000000.0 586505000000.0 334017000000.0 987883000000.0 603159000000.0 1.04946e+12 1.10371e+12 1.04724e+12 888148000000.0 438854000000.0 56082400000.0 1.59063e+12 86549400000.0 291801000000.0 408569000000.0 257431000000.0 206852000000.0 645907000000.0 267075000000.0 66763400000.0 473932000000.0 569808000000.0 314354000000.0 240322000000.0 73801000000.0 710883000000.0 278250000000.0 815254000000.0 882780000000.0 974691000000.0 901561000000.0 751572000000.0 641104000000.0 501917000000.0 492160000000.0 545405000000.0 687482000000.0 727263000000.0 712495000000.0 475006000000.0 1.39473e+12 1.4328e+12 982099000000.0 1.10093e+12 1.13995e+12 1.07139e+12 647993000000.0 2.0112e+12 168110000000.0 87989900000.0 232818000000.0 349400000000.0 142737000000.0 204314000000.0 433514000000.0 40109300000.0 420439000000.0 532473000000.0 125205000000.0 2391110000.0 441224000000.0 87911000000.0 289250000000.0 2895900000.0 188095000000.0 801282000000.0 301645000000.0 293148000000.0 453913000000.0 749238000000.0 960313000000.0 1.0161e+12 902969000000.0 776630000000.0 650414000000.0 442494000000.0 340162000000.0 399445000000.0 373469000000.0 630454000000.0 700549000000.0 553094000000.0 396489000000.0 680437000000.0 1.03202e+12 1.38302e+12 1.17331e+12 1.10411e+12 1.08869e+12 845007000000.0 467765000000.0 142792000000.0 125281000000.0 173958000000.0 46454900000.0 18506600000.0 27597200000.0 790821000000.0 350778000000.0 971980000000.0 16750500000.0 515775000000.0 6956440000.0 237680000000.0 527532000000.0 693692000000.0 19827600000.0 195072000000.0 715616000000.0 662756000000.0 1.0298e+12 151165000000.0 332200000000.0 354271000000.0 599452000000.0 920772000000.0 1.05483e+12 992897000000.0 668342000000.0 304617000000.0 135375000000.0 482464000000.0 556409000000.0 381555000000.0 644609000000.0 1.18538e+12 1.20925e+12 969611000000.0 927881000000.0 568184000000.0 249595000000.0 1.5194e+12 609529000000.0 763478000000.0 79929000000.0 162427000000.0 336533000000.0 186068000000.0 516458000000.0 446972000000.0 257923000000.0 361577000000.0 444775000000.0 182530000000.0 36540400000.0 224174000000.0 519807000000.0 413072000000.0 132048000000.0 93603900000.0 418183000000.0 442569000000.0 332102000000.0 457353000000.0 704088000000.0 1.0454e+12 1.10151e+12 720690000000.0 708672000000.0 374576000000.0 397680000000.0 150999000000.0 132435000000.0 56282600000.0 303099000000.0 480601000000.0 340057000000.0 418713000000.0 662248000000.0 923744000000.0 1.0255e+12 1.03749e+12 1.01612e+12 961047000000.0 726643000000.0 237724000000.0 236424000000.0 506691000000.0 155110000000.0 641155000000.0 628993000000.0 333638000000.0 280905000000.0 440060000000.0 149353000000.0 246834000000.0 253279000000.0 706894000000.0 840552000000.0 408291000000.0 396332000000.0 253410000000.0 184979000000.0 194309000000.0 398338000000.0 415506000000.0 835673000000.0 489353000000.0 28675000000.0 17122700000.0 79931600000.0 136426000000.0 182193000000.0 289952000000.0 490418000000.0 793855000000.0 1.17814e+12 1.08721e+12 453707000000.0 174723000000.0 342400000000.0 80503900000.0 459794000000.0 328570000000.0 220331000000.0 377758000000.0 490099000000.0 819253000000.0 1.20349e+12 1.06983e+12 978696000000.0 556449000000.0 363471000000.0 259026000000.0 213443000000.0 249424000000.0 53038000000.0 282750000000.0 122376000000.0 763707000000.0 139734000000.0 113137000000.0 735727000000.0 619741000000.0 170763000000.0 83199700000.0 65482200000.0 324165000000.0 190232000000.0 367138000000.0 260737000000.0 335444000000.0 481594000000.0 693114000000.0 165579000000.0 555702000000.0 92421700000.0 116721000000.0 18619600000.0 188433000000.0 101126000000.0 120914000000.0 229529000000.0 515244000000.0 911091000000.0 1.28971e+12 839032000000.0 572297000000.0 858027000000.0 253292000000.0 1.20638e+12 535327000000.0 636086000000.0 704626000000.0 824254000000.0 1.20875e+12 1.08481e+12 674239000000.0 311200000000.0 191766000000.0 22179200000.0 10595900000.0 102851000000.0 66491100000.0 72810000000.0 435801000000.0 267819000000.0 111812000000.0 330005000000.0 417296000000.0 250127000000.0 488489000000.0 883985000000.0 218365000000.0 718436000000.0 197376000000.0 180201000000.0 113183000000.0 255964000000.0 494296000000.0 412631000000.0 448481000000.0 154959000000.0 1.42798e+12 654651000000.0 298865000000.0 175723000000.0 364776000000.0 292926000000.0 193243000000.0 13488700000.0 173058000000.0 550834000000.0 1.0648e+12 457223000000.0 235214000000.0 1.65891e+12 503410000000.0 336229000000.0 746275000000.0 1.27467e+12 152050000000.0 1.47705e+12 839698000000.0 450302000000.0 678240000000.0 340023000000.0 1.02954e+12 670374000000.0 350352000000.0 188592000000.0 46237700000.0 27452800000.0 98179900000.0 137767000000.0 66888600000.0 326280000000.0 92546600000.0 84371400000.0 242189000000.0 378961000000.0 652373000000.0 39833900000.0 354354000000.0 133453000000.0 720357000000.0 85078900000.0 209865000000.0 208832000000.0 357282000000.0 225702000000.0 120698000000.0 307873000000.0 614625000000.0 332373000000.0 521114000000.0 286746000000.0 53516200000.0 16987600000.0 214688000000.0 502323000000.0 177765000000.0 30012300000.0 387554000000.0 406582000000.0 359852000000.0 240772000000.0 50144900000.0 161746000000.0 93868000000.0 260762000000.0 1.69764e+12 75179200000.0 1.12582e+12 1.4001e+12 176406000000.0 676491000000.0 1.2046e+12 900443000000.0 424435000000.0 747191000000.0 600175000000.0 1.06329e+12 297145000000.0 277949000000.0 143783000000.0 36795200000.0 2928980000.0 45098800000.0 552411000.0 141779000000.0 299405000000.0 424343000000.0 203757000000.0 214104000000.0 199885000000.0 310216000000.0 88772300000.0 568883000000.0 978010000000.0 301651000000.0 248699000000.0 777610000000.0 173020000000.0 292098000000.0 301829000000.0 455855000000.0 99469500000.0 386139000000.0 362888000000.0 609234000000.0 152313000000.0 72176100000.0 992095000000.0 1.25085e+12 1.28012e+12 1.02595e+12 629292000000.0 465130000000.0 353606000000.0 251801000000.0 529826000000.0 940066000000.0 998464000000.0 919107000000.0 580584000000.0 222087000000.0 1.18537e+12 499150000000.0 559390000000.0 602677000000.0 334031000000.0 896433000000.0 1.17218e+12 602383000000.0 138769000000.0 1.31325e+12 167985000000.0 79989200000.0 10865100000.0 14386100000.0 52784100000.0 39753000000.0 184115000000.0 332868000000.0 493678000000.0 841792000000.0 1.04124e+12 1.14838e+12 824572000000.0 175479000000.0 312153000000.0 136914000000.0 493191000000.0 180382000000.0 94856800000.0 979247000000.0 293374000000.0 310393000000.0 321454000000.0 274461000000.0 105201000000.0 411697000000.0 628057000000.0 231348000000.0 59410600000.0 651766000000.0 835762000000.0 244310000000.0 679760000000.0 517027000000.0 330687000000.0 164696000000.0 311946000000.0 277616000000.0 28745300000.0 159817000000.0 173713000000.0 79758500000.0 134262000000.0 624738000000.0 792843000000.0 1.25346e+12 1.52817e+12 304924000000.0 768555000000.0 708062000000.0 335643000000.0 54647800000.0 63368400000.0 1.12201e+12 661098000000.0 134584000000.0 1.55486e+12 769795000000.0 380845000000.0 146448000000.0 31099400000.0 58094200000.0 57790900000.0 120554000000.0 163164000000.0 125670000000.0 20357700000.0 187745000000.0 457434000000.0 297940000000.0 229674000000.0 191713000000.0 100757000000.0 60807100000.0 27774400000.0 291260000000.0 48393000000.0 871170000000.0 573114000000.0 700444000000.0 429346000000.0 64633100000.0 90686700000.0 183275000000.0 268024000000.0 481497000000.0 344116000000.0 499902000000.0 1.06798e+12 60600100000.0 986754000000.0 189811000000.0 532190000000.0 689066000000.0 546010000000.0 146546000000.0 24588100000.0 12286600000.0 19543500000.0 143714000000.0 372209000000.0 934265000000.0 1.49976e+12 1.26221e+12 1.08289e+12 819351000000.0 450763000000.0 115382000000.0 85713500000.0 821504000000.0 574809000000.0 624557000000.0 303916000000.0 193660000000.0 247149000000.0 843177000000.0 562593000000.0 306984000000.0 20704300000.0 48444200000.0 82287600000.0 134151000000.0 160629000000.0 84508000000.0 228218000000.0 35945300000.0 34495600000.0 98721000000.0 344435000000.0 191734000000.0 990141000000.0 390234000000.0 134667000000.0 150518000000.0 553131000000.0 326208000000.0 487227000000.0 49765600000.0 56209000000.0 75653200000.0 174471000000.0 299698000000.0 385950000000.0 398089000000.0 306955000000.0 495610000000.0 442481000000.0 332316000000.0 143286000000.0 217496000000.0 708342000000.0 278728000000.0 57316000000.0 21477600000.0 31216800000.0 102317000000.0 236804000000.0 414172000000.0 596319000000.0 123039000000.0 485809000000.0 526949000000.0 147159000000.0 307167000000.0 679038000000.0 250081000000.0 1.59193e+12 510815000000.0 251734000000.0 1.09575e+12 476725000000.0 467853000000.0 603903000000.0 405085000000.0 121935000000.0 204371000.0 78164500000.0 147302000000.0 188958000000.0 140375000000.0 3434520000.0 6384210000.0 159246000000.0 65829200000.0 23210400000.0 114082000000.0 300681000000.0 320056000000.0 240396000000.0 347964000000.0 96496200000.0 117612000000.0 40522500000.0 157293000000.0 550361000000.0 526404000000.0 66916100000.0 93597300000.0 126504000000.0 101132000000.0 103503000000.0 124760000000.0 771899000000.0 1.0886e+12 657896000000.0 14688100000.0 133458000000.0 176433000000.0 568349000000.0 907043000000.0 409447000000.0 57466900000.0 224391000000.0 261745000000.0 148668000000.0 5803500000.0 1759900000.0 27107300000.0 98643600000.0 184601000000.0 248578000000.0 278575000000.0 203654000000.0 212612000000.0 176598000000.0 402827000000.0 746607000000.0 537706000000.0 487965000000.0 442950000000.0 218482000000.0 69849200000.0 43936700000.0 137370000000.0 203497000000.0 190752000000.0 170290000000.0 141873000000.0 175908000000.0 266675000000.0 140740000000.0 62559400000.0 53303200000.0 104261000000.0 244333000000.0 293935000000.0 175592000000.0 481645000000.0 406819000000.0 416146000000.0 582174000000.0 482911000000.0 264356000000.0 244231000000.0 261962000000.0 331453000000.0 107931000000.0 79914600000.0 57611400000.0 69829400000.0 143278000000.0 111820000000.0 95992500000.0 201168000000.0 235957000000.0 137557000000.0 255694000000.0 457550000000.0 241427000000.0 183292000000.0 348374000000.0 175926000000.0 116178000000.0 263584000000.0 295355000000.0 210975000000.0 82666800000.0 33668400000.0 77618800000.0 149298000000.0 228798000000.0 321195000000.0 468136000000.0 563845000000.0 394241000000.0 182563000000.0 310094000000.0 433887000000.0 748975000000.0 1.15569e+12 615716000000.0 464879000000.0 533150000000.0 627064000000.0 516844000000.0 282898000000.0 132420000000.0 2693080000.0 109069000000.0 238426000000.0 246795000000.0 244856000000.0 285808000000.0 335515000000.0 260238000000.0 103968000000.0 19602100000.0 25805300000.0 243675000000.0 341138000000.0 270952000000.0 77072800000.0 787330000000.0 993026000000.0 154950000000.0 399559000000.0 322423000000.0 249419000000.0 287223000000.0 205720000000.0 220824000000.0 246904000000.0 204008000000.0 143787000000.0 42256300000.0 7170990000.0 65376200000.0 32081300000.0 125217000000.0 181177000000.0 424788000000.0 296187000000.0 288441000000.0 464067000000.0 400955000000.0 108333000000.0 6833590000.0 71815100000.0 239922000000.0 249770000000.0 332120000000.0 332777000000.0 255799000000.0 137568000000.0 61746200000.0 8055040000.0 75551200000.0 174002000000.0 296723000000.0 459131000000.0 610295000000.0 614991000000.0 472788000000.0 367525000000.0 360539000000.0 249023000000.0 385667000000.0 659465000000.0 838143000000.0 626737000000.0 556235000000.0 559872000000.0 549426000000.0 427611000000.0 322359000000.0 181793000000.0 48660600000.0 72145200000.0 198354000000.0 260531000000.0 297233000000.0 323123000000.0 367580000000.0 403899000000.0 356005000000.0 240125000000.0 136105000000.0 82882300000.0 128374000000.0 412162000000.0 334291000000.0 122818000000.0 447451000000.0 386197000000.0 554049000000.0 252312000000.0 195954000000.0 70762500000.0 349531000000.0 209847000000.0 375398000000.0 527962000000.0 331557000000.0 65557300000.0 63219300000.0 63200800000.0 177026000000.0 307730000000.0 272920000000.0 35610700000.0 406008000000.0 460396000000.0 479475000000.0 354483000000.0 200765000000.0 127716000000.0 144807000000.0 312927000000.0 345376000000.0 387398000000.0 359260000000.0 274960000000.0 171844000000.0 87346300000.0 7422180000.0 237687000000.0 391574000000.0 543985000000.0 623637000000.0 589244000000.0 489006000000.0 395020000000.0 311037000000.0 340809000000.0 473096000000.0 629539000000.0 694483000000.0 607659000000.0 562294000000.0 451362000000.0 341908000000.0 221264000000.0 91469700000.0 32171900000.0 177532000000.0 261899000000.0 323321000000.0 372521000000.0 427285000000.0 468432000000.0 451091000000.0 369720000000.0 255677000000.0 173482000000.0 169044000000.0 245701000000.0 389250000000.0 112614000000.0 10154000000.0 288870000000.0 939136000000.0 214597000000.0 883620000000.0 690781000000.0 385072000000.0 33959100000.0 52773100000.0 69700000000.0 362422000000.0 353538000000.0 291239000000.0 289263000000.0 163575000000.0 366262000000.0 590907000000.0 999850000000.0 648924000000.0 143886000000.0 123448000000.0 244943000000.0 137893000000.0 230808000000.0 354364000000.0 334425000000.0 402023000000.0 394700000000.0 311473000000.0 512865000000.0 526307000000.0 496944000000.0 299822000000.0 266575000000.0 295461000000.0 387028000000.0 412404000000.0 416863000000.0 373294000000.0 289280000000.0 188183000000.0 92445300000.0 3324220000.0 109185000000.0 558027000000.0 590445000000.0 548303000000.0 465538000000.0 380105000000.0 363257000000.0 416857000000.0 514391000000.0 597719000000.0 529067000000.0 470377000000.0 367428000000.0 251391000000.0 129918000000.0 145717000000.0 243712000000.0 324466000000.0 394800000000.0 463926000000.0 518421000000.0 534498000000.0 499733000000.0 402395000000.0 261745000000.0 207816000000.0 251292000000.0 564982000000.0 620424000000.0 372234000000.0 243198000000.0 96939400000.0 129921000000.0 602571000000.0 632783000000.0 22406300000.0 9332630000.0 33864900000.0 83528900000.0 80066500000.0 331469000000.0 273697000000.0 149632000000.0 217667000000.0 286394000000.0 172332000000.0 359245000000.0 310640000000.0 386471000000.0 445942000000.0 503469000000.0 502873000000.0 488725000000.0 587294000000.0 407133000000.0 407323000000.0 448199000000.0 448987000000.0 432242000000.0 377976000000.0 288641000000.0 182807000000.0 74133100000.0 40421900000.0 165859000000.0 306550000000.0 450478000000.0 617782000000.0 571191000000.0 525240000000.0 467589000000.0 385595000000.0 278817000000.0 163066000000.0 7840550000.0 108052000000.0 212642000000.0 304722000000.0 388287000000.0 468945000000.0 539343000000.0 585763000000.0 599363000000.0 566189000000.0 449911000000.0 264486000000.0 171241000000.0 890883000000.0 559753000000.0 399131000000.0 282910000000.0 174694000000.0 399700000000.0 458093000000.0 269308000000.0 15372900000.0 55159200000.0 57452200000.0 128024000000.0 101637000000.0 283039000000.0 192501000000.0 228044000000.0 153960000000.0 205369000000.0 169660000000.0 236797000000.0 511928000000.0 705659000000.0 564632000000.0 476342000000.0 448253000000.0 450971000000.0 457701000000.0 532116000000.0 582361000000.0 599666000000.0 614051000000.0 586972000000.0 555140000000.0 481309000000.0 410685000000.0 387825000000.0 470218000000.0 432128000000.0 365182000000.0 270499000000.0 158462000000.0 39242800000.0 86652400000.0 219304000000.0 352891000000.0 467986000000.0 537507000000.0 546294000000.0 504858000000.0 440733000000.0 403036000000.0 413656000000.0 463321000000.0 525365000000.0 564477000000.0 561136000000.0 520397000000.0 465246000000.0 391959000000.0 299211000000.0 45566400000.0 69111900000.0 175786000000.0 272901000000.0 362535000000.0 447751000000.0 524270000000.0 586681000000.0 630273000000.0 651847000000.0 648476000000.0 554722000000.0 61565500000.0 1.43221e+12 856172000000.0 279320000000.0 156887000000.0 144090000000.0 514553000000.0 466897000000.0 216545000000.0 147104000000.0 137475000000.0 172478000000.0 132782000000.0 327814000000.0 98687200000.0 108367000000.0 165297000000.0 252701000000.0 169048000000.0 213375000000.0 282252000000.0 499455000000.0 753886000000.0 389821000000.0 334803000000.0 555709000000.0 604626000000.0 518878000000.0 479938000000.0 531529000000.0 596588000000.0 656516000000.0 666908000000.0 663889000000.0 627847000000.0 566253000000.0 510147000000.0 486380000000.0 484468000000.0 488288000000.0 417537000000.0 339587000000.0 238411000000.0 122520000000.0 437388000.0 128339000000.0 256715000000.0 373397000000.0 461003000000.0 505609000000.0 504201000000.0 471016000000.0 437644000000.0 427610000000.0 446881000000.0 483174000000.0 515889000000.0 526095000000.0 506051000000.0 459261000000.0 394061000000.0 192057000000.0 79851400000.0 31686200000.0 138047000000.0 236516000000.0 327542000000.0 412355000000.0 487927000000.0 549478000000.0 1.1077e+12 563892000000.0 458152000000.0 377840000000.0 216233000000.0 161517000000.0 175388000000.0 342507000000.0 384483000000.0 227696000000.0 248768000000.0 216454000000.0 281400000000.0 218128000000.0 184996000000.0 460872000000.0 18151300000.0 36538700000.0 62187100000.0 343121000000.0 386246000000.0 233236000000.0 300397000000.0 472240000000.0 809687000000.0 702923000000.0 174628000000.0 589045000000.0 730658000000.0 519490000000.0 573354000000.0 668276000000.0 697421000000.0 728003000000.0 758217000000.0 744437000000.0 701090000000.0 640987000000.0 587516000000.0 552731000000.0 531810000000.0 510194000000.0 472149000000.0 83648500000.0 38609500000.0 161621000000.0 278021000000.0 376187000000.0 443138000000.0 472474000000.0 469886000000.0 452707000000.0 440224000000.0 443418000000.0 460659000000.0 481110000000.0 491435000000.0 481473000000.0 447553000000.0 311572000000.0 215016000000.0 109968000000.0 3079950000.0 100846000000.0 198942000000.0 290054000000.0 373302000000.0 590800000000.0 609787000000.0 604905000000.0 547011000000.0 127744000000.0 515067000000.0 577678000000.0 405218000000.0 358470000000.0 302724000000.0 278818000000.0 110929000000.0 316144000000.0 421847000000.0 413028000000.0 360937000000.0 301150000000.0 429905000000.0 367074000000.0 331879000000.0 291567000000.0 509846000000.0 677116000000.0 536444000000.0 62671000000.0 27651600000.0 439885000000.0 404943000000.0 513607000000.0 554387000000.0 303575000000.0 280863000000.0 409919000000.0 609754000000.0 720289000000.0 814722000000.0 748375000000.0 540565000000.0 779518000000.0 512792000000.0 526739000000.0 648976000000.0 758084000000.0 813355000000.0 840024000000.0 844227000000.0 812365000000.0 757626000000.0 693865000000.0 636034000000.0 591157000000.0 553593000000.0 513566000000.0 460900000000.0 391895000000.0 304505000000.0 200066000000.0 287764000000.0 368814000000.0 420924000000.0 443597000000.0 445915000000.0 441306000000.0 440433000000.0 446925000000.0 457267000000.0 463374000000.0 391912000000.0 319007000000.0 231957000000.0 135344000000.0 34472700000.0 65814900000.0 162013000000.0 252093000000.0 446073000000.0 503341000000.0 536818000000.0 538542000000.0 494799000000.0 362119000000.0 69106400000.0 335231000000.0 811977000000.0 663684000000.0 487685000000.0 399163000000.0 329077000000.0 364128000000.0 401857000000.0 425899000000.0 414056000000.0 472205000000.0 597324000000.0 440414000000.0 403016000000.0 746787000000.0 726081000000.0 556118000000.0 64356000000.0 19057300000.0 24090800000.0 427081000000.0 572618000000.0 712577000000.0 337413000000.0 485125000000.0 772348000000.0 865575000000.0 848426000000.0 562952000000.0 753780000000.0 1.00051e+12 1.00197e+12 422200000000.0 602473000000.0 797842000000.0 896435000000.0 934505000000.0 932498000000.0 904728000000.0 853655000000.0 788997000000.0 721155000000.0 659432000000.0 605878000000.0 555976000000.0 501622000000.0 436292000000.0 358133000000.0 265669000000.0 159957000000.0 45370600000.0 71879800000.0 185548000000.0 456470000000.0 431014000000.0 385583000000.0 322012000000.0 244117000000.0 155916000000.0 61832500000.0 33717800000.0 126891000000.0 334291000000.0 405766000000.0 461632000000.0 495309000000.0 500680000000.0 468858000000.0 380407000000.0 179384000000.0 401543000000.0 694364000000.0 806555000000.0 694974000000.0 561711000000.0 478610000000.0 436791000000.0 576296000000.0 482214000000.0 564126000000.0 666631000000.0 675673000000.0 974436000000.0 673691000000.0 465096000000.0 447174000000.0 1.04508e+12 916407000000.0 690892000000.0 526045000000.0 467322000000.0 47643700000.0 35852000000.0 389707000000.0 495013000000.0 572968000000.0 743410000000.0 787253000000.0 318660000000.0 357634000000.0 679776000000.0 847940000000.0 938580000000.0 761974000000.0 760197000000.0 1.51529e+12 346048000000.0 833718000000.0 982179000000.0 1.02727e+12 1.01725e+12 980196000000.0 928790000000.0 865552000000.0 796009000000.0 726579000000.0 661684000000.0 601059000000.0 540935000000.0 476768000000.0 403942000000.0 320052000000.0 224811000000.0 120283000000.0 10490200000.0 98947500000.0 201454000000.0 289735000000.0 356906000000.0 399580000000.0 420563000000.0 428083000000.0 430932000000.0 434371000000.0 438980000000.0 440874000000.0 434110000000.0 413356000000.0 375662000000.0 321139000000.0 252147000000.0 172194000000.0 85246400000.0 215046000000.0 295861000000.0 366606000000.0 423131000000.0 460028000000.0 473095000000.0 458142000000.0 408382000000.0 318801000000.0 436081000000.0 637258000000.0 761270000000.0 786920000000.0 709188000000.0 619435000000.0 572139000000.0 541946000000.0 576846000000.0 719527000000.0 1.58156e+12 1.16101e+12 830248000000.0 547569000000.0 1.48835e+12 1.16612e+12 891350000000.0 714242000000.0 586334000000.0 402653000000.0 14649500000.0 23875800000.0 66964900000.0 363841000000.0 441556000000.0 628733000000.0 775815000000.0 948636000000.0 1.20611e+12 187025000000.0 396073000000.0 548802000000.0 764634000000.0 930004000000.0 936242000000.0 840935000000.0 875958000000.0 1.56446e+12 876339000000.0 1.08152e+12 1.11007e+12 1.08038e+12 1.03286e+12 977865000000.0 917480000000.0 852027000000.0 783002000000.0 713416000000.0 646007000000.0 580586000000.0 514531000000.0 444292000000.0 366531000000.0 279766000000.0 184488000000.0 83214600000.0 20143800000.0 120400000000.0 211472000000.0 287405000000.0 344020000000.0 380909000000.0 401723000000.0 412338000000.0 418098000000.0 421386000000.0 421166000000.0 414088000000.0 396070000000.0 364166000000.0 317445000000.0 256901000000.0 185099000000.0 4654980000.0 93888800000.0 179471000000.0 258731000000.0 328989000000.0 386711000000.0 428017000000.0 449988000000.0 450339000000.0 429012000000.0 395885000000.0 465329000000.0 602129000000.0 714981000000.0 767361000000.0 761259000000.0 702765000000.0 639965000000.0 615013000000.0 690599000000.0 812959000000.0 1.17494e+12 1.51382e+12 347644000000.0 982182000000.0 955525000000.0 677991000000.0 308276000000.0 1.05489e+12 864498000000.0 565581000000.0 493287000000.0 340126000000.0 77172100000.0 120133000000.0 83891800000.0 256876000000.0 299801000000.0 382383000000.0 528457000000.0 604675000000.0 977529000000.0 1.35157e+12 63194400000.0 642783000000.0 849952000000.0 1.02699e+12 1.07568e+12 1.04612e+12 585268000000.0 562966000000.0 1.11239e+12 366324000000.0 1.08536e+12 1.11946e+12 1.08459e+12 1.04047e+12 993163000000.0 940904000000.0 883359000000.0 820505000000.0 753878000000.0 685970000000.0 618200000000.0 550289000000.0 480569000000.0 406755000000.0 326541000000.0 239240000000.0 146000000000.0 49509800000.0 46430700000.0 137051000000.0 217270000000.0 282838000000.0 331676000000.0 364576000000.0 384684000000.0 396008000000.0 401464000000.0 401714000000.0 395276000000.0 379635000000.0 352431000000.0 312276000000.0 105472000000.0 21579300000.0 63161300000.0 145652000000.0 223124000000.0 292914000000.0 352015000000.0 397623000000.0 427652000000.0 441113000000.0 440454000000.0 437282000000.0 486525000000.0 745512000000.0 716148000000.0 661067000000.0 618934000000.0 629947000000.0 772594000000.0 892292000000.0 515785000000.0 33921400000.0 1.07423e+12 724738000000.0 89972800000.0 1.44436e+12 679887000000.0 623899000000.0 490170000000.0 425178000000.0 366142000000.0 271006000000.0 109930000000.0 197536000000.0 338358000000.0 414836000000.0 463225000000.0 536453000000.0 671723000000.0 795853000000.0 1.2144e+12 455170000000.0 685328000000.0 999867000000.0 1.11904e+12 1.31373e+12 733837000000.0 977566000000.0 1.02197e+12 209046000000.0 804613000000.0 927954000000.0 959126000000.0 952623000000.0 109989000000.0 19433000000.0 68498600000.0 149752000000.0 220358000000.0 277417000000.0 320043000000.0 349404000000.0 367884000000.0 377923000000.0 380870000000.0 376552000000.0 259355000000.0 195371000000.0 122959000000.0 45206800000.0 34703700000.0 113728000000.0 189064000000.0 258104000000.0 318369000000.0 367764000000.0 404710000000.0 428779000000.0 582299000000.0 675680000000.0 732992000000.0 545319000000.0 403693000000.0 206534000000.0 213373000000.0 243075000000.0 81363500000.0 584577000000.0 1.24305e+12 941202000000.0 385418000000.0 1.24623e+12 810792000000.0 608217000000.0 546451000000.0 524196000000.0 508552000000.0 452084000000.0 288061000000.0 178536000000.0 141011000000.0 99291600000.0 51865300000.0 128501000000.0 145474000000.0 153118000000.0 116663000000.0 289682000000.0 397703000000.0 504658000000.0 590335000000.0 590941000000.0 657833000000.0 819353000000.0 413032000000.0 386503000000.0 834435000000.0 861623000000.0 748512000000.0 397113000000.0 1.63699e+12 1.5437e+12 1.07967e+12 561342000000.0 226227000000.0 598901000000.0 926251000000.0 886336000000.0 836082000000.0 778129000000.0 715252000000.0 649637000000.0 582231000000.0 513181000000.0 441642000000.0 366131000000.0 285427000000.0 199566000000.0 363743000000.0 340747000000.0 306281000000.0 260184000000.0 203423000000.0 137944000000.0 66370900000.0 8400200000.0 83509800000.0 156296000000.0 224300000000.0 285310000000.0 442825000000.0 456668000000.0 498387000000.0 570487000000.0 647411000000.0 703103000000.0 725056000000.0 708865000000.0 650486000000.0 302782000000.0 97986100000.0 74076300000.0 313183000000.0 916767000000.0 893555000000.0 477246000000.0 373953000000.0 885121000000.0 790057000000.0 601227000000.0 542701000000.0 498800000000.0 409721000000.0 187760000000.0 195087000000.0 117057000000.0 78841600000.0 51045200000.0 37402400000.0 214562000000.0 345452000000.0 508583000000.0 627871000000.0 697692000000.0 853929000000.0 995830000000.0 562517000000.0 310586000000.0 622857000000.0 686005000000.0 568108000000.0 223694000000.0 228220000000.0 770491000000.0 844781000000.0 866003000000.0 855663000000.0 825618000000.0 782420000000.0 729807000000.0 670700000000.0 607196000000.0 540492000000.0 471300000000.0 399453000000.0 324022000000.0 244463000000.0 161431000000.0 76654000000.0 7316040000.0 87255200000.0 159745000000.0 221837000000.0 271659000000.0 308895000000.0 334665000000.0 350550000000.0 357789000000.0 356968000000.0 347657000000.0 328816000000.0 299601000000.0 259693000000.0 209605000000.0 150794000000.0 85420000000.0 16013800000.0 54831900000.0 124636000000.0 337592000000.0 380028000000.0 412519000000.0 437513000000.0 462384000000.0 502328000000.0 560892000000.0 625097000000.0 677305000000.0 704925000000.0 701298000000.0 661160000000.0 583755000000.0 463451000000.0 437253000000.0 773177000000.0 623119000000.0 418616000000.0 145908000000.0 485396000000.0 661614000000.0 898195000000.0 744168000000.0 618564000000.0 556374000000.0 463271000000.0 338746000000.0 213438000000.0 249963000000.0 381848000000.0 125353000000.0 45569500000.0 85514700000.0 153280000000.0 118072000000.0 251226000000.0 488881000000.0 630795000000.0 766416000000.0 962996000000.0 985689000000.0 726616000000.0 264720000000.0 545672000000.0 508292000000.0 271250000000.0 738790000000.0 350300000000.0 755601000000.0 383053000000.0 359513000000.0 324835000000.0 550904000000.0 692509000000.0 766622000000.0 793944000000.0 790228000000.0 765637000000.0 726655000000.0 677617000000.0 621474000000.0 560043000000.0 494740000000.0 426574000000.0 355576000000.0 281367000000.0 204166000000.0 125021000000.0 45692200000.0 31447300000.0 103576000000.0 167940000000.0 222405000000.0 265810000000.0 298075000000.0 319925000000.0 332363000000.0 335981000000.0 330776000000.0 316377000000.0 292255000000.0 258126000000.0 214326000000.0 161955000000.0 102769000000.0 191135000000.0 252328000000.0 306654000000.0 353273000000.0 392326000000.0 425576000000.0 457775000000.0 497585000000.0 548685000000.0 605081000000.0 655834000000.0 690252000000.0 700679000000.0 681428000000.0 624186000000.0 530851000000.0 414416000000.0 313065000000.0 273295000000.0 466678000000.0 724647000000.0 326824000000.0 158712000000.0 828163000000.0 843553000000.0 721947000000.0 609076000000.0 539994000000.0 371388000000.0 420358000000.0 477570000000.0 542047000000.0 638794000000.0 3477620000.0 104418000000.0 22715700000.0 103885000000.0 101348000000.0 181839000000.0 33693100000.0 159614000000.0 432130000000.0 605282000000.0 798028000000.0 998391000000.0 1.18242e+12 1.1905e+12 711368000000.0 372191000000.0 490217000000.0 494991000000.0 169206000000.0 485342000000.0 22658900000.0 383803000000.0 394926000000.0 422515000000.0 555384000000.0 654126000000.0 710914000000.0 732649000000.0 728606000000.0 705933000000.0 669606000000.0 623174000000.0 569275000000.0 509810000000.0 446411000000.0 379978000000.0 310651000000.0 238649000000.0 164745000000.0 90198000000.0 16736000000.0 53494900000.0 118130000000.0 174980000000.0 222524000000.0 260011000000.0 287385000000.0 305083000000.0 313567000000.0 313017000000.0 303349000000.0 284331000000.0 255800000000.0 218033000000.0 38881900000.0 27428900000.0 93892600000.0 158409000000.0 219146000000.0 274692000000.0 324287000000.0 368033000000.0 407243000000.0 445000000000.0 486236000000.0 533602000000.0 584235000000.0 632037000000.0 671092000000.0 695482000000.0 698451000000.0 672057000000.0 602345000000.0 497161000000.0 395604000000.0 351465000000.0 408537000000.0 304506000000.0 649197000000.0 320521000000.0 557460000000.0 841381000000.0 801594000000.0 700918000000.0 542932000000.0 465272000000.0 194249000000.0 673611000000.0 704805000000.0 10011800000.0 96716700000.0 100720000000.0 7610980000.0 7464440000.0 100981000000.0 151740000000.0 336177000000.0 38363400000.0 343445000000.0 536407000000.0 768118000000.0 949754000000.0 1.22485e+12 1.38736e+12 1.07574e+12 237173000000.0 396393000000.0 360984000000.0 169480000000.0 415162000000.0 583613000000.0 682418000000.0 396180000000.0 470866000000.0 463151000000.0 487075000000.0 563011000000.0 625955000000.0 663333000000.0 676704000000.0 669918000000.0 646848000000.0 611588000000.0 567006000000.0 515058000000.0 457656000000.0 396435000000.0 332133000000.0 265094000000.0 196057000000.0 126180000000.0 56783500000.0 10561400000.0 73958300000.0 131440000000.0 181320000000.0 222464000000.0 254373000000.0 276956000000.0 290313000000.0 171906000000.0 118802000000.0 60481800000.0 1080340000.0 63846400000.0 125882000000.0 185525000000.0 241490000000.0 292986000000.0 340004000000.0 383496000000.0 425334000000.0 468124000000.0 513570000000.0 560841000000.0 606720000000.0 647448000000.0 679595000000.0 699540000000.0 704011000000.0 686337000000.0 600516000000.0 477038000000.0 375660000000.0 339590000000.0 188047000000.0 329637000000.0 738767000000.0 637741000000.0 643602000000.0 764407000000.0 824676000000.0 749203000000.0 641307000000.0 502797000000.0 368210000000.0 254128000000.0 851558000000.0 801469000000.0 556031000000.0 618542000000.0 187562000000.0 9238580000.0 91468200000.0 47266600000.0 52349600000.0 138796000000.0 211041000000.0 420987000000.0 261730000000.0 455470000000.0 691932000000.0 821902000000.0 1.14981e+12 1.35339e+12 1.53071e+12 496130000000.0 290425000000.0 426174000000.0 460482000000.0 193758000000.0 216804000000.0 526708000000.0 814156000000.0 742949000000.0 554213000000.0 527914000000.0 507037000000.0 519496000000.0 560646000000.0 597213000000.0 618040000000.0 294618000000.0 289904000000.0 276045000000.0 253027000000.0 221141000000.0 181065000000.0 133915000000.0 81157200000.0 24491800000.0 34283500000.0 93415700000.0 151375000000.0 206967000000.0 259404000000.0 308501000000.0 354791000000.0 399441000000.0 726721000000.0 740286000000.0 616930000000.0 446524000000.0 354175000000.0 240837000000.0 41152100000.0 417965000000.0 774769000000.0 765970000000.0 798289000000.0 836749000000.0 762541000000.0 643172000000.0 184460000000.0 687826000000.0 451218000000.0 472661000000.0 570598000000.0 264990000000.0 83395400000.0 78947100000.0 94511000000.0 12250000000.0 81630900000.0 127703000000.0 204663000000.0 216984000000.0 148987000000.0 355506000000.0 621705000000.0 708403000000.0 925291000000.0 930409000000.0 737512000000.0 1.05529e+12 741973000000.0 537570000000.0 809422000000.0 541069000000.0 14173700000.0 537231000000.0 812889000000.0 859296000000.0 746493000000.0 606911000000.0 552109000000.0 622340000000.0 611677000000.0 587726000000.0 552973000000.0 509598000000.0 459363000000.0 404150000000.0 345270000000.0 283350000000.0 219120000000.0 153715000000.0 88416600000.0 24500700000.0 36613100000.0 93298900000.0 143958000000.0 187318000000.0 222543000000.0 249189000000.0 267087000000.0 276181000000.0 276414000000.0 267740000000.0 250198000000.0 224037000000.0 189826000000.0 148478000000.0 101236000000.0 49562900000.0 4982160000.0 60834300000.0 116573000000.0 171082000000.0 443987000000.0 489357000000.0 534894000000.0 578375000000.0 617634000000.0 652477000000.0 682818000000.0 706697000000.0 644438000000.0 449077000000.0 322632000000.0 232210000000.0 437575000000.0 715096000000.0 809583000000.0 868913000000.0 878702000000.0 841618000000.0 639082000000.0 456682000000.0 204243000000.0 246245000000.0 365510000000.0 315786000000.0 385405000000.0 102840000000.0 10447200000.0 107504000000.0 129295000000.0 55012500000.0 8120870000.0 15279200000.0 185264000000.0 355541000000.0 80100500000.0 525639000000.0 602070000000.0 773474000000.0 792071000000.0 680231000000.0 345645000000.0 179522000000.0 428117000000.0 227482000000.0 574878000000.0 525059000000.0 526027000000.0 544241000000.0 561729000000.0 570311000000.0 567592000000.0 553197000000.0 528001000000.0 493512000000.0 451156000000.0 402624000000.0 349600000000.0 293070000000.0 233781000000.0 172844000000.0 111581000000.0 51236900000.0 6991300000.0 61829600000.0 111951000000.0 156140000000.0 193436000000.0 223177000000.0 244944000000.0 258455000000.0 263491000000.0 259916000000.0 247739000000.0 227155000000.0 198616000000.0 162899000000.0 121080000000.0 74419400000.0 223608000000.0 273809000000.0 321871000000.0 368491000000.0 414537000000.0 460283000000.0 504985000000.0 547186000000.0 585241000000.0 618437000000.0 647901000000.0 675920000000.0 706978000000.0 757488000000.0 864045000000.0 305774000000.0 437712000000.0 715867000000.0 830268000000.0 906468000000.0 911001000000.0 867652000000.0 775658000000.0 494821000000.0 296232000000.0 37725800000.0 106772000000.0 225308000000.0 242089000000.0 180409000000.0 86034200000.0 21671300000.0 54956600000.0 59790400000.0 213978000000.0 251615000000.0 375821000000.0 644995000000.0 708123000000.0 687356000000.0 499481000000.0 461886000000.0 455839000000.0 226551000000.0 407623000000.0 785008000000.0 861713000000.0 822343000000.0 713619000000.0 606882000000.0 548288000000.0 517635000000.0 509775000000.0 514622000000.0 519974000000.0 519690000000.0 511476000000.0 494049000000.0 467599000000.0 433027000000.0 391616000000.0 344915000000.0 294068000000.0 239880000000.0 183452000000.0 126194000000.0 69436200000.0 14329400000.0 38043000000.0 86612900000.0 130384000000.0 168494000000.0 200233000000.0 225024000000.0 242376000000.0 251871000000.0 253199000000.0 246217000000.0 231005000000.0 24272300000.0 27986800000.0 81054800000.0 133864000000.0 185690000000.0 236124000000.0 285085000000.0 332870000000.0 379961000000.0 426470000000.0 471703000000.0 514153000000.0 551789000000.0 582897000000.0 607662000000.0 627837000000.0 644689000000.0 663135000000.0 702274000000.0 888032000000.0 556438000000.0 423069000000.0 724646000000.0 858437000000.0 938095000000.0 871577000000.0 848978000000.0 787145000000.0 660839000000.0 394060000000.0 238740000000.0 49813000000.0 84009600000.0 96883200000.0 11751200000.0 120285000000.0 13111300000.0 68331800000.0 46435700000.0 107100000000.0 501453000000.0 596720000000.0 645937000000.0 616851000000.0 623508000000.0 699102000000.0 343211000000.0 375900000000.0 337087000000.0 557696000000.0 731590000000.0 812679000000.0 812139000000.0 749762000000.0 657077000000.0 573990000000.0 521458000000.0 492262000000.0 479486000000.0 475324000000.0 472511000000.0 466158000000.0 453419000000.0 433290000000.0 405811000000.0 371428000000.0 331215000000.0 286278000000.0 237387000000.0 185549000000.0 132229000000.0 78947500000.0 26973700000.0 22646500000.0 69009200000.0 111360000000.0 149086000000.0 181642000000.0 207927000000.0 177652000000.0 141110000000.0 99408000000.0 53737500000.0 5305270000.0 44720700000.0 95322000000.0 145768000000.0 195632000000.0 244719000000.0 293058000000.0 340825000000.0 388013000000.0 434038000000.0 477581000000.0 516728000000.0 549497000000.0 573922000000.0 588830000000.0 595109000000.0 593316000000.0 587029000000.0 612089000000.0 753579000000.0 394069000000.0 349690000000.0 377056000000.0 839842000000.0 905930000000.0 940262000000.0 818875000000.0 761427000000.0 674002000000.0 532109000000.0 375464000000.0 230087000000.0 43062800000.0 23893800000.0 101813000000.0 46220900000.0 24401700000.0 289474000000.0 433770000000.0 498091000000.0 616461000000.0 612342000000.0 609115000000.0 783206000000.0 456265000000.0 377656000000.0 328218000000.0 559002000000.0 686228000000.0 733435000000.0 719735000000.0 664039000000.0 590831000000.0 525779000000.0 480904000000.0 453646000000.0 438237000000.0 428440000000.0 419668000000.0 408607000000.0 392791000000.0 208463000000.0 228934000000.0 242414000000.0 248334000000.0 246310000000.0 236249000000.0 218396000000.0 193319000000.0 161840000000.0 124954000000.0 83737400000.0 39265900000.0 7431010000.0 55420000000.0 103971000000.0 152622000000.0 201104000000.0 249291000000.0 297210000000.0 344833000000.0 391665000000.0 436635000000.0 478202000000.0 560937000000.0 566227000000.0 563911000000.0 553220000000.0 533998000000.0 526094000000.0 560032000000.0 232190000000.0 267819000000.0 758132000000.0 807145000000.0 867782000000.0 782765000000.0 744007000000.0 536071000000.0 447371000000.0 114406000000.0 24619200000.0 43611600000.0 220319000000.0 331678000000.0 527971000000.0 527292000000.0 652480000000.0 633547000000.0 510184000000.0 352445000000.0 417330000000.0 546497000000.0 624969000000.0 648053000000.0 626975000000.0 578261000000.0 519866000000.0 468354000000.0 370997000000.0 342837000000.0 308811000000.0 269802000000.0 226392000000.0 179290000000.0 129866000000.0 79839300000.0 30762000000.0 16144800000.0 59984200000.0 100191000000.0 136475000000.0 168646000000.0 196388000000.0 219119000000.0 236012000000.0 246166000000.0 248848000000.0 243695000000.0 230793000000.0 210618000000.0 183922000000.0 151625000000.0 114723000000.0 74198900000.0 30970100000.0 14124200000.0 60367700000.0 514451000000.0 543037000000.0 551519000000.0 487703000000.0 401882000000.0 331139000000.0 53290100000.0 627246000000.0 724383000000.0 713308000000.0 712972000000.0 669769000000.0 657821000000.0 469770000000.0 491098000000.0 353990000000.0 395712000000.0 424230000000.0 516474000000.0 539101000000.0 528711000000.0 384142000000.0 366766000000.0 434066000000.0 430809000000.0 404928000000.0 387425000000.0 374745000000.0 362777000000.0 348277000000.0 329826000000.0 306622000000.0 278296000000.0 245082000000.0 207188000000.0 164940000000.0 119436000000.0 72447700000.0 25855400000.0 18738300000.0 60177000000.0 97877000000.0 131849000000.0 162443000000.0 189882000000.0 213882000000.0 233541000000.0 247577000000.0 254758000000.0 254302000000.0 246055000000.0 230421000000.0 208140000000.0 180108000000.0 147270000000.0 107266000000.0 154540000000.0 202012000000.0 249549000000.0 297008000000.0 344067000000.0 390092000000.0 433996000000.0 474182000000.0 508963000000.0 535742000000.0 550504000000.0 552956000000.0 557485000000.0 141668000000.0 137464000000.0 207586000000.0 496824000000.0 687815000000.0 642762000000.0 644351000000.0 584444000000.0 506299000000.0 468227000000.0 348950000000.0 60043400000.0 126086000000.0 248409000000.0 315019000000.0 424057000000.0 424569000000.0 432941000000.0 546164000000.0 444959000000.0 515648000000.0 557755000000.0 562993000000.0 537567000000.0 494712000000.0 446750000000.0 404158000000.0 371838000000.0 348428000000.0 330997000000.0 316275000000.0 301221000000.0 284126000000.0 264151000000.0 240427000000.0 212484000000.0 180022000000.0 142803000000.0 101382000000.0 57350700000.0 12809700000.0 30161700000.0 69841900000.0 105247000000.0 136409000000.0 164279000000.0 190018000000.0 214090000000.0 235779000000.0 253403000000.0 265013000000.0 110546000000.0 70775500000.0 28708500000.0 14993100000.0 59811500000.0 105416000000.0 151589000000.0 198151000000.0 244967000000.0 291813000000.0 338094000000.0 382974000000.0 425605000000.0 465141000000.0 501102000000.0 531512000000.0 551585000000.0 570974000000.0 611286000000.0 548432000000.0 440336000000.0 243996000000.0 11466700000.0 103369000000.0 161617000000.0 431046000000.0 617526000000.0 565930000000.0 573022000000.0 391058000000.0 354803000000.0 273450000000.0 30086500000.0 180629000000.0 333075000000.0 330839000000.0 324894000000.0 413461000000.0 347328000000.0 435554000000.0 385463000000.0 425452000000.0 469272000000.0 487858000000.0 479923000000.0 451513000000.0 411556000000.0 370447000000.0 335109000000.0 307340000000.0 286266000000.0 269399000000.0 253305000000.0 235686000000.0 216445000000.0 195612000000.0 172283000000.0 145147000000.0 113088000000.0 76004000000.0 35127800000.0 7496800000.0 49544600000.0 269151000000.0 265284000000.0 253772000000.0 235451000000.0 211253000000.0 182106000000.0 148889000000.0 112393000000.0 73305000000.0 32224900000.0 10331300000.0 53993900000.0 98531600000.0 143740000000.0 189388000000.0 235240000000.0 280963000000.0 325958000000.0 369474000000.0 410711000000.0 449100000000.0 484510000000.0 517097000000.0 531147000000.0 620092000000.0 578084000000.0 559706000000.0 417555000000.0 51566000000.0 221287000000.0 488560000000.0 527805000000.0 486617000000.0 491298000000.0 247286000000.0 381011000000.0 224543000000.0 228248000000.0 239657000000.0 338754000000.0 457750000000.0 297786000000.0 325933000000.0 358864000000.0 393551000000.0 413799000000.0 414616000000.0 396552000000.0 365558000000.0 328417000000.0 291791000000.0 261529000000.0 239447000000.0 222310000000.0 205399000000.0 88567300000.0 122652000000.0 151261000000.0 175582000000.0 198030000000.0 220592000000.0 243345000000.0 264323000000.0 280549000000.0 289434000000.0 289774000000.0 281916000000.0 266984000000.0 246064000000.0 220113000000.0 189980000000.0 156419000000.0 120074000000.0 81495900000.0 41168600000.0 504510000.0 43239300000.0 86816400000.0 130996000000.0 175527000000.0 220126000000.0 550260000000.0 510556000000.0 485809000000.0 422611000000.0 101401000000.0 391491000000.0 213147000000.0 31551500000.0 316670000000.0 411348000000.0 444206000000.0 284713000000.0 266297000000.0 160955000000.0 114683000000.0 94470300000.0 146854000000.0 349159000000.0 328630000000.0 282207000000.0 307395000000.0 326735000000.0 343181000000.0 347585000000.0 337462000000.0 185948000000.0 164843000000.0 144394000000.0 124495000000.0 102515000000.0 75750800000.0 43204900000.0 5924380000.0 34260300000.0 75466900000.0 114971000000.0 149486000000.0 176920000000.0 197865000000.0 215578000000.0 234477000000.0 256751000000.0 280749000000.0 302148000000.0 316432000000.0 321049000000.0 316319000000.0 304072000000.0 285729000000.0 262341000000.0 234740000000.0 203632000000.0 169623000000.0 133225000000.0 264248000000.0 307041000000.0 347690000000.0 385434000000.0 419214000000.0 446383000000.0 457628000000.0 444516000000.0 416715000000.0 345705000000.0 94214200000.0 550663000000.0 157075000000.0 35966100000.0 5474620000.0 276088000000.0 325330000000.0 365498000000.0 402015000000.0 153996000000.0 53264500000.0 34365900000.0 254309000000.0 267964000000.0 244976000000.0 270818000000.0 313358000000.0 279959000000.0 243163000000.0 209949000000.0 186458000000.0 171062000000.0 156876000000.0 137675000000.0 112806000000.0 88216100000.0 68771100000.0 51521200000.0 30501200000.0 2527790000.0 31134500000.0 67707400000.0 106641000000.0 146559000000.0 183519000000.0 212533000000.0 231827000000.0 244760000000.0 257674000000.0 276792000000.0 302820000000.0 330280000000.0 351490000000.0 360934000000.0 358680000000.0 348227000000.0 94891400000.0 55038900000.0 14007900000.0 27954200000.0 70597600000.0 113617000000.0 156709000000.0 199520000000.0 241323000000.0 280856000000.0 316665000000.0 347830000000.0 373146000000.0 384541000000.0 473412000000.0 367268000000.0 219322000000.0 121311000000.0 21896300000.0 61861000000.0 248468000000.0 286994000000.0 178886000000.0 40902600000.0 179119000000.0 182029000000.0 163461000000.0 197286000000.0 236399000000.0 240522000000.0 266881000000.0 280018000000.0 276595000000.0 259111000000.0 230421000000.0 193211000000.0 155836000000.0 125823000000.0 110950000000.0 104905000000.0 91804900000.0 64542400000.0 31096200000.0 5843430000.0 8942250000.0 23490900000.0 46804100000.0 77801200000.0 110222000000.0 143762000000.0 180903000000.0 220221000000.0 254549000000.0 276128000000.0 286139000000.0 331605000000.0 310018000000.0 284276000000.0 255015000000.0 222781000000.0 188056000000.0 151269000000.0 112831000000.0 73131900000.0 32498200000.0 8794060000.0 50433900000.0 92065200000.0 133327000000.0 173715000000.0 212259000000.0 247178000000.0 276131000000.0 298691000000.0 311649000000.0 390870000000.0 374316000000.0 350774000000.0 282540000000.0 95868200000.0 99205000000.0 126715000000.0 22094100000.0 68399700000.0 205025000000.0 175175000000.0 53884400000.0 158070000000.0 108666000000.0 107248000000.0 93362400000.0 183788000000.0 179406000000.0 177031000000.0 199225000000.0 214062000000.0 205840000000.0 183199000000.0 145716000000.0 103709000000.0 69341300000.0 40442000000.0 38921000000.0 43895700000.0 23195100000.0 18279300000.0 57075500000.0 79277200000.0 293471000000.0 306001000000.0 330899000000.0 364842000000.0 395911000000.0 411755000000.0 410935000000.0 401086000000.0 385170000000.0 364529000000.0 339891000000.0 311774000000.0 280634000000.0 246906000000.0 211011000000.0 173357000000.0 134357000000.0 94424400000.0 53930500000.0 13243000000.0 27235700000.0 67110300000.0 105992000000.0 143290000000.0 177849000000.0 207005000000.0 227145000000.0 238788000000.0 303287000000.0 298956000000.0 280110000000.0 233248000000.0 95751100000.0 261608000000.0 175673000000.0 81615800000.0 16635200000.0 61433200000.0 142172000000.0 71682800000.0 53981100000.0 41103600000.0 29580400000.0 112084000000.0 117232000000.0 108178000000.0 115439000000.0 111671000000.0 122322000000.0 149474000000.0 139649000000.0 105035000000.0 54683400000.0 88530600000.0 106300000000.0 136994000000.0 165675000000.0 192030000000.0 219213000000.0 254618000000.0 294583000000.0 324939000000.0 336727000000.0 341517000000.0 351422000000.0 369059000000.0 405211000000.0 450544000000.0 476696000000.0 475099000000.0 464194000000.0 447880000000.0 427348000000.0 403074000000.0 375369000000.0 344560000000.0 311022000000.0 275165000000.0 237415000000.0 198225000000.0 217307000000.0 216519000000.0 208857000000.0 178293000000.0 94240000000.0 161388000000.0 140794000000.0 67633800000.0 105571000000.0 40633500000.0 7027730000.0 53075600000.0 71095900000.0 26101600000.0 9886640000.0 37923800000.0 38246300000.0 41351800000.0 35992800000.0 21683800000.0 13205000000.0 50112900000.0 26448800000.0 16903600000.0 57807000000.0 101046000000.0 143616000000.0 167187000000.0 181220000000.0 215181000000.0 239336000000.0 257529000000.0 272743000000.0 288718000000.0 322823000000.0 361562000000.0 384907000000.0 394914000000.0 411082000000.0 437073000000.0 456455000000.0 514311000000.0 560270000000.0 552338000000.0 538310000000.0 520821000000.0 499932000000.0 158081000000.0 117476000000.0 76880500000.0 36774400000.0 2335220000.0 39972800000.0 75709100000.0 109043000000.0 139042000000.0 161610000000.0 168762000000.0 78113300000.0 92581700000.0 45073300000.0 61254700000.0 57675400000.0 1874880000.0 20168900000.0 18127700000.0 45163000000.0 41452000000.0 35831300000.0 82987600000.0 57565700000.0 4757740000.0 13261800000.0 46095300000.0 90222000000.0 149854000000.0 97114300000.0 103904000000.0 120023000000.0 148995000000.0 219840000000.0 287469000000.0 326765000000.0 330495000000.0 337681000000.0 344984000000.0 348554000000.0 344444000000.0 365434000000.0 388154000000.0 430805000000.0 472111000000.0 527713000000.0 475510000000.0 447571000000.0 416304000000.0 382031000000.0 345172000000.0 306212000000.0 265678000000.0 224130000000.0 182155000000.0 140348000000.0 99318100000.0 59719900000.0 22235000000.0 12483000000.0 43844500000.0 71363100000.0 94533300000.0 102909000000.0 129601000000.0 133203000000.0 128040000000.0 110627000000.0 71725200000.0 20271200000.0 23241100000.0 21686900000.0 18198500000.0 13488400000.0 41744900000.0 17433600000.0 41555100000.0 75106200000.0 64044000000.0 887550000.0 564063000000.0 580781000000.0 663710000000.0 638251000000.0 621380000000.0 604043000000.0 583610000000.0 559197000000.0 530641000000.0 498135000000.0 462071000000.0 422969000000.0 381434000000.0 338109000000.0 293650000000.0 248722000000.0 204019000000.0 160285000000.0 118313000000.0 78978500000.0 43267000000.0 12283600000.0 12669900000.0 30111400000.0 39210300000.0 42029500000.0 45930800000.0 43460300000.0 40416200000.0 40293000000.0 10071000000.0 34823300000.0 36675000000.0 13710900000.0 67673500000.0 124431000000.0 183216000000.0 241678000000.0 277903000000.0 262196000000.0 199166000000.0 119940000000.0 45593600000.0 22479400000.0 