# vtk DataFile Version 2.0
Time step 31
ASCII
DATASET UNSTRUCTURED_GRID
POINTS 4650 float
103002.0 437977.0 0
106586.0 436366.0 0
110503.0 436709.0 0
114433.0 436682.0 0
118364.0 436678.0 0
122301.0 436674.0 0
126243.0 436670.0 0
130192.0 436668.0 0
134149.0 436666.0 0
138114.0 436665.0 0
142084.0 436664.0 0
146061.0 436664.0 0
150043.0 436663.0 0
154030.0 436663.0 0
158020.0 436663.0 0
162013.0 436663.0 0
166008.0 436663.0 0
170004.0 436663.0 0
174002.0 436663.0 0
178001.0 436663.0 0
182000.0 436663.0 0
186000.0 436663.0 0
190000.0 436663.0 0
194000.0 436663.0 0
198000.0 436663.0 0
202000.0 436663.0 0
206000.0 436663.0 0
210000.0 436663.0 0
214000.0 436663.0 0
218000.0 436663.0 0
222000.0 436663.0 0
226000.0 436663.0 0
230000.0 436663.0 0
234000.0 436663.0 0
238000.0 436663.0 0
242000.0 436663.0 0
246000.0 436663.0 0
250000.0 436663.0 0
254000.0 436663.0 0
258000.0 436663.0 0
262000.0 436663.0 0
266000.0 436663.0 0
270000.0 436663.0 0
274000.0 436663.0 0
278000.0 436663.0 0
282000.0 436663.0 0
286000.0 436663.0 0
290000.0 436663.0 0
294000.0 436663.0 0
298000.0 436663.0 0
302000.0 436663.0 0
306000.0 436663.0 0
310000.0 436663.0 0
314000.0 436663.0 0
318000.0 436663.0 0
321999.0 436663.0 0
325998.0 436663.0 0
329996.0 436663.0 0
333992.0 436663.0 0
337987.0 436663.0 0
341980.0 436663.0 0
345970.0 436663.0 0
349957.0 436663.0 0
353939.0 436664.0 0
357916.0 436664.0 0
361886.0 436665.0 0
365851.0 436666.0 0
369808.0 436668.0 0
373757.0 436670.0 0
377699.0 436674.0 0
381636.0 436678.0 0
385567.0 436682.0 0
389497.0 436709.0 0
393414.0 436366.0 0
396998.0 437977.0 0
100948.0 441340.0 0
105998.0 440658.0 0
109998.0 440673.0 0
114000.0 440664.0 0
118000.0 440664.0 0
122000.0 440663.0 0
126000.0 440663.0 0
130000.0 440663.0 0
134000.0 440663.0 0
138000.0 440663.0 0
142000.0 440663.0 0
146000.0 440663.0 0
150000.0 440663.0 0
154000.0 440663.0 0
158000.0 440663.0 0
162000.0 440663.0 0
166000.0 440663.0 0
170000.0 440663.0 0
174000.0 440663.0 0
178000.0 440663.0 0
182000.0 440663.0 0
186000.0 440663.0 0
190000.0 440663.0 0
194000.0 440663.0 0
198000.0 440663.0 0
202000.0 440663.0 0
206000.0 440663.0 0
210000.0 440663.0 0
214000.0 440663.0 0
218000.0 440663.0 0
222000.0 440663.0 0
226000.0 440663.0 0
230000.0 440663.0 0
234000.0 440663.0 0
238000.0 440663.0 0
242000.0 440663.0 0
246000.0 440663.0 0
250000.0 440663.0 0
254000.0 440663.0 0
258000.0 440663.0 0
262000.0 440663.0 0
266000.0 440663.0 0
270000.0 440663.0 0
274000.0 440663.0 0
278000.0 440663.0 0
282000.0 440663.0 0
286000.0 440663.0 0
290000.0 440663.0 0
294000.0 440663.0 0
298000.0 440663.0 0
302000.0 440663.0 0
306000.0 440663.0 0
310000.0 440663.0 0
314000.0 440663.0 0
318000.0 440663.0 0
322000.0 440663.0 0
326000.0 440663.0 0
330000.0 440663.0 0
334000.0 440663.0 0
338000.0 440663.0 0
342000.0 440663.0 0
346000.0 440663.0 0
350000.0 440663.0 0
354000.0 440663.0 0
358000.0 440663.0 0
362000.0 440663.0 0
366000.0 440663.0 0
370000.0 440663.0 0
374000.0 440663.0 0
378000.0 440663.0 0
382000.0 440664.0 0
386000.0 440664.0 0
390002.0 440673.0 0
394002.0 440658.0 0
399052.0 441340.0 0
102110.0 445105.0 0
106065.0 444656.0 0
110049.0 444670.0 0
114035.0 444664.0 0
118024.0 444664.0 0
122015.0 444663.0 0
126009.0 444663.0 0
130005.0 444663.0 0
134003.0 444663.0 0
138001.0 444663.0 0
142001.0 444663.0 0
146000.0 444663.0 0
150000.0 444663.0 0
154000.0 444663.0 0
158000.0 444663.0 0
162000.0 444663.0 0
166000.0 444663.0 0
170000.0 444663.0 0
174000.0 444663.0 0
178000.0 444663.0 0
182000.0 444663.0 0
186000.0 444663.0 0
190000.0 444663.0 0
194000.0 444663.0 0
198000.0 444663.0 0
202000.0 444663.0 0
206000.0 444663.0 0
210000.0 444663.0 0
214000.0 444663.0 0
218000.0 444663.0 0
222000.0 444663.0 0
226000.0 444663.0 0
230000.0 444663.0 0
234000.0 444663.0 0
238000.0 444663.0 0
242000.0 444663.0 0
246000.0 444663.0 0
250000.0 444663.0 0
254000.0 444663.0 0
258000.0 444663.0 0
262000.0 444663.0 0
266000.0 444663.0 0
270000.0 444663.0 0
274000.0 444663.0 0
278000.0 444663.0 0
282000.0 444663.0 0
286000.0 444663.0 0
290000.0 444663.0 0
294000.0 444663.0 0
298000.0 444663.0 0
302000.0 444663.0 0
306000.0 444663.0 0
310000.0 444663.0 0
314000.0 444663.0 0
318000.0 444663.0 0
322000.0 444663.0 0
326000.0 444663.0 0
330000.0 444663.0 0
334000.0 444663.0 0
338000.0 444663.0 0
342000.0 444663.0 0
346000.0 444663.0 0
350000.0 444663.0 0
354000.0 444663.0 0
357999.0 444663.0 0
361999.0 444663.0 0
365997.0 444663.0 0
369995.0 444663.0 0
373991.0 444663.0 0
377985.0 444663.0 0
381976.0 444664.0 0
385965.0 444664.0 0
389951.0 444670.0 0
393935.0 444656.0 0
397890.0 445105.0 0
101968.0 449035.0 0
106000.0 448663.0 0
110000.0 448667.0 0
114000.0 448664.0 0
118000.0 448663.0 0
122000.0 448663.0 0
126000.0 448663.0 0
130000.0 448663.0 0
134000.0 448663.0 0
138000.0 448663.0 0
142000.0 448663.0 0
146000.0 448663.0 0
150000.0 448663.0 0
154000.0 448663.0 0
158000.0 448663.0 0
162000.0 448663.0 0
166000.0 448663.0 0
170000.0 448663.0 0
174000.0 448663.0 0
178000.0 448663.0 0
182000.0 448663.0 0
186000.0 448663.0 0
190000.0 448663.0 0
194000.0 448663.0 0
198000.0 448663.0 0
202000.0 448663.0 0
206000.0 448663.0 0
210000.0 448663.0 0
214000.0 448663.0 0
218000.0 448663.0 0
222000.0 448663.0 0
226000.0 448663.0 0
230000.0 448663.0 0
234000.0 448663.0 0
238000.0 448663.0 0
242000.0 448663.0 0
246000.0 448663.0 0
250000.0 448663.0 0
254000.0 448663.0 0
258000.0 448663.0 0
262000.0 448663.0 0
266000.0 448663.0 0
270000.0 448663.0 0
274000.0 448663.0 0
278000.0 448663.0 0
282000.0 448663.0 0
286000.0 448663.0 0
290000.0 448663.0 0
294000.0 448663.0 0
298000.0 448663.0 0
302000.0 448663.0 0
306000.0 448663.0 0
310000.0 448663.0 0
314000.0 448663.0 0
318000.0 448663.0 0
322000.0 448663.0 0
326000.0 448663.0 0
330000.0 448663.0 0
334000.0 448663.0 0
338000.0 448663.0 0
342000.0 448663.0 0
346000.0 448663.0 0
350000.0 448663.0 0
354000.0 448663.0 0
358000.0 448663.0 0
362000.0 448663.0 0
366000.0 448663.0 0
370000.0 448663.0 0
374000.0 448663.0 0
378000.0 448663.0 0
382000.0 448663.0 0
386000.0 448664.0 0
390000.0 448667.0 0
394000.0 448663.0 0
398032.0 449035.0 0
102003.0 452965.0 0
106000.0 452663.0 0
110000.0 452666.0 0
114000.0 452664.0 0
118000.0 452663.0 0
122000.0 452663.0 0
126000.0 452663.0 0
130000.0 452663.0 0
134000.0 452663.0 0
138000.0 452663.0 0
142000.0 452663.0 0
146000.0 452663.0 0
150000.0 452663.0 0
154000.0 452663.0 0
158000.0 452663.0 0
162000.0 452663.0 0
166000.0 452663.0 0
170000.0 452663.0 0
174000.0 452663.0 0
178000.0 452663.0 0
182000.0 452663.0 0
186000.0 452663.0 0
190000.0 452663.0 0
194000.0 452663.0 0
198000.0 452663.0 0
202000.0 452663.0 0
206000.0 452663.0 0
210000.0 452663.0 0
214000.0 452663.0 0
218000.0 452663.0 0
222000.0 452663.0 0
226000.0 452663.0 0
230000.0 452663.0 0
234000.0 452663.0 0
238000.0 452663.0 0
242000.0 452663.0 0
246000.0 452663.0 0
250000.0 452663.0 0
254000.0 452663.0 0
258000.0 452663.0 0
262000.0 452663.0 0
266000.0 452663.0 0
270000.0 452663.0 0
274000.0 452663.0 0
278000.0 452663.0 0
282000.0 452663.0 0
286000.0 452663.0 0
290000.0 452663.0 0
294000.0 452663.0 0
298000.0 452663.0 0
302000.0 452663.0 0
306000.0 452663.0 0
310000.0 452663.0 0
314000.0 452663.0 0
318000.0 452663.0 0
322000.0 452663.0 0
326000.0 452663.0 0
330000.0 452663.0 0
334000.0 452663.0 0
338000.0 452663.0 0
342000.0 452663.0 0
346000.0 452663.0 0
350000.0 452663.0 0
354000.0 452663.0 0
358000.0 452663.0 0
362000.0 452663.0 0
366000.0 452663.0 0
370000.0 452663.0 0
374000.0 452663.0 0
378000.0 452663.0 0
382000.0 452663.0 0
386000.0 452664.0 0
390000.0 452666.0 0
394000.0 452663.0 0
397997.0 452965.0 0
102000.0 456900.0 0
106000.0 456663.0 0
110000.0 456665.0 0
114000.0 456663.0 0
118000.0 456663.0 0
122000.0 456663.0 0
126000.0 456663.0 0
130000.0 456663.0 0
134000.0 456663.0 0
138000.0 456663.0 0
142000.0 456663.0 0
146000.0 456663.0 0
150000.0 456663.0 0
154000.0 456663.0 0
158000.0 456663.0 0
162000.0 456663.0 0
166000.0 456663.0 0
170000.0 456663.0 0
174000.0 456663.0 0
178000.0 456663.0 0
182000.0 456663.0 0
186000.0 456663.0 0
190000.0 456663.0 0
194000.0 456663.0 0
198000.0 456663.0 0
202000.0 456663.0 0
206000.0 456663.0 0
210000.0 456663.0 0
214000.0 456663.0 0
218000.0 456663.0 0
222000.0 456663.0 0
226000.0 456663.0 0
230000.0 456663.0 0
234000.0 456663.0 0
238000.0 456663.0 0
242000.0 456663.0 0
246000.0 456663.0 0
250000.0 456663.0 0
254000.0 456663.0 0
258000.0 456663.0 0
262000.0 456663.0 0
266000.0 456663.0 0
270000.0 456663.0 0
274000.0 456663.0 0
278000.0 456663.0 0
282000.0 456663.0 0
286000.0 456663.0 0
290000.0 456663.0 0
294000.0 456663.0 0
298000.0 456663.0 0
302000.0 456663.0 0
306000.0 456663.0 0
310000.0 456663.0 0
314000.0 456663.0 0
318000.0 456663.0 0
322000.0 456663.0 0
326000.0 456663.0 0
330000.0 456663.0 0
334000.0 456663.0 0
338000.0 456663.0 0
342000.0 456663.0 0
346000.0 456663.0 0
350000.0 456663.0 0
354000.0 456663.0 0
358000.0 456663.0 0
362000.0 456663.0 0
366000.0 456663.0 0
370000.0 456663.0 0
374000.0 456663.0 0
378000.0 456663.0 0
382000.0 456663.0 0
386000.0 456663.0 0
390000.0 456665.0 0
394000.0 456663.0 0
398000.0 456900.0 0
102000.0 460842.0 0
106000.0 460663.0 0
110000.0 460664.0 0
114000.0 460663.0 0
118000.0 460663.0 0
122000.0 460663.0 0
126000.0 460663.0 0
130000.0 460663.0 0
134000.0 460663.0 0
138000.0 460663.0 0
142000.0 460663.0 0
146000.0 460663.0 0
150000.0 460663.0 0
154000.0 460663.0 0
158000.0 460663.0 0
162000.0 460663.0 0
166000.0 460663.0 0
170000.0 460663.0 0
174000.0 460663.0 0
178000.0 460663.0 0
182000.0 460663.0 0
186000.0 460663.0 0
190000.0 460663.0 0
194000.0 460663.0 0
198000.0 460663.0 0
202000.0 460663.0 0
206000.0 460663.0 0
210000.0 460663.0 0
214000.0 460663.0 0
218000.0 460663.0 0
222000.0 460663.0 0
226000.0 460663.0 0
230000.0 460663.0 0
234000.0 460663.0 0
238000.0 460663.0 0
242000.0 460663.0 0
246000.0 460663.0 0
250000.0 460663.0 0
254000.0 460663.0 0
258000.0 460663.0 0
262000.0 460663.0 0
266000.0 460663.0 0
270000.0 460663.0 0
274000.0 460663.0 0
278000.0 460663.0 0
282000.0 460663.0 0
286000.0 460663.0 0
290000.0 460663.0 0
294000.0 460663.0 0
298000.0 460663.0 0
302000.0 460663.0 0
306000.0 460663.0 0
310000.0 460663.0 0
314000.0 460663.0 0
318000.0 460663.0 0
322000.0 460663.0 0
326000.0 460663.0 0
330000.0 460663.0 0
334000.0 460663.0 0
338000.0 460663.0 0
342000.0 460663.0 0
346000.0 460663.0 0
350000.0 460663.0 0
354000.0 460663.0 0
358000.0 460663.0 0
362000.0 460663.0 0
366000.0 460663.0 0
370000.0 460663.0 0
374000.0 460663.0 0
378000.0 460663.0 0
382000.0 460663.0 0
386000.0 460663.0 0
390000.0 460664.0 0
394000.0 460663.0 0
398000.0 460842.0 0
102000.0 464794.0 0
106000.0 464663.0 0
110000.0 464664.0 0
114000.0 464663.0 0
118000.0 464663.0 0
122000.0 464663.0 0
126000.0 464663.0 0
130000.0 464663.0 0
134000.0 464663.0 0
138000.0 464663.0 0
142000.0 464663.0 0
146000.0 464663.0 0
150000.0 464663.0 0
154000.0 464663.0 0
158000.0 464663.0 0
162000.0 464663.0 0
166000.0 464663.0 0
170000.0 464663.0 0
174000.0 464663.0 0
178000.0 464663.0 0
182000.0 464663.0 0
186000.0 464663.0 0
190000.0 464663.0 0
194000.0 464663.0 0
198000.0 464663.0 0
202000.0 464663.0 0
206000.0 464663.0 0
210000.0 464663.0 0
214000.0 464663.0 0
218000.0 464663.0 0
222000.0 464663.0 0
226000.0 464663.0 0
230000.0 464663.0 0
234000.0 464663.0 0
238000.0 464663.0 0
242000.0 464663.0 0
246000.0 464663.0 0
250000.0 464663.0 0
254000.0 464663.0 0
258000.0 464663.0 0
262000.0 464663.0 0
266000.0 464663.0 0
270000.0 464663.0 0
274000.0 464663.0 0
278000.0 464663.0 0
282000.0 464663.0 0
286000.0 464663.0 0
290000.0 464663.0 0
294000.0 464663.0 0
298000.0 464663.0 0
302000.0 464663.0 0
306000.0 464663.0 0
310000.0 464663.0 0
314000.0 464663.0 0
318000.0 464663.0 0
322000.0 464663.0 0
326000.0 464663.0 0
330000.0 464663.0 0
334000.0 464663.0 0
338000.0 464663.0 0
342000.0 464663.0 0
346000.0 464663.0 0
350000.0 464663.0 0
354000.0 464663.0 0
358000.0 464663.0 0
362000.0 464663.0 0
366000.0 464663.0 0
370000.0 464663.0 0
374000.0 464663.0 0
378000.0 464663.0 0
382000.0 464663.0 0
386000.0 464663.0 0
390000.0 464664.0 0
394000.0 464663.0 0
398000.0 464794.0 0
102000.0 468755.0 0
106000.0 468663.0 0
110000.0 468663.0 0
114000.0 468663.0 0
118000.0 468663.0 0
122000.0 468663.0 0
126000.0 468663.0 0
130000.0 468663.0 0
134000.0 468663.0 0
138000.0 468663.0 0
142000.0 468663.0 0
146000.0 468663.0 0
150000.0 468663.0 0
154000.0 468663.0 0
158000.0 468663.0 0
162000.0 468663.0 0
166000.0 468663.0 0
170000.0 468663.0 0
174000.0 468663.0 0
178000.0 468663.0 0
182000.0 468663.0 0
186000.0 468663.0 0
190000.0 468663.0 0
194000.0 468663.0 0
198000.0 468663.0 0
202000.0 468663.0 0
206000.0 468663.0 0
210000.0 468663.0 0
214000.0 468663.0 0
218000.0 468663.0 0
222000.0 468663.0 0
226000.0 468663.0 0
230000.0 468663.0 0
234000.0 468663.0 0
238000.0 468663.0 0
242000.0 468663.0 0
246000.0 468663.0 0
250000.0 468663.0 0
254000.0 468663.0 0
258000.0 468663.0 0
262000.0 468663.0 0
266000.0 468663.0 0
270000.0 468663.0 0
274000.0 468663.0 0
278000.0 468663.0 0
282000.0 468663.0 0
286000.0 468663.0 0
290000.0 468663.0 0
294000.0 468663.0 0
298000.0 468663.0 0
302000.0 468663.0 0
306000.0 468663.0 0
310000.0 468663.0 0
314000.0 468663.0 0
318000.0 468663.0 0
322000.0 468663.0 0
326000.0 468663.0 0
330000.0 468663.0 0
334000.0 468663.0 0
338000.0 468663.0 0
342000.0 468663.0 0
346000.0 468663.0 0
350000.0 468663.0 0
354000.0 468663.0 0
358000.0 468663.0 0
362000.0 468663.0 0
366000.0 468663.0 0
370000.0 468663.0 0
374000.0 468663.0 0
378000.0 468663.0 0
382000.0 468663.0 0
386000.0 468663.0 0
390000.0 468663.0 0
394000.0 468663.0 0
398000.0 468755.0 0
102000.0 472725.0 0
106000.0 472663.0 0
110000.0 472663.0 0
114000.0 472663.0 0
118000.0 472663.0 0
122000.0 472663.0 0
126000.0 472663.0 0
130000.0 472663.0 0
134000.0 472663.0 0
138000.0 472663.0 0
142000.0 472663.0 0
146000.0 472663.0 0
150000.0 472663.0 0
154000.0 472663.0 0
158000.0 472663.0 0
162000.0 472663.0 0
166000.0 472663.0 0
170000.0 472663.0 0
174000.0 472663.0 0
178000.0 472663.0 0
182000.0 472663.0 0
186000.0 472663.0 0
190000.0 472663.0 0
194000.0 472663.0 0
198000.0 472663.0 0
202000.0 472663.0 0
206000.0 472663.0 0
210000.0 472663.0 0
214000.0 472663.0 0
218000.0 472663.0 0
222000.0 472663.0 0
226000.0 472663.0 0
230000.0 472663.0 0
234000.0 472663.0 0
238000.0 472663.0 0
242000.0 472663.0 0
246000.0 472663.0 0
250000.0 472663.0 0
254000.0 472663.0 0
258000.0 472663.0 0
262000.0 472663.0 0
266000.0 472663.0 0
270000.0 472663.0 0
274000.0 472663.0 0
278000.0 472663.0 0
282000.0 472663.0 0
286000.0 472663.0 0
290000.0 472663.0 0
294000.0 472663.0 0
298000.0 472663.0 0
302000.0 472663.0 0
306000.0 472663.0 0
310000.0 472663.0 0
314000.0 472663.0 0
318000.0 472663.0 0
322000.0 472663.0 0
326000.0 472663.0 0
330000.0 472663.0 0
334000.0 472663.0 0
338000.0 472663.0 0
342000.0 472663.0 0
346000.0 472663.0 0
350000.0 472663.0 0
354000.0 472663.0 0
358000.0 472663.0 0
362000.0 472663.0 0
366000.0 472663.0 0
370000.0 472663.0 0
374000.0 472663.0 0
378000.0 472663.0 0
382000.0 472663.0 0
386000.0 472663.0 0
390000.0 472663.0 0
394000.0 472663.0 0
398000.0 472725.0 0
102000.0 476704.0 0
106000.0 476663.0 0
110000.0 476663.0 0
114000.0 476663.0 0
118000.0 476663.0 0
122000.0 476663.0 0
126000.0 476663.0 0
130000.0 476663.0 0
134000.0 476663.0 0
138000.0 476663.0 0
142000.0 476663.0 0
146000.0 476663.0 0
150000.0 476663.0 0
154000.0 476663.0 0
158000.0 476663.0 0
162000.0 476663.0 0
166000.0 476663.0 0
170000.0 476663.0 0
174000.0 476663.0 0
178000.0 476663.0 0
182000.0 476663.0 0
186000.0 476663.0 0
190000.0 476663.0 0
194000.0 476663.0 0
198000.0 476663.0 0
202000.0 476663.0 0
206000.0 476663.0 0
210000.0 476663.0 0
214000.0 476663.0 0
218000.0 476663.0 0
222000.0 476663.0 0
226000.0 476663.0 0
230000.0 476663.0 0
234000.0 476663.0 0
238000.0 476663.0 0
242000.0 476663.0 0
246000.0 476663.0 0
250000.0 476663.0 0
254000.0 476663.0 0
258000.0 476663.0 0
262000.0 476663.0 0
266000.0 476663.0 0
270000.0 476663.0 0
274000.0 476663.0 0
278000.0 476663.0 0
282000.0 476663.0 0
286000.0 476663.0 0
290000.0 476663.0 0
294000.0 476663.0 0
298000.0 476663.0 0
302000.0 476663.0 0
306000.0 476663.0 0
310000.0 476663.0 0
314000.0 476663.0 0
318000.0 476663.0 0
322000.0 476663.0 0
326000.0 476663.0 0
330000.0 476663.0 0
334000.0 476663.0 0
338000.0 476663.0 0
342000.0 476663.0 0
346000.0 476663.0 0
350000.0 476663.0 0
354000.0 476663.0 0
358000.0 476663.0 0
362000.0 476663.0 0
366000.0 476663.0 0
370000.0 476663.0 0
374000.0 476663.0 0
378000.0 476663.0 0
382000.0 476663.0 0
386000.0 476663.0 0
390000.0 476663.0 0
394000.0 476663.0 0
398000.0 476704.0 0
102000.0 480688.0 0
106000.0 480663.0 0
110000.0 480663.0 0
114000.0 480663.0 0
118000.0 480663.0 0
122000.0 480663.0 0
126000.0 480663.0 0
130000.0 480663.0 0
134000.0 480663.0 0
138000.0 480663.0 0
142000.0 480663.0 0
146000.0 480663.0 0
150000.0 480663.0 0
154000.0 480663.0 0
158000.0 480663.0 0
162000.0 480663.0 0
166000.0 480663.0 0
170000.0 480663.0 0
174000.0 480663.0 0
178000.0 480663.0 0
182000.0 480663.0 0
186000.0 480663.0 0
190000.0 480663.0 0
194000.0 480663.0 0
198000.0 480663.0 0
202000.0 480663.0 0
206000.0 480663.0 0
210000.0 480663.0 0
214000.0 480663.0 0
218000.0 480663.0 0
222000.0 480663.0 0
226000.0 480663.0 0
230000.0 480663.0 0
234000.0 480663.0 0
238000.0 480663.0 0
242000.0 480663.0 0
246000.0 480663.0 0
250000.0 480663.0 0
254000.0 480663.0 0
258000.0 480663.0 0
262000.0 480663.0 0
266000.0 480663.0 0
270000.0 480663.0 0
274000.0 480663.0 0
278000.0 480663.0 0
282000.0 480663.0 0
286000.0 480663.0 0
290000.0 480663.0 0
294000.0 480663.0 0
298000.0 480663.0 0
302000.0 480663.0 0
306000.0 480663.0 0
310000.0 480663.0 0
314000.0 480663.0 0
318000.0 480663.0 0
322000.0 480663.0 0
326000.0 480663.0 0
330000.0 480663.0 0
334000.0 480663.0 0
338000.0 480663.0 0
342000.0 480663.0 0
346000.0 480663.0 0
350000.0 480663.0 0
354000.0 480663.0 0
358000.0 480663.0 0
362000.0 480663.0 0
366000.0 480663.0 0
370000.0 480663.0 0
374000.0 480663.0 0
378000.0 480663.0 0
382000.0 480663.0 0
386000.0 480663.0 0
390000.0 480663.0 0
394000.0 480663.0 0
398000.0 480688.0 0
102000.0 484678.0 0
106000.0 484663.0 0
110000.0 484663.0 0
114000.0 484663.0 0
118000.0 484663.0 0
122000.0 484663.0 0
126000.0 484663.0 0
130000.0 484663.0 0
134000.0 484663.0 0
138000.0 484663.0 0
142000.0 484663.0 0
146000.0 484663.0 0
150000.0 484663.0 0
154000.0 484663.0 0
158000.0 484663.0 0
162000.0 484663.0 0
166000.0 484663.0 0
170000.0 484663.0 0
174000.0 484663.0 0
178000.0 484663.0 0
182000.0 484663.0 0
186000.0 484663.0 0
190000.0 484663.0 0
194000.0 484663.0 0
198000.0 484663.0 0
202000.0 484663.0 0
206000.0 484663.0 0
210000.0 484663.0 0
214000.0 484663.0 0
218000.0 484663.0 0
222000.0 484663.0 0
226000.0 484663.0 0
230000.0 484663.0 0
234000.0 484663.0 0
238000.0 484663.0 0
242000.0 484663.0 0
246000.0 484663.0 0
250000.0 484663.0 0
254000.0 484663.0 0
258000.0 484663.0 0
262000.0 484663.0 0
266000.0 484663.0 0
270000.0 484663.0 0
274000.0 484663.0 0
278000.0 484663.0 0
282000.0 484663.0 0
286000.0 484663.0 0
290000.0 484663.0 0
294000.0 484663.0 0
298000.0 484663.0 0
302000.0 484663.0 0
306000.0 484663.0 0
310000.0 484663.0 0
314000.0 484663.0 0
318000.0 484663.0 0
322000.0 484663.0 0
326000.0 484663.0 0
330000.0 484663.0 0
334000.0 484663.0 0
338000.0 484663.0 0
342000.0 484663.0 0
346000.0 484663.0 0
350000.0 484663.0 0
354000.0 484663.0 0
358000.0 484663.0 0
362000.0 484663.0 0
366000.0 484663.0 0
370000.0 484663.0 0
374000.0 484663.0 0
378000.0 484663.0 0
382000.0 484663.0 0
386000.0 484663.0 0
390000.0 484663.0 0
394000.0 484663.0 0
398000.0 484678.0 0
102000.0 488672.0 0
106000.0 488663.0 0
110000.0 488663.0 0
114000.0 488663.0 0
118000.0 488663.0 0
122000.0 488663.0 0
126000.0 488663.0 0
130000.0 488663.0 0
134000.0 488663.0 0
138000.0 488663.0 0
142000.0 488663.0 0
146000.0 488663.0 0
150000.0 488663.0 0
154000.0 488663.0 0
158000.0 488663.0 0
162000.0 488663.0 0
166000.0 488663.0 0
170000.0 488663.0 0
174000.0 488663.0 0
178000.0 488663.0 0
182000.0 488663.0 0
186000.0 488663.0 0
190000.0 488663.0 0
194000.0 488663.0 0
198000.0 488663.0 0
202000.0 488663.0 0
206000.0 488663.0 0
210000.0 488663.0 0
214000.0 488663.0 0
218000.0 488663.0 0
222000.0 488663.0 0
226000.0 488663.0 0
230000.0 488663.0 0
234000.0 488663.0 0
238000.0 488663.0 0
242000.0 488663.0 0
246000.0 488663.0 0
250000.0 488663.0 0
254000.0 488663.0 0
258000.0 488663.0 0
262000.0 488663.0 0
266000.0 488663.0 0
270000.0 488663.0 0
274000.0 488663.0 0
278000.0 488663.0 0
282000.0 488663.0 0
286000.0 488663.0 0
290000.0 488663.0 0
294000.0 488663.0 0
298000.0 488663.0 0
302000.0 488663.0 0
306000.0 488663.0 0
310000.0 488663.0 0
314000.0 488663.0 0
318000.0 488663.0 0
322000.0 488663.0 0
326000.0 488663.0 0
330000.0 488663.0 0
334000.0 488663.0 0
338000.0 488663.0 0
342000.0 488663.0 0
346000.0 488663.0 0
350000.0 488663.0 0
354000.0 488663.0 0
358000.0 488663.0 0
362000.0 488663.0 0
366000.0 488663.0 0
370000.0 488663.0 0
374000.0 488663.0 0
378000.0 488663.0 0
382000.0 488663.0 0
386000.0 488663.0 0
390000.0 488663.0 0
394000.0 488663.0 0
398000.0 488672.0 0
102000.0 492668.0 0
106000.0 492663.0 0
110000.0 492663.0 0
114000.0 492663.0 0
118000.0 492663.0 0
122000.0 492663.0 0
126000.0 492663.0 0
130000.0 492663.0 0
134000.0 492663.0 0
138000.0 492663.0 0
142000.0 492663.0 0
146000.0 492663.0 0
150000.0 492663.0 0
154000.0 492663.0 0
158000.0 492663.0 0
162000.0 492663.0 0
166000.0 492663.0 0
170000.0 492663.0 0
174000.0 492663.0 0
178000.0 492663.0 0
182000.0 492663.0 0
186000.0 492663.0 0
190000.0 492663.0 0
194000.0 492663.0 0
198000.0 492663.0 0
202000.0 492663.0 0
206000.0 492663.0 0
210000.0 492663.0 0
214000.0 492663.0 0
218000.0 492663.0 0
222000.0 492663.0 0
226000.0 492663.0 0
230000.0 492663.0 0
234000.0 492663.0 0
238000.0 492663.0 0
242000.0 492663.0 0
246000.0 492663.0 0
250000.0 492663.0 0
254000.0 492663.0 0
258000.0 492663.0 0
262000.0 492663.0 0
266000.0 492663.0 0
270000.0 492663.0 0
274000.0 492663.0 0
278000.0 492663.0 0
282000.0 492663.0 0
286000.0 492663.0 0
290000.0 492663.0 0
294000.0 492663.0 0
298000.0 492663.0 0
302000.0 492663.0 0
306000.0 492663.0 0
310000.0 492663.0 0
314000.0 492663.0 0
318000.0 492663.0 0
322000.0 492663.0 0
326000.0 492663.0 0
330000.0 492663.0 0
334000.0 492663.0 0
338000.0 492663.0 0
342000.0 492663.0 0
346000.0 492663.0 0
350000.0 492663.0 0
354000.0 492663.0 0
358000.0 492663.0 0
362000.0 492663.0 0
366000.0 492663.0 0
370000.0 492663.0 0
374000.0 492663.0 0
378000.0 492663.0 0
382000.0 492663.0 0
386000.0 492663.0 0
390000.0 492663.0 0
394000.0 492663.0 0
398000.0 492668.0 0
102000.0 496665.0 0
106000.0 496663.0 0
110000.0 496663.0 0
114000.0 496663.0 0
118000.0 496663.0 0
122000.0 496663.0 0
126000.0 496663.0 0
130000.0 496663.0 0
134000.0 496663.0 0
138000.0 496663.0 0
142000.0 496663.0 0
146000.0 496663.0 0
150000.0 496663.0 0
154000.0 496663.0 0
158000.0 496663.0 0
162000.0 496663.0 0
166000.0 496663.0 0
170000.0 496663.0 0
174000.0 496663.0 0
178000.0 496663.0 0
182000.0 496663.0 0
186000.0 496663.0 0
190000.0 496663.0 0
194000.0 496663.0 0
198000.0 496663.0 0
202000.0 496663.0 0
206000.0 496663.0 0
210000.0 496663.0 0
214000.0 496663.0 0
218000.0 496663.0 0
222000.0 496663.0 0
226000.0 496663.0 0
230000.0 496663.0 0
234000.0 496663.0 0
238000.0 496663.0 0
242000.0 496663.0 0
246000.0 496663.0 0
250000.0 496663.0 0
254000.0 496663.0 0
258000.0 496663.0 0
262000.0 496663.0 0
266000.0 496663.0 0
270000.0 496663.0 0
274000.0 496663.0 0
278000.0 496663.0 0
282000.0 496663.0 0
286000.0 496663.0 0
290000.0 496663.0 0
294000.0 496663.0 0
298000.0 496663.0 0
302000.0 496663.0 0
306000.0 496663.0 0
310000.0 496663.0 0
314000.0 496663.0 0
318000.0 496663.0 0
322000.0 496663.0 0
326000.0 496663.0 0
330000.0 496663.0 0
334000.0 496663.0 0
338000.0 496663.0 0
342000.0 496663.0 0
346000.0 496663.0 0
350000.0 496663.0 0
354000.0 496663.0 0
358000.0 496663.0 0
362000.0 496663.0 0
366000.0 496663.0 0
370000.0 496663.0 0
374000.0 496663.0 0
378000.0 496663.0 0
382000.0 496663.0 0
386000.0 496663.0 0
390000.0 496663.0 0
394000.0 496663.0 0
398000.0 496665.0 0
102000.0 500664.0 0
106000.0 500663.0 0
110000.0 500663.0 0
114000.0 500663.0 0
118000.0 500663.0 0
122000.0 500663.0 0
126000.0 500663.0 0
130000.0 500663.0 0
134000.0 500663.0 0
138000.0 500663.0 0
142000.0 500663.0 0
146000.0 500663.0 0
150000.0 500663.0 0
154000.0 500663.0 0
158000.0 500663.0 0
162000.0 500663.0 0
166000.0 500663.0 0
170000.0 500663.0 0
174000.0 500663.0 0
178000.0 500663.0 0
182000.0 500663.0 0
186000.0 500663.0 0
190000.0 500663.0 0
194000.0 500663.0 0
198000.0 500663.0 0
202000.0 500663.0 0
206000.0 500663.0 0
210000.0 500663.0 0
214000.0 500663.0 0
218000.0 500663.0 0
222000.0 500663.0 0
226000.0 500663.0 0
230000.0 500663.0 0
234000.0 500663.0 0
238000.0 500663.0 0
242000.0 500663.0 0
246000.0 500663.0 0
250000.0 500663.0 0
254000.0 500663.0 0
258000.0 500663.0 0
262000.0 500663.0 0
266000.0 500663.0 0
270000.0 500663.0 0
274000.0 500663.0 0
278000.0 500663.0 0
282000.0 500663.0 0
286000.0 500663.0 0
290000.0 500663.0 0
294000.0 500663.0 0
298000.0 500663.0 0
302000.0 500663.0 0
306000.0 500663.0 0
310000.0 500663.0 0
314000.0 500663.0 0
318000.0 500663.0 0
322000.0 500663.0 0
326000.0 500663.0 0
330000.0 500663.0 0
334000.0 500663.0 0
338000.0 500663.0 0
342000.0 500663.0 0
346000.0 500663.0 0
350000.0 500663.0 0
354000.0 500663.0 0
358000.0 500663.0 0
362000.0 500663.0 0
366000.0 500663.0 0
370000.0 500663.0 0
374000.0 500663.0 0
378000.0 500663.0 0
382000.0 500663.0 0
386000.0 500663.0 0
390000.0 500663.0 0
394000.0 500663.0 0
398000.0 500664.0 0
102000.0 504663.0 0
106000.0 504663.0 0
110000.0 504663.0 0
114000.0 504663.0 0
118000.0 504663.0 0
122000.0 504663.0 0
126000.0 504663.0 0
130000.0 504663.0 0
134000.0 504663.0 0
138000.0 504663.0 0
142000.0 504663.0 0
146000.0 504663.0 0
150000.0 504663.0 0
154000.0 504663.0 0
158000.0 504663.0 0
162000.0 504663.0 0
166000.0 504663.0 0
170000.0 504663.0 0
174000.0 504663.0 0
178000.0 504663.0 0
182000.0 504663.0 0
186000.0 504663.0 0
190000.0 504663.0 0
194000.0 504663.0 0
198000.0 504663.0 0
202000.0 504663.0 0
206000.0 504663.0 0
210000.0 504663.0 0
214000.0 504663.0 0
218000.0 504663.0 0
222000.0 504663.0 0
226000.0 504663.0 0
230000.0 504663.0 0
234000.0 504663.0 0
238000.0 504663.0 0
242000.0 504663.0 0
246000.0 504663.0 0
250000.0 504663.0 0
254000.0 504663.0 0
258000.0 504663.0 0
262000.0 504663.0 0
266000.0 504663.0 0
270000.0 504663.0 0
274000.0 504663.0 0
278000.0 504663.0 0
282000.0 504663.0 0
286000.0 504663.0 0
290000.0 504663.0 0
294000.0 504663.0 0
298000.0 504663.0 0
302000.0 504663.0 0
306000.0 504663.0 0
310000.0 504663.0 0
314000.0 504663.0 0
318000.0 504663.0 0
322000.0 504663.0 0
326000.0 504663.0 0
330000.0 504663.0 0
334000.0 504663.0 0
338000.0 504663.0 0
342000.0 504663.0 0
346000.0 504663.0 0
350000.0 504663.0 0
354000.0 504663.0 0
358000.0 504663.0 0
362000.0 504663.0 0
366000.0 504663.0 0
370000.0 504663.0 0
374000.0 504663.0 0
378000.0 504663.0 0
382000.0 504663.0 0
386000.0 504663.0 0
390000.0 504663.0 0
394000.0 504663.0 0
398000.0 504663.0 0
102000.0 508663.0 0
106000.0 508663.0 0
110000.0 508663.0 0
114000.0 508663.0 0
118000.0 508663.0 0
122000.0 508663.0 0
126000.0 508663.0 0
130000.0 508663.0 0
134000.0 508663.0 0
138000.0 508663.0 0
142000.0 508663.0 0
146000.0 508663.0 0
150000.0 508663.0 0
154000.0 508663.0 0
158000.0 508663.0 0
162000.0 508663.0 0
166000.0 508663.0 0
170000.0 508663.0 0
174000.0 508663.0 0
178000.0 508663.0 0
182000.0 508663.0 0
186000.0 508663.0 0
190000.0 508663.0 0
194000.0 508663.0 0
198000.0 508663.0 0
202000.0 508663.0 0
206000.0 508663.0 0
210000.0 508663.0 0
214000.0 508663.0 0
218000.0 508663.0 0
222000.0 508663.0 0
226000.0 508663.0 0
230000.0 508663.0 0
234000.0 508663.0 0
238000.0 508663.0 0
242000.0 508663.0 0
246000.0 508663.0 0
250000.0 508663.0 0
254000.0 508663.0 0
258000.0 508663.0 0
262000.0 508663.0 0
266000.0 508663.0 0
270000.0 508663.0 0
274000.0 508663.0 0
278000.0 508663.0 0
282000.0 508663.0 0
286000.0 508663.0 0
290000.0 508663.0 0
294000.0 508663.0 0
298000.0 508663.0 0
302000.0 508663.0 0
306000.0 508663.0 0
310000.0 508663.0 0
314000.0 508663.0 0
318000.0 508663.0 0
322000.0 508663.0 0
326000.0 508663.0 0
330000.0 508663.0 0
334000.0 508663.0 0
338000.0 508663.0 0
342000.0 508663.0 0
346000.0 508663.0 0
350000.0 508663.0 0
354000.0 508663.0 0
358000.0 508663.0 0
362000.0 508663.0 0
366000.0 508663.0 0
370000.0 508663.0 0
374000.0 508663.0 0
378000.0 508663.0 0
382000.0 508663.0 0
386000.0 508663.0 0
390000.0 508663.0 0
394000.0 508663.0 0
398000.0 508663.0 0
102000.0 512663.0 0
106000.0 512663.0 0
110000.0 512663.0 0
114000.0 512663.0 0
118000.0 512663.0 0
122000.0 512663.0 0
126000.0 512663.0 0
130000.0 512663.0 0
134000.0 512663.0 0
138000.0 512663.0 0
142000.0 512663.0 0
146000.0 512663.0 0
150000.0 512663.0 0
154000.0 512663.0 0
158000.0 512663.0 0
162000.0 512663.0 0
166000.0 512663.0 0
170000.0 512663.0 0
174000.0 512663.0 0
178000.0 512663.0 0
182000.0 512663.0 0
186000.0 512663.0 0
190000.0 512663.0 0
194000.0 512663.0 0
198000.0 512663.0 0
202000.0 512663.0 0
206000.0 512663.0 0
210000.0 512663.0 0
214000.0 512663.0 0
218000.0 512663.0 0
222000.0 512663.0 0
226000.0 512663.0 0
230000.0 512663.0 0
234000.0 512663.0 0
238000.0 512663.0 0
242000.0 512663.0 0
246000.0 512663.0 0
250000.0 512663.0 0
254000.0 512663.0 0
258000.0 512663.0 0
262000.0 512663.0 0
266000.0 512663.0 0
270000.0 512663.0 0
274000.0 512663.0 0
278000.0 512663.0 0
282000.0 512663.0 0
286000.0 512663.0 0
290000.0 512663.0 0
294000.0 512663.0 0
298000.0 512663.0 0
302000.0 512663.0 0
306000.0 512663.0 0
310000.0 512663.0 0
314000.0 512663.0 0
318000.0 512663.0 0
322000.0 512663.0 0
326000.0 512663.0 0
330000.0 512663.0 0
334000.0 512663.0 0
338000.0 512663.0 0
342000.0 512663.0 0
346000.0 512663.0 0
350000.0 512663.0 0
354000.0 512663.0 0
358000.0 512663.0 0
362000.0 512663.0 0
366000.0 512663.0 0
370000.0 512663.0 0
374000.0 512663.0 0
378000.0 512663.0 0
382000.0 512663.0 0
386000.0 512663.0 0
390000.0 512663.0 0
394000.0 512663.0 0
398000.0 512663.0 0
102000.0 516663.0 0
106000.0 516663.0 0
110000.0 516663.0 0
114000.0 516663.0 0
118000.0 516663.0 0
122000.0 516663.0 0
126000.0 516663.0 0
130000.0 516663.0 0
134000.0 516663.0 0
138000.0 516663.0 0
142000.0 516663.0 0
146000.0 516663.0 0
150000.0 516663.0 0
154000.0 516663.0 0
158000.0 516663.0 0
162000.0 516663.0 0
166000.0 516663.0 0
170000.0 516663.0 0
174000.0 516663.0 0
178000.0 516663.0 0
182000.0 516663.0 0
186000.0 516663.0 0
190000.0 516663.0 0
194000.0 516663.0 0
198000.0 516663.0 0
202000.0 516663.0 0
206000.0 516663.0 0
210000.0 516663.0 0
214000.0 516663.0 0
218000.0 516663.0 0
222000.0 516663.0 0
226000.0 516663.0 0
230000.0 516663.0 0
234000.0 516663.0 0
238000.0 516663.0 0
242000.0 516663.0 0
246000.0 516663.0 0
250000.0 516663.0 0
254000.0 516663.0 0
258000.0 516663.0 0
262000.0 516663.0 0
266000.0 516663.0 0
270000.0 516663.0 0
274000.0 516663.0 0
278000.0 516663.0 0
282000.0 516663.0 0
286000.0 516663.0 0
290000.0 516663.0 0
294000.0 516663.0 0
298000.0 516663.0 0
302000.0 516663.0 0
306000.0 516663.0 0
310000.0 516663.0 0
314000.0 516663.0 0
318000.0 516663.0 0
322000.0 516663.0 0
326000.0 516663.0 0
330000.0 516663.0 0
334000.0 516663.0 0
338000.0 516663.0 0
342000.0 516663.0 0
346000.0 516663.0 0
350000.0 516663.0 0
354000.0 516663.0 0
358000.0 516663.0 0
362000.0 516663.0 0
366000.0 516663.0 0
370000.0 516663.0 0
374000.0 516663.0 0
378000.0 516663.0 0
382000.0 516663.0 0
386000.0 516663.0 0
390000.0 516663.0 0
394000.0 516663.0 0
398000.0 516663.0 0
102000.0 520663.0 0
106000.0 520663.0 0
110000.0 520663.0 0
114000.0 520663.0 0
118000.0 520663.0 0
122000.0 520663.0 0
126000.0 520663.0 0
130000.0 520663.0 0
134000.0 520663.0 0
138000.0 520663.0 0
142000.0 520663.0 0
146000.0 520663.0 0
150000.0 520663.0 0
154000.0 520663.0 0
158000.0 520663.0 0
162000.0 520663.0 0
166000.0 520663.0 0
170000.0 520663.0 0
174000.0 520663.0 0
178000.0 520663.0 0
182000.0 520663.0 0
186000.0 520663.0 0
190000.0 520663.0 0
194000.0 520663.0 0
198000.0 520663.0 0
202000.0 520663.0 0
206000.0 520663.0 0
210000.0 520663.0 0
214000.0 520663.0 0
218000.0 520663.0 0
222000.0 520663.0 0
226000.0 520663.0 0
230000.0 520663.0 0
234000.0 520663.0 0
238000.0 520663.0 0
242000.0 520663.0 0
246000.0 520663.0 0
250000.0 520663.0 0
254000.0 520663.0 0
258000.0 520663.0 0
262000.0 520663.0 0
266000.0 520663.0 0
270000.0 520663.0 0
274000.0 520663.0 0
278000.0 520663.0 0
282000.0 520663.0 0
286000.0 520663.0 0
290000.0 520663.0 0
294000.0 520663.0 0
298000.0 520663.0 0
302000.0 520663.0 0
306000.0 520663.0 0
310000.0 520663.0 0
314000.0 520663.0 0
318000.0 520663.0 0
322000.0 520663.0 0
326000.0 520663.0 0
330000.0 520663.0 0
334000.0 520663.0 0
338000.0 520663.0 0
342000.0 520663.0 0
346000.0 520663.0 0
350000.0 520663.0 0
354000.0 520663.0 0
358000.0 520663.0 0
362000.0 520663.0 0
366000.0 520663.0 0
370000.0 520663.0 0
374000.0 520663.0 0
378000.0 520663.0 0
382000.0 520663.0 0
386000.0 520663.0 0
390000.0 520663.0 0
394000.0 520663.0 0
398000.0 520663.0 0
102000.0 524663.0 0
106000.0 524663.0 0
110000.0 524663.0 0
114000.0 524663.0 0
118000.0 524663.0 0
122000.0 524663.0 0
126000.0 524663.0 0
130000.0 524663.0 0
134000.0 524663.0 0
138000.0 524663.0 0
142000.0 524663.0 0
146000.0 524663.0 0
150000.0 524663.0 0
154000.0 524663.0 0
158000.0 524663.0 0
162000.0 524663.0 0
166000.0 524663.0 0
170000.0 524663.0 0
174000.0 524663.0 0
178000.0 524663.0 0
182000.0 524663.0 0
186000.0 524663.0 0
190000.0 524663.0 0
194000.0 524663.0 0
198000.0 524663.0 0
202000.0 524663.0 0
206000.0 524663.0 0
210000.0 524663.0 0
214000.0 524663.0 0
218000.0 524663.0 0
222000.0 524663.0 0
226000.0 524663.0 0
230000.0 524663.0 0
234000.0 524663.0 0
238000.0 524663.0 0
242000.0 524663.0 0
246000.0 524663.0 0
250000.0 524663.0 0
254000.0 524663.0 0
258000.0 524663.0 0
262000.0 524663.0 0
266000.0 524663.0 0
270000.0 524663.0 0
274000.0 524663.0 0
278000.0 524663.0 0
282000.0 524663.0 0
286000.0 524663.0 0
290000.0 524663.0 0
294000.0 524663.0 0
298000.0 524663.0 0
302000.0 524663.0 0
306000.0 524663.0 0
310000.0 524663.0 0
314000.0 524663.0 0
318000.0 524663.0 0
322000.0 524663.0 0
326000.0 524663.0 0
330000.0 524663.0 0
334000.0 524663.0 0
338000.0 524663.0 0
342000.0 524663.0 0
346000.0 524663.0 0
350000.0 524663.0 0
354000.0 524663.0 0
358000.0 524663.0 0
362000.0 524663.0 0
366000.0 524663.0 0
370000.0 524663.0 0
374000.0 524663.0 0
378000.0 524663.0 0
382000.0 524663.0 0
386000.0 524663.0 0
390000.0 524663.0 0
394000.0 524663.0 0
398000.0 524663.0 0
102000.0 528663.0 0
106000.0 528663.0 0
110000.0 528663.0 0
114000.0 528663.0 0
118000.0 528663.0 0
122000.0 528663.0 0
126000.0 528663.0 0
130000.0 528663.0 0
134000.0 528663.0 0
138000.0 528663.0 0
142000.0 528663.0 0
146000.0 528663.0 0
150000.0 528663.0 0
154000.0 528663.0 0
158000.0 528663.0 0
162000.0 528663.0 0
166000.0 528663.0 0
170000.0 528663.0 0
174000.0 528663.0 0
178000.0 528663.0 0
182000.0 528663.0 0
186000.0 528663.0 0
190000.0 528663.0 0
194000.0 528663.0 0
198000.0 528663.0 0
202000.0 528663.0 0
206000.0 528663.0 0
210000.0 528663.0 0
214000.0 528663.0 0
218000.0 528663.0 0
222000.0 528663.0 0
226000.0 528663.0 0
230000.0 528663.0 0
234000.0 528663.0 0
238000.0 528663.0 0
242000.0 528663.0 0
246000.0 528663.0 0
250000.0 528663.0 0
254000.0 528663.0 0
258000.0 528663.0 0
262000.0 528663.0 0
266000.0 528663.0 0
270000.0 528663.0 0
274000.0 528663.0 0
278000.0 528663.0 0
282000.0 528663.0 0
286000.0 528663.0 0
290000.0 528663.0 0
294000.0 528663.0 0
298000.0 528663.0 0
302000.0 528663.0 0
306000.0 528663.0 0
310000.0 528663.0 0
314000.0 528663.0 0
318000.0 528663.0 0
322000.0 528663.0 0
326000.0 528663.0 0
330000.0 528663.0 0
334000.0 528663.0 0
338000.0 528663.0 0
342000.0 528663.0 0
346000.0 528663.0 0
350000.0 528663.0 0
354000.0 528663.0 0
358000.0 528663.0 0
362000.0 528663.0 0
366000.0 528663.0 0
370000.0 528663.0 0
374000.0 528663.0 0
378000.0 528663.0 0
382000.0 528663.0 0
386000.0 528663.0 0
390000.0 528663.0 0
394000.0 528663.0 0
398000.0 528663.0 0
102000.0 532663.0 0
106000.0 532663.0 0
110000.0 532663.0 0
114000.0 532663.0 0
118000.0 532663.0 0
122000.0 532663.0 0
126000.0 532663.0 0
130000.0 532663.0 0
134000.0 532663.0 0
138000.0 532663.0 0
142000.0 532663.0 0
146000.0 532663.0 0
150000.0 532663.0 0
154000.0 532663.0 0
158000.0 532663.0 0
162000.0 532663.0 0
166000.0 532663.0 0
170000.0 532663.0 0
174000.0 532663.0 0
178000.0 532663.0 0
182000.0 532663.0 0
186000.0 532663.0 0
190000.0 532663.0 0
194000.0 532663.0 0
198000.0 532663.0 0
202000.0 532663.0 0
206000.0 532663.0 0
210000.0 532663.0 0
214000.0 532663.0 0
218000.0 532663.0 0
222000.0 532663.0 0
226000.0 532663.0 0
230000.0 532663.0 0
234000.0 532663.0 0
238000.0 532663.0 0
242000.0 532663.0 0
246000.0 532663.0 0
250000.0 532663.0 0
254000.0 532663.0 0
258000.0 532663.0 0
262000.0 532663.0 0
266000.0 532663.0 0
270000.0 532663.0 0
274000.0 532663.0 0
278000.0 532663.0 0
282000.0 532663.0 0
286000.0 532663.0 0
290000.0 532663.0 0
294000.0 532663.0 0
298000.0 532663.0 0
302000.0 532663.0 0
306000.0 532663.0 0
310000.0 532663.0 0
314000.0 532663.0 0
318000.0 532663.0 0
322000.0 532663.0 0
326000.0 532663.0 0
330000.0 532663.0 0
334000.0 532663.0 0
338000.0 532663.0 0
342000.0 532663.0 0
346000.0 532663.0 0
350000.0 532663.0 0
354000.0 532663.0 0
358000.0 532663.0 0
362000.0 532663.0 0
366000.0 532663.0 0
370000.0 532663.0 0
374000.0 532663.0 0
378000.0 532663.0 0
382000.0 532663.0 0
386000.0 532663.0 0
390000.0 532663.0 0
394000.0 532663.0 0
398000.0 532663.0 0
102000.0 536663.0 0
106000.0 536663.0 0
110000.0 536663.0 0
114000.0 536663.0 0
118000.0 536663.0 0
122000.0 536663.0 0
126000.0 536663.0 0
130000.0 536663.0 0
134000.0 536663.0 0
138000.0 536663.0 0
142000.0 536663.0 0
146000.0 536663.0 0
150000.0 536663.0 0
154000.0 536663.0 0
158000.0 536663.0 0
162000.0 536663.0 0
166000.0 536663.0 0
170000.0 536663.0 0
174000.0 536663.0 0
178000.0 536663.0 0
182000.0 536663.0 0
186000.0 536663.0 0
190000.0 536663.0 0
194000.0 536663.0 0
198000.0 536663.0 0
202000.0 536663.0 0
206000.0 536663.0 0
210000.0 536663.0 0
214000.0 536663.0 0
218000.0 536663.0 0
222000.0 536663.0 0
226000.0 536663.0 0
230000.0 536663.0 0
234000.0 536663.0 0
238000.0 536663.0 0
242000.0 536663.0 0
246000.0 536663.0 0
250000.0 536663.0 0
254000.0 536663.0 0
258000.0 536663.0 0
262000.0 536663.0 0
266000.0 536663.0 0
270000.0 536663.0 0
274000.0 536663.0 0
278000.0 536663.0 0
282000.0 536663.0 0
286000.0 536663.0 0
290000.0 536663.0 0
294000.0 536663.0 0
298000.0 536663.0 0
302000.0 536663.0 0
306000.0 536663.0 0
310000.0 536663.0 0
314000.0 536663.0 0
318000.0 536663.0 0
322000.0 536663.0 0
326000.0 536663.0 0
330000.0 536663.0 0
334000.0 536663.0 0
338000.0 536663.0 0
342000.0 536663.0 0
346000.0 536663.0 0
350000.0 536663.0 0
354000.0 536663.0 0
358000.0 536663.0 0
362000.0 536663.0 0
366000.0 536663.0 0
370000.0 536663.0 0
374000.0 536663.0 0
378000.0 536663.0 0
382000.0 536663.0 0
386000.0 536663.0 0
390000.0 536663.0 0
394000.0 536663.0 0
398000.0 536663.0 0
102000.0 540663.0 0
106000.0 540663.0 0
110000.0 540663.0 0
114000.0 540663.0 0
118000.0 540663.0 0
122000.0 540663.0 0
126000.0 540663.0 0
130000.0 540663.0 0
134000.0 540663.0 0
138000.0 540663.0 0
142000.0 540663.0 0
146000.0 540663.0 0
150000.0 540663.0 0
154000.0 540663.0 0
158000.0 540663.0 0
162000.0 540663.0 0
166000.0 540663.0 0
170000.0 540663.0 0
174000.0 540663.0 0
178000.0 540663.0 0
182000.0 540663.0 0
186000.0 540663.0 0
190000.0 540663.0 0
194000.0 540663.0 0
198000.0 540663.0 0
202000.0 540663.0 0
206000.0 540663.0 0
210000.0 540663.0 0
214000.0 540663.0 0
218000.0 540663.0 0
222000.0 540663.0 0
226000.0 540663.0 0
230000.0 540663.0 0
234000.0 540663.0 0
238000.0 540663.0 0
242000.0 540663.0 0
246000.0 540663.0 0
250000.0 540663.0 0
254000.0 540663.0 0
258000.0 540663.0 0
262000.0 540663.0 0
266000.0 540663.0 0
270000.0 540663.0 0
274000.0 540663.0 0
278000.0 540663.0 0
282000.0 540663.0 0
286000.0 540663.0 0
290000.0 540663.0 0
294000.0 540663.0 0
298000.0 540663.0 0
302000.0 540663.0 0
306000.0 540663.0 0
310000.0 540663.0 0
314000.0 540663.0 0
318000.0 540663.0 0
322000.0 540663.0 0
326000.0 540663.0 0
330000.0 540663.0 0
334000.0 540663.0 0
338000.0 540663.0 0
342000.0 540663.0 0
346000.0 540663.0 0
350000.0 540663.0 0
354000.0 540663.0 0
358000.0 540663.0 0
362000.0 540663.0 0
366000.0 540663.0 0
370000.0 540663.0 0
374000.0 540663.0 0
378000.0 540663.0 0
382000.0 540663.0 0
386000.0 540663.0 0
390000.0 540663.0 0
394000.0 540663.0 0
398000.0 540663.0 0
102000.0 544663.0 0
106000.0 544663.0 0
110000.0 544663.0 0
114000.0 544663.0 0
118000.0 544663.0 0
122000.0 544663.0 0
126000.0 544663.0 0
130000.0 544663.0 0
134000.0 544663.0 0
138000.0 544663.0 0
142000.0 544663.0 0
146000.0 544663.0 0
150000.0 544663.0 0
154000.0 544663.0 0
158000.0 544663.0 0
162000.0 544663.0 0
166000.0 544663.0 0
170000.0 544663.0 0
174000.0 544663.0 0
178000.0 544663.0 0
182000.0 544663.0 0
186000.0 544663.0 0
190000.0 544663.0 0
194000.0 544663.0 0
198000.0 544663.0 0
202000.0 544663.0 0
206000.0 544663.0 0
210000.0 544663.0 0
214000.0 544663.0 0
218000.0 544663.0 0
222000.0 544663.0 0
226000.0 544663.0 0
230000.0 544663.0 0
234000.0 544663.0 0
238000.0 544663.0 0
242000.0 544663.0 0
246000.0 544663.0 0
250000.0 544663.0 0
254000.0 544663.0 0
258000.0 544663.0 0
262000.0 544663.0 0
266000.0 544663.0 0
270000.0 544663.0 0
274000.0 544663.0 0
278000.0 544663.0 0
282000.0 544663.0 0
286000.0 544663.0 0
290000.0 544663.0 0
294000.0 544663.0 0
298000.0 544663.0 0
302000.0 544663.0 0
306000.0 544663.0 0
310000.0 544663.0 0
314000.0 544663.0 0
318000.0 544663.0 0
322000.0 544663.0 0
326000.0 544663.0 0
330000.0 544663.0 0
334000.0 544663.0 0
338000.0 544663.0 0
342000.0 544663.0 0
346000.0 544663.0 0
350000.0 544663.0 0
354000.0 544663.0 0
358000.0 544663.0 0
362000.0 544663.0 0
366000.0 544663.0 0
370000.0 544663.0 0
374000.0 544663.0 0
378000.0 544663.0 0
382000.0 544663.0 0
386000.0 544663.0 0
390000.0 544663.0 0
394000.0 544663.0 0
398000.0 544663.0 0
102000.0 548663.0 0
106000.0 548663.0 0
110000.0 548663.0 0
114000.0 548663.0 0
118000.0 548663.0 0
122000.0 548663.0 0
126000.0 548663.0 0
130000.0 548663.0 0
134000.0 548663.0 0
138000.0 548663.0 0
142000.0 548663.0 0
146000.0 548663.0 0
150000.0 548663.0 0
154000.0 548663.0 0
158000.0 548663.0 0
162000.0 548663.0 0
166000.0 548663.0 0
170000.0 548663.0 0
174000.0 548663.0 0
178000.0 548663.0 0
182000.0 548663.0 0
186000.0 548663.0 0
190000.0 548663.0 0
194000.0 548663.0 0
198000.0 548663.0 0
202000.0 548663.0 0
206000.0 548663.0 0
210000.0 548663.0 0
214000.0 548663.0 0
218000.0 548663.0 0
222000.0 548663.0 0
226000.0 548663.0 0
230000.0 548663.0 0
234000.0 548663.0 0
238000.0 548663.0 0
242000.0 548663.0 0
246000.0 548663.0 0
250000.0 548663.0 0
254000.0 548663.0 0
258000.0 548663.0 0
262000.0 548663.0 0
266000.0 548663.0 0
270000.0 548663.0 0
274000.0 548663.0 0
278000.0 548663.0 0
282000.0 548663.0 0
286000.0 548663.0 0
290000.0 548663.0 0
294000.0 548663.0 0
298000.0 548663.0 0
302000.0 548663.0 0
306000.0 548663.0 0
310000.0 548663.0 0
314000.0 548663.0 0
318000.0 548663.0 0
322000.0 548663.0 0
326000.0 548663.0 0
330000.0 548663.0 0
334000.0 548663.0 0
338000.0 548663.0 0
342000.0 548663.0 0
346000.0 548663.0 0
350000.0 548663.0 0
354000.0 548663.0 0
358000.0 548663.0 0
362000.0 548663.0 0
366000.0 548663.0 0
370000.0 548663.0 0
374000.0 548663.0 0
378000.0 548663.0 0
382000.0 548663.0 0
386000.0 548663.0 0
390000.0 548663.0 0
394000.0 548663.0 0
398000.0 548663.0 0
102000.0 552663.0 0
106000.0 552663.0 0
110000.0 552663.0 0
114000.0 552663.0 0
118000.0 552663.0 0
122000.0 552663.0 0
126000.0 552663.0 0
130000.0 552663.0 0
134000.0 552663.0 0
138000.0 552663.0 0
142000.0 552663.0 0
146000.0 552663.0 0
150000.0 552663.0 0
154000.0 552663.0 0
158000.0 552663.0 0
162000.0 552663.0 0
166000.0 552663.0 0
170000.0 552663.0 0
174000.0 552663.0 0
178000.0 552663.0 0
182000.0 552663.0 0
186000.0 552663.0 0
190000.0 552663.0 0
194000.0 552663.0 0
198000.0 552663.0 0
202000.0 552663.0 0
206000.0 552663.0 0
210000.0 552663.0 0
214000.0 552663.0 0
218000.0 552663.0 0
222000.0 552663.0 0
226000.0 552663.0 0
230000.0 552663.0 0
234000.0 552663.0 0
238000.0 552663.0 0
242000.0 552663.0 0
246000.0 552663.0 0
250000.0 552663.0 0
254000.0 552663.0 0
258000.0 552663.0 0
262000.0 552663.0 0
266000.0 552663.0 0
270000.0 552663.0 0
274000.0 552663.0 0
278000.0 552663.0 0
282000.0 552663.0 0
286000.0 552663.0 0
290000.0 552663.0 0
294000.0 552663.0 0
298000.0 552663.0 0
302000.0 552663.0 0
306000.0 552663.0 0
310000.0 552663.0 0
314000.0 552663.0 0
318000.0 552663.0 0
322000.0 552663.0 0
326000.0 552663.0 0
330000.0 552663.0 0
334000.0 552663.0 0
338000.0 552663.0 0
342000.0 552663.0 0
346000.0 552663.0 0
350000.0 552663.0 0
354000.0 552663.0 0
358000.0 552663.0 0
362000.0 552663.0 0
366000.0 552663.0 0
370000.0 552663.0 0
374000.0 552663.0 0
378000.0 552663.0 0
382000.0 552663.0 0
386000.0 552663.0 0
390000.0 552663.0 0
394000.0 552663.0 0
398000.0 552663.0 0
102000.0 556663.0 0
106000.0 556663.0 0
110000.0 556663.0 0
114000.0 556663.0 0
118000.0 556663.0 0
122000.0 556663.0 0
126000.0 556663.0 0
130000.0 556663.0 0
134000.0 556663.0 0
138000.0 556663.0 0
142000.0 556663.0 0
146000.0 556663.0 0
150000.0 556663.0 0
154000.0 556663.0 0
158000.0 556663.0 0
162000.0 556663.0 0
166000.0 556663.0 0
170000.0 556663.0 0
174000.0 556663.0 0
178000.0 556663.0 0
182000.0 556663.0 0
186000.0 556663.0 0
190000.0 556663.0 0
194000.0 556663.0 0
198000.0 556663.0 0
202000.0 556663.0 0
206000.0 556663.0 0
210000.0 556663.0 0
214000.0 556663.0 0
218000.0 556663.0 0
222000.0 556663.0 0
226000.0 556663.0 0
230000.0 556663.0 0
234000.0 556663.0 0
238000.0 556663.0 0
242000.0 556663.0 0
246000.0 556663.0 0
250000.0 556663.0 0
254000.0 556663.0 0
258000.0 556663.0 0
262000.0 556663.0 0
266000.0 556663.0 0
270000.0 556663.0 0
274000.0 556663.0 0
278000.0 556663.0 0
282000.0 556663.0 0
286000.0 556663.0 0
290000.0 556663.0 0
294000.0 556663.0 0
298000.0 556663.0 0
302000.0 556663.0 0
306000.0 556663.0 0
310000.0 556663.0 0
314000.0 556663.0 0
318000.0 556663.0 0
322000.0 556663.0 0
326000.0 556663.0 0
330000.0 556663.0 0
334000.0 556663.0 0
338000.0 556663.0 0
342000.0 556663.0 0
346000.0 556663.0 0
350000.0 556663.0 0
354000.0 556663.0 0
358000.0 556663.0 0
362000.0 556663.0 0
366000.0 556663.0 0
370000.0 556663.0 0
374000.0 556663.0 0
378000.0 556663.0 0
382000.0 556663.0 0
386000.0 556663.0 0
390000.0 556663.0 0
394000.0 556663.0 0
398000.0 556663.0 0
102000.0 560663.0 0
106000.0 560663.0 0
110000.0 560663.0 0
114000.0 560663.0 0
118000.0 560663.0 0
122000.0 560663.0 0
126000.0 560663.0 0
130000.0 560663.0 0
134000.0 560663.0 0
138000.0 560663.0 0
142000.0 560663.0 0
146000.0 560663.0 0
150000.0 560663.0 0
154000.0 560663.0 0
158000.0 560663.0 0
162000.0 560663.0 0
166000.0 560663.0 0
170000.0 560663.0 0
174000.0 560663.0 0
178000.0 560663.0 0
182000.0 560663.0 0
186000.0 560663.0 0
190000.0 560663.0 0
194000.0 560663.0 0
198000.0 560663.0 0
202000.0 560663.0 0
206000.0 560663.0 0
210000.0 560663.0 0
214000.0 560663.0 0
218000.0 560663.0 0
222000.0 560663.0 0
226000.0 560663.0 0
230000.0 560663.0 0
234000.0 560663.0 0
238000.0 560663.0 0
242000.0 560663.0 0
246000.0 560663.0 0
250000.0 560663.0 0
254000.0 560663.0 0
258000.0 560663.0 0
262000.0 560663.0 0
266000.0 560663.0 0
270000.0 560663.0 0
274000.0 560663.0 0
278000.0 560663.0 0
282000.0 560663.0 0
286000.0 560663.0 0
290000.0 560663.0 0
294000.0 560663.0 0
298000.0 560663.0 0
302000.0 560663.0 0
306000.0 560663.0 0
310000.0 560663.0 0
314000.0 560663.0 0
318000.0 560663.0 0
322000.0 560663.0 0
326000.0 560663.0 0
330000.0 560663.0 0
334000.0 560663.0 0
338000.0 560663.0 0
342000.0 560663.0 0
346000.0 560663.0 0
350000.0 560663.0 0
354000.0 560663.0 0
358000.0 560663.0 0
362000.0 560663.0 0
366000.0 560663.0 0
370000.0 560663.0 0
374000.0 560663.0 0
378000.0 560663.0 0
382000.0 560663.0 0
386000.0 560663.0 0
390000.0 560663.0 0
394000.0 560663.0 0
398000.0 560663.0 0
102000.0 564663.0 0
106000.0 564663.0 0
110000.0 564663.0 0
114000.0 564663.0 0
118000.0 564663.0 0
122000.0 564663.0 0
126000.0 564663.0 0
130000.0 564663.0 0
134000.0 564663.0 0
138000.0 564663.0 0
142000.0 564663.0 0
146000.0 564663.0 0
150000.0 564663.0 0
154000.0 564663.0 0
158000.0 564663.0 0
162000.0 564663.0 0
166000.0 564663.0 0
170000.0 564663.0 0
174000.0 564663.0 0
178000.0 564663.0 0
182000.0 564663.0 0
186000.0 564663.0 0
190000.0 564663.0 0
194000.0 564663.0 0
198000.0 564663.0 0
202000.0 564663.0 0
206000.0 564663.0 0
210000.0 564663.0 0
214000.0 564663.0 0
218000.0 564663.0 0
222000.0 564663.0 0
226000.0 564663.0 0
230000.0 564663.0 0
234000.0 564663.0 0
238000.0 564663.0 0
242000.0 564663.0 0
246000.0 564663.0 0
250000.0 564663.0 0
254000.0 564663.0 0
258000.0 564663.0 0
262000.0 564663.0 0
266000.0 564663.0 0
270000.0 564663.0 0
274000.0 564663.0 0
278000.0 564663.0 0
282000.0 564663.0 0
286000.0 564663.0 0
290000.0 564663.0 0
294000.0 564663.0 0
298000.0 564663.0 0
302000.0 564663.0 0
306000.0 564663.0 0
310000.0 564663.0 0
314000.0 564663.0 0
318000.0 564663.0 0
322000.0 564663.0 0
326000.0 564663.0 0
330000.0 564663.0 0
334000.0 564663.0 0
338000.0 564663.0 0
342000.0 564663.0 0
346000.0 564663.0 0
350000.0 564663.0 0
354000.0 564663.0 0
358000.0 564663.0 0
362000.0 564663.0 0
366000.0 564663.0 0
370000.0 564663.0 0
374000.0 564663.0 0
378000.0 564663.0 0
382000.0 564663.0 0
386000.0 564663.0 0
390000.0 564663.0 0
394000.0 564663.0 0
398000.0 564663.0 0
102000.0 568663.0 0
106000.0 568663.0 0
110000.0 568663.0 0
114000.0 568663.0 0
118000.0 568663.0 0
122000.0 568663.0 0
126000.0 568663.0 0
130000.0 568663.0 0
134000.0 568663.0 0
138000.0 568663.0 0
142000.0 568663.0 0
146000.0 568663.0 0
150000.0 568663.0 0
154000.0 568663.0 0
158000.0 568663.0 0
162000.0 568663.0 0
166000.0 568663.0 0
170000.0 568663.0 0
174000.0 568663.0 0
178000.0 568663.0 0
182000.0 568663.0 0
186000.0 568663.0 0
190000.0 568663.0 0
194000.0 568663.0 0
198000.0 568663.0 0
202000.0 568663.0 0
206000.0 568663.0 0
210000.0 568663.0 0
214000.0 568663.0 0
218000.0 568663.0 0
222000.0 568663.0 0
226000.0 568663.0 0
230000.0 568663.0 0
234000.0 568663.0 0
238000.0 568663.0 0
242000.0 568663.0 0
246000.0 568663.0 0
250000.0 568663.0 0
254000.0 568663.0 0
258000.0 568663.0 0
262000.0 568663.0 0
266000.0 568663.0 0
270000.0 568663.0 0
274000.0 568663.0 0
278000.0 568663.0 0
282000.0 568663.0 0
286000.0 568663.0 0
290000.0 568663.0 0
294000.0 568663.0 0
298000.0 568663.0 0
302000.0 568663.0 0
306000.0 568663.0 0
310000.0 568663.0 0
314000.0 568663.0 0
318000.0 568663.0 0
322000.0 568663.0 0
326000.0 568663.0 0
330000.0 568663.0 0
334000.0 568663.0 0
338000.0 568663.0 0
342000.0 568663.0 0
346000.0 568663.0 0
350000.0 568663.0 0
354000.0 568663.0 0
358000.0 568663.0 0
362000.0 568663.0 0
366000.0 568663.0 0
370000.0 568663.0 0
374000.0 568663.0 0
378000.0 568663.0 0
382000.0 568663.0 0
386000.0 568663.0 0
390000.0 568663.0 0
394000.0 568663.0 0
398000.0 568663.0 0
102000.0 572663.0 0
106000.0 572663.0 0
110000.0 572663.0 0
114000.0 572663.0 0
118000.0 572663.0 0
122000.0 572663.0 0
126000.0 572663.0 0
130000.0 572663.0 0
134000.0 572663.0 0
138000.0 572663.0 0
142000.0 572663.0 0
146000.0 572663.0 0
150000.0 572663.0 0
154000.0 572663.0 0
158000.0 572663.0 0
162000.0 572663.0 0
166000.0 572663.0 0
170000.0 572663.0 0
174000.0 572663.0 0
178000.0 572663.0 0
182000.0 572663.0 0
186000.0 572663.0 0
190000.0 572663.0 0
194000.0 572663.0 0
198000.0 572663.0 0
202000.0 572663.0 0
206000.0 572663.0 0
210000.0 572663.0 0
214000.0 572663.0 0
218000.0 572663.0 0
222000.0 572663.0 0
226000.0 572663.0 0
230000.0 572663.0 0
234000.0 572663.0 0
238000.0 572663.0 0
242000.0 572663.0 0
246000.0 572663.0 0
250000.0 572663.0 0
254000.0 572663.0 0
258000.0 572663.0 0
262000.0 572663.0 0
266000.0 572663.0 0
270000.0 572663.0 0
274000.0 572663.0 0
278000.0 572663.0 0
282000.0 572663.0 0
286000.0 572663.0 0
290000.0 572663.0 0
294000.0 572663.0 0
298000.0 572663.0 0
302000.0 572663.0 0
306000.0 572663.0 0
310000.0 572663.0 0
314000.0 572663.0 0
318000.0 572663.0 0
322000.0 572663.0 0
326000.0 572663.0 0
330000.0 572663.0 0
334000.0 572663.0 0
338000.0 572663.0 0
342000.0 572663.0 0
346000.0 572663.0 0
350000.0 572663.0 0
354000.0 572663.0 0
358000.0 572663.0 0
362000.0 572663.0 0
366000.0 572663.0 0
370000.0 572663.0 0
374000.0 572663.0 0
378000.0 572663.0 0
382000.0 572663.0 0
386000.0 572663.0 0
390000.0 572663.0 0
394000.0 572663.0 0
398000.0 572663.0 0
102000.0 576663.0 0
106000.0 576663.0 0
110000.0 576663.0 0
114000.0 576663.0 0
118000.0 576663.0 0
122000.0 576663.0 0
126000.0 576663.0 0
130000.0 576663.0 0
134000.0 576663.0 0
138000.0 576663.0 0
142000.0 576663.0 0
146000.0 576663.0 0
150000.0 576663.0 0
154000.0 576663.0 0
158000.0 576663.0 0
162000.0 576663.0 0
166000.0 576663.0 0
170000.0 576663.0 0
174000.0 576663.0 0
178000.0 576663.0 0
182000.0 576663.0 0
186000.0 576663.0 0
190000.0 576663.0 0
194000.0 576663.0 0
198000.0 576663.0 0
202000.0 576663.0 0
206000.0 576663.0 0
210000.0 576663.0 0
214000.0 576663.0 0
218000.0 576663.0 0
222000.0 576663.0 0
226000.0 576663.0 0
230000.0 576663.0 0
234000.0 576663.0 0
238000.0 576663.0 0
242000.0 576663.0 0
246000.0 576663.0 0
250000.0 576663.0 0
254000.0 576663.0 0
258000.0 576663.0 0
262000.0 576663.0 0
266000.0 576663.0 0
270000.0 576663.0 0
274000.0 576663.0 0
278000.0 576663.0 0
282000.0 576663.0 0
286000.0 576663.0 0
290000.0 576663.0 0
294000.0 576663.0 0
298000.0 576663.0 0
302000.0 576663.0 0
306000.0 576663.0 0
310000.0 576663.0 0
314000.0 576663.0 0
318000.0 576663.0 0
322000.0 576663.0 0
326000.0 576663.0 0
330000.0 576663.0 0
334000.0 576663.0 0
338000.0 576663.0 0
342000.0 576663.0 0
346000.0 576663.0 0
350000.0 576663.0 0
354000.0 576663.0 0
358000.0 576663.0 0
362000.0 576663.0 0
366000.0 576663.0 0
370000.0 576663.0 0
374000.0 576663.0 0
378000.0 576663.0 0
382000.0 576663.0 0
386000.0 576663.0 0
390000.0 576663.0 0
394000.0 576663.0 0
398000.0 576663.0 0
102000.0 580663.0 0
106000.0 580663.0 0
110000.0 580663.0 0
114000.0 580663.0 0
118000.0 580663.0 0
122000.0 580663.0 0
126000.0 580663.0 0
130000.0 580663.0 0
134000.0 580663.0 0
138000.0 580663.0 0
142000.0 580663.0 0
146000.0 580663.0 0
150000.0 580663.0 0
154000.0 580663.0 0
158000.0 580663.0 0
162000.0 580663.0 0
166000.0 580663.0 0
170000.0 580663.0 0
174000.0 580663.0 0
178000.0 580663.0 0
182000.0 580663.0 0
186000.0 580663.0 0
190000.0 580663.0 0
194000.0 580663.0 0
198000.0 580663.0 0
202000.0 580663.0 0
206000.0 580663.0 0
210000.0 580663.0 0
214000.0 580663.0 0
218000.0 580663.0 0
222000.0 580663.0 0
226000.0 580663.0 0
230000.0 580663.0 0
234000.0 580663.0 0
238000.0 580663.0 0
242000.0 580663.0 0
246000.0 580663.0 0
250000.0 580663.0 0
254000.0 580663.0 0
258000.0 580663.0 0
262000.0 580663.0 0
266000.0 580663.0 0
270000.0 580663.0 0
274000.0 580663.0 0
278000.0 580663.0 0
282000.0 580663.0 0
286000.0 580663.0 0
290000.0 580663.0 0
294000.0 580663.0 0
298000.0 580663.0 0
302000.0 580663.0 0
306000.0 580663.0 0
310000.0 580663.0 0
314000.0 580663.0 0
318000.0 580663.0 0
322000.0 580663.0 0
326000.0 580663.0 0
330000.0 580663.0 0
334000.0 580663.0 0
338000.0 580663.0 0
342000.0 580663.0 0
346000.0 580663.0 0
350000.0 580663.0 0
354000.0 580663.0 0
358000.0 580663.0 0
362000.0 580663.0 0
366000.0 580663.0 0
370000.0 580663.0 0
374000.0 580663.0 0
378000.0 580663.0 0
382000.0 580663.0 0
386000.0 580663.0 0
390000.0 580663.0 0
394000.0 580663.0 0
398000.0 580663.0 0
102000.0 584663.0 0
106000.0 584663.0 0
110000.0 584663.0 0
114000.0 584663.0 0
118000.0 584663.0 0
122000.0 584663.0 0
126000.0 584663.0 0
130000.0 584663.0 0
134000.0 584663.0 0
138000.0 584663.0 0
142000.0 584663.0 0
146000.0 584663.0 0
150000.0 584663.0 0
154000.0 584663.0 0
158000.0 584663.0 0
162000.0 584663.0 0
166000.0 584663.0 0
170000.0 584663.0 0
174000.0 584663.0 0
178000.0 584663.0 0
182000.0 584663.0 0
186000.0 584663.0 0
190000.0 584663.0 0
194000.0 584663.0 0
198000.0 584663.0 0
202000.0 584663.0 0
206000.0 584663.0 0
210000.0 584663.0 0
214000.0 584663.0 0
218000.0 584663.0 0
222000.0 584663.0 0
226000.0 584663.0 0
230000.0 584663.0 0
234000.0 584663.0 0
238000.0 584663.0 0
242000.0 584663.0 0
246000.0 584663.0 0
250000.0 584663.0 0
254000.0 584663.0 0
258000.0 584663.0 0
262000.0 584663.0 0
266000.0 584663.0 0
270000.0 584663.0 0
274000.0 584663.0 0
278000.0 584663.0 0
282000.0 584663.0 0
286000.0 584663.0 0
290000.0 584663.0 0
294000.0 584663.0 0
298000.0 584663.0 0
302000.0 584663.0 0
306000.0 584663.0 0
310000.0 584663.0 0
314000.0 584663.0 0
318000.0 584663.0 0
322000.0 584663.0 0
326000.0 584663.0 0
330000.0 584663.0 0
334000.0 584663.0 0
338000.0 584663.0 0
342000.0 584663.0 0
346000.0 584663.0 0
350000.0 584663.0 0
354000.0 584663.0 0
358000.0 584663.0 0
362000.0 584663.0 0
366000.0 584663.0 0
370000.0 584663.0 0
374000.0 584663.0 0
378000.0 584663.0 0
382000.0 584663.0 0
386000.0 584663.0 0
390000.0 584663.0 0
394000.0 584663.0 0
398000.0 584663.0 0
102000.0 588663.0 0
106000.0 588663.0 0
110000.0 588663.0 0
114000.0 588663.0 0
118000.0 588663.0 0
122000.0 588663.0 0
126000.0 588663.0 0
130000.0 588663.0 0
134000.0 588663.0 0
138000.0 588663.0 0
142000.0 588663.0 0
146000.0 588663.0 0
150000.0 588663.0 0
154000.0 588663.0 0
158000.0 588663.0 0
162000.0 588663.0 0
166000.0 588663.0 0
170000.0 588663.0 0
174000.0 588663.0 0
178000.0 588663.0 0
182000.0 588663.0 0
186000.0 588663.0 0
190000.0 588663.0 0
194000.0 588663.0 0
198000.0 588663.0 0
202000.0 588663.0 0
206000.0 588663.0 0
210000.0 588663.0 0
214000.0 588663.0 0
218000.0 588663.0 0
222000.0 588663.0 0
226000.0 588663.0 0
230000.0 588663.0 0
234000.0 588663.0 0
238000.0 588663.0 0
242000.0 588663.0 0
246000.0 588663.0 0
250000.0 588663.0 0
254000.0 588663.0 0
258000.0 588663.0 0
262000.0 588663.0 0
266000.0 588663.0 0
270000.0 588663.0 0
274000.0 588663.0 0
278000.0 588663.0 0
282000.0 588663.0 0
286000.0 588663.0 0
290000.0 588663.0 0
294000.0 588663.0 0
298000.0 588663.0 0
302000.0 588663.0 0
306000.0 588663.0 0
310000.0 588663.0 0
314000.0 588663.0 0
318000.0 588663.0 0
322000.0 588663.0 0
326000.0 588663.0 0
330000.0 588663.0 0
334000.0 588663.0 0
338000.0 588663.0 0
342000.0 588663.0 0
346000.0 588663.0 0
350000.0 588663.0 0
354000.0 588663.0 0
358000.0 588663.0 0
362000.0 588663.0 0
366000.0 588663.0 0
370000.0 588663.0 0
374000.0 588663.0 0
378000.0 588663.0 0
382000.0 588663.0 0
386000.0 588663.0 0
390000.0 588663.0 0
394000.0 588663.0 0
398000.0 588663.0 0
102000.0 592663.0 0
106000.0 592663.0 0
110000.0 592663.0 0
114000.0 592663.0 0
118000.0 592663.0 0
122000.0 592663.0 0
126000.0 592663.0 0
130000.0 592663.0 0
134000.0 592663.0 0
138000.0 592663.0 0
142000.0 592663.0 0
146000.0 592663.0 0
150000.0 592663.0 0
154000.0 592663.0 0
158000.0 592663.0 0
162000.0 592663.0 0
166000.0 592663.0 0
170000.0 592663.0 0
174000.0 592663.0 0
178000.0 592663.0 0
182000.0 592663.0 0
186000.0 592663.0 0
190000.0 592663.0 0
194000.0 592663.0 0
198000.0 592663.0 0
202000.0 592663.0 0
206000.0 592663.0 0
210000.0 592663.0 0
214000.0 592663.0 0
218000.0 592663.0 0
222000.0 592663.0 0
226000.0 592663.0 0
230000.0 592663.0 0
234000.0 592663.0 0
238000.0 592663.0 0
242000.0 592663.0 0
246000.0 592663.0 0
250000.0 592663.0 0
254000.0 592663.0 0
258000.0 592663.0 0
262000.0 592663.0 0
266000.0 592663.0 0
270000.0 592663.0 0
274000.0 592663.0 0
278000.0 592663.0 0
282000.0 592663.0 0
286000.0 592663.0 0
290000.0 592663.0 0
294000.0 592663.0 0
298000.0 592663.0 0
302000.0 592663.0 0
306000.0 592663.0 0
310000.0 592663.0 0
314000.0 592663.0 0
318000.0 592663.0 0
322000.0 592663.0 0
326000.0 592663.0 0
330000.0 592663.0 0
334000.0 592663.0 0
338000.0 592663.0 0
342000.0 592663.0 0
346000.0 592663.0 0
350000.0 592663.0 0
354000.0 592663.0 0
358000.0 592663.0 0
362000.0 592663.0 0
366000.0 592663.0 0
370000.0 592663.0 0
374000.0 592663.0 0
378000.0 592663.0 0
382000.0 592663.0 0
386000.0 592663.0 0
390000.0 592663.0 0
394000.0 592663.0 0
398000.0 592663.0 0
102000.0 596663.0 0
106000.0 596663.0 0
110000.0 596663.0 0
114000.0 596663.0 0
118000.0 596663.0 0
122000.0 596663.0 0
126000.0 596663.0 0
130000.0 596663.0 0
134000.0 596663.0 0
138000.0 596663.0 0
142000.0 596663.0 0
146000.0 596663.0 0
150000.0 596663.0 0
154000.0 596663.0 0
158000.0 596663.0 0
162000.0 596663.0 0
166000.0 596663.0 0
170000.0 596663.0 0
174000.0 596663.0 0
178000.0 596663.0 0
182000.0 596663.0 0
186000.0 596663.0 0
190000.0 596663.0 0
194000.0 596663.0 0
198000.0 596663.0 0
202000.0 596663.0 0
206000.0 596663.0 0
210000.0 596663.0 0
214000.0 596663.0 0
218000.0 596663.0 0
222000.0 596663.0 0
226000.0 596663.0 0
230000.0 596663.0 0
234000.0 596663.0 0
238000.0 596663.0 0
242000.0 596663.0 0
246000.0 596663.0 0
250000.0 596663.0 0
254000.0 596663.0 0
258000.0 596663.0 0
262000.0 596663.0 0
266000.0 596663.0 0
270000.0 596663.0 0
274000.0 596663.0 0
278000.0 596663.0 0
282000.0 596663.0 0
286000.0 596663.0 0
290000.0 596663.0 0
294000.0 596663.0 0
298000.0 596663.0 0
302000.0 596663.0 0
306000.0 596663.0 0
310000.0 596663.0 0
314000.0 596663.0 0
318000.0 596663.0 0
322000.0 596663.0 0
326000.0 596663.0 0
330000.0 596663.0 0
334000.0 596663.0 0
338000.0 596663.0 0
342000.0 596663.0 0
346000.0 596663.0 0
350000.0 596663.0 0
354000.0 596663.0 0
358000.0 596663.0 0
362000.0 596663.0 0
366000.0 596663.0 0
370000.0 596663.0 0
374000.0 596663.0 0
378000.0 596663.0 0
382000.0 596663.0 0
386000.0 596663.0 0
390000.0 596663.0 0
394000.0 596663.0 0
398000.0 596663.0 0
102000.0 600663.0 0
106000.0 600663.0 0
110000.0 600663.0 0
114000.0 600663.0 0
118000.0 600663.0 0
122000.0 600663.0 0
126000.0 600663.0 0
130000.0 600663.0 0
134000.0 600663.0 0
138000.0 600663.0 0
142000.0 600663.0 0
146000.0 600663.0 0
150000.0 600663.0 0
154000.0 600663.0 0
158000.0 600663.0 0
162000.0 600663.0 0
166000.0 600663.0 0
170000.0 600663.0 0
174000.0 600663.0 0
178000.0 600663.0 0
182000.0 600663.0 0
186000.0 600663.0 0
190000.0 600663.0 0
194000.0 600663.0 0
198000.0 600663.0 0
202000.0 600663.0 0
206000.0 600663.0 0
210000.0 600663.0 0
214000.0 600663.0 0
218000.0 600663.0 0
222000.0 600663.0 0
226000.0 600663.0 0
230000.0 600663.0 0
234000.0 600663.0 0
238000.0 600663.0 0
242000.0 600663.0 0
246000.0 600663.0 0
250000.0 600663.0 0
254000.0 600663.0 0
258000.0 600663.0 0
262000.0 600663.0 0
266000.0 600663.0 0
270000.0 600663.0 0
274000.0 600663.0 0
278000.0 600663.0 0
282000.0 600663.0 0
286000.0 600663.0 0
290000.0 600663.0 0
294000.0 600663.0 0
298000.0 600663.0 0
302000.0 600663.0 0
306000.0 600663.0 0
310000.0 600663.0 0
314000.0 600663.0 0
318000.0 600663.0 0
322000.0 600663.0 0
326000.0 600663.0 0
330000.0 600663.0 0
334000.0 600663.0 0
338000.0 600663.0 0
342000.0 600663.0 0
346000.0 600663.0 0
350000.0 600663.0 0
354000.0 600663.0 0
358000.0 600663.0 0
362000.0 600663.0 0
366000.0 600663.0 0
370000.0 600663.0 0
374000.0 600663.0 0
378000.0 600663.0 0
382000.0 600663.0 0
386000.0 600663.0 0
390000.0 600663.0 0
394000.0 600663.0 0
398000.0 600663.0 0
102000.0 604663.0 0
106000.0 604663.0 0
110000.0 604663.0 0
114000.0 604663.0 0
118000.0 604663.0 0
122000.0 604663.0 0
126000.0 604663.0 0
130000.0 604663.0 0
134000.0 604663.0 0
138000.0 604663.0 0
142000.0 604663.0 0
146000.0 604663.0 0
150000.0 604663.0 0
154000.0 604663.0 0
158000.0 604663.0 0
162000.0 604663.0 0
166000.0 604663.0 0
170000.0 604663.0 0
174000.0 604663.0 0
178000.0 604663.0 0
182000.0 604663.0 0
186000.0 604663.0 0
190000.0 604663.0 0
194000.0 604663.0 0
198000.0 604663.0 0
202000.0 604663.0 0
206000.0 604663.0 0
210000.0 604663.0 0
214000.0 604663.0 0
218000.0 604663.0 0
222000.0 604663.0 0
226000.0 604663.0 0
230000.0 604663.0 0
234000.0 604663.0 0
238000.0 604663.0 0
242000.0 604663.0 0
246000.0 604663.0 0
250000.0 604663.0 0
254000.0 604663.0 0
258000.0 604663.0 0
262000.0 604663.0 0
266000.0 604663.0 0
270000.0 604663.0 0
274000.0 604663.0 0
278000.0 604663.0 0
282000.0 604663.0 0
286000.0 604663.0 0
290000.0 604663.0 0
294000.0 604663.0 0
298000.0 604663.0 0
302000.0 604663.0 0
306000.0 604663.0 0
310000.0 604663.0 0
314000.0 604663.0 0
318000.0 604663.0 0
322000.0 604663.0 0
326000.0 604663.0 0
330000.0 604663.0 0
334000.0 604663.0 0
338000.0 604663.0 0
342000.0 604663.0 0
346000.0 604663.0 0
350000.0 604663.0 0
354000.0 604663.0 0
358000.0 604663.0 0
362000.0 604663.0 0
366000.0 604663.0 0
370000.0 604663.0 0
374000.0 604663.0 0
378000.0 604663.0 0
382000.0 604663.0 0
386000.0 604663.0 0
390000.0 604663.0 0
394000.0 604663.0 0
398000.0 604663.0 0
102000.0 608663.0 0
106000.0 608663.0 0
110000.0 608663.0 0
114000.0 608663.0 0
118000.0 608663.0 0
122000.0 608663.0 0
126000.0 608663.0 0
130000.0 608663.0 0
134000.0 608663.0 0
138000.0 608663.0 0
142000.0 608663.0 0
146000.0 608663.0 0
150000.0 608663.0 0
154000.0 608663.0 0
158000.0 608663.0 0
162000.0 608663.0 0
166000.0 608663.0 0
170000.0 608663.0 0
174000.0 608663.0 0
178000.0 608663.0 0
182000.0 608663.0 0
186000.0 608663.0 0
190000.0 608663.0 0
194000.0 608663.0 0
198000.0 608663.0 0
202000.0 608663.0 0
206000.0 608663.0 0
210000.0 608663.0 0
214000.0 608663.0 0
218000.0 608663.0 0
222000.0 608663.0 0
226000.0 608663.0 0
230000.0 608663.0 0
234000.0 608663.0 0
238000.0 608663.0 0
242000.0 608663.0 0
246000.0 608663.0 0
250000.0 608663.0 0
254000.0 608663.0 0
258000.0 608663.0 0
262000.0 608663.0 0
266000.0 608663.0 0
270000.0 608663.0 0
274000.0 608663.0 0
278000.0 608663.0 0
282000.0 608663.0 0
286000.0 608663.0 0
290000.0 608663.0 0
294000.0 608663.0 0
298000.0 608663.0 0
302000.0 608663.0 0
306000.0 608663.0 0
310000.0 608663.0 0
314000.0 608663.0 0
318000.0 608663.0 0
322000.0 608663.0 0
326000.0 608663.0 0
330000.0 608663.0 0
334000.0 608663.0 0
338000.0 608663.0 0
342000.0 608663.0 0
346000.0 608663.0 0
350000.0 608663.0 0
354000.0 608663.0 0
358000.0 608663.0 0
362000.0 608663.0 0
366000.0 608663.0 0
370000.0 608663.0 0
374000.0 608663.0 0
378000.0 608663.0 0
382000.0 608663.0 0
386000.0 608663.0 0
390000.0 608663.0 0
394000.0 608663.0 0
398000.0 608663.0 0
102000.0 612663.0 0
106000.0 612663.0 0
110000.0 612663.0 0
114000.0 612663.0 0
118000.0 612663.0 0
122000.0 612663.0 0
126000.0 612663.0 0
130000.0 612663.0 0
134000.0 612663.0 0
138000.0 612663.0 0
142000.0 612663.0 0
146000.0 612663.0 0
150000.0 612663.0 0
154000.0 612663.0 0
158000.0 612663.0 0
162000.0 612663.0 0
166000.0 612663.0 0
170000.0 612663.0 0
174000.0 612663.0 0
178000.0 612663.0 0
182000.0 612663.0 0
186000.0 612663.0 0
190000.0 612663.0 0
194000.0 612663.0 0
198000.0 612663.0 0
202000.0 612663.0 0
206000.0 612663.0 0
210000.0 612663.0 0
214000.0 612663.0 0
218000.0 612663.0 0
222000.0 612663.0 0
226000.0 612663.0 0
230000.0 612663.0 0
234000.0 612663.0 0
238000.0 612663.0 0
242000.0 612663.0 0
246000.0 612663.0 0
250000.0 612663.0 0
254000.0 612663.0 0
258000.0 612663.0 0
262000.0 612663.0 0
266000.0 612663.0 0
270000.0 612663.0 0
274000.0 612663.0 0
278000.0 612663.0 0
282000.0 612663.0 0
286000.0 612663.0 0
290000.0 612663.0 0
294000.0 612663.0 0
298000.0 612663.0 0
302000.0 612663.0 0
306000.0 612663.0 0
310000.0 612663.0 0
314000.0 612663.0 0
318000.0 612663.0 0
322000.0 612663.0 0
326000.0 612663.0 0
330000.0 612663.0 0
334000.0 612663.0 0
338000.0 612663.0 0
342000.0 612663.0 0
346000.0 612663.0 0
350000.0 612663.0 0
354000.0 612663.0 0
358000.0 612663.0 0
362000.0 612663.0 0
366000.0 612663.0 0
370000.0 612663.0 0
374000.0 612663.0 0
378000.0 612663.0 0
382000.0 612663.0 0
386000.0 612663.0 0
390000.0 612663.0 0
394000.0 612663.0 0
398000.0 612663.0 0
102000.0 616663.0 0
106000.0 616663.0 0
110000.0 616663.0 0
114000.0 616663.0 0
118000.0 616663.0 0
122000.0 616663.0 0
126000.0 616663.0 0
130000.0 616663.0 0
134000.0 616663.0 0
138000.0 616663.0 0
142000.0 616663.0 0
146000.0 616663.0 0
150000.0 616663.0 0
154000.0 616663.0 0
158000.0 616663.0 0
162000.0 616663.0 0
166000.0 616663.0 0
170000.0 616663.0 0
174000.0 616663.0 0
178000.0 616663.0 0
182000.0 616663.0 0
186000.0 616663.0 0
190000.0 616663.0 0
194000.0 616663.0 0
198000.0 616663.0 0
202000.0 616663.0 0
206000.0 616663.0 0
210000.0 616663.0 0
214000.0 616663.0 0
218000.0 616663.0 0
222000.0 616663.0 0
226000.0 616663.0 0
230000.0 616663.0 0
234000.0 616663.0 0
238000.0 616663.0 0
242000.0 616663.0 0
246000.0 616663.0 0
250000.0 616663.0 0
254000.0 616663.0 0
258000.0 616663.0 0
262000.0 616663.0 0
266000.0 616663.0 0
270000.0 616663.0 0
274000.0 616663.0 0
278000.0 616663.0 0
282000.0 616663.0 0
286000.0 616663.0 0
290000.0 616663.0 0
294000.0 616663.0 0
298000.0 616663.0 0
302000.0 616663.0 0
306000.0 616663.0 0
310000.0 616663.0 0
314000.0 616663.0 0
318000.0 616663.0 0
322000.0 616663.0 0
326000.0 616663.0 0
330000.0 616663.0 0
334000.0 616663.0 0
338000.0 616663.0 0
342000.0 616663.0 0
346000.0 616663.0 0
350000.0 616663.0 0
354000.0 616663.0 0
358000.0 616663.0 0
362000.0 616663.0 0
366000.0 616663.0 0
370000.0 616663.0 0
374000.0 616663.0 0
378000.0 616663.0 0
382000.0 616663.0 0
386000.0 616663.0 0
390000.0 616663.0 0
394000.0 616663.0 0
398000.0 616663.0 0
102000.0 620663.0 0
106000.0 620663.0 0
110000.0 620663.0 0
114000.0 620663.0 0
118000.0 620663.0 0
122000.0 620663.0 0
126000.0 620663.0 0
130000.0 620663.0 0
134000.0 620663.0 0
138000.0 620663.0 0
142000.0 620663.0 0
146000.0 620663.0 0
150000.0 620663.0 0
154000.0 620663.0 0
158000.0 620663.0 0
162000.0 620663.0 0
166000.0 620663.0 0
170000.0 620663.0 0
174000.0 620663.0 0
178000.0 620663.0 0
182000.0 620663.0 0
186000.0 620663.0 0
190000.0 620663.0 0
194000.0 620663.0 0
198000.0 620663.0 0
202000.0 620663.0 0
206000.0 620663.0 0
210000.0 620663.0 0
214000.0 620663.0 0
218000.0 620663.0 0
222000.0 620663.0 0
226000.0 620663.0 0
230000.0 620663.0 0
234000.0 620663.0 0
238000.0 620663.0 0
242000.0 620663.0 0
246000.0 620663.0 0
250000.0 620663.0 0
254000.0 620663.0 0
258000.0 620663.0 0
262000.0 620663.0 0
266000.0 620663.0 0
270000.0 620663.0 0
274000.0 620663.0 0
278000.0 620663.0 0
282000.0 620663.0 0
286000.0 620663.0 0
290000.0 620663.0 0
294000.0 620663.0 0
298000.0 620663.0 0
302000.0 620663.0 0
306000.0 620663.0 0
310000.0 620663.0 0
314000.0 620663.0 0
318000.0 620663.0 0
322000.0 620663.0 0
326000.0 620663.0 0
330000.0 620663.0 0
334000.0 620663.0 0
338000.0 620663.0 0
342000.0 620663.0 0
346000.0 620663.0 0
350000.0 620663.0 0
354000.0 620663.0 0
358000.0 620663.0 0
362000.0 620663.0 0
366000.0 620663.0 0
370000.0 620663.0 0
374000.0 620663.0 0
378000.0 620663.0 0
382000.0 620663.0 0
386000.0 620663.0 0
390000.0 620663.0 0
394000.0 620663.0 0
398000.0 620663.0 0
102000.0 624663.0 0
106000.0 624663.0 0
110000.0 624663.0 0
114000.0 624663.0 0
118000.0 624663.0 0
122000.0 624663.0 0
126000.0 624663.0 0
130000.0 624663.0 0
134000.0 624663.0 0
138000.0 624663.0 0
142000.0 624663.0 0
146000.0 624663.0 0
150000.0 624663.0 0
154000.0 624663.0 0
158000.0 624663.0 0
162000.0 624663.0 0
166000.0 624663.0 0
170000.0 624663.0 0
174000.0 624663.0 0
178000.0 624663.0 0
182000.0 624663.0 0
186000.0 624663.0 0
190000.0 624663.0 0
194000.0 624663.0 0
198000.0 624663.0 0
202000.0 624663.0 0
206000.0 624663.0 0
210000.0 624663.0 0
214000.0 624663.0 0
218000.0 624663.0 0
222000.0 624663.0 0
226000.0 624663.0 0
230000.0 624663.0 0
234000.0 624663.0 0
238000.0 624663.0 0
242000.0 624663.0 0
246000.0 624663.0 0
250000.0 624663.0 0
254000.0 624663.0 0
258000.0 624663.0 0
262000.0 624663.0 0
266000.0 624663.0 0
270000.0 624663.0 0
274000.0 624663.0 0
278000.0 624663.0 0
282000.0 624663.0 0
286000.0 624663.0 0
290000.0 624663.0 0
294000.0 624663.0 0
298000.0 624663.0 0
302000.0 624663.0 0
306000.0 624663.0 0
310000.0 624663.0 0
314000.0 624663.0 0
318000.0 624663.0 0
322000.0 624663.0 0
326000.0 624663.0 0
330000.0 624663.0 0
334000.0 624663.0 0
338000.0 624663.0 0
342000.0 624663.0 0
346000.0 624663.0 0
350000.0 624663.0 0
354000.0 624663.0 0
358000.0 624663.0 0
362000.0 624663.0 0
366000.0 624663.0 0
370000.0 624663.0 0
374000.0 624663.0 0
378000.0 624663.0 0
382000.0 624663.0 0
386000.0 624663.0 0
390000.0 624663.0 0
394000.0 624663.0 0
398000.0 624663.0 0
102000.0 628663.0 0
106000.0 628663.0 0
110000.0 628663.0 0
114000.0 628663.0 0
118000.0 628663.0 0
122000.0 628663.0 0
126000.0 628663.0 0
130000.0 628663.0 0
134000.0 628663.0 0
138000.0 628663.0 0
142000.0 628663.0 0
146000.0 628663.0 0
150000.0 628663.0 0
154000.0 628663.0 0
158000.0 628663.0 0
162000.0 628663.0 0
166000.0 628663.0 0
170000.0 628663.0 0
174000.0 628663.0 0
178000.0 628663.0 0
182000.0 628663.0 0
186000.0 628663.0 0
190000.0 628663.0 0
194000.0 628663.0 0
198000.0 628663.0 0
202000.0 628663.0 0
206000.0 628663.0 0
210000.0 628663.0 0
214000.0 628663.0 0
218000.0 628663.0 0
222000.0 628663.0 0
226000.0 628663.0 0
230000.0 628663.0 0
234000.0 628663.0 0
238000.0 628663.0 0
242000.0 628663.0 0
246000.0 628663.0 0
250000.0 628663.0 0
254000.0 628663.0 0
258000.0 628663.0 0
262000.0 628663.0 0
266000.0 628663.0 0
270000.0 628663.0 0
274000.0 628663.0 0
278000.0 628663.0 0
282000.0 628663.0 0
286000.0 628663.0 0
290000.0 628663.0 0
294000.0 628663.0 0
298000.0 628663.0 0
302000.0 628663.0 0
306000.0 628663.0 0
310000.0 628663.0 0
314000.0 628663.0 0
318000.0 628663.0 0
322000.0 628663.0 0
326000.0 628663.0 0
330000.0 628663.0 0
334000.0 628663.0 0
338000.0 628663.0 0
342000.0 628663.0 0
346000.0 628663.0 0
350000.0 628663.0 0
354000.0 628663.0 0
358000.0 628663.0 0
362000.0 628663.0 0
366000.0 628663.0 0
370000.0 628663.0 0
374000.0 628663.0 0
378000.0 628663.0 0
382000.0 628663.0 0
386000.0 628663.0 0
390000.0 628663.0 0
394000.0 628663.0 0
398000.0 628663.0 0
102000.0 632663.0 0
106000.0 632663.0 0
110000.0 632663.0 0
114000.0 632663.0 0
118000.0 632663.0 0
122000.0 632663.0 0
126000.0 632663.0 0
130000.0 632663.0 0
134000.0 632663.0 0
138000.0 632663.0 0
142000.0 632663.0 0
146000.0 632663.0 0
150000.0 632663.0 0
154000.0 632663.0 0
158000.0 632663.0 0
162000.0 632663.0 0
166000.0 632663.0 0
170000.0 632663.0 0
174000.0 632663.0 0
178000.0 632663.0 0
182000.0 632663.0 0
186000.0 632663.0 0
190000.0 632663.0 0
194000.0 632663.0 0
198000.0 632663.0 0
202000.0 632663.0 0
206000.0 632663.0 0
210000.0 632663.0 0
214000.0 632663.0 0
218000.0 632663.0 0
222000.0 632663.0 0
226000.0 632663.0 0
230000.0 632663.0 0
234000.0 632663.0 0
238000.0 632663.0 0
242000.0 632663.0 0
246000.0 632663.0 0
250000.0 632663.0 0
254000.0 632663.0 0
258000.0 632663.0 0
262000.0 632663.0 0
266000.0 632663.0 0
270000.0 632663.0 0
274000.0 632663.0 0
278000.0 632663.0 0
282000.0 632663.0 0
286000.0 632663.0 0
290000.0 632663.0 0
294000.0 632663.0 0
298000.0 632663.0 0
302000.0 632663.0 0
306000.0 632663.0 0
310000.0 632663.0 0
314000.0 632663.0 0
318000.0 632663.0 0
322000.0 632663.0 0
326000.0 632663.0 0
330000.0 632663.0 0
334000.0 632663.0 0
338000.0 632663.0 0
342000.0 632663.0 0
346000.0 632663.0 0
350000.0 632663.0 0
354000.0 632663.0 0
358000.0 632663.0 0
362000.0 632663.0 0
366000.0 632663.0 0
370000.0 632663.0 0
374000.0 632663.0 0
378000.0 632663.0 0
382000.0 632663.0 0
386000.0 632663.0 0
390000.0 632663.0 0
394000.0 632663.0 0
398000.0 632663.0 0
102000.0 636663.0 0
106000.0 636663.0 0
110000.0 636663.0 0
114000.0 636663.0 0
118000.0 636663.0 0
122000.0 636663.0 0
126000.0 636663.0 0
130000.0 636663.0 0
134000.0 636663.0 0
138000.0 636663.0 0
142000.0 636663.0 0
146000.0 636663.0 0
150000.0 636663.0 0
154000.0 636663.0 0
158000.0 636663.0 0
162000.0 636663.0 0
166000.0 636663.0 0
170000.0 636663.0 0
174000.0 636663.0 0
178000.0 636663.0 0
182000.0 636663.0 0
186000.0 636663.0 0
190000.0 636663.0 0
194000.0 636663.0 0
198000.0 636663.0 0
202000.0 636663.0 0
206000.0 636663.0 0
210000.0 636663.0 0
214000.0 636663.0 0
218000.0 636663.0 0
222000.0 636663.0 0
226000.0 636663.0 0
230000.0 636663.0 0
234000.0 636663.0 0
238000.0 636663.0 0
242000.0 636663.0 0
246000.0 636663.0 0
250000.0 636663.0 0
254000.0 636663.0 0
258000.0 636663.0 0
262000.0 636663.0 0
266000.0 636663.0 0
270000.0 636663.0 0
274000.0 636663.0 0
278000.0 636663.0 0
282000.0 636663.0 0
286000.0 636663.0 0
290000.0 636663.0 0
294000.0 636663.0 0
298000.0 636663.0 0
302000.0 636663.0 0
306000.0 636663.0 0
310000.0 636663.0 0
314000.0 636663.0 0
318000.0 636663.0 0
322000.0 636663.0 0
326000.0 636663.0 0
330000.0 636663.0 0
334000.0 636663.0 0
338000.0 636663.0 0
342000.0 636663.0 0
346000.0 636663.0 0
350000.0 636663.0 0
354000.0 636663.0 0
358000.0 636663.0 0
362000.0 636663.0 0
366000.0 636663.0 0
370000.0 636663.0 0
374000.0 636663.0 0
378000.0 636663.0 0
382000.0 636663.0 0
386000.0 636663.0 0
390000.0 636663.0 0
394000.0 636663.0 0
398000.0 636663.0 0
102000.0 640663.0 0
106000.0 640663.0 0
110000.0 640663.0 0
114000.0 640663.0 0
118000.0 640663.0 0
122000.0 640663.0 0
126000.0 640663.0 0
130000.0 640663.0 0
134000.0 640663.0 0
138000.0 640663.0 0
142000.0 640663.0 0
146000.0 640663.0 0
150000.0 640663.0 0
154000.0 640663.0 0
158000.0 640663.0 0
162000.0 640663.0 0
166000.0 640663.0 0
170000.0 640663.0 0
174000.0 640663.0 0
178000.0 640663.0 0
182000.0 640663.0 0
186000.0 640663.0 0
190000.0 640663.0 0
194000.0 640663.0 0
198000.0 640663.0 0
202000.0 640663.0 0
206000.0 640663.0 0
210000.0 640663.0 0
214000.0 640663.0 0
218000.0 640663.0 0
222000.0 640663.0 0
226000.0 640663.0 0
230000.0 640663.0 0
234000.0 640663.0 0
238000.0 640663.0 0
242000.0 640663.0 0
246000.0 640663.0 0
250000.0 640663.0 0
254000.0 640663.0 0
258000.0 640663.0 0
262000.0 640663.0 0
266000.0 640663.0 0
270000.0 640663.0 0
274000.0 640663.0 0
278000.0 640663.0 0
282000.0 640663.0 0
286000.0 640663.0 0
290000.0 640663.0 0
294000.0 640663.0 0
298000.0 640663.0 0
302000.0 640663.0 0
306000.0 640663.0 0
310000.0 640663.0 0
314000.0 640663.0 0
318000.0 640663.0 0
322000.0 640663.0 0
326000.0 640663.0 0
330000.0 640663.0 0
334000.0 640663.0 0
338000.0 640663.0 0
342000.0 640663.0 0
346000.0 640663.0 0
350000.0 640663.0 0
354000.0 640663.0 0
358000.0 640663.0 0
362000.0 640663.0 0
366000.0 640663.0 0
370000.0 640663.0 0
374000.0 640663.0 0
378000.0 640663.0 0
382000.0 640663.0 0
386000.0 640663.0 0
390000.0 640663.0 0
394000.0 640663.0 0
398000.0 640663.0 0
102000.0 644663.0 0
106000.0 644663.0 0
110000.0 644663.0 0
114000.0 644663.0 0
118000.0 644663.0 0
122000.0 644663.0 0
126000.0 644663.0 0
130000.0 644663.0 0
134000.0 644663.0 0
138000.0 644663.0 0
142000.0 644663.0 0
146000.0 644663.0 0
150000.0 644663.0 0
154000.0 644663.0 0
158000.0 644663.0 0
162000.0 644663.0 0
166000.0 644663.0 0
170000.0 644663.0 0
174000.0 644663.0 0
178000.0 644663.0 0
182000.0 644663.0 0
186000.0 644663.0 0
190000.0 644663.0 0
194000.0 644663.0 0
198000.0 644663.0 0
202000.0 644663.0 0
206000.0 644663.0 0
210000.0 644663.0 0
214000.0 644663.0 0
218000.0 644663.0 0
222000.0 644663.0 0
226000.0 644663.0 0
230000.0 644663.0 0
234000.0 644663.0 0
238000.0 644663.0 0
242000.0 644663.0 0
246000.0 644663.0 0
250000.0 644663.0 0
254000.0 644663.0 0
258000.0 644663.0 0
262000.0 644663.0 0
266000.0 644663.0 0
270000.0 644663.0 0
274000.0 644663.0 0
278000.0 644663.0 0
282000.0 644663.0 0
286000.0 644663.0 0
290000.0 644663.0 0
294000.0 644663.0 0
298000.0 644663.0 0
302000.0 644663.0 0
306000.0 644663.0 0
310000.0 644663.0 0
314000.0 644663.0 0
318000.0 644663.0 0
322000.0 644663.0 0
326000.0 644663.0 0
330000.0 644663.0 0
334000.0 644663.0 0
338000.0 644663.0 0
342000.0 644663.0 0
346000.0 644663.0 0
350000.0 644663.0 0
354000.0 644663.0 0
358000.0 644663.0 0
362000.0 644663.0 0
366000.0 644663.0 0
370000.0 644663.0 0
374000.0 644663.0 0
378000.0 644663.0 0
382000.0 644663.0 0
386000.0 644663.0 0
390000.0 644663.0 0
394000.0 644663.0 0
398000.0 644663.0 0
102000.0 648663.0 0
106000.0 648663.0 0
110000.0 648663.0 0
114000.0 648663.0 0
118000.0 648663.0 0
122000.0 648663.0 0
126000.0 648663.0 0
130000.0 648663.0 0
134000.0 648663.0 0
138000.0 648663.0 0
142000.0 648663.0 0
146000.0 648663.0 0
150000.0 648663.0 0
154000.0 648663.0 0
158000.0 648663.0 0
162000.0 648663.0 0
166000.0 648663.0 0
170000.0 648663.0 0
174000.0 648663.0 0
178000.0 648663.0 0
182000.0 648663.0 0
186000.0 648663.0 0
190000.0 648663.0 0
194000.0 648663.0 0
198000.0 648663.0 0
202000.0 648663.0 0
206000.0 648663.0 0
210000.0 648663.0 0
214000.0 648663.0 0
218000.0 648663.0 0
222000.0 648663.0 0
226000.0 648663.0 0
230000.0 648663.0 0
234000.0 648663.0 0
238000.0 648663.0 0
242000.0 648663.0 0
246000.0 648663.0 0
250000.0 648663.0 0
254000.0 648663.0 0
258000.0 648663.0 0
262000.0 648663.0 0
266000.0 648663.0 0
270000.0 648663.0 0
274000.0 648663.0 0
278000.0 648663.0 0
282000.0 648663.0 0
286000.0 648663.0 0
290000.0 648663.0 0
294000.0 648663.0 0
298000.0 648663.0 0
302000.0 648663.0 0
306000.0 648663.0 0
310000.0 648663.0 0
314000.0 648663.0 0
318000.0 648663.0 0
322000.0 648663.0 0
326000.0 648663.0 0
330000.0 648663.0 0
334000.0 648663.0 0
338000.0 648663.0 0
342000.0 648663.0 0
346000.0 648663.0 0
350000.0 648663.0 0
354000.0 648663.0 0
358000.0 648663.0 0
362000.0 648663.0 0
366000.0 648663.0 0
370000.0 648663.0 0
374000.0 648663.0 0
378000.0 648663.0 0
382000.0 648663.0 0
386000.0 648663.0 0
390000.0 648663.0 0
394000.0 648663.0 0
398000.0 648663.0 0
102000.0 652663.0 0
106000.0 652663.0 0
110000.0 652663.0 0
114000.0 652663.0 0
118000.0 652663.0 0
122000.0 652663.0 0
126000.0 652663.0 0
130000.0 652663.0 0
134000.0 652663.0 0
138000.0 652663.0 0
142000.0 652663.0 0
146000.0 652663.0 0
150000.0 652663.0 0
154000.0 652663.0 0
158000.0 652663.0 0
162000.0 652663.0 0
166000.0 652663.0 0
170000.0 652663.0 0
174000.0 652663.0 0
178000.0 652663.0 0
182000.0 652663.0 0
186000.0 652663.0 0
190000.0 652663.0 0
194000.0 652663.0 0
198000.0 652663.0 0
202000.0 652663.0 0
206000.0 652663.0 0
210000.0 652663.0 0
214000.0 652663.0 0
218000.0 652663.0 0
222000.0 652663.0 0
226000.0 652663.0 0
230000.0 652663.0 0
234000.0 652663.0 0
238000.0 652663.0 0
242000.0 652663.0 0
246000.0 652663.0 0
250000.0 652663.0 0
254000.0 652663.0 0
258000.0 652663.0 0
262000.0 652663.0 0
266000.0 652663.0 0
270000.0 652663.0 0
274000.0 652663.0 0
278000.0 652663.0 0
282000.0 652663.0 0
286000.0 652663.0 0
290000.0 652663.0 0
294000.0 652663.0 0
298000.0 652663.0 0
302000.0 652663.0 0
306000.0 652663.0 0
310000.0 652663.0 0
314000.0 652663.0 0
318000.0 652663.0 0
322000.0 652663.0 0
326000.0 652663.0 0
330000.0 652663.0 0
334000.0 652663.0 0
338000.0 652663.0 0
342000.0 652663.0 0
346000.0 652663.0 0
350000.0 652663.0 0
354000.0 652663.0 0
358000.0 652663.0 0
362000.0 652663.0 0
366000.0 652663.0 0
370000.0 652663.0 0
374000.0 652663.0 0
378000.0 652663.0 0
382000.0 652663.0 0
386000.0 652663.0 0
390000.0 652663.0 0
394000.0 652663.0 0
398000.0 652663.0 0
102000.0 656663.0 0
106000.0 656663.0 0
110000.0 656663.0 0
114000.0 656663.0 0
118000.0 656663.0 0
122000.0 656663.0 0
126000.0 656663.0 0
130000.0 656663.0 0
134000.0 656663.0 0
138000.0 656663.0 0
142000.0 656663.0 0
146000.0 656663.0 0
150000.0 656663.0 0
154000.0 656663.0 0
158000.0 656663.0 0
162000.0 656663.0 0
166000.0 656663.0 0
170000.0 656663.0 0
174000.0 656663.0 0
178000.0 656663.0 0
182000.0 656663.0 0
186000.0 656663.0 0
190000.0 656663.0 0
194000.0 656663.0 0
198000.0 656663.0 0
202000.0 656663.0 0
206000.0 656663.0 0
210000.0 656663.0 0
214000.0 656663.0 0
218000.0 656663.0 0
222000.0 656663.0 0
226000.0 656663.0 0
230000.0 656663.0 0
234000.0 656663.0 0
238000.0 656663.0 0
242000.0 656663.0 0
246000.0 656663.0 0
250000.0 656663.0 0
254000.0 656663.0 0
258000.0 656663.0 0
262000.0 656663.0 0
266000.0 656663.0 0
270000.0 656663.0 0
274000.0 656663.0 0
278000.0 656663.0 0
282000.0 656663.0 0
286000.0 656663.0 0
290000.0 656663.0 0
294000.0 656663.0 0
298000.0 656663.0 0
302000.0 656663.0 0
306000.0 656663.0 0
310000.0 656663.0 0
314000.0 656663.0 0
318000.0 656663.0 0
322000.0 656663.0 0
326000.0 656663.0 0
330000.0 656663.0 0
334000.0 656663.0 0
338000.0 656663.0 0
342000.0 656663.0 0
346000.0 656663.0 0
350000.0 656663.0 0
354000.0 656663.0 0
358000.0 656663.0 0
362000.0 656663.0 0
366000.0 656663.0 0
370000.0 656663.0 0
374000.0 656663.0 0
378000.0 656663.0 0
382000.0 656663.0 0
386000.0 656663.0 0
390000.0 656663.0 0
394000.0 656663.0 0
398000.0 656663.0 0
102000.0 660663.0 0
106000.0 660663.0 0
110000.0 660663.0 0
114000.0 660663.0 0
118000.0 660663.0 0
122000.0 660663.0 0
126000.0 660663.0 0
130000.0 660663.0 0
134000.0 660663.0 0
138000.0 660663.0 0
142000.0 660663.0 0
146000.0 660663.0 0
150000.0 660663.0 0
154000.0 660663.0 0
158000.0 660663.0 0
162000.0 660663.0 0
166000.0 660663.0 0
170000.0 660663.0 0
174000.0 660663.0 0
178000.0 660663.0 0
182000.0 660663.0 0
186000.0 660663.0 0
190000.0 660663.0 0
194000.0 660663.0 0
198000.0 660663.0 0
202000.0 660663.0 0
206000.0 660663.0 0
210000.0 660663.0 0
214000.0 660663.0 0
218000.0 660663.0 0
222000.0 660663.0 0
226000.0 660663.0 0
230000.0 660663.0 0
234000.0 660663.0 0
238000.0 660663.0 0
242000.0 660663.0 0
246000.0 660663.0 0
250000.0 660663.0 0
254000.0 660663.0 0
258000.0 660663.0 0
262000.0 660663.0 0
266000.0 660663.0 0
270000.0 660663.0 0
274000.0 660663.0 0
278000.0 660663.0 0
282000.0 660663.0 0
286000.0 660663.0 0
290000.0 660663.0 0
294000.0 660663.0 0
298000.0 660663.0 0
302000.0 660663.0 0
306000.0 660663.0 0
310000.0 660663.0 0
314000.0 660663.0 0
318000.0 660663.0 0
322000.0 660663.0 0
326000.0 660663.0 0
330000.0 660663.0 0
334000.0 660663.0 0
338000.0 660663.0 0
342000.0 660663.0 0
346000.0 660663.0 0
350000.0 660663.0 0
354000.0 660663.0 0
358000.0 660663.0 0
362000.0 660663.0 0
366000.0 660663.0 0
370000.0 660663.0 0
374000.0 660663.0 0
378000.0 660663.0 0
382000.0 660663.0 0
386000.0 660663.0 0
390000.0 660663.0 0
394000.0 660663.0 0
398000.0 660663.0 0
102000.0 664663.0 0
106000.0 664663.0 0
110000.0 664663.0 0
114000.0 664663.0 0
118000.0 664663.0 0
122000.0 664663.0 0
126000.0 664663.0 0
130000.0 664663.0 0
134000.0 664663.0 0
138000.0 664663.0 0
142000.0 664663.0 0
146000.0 664663.0 0
150000.0 664663.0 0
154000.0 664663.0 0
158000.0 664663.0 0
162000.0 664663.0 0
166000.0 664663.0 0
170000.0 664663.0 0
174000.0 664663.0 0
178000.0 664663.0 0
182000.0 664663.0 0
186000.0 664663.0 0
190000.0 664663.0 0
194000.0 664663.0 0
198000.0 664663.0 0
202000.0 664663.0 0
206000.0 664663.0 0
210000.0 664663.0 0
214000.0 664663.0 0
218000.0 664663.0 0
222000.0 664663.0 0
226000.0 664663.0 0
230000.0 664663.0 0
234000.0 664663.0 0
238000.0 664663.0 0
242000.0 664663.0 0
246000.0 664663.0 0
250000.0 664663.0 0
254000.0 664663.0 0
258000.0 664663.0 0
262000.0 664663.0 0
266000.0 664663.0 0
270000.0 664663.0 0
274000.0 664663.0 0
278000.0 664663.0 0
282000.0 664663.0 0
286000.0 664663.0 0
290000.0 664663.0 0
294000.0 664663.0 0
298000.0 664663.0 0
302000.0 664663.0 0
306000.0 664663.0 0
310000.0 664663.0 0
314000.0 664663.0 0
318000.0 664663.0 0
322000.0 664663.0 0
326000.0 664663.0 0
330000.0 664663.0 0
334000.0 664663.0 0
338000.0 664663.0 0
342000.0 664663.0 0
346000.0 664663.0 0
350000.0 664663.0 0
354000.0 664663.0 0
358000.0 664663.0 0
362000.0 664663.0 0
366000.0 664663.0 0
370000.0 664663.0 0
374000.0 664663.0 0
378000.0 664663.0 0
382000.0 664663.0 0
386000.0 664663.0 0
390000.0 664663.0 0
394000.0 664663.0 0
398000.0 664663.0 0
102000.0 668663.0 0
106000.0 668663.0 0
110000.0 668663.0 0
114000.0 668663.0 0
118000.0 668663.0 0
122000.0 668663.0 0
126000.0 668663.0 0
130000.0 668663.0 0
134000.0 668663.0 0
138000.0 668663.0 0
142000.0 668663.0 0
146000.0 668663.0 0
150000.0 668663.0 0
154000.0 668663.0 0
158000.0 668663.0 0
162000.0 668663.0 0
166000.0 668663.0 0
170000.0 668663.0 0
174000.0 668663.0 0
178000.0 668663.0 0
182000.0 668663.0 0
186000.0 668663.0 0
190000.0 668663.0 0
194000.0 668663.0 0
198000.0 668663.0 0
202000.0 668663.0 0
206000.0 668663.0 0
210000.0 668663.0 0
214000.0 668663.0 0
218000.0 668663.0 0
222000.0 668663.0 0
226000.0 668663.0 0
230000.0 668663.0 0
234000.0 668663.0 0
238000.0 668663.0 0
242000.0 668663.0 0
246000.0 668663.0 0
250000.0 668663.0 0
254000.0 668663.0 0
258000.0 668663.0 0
262000.0 668663.0 0
266000.0 668663.0 0
270000.0 668663.0 0
274000.0 668663.0 0
278000.0 668663.0 0
282000.0 668663.0 0
286000.0 668663.0 0
290000.0 668663.0 0
294000.0 668663.0 0
298000.0 668663.0 0
302000.0 668663.0 0
306000.0 668663.0 0
310000.0 668663.0 0
314000.0 668663.0 0
318000.0 668663.0 0
322000.0 668663.0 0
326000.0 668663.0 0
330000.0 668663.0 0
334000.0 668663.0 0
338000.0 668663.0 0
342000.0 668663.0 0
346000.0 668663.0 0
350000.0 668663.0 0
354000.0 668663.0 0
358000.0 668663.0 0
362000.0 668663.0 0
366000.0 668663.0 0
370000.0 668663.0 0
374000.0 668663.0 0
378000.0 668663.0 0
382000.0 668663.0 0
386000.0 668663.0 0
390000.0 668663.0 0
394000.0 668663.0 0
398000.0 668663.0 0
102000.0 672663.0 0
106000.0 672663.0 0
110000.0 672663.0 0
114000.0 672663.0 0
118000.0 672663.0 0
122000.0 672663.0 0
126000.0 672663.0 0
130000.0 672663.0 0
134000.0 672663.0 0
138000.0 672663.0 0
142000.0 672663.0 0
146000.0 672663.0 0
150000.0 672663.0 0
154000.0 672663.0 0
158000.0 672663.0 0
162000.0 672663.0 0
166000.0 672663.0 0
170000.0 672663.0 0
174000.0 672663.0 0
178000.0 672663.0 0
182000.0 672663.0 0
186000.0 672663.0 0
190000.0 672663.0 0
194000.0 672663.0 0
198000.0 672663.0 0
202000.0 672663.0 0
206000.0 672663.0 0
210000.0 672663.0 0
214000.0 672663.0 0
218000.0 672663.0 0
222000.0 672663.0 0
226000.0 672663.0 0
230000.0 672663.0 0
234000.0 672663.0 0
238000.0 672663.0 0
242000.0 672663.0 0
246000.0 672663.0 0
250000.0 672663.0 0
254000.0 672663.0 0
258000.0 672663.0 0
262000.0 672663.0 0
266000.0 672663.0 0
270000.0 672663.0 0
274000.0 672663.0 0
278000.0 672663.0 0
282000.0 672663.0 0
286000.0 672663.0 0
290000.0 672663.0 0
294000.0 672663.0 0
298000.0 672663.0 0
302000.0 672663.0 0
306000.0 672663.0 0
310000.0 672663.0 0
314000.0 672663.0 0
318000.0 672663.0 0
322000.0 672663.0 0
326000.0 672663.0 0
330000.0 672663.0 0
334000.0 672663.0 0
338000.0 672663.0 0
342000.0 672663.0 0
346000.0 672663.0 0
350000.0 672663.0 0
354000.0 672663.0 0
358000.0 672663.0 0
362000.0 672663.0 0
366000.0 672663.0 0
370000.0 672663.0 0
374000.0 672663.0 0
378000.0 672663.0 0
382000.0 672663.0 0
386000.0 672663.0 0
390000.0 672663.0 0
394000.0 672663.0 0
398000.0 672663.0 0
102000.0 676663.0 0
106000.0 676663.0 0
110000.0 676663.0 0
114000.0 676663.0 0
118000.0 676663.0 0
122000.0 676663.0 0
126000.0 676663.0 0
130000.0 676663.0 0
134000.0 676663.0 0
138000.0 676663.0 0
142000.0 676663.0 0
146000.0 676663.0 0
150000.0 676663.0 0
154000.0 676663.0 0
158000.0 676663.0 0
162000.0 676663.0 0
166000.0 676663.0 0
170000.0 676663.0 0
174000.0 676663.0 0
178000.0 676663.0 0
182000.0 676663.0 0
186000.0 676663.0 0
190000.0 676663.0 0
194000.0 676663.0 0
198000.0 676663.0 0
202000.0 676663.0 0
206000.0 676663.0 0
210000.0 676663.0 0
214000.0 676663.0 0
218000.0 676663.0 0
222000.0 676663.0 0
226000.0 676663.0 0
230000.0 676663.0 0
234000.0 676663.0 0
238000.0 676663.0 0
242000.0 676663.0 0
246000.0 676663.0 0
250000.0 676663.0 0
254000.0 676663.0 0
258000.0 676663.0 0
262000.0 676663.0 0
266000.0 676663.0 0
270000.0 676663.0 0
274000.0 676663.0 0
278000.0 676663.0 0
282000.0 676663.0 0
286000.0 676663.0 0
290000.0 676663.0 0
294000.0 676663.0 0
298000.0 676663.0 0
302000.0 676663.0 0
306000.0 676663.0 0
310000.0 676663.0 0
314000.0 676663.0 0
318000.0 676663.0 0
322000.0 676663.0 0
326000.0 676663.0 0
330000.0 676663.0 0
334000.0 676663.0 0
338000.0 676663.0 0
342000.0 676663.0 0
346000.0 676663.0 0
350000.0 676663.0 0
354000.0 676663.0 0
358000.0 676663.0 0
362000.0 676663.0 0
366000.0 676663.0 0
370000.0 676663.0 0
374000.0 676663.0 0
378000.0 676663.0 0
382000.0 676663.0 0
386000.0 676663.0 0
390000.0 676663.0 0
394000.0 676663.0 0
398000.0 676663.0 0
102000.0 680663.0 0
106000.0 680663.0 0
110000.0 680663.0 0
114000.0 680663.0 0
118000.0 680663.0 0
122000.0 680663.0 0
126000.0 680663.0 0
130000.0 680663.0 0
134000.0 680663.0 0
138000.0 680663.0 0
142000.0 680663.0 0
146000.0 680663.0 0
150000.0 680663.0 0
154000.0 680663.0 0
158000.0 680663.0 0
162000.0 680663.0 0
166000.0 680663.0 0
170000.0 680663.0 0
174000.0 680663.0 0
178000.0 680663.0 0
182000.0 680663.0 0
186000.0 680663.0 0
190000.0 680663.0 0
194000.0 680663.0 0
198000.0 680663.0 0
202000.0 680663.0 0
206000.0 680663.0 0
210000.0 680663.0 0
214000.0 680663.0 0
218000.0 680663.0 0
222000.0 680663.0 0
226000.0 680663.0 0
230000.0 680663.0 0
234000.0 680663.0 0
238000.0 680663.0 0
242000.0 680663.0 0
246000.0 680663.0 0
250000.0 680663.0 0
254000.0 680663.0 0
258000.0 680663.0 0
262000.0 680663.0 0
266000.0 680663.0 0
270000.0 680663.0 0
274000.0 680663.0 0
278000.0 680663.0 0
282000.0 680663.0 0
286000.0 680663.0 0
290000.0 680663.0 0
294000.0 680663.0 0
298000.0 680663.0 0
302000.0 680663.0 0
306000.0 680663.0 0
310000.0 680663.0 0
314000.0 680663.0 0
318000.0 680663.0 0
322000.0 680663.0 0
326000.0 680663.0 0
330000.0 680663.0 0
334000.0 680663.0 0
338000.0 680663.0 0
342000.0 680663.0 0
346000.0 680663.0 0
350000.0 680663.0 0
354000.0 680663.0 0
358000.0 680663.0 0
362000.0 680663.0 0
366000.0 680663.0 0
370000.0 680663.0 0
374000.0 680663.0 0
378000.0 680663.0 0
382000.0 680663.0 0
386000.0 680663.0 0
390000.0 680663.0 0
394000.0 680663.0 0
398000.0 680663.0 0
POINT_DATA 4650
SCALARS Radius float 1
LOOKUP_TABLE default
4000.0 4000.0 4000.0 4000.0 4000.0 4000.0 4000.0 4000.0 4000.0 4000.0 4000.0 4000.0 4000.0 4000.0 4000.0 4000.0 4000.0 4000.0 4000.0 4000.0 4000.0 4000.0 4000.0 4000.0 4000.0 4000.0 4000.0 4000.0 4000.0 4000.0 4000.0 4000.0 4000.0 4000.0 4000.0 4000.0 4000.0 4000.0 4000.0 4000.0 4000.0 4000.0 4000.0 4000.0 4000.0 4000.0 4000.0 4000.0 4000.0 4000.0 4000.0 4000.0 4000.0 4000.0 4000.0 4000.0 4000.0 4000.0 4000.0 4000.0 4000.0 4000.0 4000.0 4000.0 4000.0 4000.0 4000.0 4000.0 4000.0 4000.0 4000.0 4000.0 4000.0 4000.0 4000.0 4000.0 4000.0 4000.0 4000.0 4000.0 4000.0 4000.0 4000.0 4000.0 4000.0 4000.0 4000.0 4000.0 4000.0 4000.0 4000.0 4000.0 4000.0 4000.0 4000.0 4000.0 4000.0 4000.0 4000.0 4000.0 4000.0 4000.0 4000.0 4000.0 4000.0 4000.0 4000.0 4000.0 4000.0 4000.0 4000.0 4000.0 4000.0 4000.0 4000.0 4000.0 4000.0 4000.0 4000.0 4000.0 4000.0 4000.0 4000.0 4000.0 4000.0 4000.0 4000.0 4000.0 4000.0 4000.0 4000.0 4000.0 4000.0 4000.0 4000.0 4000.0 4000.0 4000.0 4000.0 4000.0 4000.0 4000.0 4000.0 4000.0 4000.0 4000.0 4000.0 4000.0 4000.0 4000.0 4000.0 4000.0 4000.0 4000.0 4000.0 4000.0 4000.0 4000.0 4000.0 4000.0 4000.0 4000.0 4000.0 4000.0 4000.0 4000.0 4000.0 4000.0 4000.0 4000.0 4000.0 4000.0 4000.0 4000.0 4000.0 4000.0 4000.0 4000.0 4000.0 4000.0 4000.0 4000.0 4000.0 4000.0 4000.0 4000.0 4000.0 4000.0 4000.0 4000.0 4000.0 4000.0 4000.0 4000.0 4000.0 4000.0 4000.0 4000.0 4000.0 4000.0 4000.0 4000.0 4000.0 4000.0 4000.0 4000.0 4000.0 4000.0 4000.0 4000.0 4000.0 4000.0 4000.0 4000.0 4000.0 4000.0 4000.0 4000.0 4000.0 4000.0 4000.0 4000.0 4000.0 4000.0 4000.0 4000.0 4000.0 4000.0 4000.0 4000.0 4000.0 4000.0 4000.0 4000.0 4000.0 4000.0 4000.0 4000.0 4000.0 4000.0 4000.0 4000.0 4000.0 4000.0 4000.0 4000.0 4000.0 4000.0 4000.0 4000.0 4000.0 4000.0 4000.0 4000.0 4000.0 4000.0 4000.0 4000.0 4000.0 4000.0 4000.0 4000.0 4000.0 4000.0 4000.0 4000.0 4000.0 4000.0 4000.0 4000.0 4000.0 4000.0 4000.0 4000.0 4000.0 4000.0 4000.0 4000.0 4000.0 4000.0 4000.0 4000.0 4000.0 4000.0 4000.0 4000.0 4000.0 4000.0 4000.0 4000.0 4000.0 4000.0 4000.0 4000.0 4000.0 4000.0 4000.0 4000.0 4000.0 4000.0 4000.0 4000.0 4000.0 4000.0 4000.0 4000.0 4000.0 4000.0 4000.0 4000.0 4000.0 4000.0 4000.0 4000.0 4000.0 4000.0 4000.0 4000.0 4000.0 4000.0 4000.0 4000.0 4000.0 4000.0 4000.0 4000.0 4000.0 4000.0 4000.0 4000.0 4000.0 4000.0 4000.0 4000.0 4000.0 4000.0 4000.0 4000.0 4000.0 4000.0 4000.0 4000.0 4000.0 4000.0 4000.0 4000.0 4000.0 4000.0 4000.0 4000.0 4000.0 4000.0 4000.0 4000.0 4000.0 4000.0 4000.0 4000.0 4000.0 4000.0 4000.0 4000.0 4000.0 4000.0 4000.0 4000.0 4000.0 4000.0 4000.0 4000.0 4000.0 4000.0 4000.0 4000.0 4000.0 4000.0 4000.0 4000.0 4000.0 4000.0 4000.0 4000.0 4000.0 4000.0 4000.0 4000.0 4000.0 4000.0 4000.0 4000.0 4000.0 4000.0 4000.0 4000.0 4000.0 4000.0 4000.0 4000.0 4000.0 4000.0 4000.0 4000.0 4000.0 4000.0 4000.0 4000.0 4000.0 4000.0 4000.0 4000.0 4000.0 4000.0 4000.0 4000.0 4000.0 4000.0 4000.0 4000.0 4000.0 4000.0 4000.0 4000.0 4000.0 4000.0 4000.0 4000.0 4000.0 4000.0 4000.0 4000.0 4000.0 4000.0 4000.0 4000.0 4000.0 4000.0 4000.0 4000.0 4000.0 4000.0 4000.0 4000.0 4000.0 4000.0 4000.0 4000.0 4000.0 4000.0 4000.0 4000.0 4000.0 4000.0 4000.0 4000.0 4000.0 4000.0 4000.0 4000.0 4000.0 4000.0 4000.0 4000.0 4000.0 4000.0 4000.0 4000.0 4000.0 4000.0 4000.0 4000.0 4000.0 4000.0 4000.0 4000.0 4000.0 4000.0 4000.0 4000.0 4000.0 4000.0 4000.0 4000.0 4000.0 4000.0 4000.0 4000.0 4000.0 4000.0 4000.0 4000.0 4000.0 4000.0 4000.0 4000.0 4000.0 4000.0 4000.0 4000.0 4000.0 4000.0 4000.0 4000.0 4000.0 4000.0 4000.0 4000.0 4000.0 4000.0 4000.0 4000.0 4000.0 4000.0 4000.0 4000.0 4000.0 4000.0 4000.0 4000.0 4000.0 4000.0 4000.0 4000.0 4000.0 4000.0 4000.0 4000.0 4000.0 4000.0 4000.0 4000.0 4000.0 4000.0 4000.0 4000.0 4000.0 4000.0 4000.0 4000.0 4000.0 4000.0 4000.0 4000.0 4000.0 4000.0 4000.0 4000.0 4000.0 4000.0 4000.0 4000.0 4000.0 4000.0 4000.0 4000.0 4000.0 4000.0 4000.0 4000.0 4000.0 4000.0 4000.0 4000.0 4000.0 4000.0 4000.0 4000.0 4000.0 4000.0 4000.0 4000.0 4000.0 4000.0 4000.0 4000.0 4000.0 4000.0 4000.0 4000.0 4000.0 4000.0 4000.0 4000.0 4000.0 4000.0 4000.0 4000.0 4000.0 4000.0 4000.0 4000.0 4000.0 4000.0 4000.0 4000.0 4000.0 4000.0 4000.0 4000.0 4000.0 4000.0 4000.0 4000.0 4000.0 4000.0 4000.0 4000.0 4000.0 4000.0 4000.0 4000.0 4000.0 4000.0 4000.0 4000.0 4000.0 4000.0 4000.0 4000.0 4000.0 4000.0 4000.0 4000.0 4000.0 4000.0 4000.0 4000.0 4000.0 4000.0 4000.0 4000.0 4000.0 4000.0 4000.0 4000.0 4000.0 4000.0 4000.0 4000.0 4000.0 4000.0 4000.0 4000.0 4000.0 4000.0 4000.0 4000.0 4000.0 4000.0 4000.0 4000.0 4000.0 4000.0 4000.0 4000.0 4000.0 4000.0 4000.0 4000.0 4000.0 4000.0 4000.0 4000.0 4000.0 4000.0 4000.0 4000.0 4000.0 4000.0 4000.0 4000.0 4000.0 4000.0 4000.0 4000.0 4000.0 4000.0 4000.0 4000.0 4000.0 4000.0 4000.0 4000.0 4000.0 4000.0 4000.0 4000.0 4000.0 4000.0 4000.0 4000.0 4000.0 4000.0 4000.0 4000.0 4000.0 4000.0 4000.0 4000.0 4000.0 4000.0 4000.0 4000.0 4000.0 4000.0 4000.0 4000.0 4000.0 4000.0 4000.0 4000.0 4000.0 4000.0 4000.0 4000.0 4000.0 4000.0 4000.0 4000.0 4000.0 4000.0 4000.0 4000.0 4000.0 4000.0 4000.0 4000.0 4000.0 4000.0 4000.0 4000.0 4000.0 4000.0 4000.0 4000.0 4000.0 4000.0 4000.0 4000.0 4000.0 4000.0 4000.0 4000.0 4000.0 4000.0 4000.0 4000.0 4000.0 4000.0 4000.0 4000.0 4000.0 4000.0 4000.0 4000.0 4000.0 4000.0 4000.0 4000.0 4000.0 4000.0 4000.0 4000.0 4000.0 4000.0 4000.0 4000.0 4000.0 4000.0 4000.0 4000.0 4000.0 4000.0 4000.0 4000.0 4000.0 4000.0 4000.0 4000.0 4000.0 4000.0 4000.0 4000.0 4000.0 4000.0 4000.0 4000.0 4000.0 4000.0 4000.0 4000.0 4000.0 4000.0 4000.0 4000.0 4000.0 4000.0 4000.0 4000.0 4000.0 4000.0 4000.0 4000.0 4000.0 4000.0 4000.0 4000.0 4000.0 4000.0 4000.0 4000.0 4000.0 4000.0 4000.0 4000.0 4000.0 4000.0 4000.0 4000.0 4000.0 4000.0 4000.0 4000.0 4000.0 4000.0 4000.0 4000.0 4000.0 4000.0 4000.0 4000.0 4000.0 4000.0 4000.0 4000.0 4000.0 4000.0 4000.0 4000.0 4000.0 4000.0 4000.0 4000.0 4000.0 4000.0 4000.0 4000.0 4000.0 4000.0 4000.0 4000.0 4000.0 4000.0 4000.0 4000.0 4000.0 4000.0 4000.0 4000.0 4000.0 4000.0 4000.0 4000.0 4000.0 4000.0 4000.0 4000.0 4000.0 4000.0 4000.0 4000.0 4000.0 4000.0 4000.0 4000.0 4000.0 4000.0 4000.0 4000.0 4000.0 4000.0 4000.0 4000.0 4000.0 4000.0 4000.0 4000.0 4000.0 4000.0 4000.0 4000.0 4000.0 4000.0 4000.0 4000.0 4000.0 4000.0 4000.0 4000.0 4000.0 4000.0 4000.0 4000.0 4000.0 4000.0 4000.0 4000.0 4000.0 4000.0 4000.0 4000.0 4000.0 4000.0 4000.0 4000.0 4000.0 4000.0 4000.0 4000.0 4000.0 4000.0 4000.0 4000.0 4000.0 4000.0 4000.0 4000.0 4000.0 4000.0 4000.0 4000.0 4000.0 4000.0 4000.0 4000.0 4000.0 4000.0 4000.0 4000.0 4000.0 4000.0 4000.0 4000.0 4000.0 4000.0 4000.0 4000.0 4000.0 4000.0 4000.0 4000.0 4000.0 4000.0 4000.0 4000.0 4000.0 4000.0 4000.0 4000.0 4000.0 4000.0 4000.0 4000.0 4000.0 4000.0 4000.0 4000.0 4000.0 4000.0 4000.0 4000.0 4000.0 4000.0 4000.0 4000.0 4000.0 4000.0 4000.0 4000.0 4000.0 4000.0 4000.0 4000.0 4000.0 4000.0 4000.0 4000.0 4000.0 4000.0 4000.0 4000.0 4000.0 4000.0 4000.0 4000.0 4000.0 4000.0 4000.0 4000.0 4000.0 4000.0 4000.0 4000.0 4000.0 4000.0 4000.0 4000.0 4000.0 4000.0 4000.0 4000.0 4000.0 4000.0 4000.0 4000.0 4000.0 4000.0 4000.0 4000.0 4000.0 4000.0 4000.0 4000.0 4000.0 4000.0 4000.0 4000.0 4000.0 4000.0 4000.0 4000.0 4000.0 4000.0 4000.0 4000.0 4000.0 4000.0 4000.0 4000.0 4000.0 4000.0 4000.0 4000.0 4000.0 4000.0 4000.0 4000.0 4000.0 4000.0 4000.0 4000.0 4000.0 4000.0 4000.0 4000.0 4000.0 4000.0 4000.0 4000.0 4000.0 4000.0 4000.0 4000.0 4000.0 4000.0 4000.0 4000.0 4000.0 4000.0 4000.0 4000.0 4000.0 4000.0 4000.0 4000.0 4000.0 4000.0 4000.0 4000.0 4000.0 4000.0 4000.0 4000.0 4000.0 4000.0 4000.0 4000.0 4000.0 4000.0 4000.0 4000.0 4000.0 4000.0 4000.0 4000.0 4000.0 4000.0 4000.0 4000.0 4000.0 4000.0 4000.0 4000.0 4000.0 4000.0 4000.0 4000.0 4000.0 4000.0 4000.0 4000.0 4000.0 4000.0 4000.0 4000.0 4000.0 4000.0 4000.0 4000.0 4000.0 4000.0 4000.0 4000.0 4000.0 4000.0 4000.0 4000.0 4000.0 4000.0 4000.0 4000.0 4000.0 4000.0 4000.0 4000.0 4000.0 4000.0 4000.0 4000.0 4000.0 4000.0 4000.0 4000.0 4000.0 4000.0 4000.0 4000.0 4000.0 4000.0 4000.0 4000.0 4000.0 4000.0 4000.0 4000.0 4000.0 4000.0 4000.0 4000.0 4000.0 4000.0 4000.0 4000.0 4000.0 4000.0 4000.0 4000.0 4000.0 4000.0 4000.0 4000.0 4000.0 4000.0 4000.0 4000.0 4000.0 4000.0 4000.0 4000.0 4000.0 4000.0 4000.0 4000.0 4000.0 4000.0 4000.0 4000.0 4000.0 4000.0 4000.0 4000.0 4000.0 4000.0 4000.0 4000.0 4000.0 4000.0 4000.0 4000.0 4000.0 4000.0 4000.0 4000.0 4000.0 4000.0 4000.0 4000.0 4000.0 4000.0 4000.0 4000.0 4000.0 4000.0 4000.0 4000.0 4000.0 4000.0 4000.0 4000.0 4000.0 4000.0 4000.0 4000.0 4000.0 4000.0 4000.0 4000.0 4000.0 4000.0 4000.0 4000.0 4000.0 4000.0 4000.0 4000.0 4000.0 4000.0 4000.0 4000.0 4000.0 4000.0 4000.0 4000.0 4000.0 4000.0 4000.0 4000.0 4000.0 4000.0 4000.0 4000.0 4000.0 4000.0 4000.0 4000.0 4000.0 4000.0 4000.0 4000.0 4000.0 4000.0 4000.0 4000.0 4000.0 4000.0 4000.0 4000.0 4000.0 4000.0 4000.0 4000.0 4000.0 4000.0 4000.0 4000.0 4000.0 4000.0 4000.0 4000.0 4000.0 4000.0 4000.0 4000.0 4000.0 4000.0 4000.0 4000.0 4000.0 4000.0 4000.0 4000.0 4000.0 4000.0 4000.0 4000.0 4000.0 4000.0 4000.0 4000.0 4000.0 4000.0 4000.0 4000.0 4000.0 4000.0 4000.0 4000.0 4000.0 4000.0 4000.0 4000.0 4000.0 4000.0 4000.0 4000.0 4000.0 4000.0 4000.0 4000.0 4000.0 4000.0 4000.0 4000.0 4000.0 4000.0 4000.0 4000.0 4000.0 4000.0 4000.0 4000.0 4000.0 4000.0 4000.0 4000.0 4000.0 4000.0 4000.0 4000.0 4000.0 4000.0 4000.0 4000.0 4000.0 4000.0 4000.0 4000.0 4000.0 4000.0 4000.0 4000.0 4000.0 4000.0 4000.0 4000.0 4000.0 4000.0 4000.0 4000.0 4000.0 4000.0 4000.0 4000.0 4000.0 4000.0 4000.0 4000.0 4000.0 4000.0 4000.0 4000.0 4000.0 4000.0 4000.0 4000.0 4000.0 4000.0 4000.0 4000.0 4000.0 4000.0 4000.0 4000.0 4000.0 4000.0 4000.0 4000.0 4000.0 4000.0 4000.0 4000.0 4000.0 4000.0 4000.0 4000.0 4000.0 4000.0 4000.0 4000.0 4000.0 4000.0 4000.0 4000.0 4000.0 4000.0 4000.0 4000.0 4000.0 4000.0 4000.0 4000.0 4000.0 4000.0 4000.0 4000.0 4000.0 4000.0 4000.0 4000.0 4000.0 4000.0 4000.0 4000.0 4000.0 4000.0 4000.0 4000.0 4000.0 4000.0 4000.0 4000.0 4000.0 4000.0 4000.0 4000.0 4000.0 4000.0 4000.0 4000.0 4000.0 4000.0 4000.0 4000.0 4000.0 4000.0 4000.0 4000.0 4000.0 4000.0 4000.0 4000.0 4000.0 4000.0 4000.0 4000.0 4000.0 4000.0 4000.0 4000.0 4000.0 4000.0 4000.0 4000.0 4000.0 4000.0 4000.0 4000.0 4000.0 4000.0 4000.0 4000.0 4000.0 4000.0 4000.0 4000.0 4000.0 4000.0 4000.0 4000.0 4000.0 4000.0 4000.0 4000.0 4000.0 4000.0 4000.0 4000.0 4000.0 4000.0 4000.0 4000.0 4000.0 4000.0 4000.0 4000.0 4000.0 4000.0 4000.0 4000.0 4000.0 4000.0 4000.0 4000.0 4000.0 4000.0 4000.0 4000.0 4000.0 4000.0 4000.0 4000.0 4000.0 4000.0 4000.0 4000.0 4000.0 4000.0 4000.0 4000.0 4000.0 4000.0 4000.0 4000.0 4000.0 4000.0 4000.0 4000.0 4000.0 4000.0 4000.0 4000.0 4000.0 4000.0 4000.0 4000.0 4000.0 4000.0 4000.0 4000.0 4000.0 4000.0 4000.0 4000.0 4000.0 4000.0 4000.0 4000.0 4000.0 4000.0 4000.0 4000.0 4000.0 4000.0 4000.0 4000.0 4000.0 4000.0 4000.0 4000.0 4000.0 4000.0 4000.0 4000.0 4000.0 4000.0 4000.0 4000.0 4000.0 4000.0 4000.0 4000.0 4000.0 4000.0 4000.0 4000.0 4000.0 4000.0 4000.0 4000.0 4000.0 4000.0 4000.0 4000.0 4000.0 4000.0 4000.0 4000.0 4000.0 4000.0 4000.0 4000.0 4000.0 4000.0 4000.0 4000.0 4000.0 4000.0 4000.0 4000.0 4000.0 4000.0 4000.0 4000.0 4000.0 4000.0 4000.0 4000.0 4000.0 4000.0 4000.0 4000.0 4000.0 4000.0 4000.0 4000.0 4000.0 4000.0 4000.0 4000.0 4000.0 4000.0 4000.0 4000.0 4000.0 4000.0 4000.0 4000.0 4000.0 4000.0 4000.0 4000.0 4000.0 4000.0 4000.0 4000.0 4000.0 4000.0 4000.0 4000.0 4000.0 4000.0 4000.0 4000.0 4000.0 4000.0 4000.0 4000.0 4000.0 4000.0 4000.0 4000.0 4000.0 4000.0 4000.0 4000.0 4000.0 4000.0 4000.0 4000.0 4000.0 4000.0 4000.0 4000.0 4000.0 4000.0 4000.0 4000.0 4000.0 4000.0 4000.0 4000.0 4000.0 4000.0 4000.0 4000.0 4000.0 4000.0 4000.0 4000.0 4000.0 4000.0 4000.0 4000.0 4000.0 4000.0 4000.0 4000.0 4000.0 4000.0 4000.0 4000.0 4000.0 4000.0 4000.0 4000.0 4000.0 4000.0 4000.0 4000.0 4000.0 4000.0 4000.0 4000.0 4000.0 4000.0 4000.0 4000.0 4000.0 4000.0 4000.0 4000.0 4000.0 4000.0 4000.0 4000.0 4000.0 4000.0 4000.0 4000.0 4000.0 4000.0 4000.0 4000.0 4000.0 4000.0 4000.0 4000.0 4000.0 4000.0 4000.0 4000.0 4000.0 4000.0 4000.0 4000.0 4000.0 4000.0 4000.0 4000.0 4000.0 4000.0 4000.0 4000.0 4000.0 4000.0 4000.0 4000.0 4000.0 4000.0 4000.0 4000.0 4000.0 4000.0 4000.0 4000.0 4000.0 4000.0 4000.0 4000.0 4000.0 4000.0 4000.0 4000.0 4000.0 4000.0 4000.0 4000.0 4000.0 4000.0 4000.0 4000.0 4000.0 4000.0 4000.0 4000.0 4000.0 4000.0 4000.0 4000.0 4000.0 4000.0 4000.0 4000.0 4000.0 4000.0 4000.0 4000.0 4000.0 4000.0 4000.0 4000.0 4000.0 4000.0 4000.0 4000.0 4000.0 4000.0 4000.0 4000.0 4000.0 4000.0 4000.0 4000.0 4000.0 4000.0 4000.0 4000.0 4000.0 4000.0 4000.0 4000.0 4000.0 4000.0 4000.0 4000.0 4000.0 4000.0 4000.0 4000.0 4000.0 4000.0 4000.0 4000.0 4000.0 4000.0 4000.0 4000.0 4000.0 4000.0 4000.0 4000.0 4000.0 4000.0 4000.0 4000.0 4000.0 4000.0 4000.0 4000.0 4000.0 4000.0 4000.0 4000.0 4000.0 4000.0 4000.0 4000.0 4000.0 4000.0 4000.0 4000.0 4000.0 4000.0 4000.0 4000.0 4000.0 4000.0 4000.0 4000.0 4000.0 4000.0 4000.0 4000.0 4000.0 4000.0 4000.0 4000.0 4000.0 4000.0 4000.0 4000.0 4000.0 4000.0 4000.0 4000.0 4000.0 4000.0 4000.0 4000.0 4000.0 4000.0 4000.0 4000.0 4000.0 4000.0 4000.0 4000.0 4000.0 4000.0 4000.0 4000.0 4000.0 4000.0 4000.0 4000.0 4000.0 4000.0 4000.0 4000.0 4000.0 4000.0 4000.0 4000.0 4000.0 4000.0 4000.0 4000.0 4000.0 4000.0 4000.0 4000.0 4000.0 4000.0 4000.0 4000.0 4000.0 4000.0 4000.0 4000.0 4000.0 4000.0 4000.0 4000.0 4000.0 4000.0 4000.0 4000.0 4000.0 4000.0 4000.0 4000.0 4000.0 4000.0 4000.0 4000.0 4000.0 4000.0 4000.0 4000.0 4000.0 4000.0 4000.0 4000.0 4000.0 4000.0 4000.0 4000.0 4000.0 4000.0 4000.0 4000.0 4000.0 4000.0 4000.0 4000.0 4000.0 4000.0 4000.0 4000.0 4000.0 4000.0 4000.0 4000.0 4000.0 4000.0 4000.0 4000.0 4000.0 4000.0 4000.0 4000.0 4000.0 4000.0 4000.0 4000.0 4000.0 4000.0 4000.0 4000.0 4000.0 4000.0 4000.0 4000.0 4000.0 4000.0 4000.0 4000.0 4000.0 4000.0 4000.0 4000.0 4000.0 4000.0 4000.0 4000.0 4000.0 4000.0 4000.0 4000.0 4000.0 4000.0 4000.0 4000.0 4000.0 4000.0 4000.0 4000.0 4000.0 4000.0 4000.0 4000.0 4000.0 4000.0 4000.0 4000.0 4000.0 4000.0 4000.0 4000.0 4000.0 4000.0 4000.0 4000.0 4000.0 4000.0 4000.0 4000.0 4000.0 4000.0 4000.0 4000.0 4000.0 4000.0 4000.0 4000.0 4000.0 4000.0 4000.0 4000.0 4000.0 4000.0 4000.0 4000.0 4000.0 4000.0 4000.0 4000.0 4000.0 4000.0 4000.0 4000.0 4000.0 4000.0 4000.0 4000.0 4000.0 4000.0 4000.0 4000.0 4000.0 4000.0 4000.0 4000.0 4000.0 4000.0 4000.0 4000.0 4000.0 4000.0 4000.0 4000.0 4000.0 4000.0 4000.0 4000.0 4000.0 4000.0 4000.0 4000.0 4000.0 4000.0 4000.0 4000.0 4000.0 4000.0 4000.0 4000.0 4000.0 4000.0 4000.0 4000.0 4000.0 4000.0 4000.0 4000.0 4000.0 4000.0 4000.0 4000.0 4000.0 4000.0 4000.0 4000.0 4000.0 4000.0 4000.0 4000.0 4000.0 4000.0 4000.0 4000.0 4000.0 4000.0 4000.0 4000.0 4000.0 4000.0 4000.0 4000.0 4000.0 4000.0 4000.0 4000.0 4000.0 4000.0 4000.0 4000.0 4000.0 4000.0 4000.0 4000.0 4000.0 4000.0 4000.0 4000.0 4000.0 4000.0 4000.0 4000.0 4000.0 4000.0 4000.0 4000.0 4000.0 4000.0 4000.0 4000.0 4000.0 4000.0 4000.0 4000.0 4000.0 4000.0 4000.0 4000.0 4000.0 4000.0 4000.0 4000.0 4000.0 4000.0 4000.0 4000.0 4000.0 4000.0 4000.0 4000.0 4000.0 4000.0 4000.0 4000.0 4000.0 4000.0 4000.0 4000.0 4000.0 4000.0 4000.0 4000.0 4000.0 4000.0 4000.0 4000.0 4000.0 4000.0 4000.0 4000.0 4000.0 4000.0 4000.0 4000.0 4000.0 4000.0 4000.0 4000.0 4000.0 4000.0 4000.0 4000.0 4000.0 4000.0 4000.0 4000.0 4000.0 4000.0 4000.0 4000.0 4000.0 4000.0 4000.0 4000.0 4000.0 4000.0 4000.0 4000.0 4000.0 4000.0 4000.0 4000.0 4000.0 4000.0 4000.0 4000.0 4000.0 4000.0 4000.0 4000.0 4000.0 4000.0 4000.0 4000.0 4000.0 4000.0 4000.0 4000.0 4000.0 4000.0 4000.0 4000.0 4000.0 4000.0 4000.0 4000.0 4000.0 4000.0 4000.0 4000.0 4000.0 4000.0 4000.0 4000.0 4000.0 4000.0 4000.0 4000.0 4000.0 4000.0 4000.0 4000.0 4000.0 4000.0 4000.0 4000.0 4000.0 4000.0 4000.0 4000.0 4000.0 4000.0 4000.0 4000.0 4000.0 4000.0 4000.0 4000.0 4000.0 4000.0 4000.0 4000.0 4000.0 4000.0 4000.0 4000.0 4000.0 4000.0 4000.0 4000.0 4000.0 4000.0 4000.0 4000.0 4000.0 4000.0 4000.0 4000.0 4000.0 4000.0 4000.0 4000.0 4000.0 4000.0 4000.0 4000.0 4000.0 4000.0 4000.0 4000.0 4000.0 4000.0 4000.0 4000.0 4000.0 4000.0 4000.0 4000.0 4000.0 4000.0 4000.0 4000.0 4000.0 4000.0 4000.0 4000.0 4000.0 4000.0 4000.0 4000.0 4000.0 4000.0 4000.0 4000.0 4000.0 4000.0 4000.0 4000.0 4000.0 4000.0 4000.0 4000.0 4000.0 4000.0 4000.0 4000.0 4000.0 4000.0 4000.0 4000.0 4000.0 4000.0 4000.0 4000.0 4000.0 4000.0 4000.0 4000.0 4000.0 4000.0 4000.0 4000.0 4000.0 4000.0 4000.0 4000.0 4000.0 4000.0 4000.0 4000.0 4000.0 4000.0 4000.0 4000.0 4000.0 4000.0 4000.0 4000.0 4000.0 4000.0 4000.0 4000.0 4000.0 4000.0 4000.0 4000.0 4000.0 4000.0 4000.0 4000.0 4000.0 4000.0 4000.0 4000.0 4000.0 4000.0 4000.0 4000.0 4000.0 4000.0 4000.0 4000.0 4000.0 4000.0 4000.0 4000.0 4000.0 4000.0 4000.0 4000.0 4000.0 4000.0 4000.0 4000.0 4000.0 4000.0 4000.0 4000.0 4000.0 4000.0 4000.0 4000.0 4000.0 4000.0 4000.0 4000.0 4000.0 4000.0 4000.0 4000.0 4000.0 4000.0 4000.0 4000.0 4000.0 4000.0 4000.0 4000.0 4000.0 4000.0 4000.0 4000.0 4000.0 4000.0 4000.0 4000.0 4000.0 4000.0 4000.0 4000.0 4000.0 4000.0 4000.0 4000.0 4000.0 4000.0 4000.0 4000.0 4000.0 4000.0 4000.0 4000.0 4000.0 4000.0 4000.0 4000.0 4000.0 4000.0 4000.0 4000.0 4000.0 4000.0 4000.0 4000.0 4000.0 4000.0 4000.0 4000.0 4000.0 4000.0 4000.0 4000.0 4000.0 4000.0 4000.0 4000.0 4000.0 4000.0 4000.0 4000.0 4000.0 4000.0 4000.0 4000.0 4000.0 4000.0 4000.0 4000.0 4000.0 4000.0 4000.0 4000.0 4000.0 4000.0 4000.0 4000.0 4000.0 4000.0 4000.0 4000.0 4000.0 4000.0 4000.0 4000.0 4000.0 4000.0 4000.0 4000.0 4000.0 4000.0 4000.0 4000.0 4000.0 4000.0 4000.0 4000.0 4000.0 4000.0 4000.0 4000.0 4000.0 4000.0 4000.0 4000.0 4000.0 4000.0 4000.0 4000.0 4000.0 4000.0 4000.0 4000.0 4000.0 4000.0 4000.0 4000.0 4000.0 4000.0 4000.0 4000.0 4000.0 4000.0 4000.0 4000.0 4000.0 4000.0 4000.0 4000.0 4000.0 4000.0 4000.0 4000.0 4000.0 4000.0 4000.0 4000.0 4000.0 4000.0 4000.0 4000.0 4000.0 4000.0 4000.0 4000.0 4000.0 4000.0 4000.0 4000.0 4000.0 4000.0 4000.0 4000.0 4000.0 4000.0 4000.0 4000.0 4000.0 4000.0 4000.0 4000.0 4000.0 4000.0 4000.0 4000.0 4000.0 4000.0 4000.0 4000.0 4000.0 4000.0 4000.0 4000.0 4000.0 4000.0 4000.0 4000.0 4000.0 4000.0 4000.0 4000.0 4000.0 4000.0 4000.0 4000.0 4000.0 4000.0 4000.0 4000.0 4000.0 4000.0 4000.0 4000.0 4000.0 4000.0 4000.0 4000.0 4000.0 4000.0 4000.0 4000.0 4000.0 4000.0 4000.0 4000.0 4000.0 4000.0 4000.0 4000.0 4000.0 4000.0 4000.0 4000.0 4000.0 4000.0 4000.0 4000.0 4000.0 4000.0 4000.0 4000.0 4000.0 4000.0 4000.0 4000.0 4000.0 4000.0 4000.0 4000.0 4000.0 4000.0 4000.0 4000.0 4000.0 4000.0 4000.0 4000.0 4000.0 4000.0 4000.0 4000.0 4000.0 4000.0 4000.0 4000.0 4000.0 4000.0 4000.0 4000.0 4000.0 4000.0 4000.0 4000.0 4000.0 4000.0 4000.0 4000.0 4000.0 4000.0 4000.0 4000.0 4000.0 4000.0 4000.0 4000.0 4000.0 4000.0 4000.0 4000.0 4000.0 4000.0 4000.0 4000.0 4000.0 4000.0 4000.0 4000.0 4000.0 4000.0 4000.0 4000.0 4000.0 4000.0 4000.0 4000.0 4000.0 4000.0 4000.0 4000.0 4000.0 4000.0 4000.0 4000.0 4000.0 4000.0 4000.0 4000.0 4000.0 4000.0 4000.0 4000.0 4000.0 4000.0 4000.0 4000.0 4000.0 4000.0 4000.0 4000.0 4000.0 4000.0 4000.0 4000.0 4000.0 4000.0 4000.0 4000.0 4000.0 4000.0 4000.0 4000.0 4000.0 4000.0 4000.0 4000.0 4000.0 4000.0 4000.0 4000.0 4000.0 4000.0 4000.0 4000.0 4000.0 4000.0 4000.0 4000.0 4000.0 4000.0 4000.0 4000.0 4000.0 4000.0 4000.0 4000.0 4000.0 4000.0 4000.0 4000.0 4000.0 4000.0 4000.0 4000.0 4000.0 4000.0 4000.0 4000.0 4000.0 4000.0 4000.0 4000.0 4000.0 4000.0 4000.0 4000.0 4000.0 4000.0 4000.0 4000.0 4000.0 4000.0 4000.0 4000.0 4000.0 4000.0 4000.0 4000.0 4000.0 4000.0 4000.0 4000.0 4000.0 4000.0 4000.0 4000.0 4000.0 4000.0 4000.0 4000.0 4000.0 4000.0 4000.0 4000.0 4000.0 4000.0 4000.0 4000.0 4000.0 4000.0 4000.0 4000.0 4000.0 4000.0 4000.0 4000.0 4000.0 4000.0 4000.0 4000.0 4000.0 4000.0 4000.0 4000.0 4000.0 4000.0 4000.0 4000.0 4000.0 4000.0 4000.0 4000.0 4000.0 4000.0 4000.0 4000.0 4000.0 4000.0 4000.0 4000.0 4000.0 4000.0 4000.0 4000.0 4000.0 4000.0 4000.0 4000.0 4000.0 4000.0 4000.0 4000.0 4000.0 4000.0 4000.0 4000.0 4000.0 4000.0 4000.0 4000.0 4000.0 4000.0 4000.0 4000.0 4000.0 4000.0 4000.0 4000.0 4000.0 4000.0 4000.0 4000.0 4000.0 4000.0 4000.0 4000.0 4000.0 4000.0 4000.0 4000.0 4000.0 4000.0 4000.0 4000.0 4000.0 4000.0 4000.0 4000.0 4000.0 4000.0 4000.0 4000.0 4000.0 4000.0 4000.0 4000.0 4000.0 4000.0 4000.0 4000.0 4000.0 4000.0 4000.0 4000.0 4000.0 4000.0 4000.0 4000.0 4000.0 4000.0 4000.0 4000.0 4000.0 4000.0 4000.0 4000.0 4000.0 4000.0 4000.0 4000.0 4000.0 4000.0 4000.0 4000.0 4000.0 4000.0 4000.0 4000.0 4000.0 4000.0 4000.0 4000.0 4000.0 4000.0 4000.0 4000.0 4000.0 4000.0 4000.0 4000.0 4000.0 4000.0 4000.0 4000.0 4000.0 4000.0 4000.0 4000.0 4000.0 4000.0 4000.0 4000.0 4000.0 4000.0 4000.0 4000.0 4000.0 4000.0 4000.0 4000.0 4000.0 4000.0 4000.0 4000.0 4000.0 4000.0 4000.0 4000.0 4000.0 4000.0 4000.0 4000.0 4000.0 4000.0 4000.0 4000.0 4000.0 4000.0 4000.0 4000.0 4000.0 4000.0 4000.0 4000.0 4000.0 4000.0 4000.0 4000.0 4000.0 4000.0 4000.0 4000.0 4000.0 4000.0 4000.0 4000.0 4000.0 4000.0 4000.0 4000.0 4000.0 4000.0 4000.0 4000.0 4000.0 4000.0 4000.0 4000.0 4000.0 4000.0 4000.0 4000.0 4000.0 4000.0 4000.0 4000.0 4000.0 4000.0 4000.0 4000.0 4000.0 4000.0 4000.0 4000.0 4000.0 4000.0 4000.0 4000.0 4000.0 4000.0 4000.0 4000.0 4000.0 4000.0 4000.0 4000.0 4000.0 4000.0 4000.0 4000.0 4000.0 4000.0 4000.0 4000.0 4000.0 4000.0 4000.0 4000.0 4000.0 4000.0 4000.0 4000.0 4000.0 4000.0 4000.0 4000.0 4000.0 4000.0 4000.0 4000.0 4000.0 4000.0 4000.0 4000.0 4000.0 4000.0 4000.0 4000.0 4000.0 4000.0 4000.0 4000.0 4000.0 4000.0 4000.0 4000.0 4000.0 4000.0 4000.0 4000.0 4000.0 4000.0 4000.0 4000.0 4000.0 4000.0 4000.0 4000.0 4000.0 4000.0 4000.0 4000.0 4000.0 4000.0 4000.0 4000.0 4000.0 4000.0 4000.0 4000.0 4000.0 4000.0 4000.0 4000.0 4000.0 4000.0 4000.0 4000.0 4000.0 4000.0 4000.0 4000.0 4000.0 4000.0 4000.0 4000.0 4000.0 4000.0 4000.0 4000.0 4000.0 4000.0 4000.0 4000.0 4000.0 4000.0 4000.0 4000.0 4000.0 4000.0 4000.0 4000.0 4000.0 4000.0 4000.0 4000.0 4000.0 4000.0 4000.0 4000.0 4000.0 4000.0 4000.0 4000.0 4000.0 4000.0 4000.0 4000.0 4000.0 4000.0 4000.0 4000.0 4000.0 4000.0 4000.0 4000.0 4000.0 4000.0 4000.0 4000.0 4000.0 4000.0 4000.0 4000.0 4000.0 4000.0 4000.0 4000.0 4000.0 4000.0 4000.0 4000.0 4000.0 4000.0 4000.0 4000.0 4000.0 4000.0 4000.0 4000.0 4000.0 4000.0 4000.0 4000.0 4000.0 4000.0 4000.0 4000.0 4000.0 4000.0 4000.0 4000.0 4000.0 4000.0 4000.0 4000.0 4000.0 4000.0 4000.0 4000.0 4000.0 4000.0 4000.0 4000.0 4000.0 4000.0 4000.0 4000.0 4000.0 4000.0 4000.0 4000.0 4000.0 4000.0 4000.0 4000.0 4000.0 4000.0 4000.0 4000.0 4000.0 4000.0 4000.0 4000.0 4000.0 4000.0 4000.0 4000.0 4000.0 4000.0 4000.0 4000.0 4000.0 4000.0 4000.0 4000.0 4000.0 4000.0 4000.0 4000.0 4000.0 4000.0 4000.0 4000.0 4000.0 4000.0 4000.0 4000.0 4000.0 4000.0 4000.0 4000.0 4000.0 4000.0 4000.0 4000.0 4000.0 4000.0 4000.0 4000.0 4000.0 4000.0 4000.0 4000.0 4000.0 4000.0 4000.0 4000.0 4000.0 4000.0 4000.0 4000.0 4000.0 4000.0 4000.0 4000.0 4000.0 4000.0 4000.0 4000.0 4000.0 4000.0 4000.0 4000.0 4000.0 4000.0 4000.0 4000.0 4000.0 4000.0 4000.0 4000.0 4000.0 4000.0 4000.0 4000.0 4000.0 4000.0 4000.0 4000.0 4000.0 4000.0 4000.0 4000.0 4000.0 4000.0 4000.0 4000.0 4000.0 4000.0 4000.0 4000.0 4000.0 4000.0 4000.0 4000.0 4000.0 4000.0 4000.0 4000.0 4000.0 4000.0 4000.0 4000.0 4000.0 4000.0 4000.0 4000.0 4000.0 4000.0 4000.0 4000.0 4000.0 4000.0 4000.0 4000.0 4000.0 4000.0 4000.0 4000.0 4000.0 4000.0 4000.0 4000.0 4000.0 4000.0 4000.0 4000.0 4000.0 4000.0 4000.0 4000.0 4000.0 4000.0 4000.0 4000.0 4000.0 4000.0 4000.0 4000.0 4000.0 4000.0 4000.0 4000.0 4000.0 4000.0 4000.0 4000.0 4000.0 4000.0 4000.0 4000.0 4000.0 4000.0 4000.0 4000.0 4000.0 4000.0 4000.0 4000.0 4000.0 4000.0 4000.0 4000.0 4000.0 4000.0 4000.0 4000.0 4000.0 4000.0 4000.0 4000.0 4000.0 4000.0 4000.0 4000.0 4000.0 4000.0 4000.0 4000.0 4000.0 4000.0 4000.0 4000.0 4000.0 4000.0 4000.0 4000.0 4000.0 4000.0 4000.0 4000.0 4000.0 4000.0 4000.0 4000.0 4000.0 4000.0 4000.0 4000.0 4000.0 4000.0 4000.0 4000.0 4000.0 4000.0 4000.0 4000.0 4000.0 4000.0 4000.0 4000.0 4000.0 4000.0 4000.0 4000.0 4000.0 4000.0 4000.0 4000.0 4000.0 4000.0 4000.0 4000.0 4000.0 4000.0 4000.0 4000.0 4000.0 4000.0 4000.0 4000.0 4000.0 4000.0 4000.0 4000.0 4000.0 4000.0 4000.0 4000.0 4000.0 4000.0 4000.0 4000.0 4000.0 4000.0 4000.0 4000.0 4000.0 4000.0 4000.0 4000.0 4000.0 4000.0 4000.0 4000.0 4000.0 4000.0 4000.0 4000.0 4000.0 4000.0 4000.0 4000.0 4000.0 4000.0 4000.0 4000.0 4000.0 4000.0 4000.0 4000.0 4000.0 4000.0 4000.0 4000.0 4000.0 4000.0 4000.0 4000.0 4000.0 4000.0 4000.0 4000.0 4000.0 4000.0 4000.0 4000.0 4000.0 4000.0 4000.0 4000.0 4000.0 4000.0 4000.0 4000.0 4000.0 4000.0 4000.0 4000.0 4000.0 4000.0 4000.0 4000.0 4000.0 4000.0 4000.0 4000.0 4000.0 4000.0 4000.0 4000.0 4000.0 4000.0 4000.0 4000.0 4000.0 4000.0 4000.0 4000.0 4000.0 4000.0 4000.0 4000.0 4000.0 4000.0 4000.0 4000.0 4000.0 4000.0 4000.0 4000.0 4000.0 4000.0 4000.0 4000.0 4000.0 4000.0 4000.0 4000.0 4000.0 4000.0 4000.0 4000.0 4000.0 4000.0 4000.0 4000.0 4000.0 4000.0 4000.0 4000.0 4000.0 4000.0 4000.0 4000.0 4000.0 4000.0 4000.0 4000.0 4000.0 4000.0 4000.0 4000.0 4000.0 4000.0 4000.0 4000.0 4000.0 4000.0 4000.0 4000.0 4000.0 4000.0 4000.0 4000.0 4000.0 4000.0 4000.0 4000.0 4000.0 4000.0 4000.0 4000.0 4000.0 4000.0 4000.0 4000.0 4000.0 4000.0 4000.0 4000.0 4000.0 4000.0 4000.0 4000.0 4000.0 4000.0 4000.0 4000.0 4000.0 4000.0 4000.0 4000.0 4000.0 4000.0 4000.0 4000.0 4000.0 4000.0 4000.0 4000.0 4000.0 4000.0 4000.0 4000.0 4000.0 4000.0 4000.0 4000.0 4000.0 4000.0 4000.0 4000.0 4000.0 4000.0 4000.0 4000.0 4000.0 4000.0 4000.0 4000.0 4000.0 4000.0 4000.0 4000.0 4000.0 4000.0 4000.0 4000.0 4000.0 4000.0 4000.0 4000.0 4000.0 4000.0 4000.0 4000.0 4000.0 4000.0 4000.0 4000.0 4000.0 4000.0 4000.0 4000.0 4000.0 4000.0 4000.0 4000.0 4000.0 4000.0 4000.0 4000.0 4000.0 4000.0 4000.0 4000.0 4000.0 4000.0 4000.0 4000.0 4000.0 4000.0 4000.0 4000.0 4000.0 4000.0 4000.0 4000.0 4000.0 4000.0 4000.0 4000.0 4000.0 4000.0 4000.0 4000.0 4000.0 4000.0 4000.0 4000.0 4000.0 4000.0 4000.0 4000.0 4000.0 4000.0 4000.0 4000.0 4000.0 4000.0 4000.0 4000.0 4000.0 4000.0 4000.0 4000.0 4000.0 4000.0 4000.0 4000.0 4000.0 4000.0 4000.0 4000.0 4000.0 4000.0 4000.0 4000.0 4000.0 4000.0 4000.0 4000.0 4000.0 4000.0 4000.0 4000.0 4000.0 4000.0 4000.0 4000.0 4000.0 4000.0 4000.0 4000.0 4000.0 4000.0 4000.0 4000.0 4000.0 4000.0 4000.0 4000.0 4000.0 4000.0 4000.0 4000.0 4000.0 4000.0 4000.0 4000.0 4000.0 4000.0 4000.0 4000.0 4000.0 4000.0 4000.0 4000.0 4000.0 4000.0 4000.0 4000.0 4000.0 4000.0 4000.0 4000.0 4000.0 4000.0 4000.0 4000.0 4000.0 4000.0 4000.0 4000.0 4000.0 4000.0 4000.0 4000.0 4000.0 4000.0 4000.0 4000.0 4000.0 4000.0 4000.0 4000.0 4000.0 4000.0 4000.0 4000.0 4000.0 4000.0 4000.0 4000.0 4000.0 4000.0 4000.0 4000.0 4000.0 4000.0 4000.0 4000.0 4000.0 4000.0 4000.0 4000.0 4000.0 4000.0 4000.0 4000.0 4000.0 4000.0 4000.0 4000.0 4000.0 4000.0 4000.0 4000.0 4000.0 4000.0 4000.0 4000.0 4000.0 4000.0 4000.0 4000.0 4000.0 4000.0 4000.0 4000.0 4000.0 4000.0 4000.0 4000.0 4000.0 4000.0 4000.0 4000.0 4000.0 4000.0 4000.0 4000.0 4000.0 4000.0 4000.0 4000.0 4000.0 4000.0 4000.0 4000.0 4000.0 4000.0 4000.0 4000.0 4000.0 4000.0 4000.0 4000.0 4000.0 4000.0 4000.0 4000.0 4000.0 4000.0 4000.0 4000.0 4000.0 4000.0 4000.0 4000.0 4000.0 4000.0 4000.0 4000.0 4000.0 4000.0 4000.0 4000.0 4000.0 4000.0 4000.0 4000.0 4000.0 4000.0 4000.0 4000.0 4000.0 4000.0 4000.0 4000.0 4000.0 4000.0 4000.0 4000.0 4000.0 4000.0 4000.0 4000.0 4000.0 4000.0 4000.0 4000.0 4000.0 4000.0 4000.0 4000.0 4000.0 4000.0 4000.0 4000.0 4000.0 4000.0 4000.0 4000.0 4000.0 4000.0 4000.0 4000.0 4000.0 4000.0 4000.0 4000.0 4000.0 4000.0 4000.0 4000.0 4000.0 4000.0 4000.0 4000.0 4000.0 4000.0 4000.0 4000.0 4000.0 4000.0 4000.0 4000.0 4000.0 4000.0 4000.0 4000.0 4000.0 4000.0 4000.0 4000.0 4000.0 4000.0 4000.0 4000.0 4000.0 4000.0 4000.0 4000.0 4000.0 4000.0 4000.0 4000.0 4000.0 4000.0 4000.0 4000.0 4000.0 4000.0 4000.0 4000.0 4000.0 4000.0 4000.0 4000.0 4000.0 4000.0 4000.0 4000.0 4000.0 4000.0 4000.0 4000.0 4000.0 4000.0 4000.0 4000.0 4000.0 4000.0 4000.0 4000.0 4000.0 4000.0 4000.0 4000.0 4000.0 4000.0 4000.0 4000.0 4000.0 4000.0 4000.0 4000.0 4000.0 4000.0 4000.0 4000.0 4000.0 4000.0 4000.0 4000.0 4000.0 4000.0 4000.0 4000.0 4000.0 4000.0 4000.0 4000.0 4000.0 4000.0 4000.0 4000.0 4000.0 4000.0 4000.0 4000.0 4000.0 4000.0 4000.0 4000.0 4000.0 4000.0 4000.0 4000.0 4000.0 4000.0 4000.0 4000.0 4000.0 4000.0 4000.0 4000.0 4000.0 4000.0 4000.0 4000.0 4000.0 4000.0 4000.0 4000.0 4000.0 4000.0 4000.0 4000.0 4000.0 4000.0 4000.0 4000.0 4000.0 4000.0 4000.0 4000.0 4000.0 4000.0 4000.0 4000.0 4000.0 4000.0 4000.0 4000.0 4000.0 4000.0 4000.0 4000.0 4000.0 4000.0 4000.0 4000.0 4000.0 4000.0 4000.0 4000.0 4000.0 4000.0 4000.0 4000.0 4000.0 4000.0 4000.0 4000.0 4000.0 4000.0 4000.0 4000.0 4000.0 4000.0 4000.0 4000.0 4000.0 4000.0 4000.0 4000.0 4000.0 4000.0 4000.0 4000.0 4000.0 4000.0 4000.0 4000.0 4000.0 4000.0 4000.0 4000.0 4000.0 4000.0 4000.0 4000.0 4000.0 4000.0 4000.0 4000.0 4000.0 4000.0 4000.0 4000.0 4000.0 4000.0 4000.0 4000.0 4000.0 4000.0 4000.0 4000.0 4000.0 4000.0 4000.0 4000.0 4000.0 4000.0 4000.0 4000.0 4000.0 4000.0 4000.0 4000.0 4000.0 4000.0 4000.0 4000.0 4000.0 4000.0 4000.0 4000.0 4000.0 4000.0 4000.0 4000.0 4000.0 4000.0 4000.0 4000.0 4000.0 4000.0 4000.0 4000.0 4000.0 4000.0 4000.0 4000.0 4000.0 4000.0 4000.0 4000.0 4000.0 4000.0 4000.0 4000.0 4000.0 4000.0 4000.0 4000.0 4000.0 4000.0 4000.0 4000.0 4000.0 4000.0 4000.0 4000.0 4000.0 4000.0 4000.0 4000.0 4000.0 4000.0 4000.0 4000.0 4000.0 4000.0 4000.0 4000.0 4000.0 4000.0 4000.0 4000.0 4000.0 4000.0 4000.0 4000.0 4000.0 4000.0 4000.0 4000.0 4000.0 4000.0 4000.0 4000.0 4000.0 4000.0 4000.0 4000.0 4000.0 4000.0 4000.0 4000.0 4000.0 4000.0 4000.0 4000.0 4000.0 4000.0 4000.0 4000.0 4000.0 4000.0 4000.0 4000.0 4000.0 4000.0 4000.0 4000.0 4000.0 4000.0 4000.0 4000.0 4000.0 4000.0 4000.0 4000.0 4000.0 4000.0 4000.0 4000.0 4000.0 4000.0 4000.0 4000.0 4000.0 4000.0 4000.0 4000.0 4000.0 4000.0 4000.0 4000.0 4000.0 4000.0 4000.0 4000.0 4000.0 4000.0 4000.0 4000.0 4000.0 4000.0 4000.0 4000.0 4000.0 4000.0 4000.0 4000.0 4000.0 4000.0 4000.0 4000.0 4000.0 4000.0 4000.0 4000.0 4000.0 4000.0 4000.0 4000.0 4000.0 4000.0 4000.0 4000.0 4000.0 4000.0 4000.0 4000.0 4000.0 4000.0 4000.0 4000.0 4000.0 4000.0 4000.0 4000.0 4000.0 4000.0 4000.0 4000.0 4000.0 4000.0 4000.0 4000.0 4000.0 4000.0 4000.0 4000.0 4000.0 4000.0 4000.0 4000.0 4000.0 4000.0 4000.0 4000.0 4000.0 4000.0 4000.0 4000.0 4000.0 4000.0 4000.0 4000.0 4000.0 4000.0 4000.0 4000.0 4000.0 4000.0 4000.0 4000.0 4000.0 4000.0 4000.0 4000.0 4000.0 4000.0 4000.0 4000.0 4000.0 4000.0 4000.0 4000.0 4000.0 4000.0 4000.0 4000.0 4000.0 4000.0 4000.0 4000.0 4000.0 4000.0 4000.0 4000.0 4000.0 4000.0 4000.0 4000.0 4000.0 4000.0 4000.0 4000.0 4000.0 4000.0 4000.0 4000.0 4000.0 4000.0 4000.0 4000.0 4000.0 4000.0 4000.0 4000.0 4000.0 4000.0 4000.0 4000.0 4000.0 4000.0 4000.0 4000.0 4000.0 4000.0 4000.0 4000.0 4000.0 4000.0 4000.0 4000.0 4000.0 4000.0 4000.0 4000.0 4000.0 4000.0 4000.0 4000.0 4000.0 4000.0 4000.0 4000.0 4000.0 4000.0 4000.0 4000.0 4000.0 4000.0 4000.0 4000.0 4000.0 4000.0 4000.0 4000.0 4000.0 4000.0 4000.0 4000.0 4000.0 4000.0 4000.0 4000.0 4000.0 4000.0 4000.0 4000.0 4000.0 4000.0 4000.0 4000.0 4000.0 4000.0 4000.0 4000.0 4000.0 4000.0 4000.0 4000.0 4000.0 4000.0 4000.0 4000.0 4000.0 4000.0 4000.0 4000.0 4000.0 4000.0 4000.0 4000.0 4000.0 4000.0 4000.0 4000.0 4000.0 4000.0 4000.0 4000.0 4000.0 4000.0 4000.0 4000.0 4000.0 4000.0 4000.0 4000.0 4000.0 4000.0 4000.0 4000.0 4000.0 4000.0 4000.0 4000.0 4000.0 4000.0 4000.0 4000.0 4000.0 4000.0 4000.0 4000.0 4000.0 4000.0 4000.0 4000.0 4000.0 4000.0 4000.0 4000.0 4000.0 4000.0 4000.0 4000.0 4000.0 4000.0 4000.0 4000.0 4000.0 4000.0 4000.0 4000.0 4000.0 4000.0 4000.0 4000.0 4000.0 4000.0 4000.0 4000.0 4000.0 4000.0 4000.0 4000.0 4000.0 4000.0 4000.0 4000.0 4000.0 4000.0 4000.0 4000.0 4000.0 4000.0 4000.0 4000.0 4000.0 4000.0 4000.0 4000.0 4000.0 4000.0 4000.0 4000.0 4000.0 4000.0 4000.0 4000.0 4000.0 4000.0 4000.0 4000.0 4000.0 4000.0 4000.0 4000.0 4000.0 4000.0 4000.0 4000.0 4000.0 4000.0 4000.0 4000.0 4000.0 4000.0 4000.0 4000.0 4000.0 4000.0 4000.0 4000.0 4000.0 4000.0 4000.0 4000.0 4000.0 4000.0 4000.0 4000.0 4000.0 4000.0 4000.0 4000.0 4000.0 4000.0 4000.0 4000.0 4000.0 4000.0 4000.0 4000.0 4000.0 4000.0 4000.0 4000.0 4000.0 4000.0 4000.0 4000.0 4000.0 4000.0 4000.0 4000.0 4000.0 4000.0 4000.0 4000.0 4000.0 4000.0 4000.0 4000.0 SCALARS Mass float 1
LOOKUP_TABLE default
11309700000.0 11309700000.0 11309700000.0 11309700000.0 11309700000.0 11309700000.0 11309700000.0 11309700000.0 11309700000.0 11309700000.0 11309700000.0 11309700000.0 11309700000.0 11309700000.0 11309700000.0 11309700000.0 11309700000.0 11309700000.0 11309700000.0 11309700000.0 11309700000.0 11309700000.0 11309700000.0 11309700000.0 11309700000.0 11309700000.0 11309700000.0 11309700000.0 11309700000.0 11309700000.0 11309700000.0 11309700000.0 11309700000.0 11309700000.0 11309700000.0 11309700000.0 11309700000.0 11309700000.0 11309700000.0 11309700000.0 11309700000.0 11309700000.0 11309700000.0 11309700000.0 11309700000.0 11309700000.0 11309700000.0 11309700000.0 11309700000.0 11309700000.0 11309700000.0 11309700000.0 11309700000.0 11309700000.0 11309700000.0 11309700000.0 11309700000.0 11309700000.0 11309700000.0 11309700000.0 11309700000.0 11309700000.0 11309700000.0 11309700000.0 11309700000.0 11309700000.0 11309700000.0 11309700000.0 11309700000.0 11309700000.0 11309700000.0 11309700000.0 11309700000.0 11309700000.0 11309700000.0 11309700000.0 11309700000.0 11309700000.0 11309700000.0 11309700000.0 11309700000.0 11309700000.0 11309700000.0 11309700000.0 11309700000.0 11309700000.0 11309700000.0 11309700000.0 11309700000.0 11309700000.0 11309700000.0 11309700000.0 11309700000.0 11309700000.0 11309700000.0 11309700000.0 11309700000.0 11309700000.0 11309700000.0 11309700000.0 11309700000.0 11309700000.0 11309700000.0 11309700000.0 11309700000.0 11309700000.0 11309700000.0 11309700000.0 11309700000.0 11309700000.0 11309700000.0 11309700000.0 11309700000.0 11309700000.0 11309700000.0 11309700000.0 11309700000.0 11309700000.0 11309700000.0 11309700000.0 11309700000.0 11309700000.0 11309700000.0 11309700000.0 11309700000.0 11309700000.0 11309700000.0 11309700000.0 11309700000.0 11309700000.0 11309700000.0 11309700000.0 11309700000.0 11309700000.0 11309700000.0 11309700000.0 11309700000.0 11309700000.0 11309700000.0 11309700000.0 11309700000.0 11309700000.0 11309700000.0 11309700000.0 11309700000.0 11309700000.0 11309700000.0 11309700000.0 11309700000.0 11309700000.0 11309700000.0 11309700000.0 11309700000.0 11309700000.0 11309700000.0 11309700000.0 11309700000.0 11309700000.0 11309700000.0 11309700000.0 11309700000.0 11309700000.0 11309700000.0 11309700000.0 11309700000.0 11309700000.0 11309700000.0 11309700000.0 11309700000.0 11309700000.0 11309700000.0 11309700000.0 11309700000.0 11309700000.0 11309700000.0 11309700000.0 11309700000.0 11309700000.0 11309700000.0 11309700000.0 11309700000.0 11309700000.0 11309700000.0 11309700000.0 11309700000.0 11309700000.0 11309700000.0 11309700000.0 11309700000.0 11309700000.0 11309700000.0 11309700000.0 11309700000.0 11309700000.0 11309700000.0 11309700000.0 11309700000.0 11309700000.0 11309700000.0 11309700000.0 11309700000.0 11309700000.0 11309700000.0 11309700000.0 11309700000.0 11309700000.0 11309700000.0 11309700000.0 11309700000.0 11309700000.0 11309700000.0 11309700000.0 11309700000.0 11309700000.0 11309700000.0 11309700000.0 11309700000.0 11309700000.0 11309700000.0 11309700000.0 11309700000.0 11309700000.0 11309700000.0 11309700000.0 11309700000.0 11309700000.0 11309700000.0 11309700000.0 11309700000.0 11309700000.0 11309700000.0 11309700000.0 11309700000.0 11309700000.0 11309700000.0 11309700000.0 11309700000.0 11309700000.0 11309700000.0 11309700000.0 11309700000.0 11309700000.0 11309700000.0 11309700000.0 11309700000.0 11309700000.0 11309700000.0 11309700000.0 11309700000.0 11309700000.0 11309700000.0 11309700000.0 11309700000.0 11309700000.0 11309700000.0 11309700000.0 11309700000.0 11309700000.0 11309700000.0 11309700000.0 11309700000.0 11309700000.0 11309700000.0 11309700000.0 11309700000.0 11309700000.0 11309700000.0 11309700000.0 11309700000.0 11309700000.0 11309700000.0 11309700000.0 11309700000.0 11309700000.0 11309700000.0 11309700000.0 11309700000.0 11309700000.0 11309700000.0 11309700000.0 11309700000.0 11309700000.0 11309700000.0 11309700000.0 11309700000.0 11309700000.0 11309700000.0 11309700000.0 11309700000.0 11309700000.0 11309700000.0 11309700000.0 11309700000.0 11309700000.0 11309700000.0 11309700000.0 11309700000.0 11309700000.0 11309700000.0 11309700000.0 11309700000.0 11309700000.0 11309700000.0 11309700000.0 11309700000.0 11309700000.0 11309700000.0 11309700000.0 11309700000.0 11309700000.0 11309700000.0 11309700000.0 11309700000.0 11309700000.0 11309700000.0 11309700000.0 11309700000.0 11309700000.0 11309700000.0 11309700000.0 11309700000.0 11309700000.0 11309700000.0 11309700000.0 11309700000.0 11309700000.0 11309700000.0 11309700000.0 11309700000.0 11309700000.0 11309700000.0 11309700000.0 11309700000.0 11309700000.0 11309700000.0 11309700000.0 11309700000.0 11309700000.0 11309700000.0 11309700000.0 11309700000.0 11309700000.0 11309700000.0 11309700000.0 11309700000.0 11309700000.0 11309700000.0 11309700000.0 11309700000.0 11309700000.0 11309700000.0 11309700000.0 11309700000.0 11309700000.0 11309700000.0 11309700000.0 11309700000.0 11309700000.0 11309700000.0 11309700000.0 11309700000.0 11309700000.0 11309700000.0 11309700000.0 11309700000.0 11309700000.0 11309700000.0 11309700000.0 11309700000.0 11309700000.0 11309700000.0 11309700000.0 11309700000.0 11309700000.0 11309700000.0 11309700000.0 11309700000.0 11309700000.0 11309700000.0 11309700000.0 11309700000.0 11309700000.0 11309700000.0 11309700000.0 11309700000.0 11309700000.0 11309700000.0 11309700000.0 11309700000.0 11309700000.0 11309700000.0 11309700000.0 11309700000.0 11309700000.0 11309700000.0 11309700000.0 11309700000.0 11309700000.0 11309700000.0 11309700000.0 11309700000.0 11309700000.0 11309700000.0 11309700000.0 11309700000.0 11309700000.0 11309700000.0 11309700000.0 11309700000.0 11309700000.0 11309700000.0 11309700000.0 11309700000.0 11309700000.0 11309700000.0 11309700000.0 11309700000.0 11309700000.0 11309700000.0 11309700000.0 11309700000.0 11309700000.0 11309700000.0 11309700000.0 11309700000.0 11309700000.0 11309700000.0 11309700000.0 11309700000.0 11309700000.0 11309700000.0 11309700000.0 11309700000.0 11309700000.0 11309700000.0 11309700000.0 11309700000.0 11309700000.0 11309700000.0 11309700000.0 11309700000.0 11309700000.0 11309700000.0 11309700000.0 11309700000.0 11309700000.0 11309700000.0 11309700000.0 11309700000.0 11309700000.0 11309700000.0 11309700000.0 11309700000.0 11309700000.0 11309700000.0 11309700000.0 11309700000.0 11309700000.0 11309700000.0 11309700000.0 11309700000.0 11309700000.0 11309700000.0 11309700000.0 11309700000.0 11309700000.0 11309700000.0 11309700000.0 11309700000.0 11309700000.0 11309700000.0 11309700000.0 11309700000.0 11309700000.0 11309700000.0 11309700000.0 11309700000.0 11309700000.0 11309700000.0 11309700000.0 11309700000.0 11309700000.0 11309700000.0 11309700000.0 11309700000.0 11309700000.0 11309700000.0 11309700000.0 11309700000.0 11309700000.0 11309700000.0 11309700000.0 11309700000.0 11309700000.0 11309700000.0 11309700000.0 11309700000.0 11309700000.0 11309700000.0 11309700000.0 11309700000.0 11309700000.0 11309700000.0 11309700000.0 11309700000.0 11309700000.0 11309700000.0 11309700000.0 11309700000.0 11309700000.0 11309700000.0 11309700000.0 11309700000.0 11309700000.0 11309700000.0 11309700000.0 11309700000.0 11309700000.0 11309700000.0 11309700000.0 11309700000.0 11309700000.0 11309700000.0 11309700000.0 11309700000.0 11309700000.0 11309700000.0 11309700000.0 11309700000.0 11309700000.0 11309700000.0 11309700000.0 11309700000.0 11309700000.0 11309700000.0 11309700000.0 11309700000.0 11309700000.0 11309700000.0 11309700000.0 11309700000.0 11309700000.0 11309700000.0 11309700000.0 11309700000.0 11309700000.0 11309700000.0 11309700000.0 11309700000.0 11309700000.0 11309700000.0 11309700000.0 11309700000.0 11309700000.0 11309700000.0 11309700000.0 11309700000.0 11309700000.0 11309700000.0 11309700000.0 11309700000.0 11309700000.0 11309700000.0 11309700000.0 11309700000.0 11309700000.0 11309700000.0 11309700000.0 11309700000.0 11309700000.0 11309700000.0 11309700000.0 11309700000.0 11309700000.0 11309700000.0 11309700000.0 11309700000.0 11309700000.0 11309700000.0 11309700000.0 11309700000.0 11309700000.0 11309700000.0 11309700000.0 11309700000.0 11309700000.0 11309700000.0 11309700000.0 11309700000.0 11309700000.0 11309700000.0 11309700000.0 11309700000.0 11309700000.0 11309700000.0 11309700000.0 11309700000.0 11309700000.0 11309700000.0 11309700000.0 11309700000.0 11309700000.0 11309700000.0 11309700000.0 11309700000.0 11309700000.0 11309700000.0 11309700000.0 11309700000.0 11309700000.0 11309700000.0 11309700000.0 11309700000.0 11309700000.0 11309700000.0 11309700000.0 11309700000.0 11309700000.0 11309700000.0 11309700000.0 11309700000.0 11309700000.0 11309700000.0 11309700000.0 11309700000.0 11309700000.0 11309700000.0 11309700000.0 11309700000.0 11309700000.0 11309700000.0 11309700000.0 11309700000.0 11309700000.0 11309700000.0 11309700000.0 11309700000.0 11309700000.0 11309700000.0 11309700000.0 11309700000.0 11309700000.0 11309700000.0 11309700000.0 11309700000.0 11309700000.0 11309700000.0 11309700000.0 11309700000.0 11309700000.0 11309700000.0 11309700000.0 11309700000.0 11309700000.0 11309700000.0 11309700000.0 11309700000.0 11309700000.0 11309700000.0 11309700000.0 11309700000.0 11309700000.0 11309700000.0 11309700000.0 11309700000.0 11309700000.0 11309700000.0 11309700000.0 11309700000.0 11309700000.0 11309700000.0 11309700000.0 11309700000.0 11309700000.0 11309700000.0 11309700000.0 11309700000.0 11309700000.0 11309700000.0 11309700000.0 11309700000.0 11309700000.0 11309700000.0 11309700000.0 11309700000.0 11309700000.0 11309700000.0 11309700000.0 11309700000.0 11309700000.0 11309700000.0 11309700000.0 11309700000.0 11309700000.0 11309700000.0 11309700000.0 11309700000.0 11309700000.0 11309700000.0 11309700000.0 11309700000.0 11309700000.0 11309700000.0 11309700000.0 11309700000.0 11309700000.0 11309700000.0 11309700000.0 11309700000.0 11309700000.0 11309700000.0 11309700000.0 11309700000.0 11309700000.0 11309700000.0 11309700000.0 11309700000.0 11309700000.0 11309700000.0 11309700000.0 11309700000.0 11309700000.0 11309700000.0 11309700000.0 11309700000.0 11309700000.0 11309700000.0 11309700000.0 11309700000.0 11309700000.0 11309700000.0 11309700000.0 11309700000.0 11309700000.0 11309700000.0 11309700000.0 11309700000.0 11309700000.0 11309700000.0 11309700000.0 11309700000.0 11309700000.0 11309700000.0 11309700000.0 11309700000.0 11309700000.0 11309700000.0 11309700000.0 11309700000.0 11309700000.0 11309700000.0 11309700000.0 11309700000.0 11309700000.0 11309700000.0 11309700000.0 11309700000.0 11309700000.0 11309700000.0 11309700000.0 11309700000.0 11309700000.0 11309700000.0 11309700000.0 11309700000.0 11309700000.0 11309700000.0 11309700000.0 11309700000.0 11309700000.0 11309700000.0 11309700000.0 11309700000.0 11309700000.0 11309700000.0 11309700000.0 11309700000.0 11309700000.0 11309700000.0 11309700000.0 11309700000.0 11309700000.0 11309700000.0 11309700000.0 11309700000.0 11309700000.0 11309700000.0 11309700000.0 11309700000.0 11309700000.0 11309700000.0 11309700000.0 11309700000.0 11309700000.0 11309700000.0 11309700000.0 11309700000.0 11309700000.0 11309700000.0 11309700000.0 11309700000.0 11309700000.0 11309700000.0 11309700000.0 11309700000.0 11309700000.0 11309700000.0 11309700000.0 11309700000.0 11309700000.0 11309700000.0 11309700000.0 11309700000.0 11309700000.0 11309700000.0 11309700000.0 11309700000.0 11309700000.0 11309700000.0 11309700000.0 11309700000.0 11309700000.0 11309700000.0 11309700000.0 11309700000.0 11309700000.0 11309700000.0 11309700000.0 11309700000.0 11309700000.0 11309700000.0 11309700000.0 11309700000.0 11309700000.0 11309700000.0 11309700000.0 11309700000.0 11309700000.0 11309700000.0 11309700000.0 11309700000.0 11309700000.0 11309700000.0 11309700000.0 11309700000.0 11309700000.0 11309700000.0 11309700000.0 11309700000.0 11309700000.0 11309700000.0 11309700000.0 11309700000.0 11309700000.0 11309700000.0 11309700000.0 11309700000.0 11309700000.0 11309700000.0 11309700000.0 11309700000.0 11309700000.0 11309700000.0 11309700000.0 11309700000.0 11309700000.0 11309700000.0 11309700000.0 11309700000.0 11309700000.0 11309700000.0 11309700000.0 11309700000.0 11309700000.0 11309700000.0 11309700000.0 11309700000.0 11309700000.0 11309700000.0 11309700000.0 11309700000.0 11309700000.0 11309700000.0 11309700000.0 11309700000.0 11309700000.0 11309700000.0 11309700000.0 11309700000.0 11309700000.0 11309700000.0 11309700000.0 11309700000.0 11309700000.0 11309700000.0 11309700000.0 11309700000.0 11309700000.0 11309700000.0 11309700000.0 11309700000.0 11309700000.0 11309700000.0 11309700000.0 11309700000.0 11309700000.0 11309700000.0 11309700000.0 11309700000.0 11309700000.0 11309700000.0 11309700000.0 11309700000.0 11309700000.0 11309700000.0 11309700000.0 11309700000.0 11309700000.0 11309700000.0 11309700000.0 11309700000.0 11309700000.0 11309700000.0 11309700000.0 11309700000.0 11309700000.0 11309700000.0 11309700000.0 11309700000.0 11309700000.0 11309700000.0 11309700000.0 11309700000.0 11309700000.0 11309700000.0 11309700000.0 11309700000.0 11309700000.0 11309700000.0 11309700000.0 11309700000.0 11309700000.0 11309700000.0 11309700000.0 11309700000.0 11309700000.0 11309700000.0 11309700000.0 11309700000.0 11309700000.0 11309700000.0 11309700000.0 11309700000.0 11309700000.0 11309700000.0 11309700000.0 11309700000.0 11309700000.0 11309700000.0 11309700000.0 11309700000.0 11309700000.0 11309700000.0 11309700000.0 11309700000.0 11309700000.0 11309700000.0 11309700000.0 11309700000.0 11309700000.0 11309700000.0 11309700000.0 11309700000.0 11309700000.0 11309700000.0 11309700000.0 11309700000.0 11309700000.0 11309700000.0 11309700000.0 11309700000.0 11309700000.0 11309700000.0 11309700000.0 11309700000.0 11309700000.0 11309700000.0 11309700000.0 11309700000.0 11309700000.0 11309700000.0 11309700000.0 11309700000.0 11309700000.0 11309700000.0 11309700000.0 11309700000.0 11309700000.0 11309700000.0 11309700000.0 11309700000.0 11309700000.0 11309700000.0 11309700000.0 11309700000.0 11309700000.0 11309700000.0 11309700000.0 11309700000.0 11309700000.0 11309700000.0 11309700000.0 11309700000.0 11309700000.0 11309700000.0 11309700000.0 11309700000.0 11309700000.0 11309700000.0 11309700000.0 11309700000.0 11309700000.0 11309700000.0 11309700000.0 11309700000.0 11309700000.0 11309700000.0 11309700000.0 11309700000.0 11309700000.0 11309700000.0 11309700000.0 11309700000.0 11309700000.0 11309700000.0 11309700000.0 11309700000.0 11309700000.0 11309700000.0 11309700000.0 11309700000.0 11309700000.0 11309700000.0 11309700000.0 11309700000.0 11309700000.0 11309700000.0 11309700000.0 11309700000.0 11309700000.0 11309700000.0 11309700000.0 11309700000.0 11309700000.0 11309700000.0 11309700000.0 11309700000.0 11309700000.0 11309700000.0 11309700000.0 11309700000.0 11309700000.0 11309700000.0 11309700000.0 11309700000.0 11309700000.0 11309700000.0 11309700000.0 11309700000.0 11309700000.0 11309700000.0 11309700000.0 11309700000.0 11309700000.0 11309700000.0 11309700000.0 11309700000.0 11309700000.0 11309700000.0 11309700000.0 11309700000.0 11309700000.0 11309700000.0 11309700000.0 11309700000.0 11309700000.0 11309700000.0 11309700000.0 11309700000.0 11309700000.0 11309700000.0 11309700000.0 11309700000.0 11309700000.0 11309700000.0 11309700000.0 11309700000.0 11309700000.0 11309700000.0 11309700000.0 11309700000.0 11309700000.0 11309700000.0 11309700000.0 11309700000.0 11309700000.0 11309700000.0 11309700000.0 11309700000.0 11309700000.0 11309700000.0 11309700000.0 11309700000.0 11309700000.0 11309700000.0 11309700000.0 11309700000.0 11309700000.0 11309700000.0 11309700000.0 11309700000.0 11309700000.0 11309700000.0 11309700000.0 11309700000.0 11309700000.0 11309700000.0 11309700000.0 11309700000.0 11309700000.0 11309700000.0 11309700000.0 11309700000.0 11309700000.0 11309700000.0 11309700000.0 11309700000.0 11309700000.0 11309700000.0 11309700000.0 11309700000.0 11309700000.0 11309700000.0 11309700000.0 11309700000.0 11309700000.0 11309700000.0 11309700000.0 11309700000.0 11309700000.0 11309700000.0 11309700000.0 11309700000.0 11309700000.0 11309700000.0 11309700000.0 11309700000.0 11309700000.0 11309700000.0 11309700000.0 11309700000.0 11309700000.0 11309700000.0 11309700000.0 11309700000.0 11309700000.0 11309700000.0 11309700000.0 11309700000.0 11309700000.0 11309700000.0 11309700000.0 11309700000.0 11309700000.0 11309700000.0 11309700000.0 11309700000.0 11309700000.0 11309700000.0 11309700000.0 11309700000.0 11309700000.0 11309700000.0 11309700000.0 11309700000.0 11309700000.0 11309700000.0 11309700000.0 11309700000.0 11309700000.0 11309700000.0 11309700000.0 11309700000.0 11309700000.0 11309700000.0 11309700000.0 11309700000.0 11309700000.0 11309700000.0 11309700000.0 11309700000.0 11309700000.0 11309700000.0 11309700000.0 11309700000.0 11309700000.0 11309700000.0 11309700000.0 11309700000.0 11309700000.0 11309700000.0 11309700000.0 11309700000.0 11309700000.0 11309700000.0 11309700000.0 11309700000.0 11309700000.0 11309700000.0 11309700000.0 11309700000.0 11309700000.0 11309700000.0 11309700000.0 11309700000.0 11309700000.0 11309700000.0 11309700000.0 11309700000.0 11309700000.0 11309700000.0 11309700000.0 11309700000.0 11309700000.0 11309700000.0 11309700000.0 11309700000.0 11309700000.0 11309700000.0 11309700000.0 11309700000.0 11309700000.0 11309700000.0 11309700000.0 11309700000.0 11309700000.0 11309700000.0 11309700000.0 11309700000.0 11309700000.0 11309700000.0 11309700000.0 11309700000.0 11309700000.0 11309700000.0 11309700000.0 11309700000.0 11309700000.0 11309700000.0 11309700000.0 11309700000.0 11309700000.0 11309700000.0 11309700000.0 11309700000.0 11309700000.0 11309700000.0 11309700000.0 11309700000.0 11309700000.0 11309700000.0 11309700000.0 11309700000.0 11309700000.0 11309700000.0 11309700000.0 11309700000.0 11309700000.0 11309700000.0 11309700000.0 11309700000.0 11309700000.0 11309700000.0 11309700000.0 11309700000.0 11309700000.0 11309700000.0 11309700000.0 11309700000.0 11309700000.0 11309700000.0 11309700000.0 11309700000.0 11309700000.0 11309700000.0 11309700000.0 11309700000.0 11309700000.0 11309700000.0 11309700000.0 11309700000.0 11309700000.0 11309700000.0 11309700000.0 11309700000.0 11309700000.0 11309700000.0 11309700000.0 11309700000.0 11309700000.0 11309700000.0 11309700000.0 11309700000.0 11309700000.0 11309700000.0 11309700000.0 11309700000.0 11309700000.0 11309700000.0 11309700000.0 11309700000.0 11309700000.0 11309700000.0 11309700000.0 11309700000.0 11309700000.0 11309700000.0 11309700000.0 11309700000.0 11309700000.0 11309700000.0 11309700000.0 11309700000.0 11309700000.0 11309700000.0 11309700000.0 11309700000.0 11309700000.0 11309700000.0 11309700000.0 11309700000.0 11309700000.0 11309700000.0 11309700000.0 11309700000.0 11309700000.0 11309700000.0 11309700000.0 11309700000.0 11309700000.0 11309700000.0 11309700000.0 11309700000.0 11309700000.0 11309700000.0 11309700000.0 11309700000.0 11309700000.0 11309700000.0 11309700000.0 11309700000.0 11309700000.0 11309700000.0 11309700000.0 11309700000.0 11309700000.0 11309700000.0 11309700000.0 11309700000.0 11309700000.0 11309700000.0 11309700000.0 11309700000.0 11309700000.0 11309700000.0 11309700000.0 11309700000.0 11309700000.0 11309700000.0 11309700000.0 11309700000.0 11309700000.0 11309700000.0 11309700000.0 11309700000.0 11309700000.0 11309700000.0 11309700000.0 11309700000.0 11309700000.0 11309700000.0 11309700000.0 11309700000.0 11309700000.0 11309700000.0 11309700000.0 11309700000.0 11309700000.0 11309700000.0 11309700000.0 11309700000.0 11309700000.0 11309700000.0 11309700000.0 11309700000.0 11309700000.0 11309700000.0 11309700000.0 11309700000.0 11309700000.0 11309700000.0 11309700000.0 11309700000.0 11309700000.0 11309700000.0 11309700000.0 11309700000.0 11309700000.0 11309700000.0 11309700000.0 11309700000.0 11309700000.0 11309700000.0 11309700000.0 11309700000.0 11309700000.0 11309700000.0 11309700000.0 11309700000.0 11309700000.0 11309700000.0 11309700000.0 11309700000.0 11309700000.0 11309700000.0 11309700000.0 11309700000.0 11309700000.0 11309700000.0 11309700000.0 11309700000.0 11309700000.0 11309700000.0 11309700000.0 11309700000.0 11309700000.0 11309700000.0 11309700000.0 11309700000.0 11309700000.0 11309700000.0 11309700000.0 11309700000.0 11309700000.0 11309700000.0 11309700000.0 11309700000.0 11309700000.0 11309700000.0 11309700000.0 11309700000.0 11309700000.0 11309700000.0 11309700000.0 11309700000.0 11309700000.0 11309700000.0 11309700000.0 11309700000.0 11309700000.0 11309700000.0 11309700000.0 11309700000.0 11309700000.0 11309700000.0 11309700000.0 11309700000.0 11309700000.0 11309700000.0 11309700000.0 11309700000.0 11309700000.0 11309700000.0 11309700000.0 11309700000.0 11309700000.0 11309700000.0 11309700000.0 11309700000.0 11309700000.0 11309700000.0 11309700000.0 11309700000.0 11309700000.0 11309700000.0 11309700000.0 11309700000.0 11309700000.0 11309700000.0 11309700000.0 11309700000.0 11309700000.0 11309700000.0 11309700000.0 11309700000.0 11309700000.0 11309700000.0 11309700000.0 11309700000.0 11309700000.0 11309700000.0 11309700000.0 11309700000.0 11309700000.0 11309700000.0 11309700000.0 11309700000.0 11309700000.0 11309700000.0 11309700000.0 11309700000.0 11309700000.0 11309700000.0 11309700000.0 11309700000.0 11309700000.0 11309700000.0 11309700000.0 11309700000.0 11309700000.0 11309700000.0 11309700000.0 11309700000.0 11309700000.0 11309700000.0 11309700000.0 11309700000.0 11309700000.0 11309700000.0 11309700000.0 11309700000.0 11309700000.0 11309700000.0 11309700000.0 11309700000.0 11309700000.0 11309700000.0 11309700000.0 11309700000.0 11309700000.0 11309700000.0 11309700000.0 11309700000.0 11309700000.0 11309700000.0 11309700000.0 11309700000.0 11309700000.0 11309700000.0 11309700000.0 11309700000.0 11309700000.0 11309700000.0 11309700000.0 11309700000.0 11309700000.0 11309700000.0 11309700000.0 11309700000.0 11309700000.0 11309700000.0 11309700000.0 11309700000.0 11309700000.0 11309700000.0 11309700000.0 11309700000.0 11309700000.0 11309700000.0 11309700000.0 11309700000.0 11309700000.0 11309700000.0 11309700000.0 11309700000.0 11309700000.0 11309700000.0 11309700000.0 11309700000.0 11309700000.0 11309700000.0 11309700000.0 11309700000.0 11309700000.0 11309700000.0 11309700000.0 11309700000.0 11309700000.0 11309700000.0 11309700000.0 11309700000.0 11309700000.0 11309700000.0 11309700000.0 11309700000.0 11309700000.0 11309700000.0 11309700000.0 11309700000.0 11309700000.0 11309700000.0 11309700000.0 11309700000.0 11309700000.0 11309700000.0 11309700000.0 11309700000.0 11309700000.0 11309700000.0 11309700000.0 11309700000.0 11309700000.0 11309700000.0 11309700000.0 11309700000.0 11309700000.0 11309700000.0 11309700000.0 11309700000.0 11309700000.0 11309700000.0 11309700000.0 11309700000.0 11309700000.0 11309700000.0 11309700000.0 11309700000.0 11309700000.0 11309700000.0 11309700000.0 11309700000.0 11309700000.0 11309700000.0 11309700000.0 11309700000.0 11309700000.0 11309700000.0 11309700000.0 11309700000.0 11309700000.0 11309700000.0 11309700000.0 11309700000.0 11309700000.0 11309700000.0 11309700000.0 11309700000.0 11309700000.0 11309700000.0 11309700000.0 11309700000.0 11309700000.0 11309700000.0 11309700000.0 11309700000.0 11309700000.0 11309700000.0 11309700000.0 11309700000.0 11309700000.0 11309700000.0 11309700000.0 11309700000.0 11309700000.0 11309700000.0 11309700000.0 11309700000.0 11309700000.0 11309700000.0 11309700000.0 11309700000.0 11309700000.0 11309700000.0 11309700000.0 11309700000.0 11309700000.0 11309700000.0 11309700000.0 11309700000.0 11309700000.0 11309700000.0 11309700000.0 11309700000.0 11309700000.0 11309700000.0 11309700000.0 11309700000.0 11309700000.0 11309700000.0 11309700000.0 11309700000.0 11309700000.0 11309700000.0 11309700000.0 11309700000.0 11309700000.0 11309700000.0 11309700000.0 11309700000.0 11309700000.0 11309700000.0 11309700000.0 11309700000.0 11309700000.0 11309700000.0 11309700000.0 11309700000.0 11309700000.0 11309700000.0 11309700000.0 11309700000.0 11309700000.0 11309700000.0 11309700000.0 11309700000.0 11309700000.0 11309700000.0 11309700000.0 11309700000.0 11309700000.0 11309700000.0 11309700000.0 11309700000.0 11309700000.0 11309700000.0 11309700000.0 11309700000.0 11309700000.0 11309700000.0 11309700000.0 11309700000.0 11309700000.0 11309700000.0 11309700000.0 11309700000.0 11309700000.0 11309700000.0 11309700000.0 11309700000.0 11309700000.0 11309700000.0 11309700000.0 11309700000.0 11309700000.0 11309700000.0 11309700000.0 11309700000.0 11309700000.0 11309700000.0 11309700000.0 11309700000.0 11309700000.0 11309700000.0 11309700000.0 11309700000.0 11309700000.0 11309700000.0 11309700000.0 11309700000.0 11309700000.0 11309700000.0 11309700000.0 11309700000.0 11309700000.0 11309700000.0 11309700000.0 11309700000.0 11309700000.0 11309700000.0 11309700000.0 11309700000.0 11309700000.0 11309700000.0 11309700000.0 11309700000.0 11309700000.0 11309700000.0 11309700000.0 11309700000.0 11309700000.0 11309700000.0 11309700000.0 11309700000.0 11309700000.0 11309700000.0 11309700000.0 11309700000.0 11309700000.0 11309700000.0 11309700000.0 11309700000.0 11309700000.0 11309700000.0 11309700000.0 11309700000.0 11309700000.0 11309700000.0 11309700000.0 11309700000.0 11309700000.0 11309700000.0 11309700000.0 11309700000.0 11309700000.0 11309700000.0 11309700000.0 11309700000.0 11309700000.0 11309700000.0 11309700000.0 11309700000.0 11309700000.0 11309700000.0 11309700000.0 11309700000.0 11309700000.0 11309700000.0 11309700000.0 11309700000.0 11309700000.0 11309700000.0 11309700000.0 11309700000.0 11309700000.0 11309700000.0 11309700000.0 11309700000.0 11309700000.0 11309700000.0 11309700000.0 11309700000.0 11309700000.0 11309700000.0 11309700000.0 11309700000.0 11309700000.0 11309700000.0 11309700000.0 11309700000.0 11309700000.0 11309700000.0 11309700000.0 11309700000.0 11309700000.0 11309700000.0 11309700000.0 11309700000.0 11309700000.0 11309700000.0 11309700000.0 11309700000.0 11309700000.0 11309700000.0 11309700000.0 11309700000.0 11309700000.0 11309700000.0 11309700000.0 11309700000.0 11309700000.0 11309700000.0 11309700000.0 11309700000.0 11309700000.0 11309700000.0 11309700000.0 11309700000.0 11309700000.0 11309700000.0 11309700000.0 11309700000.0 11309700000.0 11309700000.0 11309700000.0 11309700000.0 11309700000.0 11309700000.0 11309700000.0 11309700000.0 11309700000.0 11309700000.0 11309700000.0 11309700000.0 11309700000.0 11309700000.0 11309700000.0 11309700000.0 11309700000.0 11309700000.0 11309700000.0 11309700000.0 11309700000.0 11309700000.0 11309700000.0 11309700000.0 11309700000.0 11309700000.0 11309700000.0 11309700000.0 11309700000.0 11309700000.0 11309700000.0 11309700000.0 11309700000.0 11309700000.0 11309700000.0 11309700000.0 11309700000.0 11309700000.0 11309700000.0 11309700000.0 11309700000.0 11309700000.0 11309700000.0 11309700000.0 11309700000.0 11309700000.0 11309700000.0 11309700000.0 11309700000.0 11309700000.0 11309700000.0 11309700000.0 11309700000.0 11309700000.0 11309700000.0 11309700000.0 11309700000.0 11309700000.0 11309700000.0 11309700000.0 11309700000.0 11309700000.0 11309700000.0 11309700000.0 11309700000.0 11309700000.0 11309700000.0 11309700000.0 11309700000.0 11309700000.0 11309700000.0 11309700000.0 11309700000.0 11309700000.0 11309700000.0 11309700000.0 11309700000.0 11309700000.0 11309700000.0 11309700000.0 11309700000.0 11309700000.0 11309700000.0 11309700000.0 11309700000.0 11309700000.0 11309700000.0 11309700000.0 11309700000.0 11309700000.0 11309700000.0 11309700000.0 11309700000.0 11309700000.0 11309700000.0 11309700000.0 11309700000.0 11309700000.0 11309700000.0 11309700000.0 11309700000.0 11309700000.0 11309700000.0 11309700000.0 11309700000.0 11309700000.0 11309700000.0 11309700000.0 11309700000.0 11309700000.0 11309700000.0 11309700000.0 11309700000.0 11309700000.0 11309700000.0 11309700000.0 11309700000.0 11309700000.0 11309700000.0 11309700000.0 11309700000.0 11309700000.0 11309700000.0 11309700000.0 11309700000.0 11309700000.0 11309700000.0 11309700000.0 11309700000.0 11309700000.0 11309700000.0 11309700000.0 11309700000.0 11309700000.0 11309700000.0 11309700000.0 11309700000.0 11309700000.0 11309700000.0 11309700000.0 11309700000.0 11309700000.0 11309700000.0 11309700000.0 11309700000.0 11309700000.0 11309700000.0 11309700000.0 11309700000.0 11309700000.0 11309700000.0 11309700000.0 11309700000.0 11309700000.0 11309700000.0 11309700000.0 11309700000.0 11309700000.0 11309700000.0 11309700000.0 11309700000.0 11309700000.0 11309700000.0 11309700000.0 11309700000.0 11309700000.0 11309700000.0 11309700000.0 11309700000.0 11309700000.0 11309700000.0 11309700000.0 11309700000.0 11309700000.0 11309700000.0 11309700000.0 11309700000.0 11309700000.0 11309700000.0 11309700000.0 11309700000.0 11309700000.0 11309700000.0 11309700000.0 11309700000.0 11309700000.0 11309700000.0 11309700000.0 11309700000.0 11309700000.0 11309700000.0 11309700000.0 11309700000.0 11309700000.0 11309700000.0 11309700000.0 11309700000.0 11309700000.0 11309700000.0 11309700000.0 11309700000.0 11309700000.0 11309700000.0 11309700000.0 11309700000.0 11309700000.0 11309700000.0 11309700000.0 11309700000.0 11309700000.0 11309700000.0 11309700000.0 11309700000.0 11309700000.0 11309700000.0 11309700000.0 11309700000.0 11309700000.0 11309700000.0 11309700000.0 11309700000.0 11309700000.0 11309700000.0 11309700000.0 11309700000.0 11309700000.0 11309700000.0 11309700000.0 11309700000.0 11309700000.0 11309700000.0 11309700000.0 11309700000.0 11309700000.0 11309700000.0 11309700000.0 11309700000.0 11309700000.0 11309700000.0 11309700000.0 11309700000.0 11309700000.0 11309700000.0 11309700000.0 11309700000.0 11309700000.0 11309700000.0 11309700000.0 11309700000.0 11309700000.0 11309700000.0 11309700000.0 11309700000.0 11309700000.0 11309700000.0 11309700000.0 11309700000.0 11309700000.0 11309700000.0 11309700000.0 11309700000.0 11309700000.0 11309700000.0 11309700000.0 11309700000.0 11309700000.0 11309700000.0 11309700000.0 11309700000.0 11309700000.0 11309700000.0 11309700000.0 11309700000.0 11309700000.0 11309700000.0 11309700000.0 11309700000.0 11309700000.0 11309700000.0 11309700000.0 11309700000.0 11309700000.0 11309700000.0 11309700000.0 11309700000.0 11309700000.0 11309700000.0 11309700000.0 11309700000.0 11309700000.0 11309700000.0 11309700000.0 11309700000.0 11309700000.0 11309700000.0 11309700000.0 11309700000.0 11309700000.0 11309700000.0 11309700000.0 11309700000.0 11309700000.0 11309700000.0 11309700000.0 11309700000.0 11309700000.0 11309700000.0 11309700000.0 11309700000.0 11309700000.0 11309700000.0 11309700000.0 11309700000.0 11309700000.0 11309700000.0 11309700000.0 11309700000.0 11309700000.0 11309700000.0 11309700000.0 11309700000.0 11309700000.0 11309700000.0 11309700000.0 11309700000.0 11309700000.0 11309700000.0 11309700000.0 11309700000.0 11309700000.0 11309700000.0 11309700000.0 11309700000.0 11309700000.0 11309700000.0 11309700000.0 11309700000.0 11309700000.0 11309700000.0 11309700000.0 11309700000.0 11309700000.0 11309700000.0 11309700000.0 11309700000.0 11309700000.0 11309700000.0 11309700000.0 11309700000.0 11309700000.0 11309700000.0 11309700000.0 11309700000.0 11309700000.0 11309700000.0 11309700000.0 11309700000.0 11309700000.0 11309700000.0 11309700000.0 11309700000.0 11309700000.0 11309700000.0 11309700000.0 11309700000.0 11309700000.0 11309700000.0 11309700000.0 11309700000.0 11309700000.0 11309700000.0 11309700000.0 11309700000.0 11309700000.0 11309700000.0 11309700000.0 11309700000.0 11309700000.0 11309700000.0 11309700000.0 11309700000.0 11309700000.0 11309700000.0 11309700000.0 11309700000.0 11309700000.0 11309700000.0 11309700000.0 11309700000.0 11309700000.0 11309700000.0 11309700000.0 11309700000.0 11309700000.0 11309700000.0 11309700000.0 11309700000.0 11309700000.0 11309700000.0 11309700000.0 11309700000.0 11309700000.0 11309700000.0 11309700000.0 11309700000.0 11309700000.0 11309700000.0 11309700000.0 11309700000.0 11309700000.0 11309700000.0 11309700000.0 11309700000.0 11309700000.0 11309700000.0 11309700000.0 11309700000.0 11309700000.0 11309700000.0 11309700000.0 11309700000.0 11309700000.0 11309700000.0 11309700000.0 11309700000.0 11309700000.0 11309700000.0 11309700000.0 11309700000.0 11309700000.0 11309700000.0 11309700000.0 11309700000.0 11309700000.0 11309700000.0 11309700000.0 11309700000.0 11309700000.0 11309700000.0 11309700000.0 11309700000.0 11309700000.0 11309700000.0 11309700000.0 11309700000.0 11309700000.0 11309700000.0 11309700000.0 11309700000.0 11309700000.0 11309700000.0 11309700000.0 11309700000.0 11309700000.0 11309700000.0 11309700000.0 11309700000.0 11309700000.0 11309700000.0 11309700000.0 11309700000.0 11309700000.0 11309700000.0 11309700000.0 11309700000.0 11309700000.0 11309700000.0 11309700000.0 11309700000.0 11309700000.0 11309700000.0 11309700000.0 11309700000.0 11309700000.0 11309700000.0 11309700000.0 11309700000.0 11309700000.0 11309700000.0 11309700000.0 11309700000.0 11309700000.0 11309700000.0 11309700000.0 11309700000.0 11309700000.0 11309700000.0 11309700000.0 11309700000.0 11309700000.0 11309700000.0 11309700000.0 11309700000.0 11309700000.0 11309700000.0 11309700000.0 11309700000.0 11309700000.0 11309700000.0 11309700000.0 11309700000.0 11309700000.0 11309700000.0 11309700000.0 11309700000.0 11309700000.0 11309700000.0 11309700000.0 11309700000.0 11309700000.0 11309700000.0 11309700000.0 11309700000.0 11309700000.0 11309700000.0 11309700000.0 11309700000.0 11309700000.0 11309700000.0 11309700000.0 11309700000.0 11309700000.0 11309700000.0 11309700000.0 11309700000.0 11309700000.0 11309700000.0 11309700000.0 11309700000.0 11309700000.0 11309700000.0 11309700000.0 11309700000.0 11309700000.0 11309700000.0 11309700000.0 11309700000.0 11309700000.0 11309700000.0 11309700000.0 11309700000.0 11309700000.0 11309700000.0 11309700000.0 11309700000.0 11309700000.0 11309700000.0 11309700000.0 11309700000.0 11309700000.0 11309700000.0 11309700000.0 11309700000.0 11309700000.0 11309700000.0 11309700000.0 11309700000.0 11309700000.0 11309700000.0 11309700000.0 11309700000.0 11309700000.0 11309700000.0 11309700000.0 11309700000.0 11309700000.0 11309700000.0 11309700000.0 11309700000.0 11309700000.0 11309700000.0 11309700000.0 11309700000.0 11309700000.0 11309700000.0 11309700000.0 11309700000.0 11309700000.0 11309700000.0 11309700000.0 11309700000.0 11309700000.0 11309700000.0 11309700000.0 11309700000.0 11309700000.0 11309700000.0 11309700000.0 11309700000.0 11309700000.0 11309700000.0 11309700000.0 11309700000.0 11309700000.0 11309700000.0 11309700000.0 11309700000.0 11309700000.0 11309700000.0 11309700000.0 11309700000.0 11309700000.0 11309700000.0 11309700000.0 11309700000.0 11309700000.0 11309700000.0 11309700000.0 11309700000.0 11309700000.0 11309700000.0 11309700000.0 11309700000.0 11309700000.0 11309700000.0 11309700000.0 11309700000.0 11309700000.0 11309700000.0 11309700000.0 11309700000.0 11309700000.0 11309700000.0 11309700000.0 11309700000.0 11309700000.0 11309700000.0 11309700000.0 11309700000.0 11309700000.0 11309700000.0 11309700000.0 11309700000.0 11309700000.0 11309700000.0 11309700000.0 11309700000.0 11309700000.0 11309700000.0 11309700000.0 11309700000.0 11309700000.0 11309700000.0 11309700000.0 11309700000.0 11309700000.0 11309700000.0 11309700000.0 11309700000.0 11309700000.0 11309700000.0 11309700000.0 11309700000.0 11309700000.0 11309700000.0 11309700000.0 11309700000.0 11309700000.0 11309700000.0 11309700000.0 11309700000.0 11309700000.0 11309700000.0 11309700000.0 11309700000.0 11309700000.0 11309700000.0 11309700000.0 11309700000.0 11309700000.0 11309700000.0 11309700000.0 11309700000.0 11309700000.0 11309700000.0 11309700000.0 11309700000.0 11309700000.0 11309700000.0 11309700000.0 11309700000.0 11309700000.0 11309700000.0 11309700000.0 11309700000.0 11309700000.0 11309700000.0 11309700000.0 11309700000.0 11309700000.0 11309700000.0 11309700000.0 11309700000.0 11309700000.0 11309700000.0 11309700000.0 11309700000.0 11309700000.0 11309700000.0 11309700000.0 11309700000.0 11309700000.0 11309700000.0 11309700000.0 11309700000.0 11309700000.0 11309700000.0 11309700000.0 11309700000.0 11309700000.0 11309700000.0 11309700000.0 11309700000.0 11309700000.0 11309700000.0 11309700000.0 11309700000.0 11309700000.0 11309700000.0 11309700000.0 11309700000.0 11309700000.0 11309700000.0 11309700000.0 11309700000.0 11309700000.0 11309700000.0 11309700000.0 11309700000.0 11309700000.0 11309700000.0 11309700000.0 11309700000.0 11309700000.0 11309700000.0 11309700000.0 11309700000.0 11309700000.0 11309700000.0 11309700000.0 11309700000.0 11309700000.0 11309700000.0 11309700000.0 11309700000.0 11309700000.0 11309700000.0 11309700000.0 11309700000.0 11309700000.0 11309700000.0 11309700000.0 11309700000.0 11309700000.0 11309700000.0 11309700000.0 11309700000.0 11309700000.0 11309700000.0 11309700000.0 11309700000.0 11309700000.0 11309700000.0 11309700000.0 11309700000.0 11309700000.0 11309700000.0 11309700000.0 11309700000.0 11309700000.0 11309700000.0 11309700000.0 11309700000.0 11309700000.0 11309700000.0 11309700000.0 11309700000.0 11309700000.0 11309700000.0 11309700000.0 11309700000.0 11309700000.0 11309700000.0 11309700000.0 11309700000.0 11309700000.0 11309700000.0 11309700000.0 11309700000.0 11309700000.0 11309700000.0 11309700000.0 11309700000.0 11309700000.0 11309700000.0 11309700000.0 11309700000.0 11309700000.0 11309700000.0 11309700000.0 11309700000.0 11309700000.0 11309700000.0 11309700000.0 11309700000.0 11309700000.0 11309700000.0 11309700000.0 11309700000.0 11309700000.0 11309700000.0 11309700000.0 11309700000.0 11309700000.0 11309700000.0 11309700000.0 11309700000.0 11309700000.0 11309700000.0 11309700000.0 11309700000.0 11309700000.0 11309700000.0 11309700000.0 11309700000.0 11309700000.0 11309700000.0 11309700000.0 11309700000.0 11309700000.0 11309700000.0 11309700000.0 11309700000.0 11309700000.0 11309700000.0 11309700000.0 11309700000.0 11309700000.0 11309700000.0 11309700000.0 11309700000.0 11309700000.0 11309700000.0 11309700000.0 11309700000.0 11309700000.0 11309700000.0 11309700000.0 11309700000.0 11309700000.0 11309700000.0 11309700000.0 11309700000.0 11309700000.0 11309700000.0 11309700000.0 11309700000.0 11309700000.0 11309700000.0 11309700000.0 11309700000.0 11309700000.0 11309700000.0 11309700000.0 11309700000.0 11309700000.0 11309700000.0 11309700000.0 11309700000.0 11309700000.0 11309700000.0 11309700000.0 11309700000.0 11309700000.0 11309700000.0 11309700000.0 11309700000.0 11309700000.0 11309700000.0 11309700000.0 11309700000.0 11309700000.0 11309700000.0 11309700000.0 11309700000.0 11309700000.0 11309700000.0 11309700000.0 11309700000.0 11309700000.0 11309700000.0 11309700000.0 11309700000.0 11309700000.0 11309700000.0 11309700000.0 11309700000.0 11309700000.0 11309700000.0 11309700000.0 11309700000.0 11309700000.0 11309700000.0 11309700000.0 11309700000.0 11309700000.0 11309700000.0 11309700000.0 11309700000.0 11309700000.0 11309700000.0 11309700000.0 11309700000.0 11309700000.0 11309700000.0 11309700000.0 11309700000.0 11309700000.0 11309700000.0 11309700000.0 11309700000.0 11309700000.0 11309700000.0 11309700000.0 11309700000.0 11309700000.0 11309700000.0 11309700000.0 11309700000.0 11309700000.0 11309700000.0 11309700000.0 11309700000.0 11309700000.0 11309700000.0 11309700000.0 11309700000.0 11309700000.0 11309700000.0 11309700000.0 11309700000.0 11309700000.0 11309700000.0 11309700000.0 11309700000.0 11309700000.0 11309700000.0 11309700000.0 11309700000.0 11309700000.0 11309700000.0 11309700000.0 11309700000.0 11309700000.0 11309700000.0 11309700000.0 11309700000.0 11309700000.0 11309700000.0 11309700000.0 11309700000.0 11309700000.0 11309700000.0 11309700000.0 11309700000.0 11309700000.0 11309700000.0 11309700000.0 11309700000.0 11309700000.0 11309700000.0 11309700000.0 11309700000.0 11309700000.0 11309700000.0 11309700000.0 11309700000.0 11309700000.0 11309700000.0 11309700000.0 11309700000.0 11309700000.0 11309700000.0 11309700000.0 11309700000.0 11309700000.0 11309700000.0 11309700000.0 11309700000.0 11309700000.0 11309700000.0 11309700000.0 11309700000.0 11309700000.0 11309700000.0 11309700000.0 11309700000.0 11309700000.0 11309700000.0 11309700000.0 11309700000.0 11309700000.0 11309700000.0 11309700000.0 11309700000.0 11309700000.0 11309700000.0 11309700000.0 11309700000.0 11309700000.0 11309700000.0 11309700000.0 11309700000.0 11309700000.0 11309700000.0 11309700000.0 11309700000.0 11309700000.0 11309700000.0 11309700000.0 11309700000.0 11309700000.0 11309700000.0 11309700000.0 11309700000.0 11309700000.0 11309700000.0 11309700000.0 11309700000.0 11309700000.0 11309700000.0 11309700000.0 11309700000.0 11309700000.0 11309700000.0 11309700000.0 11309700000.0 11309700000.0 11309700000.0 11309700000.0 11309700000.0 11309700000.0 11309700000.0 11309700000.0 11309700000.0 11309700000.0 11309700000.0 11309700000.0 11309700000.0 11309700000.0 11309700000.0 11309700000.0 11309700000.0 11309700000.0 11309700000.0 11309700000.0 11309700000.0 11309700000.0 11309700000.0 11309700000.0 11309700000.0 11309700000.0 11309700000.0 11309700000.0 11309700000.0 11309700000.0 11309700000.0 11309700000.0 11309700000.0 11309700000.0 11309700000.0 11309700000.0 11309700000.0 11309700000.0 11309700000.0 11309700000.0 11309700000.0 11309700000.0 11309700000.0 11309700000.0 11309700000.0 11309700000.0 11309700000.0 11309700000.0 11309700000.0 11309700000.0 11309700000.0 11309700000.0 11309700000.0 11309700000.0 11309700000.0 11309700000.0 11309700000.0 11309700000.0 11309700000.0 11309700000.0 11309700000.0 11309700000.0 11309700000.0 11309700000.0 11309700000.0 11309700000.0 11309700000.0 11309700000.0 11309700000.0 11309700000.0 11309700000.0 11309700000.0 11309700000.0 11309700000.0 11309700000.0 11309700000.0 11309700000.0 11309700000.0 11309700000.0 11309700000.0 11309700000.0 11309700000.0 11309700000.0 11309700000.0 11309700000.0 11309700000.0 11309700000.0 11309700000.0 11309700000.0 11309700000.0 11309700000.0 11309700000.0 11309700000.0 11309700000.0 11309700000.0 11309700000.0 11309700000.0 11309700000.0 11309700000.0 11309700000.0 11309700000.0 11309700000.0 11309700000.0 11309700000.0 11309700000.0 11309700000.0 11309700000.0 11309700000.0 11309700000.0 11309700000.0 11309700000.0 11309700000.0 11309700000.0 11309700000.0 11309700000.0 11309700000.0 11309700000.0 11309700000.0 11309700000.0 11309700000.0 11309700000.0 11309700000.0 11309700000.0 11309700000.0 11309700000.0 11309700000.0 11309700000.0 11309700000.0 11309700000.0 11309700000.0 11309700000.0 11309700000.0 11309700000.0 11309700000.0 11309700000.0 11309700000.0 11309700000.0 11309700000.0 11309700000.0 11309700000.0 11309700000.0 11309700000.0 11309700000.0 11309700000.0 11309700000.0 11309700000.0 11309700000.0 11309700000.0 11309700000.0 11309700000.0 11309700000.0 11309700000.0 11309700000.0 11309700000.0 11309700000.0 11309700000.0 11309700000.0 11309700000.0 11309700000.0 11309700000.0 11309700000.0 11309700000.0 11309700000.0 11309700000.0 11309700000.0 11309700000.0 11309700000.0 11309700000.0 11309700000.0 11309700000.0 11309700000.0 11309700000.0 11309700000.0 11309700000.0 11309700000.0 11309700000.0 11309700000.0 11309700000.0 11309700000.0 11309700000.0 11309700000.0 11309700000.0 11309700000.0 11309700000.0 11309700000.0 11309700000.0 11309700000.0 11309700000.0 11309700000.0 11309700000.0 11309700000.0 11309700000.0 11309700000.0 11309700000.0 11309700000.0 11309700000.0 11309700000.0 11309700000.0 11309700000.0 11309700000.0 11309700000.0 11309700000.0 11309700000.0 11309700000.0 11309700000.0 11309700000.0 11309700000.0 11309700000.0 11309700000.0 11309700000.0 11309700000.0 11309700000.0 11309700000.0 11309700000.0 11309700000.0 11309700000.0 11309700000.0 11309700000.0 11309700000.0 11309700000.0 11309700000.0 11309700000.0 11309700000.0 11309700000.0 11309700000.0 11309700000.0 11309700000.0 11309700000.0 11309700000.0 11309700000.0 11309700000.0 11309700000.0 11309700000.0 11309700000.0 11309700000.0 11309700000.0 11309700000.0 11309700000.0 11309700000.0 11309700000.0 11309700000.0 11309700000.0 11309700000.0 11309700000.0 11309700000.0 11309700000.0 11309700000.0 11309700000.0 11309700000.0 11309700000.0 11309700000.0 11309700000.0 11309700000.0 11309700000.0 11309700000.0 11309700000.0 11309700000.0 11309700000.0 11309700000.0 11309700000.0 11309700000.0 11309700000.0 11309700000.0 11309700000.0 11309700000.0 11309700000.0 11309700000.0 11309700000.0 11309700000.0 11309700000.0 11309700000.0 11309700000.0 11309700000.0 11309700000.0 11309700000.0 11309700000.0 11309700000.0 11309700000.0 11309700000.0 11309700000.0 11309700000.0 11309700000.0 11309700000.0 11309700000.0 11309700000.0 11309700000.0 11309700000.0 11309700000.0 11309700000.0 11309700000.0 11309700000.0 11309700000.0 11309700000.0 11309700000.0 11309700000.0 11309700000.0 11309700000.0 11309700000.0 11309700000.0 11309700000.0 11309700000.0 11309700000.0 11309700000.0 11309700000.0 11309700000.0 11309700000.0 11309700000.0 11309700000.0 11309700000.0 11309700000.0 11309700000.0 11309700000.0 11309700000.0 11309700000.0 11309700000.0 11309700000.0 11309700000.0 11309700000.0 11309700000.0 11309700000.0 11309700000.0 11309700000.0 11309700000.0 11309700000.0 11309700000.0 11309700000.0 11309700000.0 11309700000.0 11309700000.0 11309700000.0 11309700000.0 11309700000.0 11309700000.0 11309700000.0 11309700000.0 11309700000.0 11309700000.0 11309700000.0 11309700000.0 11309700000.0 11309700000.0 11309700000.0 11309700000.0 11309700000.0 11309700000.0 11309700000.0 11309700000.0 11309700000.0 11309700000.0 11309700000.0 11309700000.0 11309700000.0 11309700000.0 11309700000.0 11309700000.0 11309700000.0 11309700000.0 11309700000.0 11309700000.0 11309700000.0 11309700000.0 11309700000.0 11309700000.0 11309700000.0 11309700000.0 11309700000.0 11309700000.0 11309700000.0 11309700000.0 11309700000.0 11309700000.0 11309700000.0 11309700000.0 11309700000.0 11309700000.0 11309700000.0 11309700000.0 11309700000.0 11309700000.0 11309700000.0 11309700000.0 11309700000.0 11309700000.0 11309700000.0 11309700000.0 11309700000.0 11309700000.0 11309700000.0 11309700000.0 11309700000.0 11309700000.0 11309700000.0 11309700000.0 11309700000.0 11309700000.0 11309700000.0 11309700000.0 11309700000.0 11309700000.0 11309700000.0 11309700000.0 11309700000.0 11309700000.0 11309700000.0 11309700000.0 11309700000.0 11309700000.0 11309700000.0 11309700000.0 11309700000.0 11309700000.0 11309700000.0 11309700000.0 11309700000.0 11309700000.0 11309700000.0 11309700000.0 11309700000.0 11309700000.0 11309700000.0 11309700000.0 11309700000.0 11309700000.0 11309700000.0 11309700000.0 11309700000.0 11309700000.0 11309700000.0 11309700000.0 11309700000.0 11309700000.0 11309700000.0 11309700000.0 11309700000.0 11309700000.0 11309700000.0 11309700000.0 11309700000.0 11309700000.0 11309700000.0 11309700000.0 11309700000.0 11309700000.0 11309700000.0 11309700000.0 11309700000.0 11309700000.0 11309700000.0 11309700000.0 11309700000.0 11309700000.0 11309700000.0 11309700000.0 11309700000.0 11309700000.0 11309700000.0 11309700000.0 11309700000.0 11309700000.0 11309700000.0 11309700000.0 11309700000.0 11309700000.0 11309700000.0 11309700000.0 11309700000.0 11309700000.0 11309700000.0 11309700000.0 11309700000.0 11309700000.0 11309700000.0 11309700000.0 11309700000.0 11309700000.0 11309700000.0 11309700000.0 11309700000.0 11309700000.0 11309700000.0 11309700000.0 11309700000.0 11309700000.0 11309700000.0 11309700000.0 11309700000.0 11309700000.0 11309700000.0 11309700000.0 11309700000.0 11309700000.0 11309700000.0 11309700000.0 11309700000.0 11309700000.0 11309700000.0 11309700000.0 11309700000.0 11309700000.0 11309700000.0 11309700000.0 11309700000.0 11309700000.0 11309700000.0 11309700000.0 11309700000.0 11309700000.0 11309700000.0 11309700000.0 11309700000.0 11309700000.0 11309700000.0 11309700000.0 11309700000.0 11309700000.0 11309700000.0 11309700000.0 11309700000.0 11309700000.0 11309700000.0 11309700000.0 11309700000.0 11309700000.0 11309700000.0 11309700000.0 11309700000.0 11309700000.0 11309700000.0 11309700000.0 11309700000.0 11309700000.0 11309700000.0 11309700000.0 11309700000.0 11309700000.0 11309700000.0 11309700000.0 11309700000.0 11309700000.0 11309700000.0 11309700000.0 11309700000.0 11309700000.0 11309700000.0 11309700000.0 11309700000.0 11309700000.0 11309700000.0 11309700000.0 11309700000.0 11309700000.0 11309700000.0 11309700000.0 11309700000.0 11309700000.0 11309700000.0 11309700000.0 11309700000.0 11309700000.0 11309700000.0 11309700000.0 11309700000.0 11309700000.0 11309700000.0 11309700000.0 11309700000.0 11309700000.0 11309700000.0 11309700000.0 11309700000.0 11309700000.0 11309700000.0 11309700000.0 11309700000.0 11309700000.0 11309700000.0 11309700000.0 11309700000.0 11309700000.0 11309700000.0 11309700000.0 11309700000.0 11309700000.0 11309700000.0 11309700000.0 11309700000.0 11309700000.0 11309700000.0 11309700000.0 11309700000.0 11309700000.0 11309700000.0 11309700000.0 11309700000.0 11309700000.0 11309700000.0 11309700000.0 11309700000.0 11309700000.0 11309700000.0 11309700000.0 11309700000.0 11309700000.0 11309700000.0 11309700000.0 11309700000.0 11309700000.0 11309700000.0 11309700000.0 11309700000.0 11309700000.0 11309700000.0 11309700000.0 11309700000.0 11309700000.0 11309700000.0 11309700000.0 11309700000.0 11309700000.0 11309700000.0 11309700000.0 11309700000.0 11309700000.0 11309700000.0 11309700000.0 11309700000.0 11309700000.0 11309700000.0 11309700000.0 11309700000.0 11309700000.0 11309700000.0 11309700000.0 11309700000.0 11309700000.0 11309700000.0 11309700000.0 11309700000.0 11309700000.0 11309700000.0 11309700000.0 11309700000.0 11309700000.0 11309700000.0 11309700000.0 11309700000.0 11309700000.0 11309700000.0 11309700000.0 11309700000.0 11309700000.0 11309700000.0 11309700000.0 11309700000.0 11309700000.0 11309700000.0 11309700000.0 11309700000.0 11309700000.0 11309700000.0 11309700000.0 11309700000.0 11309700000.0 11309700000.0 11309700000.0 11309700000.0 11309700000.0 11309700000.0 11309700000.0 11309700000.0 11309700000.0 11309700000.0 11309700000.0 11309700000.0 11309700000.0 11309700000.0 11309700000.0 11309700000.0 11309700000.0 11309700000.0 11309700000.0 11309700000.0 11309700000.0 11309700000.0 11309700000.0 11309700000.0 11309700000.0 11309700000.0 11309700000.0 11309700000.0 11309700000.0 11309700000.0 11309700000.0 11309700000.0 11309700000.0 11309700000.0 11309700000.0 11309700000.0 11309700000.0 11309700000.0 11309700000.0 11309700000.0 11309700000.0 11309700000.0 11309700000.0 11309700000.0 11309700000.0 11309700000.0 11309700000.0 11309700000.0 11309700000.0 11309700000.0 11309700000.0 11309700000.0 11309700000.0 11309700000.0 11309700000.0 11309700000.0 11309700000.0 11309700000.0 11309700000.0 11309700000.0 11309700000.0 11309700000.0 11309700000.0 11309700000.0 11309700000.0 11309700000.0 11309700000.0 11309700000.0 11309700000.0 11309700000.0 11309700000.0 11309700000.0 11309700000.0 11309700000.0 11309700000.0 11309700000.0 11309700000.0 11309700000.0 11309700000.0 11309700000.0 11309700000.0 11309700000.0 11309700000.0 11309700000.0 11309700000.0 11309700000.0 11309700000.0 11309700000.0 11309700000.0 11309700000.0 11309700000.0 11309700000.0 11309700000.0 11309700000.0 11309700000.0 11309700000.0 11309700000.0 11309700000.0 11309700000.0 11309700000.0 11309700000.0 11309700000.0 11309700000.0 11309700000.0 11309700000.0 11309700000.0 11309700000.0 11309700000.0 11309700000.0 11309700000.0 11309700000.0 11309700000.0 11309700000.0 11309700000.0 11309700000.0 11309700000.0 11309700000.0 11309700000.0 11309700000.0 11309700000.0 11309700000.0 11309700000.0 11309700000.0 11309700000.0 11309700000.0 11309700000.0 11309700000.0 11309700000.0 11309700000.0 11309700000.0 11309700000.0 11309700000.0 11309700000.0 11309700000.0 11309700000.0 11309700000.0 11309700000.0 11309700000.0 11309700000.0 11309700000.0 11309700000.0 11309700000.0 11309700000.0 11309700000.0 11309700000.0 11309700000.0 11309700000.0 11309700000.0 11309700000.0 11309700000.0 11309700000.0 11309700000.0 11309700000.0 11309700000.0 11309700000.0 11309700000.0 11309700000.0 11309700000.0 11309700000.0 11309700000.0 11309700000.0 11309700000.0 11309700000.0 11309700000.0 11309700000.0 11309700000.0 11309700000.0 11309700000.0 11309700000.0 11309700000.0 11309700000.0 11309700000.0 11309700000.0 11309700000.0 11309700000.0 11309700000.0 11309700000.0 11309700000.0 11309700000.0 11309700000.0 11309700000.0 11309700000.0 11309700000.0 11309700000.0 11309700000.0 11309700000.0 11309700000.0 11309700000.0 11309700000.0 11309700000.0 11309700000.0 11309700000.0 11309700000.0 11309700000.0 11309700000.0 11309700000.0 11309700000.0 11309700000.0 11309700000.0 11309700000.0 11309700000.0 11309700000.0 11309700000.0 11309700000.0 11309700000.0 11309700000.0 11309700000.0 11309700000.0 11309700000.0 11309700000.0 11309700000.0 11309700000.0 11309700000.0 11309700000.0 11309700000.0 11309700000.0 11309700000.0 11309700000.0 11309700000.0 11309700000.0 11309700000.0 11309700000.0 11309700000.0 11309700000.0 11309700000.0 11309700000.0 11309700000.0 11309700000.0 11309700000.0 11309700000.0 11309700000.0 11309700000.0 11309700000.0 11309700000.0 11309700000.0 11309700000.0 11309700000.0 11309700000.0 11309700000.0 11309700000.0 11309700000.0 11309700000.0 11309700000.0 11309700000.0 11309700000.0 11309700000.0 11309700000.0 11309700000.0 11309700000.0 11309700000.0 11309700000.0 11309700000.0 11309700000.0 11309700000.0 11309700000.0 11309700000.0 11309700000.0 11309700000.0 11309700000.0 11309700000.0 11309700000.0 11309700000.0 11309700000.0 11309700000.0 11309700000.0 11309700000.0 11309700000.0 11309700000.0 11309700000.0 11309700000.0 11309700000.0 11309700000.0 11309700000.0 11309700000.0 11309700000.0 11309700000.0 11309700000.0 11309700000.0 11309700000.0 11309700000.0 11309700000.0 11309700000.0 11309700000.0 11309700000.0 11309700000.0 11309700000.0 11309700000.0 11309700000.0 11309700000.0 11309700000.0 11309700000.0 11309700000.0 11309700000.0 11309700000.0 11309700000.0 11309700000.0 11309700000.0 11309700000.0 11309700000.0 11309700000.0 11309700000.0 11309700000.0 11309700000.0 11309700000.0 11309700000.0 11309700000.0 11309700000.0 11309700000.0 11309700000.0 11309700000.0 11309700000.0 11309700000.0 11309700000.0 11309700000.0 11309700000.0 11309700000.0 11309700000.0 11309700000.0 11309700000.0 11309700000.0 11309700000.0 11309700000.0 11309700000.0 11309700000.0 11309700000.0 11309700000.0 11309700000.0 11309700000.0 11309700000.0 11309700000.0 11309700000.0 11309700000.0 11309700000.0 11309700000.0 11309700000.0 11309700000.0 11309700000.0 11309700000.0 11309700000.0 11309700000.0 11309700000.0 11309700000.0 11309700000.0 11309700000.0 11309700000.0 11309700000.0 11309700000.0 11309700000.0 11309700000.0 11309700000.0 11309700000.0 11309700000.0 11309700000.0 11309700000.0 11309700000.0 11309700000.0 11309700000.0 11309700000.0 11309700000.0 11309700000.0 11309700000.0 11309700000.0 11309700000.0 11309700000.0 11309700000.0 11309700000.0 11309700000.0 11309700000.0 11309700000.0 11309700000.0 11309700000.0 11309700000.0 11309700000.0 11309700000.0 11309700000.0 11309700000.0 11309700000.0 11309700000.0 11309700000.0 11309700000.0 11309700000.0 11309700000.0 11309700000.0 11309700000.0 11309700000.0 11309700000.0 11309700000.0 11309700000.0 11309700000.0 11309700000.0 11309700000.0 11309700000.0 11309700000.0 11309700000.0 11309700000.0 11309700000.0 11309700000.0 11309700000.0 11309700000.0 11309700000.0 11309700000.0 11309700000.0 11309700000.0 11309700000.0 11309700000.0 11309700000.0 11309700000.0 11309700000.0 11309700000.0 11309700000.0 11309700000.0 11309700000.0 11309700000.0 11309700000.0 11309700000.0 11309700000.0 11309700000.0 11309700000.0 11309700000.0 11309700000.0 11309700000.0 11309700000.0 11309700000.0 11309700000.0 11309700000.0 11309700000.0 11309700000.0 11309700000.0 11309700000.0 11309700000.0 11309700000.0 11309700000.0 11309700000.0 11309700000.0 11309700000.0 11309700000.0 11309700000.0 11309700000.0 11309700000.0 11309700000.0 11309700000.0 11309700000.0 11309700000.0 11309700000.0 11309700000.0 11309700000.0 11309700000.0 11309700000.0 11309700000.0 11309700000.0 11309700000.0 11309700000.0 11309700000.0 11309700000.0 11309700000.0 11309700000.0 11309700000.0 11309700000.0 11309700000.0 11309700000.0 11309700000.0 11309700000.0 11309700000.0 11309700000.0 11309700000.0 11309700000.0 11309700000.0 11309700000.0 11309700000.0 11309700000.0 11309700000.0 11309700000.0 11309700000.0 11309700000.0 11309700000.0 11309700000.0 11309700000.0 11309700000.0 11309700000.0 11309700000.0 11309700000.0 11309700000.0 11309700000.0 11309700000.0 11309700000.0 11309700000.0 11309700000.0 11309700000.0 11309700000.0 11309700000.0 11309700000.0 11309700000.0 11309700000.0 11309700000.0 11309700000.0 11309700000.0 11309700000.0 11309700000.0 11309700000.0 11309700000.0 11309700000.0 11309700000.0 11309700000.0 11309700000.0 11309700000.0 11309700000.0 11309700000.0 11309700000.0 11309700000.0 11309700000.0 11309700000.0 11309700000.0 11309700000.0 11309700000.0 11309700000.0 11309700000.0 11309700000.0 11309700000.0 11309700000.0 11309700000.0 11309700000.0 11309700000.0 11309700000.0 11309700000.0 11309700000.0 11309700000.0 11309700000.0 11309700000.0 11309700000.0 11309700000.0 11309700000.0 11309700000.0 11309700000.0 11309700000.0 11309700000.0 11309700000.0 11309700000.0 11309700000.0 11309700000.0 11309700000.0 11309700000.0 11309700000.0 11309700000.0 11309700000.0 11309700000.0 11309700000.0 11309700000.0 11309700000.0 11309700000.0 11309700000.0 11309700000.0 11309700000.0 11309700000.0 11309700000.0 11309700000.0 11309700000.0 11309700000.0 11309700000.0 11309700000.0 11309700000.0 11309700000.0 11309700000.0 11309700000.0 11309700000.0 11309700000.0 11309700000.0 11309700000.0 11309700000.0 11309700000.0 11309700000.0 11309700000.0 11309700000.0 11309700000.0 11309700000.0 11309700000.0 11309700000.0 11309700000.0 11309700000.0 11309700000.0 11309700000.0 11309700000.0 11309700000.0 11309700000.0 11309700000.0 11309700000.0 11309700000.0 11309700000.0 11309700000.0 11309700000.0 11309700000.0 11309700000.0 11309700000.0 11309700000.0 11309700000.0 11309700000.0 11309700000.0 11309700000.0 11309700000.0 11309700000.0 11309700000.0 11309700000.0 11309700000.0 11309700000.0 11309700000.0 11309700000.0 11309700000.0 11309700000.0 11309700000.0 11309700000.0 11309700000.0 11309700000.0 11309700000.0 11309700000.0 11309700000.0 11309700000.0 11309700000.0 11309700000.0 11309700000.0 11309700000.0 11309700000.0 11309700000.0 11309700000.0 11309700000.0 11309700000.0 11309700000.0 11309700000.0 11309700000.0 11309700000.0 11309700000.0 11309700000.0 11309700000.0 11309700000.0 11309700000.0 11309700000.0 11309700000.0 11309700000.0 11309700000.0 11309700000.0 11309700000.0 11309700000.0 11309700000.0 11309700000.0 11309700000.0 11309700000.0 11309700000.0 11309700000.0 11309700000.0 11309700000.0 11309700000.0 11309700000.0 11309700000.0 11309700000.0 11309700000.0 11309700000.0 11309700000.0 11309700000.0 11309700000.0 11309700000.0 11309700000.0 11309700000.0 11309700000.0 11309700000.0 11309700000.0 11309700000.0 11309700000.0 11309700000.0 11309700000.0 11309700000.0 11309700000.0 11309700000.0 11309700000.0 11309700000.0 11309700000.0 11309700000.0 11309700000.0 11309700000.0 11309700000.0 11309700000.0 11309700000.0 11309700000.0 11309700000.0 11309700000.0 11309700000.0 11309700000.0 11309700000.0 11309700000.0 11309700000.0 11309700000.0 11309700000.0 11309700000.0 11309700000.0 11309700000.0 11309700000.0 11309700000.0 11309700000.0 11309700000.0 11309700000.0 11309700000.0 11309700000.0 11309700000.0 11309700000.0 11309700000.0 11309700000.0 11309700000.0 11309700000.0 11309700000.0 11309700000.0 11309700000.0 11309700000.0 11309700000.0 11309700000.0 11309700000.0 11309700000.0 11309700000.0 11309700000.0 11309700000.0 11309700000.0 11309700000.0 11309700000.0 11309700000.0 11309700000.0 11309700000.0 11309700000.0 11309700000.0 11309700000.0 11309700000.0 11309700000.0 11309700000.0 11309700000.0 11309700000.0 11309700000.0 11309700000.0 11309700000.0 11309700000.0 11309700000.0 11309700000.0 11309700000.0 11309700000.0 11309700000.0 11309700000.0 11309700000.0 11309700000.0 11309700000.0 11309700000.0 11309700000.0 11309700000.0 11309700000.0 11309700000.0 11309700000.0 11309700000.0 11309700000.0 11309700000.0 11309700000.0 11309700000.0 11309700000.0 11309700000.0 11309700000.0 11309700000.0 11309700000.0 11309700000.0 11309700000.0 11309700000.0 11309700000.0 11309700000.0 11309700000.0 11309700000.0 11309700000.0 11309700000.0 11309700000.0 11309700000.0 11309700000.0 11309700000.0 11309700000.0 11309700000.0 11309700000.0 11309700000.0 11309700000.0 11309700000.0 11309700000.0 11309700000.0 11309700000.0 11309700000.0 11309700000.0 11309700000.0 11309700000.0 11309700000.0 11309700000.0 11309700000.0 11309700000.0 11309700000.0 11309700000.0 11309700000.0 11309700000.0 11309700000.0 11309700000.0 11309700000.0 11309700000.0 11309700000.0 11309700000.0 11309700000.0 11309700000.0 11309700000.0 11309700000.0 11309700000.0 11309700000.0 11309700000.0 11309700000.0 11309700000.0 11309700000.0 11309700000.0 11309700000.0 11309700000.0 11309700000.0 11309700000.0 11309700000.0 11309700000.0 11309700000.0 11309700000.0 11309700000.0 11309700000.0 11309700000.0 11309700000.0 11309700000.0 11309700000.0 11309700000.0 11309700000.0 11309700000.0 11309700000.0 11309700000.0 11309700000.0 11309700000.0 11309700000.0 11309700000.0 11309700000.0 11309700000.0 11309700000.0 11309700000.0 11309700000.0 11309700000.0 11309700000.0 11309700000.0 11309700000.0 11309700000.0 11309700000.0 11309700000.0 11309700000.0 11309700000.0 11309700000.0 11309700000.0 11309700000.0 11309700000.0 11309700000.0 11309700000.0 11309700000.0 11309700000.0 11309700000.0 11309700000.0 11309700000.0 11309700000.0 11309700000.0 11309700000.0 11309700000.0 11309700000.0 11309700000.0 11309700000.0 11309700000.0 11309700000.0 11309700000.0 11309700000.0 11309700000.0 11309700000.0 11309700000.0 11309700000.0 11309700000.0 11309700000.0 11309700000.0 11309700000.0 11309700000.0 11309700000.0 11309700000.0 11309700000.0 11309700000.0 11309700000.0 11309700000.0 11309700000.0 11309700000.0 11309700000.0 11309700000.0 11309700000.0 11309700000.0 11309700000.0 11309700000.0 11309700000.0 11309700000.0 11309700000.0 11309700000.0 11309700000.0 11309700000.0 11309700000.0 11309700000.0 11309700000.0 11309700000.0 11309700000.0 11309700000.0 11309700000.0 11309700000.0 11309700000.0 11309700000.0 11309700000.0 11309700000.0 11309700000.0 11309700000.0 11309700000.0 11309700000.0 11309700000.0 11309700000.0 11309700000.0 11309700000.0 11309700000.0 11309700000.0 11309700000.0 11309700000.0 11309700000.0 11309700000.0 11309700000.0 11309700000.0 11309700000.0 11309700000.0 11309700000.0 11309700000.0 11309700000.0 11309700000.0 11309700000.0 11309700000.0 11309700000.0 11309700000.0 11309700000.0 11309700000.0 11309700000.0 11309700000.0 11309700000.0 11309700000.0 11309700000.0 11309700000.0 11309700000.0 11309700000.0 11309700000.0 11309700000.0 11309700000.0 11309700000.0 11309700000.0 11309700000.0 11309700000.0 11309700000.0 11309700000.0 11309700000.0 11309700000.0 11309700000.0 11309700000.0 11309700000.0 11309700000.0 11309700000.0 11309700000.0 11309700000.0 11309700000.0 11309700000.0 11309700000.0 11309700000.0 11309700000.0 11309700000.0 11309700000.0 11309700000.0 11309700000.0 11309700000.0 11309700000.0 11309700000.0 11309700000.0 11309700000.0 11309700000.0 11309700000.0 11309700000.0 11309700000.0 11309700000.0 11309700000.0 11309700000.0 11309700000.0 11309700000.0 11309700000.0 11309700000.0 11309700000.0 11309700000.0 11309700000.0 11309700000.0 11309700000.0 11309700000.0 11309700000.0 11309700000.0 11309700000.0 11309700000.0 11309700000.0 11309700000.0 11309700000.0 11309700000.0 11309700000.0 11309700000.0 11309700000.0 11309700000.0 11309700000.0 11309700000.0 11309700000.0 11309700000.0 11309700000.0 11309700000.0 11309700000.0 11309700000.0 11309700000.0 11309700000.0 11309700000.0 11309700000.0 11309700000.0 11309700000.0 11309700000.0 11309700000.0 11309700000.0 11309700000.0 11309700000.0 11309700000.0 11309700000.0 11309700000.0 11309700000.0 11309700000.0 11309700000.0 11309700000.0 11309700000.0 11309700000.0 11309700000.0 11309700000.0 11309700000.0 11309700000.0 11309700000.0 11309700000.0 11309700000.0 11309700000.0 11309700000.0 11309700000.0 11309700000.0 11309700000.0 11309700000.0 11309700000.0 11309700000.0 11309700000.0 11309700000.0 11309700000.0 11309700000.0 11309700000.0 11309700000.0 11309700000.0 11309700000.0 11309700000.0 11309700000.0 11309700000.0 11309700000.0 11309700000.0 11309700000.0 11309700000.0 11309700000.0 11309700000.0 11309700000.0 11309700000.0 11309700000.0 11309700000.0 
SCALARS Velocity float 1
LOOKUP_TABLE default
0.406417 1.18101 0.871765 0.898191 0.897213 0.899373 0.900295 0.900333 0.89981 0.898915 0.897821 0.896723 0.895816 0.895127 0.894612 0.894271 0.894069 0.89395 0.893881 0.893848 0.893836 0.893833 0.893832 0.893832 0.893832 0.893832 0.893832 0.893832 0.893832 0.893832 0.893832 0.893832 0.893832 0.893832 0.893832 0.893832 0.893832 0.893832 0.893832 0.893832 0.893832 0.893832 0.893832 0.893832 0.893832 0.893832 0.893832 0.893832 0.893832 0.893832 0.893832 0.893832 0.893832 0.893833 0.893836 0.893848 0.893881 0.89395 0.894069 0.894271 0.894612 0.895127 0.895816 0.896723 0.897821 0.898915 0.89981 0.900333 0.900295 0.899373 0.897213 0.898191 0.871765 1.18101 0.406417 1.11957 0.902927 0.880826 0.893849 0.893877 0.893952 0.894054 0.894148 0.89404 0.893859 0.893766 0.893729 0.893736 0.893759 0.89378 0.893797 0.893813 0.893824 0.89383 0.893832 0.893832 0.893832 0.893832 0.893832 0.893832 0.893832 0.893832 0.893832 0.893832 0.893832 0.893832 0.893832 0.893832 0.893832 0.893832 0.893832 0.893832 0.893832 0.893832 0.893832 0.893832 0.893832 0.893832 0.893832 0.893832 0.893832 0.893832 0.893832 0.893832 0.893832 0.893832 0.893832 0.893832 0.893832 0.893832 0.893832 0.89383 0.893824 0.893813 0.893797 0.89378 0.893759 0.893736 0.893729 0.893766 0.893859 0.89404 0.894148 0.894054 0.893952 0.893877 0.893849 0.880826 0.902927 1.11957 0.950444 0.906027 0.887022 0.895492 0.895101 0.89476 0.894464 0.89418 0.893919 0.893783 0.89373 0.893732 0.893755 0.893777 0.893796 0.893813 0.893824 0.89383 0.893832 0.893832 0.893832 0.893832 0.893832 0.893832 0.893832 0.893832 0.893832 0.893832 0.893832 0.893832 0.893832 0.893832 0.893832 0.893832 0.893832 0.893832 0.893832 0.893832 0.893832 0.893832 0.893832 0.893832 0.893832 0.893832 0.893832 0.893832 0.893832 0.893832 0.893832 0.893832 0.893832 0.893832 0.893832 0.893832 0.893832 0.893832 0.893832 0.89383 0.893824 0.893813 0.893796 0.893777 0.893755 0.893732 0.89373 0.893783 0.893919 0.89418 0.894464 0.89476 0.895101 0.895492 0.887022 0.906027 0.950444 0.881448 0.893837 0.888159 0.894117 0.894056 0.894029 0.893952 0.89382 0.893738 0.893712 0.893725 0.893751 0.893775 0.893795 0.893812 0.893824 0.893829 0.893831 0.893832 0.893832 0.893832 0.893832 0.893832 0.893832 0.893832 0.893832 0.893832 0.893832 0.893832 0.893832 0.893832 0.893832 0.893832 0.893832 0.893832 0.893832 0.893832 0.893832 0.893832 0.893832 0.893832 0.893832 0.893832 0.893832 0.893832 0.893832 0.893832 0.893832 0.893832 0.893832 0.893832 0.893832 0.893832 0.893832 0.893832 0.893832 0.893832 0.893831 0.893829 0.893824 0.893812 0.893795 0.893775 0.893751 0.893725 0.893712 0.893738 0.89382 0.893952 0.894029 0.894056 0.894117 0.888159 0.893837 0.881448 0.830887 0.893837 0.890022 0.894002 0.893957 0.893896 0.893794 0.893722 0.893702 0.893718 0.893746 0.893773 0.893794 0.893812 0.893823 0.893829 0.893831 0.893832 0.893832 0.893832 0.893832 0.893832 0.893832 0.893832 0.893832 0.893832 0.893832 0.893832 0.893832 0.893832 0.893832 0.893832 0.893832 0.893832 0.893832 0.893832 0.893832 0.893832 0.893832 0.893832 0.893832 0.893832 0.893832 0.893832 0.893832 0.893832 0.893832 0.893832 0.893832 0.893832 0.893832 0.893832 0.893832 0.893832 0.893832 0.893832 0.893832 0.893832 0.893831 0.893829 0.893823 0.893812 0.893794 0.893773 0.893746 0.893718 0.893702 0.893722 0.893794 0.893896 0.893957 0.894002 0.890022 0.893837 0.830887 0.802612 0.893836 0.891309 0.89389 0.893836 0.893762 0.893704 0.893691 0.893711 0.893742 0.89377 0.893793 0.893811 0.893823 0.893829 0.893831 0.893832 0.893832 0.893832 0.893832 0.893832 0.893832 0.893832 0.893832 0.893832 0.893832 0.893832 0.893832 0.893832 0.893832 0.893832 0.893832 0.893832 0.893832 0.893832 0.893832 0.893832 0.893832 0.893832 0.893832 0.893832 0.893832 0.893832 0.893832 0.893832 0.893832 0.893832 0.893832 0.893832 0.893832 0.893832 0.893832 0.893832 0.893832 0.893832 0.893832 0.893832 0.893832 0.893832 0.893831 0.893829 0.893823 0.893811 0.893793 0.89377 0.893742 0.893711 0.893691 0.893704 0.893762 0.893836 0.89389 0.891309 0.893836 0.802612 0.791577 0.893835 0.892161 0.893785 0.893724 0.893684 0.893679 0.893703 0.893736 0.893767 0.893792 0.89381 0.893823 0.893829 0.893831 0.893832 0.893832 0.893832 0.893832 0.893832 0.893832 0.893832 0.893832 0.893832 0.893832 0.893832 0.893832 0.893832 0.893832 0.893832 0.893832 0.893832 0.893832 0.893832 0.893832 0.893832 0.893832 0.893832 0.893832 0.893832 0.893832 0.893832 0.893832 0.893832 0.893832 0.893832 0.893832 0.893832 0.893832 0.893832 0.893832 0.893832 0.893832 0.893832 0.893832 0.893832 0.893832 0.893832 0.893832 0.893832 0.893831 0.893829 0.893823 0.89381 0.893792 0.893767 0.893736 0.893703 0.893679 0.893684 0.893724 0.893785 0.892161 0.893835 0.791577 0.793293 0.893834 0.892708 0.893694 0.89366 0.893665 0.893694 0.893731 0.893764 0.89379 0.89381 0.893822 0.893829 0.893831 0.893832 0.893832 0.893832 0.893832 0.893832 0.893832 0.893832 0.893832 0.893832 0.893832 0.893832 0.893832 0.893832 0.893832 0.893832 0.893832 0.893832 0.893832 0.893832 0.893832 0.893832 0.893832 0.893832 0.893832 0.893832 0.893832 0.893832 0.893832 0.893832 0.893832 0.893832 0.893832 0.893832 0.893832 0.893832 0.893832 0.893832 0.893832 0.893832 0.893832 0.893832 0.893832 0.893832 0.893832 0.893832 0.893832 0.893832 0.893831 0.893829 0.893822 0.89381 0.89379 0.893764 0.893731 0.893694 0.893665 0.89366 0.893694 0.892708 0.893834 0.793293 0.803445 0.893832 0.89306 0.893641 0.893648 0.893683 0.893724 0.89376 0.893789 0.893809 0.893822 0.893829 0.893831 0.893832 0.893832 0.893832 0.893832 0.893832 0.893832 0.893832 0.893832 0.893832 0.893832 0.893832 0.893832 0.893832 0.893832 0.893832 0.893832 0.893832 0.893832 0.893832 0.893832 0.893832 0.893832 0.893832 0.893832 0.893832 0.893832 0.893832 0.893832 0.893832 0.893832 0.893832 0.893832 0.893832 0.893832 0.893832 0.893832 0.893832 0.893832 0.893832 0.893832 0.893832 0.893832 0.893832 0.893832 0.893832 0.893832 0.893832 0.893832 0.893832 0.893831 0.893829 0.893822 0.893809 0.893789 0.89376 0.893724 0.893683 0.893648 0.893641 0.89306 0.893832 0.803445 0.818087 0.893831 0.893292 0.893635 0.893672 0.893717 0.893756 0.893787 0.893808 0.893822 0.893828 0.893831 0.893832 0.893832 0.893832 0.893832 0.893832 0.893832 0.893832 0.893832 0.893832 0.893832 0.893832 0.893832 0.893832 0.893832 0.893832 0.893832 0.893832 0.893832 0.893832 0.893832 0.893832 0.893832 0.893832 0.893832 0.893832 0.893832 0.893832 0.893832 0.893832 0.893832 0.893832 0.893832 0.893832 0.893832 0.893832 0.893832 0.893832 0.893832 0.893832 0.893832 0.893832 0.893832 0.893832 0.893832 0.893832 0.893832 0.893832 0.893832 0.893832 0.893832 0.893832 0.893831 0.893828 0.893822 0.893808 0.893787 0.893756 0.893717 0.893672 0.893635 0.893292 0.893831 0.818087 0.834154 0.89383 0.893453 0.893661 0.89371 0.893752 0.893785 0.893807 0.893821 0.893828 0.893831 0.893832 0.893832 0.893832 0.893832 0.893832 0.893832 0.893832 0.893832 0.893832 0.893832 0.893832 0.893832 0.893832 0.893832 0.893832 0.893832 0.893832 0.893832 0.893832 0.893832 0.893832 0.893832 0.893832 0.893832 0.893832 0.893832 0.893832 0.893832 0.893832 0.893832 0.893832 0.893832 0.893832 0.893832 0.893832 0.893832 0.893832 0.893832 0.893832 0.893832 0.893832 0.893832 0.893832 0.893832 0.893832 0.893832 0.893832 0.893832 0.893832 0.893832 0.893832 0.893832 0.893832 0.893831 0.893828 0.893821 0.893807 0.893785 0.893752 0.89371 0.893661 0.893453 0.89383 0.834154 0.849392 0.89383 0.893572 0.893702 0.893748 0.893782 0.893806 0.893821 0.893828 0.893831 0.893832 0.893832 0.893832 0.893832 0.893832 0.893832 0.893832 0.893832 0.893832 0.893832 0.893832 0.893832 0.893832 0.893832 0.893832 0.893832 0.893832 0.893832 0.893832 0.893832 0.893832 0.893832 0.893832 0.893832 0.893832 0.893832 0.893832 0.893832 0.893832 0.893832 0.893832 0.893832 0.893832 0.893832 0.893832 0.893832 0.893832 0.893832 0.893832 0.893832 0.893832 0.893832 0.893832 0.893832 0.893832 0.893832 0.893832 0.893832 0.893832 0.893832 0.893832 0.893832 0.893832 0.893832 0.893832 0.893831 0.893828 0.893821 0.893806 0.893782 0.893748 0.893702 0.893572 0.89383 0.849392 0.862453 0.893829 0.893659 0.893743 0.89378 0.893805 0.89382 0.893828 0.893831 0.893832 0.893832 0.893832 0.893832 0.893832 0.893832 0.893832 0.893832 0.893832 0.893832 0.893832 0.893832 0.893832 0.893832 0.893832 0.893832 0.893832 0.893832 0.893832 0.893832 0.893832 0.893832 0.893832 0.893832 0.893832 0.893832 0.893832 0.893832 0.893832 0.893832 0.893832 0.893832 0.893832 0.893832 0.893832 0.893832 0.893832 0.893832 0.893832 0.893832 0.893832 0.893832 0.893832 0.893832 0.893832 0.893832 0.893832 0.893832 0.893832 0.893832 0.893832 0.893832 0.893832 0.893832 0.893832 0.893832 0.893832 0.893831 0.893828 0.89382 0.893805 0.89378 0.893743 0.893659 0.893829 0.862453 0.872829 0.89383 0.893723 0.893777 0.893804 0.893819 0.893827 0.893831 0.893832 0.893832 0.893832 0.893832 0.893832 0.893832 0.893832 0.893832 0.893832 0.893832 0.893832 0.893832 0.893832 0.893832 0.893832 0.893832 0.893832 0.893832 0.893832 0.893832 0.893832 0.893832 0.893832 0.893832 0.893832 0.893832 0.893832 0.893832 0.893832 0.893832 0.893832 0.893832 0.893832 0.893832 0.893832 0.893832 0.893832 0.893832 0.893832 0.893832 0.893832 0.893832 0.893832 0.893832 0.893832 0.893832 0.893832 0.893832 0.893832 0.893832 0.893832 0.893832 0.893832 0.893832 0.893832 0.893832 0.893832 0.893832 0.893832 0.893831 0.893827 0.893819 0.893804 0.893777 0.893723 0.89383 0.872829 0.880528 0.89383 0.893768 0.893802 0.893819 0.893827 0.893831 0.893832 0.893832 0.893832 0.893832 0.893832 0.893832 0.893832 0.893832 0.893832 0.893832 0.893832 0.893832 0.893832 0.893832 0.893832 0.893832 0.893832 0.893832 0.893832 0.893832 0.893832 0.893832 0.893832 0.893832 0.893832 0.893832 0.893832 0.893832 0.893832 0.893832 0.893832 0.893832 0.893832 0.893832 0.893832 0.893832 0.893832 0.893832 0.893832 0.893832 0.893832 0.893832 0.893832 0.893832 0.893832 0.893832 0.893832 0.893832 0.893832 0.893832 0.893832 0.893832 0.893832 0.893832 0.893832 0.893832 0.893832 0.893832 0.893832 0.893832 0.893832 0.893831 0.893827 0.893819 0.893802 0.893768 0.89383 0.880528 0.885878 0.89383 0.893798 0.893818 0.893827 0.89383 0.893832 0.893832 0.893832 0.893832 0.893832 0.893832 0.893832 0.893832 0.893832 0.893832 0.893832 0.893832 0.893832 0.893832 0.893832 0.893832 0.893832 0.893832 0.893832 0.893832 0.893832 0.893832 0.893832 0.893832 0.893832 0.893832 0.893832 0.893832 0.893832 0.893832 0.893832 0.893832 0.893832 0.893832 0.893832 0.893832 0.893832 0.893832 0.893832 0.893832 0.893832 0.893832 0.893832 0.893832 0.893832 0.893832 0.893832 0.893832 0.893832 0.893832 0.893832 0.893832 0.893832 0.893832 0.893832 0.893832 0.893832 0.893832 0.893832 0.893832 0.893832 0.893832 0.893832 0.89383 0.893827 0.893818 0.893798 0.89383 0.885878 0.889376 0.893831 0.893816 0.893826 0.89383 0.893832 0.893832 0.893832 0.893832 0.893832 0.893832 0.893832 0.893832 0.893832 0.893832 0.893832 0.893832 0.893832 0.893832 0.893832 0.893832 0.893832 0.893832 0.893832 0.893832 0.893832 0.893832 0.893832 0.893832 0.893832 0.893832 0.893832 0.893832 0.893832 0.893832 0.893832 0.893832 0.893832 0.893832 0.893832 0.893832 0.893832 0.893832 0.893832 0.893832 0.893832 0.893832 0.893832 0.893832 0.893832 0.893832 0.893832 0.893832 0.893832 0.893832 0.893832 0.893832 0.893832 0.893832 0.893832 0.893832 0.893832 0.893832 0.893832 0.893832 0.893832 0.893832 0.893832 0.893832 0.893832 0.89383 0.893826 0.893816 0.893831 0.889376 0.891522 0.893831 0.893825 0.89383 0.893832 0.893832 0.893832 0.893832 0.893832 0.893832 0.893832 0.893832 0.893832 0.893832 0.893832 0.893832 0.893832 0.893832 0.893832 0.893832 0.893832 0.893832 0.893832 0.893832 0.893832 0.893832 0.893832 0.893832 0.893832 0.893832 0.893832 0.893832 0.893832 0.893832 0.893832 0.893832 0.893832 0.893832 0.893832 0.893832 0.893832 0.893832 0.893832 0.893832 0.893832 0.893832 0.893832 0.893832 0.893832 0.893832 0.893832 0.893832 0.893832 0.893832 0.893832 0.893832 0.893832 0.893832 0.893832 0.893832 0.893832 0.893832 0.893832 0.893832 0.893832 0.893832 0.893832 0.893832 0.893832 0.893832 0.893832 0.89383 0.893825 0.893831 0.891522 0.89274 0.893832 0.89383 0.893831 0.893832 0.893832 0.893832 0.893832 0.893832 0.893832 0.893832 0.893832 0.893832 0.893832 0.893832 0.893832 0.893832 0.893832 0.893832 0.893832 0.893832 0.893832 0.893832 0.893832 0.893832 0.893832 0.893832 0.893832 0.893832 0.893832 0.893832 0.893832 0.893832 0.893832 0.893832 0.893832 0.893832 0.893832 0.893832 0.893832 0.893832 0.893832 0.893832 0.893832 0.893832 0.893832 0.893832 0.893832 0.893832 0.893832 0.893832 0.893832 0.893832 0.893832 0.893832 0.893832 0.893832 0.893832 0.893832 0.893832 0.893832 0.893832 0.893832 0.893832 0.893832 0.893832 0.893832 0.893832 0.893832 0.893832 0.893832 0.893831 0.89383 0.893832 0.89274 0.893366 0.893832 0.893831 0.893832 0.893832 0.893832 0.893832 0.893832 0.893832 0.893832 0.893832 0.893832 0.893832 0.893832 0.893832 0.893832 0.893832 0.893832 0.893832 0.893832 0.893832 0.893832 0.893832 0.893832 0.893832 0.893832 0.893832 0.893832 0.893832 0.893832 0.893832 0.893832 0.893832 0.893832 0.893832 0.893832 0.893832 0.893832 0.893832 0.893832 0.893832 0.893832 0.893832 0.893832 0.893832 0.893832 0.893832 0.893832 0.893832 0.893832 0.893832 0.893832 0.893832 0.893832 0.893832 0.893832 0.893832 0.893832 0.893832 0.893832 0.893832 0.893832 0.893832 0.893832 0.893832 0.893832 0.893832 0.893832 0.893832 0.893832 0.893832 0.893832 0.893831 0.893832 0.893366 0.893654 0.893832 0.893832 0.893832 0.893832 0.893832 0.893832 0.893832 0.893832 0.893832 0.893832 0.893832 0.893832 0.893832 0.893832 0.893832 0.893832 0.893832 0.893832 0.893832 0.893832 0.893832 0.893832 0.893832 0.893832 0.893832 0.893832 0.893832 0.893832 0.893832 0.893832 0.893832 0.893832 0.893832 0.893832 0.893832 0.893832 0.893832 0.893832 0.893832 0.893832 0.893832 0.893832 0.893832 0.893832 0.893832 0.893832 0.893832 0.893832 0.893832 0.893832 0.893832 0.893832 0.893832 0.893832 0.893832 0.893832 0.893832 0.893832 0.893832 0.893832 0.893832 0.893832 0.893832 0.893832 0.893832 0.893832 0.893832 0.893832 0.893832 0.893832 0.893832 0.893832 0.893832 0.893654 0.893771 0.893832 0.893832 0.893832 0.893832 0.893832 0.893832 0.893832 0.893832 0.893832 0.893832 0.893832 0.893832 0.893832 0.893832 0.893832 0.893832 0.893832 0.893832 0.893832 0.893832 0.893832 0.893832 0.893832 0.893832 0.893832 0.893832 0.893832 0.893832 0.893832 0.893832 0.893832 0.893832 0.893832 0.893832 0.893832 0.893832 0.893832 0.893832 0.893832 0.893832 0.893832 0.893832 0.893832 0.893832 0.893832 0.893832 0.893832 0.893832 0.893832 0.893832 0.893832 0.893832 0.893832 0.893832 0.893832 0.893832 0.893832 0.893832 0.893832 0.893832 0.893832 0.893832 0.893832 0.893832 0.893832 0.893832 0.893832 0.893832 0.893832 0.893832 0.893832 0.893832 0.893832 0.893771 0.893814 0.893832 0.893832 0.893832 0.893832 0.893832 0.893832 0.893832 0.893832 0.893832 0.893832 0.893832 0.893832 0.893832 0.893832 0.893832 0.893832 0.893832 0.893832 0.893832 0.893832 0.893832 0.893832 0.893832 0.893832 0.893832 0.893832 0.893832 0.893832 0.893832 0.893832 0.893832 0.893832 0.893832 0.893832 0.893832 0.893832 0.893832 0.893832 0.893832 0.893832 0.893832 0.893832 0.893832 0.893832 0.893832 0.893832 0.893832 0.893832 0.893832 0.893832 0.893832 0.893832 0.893832 0.893832 0.893832 0.893832 0.893832 0.893832 0.893832 0.893832 0.893832 0.893832 0.893832 0.893832 0.893832 0.893832 0.893832 0.893832 0.893832 0.893832 0.893832 0.893832 0.893832 0.893814 0.893827 0.893832 0.893832 0.893832 0.893832 0.893832 0.893832 0.893832 0.893832 0.893832 0.893832 0.893832 0.893832 0.893832 0.893832 0.893832 0.893832 0.893832 0.893832 0.893832 0.893832 0.893832 0.893832 0.893832 0.893832 0.893832 0.893832 0.893832 0.893832 0.893832 0.893832 0.893832 0.893832 0.893832 0.893832 0.893832 0.893832 0.893832 0.893832 0.893832 0.893832 0.893832 0.893832 0.893832 0.893832 0.893832 0.893832 0.893832 0.893832 0.893832 0.893832 0.893832 0.893832 0.893832 0.893832 0.893832 0.893832 0.893832 0.893832 0.893832 0.893832 0.893832 0.893832 0.893832 0.893832 0.893832 0.893832 0.893832 0.893832 0.893832 0.893832 0.893832 0.893832 0.893832 0.893827 0.893831 0.893832 0.893832 0.893832 0.893832 0.893832 0.893832 0.893832 0.893832 0.893832 0.893832 0.893832 0.893832 0.893832 0.893832 0.893832 0.893832 0.893832 0.893832 0.893832 0.893832 0.893832 0.893832 0.893832 0.893832 0.893832 0.893832 0.893832 0.893832 0.893832 0.893832 0.893832 0.893832 0.893832 0.893832 0.893832 0.893832 0.893832 0.893832 0.893832 0.893832 0.893832 0.893832 0.893832 0.893832 0.893832 0.893832 0.893832 0.893832 0.893832 0.893832 0.893832 0.893832 0.893832 0.893832 0.893832 0.893832 0.893832 0.893832 0.893832 0.893832 0.893832 0.893832 0.893832 0.893832 0.893832 0.893832 0.893832 0.893832 0.893832 0.893832 0.893832 0.893832 0.893832 0.893831 0.893832 0.893832 0.893832 0.893832 0.893832 0.893832 0.893832 0.893832 0.893832 0.893832 0.893832 0.893832 0.893832 0.893832 0.893832 0.893832 0.893832 0.893832 0.893832 0.893832 0.893832 0.893832 0.893832 0.893832 0.893832 0.893832 0.893832 0.893832 0.893832 0.893832 0.893832 0.893832 0.893832 0.893832 0.893832 0.893832 0.893832 0.893832 0.893832 0.893832 0.893832 0.893832 0.893832 0.893832 0.893832 0.893832 0.893832 0.893832 0.893832 0.893832 0.893832 0.893832 0.893832 0.893832 0.893832 0.893832 0.893832 0.893832 0.893832 0.893832 0.893832 0.893832 0.893832 0.893832 0.893832 0.893832 0.893832 0.893832 0.893832 0.893832 0.893832 0.893832 0.893832 0.893832 0.893832 0.893832 0.893832 0.893832 0.893832 0.893832 0.893832 0.893832 0.893832 0.893832 0.893832 0.893832 0.893832 0.893832 0.893832 0.893832 0.893832 0.893832 0.893832 0.893832 0.893832 0.893832 0.893832 0.893832 0.893832 0.893832 0.893832 0.893832 0.893832 0.893832 0.893832 0.893832 0.893832 0.893832 0.893832 0.893832 0.893832 0.893832 0.893832 0.893832 0.893832 0.893832 0.893832 0.893832 0.893832 0.893832 0.893832 0.893832 0.893832 0.893832 0.893832 0.893832 0.893832 0.893832 0.893832 0.893832 0.893832 0.893832 0.893832 0.893832 0.893832 0.893832 0.893832 0.893832 0.893832 0.893832 0.893832 0.893832 0.893832 0.893832 0.893832 0.893832 0.893832 0.893832 0.893832 0.893832 0.893832 0.893832 0.893832 0.893832 0.893832 0.893832 0.893832 0.893832 0.893832 0.893832 0.893832 0.893832 0.893832 0.893832 0.893832 0.893832 0.893832 0.893832 0.893832 0.893832 0.893832 0.893832 0.893832 0.893832 0.893832 0.893832 0.893832 0.893832 0.893832 0.893832 0.893832 0.893832 0.893832 0.893832 0.893832 0.893832 0.893832 0.893832 0.893832 0.893832 0.893832 0.893832 0.893832 0.893832 0.893832 0.893832 0.893832 0.893832 0.893832 0.893832 0.893832 0.893832 0.893832 0.893832 0.893832 0.893832 0.893832 0.893832 0.893832 0.893832 0.893832 0.893832 0.893832 0.893832 0.893832 0.893832 0.893832 0.893832 0.893832 0.893832 0.893832 0.893832 0.893832 0.893832 0.893832 0.893832 0.893832 0.893832 0.893832 0.893832 0.893832 0.893832 0.893832 0.893832 0.893832 0.893832 0.893832 0.893832 0.893832 0.893832 0.893832 0.893832 0.893832 0.893832 0.893832 0.893832 0.893832 0.893832 0.893832 0.893832 0.893832 0.893832 0.893832 0.893832 0.893832 0.893832 0.893832 0.893832 0.893832 0.893832 0.893832 0.893832 0.893832 0.893832 0.893832 0.893832 0.893832 0.893832 0.893832 0.893832 0.893832 0.893832 0.893832 0.893832 0.893832 0.893832 0.893832 0.893832 0.893832 0.893832 0.893832 0.893832 0.893832 0.893832 0.893832 0.893832 0.893832 0.893832 0.893832 0.893832 0.893832 0.893832 0.893832 0.893832 0.893832 0.893832 0.893832 0.893832 0.893832 0.893832 0.893832 0.893832 0.893832 0.893832 0.893832 0.893832 0.893832 0.893832 0.893832 0.893832 0.893832 0.893832 0.893832 0.893832 0.893832 0.893832 0.893832 0.893832 0.893832 0.893832 0.893832 0.893832 0.893832 0.893832 0.893832 0.893832 0.893832 0.893832 0.893832 0.893832 0.893832 0.893832 0.893832 0.893832 0.893832 0.893832 0.893832 0.893832 0.893832 0.893832 0.893832 0.893832 0.893832 0.893832 0.893832 0.893832 0.893832 0.893832 0.893832 0.893832 0.893832 0.893832 0.893832 0.893832 0.893832 0.893832 0.893832 0.893832 0.893832 0.893832 0.893832 0.893832 0.893832 0.893832 0.893832 0.893832 0.893832 0.893832 0.893832 0.893832 0.893832 0.893832 0.893832 0.893832 0.893832 0.893832 0.893832 0.893832 0.893832 0.893832 0.893832 0.893832 0.893832 0.893832 0.893832 0.893832 0.893832 0.893832 0.893832 0.893832 0.893832 0.893832 0.893832 0.893832 0.893832 0.893832 0.893832 0.893832 0.893832 0.893832 0.893832 0.893832 0.893832 0.893832 0.893832 0.893832 0.893832 0.893832 0.893832 0.893832 0.893832 0.893832 0.893832 0.893832 0.893832 0.893832 0.893832 0.893832 0.893832 0.893832 0.893832 0.893832 0.893832 0.893832 0.893832 0.893832 0.893832 0.893832 0.893832 0.893832 0.893832 0.893832 0.893832 0.893832 0.893832 0.893832 0.893832 0.893832 0.893832 0.893832 0.893832 0.893832 0.893832 0.893832 0.893832 0.893832 0.893832 0.893832 0.893832 0.893832 0.893832 0.893832 0.893832 0.893832 0.893832 0.893832 0.893832 0.893832 0.893832 0.893832 0.893832 0.893832 0.893832 0.893832 0.893832 0.893832 0.893832 0.893832 0.893832 0.893832 0.893832 0.893832 0.893832 0.893832 0.893832 0.893832 0.893832 0.893832 0.893832 0.893832 0.893832 0.893832 0.893832 0.893832 0.893832 0.893832 0.893832 0.893832 0.893832 0.893832 0.893832 0.893832 0.893832 0.893832 0.893832 0.893832 0.893832 0.893832 0.893832 0.893832 0.893832 0.893832 0.893832 0.893832 0.893832 0.893832 0.893832 0.893832 0.893832 0.893832 0.893832 0.893832 0.893832 0.893832 0.893832 0.893832 0.893832 0.893832 0.893832 0.893832 0.893832 0.893832 0.893832 0.893832 0.893832 0.893832 0.893832 0.893832 0.893832 0.893832 0.893832 0.893832 0.893832 0.893832 0.893832 0.893832 0.893832 0.893832 0.893832 0.893832 0.893832 0.893832 0.893832 0.893832 0.893832 0.893832 0.893832 0.893832 0.893832 0.893832 0.893832 0.893832 0.893832 0.893832 0.893832 0.893832 0.893832 0.893832 0.893832 0.893832 0.893832 0.893832 0.893832 0.893832 0.893832 0.893832 0.893832 0.893832 0.893832 0.893832 0.893832 0.893832 0.893832 0.893832 0.893832 0.893832 0.893832 0.893832 0.893832 0.893832 0.893832 0.893832 0.893832 0.893832 0.893832 0.893832 0.893832 0.893832 0.893832 0.893832 0.893832 0.893832 0.893832 0.893832 0.893832 0.893832 0.893832 0.893832 0.893832 0.893832 0.893832 0.893832 0.893832 0.893832 0.893832 0.893832 0.893832 0.893832 0.893832 0.893832 0.893832 0.893832 0.893832 0.893832 0.893832 0.893832 0.893832 0.893832 0.893832 0.893832 0.893832 0.893832 0.893832 0.893832 0.893832 0.893832 0.893832 0.893832 0.893832 0.893832 0.893832 0.893832 0.893832 0.893832 0.893832 0.893832 0.893832 0.893832 0.893832 0.893832 0.893832 0.893832 0.893832 0.893832 0.893832 0.893832 0.893832 0.893832 0.893832 0.893832 0.893832 0.893832 0.893832 0.893832 0.893832 0.893832 0.893832 0.893832 0.893832 0.893832 0.893832 0.893832 0.893832 0.893832 0.893832 0.893832 0.893832 0.893832 0.893832 0.893832 0.893832 0.893832 0.893832 0.893832 0.893832 0.893832 0.893832 0.893832 0.893832 0.893832 0.893832 0.893832 0.893832 0.893832 0.893832 0.893832 0.893832 0.893832 0.893832 0.893832 0.893832 0.893832 0.893832 0.893832 0.893832 0.893832 0.893832 0.893832 0.893832 0.893832 0.893832 0.893832 0.893832 0.893832 0.893832 0.893832 0.893832 0.893832 0.893832 0.893832 0.893832 0.893832 0.893832 0.893832 0.893832 0.893832 0.893832 0.893832 0.893832 0.893832 0.893832 0.893832 0.893832 0.893832 0.893832 0.893832 0.893832 0.893832 0.893832 0.893832 0.893832 0.893832 0.893832 0.893832 0.893832 0.893832 0.893832 0.893832 0.893832 0.893832 0.893832 0.893832 0.893832 0.893832 0.893832 0.893832 0.893832 0.893832 0.893832 0.893832 0.893832 0.893832 0.893832 0.893832 0.893832 0.893832 0.893832 0.893832 0.893832 0.893832 0.893832 0.893832 0.893832 0.893832 0.893832 0.893832 0.893832 0.893832 0.893832 0.893832 0.893832 0.893832 0.893832 0.893832 0.893832 0.893832 0.893832 0.893832 0.893832 0.893832 0.893832 0.893832 0.893832 0.893832 0.893832 0.893832 0.893832 0.893832 0.893832 0.893832 0.893832 0.893832 0.893832 0.893832 0.893832 0.893832 0.893832 0.893832 0.893832 0.893832 0.893832 0.893832 0.893832 0.893832 0.893832 0.893832 0.893832 0.893832 0.893832 0.893832 0.893832 0.893832 0.893832 0.893832 0.893832 0.893832 0.893832 0.893832 0.893832 0.893832 0.893832 0.893832 0.893832 0.893832 0.893832 0.893832 0.893832 0.893832 0.893832 0.893832 0.893832 0.893832 0.893832 0.893832 0.893832 0.893832 0.893832 0.893832 0.893832 0.893832 0.893832 0.893832 0.893832 0.893832 0.893832 0.893832 0.893832 0.893832 0.893832 0.893832 0.893832 0.893832 0.893832 0.893832 0.893832 0.893832 0.893832 0.893832 0.893832 0.893832 0.893832 0.893832 0.893832 0.893832 0.893832 0.893832 0.893832 0.893832 0.893832 0.893832 0.893832 0.893832 0.893832 0.893832 0.893832 0.893832 0.893832 0.893832 0.893832 0.893832 0.893832 0.893832 0.893832 0.893832 0.893832 0.893832 0.893832 0.893832 0.893832 0.893832 0.893832 0.893832 0.893832 0.893832 0.893832 0.893832 0.893832 0.893832 0.893832 0.893832 0.893832 0.893832 0.893832 0.893832 0.893832 0.893832 0.893832 0.893832 0.893832 0.893832 0.893832 0.893832 0.893832 0.893832 0.893832 0.893832 0.893832 0.893832 0.893832 0.893832 0.893832 0.893832 0.893832 0.893832 0.893832 0.893832 0.893832 0.893832 0.893832 0.893832 0.893832 0.893832 0.893832 0.893832 0.893832 0.893832 0.893832 0.893832 0.893832 0.893832 0.893832 0.893832 0.893832 0.893832 0.893832 0.893832 0.893832 0.893832 0.893832 0.893832 0.893832 0.893832 0.893832 0.893832 0.893832 0.893832 0.893832 0.893832 0.893832 0.893832 0.893832 0.893832 0.893832 0.893832 0.893832 0.893832 0.893832 0.893832 0.893832 0.893832 0.893832 0.893832 0.893832 0.893832 0.893832 0.893832 0.893832 0.893832 0.893832 0.893832 0.893832 0.893832 0.893832 0.893832 0.893832 0.893832 0.893832 0.893832 0.893832 0.893832 0.893832 0.893832 0.893832 0.893832 0.893832 0.893832 0.893832 0.893832 0.893832 0.893832 0.893832 0.893832 0.893832 0.893832 0.893832 0.893832 0.893832 0.893832 0.893832 0.893832 0.893832 0.893832 0.893832 0.893832 0.893832 0.893832 0.893832 0.893832 0.893832 0.893832 0.893832 0.893832 0.893832 0.893832 0.893832 0.893832 0.893832 0.893832 0.893832 0.893832 0.893832 0.893832 0.893832 0.893832 0.893832 0.893832 0.893832 0.893832 0.893832 0.893832 0.893832 0.893832 0.893832 0.893832 0.893832 0.893832 0.893832 0.893832 0.893832 0.893832 0.893832 0.893832 0.893832 0.893832 0.893832 0.893832 0.893832 0.893832 0.893832 0.893832 0.893832 0.893832 0.893832 0.893832 0.893832 0.893832 0.893832 0.893832 0.893832 0.893832 0.893832 0.893832 0.893832 0.893832 0.893832 0.893832 0.893832 0.893832 0.893832 0.893832 0.893832 0.893832 0.893832 0.893832 0.893832 0.893832 0.893832 0.893832 0.893832 0.893832 0.893832 0.893832 0.893832 0.893832 0.893832 0.893832 0.893832 0.893832 0.893832 0.893832 0.893832 0.893832 0.893832 0.893832 0.893832 0.893832 0.893832 0.893832 0.893832 0.893832 0.893832 0.893832 0.893832 0.893832 0.893832 0.893832 0.893832 0.893832 0.893832 0.893832 0.893832 0.893832 0.893832 0.893832 0.893832 0.893832 0.893832 0.893832 0.893832 0.893832 0.893832 0.893832 0.893832 0.893832 0.893832 0.893832 0.893832 0.893832 0.893832 0.893832 0.893832 0.893832 0.893832 0.893832 0.893832 0.893832 0.893832 0.893832 0.893832 0.893832 0.893832 0.893832 0.893832 0.893832 0.893832 0.893832 0.893832 0.893832 0.893832 0.893832 0.893832 0.893832 0.893832 0.893832 0.893832 0.893832 0.893832 0.893832 0.893832 0.893832 0.893832 0.893832 0.893832 0.893832 0.893832 0.893832 0.893832 0.893832 0.893832 0.893832 0.893832 0.893832 0.893832 0.893832 0.893832 0.893832 0.893832 0.893832 0.893832 0.893832 0.893832 0.893832 0.893832 0.893832 0.893832 0.893832 0.893832 0.893832 0.893832 0.893832 0.893832 0.893832 0.893832 0.893832 0.893832 0.893832 0.893832 0.893832 0.893832 0.893832 0.893832 0.893832 0.893832 0.893832 0.893832 0.893832 0.893832 0.893832 0.893832 0.893832 0.893832 0.893832 0.893832 0.893832 0.893832 0.893832 0.893832 0.893832 0.893832 0.893832 0.893832 0.893832 0.893832 0.893832 0.893832 0.893832 0.893832 0.893832 0.893832 0.893832 0.893832 0.893832 0.893832 0.893832 0.893832 0.893832 0.893832 0.893832 0.893832 0.893832 0.893832 0.893832 0.893832 0.893832 0.893832 0.893832 0.893832 0.893832 0.893832 0.893832 0.893832 0.893832 0.893832 0.893832 0.893832 0.893832 0.893832 0.893832 0.893832 0.893832 0.893832 0.893832 0.893832 0.893832 0.893832 0.893832 0.893832 0.893832 0.893832 0.893832 0.893832 0.893832 0.893832 0.893832 0.893832 0.893832 0.893832 0.893832 0.893832 0.893832 0.893832 0.893832 0.893832 0.893832 0.893832 0.893832 0.893832 0.893832 0.893832 0.893832 0.893832 0.893832 0.893832 0.893832 0.893832 0.893832 0.893832 0.893832 0.893832 0.893832 0.893832 0.893832 0.893832 0.893832 0.893832 0.893832 0.893832 0.893832 0.893832 0.893832 0.893832 0.893832 0.893832 0.893832 0.893832 0.893832 0.893832 0.893832 0.893832 0.893832 0.893832 0.893832 0.893832 0.893832 0.893832 0.893832 0.893832 0.893832 0.893832 0.893832 0.893832 0.893832 0.893832 0.893832 0.893832 0.893832 0.893832 0.893832 0.893832 0.893832 0.893832 0.893832 0.893832 0.893832 0.893832 0.893832 0.893832 0.893832 0.893832 0.893832 0.893832 0.893832 0.893832 0.893832 0.893832 0.893832 0.893832 0.893832 0.893832 0.893832 0.893832 0.893832 0.893832 0.893832 0.893832 0.893832 0.893832 0.893832 0.893832 0.893832 0.893832 0.893832 0.893832 0.893832 0.893832 0.893832 0.893832 0.893832 0.893832 0.893832 0.893832 0.893832 0.893832 0.893832 0.893832 0.893832 0.893832 0.893832 0.893832 0.893832 0.893832 0.893832 0.893832 0.893832 0.893832 0.893832 0.893832 0.893832 0.893832 0.893832 0.893832 0.893832 0.893832 0.893832 0.893832 0.893832 0.893832 0.893832 0.893832 0.893832 0.893832 0.893832 0.893832 0.893832 0.893832 0.893832 0.893832 0.893832 0.893832 0.893832 0.893832 0.893832 0.893832 0.893832 0.893832 0.893832 0.893832 0.893832 0.893832 0.893832 0.893832 0.893832 0.893832 0.893832 0.893832 0.893832 0.893832 0.893832 0.893832 0.893832 0.893832 0.893832 0.893832 0.893832 0.893832 0.893832 0.893832 0.893832 0.893832 0.893832 0.893832 0.893832 0.893832 0.893832 0.893832 0.893832 0.893832 0.893832 0.893832 0.893832 0.893832 0.893832 0.893832 0.893832 0.893832 0.893832 0.893832 0.893832 0.893832 0.893832 0.893832 0.893832 0.893832 0.893832 0.893832 0.893832 0.893832 0.893832 0.893832 0.893832 0.893832 0.893832 0.893832 0.893832 0.893832 0.893832 0.893832 0.893832 0.893832 0.893832 0.893832 0.893832 0.893832 0.893832 0.893832 0.893832 0.893832 0.893832 0.893832 0.893832 0.893832 0.893832 0.893832 0.893832 0.893832 0.893832 0.893832 0.893832 0.893832 0.893832 0.893832 0.893832 0.893832 0.893832 0.893832 0.893832 0.893832 0.893832 0.893832 0.893832 0.893832 0.893832 0.893832 0.893832 0.893832 0.893832 0.893832 0.893832 0.893832 0.893832 0.893832 0.893832 0.893832 0.893832 0.893832 0.893832 0.893832 0.893832 0.893832 0.893832 0.893832 0.893832 0.893832 0.893832 0.893832 0.893832 0.893832 0.893832 0.893832 0.893832 0.893832 0.893832 0.893832 0.893832 0.893832 0.893832 0.893832 0.893832 0.893832 0.893832 0.893832 0.893832 0.893832 0.893832 0.893832 0.893832 0.893832 0.893832 0.893832 0.893832 0.893832 0.893832 0.893832 0.893832 0.893832 0.893832 0.893832 0.893832 0.893832 0.893832 0.893832 0.893832 0.893832 0.893832 0.893832 0.893832 0.893832 0.893832 0.893832 0.893832 0.893832 0.893832 0.893832 0.893832 0.893832 0.893832 0.893832 0.893832 0.893832 0.893832 0.893832 0.893832 0.893832 0.893832 0.893832 0.893832 0.893832 0.893832 0.893832 0.893832 0.893832 0.893832 0.893832 0.893832 0.893832 0.893832 0.893832 0.893832 0.893832 0.893832 0.893832 0.893832 0.893832 0.893832 0.893832 0.893832 0.893832 0.893832 0.893832 0.893832 0.893832 0.893832 0.893832 0.893832 0.893832 0.893832 0.893832 0.893832 0.893832 0.893832 0.893832 0.893832 0.893832 0.893832 0.893832 0.893832 0.893832 0.893832 0.893832 0.893832 0.893832 0.893832 0.893832 0.893832 0.893832 0.893832 0.893832 0.893832 0.893832 0.893832 0.893832 0.893832 0.893832 0.893832 0.893832 0.893832 0.893832 0.893832 0.893832 0.893832 0.893832 0.893832 0.893832 0.893832 0.893832 0.893832 0.893832 0.893832 0.893832 0.893832 0.893832 0.893832 0.893832 0.893832 0.893832 0.893832 0.893832 0.893832 0.893832 0.893832 0.893832 0.893832 0.893832 0.893832 0.893832 0.893832 0.893832 0.893832 0.893832 0.893832 0.893832 0.893832 0.893832 0.893832 0.893832 0.893832 0.893832 0.893832 0.893832 0.893832 0.893832 0.893832 0.893832 0.893832 0.893832 0.893832 0.893832 0.893832 0.893832 0.893832 0.893832 0.893832 0.893832 0.893832 0.893832 0.893832 0.893832 0.893832 0.893832 0.893832 0.893832 0.893832 0.893832 0.893832 0.893832 0.893832 0.893832 0.893832 0.893832 0.893832 0.893832 0.893832 0.893832 0.893832 0.893832 0.893832 0.893832 0.893832 0.893832 0.893832 0.893832 0.893832 0.893832 0.893832 0.893832 0.893832 0.893832 0.893832 0.893832 0.893832 0.893832 0.893832 0.893832 0.893832 0.893832 0.893832 0.893832 0.893832 0.893832 0.893832 0.893832 0.893832 0.893832 0.893832 0.893832 0.893832 0.893832 0.893832 0.893832 0.893832 0.893832 0.893832 0.893832 0.893832 0.893832 0.893832 0.893832 0.893832 0.893832 0.893832 0.893832 0.893832 0.893832 0.893832 0.893832 0.893832 0.893832 0.893832 0.893832 0.893832 0.893832 0.893832 0.893832 0.893832 0.893832 0.893832 0.893832 0.893832 0.893832 0.893832 0.893832 0.893832 0.893832 0.893832 0.893832 0.893832 0.893832 0.893832 0.893832 0.893832 0.893832 0.893832 0.893832 0.893832 0.893832 0.893832 0.893832 0.893832 0.893832 0.893832 0.893832 0.893832 0.893832 0.893832 0.893832 0.893832 0.893832 0.893832 0.893832 0.893832 0.893832 0.893832 0.893832 0.893832 0.893832 0.893832 0.893832 0.893832 0.893832 0.893832 0.893832 0.893832 0.893832 0.893832 0.893832 0.893832 0.893832 0.893832 0.893832 0.893832 0.893832 0.893832 0.893832 0.893832 0.893832 0.893832 0.893832 0.893832 0.893832 0.893832 0.893832 0.893832 0.893832 0.893832 0.893832 0.893832 0.893832 0.893832 0.893832 0.893832 0.893832 0.893832 0.893832 0.893832 0.893832 0.893832 0.893832 0.893832 0.893832 0.893832 0.893832 0.893832 0.893832 0.893832 0.893832 0.893832 0.893832 0.893832 0.893832 0.893832 0.893832 0.893832 0.893832 0.893832 0.893832 0.893832 0.893832 0.893832 0.893832 0.893832 0.893832 0.893832 0.893832 0.893832 0.893832 0.893832 0.893832 0.893832 0.893832 0.893832 0.893832 0.893832 0.893832 0.893832 0.893832 0.893832 0.893832 0.893832 0.893832 0.893832 0.893832 0.893832 0.893832 0.893832 0.893832 0.893832 0.893832 0.893832 0.893832 0.893832 0.893832 0.893832 0.893832 0.893832 0.893832 0.893832 0.893832 0.893832 0.893832 0.893832 0.893832 0.893832 0.893832 0.893832 0.893832 0.893832 0.893832 0.893832 0.893832 0.893832 0.893832 0.893832 0.893832 0.893832 0.893832 0.893832 0.893832 0.893832 0.893832 0.893832 0.893832 0.893832 0.893832 0.893832 0.893832 0.893832 0.893832 0.893832 0.893832 0.893832 0.893832 0.893832 0.893832 0.893832 0.893832 0.893832 0.893832 0.893832 0.893832 0.893832 0.893832 0.893832 0.893832 0.893832 0.893832 0.893832 0.893832 0.893832 0.893832 0.893832 0.893832 0.893832 0.893832 0.893832 0.893832 0.893832 0.893832 0.893832 0.893832 0.893832 0.893832 0.893832 0.893832 0.893832 0.893832 0.893832 0.893832 0.893832 0.893832 0.893832 0.893832 0.893832 0.893832 0.893832 0.893832 0.893832 0.893832 0.893832 0.893832 0.893832 0.893832 0.893832 0.893832 0.893832 0.893832 0.893832 0.893832 0.893832 0.893832 0.893832 0.893832 0.893832 0.893832 0.893832 0.893832 0.893832 0.893832 0.893832 0.893832 0.893832 0.893832 0.893832 0.893832 0.893832 0.893832 0.893832 0.893832 0.893832 0.893832 0.893832 0.893832 0.893832 0.893832 0.893832 0.893832 0.893832 0.893832 0.893832 0.893832 0.893832 0.893832 0.893832 0.893832 0.893832 0.893832 0.893832 0.893832 0.893832 0.893832 0.893832 0.893832 0.893832 0.893832 0.893832 0.893832 0.893832 0.893832 0.893832 0.893832 0.893832 0.893832 0.893832 0.893832 0.893832 0.893832 0.893832 0.893832 0.893832 0.893832 0.893832 0.893832 0.893832 0.893832 0.893832 0.893832 0.893832 0.893832 0.893832 0.893832 0.893832 0.893832 0.893832 0.893832 0.893832 0.893832 0.893832 0.893832 0.893832 0.893832 0.893832 0.893832 0.893832 0.893832 0.893832 0.893832 0.893832 0.893832 0.893832 0.893832 0.893832 0.893832 0.893832 0.893832 0.893832 0.893832 0.893832 0.893832 0.893832 0.893832 0.893832 0.893832 0.893832 0.893832 0.893832 0.893832 0.893832 0.893832 0.893832 0.893832 0.893832 0.893832 0.893832 0.893832 0.893832 0.893832 0.893832 0.893832 0.893832 0.893832 0.893832 0.893832 0.893832 0.893832 0.893832 0.893832 0.893832 0.893832 0.893832 0.893832 0.893832 0.893832 0.893832 0.893832 0.893832 0.893832 0.893832 0.893832 0.893832 0.893832 0.893832 0.893832 0.893832 0.893832 0.893832 0.893832 0.893832 0.893832 0.893832 0.893832 0.893832 0.893832 0.893832 0.893832 0.893832 0.893832 0.893832 0.893832 0.893832 0.893832 0.893832 0.893832 0.893832 0.893832 0.893832 0.893832 0.893832 0.893832 0.893832 0.893832 0.893832 0.893832 0.893832 0.893832 0.893832 0.893832 0.893832 0.893832 0.893832 0.893832 0.893832 0.893832 0.893832 0.893832 0.893832 0.893832 0.893832 0.893832 0.893832 0.893832 0.893832 0.893832 0.893832 0.893832 0.893832 0.893832 0.893832 0.893832 0.893832 0.893832 0.893832 0.893832 0.893832 0.893832 0.893832 0.893832 0.893832 0.893832 0.893832 0.893832 0.893832 0.893832 0.893832 0.893832 0.893832 0.893832 0.893832 0.893832 0.893832 0.893832 0.893832 0.893832 0.893832 0.893832 0.893832 0.893832 0.893832 0.893832 0.893832 0.893832 0.893832 0.893832 0.893832 0.893832 0.893832 0.893832 0.893832 0.893832 0.893832 0.893832 0.893832 0.893832 0.893832 0.893832 0.893832 0.893832 0.893832 0.893832 0.893832 0.893832 0.893832 0.893832 0.893832 0.893832 0.893832 0.893832 0.893832 0.893832 0.893832 0.893832 0.893832 0.893832 0.893832 0.893832 0.893832 0.893832 0.893832 0.893832 0.893832 0.893832 0.893832 0.893832 0.893832 0.893832 0.893832 0.893832 0.893832 0.893832 0.893832 0.893832 0.893832 0.893832 0.893832 0.893832 0.893832 0.893832 0.893832 0.893832 0.893832 0.893832 0.893832 0.893832 0.893832 0.893832 0.893832 0.893832 0.893832 0.893832 0.893832 0.893832 0.893832 0.893832 0.893832 0.893832 0.893832 0.893832 0.893832 0.893832 0.893832 0.893832 0.893832 0.893832 0.893832 0.893832 0.893832 0.893832 0.893832 0.893832 0.893832 0.893832 0.893832 0.893832 0.893832 0.893832 0.893832 0.893832 0.893832 0.893832 0.893832 0.893832 0.893832 0.893832 0.893832 0.893832 0.893832 0.893832 0.893832 0.893832 0.893832 0.893832 0.893832 0.893832 0.893832 0.893832 0.893832 0.893832 0.893832 0.893832 0.893832 0.893832 0.893832 0.893832 0.893832 0.893832 0.893832 0.893832 0.893832 0.893832 0.893832 0.893832 0.893832 0.893832 0.893832 0.893832 0.893832 0.893832 0.893832 0.893832 0.893832 0.893832 0.893832 0.893832 0.893832 0.893832 0.893832 0.893832 0.893832 0.893832 0.893832 0.893832 0.893832 0.893832 0.893832 0.893832 0.893832 0.893832 0.893832 0.893832 0.893832 0.893832 0.893832 0.893832 0.893832 0.893832 0.893832 0.893832 0.893832 0.893832 0.893832 0.893832 0.893832 0.893832 0.893832 0.893832 0.893832 0.893832 0.893832 0.893832 0.893832 0.893832 0.893832 0.893832 0.893832 0.893832 0.893832 0.893832 0.893832 0.893832 0.893832 0.893832 0.893832 0.893832 0.893832 0.893832 0.893832 0.893832 0.893832 0.893832 0.893832 0.893832 0.893832 0.893832 0.893832 0.893832 0.893832 0.893832 0.893832 0.893832 0.893832 0.893832 0.893832 0.893832 0.893832 0.893832 0.893832 0.893832 0.893832 0.893832 0.893832 0.893832 0.893832 0.893832 0.893832 0.893832 0.893832 0.893832 0.893832 0.893832 0.893832 0.893832 0.893832 0.893832 0.893832 0.893832 0.893832 0.893832 0.893832 0.893832 0.893832 0.893832 0.893832 0.893832 0.893832 0.893832 0.893832 0.893832 0.893832 0.893832 0.893832 0.893832 0.893832 0.893832 0.893832 0.893832 0.893832 0.893832 0.893832 0.893832 0.893832 0.893832 0.893832 0.893832 0.893832 0.893832 0.893832 0.893832 0.893832 0.893832 0.893832 0.893832 0.893832 0.893832 0.893832 0.893832 0.893832 0.893832 0.893832 0.893832 0.893832 0.893832 0.893832 0.893832 0.893832 0.893832 0.893832 0.893832 0.893832 0.893832 0.893832 0.893832 0.893832 0.893832 0.893832 0.893832 0.893832 0.893832 0.893832 0.893832 0.893832 0.893832 0.893832 0.893832 0.893832 0.893832 0.893832 0.893832 0.893832 0.893832 0.893832 0.893832 0.893832 0.893832 0.893832 0.893832 0.893832 0.893832 0.893832 0.893832 0.893832 0.893832 0.893832 0.893832 0.893832 0.893832 0.893832 0.893832 0.893832 0.893832 0.893832 0.893832 0.893832 0.893832 0.893832 0.893832 0.893832 0.893832 0.893832 0.893832 0.893832 0.893832 0.893832 0.893832 0.893832 0.893832 0.893832 0.893832 0.893832 0.893832 0.893832 0.893832 0.893832 0.893832 0.893832 0.893832 0.893832 0.893832 0.893832 0.893832 0.893832 0.893832 0.893832 0.893832 0.893832 0.893832 0.893832 0.893832 0.893832 0.893832 0.893832 0.893832 0.893832 0.893832 0.893832 0.893832 0.893832 0.893832 0.893832 0.893832 0.893832 0.893832 0.893832 0.893832 0.893832 0.893832 0.893832 0.893832 0.893832 0.893832 0.893832 0.893832 0.893832 0.893832 0.893832 0.893832 0.893832 0.893832 0.893832 0.893832 0.893832 0.893832 0.893832 0.893832 0.893832 0.893832 0.893832 0.893832 0.893832 0.893832 0.893832 0.893832 0.893832 0.893832 0.893832 0.893832 0.893832 0.893832 0.893832 0.893832 0.893832 0.893832 0.893832 0.893832 0.893832 0.893832 0.893832 0.893832 0.893832 0.893832 0.893832 0.893832 0.893832 0.893832 0.893832 0.893832 0.893832 0.893832 0.893832 0.893832 0.893832 0.893832 0.893832 0.893832 0.893832 0.893832 0.893832 0.893832 0.893832 0.893832 0.893832 0.893832 0.893832 0.893832 0.893832 0.893832 0.893832 0.893832 0.893832 0.893832 0.893832 0.893832 0.893832 0.893832 0.893832 0.893832 0.893832 0.893832 0.893832 0.893832 0.893832 0.893832 0.893832 0.893832 0.893832 0.893832 0.893832 0.893832 0.893832 0.893832 0.893832 0.893832 0.893832 0.893832 0.893832 0.893832 0.893832 0.893832 0.893832 0.893832 0.893832 0.893832 0.893832 0.893832 0.893832 0.893832 0.893832 0.893832 
SCALARS Axial_Stress float 1
LOOKUP_TABLE default
-257529000000.0 -289071000000.0 -289508000000.0 -280796000000.0 -268622000000.0 -248225000000.0 -222477000000.0 -194139000000.0 -165420000000.0 -138075000000.0 -113037000000.0 -90888000000.0 -72018600000.0 -56297700000.0 -43426400000.0 -33313800000.0 -25657000000.0 -19868200000.0 -15533400000.0 -12515200000.0 -10670700000.0 -9706280000.0 -9276190000.0 -9111540000.0 -9056890000.0 -9041000000.0 -9036920000.0 -9035990000.0 -9035800000.0 -9035760000.0 -9035750000.0 -9035750000.0 -9035750000.0 -9035750000.0 -9035750000.0 -9035750000.0 -9035750000.0 -9035750000.0 -9035750000.0 -9035750000.0 -9035750000.0 -9035750000.0 -9035750000.0 -9035750000.0 -9035750000.0 -9035760000.0 -9035800000.0 -9035990000.0 -9036920000.0 -9041000000.0 -9056890000.0 -9111540000.0 -9276190000.0 -9706280000.0 -10670700000.0 -12515200000.0 -15533400000.0 -19868200000.0 -25657000000.0 -33313800000.0 -43426400000.0 -56297700000.0 -72018600000.0 -90888000000.0 -113037000000.0 -138075000000.0 -165420000000.0 -194139000000.0 -222477000000.0 -248225000000.0 -268622000000.0 -280796000000.0 -289508000000.0 -289071000000.0 -257529000000.0 -247746000000.0 -11833200000.0 -24339500000.0 -9036080000.0 -9036660000.0 -9038170000.0 -9061270000.0 -9086480000.0 -9146000000.0 -9219630000.0 -9224130000.0 -9195500000.0 -9153720000.0 -9114150000.0 -9084390000.0 -9063580000.0 -9049510000.0 -9041240000.0 -9037440000.0 -9036140000.0 -9035820000.0 -9035760000.0 -9035750000.0 -9035750000.0 -9035750000.0 -9035750000.0 -9035750000.0 -9035750000.0 -9035750000.0 -9035750000.0 -9035750000.0 -9035750000.0 -9035750000.0 -9035750000.0 -9035750000.0 -9035750000.0 -9035750000.0 -9035750000.0 -9035750000.0 -9035750000.0 -9035750000.0 -9035750000.0 -9035750000.0 -9035750000.0 -9035750000.0 -9035750000.0 -9035750000.0 -9035750000.0 -9035750000.0 -9035750000.0 -9035750000.0 -9035750000.0 -9035750000.0 -9035760000.0 -9035820000.0 -9036140000.0 -9037440000.0 -9041240000.0 -9049510000.0 -9063580000.0 -9084390000.0 -9114150000.0 -9153720000.0 -9195500000.0 -9224130000.0 -9219630000.0 -9146000000.0 -9086480000.0 -9061270000.0 -9038170000.0 -9036660000.0 -9036080000.0 -24339500000.0 -11833200000.0 -247746000000.0 -299100000000.0 -82716600000.0 -80251300000.0 -59089500000.0 -47735200000.0 -37492900000.0 -28838300000.0 -22066500000.0 -17270700000.0 -13939700000.0 -11647800000.0 -10231100000.0 -9505650000.0 -9202060000.0 -9093150000.0 -9055880000.0 -9042500000.0 -9037700000.0 -9036210000.0 -9035830000.0 -9035760000.0 -9035750000.0 -9035750000.0 -9035750000.0 -9035750000.0 -9035750000.0 -9035750000.0 -9035750000.0 -9035750000.0 -9035750000.0 -9035750000.0 -9035750000.0 -9035750000.0 -9035750000.0 -9035750000.0 -9035750000.0 -9035750000.0 -9035750000.0 -9035750000.0 -9035750000.0 -9035750000.0 -9035750000.0 -9035750000.0 -9035750000.0 -9035750000.0 -9035750000.0 -9035750000.0 -9035750000.0 -9035750000.0 -9035750000.0 -9035750000.0 -9035750000.0 -9035750000.0 -9035750000.0 -9035760000.0 -9035830000.0 -9036210000.0 -9037700000.0 -9042500000.0 -9055880000.0 -9093150000.0 -9202060000.0 -9505650000.0 -10231100000.0 -11647800000.0 -13939700000.0 -17270700000.0 -22066500000.0 -28838300000.0 -37492900000.0 -47735200000.0 -59089500000.0 -80251300000.0 -82716600000.0 -299100000000.0 -278923000000.0 -9060080000.0 -16024700000.0 -9296350000.0 -9288800000.0 -9263790000.0 -9263330000.0 -9274730000.0 -9258040000.0 -9215520000.0 -9165700000.0 -9121370000.0 -9088210000.0 -9065290000.0 -9050280000.0 -9041650000.0 -9037650000.0 -9036230000.0 -9035840000.0 -9035770000.0 -9035750000.0 -9035750000.0 -9035750000.0 -9035750000.0 -9035750000.0 -9035750000.0 -9035750000.0 -9035750000.0 -9035750000.0 -9035750000.0 -9035750000.0 -9035750000.0 -9035750000.0 -9035750000.0 -9035750000.0 -9035750000.0 -9035750000.0 -9035750000.0 -9035750000.0 -9035750000.0 -9035750000.0 -9035750000.0 -9035750000.0 -9035750000.0 -9035750000.0 -9035750000.0 -9035750000.0 -9035750000.0 -9035750000.0 -9035750000.0 -9035750000.0 -9035750000.0 -9035750000.0 -9035750000.0 -9035750000.0 -9035770000.0 -9035840000.0 -9036230000.0 -9037650000.0 -9041650000.0 -9050280000.0 -9065290000.0 -9088210000.0 -9121370000.0 -9165700000.0 -9215520000.0 -9258040000.0 -9274730000.0 -9263330000.0 -9263790000.0 -9288800000.0 -9296350000.0 -16024700000.0 -9060080000.0 -278923000000.0 -272463000000.0 -9038840000.0 -13714100000.0 -9388460000.0 -9356790000.0 -9324620000.0 -9307900000.0 -9277010000.0 -9227010000.0 -9172590000.0 -9125420000.0 -9090340000.0 -9066260000.0 -9050720000.0 -9041880000.0 -9037760000.0 -9036270000.0 -9035860000.0 -9035770000.0 -9035750000.0 -9035750000.0 -9035750000.0 -9035750000.0 -9035750000.0 -9035750000.0 -9035750000.0 -9035750000.0 -9035750000.0 -9035750000.0 -9035750000.0 -9035750000.0 -9035750000.0 -9035750000.0 -9035750000.0 -9035750000.0 -9035750000.0 -9035750000.0 -9035750000.0 -9035750000.0 -9035750000.0 -9035750000.0 -9035750000.0 -9035750000.0 -9035750000.0 -9035750000.0 -9035750000.0 -9035750000.0 -9035750000.0 -9035750000.0 -9035750000.0 -9035750000.0 -9035750000.0 -9035750000.0 -9035750000.0 -9035750000.0 -9035750000.0 -9035770000.0 -9035860000.0 -9036270000.0 -9037760000.0 -9041880000.0 -9050720000.0 -9066260000.0 -9090340000.0 -9125420000.0 -9172590000.0 -9227010000.0 -9277010000.0 -9307900000.0 -9324620000.0 -9356790000.0 -9388460000.0 -13714100000.0 -9038840000.0 -272463000000.0 -249223000000.0 -9040560000.0 -12163600000.0 -9438980000.0 -9392160000.0 -9346210000.0 -9298500000.0 -9239850000.0 -9180220000.0 -9129830000.0 -9092650000.0 -9067340000.0 -9051210000.0 -9042120000.0 -9037880000.0 -9036320000.0 -9035870000.0 -9035770000.0 -9035760000.0 -9035750000.0 -9035750000.0 -9035750000.0 -9035750000.0 -9035750000.0 -9035750000.0 -9035750000.0 -9035750000.0 -9035750000.0 -9035750000.0 -9035750000.0 -9035750000.0 -9035750000.0 -9035750000.0 -9035750000.0 -9035750000.0 -9035750000.0 -9035750000.0 -9035750000.0 -9035750000.0 -9035750000.0 -9035750000.0 -9035750000.0 -9035750000.0 -9035750000.0 -9035750000.0 -9035750000.0 -9035750000.0 -9035750000.0 -9035750000.0 -9035750000.0 -9035750000.0 -9035750000.0 -9035750000.0 -9035750000.0 -9035750000.0 -9035750000.0 -9035760000.0 -9035770000.0 -9035870000.0 -9036320000.0 -9037880000.0 -9042120000.0 -9051210000.0 -9067340000.0 -9092650000.0 -9129830000.0 -9180220000.0 -9239850000.0 -9298500000.0 -9346210000.0 -9392160000.0 -9438980000.0 -12163600000.0 -9040560000.0 -249223000000.0 -216406000000.0 -9041870000.0 -11130500000.0 -9450140000.0 -9390300000.0 -9323050000.0 -9254220000.0 -9188680000.0 -9134650000.0 -9095170000.0 -9068520000.0 -9051750000.0 -9042380000.0 -9038010000.0 -9036370000.0 -9035890000.0 -9035780000.0 -9035760000.0 -9035750000.0 -9035750000.0 -9035750000.0 -9035750000.0 -9035750000.0 -9035750000.0 -9035750000.0 -9035750000.0 -9035750000.0 -9035750000.0 -9035750000.0 -9035750000.0 -9035750000.0 -9035750000.0 -9035750000.0 -9035750000.0 -9035750000.0 -9035750000.0 -9035750000.0 -9035750000.0 -9035750000.0 -9035750000.0 -9035750000.0 -9035750000.0 -9035750000.0 -9035750000.0 -9035750000.0 -9035750000.0 -9035750000.0 -9035750000.0 -9035750000.0 -9035750000.0 -9035750000.0 -9035750000.0 -9035750000.0 -9035750000.0 -9035750000.0 -9035750000.0 -9035750000.0 -9035760000.0 -9035780000.0 -9035890000.0 -9036370000.0 -9038010000.0 -9042380000.0 -9051750000.0 -9068520000.0 -9095170000.0 -9134650000.0 -9188680000.0 -9254220000.0 -9323050000.0 -9390300000.0 -9450140000.0 -11130500000.0 -9041870000.0 -216406000000.0 -179654000000.0 -9042710000.0 -10445000000.0 -9427540000.0 -9351380000.0 -9270380000.0 -9198080000.0 -9139940000.0 -9097920000.0 -9069820000.0 -9052350000.0 -9042670000.0 -9038140000.0 -9036420000.0 -9035900000.0 -9035780000.0 -9035760000.0 -9035750000.0 -9035750000.0 -9035750000.0 -9035750000.0 -9035750000.0 -9035750000.0 -9035750000.0 -9035750000.0 -9035750000.0 -9035750000.0 -9035750000.0 -9035750000.0 -9035750000.0 -9035750000.0 -9035750000.0 -9035750000.0 -9035750000.0 -9035750000.0 -9035750000.0 -9035750000.0 -9035750000.0 -9035750000.0 -9035750000.0 -9035750000.0 -9035750000.0 -9035750000.0 -9035750000.0 -9035750000.0 -9035750000.0 -9035750000.0 -9035750000.0 -9035750000.0 -9035750000.0 -9035750000.0 -9035750000.0 -9035750000.0 -9035750000.0 -9035750000.0 -9035750000.0 -9035750000.0 -9035750000.0 -9035760000.0 -9035780000.0 -9035900000.0 -9036420000.0 -9038140000.0 -9042670000.0 -9052350000.0 -9069820000.0 -9097920000.0 -9139940000.0 -9198080000.0 -9270380000.0 -9351380000.0 -9427540000.0 -10445000000.0 -9042710000.0 -179654000000.0 -143187000000.0 -9043050000.0 -9985820000.0 -9375810000.0 -9288780000.0 -9208570000.0 -9145790000.0 -9100950000.0 -9071260000.0 -9053010000.0 -9042980000.0 -9038280000.0 -9036480000.0 -9035920000.0 -9035780000.0 -9035760000.0 -9035750000.0 -9035750000.0 -9035750000.0 -9035750000.0 -9035750000.0 -9035750000.0 -9035750000.0 -9035750000.0 -9035750000.0 -9035750000.0 -9035750000.0 -9035750000.0 -9035750000.0 -9035750000.0 -9035750000.0 -9035750000.0 -9035750000.0 -9035750000.0 -9035750000.0 -9035750000.0 -9035750000.0 -9035750000.0 -9035750000.0 -9035750000.0 -9035750000.0 -9035750000.0 -9035750000.0 -9035750000.0 -9035750000.0 -9035750000.0 -9035750000.0 -9035750000.0 -9035750000.0 -9035750000.0 -9035750000.0 -9035750000.0 -9035750000.0 -9035750000.0 -9035750000.0 -9035750000.0 -9035750000.0 -9035750000.0 -9035750000.0 -9035760000.0 -9035780000.0 -9035920000.0 -9036480000.0 -9038280000.0 -9042980000.0 -9053010000.0 -9071260000.0 -9100950000.0 -9145790000.0 -9208570000.0 -9288780000.0 -9375810000.0 -9985820000.0 -9043050000.0 -143187000000.0 -109940000000.0 -9042900000.0 -9672870000.0 -9305620000.0 -9220390000.0 -9152280000.0 -9104300000.0 -9072860000.0 -9053740000.0 -9043310000.0 -9038430000.0 -9036540000.0 -9035940000.0 -9035790000.0 -9035760000.0 -9035750000.0 -9035750000.0 -9035750000.0 -9035750000.0 -9035750000.0 -9035750000.0 -9035750000.0 -9035750000.0 -9035750000.0 -9035750000.0 -9035750000.0 -9035750000.0 -9035750000.0 -9035750000.0 -9035750000.0 -9035750000.0 -9035750000.0 -9035750000.0 -9035750000.0 -9035750000.0 -9035750000.0 -9035750000.0 -9035750000.0 -9035750000.0 -9035750000.0 -9035750000.0 -9035750000.0 -9035750000.0 -9035750000.0 -9035750000.0 -9035750000.0 -9035750000.0 -9035750000.0 -9035750000.0 -9035750000.0 -9035750000.0 -9035750000.0 -9035750000.0 -9035750000.0 -9035750000.0 -9035750000.0 -9035750000.0 -9035750000.0 -9035750000.0 -9035750000.0 -9035760000.0 -9035790000.0 -9035940000.0 -9036540000.0 -9038430000.0 -9043310000.0 -9053740000.0 -9072860000.0 -9104300000.0 -9152280000.0 -9220390000.0 -9305620000.0 -9672870000.0 -9042900000.0 -109940000000.0 -81639600000.0 -9042340000.0 -9456110000.0 -9231940000.0 -9159560000.0 -9108030000.0 -9074640000.0 -9054560000.0 -9043680000.0 -9038590000.0 -9036600000.0 -9035960000.0 -9035790000.0 -9035760000.0 -9035750000.0 -9035750000.0 -9035750000.0 -9035750000.0 -9035750000.0 -9035750000.0 -9035750000.0 -9035750000.0 -9035750000.0 -9035750000.0 -9035750000.0 -9035750000.0 -9035750000.0 -9035750000.0 -9035750000.0 -9035750000.0 -9035750000.0 -9035750000.0 -9035750000.0 -9035750000.0 -9035750000.0 -9035750000.0 -9035750000.0 -9035750000.0 -9035750000.0 -9035750000.0 -9035750000.0 -9035750000.0 -9035750000.0 -9035750000.0 -9035750000.0 -9035750000.0 -9035750000.0 -9035750000.0 -9035750000.0 -9035750000.0 -9035750000.0 -9035750000.0 -9035750000.0 -9035750000.0 -9035750000.0 -9035750000.0 -9035750000.0 -9035750000.0 -9035750000.0 -9035750000.0 -9035750000.0 -9035760000.0 -9035790000.0 -9035960000.0 -9036600000.0 -9038590000.0 -9043680000.0 -9054560000.0 -9074640000.0 -9108030000.0 -9159560000.0 -9231940000.0 -9456110000.0 -9042340000.0 -81639600000.0 -58983800000.0 -9041510000.0 -9305220000.0 -9167050000.0 -9112230000.0 -9076640000.0 -9055470000.0 -9044090000.0 -9038770000.0 -9036670000.0 -9035980000.0 -9035800000.0 -9035760000.0 -9035750000.0 -9035750000.0 -9035750000.0 -9035750000.0 -9035750000.0 -9035750000.0 -9035750000.0 -9035750000.0 -9035750000.0 -9035750000.0 -9035750000.0 -9035750000.0 -9035750000.0 -9035750000.0 -9035750000.0 -9035750000.0 -9035750000.0 -9035750000.0 -9035750000.0 -9035750000.0 -9035750000.0 -9035750000.0 -9035750000.0 -9035750000.0 -9035750000.0 -9035750000.0 -9035750000.0 -9035750000.0 -9035750000.0 -9035750000.0 -9035750000.0 -9035750000.0 -9035750000.0 -9035750000.0 -9035750000.0 -9035750000.0 -9035750000.0 -9035750000.0 -9035750000.0 -9035750000.0 -9035750000.0 -9035750000.0 -9035750000.0 -9035750000.0 -9035750000.0 -9035750000.0 -9035750000.0 -9035750000.0 -9035750000.0 -9035760000.0 -9035800000.0 -9035980000.0 -9036670000.0 -9038770000.0 -9044090000.0 -9055470000.0 -9076640000.0 -9112230000.0 -9167050000.0 -9305220000.0 -9041510000.0 -58983800000.0 -41857100000.0 -9040490000.0 -9201600000.0 -9116730000.0 -9078910000.0 -9056510000.0 -9044550000.0 -9038960000.0 -9036740000.0 -9036010000.0 -9035810000.0 -9035760000.0 -9035750000.0 -9035750000.0 -9035750000.0 -9035750000.0 -9035750000.0 -9035750000.0 -9035750000.0 -9035750000.0 -9035750000.0 -9035750000.0 -9035750000.0 -9035750000.0 -9035750000.0 -9035750000.0 -9035750000.0 -9035750000.0 -9035750000.0 -9035750000.0 -9035750000.0 -9035750000.0 -9035750000.0 -9035750000.0 -9035750000.0 -9035750000.0 -9035750000.0 -9035750000.0 -9035750000.0 -9035750000.0 -9035750000.0 -9035750000.0 -9035750000.0 -9035750000.0 -9035750000.0 -9035750000.0 -9035750000.0 -9035750000.0 -9035750000.0 -9035750000.0 -9035750000.0 -9035750000.0 -9035750000.0 -9035750000.0 -9035750000.0 -9035750000.0 -9035750000.0 -9035750000.0 -9035750000.0 -9035750000.0 -9035750000.0 -9035750000.0 -9035750000.0 -9035760000.0 -9035810000.0 -9036010000.0 -9036740000.0 -9038960000.0 -9044550000.0 -9056510000.0 -9078910000.0 -9116730000.0 -9201600000.0 -9040490000.0 -41857100000.0 -29593300000.0 -9039420000.0 -9132550000.0 -9081440000.0 -9057690000.0 -9045060000.0 -9039180000.0 -9036820000.0 -9036030000.0 -9035810000.0 -9035760000.0 -9035750000.0 -9035750000.0 -9035750000.0 -9035750000.0 -9035750000.0 -9035750000.0 -9035750000.0 -9035750000.0 -9035750000.0 -9035750000.0 -9035750000.0 -9035750000.0 -9035750000.0 -9035750000.0 -9035750000.0 -9035750000.0 -9035750000.0 -9035750000.0 -9035750000.0 -9035750000.0 -9035750000.0 -9035750000.0 -9035750000.0 -9035750000.0 -9035750000.0 -9035750000.0 -9035750000.0 -9035750000.0 -9035750000.0 -9035750000.0 -9035750000.0 -9035750000.0 -9035750000.0 -9035750000.0 -9035750000.0 -9035750000.0 -9035750000.0 -9035750000.0 -9035750000.0 -9035750000.0 -9035750000.0 -9035750000.0 -9035750000.0 -9035750000.0 -9035750000.0 -9035750000.0 -9035750000.0 -9035750000.0 -9035750000.0 -9035750000.0 -9035750000.0 -9035750000.0 -9035750000.0 -9035760000.0 -9035810000.0 -9036030000.0 -9036820000.0 -9039180000.0 -9045060000.0 -9057690000.0 -9081440000.0 -9132550000.0 -9039420000.0 -29593300000.0 -21271500000.0 -9038410000.0 -9088510000.0 -9059030000.0 -9045650000.0 -9039420000.0 -9036910000.0 -9036060000.0 -9035820000.0 -9035770000.0 -9035750000.0 -9035750000.0 -9035750000.0 -9035750000.0 -9035750000.0 -9035750000.0 -9035750000.0 -9035750000.0 -9035750000.0 -9035750000.0 -9035750000.0 -9035750000.0 -9035750000.0 -9035750000.0 -9035750000.0 -9035750000.0 -9035750000.0 -9035750000.0 -9035750000.0 -9035750000.0 -9035750000.0 -9035750000.0 -9035750000.0 -9035750000.0 -9035750000.0 -9035750000.0 -9035750000.0 -9035750000.0 -9035750000.0 -9035750000.0 -9035750000.0 -9035750000.0 -9035750000.0 -9035750000.0 -9035750000.0 -9035750000.0 -9035750000.0 -9035750000.0 -9035750000.0 -9035750000.0 -9035750000.0 -9035750000.0 -9035750000.0 -9035750000.0 -9035750000.0 -9035750000.0 -9035750000.0 -9035750000.0 -9035750000.0 -9035750000.0 -9035750000.0 -9035750000.0 -9035750000.0 -9035750000.0 -9035750000.0 -9035770000.0 -9035820000.0 -9036060000.0 -9036910000.0 -9039420000.0 -9045650000.0 -9059030000.0 -9088510000.0 -9038410000.0 -21271500000.0 -15926700000.0 -9037530000.0 -9062130000.0 -9046330000.0 -9039690000.0 -9037010000.0 -9036100000.0 -9035830000.0 -9035770000.0 -9035760000.0 -9035750000.0 -9035750000.0 -9035750000.0 -9035750000.0 -9035750000.0 -9035750000.0 -9035750000.0 -9035750000.0 -9035750000.0 -9035750000.0 -9035750000.0 -9035750000.0 -9035750000.0 -9035750000.0 -9035750000.0 -9035750000.0 -9035750000.0 -9035750000.0 -9035750000.0 -9035750000.0 -9035750000.0 -9035750000.0 -9035750000.0 -9035750000.0 -9035750000.0 -9035750000.0 -9035750000.0 -9035750000.0 -9035750000.0 -9035750000.0 -9035750000.0 -9035750000.0 -9035750000.0 -9035750000.0 -9035750000.0 -9035750000.0 -9035750000.0 -9035750000.0 -9035750000.0 -9035750000.0 -9035750000.0 -9035750000.0 -9035750000.0 -9035750000.0 -9035750000.0 -9035750000.0 -9035750000.0 -9035750000.0 -9035750000.0 -9035750000.0 -9035750000.0 -9035750000.0 -9035750000.0 -9035750000.0 -9035750000.0 -9035760000.0 -9035770000.0 -9035830000.0 -9036100000.0 -9037010000.0 -9039690000.0 -9046330000.0 -9062130000.0 -9037530000.0 -15926700000.0 -12683000000.0 -9036830000.0 -9047660000.0 -9040010000.0 -9037130000.0 -9036130000.0 -9035840000.0 -9035770000.0 -9035760000.0 -9035750000.0 -9035750000.0 -9035750000.0 -9035750000.0 -9035750000.0 -9035750000.0 -9035750000.0 -9035750000.0 -9035750000.0 -9035750000.0 -9035750000.0 -9035750000.0 -9035750000.0 -9035750000.0 -9035750000.0 -9035750000.0 -9035750000.0 -9035750000.0 -9035750000.0 -9035750000.0 -9035750000.0 -9035750000.0 -9035750000.0 -9035750000.0 -9035750000.0 -9035750000.0 -9035750000.0 -9035750000.0 -9035750000.0 -9035750000.0 -9035750000.0 -9035750000.0 -9035750000.0 -9035750000.0 -9035750000.0 -9035750000.0 -9035750000.0 -9035750000.0 -9035750000.0 -9035750000.0 -9035750000.0 -9035750000.0 -9035750000.0 -9035750000.0 -9035750000.0 -9035750000.0 -9035750000.0 -9035750000.0 -9035750000.0 -9035750000.0 -9035750000.0 -9035750000.0 -9035750000.0 -9035750000.0 -9035750000.0 -9035750000.0 -9035750000.0 -9035760000.0 -9035770000.0 -9035840000.0 -9036130000.0 -9037130000.0 -9040010000.0 -9047660000.0 -9036830000.0 -12683000000.0 -10832400000.0 -9036330000.0 -9040560000.0 -9037260000.0 -9036180000.0 -9035850000.0 -9035770000.0 -9035760000.0 -9035750000.0 -9035750000.0 -9035750000.0 -9035750000.0 -9035750000.0 -9035750000.0 -9035750000.0 -9035750000.0 -9035750000.0 -9035750000.0 -9035750000.0 -9035750000.0 -9035750000.0 -9035750000.0 -9035750000.0 -9035750000.0 -9035750000.0 -9035750000.0 -9035750000.0 -9035750000.0 -9035750000.0 -9035750000.0 -9035750000.0 -9035750000.0 -9035750000.0 -9035750000.0 -9035750000.0 -9035750000.0 -9035750000.0 -9035750000.0 -9035750000.0 -9035750000.0 -9035750000.0 -9035750000.0 -9035750000.0 -9035750000.0 -9035750000.0 -9035750000.0 -9035750000.0 -9035750000.0 -9035750000.0 -9035750000.0 -9035750000.0 -9035750000.0 -9035750000.0 -9035750000.0 -9035750000.0 -9035750000.0 -9035750000.0 -9035750000.0 -9035750000.0 -9035750000.0 -9035750000.0 -9035750000.0 -9035750000.0 -9035750000.0 -9035750000.0 -9035750000.0 -9035750000.0 -9035760000.0 -9035770000.0 -9035850000.0 -9036180000.0 -9037260000.0 -9040560000.0 -9036330000.0 -10832400000.0 -9850470000.0 -9036020000.0 -9037480000.0 -9036230000.0 -9035870000.0 -9035780000.0 -9035760000.0 -9035750000.0 -9035750000.0 -9035750000.0 -9035750000.0 -9035750000.0 -9035750000.0 -9035750000.0 -9035750000.0 -9035750000.0 -9035750000.0 -9035750000.0 -9035750000.0 -9035750000.0 -9035750000.0 -9035750000.0 -9035750000.0 -9035750000.0 -9035750000.0 -9035750000.0 -9035750000.0 -9035750000.0 -9035750000.0 -9035750000.0 -9035750000.0 -9035750000.0 -9035750000.0 -9035750000.0 -9035750000.0 -9035750000.0 -9035750000.0 -9035750000.0 -9035750000.0 -9035750000.0 -9035750000.0 -9035750000.0 -9035750000.0 -9035750000.0 -9035750000.0 -9035750000.0 -9035750000.0 -9035750000.0 -9035750000.0 -9035750000.0 -9035750000.0 -9035750000.0 -9035750000.0 -9035750000.0 -9035750000.0 -9035750000.0 -9035750000.0 -9035750000.0 -9035750000.0 -9035750000.0 -9035750000.0 -9035750000.0 -9035750000.0 -9035750000.0 -9035750000.0 -9035750000.0 -9035750000.0 -9035750000.0 -9035760000.0 -9035780000.0 -9035870000.0 -9036230000.0 -9037480000.0 -9036020000.0 -9850470000.0 -9372540000.0 -9035860000.0 -9036300000.0 -9035890000.0 -9035780000.0 -9035760000.0 -9035750000.0 -9035750000.0 -9035750000.0 -9035750000.0 -9035750000.0 -9035750000.0 -9035750000.0 -9035750000.0 -9035750000.0 -9035750000.0 -9035750000.0 -9035750000.0 -9035750000.0 -9035750000.0 -9035750000.0 -9035750000.0 -9035750000.0 -9035750000.0 -9035750000.0 -9035750000.0 -9035750000.0 -9035750000.0 -9035750000.0 -9035750000.0 -9035750000.0 -9035750000.0 -9035750000.0 -9035750000.0 -9035750000.0 -9035750000.0 -9035750000.0 -9035750000.0 -9035750000.0 -9035750000.0 -9035750000.0 -9035750000.0 -9035750000.0 -9035750000.0 -9035750000.0 -9035750000.0 -9035750000.0 -9035750000.0 -9035750000.0 -9035750000.0 -9035750000.0 -9035750000.0 -9035750000.0 -9035750000.0 -9035750000.0 -9035750000.0 -9035750000.0 -9035750000.0 -9035750000.0 -9035750000.0 -9035750000.0 -9035750000.0 -9035750000.0 -9035750000.0 -9035750000.0 -9035750000.0 -9035750000.0 -9035750000.0 -9035750000.0 -9035760000.0 -9035780000.0 -9035890000.0 -9036300000.0 -9035860000.0 -9372540000.0 -9161800000.0 -9035790000.0 -9035910000.0 -9035790000.0 -9035760000.0 -9035750000.0 -9035750000.0 -9035750000.0 -9035750000.0 -9035750000.0 -9035750000.0 -9035750000.0 -9035750000.0 -9035750000.0 -9035750000.0 -9035750000.0 -9035750000.0 -9035750000.0 -9035750000.0 -9035750000.0 -9035750000.0 -9035750000.0 -9035750000.0 -9035750000.0 -9035750000.0 -9035750000.0 -9035750000.0 -9035750000.0 -9035750000.0 -9035750000.0 -9035750000.0 -9035750000.0 -9035750000.0 -9035750000.0 -9035750000.0 -9035750000.0 -9035750000.0 -9035750000.0 -9035750000.0 -9035750000.0 -9035750000.0 -9035750000.0 -9035750000.0 -9035750000.0 -9035750000.0 -9035750000.0 -9035750000.0 -9035750000.0 -9035750000.0 -9035750000.0 -9035750000.0 -9035750000.0 -9035750000.0 -9035750000.0 -9035750000.0 -9035750000.0 -9035750000.0 -9035750000.0 -9035750000.0 -9035750000.0 -9035750000.0 -9035750000.0 -9035750000.0 -9035750000.0 -9035750000.0 -9035750000.0 -9035750000.0 -9035750000.0 -9035750000.0 -9035750000.0 -9035760000.0 -9035790000.0 -9035910000.0 -9035790000.0 -9161800000.0 -9078310000.0 -9035760000.0 -9035790000.0 -9035760000.0 -9035750000.0 -9035750000.0 -9035750000.0 -9035750000.0 -9035750000.0 -9035750000.0 -9035750000.0 -9035750000.0 -9035750000.0 -9035750000.0 -9035750000.0 -9035750000.0 -9035750000.0 -9035750000.0 -9035750000.0 -9035750000.0 -9035750000.0 -9035750000.0 -9035750000.0 -9035750000.0 -9035750000.0 -9035750000.0 -9035750000.0 -9035750000.0 -9035750000.0 -9035750000.0 -9035750000.0 -9035750000.0 -9035750000.0 -9035750000.0 -9035750000.0 -9035750000.0 -9035750000.0 -9035750000.0 -9035750000.0 -9035750000.0 -9035750000.0 -9035750000.0 -9035750000.0 -9035750000.0 -9035750000.0 -9035750000.0 -9035750000.0 -9035750000.0 -9035750000.0 -9035750000.0 -9035750000.0 -9035750000.0 -9035750000.0 -9035750000.0 -9035750000.0 -9035750000.0 -9035750000.0 -9035750000.0 -9035750000.0 -9035750000.0 -9035750000.0 -9035750000.0 -9035750000.0 -9035750000.0 -9035750000.0 -9035750000.0 -9035750000.0 -9035750000.0 -9035750000.0 -9035750000.0 -9035750000.0 -9035760000.0 -9035790000.0 -9035760000.0 -9078310000.0 -9048710000.0 -9035760000.0 -9035760000.0 -9035750000.0 -9035750000.0 -9035750000.0 -9035750000.0 -9035750000.0 -9035750000.0 -9035750000.0 -9035750000.0 -9035750000.0 -9035750000.0 -9035750000.0 -9035750000.0 -9035750000.0 -9035750000.0 -9035750000.0 -9035750000.0 -9035750000.0 -9035750000.0 -9035750000.0 -9035750000.0 -9035750000.0 -9035750000.0 -9035750000.0 -9035750000.0 -9035750000.0 -9035750000.0 -9035750000.0 -9035750000.0 -9035750000.0 -9035750000.0 -9035750000.0 -9035750000.0 -9035750000.0 -9035750000.0 -9035750000.0 -9035750000.0 -9035750000.0 -9035750000.0 -9035750000.0 -9035750000.0 -9035750000.0 -9035750000.0 -9035750000.0 -9035750000.0 -9035750000.0 -9035750000.0 -9035750000.0 -9035750000.0 -9035750000.0 -9035750000.0 -9035750000.0 -9035750000.0 -9035750000.0 -9035750000.0 -9035750000.0 -9035750000.0 -9035750000.0 -9035750000.0 -9035750000.0 -9035750000.0 -9035750000.0 -9035750000.0 -9035750000.0 -9035750000.0 -9035750000.0 -9035750000.0 -9035750000.0 -9035750000.0 -9035750000.0 -9035760000.0 -9035760000.0 -9048710000.0 -9039310000.0 -9035750000.0 -9035750000.0 -9035750000.0 -9035750000.0 -9035750000.0 -9035750000.0 -9035750000.0 -9035750000.0 -9035750000.0 -9035750000.0 -9035750000.0 -9035750000.0 -9035750000.0 -9035750000.0 -9035750000.0 -9035750000.0 -9035750000.0 -9035750000.0 -9035750000.0 -9035750000.0 -9035750000.0 -9035750000.0 -9035750000.0 -9035750000.0 -9035750000.0 -9035750000.0 -9035750000.0 -9035750000.0 -9035750000.0 -9035750000.0 -9035750000.0 -9035750000.0 -9035750000.0 -9035750000.0 -9035750000.0 -9035750000.0 -9035750000.0 -9035750000.0 -9035750000.0 -9035750000.0 -9035750000.0 -9035750000.0 -9035750000.0 -9035750000.0 -9035750000.0 -9035750000.0 -9035750000.0 -9035750000.0 -9035750000.0 -9035750000.0 -9035750000.0 -9035750000.0 -9035750000.0 -9035750000.0 -9035750000.0 -9035750000.0 -9035750000.0 -9035750000.0 -9035750000.0 -9035750000.0 -9035750000.0 -9035750000.0 -9035750000.0 -9035750000.0 -9035750000.0 -9035750000.0 -9035750000.0 -9035750000.0 -9035750000.0 -9035750000.0 -9035750000.0 -9035750000.0 -9035750000.0 -9039310000.0 -9036640000.0 -9035750000.0 -9035750000.0 -9035750000.0 -9035750000.0 -9035750000.0 -9035750000.0 -9035750000.0 -9035750000.0 -9035750000.0 -9035750000.0 -9035750000.0 -9035750000.0 -9035750000.0 -9035750000.0 -9035750000.0 -9035750000.0 -9035750000.0 -9035750000.0 -9035750000.0 -9035750000.0 -9035750000.0 -9035750000.0 -9035750000.0 -9035750000.0 -9035750000.0 -9035750000.0 -9035750000.0 -9035750000.0 -9035750000.0 -9035750000.0 -9035750000.0 -9035750000.0 -9035750000.0 -9035750000.0 -9035750000.0 -9035750000.0 -9035750000.0 -9035750000.0 -9035750000.0 -9035750000.0 -9035750000.0 -9035750000.0 -9035750000.0 -9035750000.0 -9035750000.0 -9035750000.0 -9035750000.0 -9035750000.0 -9035750000.0 -9035750000.0 -9035750000.0 -9035750000.0 -9035750000.0 -9035750000.0 -9035750000.0 -9035750000.0 -9035750000.0 -9035750000.0 -9035750000.0 -9035750000.0 -9035750000.0 -9035750000.0 -9035750000.0 -9035750000.0 -9035750000.0 -9035750000.0 -9035750000.0 -9035750000.0 -9035750000.0 -9035750000.0 -9035750000.0 -9035750000.0 -9035750000.0 -9036640000.0 -9035950000.0 -9035750000.0 -9035750000.0 -9035750000.0 -9035750000.0 -9035750000.0 -9035750000.0 -9035750000.0 -9035750000.0 -9035750000.0 -9035750000.0 -9035750000.0 -9035750000.0 -9035750000.0 -9035750000.0 -9035750000.0 -9035750000.0 -9035750000.0 -9035750000.0 -9035750000.0 -9035750000.0 -9035750000.0 -9035750000.0 -9035750000.0 -9035750000.0 -9035750000.0 -9035750000.0 -9035750000.0 -9035750000.0 -9035750000.0 -9035750000.0 -9035750000.0 -9035750000.0 -9035750000.0 -9035750000.0 -9035750000.0 -9035750000.0 -9035750000.0 -9035750000.0 -9035750000.0 -9035750000.0 -9035750000.0 -9035750000.0 -9035750000.0 -9035750000.0 -9035750000.0 -9035750000.0 -9035750000.0 -9035750000.0 -9035750000.0 -9035750000.0 -9035750000.0 -9035750000.0 -9035750000.0 -9035750000.0 -9035750000.0 -9035750000.0 -9035750000.0 -9035750000.0 -9035750000.0 -9035750000.0 -9035750000.0 -9035750000.0 -9035750000.0 -9035750000.0 -9035750000.0 -9035750000.0 -9035750000.0 -9035750000.0 -9035750000.0 -9035750000.0 -9035750000.0 -9035750000.0 -9035750000.0 -9035950000.0 -9035790000.0 -9035750000.0 -9035750000.0 -9035750000.0 -9035750000.0 -9035750000.0 -9035750000.0 -9035750000.0 -9035750000.0 -9035750000.0 -9035750000.0 -9035750000.0 -9035750000.0 -9035750000.0 -9035750000.0 -9035750000.0 -9035750000.0 -9035750000.0 -9035750000.0 -9035750000.0 -9035750000.0 -9035750000.0 -9035750000.0 -9035750000.0 -9035750000.0 -9035750000.0 -9035750000.0 -9035750000.0 -9035750000.0 -9035750000.0 -9035750000.0 -9035750000.0 -9035750000.0 -9035750000.0 -9035750000.0 -9035750000.0 -9035750000.0 -9035750000.0 -9035750000.0 -9035750000.0 -9035750000.0 -9035750000.0 -9035750000.0 -9035750000.0 -9035750000.0 -9035750000.0 -9035750000.0 -9035750000.0 -9035750000.0 -9035750000.0 -9035750000.0 -9035750000.0 -9035750000.0 -9035750000.0 -9035750000.0 -9035750000.0 -9035750000.0 -9035750000.0 -9035750000.0 -9035750000.0 -9035750000.0 -9035750000.0 -9035750000.0 -9035750000.0 -9035750000.0 -9035750000.0 -9035750000.0 -9035750000.0 -9035750000.0 -9035750000.0 -9035750000.0 -9035750000.0 -9035750000.0 -9035750000.0 -9035790000.0 -9035760000.0 -9035750000.0 -9035750000.0 -9035750000.0 -9035750000.0 -9035750000.0 -9035750000.0 -9035750000.0 -9035750000.0 -9035750000.0 -9035750000.0 -9035750000.0 -9035750000.0 -9035750000.0 -9035750000.0 -9035750000.0 -9035750000.0 -9035750000.0 -9035750000.0 -9035750000.0 -9035750000.0 -9035750000.0 -9035750000.0 -9035750000.0 -9035750000.0 -9035750000.0 -9035750000.0 -9035750000.0 -9035750000.0 -9035750000.0 -9035750000.0 -9035750000.0 -9035750000.0 -9035750000.0 -9035750000.0 -9035750000.0 -9035750000.0 -9035750000.0 -9035750000.0 -9035750000.0 -9035750000.0 -9035750000.0 -9035750000.0 -9035750000.0 -9035750000.0 -9035750000.0 -9035750000.0 -9035750000.0 -9035750000.0 -9035750000.0 -9035750000.0 -9035750000.0 -9035750000.0 -9035750000.0 -9035750000.0 -9035750000.0 -9035750000.0 -9035750000.0 -9035750000.0 -9035750000.0 -9035750000.0 -9035750000.0 -9035750000.0 -9035750000.0 -9035750000.0 -9035750000.0 -9035750000.0 -9035750000.0 -9035750000.0 -9035750000.0 -9035750000.0 -9035750000.0 -9035750000.0 -9035750000.0 -9035760000.0 -9035750000.0 -9035750000.0 -9035750000.0 -9035750000.0 -9035750000.0 -9035750000.0 -9035750000.0 -9035750000.0 -9035750000.0 -9035750000.0 -9035750000.0 -9035750000.0 -9035750000.0 -9035750000.0 -9035750000.0 -9035750000.0 -9035750000.0 -9035750000.0 -9035750000.0 -9035750000.0 -9035750000.0 -9035750000.0 -9035750000.0 -9035750000.0 -9035750000.0 -9035750000.0 -9035750000.0 -9035750000.0 -9035750000.0 -9035750000.0 -9035750000.0 -9035750000.0 -9035750000.0 -9035750000.0 -9035750000.0 -9035750000.0 -9035750000.0 -9035750000.0 -9035750000.0 -9035750000.0 -9035750000.0 -9035750000.0 -9035750000.0 -9035750000.0 -9035750000.0 -9035750000.0 -9035750000.0 -9035750000.0 -9035750000.0 -9035750000.0 -9035750000.0 -9035750000.0 -9035750000.0 -9035750000.0 -9035750000.0 -9035750000.0 -9035750000.0 -9035750000.0 -9035750000.0 -9035750000.0 -9035750000.0 -9035750000.0 -9035750000.0 -9035750000.0 -9035750000.0 -9035750000.0 -9035750000.0 -9035750000.0 -9035750000.0 -9035750000.0 -9035750000.0 -9035750000.0 -9035750000.0 -9035750000.0 -9035750000.0 -9035750000.0 -9035750000.0 -9035750000.0 -9035750000.0 -9035750000.0 -9035750000.0 -9035750000.0 -9035750000.0 -9035750000.0 -9035750000.0 -9035750000.0 -9035750000.0 -9035750000.0 -9035750000.0 -9035750000.0 -9035750000.0 -9035750000.0 -9035750000.0 -9035750000.0 -9035750000.0 -9035750000.0 -9035750000.0 -9035750000.0 -9035750000.0 -9035750000.0 -9035750000.0 -9035750000.0 -9035750000.0 -9035750000.0 -9035750000.0 -9035750000.0 -9035750000.0 -9035750000.0 -9035750000.0 -9035750000.0 -9035750000.0 -9035750000.0 -9035750000.0 -9035750000.0 -9035750000.0 -9035750000.0 -9035750000.0 -9035750000.0 -9035750000.0 -9035750000.0 -9035750000.0 -9035750000.0 -9035750000.0 -9035750000.0 -9035750000.0 -9035750000.0 -9035750000.0 -9035750000.0 -9035750000.0 -9035750000.0 -9035750000.0 -9035750000.0 -9035750000.0 -9035750000.0 -9035750000.0 -9035750000.0 -9035750000.0 -9035750000.0 -9035750000.0 -9035750000.0 -9035750000.0 -9035750000.0 -9035750000.0 -9035750000.0 -9035750000.0 -9035750000.0 -9035750000.0 -9035750000.0 -9035750000.0 -9035750000.0 -9035750000.0 -9035750000.0 -9035750000.0 -9035750000.0 -9035750000.0 -9035750000.0 -9035750000.0 -9035750000.0 -9035750000.0 -9035750000.0 -9035750000.0 -9035750000.0 -9035750000.0 -9035750000.0 -9035750000.0 -9035750000.0 -9035750000.0 -9035750000.0 -9035750000.0 -9035750000.0 -9035750000.0 -9035750000.0 -9035750000.0 -9035750000.0 -9035750000.0 -9035750000.0 -9035750000.0 -9035750000.0 -9035750000.0 -9035750000.0 -9035750000.0 -9035750000.0 -9035750000.0 -9035750000.0 -9035750000.0 -9035750000.0 -9035750000.0 -9035750000.0 -9035750000.0 -9035750000.0 -9035750000.0 -9035750000.0 -9035750000.0 -9035750000.0 -9035750000.0 -9035750000.0 -9035750000.0 -9035750000.0 -9035750000.0 -9035750000.0 -9035750000.0 -9035750000.0 -9035750000.0 -9035750000.0 -9035750000.0 -9035750000.0 -9035750000.0 -9035750000.0 -9035750000.0 -9035750000.0 -9035750000.0 -9035750000.0 -9035750000.0 -9035750000.0 -9035750000.0 -9035750000.0 -9035750000.0 -9035750000.0 -9035750000.0 -9035750000.0 -9035750000.0 -9035750000.0 -9035750000.0 -9035750000.0 -9035750000.0 -9035750000.0 -9035750000.0 -9035750000.0 -9035750000.0 -9035750000.0 -9035750000.0 -9035750000.0 -9035750000.0 -9035750000.0 -9035750000.0 -9035750000.0 -9035750000.0 -9035750000.0 -9035750000.0 -9035750000.0 -9035750000.0 -9035750000.0 -9035750000.0 -9035750000.0 -9035750000.0 -9035750000.0 -9035750000.0 -9035750000.0 -9035750000.0 -9035750000.0 -9035750000.0 -9035750000.0 -9035750000.0 -9035750000.0 -9035750000.0 -9035750000.0 -9035750000.0 -9035750000.0 -9035750000.0 -9035750000.0 -9035750000.0 -9035750000.0 -9035750000.0 -9035750000.0 -9035750000.0 -9035750000.0 -9035750000.0 -9035750000.0 -9035750000.0 -9035750000.0 -9035750000.0 -9035750000.0 -9035750000.0 -9035750000.0 -9035750000.0 -9035750000.0 -9035750000.0 -9035750000.0 -9035750000.0 -9035750000.0 -9035750000.0 -9035750000.0 -9035750000.0 -9035750000.0 -9035750000.0 -9035750000.0 -9035750000.0 -9035750000.0 -9035750000.0 -9035750000.0 -9035750000.0 -9035750000.0 -9035750000.0 -9035750000.0 -9035750000.0 -9035750000.0 -9035750000.0 -9035750000.0 -9035750000.0 -9035750000.0 -9035750000.0 -9035750000.0 -9035750000.0 -9035750000.0 -9035750000.0 -9035750000.0 -9035750000.0 -9035750000.0 -9035750000.0 -9035750000.0 -9035750000.0 -9035750000.0 -9035750000.0 -9035750000.0 -9035750000.0 -9035750000.0 -9035750000.0 -9035750000.0 -9035750000.0 -9035750000.0 -9035750000.0 -9035750000.0 -9035750000.0 -9035750000.0 -9035750000.0 -9035750000.0 -9035750000.0 -9035750000.0 -9035750000.0 -9035750000.0 -9035750000.0 -9035750000.0 -9035750000.0 -9035750000.0 -9035750000.0 -9035750000.0 -9035750000.0 -9035750000.0 -9035750000.0 -9035750000.0 -9035750000.0 -9035750000.0 -9035750000.0 -9035750000.0 -9035750000.0 -9035750000.0 -9035750000.0 -9035750000.0 -9035750000.0 -9035750000.0 -9035750000.0 -9035750000.0 -9035750000.0 -9035750000.0 -9035750000.0 -9035750000.0 -9035750000.0 -9035750000.0 -9035750000.0 -9035750000.0 -9035750000.0 -9035750000.0 -9035750000.0 -9035750000.0 -9035750000.0 -9035750000.0 -9035750000.0 -9035750000.0 -9035750000.0 -9035750000.0 -9035750000.0 -9035750000.0 -9035750000.0 -9035750000.0 -9035750000.0 -9035750000.0 -9035750000.0 -9035750000.0 -9035750000.0 -9035750000.0 -9035750000.0 -9035750000.0 -9035750000.0 -9035750000.0 -9035750000.0 -9035750000.0 -9035750000.0 -9035750000.0 -9035750000.0 -9035750000.0 -9035750000.0 -9035750000.0 -9035750000.0 -9035750000.0 -9035750000.0 -9035750000.0 -9035750000.0 -9035750000.0 -9035750000.0 -9035750000.0 -9035750000.0 -9035750000.0 -9035750000.0 -9035750000.0 -9035750000.0 -9035750000.0 -9035750000.0 -9035750000.0 -9035750000.0 -9035750000.0 -9035750000.0 -9035750000.0 -9035750000.0 -9035750000.0 -9035750000.0 -9035750000.0 -9035750000.0 -9035750000.0 -9035750000.0 -9035750000.0 -9035750000.0 -9035750000.0 -9035750000.0 -9035750000.0 -9035750000.0 -9035750000.0 -9035750000.0 -9035750000.0 -9035750000.0 -9035750000.0 -9035750000.0 -9035750000.0 -9035750000.0 -9035750000.0 -9035750000.0 -9035750000.0 -9035750000.0 -9035750000.0 -9035750000.0 -9035750000.0 -9035750000.0 -9035750000.0 -9035750000.0 -9035750000.0 -9035750000.0 -9035750000.0 -9035750000.0 -9035750000.0 -9035750000.0 -9035750000.0 -9035750000.0 -9035750000.0 -9035750000.0 -9035750000.0 -9035750000.0 -9035750000.0 -9035750000.0 -9035750000.0 -9035750000.0 -9035750000.0 -9035750000.0 -9035750000.0 -9035750000.0 -9035750000.0 -9035750000.0 -9035750000.0 -9035750000.0 -9035750000.0 -9035750000.0 -9035750000.0 -9035750000.0 -9035750000.0 -9035750000.0 -9035750000.0 -9035750000.0 -9035750000.0 -9035750000.0 -9035750000.0 -9035750000.0 -9035750000.0 -9035750000.0 -9035750000.0 -9035750000.0 -9035750000.0 -9035750000.0 -9035750000.0 -9035750000.0 -9035750000.0 -9035750000.0 -9035750000.0 -9035750000.0 -9035750000.0 -9035750000.0 -9035750000.0 -9035750000.0 -9035750000.0 -9035750000.0 -9035750000.0 -9035750000.0 -9035750000.0 -9035750000.0 -9035750000.0 -9035750000.0 -9035750000.0 -9035750000.0 -9035750000.0 -9035750000.0 -9035750000.0 -9035750000.0 -9035750000.0 -9035750000.0 -9035750000.0 -9035750000.0 -9035750000.0 -9035750000.0 -9035750000.0 -9035750000.0 -9035750000.0 -9035750000.0 -9035750000.0 -9035750000.0 -9035750000.0 -9035750000.0 -9035750000.0 -9035750000.0 -9035750000.0 -9035750000.0 -9035750000.0 -9035750000.0 -9035750000.0 -9035750000.0 -9035750000.0 -9035750000.0 -9035750000.0 -9035750000.0 -9035750000.0 -9035750000.0 -9035750000.0 -9035750000.0 -9035750000.0 -9035750000.0 -9035750000.0 -9035750000.0 -9035750000.0 -9035750000.0 -9035750000.0 -9035750000.0 -9035750000.0 -9035750000.0 -9035750000.0 -9035750000.0 -9035750000.0 -9035750000.0 -9035750000.0 -9035750000.0 -9035750000.0 -9035750000.0 -9035750000.0 -9035750000.0 -9035750000.0 -9035750000.0 -9035750000.0 -9035750000.0 -9035750000.0 -9035750000.0 -9035750000.0 -9035750000.0 -9035750000.0 -9035750000.0 -9035750000.0 -9035750000.0 -9035750000.0 -9035750000.0 -9035750000.0 -9035750000.0 -9035750000.0 -9035750000.0 -9035750000.0 -9035750000.0 -9035750000.0 -9035750000.0 -9035750000.0 -9035750000.0 -9035750000.0 -9035750000.0 -9035750000.0 -9035750000.0 -9035750000.0 -9035750000.0 -9035750000.0 -9035750000.0 -9035750000.0 -9035750000.0 -9035750000.0 -9035750000.0 -9035750000.0 -9035750000.0 -9035750000.0 -9035750000.0 -9035750000.0 -9035750000.0 -9035750000.0 -9035750000.0 -9035750000.0 -9035750000.0 -9035750000.0 -9035750000.0 -9035750000.0 -9035750000.0 -9035750000.0 -9035750000.0 -9035750000.0 -9035750000.0 -9035750000.0 -9035750000.0 -9035750000.0 -9035750000.0 -9035750000.0 -9035750000.0 -9035750000.0 -9035750000.0 -9035750000.0 -9035750000.0 -9035750000.0 -9035750000.0 -9035750000.0 -9035750000.0 -9035750000.0 -9035750000.0 -9035750000.0 -9035750000.0 -9035750000.0 -9035750000.0 -9035750000.0 -9035750000.0 -9035750000.0 -9035750000.0 -9035750000.0 -9035750000.0 -9035750000.0 -9035750000.0 -9035750000.0 -9035750000.0 -9035750000.0 -9035750000.0 -9035750000.0 -9035750000.0 -9035750000.0 -9035750000.0 -9035750000.0 -9035750000.0 -9035750000.0 -9035750000.0 -9035750000.0 -9035750000.0 -9035750000.0 -9035750000.0 -9035750000.0 -9035750000.0 -9035750000.0 -9035750000.0 -9035750000.0 -9035750000.0 -9035750000.0 -9035750000.0 -9035750000.0 -9035750000.0 -9035750000.0 -9035750000.0 -9035750000.0 -9035750000.0 -9035750000.0 -9035750000.0 -9035750000.0 -9035750000.0 -9035750000.0 -9035750000.0 -9035750000.0 -9035750000.0 -9035750000.0 -9035750000.0 -9035750000.0 -9035750000.0 -9035750000.0 -9035750000.0 -9035750000.0 -9035750000.0 -9035750000.0 -9035750000.0 -9035750000.0 -9035750000.0 -9035750000.0 -9035750000.0 -9035750000.0 -9035750000.0 -9035750000.0 -9035750000.0 -9035750000.0 -9035750000.0 -9035750000.0 -9035750000.0 -9035750000.0 -9035750000.0 -9035750000.0 -9035750000.0 -9035750000.0 -9035750000.0 -9035750000.0 -9035750000.0 -9035750000.0 -9035750000.0 -9035750000.0 -9035750000.0 -9035750000.0 -9035750000.0 -9035750000.0 -9035750000.0 -9035750000.0 -9035750000.0 -9035750000.0 -9035750000.0 -9035750000.0 -9035750000.0 -9035750000.0 -9035750000.0 -9035750000.0 -9035750000.0 -9035750000.0 -9035750000.0 -9035750000.0 -9035750000.0 -9035750000.0 -9035750000.0 -9035750000.0 -9035750000.0 -9035750000.0 -9035750000.0 -9035750000.0 -9035750000.0 -9035750000.0 -9035750000.0 -9035750000.0 -9035750000.0 -9035750000.0 -9035750000.0 -9035750000.0 -9035750000.0 -9035750000.0 -9035750000.0 -9035750000.0 -9035750000.0 -9035750000.0 -9035750000.0 -9035750000.0 -9035750000.0 -9035750000.0 -9035750000.0 -9035750000.0 -9035750000.0 -9035750000.0 -9035750000.0 -9035750000.0 -9035750000.0 -9035750000.0 -9035750000.0 -9035750000.0 -9035750000.0 -9035750000.0 -9035750000.0 -9035750000.0 -9035750000.0 -9035750000.0 -9035750000.0 -9035750000.0 -9035750000.0 -9035750000.0 -9035750000.0 -9035750000.0 -9035750000.0 -9035750000.0 -9035750000.0 -9035750000.0 -9035750000.0 -9035750000.0 -9035750000.0 -9035750000.0 -9035750000.0 -9035750000.0 -9035750000.0 -9035750000.0 -9035750000.0 -9035750000.0 -9035750000.0 -9035750000.0 -9035750000.0 -9035750000.0 -9035750000.0 -9035750000.0 -9035750000.0 -9035750000.0 -9035750000.0 -9035750000.0 -9035750000.0 -9035750000.0 -9035750000.0 -9035750000.0 -9035750000.0 -9035750000.0 -9035750000.0 -9035750000.0 -9035750000.0 -9035750000.0 -9035750000.0 -9035750000.0 -9035750000.0 -9035750000.0 -9035750000.0 -9035750000.0 -9035750000.0 -9035750000.0 -9035750000.0 -9035750000.0 -9035750000.0 -9035750000.0 -9035750000.0 -9035750000.0 -9035750000.0 -9035750000.0 -9035750000.0 -9035750000.0 -9035750000.0 -9035750000.0 -9035750000.0 -9035750000.0 -9035750000.0 -9035750000.0 -9035750000.0 -9035750000.0 -9035750000.0 -9035750000.0 -9035750000.0 -9035750000.0 -9035750000.0 -9035750000.0 -9035750000.0 -9035750000.0 -9035750000.0 -9035750000.0 -9035750000.0 -9035750000.0 -9035750000.0 -9035750000.0 -9035750000.0 -9035750000.0 -9035750000.0 -9035750000.0 -9035750000.0 -9035750000.0 -9035750000.0 -9035750000.0 -9035750000.0 -9035750000.0 -9035750000.0 -9035750000.0 -9035750000.0 -9035750000.0 -9035750000.0 -9035750000.0 -9035750000.0 -9035750000.0 -9035750000.0 -9035750000.0 -9035750000.0 -9035750000.0 -9035750000.0 -9035750000.0 -9035750000.0 -9035750000.0 -9035750000.0 -9035750000.0 -9035750000.0 -9035750000.0 -9035750000.0 -9035750000.0 -9035750000.0 -9035750000.0 -9035750000.0 -9035750000.0 -9035750000.0 -9035750000.0 -9035750000.0 -9035750000.0 -9035750000.0 -9035750000.0 -9035750000.0 -9035750000.0 -9035750000.0 -9035750000.0 -9035750000.0 -9035750000.0 -9035750000.0 -9035750000.0 -9035750000.0 -9035750000.0 -9035750000.0 -9035750000.0 -9035750000.0 -9035750000.0 -9035750000.0 -9035750000.0 -9035750000.0 -9035750000.0 -9035750000.0 -9035750000.0 -9035750000.0 -9035750000.0 -9035750000.0 -9035750000.0 -9035750000.0 -9035750000.0 -9035750000.0 -9035750000.0 -9035750000.0 -9035750000.0 -9035750000.0 -9035750000.0 -9035750000.0 -9035750000.0 -9035750000.0 -9035750000.0 -9035750000.0 -9035750000.0 -9035750000.0 -9035750000.0 -9035750000.0 -9035750000.0 -9035750000.0 -9035750000.0 -9035750000.0 -9035750000.0 -9035750000.0 -9035750000.0 -9035750000.0 -9035750000.0 -9035750000.0 -9035750000.0 -9035750000.0 -9035750000.0 -9035750000.0 -9035750000.0 -9035750000.0 -9035750000.0 -9035750000.0 -9035750000.0 -9035750000.0 -9035750000.0 -9035750000.0 -9035750000.0 -9035750000.0 -9035750000.0 -9035750000.0 -9035750000.0 -9035750000.0 -9035750000.0 -9035750000.0 -9035750000.0 -9035750000.0 -9035750000.0 -9035750000.0 -9035750000.0 -9035750000.0 -9035750000.0 -9035750000.0 -9035750000.0 -9035750000.0 -9035750000.0 -9035750000.0 -9035750000.0 -9035750000.0 -9035750000.0 -9035750000.0 -9035750000.0 -9035750000.0 -9035750000.0 -9035750000.0 -9035750000.0 -9035750000.0 -9035750000.0 -9035750000.0 -9035750000.0 -9035750000.0 -9035750000.0 -9035750000.0 -9035750000.0 -9035750000.0 -9035750000.0 -9035750000.0 -9035750000.0 -9035750000.0 -9035750000.0 -9035750000.0 -9035750000.0 -9035750000.0 -9035750000.0 -9035750000.0 -9035750000.0 -9035750000.0 -9035750000.0 -9035750000.0 -9035750000.0 -9035750000.0 -9035750000.0 -9035750000.0 -9035750000.0 -9035750000.0 -9035750000.0 -9035750000.0 -9035750000.0 -9035750000.0 -9035750000.0 -9035750000.0 -9035750000.0 -9035750000.0 -9035750000.0 -9035750000.0 -9035750000.0 -9035750000.0 -9035750000.0 -9035750000.0 -9035750000.0 -9035750000.0 -9035750000.0 -9035750000.0 -9035750000.0 -9035750000.0 -9035750000.0 -9035750000.0 -9035750000.0 -9035750000.0 -9035750000.0 -9035750000.0 -9035750000.0 -9035750000.0 -9035750000.0 -9035750000.0 -9035750000.0 -9035750000.0 -9035750000.0 -9035750000.0 -9035750000.0 -9035750000.0 -9035750000.0 -9035750000.0 -9035750000.0 -9035750000.0 -9035750000.0 -9035750000.0 -9035750000.0 -9035750000.0 -9035750000.0 -9035750000.0 -9035750000.0 -9035750000.0 -9035750000.0 -9035750000.0 -9035750000.0 -9035750000.0 -9035750000.0 -9035750000.0 -9035750000.0 -9035750000.0 -9035750000.0 -9035750000.0 -9035750000.0 -9035750000.0 -9035750000.0 -9035750000.0 -9035750000.0 -9035750000.0 -9035750000.0 -9035750000.0 -9035750000.0 -9035750000.0 -9035750000.0 -9035750000.0 -9035750000.0 -9035750000.0 -9035750000.0 -9035750000.0 -9035750000.0 -9035750000.0 -9035750000.0 -9035750000.0 -9035750000.0 -9035750000.0 -9035750000.0 -9035750000.0 -9035750000.0 -9035750000.0 -9035750000.0 -9035750000.0 -9035750000.0 -9035750000.0 -9035750000.0 -9035750000.0 -9035750000.0 -9035750000.0 -9035750000.0 -9035750000.0 -9035750000.0 -9035750000.0 -9035750000.0 -9035750000.0 -9035750000.0 -9035750000.0 -9035750000.0 -9035750000.0 -9035750000.0 -9035750000.0 -9035750000.0 -9035750000.0 -9035750000.0 -9035750000.0 -9035750000.0 -9035750000.0 -9035750000.0 -9035750000.0 -9035750000.0 -9035750000.0 -9035750000.0 -9035750000.0 -9035750000.0 -9035750000.0 -9035750000.0 -9035750000.0 -9035750000.0 -9035750000.0 -9035750000.0 -9035750000.0 -9035750000.0 -9035750000.0 -9035750000.0 -9035750000.0 -9035750000.0 -9035750000.0 -9035750000.0 -9035750000.0 -9035750000.0 -9035750000.0 -9035750000.0 -9035750000.0 -9035750000.0 -9035750000.0 -9035750000.0 -9035750000.0 -9035750000.0 -9035750000.0 -9035750000.0 -9035750000.0 -9035750000.0 -9035750000.0 -9035750000.0 -9035750000.0 -9035750000.0 -9035750000.0 -9035750000.0 -9035750000.0 -9035750000.0 -9035750000.0 -9035750000.0 -9035750000.0 -9035750000.0 -9035750000.0 -9035750000.0 -9035750000.0 -9035750000.0 -9035750000.0 -9035750000.0 -9035750000.0 -9035750000.0 -9035750000.0 -9035750000.0 -9035750000.0 -9035750000.0 -9035750000.0 -9035750000.0 -9035750000.0 -9035750000.0 -9035750000.0 -9035750000.0 -9035750000.0 -9035750000.0 -9035750000.0 -9035750000.0 -9035750000.0 -9035750000.0 -9035750000.0 -9035750000.0 -9035750000.0 -9035750000.0 -9035750000.0 -9035750000.0 -9035750000.0 -9035750000.0 -9035750000.0 -9035750000.0 -9035750000.0 -9035750000.0 -9035750000.0 -9035750000.0 -9035750000.0 -9035750000.0 -9035750000.0 -9035750000.0 -9035750000.0 -9035750000.0 -9035750000.0 -9035750000.0 -9035750000.0 -9035750000.0 -9035750000.0 -9035750000.0 -9035750000.0 -9035750000.0 -9035750000.0 -9035750000.0 -9035750000.0 -9035750000.0 -9035750000.0 -9035750000.0 -9035750000.0 -9035750000.0 -9035750000.0 -9035750000.0 -9035750000.0 -9035750000.0 -9035750000.0 -9035750000.0 -9035750000.0 -9035750000.0 -9035750000.0 -9035750000.0 -9035750000.0 -9035750000.0 -9035750000.0 -9035750000.0 -9035750000.0 -9035750000.0 -9035750000.0 -9035750000.0 -9035750000.0 -9035750000.0 -9035750000.0 -9035750000.0 -9035750000.0 -9035750000.0 -9035750000.0 -9035750000.0 -9035750000.0 -9035750000.0 -9035750000.0 -9035750000.0 -9035750000.0 -9035750000.0 -9035750000.0 -9035750000.0 -9035750000.0 -9035750000.0 -9035750000.0 -9035750000.0 -9035750000.0 -9035750000.0 -9035750000.0 -9035750000.0 -9035750000.0 -9035750000.0 -9035750000.0 -9035750000.0 -9035750000.0 -9035750000.0 -9035750000.0 -9035750000.0 -9035750000.0 -9035750000.0 -9035750000.0 -9035750000.0 -9035750000.0 -9035750000.0 -9035750000.0 -9035750000.0 -9035750000.0 -9035750000.0 -9035750000.0 -9035750000.0 -9035750000.0 -9035750000.0 -9035750000.0 -9035750000.0 -9035750000.0 -9035750000.0 -9035750000.0 -9035750000.0 -9035750000.0 -9035750000.0 -9035750000.0 -9035750000.0 -9035750000.0 -9035750000.0 -9035750000.0 -9035750000.0 -9035750000.0 -9035750000.0 -9035750000.0 -9035750000.0 -9035750000.0 -9035750000.0 -9035750000.0 -9035750000.0 -9035750000.0 -9035750000.0 -9035750000.0 -9035750000.0 -9035750000.0 -9035750000.0 -9035750000.0 -9035750000.0 -9035750000.0 -9035750000.0 -9035750000.0 -9035750000.0 -9035750000.0 -9035750000.0 -9035750000.0 -9035750000.0 -9035750000.0 -9035750000.0 -9035750000.0 -9035750000.0 -9035750000.0 -9035750000.0 -9035750000.0 -9035750000.0 -9035750000.0 -9035750000.0 -9035750000.0 -9035750000.0 -9035750000.0 -9035750000.0 -9035750000.0 -9035750000.0 -9035750000.0 -9035750000.0 -9035750000.0 -9035750000.0 -9035750000.0 -9035750000.0 -9035750000.0 -9035750000.0 -9035750000.0 -9035750000.0 -9035750000.0 -9035750000.0 -9035750000.0 -9035750000.0 -9035750000.0 -9035750000.0 -9035750000.0 -9035750000.0 -9035750000.0 -9035750000.0 -9035750000.0 -9035750000.0 -9035750000.0 -9035750000.0 -9035750000.0 -9035750000.0 -9035750000.0 -9035750000.0 -9035750000.0 -9035750000.0 -9035750000.0 -9035750000.0 -9035750000.0 -9035750000.0 -9035750000.0 -9035750000.0 -9035750000.0 -9035750000.0 -9035750000.0 -9035750000.0 -9035750000.0 -9035750000.0 -9035750000.0 -9035750000.0 -9035750000.0 -9035750000.0 -9035750000.0 -9035750000.0 -9035750000.0 -9035750000.0 -9035750000.0 -9035750000.0 -9035750000.0 -9035750000.0 -9035750000.0 -9035750000.0 -9035750000.0 -9035750000.0 -9035750000.0 -9035750000.0 -9035750000.0 -9035750000.0 -9035750000.0 -9035750000.0 -9035750000.0 -9035750000.0 -9035750000.0 -9035750000.0 -9035750000.0 -9035750000.0 -9035750000.0 -9035750000.0 -9035750000.0 -9035750000.0 -9035750000.0 -9035750000.0 -9035750000.0 -9035750000.0 -9035750000.0 -9035750000.0 -9035750000.0 -9035750000.0 -9035750000.0 -9035750000.0 -9035750000.0 -9035750000.0 -9035750000.0 -9035750000.0 -9035750000.0 -9035750000.0 -9035750000.0 -9035750000.0 -9035750000.0 -9035750000.0 -9035750000.0 -9035750000.0 -9035750000.0 -9035750000.0 -9035750000.0 -9035750000.0 -9035750000.0 -9035750000.0 -9035750000.0 -9035750000.0 -9035750000.0 -9035750000.0 -9035750000.0 -9035750000.0 -9035750000.0 -9035750000.0 -9035750000.0 -9035750000.0 -9035750000.0 -9035750000.0 -9035750000.0 -9035750000.0 -9035750000.0 -9035750000.0 -9035750000.0 -9035750000.0 -9035750000.0 -9035750000.0 -9035750000.0 -9035750000.0 -9035750000.0 -9035750000.0 -9035750000.0 -9035750000.0 -9035750000.0 -9035750000.0 -9035750000.0 -9035750000.0 -9035750000.0 -9035750000.0 -9035750000.0 -9035750000.0 -9035750000.0 -9035750000.0 -9035750000.0 -9035750000.0 -9035750000.0 -9035750000.0 -9035750000.0 -9035750000.0 -9035750000.0 -9035750000.0 -9035750000.0 -9035750000.0 -9035750000.0 -9035750000.0 -9035750000.0 -9035750000.0 -9035750000.0 -9035750000.0 -9035750000.0 -9035750000.0 -9035750000.0 -9035750000.0 -9035750000.0 -9035750000.0 -9035750000.0 -9035750000.0 -9035750000.0 -9035750000.0 -9035750000.0 -9035750000.0 -9035750000.0 -9035750000.0 -9035750000.0 -9035750000.0 -9035750000.0 -9035750000.0 -9035750000.0 -9035750000.0 -9035750000.0 -9035750000.0 -9035750000.0 -9035750000.0 -9035750000.0 -9035750000.0 -9035750000.0 -9035750000.0 -9035750000.0 -9035750000.0 -9035750000.0 -9035750000.0 -9035750000.0 -9035750000.0 -9035750000.0 -9035750000.0 -9035750000.0 -9035750000.0 -9035750000.0 -9035750000.0 -9035750000.0 -9035750000.0 -9035750000.0 -9035750000.0 -9035750000.0 -9035750000.0 -9035750000.0 -9035750000.0 -9035750000.0 -9035750000.0 -9035750000.0 -9035750000.0 -9035750000.0 -9035750000.0 -9035750000.0 -9035750000.0 -9035750000.0 -9035750000.0 -9035750000.0 -9035750000.0 -9035750000.0 -9035750000.0 -9035750000.0 -9035750000.0 -9035750000.0 -9035750000.0 -9035750000.0 -9035750000.0 -9035750000.0 -9035750000.0 -9035750000.0 -9035750000.0 -9035750000.0 -9035750000.0 -9035750000.0 -9035750000.0 -9035750000.0 -9035750000.0 -9035750000.0 -9035750000.0 -9035750000.0 -9035750000.0 -9035750000.0 -9035750000.0 -9035750000.0 -9035750000.0 -9035750000.0 -9035750000.0 -9035750000.0 -9035750000.0 -9035750000.0 -9035750000.0 -9035750000.0 -9035750000.0 -9035750000.0 -9035750000.0 -9035750000.0 -9035750000.0 -9035750000.0 -9035750000.0 -9035750000.0 -9035750000.0 -9035750000.0 -9035750000.0 -9035750000.0 -9035750000.0 -9035750000.0 -9035750000.0 -9035750000.0 -9035750000.0 -9035750000.0 -9035750000.0 -9035750000.0 -9035750000.0 -9035750000.0 -9035750000.0 -9035750000.0 -9035750000.0 -9035750000.0 -9035750000.0 -9035750000.0 -9035750000.0 -9035750000.0 -9035750000.0 -9035750000.0 -9035750000.0 -9035750000.0 -9035750000.0 -9035750000.0 -9035750000.0 -9035750000.0 -9035750000.0 -9035750000.0 -9035750000.0 -9035750000.0 -9035750000.0 -9035750000.0 -9035750000.0 -9035750000.0 -9035750000.0 -9035750000.0 -9035750000.0 -9035750000.0 -9035750000.0 -9035750000.0 -9035750000.0 -9035750000.0 -9035750000.0 -9035750000.0 -9035750000.0 -9035750000.0 -9035750000.0 -9035750000.0 -9035750000.0 -9035750000.0 -9035750000.0 -9035750000.0 -9035750000.0 -9035750000.0 -9035750000.0 -9035750000.0 -9035750000.0 -9035750000.0 -9035750000.0 -9035750000.0 -9035750000.0 -9035750000.0 -9035750000.0 -9035750000.0 -9035750000.0 -9035750000.0 -9035750000.0 -9035750000.0 -9035750000.0 -9035750000.0 -9035750000.0 -9035750000.0 -9035750000.0 -9035750000.0 -9035750000.0 -9035750000.0 -9035750000.0 -9035750000.0 -9035750000.0 -9035750000.0 -9035750000.0 -9035750000.0 -9035750000.0 -9035750000.0 -9035750000.0 -9035750000.0 -9035750000.0 -9035750000.0 -9035750000.0 -9035750000.0 -9035750000.0 -9035750000.0 -9035750000.0 -9035750000.0 -9035750000.0 -9035750000.0 -9035750000.0 -9035750000.0 -9035750000.0 -9035750000.0 -9035750000.0 -9035750000.0 -9035750000.0 -9035750000.0 -9035750000.0 -9035750000.0 -9035750000.0 -9035750000.0 -9035750000.0 -9035750000.0 -9035750000.0 -9035750000.0 -9035750000.0 -9035750000.0 -9035750000.0 -9035750000.0 -9035750000.0 -9035750000.0 -9035750000.0 -9035750000.0 -9035750000.0 -9035750000.0 -9035750000.0 -9035750000.0 -9035750000.0 -9035750000.0 -9035750000.0 -9035750000.0 -9035750000.0 -9035750000.0 -9035750000.0 -9035750000.0 -9035750000.0 -9035750000.0 -9035750000.0 -9035750000.0 -9035750000.0 -9035750000.0 -9035750000.0 -9035750000.0 -9035750000.0 -9035750000.0 -9035750000.0 -9035750000.0 -9035750000.0 -9035750000.0 -9035750000.0 -9035750000.0 -9035750000.0 -9035750000.0 -9035750000.0 -9035750000.0 -9035750000.0 -9035750000.0 -9035750000.0 -9035750000.0 -9035750000.0 -9035750000.0 -9035750000.0 -9035750000.0 -9035750000.0 -9035750000.0 -9035750000.0 -9035750000.0 -9035750000.0 -9035750000.0 -9035750000.0 -9035750000.0 -9035750000.0 -9035750000.0 -9035750000.0 -9035750000.0 -9035750000.0 -9035750000.0 -9035750000.0 -9035750000.0 -9035750000.0 -9035750000.0 -9035750000.0 -9035750000.0 -9035750000.0 -9035750000.0 -9035750000.0 -9035750000.0 -9035750000.0 -9035750000.0 -9035750000.0 -9035750000.0 -9035750000.0 -9035750000.0 -9035750000.0 -9035750000.0 -9035750000.0 -9035750000.0 -9035750000.0 -9035750000.0 -9035750000.0 -9035750000.0 -9035750000.0 -9035750000.0 -9035750000.0 -9035750000.0 -9035750000.0 -9035750000.0 -9035750000.0 -9035750000.0 -9035750000.0 -9035750000.0 -9035750000.0 -9035750000.0 -9035750000.0 -9035750000.0 -9035750000.0 -9035750000.0 -9035750000.0 -9035750000.0 -9035750000.0 -9035750000.0 -9035750000.0 -9035750000.0 -9035750000.0 -9035750000.0 -9035750000.0 -9035750000.0 -9035750000.0 -9035750000.0 -9035750000.0 -9035750000.0 -9035750000.0 -9035750000.0 -9035750000.0 -9035750000.0 -9035750000.0 -9035750000.0 -9035750000.0 -9035750000.0 -9035750000.0 -9035750000.0 -9035750000.0 -9035750000.0 -9035750000.0 -9035750000.0 -9035750000.0 -9035750000.0 -9035750000.0 -9035750000.0 -9035750000.0 -9035750000.0 -9035750000.0 -9035750000.0 -9035750000.0 -9035750000.0 -9035750000.0 -9035750000.0 -9035750000.0 -9035750000.0 -9035750000.0 -9035750000.0 -9035750000.0 -9035750000.0 -9035750000.0 -9035750000.0 -9035750000.0 -9035750000.0 -9035750000.0 -9035750000.0 -9035750000.0 -9035750000.0 -9035750000.0 -9035750000.0 -9035750000.0 -9035750000.0 -9035750000.0 -9035750000.0 -9035750000.0 -9035750000.0 -9035750000.0 -9035750000.0 -9035750000.0 -9035750000.0 -9035750000.0 -9035750000.0 -9035750000.0 -9035750000.0 -9035750000.0 -9035750000.0 -9035750000.0 -9035750000.0 -9035750000.0 -9035750000.0 -9035750000.0 -9035750000.0 -9035750000.0 -9035750000.0 -9035750000.0 -9035750000.0 -9035750000.0 -9035750000.0 -9035750000.0 -9035750000.0 -9035750000.0 -9035750000.0 -9035750000.0 -9035750000.0 -9035750000.0 -9035750000.0 -9035750000.0 -9035750000.0 -9035750000.0 -9035750000.0 -9035750000.0 -9035750000.0 -9035750000.0 -9035750000.0 -9035750000.0 -9035750000.0 -9035750000.0 -9035750000.0 -9035750000.0 -9035750000.0 -9035750000.0 -9035750000.0 -9035750000.0 -9035750000.0 -9035750000.0 -9035750000.0 -9035750000.0 -9035750000.0 -9035750000.0 -9035750000.0 -9035750000.0 -9035750000.0 -9035750000.0 -9035750000.0 -9035750000.0 -9035750000.0 -9035750000.0 -9035750000.0 -9035750000.0 -9035750000.0 -9035750000.0 -9035750000.0 -9035750000.0 -9035750000.0 -9035750000.0 -9035750000.0 -9035750000.0 -9035750000.0 -9035750000.0 -9035750000.0 -9035750000.0 -9035750000.0 -9035750000.0 -9035750000.0 -9035750000.0 -9035750000.0 -9035750000.0 -9035750000.0 -9035750000.0 -9035750000.0 -9035750000.0 -9035750000.0 -9035750000.0 -9035750000.0 -9035750000.0 -9035750000.0 -9035750000.0 -9035750000.0 -9035750000.0 -9035750000.0 -9035750000.0 -9035750000.0 -9035750000.0 -9035750000.0 -9035750000.0 -9035750000.0 -9035750000.0 -9035750000.0 -9035750000.0 -9035750000.0 -9035750000.0 -9035750000.0 -9035750000.0 -9035750000.0 -9035750000.0 -9035750000.0 -9035750000.0 -9035750000.0 -9035750000.0 -9035750000.0 -9035750000.0 -9035750000.0 -9035750000.0 -9035750000.0 -9035750000.0 -9035750000.0 -9035750000.0 -9035750000.0 -9035750000.0 -9035750000.0 -9035750000.0 -9035750000.0 -9035750000.0 -9035750000.0 -9035750000.0 -9035750000.0 -9035750000.0 -9035750000.0 -9035750000.0 -9035750000.0 -9035750000.0 -9035750000.0 -9035750000.0 -9035750000.0 -9035750000.0 -9035750000.0 -9035750000.0 -9035750000.0 -9035750000.0 -9035750000.0 -9035750000.0 -9035750000.0 -9035750000.0 -9035750000.0 -9035750000.0 -9035750000.0 -9035750000.0 -9035750000.0 -9035750000.0 -9035750000.0 -9035750000.0 -9035750000.0 -9035750000.0 -9035750000.0 -9035750000.0 -9035750000.0 -9035750000.0 -9035750000.0 -9035750000.0 -9035750000.0 -9035750000.0 -9035750000.0 -9035750000.0 -9035750000.0 -9035750000.0 -9035750000.0 -9035750000.0 -9035750000.0 -9035750000.0 -9035750000.0 -9035750000.0 -9035750000.0 -9035750000.0 -9035750000.0 -9035750000.0 -9035750000.0 -9035750000.0 -9035750000.0 -9035750000.0 -9035750000.0 -9035750000.0 -9035750000.0 -9035750000.0 -9035750000.0 -9035750000.0 -9035750000.0 -9035750000.0 -9035750000.0 -9035750000.0 -9035750000.0 -9035750000.0 -9035750000.0 -9035750000.0 -9035750000.0 -9035750000.0 -9035750000.0 -9035750000.0 -9035750000.0 -9035750000.0 -9035750000.0 -9035750000.0 -9035750000.0 -9035750000.0 -9035750000.0 -9035750000.0 -9035750000.0 -9035750000.0 -9035750000.0 -9035750000.0 -9035750000.0 -9035750000.0 -9035750000.0 -9035750000.0 -9035750000.0 -9035750000.0 -9035750000.0 -9035750000.0 -9035750000.0 -9035750000.0 -9035750000.0 -9035750000.0 -9035750000.0 -9035750000.0 -9035750000.0 -9035750000.0 -9035750000.0 -9035750000.0 -9035750000.0 -9035750000.0 -9035750000.0 -9035750000.0 -9035750000.0 -9035750000.0 -9035750000.0 -9035750000.0 -9035750000.0 -9035750000.0 -9035750000.0 -9035750000.0 -9035750000.0 -9035750000.0 -9035750000.0 -9035750000.0 -9035750000.0 -9035750000.0 -9035750000.0 -9035750000.0 -9035750000.0 -9035750000.0 -9035750000.0 -9035750000.0 -9035750000.0 -9035750000.0 -9035750000.0 -9035750000.0 -9035750000.0 -9035750000.0 -9035750000.0 -9035750000.0 -9035750000.0 -9035750000.0 -9035750000.0 -9035750000.0 -9035750000.0 -9035750000.0 -9035750000.0 -9035750000.0 -9035750000.0 -9035750000.0 -9035750000.0 -9035750000.0 -9035750000.0 -9035750000.0 -9035750000.0 -9035750000.0 -9035750000.0 -9035750000.0 -9035750000.0 -9035750000.0 -9035750000.0 -9035750000.0 -9035750000.0 -9035750000.0 -9035750000.0 -9035750000.0 -9035750000.0 -9035750000.0 -9035750000.0 -9035750000.0 -9035750000.0 -9035750000.0 -9035750000.0 -9035750000.0 -9035750000.0 -9035750000.0 -9035750000.0 -9035750000.0 -9035750000.0 -9035750000.0 -9035750000.0 -9035750000.0 -9035750000.0 -9035750000.0 -9035750000.0 -9035750000.0 -9035750000.0 -9035750000.0 -9035750000.0 -9035750000.0 -9035750000.0 -9035750000.0 -9035750000.0 -9035750000.0 -9035750000.0 -9035750000.0 -9035750000.0 -9035750000.0 -9035750000.0 -9035750000.0 -9035750000.0 -9035750000.0 -9035750000.0 -9035750000.0 -9035750000.0 -9035750000.0 -9035750000.0 -9035750000.0 -9035750000.0 -9035750000.0 -9035750000.0 -9035750000.0 -9035750000.0 -9035750000.0 -9035750000.0 -9035750000.0 -9035750000.0 -9035750000.0 -9035750000.0 -9035750000.0 -9035750000.0 -9035750000.0 -9035750000.0 -9035750000.0 -9035750000.0 -9035750000.0 -9035750000.0 -9035750000.0 -9035750000.0 -9035750000.0 -9035750000.0 -9035750000.0 -9035750000.0 -9035750000.0 -9035750000.0 -9035750000.0 -9035750000.0 -9035750000.0 -9035750000.0 -9035750000.0 -9035750000.0 -9035750000.0 -9035750000.0 -9035750000.0 -9035750000.0 -9035750000.0 -9035750000.0 -9035750000.0 -9035750000.0 -9035750000.0 -9035750000.0 -9035750000.0 -9035750000.0 -9035750000.0 -9035750000.0 -9035750000.0 -9035750000.0 -9035750000.0 -9035750000.0 -9035750000.0 -9035750000.0 -9035750000.0 -9035750000.0 -9035750000.0 -9035750000.0 -9035750000.0 -9035750000.0 -9035750000.0 -9035750000.0 -9035750000.0 -9035750000.0 -9035750000.0 -9035750000.0 -9035750000.0 -9035750000.0 -9035750000.0 -9035750000.0 -9035750000.0 -9035750000.0 -9035750000.0 -9035750000.0 -9035750000.0 -9035750000.0 -9035750000.0 -9035750000.0 -9035750000.0 -9035750000.0 -9035750000.0 -9035750000.0 -9035750000.0 -9035750000.0 -9035750000.0 -9035750000.0 -9035750000.0 -9035750000.0 -9035750000.0 -9035750000.0 -9035750000.0 -9035750000.0 -9035750000.0 -9035750000.0 -9035750000.0 -9035750000.0 -9035750000.0 -9035750000.0 -9035750000.0 -9035750000.0 -9035750000.0 -9035750000.0 -9035750000.0 -9035750000.0 -9035750000.0 -9035750000.0 -9035750000.0 -9035750000.0 -9035750000.0 -9035750000.0 -9035750000.0 -9035750000.0 -9035750000.0 -9035750000.0 -9035750000.0 -9035750000.0 -9035750000.0 -9035750000.0 -9035750000.0 -9035750000.0 -9035750000.0 -9035750000.0 -9035750000.0 -9035750000.0 -9035750000.0 -9035750000.0 -9035750000.0 -9035750000.0 -9035750000.0 -9035750000.0 -9035750000.0 -9035750000.0 -9035750000.0 -9035750000.0 -9035750000.0 -9035750000.0 -9035750000.0 -9035750000.0 -9035750000.0 -9035750000.0 -9035750000.0 -9035750000.0 -9035750000.0 -9035750000.0 -9035750000.0 -9035750000.0 -9035750000.0 -9035750000.0 -9035750000.0 -9035750000.0 -9035750000.0 -9035750000.0 -9035750000.0 -9035750000.0 -9035750000.0 -9035750000.0 -9035750000.0 -9035750000.0 -9035750000.0 -9035750000.0 -9035750000.0 -9035750000.0 -9035750000.0 -9035750000.0 -9035750000.0 -9035750000.0 -9035750000.0 -9035750000.0 -9035750000.0 -9035750000.0 -9035750000.0 -9035750000.0 -9035750000.0 -9035750000.0 -9035750000.0 -9035750000.0 -9035750000.0 -9035750000.0 -9035750000.0 -9035750000.0 -9035750000.0 -9035750000.0 -9035750000.0 -9035750000.0 -9035750000.0 -9035750000.0 -9035750000.0 -9035750000.0 -9035750000.0 -9035750000.0 -9035750000.0 -9035750000.0 -9035750000.0 -9035750000.0 -9035750000.0 -9035750000.0 -9035750000.0 -9035750000.0 -9035750000.0 -9035750000.0 -9035750000.0 -9035750000.0 -9035750000.0 -9035750000.0 -9035750000.0 -9035750000.0 -9035750000.0 -9035750000.0 -9035750000.0 -9035750000.0 -9035750000.0 -9035750000.0 -9035750000.0 -9035750000.0 -9035750000.0 -9035750000.0 -9035750000.0 -9035750000.0 -9035750000.0 -9035750000.0 -9035750000.0 -9035750000.0 -9035750000.0 -9035750000.0 -9035750000.0 -9035750000.0 -9035750000.0 -9035750000.0 -9035750000.0 -9035750000.0 -9035750000.0 -9035750000.0 -9035750000.0 -9035750000.0 -9035750000.0 -9035750000.0 -9035750000.0 -9035750000.0 -9035750000.0 -9035750000.0 -9035750000.0 -9035750000.0 -9035750000.0 -9035750000.0 -9035750000.0 -9035750000.0 -9035750000.0 -9035750000.0 -9035750000.0 -9035750000.0 -9035750000.0 -9035750000.0 -9035750000.0 -9035750000.0 -9035750000.0 -9035750000.0 -9035750000.0 -9035750000.0 -9035750000.0 -9035750000.0 -9035750000.0 -9035750000.0 -9035750000.0 -9035750000.0 -9035750000.0 -9035750000.0 -9035750000.0 -9035750000.0 -9035750000.0 -9035750000.0 -9035750000.0 -9035750000.0 -9035750000.0 -9035750000.0 -9035750000.0 -9035750000.0 -9035750000.0 -9035750000.0 -9035750000.0 -9035750000.0 -9035750000.0 -9035750000.0 -9035750000.0 -9035750000.0 -9035750000.0 -9035750000.0 -9035750000.0 -9035750000.0 -9035750000.0 -9035750000.0 -9035750000.0 -9035750000.0 -9035750000.0 -9035750000.0 -9035750000.0 -9035750000.0 -9035750000.0 -9035750000.0 -9035750000.0 -9035750000.0 -9035750000.0 -9035750000.0 -9035750000.0 -9035750000.0 -9035750000.0 -9035750000.0 -9035750000.0 -9035750000.0 -9035750000.0 -9035750000.0 -9035750000.0 -9035750000.0 -9035750000.0 -9035750000.0 -9035750000.0 -9035750000.0 -9035750000.0 -9035750000.0 -9035750000.0 -9035750000.0 -9035750000.0 -9035750000.0 -9035750000.0 -9035750000.0 -9035750000.0 -9035750000.0 -9035750000.0 -9035750000.0 -9035750000.0 -9035750000.0 -9035750000.0 -9035750000.0 -9035750000.0 -9035750000.0 -9035750000.0 
SCALARS Shear_Stress float 1
LOOKUP_TABLE default
40064700000.0 208688000000.0 252564000000.0 262756000000.0 250809000000.0 230436000000.0 204680000000.0 176307000000.0 147499000000.0 119974000000.0 94861700000.0 72695500000.0 53842900000.0 38151100000.0 25305100000.0 15211500000.0 7569020000.0 1789730000.0 2540330000.0 5556790000.0 7400860000.0 8365240000.0 8795310000.0 8959970000.0 9014620000.0 9030500000.0 9034580000.0 9035520000.0 9035710000.0 9035750000.0 9035750000.0 9035750000.0 9035750000.0 9035750000.0 9035750000.0 9035750000.0 9035750000.0 9035750000.0 9035750000.0 9035750000.0 9035750000.0 9035750000.0 9035750000.0 9035750000.0 9035750000.0 9035750000.0 9035710000.0 9035520000.0 9034580000.0 9030500000.0 9014620000.0 8959970000.0 8795310000.0 8365240000.0 7400860000.0 5556790000.0 2540330000.0 1789730000.0 7569020000.0 15211500000.0 25305100000.0 38151100000.0 53842900000.0 72695500000.0 94861700000.0 119974000000.0 147499000000.0 176307000000.0 204680000000.0 230436000000.0 250809000000.0 262756000000.0 252564000000.0 208688000000.0 40064700000.0 149687000000.0 10675500000.0 22892800000.0 9036080000.0 9036660000.0 9038170000.0 9061270000.0 9086480000.0 9145960000.0 9219500000.0 9224050000.0 9195460000.0 9153700000.0 9114140000.0 9084390000.0 9063580000.0 9049510000.0 9041240000.0 9037440000.0 9036140000.0 9035820000.0 9035760000.0 9035750000.0 9035750000.0 9035750000.0 9035750000.0 9035750000.0 9035750000.0 9035750000.0 9035750000.0 9035750000.0 9035750000.0 9035750000.0 9035750000.0 9035750000.0 9035750000.0 9035750000.0 9035750000.0 9035750000.0 9035750000.0 9035750000.0 9035750000.0 9035750000.0 9035750000.0 9035750000.0 9035750000.0 9035750000.0 9035750000.0 9035750000.0 9035750000.0 9035750000.0 9035750000.0 9035750000.0 9035760000.0 9035820000.0 9036140000.0 9037440000.0 9041240000.0 9049510000.0 9063580000.0 9084390000.0 9114140000.0 9153700000.0 9195460000.0 9224050000.0 9219500000.0 9145960000.0 9086480000.0 9061270000.0 9038170000.0 9036660000.0 9036080000.0 22892800000.0 10675500000.0 149687000000.0 203030000000.0 59195300000.0 42140600000.0 40824600000.0 29457300000.0 19230500000.0 10530600000.0 3677130000.0 1212270000.0 4537780000.0 6761290000.0 8087610000.0 8729580000.0 8970400000.0 9035640000.0 9043870000.0 9040370000.0 9037380000.0 9036160000.0 9035830000.0 9035760000.0 9035750000.0 9035750000.0 9035750000.0 9035750000.0 9035750000.0 9035750000.0 9035750000.0 9035750000.0 9035750000.0 9035750000.0 9035750000.0 9035750000.0 9035750000.0 9035750000.0 9035750000.0 9035750000.0 9035750000.0 9035750000.0 9035750000.0 9035750000.0 9035750000.0 9035750000.0 9035750000.0 9035750000.0 9035750000.0 9035750000.0 9035750000.0 9035750000.0 9035750000.0 9035750000.0 9035750000.0 9035750000.0 9035750000.0 9035760000.0 9035830000.0 9036160000.0 9037380000.0 9040370000.0 9043870000.0 9035640000.0 8970400000.0 8729580000.0 8087610000.0 6761290000.0 4537780000.0 1212270000.0 3677130000.0 10530600000.0 19230500000.0 29457300000.0 40824600000.0 42140600000.0 59195300000.0 203030000000.0 278482000000.0 9013680000.0 15977100000.0 9296340000.0 9288790000.0 9263790000.0 9263330000.0 9274730000.0 9258040000.0 9215520000.0 9165700000.0 9121370000.0 9088210000.0 9065290000.0 9050280000.0 9041650000.0 9037650000.0 9036230000.0 9035840000.0 9035770000.0 9035750000.0 9035750000.0 9035750000.0 9035750000.0 9035750000.0 9035750000.0 9035750000.0 9035750000.0 9035750000.0 9035750000.0 9035750000.0 9035750000.0 9035750000.0 9035750000.0 9035750000.0 9035750000.0 9035750000.0 9035750000.0 9035750000.0 9035750000.0 9035750000.0 9035750000.0 9035750000.0 9035750000.0 9035750000.0 9035750000.0 9035750000.0 9035750000.0 9035750000.0 9035750000.0 9035750000.0 9035750000.0 9035750000.0 9035750000.0 9035750000.0 9035770000.0 9035840000.0 9036230000.0 9037650000.0 9041650000.0 9050280000.0 9065290000.0 9088210000.0 9121370000.0 9165700000.0 9215520000.0 9258040000.0 9274730000.0 9263330000.0 9263790000.0 9288790000.0 9296340000.0 15977100000.0 9013680000.0 278482000000.0 272437000000.0 9038840000.0 13714100000.0 9388460000.0 9356790000.0 9324620000.0 9307900000.0 9277010000.0 9227010000.0 9172590000.0 9125420000.0 9090340000.0 9066260000.0 9050720000.0 9041880000.0 9037760000.0 9036270000.0 9035860000.0 9035770000.0 9035750000.0 9035750000.0 9035750000.0 9035750000.0 9035750000.0 9035750000.0 9035750000.0 9035750000.0 9035750000.0 9035750000.0 9035750000.0 9035750000.0 9035750000.0 9035750000.0 9035750000.0 9035750000.0 9035750000.0 9035750000.0 9035750000.0 9035750000.0 9035750000.0 9035750000.0 9035750000.0 9035750000.0 9035750000.0 9035750000.0 9035750000.0 9035750000.0 9035750000.0 9035750000.0 9035750000.0 9035750000.0 9035750000.0 9035750000.0 9035750000.0 9035750000.0 9035750000.0 9035770000.0 9035860000.0 9036270000.0 9037760000.0 9041880000.0 9050720000.0 9066260000.0 9090340000.0 9125420000.0 9172590000.0 9227010000.0 9277010000.0 9307900000.0 9324620000.0 9356790000.0 9388460000.0 13714100000.0 9038840000.0 272437000000.0 249222000000.0 9040560000.0 12163600000.0 9438980000.0 9392160000.0 9346210000.0 9298500000.0 9239850000.0 9180220000.0 9129830000.0 9092650000.0 9067340000.0 9051210000.0 9042120000.0 9037880000.0 9036320000.0 9035870000.0 9035770000.0 9035760000.0 9035750000.0 9035750000.0 9035750000.0 9035750000.0 9035750000.0 9035750000.0 9035750000.0 9035750000.0 9035750000.0 9035750000.0 9035750000.0 9035750000.0 9035750000.0 9035750000.0 9035750000.0 9035750000.0 9035750000.0 9035750000.0 9035750000.0 9035750000.0 9035750000.0 9035750000.0 9035750000.0 9035750000.0 9035750000.0 9035750000.0 9035750000.0 9035750000.0 9035750000.0 9035750000.0 9035750000.0 9035750000.0 9035750000.0 9035750000.0 9035750000.0 9035750000.0 9035750000.0 9035760000.0 9035770000.0 9035870000.0 9036320000.0 9037880000.0 9042120000.0 9051210000.0 9067340000.0 9092650000.0 9129830000.0 9180220000.0 9239850000.0 9298500000.0 9346210000.0 9392160000.0 9438980000.0 12163600000.0 9040560000.0 249222000000.0 216406000000.0 9041870000.0 11130500000.0 9450140000.0 9390300000.0 9323050000.0 9254220000.0 9188680000.0 9134650000.0 9095170000.0 9068520000.0 9051750000.0 9042380000.0 9038010000.0 9036370000.0 9035890000.0 9035780000.0 9035760000.0 9035750000.0 9035750000.0 9035750000.0 9035750000.0 9035750000.0 9035750000.0 9035750000.0 9035750000.0 9035750000.0 9035750000.0 9035750000.0 9035750000.0 9035750000.0 9035750000.0 9035750000.0 9035750000.0 9035750000.0 9035750000.0 9035750000.0 9035750000.0 9035750000.0 9035750000.0 9035750000.0 9035750000.0 9035750000.0 9035750000.0 9035750000.0 9035750000.0 9035750000.0 9035750000.0 9035750000.0 9035750000.0 9035750000.0 9035750000.0 9035750000.0 9035750000.0 9035750000.0 9035750000.0 9035750000.0 9035760000.0 9035780000.0 9035890000.0 9036370000.0 9038010000.0 9042380000.0 9051750000.0 9068520000.0 9095170000.0 9134650000.0 9188680000.0 9254220000.0 9323050000.0 9390300000.0 9450140000.0 11130500000.0 9041870000.0 216406000000.0 179654000000.0 9042710000.0 10445000000.0 9427540000.0 9351380000.0 9270380000.0 9198080000.0 9139940000.0 9097920000.0 9069820000.0 9052350000.0 9042670000.0 9038140000.0 9036420000.0 9035900000.0 9035780000.0 9035760000.0 9035750000.0 9035750000.0 9035750000.0 9035750000.0 9035750000.0 9035750000.0 9035750000.0 9035750000.0 9035750000.0 9035750000.0 9035750000.0 9035750000.0 9035750000.0 9035750000.0 9035750000.0 9035750000.0 9035750000.0 9035750000.0 9035750000.0 9035750000.0 9035750000.0 9035750000.0 9035750000.0 9035750000.0 9035750000.0 9035750000.0 9035750000.0 9035750000.0 9035750000.0 9035750000.0 9035750000.0 9035750000.0 9035750000.0 9035750000.0 9035750000.0 9035750000.0 9035750000.0 9035750000.0 9035750000.0 9035750000.0 9035750000.0 9035760000.0 9035780000.0 9035900000.0 9036420000.0 9038140000.0 9042670000.0 9052350000.0 9069820000.0 9097920000.0 9139940000.0 9198080000.0 9270380000.0 9351380000.0 9427540000.0 10445000000.0 9042710000.0 179654000000.0 143187000000.0 9043050000.0 9985820000.0 9375810000.0 9288780000.0 9208570000.0 9145790000.0 9100950000.0 9071260000.0 9053010000.0 9042980000.0 9038280000.0 9036480000.0 9035920000.0 9035780000.0 9035760000.0 9035750000.0 9035750000.0 9035750000.0 9035750000.0 9035750000.0 9035750000.0 9035750000.0 9035750000.0 9035750000.0 9035750000.0 9035750000.0 9035750000.0 9035750000.0 9035750000.0 9035750000.0 9035750000.0 9035750000.0 9035750000.0 9035750000.0 9035750000.0 9035750000.0 9035750000.0 9035750000.0 9035750000.0 9035750000.0 9035750000.0 9035750000.0 9035750000.0 9035750000.0 9035750000.0 9035750000.0 9035750000.0 9035750000.0 9035750000.0 9035750000.0 9035750000.0 9035750000.0 9035750000.0 9035750000.0 9035750000.0 9035750000.0 9035750000.0 9035750000.0 9035760000.0 9035780000.0 9035920000.0 9036480000.0 9038280000.0 9042980000.0 9053010000.0 9071260000.0 9100950000.0 9145790000.0 9208570000.0 9288780000.0 9375810000.0 9985820000.0 9043050000.0 143187000000.0 109940000000.0 9042900000.0 9672870000.0 9305620000.0 9220390000.0 9152280000.0 9104300000.0 9072860000.0 9053740000.0 9043310000.0 9038430000.0 9036540000.0 9035940000.0 9035790000.0 9035760000.0 9035750000.0 9035750000.0 9035750000.0 9035750000.0 9035750000.0 9035750000.0 9035750000.0 9035750000.0 9035750000.0 9035750000.0 9035750000.0 9035750000.0 9035750000.0 9035750000.0 9035750000.0 9035750000.0 9035750000.0 9035750000.0 9035750000.0 9035750000.0 9035750000.0 9035750000.0 9035750000.0 9035750000.0 9035750000.0 9035750000.0 9035750000.0 9035750000.0 9035750000.0 9035750000.0 9035750000.0 9035750000.0 9035750000.0 9035750000.0 9035750000.0 9035750000.0 9035750000.0 9035750000.0 9035750000.0 9035750000.0 9035750000.0 9035750000.0 9035750000.0 9035750000.0 9035750000.0 9035760000.0 9035790000.0 9035940000.0 9036540000.0 9038430000.0 9043310000.0 9053740000.0 9072860000.0 9104300000.0 9152280000.0 9220390000.0 9305620000.0 9672870000.0 9042900000.0 109940000000.0 81639600000.0 9042340000.0 9456110000.0 9231940000.0 9159560000.0 9108030000.0 9074640000.0 9054560000.0 9043680000.0 9038590000.0 9036600000.0 9035960000.0 9035790000.0 9035760000.0 9035750000.0 9035750000.0 9035750000.0 9035750000.0 9035750000.0 9035750000.0 9035750000.0 9035750000.0 9035750000.0 9035750000.0 9035750000.0 9035750000.0 9035750000.0 9035750000.0 9035750000.0 9035750000.0 9035750000.0 9035750000.0 9035750000.0 9035750000.0 9035750000.0 9035750000.0 9035750000.0 9035750000.0 9035750000.0 9035750000.0 9035750000.0 9035750000.0 9035750000.0 9035750000.0 9035750000.0 9035750000.0 9035750000.0 9035750000.0 9035750000.0 9035750000.0 9035750000.0 9035750000.0 9035750000.0 9035750000.0 9035750000.0 9035750000.0 9035750000.0 9035750000.0 9035750000.0 9035750000.0 9035750000.0 9035760000.0 9035790000.0 9035960000.0 9036600000.0 9038590000.0 9043680000.0 9054560000.0 9074640000.0 9108030000.0 9159560000.0 9231940000.0 9456110000.0 9042340000.0 81639600000.0 58983800000.0 9041510000.0 9305220000.0 9167050000.0 9112230000.0 9076640000.0 9055470000.0 9044090000.0 9038770000.0 9036670000.0 9035980000.0 9035800000.0 9035760000.0 9035750000.0 9035750000.0 9035750000.0 9035750000.0 9035750000.0 9035750000.0 9035750000.0 9035750000.0 9035750000.0 9035750000.0 9035750000.0 9035750000.0 9035750000.0 9035750000.0 9035750000.0 9035750000.0 9035750000.0 9035750000.0 9035750000.0 9035750000.0 9035750000.0 9035750000.0 9035750000.0 9035750000.0 9035750000.0 9035750000.0 9035750000.0 9035750000.0 9035750000.0 9035750000.0 9035750000.0 9035750000.0 9035750000.0 9035750000.0 9035750000.0 9035750000.0 9035750000.0 9035750000.0 9035750000.0 9035750000.0 9035750000.0 9035750000.0 9035750000.0 9035750000.0 9035750000.0 9035750000.0 9035750000.0 9035750000.0 9035750000.0 9035760000.0 9035800000.0 9035980000.0 9036670000.0 9038770000.0 9044090000.0 9055470000.0 9076640000.0 9112230000.0 9167050000.0 9305220000.0 9041510000.0 58983800000.0 41857100000.0 9040490000.0 9201600000.0 9116730000.0 9078910000.0 9056510000.0 9044550000.0 9038960000.0 9036740000.0 9036010000.0 9035810000.0 9035760000.0 9035750000.0 9035750000.0 9035750000.0 9035750000.0 9035750000.0 9035750000.0 9035750000.0 9035750000.0 9035750000.0 9035750000.0 9035750000.0 9035750000.0 9035750000.0 9035750000.0 9035750000.0 9035750000.0 9035750000.0 9035750000.0 9035750000.0 9035750000.0 9035750000.0 9035750000.0 9035750000.0 9035750000.0 9035750000.0 9035750000.0 9035750000.0 9035750000.0 9035750000.0 9035750000.0 9035750000.0 9035750000.0 9035750000.0 9035750000.0 9035750000.0 9035750000.0 9035750000.0 9035750000.0 9035750000.0 9035750000.0 9035750000.0 9035750000.0 9035750000.0 9035750000.0 9035750000.0 9035750000.0 9035750000.0 9035750000.0 9035750000.0 9035750000.0 9035750000.0 9035760000.0 9035810000.0 9036010000.0 9036740000.0 9038960000.0 9044550000.0 9056510000.0 9078910000.0 9116730000.0 9201600000.0 9040490000.0 41857100000.0 29593300000.0 9039420000.0 9132550000.0 9081440000.0 9057690000.0 9045060000.0 9039180000.0 9036820000.0 9036030000.0 9035810000.0 9035760000.0 9035750000.0 9035750000.0 9035750000.0 9035750000.0 9035750000.0 9035750000.0 9035750000.0 9035750000.0 9035750000.0 9035750000.0 9035750000.0 9035750000.0 9035750000.0 9035750000.0 9035750000.0 9035750000.0 9035750000.0 9035750000.0 9035750000.0 9035750000.0 9035750000.0 9035750000.0 9035750000.0 9035750000.0 9035750000.0 9035750000.0 9035750000.0 9035750000.0 9035750000.0 9035750000.0 9035750000.0 9035750000.0 9035750000.0 9035750000.0 9035750000.0 9035750000.0 9035750000.0 9035750000.0 9035750000.0 9035750000.0 9035750000.0 9035750000.0 9035750000.0 9035750000.0 9035750000.0 9035750000.0 9035750000.0 9035750000.0 9035750000.0 9035750000.0 9035750000.0 9035750000.0 9035750000.0 9035760000.0 9035810000.0 9036030000.0 9036820000.0 9039180000.0 9045060000.0 9057690000.0 9081440000.0 9132550000.0 9039420000.0 29593300000.0 21271500000.0 9038410000.0 9088510000.0 9059030000.0 9045650000.0 9039420000.0 9036910000.0 9036060000.0 9035820000.0 9035770000.0 9035750000.0 9035750000.0 9035750000.0 9035750000.0 9035750000.0 9035750000.0 9035750000.0 9035750000.0 9035750000.0 9035750000.0 9035750000.0 9035750000.0 9035750000.0 9035750000.0 9035750000.0 9035750000.0 9035750000.0 9035750000.0 9035750000.0 9035750000.0 9035750000.0 9035750000.0 9035750000.0 9035750000.0 9035750000.0 9035750000.0 9035750000.0 9035750000.0 9035750000.0 9035750000.0 9035750000.0 9035750000.0 9035750000.0 9035750000.0 9035750000.0 9035750000.0 9035750000.0 9035750000.0 9035750000.0 9035750000.0 9035750000.0 9035750000.0 9035750000.0 9035750000.0 9035750000.0 9035750000.0 9035750000.0 9035750000.0 9035750000.0 9035750000.0 9035750000.0 9035750000.0 9035750000.0 9035750000.0 9035750000.0 9035770000.0 9035820000.0 9036060000.0 9036910000.0 9039420000.0 9045650000.0 9059030000.0 9088510000.0 9038410000.0 21271500000.0 15926700000.0 9037530000.0 9062130000.0 9046330000.0 9039690000.0 9037010000.0 9036100000.0 9035830000.0 9035770000.0 9035760000.0 9035750000.0 9035750000.0 9035750000.0 9035750000.0 9035750000.0 9035750000.0 9035750000.0 9035750000.0 9035750000.0 9035750000.0 9035750000.0 9035750000.0 9035750000.0 9035750000.0 9035750000.0 9035750000.0 9035750000.0 9035750000.0 9035750000.0 9035750000.0 9035750000.0 9035750000.0 9035750000.0 9035750000.0 9035750000.0 9035750000.0 9035750000.0 9035750000.0 9035750000.0 9035750000.0 9035750000.0 9035750000.0 9035750000.0 9035750000.0 9035750000.0 9035750000.0 9035750000.0 9035750000.0 9035750000.0 9035750000.0 9035750000.0 9035750000.0 9035750000.0 9035750000.0 9035750000.0 9035750000.0 9035750000.0 9035750000.0 9035750000.0 9035750000.0 9035750000.0 9035750000.0 9035750000.0 9035750000.0 9035750000.0 9035760000.0 9035770000.0 9035830000.0 9036100000.0 9037010000.0 9039690000.0 9046330000.0 9062130000.0 9037530000.0 15926700000.0 12683000000.0 9036830000.0 9047660000.0 9040010000.0 9037130000.0 9036130000.0 9035840000.0 9035770000.0 9035760000.0 9035750000.0 9035750000.0 9035750000.0 9035750000.0 9035750000.0 9035750000.0 9035750000.0 9035750000.0 9035750000.0 9035750000.0 9035750000.0 9035750000.0 9035750000.0 9035750000.0 9035750000.0 9035750000.0 9035750000.0 9035750000.0 9035750000.0 9035750000.0 9035750000.0 9035750000.0 9035750000.0 9035750000.0 9035750000.0 9035750000.0 9035750000.0 9035750000.0 9035750000.0 9035750000.0 9035750000.0 9035750000.0 9035750000.0 9035750000.0 9035750000.0 9035750000.0 9035750000.0 9035750000.0 9035750000.0 9035750000.0 9035750000.0 9035750000.0 9035750000.0 9035750000.0 9035750000.0 9035750000.0 9035750000.0 9035750000.0 9035750000.0 9035750000.0 9035750000.0 9035750000.0 9035750000.0 9035750000.0 9035750000.0 9035750000.0 9035750000.0 9035760000.0 9035770000.0 9035840000.0 9036130000.0 9037130000.0 9040010000.0 9047660000.0 9036830000.0 12683000000.0 10832400000.0 9036330000.0 9040560000.0 9037260000.0 9036180000.0 9035850000.0 9035770000.0 9035760000.0 9035750000.0 9035750000.0 9035750000.0 9035750000.0 9035750000.0 9035750000.0 9035750000.0 9035750000.0 9035750000.0 9035750000.0 9035750000.0 9035750000.0 9035750000.0 9035750000.0 9035750000.0 9035750000.0 9035750000.0 9035750000.0 9035750000.0 9035750000.0 9035750000.0 9035750000.0 9035750000.0 9035750000.0 9035750000.0 9035750000.0 9035750000.0 9035750000.0 9035750000.0 9035750000.0 9035750000.0 9035750000.0 9035750000.0 9035750000.0 9035750000.0 9035750000.0 9035750000.0 9035750000.0 9035750000.0 9035750000.0 9035750000.0 9035750000.0 9035750000.0 9035750000.0 9035750000.0 9035750000.0 9035750000.0 9035750000.0 9035750000.0 9035750000.0 9035750000.0 9035750000.0 9035750000.0 9035750000.0 9035750000.0 9035750000.0 9035750000.0 9035750000.0 9035750000.0 9035760000.0 9035770000.0 9035850000.0 9036180000.0 9037260000.0 9040560000.0 9036330000.0 10832400000.0 9850470000.0 9036020000.0 9037480000.0 9036230000.0 9035870000.0 9035780000.0 9035760000.0 9035750000.0 9035750000.0 9035750000.0 9035750000.0 9035750000.0 9035750000.0 9035750000.0 9035750000.0 9035750000.0 9035750000.0 9035750000.0 9035750000.0 9035750000.0 9035750000.0 9035750000.0 9035750000.0 9035750000.0 9035750000.0 9035750000.0 9035750000.0 9035750000.0 9035750000.0 9035750000.0 9035750000.0 9035750000.0 9035750000.0 9035750000.0 9035750000.0 9035750000.0 9035750000.0 9035750000.0 9035750000.0 9035750000.0 9035750000.0 9035750000.0 9035750000.0 9035750000.0 9035750000.0 9035750000.0 9035750000.0 9035750000.0 9035750000.0 9035750000.0 9035750000.0 9035750000.0 9035750000.0 9035750000.0 9035750000.0 9035750000.0 9035750000.0 9035750000.0 9035750000.0 9035750000.0 9035750000.0 9035750000.0 9035750000.0 9035750000.0 9035750000.0 9035750000.0 9035750000.0 9035750000.0 9035760000.0 9035780000.0 9035870000.0 9036230000.0 9037480000.0 9036020000.0 9850470000.0 9372540000.0 9035860000.0 9036300000.0 9035890000.0 9035780000.0 9035760000.0 9035750000.0 9035750000.0 9035750000.0 9035750000.0 9035750000.0 9035750000.0 9035750000.0 9035750000.0 9035750000.0 9035750000.0 9035750000.0 9035750000.0 9035750000.0 9035750000.0 9035750000.0 9035750000.0 9035750000.0 9035750000.0 9035750000.0 9035750000.0 9035750000.0 9035750000.0 9035750000.0 9035750000.0 9035750000.0 9035750000.0 9035750000.0 9035750000.0 9035750000.0 9035750000.0 9035750000.0 9035750000.0 9035750000.0 9035750000.0 9035750000.0 9035750000.0 9035750000.0 9035750000.0 9035750000.0 9035750000.0 9035750000.0 9035750000.0 9035750000.0 9035750000.0 9035750000.0 9035750000.0 9035750000.0 9035750000.0 9035750000.0 9035750000.0 9035750000.0 9035750000.0 9035750000.0 9035750000.0 9035750000.0 9035750000.0 9035750000.0 9035750000.0 9035750000.0 9035750000.0 9035750000.0 9035750000.0 9035750000.0 9035760000.0 9035780000.0 9035890000.0 9036300000.0 9035860000.0 9372540000.0 9161800000.0 9035790000.0 9035910000.0 9035790000.0 9035760000.0 9035750000.0 9035750000.0 9035750000.0 9035750000.0 9035750000.0 9035750000.0 9035750000.0 9035750000.0 9035750000.0 9035750000.0 9035750000.0 9035750000.0 9035750000.0 9035750000.0 9035750000.0 9035750000.0 9035750000.0 9035750000.0 9035750000.0 9035750000.0 9035750000.0 9035750000.0 9035750000.0 9035750000.0 9035750000.0 9035750000.0 9035750000.0 9035750000.0 9035750000.0 9035750000.0 9035750000.0 9035750000.0 9035750000.0 9035750000.0 9035750000.0 9035750000.0 9035750000.0 9035750000.0 9035750000.0 9035750000.0 9035750000.0 9035750000.0 9035750000.0 9035750000.0 9035750000.0 9035750000.0 9035750000.0 9035750000.0 9035750000.0 9035750000.0 9035750000.0 9035750000.0 9035750000.0 9035750000.0 9035750000.0 9035750000.0 9035750000.0 9035750000.0 9035750000.0 9035750000.0 9035750000.0 9035750000.0 9035750000.0 9035750000.0 9035750000.0 9035760000.0 9035790000.0 9035910000.0 9035790000.0 9161800000.0 9078310000.0 9035760000.0 9035790000.0 9035760000.0 9035750000.0 9035750000.0 9035750000.0 9035750000.0 9035750000.0 9035750000.0 9035750000.0 9035750000.0 9035750000.0 9035750000.0 9035750000.0 9035750000.0 9035750000.0 9035750000.0 9035750000.0 9035750000.0 9035750000.0 9035750000.0 9035750000.0 9035750000.0 9035750000.0 9035750000.0 9035750000.0 9035750000.0 9035750000.0 9035750000.0 9035750000.0 9035750000.0 9035750000.0 9035750000.0 9035750000.0 9035750000.0 9035750000.0 9035750000.0 9035750000.0 9035750000.0 9035750000.0 9035750000.0 9035750000.0 9035750000.0 9035750000.0 9035750000.0 9035750000.0 9035750000.0 9035750000.0 9035750000.0 9035750000.0 9035750000.0 9035750000.0 9035750000.0 9035750000.0 9035750000.0 9035750000.0 9035750000.0 9035750000.0 9035750000.0 9035750000.0 9035750000.0 9035750000.0 9035750000.0 9035750000.0 9035750000.0 9035750000.0 9035750000.0 9035750000.0 9035750000.0 9035750000.0 9035760000.0 9035790000.0 9035760000.0 9078310000.0 9048710000.0 9035760000.0 9035760000.0 9035750000.0 9035750000.0 9035750000.0 9035750000.0 9035750000.0 9035750000.0 9035750000.0 9035750000.0 9035750000.0 9035750000.0 9035750000.0 9035750000.0 9035750000.0 9035750000.0 9035750000.0 9035750000.0 9035750000.0 9035750000.0 9035750000.0 9035750000.0 9035750000.0 9035750000.0 9035750000.0 9035750000.0 9035750000.0 9035750000.0 9035750000.0 9035750000.0 9035750000.0 9035750000.0 9035750000.0 9035750000.0 9035750000.0 9035750000.0 9035750000.0 9035750000.0 9035750000.0 9035750000.0 9035750000.0 9035750000.0 9035750000.0 9035750000.0 9035750000.0 9035750000.0 9035750000.0 9035750000.0 9035750000.0 9035750000.0 9035750000.0 9035750000.0 9035750000.0 9035750000.0 9035750000.0 9035750000.0 9035750000.0 9035750000.0 9035750000.0 9035750000.0 9035750000.0 9035750000.0 9035750000.0 9035750000.0 9035750000.0 9035750000.0 9035750000.0 9035750000.0 9035750000.0 9035750000.0 9035750000.0 9035760000.0 9035760000.0 9048710000.0 9039310000.0 9035750000.0 9035750000.0 9035750000.0 9035750000.0 9035750000.0 9035750000.0 9035750000.0 9035750000.0 9035750000.0 9035750000.0 9035750000.0 9035750000.0 9035750000.0 9035750000.0 9035750000.0 9035750000.0 9035750000.0 9035750000.0 9035750000.0 9035750000.0 9035750000.0 9035750000.0 9035750000.0 9035750000.0 9035750000.0 9035750000.0 9035750000.0 9035750000.0 9035750000.0 9035750000.0 9035750000.0 9035750000.0 9035750000.0 9035750000.0 9035750000.0 9035750000.0 9035750000.0 9035750000.0 9035750000.0 9035750000.0 9035750000.0 9035750000.0 9035750000.0 9035750000.0 9035750000.0 9035750000.0 9035750000.0 9035750000.0 9035750000.0 9035750000.0 9035750000.0 9035750000.0 9035750000.0 9035750000.0 9035750000.0 9035750000.0 9035750000.0 9035750000.0 9035750000.0 9035750000.0 9035750000.0 9035750000.0 9035750000.0 9035750000.0 9035750000.0 9035750000.0 9035750000.0 9035750000.0 9035750000.0 9035750000.0 9035750000.0 9035750000.0 9035750000.0 9039310000.0 9036640000.0 9035750000.0 9035750000.0 9035750000.0 9035750000.0 9035750000.0 9035750000.0 9035750000.0 9035750000.0 9035750000.0 9035750000.0 9035750000.0 9035750000.0 9035750000.0 9035750000.0 9035750000.0 9035750000.0 9035750000.0 9035750000.0 9035750000.0 9035750000.0 9035750000.0 9035750000.0 9035750000.0 9035750000.0 9035750000.0 9035750000.0 9035750000.0 9035750000.0 9035750000.0 9035750000.0 9035750000.0 9035750000.0 9035750000.0 9035750000.0 9035750000.0 9035750000.0 9035750000.0 9035750000.0 9035750000.0 9035750000.0 9035750000.0 9035750000.0 9035750000.0 9035750000.0 9035750000.0 9035750000.0 9035750000.0 9035750000.0 9035750000.0 9035750000.0 9035750000.0 9035750000.0 9035750000.0 9035750000.0 9035750000.0 9035750000.0 9035750000.0 9035750000.0 9035750000.0 9035750000.0 9035750000.0 9035750000.0 9035750000.0 9035750000.0 9035750000.0 9035750000.0 9035750000.0 9035750000.0 9035750000.0 9035750000.0 9035750000.0 9035750000.0 9035750000.0 9036640000.0 9035950000.0 9035750000.0 9035750000.0 9035750000.0 9035750000.0 9035750000.0 9035750000.0 9035750000.0 9035750000.0 9035750000.0 9035750000.0 9035750000.0 9035750000.0 9035750000.0 9035750000.0 9035750000.0 9035750000.0 9035750000.0 9035750000.0 9035750000.0 9035750000.0 9035750000.0 9035750000.0 9035750000.0 9035750000.0 9035750000.0 9035750000.0 9035750000.0 9035750000.0 9035750000.0 9035750000.0 9035750000.0 9035750000.0 9035750000.0 9035750000.0 9035750000.0 9035750000.0 9035750000.0 9035750000.0 9035750000.0 9035750000.0 9035750000.0 9035750000.0 9035750000.0 9035750000.0 9035750000.0 9035750000.0 9035750000.0 9035750000.0 9035750000.0 9035750000.0 9035750000.0 9035750000.0 9035750000.0 9035750000.0 9035750000.0 9035750000.0 9035750000.0 9035750000.0 9035750000.0 9035750000.0 9035750000.0 9035750000.0 9035750000.0 9035750000.0 9035750000.0 9035750000.0 9035750000.0 9035750000.0 9035750000.0 9035750000.0 9035750000.0 9035750000.0 9035750000.0 9035950000.0 9035790000.0 9035750000.0 9035750000.0 9035750000.0 9035750000.0 9035750000.0 9035750000.0 9035750000.0 9035750000.0 9035750000.0 9035750000.0 9035750000.0 9035750000.0 9035750000.0 9035750000.0 9035750000.0 9035750000.0 9035750000.0 9035750000.0 9035750000.0 9035750000.0 9035750000.0 9035750000.0 9035750000.0 9035750000.0 9035750000.0 9035750000.0 9035750000.0 9035750000.0 9035750000.0 9035750000.0 9035750000.0 9035750000.0 9035750000.0 9035750000.0 9035750000.0 9035750000.0 9035750000.0 9035750000.0 9035750000.0 9035750000.0 9035750000.0 9035750000.0 9035750000.0 9035750000.0 9035750000.0 9035750000.0 9035750000.0 9035750000.0 9035750000.0 9035750000.0 9035750000.0 9035750000.0 9035750000.0 9035750000.0 9035750000.0 9035750000.0 9035750000.0 9035750000.0 9035750000.0 9035750000.0 9035750000.0 9035750000.0 9035750000.0 9035750000.0 9035750000.0 9035750000.0 9035750000.0 9035750000.0 9035750000.0 9035750000.0 9035750000.0 9035750000.0 9035750000.0 9035790000.0 9035760000.0 9035750000.0 9035750000.0 9035750000.0 9035750000.0 9035750000.0 9035750000.0 9035750000.0 9035750000.0 9035750000.0 9035750000.0 9035750000.0 9035750000.0 9035750000.0 9035750000.0 9035750000.0 9035750000.0 9035750000.0 9035750000.0 9035750000.0 9035750000.0 9035750000.0 9035750000.0 9035750000.0 9035750000.0 9035750000.0 9035750000.0 9035750000.0 9035750000.0 9035750000.0 9035750000.0 9035750000.0 9035750000.0 9035750000.0 9035750000.0 9035750000.0 9035750000.0 9035750000.0 9035750000.0 9035750000.0 9035750000.0 9035750000.0 9035750000.0 9035750000.0 9035750000.0 9035750000.0 9035750000.0 9035750000.0 9035750000.0 9035750000.0 9035750000.0 9035750000.0 9035750000.0 9035750000.0 9035750000.0 9035750000.0 9035750000.0 9035750000.0 9035750000.0 9035750000.0 9035750000.0 9035750000.0 9035750000.0 9035750000.0 9035750000.0 9035750000.0 9035750000.0 9035750000.0 9035750000.0 9035750000.0 9035750000.0 9035750000.0 9035750000.0 9035750000.0 9035760000.0 9035750000.0 9035750000.0 9035750000.0 9035750000.0 9035750000.0 9035750000.0 9035750000.0 9035750000.0 9035750000.0 9035750000.0 9035750000.0 9035750000.0 9035750000.0 9035750000.0 9035750000.0 9035750000.0 9035750000.0 9035750000.0 9035750000.0 9035750000.0 9035750000.0 9035750000.0 9035750000.0 9035750000.0 9035750000.0 9035750000.0 9035750000.0 9035750000.0 9035750000.0 9035750000.0 9035750000.0 9035750000.0 9035750000.0 9035750000.0 9035750000.0 9035750000.0 9035750000.0 9035750000.0 9035750000.0 9035750000.0 9035750000.0 9035750000.0 9035750000.0 9035750000.0 9035750000.0 9035750000.0 9035750000.0 9035750000.0 9035750000.0 9035750000.0 9035750000.0 9035750000.0 9035750000.0 9035750000.0 9035750000.0 9035750000.0 9035750000.0 9035750000.0 9035750000.0 9035750000.0 9035750000.0 9035750000.0 9035750000.0 9035750000.0 9035750000.0 9035750000.0 9035750000.0 9035750000.0 9035750000.0 9035750000.0 9035750000.0 9035750000.0 9035750000.0 9035750000.0 9035750000.0 9035750000.0 9035750000.0 9035750000.0 9035750000.0 9035750000.0 9035750000.0 9035750000.0 9035750000.0 9035750000.0 9035750000.0 9035750000.0 9035750000.0 9035750000.0 9035750000.0 9035750000.0 9035750000.0 9035750000.0 9035750000.0 9035750000.0 9035750000.0 9035750000.0 9035750000.0 9035750000.0 9035750000.0 9035750000.0 9035750000.0 9035750000.0 9035750000.0 9035750000.0 9035750000.0 9035750000.0 9035750000.0 9035750000.0 9035750000.0 9035750000.0 9035750000.0 9035750000.0 9035750000.0 9035750000.0 9035750000.0 9035750000.0 9035750000.0 9035750000.0 9035750000.0 9035750000.0 9035750000.0 9035750000.0 9035750000.0 9035750000.0 9035750000.0 9035750000.0 9035750000.0 9035750000.0 9035750000.0 9035750000.0 9035750000.0 9035750000.0 9035750000.0 9035750000.0 9035750000.0 9035750000.0 9035750000.0 9035750000.0 9035750000.0 9035750000.0 9035750000.0 9035750000.0 9035750000.0 9035750000.0 9035750000.0 9035750000.0 9035750000.0 9035750000.0 9035750000.0 9035750000.0 9035750000.0 9035750000.0 9035750000.0 9035750000.0 9035750000.0 9035750000.0 9035750000.0 9035750000.0 9035750000.0 9035750000.0 9035750000.0 9035750000.0 9035750000.0 9035750000.0 9035750000.0 9035750000.0 9035750000.0 9035750000.0 9035750000.0 9035750000.0 9035750000.0 9035750000.0 9035750000.0 9035750000.0 9035750000.0 9035750000.0 9035750000.0 9035750000.0 9035750000.0 9035750000.0 9035750000.0 9035750000.0 9035750000.0 9035750000.0 9035750000.0 9035750000.0 9035750000.0 9035750000.0 9035750000.0 9035750000.0 9035750000.0 9035750000.0 9035750000.0 9035750000.0 9035750000.0 9035750000.0 9035750000.0 9035750000.0 9035750000.0 9035750000.0 9035750000.0 9035750000.0 9035750000.0 9035750000.0 9035750000.0 9035750000.0 9035750000.0 9035750000.0 9035750000.0 9035750000.0 9035750000.0 9035750000.0 9035750000.0 9035750000.0 9035750000.0 9035750000.0 9035750000.0 9035750000.0 9035750000.0 9035750000.0 9035750000.0 9035750000.0 9035750000.0 9035750000.0 9035750000.0 9035750000.0 9035750000.0 9035750000.0 9035750000.0 9035750000.0 9035750000.0 9035750000.0 9035750000.0 9035750000.0 9035750000.0 9035750000.0 9035750000.0 9035750000.0 9035750000.0 9035750000.0 9035750000.0 9035750000.0 9035750000.0 9035750000.0 9035750000.0 9035750000.0 9035750000.0 9035750000.0 9035750000.0 9035750000.0 9035750000.0 9035750000.0 9035750000.0 9035750000.0 9035750000.0 9035750000.0 9035750000.0 9035750000.0 9035750000.0 9035750000.0 9035750000.0 9035750000.0 9035750000.0 9035750000.0 9035750000.0 9035750000.0 9035750000.0 9035750000.0 9035750000.0 9035750000.0 9035750000.0 9035750000.0 9035750000.0 9035750000.0 9035750000.0 9035750000.0 9035750000.0 9035750000.0 9035750000.0 9035750000.0 9035750000.0 9035750000.0 9035750000.0 9035750000.0 9035750000.0 9035750000.0 9035750000.0 9035750000.0 9035750000.0 9035750000.0 9035750000.0 9035750000.0 9035750000.0 9035750000.0 9035750000.0 9035750000.0 9035750000.0 9035750000.0 9035750000.0 9035750000.0 9035750000.0 9035750000.0 9035750000.0 9035750000.0 9035750000.0 9035750000.0 9035750000.0 9035750000.0 9035750000.0 9035750000.0 9035750000.0 9035750000.0 9035750000.0 9035750000.0 9035750000.0 9035750000.0 9035750000.0 9035750000.0 9035750000.0 9035750000.0 9035750000.0 9035750000.0 9035750000.0 9035750000.0 9035750000.0 9035750000.0 9035750000.0 9035750000.0 9035750000.0 9035750000.0 9035750000.0 9035750000.0 9035750000.0 9035750000.0 9035750000.0 9035750000.0 9035750000.0 9035750000.0 9035750000.0 9035750000.0 9035750000.0 9035750000.0 9035750000.0 9035750000.0 9035750000.0 9035750000.0 9035750000.0 9035750000.0 9035750000.0 9035750000.0 9035750000.0 9035750000.0 9035750000.0 9035750000.0 9035750000.0 9035750000.0 9035750000.0 9035750000.0 9035750000.0 9035750000.0 9035750000.0 9035750000.0 9035750000.0 9035750000.0 9035750000.0 9035750000.0 9035750000.0 9035750000.0 9035750000.0 9035750000.0 9035750000.0 9035750000.0 9035750000.0 9035750000.0 9035750000.0 9035750000.0 9035750000.0 9035750000.0 9035750000.0 9035750000.0 9035750000.0 9035750000.0 9035750000.0 9035750000.0 9035750000.0 9035750000.0 9035750000.0 9035750000.0 9035750000.0 9035750000.0 9035750000.0 9035750000.0 9035750000.0 9035750000.0 9035750000.0 9035750000.0 9035750000.0 9035750000.0 9035750000.0 9035750000.0 9035750000.0 9035750000.0 9035750000.0 9035750000.0 9035750000.0 9035750000.0 9035750000.0 9035750000.0 9035750000.0 9035750000.0 9035750000.0 9035750000.0 9035750000.0 9035750000.0 9035750000.0 9035750000.0 9035750000.0 9035750000.0 9035750000.0 9035750000.0 9035750000.0 9035750000.0 9035750000.0 9035750000.0 9035750000.0 9035750000.0 9035750000.0 9035750000.0 9035750000.0 9035750000.0 9035750000.0 9035750000.0 9035750000.0 9035750000.0 9035750000.0 9035750000.0 9035750000.0 9035750000.0 9035750000.0 9035750000.0 9035750000.0 9035750000.0 9035750000.0 9035750000.0 9035750000.0 9035750000.0 9035750000.0 9035750000.0 9035750000.0 9035750000.0 9035750000.0 9035750000.0 9035750000.0 9035750000.0 9035750000.0 9035750000.0 9035750000.0 9035750000.0 9035750000.0 9035750000.0 9035750000.0 9035750000.0 9035750000.0 9035750000.0 9035750000.0 9035750000.0 9035750000.0 9035750000.0 9035750000.0 9035750000.0 9035750000.0 9035750000.0 9035750000.0 9035750000.0 9035750000.0 9035750000.0 9035750000.0 9035750000.0 9035750000.0 9035750000.0 9035750000.0 9035750000.0 9035750000.0 9035750000.0 9035750000.0 9035750000.0 9035750000.0 9035750000.0 9035750000.0 9035750000.0 9035750000.0 9035750000.0 9035750000.0 9035750000.0 9035750000.0 9035750000.0 9035750000.0 9035750000.0 9035750000.0 9035750000.0 9035750000.0 9035750000.0 9035750000.0 9035750000.0 9035750000.0 9035750000.0 9035750000.0 9035750000.0 9035750000.0 9035750000.0 9035750000.0 9035750000.0 9035750000.0 9035750000.0 9035750000.0 9035750000.0 9035750000.0 9035750000.0 9035750000.0 9035750000.0 9035750000.0 9035750000.0 9035750000.0 9035750000.0 9035750000.0 9035750000.0 9035750000.0 9035750000.0 9035750000.0 9035750000.0 9035750000.0 9035750000.0 9035750000.0 9035750000.0 9035750000.0 9035750000.0 9035750000.0 9035750000.0 9035750000.0 9035750000.0 9035750000.0 9035750000.0 9035750000.0 9035750000.0 9035750000.0 9035750000.0 9035750000.0 9035750000.0 9035750000.0 9035750000.0 9035750000.0 9035750000.0 9035750000.0 9035750000.0 9035750000.0 9035750000.0 9035750000.0 9035750000.0 9035750000.0 9035750000.0 9035750000.0 9035750000.0 9035750000.0 9035750000.0 9035750000.0 9035750000.0 9035750000.0 9035750000.0 9035750000.0 9035750000.0 9035750000.0 9035750000.0 9035750000.0 9035750000.0 9035750000.0 9035750000.0 9035750000.0 9035750000.0 9035750000.0 9035750000.0 9035750000.0 9035750000.0 9035750000.0 9035750000.0 9035750000.0 9035750000.0 9035750000.0 9035750000.0 9035750000.0 9035750000.0 9035750000.0 9035750000.0 9035750000.0 9035750000.0 9035750000.0 9035750000.0 9035750000.0 9035750000.0 9035750000.0 9035750000.0 9035750000.0 9035750000.0 9035750000.0 9035750000.0 9035750000.0 9035750000.0 9035750000.0 9035750000.0 9035750000.0 9035750000.0 9035750000.0 9035750000.0 9035750000.0 9035750000.0 9035750000.0 9035750000.0 9035750000.0 9035750000.0 9035750000.0 9035750000.0 9035750000.0 9035750000.0 9035750000.0 9035750000.0 9035750000.0 9035750000.0 9035750000.0 9035750000.0 9035750000.0 9035750000.0 9035750000.0 9035750000.0 9035750000.0 9035750000.0 9035750000.0 9035750000.0 9035750000.0 9035750000.0 9035750000.0 9035750000.0 9035750000.0 9035750000.0 9035750000.0 9035750000.0 9035750000.0 9035750000.0 9035750000.0 9035750000.0 9035750000.0 9035750000.0 9035750000.0 9035750000.0 9035750000.0 9035750000.0 9035750000.0 9035750000.0 9035750000.0 9035750000.0 9035750000.0 9035750000.0 9035750000.0 9035750000.0 9035750000.0 9035750000.0 9035750000.0 9035750000.0 9035750000.0 9035750000.0 9035750000.0 9035750000.0 9035750000.0 9035750000.0 9035750000.0 9035750000.0 9035750000.0 9035750000.0 9035750000.0 9035750000.0 9035750000.0 9035750000.0 9035750000.0 9035750000.0 9035750000.0 9035750000.0 9035750000.0 9035750000.0 9035750000.0 9035750000.0 9035750000.0 9035750000.0 9035750000.0 9035750000.0 9035750000.0 9035750000.0 9035750000.0 9035750000.0 9035750000.0 9035750000.0 9035750000.0 9035750000.0 9035750000.0 9035750000.0 9035750000.0 9035750000.0 9035750000.0 9035750000.0 9035750000.0 9035750000.0 9035750000.0 9035750000.0 9035750000.0 9035750000.0 9035750000.0 9035750000.0 9035750000.0 9035750000.0 9035750000.0 9035750000.0 9035750000.0 9035750000.0 9035750000.0 9035750000.0 9035750000.0 9035750000.0 9035750000.0 9035750000.0 9035750000.0 9035750000.0 9035750000.0 9035750000.0 9035750000.0 9035750000.0 9035750000.0 9035750000.0 9035750000.0 9035750000.0 9035750000.0 9035750000.0 9035750000.0 9035750000.0 9035750000.0 9035750000.0 9035750000.0 9035750000.0 9035750000.0 9035750000.0 9035750000.0 9035750000.0 9035750000.0 9035750000.0 9035750000.0 9035750000.0 9035750000.0 9035750000.0 9035750000.0 9035750000.0 9035750000.0 9035750000.0 9035750000.0 9035750000.0 9035750000.0 9035750000.0 9035750000.0 9035750000.0 9035750000.0 9035750000.0 9035750000.0 9035750000.0 9035750000.0 9035750000.0 9035750000.0 9035750000.0 9035750000.0 9035750000.0 9035750000.0 9035750000.0 9035750000.0 9035750000.0 9035750000.0 9035750000.0 9035750000.0 9035750000.0 9035750000.0 9035750000.0 9035750000.0 9035750000.0 9035750000.0 9035750000.0 9035750000.0 9035750000.0 9035750000.0 9035750000.0 9035750000.0 9035750000.0 9035750000.0 9035750000.0 9035750000.0 9035750000.0 9035750000.0 9035750000.0 9035750000.0 9035750000.0 9035750000.0 9035750000.0 9035750000.0 9035750000.0 9035750000.0 9035750000.0 9035750000.0 9035750000.0 9035750000.0 9035750000.0 9035750000.0 9035750000.0 9035750000.0 9035750000.0 9035750000.0 9035750000.0 9035750000.0 9035750000.0 9035750000.0 9035750000.0 9035750000.0 9035750000.0 9035750000.0 9035750000.0 9035750000.0 9035750000.0 9035750000.0 9035750000.0 9035750000.0 9035750000.0 9035750000.0 9035750000.0 9035750000.0 9035750000.0 9035750000.0 9035750000.0 9035750000.0 9035750000.0 9035750000.0 9035750000.0 9035750000.0 9035750000.0 9035750000.0 9035750000.0 9035750000.0 9035750000.0 9035750000.0 9035750000.0 9035750000.0 9035750000.0 9035750000.0 9035750000.0 9035750000.0 9035750000.0 9035750000.0 9035750000.0 9035750000.0 9035750000.0 9035750000.0 9035750000.0 9035750000.0 9035750000.0 9035750000.0 9035750000.0 9035750000.0 9035750000.0 9035750000.0 9035750000.0 9035750000.0 9035750000.0 9035750000.0 9035750000.0 9035750000.0 9035750000.0 9035750000.0 9035750000.0 9035750000.0 9035750000.0 9035750000.0 9035750000.0 9035750000.0 9035750000.0 9035750000.0 9035750000.0 9035750000.0 9035750000.0 9035750000.0 9035750000.0 9035750000.0 9035750000.0 9035750000.0 9035750000.0 9035750000.0 9035750000.0 9035750000.0 9035750000.0 9035750000.0 9035750000.0 9035750000.0 9035750000.0 9035750000.0 9035750000.0 9035750000.0 9035750000.0 9035750000.0 9035750000.0 9035750000.0 9035750000.0 9035750000.0 9035750000.0 9035750000.0 9035750000.0 9035750000.0 9035750000.0 9035750000.0 9035750000.0 9035750000.0 9035750000.0 9035750000.0 9035750000.0 9035750000.0 9035750000.0 9035750000.0 9035750000.0 9035750000.0 9035750000.0 9035750000.0 9035750000.0 9035750000.0 9035750000.0 9035750000.0 9035750000.0 9035750000.0 9035750000.0 9035750000.0 9035750000.0 9035750000.0 9035750000.0 9035750000.0 9035750000.0 9035750000.0 9035750000.0 9035750000.0 9035750000.0 9035750000.0 9035750000.0 9035750000.0 9035750000.0 9035750000.0 9035750000.0 9035750000.0 9035750000.0 9035750000.0 9035750000.0 9035750000.0 9035750000.0 9035750000.0 9035750000.0 9035750000.0 9035750000.0 9035750000.0 9035750000.0 9035750000.0 9035750000.0 9035750000.0 9035750000.0 9035750000.0 9035750000.0 9035750000.0 9035750000.0 9035750000.0 9035750000.0 9035750000.0 9035750000.0 9035750000.0 9035750000.0 9035750000.0 9035750000.0 9035750000.0 9035750000.0 9035750000.0 9035750000.0 9035750000.0 9035750000.0 9035750000.0 9035750000.0 9035750000.0 9035750000.0 9035750000.0 9035750000.0 9035750000.0 9035750000.0 9035750000.0 9035750000.0 9035750000.0 9035750000.0 9035750000.0 9035750000.0 9035750000.0 9035750000.0 9035750000.0 9035750000.0 9035750000.0 9035750000.0 9035750000.0 9035750000.0 9035750000.0 9035750000.0 9035750000.0 9035750000.0 9035750000.0 9035750000.0 9035750000.0 9035750000.0 9035750000.0 9035750000.0 9035750000.0 9035750000.0 9035750000.0 9035750000.0 9035750000.0 9035750000.0 9035750000.0 9035750000.0 9035750000.0 9035750000.0 9035750000.0 9035750000.0 9035750000.0 9035750000.0 9035750000.0 9035750000.0 9035750000.0 9035750000.0 9035750000.0 9035750000.0 9035750000.0 9035750000.0 9035750000.0 9035750000.0 9035750000.0 9035750000.0 9035750000.0 9035750000.0 9035750000.0 9035750000.0 9035750000.0 9035750000.0 9035750000.0 9035750000.0 9035750000.0 9035750000.0 9035750000.0 9035750000.0 9035750000.0 9035750000.0 9035750000.0 9035750000.0 9035750000.0 9035750000.0 9035750000.0 9035750000.0 9035750000.0 9035750000.0 9035750000.0 9035750000.0 9035750000.0 9035750000.0 9035750000.0 9035750000.0 9035750000.0 9035750000.0 9035750000.0 9035750000.0 9035750000.0 9035750000.0 9035750000.0 9035750000.0 9035750000.0 9035750000.0 9035750000.0 9035750000.0 9035750000.0 9035750000.0 9035750000.0 9035750000.0 9035750000.0 9035750000.0 9035750000.0 9035750000.0 9035750000.0 9035750000.0 9035750000.0 9035750000.0 9035750000.0 9035750000.0 9035750000.0 9035750000.0 9035750000.0 9035750000.0 9035750000.0 9035750000.0 9035750000.0 9035750000.0 9035750000.0 9035750000.0 9035750000.0 9035750000.0 9035750000.0 9035750000.0 9035750000.0 9035750000.0 9035750000.0 9035750000.0 9035750000.0 9035750000.0 9035750000.0 9035750000.0 9035750000.0 9035750000.0 9035750000.0 9035750000.0 9035750000.0 9035750000.0 9035750000.0 9035750000.0 9035750000.0 9035750000.0 9035750000.0 9035750000.0 9035750000.0 9035750000.0 9035750000.0 9035750000.0 9035750000.0 9035750000.0 9035750000.0 9035750000.0 9035750000.0 9035750000.0 9035750000.0 9035750000.0 9035750000.0 9035750000.0 9035750000.0 9035750000.0 9035750000.0 9035750000.0 9035750000.0 9035750000.0 9035750000.0 9035750000.0 9035750000.0 9035750000.0 9035750000.0 9035750000.0 9035750000.0 9035750000.0 9035750000.0 9035750000.0 9035750000.0 9035750000.0 9035750000.0 9035750000.0 9035750000.0 9035750000.0 9035750000.0 9035750000.0 9035750000.0 9035750000.0 9035750000.0 9035750000.0 9035750000.0 9035750000.0 9035750000.0 9035750000.0 9035750000.0 9035750000.0 9035750000.0 9035750000.0 9035750000.0 9035750000.0 9035750000.0 9035750000.0 9035750000.0 9035750000.0 9035750000.0 9035750000.0 9035750000.0 9035750000.0 9035750000.0 9035750000.0 9035750000.0 9035750000.0 9035750000.0 9035750000.0 9035750000.0 9035750000.0 9035750000.0 9035750000.0 9035750000.0 9035750000.0 9035750000.0 9035750000.0 9035750000.0 9035750000.0 9035750000.0 9035750000.0 9035750000.0 9035750000.0 9035750000.0 9035750000.0 9035750000.0 9035750000.0 9035750000.0 9035750000.0 9035750000.0 9035750000.0 9035750000.0 9035750000.0 9035750000.0 9035750000.0 9035750000.0 9035750000.0 9035750000.0 9035750000.0 9035750000.0 9035750000.0 9035750000.0 9035750000.0 9035750000.0 9035750000.0 9035750000.0 9035750000.0 9035750000.0 9035750000.0 9035750000.0 9035750000.0 9035750000.0 9035750000.0 9035750000.0 9035750000.0 9035750000.0 9035750000.0 9035750000.0 9035750000.0 9035750000.0 9035750000.0 9035750000.0 9035750000.0 9035750000.0 9035750000.0 9035750000.0 9035750000.0 9035750000.0 9035750000.0 9035750000.0 9035750000.0 9035750000.0 9035750000.0 9035750000.0 9035750000.0 9035750000.0 9035750000.0 9035750000.0 9035750000.0 9035750000.0 9035750000.0 9035750000.0 9035750000.0 9035750000.0 9035750000.0 9035750000.0 9035750000.0 9035750000.0 9035750000.0 9035750000.0 9035750000.0 9035750000.0 9035750000.0 9035750000.0 9035750000.0 9035750000.0 9035750000.0 9035750000.0 9035750000.0 9035750000.0 9035750000.0 9035750000.0 9035750000.0 9035750000.0 9035750000.0 9035750000.0 9035750000.0 9035750000.0 9035750000.0 9035750000.0 9035750000.0 9035750000.0 9035750000.0 9035750000.0 9035750000.0 9035750000.0 9035750000.0 9035750000.0 9035750000.0 9035750000.0 9035750000.0 9035750000.0 9035750000.0 9035750000.0 9035750000.0 9035750000.0 9035750000.0 9035750000.0 9035750000.0 9035750000.0 9035750000.0 9035750000.0 9035750000.0 9035750000.0 9035750000.0 9035750000.0 9035750000.0 9035750000.0 9035750000.0 9035750000.0 9035750000.0 9035750000.0 9035750000.0 9035750000.0 9035750000.0 9035750000.0 9035750000.0 9035750000.0 9035750000.0 9035750000.0 9035750000.0 9035750000.0 9035750000.0 9035750000.0 9035750000.0 9035750000.0 9035750000.0 9035750000.0 9035750000.0 9035750000.0 9035750000.0 9035750000.0 9035750000.0 9035750000.0 9035750000.0 9035750000.0 9035750000.0 9035750000.0 9035750000.0 9035750000.0 9035750000.0 9035750000.0 9035750000.0 9035750000.0 9035750000.0 9035750000.0 9035750000.0 9035750000.0 9035750000.0 9035750000.0 9035750000.0 9035750000.0 9035750000.0 9035750000.0 9035750000.0 9035750000.0 9035750000.0 9035750000.0 9035750000.0 9035750000.0 9035750000.0 9035750000.0 9035750000.0 9035750000.0 9035750000.0 9035750000.0 9035750000.0 9035750000.0 9035750000.0 9035750000.0 9035750000.0 9035750000.0 9035750000.0 9035750000.0 9035750000.0 9035750000.0 9035750000.0 9035750000.0 9035750000.0 9035750000.0 9035750000.0 9035750000.0 9035750000.0 9035750000.0 9035750000.0 9035750000.0 9035750000.0 9035750000.0 9035750000.0 9035750000.0 9035750000.0 9035750000.0 9035750000.0 9035750000.0 9035750000.0 9035750000.0 9035750000.0 9035750000.0 9035750000.0 9035750000.0 9035750000.0 9035750000.0 9035750000.0 9035750000.0 9035750000.0 9035750000.0 9035750000.0 9035750000.0 9035750000.0 9035750000.0 9035750000.0 9035750000.0 9035750000.0 9035750000.0 9035750000.0 9035750000.0 9035750000.0 9035750000.0 9035750000.0 9035750000.0 9035750000.0 9035750000.0 9035750000.0 9035750000.0 9035750000.0 9035750000.0 9035750000.0 9035750000.0 9035750000.0 9035750000.0 9035750000.0 9035750000.0 9035750000.0 9035750000.0 9035750000.0 9035750000.0 9035750000.0 9035750000.0 9035750000.0 9035750000.0 9035750000.0 9035750000.0 9035750000.0 9035750000.0 9035750000.0 9035750000.0 9035750000.0 9035750000.0 9035750000.0 9035750000.0 9035750000.0 9035750000.0 9035750000.0 9035750000.0 9035750000.0 9035750000.0 9035750000.0 9035750000.0 9035750000.0 9035750000.0 9035750000.0 9035750000.0 9035750000.0 9035750000.0 9035750000.0 9035750000.0 9035750000.0 9035750000.0 9035750000.0 9035750000.0 9035750000.0 9035750000.0 9035750000.0 9035750000.0 9035750000.0 9035750000.0 9035750000.0 9035750000.0 9035750000.0 9035750000.0 9035750000.0 9035750000.0 9035750000.0 9035750000.0 9035750000.0 9035750000.0 9035750000.0 9035750000.0 9035750000.0 9035750000.0 9035750000.0 9035750000.0 9035750000.0 9035750000.0 9035750000.0 9035750000.0 9035750000.0 9035750000.0 9035750000.0 9035750000.0 9035750000.0 9035750000.0 9035750000.0 9035750000.0 9035750000.0 9035750000.0 9035750000.0 9035750000.0 9035750000.0 9035750000.0 9035750000.0 9035750000.0 9035750000.0 9035750000.0 9035750000.0 9035750000.0 9035750000.0 9035750000.0 9035750000.0 9035750000.0 9035750000.0 9035750000.0 9035750000.0 9035750000.0 9035750000.0 9035750000.0 9035750000.0 9035750000.0 9035750000.0 9035750000.0 9035750000.0 9035750000.0 9035750000.0 9035750000.0 9035750000.0 9035750000.0 9035750000.0 9035750000.0 9035750000.0 9035750000.0 9035750000.0 9035750000.0 9035750000.0 9035750000.0 9035750000.0 9035750000.0 9035750000.0 9035750000.0 9035750000.0 9035750000.0 9035750000.0 9035750000.0 9035750000.0 9035750000.0 9035750000.0 9035750000.0 9035750000.0 9035750000.0 9035750000.0 9035750000.0 9035750000.0 9035750000.0 9035750000.0 9035750000.0 9035750000.0 9035750000.0 9035750000.0 9035750000.0 9035750000.0 9035750000.0 9035750000.0 9035750000.0 9035750000.0 9035750000.0 9035750000.0 9035750000.0 9035750000.0 9035750000.0 9035750000.0 9035750000.0 9035750000.0 9035750000.0 9035750000.0 9035750000.0 9035750000.0 9035750000.0 9035750000.0 9035750000.0 9035750000.0 9035750000.0 9035750000.0 9035750000.0 9035750000.0 9035750000.0 9035750000.0 9035750000.0 9035750000.0 9035750000.0 9035750000.0 9035750000.0 9035750000.0 9035750000.0 9035750000.0 9035750000.0 9035750000.0 9035750000.0 9035750000.0 9035750000.0 9035750000.0 9035750000.0 9035750000.0 9035750000.0 9035750000.0 9035750000.0 9035750000.0 9035750000.0 9035750000.0 9035750000.0 9035750000.0 9035750000.0 9035750000.0 9035750000.0 9035750000.0 9035750000.0 9035750000.0 9035750000.0 9035750000.0 9035750000.0 9035750000.0 9035750000.0 9035750000.0 9035750000.0 9035750000.0 9035750000.0 9035750000.0 9035750000.0 9035750000.0 9035750000.0 9035750000.0 9035750000.0 9035750000.0 9035750000.0 9035750000.0 9035750000.0 9035750000.0 9035750000.0 9035750000.0 9035750000.0 9035750000.0 9035750000.0 9035750000.0 9035750000.0 9035750000.0 9035750000.0 9035750000.0 9035750000.0 9035750000.0 9035750000.0 9035750000.0 9035750000.0 9035750000.0 9035750000.0 9035750000.0 9035750000.0 9035750000.0 9035750000.0 9035750000.0 9035750000.0 9035750000.0 9035750000.0 9035750000.0 9035750000.0 9035750000.0 9035750000.0 9035750000.0 9035750000.0 9035750000.0 9035750000.0 9035750000.0 9035750000.0 9035750000.0 9035750000.0 9035750000.0 9035750000.0 9035750000.0 9035750000.0 9035750000.0 9035750000.0 9035750000.0 9035750000.0 9035750000.0 9035750000.0 9035750000.0 9035750000.0 9035750000.0 9035750000.0 9035750000.0 9035750000.0 9035750000.0 9035750000.0 9035750000.0 9035750000.0 9035750000.0 9035750000.0 9035750000.0 9035750000.0 9035750000.0 9035750000.0 9035750000.0 9035750000.0 9035750000.0 9035750000.0 9035750000.0 9035750000.0 9035750000.0 9035750000.0 9035750000.0 9035750000.0 9035750000.0 9035750000.0 9035750000.0 9035750000.0 9035750000.0 9035750000.0 9035750000.0 9035750000.0 9035750000.0 9035750000.0 9035750000.0 9035750000.0 9035750000.0 9035750000.0 9035750000.0 9035750000.0 9035750000.0 9035750000.0 9035750000.0 9035750000.0 9035750000.0 9035750000.0 9035750000.0 9035750000.0 9035750000.0 9035750000.0 9035750000.0 9035750000.0 9035750000.0 9035750000.0 9035750000.0 9035750000.0 9035750000.0 9035750000.0 9035750000.0 9035750000.0 9035750000.0 9035750000.0 9035750000.0 9035750000.0 9035750000.0 9035750000.0 9035750000.0 9035750000.0 9035750000.0 9035750000.0 9035750000.0 9035750000.0 9035750000.0 9035750000.0 9035750000.0 9035750000.0 9035750000.0 9035750000.0 9035750000.0 9035750000.0 9035750000.0 9035750000.0 9035750000.0 9035750000.0 9035750000.0 9035750000.0 9035750000.0 9035750000.0 9035750000.0 9035750000.0 9035750000.0 9035750000.0 9035750000.0 9035750000.0 9035750000.0 9035750000.0 9035750000.0 9035750000.0 9035750000.0 9035750000.0 9035750000.0 9035750000.0 9035750000.0 9035750000.0 9035750000.0 9035750000.0 9035750000.0 9035750000.0 9035750000.0 9035750000.0 9035750000.0 9035750000.0 9035750000.0 9035750000.0 9035750000.0 9035750000.0 9035750000.0 9035750000.0 9035750000.0 9035750000.0 9035750000.0 9035750000.0 9035750000.0 9035750000.0 9035750000.0 9035750000.0 9035750000.0 9035750000.0 9035750000.0 9035750000.0 9035750000.0 9035750000.0 9035750000.0 9035750000.0 9035750000.0 9035750000.0 9035750000.0 9035750000.0 9035750000.0 9035750000.0 9035750000.0 9035750000.0 9035750000.0 9035750000.0 9035750000.0 9035750000.0 9035750000.0 9035750000.0 9035750000.0 9035750000.0 9035750000.0 9035750000.0 9035750000.0 9035750000.0 9035750000.0 9035750000.0 9035750000.0 9035750000.0 9035750000.0 9035750000.0 9035750000.0 9035750000.0 9035750000.0 9035750000.0 9035750000.0 9035750000.0 9035750000.0 9035750000.0 9035750000.0 9035750000.0 9035750000.0 9035750000.0 9035750000.0 9035750000.0 9035750000.0 9035750000.0 9035750000.0 9035750000.0 9035750000.0 9035750000.0 9035750000.0 9035750000.0 9035750000.0 9035750000.0 9035750000.0 9035750000.0 9035750000.0 9035750000.0 9035750000.0 9035750000.0 9035750000.0 9035750000.0 9035750000.0 9035750000.0 9035750000.0 9035750000.0 9035750000.0 9035750000.0 9035750000.0 9035750000.0 9035750000.0 9035750000.0 9035750000.0 9035750000.0 9035750000.0 9035750000.0 9035750000.0 9035750000.0 9035750000.0 9035750000.0 9035750000.0 9035750000.0 9035750000.0 9035750000.0 9035750000.0 9035750000.0 9035750000.0 9035750000.0 9035750000.0 9035750000.0 9035750000.0 9035750000.0 9035750000.0 9035750000.0 9035750000.0 9035750000.0 9035750000.0 9035750000.0 9035750000.0 9035750000.0 9035750000.0 9035750000.0 9035750000.0 9035750000.0 9035750000.0 9035750000.0 9035750000.0 9035750000.0 9035750000.0 9035750000.0 9035750000.0 9035750000.0 9035750000.0 9035750000.0 9035750000.0 9035750000.0 9035750000.0 9035750000.0 9035750000.0 9035750000.0 9035750000.0 9035750000.0 9035750000.0 9035750000.0 9035750000.0 9035750000.0 9035750000.0 9035750000.0 9035750000.0 9035750000.0 9035750000.0 9035750000.0 9035750000.0 9035750000.0 9035750000.0 9035750000.0 9035750000.0 9035750000.0 9035750000.0 9035750000.0 9035750000.0 9035750000.0 9035750000.0 9035750000.0 9035750000.0 9035750000.0 9035750000.0 9035750000.0 9035750000.0 9035750000.0 9035750000.0 9035750000.0 9035750000.0 9035750000.0 9035750000.0 9035750000.0 9035750000.0 9035750000.0 9035750000.0 9035750000.0 9035750000.0 9035750000.0 9035750000.0 9035750000.0 9035750000.0 9035750000.0 9035750000.0 9035750000.0 9035750000.0 9035750000.0 9035750000.0 9035750000.0 9035750000.0 9035750000.0 9035750000.0 9035750000.0 9035750000.0 9035750000.0 9035750000.0 9035750000.0 9035750000.0 9035750000.0 9035750000.0 9035750000.0 9035750000.0 9035750000.0 9035750000.0 9035750000.0 9035750000.0 9035750000.0 9035750000.0 9035750000.0 9035750000.0 9035750000.0 9035750000.0 9035750000.0 9035750000.0 9035750000.0 9035750000.0 9035750000.0 9035750000.0 9035750000.0 9035750000.0 9035750000.0 9035750000.0 9035750000.0 9035750000.0 9035750000.0 9035750000.0 9035750000.0 9035750000.0 9035750000.0 9035750000.0 9035750000.0 9035750000.0 9035750000.0 9035750000.0 9035750000.0 9035750000.0 9035750000.0 9035750000.0 9035750000.0 9035750000.0 9035750000.0 9035750000.0 9035750000.0 9035750000.0 9035750000.0 9035750000.0 9035750000.0 9035750000.0 9035750000.0 9035750000.0 9035750000.0 9035750000.0 9035750000.0 9035750000.0 9035750000.0 9035750000.0 9035750000.0 9035750000.0 9035750000.0 9035750000.0 9035750000.0 9035750000.0 9035750000.0 9035750000.0 9035750000.0 9035750000.0 9035750000.0 9035750000.0 9035750000.0 9035750000.0 9035750000.0 9035750000.0 9035750000.0 9035750000.0 9035750000.0 9035750000.0 9035750000.0 9035750000.0 9035750000.0 9035750000.0 9035750000.0 9035750000.0 9035750000.0 9035750000.0 9035750000.0 9035750000.0 9035750000.0 9035750000.0 9035750000.0 9035750000.0 9035750000.0 9035750000.0 9035750000.0 9035750000.0 9035750000.0 9035750000.0 9035750000.0 9035750000.0 9035750000.0 9035750000.0 9035750000.0 9035750000.0 9035750000.0 9035750000.0 9035750000.0 9035750000.0 9035750000.0 9035750000.0 9035750000.0 9035750000.0 9035750000.0 9035750000.0 9035750000.0 9035750000.0 9035750000.0 9035750000.0 9035750000.0 9035750000.0 9035750000.0 9035750000.0 9035750000.0 9035750000.0 9035750000.0 9035750000.0 9035750000.0 9035750000.0 9035750000.0 9035750000.0 9035750000.0 9035750000.0 9035750000.0 9035750000.0 9035750000.0 9035750000.0 9035750000.0 9035750000.0 9035750000.0 9035750000.0 9035750000.0 9035750000.0 9035750000.0 9035750000.0 9035750000.0 9035750000.0 9035750000.0 9035750000.0 9035750000.0 9035750000.0 9035750000.0 9035750000.0 9035750000.0 9035750000.0 9035750000.0 9035750000.0 9035750000.0 9035750000.0 9035750000.0 9035750000.0 9035750000.0 9035750000.0 9035750000.0 9035750000.0 9035750000.0 9035750000.0 9035750000.0 9035750000.0 9035750000.0 9035750000.0 9035750000.0 9035750000.0 9035750000.0 9035750000.0 9035750000.0 9035750000.0 9035750000.0 9035750000.0 9035750000.0 9035750000.0 9035750000.0 9035750000.0 9035750000.0 9035750000.0 9035750000.0 9035750000.0 9035750000.0 9035750000.0 9035750000.0 9035750000.0 9035750000.0 9035750000.0 9035750000.0 9035750000.0 9035750000.0 9035750000.0 9035750000.0 9035750000.0 9035750000.0 9035750000.0 9035750000.0 9035750000.0 9035750000.0 9035750000.0 9035750000.0 9035750000.0 9035750000.0 9035750000.0 9035750000.0 9035750000.0 9035750000.0 9035750000.0 9035750000.0 9035750000.0 9035750000.0 9035750000.0 9035750000.0 9035750000.0 9035750000.0 9035750000.0 9035750000.0 9035750000.0 9035750000.0 9035750000.0 9035750000.0 9035750000.0 9035750000.0 9035750000.0 9035750000.0 9035750000.0 9035750000.0 9035750000.0 9035750000.0 9035750000.0 9035750000.0 9035750000.0 9035750000.0 9035750000.0 9035750000.0 9035750000.0 9035750000.0 9035750000.0 9035750000.0 9035750000.0 9035750000.0 9035750000.0 9035750000.0 9035750000.0 9035750000.0 9035750000.0 9035750000.0 9035750000.0 9035750000.0 9035750000.0 9035750000.0 9035750000.0 9035750000.0 9035750000.0 9035750000.0 9035750000.0 9035750000.0 9035750000.0 9035750000.0 9035750000.0 9035750000.0 9035750000.0 9035750000.0 9035750000.0 9035750000.0 9035750000.0 9035750000.0 9035750000.0 9035750000.0 9035750000.0 9035750000.0 9035750000.0 9035750000.0 9035750000.0 9035750000.0 9035750000.0 9035750000.0 9035750000.0 9035750000.0 9035750000.0 9035750000.0 9035750000.0 9035750000.0 9035750000.0 9035750000.0 9035750000.0 9035750000.0 9035750000.0 9035750000.0 9035750000.0 9035750000.0 9035750000.0 9035750000.0 9035750000.0 9035750000.0 9035750000.0 9035750000.0 9035750000.0 9035750000.0 9035750000.0 9035750000.0 9035750000.0 9035750000.0 9035750000.0 9035750000.0 9035750000.0 9035750000.0 9035750000.0 9035750000.0 9035750000.0 9035750000.0 9035750000.0 9035750000.0 9035750000.0 9035750000.0 9035750000.0 9035750000.0 9035750000.0 9035750000.0 9035750000.0 9035750000.0 9035750000.0 9035750000.0 9035750000.0 9035750000.0 9035750000.0 9035750000.0 9035750000.0 9035750000.0 9035750000.0 9035750000.0 9035750000.0 9035750000.0 9035750000.0 9035750000.0 9035750000.0 9035750000.0 9035750000.0 9035750000.0 9035750000.0 9035750000.0 9035750000.0 9035750000.0 9035750000.0 9035750000.0 9035750000.0 9035750000.0 9035750000.0 9035750000.0 9035750000.0 9035750000.0 9035750000.0 9035750000.0 9035750000.0 9035750000.0 9035750000.0 9035750000.0 9035750000.0 9035750000.0 9035750000.0 9035750000.0 9035750000.0 9035750000.0 9035750000.0 9035750000.0 9035750000.0 9035750000.0 9035750000.0 9035750000.0 9035750000.0 9035750000.0 9035750000.0 9035750000.0 9035750000.0 9035750000.0 9035750000.0 9035750000.0 9035750000.0 9035750000.0 9035750000.0 9035750000.0 9035750000.0 9035750000.0 9035750000.0 9035750000.0 9035750000.0 9035750000.0 9035750000.0 9035750000.0 9035750000.0 9035750000.0 9035750000.0 9035750000.0 9035750000.0 9035750000.0 9035750000.0 9035750000.0 9035750000.0 9035750000.0 9035750000.0 9035750000.0 9035750000.0 9035750000.0 9035750000.0 9035750000.0 9035750000.0 9035750000.0 9035750000.0 9035750000.0 9035750000.0 9035750000.0 9035750000.0 9035750000.0 9035750000.0 9035750000.0 9035750000.0 9035750000.0 9035750000.0 9035750000.0 9035750000.0 9035750000.0 9035750000.0 9035750000.0 9035750000.0 9035750000.0 9035750000.0 9035750000.0 9035750000.0 9035750000.0 9035750000.0 9035750000.0 9035750000.0 9035750000.0 9035750000.0 9035750000.0 9035750000.0 9035750000.0 9035750000.0 9035750000.0 9035750000.0 9035750000.0 9035750000.0 9035750000.0 9035750000.0 9035750000.0 9035750000.0 9035750000.0 9035750000.0 9035750000.0 9035750000.0 9035750000.0 9035750000.0 9035750000.0 9035750000.0 9035750000.0 9035750000.0 9035750000.0 9035750000.0 9035750000.0 9035750000.0 9035750000.0 9035750000.0 9035750000.0 9035750000.0 9035750000.0 9035750000.0 9035750000.0 9035750000.0 9035750000.0 9035750000.0 9035750000.0 9035750000.0 9035750000.0 9035750000.0 9035750000.0 9035750000.0 9035750000.0 9035750000.0 9035750000.0 9035750000.0 9035750000.0 9035750000.0 9035750000.0 9035750000.0 9035750000.0 9035750000.0 9035750000.0 9035750000.0 9035750000.0 9035750000.0 9035750000.0 9035750000.0 9035750000.0 9035750000.0 9035750000.0 9035750000.0 9035750000.0 9035750000.0 9035750000.0 9035750000.0 9035750000.0 9035750000.0 9035750000.0 9035750000.0 9035750000.0 9035750000.0 9035750000.0 9035750000.0 9035750000.0 9035750000.0 9035750000.0 9035750000.0 9035750000.0 9035750000.0 9035750000.0 9035750000.0 9035750000.0 9035750000.0 9035750000.0 9035750000.0 9035750000.0 9035750000.0 