# vtk DataFile Version 2.0
Time step 82
ASCII
DATASET UNSTRUCTURED_GRID
POINTS 5000 float
219642.0 163282.0 0
226869.0 163558.0 0
232401.0 160782.0 0
231195.0 163956.0 0
236055.0 163374.0 0
242522.0 164750.0 0
273455.0 163417.0 0
279728.0 162389.0 0
194552.0 169549.0 0
200331.0 168381.0 0
207825.0 166059.0 0
213697.0 167069.0 0
223468.0 166507.0 0
219104.0 168799.0 0
227986.0 168176.0 0
233002.0 168149.0 0
238316.0 168292.0 0
243162.0 170369.0 0
249053.0 166239.0 0
255399.0 166490.0 0
259906.0 168119.0 0
263955.0 166412.0 0
268992.0 166886.0 0
265505.0 170435.0 0
275020.0 167709.0 0
279537.0 168561.0 0
284785.0 166784.0 0
290531.0 166076.0 0
287076.0 170349.0 0
293992.0 169712.0 0
298871.0 169354.0 0
304257.0 170132.0 0
191181.0 174850.0 0
198145.0 172446.0 0
201361.0 172068.0 0
201144.0 175978.0 0
204786.0 170732.0 0
206584.0 175611.0 0
209944.0 171388.0 0
212218.0 175876.0 0
214893.0 172002.0 0
224101.0 170920.0 0
219456.0 174710.0 0
228503.0 172528.0 0
233055.0 173374.0 0
238541.0 173774.0 0
248034.0 172399.0 0
252141.0 170936.0 0
253414.0 174957.0 0
256531.0 171325.0 0
258374.0 175896.0 0
261544.0 172230.0 0
268536.0 174455.0 0
272344.0 170815.0 0
273300.0 174854.0 0
277391.0 173396.0 0
283643.0 171591.0 0
281591.0 175254.0 0
290431.0 171125.0 0
287485.0 174313.0 0
293524.0 174116.0 0
298661.0 175037.0 0
304245.0 175486.0 0
191064.0 180747.0 0
195900.0 176316.0 0
216016.0 179581.0 0
221655.0 178410.0 0
225102.0 176118.0 0
227472.0 180699.0 0
230042.0 176903.0 0
231673.0 180426.0 0
234948.0 177604.0 0
243889.0 175655.0 0
239731.0 179448.0 0
248979.0 177330.0 0
254582.0 179636.0 0
263704.0 176102.0 0
261286.0 180168.0 0
267154.0 180560.0 0
271815.0 178262.0 0
274600.0 179930.0 0
278217.0 178484.0 0
284808.0 179167.0 0
290766.0 178707.0 0
295535.0 178777.0 0
299950.0 180276.0 0
304780.0 180444.0 0
310197.0 179392.0 0
188890.0 185186.0 0
196677.0 181422.0 0
202668.0 181845.0 0
209441.0 181024.0 0
214051.0 184848.0 0
221129.0 182639.0 0
225671.0 184786.0 0
230552.0 184978.0 0
235281.0 181874.0 0
243232.0 184192.0 0
240110.0 184025.0 0
245036.0 180695.0 0
246390.0 184968.0 0
249799.0 182170.0 0
253962.0 184360.0 0
257674.0 182498.0 0
263249.0 185432.0 0
272215.0 182138.0 0
276391.0 183094.0 0
280835.0 182437.0 0
286360.0 185550.0 0
295853.0 182677.0 0
291728.0 183606.0 0
299615.0 184840.0 0
303016.0 183826.0 0
307911.0 186167.0 0
192769.0 187817.0 0
189877.0 191644.0 0
198359.0 186720.0 0
203879.0 187706.0 0
209226.0 187204.0 0
213449.0 189806.0 0
218462.0 187717.0 0
223789.0 188381.0 0
227521.0 188308.0 0
236182.0 187125.0 0
242030.0 188140.0 0
246627.0 188727.0 0
250022.0 186711.0 0
253822.0 189221.0 0
258092.0 186664.0 0
264550.0 191112.0 0
269729.0 187134.0 0
275914.0 187779.0 0
273437.0 190855.0 0
280603.0 186807.0 0
283035.0 189681.0 0
291898.0 187542.0 0
286863.0 190404.0 0
289445.0 189526.0 0
296079.0 187186.0 0
298457.0 190836.0 0
302123.0 188431.0 0
305848.0 191355.0 0
309590.0 191476.0 0
313658.0 190240.0 0
185935.0 192772.0 0
189044.0 196065.0 0
194453.0 194258.0 0
200436.0 192345.0 0
206996.0 192962.0 0
212784.0 195109.0 0
216461.0 192429.0 0
221069.0 192339.0 0
226323.0 192106.0 0
231258.0 190561.0 0
236531.0 193386.0 0
244625.0 192757.0 0
249278.0 191632.0 0
253282.0 194324.0 0
258693.0 192030.0 0
270364.0 192953.0 0
275173.0 195124.0 0
279411.0 191425.0 0
280322.0 196135.0 0
284518.0 193602.0 0
289290.0 192892.0 0
293840.0 191723.0 0
297772.0 195053.0 0
302126.0 193243.0 0
307623.0 195671.0 0
312574.0 194752.0 0
184480.0 197522.0 0
187688.0 200363.0 0
192626.0 200146.0 0
198148.0 198104.0 0
202711.0 197388.0 0
202322.0 201753.0 0
207986.0 199430.0 0
217778.0 196462.0 0
213727.0 200463.0 0
223890.0 197582.0 0
228539.0 199956.0 0
229868.0 195610.0 0
232756.0 199522.0 0
237286.0 198672.0 0
241303.0 196297.0 0
248230.0 196207.0 0
244786.0 198201.0 0
252379.0 199972.0 0
257874.0 197745.0 0
262049.0 195565.0 0
262831.0 200271.0 0
266714.0 196292.0 0
271066.0 197666.0 0
274284.0 200894.0 0
279045.0 200322.0 0
284148.0 198618.0 0
288320.0 196971.0 0
293184.0 196966.0 0
297710.0 200343.0 0
302821.0 198185.0 0
311382.0 198737.0 0
307402.0 201098.0 0
315114.0 199717.0 0
184649.0 203737.0 0
188230.0 204200.0 0
197703.0 203065.0 0
192048.0 205043.0 0
202295.0 206444.0 0
205368.0 203350.0 0
206215.0 205998.0 0
210071.0 204963.0 0
215720.0 205796.0 0
219051.0 201330.0 0
225468.0 203102.0 0
230245.0 203748.0 0
235957.0 203838.0 0
241745.0 201542.0 0
246937.0 201459.0 0
250366.0 205140.0 0
257700.0 204388.0 0
264054.0 205345.0 0
268592.0 202072.0 0
272911.0 205804.0 0
277718.0 204946.0 0
282910.0 203410.0 0
288243.0 201914.0 0
292918.0 201459.0 0
297461.0 206211.0 0
302647.0 203604.0 0
312744.0 202624.0 0
309718.0 205807.0 0
316307.0 203421.0 0
314129.0 206793.0 0
185706.0 207671.0 0
186806.0 211642.0 0
190799.0 209586.0 0
195350.0 207620.0 0
195083.0 212176.0 0
199004.0 210269.0 0
207346.0 209080.0 0
212194.0 210357.0 0
221373.0 206049.0 0
223889.0 209648.0 0
227008.0 206962.0 0
231995.0 208032.0 0
236789.0 208993.0 0
240891.0 206666.0 0
243710.0 211167.0 0
245562.0 206129.0 0
248825.0 209677.0 0
253450.0 208505.0 0
262924.0 209579.0 0
268536.0 207777.0 0
275935.0 210074.0 0
281506.0 208698.0 0
286804.0 207242.0 0
291915.0 206021.0 0
290515.0 210483.0 0
294292.0 209965.0 0
301702.0 208274.0 0
298583.0 211960.0 0
306396.0 210348.0 0
186374.0 215954.0 0
191638.0 214171.0 0
194915.0 216412.0 0
199510.0 215281.0 0
203926.0 211753.0 0
209186.0 214713.0 0
218340.0 211175.0 0
214566.0 215344.0 0
223243.0 214355.0 0
228047.0 211367.0 0
233457.0 213341.0 0
238847.0 212303.0 0
237451.0 215306.0 0
241059.0 215334.0 0
247970.0 214181.0 0
252623.0 213115.0 0
258090.0 211106.0 0
266460.0 211825.0 0
262525.0 214392.0 0
271256.0 212424.0 0
275277.0 215222.0 0
280261.0 213742.0 0
286166.0 212887.0 0
293103.0 214907.0 0
298173.0 216837.0 0
303067.0 215401.0 0
308174.0 215464.0 0
312957.0 212466.0 0
319086.0 213961.0 0
185759.0 221550.0 0
190869.0 218789.0 0
198535.0 220888.0 0
204536.0 216434.0 0
207979.0 218654.0 0
211567.0 218744.0 0
215364.0 221199.0 0
219068.0 217801.0 0
228376.0 216574.0 0
223825.0 219396.0 0
233459.0 218953.0 0
238404.0 218808.0 0
242569.0 218649.0 0
244862.0 216054.0 0
250770.0 217488.0 0
256974.0 217181.0 0
262526.0 218900.0 0
267564.0 216547.0 0
270409.0 220884.0 0
272155.0 217485.0 0
274906.0 220737.0 0
279125.0 218486.0 0
283666.0 217488.0 0
282776.0 221135.0 0
288326.0 218079.0 0
295124.0 221200.0 0
301486.0 220867.0 0
308252.0 221208.0 0
313463.0 218278.0 0
188060.0 226679.0 0
192608.0 223786.0 0
197101.0 225989.0 0
204686.0 222160.0 0
210663.0 223354.0 0
215507.0 226612.0 0
219589.0 222482.0 0
223975.0 224452.0 0
228600.0 221814.0 0
232939.0 223342.0 0
236867.0 222732.0 0
241289.0 222256.0 0
244187.0 225207.0 0
246673.0 220503.0 0
248449.0 224930.0 0
252781.0 222170.0 0
258692.0 222350.0 0
263286.0 223613.0 0
266299.0 220972.0 0
268208.0 225043.0 0
272373.0 224097.0 0
276032.0 225440.0 0
279408.0 222942.0 0
286632.0 222854.0 0
290434.0 221425.0 0
291192.0 225430.0 0
298996.0 225487.0 0
304127.0 226185.0 0
309170.0 227366.0 0
313659.0 224534.0 0
187740.0 232110.0 0
192909.0 229435.0 0
199157.0 229341.0 0
196915.0 231239.0 0
201586.0 226491.0 0
202926.0 231026.0 0
206117.0 227467.0 0
210484.0 228016.0 0
217633.0 231465.0 0
220488.0 227999.0 0
225555.0 229274.0 0
230305.0 227194.0 0
235083.0 226308.0 0
239390.0 226405.0 0
236094.0 230241.0 0
242821.0 228867.0 0
240028.0 230209.0 0
246771.0 228698.0 0
251848.0 227966.0 0
256167.0 226006.0 0
259980.0 226525.0 0
256220.0 229631.0 0
259999.0 230164.0 0
263801.0 227739.0 0
267776.0 229541.0 0
272564.0 228628.0 0
282850.0 225479.0 0
279429.0 227162.0 0
282360.0 230160.0 0
286807.0 227815.0 0
288738.0 231905.0 0
291382.0 229469.0 0
295647.0 228929.0 0
300809.0 230087.0 0
306222.0 232405.0 0
313200.0 230984.0 0
188382.0 238679.0 0
190142.0 235661.0 0
192977.0 234133.0 0
196932.0 234998.0 0
201906.0 235897.0 0
207881.0 232022.0 0
210645.0 235642.0 0
212993.0 231600.0 0
219520.0 235420.0 0
222152.0 232219.0 0
227806.0 233365.0 0
231877.0 231605.0 0
231207.0 235513.0 0
235093.0 234812.0 0
239529.0 233755.0 0
244156.0 232512.0 0
249006.0 232027.0 0
253391.0 232220.0 0
251309.0 235447.0 0
254873.0 235435.0 0
257220.0 233288.0 0
260454.0 234215.0 0
263635.0 231859.0 0
267407.0 233616.0 0
271595.0 233578.0 0
275623.0 234695.0 0
277370.0 230465.0 0
279989.0 234464.0 0
285151.0 234487.0 0
293123.0 233252.0 0
298121.0 234540.0 0
302029.0 233776.0 0
193206.0 238671.0 0
195152.0 243122.0 0
198140.0 239260.0 0
203152.0 240271.0 0
206480.0 235998.0 0
208398.0 239122.0 0
215220.0 235338.0 0
213289.0 239825.0 0
217385.0 238389.0 0
221083.0 239551.0 0
224394.0 236505.0 0
228623.0 238018.0 0
232991.0 239021.0 0
238026.0 238536.0 0
242599.0 236830.0 0
241955.0 240406.0 0
247047.0 236038.0 0
250026.0 238998.0 0
245778.0 240240.0 0
253541.0 238213.0 0
258195.0 238478.0 0
263857.0 237009.0 0
268674.0 237252.0 0
267082.0 240433.0 0
272393.0 238691.0 0
277441.0 238711.0 0
282373.0 239001.0 0
287152.0 238220.0 0
289974.0 236080.0 0
290427.0 240399.0 0
293989.0 237739.0 0
298449.0 240000.0 0
302868.0 237314.0 0
307172.0 244403.0 0
308196.0 239031.0 0
197391.0 246849.0 0
199554.0 243053.0 0
206366.0 242411.0 0
203157.0 244539.0 0
210022.0 243298.0 0
221598.0 243314.0 0
217680.0 242215.0 0
225611.0 241523.0 0
229581.0 241091.0 0
232093.0 242804.0 0
228902.0 245465.0 0
235694.0 242671.0 0
239723.0 243008.0 0
243572.0 243469.0 0
249281.0 242475.0 0
246606.0 244056.0 0
253884.0 242447.0 0
258431.0 244155.0 0
262449.0 241662.0 0
265899.0 243877.0 0
269954.0 243540.0 0
274831.0 242731.0 0
279195.0 242687.0 0
282861.0 243331.0 0
286375.0 241891.0 0
285148.0 245343.0 0
288955.0 245078.0 0
294093.0 242148.0 0
297706.0 244764.0 0
302954.0 242380.0 0
303862.0 246240.0 0
202006.0 249012.0 0
207339.0 249951.0 0
206620.0 246008.0 0
210102.0 246999.0 0
212003.0 250589.0 0
214354.0 245580.0 0
219157.0 246178.0 0
220612.0 250287.0 0
224538.0 250921.0 0
224005.0 246482.0 0
227995.0 249941.0 0
233463.0 246576.0 0
231724.0 250268.0 0
237522.0 246642.0 0
235622.0 250547.0 0
241635.0 246821.0 0
243964.0 250275.0 0
239769.0 251044.0 0
245632.0 247066.0 0
247633.0 251087.0 0
250164.0 246977.0 0
254993.0 247472.0 0
258926.0 248714.0 0
256116.0 250756.0 0
262263.0 246459.0 0
262806.0 251169.0 0
266211.0 247429.0 0
269528.0 247712.0 0
272983.0 247008.0 0
271427.0 250893.0 0
275251.0 250200.0 0
277022.0 246397.0 0
281074.0 246563.0 0
278268.0 249757.0 0
284606.0 248958.0 0
288476.0 250085.0 0
293085.0 246613.0 0
296799.0 248639.0 0
300734.0 247839.0 0
197272.0 256033.0 0
202017.0 253252.0 0
205714.0 253679.0 0
210161.0 254735.0 0
216367.0 250350.0 0
214582.0 254849.0 0
218560.0 254384.0 0
222600.0 254512.0 0
226331.0 253628.0 0
229695.0 254044.0 0
233911.0 254330.0 0
237791.0 254801.0 0
243436.0 255255.0 0
249146.0 255223.0 0
252176.0 251434.0 0
255192.0 253500.0 0
252932.0 255287.0 0
258885.0 252774.0 0
261503.0 255754.0 0
265366.0 255171.0 0
267386.0 251300.0 0
269746.0 254936.0 0
274206.0 253956.0 0
281061.0 251191.0 0
277530.0 252607.0 0
279913.0 254285.0 0
277271.0 255979.0 0
284286.0 254109.0 0
288472.0 255300.0 0
292887.0 251704.0 0
295791.0 254155.0 0
297988.0 251660.0 0
297919.0 255783.0 0
202898.0 257225.0 0
202257.0 261082.0 0
207516.0 258270.0 0
205490.0 261254.0 0
212333.0 259772.0 0
216942.0 258349.0 0
220668.0 257535.0 0
222323.0 260125.0 0
219529.0 261365.0 0
226307.0 258312.0 0
231575.0 257701.0 0
235376.0 258474.0 0
239188.0 258091.0 0
242599.0 260856.0 0
246836.0 259184.0 0
251834.0 259449.0 0
256972.0 257437.0 0
263873.0 258578.0 0
260890.0 259971.0 0
267638.0 258965.0 0
272895.0 258992.0 0
277462.0 259599.0 0
281176.0 257615.0 0
285065.0 259457.0 0
289224.0 259182.0 0
292963.0 256986.0 0
296909.0 259800.0 0
203094.0 265123.0 0
208723.0 263722.0 0
212490.0 264267.0 0
214108.0 266189.0 0
215922.0 263060.0 0
223294.0 262993.0 0
220173.0 265476.0 0
226941.0 264025.0 0
230719.0 261427.0 0
234572.0 262865.0 0
230844.0 265720.0 0
238304.0 261650.0 0
237681.0 265652.0 0
240706.0 264470.0 0
243856.0 265729.0 0
248648.0 262402.0 0
245528.0 262924.0 0
247359.0 265984.0 0
251486.0 264894.0 0
256149.0 263241.0 0
264921.0 262549.0 0
260896.0 264048.0 0
269883.0 263602.0 0
275221.0 264219.0 0
272223.0 266611.0 0
280623.0 263025.0 0
284727.0 264352.0 0
288264.0 263477.0 0
292353.0 261593.0 0
295013.0 263951.0 0
292181.0 266332.0 0
298152.0 263766.0 0
202962.0 269618.0 0
207144.0 268016.0 0
208256.0 271666.0 0
211230.0 267874.0 0
212151.0 271857.0 0
216960.0 266720.0 0
215327.0 269627.0 0
223949.0 267147.0 0
220204.0 270476.0 0
227791.0 268469.0 0
225072.0 271566.0 0
234107.0 267497.0 0
231080.0 270377.0 0
237293.0 269344.0 0
240985.0 268743.0 0
249831.0 269044.0 0
245346.0 269942.0 0
254068.0 268553.0 0
258319.0 268473.0 0
263179.0 267613.0 0
261882.0 271359.0 0
267059.0 266997.0 0
270313.0 269103.0 0
274651.0 269604.0 0
278125.0 267651.0 0
282284.0 268345.0 0
287714.0 269269.0 0
292858.0 271739.0 0
296743.0 267857.0 0
297774.0 271913.0 0
302750.0 269766.0 0
201540.0 272837.0 0
202480.0 275722.0 0
204836.0 272722.0 0
206418.0 276133.0 0
213706.0 275412.0 0
210227.0 275308.0 0
216385.0 273583.0 0
219212.0 275063.0 0
222739.0 275212.0 0
228217.0 272391.0 0
226973.0 275975.0 0
230395.0 274306.0 0
233270.0 275651.0 0
234649.0 272309.0 0
238916.0 273053.0 0
236103.0 275478.0 0
242596.0 272683.0 0
241624.0 275277.0 0
248325.0 273222.0 0
245316.0 275336.0 0
249777.0 276343.0 0
252119.0 272586.0 0
253435.0 276113.0 0
258863.0 272634.0 0
255661.0 272256.0 0
257503.0 276058.0 0
262230.0 275519.0 0
266396.0 272374.0 0
265575.0 276594.0 0
268115.0 276511.0 0
271021.0 273325.0 0
274764.0 273877.0 0
270860.0 277005.0 0
273244.0 276320.0 0
279381.0 272863.0 0
284218.0 273146.0 0
283491.0 276749.0 0
288184.0 275207.0 0
292993.0 276507.0 0
297322.0 275404.0 0
304194.0 275536.0 0
202401.0 279162.0 0
202291.0 282477.0 0
209062.0 278977.0 0
205672.0 279531.0 0
208134.0 281514.0 0
205540.0 282377.0 0
212667.0 278618.0 0
211120.0 281693.0 0
216674.0 277625.0 0
219104.0 280526.0 0
215406.0 281464.0 0
219801.0 277958.0 0
223403.0 279520.0 0
227363.0 280355.0 0
230508.0 278189.0 0
234525.0 279011.0 0
230875.0 281683.0 0
238746.0 277064.0 0
238255.0 280863.0 0
242691.0 278636.0 0
244865.0 281817.0 0
247593.0 279168.0 0
251698.0 279494.0 0
250403.0 281918.0 0
255469.0 280030.0 0
260105.0 279849.0 0
264123.0 278709.0 0
266841.0 279271.0 0
270022.0 280284.0 0
273438.0 279442.0 0
276699.0 277272.0 0
280077.0 277662.0 0
277372.0 281742.0 0
281892.0 281517.0 0
290026.0 279030.0 0
286457.0 279865.0 0
294655.0 280394.0 0
291629.0 281170.0 0
297941.0 278661.0 0
297979.0 281972.0 0
197681.0 287697.0 0
202322.0 285701.0 0
209068.0 283672.0 0
206047.0 285612.0 0
212419.0 284393.0 0
209746.0 287010.0 0
218595.0 283924.0 0
215556.0 285341.0 0
218430.0 287440.0 0
221341.0 282732.0 0
221546.0 285975.0 0
224610.0 283940.0 0
228288.0 284434.0 0
234019.0 282909.0 0
232072.0 286398.0 0
237233.0 284270.0 0
240153.0 286220.0 0
235753.0 286685.0 0
241435.0 282622.0 0
244411.0 285918.0 0
247644.0 283408.0 0
253918.0 284041.0 0
250339.0 285346.0 0
257610.0 282754.0 0
257452.0 285672.0 0
264155.0 282441.0 0
260434.0 284034.0 0
260020.0 287180.0 0
263613.0 287176.0 0
267664.0 282460.0 0
270155.0 283796.0 0
267098.0 285542.0 0
273221.0 283261.0 0
274108.0 286613.0 0
277646.0 285721.0 0
281116.0 285594.0 0
285511.0 284967.0 0
289599.0 283805.0 0
293846.0 284101.0 0
294320.0 287373.0 0
297528.0 284991.0 0
202676.0 289170.0 0
202493.0 292517.0 0
206326.0 289411.0 0
206205.0 292755.0 0
213860.0 288707.0 0
210303.0 291582.0 0
216933.0 292051.0 0
221156.0 289890.0 0
224794.0 288440.0 0
228586.0 288608.0 0
229004.0 292175.0 0
232202.0 290887.0 0
237735.0 288150.0 0
234981.0 289503.0 0
238171.0 292324.0 0
240918.0 289249.0 0
243611.0 289770.0 0
242241.0 292682.0 0
248247.0 288560.0 0
246212.0 292647.0 0
253158.0 288860.0 0
250682.0 292635.0 0
256090.0 287692.0 0
258404.0 289230.0 0
256148.0 292034.0 0
261942.0 291277.0 0
270200.0 287641.0 0
266384.0 289321.0 0
269131.0 291716.0 0
273450.0 290913.0 0
280317.0 289235.0 0
276805.0 289870.0 0
283792.0 288574.0 0
284380.0 291741.0 0
290681.0 287862.0 0
287342.0 288795.0 0
287519.0 292228.0 0
294374.0 290159.0 0
291085.0 291680.0 0
297656.0 288338.0 0
297574.0 291535.0 0
201782.0 295430.0 0
204861.0 295142.0 0
208646.0 295557.0 0
206493.0 297630.0 0
213165.0 294884.0 0
219457.0 296090.0 0
215597.0 297917.0 0
222003.0 293113.0 0
223658.0 296604.0 0
225531.0 293151.0 0
227509.0 297312.0 0
233987.0 294294.0 0
230332.0 295069.0 0
243198.0 295688.0 0
239817.0 296570.0 0
247258.0 295968.0 0
253926.0 295215.0 0
250621.0 297646.0 0
259726.0 295234.0 0
256414.0 297628.0 0
263384.0 296553.0 0
265553.0 293161.0 0
267899.0 297545.0 0
275395.0 294460.0 0
271657.0 295113.0 0
277664.0 293018.0 0
279832.0 296125.0 0
276609.0 296936.0 0
281038.0 292548.0 0
283709.0 294776.0 0
283488.0 298198.0 0
287217.0 295978.0 0
294297.0 292710.0 0
290921.0 294913.0 0
293769.0 295300.0 0
297407.0 294826.0 0
196515.0 301330.0 0
202927.0 298524.0 0
202228.0 301564.0 0
207708.0 299683.0 0
205448.0 301033.0 0
210737.0 298158.0 0
213446.0 300606.0 0
209670.0 301994.0 0
217915.0 300336.0 0
221688.0 300127.0 0
225469.0 300250.0 0
231805.0 298114.0 0
230029.0 300980.0 0
233413.0 300898.0 0
235946.0 298268.0 0
238450.0 301290.0 0
235638.0 302416.0 0
241073.0 299673.0 0
244742.0 299091.0 0
242898.0 302755.0 0
248239.0 301232.0 0
253516.0 300094.0 0
252084.0 302725.0 0
259980.0 299764.0 0
256965.0 301814.0 0
262752.0 299609.0 0
266066.0 301374.0 0
273546.0 298347.0 0
270903.0 300217.0 0
272927.0 302164.0 0
279964.0 299770.0 0
276392.0 300625.0 0
283848.0 301629.0 0
280892.0 302852.0 0
290366.0 298165.0 0
286734.0 299800.0 0
289862.0 302114.0 0
293717.0 298429.0 0
294642.0 301948.0 0
297407.0 298125.0 0
298339.0 300737.0 0
303051.0 300662.0 0
195692.0 306248.0 0
202870.0 304509.0 0
206632.0 303914.0 0
206237.0 307384.0 0
212440.0 305283.0 0
209477.0 306883.0 0
216629.0 303066.0 0
216456.0 306763.0 0
220168.0 303815.0 0
223948.0 304667.0 0
219706.0 307196.0 0
227486.0 303830.0 0
226990.0 307898.0 0
232640.0 303741.0 0
230462.0 306632.0 0
235986.0 305546.0 0
238024.0 307886.0 0
239759.0 304452.0 0
243236.0 307632.0 0
239843.0 307691.0 0
245755.0 304075.0 0
247098.0 307246.0 0
249734.0 307940.0 0
254361.0 304339.0 0
249938.0 305125.0 0
252551.0 306845.0 0
259014.0 304692.0 0
256005.0 307523.0 0
262262.0 303367.0 0
263414.0 306609.0 0
269530.0 303199.0 0
266243.0 304647.0 0
270242.0 306536.0 0
267001.0 307653.0 0
273457.0 305319.0 0
277340.0 304638.0 0
280180.0 307199.0 0
282422.0 305245.0 0
284442.0 307782.0 0
286130.0 304382.0 0
289359.0 307266.0 0
293365.0 305765.0 0
297919.0 303184.0 0
297777.0 305780.0 0
202890.0 308225.0 0
201938.0 311561.0 0
208403.0 310164.0 0
205298.0 311309.0 0
213636.0 309288.0 0
211275.0 310492.0 0
211748.0 313061.0 0
217515.0 310156.0 0
215153.0 312668.0 0
223376.0 309247.0 0
220100.0 311713.0 0
228732.0 310481.0 0
233922.0 308725.0 0
231739.0 311711.0 0
237302.0 310947.0 0
235142.0 313151.0 0
240574.0 310099.0 0
244653.0 311393.0 0
241906.0 312455.0 0
247724.0 310216.0 0
251441.0 309950.0 0
255108.0 311645.0 0
258648.0 313082.0 0
260235.0 308619.0 0
263866.0 310136.0 0
262142.0 312869.0 0
267589.0 311608.0 0
273953.0 308761.0 0
271374.0 310394.0 0
274254.0 312308.0 0
276811.0 309078.0 0
278301.0 312828.0 0
281886.0 310125.0 0
284338.0 312760.0 0
286510.0 309329.0 0
290733.0 310895.0 0
287856.0 312388.0 0
293684.0 310144.0 0
294669.0 313191.0 0
297080.0 309022.0 0
297695.0 312247.0 0
202002.0 314088.0 0
202161.0 316683.0 0
208899.0 313378.0 0
205485.0 314265.0 0
205660.0 317587.0 0
209131.0 316468.0 0
211694.0 315583.0 0
218539.0 314092.0 0
214692.0 315936.0 0
217641.0 316680.0 0
221655.0 315069.0 0
225504.0 313623.0 0
229354.0 314474.0 0
228036.0 318357.0 0
232605.0 315230.0 0
239294.0 314140.0 0
236548.0 316136.0 0
242613.0 315549.0 0
240004.0 318252.0 0
243195.0 318422.0 0
249424.0 313435.0 0
246102.0 315037.0 0
252902.0 315392.0 0
250768.0 318224.0 0
255587.0 317527.0 0
258764.0 316642.0 0
264649.0 314321.0 0
261934.0 316181.0 0
269147.0 315071.0 0
265986.0 317263.0 0
271650.0 313409.0 0
273377.0 315266.0 0
271354.0 317964.0 0
276499.0 316482.0 0
278720.0 318394.0 0
281609.0 315136.0 0
285505.0 315429.0 0
281988.0 318210.0 0
285421.0 317844.0 0
288465.0 315034.0 0
288659.0 318337.0 0
291762.0 313814.0 0
294957.0 315717.0 0
291716.0 316963.0 0
298153.0 314637.0 0
298004.0 316921.0 0
202056.0 319274.0 0
202752.0 322155.0 0
206452.0 321092.0 0
210177.0 319711.0 0
213537.0 318872.0 0
211293.0 322961.0 0
217057.0 319972.0 0
214484.0 322609.0 0
217907.0 323556.0 0
220840.0 318855.0 0
221173.0 323133.0 0
224587.0 318763.0 0
224943.0 322816.0 0
227895.0 322762.0 0
231623.0 319023.0 0
231507.0 323320.0 0
235177.0 319173.0 0
237233.0 321295.0 0
239756.0 323234.0 0
241843.0 321344.0 0
244693.0 322484.0 0
247010.0 319110.0 0
249614.0 322649.0 0
252385.0 320882.0 0
259968.0 319767.0 0
255610.0 320654.0 0
258396.0 323230.0 0
263262.0 318571.0 0
263418.0 321678.0 0
268134.0 319973.0 0
266773.0 323191.0 0
274512.0 319569.0 0
271056.0 321243.0 0
272814.0 323039.0 0
278119.0 320962.0 0
276318.0 322750.0 0
281031.0 321582.0 0
285249.0 320980.0 0
283876.0 323200.0 0
288481.0 321334.0 0
293510.0 320268.0 0
291290.0 322113.0 0
296825.0 319829.0 0
297971.0 322740.0 0
196497.0 326194.0 0
202496.0 325183.0 0
201801.0 327758.0 0
207698.0 324376.0 0
205494.0 326398.0 0
210888.0 326755.0 0
214951.0 326084.0 0
218018.0 326948.0 0
221563.0 326926.0 0
225213.0 326353.0 0
227804.0 326061.0 0
227195.0 328825.0 0
230616.0 326757.0 0
233481.0 328257.0 0
234776.0 324051.0 0
237612.0 325468.0 0
236042.0 327949.0 0
240756.0 326456.0 0
243704.0 325955.0 0
247383.0 324770.0 0
248506.0 327820.0 0
253575.0 323700.0 0
251394.0 325650.0 0
253557.0 328546.0 0
255792.0 325317.0 0
259177.0 326867.0 0
257084.0 328348.0 0
261668.0 323985.0 0
262167.0 327593.0 0
265329.0 326521.0 0
269889.0 324681.0 0
270760.0 328107.0 0
273795.0 326740.0 0
279771.0 323901.0 0
277280.0 326499.0 0
282301.0 325692.0 0
280769.0 328576.0 0
285782.0 326687.0 0
287747.0 324175.0 0
289377.0 328193.0 0
291352.0 325199.0 0
294664.0 324045.0 0
294087.0 327240.0 0
297735.0 325277.0 0
297137.0 328248.0 0
303399.0 326564.0 0
202498.0 330321.0 0
201978.0 333187.0 0
209159.0 329519.0 0
205804.0 329458.0 0
205457.0 333180.0 0
208962.0 333164.0 0
214289.0 329441.0 0
212315.0 331815.0 0
217410.0 330444.0 0
217448.0 333930.0 0
220390.0 329922.0 0
222626.0 331934.0 0
224699.0 329688.0 0
229549.0 329593.0 0
226381.0 332116.0 0
228327.0 331949.0 0
232586.0 331512.0 0
229936.0 333904.0 0
239041.0 330397.0 0
235993.0 332572.0 0
242645.0 330745.0 0
245280.0 329195.0 0
246812.0 332830.0 0
250498.0 331335.0 0
254973.0 331577.0 0
258235.0 331555.0 0
261663.0 331477.0 0
267533.0 329326.0 0
265579.0 332227.0 0
268589.0 333761.0 0
273997.0 330671.0 0
271073.0 332429.0 0
274350.0 333905.0 0
276330.0 330312.0 0
279251.0 332364.0 0
284201.0 330283.0 0
282497.0 333553.0 0
290949.0 332025.0 0
287545.0 331379.0 0
290293.0 333533.0 0
292462.0 329606.0 0
294246.0 332346.0 0
297807.0 331169.0 0
297990.0 333802.0 0
197463.0 339213.0 0
202012.0 335569.0 0
201315.0 337550.0 0
205491.0 335822.0 0
204502.0 338299.0 0
207680.0 338845.0 0
214147.0 334081.0 0
209483.0 336302.0 0
212619.0 336701.0 0
217235.0 337170.0 0
215313.0 339038.0 0
220744.0 334279.0 0
219681.0 338610.0 0
222501.0 337305.0 0
225349.0 334887.0 0
228029.0 336391.0 0
232478.0 335373.0 0
231089.0 338488.0 0
235928.0 336206.0 0
239297.0 336605.0 0
240475.0 334164.0 0
243540.0 334165.0 0
244158.0 337159.0 0
241304.0 339040.0 0
247878.0 336314.0 0
252643.0 335488.0 0
257034.0 334557.0 0
258764.0 336566.0 0
261624.0 335833.0 0
265119.0 336062.0 0
268338.0 335750.0 0
269453.0 338363.0 0
265997.0 339104.0 0
271857.0 336278.0 0
274044.0 338223.0 0
276837.0 334531.0 0
277467.0 337924.0 0
284356.0 335156.0 0
280560.0 336551.0 0
282687.0 338055.0 0
287164.0 334368.0 0
290405.0 335527.0 0
285833.0 337810.0 0
288825.0 337245.0 0
293599.0 335526.0 0
297894.0 336037.0 0
297163.0 338829.0 0
201903.0 339673.0 0
202058.0 342097.0 0
205838.0 341970.0 0
212468.0 340128.0 0
210004.0 340125.0 0
212886.0 343366.0 0
209375.0 343502.0 0
219111.0 341091.0 0
216304.0 342044.0 0
224340.0 339791.0 0
221624.0 341758.0 0
224177.0 343001.0 0
220020.0 344016.0 0
226950.0 339533.0 0
226657.0 343009.0 0
229544.0 341885.0 0
233556.0 343238.0 0
234933.0 339981.0 0
238001.0 340854.0 0
237836.0 343640.0 0
244726.0 342302.0 0
241486.0 342928.0 0
245488.0 339961.0 0
248015.0 339897.0 0
249244.0 343009.0 0
246476.0 343647.0 0
250514.0 339059.0 0
255081.0 339159.0 0
251673.0 341160.0 0
254235.0 342627.0 0
258601.0 340125.0 0
258909.0 343245.0 0
261973.0 339539.0 0
263071.0 342021.0 0
266434.0 342278.0 0
270366.0 341012.0 0
273155.0 340802.0 0
270317.0 343576.0 0
275248.0 343534.0 0
278298.0 341403.0 0
280202.0 344060.0 0
281377.0 340243.0 0
283795.0 341426.0 0
286628.0 340760.0 0
290119.0 340368.0 0
290336.0 343767.0 0
293249.0 339146.0 0
294235.0 342117.0 0
297724.0 341760.0 0
202300.0 344678.0 0
203340.0 347832.0 0
205810.0 345376.0 0
209102.0 346812.0 0
213896.0 345949.0 0
211809.0 348061.0 0
217190.0 345008.0 0
217893.0 347746.0 0
221502.0 345346.0 0
224513.0 346102.0 0
220525.0 347911.0 0
223295.0 349120.0 0
229573.0 345421.0 0
227184.0 346476.0 0
227827.0 349133.0 0
232203.0 347214.0 0
236049.0 344837.0 0
239435.0 346082.0 0
234918.0 347009.0 0
237348.0 347390.0 0
243162.0 346147.0 0
241726.0 349002.0 0
249337.0 347465.0 0
246096.0 346807.0 0
252025.0 344673.0 0
252506.0 347276.0 0
256047.0 344858.0 0
255824.0 348313.0 0
259699.0 348270.0 0
261796.0 345249.0 0
264634.0 347691.0 0
267380.0 345596.0 0
269770.0 348359.0 0
272437.0 345331.0 0
273731.0 347571.0 0
276768.0 346737.0 0
279447.0 346912.0 0
275768.0 349344.0 0
283333.0 344202.0 0
283480.0 347836.0 0
287054.0 344125.0 0
287127.0 347845.0 0
290254.0 347084.0 0
293519.0 344444.0 0
293479.0 347440.0 0
297288.0 344550.0 0
297424.0 347333.0 0
201735.0 350673.0 0
201893.0 352684.0 0
206586.0 350334.0 0
206300.0 353706.0 0
210289.0 350832.0 0
212060.0 352952.0 0
214676.0 354364.0 0
214693.0 349672.0 0
217825.0 352276.0 0
220855.0 351905.0 0
225824.0 351599.0 0
228623.0 353603.0 0
230125.0 349659.0 0
233862.0 350433.0 0
231173.0 352443.0 0
236032.0 349314.0 0
239280.0 349618.0 0
237922.0 351532.0 0
235659.0 353494.0 0
245151.0 350508.0 0
242593.0 352544.0 0
240033.0 353330.0 0
247945.0 351628.0 0
251031.0 350365.0 0
253667.0 351128.0 0
250510.0 353856.0 0
253346.0 354107.0 0
257398.0 351769.0 0
257049.0 354393.0 0
260969.0 351197.0 0
264579.0 350979.0 0
260219.0 354084.0 0
264794.0 354243.0 0
267954.0 350907.0 0
269191.0 353445.0 0
272640.0 350254.0 0
272569.0 353451.0 0
277310.0 351173.0 0
279156.0 349460.0 0
275866.0 353397.0 0
280210.0 353378.0 0
282338.0 351185.0 0
285312.0 352947.0 0
290723.0 350367.0 0
288100.0 351443.0 0
293416.0 350713.0 0
292446.0 353984.0 0
297364.0 350043.0 0
296993.0 353108.0 0
202597.0 355053.0 0
202846.0 357890.0 0
207564.0 357381.0 0
210355.0 355350.0 0
212530.0 358155.0 0
218554.0 356126.0 0
215367.0 357514.0 0
219016.0 359120.0 0
223748.0 354709.0 0
221468.0 357063.0 0
226770.0 356924.0 0
225429.0 359491.0 0
229002.0 359614.0 0
233095.0 356186.0 0
229871.0 356753.0 0
238676.0 356015.0 0
236280.0 359072.0 0
244148.0 355692.0 0
241582.0 358008.0 0
247346.0 355850.0 0
250078.0 357771.0 0
253243.0 357969.0 0
256729.0 358311.0 0
262648.0 356476.0 0
265003.0 358614.0 0
267430.0 355257.0 0
269930.0 356983.0 0
267546.0 358218.0 0
272897.0 357059.0 0
278023.0 355582.0 0
275871.0 358612.0 0
282377.0 355864.0 0
285462.0 355941.0 0
280798.0 358105.0 0
289846.0 354687.0 0
286682.0 359030.0 0
290408.0 358265.0 0
293675.0 358969.0 0
296375.0 356298.0 0
302895.0 359415.0 0
202158.0 362893.0 0
202090.0 360591.0 0
205295.0 362046.0 0
205767.0 359627.0 0
208514.0 364241.0 0
208109.0 362067.0 0
210445.0 360444.0 0
212386.0 363165.0 0
214725.0 361595.0 0
216946.0 360601.0 0
219729.0 362987.0 0
222449.0 360516.0 0
222508.0 364684.0 0
225383.0 363335.0 0
227588.0 361989.0 0
229833.0 363346.0 0
233478.0 361432.0 0
231114.0 360210.0 0
234122.0 364473.0 0
239430.0 361657.0 0
244326.0 360188.0 0
242936.0 362816.0 0
246706.0 359967.0 0
249135.0 361655.0 0
245804.0 362976.0 0
252353.0 361794.0 0
253535.0 364264.0 0
260203.0 359230.0 0
256243.0 362201.0 0
258034.0 363902.0 0
264669.0 360843.0 0
261585.0 362329.0 0
268730.0 360575.0 0
265927.0 361766.0 0
268759.0 363267.0 0
271379.0 360064.0 0
273044.0 362123.0 0
271461.0 364595.0 0
275066.0 363392.0 0
278282.0 361147.0 0
278958.0 364621.0 0
283063.0 359698.0 0
281990.0 362234.0 0
283959.0 363553.0 0
290393.0 361578.0 0
286856.0 362381.0 0
294227.0 362004.0 0
291539.0 364060.0 0
298181.0 361373.0 0
298126.0 359313.0 0
202651.0 365478.0 0
202407.0 371070.0 0
202526.0 368130.0 0
205669.0 364624.0 0
207168.0 366453.0 0
210474.0 365197.0 0
210414.0 368002.0 0
213468.0 367841.0 0
214746.0 365163.0 0
217627.0 365307.0 0
218277.0 368876.0 0
220711.0 367509.0 0
223585.0 367557.0 0
226500.0 366384.0 0
229037.0 366444.0 0
232428.0 366981.0 0
232347.0 370431.0 0
237929.0 365206.0 0
236901.0 369056.0 0
243615.0 365823.0 0
240983.0 367294.0 0
248286.0 365061.0 0
246249.0 368263.0 0
248539.0 370225.0 0
250957.0 366850.0 0
253230.0 369115.0 0
255565.0 366323.0 0
257484.0 367804.0 0
259399.0 365946.0 0
263463.0 364964.0 0
261875.0 368250.0 0
266586.0 365275.0 0
268020.0 368673.0 0
272142.0 368380.0 0
275770.0 365886.0 0
276110.0 368967.0 0
278549.0 368504.0 0
280703.0 366641.0 0
283676.0 366111.0 0
281810.0 369198.0 0
288340.0 365096.0 0
286108.0 367801.0 0
292926.0 366496.0 0
289837.0 369091.0 0
297333.0 363768.0 0
297044.0 369856.0 0
202321.0 374608.0 0
198009.0 379457.0 0
200750.0 378040.0 0
205383.0 372527.0 0
204500.0 376028.0 0
208310.0 374574.0 0
205915.0 368774.0 0
209319.0 371264.0 0
211825.0 375396.0 0
212689.0 371963.0 0
216097.0 373446.0 0
215191.0 370085.0 0
219010.0 373171.0 0
220818.0 370727.0 0
221327.0 373386.0 0
223606.0 370714.0 0
224105.0 373905.0 0
226794.0 370349.0 0
229216.0 370903.0 0
226867.0 374531.0 0
229574.0 374751.0 0
235372.0 372267.0 0
232192.0 375262.0 0
238815.0 373446.0 0
240923.0 370911.0 0
244263.0 370525.0 0
242547.0 374373.0 0
245472.0 373174.0 0
244846.0 375843.0 0
248258.0 373797.0 0
250670.0 370729.0 0
251320.0 373746.0 0
258692.0 370631.0 0
254845.0 372025.0 0
257161.0 374968.0 0
262931.0 371721.0 0
260451.0 374148.0 0
263928.0 374318.0 0
265134.0 370190.0 0
266320.0 373615.0 0
268540.0 372308.0 0
269331.0 374207.0 0
272257.0 372474.0 0
271633.0 375908.0 0
277246.0 371949.0 0
275456.0 373969.0 0
279753.0 371063.0 0
284159.0 371003.0 0
281312.0 373664.0 0
287111.0 372362.0 0
284051.0 374594.0 0
286100.0 375408.0 0
290051.0 373927.0 0
292621.0 370750.0 0
296594.0 366766.0 0
297574.0 372602.0 0
293663.0 373555.0 0
298186.0 374513.0 0
299280.0 376874.0 0
300888.0 378721.0 0
296278.0 377551.0 0
188652.0 384886.0 0
190701.0 383743.0 0
195898.0 381513.0 0
193079.0 382540.0 0
203483.0 379634.0 0
201021.0 381448.0 0
202941.0 383160.0 0
206221.0 378462.0 0
205997.0 382244.0 0
209535.0 377858.0 0
208603.0 383496.0 0
211190.0 380805.0 0
214821.0 376567.0 0
214449.0 380219.0 0
217938.0 377843.0 0
218479.0 380352.0 0
221285.0 380573.0 0
220022.0 376307.0 0
223423.0 377821.0 0
229361.0 378165.0 0
226423.0 379364.0 0
231449.0 379256.0 0
234683.0 379866.0 0
235225.0 376407.0 0
238534.0 377086.0 0
241172.0 377014.0 0
243082.0 379891.0 0
245370.0 377678.0 0
248169.0 377175.0 0
253101.0 376511.0 0
250577.0 378854.0 0
252683.0 380546.0 0
258117.0 378376.0 0
260015.0 380767.0 0
255573.0 377884.0 0
261095.0 377674.0 0
263206.0 380157.0 0
264106.0 376847.0 0
266931.0 376712.0 0
266180.0 379558.0 0
269443.0 376855.0 0
270022.0 379380.0 0
273429.0 377489.0 0
272334.0 380473.0 0
275950.0 378455.0 0
276951.0 376444.0 0
275120.0 381012.0 0
277799.0 380437.0 0
279647.0 376371.0 0
282690.0 376625.0 0
279705.0 379306.0 0
282273.0 380125.0 0
284474.0 378258.0 0
287222.0 378866.0 0
289359.0 376788.0 0
291441.0 378490.0 0
294161.0 376341.0 0
293489.0 381197.0 0
295850.0 382412.0 0
297852.0 380296.0 0
300242.0 382370.0 0
303069.0 380201.0 0
305304.0 381976.0 0
304658.0 385017.0 0
308307.0 382272.0 0
310040.0 384515.0 0
181893.0 388222.0 0
180382.0 389488.0 0
186449.0 385875.0 0
184776.0 387666.0 0
184365.0 390101.0 0
193093.0 386356.0 0
189972.0 388108.0 0
196767.0 385120.0 0
193706.0 388568.0 0
197133.0 388130.0 0
199682.0 384692.0 0
199697.0 388964.0 0
201139.0 387258.0 0
203639.0 386298.0 0
208360.0 387293.0 0
211529.0 387267.0 0
212484.0 384371.0 0
215601.0 383347.0 0
218762.0 383377.0 0
220822.0 385270.0 0
222825.0 382687.0 0
224954.0 383723.0 0
224087.0 386191.0 0
227884.0 382963.0 0
230773.0 382657.0 0
233841.0 383178.0 0
236482.0 384075.0 0
237874.0 380712.0 0
240280.0 382154.0 0
238707.0 385177.0 0
245556.0 383232.0 0
242779.0 384809.0 0
246934.0 380189.0 0
246097.0 386667.0 0
253138.0 384369.0 0
249693.0 383217.0 0
254829.0 381145.0 0
256720.0 382753.0 0
258214.0 380794.0 0
258913.0 384031.0 0
261599.0 383110.0 0
263189.0 386437.0 0
265485.0 382140.0 0
268641.0 382981.0 0
266087.0 384952.0 0
268283.0 380684.0 0
271086.0 383336.0 0
273682.0 384770.0 0
275914.0 383973.0 0
278761.0 384612.0 0
281272.0 383141.0 0
282590.0 385890.0 0
284817.0 382398.0 0
287686.0 381710.0 0
285253.0 385443.0 0
290072.0 381665.0 0
287805.0 384852.0 0
291831.0 384152.0 0
289481.0 386238.0 0
293557.0 386495.0 0
296144.0 387396.0 0
297607.0 384690.0 0
300909.0 385109.0 0
298938.0 389127.0 0
302121.0 388336.0 0
307399.0 386192.0 0
307793.0 389485.0 0
310649.0 389105.0 0
312349.0 385889.0 0
314532.0 387061.0 0
316730.0 388105.0 0
314663.0 390273.0 0
318786.0 389533.0 0
323167.0 391179.0 0
174582.0 392956.0 0
176658.0 392224.0 0
172901.0 394108.0 0
176205.0 395218.0 0
178925.0 391362.0 0
180563.0 393550.0 0
183234.0 392351.0 0
184952.0 394198.0 0
188663.0 390348.0 0
191119.0 392941.0 0
187595.0 392918.0 0
193480.0 391351.0 0
196462.0 390973.0 0
193693.0 394525.0 0
198144.0 393187.0 0
201143.0 390982.0 0
205611.0 388493.0 0
203781.0 391623.0 0
207030.0 391985.0 0
208661.0 390460.0 0
210829.0 390438.0 0
213829.0 388688.0 0
213982.0 391323.0 0
216129.0 391235.0 0
216043.0 386163.0 0
217225.0 388621.0 0
220510.0 388801.0 0
223299.0 390489.0 0
226125.0 388571.0 0
227682.0 392079.0 0
228638.0 386887.0 0
230367.0 390075.0 0
231177.0 386210.0 0
233939.0 386810.0 0
233317.0 390288.0 0
236794.0 387719.0 0
238468.0 389164.0 0
241151.0 387700.0 0
244229.0 387829.0 0
244918.0 390276.0 0
242209.0 391028.0 0
249039.0 387612.0 0
248020.0 390794.0 0
251966.0 388041.0 0
254632.0 389634.0 0
251815.0 391431.0 0
255460.0 386338.0 0
258185.0 386620.0 0
257534.0 391593.0 0
260479.0 388912.0 0
262916.0 391500.0 0
264921.0 389535.0 0
268302.0 387016.0 0
267104.0 389723.0 0
271180.0 387076.0 0
269736.0 390770.0 0
273563.0 388925.0 0
275873.0 387899.0 0
279007.0 388356.0 0
282299.0 388598.0 0
281944.0 391453.0 0
285220.0 388505.0 0
283866.0 393243.0 0
286352.0 391348.0 0
291102.0 389055.0 0
287668.0 387891.0 0
290729.0 393537.0 0
288963.0 390245.0 0
292993.0 391439.0 0
295564.0 391159.0 0
301169.0 392686.0 0
298291.0 392142.0 0
304515.0 390916.0 0
305305.0 394147.0 0
308579.0 393225.0 0
310958.0 393406.0 0
317012.0 391699.0 0
312517.0 390835.0 0
315327.0 393519.0 0
320537.0 391393.0 0
320742.0 394696.0 0
324499.0 392325.0 0
326004.0 393573.0 0
323755.0 394307.0 0
327369.0 395364.0 0
329579.0 396182.0 0
166111.0 398360.0 0
164225.0 400686.0 0
169361.0 397793.0 0
171389.0 395793.0 0
169634.0 400547.0 0
174768.0 397509.0 0
172717.0 399577.0 0
176661.0 400482.0 0
178611.0 395623.0 0
179332.0 398100.0 0
181923.0 395627.0 0
182808.0 398658.0 0
185843.0 397328.0 0
186983.0 400102.0 0
188278.0 395919.0 0
190949.0 395594.0 0
190007.0 398101.0 0
189144.0 399322.0 0
192094.0 397359.0 0
196051.0 395881.0 0
195257.0 398397.0 0
192571.0 399641.0 0
200464.0 394677.0 0
199062.0 397011.0 0
200667.0 399048.0 0
203220.0 395636.0 0
205897.0 397186.0 0
208667.0 394789.0 0
211061.0 392612.0 0
210781.0 396981.0 0
212553.0 398334.0 0
217261.0 393241.0 0
213343.0 394119.0 0
215434.0 396391.0 0
218498.0 397169.0 0
219565.0 392590.0 0
221113.0 394426.0 0
220941.0 397105.0 0
224086.0 393615.0 0
225172.0 396388.0 0
229199.0 395102.0 0
231752.0 393591.0 0
232278.0 397976.0 0
235639.0 392617.0 0
238998.0 392519.0 0
240579.0 396360.0 0
243157.0 394133.0 0
245157.0 395377.0 0
245091.0 392758.0 0
248064.0 393914.0 0
252290.0 394552.0 0
250172.0 397455.0 0
255970.0 395607.0 0
259275.0 396581.0 0
260431.0 393591.0 0
262017.0 395905.0 0
266876.0 392513.0 0
264629.0 394229.0 0
268738.0 394682.0 0
272629.0 397182.0 0
271865.0 393392.0 0
275337.0 392173.0 0
276071.0 395701.0 0
276896.0 397782.0 0
278478.0 392278.0 0
279931.0 395203.0 0
283751.0 396494.0 0
287476.0 397658.0 0
288479.0 394097.0 0
290701.0 398473.0 0
293698.0 394668.0 0
295886.0 394114.0 0
293595.0 397367.0 0
298026.0 394710.0 0
296535.0 395972.0 0
297315.0 397643.0 0
301623.0 394895.0 0
299648.0 396526.0 0
300825.0 399100.0 0
303132.0 395934.0 0
305834.0 397015.0 0
303476.0 398790.0 0
307870.0 399507.0 0
308309.0 395808.0 0
312773.0 395644.0 0
309696.0 396925.0 0
312912.0 398254.0 0
317486.0 395707.0 0
316970.0 398100.0 0
322410.0 397670.0 0
319998.0 399687.0 0
325441.0 397210.0 0
328704.0 399890.0 0
331494.0 398330.0 0
331142.0 401871.0 0
334047.0 399221.0 0
155523.0 405468.0 0
159484.0 402707.0 0
157736.0 404669.0 0
162163.0 401941.0 0
166920.0 401926.0 0
161844.0 405127.0 0
166805.0 404859.0 0
171435.0 402771.0 0
169728.0 405138.0 0
174367.0 402866.0 0
174030.0 405561.0 0
180108.0 401428.0 0
177335.0 404101.0 0
180850.0 403735.0 0
183731.0 401318.0 0
186850.0 402283.0 0
182937.0 403556.0 0
185071.0 403690.0 0
190718.0 400861.0 0
189570.0 403523.0 0
197712.0 400237.0 0
194712.0 401958.0 0
192637.0 403611.0 0
196417.0 403816.0 0
202145.0 400889.0 0
198710.0 402513.0 0
200064.0 404030.0 0
205301.0 400470.0 0
204814.0 403357.0 0
209060.0 399084.0 0
208479.0 401644.0 0
211475.0 400582.0 0
213462.0 402630.0 0
215545.0 400510.0 0
218191.0 400692.0 0
220848.0 401220.0 0
223390.0 399447.0 0
224049.0 403123.0 0
225975.0 401106.0 0
228207.0 402971.0 0
227475.0 398444.0 0
229693.0 400228.0 0
234902.0 396073.0 0
234279.0 401251.0 0
237765.0 397826.0 0
237383.0 401421.0 0
240233.0 401566.0 0
242940.0 399234.0 0
246390.0 398637.0 0
248341.0 402135.0 0
251816.0 400469.0 0
255076.0 399226.0 0
256350.0 401698.0 0
258667.0 399387.0 0
261636.0 399034.0 0
264810.0 399669.0 0
266733.0 397221.0 0
269489.0 398369.0 0
271437.0 401830.0 0
269340.0 401306.0 0
274110.0 400290.0 0
276799.0 401201.0 0
279124.0 397664.0 0
279694.0 400953.0 0
282063.0 403171.0 0
282572.0 399199.0 0
284659.0 402054.0 0
286847.0 401038.0 0
289154.0 403131.0 0
291109.0 401671.0 0
295559.0 400036.0 0
293680.0 402276.0 0
296287.0 403312.0 0
298579.0 401232.0 0
300058.0 404628.0 0
305543.0 401915.0 0
302908.0 402957.0 0
307257.0 404879.0 0
310407.0 400208.0 0
309698.0 403251.0 0
312574.0 402869.0 0
314875.0 400289.0 0
314983.0 404351.0 0
317788.0 401175.0 0
321571.0 401936.0 0
318150.0 404554.0 0
321015.0 403905.0 0
322735.0 404238.0 0
323843.0 400695.0 0
326701.0 399989.0 0
324978.0 402932.0 0
329394.0 403449.0 0
327237.0 404427.0 0
333656.0 403363.0 0
336208.0 401611.0 0
337367.0 405542.0 0
338807.0 402167.0 0
341204.0 403435.0 0
343087.0 405716.0 0
148557.0 409146.0 0
153347.0 406709.0 0
151581.0 408658.0 0
155553.0 408384.0 0
159295.0 407128.0 0
157447.0 410402.0 0
164378.0 406203.0 0
161119.0 408814.0 0
164121.0 408952.0 0
167971.0 407979.0 0
171460.0 407205.0 0
166931.0 409794.0 0
175544.0 407094.0 0
171472.0 409760.0 0
175069.0 409420.0 0
179069.0 406413.0 0
182433.0 407270.0 0
178343.0 409520.0 0
181773.0 410086.0 0
185136.0 406797.0 0
185042.0 410301.0 0
188403.0 406817.0 0
187854.0 410418.0 0
191315.0 407845.0 0
193401.0 406016.0 0
196001.0 406458.0 0
195942.0 409481.0 0
198497.0 406163.0 0
202407.0 404781.0 0
199629.0 407849.0 0
206530.0 405835.0 0
202481.0 407794.0 0
206001.0 409272.0 0
209119.0 404281.0 0
209803.0 409583.0 0
215817.0 404879.0 0
211958.0 406431.0 0
214552.0 408971.0 0
217900.0 403795.0 0
216692.0 407471.0 0
220249.0 405059.0 0
222558.0 404923.0 0
224982.0 408166.0 0
226520.0 405243.0 0
229883.0 407275.0 0
231955.0 404293.0 0
234942.0 405173.0 0
237555.0 405491.0 0
240130.0 406146.0 0
242817.0 403710.0 0
245681.0 403378.0 0
246766.0 405875.0 0
249939.0 406076.0 0
252618.0 403531.0 0
254738.0 405159.0 0
257414.0 406613.0 0
258549.0 403066.0 0
261174.0 402623.0 0
263000.0 405770.0 0
260359.0 407564.0 0
264698.0 403104.0 0
265618.0 407694.0 0
267262.0 402427.0 0
267458.0 405095.0 0
270262.0 405412.0 0
273199.0 404932.0 0
276400.0 405080.0 0
278955.0 405293.0 0
282158.0 407350.0 0
285247.0 405355.0 0
287219.0 408958.0 0
287636.0 405619.0 0
291836.0 406003.0 0
289905.0 407285.0 0
294332.0 405501.0 0
297471.0 406363.0 0
302260.0 407582.0 0
304755.0 407000.0 0
306989.0 409873.0 0
311858.0 405853.0 0
309463.0 407544.0 0
312943.0 409703.0 0
314768.0 406930.0 0
318774.0 407757.0 0
322214.0 408446.0 0
324597.0 406858.0 0
327141.0 408711.0 0
328600.0 410722.0 0
328736.0 406843.0 0
330439.0 406849.0 0
332076.0 405379.0 0
330567.0 408928.0 0
332901.0 409042.0 0
334892.0 407193.0 0
336830.0 409577.0 0
339671.0 406585.0 0
339588.0 409925.0 0
342092.0 410244.0 0
345318.0 407290.0 0
348456.0 407931.0 0
345577.0 410784.0 0
350739.0 410227.0 0
139764.0 415730.0 0
142255.0 414133.0 0
144207.0 412354.0 0
146756.0 411318.0 0
148923.0 413423.0 0
146356.0 415702.0 0
150835.0 415993.0 0
151992.0 411348.0 0
155147.0 412716.0 0
153892.0 415621.0 0
160487.0 412024.0 0
157458.0 414986.0 0
164041.0 411466.0 0
165333.0 413012.0 0
161456.0 414566.0 0
163971.0 415944.0 0
168685.0 411156.0 0
168213.0 413606.0 0
172919.0 412589.0 0
175788.0 412317.0 0
171525.0 414563.0 0
180975.0 412672.0 0
178015.0 413906.0 0
184285.0 413005.0 0
184808.0 416029.0 0
186913.0 412950.0 0
188118.0 415173.0 0
189888.0 411911.0 0
192750.0 410378.0 0
193490.0 413198.0 0
195881.0 414568.0 0
198171.0 411208.0 0
201227.0 410871.0 0
199526.0 414062.0 0
201312.0 414505.0 0
204603.0 413115.0 0
208055.0 414055.0 0
211239.0 412870.0 0
215028.0 412387.0 0
219204.0 408279.0 0
218124.0 411353.0 0
220162.0 412816.0 0
222036.0 409370.0 0
222520.0 412431.0 0
224899.0 412329.0 0
227308.0 412266.0 0
228423.0 409748.0 0
232934.0 408616.0 0
235763.0 408960.0 0
231433.0 411757.0 0
238230.0 410352.0 0
240570.0 409560.0 0
245269.0 408501.0 0
242827.0 407418.0 0
243084.0 412050.0 0
248318.0 410126.0 0
252687.0 408379.0 0
250888.0 411910.0 0
253618.0 412392.0 0
255939.0 410132.0 0
259240.0 411037.0 0
261247.0 412626.0 0
262004.0 410119.0 0
268769.0 408141.0 0
265056.0 411138.0 0
267965.0 412622.0 0
270928.0 410542.0 0
276469.0 408640.0 0
273775.0 408960.0 0
275184.0 412299.0 0
277406.0 412565.0 0
279099.0 409912.0 0
279746.0 413926.0 0
281531.0 412450.0 0
284694.0 410517.0 0
286148.0 413912.0 0
289831.0 410288.0 0
288925.0 413080.0 0
292483.0 410561.0 0
290887.0 414506.0 0
294795.0 409308.0 0
297656.0 409956.0 0
293490.0 414022.0 0
296038.0 412978.0 0
300658.0 409996.0 0
298434.0 413910.0 0
302234.0 413174.0 0
305442.0 412135.0 0
309800.0 411305.0 0
310044.0 413720.0 0
316692.0 410573.0 0
312970.0 413608.0 0
318139.0 413474.0 0
322210.0 411678.0 0
321375.0 414759.0 0
325489.0 411965.0 0
325806.0 414851.0 0
333125.0 411569.0 0
328827.0 415465.0 0
330981.0 413416.0 0
335487.0 411651.0 0
334094.0 415912.0 0
336761.0 414879.0 0
338974.0 413154.0 0
341737.0 414434.0 0
343783.0 412903.0 0
348155.0 412006.0 0
345441.0 415097.0 0
348173.0 414407.0 0
353252.0 412088.0 0
351419.0 414515.0 0
355878.0 413570.0 0
358622.0 414477.0 0
129342.0 421566.0 0
135080.0 419285.0 0
132204.0 420705.0 0
137717.0 417478.0 0
139958.0 420363.0 0
143806.0 417142.0 0
142490.0 419711.0 0
147017.0 419219.0 0
149576.0 418761.0 0
154769.0 418125.0 0
152321.0 419692.0 0
158998.0 416741.0 0
156998.0 419938.0 0
161058.0 418493.0 0
160080.0 420698.0 0
163298.0 418780.0 0
167247.0 416430.0 0
171023.0 416867.0 0
167393.0 419130.0 0
170376.0 418735.0 0
174552.0 415780.0 0
173453.0 418262.0 0
177706.0 417631.0 0
180149.0 419926.0 0
181559.0 416639.0 0
185730.0 419018.0 0
182139.0 419092.0 0
190967.0 415026.0 0
188769.0 418038.0 0
192980.0 417321.0 0
195861.0 419481.0 0
197761.0 417075.0 0
200622.0 417506.0 0
204292.0 417510.0 0
211176.0 416760.0 0
208120.0 417691.0 0
214312.0 416399.0 0
212252.0 419578.0 0
214888.0 419243.0 0
217244.0 415717.0 0
220167.0 415731.0 0
217505.0 419061.0 0
220768.0 418843.0 0
225386.0 415518.0 0
222706.0 415240.0 0
229314.0 414942.0 0
228816.0 418450.0 0
232999.0 416429.0 0
234709.0 413405.0 0
235630.0 418003.0 0
237747.0 413537.0 0
237800.0 417078.0 0
240632.0 414449.0 0
242082.0 417253.0 0
244916.0 417535.0 0
246175.0 414060.0 0
249790.0 415725.0 0
252761.0 416864.0 0
257665.0 414279.0 0
254454.0 414499.0 0
256018.0 417078.0 0
260729.0 416499.0 0
263585.0 413988.0 0
264510.0 418348.0 0
265913.0 415633.0 0
269493.0 416379.0 0
272749.0 414446.0 0
275160.0 416935.0 0
282354.0 414718.0 0
277973.0 416128.0 0
281080.0 417104.0 0
284308.0 416689.0 0
287830.0 417151.0 0
289846.0 416089.0 0
291845.0 417781.0 0
294576.0 416925.0 0
297709.0 416931.0 0
301904.0 416896.0 0
307729.0 415351.0 0
305432.0 418260.0 0
307946.0 420734.0 0
310516.0 417004.0 0
310906.0 420227.0 0
313186.0 416212.0 0
316485.0 416044.0 0
313764.0 419715.0 0
316710.0 419057.0 0
319408.0 417177.0 0
320013.0 419183.0 0
322852.0 421334.0 0
323521.0 417325.0 0
326560.0 418973.0 0
331621.0 417287.0 0
329163.0 418349.0 0
331136.0 420839.0 0
334069.0 419542.0 0
337548.0 421142.0 0
338710.0 418009.0 0
341520.0 417080.0 0
345292.0 417679.0 0
348008.0 418284.0 0
343603.0 420029.0 0
348791.0 420801.0 0
349808.0 416472.0 0
352297.0 417761.0 0
351351.0 420525.0 0
354451.0 416848.0 0
356546.0 418231.0 0
358267.0 417562.0 0
356163.0 421095.0 0
358965.0 421108.0 0
361019.0 416450.0 0
363675.0 417351.0 0
360776.0 419527.0 0
363653.0 421305.0 0
365718.0 419102.0 0
368523.0 420089.0 0
370707.0 421143.0 0
121603.0 425617.0 0
124861.0 425462.0 0
127378.0 423922.0 0
130130.0 425583.0 0
132629.0 423955.0 0
137399.0 422163.0 0
139748.0 423132.0 0
135721.0 425145.0 0
142437.0 423076.0 0
145310.0 421608.0 0
142024.0 425962.0 0
145293.0 425619.0 0
146857.0 423080.0 0
149436.0 421789.0 0
147823.0 425448.0 0
152879.0 421546.0 0
150837.0 423467.0 0
155308.0 422859.0 0
152747.0 425457.0 0
161343.0 423175.0 0
158284.0 424185.0 0
164466.0 421511.0 0
169731.0 421596.0 0
166921.0 424777.0 0
173114.0 421662.0 0
173577.0 425393.0 0
176452.0 425918.0 0
176724.0 421139.0 0
181027.0 421739.0 0
178594.0 423431.0 0
180353.0 425564.0 0
184339.0 421793.0 0
183587.0 425241.0 0
188657.0 422982.0 0
190583.0 420192.0 0
187092.0 426523.0 0
191565.0 425066.0 0
193383.0 421422.0 0
194608.0 424578.0 0
200017.0 420498.0 0
197683.0 422376.0 0
202909.0 421723.0 0
205968.0 420738.0 0
205416.0 423868.0 0
208351.0 421049.0 0
207645.0 425107.0 0
211206.0 423086.0 0
214872.0 422398.0 0
217443.0 422475.0 0
220139.0 422248.0 0
224729.0 419441.0 0
223115.0 423207.0 0
227758.0 422176.0 0
230454.0 421830.0 0
231706.0 419392.0 0
234363.0 420935.0 0
240153.0 419719.0 0
237725.0 421965.0 0
241487.0 423994.0 0
243278.0 420691.0 0
244691.0 423229.0 0
247748.0 420304.0 0
251630.0 420740.0 0
257807.0 419094.0 0
254722.0 420001.0 0
255777.0 423225.0 0
258810.0 422095.0 0
261785.0 420660.0 0
263362.0 423704.0 0
267546.0 419503.0 0
265440.0 421614.0 0
266772.0 423204.0 0
271811.0 419186.0 0
269655.0 422177.0 0
272475.0 423299.0 0
274526.0 420683.0 0
277162.0 421082.0 0
278704.0 419513.0 0
280115.0 422371.0 0
282099.0 420532.0 0
283790.0 424206.0 0
285306.0 419266.0 0
286945.0 422467.0 0
290038.0 420073.0 0
292591.0 423106.0 0
294645.0 419861.0 0
296024.0 423597.0 0
297664.0 420614.0 0
300643.0 419974.0 0
299601.0 423277.0 0
302974.0 424975.0 0
303306.0 421337.0 0
307105.0 424077.0 0
310064.0 423941.0 0
312261.0 423883.0 0
315315.0 423534.0 0
318673.0 422428.0 0
326263.0 421167.0 0
323583.0 424820.0 0
326705.0 424208.0 0
328911.0 422830.0 0
330246.0 425917.0 0
332344.0 424833.0 0
333557.0 422970.0 0
336411.0 424069.0 0
334507.0 425798.0 0
341647.0 422618.0 0
340819.0 425541.0 0
346828.0 421915.0 0
345614.0 424633.0 0
348872.0 425330.0 0
350352.0 423696.0 0
353879.0 422588.0 0
353338.0 425677.0 0
357052.0 425200.0 0
359517.0 424388.0 0
362134.0 423492.0 0
363763.0 425893.0 0
367389.0 422781.0 0
366996.0 425534.0 0
370947.0 423534.0 0
372918.0 423115.0 0
370258.0 425955.0 0
373826.0 426178.0 0
375096.0 423754.0 0
376705.0 426049.0 0
379126.0 426789.0 0
114755.0 431436.0 0
119938.0 427955.0 0
117716.0 430043.0 0
123196.0 428353.0 0
124133.0 431437.0 0
127538.0 427769.0 0
127620.0 430017.0 0
131166.0 427747.0 0
134010.0 427931.0 0
135233.0 429896.0 0
130967.0 430533.0 0
138579.0 426899.0 0
138092.0 430070.0 0
140673.0 431753.0 0
143347.0 429092.0 0
149211.0 427978.0 0
146362.0 429824.0 0
150984.0 430374.0 0
154650.0 427648.0 0
154104.0 430805.0 0
157813.0 427012.0 0
160746.0 427703.0 0
157825.0 430212.0 0
160825.0 430624.0 0
162625.0 426179.0 0
164626.0 428303.0 0
170586.0 425898.0 0
166848.0 429790.0 0
169296.0 428825.0 0
173049.0 428963.0 0
176800.0 429018.0 0
179686.0 428326.0 0
182873.0 428445.0 0
182133.0 430656.0 0
185819.0 429592.0 0
190223.0 428053.0 0
192865.0 427221.0 0
192873.0 429512.0 0
196346.0 427786.0 0
200202.0 425171.0 0
200766.0 428404.0 0
203626.0 426420.0 0
205824.0 427279.0 0
203437.0 429529.0 0
206154.0 430500.0 0
208127.0 428172.0 0
209490.0 430690.0 0
211234.0 427352.0 0
212244.0 430446.0 0
214696.0 426275.0 0
214793.0 429480.0 0
217872.0 426199.0 0
221349.0 426475.0 0
225657.0 424918.0 0
224443.0 427277.0 0
227124.0 429319.0 0
228753.0 425850.0 0
232624.0 424645.0 0
236616.0 424981.0 0
236538.0 428521.0 0
239564.0 427070.0 0
243350.0 427305.0 0
246221.0 426237.0 0
248885.0 424537.0 0
252562.0 424631.0 0
251153.0 428251.0 0
257122.0 426356.0 0
254901.0 427330.0 0
260253.0 425513.0 0
262373.0 428034.0 0
268788.0 425820.0 0
265482.0 426464.0 0
271857.0 426429.0 0
270143.0 429893.0 0
275032.0 424997.0 0
278121.0 424496.0 0
274732.0 428521.0 0
277571.0 428084.0 0
281167.0 426190.0 0
283896.0 429290.0 0
286259.0 427438.0 0
289367.0 425882.0 0
291314.0 429202.0 0
297578.0 425697.0 0
293755.0 426566.0 0
295875.0 427357.0 0
300246.0 428090.0 0
305246.0 428671.0 0
308787.0 427485.0 0
311436.0 426704.0 0
313411.0 430088.0 0
313578.0 427806.0 0
316172.0 426736.0 0
317730.0 429333.0 0
320021.0 425727.0 0
321176.0 429701.0 0
328177.0 427338.0 0
325157.0 428989.0 0
330279.0 429546.0 0
331677.0 428277.0 0
333553.0 430757.0 0
334196.0 428227.0 0
338333.0 426659.0 0
337428.0 428969.0 0
342041.0 428103.0 0
344586.0 427187.0 0
341299.0 430790.0 0
348474.0 428240.0 0
346191.0 429725.0 0
351597.0 426503.0 0
351366.0 429619.0 0
354174.0 429814.0 0
355952.0 427382.0 0
359003.0 429632.0 0
359999.0 427262.0 0
362719.0 428079.0 0
364553.0 430631.0 0
367140.0 428554.0 0
372089.0 428149.0 0
369693.0 430014.0 0
374637.0 430500.0 0
376549.0 429066.0 0
378951.0 429760.0 0
381247.0 428542.0 0
383430.0 430006.0 0
386089.0 431302.0 0
108624.0 434448.0 0
111766.0 433209.0 0
112326.0 436387.0 0
115610.0 434777.0 0
120265.0 432096.0 0
118212.0 434175.0 0
123822.0 435580.0 0
128438.0 432572.0 0
127963.0 434486.0 0
130381.0 435298.0 0
133197.0 433211.0 0
135011.0 436846.0 0
136840.0 432826.0 0
138963.0 435398.0 0
143469.0 433360.0 0
142734.0 435737.0 0
146822.0 433206.0 0
149750.0 432901.0 0
146663.0 436290.0 0
149393.0 436644.0 0
154952.0 433983.0 0
151436.0 434912.0 0
158489.0 433444.0 0
157322.0 436389.0 0
160731.0 435287.0 0
163553.0 431554.0 0
166332.0 434015.0 0
169570.0 432127.0 0
172769.0 432631.0 0
176749.0 432662.0 0
180163.0 431527.0 0
179113.0 435678.0 0
184419.0 432276.0 0
182402.0 434752.0 0
188668.0 430982.0 0
186810.0 433268.0 0
188536.0 435237.0 0
191330.0 433098.0 0
195261.0 432635.0 0
198801.0 430359.0 0
198217.0 434946.0 0
201817.0 432435.0 0
204749.0 433973.0 0
208120.0 433193.0 0
211490.0 433706.0 0
215029.0 433551.0 0
217709.0 430529.0 0
221067.0 430146.0 0
218755.0 434970.0 0
223951.0 430084.0 0
221686.0 433460.0 0
224293.0 432511.0 0
230501.0 429823.0 0
227203.0 433314.0 0
231165.0 433296.0 0
233330.0 428383.0 0
234077.0 431375.0 0
237363.0 431607.0 0
240886.0 430673.0 0
244579.0 430770.0 0
247972.0 429503.0 0
247393.0 433739.0 0
250622.0 432391.0 0
258737.0 429859.0 0
254457.0 430943.0 0
258211.0 433290.0 0
263033.0 431793.0 0
266255.0 429973.0 0
267960.0 433078.0 0
273315.0 432765.0 0
277147.0 431554.0 0
280266.0 430129.0 0
279869.0 434239.0 0
282992.0 432740.0 0
287956.0 429878.0 0
285957.0 431638.0 0
289692.0 433764.0 0
294583.0 430379.0 0
293873.0 433761.0 0
297494.0 434958.0 0
298126.0 430600.0 0
301855.0 434340.0 0
303142.0 430891.0 0
307725.0 431802.0 0
306093.0 434635.0 0
310909.0 431228.0 0
309452.0 435675.0 0
312825.0 434840.0 0
315920.0 432006.0 0
318179.0 435541.0 0
320868.0 433010.0 0
325077.0 432590.0 0
323472.0 434177.0 0
325948.0 435753.0 0
327269.0 433962.0 0
328672.0 431447.0 0
331877.0 433226.0 0
329739.0 435969.0 0
337412.0 431659.0 0
336126.0 434150.0 0
340473.0 433875.0 0
343583.0 435119.0 0
344593.0 432122.0 0
348340.0 435134.0 0
349473.0 432100.0 0
352597.0 432935.0 0
352436.0 435432.0 0
356375.0 432191.0 0
354952.0 434599.0 0
359174.0 434758.0 0
361323.0 432039.0 0
362974.0 434435.0 0
366355.0 432995.0 0
365563.0 435844.0 0
369970.0 433791.0 0
373095.0 433074.0 0
375430.0 434717.0 0
377131.0 432866.0 0
379148.0 432088.0 0
378252.0 436240.0 0
381783.0 432811.0 0
384492.0 433503.0 0
380959.0 435898.0 0
388456.0 433188.0 0
387040.0 435449.0 0
389227.0 436942.0 0
391341.0 434975.0 0
97730.2 441298.0 0
100338.0 440213.0 0
103049.0 438665.0 0
104330.0 441947.0 0
106108.0 437112.0 0
106810.0 440416.0 0
109147.0 437398.0 0
109583.0 439378.0 0
108623.0 441467.0 0
113546.0 439253.0 0
111052.0 441237.0 0
116677.0 437727.0 0
120060.0 437872.0 0
115422.0 441691.0 0
118342.0 441569.0 0
122366.0 440997.0 0
126408.0 438852.0 0
129880.0 438068.0 0
132508.0 439792.0 0
134940.0 441780.0 0
137139.0 439710.0 0
139880.0 438777.0 0
143363.0 437990.0 0
144359.0 440750.0 0
147211.0 439100.0 0
149391.0 440915.0 0
151665.0 438435.0 0
154525.0 437534.0 0
153138.0 440319.0 0
154674.0 440767.0 0
156437.0 439093.0 0
158740.0 437694.0 0
157874.0 441220.0 0
160468.0 439831.0 0
163496.0 437354.0 0
165927.0 439090.0 0
168859.0 436262.0 0
168144.0 438561.0 0
168536.0 441203.0 0
172078.0 436598.0 0
175410.0 436910.0 0
171531.0 439955.0 0
176410.0 439382.0 0
174132.0 439736.0 0
179527.0 438895.0 0
182453.0 438261.0 0
185507.0 436454.0 0
183486.0 441120.0 0
186518.0 439486.0 0
189920.0 438281.0 0
192796.0 436371.0 0
195539.0 438577.0 0
199314.0 439385.0 0
201865.0 436643.0 0
205449.0 436979.0 0
203336.0 440575.0 0
208155.0 436446.0 0
211446.0 437182.0 0
215239.0 437524.0 0
218229.0 438776.0 0
221058.0 437183.0 0
223998.0 436087.0 0
225580.0 439672.0 0
228074.0 436632.0 0
229691.0 440112.0 0
231869.0 436890.0 0
234982.0 434278.0 0
239055.0 435000.0 0
235790.0 437871.0 0
239782.0 439086.0 0
243233.0 435222.0 0
247436.0 438271.0 0
250137.0 435508.0 0
253095.0 435086.0 0
251743.0 438285.0 0
255230.0 438733.0 0
256146.0 435146.0 0
258485.0 437368.0 0
260738.0 435023.0 0
261982.0 439102.0 0
265624.0 436437.0 0
269236.0 440091.0 0
270775.0 435903.0 0
273796.0 438743.0 0
276619.0 436013.0 0
279229.0 439354.0 0
282049.0 436821.0 0
285228.0 435127.0 0
284996.0 438547.0 0
287913.0 438045.0 0
290426.0 439600.0 0
291881.0 437158.0 0
294693.0 437311.0 0
298043.0 438553.0 0
301418.0 438785.0 0
305722.0 438532.0 0
309725.0 439120.0 0
313115.0 438963.0 0
316576.0 439211.0 0
323141.0 436916.0 0
321017.0 438632.0 0
322704.0 440572.0 0
327433.0 437760.0 0
324968.0 439092.0 0
328835.0 440227.0 0
331981.0 439225.0 0
333919.0 436538.0 0
338841.0 436715.0 0
336495.0 439336.0 0
342583.0 438818.0 0
346693.0 438807.0 0
350889.0 438345.0 0
353978.0 438537.0 0
349480.0 441102.0 0
357853.0 438193.0 0
362515.0 436610.0 0
362029.0 439897.0 0
365321.0 438293.0 0
369044.0 437207.0 0
367705.0 439801.0 0
371752.0 438408.0 0
373691.0 436940.0 0
372019.0 440803.0 0
374770.0 441318.0 0
376374.0 438961.0 0
379249.0 440621.0 0
381346.0 439414.0 0
384464.0 437073.0 0
382969.0 441582.0 0
385941.0 440016.0 0
388439.0 438787.0 0
390735.0 439136.0 0
393795.0 437237.0 0
391205.0 442124.0 0
394306.0 440937.0 0
396775.0 437909.0 0
399003.0 439839.0 0
401908.0 441568.0 0
92687.3 444616.0 0
90253.2 446773.0 0
95693.0 443646.0 0
97629.0 446167.0 0
100864.0 443603.0 0
102584.0 445765.0 0
105744.0 444571.0 0
108119.0 443647.0 0
109885.0 444838.0 0
111573.0 443451.0 0
114255.0 444515.0 0
117460.0 445262.0 0
120088.0 446021.0 0
120355.0 443078.0 0
123524.0 442966.0 0
123320.0 445985.0 0
127004.0 442124.0 0
130365.0 442571.0 0
126680.0 445532.0 0
129327.0 445860.0 0
132544.0 445175.0 0
137971.0 442234.0 0
135771.0 444523.0 0
139185.0 445223.0 0
141034.0 442058.0 0
142978.0 444646.0 0
146399.0 444041.0 0
149538.0 446318.0 0
151657.0 443049.0 0
155219.0 444150.0 0
159915.0 443670.0 0
157400.0 446547.0 0
162967.0 441592.0 0
165732.0 441842.0 0
163310.0 444508.0 0
165985.0 444391.0 0
169247.0 444254.0 0
176229.0 442299.0 0
172875.0 443255.0 0
180236.0 442258.0 0
177823.0 446056.0 0
184975.0 443960.0 0
182032.0 445253.0 0
188109.0 442885.0 0
191789.0 441638.0 0
191987.0 445617.0 0
195917.0 442985.0 0
199415.0 442629.0 0
202376.0 445109.0 0
205380.0 444476.0 0
208040.0 441099.0 0
212632.0 441158.0 0
215856.0 441200.0 0
210808.0 445328.0 0
214232.0 444197.0 0
218177.0 442182.0 0
221638.0 440462.0 0
221302.0 444845.0 0
225060.0 443683.0 0
228473.0 443092.0 0
233159.0 441270.0 0
231706.0 445013.0 0
235416.0 444716.0 0
236969.0 441896.0 0
239787.0 443658.0 0
243415.0 440352.0 0
243102.0 444249.0 0
246551.0 443158.0 0
253513.0 441304.0 0
250281.0 441912.0 0
258628.0 440672.0 0
256315.0 442966.0 0
259049.0 445242.0 0
261435.0 442733.0 0
265463.0 441946.0 0
268736.0 444720.0 0
272380.0 442674.0 0
276548.0 440978.0 0
276131.0 443986.0 0
280201.0 444404.0 0
283043.0 441331.0 0
287097.0 442183.0 0
291241.0 443802.0 0
293954.0 440396.0 0
297358.0 441860.0 0
295275.0 444827.0 0
301157.0 442948.0 0
305509.0 442873.0 0
309682.0 442936.0 0
313067.0 442865.0 0
315865.0 442593.0 0
315643.0 445417.0 0
317985.0 444911.0 0
319483.0 441848.0 0
322143.0 444295.0 0
325751.0 442858.0 0
332681.0 443272.0 0
329691.0 443355.0 0
335640.0 442207.0 0
337850.0 444442.0 0
340437.0 442199.0 0
343995.0 443549.0 0
342206.0 445674.0 0
345364.0 442006.0 0
347951.0 443866.0 0
346377.0 446179.0 0
353195.0 442448.0 0
350556.0 445159.0 0
357207.0 442168.0 0
354596.0 446042.0 0
357627.0 445177.0 0
360335.0 442742.0 0
360630.0 445121.0 0
363260.0 445214.0 0
364822.0 442328.0 0
367855.0 444648.0 0
370002.0 442200.0 0
373761.0 445123.0 0
376769.0 443987.0 0
378703.0 442837.0 0
378807.0 446698.0 0
380522.0 444830.0 0
382586.0 443904.0 0
385187.0 444426.0 0
387702.0 442699.0 0
385555.0 447097.0 0
388941.0 446693.0 0
392392.0 445588.0 0
397134.0 442676.0 0
395758.0 445678.0 0
400501.0 444467.0 0
404595.0 443030.0 0
403713.0 445688.0 0
407208.0 444623.0 0
409972.0 446177.0 0
84129.6 450198.0 0
81321.9 452211.0 0
87056.1 448405.0 0
88822.1 450812.0 0
93647.3 448461.0 0
91650.1 451218.0 0
95847.4 450501.0 0
99195.4 448910.0 0
99241.7 451843.0 0
102762.0 448853.0 0
103620.0 451889.0 0
106512.0 447565.0 0
109910.0 447644.0 0
106701.0 450735.0 0
113273.0 447199.0 0
113516.0 449844.0 0
110056.0 450736.0 0
116601.0 448079.0 0
119805.0 448908.0 0
115996.0 450578.0 0
118411.0 451013.0 0
123675.0 449117.0 0
121803.0 451776.0 0
126803.0 448351.0 0
129533.0 448299.0 0
129166.0 450344.0 0
126716.0 451507.0 0
132837.0 448501.0 0
131250.0 451644.0 0
136874.0 448414.0 0
140224.0 450409.0 0
141785.0 447183.0 0
145045.0 447992.0 0
144067.0 451753.0 0
148133.0 449586.0 0
153250.0 448196.0 0
151271.0 451815.0 0
160107.0 446870.0 0
156877.0 449977.0 0
160218.0 449847.0 0
163152.0 447585.0 0
162841.0 451787.0 0
166509.0 447382.0 0
169979.0 447593.0 0
166524.0 450656.0 0
169931.0 450919.0 0
173593.0 447090.0 0
175953.0 449804.0 0
181277.0 448314.0 0
178356.0 449533.0 0
185480.0 447251.0 0
183715.0 450839.0 0
188643.0 446055.0 0
187743.0 450037.0 0
190043.0 448510.0 0
192677.0 449402.0 0
195689.0 447054.0 0
198846.0 445830.0 0
200091.0 448631.0 0
196827.0 451065.0 0
204317.0 449027.0 0
207407.0 446184.0 0
209102.0 449819.0 0
213291.0 447893.0 0
216964.0 445845.0 0
217018.0 450654.0 0
220122.0 448206.0 0
224053.0 448344.0 0
227871.0 446747.0 0
227951.0 450107.0 0
234068.0 447748.0 0
231093.0 449219.0 0
237501.0 447336.0 0
244919.0 446724.0 0
241241.0 447311.0 0
249308.0 446637.0 0
246642.0 449574.0 0
253455.0 445056.0 0
252766.0 448768.0 0
256260.0 447982.0 0
263989.0 446048.0 0
260839.0 448995.0 0
267447.0 448239.0 0
272745.0 447218.0 0
270312.0 450035.0 0
276832.0 447136.0 0
276392.0 450322.0 0
279340.0 448254.0 0
284495.0 445171.0 0
282949.0 448489.0 0
288152.0 447511.0 0
285928.0 450624.0 0
290346.0 451001.0 0
293488.0 449051.0 0
298322.0 446716.0 0
297738.0 450448.0 0
302192.0 447038.0 0
300771.0 449402.0 0
303183.0 449881.0 0
305936.0 447493.0 0
309563.0 446475.0 0
312723.0 447114.0 0
309518.0 449992.0 0
313119.0 451300.0 0
316442.0 448921.0 0
320287.0 448045.0 0
324144.0 450583.0 0
324642.0 447305.0 0
328414.0 446737.0 0
326791.0 449759.0 0
331905.0 447152.0 0
329638.0 451011.0 0
335421.0 446409.0 0
337475.0 449036.0 0
339550.0 447103.0 0
344110.0 448524.0 0
341581.0 449247.0 0
348616.0 448871.0 0
345918.0 451397.0 0
351441.0 447561.0 0
353189.0 450528.0 0
356049.0 449286.0 0
359617.0 448899.0 0
363339.0 449020.0 0
366145.0 447367.0 0
369236.0 450538.0 0
370961.0 447007.0 0
373754.0 450655.0 0
376149.0 448341.0 0
376220.0 451892.0 0
378627.0 451003.0 0
380965.0 449061.0 0
383010.0 447410.0 0
384083.0 451718.0 0
386714.0 449680.0 0
390179.0 449458.0 0
389263.0 451629.0 0
393260.0 449588.0 0
392335.0 452491.0 0
397077.0 449810.0 0
399883.0 447408.0 0
403848.0 449198.0 0
401387.0 452321.0 0
407450.0 447501.0 0
409339.0 449665.0 0
406883.0 451501.0 0
412184.0 448217.0 0
415221.0 449483.0 0
412823.0 451891.0 0
417796.0 451603.0 0
75058.0 455470.0 0
78245.7 454210.0 0
82400.6 454665.0 0
80551.6 456730.0 0
83583.0 457338.0 0
85675.8 452811.0 0
85028.8 455192.0 0
88500.1 453733.0 0
86989.9 456798.0 0
92730.5 453830.0 0
89750.3 455955.0 0
93368.9 457115.0 0
96058.4 453349.0 0
97466.5 456286.0 0
100887.0 453864.0 0
102672.0 456744.0 0
105716.0 454947.0 0
108366.0 453633.0 0
111057.0 455284.0 0
112700.0 452456.0 0
113990.0 456845.0 0
115425.0 453782.0 0
118869.0 454593.0 0
124423.0 453731.0 0
121586.0 457037.0 0
129206.0 454222.0 0
132603.0 455069.0 0
134862.0 452292.0 0
135220.0 457076.0 0
138263.0 454598.0 0
142832.0 456206.0 0
147411.0 453136.0 0
150425.0 456047.0 0
154712.0 453339.0 0
154170.0 456551.0 0
158603.0 453474.0 0
165649.0 454723.0 0
162371.0 456578.0 0
167245.0 453307.0 0
170322.0 455673.0 0
173012.0 450983.0 0
174183.0 454298.0 0
176343.0 452363.0 0
179593.0 452510.0 0
176946.0 455828.0 0
179618.0 456495.0 0
182504.0 454916.0 0
190439.0 452383.0 0
186495.0 454483.0 0
189896.0 456490.0 0
193884.0 452577.0 0
192970.0 455821.0 0
196538.0 455924.0 0
200820.0 453174.0 0
205732.0 453312.0 0
209423.0 454894.0 0
212629.0 452109.0 0
215328.0 454628.0 0
218773.0 455395.0 0
221199.0 451542.0 0
222615.0 454729.0 0
225644.0 452480.0 0
234605.0 451476.0 0
230030.0 453377.0 0
233228.0 455316.0 0
238646.0 450974.0 0
237239.0 455661.0 0
242905.0 450727.0 0
240694.0 454138.0 0
246300.0 453206.0 0
250139.0 451946.0 0
254465.0 452094.0 0
258049.0 451492.0 0
264537.0 451033.0 0
261321.0 453686.0 0
264589.0 455334.0 0
268401.0 453852.0 0
273192.0 452074.0 0
276816.0 454717.0 0
280332.0 451799.0 0
284382.0 453372.0 0
288592.0 452742.0 0
287362.0 455487.0 0
292216.0 453534.0 0
295783.0 453661.0 0
301226.0 453571.0 0
305922.0 451726.0 0
305197.0 455939.0 0
309747.0 454701.0 0
314491.0 456207.0 0
316884.0 452663.0 0
320829.0 452712.0 0
323546.0 456501.0 0
326283.0 453555.0 0
329996.0 454806.0 0
333854.0 451148.0 0
333335.0 454834.0 0
337347.0 453644.0 0
339615.0 451425.0 0
342875.0 453539.0 0
340660.0 456330.0 0
348680.0 454261.0 0
350603.0 451749.0 0
354204.0 453897.0 0
351869.0 456025.0 0
357177.0 452771.0 0
355653.0 456650.0 0
358449.0 456226.0 0
360798.0 453038.0 0
363080.0 455450.0 0
365281.0 452250.0 0
367076.0 456255.0 0
370381.0 454371.0 0
374098.0 454255.0 0
377330.0 454531.0 0
380976.0 454100.0 0
384171.0 455874.0 0
387676.0 454527.0 0
391555.0 455549.0 0
394952.0 453696.0 0
394728.0 456726.0 0
397775.0 453933.0 0
398287.0 457201.0 0
402976.0 456657.0 0
406609.0 454431.0 0
410198.0 452317.0 0
410139.0 456184.0 0
415666.0 453983.0 0
413837.0 456920.0 0
418727.0 455635.0 0
420882.0 453305.0 0
421102.0 457445.0 0
423836.0 455824.0 0
65507.4 461005.0 0
67517.1 462264.0 0
68840.0 459448.0 0
72277.8 457881.0 0
72748.3 460793.0 0
76180.1 458109.0 0
75832.0 461482.0 0
78809.5 458642.0 0
82193.7 459521.0 0
79840.3 462218.0 0
85917.6 459978.0 0
88556.6 462419.0 0
90299.3 459283.0 0
92654.7 461978.0 0
94829.7 459522.0 0
97262.5 461442.0 0
99784.3 458859.0 0
101806.0 461390.0 0
104460.0 459489.0 0
107019.0 457977.0 0
105592.0 462447.0 0
108181.0 461002.0 0
109774.0 457910.0 0
112250.0 460128.0 0
116683.0 458018.0 0
115273.0 461914.0 0
119666.0 460358.0 0
123137.0 460437.0 0
125882.0 457316.0 0
129768.0 457706.0 0
126617.0 461155.0 0
132376.0 457877.0 0
130250.0 461115.0 0
134789.0 461496.0 0
139028.0 459699.0 0
143027.0 461250.0 0
146698.0 456991.0 0
147034.0 460793.0 0
150485.0 459782.0 0
153839.0 460501.0 0
157812.0 457365.0 0
157538.0 461117.0 0
161720.0 460909.0 0
166368.0 458180.0 0
165759.0 462176.0 0
174390.0 458373.0 0
170406.0 460566.0 0
178452.0 460023.0 0
182867.0 458631.0 0
187144.0 459894.0 0
192539.0 460036.0 0
199817.0 458387.0 0
196422.0 459865.0 0
203193.0 456480.0 0
202960.0 460073.0 0
206304.0 458322.0 0
210281.0 459161.0 0
212860.0 456413.0 0
213707.0 460229.0 0
215702.0 457312.0 0
217903.0 460241.0 0
222043.0 458656.0 0
226556.0 457281.0 0
230691.0 457957.0 0
234380.0 459024.0 0
243760.0 455552.0 0
240915.0 458117.0 0
245037.0 459207.0 0
247921.0 456548.0 0
251860.0 456423.0 0
249182.0 460104.0 0
257078.0 456430.0 0
262232.0 458650.0 0
269580.0 457804.0 0
266447.0 459474.0 0
272803.0 456414.0 0
270684.0 460432.0 0
274910.0 460339.0 0
278591.0 458471.0 0
281489.0 455906.0 0
282715.0 460746.0 0
285250.0 457606.0 0
288181.0 458664.0 0
290474.0 456297.0 0
294338.0 457748.0 0
291254.0 460298.0 0
298440.0 457097.0 0
298168.0 460917.0 0
302626.0 459649.0 0
307877.0 459443.0 0
312109.0 459742.0 0
318957.0 457815.0 0
315885.0 461093.0 0
322992.0 461510.0 0
327485.0 458859.0 0
332168.0 458100.0 0
335320.0 461024.0 0
336271.0 457240.0 0
343695.0 459519.0 0
339741.0 460262.0 0
345725.0 456850.0 0
349153.0 459323.0 0
353856.0 459675.0 0
357949.0 460116.0 0
361241.0 457558.0 0
364432.0 458516.0 0
361827.0 460766.0 0
368953.0 459782.0 0
365645.0 461752.0 0
371759.0 457431.0 0
374721.0 458018.0 0
372486.0 460625.0 0
377347.0 457416.0 0
375682.0 461666.0 0
379088.0 460769.0 0
380835.0 457449.0 0
383972.0 458666.0 0
383233.0 461771.0 0
387599.0 458689.0 0
391007.0 458744.0 0
393908.0 459685.0 0
390913.0 462430.0 0
397720.0 461059.0 0
402050.0 461320.0 0
406829.0 459270.0 0
410176.0 460651.0 0
405710.0 462374.0 0
413994.0 461725.0 0
417746.0 459179.0 0
421641.0 461023.0 0
425150.0 459492.0 0
428189.0 458160.0 0
429549.0 461254.0 0
426601.0 462871.0 0
431704.0 459471.0 0
434160.0 462225.0 0
59400.7 465247.0 0
62948.5 463734.0 0
61560.5 467004.0 0
65771.7 465239.0 0
68577.1 466382.0 0
70630.8 462932.0 0
71489.6 466493.0 0
74961.9 465161.0 0
79053.0 466496.0 0
82910.5 467505.0 0
83628.9 463172.0 0
86696.1 465469.0 0
90806.7 464867.0 0
93180.4 466450.0 0
95283.1 464123.0 0
98093.3 466464.0 0
99431.1 463376.0 0
102963.0 465236.0 0
107373.0 464541.0 0
109135.0 466630.0 0
110122.0 463199.0 0
112361.0 464821.0 0
118800.0 463517.0 0
116197.0 466876.0 0
121710.0 462844.0 0
120614.0 465347.0 0
124024.0 462702.0 0
124097.0 465963.0 0
127430.0 464521.0 0
131087.0 465374.0 0
139150.0 464562.0 0
135465.0 465991.0 0
143181.0 465083.0 0
146743.0 464612.0 0
150787.0 463879.0 0
155150.0 464364.0 0
159386.0 464738.0 0
162868.0 464777.0 0
164873.0 465925.0 0
169043.0 465287.0 0
174525.0 463214.0 0
179118.0 464291.0 0
182304.0 462476.0 0
182282.0 466772.0 0
185404.0 464008.0 0
189495.0 463802.0 0
192855.0 464408.0 0
195543.0 462961.0 0
199766.0 463570.0 0
204677.0 462961.0 0
207983.0 462036.0 0
207395.0 465726.0 0
211130.0 463928.0 0
215310.0 463395.0 0
218566.0 464883.0 0
221163.0 462417.0 0
224669.0 461950.0 0
222910.0 465280.0 0
228246.0 461813.0 0
226756.0 465645.0 0
230689.0 465823.0 0
231761.0 461801.0 0
234723.0 463436.0 0
237875.0 460845.0 0
241821.0 462292.0 0
243575.0 466297.0 0
246471.0 463133.0 0
253506.0 461215.0 0
250061.0 464287.0 0
253048.0 465449.0 0
258898.0 462067.0 0
256119.0 465198.0 0
263475.0 464003.0 0
268005.0 463812.0 0
272232.0 463793.0 0
278886.0 462645.0 0
276067.0 465121.0 0
279070.0 465503.0 0
282344.0 465801.0 0
287251.0 463026.0 0
292049.0 464068.0 0
294847.0 462305.0 0
297615.0 464659.0 0
300978.0 464014.0 0
305985.0 463853.0 0
310066.0 462558.0 0
313426.0 463569.0 0
310316.0 466145.0 0
319036.0 462565.0 0
317049.0 465559.0 0
320855.0 465543.0 0
324300.0 465291.0 0
327334.0 463714.0 0
331339.0 462179.0 0
330557.0 466259.0 0
334592.0 464769.0 0
338416.0 463886.0 0
342768.0 463061.0 0
341786.0 466348.0 0
346931.0 462595.0 0
345575.0 466544.0 0
351606.0 463353.0 0
355248.0 463572.0 0
359434.0 464670.0 0
363584.0 464591.0 0
368795.0 463701.0 0
366947.0 466345.0 0
372071.0 464011.0 0
379759.0 464432.0 0
376031.0 466093.0 0
383999.0 465427.0 0
387351.0 462328.0 0
388036.0 466092.0 0
394476.0 463538.0 0
391813.0 466356.0 0
398486.0 464768.0 0
396024.0 467568.0 0
401804.0 464916.0 0
405065.0 465613.0 0
408767.0 463281.0 0
408607.0 466605.0 0
411508.0 464367.0 0
415684.0 465759.0 0
418543.0 463016.0 0
419769.0 465662.0 0
423012.0 464244.0 0
424447.0 467532.0 0
431546.0 464963.0 0
427635.0 466355.0 0
436313.0 467000.0 0
437592.0 464216.0 0
441023.0 466118.0 0
444236.0 467876.0 0
52353.0 470847.0 0
48269.4 472300.0 0
56764.3 468520.0 0
60616.3 469975.0 0
59859.8 473143.0 0
64439.3 468784.0 0
68102.4 469867.0 0
64155.8 472838.0 0
71502.2 469727.0 0
74653.1 468840.0 0
77692.8 470889.0 0
81637.1 470762.0 0
86226.7 470195.0 0
89193.0 467843.0 0
91616.1 469242.0 0
89579.1 472016.0 0
93717.2 472106.0 0
95455.8 468903.0 0
97840.6 471079.0 0
101079.0 469067.0 0
103867.0 471269.0 0
105844.0 467607.0 0
107823.0 471320.0 0
111646.0 468741.0 0
114320.0 471130.0 0
117386.0 471129.0 0
120539.0 468899.0 0
123946.0 469906.0 0
127679.0 468623.0 0
132801.0 469195.0 0
129664.0 472424.0 0
136947.0 469092.0 0
140622.0 468582.0 0
144980.0 468470.0 0
148919.0 467957.0 0
147422.0 471909.0 0
153092.0 468062.0 0
151025.0 471399.0 0
157377.0 468592.0 0
159142.0 472177.0 0
161839.0 468385.0 0
165978.0 469096.0 0
169615.0 469649.0 0
172740.0 467651.0 0
172772.0 471906.0 0
177264.0 468486.0 0
181002.0 471309.0 0
184676.0 470028.0 0
187019.0 467267.0 0
188401.0 471786.0 0
191233.0 468113.0 0
195967.0 467553.0 0
200236.0 468537.0 0
203376.0 467055.0 0
206136.0 469590.0 0
209878.0 469046.0 0
214180.0 467475.0 0
216146.0 471216.0 0
218327.0 468511.0 0
220867.0 467874.0 0
224493.0 469626.0 0
228767.0 469397.0 0
234084.0 467032.0 0
232146.0 470148.0 0
235632.0 469964.0 0
238440.0 466072.0 0
241310.0 468706.0 0
244555.0 471077.0 0
247454.0 467523.0 0
251050.0 468160.0 0
254917.0 468127.0 0
258026.0 470800.0 0
259407.0 466513.0 0
262458.0 468484.0 0
266292.0 467922.0 0
270540.0 468010.0 0
273703.0 466758.0 0
278628.0 468131.0 0
274991.0 469650.0 0
282036.0 471189.0 0
286311.0 468557.0 0
290770.0 467632.0 0
293640.0 470474.0 0
295107.0 466783.0 0
298858.0 467708.0 0
296946.0 470645.0 0
303108.0 467979.0 0
300796.0 471625.0 0
307490.0 469089.0 0
313852.0 467027.0 0
312212.0 470564.0 0
315793.0 469356.0 0
319731.0 469966.0 0
323139.0 468098.0 0
324094.0 471861.0 0
327254.0 468586.0 0
333559.0 467788.0 0
331816.0 471394.0 0
337799.0 469276.0 0
343518.0 470300.0 0
349996.0 467094.0 0
347315.0 470055.0 0
354760.0 467766.0 0
359767.0 469263.0 0
363465.0 467953.0 0
363075.0 471458.0 0
366985.0 470676.0 0
370876.0 467623.0 0
374507.0 469767.0 0
371367.0 472253.0 0
378160.0 471258.0 0
380782.0 468290.0 0
385365.0 469635.0 0
390005.0 470645.0 0
393103.0 468919.0 0
394189.0 471164.0 0
397796.0 471068.0 0
400677.0 468802.0 0
404269.0 469084.0 0
404222.0 471973.0 0
407627.0 469947.0 0
410700.0 471210.0 0
412308.0 467749.0 0
414546.0 470593.0 0
417665.0 469364.0 0
421168.0 468679.0 0
425916.0 470725.0 0
422035.0 472031.0 0
429679.0 469932.0 0
433898.0 469430.0 0
439372.0 468933.0 0
437793.0 472473.0 0
442074.0 469939.0 0
444033.0 471000.0 0
442169.0 473139.0 0
447422.0 470741.0 0
451445.0 472868.0 0
41349.0 476562.0 0
45293.6 474654.0 0
48688.8 475706.0 0
50989.9 474395.0 0
52263.9 476931.0 0
55760.7 473837.0 0
55243.2 478372.0 0
58596.9 476695.0 0
62360.7 477045.0 0
66754.1 477195.0 0
68557.7 473533.0 0
72851.0 473414.0 0
70396.2 477269.0 0
77230.7 475415.0 0
73934.2 477374.0 0
80327.8 473672.0 0
80672.9 476992.0 0
83820.6 473743.0 0
87412.7 474529.0 0
88131.8 477422.0 0
91519.1 475560.0 0
96502.7 474556.0 0
100657.0 473122.0 0
100344.0 477655.0 0
104278.0 474769.0 0
107834.0 475853.0 0
111556.0 473231.0 0
111465.0 477149.0 0
115801.0 475224.0 0
120810.0 473534.0 0
123122.0 477293.0 0
125268.0 472936.0 0
127122.0 476456.0 0
132164.0 476169.0 0
134782.0 472790.0 0
138423.0 472691.0 0
136364.0 476885.0 0
142984.0 472368.0 0
140717.0 476686.0 0
145790.0 476202.0 0
150709.0 475755.0 0
154841.0 476776.0 0
154924.0 472593.0 0
157460.0 475286.0 0
163106.0 472491.0 0
160506.0 475707.0 0
164167.0 475978.0 0
167803.0 473697.0 0
171834.0 476761.0 0
176755.0 474198.0 0
184703.0 473995.0 0
181012.0 475020.0 0
193161.0 472869.0 0
198079.0 472028.0 0
196792.0 475522.0 0
200398.0 475883.0 0
202787.0 472130.0 0
207240.0 473667.0 0
212059.0 473553.0 0
217024.0 475232.0 0
220388.0 471969.0 0
220691.0 476248.0 0
223614.0 474612.0 0
226946.0 472597.0 0
230104.0 473190.0 0
234307.0 474239.0 0
239266.0 472156.0 0
242771.0 475742.0 0
248883.0 471440.0 0
246349.0 474733.0 0
253192.0 471746.0 0
250617.0 476164.0 0
255884.0 475532.0 0
259607.0 475306.0 0
261797.0 472360.0 0
265319.0 472000.0 0
269068.0 471889.0 0
267917.0 475774.0 0
272448.0 472014.0 0
271427.0 475455.0 0
277894.0 471853.0 0
275232.0 474646.0 0
279804.0 475732.0 0
289813.0 472810.0 0
285793.0 473069.0 0
287492.0 476050.0 0
294138.0 475170.0 0
298488.0 474292.0 0
302366.0 476504.0 0
304760.0 472816.0 0
308524.0 472889.0 0
311852.0 475226.0 0
316481.0 473750.0 0
321172.0 475023.0 0
327628.0 472782.0 0
325347.0 475671.0 0
329053.0 475615.0 0
332712.0 475846.0 0
337253.0 474637.0 0
341146.0 472910.0 0
344068.0 473971.0 0
342032.0 476258.0 0
346909.0 473103.0 0
345691.0 476462.0 0
348282.0 475728.0 0
351422.0 472456.0 0
350681.0 477070.0 0
354897.0 477235.0 0
356810.0 472752.0 0
360762.0 473411.0 0
364785.0 475366.0 0
368656.0 475074.0 0
375341.0 474331.0 0
372114.0 476845.0 0
379387.0 475609.0 0
382573.0 472715.0 0
383776.0 476719.0 0
386927.0 473953.0 0
391810.0 475366.0 0
396368.0 474570.0 0
401161.0 473478.0 0
399537.0 477360.0 0
404316.0 475285.0 0
406913.0 473406.0 0
410248.0 474653.0 0
407519.0 477999.0 0
414308.0 474241.0 0
418515.0 473368.0 0
425397.0 474028.0 0
422349.0 476369.0 0
428886.0 473824.0 0
426896.0 476944.0 0
430434.0 477133.0 0
433020.0 474324.0 0
436427.0 476838.0 0
440365.0 476698.0 0
445069.0 473891.0 0
444110.0 477323.0 0
448337.0 475916.0 0
455383.0 473950.0 0
453410.0 476627.0 0
457979.0 476866.0 0
461587.0 478294.0 0
30162.6 482734.0 0
33938.6 482838.0 0
37892.9 479284.0 0
41036.0 479569.0 0
41640.3 481769.0 0
38714.3 482669.0 0
45284.9 478737.0 0
44450.7 482876.0 0
48708.8 482404.0 0
49647.9 478427.0 0
52143.5 480584.0 0
55494.6 482322.0 0
58655.3 480115.0 0
61664.7 480827.0 0
64979.2 480711.0 0
63321.2 483496.0 0
68380.2 481051.0 0
72245.8 480449.0 0
76979.1 479695.0 0
81424.5 480496.0 0
84677.8 477927.0 0
87155.6 480199.0 0
84843.5 481711.0 0
87758.3 482448.0 0
90443.3 480233.0 0
93248.0 482435.0 0
94512.6 478390.0 0
97233.8 481644.0 0
102013.0 482410.0 0
105188.0 479027.0 0
109190.0 480072.0 0
114242.0 480220.0 0
118959.0 478459.0 0
118114.0 482106.0 0
122095.0 481668.0 0
125574.0 480509.0 0
129317.0 479297.0 0
128346.0 482518.0 0
133410.0 481386.0 0
138394.0 481433.0 0
143650.0 480865.0 0
148485.0 480145.0 0
152734.0 480046.0 0
157687.0 479873.0 0
162435.0 478895.0 0
167166.0 479372.0 0
171579.0 481882.0 0
175477.0 479433.0 0
179216.0 477751.0 0
179219.0 481828.0 0
183466.0 478615.0 0
188747.0 476957.0 0
186835.0 481457.0 0
193780.0 478007.0 0
197980.0 478157.0 0
204269.0 476983.0 0
201041.0 479912.0 0
205175.0 481957.0 0
209124.0 478401.0 0
214079.0 478931.0 0
218445.0 478865.0 0
223017.0 480559.0 0
227061.0 476300.0 0
227892.0 480227.0 0
230996.0 477466.0 0
234658.0 479675.0 0
238384.0 477222.0 0
241599.0 479865.0 0
246170.0 479792.0 0
250331.0 480962.0 0
254156.0 480086.0 0
259167.0 480046.0 0
263413.0 476362.0 0
262974.0 479971.0 0
266725.0 479924.0 0
273510.0 478193.0 0
270719.0 479350.0 0
277143.0 479336.0 0
283857.0 476251.0 0
281924.0 480743.0 0
286595.0 479485.0 0
290283.0 477968.0 0
293579.0 480444.0 0
297870.0 478474.0 0
301015.0 480513.0 0
307382.0 477030.0 0
304614.0 480666.0 0
308393.0 481057.0 0
311356.0 479393.0 0
314890.0 477812.0 0
318758.0 478477.0 0
315164.0 481735.0 0
323545.0 479833.0 0
327555.0 478784.0 0
331221.0 479322.0 0
335341.0 479124.0 0
339538.0 479226.0 0
337250.0 482257.0 0
344160.0 480026.0 0
348096.0 478985.0 0
351973.0 481504.0 0
360146.0 477648.0 0
356604.0 481856.0 0
359678.0 481742.0 0
364514.0 479282.0 0
362529.0 481830.0 0
368413.0 478846.0 0
366151.0 482406.0 0
372808.0 480455.0 0
376179.0 478177.0 0
380492.0 479593.0 0
377081.0 482359.0 0
384979.0 481010.0 0
388106.0 477829.0 0
388829.0 481891.0 0
392001.0 479805.0 0
395689.0 478774.0 0
394615.0 482049.0 0
399292.0 480918.0 0
396625.0 481685.0 0
403146.0 478458.0 0
403105.0 481902.0 0
406238.0 482067.0 0
410195.0 481682.0 0
412187.0 478109.0 0
414464.0 480930.0 0
417531.0 478020.0 0
421892.0 480740.0 0
425431.0 479545.0 0
429192.0 479921.0 0
426676.0 483074.0 0
430602.0 482648.0 0
433585.0 479597.0 0
433233.0 483221.0 0
436590.0 483087.0 0
438053.0 479896.0 0
441530.0 479758.0 0
440431.0 482797.0 0
444751.0 481795.0 0
447773.0 479547.0 0
451260.0 479736.0 0
449384.0 482951.0 0
455464.0 480224.0 0
452852.0 482651.0 0
459555.0 481424.0 0
464468.0 480905.0 0
468123.0 482111.0 0
25465.8 486820.0 0
22152.3 488972.0 0
28463.8 484585.0 0
29869.4 487364.0 0
33443.1 487449.0 0
37322.4 486375.0 0
41307.7 485165.0 0
45487.8 486537.0 0
49580.9 486123.0 0
52522.9 484450.0 0
55655.1 486218.0 0
59334.8 484451.0 0
62770.8 486954.0 0
66479.2 484662.0 0
68858.9 486998.0 0
70436.6 483831.0 0
72588.5 487019.0 0
74407.6 483263.0 0
78652.6 483330.0 0
76386.2 486289.0 0
82399.3 484016.0 0
80459.1 487851.0 0
85845.0 485619.0 0
90121.3 484601.0 0
91706.2 486990.0 0
94767.3 485726.0 0
98908.9 485294.0 0
102416.0 486731.0 0
106196.0 483542.0 0
108803.0 486406.0 0
111021.0 483447.0 0
111858.0 487479.0 0
115219.0 484586.0 0
120294.0 485826.0 0
125232.0 484679.0 0
130350.0 486001.0 0
135863.0 486356.0 0
141184.0 485811.0 0
146497.0 484813.0 0
150444.0 483019.0 0
154059.0 483870.0 0
158020.0 485008.0 0
162835.0 483554.0 0
167928.0 484708.0 0
175334.0 484328.0 0
171792.0 486862.0 0
179117.0 486466.0 0
183198.0 483668.0 0
187005.0 485542.0 0
190809.0 482312.0 0
193842.0 485573.0 0
196714.0 482166.0 0
200797.0 484434.0 0
204497.0 486630.0 0
209008.0 482553.0 0
208637.0 486754.0 0
212810.0 483901.0 0
217709.0 482726.0 0
220755.0 486549.0 0
224477.0 485266.0 0
227275.0 483660.0 0
230879.0 482251.0 0
230978.0 486250.0 0
234594.0 484654.0 0
238428.0 482262.0 0
242733.0 484358.0 0
247628.0 484775.0 0
251785.0 484180.0 0
255635.0 483534.0 0
258939.0 485592.0 0
263760.0 484063.0 0
269568.0 484425.0 0
273861.0 482127.0 0
278147.0 483965.0 0
282390.0 485563.0 0
285676.0 483199.0 0
289578.0 482185.0 0
293251.0 486055.0 0
297759.0 482873.0 0
301948.0 484095.0 0
306850.0 485113.0 0
311479.0 483561.0 0
315635.0 487223.0 0
319538.0 483353.0 0
323839.0 484689.0 0
328756.0 483609.0 0
333851.0 482604.0 0
332998.0 485484.0 0
337159.0 486624.0 0
340777.0 483552.0 0
344582.0 484466.0 0
347879.0 482883.0 0
347266.0 487219.0 0
350444.0 485492.0 0
354762.0 486203.0 0
359833.0 485106.0 0
363728.0 485184.0 0
369838.0 482806.0 0
367839.0 486892.0 0
373254.0 485181.0 0
378191.0 487247.0 0
382029.0 484465.0 0
387031.0 485864.0 0
391957.0 484484.0 0
396903.0 485008.0 0
400919.0 484289.0 0
404407.0 485381.0 0
401028.0 488030.0 0
408357.0 485817.0 0
413578.0 485165.0 0
417992.0 482793.0 0
418702.0 486650.0 0
422333.0 484771.0 0
425843.0 486596.0 0
430393.0 486553.0 0
434628.0 485788.0 0
439105.0 487113.0 0
443199.0 485537.0 0
447338.0 486170.0 0
452140.0 486536.0 0
456186.0 484162.0 0
456743.0 487939.0 0
459851.0 485821.0 0
462650.0 483902.0 0
463326.0 486819.0 0
467109.0 485461.0 0
471103.0 484565.0 0
474165.0 486925.0 0
15438.4 492762.0 0
12539.5 494228.0 0
18655.9 490729.0 0
22246.7 492750.0 0
26460.3 491219.0 0
31105.2 491547.0 0
35790.0 490664.0 0
40906.8 489625.0 0
44921.0 490602.0 0
48340.0 489198.0 0
52804.3 489465.0 0
47964.4 492881.0 0
56283.6 492278.0 0
58439.3 488785.0 0
61908.8 490026.0 0
60098.8 492960.0 0
65933.3 489605.0 0
63878.3 493012.0 0
69854.1 490782.0 0
72875.7 490209.0 0
75851.7 489784.0 0
77981.2 493151.0 0
81600.3 491652.0 0
84848.8 489668.0 0
83845.6 492528.0 0
89081.0 489296.0 0
93574.1 489799.0 0
98352.6 489497.0 0
102474.0 491014.0 0
105765.0 488167.0 0
109016.0 489314.0 0
106678.0 492143.0 0
111504.0 492165.0 0
115886.0 489028.0 0
120331.0 490866.0 0
124238.0 488402.0 0
124165.0 492928.0 0
128395.0 490320.0 0
132621.0 489358.0 0
135431.0 490496.0 0
139425.0 490390.0 0
144825.0 490439.0 0
149416.0 492474.0 0
150711.0 487797.0 0
153268.0 491957.0 0
155390.0 488503.0 0
156893.0 492290.0 0
160702.0 489520.0 0
165272.0 487921.0 0
165333.0 492434.0 0
168514.0 489285.0 0
171677.0 491301.0 0
175511.0 489102.0 0
179470.0 490901.0 0
183203.0 488195.0 0
190174.0 487588.0 0
186952.0 490367.0 0
193350.0 489501.0 0
190807.0 491858.0 0
197468.0 488240.0 0
201699.0 488846.0 0
205597.0 491489.0 0
209715.0 490632.0 0
213034.0 489403.0 0
216398.0 486969.0 0
217796.0 491263.0 0
223755.0 491239.0 0
227286.0 487623.0 0
230315.0 489077.0 0
233954.0 490219.0 0
238496.0 487321.0 0
242202.0 489797.0 0
245000.0 487571.0 0
247313.0 488191.0 0
246454.0 491564.0 0
250456.0 488992.0 0
254664.0 487543.0 0
257961.0 490959.0 0
262426.0 489213.0 0
266483.0 488100.0 0
274186.0 487024.0 0
270234.0 490045.0 0
278919.0 489042.0 0
283536.0 491143.0 0
287323.0 487600.0 0
291392.0 491618.0 0
298628.0 487290.0 0
296239.0 491328.0 0
303065.0 488786.0 0
307832.0 490466.0 0
310911.0 487754.0 0
317317.0 491726.0 0
321017.0 488922.0 0
326580.0 488737.0 0
332386.0 489511.0 0
338000.0 491944.0 0
342397.0 488394.0 0
342525.0 492365.0 0
346886.0 491403.0 0
351038.0 489206.0 0
358498.0 488923.0 0
355144.0 491730.0 0
359663.0 492238.0 0
363216.0 489308.0 0
366986.0 490702.0 0
371149.0 488126.0 0
374405.0 489756.0 0
370352.0 490849.0 0
378675.0 491908.0 0
383270.0 489754.0 0
387637.0 489856.0 0
390599.0 488440.0 0
394004.0 487807.0 0
390199.0 491584.0 0
393407.0 491107.0 0
397314.0 489628.0 0
405272.0 489852.0 0
401039.0 492673.0 0
410809.0 490175.0 0
408007.0 493222.0 0
415473.0 489316.0 0
419163.0 490848.0 0
422650.0 488559.0 0
423254.0 492436.0 0
426875.0 489884.0 0
431192.0 491191.0 0
434932.0 489297.0 0
434914.0 492964.0 0
439012.0 492236.0 0
444117.0 490067.0 0
449297.0 489942.0 0
451377.0 493057.0 0
453658.0 490348.0 0
457638.0 491500.0 0
461531.0 490053.0 0
466638.0 489973.0 0
470818.0 488843.0 0
469910.0 493483.0 0
473839.0 492017.0 0
477672.0 489760.0 0
481954.0 492130.0 0
485657.0 493731.0 0
9705.91 497038.0 0
6009.06 499209.0 0
14159.8 497632.0 0
18503.7 495389.0 0
22690.1 496541.0 0
25277.8 495162.0 0
25099.7 499463.0 0
29003.6 496118.0 0
33878.8 495018.0 0
36964.2 497970.0 0
38863.4 494217.0 0
41212.9 498230.0 0
43214.4 494094.0 0
46110.8 497059.0 0
52122.2 495480.0 0
57594.1 496447.0 0
62358.3 496467.0 0
67716.9 495280.0 0
73022.0 493526.0 0
71956.7 497527.0 0
75395.2 496859.0 0
82243.9 495021.0 0
78920.0 497746.0 0
86926.0 493821.0 0
91270.9 493366.0 0
89643.5 497340.0 0
95578.6 493237.0 0
94142.5 497322.0 0
99325.9 494139.0 0
103386.0 495338.0 0
108245.0 496299.0 0
112969.0 496561.0 0
116278.0 493760.0 0
120299.0 495487.0 0
124133.0 497702.0 0
128005.0 495277.0 0
132422.0 493424.0 0
130993.0 497494.0 0
134672.0 497632.0 0
137152.0 494198.0 0
141642.0 495062.0 0
146751.0 496805.0 0
151475.0 495249.0 0
155124.0 495611.0 0
160449.0 495603.0 0
165150.0 497011.0 0
169172.0 495097.0 0
172423.0 494266.0 0
172925.0 497506.0 0
175835.0 493772.0 0
180285.0 495270.0 0
183223.0 492240.0 0
184452.0 495603.0 0
187956.0 494236.0 0
194876.0 492588.0 0
191888.0 496278.0 0
199785.0 493265.0 0
196155.0 495825.0 0
203624.0 496069.0 0
207944.0 496329.0 0
211365.0 493328.0 0
214525.0 493799.0 0
217145.0 496134.0 0
220635.0 495009.0 0
224708.0 497052.0 0
229184.0 491481.0 0
227565.0 493921.0 0
229111.0 496629.0 0
231454.0 494262.0 0
238633.0 492406.0 0
235378.0 495077.0 0
239374.0 497031.0 0
242710.0 494186.0 0
246761.0 496161.0 0
250279.0 493794.0 0
253776.0 491942.0 0
253760.0 495847.0 0
257674.0 495753.0 0
261506.0 493924.0 0
265844.0 492360.0 0
274513.0 492295.0 0
269841.0 495738.0 0
279566.0 495015.0 0
287533.0 493192.0 0
284504.0 495693.0 0
289967.0 496994.0 0
293696.0 495275.0 0
297709.0 496239.0 0
300581.0 492778.0 0
304703.0 493331.0 0
308339.0 495032.0 0
312816.0 492566.0 0
316704.0 495974.0 0
320676.0 494115.0 0
324262.0 492452.0 0
328642.0 493776.0 0
324740.0 496914.0 0
333708.0 495158.0 0
337584.0 496578.0 0
344760.0 494640.0 0
340929.0 495673.0 0
348696.0 496072.0 0
351010.0 492872.0 0
353435.0 495952.0 0
358208.0 496117.0 0
363367.0 494135.0 0
362163.0 497988.0 0
368372.0 494273.0 0
366133.0 498033.0 0
374013.0 494542.0 0
378779.0 495934.0 0
382165.0 494366.0 0
384287.0 498267.0 0
386876.0 493962.0 0
392000.0 495132.0 0
395576.0 497769.0 0
396631.0 493946.0 0
404768.0 495579.0 0
410654.0 496280.0 0
414673.0 493489.0 0
415466.0 498102.0 0
419115.0 495261.0 0
423322.0 496520.0 0
427942.0 494788.0 0
432441.0 495196.0 0
436421.0 495729.0 0
434017.0 497973.0 0
439666.0 496462.0 0
443190.0 494904.0 0
446414.0 497796.0 0
447585.0 493862.0 0
450945.0 497139.0 0
455554.0 494714.0 0
455185.0 498573.0 0
460678.0 494376.0 0
459308.0 497763.0 0
464969.0 494089.0 0
463653.0 497638.0 0
468273.0 497683.0 0
473858.0 497392.0 0
478218.0 494866.0 0
483400.0 497296.0 0
478962.0 498785.0 0
488707.0 496107.0 0
492556.0 498388.0 0
2106.18 500016.0 0
3351.71 503869.0 0
10217.7 501801.0 0
14675.8 501713.0 0
17375.0 499716.0 0
20478.1 499578.0 0
18006.6 502905.0 0
21965.4 502816.0 0
28952.6 500681.0 0
32866.9 499409.0 0
31870.7 503433.0 0
37377.4 502661.0 0
44109.3 501449.0 0
49487.5 500392.0 0
54606.6 500091.0 0
59767.0 500234.0 0
64927.5 500059.0 0
69713.6 500435.0 0
74593.5 500867.0 0
79081.7 501654.0 0
84631.0 499783.0 0
90493.0 502247.0 0
95036.8 501458.0 0
99380.2 499045.0 0
104627.0 499760.0 0
108843.0 501022.0 0
111039.0 498924.0 0
113514.0 501544.0 0
116881.0 498561.0 0
120642.0 499832.0 0
123721.0 502722.0 0
127785.0 499955.0 0
131974.0 501204.0 0
138538.0 497916.0 0
136699.0 501440.0 0
142157.0 500604.0 0
147704.0 502644.0 0
151580.0 498921.0 0
152626.0 502719.0 0
156653.0 499741.0 0
162612.0 501649.0 0
168690.0 500182.0 0
173628.0 501681.0 0
177291.0 498555.0 0
182384.0 499874.0 0
187364.0 498351.0 0
186459.0 502439.0 0
190878.0 501516.0 0
195826.0 499865.0 0
200209.0 498359.0 0
204396.0 500655.0 0
208993.0 500632.0 0
212932.0 497967.0 0
220171.0 499347.0 0
216461.0 501637.0 0
223916.0 502085.0 0
228424.0 500801.0 0
232635.0 498479.0 0
236666.0 500696.0 0
243504.0 498157.0 0
241439.0 501926.0 0
246030.0 501150.0 0
250620.0 499460.0 0
255715.0 499487.0 0
258473.0 502695.0 0
260060.0 498981.0 0
264380.0 497601.0 0
267580.0 501181.0 0
271282.0 500493.0 0
274265.0 501998.0 0
274922.0 497684.0 0
278756.0 501559.0 0
282443.0 499160.0 0
286173.0 499099.0 0
289340.0 502098.0 0
294339.0 500128.0 0
302651.0 497233.0 0
299274.0 500409.0 0
306893.0 499189.0 0
312041.0 498858.0 0
316868.0 500614.0 0
320662.0 498959.0 0
324595.0 501935.0 0
329760.0 499445.0 0
335038.0 499721.0 0
339638.0 500155.0 0
344177.0 498452.0 0
348097.0 500976.0 0
351645.0 499283.0 0
355369.0 500250.0 0
359728.0 501125.0 0
363627.0 501025.0 0
367870.0 502645.0 0
371118.0 498736.0 0
376370.0 499704.0 0
380238.0 498522.0 0
377988.0 502479.0 0
381358.0 502302.0 0
389200.0 498656.0 0
386967.0 503222.0 0
392824.0 498821.0 0
392311.0 502460.0 0
397074.0 501238.0 0
399920.0 497361.0 0
403193.0 498812.0 0
401645.0 501341.0 0
407237.0 500715.0 0
412282.0 500143.0 0
415887.0 502159.0 0
420498.0 500234.0 0
426125.0 499470.0 0
430566.0 498603.0 0
429434.0 502460.0 0
433640.0 501491.0 0
437639.0 499781.0 0
436574.0 504090.0 0
440126.0 502803.0 0
442509.0 499413.0 0
444358.0 503694.0 0
448646.0 501519.0 0
452974.0 500595.0 0
457726.0 502296.0 0
462085.0 500879.0 0
465914.0 501305.0 0
471239.0 502255.0 0
477072.0 502627.0 0
482301.0 501685.0 0
488066.0 501020.0 0
493663.0 503006.0 0
496772.0 500015.0 0
498291.0 502928.0 0
8535.67 506197.0 0
14160.7 506049.0 0
19759.8 506808.0 0
26416.8 505567.0 0
30770.7 508841.0 0
33681.7 506580.0 0
37665.3 508283.0 0
42088.6 505856.0 0
45711.7 508549.0 0
47509.7 504770.0 0
52055.4 504160.0 0
50868.5 508728.0 0
56541.8 504096.0 0
62120.0 505301.0 0
67332.7 504139.0 0
65971.5 506613.0 0
71681.8 504871.0 0
77024.3 505750.0 0
81904.6 504495.0 0
81525.5 507978.0 0
86239.3 505416.0 0
90872.9 508053.0 0
94049.1 504829.0 0
97459.8 503543.0 0
96963.1 508144.0 0
101897.0 504396.0 0
106427.0 503645.0 0
106550.0 507577.0 0
110170.0 504940.0 0
114131.0 505647.0 0
118374.0 503561.0 0
122132.0 506878.0 0
128141.0 504310.0 0
133346.0 506130.0 0
139206.0 505321.0 0
143553.0 505068.0 0
146511.0 507692.0 0
151376.0 507334.0 0
156972.0 505337.0 0
166295.0 504742.0 0
170197.0 505120.0 0
166927.0 507829.0 0
174492.0 505651.0 0
178319.0 503355.0 0
183296.0 506391.0 0
189049.0 506095.0 0
194856.0 505601.0 0
199848.0 502846.0 0
199186.0 506298.0 0
202773.0 506650.0 0
207533.0 504884.0 0
212288.0 503332.0 0
220034.0 504777.0 0
215765.0 505809.0 0
224443.0 506318.0 0
227998.0 505165.0 0
232705.0 504019.0 0
237914.0 505461.0 0
245261.0 506190.0 0
249636.0 504227.0 0
253955.0 503770.0 0
262992.0 502492.0 0
266438.0 505308.0 0
270956.0 504737.0 0
275526.0 505256.0 0
280059.0 507059.0 0
284170.0 503252.0 0
288948.0 506403.0 0
293363.0 505651.0 0
299031.0 505369.0 0
303531.0 502370.0 0
308583.0 503810.0 0
304604.0 507146.0 0
314146.0 504850.0 0
319892.0 504181.0 0
324227.0 506937.0 0
328569.0 504658.0 0
332744.0 503364.0 0
336801.0 503413.0 0
343708.0 503408.0 0
339986.0 506569.0 0
347929.0 505054.0 0
351991.0 503714.0 0
350312.0 507918.0 0
356860.0 505431.0 0
362871.0 505752.0 0
368054.0 507484.0 0
370509.0 505443.0 0
373062.0 503234.0 0
372360.0 507725.0 0
377506.0 506358.0 0
383400.0 506931.0 0
390404.0 507445.0 0
394586.0 506016.0 0
399335.0 505729.0 0
404122.0 504388.0 0
407881.0 506232.0 0
411756.0 503883.0 0
415471.0 505746.0 0
419619.0 505254.0 0
424598.0 503719.0 0
428612.0 506742.0 0
431981.0 508693.0 0
432724.0 505286.0 0
435681.0 507962.0 0
440270.0 507035.0 0
444633.0 507926.0 0
448448.0 506556.0 0
453045.0 504768.0 0
457774.0 507399.0 0
462618.0 505148.0 0
467083.0 505115.0 0
470449.0 506848.0 0
474432.0 506536.0 0
480931.0 505344.0 0
478423.0 506971.0 0
485272.0 505456.0 0
490391.0 506045.0 0
497887.0 505835.0 0
497499.0 509777.0 0
3684.76 509540.0 0
10959.8 509937.0 0
16456.6 511295.0 0
22733.8 511105.0 0
23710.0 515052.0 0
27580.1 510633.0 0
31060.8 512819.0 0
26678.6 514006.0 0
33971.5 510323.0 0
37063.8 512664.0 0
41659.7 511169.0 0
46782.4 512929.0 0
56702.2 509304.0 0
52744.1 513907.0 0
62611.1 510879.0 0
68010.6 509210.0 0
73123.1 509442.0 0
77757.4 510660.0 0
81776.4 511592.0 0
85719.7 509849.0 0
89107.1 512989.0 0
93804.6 512529.0 0
102394.0 509169.0 0
105879.0 512088.0 0
111435.0 509885.0 0
117218.0 508722.0 0
121789.0 512186.0 0
127701.0 509625.0 0
132773.0 511022.0 0
137164.0 510022.0 0
142016.0 509210.0 0
145617.0 512353.0 0
150185.0 512241.0 0
156259.0 512187.0 0
162232.0 508264.0 0
170264.0 509977.0 0
166185.0 512276.0 0
173591.0 508724.0 0
173474.0 511623.0 0
177747.0 508851.0 0
182007.0 512424.0 0
187169.0 510773.0 0
191773.0 509897.0 0
195052.0 512790.0 0
198578.0 509847.0 0
202964.0 511548.0 0
206390.0 509221.0 0
211687.0 509185.0 0
217352.0 512125.0 0
221597.0 509283.0 0
230227.0 508264.0 0
226308.0 510760.0 0
234668.0 509412.0 0
240662.0 510317.0 0
251542.0 508169.0 0
257703.0 508084.0 0
263299.0 508473.0 0
268629.0 509895.0 0
274540.0 510023.0 0
281800.0 511760.0 0
285297.0 508626.0 0
290879.0 511470.0 0
296532.0 510092.0 0
301096.0 509696.0 0
304531.0 512084.0 0
309569.0 508425.0 0
309077.0 512726.0 0
314537.0 511183.0 0
319891.0 509008.0 0
323758.0 512287.0 0
328853.0 509903.0 0
334640.0 508226.0 0
339566.0 512342.0 0
345123.0 509039.0 0
354207.0 510094.0 0
349644.0 512511.0 0
359616.0 510795.0 0
365149.0 510840.0 0
369890.0 511357.0 0
375134.0 512140.0 0
380821.0 511258.0 0
386484.0 511077.0 0
392208.0 512958.0 0
396149.0 509795.0 0
400100.0 510529.0 0
403822.0 508615.0 0
407747.0 510955.0 0
411318.0 513140.0 0
412409.0 508843.0 0
417263.0 509071.0 0
420050.0 511952.0 0
423827.0 508746.0 0
428965.0 511486.0 0
433851.0 512278.0 0
438246.0 511273.0 0
442696.0 511676.0 0
446131.0 514589.0 0
447642.0 510881.0 0
452897.0 510238.0 0
457583.0 511655.0 0
461857.0 510021.0 0
466930.0 509368.0 0
464764.0 513406.0 0
472162.0 510621.0 0
476910.0 510447.0 0
479834.0 512719.0 0
482484.0 509836.0 0
487683.0 509419.0 0
494521.0 506991.0 0
492497.0 510803.0 0
497985.0 513571.0 0
3197.16 515246.0 0
7776.85 513014.0 0
11811.9 514022.0 0
10017.1 518108.0 0
14766.4 517310.0 0
19837.2 516002.0 0
25451.6 517961.0 0
29506.6 516749.0 0
34392.7 516883.0 0
40365.6 515593.0 0
41749.9 518820.0 0
44642.8 517410.0 0
48814.8 516793.0 0
51843.6 518485.0 0
55687.6 518303.0 0
58258.5 514355.0 0
59509.9 518454.0 0
63302.7 515881.0 0
66586.3 518663.0 0
68445.9 514500.0 0
73987.0 514455.0 0
79454.9 515105.0 0
84536.1 514726.0 0
91541.8 516268.0 0
95314.1 517058.0 0
99783.8 513774.0 0
104938.0 516993.0 0
109709.0 514917.0 0
113165.0 513651.0 0
114115.0 517335.0 0
116491.0 513414.0 0
119192.0 517194.0 0
126240.0 515117.0 0
130580.0 514293.0 0
135437.0 514891.0 0
140027.0 513323.0 0
139482.0 518096.0 0
142987.0 515712.0 0
147039.0 516976.0 0
151750.0 516675.0 0
155897.0 517977.0 0
160350.0 517288.0 0
161939.0 513295.0 0
165380.0 517226.0 0
170798.0 515139.0 0
176624.0 514487.0 0
181135.0 517936.0 0
190675.0 514282.0 0
186181.0 515832.0 0
199312.0 514818.0 0
207504.0 513541.0 0
278128.0 513343.0 0
285504.0 513437.0 0
295005.0 515738.0 0
299666.0 513918.0 0
306454.0 516658.0 0
311844.0 517080.0 0
317074.0 516637.0 0
319412.0 513214.0 0
321495.0 516572.0 0
328017.0 515532.0 0
332946.0 513869.0 0
336688.0 517686.0 0
341176.0 517041.0 0
344849.0 514664.0 0
353968.0 514936.0 0
358864.0 516516.0 0
363047.0 514445.0 0
367469.0 515391.0 0
372466.0 517002.0 0
378875.0 516424.0 0
383335.0 515035.0 0
387638.0 516467.0 0
391707.0 518022.0 0
395542.0 517355.0 0
398172.0 513952.0 0
403313.0 513857.0 0
405245.0 518091.0 0
408219.0 515566.0 0
412130.0 516285.0 0
415528.0 513560.0 0
419913.0 516721.0 0
424506.0 514060.0 0
428808.0 516341.0 0
433344.0 517052.0 0
437428.0 515190.0 0
441951.0 517026.0 0
437416.0 519659.0 0
447464.0 518710.0 0
450517.0 514815.0 0
455283.0 515013.0 0
457349.0 518420.0 0
460443.0 515340.0 0
465460.0 517874.0 0
468876.0 514080.0 0
469966.0 518031.0 0
477545.0 514460.0 0
473727.0 515578.0 0
481758.0 515305.0 0
487389.0 514714.0 0
493455.0 515508.0 0
497561.0 517392.0 0
2028.53 520017.0 0
5882.54 519054.0 0
8019.22 522892.0 0
12744.0 521603.0 0
17447.3 521319.0 0
21941.7 520342.0 0
25275.6 522214.0 0
29188.4 521017.0 0
34049.5 522847.0 0
38604.0 520056.0 0
42821.7 521812.0 0
47931.4 521524.0 0
53321.4 522223.0 0
57972.1 522154.0 0
62651.1 520912.0 0
67269.7 521967.0 0
71193.6 519533.0 0
76892.2 519326.0 0
82157.2 519215.0 0
87613.8 518881.0 0
89437.4 523384.0 0
92546.3 520478.0 0
99216.7 519861.0 0
103695.0 522032.0 0
109421.0 520766.0 0
114752.0 522067.0 0
119403.0 522220.0 0
123911.0 519551.0 0
129439.0 519118.0 0
126906.0 522975.0 0
134808.0 520456.0 0
143577.0 519336.0 0
140870.0 522584.0 0
149494.0 520318.0 0
145895.0 523190.0 0
153254.0 520877.0 0
158169.0 522534.0 0
174144.0 518905.0 0
331705.0 518560.0 0
344047.0 519000.0 0
340537.0 521151.0 0
349392.0 518719.0 0
345313.0 522419.0 0
352265.0 523017.0 0
355147.0 520150.0 0
363701.0 518785.0 0
359811.0 521807.0 0
368581.0 520568.0 0
373732.0 522165.0 0
375844.0 518834.0 0
378404.0 521155.0 0
383305.0 520061.0 0
389045.0 521160.0 0
393848.0 521811.0 0
400492.0 518968.0 0
405559.0 521791.0 0
410130.0 520203.0 0
415220.0 518771.0 0
419426.0 521837.0 0
424766.0 519083.0 0
430003.0 521741.0 0
434848.0 522742.0 0
439177.0 524934.0 0
443884.0 522001.0 0
452928.0 519704.0 0
448872.0 523738.0 0
457680.0 522346.0 0
461463.0 520054.0 0
461877.0 524236.0 0
464615.0 521729.0 0
468405.0 521760.0 0
473469.0 520737.0 0
478252.0 518559.0 0
483473.0 519436.0 0
480255.0 523099.0 0
489311.0 519674.0 0
486623.0 522535.0 0
493595.0 520254.0 0
490379.0 522826.0 0
497906.0 521414.0 0
2747.67 524400.0 0
7776.74 527795.0 0
11595.6 525521.0 0
15828.6 526112.0 0
21531.9 525707.0 0
27388.4 525968.0 0
31313.1 526372.0 0
34765.4 528382.0 0
39317.2 525308.0 0
44820.2 526149.0 0
50615.4 526978.0 0
55382.4 525522.0 0
59602.0 526881.0 0
64710.9 525318.0 0
67899.5 528810.0 0
69743.8 524700.0 0
74546.1 524026.0 0
77816.9 528364.0 0
79765.3 523567.0 0
83036.1 528525.0 0
84879.1 523630.0 0
88256.1 527875.0 0
92556.0 525923.0 0
96034.6 523417.0 0
96504.4 528029.0 0
100197.0 525141.0 0
106659.0 527048.0 0
112089.0 525468.0 0
116594.0 526444.0 0
123303.0 525812.0 0
131039.0 524129.0 0
137143.0 524597.0 0
355889.0 525143.0 0
364460.0 523757.0 0
360692.0 527135.0 0
369933.0 525508.0 0
376153.0 526481.0 0
381002.0 525270.0 0
385994.0 524564.0 0
390654.0 525492.0 0
394923.0 527359.0 0
398211.0 523915.0 0
402922.0 525583.0 0
408738.0 525926.0 0
414468.0 524070.0 0
419379.0 527092.0 0
424194.0 524234.0 0
428250.0 526890.0 0
433417.0 527392.0 0
438290.0 530461.0 0
444190.0 526472.0 0
447905.0 528475.0 0
453774.0 525152.0 0
458193.0 526990.0 0
462844.0 528884.0 0
466068.0 525413.0 0
471516.0 525293.0 0
476002.0 524663.0 0
479064.0 527405.0 0
483882.0 526520.0 0
488902.0 526374.0 0
493428.0 525090.0 0
497788.0 525253.0 0
497582.0 529534.0 0
2912.23 529852.0 0
1223.35 533585.0 0
7747.64 532938.0 0
12403.8 529945.0 0
18312.3 531417.0 0
24879.6 531102.0 0
30190.4 529995.0 0
41575.1 530021.0 0
37293.3 533046.0 0
46541.4 531095.0 0
51549.8 532603.0 0
55326.6 529569.0 0
59161.4 531811.0 0
62387.2 534258.0 0
63432.6 530228.0 0
72607.0 528856.0 0
69638.9 534112.0 0
75508.5 533067.0 0
101883.0 528481.0 0
111682.0 529767.0 0
387426.0 529732.0 0
399388.0 529542.0 0
405135.0 530214.0 0
409461.0 531008.0 0
413146.0 529032.0 0
417109.0 532139.0 0
424714.0 529171.0 0
422501.0 533355.0 0
429180.0 531336.0 0
433992.0 533164.0 0
440242.0 534595.0 0
443516.0 531032.0 0
452777.0 530388.0 0
448184.0 532984.0 0
458405.0 532288.0 0
464016.0 534274.0 0
468699.0 530144.0 0
474740.0 529227.0 0
477946.0 533144.0 0
481400.0 530577.0 0
486329.0 531669.0 0
492363.0 530443.0 0
497914.0 533893.0 0
3732.35 534022.0 0
12462.5 534810.0 0
16154.0 535929.0 0
42707.4 534969.0 0
473028.0 534350.0 0
490086.0 535343.0 0
494201.0 535170.0 0
POINT_DATA 5000
SCALARS Radius float 1
LOOKUP_TABLE default
5258.36 5061.3 3163.97 3642.12 5812.43 5906.14 5580.89 6810.52 5415.48 5120.0 6182.6 5492.18 3951.75 5867.73 4499.64 5542.27 5122.66 5484.19 7513.1 5254.28 4402.52 4436.4 5733.48 4182.53 3588.44 5645.7 5553.16 6110.27 2938.66 4008.92 5840.26 5073.35 4834.9 3863.18 2356.98 5484.83 4998.37 5538.89 5351.6 4730.36 4715.55 5013.56 6059.59 4375.68 5054.98 6030.06 5170.02 3557.27 4927.31 4688.68 5185.34 4517.56 5903.42 4672.91 3761.32 5176.86 4366.19 4118.05 3672.51 5065.13 4940.78 5561.06 5670.04 6044.04 5085.53 5926.61 2720.68 5701.86 4955.55 4238.81 3563.63 4468.59 5325.02 5885.03 5200.76 4862.64 4432.58 5205.43 6684.56 3955.56 2635.86 5292.64 6166.5 5936.02 3615.22 5305.17 4380.59 6716.79 3850.77 5325.36 6759.9 7021.47 5416.38 6051.14 4195.44 5836.15 4345.55 2837.58 3653.41 5246.2 3871.88 5017.13 4827.23 3673.74 6116.18 3968.64 4688.67 4385.06 7184.19 4231.61 4290.3 3942.53 3379.84 7613.27 5546.39 4094.62 5945.65 5418.62 5493.32 4601.27 5740.68 4277.89 3261.21 6704.06 5600.93 3856.01 4390.66 5279.39 4911.47 5803.39 7447.37 4924.6 3255.82 4733.32 2812.98 3867.67 2899.43 2924.37 4861.08 4003.05 4827.82 3607.45 3589.27 4951.03 4133.88 4927.02 6483.19 6230.49 7054.71 5489.43 3641.64 5747.75 4796.33 5539.32 6496.85 5541.59 4124.71 5728.85 6337.56 4381.97 6257.19 5242.73 4737.14 5603.15 4065.69 5399.73 4712.33 4805.87 5759.91 4333.2 4665.12 3936.02 5980.74 4174.52 5109.54 3829.13 6458.82 5054.25 5527.54 7325.81 4055.8 5360.19 4794.96 4874.39 4839.34 5083.08 2980.99 6834.49 5525.39 3998.5 5938.34 5863.59 4024.3 5555.28 4686.65 4695.45 4660.72 5390.22 6038.78 5227.21 3997.1 5123.52 3260.67 3383.4 3856.1 5816.2 4044.71 5693.81 3091.3 2540.31 5789.98 6138.47 5573.7 4727.62 5206.78 6425.26 6186.19 4840.01 5611.2 7933.0 5173.87 6394.38 5118.27 5169.36 5834.74 5556.96 3888.21 6052.7 5697.78 4295.38 4667.36 3038.33 4392.68 4780.03 3554.9 5495.39 4487.31 4002.16 4778.34 4138.16 6029.66 5697.4 4270.95 4005.44 5280.17 5028.96 5143.58 6362.12 4484.76 5152.36 4220.65 4455.12 5380.13 5711.87 5932.23 5581.75 5788.23 3666.57 3798.62 3921.18 5891.05 6902.81 5252.48 3996.0 4015.92 5708.81 4684.5 5120.49 6302.8 5409.61 6038.2 5555.88 6732.43 3866.16 3183.98 4524.28 4511.82 5826.64 6820.42 4894.16 4816.2 4896.52 4941.22 5791.61 6392.01 6644.76 4254.17 5615.42 4091.31 7199.21 5529.52 6124.89 5542.21 5924.89 5043.05 3486.22 4414.54 5201.36 5262.61 5713.22 5094.81 5861.71 5017.78 3794.63 3778.1 4727.24 6959.81 4829.35 6321.41 4751.02 3372.79 5184.56 5282.64 4479.66 3369.13 5308.1 6730.19 6372.62 7565.34 4523.7 5337.48 5481.78 4937.14 6894.71 5551.36 6038.14 4306.53 6135.57 5972.06 4312.67 4359.04 5015.69 4947.52 6175.81 4520.1 6677.09 5813.4 5201.67 4089.76 5526.55 3192.41 4987.87 4715.72 5367.2 3043.85 5461.13 4907.89 5629.19 4937.02 5255.32 5637.59 6084.86 3307.12 3115.91 4467.94 5478.92 4933.21 4850.81 4723.12 5024.9 5659.17 5998.38 4270.24 4989.15 5423.8 4164.13 3417.33 4642.34 5874.89 4305.57 3791.79 4293.03 4424.7 4754.05 4951.47 6084.93 4669.66 3315.57 5607.24 4808.52 4726.76 3599.45 5655.21 5091.39 6756.95 6037.08 4049.23 3103.0 3586.91 4948.92 5810.84 5094.44 4655.49 5375.47 4809.42 4717.05 5287.2 4562.29 4234.94 5013.13 5080.66 4926.42 5153.74 4165.81 4528.09 3556.85 4389.21 4128.98 4925.44 5246.61 5215.15 5046.33 4764.96 5053.92 5839.13 5090.24 5923.5 2240.39 5601.05 4382.74 4516.43 4749.8 3748.24 4230.54 4566.18 6163.38 3459.9 4964.09 5856.11 4109.88 4980.85 5714.58 5110.45 3329.99 5248.77 4083.97 5208.32 3895.51 6291.51 6246.22 4307.28 4100.38 5804.71 5020.12 6352.26 3735.44 4073.93 4786.6 4645.41 5740.84 5096.78 4727.24 6324.23 4651.28 4384.42 4493.48 4362.19 5082.6 4093.08 4997.27 5543.27 3327.49 3960.8 5992.26 4923.9 4973.78 3947.47 4607.02 3296.27 6673.96 5174.89 5882.89 4188.32 5538.93 5727.3 4242.52 3847.38 4907.06 3057.03 5163.9 4433.59 4973.83 4612.68 3320.52 6355.42 5690.56 3693.63 3937.74 5478.47 6061.47 4449.22 5806.08 4853.39 5628.24 5365.89 5070.39 4511.54 4613.31 5196.0 5091.68 4204.84 6119.09 4713.25 5069.25 6243.0 5441.96 4288.3 3435.9 5370.52 5774.81 4739.42 3697.96 4899.11 4723.48 4278.07 4745.45 5356.51 3818.59 5495.68 6043.3 5530.87 3912.37 4310.18 4929.8 4151.94 5244.78 5762.84 6142.37 5119.37 3982.23 5243.29 3130.65 5004.67 5409.33 4178.15 7531.29 5935.03 5048.89 3991.03 3161.47 4652.29 4495.87 5027.98 5344.77 5097.87 5281.28 4863.72 2631.9 4087.15 4143.08 5489.34 5952.75 6445.94 4281.49 4129.43 4320.28 5927.43 4685.34 5492.26 4220.88 6640.13 5351.39 4336.42 3402.32 4583.31 7589.94 4466.03 4898.94 4733.04 5788.66 4755.47 6390.78 6826.57 3746.31 4788.87 5346.27 7267.18 4758.21 5002.48 5708.14 4262.82 5537.72 6342.25 6327.9 6519.71 3092.35 3629.96 5210.03 4306.11 6022.17 5903.66 5419.37 5985.29 4528.49 4247.23 4268.65 4694.83 4354.08 4485.99 3903.75 4520.62 5475.8 7435.25 5498.32 5543.46 6475.1 6255.18 2691.29 7500.97 3920.42 6332.36 5542.14 4218.06 4931.53 3843.58 6082.81 5449.18 5367.52 4714.54 5030.91 3320.11 5507.24 4503.89 6851.54 5313.66 5935.47 5275.32 5512.23 4649.22 5509.42 5475.7 5936.36 5314.69 6050.81 6022.72 4643.31 5527.33 4969.21 6256.02 4277.88 6623.85 8332.24 7134.64 6691.39 4602.25 5293.9 3191.99 5110.37 4048.37 5664.98 4322.15 4659.59 5101.59 3813.22 5570.3 2651.49 5234.29 4711.62 4114.24 5349.31 5394.55 2976.22 4256.43 2682.24 5229.48 5415.19 4016.18 5127.16 5435.74 4249.46 4244.99 5560.26 5965.81 6917.52 2330.66 4177.19 5402.21 4668.71 3691.0 2845.98 7228.46 5102.36 5228.18 5787.31 6122.55 5480.13 6142.94 4931.38 4736.58 4548.16 3485.26 3240.09 4556.36 5025.39 3688.8 4377.07 3695.36 5893.5 3848.93 6020.48 5200.05 4645.58 5670.2 4091.8 5094.52 5166.79 5928.32 3950.63 5526.75 4275.57 3619.07 5327.45 6185.89 3702.37 3990.25 4752.51 4880.14 5320.92 3948.23 6362.14 6719.88 4342.9 5978.82 5978.9 2739.94 4270.53 4194.5 4329.05 4792.73 3369.23 5264.06 4515.71 5358.59 4547.19 3817.13 5023.15 3963.86 3844.9 5076.35 5273.35 5181.4 6259.23 4662.56 5417.15 3457.48 4946.74 5996.33 4612.62 6385.23 4467.04 2983.99 3997.96 5660.85 4750.17 3460.94 6184.4 3758.07 3587.05 4373.45 4989.09 4982.31 5269.18 4406.1 6155.31 6308.71 4790.08 4187.56 5082.47 5513.6 5138.31 4901.41 4551.24 6202.55 6387.01 7111.16 4871.44 6375.99 4853.02 5088.44 4998.21 3405.98 3931.07 7440.72 3688.16 4681.72 3949.6 6631.19 5661.62 5817.25 5626.61 2614.4 4439.35 6363.92 6205.93 6229.37 3828.81 5309.98 5289.52 5034.59 5314.85 5065.11 4553.56 5911.67 4223.33 5069.84 3629.62 5329.64 4840.84 4997.27 3708.04 3610.4 4621.75 4581.13 6338.89 6480.17 5584.06 4564.34 3838.56 6248.81 5872.05 6079.11 4256.67 4945.39 5376.71 4867.08 5407.78 6648.68 6632.99 5061.98 4923.24 5830.72 7177.44 4307.48 6718.19 4305.43 5450.44 3848.54 4942.77 3927.99 5266.5 5868.82 3323.28 4051.44 4301.06 5344.25 4501.51 6013.14 4602.86 3856.59 2765.2 4219.07 5372.61 5413.79 3686.21 6445.22 4962.77 4427.28 5323.3 3082.32 6430.39 4765.02 3658.37 4448.13 5703.6 5070.29 6326.18 4713.74 4266.03 4537.6 6179.96 4419.61 6260.79 4407.87 4082.57 4236.14 5080.18 5941.4 4454.63 4263.33 4716.19 4050.9 6695.82 5135.69 5514.76 5344.0 3456.98 5191.63 5379.87 5925.6 5572.95 3979.82 6723.16 4746.52 5402.24 4948.5 5013.42 5651.07 5210.48 6101.92 3627.55 4635.6 6239.84 5370.85 3178.54 5629.39 6157.04 2684.03 4807.28 4768.61 2261.36 4084.49 5075.55 4220.03 5703.07 5449.46 5147.36 4662.43 4563.46 3963.76 5169.9 5733.62 5282.91 6510.17 4871.96 4066.38 4523.88 6049.55 5709.62 6405.76 4290.14 4593.7 5987.17 4043.57 5586.81 5006.58 5130.91 3868.18 3689.45 4527.02 5383.07 7552.94 4519.22 4409.63 5865.39 5521.25 5949.46 3661.9 3776.94 5246.47 4010.57 4522.21 5280.69 6923.84 6166.29 6113.54 4043.66 5294.77 6553.94 4425.84 5282.51 3797.33 5331.02 7256.35 5742.65 5592.32 4241.89 5835.78 5054.74 4877.67 4020.32 6045.46 4763.45 4138.42 4481.53 3824.16 5011.31 5330.45 5077.33 3948.17 4531.14 4959.34 4247.15 4602.85 7644.38 4051.34 6004.68 5278.36 5136.08 5107.23 4187.31 5558.68 3240.51 5506.19 6191.29 6719.94 5161.01 4950.67 5453.6 4709.05 3077.84 5255.18 5528.53 3004.16 4460.92 5460.65 5945.89 4105.55 4800.69 3279.1 5912.61 4978.31 4099.77 4981.9 3498.2 4245.72 5941.72 3815.26 4150.99 4292.06 5681.38 6318.18 5045.38 5350.88 5125.78 4790.78 5452.83 4591.87 6552.22 6422.84 5379.09 5534.94 5180.76 6799.4 6218.95 5222.16 5533.42 4802.32 4599.38 5730.33 7422.36 4527.99 4628.4 5409.63 5227.59 6051.83 4630.82 4813.08 5726.66 6799.88 4767.78 3062.43 5426.78 4042.28 4863.23 4402.67 4403.98 5381.16 4948.98 5794.24 4537.32 6562.18 4216.92 4478.15 5147.67 3771.48 5577.04 4986.77 6034.41 5178.99 4027.09 5801.99 4502.18 3312.06 3361.26 4993.35 4690.55 5533.72 3678.08 5146.37 5518.57 5463.48 4543.1 5545.46 4376.7 5190.61 5832.37 4298.15 3973.12 4642.93 4263.16 6024.75 5860.67 4540.86 5990.52 5235.17 3555.86 6566.1 4560.84 6386.78 5227.52 4414.48 6086.96 5163.02 4127.74 4541.21 4704.72 5908.1 5445.87 5198.77 4107.03 5423.0 5643.58 5215.05 5137.34 5197.52 5344.43 5615.35 6169.11 4135.62 5266.22 4860.33 4983.39 3685.13 3418.99 5366.52 4480.95 7132.12 5417.8 4836.16 5680.94 5581.55 6550.44 3764.06 5941.9 6642.76 5987.42 6109.49 3764.1 4340.76 5652.0 4421.12 4435.36 6065.22 5565.13 4996.99 3066.13 6193.35 2476.04 4302.5 6048.7 4571.7 4177.94 4850.01 4138.46 2775.04 3975.31 5198.29 4044.45 4373.47 6070.58 5490.43 4896.11 5022.28 5172.53 4318.48 6132.95 5226.97 5754.18 4558.15 5132.68 6552.21 5227.02 4232.16 5151.11 5300.96 5670.0 5193.01 8325.01 4440.81 4523.39 5829.22 5567.93 2967.38 4835.83 5811.18 5463.41 4929.75 5254.49 6045.22 4470.61 4221.28 4456.39 4656.78 4156.38 4631.83 4092.24 6009.88 4344.58 5896.46 3970.25 4271.69 6035.6 4285.32 3627.82 5262.19 6449.45 4285.66 5339.38 5008.63 4004.35 4763.96 3872.61 4270.74 3450.93 6293.89 5737.75 6595.03 4350.12 3603.51 3834.43 6609.84 4344.51 4707.06 5491.37 3781.77 3474.5 6348.03 3860.83 4792.39 5732.27 5434.47 4497.78 4243.79 5332.65 4779.5 4237.98 4159.35 6439.37 6649.96 4896.39 3701.27 4729.43 5105.16 5991.09 5126.91 6006.16 4164.68 4742.68 4810.12 6898.19 3821.72 5526.14 4244.9 4470.4 4986.51 5311.03 3930.79 5293.51 4238.4 5365.24 5097.45 4446.06 4047.87 5742.47 3778.02 4095.75 2761.07 4367.78 5135.96 5222.51 6074.94 5658.37 4250.88 3475.67 5278.56 7038.89 5146.37 6917.62 5433.65 6451.33 5604.35 5225.33 3091.67 4614.3 4384.88 4332.87 5233.78 6887.27 4562.74 6008.49 4806.34 4678.38 5050.65 5634.83 5316.75 3633.87 3929.19 7099.43 6396.74 4516.28 5315.4 4611.53 6048.86 6894.26 5255.12 6625.18 4573.72 4185.61 4917.99 5099.21 3319.67 4076.59 4298.45 5636.4 4972.17 5164.1 4428.14 5699.53 3783.54 5527.23 4222.77 5268.38 3863.67 4805.33 5631.14 6137.8 4814.12 5067.56 4442.22 4887.76 5413.31 6477.91 4303.19 3633.79 4081.97 5514.84 6081.14 5421.53 3942.07 5480.83 5448.61 4827.33 5495.84 6268.1 5347.48 5922.5 5776.37 5486.68 5100.25 5094.48 5678.96 2681.29 6408.83 5576.92 5323.91 4586.19 4296.69 6969.28 4163.74 5283.8 6471.42 6464.15 6016.19 6685.4 4850.06 6332.01 7044.29 5980.95 4013.38 4343.78 3012.99 5263.3 6316.56 5401.99 6420.81 3914.2 5653.9 5134.39 5776.57 7144.24 5133.97 6600.94 7443.72 5022.8 4502.5 4374.35 4011.77 4527.08 2965.79 4287.63 5805.86 5346.68 4049.02 5296.29 5997.88 6234.32 4360.23 4585.31 4570.98 4275.07 5698.96 3665.95 6238.32 6372.13 4124.49 5369.5 4479.11 5714.25 3230.13 5325.96 5016.02 7085.01 4581.37 4234.18 3352.35 6193.08 4909.65 2735.53 5116.6 4008.15 4811.32 4669.06 4286.49 6400.08 5580.92 4256.57 4607.85 4220.46 3600.43 5683.26 5371.02 4906.82 3784.5 3937.08 5499.11 5113.21 5252.34 4410.55 3921.08 4190.31 5683.61 4558.46 5020.71 5839.71 5737.92 3755.95 5889.35 5010.04 5388.78 5825.38 5599.7 6804.79 5642.35 5535.91 5404.01 6176.67 5955.86 4533.37 5412.24 5887.38 4920.21 4049.16 3936.95 6069.3 6153.94 5887.01 6523.86 7693.4 4715.58 4743.59 3317.83 5784.3 4287.53 3532.3 5598.74 6088.68 5131.24 6070.3 5513.57 6133.92 4862.21 5782.6 6261.42 5965.78 6125.34 4274.61 5083.41 7055.42 5443.58 3836.45 5731.57 5662.55 5464.68 3056.7 2685.81 5591.76 5896.26 4394.56 6101.13 4587.67 5951.81 6918.35 4834.3 4066.57 6357.47 4793.65 4891.38 4532.89 2949.12 6040.74 2779.99 4848.46 5851.61 6942.34 3658.05 3862.77 6836.82 3858.17 5168.35 4631.99 3747.03 2783.85 6184.88 4326.48 5208.14 5829.32 4450.7 5769.98 5973.33 5937.08 2221.99 4643.56 4788.58 6155.1 7055.53 5013.67 5260.34 3719.84 4178.4 5669.65 5729.23 5011.84 5253.55 7034.11 5820.48 2586.12 5433.8 5564.02 5975.63 6444.77 6314.07 6248.6 5687.85 6401.43 5703.74 4747.55 4539.07 4475.83 4510.8 7509.24 5093.82 5756.75 3924.14 6318.23 6348.54 5156.76 6101.57 5948.71 3856.53 5460.89 5742.09 5260.85 2884.65 4393.16 3311.29 5807.46 5478.11 5030.15 3477.1 5388.39 4740.98 4356.49 3728.18 4437.07 5335.47 3449.37 4396.25 4526.81 3763.05 5151.52 3583.21 5092.24 4347.74 5442.32 4135.08 5612.21 5046.21 5894.61 5687.83 5196.67 5206.48 4709.35 5934.22 6586.45 5876.71 3780.23 5826.04 3471.03 4004.04 4359.62 5690.26 5607.14 5062.71 6057.22 6946.21 4156.2 4289.17 4497.59 4470.98 4512.11 5759.46 5708.99 6333.29 4558.47 5831.96 5064.79 5480.3 4146.81 4840.44 3427.63 6639.64 5212.43 5454.12 4058.87 4206.98 5932.07 5174.75 5844.72 4984.46 4054.22 3992.97 5393.65 7228.94 4648.21 4595.12 3110.13 4549.69 5526.31 6423.81 3644.78 4078.93 6192.77 3185.39 5128.77 3994.07 5491.9 6405.0 5551.95 3918.87 5291.9 5067.46 4518.04 5128.57 4009.62 4929.14 4863.01 6000.7 5945.08 5004.23 6496.67 5139.5 6442.69 5474.8 6320.71 5226.0 5624.49 5339.78 4750.78 4373.3 5029.78 3095.48 3745.84 4730.41 3923.03 4643.85 5696.88 5082.74 5411.85 3999.94 6915.83 4027.46 4844.57 6072.45 5511.88 3901.8 5941.61 4933.65 6098.1 5950.04 4231.83 2435.33 4074.48 4477.04 3614.96 3886.68 4691.91 5344.83 7046.11 4863.97 6342.48 5439.49 5216.26 4887.52 3687.65 5478.95 6571.31 3851.85 4392.65 5048.55 4024.31 4147.31 4955.16 5989.05 5950.88 4441.22 5853.89 4149.55 4961.99 4386.8 6551.93 6484.43 4625.67 3485.54 4312.15 4583.52 5934.82 4501.78 5633.61 4219.94 5907.46 4659.16 4264.91 5369.08 5399.29 5549.49 5620.74 3101.75 4766.06 3580.58 5356.79 5233.29 3979.54 5604.21 7493.3 4968.03 4814.55 5304.13 3527.05 4648.04 5833.06 6262.72 6607.87 3664.11 4166.08 3365.82 5762.59 4861.06 3979.26 5960.66 6608.73 5188.81 5654.31 6062.05 3999.48 6939.12 4203.26 4735.33 4413.85 6853.85 6171.13 4020.4 5092.37 4864.22 2395.5 3374.08 3497.9 5782.48 5564.23 4188.87 4031.78 3735.24 5398.64 6574.95 6817.57 6853.04 4745.43 3420.08 4320.42 4255.34 4912.04 7165.9 4701.5 4449.98 4771.65 4036.91 5589.37 5110.11 6379.14 3634.5 6631.28 6413.15 6103.11 6459.51 4904.51 3288.01 2202.77 5751.15 6201.86 5474.01 7554.58 3380.69 4140.4 4725.01 4458.64 5966.75 3657.69 6418.11 7122.87 5048.19 4243.26 3572.94 6799.23 4888.27 6740.71 6487.56 5789.55 5423.42 4874.18 2081.58 6605.86 4011.37 2511.46 2775.69 4312.56 4778.82 5657.36 3169.67 5204.04 4612.06 5467.84 3361.92 5944.09 3306.14 5490.58 5698.77 4863.79 6515.84 4702.06 4163.5 5374.51 6481.79 4123.6 5320.28 4796.58 4298.67 5750.71 5873.69 4962.09 4472.17 5470.77 4831.47 5516.95 5563.79 4151.76 4406.4 3905.51 4721.02 3493.47 4596.75 3546.71 4254.37 4498.25 5768.57 5151.21 5108.06 4222.4 4000.43 4693.52 3573.73 4661.03 4568.41 5160.59 3624.7 5262.35 4281.98 5783.48 4504.35 5012.97 4891.67 6818.91 3429.57 3503.65 5569.2 4027.63 5350.88 5420.67 5305.59 5416.45 6114.89 4330.58 5754.6 6870.97 5351.86 6056.87 5307.35 4342.18 3639.44 5446.4 5725.37 5510.9 4883.63 3492.83 4505.28 6015.02 4922.49 4153.84 5797.36 5001.58 5119.86 4820.17 4592.15 5084.17 4854.11 4901.2 4633.05 2275.45 6505.78 6522.59 6124.08 5012.5 6519.43 5029.47 3619.79 5876.64 4750.58 5053.95 5395.14 3464.83 6710.88 3967.48 2477.07 5117.47 4143.78 4923.41 4538.95 5724.64 4970.88 7092.87 4763.66 5224.12 4850.14 6739.08 3637.61 4569.12 6098.14 3493.7 4938.74 6470.3 6222.42 4200.03 5313.22 3474.39 5328.22 3436.15 4216.17 5711.11 4575.94 6484.17 4938.72 5021.88 4597.29 5956.65 4200.09 5931.77 5097.95 5313.12 4914.45 4698.87 5351.56 3984.88 5318.53 3344.57 4732.09 5220.76 6945.98 5138.2 6412.67 4593.7 7001.83 4482.9 4349.13 3766.69 5188.53 4521.75 6746.66 5410.33 4642.74 6735.97 3636.15 5483.7 5135.63 6384.7 4355.83 3896.27 5963.36 5230.02 5169.48 6016.08 5166.89 5491.63 6064.71 4731.21 3868.62 6102.98 5138.33 3425.69 4971.29 6280.13 5244.22 5585.14 7039.98 4729.42 4159.81 5089.26 4901.44 3886.72 5971.22 4909.31 5711.62 4785.25 5435.19 4270.15 5461.55 7093.13 3298.2 5926.11 6667.68 6213.04 4497.31 5211.38 2990.77 3163.78 4925.63 3830.46 4305.16 5965.15 4888.6 4666.81 5882.65 5078.86 7042.12 4797.52 4780.2 6326.39 5501.93 5462.21 4471.58 5463.38 6313.06 5374.98 5226.56 5945.21 6345.13 5274.19 5599.49 4050.08 4719.7 4097.57 5452.42 5017.5 5005.85 4893.49 5325.44 5102.75 4834.87 5938.17 5760.22 4795.43 5607.3 2928.82 4811.76 4638.18 5498.42 4196.37 5806.31 6448.66 4453.97 3556.79 3503.41 7317.04 3971.08 6204.65 6550.4 5513.8 5036.98 4120.07 4882.66 3840.21 4081.34 3908.56 4844.83 5244.78 5652.87 5377.37 4311.48 5018.69 5952.38 3152.86 6394.19 5807.52 5087.14 5518.11 4192.21 5712.35 4743.9 3124.7 3719.11 3743.76 6060.17 5153.18 6711.21 3684.15 5510.45 4236.86 4730.14 5832.29 2606.51 4438.76 6456.58 6006.89 5244.98 3814.65 5415.45 3965.3 4998.22 5533.19 5792.98 3776.8 5417.21 5096.43 6156.21 6602.43 3562.79 4383.56 6306.21 4990.79 6865.76 5253.37 5424.46 5235.11 5266.01 4721.32 5767.9 6515.8 3293.56 6031.67 6413.11 5092.28 4739.14 4918.77 5163.55 4636.5 4819.73 6817.32 3382.7 6471.55 5085.71 4319.79 6643.85 5960.56 6343.14 4020.95 6049.79 5862.86 4390.41 6113.95 4901.07 3981.07 5186.3 6496.52 3991.42 3718.69 4388.63 5966.61 4514.79 4940.28 2216.82 3672.21 4509.89 6752.75 3004.34 5269.38 5375.1 3022.6 5211.6 4172.6 4745.79 5470.04 5456.71 4908.75 6556.26 5438.92 5684.25 4244.49 4124.76 4050.03 4775.04 4952.52 4813.33 4833.55 4954.76 3646.95 6334.53 4749.96 4906.11 5869.67 4387.39 4899.73 4564.1 5457.66 4848.14 5366.22 5973.89 6193.73 5254.24 5701.52 3742.11 3597.43 6776.22 4467.13 5321.17 3877.8 6273.6 5902.67 5454.11 3994.39 5393.76 4941.02 3864.92 4618.73 2955.36 3668.93 4960.64 4983.3 6592.93 6104.26 6350.71 6436.74 3568.28 5583.61 4798.17 4953.1 5425.98 5166.79 2895.63 4516.53 5818.95 6449.64 3940.49 2040.66 4857.84 6464.8 5384.76 7016.27 5529.42 5274.14 5257.12 4434.19 6138.12 4428.78 4903.82 5100.1 4965.89 4940.42 3954.91 3703.1 5746.28 4371.99 5923.4 4623.61 4946.42 5187.7 5409.66 4082.47 3561.29 2965.01 6235.57 6263.44 4863.27 5122.63 5774.97 2315.64 6766.43 4703.08 4890.5 6934.37 3423.15 4488.85 3731.84 5010.2 3554.48 4579.69 4997.83 6123.03 5578.94 5148.08 6192.0 5885.28 7610.49 6579.31 6028.09 4609.02 5323.55 3804.5 5452.36 4896.65 6486.37 5561.74 6083.28 6100.73 5975.23 4788.08 4198.94 6163.54 4211.82 5212.37 6003.78 2628.22 5058.51 4901.29 3899.7 7200.89 4147.49 4802.98 4705.68 7224.99 5384.86 4869.48 3623.19 4658.24 4745.16 5509.51 5825.55 5719.79 3199.4 4316.5 7261.51 4968.14 4158.91 4914.03 5086.29 5144.56 5311.55 5139.18 4869.25 3360.86 3034.16 4763.4 5545.21 4333.87 5024.32 4708.17 3779.45 2741.2 5806.61 5790.42 4983.1 5784.37 6119.99 7123.04 4128.1 4009.24 5372.82 4385.81 4402.17 7778.01 4034.05 5690.96 2460.79 4653.83 6063.64 5996.66 4093.99 6479.39 4122.92 5079.22 4997.91 3604.14 2978.76 4908.49 4452.54 6622.11 4962.21 4689.15 5884.9 5089.62 3685.65 6790.73 3685.13 4590.55 5243.43 5659.95 4741.26 6090.91 5920.32 4186.6 4537.14 3701.16 4152.85 3295.83 5551.9 4219.78 5644.82 5203.08 6413.02 5412.31 6736.03 3492.19 5374.07 4584.5 4118.84 3623.87 5548.29 5916.16 5163.77 5469.13 6027.62 6098.95 5765.42 4817.16 5453.98 5660.55 5653.03 4157.29 3989.7 5107.0 4777.03 4246.61 4286.17 3684.56 5327.75 4946.23 4852.58 4532.7 4504.86 3217.67 4473.29 5079.64 996.652 4680.69 6500.49 5965.58 3352.34 4607.18 2403.72 5078.59 4365.58 5134.33 2646.13 5419.57 4636.53 5162.67 3629.49 5760.98 5469.35 4019.34 3835.81 5429.3 5510.96 6653.07 4697.91 4584.81 5071.98 4371.08 5148.1 5224.64 5949.73 5214.63 4312.48 3495.68 5527.13 4278.57 5049.99 5551.43 4201.03 6318.25 5136.87 5638.7 5001.87 3667.93 5813.79 4644.88 5293.13 6010.59 5591.77 4446.58 3682.35 3756.96 5401.4 5127.82 5798.38 4456.11 3862.91 4125.9 5096.24 5366.11 4986.71 6171.71 4405.42 7382.3 2995.67 3598.08 4022.56 4599.81 4684.44 5381.54 4406.05 4749.59 5698.23 4858.44 4680.94 3468.42 5828.35 5799.69 4673.35 5571.72 3876.21 4655.16 5869.4 4916.22 6022.7 5297.19 5251.4 3867.19 4188.3 4963.34 5081.78 4459.28 4260.92 5499.39 6250.23 4407.9 4440.57 4718.54 8659.64 3087.09 4055.54 4588.7 7480.41 5683.95 3766.55 6107.89 4976.12 4233.8 5530.49 4304.41 5065.26 3746.36 6789.23 4892.44 5069.89 2205.51 5361.87 6212.15 6813.72 4783.07 6200.63 6816.66 3844.54 5241.75 5034.69 5849.53 4509.46 3538.53 4420.11 6127.39 5640.12 4972.18 6638.25 5329.76 4759.99 5214.4 5193.58 5399.43 5766.05 5117.64 5695.44 3916.42 4507.46 3422.21 4944.51 5603.68 5610.95 5532.72 3220.8 5179.17 5579.39 5270.51 5490.75 4979.52 4407.79 5783.94 6548.29 3990.96 6370.33 5081.08 4202.77 6864.06 4493.79 5684.05 4932.56 4279.44 3142.09 4028.22 7350.26 5182.13 5167.53 6110.48 5906.57 7541.76 5053.15 5910.86 4775.49 5124.17 4681.29 6239.68 5805.1 7320.78 5039.12 3908.98 4064.58 3419.87 3628.89 4668.88 6589.82 4824.81 5522.21 5027.43 3772.3 4855.01 5810.77 7300.58 5089.1 2711.19 4714.83 5876.72 4028.32 5236.43 5689.26 3809.69 4992.42 4771.13 7051.9 4940.84 4255.85 4345.67 4453.64 5097.69 5019.93 3885.86 5511.6 5235.29 4517.73 3757.34 5177.64 4255.31 5191.08 5453.3 5148.58 6116.33 3838.47 4479.94 2588.37 4062.5 5887.15 4199.45 4435.51 7234.66 5415.85 4858.51 4207.54 6599.66 4886.12 6419.12 4481.76 4301.61 5206.33 4446.84 5452.78 4356.36 5473.72 4741.28 4215.2 2603.64 2856.55 4553.68 3703.49 3894.64 4268.19 6502.97 3758.22 4757.2 3205.68 4583.94 5969.37 4928.35 5046.31 4337.32 1937.5 4731.53 3763.9 4651.99 4788.7 5863.0 5084.5 4918.64 6562.03 4410.82 4815.47 4368.12 6443.99 3889.98 5490.64 5034.34 3769.2 3468.45 5036.14 5635.32 4526.34 5409.08 5042.75 4598.92 5241.22 5673.75 5360.67 6647.08 6263.3 3422.29 4537.03 4501.05 5124.34 4114.2 4326.06 5352.24 5034.46 7362.42 5793.12 5836.14 5473.05 6008.81 5537.34 5192.49 4899.19 3487.31 5058.34 3918.94 3768.46 3852.82 4507.36 5003.3 6245.52 4932.29 5499.59 5749.6 4834.44 3845.9 3125.13 4234.88 4141.21 4439.71 5782.43 4384.28 6328.42 5769.14 7307.21 5522.75 3608.06 5474.15 5867.64 7519.2 4099.92 6633.61 3208.96 5285.07 4884.59 3858.06 4680.14 4478.6 4608.41 5895.77 4732.09 4765.72 6261.75 3988.3 5857.79 2908.7 4039.91 6415.61 6136.49 4642.66 4338.08 5276.7 5149.72 4541.8 5660.16 6134.99 6200.54 5424.88 4652.01 4928.27 3583.49 3673.28 3548.39 5421.64 4366.74 5297.16 3375.28 4603.5 5354.66 5625.65 4936.96 4647.67 4214.44 5378.23 3184.64 4787.97 4981.43 5375.12 4061.6 6214.73 5836.26 5175.89 6618.21 5232.85 2617.39 4374.74 4062.56 3717.47 4051.18 4685.4 5146.0 6240.42 5721.14 6006.16 4577.73 4288.45 4987.28 6206.98 5131.77 5549.71 4967.51 5173.82 3720.7 7212.97 5698.53 3856.73 5378.24 3604.31 4450.49 5887.71 5661.6 4827.61 4316.45 5481.64 5385.03 4169.15 4778.37 5134.17 5968.54 4074.16 4904.35 3247.97 5592.54 4358.81 4904.37 5278.54 4651.64 5757.29 5016.46 5469.17 4373.2 5061.75 6022.78 5884.99 5726.42 6643.4 5575.11 5487.63 4674.9 6599.28 7145.73 5800.81 4990.23 3220.29 3954.77 3784.94 6016.87 5166.05 6715.73 5667.51 4174.44 4456.26 5113.6 5944.3 3563.14 4810.98 3381.82 5135.5 5431.29 6208.9 3619.72 4923.57 5347.9 4646.51 3340.09 4438.58 4565.93 6059.93 5602.53 5217.95 6355.68 4083.79 4184.23 4511.7 4144.57 4833.46 4351.38 5750.07 4187.94 5980.59 5550.75 6543.13 5933.7 4809.67 4752.14 4757.74 4687.64 4378.3 4950.97 5411.02 5037.06 5175.29 5842.56 4863.96 4094.73 5713.03 3852.6 5849.65 5131.15 5134.67 5775.31 4110.59 5052.84 3332.49 4847.14 4165.21 3950.27 4215.0 3683.86 5116.66 4918.76 3566.79 3629.44 3299.24 5003.78 5374.67 4208.41 6246.56 5826.78 4508.18 5064.67 6358.93 4383.68 6666.67 6015.22 5144.44 6063.44 2904.46 4826.52 6449.06 5120.92 4629.02 4924.07 4927.73 5914.5 3565.32 4608.62 3419.07 5407.96 5344.44 4071.75 4626.72 3186.07 4369.86 5482.76 3745.02 4887.73 5728.58 6297.99 4211.36 5918.95 4538.89 5817.74 6556.86 3242.31 6099.28 5285.75 3234.26 3494.16 4830.13 5370.9 4325.13 4529.77 6172.27 4262.74 5390.33 3783.79 5078.73 5729.92 5729.0 5275.57 6224.13 4179.87 3769.24 4761.84 3661.67 4087.32 5517.65 6647.85 4009.68 2569.12 7025.09 5461.72 4433.12 4361.24 3392.26 2549.95 6224.85 4168.52 5403.97 4556.19 5368.66 5106.46 6793.1 4068.31 4506.66 5515.73 3671.06 5209.55 5077.29 4708.31 4564.41 3873.92 4198.9 4027.33 5026.76 5951.86 5091.22 4833.67 5023.41 6282.38 5640.72 4504.52 7107.63 6061.63 5073.02 5484.36 2279.05 4867.7 4829.35 4304.63 6545.43 3953.55 4063.9 4075.28 5263.27 4277.24 6834.41 5021.77 7248.4 6300.92 4356.25 3796.15 5161.1 5469.47 4419.71 5036.58 5329.59 4244.21 5512.16 3197.63 4617.55 3875.05 4989.56 4287.16 3645.12 3456.47 5199.44 5471.74 4344.34 5580.34 5966.42 5009.83 5210.38 5717.8 4706.5 5210.75 4811.22 4658.11 4474.83 6555.44 5293.75 5658.14 5114.07 4385.49 5730.61 4263.18 7124.45 7142.95 4559.74 6061.85 4454.74 5268.15 5512.44 3460.93 6347.72 3200.6 7168.2 4602.57 4571.74 3763.85 5710.33 4096.86 3622.48 5001.51 5115.42 6432.8 4209.0 4082.4 4930.72 5485.84 6424.77 5453.69 5432.04 5689.56 3702.45 5265.63 4898.29 4431.06 5372.25 5620.88 5730.2 4045.67 4941.52 6005.95 5900.0 4308.49 4581.1 6241.77 5317.19 4248.14 5192.92 5279.19 4016.6 7050.08 4786.66 5891.25 5370.1 5114.51 4622.73 3303.49 4161.32 5161.74 7336.37 5138.93 5099.9 6945.69 6406.8 4795.08 6562.92 5648.78 5501.73 4697.24 7035.54 3612.44 4983.43 4850.5 6331.74 5233.76 5763.05 4252.18 5357.39 5129.68 4659.88 2820.07 5076.84 5325.91 4546.44 5851.63 5657.55 5727.79 5212.92 4831.93 5788.97 3472.91 6760.92 4989.2 4469.54 4023.93 4314.56 5868.89 8137.11 5291.05 3928.53 6650.77 5776.96 6045.67 4209.49 4888.12 4216.95 6119.63 3498.16 4247.69 4409.27 5439.9 4752.9 4588.99 4947.24 4321.21 3540.11 6506.86 5950.45 4803.57 5088.57 4728.55 4923.43 4568.64 5666.95 4642.2 4127.53 4489.99 4945.0 4212.15 4548.45 5260.52 4551.26 6102.49 5678.58 3185.09 6570.35 4242.63 5114.23 3269.54 5495.0 7407.91 5846.95 5716.42 5064.23 5701.63 4620.95 5368.93 5819.0 4488.39 6121.56 5124.86 5879.24 4796.12 5740.78 5997.91 5385.86 6791.86 6031.22 5703.84 3618.64 4335.79 3530.82 5797.32 4886.99 3921.27 5159.67 3161.1 5764.52 5684.88 6523.78 4645.86 5087.97 4930.17 4519.03 5110.27 4745.44 5762.82 4085.96 7360.12 6223.98 3035.06 5821.49 5580.44 4262.19 5998.13 5095.52 5129.4 6275.25 4746.15 3720.38 4655.37 5585.25 4758.84 5256.75 5023.61 6351.89 5932.28 5118.86 7086.69 4298.7 6170.9 6875.73 5226.42 4436.48 6081.3 5117.52 5615.35 5426.4 5866.91 6405.69 5679.74 3791.41 4092.07 4825.73 5853.12 5247.01 4213.05 4224.3 4208.37 4184.21 5157.38 6203.03 4700.07 5188.82 5235.87 5615.84 4464.73 4928.85 5043.14 6440.38 5556.0 5484.32 5007.21 4711.04 7144.05 6226.14 5466.33 5742.74 5464.25 3946.28 5280.12 3821.94 5984.81 4209.31 5486.48 3805.67 5718.28 4514.39 5301.47 4640.06 6242.79 5993.0 6047.14 5391.48 5467.63 4554.68 4368.28 4929.6 5750.35 3919.62 5984.8 3127.83 3986.41 4585.04 4241.68 3469.18 6949.65 2945.34 4095.83 3372.95 5695.25 4489.29 5676.61 5796.26 4301.93 4603.04 4870.94 5293.37 5271.88 5559.79 2980.31 3148.79 6348.93 6824.53 4332.64 4742.82 5232.16 4422.23 4820.68 3989.26 4171.02 7012.36 5028.06 4002.99 4293.3 5587.3 3572.73 4864.38 3770.22 4390.64 4848.98 5150.84 4491.96 5184.98 4608.01 4467.51 5339.82 5460.57 5065.78 5703.34 6668.98 4612.68 3207.84 6649.52 3977.98 5462.6 5617.29 4597.88 4878.93 4845.91 2002.78 5631.32 6892.33 4505.3 4731.37 3976.0 4672.86 6530.78 2960.5 4975.32 5560.23 4183.4 5237.55 3902.48 4304.64 4733.79 5833.78 4905.53 4823.06 5758.98 3967.76 5254.49 6311.89 5288.64 4683.28 4217.36 6549.8 4851.18 4165.36 5005.72 5288.33 4841.7 6296.54 5702.4 5273.37 5069.9 4717.73 5473.89 4732.37 6089.45 4985.3 5072.5 3904.07 5713.36 3274.85 5545.59 4173.54 4619.2 5599.29 5606.51 7216.98 4801.8 4444.97 5721.05 5271.02 4807.4 6329.53 4350.15 7013.17 4590.01 4601.74 5367.73 5078.31 6101.86 4807.35 4227.41 6761.81 3903.91 5630.9 4140.92 4512.07 4756.8 4896.43 4692.32 4176.32 5463.06 4639.8 5236.24 6069.78 5532.75 3587.93 4517.29 4975.85 4495.75 5323.95 6171.01 6229.83 4468.26 5578.18 5106.33 5198.94 4873.23 5933.54 4028.35 5464.05 4733.41 5453.2 5264.83 3901.53 5136.51 5431.14 6815.51 5313.86 4457.05 5189.91 5151.19 5777.26 6119.0 3792.06 5128.59 4993.49 5310.33 6583.37 4569.32 3688.83 3402.44 6084.88 4397.06 4479.5 4053.12 4014.44 6261.67 3435.13 6002.77 4431.46 4521.42 4614.49 6043.34 4232.33 4939.56 4747.68 5770.92 3093.38 4461.67 4723.71 6126.5 6322.0 5793.14 4491.26 4452.36 4068.41 4511.34 6463.71 4832.21 5059.37 3043.77 5783.38 4139.39 6264.03 3909.94 5088.64 6030.39 3799.01 6589.8 7392.65 5319.1 6213.24 3757.23 6734.39 5942.45 4150.76 4228.53 6123.46 5368.52 4871.77 6142.88 5811.26 5797.21 5685.74 6740.35 952.938 4678.7 3673.6 5810.17 4966.07 3306.84 4657.24 4400.14 5748.9 4749.18 5553.94 4506.18 5166.41 5494.28 5740.65 6038.68 5046.12 7104.73 3000.29 2596.96 5067.56 6349.67 5701.75 4264.54 5261.19 3516.27 4139.3 4263.65 6541.45 4750.49 4263.78 6106.43 5644.81 5228.75 6545.99 4177.47 5334.36 4218.16 2918.64 4933.49 6139.64 3990.94 4357.11 5477.8 5486.89 4462.35 7208.19 4549.51 5025.42 5196.08 4965.24 6379.38 6257.79 5438.55 4849.5 5353.23 5977.66 4523.81 5065.74 5209.5 5791.25 6175.27 5876.51 6731.89 4286.61 5410.6 2932.52 4969.68 4603.66 3557.46 6636.43 5971.95 6298.8 5178.07 3689.24 6509.54 6079.55 2589.19 4696.06 5485.61 5308.4 6581.13 5803.3 5537.61 3228.27 4721.98 3543.98 4199.44 5878.55 6604.72 4812.59 4610.55 3794.47 4967.02 7115.67 5400.69 4462.5 4128.93 4959.72 4712.17 5004.68 3808.04 4023.88 4405.61 5348.11 5428.24 6007.1 4034.88 3511.5 6345.2 4609.65 5704.61 5009.21 4742.35 5394.79 5645.54 5264.08 3562.8 4526.87 4151.74 5192.82 6920.92 3729.16 3783.36 4174.22 4181.93 3573.84 3038.91 6828.8 3922.28 6570.43 5987.88 3579.59 6161.94 4065.28 5155.28 5057.59 5111.26 5388.73 5285.6 5062.77 6019.35 6075.99 6028.63 4600.71 3450.07 5265.21 4550.92 5927.2 6215.87 5191.26 4067.96 5866.42 4824.12 4704.92 3663.0 6542.5 4099.26 5206.47 3834.47 4834.39 6162.3 3272.75 5971.21 5493.89 4057.17 2781.96 7066.96 5262.47 3512.94 3104.96 4467.0 7043.44 4587.7 5601.55 3831.52 4258.98 5196.92 4643.9 3787.08 4013.86 4598.54 4816.51 5218.42 5345.73 4770.63 4841.23 2804.54 4196.62 2809.19 5005.6 4104.04 5589.53 5593.79 5104.39 5234.2 4612.13 5846.6 5327.05 4109.44 4903.84 4290.49 4434.65 4557.1 6688.53 5927.1 6500.45 4907.55 4103.76 6605.11 4757.87 6379.33 5130.57 5652.73 3979.46 5402.45 6321.97 6412.84 3985.93 6071.59 3856.4 4937.36 4137.16 6189.29 5984.55 5672.46 3956.24 7558.99 5252.82 4142.1 5056.26 5333.04 5445.91 4521.99 6842.54 2853.68 5675.45 6038.56 5573.31 2807.46 5599.16 3488.34 4179.8 5658.35 5108.84 5886.81 4582.12 4520.14 5067.92 5488.96 3188.21 5410.73 5128.03 3720.92 4379.91 4574.03 5290.37 4942.63 5850.38 4227.66 4691.01 4594.89 5245.95 3677.85 5821.42 4067.89 6294.09 6883.86 4571.57 3445.92 3350.99 3820.19 4979.5 5236.69 4745.37 4461.14 5418.98 5939.29 5575.11 5205.38 4574.54 4949.55 4884.93 3132.34 4764.83 1969.87 5262.79 3957.38 4494.15 5035.71 5146.1 4419.79 6485.77 6060.06 3669.32 4762.1 5544.27 3484.81 5610.53 3742.31 4316.0 4954.81 2970.9 4546.96 6304.49 4383.47 4608.34 4580.06 4835.97 3926.11 5695.79 5464.83 3622.8 4770.51 4920.88 4184.47 5414.58 4431.23 4991.35 4994.65 5740.98 4346.07 4462.87 4012.92 5759.79 4426.02 4711.15 4474.39 3825.48 5459.92 4658.59 5188.22 4096.47 3810.68 6478.35 5453.77 4916.7 2638.82 5030.33 5157.73 4541.22 5847.91 3539.68 4934.66 4696.03 4984.01 6217.33 4605.39 6270.59 6045.26 6263.87 5743.8 4094.63 5084.76 5581.01 6834.92 5749.53 5090.48 5247.73 5034.02 5582.28 4649.5 5945.25 5181.31 5985.75 5475.83 4329.8 3074.49 5728.27 6571.26 5202.33 5580.95 3549.92 3393.59 5043.14 4032.06 5246.81 5089.1 5394.78 5122.38 4998.37 3361.11 5901.71 6559.82 6565.95 4577.98 5043.34 4246.24 4487.51 4295.25 7394.47 5357.14 4850.95 5919.27 5087.3 6637.38 6139.74 4975.57 7066.26 4730.97 3057.3 6150.31 5214.71 4677.84 4515.02 4811.11 3463.53 6126.03 5131.07 4121.07 4586.82 5524.28 6026.04 5731.43 6200.05 5859.17 5615.06 5490.54 4841.28 4047.95 5203.54 5507.38 6889.5 4710.88 5001.69 5407.69 3869.39 5960.5 3987.69 6502.99 4287.25 5424.55 5755.15 5134.72 4921.1 4271.07 4191.01 3814.16 6419.64 4589.06 5340.05 4215.05 3626.86 4140.04 4668.8 5995.4 5577.41 5917.34 6511.37 4216.44 3999.5 6710.14 5735.08 4726.2 5034.05 3953.26 4750.81 5467.51 4282.11 4625.53 2347.41 4542.16 5714.51 3543.37 5114.67 2030.03 5353.66 5527.27 5765.14 4767.54 4946.08 2927.84 5121.08 5688.77 6177.68 5466.13 4698.7 5257.38 6229.64 2848.44 4220.43 4975.56 7282.36 4829.77 6666.34 3826.01 4645.91 4444.92 6959.88 4125.75 5971.9 3746.62 4532.67 4876.37 4769.62 5260.13 4810.74 5019.84 3900.93 4028.13 5784.38 4149.17 6260.58 3053.19 4720.22 4313.38 5827.3 6598.99 5250.56 2468.16 6294.14 5888.95 5203.75 3463.34 2459.88 5169.09 5262.85 5329.84 5470.67 5225.11 3879.83 5733.12 5252.22 6436.29 5402.81 6805.02 5354.48 4729.45 5640.63 6261.13 5374.09 4793.06 3421.81 6188.33 6111.23 6916.18 5786.06 5873.62 4137.41 4996.91 4924.52 4866.8 5379.52 3768.62 6044.69 2970.24 3133.28 5105.54 4197.87 5462.1 6353.81 3414.67 4052.49 4034.41 3518.14 4150.44 5061.74 6189.67 5326.03 6142.94 4420.35 4948.96 5117.83 4416.87 5256.82 5300.17 5152.78 5308.33 4117.9 5393.43 6896.55 4666.12 4638.09 4392.75 4685.65 6219.34 6023.07 4420.6 5674.63 5287.25 6506.63 5939.22 4725.11 5418.12 5092.93 5934.05 6371.96 4271.93 3495.3 5125.17 5890.25 5322.11 4859.01 5700.79 5076.11 4697.49 5524.45 7133.44 5600.21 4656.01 6589.13 5602.62 4037.86 4138.59 4938.33 4970.55 5628.97 4484.78 4819.83 4621.33 6286.27 4801.16 5071.38 5616.66 4802.36 5368.28 4880.78 5509.09 5075.23 5625.02 3873.72 4592.49 5212.05 5479.86 6474.5 3928.99 4763.04 5944.52 4413.56 5050.2 2513.38 4821.41 5316.05 4908.32 3995.08 4499.52 3874.12 4457.73 5759.19 6476.35 3113.64 4304.75 5480.86 4067.24 2832.83 4474.96 4084.87 6036.99 3633.58 3010.1 3584.05 3825.98 4339.97 4589.22 5087.03 4667.84 4691.15 4512.6 4210.24 4260.38 4636.45 4932.27 5342.9 4962.35 6793.49 6786.37 4600.81 4333.23 4919.13 4124.33 5168.97 4900.26 4167.55 4720.34 6271.22 5244.47 5378.75 3920.64 6186.24 5510.89 5822.7 3780.07 3868.69 4159.89 5447.74 3920.44 4450.51 6033.72 5314.67 3851.47 5658.05 4966.74 6593.1 4066.36 4000.51 6033.93 6032.45 5444.36 4026.03 5522.34 5771.98 5899.78 5717.45 5000.74 5772.57 4813.81 6581.56 4052.43 3980.46 4061.87 4057.4 5534.23 4585.37 4753.76 5383.9 6025.77 3934.11 4441.91 5158.44 5377.01 4466.22 5330.26 6470.23 5828.25 5917.08 4475.38 5483.37 5259.21 4256.08 6738.9 5881.93 4460.89 2803.01 4604.1 4157.1 4714.66 4399.52 5322.07 4444.0 6771.18 5770.07 5990.75 5101.6 5327.39 5781.62 4981.81 5141.03 4840.44 8123.59 6033.28 4188.16 6327.54 5507.07 4654.92 2943.17 5286.55 5327.71 4322.56 5223.1 4850.49 4981.55 3625.98 5144.23 6188.62 6153.07 4702.32 4414.06 5908.57 7296.47 5742.39 4780.16 4924.53 5616.11 4813.24 4433.23 5312.2 5847.27 4490.2 5734.84 3982.31 6139.9 4758.76 4582.24 4790.63 5259.29 4916.75 4818.53 3906.41 5584.64 4123.08 6224.64 4221.03 4576.71 3799.55 5638.51 4550.77 3563.33 3550.88 6060.19 5536.0 3860.8 4328.76 5561.63 5940.5 5783.88 4358.06 5002.38 6705.93 4865.11 4731.16 5502.14 6470.87 4495.33 5282.67 5466.49 5178.55 4038.17 5007.41 4907.48 3692.99 6213.74 5563.47 5651.46 3162.27 1635.31 5639.4 5011.37 6185.73 2827.92 5516.37 5092.44 5044.68 2649.69 4441.44 6908.32 3467.11 4817.75 6153.26 5268.27 4013.86 5244.95 4645.93 5165.31 3882.37 4634.25 4896.67 5448.64 5901.8 3798.09 6417.61 4288.5 4781.9 6815.96 6153.71 5339.6 6561.94 5350.9 5317.83 3483.61 5640.67 5992.06 5545.68 8052.53 3939.96 4554.24 5555.89 6182.19 4967.93 4984.17 4867.12 6044.01 5910.66 7415.84 4637.3 1458.87 5734.07 6241.48 3997.68 4414.09 5125.45 5957.82 3784.68 3717.22 6305.9 6649.21 3470.69 5093.28 4859.95 4132.08 5522.18 4699.77 5093.41 6842.35 5464.34 3621.63 4777.96 5801.89 6833.5 2613.78 5417.07 3796.73 3834.01 5738.37 6789.66 4739.41 6760.64 4706.59 2515.5 5177.88 5551.79 4950.07 5367.05 3916.15 4088.72 3743.85 6236.46 5097.85 6189.04 3795.63 5189.4 5082.66 4337.93 5201.3 4345.51 6223.33 5145.13 3747.96 5611.29 6568.45 5093.51 5647.93 5004.22 6201.49 5449.09 5154.74 4605.61 4465.56 4131.08 5747.9 5386.95 3864.19 5146.69 4287.93 6203.24 6818.23 4488.41 2329.93 4959.94 4369.87 6938.87 5412.07 5512.57 4083.24 6520.96 4232.44 4612.4 5336.61 3312.3 5563.09 5637.53 4848.15 3282.57 4439.09 4798.13 5523.81 4095.4 5188.57 6351.48 5395.12 5715.51 4496.51 3886.56 4511.05 3456.3 3830.7 6074.39 5432.4 4262.52 5037.58 7430.48 4844.2 6572.17 6080.69 2181.29 3751.73 4926.62 4420.3 3374.62 4766.47 4970.12 6369.66 6520.19 6009.93 5973.57 5922.62 5130.56 4957.99 4063.26 5191.29 4947.64 4997.89 4542.62 4881.51 6131.52 6009.88 6729.99 6664.54 3922.98 5161.73 5259.48 5254.93 4803.4 8013.28 6608.94 4644.68 5283.65 3082.16 2892.36 5656.84 5911.29 5416.41 4694.27 4414.23 4849.21 4785.55 3793.83 6981.47 6189.81 4449.73 3945.62 5647.11 5342.17 6379.3 5015.67 6538.04 4894.15 6157.59 5848.41 4048.73 5438.6 7370.52 4521.88 3724.23 5103.3 4280.92 4601.54 7263.57 4696.92 5705.96 6437.99 6898.8 6632.04 6540.57 5315.71 5332.11 6158.93 5081.65 4823.14 6679.12 5652.19 5806.74 6578.62 4806.99 3771.91 5432.2 5217.62 3839.0 6178.19 4746.19 4616.81 6381.58 5715.25 5212.2 4611.21 5648.59 4469.82 4718.61 6697.45 3873.79 5717.67 5357.33 4432.32 5783.69 5252.37 3224.81 6210.0 4499.54 3775.38 5782.25 4046.22 6457.89 4081.77 5114.61 4948.21 4987.01 6118.13 4706.31 4202.12 6332.64 4871.1 2694.25 4735.99 3917.09 4083.1 4613.32 5678.08 3482.73 5872.45 3996.93 5270.1 6351.95 5195.09 5345.05 3997.52 4444.54 7679.2 5779.9 4909.74 2626.41 5310.33 4311.92 5299.03 5036.84 4565.36 5813.68 4025.08 5040.9 4008.67 4770.21 4868.66 4004.39 5159.9 3846.55 4987.48 5943.61 5981.54 5479.17 4542.25 5020.37 5233.88 5245.4 4090.28 4246.83 4726.5 5467.05 4963.88 5888.94 4727.98 3832.09 4122.2 5175.88 5267.65 5739.69 3509.34 5360.88 4893.72 6004.72 4072.4 5373.78 5345.65 5438.5 4621.32 5699.4 3878.8 4698.94 4813.55 5856.43 3948.21 4796.04 3465.03 5349.85 6011.4 5799.86 4672.34 5172.1 4362.94 6052.22 5056.32 5376.41 5108.42 4630.5 3354.94 6296.36 5105.72 5515.59 4082.01 3721.69 5237.27 4451.76 7885.41 4750.76 4907.03 4104.97 4575.72 5617.91 4444.95 5606.22 4721.2 3943.77 5161.02 6265.48 5003.81 4203.68 6492.44 4739.56 4701.03 5145.39 3352.46 6225.05 5434.04 5200.1 5994.21 3929.35 4884.93 5403.81 5082.25 6964.78 4374.05 5282.51 5504.65 5669.41 3760.4 5732.11 3618.53 4602.7 3783.35 5596.68 4037.16 6395.63 4248.58 4516.26 3647.26 4790.16 7360.62 3731.58 3166.37 4977.64 4983.56 4985.45 5699.51 5499.37 2489.44 4489.18 5863.36 4632.75 5237.76 6284.12 4286.84 5669.15 5229.56 5296.05 5263.86 6988.4 3330.85 6635.51 5533.52 6545.78 5410.33 4870.14 4404.87 4695.7 2932.2 4944.08 5576.16 5767.65 5003.49 5269.39 3964.03 4305.35 5210.22 3308.75 4216.33 5497.27 4929.35 3903.9 5051.39 6673.92 5242.38 3124.49 5151.68 6081.35 5459.52 6262.18 3818.37 5566.5 5663.36 4752.31 4276.59 5579.04 5569.85 5125.53 5306.31 5405.6 5523.96 4223.53 4759.38 4733.37 4535.94 6960.97 4287.15 5126.08 5604.0 4951.02 3919.47 5369.42 5205.53 5207.08 4714.52 4587.19 5543.05 4883.13 4836.76 4752.94 4994.98 5551.09 6423.96 6058.13 5581.47 5894.69 4274.05 6550.61 4987.01 4060.17 4713.56 5003.63 4747.24 5302.53 4380.86 4909.13 4287.61 3999.81 5648.02 4867.13 4604.34 4439.17 4863.27 5832.72 2451.27 5677.42 5442.79 6853.07 6327.61 4633.59 4884.94 5733.59 5362.15 5268.93 4609.98 4455.61 3695.72 4738.72 5240.97 6874.6 5106.9 3037.72 4523.9 6028.89 5333.16 4888.17 3950.53 4501.1 5755.98 4384.91 5392.85 5077.2 5275.27 4277.54 5529.09 6051.35 4531.46 6094.34 5925.82 6779.82 5543.67 4739.5 4072.95 6210.48 6377.45 4182.05 2701.42 4502.12 3255.93 5575.8 5448.68 4491.62 3865.5 
SCALARS Velocity float 1
LOOKUP_TABLE default
1.26782 1.32476 1.32232 1.32132 1.3522 1.34733 1.25544 1.31193 1.25151 1.23956 1.30935 1.2936 1.33544 1.27809 1.3323 1.33633 1.35953 1.34715 1.3647 1.25394 1.24643 1.25819 1.26941 1.24016 1.28859 1.31032 1.32331 1.28931 1.33216 1.31511 1.25445 1.25961 1.2247 1.30199 1.26278 1.2734 1.3605 1.345 1.28307 1.27319 1.28686 1.33955 1.27865 1.33045 1.33259 1.35192 1.36604 1.38607 1.39582 1.28823 1.22246 1.23457 1.30702 1.31898 1.319 1.32 1.31985 1.33786 1.34278 1.33378 1.31548 1.25187 1.25649 1.22097 1.32715 1.261 1.31352 1.33902 1.33998 1.32676 1.35424 1.32644 1.34887 1.34402 1.36556 1.39081 1.29393 1.28891 1.29363 1.30173 1.30735 1.32334 1.3463 1.31109 1.28094 1.28099 1.27568 1.24382 1.21751 1.31895 1.27308 1.32973 1.3141 1.32228 1.31035 1.38068 1.3184 1.35468 1.33075 1.35707 1.35093 1.35972 1.38768 1.44833 1.29605 1.29778 1.31802 1.33013 1.35668 1.29227 1.32644 1.28787 1.24315 1.23234 1.21051 1.23293 1.30096 1.27951 1.32151 1.32111 1.39841 1.42995 1.48715 1.29578 1.34454 1.3462 1.35674 1.4063 1.44529 1.30906 1.28769 1.31888 1.31831 1.32925 1.3354 1.33831 1.36169 1.38456 1.3069 1.27856 1.2689 1.24587 1.20122 1.23017 1.18619 1.21694 1.27927 1.28357 1.28476 1.37615 1.38287 1.37655 1.45034 1.45386 1.30589 1.32829 1.34691 1.40931 1.4256 1.30445 1.30847 1.32388 1.32679 1.35061 1.37406 1.32596 1.27215 1.26795 1.21506 1.2286 1.24253 1.2655 1.25655 1.26803 1.24816 1.19436 1.25963 1.38959 1.38651 1.38469 1.4472 1.45366 1.479 1.32808 1.45353 1.34597 1.48717 1.39574 1.43506 1.43298 1.40899 1.35773 1.33912 1.30471 1.32599 1.34929 1.36413 1.32903 1.26361 1.25133 1.21789 1.23218 1.41113 1.28881 1.25733 1.23622 1.28719 1.19738 1.13198 1.10065 1.24111 1.41374 1.41371 1.37324 1.48335 1.39548 1.37268 1.56047 1.43159 1.46117 1.36549 1.36302 1.3029 1.32486 1.34967 1.35241 1.32776 1.2757 1.25975 1.35217 1.49034 1.18446 1.20278 1.28203 1.27266 1.30585 1.27201 1.16988 1.22559 1.10754 1.29688 1.43717 1.50206 1.4112 1.43236 1.41104 1.31617 1.38732 1.36317 1.38766 1.52923 1.27704 1.43936 1.33206 1.33378 1.37654 1.32155 1.26443 1.30381 1.27062 1.33689 1.35068 1.37058 1.3004 1.16409 1.20806 1.66766 1.41349 1.44592 1.30934 1.47384 1.37415 1.3834 1.55438 1.56604 1.45906 1.32488 1.53795 1.48361 1.4188 1.55362 1.33707 1.31778 1.29245 1.37702 1.3142 1.37396 1.39375 1.26666 1.204 1.17983 1.31178 1.39152 1.36119 1.57397 1.35767 1.52325 1.55921 1.2542 1.38487 1.47359 1.34238 1.49029 1.49205 1.53292 1.50065 1.48565 1.51589 1.4059 1.39241 1.37981 1.32532 1.25685 1.26854 1.19372 1.48534 1.37638 1.39743 1.32696 1.29893 1.28476 1.35126 1.35273 1.59176 1.67501 1.58443 1.25674 1.53954 1.33183 1.30215 1.39249 1.52702 1.67113 1.68277 1.60279 1.47003 1.50469 1.50002 1.44929 1.43052 1.34334 1.2598 1.19897 1.52546 1.55241 1.43171 1.37945 1.35221 1.26487 1.1076 1.27469 1.25145 1.38857 1.41358 1.48006 1.35788 1.5676 1.66763 1.57017 1.62971 1.50058 1.32987 1.32965 1.46982 1.4154 1.66747 1.42302 1.5842 1.51868 1.48631 1.51096 1.48768 1.50176 1.48216 1.43222 1.32944 1.67247 1.87485 1.65559 1.4104 1.41661 1.42535 1.36909 1.36064 1.26065 1.07355 0.941495 1.44811 1.71516 1.67608 1.49584 1.62207 1.63081 1.59769 1.52336 1.63538 1.62509 1.4783 1.49623 1.41683 1.40094 1.56783 1.53005 1.50416 1.51503 1.5012 1.4958 1.50219 1.47854 1.37535 1.38515 1.87451 1.87428 1.72125 1.66529 1.35841 1.35598 1.52751 1.38364 1.39359 1.32273 2.26992 1.76635 1.7245 1.54714 1.5742 1.51404 1.58765 1.72763 1.64751 1.50942 1.43921 1.48385 1.4846 1.53269 1.51605 1.50107 1.50813 1.49462 1.48577 1.2802 1.43136 1.68995 1.73858 1.66735 1.65608 1.3957 1.42407 1.39307 1.64479 1.71774 1.90936 1.2844 2.08622 1.87776 2.10479 1.53183 1.66683 1.5882 1.52818 1.69692 1.64989 1.56493 1.7298 1.49302 1.48487 1.49614 1.51038 1.50724 1.50523 1.48648 1.44487 1.38909 1.74425 1.63403 1.64716 1.51946 1.57239 1.47576 1.69269 1.83952 1.94249 1.2358 1.50072 2.01695 1.86573 1.94327 1.87857 2.01611 1.59138 1.54664 1.50613 1.51162 1.60148 1.69263 1.53965 1.41034 1.53379 1.58718 1.49742 1.51585 1.49395 1.511 1.51672 1.508 1.4955 1.48967 1.49981 1.48887 1.46679 1.4046 1.69039 1.62707 1.62827 1.59607 1.60693 1.5577 1.58322 1.48205 1.82616 2.07851 2.24351 1.08947 1.19178 1.41142 1.42864 1.96505 1.49263 1.78092 1.48831 1.47485 1.52548 1.5686 1.49434 1.43548 1.51461 1.51691 1.50753 1.50854 1.50718 1.4951 1.48856 1.5136 1.52814 1.5415 1.57742 1.59224 1.57332 1.6022 1.59116 1.57965 2.019 2.20026 0.845995 1.56266 1.50016 1.34388 1.37363 1.68974 1.56148 1.71985 1.61768 1.45658 1.44273 1.52606 1.462 1.62813 1.42394 1.48091 1.52786 1.51996 1.51193 1.50827 1.50502 1.4973 1.5094 1.53288 1.56511 1.59852 1.76792 1.66272 1.5771 1.52535 1.49083 1.55748 1.62135 1.56695 1.59377 1.46064 1.51247 1.53117 1.57393 1.36919 1.50387 1.49587 1.44329 1.52173 1.51557 1.51506 1.52069 1.51329 1.51007 1.50277 1.49875 1.4899 1.49747 1.52627 1.49874 1.60165 1.46305 1.5695 1.57939 1.52196 1.52523 1.50108 1.47409 1.50819 1.47402 1.51808 1.46398 1.5618 1.54117 1.51302 1.51004 1.50431 1.4914 1.43106 1.49153 1.46214 1.49182 1.5061 1.50076 1.49585 1.48631 1.48158 1.47293 1.49627 1.48995 1.48343 1.54285 1.52275 1.50794 1.47951 1.48134 1.46265 1.19178 1.45669 1.43907 1.44839 1.44819 1.40907 1.44979 1.49994 1.48212 1.4964 1.48613 1.47619 1.48395 1.47158 1.46744 1.488 1.48439 1.48502 1.47529 1.4982 1.47979 1.48441 1.48929 1.48107 1.47454 1.48232 1.4663 1.46669 1.47841 1.47119 1.46359 1.46884 1.46038 1.45351 1.44988 1.48778 1.50818 1.47981 1.47772 1.46143 1.45559 1.19178 1.42875 1.41874 1.43547 1.42888 1.42191 1.41874 1.40464 1.40175 1.44921 1.4537 1.42365 1.46472 1.47208 1.43984 1.47197 1.48026 1.44655 1.50256 1.50045 1.45839 1.44583 1.46575 1.4783 1.46957 1.46516 1.44852 1.46592 1.46132 1.44889 1.43536 1.45689 1.46425 1.44356 1.45463 1.47095 1.45239 1.44323 1.45897 1.44685 1.43716 1.19178 1.41404 1.39831 1.40191 1.40148 1.39252 1.43097 1.4199 1.41569 1.46423 1.44352 1.4538 1.44349 1.44947 1.4634 1.43229 1.37334 1.44909 1.41578 1.4096 1.45321 1.45777 1.45684 1.45068 1.44038 1.45736 1.43208 1.40899 1.45315 1.45385 1.44644 1.44087 1.42434 1.41661 1.43759 1.43252 1.41842 1.46691 1.43982 1.4359 1.43058 1.40232 1.39734 1.39239 1.3955 1.3962 1.38639 1.38831 1.43788 1.43989 1.4431 1.44524 1.45255 1.41671 1.44679 1.40934 1.38119 1.37675 1.37844 1.40466 1.36914 1.46145 1.38566 1.43061 1.3902 1.38314 1.43369 1.44278 1.44672 1.4438 1.42116 1.42529 1.41985 1.39128 1.3686 1.44888 1.39686 1.42631 1.43765 1.44277 1.41981 1.40831 1.39658 1.39133 1.38814 1.38603 1.38898 1.37178 1.38848 1.42152 1.41139 1.43711 1.44251 1.43649 1.4504 1.37745 1.39471 1.36291 1.32751 1.36167 1.41489 1.36435 1.42132 1.43487 1.43926 1.41669 1.42936 1.41237 1.38274 1.40402 1.4186 1.35318 1.32757 1.40982 1.41564 1.42073 1.41459 1.39535 1.19178 1.39409 1.38708 1.3825 1.38635 1.38512 1.3875 1.38497 1.38942 1.36389 1.41593 1.4213 1.38701 1.40079 1.41186 1.39374 1.38901 1.3883 1.37167 1.38302 1.35545 1.34526 1.35061 1.38579 1.36138 1.41169 1.43576 1.40616 1.42076 1.34763 1.39911 1.38503 1.35609 1.40952 1.45102 1.37851 1.41339 1.42079 1.39613 1.39836 1.38622 1.19178 1.19178 1.38474 1.38361 1.38342 1.39103 1.37579 1.38853 1.37434 1.36911 1.37424 1.36583 1.38298 1.3781 1.37684 1.3758 1.37389 1.36676 1.38394 1.36845 1.37824 1.36845 1.36919 1.34801 1.34871 1.34849 1.35047 1.3768 1.35844 1.39339 1.37476 1.4102 1.42005 1.42985 1.41054 1.32948 1.38655 1.40012 1.41852 1.44581 1.41014 1.38199 1.3741 1.36676 1.36238 1.38401 1.37873 1.375 1.3787 1.3701 1.35934 1.36222 1.36785 1.36206 1.35936 1.36258 1.36272 1.36884 1.364 1.36481 1.36279 1.36673 1.36317 1.36322 1.36507 1.35192 1.35631 1.36453 1.36782 1.36095 1.34971 1.39115 1.3438 1.47148 1.38568 1.38531 1.38082 1.40098 1.45299 1.40841 1.37556 1.37396 1.35865 1.34905 1.35366 1.34683 1.37612 1.37141 1.36625 1.37084 1.35843 1.36003 1.36012 1.36112 1.35686 1.35696 1.35544 1.3428 1.35654 1.34876 1.35205 1.36135 1.3554 1.35744 1.35368 1.35531 1.36178 1.36313 1.35584 1.36873 1.35716 1.35961 1.3702 1.36761 1.40363 1.37876 1.48092 1.36532 1.33421 1.39889 1.4037 1.38744 1.45053 1.3502 1.46153 1.37437 1.32164 1.35777 1.3405 1.34634 1.34885 1.35176 1.3629 1.3554 1.35179 1.3541 1.35547 1.34741 1.34889 1.34967 1.34069 1.34944 1.3408 1.34387 1.34459 1.34697 1.34929 1.3477 1.34688 1.34709 1.34855 1.35545 1.35303 1.35982 1.36338 1.36613 1.36376 1.35661 1.36083 1.37701 1.37108 1.38346 1.36274 1.35619 1.33758 1.36895 1.42266 1.2964 1.32159 1.42793 1.35104 1.3551 1.32092 1.33282 1.35213 1.34819 1.19178 1.35238 1.35031 1.34581 1.3481 1.34095 1.34146 1.33228 1.33338 1.34313 1.34232 1.33612 1.34236 1.34881 1.34289 1.34245 1.3331 1.34769 1.35435 1.35898 1.36031 1.36613 1.36474 1.36395 1.36002 1.36241 1.35885 1.36755 1.37004 1.36152 1.37036 1.36943 1.35917 1.315 1.27023 1.33027 1.31714 1.31847 1.37898 1.33357 1.3476 1.34343 1.38 1.35179 1.35297 1.19178 1.34952 1.34586 1.34076 1.33983 1.3328 1.33062 1.33408 1.33326 1.32993 1.32317 1.32519 1.32416 1.33749 1.33663 1.334 1.33117 1.34019 1.33187 1.34126 1.34035 1.3506 1.35593 1.35858 1.36306 1.36679 1.34907 1.37335 1.35297 1.35306 1.32718 1.33111 1.32165 1.31317 1.29908 1.29445 1.32137 1.32597 1.33551 1.31598 1.32477 1.36533 1.36921 1.35931 1.37435 1.19178 1.33687 1.3285 1.32729 1.32012 1.30806 1.33472 1.31894 1.33106 1.3193 1.31065 1.32115 1.32003 1.31798 1.32965 1.32846 1.33287 1.32968 1.3385 1.34158 1.3436 1.3513 1.36266 1.33689 1.35593 1.36439 1.35787 1.32097 1.3478 1.34426 1.32815 1.31729 1.33925 1.30507 1.30361 1.31996 1.31281 1.31738 1.32032 1.32544 1.32266 1.32856 1.32302 1.34843 1.34577 1.37984 1.37869 1.31703 1.31333 1.283 1.3248 1.32734 1.30402 1.33214 1.31178 1.30688 1.32295 1.32411 1.30674 1.30914 1.31706 1.31064 1.32501 1.32849 1.33108 1.34468 1.33826 1.33282 1.30877 1.34764 1.36484 1.37682 1.35733 1.37005 1.34189 1.37812 1.3567 1.30707 1.30005 1.31224 1.2661 1.33201 1.29959 1.29919 1.28549 1.30395 1.31074 1.32073 1.32246 1.33204 1.33468 1.34504 1.3335 1.32436 1.33545 1.38596 1.2935 1.26717 1.27919 1.33 1.29492 1.29836 1.29633 1.28542 1.32244 1.30587 1.30481 1.30576 1.35249 1.2681 1.22896 1.35501 1.3294 1.32456 1.31451 1.32551 1.31976 1.31894 1.41834 1.30393 1.39616 1.40354 1.3256 1.32647 1.25886 1.28328 1.2668 1.3113 1.30045 1.29288 1.29935 1.30519 1.3262 1.29915 1.33124 1.32341 1.33386 1.32617 1.32448 1.33368 1.34153 1.38082 1.37978 1.24842 1.24977 1.2598 1.23076 1.31744 1.38633 1.28266 1.31623 1.29502 1.2504 1.31247 1.54494 1.45187 1.31932 1.40055 1.3089 1.33332 1.32512 1.29534 1.3134 1.34354 1.33197 1.24396 1.33598 1.4601 1.2189 1.48932 1.27145 1.24763 1.31642 1.29534 1.35619 1.30635 1.2978 1.2946 1.29815 1.30042 1.30271 1.31832 1.30296 1.3153 1.32188 1.31821 1.3206 1.32049 1.3414 1.32362 1.37945 1.38253 1.23521 1.23412 1.2899 1.31493 1.27408 1.27072 1.23799 1.21633 1.24723 1.21414 1.34118 1.2673 1.29734 1.34828 1.57984 1.30033 1.27019 1.30783 1.32998 1.30282 1.41156 1.27089 1.21548 1.32806 1.30063 1.29895 1.30169 1.3 1.29859 1.30616 1.31365 1.31565 1.31693 1.31715 1.30632 1.30182 1.29447 1.32976 1.36756 1.19178 1.22911 1.22376 1.33349 1.38341 1.27883 1.25066 1.2881 1.29278 1.29459 1.21639 1.22507 1.21802 1.19351 1.27219 1.27062 1.36328 1.08012 1.74225 1.13705 1.35799 1.34105 1.3421 1.35174 1.33375 1.34598 1.29553 1.36405 1.32268 1.24257 1.24259 1.26783 1.29754 1.30639 1.29228 1.31918 1.29812 1.30391 1.37346 1.34512 1.3067 1.2834 1.31022 1.30636 1.31661 1.30841 1.27649 1.35131 1.30747 1.36654 1.37578 1.25151 1.55789 1.41545 1.32572 1.43556 1.28692 1.30258 1.26795 1.26908 1.26458 1.35272 1.2816 1.24627 1.32043 1.31573 1.16151 1.12464 1.32551 1.20338 1.32246 1.32905 1.298 1.28776 1.30597 1.34407 1.34904 1.28551 1.21975 1.18027 1.26595 1.23456 1.30371 1.33502 1.33692 1.31132 1.16441 1.30486 1.28807 1.32757 1.31696 1.30743 1.3145 1.35223 1.3743 1.38099 1.32395 3.37706 1.11189 1.03339 2.61465 1.70501 1.26879 1.60904 1.48675 1.46048 1.14987 1.3173 1.14929 1.30758 1.32589 1.32202 1.32813 1.47411 1.34727 1.21572 1.28268 1.07194 1.16137 1.17944 1.21763 1.31717 1.27839 1.40056 1.28194 1.46028 1.30699 1.36688 1.30305 1.22647 1.29151 1.32314 1.30356 1.25892 1.42405 1.27707 1.25214 1.31615 0.984006 1.10891 1.10594 1.20794 1.25003 1.36385 1.32334 1.33343 1.22205 1.44077 1.22553 1.36163 1.60239 1.29328 1.32034 1.68948 2.13138 1.3143 1.14192 0.944397 0.920206 0.946554 0.907853 1.07503 1.22284 0.43884 1.61196 1.13792 1.62221 1.63598 1.3056 1.46174 1.33582 1.26979 1.17946 1.3412 1.43826 1.27131 1.49483 1.13516 1.118 1.13433 1.17674 1.16667 1.17309 1.24099 1.24033 1.57396 1.22941 1.19644 1.15866 1.22361 1.36402 1.17904 1.2425 1.1501 1.04508 1.38535 1.15385 1.18956 0.882068 1.07797 1.16199 1.07558 1.23966 1.23865 1.12628 1.17521 1.44141 1.58382 1.404 1.86668 1.35147 1.26247 1.33217 1.37753 1.97062 1.87386 1.16634 1.16683 1.02636 1.06309 1.00526 0.969341 0.906362 0.824348 0.729047 0.73062 0.839593 0.752408 0.757733 0.876605 0.880396 0.731751 1.05699 0.916021 0.89509 0.963477 1.01301 0.989663 1.14299 0.986115 1.05043 1.34212 1.59859 0.892776 1.09575 1.39516 1.27346 1.1534 1.19717 1.13126 1.34391 1.19356 1.29701 1.15378 0.998604 1.14761 1.32603 1.04622 1.29232 1.25776 1.31305 1.16077 1.25976 1.18893 1.11998 1.10137 1.04359 1.23536 1.08388 1.32111 1.06385 1.21013 1.14824 1.26696 1.33217 0.598662 1.49946 1.43165 1.41203 1.02347 1.46675 1.14116 1.44839 1.34359 0.933274 1.17784 1.14459 0.928324 1.09306 1.00574 1.10548 1.3363 0.741299 0.670607 0.768426 0.940586 0.772197 0.498591 0.76314 0.757779 0.76778 0.751316 0.752546 0.748559 0.770283 0.779792 0.862237 0.60542 0.777261 0.658844 0.711448 0.892791 1.15666 1.00978 1.31164 1.09492 1.04276 1.02223 0.934491 1.3281 0.80048 0.881942 1.80129 1.01131 1.10464 0.937191 1.10611 1.22668 1.1783 1.21897 1.1446 1.32375 1.31955 1.29832 1.08213 1.00607 1.08452 1.05832 1.01695 1.01727 1.09466 1.27794 1.26828 1.04075 1.20862 1.165 1.20483 1.11799 1.08134 1.0341 1.2318 1.24654 1.22489 1.20803 1.23814 1.27361 1.16213 0.606371 0.740521 0.880368 0.748262 0.613162 1.23929 1.26522 0.777295 1.11753 1.10375 1.09694 0.960509 0.992953 0.949994 0.672259 0.746441 0.928792 0.677698 1.40121 0.652146 0.59014 0.706077 0.522717 0.555918 0.466619 0.475776 0.54257 0.793902 0.80366 0.771532 0.767103 0.794306 0.748679 0.742939 0.742492 0.743485 0.801781 0.797181 0.757309 0.705956 0.594676 0.652765 0.666098 0.844151 0.627409 1.02596 0.968155 0.829973 0.774614 0.963125 0.985282 0.992282 0.874769 1.07911 0.943569 0.684531 1.20733 1.19413 1.01573 1.07248 1.13924 0.870268 1.38584 0.858672 1.0088 1.04321 1.29478 1.20672 1.20167 1.02725 1.14059 0.954459 1.00161 1.00698 1.00915 1.04873 1.12849 0.919638 0.776426 1.29974 0.924624 1.03423 1.06219 1.19487 1.0987 1.13577 1.15359 1.13165 1.41946 1.15608 1.01759 1.0076 0.802388 0.864454 0.857402 0.709234 0.790464 0.731725 0.916363 0.753811 0.886227 0.909568 0.908026 0.882176 0.840508 0.844724 0.824617 0.792935 0.850155 0.840793 0.702968 0.938697 0.83251 1.04372 0.708751 0.767875 1.04654 0.666729 0.585679 1.14195 0.652805 0.80091 0.718498 0.700291 0.736403 0.717985 0.782937 0.784837 0.775582 0.7682 0.775308 0.797461 0.788232 0.724167 0.568914 0.593709 0.689519 0.599136 0.897326 0.649852 0.865888 0.863224 0.892947 1.12371 0.947837 0.977235 0.956657 0.965129 0.957539 0.755805 1.12233 0.772234 1.11198 0.802979 1.06609 0.993283 0.932742 0.945218 0.9867 1.12215 0.72963 0.429733 0.95067 0.8694 1.17876 1.13666 1.04167 0.971709 0.969202 1.02612 1.03768 0.938434 0.809993 0.947912 1.18263 0.955681 1.02154 1.01592 1.05285 1.11771 1.04601 1.01685 1.09757 1.11954 0.725115 0.968619 1.02672 1.03688 0.818869 0.860087 0.868224 0.879044 0.909174 0.736066 0.837244 0.754331 0.739622 0.698585 0.799667 0.772072 0.744707 0.888655 0.785217 0.874018 0.937755 0.815782 0.730352 0.82117 0.766682 0.518771 0.713266 0.944145 1.83255 1.69074 1.21241 1.36294 0.242678 0.564334 0.477706 0.584077 0.578093 0.581902 0.672431 0.700717 0.686997 0.71204 0.73687 0.667982 0.787102 0.658559 0.639131 0.688958 0.763979 0.570994 0.544281 0.589892 0.880591 0.755915 0.977349 1.04536 1.33286 0.991323 0.766675 0.590798 0.545034 0.920964 0.892538 0.905676 0.811048 0.798959 0.687762 0.76527 0.884793 0.777459 0.856134 0.921999 0.836158 0.872086 0.847947 0.833828 0.909065 0.923398 0.79558 0.929788 0.910299 0.763826 0.829977 1.01996 0.944861 1.06365 0.957476 1.04922 0.91785 0.850235 1.10113 1.0683 0.759084 0.915656 0.941587 1.01909 1.04416 0.956345 1.03177 0.927291 1.00765 0.988986 1.07195 0.919145 0.997232 0.737275 0.692265 0.986421 0.936235 0.83696 1.0811 0.699711 0.912391 0.753205 0.68374 0.781079 0.704105 0.733817 0.818311 0.708779 0.692896 0.748029 0.784529 0.606401 0.54207 0.475552 0.761382 0.936062 0.963675 0.590481 0.663608 0.716464 0.651179 0.58527 0.624333 0.625968 0.605129 0.615833 0.621995 0.621531 0.607241 0.631242 0.640696 0.651147 0.671215 0.627803 0.665229 0.68484 0.661541 0.627637 0.65362 0.601413 0.620451 0.50322 0.502439 0.60356 0.54325 0.56247 0.621662 0.466484 0.571016 0.721888 0.718378 0.644043 0.613685 0.860157 0.722981 1.05636 0.91037 0.802553 0.736209 0.795523 0.772026 0.751008 0.710329 0.76649 0.819647 0.828151 0.80676 0.846554 0.912201 0.838676 0.930542 0.900214 0.825933 0.772442 0.768811 0.860807 1.01962 0.799325 1.04156 1.16058 0.733673 1.30662 0.983047 0.957881 0.951823 0.772716 0.944636 0.895178 0.787053 0.882474 1.0894 1.02714 1.05057 0.870647 0.853824 0.93104 0.993505 0.914578 0.94702 0.925712 0.975197 0.816566 0.725015 0.798866 0.853067 0.611827 0.815796 0.719121 1.29009 0.900438 0.955209 0.807464 0.860691 0.459382 0.664603 0.852482 0.914521 1.00287 0.744952 0.823191 0.832309 0.736712 0.984747 0.649422 0.685267 0.598937 0.712785 0.61546 0.649406 0.694511 0.65422 0.661015 0.646776 0.644206 0.630558 0.65115 0.639199 0.631134 0.641899 0.62504 0.627786 0.586685 0.601795 0.590308 0.609459 0.599771 0.60993 0.606822 0.55943 0.613434 0.592863 0.5989 0.562772 0.579886 0.601841 0.628466 0.628151 0.630361 0.640579 0.658033 0.671164 0.637881 0.67508 0.700802 0.661483 0.612509 0.599411 0.661269 0.916538 0.5141 0.741417 0.742317 0.716642 0.718479 0.748562 0.79028 0.784275 0.759394 0.772092 0.79149 0.815232 0.837685 0.803342 0.921838 0.787263 0.874577 0.821735 0.91927 0.94192 0.849669 0.399897 1.21869 1.17461 1.01167 0.926354 0.837487 0.817378 0.834453 0.872747 0.726525 0.902818 0.719464 0.786802 0.874895 0.881536 0.897247 0.80725 0.916352 0.903057 0.914736 0.844761 0.890162 1.05695 0.618769 0.800795 0.83456 0.910835 0.75521 0.289957 0.688234 0.653753 0.627449 0.763702 0.590041 0.920987 0.951232 0.739241 0.819489 1.00684 0.915731 0.559218 0.852396 0.754459 0.680698 0.671552 0.689998 0.688571 0.692668 0.681775 0.668145 0.651471 0.654984 0.671182 0.634485 0.649888 0.660237 0.640055 0.658762 0.648305 0.617333 0.705618 0.576815 0.637195 0.674987 0.659692 0.557001 0.685644 0.844906 0.693408 0.585311 0.58823 0.588378 0.585786 0.58849 0.594358 0.58182 0.586475 0.589078 0.576046 0.587216 0.587007 0.598721 0.601935 0.583578 0.593557 0.601749 0.558151 0.559541 0.644918 0.646882 0.654054 0.675869 0.668332 0.679543 0.695948 0.701618 0.690265 0.712101 0.715063 0.69178 0.709513 0.700545 0.722227 0.824145 0.697454 0.737205 0.760233 0.761698 0.745704 0.763681 0.747806 0.753905 0.739988 0.767611 0.741207 0.743994 0.810478 0.64688 0.864766 0.817557 0.764321 0.810682 0.845388 0.857228 0.622271 1.04391 0.81785 0.849936 0.867331 0.847609 0.871072 0.882383 0.702489 0.719556 0.727632 0.709639 0.68082 0.647662 0.818203 0.734252 0.719833 0.824036 0.801449 0.951092 0.988516 0.498791 0.882373 0.775698 0.896876 0.894383 1.03272 1.19593 0.792262 0.738908 0.776371 0.788488 0.799313 0.523821 0.665381 0.538442 0.483234 0.526106 0.627872 0.651783 0.627609 0.795074 0.680397 0.572867 0.600579 0.649392 0.58435 0.605956 0.664843 0.644598 0.587088 0.667345 0.651961 0.664647 0.630555 0.677141 0.641381 0.618728 0.539005 0.680297 0.545484 0.535271 0.569129 0.391547 0.55436 0.445103 0.543628 0.518148 0.492955 0.526449 0.520757 0.518342 0.569577 0.587968 0.581814 0.598028 0.577145 0.585555 0.578425 0.581723 0.583146 0.58479 0.57849 0.583237 0.589335 0.597654 0.593829 0.601906 0.602118 0.607241 0.62781 0.622565 0.629536 0.613533 0.621944 0.615958 0.629074 0.631344 0.702314 0.652863 0.677924 0.693331 0.693109 0.692118 0.694626 0.70309 0.730043 0.733245 0.758903 0.797737 0.806112 0.748233 0.730425 0.728697 0.726257 0.710738 0.696244 0.700992 0.667402 0.653954 0.674424 0.694354 0.736951 0.724832 0.774862 0.772885 0.774843 0.792734 0.837969 0.848907 0.767813 0.854192 0.78507 0.816878 0.820755 0.916083 0.789273 0.839728 0.727514 0.754355 0.699703 0.689466 0.835673 0.674744 0.894353 0.762454 0.716206 0.599409 0.716666 0.683356 0.791803 0.771723 1.10602 0.876379 0.896418 0.774136 0.724906 0.775455 0.686237 0.540678 0.549379 0.727209 0.80569 0.673672 0.672218 0.671403 0.665004 0.654271 0.570044 0.602148 0.590701 0.592081 0.570773 0.592284 0.622264 0.594276 0.633058 0.675938 0.605947 0.587794 0.644912 0.750037 0.614769 0.644498 0.535515 0.598855 0.615982 0.567494 0.572821 0.562352 0.542862 0.558641 0.542609 0.528319 0.533242 0.516858 0.521395 0.519234 0.543989 0.561414 0.557138 0.578128 0.624002 0.615071 0.590046 0.585304 0.606243 0.598321 0.593602 0.606036 0.596617 0.606909 0.60708 0.604753 0.606576 0.610369 0.609937 0.614243 0.623601 0.621707 0.620698 0.626348 0.630093 0.619936 0.669732 0.693192 0.70078 0.693076 0.697431 0.696574 0.747597 0.71238 0.762926 0.77196 0.745193 0.763035 0.756652 0.715531 0.688899 0.699302 0.675874 0.687739 0.659973 0.757687 0.720527 0.760465 0.739884 0.781142 0.78094 0.770054 0.855652 0.788421 0.818606 0.83978 0.869712 0.789868 0.692927 0.698801 0.710518 0.65079 0.737384 0.741008 0.792811 0.77504 0.729564 0.744785 0.784828 0.607907 0.728031 0.911701 0.8167 0.901098 1.10021 0.829637 0.892382 0.903775 0.918111 0.853329 0.833687 0.794349 0.743043 0.654954 0.780471 0.73325 0.747913 0.702207 0.739268 0.697424 0.675758 0.651984 0.667504 0.644996 0.640398 0.634404 0.6357 0.640887 0.601235 0.598932 0.606675 0.637138 0.592975 0.665062 0.552594 0.611451 0.599284 0.624182 0.642549 0.621636 0.589662 0.596181 0.58266 0.568726 0.572329 0.559138 0.576396 0.541571 0.538075 0.580658 0.532923 0.519791 0.540784 0.517297 0.469516 0.477415 0.511583 0.540249 0.53011 0.527018 0.544168 0.526956 0.546716 0.545561 0.553457 0.566656 0.560336 0.5731 0.579982 0.614504 0.591199 0.589625 0.562483 0.615088 0.612126 0.605177 0.611472 0.619835 0.60509 0.610847 0.608648 0.599356 0.621424 0.622166 0.628696 0.630223 0.628774 0.627837 0.632904 0.632582 0.634385 0.661977 0.687696 0.697764 0.709509 0.621364 0.698846 0.682068 0.669004 0.689865 0.682139 0.697027 0.67862 0.773962 0.644909 0.690879 0.683492 0.688235 0.69065 0.635962 0.684253 0.672496 0.626784 0.677239 0.617727 0.77078 0.674766 0.658137 0.696385 0.558273 0.712544 0.70723 0.719844 0.827537 0.675351 0.900829 0.759279 0.653548 0.620373 0.662262 0.722792 0.680141 0.720114 0.793186 0.792773 0.763444 0.796099 0.775373 0.74786 0.778834 0.619246 0.597806 0.645502 0.737473 0.834012 0.709038 0.817067 0.713592 0.880063 0.992317 0.844276 0.799708 0.772941 0.842669 0.750388 0.700286 0.669812 0.727851 0.722763 0.651012 0.677713 0.657552 0.65143 0.640773 0.612632 0.643761 0.616165 0.643151 0.642262 0.607366 0.623866 0.610113 0.564264 0.607473 0.567532 0.567936 0.57863 0.570037 0.565114 0.575088 0.567902 0.588502 0.594008 0.620414 0.529278 0.581713 0.555073 0.489198 0.488505 0.537945 0.563309 0.581609 0.537342 0.543335 0.53058 0.547217 0.534028 0.548647 0.550552 0.548329 0.549043 0.565339 0.579618 0.578825 0.58014 0.590985 0.573578 0.701292 0.618372 0.683554 0.59925 0.619294 0.582572 0.537099 0.451838 0.452895 0.574118 0.466706 0.57147 0.614702 0.5782 0.586657 0.636693 0.626314 0.620603 0.619642 0.602107 0.64936 0.604176 0.619986 0.624421 0.654591 0.673569 0.679831 0.664491 0.6444 0.577715 0.609337 0.633227 0.626865 0.609536 0.641184 0.586675 0.589634 0.603565 0.625422 0.663556 0.777188 0.654757 0.721101 0.504695 0.563724 0.689283 0.71951 0.747186 0.556838 0.700948 0.764571 1.20716 0.639914 0.613249 0.725072 0.695548 0.669596 0.672578 0.728911 0.728752 0.613489 0.636147 0.874218 0.911492 0.53955 0.563583 0.5059 0.621176 0.6509 0.635438 0.587565 0.833215 0.753184 0.582606 0.824545 0.749735 0.801829 0.642251 0.636657 0.594741 0.610275 0.696438 0.685566 0.683269 0.649334 0.660576 0.66666 0.667228 0.663698 0.657443 0.660056 0.596951 0.623478 0.641245 0.625954 0.63019 0.625742 0.621951 0.610954 0.621019 0.6336 0.63256 0.60062 0.605921 0.588596 0.608376 0.55842 0.619087 0.677743 0.608601 0.699838 0.55588 0.524043 0.924777 0.688448 0.678356 0.567164 0.550664 0.541783 0.506874 0.506685 0.488323 0.443044 0.511005 0.497206 0.523387 0.527048 0.541443 0.527959 0.539572 0.542748 0.523976 0.536693 0.502765 0.594843 0.599699 0.544444 0.55743 0.593689 0.527059 0.58108 0.595835 0.665551 0.595197 0.500491 0.471976 0.415892 0.444811 0.45893 0.434053 0.496713 0.516955 0.602652 0.58148 0.577727 0.545616 0.519812 0.65138 0.609283 0.601759 0.591367 0.593782 0.596623 0.61533 0.624759 0.620197 0.650272 0.651031 0.667195 0.662339 0.761152 0.664301 0.724976 0.63142 0.514236 0.662538 0.539745 0.556305 0.552651 0.595229 0.556947 0.580103 0.606814 0.597303 0.62959 0.61497 0.642769 0.626747 0.602227 0.644575 0.649282 0.69878 0.62378 0.700604 0.622402 0.250796 0.774149 0.681361 0.733464 0.739715 0.695815 0.698792 0.631387 0.607988 0.647251 0.567224 0.580704 0.110549 0.624768 0.61041 0.676863 0.636779 0.592812 0.671468 0.601456 0.669816 0.573057 0.539329 0.526107 0.638549 0.55896 0.596079 0.562811 0.769362 0.640782 0.642477 0.579108 0.58696 0.601142 0.537169 0.6372 0.697325 0.593488 0.653743 0.59172 0.628728 0.584138 0.66026 0.647554 0.661087 0.628479 0.638453 0.630693 0.591205 0.653024 0.578347 0.639966 0.605546 0.613543 0.597419 0.598334 0.601504 0.600905 0.562159 0.616602 0.91656 0.637495 0.312342 0.577905 0.318092 0.28416 0.225258 0.322625 0.546733 0.537169 0.490395 0.511576 0.567143 0.720624 0.364691 0.36941 0.404331 0.399205 0.477387 0.486844 0.489807 0.456893 0.512667 0.516876 0.535229 0.525757 0.509661 0.529778 0.51497 0.515127 0.530036 0.490797 0.495545 0.459356 0.464512 0.471801 0.511828 0.528366 0.503812 0.558428 0.397997 0.458899 0.461141 0.571911 0.554094 0.576124 0.559638 0.580029 0.481247 0.693755 0.624948 0.598941 0.557108 0.604318 0.634383 0.61332 0.649135 0.636356 0.726902 0.653697 0.668465 0.534607 0.537935 0.471631 0.474015 0.557594 0.532958 0.555487 0.567378 0.547289 0.593753 0.575391 0.581623 0.590865 0.604398 0.583639 0.591947 0.626463 0.587519 0.591717 0.531423 0.578877 0.552015 0.468098 0.574361 0.704266 0.584812 0.691652 0.723142 0.673772 0.659942 0.701147 0.728962 0.618473 0.343275 0.353966 0.472277 0.6569 0.639652 0.583777 0.607343 0.602872 0.556788 0.550755 0.561967 0.541347 0.572277 0.528817 0.557095 0.574764 0.540947 0.537717 0.531496 0.549306 0.505051 0.556826 0.596659 0.635821 0.553612 0.635793 0.6112 0.569142 0.632969 0.592126 0.586317 0.602565 0.454745 0.430947 0.652339 0.630228 0.620395 0.596233 0.585916 0.533413 0.628353 0.515239 0.497597 0.347835 0.593578 0.378494 0.417916 0.424637 0.478801 0.929012 0.585326 0.276605 0.222572 0.329232 0.343744 0.375292 0.342402 0.388014 0.373424 0.420004 0.433038 0.430675 0.42944 0.463113 0.448377 0.488225 0.472688 0.490442 0.464701 0.486739 0.460134 0.467439 0.458732 0.462611 0.448022 0.459018 0.4816 0.463161 0.49848 0.52399 0.497632 0.446785 0.45061 0.378776 0.550387 0.768332 0.514951 0.534413 0.510613 0.332799 0.413236 0.458164 0.423478 0.806195 0.608846 0.541173 0.502099 0.564979 0.482952 0.519382 0.580286 0.515871 0.553814 0.529252 0.485724 0.455234 0.536891 0.545692 0.55464 0.57684 0.569882 0.563012 0.573017 0.570144 0.576454 0.56363 0.578712 0.576184 0.577597 0.576622 0.575293 0.577086 0.656154 0.591897 0.624849 0.671741 0.735588 0.663979 0.66079 0.620294 0.310633 0.463276 0.481314 0.419755 0.527649 0.499251 0.590347 0.579315 0.59359 0.580412 0.572529 0.569505 0.568046 0.549441 0.557147 0.538115 0.539619 0.524229 0.516837 0.508972 0.513619 0.510858 0.502854 0.49593 0.506784 0.529285 0.511333 0.592192 0.60888 0.614038 0.583663 0.531276 0.393032 0.487106 0.639582 0.40458 0.576877 0.563535 0.707852 0.603893 0.576146 0.569592 0.596333 0.614326 0.580866 0.623928 0.53248 0.504295 0.477149 0.412157 0.432055 0.475469 0.630709 0.50354 0.585851 0.221969 0.335698 0.359808 0.336271 0.353466 0.382658 0.362398 0.378077 0.366311 0.370324 0.374277 0.376186 0.400103 0.389847 0.41277 0.398853 0.460074 0.440979 0.470272 0.451232 0.452601 0.442393 0.451299 0.440434 0.449346 0.455956 0.460291 0.473263 0.445757 0.484943 0.417947 0.461259 0.542577 0.590939 0.360912 0.467252 0.513351 0.411555 0.464905 0.470343 0.449638 0.546924 0.510218 0.465152 0.496883 0.495945 0.501262 0.49833 0.494877 0.480775 0.475354 0.498095 0.533707 0.533281 0.553722 0.568985 0.554662 0.550482 0.560263 0.540925 0.557924 0.56028 0.569583 0.573398 0.577742 0.578646 0.580561 0.582239 0.585601 0.584992 0.576352 0.576754 0.569551 0.564894 0.598683 0.793304 0.610036 0.58192 0.613029 1.07958 0.54319 0.514674 0.494003 0.537845 0.549951 0.558028 0.575503 0.577362 0.567132 0.567564 0.561199 0.548312 0.538641 0.522133 0.512603 0.520955 0.50367 0.503819 0.49999 0.507132 0.50088 0.494129 0.503496 0.49466 0.508772 0.482442 0.492666 0.537811 0.485951 0.581629 0.659307 0.691094 0.794319 0.537479 0.614289 0.208964 0.507183 0.324205 0.507143 0.591298 0.507969 0.49216 0.404568 0.404945 0.425218 0.431298 0.470201 0.552236 0.495037 0.59781 0.578433 0.450692 0.442114 0.426269 0.465061 0.365882 0.415677 0.391558 0.38497 0.388697 0.38957 0.35398 0.339 0.364345 0.388125 0.365106 0.395343 0.412962 0.389659 0.434136 0.432106 0.471981 0.456892 0.456813 0.451052 0.437347 0.447125 0.449549 0.440741 0.457732 0.466847 0.478733 0.479546 0.466494 0.488532 0.473565 0.507831 0.526276 0.457389 0.492422 0.471727 0.480271 0.484318 0.484884 0.512023 0.509634 0.496136 0.47853 0.488195 0.483004 0.484908 0.490116 0.493892 0.494747 0.492711 0.493286 0.487814 0.502773 0.512736 0.523605 0.529311 0.543853 0.555197 0.550348 0.543058 0.523272 0.548665 0.55159 0.548688 0.565126 0.576331 0.583606 0.590551 0.578606 0.583353 0.57599 0.570884 0.57032 0.573054 0.59309 0.611945 0.878825 0.226447 0.661754 0.604036 0.602555 0.521809 0.531373 0.56308 0.560204 0.576754 0.581715 0.578117 0.577927 0.566719 0.557298 0.56339 0.545505 0.551046 0.526698 0.512654 0.515177 0.507419 0.502608 0.503467 0.502779 0.501184 0.505188 0.500052 0.50174 0.491477 0.485146 0.480676 0.50298 0.489211 0.420877 0.460258 0.535847 0.485501 0.536973 0.490465 0.46364 0.410617 0.475383 0.487661 0.428495 0.485543 0.392226 0.39963 0.453159 0.459075 0.497698 0.514027 0.538609 0.547932 0.56142 0.506736 0.399635 0.471521 0.328724 0.338339 0.37051 0.388387 0.374251 0.386484 0.407803 0.392068 0.383972 0.312934 0.32979 0.3289 0.342029 0.327616 0.340983 0.345056 0.362979 0.374268 0.39848 0.419681 0.439521 0.418486 0.438146 0.4204 0.442546 0.435274 0.447148 0.453117 0.447424 0.451946 0.459738 0.469781 0.462505 0.469525 0.459768 0.458345 0.457506 0.467165 0.489449 0.471543 0.479312 0.46881 0.470788 0.467696 0.483447 0.47323 0.49804 0.48891 0.490571 0.487841 0.488601 0.484837 0.486565 0.489687 0.48956 0.493924 0.495461 0.499775 0.497442 0.519044 0.510626 0.546169 0.544119 0.54075 0.540871 0.530341 0.493358 0.519102 0.552932 0.576124 0.585566 0.597463 0.59548 0.593901 0.575601 0.562602 0.544495 0.598969 0.559123 0.646039 0.586742 0.432286 0.353976 0.458051 0.598281 0.464229 0.524985 0.527415 0.504032 0.565528 0.53882 0.563433 0.587475 0.581808 0.584226 0.58275 0.557503 0.540219 0.536714 0.522443 0.51572 0.509567 0.507005 0.50235 0.505777 0.505047 0.502555 0.499792 0.498012 0.49624 0.496582 0.485887 0.493217 0.481576 0.474543 0.474625 0.487216 0.503373 0.507326 0.492912 0.525159 0.511326 0.498505 0.502072 0.467763 0.527539 0.508499 0.528421 0.510913 0.390329 0.588327 0.371888 0.457391 0.478236 0.400487 0.503461 0.526953 0.510384 0.481192 0.427743 0.4735 0.448715 0.383521 0.331752 0.375878 0.40817 0.394092 0.398317 0.376561 0.385751 0.372574 0.363707 0.29089 0.296097 0.301174 0.301526 0.315436 0.303622 0.313204 0.321502 0.322498 0.317699 0.334871 0.349068 0.359734 0.372254 0.389577 0.384722 0.408808 0.415442 0.43273 0.437279 0.442299 0.450493 0.447191 0.452547 0.454718 0.458243 0.458426 0.459865 0.460111 0.460837 0.458609 0.46344 0.476811 0.470359 0.469701 0.468003 0.467234 0.467424 0.480854 0.486299 0.491207 0.491113 0.489992 0.491048 0.494582 0.502565 0.510478 0.506685 0.510187 0.520692 0.521607 0.525859 0.529472 0.54662 0.565257 0.499684 0.51593 0.477731 0.4933 0.524803 0.549201 0.617029 0.605583 0.618325 0.595081 0.554575 0.549221 0.532484 0.519861 0.556144 0.480607 0.440516 0.508849 0.526676 0.504395 0.521896 0.522321 0.541789 0.579112 0.564149 0.583844 0.600173 0.595986 0.567672 0.548495 0.523881 0.535355 0.522683 0.519247 0.512762 0.511001 0.519839 0.510016 0.508131 0.506094 0.503823 0.500003 0.504107 0.494656 0.488174 0.48804 0.489891 0.493741 0.494191 0.495904 0.495006 0.498977 0.496515 0.495966 0.508709 0.518558 0.497303 0.560253 0.534317 0.569754 0.505354 0.548335 0.364785 0.492319 0.219106 0.442715 0.345092 0.404152 0.380607 0.45405 0.449238 0.472686 0.422981 0.406078 0.380586 0.440607 0.496711 0.388295 0.562113 0.39456 0.319752 0.368258 0.332653 0.372768 0.368774 0.36446 0.37114 0.365518 0.357832 0.3549 0.351883 0.344581 0.279152 0.245701 0.288698 0.296559 0.299826 0.302427 0.315692 0.307039 0.321743 0.338327 0.355338 0.371164 0.391142 0.403167 0.413203 0.413278 0.421705 0.426508 0.434898 0.429926 0.442281 0.441744 0.453584 0.456421 0.458499 0.458318 0.458986 0.46045 0.460639 0.462574 0.462632 0.46349 0.464612 0.467253 0.469353 0.488467 0.489632 0.492291 0.493651 0.49224 0.494881 0.498352 0.502258 0.513902 0.518596 0.52033 0.528206 0.534155 0.530729 0.531583 0.567266 0.575914 0.458921 0.485575 0.49168 0.509718 0.529384 0.537398 0.553039 0.720878 0.642052 0.591746 0.560108 0.508933 0.515047 0.524648 0.468647 0.504182 0.484174 0.44383 0.516258 0.520915 0.525726 0.545739 0.605614 0.535132 0.621207 0.629362 0.58079 0.547982 0.533963 0.524452 0.528649 0.519931 0.518692 0.513273 0.508044 0.51131 0.509088 0.502349 0.498558 0.492207 0.500163 0.497407 0.497312 0.499073 0.50016 0.500032 0.502911 0.499253 0.495922 0.488641 0.508943 0.554684 0.490758 0.720961 0.537696 0.40593 0.426615 0.379845 0.418258 0.373727 0.368265 0.340737 0.286318 0.467012 0.308821 0.300661 0.2994 0.326955 0.347719 0.332086 0.343855 0.34883 0.342704 0.347386 0.338385 0.334274 0.193869 0.167163 0.214919 0.245403 0.272999 0.276933 0.28286 0.294227 0.299046 0.325638 0.349384 0.325029 0.378398 0.374927 0.395183 0.392366 0.408256 0.404095 0.419987 0.421107 0.429413 0.440236 0.450137 0.459198 0.470063 0.458868 0.458555 0.459323 0.462331 0.462263 0.463074 0.462869 0.464664 0.465118 0.466582 0.464685 0.477441 0.485228 0.487119 0.492505 0.495509 0.499341 0.506627 0.500004 0.508576 0.503288 0.510747 0.510974 0.515088 0.525579 0.523777 0.520922 0.522976 0.53504 0.540761 0.550638 0.540572 0.520033 0.521765 0.45937 0.4856 0.500545 0.549706 0.538781 0.559213 0.580822 0.500675 0.640869 0.559097 0.500253 0.476773 0.409688 0.471882 0.474553 0.455704 0.48079 0.492971 0.395856 0.525235 0.537774 0.51307 0.543098 0.523481 0.356282 0.519523 0.648158 0.609091 0.589484 0.554292 0.552593 0.532318 0.536306 0.529041 0.524554 0.520382 0.518596 0.507101 0.514592 0.507507 0.501119 0.502188 0.502656 0.503021 0.504326 0.503554 0.495854 0.496028 0.505253 0.488689 0.489463 0.522436 0.564403 0.512076 0.558173 0.493825 0.468289 0.374483 0.510065 0.290824 0.449632 0.381583 0.384577 0.358422 0.390318 0.322263 0.261414 0.329446 0.324046 0.285622 0.296287 0.295968 0.295069 0.319578 0.331698 0.338396 0.34053 0.342504 0.335607 0.335977 0.326232 0.313525 0.307815 0.132493 0.0976793 0.209558 0.23828 0.248211 0.250904 0.239213 0.247992 0.266998 0.266945 0.283508 0.269902 0.286325 0.340591 0.368529 0.390431 0.405571 0.414267 0.42488 0.419334 0.426521 0.477593 0.48758 0.463388 0.459571 0.451854 0.457784 0.449861 0.463185 0.460844 0.463306 0.469038 0.468736 0.474441 0.485768 0.491711 0.492781 0.499396 0.502697 0.49847 0.503519 0.510867 0.512922 0.513868 0.522959 0.528341 0.523211 0.527441 0.53646 0.530766 0.542452 0.546219 0.559966 0.52485 0.484068 0.487128 0.472963 0.485582 0.486852 0.492258 0.512434 0.579654 0.57912 0.520758 0.43296 0.583247 0.423903 0.318391 0.50675 0.465545 0.504901 0.45485 0.44441 0.490088 0.401496 0.537989 0.580822 0.342387 0.563717 0.555778 0.514747 0.554807 0.524162 0.418272 0.394637 0.529874 0.660217 0.617731 0.539822 0.537207 0.552904 0.54058 0.546538 0.542716 0.534994 0.533231 0.544652 0.530215 0.528049 0.515881 0.522346 0.513226 0.506711 0.50824 0.503644 0.501824 0.501977 0.499005 0.496852 0.501935 0.515136 0.472788 0.461537 0.486011 0.522048 0.492043 0.482495 0.545877 0.426932 0.328907 0.371047 0.365423 0.387862 0.397456 0.345218 0.312875 0.360859 0.2801 0.285318 0.302086 0.290872 0.30338 0.315069 0.313384 0.32977 0.322184 0.338515 0.33233 0.336766 0.326752 0.322724 0.311477 0.318816 0.312288 0.307731 3.36384 0.130695 0.220397 0.227196 0.222076 0.22249 0.234183 0.227328 0.244693 0.243553 0.233102 0.238494 0.411721 0.397001 0.396102 0.407607 0.405691 0.403986 0.399353 0.443728 0.450263 0.447275 0.451652 0.455909 0.457031 0.467222 0.467944 0.473351 0.476545 0.480064 0.500295 0.501151 0.507014 0.505623 0.509851 0.512554 0.521431 0.521091 0.525572 0.525775 0.534171 0.534652 0.550092 0.544535 0.561768 0.496098 0.501572 0.506119 0.500948 0.483334 0.481458 0.49651 0.532786 0.508065 0.493063 0.438906 0.356396 0.41846 0.39285 0.440964 0.457185 0.439466 0.647288 0.418021 0.332322 0.197557 0.554993 0.427355 0.565084 0.487838 0.442683 0.34601 0.532924 0.448206 0.486438 0.607917 0.59896 0.602775 0.593099 0.554248 0.553183 0.554083 0.558128 0.544324 0.538073 0.532236 0.522983 0.521668 0.514342 0.510801 0.50562 0.502387 0.496489 0.492942 0.483782 0.501101 0.475982 0.49106 0.518407 0.444253 0.541548 0.571936 0.469974 0.506342 0.452643 0.482138 0.488838 0.433422 0.413764 0.395194 0.397832 0.396662 0.393697 0.395588 0.3461 0.388876 0.353982 0.305803 0.322612 0.313645 0.311398 0.318034 0.326826 0.337247 0.337408 0.300652 0.300729 0.337106 0.434647 1.924 0.15782 0.217682 0.214822 0.219254 0.2486 0.27081 0.252061 0.327472 0.374742 0.383986 0.382807 0.390392 0.37082 0.409686 0.401211 0.399033 0.393178 0.410959 0.442908 0.447504 0.461208 0.438981 0.448929 0.452358 0.456598 0.453875 0.451717 0.466519 0.478509 0.475536 0.477122 0.476016 0.489822 0.509748 0.513394 0.516482 0.519722 0.526895 0.529684 0.532764 0.560121 0.551835 0.553329 0.562101 0.562042 0.517128 0.527592 0.511105 0.485207 0.476214 0.501581 0.479591 0.489854 0.470043 0.498647 0.389212 0.336695 0.368752 0.408726 0.421282 0.719241 0.507939 0.663238 0.560178 0.644804 0.499397 0.404597 0.573504 0.391523 0.536866 0.442006 0.645495 0.599487 0.763991 0.581913 0.560773 0.558876 0.556538 0.547569 0.542182 0.532216 0.542223 0.528964 0.520542 0.529664 0.514593 0.501633 0.480701 0.489257 0.501571 0.482138 0.512737 0.516217 0.407186 0.630073 0.430889 0.45898 0.459491 0.450201 0.428437 0.420243 0.402049 0.404337 0.388699 0.403447 0.4032 0.355376 0.323634 0.31041 0.314727 0.316028 0.318332 0.337343 0.340556 0.350437 0.242636 0.290271 0.274655 0.257755 0.152165 0.142916 0.201316 0.252955 0.222609 0.281352 0.285233 0.2769 0.278677 0.272894 0.309266 0.399067 0.40282 0.371302 0.392901 0.394372 0.40132 0.412939 0.442363 0.449649 0.456141 0.452002 0.44551 0.457367 0.467664 0.507825 0.481689 0.484384 0.509365 0.511209 0.517225 0.520078 0.522549 0.535148 0.536228 0.542856 0.544308 0.54891 0.553454 0.554031 0.557549 0.541718 0.531038 0.530844 0.531469 0.431677 0.452554 0.501682 0.495006 0.495926 0.19644 0.405007 0.330691 0.381981 0.394007 0.364042 0.698118 0.446228 0.476431 0.558553 0.421813 0.341789 0.443394 0.450426 0.289923 0.545774 0.593752 0.554848 0.550804 0.550228 0.552289 0.560416 0.55699 0.552132 0.553001 0.539176 0.527091 0.536727 0.516581 0.499754 0.458776 0.470465 0.50223 0.512353 0.430477 0.613422 0.512904 0.458002 0.456697 0.446 0.445132 0.425444 0.41301 0.414316 0.406705 0.359136 0.39382 0.336869 0.307387 0.296903 0.298437 0.302636 0.323233 0.345153 0.316895 0.343511 0.398576 0.415491 0.217696 0.266445 0.285905 0.296197 0.0353469 0.228765 0.25261 0.282675 0.293317 0.364721 0.337314 0.35239 0.316388 0.431216 0.431528 0.395174 0.387631 0.397513 0.397853 0.400523 0.402702 0.402572 0.397378 0.408284 0.40002 0.437151 0.451038 0.450614 0.472746 0.435925 0.441824 0.490753 0.496249 0.502748 0.507758 0.502388 0.512541 0.513744 0.518288 0.5228 0.523518 0.536643 0.537082 0.539701 0.544368 0.552532 0.557132 0.550243 0.565421 0.549338 0.543303 0.528872 0.543503 0.539569 0.497931 0.479637 0.435539 0.403232 0.407547 0.26314 0.604853 0.564587 0.558406 0.552191 0.554744 0.565079 0.557616 0.56002 0.556997 0.548443 0.531169 0.519632 0.526047 0.533173 0.583588 0.482693 0.518303 0.507398 0.476072 0.450756 0.575694 0.510708 0.507492 0.464213 0.444863 0.437989 0.421806 0.378971 0.350441 0.335219 0.334389 0.395403 0.349883 0.29986 0.26293 0.275876 0.284951 0.286757 0.280591 0.343236 0.307317 0.614996 0.382789 0.493691 0.247834 0.315319 0.00550866 0.229571 0.279447 0.286085 0.336292 0.371424 0.386225 0.321989 0.177514 0.427706 0.403009 0.384787 0.402288 0.408247 0.406219 0.404201 0.454377 0.453225 0.457172 0.457578 0.463828 0.442082 0.427699 0.490138 0.508841 0.508313 0.510519 0.513625 0.516296 0.524438 0.527696 0.531944 0.538553 0.547297 0.547756 0.548617 0.553352 0.561347 0.544373 0.56793 0.556529 0.560962 0.546519 0.56168 0.550601 0.533992 0.513916 0.519671 0.499799 0.563591 0.592068 0.570657 0.552506 0.521331 0.482325 0.528285 0.473444 0.447484 0.426586 0.396044 0.378929 0.376089 0.328671 0.287366 0.399947 0.271246 0.345506 0.284764 0.264274 0.301627 0.229406 0.259745 0.349654 0.495772 0.419258 0.463165 0.271996 0.407354 0.269739 0.324907 0.166892 0.265748 0.271462 0.357049 0.374319 0.383274 0.405966 0.421677 0.374297 0.343636 0.389033 0.415728 0.413901 0.433646 0.44221 0.406841 0.421483 0.458016 0.45208 0.458498 0.456531 0.455659 0.454935 0.467668 0.473501 0.471911 0.511034 0.521417 0.511151 0.513052 0.528626 0.532791 0.545783 0.548981 0.512432 0.561408 0.415594 0.572332 0.586402 0.552976 0.532247 0.57575 0.512475 0.498779 0.479022 0.448461 0.443379 0.365553 0.389046 0.36354 0.331009 0.363746 0.30611 0.300161 0.279248 0.281965 0.363158 0.320667 0.391606 0.461558 0.467372 0.428489 0.315345 0.333686 0.478823 0.264597 0.187157 0.301222 0.359344 0.416348 0.397994 0.409067 0.417575 0.466783 0.425499 0.428014 0.427645 0.427016 0.43993 0.425121 0.439426 0.449533 0.467966 0.558017 0.532109 0.576396 0.560602 0.505667 0.494085 0.48507 0.494909 0.292725 0.516535 0.414647 0.371407 0.28211 0.438722 0.241801 0.308556 0.218519 0.26812 0.355551 0.335078 0.325433 0.506871 0.47413 0.446092 0.531858 0.39841 0.370972 0.456081 0.429979 0.342756 0.47566 0.506024 
SCALARS Stress float 1
LOOKUP_TABLE default
-41654900000.0 -64000700000.0 -31700500000.0 -60448600000.0 -112288000000.0 -113597000000.0 -39671000000.0 -97216200000.0 -41914100000.0 -41236200000.0 -82561600000.0 -55202900000.0 -49006500000.0 -127673000000.0 -118242000000.0 -183142000000.0 -296756000000.0 -294711000000.0 -240107000000.0 -115024000000.0 -122487000000.0 -73948700000.0 -103530000000.0 -25453600000.0 -88437700000.0 -362334000000.0 -189893000000.0 -126494000000.0 -43255600000.0 -165633000000.0 -94389100000.0 -57546900000.0 -36958500000.0 -89529500000.0 -19823100000.0 -278160000000.0 -156637000000.0 -496544000000.0 -196926000000.0 -114160000000.0 -236869000000.0 -155126000000.0 -413062000000.0 -299788000000.0 -422750000000.0 -466727000000.0 -444202000000.0 -46812300000.0 -209515000000.0 -57549900000.0 -73073800000.0 -104604000000.0 -248090000000.0 -191876000000.0 -413575000000.0 -479840000000.0 -94012500000.0 -262427000000.0 -60054200000.0 -195286000000.0 -224059000000.0 -146128000000.0 -104501000000.0 -62919000000.0 -130721000000.0 -204716000000.0 -314938000000.0 -601244000000.0 -589049000000.0 -56299500000.0 -165964000000.0 -361167000000.0 -271325000000.0 -733542000000.0 -562991000000.0 -257578000000.0 -246381000000.0 -457936000000.0 -612319000000.0 -409882000000.0 -188745000000.0 -383691000000.0 -667644000000.0 -419636000000.0 -32118100000.0 -155752000000.0 -178501000000.0 -81442800000.0 -31800700000.0 -275011000000.0 -434552000000.0 -872106000000.0 -975821000000.0 -549391000000.0 -603233000000.0 -857541000000.0 -535735000000.0 -394236000000.0 -628811000000.0 -747905000000.0 -417610000000.0 -916105000000.0 -891202000000.0 -439012000000.0 -930907000000.0 -379856000000.0 -292425000000.0 -550339000000.0 -553422000000.0 -119099000000.0 -377168000000.0 -343170000000.0 -271922000000.0 -228449000000.0 -125516000000.0 -94207300000.0 -433374000000.0 -649703000000.0 -618736000000.0 -267144000000.0 -1.24459e+12 -523071000000.0 -191434000000.0 -1.87908e+12 -1.00451e+12 -669088000000.0 -815475000000.0 -1.45423e+12 -1.02482e+12 -881882000000.0 -714347000000.0 -357857000000.0 -546711000000.0 -630082000000.0 -46014900000.0 -545714000000.0 -629283000000.0 -466523000000.0 -567126000000.0 -241009000000.0 -68527400000.0 -106290000000.0 -126915000000.0 -35250700000.0 -28227500000.0 -69124800000.0 -265156000000.0 -616701000000.0 -949220000000.0 -411089000000.0 -372306000000.0 -1.99929e+12 -337610000000.0 -651284000000.0 -1.15672e+12 -1.46727e+12 -250411000000.0 -1.67193e+12 -1.60928e+12 -471455000000.0 -1.22008e+12 -729276000000.0 -1.44553e+12 -873517000000.0 -360134000000.0 -321127000000.0 -370132000000.0 -156078000000.0 -241656000000.0 -35043100000.0 -35318900000.0 -69909400000.0 -331411000000.0 -58823200000.0 -506425000000.0 -234134000000.0 -1.16395e+12 -775944000000.0 -759171000000.0 -2.59165e+12 -1.50744e+12 -937878000000.0 -1.15965e+12 -1.68192e+12 -1.08548e+12 -989540000000.0 -151978000000.0 -3.71516e+12 -1.05287e+12 -920889000000.0 -2.18615e+12 -1.7751e+12 -1.28646e+12 -1.37793e+12 -1.30202e+12 -950652000000.0 -878199000000.0 -710386000000.0 -646123000000.0 -319688000000.0 -80111600000.0 -74813200000.0 -42863900000.0 -30817600000.0 -110109000000.0 -227716000000.0 -305071000000.0 -615424000000.0 -160644000000.0 -422586000000.0 -1.05983e+12 -2.15803e+12 -1.97736e+12 -1.03402e+12 -1.7035e+12 -1.94388e+12 -1.86766e+12 -965246000000.0 -2.48508e+12 -3.08648e+12 -1.62659e+12 -1.31805e+12 -1.48561e+12 -969339000000.0 -2.02913e+12 -762553000000.0 -449527000000.0 -1.38702e+12 -272016000000.0 -182184000000.0 -352704000000.0 -26634600000.0 -28679200000.0 -99390600000.0 -177419000000.0 -262189000000.0 -303406000000.0 -63457000000.0 -681067000000.0 -255966000000.0 -1.37328e+12 -1.80686e+12 -1.63874e+12 -599278000000.0 -2.1868e+12 -2.52663e+12 -1.91933e+12 -2.37094e+12 -397626000000.0 -2.04909e+12 -1.32402e+12 -1.71661e+12 -1.71252e+12 -769469000000.0 -2.21678e+12 -1.78074e+12 -1.79412e+12 -186416000000.0 -558712000000.0 -838768000000.0 -844611000000.0 -1.29351e+12 -284785000000.0 -269559000000.0 -303654000000.0 -888043000000.0 -270142000000.0 -831626000000.0 -1.24443e+12 -1.3104e+12 -2.51398e+12 -2.39005e+12 -3.63825e+12 -1.29957e+12 -1.41175e+12 -2.45745e+12 -1.83492e+12 -3.36695e+12 -4.33844e+12 -2.3734e+12 -1.09446e+12 -308367000000.0 -809446000000.0 -2.29488e+12 -1.29173e+12 -813296000000.0 -619808000000.0 -906801000000.0 -243473000000.0 -414537000000.0 -99135700000.0 -289100000000.0 -660635000000.0 -572934000000.0 -1.14264e+12 -1.15711e+12 -1.5311e+12 -1.51872e+12 -1.14881e+12 -2.35387e+12 -1.85781e+12 -2.98972e+12 -2.82617e+12 -2.11489e+12 -1.3108e+12 -2.19263e+12 -3.66538e+12 -1.18142e+12 -2.51776e+12 -2.24657e+12 -745244000000.0 -1.40478e+12 -2.30766e+12 -1.02908e+12 -537818000000.0 -1.4777e+12 -1.4059e+12 -1.79924e+12 -921188000000.0 -154427000000.0 -445446000000.0 -770127000000.0 -962446000000.0 -2.26807e+12 -1.44321e+12 -1.34116e+12 -971536000000.0 -3.99101e+12 -3.50979e+12 -2.88388e+12 -1.73089e+12 -2.80037e+12 -2.86915e+12 -2.40067e+12 -3.00003e+12 -3.58973e+12 -4.04332e+12 -3.09241e+12 -2.18775e+12 -2.32358e+12 -608772000000.0 -2.48784e+12 -1.95025e+12 -1.52706e+12 -791920000000.0 -1.56357e+12 -1.35186e+12 -881996000000.0 -297691000000.0 -110682000000.0 -228119000000.0 -940110000000.0 -811274000000.0 -703242000000.0 -1.2046e+12 -2.21208e+12 -1.87751e+12 -2.52886e+12 -1.70527e+12 -2.2068e+12 -3.76323e+12 -2.93549e+12 -2.39041e+12 -2.0325e+12 -3.15118e+12 -2.6556e+12 -1.96424e+12 -2.6685e+12 -3.64584e+12 -2.39766e+12 -1.47817e+12 -2.52163e+12 -2.15945e+12 -2.49702e+12 -3.40991e+12 -3.24705e+12 -1.79237e+12 -955953000000.0 -2.52597e+12 -1.0183e+12 -2.17845e+12 -1.56154e+12 -1.51407e+12 -949714000000.0 -176686000000.0 -105093000000.0 -81420200000.0 -341017000000.0 -566765000000.0 -1.30678e+12 -2.4735e+12 -1.42537e+12 -1.72065e+12 -2.67912e+12 -2.87871e+12 -2.52127e+12 -3.3308e+12 -2.59247e+12 -3.0362e+12 -3.23189e+12 -3.13941e+12 -2.3999e+12 -3.6638e+12 -2.32674e+12 -3.3888e+12 -2.32967e+12 -2.53999e+12 -2.86959e+12 -3.73296e+12 -5.01896e+12 -3.3791e+12 -3.1997e+12 -1.29915e+12 -2.645e+12 -3.72224e+12 -2.18841e+12 -1.54902e+12 -245859000000.0 -468105000000.0 -363216000000.0 -1.01486e+12 -1.94111e+12 -797311000000.0 -1.62651e+12 -2.07361e+12 -4.12959e+12 -1.92418e+12 -3.68632e+12 -4.34646e+12 -1.80273e+12 -2.65882e+12 -3.78958e+12 -3.83516e+12 -1.93325e+12 -4.23429e+12 -2.56985e+12 -3.96081e+12 -3.05485e+12 -4.16436e+12 -5.64062e+12 -3.17178e+12 -2.46539e+12 -3.92003e+12 -3.20692e+12 -5.1732e+12 -2.02952e+12 -870011000000.0 -1.94813e+12 -1.135e+12 -2.11137e+12 -549495000000.0 -336573000000.0 -250635000000.0 -901985000000.0 -1.08594e+12 -3.21151e+12 -2.45216e+12 -3.8226e+12 -3.02089e+12 -3.78445e+12 -3.54945e+12 -1.74934e+12 -3.15997e+12 -5.21432e+12 -3.83202e+12 -4.18862e+12 -2.61906e+12 -4.3134e+12 -2.28271e+12 -6.83313e+12 -4.03153e+12 -5.64405e+12 -3.39995e+12 -3.79344e+12 -5.2767e+12 -2.57575e+12 -2.82917e+12 -3.78204e+12 -1.46735e+12 -3.10857e+12 -1.74507e+12 -2.10597e+12 -119053000000.0 -513464000000.0 -3.3065e+12 -5.01418e+12 -1.62692e+12 -2.97105e+12 -5.25068e+12 -4.77986e+12 -2.92815e+12 -6.18214e+12 -5.18012e+12 -4.55455e+12 -5.09323e+12 -4.28035e+12 -3.69061e+12 -3.71884e+12 -4.98995e+12 -4.7651e+12 -4.14408e+12 -6.87751e+12 -4.05897e+12 -4.64838e+12 -6.24233e+12 -5.09715e+12 -3.01737e+12 -2.56303e+12 -5.06291e+12 -5.12794e+12 -3.82368e+12 -2.71787e+12 -4.24025e+12 -4.20995e+12 -3.34686e+12 -3.9829e+12 -4.54965e+12 -2.91624e+12 -5.03955e+12 -5.36415e+12 -3.56231e+12 -2.0103e+12 -723863000000.0 -12549700000.0 -2.98749e+12 -5.15297e+12 -6.01614e+12 -6.46856e+12 -4.7578e+12 -2.80208e+12 -5.46877e+12 -2.53511e+12 -4.76064e+12 -5.20806e+12 -3.0567e+12 -9.0807e+12 -6.50393e+12 -3.97054e+12 -3.6038e+12 -2.40299e+12 -4.00818e+12 -3.70249e+12 -4.73183e+12 -5.35048e+12 -5.13066e+12 -5.16591e+12 -4.42796e+12 -1.00466e+12 -3.40904e+12 -3.37574e+12 -4.20723e+12 -6.15454e+12 -6.63844e+12 -4.21932e+12 -1.72582e+12 -2.44197e+12 -5.05888e+12 -3.78876e+12 -6.05975e+12 -4.61946e+12 -7.68719e+12 -5.44276e+12 -3.88846e+12 -3.19446e+12 -4.63286e+12 -9.46195e+12 -4.33221e+12 -4.09605e+12 -4.76793e+12 -6.27778e+12 -4.87073e+12 -7.70624e+12 -8.25147e+12 -3.09249e+12 -4.6063e+12 -5.75087e+12 -9.64265e+12 -5.28081e+12 -4.85512e+12 -5.31111e+12 -4.55457e+12 -5.97798e+12 -5.64861e+12 -6.22476e+12 -7.9762e+12 -2.46698e+12 -3.23478e+12 -5.28996e+12 -4.15369e+12 -7.29106e+12 -7.13406e+12 -6.17957e+12 -6.6983e+12 -4.78356e+12 -3.8474e+12 -4.08352e+12 -4.75645e+12 -4.10329e+12 -4.68086e+12 -3.61143e+12 -4.77141e+12 -6.60358e+12 -1.04274e+13 -5.74838e+12 -6.96675e+12 -8.13456e+12 -7.79406e+12 -2.50642e+12 -1.04049e+13 -4.10541e+12 -8.26225e+12 -6.65916e+12 -4.78463e+12 -6.08591e+12 -2.70715e+12 -5.74007e+12 -6.74247e+12 -5.88378e+12 -4.54067e+12 -5.65455e+12 -2.98395e+12 -6.59576e+12 -4.79886e+12 -9.25237e+12 -6.05648e+12 -7.402e+12 -6.02576e+12 -6.2591e+12 -5.1461e+12 -6.18775e+12 -6.84756e+12 -7.13601e+12 -6.31248e+12 -7.77275e+12 -7.77224e+12 -5.72119e+12 -6.71677e+12 -5.57389e+12 -7.91405e+12 -4.82285e+12 -9.77984e+12 -1.36806e+13 -1.07416e+13 -6.9845e+12 -4.05381e+12 -12549700000.0 -2.11598e+12 -4.36776e+12 -4.35973e+12 -7.00135e+12 -4.55752e+12 -5.3937e+12 -6.01577e+12 -3.89404e+12 -7.15454e+12 -2.12017e+12 -5.84769e+12 -4.96e+12 -4.27348e+12 -6.11498e+12 -6.11432e+12 -2.72161e+12 -4.37442e+12 -2.41211e+12 -6.1163e+12 -6.05116e+12 -3.82133e+12 -5.86585e+12 -6.37411e+12 -4.67356e+12 -4.3566e+12 -7.06958e+12 -7.84599e+12 -9.39291e+12 -1.81502e+12 -4.02457e+12 -6.36521e+12 -5.61052e+12 -3.46465e+12 -2.53058e+12 -1.02525e+13 -6.9206e+12 -6.4172e+12 -7.6065e+12 -8.16631e+12 -5.00811e+12 -12549700000.0 -4.00832e+12 -3.78385e+12 -4.89643e+12 -3.21877e+12 -2.69195e+12 -4.65135e+12 -5.79112e+12 -3.61196e+12 -4.44956e+12 -3.54705e+12 -7.29752e+12 -3.84892e+12 -7.62343e+12 -6.19248e+12 -5.07121e+12 -6.7447e+12 -4.3075e+12 -5.85374e+12 -6.34764e+12 -7.65239e+12 -4.50839e+12 -6.40858e+12 -4.35932e+12 -3.6883e+12 -6.69401e+12 -8.48839e+12 -3.78216e+12 -3.74007e+12 -4.9456e+12 -5.82235e+12 -6.66667e+12 -4.35666e+12 -8.54924e+12 -9.7357e+12 -5.18465e+12 -8.26974e+12 -7.74473e+12 -2.64309e+12 -3.3837e+12 -3.28597e+12 -12549700000.0 -3.98066e+12 -3.16163e+12 -6.50508e+12 -5.12435e+12 -7.22574e+12 -5.1018e+12 -4.3227e+12 -6.43453e+12 -4.05888e+12 -4.13373e+12 -6.17972e+12 -6.53172e+12 -6.24752e+12 -8.44344e+12 -5.13391e+12 -6.47848e+12 -3.30928e+12 -6.21462e+12 -8.13828e+12 -5.34578e+12 -8.2734e+12 -5.45926e+12 -3.10679e+12 -4.10717e+12 -7.33808e+12 -5.79679e+12 -3.64388e+12 -8.26352e+12 -3.71763e+12 -3.53269e+12 -5.02399e+12 -5.71109e+12 -6.08958e+12 -6.42095e+12 -5.27627e+12 -8.76981e+12 -8.59989e+12 -5.584e+12 -4.58474e+12 -4.45247e+12 -5.14086e+12 -4.63348e+12 -6.16286e+12 -5.2332e+12 -9.07417e+12 -9.62873e+12 -1.16873e+13 -6.05554e+12 -8.54595e+12 -6.17749e+12 -6.22562e+12 -6.22709e+12 -3.65081e+12 -4.64893e+12 -1.19057e+13 -3.90646e+12 -5.75475e+12 -4.61414e+12 -1.02373e+13 -7.86102e+12 -7.91657e+12 -8.40651e+12 -2.33033e+12 -4.78954e+12 -9.15393e+12 -8.67657e+12 -8.31889e+12 -4.40267e+12 -7.45909e+12 -7.26738e+12 -5.96397e+12 -6.53881e+12 -6.14898e+12 -4.98758e+12 -7.67502e+12 -4.69433e+12 -5.77789e+12 -3.79785e+12 -6.32779e+12 -4.10011e+12 -4.252e+12 -2.81086e+12 -4.13413e+12 -5.56803e+12 -4.8711e+12 -9.11847e+12 -9.64646e+12 -7.60085e+12 -5.61465e+12 -4.79164e+12 -8.49626e+12 -7.87578e+12 -8.77678e+12 -4.82816e+12 -6.34223e+12 -6.96113e+12 -6.46e+12 -7.41226e+12 -9.92427e+12 -9.68471e+12 -6.7714e+12 -6.36744e+12 -7.87074e+12 -1.14852e+13 -4.64145e+12 -9.95996e+12 -4.61493e+12 -6.99232e+12 -3.88313e+12 -6.06444e+12 -4.43192e+12 -6.9884e+12 -7.73121e+12 -3.31267e+12 -4.44884e+12 -4.69205e+12 -4.95216e+12 -12549700000.0 -6.15222e+12 -3.88229e+12 -3.7284e+12 -2.488e+12 -4.74606e+12 -7.31633e+12 -7.27746e+12 -4.37057e+12 -9.37886e+12 -6.62764e+12 -5.65171e+12 -6.94666e+12 -3.27939e+12 -9.80848e+12 -5.89928e+12 -4.13033e+12 -5.2888e+12 -7.73361e+12 -6.74933e+12 -9.45859e+12 -5.93294e+12 -5.12452e+12 -5.4161e+12 -8.63673e+12 -5.46361e+12 -8.96422e+12 -5.19059e+12 -4.81155e+12 -5.03316e+12 -6.56145e+12 -7.85782e+12 -5.23336e+12 -4.73942e+12 -5.80802e+12 -5.07321e+12 -1.0937e+13 -6.53018e+12 -7.85318e+12 -5.34453e+12 -2.58793e+12 -12549700000.0 -12549700000.0 -6.24206e+12 -7.46322e+12 -5.50226e+12 -1.07507e+13 -6.12338e+12 -7.53492e+12 -7.04513e+12 -6.54995e+12 -8.56956e+12 -7.50522e+12 -8.56093e+12 -4.54374e+12 -5.71924e+12 -9.38148e+12 -6.99004e+12 -3.51591e+12 -7.49409e+12 -9.13786e+12 -2.7757e+12 -6.39284e+12 -5.92175e+12 -2.33328e+12 -4.66751e+12 -6.66541e+12 -4.82445e+12 -8.01356e+12 -7.63438e+12 -6.61856e+12 -6.08843e+12 -5.48248e+12 -4.77908e+12 -6.60901e+12 -7.98742e+12 -6.88098e+12 -1.00752e+13 -6.53709e+12 -4.69513e+12 -5.62969e+12 -8.71248e+12 -8.44402e+12 -1.05752e+13 -3.45229e+12 -4.20308e+12 -6.41376e+12 -3.39462e+12 -7.39937e+12 -6.71529e+12 -6.97579e+12 -3.90874e+12 -3.93029e+12 -6.07324e+12 -6.89849e+12 -1.24623e+13 -6.00444e+12 -5.85295e+12 -8.18986e+12 -7.8414e+12 -8.3089e+12 -4.38085e+12 -4.30035e+12 -6.84484e+12 -4.41102e+12 -5.71634e+12 -7.43996e+12 -1.09232e+13 -8.95877e+12 -9.78249e+12 -5.32322e+12 -7.45015e+12 -1.02981e+13 -5.20405e+12 -6.87952e+12 -4.74441e+12 -7.81132e+12 -1.21265e+13 -8.33332e+12 -7.81774e+12 -5.60584e+12 -8.44403e+12 -6.22888e+12 -6.33928e+12 -4.62851e+12 -6.95373e+12 -4.27992e+12 -3.3453e+12 -4.11272e+12 -4.33133e+12 -6.69756e+12 -7.33715e+12 -6.75904e+12 -4.52664e+12 -5.89654e+12 -6.36527e+12 -5.18659e+12 -6.03729e+12 -1.33971e+13 -5.61419e+12 -9.36081e+12 -7.72913e+12 -6.84195e+12 -7.23561e+12 -5.09805e+12 -8.17953e+12 -3.97768e+12 -8.28002e+12 -8.86011e+12 -1.05324e+13 -6.89246e+12 -6.1769e+12 -7.19875e+12 -6.02383e+12 -3.23934e+12 -7.77681e+12 -7.2797e+12 -3.24707e+12 -5.81444e+12 -7.6062e+12 -8.49273e+12 -4.55203e+12 -6.12754e+12 -3.25283e+12 -8.45983e+12 -6.53447e+12 -5.10817e+12 -6.48011e+12 -3.61468e+12 -5.27396e+12 -8.49012e+12 -2.80593e+12 -3.48169e+12 -4.15742e+12 -6.14853e+12 -1.01506e+13 -6.50671e+12 -7.77463e+12 -7.99373e+12 -7.00104e+12 -7.81706e+12 -6.13957e+12 -1.03043e+13 -1.02203e+13 -8.05181e+12 -8.10258e+12 -7.50965e+12 -1.13992e+13 -8.90378e+12 -7.58221e+12 -7.84222e+12 -6.45476e+12 -5.98465e+12 -8.18466e+12 -1.31405e+13 -6.05878e+12 -5.89988e+12 -7.84601e+12 -7.17908e+12 -9.00085e+12 -5.46033e+12 -6.36907e+12 -8.18312e+12 -1.0372e+13 -6.0537e+12 -3.35604e+12 -7.67079e+12 -4.53527e+12 -6.4105e+12 -5.25513e+12 -5.74229e+12 -7.52218e+12 -6.47826e+12 -7.94605e+12 -5.44587e+12 -8.34438e+12 -3.55157e+12 -12549700000.0 -4.73166e+12 -3.25234e+12 -8.02603e+12 -6.88055e+12 -9.62531e+12 -7.64588e+12 -5.00898e+12 -9.01371e+12 -6.00534e+12 -3.40347e+12 -3.34689e+12 -6.43563e+12 -5.97127e+12 -8.48499e+12 -4.98158e+12 -7.67852e+12 -8.15463e+12 -7.78607e+12 -6.59521e+12 -8.50035e+12 -5.73905e+12 -7.23262e+12 -9.33889e+12 -5.59254e+12 -4.79581e+12 -6.01587e+12 -5.85599e+12 -9.6397e+12 -8.84194e+12 -6.05971e+12 -9.12831e+12 -7.70365e+12 -4.38073e+12 -1.07002e+13 -6.12368e+12 -1.06695e+13 -8.42522e+12 -6.21617e+12 -9.74475e+12 -7.04153e+12 -5.6841e+12 -6.20449e+12 -4.52372e+12 -6.70595e+12 -12549700000.0 -5.5719e+12 -3.34788e+12 -7.83867e+12 -8.25154e+12 -7.85454e+12 -7.48798e+12 -7.15181e+12 -8.32582e+12 -8.0569e+12 -9.19209e+12 -5.09119e+12 -7.61906e+12 -6.08327e+12 -6.72317e+12 -4.21312e+12 -3.19144e+12 -7.53769e+12 -5.66311e+12 -1.18109e+13 -7.76309e+12 -7.1307e+12 -8.60521e+12 -9.30124e+12 -1.14131e+13 -5.75139e+12 -9.51166e+12 -1.02477e+13 -9.22473e+12 -1.01165e+13 -4.73363e+12 -5.58744e+12 -9.05011e+12 -6.00887e+12 -6.48745e+12 -9.53144e+12 -8.36625e+12 -6.6524e+12 -3.78294e+12 -9.61025e+12 -2.64783e+12 -5.3396e+12 -9.16493e+12 -4.30395e+12 -3.83888e+12 -12549700000.0 -3.66727e+12 -1.95495e+12 -4.54905e+12 -7.3898e+12 -5.33901e+12 -5.15968e+12 -9.54527e+12 -8.48445e+12 -6.92412e+12 -6.84646e+12 -7.73888e+12 -5.18085e+12 -9.67448e+12 -7.15134e+12 -8.82028e+12 -6.93783e+12 -7.8161e+12 -1.10318e+13 -7.196e+12 -5.40406e+12 -7.25093e+12 -7.40361e+12 -7.87199e+12 -8.21324e+12 -1.69577e+13 -6.30781e+12 -6.03016e+12 -1.00082e+13 -8.49078e+12 -3.25647e+12 -6.3035e+12 -8.96242e+12 -7.69455e+12 -7.18369e+12 -7.14291e+12 -8.86156e+12 -5.65869e+12 -5.49882e+12 -5.41027e+12 -6.0712e+12 -5.25625e+12 -6.4776e+12 -5.09246e+12 -9.21999e+12 -3.69086e+12 -7.43945e+12 -3.40486e+12 -3.84928e+12 -9.91283e+12 -6.50208e+12 -4.75395e+12 -7.52437e+12 -1.0989e+13 -5.37393e+12 -7.50357e+12 -6.48301e+12 -5.25925e+12 -5.85869e+12 -4.53383e+12 -5.45444e+12 -4.40986e+12 -1.05841e+13 -8.92004e+12 -1.13629e+13 -6.12249e+12 -4.73418e+12 -4.21002e+12 -1.10306e+13 -5.78464e+12 -6.24401e+12 -8.30623e+12 -4.5296e+12 -4.78706e+12 -1.07406e+13 -5.52035e+12 -6.45265e+12 -8.70697e+12 -8.29368e+12 -5.79065e+12 -5.79103e+12 -7.8588e+12 -6.50414e+12 -5.13331e+12 -5.55174e+12 -1.07378e+13 -1.04935e+13 -7.92984e+12 -4.46949e+12 -6.60455e+12 -7.23135e+12 -9.21616e+12 -7.61694e+12 -9.17821e+12 -6.36101e+12 -4.50651e+12 -5.11754e+12 -9.59496e+12 -6.24739e+12 -8.62061e+12 -5.66347e+12 -5.77962e+12 -6.89989e+12 -7.95272e+12 -5.04368e+12 -7.57595e+12 -5.7468e+12 -8.02668e+12 -7.56286e+12 -5.16698e+12 -4.8208e+12 -8.24008e+12 -4.36273e+12 -5.76737e+12 -3.01527e+12 -4.99014e+12 -7.23949e+12 -7.74987e+12 -9.9381e+12 -8.91807e+12 -6.23856e+12 -4.39417e+12 -7.41321e+12 -1.23847e+13 -7.42213e+12 -1.30147e+13 -8.28103e+12 -1.11775e+13 -8.24953e+12 -8.14237e+12 -4.05076e+12 -6.13997e+12 -5.16876e+12 -5.25669e+12 -7.71163e+12 -1.29784e+13 -7.11348e+12 -9.97876e+12 -7.03397e+12 -6.09793e+12 -7.77403e+12 -6.66966e+12 -5.29387e+12 -3.18032e+12 -3.75613e+12 -1.18643e+13 -1.1177e+13 -7.3985e+12 -7.05954e+12 -7.51568e+12 -1.05947e+13 -1.2889e+13 -8.51765e+12 -1.24815e+13 -6.79017e+12 -5.77617e+12 -7.07982e+12 -7.73771e+12 -3.70927e+12 -4.87669e+12 -5.40659e+12 -9.43821e+12 -7.35079e+12 -6.80258e+12 -6.48474e+12 -9.35557e+12 -4.8092e+12 -8.36131e+12 -6.45422e+12 -7.616e+12 -5.54571e+12 -7.06047e+12 -9.27918e+12 -9.40544e+12 -7.53185e+12 -7.43695e+12 -5.59656e+12 -7.09996e+12 -7.92633e+12 -1.03097e+13 -5.1816e+12 -5.19733e+12 -5.49544e+12 -8.38974e+12 -9.06669e+12 -9.06958e+12 -5.56189e+12 -8.40261e+12 -8.84417e+12 -7.66022e+12 -6.48303e+12 -7.84014e+12 -5.44279e+12 -7.87646e+12 -9.64135e+12 -9.09413e+12 -7.20978e+12 -8.19171e+12 -8.64002e+12 -3.61433e+12 -1.16335e+13 -8.11772e+12 -8.1866e+12 -6.87428e+12 -6.0347e+12 -1.33022e+13 -5.29461e+12 -8.48347e+12 -1.21481e+13 -1.13156e+13 -1.04501e+13 -1.11782e+13 -7.203e+12 -1.0756e+13 -1.31907e+13 -9.89388e+12 -5.07546e+12 -4.97255e+12 -3.66479e+12 -7.61686e+12 -1.0929e+13 -8.62424e+12 -1.11367e+13 -5.39089e+12 -8.6935e+12 -8.69263e+12 -1.0399e+13 -1.31895e+13 -7.17222e+12 -1.11207e+13 -1.09283e+13 -12549700000.0 -4.3564e+12 -4.11733e+12 -5.15585e+12 -6.29766e+12 -3.08874e+12 -6.01356e+12 -9.13163e+12 -7.7308e+12 -5.64723e+12 -8.13546e+12 -8.60652e+12 -1.05642e+13 -6.55239e+12 -6.63898e+12 -5.57671e+12 -6.04774e+12 -9.1931e+12 -4.16656e+12 -1.0482e+13 -1.01907e+13 -5.48635e+12 -8.66276e+12 -6.26337e+12 -8.94969e+12 -4.70467e+12 -8.64354e+12 -7.34038e+12 -1.29567e+13 -7.37124e+12 -5.44879e+12 -4.0237e+12 -1.00748e+13 -6.29868e+12 -3.05776e+12 -7.43862e+12 -5.39758e+12 -7.08542e+12 -6.65136e+12 -6.36476e+12 -1.1141e+13 -8.26044e+12 -6.17171e+12 -7.31388e+12 -5.89843e+12 -5.92027e+12 -8.67856e+12 -8.92431e+12 -6.98961e+12 -3.27158e+12 -3.98937e+12 -6.14311e+12 -6.06401e+12 -5.57648e+12 -6.14646e+12 -4.79851e+12 -5.44693e+12 -9.16812e+12 -6.37959e+12 -7.29699e+12 -9.32854e+12 -9.62676e+12 -5.15092e+12 -9.38413e+12 -6.81331e+12 -8.31509e+12 -1.03e+13 -9.2122e+12 -1.31181e+13 -1.0477e+13 -9.15355e+12 -9.01297e+12 -1.02103e+13 -9.75607e+12 -6.51531e+12 -8.32481e+12 -9.633e+12 -7.44984e+12 -5.76362e+12 -5.78782e+12 -9.34962e+12 -1.13778e+13 -1.00029e+13 -1.2003e+13 -1.51384e+13 -7.09974e+12 -7.07082e+12 -4.26658e+12 -9.4706e+12 -5.21558e+12 -4.38185e+12 -9.15565e+12 -1.13568e+13 -8.79831e+12 -1.05072e+13 -5.93668e+12 -7.94724e+12 -6.53421e+12 -7.45121e+12 -1.14551e+13 -1.16472e+13 -1.16421e+13 -7.92803e+12 -9.58294e+12 -1.38536e+13 -9.44756e+12 -5.24929e+12 -9.94214e+12 -9.76863e+12 -9.79155e+12 -3.53935e+12 -3.28429e+12 -8.506e+12 -1.01508e+13 -6.35446e+12 -1.09887e+13 -7.36499e+12 -9.84173e+12 -1.34758e+13 -7.78377e+12 -6.34975e+12 -1.17367e+13 -7.38748e+12 -7.17164e+12 -6.24034e+12 -3.98495e+12 -9.33168e+12 -3.60229e+12 -7.24096e+12 -9.4549e+12 -1.365e+13 -5.21391e+12 -5.75694e+12 -1.34273e+13 -5.48688e+12 -7.65141e+12 -6.20205e+12 -5.14599e+12 -3.68295e+12 -1.11449e+13 -5.79258e+12 -8.33539e+12 -9.36944e+12 -6.56267e+12 -9.3927e+12 -9.72584e+12 -1.06544e+13 -2.6184e+12 -7.61088e+12 -8.14747e+12 -1.16421e+13 -1.05092e+13 -5.64808e+12 -8.17379e+12 -3.70472e+12 -4.78011e+12 -8.71462e+12 -1.12197e+13 -7.10663e+12 -7.09689e+12 -1.2949e+13 -8.67111e+12 -4.53783e+12 -1.1244e+13 -9.351e+12 -1.0829e+13 -1.33345e+13 -1.3422e+13 -1.27336e+13 -1.05928e+13 -1.17822e+13 -9.90369e+12 -7.71871e+12 -7.18451e+12 -6.11438e+12 -6.63399e+12 -1.54499e+13 -8.54161e+12 -8.46457e+12 -4.90155e+12 -1.14838e+13 -1.11408e+13 -8.0963e+12 -1.021e+13 -9.59514e+12 -5.06961e+12 -8.60942e+12 -9.56209e+12 -8.07806e+12 -3.79521e+12 -6.10914e+12 -4.56616e+12 -9.34147e+12 -7.92418e+12 -7.29626e+12 -5.05885e+12 -7.79589e+12 -6.53283e+12 -5.23213e+12 -4.52581e+12 -6.48162e+12 -7.68565e+12 -4.14169e+12 -5.76193e+12 -6.26501e+12 -4.56692e+12 -7.30409e+12 -4.96773e+12 -7.88503e+12 -6.03541e+12 -8.93945e+12 -6.22109e+12 -9.73846e+12 -7.86695e+12 -1.01094e+13 -1.10709e+13 -9.15952e+12 -1.03013e+13 -9.03861e+12 -8.77298e+12 -1.23229e+13 -1.29753e+13 -3.94216e+12 -9.55951e+12 -3.58864e+12 -4.39344e+12 -5.2225e+12 -9.03994e+12 -1.02337e+13 -1.02317e+13 -1.24013e+13 -1.65863e+13 -7.29861e+12 -6.31018e+12 -8.04426e+12 -7.82227e+12 -7.91426e+12 -1.12156e+13 -1.01298e+13 -1.18045e+13 -7.44083e+12 -9.89579e+12 -7.85987e+12 -8.45003e+12 -5.81268e+12 -7.03032e+12 -4.29532e+12 -1.22615e+13 -8.1114e+12 -7.8543e+12 -5.88511e+12 -5.40499e+12 -1.00606e+13 -8.03079e+12 -9.97544e+12 -8.14276e+12 -6.75423e+12 -5.89594e+12 -8.49017e+12 -1.41456e+13 -6.68757e+12 -6.38712e+12 -3.93588e+12 -6.7462e+12 -8.92314e+12 -1.11749e+13 -4.95863e+12 -5.01394e+12 -1.0571e+13 -3.20901e+12 -7.85391e+12 -5.45618e+12 -8.46876e+12 -1.10755e+13 -8.77514e+12 -6.47534e+12 -8.86905e+12 -7.288e+12 -6.86736e+12 -8.50243e+12 -5.84444e+12 -8.19913e+12 -8.06781e+12 -1.20103e+13 -1.18827e+13 -9.12072e+12 -1.49515e+13 -9.97167e+12 -1.29146e+13 -1.17891e+13 -1.38552e+13 -1.04873e+13 -7.13562e+12 -7.38676e+12 -5.68282e+12 -7.31664e+12 -5.98622e+12 -2.71905e+12 -3.73844e+12 -5.54658e+12 -4.32202e+12 -7.91688e+12 -7.97917e+12 -8.88576e+12 -1.05715e+13 -6.97459e+12 -1.55909e+13 -6.52115e+12 -8.94391e+12 -1.41084e+13 -1.00858e+13 -6.14733e+12 -1.15497e+13 -8.48271e+12 -1.05274e+13 -1.12123e+13 -6.31082e+12 -3.23553e+12 -6.28498e+12 -6.42568e+12 -4.88664e+12 -5.61061e+12 -8.09819e+12 -8.02936e+12 -1.42129e+13 -7.01072e+12 -1.24366e+13 -8.54953e+12 -7.57222e+12 -7.94261e+12 -5.33269e+12 -8.33887e+12 -1.09377e+13 -4.84069e+12 -6.53925e+12 -7.06655e+12 -5.36226e+12 -5.10583e+12 -7.22736e+12 -9.64184e+12 -9.17652e+12 -6.9822e+12 -9.89412e+12 -5.82982e+12 -7.28457e+12 -6.35625e+12 -1.09995e+13 -1.11155e+13 -6.83864e+12 -4.22391e+12 -5.3607e+12 -6.38226e+12 -1.01526e+13 -6.77225e+12 -9.51009e+12 -6.49396e+12 -1.04217e+13 -6.90254e+12 -6.76021e+12 -8.71938e+12 -9.37861e+12 -9.46815e+12 -1.03401e+13 -4.42718e+12 -7.8326e+12 -5.00336e+12 -9.12277e+12 -9.71343e+12 -6.0989e+12 -1.04323e+13 -1.72948e+13 -8.18077e+12 -9.07375e+12 -9.79829e+12 -5.83018e+12 -8.02766e+12 -1.24582e+13 -1.0643e+13 -1.38597e+13 -4.64966e+12 -3.86859e+12 -5.88979e+12 -9.67895e+12 -5.36259e+12 -4.56729e+12 -8.56706e+12 -1.12227e+13 -6.53706e+12 -1.08372e+13 -1.28417e+13 -8.1413e+12 -1.53342e+13 -7.59911e+12 -8.73317e+12 -8.10931e+12 -1.47531e+13 -1.18092e+13 -6.25703e+12 -8.4884e+12 -7.73357e+12 -2.93756e+12 -4.68369e+12 -4.6325e+12 -1.06393e+13 -9.07349e+12 -5.68172e+12 -6.05157e+12 -6.4933e+12 -8.24694e+12 -1.3769e+13 -1.28273e+13 -1.4911e+13 -6.71367e+12 -4.53545e+12 -6.54776e+12 -6.0538e+12 -7.75436e+12 -1.33281e+13 -6.59465e+12 -6.20408e+12 -7.07493e+12 -4.93668e+12 -9.71564e+12 -7.82404e+12 -1.18344e+13 -5.844e+12 -1.22616e+13 -1.04627e+13 -1.07785e+13 -1.10531e+13 -7.77675e+12 -3.83884e+12 -2.51555e+12 -9.97034e+12 -1.09479e+13 -9.11983e+12 -1.47552e+13 -4.37803e+12 -6.88757e+12 -6.51514e+12 -6.77799e+12 -9.3803e+12 -5.3566e+12 -1.04243e+13 -1.40547e+13 -7.51964e+12 -7.17292e+12 -5.00909e+12 -1.26943e+13 -7.47862e+12 -1.25965e+13 -1.2235e+13 -1.06241e+13 -8.59238e+12 -7.66588e+12 -2.75772e+12 -1.29958e+13 -5.39455e+12 -3.0645e+12 -4.16047e+12 -7.41554e+12 -7.91011e+12 -9.59256e+12 -4.46095e+12 -8.63641e+12 -7.19142e+12 -9.29921e+12 -4.87258e+12 -1.13812e+13 -5.31772e+12 -9.98876e+12 -1.11693e+13 -9.32753e+12 -1.34144e+13 -8.54313e+12 -6.59613e+12 -1.06013e+13 -1.1377e+13 -7.73681e+12 -6.37132e+12 -5.6754e+12 -4.24505e+12 -8.12954e+12 -8.63551e+12 -1.01189e+13 -7.67873e+12 -9.36218e+12 -8.35733e+12 -1.09463e+13 -1.0351e+13 -6.0678e+12 -7.28648e+12 -6.34764e+12 -7.77206e+12 -4.98952e+12 -7.25239e+12 -4.97779e+12 -6.25077e+12 -6.8011e+12 -1.09571e+13 -9.53003e+12 -8.94104e+12 -5.92417e+12 -6.17436e+12 -7.66724e+12 -4.35167e+12 -6.52529e+12 -6.50222e+12 -8.15075e+12 -5.39956e+12 -9.08341e+12 -5.60038e+12 -1.02568e+13 -6.50944e+12 -8.02739e+12 -7.01472e+12 -1.28474e+13 -4.48491e+12 -4.68065e+12 -8.6232e+12 -6.49164e+12 -9.20434e+12 -7.80367e+12 -8.22444e+12 -8.75475e+12 -9.82516e+12 -5.72072e+12 -8.55768e+12 -1.36158e+13 -8.92943e+12 -1.052e+13 -7.77456e+12 -5.75013e+12 -5.26094e+12 -7.57524e+12 -9.80125e+12 -7.71171e+12 -7.78306e+12 -4.40886e+12 -5.70396e+12 -1.02287e+13 -7.10746e+12 -6.06418e+12 -9.92835e+12 -8.62021e+12 -8.44639e+12 -7.22503e+12 -6.17642e+12 -7.44265e+12 -7.42452e+12 -6.44562e+12 -7.58714e+12 -3.19527e+12 -1.31152e+13 -1.2543e+13 -1.1271e+13 -9.45399e+12 -1.37601e+13 -8.39034e+12 -5.53102e+12 -1.1007e+13 -8.23931e+12 -8.97848e+12 -9.54973e+12 -5.79551e+12 -1.41983e+13 -6.1945e+12 -2.95745e+12 -8.92497e+12 -6.15217e+12 -8.31594e+12 -6.56665e+12 -1.06603e+13 -8.93661e+12 -1.36486e+13 -8.6414e+12 -6.20612e+12 -6.5507e+12 -1.02669e+13 -4.06304e+12 -4.92152e+12 -9.44962e+12 -5.43915e+12 -8.15845e+12 -1.26924e+13 -1.27998e+13 -7.41193e+12 -8.98582e+12 -6.08709e+12 -8.88458e+12 -4.30373e+12 -6.59142e+12 -9.92702e+12 -8.07895e+12 -1.28007e+13 -7.65413e+12 -9.37906e+12 -7.78668e+12 -1.09389e+13 -6.30867e+12 -9.93761e+12 -8.77322e+12 -9.14224e+12 -8.9349e+12 -6.28262e+12 -8.66052e+12 -5.42782e+12 -8.25096e+12 -4.19867e+12 -8.05004e+12 -8.98696e+12 -1.30067e+13 -8.30319e+12 -1.22373e+13 -6.79034e+12 -1.34396e+13 -6.89489e+12 -5.9902e+12 -4.60343e+12 -7.60122e+12 -6.42175e+12 -1.22728e+13 -8.54099e+12 -7.40613e+12 -1.36728e+13 -5.02573e+12 -7.96713e+12 -6.7538e+12 -1.18381e+13 -5.42142e+12 -5.45062e+12 -1.00922e+13 -7.72118e+12 -8.03777e+12 -9.86445e+12 -7.50034e+12 -8.47696e+12 -9.97847e+12 -6.02302e+12 -5.39585e+12 -9.80372e+12 -7.29958e+12 -4.00928e+12 -7.42883e+12 -1.03652e+13 -7.4024e+12 -9.78219e+12 -1.32356e+13 -7.09968e+12 -5.5317e+12 -7.29006e+12 -7.69756e+12 -5.20572e+12 -1.00957e+13 -7.95587e+12 -1.00851e+13 -7.58021e+12 -8.83302e+12 -7.49545e+12 -9.07326e+12 -1.52737e+13 -5.25435e+12 -1.10487e+13 -1.32855e+13 -1.15883e+13 -7.46545e+12 -8.51339e+12 -4.13963e+12 -3.54648e+12 -8.95848e+12 -6.13581e+12 -6.74007e+12 -1.21155e+13 -8.63747e+12 -8.5578e+12 -1.1177e+13 -1.00285e+13 -1.17419e+13 -5.71925e+12 -8.47855e+12 -9.67865e+12 -7.10481e+12 -7.2296e+12 -5.22476e+12 -7.22153e+12 -1.26805e+13 -1.08921e+13 -9.37251e+12 -1.17497e+13 -1.22394e+13 -9.42732e+12 -1.00496e+13 -6.72405e+12 -7.44742e+12 -6.48079e+12 -9.09303e+12 -7.60625e+12 -7.99278e+12 -7.25476e+12 -8.82778e+12 -8.25067e+12 -7.67007e+12 -1.08686e+13 -9.70865e+12 -7.73749e+12 -9.28168e+12 -3.81244e+12 -7.31819e+12 -7.03183e+12 -9.66101e+12 -5.74993e+12 -1.05776e+13 -1.16612e+13 -6.86005e+12 -5.30856e+12 -5.03367e+12 -1.5104e+13 -5.9629e+12 -1.01728e+13 -1.09833e+13 -8.52829e+12 -7.11894e+12 -5.11541e+12 -6.97569e+12 -4.52613e+12 -5.02258e+12 -5.40961e+12 -6.99088e+12 -8.00525e+12 -9.05111e+12 -8.23564e+12 -5.05831e+12 -7.61318e+12 -1.01451e+13 -4.03435e+12 -1.03298e+13 -9.60506e+12 -8.32188e+12 -8.0783e+12 -5.21751e+12 -8.86975e+12 -6.69147e+12 -4.14508e+12 -4.83147e+12 -4.35499e+12 -9.46028e+12 -7.49337e+12 -1.27355e+13 -4.2161e+12 -8.25501e+12 -5.80758e+12 -6.14525e+12 -9.90504e+12 -3.01626e+12 -6.54968e+12 -1.14077e+13 -9.37838e+12 -8.08e+12 -4.38542e+12 -8.23813e+12 -4.75789e+12 -7.73228e+12 -9.18401e+12 -9.40443e+12 -4.73439e+12 -8.83728e+12 -8.77379e+12 -1.02177e+13 -1.26748e+13 -5.68324e+12 -6.80253e+12 -1.12209e+13 -8.08771e+12 -1.39063e+13 -9.13642e+12 -9.03848e+12 -9.78279e+12 -8.95492e+12 -8.36547e+12 -1.07363e+13 -1.2874e+13 -4.25146e+12 -1.14917e+13 -1.32656e+13 -8.77432e+12 -7.92077e+12 -7.95725e+12 -9.9287e+12 -7.82534e+12 -8.32335e+12 -1.0457e+13 -5.47957e+12 -9.48802e+12 -5.56866e+12 -4.49329e+12 -1.01434e+13 -8.17352e+12 -9.42896e+12 -5.79282e+12 -1.09409e+13 -1.04403e+13 -7.15557e+12 -1.21209e+13 -7.60161e+12 -5.74963e+12 -8.19712e+12 -1.33466e+13 -6.34695e+12 -5.40597e+12 -6.25805e+12 -1.03962e+13 -6.96285e+12 -7.96267e+12 -2.72349e+12 -5.77697e+12 -6.96348e+12 -1.31402e+13 -3.98695e+12 -9.28669e+12 -9.0361e+12 -4.04436e+12 -8.28822e+12 -5.86217e+12 -6.94894e+12 -9.06355e+12 -7.72321e+12 -7.24153e+12 -1.15156e+13 -7.62907e+12 -9.29707e+12 -6.11414e+12 -5.54055e+12 -5.00245e+12 -6.56305e+12 -6.593e+12 -6.79534e+12 -6.25548e+12 -7.08808e+12 -4.42925e+12 -1.08465e+13 -6.82288e+12 -6.3837e+12 -9.38728e+12 -5.2812e+12 -6.19821e+12 -6.07336e+12 -7.69736e+12 -6.30658e+12 -7.74559e+12 -9.79705e+12 -9.84625e+12 -7.08067e+12 -8.63288e+12 -4.3834e+12 -4.74836e+12 -1.12364e+13 -5.80586e+12 -8.05565e+12 -4.94439e+12 -1.03236e+13 -9.62869e+12 -7.71095e+12 -5.17412e+12 -6.96028e+12 -6.67502e+12 -5.28784e+12 -6.1308e+12 -3.19244e+12 -4.3947e+12 -6.27101e+12 -7.24362e+12 -1.26494e+13 -1.04472e+13 -1.02537e+13 -1.1245e+13 -4.80918e+12 -8.27448e+12 -7.15873e+12 -7.49109e+12 -8.51646e+12 -8.74724e+12 -4.41301e+12 -6.99414e+12 -9.83007e+12 -1.16197e+13 -5.65136e+12 -3.11481e+12 -7.28651e+12 -1.21134e+13 -8.82281e+12 -1.44694e+13 -1.05848e+13 -1.02738e+13 -8.6165e+12 -7.67098e+12 -1.14989e+13 -5.87663e+12 -7.99701e+12 -8.46785e+12 -8.11073e+12 -8.38562e+12 -5.5597e+12 -6.1408e+12 -1.04738e+13 -6.52837e+12 -7.85961e+12 -5.2921e+12 -8.68899e+12 -8.42907e+12 -6.96949e+12 -3.75247e+12 -3.58137e+12 -2.77524e+12 -8.76548e+12 -8.10526e+12 -7.0282e+12 -9.27316e+12 -1.19096e+13 -2.89615e+12 -1.39523e+13 -6.75775e+12 -8.30739e+12 -1.3928e+13 -4.95672e+12 -6.03592e+12 -4.84932e+12 -8.15554e+12 -5.42631e+12 -7.12955e+12 -8.00269e+12 -1.08638e+13 -9.83978e+12 -8.0209e+12 -1.1576e+13 -1.10248e+13 -1.66611e+13 -1.18946e+13 -1.03844e+13 -6.51392e+12 -8.13587e+12 -4.91054e+12 -7.96394e+12 -6.99558e+12 -1.09586e+13 -8.40875e+12 -1.02263e+13 -1.01151e+13 -1.04928e+13 -7.23199e+12 -5.77816e+12 -9.86548e+12 -6.04035e+12 -7.6724e+12 -9.97434e+12 -3.50302e+12 -6.73685e+12 -6.75566e+12 -4.8142e+12 -1.27765e+13 -5.19361e+12 -5.90006e+12 -6.98848e+12 -1.29353e+13 -7.59624e+12 -6.98534e+12 -4.21103e+12 -6.10112e+12 -5.96479e+12 -7.69592e+12 -8.55339e+12 -8.29923e+12 -4.00048e+12 -5.31066e+12 -1.20559e+13 -7.1391e+12 -5.21427e+12 -6.8697e+12 -6.45674e+12 -6.91122e+12 -8.00986e+12 -6.91496e+12 -6.54462e+12 -3.93522e+12 -3.54078e+12 -7.12109e+12 -7.44699e+12 -5.36628e+12 -6.58776e+12 -5.90566e+12 -4.41949e+12 -2.93464e+12 -9.05281e+12 -8.09409e+12 -7.22524e+12 -9.87617e+12 -1.00221e+13 -1.2718e+13 -5.54468e+12 -4.82698e+12 -8.21418e+12 -6.5344e+12 -5.95348e+12 -1.58057e+13 -5.99208e+12 -8.68267e+12 -2.98937e+12 -6.42338e+12 -1.03312e+13 -1.07233e+13 -6.6806e+12 -1.21554e+13 -6.21036e+12 -7.16711e+12 -7.7999e+12 -4.41995e+12 -4.31493e+12 -6.71512e+12 -6.42804e+12 -1.26589e+13 -7.79435e+12 -7.63651e+12 -1.07088e+13 -7.87453e+12 -4.81131e+12 -1.33139e+13 -4.66618e+12 -6.71719e+12 -8.2038e+12 -1.01006e+13 -7.95648e+12 -1.17687e+13 -1.01668e+13 -5.69413e+12 -4.59488e+12 -5.444e+12 -5.57688e+12 -2.74841e+12 -7.81641e+12 -4.19093e+12 -6.88688e+12 -6.31491e+12 -8.14848e+12 -8.1736e+12 -1.24511e+13 -4.77678e+12 -9.18114e+12 -6.95162e+12 -6.05231e+12 -5.01723e+12 -8.66084e+12 -1.0462e+13 -8.40416e+12 -8.93495e+12 -1.06646e+13 -1.00297e+13 -1.03686e+13 -7.53586e+12 -8.43306e+12 -9.21135e+12 -9.9675e+12 -5.63003e+12 -6.09842e+12 -7.59558e+12 -7.30036e+12 -6.00841e+12 -6.98428e+12 -5.6624e+12 -8.64102e+12 -7.7697e+12 -6.64088e+12 -6.07147e+12 -6.70924e+12 -3.43338e+12 -5.47106e+12 -7.05427e+12 -1.26479e+12 -6.57833e+12 -1.05598e+13 -9.47758e+12 -4.1864e+12 -6.0274e+12 -2.45767e+12 -6.67402e+12 -4.97648e+12 -6.66261e+12 -2.77264e+12 -7.88804e+12 -5.49579e+12 -7.49903e+12 -4.21331e+12 -8.24649e+12 -7.54592e+12 -4.57721e+12 -4.36473e+12 -7.08789e+12 -7.8994e+12 -1.0928e+13 -6.30221e+12 -5.60533e+12 -6.43562e+12 -5.31443e+12 -6.3898e+12 -7.63116e+12 -8.59678e+12 -7.12207e+12 -5.15447e+12 -3.81597e+12 -8.03934e+12 -5.6604e+12 -6.85817e+12 -7.39124e+12 -5.44906e+12 -9.73846e+12 -7.16124e+12 -7.42402e+12 -6.93348e+12 -4.68003e+12 -8.40268e+12 -5.86999e+12 -7.45474e+12 -9.26462e+12 -7.78021e+12 -5.86867e+12 -4.57608e+12 -4.0654e+12 -7.43066e+12 -7.83983e+12 -9.44248e+12 -5.12225e+12 -4.45611e+12 -5.24384e+12 -7.04422e+12 -7.77511e+12 -7.943e+12 -1.03445e+13 -5.90228e+12 -1.38053e+13 -3.18053e+12 -4.11401e+12 -4.95418e+12 -6.07709e+12 -6.82504e+12 -8.13089e+12 -5.69357e+12 -7.35073e+12 -9.07146e+12 -7.78236e+12 -6.11022e+12 -5.01635e+12 -9.52605e+12 -8.96294e+12 -7.07635e+12 -9.50841e+12 -5.17554e+12 -7.63142e+12 -9.84265e+12 -7.49725e+12 -1.12398e+13 -9.03052e+12 -8.82753e+12 -4.96021e+12 -6.49319e+12 -5.57051e+12 -5.31094e+12 -4.16006e+12 -4.82163e+12 -6.1219e+12 -1.09114e+13 -7.10407e+12 -7.54772e+12 -8.68763e+12 -1.92704e+13 -4.69939e+12 -6.74614e+12 -6.85308e+12 -1.55239e+13 -8.8392e+12 -5.49221e+12 -1.0942e+13 -8.32866e+12 -5.55063e+12 -8.28276e+12 -5.67155e+12 -6.98782e+12 -4.82838e+12 -1.18716e+13 -7.21908e+12 -7.25257e+12 -2.51908e+12 -8.08165e+12 -1.02561e+13 -1.12744e+13 -6.88526e+12 -9.96563e+12 -1.20781e+13 -4.61942e+12 -7.30642e+12 -6.85671e+12 -8.43831e+12 -6.05356e+12 -3.94083e+12 -5.67803e+12 -9.51655e+12 -9.00566e+12 -7.29081e+12 -1.07591e+13 -7.32405e+12 -5.96123e+12 -6.47424e+12 -6.53647e+12 -7.67182e+12 -8.22539e+12 -6.47752e+12 -7.53413e+12 -4.43139e+12 -5.23786e+12 -3.71982e+12 -6.68921e+12 -7.59817e+12 -7.52004e+12 -7.65916e+12 -3.52643e+12 -6.55016e+12 -7.83627e+12 -7.29423e+12 -7.16886e+12 -6.67373e+12 -5.48178e+12 -8.20799e+12 -9.62928e+12 -4.52312e+12 -9.42031e+12 -6.77386e+12 -5.56305e+12 -1.06829e+13 -6.15573e+12 -7.94565e+12 -6.22425e+12 -5.36829e+12 -3.76803e+12 -5.12119e+12 -1.22262e+13 -7.18372e+12 -7.22952e+12 -9.3133e+12 -9.45274e+12 -1.37739e+13 -7.60309e+12 -9.43493e+12 -6.53238e+12 -7.26282e+12 -6.4474e+12 -1.01894e+13 -9.37572e+12 -1.34509e+13 -7.54146e+12 -4.87039e+12 -4.77801e+12 -3.86124e+12 -4.05643e+12 -6.43119e+12 -1.09185e+13 -6.41913e+12 -8.59726e+12 -6.90938e+12 -4.93755e+12 -7.89552e+12 -9.3651e+12 -1.43204e+13 -8.05972e+12 -3.64432e+12 -6.77265e+12 -1.05255e+13 -5.5508e+12 -8.23706e+12 -9.50402e+12 -5.37996e+12 -7.77522e+12 -7.67288e+12 -1.39866e+13 -7.7372e+12 -6.15927e+12 -6.09254e+12 -5.97858e+12 -7.85815e+12 -8.01415e+12 -6.08635e+12 -8.55915e+12 -5.8556e+12 -6.51777e+12 -5.47359e+12 -5.72129e+12 -4.32495e+12 -5.56059e+12 -5.87401e+12 -8.41722e+12 -7.39018e+12 -4.80228e+12 -6.30998e+12 -2.99897e+12 -4.7826e+12 -8.86448e+12 -5.30086e+12 -7.40758e+12 -1.36888e+13 -8.20207e+12 -6.91211e+12 -6.39688e+12 -1.24668e+13 -7.29507e+12 -1.11394e+13 -5.77389e+12 -6.16174e+12 -7.55279e+12 -5.71276e+12 -8.36832e+12 -5.55093e+12 -7.77627e+12 -6.22659e+12 -5.14259e+12 -2.62077e+12 -2.93224e+12 -5.70946e+12 -4.10555e+12 -4.55717e+12 -5.56533e+12 -1.07493e+13 -4.38806e+12 -6.29102e+12 -3.29265e+12 -5.969e+12 -8.65191e+12 -7.10404e+12 -6.38175e+12 -4.79951e+12 -2.02524e+12 -6.07571e+12 -4.70077e+12 -6.02852e+12 -5.72712e+12 -8.70315e+12 -6.74432e+12 -6.72919e+12 -1.02805e+13 -5.97627e+12 -6.67769e+12 -5.5765e+12 -1.00907e+13 -4.52593e+12 -7.77085e+12 -6.33745e+12 -4.03265e+12 -3.6126e+12 -6.4078e+12 -7.46032e+12 -5.83178e+12 -6.90993e+12 -6.65551e+12 -5.90348e+12 -7.23524e+12 -7.74058e+12 -7.27326e+12 -1.0393e+13 -9.05374e+12 -3.65821e+12 -5.2972e+12 -5.25294e+12 -6.04897e+12 -4.58162e+12 -4.84048e+12 -7.21621e+12 -6.66295e+12 -1.24448e+13 -8.51939e+12 -8.44445e+12 -7.27249e+12 -8.5346e+12 -7.04243e+12 -6.79602e+12 -6.54677e+12 -3.9415e+12 -6.52443e+12 -4.58382e+12 -4.6236e+12 -4.47392e+12 -5.9346e+12 -7.01744e+12 -9.9528e+12 -6.71396e+12 -7.71054e+12 -8.29834e+12 -6.38269e+12 -4.73826e+12 -3.86933e+12 -4.76277e+12 -4.83385e+12 -5.71714e+12 -8.70976e+12 -6.35324e+12 -1.09631e+13 -9.09631e+12 -1.33325e+13 -8.46552e+12 -5.09395e+12 -8.66987e+12 -9.48214e+12 -1.45986e+13 -6.09284e+12 -1.11833e+13 -4.20978e+12 -7.68607e+12 -6.79554e+12 -4.77316e+12 -7.22788e+12 -6.09802e+12 -5.91808e+12 -9.66081e+12 -5.9599e+12 -7.61955e+12 -1.10292e+13 -5.1137e+12 -1.00256e+13 -3.3628e+12 -5.62953e+12 -8.77137e+12 -1.12699e+13 -6.85055e+12 -4.50547e+12 -5.47235e+12 -6.08562e+12 -4.69287e+12 -6.8569e+12 -7.49901e+12 -1.00916e+13 -8.41099e+12 -7.00273e+12 -6.54945e+12 -3.8344e+12 -3.96033e+12 -3.87687e+12 -7.89628e+12 -5.63733e+12 -7.40464e+12 -3.88963e+12 -6.41195e+12 -6.96021e+12 -8.13034e+12 -7.02134e+12 -5.96301e+12 -5.6107e+12 -8.13631e+12 -3.82112e+12 -6.26612e+12 -6.96903e+12 -7.43804e+12 -5.60655e+12 -9.51465e+12 -8.78894e+12 -7.72066e+12 -1.12106e+13 -6.93664e+12 -2.95801e+12 -5.34321e+12 -4.51066e+12 -4.23525e+12 -4.36537e+12 -5.77576e+12 -6.72091e+12 -9.53215e+12 -8.01533e+12 -9.25088e+12 -5.59465e+12 -5.28103e+12 -6.12225e+12 -9.36824e+12 -6.59679e+12 -7.8107e+12 -6.40752e+12 -6.7225e+12 -4.32708e+12 -1.18732e+13 -8.06185e+12 -3.66091e+12 -6.87574e+12 -3.5804e+12 -5.0959e+12 -8.0098e+12 -7.60049e+12 -5.99024e+12 -4.88332e+12 -7.18283e+12 -6.40597e+12 -4.51291e+12 -5.77282e+12 -6.01977e+12 -8.2236e+12 -4.43169e+12 -6.04433e+12 -3.30696e+12 -7.26931e+12 -4.86493e+12 -5.2806e+12 -6.1955e+12 -5.45104e+12 -7.92806e+12 -6.08221e+12 -7.27846e+12 -4.91886e+12 -6.12987e+12 -7.6832e+12 -8.15524e+12 -7.92674e+12 -1.02719e+13 -7.85073e+12 -7.29329e+12 -6.23729e+12 -9.73293e+12 -1.19388e+13 -8.26771e+12 -6.07179e+12 -3.47408e+12 -4.17934e+12 -4.24932e+12 -8.65334e+12 -7.21405e+12 -1.05971e+13 -7.90342e+12 -5.51279e+12 -5.73499e+12 -6.63304e+12 -9.06362e+12 -4.44589e+12 -6.52364e+12 -4.172e+12 -6.44731e+12 -7.29884e+12 -1.04458e+13 -4.60485e+12 -7.58377e+12 -7.67916e+12 -6.33928e+12 -4.01968e+12 -5.66882e+12 -6.12809e+12 -9.35959e+12 -8.5856e+12 -8.04729e+12 -1.00743e+13 -5.20463e+12 -5.18644e+12 -5.77691e+12 -4.51152e+12 -5.9267e+12 -6.52949e+12 -8.43507e+12 -5.3345e+12 -1.0526e+13 -8.62504e+12 -1.19936e+13 -1.02462e+13 -7.40612e+12 -4.56634e+12 -7.34925e+12 -4.92277e+12 -4.08441e+12 -4.69215e+12 -5.71375e+12 -4.96038e+12 -7.70309e+12 -9.78326e+12 -6.40665e+12 -5.1743e+12 -8.17102e+12 -4.43621e+12 -8.68148e+12 -6.47996e+12 -7.01253e+12 -8.46606e+12 -5.93038e+12 -6.50564e+12 -3.68783e+12 -6.55006e+12 -5.47648e+12 -4.23875e+12 -5.17157e+12 -4.23367e+12 -7.18735e+12 -6.25424e+12 -4.12636e+12 -3.74598e+12 -3.31314e+12 -6.02784e+12 -7.79278e+12 -5.03336e+12 -1.02786e+13 -8.26636e+12 -5.6852e+12 -7.06443e+12 -9.70371e+12 -5.71304e+12 -1.07184e+13 -8.62819e+12 -6.95922e+12 -9.08904e+12 -3.27353e+12 -5.9164e+12 -9.40027e+12 -6.28491e+12 -5.51198e+12 -5.96854e+12 -6.03261e+12 -8.07548e+12 -3.84497e+12 -5.65252e+12 -3.56059e+12 -6.91297e+12 -7.24289e+12 -4.19092e+12 -5.4603e+12 -2.89153e+12 -4.91952e+12 -6.98682e+12 -4.24558e+12 -6.33392e+12 -7.38896e+12 -8.75877e+12 -4.92278e+12 -7.75616e+12 -5.18178e+12 -7.2118e+12 -8.89287e+12 -3.52993e+12 -7.91596e+12 -6.51521e+12 -3.21133e+12 -3.46392e+12 -5.40974e+12 -6.00353e+12 -4.65846e+12 -4.93987e+12 -8.22429e+12 -4.98228e+12 -6.55397e+12 -4.13974e+12 -5.54885e+12 -7.26437e+12 -7.16853e+12 -6.24987e+12 -8.04957e+12 -4.79448e+12 -4.00581e+12 -5.17511e+12 -3.75205e+12 -4.7574e+12 -6.60277e+12 -9.60869e+12 -4.33548e+12 -2.38652e+12 -1.0734e+13 -7.52738e+12 -5.45896e+12 -5.44344e+12 -3.60103e+12 -2.57756e+12 -8.65251e+12 -4.95034e+12 -7.04413e+12 -5.74701e+12 -7.23093e+12 -6.48352e+12 -1.02228e+13 -4.89156e+12 -6.06717e+12 -7.61362e+12 -4.14306e+12 -7.25606e+12 -6.77771e+12 -6.37728e+12 -5.60135e+12 -3.92802e+12 -4.83105e+12 -4.68775e+12 -6.06107e+12 -8.77264e+12 -6.45864e+12 -6.04701e+12 -6.71985e+12 -9.67518e+12 -8.30924e+12 -6.24176e+12 -1.20388e+13 -1.00135e+13 -7.3643e+12 -8.02879e+12 -2.52353e+12 -6.64405e+12 -6.39455e+12 -5.68418e+12 -1.08769e+13 -5.25929e+12 -5.01214e+12 -4.65974e+12 -8.33651e+12 -5.4575e+12 -1.17521e+13 -8.38806e+12 -1.30554e+13 -1.06782e+13 -6.2355e+12 -4.63635e+12 -7.56153e+12 -5.68663e+12 -4.42581e+12 -7.47848e+12 -5.47002e+12 -3.42462e+12 -5.68752e+12 -3.53104e+12 -5.54225e+12 -4.4434e+12 -6.85933e+12 -4.58649e+12 -4.0946e+12 -3.58483e+12 -7.03132e+12 -7.26322e+12 -5.83382e+12 -8.1832e+12 -8.88493e+12 -7.04415e+12 -7.33238e+12 -8.1392e+12 -5.67394e+12 -6.76675e+12 -6.04752e+12 -5.69418e+12 -5.23052e+12 -1.0291e+13 -7.80002e+12 -7.96561e+12 -6.77527e+12 -5.07842e+12 -8.39317e+12 -5.47048e+12 -1.18522e+13 -1.18093e+13 -6.18396e+12 -8.42223e+12 -5.6099e+12 -6.30079e+12 -7.72247e+12 -3.97717e+12 -9.51683e+12 -3.42499e+12 -1.08709e+13 -5.5124e+12 -5.22419e+12 -3.81395e+12 -7.1991e+12 -4.17038e+12 -3.89886e+12 -6.38488e+12 -6.14993e+12 -9.20487e+12 -5.01473e+12 -4.52336e+12 -5.66384e+12 -6.17898e+12 -8.94793e+12 -6.82601e+12 -6.45847e+12 -7.1768e+12 -3.7205e+12 -5.7088e+12 -5.65115e+12 -5.01857e+12 -6.50679e+12 -6.37133e+12 -6.64709e+12 -4.14079e+12 -5.53662e+12 -6.8641e+12 -7.20828e+12 -4.64577e+12 -5.18702e+12 -8.01854e+12 -6.40838e+12 -4.70734e+12 -6.12076e+12 -6.251e+12 -4.21225e+12 -9.43785e+12 -5.52673e+12 -6.91431e+12 -6.20228e+12 -5.42092e+12 -4.6039e+12 -2.80488e+12 -3.984e+12 -6.32799e+12 -1.08529e+13 -6.6928e+12 -6.8755e+12 -1.03241e+13 -8.85976e+12 -5.94214e+12 -9.7248e+12 -8.16466e+12 -7.33916e+12 -5.81224e+12 -1.09119e+13 -4.11345e+12 -6.28312e+12 -5.68048e+12 -8.91725e+12 -6.78452e+12 -7.86687e+12 -5.46628e+12 -6.79376e+12 -6.66775e+12 -6.0842e+12 -2.74828e+12 -6.17139e+12 -7.48815e+12 -5.57137e+12 -8.80024e+12 -7.85819e+12 -8.3189e+12 -6.77568e+12 -6.06363e+12 -8.05469e+12 -4.61822e+12 -1.13596e+13 -6.57838e+12 -6.15491e+12 -4.21541e+12 -5.93109e+12 -9.06837e+12 -1.57266e+13 -8.16822e+12 -4.93491e+12 -1.13785e+13 -8.68621e+12 -9.5358e+12 -5.55218e+12 -4.57971e+12 -5.89289e+12 -6.46692e+12 -2.23559e+12 -4.64516e+12 -3.66534e+12 -5.06221e+12 -5.97848e+12 -5.6798e+12 -6.60585e+12 -5.39829e+12 -4.54284e+12 -9.92747e+12 -8.54765e+12 -6.1476e+12 -6.791e+12 -5.44275e+12 -6.40457e+12 -5.09881e+12 -7.77961e+12 -5.84067e+12 -4.74714e+12 -5.06066e+12 -5.80709e+12 -4.74437e+12 -5.29893e+12 -6.45664e+12 -5.45593e+12 -8.64697e+12 -7.65525e+12 -3.45617e+12 -9.88235e+12 -4.89245e+12 -6.03113e+12 -3.62814e+12 -7.73364e+12 -1.18791e+13 -9.02326e+12 -7.49679e+12 -6.31602e+12 -7.14824e+12 -5.33825e+12 -6.76161e+12 -8.03129e+12 -5.41752e+12 -8.345e+12 -6.58919e+12 -7.40535e+12 -5.81916e+12 -7.78549e+12 -7.55658e+12 -6.70382e+12 -9.08032e+12 -6.75147e+12 -6.99145e+12 -3.35204e+12 -4.90243e+12 -3.48499e+12 -6.77177e+12 -5.24533e+12 -3.6168e+12 -5.48921e+12 -2.73197e+12 -6.38396e+12 -6.84418e+12 -8.23235e+12 -4.73882e+12 -5.53003e+12 -5.37116e+12 -4.43335e+12 -5.27116e+12 -4.85989e+12 -6.99303e+12 -3.35441e+12 -1.07577e+13 -7.93572e+12 -2.99595e+12 -6.13122e+12 -6.57557e+12 -4.06342e+12 -6.51809e+12 -6.04997e+12 -6.03235e+12 -7.95144e+12 -4.68763e+12 -3.4025e+12 -4.57269e+12 -5.89461e+12 -5.06512e+12 -6.64402e+12 -5.41662e+12 -8.22168e+12 -7.78334e+12 -5.80852e+12 -1.06861e+13 -4.23664e+12 -7.98076e+12 -1.01713e+13 -6.90527e+12 -5.23467e+12 -8.28196e+12 -6.05703e+12 -7.24533e+12 -7.01756e+12 -8.22608e+12 -8.97454e+12 -7.6014e+12 -3.9702e+12 -4.78435e+12 -6.0388e+12 -8.00319e+12 -6.46332e+12 -5.17077e+12 -4.58106e+12 -4.96203e+12 -4.75493e+12 -6.50587e+12 -8.801e+12 -5.97565e+12 -7.06018e+12 -6.79423e+12 -7.71393e+12 -5.1691e+12 -6.53078e+12 -6.53505e+12 -9.76046e+12 -7.97333e+12 -8.54897e+12 -6.85219e+12 -5.50229e+12 -1.20152e+13 -1.05252e+13 -7.65392e+12 -8.49206e+12 -5.40381e+12 -4.79873e+12 -7.73196e+12 -2.75239e+12 -5.95401e+12 -3.28807e+12 -4.84642e+12 -4.38353e+12 -7.55662e+12 -5.38032e+12 -7.14775e+12 -5.79667e+12 -9.74002e+12 -8.29836e+12 -8.55819e+12 -7.41929e+12 -7.73184e+12 -5.34372e+12 -4.58162e+12 -5.96184e+12 -7.59305e+12 -4.6044e+12 -8.29637e+12 -2.84657e+12 -4.00544e+12 -4.81805e+12 -4.93217e+12 -3.90868e+12 -1.04374e+13 -2.64544e+12 -4.38461e+12 -3.03223e+12 -7.08891e+12 -5.25007e+12 -7.55983e+12 -7.55906e+12 -5.13089e+12 -5.24891e+12 -5.6128e+12 -6.36896e+12 -6.49468e+12 -6.90781e+12 -2.60633e+12 -2.73223e+12 -8.21855e+12 -9.3966e+12 -4.62702e+12 -4.96348e+12 -5.15602e+12 -4.53291e+12 -5.06426e+12 -3.86443e+12 -4.31172e+12 -8.59946e+12 -5.24038e+12 -3.89017e+12 -3.74545e+12 -5.57916e+12 -3.17775e+12 -4.229e+12 -3.60922e+12 -3.96244e+12 -4.58055e+12 -5.14147e+12 -3.62074e+12 -4.28444e+12 -4.56136e+12 -4.04227e+12 -5.52064e+12 -5.93831e+12 -5.09654e+12 -6.2607e+12 -8.24999e+12 -4.08929e+12 -2.63155e+12 -8.83694e+12 -3.64503e+12 -4.38779e+12 -5.80876e+12 -4.46437e+12 -5.32845e+12 -4.26512e+12 -1.52936e+12 -5.86802e+12 -8.14529e+12 -4.4944e+12 -4.31583e+12 -3.46812e+12 -4.51983e+12 -8.10741e+12 -2.59548e+12 -5.12197e+12 -6.13539e+12 -4.31088e+12 -4.91453e+12 -3.31538e+12 -4.3743e+12 -5.2223e+12 -7.60893e+12 -5.48042e+12 -5.63161e+12 -7.46772e+12 -4.1609e+12 -6.55868e+12 -8.21579e+12 -6.40213e+12 -5.40789e+12 -5.03102e+12 -9.14797e+12 -5.66039e+12 -4.63707e+12 -5.73462e+12 -6.64858e+12 -6.33282e+12 -8.51714e+12 -7.95637e+12 -6.85556e+12 -6.70083e+12 -6.41541e+12 -7.29822e+12 -6.11794e+12 -8.18636e+12 -6.07446e+12 -5.838e+12 -4.18401e+12 -7.39028e+12 -3.77123e+12 -7.46971e+12 -5.66286e+12 -5.54331e+12 -7.85211e+12 -7.42259e+12 -1.22117e+13 -6.41698e+12 -5.18986e+12 -5.96552e+12 -4.60041e+12 -3.77882e+12 -6.70786e+12 -3.17615e+12 -7.97824e+12 -5.54594e+12 -5.48352e+12 -7.09352e+12 -6.29973e+12 -8.64233e+12 -5.74128e+12 -5.34096e+12 -9.92653e+12 -4.22852e+12 -7.21891e+12 -4.40022e+12 -4.92664e+12 -5.28891e+12 -5.58215e+12 -5.23087e+12 -4.39591e+12 -6.83366e+12 -5.24972e+12 -6.19841e+12 -7.57791e+12 -6.96615e+12 -3.83594e+12 -5.48686e+12 -6.14855e+12 -4.96333e+12 -6.41414e+12 -8.1016e+12 -8.08238e+12 -4.44829e+12 -6.74899e+12 -6.00033e+12 -5.96254e+12 -5.21963e+12 -7.39027e+12 -4.12009e+12 -6.54619e+12 -4.46911e+12 -5.86402e+12 -5.86916e+12 -4.06902e+12 -6.34679e+12 -5.91888e+12 -8.44676e+12 -5.60869e+12 -4.41861e+12 -5.2814e+12 -5.04794e+12 -6.54362e+12 -6.69022e+12 -3.11432e+12 -5.01135e+12 -5.18628e+12 -4.95509e+12 -7.48983e+12 -4.92665e+12 -3.27275e+12 -2.70807e+12 -6.17692e+12 -3.17906e+12 -4.19338e+12 -2.56395e+12 -3.31254e+12 -6.1123e+12 -3.42717e+12 -5.8545e+12 -3.55715e+12 -3.63608e+12 -4.14846e+12 -5.58276e+12 -3.24311e+12 -4.18182e+12 -3.85755e+12 -5.77179e+12 -2.69639e+12 -3.86503e+12 -3.55138e+12 -6.25577e+12 -7.63402e+12 -6.52241e+12 -4.27904e+12 -3.15695e+12 -2.9536e+12 -3.32086e+12 -7.75941e+12 -4.26581e+12 -5.14488e+12 -2.53341e+12 -5.81283e+12 -3.93874e+12 -6.70041e+12 -3.84687e+12 -5.1938e+12 -6.78121e+12 -4.15302e+12 -7.44909e+12 -1.02643e+13 -5.67883e+12 -8.29797e+12 -3.60582e+12 -9.39857e+12 -7.67365e+12 -4.31669e+12 -4.53346e+12 -7.70055e+12 -6.73836e+12 -5.86709e+12 -8.07858e+12 -7.3961e+12 -7.9005e+12 -7.67438e+12 -9.67988e+12 -959216000000.0 -5.62491e+12 -4.20946e+12 -7.56583e+12 -5.7812e+12 -2.99027e+12 -4.97363e+12 -4.93746e+12 -7.49025e+12 -5.69591e+12 -7.07993e+12 -5.34019e+12 -6.61307e+12 -7.46744e+12 -8.18972e+12 -9.00707e+12 -6.02001e+12 -1.10799e+13 -2.75867e+12 -2.4966e+12 -5.84296e+12 -6.43381e+12 -5.50059e+12 -2.7728e+12 -4.23133e+12 -3.44991e+12 -4.4527e+12 -4.25373e+12 -9.59488e+12 -5.43422e+12 -4.93265e+12 -7.89974e+12 -7.1522e+12 -6.59788e+12 -9.20637e+12 -4.36914e+12 -6.87586e+12 -4.77093e+12 -3.04687e+12 -5.48993e+12 -7.56828e+12 -3.98892e+12 -4.29206e+12 -6.25352e+12 -6.60878e+12 -5.04721e+12 -9.79627e+12 -4.71908e+12 -5.33885e+12 -6.34999e+12 -5.65349e+12 -8.25661e+12 -7.92022e+12 -6.00691e+12 -5.19781e+12 -6.14983e+12 -7.37633e+12 -4.43331e+12 -5.36378e+12 -5.43486e+12 -7.12145e+12 -7.74353e+12 -7.14901e+12 -8.02628e+12 -4.07995e+12 -5.56071e+12 -1.88635e+12 -4.99236e+12 -4.03202e+12 -2.95163e+12 -7.8862e+12 -6.43577e+12 -6.70249e+12 -5.25371e+12 -3.19962e+12 -6.71315e+12 -6.74151e+12 -1.30361e+12 -3.66922e+12 -4.56131e+12 -4.59263e+12 -6.45362e+12 -6.33105e+12 -5.28942e+12 -2.03243e+12 -3.53757e+12 -2.59965e+12 -2.69098e+12 -4.80934e+12 -6.98443e+12 -3.63364e+12 -3.64046e+12 -2.83522e+12 -4.41043e+12 -8.03457e+12 -4.70322e+12 -3.90378e+12 -3.65883e+12 -4.13652e+12 -3.81134e+12 -4.11583e+12 -2.83627e+12 -2.45349e+12 -4.19518e+12 -4.35134e+12 -5.05155e+12 -6.01872e+12 -3.73218e+12 -2.65093e+12 -6.14781e+12 -4.44589e+12 -4.54578e+12 -4.49645e+12 -4.83768e+12 -5.31041e+12 -4.8485e+12 -4.41386e+12 -2.84403e+12 -3.70743e+12 -3.202e+12 -5.8755e+12 -8.71944e+12 -3.70926e+12 -3.26246e+12 -3.48352e+12 -3.65893e+12 -2.49014e+12 -2.088e+12 -8.34847e+12 -3.60006e+12 -8.31018e+12 -7.5139e+12 -3.43504e+12 -7.12809e+12 -4.18135e+12 -5.95114e+12 -5.29614e+12 -5.6508e+12 -6.53874e+12 -6.02873e+12 -5.96117e+12 -7.355e+12 -7.90261e+12 -7.34031e+12 -5.0933e+12 -3.3204e+12 -6.00642e+12 -5.27366e+12 -7.02187e+12 -8.33261e+12 -6.55332e+12 -4.73639e+12 -7.61785e+12 -5.99279e+12 -5.07899e+12 -3.85726e+12 -9.6644e+12 -4.83461e+12 -6.28954e+12 -4.13934e+12 -5.25278e+12 -8.67469e+12 -1.95911e+12 -8.03706e+12 -4.60976e+12 -2.78553e+12 -1.69364e+12 -6.30428e+12 -3.70339e+12 -3.35296e+12 -2.70428e+12 -4.83338e+12 -1.01411e+13 -5.34557e+12 -6.59326e+12 -3.77213e+12 -4.20991e+12 -5.88703e+12 -5.17859e+12 -3.73889e+12 -3.84668e+12 -4.76599e+12 -4.69764e+12 -5.55806e+12 -5.81287e+12 -4.79838e+12 -4.89083e+12 -2.15397e+12 -3.69144e+12 -1.95291e+12 -4.80866e+12 -3.85196e+12 -6.54426e+12 -6.55826e+12 -5.34879e+12 -5.59736e+12 -4.10706e+12 -6.10076e+12 -5.66238e+12 -3.75724e+12 -4.43137e+12 -3.76177e+12 -4.68751e+12 -4.52329e+12 -7.83146e+12 -6.4183e+12 -7.86359e+12 -4.32092e+12 -2.74085e+12 -6.17478e+12 -4.82793e+12 -6.36373e+12 -4.22408e+12 -5.68209e+12 -3.58898e+12 -5.15702e+12 -6.56877e+12 -6.0067e+12 -2.91514e+12 -6.28756e+12 -3.00371e+12 -3.06568e+12 -2.12608e+12 -4.74091e+12 -4.5545e+12 -4.80413e+12 -3.28261e+12 -6.13035e+12 -4.70224e+12 -3.46217e+12 -4.09826e+12 -4.05473e+12 -4.66368e+12 -3.73716e+12 -6.25952e+12 -1.4669e+12 -5.11366e+12 -3.56547e+12 -4.72651e+12 -2.05442e+12 -5.49662e+12 -2.16713e+12 -2.08953e+12 -5.06012e+12 -4.31595e+12 -4.18372e+12 -3.22519e+12 -2.83613e+12 -3.54853e+12 -5.21318e+12 -1.83072e+12 -4.04091e+12 -4.08904e+12 -2.52873e+12 -2.98262e+12 -4.19654e+12 -4.42346e+12 -3.689e+12 -4.25489e+12 -3.60144e+12 -4.15307e+12 -4.35333e+12 -5.23488e+12 -2.97748e+12 -5.61244e+12 -3.06906e+12 -6.59291e+12 -8.01524e+12 -3.79201e+12 -3.12738e+12 -2.54724e+12 -2.8953e+12 -4.2346e+12 -5.1401e+12 -4.25301e+12 -4.05501e+12 -5.9433e+12 -6.59929e+12 -6.28297e+12 -5.86035e+12 -4.80014e+12 -5.11158e+12 -4.80721e+12 -2.48527e+12 -4.44751e+12 -1.28299e+12 -5.2767e+12 -3.48429e+12 -4.00461e+12 -5.48037e+12 -5.99322e+12 -4.78265e+12 -8.73014e+12 -7.65274e+12 -3.55311e+12 -5.01189e+12 -5.9102e+12 -3.08276e+12 -5.9644e+12 -3.33503e+12 -3.98621e+12 -5.28736e+12 -2.61639e+12 -4.66934e+12 -7.61124e+12 -4.85176e+12 -5.11072e+12 -4.81786e+12 -5.62114e+12 -3.86127e+12 -6.62978e+12 -4.35698e+12 -2.23786e+12 -3.28597e+12 -3.1752e+12 -2.61255e+12 -5.43594e+12 -4.71007e+12 -5.8328e+12 -5.79565e+12 -6.5531e+12 -4.6592e+12 -4.44609e+12 -3.90821e+12 -6.48507e+12 -3.68454e+12 -3.57514e+12 -4.40019e+12 -3.17066e+12 -5.51633e+12 -4.46305e+12 -5.67792e+12 -4.12558e+12 -3.48326e+12 -6.56941e+12 -4.83274e+12 -3.98564e+12 -2.12492e+12 -4.48602e+12 -5.5811e+12 -3.52941e+12 -5.69667e+12 -2.88098e+12 -4.40713e+12 -4.03352e+12 -4.58109e+12 -5.92124e+12 -2.87302e+12 -6.08679e+12 -4.93464e+12 -6.41936e+12 -5.5787e+12 -3.37498e+12 -4.19747e+12 -6.10019e+12 -7.18146e+12 -5.40353e+12 -3.92188e+12 -4.04186e+12 -3.73474e+12 -5.29081e+12 -2.83e+12 -4.3579e+12 -5.02378e+12 -4.75417e+12 -4.28181e+12 -3.18915e+12 -2.11164e+12 -3.56321e+12 -5.56694e+12 -3.8485e+12 -3.04743e+12 -2.26484e+12 -1.41477e+12 -3.58176e+12 -2.41273e+12 -3.82811e+12 -3.66384e+12 -3.02245e+12 -3.2493e+12 -3.22909e+12 -1.9369e+12 -4.85136e+12 -5.85265e+12 -5.16035e+12 -2.48378e+12 -2.90632e+12 -1.49892e+12 -3.26608e+12 -1.95167e+12 -6.40546e+12 -4.43895e+12 -3.37588e+12 -4.40878e+12 -3.89927e+12 -5.18293e+12 -5.85785e+12 -4.52517e+12 -6.20789e+12 -3.92576e+12 -2.40517e+12 -5.10973e+12 -4.92425e+12 -4.4945e+12 -3.5856e+12 -3.44832e+12 -2.28884e+12 -4.98357e+12 -3.84351e+12 -3.36897e+12 -4.32213e+12 -3.81475e+12 -6.12174e+12 -5.788e+12 -7.03805e+12 -5.56148e+12 -5.54511e+12 -4.93216e+12 -4.96369e+12 -3.24813e+12 -4.92036e+12 -5.63193e+12 -8.49755e+12 -4.86545e+12 -4.93566e+12 -5.86718e+12 -3.426e+12 -5.67976e+12 -3.75484e+12 -7.45162e+12 -4.69629e+12 -5.99931e+12 -5.914e+12 -5.66897e+12 -4.77953e+12 -3.9895e+12 -4.28157e+12 -3.85868e+12 -7.86952e+12 -2.97666e+12 -3.91245e+12 -2.21834e+12 -2.02869e+12 -1.94215e+12 -4.1062e+12 -5.92917e+12 -6.06065e+12 -7.01064e+12 -8.01195e+12 -4.22093e+12 -4.10214e+12 -7.2724e+12 -6.10814e+12 -4.78165e+12 -4.07367e+12 -3.47843e+12 -4.26269e+12 -4.68079e+12 -3.81659e+12 -4.1197e+12 -1.75188e+12 -4.02642e+12 -5.05545e+12 -3.15218e+12 -5.20546e+12 -1.43331e+12 -4.48287e+12 -5.66081e+12 -5.09404e+12 -3.49217e+12 -4.46483e+12 -1.83971e+12 -4.25599e+12 -4.35202e+12 -6.62066e+12 -5.04294e+12 -3.71196e+12 -4.54875e+12 -5.90434e+12 -1.31807e+12 -3.40257e+12 -3.44154e+12 -6.83071e+12 -4.33451e+12 -6.44595e+12 -1.83041e+12 -3.15572e+12 -3.29948e+12 -6.69743e+12 -3.22498e+12 -4.27446e+12 -1.74718e+12 -1.91886e+12 -2.89111e+12 -2.79806e+12 -4.10061e+12 -3.25489e+12 -2.79304e+12 -2.82055e+12 -1.67295e+12 -4.0493e+12 -2.87134e+12 -3.43977e+12 -1.46741e+12 -1.34064e+12 -2.83473e+12 -2.19659e+12 -3.55672e+12 -3.39564e+12 -1.4762e+12 -3.05511e+12 -4.347e+12 -3.52142e+12 -2.01612e+12 -1.44224e+12 -2.80601e+12 -2.73492e+12 -4.15544e+12 -3.3086e+12 -3.54055e+12 -1.98907e+12 -3.85402e+12 -2.55556e+12 -4.79702e+12 -3.85122e+12 -4.71535e+12 -3.34026e+12 -3.10535e+12 -3.42128e+12 -5.37507e+12 -3.89096e+12 -3.98135e+12 -1.09678e+12 -4.35985e+12 -5.65e+12 -5.75971e+12 -2.88803e+12 -3.8429e+12 -2.69946e+12 -2.1032e+12 -3.34394e+12 -4.35999e+12 -2.82114e+12 -2.26598e+12 -4.68611e+12 -1.47115e+12 -2.59665e+12 -4.76697e+12 -2.66577e+12 -4.86394e+12 -5.66352e+12 -2.40283e+12 -2.8772e+12 -3.48995e+12 -2.46424e+12 -2.91962e+12 -4.4844e+12 -5.958e+12 -4.40849e+12 -6.22798e+12 -4.4507e+12 -5.51344e+12 -4.82945e+12 -3.77724e+12 -5.19873e+12 -5.31373e+12 -5.08708e+12 -5.29087e+12 -3.44279e+12 -4.38417e+12 -7.87441e+12 -3.95608e+12 -4.37797e+12 -3.69355e+12 -4.65506e+12 -6.76641e+12 -7.22523e+12 -3.58389e+12 -5.50909e+12 -4.86081e+12 -6.15671e+12 -5.14149e+12 -3.66948e+12 -3.92739e+12 -3.13737e+12 -5.75024e+12 -6.76789e+12 -3.8876e+12 -2.36649e+12 -3.26562e+12 -4.85066e+12 -5.28619e+12 -4.87624e+12 -6.15532e+12 -3.56045e+12 -3.91936e+12 -4.91599e+12 -7.91468e+12 -5.32464e+12 -3.19387e+12 -4.75894e+12 -5.02252e+12 -2.95952e+12 -3.17029e+12 -4.71804e+12 -4.0138e+12 -4.79663e+12 -3.15819e+12 -4.24173e+12 -4.02e+12 -5.21449e+12 -3.40509e+12 -3.49517e+12 -4.16108e+12 -3.49367e+12 -4.63378e+12 -3.65802e+12 -4.61705e+12 -4.12131e+12 -4.2946e+12 -2.57007e+12 -2.78916e+12 -4.16821e+12 -3.54772e+12 -3.72381e+12 -2.41707e+12 -2.68151e+12 -2.28978e+12 -2.48316e+12 -2.82467e+12 -1.43742e+12 -2.6183e+12 -2.50949e+12 -2.50266e+12 -2.17774e+12 -2.5715e+12 -1.69517e+12 -2.14912e+12 -2.69257e+12 -4.12603e+12 -1.24821e+12 -2.46193e+12 -2.61767e+12 -1.16637e+12 -558823000000.0 -2.0253e+12 -2.05246e+12 -3.22885e+12 -867228000000.0 -901670000000.0 -1.35424e+12 -1.00378e+12 -983549000000.0 -1.80173e+12 -1.7229e+12 -2.00726e+12 -1.89421e+12 -1.68914e+12 -1.95176e+12 -1.85375e+12 -1.82481e+12 -2.90733e+12 -3.25175e+12 -1.17019e+12 -3.89808e+12 -4.36105e+12 -2.37573e+12 -2.07462e+12 -1.20936e+12 -1.80419e+12 -2.91867e+12 -3.35037e+12 -2.47184e+12 -2.46979e+12 -3.44274e+12 -3.0145e+12 -3.63313e+12 -2.50294e+12 -5.58784e+12 -3.70436e+12 -4.05177e+12 -1.79976e+12 -2.51314e+12 -1.83889e+12 -3.06025e+12 -2.15749e+12 -1.93268e+12 -3.58899e+12 -3.2096e+12 -2.35307e+12 -4.21221e+12 -3.41676e+12 -5.42869e+12 -2.38783e+12 -2.27315e+12 -4.92061e+12 -4.79455e+12 -4.02402e+12 -2.40756e+12 -4.83198e+12 -4.18023e+12 -4.28476e+12 -5.55674e+12 -3.49605e+12 -5.82581e+12 -4.8463e+12 -7.02844e+12 -2.78965e+12 -2.61708e+12 -3.05183e+12 -3.05455e+12 -5.36956e+12 -3.35824e+12 -3.86529e+12 -4.1321e+12 -5.69622e+12 -3.04208e+12 -3.28786e+12 -4.58889e+12 -5.04281e+12 -2.98608e+12 -4.09136e+12 -5.27216e+12 -5.98338e+12 -4.74395e+12 -3.6458e+12 -3.88095e+12 -3.45141e+12 -2.25232e+12 -4.9193e+12 -4.18722e+12 -3.76032e+12 -1.52397e+12 -3.59581e+12 -2.33005e+12 -3.98199e+12 -3.56433e+12 -4.61251e+12 -2.60381e+12 -4.37557e+12 -4.83232e+12 -5.47526e+12 -3.90415e+12 -4.08621e+12 -4.52027e+12 -3.0811e+12 -2.5397e+12 -3.89567e+12 -8.3888e+12 -3.51001e+12 -3.02028e+12 -4.42526e+12 -4.22803e+12 -3.17817e+12 -2.09541e+12 -2.86563e+12 -3.96746e+12 -3.14885e+12 -2.25623e+12 -3.00676e+12 -3.05337e+12 -1.88691e+12 -2.72005e+12 -2.59518e+12 -1.9799e+12 -1.9034e+12 -2.33503e+12 -3.48424e+12 -3.296e+12 -2.18474e+12 -1.66477e+12 -1.68228e+12 -1.33859e+12 -2.09503e+12 -1.92864e+12 -2.13783e+12 -3.20876e+12 -1.90082e+12 -1.86864e+12 -1.52665e+12 -2.73578e+12 -1.1834e+12 -1.25826e+12 -1.56453e+12 -2.07809e+12 -1.38292e+12 -1.59777e+12 -1.50843e+12 -1.74557e+12 -747862000000.0 -2.06404e+12 -765192000000.0 -1.10772e+12 -564883000000.0 -2.34567e+12 -855860000000.0 -1.09778e+12 -1.18253e+12 -4.11418e+12 -1.19561e+12 -1.15539e+12 -1.94293e+12 -1.99924e+12 -1.76083e+12 -3.34812e+12 -1.76921e+12 -3.23285e+12 -3.53118e+12 -3.18465e+12 -1.84482e+12 -2.22052e+12 -3.32531e+12 -1.56515e+12 -2.25239e+12 -3.99758e+12 -3.38422e+12 -2.33706e+12 -2.4519e+12 -2.54708e+12 -2.17557e+12 -4.7342e+12 -3.85333e+12 -2.73384e+12 -1.84722e+12 -939970000000.0 -3.65462e+12 -3.27331e+12 -3.65225e+12 -1.41522e+12 -2.82227e+12 -2.72862e+12 -2.57789e+12 -1.56992e+12 -2.21269e+12 -4.62437e+12 -1.68675e+12 -2.96837e+12 -4.45937e+12 -4.24782e+12 -2.24147e+12 -4.03211e+12 -3.08594e+12 -3.48104e+12 -1.3815e+12 -3.733e+12 -3.09745e+12 -3.65679e+12 -4.88751e+12 -2.72305e+12 -5.93604e+12 -3.56591e+12 -3.20592e+12 -5.86702e+12 -4.20798e+12 -4.14294e+12 -4.9313e+12 -3.31719e+12 -2.91905e+12 -1.60492e+12 -4.05154e+12 -2.9872e+12 -2.92272e+12 -6.00955e+12 -1.99389e+12 -2.65732e+12 -4.06354e+12 -5.12326e+12 -3.95397e+12 -3.2741e+12 -3.47876e+12 -3.57305e+12 -5.60173e+12 -6.64588e+12 -3.14701e+12 -855487000000.0 -3.81902e+12 -3.89352e+12 -2.11631e+12 -1.87008e+12 -2.68808e+12 -1.59791e+12 -2.16654e+12 -2.05781e+12 -3.07109e+12 -4.80175e+12 -1.74832e+12 -2.4115e+12 -2.74534e+12 -2.08991e+12 -1.93908e+12 -1.36053e+12 -2.68313e+12 -3.82983e+12 -2.63174e+12 -838513000000.0 -1.75476e+12 -1.84403e+12 -4.86005e+12 -313781000000.0 -1.84308e+12 -1.28923e+12 -1.34586e+12 -2.53484e+12 -2.21924e+12 -334452000000.0 -2.3119e+12 -968979000000.0 -654458000000.0 -911034000000.0 -2.12062e+12 -1.31452e+12 -1.18706e+12 -675860000000.0 -646396000000.0 -499560000000.0 -1.85761e+12 -1.18903e+12 -704063000000.0 -606681000000.0 -1.19736e+12 -1.04399e+12 -1.09718e+12 -701114000000.0 -1.41214e+12 -1.58281e+12 -404689000000.0 -1.11105e+12 -1.60453e+12 -2.471e+12 -1.74551e+12 -1.69953e+12 -539817000000.0 -1.84003e+12 -1.47575e+12 -1.24703e+12 -1.07591e+12 -1.88946e+12 -1.51671e+12 -3.38034e+12 -2.60607e+12 -1.73375e+12 -2.05482e+12 -1.25898e+12 -2.93915e+12 -4.1156e+12 -1.95438e+12 -1.11252e+12 -2.5467e+12 -1.63307e+12 -4.29771e+12 -3.00264e+12 -1.98389e+12 -2.0432e+12 -4.62624e+12 -2.69408e+12 -1.85344e+12 -3.71818e+12 -1.52158e+12 -3.60573e+12 -4.26341e+12 -2.67739e+12 -1.35409e+12 -2.56303e+12 -2.72065e+12 -3.01883e+12 -2.44498e+12 -3.5253e+12 -6.38177e+12 -3.7561e+12 -3.52843e+12 -3.23698e+12 -2.4272e+12 -2.36286e+12 -1.62325e+12 -1.92415e+12 -5.71537e+12 -4.05125e+12 -1.7804e+12 -2.09144e+12 -5.20685e+12 -2.30416e+12 -3.02672e+12 -2.67168e+12 -394771000000.0 -1.89739e+12 -1.98297e+12 -2.0282e+12 -1.06168e+12 -2.18783e+12 -1.66013e+12 -3.96139e+12 -3.88839e+12 -2.24608e+12 -3.61421e+12 -2.06199e+12 -2.8487e+12 -2.34817e+12 -2.28895e+12 -2.35167e+12 -1.80627e+12 -1.29757e+12 -2.63826e+12 -1.2566e+12 -1.68416e+12 -3.20376e+12 -3.22614e+12 -1.78691e+12 -1.15394e+12 -2.055e+12 -2.04137e+12 -2.02138e+12 -1.51322e+12 -2.48227e+12 -3.14938e+12 -1.3486e+12 -1.42982e+12 -763907000000.0 -400826000000.0 -1.31484e+12 -1.45002e+12 -1.29032e+12 -1.37183e+12 -369039000000.0 -496504000000.0 -590684000000.0 -604250000000.0 -1.31157e+12 -595170000000.0 -738766000000.0 -482496000000.0 -374286000000.0 -272560000000.0 -384580000000.0 -140814000000.0 -518334000000.0 -341524000000.0 -389293000000.0 -513750000000.0 -366749000000.0 -1.14808e+12 -1.13929e+12 -516974000000.0 -848997000000.0 -887222000000.0 -541761000000.0 -968210000000.0 -1.90593e+12 -936159000000.0 -1.43891e+12 -2.75329e+12 -3.49235e+12 -1.7052e+12 -2.39209e+12 -1.81524e+12 -1.25965e+12 -2.04732e+12 -1.82255e+12 -1.89953e+12 -3.64204e+12 -2.58205e+12 -1.86656e+12 -2.30631e+12 -2.30641e+12 -1.63361e+12 -3.65495e+12 -2.93567e+12 -2.08521e+12 -3.85722e+12 -2.68104e+12 -2.56425e+12 -4.40692e+12 -3.18196e+12 -2.34018e+12 -2.65586e+12 -3.33323e+12 -2.8048e+12 -2.21631e+12 -4.67184e+12 -1.80514e+12 -3.99094e+12 -2.61859e+12 -2.9094e+12 -3.8912e+12 -3.0149e+12 -2.20716e+12 -2.75487e+12 -2.96962e+12 -2.12973e+12 -2.78184e+12 -1.29354e+12 -3.41894e+12 -1.2414e+12 -3.24595e+12 -1.78939e+12 -1.86493e+12 -2.72263e+12 -1.42071e+12 -1.85266e+12 -2.65839e+12 -1.39404e+12 -1.25109e+12 -1.88422e+12 -2.00464e+12 -2.19456e+12 -1.54809e+12 -3.35705e+12 -1.04736e+12 -3.43632e+12 -1.55736e+12 -1.1898e+12 -3.0115e+12 -2.21861e+12 -2.29069e+12 -1.34174e+12 -1.50477e+12 -4.89272e+12 -2.66187e+12 -919451000000.0 -594765000000.0 -1.36142e+12 -1.16177e+12 -1.49476e+12 -2.02551e+12 -1.46466e+12 -1.64962e+12 -618032000000.0 -1.04748e+12 -1.18245e+12 -623875000000.0 -543788000000.0 -721074000000.0 -579396000000.0 -883925000000.0 -206814000000.0 -607959000000.0 -839708000000.0 -236471000000.0 -170904000000.0 -223400000000.0 -279639000000.0 -250676000000.0 -170075000000.0 -238833000000.0 -284618000000.0 -443912000000.0 -185679000000.0 -369532000000.0 -224238000000.0 -914119000000.0 -113297000000.0 -400510000000.0 -789588000000.0 -691671000000.0 -388983000000.0 -1.47999e+12 -1.17979e+12 -2.02248e+12 -1.37019e+12 -1.44442e+12 -1.33514e+12 -1.32201e+12 -2.27871e+12 -2.59674e+12 -1.4071e+12 -1.65549e+12 -1.34601e+12 -2.07824e+12 -1.46655e+12 -1.86319e+12 -1.10089e+12 -1.56197e+12 -3.43949e+12 -3.98265e+12 -1.75209e+12 -1.96657e+12 -1.66792e+12 -2.53087e+12 -1.59269e+12 -2.51559e+12 -2.43983e+12 -1.5718e+12 -1.07982e+12 -3.56125e+12 -1.23532e+12 -3.68097e+12 -1.92565e+12 -1.97037e+12 -1.90147e+12 -1.8897e+12 -4.35096e+12 -1.49298e+12 -1.69216e+12 -1.21847e+12 -2.68998e+12 -1.97267e+12 -920316000000.0 -2.19764e+12 -2.78336e+12 -1.5808e+12 -1.70379e+12 -2.51177e+12 -1.83941e+12 -856070000000.0 -2.89798e+12 -1.25246e+12 -646178000000.0 -1.67916e+12 -879109000000.0 -2.02385e+12 -1.56273e+12 -1.22954e+12 -1.91103e+12 -557491000000.0 -1.20448e+12 -1.49985e+12 -1.31604e+12 -2.29606e+12 -548615000000.0 -1.0883e+12 -852561000000.0 -967391000000.0 -394234000000.0 -862352000000.0 -316305000000.0 -224095000000.0 -381966000000.0 -273270000000.0 -240337000000.0 -316437000000.0 -138023000000.0 -226115000000.0 -544369000000.0 -219201000000.0 -1.63635e+12 -96824700000.0 -200088000000.0 -942021000000.0 -835439000000.0 -380435000000.0 -1.54195e+12 -904958000000.0 -242691000000.0 -914767000000.0 -861925000000.0 -925644000000.0 -1.10285e+12 -1.34607e+12 -1.07479e+12 -1.1472e+12 -1.7881e+12 -1.65094e+12 -1.94359e+12 -2.24096e+12 -696579000000.0 -2.25557e+12 -2.6808e+12 -3.01986e+12 -1.25512e+12 -1.29675e+12 -1.55839e+12 -1.3075e+12 -394982000000.0 -1.53022e+12 -2.0855e+12 -2.47224e+12 -1.45936e+12 -2.06488e+12 -1.55376e+12 -811014000000.0 -1.27238e+12 -826762000000.0 -1.27405e+12 -789490000000.0 -892552000000.0 -867296000000.0 -1.04208e+12 -1.81681e+12 -824551000000.0 -720031000000.0 -724880000000.0 -1.87095e+12 -1.30058e+12 -775303000000.0 -918205000000.0 -1.02746e+12 -2.05717e+12 -1.31316e+12 -225273000000.0 -1.45318e+12 -1.05215e+12 -1.01027e+12 -651549000000.0 -983290000000.0 -535382000000.0 -459277000000.0 -1.17707e+12 -135059000000.0 -356573000000.0 -520614000000.0 -516303000000.0 -281929000000.0 -299273000000.0 -242394000000.0 -114721000000.0 -382862000000.0 -650646000000.0 -302255000000.0 -170010000000.0 -203208000000.0 -497112000000.0 -855737000000.0 -759272000000.0 -384679000000.0 -1.07145e+12 -1.21874e+12 -1.21827e+12 -1.3844e+12 -702860000000.0 -1.74845e+12 -1.11404e+12 -1.38707e+12 -453887000000.0 -878900000000.0 -816347000000.0 -1.01982e+12 -566941000000.0 -788032000000.0 -905703000000.0 -1.19876e+12 -910842000000.0 -411832000000.0 -1.50712e+12 -1.07892e+12 -488272000000.0 -1.03368e+12 -986738000000.0 -510288000000.0 -64810800000.0 -321819000000.0 -696799000000.0 -661019000000.0 -444441000000.0 -248119000000.0 -827474000000.0 -271718000000.0 -449247000000.0 -318491000000.0 -514181000000.0 -252874000000.0 -85785200000.0 -418962000000.0 -944209000000.0 -404103000000.0 -250951000000.0 -60414600000.0 -141199000000.0 -267945000000.0 -272193000000.0 -213397000000.0 -139642000000.0 -445504000000.0 -370844000000.0 -529939000000.0 -251502000000.0 -224959000000.0 -267656000000.0 -148572000000.0 -346438000000.0 -675240000000.0 -140017000000.0 -586648000000.0 -395390000000.0 -1.00208e+12 -793033000000.0 -249241000000.0 -450462000000.0 -781440000000.0 -1.16484e+12 -263315000000.0 -69489600000.0 -173738000000.0 -89242900000.0 -224283000000.0 -284881000000.0 -233009000000.0 -222928000000.0 