# vtk DataFile Version 2.0
Time step 70
ASCII
DATASET UNSTRUCTURED_GRID
POINTS 4650 float
209854.0 343068.0 0
290133.0 343071.0 0
202000.0 345513.0 0
206341.0 344977.0 0
212175.0 346307.0 0
215688.0 344402.0 0
223044.0 346138.0 0
236138.0 346169.0 0
242902.0 346147.0 0
248018.0 344416.0 0
252003.0 344430.0 0
257091.0 346194.0 0
263815.0 346182.0 0
276930.0 346163.0 0
284294.0 344413.0 0
287812.0 346311.0 0
293649.0 344975.0 0
298000.0 345507.0 0
204607.0 348580.0 0
208667.0 348221.0 0
215581.0 348381.0 0
219087.0 346492.0 0
226399.0 348250.0 0
232786.0 348300.0 0
239518.0 348260.0 0
246424.0 348041.0 0
253562.0 348073.0 0
260463.0 348324.0 0
267156.0 348331.0 0
273573.0 348291.0 0
280894.0 346507.0 0
284408.0 348390.0 0
291323.0 348221.0 0
295392.0 348574.0 0
202000.0 351611.0 0
212094.0 350281.0 0
218972.0 350458.0 0
222914.0 350172.0 0
229571.0 350584.0 0
236161.0 350399.0 0
243034.0 350115.0 0
250000.0 349963.0 0
256940.0 350168.0 0
263805.0 350479.0 0
270374.0 350613.0 0
277086.0 350160.0 0
281024.0 350474.0 0
287899.0 350285.0 0
298000.0 351605.0 0
205188.0 354019.0 0
208654.0 352200.0 0
212051.0 354268.0 0
215481.0 352346.0 0
222732.0 354387.0 0
226153.0 352464.0 0
232895.0 352613.0 0
239664.0 352219.0 0
246548.0 351985.0 0
249978.0 353939.0 0
253424.0 352022.0 0
260289.0 352294.0 0
267061.0 352700.0 0
273833.0 352429.0 0
277263.0 354351.0 0
284515.0 352357.0 0
287946.0 354274.0 0
291342.0 352201.0 0
294814.0 354015.0 0
201994.0 356269.0 0
208658.0 356187.0 0
215422.0 356323.0 0
218843.0 354389.0 0
226125.0 356418.0 0
229574.0 354694.0 0
236345.0 354381.0 0
239823.0 356148.0 0
243158.0 354045.0 0
246594.0 355933.0 0
253337.0 355983.0 0
256786.0 354116.0 0
260087.0 356245.0 0
263587.0 354469.0 0
270355.0 354810.0 0
273874.0 356379.0 0
281154.0 354407.0 0
284575.0 356336.0 0
291341.0 356188.0 0
298005.0 356272.0 0
205402.0 358282.0 0
212043.0 358288.0 0
218832.0 358293.0 0
222762.0 358358.0 0
229803.0 358861.0 0
233025.0 356575.0 0
236536.0 358297.0 0
243257.0 357963.0 0
249953.0 357907.0 0
256632.0 358071.0 0
263340.0 358403.0 0
266885.0 356676.0 0
270089.0 358996.0 0
277232.0 358328.0 0
281165.0 358315.0 0
287957.0 358293.0 0
294597.0 358286.0 0
201994.0 360214.0 0
208821.0 360468.0 0
215478.0 360291.0 0
220731.0 361674.0 0
226222.0 360325.0 0
233352.0 360498.0 0
239970.0 360055.0 0
246624.0 359876.0 0
249894.0 361881.0 0
253234.0 359952.0 0
259870.0 360192.0 0
266504.0 360604.0 0
273757.0 360283.0 0
279215.0 361674.0 0
284523.0 360306.0 0
291173.0 360479.0 0
298006.0 360217.0 0
201993.0 364126.0 0
205390.0 362208.0 0
212245.0 362438.0 0
217454.0 363698.0 0
224137.0 363502.0 0
230585.0 363074.0 0
236775.0 362223.0 0
240120.0 363962.0 0
243338.0 361860.0 0
246613.0 363825.0 0
253075.0 363933.0 0
256453.0 362032.0 0
259634.0 364145.0 0
263044.0 362353.0 0
269343.0 363103.0 0
275799.0 363502.0 0
282501.0 363695.0 0
287752.0 362458.0 0
294609.0 362211.0 0
298007.0 364128.0 0
205418.0 366056.0 0
208972.0 364533.0 0
214261.0 365808.0 0
220931.0 365584.0 0
227538.0 365276.0 0
230997.0 367032.0 0
234115.0 364898.0 0
237619.0 366748.0 0
243383.0 365727.0 0
249722.0 365902.0 0
256259.0 365986.0 0
262319.0 366797.0 0
265814.0 364934.0 0
268938.0 367065.0 0
272399.0 365293.0 0
279018.0 365584.0 0
285698.0 365810.0 0
291019.0 364561.0 0
294582.0 366060.0 0
201983.0 368001.0 0
211063.0 367885.0 0
217765.0 367647.0 0
221266.0 369500.0 0
224399.0 367412.0 0
227873.0 369188.0 0
234464.0 368829.0 0
241116.0 368613.0 0
246361.0 367904.0 0
249544.0 369857.0 0
252904.0 367890.0 0
258858.0 368691.0 0
265474.0 368880.0 0
272067.0 369206.0 0
275546.0 367417.0 0
278687.0 369503.0 0
282190.0 367648.0 0
288896.0 367897.0 0
298018.0 368002.0 0
202001.0 372342.0 0
205158.0 369807.0 0
208793.0 370898.0 0
212201.0 372527.0 0
214616.0 369721.0 0
218157.0 371566.0 0
224761.0 371314.0 0
231333.0 370953.0 0
237941.0 370642.0 0
241473.0 372418.0 0
245212.0 371613.0 0
255437.0 370618.0 0
258589.0 372614.0 0
262023.0 370731.0 0
268600.0 370993.0 0
275188.0 371319.0 0
281799.0 371572.0 0
285341.0 369728.0 0
287796.0 372507.0 0
291208.0 370885.0 0
294849.0 369813.0 0
297999.0 372355.0 0
197700.0 378733.0 0
200740.0 376837.0 0
205898.0 373341.0 0
209319.0 374822.0 0
215562.0 374164.0 0
221685.0 373412.0 0
228233.0 373092.0 0
231673.0 374863.0 0
234780.0 372730.0 0
238225.0 374486.0 0
245294.0 375625.0 0
248482.0 373640.0 0
252096.0 372607.0 0
255166.0 374537.0 0
261710.0 374652.0 0
265150.0 372809.0 0
268252.0 374907.0 0
271707.0 373111.0 0
278272.0 373418.0 0
284432.0 374141.0 0
290673.0 374812.0 0
294093.0 373343.0 0
299268.0 376843.0 0
302306.0 378736.0 0
194651.0 380644.0 0
200880.0 380031.0 0
203763.0 376027.0 0
212685.0 376466.0 0
218926.0 375801.0 0
222300.0 377469.0 0
225181.0 375226.0 0
228634.0 377009.0 0
235079.0 376623.0 0
241631.0 376228.0 0
247799.0 378597.0 0
251144.0 376464.0 0
254582.0 378333.0 0
258256.0 376512.0 0
264816.0 376721.0 0
271318.0 377019.0 0
274774.0 375227.0 0
277685.0 377446.0 0
281064.0 375778.0 0
287310.0 376450.0 0
296249.0 376012.0 0
299125.0 380040.0 0
305354.0 380647.0 0
191594.0 382559.0 0
194782.0 384070.0 0
197820.0 382072.0 0
201120.0 383213.0 0
204120.0 379942.0 0
206884.0 377535.0 0
210046.0 378975.0 0
213282.0 380437.0 0
216057.0 378081.0 0
219410.0 379726.0 0
225685.0 379186.0 0
232043.0 378790.0 0
238431.0 378352.0 0
241753.0 379963.0 0
251241.0 380368.0 0
257895.0 380325.0 0
261379.0 378542.0 0
267894.0 378816.0 0
274300.0 379174.0 0
280586.0 379704.0 0
283939.0 378063.0 0
286721.0 380423.0 0
289958.0 378962.0 0
293122.0 377520.0 0
295884.0 379929.0 0
298891.0 383222.0 0
302187.0 382076.0 0
305225.0 384074.0 0
308410.0 382562.0 0
188519.0 384486.0 0
191723.0 386034.0 0
198082.0 385416.0 0
201436.0 386542.0 0
207249.0 381423.0 0
210461.0 382848.0 0
216554.0 382013.0 0
222760.0 381403.0 0
226113.0 383125.0 0
229071.0 380955.0 0
232460.0 382740.0 0
235413.0 380561.0 0
238755.0 382269.0 0
245015.0 381290.0 0
254567.0 382224.0 0
261074.0 382403.0 0
264483.0 380616.0 0
267534.0 382728.0 0
270916.0 380945.0 0
273894.0 383106.0 0
277240.0 381382.0 0
283449.0 381996.0 0
289546.0 382837.0 0
292757.0 381413.0 0
298572.0 386546.0 0
301927.0 385423.0 0
308281.0 386040.0 0
311483.0 384488.0 0
182337.0 388348.0 0
185442.0 386412.0 0
188684.0 388030.0 0
195014.0 387488.0 0
198357.0 388808.0 0
204372.0 383833.0 0
207571.0 385234.0 0
213691.0 384337.0 0
219852.0 383644.0 0
223167.0 385319.0 0
229477.0 384883.0 0
235874.0 384526.0 0
242065.0 383816.0 0
245270.0 385201.0 0
248239.0 382732.0 0
251425.0 384334.0 0
254522.0 386175.0 0
257747.0 384232.0 0
264159.0 384514.0 0
270542.0 384864.0 0
276846.0 385299.0 0
280155.0 383625.0 0
286317.0 384324.0 0
292439.0 385226.0 0
295637.0 383824.0 0
301653.0 388815.0 0
304994.0 387496.0 0
311322.0 388030.0 0
314562.0 386414.0 0
317673.0 388353.0 0
178835.0 390504.0 0
185657.0 389950.0 0
189015.0 391614.0 0
191971.0 389524.0 0
195318.0 390942.0 0
201654.0 390049.0 0
204653.0 387611.0 0
210788.0 386677.0 0
214021.0 388187.0 0
216945.0 385907.0 0
220224.0 387533.0 0
226499.0 387035.0 0
232864.0 386656.0 0
239348.0 386299.0 0
242879.0 388075.0 0
248356.0 386646.0 0
251330.0 388258.0 0
257536.0 388184.0 0
260825.0 386324.0 0
267189.0 386640.0 0
273526.0 387016.0 0
279791.0 387517.0 0
283065.0 385893.0 0
285991.0 388178.0 0
289222.0 386669.0 0
295356.0 387608.0 0
298355.0 390053.0 0
304694.0 390951.0 0
308038.0 389531.0 0
311001.0 391615.0 0
314356.0 389943.0 0
321152.0 390497.0 0
175501.0 392593.0 0
178412.0 393721.0 0
181678.0 391536.0 0
184301.0 392943.0 0
192394.0 393047.0 0
195698.0 394486.0 0
198638.0 392306.0 0
201904.0 393651.0 0
207852.0 389010.0 0
211073.0 390475.0 0
217275.0 389763.0 0
223524.0 389204.0 0
226844.0 390912.0 0
229851.0 388782.0 0
233224.0 390542.0 0
236283.0 388422.0 0
239731.0 390179.0 0
246423.0 389889.0 0
249924.0 391779.0 0
254230.0 390092.0 0
260518.0 390267.0 0
263850.0 388439.0 0
266865.0 390551.0 0
270196.0 388769.0 0
273193.0 390901.0 0
276499.0 389188.0 0
282740.0 389751.0 0
288939.0 390469.0 0
292158.0 389006.0 0
298106.0 393654.0 0
301371.0 392311.0 0
304312.0 394492.0 0
307625.0 393056.0 0
315671.0 392950.0 0
318302.0 391543.0 0
321579.0 393715.0 0
324492.0 392588.0 0
168942.0 396700.0 0
172205.0 394657.0 0
175165.0 395853.0 0
181250.0 394998.0 0
184125.0 396459.0 0
186981.0 394251.0 0
189918.0 395395.0 0
198957.0 395901.0 0
202178.0 397315.0 0
204884.0 391328.0 0
208103.0 392757.0 0
211337.0 394244.0 0
214314.0 392001.0 0
217576.0 393585.0 0
220551.0 391390.0 0
223844.0 393060.0 0
230178.0 392656.0 0
236610.0 392300.0 0
243185.0 391950.0 0
246612.0 393768.0 0
253350.0 393771.0 0
257135.0 392099.0 0
263532.0 392355.0 0
269881.0 392659.0 0
276185.0 393048.0 0
279470.0 391377.0 0
282443.0 393577.0 0
285702.0 391994.0 0
288676.0 394241.0 0
291908.0 392755.0 0
295126.0 391328.0 0
297828.0 397320.0 0
301050.0 395908.0 0
310075.0 395422.0 0
312997.0 394271.0 0
315865.0 396463.0 0
318737.0 394994.0 0
324829.0 395850.0 0
327792.0 394655.0 0
331056.0 396698.0 0
165712.0 398722.0 0
171937.0 397958.0 0
174947.0 399208.0 0
178117.0 397094.0 0
181081.0 398466.0 0
187142.0 397796.0 0
192986.0 396760.0 0
196124.0 398163.0 0
205129.0 395033.0 0
208352.0 396490.0 0
214592.0 395785.0 0
220858.0 395221.0 0
227147.0 394763.0 0
233512.0 394418.0 0
239997.0 394056.0 0
243376.0 395835.0 0
249978.0 395669.0 0
256630.0 395856.0 0
260153.0 394157.0 0
266572.0 394446.0 0
272892.0 394761.0 0
279166.0 395212.0 0
285424.0 395781.0 0
291659.0 396492.0 0
294881.0 395035.0 0
303875.0 398173.0 0
307010.0 396772.0 0
312855.0 397815.0 0
318914.0 398462.0 0
321876.0 397088.0 0
325048.0 399205.0 0
328059.0 397956.0 0
334287.0 398721.0 0
162515.0 400723.0 0
168733.0 400039.0 0
171777.0 401328.0 0
177969.0 400514.0 0
181038.0 401902.0 0
184128.0 399904.0 0
187229.0 401293.0 0
190190.0 399069.0 0
193276.0 400437.0 0
199279.0 399589.0 0
202444.0 401024.0 0
205384.0 398750.0 0
208594.0 400224.0 0
211589.0 397993.0 0
214849.0 399541.0 0
217876.0 397383.0 0
221199.0 399039.0 0
224146.0 396899.0 0
227410.0 398604.0 0
230439.0 396523.0 0
233681.0 398303.0 0
236838.0 396177.0 0
237015.0 400037.0 0
240185.0 397934.0 0
243497.0 399740.0 0
246708.0 397677.0 0
249980.0 399601.0 0
253257.0 397666.0 0
256475.0 399732.0 0
259825.0 397960.0 0
262993.0 400050.0 0
263243.0 396230.0 0
266367.0 398328.0 0
269612.0 396537.0 0
272623.0 398607.0 0
275883.0 396891.0 0
278825.0 399031.0 0
282143.0 397377.0 0
285165.0 399539.0 0
288423.0 397993.0 0
291414.0 400228.0 0
294623.0 398754.0 0
297558.0 401032.0 0
300723.0 399598.0 0
306719.0 400451.0 0
309804.0 399091.0 0
312768.0 401307.0 0
315871.0 399909.0 0
318960.0 401900.0 0
322027.0 400510.0 0
328220.0 401327.0 0
331265.0 400038.0 0
337484.0 400722.0 0
159351.0 402704.0 0
162418.0 404138.0 0
165558.0 402100.0 0
168627.0 403439.0 0
171712.0 404757.0 0
174835.0 402620.0 0
177923.0 403944.0 0
184163.0 403340.0 0
190340.0 402666.0 0
193452.0 404086.0 0
196387.0 401854.0 0
199517.0 403297.0 0
205619.0 402481.0 0
211822.0 401730.0 0
218135.0 401137.0 0
224594.0 400752.0 0
230481.0 400432.0 0
233847.0 402122.0 0
240317.0 401825.0 0
246762.0 401612.0 0
253202.0 401599.0 0
259661.0 401819.0 0
266154.0 402122.0 0
269554.0 400448.0 0
275434.0 400741.0 0
281880.0 401134.0 0
288186.0 401733.0 0
294383.0 402489.0 0
300481.0 403307.0 0
303611.0 401866.0 0
306544.0 404099.0 0
309656.0 402683.0 0
315835.0 403344.0 0
322075.0 403941.0 0
325162.0 402618.0 0
328286.0 404756.0 0
331371.0 403438.0 0
334440.0 402100.0 0
337581.0 404138.0 0
340648.0 402703.0 0
153091.0 406620.0 0
156212.0 404668.0 0
159308.0 406145.0 0
165512.0 405533.0 0
168623.0 406899.0 0
174814.0 406072.0 0
181058.0 405327.0 0
184231.0 406786.0 0
187313.0 404787.0 0
190458.0 406246.0 0
196572.0 405541.0 0
202661.0 404753.0 0
208811.0 403959.0 0
212025.0 405459.0 0
215074.0 403276.0 0
221450.0 402777.0 0
224804.0 404400.0 0
230648.0 404129.0 0
237153.0 403904.0 0
243576.0 403665.0 0
249982.0 403552.0 0
256390.0 403648.0 0
262828.0 403895.0 0
269336.0 404129.0 0
275198.0 404383.0 0
278564.0 402770.0 0
284934.0 403277.0 0
287977.0 405465.0 0
291192.0 403967.0 0
297337.0 404763.0 0
303423.0 405553.0 0
309539.0 406259.0 0
312686.0 404797.0 0
315768.0 406790.0 0
318941.0 405327.0 0
325184.0 406071.0 0
331375.0 406899.0 0
334487.0 405533.0 0
340691.0 406145.0 0
343787.0 404668.0 0
346908.0 406620.0 0
146832.0 410533.0 0
156218.0 408128.0 0
159377.0 409627.0 0
162433.0 407602.0 0
165578.0 409023.0 0
171745.0 408242.0 0
174878.0 409566.0 0
177947.0 407386.0 0
181127.0 408755.0 0
187415.0 408297.0 0
193594.0 407731.0 0
199701.0 407014.0 0
202839.0 408496.0 0
205817.0 406223.0 0
208992.0 407694.0 0
215261.0 407000.0 0
218345.0 404871.0 0
221618.0 406510.0 0
224747.0 408290.0 0
227799.0 406265.0 0
230971.0 408048.0 0
233997.0 405953.0 0
237255.0 407796.0 0
240409.0 405733.0 0
243626.0 407606.0 0
246795.0 405563.0 0
249984.0 407516.0 0
253170.0 405551.0 0
256341.0 407587.0 0
259560.0 405715.0 0
262715.0 407777.0 0
265980.0 405942.0 0
269013.0 408030.0 0
272194.0 406240.0 0
275245.0 408269.0 0
278381.0 406499.0 0
281661.0 404868.0 0
284740.0 407003.0 0
291006.0 407704.0 0
294180.0 406233.0 0
297155.0 408507.0 0
300294.0 407026.0 0
306402.0 407742.0 0
312584.0 408306.0 0
318872.0 408756.0 0
322052.0 407385.0 0
325120.0 409566.0 0
328253.0 408242.0 0
334420.0 409024.0 0
337566.0 407602.0 0
340622.0 409628.0 0
343781.0 408128.0 0
353168.0 410532.0 0
143666.0 412511.0 0
149969.0 408572.0 0
153121.0 410077.0 0
162564.0 411116.0 0
165773.0 412568.0 0
168737.0 410426.0 0
171894.0 411788.0 0
178041.0 410844.0 0
181254.0 412181.0 0
184341.0 410246.0 0
187539.0 411836.0 0
190581.0 409840.0 0
193728.0 411393.0 0
196728.0 409237.0 0
199867.0 410751.0 0
205985.0 409977.0 0
212190.0 409178.0 0
215406.0 410721.0 0
218500.0 408610.0 0
221671.0 410339.0 0
227897.0 410127.0 0
234153.0 409875.0 0
240467.0 409662.0 0
246814.0 409525.0 0
253155.0 409514.0 0
259501.0 409640.0 0
265822.0 409852.0 0
272088.0 410100.0 0
278319.0 410323.0 0
281497.0 408605.0 0
284589.0 410724.0 0
287806.0 409186.0 0
294009.0 409988.0 0
300126.0 410762.0 0
303267.0 409248.0 0
306268.0 411403.0 0
309416.0 409850.0 0
312459.0 411843.0 0
315658.0 410250.0 0
318745.0 412182.0 0
321958.0 410844.0 0
328105.0 411789.0 0
331262.0 410427.0 0
334226.0 412570.0 0
337435.0 411117.0 0
346878.0 410077.0 0
350030.0 408572.0 0
356333.0 412511.0 0
140481.0 414503.0 0
146843.0 413959.0 0
150001.0 412019.0 0
153219.0 413539.0 0
156313.0 411610.0 0
159540.0 413136.0 0
168993.0 414017.0 0
172204.0 415396.0 0
175056.0 413107.0 0
178228.0 414326.0 0
184480.0 413725.0 0
190695.0 413467.0 0
196883.0 412950.0 0
203011.0 412261.0 0
206152.0 413757.0 0
209144.0 411429.0 0
212327.0 412888.0 0
218590.0 412388.0 0
224807.0 412156.0 0
231046.0 411953.0 0
237328.0 411729.0 0
243651.0 411559.0 0
249985.0 411485.0 0
256318.0 411540.0 0
262644.0 411704.0 0
268933.0 411926.0 0
275177.0 412132.0 0
281400.0 412379.0 0
287665.0 412898.0 0
290849.0 411442.0 0
293837.0 413770.0 0
296981.0 412273.0 0
303112.0 412960.0 0
309303.0 413476.0 0
315519.0 413729.0 0
321771.0 414326.0 0
324943.0 413108.0 0
327795.0 415398.0 0
331006.0 414020.0 0
340459.0 413137.0 0
343686.0 411611.0 0
346780.0 413539.0 0
349998.0 412019.0 0
353157.0 413959.0 0
359519.0 414503.0 0
137290.0 416500.0 0
140453.0 417965.0 0
143653.0 415941.0 0
146898.0 417368.0 0
150079.0 415461.0 0
156476.0 415109.0 0
159763.0 416652.0 0
162799.0 414667.0 0
166081.0 416139.0 0
175400.0 416725.0 0
178552.0 417870.0 0
181432.0 415612.0 0
184543.0 417252.0 0
187631.0 415419.0 0
193852.0 415072.0 0
197057.0 416672.0 0
200055.0 414513.0 0
203234.0 416065.0 0
209294.0 415168.0 0
215508.0 414450.0 0
218626.0 416185.0 0
221718.0 414179.0 0
224797.0 416041.0 0
227924.0 414011.0 0
231034.0 415865.0 0
234187.0 413800.0 0
237330.0 415667.0 0
240494.0 413609.0 0
243655.0 415516.0 0
246821.0 413490.0 0
249988.0 415453.0 0
253151.0 413480.0 0
256319.0 415498.0 0
259478.0 413585.0 0
262644.0 415640.0 0
265788.0 413772.0 0
268943.0 415834.0 0
272056.0 413981.0 0
275181.0 416013.0 0
278266.0 414159.0 0
281357.0 416172.0 0
284481.0 414452.0 0
290694.0 415184.0 0
296757.0 416075.0 0
299939.0 414522.0 0
302939.0 416679.0 0
306144.0 415080.0 0
312368.0 415426.0 0
315456.0 417256.0 0
318567.0 415613.0 0
321447.0 417870.0 0
324598.0 416726.0 0
333917.0 416142.0 0
337200.0 414669.0 0
340236.0 416653.0 0
343523.0 415110.0 0
349920.0 415461.0 0
353101.0 417368.0 0
356346.0 415941.0 0
359547.0 417965.0 0
362710.0 416500.0 0
130962.0 420464.0 0
134111.0 418490.0 0
137270.0 420008.0 0
143682.0 419360.0 0
146982.0 420746.0 0
153359.0 416993.0 0
156674.0 418624.0 0
163087.0 418238.0 0
169399.0 417657.0 0
172766.0 419054.0 0
181466.0 419113.0 0
187609.0 419035.0 0
190760.0 417124.0 0
193945.0 418736.0 0
200314.0 418297.0 0
206401.0 417596.0 0
209518.0 418927.0 0
212448.0 416593.0 0
215530.0 418195.0 0
221666.0 418049.0 0
227864.0 417916.0 0
234152.0 417726.0 0
240480.0 417555.0 0
246819.0 417451.0 0
253159.0 417442.0 0
259497.0 417531.0 0
265825.0 417696.0 0
272112.0 417885.0 0
278310.0 418025.0 0
284451.0 418196.0 0
287538.0 416607.0 0
290464.0 418947.0 0
293586.0 417611.0 0
299682.0 418304.0 0
306053.0 418743.0 0
309239.0 417132.0 0
312390.0 419042.0 0
318534.0 419114.0 0
327232.0 419057.0 0
330598.0 417661.0 0
336912.0 418241.0 0
343325.0 418625.0 0
346640.0 416993.0 0
353017.0 420746.0 0
356318.0 419360.0 0
362730.0 420008.0 0
365888.0 418490.0 0
369038.0 420464.0 0
124760.0 424348.0 0
134126.0 422060.0 0
140475.0 421442.0 0
143735.0 422771.0 0
150196.0 418903.0 0
153527.0 420432.0 0
160010.0 420159.0 0
163388.0 421846.0 0
166443.0 419684.0 0
169876.0 421318.0 0
176348.0 420439.0 0
180296.0 422167.0 0
184343.0 420779.0 0
187451.0 422609.0 0
190755.0 420792.0 0
197223.0 420359.0 0
203639.0 419908.0 0
207110.0 421566.0 0
212472.0 420343.0 0
218516.0 420012.0 0
224674.0 419946.0 0
230950.0 419779.0 0
237285.0 419599.0 0
243637.0 419467.0 0
249991.0 419412.0 0
256343.0 419450.0 0
262693.0 419572.0 0
269027.0 419748.0 0
275300.0 419917.0 0
281456.0 419994.0 0
287502.0 420361.0 0
292889.0 421572.0 0
296357.0 419915.0 0
302774.0 420365.0 0
309245.0 420801.0 0
312548.0 422618.0 0
315656.0 420784.0 0
319701.0 422168.0 0
323649.0 420441.0 0
330122.0 421322.0 0
333555.0 419687.0 0
336612.0 421851.0 0
339990.0 420160.0 0
346473.0 420433.0 0
349803.0 418903.0 0
356265.0 422771.0 0
359524.0 421442.0 0
365873.0 422060.0 0
375240.0 424347.0 0
121651.0 426290.0 0
127847.0 422418.0 0
131037.0 424101.0 0
137326.0 423557.0 0
140564.0 424959.0 0
147070.0 424072.0 0
150324.0 422358.0 0
153671.0 423821.0 0
156880.0 422183.0 0
160242.0 423615.0 0
166790.0 423134.0 0
173397.0 422533.0 0
177080.0 423923.0 0
183786.0 423979.0 0
187377.0 426055.0 0
194014.0 422348.0 0
197392.0 423998.0 0
200563.0 422043.0 0
203964.0 423604.0 0
210629.0 423454.0 0
215318.0 421960.0 0
218130.0 423826.0 0
221449.0 421938.0 0
224435.0 423838.0 0
227717.0 421821.0 0
230810.0 423680.0 0
234065.0 421643.0 0
237206.0 423519.0 0
240435.0 421491.0 0
243602.0 423403.0 0
246807.0 421401.0 0
249994.0 423356.0 0
253177.0 421393.0 0
256384.0 423388.0 0
259547.0 421469.0 0
262778.0 423492.0 0
265914.0 421613.0 0
269170.0 423650.0 0
272260.0 421791.0 0
275542.0 423811.0 0
278520.0 421913.0 0
281830.0 423803.0 0
284644.0 421960.0 0
289379.0 423454.0 0
296035.0 423610.0 0
299434.0 422049.0 0
302605.0 424002.0 0
305985.0 422353.0 0
312621.0 426066.0 0
316213.0 423984.0 0
322918.0 423926.0 0
326600.0 422534.0 0
333209.0 423137.0 0
339760.0 423616.0 0
343121.0 422185.0 0
346329.0 423822.0 0
349676.0 422359.0 0
352931.0 424072.0 0
359436.0 424959.0 0
362674.0 423557.0 0
368963.0 424101.0 0
372153.0 422417.0 0
378348.0 426289.0 0
118501.0 428256.0 0
124918.0 428008.0 0
127993.0 426113.0 0
134251.0 425689.0 0
137515.0 427161.0 0
143839.0 426186.0 0
147185.0 427319.0 0
150381.0 425877.0 0
153653.0 427047.0 0
156998.0 425854.0 0
160421.0 426824.0 0
163716.0 425564.0 0
167226.0 426327.0 0
170504.0 424995.0 0
174135.0 425862.0 0
180359.0 425659.0 0
183892.0 427247.0 0
190741.0 424469.0 0
194083.0 425861.0 0
200792.0 425806.0 0
204182.0 427218.0 0
207418.0 425343.0 0
210759.0 427302.0 0
214064.0 425363.0 0
221061.0 425784.0 0
227507.0 425700.0 0
233942.0 425543.0 0
240370.0 425411.0 0
246788.0 425335.0 0
253202.0 425327.0 0
259618.0 425390.0 0
266043.0 425515.0 0
272475.0 425672.0 0
278921.0 425763.0 0
285947.0 425348.0 0
289247.0 427309.0 0
292582.0 425350.0 0
295817.0 427223.0 0
299206.0 425813.0 0
305913.0 425862.0 0
309258.0 424482.0 0
316108.0 427254.0 0
319641.0 425660.0 0
325862.0 425861.0 0
329492.0 425000.0 0
332768.0 426329.0 0
336280.0 425570.0 0
339577.0 426823.0 0
343002.0 425858.0 0
346348.0 427047.0 0
349619.0 425879.0 0
352817.0 427318.0 0
356162.0 426186.0 0
362484.0 427162.0 0
365748.0 425690.0 0
372006.0 426113.0 0
375081.0 428007.0 0
381498.0 428255.0 0
115308.0 430250.0 0
118550.0 431868.0 0
121766.0 429922.0 0
125080.0 431656.0 0
131224.0 427809.0 0
134519.0 429366.0 0
140818.0 428550.0 0
144123.0 429622.0 0
147630.0 430311.0 0
151043.0 429578.0 0
158212.0 429550.0 0
161917.0 429734.0 0
165247.0 429236.0 0
168883.0 429202.0 0
172176.0 428479.0 0
177050.0 427757.0 0
180584.0 429015.0 0
186958.0 429545.0 0
190570.0 428294.0 0
197553.0 427577.0 0
207563.0 429168.0 0
214021.0 429127.0 0
217440.0 427432.0 0
224134.0 427679.0 0
230630.0 427557.0 0
237105.0 427419.0 0
243556.0 427322.0 0
249997.0 427283.0 0
256436.0 427308.0 0
262884.0 427395.0 0
269356.0 427528.0 0
275852.0 427652.0 0
282556.0 427398.0 0
285974.0 429106.0 0
292440.0 429177.0 0
302446.0 427582.0 0
309434.0 428314.0 0
313047.0 429549.0 0
319418.0 429010.0 0
322953.0 427760.0 0
327811.0 428483.0 0
331105.0 429203.0 0
334742.0 429240.0 0
338073.0 429731.0 0
341780.0 429552.0 0
348951.0 429580.0 0
352365.0 430309.0 0
355875.0 429623.0 0
359180.0 428551.0 0
365480.0 429366.0 0
368775.0 427809.0 0
374919.0 431655.0 0
378233.0 429922.0 0
381449.0 431868.0 0
384691.0 430249.0 0
108842.0 434288.0 0
112085.0 432263.0 0
115308.0 433856.0 0
121803.0 433537.0 0
125123.0 435178.0 0
128191.0 429877.0 0
131472.0 431552.0 0
137936.0 430794.0 0
141488.0 432238.0 0
145329.0 432878.0 0
154796.0 429964.0 0
163851.0 432780.0 0
167363.0 432477.0 0
171026.0 432077.0 0
174600.0 431094.0 0
178167.0 431155.0 0
183485.0 430564.0 0
188893.0 432405.0 0
192311.0 431815.0 0
194252.0 429187.0 0
197125.0 431236.0 0
200654.0 429730.0 0
204192.0 430661.0 0
214039.0 432745.0 0
217329.0 431256.0 0
220671.0 429542.0 0
223815.0 431501.0 0
227259.0 429547.0 0
230448.0 431407.0 0
233800.0 429421.0 0
236998.0 431301.0 0
240294.0 429313.0 0
243506.0 431223.0 0
246766.0 429250.0 0
250000.0 431191.0 0
253230.0 429243.0 0
256492.0 431210.0 0
259700.0 429293.0 0
262997.0 431277.0 0
266191.0 429394.0 0
269546.0 431378.0 0
272731.0 429519.0 0
276185.0 431472.0 0
279326.0 429513.0 0
282669.0 431227.0 0
285961.0 432726.0 0
295814.0 430661.0 0
299350.0 429738.0 0
302881.0 431242.0 0
305750.0 429183.0 0
307664.0 431826.0 0
311085.0 432402.0 0
316527.0 430577.0 0
321827.0 431157.0 0
325392.0 431103.0 0
328965.0 432082.0 0
332627.0 432480.0 0
336141.0 432781.0 0
345196.0 429962.0 0
354665.0 432877.0 0
358509.0 432239.0 0
362062.0 430795.0 0
368527.0 431553.0 0
371807.0 429877.0 0
374876.0 435176.0 0
378195.0 433536.0 0
384690.0 433856.0 0
387913.0 432262.0 0
391157.0 434288.0 0
105602.0 436314.0 0
112030.0 435868.0 0
118528.0 435498.0 0
121815.0 437145.0 0
128411.0 433716.0 0
134891.0 433011.0 0
138452.0 434325.0 0
143180.0 435515.0 0
149293.0 433019.0 0
152867.0 432882.0 0
156606.0 432955.0 0
160172.0 432837.0 0
169474.0 435554.0 0
173170.0 434887.0 0
176864.0 434098.0 0
181169.0 433209.0 0
185325.0 433111.0 0
194954.0 434441.0 0
198777.0 434225.0 0
202334.0 433560.0 0
206871.0 433008.0 0
210474.0 431628.0 0
220369.0 433478.0 0
227046.0 433364.0 0
233666.0 433280.0 0
240217.0 433197.0 0
246743.0 433147.0 0
253260.0 433141.0 0
259783.0 433179.0 0
266332.0 433253.0 0
272954.0 433332.0 0
279635.0 433452.0 0
289537.0 431647.0 0
293141.0 433017.0 0
297646.0 433574.0 0
301208.0 434226.0 0
305031.0 434456.0 0
314657.0 433114.0 0
318836.0 433222.0 0
323124.0 434104.0 0
326821.0 434894.0 0
330518.0 435558.0 0
339819.0 432837.0 0
343386.0 432955.0 0
347126.0 432882.0 0
350702.0 433019.0 0
356814.0 435515.0 0
361546.0 434325.0 0
365107.0 433011.0 0
371586.0 433718.0 0
378182.0 437146.0 0
381470.0 435499.0 0
387969.0 435867.0 0
394397.0 436313.0 0
102343.0 438350.0 0
108810.0 437903.0 0
111976.0 439571.0 0
115156.0 437483.0 0
118203.0 439081.0 0
125282.0 438537.0 0
131818.0 435295.0 0
135258.0 436614.0 0
138647.0 437730.0 0
147183.0 435857.0 0
151028.0 436061.0 0
154733.0 436062.0 0
158455.0 436104.0 0
162141.0 436038.0 0
165843.0 435945.0 0
175835.0 437267.0 0
179662.0 436506.0 0
183489.0 436160.0 0
187416.0 435868.0 0
191174.0 435278.0 0
197183.0 437547.0 0
201045.0 437103.0 0
204860.0 436385.0 0
208702.0 436107.0 0
212372.0 435768.0 0
216889.0 435262.0 0
223616.0 435322.0 0
230302.0 435243.0 0
236896.0 435169.0 0
243459.0 435107.0 0
250003.0 435081.0 0
256546.0 435095.0 0
263105.0 435146.0 0
269699.0 435211.0 0
276387.0 435291.0 0
283117.0 435246.0 0
287616.0 435763.0 0
291288.0 436106.0 0
295130.0 436402.0 0
298945.0 437113.0 0
302804.0 437555.0 0
308813.0 435285.0 0
312570.0 435868.0 0
316498.0 436158.0 0
320327.0 436516.0 0
324154.0 437272.0 0
334149.0 435947.0 0
337852.0 436039.0 0
341538.0 436105.0 0
345260.0 436063.0 0
348966.0 436061.0 0
352811.0 435857.0 0
361348.0 437729.0 0
364738.0 436614.0 0
368180.0 435296.0 0
374711.0 438535.0 0
381798.0 439081.0 0
384843.0 437482.0 0
388023.0 439570.0 0
391189.0 437902.0 0
397656.0 438349.0 0
99049.3 440410.0 0
102283.0 441926.0 0
105574.0 439909.0 0
108803.0 441576.0 0
115076.0 441261.0 0
121160.0 440597.0 0
124248.0 441798.0 0
128877.0 437617.0 0
132426.0 439095.0 0
141918.0 438557.0 0
145417.0 438759.0 0
149112.0 439050.0 0
152855.0 439217.0 0
156574.0 439272.0 0
160319.0 439289.0 0
164075.0 439247.0 0
167871.0 439134.0 0
171591.0 438512.0 0
182014.0 439467.0 0
185790.0 439105.0 0
189647.0 438681.0 0
193457.0 438045.0 0
203279.0 440004.0 0
207059.0 439541.0 0
210924.0 439196.0 0
214859.0 438611.0 0
220065.0 437459.0 0
223572.0 439111.0 0
226928.0 437175.0 0
230178.0 439102.0 0
233546.0 437136.0 0
236809.0 439027.0 0
240147.0 437067.0 0
243418.0 438977.0 0
246722.0 437028.0 0
250008.0 438958.0 0
253287.0 437023.0 0
256595.0 438967.0 0
259859.0 437051.0 0
263198.0 439005.0 0
266457.0 437107.0 0
269827.0 439066.0 0
273077.0 437142.0 0
276435.0 439081.0 0
279940.0 437436.0 0
285132.0 438609.0 0
289067.0 439195.0 0
292929.0 439548.0 0
296711.0 440015.0 0
306532.0 438054.0 0
310343.0 438687.0 0
314199.0 439107.0 0
317973.0 439470.0 0
328402.0 438519.0 0
332122.0 439137.0 0
335918.0 439249.0 0
339674.0 439291.0 0
343419.0 439272.0 0
347139.0 439217.0 0
350882.0 439050.0 0
354578.0 438760.0 0
358077.0 438557.0 0
367568.0 439097.0 0
371117.0 437621.0 0
375754.0 441793.0 0
378842.0 440597.0 0
384923.0 441261.0 0
391196.0 441576.0 0
394424.0 439908.0 0
397715.0 441925.0 0
400950.0 440409.0 0
92504.9 444521.0 0
95747.6 442479.0 0
98968.1 444018.0 0
105534.0 443512.0 0
111992.0 443375.0 0
115177.0 445141.0 0
118155.0 442877.0 0
121393.0 444228.0 0
127723.0 441345.0 0
130893.0 442438.0 0
136074.0 440321.0 0
139731.0 441279.0 0
143462.0 441826.0 0
147140.0 442084.0 0
150864.0 442309.0 0
154607.0 442449.0 0
158348.0 442507.0 0
162095.0 442521.0 0
165827.0 442498.0 0
169494.0 442540.0 0
174597.0 440322.0 0
178335.0 439895.0 0
184213.0 442459.0 0
188013.0 442038.0 0
191846.0 441545.0 0
195629.0 441036.0 0
199430.0 440534.0 0
209246.0 442650.0 0
213113.0 442195.0 0
216912.0 441775.0 0
220653.0 441405.0 0
226786.0 441022.0 0
233454.0 440990.0 0
240090.0 440926.0 0
246709.0 440897.0 0
253311.0 440894.0 0
259925.0 440913.0 0
266554.0 440960.0 0
273222.0 440985.0 0
279354.0 441384.0 0
283090.0 441774.0 0
286883.0 442196.0 0
290745.0 442655.0 0
300559.0 440544.0 0
304360.0 441044.0 0
308143.0 441552.0 0
311977.0 442043.0 0
315776.0 442463.0 0
321655.0 439901.0 0
325394.0 440326.0 0
330498.0 442543.0 0
334166.0 442501.0 0
337898.0 442523.0 0
341646.0 442508.0 0
345387.0 442450.0 0
349131.0 442309.0 0
352855.0 442084.0 0
356533.0 441826.0 0
360264.0 441279.0 0
363920.0 440321.0 0
369105.0 442438.0 0
372278.0 441349.0 0
378605.0 444227.0 0
381844.0 442877.0 0
384821.0 445141.0 0
388006.0 443375.0 0
394464.0 443512.0 0
401031.0 444017.0 0
404251.0 442478.0 0
407494.0 444521.0 0
86267.5 448428.0 0
95771.2 446213.0 0
102183.0 445509.0 0
105347.0 447089.0 0
108782.0 445267.0 0
112039.0 447228.0 0
118552.0 446651.0 0
124877.0 445094.0 0
128349.0 445258.0 0
134199.0 443303.0 0
137662.0 444023.0 0
141330.0 444691.0 0
145066.0 445135.0 0
148801.0 445402.0 0
152554.0 445598.0 0
156310.0 445723.0 0
160055.0 445786.0 0
163785.0 445826.0 0
167467.0 445891.0 0
172961.0 443206.0 0
176750.0 443194.0 0
180475.0 442856.0 0
190163.0 444993.0 0
193981.0 444525.0 0
197793.0 444035.0 0
201613.0 443535.0 0
205427.0 443078.0 0
219057.0 444981.0 0
222913.0 444608.0 0
230103.0 442973.0 0
236739.0 442880.0 0
243391.0 442837.0 0
250014.0 442827.0 0
256633.0 442831.0 0
263277.0 442862.0 0
269910.0 442932.0 0
277100.0 444584.0 0
280947.0 444973.0 0
294563.0 443086.0 0
298376.0 443546.0 0
302197.0 444044.0 0
306009.0 444533.0 0
309827.0 445000.0 0
319514.0 442860.0 0
323241.0 443198.0 0
327031.0 443209.0 0
332526.0 445894.0 0
336208.0 445829.0 0
339939.0 445788.0 0
343684.0 445724.0 0
347441.0 445599.0 0
351194.0 445402.0 0
354929.0 445135.0 0
358666.0 444691.0 0
362335.0 444022.0 0
365799.0 443302.0 0
371647.0 445260.0 0
375119.0 445090.0 0
381446.0 446651.0 0
387959.0 447228.0 0
391216.0 445266.0 0
394652.0 447088.0 0
397816.0 445508.0 0
404228.0 446213.0 0
413731.0 448427.0 0
82979.6 450479.0 0
89694.3 446916.0 0
93168.9 448803.0 0
98977.8 447715.0 0
102077.0 449172.0 0
108391.0 448853.0 0
115579.0 448966.0 0
122159.0 447737.0 0
125880.0 448426.0 0
131870.0 446149.0 0
135466.0 446919.0 0
139123.0 447563.0 0
142865.0 448100.0 0
171071.0 446177.0 0
174890.0 446337.0 0
178733.0 446189.0 0
182536.0 445851.0 0
186340.0 445442.0 0
196096.0 447541.0 0
199922.0 447069.0 0
203741.0 446613.0 0
207566.0 446179.0 0
211401.0 445746.0 0
215231.0 445347.0 0
226754.0 444782.0 0
229956.0 446938.0 0
233361.0 444851.0 0
236737.0 446714.0 0
240062.0 444776.0 0
243365.0 446699.0 0
246698.0 444761.0 0
250021.0 446690.0 0
253336.0 444760.0 0
256673.0 446699.0 0
259964.0 444769.0 0
263292.0 446703.0 0
266655.0 444821.0 0
270065.0 446881.0 0
273265.0 444743.0 0
284768.0 445349.0 0
288593.0 445751.0 0
292425.0 446187.0 0
296248.0 446622.0 0
300067.0 447079.0 0
303893.0 447550.0 0
313650.0 445447.0 0
317454.0 445855.0 0
321258.0 446193.0 0
325102.0 446341.0 0
328921.0 446180.0 0
357132.0 448099.0 0
360874.0 447562.0 0
364531.0 446918.0 0
368127.0 446149.0 0
374117.0 448425.0 0
377837.0 447735.0 0
384419.0 448965.0 0
391608.0 448852.0 0
397921.0 449172.0 0
401021.0 447715.0 0
406830.0 448803.0 0
410305.0 446915.0 0
417019.0 450478.0 0
79643.5 452566.0 0
86425.1 452248.0 0
89974.0 450836.0 0
96711.1 450608.0 0
105048.0 450759.0 0
111144.0 450805.0 0
114032.0 452327.0 0
119386.0 450301.0 0
123207.0 451199.0 0
129457.0 448987.0 0
133110.0 449758.0 0
136832.0 450467.0 0
146644.0 448477.0 0
150430.0 448729.0 0
154219.0 448911.0 0
157996.0 449036.0 0
161752.0 449121.0 0
165486.0 449205.0 0
169193.0 449361.0 0
172986.0 449462.0 0
176863.0 449427.0 0
180738.0 449204.0 0
184588.0 448853.0 0
188428.0 448441.0 0
192264.0 448001.0 0
202024.0 450155.0 0
205852.0 449725.0 0
209681.0 449306.0 0
213505.0 448911.0 0
217325.0 448547.0 0
221140.0 448209.0 0
224934.0 448028.0 0
233456.0 448635.0 0
240015.0 448644.0 0
246692.0 448621.0 0
253356.0 448623.0 0
260029.0 448645.0 0
266577.0 448608.0 0
275086.0 447998.0 0
278874.0 448203.0 0
282679.0 448547.0 0
286492.0 448917.0 0
290311.0 449315.0 0
294137.0 449735.0 0
297965.0 450165.0 0
307725.0 448008.0 0
311561.0 448446.0 0
315402.0 448858.0 0
319253.0 449208.0 0
323129.0 449431.0 0
327007.0 449465.0 0
330800.0 449364.0 0
334507.0 449208.0 0
338241.0 449123.0 0
341998.0 449037.0 0
345776.0 448912.0 0
349565.0 448729.0 0
353352.0 448477.0 0
363165.0 450466.0 0
366887.0 449759.0 0
370539.0 448988.0 0
376789.0 451198.0 0
380610.0 450300.0 0
385966.0 452326.0 0
388855.0 450805.0 0
394950.0 450758.0 0
403288.0 450608.0 0
410025.0 450835.0 0
413574.0 452247.0 0
420355.0 452565.0 0
74370.1 455872.0 0
78296.7 456190.0 0
83056.1 454317.0 0
86468.5 456032.0 0
93492.6 452673.0 0
97065.6 454436.0 0
100328.0 452397.0 0
104069.0 454296.0 0
107890.0 452669.0 0
110983.0 454653.0 0
117238.0 453270.0 0
126952.0 451934.0 0
130653.0 452604.0 0
140593.0 451050.0 0
144398.0 451504.0 0
148230.0 451831.0 0
152065.0 452068.0 0
155891.0 452248.0 0
159696.0 452383.0 0
163481.0 452494.0 0
178854.0 452506.0 0
182755.0 452234.0 0
186634.0 451876.0 0
190497.0 451471.0 0
194349.0 451041.0 0
198191.0 450598.0 0
207947.0 452871.0 0
211773.0 452483.0 0
215590.0 452121.0 0
219393.0 451794.0 0
223161.0 451537.0 0
226911.0 451265.0 0
230555.0 450840.0 0
236638.0 450614.0 0
243351.0 450553.0 0
250029.0 450553.0 0
256706.0 450559.0 0
263413.0 450614.0 0
269514.0 450761.0 0
273135.0 451234.0 0
276861.0 451524.0 0
280615.0 451796.0 0
284409.0 452129.0 0
288219.0 452493.0 0
292042.0 452882.0 0
301797.0 450607.0 0
305639.0 451049.0 0
309492.0 451477.0 0
313355.0 451881.0 0
317235.0 452239.0 0
321137.0 452509.0 0
336512.0 452497.0 0
340298.0 452385.0 0
344104.0 452249.0 0
347931.0 452068.0 0
351766.0 451831.0 0
355598.0 451503.0 0
359404.0 451049.0 0
369343.0 452605.0 0
373045.0 451934.0 0
382759.0 453268.0 0
389015.0 454652.0 0
392109.0 452668.0 0
395929.0 454295.0 0
399671.0 452396.0 0
402933.0 454435.0 0
406506.0 452672.0 0
413530.0 456031.0 0
416943.0 454316.0 0
421704.0 456188.0 0
425630.0 455873.0 0
81831.9 457992.0 0
90203.3 454739.0 0
93760.3 456527.0 0
100663.0 456191.0 0
107517.0 456279.0 0
114425.0 456022.0 0
118046.0 456898.0 0
120734.0 454000.0 0
124402.0 454780.0 0
128137.0 455500.0 0
134417.0 453304.0 0
138250.0 453991.0 0
142090.0 454516.0 0
145964.0 454899.0 0
149851.0 455192.0 0
153731.0 455421.0 0
157595.0 455607.0 0
161437.0 455755.0 0
167259.0 452605.0 0
171076.0 452675.0 0
174947.0 452651.0 0
184786.0 455284.0 0
188683.0 454926.0 0
192561.0 454532.0 0
196425.0 454118.0 0
200274.0 453697.0 0
204114.0 453279.0 0
213863.0 455698.0 0
217684.0 455369.0 0
221500.0 455091.0 0
225319.0 454823.0 0
229140.0 454466.0 0
232953.0 453855.0 0
236664.0 454423.0 0
240003.0 452486.0 0
243327.0 454414.0 0
246686.0 452482.0 0
250038.0 454414.0 0
253381.0 452487.0 0
256748.0 454425.0 0
260066.0 452498.0 0
263422.0 454444.0 0
267085.0 453718.0 0
270892.0 454396.0 0
274697.0 454803.0 0
278502.0 455090.0 0
282310.0 455378.0 0
286126.0 455710.0 0
295873.0 453290.0 0
299712.0 453706.0 0
303562.0 454126.0 0
307426.0 454539.0 0
311305.0 454932.0 0
315203.0 455289.0 0
325045.0 452655.0 0
328916.0 452679.0 0
332734.0 452608.0 0
338557.0 455758.0 0
342399.0 455609.0 0
346264.0 455422.0 0
350145.0 455191.0 0
354032.0 454898.0 0
357907.0 454515.0 0
361747.0 453990.0 0
365580.0 453305.0 0
371859.0 455501.0 0
375595.0 454780.0 0
379263.0 453999.0 0
381951.0 456896.0 0
385573.0 456020.0 0
392481.0 456278.0 0
399335.0 456190.0 0
406238.0 456526.0 0
409795.0 454739.0 0
418169.0 457991.0 0
78470.6 460132.0 0
85399.7 459772.0 0
89313.5 458524.0 0
97332.5 458255.0 0
104168.0 458073.0 0
111345.0 458450.0 0
115132.0 459667.0 0
121742.0 457632.0 0
131908.0 456161.0 0
135753.0 456793.0 0
139732.0 457521.0 0
143661.0 457955.0 0
147596.0 458288.0 0
151527.0 458561.0 0
155447.0 458791.0 0
159351.0 458989.0 0
165269.0 455867.0 0
169120.0 455927.0 0
173009.0 455908.0 0
176932.0 455792.0 0
180866.0 455581.0 0
190739.0 458008.0 0
194627.0 457627.0 0
198498.0 457231.0 0
202354.0 456832.0 0
206200.0 456438.0 0
210035.0 456057.0 0
239937.0 456350.0 0
246693.0 456341.0 0
253393.0 456349.0 0
260147.0 456370.0 0
289950.0 456070.0 0
293785.0 456450.0 0
297630.0 456843.0 0
301487.0 457240.0 0
305358.0 457634.0 0
309247.0 458013.0 0
319124.0 455585.0 0
323059.0 455796.0 0
326983.0 455912.0 0
330873.0 455931.0 0
334724.0 455871.0 0
340644.0 458991.0 0
344548.0 458792.0 0
348469.0 458560.0 0
352401.0 458287.0 0
356336.0 457953.0 0
360266.0 457519.0 0
364243.0 456794.0 0
368088.0 456162.0 0
378256.0 457632.0 0
384865.0 459665.0 0
388652.0 458449.0 0
395831.0 458072.0 0
402666.0 458254.0 0
410687.0 458524.0 0
414601.0 459770.0 0
421530.0 460131.0 0
82042.5 461928.0 0
85611.0 463718.0 0
92768.3 460237.0 0
96294.7 461932.0 0
100854.0 460028.0 0
104392.0 461849.0 0
107751.0 459959.0 0
112168.0 462228.0 0
118972.0 460492.0 0
125512.0 458351.0 0
129338.0 459060.0 0
133176.0 459672.0 0
137064.0 460214.0 0
141381.0 461030.0 0
145337.0 461384.0 0
163236.0 459131.0 0
167128.0 459203.0 0
171045.0 459188.0 0
174993.0 459087.0 0
178951.0 458912.0 0
182901.0 458668.0 0
186831.0 458361.0 0
196699.0 460756.0 0
200576.0 460380.0 0
204438.0 460003.0 0
208288.0 459633.0 0
212127.0 459277.0 0
215961.0 458943.0 0
219798.0 458640.0 0
223663.0 458370.0 0
227569.0 458049.0 0
231520.0 457532.0 0
235617.0 458087.0 0
243345.0 458253.0 0
250042.0 458285.0 0
256757.0 458276.0 0
263757.0 458267.0 0
268492.0 457392.0 0
272421.0 458007.0 0
276320.0 458362.0 0
280183.0 458646.0 0
284019.0 458955.0 0
287852.0 459290.0 0
291692.0 459645.0 0
295543.0 460013.0 0
299406.0 460389.0 0
303285.0 460763.0 0
313156.0 458365.0 0
317088.0 458671.0 0
321039.0 458916.0 0
324998.0 459091.0 0
328947.0 459193.0 0
332865.0 459207.0 0
336758.0 459134.0 0
354662.0 461381.0 0
358618.0 461027.0 0
362930.0 460216.0 0
366819.0 459674.0 0
370659.0 459063.0 0
374486.0 458351.0 0
381026.0 460491.0 0
387830.0 462226.0 0
392246.0 459958.0 0
395605.0 461849.0 0
399144.0 460027.0 0
403706.0 461931.0 0
407232.0 460236.0 0
414389.0 463717.0 0
417958.0 461927.0 0
89359.8 462375.0 0
92935.0 464094.0 0
99852.5 463666.0 0
108546.0 463642.0 0
116214.0 463318.0 0
122801.0 461209.0 0
126672.0 461875.0 0
130620.0 462621.0 0
134554.0 463137.0 0
138508.0 463559.0 0
149298.0 461683.0 0
153257.0 461943.0 0
157214.0 462180.0 0
161163.0 462386.0 0
165101.0 462488.0 0
169062.0 462492.0 0
173043.0 462393.0 0
177026.0 462241.0 0
180999.0 462036.0 0
184955.0 461775.0 0
188891.0 461466.0 0
192805.0 461122.0 0
206530.0 463206.0 0
210384.0 462860.0 0
214225.0 462528.0 0
218056.0 462215.0 0
221882.0 461923.0 0
225703.0 461691.0 0
229444.0 461439.0 0
233123.0 461033.0 0
236703.0 461878.0 0
239998.0 460124.0 0
243325.0 462131.0 0
246690.0 460217.0 0
250043.0 462172.0 0
253395.0 460223.0 0
256748.0 462146.0 0
260136.0 460172.0 0
263373.0 462148.0 0
266780.0 460777.0 0
270485.0 461360.0 0
274238.0 461665.0 0
278074.0 461919.0 0
281909.0 462221.0 0
285745.0 462538.0 0
289590.0 462871.0 0
293446.0 463217.0 0
307180.0 461128.0 0
311095.0 461470.0 0
315031.0 461778.0 0
318989.0 462039.0 0
322963.0 462244.0 0
326947.0 462397.0 0
330931.0 462497.0 0
334894.0 462491.0 0
338832.0 462389.0 0
342782.0 462180.0 0
346740.0 461942.0 0
350700.0 461681.0 0
361486.0 463562.0 0
365440.0 463139.0 0
369375.0 462624.0 0
373327.0 461875.0 0
377198.0 461209.0 0
383785.0 463317.0 0
391451.0 463641.0 0
400148.0 463665.0 0
407065.0 464093.0 0
410640.0 462374.0 0
89583.6 466276.0 0
96509.6 465781.0 0
103408.0 465438.0 0
113341.0 465965.0 0
117400.0 467016.0 0
120084.0 464101.0 0
123968.0 464756.0 0
127870.0 465348.0 0
143112.0 464517.0 0
147073.0 464817.0 0
151044.0 465089.0 0
155023.0 465338.0 0
175109.0 465572.0 0
179095.0 465399.0 0
183069.0 465177.0 0
187026.0 464909.0 0
190964.0 464602.0 0
194881.0 464269.0 0
198780.0 463919.0 0
202662.0 463561.0 0
212495.0 466117.0 0
216338.0 465808.0 0
220165.0 465509.0 0
223993.0 465225.0 0
227876.0 465047.0 0
231750.0 464638.0 0
236400.0 465715.0 0
239933.0 464017.0 0
246685.0 464103.0 0
253394.0 464120.0 0
260059.0 464078.0 0
268106.0 464456.0 0
272012.0 465011.0 0
275935.0 465201.0 0
279782.0 465506.0 0
283623.0 465812.0 0
287473.0 466125.0 0
297316.0 463570.0 0
301201.0 463925.0 0
305102.0 464274.0 0
309020.0 464607.0 0
312959.0 464912.0 0
316916.0 465180.0 0
320890.0 465401.0 0
324877.0 465575.0 0
344976.0 465337.0 0
348956.0 465087.0 0
352927.0 464814.0 0
356888.0 464513.0 0
372130.0 465347.0 0
376031.0 464755.0 0
379915.0 464100.0 0
382600.0 467015.0 0
386658.0 465965.0 0
396592.0 465437.0 0
403490.0 465780.0 0
410416.0 466275.0 0
93176.5 467990.0 0
100094.0 467499.0 0
103723.0 469246.0 0
107008.0 467068.0 0
110692.0 468817.0 0
121333.0 467705.0 0
125287.0 468282.0 0
129279.0 468735.0 0
132139.0 466143.0 0
136106.0 466555.0 0
140080.0 466885.0 0
144875.0 467994.0 0
148834.0 468260.0 0
152807.0 468508.0 0
159016.0 465586.0 0
163046.0 465785.0 0
167044.0 465797.0 0
171106.0 465711.0 0
185154.0 468342.0 0
189110.0 468071.0 0
193049.0 467769.0 0
196969.0 467447.0 0
200873.0 467112.0 0
204762.0 466773.0 0
208636.0 466440.0 0
243315.0 466007.0 0
250041.0 466075.0 0
256738.0 466065.0 0
263464.0 465927.0 0
291335.0 466449.0 0
295213.0 466781.0 0
299104.0 467118.0 0
303011.0 467451.0 0
306934.0 467773.0 0
310873.0 468074.0 0
314830.0 468345.0 0
328884.0 465716.0 0
332951.0 465802.0 0
336950.0 465788.0 0
340983.0 465587.0 0
347194.0 468507.0 0
351167.0 468257.0 0
355126.0 467990.0 0
359913.0 466890.0 0
363888.0 466559.0 0
367854.0 466146.0 0
370719.0 468734.0 0
374712.0 468281.0 0
378667.0 467705.0 0
389307.0 468815.0 0
392993.0 467066.0 0
396277.0 469245.0 0
399906.0 467497.0 0
406823.0 467989.0 0
89839.1 470222.0 0
93438.5 471934.0 0
96778.0 469637.0 0
100397.0 471331.0 0
107342.0 470856.0 0
114569.0 469798.0 0
118740.0 470691.0 0
133786.0 469620.0 0
137756.0 469957.0 0
141727.0 470234.0 0
146644.0 471473.0 0
150606.0 471715.0 0
156793.0 468746.0 0
160856.0 468999.0 0
165067.0 469124.0 0
169160.0 469026.0 0
173208.0 468913.0 0
177199.0 468765.0 0
181183.0 468575.0 0
195146.0 470965.0 0
199071.0 470652.0 0
202982.0 470332.0 0
206879.0 470011.0 0
210764.0 469701.0 0
214629.0 469403.0 0
218470.0 469117.0 0
222274.0 468827.0 0
226027.0 468538.0 0
229724.0 468706.0 0
233355.0 468107.0 0
236696.0 469626.0 0
239963.0 467870.0 0
243237.0 469930.0 0
246651.0 468004.0 0
250038.0 469973.0 0
253422.0 468042.0 0
256840.0 470008.0 0
260097.0 467963.0 0
263381.0 469819.0 0
266640.0 467996.0 0
270235.0 468721.0 0
273917.0 468499.0 0
277676.0 468820.0 0
281487.0 469112.0 0
285334.0 469406.0 0
289204.0 469708.0 0
293092.0 470019.0 0
296993.0 470337.0 0
300907.0 470656.0 0
304835.0 470967.0 0
318802.0 468578.0 0
322786.0 468768.0 0
326777.0 468914.0 0
330834.0 469030.0 0
334930.0 469128.0 0
339145.0 468999.0 0
343208.0 468745.0 0
349397.0 471712.0 0
353359.0 471469.0 0
358266.0 470241.0 0
362238.0 469962.0 0
366207.0 469624.0 0
381260.0 470690.0 0
385431.0 469798.0 0
392658.0 470854.0 0
399603.0 471330.0 0
403222.0 469637.0 0
406561.0 471933.0 0
410161.0 470221.0 0
97092.0 473492.0 0
104054.0 473110.0 0
111783.0 472651.0 0
115975.0 473529.0 0
122770.0 471277.0 0
126860.0 471731.0 0
130846.0 472111.0 0
135480.0 473073.0 0
139443.0 473368.0 0
143404.0 473622.0 0
154588.0 471936.0 0
158594.0 472161.0 0
162896.0 472330.0 0
167254.0 472370.0 0
171307.0 472257.0 0
175307.0 472140.0 0
179297.0 471975.0 0
183280.0 471771.0 0
187250.0 471531.0 0
191206.0 471260.0 0
205108.0 473575.0 0
209018.0 473272.0 0
212924.0 472987.0 0
216811.0 472713.0 0
220686.0 472442.0 0
224576.0 472169.0 0
228495.0 472444.0 0
232409.0 471953.0 0
236136.0 473329.0 0
239820.0 471936.0 0
246630.0 471892.0 0
253441.0 471943.0 0
260355.0 472257.0 0
264129.0 473481.0 0
267672.0 471790.0 0
271525.0 472434.0 0
275415.0 472118.0 0
279283.0 472434.0 0
283150.0 472708.0 0
287039.0 472990.0 0
290947.0 473277.0 0
294863.0 473579.0 0
308777.0 471263.0 0
312734.0 471535.0 0
316705.0 471775.0 0
320687.0 471978.0 0
324678.0 472142.0 0
328680.0 472256.0 0
332740.0 472372.0 0
337108.0 472330.0 0
341410.0 472161.0 0
345416.0 471935.0 0
356590.0 473630.0 0
360551.0 473373.0 0
364514.0 473078.0 0
369152.0 472110.0 0
373138.0 471729.0 0
377229.0 471276.0 0
384025.0 473528.0 0
388217.0 472649.0 0
395945.0 473109.0 0
402908.0 473491.0 0
100697.0 475191.0 0
104528.0 477034.0 0
107694.0 474620.0 0
120302.0 474312.0 0
124470.0 474760.0 0
128515.0 475172.0 0
132491.0 475515.0 0
148413.0 474960.0 0
152403.0 475165.0 0
156399.0 475363.0 0
160642.0 475473.0 0
165113.0 475579.0 0
169430.0 475627.0 0
173423.0 475525.0 0
177417.0 475383.0 0
181405.0 475203.0 0
185386.0 474988.0 0
189356.0 474745.0 0
193313.0 474475.0 0
197255.0 474185.0 0
201187.0 473882.0 0
215120.0 476293.0 0
222989.0 475794.0 0
231101.0 475727.0 0
243206.0 473814.0 0
250036.0 473871.0 0
256850.0 473904.0 0
276954.0 475765.0 0
298788.0 473885.0 0
302723.0 474186.0 0
306670.0 474477.0 0
310628.0 474748.0 0
314598.0 474993.0 0
318579.0 475207.0 0
322569.0 475386.0 0
326563.0 475524.0 0
330558.0 475626.0 0
334888.0 475576.0 0
339363.0 475473.0 0
343607.0 475362.0 0
347602.0 475164.0 0
351592.0 474957.0 0
367508.0 475513.0 0
371484.0 475171.0 0
375529.0 474759.0 0
379698.0 474311.0 0
392305.0 474619.0 0
395471.0 477033.0 0
399303.0 475190.0 0
96747.5 477358.0 0
100332.0 479060.0 0
109620.0 477862.0 0
113372.0 476528.0 0
117599.0 477161.0 0
122117.0 477834.0 0
126207.0 478252.0 0
130203.0 478631.0 0
134176.0 478957.0 0
137180.0 476526.0 0
141121.0 476807.0 0
145034.0 477065.0 0
183520.0 478448.0 0
187500.0 478226.0 0
191470.0 477981.0 0
195429.0 477714.0 0
199375.0 477426.0 0
203317.0 477133.0 0
207249.0 476838.0 0
211180.0 476546.0 0
219046.0 476057.0 0
226942.0 476058.0 0
234968.0 476881.0 0
239136.0 475926.0 0
243167.0 477642.0 0
246622.0 475782.0 0
250021.0 477785.0 0
253436.0 475858.0 0
256870.0 477762.0 0
260567.0 476245.0 0
264450.0 477190.0 0
268715.0 475645.0 0
272999.0 476069.0 0
280895.0 476061.0 0
284829.0 476288.0 0
288774.0 476549.0 0
292714.0 476838.0 0
296653.0 477134.0 0
300599.0 477426.0 0
304552.0 477713.0 0
308514.0 477985.0 0
312484.0 478233.0 0
316464.0 478454.0 0
354962.0 477075.0 0
358874.0 476814.0 0
362815.0 476532.0 0
365824.0 478957.0 0
369796.0 478630.0 0
373792.0 478251.0 0
377882.0 477833.0 0
382400.0 477160.0 0
386628.0 476528.0 0
390380.0 477861.0 0
399667.0 479059.0 0
403252.0 477357.0 0
97029.1 481287.0 0
106615.0 480408.0 0
112289.0 480553.0 0
116142.0 480807.0 0
120028.0 481101.0 0
138886.0 480002.0 0
142808.0 480294.0 0
148372.0 478854.0 0
152186.0 479006.0 0
156008.0 479159.0 0
159838.0 479208.0 0
163693.0 479148.0 0
167599.0 479029.0 0
171563.0 478935.0 0
175545.0 478804.0 0
179534.0 478641.0 0
193590.0 481238.0 0
197554.0 480975.0 0
201504.0 480681.0 0
205457.0 480405.0 0
209399.0 480113.0 0
213338.0 479831.0 0
217297.0 479650.0 0
221248.0 479381.0 0
225192.0 479622.0 0
229116.0 479364.0 0
232949.0 480107.0 0
236887.0 480305.0 0
240767.0 480586.0 0
246531.0 479679.0 0
253471.0 479800.0 0
258893.0 481012.0 0
262792.0 480667.0 0
266787.0 480248.0 0
270635.0 479259.0 0
274606.0 479685.0 0
278615.0 479388.0 0
282602.0 479667.0 0
286591.0 479829.0 0
290553.0 480105.0 0
294505.0 480401.0 0
298466.0 480681.0 0
302424.0 480967.0 0
306390.0 481239.0 0
320452.0 478645.0 0
324442.0 478804.0 0
328426.0 478933.0 0
332391.0 479026.0 0
336297.0 479149.0 0
340151.0 479210.0 0
343980.0 479160.0 0
347801.0 479005.0 0
351615.0 478850.0 0
357189.0 480302.0 0
361110.0 480008.0 0
379972.0 481100.0 0
383858.0 480806.0 0
387711.0 480552.0 0
393385.0 480407.0 0
402970.0 481286.0 0
102948.0 481944.0 0
123962.0 481395.0 0
127940.0 481763.0 0
131925.0 482113.0 0
135892.0 482440.0 0
140611.0 483511.0 0
146197.0 482109.0 0
150095.0 482336.0 0
153985.0 482488.0 0
157895.0 482585.0 0
161818.0 482585.0 0
165752.0 482497.0 0
169699.0 482376.0 0
173675.0 482246.0 0
177662.0 482092.0 0
181653.0 481912.0 0
185640.0 481710.0 0
189619.0 481485.0 0
207564.0 483723.0 0
215367.0 483195.0 0
223078.0 482964.0 0
230828.0 483319.0 0
249962.0 481664.0 0
269014.0 483425.0 0
276806.0 482975.0 0
284551.0 483186.0 0
292381.0 483708.0 0
310365.0 481493.0 0
314345.0 481719.0 0
318334.0 481918.0 0
322326.0 482093.0 0
326316.0 482244.0 0
330292.0 482374.0 0
334238.0 482496.0 0
338172.0 482586.0 0
342095.0 482588.0 0
346005.0 482489.0 0
349894.0 482335.0 0
353792.0 482105.0 0
359386.0 483518.0 0
364108.0 482440.0 0
368075.0 482112.0 0
372059.0 481762.0 0
376038.0 481393.0 0
397052.0 481944.0 0
99698.0 484222.0 0
106039.0 484319.0 0
109952.0 483748.0 0
113911.0 484110.0 0
117843.0 484379.0 0
121779.0 484654.0 0
125726.0 484949.0 0
129698.0 485278.0 0
133677.0 485623.0 0
137632.0 485961.0 0
144021.0 485390.0 0
147947.0 485629.0 0
151892.0 485810.0 0
155848.0 485927.0 0
159827.0 485980.0 0
163814.0 485944.0 0
167798.0 485843.0 0
171788.0 485705.0 0
175785.0 485556.0 0
179782.0 485385.0 0
183775.0 485198.0 0
187761.0 484991.0 0
191740.0 484762.0 0
195714.0 484516.0 0
199677.0 484263.0 0
203623.0 483956.0 0
211469.0 483455.0 0
219222.0 483346.0 0
226940.0 483496.0 0
234748.0 483644.0 0
238665.0 483870.0 0
242586.0 484064.0 0
246476.0 483562.0 0
249839.0 485561.0 0
253329.0 483747.0 0
257157.0 484532.0 0
261112.0 484247.0 0
265074.0 483853.0 0
272932.0 483591.0 0
280682.0 483331.0 0
288464.0 483420.0 0
296334.0 483950.0 0
300289.0 484239.0 0
304257.0 484512.0 0
308236.0 484766.0 0
312223.0 485004.0 0
316214.0 485207.0 0
320210.0 485388.0 0
324210.0 485553.0 0
328205.0 485703.0 0
332193.0 485842.0 0
336176.0 485943.0 0
340163.0 485982.0 0
344142.0 485929.0 0
348098.0 485810.0 0
352044.0 485626.0 0
355969.0 485386.0 0
362369.0 485961.0 0
366324.0 485622.0 0
370302.0 485278.0 0
374274.0 484947.0 0
378221.0 484652.0 0
382157.0 484378.0 0
386089.0 484109.0 0
390048.0 483747.0 0
393961.0 484319.0 0
400302.0 484222.0 0
98951.1 488127.0 0
103669.0 487522.0 0
107744.0 487827.0 0
111676.0 487382.0 0
115642.0 487666.0 0
119590.0 487937.0 0
123538.0 488203.0 0
127495.0 488485.0 0
131469.0 488799.0 0
135465.0 489162.0 0
141039.0 487991.0 0
177911.0 488866.0 0
181907.0 488690.0 0
185897.0 488500.0 0
189883.0 488292.0 0
193865.0 488056.0 0
197840.0 487816.0 0
201800.0 487577.0 0
205741.0 487259.0 0
209694.0 487079.0 0
213623.0 486764.0 0
217559.0 486988.0 0
221471.0 486623.0 0
225346.0 487142.0 0
229215.0 486877.0 0
233127.0 487247.0 0
237044.0 487420.0 0
241020.0 487725.0 0
244962.0 487193.0 0
254546.0 487548.0 0
258938.0 488038.0 0
262936.0 487702.0 0
266846.0 487366.0 0
270753.0 486947.0 0
274631.0 487200.0 0
278502.0 486650.0 0
282410.0 487049.0 0
286334.0 486735.0 0
290258.0 487068.0 0
294208.0 487245.0 0
298153.0 487535.0 0
302115.0 487807.0 0
306097.0 488055.0 0
310088.0 488297.0 0
314099.0 488515.0 0
318096.0 488696.0 0
322096.0 488864.0 0
358957.0 487983.0 0
364536.0 489162.0 0
368531.0 488798.0 0
372505.0 488484.0 0
376462.0 488202.0 0
380410.0 487935.0 0
384358.0 487665.0 0
388324.0 487382.0 0
392255.0 487827.0 0
396331.0 487522.0 0
401048.0 488127.0 0
105552.0 491129.0 0
109532.0 491347.0 0
113456.0 490957.0 0
117404.0 491240.0 0
145760.0 488929.0 0
149745.0 489119.0 0
153736.0 489263.0 0
157742.0 489338.0 0
161797.0 489353.0 0
165839.0 489294.0 0
169876.0 489172.0 0
173892.0 489025.0 0
199885.0 491196.0 0
207687.0 490673.0 0
215365.0 490315.0 0
223029.0 490331.0 0
230842.0 490480.0 0
238716.0 490968.0 0
246468.0 490776.0 0
250150.0 489385.0 0
261246.0 491243.0 0
269137.0 490572.0 0
276988.0 490377.0 0
284687.0 490326.0 0
292366.0 490717.0 0
300173.0 491255.0 0
326104.0 489023.0 0
330116.0 489171.0 0
334152.0 489295.0 0
338187.0 489353.0 0
342246.0 489340.0 0
346256.0 489264.0 0
350247.0 489118.0 0
354232.0 488926.0 0
382596.0 491239.0 0
386543.0 490956.0 0
390468.0 491346.0 0
394448.0 491129.0 0
101574.0 491126.0 0
121358.0 491493.0 0
125312.0 491744.0 0
129269.0 492014.0 0
133234.0 492325.0 0
138823.0 491299.0 0
142800.0 491566.0 0
147589.0 492436.0 0
151589.0 492596.0 0
155636.0 492689.0 0
159704.0 492724.0 0
163806.0 492713.0 0
167915.0 492622.0 0
171977.0 492493.0 0
176012.0 492344.0 0
180035.0 492188.0 0
184030.0 492012.0 0
188015.0 491822.0 0
191985.0 491619.0 0
195942.0 491400.0 0
203790.0 490997.0 0
211537.0 491029.0 0
219177.0 491066.0 0
226921.0 491041.0 0
234760.0 490988.0 0
242606.0 491417.0 0
249479.0 493252.0 0
253426.0 491505.0 0
257347.0 491704.0 0
265211.0 491113.0 0
273081.0 490940.0 0
280860.0 490984.0 0
288512.0 491052.0 0
296267.0 491007.0 0
304110.0 491458.0 0
308058.0 491668.0 0
312019.0 491857.0 0
315996.0 492027.0 0
319987.0 492190.0 0
323992.0 492347.0 0
328018.0 492495.0 0
332074.0 492623.0 0
336183.0 492717.0 0
340278.0 492724.0 0
344353.0 492691.0 0
348405.0 492596.0 0
352405.0 492435.0 0
357196.0 491558.0 0
361174.0 491293.0 0
366767.0 492325.0 0
370731.0 492013.0 0
374688.0 491743.0 0
378642.0 491492.0 0
398426.0 491126.0 0
100432.0 494952.0 0
104424.0 494950.0 0
108410.0 495150.0 0
112475.0 494814.0 0
116460.0 495098.0 0
120481.0 495343.0 0
124506.0 495581.0 0
128497.0 495826.0 0
132575.0 496136.0 0
136869.0 494778.0 0
140856.0 495042.0 0
144842.0 495303.0 0
149440.0 495936.0 0
153517.0 496040.0 0
157598.0 496092.0 0
161704.0 496100.0 0
165883.0 496043.0 0
170009.0 495945.0 0
174085.0 495819.0 0
178127.0 495674.0 0
182158.0 495523.0 0
186156.0 495355.0 0
190143.0 495165.0 0
194119.0 494951.0 0
198085.0 494735.0 0
202063.0 494687.0 0
206020.0 494279.0 0
209972.0 494766.0 0
213914.0 494195.0 0
217826.0 494835.0 0
221721.0 494093.0 0
225600.0 494815.0 0
229497.0 494197.0 0
233415.0 494789.0 0
237372.0 494663.0 0
241323.0 495191.0 0
245258.0 494545.0 0
254994.0 495159.0 0
258983.0 495347.0 0
262936.0 494768.0 0
266877.0 494924.0 0
270751.0 494171.0 0
274600.0 494966.0 0
278432.0 494098.0 0
282301.0 494921.0 0
286201.0 494268.0 0
290132.0 494843.0 0
294067.0 494305.0 0
298009.0 494760.0 0
301976.0 494799.0 0
305937.0 495011.0 0
309909.0 495209.0 0
313892.0 495383.0 0
317885.0 495536.0 0
321886.0 495683.0 0
325916.0 495825.0 0
329983.0 495950.0 0
334103.0 496047.0 0
338284.0 496105.0 0
342384.0 496092.0 0
346474.0 496040.0 0
350556.0 495935.0 0
355153.0 495300.0 0
359139.0 495034.0 0
363124.0 494774.0 0
367426.0 496136.0 0
371505.0 495825.0 0
375496.0 495579.0 0
379519.0 495342.0 0
383540.0 495097.0 0
387526.0 494813.0 0
391591.0 495150.0 0
395576.0 494949.0 0
399569.0 494952.0 0
110301.0 498657.0 0
114289.0 498436.0 0
118274.0 498651.0 0
191242.0 498989.0 0
199116.0 498559.0 0
206919.0 498142.0 0
214688.0 498097.0 0
222431.0 498002.0 0
230189.0 498114.0 0
238028.0 498555.0 0
245830.0 498468.0 0
251258.0 496675.0 0
262050.0 498601.0 0
269828.0 498029.0 0
277525.0 497970.0 0
285265.0 498137.0 0
293034.0 498134.0 0
300836.0 498600.0 0
308714.0 499002.0 0
381726.0 498650.0 0
385711.0 498436.0 0
389699.0 498656.0 0
102104.0 498588.0 0
106133.0 498563.0 0
122317.0 498878.0 0
126327.0 499114.0 0
130323.0 499340.0 0
134963.0 499293.0 0
138863.0 498558.0 0
142832.0 498740.0 0
146813.0 498926.0 0
151385.0 499391.0 0
155492.0 499470.0 0
159510.0 499535.0 0
163497.0 499599.0 0
167473.0 499633.0 0
171442.0 499602.0 0
175406.0 499524.0 0
179370.0 499416.0 0
183336.0 499296.0 0
187291.0 499157.0 0
195183.0 498777.0 0
203038.0 498768.0 0
210805.0 498726.0 0
218568.0 498760.0 0
226299.0 498742.0 0
234083.0 498731.0 0
241933.0 499133.0 0
249401.0 500154.0 0
254282.0 499116.0 0
258194.0 499267.0 0
265977.0 498818.0 0
273680.0 498843.0 0
281379.0 498809.0 0
289152.0 498786.0 0
296909.0 498842.0 0
304772.0 498813.0 0
312665.0 499158.0 0
316623.0 499287.0 0
320589.0 499408.0 0
324555.0 499518.0 0
328521.0 499597.0 0
332491.0 499631.0 0
336469.0 499595.0 0
340456.0 499527.0 0
344493.0 499467.0 0
348608.0 499389.0 0
353184.0 498924.0 0
357165.0 498736.0 0
361134.0 498559.0 0
365035.0 499290.0 0
369679.0 499339.0 0
373675.0 499112.0 0
377683.0 498877.0 0
393867.0 498562.0 0
397896.0 498588.0 0
101422.0 502549.0 0
105412.0 502500.0 0
109390.0 502544.0 0
113360.0 502430.0 0
117317.0 502520.0 0
121265.0 502699.0 0
125213.0 502897.0 0
129177.0 503083.0 0
133199.0 502862.0 0
137358.0 502587.0 0
141355.0 502573.0 0
145345.0 502719.0 0
149333.0 502797.0 0
153361.0 502839.0 0
157422.0 502935.0 0
161421.0 503005.0 0
165424.0 503051.0 0
169451.0 503053.0 0
173451.0 502999.0 0
177446.0 502909.0 0
181435.0 502795.0 0
185423.0 502681.0 0
189407.0 502534.0 0
193794.0 502511.0 0
197823.0 502326.0 0
201839.0 502575.0 0
205885.0 502248.0 0
209867.0 502599.0 0
213922.0 502239.0 0
217896.0 502679.0 0
222003.0 502227.0 0
226019.0 502706.0 0
230012.0 502212.0 0
234200.0 502718.0 0
238248.0 502512.0 0
242200.0 503098.0 0
246138.0 502451.0 0
250813.0 503827.0 0
254738.0 503043.0 0
258723.0 503218.0 0
262650.0 502521.0 0
266627.0 502753.0 0
270558.0 502098.0 0
274500.0 502728.0 0
278447.0 502173.0 0
282409.0 502657.0 0
286375.0 502231.0 0
290352.0 502590.0 0
294331.0 502269.0 0
298316.0 502580.0 0
302305.0 502311.0 0
306301.0 502499.0 0
310555.0 502541.0 0
314540.0 502678.0 0
318524.0 502789.0 0
322514.0 502903.0 0
326508.0 502995.0 0
330509.0 503050.0 0
334542.0 503049.0 0
338548.0 503000.0 0
342549.0 502924.0 0
346626.0 502834.0 0
350652.0 502799.0 0
354640.0 502717.0 0
358630.0 502574.0 0
362626.0 502588.0 0
366796.0 502861.0 0
370818.0 503084.0 0
374782.0 502897.0 0
378730.0 502700.0 0
382678.0 502519.0 0
386636.0 502430.0 0
390605.0 502544.0 0
394584.0 502500.0 0
398573.0 502548.0 0
245536.0 506398.0 0
102013.0 506509.0 0
106012.0 506472.0 0
110037.0 506484.0 0
114035.0 506426.0 0
118035.0 506448.0 0
122113.0 506585.0 0
126281.0 506710.0 0
130273.0 506859.0 0
134246.0 506712.0 0
138222.0 506561.0 0
142209.0 506580.0 0
146203.0 506649.0 0
150210.0 506685.0 0
154261.0 506713.0 0
158464.0 506767.0 0
162499.0 506820.0 0
166494.0 506860.0 0
170480.0 506869.0 0
174456.0 506822.0 0
178421.0 506744.0 0
182377.0 506639.0 0
186327.0 506554.0 0
190274.0 506426.0 0
194227.0 506476.0 0
198180.0 506301.0 0
202131.0 506558.0 0
206081.0 506241.0 0
210031.0 506582.0 0
213982.0 506236.0 0
217928.0 506657.0 0
221873.0 506221.0 0
225816.0 506678.0 0
229759.0 506201.0 0
233701.0 506676.0 0
237666.0 506439.0 0
241600.0 507028.0 0
249358.0 507529.0 0
253434.0 506792.0 0
257422.0 506985.0 0
261768.0 506401.0 0
265790.0 506653.0 0
269864.0 506273.0 0
273843.0 506649.0 0
277826.0 506285.0 0
281810.0 506598.0 0
285793.0 506288.0 0
289777.0 506540.0 0
293756.0 506269.0 0
297732.0 506534.0 0
301702.0 506261.0 0
305671.0 506447.0 0
309639.0 506425.0 0
313599.0 506547.0 0
317559.0 506632.0 0
321523.0 506738.0 0
325494.0 506818.0 0
329475.0 506868.0 0
333464.0 506858.0 0
337461.0 506816.0 0
341545.0 506766.0 0
345743.0 506712.0 0
349783.0 506689.0 0
353797.0 506649.0 0
357790.0 506580.0 0
361778.0 506561.0 0
365754.0 506713.0 0
369727.0 506861.0 0
373718.0 506711.0 0
377886.0 506586.0 0
381965.0 506448.0 0
385965.0 506426.0 0
389963.0 506484.0 0
393988.0 506472.0 0
397987.0 506509.0 0
101953.0 510507.0 0
105952.0 510471.0 0
109949.0 510474.0 0
113946.0 510425.0 0
117941.0 510443.0 0
121933.0 510564.0 0
125925.0 510661.0 0
129917.0 510785.0 0
133915.0 510687.0 0
137910.0 510557.0 0
141906.0 510572.0 0
145898.0 510637.0 0
149887.0 510662.0 0
153875.0 510678.0 0
157861.0 510699.0 0
161847.0 510740.0 0
165834.0 510770.0 0
169825.0 510776.0 0
173819.0 510731.0 0
177817.0 510663.0 0
181826.0 510568.0 0
185928.0 510517.0 0
189951.0 510408.0 0
193981.0 510458.0 0
197990.0 510307.0 0
201983.0 510543.0 0
206000.0 510306.0 0
209994.0 510564.0 0
214000.0 510303.0 0
218026.0 510629.0 0
222011.0 510299.0 0
226060.0 510646.0 0
230043.0 510292.0 0
234132.0 510639.0 0
238130.0 510392.0 0
242433.0 510913.0 0
246382.0 510308.0 0
250514.0 511334.0 0
254439.0 510615.0 0
258409.0 510849.0 0
262350.0 510344.0 0
266317.0 510610.0 0
270277.0 510251.0 0
274242.0 510609.0 0
278208.0 510266.0 0
282181.0 510568.0 0
286155.0 510275.0 0
290136.0 510516.0 0
294119.0 510292.0 0
298105.0 510511.0 0
302093.0 510302.0 0
306087.0 510423.0 0
310085.0 510397.0 0
314083.0 510504.0 0
318171.0 510555.0 0
322182.0 510651.0 0
326179.0 510721.0 0
330173.0 510769.0 0
334164.0 510763.0 0
338152.0 510732.0 0
342138.0 510699.0 0
346124.0 510677.0 0
350112.0 510665.0 0
354102.0 510637.0 0
358094.0 510572.0 0
362089.0 510557.0 0
366085.0 510688.0 0
370082.0 510786.0 0
374075.0 510662.0 0
378067.0 510564.0 0
382059.0 510443.0 0
386054.0 510425.0 0
390050.0 510475.0 0
394048.0 510471.0 0
398047.0 510508.0 0
102001.0 514506.0 0
106001.0 514470.0 0
110002.0 514466.0 0
114002.0 514425.0 0
118002.0 514441.0 0
122006.0 514549.0 0
126015.0 514633.0 0
130018.0 514733.0 0
134017.0 514671.0 0
138014.0 514555.0 0
142013.0 514570.0 0
146012.0 514634.0 0
150020.0 514651.0 0
154023.0 514661.0 0
158038.0 514676.0 0
162051.0 514711.0 0
166050.0 514733.0 0
170049.0 514736.0 0
174046.0 514689.0 0
178041.0 514626.0 0
182035.0 514535.0 0
186029.0 514503.0 0
190021.0 514401.0 0
194015.0 514448.0 0
198006.0 514306.0 0
201993.0 514531.0 0
205980.0 514305.0 0
209966.0 514549.0 0
213951.0 514302.0 0
217931.0 514604.0 0
221911.0 514297.0 0
225888.0 514620.0 0
229865.0 514288.0 0
233840.0 514615.0 0
237821.0 514364.0 0
241782.0 514832.0 0
245735.0 514256.0 0
249612.0 515208.0 0
253669.0 514507.0 0
257690.0 514768.0 0
261957.0 514318.0 0
265948.0 514580.0 0
269978.0 514302.0 0
273967.0 514579.0 0
277991.0 514305.0 0
281983.0 514550.0 0
285996.0 514308.0 0
289991.0 514504.0 0
293985.0 514309.0 0
297980.0 514503.0 0
301974.0 514308.0 0
305970.0 514419.0 0
309967.0 514390.0 0
313963.0 514492.0 0
317959.0 514525.0 0
321954.0 514617.0 0
325951.0 514682.0 0
329949.0 514730.0 0
333949.0 514727.0 0
337950.0 514705.0 0
341962.0 514676.0 0
345977.0 514661.0 0
349979.0 514653.0 0
353988.0 514635.0 0
357987.0 514570.0 0
361986.0 514555.0 0
365983.0 514672.0 0
369982.0 514735.0 0
373985.0 514633.0 0
377994.0 514549.0 0
381998.0 514441.0 0
385998.0 514425.0 0
389998.0 514466.0 0
393999.0 514470.0 0
397999.0 514506.0 0
101999.0 518504.0 0
105999.0 518470.0 0
109999.0 518458.0 0
113998.0 518425.0 0
117998.0 518440.0 0
121997.0 518537.0 0
125996.0 518609.0 0
129995.0 518691.0 0
133995.0 518655.0 0
137993.0 518555.0 0
141993.0 518570.0 0
145992.0 518632.0 0
149991.0 518643.0 0
153991.0 518650.0 0
157990.0 518658.0 0
161989.0 518689.0 0
165988.0 518704.0 0
169987.0 518704.0 0
173986.0 518656.0 0
177986.0 518599.0 0
181991.0 518510.0 0
185995.0 518492.0 0
189997.0 518394.0 0
193999.0 518440.0 0
198000.0 518310.0 0
202000.0 518520.0 0
206000.0 518310.0 0
210003.0 518533.0 0
214000.0 518310.0 0
218010.0 518581.0 0
222000.0 518309.0 0
226017.0 518596.0 0
230006.0 518308.0 0
234032.0 518595.0 0
238025.0 518347.0 0
242118.0 518789.0 0
246085.0 518293.0 0
250234.0 519134.0 0
254169.0 518450.0 0
258150.0 518725.0 0
262118.0 518310.0 0
266101.0 518565.0 0
270084.0 518300.0 0
274069.0 518560.0 0
278054.0 518305.0 0
282043.0 518537.0 0
286032.0 518307.0 0
290024.0 518496.0 0
294017.0 518309.0 0
298011.0 518496.0 0
302005.0 518309.0 0
306003.0 518418.0 0
310003.0 518384.0 0
314004.0 518483.0 0
318009.0 518502.0 0
322014.0 518591.0 0
326013.0 518651.0 0
330012.0 518699.0 0
334012.0 518699.0 0
338011.0 518685.0 0
342010.0 518659.0 0
346009.0 518649.0 0
350008.0 518645.0 0
354008.0 518632.0 0
358007.0 518570.0 0
362006.0 518555.0 0
366005.0 518656.0 0
370005.0 518692.0 0
374004.0 518610.0 0
378003.0 518538.0 0
382002.0 518440.0 0
386001.0 518425.0 0
390001.0 518458.0 0
394001.0 518470.0 0
398001.0 518504.0 0
102000.0 522501.0 0
106000.0 522468.0 0
110000.0 522451.0 0
114000.0 522425.0 0
118000.0 522438.0 0
122000.0 522528.0 0
126000.0 522589.0 0
130001.0 522655.0 0
134001.0 522638.0 0
138000.0 522554.0 0
142000.0 522569.0 0
146001.0 522629.0 0
150002.0 522636.0 0
154002.0 522639.0 0
158002.0 522643.0 0
162004.0 522670.0 0
166004.0 522678.0 0
170004.0 522676.0 0
174004.0 522627.0 0
178003.0 522575.0 0
182002.0 522489.0 0
186002.0 522483.0 0
190001.0 522386.0 0
194000.0 522433.0 0
198000.0 522310.0 0
202000.0 522509.0 0
206000.0 522310.0 0
210000.0 522519.0 0
214000.0 522310.0 0
217999.0 522561.0 0
221990.0 522309.0 0
225980.0 522577.0 0
229969.0 522308.0 0
233957.0 522579.0 0
237946.0 522337.0 0
241920.0 522755.0 0
245889.0 522288.0 0
249805.0 523085.0 0
253947.0 522422.0 0
257937.0 522699.0 0
261996.0 522308.0 0
265989.0 522550.0 0
270000.0 522309.0 0
273993.0 522542.0 0
278000.0 522310.0 0
281997.0 522525.0 0
286000.0 522310.0 0
289999.0 522487.0 0
294000.0 522310.0 0
298000.0 522488.0 0
302000.0 522310.0 0
306000.0 522417.0 0
309999.0 522378.0 0
313998.0 522476.0 0
317998.0 522483.0 0
321997.0 522569.0 0
325996.0 522623.0 0
329996.0 522672.0 0
333996.0 522674.0 0
337996.0 522667.0 0
341998.0 522643.0 0
345998.0 522639.0 0
349998.0 522637.0 0
353999.0 522630.0 0
358000.0 522569.0 0
362000.0 522554.0 0
365999.0 522639.0 0
369999.0 522656.0 0
374000.0 522590.0 0
378000.0 522529.0 0
382000.0 522438.0 0
386000.0 522425.0 0
390000.0 522451.0 0
394000.0 522468.0 0
398000.0 522501.0 0
102000.0 526498.0 0
106000.0 526467.0 0
110000.0 526445.0 0
114000.0 526424.0 0
118000.0 526435.0 0
122000.0 526521.0 0
126000.0 526573.0 0
130000.0 526626.0 0
134000.0 526621.0 0
138000.0 526553.0 0
142000.0 526568.0 0
145999.0 526626.0 0
149999.0 526629.0 0
153999.0 526630.0 0
157999.0 526629.0 0
161999.0 526653.0 0
165999.0 526654.0 0
169999.0 526650.0 0
173999.0 526601.0 0
177999.0 526554.0 0
182000.0 526471.0 0
186000.0 526475.0 0
190000.0 526379.0 0
194000.0 526428.0 0
198000.0 526310.0 0
202000.0 526499.0 0
206000.0 526310.0 0
210000.0 526507.0 0
214000.0 526310.0 0
218000.0 526544.0 0
222000.0 526310.0 0
226001.0 526559.0 0
230000.0 526310.0 0
234004.0 526563.0 0
238001.0 526330.0 0
242026.0 526725.0 0
246004.0 526308.0 0
250115.0 527044.0 0
254060.0 526403.0 0
258047.0 526677.0 0
262027.0 526308.0 0
266018.0 526537.0 0
270010.0 526309.0 0
274003.0 526527.0 0
278000.0 526310.0 0
282000.0 526513.0 0
286000.0 526310.0 0
290000.0 526479.0 0
294000.0 526310.0 0
298000.0 526481.0 0
302000.0 526310.0 0
306000.0 526415.0 0
310000.0 526371.0 0
314000.0 526469.0 0
318000.0 526466.0 0
322001.0 526549.0 0
326001.0 526597.0 0
330001.0 526647.0 0
334001.0 526651.0 0
338001.0 526650.0 0
342001.0 526629.0 0
346001.0 526630.0 0
350001.0 526630.0 0
354001.0 526626.0 0
358000.0 526568.0 0
362000.0 526553.0 0
366000.0 526621.0 0
370000.0 526627.0 0
374000.0 526573.0 0
378000.0 526521.0 0
382000.0 526436.0 0
386000.0 526424.0 0
390000.0 526445.0 0
394000.0 526467.0 0
398000.0 526498.0 0
102000.0 530495.0 0
106000.0 530465.0 0
110000.0 530439.0 0
114000.0 530424.0 0
118000.0 530433.0 0
122000.0 530515.0 0
126000.0 530559.0 0
130000.0 530603.0 0
134000.0 530604.0 0
138000.0 530551.0 0
142000.0 530566.0 0
146000.0 530621.0 0
150000.0 530622.0 0
154000.0 530622.0 0
158000.0 530617.0 0
162000.0 530636.0 0
166000.0 530632.0 0
170000.0 530627.0 0
174000.0 530577.0 0
178000.0 530535.0 0
182000.0 530455.0 0
186000.0 530468.0 0
190000.0 530371.0 0
194000.0 530423.0 0
198000.0 530310.0 0
202000.0 530489.0 0
206000.0 530310.0 0
210000.0 530495.0 0
214000.0 530310.0 0
218000.0 530529.0 0
222000.0 530310.0 0
226000.0 530542.0 0
230000.0 530310.0 0
234000.0 530548.0 0
238000.0 530324.0 0
241995.0 530696.0 0
245978.0 530308.0 0
249915.0 531010.0 0
253996.0 530388.0 0
257993.0 530655.0 0
262000.0 530310.0 0
265999.0 530524.0 0
270000.0 530310.0 0
274000.0 530514.0 0
278000.0 530310.0 0
282000.0 530503.0 0
286000.0 530310.0 0
290000.0 530472.0 0
294000.0 530310.0 0
298000.0 530475.0 0
302000.0 530310.0 0
306000.0 530414.0 0
310000.0 530365.0 0
314000.0 530462.0 0
318000.0 530451.0 0
322000.0 530531.0 0
326000.0 530574.0 0
330000.0 530625.0 0
334000.0 530630.0 0
338000.0 530634.0 0
342000.0 530616.0 0
346000.0 530622.0 0
350000.0 530623.0 0
354000.0 530622.0 0
358000.0 530566.0 0
362000.0 530551.0 0
366000.0 530604.0 0
370000.0 530603.0 0
374000.0 530560.0 0
378000.0 530515.0 0
382000.0 530433.0 0
386000.0 530424.0 0
390000.0 530439.0 0
394000.0 530465.0 0
398000.0 530495.0 0
102000.0 534492.0 0
106000.0 534464.0 0
110000.0 534435.0 0
114000.0 534423.0 0
118000.0 534430.0 0
122000.0 534509.0 0
126000.0 534548.0 0
130000.0 534584.0 0
134000.0 534588.0 0
138000.0 534550.0 0
142000.0 534565.0 0
146000.0 534617.0 0
150000.0 534615.0 0
154000.0 534615.0 0
158000.0 534605.0 0
162000.0 534621.0 0
166000.0 534612.0 0
170000.0 534606.0 0
174000.0 534556.0 0
178000.0 534518.0 0
182000.0 534441.0 0
186000.0 534461.0 0
190000.0 534364.0 0
194000.0 534420.0 0
198000.0 534310.0 0
202000.0 534480.0 0
206000.0 534310.0 0
210000.0 534485.0 0
214000.0 534310.0 0
218000.0 534515.0 0
222000.0 534310.0 0
226000.0 534527.0 0
230000.0 534310.0 0
234000.0 534533.0 0
238000.0 534320.0 0
242000.0 534669.0 0
246000.0 534310.0 0
254000.0 534375.0 0
258001.0 534634.0 0
262000.0 534310.0 0
266000.0 534512.0 0
270000.0 534310.0 0
274000.0 534502.0 0
278000.0 534310.0 0
282000.0 534493.0 0
286000.0 534310.0 0
290000.0 534465.0 0
294000.0 534310.0 0
298000.0 534468.0 0
302000.0 534310.0 0
306000.0 534413.0 0
310000.0 534359.0 0
314000.0 534456.0 0
318000.0 534438.0 0
322000.0 534515.0 0
326000.0 534553.0 0
330000.0 534604.0 0
334000.0 534611.0 0
338000.0 534620.0 0
342000.0 534605.0 0
346000.0 534615.0 0
350000.0 534615.0 0
354000.0 534617.0 0
358000.0 534565.0 0
362000.0 534550.0 0
366000.0 534588.0 0
370000.0 534584.0 0
374000.0 534548.0 0
378000.0 534509.0 0
382000.0 534430.0 0
386000.0 534423.0 0
390000.0 534435.0 0
394000.0 534464.0 0
398000.0 534492.0 0
250037.0 534978.0 0
102000.0 538488.0 0
106000.0 538462.0 0
110000.0 538431.0 0
114000.0 538423.0 0
118000.0 538428.0 0
122000.0 538504.0 0
126000.0 538539.0 0
130000.0 538568.0 0
134000.0 538572.0 0
138000.0 538548.0 0
142000.0 538563.0 0
146000.0 538612.0 0
150000.0 538608.0 0
154000.0 538607.0 0
158000.0 538594.0 0
162000.0 538607.0 0
166000.0 538594.0 0
170000.0 538587.0 0
174000.0 538536.0 0
178000.0 538504.0 0
182000.0 538429.0 0
186000.0 538454.0 0
190000.0 538358.0 0
194000.0 538416.0 0
198000.0 538310.0 0
202000.0 538472.0 0
206000.0 538310.0 0
210000.0 538475.0 0
214000.0 538310.0 0
218000.0 538503.0 0
222000.0 538310.0 0
226000.0 538513.0 0
230000.0 538310.0 0
234000.0 538519.0 0
238000.0 538317.0 0
242000.0 538642.0 0
246000.0 538310.0 0
249991.0 538947.0 0
254000.0 538365.0 0
258000.0 538613.0 0
262000.0 538310.0 0
266000.0 538500.0 0
270000.0 538310.0 0
274000.0 538491.0 0
278000.0 538310.0 0
282000.0 538485.0 0
286000.0 538310.0 0
290000.0 538459.0 0
294000.0 538310.0 0
298000.0 538462.0 0
302000.0 538310.0 0
306000.0 538411.0 0
310000.0 538353.0 0
314000.0 538450.0 0
318000.0 538426.0 0
322000.0 538501.0 0
326000.0 538535.0 0
330000.0 538585.0 0
334000.0 538593.0 0
338000.0 538606.0 0
342000.0 538594.0 0
346000.0 538607.0 0
350000.0 538608.0 0
354000.0 538612.0 0
358000.0 538563.0 0
362000.0 538548.0 0
366000.0 538573.0 0
370000.0 538568.0 0
374000.0 538539.0 0
378000.0 538504.0 0
382000.0 538428.0 0
386000.0 538423.0 0
390000.0 538431.0 0
394000.0 538462.0 0
398000.0 538488.0 0
102000.0 542484.0 0
106000.0 542460.0 0
110000.0 542428.0 0
114000.0 542423.0 0
118000.0 542425.0 0
122000.0 542500.0 0
126000.0 542531.0 0
130000.0 542555.0 0
134000.0 542558.0 0
138000.0 542546.0 0
142000.0 542561.0 0
146000.0 542606.0 0
150000.0 542600.0 0
154000.0 542600.0 0
158000.0 542584.0 0
162000.0 542594.0 0
166000.0 542577.0 0
170000.0 542569.0 0
174000.0 542519.0 0
178000.0 542490.0 0
182000.0 542418.0 0
186000.0 542447.0 0
190000.0 542352.0 0
194000.0 542413.0 0
198000.0 542310.0 0
202000.0 542465.0 0
206000.0 542310.0 0
210000.0 542466.0 0
214000.0 542310.0 0
218000.0 542492.0 0
222000.0 542310.0 0
226000.0 542501.0 0
230000.0 542310.0 0
234000.0 542506.0 0
238000.0 542315.0 0
242000.0 542618.0 0
246000.0 542310.0 0
254000.0 542356.0 0
258000.0 542593.0 0
262000.0 542310.0 0
266000.0 542489.0 0
270000.0 542310.0 0
274000.0 542481.0 0
278000.0 542310.0 0
282000.0 542476.0 0
286000.0 542310.0 0
290000.0 542453.0 0
294000.0 542310.0 0
298000.0 542456.0 0
302000.0 542310.0 0
306000.0 542409.0 0
310000.0 542348.0 0
314000.0 542443.0 0
318000.0 542416.0 0
322000.0 542488.0 0
326000.0 542517.0 0
330000.0 542568.0 0
334000.0 542576.0 0
338000.0 542593.0 0
342000.0 542584.0 0
346000.0 542600.0 0
350000.0 542601.0 0
354000.0 542606.0 0
358000.0 542561.0 0
362000.0 542546.0 0
366000.0 542559.0 0
370000.0 542556.0 0
374000.0 542531.0 0
378000.0 542500.0 0
382000.0 542425.0 0
386000.0 542423.0 0
390000.0 542428.0 0
394000.0 542460.0 0
398000.0 542485.0 0
250002.0 542917.0 0
102000.0 546481.0 0
106000.0 546457.0 0
110000.0 546426.0 0
114000.0 546422.0 0
118000.0 546423.0 0
122000.0 546495.0 0
126000.0 546524.0 0
130000.0 546545.0 0
134000.0 546546.0 0
138000.0 546544.0 0
142000.0 546559.0 0
146000.0 546601.0 0
150000.0 546593.0 0
154000.0 546593.0 0
158000.0 546575.0 0
162000.0 546582.0 0
166000.0 546562.0 0
170000.0 546553.0 0
174000.0 546503.0 0
178000.0 546478.0 0
182000.0 546409.0 0
186000.0 546440.0 0
190000.0 546347.0 0
194000.0 546411.0 0
198000.0 546310.0 0
202000.0 546458.0 0
206000.0 546310.0 0
210000.0 546458.0 0
214000.0 546310.0 0
218000.0 546482.0 0
222000.0 546310.0 0
226000.0 546489.0 0
230000.0 546310.0 0
234000.0 546494.0 0
238000.0 546313.0 0
242000.0 546595.0 0
246000.0 546310.0 0
250000.0 546888.0 0
254000.0 546348.0 0
258000.0 546574.0 0
262000.0 546310.0 0
266000.0 546479.0 0
270000.0 546310.0 0
274000.0 546472.0 0
278000.0 546310.0 0
282000.0 546469.0 0
286000.0 546310.0 0
290000.0 546447.0 0
294000.0 546310.0 0
298000.0 546451.0 0
302000.0 546310.0 0
306000.0 546408.0 0
310000.0 546344.0 0
314000.0 546438.0 0
318000.0 546407.0 0
322000.0 546477.0 0
326000.0 546502.0 0
330000.0 546552.0 0
334000.0 546561.0 0
338000.0 546581.0 0
342000.0 546575.0 0
346000.0 546593.0 0
350000.0 546593.0 0
354000.0 546601.0 0
358000.0 546559.0 0
362000.0 546544.0 0
366000.0 546546.0 0
370000.0 546545.0 0
374000.0 546524.0 0
378000.0 546495.0 0
382000.0 546423.0 0
386000.0 546422.0 0
390000.0 546426.0 0
394000.0 546457.0 0
398000.0 546481.0 0
102000.0 550478.0 0
106000.0 550455.0 0
110000.0 550423.0 0
114000.0 550422.0 0
118000.0 550420.0 0
122000.0 550492.0 0
126000.0 550519.0 0
130000.0 550536.0 0
134000.0 550534.0 0
138000.0 550541.0 0
162000.0 550571.0 0
166000.0 550547.0 0
170000.0 550538.0 0
174000.0 550488.0 0
178000.0 550468.0 0
182000.0 550400.0 0
186000.0 550434.0 0
190000.0 550343.0 0
194000.0 550409.0 0
198000.0 550310.0 0
202000.0 550452.0 0
206000.0 550310.0 0
210000.0 550451.0 0
214000.0 550310.0 0
218000.0 550473.0 0
222000.0 550310.0 0
226000.0 550479.0 0
230000.0 550310.0 0
234000.0 550483.0 0
238000.0 550312.0 0
242000.0 550574.0 0
246000.0 550310.0 0
254000.0 550342.0 0
258000.0 550556.0 0
262000.0 550310.0 0
266000.0 550470.0 0
270000.0 550310.0 0
274000.0 550464.0 0
278000.0 550310.0 0
282000.0 550462.0 0
286000.0 550310.0 0
290000.0 550442.0 0
294000.0 550310.0 0
298000.0 550446.0 0
302000.0 550310.0 0
306000.0 550406.0 0
310000.0 550340.0 0
314000.0 550432.0 0
318000.0 550399.0 0
322000.0 550466.0 0
326000.0 550487.0 0
330000.0 550538.0 0
334000.0 550547.0 0
338000.0 550570.0 0
362000.0 550541.0 0
366000.0 550534.0 0
370000.0 550537.0 0
374000.0 550519.0 0
378000.0 550492.0 0
382000.0 550420.0 0
386000.0 550422.0 0
390000.0 550423.0 0
394000.0 550455.0 0
398000.0 550478.0 0
142000.0 550557.0 0
146000.0 550595.0 0
150000.0 550586.0 0
154000.0 550586.0 0
158000.0 550566.0 0
250000.0 550859.0 0
342000.0 550566.0 0
346000.0 550586.0 0
350000.0 550586.0 0
354000.0 550595.0 0
358000.0 550557.0 0
102000.0 554474.0 0
106000.0 554453.0 0
110000.0 554422.0 0
114000.0 554421.0 0
118000.0 554418.0 0
122000.0 554488.0 0
126000.0 554514.0 0
130000.0 554529.0 0
134000.0 554524.0 0
138000.0 554539.0 0
142000.0 554555.0 0
146000.0 554590.0 0
150000.0 554579.0 0
154000.0 554580.0 0
158000.0 554558.0 0
162000.0 554560.0 0
166000.0 554534.0 0
170000.0 554525.0 0
174000.0 554475.0 0
178000.0 554458.0 0
182000.0 554392.0 0
186000.0 554429.0 0
190000.0 554339.0 0
194000.0 554407.0 0
198000.0 554310.0 0
202000.0 554447.0 0
206000.0 554310.0 0
210000.0 554445.0 0
214000.0 554310.0 0
218000.0 554465.0 0
222000.0 554310.0 0
226000.0 554469.0 0
230000.0 554310.0 0
234000.0 554473.0 0
238000.0 554311.0 0
242000.0 554555.0 0
246000.0 554310.0 0
250000.0 554832.0 0
254000.0 554337.0 0
258000.0 554540.0 0
262000.0 554310.0 0
266000.0 554461.0 0
270000.0 554310.0 0
274000.0 554457.0 0
278000.0 554310.0 0
282000.0 554456.0 0
286000.0 554310.0 0
290000.0 554437.0 0
294000.0 554310.0 0
298000.0 554442.0 0
302000.0 554310.0 0
306000.0 554404.0 0
310000.0 554337.0 0
314000.0 554427.0 0
318000.0 554391.0 0
322000.0 554457.0 0
326000.0 554474.0 0
330000.0 554524.0 0
334000.0 554534.0 0
338000.0 554560.0 0
342000.0 554557.0 0
346000.0 554580.0 0
350000.0 554579.0 0
354000.0 554590.0 0
358000.0 554555.0 0
362000.0 554539.0 0
366000.0 554524.0 0
370000.0 554529.0 0
374000.0 554514.0 0
378000.0 554488.0 0
382000.0 554418.0 0
386000.0 554421.0 0
390000.0 554422.0 0
394000.0 554453.0 0
398000.0 554474.0 0
190000.0 558335.0 0
198000.0 558310.0 0
206000.0 558310.0 0
214000.0 558310.0 0
222000.0 558310.0 0
230000.0 558310.0 0
238000.0 558310.0 0
246000.0 558310.0 0
254000.0 558333.0 0
262000.0 558310.0 0
270000.0 558310.0 0
278000.0 558310.0 0
286000.0 558310.0 0
294000.0 558310.0 0
302000.0 558310.0 0
310000.0 558334.0 0
102000.0 558471.0 0
106000.0 558451.0 0
110000.0 558420.0 0
114000.0 558420.0 0
118000.0 558416.0 0
122000.0 558485.0 0
126000.0 558509.0 0
130000.0 558523.0 0
134000.0 558515.0 0
138000.0 558537.0 0
142000.0 558553.0 0
146000.0 558585.0 0
150000.0 558572.0 0
154000.0 558573.0 0
158000.0 558550.0 0
162000.0 558550.0 0
166000.0 558522.0 0
170000.0 558513.0 0
174000.0 558463.0 0
178000.0 558449.0 0
182000.0 558385.0 0
186000.0 558424.0 0
194000.0 558405.0 0
202000.0 558442.0 0
210000.0 558439.0 0
218000.0 558458.0 0
226000.0 558461.0 0
234000.0 558463.0 0
242000.0 558537.0 0
250000.0 558806.0 0
258000.0 558525.0 0
266000.0 558454.0 0
274000.0 558450.0 0
282000.0 558450.0 0
290000.0 558433.0 0
298000.0 558438.0 0
306000.0 558403.0 0
314000.0 558422.0 0
318000.0 558384.0 0
322000.0 558448.0 0
326000.0 558463.0 0
330000.0 558512.0 0
334000.0 558521.0 0
338000.0 558550.0 0
342000.0 558550.0 0
346000.0 558573.0 0
350000.0 558572.0 0
354000.0 558585.0 0
358000.0 558553.0 0
362000.0 558537.0 0
366000.0 558515.0 0
370000.0 558523.0 0
374000.0 558509.0 0
378000.0 558485.0 0
382000.0 558416.0 0
386000.0 558420.0 0
390000.0 558420.0 0
394000.0 558451.0 0
398000.0 558471.0 0
102000.0 562468.0 0
106000.0 562449.0 0
110000.0 562419.0 0
114000.0 562420.0 0
118000.0 562415.0 0
122000.0 562482.0 0
126000.0 562506.0 0
130000.0 562518.0 0
134000.0 562507.0 0
138000.0 562535.0 0
142000.0 562551.0 0
146000.0 562580.0 0
150000.0 562566.0 0
154000.0 562567.0 0
158000.0 562542.0 0
162000.0 562541.0 0
166000.0 562511.0 0
170000.0 562502.0 0
174000.0 562452.0 0
178000.0 562442.0 0
182000.0 562379.0 0
186000.0 562420.0 0
190000.0 562333.0 0
194000.0 562403.0 0
198000.0 562310.0 0
202000.0 562437.0 0
206000.0 562310.0 0
210000.0 562434.0 0
214000.0 562310.0 0
218000.0 562452.0 0
222000.0 562310.0 0
226000.0 562453.0 0
230000.0 562310.0 0
234000.0 562455.0 0
238000.0 562310.0 0
242000.0 562522.0 0
246000.0 562310.0 0
250000.0 562782.0 0
254000.0 562329.0 0
258000.0 562511.0 0
262000.0 562310.0 0
266000.0 562447.0 0
270000.0 562310.0 0
274000.0 562444.0 0
278000.0 562310.0 0
282000.0 562445.0 0
286000.0 562310.0 0
290000.0 562429.0 0
294000.0 562310.0 0
298000.0 562434.0 0
302000.0 562310.0 0
306000.0 562401.0 0
310000.0 562331.0 0
314000.0 562418.0 0
318000.0 562378.0 0
322000.0 562441.0 0
326000.0 562452.0 0
330000.0 562501.0 0
334000.0 562510.0 0
338000.0 562541.0 0
342000.0 562542.0 0
346000.0 562567.0 0
350000.0 562566.0 0
354000.0 562580.0 0
358000.0 562551.0 0
362000.0 562535.0 0
366000.0 562507.0 0
370000.0 562518.0 0
374000.0 562506.0 0
378000.0 562482.0 0
382000.0 562415.0 0
386000.0 562420.0 0
390000.0 562419.0 0
394000.0 562449.0 0
398000.0 562468.0 0
102000.0 566466.0 0
106000.0 566447.0 0
110000.0 566418.0 0
114000.0 566419.0 0
118000.0 566413.0 0
122000.0 566480.0 0
126000.0 566502.0 0
130000.0 566514.0 0
134000.0 566501.0 0
138000.0 566533.0 0
142000.0 566549.0 0
146000.0 566575.0 0
150000.0 566560.0 0
154000.0 566561.0 0
158000.0 566536.0 0
162000.0 566533.0 0
166000.0 566500.0 0
170000.0 566491.0 0
174000.0 566443.0 0
178000.0 566435.0 0
182000.0 566373.0 0
186000.0 566416.0 0
190000.0 566330.0 0
194000.0 566401.0 0
198000.0 566310.0 0
202000.0 566434.0 0
206000.0 566310.0 0
210000.0 566430.0 0
214000.0 566310.0 0
218000.0 566446.0 0
222000.0 566310.0 0
226000.0 566447.0 0
230000.0 566310.0 0
234000.0 566448.0 0
238000.0 566310.0 0
242000.0 566508.0 0
246000.0 566310.0 0
250000.0 566760.0 0
254000.0 566326.0 0
258000.0 566499.0 0
262000.0 566310.0 0
266000.0 566441.0 0
270000.0 566310.0 0
274000.0 566439.0 0
278000.0 566310.0 0
282000.0 566441.0 0
286000.0 566310.0 0
290000.0 566426.0 0
294000.0 566310.0 0
298000.0 566431.0 0
302000.0 566310.0 0
306000.0 566400.0 0
310000.0 566329.0 0
314000.0 566415.0 0
318000.0 566373.0 0
322000.0 566434.0 0
326000.0 566442.0 0
330000.0 566491.0 0
334000.0 566500.0 0
338000.0 566533.0 0
342000.0 566536.0 0
346000.0 566562.0 0
350000.0 566560.0 0
354000.0 566575.0 0
358000.0 566549.0 0
362000.0 566533.0 0
366000.0 566501.0 0
370000.0 566514.0 0
374000.0 566502.0 0
378000.0 566480.0 0
382000.0 566413.0 0
386000.0 566419.0 0
390000.0 566418.0 0
394000.0 566447.0 0
398000.0 566466.0 0
102000.0 570463.0 0
106000.0 570445.0 0
110000.0 570417.0 0
114000.0 570419.0 0
118000.0 570412.0 0
122000.0 570477.0 0
126000.0 570499.0 0
130000.0 570510.0 0
134000.0 570495.0 0
138000.0 570531.0 0
142000.0 570547.0 0
146000.0 570571.0 0
150000.0 570555.0 0
154000.0 570556.0 0
158000.0 570530.0 0
162000.0 570525.0 0
166000.0 570491.0 0
170000.0 570483.0 0
174000.0 570434.0 0
178000.0 570428.0 0
182000.0 570368.0 0
186000.0 570412.0 0
190000.0 570328.0 0
194000.0 570400.0 0
198000.0 570310.0 0
202000.0 570430.0 0
206000.0 570310.0 0
210000.0 570426.0 0
214000.0 570310.0 0
218000.0 570441.0 0
222000.0 570310.0 0
226000.0 570441.0 0
230000.0 570310.0 0
234000.0 570441.0 0
238000.0 570310.0 0
242000.0 570496.0 0
246000.0 570310.0 0
250000.0 570739.0 0
254000.0 570324.0 0
258000.0 570488.0 0
262000.0 570310.0 0
266000.0 570435.0 0
270000.0 570310.0 0
274000.0 570434.0 0
278000.0 570310.0 0
282000.0 570437.0 0
286000.0 570310.0 0
290000.0 570423.0 0
294000.0 570310.0 0
298000.0 570428.0 0
302000.0 570310.0 0
306000.0 570399.0 0
310000.0 570327.0 0
314000.0 570411.0 0
318000.0 570368.0 0
322000.0 570428.0 0
326000.0 570434.0 0
330000.0 570482.0 0
334000.0 570491.0 0
338000.0 570525.0 0
342000.0 570529.0 0
346000.0 570556.0 0
350000.0 570555.0 0
354000.0 570571.0 0
358000.0 570547.0 0
362000.0 570531.0 0
366000.0 570495.0 0
370000.0 570510.0 0
374000.0 570499.0 0
378000.0 570477.0 0
382000.0 570412.0 0
386000.0 570419.0 0
390000.0 570417.0 0
394000.0 570445.0 0
398000.0 570463.0 0
102000.0 574461.0 0
106000.0 574444.0 0
110000.0 574417.0 0
114000.0 574419.0 0
118000.0 574411.0 0
122000.0 574476.0 0
126000.0 574497.0 0
130000.0 574507.0 0
134000.0 574490.0 0
138000.0 574529.0 0
142000.0 574546.0 0
146000.0 574567.0 0
150000.0 574550.0 0
154000.0 574552.0 0
158000.0 574524.0 0
162000.0 574519.0 0
166000.0 574483.0 0
170000.0 574475.0 0
174000.0 574427.0 0
178000.0 574423.0 0
182000.0 574364.0 0
186000.0 574409.0 0
190000.0 574326.0 0
194000.0 574398.0 0
198000.0 574310.0 0
202000.0 574427.0 0
206000.0 574310.0 0
210000.0 574423.0 0
214000.0 574310.0 0
218000.0 574437.0 0
222000.0 574310.0 0
226000.0 574436.0 0
230000.0 574310.0 0
234000.0 574436.0 0
238000.0 574310.0 0
242000.0 574485.0 0
246000.0 574310.0 0
250000.0 574721.0 0
254000.0 574321.0 0
258000.0 574479.0 0
262000.0 574310.0 0
266000.0 574431.0 0
270000.0 574310.0 0
274000.0 574430.0 0
278000.0 574310.0 0
282000.0 574433.0 0
286000.0 574310.0 0
290000.0 574420.0 0
294000.0 574310.0 0
298000.0 574425.0 0
302000.0 574310.0 0
306000.0 574398.0 0
310000.0 574325.0 0
314000.0 574409.0 0
318000.0 574364.0 0
322000.0 574423.0 0
326000.0 574427.0 0
330000.0 574474.0 0
334000.0 574483.0 0
338000.0 574519.0 0
342000.0 574524.0 0
346000.0 574552.0 0
350000.0 574550.0 0
354000.0 574567.0 0
358000.0 574546.0 0
362000.0 574529.0 0
366000.0 574490.0 0
370000.0 574507.0 0
374000.0 574497.0 0
378000.0 574476.0 0
382000.0 574411.0 0
386000.0 574419.0 0
390000.0 574417.0 0
394000.0 574444.0 0
398000.0 574461.0 0
102000.0 578459.0 0
106000.0 578442.0 0
110000.0 578416.0 0
114000.0 578418.0 0
118000.0 578410.0 0
122000.0 578474.0 0
126000.0 578495.0 0
130000.0 578505.0 0
134000.0 578486.0 0
138000.0 578528.0 0
142000.0 578544.0 0
146000.0 578564.0 0
150000.0 578546.0 0
154000.0 578547.0 0
158000.0 578519.0 0
162000.0 578513.0 0
166000.0 578477.0 0
170000.0 578468.0 0
174000.0 578420.0 0
178000.0 578418.0 0
182000.0 578360.0 0
186000.0 578407.0 0
190000.0 578325.0 0
194000.0 578397.0 0
198000.0 578310.0 0
202000.0 578425.0 0
206000.0 578310.0 0
210000.0 578420.0 0
214000.0 578310.0 0
218000.0 578433.0 0
222000.0 578310.0 0
226000.0 578431.0 0
230000.0 578310.0 0
234000.0 578431.0 0
238000.0 578310.0 0
242000.0 578476.0 0
246000.0 578310.0 0
250000.0 578706.0 0
254000.0 578320.0 0
258000.0 578471.0 0
262000.0 578310.0 0
266000.0 578427.0 0
270000.0 578310.0 0
274000.0 578427.0 0
278000.0 578310.0 0
282000.0 578430.0 0
286000.0 578310.0 0
290000.0 578418.0 0
294000.0 578310.0 0
298000.0 578423.0 0
302000.0 578310.0 0
306000.0 578397.0 0
310000.0 578324.0 0
314000.0 578406.0 0
318000.0 578360.0 0
322000.0 578418.0 0
326000.0 578420.0 0
330000.0 578468.0 0
334000.0 578477.0 0
338000.0 578513.0 0
342000.0 578519.0 0
346000.0 578547.0 0
350000.0 578546.0 0
354000.0 578564.0 0
358000.0 578544.0 0
362000.0 578528.0 0
366000.0 578486.0 0
370000.0 578505.0 0
374000.0 578495.0 0
378000.0 578474.0 0
382000.0 578410.0 0
386000.0 578418.0 0
390000.0 578416.0 0
394000.0 578442.0 0
398000.0 578459.0 0
102000.0 582458.0 0
106000.0 582441.0 0
110000.0 582416.0 0
114000.0 582418.0 0
118000.0 582409.0 0
122000.0 582473.0 0
126000.0 582493.0 0
130000.0 582503.0 0
134000.0 582483.0 0
138000.0 582527.0 0
142000.0 582543.0 0
146000.0 582561.0 0
150000.0 582542.0 0
154000.0 582544.0 0
158000.0 582515.0 0
162000.0 582508.0 0
166000.0 582471.0 0
170000.0 582462.0 0
174000.0 582415.0 0
178000.0 582414.0 0
182000.0 582357.0 0
186000.0 582405.0 0
190000.0 582323.0 0
194000.0 582396.0 0
198000.0 582310.0 0
202000.0 582423.0 0
206000.0 582310.0 0
210000.0 582418.0 0
214000.0 582310.0 0
218000.0 582430.0 0
222000.0 582310.0 0
226000.0 582428.0 0
230000.0 582310.0 0
234000.0 582427.0 0
238000.0 582310.0 0
242000.0 582469.0 0
246000.0 582310.0 0
250000.0 582693.0 0
254000.0 582318.0 0
258000.0 582464.0 0
262000.0 582310.0 0
266000.0 582423.0 0
270000.0 582310.0 0
274000.0 582424.0 0
278000.0 582310.0 0
282000.0 582427.0 0
286000.0 582310.0 0
290000.0 582416.0 0
294000.0 582310.0 0
298000.0 582421.0 0
302000.0 582310.0 0
306000.0 582396.0 0
310000.0 582323.0 0
314000.0 582404.0 0
318000.0 582357.0 0
322000.0 582414.0 0
326000.0 582415.0 0
330000.0 582462.0 0
334000.0 582471.0 0
338000.0 582508.0 0
342000.0 582515.0 0
346000.0 582544.0 0
350000.0 582542.0 0
354000.0 582561.0 0
358000.0 582543.0 0
362000.0 582527.0 0
366000.0 582483.0 0
370000.0 582503.0 0
374000.0 582493.0 0
378000.0 582473.0 0
382000.0 582409.0 0
386000.0 582418.0 0
390000.0 582416.0 0
394000.0 582441.0 0
398000.0 582458.0 0
102000.0 586457.0 0
106000.0 586440.0 0
110000.0 586415.0 0
114000.0 586418.0 0
118000.0 586408.0 0
122000.0 586472.0 0
126000.0 586492.0 0
130000.0 586501.0 0
134000.0 586481.0 0
138000.0 586526.0 0
142000.0 586542.0 0
146000.0 586558.0 0
150000.0 586539.0 0
154000.0 586541.0 0
158000.0 586512.0 0
162000.0 586504.0 0
166000.0 586466.0 0
170000.0 586458.0 0
174000.0 586411.0 0
178000.0 586411.0 0
182000.0 586354.0 0
186000.0 586403.0 0
190000.0 586323.0 0
194000.0 586396.0 0
198000.0 586310.0 0
202000.0 586421.0 0
206000.0 586310.0 0
210000.0 586416.0 0
214000.0 586310.0 0
218000.0 586428.0 0
222000.0 586310.0 0
226000.0 586425.0 0
230000.0 586310.0 0
234000.0 586424.0 0
238000.0 586310.0 0
242000.0 586463.0 0
246000.0 586310.0 0
250000.0 586682.0 0
254000.0 586317.0 0
258000.0 586459.0 0
262000.0 586310.0 0
266000.0 586421.0 0
270000.0 586310.0 0
274000.0 586421.0 0
278000.0 586310.0 0
282000.0 586425.0 0
286000.0 586310.0 0
290000.0 586414.0 0
294000.0 586310.0 0
298000.0 586420.0 0
302000.0 586310.0 0
306000.0 586395.0 0
310000.0 586322.0 0
314000.0 586403.0 0
318000.0 586354.0 0
322000.0 586411.0 0
326000.0 586411.0 0
330000.0 586458.0 0
334000.0 586466.0 0
338000.0 586504.0 0
342000.0 586512.0 0
346000.0 586541.0 0
350000.0 586539.0 0
354000.0 586558.0 0
358000.0 586542.0 0
362000.0 586526.0 0
366000.0 586481.0 0
370000.0 586501.0 0
374000.0 586492.0 0
378000.0 586472.0 0
382000.0 586408.0 0
386000.0 586418.0 0
390000.0 586415.0 0
394000.0 586440.0 0
398000.0 586457.0 0
102000.0 590456.0 0
106000.0 590439.0 0
110000.0 590415.0 0
114000.0 590417.0 0
118000.0 590408.0 0
122000.0 590471.0 0
126000.0 590491.0 0
130000.0 590500.0 0
134000.0 590479.0 0
138000.0 590525.0 0
142000.0 590541.0 0
146000.0 590557.0 0
150000.0 590537.0 0
154000.0 590539.0 0
158000.0 590510.0 0
162000.0 590501.0 0
166000.0 590463.0 0
170000.0 590454.0 0
174000.0 590408.0 0
178000.0 590409.0 0
182000.0 590352.0 0
186000.0 590402.0 0
190000.0 590322.0 0
194000.0 590395.0 0
198000.0 590310.0 0
202000.0 590420.0 0
206000.0 590310.0 0
210000.0 590415.0 0
214000.0 590310.0 0
218000.0 590426.0 0
222000.0 590310.0 0
226000.0 590423.0 0
230000.0 590310.0 0
234000.0 590422.0 0
238000.0 590310.0 0
242000.0 590459.0 0
246000.0 590310.0 0
250000.0 590674.0 0
254000.0 590317.0 0
258000.0 590455.0 0
262000.0 590310.0 0
266000.0 590419.0 0
270000.0 590310.0 0
274000.0 590420.0 0
278000.0 590310.0 0
282000.0 590424.0 0
286000.0 590310.0 0
290000.0 590413.0 0
294000.0 590310.0 0
298000.0 590419.0 0
302000.0 590310.0 0
306000.0 590395.0 0
310000.0 590322.0 0
314000.0 590401.0 0
318000.0 590352.0 0
322000.0 590409.0 0
326000.0 590407.0 0
330000.0 590454.0 0
334000.0 590463.0 0
338000.0 590501.0 0
342000.0 590510.0 0
346000.0 590539.0 0
350000.0 590537.0 0
354000.0 590557.0 0
358000.0 590541.0 0
362000.0 590525.0 0
366000.0 590479.0 0
370000.0 590500.0 0
374000.0 590491.0 0
378000.0 590471.0 0
382000.0 590408.0 0
386000.0 590417.0 0
390000.0 590415.0 0
394000.0 590439.0 0
398000.0 590456.0 0
102000.0 594455.0 0
106000.0 594439.0 0
110000.0 594415.0 0
114000.0 594417.0 0
118000.0 594408.0 0
122000.0 594470.0 0
126000.0 594490.0 0
130000.0 594499.0 0
134000.0 594478.0 0
138000.0 594524.0 0
142000.0 594541.0 0
146000.0 594555.0 0
150000.0 594536.0 0
154000.0 594537.0 0
158000.0 594508.0 0
162000.0 594499.0 0
166000.0 594460.0 0
170000.0 594452.0 0
174000.0 594405.0 0
178000.0 594407.0 0
182000.0 594351.0 0
186000.0 594401.0 0
190000.0 594321.0 0
194000.0 594395.0 0
198000.0 594310.0 0
202000.0 594419.0 0
206000.0 594310.0 0
210000.0 594414.0 0
214000.0 594310.0 0
218000.0 594425.0 0
222000.0 594310.0 0
226000.0 594422.0 0
230000.0 594310.0 0
234000.0 594420.0 0
238000.0 594310.0 0
242000.0 594456.0 0
246000.0 594310.0 0
250000.0 594669.0 0
254000.0 594316.0 0
258000.0 594453.0 0
262000.0 594310.0 0
266000.0 594418.0 0
270000.0 594310.0 0
274000.0 594419.0 0
278000.0 594310.0 0
282000.0 594423.0 0
286000.0 594310.0 0
290000.0 594412.0 0
294000.0 594310.0 0
298000.0 594418.0 0
302000.0 594310.0 0
306000.0 594394.0 0
310000.0 594321.0 0
314000.0 594401.0 0
318000.0 594351.0 0
322000.0 594407.0 0
326000.0 594405.0 0
330000.0 594452.0 0
334000.0 594460.0 0
338000.0 594499.0 0
342000.0 594508.0 0
346000.0 594537.0 0
350000.0 594536.0 0
354000.0 594555.0 0
358000.0 594541.0 0
362000.0 594524.0 0
366000.0 594478.0 0
370000.0 594499.0 0
374000.0 594490.0 0
378000.0 594470.0 0
382000.0 594408.0 0
386000.0 594417.0 0
390000.0 594415.0 0
394000.0 594439.0 0
398000.0 594455.0 0
102000.0 598455.0 0
106000.0 598439.0 0
110000.0 598415.0 0
114000.0 598417.0 0
118000.0 598407.0 0
122000.0 598470.0 0
126000.0 598490.0 0
130000.0 598499.0 0
134000.0 598477.0 0
138000.0 598524.0 0
142000.0 598540.0 0
146000.0 598555.0 0
150000.0 598535.0 0
154000.0 598537.0 0
158000.0 598507.0 0
162000.0 598498.0 0
166000.0 598459.0 0
170000.0 598451.0 0
174000.0 598404.0 0
178000.0 598407.0 0
182000.0 598351.0 0
186000.0 598400.0 0
190000.0 598321.0 0
194000.0 598394.0 0
198000.0 598310.0 0
202000.0 598419.0 0
206000.0 598310.0 0
210000.0 598413.0 0
214000.0 598310.0 0
218000.0 598424.0 0
222000.0 598310.0 0
226000.0 598421.0 0
230000.0 598310.0 0
234000.0 598420.0 0
238000.0 598310.0 0
242000.0 598454.0 0
246000.0 598310.0 0
250000.0 598666.0 0
254000.0 598316.0 0
258000.0 598451.0 0
262000.0 598310.0 0
266000.0 598417.0 0
270000.0 598310.0 0
274000.0 598418.0 0
278000.0 598310.0 0
282000.0 598422.0 0
286000.0 598310.0 0
290000.0 598412.0 0
294000.0 598310.0 0
298000.0 598418.0 0
302000.0 598310.0 0
306000.0 598394.0 0
310000.0 598321.0 0
314000.0 598400.0 0
318000.0 598350.0 0
322000.0 598406.0 0
326000.0 598404.0 0
330000.0 598451.0 0
334000.0 598459.0 0
338000.0 598498.0 0
342000.0 598507.0 0
346000.0 598537.0 0
350000.0 598535.0 0
354000.0 598555.0 0
358000.0 598540.0 0
362000.0 598524.0 0
366000.0 598477.0 0
370000.0 598499.0 0
374000.0 598490.0 0
378000.0 598470.0 0
382000.0 598407.0 0
386000.0 598417.0 0
390000.0 598415.0 0
394000.0 598439.0 0
398000.0 598455.0 0
POINT_DATA 4650
SCALARS Radius float 1
LOOKUP_TABLE default
4000.0 4000.0 4000.0 4000.0 4000.0 4000.0 4000.0 4000.0 4000.0 4000.0 4000.0 4000.0 4000.0 4000.0 4000.0 4000.0 4000.0 4000.0 4000.0 4000.0 4000.0 4000.0 4000.0 4000.0 4000.0 4000.0 4000.0 4000.0 4000.0 4000.0 4000.0 4000.0 4000.0 4000.0 4000.0 4000.0 4000.0 4000.0 4000.0 4000.0 4000.0 4000.0 4000.0 4000.0 4000.0 4000.0 4000.0 4000.0 4000.0 4000.0 4000.0 4000.0 4000.0 4000.0 4000.0 4000.0 4000.0 4000.0 4000.0 4000.0 4000.0 4000.0 4000.0 4000.0 4000.0 4000.0 4000.0 4000.0 4000.0 4000.0 4000.0 4000.0 4000.0 4000.0 4000.0 4000.0 4000.0 4000.0 4000.0 4000.0 4000.0 4000.0 4000.0 4000.0 4000.0 4000.0 4000.0 4000.0 4000.0 4000.0 4000.0 4000.0 4000.0 4000.0 4000.0 4000.0 4000.0 4000.0 4000.0 4000.0 4000.0 4000.0 4000.0 4000.0 4000.0 4000.0 4000.0 4000.0 4000.0 4000.0 4000.0 4000.0 4000.0 4000.0 4000.0 4000.0 4000.0 4000.0 4000.0 4000.0 4000.0 4000.0 4000.0 4000.0 4000.0 4000.0 4000.0 4000.0 4000.0 4000.0 4000.0 4000.0 4000.0 4000.0 4000.0 4000.0 4000.0 4000.0 4000.0 4000.0 4000.0 4000.0 4000.0 4000.0 4000.0 4000.0 4000.0 4000.0 4000.0 4000.0 4000.0 4000.0 4000.0 4000.0 4000.0 4000.0 4000.0 4000.0 4000.0 4000.0 4000.0 4000.0 4000.0 4000.0 4000.0 4000.0 4000.0 4000.0 4000.0 4000.0 4000.0 4000.0 4000.0 4000.0 4000.0 4000.0 4000.0 4000.0 4000.0 4000.0 4000.0 4000.0 4000.0 4000.0 4000.0 4000.0 4000.0 4000.0 4000.0 4000.0 4000.0 4000.0 4000.0 4000.0 4000.0 4000.0 4000.0 4000.0 4000.0 4000.0 4000.0 4000.0 4000.0 4000.0 4000.0 4000.0 4000.0 4000.0 4000.0 4000.0 4000.0 4000.0 4000.0 4000.0 4000.0 4000.0 4000.0 4000.0 4000.0 4000.0 4000.0 4000.0 4000.0 4000.0 4000.0 4000.0 4000.0 4000.0 4000.0 4000.0 4000.0 4000.0 4000.0 4000.0 4000.0 4000.0 4000.0 4000.0 4000.0 4000.0 4000.0 4000.0 4000.0 4000.0 4000.0 4000.0 4000.0 4000.0 4000.0 4000.0 4000.0 4000.0 4000.0 4000.0 4000.0 4000.0 4000.0 4000.0 4000.0 4000.0 4000.0 4000.0 4000.0 4000.0 4000.0 4000.0 4000.0 4000.0 4000.0 4000.0 4000.0 4000.0 4000.0 4000.0 4000.0 4000.0 4000.0 4000.0 4000.0 4000.0 4000.0 4000.0 4000.0 4000.0 4000.0 4000.0 4000.0 4000.0 4000.0 4000.0 4000.0 4000.0 4000.0 4000.0 4000.0 4000.0 4000.0 4000.0 4000.0 4000.0 4000.0 4000.0 4000.0 4000.0 4000.0 4000.0 4000.0 4000.0 4000.0 4000.0 4000.0 4000.0 4000.0 4000.0 4000.0 4000.0 4000.0 4000.0 4000.0 4000.0 4000.0 4000.0 4000.0 4000.0 4000.0 4000.0 4000.0 4000.0 4000.0 4000.0 4000.0 4000.0 4000.0 4000.0 4000.0 4000.0 4000.0 4000.0 4000.0 4000.0 4000.0 4000.0 4000.0 4000.0 4000.0 4000.0 4000.0 4000.0 4000.0 4000.0 4000.0 4000.0 4000.0 4000.0 4000.0 4000.0 4000.0 4000.0 4000.0 4000.0 4000.0 4000.0 4000.0 4000.0 4000.0 4000.0 4000.0 4000.0 4000.0 4000.0 4000.0 4000.0 4000.0 4000.0 4000.0 4000.0 4000.0 4000.0 4000.0 4000.0 4000.0 4000.0 4000.0 4000.0 4000.0 4000.0 4000.0 4000.0 4000.0 4000.0 4000.0 4000.0 4000.0 4000.0 4000.0 4000.0 4000.0 4000.0 4000.0 4000.0 4000.0 4000.0 4000.0 4000.0 4000.0 4000.0 4000.0 4000.0 4000.0 4000.0 4000.0 4000.0 4000.0 4000.0 4000.0 4000.0 4000.0 4000.0 4000.0 4000.0 4000.0 4000.0 4000.0 4000.0 4000.0 4000.0 4000.0 4000.0 4000.0 4000.0 4000.0 4000.0 4000.0 4000.0 4000.0 4000.0 4000.0 4000.0 4000.0 4000.0 4000.0 4000.0 4000.0 4000.0 4000.0 4000.0 4000.0 4000.0 4000.0 4000.0 4000.0 4000.0 4000.0 4000.0 4000.0 4000.0 4000.0 4000.0 4000.0 4000.0 4000.0 4000.0 4000.0 4000.0 4000.0 4000.0 4000.0 4000.0 4000.0 4000.0 4000.0 4000.0 4000.0 4000.0 4000.0 4000.0 4000.0 4000.0 4000.0 4000.0 4000.0 4000.0 4000.0 4000.0 4000.0 4000.0 4000.0 4000.0 4000.0 4000.0 4000.0 4000.0 4000.0 4000.0 4000.0 4000.0 4000.0 4000.0 4000.0 4000.0 4000.0 4000.0 4000.0 4000.0 4000.0 4000.0 4000.0 4000.0 4000.0 4000.0 4000.0 4000.0 4000.0 4000.0 4000.0 4000.0 4000.0 4000.0 4000.0 4000.0 4000.0 4000.0 4000.0 4000.0 4000.0 4000.0 4000.0 4000.0 4000.0 4000.0 4000.0 4000.0 4000.0 4000.0 4000.0 4000.0 4000.0 4000.0 4000.0 4000.0 4000.0 4000.0 4000.0 4000.0 4000.0 4000.0 4000.0 4000.0 4000.0 4000.0 4000.0 4000.0 4000.0 4000.0 4000.0 4000.0 4000.0 4000.0 4000.0 4000.0 4000.0 4000.0 4000.0 4000.0 4000.0 4000.0 4000.0 4000.0 4000.0 4000.0 4000.0 4000.0 4000.0 4000.0 4000.0 4000.0 4000.0 4000.0 4000.0 4000.0 4000.0 4000.0 4000.0 4000.0 4000.0 4000.0 4000.0 4000.0 4000.0 4000.0 4000.0 4000.0 4000.0 4000.0 4000.0 4000.0 4000.0 4000.0 4000.0 4000.0 4000.0 4000.0 4000.0 4000.0 4000.0 4000.0 4000.0 4000.0 4000.0 4000.0 4000.0 4000.0 4000.0 4000.0 4000.0 4000.0 4000.0 4000.0 4000.0 4000.0 4000.0 4000.0 4000.0 4000.0 4000.0 4000.0 4000.0 4000.0 4000.0 4000.0 4000.0 4000.0 4000.0 4000.0 4000.0 4000.0 4000.0 4000.0 4000.0 4000.0 4000.0 4000.0 4000.0 4000.0 4000.0 4000.0 4000.0 4000.0 4000.0 4000.0 4000.0 4000.0 4000.0 4000.0 4000.0 4000.0 4000.0 4000.0 4000.0 4000.0 4000.0 4000.0 4000.0 4000.0 4000.0 4000.0 4000.0 4000.0 4000.0 4000.0 4000.0 4000.0 4000.0 4000.0 4000.0 4000.0 4000.0 4000.0 4000.0 4000.0 4000.0 4000.0 4000.0 4000.0 4000.0 4000.0 4000.0 4000.0 4000.0 4000.0 4000.0 4000.0 4000.0 4000.0 4000.0 4000.0 4000.0 4000.0 4000.0 4000.0 4000.0 4000.0 4000.0 4000.0 4000.0 4000.0 4000.0 4000.0 4000.0 4000.0 4000.0 4000.0 4000.0 4000.0 4000.0 4000.0 4000.0 4000.0 4000.0 4000.0 4000.0 4000.0 4000.0 4000.0 4000.0 4000.0 4000.0 4000.0 4000.0 4000.0 4000.0 4000.0 4000.0 4000.0 4000.0 4000.0 4000.0 4000.0 4000.0 4000.0 4000.0 4000.0 4000.0 4000.0 4000.0 4000.0 4000.0 4000.0 4000.0 4000.0 4000.0 4000.0 4000.0 4000.0 4000.0 4000.0 4000.0 4000.0 4000.0 4000.0 4000.0 4000.0 4000.0 4000.0 4000.0 4000.0 4000.0 4000.0 4000.0 4000.0 4000.0 4000.0 4000.0 4000.0 4000.0 4000.0 4000.0 4000.0 4000.0 4000.0 4000.0 4000.0 4000.0 4000.0 4000.0 4000.0 4000.0 4000.0 4000.0 4000.0 4000.0 4000.0 4000.0 4000.0 4000.0 4000.0 4000.0 4000.0 4000.0 4000.0 4000.0 4000.0 4000.0 4000.0 4000.0 4000.0 4000.0 4000.0 4000.0 4000.0 4000.0 4000.0 4000.0 4000.0 4000.0 4000.0 4000.0 4000.0 4000.0 4000.0 4000.0 4000.0 4000.0 4000.0 4000.0 4000.0 4000.0 4000.0 4000.0 4000.0 4000.0 4000.0 4000.0 4000.0 4000.0 4000.0 4000.0 4000.0 4000.0 4000.0 4000.0 4000.0 4000.0 4000.0 4000.0 4000.0 4000.0 4000.0 4000.0 4000.0 4000.0 4000.0 4000.0 4000.0 4000.0 4000.0 4000.0 4000.0 4000.0 4000.0 4000.0 4000.0 4000.0 4000.0 4000.0 4000.0 4000.0 4000.0 4000.0 4000.0 4000.0 4000.0 4000.0 4000.0 4000.0 4000.0 4000.0 4000.0 4000.0 4000.0 4000.0 4000.0 4000.0 4000.0 4000.0 4000.0 4000.0 4000.0 4000.0 4000.0 4000.0 4000.0 4000.0 4000.0 4000.0 4000.0 4000.0 4000.0 4000.0 4000.0 4000.0 4000.0 4000.0 4000.0 4000.0 4000.0 4000.0 4000.0 4000.0 4000.0 4000.0 4000.0 4000.0 4000.0 4000.0 4000.0 4000.0 4000.0 4000.0 4000.0 4000.0 4000.0 4000.0 4000.0 4000.0 4000.0 4000.0 4000.0 4000.0 4000.0 4000.0 4000.0 4000.0 4000.0 4000.0 4000.0 4000.0 4000.0 4000.0 4000.0 4000.0 4000.0 4000.0 4000.0 4000.0 4000.0 4000.0 4000.0 4000.0 4000.0 4000.0 4000.0 4000.0 4000.0 4000.0 4000.0 4000.0 4000.0 4000.0 4000.0 4000.0 4000.0 4000.0 4000.0 4000.0 4000.0 4000.0 4000.0 4000.0 4000.0 4000.0 4000.0 4000.0 4000.0 4000.0 4000.0 4000.0 4000.0 4000.0 4000.0 4000.0 4000.0 4000.0 4000.0 4000.0 4000.0 4000.0 4000.0 4000.0 4000.0 4000.0 4000.0 4000.0 4000.0 4000.0 4000.0 4000.0 4000.0 4000.0 4000.0 4000.0 4000.0 4000.0 4000.0 4000.0 4000.0 4000.0 4000.0 4000.0 4000.0 4000.0 4000.0 4000.0 4000.0 4000.0 4000.0 4000.0 4000.0 4000.0 4000.0 4000.0 4000.0 4000.0 4000.0 4000.0 4000.0 4000.0 4000.0 4000.0 4000.0 4000.0 4000.0 4000.0 4000.0 4000.0 4000.0 4000.0 4000.0 4000.0 4000.0 4000.0 4000.0 4000.0 4000.0 4000.0 4000.0 4000.0 4000.0 4000.0 4000.0 4000.0 4000.0 4000.0 4000.0 4000.0 4000.0 4000.0 4000.0 4000.0 4000.0 4000.0 4000.0 4000.0 4000.0 4000.0 4000.0 4000.0 4000.0 4000.0 4000.0 4000.0 4000.0 4000.0 4000.0 4000.0 4000.0 4000.0 4000.0 4000.0 4000.0 4000.0 4000.0 4000.0 4000.0 4000.0 4000.0 4000.0 4000.0 4000.0 4000.0 4000.0 4000.0 4000.0 4000.0 4000.0 4000.0 4000.0 4000.0 4000.0 4000.0 4000.0 4000.0 4000.0 4000.0 4000.0 4000.0 4000.0 4000.0 4000.0 4000.0 4000.0 4000.0 4000.0 4000.0 4000.0 4000.0 4000.0 4000.0 4000.0 4000.0 4000.0 4000.0 4000.0 4000.0 4000.0 4000.0 4000.0 4000.0 4000.0 4000.0 4000.0 4000.0 4000.0 4000.0 4000.0 4000.0 4000.0 4000.0 4000.0 4000.0 4000.0 4000.0 4000.0 4000.0 4000.0 4000.0 4000.0 4000.0 4000.0 4000.0 4000.0 4000.0 4000.0 4000.0 4000.0 4000.0 4000.0 4000.0 4000.0 4000.0 4000.0 4000.0 4000.0 4000.0 4000.0 4000.0 4000.0 4000.0 4000.0 4000.0 4000.0 4000.0 4000.0 4000.0 4000.0 4000.0 4000.0 4000.0 4000.0 4000.0 4000.0 4000.0 4000.0 4000.0 4000.0 4000.0 4000.0 4000.0 4000.0 4000.0 4000.0 4000.0 4000.0 4000.0 4000.0 4000.0 4000.0 4000.0 4000.0 4000.0 4000.0 4000.0 4000.0 4000.0 4000.0 4000.0 4000.0 4000.0 4000.0 4000.0 4000.0 4000.0 4000.0 4000.0 4000.0 4000.0 4000.0 4000.0 4000.0 4000.0 4000.0 4000.0 4000.0 4000.0 4000.0 4000.0 4000.0 4000.0 4000.0 4000.0 4000.0 4000.0 4000.0 4000.0 4000.0 4000.0 4000.0 4000.0 4000.0 4000.0 4000.0 4000.0 4000.0 4000.0 4000.0 4000.0 4000.0 4000.0 4000.0 4000.0 4000.0 4000.0 4000.0 4000.0 4000.0 4000.0 4000.0 4000.0 4000.0 4000.0 4000.0 4000.0 4000.0 4000.0 4000.0 4000.0 4000.0 4000.0 4000.0 4000.0 4000.0 4000.0 4000.0 4000.0 4000.0 4000.0 4000.0 4000.0 4000.0 4000.0 4000.0 4000.0 4000.0 4000.0 4000.0 4000.0 4000.0 4000.0 4000.0 4000.0 4000.0 4000.0 4000.0 4000.0 4000.0 4000.0 4000.0 4000.0 4000.0 4000.0 4000.0 4000.0 4000.0 4000.0 4000.0 4000.0 4000.0 4000.0 4000.0 4000.0 4000.0 4000.0 4000.0 4000.0 4000.0 4000.0 4000.0 4000.0 4000.0 4000.0 4000.0 4000.0 4000.0 4000.0 4000.0 4000.0 4000.0 4000.0 4000.0 4000.0 4000.0 4000.0 4000.0 4000.0 4000.0 4000.0 4000.0 4000.0 4000.0 4000.0 4000.0 4000.0 4000.0 4000.0 4000.0 4000.0 4000.0 4000.0 4000.0 4000.0 4000.0 4000.0 4000.0 4000.0 4000.0 4000.0 4000.0 4000.0 4000.0 4000.0 4000.0 4000.0 4000.0 4000.0 4000.0 4000.0 4000.0 4000.0 4000.0 4000.0 4000.0 4000.0 4000.0 4000.0 4000.0 4000.0 4000.0 4000.0 4000.0 4000.0 4000.0 4000.0 4000.0 4000.0 4000.0 4000.0 4000.0 4000.0 4000.0 4000.0 4000.0 4000.0 4000.0 4000.0 4000.0 4000.0 4000.0 4000.0 4000.0 4000.0 4000.0 4000.0 4000.0 4000.0 4000.0 4000.0 4000.0 4000.0 4000.0 4000.0 4000.0 4000.0 4000.0 4000.0 4000.0 4000.0 4000.0 4000.0 4000.0 4000.0 4000.0 4000.0 4000.0 4000.0 4000.0 4000.0 4000.0 4000.0 4000.0 4000.0 4000.0 4000.0 4000.0 4000.0 4000.0 4000.0 4000.0 4000.0 4000.0 4000.0 4000.0 4000.0 4000.0 4000.0 4000.0 4000.0 4000.0 4000.0 4000.0 4000.0 4000.0 4000.0 4000.0 4000.0 4000.0 4000.0 4000.0 4000.0 4000.0 4000.0 4000.0 4000.0 4000.0 4000.0 4000.0 4000.0 4000.0 4000.0 4000.0 4000.0 4000.0 4000.0 4000.0 4000.0 4000.0 4000.0 4000.0 4000.0 4000.0 4000.0 4000.0 4000.0 4000.0 4000.0 4000.0 4000.0 4000.0 4000.0 4000.0 4000.0 4000.0 4000.0 4000.0 4000.0 4000.0 4000.0 4000.0 4000.0 4000.0 4000.0 4000.0 4000.0 4000.0 4000.0 4000.0 4000.0 4000.0 4000.0 4000.0 4000.0 4000.0 4000.0 4000.0 4000.0 4000.0 4000.0 4000.0 4000.0 4000.0 4000.0 4000.0 4000.0 4000.0 4000.0 4000.0 4000.0 4000.0 4000.0 4000.0 4000.0 4000.0 4000.0 4000.0 4000.0 4000.0 4000.0 4000.0 4000.0 4000.0 4000.0 4000.0 4000.0 4000.0 4000.0 4000.0 4000.0 4000.0 4000.0 4000.0 4000.0 4000.0 4000.0 4000.0 4000.0 4000.0 4000.0 4000.0 4000.0 4000.0 4000.0 4000.0 4000.0 4000.0 4000.0 4000.0 4000.0 4000.0 4000.0 4000.0 4000.0 4000.0 4000.0 4000.0 4000.0 4000.0 4000.0 4000.0 4000.0 4000.0 4000.0 4000.0 4000.0 4000.0 4000.0 4000.0 4000.0 4000.0 4000.0 4000.0 4000.0 4000.0 4000.0 4000.0 4000.0 4000.0 4000.0 4000.0 4000.0 4000.0 4000.0 4000.0 4000.0 4000.0 4000.0 4000.0 4000.0 4000.0 4000.0 4000.0 4000.0 4000.0 4000.0 4000.0 4000.0 4000.0 4000.0 4000.0 4000.0 4000.0 4000.0 4000.0 4000.0 4000.0 4000.0 4000.0 4000.0 4000.0 4000.0 4000.0 4000.0 4000.0 4000.0 4000.0 4000.0 4000.0 4000.0 4000.0 4000.0 4000.0 4000.0 4000.0 4000.0 4000.0 4000.0 4000.0 4000.0 4000.0 4000.0 4000.0 4000.0 4000.0 4000.0 4000.0 4000.0 4000.0 4000.0 4000.0 4000.0 4000.0 4000.0 4000.0 4000.0 4000.0 4000.0 4000.0 4000.0 4000.0 4000.0 4000.0 4000.0 4000.0 4000.0 4000.0 4000.0 4000.0 4000.0 4000.0 4000.0 4000.0 4000.0 4000.0 4000.0 4000.0 4000.0 4000.0 4000.0 4000.0 4000.0 4000.0 4000.0 4000.0 4000.0 4000.0 4000.0 4000.0 4000.0 4000.0 4000.0 4000.0 4000.0 4000.0 4000.0 4000.0 4000.0 4000.0 4000.0 4000.0 4000.0 4000.0 4000.0 4000.0 4000.0 4000.0 4000.0 4000.0 4000.0 4000.0 4000.0 4000.0 4000.0 4000.0 4000.0 4000.0 4000.0 4000.0 4000.0 4000.0 4000.0 4000.0 4000.0 4000.0 4000.0 4000.0 4000.0 4000.0 4000.0 4000.0 4000.0 4000.0 4000.0 4000.0 4000.0 4000.0 4000.0 4000.0 4000.0 4000.0 4000.0 4000.0 4000.0 4000.0 4000.0 4000.0 4000.0 4000.0 4000.0 4000.0 4000.0 4000.0 4000.0 4000.0 4000.0 4000.0 4000.0 4000.0 4000.0 4000.0 4000.0 4000.0 4000.0 4000.0 4000.0 4000.0 4000.0 4000.0 4000.0 4000.0 4000.0 4000.0 4000.0 4000.0 4000.0 4000.0 4000.0 4000.0 4000.0 4000.0 4000.0 4000.0 4000.0 4000.0 4000.0 4000.0 4000.0 4000.0 4000.0 4000.0 4000.0 4000.0 4000.0 4000.0 4000.0 4000.0 4000.0 4000.0 4000.0 4000.0 4000.0 4000.0 4000.0 4000.0 4000.0 4000.0 4000.0 4000.0 4000.0 4000.0 4000.0 4000.0 4000.0 4000.0 4000.0 4000.0 4000.0 4000.0 4000.0 4000.0 4000.0 4000.0 4000.0 4000.0 4000.0 4000.0 4000.0 4000.0 4000.0 4000.0 4000.0 4000.0 4000.0 4000.0 4000.0 4000.0 4000.0 4000.0 4000.0 4000.0 4000.0 4000.0 4000.0 4000.0 4000.0 4000.0 4000.0 4000.0 4000.0 4000.0 4000.0 4000.0 4000.0 4000.0 4000.0 4000.0 4000.0 4000.0 4000.0 4000.0 4000.0 4000.0 4000.0 4000.0 4000.0 4000.0 4000.0 4000.0 4000.0 4000.0 4000.0 4000.0 4000.0 4000.0 4000.0 4000.0 4000.0 4000.0 4000.0 4000.0 4000.0 4000.0 4000.0 4000.0 4000.0 4000.0 4000.0 4000.0 4000.0 4000.0 4000.0 4000.0 4000.0 4000.0 4000.0 4000.0 4000.0 4000.0 4000.0 4000.0 4000.0 4000.0 4000.0 4000.0 4000.0 4000.0 4000.0 4000.0 4000.0 4000.0 4000.0 4000.0 4000.0 4000.0 4000.0 4000.0 4000.0 4000.0 4000.0 4000.0 4000.0 4000.0 4000.0 4000.0 4000.0 4000.0 4000.0 4000.0 4000.0 4000.0 4000.0 4000.0 4000.0 4000.0 4000.0 4000.0 4000.0 4000.0 4000.0 4000.0 4000.0 4000.0 4000.0 4000.0 4000.0 4000.0 4000.0 4000.0 4000.0 4000.0 4000.0 4000.0 4000.0 4000.0 4000.0 4000.0 4000.0 4000.0 4000.0 4000.0 4000.0 4000.0 4000.0 4000.0 4000.0 4000.0 4000.0 4000.0 4000.0 4000.0 4000.0 4000.0 4000.0 4000.0 4000.0 4000.0 4000.0 4000.0 4000.0 4000.0 4000.0 4000.0 4000.0 4000.0 4000.0 4000.0 4000.0 4000.0 4000.0 4000.0 4000.0 4000.0 4000.0 4000.0 4000.0 4000.0 4000.0 4000.0 4000.0 4000.0 4000.0 4000.0 4000.0 4000.0 4000.0 4000.0 4000.0 4000.0 4000.0 4000.0 4000.0 4000.0 4000.0 4000.0 4000.0 4000.0 4000.0 4000.0 4000.0 4000.0 4000.0 4000.0 4000.0 4000.0 4000.0 4000.0 4000.0 4000.0 4000.0 4000.0 4000.0 4000.0 4000.0 4000.0 4000.0 4000.0 4000.0 4000.0 4000.0 4000.0 4000.0 4000.0 4000.0 4000.0 4000.0 4000.0 4000.0 4000.0 4000.0 4000.0 4000.0 4000.0 4000.0 4000.0 4000.0 4000.0 4000.0 4000.0 4000.0 4000.0 4000.0 4000.0 4000.0 4000.0 4000.0 4000.0 4000.0 4000.0 4000.0 4000.0 4000.0 4000.0 4000.0 4000.0 4000.0 4000.0 4000.0 4000.0 4000.0 4000.0 4000.0 4000.0 4000.0 4000.0 4000.0 4000.0 4000.0 4000.0 4000.0 4000.0 4000.0 4000.0 4000.0 4000.0 4000.0 4000.0 4000.0 4000.0 4000.0 4000.0 4000.0 4000.0 4000.0 4000.0 4000.0 4000.0 4000.0 4000.0 4000.0 4000.0 4000.0 4000.0 4000.0 4000.0 4000.0 4000.0 4000.0 4000.0 4000.0 4000.0 4000.0 4000.0 4000.0 4000.0 4000.0 4000.0 4000.0 4000.0 4000.0 4000.0 4000.0 4000.0 4000.0 4000.0 4000.0 4000.0 4000.0 4000.0 4000.0 4000.0 4000.0 4000.0 4000.0 4000.0 4000.0 4000.0 4000.0 4000.0 4000.0 4000.0 4000.0 4000.0 4000.0 4000.0 4000.0 4000.0 4000.0 4000.0 4000.0 4000.0 4000.0 4000.0 4000.0 4000.0 4000.0 4000.0 4000.0 4000.0 4000.0 4000.0 4000.0 4000.0 4000.0 4000.0 4000.0 4000.0 4000.0 4000.0 4000.0 4000.0 4000.0 4000.0 4000.0 4000.0 4000.0 4000.0 4000.0 4000.0 4000.0 4000.0 4000.0 4000.0 4000.0 4000.0 4000.0 4000.0 4000.0 4000.0 4000.0 4000.0 4000.0 4000.0 4000.0 4000.0 4000.0 4000.0 4000.0 4000.0 4000.0 4000.0 4000.0 4000.0 4000.0 4000.0 4000.0 4000.0 4000.0 4000.0 4000.0 4000.0 4000.0 4000.0 4000.0 4000.0 4000.0 4000.0 4000.0 4000.0 4000.0 4000.0 4000.0 4000.0 4000.0 4000.0 4000.0 4000.0 4000.0 4000.0 4000.0 4000.0 4000.0 4000.0 4000.0 4000.0 4000.0 4000.0 4000.0 4000.0 4000.0 4000.0 4000.0 4000.0 4000.0 4000.0 4000.0 4000.0 4000.0 4000.0 4000.0 4000.0 4000.0 4000.0 4000.0 4000.0 4000.0 4000.0 4000.0 4000.0 4000.0 4000.0 4000.0 4000.0 4000.0 4000.0 4000.0 4000.0 4000.0 4000.0 4000.0 4000.0 4000.0 4000.0 4000.0 4000.0 4000.0 4000.0 4000.0 4000.0 4000.0 4000.0 4000.0 4000.0 4000.0 4000.0 4000.0 4000.0 4000.0 4000.0 4000.0 4000.0 4000.0 4000.0 4000.0 4000.0 4000.0 4000.0 4000.0 4000.0 4000.0 4000.0 4000.0 4000.0 4000.0 4000.0 4000.0 4000.0 4000.0 4000.0 4000.0 4000.0 4000.0 4000.0 4000.0 4000.0 4000.0 4000.0 4000.0 4000.0 4000.0 4000.0 4000.0 4000.0 4000.0 4000.0 4000.0 4000.0 4000.0 4000.0 4000.0 4000.0 4000.0 4000.0 4000.0 4000.0 4000.0 4000.0 4000.0 4000.0 4000.0 4000.0 4000.0 4000.0 4000.0 4000.0 4000.0 4000.0 4000.0 4000.0 4000.0 4000.0 4000.0 4000.0 4000.0 4000.0 4000.0 4000.0 4000.0 4000.0 4000.0 4000.0 4000.0 4000.0 4000.0 4000.0 4000.0 4000.0 4000.0 4000.0 4000.0 4000.0 4000.0 4000.0 4000.0 4000.0 4000.0 4000.0 4000.0 4000.0 4000.0 4000.0 4000.0 4000.0 4000.0 4000.0 4000.0 4000.0 4000.0 4000.0 4000.0 4000.0 4000.0 4000.0 4000.0 4000.0 4000.0 4000.0 4000.0 4000.0 4000.0 4000.0 4000.0 4000.0 4000.0 4000.0 4000.0 4000.0 4000.0 4000.0 4000.0 4000.0 4000.0 4000.0 4000.0 4000.0 4000.0 4000.0 4000.0 4000.0 4000.0 4000.0 4000.0 4000.0 4000.0 4000.0 4000.0 4000.0 4000.0 4000.0 4000.0 4000.0 4000.0 4000.0 4000.0 4000.0 4000.0 4000.0 4000.0 4000.0 4000.0 4000.0 4000.0 4000.0 4000.0 4000.0 4000.0 4000.0 4000.0 4000.0 4000.0 4000.0 4000.0 4000.0 4000.0 4000.0 4000.0 4000.0 4000.0 4000.0 4000.0 4000.0 4000.0 4000.0 4000.0 4000.0 4000.0 4000.0 4000.0 4000.0 4000.0 4000.0 4000.0 4000.0 4000.0 4000.0 4000.0 4000.0 4000.0 4000.0 4000.0 4000.0 4000.0 4000.0 4000.0 4000.0 4000.0 4000.0 4000.0 4000.0 4000.0 4000.0 4000.0 4000.0 4000.0 4000.0 4000.0 4000.0 4000.0 4000.0 4000.0 4000.0 4000.0 4000.0 4000.0 4000.0 4000.0 4000.0 4000.0 4000.0 4000.0 4000.0 4000.0 4000.0 4000.0 4000.0 4000.0 4000.0 4000.0 4000.0 4000.0 4000.0 4000.0 4000.0 4000.0 4000.0 4000.0 4000.0 4000.0 4000.0 4000.0 4000.0 4000.0 4000.0 4000.0 4000.0 4000.0 4000.0 4000.0 4000.0 4000.0 4000.0 4000.0 4000.0 4000.0 4000.0 4000.0 4000.0 4000.0 4000.0 4000.0 4000.0 4000.0 4000.0 4000.0 4000.0 4000.0 4000.0 4000.0 4000.0 4000.0 4000.0 4000.0 4000.0 4000.0 4000.0 4000.0 4000.0 4000.0 4000.0 4000.0 4000.0 4000.0 4000.0 4000.0 4000.0 4000.0 4000.0 4000.0 4000.0 4000.0 4000.0 4000.0 4000.0 4000.0 4000.0 4000.0 4000.0 4000.0 4000.0 4000.0 4000.0 4000.0 4000.0 4000.0 4000.0 4000.0 4000.0 4000.0 4000.0 4000.0 4000.0 4000.0 4000.0 4000.0 4000.0 4000.0 4000.0 4000.0 4000.0 4000.0 4000.0 4000.0 4000.0 4000.0 4000.0 4000.0 4000.0 4000.0 4000.0 4000.0 4000.0 4000.0 4000.0 4000.0 4000.0 4000.0 4000.0 4000.0 4000.0 4000.0 4000.0 4000.0 4000.0 4000.0 4000.0 4000.0 4000.0 4000.0 4000.0 4000.0 4000.0 4000.0 4000.0 4000.0 4000.0 4000.0 4000.0 4000.0 4000.0 4000.0 4000.0 4000.0 4000.0 4000.0 4000.0 4000.0 4000.0 4000.0 4000.0 4000.0 4000.0 4000.0 4000.0 4000.0 4000.0 4000.0 4000.0 4000.0 4000.0 4000.0 4000.0 4000.0 4000.0 4000.0 4000.0 4000.0 4000.0 4000.0 4000.0 4000.0 4000.0 4000.0 4000.0 4000.0 4000.0 4000.0 4000.0 4000.0 4000.0 4000.0 4000.0 4000.0 4000.0 4000.0 4000.0 4000.0 4000.0 4000.0 4000.0 4000.0 4000.0 4000.0 4000.0 4000.0 4000.0 4000.0 4000.0 4000.0 4000.0 4000.0 4000.0 4000.0 4000.0 4000.0 4000.0 4000.0 4000.0 4000.0 4000.0 4000.0 4000.0 4000.0 4000.0 4000.0 4000.0 4000.0 4000.0 4000.0 4000.0 4000.0 4000.0 4000.0 4000.0 4000.0 4000.0 4000.0 4000.0 4000.0 4000.0 4000.0 4000.0 4000.0 4000.0 4000.0 4000.0 4000.0 4000.0 4000.0 4000.0 4000.0 4000.0 4000.0 4000.0 4000.0 4000.0 4000.0 4000.0 4000.0 4000.0 4000.0 4000.0 4000.0 4000.0 4000.0 4000.0 4000.0 4000.0 4000.0 4000.0 4000.0 4000.0 4000.0 4000.0 4000.0 4000.0 4000.0 4000.0 4000.0 4000.0 4000.0 4000.0 4000.0 4000.0 4000.0 4000.0 4000.0 4000.0 4000.0 4000.0 4000.0 4000.0 4000.0 4000.0 4000.0 4000.0 4000.0 4000.0 4000.0 4000.0 4000.0 4000.0 4000.0 4000.0 4000.0 4000.0 4000.0 4000.0 4000.0 4000.0 4000.0 4000.0 4000.0 4000.0 4000.0 4000.0 4000.0 4000.0 4000.0 4000.0 4000.0 4000.0 4000.0 4000.0 4000.0 4000.0 4000.0 4000.0 4000.0 4000.0 4000.0 4000.0 4000.0 4000.0 4000.0 4000.0 4000.0 4000.0 4000.0 4000.0 4000.0 4000.0 4000.0 4000.0 4000.0 4000.0 4000.0 4000.0 4000.0 4000.0 4000.0 4000.0 4000.0 4000.0 4000.0 4000.0 4000.0 4000.0 4000.0 4000.0 4000.0 4000.0 4000.0 4000.0 4000.0 4000.0 4000.0 4000.0 4000.0 4000.0 4000.0 4000.0 4000.0 4000.0 4000.0 4000.0 4000.0 4000.0 4000.0 4000.0 4000.0 4000.0 4000.0 4000.0 4000.0 4000.0 4000.0 4000.0 4000.0 4000.0 4000.0 4000.0 4000.0 4000.0 4000.0 4000.0 4000.0 4000.0 4000.0 4000.0 4000.0 4000.0 4000.0 4000.0 4000.0 4000.0 4000.0 4000.0 4000.0 4000.0 4000.0 4000.0 4000.0 4000.0 4000.0 4000.0 4000.0 4000.0 4000.0 4000.0 4000.0 4000.0 4000.0 4000.0 4000.0 4000.0 4000.0 4000.0 4000.0 4000.0 4000.0 4000.0 4000.0 4000.0 4000.0 4000.0 4000.0 4000.0 4000.0 4000.0 4000.0 4000.0 4000.0 4000.0 4000.0 4000.0 4000.0 4000.0 4000.0 4000.0 4000.0 4000.0 4000.0 4000.0 4000.0 4000.0 4000.0 4000.0 4000.0 4000.0 4000.0 4000.0 4000.0 4000.0 4000.0 4000.0 4000.0 4000.0 4000.0 4000.0 4000.0 4000.0 4000.0 4000.0 4000.0 4000.0 4000.0 4000.0 4000.0 4000.0 4000.0 4000.0 4000.0 4000.0 4000.0 4000.0 4000.0 4000.0 4000.0 4000.0 4000.0 4000.0 4000.0 4000.0 4000.0 4000.0 4000.0 4000.0 4000.0 4000.0 4000.0 4000.0 4000.0 4000.0 4000.0 4000.0 4000.0 4000.0 4000.0 4000.0 4000.0 4000.0 4000.0 4000.0 4000.0 4000.0 4000.0 4000.0 4000.0 4000.0 4000.0 4000.0 4000.0 4000.0 4000.0 4000.0 4000.0 4000.0 4000.0 4000.0 4000.0 4000.0 4000.0 4000.0 4000.0 4000.0 4000.0 4000.0 4000.0 4000.0 4000.0 4000.0 4000.0 4000.0 4000.0 4000.0 4000.0 4000.0 4000.0 4000.0 4000.0 4000.0 4000.0 4000.0 4000.0 4000.0 4000.0 4000.0 4000.0 4000.0 4000.0 4000.0 4000.0 4000.0 4000.0 4000.0 4000.0 4000.0 4000.0 4000.0 4000.0 4000.0 4000.0 4000.0 4000.0 4000.0 4000.0 4000.0 4000.0 4000.0 4000.0 4000.0 4000.0 4000.0 4000.0 4000.0 4000.0 4000.0 4000.0 4000.0 4000.0 4000.0 4000.0 4000.0 4000.0 4000.0 4000.0 4000.0 4000.0 4000.0 4000.0 4000.0 4000.0 4000.0 4000.0 4000.0 4000.0 4000.0 4000.0 4000.0 4000.0 4000.0 4000.0 4000.0 4000.0 4000.0 4000.0 4000.0 4000.0 4000.0 4000.0 4000.0 4000.0 4000.0 4000.0 4000.0 4000.0 4000.0 4000.0 4000.0 4000.0 4000.0 4000.0 4000.0 4000.0 4000.0 4000.0 4000.0 4000.0 4000.0 4000.0 4000.0 4000.0 4000.0 4000.0 4000.0 4000.0 4000.0 4000.0 4000.0 4000.0 4000.0 4000.0 4000.0 4000.0 4000.0 4000.0 4000.0 4000.0 4000.0 4000.0 4000.0 4000.0 4000.0 4000.0 4000.0 4000.0 4000.0 4000.0 4000.0 4000.0 4000.0 4000.0 4000.0 4000.0 4000.0 4000.0 4000.0 4000.0 4000.0 4000.0 4000.0 4000.0 4000.0 4000.0 4000.0 4000.0 4000.0 4000.0 4000.0 4000.0 4000.0 4000.0 4000.0 4000.0 4000.0 4000.0 4000.0 4000.0 4000.0 4000.0 4000.0 4000.0 4000.0 4000.0 4000.0 4000.0 4000.0 4000.0 4000.0 4000.0 4000.0 4000.0 4000.0 4000.0 4000.0 4000.0 4000.0 4000.0 4000.0 4000.0 4000.0 4000.0 4000.0 4000.0 4000.0 4000.0 4000.0 4000.0 4000.0 4000.0 4000.0 4000.0 4000.0 4000.0 4000.0 4000.0 4000.0 4000.0 4000.0 4000.0 4000.0 4000.0 4000.0 4000.0 4000.0 4000.0 4000.0 4000.0 4000.0 4000.0 4000.0 4000.0 4000.0 4000.0 4000.0 4000.0 4000.0 4000.0 4000.0 4000.0 4000.0 4000.0 4000.0 4000.0 4000.0 4000.0 4000.0 4000.0 4000.0 4000.0 4000.0 4000.0 4000.0 4000.0 4000.0 4000.0 4000.0 4000.0 4000.0 4000.0 4000.0 4000.0 4000.0 4000.0 4000.0 4000.0 4000.0 4000.0 4000.0 4000.0 4000.0 4000.0 4000.0 4000.0 4000.0 4000.0 4000.0 4000.0 4000.0 4000.0 4000.0 4000.0 4000.0 4000.0 4000.0 4000.0 4000.0 4000.0 4000.0 4000.0 4000.0 4000.0 4000.0 4000.0 4000.0 4000.0 4000.0 4000.0 4000.0 4000.0 4000.0 4000.0 4000.0 4000.0 4000.0 4000.0 4000.0 4000.0 4000.0 4000.0 4000.0 4000.0 4000.0 4000.0 4000.0 4000.0 4000.0 4000.0 4000.0 4000.0 4000.0 4000.0 4000.0 4000.0 4000.0 4000.0 4000.0 4000.0 4000.0 4000.0 4000.0 4000.0 4000.0 4000.0 4000.0 4000.0 4000.0 4000.0 4000.0 4000.0 4000.0 4000.0 4000.0 4000.0 4000.0 4000.0 4000.0 4000.0 4000.0 4000.0 4000.0 4000.0 4000.0 4000.0 4000.0 4000.0 4000.0 4000.0 4000.0 4000.0 4000.0 4000.0 4000.0 4000.0 4000.0 4000.0 4000.0 4000.0 4000.0 4000.0 4000.0 4000.0 4000.0 4000.0 4000.0 4000.0 4000.0 4000.0 4000.0 4000.0 4000.0 4000.0 4000.0 4000.0 4000.0 4000.0 4000.0 4000.0 4000.0 4000.0 4000.0 4000.0 4000.0 4000.0 4000.0 4000.0 4000.0 4000.0 4000.0 4000.0 4000.0 4000.0 4000.0 4000.0 4000.0 4000.0 4000.0 4000.0 4000.0 4000.0 4000.0 4000.0 4000.0 4000.0 4000.0 4000.0 4000.0 4000.0 4000.0 4000.0 4000.0 4000.0 4000.0 4000.0 4000.0 4000.0 4000.0 4000.0 4000.0 4000.0 4000.0 4000.0 4000.0 4000.0 4000.0 4000.0 4000.0 4000.0 4000.0 4000.0 4000.0 4000.0 4000.0 4000.0 4000.0 4000.0 4000.0 4000.0 4000.0 4000.0 4000.0 4000.0 4000.0 4000.0 4000.0 4000.0 4000.0 4000.0 4000.0 4000.0 4000.0 4000.0 4000.0 4000.0 4000.0 4000.0 4000.0 4000.0 4000.0 4000.0 4000.0 4000.0 4000.0 4000.0 4000.0 4000.0 4000.0 4000.0 4000.0 4000.0 4000.0 4000.0 4000.0 4000.0 4000.0 4000.0 4000.0 4000.0 4000.0 4000.0 4000.0 4000.0 4000.0 4000.0 4000.0 4000.0 4000.0 4000.0 4000.0 4000.0 4000.0 4000.0 4000.0 4000.0 4000.0 4000.0 4000.0 4000.0 4000.0 4000.0 4000.0 4000.0 4000.0 4000.0 4000.0 4000.0 4000.0 4000.0 4000.0 4000.0 4000.0 4000.0 4000.0 4000.0 4000.0 4000.0 4000.0 4000.0 4000.0 4000.0 4000.0 4000.0 4000.0 4000.0 4000.0 4000.0 4000.0 4000.0 4000.0 4000.0 4000.0 4000.0 4000.0 4000.0 4000.0 4000.0 4000.0 4000.0 4000.0 4000.0 4000.0 4000.0 4000.0 4000.0 4000.0 4000.0 4000.0 4000.0 4000.0 4000.0 4000.0 4000.0 4000.0 4000.0 4000.0 4000.0 4000.0 4000.0 4000.0 4000.0 4000.0 4000.0 4000.0 4000.0 4000.0 4000.0 4000.0 4000.0 4000.0 4000.0 4000.0 4000.0 4000.0 4000.0 4000.0 4000.0 4000.0 4000.0 4000.0 4000.0 4000.0 4000.0 4000.0 4000.0 4000.0 4000.0 4000.0 4000.0 4000.0 4000.0 4000.0 4000.0 4000.0 4000.0 4000.0 4000.0 4000.0 4000.0 4000.0 4000.0 4000.0 4000.0 4000.0 4000.0 4000.0 4000.0 4000.0 4000.0 4000.0 4000.0 4000.0 4000.0 4000.0 4000.0 4000.0 4000.0 4000.0 4000.0 4000.0 4000.0 4000.0 4000.0 4000.0 4000.0 4000.0 4000.0 4000.0 4000.0 4000.0 4000.0 4000.0 4000.0 4000.0 4000.0 4000.0 4000.0 4000.0 4000.0 4000.0 4000.0 4000.0 4000.0 4000.0 4000.0 4000.0 4000.0 4000.0 4000.0 4000.0 4000.0 4000.0 4000.0 4000.0 4000.0 4000.0 4000.0 4000.0 4000.0 4000.0 4000.0 4000.0 4000.0 4000.0 4000.0 4000.0 4000.0 4000.0 4000.0 4000.0 4000.0 4000.0 4000.0 4000.0 4000.0 4000.0 4000.0 4000.0 4000.0 4000.0 4000.0 4000.0 4000.0 4000.0 4000.0 4000.0 4000.0 4000.0 4000.0 4000.0 4000.0 4000.0 4000.0 4000.0 4000.0 4000.0 4000.0 4000.0 4000.0 4000.0 4000.0 4000.0 4000.0 4000.0 4000.0 4000.0 4000.0 4000.0 4000.0 4000.0 4000.0 4000.0 4000.0 4000.0 4000.0 4000.0 4000.0 4000.0 4000.0 4000.0 4000.0 4000.0 4000.0 4000.0 4000.0 4000.0 4000.0 4000.0 4000.0 4000.0 4000.0 4000.0 4000.0 4000.0 4000.0 4000.0 4000.0 4000.0 4000.0 4000.0 4000.0 4000.0 4000.0 4000.0 4000.0 4000.0 4000.0 4000.0 4000.0 4000.0 4000.0 4000.0 4000.0 4000.0 4000.0 4000.0 4000.0 4000.0 4000.0 4000.0 4000.0 4000.0 4000.0 4000.0 4000.0 4000.0 4000.0 4000.0 4000.0 4000.0 4000.0 4000.0 4000.0 4000.0 4000.0 4000.0 4000.0 4000.0 4000.0 4000.0 4000.0 4000.0 4000.0 4000.0 4000.0 4000.0 4000.0 4000.0 4000.0 4000.0 4000.0 4000.0 4000.0 4000.0 4000.0 4000.0 4000.0 4000.0 4000.0 4000.0 4000.0 4000.0 4000.0 4000.0 4000.0 4000.0 4000.0 4000.0 4000.0 4000.0 4000.0 4000.0 4000.0 4000.0 4000.0 4000.0 4000.0 4000.0 4000.0 4000.0 4000.0 4000.0 4000.0 4000.0 4000.0 4000.0 4000.0 4000.0 4000.0 4000.0 4000.0 4000.0 4000.0 4000.0 4000.0 4000.0 4000.0 4000.0 4000.0 4000.0 4000.0 4000.0 4000.0 4000.0 4000.0 4000.0 4000.0 4000.0 4000.0 4000.0 4000.0 4000.0 4000.0 4000.0 4000.0 4000.0 4000.0 4000.0 4000.0 4000.0 4000.0 4000.0 4000.0 4000.0 4000.0 4000.0 4000.0 4000.0 4000.0 4000.0 4000.0 4000.0 4000.0 4000.0 4000.0 4000.0 4000.0 4000.0 4000.0 4000.0 4000.0 4000.0 4000.0 4000.0 4000.0 4000.0 4000.0 4000.0 4000.0 4000.0 4000.0 4000.0 4000.0 4000.0 4000.0 4000.0 4000.0 4000.0 4000.0 4000.0 4000.0 4000.0 4000.0 4000.0 4000.0 4000.0 4000.0 4000.0 4000.0 4000.0 4000.0 4000.0 4000.0 4000.0 4000.0 4000.0 4000.0 4000.0 4000.0 4000.0 4000.0 4000.0 4000.0 4000.0 4000.0 4000.0 4000.0 4000.0 4000.0 4000.0 4000.0 4000.0 4000.0 4000.0 4000.0 4000.0 4000.0 4000.0 4000.0 4000.0 4000.0 4000.0 4000.0 4000.0 4000.0 4000.0 4000.0 4000.0 4000.0 4000.0 4000.0 4000.0 4000.0 4000.0 4000.0 4000.0 4000.0 4000.0 4000.0 4000.0 4000.0 4000.0 4000.0 4000.0 4000.0 4000.0 4000.0 4000.0 4000.0 4000.0 4000.0 4000.0 4000.0 4000.0 4000.0 4000.0 4000.0 4000.0 4000.0 4000.0 4000.0 4000.0 4000.0 4000.0 4000.0 4000.0 4000.0 4000.0 4000.0 4000.0 4000.0 4000.0 4000.0 4000.0 4000.0 4000.0 4000.0 4000.0 4000.0 4000.0 4000.0 4000.0 4000.0 4000.0 4000.0 4000.0 4000.0 4000.0 4000.0 4000.0 4000.0 4000.0 4000.0 4000.0 4000.0 4000.0 4000.0 4000.0 4000.0 4000.0 4000.0 4000.0 4000.0 4000.0 4000.0 4000.0 4000.0 4000.0 4000.0 4000.0 4000.0 4000.0 4000.0 4000.0 4000.0 4000.0 4000.0 4000.0 4000.0 4000.0 4000.0 4000.0 4000.0 4000.0 4000.0 4000.0 4000.0 4000.0 4000.0 4000.0 4000.0 4000.0 4000.0 4000.0 4000.0 4000.0 4000.0 4000.0 4000.0 4000.0 4000.0 4000.0 4000.0 4000.0 4000.0 4000.0 4000.0 4000.0 4000.0 4000.0 4000.0 4000.0 4000.0 4000.0 4000.0 4000.0 4000.0 4000.0 4000.0 4000.0 4000.0 4000.0 4000.0 4000.0 4000.0 4000.0 4000.0 4000.0 4000.0 4000.0 4000.0 4000.0 4000.0 4000.0 4000.0 4000.0 4000.0 4000.0 4000.0 4000.0 4000.0 4000.0 4000.0 4000.0 4000.0 4000.0 4000.0 4000.0 4000.0 4000.0 4000.0 4000.0 4000.0 4000.0 4000.0 4000.0 4000.0 4000.0 4000.0 4000.0 4000.0 4000.0 4000.0 4000.0 4000.0 4000.0 4000.0 4000.0 4000.0 4000.0 4000.0 4000.0 4000.0 4000.0 4000.0 4000.0 4000.0 4000.0 4000.0 4000.0 4000.0 4000.0 4000.0 4000.0 4000.0 4000.0 4000.0 4000.0 4000.0 4000.0 4000.0 4000.0 4000.0 4000.0 4000.0 4000.0 4000.0 4000.0 4000.0 4000.0 4000.0 4000.0 4000.0 4000.0 4000.0 4000.0 4000.0 4000.0 4000.0 4000.0 4000.0 4000.0 4000.0 4000.0 4000.0 4000.0 4000.0 4000.0 4000.0 4000.0 4000.0 4000.0 4000.0 4000.0 4000.0 4000.0 4000.0 4000.0 4000.0 4000.0 4000.0 4000.0 4000.0 4000.0 4000.0 4000.0 4000.0 4000.0 4000.0 4000.0 4000.0 4000.0 4000.0 4000.0 4000.0 4000.0 4000.0 4000.0 4000.0 4000.0 4000.0 4000.0 4000.0 4000.0 4000.0 4000.0 4000.0 4000.0 4000.0 4000.0 4000.0 4000.0 4000.0 4000.0 4000.0 4000.0 4000.0 4000.0 4000.0 4000.0 4000.0 4000.0 4000.0 4000.0 4000.0 4000.0 4000.0 4000.0 4000.0 4000.0 4000.0 4000.0 4000.0 4000.0 4000.0 4000.0 4000.0 4000.0 4000.0 4000.0 4000.0 4000.0 4000.0 4000.0 4000.0 4000.0 4000.0 4000.0 4000.0 4000.0 4000.0 4000.0 4000.0 4000.0 4000.0 4000.0 4000.0 4000.0 4000.0 4000.0 4000.0 4000.0 4000.0 4000.0 4000.0 4000.0 4000.0 4000.0 4000.0 4000.0 4000.0 4000.0 4000.0 4000.0 4000.0 4000.0 4000.0 4000.0 4000.0 4000.0 4000.0 4000.0 4000.0 4000.0 4000.0 4000.0 4000.0 4000.0 4000.0 4000.0 4000.0 4000.0 4000.0 4000.0 4000.0 4000.0 4000.0 4000.0 4000.0 4000.0 4000.0 4000.0 4000.0 4000.0 4000.0 4000.0 4000.0 4000.0 4000.0 4000.0 4000.0 4000.0 4000.0 4000.0 4000.0 4000.0 4000.0 4000.0 4000.0 4000.0 4000.0 4000.0 4000.0 4000.0 4000.0 4000.0 4000.0 4000.0 4000.0 4000.0 4000.0 4000.0 4000.0 4000.0 4000.0 4000.0 4000.0 4000.0 4000.0 4000.0 4000.0 4000.0 4000.0 4000.0 4000.0 4000.0 4000.0 4000.0 4000.0 4000.0 4000.0 4000.0 4000.0 4000.0 4000.0 4000.0 4000.0 4000.0 4000.0 4000.0 4000.0 4000.0 4000.0 4000.0 4000.0 4000.0 4000.0 4000.0 4000.0 4000.0 4000.0 4000.0 4000.0 4000.0 4000.0 4000.0 4000.0 4000.0 4000.0 4000.0 4000.0 4000.0 4000.0 4000.0 4000.0 4000.0 4000.0 4000.0 4000.0 4000.0 4000.0 4000.0 4000.0 4000.0 4000.0 4000.0 4000.0 4000.0 4000.0 4000.0 4000.0 4000.0 4000.0 4000.0 4000.0 4000.0 4000.0 4000.0 4000.0 4000.0 4000.0 4000.0 4000.0 4000.0 4000.0 4000.0 4000.0 4000.0 4000.0 4000.0 4000.0 4000.0 4000.0 4000.0 4000.0 4000.0 4000.0 4000.0 4000.0 4000.0 4000.0 4000.0 4000.0 4000.0 4000.0 4000.0 4000.0 4000.0 4000.0 4000.0 4000.0 4000.0 4000.0 4000.0 4000.0 4000.0 4000.0 4000.0 4000.0 4000.0 4000.0 4000.0 4000.0 4000.0 4000.0 4000.0 4000.0 4000.0 4000.0 4000.0 4000.0 4000.0 4000.0 4000.0 4000.0 4000.0 4000.0 4000.0 4000.0 4000.0 4000.0 4000.0 4000.0 4000.0 4000.0 4000.0 4000.0 4000.0 4000.0 4000.0 4000.0 4000.0 4000.0 4000.0 4000.0 4000.0 4000.0 4000.0 4000.0 4000.0 4000.0 4000.0 4000.0 4000.0 4000.0 4000.0 4000.0 4000.0 4000.0 4000.0 4000.0 4000.0 4000.0 4000.0 4000.0 4000.0 4000.0 4000.0 4000.0 4000.0 4000.0 4000.0 4000.0 4000.0 4000.0 4000.0 4000.0 4000.0 4000.0 4000.0 4000.0 4000.0 4000.0 4000.0 4000.0 4000.0 4000.0 4000.0 4000.0 4000.0 4000.0 4000.0 4000.0 4000.0 4000.0 4000.0 4000.0 4000.0 4000.0 4000.0 4000.0 4000.0 4000.0 4000.0 4000.0 4000.0 4000.0 4000.0 4000.0 4000.0 4000.0 4000.0 4000.0 4000.0 4000.0 4000.0 4000.0 4000.0 4000.0 4000.0 4000.0 4000.0 4000.0 4000.0 4000.0 4000.0 4000.0 4000.0 4000.0 4000.0 4000.0 4000.0 4000.0 4000.0 4000.0 4000.0 4000.0 4000.0 4000.0 4000.0 4000.0 4000.0 4000.0 4000.0 4000.0 4000.0 4000.0 4000.0 4000.0 4000.0 4000.0 4000.0 4000.0 4000.0 4000.0 SCALARS Mass float 1
LOOKUP_TABLE default
11309700000.0 11309700000.0 11309700000.0 11309700000.0 11309700000.0 11309700000.0 11309700000.0 11309700000.0 11309700000.0 11309700000.0 11309700000.0 11309700000.0 11309700000.0 11309700000.0 11309700000.0 11309700000.0 11309700000.0 11309700000.0 11309700000.0 11309700000.0 11309700000.0 11309700000.0 11309700000.0 11309700000.0 11309700000.0 11309700000.0 11309700000.0 11309700000.0 11309700000.0 11309700000.0 11309700000.0 11309700000.0 11309700000.0 11309700000.0 11309700000.0 11309700000.0 11309700000.0 11309700000.0 11309700000.0 11309700000.0 11309700000.0 11309700000.0 11309700000.0 11309700000.0 11309700000.0 11309700000.0 11309700000.0 11309700000.0 11309700000.0 11309700000.0 11309700000.0 11309700000.0 11309700000.0 11309700000.0 11309700000.0 11309700000.0 11309700000.0 11309700000.0 11309700000.0 11309700000.0 11309700000.0 11309700000.0 11309700000.0 11309700000.0 11309700000.0 11309700000.0 11309700000.0 11309700000.0 11309700000.0 11309700000.0 11309700000.0 11309700000.0 11309700000.0 11309700000.0 11309700000.0 11309700000.0 11309700000.0 11309700000.0 11309700000.0 11309700000.0 11309700000.0 11309700000.0 11309700000.0 11309700000.0 11309700000.0 11309700000.0 11309700000.0 11309700000.0 11309700000.0 11309700000.0 11309700000.0 11309700000.0 11309700000.0 11309700000.0 11309700000.0 11309700000.0 11309700000.0 11309700000.0 11309700000.0 11309700000.0 11309700000.0 11309700000.0 11309700000.0 11309700000.0 11309700000.0 11309700000.0 11309700000.0 11309700000.0 11309700000.0 11309700000.0 11309700000.0 11309700000.0 11309700000.0 11309700000.0 11309700000.0 11309700000.0 11309700000.0 11309700000.0 11309700000.0 11309700000.0 11309700000.0 11309700000.0 11309700000.0 11309700000.0 11309700000.0 11309700000.0 11309700000.0 11309700000.0 11309700000.0 11309700000.0 11309700000.0 11309700000.0 11309700000.0 11309700000.0 11309700000.0 11309700000.0 11309700000.0 11309700000.0 11309700000.0 11309700000.0 11309700000.0 11309700000.0 11309700000.0 11309700000.0 11309700000.0 11309700000.0 11309700000.0 11309700000.0 11309700000.0 11309700000.0 11309700000.0 11309700000.0 11309700000.0 11309700000.0 11309700000.0 11309700000.0 11309700000.0 11309700000.0 11309700000.0 11309700000.0 11309700000.0 11309700000.0 11309700000.0 11309700000.0 11309700000.0 11309700000.0 11309700000.0 11309700000.0 11309700000.0 11309700000.0 11309700000.0 11309700000.0 11309700000.0 11309700000.0 11309700000.0 11309700000.0 11309700000.0 11309700000.0 11309700000.0 11309700000.0 11309700000.0 11309700000.0 11309700000.0 11309700000.0 11309700000.0 11309700000.0 11309700000.0 11309700000.0 11309700000.0 11309700000.0 11309700000.0 11309700000.0 11309700000.0 11309700000.0 11309700000.0 11309700000.0 11309700000.0 11309700000.0 11309700000.0 11309700000.0 11309700000.0 11309700000.0 11309700000.0 11309700000.0 11309700000.0 11309700000.0 11309700000.0 11309700000.0 11309700000.0 11309700000.0 11309700000.0 11309700000.0 11309700000.0 11309700000.0 11309700000.0 11309700000.0 11309700000.0 11309700000.0 11309700000.0 11309700000.0 11309700000.0 11309700000.0 11309700000.0 11309700000.0 11309700000.0 11309700000.0 11309700000.0 11309700000.0 11309700000.0 11309700000.0 11309700000.0 11309700000.0 11309700000.0 11309700000.0 11309700000.0 11309700000.0 11309700000.0 11309700000.0 11309700000.0 11309700000.0 11309700000.0 11309700000.0 11309700000.0 11309700000.0 11309700000.0 11309700000.0 11309700000.0 11309700000.0 11309700000.0 11309700000.0 11309700000.0 11309700000.0 11309700000.0 11309700000.0 11309700000.0 11309700000.0 11309700000.0 11309700000.0 11309700000.0 11309700000.0 11309700000.0 11309700000.0 11309700000.0 11309700000.0 11309700000.0 11309700000.0 11309700000.0 11309700000.0 11309700000.0 11309700000.0 11309700000.0 11309700000.0 11309700000.0 11309700000.0 11309700000.0 11309700000.0 11309700000.0 11309700000.0 11309700000.0 11309700000.0 11309700000.0 11309700000.0 11309700000.0 11309700000.0 11309700000.0 11309700000.0 11309700000.0 11309700000.0 11309700000.0 11309700000.0 11309700000.0 11309700000.0 11309700000.0 11309700000.0 11309700000.0 11309700000.0 11309700000.0 11309700000.0 11309700000.0 11309700000.0 11309700000.0 11309700000.0 11309700000.0 11309700000.0 11309700000.0 11309700000.0 11309700000.0 11309700000.0 11309700000.0 11309700000.0 11309700000.0 11309700000.0 11309700000.0 11309700000.0 11309700000.0 11309700000.0 11309700000.0 11309700000.0 11309700000.0 11309700000.0 11309700000.0 11309700000.0 11309700000.0 11309700000.0 11309700000.0 11309700000.0 11309700000.0 11309700000.0 11309700000.0 11309700000.0 11309700000.0 11309700000.0 11309700000.0 11309700000.0 11309700000.0 11309700000.0 11309700000.0 11309700000.0 11309700000.0 11309700000.0 11309700000.0 11309700000.0 11309700000.0 11309700000.0 11309700000.0 11309700000.0 11309700000.0 11309700000.0 11309700000.0 11309700000.0 11309700000.0 11309700000.0 11309700000.0 11309700000.0 11309700000.0 11309700000.0 11309700000.0 11309700000.0 11309700000.0 11309700000.0 11309700000.0 11309700000.0 11309700000.0 11309700000.0 11309700000.0 11309700000.0 11309700000.0 11309700000.0 11309700000.0 11309700000.0 11309700000.0 11309700000.0 11309700000.0 11309700000.0 11309700000.0 11309700000.0 11309700000.0 11309700000.0 11309700000.0 11309700000.0 11309700000.0 11309700000.0 11309700000.0 11309700000.0 11309700000.0 11309700000.0 11309700000.0 11309700000.0 11309700000.0 11309700000.0 11309700000.0 11309700000.0 11309700000.0 11309700000.0 11309700000.0 11309700000.0 11309700000.0 11309700000.0 11309700000.0 11309700000.0 11309700000.0 11309700000.0 11309700000.0 11309700000.0 11309700000.0 11309700000.0 11309700000.0 11309700000.0 11309700000.0 11309700000.0 11309700000.0 11309700000.0 11309700000.0 11309700000.0 11309700000.0 11309700000.0 11309700000.0 11309700000.0 11309700000.0 11309700000.0 11309700000.0 11309700000.0 11309700000.0 11309700000.0 11309700000.0 11309700000.0 11309700000.0 11309700000.0 11309700000.0 11309700000.0 11309700000.0 11309700000.0 11309700000.0 11309700000.0 11309700000.0 11309700000.0 11309700000.0 11309700000.0 11309700000.0 11309700000.0 11309700000.0 11309700000.0 11309700000.0 11309700000.0 11309700000.0 11309700000.0 11309700000.0 11309700000.0 11309700000.0 11309700000.0 11309700000.0 11309700000.0 11309700000.0 11309700000.0 11309700000.0 11309700000.0 11309700000.0 11309700000.0 11309700000.0 11309700000.0 11309700000.0 11309700000.0 11309700000.0 11309700000.0 11309700000.0 11309700000.0 11309700000.0 11309700000.0 11309700000.0 11309700000.0 11309700000.0 11309700000.0 11309700000.0 11309700000.0 11309700000.0 11309700000.0 11309700000.0 11309700000.0 11309700000.0 11309700000.0 11309700000.0 11309700000.0 11309700000.0 11309700000.0 11309700000.0 11309700000.0 11309700000.0 11309700000.0 11309700000.0 11309700000.0 11309700000.0 11309700000.0 11309700000.0 11309700000.0 11309700000.0 11309700000.0 11309700000.0 11309700000.0 11309700000.0 11309700000.0 11309700000.0 11309700000.0 11309700000.0 11309700000.0 11309700000.0 11309700000.0 11309700000.0 11309700000.0 11309700000.0 11309700000.0 11309700000.0 11309700000.0 11309700000.0 11309700000.0 11309700000.0 11309700000.0 11309700000.0 11309700000.0 11309700000.0 11309700000.0 11309700000.0 11309700000.0 11309700000.0 11309700000.0 11309700000.0 11309700000.0 11309700000.0 11309700000.0 11309700000.0 11309700000.0 11309700000.0 11309700000.0 11309700000.0 11309700000.0 11309700000.0 11309700000.0 11309700000.0 11309700000.0 11309700000.0 11309700000.0 11309700000.0 11309700000.0 11309700000.0 11309700000.0 11309700000.0 11309700000.0 11309700000.0 11309700000.0 11309700000.0 11309700000.0 11309700000.0 11309700000.0 11309700000.0 11309700000.0 11309700000.0 11309700000.0 11309700000.0 11309700000.0 11309700000.0 11309700000.0 11309700000.0 11309700000.0 11309700000.0 11309700000.0 11309700000.0 11309700000.0 11309700000.0 11309700000.0 11309700000.0 11309700000.0 11309700000.0 11309700000.0 11309700000.0 11309700000.0 11309700000.0 11309700000.0 11309700000.0 11309700000.0 11309700000.0 11309700000.0 11309700000.0 11309700000.0 11309700000.0 11309700000.0 11309700000.0 11309700000.0 11309700000.0 11309700000.0 11309700000.0 11309700000.0 11309700000.0 11309700000.0 11309700000.0 11309700000.0 11309700000.0 11309700000.0 11309700000.0 11309700000.0 11309700000.0 11309700000.0 11309700000.0 11309700000.0 11309700000.0 11309700000.0 11309700000.0 11309700000.0 11309700000.0 11309700000.0 11309700000.0 11309700000.0 11309700000.0 11309700000.0 11309700000.0 11309700000.0 11309700000.0 11309700000.0 11309700000.0 11309700000.0 11309700000.0 11309700000.0 11309700000.0 11309700000.0 11309700000.0 11309700000.0 11309700000.0 11309700000.0 11309700000.0 11309700000.0 11309700000.0 11309700000.0 11309700000.0 11309700000.0 11309700000.0 11309700000.0 11309700000.0 11309700000.0 11309700000.0 11309700000.0 11309700000.0 11309700000.0 11309700000.0 11309700000.0 11309700000.0 11309700000.0 11309700000.0 11309700000.0 11309700000.0 11309700000.0 11309700000.0 11309700000.0 11309700000.0 11309700000.0 11309700000.0 11309700000.0 11309700000.0 11309700000.0 11309700000.0 11309700000.0 11309700000.0 11309700000.0 11309700000.0 11309700000.0 11309700000.0 11309700000.0 11309700000.0 11309700000.0 11309700000.0 11309700000.0 11309700000.0 11309700000.0 11309700000.0 11309700000.0 11309700000.0 11309700000.0 11309700000.0 11309700000.0 11309700000.0 11309700000.0 11309700000.0 11309700000.0 11309700000.0 11309700000.0 11309700000.0 11309700000.0 11309700000.0 11309700000.0 11309700000.0 11309700000.0 11309700000.0 11309700000.0 11309700000.0 11309700000.0 11309700000.0 11309700000.0 11309700000.0 11309700000.0 11309700000.0 11309700000.0 11309700000.0 11309700000.0 11309700000.0 11309700000.0 11309700000.0 11309700000.0 11309700000.0 11309700000.0 11309700000.0 11309700000.0 11309700000.0 11309700000.0 11309700000.0 11309700000.0 11309700000.0 11309700000.0 11309700000.0 11309700000.0 11309700000.0 11309700000.0 11309700000.0 11309700000.0 11309700000.0 11309700000.0 11309700000.0 11309700000.0 11309700000.0 11309700000.0 11309700000.0 11309700000.0 11309700000.0 11309700000.0 11309700000.0 11309700000.0 11309700000.0 11309700000.0 11309700000.0 11309700000.0 11309700000.0 11309700000.0 11309700000.0 11309700000.0 11309700000.0 11309700000.0 11309700000.0 11309700000.0 11309700000.0 11309700000.0 11309700000.0 11309700000.0 11309700000.0 11309700000.0 11309700000.0 11309700000.0 11309700000.0 11309700000.0 11309700000.0 11309700000.0 11309700000.0 11309700000.0 11309700000.0 11309700000.0 11309700000.0 11309700000.0 11309700000.0 11309700000.0 11309700000.0 11309700000.0 11309700000.0 11309700000.0 11309700000.0 11309700000.0 11309700000.0 11309700000.0 11309700000.0 11309700000.0 11309700000.0 11309700000.0 11309700000.0 11309700000.0 11309700000.0 11309700000.0 11309700000.0 11309700000.0 11309700000.0 11309700000.0 11309700000.0 11309700000.0 11309700000.0 11309700000.0 11309700000.0 11309700000.0 11309700000.0 11309700000.0 11309700000.0 11309700000.0 11309700000.0 11309700000.0 11309700000.0 11309700000.0 11309700000.0 11309700000.0 11309700000.0 11309700000.0 11309700000.0 11309700000.0 11309700000.0 11309700000.0 11309700000.0 11309700000.0 11309700000.0 11309700000.0 11309700000.0 11309700000.0 11309700000.0 11309700000.0 11309700000.0 11309700000.0 11309700000.0 11309700000.0 11309700000.0 11309700000.0 11309700000.0 11309700000.0 11309700000.0 11309700000.0 11309700000.0 11309700000.0 11309700000.0 11309700000.0 11309700000.0 11309700000.0 11309700000.0 11309700000.0 11309700000.0 11309700000.0 11309700000.0 11309700000.0 11309700000.0 11309700000.0 11309700000.0 11309700000.0 11309700000.0 11309700000.0 11309700000.0 11309700000.0 11309700000.0 11309700000.0 11309700000.0 11309700000.0 11309700000.0 11309700000.0 11309700000.0 11309700000.0 11309700000.0 11309700000.0 11309700000.0 11309700000.0 11309700000.0 11309700000.0 11309700000.0 11309700000.0 11309700000.0 11309700000.0 11309700000.0 11309700000.0 11309700000.0 11309700000.0 11309700000.0 11309700000.0 11309700000.0 11309700000.0 11309700000.0 11309700000.0 11309700000.0 11309700000.0 11309700000.0 11309700000.0 11309700000.0 11309700000.0 11309700000.0 11309700000.0 11309700000.0 11309700000.0 11309700000.0 11309700000.0 11309700000.0 11309700000.0 11309700000.0 11309700000.0 11309700000.0 11309700000.0 11309700000.0 11309700000.0 11309700000.0 11309700000.0 11309700000.0 11309700000.0 11309700000.0 11309700000.0 11309700000.0 11309700000.0 11309700000.0 11309700000.0 11309700000.0 11309700000.0 11309700000.0 11309700000.0 11309700000.0 11309700000.0 11309700000.0 11309700000.0 11309700000.0 11309700000.0 11309700000.0 11309700000.0 11309700000.0 11309700000.0 11309700000.0 11309700000.0 11309700000.0 11309700000.0 11309700000.0 11309700000.0 11309700000.0 11309700000.0 11309700000.0 11309700000.0 11309700000.0 11309700000.0 11309700000.0 11309700000.0 11309700000.0 11309700000.0 11309700000.0 11309700000.0 11309700000.0 11309700000.0 11309700000.0 11309700000.0 11309700000.0 11309700000.0 11309700000.0 11309700000.0 11309700000.0 11309700000.0 11309700000.0 11309700000.0 11309700000.0 11309700000.0 11309700000.0 11309700000.0 11309700000.0 11309700000.0 11309700000.0 11309700000.0 11309700000.0 11309700000.0 11309700000.0 11309700000.0 11309700000.0 11309700000.0 11309700000.0 11309700000.0 11309700000.0 11309700000.0 11309700000.0 11309700000.0 11309700000.0 11309700000.0 11309700000.0 11309700000.0 11309700000.0 11309700000.0 11309700000.0 11309700000.0 11309700000.0 11309700000.0 11309700000.0 11309700000.0 11309700000.0 11309700000.0 11309700000.0 11309700000.0 11309700000.0 11309700000.0 11309700000.0 11309700000.0 11309700000.0 11309700000.0 11309700000.0 11309700000.0 11309700000.0 11309700000.0 11309700000.0 11309700000.0 11309700000.0 11309700000.0 11309700000.0 11309700000.0 11309700000.0 11309700000.0 11309700000.0 11309700000.0 11309700000.0 11309700000.0 11309700000.0 11309700000.0 11309700000.0 11309700000.0 11309700000.0 11309700000.0 11309700000.0 11309700000.0 11309700000.0 11309700000.0 11309700000.0 11309700000.0 11309700000.0 11309700000.0 11309700000.0 11309700000.0 11309700000.0 11309700000.0 11309700000.0 11309700000.0 11309700000.0 11309700000.0 11309700000.0 11309700000.0 11309700000.0 11309700000.0 11309700000.0 11309700000.0 11309700000.0 11309700000.0 11309700000.0 11309700000.0 11309700000.0 11309700000.0 11309700000.0 11309700000.0 11309700000.0 11309700000.0 11309700000.0 11309700000.0 11309700000.0 11309700000.0 11309700000.0 11309700000.0 11309700000.0 11309700000.0 11309700000.0 11309700000.0 11309700000.0 11309700000.0 11309700000.0 11309700000.0 11309700000.0 11309700000.0 11309700000.0 11309700000.0 11309700000.0 11309700000.0 11309700000.0 11309700000.0 11309700000.0 11309700000.0 11309700000.0 11309700000.0 11309700000.0 11309700000.0 11309700000.0 11309700000.0 11309700000.0 11309700000.0 11309700000.0 11309700000.0 11309700000.0 11309700000.0 11309700000.0 11309700000.0 11309700000.0 11309700000.0 11309700000.0 11309700000.0 11309700000.0 11309700000.0 11309700000.0 11309700000.0 11309700000.0 11309700000.0 11309700000.0 11309700000.0 11309700000.0 11309700000.0 11309700000.0 11309700000.0 11309700000.0 11309700000.0 11309700000.0 11309700000.0 11309700000.0 11309700000.0 11309700000.0 11309700000.0 11309700000.0 11309700000.0 11309700000.0 11309700000.0 11309700000.0 11309700000.0 11309700000.0 11309700000.0 11309700000.0 11309700000.0 11309700000.0 11309700000.0 11309700000.0 11309700000.0 11309700000.0 11309700000.0 11309700000.0 11309700000.0 11309700000.0 11309700000.0 11309700000.0 11309700000.0 11309700000.0 11309700000.0 11309700000.0 11309700000.0 11309700000.0 11309700000.0 11309700000.0 11309700000.0 11309700000.0 11309700000.0 11309700000.0 11309700000.0 11309700000.0 11309700000.0 11309700000.0 11309700000.0 11309700000.0 11309700000.0 11309700000.0 11309700000.0 11309700000.0 11309700000.0 11309700000.0 11309700000.0 11309700000.0 11309700000.0 11309700000.0 11309700000.0 11309700000.0 11309700000.0 11309700000.0 11309700000.0 11309700000.0 11309700000.0 11309700000.0 11309700000.0 11309700000.0 11309700000.0 11309700000.0 11309700000.0 11309700000.0 11309700000.0 11309700000.0 11309700000.0 11309700000.0 11309700000.0 11309700000.0 11309700000.0 11309700000.0 11309700000.0 11309700000.0 11309700000.0 11309700000.0 11309700000.0 11309700000.0 11309700000.0 11309700000.0 11309700000.0 11309700000.0 11309700000.0 11309700000.0 11309700000.0 11309700000.0 11309700000.0 11309700000.0 11309700000.0 11309700000.0 11309700000.0 11309700000.0 11309700000.0 11309700000.0 11309700000.0 11309700000.0 11309700000.0 11309700000.0 11309700000.0 11309700000.0 11309700000.0 11309700000.0 11309700000.0 11309700000.0 11309700000.0 11309700000.0 11309700000.0 11309700000.0 11309700000.0 11309700000.0 11309700000.0 11309700000.0 11309700000.0 11309700000.0 11309700000.0 11309700000.0 11309700000.0 11309700000.0 11309700000.0 11309700000.0 11309700000.0 11309700000.0 11309700000.0 11309700000.0 11309700000.0 11309700000.0 11309700000.0 11309700000.0 11309700000.0 11309700000.0 11309700000.0 11309700000.0 11309700000.0 11309700000.0 11309700000.0 11309700000.0 11309700000.0 11309700000.0 11309700000.0 11309700000.0 11309700000.0 11309700000.0 11309700000.0 11309700000.0 11309700000.0 11309700000.0 11309700000.0 11309700000.0 11309700000.0 11309700000.0 11309700000.0 11309700000.0 11309700000.0 11309700000.0 11309700000.0 11309700000.0 11309700000.0 11309700000.0 11309700000.0 11309700000.0 11309700000.0 11309700000.0 11309700000.0 11309700000.0 11309700000.0 11309700000.0 11309700000.0 11309700000.0 11309700000.0 11309700000.0 11309700000.0 11309700000.0 11309700000.0 11309700000.0 11309700000.0 11309700000.0 11309700000.0 11309700000.0 11309700000.0 11309700000.0 11309700000.0 11309700000.0 11309700000.0 11309700000.0 11309700000.0 11309700000.0 11309700000.0 11309700000.0 11309700000.0 11309700000.0 11309700000.0 11309700000.0 11309700000.0 11309700000.0 11309700000.0 11309700000.0 11309700000.0 11309700000.0 11309700000.0 11309700000.0 11309700000.0 11309700000.0 11309700000.0 11309700000.0 11309700000.0 11309700000.0 11309700000.0 11309700000.0 11309700000.0 11309700000.0 11309700000.0 11309700000.0 11309700000.0 11309700000.0 11309700000.0 11309700000.0 11309700000.0 11309700000.0 11309700000.0 11309700000.0 11309700000.0 11309700000.0 11309700000.0 11309700000.0 11309700000.0 11309700000.0 11309700000.0 11309700000.0 11309700000.0 11309700000.0 11309700000.0 11309700000.0 11309700000.0 11309700000.0 11309700000.0 11309700000.0 11309700000.0 11309700000.0 11309700000.0 11309700000.0 11309700000.0 11309700000.0 11309700000.0 11309700000.0 11309700000.0 11309700000.0 11309700000.0 11309700000.0 11309700000.0 11309700000.0 11309700000.0 11309700000.0 11309700000.0 11309700000.0 11309700000.0 11309700000.0 11309700000.0 11309700000.0 11309700000.0 11309700000.0 11309700000.0 11309700000.0 11309700000.0 11309700000.0 11309700000.0 11309700000.0 11309700000.0 11309700000.0 11309700000.0 11309700000.0 11309700000.0 11309700000.0 11309700000.0 11309700000.0 11309700000.0 11309700000.0 11309700000.0 11309700000.0 11309700000.0 11309700000.0 11309700000.0 11309700000.0 11309700000.0 11309700000.0 11309700000.0 11309700000.0 11309700000.0 11309700000.0 11309700000.0 11309700000.0 11309700000.0 11309700000.0 11309700000.0 11309700000.0 11309700000.0 11309700000.0 11309700000.0 11309700000.0 11309700000.0 11309700000.0 11309700000.0 11309700000.0 11309700000.0 11309700000.0 11309700000.0 11309700000.0 11309700000.0 11309700000.0 11309700000.0 11309700000.0 11309700000.0 11309700000.0 11309700000.0 11309700000.0 11309700000.0 11309700000.0 11309700000.0 11309700000.0 11309700000.0 11309700000.0 11309700000.0 11309700000.0 11309700000.0 11309700000.0 11309700000.0 11309700000.0 11309700000.0 11309700000.0 11309700000.0 11309700000.0 11309700000.0 11309700000.0 11309700000.0 11309700000.0 11309700000.0 11309700000.0 11309700000.0 11309700000.0 11309700000.0 11309700000.0 11309700000.0 11309700000.0 11309700000.0 11309700000.0 11309700000.0 11309700000.0 11309700000.0 11309700000.0 11309700000.0 11309700000.0 11309700000.0 11309700000.0 11309700000.0 11309700000.0 11309700000.0 11309700000.0 11309700000.0 11309700000.0 11309700000.0 11309700000.0 11309700000.0 11309700000.0 11309700000.0 11309700000.0 11309700000.0 11309700000.0 11309700000.0 11309700000.0 11309700000.0 11309700000.0 11309700000.0 11309700000.0 11309700000.0 11309700000.0 11309700000.0 11309700000.0 11309700000.0 11309700000.0 11309700000.0 11309700000.0 11309700000.0 11309700000.0 11309700000.0 11309700000.0 11309700000.0 11309700000.0 11309700000.0 11309700000.0 11309700000.0 11309700000.0 11309700000.0 11309700000.0 11309700000.0 11309700000.0 11309700000.0 11309700000.0 11309700000.0 11309700000.0 11309700000.0 11309700000.0 11309700000.0 11309700000.0 11309700000.0 11309700000.0 11309700000.0 11309700000.0 11309700000.0 11309700000.0 11309700000.0 11309700000.0 11309700000.0 11309700000.0 11309700000.0 11309700000.0 11309700000.0 11309700000.0 11309700000.0 11309700000.0 11309700000.0 11309700000.0 11309700000.0 11309700000.0 11309700000.0 11309700000.0 11309700000.0 11309700000.0 11309700000.0 11309700000.0 11309700000.0 11309700000.0 11309700000.0 11309700000.0 11309700000.0 11309700000.0 11309700000.0 11309700000.0 11309700000.0 11309700000.0 11309700000.0 11309700000.0 11309700000.0 11309700000.0 11309700000.0 11309700000.0 11309700000.0 11309700000.0 11309700000.0 11309700000.0 11309700000.0 11309700000.0 11309700000.0 11309700000.0 11309700000.0 11309700000.0 11309700000.0 11309700000.0 11309700000.0 11309700000.0 11309700000.0 11309700000.0 11309700000.0 11309700000.0 11309700000.0 11309700000.0 11309700000.0 11309700000.0 11309700000.0 11309700000.0 11309700000.0 11309700000.0 11309700000.0 11309700000.0 11309700000.0 11309700000.0 11309700000.0 11309700000.0 11309700000.0 11309700000.0 11309700000.0 11309700000.0 11309700000.0 11309700000.0 11309700000.0 11309700000.0 11309700000.0 11309700000.0 11309700000.0 11309700000.0 11309700000.0 11309700000.0 11309700000.0 11309700000.0 11309700000.0 11309700000.0 11309700000.0 11309700000.0 11309700000.0 11309700000.0 11309700000.0 11309700000.0 11309700000.0 11309700000.0 11309700000.0 11309700000.0 11309700000.0 11309700000.0 11309700000.0 11309700000.0 11309700000.0 11309700000.0 11309700000.0 11309700000.0 11309700000.0 11309700000.0 11309700000.0 11309700000.0 11309700000.0 11309700000.0 11309700000.0 11309700000.0 11309700000.0 11309700000.0 11309700000.0 11309700000.0 11309700000.0 11309700000.0 11309700000.0 11309700000.0 11309700000.0 11309700000.0 11309700000.0 11309700000.0 11309700000.0 11309700000.0 11309700000.0 11309700000.0 11309700000.0 11309700000.0 11309700000.0 11309700000.0 11309700000.0 11309700000.0 11309700000.0 11309700000.0 11309700000.0 11309700000.0 11309700000.0 11309700000.0 11309700000.0 11309700000.0 11309700000.0 11309700000.0 11309700000.0 11309700000.0 11309700000.0 11309700000.0 11309700000.0 11309700000.0 11309700000.0 11309700000.0 11309700000.0 11309700000.0 11309700000.0 11309700000.0 11309700000.0 11309700000.0 11309700000.0 11309700000.0 11309700000.0 11309700000.0 11309700000.0 11309700000.0 11309700000.0 11309700000.0 11309700000.0 11309700000.0 11309700000.0 11309700000.0 11309700000.0 11309700000.0 11309700000.0 11309700000.0 11309700000.0 11309700000.0 11309700000.0 11309700000.0 11309700000.0 11309700000.0 11309700000.0 11309700000.0 11309700000.0 11309700000.0 11309700000.0 11309700000.0 11309700000.0 11309700000.0 11309700000.0 11309700000.0 11309700000.0 11309700000.0 11309700000.0 11309700000.0 11309700000.0 11309700000.0 11309700000.0 11309700000.0 11309700000.0 11309700000.0 11309700000.0 11309700000.0 11309700000.0 11309700000.0 11309700000.0 11309700000.0 11309700000.0 11309700000.0 11309700000.0 11309700000.0 11309700000.0 11309700000.0 11309700000.0 11309700000.0 11309700000.0 11309700000.0 11309700000.0 11309700000.0 11309700000.0 11309700000.0 11309700000.0 11309700000.0 11309700000.0 11309700000.0 11309700000.0 11309700000.0 11309700000.0 11309700000.0 11309700000.0 11309700000.0 11309700000.0 11309700000.0 11309700000.0 11309700000.0 11309700000.0 11309700000.0 11309700000.0 11309700000.0 11309700000.0 11309700000.0 11309700000.0 11309700000.0 11309700000.0 11309700000.0 11309700000.0 11309700000.0 11309700000.0 11309700000.0 11309700000.0 11309700000.0 11309700000.0 11309700000.0 11309700000.0 11309700000.0 11309700000.0 11309700000.0 11309700000.0 11309700000.0 11309700000.0 11309700000.0 11309700000.0 11309700000.0 11309700000.0 11309700000.0 11309700000.0 11309700000.0 11309700000.0 11309700000.0 11309700000.0 11309700000.0 11309700000.0 11309700000.0 11309700000.0 11309700000.0 11309700000.0 11309700000.0 11309700000.0 11309700000.0 11309700000.0 11309700000.0 11309700000.0 11309700000.0 11309700000.0 11309700000.0 11309700000.0 11309700000.0 11309700000.0 11309700000.0 11309700000.0 11309700000.0 11309700000.0 11309700000.0 11309700000.0 11309700000.0 11309700000.0 11309700000.0 11309700000.0 11309700000.0 11309700000.0 11309700000.0 11309700000.0 11309700000.0 11309700000.0 11309700000.0 11309700000.0 11309700000.0 11309700000.0 11309700000.0 11309700000.0 11309700000.0 11309700000.0 11309700000.0 11309700000.0 11309700000.0 11309700000.0 11309700000.0 11309700000.0 11309700000.0 11309700000.0 11309700000.0 11309700000.0 11309700000.0 11309700000.0 11309700000.0 11309700000.0 11309700000.0 11309700000.0 11309700000.0 11309700000.0 11309700000.0 11309700000.0 11309700000.0 11309700000.0 11309700000.0 11309700000.0 11309700000.0 11309700000.0 11309700000.0 11309700000.0 11309700000.0 11309700000.0 11309700000.0 11309700000.0 11309700000.0 11309700000.0 11309700000.0 11309700000.0 11309700000.0 11309700000.0 11309700000.0 11309700000.0 11309700000.0 11309700000.0 11309700000.0 11309700000.0 11309700000.0 11309700000.0 11309700000.0 11309700000.0 11309700000.0 11309700000.0 11309700000.0 11309700000.0 11309700000.0 11309700000.0 11309700000.0 11309700000.0 11309700000.0 11309700000.0 11309700000.0 11309700000.0 11309700000.0 11309700000.0 11309700000.0 11309700000.0 11309700000.0 11309700000.0 11309700000.0 11309700000.0 11309700000.0 11309700000.0 11309700000.0 11309700000.0 11309700000.0 11309700000.0 11309700000.0 11309700000.0 11309700000.0 11309700000.0 11309700000.0 11309700000.0 11309700000.0 11309700000.0 11309700000.0 11309700000.0 11309700000.0 11309700000.0 11309700000.0 11309700000.0 11309700000.0 11309700000.0 11309700000.0 11309700000.0 11309700000.0 11309700000.0 11309700000.0 11309700000.0 11309700000.0 11309700000.0 11309700000.0 11309700000.0 11309700000.0 11309700000.0 11309700000.0 11309700000.0 11309700000.0 11309700000.0 11309700000.0 11309700000.0 11309700000.0 11309700000.0 11309700000.0 11309700000.0 11309700000.0 11309700000.0 11309700000.0 11309700000.0 11309700000.0 11309700000.0 11309700000.0 11309700000.0 11309700000.0 11309700000.0 11309700000.0 11309700000.0 11309700000.0 11309700000.0 11309700000.0 11309700000.0 11309700000.0 11309700000.0 11309700000.0 11309700000.0 11309700000.0 11309700000.0 11309700000.0 11309700000.0 11309700000.0 11309700000.0 11309700000.0 11309700000.0 11309700000.0 11309700000.0 11309700000.0 11309700000.0 11309700000.0 11309700000.0 11309700000.0 11309700000.0 11309700000.0 11309700000.0 11309700000.0 11309700000.0 11309700000.0 11309700000.0 11309700000.0 11309700000.0 11309700000.0 11309700000.0 11309700000.0 11309700000.0 11309700000.0 11309700000.0 11309700000.0 11309700000.0 11309700000.0 11309700000.0 11309700000.0 11309700000.0 11309700000.0 11309700000.0 11309700000.0 11309700000.0 11309700000.0 11309700000.0 11309700000.0 11309700000.0 11309700000.0 11309700000.0 11309700000.0 11309700000.0 11309700000.0 11309700000.0 11309700000.0 11309700000.0 11309700000.0 11309700000.0 11309700000.0 11309700000.0 11309700000.0 11309700000.0 11309700000.0 11309700000.0 11309700000.0 11309700000.0 11309700000.0 11309700000.0 11309700000.0 11309700000.0 11309700000.0 11309700000.0 11309700000.0 11309700000.0 11309700000.0 11309700000.0 11309700000.0 11309700000.0 11309700000.0 11309700000.0 11309700000.0 11309700000.0 11309700000.0 11309700000.0 11309700000.0 11309700000.0 11309700000.0 11309700000.0 11309700000.0 11309700000.0 11309700000.0 11309700000.0 11309700000.0 11309700000.0 11309700000.0 11309700000.0 11309700000.0 11309700000.0 11309700000.0 11309700000.0 11309700000.0 11309700000.0 11309700000.0 11309700000.0 11309700000.0 11309700000.0 11309700000.0 11309700000.0 11309700000.0 11309700000.0 11309700000.0 11309700000.0 11309700000.0 11309700000.0 11309700000.0 11309700000.0 11309700000.0 11309700000.0 11309700000.0 11309700000.0 11309700000.0 11309700000.0 11309700000.0 11309700000.0 11309700000.0 11309700000.0 11309700000.0 11309700000.0 11309700000.0 11309700000.0 11309700000.0 11309700000.0 11309700000.0 11309700000.0 11309700000.0 11309700000.0 11309700000.0 11309700000.0 11309700000.0 11309700000.0 11309700000.0 11309700000.0 11309700000.0 11309700000.0 11309700000.0 11309700000.0 11309700000.0 11309700000.0 11309700000.0 11309700000.0 11309700000.0 11309700000.0 11309700000.0 11309700000.0 11309700000.0 11309700000.0 11309700000.0 11309700000.0 11309700000.0 11309700000.0 11309700000.0 11309700000.0 11309700000.0 11309700000.0 11309700000.0 11309700000.0 11309700000.0 11309700000.0 11309700000.0 11309700000.0 11309700000.0 11309700000.0 11309700000.0 11309700000.0 11309700000.0 11309700000.0 11309700000.0 11309700000.0 11309700000.0 11309700000.0 11309700000.0 11309700000.0 11309700000.0 11309700000.0 11309700000.0 11309700000.0 11309700000.0 11309700000.0 11309700000.0 11309700000.0 11309700000.0 11309700000.0 11309700000.0 11309700000.0 11309700000.0 11309700000.0 11309700000.0 11309700000.0 11309700000.0 11309700000.0 11309700000.0 11309700000.0 11309700000.0 11309700000.0 11309700000.0 11309700000.0 11309700000.0 11309700000.0 11309700000.0 11309700000.0 11309700000.0 11309700000.0 11309700000.0 11309700000.0 11309700000.0 11309700000.0 11309700000.0 11309700000.0 11309700000.0 11309700000.0 11309700000.0 11309700000.0 11309700000.0 11309700000.0 11309700000.0 11309700000.0 11309700000.0 11309700000.0 11309700000.0 11309700000.0 11309700000.0 11309700000.0 11309700000.0 11309700000.0 11309700000.0 11309700000.0 11309700000.0 11309700000.0 11309700000.0 11309700000.0 11309700000.0 11309700000.0 11309700000.0 11309700000.0 11309700000.0 11309700000.0 11309700000.0 11309700000.0 11309700000.0 11309700000.0 11309700000.0 11309700000.0 11309700000.0 11309700000.0 11309700000.0 11309700000.0 11309700000.0 11309700000.0 11309700000.0 11309700000.0 11309700000.0 11309700000.0 11309700000.0 11309700000.0 11309700000.0 11309700000.0 11309700000.0 11309700000.0 11309700000.0 11309700000.0 11309700000.0 11309700000.0 11309700000.0 11309700000.0 11309700000.0 11309700000.0 11309700000.0 11309700000.0 11309700000.0 11309700000.0 11309700000.0 11309700000.0 11309700000.0 11309700000.0 11309700000.0 11309700000.0 11309700000.0 11309700000.0 11309700000.0 11309700000.0 11309700000.0 11309700000.0 11309700000.0 11309700000.0 11309700000.0 11309700000.0 11309700000.0 11309700000.0 11309700000.0 11309700000.0 11309700000.0 11309700000.0 11309700000.0 11309700000.0 11309700000.0 11309700000.0 11309700000.0 11309700000.0 11309700000.0 11309700000.0 11309700000.0 11309700000.0 11309700000.0 11309700000.0 11309700000.0 11309700000.0 11309700000.0 11309700000.0 11309700000.0 11309700000.0 11309700000.0 11309700000.0 11309700000.0 11309700000.0 11309700000.0 11309700000.0 11309700000.0 11309700000.0 11309700000.0 11309700000.0 11309700000.0 11309700000.0 11309700000.0 11309700000.0 11309700000.0 11309700000.0 11309700000.0 11309700000.0 11309700000.0 11309700000.0 11309700000.0 11309700000.0 11309700000.0 11309700000.0 11309700000.0 11309700000.0 11309700000.0 11309700000.0 11309700000.0 11309700000.0 11309700000.0 11309700000.0 11309700000.0 11309700000.0 11309700000.0 11309700000.0 11309700000.0 11309700000.0 11309700000.0 11309700000.0 11309700000.0 11309700000.0 11309700000.0 11309700000.0 11309700000.0 11309700000.0 11309700000.0 11309700000.0 11309700000.0 11309700000.0 11309700000.0 11309700000.0 11309700000.0 11309700000.0 11309700000.0 11309700000.0 11309700000.0 11309700000.0 11309700000.0 11309700000.0 11309700000.0 11309700000.0 11309700000.0 11309700000.0 11309700000.0 11309700000.0 11309700000.0 11309700000.0 11309700000.0 11309700000.0 11309700000.0 11309700000.0 11309700000.0 11309700000.0 11309700000.0 11309700000.0 11309700000.0 11309700000.0 11309700000.0 11309700000.0 11309700000.0 11309700000.0 11309700000.0 11309700000.0 11309700000.0 11309700000.0 11309700000.0 11309700000.0 11309700000.0 11309700000.0 11309700000.0 11309700000.0 11309700000.0 11309700000.0 11309700000.0 11309700000.0 11309700000.0 11309700000.0 11309700000.0 11309700000.0 11309700000.0 11309700000.0 11309700000.0 11309700000.0 11309700000.0 11309700000.0 11309700000.0 11309700000.0 11309700000.0 11309700000.0 11309700000.0 11309700000.0 11309700000.0 11309700000.0 11309700000.0 11309700000.0 11309700000.0 11309700000.0 11309700000.0 11309700000.0 11309700000.0 11309700000.0 11309700000.0 11309700000.0 11309700000.0 11309700000.0 11309700000.0 11309700000.0 11309700000.0 11309700000.0 11309700000.0 11309700000.0 11309700000.0 11309700000.0 11309700000.0 11309700000.0 11309700000.0 11309700000.0 11309700000.0 11309700000.0 11309700000.0 11309700000.0 11309700000.0 11309700000.0 11309700000.0 11309700000.0 11309700000.0 11309700000.0 11309700000.0 11309700000.0 11309700000.0 11309700000.0 11309700000.0 11309700000.0 11309700000.0 11309700000.0 11309700000.0 11309700000.0 11309700000.0 11309700000.0 11309700000.0 11309700000.0 11309700000.0 11309700000.0 11309700000.0 11309700000.0 11309700000.0 11309700000.0 11309700000.0 11309700000.0 11309700000.0 11309700000.0 11309700000.0 11309700000.0 11309700000.0 11309700000.0 11309700000.0 11309700000.0 11309700000.0 11309700000.0 11309700000.0 11309700000.0 11309700000.0 11309700000.0 11309700000.0 11309700000.0 11309700000.0 11309700000.0 11309700000.0 11309700000.0 11309700000.0 11309700000.0 11309700000.0 11309700000.0 11309700000.0 11309700000.0 11309700000.0 11309700000.0 11309700000.0 11309700000.0 11309700000.0 11309700000.0 11309700000.0 11309700000.0 11309700000.0 11309700000.0 11309700000.0 11309700000.0 11309700000.0 11309700000.0 11309700000.0 11309700000.0 11309700000.0 11309700000.0 11309700000.0 11309700000.0 11309700000.0 11309700000.0 11309700000.0 11309700000.0 11309700000.0 11309700000.0 11309700000.0 11309700000.0 11309700000.0 11309700000.0 11309700000.0 11309700000.0 11309700000.0 11309700000.0 11309700000.0 11309700000.0 11309700000.0 11309700000.0 11309700000.0 11309700000.0 11309700000.0 11309700000.0 11309700000.0 11309700000.0 11309700000.0 11309700000.0 11309700000.0 11309700000.0 11309700000.0 11309700000.0 11309700000.0 11309700000.0 11309700000.0 11309700000.0 11309700000.0 11309700000.0 11309700000.0 11309700000.0 11309700000.0 11309700000.0 11309700000.0 11309700000.0 11309700000.0 11309700000.0 11309700000.0 11309700000.0 11309700000.0 11309700000.0 11309700000.0 11309700000.0 11309700000.0 11309700000.0 11309700000.0 11309700000.0 11309700000.0 11309700000.0 11309700000.0 11309700000.0 11309700000.0 11309700000.0 11309700000.0 11309700000.0 11309700000.0 11309700000.0 11309700000.0 11309700000.0 11309700000.0 11309700000.0 11309700000.0 11309700000.0 11309700000.0 11309700000.0 11309700000.0 11309700000.0 11309700000.0 11309700000.0 11309700000.0 11309700000.0 11309700000.0 11309700000.0 11309700000.0 11309700000.0 11309700000.0 11309700000.0 11309700000.0 11309700000.0 11309700000.0 11309700000.0 11309700000.0 11309700000.0 11309700000.0 11309700000.0 11309700000.0 11309700000.0 11309700000.0 11309700000.0 11309700000.0 11309700000.0 11309700000.0 11309700000.0 11309700000.0 11309700000.0 11309700000.0 11309700000.0 11309700000.0 11309700000.0 11309700000.0 11309700000.0 11309700000.0 11309700000.0 11309700000.0 11309700000.0 11309700000.0 11309700000.0 11309700000.0 11309700000.0 11309700000.0 11309700000.0 11309700000.0 11309700000.0 11309700000.0 11309700000.0 11309700000.0 11309700000.0 11309700000.0 11309700000.0 11309700000.0 11309700000.0 11309700000.0 11309700000.0 11309700000.0 11309700000.0 11309700000.0 11309700000.0 11309700000.0 11309700000.0 11309700000.0 11309700000.0 11309700000.0 11309700000.0 11309700000.0 11309700000.0 11309700000.0 11309700000.0 11309700000.0 11309700000.0 11309700000.0 11309700000.0 11309700000.0 11309700000.0 11309700000.0 11309700000.0 11309700000.0 11309700000.0 11309700000.0 11309700000.0 11309700000.0 11309700000.0 11309700000.0 11309700000.0 11309700000.0 11309700000.0 11309700000.0 11309700000.0 11309700000.0 11309700000.0 11309700000.0 11309700000.0 11309700000.0 11309700000.0 11309700000.0 11309700000.0 11309700000.0 11309700000.0 11309700000.0 11309700000.0 11309700000.0 11309700000.0 11309700000.0 11309700000.0 11309700000.0 11309700000.0 11309700000.0 11309700000.0 11309700000.0 11309700000.0 11309700000.0 11309700000.0 11309700000.0 11309700000.0 11309700000.0 11309700000.0 11309700000.0 11309700000.0 11309700000.0 11309700000.0 11309700000.0 11309700000.0 11309700000.0 11309700000.0 11309700000.0 11309700000.0 11309700000.0 11309700000.0 11309700000.0 11309700000.0 11309700000.0 11309700000.0 11309700000.0 11309700000.0 11309700000.0 11309700000.0 11309700000.0 11309700000.0 11309700000.0 11309700000.0 11309700000.0 11309700000.0 11309700000.0 11309700000.0 11309700000.0 11309700000.0 11309700000.0 11309700000.0 11309700000.0 11309700000.0 11309700000.0 11309700000.0 11309700000.0 11309700000.0 11309700000.0 11309700000.0 11309700000.0 11309700000.0 11309700000.0 11309700000.0 11309700000.0 11309700000.0 11309700000.0 11309700000.0 11309700000.0 11309700000.0 11309700000.0 11309700000.0 11309700000.0 11309700000.0 11309700000.0 11309700000.0 11309700000.0 11309700000.0 11309700000.0 11309700000.0 11309700000.0 11309700000.0 11309700000.0 11309700000.0 11309700000.0 11309700000.0 11309700000.0 11309700000.0 11309700000.0 11309700000.0 11309700000.0 11309700000.0 11309700000.0 11309700000.0 11309700000.0 11309700000.0 11309700000.0 11309700000.0 11309700000.0 11309700000.0 11309700000.0 11309700000.0 11309700000.0 11309700000.0 11309700000.0 11309700000.0 11309700000.0 11309700000.0 11309700000.0 11309700000.0 11309700000.0 11309700000.0 11309700000.0 11309700000.0 11309700000.0 11309700000.0 11309700000.0 11309700000.0 11309700000.0 11309700000.0 11309700000.0 11309700000.0 11309700000.0 11309700000.0 11309700000.0 11309700000.0 11309700000.0 11309700000.0 11309700000.0 11309700000.0 11309700000.0 11309700000.0 11309700000.0 11309700000.0 11309700000.0 11309700000.0 11309700000.0 11309700000.0 11309700000.0 11309700000.0 11309700000.0 11309700000.0 11309700000.0 11309700000.0 11309700000.0 11309700000.0 11309700000.0 11309700000.0 11309700000.0 11309700000.0 11309700000.0 11309700000.0 11309700000.0 11309700000.0 11309700000.0 11309700000.0 11309700000.0 11309700000.0 11309700000.0 11309700000.0 11309700000.0 11309700000.0 11309700000.0 11309700000.0 11309700000.0 11309700000.0 11309700000.0 11309700000.0 11309700000.0 11309700000.0 11309700000.0 11309700000.0 11309700000.0 11309700000.0 11309700000.0 11309700000.0 11309700000.0 11309700000.0 11309700000.0 11309700000.0 11309700000.0 11309700000.0 11309700000.0 11309700000.0 11309700000.0 11309700000.0 11309700000.0 11309700000.0 11309700000.0 11309700000.0 11309700000.0 11309700000.0 11309700000.0 11309700000.0 11309700000.0 11309700000.0 11309700000.0 11309700000.0 11309700000.0 11309700000.0 11309700000.0 11309700000.0 11309700000.0 11309700000.0 11309700000.0 11309700000.0 11309700000.0 11309700000.0 11309700000.0 11309700000.0 11309700000.0 11309700000.0 11309700000.0 11309700000.0 11309700000.0 11309700000.0 11309700000.0 11309700000.0 11309700000.0 11309700000.0 11309700000.0 11309700000.0 11309700000.0 11309700000.0 11309700000.0 11309700000.0 11309700000.0 11309700000.0 11309700000.0 11309700000.0 11309700000.0 11309700000.0 11309700000.0 11309700000.0 11309700000.0 11309700000.0 11309700000.0 11309700000.0 11309700000.0 11309700000.0 11309700000.0 11309700000.0 11309700000.0 11309700000.0 11309700000.0 11309700000.0 11309700000.0 11309700000.0 11309700000.0 11309700000.0 11309700000.0 11309700000.0 11309700000.0 11309700000.0 11309700000.0 11309700000.0 11309700000.0 11309700000.0 11309700000.0 11309700000.0 11309700000.0 11309700000.0 11309700000.0 11309700000.0 11309700000.0 11309700000.0 11309700000.0 11309700000.0 11309700000.0 11309700000.0 11309700000.0 11309700000.0 11309700000.0 11309700000.0 11309700000.0 11309700000.0 11309700000.0 11309700000.0 11309700000.0 11309700000.0 11309700000.0 11309700000.0 11309700000.0 11309700000.0 11309700000.0 11309700000.0 11309700000.0 11309700000.0 11309700000.0 11309700000.0 11309700000.0 11309700000.0 11309700000.0 11309700000.0 11309700000.0 11309700000.0 11309700000.0 11309700000.0 11309700000.0 11309700000.0 11309700000.0 11309700000.0 11309700000.0 11309700000.0 11309700000.0 11309700000.0 11309700000.0 11309700000.0 11309700000.0 11309700000.0 11309700000.0 11309700000.0 11309700000.0 11309700000.0 11309700000.0 11309700000.0 11309700000.0 11309700000.0 11309700000.0 11309700000.0 11309700000.0 11309700000.0 11309700000.0 11309700000.0 11309700000.0 11309700000.0 11309700000.0 11309700000.0 11309700000.0 11309700000.0 11309700000.0 11309700000.0 11309700000.0 11309700000.0 11309700000.0 11309700000.0 11309700000.0 11309700000.0 11309700000.0 11309700000.0 11309700000.0 11309700000.0 11309700000.0 11309700000.0 11309700000.0 11309700000.0 11309700000.0 11309700000.0 11309700000.0 11309700000.0 11309700000.0 11309700000.0 11309700000.0 11309700000.0 11309700000.0 11309700000.0 11309700000.0 11309700000.0 11309700000.0 11309700000.0 11309700000.0 11309700000.0 11309700000.0 11309700000.0 11309700000.0 11309700000.0 11309700000.0 11309700000.0 11309700000.0 11309700000.0 11309700000.0 11309700000.0 11309700000.0 11309700000.0 11309700000.0 11309700000.0 11309700000.0 11309700000.0 11309700000.0 11309700000.0 11309700000.0 11309700000.0 11309700000.0 11309700000.0 11309700000.0 11309700000.0 11309700000.0 11309700000.0 11309700000.0 11309700000.0 11309700000.0 11309700000.0 11309700000.0 11309700000.0 11309700000.0 11309700000.0 11309700000.0 11309700000.0 11309700000.0 11309700000.0 11309700000.0 11309700000.0 11309700000.0 11309700000.0 11309700000.0 11309700000.0 11309700000.0 11309700000.0 11309700000.0 11309700000.0 11309700000.0 11309700000.0 11309700000.0 11309700000.0 11309700000.0 11309700000.0 11309700000.0 11309700000.0 11309700000.0 11309700000.0 11309700000.0 11309700000.0 11309700000.0 11309700000.0 11309700000.0 11309700000.0 11309700000.0 11309700000.0 11309700000.0 11309700000.0 11309700000.0 11309700000.0 11309700000.0 11309700000.0 11309700000.0 11309700000.0 11309700000.0 11309700000.0 11309700000.0 11309700000.0 11309700000.0 11309700000.0 11309700000.0 11309700000.0 11309700000.0 11309700000.0 11309700000.0 11309700000.0 11309700000.0 11309700000.0 11309700000.0 11309700000.0 11309700000.0 11309700000.0 11309700000.0 11309700000.0 11309700000.0 11309700000.0 11309700000.0 11309700000.0 11309700000.0 11309700000.0 11309700000.0 11309700000.0 11309700000.0 11309700000.0 11309700000.0 11309700000.0 11309700000.0 11309700000.0 11309700000.0 11309700000.0 11309700000.0 11309700000.0 11309700000.0 11309700000.0 11309700000.0 11309700000.0 11309700000.0 11309700000.0 11309700000.0 11309700000.0 11309700000.0 11309700000.0 11309700000.0 11309700000.0 11309700000.0 11309700000.0 11309700000.0 11309700000.0 11309700000.0 11309700000.0 11309700000.0 11309700000.0 11309700000.0 11309700000.0 11309700000.0 11309700000.0 11309700000.0 11309700000.0 11309700000.0 11309700000.0 11309700000.0 11309700000.0 11309700000.0 11309700000.0 11309700000.0 11309700000.0 11309700000.0 11309700000.0 11309700000.0 11309700000.0 11309700000.0 11309700000.0 11309700000.0 11309700000.0 11309700000.0 11309700000.0 11309700000.0 11309700000.0 11309700000.0 11309700000.0 11309700000.0 11309700000.0 11309700000.0 11309700000.0 11309700000.0 11309700000.0 11309700000.0 11309700000.0 11309700000.0 11309700000.0 11309700000.0 11309700000.0 11309700000.0 11309700000.0 11309700000.0 11309700000.0 11309700000.0 11309700000.0 11309700000.0 11309700000.0 11309700000.0 11309700000.0 11309700000.0 11309700000.0 11309700000.0 11309700000.0 11309700000.0 11309700000.0 11309700000.0 11309700000.0 11309700000.0 11309700000.0 11309700000.0 11309700000.0 11309700000.0 11309700000.0 11309700000.0 11309700000.0 11309700000.0 11309700000.0 11309700000.0 11309700000.0 11309700000.0 11309700000.0 11309700000.0 11309700000.0 11309700000.0 11309700000.0 11309700000.0 11309700000.0 11309700000.0 11309700000.0 11309700000.0 11309700000.0 11309700000.0 11309700000.0 11309700000.0 11309700000.0 11309700000.0 11309700000.0 11309700000.0 11309700000.0 11309700000.0 11309700000.0 11309700000.0 11309700000.0 11309700000.0 11309700000.0 11309700000.0 11309700000.0 11309700000.0 11309700000.0 11309700000.0 11309700000.0 11309700000.0 11309700000.0 11309700000.0 11309700000.0 11309700000.0 11309700000.0 11309700000.0 11309700000.0 11309700000.0 11309700000.0 11309700000.0 11309700000.0 11309700000.0 11309700000.0 11309700000.0 11309700000.0 11309700000.0 11309700000.0 11309700000.0 11309700000.0 11309700000.0 11309700000.0 11309700000.0 11309700000.0 11309700000.0 11309700000.0 11309700000.0 11309700000.0 11309700000.0 11309700000.0 11309700000.0 11309700000.0 11309700000.0 11309700000.0 11309700000.0 11309700000.0 11309700000.0 11309700000.0 11309700000.0 11309700000.0 11309700000.0 11309700000.0 11309700000.0 11309700000.0 11309700000.0 11309700000.0 11309700000.0 11309700000.0 11309700000.0 11309700000.0 11309700000.0 11309700000.0 11309700000.0 11309700000.0 11309700000.0 11309700000.0 11309700000.0 11309700000.0 11309700000.0 11309700000.0 11309700000.0 11309700000.0 11309700000.0 11309700000.0 11309700000.0 11309700000.0 11309700000.0 11309700000.0 11309700000.0 11309700000.0 11309700000.0 11309700000.0 11309700000.0 11309700000.0 11309700000.0 11309700000.0 11309700000.0 11309700000.0 11309700000.0 11309700000.0 11309700000.0 11309700000.0 11309700000.0 11309700000.0 11309700000.0 11309700000.0 11309700000.0 11309700000.0 11309700000.0 11309700000.0 11309700000.0 11309700000.0 11309700000.0 11309700000.0 11309700000.0 11309700000.0 11309700000.0 11309700000.0 11309700000.0 11309700000.0 11309700000.0 11309700000.0 11309700000.0 11309700000.0 11309700000.0 11309700000.0 11309700000.0 11309700000.0 11309700000.0 11309700000.0 11309700000.0 11309700000.0 11309700000.0 11309700000.0 11309700000.0 11309700000.0 11309700000.0 11309700000.0 11309700000.0 11309700000.0 11309700000.0 11309700000.0 11309700000.0 11309700000.0 11309700000.0 11309700000.0 11309700000.0 11309700000.0 11309700000.0 11309700000.0 11309700000.0 11309700000.0 11309700000.0 11309700000.0 11309700000.0 11309700000.0 11309700000.0 11309700000.0 11309700000.0 11309700000.0 11309700000.0 11309700000.0 11309700000.0 11309700000.0 11309700000.0 11309700000.0 11309700000.0 11309700000.0 11309700000.0 11309700000.0 11309700000.0 11309700000.0 11309700000.0 11309700000.0 11309700000.0 11309700000.0 11309700000.0 11309700000.0 11309700000.0 11309700000.0 11309700000.0 11309700000.0 11309700000.0 11309700000.0 11309700000.0 11309700000.0 11309700000.0 11309700000.0 11309700000.0 11309700000.0 11309700000.0 11309700000.0 11309700000.0 11309700000.0 11309700000.0 11309700000.0 11309700000.0 11309700000.0 11309700000.0 11309700000.0 11309700000.0 11309700000.0 11309700000.0 11309700000.0 11309700000.0 11309700000.0 11309700000.0 11309700000.0 11309700000.0 11309700000.0 11309700000.0 11309700000.0 11309700000.0 11309700000.0 11309700000.0 11309700000.0 11309700000.0 11309700000.0 11309700000.0 11309700000.0 11309700000.0 11309700000.0 11309700000.0 11309700000.0 11309700000.0 11309700000.0 11309700000.0 11309700000.0 11309700000.0 11309700000.0 11309700000.0 11309700000.0 11309700000.0 11309700000.0 11309700000.0 11309700000.0 11309700000.0 11309700000.0 11309700000.0 11309700000.0 11309700000.0 11309700000.0 11309700000.0 11309700000.0 11309700000.0 11309700000.0 11309700000.0 11309700000.0 11309700000.0 11309700000.0 11309700000.0 11309700000.0 11309700000.0 11309700000.0 11309700000.0 11309700000.0 11309700000.0 11309700000.0 11309700000.0 11309700000.0 11309700000.0 11309700000.0 11309700000.0 11309700000.0 11309700000.0 11309700000.0 11309700000.0 11309700000.0 11309700000.0 11309700000.0 11309700000.0 11309700000.0 11309700000.0 11309700000.0 11309700000.0 11309700000.0 11309700000.0 11309700000.0 11309700000.0 11309700000.0 11309700000.0 11309700000.0 11309700000.0 11309700000.0 11309700000.0 11309700000.0 11309700000.0 11309700000.0 11309700000.0 11309700000.0 11309700000.0 11309700000.0 11309700000.0 11309700000.0 11309700000.0 11309700000.0 11309700000.0 11309700000.0 11309700000.0 11309700000.0 11309700000.0 11309700000.0 11309700000.0 11309700000.0 11309700000.0 11309700000.0 11309700000.0 11309700000.0 11309700000.0 11309700000.0 11309700000.0 11309700000.0 11309700000.0 11309700000.0 11309700000.0 11309700000.0 11309700000.0 11309700000.0 11309700000.0 11309700000.0 11309700000.0 11309700000.0 11309700000.0 11309700000.0 11309700000.0 11309700000.0 11309700000.0 11309700000.0 11309700000.0 11309700000.0 11309700000.0 11309700000.0 11309700000.0 11309700000.0 11309700000.0 11309700000.0 11309700000.0 11309700000.0 11309700000.0 11309700000.0 11309700000.0 11309700000.0 11309700000.0 11309700000.0 11309700000.0 11309700000.0 11309700000.0 11309700000.0 11309700000.0 11309700000.0 11309700000.0 11309700000.0 11309700000.0 11309700000.0 11309700000.0 11309700000.0 11309700000.0 11309700000.0 11309700000.0 11309700000.0 11309700000.0 11309700000.0 11309700000.0 11309700000.0 11309700000.0 11309700000.0 11309700000.0 11309700000.0 11309700000.0 11309700000.0 11309700000.0 11309700000.0 11309700000.0 11309700000.0 11309700000.0 11309700000.0 11309700000.0 11309700000.0 11309700000.0 11309700000.0 11309700000.0 11309700000.0 11309700000.0 11309700000.0 11309700000.0 11309700000.0 11309700000.0 11309700000.0 11309700000.0 11309700000.0 11309700000.0 11309700000.0 11309700000.0 11309700000.0 11309700000.0 11309700000.0 11309700000.0 11309700000.0 11309700000.0 11309700000.0 11309700000.0 11309700000.0 11309700000.0 11309700000.0 11309700000.0 11309700000.0 11309700000.0 11309700000.0 11309700000.0 11309700000.0 11309700000.0 11309700000.0 11309700000.0 11309700000.0 11309700000.0 11309700000.0 11309700000.0 11309700000.0 11309700000.0 11309700000.0 11309700000.0 11309700000.0 11309700000.0 11309700000.0 11309700000.0 11309700000.0 11309700000.0 11309700000.0 11309700000.0 11309700000.0 11309700000.0 11309700000.0 11309700000.0 11309700000.0 11309700000.0 11309700000.0 11309700000.0 11309700000.0 11309700000.0 11309700000.0 11309700000.0 11309700000.0 11309700000.0 11309700000.0 11309700000.0 11309700000.0 11309700000.0 11309700000.0 11309700000.0 11309700000.0 11309700000.0 11309700000.0 11309700000.0 11309700000.0 11309700000.0 11309700000.0 11309700000.0 11309700000.0 11309700000.0 11309700000.0 11309700000.0 11309700000.0 11309700000.0 11309700000.0 11309700000.0 11309700000.0 11309700000.0 11309700000.0 11309700000.0 11309700000.0 11309700000.0 11309700000.0 11309700000.0 11309700000.0 11309700000.0 11309700000.0 11309700000.0 11309700000.0 11309700000.0 11309700000.0 11309700000.0 11309700000.0 11309700000.0 11309700000.0 11309700000.0 11309700000.0 11309700000.0 11309700000.0 11309700000.0 11309700000.0 11309700000.0 11309700000.0 11309700000.0 11309700000.0 11309700000.0 11309700000.0 11309700000.0 11309700000.0 11309700000.0 11309700000.0 11309700000.0 11309700000.0 11309700000.0 11309700000.0 11309700000.0 11309700000.0 11309700000.0 11309700000.0 11309700000.0 11309700000.0 11309700000.0 11309700000.0 11309700000.0 11309700000.0 11309700000.0 11309700000.0 11309700000.0 11309700000.0 11309700000.0 11309700000.0 11309700000.0 11309700000.0 11309700000.0 11309700000.0 11309700000.0 11309700000.0 11309700000.0 11309700000.0 11309700000.0 11309700000.0 11309700000.0 11309700000.0 11309700000.0 11309700000.0 11309700000.0 11309700000.0 11309700000.0 11309700000.0 11309700000.0 11309700000.0 11309700000.0 11309700000.0 11309700000.0 11309700000.0 11309700000.0 11309700000.0 11309700000.0 11309700000.0 11309700000.0 11309700000.0 11309700000.0 11309700000.0 11309700000.0 11309700000.0 11309700000.0 11309700000.0 11309700000.0 11309700000.0 11309700000.0 11309700000.0 11309700000.0 11309700000.0 11309700000.0 11309700000.0 11309700000.0 11309700000.0 11309700000.0 11309700000.0 11309700000.0 11309700000.0 11309700000.0 11309700000.0 11309700000.0 11309700000.0 11309700000.0 11309700000.0 11309700000.0 11309700000.0 11309700000.0 11309700000.0 11309700000.0 11309700000.0 11309700000.0 11309700000.0 11309700000.0 11309700000.0 11309700000.0 11309700000.0 11309700000.0 11309700000.0 11309700000.0 11309700000.0 11309700000.0 11309700000.0 11309700000.0 11309700000.0 11309700000.0 11309700000.0 11309700000.0 11309700000.0 11309700000.0 11309700000.0 11309700000.0 11309700000.0 11309700000.0 11309700000.0 11309700000.0 11309700000.0 11309700000.0 11309700000.0 11309700000.0 11309700000.0 11309700000.0 11309700000.0 11309700000.0 11309700000.0 11309700000.0 11309700000.0 11309700000.0 11309700000.0 11309700000.0 11309700000.0 11309700000.0 11309700000.0 11309700000.0 11309700000.0 11309700000.0 11309700000.0 11309700000.0 11309700000.0 11309700000.0 11309700000.0 11309700000.0 11309700000.0 11309700000.0 11309700000.0 11309700000.0 11309700000.0 11309700000.0 11309700000.0 11309700000.0 11309700000.0 11309700000.0 11309700000.0 11309700000.0 11309700000.0 11309700000.0 11309700000.0 11309700000.0 11309700000.0 11309700000.0 11309700000.0 11309700000.0 11309700000.0 11309700000.0 11309700000.0 11309700000.0 11309700000.0 11309700000.0 11309700000.0 11309700000.0 11309700000.0 11309700000.0 11309700000.0 11309700000.0 11309700000.0 11309700000.0 11309700000.0 11309700000.0 11309700000.0 11309700000.0 11309700000.0 11309700000.0 11309700000.0 11309700000.0 11309700000.0 11309700000.0 11309700000.0 11309700000.0 11309700000.0 11309700000.0 11309700000.0 11309700000.0 11309700000.0 11309700000.0 11309700000.0 11309700000.0 11309700000.0 11309700000.0 11309700000.0 11309700000.0 11309700000.0 11309700000.0 11309700000.0 11309700000.0 11309700000.0 11309700000.0 11309700000.0 11309700000.0 11309700000.0 11309700000.0 11309700000.0 11309700000.0 11309700000.0 11309700000.0 11309700000.0 11309700000.0 11309700000.0 11309700000.0 11309700000.0 11309700000.0 11309700000.0 11309700000.0 11309700000.0 11309700000.0 11309700000.0 11309700000.0 11309700000.0 11309700000.0 11309700000.0 11309700000.0 11309700000.0 11309700000.0 11309700000.0 11309700000.0 11309700000.0 11309700000.0 11309700000.0 11309700000.0 11309700000.0 11309700000.0 11309700000.0 11309700000.0 11309700000.0 11309700000.0 11309700000.0 11309700000.0 11309700000.0 11309700000.0 11309700000.0 11309700000.0 11309700000.0 11309700000.0 11309700000.0 11309700000.0 11309700000.0 11309700000.0 11309700000.0 11309700000.0 11309700000.0 11309700000.0 11309700000.0 11309700000.0 11309700000.0 11309700000.0 11309700000.0 11309700000.0 11309700000.0 11309700000.0 11309700000.0 11309700000.0 11309700000.0 11309700000.0 11309700000.0 11309700000.0 11309700000.0 11309700000.0 11309700000.0 11309700000.0 11309700000.0 11309700000.0 11309700000.0 11309700000.0 11309700000.0 11309700000.0 11309700000.0 11309700000.0 11309700000.0 11309700000.0 11309700000.0 11309700000.0 11309700000.0 11309700000.0 11309700000.0 11309700000.0 11309700000.0 11309700000.0 11309700000.0 11309700000.0 11309700000.0 11309700000.0 11309700000.0 11309700000.0 11309700000.0 11309700000.0 11309700000.0 11309700000.0 11309700000.0 11309700000.0 11309700000.0 11309700000.0 11309700000.0 11309700000.0 11309700000.0 11309700000.0 11309700000.0 11309700000.0 11309700000.0 11309700000.0 11309700000.0 11309700000.0 11309700000.0 11309700000.0 11309700000.0 11309700000.0 11309700000.0 11309700000.0 11309700000.0 11309700000.0 11309700000.0 11309700000.0 11309700000.0 11309700000.0 11309700000.0 11309700000.0 11309700000.0 11309700000.0 11309700000.0 11309700000.0 11309700000.0 11309700000.0 11309700000.0 11309700000.0 11309700000.0 11309700000.0 11309700000.0 11309700000.0 11309700000.0 11309700000.0 11309700000.0 11309700000.0 11309700000.0 11309700000.0 11309700000.0 11309700000.0 11309700000.0 11309700000.0 11309700000.0 11309700000.0 11309700000.0 11309700000.0 11309700000.0 11309700000.0 11309700000.0 11309700000.0 11309700000.0 11309700000.0 11309700000.0 11309700000.0 11309700000.0 11309700000.0 11309700000.0 11309700000.0 11309700000.0 11309700000.0 11309700000.0 11309700000.0 11309700000.0 11309700000.0 11309700000.0 11309700000.0 11309700000.0 11309700000.0 11309700000.0 11309700000.0 11309700000.0 11309700000.0 11309700000.0 11309700000.0 11309700000.0 11309700000.0 11309700000.0 11309700000.0 11309700000.0 11309700000.0 11309700000.0 11309700000.0 11309700000.0 11309700000.0 11309700000.0 11309700000.0 11309700000.0 11309700000.0 11309700000.0 11309700000.0 11309700000.0 11309700000.0 11309700000.0 11309700000.0 11309700000.0 11309700000.0 11309700000.0 11309700000.0 11309700000.0 11309700000.0 11309700000.0 11309700000.0 11309700000.0 11309700000.0 11309700000.0 11309700000.0 11309700000.0 11309700000.0 11309700000.0 11309700000.0 11309700000.0 11309700000.0 11309700000.0 11309700000.0 11309700000.0 11309700000.0 11309700000.0 11309700000.0 11309700000.0 11309700000.0 11309700000.0 11309700000.0 11309700000.0 11309700000.0 11309700000.0 11309700000.0 11309700000.0 11309700000.0 11309700000.0 11309700000.0 11309700000.0 11309700000.0 11309700000.0 11309700000.0 11309700000.0 11309700000.0 11309700000.0 11309700000.0 11309700000.0 11309700000.0 11309700000.0 11309700000.0 11309700000.0 11309700000.0 11309700000.0 11309700000.0 11309700000.0 11309700000.0 11309700000.0 11309700000.0 11309700000.0 11309700000.0 11309700000.0 11309700000.0 11309700000.0 11309700000.0 11309700000.0 11309700000.0 11309700000.0 11309700000.0 11309700000.0 11309700000.0 11309700000.0 11309700000.0 11309700000.0 11309700000.0 11309700000.0 11309700000.0 11309700000.0 11309700000.0 11309700000.0 11309700000.0 11309700000.0 11309700000.0 11309700000.0 11309700000.0 11309700000.0 11309700000.0 11309700000.0 11309700000.0 11309700000.0 11309700000.0 11309700000.0 11309700000.0 11309700000.0 11309700000.0 11309700000.0 11309700000.0 11309700000.0 11309700000.0 11309700000.0 11309700000.0 11309700000.0 11309700000.0 11309700000.0 11309700000.0 11309700000.0 11309700000.0 11309700000.0 11309700000.0 11309700000.0 11309700000.0 11309700000.0 11309700000.0 11309700000.0 11309700000.0 11309700000.0 11309700000.0 11309700000.0 11309700000.0 11309700000.0 11309700000.0 11309700000.0 11309700000.0 11309700000.0 11309700000.0 11309700000.0 11309700000.0 11309700000.0 11309700000.0 11309700000.0 11309700000.0 11309700000.0 11309700000.0 11309700000.0 11309700000.0 11309700000.0 11309700000.0 11309700000.0 11309700000.0 11309700000.0 11309700000.0 11309700000.0 11309700000.0 11309700000.0 11309700000.0 11309700000.0 11309700000.0 11309700000.0 11309700000.0 11309700000.0 11309700000.0 11309700000.0 11309700000.0 11309700000.0 11309700000.0 11309700000.0 11309700000.0 11309700000.0 11309700000.0 11309700000.0 11309700000.0 11309700000.0 11309700000.0 11309700000.0 11309700000.0 11309700000.0 11309700000.0 11309700000.0 11309700000.0 11309700000.0 11309700000.0 11309700000.0 11309700000.0 11309700000.0 11309700000.0 11309700000.0 11309700000.0 11309700000.0 11309700000.0 11309700000.0 11309700000.0 11309700000.0 11309700000.0 11309700000.0 11309700000.0 11309700000.0 11309700000.0 11309700000.0 11309700000.0 11309700000.0 11309700000.0 11309700000.0 11309700000.0 11309700000.0 11309700000.0 11309700000.0 11309700000.0 11309700000.0 11309700000.0 11309700000.0 11309700000.0 11309700000.0 11309700000.0 11309700000.0 11309700000.0 11309700000.0 11309700000.0 11309700000.0 11309700000.0 11309700000.0 11309700000.0 11309700000.0 11309700000.0 11309700000.0 11309700000.0 11309700000.0 11309700000.0 11309700000.0 11309700000.0 11309700000.0 11309700000.0 11309700000.0 11309700000.0 11309700000.0 11309700000.0 11309700000.0 11309700000.0 11309700000.0 11309700000.0 11309700000.0 11309700000.0 11309700000.0 11309700000.0 11309700000.0 11309700000.0 11309700000.0 11309700000.0 11309700000.0 11309700000.0 11309700000.0 11309700000.0 11309700000.0 11309700000.0 11309700000.0 11309700000.0 11309700000.0 11309700000.0 11309700000.0 11309700000.0 11309700000.0 11309700000.0 11309700000.0 11309700000.0 11309700000.0 11309700000.0 11309700000.0 11309700000.0 11309700000.0 11309700000.0 11309700000.0 11309700000.0 11309700000.0 11309700000.0 11309700000.0 11309700000.0 11309700000.0 11309700000.0 11309700000.0 11309700000.0 11309700000.0 11309700000.0 11309700000.0 11309700000.0 11309700000.0 11309700000.0 11309700000.0 11309700000.0 11309700000.0 11309700000.0 11309700000.0 11309700000.0 11309700000.0 11309700000.0 11309700000.0 11309700000.0 11309700000.0 11309700000.0 11309700000.0 11309700000.0 11309700000.0 11309700000.0 11309700000.0 11309700000.0 11309700000.0 11309700000.0 11309700000.0 11309700000.0 11309700000.0 11309700000.0 11309700000.0 11309700000.0 11309700000.0 11309700000.0 11309700000.0 11309700000.0 11309700000.0 11309700000.0 11309700000.0 11309700000.0 11309700000.0 11309700000.0 11309700000.0 11309700000.0 11309700000.0 11309700000.0 11309700000.0 11309700000.0 11309700000.0 11309700000.0 11309700000.0 11309700000.0 11309700000.0 11309700000.0 11309700000.0 11309700000.0 11309700000.0 11309700000.0 11309700000.0 11309700000.0 11309700000.0 11309700000.0 11309700000.0 11309700000.0 11309700000.0 11309700000.0 11309700000.0 11309700000.0 11309700000.0 11309700000.0 11309700000.0 11309700000.0 11309700000.0 11309700000.0 11309700000.0 11309700000.0 11309700000.0 11309700000.0 11309700000.0 11309700000.0 11309700000.0 11309700000.0 11309700000.0 11309700000.0 11309700000.0 11309700000.0 11309700000.0 11309700000.0 11309700000.0 11309700000.0 11309700000.0 11309700000.0 11309700000.0 11309700000.0 11309700000.0 11309700000.0 11309700000.0 11309700000.0 11309700000.0 11309700000.0 11309700000.0 11309700000.0 11309700000.0 11309700000.0 11309700000.0 11309700000.0 11309700000.0 11309700000.0 11309700000.0 11309700000.0 11309700000.0 11309700000.0 11309700000.0 11309700000.0 11309700000.0 11309700000.0 11309700000.0 11309700000.0 11309700000.0 11309700000.0 11309700000.0 11309700000.0 11309700000.0 11309700000.0 11309700000.0 11309700000.0 11309700000.0 11309700000.0 11309700000.0 11309700000.0 11309700000.0 11309700000.0 11309700000.0 11309700000.0 11309700000.0 11309700000.0 11309700000.0 11309700000.0 11309700000.0 11309700000.0 11309700000.0 11309700000.0 11309700000.0 11309700000.0 11309700000.0 11309700000.0 11309700000.0 11309700000.0 11309700000.0 11309700000.0 11309700000.0 11309700000.0 11309700000.0 11309700000.0 11309700000.0 11309700000.0 11309700000.0 11309700000.0 11309700000.0 11309700000.0 11309700000.0 11309700000.0 11309700000.0 11309700000.0 11309700000.0 11309700000.0 11309700000.0 11309700000.0 11309700000.0 11309700000.0 11309700000.0 11309700000.0 11309700000.0 11309700000.0 11309700000.0 11309700000.0 11309700000.0 11309700000.0 11309700000.0 11309700000.0 11309700000.0 11309700000.0 11309700000.0 11309700000.0 11309700000.0 11309700000.0 11309700000.0 11309700000.0 11309700000.0 11309700000.0 11309700000.0 11309700000.0 11309700000.0 11309700000.0 11309700000.0 11309700000.0 11309700000.0 11309700000.0 11309700000.0 11309700000.0 11309700000.0 11309700000.0 11309700000.0 11309700000.0 11309700000.0 11309700000.0 11309700000.0 11309700000.0 11309700000.0 11309700000.0 11309700000.0 11309700000.0 11309700000.0 11309700000.0 11309700000.0 11309700000.0 11309700000.0 11309700000.0 11309700000.0 11309700000.0 11309700000.0 11309700000.0 11309700000.0 11309700000.0 11309700000.0 11309700000.0 11309700000.0 11309700000.0 11309700000.0 11309700000.0 11309700000.0 11309700000.0 11309700000.0 11309700000.0 11309700000.0 11309700000.0 11309700000.0 11309700000.0 11309700000.0 11309700000.0 11309700000.0 11309700000.0 11309700000.0 11309700000.0 11309700000.0 11309700000.0 11309700000.0 11309700000.0 11309700000.0 11309700000.0 11309700000.0 
SCALARS Velocity float 1
LOOKUP_TABLE default
1.00643 1.00152 0.893832 0.953624 1.06229 1.11603 1.06924 1.12507 1.18262 1.18116 1.16775 1.14312 1.11624 1.02502 1.10989 1.05856 0.949068 0.893832 0.897951 1.01479 1.10743 1.16212 1.12175 1.14765 1.21151 1.15003 1.1205 1.15676 1.12092 1.09192 1.15547 1.10253 1.01106 0.897148 0.908186 1.0588 1.15577 0.997823 1.16246 1.23692 1.18196 1.11047 1.13699 1.16778 1.1313 1.01734 1.14812 1.05495 0.90693 0.990406 1.01667 1.0579 1.10355 1.02085 1.03585 1.26274 1.20939 1.14754 1.10456 1.10332 1.14431 1.18702 1.05931 1.03941 1.09693 1.05357 1.01226 0.993038 1.08263 1.01616 1.10282 1.14684 1.04131 1.30609 1.2363 1.21117 1.18089 1.14406 1.09192 1.11383 1.12385 1.15788 1.21409 1.06387 1.13687 1.09349 1.01075 1.08678 1.09594 1.06221 1.13591 1.04171 1.32981 1.27372 1.24133 1.18775 1.11014 1.09069 1.14315 1.18397 1.2158 1.05862 1.12308 1.05407 1.10024 1.08348 1.15631 1.10337 1.09502 1.0353 1.27597 1.22323 1.15442 1.12041 1.07617 1.1039 1.17245 1.06098 1.09567 1.09079 1.14382 1.08718 1.08461 1.09774 1.16002 1.10519 1.08519 1.0871 1.25556 1.24686 1.20834 1.1678 1.05141 1.06608 1.09427 1.13458 1.09658 1.08651 1.10645 1.14212 1.10117 1.08773 1.1065 1.15415 1.16235 1.09544 1.10995 1.09902 1.0838 1.09301 1.24786 1.0393 1.0558 1.09692 1.096 1.09368 1.09556 1.09515 1.15999 1.12989 1.10773 1.07333 1.19304 1.11565 1.10658 1.09804 1.10611 1.10464 1.10684 1.0826 1.06245 1.04217 1.11004 1.08923 1.09506 1.09218 1.10183 1.11355 1.18527 1.07596 0.895534 1.12686 1.15967 1.07601 1.15598 1.12357 1.10196 1.10735 1.12432 1.14649 0.93885 1.16983 1.07516 1.07913 1.09354 1.09777 1.11666 1.15029 1.0898 1.17085 1.12245 0.894928 0.365982 0.307126 1.1941 1.14424 1.02568 1.12223 1.10389 1.1105 1.12041 1.15067 0.918008 0.891804 1.29494 1.14948 1.0653 1.08255 1.09574 1.09827 1.11547 1.0382 1.15113 1.19253 0.304481 0.366647 0.345545 0.315208 1.42898 1.05748 1.04127 1.05317 1.09839 1.10179 1.12381 1.19814 1.24096 1.23779 1.09685 1.03531 1.07865 1.10264 1.10035 1.06618 1.05262 1.06674 1.44605 0.317283 0.336593 0.396104 0.423295 0.338842 0.307784 1.35332 1.16132 0.988034 1.00094 1.03818 1.05305 1.08848 1.09798 1.17838 1.26087 1.179 0.946527 1.04988 1.08725 1.09497 1.06358 1.04799 1.01093 0.999067 1.17495 1.36804 0.294044 0.332947 0.404696 0.38608 0.388491 0.476522 0.497773 0.81189 1.05811 1.00856 1.04464 1.06737 1.08396 1.08853 1.07973 1.10878 1.215 1.45653 1.00513 0.972729 1.05367 1.06814 1.09338 1.08588 1.07542 1.05447 1.0185 1.0701 0.807393 0.487062 0.485228 0.37617 0.763498 0.505448 0.491959 0.631859 0.848179 1.12119 1.04195 1.02718 1.05658 1.06647 1.08767 1.09126 1.34695 1.47055 1.38235 1.12797 0.981922 0.926751 1.01015 1.07595 1.07013 1.065 1.03642 1.05211 1.13026 0.851213 0.628765 0.481112 0.494334 0.76305 0.0526265 0.748498 0.920049 0.713096 0.961152 0.962126 1.07378 1.02839 1.03286 1.04341 1.04712 1.07943 1.09631 1.06632 1.08733 1.33777 1.12959 0.936221 0.961122 1.04516 1.07196 1.05292 1.05234 1.04137 1.0375 1.08156 0.969613 0.963871 0.713215 0.908905 0.762135 0.136557 0.280949 0.189521 0.48384 0.655318 1.16278 0.924261 0.933477 1.00214 1.0437 1.02599 1.02963 1.05241 1.07111 1.08945 1.09141 1.09677 1.07714 1.00138 0.881143 1.00989 0.966999 0.9999 1.02622 1.05877 1.05561 1.05139 1.03595 1.03369 1.05083 1.01068 0.941272 0.919119 1.18156 0.653688 0.444672 0.210459 0.331036 0.525771 0.431861 0.334944 0.134251 0.366585 0.939697 1.09504 0.930185 0.935424 1.05512 1.02239 0.99999 1.01533 0.999528 1.0227 1.02519 1.07777 1.07582 1.0226 0.888112 0.860221 0.934968 0.993907 1.03975 1.01954 1.02531 1.00292 1.02164 1.00516 1.02824 1.06139 0.93813 0.941084 1.22396 0.907475 0.325373 0.111095 0.346352 0.452884 0.532914 0.583138 0.450252 0.376479 0.250959 0.310123 0.954382 0.789781 0.834737 1.00048 0.97568 0.978237 0.985394 1.05858 1.06136 1.027 0.942881 0.88257 0.790378 0.958652 1.00439 1.04219 0.984036 0.9817 0.979975 1.00526 0.847695 0.785605 0.940062 0.29159 0.248252 0.381908 0.458544 0.586136 0.627254 0.537955 0.483782 0.369856 0.490774 0.622814 0.863545 1.06764 0.879583 0.889654 0.871975 0.929492 0.915064 0.950759 0.931399 0.960247 0.947076 0.98246 1.05542 1.05037 1.00169 1.0198 0.954624 0.9618 0.899409 0.872492 0.824185 0.798597 0.805328 0.862652 0.893006 0.954466 0.951165 1.01428 1.04256 0.974364 0.942013 0.960797 0.932573 0.953626 0.917649 0.934156 0.870508 0.887726 0.879255 1.07694 0.841942 0.594736 0.475437 0.363365 0.48893 0.54175 0.629821 0.66113 0.638291 0.60409 0.563038 0.527119 0.443186 0.46768 0.648765 0.966136 0.882036 0.872416 0.843105 0.86771 0.896767 0.917612 0.942118 0.989218 0.932856 0.909418 0.839089 0.797983 0.849346 0.891974 0.948406 0.932992 0.915968 0.898508 0.869322 0.841359 0.872777 0.879823 0.964554 0.634246 0.463745 0.444309 0.528715 0.565456 0.606107 0.640401 0.663135 0.680007 0.681263 0.663077 0.6249 0.592711 0.503197 0.543386 0.706524 0.841202 0.917644 0.864874 0.830264 0.857719 0.852629 0.882755 0.9044 0.844699 0.916652 0.906668 0.863197 0.810589 0.81797 0.864856 0.886194 0.839598 0.900225 0.883428 0.854679 0.860048 0.835359 0.866993 0.918312 0.83337 0.698803 0.539818 0.502679 0.593513 0.626389 0.664393 0.682724 0.681415 0.633509 0.671305 0.64165 0.655141 0.642413 0.566005 0.578925 0.509341 0.596459 0.852068 0.880909 0.827565 0.800238 0.827008 0.825021 0.838314 0.867359 0.833905 0.790679 0.786855 0.854706 0.899228 0.874977 0.874492 0.844795 0.82933 0.813978 0.808703 0.819234 0.837742 0.843707 0.866453 0.826856 0.760501 0.778575 0.830692 0.866686 0.839408 0.826962 0.829389 0.803629 0.830694 0.88677 0.847934 0.593495 0.508445 0.577429 0.565654 0.643285 0.656384 0.642552 0.672318 0.634402 0.627437 0.652799 0.652913 0.642736 0.61691 0.608471 0.61622 0.597307 0.64611 0.760838 0.894463 0.909912 0.875621 0.848925 0.792286 0.789762 0.823146 0.798703 0.812772 0.784959 0.782218 0.851762 0.850509 0.824865 0.813598 0.825266 0.824842 0.759951 0.779268 0.812589 0.799558 0.824149 0.788877 0.792968 0.851549 0.878033 0.911482 0.891338 0.756546 0.646181 0.595309 0.614904 0.608252 0.617251 0.643844 0.653922 0.653917 0.628282 0.622635 0.615374 0.627943 0.611018 0.631186 0.621574 0.570197 0.485295 0.68636 0.676406 0.857948 0.909186 0.81028 0.756584 0.763831 0.810094 0.804955 0.771685 0.765606 0.811575 0.840505 0.832445 0.816027 0.815125 0.816011 0.787286 0.752433 0.770656 0.805998 0.810825 0.757699 0.756319 0.808453 0.90649 0.855152 0.677404 0.688188 0.492407 0.571399 0.622959 0.632609 0.61223 0.629271 0.616028 0.622949 0.61789 0.62139 0.623178 0.579932 0.594756 0.586639 0.566717 0.588657 0.493541 0.518287 0.763724 0.708607 1.12022 0.96846 0.834721 0.758553 0.742438 0.707693 0.83035 0.756015 0.734069 0.755927 0.752855 0.765279 0.777635 0.81398 0.811918 0.828311 0.819623 0.821269 0.813916 0.81291 0.807738 0.809808 0.793657 0.792019 0.75973 0.746941 0.741372 0.749347 0.735018 0.756962 0.827546 0.708783 0.742159 0.755881 0.831809 0.964341 1.11774 0.708957 0.765636 0.519344 0.494527 0.590336 0.567906 0.587706 0.595198 0.580209 0.623794 0.621742 0.617988 0.54616 0.59779 0.602955 0.566498 0.520754 0.564348 0.574015 0.517036 0.401857 0.480681 1.35862 0.957179 0.850504 0.760037 0.713839 0.778695 0.885886 0.778676 0.667585 0.753192 0.749085 0.784983 0.810997 0.814545 0.808752 0.796319 0.768104 0.73573 0.744696 0.668591 0.782347 0.889165 0.763458 0.713296 0.756994 0.846047 0.952636 1.36061 0.477626 0.407273 0.518376 0.574421 0.564621 0.521123 0.566845 0.603118 0.597301 0.545809 0.429279 0.575077 0.552406 0.517404 0.559904 0.563598 0.520851 0.478394 0.379494 0.264187 0.426183 1.00194 1.20759 0.631185 0.687232 0.736191 0.74834 0.832244 0.653666 0.73503 0.753912 0.754776 0.790214 0.809818 0.810294 0.799949 0.776772 0.740137 0.741174 0.748019 0.653601 0.829739 0.746054 0.735289 0.681372 0.627832 1.20376 1.00289 0.432432 0.256917 0.381078 0.48083 0.521513 0.564262 0.559989 0.516569 0.552631 0.575233 0.428881 0.353547 0.48748 0.517778 0.56308 0.554994 0.498885 0.555482 0.533171 0.545334 0.480684 0.260091 0.464124 0.550897 0.89098 0.490388 0.729809 0.767412 0.715833 0.788731 0.617451 0.630565 0.801991 0.778858 0.75627 0.741407 0.733142 0.762692 0.777207 0.795909 0.799794 0.807297 0.804259 0.803554 0.793166 0.78609 0.767182 0.750537 0.724504 0.723524 0.725556 0.76465 0.835339 0.631412 0.569609 0.793007 0.71471 0.771691 0.728481 0.515309 0.882513 0.562189 0.472542 0.260584 0.488466 0.545967 0.533438 0.555162 0.499193 0.555071 0.563549 0.518604 0.487965 0.353691 0.25495 0.325677 0.450581 0.571849 0.566795 0.529731 0.521273 0.579617 0.463715 0.51378 0.351554 0.36652 0.316037 0.252082 0.476471 0.953103 0.738191 0.520957 0.897174 0.561469 0.702143 0.681102 0.246704 0.590117 0.767012 0.712373 0.750885 0.786334 0.801449 0.797813 0.778829 0.743452 0.710323 0.763127 0.580705 0.279848 0.681716 0.714831 0.558702 0.907263 0.513045 0.723569 0.958383 0.477386 0.245743 0.315233 0.379957 0.352207 0.513948 0.462967 0.578723 0.522408 0.528782 0.566853 0.573113 0.452511 0.329218 0.255556 0.229876 0.246279 0.272221 0.365746 0.517436 0.5567 0.511082 0.464953 0.23487 0.416533 0.400442 0.405845 0.353586 0.441126 0.387934 0.861185 0.962185 0.605701 0.151494 0.580008 0.534248 0.725214 0.810158 0.703544 0.722074 0.765539 0.791875 0.79903 0.786961 0.760771 0.718282 0.710442 0.793715 0.74536 0.532323 0.579492 0.131745 0.639014 0.968004 0.870076 0.389174 0.445477 0.354377 0.408836 0.401258 0.415071 0.237566 0.464869 0.510774 0.55678 0.518689 0.367158 0.270845 0.247654 0.23028 0.102328 0.153813 0.172593 0.377411 0.392175 0.456717 0.57624 0.495345 0.448471 0.349675 0.301143 0.440911 0.455315 0.427035 0.462309 0.839267 0.556131 0.934786 0.738711 0.851688 0.543 0.274671 0.594199 0.711583 0.67074 0.768133 0.699659 0.705445 0.72945 0.743969 0.76111 0.777378 0.786401 0.794823 0.793602 0.792154 0.782244 0.772995 0.756709 0.740388 0.727374 0.707016 0.699333 0.741075 0.701621 0.742748 0.599215 0.260547 0.549536 0.867105 0.75032 0.946044 0.517578 0.850432 0.444988 0.424428 0.456189 0.442 0.303541 0.351914 0.447795 0.49533 0.576533 0.449039 0.395168 0.37591 0.173825 0.153216 0.101185 0.0451927 0.172522 0.319619 0.417997 0.730646 0.550649 0.404873 0.423544 0.350224 0.353248 0.398865 0.431646 0.459565 0.383661 0.730839 0.544071 0.806524 0.402151 0.597036 0.467005 0.602876 1.06428 0.659292 0.717344 0.744218 0.774597 0.790561 0.788191 0.769765 0.742542 0.715748 0.656213 1.04708 0.599579 0.469435 0.606206 0.395803 0.769592 0.538865 0.734981 0.389709 0.460117 0.433623 0.400535 0.354599 0.3516 0.424274 0.405631 0.550443 0.72079 0.417469 0.320713 0.173127 0.0444285 0.0216223 0.165023 0.18074 0.223575 0.428349 0.473602 0.606827 0.44126 0.397256 0.38991 0.348532 0.409538 0.449877 0.443282 0.487917 0.782731 0.633682 0.858786 0.770813 0.580415 0.503275 0.501035 0.553759 0.574699 0.538755 0.677788 0.71977 0.733521 0.759021 0.783059 0.789415 0.779154 0.756275 0.73459 0.719201 0.677804 0.556638 0.581204 0.552186 0.504758 0.503334 0.586407 0.777178 0.835677 0.618711 0.781269 0.489255 0.445591 0.450865 0.410114 0.349857 0.390068 0.398589 0.439735 0.608163 0.471392 0.425341 0.22186 0.179731 0.163925 0.0215652 0.0196587 0.027276 0.0860625 0.179363 0.263253 0.700617 0.747849 1.01665 0.738118 0.504854 0.446645 0.377254 0.397618 0.464898 0.469637 0.484858 0.492059 0.302344 0.746092 0.720992 0.604304 0.493717 0.541813 0.556093 0.553609 0.567671 0.666106 0.731789 0.722584 0.733543 0.746762 0.758614 0.771336 0.779279 0.786225 0.784717 0.784019 0.774605 0.767209 0.757937 0.7489 0.741565 0.72823 0.734572 0.677315 0.56925 0.559208 0.558942 0.541905 0.488247 0.604739 0.72732 0.744679 0.304158 0.491854 0.487583 0.470458 0.465938 0.398472 0.378357 0.446728 0.505658 0.737012 1.02233 0.74041 0.696185 0.261711 0.1788 0.0848376 0.0268613 0.0194201 0.0295698 0.0105 0.0579494 0.15771 0.192209 0.286145 0.458455 0.265282 0.999185 0.395312 0.611682 0.521189 0.4992 0.456073 0.426977 0.469808 0.516651 0.44375 0.522782 0.639503 0.839033 0.685899 0.656159 0.615046 0.551302 0.520245 0.501682 0.553859 0.563636 0.558153 0.657487 0.719856 0.74873 0.768897 0.781998 0.778404 0.763786 0.754238 0.727643 0.672549 0.56467 0.566163 0.556725 0.501634 0.518245 0.548781 0.615911 0.658517 0.679801 0.836843 0.638135 0.524215 0.44419 0.51681 0.470965 0.428135 0.456891 0.499605 0.521478 0.608363 0.395829 0.997093 0.26366 0.455898 0.284499 0.191251 0.156953 0.0582502 0.0109176 0.0300483 0.441201 0.166398 0.113926 0.217938 0.242661 0.29478 0.340759 0.201303 0.59338 0.339594 0.421183 0.495413 0.488584 0.467443 0.469671 0.514413 0.521409 0.490693 0.56172 0.855252 0.697948 0.672164 0.57993 0.547934 0.526234 0.531391 0.546384 0.601636 0.666843 0.744195 0.75891 0.775667 0.779346 0.768099 0.75767 0.758449 0.697545 0.613487 0.548631 0.531471 0.525448 0.546333 0.579127 0.672641 0.695157 0.853864 0.562293 0.492198 0.52077 0.514998 0.47071 0.468494 0.489385 0.49655 0.426791 0.340757 0.586336 0.196702 0.339647 0.293884 0.241626 0.217113 0.113331 0.166041 0.440769 0.459374 0.999167 0.950416 0.262686 0.285647 0.243212 0.372741 0.187346 0.202964 0.402429 0.429182 0.491582 0.484103 0.69293 0.759218 0.676741 0.638626 0.610649 0.549255 0.542203 0.543004 0.551496 0.559161 0.565387 0.713055 0.751867 0.753895 0.757845 0.766323 0.771329 0.777354 0.774109 0.77184 0.760405 0.758074 0.750401 0.760692 0.77745 0.724327 0.571866 0.562431 0.554681 0.545114 0.542235 0.548293 0.610127 0.638329 0.67636 0.757696 0.692375 0.485241 0.494232 0.431711 0.403523 0.209512 0.188409 0.371538 0.242044 0.284966 0.262442 0.949747 0.99854 0.458964 0.497065 0.446268 0.902253 0.933087 0.271452 0.0352127 0.21797 0.313608 0.288667 0.488664 0.49101 0.498307 0.479221 0.474113 0.485835 0.516111 0.514928 0.583765 0.666947 0.744576 0.739902 0.675872 0.630914 0.597277 0.571217 0.55178 0.552113 0.557723 0.563995 0.583294 0.606066 0.674553 0.751585 0.76161 0.772674 0.765555 0.747954 0.754175 0.697768 0.617543 0.592876 0.570798 0.562336 0.555132 0.553503 0.570156 0.596241 0.62979 0.675083 0.738506 0.742617 0.667253 0.582491 0.515504 0.516573 0.486494 0.474953 0.480552 0.499593 0.491995 0.488315 0.289459 0.313535 0.218039 0.0349859 0.270507 0.932359 0.901697 0.445858 0.496565 0.59497 0.555137 0.476113 0.528004 0.850292 0.808262 0.905392 0.649741 0.100937 0.208403 0.384017 0.355853 0.532346 0.492398 0.471734 0.4793 0.48147 0.491754 0.500332 0.572691 0.71285 0.658964 0.621328 0.592782 0.571915 0.55915 0.560897 0.563896 0.574337 0.592895 0.63358 0.6714 0.76611 0.754521 0.767297 0.769448 0.751557 0.734353 0.809933 0.702452 0.651167 0.603962 0.583166 0.570481 0.564721 0.558939 0.571057 0.591762 0.620457 0.657976 0.712075 0.574414 0.500869 0.492249 0.481939 0.480351 0.473031 0.493929 0.532634 0.356756 0.383774 0.208932 0.100246 0.648729 0.904855 0.808321 0.849774 0.527679 0.47567 0.555251 0.595496 0.485933 0.86377 0.801707 0.74288 0.565579 0.2681 0.401005 0.404694 0.371335 0.478204 0.529415 0.493581 0.46962 0.474476 0.482823 0.492065 0.506765 0.535772 0.618361 0.717807 0.758015 0.644183 0.615966 0.59489 0.578798 0.568203 0.561683 0.574601 0.587038 0.611488 0.652834 0.737617 0.834013 0.75216 0.761686 0.766169 0.769593 0.765504 0.759722 0.744101 0.734928 0.707511 0.912349 0.779593 0.676086 0.628351 0.598193 0.583486 0.564004 0.568784 0.578771 0.594253 0.61508 0.643184 0.756625 0.71731 0.619016 0.536633 0.507084 0.492639 0.483527 0.475654 0.471032 0.494823 0.529986 0.478777 0.372173 0.404967 0.402173 0.267955 0.564807 0.742137 0.801347 0.863354 0.48613 0.455393 0.452774 0.374437 0.738182 0.718605 0.219053 0.494637 0.492673 0.540755 0.532621 0.466946 0.465353 0.480188 0.493951 0.512399 0.544892 0.596463 0.6739 0.715021 0.718376 0.68198 0.616408 0.600023 0.5874 0.577403 0.570772 0.568123 0.767295 0.769598 0.750947 0.720873 0.574114 0.573761 0.577693 0.587178 0.599611 0.615363 0.681194 0.718201 0.715184 0.673408 0.596435 0.544531 0.512782 0.494809 0.481213 0.466731 0.468288 0.532912 0.540829 0.492971 0.494442 0.218905 0.718531 0.737756 0.374164 0.453134 0.455428 0.422866 0.329506 0.379616 0.488451 0.701067 0.655571 0.33682 0.839903 0.434212 0.49231 0.513192 0.549272 0.538837 0.458698 0.475659 0.603326 0.662729 0.698324 0.702921 0.690007 0.663832 0.637462 0.606658 0.596561 0.586241 0.580558 0.57796 0.585673 0.606069 0.636605 0.713205 0.825954 0.767034 0.764299 0.763154 0.731536 0.859909 0.902399 0.742058 0.661375 0.622376 0.600938 0.590375 0.586488 0.588168 0.596048 0.606062 0.636311 0.663208 0.689769 0.703133 0.697901 0.662296 0.602847 0.47686 0.460174 0.538475 0.549386 0.512933 0.492921 0.435691 0.84045 0.334396 0.655374 0.700895 0.48915 0.379849 0.32988 0.42299 0.558462 0.539879 0.606821 0.778427 0.482656 0.52096 0.534789 0.546998 0.569762 0.57138 0.49464 0.515385 0.54135 0.60644 0.663848 0.703835 0.709336 0.688337 0.674678 0.656277 0.636665 0.619765 0.597374 0.588794 0.584257 0.596433 0.626962 0.639466 0.698853 0.867284 0.542533 0.762649 0.782902 0.771899 0.751918 0.744228 0.728431 0.701571 0.588692 1.01997 0.759147 0.697793 0.651069 0.618442 0.603611 0.598579 0.600764 0.618648 0.634963 0.654958 0.674095 0.688541 0.709079 0.70356 0.663351 0.606277 0.541809 0.516104 0.495546 0.570422 0.569154 0.546747 0.534937 0.521388 0.484065 0.779079 0.60679 0.54039 0.558703 0.564335 0.550264 0.684731 0.737085 0.517661 0.468499 0.520294 0.552767 0.465192 0.490518 0.519056 0.550041 0.689298 0.679925 0.668816 0.654244 0.639263 0.626449 0.616776 0.607866 0.587203 0.588683 0.618 0.646844 0.654255 0.828134 0.597174 0.77323 0.75491 0.742123 0.687357 0.961735 0.704797 0.71151 0.636184 0.612441 0.605359 0.606661 0.614718 0.625193 0.637555 0.652625 0.667626 0.679142 0.688649 0.550913 0.519821 0.491542 0.466458 0.552894 0.52161 0.468472 0.518447 0.737727 0.685411 0.550763 0.564419 0.561002 0.582021 0.643377 0.827808 0.66825 0.546657 0.544211 0.556692 0.578501 0.58826 0.605225 0.481269 0.516993 0.557202 0.574426 0.661398 0.713347 0.716622 0.668565 0.656738 0.645055 0.636781 0.629352 0.618099 0.603569 0.755204 0.750665 0.716349 0.655325 0.609129 0.616509 0.624184 0.631652 0.641677 0.654148 0.666733 0.717806 0.71296 0.660854 0.575078 0.557902 0.517959 0.482485 0.603228 0.587164 0.577666 0.557526 0.544405 0.547399 0.668473 0.827816 0.643719 0.58248 0.561255 0.497099 0.476252 0.549365 0.528702 0.668626 0.897186 0.564585 0.598331 0.60851 0.630601 0.505227 0.555734 0.57542 0.620453 0.730345 0.721579 0.689062 0.686553 0.678241 0.65347 0.647565 0.638541 0.622301 0.600183 0.576688 0.588554 0.653982 0.634327 0.846648 0.780975 0.54779 0.745416 0.811676 0.763682 0.743505 0.737217 0.71557 0.657609 0.672468 0.804784 0.721716 0.688141 0.63485 0.623108 0.608829 0.613655 0.62518 0.634825 0.639857 0.646277 0.677361 0.684976 0.689159 0.722277 0.730952 0.620064 0.57659 0.556801 0.506438 0.628206 0.606652 0.596898 0.566175 0.897235 0.669071 0.529225 0.549402 0.476535 0.497168 0.43404 0.631785 0.610292 0.90524 0.569482 0.550666 0.568401 0.615705 0.624855 0.647253 0.594586 0.629387 0.705852 0.733514 0.69016 0.69071 0.687275 0.679383 0.670173 0.661682 0.642231 0.628477 0.601213 0.573625 0.67939 0.620743 0.831232 0.814701 0.602382 0.896959 0.731053 0.733143 0.875271 0.665614 0.788148 0.745388 0.666816 0.659474 0.60495 0.618286 0.634919 0.645348 0.655228 0.666162 0.677078 0.686007 0.691202 0.689229 0.734498 0.706626 0.628644 0.595358 0.644712 0.622792 0.613811 0.568789 0.55193 0.568826 0.905522 0.610374 0.632006 0.434347 0.405492 0.720916 0.690731 0.557825 0.573651 0.58903 0.565166 0.558009 0.609134 0.648994 0.724996 0.683074 0.701516 0.694062 0.694501 0.688771 0.681407 0.674115 0.668692 0.66198 0.652408 0.563425 0.6731 0.845598 0.732097 0.739914 0.725784 0.691897 0.648143 0.653695 0.658835 0.66563 0.676288 0.687485 0.694646 0.693838 0.701125 0.684192 0.726105 0.647871 0.609878 0.558284 0.56574 0.589396 0.574551 0.557817 0.690382 0.720198 0.40561 0.851518 0.817934 0.716729 0.752547 0.855514 0.575694 0.615785 0.577481 0.574102 0.628047 0.636391 0.663147 0.694084 0.685088 0.679102 0.673783 0.664591 0.655348 0.656588 0.62561 0.787511 0.873692 0.703024 0.848441 0.693769 0.726832 0.741605 0.729368 0.73639 0.868916 0.655384 0.824088 0.797992 0.719208 0.600143 0.638304 0.656652 0.658844 0.65987 0.664227 0.666914 0.677591 0.691385 0.660281 0.634506 0.626651 0.575044 0.577879 0.615911 0.576269 0.85598 0.753015 0.716822 0.817826 0.851401 0.728264 0.768012 0.629678 0.699697 0.662462 0.635089 0.642692 0.606127 0.636004 0.670322 0.730386 0.744308 0.737519 0.707524 0.702202 0.698862 0.677883 0.677473 0.663264 0.668476 0.661328 0.592072 0.859332 0.742445 0.949329 0.760927 0.646016 0.744817 0.777854 0.741375 0.735604 0.683015 0.690773 0.682212 0.725175 0.86105 0.767912 0.8203 0.60954 0.669875 0.664382 0.674232 0.6717 0.66671 0.698401 0.7019 0.707531 0.73532 0.743416 0.729244 0.667719 0.634273 0.604815 0.640721 0.634459 0.663233 0.699875 0.630128 0.768217 0.728131 0.791602 0.657362 0.604036 0.591211 0.578787 0.632681 0.663642 0.645077 0.668353 0.707727 0.742546 0.749408 0.733745 0.715836 0.711045 0.706068 0.699014 0.690112 0.681009 0.650487 0.800133 0.527246 0.751759 0.609663 0.785253 0.630174 0.671581 0.679569 0.695283 0.706684 0.710441 0.716751 0.732465 0.747367 0.741108 0.706424 0.666251 0.644114 0.665983 0.630792 0.578605 0.592033 0.603959 0.657846 0.791344 0.684103 0.76077 0.627613 0.672729 0.678301 0.672274 0.651814 0.61723 0.600474 0.576347 0.695087 0.674734 0.682762 0.704443 0.731362 0.754966 0.744769 0.734355 0.719252 0.717922 0.716685 0.704604 0.687727 0.678966 0.693016 0.671027 0.738297 0.906104 0.894957 0.697841 0.700983 0.836003 0.748675 0.755016 0.751856 0.680105 0.670611 0.716961 0.844665 0.967953 0.729863 0.67686 0.687864 0.668057 0.674296 0.703628 0.711546 0.723304 0.720743 0.732284 0.743553 0.752241 0.729946 0.702922 0.681835 0.673667 0.699455 0.573122 0.601539 0.617397 0.65204 0.672737 0.678655 0.673055 0.627884 0.760986 0.683777 0.79127 0.792108 0.72 0.712558 0.670487 0.686214 0.680934 0.659093 0.624729 0.597173 0.696697 0.725881 0.727015 0.728557 0.715557 0.685194 0.682185 0.708894 0.684241 0.657902 0.711198 0.914631 0.842748 0.956874 0.62159 0.804184 0.684313 0.85525 0.781293 0.737846 0.747865 0.684212 0.770378 0.690545 0.932008 0.854821 0.864141 0.694015 0.641809 0.683641 0.707234 0.658446 0.67716 0.684532 0.725486 0.727615 0.731641 0.686967 0.597194 0.625016 0.659449 0.681106 0.686645 0.671069 0.712948 0.72021 0.792333 0.790917 0.773176 0.702452 0.704314 0.691505 0.68824 0.704185 0.71826 0.73138 0.748929 0.75001 0.745328 0.734572 0.715131 0.739452 0.806074 0.813419 0.733044 0.74772 0.816572 0.775174 0.693762 0.733396 0.833849 0.767919 0.731352 0.700079 0.732479 0.743302 0.748195 0.746359 0.729194 0.717497 0.703778 0.687933 0.692168 0.70468 0.702804 0.773341 0.845635 0.716251 0.690682 0.661146 0.613821 0.750395 0.671518 0.712407 0.734488 0.742582 0.752421 0.736564 0.752969 0.744125 0.74206 0.737595 0.743759 0.738129 0.740088 0.731283 0.771861 0.90229 0.864858 0.781287 0.83506 0.795661 0.786031 0.615434 0.794458 0.857552 0.922075 0.963959 0.90498 0.759593 0.717955 0.724601 0.748054 0.74696 0.740224 0.741287 0.743652 0.751675 0.73505 0.747701 0.742167 0.734319 0.713222 0.675321 0.751971 0.613763 0.661671 0.690974 0.716557 0.845492 0.838556 0.781934 0.708276 0.712431 0.755312 0.754123 0.707484 0.677794 0.577112 0.839462 0.745924 0.837082 0.756656 0.754714 0.761421 0.736345 0.742236 0.748186 0.751036 0.754673 0.755846 0.776116 0.744953 0.73806 0.724855 0.875911 0.756891 0.853288 0.864819 0.834604 0.834961 0.812228 0.826978 0.85036 0.810252 0.857053 0.864477 0.673706 0.840985 0.756144 0.802434 0.813564 0.749468 0.878445 0.772299 0.869344 0.821769 0.747918 0.861786 0.712166 0.720165 0.730829 0.767232 0.751903 0.756682 0.75103 0.750581 0.739896 0.733402 0.757666 0.755064 0.757412 0.837528 0.74339 0.85184 0.576488 0.678777 0.708249 0.754629 0.754399 0.712692 0.708574 0.781823 0.838706 0.829459 0.861153 0.759313 0.765038 0.756814 0.795982 0.891293 0.868802 0.867255 0.841889 0.890099 0.841861 0.773733 0.846277 0.915863 0.899181 0.797209 0.750549 0.755421 0.759868 0.86292 0.830067 0.893729 0.867418 0.747855 0.703292 0.675665 0.675235 0.950917 0.736827 0.755274 0.775175 0.77248 0.789548 0.78992 0.784706 0.79446 0.804079 0.799659 0.79935 0.840792 0.769432 0.836315 0.843915 0.859932 0.848174 0.885023 0.881624 0.839988 0.686107 0.851612 0.823604 0.784497 0.808329 0.809362 0.807106 0.758041 0.829079 0.800077 0.794777 0.80136 0.798048 0.782681 0.789785 0.792623 0.770136 0.775866 0.755106 0.738816 0.950652 0.675468 0.676519 0.704294 0.748128 0.867596 0.893734 0.901936 0.906502 0.895155 0.921349 0.846506 0.803798 0.763261 0.731723 0.85192 0.894794 0.897327 0.894579 0.831325 0.798076 0.794467 0.792879 0.787947 0.793159 0.800911 0.801572 0.801616 0.809099 0.812698 0.858203 0.836477 0.884252 0.918615 0.876342 0.922124 0.873931 0.92366 0.854568 0.923357 0.878497 0.835587 0.864549 0.876266 0.83221 0.717085 0.860789 0.796841 0.850981 0.93148 0.826497 0.922836 0.854962 0.912124 0.864616 0.903589 0.874671 0.846341 0.844125 0.804354 0.804657 0.797556 0.795194 0.799276 0.793368 0.785403 0.793397 0.800431 0.796995 0.830643 0.894802 0.897425 0.894837 0.852183 0.732214 0.763361 0.803639 0.846791 0.921283 0.895261 0.906439 0.90192 0.880524 0.90035 0.896381 0.897031 0.894094 0.866578 0.854391 0.840979 0.810261 0.921595 0.905963 0.897601 0.897409 0.868058 0.851274 0.849888 0.838779 0.833924 0.829698 0.830179 0.828546 0.824998 0.842748 0.890655 0.874607 0.848539 0.889779 0.923817 0.878446 0.92337 0.868056 0.924755 0.858933 0.925829 0.884841 0.846873 0.864069 0.86138 0.75789 0.875732 0.846605 0.878514 0.906105 0.852119 0.903289 0.874966 0.903203 0.882831 0.91152 0.894381 0.901733 0.878424 0.889551 0.849762 0.831374 0.833323 0.835138 0.832046 0.836535 0.843231 0.850297 0.850148 0.867928 0.897515 0.897645 0.906085 0.921324 0.809857 0.840732 0.854172 0.866459 0.894086 0.896942 0.896386 0.900427 0.900448 0.89679 0.891534 0.894757 0.889158 0.861382 0.848687 0.814558 0.916247 0.897139 0.89683 0.903493 0.882324 0.869634 0.871506 0.868396 0.863592 0.859266 0.859927 0.857346 0.855783 0.859985 0.90591 0.877492 0.896284 0.888895 0.897229 0.879626 0.898418 0.866755 0.899869 0.866112 0.900923 0.892132 0.861913 0.885664 0.903516 0.883836 0.789045 0.885354 0.865546 0.892574 0.920226 0.866831 0.914682 0.884019 0.910455 0.889657 0.903525 0.897728 0.898538 0.888599 0.907755 0.867878 0.862493 0.862936 0.865639 0.862493 0.867212 0.873211 0.871853 0.868684 0.882052 0.903566 0.896838 0.897146 0.916302 0.814218 0.84832 0.861215 0.88826 0.894761 0.891414 0.896791 0.90051 0.899771 0.896649 0.887873 0.894723 0.897482 0.867911 0.853804 0.817454 0.90782 0.897274 0.896876 0.902694 0.886826 0.875371 0.875037 0.873273 0.867669 0.862993 0.863695 0.862193 0.859496 0.871853 0.902261 0.878779 0.896432 0.887777 0.897494 0.880814 0.898956 0.867686 0.90116 0.872396 0.903511 0.895036 0.869754 0.89346 0.917347 0.899246 0.851394 0.905661 0.869679 0.894223 0.89789 0.872289 0.896549 0.885 0.895528 0.88966 0.894941 0.895067 0.894831 0.890534 0.903345 0.877458 0.865409 0.867115 0.867961 0.866387 0.870827 0.877149 0.875269 0.874853 0.886365 0.902749 0.896876 0.897274 0.907942 0.817159 0.853583 0.867697 0.897246 0.894725 0.887744 0.896649 0.899815 0.898859 0.896434 0.885945 0.89464 0.897838 0.874608 0.857956 0.82414 0.900905 0.897055 0.896713 0.901587 0.890233 0.880115 0.877644 0.876421 0.870336 0.866001 0.865494 0.865707 0.864102 0.881315 0.897352 0.880753 0.893832 0.887267 0.893832 0.881914 0.893832 0.869635 0.894239 0.876333 0.89517 0.894236 0.874573 0.89264 0.899429 0.902713 0.861221 0.905506 0.871923 0.892941 0.899368 0.875452 0.897391 0.885328 0.89592 0.889502 0.895205 0.89328 0.894621 0.8933 0.897898 0.885133 0.868695 0.869397 0.868568 0.868803 0.872792 0.879258 0.87763 0.880016 0.889639 0.901627 0.896714 0.897054 0.900955 0.823851 0.857822 0.874377 0.897838 0.89464 0.885817 0.896434 0.898888 0.897796 0.896176 0.885191 0.894544 0.896853 0.880373 0.862642 0.83349 0.894884 0.896753 0.896473 0.900471 0.8926 0.884231 0.880296 0.879076 0.87297 0.869105 0.867625 0.868549 0.868089 0.888796 0.893475 0.883059 0.893832 0.887019 0.893832 0.882824 0.893832 0.87226 0.894581 0.878868 0.895701 0.892376 0.877961 0.889608 0.901796 0.902471 0.866684 0.900613 0.894587 0.890853 0.894586 0.877676 0.893832 0.885661 0.893832 0.88928 0.893832 0.892086 0.893832 0.894859 0.893887 0.891362 0.871587 0.871464 0.869997 0.871258 0.874891 0.881309 0.879982 0.884401 0.892046 0.900498 0.896472 0.896752 0.894876 0.833206 0.862488 0.880181 0.896863 0.894543 0.885072 0.896176 0.897794 0.896627 0.895882 0.88523 0.894446 0.895746 0.884574 0.867837 0.843693 0.889935 0.896403 0.896185 0.899344 0.894092 0.887469 0.882897 0.881239 0.875449 0.872076 0.870201 0.87149 0.87174 0.892376 0.890778 0.885397 0.893832 0.886926 0.893832 0.883633 0.893832 0.875483 0.893832 0.880332 0.893832 0.890049 0.880459 0.885978 0.894668 0.900348 0.870119 0.895402 0.89601 0.889113 0.894521 0.880003 0.893832 0.886029 0.893832 0.889236 0.893832 0.891226 0.893832 0.895193 0.891263 0.893986 0.874474 0.873866 0.872035 0.873699 0.876994 0.883036 0.882348 0.887808 0.893635 0.899357 0.896183 0.896402 0.889894 0.843429 0.867652 0.884424 0.895722 0.894446 0.88513 0.895882 0.896594 0.895509 0.895557 0.885809 0.894351 0.89467 0.887476 0.872826 0.853285 0.886249 0.896014 0.895868 0.8982 0.894969 0.889701 0.88508 0.883 0.877633 0.874771 0.87285 0.874535 0.875356 0.892693 0.88909 0.887507 0.893832 0.886982 0.893832 0.884349 0.893832 0.878245 0.893832 0.881477 0.893832 0.888064 0.882568 0.883083 0.89545 0.897603 0.873268 0.891028 0.893832 0.887995 0.893832 0.881555 0.893832 0.886437 0.893832 0.88931 0.893832 0.890624 0.893832 0.894997 0.889673 0.893796 0.877474 0.876401 0.874236 0.875981 0.878917 0.884433 0.884523 0.890132 0.89452 0.898201 0.895867 0.896013 0.886189 0.853051 0.872638 0.887346 0.89462 0.89435 0.885731 0.895557 0.895466 0.894559 0.895209 0.886719 0.894257 0.893741 0.889414 0.877189 0.861616 0.883762 0.895596 0.89553 0.897063 0.895195 0.891303 0.886721 0.884421 0.879502 0.877113 0.875324 0.877374 0.878682 0.891753 0.888166 0.88923 0.893832 0.887175 0.893832 0.884997 0.893832 0.880536 0.893832 0.88234 0.893832 0.88663 0.884507 0.880611 0.893832 0.876085 0.887642 0.893832 0.887254 0.893832 0.883129 0.893832 0.886879 0.893832 0.889434 0.893832 0.890286 0.893832 0.894677 0.888838 0.892641 0.880249 0.878783 0.876355 0.878007 0.880549 0.885555 0.886284 0.891709 0.894762 0.897052 0.895529 0.895595 0.883689 0.861408 0.877016 0.889301 0.893687 0.894256 0.886661 0.895209 0.894521 0.895049 0.893799 0.894846 0.887773 0.894163 0.893036 0.890455 0.880812 0.868547 0.882279 0.895162 0.895174 0.895954 0.894771 0.892404 0.887892 0.885532 0.881061 0.879066 0.877487 0.879809 0.881457 0.890736 0.887796 0.890518 0.893832 0.887461 0.893832 0.8856 0.893832 0.882405 0.893832 0.88303 0.893832 0.885668 0.88631 0.878893 0.893832 0.891545 0.878625 0.885211 0.893832 0.886764 0.893832 0.884447 0.893832 0.887328 0.893832 0.889573 0.893832 0.890132 0.893832 0.894348 0.888545 0.891518 0.882583 0.88086 0.87826 0.879733 0.88187 0.886391 0.887578 0.892703 0.894422 0.895934 0.895173 0.89516 0.882196 0.868361 0.880663 0.890368 0.892989 0.894163 0.887731 0.894845 0.893769 0.893201 0.894477 0.888827 0.894069 0.892557 0.89079 0.883679 0.874111 0.881578 0.894722 0.894809 0.894896 0.893924 0.892877 0.888661 0.886343 0.882298 0.880625 0.879287 0.881791 0.883628 0.88998 0.887815 0.891396 0.893832 0.887788 0.893832 0.88617 0.893832 0.883899 0.893832 0.88365 0.893832 0.885071 0.887949 0.877817 0.893832 0.88093 0.883538 0.893832 0.886484 0.893832 0.885464 0.893832 0.887751 0.893832 0.889717 0.893832 0.890082 0.893832 0.894032 0.888616 0.890696 0.884441 0.88258 0.879881 0.881136 0.882899 0.886951 0.88845 0.893069 0.893674 0.89487 0.894808 0.89472 0.881491 0.87395 0.883559 0.890728 0.892521 0.894069 0.888797 0.894476 0.89318 0.888117 0.892732 0.894109 0.889789 0.893976 0.892264 0.890771 0.885823 0.878416 0.881452 0.894287 0.89444 0.893905 0.892921 0.89276 0.889085 0.886859 0.883205 0.88181 0.880727 0.883344 0.885258 0.889502 0.888091 0.891936 0.893832 0.888123 0.893832 0.886702 0.893832 0.885062 0.893832 0.884217 0.893832 0.884763 0.889376 0.877201 0.893832 0.885075 0.883001 0.882409 0.893832 0.886378 0.893832 0.886249 0.893832 0.888123 0.893832 0.889853 0.893832 0.890096 0.893832 0.893739 0.888908 0.890167 0.885858 0.883948 0.881194 0.882207 0.883647 0.887275 0.88896 0.892881 0.892744 0.893875 0.894438 0.894285 0.881369 0.878285 0.885733 0.89073 0.892238 0.893976 0.889768 0.894109 0.892717 0.892362 0.893751 0.890614 0.893883 0.892108 0.890684 0.887344 0.881644 0.881724 0.893868 0.887104 0.883804 0.88266 0.881838 0.884522 0.886433 0.889246 0.888517 0.892229 0.893832 0.888446 0.893832 0.887191 0.893832 0.885942 0.893832 0.884722 0.893832 0.884682 0.890562 0.876945 0.893832 0.88479 0.881655 0.893832 0.886405 0.893832 0.886854 0.893832 0.888436 0.893832 0.889973 0.893832 0.890148 0.893832 0.893475 0.889314 0.889863 0.886889 0.884995 0.882209 0.882971 0.884129 0.887393 0.893866 0.881653 0.881544 0.887279 0.890656 0.892089 0.893883 0.890599 0.893751 0.892352 0.894073 0.892995 0.891936 0.892271 0.889227 0.882437 0.889171 0.892342 0.891803 0.892964 0.894072 0.892069 0.893409 0.891288 0.893793 0.892044 0.890651 0.888381 0.884012 0.88226 0.893473 0.893714 0.892174 0.89104 0.891614 0.889153 0.887123 0.884139 0.883228 0.882659 0.88538 0.887237 0.889153 0.889012 0.892356 0.893832 0.888746 0.893832 0.887636 0.893832 0.886593 0.893832 0.885166 0.893832 0.88477 0.891508 0.876968 0.893832 0.880071 0.886282 0.881179 0.893832 0.88651 0.893832 0.887316 0.893832 0.888689 0.893832 0.890072 0.893832 0.890219 0.893832 0.893242 0.889758 0.889716 0.887595 0.88576 0.882956 0.883472 0.88438 0.887333 0.889146 0.891647 0.890936 0.892145 0.893713 0.893471 0.882202 0.883938 0.888336 0.890633 0.892031 0.893793 0.891278 0.893408 0.892062 0.889517 0.893832 0.893832 0.893832 0.893832 0.893832 0.892234 0.893832 0.887506 0.893832 0.893832 0.893832 0.893832 0.893832 0.893832 0.890192 0.891834 0.893087 0.891818 0.893705 0.892041 0.890692 0.889071 0.885728 0.882962 0.893109 0.893366 0.891447 0.890254 0.890912 0.888923 0.886972 0.884269 0.883572 0.883236 0.885975 0.887749 0.889169 0.892379 0.889019 0.888033 0.887067 0.885561 0.884969 0.877193 0.877956 0.880916 0.886659 0.887666 0.888885 0.890151 0.890292 0.893041 0.889675 0.888039 0.886286 0.883474 0.883765 0.88445 0.887134 0.888949 0.890914 0.890172 0.891421 0.893365 0.893107 0.882917 0.885676 0.889041 0.890679 0.892032 0.893705 0.891811 0.893086 0.891828 0.891642 0.892789 0.892217 0.893621 0.892073 0.890786 0.889526 0.886972 0.883758 0.892779 0.893033 0.890813 0.889578 0.890224 0.888591 0.886707 0.884251 0.883746 0.883617 0.886361 0.888042 0.889252 0.889991 0.892349 0.893832 0.889258 0.893832 0.888383 0.893832 0.88741 0.893832 0.885913 0.893832 0.885229 0.892773 0.877556 0.893832 0.876115 0.888501 0.880811 0.893832 0.886836 0.893832 0.887931 0.893832 0.889027 0.893832 0.890211 0.893832 0.890358 0.893832 0.892871 0.890588 0.889701 0.888284 0.886622 0.88381 0.8839 0.884389 0.886838 0.888636 0.890205 0.889513 0.890791 0.893032 0.892777 0.883724 0.886936 0.889506 0.890777 0.892067 0.893621 0.892213 0.892789 0.891639 0.891485 0.89252 0.892507 0.893542 0.892125 0.890909 0.889837 0.887881 0.88459 0.892487 0.892719 0.890267 0.889006 0.88958 0.888202 0.886382 0.884136 0.883801 0.883852 0.886592 0.88818 0.889373 0.890413 0.8923 0.893832 0.889462 0.893832 0.888687 0.893832 0.887659 0.893832 0.886226 0.893832 0.885515 0.893157 0.878004 0.893832 0.874524 0.8893 0.88082 0.893832 0.887023 0.893832 0.888132 0.893832 0.889121 0.893832 0.890257 0.893832 0.890413 0.893832 0.892728 0.890931 0.889766 0.888388 0.886816 0.884011 0.883926 0.884242 0.88649 0.888259 0.889548 0.888956 0.890249 0.892719 0.892485 0.884564 0.887855 0.889823 0.890904 0.89212 0.893542 0.892504 0.89252 0.891483 0.891356 0.89228 0.892707 0.893469 0.892182 0.891042 0.890068 0.888553 0.885412 0.892232 0.892429 0.889803 0.888531 0.888999 0.887795 0.886037 0.883966 0.883778 0.883983 0.886714 0.888216 0.889509 0.890774 0.89225 0.893832 0.889633 0.893832 0.888945 0.893832 0.887842 0.893832 0.886502 0.893832 0.885801 0.893421 0.878491 0.893832 0.873152 0.889931 0.880907 0.893832 0.887209 0.893832 0.888284 0.893832 0.889175 0.893832 0.890289 0.893832 0.890455 0.893832 0.89261 0.891218 0.889851 0.888398 0.886908 0.884115 0.883881 0.884048 0.886126 0.887856 0.888963 0.888493 0.889789 0.892428 0.89223 0.885392 0.888536 0.890059 0.891038 0.892179 0.893469 0.892705 0.89228 0.891354 0.891248 0.89207 0.892839 0.893403 0.892238 0.89117 0.89026 0.88906 0.886185 0.892015 0.892165 0.889414 0.888144 0.88849 0.887401 0.885701 0.883774 0.883712 0.884043 0.886763 0.888193 0.889645 0.891072 0.892207 0.893832 0.889772 0.893832 0.889161 0.893832 0.887978 0.893832 0.886744 0.893832 0.886071 0.893593 0.878981 0.893832 0.871979 0.890423 0.881045 0.893832 0.887382 0.893832 0.888398 0.893832 0.889198 0.893832 0.890311 0.893832 0.890484 0.893832 0.892514 0.891449 0.889941 0.888354 0.886933 0.884156 0.883797 0.883839 0.885775 0.887461 0.888455 0.888115 0.889404 0.892164 0.892013 0.88617 0.889049 0.890254 0.891167 0.892236 0.893403 0.892838 0.89207 0.891247 0.89116 0.891892 0.89292 0.893345 0.892287 0.891284 0.89043 0.889452 0.886881 0.891833 0.891931 0.889095 0.887837 0.888059 0.887044 0.885396 0.883584 0.883627 0.884062 0.886768 0.888141 0.889772 0.89131 0.892174 0.893832 0.889883 0.893832 0.889337 0.893832 0.888082 0.893832 0.886952 0.893832 0.886314 0.893701 0.879444 0.893832 0.870995 0.890803 0.881211 0.893832 0.887537 0.893832 0.888484 0.893832 0.889201 0.893832 0.890325 0.893832 0.890502 0.893832 0.892436 0.89163 0.890028 0.888285 0.886918 0.88416 0.883699 0.883636 0.885457 0.887098 0.888029 0.887814 0.889087 0.891931 0.891832 0.88687 0.889445 0.890426 0.891283 0.892285 0.893345 0.89292 0.891892 0.891159 0.891089 0.891744 0.892967 0.893295 0.892326 0.89138 0.89058 0.88976 0.887481 0.891687 0.891732 0.888838 0.887598 0.887708 0.886735 0.885135 0.883414 0.883542 0.884057 0.88675 0.888082 0.889884 0.891495 0.892148 0.893832 0.88997 0.893832 0.889477 0.893832 0.888161 0.893832 0.887127 0.893832 0.886524 0.893764 0.879859 0.893832 0.870192 0.891092 0.881383 0.893832 0.88767 0.893832 0.888547 0.893832 0.889191 0.893832 0.890333 0.893832 0.890512 0.893832 0.892375 0.891766 0.890105 0.88821 0.886884 0.884143 0.883604 0.883456 0.885185 0.886783 0.887683 0.887581 0.888833 0.891732 0.891685 0.887473 0.889755 0.890577 0.891379 0.892325 0.893295 0.892966 0.891744 0.891089 0.891034 0.891627 0.89299 0.893254 0.892355 0.891456 0.890707 0.890001 0.887971 0.891572 0.891569 0.888639 0.887419 0.887433 0.886484 0.884925 0.883272 0.883466 0.884043 0.886724 0.888027 0.889976 0.891633 0.892129 0.893832 0.890035 0.893832 0.889584 0.893832 0.888221 0.893832 0.887269 0.893832 0.886694 0.8938 0.880208 0.893832 0.86956 0.891306 0.881543 0.893832 0.887778 0.893832 0.888592 0.893832 0.889175 0.893832 0.890337 0.893832 0.890516 0.893832 0.892327 0.891865 0.890169 0.888143 0.886844 0.88412 0.88352 0.883308 0.884967 0.886525 0.887413 0.887406 0.888636 0.891568 0.891571 0.887965 0.889997 0.890705 0.891455 0.892355 0.893254 0.892989 0.891627 0.891034 0.890994 0.89154 0.892999 0.893223 0.892376 0.891512 0.890805 0.89018 0.888343 0.891488 0.891444 0.888493 0.887292 0.887232 0.886294 0.884768 0.883164 0.883407 0.884027 0.886698 0.887984 0.890046 0.89173 0.892115 0.893832 0.890081 0.893832 0.889661 0.893832 0.888265 0.893832 0.887377 0.893832 0.886823 0.893818 0.88048 0.893832 0.869093 0.891458 0.881676 0.893832 0.88786 0.893832 0.888624 0.893832 0.889159 0.893832 0.890339 0.893832 0.890517 0.893832 0.892293 0.891933 0.890218 0.888091 0.886807 0.884097 0.883455 0.883195 0.884804 0.88633 0.887215 0.887282 0.888491 0.891444 0.891487 0.888338 0.890178 0.890804 0.891511 0.892375 0.893223 0.892999 0.89154 0.890994 0.890968 0.891482 0.893002 0.893202 0.892388 0.891548 0.890873 0.8903 0.888593 0.891434 0.89136 0.888398 0.887211 0.8871 0.886167 0.884664 0.883091 0.883367 0.884015 0.886679 0.887955 0.890093 0.891791 0.892106 0.893832 0.890111 0.893832 0.88971 0.893832 0.888294 0.893832 0.887449 0.893832 0.88691 0.893827 0.880665 0.893832 0.868785 0.891554 0.881772 0.893832 0.887915 0.893832 0.888644 0.893832 0.889147 0.893832 0.89034 0.893832 0.890516 0.893832 0.89227 0.891976 0.890251 0.888055 0.88678 0.884081 0.883411 0.883119 0.884696 0.886199 0.887086 0.887202 0.888396 0.89136 0.891433 0.888589 0.890299 0.890872 0.891547 0.892388 0.893202 0.893002 0.891482 0.890968 0.890955 0.891453 0.893002 0.893192 0.892394 0.891565 0.890907 0.890361 0.888718 0.891407 0.891318 0.88835 0.887172 0.887035 0.886104 0.884613 0.883055 0.883347 0.884008 0.886669 0.887941 0.890117 0.891821 0.892102 0.893832 0.890125 0.893832 0.889735 0.893832 0.888308 0.893832 0.887486 0.893832 0.886953 0.89383 0.88076 0.893832 0.868632 0.891602 0.881821 0.893832 0.887942 0.893832 0.888654 0.893832 0.88914 0.893832 0.89034 0.893832 0.890516 0.893832 0.892259 0.891996 0.890268 0.888037 0.886766 0.884072 0.883389 0.883081 0.884642 0.886134 0.887022 0.887164 0.88835 0.891318 0.891405 0.888715 0.890359 0.890906 0.891565 0.892394 0.893192 0.893002 0.891453 0.890955 
SCALARS Axial_Stress float 1
LOOKUP_TABLE default
-43214800000.0 -41664500000.0 -9035750000.0 -30415300000.0 -132630000000.0 -81317100000.0 -137870000000.0 -120183000000.0 -98654800000.0 -124144000000.0 -118979000000.0 -86927600000.0 -112869000000.0 -103477000000.0 -75227900000.0 -122329000000.0 -29158900000.0 -9035750000.0 -14448100000.0 -79879800000.0 -283988000000.0 -189167000000.0 -247659000000.0 -233218000000.0 -250416000000.0 -254319000000.0 -235600000000.0 -227795000000.0 -217122000000.0 -197570000000.0 -159549000000.0 -273556000000.0 -72876900000.0 -14796400000.0 -22101700000.0 -334678000000.0 -412500000000.0 -209183000000.0 -648884000000.0 -344874000000.0 -403697000000.0 -71604100000.0 -367392000000.0 -311873000000.0 -562884000000.0 -218953000000.0 -419633000000.0 -322975000000.0 -21764200000.0 -370454000000.0 -414565000000.0 -519804000000.0 -516890000000.0 -520130000000.0 -507157000000.0 -799434000000.0 -573921000000.0 -433106000000.0 -615610000000.0 -433968000000.0 -502510000000.0 -709873000000.0 -493412000000.0 -503881000000.0 -508212000000.0 -508908000000.0 -399143000000.0 -361000000000.0 -386774000000.0 -517273000000.0 -664987000000.0 -817262000000.0 -878284000000.0 -593074000000.0 -751859000000.0 -1.00135e+12 -757074000000.0 -913350000000.0 -837659000000.0 -666980000000.0 -850447000000.0 -645325000000.0 -590748000000.0 -906252000000.0 -801629000000.0 -646523000000.0 -510540000000.0 -380820000000.0 -651430000000.0 -484898000000.0 -885989000000.0 -688612000000.0 -551151000000.0 -663586000000.0 -1.14696e+12 -1.23044e+12 -1.05298e+12 -1.01534e+12 -976251000000.0 -543280000000.0 -461714000000.0 -660189000000.0 -851448000000.0 -477764000000.0 -647201000000.0 -576123000000.0 -623239000000.0 -664041000000.0 -1.17769e+12 -865139000000.0 -1.30587e+12 -1.45626e+12 -1.35538e+12 -1.41637e+12 -1.1836e+12 -1.16407e+12 -1.19201e+12 -800877000000.0 -1.1379e+12 -635674000000.0 -618822000000.0 -574694000000.0 -754257000000.0 -1.05939e+12 -710251000000.0 -915590000000.0 -1.46562e+12 -973020000000.0 -1.59972e+12 -1.94385e+12 -1.76882e+12 -1.77559e+12 -1.38547e+12 -1.30196e+12 -1.44905e+12 -1.32902e+12 -960239000000.0 -1.38765e+12 -857388000000.0 -701084000000.0 -1.05479e+12 -756339000000.0 -1.25278e+12 -591156000000.0 -1.06762e+12 -1.31565e+12 -1.5479e+12 -1.40592e+12 -1.09244e+12 -1.23901e+12 -2.46297e+12 -1.43518e+12 -1.53453e+12 -1.14763e+12 -1.03575e+12 -1.35931e+12 -1.51221e+12 -1.26039e+12 -1.02357e+12 -589816000000.0 -1.2507e+12 -992685000000.0 -899954000000.0 -1.22438e+12 -1.42242e+12 -1.50871e+12 -1.55404e+12 -1.45469e+12 -1.4703e+12 -1.48369e+12 -1.40189e+12 -1.55218e+12 -1.30632e+12 -1.38569e+12 -1.50689e+12 -1.45995e+12 -1.3801e+12 -1.17749e+12 -875959000000.0 -1.00343e+12 -9070190000.0 -2.19115e+12 -1.73524e+12 -2.12054e+12 -1.15346e+12 -1.2894e+12 -1.56742e+12 -1.59966e+12 -1.5614e+12 -1.42714e+12 -864358000000.0 -1.53615e+12 -1.63834e+12 -1.48328e+12 -1.534e+12 -1.53242e+12 -1.25885e+12 -1.12556e+12 -2.09187e+12 -1.71257e+12 -2.19367e+12 -9057920000.0 -3.54429e+12 -3.39418e+12 -2.60273e+12 -2.3054e+12 -2.26973e+12 -1.45708e+12 -1.69012e+12 -1.79948e+12 -1.70049e+12 -1.79609e+12 -1.22258e+12 -1.58553e+12 -1.8879e+12 -1.8955e+12 -1.68109e+12 -1.5976e+12 -1.72052e+12 -1.64578e+12 -1.43098e+12 -2.2355e+12 -2.30428e+12 -2.61119e+12 -3.39292e+12 -3.54471e+12 -3.32337e+12 -5.3685e+12 -3.42018e+12 -2.27331e+12 -2.28356e+12 -2.17045e+12 -1.65009e+12 -1.84672e+12 -1.92165e+12 -2.03771e+12 -799044000000.0 -724074000000.0 -1.13019e+12 -1.78423e+12 -1.78678e+12 -1.83272e+12 -1.66359e+12 -2.11978e+12 -2.24551e+12 -2.25558e+12 -3.40688e+12 -5.35987e+12 -3.32491e+12 -3.12569e+12 -4.89879e+12 -5.23623e+12 -4.88155e+12 -3.12733e+12 -3.29691e+12 -3.10364e+12 -2.82481e+12 -2.43852e+12 -2.41974e+12 -2.05607e+12 -1.93754e+12 -2.19272e+12 -2.59132e+12 -1.3876e+12 -1.64644e+12 -1.84039e+12 -1.9098e+12 -2.06249e+12 -2.39419e+12 -2.41287e+12 -2.80299e+12 -3.07683e+12 -3.26805e+12 -3.11425e+12 -4.89724e+12 -5.23796e+12 -4.89877e+12 -3.12772e+12 -2.93488e+12 -4.62156e+12 -4.71006e+12 -4.15698e+12 -3.31105e+12 -3.16992e+12 -2.71365e+12 -2.33429e+12 -2.2592e+12 -2.04248e+12 -2.00537e+12 -2.04713e+12 -2.28366e+12 -2.32271e+12 -1.86212e+12 -1.94633e+12 -1.96411e+12 -2.09251e+12 -2.07832e+12 -2.28313e+12 -2.32506e+12 -2.69418e+12 -3.14946e+12 -3.28626e+12 -4.15221e+12 -4.71364e+12 -4.62763e+12 -2.93848e+12 -2.41876e+12 -2.78841e+12 -4.31941e+12 -4.53599e+12 -4.32604e+12 -3.11413e+12 -3.39039e+12 -2.99695e+12 -2.61284e+12 -2.51766e+12 -2.20036e+12 -1.86766e+12 -2.61324e+12 -2.83631e+12 -2.3963e+12 -2.42042e+12 -2.44894e+12 -2.06555e+12 -2.08803e+12 -2.25575e+12 -2.52505e+12 -2.60315e+12 -2.98016e+12 -3.3714e+12 -3.08136e+12 -4.32123e+12 -4.53945e+12 -4.32515e+12 -2.79101e+12 -2.42686e+12 -2.83219e+12 -3.78336e+12 -3.83114e+12 -4.35732e+12 -4.35935e+12 -4.02269e+12 -3.55269e+12 -3.25792e+12 -3.11667e+12 -2.87641e+12 -2.76808e+12 -2.4332e+12 -2.10985e+12 -1.59136e+12 -1.25756e+12 -2.96573e+12 -2.93606e+12 -2.33011e+12 -2.13779e+12 -2.22164e+12 -2.46405e+12 -2.76828e+12 -2.86582e+12 -3.10654e+12 -3.24282e+12 -3.53585e+12 -4.0168e+12 -4.35046e+12 -4.35475e+12 -3.77638e+12 -3.80963e+12 -2.80413e+12 -2.90028e+12 -5.3821e+12 -5.24631e+12 -5.65483e+12 -4.30431e+12 -4.28311e+12 -4.20104e+12 -3.96217e+12 -3.48893e+12 -3.34065e+12 -2.99684e+12 -2.67126e+12 -2.5844e+12 -2.33765e+12 -2.20979e+12 -1.9538e+12 -1.74597e+12 -1.05129e+12 -996516000000.0 -2.7142e+12 -2.22678e+12 -2.20265e+12 -2.33738e+12 -2.39969e+12 -2.61941e+12 -2.6867e+12 -2.9936e+12 -3.33224e+12 -3.47726e+12 -3.9581e+12 -4.19761e+12 -4.27283e+12 -4.27841e+12 -5.64412e+12 -5.24093e+12 -5.36077e+12 -2.87725e+12 -2.96715e+12 -2.93395e+12 -5.32921e+12 -5.46546e+12 -5.55447e+12 -5.48289e+12 -4.8356e+12 -4.12936e+12 -3.91902e+12 -3.67431e+12 -3.53476e+12 -3.38812e+12 -3.2036e+12 -3.0809e+12 -2.8882e+12 -2.79895e+12 -2.46253e+12 -2.04607e+12 -1.56384e+12 -1.47539e+12 -1.16726e+12 -2.28979e+12 -2.27981e+12 -2.53059e+12 -2.82083e+12 -2.89571e+12 -3.08411e+12 -3.19954e+12 -3.38433e+12 -3.52784e+12 -3.66439e+12 -3.91628e+12 -4.12549e+12 -4.82734e+12 -5.51047e+12 -5.55602e+12 -5.45525e+12 -5.31382e+12 -2.92197e+12 -2.96122e+12 -3.00191e+12 -5.24921e+12 -5.16305e+12 -5.2977e+12 -5.30345e+12 -5.1919e+12 -4.57081e+12 -4.33968e+12 -3.71623e+12 -3.56197e+12 -3.24834e+12 -2.97352e+12 -2.74422e+12 -2.30537e+12 -1.87262e+12 -1.77154e+12 -1.48942e+12 -1.69533e+12 -2.19459e+12 -2.42839e+12 -2.78223e+12 -2.98769e+12 -3.24905e+12 -3.55766e+12 -3.71024e+12 -4.34458e+12 -4.57466e+12 -5.21255e+12 -5.29978e+12 -5.28422e+12 -5.15221e+12 -5.23919e+12 -2.99824e+12 -3.03337e+12 -5.17283e+12 -5.06436e+12 -5.13108e+12 -5.08462e+12 -5.19688e+12 -4.93859e+12 -4.74632e+12 -4.49039e+12 -4.11295e+12 -3.8941e+12 -3.7217e+12 -3.57362e+12 -3.42329e+12 -3.29512e+12 -3.09775e+12 -2.89888e+12 -2.92045e+12 -3.05593e+12 -2.59573e+12 -2.24898e+12 -2.1017e+12 -2.20936e+12 -2.0095e+12 -1.93658e+12 -1.72864e+12 -1.78202e+12 -1.68674e+12 -1.94062e+12 -2.06719e+12 -2.26479e+12 -2.27075e+12 -2.32956e+12 -2.65377e+12 -3.08885e+12 -2.95072e+12 -2.92279e+12 -3.10721e+12 -3.29777e+12 -3.42168e+12 -3.57124e+12 -3.71841e+12 -3.89186e+12 -4.11525e+12 -4.4965e+12 -4.7607e+12 -4.95311e+12 -5.2053e+12 -5.08513e+12 -5.12369e+12 -5.05631e+12 -5.16627e+12 -3.03035e+12 -3.05337e+12 -5.03028e+12 -5.10354e+12 -4.98694e+12 -4.88462e+12 -4.98548e+12 -4.9496e+12 -4.9707e+12 -4.62803e+12 -4.3817e+12 -4.25806e+12 -4.03146e+12 -3.70449e+12 -3.45071e+12 -3.16134e+12 -2.55178e+12 -2.24477e+12 -2.38076e+12 -2.11817e+12 -1.91413e+12 -1.90607e+12 -2.14562e+12 -2.42338e+12 -2.24311e+12 -2.60794e+12 -3.17038e+12 -3.4497e+12 -3.70153e+12 -4.03123e+12 -4.26312e+12 -4.38665e+12 -4.64113e+12 -4.97568e+12 -4.94504e+12 -4.97758e+12 -4.87824e+12 -4.98129e+12 -5.09862e+12 -5.02612e+12 -3.05091e+12 -3.03435e+12 -3.05463e+12 -4.9508e+12 -4.91813e+12 -4.79984e+12 -4.8108e+12 -4.91494e+12 -4.8119e+12 -4.76044e+12 -4.50283e+12 -4.14342e+12 -3.82187e+12 -3.56952e+12 -3.47329e+12 -3.3364e+12 -3.00844e+12 -2.53464e+12 -2.25427e+12 -2.27569e+12 -2.05233e+12 -1.94861e+12 -2.0548e+12 -2.30393e+12 -2.34781e+12 -2.53395e+12 -3.02545e+12 -3.33905e+12 -3.47235e+12 -3.56794e+12 -3.81915e+12 -4.14363e+12 -4.50795e+12 -4.76813e+12 -4.81372e+12 -4.91353e+12 -4.80489e+12 -4.79478e+12 -4.91365e+12 -4.94725e+12 -3.05262e+12 -3.03271e+12 -2.916e+12 -4.86312e+12 -4.74193e+12 -4.83198e+12 -4.71727e+12 -4.7187e+12 -4.67794e+12 -4.79976e+12 -4.80855e+12 -4.62072e+12 -4.24848e+12 -3.91397e+12 -3.7225e+12 -3.65401e+12 -3.5584e+12 -3.37894e+12 -3.20504e+12 -2.96215e+12 -3.02265e+12 -3.16085e+12 -2.71495e+12 -2.34382e+12 -2.28918e+12 -2.18365e+12 -2.12091e+12 -2.02726e+12 -2.04468e+12 -2.02423e+12 -2.12224e+12 -2.19707e+12 -2.3103e+12 -2.38497e+12 -2.74119e+12 -3.14752e+12 -3.02394e+12 -2.96592e+12 -3.2115e+12 -3.37962e+12 -3.55587e+12 -3.65292e+12 -3.72166e+12 -3.91221e+12 -4.24841e+12 -4.6233e+12 -4.80712e+12 -4.79576e+12 -4.67295e+12 -4.71323e+12 -4.71272e+12 -4.82807e+12 -4.73857e+12 -4.86005e+12 -2.915e+12 -2.8254e+12 -2.98473e+12 -4.79207e+12 -4.59633e+12 -4.49916e+12 -4.61244e+12 -4.58225e+12 -4.72685e+12 -4.80643e+12 -4.71984e+12 -4.51204e+12 -4.36165e+12 -4.08069e+12 -3.99584e+12 -3.76806e+12 -3.58335e+12 -3.50905e+12 -3.44527e+12 -3.23035e+12 -3.14007e+12 -2.89474e+12 -2.48819e+12 -2.21413e+12 -2.09373e+12 -2.09239e+12 -2.22234e+12 -2.50535e+12 -2.89543e+12 -3.14307e+12 -3.23138e+12 -3.44085e+12 -3.50454e+12 -3.58168e+12 -3.76789e+12 -3.99546e+12 -4.08093e+12 -4.36303e+12 -4.51277e+12 -4.72004e+12 -4.80563e+12 -4.72418e+12 -4.57739e+12 -4.60689e+12 -4.49356e+12 -4.592e+12 -4.78952e+12 -2.9834e+12 -2.82472e+12 -2.73691e+12 -4.65711e+12 -4.71722e+12 -4.58326e+12 -4.64052e+12 -4.49765e+12 -4.39181e+12 -4.39912e+12 -4.58309e+12 -4.73482e+12 -4.72857e+12 -4.18061e+12 -3.81139e+12 -3.59852e+12 -3.48926e+12 -3.56037e+12 -3.59757e+12 -3.34653e+12 -2.97368e+12 -2.64416e+12 -2.34111e+12 -2.15771e+12 -2.09927e+12 -2.15892e+12 -2.34996e+12 -2.65559e+12 -2.97799e+12 -3.34709e+12 -3.58604e+12 -3.55301e+12 -3.48023e+12 -3.59719e+12 -3.81235e+12 -4.18056e+12 -4.72797e+12 -4.73464e+12 -4.58028e+12 -4.397e+12 -4.38642e+12 -4.49413e+12 -4.63769e+12 -4.58117e+12 -4.71518e+12 -4.65566e+12 -2.73651e+12 -2.67605e+12 -4.40496e+12 -4.54579e+12 -4.4752e+12 -4.50498e+12 -4.3844e+12 -4.24087e+12 -4.31124e+12 -4.23384e+12 -4.39424e+12 -4.85895e+12 -5.0127e+12 -4.78621e+12 -4.38602e+12 -3.86069e+12 -3.55367e+12 -3.56831e+12 -3.41136e+12 -3.63374e+12 -3.59931e+12 -3.41257e+12 -3.14566e+12 -2.89189e+12 -2.77441e+12 -2.5585e+12 -2.45832e+12 -2.32466e+12 -2.24064e+12 -2.17749e+12 -2.12946e+12 -2.12617e+12 -2.12882e+12 -2.17741e+12 -2.24356e+12 -2.32735e+12 -2.4656e+12 -2.56444e+12 -2.77896e+12 -2.89972e+12 -3.15144e+12 -3.41784e+12 -3.59144e+12 -3.61582e+12 -3.40666e+12 -3.56789e+12 -3.55471e+12 -3.86108e+12 -4.38423e+12 -4.78342e+12 -5.01256e+12 -4.86158e+12 -4.39202e+12 -4.22806e+12 -4.30533e+12 -4.23763e+12 -4.38173e+12 -4.50339e+12 -4.47435e+12 -4.54482e+12 -4.40424e+12 -2.67579e+12 -2.58986e+12 -2.63541e+12 -4.26534e+12 -4.34912e+12 -4.3397e+12 -4.36836e+12 -4.07764e+12 -3.95615e+12 -3.93811e+12 -3.7842e+12 -5.25445e+12 -4.11073e+12 -3.90587e+12 -3.59697e+12 -3.20321e+12 -3.32234e+12 -3.91188e+12 -3.83501e+12 -3.77217e+12 -3.08225e+12 -2.64848e+12 -2.39714e+12 -2.23214e+12 -2.14358e+12 -2.14278e+12 -2.23244e+12 -2.3995e+12 -2.65401e+12 -3.0936e+12 -3.76507e+12 -3.81404e+12 -3.88286e+12 -3.29996e+12 -3.20503e+12 -3.59611e+12 -3.90245e+12 -4.10504e+12 -5.25347e+12 -3.78228e+12 -3.93467e+12 -3.94913e+12 -4.07528e+12 -4.36656e+12 -4.33909e+12 -4.34822e+12 -4.26482e+12 -2.63525e+12 -2.58969e+12 -2.46766e+12 -4.08635e+12 -4.19136e+12 -4.21677e+12 -4.2823e+12 -4.18248e+12 -3.99143e+12 -3.45708e+12 -3.93752e+12 -3.3171e+12 -3.14282e+12 -2.83749e+12 -4.44425e+12 -3.44167e+12 -3.44432e+12 -3.29069e+12 -2.85924e+12 -1.94868e+12 -4.0342e+12 -3.41278e+12 -2.74615e+12 -2.45377e+12 -2.28205e+12 -2.17147e+12 -2.13149e+12 -2.1708e+12 -2.28193e+12 -2.45637e+12 -2.75402e+12 -3.43692e+12 -4.00571e+12 -1.97171e+12 -2.87075e+12 -3.29132e+12 -3.43492e+12 -3.43255e+12 -4.43767e+12 -2.83904e+12 -3.13773e+12 -3.31057e+12 -3.93158e+12 -3.44615e+12 -3.98834e+12 -4.18194e+12 -4.28098e+12 -4.21624e+12 -4.19051e+12 -4.08578e+12 -2.46746e+12 -2.38147e+12 -2.51708e+12 -3.83771e+12 -4.0416e+12 -4.01618e+12 -4.38584e+12 -4.04146e+12 -4.06347e+12 -3.64561e+12 -3.67782e+12 -3.74755e+12 -3.53882e+12 -3.21983e+12 -3.07891e+12 -3.10946e+12 -3.33192e+12 -3.0395e+12 -2.85854e+12 -2.70779e+12 -1.65048e+12 -3.83616e+12 -3.17073e+12 -2.89189e+12 -2.52566e+12 -2.49944e+12 -2.33465e+12 -2.3176e+12 -2.21927e+12 -2.20039e+12 -2.14417e+12 -2.13499e+12 -2.11508e+12 -2.13425e+12 -2.1434e+12 -2.19971e+12 -2.21858e+12 -2.31757e+12 -2.33543e+12 -2.49833e+12 -2.51996e+12 -2.91257e+12 -3.24142e+12 -3.84581e+12 -1.67824e+12 -2.71718e+12 -2.8621e+12 -3.0448e+12 -3.33168e+12 -3.1186e+12 -3.08035e+12 -3.22343e+12 -3.54203e+12 -3.74812e+12 -3.66759e+12 -3.64334e+12 -4.06147e+12 -4.03946e+12 -4.38608e+12 -4.01602e+12 -4.04122e+12 -3.83636e+12 -2.51634e+12 -2.38116e+12 -2.2903e+12 -3.5345e+12 -3.56011e+12 -3.79133e+12 -3.80405e+12 -4.24136e+12 -4.71119e+12 -3.74254e+12 -4.97982e+12 -2.71134e+12 -4.93643e+12 -2.30411e+12 -4.78254e+12 -2.46149e+12 -4.44679e+12 -3.25943e+12 -3.91897e+12 -2.74537e+12 -3.29968e+12 -2.30647e+12 -2.92915e+12 -2.23444e+12 -1.90237e+12 -1.66654e+12 -2.47361e+12 -2.33067e+12 -2.21733e+12 -2.1498e+12 -2.10529e+12 -2.10503e+12 -2.14929e+12 -2.21734e+12 -2.32798e+12 -2.48237e+12 -1.67269e+12 -1.89573e+12 -2.2489e+12 -2.94631e+12 -2.30657e+12 -3.32303e+12 -2.72193e+12 -3.91647e+12 -3.26399e+12 -4.46355e+12 -2.45937e+12 -4.7841e+12 -2.28446e+12 -4.93848e+12 -2.70316e+12 -4.98689e+12 -3.73736e+12 -4.71895e+12 -4.24373e+12 -3.80303e+12 -3.79063e+12 -3.55836e+12 -3.53362e+12 -2.28986e+12 -2.21683e+12 -3.51041e+12 -3.49002e+12 -3.29358e+12 -3.458e+12 -3.38408e+12 -3.80219e+12 -4.40152e+12 -5.38525e+12 -3.12832e+12 -3.35184e+12 -4.28675e+12 -3.23193e+12 -4.29833e+12 -3.71312e+12 -2.6214e+12 -4.42927e+12 -3.30369e+12 -1.40425e+12 -3.17542e+12 -2.20553e+12 -2.11197e+12 -1.68977e+12 -2.26947e+12 -2.18398e+12 -2.14088e+12 -2.09777e+12 -2.07829e+12 -2.09741e+12 -2.14067e+12 -2.18481e+12 -2.2637e+12 -1.65337e+12 -2.13039e+12 -2.20417e+12 -3.18157e+12 -1.39622e+12 -3.32391e+12 -4.45156e+12 -2.61704e+12 -3.70657e+12 -4.28801e+12 -3.23758e+12 -4.27363e+12 -3.35476e+12 -3.13485e+12 -5.37826e+12 -4.40066e+12 -3.80055e+12 -3.38284e+12 -3.45644e+12 -3.29078e+12 -3.48894e+12 -3.50905e+12 -2.21641e+12 -2.16137e+12 -2.15659e+12 -3.47668e+12 -3.35021e+12 -3.47674e+12 -3.10375e+12 -2.97208e+12 -3.33943e+12 -2.68591e+12 -4.02342e+12 -4.50861e+12 -3.5773e+12 -3.27808e+12 -3.47828e+12 -2.53956e+12 -4.69662e+12 -5.16021e+12 -3.58569e+12 -3.42524e+12 -4.15462e+12 -2.97913e+12 -1.50603e+12 -3.90516e+12 -3.2131e+12 -2.07e+12 -1.93841e+12 -1.83729e+12 -2.09294e+12 -2.03159e+12 -2.10479e+12 -2.05074e+12 -2.08319e+12 -2.03429e+12 -2.05722e+12 -2.02454e+12 -2.05713e+12 -2.03443e+12 -2.08312e+12 -2.05198e+12 -2.10668e+12 -2.03481e+12 -2.08838e+12 -1.82465e+12 -1.9242e+12 -2.06827e+12 -3.19562e+12 -3.91992e+12 -1.51433e+12 -2.97086e+12 -4.16909e+12 -3.42702e+12 -3.54948e+12 -5.13052e+12 -4.70456e+12 -2.54623e+12 -3.47637e+12 -3.27573e+12 -3.57384e+12 -4.49928e+12 -4.01878e+12 -2.67985e+12 -3.33767e+12 -2.96894e+12 -3.09842e+12 -3.4834e+12 -3.35018e+12 -3.47484e+12 -2.15604e+12 -2.16129e+12 -2.12305e+12 -3.5522e+12 -3.20671e+12 -2.94072e+12 -2.2616e+12 -2.9836e+12 -2.88644e+12 -2.87392e+12 -4.09407e+12 -3.72633e+12 -3.89404e+12 -3.50272e+12 -2.77572e+12 -2.5579e+12 -3.8156e+12 -2.65495e+12 -3.88638e+12 -1.86944e+12 -3.2158e+12 -2.47998e+12 -2.10669e+12 -1.1397e+12 -1.28943e+12 -1.90564e+12 -1.9949e+12 -2.00121e+12 -1.99406e+12 -1.99401e+12 -2.00205e+12 -1.99842e+12 -1.9051e+12 -1.26232e+12 -1.14397e+12 -2.11241e+12 -2.49145e+12 -3.18602e+12 -1.90031e+12 -3.89584e+12 -2.68385e+12 -3.80708e+12 -2.54652e+12 -2.77197e+12 -3.49727e+12 -3.89018e+12 -3.72215e+12 -4.09206e+12 -2.87384e+12 -2.88903e+12 -2.98338e+12 -2.24992e+12 -2.9369e+12 -3.2025e+12 -3.55179e+12 -2.12288e+12 -2.02283e+12 -3.53333e+12 -3.33647e+12 -3.44178e+12 -3.56047e+12 -3.61249e+12 -2.59081e+12 -3.00753e+12 -4.0064e+12 -3.49808e+12 -3.7521e+12 -3.47501e+12 -3.45782e+12 -3.15674e+12 -2.97332e+12 -3.91021e+12 -2.81624e+12 -2.85647e+12 -3.29701e+12 -3.1236e+12 -2.42763e+12 -2.51047e+12 -1.44886e+12 -2.32813e+12 -2.46609e+12 -986394000000.0 -1.72298e+12 -1.91938e+12 -1.94895e+12 -1.95997e+12 -1.95788e+12 -1.95985e+12 -1.95137e+12 -1.9251e+12 -1.7263e+12 -979033000000.0 -2.44536e+12 -2.30729e+12 -1.48922e+12 -2.51427e+12 -2.42851e+12 -3.12242e+12 -3.28701e+12 -2.84111e+12 -2.83846e+12 -3.91408e+12 -2.96952e+12 -3.15371e+12 -3.45306e+12 -3.47212e+12 -3.74819e+12 -3.49583e+12 -4.00412e+12 -3.00758e+12 -2.59016e+12 -3.61411e+12 -3.56517e+12 -3.44219e+12 -3.3365e+12 -3.5331e+12 -2.02242e+12 -1.89537e+12 -3.38531e+12 -3.48539e+12 -3.30027e+12 -3.23252e+12 -4.21187e+12 -4.5528e+12 -1.65098e+12 -1.92222e+12 -4.6732e+12 -3.69342e+12 -3.56493e+12 -3.43312e+12 -3.20385e+12 -3.02097e+12 -2.69247e+12 -1.94034e+12 -2.04288e+12 -3.09445e+12 -2.93681e+12 -2.94044e+12 -2.49663e+12 -1.96685e+12 -1.84654e+12 -2.00661e+12 -1.08758e+12 -547066000000.0 -1.91012e+12 -1.92088e+12 -1.75095e+12 -1.87087e+12 -1.85678e+12 -1.91558e+12 -1.88015e+12 -1.92195e+12 -1.88574e+12 -1.92122e+12 -1.87852e+12 -1.91594e+12 -1.85982e+12 -1.87803e+12 -1.76943e+12 -1.92644e+12 -1.90765e+12 -554896000000.0 -1.08022e+12 -1.99796e+12 -1.85053e+12 -1.97626e+12 -2.50181e+12 -2.93859e+12 -2.92837e+12 -3.09162e+12 -2.03872e+12 -1.94192e+12 -2.69041e+12 -3.01787e+12 -3.20039e+12 -3.43022e+12 -3.56244e+12 -3.69269e+12 -4.67154e+12 -1.9255e+12 -1.65099e+12 -4.55287e+12 -4.219e+12 -3.23398e+12 -3.30016e+12 -3.48505e+12 -3.3848e+12 -1.89499e+12 -1.48095e+12 -1.78701e+12 -3.23462e+12 -3.3009e+12 -2.9241e+12 -2.66089e+12 -3.46647e+12 -3.95733e+12 -2.74666e+12 -3.3711e+12 -2.57585e+12 -3.67755e+12 -3.72591e+12 -3.36086e+12 -3.21038e+12 -3.07216e+12 -2.88692e+12 -2.70691e+12 -2.42615e+12 -2.10452e+12 -4.3487e+12 -3.58683e+12 -2.89833e+12 -2.7139e+12 -2.52652e+12 -2.40716e+12 -2.22363e+12 -1.80466e+12 -1.60775e+12 -1.60517e+12 -1.33291e+12 -1.72435e+12 -1.78965e+12 -1.82676e+12 -1.8485e+12 -1.84611e+12 -1.82524e+12 -1.80208e+12 -1.74938e+12 -1.31721e+12 -1.6383e+12 -1.6138e+12 -1.80868e+12 -2.22785e+12 -2.4066e+12 -2.52627e+12 -2.71033e+12 -2.8941e+12 -3.59073e+12 -4.34664e+12 -2.10062e+12 -2.4237e+12 -2.70403e+12 -2.8839e+12 -3.06912e+12 -3.20798e+12 -3.35936e+12 -3.72505e+12 -3.67872e+12 -2.5769e+12 -3.36661e+12 -2.74489e+12 -3.95588e+12 -3.469e+12 -2.66145e+12 -2.92439e+12 -3.30072e+12 -3.23401e+12 -1.78671e+12 -1.48065e+12 -1.05709e+12 -2.73962e+12 -3.3916e+12 -3.45717e+12 -2.95354e+12 -1.79631e+12 -2.80247e+12 -4.03011e+12 -2.2539e+12 -3.57331e+12 -3.28597e+12 -3.33027e+12 -3.22443e+12 -3.00364e+12 -2.87417e+12 -2.75425e+12 -2.60931e+12 -2.47099e+12 -2.39151e+12 -3.80978e+12 -3.61856e+12 -3.20576e+12 -2.41304e+12 -2.30544e+12 -2.15404e+12 -1.95806e+12 -1.88531e+12 -1.3646e+12 -758950000000.0 -1.63687e+12 -1.74698e+12 -1.81575e+12 -1.80362e+12 -1.80968e+12 -1.75012e+12 -1.67571e+12 -814059000000.0 -1.3702e+12 -1.88777e+12 -1.96241e+12 -2.1555e+12 -2.30436e+12 -2.4113e+12 -3.20143e+12 -3.61623e+12 -3.80502e+12 -2.38769e+12 -2.46791e+12 -2.60594e+12 -2.75129e+12 -2.87182e+12 -3.00191e+12 -3.22298e+12 -3.32861e+12 -3.28174e+12 -3.56863e+12 -2.25823e+12 -4.0191e+12 -2.80033e+12 -1.79613e+12 -2.95353e+12 -3.45718e+12 -3.39122e+12 -2.73894e+12 -1.05726e+12 -927846000000.0 -1.28416e+12 -1.3836e+12 -3.16673e+12 -3.51022e+12 -3.20725e+12 -1.403e+12 -3.09041e+12 -2.89486e+12 -3.03225e+12 -3.06484e+12 -2.92829e+12 -2.87061e+12 -2.89022e+12 -3.10709e+12 -3.00466e+12 -2.79006e+12 -2.58727e+12 -2.05722e+12 -1.91593e+12 -1.81131e+12 -1.72717e+12 -1.57559e+12 -1.49514e+12 -1.9111e+12 -672366000000.0 -1.59657e+12 -1.83706e+12 -1.79793e+12 -1.71988e+12 -1.76446e+12 -1.72453e+12 -1.75879e+12 -1.70511e+12 -1.78801e+12 -1.82328e+12 -1.62037e+12 -793583000000.0 -1.92156e+12 -1.51003e+12 -1.58241e+12 -1.73048e+12 -1.81336e+12 -1.91759e+12 -2.05721e+12 -2.58463e+12 -2.7863e+12 -3.00018e+12 -3.10324e+12 -2.88588e+12 -2.86967e+12 -2.92635e+12 -3.0622e+12 -3.02983e+12 -2.88872e+12 -3.08573e+12 -1.40304e+12 -3.20728e+12 -3.51001e+12 -3.16606e+12 -1.3834e+12 -1.28383e+12 -927969000000.0 -704552000000.0 -1.42905e+12 -1.13149e+12 -1.29269e+12 -3.53443e+12 -3.58788e+12 -3.69949e+12 -1.78861e+12 -2.39596e+12 -2.52988e+12 -2.69474e+12 -2.59934e+12 -2.77009e+12 -2.64127e+12 -2.55101e+12 -2.46384e+12 -2.36143e+12 -2.32014e+12 -2.5159e+12 -2.60454e+12 -2.65337e+12 -2.5843e+12 -2.44189e+12 -2.29154e+12 -2.17422e+12 -1.73589e+12 -1.6473e+12 -1.54654e+12 -1.46392e+12 -1.39088e+12 -1.24693e+12 -1.48685e+12 -2.1277e+12 -1.65802e+12 -1.68986e+12 -1.67879e+12 -1.62954e+12 -2.12923e+12 -1.49527e+12 -1.29212e+12 -1.40685e+12 -1.47544e+12 -1.55209e+12 -1.64995e+12 -1.7373e+12 -2.17289e+12 -2.28983e+12 -2.4391e+12 -2.58024e+12 -2.64843e+12 -2.60002e+12 -2.51147e+12 -2.31628e+12 -2.35755e+12 -2.46069e+12 -2.54876e+12 -2.63949e+12 -2.76881e+12 -2.59841e+12 -2.69252e+12 -2.53018e+12 -2.39425e+12 -1.78928e+12 -3.69975e+12 -3.58828e+12 -3.53459e+12 -1.29245e+12 -1.13086e+12 -1.42977e+12 -704535000000.0 -123348000000.0 -549995000000.0 -1.30869e+12 -1.47799e+12 -1.15324e+12 -1.13608e+12 -1.27577e+12 -1.27273e+12 -3.0175e+12 -2.43299e+12 -3.13476e+12 -2.4602e+12 -2.34049e+12 -2.49312e+12 -2.42942e+12 -2.3712e+12 -2.3029e+12 -2.24777e+12 -2.19295e+12 -2.14716e+12 -2.31016e+12 -2.24976e+12 -2.1469e+12 -2.042e+12 -1.93995e+12 -1.83382e+12 -1.48561e+12 -1.42001e+12 -1.37042e+12 -1.33218e+12 -1.50449e+12 -1.84827e+12 -1.85929e+12 -1.50214e+12 -1.67025e+12 -1.63583e+12 -1.63993e+12 -1.44849e+12 -2.00312e+12 -1.99213e+12 -1.55547e+12 -1.36377e+12 -1.38484e+12 -1.42815e+12 -1.48941e+12 -1.83437e+12 -1.93937e+12 -2.04059e+12 -2.14472e+12 -2.24646e+12 -2.30553e+12 -2.14222e+12 -2.18915e+12 -2.24541e+12 -2.30123e+12 -2.36998e+12 -2.42898e+12 -2.49289e+12 -2.3383e+12 -2.4572e+12 -3.1319e+12 -2.43295e+12 -3.01718e+12 -1.27268e+12 -1.27577e+12 -1.13613e+12 -1.15274e+12 -1.47907e+12 -1.30906e+12 -549995000000.0 -123440000000.0 -480806000000.0 -757388000000.0 -852110000000.0 -1.07869e+12 -2.00682e+12 -2.40014e+12 -2.10488e+12 -2.38317e+12 -2.29248e+12 -2.16831e+12 -2.33645e+12 -2.07541e+12 -2.0234e+12 -2.03315e+12 -2.02163e+12 -1.99033e+12 -1.95324e+12 -1.92828e+12 -2.21704e+12 -2.28067e+12 -2.30695e+12 -1.9727e+12 -1.8982e+12 -1.81424e+12 -1.72825e+12 -1.64507e+12 -1.5651e+12 -1.29674e+12 -1.25807e+12 -1.25538e+12 -1.27688e+12 -1.3897e+12 -1.12775e+12 -1.84596e+12 -1.68939e+12 -1.55069e+12 -1.59996e+12 -1.56521e+12 -1.58519e+12 -1.51043e+12 -1.62279e+12 -1.75467e+12 -1.2221e+12 -1.51758e+12 -1.34105e+12 -1.28045e+12 -1.27209e+12 -1.30387e+12 -1.56681e+12 -1.64576e+12 -1.72826e+12 -1.81334e+12 -1.89632e+12 -1.97003e+12 -2.30152e+12 -2.27528e+12 -2.21178e+12 -1.9234e+12 -1.95023e+12 -1.98883e+12 -2.02065e+12 -2.03297e+12 -2.02418e+12 -2.07767e+12 -2.3339e+12 -2.1641e+12 -2.29032e+12 -2.38202e+12 -2.10408e+12 -2.39912e+12 -2.00625e+12 -1.07784e+12 -851521000000.0 -756489000000.0 -480987000000.0 -142153000000.0 -357891000000.0 -1.19584e+12 -1.01325e+12 -1.55271e+12 -1.01017e+12 -1.24897e+12 -1.92171e+12 -2.0809e+12 -2.03892e+12 -1.40258e+12 -1.62101e+12 -1.70114e+12 -1.7197e+12 -1.69466e+12 -1.64894e+12 -1.94278e+12 -1.98309e+12 -2.01756e+12 -2.0317e+12 -2.02164e+12 -1.67816e+12 -1.60974e+12 -1.54002e+12 -1.47096e+12 -1.40339e+12 -1.34408e+12 -1.44917e+12 -1.54952e+12 -1.50959e+12 -1.39156e+12 -1.3483e+12 -1.40489e+12 -1.47106e+12 -1.5399e+12 -1.60937e+12 -1.6767e+12 -2.01789e+12 -2.02634e+12 -2.01116e+12 -1.97661e+12 -1.9367e+12 -1.6444e+12 -1.69306e+12 -1.7191e+12 -1.70119e+12 -1.62199e+12 -1.40471e+12 -2.03273e+12 -2.07593e+12 -1.92016e+12 -1.2507e+12 -1.0103e+12 -1.55276e+12 -1.01246e+12 -1.19706e+12 -357719000000.0 -142158000000.0 -155563000000.0 -145794000000.0 -1.02542e+12 -888627000000.0 -1.18431e+12 -1.25529e+12 -1.49379e+12 -807473000000.0 -1.44425e+12 -1.91051e+12 -1.77875e+12 -1.82504e+12 -2.09577e+12 -1.16342e+12 -1.38232e+12 -1.64172e+12 -1.66318e+12 -1.71495e+12 -1.76944e+12 -1.7881e+12 -1.77696e+12 -1.73766e+12 -1.42455e+12 -1.36654e+12 -1.3087e+12 -1.25535e+12 -1.20955e+12 -1.17114e+12 -1.13299e+12 -964768000000.0 -740004000000.0 -662334000000.0 -747538000000.0 -1.56966e+12 -1.47534e+12 -1.46695e+12 -654790000000.0 -887693000000.0 -759822000000.0 -976653000000.0 -1.13457e+12 -1.17192e+12 -1.21159e+12 -1.256e+12 -1.30759e+12 -1.36486e+12 -1.42348e+12 -1.73516e+12 -1.77397e+12 -1.78397e+12 -1.76275e+12 -1.70626e+12 -1.65544e+12 -1.63549e+12 -1.38387e+12 -1.16664e+12 -2.08939e+12 -1.81846e+12 -1.76997e+12 -1.90815e+12 -1.44336e+12 -808173000000.0 -1.49303e+12 -1.25467e+12 -1.18369e+12 -889256000000.0 -1.02632e+12 -145904000000.0 -155623000000.0 -571893000000.0 -631439000000.0 -964581000000.0 -1.12034e+12 -978876000000.0 -1.53181e+12 -1.61861e+12 -1.22616e+12 -1.6445e+12 -1.92865e+12 -1.45186e+12 -1.45621e+12 -1.39412e+12 -1.27998e+12 -1.31344e+12 -1.35454e+12 -1.50022e+12 -1.5636e+12 -1.57763e+12 -1.56504e+12 -1.53042e+12 -1.48073e+12 -1.15899e+12 -1.1202e+12 -1.09541e+12 -1.09588e+12 -1.12122e+12 -1.15199e+12 -1.51491e+12 -1.98517e+12 -1.73984e+12 -1.67867e+12 -1.3905e+12 -1.43852e+12 -1.36974e+12 -1.41886e+12 -1.35993e+12 -1.35533e+12 -1.92524e+12 -1.78609e+12 -1.43329e+12 -1.08727e+12 -1.09123e+12 -1.07687e+12 -1.08847e+12 -1.11816e+12 -1.15657e+12 -1.47945e+12 -1.52799e+12 -1.56242e+12 -1.57469e+12 -1.55978e+12 -1.48907e+12 -1.34143e+12 -1.30607e+12 -1.27152e+12 -1.39229e+12 -1.45597e+12 -1.45247e+12 -1.92244e+12 -1.6392e+12 -1.21999e+12 -1.62096e+12 -1.53144e+12 -978104000000.0 -1.11984e+12 -964953000000.0 -631827000000.0 -572533000000.0 -314634000000.0 -776909000000.0 -1.20619e+12 -560522000000.0 -551622000000.0 -1.13789e+12 -1.35513e+12 -1.7409e+12 -1.0596e+12 -1.21195e+12 -1.24627e+12 -1.2218e+12 -1.37147e+12 -1.39168e+12 -1.39235e+12 -1.37521e+12 -1.34278e+12 -1.30064e+12 -1.25392e+12 -1.20537e+12 -990440000000.0 -983277000000.0 -1.00828e+12 -1.07458e+12 -660438000000.0 -937101000000.0 -851438000000.0 -1.27979e+12 -1.32773e+12 -1.29386e+12 -1.53799e+12 -803085000000.0 -391506000000.0 -992256000000.0 -949981000000.0 -962448000000.0 -982246000000.0 -1.20178e+12 -1.2503e+12 -1.29823e+12 -1.34022e+12 -1.37211e+12 -1.39019e+12 -1.39084e+12 -1.37486e+12 -1.22298e+12 -1.24758e+12 -1.214e+12 -1.06342e+12 -1.74048e+12 -1.35566e+12 -1.13695e+12 -550339000000.0 -559994000000.0 -1.20671e+12 -777260000000.0 -314841000000.0 -404220000000.0 -958319000000.0 -924556000000.0 -1.05423e+12 -398313000000.0 -845754000000.0 -1.20102e+12 -1.68723e+12 -1.18196e+12 -1.53365e+12 -1.69732e+12 -980230000000.0 -1.06456e+12 -1.08499e+12 -1.06997e+12 -859228000000.0 -1.08636e+12 -1.28797e+12 -1.21886e+12 -1.19894e+12 -1.16959e+12 -1.13371e+12 -1.09344e+12 -1.05366e+12 -1.01632e+12 -1.328e+12 -1.20228e+12 -1.32104e+12 -1.39841e+12 -1.0116e+12 -1.04868e+12 -1.08791e+12 -1.12793e+12 -1.1654e+12 -1.19501e+12 -1.21503e+12 -1.28557e+12 -1.08342e+12 -854936000000.0 -1.07315e+12 -1.08645e+12 -1.06675e+12 -984060000000.0 -1.69179e+12 -1.52923e+12 -1.17941e+12 -1.68733e+12 -1.20126e+12 -845071000000.0 -397814000000.0 -1.05403e+12 -924313000000.0 -958432000000.0 -404521000000.0 -121533000000.0 -180738000000.0 -713699000000.0 -806100000000.0 -1.05463e+12 -123888000000.0 -452416000000.0 -1.20714e+12 -1.41671e+12 -1.45963e+12 -861103000000.0 -906198000000.0 -1.09347e+12 -860582000000.0 -863405000000.0 -1.10109e+12 -1.2285e+12 -1.22551e+12 -1.22683e+12 -1.00772e+12 -974582000000.0 -939923000000.0 -907921000000.0 -872613000000.0 -860404000000.0 -883070000000.0 -1.05567e+12 -1.49145e+12 -1.27917e+12 -1.86527e+12 -2.00093e+12 -1.39987e+12 -1.02529e+12 -1.14811e+12 -1.07681e+12 -1.10848e+12 -900353000000.0 -1.3557e+12 -1.85539e+12 -1.9684e+12 -1.3285e+12 -1.47948e+12 -1.00859e+12 -875909000000.0 -853762000000.0 -866654000000.0 -900135000000.0 -933457000000.0 -966648000000.0 -999493000000.0 -1.22452e+12 -1.22572e+12 -1.2312e+12 -1.10068e+12 -860503000000.0 -861775000000.0 -1.09579e+12 -907672000000.0 -864579000000.0 -1.45505e+12 -1.41283e+12 -1.20429e+12 -451578000000.0 -123347000000.0 -1.05388e+12 -806255000000.0 -713770000000.0 -180837000000.0 -121612000000.0 -676327000000.0 -576853000000.0 -57765300000.0 -210678000000.0 -876258000000.0 -1.30855e+12 -1.51214e+12 -1.18844e+12 -1.28066e+12 -1.22383e+12 -967964000000.0 -926023000000.0 -824458000000.0 -903147000000.0 -1.01599e+12 -1.05837e+12 -1.06565e+12 -1.06422e+12 -1.05314e+12 -1.03318e+12 -791206000000.0 -757096000000.0 -697703000000.0 -660330000000.0 -596638000000.0 -599291000000.0 -515710000000.0 -261788000000.0 -1.20597e+12 -674832000000.0 -1.03564e+12 -973821000000.0 -553867000000.0 -1.22083e+12 -488451000000.0 -666118000000.0 -674367000000.0 -650892000000.0 -688555000000.0 -697404000000.0 -746096000000.0 -780967000000.0 -1.02681e+12 -1.04696e+12 -1.05907e+12 -1.06285e+12 -1.06003e+12 -1.01713e+12 -904465000000.0 -827045000000.0 -926775000000.0 -967931000000.0 -1.2206e+12 -1.27779e+12 -1.18604e+12 -1.51129e+12 -1.30829e+12 -876528000000.0 -209976000000.0 -57830200000.0 -576106000000.0 -676548000000.0 -598958000000.0 -200238000000.0 -1.00489e+12 -505361000000.0 -960543000000.0 -1.24219e+12 -1.28629e+12 -594706000000.0 -719441000000.0 -825324000000.0 -809984000000.0 -714780000000.0 -843101000000.0 -884701000000.0 -910474000000.0 -914641000000.0 -909587000000.0 -896360000000.0 -875697000000.0 -852870000000.0 -820034000000.0 -452560000000.0 -287188000000.0 -19631800000.0 -1.06768e+12 -955067000000.0 -991625000000.0 -277202000000.0 -810720000000.0 -841857000000.0 -865363000000.0 -885321000000.0 -899847000000.0 -907459000000.0 -906161000000.0 -880889000000.0 -843761000000.0 -719206000000.0 -812514000000.0 -824840000000.0 -718921000000.0 -597553000000.0 -1.28547e+12 -1.24206e+12 -959697000000.0 -505537000000.0 -1.00394e+12 -199787000000.0 -598642000000.0 -422387000000.0 -533048000000.0 -994098000000.0 -100114000000.0 -339499000000.0 -565366000000.0 -920525000000.0 -1.06747e+12 -1.08253e+12 -1.12441e+12 -1.18821e+12 -1.11519e+12 -772247000000.0 -762736000000.0 -746210000000.0 -720431000000.0 -705433000000.0 -672196000000.0 -639965000000.0 -606663000000.0 -330503000000.0 -356555000000.0 -1.01069e+12 -71264200000.0 -1.00036e+12 -961453000000.0 -735630000000.0 -836513000000.0 -833169000000.0 -36747800000.0 -1.10454e+12 -21839200000.0 -369623000000.0 -301319000000.0 -452894000000.0 -581766000000.0 -627279000000.0 -655184000000.0 -692770000000.0 -711748000000.0 -727433000000.0 -744750000000.0 -758454000000.0 -1.11466e+12 -1.18716e+12 -1.12307e+12 -1.08255e+12 -1.06696e+12 -920347000000.0 -564123000000.0 -339799000000.0 -99552700000.0 -993265000000.0 -532981000000.0 -422574000000.0 -223805000000.0 -331690000000.0 -928855000000.0 -731616000000.0 -747494000000.0 -1.02542e+12 -1.03704e+12 -1.35061e+12 -1.27402e+12 -1.39217e+12 -1.32178e+12 -1.07008e+12 -754234000000.0 -767503000000.0 -771189000000.0 -775048000000.0 -596564000000.0 -557094000000.0 -593793000000.0 -508577000000.0 -523091000000.0 -529137000000.0 -168505000000.0 -234562000000.0 -386092000000.0 -410038000000.0 -1.02705e+12 -582490000000.0 -948881000000.0 -690243000000.0 -355323000000.0 -801261000000.0 -707365000000.0 -598681000000.0 -129927000000.0 -190399000000.0 -40928000000.0 -50959000000.0 -423336000000.0 -503983000000.0 -487290000000.0 -560458000000.0 -567331000000.0 -576527000000.0 -767158000000.0 -767065000000.0 -766970000000.0 -750386000000.0 -1.07529e+12 -1.32857e+12 -1.39471e+12 -1.27353e+12 -1.34485e+12 -1.03823e+12 -1.02607e+12 -745983000000.0 -731791000000.0 -928450000000.0 -331286000000.0 -223951000000.0 -521485000000.0 -604242000000.0 -810192000000.0 -910119000000.0 -918550000000.0 -865202000000.0 -914890000000.0 -1.06404e+12 -1.06762e+12 -1.04851e+12 -926281000000.0 -752695000000.0 -643398000000.0 -637496000000.0 -639962000000.0 -641572000000.0 -633746000000.0 -619924000000.0 -507149000000.0 -656081000000.0 -543553000000.0 -815217000000.0 -702504000000.0 -603414000000.0 -452602000000.0 -608093000000.0 -451895000000.0 -588475000000.0 -606984000000.0 -627597000000.0 -634212000000.0 -641172000000.0 -644979000000.0 -755535000000.0 -929712000000.0 -1.04838e+12 -1.065e+12 -1.05989e+12 -910008000000.0 -867086000000.0 -919500000000.0 -910894000000.0 -810769000000.0 -603164000000.0 -521462000000.0 -181121000000.0 -611642000000.0 -224462000000.0 -536949000000.0 -592629000000.0 -609709000000.0 -658522000000.0 -762721000000.0 -790723000000.0 -813109000000.0 -664896000000.0 -733577000000.0 -787125000000.0 -759074000000.0 -661247000000.0 -576731000000.0 -507348000000.0 -496040000000.0 -497168000000.0 -517297000000.0 -514883000000.0 -498466000000.0 -480284000000.0 -462331000000.0 -439096000000.0 -540159000000.0 -592597000000.0 -575756000000.0 -459154000000.0 -515113000000.0 -721285000000.0 -630745000000.0 -747199000000.0 -818996000000.0 -515312000000.0 -555465000000.0 -534856000000.0 -421514000000.0 -336932000000.0 -523874000000.0 -581919000000.0 -510163000000.0 -448232000000.0 -430641000000.0 -443204000000.0 -439388000000.0 -484794000000.0 -513542000000.0 -514417000000.0 -505243000000.0 -510170000000.0 -583839000000.0 -656993000000.0 -751490000000.0 -782090000000.0 -730903000000.0 -660686000000.0 -814859000000.0 -792939000000.0 -763815000000.0 -658847000000.0 -609378000000.0 -592369000000.0 -536957000000.0 -224459000000.0 -611421000000.0 -181422000000.0 -87839400000.0 -37751300000.0 -461547000000.0 -226296000000.0 -441511000000.0 -487810000000.0 -568310000000.0 -650668000000.0 -719238000000.0 -622999000000.0 -222894000000.0 -417606000000.0 -410742000000.0 -395133000000.0 -357485000000.0 -358558000000.0 -348534000000.0 -371400000000.0 -512726000000.0 -255761000000.0 -478749000000.0 -291830000000.0 -381235000000.0 -581164000000.0 -653692000000.0 -478091000000.0 -525731000000.0 -156078000000.0 -541546000000.0 -43815600000.0 -247103000000.0 -485962000000.0 -540753000000.0 -566651000000.0 -517651000000.0 -383689000000.0 -294087000000.0 -523630000000.0 -268346000000.0 -517064000000.0 -387279000000.0 -304907000000.0 -313930000000.0 -311675000000.0 -331038000000.0 -398930000000.0 -426873000000.0 -214467000000.0 -622680000000.0 -719378000000.0 -651423000000.0 -568821000000.0 -487986000000.0 -441498000000.0 -226251000000.0 -461352000000.0 -37800100000.0 -87981300000.0 -185077000000.0 -317777000000.0 -349563000000.0 -328533000000.0 -376303000000.0 -506111000000.0 -521083000000.0 -544835000000.0 -497385000000.0 -431834000000.0 -437183000000.0 -434698000000.0 -439637000000.0 -633364000000.0 -553035000000.0 -396290000000.0 -447126000000.0 -587463000000.0 -800278000000.0 -782854000000.0 -641070000000.0 -444897000000.0 -375744000000.0 -559293000000.0 -627900000000.0 -420359000000.0 -430879000000.0 -434991000000.0 -422449000000.0 -498731000000.0 -542223000000.0 -515414000000.0 -503503000000.0 -376526000000.0 -328716000000.0 -349700000000.0 -317806000000.0 -185101000000.0 -96778600000.0 -419361000000.0 -531777000000.0 -634938000000.0 -667040000000.0 -129923000000.0 -167066000000.0 -319968000000.0 -362450000000.0 -459708000000.0 -442535000000.0 -392782000000.0 -404525000000.0 -393504000000.0 -364171000000.0 -329915000000.0 -308280000000.0 -296733000000.0 -348102000000.0 -393454000000.0 -505990000000.0 -555969000000.0 -475022000000.0 -174545000000.0 -191585000000.0 -365504000000.0 -628523000000.0 -389899000000.0 -318467000000.0 -147244000000.0 -224654000000.0 -498167000000.0 -549204000000.0 -514298000000.0 -408939000000.0 -384979000000.0 -330996000000.0 -305132000000.0 -336479000000.0 -355819000000.0 -386188000000.0 -396565000000.0 -383363000000.0 -441603000000.0 -456186000000.0 -360524000000.0 -317868000000.0 -166506000000.0 -123200000000.0 -667816000000.0 -636616000000.0 -533238000000.0 -420332000000.0 -96805400000.0 -35815500000.0 -80858700000.0 -125291000000.0 -53906500000.0 -126746000000.0 -187932000000.0 -300328000000.0 -422113000000.0 -506041000000.0 -36597900000.0 -59844100000.0 -114077000000.0 -252956000000.0 -321422000000.0 -361687000000.0 -317712000000.0 -340583000000.0 -343254000000.0 -312469000000.0 -278919000000.0 -235281000000.0 -180118000000.0 -182554000000.0 -258022000000.0 -313648000000.0 -95357800000.0 -272740000000.0 -78184900000.0 -238407000000.0 -159082000000.0 -363432000000.0 -245971000000.0 -327096000000.0 -167938000000.0 -354748000000.0 -111350000000.0 -187528000000.0 -66288300000.0 -45135900000.0 -435477000000.0 -226761000000.0 -459819000000.0 -313274000000.0 -401962000000.0 -193916000000.0 -270387000000.0 -118602000000.0 -322031000000.0 -134984000000.0 -317307000000.0 -257111000000.0 -209662000000.0 -195241000000.0 -223574000000.0 -270797000000.0 -303537000000.0 -334496000000.0 -331214000000.0 -308949000000.0 -358408000000.0 -321441000000.0 -251960000000.0 -114605000000.0 -64550400000.0 -40833600000.0 -506265000000.0 -423253000000.0 -301144000000.0 -188337000000.0 -125869000000.0 -54013000000.0 -125455000000.0 -80816100000.0 -35794500000.0 -66103900000.0 -72003400000.0 -120471000000.0 -262244000000.0 -380546000000.0 -347970000000.0 -310621000000.0 -309569000000.0 -283662000000.0 -390175000000.0 -281554000000.0 -614734000000.0 -507136000000.0 -332503000000.0 -277670000000.0 -274841000000.0 -320393000000.0 -329627000000.0 -268719000000.0 -122127000000.0 -72241400000.0 -66466900000.0 -9033660000.0 -14943300000.0 -196367000000.0 -286653000000.0 -416052000000.0 -186269000000.0 -125919000000.0 -125001000000.0 -74892600000.0 -231506000000.0 -223777000000.0 -252677000000.0 -328548000000.0 -387481000000.0 -416349000000.0 -394408000000.0 -355278000000.0 -333007000000.0 -298067000000.0 -322306000000.0 -301362000000.0 -307764000000.0 -317459000000.0 -321250000000.0 -249741000000.0 -279231000000.0 -364415000000.0 -485277000000.0 -374860000000.0 -303713000000.0 -331676000000.0 -271304000000.0 -269370000000.0 -267133000000.0 -292571000000.0 -286484000000.0 -304245000000.0 -340204000000.0 -379317000000.0 -401383000000.0 -371282000000.0 -315938000000.0 -246019000000.0 -224155000000.0 -232799000000.0 -75007600000.0 -124983000000.0 -126452000000.0 -186824000000.0 -417036000000.0 -287460000000.0 -197147000000.0 -14883900000.0 -9033780000.0 -29429200000.0 -71003400000.0 -138558000000.0 -148896000000.0 -229246000000.0 -311595000000.0 -352508000000.0 -371504000000.0 -64159500000.0 -15993300000.0 -30146400000.0 -45150300000.0 -103822000000.0 -129394000000.0 -152380000000.0 -176988000000.0 -214291000000.0 -229396000000.0 -240023000000.0 -237293000000.0 -245319000000.0 -169095000000.0 -104404000000.0 -62203800000.0 -61586000000.0 -39923900000.0 -18698700000.0 -69598700000.0 -19626800000.0 -104986000000.0 -16459800000.0 -105205000000.0 -16302300000.0 -51674700000.0 -150248000000.0 -134749000000.0 -69853200000.0 -264623000000.0 -180234000000.0 -110937000000.0 -172725000000.0 -115401000000.0 -55710600000.0 -159146000000.0 -54704000000.0 -109474000000.0 -45618200000.0 -74917200000.0 -30070300000.0 -35833200000.0 -38662400000.0 -32194600000.0 -98410200000.0 -160925000000.0 -234138000000.0 -225178000000.0 -228148000000.0 -220592000000.0 -206324000000.0 -165272000000.0 -151185000000.0 -130139000000.0 -106547000000.0 -46114000000.0 -30620300000.0 -16143100000.0 -64391400000.0 -372428000000.0 -353054000000.0 -312125000000.0 -229637000000.0 -148886000000.0 -138932000000.0 -70936500000.0 -29382900000.0 -79393400000.0 -10520300000.0 -9638030000.0 -44004800000.0 -12030900000.0 -29378000000.0 -88523900000.0 -163938000000.0 -315116000000.0 -142244000000.0 -76141200000.0 -45818700000.0 -20811700000.0 -55975900000.0 -86694600000.0 -108956000000.0 -139912000000.0 -201474000000.0 -252750000000.0 -296007000000.0 -313796000000.0 -337319000000.0 -284550000000.0 -235060000000.0 -230471000000.0 -193629000000.0 -201722000000.0 -158754000000.0 -205126000000.0 -145773000000.0 -230159000000.0 -138732000000.0 -220111000000.0 -130825000000.0 -169622000000.0 -207240000000.0 -184044000000.0 -127476000000.0 -258770000000.0 -74910100000.0 -78644400000.0 -47348600000.0 -17347700000.0 -103737000000.0 -18858200000.0 -78063200000.0 -35392300000.0 -80664800000.0 -63028700000.0 -98473000000.0 -111759000000.0 -134752000000.0 -174028000000.0 -225308000000.0 -285724000000.0 -272580000000.0 -263603000000.0 -229100000000.0 -183286000000.0 -126220000000.0 -109147000000.0 -86943100000.0 -57826900000.0 -20900300000.0 -46071800000.0 -76472000000.0 -142567000000.0 -316248000000.0 -164918000000.0 -89217100000.0 -29936000000.0 -12071900000.0 -44374800000.0 -9641890000.0 -10538200000.0 -15514500000.0 -17725600000.0 -53512100000.0 -25229400000.0 -40958000000.0 -98385100000.0 -153294000000.0 -234105000000.0 -68241600000.0 -23419700000.0 -33706300000.0 -47104400000.0 -91976200000.0 -121897000000.0 -145220000000.0 -160160000000.0 -183402000000.0 -183032000000.0 -172395000000.0 -141852000000.0 -129054000000.0 -68652100000.0 -32543200000.0 -49468200000.0 -10079900000.0 -56447200000.0 -9882520000.0 -74679200000.0 -10172300000.0 -109114000000.0 -11509200000.0 -105443000000.0 -12843800000.0 -63915700000.0 -80156900000.0 -126600000000.0 -19463600000.0 -117473000000.0 -230244000000.0 -163528000000.0 -152415000000.0 -145975000000.0 -95552200000.0 -164818000000.0 -80301800000.0 -121240000000.0 -62585200000.0 -87910100000.0 -46485700000.0 -62487800000.0 -30495000000.0 -29339700000.0 -31036100000.0 -57368800000.0 -116253000000.0 -130867000000.0 -163032000000.0 -175982000000.0 -176382000000.0 -151416000000.0 -145027000000.0 -121110000000.0 -93305000000.0 -46872000000.0 -33466800000.0 -23181600000.0 -68235300000.0 -234932000000.0 -153962000000.0 -98903700000.0 -41495700000.0 -25191400000.0 -53815000000.0 -17702700000.0 -15546500000.0 -15841000000.0 -11953500000.0 -41270800000.0 -9423880000.0 -15204100000.0 -59369300000.0 -110130000000.0 -193070000000.0 -74467900000.0 -14600100000.0 -12579500000.0 -16198000000.0 -41877500000.0 -59498300000.0 -80682500000.0 -98166600000.0 -130745000000.0 -146735000000.0 -155703000000.0 -141159000000.0 -135962000000.0 -81156500000.0 -60213200000.0 -67851800000.0 -34323400000.0 -80781000000.0 -37155900000.0 -99564100000.0 -41837100000.0 -133414000000.0 -46650000000.0 -133900000000.0 -52018900000.0 -111281000000.0 -108124000000.0 -152417000000.0 -35486000000.0 -118345000000.0 -123975000000.0 -74123400000.0 -30948300000.0 -58746700000.0 -11637100000.0 -86346700000.0 -10471100000.0 -61390400000.0 -10414800000.0 -46119700000.0 -12465900000.0 -41315400000.0 -15606000000.0 -24212900000.0 -41939800000.0 -61308100000.0 -117037000000.0 -125630000000.0 -143731000000.0 -137430000000.0 -122956000000.0 -90948800000.0 -81384600000.0 -59045600000.0 -43597800000.0 -16264100000.0 -12605000000.0 -14607300000.0 -74684700000.0 -193973000000.0 -110785000000.0 -59877300000.0 -15481200000.0 -9424770000.0 -41563300000.0 -11955800000.0 -15901900000.0 -18192900000.0 -13309200000.0 -38989400000.0 -10149500000.0 -16723300000.0 -50208100000.0 -95278800000.0 -162791000000.0 -75273000000.0 -12778300000.0 -13155100000.0 -21530800000.0 -42188700000.0 -55848100000.0 -77059500000.0 -92924600000.0 -119871000000.0 -128422000000.0 -130827000000.0 -109667000000.0 -98685800000.0 -47548300000.0 -38111400000.0 -38208700000.0 -9035750000.0 -53948000000.0 -9035750000.0 -66815500000.0 -9035750000.0 -93064400000.0 -10073200000.0 -90593600000.0 -10076300000.0 -70256900000.0 -50684700000.0 -127116000000.0 -13709300000.0 -122838000000.0 -131478000000.0 -121124000000.0 -57315000000.0 -94874100000.0 -39754100000.0 -103108000000.0 -31768800000.0 -76450100000.0 -24411900000.0 -54274300000.0 -18316900000.0 -44302800000.0 -13006700000.0 -15815300000.0 -33975500000.0 -40728600000.0 -90953700000.0 -102753000000.0 -125532000000.0 -123829000000.0 -115152000000.0 -87535000000.0 -77463500000.0 -54975200000.0 -43549700000.0 -21474600000.0 -13044400000.0 -12693200000.0 -75474900000.0 -163527000000.0 -95774200000.0 -50593700000.0 -16820500000.0 -10126300000.0 -39214200000.0 -13301600000.0 -18263200000.0 -20033400000.0 -14165300000.0 -35432900000.0 -9999730000.0 -17479100000.0 -41780900000.0 -80420800000.0 -135878000000.0 -77108100000.0 -13285700000.0 -12761000000.0 -22358800000.0 -37869700000.0 -47029600000.0 -66827400000.0 -82158100000.0 -107448000000.0 -115565000000.0 -119050000000.0 -98968500000.0 -87696400000.0 -42816700000.0 -39601900000.0 -33243800000.0 -9035750000.0 -51123700000.0 -9035750000.0 -61836400000.0 -9035750000.0 -85111700000.0 -14267500000.0 -89200400000.0 -18689700000.0 -83167700000.0 -56855300000.0 -139406000000.0 -24794600000.0 -126748000000.0 -85982600000.0 -90149200000.0 -11229100000.0 -62262400000.0 -9959330000.0 -72563600000.0 -9035750000.0 -55447200000.0 -9035750000.0 -41447400000.0 -9035750000.0 -37275400000.0 -9035750000.0 -14103400000.0 -35346600000.0 -37529000000.0 -81731200000.0 -93478900000.0 -114899000000.0 -112011000000.0 -103911000000.0 -78292700000.0 -67561200000.0 -46362100000.0 -39172700000.0 -22452300000.0 -12767200000.0 -13294600000.0 -77403700000.0 -136573000000.0 -80907500000.0 -42121500000.0 -17592400000.0 -10001500000.0 -35625400000.0 -14167300000.0 -20115200000.0 -21514300000.0 -15106300000.0 -31949300000.0 -10288400000.0 -18550300000.0 -36350500000.0 -68242000000.0 -112722000000.0 -76906500000.0 -14424000000.0 -13884700000.0 -25099000000.0 -37512400000.0 -43446600000.0 -61615800000.0 -76336900000.0 -99031300000.0 -105344000000.0 -107962000000.0 -88076300000.0 -76655700000.0 -39546600000.0 -38870600000.0 -28898700000.0 -9035750000.0 -48220100000.0 -9035750000.0 -57232400000.0 -9035750000.0 -74100200000.0 -9035750000.0 -77081900000.0 -9035750000.0 -70291600000.0 -33565500000.0 -124612000000.0 -10222600000.0 -129837000000.0 -85516700000.0 -105355000000.0 -20492500000.0 -69304800000.0 -13990000000.0 -66588100000.0 -9035750000.0 -52020300000.0 -9035750000.0 -39508300000.0 -9035750000.0 -36435800000.0 -9035750000.0 -14265900000.0 -34846500000.0 -35332200000.0 -72067300000.0 -83781400000.0 -104771000000.0 -102627000000.0 -96247400000.0 -73345800000.0 -62237300000.0 -42834800000.0 -38583900000.0 -25200700000.0 -13888100000.0 -14436200000.0 -77200200000.0 -113311000000.0 -68667900000.0 -36613600000.0 -18663600000.0 -10290000000.0 -32096500000.0 -15108300000.0 -21595900000.0 -22541100000.0 -15914000000.0 -28508400000.0 -10534700000.0 -19198800000.0 -32524200000.0 -58005300000.0 -93246900000.0 -74880500000.0 -15416300000.0 -14755100000.0 -27122100000.0 -37357600000.0 -40742900000.0 -56990600000.0 -71005700000.0 -91411500000.0 -96480300000.0 -98421400000.0 -79130400000.0 -67886300000.0 -38450100000.0 -37484800000.0 -25561200000.0 -9035750000.0 -45300600000.0 -9035750000.0 -52963800000.0 -9035750000.0 -66655700000.0 -9035750000.0 -71419000000.0 -9035750000.0 -68409400000.0 -28208900000.0 -119925000000.0 -12006700000.0 -130114000000.0 -62794000000.0 -94364600000.0 -9035750000.0 -59160100000.0 -9035750000.0 -59790800000.0 -9035750000.0 -48754000000.0 -9035750000.0 -37552600000.0 -9035750000.0 -35270700000.0 -9035750000.0 -14749800000.0 -33694000000.0 -34937300000.0 -64354100000.0 -75750100000.0 -95942700000.0 -94400500000.0 -89236200000.0 -68723200000.0 -57431500000.0 -40257300000.0 -38242400000.0 -27227500000.0 -14759900000.0 -15428200000.0 -75154900000.0 -93734100000.0 -58361400000.0 -32727100000.0 -19304000000.0 -10536000000.0 -28617000000.0 -15915900000.0 -22611700000.0 -23128200000.0 -16577400000.0 -25308600000.0 -10739100000.0 -19442400000.0 -29799100000.0 -49661300000.0 -77335200000.0 -71465600000.0 -16261300000.0 -15556700000.0 -28767900000.0 -37618200000.0 -39055800000.0 -53384700000.0 -66533200000.0 -84761600000.0 -88692700000.0 -89888100000.0 -71337500000.0 -60480400000.0 -37680000000.0 -35457300000.0 -23021700000.0 -9035750000.0 -42416000000.0 -9035750000.0 -48994900000.0 -9035750000.0 -60293500000.0 -9035750000.0 -66226000000.0 -9035750000.0 -65779900000.0 -23730200000.0 -115042000000.0 -9035750000.0 -54509200000.0 -92769200000.0 -9035750000.0 -56570600000.0 -9035750000.0 -54749600000.0 -9035750000.0 -45657700000.0 -9035750000.0 -35625700000.0 -9035750000.0 -33874800000.0 -9035750000.0 -15173600000.0 -31933700000.0 -34647700000.0 -57773300000.0 -68686200000.0 -87955100000.0 -87091200000.0 -83081200000.0 -64806600000.0 -53620200000.0 -38723700000.0 -38332000000.0 -28871900000.0 -15561200000.0 -16272700000.0 -71713800000.0 -77731800000.0 -49946000000.0 -29952100000.0 -19530100000.0 -10740300000.0 -25386600000.0 -16579200000.0 -23183000000.0 -128846000000.0 -23335200000.0 -17088400000.0 -22470200000.0 -10902300000.0 -19334400000.0 -27821300000.0 -42985700000.0 -64572000000.0 -67118600000.0 -16924500000.0 -16209100000.0 -29931700000.0 -37927400000.0 -37922500000.0 -50401700000.0 -62594500000.0 -78821000000.0 -81798500000.0 -82299100000.0 -64629700000.0 -54337600000.0 -36641600000.0 -33086700000.0 -21138500000.0 -9035750000.0 -39614600000.0 -9035750000.0 -45296300000.0 -9035750000.0 -54827100000.0 -9035750000.0 -61394000000.0 -9035750000.0 -62602200000.0 -20037800000.0 -109251000000.0 -9035750000.0 -128585000000.0 -47359000000.0 -89854400000.0 -9035750000.0 -53701500000.0 -9035750000.0 -50305300000.0 -9035750000.0 -42738200000.0 -9035750000.0 -33748700000.0 -9035750000.0 -32344100000.0 -9035750000.0 -15468400000.0 -29859100000.0 -33988400000.0 -52252600000.0 -62537800000.0 -80776700000.0 -80553200000.0 -77545900000.0 -61307500000.0 -50470700000.0 -37742300000.0 -38475900000.0 -30030100000.0 -16213100000.0 -16935300000.0 -67336900000.0 -64888800000.0 -43204200000.0 -27931300000.0 -19401600000.0 -10903200000.0 -22525200000.0 -17090100000.0 -23375200000.0 -23234600000.0 -17442800000.0 -20046400000.0 -11024600000.0 -18955400000.0 -26283800000.0 -37700300000.0 -54456900000.0 -62224400000.0 -17401200000.0 -16706400000.0 -30631300000.0 -38064600000.0 -37156600000.0 -47853500000.0 -59062400000.0 -73463300000.0 -75646800000.0 -75538400000.0 -58860800000.0 -49262300000.0 -35237400000.0 -30587500000.0 -19750200000.0 -9035750000.0 -36930900000.0 -9035750000.0 -41847400000.0 -9035750000.0 -50091100000.0 -9035750000.0 -56847400000.0 -9035750000.0 -59061900000.0 -17063500000.0 -102807000000.0 -9035750000.0 -41227100000.0 -85982800000.0 -9035750000.0 -50650700000.0 -9035750000.0 -46378800000.0 -9035750000.0 -39995600000.0 -9035750000.0 -31927200000.0 -9035750000.0 -30752200000.0 -9035750000.0 -15627100000.0 -27678700000.0 -32914100000.0 -47631100000.0 -57190600000.0 -74325200000.0 -74667900000.0 -72505800000.0 -58113200000.0 -47803500000.0 -37093200000.0 -38473600000.0 -30720900000.0 -16709900000.0 -17411200000.0 -62410400000.0 -54702800000.0 -37861500000.0 -26359300000.0 -19004200000.0 -11025300000.0 -20084700000.0 -17444200000.0 -23262900000.0 -126940000000.0 -22891000000.0 -17639300000.0 -18036800000.0 -11106100000.0 -18390300000.0 -24925500000.0 -33523200000.0 -46489900000.0 -57085000000.0 -17691200000.0 -17045300000.0 -30891600000.0 -37868500000.0 -36548800000.0 -45582400000.0 -55818500000.0 -68563300000.0 -70086100000.0 -69467600000.0 -53858300000.0 -45026700000.0 -33548000000.0 -28108200000.0 -18703400000.0 -9035750000.0 -34381100000.0 -9035750000.0 -38632100000.0 -9035750000.0 -45939400000.0 -9035750000.0 -52550800000.0 -9035750000.0 -55302800000.0 -14735900000.0 -95960400000.0 -9035750000.0 -123925000000.0 -36008900000.0 -81450300000.0 -9035750000.0 -47498200000.0 -9035750000.0 -42857400000.0 -9035750000.0 -37418600000.0 -9035750000.0 -30161700000.0 -9035750000.0 -29141200000.0 -9035750000.0 -15656400000.0 -25532400000.0 -31523400000.0 -43725900000.0 -52507000000.0 -68491800000.0 -69310800000.0 -67844600000.0 -55114400000.0 -45453300000.0 -36560900000.0 -38174600000.0 -30970300000.0 -17048400000.0 -17700500000.0 -57237700000.0 -46674300000.0 -33638000000.0 -24976400000.0 -18424800000.0 -11106600000.0 -18063300000.0 -17640600000.0 -22910800000.0 -22356300000.0 -17680400000.0 -16405500000.0 -11147400000.0 -17711000000.0 -23595200000.0 -30185900000.0 -40205100000.0 -51923700000.0 -17798800000.0 -52751400000.0 -63997000000.0 -64973200000.0 -63948300000.0 -49456100000.0 -41420800000.0 -31676800000.0 -25745800000.0 -17870000000.0 -9035750000.0 -31967500000.0 -9035750000.0 -35634200000.0 -9035750000.0 -42244300000.0 -9035750000.0 -48483000000.0 -9035750000.0 -51435600000.0 -12970300000.0 -88893600000.0 -9035750000.0 -31609500000.0 -76475700000.0 -9035750000.0 -44309100000.0 -9035750000.0 -39647800000.0 -9035750000.0 -34986700000.0 -9035750000.0 -28449400000.0 -9035750000.0 -27535500000.0 -9035750000.0 -15566000000.0 -23505200000.0 -29926900000.0 -40365400000.0 -48350200000.0 -63158900000.0 -64356400000.0 -63454700000.0 -52218100000.0 -17807200000.0 -52044700000.0 -40338800000.0 -30265400000.0 -23629500000.0 -17735200000.0 -11147800000.0 -16423700000.0 -17681500000.0 -22370000000.0 -17225300000.0 -30743500000.0 -37272500000.0 -35887400000.0 -43455400000.0 -119672000000.0 -43280000000.0 -35944900000.0 -37505600000.0 -30810100000.0 -17227900000.0 -21670500000.0 -17571100000.0 -15098900000.0 -11149100000.0 -16971200000.0 -22248400000.0 -27453500000.0 -35195500000.0 -46895300000.0 -17732200000.0 -17248500000.0 -30222200000.0 -36279100000.0 -35026000000.0 -41364400000.0 -49760300000.0 -59648700000.0 -60180600000.0 -58853700000.0 -45508200000.0 -38268100000.0 -29709300000.0 -23556900000.0 -17154300000.0 -9035750000.0 -29684600000.0 -9035750000.0 -32835400000.0 -9035750000.0 -38896900000.0 -9035750000.0 -44620500000.0 -9035750000.0 -47545500000.0 -11672200000.0 -81743600000.0 -9035750000.0 -114347000000.0 -27921400000.0 -71210800000.0 -9035750000.0 -41134300000.0 -9035750000.0 -36678900000.0 -9035750000.0 -32675800000.0 -9035750000.0 -26784000000.0 -9035750000.0 -25949700000.0 -9035750000.0 -15368000000.0 -21640800000.0 -28212300000.0 -37400300000.0 -44595500000.0 -58212800000.0 -59688200000.0 -59236600000.0 -49346500000.0 -41169200000.0 -35109000000.0 -36458100000.0 -30276700000.0 -17250600000.0 -17739800000.0 -46988500000.0 -35290000000.0 -27507500000.0 -22271700000.0 -16987900000.0 -11149400000.0 -15111300000.0 -17572100000.0 -21679900000.0 -21566700000.0 -9035750000.0 -9035750000.0 -9035750000.0 -9035750000.0 -9035750000.0 -10747000000.0 -9035750000.0 -24829400000.0 -9035750000.0 -9035750000.0 -9035750000.0 -9035750000.0 -9035750000.0 -9035750000.0 -19953600000.0 -20864300000.0 -17319000000.0 -14057600000.0 -11112400000.0 -16207100000.0 -20896600000.0 -25140700000.0 -31130300000.0 -42101000000.0 -17502600000.0 -17119000000.0 -29365600000.0 -34923500000.0 -33895300000.0 -39227400000.0 -46761900000.0 -55419300000.0 -55601000000.0 -54072800000.0 -41891200000.0 -35425300000.0 -27708300000.0 -16491700000.0 -27522700000.0 -30216700000.0 -35808400000.0 -40939300000.0 -43695900000.0 -74615700000.0 -108070000000.0 -65764800000.0 -38005400000.0 -33894000000.0 -30461500000.0 -25157300000.0 -24390500000.0 -15075400000.0 -26441400000.0 -34705300000.0 -41134000000.0 -53551400000.0 -55206700000.0 -55103800000.0 -46434900000.0 -39031500000.0 -33989500000.0 -35060600000.0 -29408700000.0 -17120700000.0 -17509300000.0 -42171600000.0 -31195700000.0 -25176900000.0 -20912400000.0 -16218500000.0 -11112600000.0 -14066000000.0 -17319800000.0 -20870800000.0 -19961600000.0 -16933600000.0 -13224600000.0 -11038600000.0 -15441900000.0 -19564200000.0 -23113200000.0 -27755400000.0 -37602400000.0 -17123300000.0 -16842900000.0 -28213000000.0 -33250600000.0 -32476900000.0 -36986800000.0 -43693500000.0 -51231400000.0 -51148900000.0 -49512700000.0 -38503700000.0 -32780400000.0 -25716100000.0 -19777800000.0 -15841600000.0 -9035750000.0 -25469700000.0 -9035750000.0 -27758300000.0 -9035750000.0 -32909500000.0 -9035750000.0 -37418500000.0 -9035750000.0 -39928600000.0 -10108600000.0 -67585700000.0 -9035750000.0 -100945000000.0 -22226700000.0 -60220300000.0 -9035750000.0 -34939200000.0 -9035750000.0 -31248800000.0 -9035750000.0 -28321200000.0 -9035750000.0 -23561200000.0 -9035750000.0 -22858800000.0 -9035750000.0 -14701400000.0 -18439100000.0 -24655700000.0 -32180300000.0 -37874300000.0 -49087600000.0 -50832700000.0 -50988600000.0 -43432600000.0 -36802500000.0 -32571300000.0 -33354800000.0 -28245900000.0 -16844200000.0 -17129200000.0 -37655300000.0 -27800000000.0 -23137200000.0 -19574800000.0 -15449700000.0 -11038800000.0 -13230200000.0 -16934300000.0 -19966000000.0 -18980600000.0 -16426000000.0 -12548700000.0 -10929800000.0 -14689600000.0 -18270400000.0 -21278500000.0 -24884100000.0 -33431900000.0 -16609500000.0 -16427700000.0 -26802900000.0 -31305800000.0 -30778600000.0 -34606000000.0 -40513900000.0 -47029800000.0 -46760400000.0 -45098900000.0 -35265600000.0 -30249200000.0 -23758700000.0 -18177900000.0 -15182000000.0 -9035750000.0 -23512000000.0 -9035750000.0 -25440600000.0 -9035750000.0 -30148300000.0 -9035750000.0 -34040300000.0 -9035750000.0 -36266800000.0 -9683170000.0 -60704200000.0 -9035750000.0 -93077300000.0 -20021800000.0 -54638800000.0 -9035750000.0 -31944800000.0 -9035750000.0 -28709100000.0 -9035750000.0 -26233900000.0 -9035750000.0 -21988500000.0 -9035750000.0 -21352000000.0 -9035750000.0 -14258200000.0 -17081600000.0 -22881200000.0 -29749300000.0 -34743600000.0 -44752300000.0 -46506700000.0 -46842500000.0 -40305900000.0 -34440500000.0 -30865300000.0 -31384200000.0 -26827200000.0 -16428700000.0 -16614500000.0 -33471100000.0 -24914100000.0 -21294200000.0 -18277600000.0 -14694800000.0 -10929900000.0 -12552500000.0 -16426500000.0 -18983500000.0 -17935400000.0 -15808300000.0 -11986800000.0 -10788400000.0 -13957100000.0 -17025900000.0 -19576800000.0 -22382700000.0 -29599100000.0 -15976900000.0 -15882600000.0 -25171700000.0 -29131700000.0 -28820400000.0 -32065700000.0 -37201500000.0 -42778700000.0 -42390300000.0 -40775000000.0 -32117000000.0 -27772000000.0 -21850100000.0 -16745900000.0 -14504000000.0 -9035750000.0 -21635600000.0 -9035750000.0 -23244100000.0 -9035750000.0 -27487500000.0 -9035750000.0 -30788500000.0 -9035750000.0 -32719500000.0 -9410250000.0 -54000900000.0 -9035750000.0 -84569700000.0 -18136600000.0 -49063600000.0 -9035750000.0 -29025700000.0 -9035750000.0 -26249000000.0 -9035750000.0 -24181600000.0 -9035750000.0 -20433200000.0 -9035750000.0 -19865700000.0 -9035750000.0 -13757200000.0 -15860400000.0 -21133200000.0 -27358100000.0 -31686800000.0 -40493200000.0 -42187300000.0 -42634300000.0 -37037100000.0 -31923000000.0 -28894900000.0 -29190200000.0 -25189100000.0 -15883400000.0 -15981100000.0 -29627900000.0 -22402600000.0 -19587200000.0 -17030700000.0 -13960600000.0 -10788400000.0 -11989300000.0 -15808700000.0 -17937400000.0 -16837600000.0 -15093300000.0 -11504000000.0 -10617000000.0 -13246900000.0 -15833700000.0 -17973100000.0 -20155600000.0 -26095400000.0 -15241600000.0 -15218700000.0 -23353500000.0 -26767700000.0 -26629000000.0 -29361300000.0 -33750400000.0 -38458100000.0 -38009500000.0 -36501000000.0 -29015500000.0 -25309900000.0 -19995900000.0 -15457100000.0 -13806700000.0 -9035750000.0 -19826900000.0 -9035750000.0 -21150400000.0 -9035750000.0 -24900100000.0 -9035750000.0 -27647400000.0 -9035750000.0 -29285600000.0 -9242390000.0 -47488200000.0 -9035750000.0 -75512400000.0 -16504300000.0 -43523600000.0 -9035750000.0 -26180100000.0 -9035750000.0 -23849100000.0 -9035750000.0 -22149300000.0 -9035750000.0 -18890300000.0 -9035750000.0 -18395100000.0 -9035750000.0 -13208400000.0 -14752700000.0 -19418900000.0 -24971300000.0 -28665200000.0 -36273600000.0 -37848300000.0 -38347000000.0 -33622000000.0 -29243000000.0 -26689500000.0 -26811100000.0 -23365600000.0 -15219200000.0 -15245100000.0 -26116300000.0 -20168700000.0 -17980000000.0 -15836800000.0 -13249200000.0 -10617000000.0 -11505600000.0 -15093700000.0 -16838800000.0 -15696400000.0 -14294300000.0 -11073400000.0 -10418900000.0 -12558100000.0 -14691600000.0 -16448500000.0 -18135000000.0 -22897800000.0 -14419300000.0 -14448200000.0 -21379800000.0 -24249900000.0 -24235200000.0 -26500300000.0 -30165900000.0 -34060500000.0 -33601400000.0 -32249900000.0 -25933200000.0 -22839800000.0 -18195500000.0 -14286300000.0 -13092400000.0 -9035750000.0 -18073300000.0 -9035750000.0 -19142000000.0 -9035750000.0 -22367200000.0 -9035750000.0 -24602000000.0 -9035750000.0 -25957500000.0 -9143800000.0 -41164000000.0 -9035750000.0 -65987100000.0 -15068900000.0 -38036300000.0 -9035750000.0 -23402500000.0 -9035750000.0 -21494300000.0 -9035750000.0 -20125500000.0 -9035750000.0 -17355700000.0 -9035750000.0 -16935400000.0 -9035750000.0 -12621000000.0 -13736400000.0 -17740000000.0 -22567900000.0 -25653100000.0 -32068900000.0 -33475100000.0 -33975800000.0 -30067500000.0 -26405900000.0 -24282200000.0 -24281500000.0 -21387900000.0 -14448600000.0 -14422200000.0 -22912700000.0 -18143500000.0 -16453000000.0 -14693600000.0 -12559600000.0 -10418900000.0 -11074400000.0 -14294500000.0 -15697300000.0 -14520200000.0 -13424500000.0 -10675300000.0 -10197600000.0 -11888100000.0 -13593900000.0 -14991200000.0 -16271600000.0 -19972000000.0 -13525300000.0 -13585200000.0 -19279300000.0 -21609900000.0 -21671600000.0 -23498400000.0 -26461400000.0 -29587600000.0 -29159200000.0 -28005000000.0 -22853100000.0 -20350500000.0 -16444600000.0 -13209300000.0 -12364700000.0 -9035750000.0 -16363200000.0 -9035750000.0 -17202600000.0 -9035750000.0 -19874800000.0 -9035750000.0 -21637800000.0 -9035750000.0 -22723300000.0 -9088800000.0 -35014700000.0 -9035750000.0 -56070900000.0 -13784300000.0 -32609900000.0 -9035750000.0 -20684900000.0 -9035750000.0 -19172800000.0 -9035750000.0 -18102500000.0 -9035750000.0 -15826400000.0 -9035750000.0 -15482600000.0 -9035750000.0 -12002500000.0 -12791100000.0 -16094700000.0 -20138200000.0 -22635200000.0 -27864600000.0 -29062500000.0 -29524200000.0 -26387900000.0 -23426000000.0 -21706600000.0 -21632700000.0 -19284500000.0 -13585500000.0 -13527600000.0 -19982400000.0 -16277100000.0 -14994200000.0 -13595200000.0 -11889100000.0 -10197600000.0 -10676000000.0 -13424700000.0 -14520800000.0 -13316300000.0 -12497300000.0 -10296200000.0 -9956960000.0 -11233200000.0 -12533200000.0 -13591500000.0 -14528600000.0 -17275800000.0 -12574100000.0 -12644800000.0 -17078500000.0 -18876100000.0 -18971200000.0 -20377100000.0 -22655300000.0 -25047600000.0 -24682700000.0 -23757300000.0 -19766300000.0 -17838700000.0 -14736200000.0 -12204400000.0 -11626800000.0 -9035750000.0 -14686500000.0 -9035750000.0 -15317100000.0 -9035750000.0 -17412800000.0 -9035750000.0 -18740100000.0 -9035750000.0 -19568100000.0 -9059900000.0 -29018000000.0 -9035750000.0 -45837700000.0 -12612900000.0 -27244200000.0 -9035750000.0 -18017400000.0 -9035750000.0 -16875500000.0 -9035750000.0 -16075700000.0 -9035750000.0 -14300100000.0 -9035750000.0 -14033500000.0 -9035750000.0 -11359800000.0 -11899300000.0 -14478600000.0 -17680300000.0 -19604100000.0 -23652800000.0 -24611600000.0 -25001700000.0 -22602500000.0 -20324200000.0 -18996200000.0 -18891900000.0 -17081600000.0 -12645000000.0 -12575800000.0 -17282800000.0 -14532100000.0 -13593300000.0 -12534000000.0 -11233800000.0 -9956970000.0 -10296600000.0 -12497400000.0 -13316600000.0 -12091300000.0 -11525800000.0 -9927070000.0 -9701030000.0 -10589500000.0 -11501000000.0 -12238500000.0 -12876100000.0 -14761600000.0 -11579300000.0 -11643200000.0 -14801700000.0 -16073200000.0 -16166400000.0 -17160900000.0 -18768900000.0 -20452400000.0 -20176000000.0 -19502800000.0 -16669400000.0 -15306200000.0 -13061700000.0 -11252300000.0 -10881500000.0 -9035750000.0 -13034400000.0 -9035750000.0 -13471700000.0 -9035750000.0 -14972900000.0 -9035750000.0 -15894300000.0 -9035750000.0 -16475200000.0 -9045800000.0 -23144800000.0 -9035750000.0 -35358700000.0 -11523600000.0 -21932100000.0 -9035750000.0 -15389500000.0 -9035750000.0 -14595100000.0 -9035750000.0 -14043100000.0 -9035750000.0 -12775400000.0 -9035750000.0 -12586200000.0 -9035750000.0 -10699100000.0 -11045600000.0 -12886000000.0 -15197000000.0 -16557800000.0 -19430900000.0 -20127500000.0 -20421500000.0 -18733600000.0 -17125200000.0 -16182900000.0 -16083400000.0 -14803500000.0 -11643300000.0 -11580500000.0 -14766100000.0 -12878200000.0 -12239600000.0 -11501500000.0 -10589900000.0 -9701030000.0 -9927300000.0 -11525800000.0 -12091500000.0 -10851600000.0 -10522800000.0 -9562630000.0 -9434100000.0 -9953520000.0 -10488800000.0 -10920000000.0 -11287100000.0 -12378400000.0 -10554100000.0 -10597400000.0 -12471900000.0 -13222900000.0 -13288100000.0 -13876100000.0 -14824800000.0 -15816300000.0 -15645800000.0 -15241000000.0 -13562900000.0 -12757400000.0 -11411700000.0 -10335900000.0 -10131200000.0 -9035750000.0 -11398800000.0 -9035750000.0 -11653900000.0 -9035750000.0 -12547900000.0 -9035750000.0 -13085500000.0 -9035750000.0 -13426800000.0 -9039450000.0 -17361400000.0 -9035750000.0 -24702300000.0 -10489500000.0 -16661000000.0 -9035750000.0 -12789700000.0 -9035750000.0 -12325700000.0 -9035750000.0 -12005000000.0 -9035750000.0 -11251300000.0 -9035750000.0 -11139300000.0 -9035750000.0 -10025900000.0 -10217400000.0 -11310400000.0 -12694000000.0 -13498200000.0 -15199300000.0 -15617900000.0 -15798600000.0 -14804700000.0 -13855700000.0 -13297500000.0 -13228600000.0 -12472800000.0 -10597500000.0 -10554800000.0 -12380800000.0 -11288200000.0 -10920600000.0 -10489100000.0 -9953700000.0 -9434100000.0 -9562750000.0 -10522900000.0 -10851700000.0 -9603230000.0 -9501370000.0 -9200040000.0 -9160600000.0 -9321870000.0 -9488390000.0 -9622280000.0 -9735600000.0 -10073100000.0 -9511090000.0 -9525250000.0 -10110800000.0 -10344900000.0 -10366500000.0 -10549900000.0 -10845600000.0 -11154400000.0 -11100400000.0 -10973300000.0 -10449500000.0 -10198300000.0 -9776260000.0 -9439980000.0 -9377900000.0 -9035750000.0 -9772630000.0 -9035750000.0 -9851760000.0 -9035750000.0 -10131400000.0 -9035750000.0 -10298200000.0 -9035750000.0 -10404400000.0 -9036630000.0 -11630800000.0 -9035750000.0 -13935500000.0 -9487070000.0 -11414300000.0 -9035750000.0 -10206300000.0 -9035750000.0 -10062300000.0 -9035750000.0 -9962890000.0 -9035750000.0 -9727310000.0 -9035750000.0 -9692360000.0 -9035750000.0 -9345390000.0 -9403450000.0 -9744990000.0 -10178700000.0 -10429400000.0 -10960300000.0 -11091800000.0 -11149000000.0 -10839400000.0 -10543600000.0 -10369400000.0 -10346700000.0 -10111000000.0 -9525270000.0 -9511310000.0 -10073900000.0 -9735940000.0 -9622460000.0 -9488470000.0 -9321920000.0 -9160600000.0 -9200080000.0 -9501380000.0 -9603260000.0 
SCALARS Shear_Stress float 1
LOOKUP_TABLE default
18876100000.0 18214400000.0 9035750000.0 14656400000.0 52968400000.0 39392700000.0 71355400000.0 31726300000.0 65190100000.0 38070600000.0 35519600000.0 49671500000.0 27185700000.0 50099700000.0 45918200000.0 53645000000.0 14176200000.0 9035750000.0 10816800000.0 52976300000.0 36188900000.0 2583330000.0 74572700000.0 68041900000.0 15511200000.0 150019000000.0 135725000000.0 7165950000.0 61056600000.0 59586900000.0 15667400000.0 39309400000.0 50634400000.0 10980300000.0 7278010000.0 36956300000.0 61087200000.0 124325000000.0 255868000000.0 92635200000.0 112744000000.0 57623400000.0 51815500000.0 103683000000.0 224847000000.0 131856000000.0 46569600000.0 37704000000.0 7385450000.0 148281000000.0 99453500000.0 203063000000.0 68463800000.0 266126000000.0 99383800000.0 253420000000.0 45635400000.0 119954000000.0 116428000000.0 60068900000.0 21189700000.0 246004000000.0 86965700000.0 271813000000.0 76487300000.0 201771000000.0 98507100000.0 143790000000.0 21102500000.0 181322000000.0 145250000000.0 13827300000.0 42692900000.0 291208000000.0 100508000000.0 20807800000.0 79217500000.0 106175000000.0 186349000000.0 42218100000.0 126574000000.0 128864000000.0 309828000000.0 54445300000.0 22265000000.0 150456000000.0 180427000000.0 23478300000.0 65182700000.0 192885000000.0 39914600000.0 102681000000.0 309874000000.0 18094500000.0 109701000000.0 50535400000.0 313759000000.0 237166000000.0 143348000000.0 26818300000.0 274257000000.0 97032600000.0 28728300000.0 189342000000.0 63478900000.0 151960000000.0 288380000000.0 65656600000.0 129934000000.0 140682000000.0 283653000000.0 165202000000.0 310164000000.0 553386000000.0 401437000000.0 262524000000.0 266643000000.0 165241000000.0 134957000000.0 77188400000.0 286323000000.0 153495000000.0 258941000000.0 120587000000.0 149432000000.0 157624000000.0 139790000000.0 149554000000.0 387862000000.0 418385000000.0 146210000000.0 633069000000.0 442593000000.0 354506000000.0 370059000000.0 352996000000.0 177431000000.0 122835000000.0 158086000000.0 153669000000.0 119128000000.0 262635000000.0 452480000000.0 212807000000.0 103300000000.0 129816000000.0 445351000000.0 355816000000.0 104635000000.0 3474640000.0 281209000000.0 486964000000.0 355973000000.0 150712000000.0 162065000000.0 361413000000.0 432481000000.0 111196000000.0 104862000000.0 220182000000.0 442464000000.0 120985000000.0 31083800000.0 221791000000.0 203786000000.0 183569000000.0 232457000000.0 226466000000.0 266923000000.0 282345000000.0 80382900000.0 318443000000.0 150251000000.0 311510000000.0 210188000000.0 174276000000.0 199505000000.0 223329000000.0 19467500000.0 121018000000.0 9070050000.0 456907000000.0 444573000000.0 540598000000.0 53642800000.0 89047600000.0 233559000000.0 291163000000.0 14600800000.0 220594000000.0 238817000000.0 198695000000.0 268751000000.0 293015000000.0 288666000000.0 202275000000.0 109540000000.0 33795800000.0 559861000000.0 463889000000.0 447866000000.0 9057860000.0 240035000000.0 229322000000.0 465589000000.0 607849000000.0 618867000000.0 228762000000.0 305605000000.0 394423000000.0 238815000000.0 66325200000.0 661856000000.0 576152000000.0 680656000000.0 177920000000.0 259875000000.0 304450000000.0 312253000000.0 255639000000.0 245835000000.0 632671000000.0 632675000000.0 443076000000.0 226012000000.0 239112000000.0 250624000000.0 405514000000.0 1.37851e+12 685637000000.0 700204000000.0 717307000000.0 376091000000.0 457668000000.0 445083000000.0 42094500000.0 129328000000.0 141527000000.0 222973000000.0 47612400000.0 296670000000.0 378254000000.0 341078000000.0 711163000000.0 704939000000.0 700639000000.0 1.38168e+12 407828000000.0 254051000000.0 224833000000.0 330416000000.0 376389000000.0 450682000000.0 1.55446e+12 993757000000.0 1.01794e+12 972165000000.0 673219000000.0 664189000000.0 667342000000.0 548466000000.0 469899000000.0 295615000000.0 238377000000.0 32479700000.0 177982000000.0 384129000000.0 618517000000.0 668278000000.0 680587000000.0 973545000000.0 1.01859e+12 999521000000.0 1.56317e+12 448522000000.0 368830000000.0 322809000000.0 231780000000.0 278028000000.0 260594000000.0 513596000000.0 342975000000.0 791315000000.0 754271000000.0 783768000000.0 647497000000.0 606666000000.0 576047000000.0 527524000000.0 681167000000.0 780766000000.0 1.01638e+12 383228000000.0 311504000000.0 343731000000.0 472614000000.0 521463000000.0 600111000000.0 655248000000.0 789370000000.0 760861000000.0 801005000000.0 346351000000.0 510444000000.0 252321000000.0 273770000000.0 475171000000.0 178835000000.0 53218000000.0 419581000000.0 404471000000.0 1.14145e+12 596232000000.0 753179000000.0 670490000000.0 601099000000.0 525415000000.0 430668000000.0 826238000000.0 1.03333e+12 955849000000.0 822201000000.0 709338000000.0 528654000000.0 468200000000.0 539202000000.0 616959000000.0 681667000000.0 759813000000.0 603213000000.0 1.16325e+12 407234000000.0 407922000000.0 50865100000.0 160606000000.0 484176000000.0 4108040000.0 604344000000.0 244101000000.0 255229000000.0 271023000000.0 67543700000.0 662347000000.0 596906000000.0 586085000000.0 662755000000.0 586338000000.0 526798000000.0 426305000000.0 198634000000.0 82989000000.0 914447000000.0 685466000000.0 664058000000.0 578817000000.0 517463000000.0 554133000000.0 601450000000.0 673162000000.0 596096000000.0 604523000000.0 680882000000.0 68607600000.0 276112000000.0 252972000000.0 224834000000.0 635704000000.0 14032700000.0 5082030000.0 136371000000.0 47482200000.0 387324000000.0 11475400000.0 58836700000.0 125018000000.0 138675000000.0 492446000000.0 480132000000.0 537976000000.0 520067000000.0 443851000000.0 449598000000.0 370484000000.0 298803000000.0 173004000000.0 257498000000.0 324243000000.0 369670000000.0 529862000000.0 546182000000.0 515446000000.0 521574000000.0 490796000000.0 543595000000.0 551101000000.0 490842000000.0 503523000000.0 143003000000.0 122790000000.0 48928200000.0 24605400000.0 344182000000.0 2938330000.0 139680000000.0 2363920000.0 53085300000.0 23666600000.0 196876000000.0 262308000000.0 146333000000.0 1.00678e+12 1.06307e+12 172927000000.0 301291000000.0 400469000000.0 384012000000.0 372239000000.0 458469000000.0 433125000000.0 498243000000.0 465012000000.0 421986000000.0 288944000000.0 90416000000.0 110345000000.0 315870000000.0 170169000000.0 452554000000.0 505072000000.0 488008000000.0 514790000000.0 447402000000.0 470551000000.0 385378000000.0 395453000000.0 410477000000.0 308706000000.0 175509000000.0 1.10655e+12 973437000000.0 142961000000.0 241761000000.0 199318000000.0 19541700000.0 51289700000.0 96801900000.0 215703000000.0 135187000000.0 32602500000.0 27956900000.0 195855000000.0 636496000000.0 465539000000.0 350529000000.0 347050000000.0 328737000000.0 445352000000.0 414346000000.0 402552000000.0 216200000000.0 254545000000.0 191602000000.0 107384000000.0 187498000000.0 480573000000.0 455949000000.0 460259000000.0 343543000000.0 357804000000.0 358404000000.0 482045000000.0 660992000000.0 181612000000.0 28335300000.0 33130300000.0 135943000000.0 217657000000.0 96004600000.0 139881000000.0 206988000000.0 156898000000.0 94288900000.0 175145000000.0 123587000000.0 19746000000.0 494639000000.0 455518000000.0 428145000000.0 434583000000.0 382555000000.0 351929000000.0 306382000000.0 239458000000.0 261289000000.0 146141000000.0 540539000000.0 830762000000.0 549234000000.0 252034000000.0 271061000000.0 289224000000.0 304317000000.0 418046000000.0 358599000000.0 476339000000.0 301253000000.0 329761000000.0 84703200000.0 168181000000.0 234839000000.0 217673000000.0 596018000000.0 848395000000.0 548499000000.0 164669000000.0 277897000000.0 254104000000.0 319882000000.0 364043000000.0 394285000000.0 443178000000.0 437005000000.0 462569000000.0 479377000000.0 33766900000.0 123147000000.0 169976000000.0 90648900000.0 157256000000.0 207932000000.0 139448000000.0 167004000000.0 150226000000.0 180797000000.0 131354000000.0 79115900000.0 106320000000.0 168453000000.0 228114000000.0 212716000000.0 323461000000.0 451132000000.0 459021000000.0 431404000000.0 275523000000.0 163216000000.0 223007000000.0 2538200000.0 191406000000.0 416575000000.0 539593000000.0 533372000000.0 322830000000.0 124075000000.0 30164800000.0 216137000000.0 174800000000.0 288286000000.0 441969000000.0 465384000000.0 458617000000.0 322214000000.0 199562000000.0 231236000000.0 163837000000.0 104491000000.0 77909800000.0 131274000000.0 181118000000.0 150215000000.0 166680000000.0 148813000000.0 179842000000.0 151808000000.0 107794000000.0 22225100000.0 60121600000.0 283467000000.0 274636000000.0 103720000000.0 110448000000.0 401646000000.0 477698000000.0 361072000000.0 254193000000.0 193781000000.0 69331400000.0 29117800000.0 98362200000.0 383734000000.0 546011000000.0 622625000000.0 522565000000.0 319274000000.0 125582000000.0 45929800000.0 70369200000.0 203637000000.0 266219000000.0 373225000000.0 485335000000.0 401171000000.0 100105000000.0 112755000000.0 276381000000.0 280942000000.0 57079700000.0 21109100000.0 107320000000.0 151818000000.0 179730000000.0 148748000000.0 40706600000.0 181641000000.0 149295000000.0 93667500000.0 27510000000.0 34495400000.0 46633700000.0 190845000000.0 348947000000.0 111023000000.0 264201000000.0 465305000000.0 516792000000.0 469934000000.0 372584000000.0 181845000000.0 153540000000.0 220964000000.0 666931000000.0 898195000000.0 731363000000.0 355892000000.0 528934000000.0 528447000000.0 635401000000.0 646440000000.0 698911000000.0 650757000000.0 632470000000.0 493888000000.0 500654000000.0 322543000000.0 675911000000.0 898893000000.0 650573000000.0 206144000000.0 154294000000.0 186323000000.0 382966000000.0 477940000000.0 519501000000.0 466882000000.0 260261000000.0 117114000000.0 347669000000.0 188169000000.0 49456100000.0 36812400000.0 26305400000.0 93165700000.0 148990000000.0 181530000000.0 40498200000.0 24723700000.0 106134000000.0 267466000000.0 58883600000.0 5390140000.0 112849000000.0 193660000000.0 141043000000.0 364719000000.0 279894000000.0 44941100000.0 108283000000.0 235858000000.0 375944000000.0 488210000000.0 541637000000.0 236630000000.0 202877000000.0 238305000000.0 511394000000.0 570484000000.0 672265000000.0 626065000000.0 701644000000.0 706531000000.0 615217000000.0 638506000000.0 562747000000.0 495201000000.0 230019000000.0 202903000000.0 246296000000.0 546501000000.0 483468000000.0 371502000000.0 230173000000.0 101200000000.0 47970200000.0 280901000000.0 364602000000.0 140431000000.0 196215000000.0 115493000000.0 3501980000.0 57675200000.0 267377000000.0 106085000000.0 24501700000.0 57848700000.0 456267000000.0 341939000000.0 381448000000.0 221536000000.0 217698000000.0 222217000000.0 350051000000.0 264725000000.0 53208200000.0 181900000000.0 138942000000.0 331171000000.0 595584000000.0 722270000000.0 403225000000.0 242559000000.0 389474000000.0 623716000000.0 656911000000.0 667907000000.0 685220000000.0 725248000000.0 688034000000.0 651102000000.0 630853000000.0 611145000000.0 376299000000.0 253729000000.0 413637000000.0 723951000000.0 590622000000.0 324259000000.0 134797000000.0 181766000000.0 52547900000.0 266578000000.0 351658000000.0 225366000000.0 217687000000.0 221391000000.0 381566000000.0 341864000000.0 456546000000.0 57765200000.0 117506000000.0 333162000000.0 453144000000.0 646118000000.0 452700000000.0 273422000000.0 352241000000.0 85437800000.0 163438000000.0 748471000000.0 964696000000.0 190013000000.0 82100300000.0 34739200000.0 128802000000.0 138701000000.0 493625000000.0 687627000000.0 508929000000.0 290594000000.0 507950000000.0 597263000000.0 681083000000.0 631402000000.0 648072000000.0 667538000000.0 660437000000.0 680049000000.0 688799000000.0 712639000000.0 710305000000.0 716606000000.0 692019000000.0 676764000000.0 655247000000.0 651826000000.0 639866000000.0 625249000000.0 674603000000.0 581896000000.0 491092000000.0 288524000000.0 519168000000.0 672530000000.0 484755000000.0 131602000000.0 122286000000.0 34602200000.0 82012600000.0 190100000000.0 963617000000.0 751685000000.0 163641000000.0 84159800000.0 353218000000.0 273230000000.0 452567000000.0 646272000000.0 453346000000.0 333216000000.0 117675000000.0 311234000000.0 210790000000.0 189159000000.0 565492000000.0 882959000000.0 537842000000.0 275264000000.0 104697000000.0 141971000000.0 366534000000.0 62758500000.0 97119900000.0 118639000000.0 123505000000.0 257356000000.0 1.14728e+12 1.04968e+12 402040000000.0 417807000000.0 685173000000.0 643348000000.0 626903000000.0 651819000000.0 682429000000.0 685569000000.0 653942000000.0 624633000000.0 645621000000.0 678899000000.0 417404000000.0 414938000000.0 1.05543e+12 1.14128e+12 252269000000.0 130909000000.0 118857000000.0 94254100000.0 59181200000.0 368437000000.0 144050000000.0 101377000000.0 274955000000.0 537922000000.0 883616000000.0 565717000000.0 188812000000.0 211183000000.0 311881000000.0 256529000000.0 23622000000.0 294795000000.0 593516000000.0 527739000000.0 777128000000.0 613122000000.0 102926000000.0 567970000000.0 123605000000.0 702663000000.0 1.37482e+12 752647000000.0 782511000000.0 8040890000.0 156290000000.0 42477900000.0 75186100000.0 711412000000.0 557279000000.0 650805000000.0 588725000000.0 603041000000.0 637947000000.0 658299000000.0 642510000000.0 605260000000.0 591375000000.0 660006000000.0 542116000000.0 736453000000.0 49422600000.0 42582000000.0 162862000000.0 16117800000.0 781481000000.0 755810000000.0 1.37865e+12 703743000000.0 127043000000.0 571605000000.0 108173000000.0 615856000000.0 776079000000.0 526317000000.0 593253000000.0 294443000000.0 22667400000.0 256485000000.0 162898000000.0 390440000000.0 130297000000.0 83818800000.0 85578600000.0 1.10513e+12 450454000000.0 1.23271e+12 68512900000.0 1.3132e+12 1.21684e+12 895503000000.0 18529800000.0 1.9308e+12 921194000000.0 567826000000.0 524013000000.0 115426000000.0 458042000000.0 289643000000.0 290194000000.0 28529700000.0 579689000000.0 433973000000.0 538793000000.0 464178000000.0 542591000000.0 506249000000.0 579531000000.0 553059000000.0 613673000000.0 575349000000.0 616700000000.0 558531000000.0 584675000000.0 512276000000.0 546628000000.0 471160000000.0 546028000000.0 438308000000.0 599330000000.0 40418100000.0 328353000000.0 242084000000.0 460246000000.0 116127000000.0 523496000000.0 579631000000.0 926301000000.0 1.92427e+12 25711700000.0 899754000000.0 1.2153e+12 1.32084e+12 63929700000.0 1.23467e+12 447564000000.0 1.10677e+12 82980800000.0 82821300000.0 130962000000.0 390856000000.0 162999000000.0 89280400000.0 123901000000.0 257051000000.0 70640300000.0 4477720000.0 432556000000.0 1.30822e+12 345266000000.0 901060000000.0 643892000000.0 837181000000.0 816422000000.0 833602000000.0 449748000000.0 106148000000.0 1.20694e+12 1.29018e+12 193569000000.0 1.13055e+12 410107000000.0 884519000000.0 40122200000.0 519480000000.0 696196000000.0 95140100000.0 349911000000.0 412420000000.0 477655000000.0 518568000000.0 521961000000.0 484602000000.0 418124000000.0 355681000000.0 88866600000.0 689535000000.0 536390000000.0 54889300000.0 888326000000.0 415040000000.0 1.135e+12 215193000000.0 1.271e+12 1.22001e+12 112247000000.0 465290000000.0 827222000000.0 815638000000.0 833751000000.0 649194000000.0 895762000000.0 350041000000.0 1.30324e+12 427933000000.0 4649220000.0 71403500000.0 258077000000.0 124764000000.0 89490900000.0 61566100000.0 213963000000.0 246819000000.0 534893000000.0 194597000000.0 74475800000.0 337684000000.0 97678600000.0 590862000000.0 438325000000.0 677004000000.0 152549000000.0 970816000000.0 389601000000.0 61099900000.0 136579000000.0 352653000000.0 347002000000.0 275345000000.0 335909000000.0 303862000000.0 617284000000.0 512849000000.0 188053000000.0 283393000000.0 384360000000.0 448060000000.0 472581000000.0 454026000000.0 390992000000.0 285641000000.0 181194000000.0 525626000000.0 616768000000.0 311609000000.0 326263000000.0 311451000000.0 355415000000.0 333924000000.0 130218000000.0 56890700000.0 395816000000.0 965128000000.0 159991000000.0 672663000000.0 434913000000.0 590854000000.0 99017000000.0 338834000000.0 74859100000.0 195436000000.0 538520000000.0 246954000000.0 212346000000.0 61902500000.0 78135300000.0 46127300000.0 224638000000.0 324962000000.0 949971000000.0 432616000000.0 103078000000.0 444845000000.0 142318000000.0 1.12412e+12 396026000000.0 300395000000.0 380967000000.0 16877700000.0 1.05427e+12 300812000000.0 373421000000.0 679264000000.0 86329100000.0 471459000000.0 706832000000.0 763071000000.0 328904000000.0 286142000000.0 582726000000.0 170536000000.0 85837400000.0 91955000000.0 113136000000.0 266009000000.0 265351000000.0 363468000000.0 335428000000.0 410343000000.0 362955000000.0 413882000000.0 342379000000.0 370766000000.0 271007000000.0 269337000000.0 107440000000.0 83581800000.0 99955300000.0 159469000000.0 587392000000.0 288472000000.0 345970000000.0 771351000000.0 701312000000.0 496939000000.0 99320800000.0 695374000000.0 364742000000.0 309121000000.0 1.0593e+12 23156200000.0 382084000000.0 298575000000.0 390650000000.0 1.12745e+12 144874000000.0 447822000000.0 103454000000.0 437472000000.0 948805000000.0 322636000000.0 225833000000.0 45783100000.0 78379900000.0 10219400000.0 3825610000.0 372550000000.0 652102000000.0 573781000000.0 388093000000.0 1.19051e+12 1.40345e+12 608507000000.0 86659300000.0 62464600000.0 265369000000.0 309988000000.0 620604000000.0 1.40357e+12 431158000000.0 535308000000.0 219218000000.0 73246800000.0 135762000000.0 288416000000.0 656623000000.0 395688000000.0 94999700000.0 161151000000.0 250082000000.0 300741000000.0 305316000000.0 258672000000.0 159504000000.0 106295000000.0 398243000000.0 665448000000.0 283132000000.0 155204000000.0 56901900000.0 201964000000.0 529505000000.0 445381000000.0 1.41198e+12 618219000000.0 307271000000.0 266235000000.0 64708500000.0 84510300000.0 612648000000.0 1.40248e+12 1.19064e+12 388604000000.0 580840000000.0 651866000000.0 373578000000.0 3505170000.0 10360100000.0 66395700000.0 95264100000.0 300159000000.0 182738000000.0 229083000000.0 1.1181e+12 208463000000.0 130218000000.0 98734000000.0 1.03603e+12 565738000000.0 101582000000.0 99777400000.0 95953900000.0 241159000000.0 1.50766e+12 463126000000.0 640278000000.0 663646000000.0 558180000000.0 190706000000.0 460416000000.0 211175000000.0 151600000000.0 354186000000.0 161344000000.0 228810000000.0 80421400000.0 160810000000.0 228496000000.0 258550000000.0 237855000000.0 167164000000.0 68297900000.0 226308000000.0 158623000000.0 358115000000.0 160902000000.0 193995000000.0 453463000000.0 182902000000.0 555549000000.0 654764000000.0 637343000000.0 484909000000.0 1.50446e+12 240661000000.0 96383600000.0 98608700000.0 102604000000.0 566287000000.0 1.03686e+12 97791800000.0 130157000000.0 210228000000.0 1.11658e+12 231477000000.0 183323000000.0 300864000000.0 94923800000.0 66466300000.0 29040000000.0 396514000000.0 308764000000.0 83491400000.0 618038000000.0 166819000000.0 58056500000.0 492174000000.0 165269000000.0 333568000000.0 330550000000.0 145513000000.0 185759000000.0 88698000000.0 115243000000.0 113016000000.0 182473000000.0 536296000000.0 137228000000.0 426659000000.0 514831000000.0 52659300000.0 59136700000.0 11893300000.0 564208000000.0 286799000000.0 206662000000.0 227903000000.0 14152400000.0 83983800000.0 85765100000.0 82384600000.0 150506000000.0 133962000000.0 201955000000.0 173831000000.0 208589000000.0 148822000000.0 163745000000.0 95159100000.0 83977000000.0 67806800000.0 24520100000.0 232892000000.0 225192000000.0 284023000000.0 552042000000.0 10590000000.0 49068400000.0 41200000000.0 515321000000.0 416834000000.0 133804000000.0 539717000000.0 183868000000.0 110836000000.0 113933000000.0 88420200000.0 186183000000.0 145415000000.0 329484000000.0 333355000000.0 160492000000.0 502746000000.0 48198500000.0 172302000000.0 619413000000.0 83412300000.0 308669000000.0 396602000000.0 29099700000.0 570238000000.0 213544000000.0 106836000000.0 445161000000.0 434455000000.0 496295000000.0 601133000000.0 90885800000.0 1.38899e+12 1.02411e+12 128098000000.0 407741000000.0 325071000000.0 20673000000.0 106086000000.0 98551000000.0 27202400000.0 68082300000.0 383059000000.0 982030000000.0 787843000000.0 135696000000.0 187308000000.0 321094000000.0 167100000000.0 111132000000.0 201445000000.0 86826300000.0 133880000000.0 426320000000.0 382784000000.0 268933000000.0 63380700000.0 57492300000.0 128270000000.0 137895000000.0 80637300000.0 63652000000.0 268991000000.0 395933000000.0 433018000000.0 158116000000.0 72102400000.0 200210000000.0 110307000000.0 170571000000.0 319071000000.0 183480000000.0 146345000000.0 786259000000.0 980989000000.0 382228000000.0 68768000000.0 26976700000.0 98730200000.0 106563000000.0 21329900000.0 324681000000.0 405100000000.0 123041000000.0 1.0267e+12 1.38994e+12 88301300000.0 601001000000.0 495149000000.0 434843000000.0 445324000000.0 106914000000.0 213550000000.0 570076000000.0 92678300000.0 453495000000.0 174210000000.0 186253000000.0 404433000000.0 369112000000.0 112701000000.0 193522000000.0 1.20146e+12 884834000000.0 546288000000.0 95145600000.0 194812000000.0 91205400000.0 80292900000.0 8959970000.0 119276000000.0 331901000000.0 646368000000.0 44398100000.0 314266000000.0 117110000000.0 191491000000.0 139426000000.0 92353800000.0 12873900000.0 35710000000.0 147796000000.0 452235000000.0 350742000000.0 35251000000.0 86083300000.0 103865000000.0 107309000000.0 7358380000.0 307462000000.0 466909000000.0 179240000000.0 39101900000.0 10380400000.0 92930300000.0 139823000000.0 192229000000.0 117854000000.0 319645000000.0 44909000000.0 645947000000.0 330993000000.0 118375000000.0 9562990000.0 80901700000.0 92444600000.0 196550000000.0 97766600000.0 545258000000.0 885121000000.0 1.19828e+12 188114000000.0 109581000000.0 369872000000.0 404545000000.0 186482000000.0 174354000000.0 453371000000.0 92357600000.0 3558500000.0 325303000000.0 29975800000.0 521928000000.0 377464000000.0 44774900000.0 474391000000.0 451730000000.0 236096000000.0 379689000000.0 223324000000.0 73318200000.0 177238000000.0 157722000000.0 488512000000.0 420251000000.0 267180000000.0 239243000000.0 92756400000.0 2616050000.0 50263600000.0 42539100000.0 118007000000.0 178473000000.0 127167000000.0 71632200000.0 212112000000.0 139052000000.0 69657900000.0 25265100000.0 66460000000.0 53429300000.0 77769000000.0 48764000000.0 103037000000.0 184458000000.0 199009000000.0 554504000.0 107808000000.0 193313000000.0 137055000000.0 54050400000.0 54064200000.0 2175780000.0 93561700000.0 238988000000.0 267539000000.0 421769000000.0 489823000000.0 157670000000.0 179471000000.0 72356900000.0 224782000000.0 383643000000.0 231863000000.0 451689000000.0 475763000000.0 44894200000.0 377552000000.0 521832000000.0 30214100000.0 325599000000.0 3665650000.0 45305400000.0 306983000000.0 147739000000.0 265751000000.0 16355300000.0 470688000000.0 809732000000.0 555636000000.0 531776000000.0 511542000000.0 57352100000.0 43808800000.0 220954000000.0 158662000000.0 86314500000.0 39294900000.0 200609000000.0 342647000000.0 120295000000.0 300872000000.0 515126000000.0 437173000000.0 313994000000.0 224012000000.0 161733000000.0 49549300000.0 95819200000.0 161587000000.0 228606000000.0 291024000000.0 464812000000.0 177333000000.0 287980000000.0 23090800000.0 25003800000.0 34237400000.0 12201400000.0 310034000000.0 170795000000.0 480273000000.0 326708000000.0 251718000000.0 178395000000.0 104722000000.0 52172100000.0 162582000000.0 225304000000.0 315451000000.0 438808000000.0 516366000000.0 301508000000.0 120434000000.0 342006000000.0 199615000000.0 38367200000.0 87497000000.0 160366000000.0 222959000000.0 44071500000.0 59865500000.0 509876000000.0 529362000000.0 555271000000.0 808889000000.0 469966000000.0 16156100000.0 265455000000.0 148330000000.0 307562000000.0 45493300000.0 119548000000.0 143935000000.0 72226600000.0 254791000000.0 191261000000.0 395221000000.0 556945000000.0 807028000000.0 80818800000.0 308142000000.0 958586000000.0 203605000000.0 12456300000.0 145571000000.0 271237000000.0 291062000000.0 221399000000.0 108657000000.0 29942000000.0 132119000000.0 518578000000.0 438957000000.0 314409000000.0 211745000000.0 122670000000.0 27609000000.0 178823000000.0 255808000000.0 344178000000.0 503345000000.0 532887000000.0 652776000000.0 441837000000.0 113834000000.0 2227410000.0 6636520000.0 18888000000.0 58354500000.0 423644000000.0 682574000000.0 603093000000.0 545786000000.0 377086000000.0 275842000000.0 190286000000.0 28136400000.0 124002000000.0 213610000000.0 316827000000.0 441420000000.0 520134000000.0 131100000000.0 28375200000.0 110486000000.0 223725000000.0 293526000000.0 273660000000.0 147568000000.0 11122200000.0 200881000000.0 958490000000.0 306840000000.0 81056100000.0 807472000000.0 556459000000.0 394813000000.0 190998000000.0 255127000000.0 72107600000.0 143558000000.0 119650000000.0 241561000000.0 172157000000.0 387471000000.0 457480000000.0 784824000000.0 119648000000.0 96485000000.0 592677000000.0 19821200000.0 139575000000.0 318547000000.0 237139000000.0 310980000000.0 393958000000.0 376408000000.0 284049000000.0 150547000000.0 46479600000.0 28763300000.0 216553000000.0 437462000000.0 418628000000.0 293207000000.0 177690000000.0 71079500000.0 24080300000.0 102777000000.0 304028000000.0 358341000000.0 347115000000.0 286086000000.0 158532000000.0 545647000000.0 85971300000.0 5193020000.0 96829700000.0 22477000000.0 813109000.0 11402500000.0 72918500000.0 11322700000.0 121700000000.0 530765000000.0 140291000000.0 315508000000.0 385035000000.0 382368000000.0 320467000000.0 107202000000.0 23969000000.0 73280600000.0 180467000000.0 296242000000.0 421752000000.0 438006000000.0 216809000000.0 28482300000.0 48481100000.0 153208000000.0 287171000000.0 379524000000.0 396913000000.0 313341000000.0 238778000000.0 315169000000.0 138226000000.0 20353400000.0 591249000000.0 96679600000.0 121188000000.0 784932000000.0 456965000000.0 387381000000.0 171973000000.0 241425000000.0 89111900000.0 251256000000.0 260925000000.0 436360000000.0 444885000000.0 372258000000.0 612737000000.0 117835000000.0 298734000000.0 717791000000.0 380365000000.0 486159000000.0 495096000000.0 445051000000.0 342755000000.0 212441000000.0 64211900000.0 216732000000.0 409431000000.0 527061000000.0 520630000000.0 249801000000.0 128926000000.0 19813100000.0 76617300000.0 163586000000.0 239886000000.0 314399000000.0 2442270000.0 17076200000.0 247534000000.0 248357000000.0 166290000000.0 75477200000.0 22921800000.0 132611000000.0 253552000000.0 523501000000.0 529085000000.0 410206000000.0 217114000000.0 65255200000.0 215245000000.0 346800000000.0 448784000000.0 498698000000.0 489841000000.0 385104000000.0 716233000000.0 298117000000.0 119028000000.0 612463000000.0 372788000000.0 444704000000.0 436218000000.0 260752000000.0 251022000000.0 88972700000.0 93485600000.0 56147300000.0 259363000000.0 406861000000.0 434228000000.0 682362000000.0 683543000000.0 176432000000.0 502597000000.0 375010000000.0 315740000000.0 461359000000.0 813910000000.0 277873000000.0 478630000000.0 172295000000.0 255476000000.0 415327000000.0 543795000000.0 561217000000.0 492700000000.0 377011000000.0 75113300000.0 32618300000.0 129903000000.0 214938000000.0 281012000000.0 309345000000.0 240655000000.0 109670000000.0 110115000000.0 301003000000.0 446579000000.0 31860300000.0 22058500000.0 74252100000.0 472866000000.0 360636000000.0 74607100000.0 116695000000.0 242800000000.0 308039000000.0 278034000000.0 210949000000.0 124459000000.0 26385400000.0 80987800000.0 380677000000.0 496587000000.0 565700000000.0 547122000000.0 416656000000.0 257420000000.0 174971000000.0 482381000000.0 283034000000.0 813002000000.0 461895000000.0 315335000000.0 378291000000.0 501997000000.0 176499000000.0 683132000000.0 681686000000.0 433539000000.0 405635000000.0 258501000000.0 55892700000.0 93451000000.0 397306000000.0 348739000000.0 548037000000.0 535826000000.0 387689000000.0 511662000000.0 793524000000.0 497476000000.0 669208000000.0 802366000000.0 509202000000.0 491601000000.0 418704000000.0 293111000000.0 339397000000.0 462071000000.0 588435000000.0 593710000000.0 533506000000.0 436658000000.0 317476000000.0 193263000000.0 177975000000.0 266713000000.0 342862000000.0 385595000000.0 410308000000.0 606021000000.0 746943000000.0 623428000000.0 515669000000.0 91676900000.0 32908200000.0 15279900000.0 57955700000.0 33487900000.0 50920800000.0 182235000000.0 160245000000.0 527546000000.0 643272000000.0 550249000000.0 357859000000.0 350767000000.0 318831000000.0 252404000000.0 167061000000.0 198305000000.0 321585000000.0 439948000000.0 537531000000.0 600585000000.0 593585000000.0 465949000000.0 344532000000.0 296711000000.0 424416000000.0 495129000000.0 512381000000.0 801305000000.0 668625000000.0 494790000000.0 794411000000.0 511594000000.0 387609000000.0 534398000000.0 546808000000.0 348368000000.0 397351000000.0 242980000000.0 402735000000.0 601165000000.0 129131000000.0 311665000000.0 432287000000.0 537702000000.0 822702000000.0 218887000000.0 426318000000.0 491642000000.0 537207000000.0 591561000000.0 537132000000.0 462433000000.0 363049000000.0 249179000000.0 132573000000.0 20894300000.0 82303500000.0 313836000000.0 399677000000.0 430936000000.0 256140000000.0 267944000000.0 267626000000.0 284839000000.0 110170000000.0 33713000000.0 99479100000.0 154955000000.0 312971000000.0 155886000000.0 124787000000.0 363877000000.0 353335000000.0 287195000000.0 71556400000.0 30990500000.0 140483000000.0 254601000000.0 366286000000.0 463792000000.0 537304000000.0 592699000000.0 538215000000.0 493222000000.0 429222000000.0 223914000000.0 822919000000.0 538316000000.0 431648000000.0 311580000000.0 129163000000.0 599790000000.0 401968000000.0 243064000000.0 201586000000.0 438303000000.0 408572000000.0 566299000000.0 31141700000.0 492187000000.0 642632000000.0 799928000000.0 416081000000.0 665924000000.0 666200000000.0 175622000000.0 355039000000.0 438665000000.0 488706000000.0 385442000000.0 494371000000.0 580389000000.0 382486000000.0 287535000000.0 182621000000.0 77222600000.0 23941400000.0 119751000000.0 216130000000.0 75464000000.0 6282190000.0 239491000000.0 276069000000.0 200158000000.0 106654000000.0 11169300000.0 88231400000.0 190567000000.0 291734000000.0 383448000000.0 577569000000.0 492778000000.0 383217000000.0 490318000000.0 438753000000.0 356673000000.0 179987000000.0 665344000000.0 664201000000.0 413759000000.0 799187000000.0 642856000000.0 492307000000.0 31021100000.0 564841000000.0 408062000000.0 437540000000.0 201350000000.0 71232600000.0 35166900000.0 406478000000.0 429109000000.0 645116000000.0 24830800000.0 226116000000.0 374887000000.0 577591000000.0 510903000000.0 151105000000.0 311816000000.0 489548000000.0 366951000000.0 368713000000.0 498546000000.0 543136000000.0 503990000000.0 456248000000.0 125475000000.0 34148600000.0 53540000000.0 139364000000.0 240237000000.0 358711000000.0 505271000000.0 645042000000.0 704064000000.0 999146000000.0 718839000000.0 151527000000.0 285357000000.0 74738500000.0 51253200000.0 65640000000.0 18950000000.0 43588900000.0 325791000000.0 136013000000.0 632684000000.0 1.01821e+12 725607000000.0 633841000000.0 474035000000.0 332046000000.0 220598000000.0 123306000000.0 38256700000.0 47888500000.0 136228000000.0 455773000000.0 504379000000.0 543513000000.0 496761000000.0 366224000000.0 367476000000.0 490483000000.0 312466000000.0 154241000000.0 510492000000.0 576100000000.0 372867000000.0 225956000000.0 24840700000.0 644686000000.0 428786000000.0 406227000000.0 35067200000.0 71234600000.0 380849000000.0 187010000000.0 28620500000.0 66836000000.0 424419000000.0 604588000000.0 626798000000.0 339628000000.0 464742000000.0 393111000000.0 424270000000.0 399939000000.0 308328000000.0 385380000000.0 475857000000.0 474677000000.0 434611000000.0 381223000000.0 308092000000.0 219295000000.0 63298400000.0 118110000000.0 196743000000.0 287816000000.0 302419000000.0 146009000000.0 47400300000.0 65827700000.0 709241000000.0 314169000000.0 134729000000.0 56399200000.0 235834000000.0 818795000000.0 132336000000.0 140012000000.0 234939000000.0 349425000000.0 289357000000.0 184678000000.0 97350100000.0 40223300000.0 224312000000.0 308426000000.0 379922000000.0 434021000000.0 475891000000.0 475258000000.0 383856000000.0 308205000000.0 400818000000.0 424387000000.0 392666000000.0 463249000000.0 337625000000.0 626138000000.0 604557000000.0 424414000000.0 66675200000.0 28665700000.0 187151000000.0 380855000000.0 400246000000.0 107822000000.0 519967000000.0 165712000000.0 397606000000.0 541898000000.0 464898000000.0 348416000000.0 482648000000.0 565303000000.0 489677000000.0 376614000000.0 399692000000.0 397718000000.0 392842000000.0 360581000000.0 309574000000.0 240041000000.0 157939000000.0 80690800000.0 6742030000.0 107895000000.0 90485300000.0 17138200000.0 296830000000.0 77610300000.0 193059000000.0 78437800000.0 25347300000.0 97541500000.0 167229000000.0 238702000000.0 305849000000.0 360580000000.0 397609000000.0 402147000000.0 401388000000.0 378767000000.0 492460000000.0 565968000000.0 481740000000.0 347619000000.0 463773000000.0 541874000000.0 397347000000.0 165655000000.0 520157000000.0 107799000000.0 400366000000.0 297851000000.0 179221000000.0 166849000000.0 14649500000.0 147067000000.0 211850000000.0 389780000000.0 450848000000.0 335084000000.0 255777000000.0 230875000000.0 103143000000.0 290668000000.0 241193000000.0 177658000000.0 102839000000.0 49021700000.0 2313860000.0 48095400000.0 35506300000.0 164248000000.0 93672700000.0 635705000000.0 1000820000.0 268723000000.0 138074000000.0 240474000000.0 3353500000.0 308580000000.0 7857210000.0 761725000000.0 19877500000.0 124010000000.0 149339000000.0 67605400000.0 3364740000.0 7593650000.0 23043300000.0 75084000000.0 123202000000.0 178403000000.0 235945000000.0 287839000000.0 106331000000.0 229004000000.0 253699000000.0 333809000000.0 450386000000.0 389929000000.0 211260000000.0 147185000000.0 14408300000.0 167222000000.0 179365000000.0 298023000000.0 107189000000.0 71307300000.0 118030000000.0 290192000000.0 108985000000.0 145183000000.0 10957900000.0 160870000000.0 234909000000.0 125712000000.0 101902000000.0 78256000000.0 22187500000.0 230521000000.0 299176000000.0 314257000000.0 123773000000.0 51402100000.0 37827100000.0 18611300000.0 45541000000.0 3074700000.0 138693000000.0 141753000000.0 142993000000.0 264189000000.0 32920900000.0 192567000000.0 38445500000.0 302713000000.0 150743000000.0 128375000000.0 127026000000.0 125955000000.0 35135000000.0 85377100000.0 18593400000.0 728029000.0 97074800000.0 38510000000.0 24671600000.0 68597700000.0 84758700000.0 131777000000.0 318507000000.0 306726000000.0 236408000000.0 22577600000.0 76141500000.0 102673000000.0 129029000000.0 236397000000.0 164030000000.0 13304100000.0 142908000000.0 109150000000.0 289601000000.0 118104000000.0 71227700000.0 107362000000.0 78304900000.0 71878700000.0 342462000000.0 356339000000.0 219267000000.0 21846000000.0 151208000000.0 41365200000.0 34419400000.0 42904100000.0 47800700000.0 32590200000.0 104799000000.0 216848000000.0 260822000000.0 261501000000.0 227454000000.0 179182000000.0 159777000000.0 348626000000.0 377480000000.0 101981000000.0 302574000000.0 54452600000.0 312465000000.0 300602000000.0 111985000000.0 176099000000.0 223588000000.0 265893000000.0 269052000000.0 224202000000.0 102813000000.0 31132800000.0 48751300000.0 41392100000.0 35872300000.0 42509300000.0 154423000000.0 19544200000.0 217051000000.0 354973000000.0 342231000000.0 71557100000.0 78170300000.0 35634000000.0 85124800000.0 105590000000.0 50767200000.0 37390900000.0 9241780000.0 126998000000.0 278206000000.0 234614000000.0 41602300000.0 130029000000.0 26519200000.0 124009000000.0 192834000000.0 225427000000.0 201260000000.0 178626000000.0 214678000000.0 237645000000.0 238255000000.0 210219000000.0 162882000000.0 116559000000.0 64666600000.0 10535400000.0 32908400000.0 240625000000.0 483124000000.0 361677000000.0 141652000000.0 64544300000.0 139143000000.0 62615300000.0 354122000000.0 156894000000.0 57319800000.0 114565000000.0 35873200000.0 275323000000.0 419564000000.0 172688000000.0 7801340000.0 26873600000.0 84764700000.0 141944000000.0 169580000000.0 215707000000.0 242919000000.0 239071000000.0 207156000000.0 168944000000.0 199637000000.0 225280000000.0 193272000000.0 124341000000.0 25602300000.0 131773000000.0 39426200000.0 232595000000.0 276569000000.0 126188000000.0 8614690000.0 37540400000.0 50689400000.0 105626000000.0 85009700000.0 35780700000.0 53804900000.0 15619300000.0 130738000000.0 90793700000.0 17667000000.0 13591200000.0 49147800000.0 160669000000.0 276335000000.0 208957000000.0 7548060000.0 199743000000.0 180936000000.0 143901000000.0 102543000000.0 74802900000.0 12171700000.0 52627600000.0 11716700000.0 172785000000.0 93147300000.0 230525000000.0 277371000000.0 330605000000.0 185870000000.0 193303000000.0 46675400000.0 19237800000.0 246447000000.0 22713100000.0 121928000000.0 55178300000.0 160975000000.0 222329000000.0 339680000000.0 278238000000.0 245319000000.0 89773800000.0 184915000000.0 10000900000.0 26576000000.0 29053200000.0 108713000000.0 136952000000.0 152540000000.0 188517000000.0 203323000000.0 9014360000.0 209616000000.0 276084000000.0 160463000000.0 48652600000.0 14112100000.0 17410800000.0 90822100000.0 130642000000.0 15642200000.0 53923400000.0 10377500000.0 12897000000.0 104072000000.0 53617100000.0 128090000000.0 207374000000.0 243184000000.0 269679000000.0 240792000000.0 203811000000.0 206314000000.0 207066000000.0 189839000000.0 315067000000.0 325801000000.0 156069000000.0 3899220000.0 26431300000.0 62452900000.0 282046000000.0 37158300000.0 11577700000.0 204521000000.0 329500000000.0 300102000000.0 204134000000.0 205440000000.0 205543000000.0 199484000000.0 241509000000.0 267645000000.0 240586000000.0 205416000000.0 126955000000.0 54343500000.0 104350000000.0 13106200000.0 10520500000.0 21137300000.0 22125100000.0 111285000000.0 222581000000.0 349539000000.0 13413800000.0 4671270000.0 138974000000.0 183535000000.0 227392000000.0 214140000000.0 183547000000.0 186418000000.0 183954000000.0 172057000000.0 153801000000.0 110900000000.0 32202000000.0 20120100000.0 74225100000.0 273919000000.0 415358000000.0 324970000000.0 148129000000.0 172746000000.0 290347000000.0 266054000000.0 186107000000.0 265109000000.0 127836000000.0 155035000000.0 330223000000.0 407998000000.0 252454000000.0 105911000000.0 53256500000.0 3100050000.0 69223100000.0 143598000000.0 168752000000.0 181135000000.0 183080000000.0 179545000000.0 213515000000.0 224703000000.0 182407000000.0 138147000000.0 6845560000.0 12669800000.0 349390000000.0 222239000000.0 110689000000.0 21440300000.0 21178900000.0 3663280000.0 4555730000.0 60546900000.0 31897500000.0 74318500000.0 134961000000.0 207665000000.0 292281000000.0 322754000000.0 8779890000.0 5177450000.0 18090000000.0 116632000000.0 157134000000.0 182003000000.0 168814000000.0 188259000000.0 199225000000.0 187446000000.0 170672000000.0 146215000000.0 86159800000.0 25267300000.0 9154670000.0 37916500000.0 77119100000.0 48720500000.0 59290500000.0 26754600000.0 114285000000.0 64334900000.0 172436000000.0 51324500000.0 141228000000.0 101626000000.0 574412000.0 118015000000.0 25950600000.0 5312830000.0 114842000000.0 195557000000.0 73586400000.0 218473000000.0 118543000000.0 151741000000.0 68940400000.0 98996500000.0 13314700000.0 116539000000.0 16334300000.0 27848700000.0 11743200000.0 64167500000.0 121309000000.0 164299000000.0 180690000000.0 193020000000.0 181746000000.0 163403000000.0 178646000000.0 156455000000.0 115969000000.0 16846700000.0 1828060000.0 6925860000.0 322624000000.0 292925000000.0 208097000000.0 135192000000.0 73697600000.0 31737400000.0 60465100000.0 4369210000.0 3652090000.0 26735300000.0 6693230000.0 45269200000.0 141897000000.0 159088000000.0 193486000000.0 193496000000.0 167984000000.0 168715000000.0 20181500000.0 65484000000.0 181717000000.0 102822000000.0 171095000000.0 151515000000.0 171507000000.0 165421000000.0 170681000000.0 139479000000.0 44792900000.0 8074280000.0 26857300000.0 9033630000.0 12573100000.0 119429000000.0 174411000000.0 244795000000.0 8405850000.0 101048000000.0 58009800000.0 17180800000.0 114869000000.0 112988000000.0 96428300000.0 71405000000.0 57073000000.0 46345600000.0 28421800000.0 13690400000.0 23527500000.0 87572600000.0 143677000000.0 247040000000.0 221274000000.0 170486000000.0 143503000000.0 172933000000.0 106113000000.0 93724700000.0 116094000000.0 288189000000.0 220315000000.0 127214000000.0 162370000000.0 202613000000.0 224579000000.0 162488000000.0 89452000000.0 34152500000.0 11852100000.0 27671200000.0 46206300000.0 56127400000.0 68234000000.0 92636400000.0 112166000000.0 115294000000.0 17361600000.0 58311000000.0 101598000000.0 8952720000.0 245670000000.0 175144000000.0 120077000000.0 12534800000.0 9033750000.0 11680500000.0 53106100000.0 63060900000.0 130469000000.0 130115000000.0 78622300000.0 11084900000.0 193456000000.0 46202200000.0 2043720000.0 11973700000.0 27081900000.0 32152300000.0 84735600000.0 100648000000.0 117354000000.0 142529000000.0 152095000000.0 143568000000.0 111589000000.0 96608600000.0 34969400000.0 27842900000.0 53519600000.0 53744700000.0 36605500000.0 10860900000.0 58288000000.0 11514300000.0 94106400000.0 16445200000.0 104450000000.0 16248700000.0 50996200000.0 128452000000.0 79476500000.0 9699510000.0 145493000000.0 121589000000.0 13315900000.0 53318900000.0 9381970000.0 33922200000.0 65064400000.0 34012000000.0 24377300000.0 26182600000.0 13850100000.0 11461500000.0 12974600000.0 25686200000.0 25848000000.0 20837500000.0 17534900000.0 78808600000.0 102132000000.0 135212000000.0 145881000000.0 136872000000.0 110119000000.0 100638000000.0 85104600000.0 33138600000.0 28040100000.0 12450500000.0 1892000000.0 46474100000.0 195032000000.0 12432200000.0 77528100000.0 129479000000.0 130460000000.0 62691200000.0 53041900000.0 11632800000.0 27322700000.0 10493200000.0 9611270000.0 37274800000.0 6049200000.0 28392200000.0 84085100000.0 128511000000.0 173543000000.0 40630600000.0 57780400000.0 27816900000.0 2490640000.0 52994600000.0 81154300000.0 98225100000.0 106225000000.0 109171000000.0 85646700000.0 49204000000.0 3677740000.0 39629100000.0 116527000000.0 150181000000.0 126139000000.0 138100000000.0 106521000000.0 127077000000.0 64124700000.0 112214000000.0 17339200000.0 102687000000.0 11754200000.0 94888600000.0 55898400000.0 6380550000.0 35567000000.0 55576900000.0 130575000000.0 37070100000.0 72998600000.0 44774600000.0 5150920000.0 87004500000.0 1928850000.0 42665400000.0 16805000000.0 1777970000.0 43898900000.0 46504800000.0 74172300000.0 97707900000.0 106252000000.0 86312300000.0 18353700000.0 12534300000.0 60209000000.0 93153300000.0 111375000000.0 100346000000.0 99081400000.0 81579300000.0 54776500000.0 2533230000.0 28070200000.0 58108100000.0 40283300000.0 174846000000.0 129310000000.0 84780500000.0 28865500000.0 6007990000.0 37650800000.0 9609980000.0 10506000000.0 10917500000.0 3773910000.0 30828300000.0 7064380000.0 3160040000.0 44977400000.0 102038000000.0 205752000000.0 54643000000.0 4440900000.0 14988000000.0 23967800000.0 537842000.0 15854900000.0 32933200000.0 53220700000.0 92897700000.0 118846000000.0 136814000000.0 129641000000.0 126001000000.0 67919100000.0 32391500000.0 49293200000.0 9171480000.0 55471700000.0 9882490000.0 74670000000.0 10172000000.0 106829000000.0 9339680000.0 100266000000.0 8210390000.0 62924800000.0 78607500000.0 98759300000.0 731393000.0 69954500000.0 83264700000.0 38156900000.0 49279300000.0 44422500000.0 71265000000.0 12411900000.0 58210400000.0 785957000.0 43397900000.0 1717930000.0 27827900000.0 3833850000.0 12180900000.0 3937690000.0 20997100000.0 55267500000.0 113003000000.0 118635000000.0 127584000000.0 111542000000.0 85461600000.0 45188400000.0 34313800000.0 16443100000.0 2781130000.0 23642300000.0 14741900000.0 4192770000.0 55170400000.0 207025000000.0 102951000000.0 45616300000.0 2543020000.0 7025760000.0 31205200000.0 3801590000.0 10968400000.0 15817200000.0 11930200000.0 41038100000.0 9196900000.0 15202600000.0 59349500000.0 110068000000.0 188766000000.0 65522100000.0 6547250000.0 8045600000.0 14972800000.0 41836800000.0 59417500000.0 80515000000.0 96528000000.0 123584000000.0 130156000000.0 127860000000.0 102635000000.0 88710200000.0 30810500000.0 11081200000.0 19192300000.0 14958900000.0 29680900000.0 17192700000.0 41596200000.0 21172000000.0 66721500000.0 25321700000.0 57226700000.0 30344000000.0 21806200000.0 19739400000.0 83465600000.0 14327500000.0 83416700000.0 116888000000.0 71000100000.0 28986600000.0 56583400000.0 8155060000.0 82434500000.0 8846080000.0 59622500000.0 8405670000.0 41763500000.0 5827370000.0 31481700000.0 2522350000.0 6380920000.0 18738100000.0 32784800000.0 87560000000.0 100737000000.0 125903000000.0 127818000000.0 119936000000.0 90696700000.0 81218400000.0 58966600000.0 43555100000.0 15029300000.0 8030060000.0 6561230000.0 65803700000.0 189696000000.0 110723000000.0 59857500000.0 15479700000.0 9197680000.0 41330500000.0 11932500000.0 15878100000.0 18059600000.0 12901000000.0 38323500000.0 9195610000.0 15423200000.0 48519000000.0 93492700000.0 161778000000.0 74593100000.0 11054700000.0 9983940000.0 16919000000.0 36290800000.0 48860200000.0 69395800000.0 85440100000.0 113718000000.0 124334000000.0 128799000000.0 109140000000.0 98672400000.0 47545200000.0 38110400000.0 38208200000.0 9035750000.0 53947900000.0 9035750000.0 66810200000.0 9035750000.0 91162400000.0 8207310000.0 88952300000.0 8532360000.0 69457700000.0 49913900000.0 118396000000.0 6086990000.0 96646100000.0 71618100000.0 43082300000.0 20369200000.0 25734300000.0 19673100000.0 52299200000.0 12266400000.0 39575700000.0 5499990000.0 31365700000.0 9881130.0 30364800000.0 5107870000.0 12778400000.0 33182700000.0 40724800000.0 90938700000.0 102314000000.0 123485000000.0 119697000000.0 109421000000.0 80823600000.0 70487800000.0 48466700000.0 38005700000.0 17136800000.0 10104000000.0 11163700000.0 74957800000.0 162649000000.0 94097500000.0 48991600000.0 15588100000.0 9221950000.0 38581900000.0 12912900000.0 18136200000.0 20033400000.0 14165300000.0 35432900000.0 9999730000.0 17479100000.0 41780800000.0 80420700000.0 135878000000.0 77025900000.0 13161400000.0 12718600000.0 22358700000.0 37869500000.0 47029300000.0 66826700000.0 82156800000.0 107252000000.0 114945000000.0 117898000000.0 97329800000.0 86021100000.0 41565700000.0 38859000000.0 32988300000.0 9035750000.0 51123700000.0 9035750000.0 61836300000.0 9035750000.0 80127500000.0 4058830000.0 76815000000.0 10719300.0 57938100000.0 25954400000.0 109212000000.0 4151420000.0 108499000000.0 85509100000.0 89705600000.0 10329000000.0 61319500000.0 8469430000.0 71048800000.0 9035750000.0 55440800000.0 9035750000.0 41446100000.0 9035750000.0 37275100000.0 9035750000.0 13835900000.0 34630700000.0 36287000000.0 80086100000.0 91978900000.0 113837000000.0 111400000000.0 103713000000.0 78291600000.0 67560500000.0 46361800000.0 39172500000.0 22452200000.0 12723800000.0 13177800000.0 77330100000.0 136573000000.0 80907400000.0 42121500000.0 17592400000.0 10001500000.0 35625400000.0 14167300000.0 20115200000.0 21514300000.0 15106300000.0 31949300000.0 10288400000.0 18550300000.0 36350500000.0 68242000000.0 112722000000.0 76906400000.0 14373900000.0 13740200000.0 24873400000.0 37210400000.0 43087200000.0 61234300000.0 75976300000.0 98773700000.0 105254000000.0 107962000000.0 88076200000.0 76655600000.0 39546600000.0 38870600000.0 28898700000.0 9035750000.0 48220100000.0 9035750000.0 57232400000.0 9035750000.0 74100200000.0 9035750000.0 77079800000.0 9035750000.0 70282600000.0 33560100000.0 122563000000.0 8265720000.0 117233000000.0 62059900000.0 81256200000.0 1467890000.0 52393000000.0 4457150000.0 64260200000.0 9035750000.0 52020300000.0 9035750000.0 39508300000.0 9035750000.0 36435800000.0 9035750000.0 14265900000.0 34846500000.0 35332200000.0 72067200000.0 83781400000.0 104770000000.0 102542000000.0 96001400000.0 72999100000.0 61872200000.0 42489600000.0 38283400000.0 24975600000.0 13747500000.0 14386100000.0 77200200000.0 113311000000.0 68667900000.0 36613600000.0 18663600000.0 10290000000.0 32096500000.0 15108300000.0 21595900000.0 22541100000.0 15914000000.0 28508400000.0 10534700000.0 19198800000.0 32524200000.0 58005300000.0 93246900000.0 74880500000.0 15416300000.0 14755100000.0 27122100000.0 37357600000.0 40742900000.0 56990600000.0 71005700000.0 91411500000.0 96480300000.0 98421400000.0 79130400000.0 67886300000.0 38450100000.0 37484800000.0 25561200000.0 9035750000.0 45300600000.0 9035750000.0 52963800000.0 9035750000.0 66655700000.0 9035750000.0 71419000000.0 9035750000.0 68409300000.0 28208900000.0 119917000000.0 6651810000.0 124350000000.0 62778300000.0 94347600000.0 9035750000.0 59158900000.0 9035750000.0 59790800000.0 9035750000.0 48754000000.0 9035750000.0 37552600000.0 9035750000.0 35270700000.0 9035750000.0 14749800000.0 33694000000.0 34937300000.0 64354100000.0 75750100000.0 95942700000.0 94400500000.0 89236200000.0 68723200000.0 57431500000.0 40257300000.0 38242400000.0 27227500000.0 14759900000.0 15428200000.0 75154900000.0 93734100000.0 58361400000.0 32727100000.0 19304000000.0 10536000000.0 28617000000.0 15915900000.0 22611700000.0 23128200000.0 16577400000.0 25308600000.0 10739100000.0 19442400000.0 29799100000.0 49661300000.0 77335200000.0 71465600000.0 16261300000.0 15556700000.0 28767500000.0 37617600000.0 39055600000.0 53384700000.0 66532900000.0 84761300000.0 88692700000.0 89888100000.0 71337500000.0 60480400000.0 37680000000.0 35457300000.0 23021700000.0 9035750000.0 42416000000.0 9035750000.0 48994900000.0 9035750000.0 60293500000.0 9035750000.0 66226000000.0 9035750000.0 65779900000.0 23730200000.0 115042000000.0 9035750000.0 54509200000.0 92768900000.0 9035750000.0 56570600000.0 9035750000.0 54749600000.0 9035750000.0 45657700000.0 9035750000.0 35625700000.0 9035750000.0 33874800000.0 9035750000.0 15173600000.0 31933700000.0 34647700000.0 57773300000.0 68686200000.0 87955100000.0 87091200000.0 83081000000.0 64806400000.0 53620200000.0 38723400000.0 38331400000.0 28871500000.0 15561200000.0 16272700000.0 71713800000.0 77731800000.0 49946000000.0 29952100000.0 19530100000.0 10740300000.0 25386600000.0 16579200000.0 23183000000.0 128705000000.0 23335200000.0 17088400000.0 22470200000.0 10902300000.0 19334400000.0 27821300000.0 42985700000.0 64572000000.0 67118600000.0 16924500000.0 16209100000.0 29931700000.0 37927400000.0 37922500000.0 50401700000.0 62594500000.0 78821000000.0 81798500000.0 82299100000.0 64629700000.0 54337600000.0 36641600000.0 33086700000.0 21138500000.0 9035750000.0 39614600000.0 9035750000.0 45296300000.0 9035750000.0 54827100000.0 9035750000.0 61394000000.0 9035750000.0 62602200000.0 20037800000.0 109251000000.0 9035750000.0 128567000000.0 47359000000.0 89854400000.0 9035750000.0 53701500000.0 9035750000.0 50305300000.0 9035750000.0 42738200000.0 9035750000.0 33748700000.0 9035750000.0 32344100000.0 9035750000.0 15468400000.0 29859100000.0 33988400000.0 52252600000.0 62537800000.0 80776700000.0 80553200000.0 77545900000.0 61307500000.0 50470700000.0 37742300000.0 38475900000.0 30030100000.0 16213100000.0 16935300000.0 67336900000.0 64888800000.0 43204200000.0 27931300000.0 19401600000.0 10903200000.0 22525200000.0 17090100000.0 23375200000.0 23234600000.0 17442800000.0 20046400000.0 11024600000.0 18955400000.0 26283800000.0 37700300000.0 54456900000.0 62224400000.0 17401200000.0 16706400000.0 30631300000.0 38064600000.0 37156600000.0 47853500000.0 59062400000.0 73463300000.0 75646800000.0 75538400000.0 58860800000.0 49262300000.0 35237400000.0 30587500000.0 19750200000.0 9035750000.0 36930900000.0 9035750000.0 41847400000.0 9035750000.0 50091100000.0 9035750000.0 56847400000.0 9035750000.0 59061900000.0 17063500000.0 102807000000.0 9035750000.0 41227100000.0 85982800000.0 9035750000.0 50650700000.0 9035750000.0 46378800000.0 9035750000.0 39995600000.0 9035750000.0 31927200000.0 9035750000.0 30752200000.0 9035750000.0 15627100000.0 27678700000.0 32914100000.0 47631100000.0 57190600000.0 74325200000.0 74667900000.0 72505800000.0 58113200000.0 47803500000.0 37093200000.0 38473600000.0 30720900000.0 16709900000.0 17411200000.0 62410400000.0 54702800000.0 37861500000.0 26359300000.0 19004200000.0 11025300000.0 20084700000.0 17444200000.0 23262900000.0 126939000000.0 22891000000.0 17639300000.0 18036800000.0 11106100000.0 18390300000.0 24925500000.0 33523200000.0 46489900000.0 57085000000.0 17691200000.0 17045300000.0 30891600000.0 37868500000.0 36548800000.0 45582400000.0 55818500000.0 68563300000.0 70086100000.0 69467600000.0 53858300000.0 45026700000.0 33548000000.0 28108200000.0 18703400000.0 9035750000.0 34381100000.0 9035750000.0 38632100000.0 9035750000.0 45939400000.0 9035750000.0 52550800000.0 9035750000.0 55302800000.0 14735900000.0 95960400000.0 9035750000.0 123925000000.0 36008900000.0 81450300000.0 9035750000.0 47498200000.0 9035750000.0 42857400000.0 9035750000.0 37418600000.0 9035750000.0 30161700000.0 9035750000.0 29141200000.0 9035750000.0 15656400000.0 25532400000.0 31523400000.0 43725900000.0 52507000000.0 68491800000.0 69310800000.0 67844600000.0 55114400000.0 45453300000.0 36560900000.0 38174600000.0 30970300000.0 17048400000.0 17700500000.0 57237700000.0 46674300000.0 33638000000.0 24976400000.0 18424800000.0 11106600000.0 18063300000.0 17640600000.0 22910800000.0 22356300000.0 17680400000.0 16405500000.0 11147400000.0 17711000000.0 23595200000.0 30185900000.0 40205100000.0 51923700000.0 17798800000.0 52751400000.0 63997000000.0 64973200000.0 63948300000.0 49456100000.0 41420800000.0 31676800000.0 25745800000.0 17870000000.0 9035750000.0 31967500000.0 9035750000.0 35634200000.0 9035750000.0 42244300000.0 9035750000.0 48483000000.0 9035750000.0 51435600000.0 12970300000.0 88893600000.0 9035750000.0 31609500000.0 76475700000.0 9035750000.0 44309100000.0 9035750000.0 39647800000.0 9035750000.0 34986700000.0 9035750000.0 28449400000.0 9035750000.0 27535500000.0 9035750000.0 15566000000.0 23505200000.0 29926900000.0 40365400000.0 48350200000.0 63158900000.0 64356400000.0 63454700000.0 52218100000.0 17807200000.0 52044700000.0 40338800000.0 30265400000.0 23629500000.0 17735200000.0 11147800000.0 16423700000.0 17681500000.0 22370000000.0 17225300000.0 30743500000.0 37272500000.0 35887400000.0 43455400000.0 119672000000.0 43280000000.0 35944900000.0 37505600000.0 30810100000.0 17227900000.0 21670500000.0 17571100000.0 15098900000.0 11149100000.0 16971200000.0 22248400000.0 27453500000.0 35195500000.0 46895300000.0 17732200000.0 17248500000.0 30222200000.0 36279100000.0 35026000000.0 41364400000.0 49760300000.0 59648700000.0 60180600000.0 58853700000.0 45508200000.0 38268100000.0 29709300000.0 23556900000.0 17154300000.0 9035750000.0 29684600000.0 9035750000.0 32835400000.0 9035750000.0 38896900000.0 9035750000.0 44620500000.0 9035750000.0 47545500000.0 11672200000.0 81743600000.0 9035750000.0 114347000000.0 27921400000.0 71210800000.0 9035750000.0 41134300000.0 9035750000.0 36678900000.0 9035750000.0 32675800000.0 9035750000.0 26784000000.0 9035750000.0 25949700000.0 9035750000.0 15368000000.0 21640800000.0 28212300000.0 37400300000.0 44595500000.0 58212800000.0 59688200000.0 59236600000.0 49346500000.0 41169200000.0 35109000000.0 36458100000.0 30276700000.0 17250600000.0 17739800000.0 46988500000.0 35290000000.0 27507500000.0 22271700000.0 16987900000.0 11149400000.0 15111300000.0 17572100000.0 21679900000.0 21566700000.0 9035750000.0 9035750000.0 9035750000.0 9035750000.0 9035750000.0 10747000000.0 9035750000.0 24829400000.0 9035750000.0 9035750000.0 9035750000.0 9035750000.0 9035750000.0 9035750000.0 19953600000.0 20864300000.0 17319000000.0 14057600000.0 11112400000.0 16207100000.0 20896600000.0 25140700000.0 31130300000.0 42101000000.0 17502600000.0 17119000000.0 29365600000.0 34923500000.0 33895300000.0 39227400000.0 46761900000.0 55419300000.0 55601000000.0 54072800000.0 41891200000.0 35425300000.0 27708300000.0 16491700000.0 27522700000.0 30216700000.0 35808400000.0 40939300000.0 43695900000.0 74615700000.0 108070000000.0 65764800000.0 38005400000.0 33894000000.0 30461500000.0 25157300000.0 24390500000.0 15075400000.0 26441400000.0 34705300000.0 41134000000.0 53551400000.0 55206700000.0 55103800000.0 46434900000.0 39031500000.0 33989500000.0 35060600000.0 29408700000.0 17120700000.0 17509300000.0 42171600000.0 31195700000.0 25176900000.0 20912400000.0 16218500000.0 11112600000.0 14066000000.0 17319800000.0 20870800000.0 19961600000.0 16933600000.0 13224600000.0 11038600000.0 15441900000.0 19564200000.0 23113200000.0 27755400000.0 37602400000.0 17123300000.0 16842900000.0 28213000000.0 33250600000.0 32476900000.0 36986800000.0 43693500000.0 51231400000.0 51148900000.0 49512700000.0 38503700000.0 32780400000.0 25716100000.0 19777800000.0 15841600000.0 9035750000.0 25469700000.0 9035750000.0 27758300000.0 9035750000.0 32909500000.0 9035750000.0 37418500000.0 9035750000.0 39928600000.0 10108600000.0 67585700000.0 9035750000.0 100945000000.0 22226700000.0 60220300000.0 9035750000.0 34939200000.0 9035750000.0 31248800000.0 9035750000.0 28321200000.0 9035750000.0 23561200000.0 9035750000.0 22858800000.0 9035750000.0 14701400000.0 18439100000.0 24655700000.0 32180300000.0 37874300000.0 49087600000.0 50832700000.0 50988600000.0 43432600000.0 36802500000.0 32571300000.0 33354800000.0 28245900000.0 16844200000.0 17129200000.0 37655300000.0 27800000000.0 23137200000.0 19574800000.0 15449700000.0 11038800000.0 13230200000.0 16934300000.0 19966000000.0 18980600000.0 16426000000.0 12548700000.0 10929800000.0 14689600000.0 18270400000.0 21278500000.0 24884100000.0 33431900000.0 16609500000.0 16427700000.0 26802900000.0 31305800000.0 30778600000.0 34606000000.0 40513900000.0 47029800000.0 46760400000.0 45098900000.0 35265600000.0 30249200000.0 23758700000.0 18177900000.0 15182000000.0 9035750000.0 23512000000.0 9035750000.0 25440600000.0 9035750000.0 30148300000.0 9035750000.0 34040300000.0 9035750000.0 36266800000.0 9683170000.0 60704200000.0 9035750000.0 93077300000.0 20021800000.0 54638800000.0 9035750000.0 31944800000.0 9035750000.0 28709100000.0 9035750000.0 26233900000.0 9035750000.0 21988500000.0 9035750000.0 21352000000.0 9035750000.0 14258200000.0 17081600000.0 22881200000.0 29749300000.0 34743600000.0 44752300000.0 46506700000.0 46842500000.0 40305900000.0 34440500000.0 30865300000.0 31384200000.0 26827200000.0 16428700000.0 16614500000.0 33471100000.0 24914100000.0 21294200000.0 18277600000.0 14694800000.0 10929900000.0 12552500000.0 16426500000.0 18983500000.0 17935400000.0 15808300000.0 11986800000.0 10788400000.0 13957100000.0 17025900000.0 19576800000.0 22382700000.0 29599100000.0 15976900000.0 15882600000.0 25171700000.0 29131700000.0 28820400000.0 32065700000.0 37201500000.0 42778700000.0 42390300000.0 40775000000.0 32117000000.0 27772000000.0 21850100000.0 16745900000.0 14504000000.0 9035750000.0 21635600000.0 9035750000.0 23244100000.0 9035750000.0 27487500000.0 9035750000.0 30788500000.0 9035750000.0 32719500000.0 9410250000.0 54000900000.0 9035750000.0 84569700000.0 18136600000.0 49063600000.0 9035750000.0 29025700000.0 9035750000.0 26249000000.0 9035750000.0 24181600000.0 9035750000.0 20433200000.0 9035750000.0 19865700000.0 9035750000.0 13757200000.0 15860400000.0 21133200000.0 27358100000.0 31686800000.0 40493200000.0 42187300000.0 42634300000.0 37037100000.0 31923000000.0 28894900000.0 29190200000.0 25189100000.0 15883400000.0 15981100000.0 29627900000.0 22402600000.0 19587200000.0 17030700000.0 13960600000.0 10788400000.0 11989300000.0 15808700000.0 17937400000.0 16837600000.0 15093300000.0 11504000000.0 10617000000.0 13246900000.0 15833700000.0 17973100000.0 20155600000.0 26095400000.0 15241600000.0 15218700000.0 23353500000.0 26767700000.0 26629000000.0 29361300000.0 33750400000.0 38458100000.0 38009500000.0 36501000000.0 29015500000.0 25309900000.0 19995900000.0 15457100000.0 13806700000.0 9035750000.0 19826900000.0 9035750000.0 21150400000.0 9035750000.0 24900100000.0 9035750000.0 27647400000.0 9035750000.0 29285600000.0 9242390000.0 47488200000.0 9035750000.0 75512400000.0 16504300000.0 43523600000.0 9035750000.0 26180100000.0 9035750000.0 23849100000.0 9035750000.0 22149300000.0 9035750000.0 18890300000.0 9035750000.0 18395100000.0 9035750000.0 13208400000.0 14752700000.0 19418900000.0 24971300000.0 28665200000.0 36273600000.0 37848300000.0 38347000000.0 33622000000.0 29243000000.0 26689500000.0 26811100000.0 23365600000.0 15219200000.0 15245100000.0 26116300000.0 20168700000.0 17980000000.0 15836800000.0 13249200000.0 10617000000.0 11505600000.0 15093700000.0 16838800000.0 15696400000.0 14294300000.0 11073400000.0 10418900000.0 12558100000.0 14691600000.0 16448500000.0 18135000000.0 22897800000.0 14419300000.0 14448200000.0 21379800000.0 24249900000.0 24235200000.0 26500300000.0 30165900000.0 34060500000.0 33601400000.0 32249900000.0 25933200000.0 22839800000.0 18195500000.0 14286300000.0 13092400000.0 9035750000.0 18073300000.0 9035750000.0 19142000000.0 9035750000.0 22367200000.0 9035750000.0 24602000000.0 9035750000.0 25957500000.0 9143800000.0 41164000000.0 9035750000.0 65987100000.0 15068900000.0 38036300000.0 9035750000.0 23402500000.0 9035750000.0 21494300000.0 9035750000.0 20125500000.0 9035750000.0 17355700000.0 9035750000.0 16935400000.0 9035750000.0 12621000000.0 13736400000.0 17740000000.0 22567900000.0 25653100000.0 32068900000.0 33475100000.0 33975800000.0 30067500000.0 26405900000.0 24282200000.0 24281500000.0 21387900000.0 14448600000.0 14422200000.0 22912700000.0 18143500000.0 16453000000.0 14693600000.0 12559600000.0 10418900000.0 11074400000.0 14294500000.0 15697300000.0 14520200000.0 13424500000.0 10675300000.0 10197600000.0 11888100000.0 13593900000.0 14991200000.0 16271600000.0 19972000000.0 13525300000.0 13585200000.0 19279300000.0 21609900000.0 21671600000.0 23498400000.0 26461400000.0 29587600000.0 29159200000.0 28005000000.0 22853100000.0 20350500000.0 16444600000.0 13209300000.0 12364700000.0 9035750000.0 16363200000.0 9035750000.0 17202600000.0 9035750000.0 19874800000.0 9035750000.0 21637800000.0 9035750000.0 22723300000.0 9088800000.0 35014700000.0 9035750000.0 56070900000.0 13784300000.0 32609900000.0 9035750000.0 20684900000.0 9035750000.0 19172800000.0 9035750000.0 18102500000.0 9035750000.0 15826400000.0 9035750000.0 15482600000.0 9035750000.0 12002500000.0 12791100000.0 16094700000.0 20138200000.0 22635200000.0 27864600000.0 29062500000.0 29524200000.0 26387900000.0 23426000000.0 21706600000.0 21632700000.0 19284500000.0 13585500000.0 13527600000.0 19982400000.0 16277100000.0 14994200000.0 13595200000.0 11889100000.0 10197600000.0 10676000000.0 13424700000.0 14520800000.0 13316300000.0 12497300000.0 10296200000.0 9956960000.0 11233200000.0 12533200000.0 13591500000.0 14528600000.0 17275800000.0 12574100000.0 12644800000.0 17078500000.0 18876100000.0 18971200000.0 20377100000.0 22655300000.0 25047600000.0 24682700000.0 23757300000.0 19766300000.0 17838700000.0 14736200000.0 12204400000.0 11626800000.0 9035750000.0 14686500000.0 9035750000.0 15317100000.0 9035750000.0 17412800000.0 9035750000.0 18740100000.0 9035750000.0 19568100000.0 9059900000.0 29018000000.0 9035750000.0 45837700000.0 12612900000.0 27244200000.0 9035750000.0 18017400000.0 9035750000.0 16875500000.0 9035750000.0 16075700000.0 9035750000.0 14300100000.0 9035750000.0 14033500000.0 9035750000.0 11359800000.0 11899300000.0 14478600000.0 17680300000.0 19604100000.0 23652800000.0 24611600000.0 25001700000.0 22602500000.0 20324200000.0 18996200000.0 18891900000.0 17081600000.0 12645000000.0 12575800000.0 17282800000.0 14532100000.0 13593300000.0 12534000000.0 11233800000.0 9956970000.0 10296600000.0 12497400000.0 13316600000.0 12091300000.0 11525800000.0 9927070000.0 9701030000.0 10589500000.0 11501000000.0 12238500000.0 12876100000.0 14761600000.0 11579300000.0 11643200000.0 14801700000.0 16073200000.0 16166400000.0 17160900000.0 18768900000.0 20452400000.0 20176000000.0 19502800000.0 16669400000.0 15306200000.0 13061700000.0 11252300000.0 10881500000.0 9035750000.0 13034400000.0 9035750000.0 13471700000.0 9035750000.0 14972900000.0 9035750000.0 15894300000.0 9035750000.0 16475200000.0 9045800000.0 23144800000.0 9035750000.0 35358700000.0 11523600000.0 21932100000.0 9035750000.0 15389500000.0 9035750000.0 14595100000.0 9035750000.0 14043100000.0 9035750000.0 12775400000.0 9035750000.0 12586200000.0 9035750000.0 10699100000.0 11045600000.0 12886000000.0 15197000000.0 16557800000.0 19430900000.0 20127500000.0 20421500000.0 18733600000.0 17125200000.0 16182900000.0 16083400000.0 14803500000.0 11643300000.0 11580500000.0 14766100000.0 12878200000.0 12239600000.0 11501500000.0 10589900000.0 9701030000.0 9927300000.0 11525800000.0 12091500000.0 10851600000.0 10522800000.0 9562630000.0 9434100000.0 9953520000.0 10488800000.0 10920000000.0 11287100000.0 12378400000.0 10554100000.0 10597400000.0 12471900000.0 13222900000.0 13288100000.0 13876100000.0 14824800000.0 15816300000.0 15645800000.0 15241000000.0 13562900000.0 12757400000.0 11411700000.0 10335900000.0 10131200000.0 9035750000.0 11398800000.0 9035750000.0 11653900000.0 9035750000.0 12547900000.0 9035750000.0 13085500000.0 9035750000.0 13426800000.0 9039450000.0 17361400000.0 9035750000.0 24702300000.0 10489500000.0 16661000000.0 9035750000.0 12789700000.0 9035750000.0 12325700000.0 9035750000.0 12005000000.0 9035750000.0 11251300000.0 9035750000.0 11139300000.0 9035750000.0 10025900000.0 10217400000.0 11310400000.0 12694000000.0 13498200000.0 15199300000.0 15617900000.0 15798600000.0 14804700000.0 13855700000.0 13297500000.0 13228600000.0 12472800000.0 10597500000.0 10554800000.0 12380800000.0 11288200000.0 10920600000.0 10489100000.0 9953700000.0 9434100000.0 9562750000.0 10522900000.0 10851700000.0 9603230000.0 9501370000.0 9200040000.0 9160600000.0 9321870000.0 9488390000.0 9622280000.0 9735600000.0 10073100000.0 9511090000.0 9525250000.0 10110800000.0 10344900000.0 10366500000.0 10549900000.0 10845600000.0 11154400000.0 11100400000.0 10973300000.0 10449500000.0 10198300000.0 9776260000.0 9439980000.0 9377900000.0 9035750000.0 9772630000.0 9035750000.0 9851760000.0 9035750000.0 10131400000.0 9035750000.0 10298200000.0 9035750000.0 10404400000.0 9036630000.0 11630800000.0 9035750000.0 13935500000.0 9487070000.0 11414300000.0 9035750000.0 10206300000.0 9035750000.0 10062300000.0 9035750000.0 9962890000.0 9035750000.0 9727310000.0 9035750000.0 9692360000.0 9035750000.0 9345390000.0 9403450000.0 9744990000.0 10178700000.0 10429400000.0 10960300000.0 11091800000.0 11149000000.0 10839400000.0 10543600000.0 10369400000.0 10346700000.0 10111000000.0 9525270000.0 9511310000.0 10073900000.0 9735940000.0 9622460000.0 9488470000.0 9321920000.0 9160600000.0 9200080000.0 9501380000.0 9603260000.0 