# vtk DataFile Version 2.0
Time step 47
ASCII
DATASET UNSTRUCTURED_GRID
POINTS 4650 float
159961.0 402358.0 0
163376.0 400231.0 0
166831.0 401966.0 0
170397.0 400333.0 0
176402.0 400689.0 0
323598.0 400689.0 0
329603.0 400333.0 0
333169.0 401966.0 0
336624.0 400231.0 0
340039.0 402358.0 0
156598.0 404459.0 0
163301.0 404053.0 0
173263.0 403069.0 0
179598.0 403072.0 0
183206.0 401507.0 0
186738.0 403287.0 0
190628.0 402546.0 0
194568.0 402931.0 0
198525.0 402868.0 0
202481.0 402884.0 0
206438.0 402881.0 0
210394.0 402880.0 0
214352.0 402880.0 0
218310.0 402879.0 0
222269.0 402878.0 0
226229.0 402878.0 0
230189.0 402878.0 0
234151.0 402877.0 0
238112.0 402877.0 0
242075.0 402877.0 0
246037.0 402877.0 0
250000.0 402877.0 0
253963.0 402877.0 0
257925.0 402877.0 0
261888.0 402877.0 0
265849.0 402877.0 0
269811.0 402878.0 0
273771.0 402878.0 0
277731.0 402878.0 0
281690.0 402879.0 0
285648.0 402880.0 0
289606.0 402880.0 0
293562.0 402881.0 0
297519.0 402884.0 0
301475.0 402868.0 0
305432.0 402931.0 0
309372.0 402546.0 0
313262.0 403287.0 0
316794.0 401507.0 0
320402.0 403072.0 0
326737.0 403069.0 0
336699.0 404053.0 0
343402.0 404459.0 0
153256.0 406547.0 0
159941.0 406159.0 0
166575.0 405877.0 0
170304.0 405571.0 0
176458.0 405398.0 0
182707.0 405758.0 0
190343.0 406524.0 0
309657.0 406524.0 0
317293.0 405758.0 0
323542.0 405398.0 0
329696.0 405571.0 0
333425.0 405877.0 0
340059.0 406159.0 0
346744.0 406547.0 0
149921.0 408630.0 0
153285.0 410315.0 0
156610.0 408247.0 0
163250.0 407927.0 0
173431.0 407829.0 0
179421.0 408021.0 0
186412.0 407260.0 0
194321.0 406921.0 0
198314.0 406861.0 0
202303.0 406885.0 0
206290.0 406883.0 0
210273.0 406882.0 0
214254.0 406881.0 0
218231.0 406880.0 0
222207.0 406879.0 0
226181.0 406878.0 0
230153.0 406878.0 0
234124.0 406877.0 0
238093.0 406877.0 0
242063.0 406877.0 0
246031.0 406877.0 0
250000.0 406877.0 0
253969.0 406877.0 0
257937.0 406877.0 0
261907.0 406877.0 0
265876.0 406877.0 0
269847.0 406878.0 0
273819.0 406878.0 0
277793.0 406879.0 0
281769.0 406880.0 0
285746.0 406881.0 0
289727.0 406882.0 0
293710.0 406883.0 0
297697.0 406885.0 0
301686.0 406861.0 0
305679.0 406921.0 0
313588.0 407260.0 0
320579.0 408021.0 0
326569.0 407829.0 0
336750.0 407927.0 0
343390.0 408247.0 0
346715.0 410315.0 0
350079.0 408630.0 0
143240.0 412804.0 0
146584.0 410715.0 0
149950.0 412376.0 0
156649.0 412068.0 0
159951.0 410008.0 0
163303.0 411804.0 0
166589.0 409717.0 0
170325.0 410147.0 0
176281.0 410457.0 0
179806.0 412105.0 0
182993.0 409742.0 0
186615.0 411335.0 0
190488.0 410486.0 0
194431.0 410938.0 0
198398.0 410856.0 0
202366.0 410887.0 0
206335.0 410884.0 0
210305.0 410882.0 0
214275.0 410881.0 0
218245.0 410880.0 0
222215.0 410879.0 0
226184.0 410879.0 0
230154.0 410878.0 0
234123.0 410878.0 0
238092.0 410877.0 0
242062.0 410877.0 0
246031.0 410877.0 0
250000.0 410877.0 0
253969.0 410877.0 0
257938.0 410877.0 0
261908.0 410877.0 0
265877.0 410878.0 0
269846.0 410878.0 0
273816.0 410879.0 0
277785.0 410879.0 0
281755.0 410880.0 0
285725.0 410881.0 0
289695.0 410882.0 0
293665.0 410884.0 0
297634.0 410887.0 0
301602.0 410856.0 0
305569.0 410938.0 0
309512.0 410486.0 0
313385.0 411335.0 0
317007.0 409742.0 0
320194.0 412105.0 0
323719.0 410457.0 0
329675.0 410147.0 0
333411.0 409717.0 0
336697.0 411804.0 0
340049.0 410008.0 0
343351.0 412068.0 0
350050.0 412376.0 0
353416.0 410715.0 0
356760.0 412804.0 0
139891.0 414896.0 0
146601.0 414441.0 0
153332.0 414102.0 0
156724.0 415897.0 0
160023.0 413873.0 0
166703.0 413556.0 0
173115.0 412806.0 0
176617.0 414457.0 0
183338.0 413798.0 0
316662.0 413798.0 0
323383.0 414457.0 0
326885.0 412806.0 0
333297.0 413556.0 0
339977.0 413873.0 0
343276.0 415897.0 0
346668.0 414102.0 0
353399.0 414441.0 0
360109.0 414896.0 0
136545.0 416988.0 0
143242.0 416522.0 0
146617.0 418177.0 0
149985.0 416129.0 0
153389.0 417886.0 0
163416.0 415688.0 0
170076.0 415251.0 0
173527.0 416933.0 0
180123.0 416161.0 0
186867.0 415552.0 0
190650.0 414432.0 0
194569.0 414975.0 0
198525.0 414846.0 0
202483.0 414893.0 0
206443.0 414885.0 0
210405.0 414884.0 0
214368.0 414883.0 0
218330.0 414881.0 0
222291.0 414880.0 0
226251.0 414880.0 0
230210.0 414878.0 0
234169.0 414878.0 0
238127.0 414877.0 0
242085.0 414877.0 0
246042.0 414877.0 0
250000.0 414877.0 0
253958.0 414877.0 0
257915.0 414877.0 0
261873.0 414877.0 0
265831.0 414878.0 0
269790.0 414878.0 0
273749.0 414880.0 0
277709.0 414880.0 0
281670.0 414881.0 0
285632.0 414883.0 0
289595.0 414884.0 0
293557.0 414885.0 0
297517.0 414893.0 0
301475.0 414846.0 0
305431.0 414975.0 0
309350.0 414432.0 0
313133.0 415552.0 0
319877.0 416161.0 0
326473.0 416933.0 0
329924.0 415251.0 0
336584.0 415688.0 0
346611.0 417886.0 0
350015.0 416129.0 0
353383.0 418177.0 0
356758.0 416522.0 0
363455.0 416988.0 0
133210.0 419073.0 0
136546.0 420719.0 0
139887.0 418617.0 0
143248.0 420260.0 0
150020.0 419880.0 0
156807.0 419728.0 0
160125.0 417752.0 0
163525.0 419603.0 0
166816.0 417474.0 0
170253.0 419195.0 0
177014.0 418643.0 0
183646.0 417874.0 0
187121.0 419747.0 0
190804.0 418370.0 0
194694.0 419026.0 0
198637.0 418834.0 0
202586.0 418898.0 0
206538.0 418884.0 0
210491.0 418885.0 0
214444.0 418883.0 0
218399.0 418882.0 0
222353.0 418880.0 0
226306.0 418879.0 0
230257.0 418878.0 0
234207.0 418878.0 0
238157.0 418877.0 0
242105.0 418877.0 0
246053.0 418877.0 0
250000.0 418877.0 0
253947.0 418877.0 0
257895.0 418877.0 0
261843.0 418877.0 0
265793.0 418878.0 0
269743.0 418878.0 0
273694.0 418879.0 0
277647.0 418880.0 0
281601.0 418882.0 0
285556.0 418883.0 0
289509.0 418885.0 0
293462.0 418884.0 0
297414.0 418898.0 0
301363.0 418834.0 0
305306.0 419026.0 0
309196.0 418370.0 0
312879.0 419747.0 0
316354.0 417874.0 0
322986.0 418643.0 0
329747.0 419195.0 0
333184.0 417474.0 0
336475.0 419603.0 0
339875.0 417752.0 0
343193.0 419728.0 0
349980.0 419880.0 0
356752.0 420260.0 0
360113.0 418617.0 0
363454.0 420719.0 0
366790.0 419073.0 0
126587.0 423215.0 0
129891.0 421149.0 0
133226.0 422820.0 0
139897.0 422365.0 0
146632.0 421919.0 0
150044.0 423621.0 0
153447.0 421662.0 0
156891.0 423559.0 0
160228.0 421657.0 0
166950.0 421403.0 0
173718.0 420898.0 0
180534.0 420381.0 0
184026.0 422215.0 0
315974.0 422215.0 0
319466.0 420381.0 0
326282.0 420898.0 0
333050.0 421403.0 0
339772.0 421657.0 0
343109.0 423559.0 0
346553.0 421662.0 0
349956.0 423621.0 0
353368.0 421919.0 0
360103.0 422365.0 0
366774.0 422820.0 0
370109.0 421149.0 0
373413.0 423215.0 0
123297.0 425273.0 0
129926.0 424912.0 0
136573.0 424485.0 0
139930.0 426148.0 0
143263.0 424021.0 0
146647.0 425668.0 0
153478.0 425415.0 0
163642.0 423541.0 0
170402.0 423141.0 0
173877.0 424847.0 0
177217.0 422609.0 0
180707.0 424391.0 0
187496.0 424136.0 0
190981.0 422311.0 0
194835.0 423133.0 0
198764.0 422818.0 0
202704.0 422904.0 0
206645.0 422882.0 0
210586.0 422885.0 0
214527.0 422882.0 0
218468.0 422881.0 0
222409.0 422880.0 0
226350.0 422879.0 0
230292.0 422878.0 0
234233.0 422878.0 0
238175.0 422877.0 0
242117.0 422877.0 0
246059.0 422877.0 0
250000.0 422877.0 0
253941.0 422877.0 0
257883.0 422877.0 0
261825.0 422877.0 0
265767.0 422878.0 0
269708.0 422878.0 0
273650.0 422879.0 0
277591.0 422880.0 0
281532.0 422881.0 0
285473.0 422882.0 0
289414.0 422885.0 0
293355.0 422882.0 0
297296.0 422904.0 0
301236.0 422818.0 0
305165.0 423133.0 0
309019.0 422311.0 0
312504.0 424136.0 0
319293.0 424391.0 0
322783.0 422609.0 0
326123.0 424847.0 0
329598.0 423141.0 0
336358.0 423541.0 0
346522.0 425415.0 0
353353.0 425668.0 0
356737.0 424021.0 0
360070.0 426148.0 0
363427.0 424485.0 0
370074.0 424912.0 0
376703.0 425273.0 0
120006.0 427329.0 0
126642.0 426993.0 0
133273.0 426605.0 0
136629.0 428292.0 0
143292.0 427819.0 0
150061.0 427355.0 0
153511.0 429147.0 0
156919.0 427358.0 0
160319.0 425595.0 0
167084.0 425357.0 0
170548.0 427095.0 0
177365.0 426566.0 0
184177.0 426276.0 0
190975.0 426276.0 0
194824.0 427161.0 0
198758.0 426802.0 0
202704.0 426907.0 0
206650.0 426882.0 0
210594.0 426885.0 0
214537.0 426883.0 0
218479.0 426881.0 0
222420.0 426880.0 0
226361.0 426879.0 0
230302.0 426879.0 0
234242.0 426878.0 0
238182.0 426877.0 0
242121.0 426877.0 0
246061.0 426877.0 0
250000.0 426877.0 0
253939.0 426877.0 0
257879.0 426877.0 0
261818.0 426877.0 0
265758.0 426878.0 0
269698.0 426879.0 0
273639.0 426879.0 0
277580.0 426880.0 0
281521.0 426881.0 0
285463.0 426883.0 0
289406.0 426885.0 0
293350.0 426882.0 0
297296.0 426907.0 0
301242.0 426802.0 0
305176.0 427161.0 0
309025.0 426276.0 0
315823.0 426276.0 0
322635.0 426566.0 0
329452.0 427095.0 0
332916.0 425357.0 0
339681.0 425595.0 0
343081.0 427358.0 0
346489.0 429147.0 0
349939.0 427355.0 0
356708.0 427819.0 0
363371.0 428292.0 0
366727.0 426605.0 0
373358.0 426993.0 0
379994.0 427329.0 0
113359.0 431481.0 0
116697.0 429396.0 0
120066.0 431097.0 0
123361.0 429054.0 0
129991.0 428715.0 0
133354.0 430433.0 0
139995.0 429970.0 0
146661.0 429428.0 0
150063.0 431062.0 0
157008.0 431157.0 0
160721.0 429961.0 0
163766.0 427502.0 0
167237.0 429343.0 0
174052.0 428789.0 0
180825.0 428371.0 0
184194.0 430341.0 0
187585.0 428291.0 0
312415.0 428291.0 0
315806.0 430341.0 0
319175.0 428371.0 0
325948.0 428789.0 0
332763.0 429343.0 0
336234.0 427502.0 0
339279.0 429961.0 0
342992.0 431157.0 0
349937.0 431062.0 0
353339.0 429428.0 0
360005.0 429970.0 0
366646.0 430433.0 0
370009.0 428715.0 0
376639.0 429054.0 0
379934.0 431097.0 0
383303.0 429396.0 0
386641.0 431481.0 0
109994.0 433584.0 0
116733.0 433139.0 0
123441.0 432862.0 0
126722.0 430809.0 0
130089.0 432557.0 0
136729.0 432142.0 0
143355.0 431670.0 0
146716.0 433196.0 0
150099.0 434760.0 0
153478.0 432824.0 0
163844.0 432415.0 0
170794.0 431039.0 0
174298.0 432754.0 0
177517.0 430521.0 0
180827.0 432486.0 0
187628.0 432270.0 0
191038.0 430263.0 0
194875.0 431218.0 0
198806.0 430783.0 0
202754.0 430916.0 0
206700.0 430882.0 0
210643.0 430887.0 0
214584.0 430884.0 0
218523.0 430882.0 0
222461.0 430881.0 0
226397.0 430880.0 0
230332.0 430879.0 0
234267.0 430878.0 0
238201.0 430878.0 0
242134.0 430877.0 0
246067.0 430877.0 0
250000.0 430877.0 0
253933.0 430877.0 0
257866.0 430877.0 0
261799.0 430878.0 0
265733.0 430878.0 0
269668.0 430879.0 0
273603.0 430880.0 0
277539.0 430881.0 0
281477.0 430882.0 0
285416.0 430884.0 0
289357.0 430887.0 0
293300.0 430882.0 0
297246.0 430916.0 0
301194.0 430783.0 0
305125.0 431218.0 0
308962.0 430263.0 0
312372.0 432270.0 0
319173.0 432486.0 0
322483.0 430521.0 0
325702.0 432754.0 0
329206.0 431039.0 0
336156.0 432415.0 0
346522.0 432824.0 0
349901.0 434760.0 0
353284.0 433196.0 0
356645.0 431670.0 0
363271.0 432142.0 0
369911.0 432557.0 0
373278.0 430809.0 0
376559.0 432862.0 0
383267.0 433139.0 0
390006.0 433584.0 0
106611.0 435698.0 0
113370.0 435212.0 0
116771.0 436887.0 0
120125.0 434872.0 0
126823.0 434658.0 0
133471.0 434300.0 0
140121.0 433826.0 0
153145.0 436569.0 0
156629.0 434988.0 0
160287.0 433916.0 0
167613.0 433312.0 0
177170.0 435466.0 0
184236.0 434316.0 0
191036.0 434265.0 0
194868.0 435217.0 0
198792.0 434761.0 0
202739.0 434919.0 0
206690.0 434882.0 0
210640.0 434889.0 0
214586.0 434885.0 0
218529.0 434883.0 0
222469.0 434881.0 0
226406.0 434880.0 0
230342.0 434879.0 0
234276.0 434878.0 0
238208.0 434878.0 0
242139.0 434877.0 0
246070.0 434877.0 0
250000.0 434877.0 0
253930.0 434877.0 0
257861.0 434877.0 0
261792.0 434878.0 0
265724.0 434878.0 0
269658.0 434879.0 0
273594.0 434880.0 0
277531.0 434881.0 0
281471.0 434883.0 0
285414.0 434885.0 0
289360.0 434889.0 0
293310.0 434882.0 0
297261.0 434919.0 0
301208.0 434761.0 0
305132.0 435217.0 0
308964.0 434265.0 0
315764.0 434316.0 0
322830.0 435466.0 0
332387.0 433312.0 0
339713.0 433916.0 0
343371.0 434988.0 0
346855.0 436569.0 0
359879.0 433826.0 0
366529.0 434300.0 0
373177.0 434658.0 0
379875.0 434872.0 0
383229.0 436887.0 0
386630.0 435212.0 0
393389.0 435698.0 0
103222.0 437818.0 0
106595.0 439447.0 0
109978.0 437314.0 0
113370.0 438948.0 0
120192.0 438647.0 0
123522.0 436700.0 0
130222.0 436429.0 0
133688.0 438216.0 0
136855.0 436027.0 0
140212.0 437651.0 0
143553.0 435602.0 0
147143.0 436963.0 0
157915.0 438558.0 0
161733.0 437600.0 0
165580.0 436743.0 0
169535.0 436712.0 0
173405.0 436565.0 0
180933.0 436475.0 0
187580.0 436244.0 0
312420.0 436244.0 0
319067.0 436475.0 0
326595.0 436565.0 0
330465.0 436712.0 0
334420.0 436743.0 0
338267.0 437600.0 0
342085.0 438558.0 0
352857.0 436963.0 0
356447.0 435602.0 0
359788.0 437651.0 0
363145.0 436027.0 0
366312.0 438216.0 0
369778.0 436429.0 0
376478.0 436700.0 0
379808.0 438647.0 0
386630.0 438948.0 0
390022.0 437314.0 0
393405.0 439447.0 0
396778.0 437818.0 0
96452.1 442055.0 0
99836.8 439937.0 0
103230.0 441591.0 0
109990.0 441075.0 0
116776.0 440619.0 0
120191.0 442384.0 0
126892.0 438528.0 0
130303.0 440274.0 0
137208.0 440211.0 0
142408.0 440580.0 0
146219.0 440423.0 0
150251.0 439450.0 0
154225.0 439856.0 0
163918.0 440910.0 0
167717.0 440167.0 0
171683.0 440130.0 0
175650.0 439787.0 0
179603.0 440243.0 0
183514.0 439432.0 0
187421.0 440203.0 0
190905.0 438250.0 0
194708.0 439210.0 0
198594.0 438731.0 0
202519.0 438914.0 0
206454.0 438884.0 0
210396.0 438884.0 0
214343.0 438882.0 0
218294.0 438881.0 0
222250.0 438880.0 0
226209.0 438879.0 0
230171.0 438878.0 0
234134.0 438878.0 0
238099.0 438877.0 0
242066.0 438877.0 0
246033.0 438877.0 0
250000.0 438877.0 0
253967.0 438877.0 0
257934.0 438877.0 0
261901.0 438877.0 0
265866.0 438878.0 0
269829.0 438878.0 0
273791.0 438879.0 0
277750.0 438880.0 0
281706.0 438881.0 0
285657.0 438882.0 0
289604.0 438884.0 0
293546.0 438884.0 0
297481.0 438914.0 0
301406.0 438731.0 0
305292.0 439210.0 0
309095.0 438250.0 0
312579.0 440203.0 0
316486.0 439432.0 0
320397.0 440243.0 0
324350.0 439787.0 0
328317.0 440130.0 0
332283.0 440167.0 0
336082.0 440910.0 0
345775.0 439856.0 0
349749.0 439450.0 0
353781.0 440423.0 0
357592.0 440580.0 0
362792.0 440211.0 0
369697.0 440274.0 0
373108.0 438528.0 0
379809.0 442384.0 0
383224.0 440619.0 0
390010.0 441075.0 0
396770.0 441591.0 0
400163.0 439937.0 0
403548.0 442055.0 0
92843.3 444328.0 0
99860.7 443738.0 0
106652.0 443237.0 0
110086.0 444891.0 0
113387.0 442714.0 0
116762.0 444374.0 0
123589.0 440605.0 0
127001.0 442443.0 0
133702.0 442059.0 0
148425.0 443452.0 0
152255.0 443052.0 0
156412.0 442765.0 0
160145.0 441695.0 0
177172.0 443418.0 0
184759.0 443166.0 0
191928.0 442052.0 0
195601.0 443391.0 0
199431.0 442618.0 0
203309.0 443018.0 0
207199.0 442835.0 0
211090.0 442916.0 0
214981.0 442890.0 0
218870.0 442890.0 0
222760.0 442887.0 0
226650.0 442884.0 0
230540.0 442882.0 0
234431.0 442880.0 0
238323.0 442878.0 0
242215.0 442878.0 0
246107.0 442876.0 0
250000.0 442877.0 0
253893.0 442876.0 0
257785.0 442878.0 0
261677.0 442878.0 0
265569.0 442880.0 0
269460.0 442882.0 0
273350.0 442884.0 0
277240.0 442887.0 0
281130.0 442890.0 0
285019.0 442890.0 0
288910.0 442916.0 0
292801.0 442835.0 0
296691.0 443018.0 0
300569.0 442618.0 0
304399.0 443391.0 0
308072.0 442052.0 0
315241.0 443166.0 0
322828.0 443418.0 0
339855.0 441695.0 0
343588.0 442765.0 0
347745.0 443052.0 0
351575.0 443452.0 0
366298.0 442059.0 0
372999.0 442443.0 0
376411.0 440605.0 0
383238.0 444374.0 0
386613.0 442714.0 0
389914.0 444891.0 0
393348.0 443237.0 0
400139.0 443738.0 0
407157.0 444328.0 0
89435.3 446456.0 0
96421.1 445872.0 0
103309.0 445393.0 0
106789.0 447058.0 0
113525.0 446553.0 0
120093.0 446040.0 0
123767.0 444604.0 0
130440.0 444153.0 0
136791.0 444169.0 0
140600.0 443966.0 0
144499.0 443830.0 0
150635.0 446615.0 0
154562.0 446212.0 0
158484.0 445884.0 0
162224.0 445023.0 0
165961.0 444302.0 0
169708.0 443562.0 0
173431.0 444381.0 0
180971.0 444067.0 0
188552.0 444011.0 0
311448.0 444011.0 0
319029.0 444067.0 0
326569.0 444381.0 0
330292.0 443562.0 0
334039.0 444302.0 0
337776.0 445023.0 0
341516.0 445884.0 0
345438.0 446212.0 0
349365.0 446615.0 0
355501.0 443830.0 0
359400.0 443966.0 0
363209.0 444169.0 0
369560.0 444153.0 0
376233.0 444604.0 0
379907.0 446040.0 0
386475.0 446553.0 0
393211.0 447058.0 0
396691.0 445393.0 0
403579.0 445872.0 0
410565.0 446456.0 0
92932.3 448276.0 0
99937.1 447568.0 0
103465.0 449207.0 0
110256.0 448757.0 0
117001.0 448236.0 0
122752.0 448396.0 0
127249.0 446565.0 0
131012.0 447878.0 0
134915.0 447596.0 0
138848.0 447474.0 0
142753.0 447267.0 0
146705.0 446981.0 0
156850.0 449425.0 0
160792.0 448969.0 0
164631.0 448156.0 0
168471.0 447358.0 0
172276.0 448187.0 0
176087.0 447281.0 0
179889.0 448044.0 0
183643.0 446982.0 0
187444.0 447815.0 0
191232.0 446895.0 0
195077.0 447321.0 0
198908.0 446736.0 0
202790.0 446974.0 0
206688.0 446885.0 0
210595.0 446891.0 0
214510.0 446887.0 0
218434.0 446884.0 0
222364.0 446882.0 0
226300.0 446880.0 0
230242.0 446879.0 0
234188.0 446878.0 0
238138.0 446878.0 0
242090.0 446877.0 0
246045.0 446877.0 0
250000.0 446877.0 0
253955.0 446877.0 0
257910.0 446877.0 0
261862.0 446878.0 0
265812.0 446878.0 0
269758.0 446879.0 0
273700.0 446880.0 0
277636.0 446882.0 0
281566.0 446884.0 0
285490.0 446887.0 0
289405.0 446891.0 0
293312.0 446885.0 0
297210.0 446974.0 0
301092.0 446736.0 0
304923.0 447321.0 0
308768.0 446895.0 0
312556.0 447815.0 0
316357.0 446982.0 0
320111.0 448044.0 0
323913.0 447281.0 0
327724.0 448187.0 0
331529.0 447358.0 0
335369.0 448156.0 0
339208.0 448969.0 0
343150.0 449425.0 0
353295.0 446981.0 0
357247.0 447267.0 0
361152.0 447474.0 0
365085.0 447596.0 0
368988.0 447878.0 0
372751.0 446565.0 0
377248.0 448396.0 0
382999.0 448236.0 0
389744.0 448757.0 0
396535.0 449207.0 0
400063.0 447568.0 0
407068.0 448276.0 0
96582.0 449728.0 0
100095.0 451461.0 0
106986.0 450914.0 0
113727.0 450402.0 0
117243.0 452014.0 0
121114.0 451798.0 0
125749.0 450507.0 0
129363.0 451320.0 0
133205.0 451136.0 0
137082.0 450946.0 0
141011.0 450761.0 0
144963.0 450495.0 0
148927.0 450162.0 0
152894.0 449769.0 0
174925.0 451135.0 0
182684.0 450869.0 0
186572.0 451654.0 0
190460.0 450815.0 0
194423.0 451215.0 0
198393.0 450866.0 0
202376.0 450941.0 0
206356.0 450885.0 0
210333.0 450885.0 0
214308.0 450883.0 0
218280.0 450882.0 0
222250.0 450881.0 0
226217.0 450880.0 0
230183.0 450879.0 0
234148.0 450878.0 0
238112.0 450878.0 0
242075.0 450877.0 0
246038.0 450877.0 0
250000.0 450877.0 0
253962.0 450877.0 0
257925.0 450877.0 0
261888.0 450878.0 0
265852.0 450878.0 0
269817.0 450879.0 0
273783.0 450880.0 0
277750.0 450881.0 0
281720.0 450882.0 0
285692.0 450883.0 0
289667.0 450885.0 0
293644.0 450885.0 0
297624.0 450941.0 0
301607.0 450866.0 0
305577.0 451215.0 0
309540.0 450815.0 0
313428.0 451654.0 0
317316.0 450869.0 0
325075.0 451135.0 0
347106.0 449769.0 0
351073.0 450162.0 0
355037.0 450495.0 0
358989.0 450761.0 0
362918.0 450946.0 0
366795.0 451136.0 0
370637.0 451320.0 0
374251.0 450507.0 0
378886.0 451798.0 0
382757.0 452014.0 0
386273.0 450402.0 0
393014.0 450914.0 0
399905.0 451461.0 0
403418.0 449728.0 0
96429.8 453633.0 0
103669.0 453034.0 0
110503.0 452682.0 0
114065.0 454276.0 0
143187.0 454020.0 0
147178.0 453714.0 0
151186.0 453327.0 0
155152.0 452958.0 0
159220.0 452605.0 0
163188.0 452083.0 0
167086.0 451310.0 0
171013.0 451946.0 0
178830.0 451868.0 0
321170.0 451868.0 0
328987.0 451946.0 0
332914.0 451310.0 0
336812.0 452083.0 0
340780.0 452605.0 0
344848.0 452958.0 0
348814.0 453327.0 0
352822.0 453714.0 0
356813.0 454020.0 0
385935.0 454276.0 0
389497.0 452682.0 0
396331.0 453034.0 0
403570.0 453633.0 0
100004.0 455407.0 0
103710.0 456860.0 0
107190.0 454791.0 0
110913.0 456654.0 0
119294.0 455234.0 0
123356.0 454896.0 0
127285.0 454655.0 0
131298.0 454618.0 0
135256.0 454454.0 0
139212.0 454267.0 0
149476.0 456889.0 0
153443.0 456535.0 0
157415.0 456147.0 0
161639.0 455747.0 0
165758.0 455099.0 0
169762.0 455715.0 0
173671.0 454921.0 0
177600.0 455634.0 0
181575.0 454847.0 0
185515.0 455463.0 0
189895.0 454876.0 0
193881.0 455138.0 0
197997.0 454877.0 0
201996.0 454917.0 0
206000.0 454877.0 0
210000.0 454877.0 0
214000.0 454877.0 0
218000.0 454877.0 0
222000.0 454877.0 0
226000.0 454877.0 0
230000.0 454877.0 0
234000.0 454877.0 0
238000.0 454877.0 0
242000.0 454877.0 0
246000.0 454877.0 0
250000.0 454877.0 0
254000.0 454877.0 0
258000.0 454877.0 0
262000.0 454877.0 0
266000.0 454877.0 0
270000.0 454877.0 0
274000.0 454877.0 0
278000.0 454877.0 0
282000.0 454877.0 0
286000.0 454877.0 0
290000.0 454877.0 0
294000.0 454877.0 0
298004.0 454917.0 0
302003.0 454877.0 0
306119.0 455138.0 0
310105.0 454876.0 0
314485.0 455463.0 0
318425.0 454847.0 0
322400.0 455634.0 0
326329.0 454921.0 0
330238.0 455715.0 0
334242.0 455099.0 0
338361.0 455747.0 0
342585.0 456147.0 0
346557.0 456535.0 0
350524.0 456889.0 0
360788.0 454267.0 0
364744.0 454454.0 0
368702.0 454618.0 0
372715.0 454655.0 0
376644.0 454896.0 0
380706.0 455234.0 0
389087.0 456654.0 0
392810.0 454791.0 0
396290.0 456860.0 0
399996.0 455407.0 0
96650.4 457583.0 0
107252.0 458649.0 0
116154.0 457515.0 0
121440.0 458368.0 0
125390.0 458177.0 0
129337.0 458024.0 0
133351.0 457917.0 0
137344.0 457769.0 0
141375.0 457553.0 0
145394.0 457264.0 0
159568.0 459425.0 0
167289.0 458812.0 0
175036.0 458673.0 0
182834.0 458643.0 0
190684.0 458800.0 0
194630.0 459039.0 0
198573.0 458870.0 0
202520.0 458886.0 0
206469.0 458883.0 0
210420.0 458882.0 0
214373.0 458881.0 0
218326.0 458880.0 0
222282.0 458879.0 0
226239.0 458879.0 0
230197.0 458878.0 0
234156.0 458878.0 0
238116.0 458877.0 0
242077.0 458877.0 0
246038.0 458877.0 0
250000.0 458877.0 0
253962.0 458877.0 0
257923.0 458877.0 0
261884.0 458877.0 0
265844.0 458878.0 0
269803.0 458878.0 0
273761.0 458879.0 0
277718.0 458879.0 0
281674.0 458880.0 0
285627.0 458881.0 0
289580.0 458882.0 0
293531.0 458883.0 0
297480.0 458886.0 0
301427.0 458870.0 0
305370.0 459039.0 0
309316.0 458800.0 0
317166.0 458643.0 0
324964.0 458673.0 0
332711.0 458812.0 0
340432.0 459425.0 0
354606.0 457264.0 0
358625.0 457553.0 0
362656.0 457769.0 0
366649.0 457917.0 0
370663.0 458024.0 0
374610.0 458177.0 0
378560.0 458368.0 0
383846.0 457515.0 0
392748.0 458649.0 0
403350.0 457583.0 0
100206.0 459370.0 0
103924.0 460735.0 0
110436.0 460863.0 0
114349.0 460915.0 0
118330.0 460811.0 0
123426.0 461643.0 0
127395.0 461497.0 0
131387.0 461354.0 0
135409.0 461240.0 0
139488.0 461057.0 0
143598.0 460817.0 0
147718.0 460444.0 0
151694.0 460140.0 0
155638.0 459789.0 0
163458.0 459636.0 0
171176.0 459510.0 0
178941.0 459386.0 0
186756.0 459232.0 0
313244.0 459232.0 0
321059.0 459386.0 0
328824.0 459510.0 0
336542.0 459636.0 0
344362.0 459789.0 0
348306.0 460140.0 0
352282.0 460444.0 0
356402.0 460817.0 0
360512.0 461057.0 0
364591.0 461240.0 0
368613.0 461354.0 0
372605.0 461497.0 0
376574.0 461643.0 0
381670.0 460811.0 0
385651.0 460915.0 0
389564.0 460863.0 0
396076.0 460735.0 0
399794.0 459370.0 0
100319.0 463371.0 0
104127.0 464603.0 0
108090.0 464079.0 0
112388.0 464314.0 0
116398.0 464282.0 0
120387.0 464206.0 0
141696.0 464321.0 0
145953.0 464003.0 0
149944.0 463718.0 0
153930.0 463418.0 0
157899.0 463029.0 0
161873.0 463317.0 0
165827.0 462818.0 0
169778.0 463247.0 0
173738.0 462832.0 0
177712.0 463170.0 0
181844.0 462869.0 0
185832.0 463092.0 0
189972.0 462877.0 0
193968.0 462960.0 0
198000.0 462877.0 0
202000.0 462877.0 0
206000.0 462877.0 0
210000.0 462877.0 0
214000.0 462877.0 0
218000.0 462877.0 0
222000.0 462877.0 0
226000.0 462877.0 0
230000.0 462877.0 0
234000.0 462877.0 0
238000.0 462877.0 0
242000.0 462877.0 0
246000.0 462877.0 0
250000.0 462877.0 0
254000.0 462877.0 0
258000.0 462877.0 0
262000.0 462877.0 0
266000.0 462877.0 0
270000.0 462877.0 0
274000.0 462877.0 0
278000.0 462877.0 0
282000.0 462877.0 0
286000.0 462877.0 0
290000.0 462877.0 0
294000.0 462877.0 0
298000.0 462877.0 0
302000.0 462877.0 0
306032.0 462960.0 0
310028.0 462877.0 0
314168.0 463092.0 0
318156.0 462869.0 0
322288.0 463170.0 0
326262.0 462832.0 0
330222.0 463247.0 0
334173.0 462818.0 0
338127.0 463317.0 0
342101.0 463029.0 0
346070.0 463418.0 0
350056.0 463718.0 0
354047.0 464003.0 0
358304.0 464321.0 0
379613.0 464206.0 0
383602.0 464282.0 0
387612.0 464314.0 0
391910.0 464079.0 0
395873.0 464603.0 0
399681.0 463371.0 0
125399.0 464950.0 0
129431.0 464811.0 0
133429.0 464697.0 0
137532.0 464532.0 0
159024.0 466826.0 0
340976.0 466826.0 0
362468.0 464532.0 0
366571.0 464697.0 0
370569.0 464811.0 0
374601.0 464950.0 0
101299.0 467367.0 0
106500.0 467747.0 0
110461.0 467740.0 0
114447.0 467729.0 0
118444.0 467688.0 0
122437.0 467620.0 0
127420.0 468254.0 0
131407.0 468175.0 0
135380.0 468099.0 0
139347.0 468017.0 0
143307.0 467923.0 0
147260.0 467747.0 0
151194.0 467484.0 0
155116.0 467218.0 0
162929.0 467189.0 0
166822.0 466673.0 0
170727.0 467127.0 0
174642.0 466726.0 0
178570.0 467063.0 0
182506.0 466813.0 0
186450.0 467021.0 0
190396.0 466864.0 0
194350.0 466926.0 0
198306.0 466879.0 0
202266.0 466880.0 0
206231.0 466879.0 0
210200.0 466879.0 0
214171.0 466878.0 0
218145.0 466878.0 0
222122.0 466878.0 0
226101.0 466877.0 0
230081.0 466877.0 0
234063.0 466877.0 0
238047.0 466877.0 0
242031.0 466877.0 0
246015.0 466877.0 0
250000.0 466877.0 0
253985.0 466877.0 0
257969.0 466877.0 0
261953.0 466877.0 0
265937.0 466877.0 0
269919.0 466877.0 0
273899.0 466877.0 0
277878.0 466878.0 0
281855.0 466878.0 0
285829.0 466878.0 0
289800.0 466879.0 0
293769.0 466879.0 0
297734.0 466880.0 0
301694.0 466879.0 0
305650.0 466926.0 0
309604.0 466864.0 0
313550.0 467021.0 0
317494.0 466813.0 0
321430.0 467063.0 0
325358.0 466726.0 0
329273.0 467127.0 0
333178.0 466673.0 0
337071.0 467189.0 0
344884.0 467218.0 0
348806.0 467484.0 0
352740.0 467747.0 0
356693.0 467923.0 0
360653.0 468017.0 0
364620.0 468099.0 0
368593.0 468175.0 0
372580.0 468254.0 0
377563.0 467620.0 0
381556.0 467688.0 0
385553.0 467729.0 0
389539.0 467740.0 0
393500.0 467747.0 0
398701.0 467367.0 0
100949.0 471326.0 0
104941.0 471402.0 0
108933.0 471397.0 0
112931.0 471403.0 0
116942.0 471376.0 0
121045.0 471363.0 0
125042.0 471454.0 0
129405.0 471619.0 0
133399.0 471559.0 0
137392.0 471495.0 0
141383.0 471407.0 0
145422.0 471279.0 0
149462.0 471072.0 0
153895.0 471016.0 0
157901.0 470864.0 0
161895.0 471041.0 0
165906.0 470867.0 0
169901.0 471026.0 0
173933.0 470872.0 0
177929.0 470995.0 0
181969.0 470875.0 0
185966.0 470968.0 0
189997.0 470877.0 0
193996.0 470898.0 0
198000.0 470877.0 0
202000.0 470877.0 0
206000.0 470877.0 0
210000.0 470877.0 0
214000.0 470877.0 0
218000.0 470877.0 0
222000.0 470877.0 0
226000.0 470877.0 0
230000.0 470877.0 0
234000.0 470877.0 0
238000.0 470877.0 0
242000.0 470877.0 0
246000.0 470877.0 0
250000.0 470877.0 0
254000.0 470877.0 0
258000.0 470877.0 0
262000.0 470877.0 0
266000.0 470877.0 0
270000.0 470877.0 0
274000.0 470877.0 0
278000.0 470877.0 0
282000.0 470877.0 0
286000.0 470877.0 0
290000.0 470877.0 0
294000.0 470877.0 0
298000.0 470877.0 0
302000.0 470877.0 0
306004.0 470898.0 0
310003.0 470877.0 0
314034.0 470968.0 0
318031.0 470875.0 0
322071.0 470995.0 0
326067.0 470872.0 0
330099.0 471026.0 0
334094.0 470867.0 0
338105.0 471041.0 0
342099.0 470864.0 0
346105.0 471016.0 0
350538.0 471072.0 0
354578.0 471279.0 0
358617.0 471407.0 0
362608.0 471495.0 0
366601.0 471559.0 0
370595.0 471619.0 0
374958.0 471454.0 0
378955.0 471363.0 0
383058.0 471376.0 0
387069.0 471403.0 0
391067.0 471397.0 0
395059.0 471402.0 0
399051.0 471326.0 0
102122.0 475135.0 0
106164.0 475197.0 0
110225.0 475161.0 0
114339.0 475130.0 0
118335.0 475115.0 0
122330.0 475153.0 0
126327.0 475238.0 0
130445.0 475396.0 0
134426.0 475359.0 0
138395.0 475322.0 0
142358.0 475238.0 0
146316.0 475142.0 0
150269.0 474978.0 0
154231.0 474995.0 0
158197.0 474853.0 0
162167.0 475022.0 0
166142.0 474860.0 0
170121.0 475006.0 0
174103.0 474868.0 0
178088.0 474978.0 0
182075.0 474873.0 0
186065.0 474947.0 0
190055.0 474876.0 0
194047.0 474890.0 0
198040.0 474877.0 0
202034.0 474877.0 0
206029.0 474877.0 0
210024.0 474877.0 0
214020.0 474877.0 0
218017.0 474877.0 0
222014.0 474877.0 0
226011.0 474877.0 0
230009.0 474877.0 0
234007.0 474877.0 0
238005.0 474877.0 0
242003.0 474877.0 0
246002.0 474877.0 0
250000.0 474877.0 0
253998.0 474877.0 0
257997.0 474877.0 0
261995.0 474877.0 0
265993.0 474877.0 0
269991.0 474877.0 0
273989.0 474877.0 0
277986.0 474877.0 0
281983.0 474877.0 0
285980.0 474877.0 0
289976.0 474877.0 0
293971.0 474877.0 0
297966.0 474877.0 0
301960.0 474877.0 0
305953.0 474890.0 0
309945.0 474876.0 0
313935.0 474947.0 0
317925.0 474873.0 0
321912.0 474978.0 0
325897.0 474868.0 0
329879.0 475006.0 0
333858.0 474860.0 0
337833.0 475022.0 0
341803.0 474853.0 0
345769.0 474995.0 0
349731.0 474978.0 0
353684.0 475142.0 0
357642.0 475238.0 0
361605.0 475322.0 0
365574.0 475359.0 0
369555.0 475396.0 0
373673.0 475238.0 0
377670.0 475153.0 0
381665.0 475115.0 0
385661.0 475130.0 0
389775.0 475161.0 0
393836.0 475197.0 0
397878.0 475135.0 0
101901.0 479117.0 0
105899.0 479176.0 0
109896.0 479130.0 0
113892.0 479091.0 0
117887.0 479079.0 0
121881.0 479127.0 0
125871.0 479207.0 0
129858.0 479290.0 0
133852.0 479266.0 0
137850.0 479249.0 0
141848.0 479165.0 0
145915.0 479094.0 0
149961.0 478955.0 0
153987.0 478981.0 0
157991.0 478876.0 0
161988.0 479006.0 0
165992.0 478876.0 0
169991.0 478991.0 0
173995.0 478877.0 0
177994.0 478964.0 0
181998.0 478877.0 0
185998.0 478930.0 0
190000.0 478877.0 0
194000.0 478884.0 0
198000.0 478877.0 0
202000.0 478877.0 0
206000.0 478877.0 0
210000.0 478877.0 0
214000.0 478877.0 0
218000.0 478877.0 0
222000.0 478877.0 0
226000.0 478877.0 0
230000.0 478877.0 0
234000.0 478877.0 0
238000.0 478877.0 0
242000.0 478877.0 0
246000.0 478877.0 0
250000.0 478877.0 0
254000.0 478877.0 0
258000.0 478877.0 0
262000.0 478877.0 0
266000.0 478877.0 0
270000.0 478877.0 0
274000.0 478877.0 0
278000.0 478877.0 0
282000.0 478877.0 0
286000.0 478877.0 0
290000.0 478877.0 0
294000.0 478877.0 0
298000.0 478877.0 0
302000.0 478877.0 0
306000.0 478884.0 0
310000.0 478877.0 0
314002.0 478930.0 0
318002.0 478877.0 0
322006.0 478964.0 0
326005.0 478877.0 0
330009.0 478991.0 0
334008.0 478876.0 0
338012.0 479006.0 0
342009.0 478876.0 0
346013.0 478981.0 0
350039.0 478955.0 0
354085.0 479094.0 0
358152.0 479165.0 0
362150.0 479249.0 0
366148.0 479266.0 0
370142.0 479290.0 0
374129.0 479207.0 0
378119.0 479127.0 0
382113.0 479079.0 0
386108.0 479091.0 0
390104.0 479130.0 0
394101.0 479176.0 0
398099.0 479117.0 0
102008.0 483106.0 0
106013.0 483163.0 0
110014.0 483113.0 0
114021.0 483074.0 0
118025.0 483063.0 0
122024.0 483121.0 0
126036.0 483195.0 0
130042.0 483238.0 0
134040.0 483216.0 0
138038.0 483214.0 0
142034.0 483126.0 0
146030.0 483069.0 0
150025.0 482943.0 0
154022.0 482975.0 0
158018.0 482876.0 0
162015.0 482995.0 0
166011.0 482876.0 0
170009.0 482979.0 0
174006.0 482877.0 0
178005.0 482952.0 0
182003.0 482877.0 0
186002.0 482916.0 0
190002.0 482877.0 0
194001.0 482881.0 0
198001.0 482877.0 0
202001.0 482877.0 0
206001.0 482877.0 0
210000.0 482877.0 0
214000.0 482877.0 0
218000.0 482877.0 0
222000.0 482877.0 0
226000.0 482877.0 0
230000.0 482877.0 0
234000.0 482877.0 0
238000.0 482877.0 0
242000.0 482877.0 0
246000.0 482877.0 0
250000.0 482877.0 0
254000.0 482877.0 0
258000.0 482877.0 0
262000.0 482877.0 0
266000.0 482877.0 0
270000.0 482877.0 0
274000.0 482877.0 0
278000.0 482877.0 0
282000.0 482877.0 0
286000.0 482877.0 0
290000.0 482877.0 0
293999.0 482877.0 0
297999.0 482877.0 0
301999.0 482877.0 0
305999.0 482881.0 0
309998.0 482877.0 0
313998.0 482916.0 0
317997.0 482877.0 0
321995.0 482952.0 0
325994.0 482877.0 0
329991.0 482979.0 0
333989.0 482876.0 0
337985.0 482995.0 0
341982.0 482876.0 0
345978.0 482975.0 0
349975.0 482943.0 0
353970.0 483069.0 0
357966.0 483126.0 0
361962.0 483214.0 0
365960.0 483216.0 0
369958.0 483238.0 0
373964.0 483195.0 0
377976.0 483121.0 0
381975.0 483063.0 0
385979.0 483074.0 0
389986.0 483113.0 0
393987.0 483163.0 0
397992.0 483106.0 0
101993.0 487096.0 0
105993.0 487151.0 0
109992.0 487100.0 0
113992.0 487059.0 0
117991.0 487048.0 0
121990.0 487115.0 0
125989.0 487183.0 0
129988.0 487200.0 0
133988.0 487177.0 0
137987.0 487187.0 0
141987.0 487094.0 0
145994.0 487048.0 0
149998.0 486931.0 0
153999.0 486970.0 0
158000.0 486877.0 0
161999.0 486984.0 0
166000.0 486877.0 0
170000.0 486968.0 0
174000.0 486877.0 0
178000.0 486941.0 0
182000.0 486877.0 0
186000.0 486905.0 0
190000.0 486877.0 0
194000.0 486879.0 0
198000.0 486877.0 0
202000.0 486877.0 0
206000.0 486877.0 0
210000.0 486877.0 0
214000.0 486877.0 0
218000.0 486877.0 0
222000.0 486877.0 0
226000.0 486877.0 0
230000.0 486877.0 0
234000.0 486877.0 0
238000.0 486877.0 0
242000.0 486877.0 0
246000.0 486877.0 0
250000.0 486877.0 0
254000.0 486877.0 0
258000.0 486877.0 0
262000.0 486877.0 0
266000.0 486877.0 0
270000.0 486877.0 0
274000.0 486877.0 0
278000.0 486877.0 0
282000.0 486877.0 0
286000.0 486877.0 0
290000.0 486877.0 0
294000.0 486877.0 0
298000.0 486877.0 0
302000.0 486877.0 0
306000.0 486879.0 0
310000.0 486877.0 0
314000.0 486905.0 0
318000.0 486877.0 0
322000.0 486941.0 0
326000.0 486877.0 0
330000.0 486968.0 0
334000.0 486877.0 0
338001.0 486984.0 0
342000.0 486877.0 0
346001.0 486970.0 0
350002.0 486931.0 0
354006.0 487048.0 0
358013.0 487094.0 0
362013.0 487187.0 0
366012.0 487177.0 0
370012.0 487200.0 0
374011.0 487183.0 0
378010.0 487115.0 0
382009.0 487048.0 0
386008.0 487059.0 0
390008.0 487100.0 0
394007.0 487151.0 0
398007.0 487096.0 0
102000.0 491088.0 0
106001.0 491138.0 0
110000.0 491087.0 0
114001.0 491045.0 0
118001.0 491033.0 0
122002.0 491108.0 0
126005.0 491170.0 0
130005.0 491170.0 0
134005.0 491143.0 0
138004.0 491164.0 0
142003.0 491066.0 0
146003.0 491031.0 0
150001.0 490920.0 0
154001.0 490965.0 0
158000.0 490877.0 0
162000.0 490974.0 0
166000.0 490877.0 0
170000.0 490957.0 0
174000.0 490877.0 0
178000.0 490931.0 0
182000.0 490877.0 0
186000.0 490897.0 0
190000.0 490877.0 0
194000.0 490878.0 0
198000.0 490877.0 0
202000.0 490877.0 0
206000.0 490877.0 0
210000.0 490877.0 0
214000.0 490877.0 0
218000.0 490877.0 0
222000.0 490877.0 0
226000.0 490877.0 0
230000.0 490877.0 0
234000.0 490877.0 0
238000.0 490877.0 0
242000.0 490877.0 0
246000.0 490877.0 0
250000.0 490877.0 0
254000.0 490877.0 0
258000.0 490877.0 0
262000.0 490877.0 0
266000.0 490877.0 0
270000.0 490877.0 0
274000.0 490877.0 0
278000.0 490877.0 0
282000.0 490877.0 0
286000.0 490877.0 0
290000.0 490877.0 0
294000.0 490877.0 0
298000.0 490877.0 0
302000.0 490877.0 0
306000.0 490878.0 0
310000.0 490877.0 0
314000.0 490897.0 0
318000.0 490877.0 0
322000.0 490931.0 0
326000.0 490877.0 0
330000.0 490957.0 0
334000.0 490877.0 0
338000.0 490974.0 0
342000.0 490877.0 0
345999.0 490965.0 0
349999.0 490920.0 0
353997.0 491031.0 0
357997.0 491066.0 0
361996.0 491164.0 0
365995.0 491143.0 0
369995.0 491170.0 0
373995.0 491170.0 0
377998.0 491108.0 0
381999.0 491033.0 0
385999.0 491045.0 0
390000.0 491087.0 0
393999.0 491138.0 0
398000.0 491088.0 0
102000.0 495079.0 0
106000.0 495126.0 0
110000.0 495076.0 0
114000.0 495032.0 0
118000.0 495017.0 0
121999.0 495099.0 0
125999.0 495155.0 0
129999.0 495146.0 0
133999.0 495115.0 0
137999.0 495142.0 0
142000.0 495042.0 0
146000.0 495016.0 0
150000.0 494910.0 0
154000.0 494960.0 0
158000.0 494877.0 0
162000.0 494965.0 0
166000.0 494877.0 0
170000.0 494948.0 0
174000.0 494877.0 0
178000.0 494922.0 0
182000.0 494877.0 0
186000.0 494890.0 0
190000.0 494877.0 0
194000.0 494877.0 0
198000.0 494877.0 0
202000.0 494877.0 0
206000.0 494877.0 0
210000.0 494877.0 0
214000.0 494877.0 0
218000.0 494877.0 0
222000.0 494877.0 0
226000.0 494877.0 0
230000.0 494877.0 0
234000.0 494877.0 0
238000.0 494877.0 0
242000.0 494877.0 0
246000.0 494877.0 0
250000.0 494877.0 0
254000.0 494877.0 0
258000.0 494877.0 0
262000.0 494877.0 0
266000.0 494877.0 0
270000.0 494877.0 0
274000.0 494877.0 0
278000.0 494877.0 0
282000.0 494877.0 0
286000.0 494877.0 0
290000.0 494877.0 0
294000.0 494877.0 0
298000.0 494877.0 0
302000.0 494877.0 0
306000.0 494877.0 0
310000.0 494877.0 0
314000.0 494890.0 0
318000.0 494877.0 0
322000.0 494922.0 0
326000.0 494877.0 0
330000.0 494948.0 0
334000.0 494877.0 0
338000.0 494965.0 0
342000.0 494877.0 0
346000.0 494960.0 0
350000.0 494910.0 0
354000.0 495016.0 0
358000.0 495042.0 0
362001.0 495142.0 0
366001.0 495115.0 0
370001.0 495146.0 0
374001.0 495155.0 0
378001.0 495099.0 0
382000.0 495017.0 0
386000.0 495032.0 0
390000.0 495076.0 0
394000.0 495126.0 0
398000.0 495079.0 0
102000.0 499071.0 0
106000.0 499114.0 0
110000.0 499066.0 0
114000.0 499019.0 0
118000.0 499003.0 0
122000.0 499089.0 0
126000.0 499139.0 0
130000.0 499126.0 0
134000.0 499090.0 0
138000.0 499123.0 0
142000.0 499021.0 0
146000.0 499003.0 0
150000.0 498902.0 0
154000.0 498955.0 0
158000.0 498877.0 0
162000.0 498957.0 0
166000.0 498877.0 0
170000.0 498940.0 0
174000.0 498877.0 0
178000.0 498914.0 0
182000.0 498877.0 0
186000.0 498886.0 0
190000.0 498877.0 0
194000.0 498877.0 0
198000.0 498877.0 0
202000.0 498877.0 0
206000.0 498877.0 0
210000.0 498877.0 0
214000.0 498877.0 0
218000.0 498877.0 0
222000.0 498877.0 0
226000.0 498877.0 0
230000.0 498877.0 0
234000.0 498877.0 0
238000.0 498877.0 0
242000.0 498877.0 0
246000.0 498877.0 0
250000.0 498877.0 0
254000.0 498877.0 0
258000.0 498877.0 0
262000.0 498877.0 0
266000.0 498877.0 0
270000.0 498877.0 0
274000.0 498877.0 0
278000.0 498877.0 0
282000.0 498877.0 0
286000.0 498877.0 0
290000.0 498877.0 0
294000.0 498877.0 0
298000.0 498877.0 0
302000.0 498877.0 0
306000.0 498877.0 0
310000.0 498877.0 0
314000.0 498886.0 0
318000.0 498877.0 0
322000.0 498914.0 0
326000.0 498877.0 0
330000.0 498940.0 0
334000.0 498877.0 0
338000.0 498957.0 0
342000.0 498877.0 0
346000.0 498955.0 0
350000.0 498902.0 0
354000.0 499003.0 0
358000.0 499021.0 0
362000.0 499123.0 0
366000.0 499090.0 0
370000.0 499126.0 0
374000.0 499139.0 0
378000.0 499089.0 0
382000.0 499003.0 0
386000.0 499019.0 0
390000.0 499066.0 0
394000.0 499114.0 0
398000.0 499071.0 0
102000.0 503063.0 0
106000.0 503102.0 0
110000.0 503057.0 0
114000.0 503008.0 0
118000.0 502990.0 0
122000.0 503079.0 0
126000.0 503122.0 0
130000.0 503109.0 0
134000.0 503068.0 0
138000.0 503104.0 0
142000.0 503003.0 0
146000.0 502992.0 0
150000.0 502895.0 0
154000.0 502950.0 0
158000.0 502877.0 0
162000.0 502949.0 0
166000.0 502877.0 0
170000.0 502932.0 0
174000.0 502877.0 0
178000.0 502907.0 0
182000.0 502877.0 0
186000.0 502883.0 0
190000.0 502877.0 0
194000.0 502877.0 0
198000.0 502877.0 0
202000.0 502877.0 0
206000.0 502877.0 0
210000.0 502877.0 0
214000.0 502877.0 0
218000.0 502877.0 0
222000.0 502877.0 0
226000.0 502877.0 0
230000.0 502877.0 0
234000.0 502877.0 0
238000.0 502877.0 0
242000.0 502877.0 0
246000.0 502877.0 0
250000.0 502877.0 0
254000.0 502877.0 0
258000.0 502877.0 0
262000.0 502877.0 0
266000.0 502877.0 0
270000.0 502877.0 0
274000.0 502877.0 0
278000.0 502877.0 0
282000.0 502877.0 0
286000.0 502877.0 0
290000.0 502877.0 0
294000.0 502877.0 0
298000.0 502877.0 0
302000.0 502877.0 0
306000.0 502877.0 0
310000.0 502877.0 0
314000.0 502883.0 0
318000.0 502877.0 0
322000.0 502907.0 0
326000.0 502877.0 0
330000.0 502932.0 0
334000.0 502877.0 0
338000.0 502949.0 0
342000.0 502877.0 0
346000.0 502950.0 0
350000.0 502895.0 0
354000.0 502992.0 0
358000.0 503003.0 0
362000.0 503104.0 0
366000.0 503068.0 0
370000.0 503109.0 0
374000.0 503122.0 0
378000.0 503079.0 0
382000.0 502990.0 0
386000.0 503008.0 0
390000.0 503057.0 0
394000.0 503102.0 0
398000.0 503063.0 0
102000.0 507055.0 0
106000.0 507089.0 0
110000.0 507048.0 0
114000.0 506998.0 0
118000.0 506978.0 0
122000.0 507069.0 0
126000.0 507105.0 0
130000.0 507094.0 0
134000.0 507049.0 0
138000.0 507087.0 0
142000.0 506987.0 0
146000.0 506981.0 0
150000.0 506890.0 0
154000.0 506945.0 0
158000.0 506877.0 0
162000.0 506942.0 0
166000.0 506877.0 0
170000.0 506924.0 0
174000.0 506877.0 0
178000.0 506901.0 0
182000.0 506877.0 0
186000.0 506881.0 0
190000.0 506877.0 0
194000.0 506877.0 0
198000.0 506877.0 0
202000.0 506877.0 0
206000.0 506877.0 0
210000.0 506877.0 0
214000.0 506877.0 0
218000.0 506877.0 0
222000.0 506877.0 0
226000.0 506877.0 0
230000.0 506877.0 0
234000.0 506877.0 0
238000.0 506877.0 0
242000.0 506877.0 0
246000.0 506877.0 0
250000.0 506877.0 0
254000.0 506877.0 0
258000.0 506877.0 0
262000.0 506877.0 0
266000.0 506877.0 0
270000.0 506877.0 0
274000.0 506877.0 0
278000.0 506877.0 0
282000.0 506877.0 0
286000.0 506877.0 0
290000.0 506877.0 0
294000.0 506877.0 0
298000.0 506877.0 0
302000.0 506877.0 0
306000.0 506877.0 0
310000.0 506877.0 0
314000.0 506881.0 0
318000.0 506877.0 0
322000.0 506901.0 0
326000.0 506877.0 0
330000.0 506924.0 0
334000.0 506877.0 0
338000.0 506942.0 0
342000.0 506877.0 0
346000.0 506945.0 0
350000.0 506890.0 0
354000.0 506981.0 0
358000.0 506987.0 0
362000.0 507087.0 0
366000.0 507049.0 0
370000.0 507094.0 0
374000.0 507105.0 0
378000.0 507069.0 0
382000.0 506978.0 0
386000.0 506998.0 0
390000.0 507048.0 0
394000.0 507089.0 0
398000.0 507055.0 0
114000.0 510989.0 0
118000.0 510968.0 0
134000.0 511031.0 0
142000.0 510972.0 0
146000.0 510972.0 0
150000.0 510886.0 0
154000.0 510940.0 0
158000.0 510877.0 0
162000.0 510935.0 0
166000.0 510877.0 0
170000.0 510918.0 0
174000.0 510877.0 0
178000.0 510896.0 0
182000.0 510877.0 0
186000.0 510879.0 0
190000.0 510877.0 0
194000.0 510877.0 0
198000.0 510877.0 0
202000.0 510877.0 0
206000.0 510877.0 0
210000.0 510877.0 0
214000.0 510877.0 0
218000.0 510877.0 0
222000.0 510877.0 0
226000.0 510877.0 0
230000.0 510877.0 0
234000.0 510877.0 0
238000.0 510877.0 0
242000.0 510877.0 0
246000.0 510877.0 0
250000.0 510877.0 0
254000.0 510877.0 0
258000.0 510877.0 0
262000.0 510877.0 0
266000.0 510877.0 0
270000.0 510877.0 0
274000.0 510877.0 0
278000.0 510877.0 0
282000.0 510877.0 0
286000.0 510877.0 0
290000.0 510877.0 0
294000.0 510877.0 0
298000.0 510877.0 0
302000.0 510877.0 0
306000.0 510877.0 0
310000.0 510877.0 0
314000.0 510879.0 0
318000.0 510877.0 0
322000.0 510896.0 0
326000.0 510877.0 0
330000.0 510918.0 0
334000.0 510877.0 0
338000.0 510935.0 0
342000.0 510877.0 0
346000.0 510940.0 0
350000.0 510886.0 0
354000.0 510972.0 0
358000.0 510972.0 0
366000.0 511031.0 0
382000.0 510968.0 0
386000.0 510989.0 0
102000.0 511048.0 0
106000.0 511077.0 0
110000.0 511040.0 0
122000.0 511059.0 0
126000.0 511089.0 0
130000.0 511079.0 0
138000.0 511070.0 0
362000.0 511070.0 0
370000.0 511079.0 0
374000.0 511089.0 0
378000.0 511059.0 0
390000.0 511040.0 0
394000.0 511077.0 0
398000.0 511048.0 0
102000.0 515040.0 0
106000.0 515065.0 0
110000.0 515031.0 0
114000.0 514980.0 0
118000.0 514958.0 0
122000.0 515048.0 0
126000.0 515073.0 0
130000.0 515066.0 0
134000.0 515015.0 0
138000.0 515054.0 0
142000.0 514960.0 0
146000.0 514963.0 0
150000.0 514883.0 0
154000.0 514935.0 0
158000.0 514877.0 0
162000.0 514929.0 0
166000.0 514877.0 0
170000.0 514912.0 0
174000.0 514877.0 0
178000.0 514892.0 0
182000.0 514877.0 0
186000.0 514878.0 0
190000.0 514877.0 0
194000.0 514877.0 0
198000.0 514877.0 0
202000.0 514877.0 0
206000.0 514877.0 0
210000.0 514877.0 0
214000.0 514877.0 0
218000.0 514877.0 0
222000.0 514877.0 0
226000.0 514877.0 0
230000.0 514877.0 0
234000.0 514877.0 0
238000.0 514877.0 0
242000.0 514877.0 0
246000.0 514877.0 0
250000.0 514877.0 0
254000.0 514877.0 0
258000.0 514877.0 0
262000.0 514877.0 0
266000.0 514877.0 0
270000.0 514877.0 0
274000.0 514877.0 0
278000.0 514877.0 0
282000.0 514877.0 0
286000.0 514877.0 0
290000.0 514877.0 0
294000.0 514877.0 0
298000.0 514877.0 0
302000.0 514877.0 0
306000.0 514877.0 0
310000.0 514877.0 0
314000.0 514878.0 0
318000.0 514877.0 0
322000.0 514892.0 0
326000.0 514877.0 0
330000.0 514912.0 0
334000.0 514877.0 0
338000.0 514929.0 0
342000.0 514877.0 0
346000.0 514935.0 0
350000.0 514883.0 0
354000.0 514963.0 0
358000.0 514960.0 0
362000.0 515054.0 0
366000.0 515015.0 0
370000.0 515066.0 0
374000.0 515073.0 0
378000.0 515048.0 0
382000.0 514958.0 0
386000.0 514980.0 0
390000.0 515031.0 0
394000.0 515065.0 0
398000.0 515040.0 0
102000.0 519033.0 0
106000.0 519054.0 0
110000.0 519024.0 0
114000.0 518973.0 0
118000.0 518950.0 0
122000.0 519038.0 0
126000.0 519057.0 0
130000.0 519053.0 0
134000.0 519001.0 0
138000.0 519039.0 0
142000.0 518949.0 0
146000.0 518955.0 0
150000.0 518881.0 0
154000.0 518931.0 0
158000.0 518877.0 0
162000.0 518924.0 0
166000.0 518877.0 0
170000.0 518907.0 0
174000.0 518877.0 0
178000.0 518889.0 0
182000.0 518877.0 0
186000.0 518878.0 0
190000.0 518877.0 0
194000.0 518877.0 0
198000.0 518877.0 0
202000.0 518877.0 0
206000.0 518877.0 0
210000.0 518877.0 0
214000.0 518877.0 0
218000.0 518877.0 0
222000.0 518877.0 0
226000.0 518877.0 0
230000.0 518877.0 0
234000.0 518877.0 0
238000.0 518877.0 0
242000.0 518877.0 0
246000.0 518877.0 0
250000.0 518877.0 0
254000.0 518877.0 0
258000.0 518877.0 0
262000.0 518877.0 0
266000.0 518877.0 0
270000.0 518877.0 0
274000.0 518877.0 0
278000.0 518877.0 0
282000.0 518877.0 0
286000.0 518877.0 0
290000.0 518877.0 0
294000.0 518877.0 0
298000.0 518877.0 0
302000.0 518877.0 0
306000.0 518877.0 0
310000.0 518877.0 0
314000.0 518878.0 0
318000.0 518877.0 0
322000.0 518889.0 0
326000.0 518877.0 0
330000.0 518907.0 0
334000.0 518877.0 0
338000.0 518924.0 0
342000.0 518877.0 0
346000.0 518931.0 0
350000.0 518881.0 0
354000.0 518955.0 0
358000.0 518949.0 0
362000.0 519039.0 0
366000.0 519001.0 0
370000.0 519053.0 0
374000.0 519057.0 0
378000.0 519038.0 0
382000.0 518950.0 0
386000.0 518973.0 0
390000.0 519024.0 0
394000.0 519054.0 0
398000.0 519033.0 0
102000.0 523026.0 0
106000.0 523042.0 0
110000.0 523016.0 0
114000.0 522966.0 0
118000.0 522943.0 0
122000.0 523029.0 0
126000.0 523043.0 0
130000.0 523040.0 0
134000.0 522987.0 0
138000.0 523024.0 0
142000.0 522939.0 0
146000.0 522947.0 0
150000.0 522880.0 0
154000.0 522926.0 0
158000.0 522877.0 0
162000.0 522918.0 0
166000.0 522877.0 0
170000.0 522902.0 0
174000.0 522877.0 0
178000.0 522886.0 0
182000.0 522877.0 0
186000.0 522877.0 0
190000.0 522877.0 0
194000.0 522877.0 0
198000.0 522877.0 0
202000.0 522877.0 0
206000.0 522877.0 0
210000.0 522877.0 0
214000.0 522877.0 0
218000.0 522877.0 0
222000.0 522877.0 0
226000.0 522877.0 0
230000.0 522877.0 0
234000.0 522877.0 0
238000.0 522877.0 0
242000.0 522877.0 0
246000.0 522877.0 0
250000.0 522877.0 0
254000.0 522877.0 0
258000.0 522877.0 0
262000.0 522877.0 0
266000.0 522877.0 0
270000.0 522877.0 0
274000.0 522877.0 0
278000.0 522877.0 0
282000.0 522877.0 0
286000.0 522877.0 0
290000.0 522877.0 0
294000.0 522877.0 0
298000.0 522877.0 0
302000.0 522877.0 0
306000.0 522877.0 0
310000.0 522877.0 0
314000.0 522877.0 0
318000.0 522877.0 0
322000.0 522886.0 0
326000.0 522877.0 0
330000.0 522902.0 0
334000.0 522877.0 0
338000.0 522918.0 0
342000.0 522877.0 0
346000.0 522926.0 0
350000.0 522880.0 0
354000.0 522947.0 0
358000.0 522939.0 0
362000.0 523024.0 0
366000.0 522987.0 0
370000.0 523040.0 0
374000.0 523043.0 0
378000.0 523029.0 0
382000.0 522943.0 0
386000.0 522966.0 0
390000.0 523016.0 0
394000.0 523042.0 0
398000.0 523026.0 0
102000.0 527019.0 0
106000.0 527032.0 0
110000.0 527009.0 0
114000.0 526961.0 0
118000.0 526937.0 0
122000.0 527019.0 0
126000.0 527029.0 0
130000.0 527028.0 0
134000.0 526974.0 0
138000.0 527011.0 0
142000.0 526930.0 0
146000.0 526940.0 0
150000.0 526879.0 0
154000.0 526922.0 0
158000.0 526877.0 0
162000.0 526914.0 0
166000.0 526877.0 0
170000.0 526898.0 0
174000.0 526877.0 0
178000.0 526884.0 0
182000.0 526877.0 0
186000.0 526877.0 0
190000.0 526877.0 0
194000.0 526877.0 0
198000.0 526877.0 0
202000.0 526877.0 0
206000.0 526877.0 0
210000.0 526877.0 0
214000.0 526877.0 0
218000.0 526877.0 0
222000.0 526877.0 0
226000.0 526877.0 0
230000.0 526877.0 0
234000.0 526877.0 0
238000.0 526877.0 0
242000.0 526877.0 0
246000.0 526877.0 0
250000.0 526877.0 0
254000.0 526877.0 0
258000.0 526877.0 0
262000.0 526877.0 0
266000.0 526877.0 0
270000.0 526877.0 0
274000.0 526877.0 0
278000.0 526877.0 0
282000.0 526877.0 0
286000.0 526877.0 0
290000.0 526877.0 0
294000.0 526877.0 0
298000.0 526877.0 0
302000.0 526877.0 0
306000.0 526877.0 0
310000.0 526877.0 0
314000.0 526877.0 0
318000.0 526877.0 0
322000.0 526884.0 0
326000.0 526877.0 0
330000.0 526898.0 0
334000.0 526877.0 0
338000.0 526914.0 0
342000.0 526877.0 0
346000.0 526922.0 0
350000.0 526879.0 0
354000.0 526940.0 0
358000.0 526930.0 0
362000.0 527011.0 0
366000.0 526974.0 0
370000.0 527028.0 0
374000.0 527029.0 0
378000.0 527019.0 0
382000.0 526937.0 0
386000.0 526961.0 0
390000.0 527009.0 0
394000.0 527032.0 0
398000.0 527019.0 0
102000.0 531012.0 0
106000.0 531021.0 0
110000.0 531001.0 0
114000.0 530955.0 0
118000.0 530932.0 0
122000.0 531010.0 0
126000.0 531015.0 0
130000.0 531016.0 0
134000.0 530963.0 0
138000.0 530998.0 0
142000.0 530922.0 0
146000.0 530934.0 0
150000.0 530878.0 0
154000.0 530918.0 0
158000.0 530877.0 0
162000.0 530909.0 0
166000.0 530877.0 0
170000.0 530895.0 0
174000.0 530877.0 0
178000.0 530882.0 0
182000.0 530877.0 0
186000.0 530877.0 0
190000.0 530877.0 0
194000.0 530877.0 0
198000.0 530877.0 0
202000.0 530877.0 0
206000.0 530877.0 0
210000.0 530877.0 0
214000.0 530877.0 0
218000.0 530877.0 0
222000.0 530877.0 0
226000.0 530877.0 0
230000.0 530877.0 0
234000.0 530877.0 0
238000.0 530877.0 0
242000.0 530877.0 0
246000.0 530877.0 0
250000.0 530877.0 0
254000.0 530877.0 0
258000.0 530877.0 0
262000.0 530877.0 0
266000.0 530877.0 0
270000.0 530877.0 0
274000.0 530877.0 0
278000.0 530877.0 0
282000.0 530877.0 0
286000.0 530877.0 0
290000.0 530877.0 0
294000.0 530877.0 0
298000.0 530877.0 0
302000.0 530877.0 0
306000.0 530877.0 0
310000.0 530877.0 0
314000.0 530877.0 0
318000.0 530877.0 0
322000.0 530882.0 0
326000.0 530877.0 0
330000.0 530895.0 0
334000.0 530877.0 0
338000.0 530909.0 0
342000.0 530877.0 0
346000.0 530918.0 0
350000.0 530878.0 0
354000.0 530934.0 0
358000.0 530922.0 0
362000.0 530998.0 0
366000.0 530963.0 0
370000.0 531016.0 0
374000.0 531015.0 0
378000.0 531010.0 0
382000.0 530932.0 0
386000.0 530955.0 0
390000.0 531001.0 0
394000.0 531021.0 0
398000.0 531012.0 0
102000.0 535005.0 0
106000.0 535012.0 0
110000.0 534994.0 0
114000.0 534951.0 0
118000.0 534927.0 0
122000.0 535001.0 0
126000.0 535003.0 0
130000.0 535005.0 0
134000.0 534952.0 0
138000.0 534986.0 0
142000.0 534915.0 0
146000.0 534928.0 0
150000.0 534878.0 0
154000.0 534914.0 0
158000.0 534877.0 0
162000.0 534905.0 0
166000.0 534877.0 0
170000.0 534892.0 0
174000.0 534877.0 0
178000.0 534881.0 0
182000.0 534877.0 0
186000.0 534877.0 0
190000.0 534877.0 0
194000.0 534877.0 0
198000.0 534877.0 0
202000.0 534877.0 0
206000.0 534877.0 0
210000.0 534877.0 0
214000.0 534877.0 0
218000.0 534877.0 0
222000.0 534877.0 0
226000.0 534877.0 0
230000.0 534877.0 0
234000.0 534877.0 0
238000.0 534877.0 0
242000.0 534877.0 0
246000.0 534877.0 0
250000.0 534877.0 0
254000.0 534877.0 0
258000.0 534877.0 0
262000.0 534877.0 0
266000.0 534877.0 0
270000.0 534877.0 0
274000.0 534877.0 0
278000.0 534877.0 0
282000.0 534877.0 0
286000.0 534877.0 0
290000.0 534877.0 0
294000.0 534877.0 0
298000.0 534877.0 0
302000.0 534877.0 0
306000.0 534877.0 0
310000.0 534877.0 0
314000.0 534877.0 0
318000.0 534877.0 0
322000.0 534881.0 0
326000.0 534877.0 0
330000.0 534892.0 0
334000.0 534877.0 0
338000.0 534905.0 0
342000.0 534877.0 0
346000.0 534914.0 0
350000.0 534878.0 0
354000.0 534928.0 0
358000.0 534915.0 0
362000.0 534986.0 0
366000.0 534952.0 0
370000.0 535005.0 0
374000.0 535003.0 0
378000.0 535001.0 0
382000.0 534927.0 0
386000.0 534951.0 0
390000.0 534994.0 0
394000.0 535012.0 0
398000.0 535005.0 0
102000.0 538998.0 0
106000.0 539002.0 0
110000.0 538987.0 0
114000.0 538946.0 0
118000.0 538923.0 0
122000.0 538993.0 0
126000.0 538991.0 0
130000.0 538995.0 0
134000.0 538942.0 0
138000.0 538975.0 0
142000.0 538909.0 0
146000.0 538923.0 0
150000.0 538877.0 0
154000.0 538910.0 0
158000.0 538877.0 0
162000.0 538901.0 0
166000.0 538877.0 0
170000.0 538889.0 0
174000.0 538877.0 0
178000.0 538880.0 0
182000.0 538877.0 0
186000.0 538877.0 0
190000.0 538877.0 0
194000.0 538877.0 0
198000.0 538877.0 0
202000.0 538877.0 0
206000.0 538877.0 0
210000.0 538877.0 0
214000.0 538877.0 0
218000.0 538877.0 0
222000.0 538877.0 0
226000.0 538877.0 0
230000.0 538877.0 0
234000.0 538877.0 0
238000.0 538877.0 0
242000.0 538877.0 0
246000.0 538877.0 0
250000.0 538877.0 0
254000.0 538877.0 0
258000.0 538877.0 0
262000.0 538877.0 0
266000.0 538877.0 0
270000.0 538877.0 0
274000.0 538877.0 0
278000.0 538877.0 0
282000.0 538877.0 0
286000.0 538877.0 0
290000.0 538877.0 0
294000.0 538877.0 0
298000.0 538877.0 0
302000.0 538877.0 0
306000.0 538877.0 0
310000.0 538877.0 0
314000.0 538877.0 0
318000.0 538877.0 0
322000.0 538880.0 0
326000.0 538877.0 0
330000.0 538889.0 0
334000.0 538877.0 0
338000.0 538901.0 0
342000.0 538877.0 0
346000.0 538910.0 0
350000.0 538877.0 0
354000.0 538923.0 0
358000.0 538909.0 0
362000.0 538975.0 0
366000.0 538942.0 0
370000.0 538995.0 0
374000.0 538991.0 0
378000.0 538993.0 0
382000.0 538923.0 0
386000.0 538946.0 0
390000.0 538987.0 0
394000.0 539002.0 0
398000.0 538998.0 0
102000.0 542992.0 0
106000.0 542994.0 0
110000.0 542980.0 0
114000.0 542942.0 0
118000.0 542919.0 0
122000.0 542985.0 0
126000.0 542980.0 0
130000.0 542985.0 0
134000.0 542934.0 0
138000.0 542964.0 0
142000.0 542903.0 0
146000.0 542918.0 0
150000.0 542877.0 0
154000.0 542907.0 0
158000.0 542877.0 0
162000.0 542898.0 0
166000.0 542877.0 0
170000.0 542887.0 0
174000.0 542877.0 0
178000.0 542879.0 0
182000.0 542877.0 0
186000.0 542877.0 0
190000.0 542877.0 0
194000.0 542877.0 0
198000.0 542877.0 0
202000.0 542877.0 0
206000.0 542877.0 0
210000.0 542877.0 0
214000.0 542877.0 0
218000.0 542877.0 0
222000.0 542877.0 0
226000.0 542877.0 0
230000.0 542877.0 0
234000.0 542877.0 0
238000.0 542877.0 0
242000.0 542877.0 0
246000.0 542877.0 0
250000.0 542877.0 0
254000.0 542877.0 0
258000.0 542877.0 0
262000.0 542877.0 0
266000.0 542877.0 0
270000.0 542877.0 0
274000.0 542877.0 0
278000.0 542877.0 0
282000.0 542877.0 0
286000.0 542877.0 0
290000.0 542877.0 0
294000.0 542877.0 0
298000.0 542877.0 0
302000.0 542877.0 0
306000.0 542877.0 0
310000.0 542877.0 0
314000.0 542877.0 0
318000.0 542877.0 0
322000.0 542879.0 0
326000.0 542877.0 0
330000.0 542887.0 0
334000.0 542877.0 0
338000.0 542898.0 0
342000.0 542877.0 0
346000.0 542907.0 0
350000.0 542877.0 0
354000.0 542918.0 0
358000.0 542903.0 0
362000.0 542964.0 0
366000.0 542934.0 0
370000.0 542985.0 0
374000.0 542980.0 0
378000.0 542985.0 0
382000.0 542919.0 0
386000.0 542942.0 0
390000.0 542980.0 0
394000.0 542994.0 0
398000.0 542992.0 0
102000.0 546986.0 0
106000.0 546986.0 0
110000.0 546974.0 0
114000.0 546938.0 0
118000.0 546916.0 0
122000.0 546977.0 0
126000.0 546970.0 0
130000.0 546976.0 0
134000.0 546926.0 0
138000.0 546955.0 0
142000.0 546899.0 0
146000.0 546914.0 0
150000.0 546877.0 0
154000.0 546904.0 0
158000.0 546877.0 0
162000.0 546895.0 0
166000.0 546877.0 0
170000.0 546885.0 0
174000.0 546877.0 0
178000.0 546878.0 0
182000.0 546877.0 0
186000.0 546877.0 0
190000.0 546877.0 0
194000.0 546877.0 0
198000.0 546877.0 0
202000.0 546877.0 0
206000.0 546877.0 0
210000.0 546877.0 0
214000.0 546877.0 0
218000.0 546877.0 0
222000.0 546877.0 0
226000.0 546877.0 0
230000.0 546877.0 0
234000.0 546877.0 0
238000.0 546877.0 0
242000.0 546877.0 0
246000.0 546877.0 0
250000.0 546877.0 0
254000.0 546877.0 0
258000.0 546877.0 0
262000.0 546877.0 0
266000.0 546877.0 0
270000.0 546877.0 0
274000.0 546877.0 0
278000.0 546877.0 0
282000.0 546877.0 0
286000.0 546877.0 0
290000.0 546877.0 0
294000.0 546877.0 0
298000.0 546877.0 0
302000.0 546877.0 0
306000.0 546877.0 0
310000.0 546877.0 0
314000.0 546877.0 0
318000.0 546877.0 0
322000.0 546878.0 0
326000.0 546877.0 0
330000.0 546885.0 0
334000.0 546877.0 0
338000.0 546895.0 0
342000.0 546877.0 0
346000.0 546904.0 0
350000.0 546877.0 0
354000.0 546914.0 0
358000.0 546899.0 0
362000.0 546955.0 0
366000.0 546926.0 0
370000.0 546976.0 0
374000.0 546970.0 0
378000.0 546977.0 0
382000.0 546916.0 0
386000.0 546938.0 0
390000.0 546974.0 0
394000.0 546986.0 0
398000.0 546986.0 0
102000.0 550979.0 0
106000.0 550978.0 0
110000.0 550967.0 0
114000.0 550935.0 0
118000.0 550913.0 0
122000.0 550970.0 0
126000.0 550960.0 0
130000.0 550967.0 0
134000.0 550919.0 0
138000.0 550947.0 0
142000.0 550895.0 0
146000.0 550910.0 0
150000.0 550877.0 0
154000.0 550901.0 0
158000.0 550877.0 0
162000.0 550893.0 0
166000.0 550877.0 0
170000.0 550883.0 0
174000.0 550877.0 0
178000.0 550878.0 0
182000.0 550877.0 0
186000.0 550877.0 0
190000.0 550877.0 0
194000.0 550877.0 0
198000.0 550877.0 0
202000.0 550877.0 0
206000.0 550877.0 0
210000.0 550877.0 0
214000.0 550877.0 0
218000.0 550877.0 0
222000.0 550877.0 0
226000.0 550877.0 0
230000.0 550877.0 0
234000.0 550877.0 0
238000.0 550877.0 0
242000.0 550877.0 0
246000.0 550877.0 0
250000.0 550877.0 0
254000.0 550877.0 0
258000.0 550877.0 0
262000.0 550877.0 0
266000.0 550877.0 0
270000.0 550877.0 0
274000.0 550877.0 0
278000.0 550877.0 0
282000.0 550877.0 0
286000.0 550877.0 0
290000.0 550877.0 0
294000.0 550877.0 0
298000.0 550877.0 0
302000.0 550877.0 0
306000.0 550877.0 0
310000.0 550877.0 0
314000.0 550877.0 0
318000.0 550877.0 0
322000.0 550878.0 0
326000.0 550877.0 0
330000.0 550883.0 0
334000.0 550877.0 0
338000.0 550893.0 0
342000.0 550877.0 0
346000.0 550901.0 0
350000.0 550877.0 0
354000.0 550910.0 0
358000.0 550895.0 0
362000.0 550947.0 0
366000.0 550919.0 0
370000.0 550967.0 0
374000.0 550960.0 0
378000.0 550970.0 0
382000.0 550913.0 0
386000.0 550935.0 0
390000.0 550967.0 0
394000.0 550978.0 0
398000.0 550979.0 0
102000.0 554973.0 0
106000.0 554971.0 0
110000.0 554961.0 0
114000.0 554931.0 0
118000.0 554911.0 0
122000.0 554963.0 0
126000.0 554952.0 0
130000.0 554959.0 0
134000.0 554913.0 0
138000.0 554939.0 0
142000.0 554892.0 0
146000.0 554906.0 0
150000.0 554877.0 0
154000.0 554898.0 0
158000.0 554877.0 0
162000.0 554890.0 0
166000.0 554877.0 0
170000.0 554882.0 0
174000.0 554877.0 0
178000.0 554878.0 0
182000.0 554877.0 0
186000.0 554877.0 0
190000.0 554877.0 0
194000.0 554877.0 0
198000.0 554877.0 0
202000.0 554877.0 0
206000.0 554877.0 0
210000.0 554877.0 0
214000.0 554877.0 0
218000.0 554877.0 0
222000.0 554877.0 0
226000.0 554877.0 0
230000.0 554877.0 0
234000.0 554877.0 0
238000.0 554877.0 0
242000.0 554877.0 0
246000.0 554877.0 0
250000.0 554877.0 0
254000.0 554877.0 0
258000.0 554877.0 0
262000.0 554877.0 0
266000.0 554877.0 0
270000.0 554877.0 0
274000.0 554877.0 0
278000.0 554877.0 0
282000.0 554877.0 0
286000.0 554877.0 0
290000.0 554877.0 0
294000.0 554877.0 0
298000.0 554877.0 0
302000.0 554877.0 0
306000.0 554877.0 0
310000.0 554877.0 0
314000.0 554877.0 0
318000.0 554877.0 0
322000.0 554878.0 0
326000.0 554877.0 0
330000.0 554882.0 0
334000.0 554877.0 0
338000.0 554890.0 0
342000.0 554877.0 0
346000.0 554898.0 0
350000.0 554877.0 0
354000.0 554906.0 0
358000.0 554892.0 0
362000.0 554939.0 0
366000.0 554913.0 0
370000.0 554959.0 0
374000.0 554952.0 0
378000.0 554963.0 0
382000.0 554911.0 0
386000.0 554931.0 0
390000.0 554961.0 0
394000.0 554971.0 0
398000.0 554973.0 0
102000.0 558967.0 0
106000.0 558964.0 0
110000.0 558955.0 0
114000.0 558928.0 0
118000.0 558908.0 0
122000.0 558957.0 0
126000.0 558944.0 0
130000.0 558951.0 0
134000.0 558907.0 0
138000.0 558933.0 0
142000.0 558889.0 0
146000.0 558903.0 0
150000.0 558877.0 0
154000.0 558896.0 0
158000.0 558877.0 0
162000.0 558888.0 0
166000.0 558877.0 0
170000.0 558881.0 0
174000.0 558877.0 0
178000.0 558877.0 0
182000.0 558877.0 0
186000.0 558877.0 0
190000.0 558877.0 0
194000.0 558877.0 0
198000.0 558877.0 0
202000.0 558877.0 0
206000.0 558877.0 0
210000.0 558877.0 0
214000.0 558877.0 0
218000.0 558877.0 0
222000.0 558877.0 0
226000.0 558877.0 0
230000.0 558877.0 0
234000.0 558877.0 0
238000.0 558877.0 0
242000.0 558877.0 0
246000.0 558877.0 0
250000.0 558877.0 0
254000.0 558877.0 0
258000.0 558877.0 0
262000.0 558877.0 0
266000.0 558877.0 0
270000.0 558877.0 0
274000.0 558877.0 0
278000.0 558877.0 0
282000.0 558877.0 0
286000.0 558877.0 0
290000.0 558877.0 0
294000.0 558877.0 0
298000.0 558877.0 0
302000.0 558877.0 0
306000.0 558877.0 0
310000.0 558877.0 0
314000.0 558877.0 0
318000.0 558877.0 0
322000.0 558877.0 0
326000.0 558877.0 0
330000.0 558881.0 0
334000.0 558877.0 0
338000.0 558888.0 0
342000.0 558877.0 0
346000.0 558896.0 0
350000.0 558877.0 0
354000.0 558903.0 0
358000.0 558889.0 0
362000.0 558933.0 0
366000.0 558907.0 0
370000.0 558951.0 0
374000.0 558944.0 0
378000.0 558957.0 0
382000.0 558908.0 0
386000.0 558928.0 0
390000.0 558955.0 0
394000.0 558964.0 0
398000.0 558967.0 0
102000.0 562962.0 0
106000.0 562958.0 0
110000.0 562949.0 0
114000.0 562925.0 0
118000.0 562906.0 0
122000.0 562950.0 0
126000.0 562936.0 0
130000.0 562944.0 0
134000.0 562903.0 0
138000.0 562927.0 0
142000.0 562887.0 0
146000.0 562900.0 0
150000.0 562877.0 0
154000.0 562893.0 0
158000.0 562877.0 0
162000.0 562887.0 0
166000.0 562877.0 0
170000.0 562880.0 0
174000.0 562877.0 0
178000.0 562877.0 0
182000.0 562877.0 0
186000.0 562877.0 0
190000.0 562877.0 0
194000.0 562877.0 0
198000.0 562877.0 0
202000.0 562877.0 0
206000.0 562877.0 0
210000.0 562877.0 0
214000.0 562877.0 0
218000.0 562877.0 0
222000.0 562877.0 0
226000.0 562877.0 0
230000.0 562877.0 0
234000.0 562877.0 0
238000.0 562877.0 0
242000.0 562877.0 0
246000.0 562877.0 0
250000.0 562877.0 0
254000.0 562877.0 0
258000.0 562877.0 0
262000.0 562877.0 0
266000.0 562877.0 0
270000.0 562877.0 0
274000.0 562877.0 0
278000.0 562877.0 0
282000.0 562877.0 0
286000.0 562877.0 0
290000.0 562877.0 0
294000.0 562877.0 0
298000.0 562877.0 0
302000.0 562877.0 0
306000.0 562877.0 0
310000.0 562877.0 0
314000.0 562877.0 0
318000.0 562877.0 0
322000.0 562877.0 0
326000.0 562877.0 0
330000.0 562880.0 0
334000.0 562877.0 0
338000.0 562887.0 0
342000.0 562877.0 0
346000.0 562893.0 0
350000.0 562877.0 0
354000.0 562900.0 0
358000.0 562887.0 0
362000.0 562927.0 0
366000.0 562903.0 0
370000.0 562944.0 0
374000.0 562936.0 0
378000.0 562950.0 0
382000.0 562906.0 0
386000.0 562925.0 0
390000.0 562949.0 0
394000.0 562958.0 0
398000.0 562962.0 0
102000.0 566956.0 0
106000.0 566952.0 0
110000.0 566944.0 0
114000.0 566922.0 0
118000.0 566904.0 0
122000.0 566945.0 0
126000.0 566929.0 0
130000.0 566938.0 0
134000.0 566899.0 0
138000.0 566921.0 0
142000.0 566885.0 0
146000.0 566898.0 0
150000.0 566877.0 0
154000.0 566891.0 0
158000.0 566877.0 0
162000.0 566885.0 0
166000.0 566877.0 0
170000.0 566880.0 0
174000.0 566877.0 0
178000.0 566877.0 0
182000.0 566877.0 0
186000.0 566877.0 0
190000.0 566877.0 0
194000.0 566877.0 0
198000.0 566877.0 0
202000.0 566877.0 0
206000.0 566877.0 0
210000.0 566877.0 0
214000.0 566877.0 0
218000.0 566877.0 0
222000.0 566877.0 0
226000.0 566877.0 0
230000.0 566877.0 0
234000.0 566877.0 0
238000.0 566877.0 0
242000.0 566877.0 0
246000.0 566877.0 0
250000.0 566877.0 0
254000.0 566877.0 0
258000.0 566877.0 0
262000.0 566877.0 0
266000.0 566877.0 0
270000.0 566877.0 0
274000.0 566877.0 0
278000.0 566877.0 0
282000.0 566877.0 0
286000.0 566877.0 0
290000.0 566877.0 0
294000.0 566877.0 0
298000.0 566877.0 0
302000.0 566877.0 0
306000.0 566877.0 0
310000.0 566877.0 0
314000.0 566877.0 0
318000.0 566877.0 0
322000.0 566877.0 0
326000.0 566877.0 0
330000.0 566880.0 0
334000.0 566877.0 0
338000.0 566885.0 0
342000.0 566877.0 0
346000.0 566891.0 0
350000.0 566877.0 0
354000.0 566898.0 0
358000.0 566885.0 0
362000.0 566921.0 0
366000.0 566899.0 0
370000.0 566938.0 0
374000.0 566929.0 0
378000.0 566945.0 0
382000.0 566904.0 0
386000.0 566922.0 0
390000.0 566944.0 0
394000.0 566952.0 0
398000.0 566956.0 0
110000.0 570939.0 0
114000.0 570919.0 0
118000.0 570902.0 0
126000.0 570923.0 0
130000.0 570932.0 0
134000.0 570895.0 0
138000.0 570916.0 0
142000.0 570883.0 0
146000.0 570895.0 0
150000.0 570877.0 0
154000.0 570890.0 0
158000.0 570877.0 0
162000.0 570884.0 0
166000.0 570877.0 0
170000.0 570879.0 0
174000.0 570877.0 0
178000.0 570877.0 0
182000.0 570877.0 0
186000.0 570877.0 0
190000.0 570877.0 0
194000.0 570877.0 0
198000.0 570877.0 0
202000.0 570877.0 0
206000.0 570877.0 0
210000.0 570877.0 0
214000.0 570877.0 0
218000.0 570877.0 0
222000.0 570877.0 0
226000.0 570877.0 0
230000.0 570877.0 0
234000.0 570877.0 0
238000.0 570877.0 0
242000.0 570877.0 0
246000.0 570877.0 0
250000.0 570877.0 0
254000.0 570877.0 0
258000.0 570877.0 0
262000.0 570877.0 0
266000.0 570877.0 0
270000.0 570877.0 0
274000.0 570877.0 0
278000.0 570877.0 0
282000.0 570877.0 0
286000.0 570877.0 0
290000.0 570877.0 0
294000.0 570877.0 0
298000.0 570877.0 0
302000.0 570877.0 0
306000.0 570877.0 0
310000.0 570877.0 0
314000.0 570877.0 0
318000.0 570877.0 0
322000.0 570877.0 0
326000.0 570877.0 0
330000.0 570879.0 0
334000.0 570877.0 0
338000.0 570884.0 0
342000.0 570877.0 0
346000.0 570890.0 0
350000.0 570877.0 0
354000.0 570895.0 0
358000.0 570883.0 0
362000.0 570916.0 0
366000.0 570895.0 0
370000.0 570932.0 0
374000.0 570923.0 0
382000.0 570902.0 0
386000.0 570919.0 0
390000.0 570939.0 0
102000.0 570951.0 0
106000.0 570947.0 0
122000.0 570939.0 0
378000.0 570939.0 0
394000.0 570947.0 0
398000.0 570951.0 0
102000.0 574947.0 0
106000.0 574942.0 0
110000.0 574934.0 0
114000.0 574916.0 0
118000.0 574900.0 0
122000.0 574934.0 0
126000.0 574918.0 0
130000.0 574927.0 0
134000.0 574892.0 0
138000.0 574912.0 0
142000.0 574882.0 0
146000.0 574893.0 0
150000.0 574877.0 0
154000.0 574888.0 0
158000.0 574877.0 0
162000.0 574883.0 0
166000.0 574877.0 0
170000.0 574878.0 0
174000.0 574877.0 0
178000.0 574877.0 0
182000.0 574877.0 0
186000.0 574877.0 0
190000.0 574877.0 0
194000.0 574877.0 0
198000.0 574877.0 0
202000.0 574877.0 0
206000.0 574877.0 0
210000.0 574877.0 0
214000.0 574877.0 0
218000.0 574877.0 0
222000.0 574877.0 0
226000.0 574877.0 0
230000.0 574877.0 0
234000.0 574877.0 0
238000.0 574877.0 0
242000.0 574877.0 0
246000.0 574877.0 0
250000.0 574877.0 0
254000.0 574877.0 0
258000.0 574877.0 0
262000.0 574877.0 0
266000.0 574877.0 0
270000.0 574877.0 0
274000.0 574877.0 0
278000.0 574877.0 0
282000.0 574877.0 0
286000.0 574877.0 0
290000.0 574877.0 0
294000.0 574877.0 0
298000.0 574877.0 0
302000.0 574877.0 0
306000.0 574877.0 0
310000.0 574877.0 0
314000.0 574877.0 0
318000.0 574877.0 0
322000.0 574877.0 0
326000.0 574877.0 0
330000.0 574878.0 0
334000.0 574877.0 0
338000.0 574883.0 0
342000.0 574877.0 0
346000.0 574888.0 0
350000.0 574877.0 0
354000.0 574893.0 0
358000.0 574882.0 0
362000.0 574912.0 0
366000.0 574892.0 0
370000.0 574927.0 0
374000.0 574918.0 0
378000.0 574934.0 0
382000.0 574900.0 0
386000.0 574916.0 0
390000.0 574934.0 0
394000.0 574942.0 0
398000.0 574947.0 0
102000.0 578942.0 0
106000.0 578937.0 0
110000.0 578929.0 0
114000.0 578913.0 0
118000.0 578898.0 0
122000.0 578929.0 0
126000.0 578913.0 0
130000.0 578922.0 0
134000.0 578890.0 0
138000.0 578908.0 0
142000.0 578881.0 0
146000.0 578891.0 0
150000.0 578877.0 0
154000.0 578887.0 0
158000.0 578877.0 0
162000.0 578882.0 0
166000.0 578877.0 0
170000.0 578878.0 0
174000.0 578877.0 0
178000.0 578877.0 0
182000.0 578877.0 0
186000.0 578877.0 0
190000.0 578877.0 0
194000.0 578877.0 0
198000.0 578877.0 0
202000.0 578877.0 0
206000.0 578877.0 0
210000.0 578877.0 0
214000.0 578877.0 0
218000.0 578877.0 0
222000.0 578877.0 0
226000.0 578877.0 0
230000.0 578877.0 0
234000.0 578877.0 0
238000.0 578877.0 0
242000.0 578877.0 0
246000.0 578877.0 0
250000.0 578877.0 0
254000.0 578877.0 0
258000.0 578877.0 0
262000.0 578877.0 0
266000.0 578877.0 0
270000.0 578877.0 0
274000.0 578877.0 0
278000.0 578877.0 0
282000.0 578877.0 0
286000.0 578877.0 0
290000.0 578877.0 0
294000.0 578877.0 0
298000.0 578877.0 0
302000.0 578877.0 0
306000.0 578877.0 0
310000.0 578877.0 0
314000.0 578877.0 0
318000.0 578877.0 0
322000.0 578877.0 0
326000.0 578877.0 0
330000.0 578878.0 0
334000.0 578877.0 0
338000.0 578882.0 0
342000.0 578877.0 0
346000.0 578887.0 0
350000.0 578877.0 0
354000.0 578891.0 0
358000.0 578881.0 0
362000.0 578908.0 0
366000.0 578890.0 0
370000.0 578922.0 0
374000.0 578913.0 0
378000.0 578929.0 0
382000.0 578898.0 0
386000.0 578913.0 0
390000.0 578929.0 0
394000.0 578937.0 0
398000.0 578942.0 0
102000.0 582938.0 0
106000.0 582933.0 0
110000.0 582925.0 0
114000.0 582911.0 0
118000.0 582896.0 0
122000.0 582925.0 0
126000.0 582908.0 0
130000.0 582917.0 0
134000.0 582887.0 0
138000.0 582905.0 0
142000.0 582880.0 0
146000.0 582890.0 0
150000.0 582877.0 0
154000.0 582885.0 0
158000.0 582877.0 0
162000.0 582881.0 0
166000.0 582877.0 0
170000.0 582878.0 0
174000.0 582877.0 0
178000.0 582877.0 0
182000.0 582877.0 0
186000.0 582877.0 0
190000.0 582877.0 0
194000.0 582877.0 0
198000.0 582877.0 0
202000.0 582877.0 0
206000.0 582877.0 0
210000.0 582877.0 0
214000.0 582877.0 0
218000.0 582877.0 0
222000.0 582877.0 0
226000.0 582877.0 0
230000.0 582877.0 0
234000.0 582877.0 0
238000.0 582877.0 0
242000.0 582877.0 0
246000.0 582877.0 0
250000.0 582877.0 0
254000.0 582877.0 0
258000.0 582877.0 0
262000.0 582877.0 0
266000.0 582877.0 0
270000.0 582877.0 0
274000.0 582877.0 0
278000.0 582877.0 0
282000.0 582877.0 0
286000.0 582877.0 0
290000.0 582877.0 0
294000.0 582877.0 0
298000.0 582877.0 0
302000.0 582877.0 0
306000.0 582877.0 0
310000.0 582877.0 0
314000.0 582877.0 0
318000.0 582877.0 0
322000.0 582877.0 0
326000.0 582877.0 0
330000.0 582878.0 0
334000.0 582877.0 0
338000.0 582881.0 0
342000.0 582877.0 0
346000.0 582885.0 0
350000.0 582877.0 0
354000.0 582890.0 0
358000.0 582880.0 0
362000.0 582905.0 0
366000.0 582887.0 0
370000.0 582917.0 0
374000.0 582908.0 0
378000.0 582925.0 0
382000.0 582896.0 0
386000.0 582911.0 0
390000.0 582925.0 0
394000.0 582933.0 0
398000.0 582938.0 0
102000.0 586934.0 0
106000.0 586929.0 0
110000.0 586921.0 0
114000.0 586909.0 0
118000.0 586895.0 0
122000.0 586920.0 0
126000.0 586904.0 0
130000.0 586913.0 0
134000.0 586886.0 0
138000.0 586902.0 0
142000.0 586879.0 0
146000.0 586888.0 0
150000.0 586877.0 0
154000.0 586884.0 0
158000.0 586877.0 0
162000.0 586880.0 0
166000.0 586877.0 0
170000.0 586878.0 0
174000.0 586877.0 0
178000.0 586877.0 0
182000.0 586877.0 0
186000.0 586877.0 0
190000.0 586877.0 0
194000.0 586877.0 0
198000.0 586877.0 0
202000.0 586877.0 0
206000.0 586877.0 0
210000.0 586877.0 0
214000.0 586877.0 0
218000.0 586877.0 0
222000.0 586877.0 0
226000.0 586877.0 0
230000.0 586877.0 0
234000.0 586877.0 0
238000.0 586877.0 0
242000.0 586877.0 0
246000.0 586877.0 0
250000.0 586877.0 0
254000.0 586877.0 0
258000.0 586877.0 0
262000.0 586877.0 0
266000.0 586877.0 0
270000.0 586877.0 0
274000.0 586877.0 0
278000.0 586877.0 0
282000.0 586877.0 0
286000.0 586877.0 0
290000.0 586877.0 0
294000.0 586877.0 0
298000.0 586877.0 0
302000.0 586877.0 0
306000.0 586877.0 0
310000.0 586877.0 0
314000.0 586877.0 0
318000.0 586877.0 0
322000.0 586877.0 0
326000.0 586877.0 0
330000.0 586878.0 0
334000.0 586877.0 0
338000.0 586880.0 0
342000.0 586877.0 0
346000.0 586884.0 0
350000.0 586877.0 0
354000.0 586888.0 0
358000.0 586879.0 0
362000.0 586902.0 0
366000.0 586886.0 0
370000.0 586913.0 0
374000.0 586904.0 0
378000.0 586920.0 0
382000.0 586895.0 0
386000.0 586909.0 0
390000.0 586921.0 0
394000.0 586929.0 0
398000.0 586934.0 0
102000.0 590930.0 0
106000.0 590925.0 0
110000.0 590918.0 0
114000.0 590906.0 0
118000.0 590893.0 0
122000.0 590917.0 0
126000.0 590901.0 0
130000.0 590909.0 0
134000.0 590884.0 0
138000.0 590899.0 0
142000.0 590879.0 0
146000.0 590887.0 0
150000.0 590877.0 0
154000.0 590883.0 0
158000.0 590877.0 0
162000.0 590880.0 0
166000.0 590877.0 0
170000.0 590877.0 0
174000.0 590877.0 0
178000.0 590877.0 0
182000.0 590877.0 0
186000.0 590877.0 0
190000.0 590877.0 0
194000.0 590877.0 0
198000.0 590877.0 0
202000.0 590877.0 0
206000.0 590877.0 0
210000.0 590877.0 0
214000.0 590877.0 0
218000.0 590877.0 0
222000.0 590877.0 0
226000.0 590877.0 0
230000.0 590877.0 0
234000.0 590877.0 0
238000.0 590877.0 0
242000.0 590877.0 0
246000.0 590877.0 0
250000.0 590877.0 0
254000.0 590877.0 0
258000.0 590877.0 0
262000.0 590877.0 0
266000.0 590877.0 0
270000.0 590877.0 0
274000.0 590877.0 0
278000.0 590877.0 0
282000.0 590877.0 0
286000.0 590877.0 0
290000.0 590877.0 0
294000.0 590877.0 0
298000.0 590877.0 0
302000.0 590877.0 0
306000.0 590877.0 0
310000.0 590877.0 0
314000.0 590877.0 0
318000.0 590877.0 0
322000.0 590877.0 0
326000.0 590877.0 0
330000.0 590877.0 0
334000.0 590877.0 0
338000.0 590880.0 0
342000.0 590877.0 0
346000.0 590883.0 0
350000.0 590877.0 0
354000.0 590887.0 0
358000.0 590879.0 0
362000.0 590899.0 0
366000.0 590884.0 0
370000.0 590909.0 0
374000.0 590901.0 0
378000.0 590917.0 0
382000.0 590893.0 0
386000.0 590906.0 0
390000.0 590918.0 0
394000.0 590925.0 0
398000.0 590930.0 0
102000.0 594926.0 0
106000.0 594922.0 0
110000.0 594914.0 0
114000.0 594904.0 0
118000.0 594892.0 0
122000.0 594913.0 0
126000.0 594897.0 0
130000.0 594906.0 0
134000.0 594883.0 0
138000.0 594896.0 0
142000.0 594879.0 0
146000.0 594886.0 0
150000.0 594877.0 0
154000.0 594882.0 0
158000.0 594877.0 0
162000.0 594879.0 0
166000.0 594877.0 0
170000.0 594877.0 0
174000.0 594877.0 0
178000.0 594877.0 0
182000.0 594877.0 0
186000.0 594877.0 0
190000.0 594877.0 0
194000.0 594877.0 0
198000.0 594877.0 0
202000.0 594877.0 0
206000.0 594877.0 0
210000.0 594877.0 0
214000.0 594877.0 0
218000.0 594877.0 0
222000.0 594877.0 0
226000.0 594877.0 0
230000.0 594877.0 0
234000.0 594877.0 0
238000.0 594877.0 0
242000.0 594877.0 0
246000.0 594877.0 0
250000.0 594877.0 0
254000.0 594877.0 0
258000.0 594877.0 0
262000.0 594877.0 0
266000.0 594877.0 0
270000.0 594877.0 0
274000.0 594877.0 0
278000.0 594877.0 0
282000.0 594877.0 0
286000.0 594877.0 0
290000.0 594877.0 0
294000.0 594877.0 0
298000.0 594877.0 0
302000.0 594877.0 0
306000.0 594877.0 0
310000.0 594877.0 0
314000.0 594877.0 0
318000.0 594877.0 0
322000.0 594877.0 0
326000.0 594877.0 0
330000.0 594877.0 0
334000.0 594877.0 0
338000.0 594879.0 0
342000.0 594877.0 0
346000.0 594882.0 0
350000.0 594877.0 0
354000.0 594886.0 0
358000.0 594879.0 0
362000.0 594896.0 0
366000.0 594883.0 0
370000.0 594906.0 0
374000.0 594897.0 0
378000.0 594913.0 0
382000.0 594892.0 0
386000.0 594904.0 0
390000.0 594914.0 0
394000.0 594922.0 0
398000.0 594926.0 0
102000.0 598923.0 0
106000.0 598919.0 0
110000.0 598911.0 0
114000.0 598902.0 0
118000.0 598891.0 0
122000.0 598910.0 0
126000.0 598895.0 0
130000.0 598903.0 0
134000.0 598882.0 0
138000.0 598894.0 0
142000.0 598878.0 0
146000.0 598885.0 0
150000.0 598877.0 0
154000.0 598881.0 0
158000.0 598877.0 0
162000.0 598879.0 0
166000.0 598877.0 0
170000.0 598877.0 0
174000.0 598877.0 0
178000.0 598877.0 0
182000.0 598877.0 0
186000.0 598877.0 0
190000.0 598877.0 0
194000.0 598877.0 0
198000.0 598877.0 0
202000.0 598877.0 0
206000.0 598877.0 0
210000.0 598877.0 0
214000.0 598877.0 0
218000.0 598877.0 0
222000.0 598877.0 0
226000.0 598877.0 0
230000.0 598877.0 0
234000.0 598877.0 0
238000.0 598877.0 0
242000.0 598877.0 0
246000.0 598877.0 0
250000.0 598877.0 0
254000.0 598877.0 0
258000.0 598877.0 0
262000.0 598877.0 0
266000.0 598877.0 0
270000.0 598877.0 0
274000.0 598877.0 0
278000.0 598877.0 0
282000.0 598877.0 0
286000.0 598877.0 0
290000.0 598877.0 0
294000.0 598877.0 0
298000.0 598877.0 0
302000.0 598877.0 0
306000.0 598877.0 0
310000.0 598877.0 0
314000.0 598877.0 0
318000.0 598877.0 0
322000.0 598877.0 0
326000.0 598877.0 0
330000.0 598877.0 0
334000.0 598877.0 0
338000.0 598879.0 0
342000.0 598877.0 0
346000.0 598881.0 0
350000.0 598877.0 0
354000.0 598885.0 0
358000.0 598878.0 0
362000.0 598894.0 0
366000.0 598882.0 0
370000.0 598903.0 0
374000.0 598895.0 0
378000.0 598910.0 0
382000.0 598891.0 0
386000.0 598902.0 0
390000.0 598911.0 0
394000.0 598919.0 0
398000.0 598923.0 0
102000.0 602920.0 0
106000.0 602916.0 0
110000.0 602909.0 0
114000.0 602901.0 0
118000.0 602890.0 0
122000.0 602907.0 0
126000.0 602892.0 0
130000.0 602900.0 0
134000.0 602881.0 0
138000.0 602892.0 0
142000.0 602878.0 0
146000.0 602884.0 0
150000.0 602877.0 0
154000.0 602881.0 0
158000.0 602877.0 0
162000.0 602878.0 0
166000.0 602877.0 0
170000.0 602877.0 0
174000.0 602877.0 0
178000.0 602877.0 0
182000.0 602877.0 0
186000.0 602877.0 0
190000.0 602877.0 0
194000.0 602877.0 0
198000.0 602877.0 0
202000.0 602877.0 0
206000.0 602877.0 0
210000.0 602877.0 0
214000.0 602877.0 0
218000.0 602877.0 0
222000.0 602877.0 0
226000.0 602877.0 0
230000.0 602877.0 0
234000.0 602877.0 0
238000.0 602877.0 0
242000.0 602877.0 0
246000.0 602877.0 0
250000.0 602877.0 0
254000.0 602877.0 0
258000.0 602877.0 0
262000.0 602877.0 0
266000.0 602877.0 0
270000.0 602877.0 0
274000.0 602877.0 0
278000.0 602877.0 0
282000.0 602877.0 0
286000.0 602877.0 0
290000.0 602877.0 0
294000.0 602877.0 0
298000.0 602877.0 0
302000.0 602877.0 0
306000.0 602877.0 0
310000.0 602877.0 0
314000.0 602877.0 0
318000.0 602877.0 0
322000.0 602877.0 0
326000.0 602877.0 0
330000.0 602877.0 0
334000.0 602877.0 0
338000.0 602878.0 0
342000.0 602877.0 0
346000.0 602881.0 0
350000.0 602877.0 0
354000.0 602884.0 0
358000.0 602878.0 0
362000.0 602892.0 0
366000.0 602881.0 0
370000.0 602900.0 0
374000.0 602892.0 0
378000.0 602907.0 0
382000.0 602890.0 0
386000.0 602901.0 0
390000.0 602909.0 0
394000.0 602916.0 0
398000.0 602920.0 0
102000.0 606918.0 0
106000.0 606914.0 0
110000.0 606906.0 0
114000.0 606899.0 0
118000.0 606889.0 0
122000.0 606904.0 0
126000.0 606890.0 0
130000.0 606898.0 0
134000.0 606880.0 0
138000.0 606891.0 0
142000.0 606878.0 0
146000.0 606883.0 0
150000.0 606877.0 0
154000.0 606880.0 0
158000.0 606877.0 0
162000.0 606878.0 0
166000.0 606877.0 0
170000.0 606877.0 0
174000.0 606877.0 0
178000.0 606877.0 0
182000.0 606877.0 0
186000.0 606877.0 0
190000.0 606877.0 0
194000.0 606877.0 0
198000.0 606877.0 0
202000.0 606877.0 0
206000.0 606877.0 0
210000.0 606877.0 0
214000.0 606877.0 0
218000.0 606877.0 0
222000.0 606877.0 0
226000.0 606877.0 0
230000.0 606877.0 0
234000.0 606877.0 0
238000.0 606877.0 0
242000.0 606877.0 0
246000.0 606877.0 0
250000.0 606877.0 0
254000.0 606877.0 0
258000.0 606877.0 0
262000.0 606877.0 0
266000.0 606877.0 0
270000.0 606877.0 0
274000.0 606877.0 0
278000.0 606877.0 0
282000.0 606877.0 0
286000.0 606877.0 0
290000.0 606877.0 0
294000.0 606877.0 0
298000.0 606877.0 0
302000.0 606877.0 0
306000.0 606877.0 0
310000.0 606877.0 0
314000.0 606877.0 0
318000.0 606877.0 0
322000.0 606877.0 0
326000.0 606877.0 0
330000.0 606877.0 0
334000.0 606877.0 0
338000.0 606878.0 0
342000.0 606877.0 0
346000.0 606880.0 0
350000.0 606877.0 0
354000.0 606883.0 0
358000.0 606878.0 0
362000.0 606891.0 0
366000.0 606880.0 0
370000.0 606898.0 0
374000.0 606890.0 0
378000.0 606904.0 0
382000.0 606889.0 0
386000.0 606899.0 0
390000.0 606906.0 0
394000.0 606914.0 0
398000.0 606918.0 0
102000.0 610915.0 0
106000.0 610911.0 0
110000.0 610904.0 0
114000.0 610898.0 0
118000.0 610888.0 0
122000.0 610902.0 0
126000.0 610888.0 0
130000.0 610896.0 0
134000.0 610880.0 0
138000.0 610889.0 0
142000.0 610878.0 0
146000.0 610882.0 0
150000.0 610877.0 0
154000.0 610880.0 0
158000.0 610877.0 0
162000.0 610878.0 0
166000.0 610877.0 0
170000.0 610877.0 0
174000.0 610877.0 0
178000.0 610877.0 0
182000.0 610877.0 0
186000.0 610877.0 0
190000.0 610877.0 0
194000.0 610877.0 0
198000.0 610877.0 0
202000.0 610877.0 0
206000.0 610877.0 0
210000.0 610877.0 0
214000.0 610877.0 0
218000.0 610877.0 0
222000.0 610877.0 0
226000.0 610877.0 0
230000.0 610877.0 0
234000.0 610877.0 0
238000.0 610877.0 0
242000.0 610877.0 0
246000.0 610877.0 0
250000.0 610877.0 0
254000.0 610877.0 0
258000.0 610877.0 0
262000.0 610877.0 0
266000.0 610877.0 0
270000.0 610877.0 0
274000.0 610877.0 0
278000.0 610877.0 0
282000.0 610877.0 0
286000.0 610877.0 0
290000.0 610877.0 0
294000.0 610877.0 0
298000.0 610877.0 0
302000.0 610877.0 0
306000.0 610877.0 0
310000.0 610877.0 0
314000.0 610877.0 0
318000.0 610877.0 0
322000.0 610877.0 0
326000.0 610877.0 0
330000.0 610877.0 0
334000.0 610877.0 0
338000.0 610878.0 0
342000.0 610877.0 0
346000.0 610880.0 0
350000.0 610877.0 0
354000.0 610882.0 0
358000.0 610878.0 0
362000.0 610889.0 0
366000.0 610880.0 0
370000.0 610896.0 0
374000.0 610888.0 0
378000.0 610902.0 0
382000.0 610888.0 0
386000.0 610898.0 0
390000.0 610904.0 0
394000.0 610911.0 0
398000.0 610915.0 0
102000.0 614913.0 0
106000.0 614909.0 0
110000.0 614902.0 0
114000.0 614896.0 0
118000.0 614887.0 0
122000.0 614900.0 0
126000.0 614887.0 0
130000.0 614894.0 0
134000.0 614879.0 0
138000.0 614888.0 0
142000.0 614877.0 0
146000.0 614881.0 0
150000.0 614877.0 0
154000.0 614879.0 0
158000.0 614877.0 0
162000.0 614878.0 0
166000.0 614877.0 0
170000.0 614877.0 0
174000.0 614877.0 0
178000.0 614877.0 0
182000.0 614877.0 0
186000.0 614877.0 0
190000.0 614877.0 0
194000.0 614877.0 0
198000.0 614877.0 0
202000.0 614877.0 0
206000.0 614877.0 0
210000.0 614877.0 0
214000.0 614877.0 0
218000.0 614877.0 0
222000.0 614877.0 0
226000.0 614877.0 0
230000.0 614877.0 0
234000.0 614877.0 0
238000.0 614877.0 0
242000.0 614877.0 0
246000.0 614877.0 0
250000.0 614877.0 0
254000.0 614877.0 0
258000.0 614877.0 0
262000.0 614877.0 0
266000.0 614877.0 0
270000.0 614877.0 0
274000.0 614877.0 0
278000.0 614877.0 0
282000.0 614877.0 0
286000.0 614877.0 0
290000.0 614877.0 0
294000.0 614877.0 0
298000.0 614877.0 0
302000.0 614877.0 0
306000.0 614877.0 0
310000.0 614877.0 0
314000.0 614877.0 0
318000.0 614877.0 0
322000.0 614877.0 0
326000.0 614877.0 0
330000.0 614877.0 0
334000.0 614877.0 0
338000.0 614878.0 0
342000.0 614877.0 0
346000.0 614879.0 0
350000.0 614877.0 0
354000.0 614881.0 0
358000.0 614877.0 0
362000.0 614888.0 0
366000.0 614879.0 0
370000.0 614894.0 0
374000.0 614887.0 0
378000.0 614900.0 0
382000.0 614887.0 0
386000.0 614896.0 0
390000.0 614902.0 0
394000.0 614909.0 0
398000.0 614913.0 0
102000.0 618911.0 0
106000.0 618908.0 0
110000.0 618900.0 0
114000.0 618895.0 0
118000.0 618886.0 0
122000.0 618898.0 0
126000.0 618885.0 0
130000.0 618892.0 0
134000.0 618879.0 0
138000.0 618887.0 0
142000.0 618877.0 0
146000.0 618881.0 0
150000.0 618877.0 0
154000.0 618879.0 0
158000.0 618877.0 0
162000.0 618878.0 0
166000.0 618877.0 0
170000.0 618877.0 0
174000.0 618877.0 0
178000.0 618877.0 0
182000.0 618877.0 0
186000.0 618877.0 0
190000.0 618877.0 0
194000.0 618877.0 0
198000.0 618877.0 0
202000.0 618877.0 0
206000.0 618877.0 0
210000.0 618877.0 0
214000.0 618877.0 0
218000.0 618877.0 0
222000.0 618877.0 0
226000.0 618877.0 0
230000.0 618877.0 0
234000.0 618877.0 0
238000.0 618877.0 0
242000.0 618877.0 0
246000.0 618877.0 0
250000.0 618877.0 0
254000.0 618877.0 0
258000.0 618877.0 0
262000.0 618877.0 0
266000.0 618877.0 0
270000.0 618877.0 0
274000.0 618877.0 0
278000.0 618877.0 0
282000.0 618877.0 0
286000.0 618877.0 0
290000.0 618877.0 0
294000.0 618877.0 0
298000.0 618877.0 0
302000.0 618877.0 0
306000.0 618877.0 0
310000.0 618877.0 0
314000.0 618877.0 0
318000.0 618877.0 0
322000.0 618877.0 0
326000.0 618877.0 0
330000.0 618877.0 0
334000.0 618877.0 0
338000.0 618878.0 0
342000.0 618877.0 0
346000.0 618879.0 0
350000.0 618877.0 0
354000.0 618881.0 0
358000.0 618877.0 0
362000.0 618887.0 0
366000.0 618879.0 0
370000.0 618892.0 0
374000.0 618885.0 0
378000.0 618898.0 0
382000.0 618886.0 0
386000.0 618895.0 0
390000.0 618900.0 0
394000.0 618908.0 0
398000.0 618911.0 0
102000.0 622909.0 0
106000.0 622906.0 0
110000.0 622899.0 0
114000.0 622894.0 0
118000.0 622885.0 0
122000.0 622896.0 0
126000.0 622884.0 0
130000.0 622891.0 0
134000.0 622878.0 0
138000.0 622886.0 0
142000.0 622877.0 0
146000.0 622880.0 0
150000.0 622877.0 0
154000.0 622879.0 0
158000.0 622877.0 0
162000.0 622877.0 0
166000.0 622877.0 0
170000.0 622877.0 0
174000.0 622877.0 0
178000.0 622877.0 0
182000.0 622877.0 0
186000.0 622877.0 0
190000.0 622877.0 0
194000.0 622877.0 0
198000.0 622877.0 0
202000.0 622877.0 0
206000.0 622877.0 0
210000.0 622877.0 0
214000.0 622877.0 0
218000.0 622877.0 0
222000.0 622877.0 0
226000.0 622877.0 0
230000.0 622877.0 0
234000.0 622877.0 0
238000.0 622877.0 0
242000.0 622877.0 0
246000.0 622877.0 0
250000.0 622877.0 0
254000.0 622877.0 0
258000.0 622877.0 0
262000.0 622877.0 0
266000.0 622877.0 0
270000.0 622877.0 0
274000.0 622877.0 0
278000.0 622877.0 0
282000.0 622877.0 0
286000.0 622877.0 0
290000.0 622877.0 0
294000.0 622877.0 0
298000.0 622877.0 0
302000.0 622877.0 0
306000.0 622877.0 0
310000.0 622877.0 0
314000.0 622877.0 0
318000.0 622877.0 0
322000.0 622877.0 0
326000.0 622877.0 0
330000.0 622877.0 0
334000.0 622877.0 0
338000.0 622877.0 0
342000.0 622877.0 0
346000.0 622879.0 0
350000.0 622877.0 0
354000.0 622880.0 0
358000.0 622877.0 0
362000.0 622886.0 0
366000.0 622878.0 0
370000.0 622891.0 0
374000.0 622884.0 0
378000.0 622896.0 0
382000.0 622885.0 0
386000.0 622894.0 0
390000.0 622899.0 0
394000.0 622906.0 0
398000.0 622909.0 0
102000.0 626908.0 0
106000.0 626905.0 0
110000.0 626898.0 0
114000.0 626893.0 0
118000.0 626885.0 0
122000.0 626895.0 0
126000.0 626883.0 0
130000.0 626890.0 0
134000.0 626878.0 0
138000.0 626885.0 0
142000.0 626877.0 0
146000.0 626880.0 0
150000.0 626877.0 0
154000.0 626878.0 0
158000.0 626877.0 0
162000.0 626877.0 0
166000.0 626877.0 0
170000.0 626877.0 0
174000.0 626877.0 0
178000.0 626877.0 0
182000.0 626877.0 0
186000.0 626877.0 0
190000.0 626877.0 0
194000.0 626877.0 0
198000.0 626877.0 0
202000.0 626877.0 0
206000.0 626877.0 0
210000.0 626877.0 0
214000.0 626877.0 0
218000.0 626877.0 0
222000.0 626877.0 0
226000.0 626877.0 0
230000.0 626877.0 0
234000.0 626877.0 0
238000.0 626877.0 0
242000.0 626877.0 0
246000.0 626877.0 0
250000.0 626877.0 0
254000.0 626877.0 0
258000.0 626877.0 0
262000.0 626877.0 0
266000.0 626877.0 0
270000.0 626877.0 0
274000.0 626877.0 0
278000.0 626877.0 0
282000.0 626877.0 0
286000.0 626877.0 0
290000.0 626877.0 0
294000.0 626877.0 0
298000.0 626877.0 0
302000.0 626877.0 0
306000.0 626877.0 0
310000.0 626877.0 0
314000.0 626877.0 0
318000.0 626877.0 0
322000.0 626877.0 0
326000.0 626877.0 0
330000.0 626877.0 0
334000.0 626877.0 0
338000.0 626877.0 0
342000.0 626877.0 0
346000.0 626878.0 0
350000.0 626877.0 0
354000.0 626880.0 0
358000.0 626877.0 0
362000.0 626885.0 0
366000.0 626878.0 0
370000.0 626890.0 0
374000.0 626883.0 0
378000.0 626895.0 0
382000.0 626885.0 0
386000.0 626893.0 0
390000.0 626898.0 0
394000.0 626905.0 0
398000.0 626908.0 0
102000.0 630907.0 0
106000.0 630904.0 0
110000.0 630896.0 0
114000.0 630892.0 0
118000.0 630885.0 0
122000.0 630894.0 0
126000.0 630883.0 0
130000.0 630889.0 0
134000.0 630878.0 0
138000.0 630884.0 0
142000.0 630877.0 0
146000.0 630880.0 0
150000.0 630877.0 0
154000.0 630878.0 0
158000.0 630877.0 0
162000.0 630877.0 0
166000.0 630877.0 0
170000.0 630877.0 0
174000.0 630877.0 0
178000.0 630877.0 0
182000.0 630877.0 0
186000.0 630877.0 0
190000.0 630877.0 0
194000.0 630877.0 0
198000.0 630877.0 0
202000.0 630877.0 0
206000.0 630877.0 0
210000.0 630877.0 0
214000.0 630877.0 0
218000.0 630877.0 0
222000.0 630877.0 0
226000.0 630877.0 0
230000.0 630877.0 0
234000.0 630877.0 0
238000.0 630877.0 0
242000.0 630877.0 0
246000.0 630877.0 0
250000.0 630877.0 0
254000.0 630877.0 0
258000.0 630877.0 0
262000.0 630877.0 0
266000.0 630877.0 0
270000.0 630877.0 0
274000.0 630877.0 0
278000.0 630877.0 0
282000.0 630877.0 0
286000.0 630877.0 0
290000.0 630877.0 0
294000.0 630877.0 0
298000.0 630877.0 0
302000.0 630877.0 0
306000.0 630877.0 0
310000.0 630877.0 0
314000.0 630877.0 0
318000.0 630877.0 0
322000.0 630877.0 0
326000.0 630877.0 0
330000.0 630877.0 0
334000.0 630877.0 0
338000.0 630877.0 0
342000.0 630877.0 0
346000.0 630878.0 0
350000.0 630877.0 0
354000.0 630880.0 0
358000.0 630877.0 0
362000.0 630884.0 0
366000.0 630878.0 0
370000.0 630889.0 0
374000.0 630883.0 0
378000.0 630894.0 0
382000.0 630885.0 0
386000.0 630892.0 0
390000.0 630896.0 0
394000.0 630904.0 0
398000.0 630907.0 0
102000.0 634906.0 0
106000.0 634903.0 0
110000.0 634896.0 0
114000.0 634892.0 0
118000.0 634884.0 0
122000.0 634893.0 0
126000.0 634882.0 0
130000.0 634888.0 0
134000.0 634878.0 0
138000.0 634884.0 0
142000.0 634877.0 0
146000.0 634880.0 0
150000.0 634877.0 0
154000.0 634878.0 0
158000.0 634877.0 0
162000.0 634877.0 0
166000.0 634877.0 0
170000.0 634877.0 0
174000.0 634877.0 0
178000.0 634877.0 0
182000.0 634877.0 0
186000.0 634877.0 0
190000.0 634877.0 0
194000.0 634877.0 0
198000.0 634877.0 0
202000.0 634877.0 0
206000.0 634877.0 0
210000.0 634877.0 0
214000.0 634877.0 0
218000.0 634877.0 0
222000.0 634877.0 0
226000.0 634877.0 0
230000.0 634877.0 0
234000.0 634877.0 0
238000.0 634877.0 0
242000.0 634877.0 0
246000.0 634877.0 0
250000.0 634877.0 0
254000.0 634877.0 0
258000.0 634877.0 0
262000.0 634877.0 0
266000.0 634877.0 0
270000.0 634877.0 0
274000.0 634877.0 0
278000.0 634877.0 0
282000.0 634877.0 0
286000.0 634877.0 0
290000.0 634877.0 0
294000.0 634877.0 0
298000.0 634877.0 0
302000.0 634877.0 0
306000.0 634877.0 0
310000.0 634877.0 0
314000.0 634877.0 0
318000.0 634877.0 0
322000.0 634877.0 0
326000.0 634877.0 0
330000.0 634877.0 0
334000.0 634877.0 0
338000.0 634877.0 0
342000.0 634877.0 0
346000.0 634878.0 0
350000.0 634877.0 0
354000.0 634880.0 0
358000.0 634877.0 0
362000.0 634884.0 0
366000.0 634878.0 0
370000.0 634888.0 0
374000.0 634882.0 0
378000.0 634893.0 0
382000.0 634884.0 0
386000.0 634892.0 0
390000.0 634896.0 0
394000.0 634903.0 0
398000.0 634906.0 0
102000.0 638905.0 0
106000.0 638902.0 0
110000.0 638895.0 0
114000.0 638891.0 0
118000.0 638884.0 0
122000.0 638892.0 0
126000.0 638882.0 0
130000.0 638888.0 0
134000.0 638878.0 0
138000.0 638884.0 0
142000.0 638877.0 0
146000.0 638879.0 0
150000.0 638877.0 0
154000.0 638878.0 0
158000.0 638877.0 0
162000.0 638877.0 0
166000.0 638877.0 0
170000.0 638877.0 0
174000.0 638877.0 0
178000.0 638877.0 0
182000.0 638877.0 0
186000.0 638877.0 0
190000.0 638877.0 0
194000.0 638877.0 0
198000.0 638877.0 0
202000.0 638877.0 0
206000.0 638877.0 0
210000.0 638877.0 0
214000.0 638877.0 0
218000.0 638877.0 0
222000.0 638877.0 0
226000.0 638877.0 0
230000.0 638877.0 0
234000.0 638877.0 0
238000.0 638877.0 0
242000.0 638877.0 0
246000.0 638877.0 0
250000.0 638877.0 0
254000.0 638877.0 0
258000.0 638877.0 0
262000.0 638877.0 0
266000.0 638877.0 0
270000.0 638877.0 0
274000.0 638877.0 0
278000.0 638877.0 0
282000.0 638877.0 0
286000.0 638877.0 0
290000.0 638877.0 0
294000.0 638877.0 0
298000.0 638877.0 0
302000.0 638877.0 0
306000.0 638877.0 0
310000.0 638877.0 0
314000.0 638877.0 0
318000.0 638877.0 0
322000.0 638877.0 0
326000.0 638877.0 0
330000.0 638877.0 0
334000.0 638877.0 0
338000.0 638877.0 0
342000.0 638877.0 0
346000.0 638878.0 0
350000.0 638877.0 0
354000.0 638879.0 0
358000.0 638877.0 0
362000.0 638884.0 0
366000.0 638878.0 0
370000.0 638888.0 0
374000.0 638882.0 0
378000.0 638892.0 0
382000.0 638884.0 0
386000.0 638891.0 0
390000.0 638895.0 0
394000.0 638902.0 0
398000.0 638905.0 0
102000.0 642905.0 0
106000.0 642902.0 0
110000.0 642895.0 0
114000.0 642891.0 0
118000.0 642884.0 0
122000.0 642892.0 0
126000.0 642881.0 0
130000.0 642887.0 0
134000.0 642878.0 0
138000.0 642883.0 0
142000.0 642877.0 0
146000.0 642879.0 0
150000.0 642877.0 0
154000.0 642878.0 0
158000.0 642877.0 0
162000.0 642877.0 0
166000.0 642877.0 0
170000.0 642877.0 0
174000.0 642877.0 0
178000.0 642877.0 0
182000.0 642877.0 0
186000.0 642877.0 0
190000.0 642877.0 0
194000.0 642877.0 0
198000.0 642877.0 0
202000.0 642877.0 0
206000.0 642877.0 0
210000.0 642877.0 0
214000.0 642877.0 0
218000.0 642877.0 0
222000.0 642877.0 0
226000.0 642877.0 0
230000.0 642877.0 0
234000.0 642877.0 0
238000.0 642877.0 0
242000.0 642877.0 0
246000.0 642877.0 0
250000.0 642877.0 0
254000.0 642877.0 0
258000.0 642877.0 0
262000.0 642877.0 0
266000.0 642877.0 0
270000.0 642877.0 0
274000.0 642877.0 0
278000.0 642877.0 0
282000.0 642877.0 0
286000.0 642877.0 0
290000.0 642877.0 0
294000.0 642877.0 0
298000.0 642877.0 0
302000.0 642877.0 0
306000.0 642877.0 0
310000.0 642877.0 0
314000.0 642877.0 0
318000.0 642877.0 0
322000.0 642877.0 0
326000.0 642877.0 0
330000.0 642877.0 0
334000.0 642877.0 0
338000.0 642877.0 0
342000.0 642877.0 0
346000.0 642878.0 0
350000.0 642877.0 0
354000.0 642879.0 0
358000.0 642877.0 0
362000.0 642883.0 0
366000.0 642878.0 0
370000.0 642887.0 0
374000.0 642881.0 0
378000.0 642892.0 0
382000.0 642884.0 0
386000.0 642891.0 0
390000.0 642895.0 0
394000.0 642902.0 0
398000.0 642905.0 0
102000.0 646904.0 0
106000.0 646902.0 0
110000.0 646894.0 0
114000.0 646891.0 0
118000.0 646884.0 0
122000.0 646891.0 0
126000.0 646881.0 0
130000.0 646887.0 0
134000.0 646878.0 0
138000.0 646883.0 0
142000.0 646877.0 0
146000.0 646879.0 0
150000.0 646877.0 0
154000.0 646878.0 0
158000.0 646877.0 0
162000.0 646877.0 0
166000.0 646877.0 0
170000.0 646877.0 0
174000.0 646877.0 0
178000.0 646877.0 0
182000.0 646877.0 0
186000.0 646877.0 0
190000.0 646877.0 0
194000.0 646877.0 0
198000.0 646877.0 0
202000.0 646877.0 0
206000.0 646877.0 0
210000.0 646877.0 0
214000.0 646877.0 0
218000.0 646877.0 0
222000.0 646877.0 0
226000.0 646877.0 0
230000.0 646877.0 0
234000.0 646877.0 0
238000.0 646877.0 0
242000.0 646877.0 0
246000.0 646877.0 0
250000.0 646877.0 0
254000.0 646877.0 0
258000.0 646877.0 0
262000.0 646877.0 0
266000.0 646877.0 0
270000.0 646877.0 0
274000.0 646877.0 0
278000.0 646877.0 0
282000.0 646877.0 0
286000.0 646877.0 0
290000.0 646877.0 0
294000.0 646877.0 0
298000.0 646877.0 0
302000.0 646877.0 0
306000.0 646877.0 0
310000.0 646877.0 0
314000.0 646877.0 0
318000.0 646877.0 0
322000.0 646877.0 0
326000.0 646877.0 0
330000.0 646877.0 0
334000.0 646877.0 0
338000.0 646877.0 0
342000.0 646877.0 0
346000.0 646878.0 0
350000.0 646877.0 0
354000.0 646879.0 0
358000.0 646877.0 0
362000.0 646883.0 0
366000.0 646878.0 0
370000.0 646887.0 0
374000.0 646881.0 0
378000.0 646891.0 0
382000.0 646884.0 0
386000.0 646891.0 0
390000.0 646894.0 0
394000.0 646902.0 0
398000.0 646904.0 0
POINT_DATA 4650
SCALARS Radius float 1
LOOKUP_TABLE default
4000.0 4000.0 4000.0 4000.0 4000.0 4000.0 4000.0 4000.0 4000.0 4000.0 4000.0 4000.0 4000.0 4000.0 4000.0 4000.0 4000.0 4000.0 4000.0 4000.0 4000.0 4000.0 4000.0 4000.0 4000.0 4000.0 4000.0 4000.0 4000.0 4000.0 4000.0 4000.0 4000.0 4000.0 4000.0 4000.0 4000.0 4000.0 4000.0 4000.0 4000.0 4000.0 4000.0 4000.0 4000.0 4000.0 4000.0 4000.0 4000.0 4000.0 4000.0 4000.0 4000.0 4000.0 4000.0 4000.0 4000.0 4000.0 4000.0 4000.0 4000.0 4000.0 4000.0 4000.0 4000.0 4000.0 4000.0 4000.0 4000.0 4000.0 4000.0 4000.0 4000.0 4000.0 4000.0 4000.0 4000.0 4000.0 4000.0 4000.0 4000.0 4000.0 4000.0 4000.0 4000.0 4000.0 4000.0 4000.0 4000.0 4000.0 4000.0 4000.0 4000.0 4000.0 4000.0 4000.0 4000.0 4000.0 4000.0 4000.0 4000.0 4000.0 4000.0 4000.0 4000.0 4000.0 4000.0 4000.0 4000.0 4000.0 4000.0 4000.0 4000.0 4000.0 4000.0 4000.0 4000.0 4000.0 4000.0 4000.0 4000.0 4000.0 4000.0 4000.0 4000.0 4000.0 4000.0 4000.0 4000.0 4000.0 4000.0 4000.0 4000.0 4000.0 4000.0 4000.0 4000.0 4000.0 4000.0 4000.0 4000.0 4000.0 4000.0 4000.0 4000.0 4000.0 4000.0 4000.0 4000.0 4000.0 4000.0 4000.0 4000.0 4000.0 4000.0 4000.0 4000.0 4000.0 4000.0 4000.0 4000.0 4000.0 4000.0 4000.0 4000.0 4000.0 4000.0 4000.0 4000.0 4000.0 4000.0 4000.0 4000.0 4000.0 4000.0 4000.0 4000.0 4000.0 4000.0 4000.0 4000.0 4000.0 4000.0 4000.0 4000.0 4000.0 4000.0 4000.0 4000.0 4000.0 4000.0 4000.0 4000.0 4000.0 4000.0 4000.0 4000.0 4000.0 4000.0 4000.0 4000.0 4000.0 4000.0 4000.0 4000.0 4000.0 4000.0 4000.0 4000.0 4000.0 4000.0 4000.0 4000.0 4000.0 4000.0 4000.0 4000.0 4000.0 4000.0 4000.0 4000.0 4000.0 4000.0 4000.0 4000.0 4000.0 4000.0 4000.0 4000.0 4000.0 4000.0 4000.0 4000.0 4000.0 4000.0 4000.0 4000.0 4000.0 4000.0 4000.0 4000.0 4000.0 4000.0 4000.0 4000.0 4000.0 4000.0 4000.0 4000.0 4000.0 4000.0 4000.0 4000.0 4000.0 4000.0 4000.0 4000.0 4000.0 4000.0 4000.0 4000.0 4000.0 4000.0 4000.0 4000.0 4000.0 4000.0 4000.0 4000.0 4000.0 4000.0 4000.0 4000.0 4000.0 4000.0 4000.0 4000.0 4000.0 4000.0 4000.0 4000.0 4000.0 4000.0 4000.0 4000.0 4000.0 4000.0 4000.0 4000.0 4000.0 4000.0 4000.0 4000.0 4000.0 4000.0 4000.0 4000.0 4000.0 4000.0 4000.0 4000.0 4000.0 4000.0 4000.0 4000.0 4000.0 4000.0 4000.0 4000.0 4000.0 4000.0 4000.0 4000.0 4000.0 4000.0 4000.0 4000.0 4000.0 4000.0 4000.0 4000.0 4000.0 4000.0 4000.0 4000.0 4000.0 4000.0 4000.0 4000.0 4000.0 4000.0 4000.0 4000.0 4000.0 4000.0 4000.0 4000.0 4000.0 4000.0 4000.0 4000.0 4000.0 4000.0 4000.0 4000.0 4000.0 4000.0 4000.0 4000.0 4000.0 4000.0 4000.0 4000.0 4000.0 4000.0 4000.0 4000.0 4000.0 4000.0 4000.0 4000.0 4000.0 4000.0 4000.0 4000.0 4000.0 4000.0 4000.0 4000.0 4000.0 4000.0 4000.0 4000.0 4000.0 4000.0 4000.0 4000.0 4000.0 4000.0 4000.0 4000.0 4000.0 4000.0 4000.0 4000.0 4000.0 4000.0 4000.0 4000.0 4000.0 4000.0 4000.0 4000.0 4000.0 4000.0 4000.0 4000.0 4000.0 4000.0 4000.0 4000.0 4000.0 4000.0 4000.0 4000.0 4000.0 4000.0 4000.0 4000.0 4000.0 4000.0 4000.0 4000.0 4000.0 4000.0 4000.0 4000.0 4000.0 4000.0 4000.0 4000.0 4000.0 4000.0 4000.0 4000.0 4000.0 4000.0 4000.0 4000.0 4000.0 4000.0 4000.0 4000.0 4000.0 4000.0 4000.0 4000.0 4000.0 4000.0 4000.0 4000.0 4000.0 4000.0 4000.0 4000.0 4000.0 4000.0 4000.0 4000.0 4000.0 4000.0 4000.0 4000.0 4000.0 4000.0 4000.0 4000.0 4000.0 4000.0 4000.0 4000.0 4000.0 4000.0 4000.0 4000.0 4000.0 4000.0 4000.0 4000.0 4000.0 4000.0 4000.0 4000.0 4000.0 4000.0 4000.0 4000.0 4000.0 4000.0 4000.0 4000.0 4000.0 4000.0 4000.0 4000.0 4000.0 4000.0 4000.0 4000.0 4000.0 4000.0 4000.0 4000.0 4000.0 4000.0 4000.0 4000.0 4000.0 4000.0 4000.0 4000.0 4000.0 4000.0 4000.0 4000.0 4000.0 4000.0 4000.0 4000.0 4000.0 4000.0 4000.0 4000.0 4000.0 4000.0 4000.0 4000.0 4000.0 4000.0 4000.0 4000.0 4000.0 4000.0 4000.0 4000.0 4000.0 4000.0 4000.0 4000.0 4000.0 4000.0 4000.0 4000.0 4000.0 4000.0 4000.0 4000.0 4000.0 4000.0 4000.0 4000.0 4000.0 4000.0 4000.0 4000.0 4000.0 4000.0 4000.0 4000.0 4000.0 4000.0 4000.0 4000.0 4000.0 4000.0 4000.0 4000.0 4000.0 4000.0 4000.0 4000.0 4000.0 4000.0 4000.0 4000.0 4000.0 4000.0 4000.0 4000.0 4000.0 4000.0 4000.0 4000.0 4000.0 4000.0 4000.0 4000.0 4000.0 4000.0 4000.0 4000.0 4000.0 4000.0 4000.0 4000.0 4000.0 4000.0 4000.0 4000.0 4000.0 4000.0 4000.0 4000.0 4000.0 4000.0 4000.0 4000.0 4000.0 4000.0 4000.0 4000.0 4000.0 4000.0 4000.0 4000.0 4000.0 4000.0 4000.0 4000.0 4000.0 4000.0 4000.0 4000.0 4000.0 4000.0 4000.0 4000.0 4000.0 4000.0 4000.0 4000.0 4000.0 4000.0 4000.0 4000.0 4000.0 4000.0 4000.0 4000.0 4000.0 4000.0 4000.0 4000.0 4000.0 4000.0 4000.0 4000.0 4000.0 4000.0 4000.0 4000.0 4000.0 4000.0 4000.0 4000.0 4000.0 4000.0 4000.0 4000.0 4000.0 4000.0 4000.0 4000.0 4000.0 4000.0 4000.0 4000.0 4000.0 4000.0 4000.0 4000.0 4000.0 4000.0 4000.0 4000.0 4000.0 4000.0 4000.0 4000.0 4000.0 4000.0 4000.0 4000.0 4000.0 4000.0 4000.0 4000.0 4000.0 4000.0 4000.0 4000.0 4000.0 4000.0 4000.0 4000.0 4000.0 4000.0 4000.0 4000.0 4000.0 4000.0 4000.0 4000.0 4000.0 4000.0 4000.0 4000.0 4000.0 4000.0 4000.0 4000.0 4000.0 4000.0 4000.0 4000.0 4000.0 4000.0 4000.0 4000.0 4000.0 4000.0 4000.0 4000.0 4000.0 4000.0 4000.0 4000.0 4000.0 4000.0 4000.0 4000.0 4000.0 4000.0 4000.0 4000.0 4000.0 4000.0 4000.0 4000.0 4000.0 4000.0 4000.0 4000.0 4000.0 4000.0 4000.0 4000.0 4000.0 4000.0 4000.0 4000.0 4000.0 4000.0 4000.0 4000.0 4000.0 4000.0 4000.0 4000.0 4000.0 4000.0 4000.0 4000.0 4000.0 4000.0 4000.0 4000.0 4000.0 4000.0 4000.0 4000.0 4000.0 4000.0 4000.0 4000.0 4000.0 4000.0 4000.0 4000.0 4000.0 4000.0 4000.0 4000.0 4000.0 4000.0 4000.0 4000.0 4000.0 4000.0 4000.0 4000.0 4000.0 4000.0 4000.0 4000.0 4000.0 4000.0 4000.0 4000.0 4000.0 4000.0 4000.0 4000.0 4000.0 4000.0 4000.0 4000.0 4000.0 4000.0 4000.0 4000.0 4000.0 4000.0 4000.0 4000.0 4000.0 4000.0 4000.0 4000.0 4000.0 4000.0 4000.0 4000.0 4000.0 4000.0 4000.0 4000.0 4000.0 4000.0 4000.0 4000.0 4000.0 4000.0 4000.0 4000.0 4000.0 4000.0 4000.0 4000.0 4000.0 4000.0 4000.0 4000.0 4000.0 4000.0 4000.0 4000.0 4000.0 4000.0 4000.0 4000.0 4000.0 4000.0 4000.0 4000.0 4000.0 4000.0 4000.0 4000.0 4000.0 4000.0 4000.0 4000.0 4000.0 4000.0 4000.0 4000.0 4000.0 4000.0 4000.0 4000.0 4000.0 4000.0 4000.0 4000.0 4000.0 4000.0 4000.0 4000.0 4000.0 4000.0 4000.0 4000.0 4000.0 4000.0 4000.0 4000.0 4000.0 4000.0 4000.0 4000.0 4000.0 4000.0 4000.0 4000.0 4000.0 4000.0 4000.0 4000.0 4000.0 4000.0 4000.0 4000.0 4000.0 4000.0 4000.0 4000.0 4000.0 4000.0 4000.0 4000.0 4000.0 4000.0 4000.0 4000.0 4000.0 4000.0 4000.0 4000.0 4000.0 4000.0 4000.0 4000.0 4000.0 4000.0 4000.0 4000.0 4000.0 4000.0 4000.0 4000.0 4000.0 4000.0 4000.0 4000.0 4000.0 4000.0 4000.0 4000.0 4000.0 4000.0 4000.0 4000.0 4000.0 4000.0 4000.0 4000.0 4000.0 4000.0 4000.0 4000.0 4000.0 4000.0 4000.0 4000.0 4000.0 4000.0 4000.0 4000.0 4000.0 4000.0 4000.0 4000.0 4000.0 4000.0 4000.0 4000.0 4000.0 4000.0 4000.0 4000.0 4000.0 4000.0 4000.0 4000.0 4000.0 4000.0 4000.0 4000.0 4000.0 4000.0 4000.0 4000.0 4000.0 4000.0 4000.0 4000.0 4000.0 4000.0 4000.0 4000.0 4000.0 4000.0 4000.0 4000.0 4000.0 4000.0 4000.0 4000.0 4000.0 4000.0 4000.0 4000.0 4000.0 4000.0 4000.0 4000.0 4000.0 4000.0 4000.0 4000.0 4000.0 4000.0 4000.0 4000.0 4000.0 4000.0 4000.0 4000.0 4000.0 4000.0 4000.0 4000.0 4000.0 4000.0 4000.0 4000.0 4000.0 4000.0 4000.0 4000.0 4000.0 4000.0 4000.0 4000.0 4000.0 4000.0 4000.0 4000.0 4000.0 4000.0 4000.0 4000.0 4000.0 4000.0 4000.0 4000.0 4000.0 4000.0 4000.0 4000.0 4000.0 4000.0 4000.0 4000.0 4000.0 4000.0 4000.0 4000.0 4000.0 4000.0 4000.0 4000.0 4000.0 4000.0 4000.0 4000.0 4000.0 4000.0 4000.0 4000.0 4000.0 4000.0 4000.0 4000.0 4000.0 4000.0 4000.0 4000.0 4000.0 4000.0 4000.0 4000.0 4000.0 4000.0 4000.0 4000.0 4000.0 4000.0 4000.0 4000.0 4000.0 4000.0 4000.0 4000.0 4000.0 4000.0 4000.0 4000.0 4000.0 4000.0 4000.0 4000.0 4000.0 4000.0 4000.0 4000.0 4000.0 4000.0 4000.0 4000.0 4000.0 4000.0 4000.0 4000.0 4000.0 4000.0 4000.0 4000.0 4000.0 4000.0 4000.0 4000.0 4000.0 4000.0 4000.0 4000.0 4000.0 4000.0 4000.0 4000.0 4000.0 4000.0 4000.0 4000.0 4000.0 4000.0 4000.0 4000.0 4000.0 4000.0 4000.0 4000.0 4000.0 4000.0 4000.0 4000.0 4000.0 4000.0 4000.0 4000.0 4000.0 4000.0 4000.0 4000.0 4000.0 4000.0 4000.0 4000.0 4000.0 4000.0 4000.0 4000.0 4000.0 4000.0 4000.0 4000.0 4000.0 4000.0 4000.0 4000.0 4000.0 4000.0 4000.0 4000.0 4000.0 4000.0 4000.0 4000.0 4000.0 4000.0 4000.0 4000.0 4000.0 4000.0 4000.0 4000.0 4000.0 4000.0 4000.0 4000.0 4000.0 4000.0 4000.0 4000.0 4000.0 4000.0 4000.0 4000.0 4000.0 4000.0 4000.0 4000.0 4000.0 4000.0 4000.0 4000.0 4000.0 4000.0 4000.0 4000.0 4000.0 4000.0 4000.0 4000.0 4000.0 4000.0 4000.0 4000.0 4000.0 4000.0 4000.0 4000.0 4000.0 4000.0 4000.0 4000.0 4000.0 4000.0 4000.0 4000.0 4000.0 4000.0 4000.0 4000.0 4000.0 4000.0 4000.0 4000.0 4000.0 4000.0 4000.0 4000.0 4000.0 4000.0 4000.0 4000.0 4000.0 4000.0 4000.0 4000.0 4000.0 4000.0 4000.0 4000.0 4000.0 4000.0 4000.0 4000.0 4000.0 4000.0 4000.0 4000.0 4000.0 4000.0 4000.0 4000.0 4000.0 4000.0 4000.0 4000.0 4000.0 4000.0 4000.0 4000.0 4000.0 4000.0 4000.0 4000.0 4000.0 4000.0 4000.0 4000.0 4000.0 4000.0 4000.0 4000.0 4000.0 4000.0 4000.0 4000.0 4000.0 4000.0 4000.0 4000.0 4000.0 4000.0 4000.0 4000.0 4000.0 4000.0 4000.0 4000.0 4000.0 4000.0 4000.0 4000.0 4000.0 4000.0 4000.0 4000.0 4000.0 4000.0 4000.0 4000.0 4000.0 4000.0 4000.0 4000.0 4000.0 4000.0 4000.0 4000.0 4000.0 4000.0 4000.0 4000.0 4000.0 4000.0 4000.0 4000.0 4000.0 4000.0 4000.0 4000.0 4000.0 4000.0 4000.0 4000.0 4000.0 4000.0 4000.0 4000.0 4000.0 4000.0 4000.0 4000.0 4000.0 4000.0 4000.0 4000.0 4000.0 4000.0 4000.0 4000.0 4000.0 4000.0 4000.0 4000.0 4000.0 4000.0 4000.0 4000.0 4000.0 4000.0 4000.0 4000.0 4000.0 4000.0 4000.0 4000.0 4000.0 4000.0 4000.0 4000.0 4000.0 4000.0 4000.0 4000.0 4000.0 4000.0 4000.0 4000.0 4000.0 4000.0 4000.0 4000.0 4000.0 4000.0 4000.0 4000.0 4000.0 4000.0 4000.0 4000.0 4000.0 4000.0 4000.0 4000.0 4000.0 4000.0 4000.0 4000.0 4000.0 4000.0 4000.0 4000.0 4000.0 4000.0 4000.0 4000.0 4000.0 4000.0 4000.0 4000.0 4000.0 4000.0 4000.0 4000.0 4000.0 4000.0 4000.0 4000.0 4000.0 4000.0 4000.0 4000.0 4000.0 4000.0 4000.0 4000.0 4000.0 4000.0 4000.0 4000.0 4000.0 4000.0 4000.0 4000.0 4000.0 4000.0 4000.0 4000.0 4000.0 4000.0 4000.0 4000.0 4000.0 4000.0 4000.0 4000.0 4000.0 4000.0 4000.0 4000.0 4000.0 4000.0 4000.0 4000.0 4000.0 4000.0 4000.0 4000.0 4000.0 4000.0 4000.0 4000.0 4000.0 4000.0 4000.0 4000.0 4000.0 4000.0 4000.0 4000.0 4000.0 4000.0 4000.0 4000.0 4000.0 4000.0 4000.0 4000.0 4000.0 4000.0 4000.0 4000.0 4000.0 4000.0 4000.0 4000.0 4000.0 4000.0 4000.0 4000.0 4000.0 4000.0 4000.0 4000.0 4000.0 4000.0 4000.0 4000.0 4000.0 4000.0 4000.0 4000.0 4000.0 4000.0 4000.0 4000.0 4000.0 4000.0 4000.0 4000.0 4000.0 4000.0 4000.0 4000.0 4000.0 4000.0 4000.0 4000.0 4000.0 4000.0 4000.0 4000.0 4000.0 4000.0 4000.0 4000.0 4000.0 4000.0 4000.0 4000.0 4000.0 4000.0 4000.0 4000.0 4000.0 4000.0 4000.0 4000.0 4000.0 4000.0 4000.0 4000.0 4000.0 4000.0 4000.0 4000.0 4000.0 4000.0 4000.0 4000.0 4000.0 4000.0 4000.0 4000.0 4000.0 4000.0 4000.0 4000.0 4000.0 4000.0 4000.0 4000.0 4000.0 4000.0 4000.0 4000.0 4000.0 4000.0 4000.0 4000.0 4000.0 4000.0 4000.0 4000.0 4000.0 4000.0 4000.0 4000.0 4000.0 4000.0 4000.0 4000.0 4000.0 4000.0 4000.0 4000.0 4000.0 4000.0 4000.0 4000.0 4000.0 4000.0 4000.0 4000.0 4000.0 4000.0 4000.0 4000.0 4000.0 4000.0 4000.0 4000.0 4000.0 4000.0 4000.0 4000.0 4000.0 4000.0 4000.0 4000.0 4000.0 4000.0 4000.0 4000.0 4000.0 4000.0 4000.0 4000.0 4000.0 4000.0 4000.0 4000.0 4000.0 4000.0 4000.0 4000.0 4000.0 4000.0 4000.0 4000.0 4000.0 4000.0 4000.0 4000.0 4000.0 4000.0 4000.0 4000.0 4000.0 4000.0 4000.0 4000.0 4000.0 4000.0 4000.0 4000.0 4000.0 4000.0 4000.0 4000.0 4000.0 4000.0 4000.0 4000.0 4000.0 4000.0 4000.0 4000.0 4000.0 4000.0 4000.0 4000.0 4000.0 4000.0 4000.0 4000.0 4000.0 4000.0 4000.0 4000.0 4000.0 4000.0 4000.0 4000.0 4000.0 4000.0 4000.0 4000.0 4000.0 4000.0 4000.0 4000.0 4000.0 4000.0 4000.0 4000.0 4000.0 4000.0 4000.0 4000.0 4000.0 4000.0 4000.0 4000.0 4000.0 4000.0 4000.0 4000.0 4000.0 4000.0 4000.0 4000.0 4000.0 4000.0 4000.0 4000.0 4000.0 4000.0 4000.0 4000.0 4000.0 4000.0 4000.0 4000.0 4000.0 4000.0 4000.0 4000.0 4000.0 4000.0 4000.0 4000.0 4000.0 4000.0 4000.0 4000.0 4000.0 4000.0 4000.0 4000.0 4000.0 4000.0 4000.0 4000.0 4000.0 4000.0 4000.0 4000.0 4000.0 4000.0 4000.0 4000.0 4000.0 4000.0 4000.0 4000.0 4000.0 4000.0 4000.0 4000.0 4000.0 4000.0 4000.0 4000.0 4000.0 4000.0 4000.0 4000.0 4000.0 4000.0 4000.0 4000.0 4000.0 4000.0 4000.0 4000.0 4000.0 4000.0 4000.0 4000.0 4000.0 4000.0 4000.0 4000.0 4000.0 4000.0 4000.0 4000.0 4000.0 4000.0 4000.0 4000.0 4000.0 4000.0 4000.0 4000.0 4000.0 4000.0 4000.0 4000.0 4000.0 4000.0 4000.0 4000.0 4000.0 4000.0 4000.0 4000.0 4000.0 4000.0 4000.0 4000.0 4000.0 4000.0 4000.0 4000.0 4000.0 4000.0 4000.0 4000.0 4000.0 4000.0 4000.0 4000.0 4000.0 4000.0 4000.0 4000.0 4000.0 4000.0 4000.0 4000.0 4000.0 4000.0 4000.0 4000.0 4000.0 4000.0 4000.0 4000.0 4000.0 4000.0 4000.0 4000.0 4000.0 4000.0 4000.0 4000.0 4000.0 4000.0 4000.0 4000.0 4000.0 4000.0 4000.0 4000.0 4000.0 4000.0 4000.0 4000.0 4000.0 4000.0 4000.0 4000.0 4000.0 4000.0 4000.0 4000.0 4000.0 4000.0 4000.0 4000.0 4000.0 4000.0 4000.0 4000.0 4000.0 4000.0 4000.0 4000.0 4000.0 4000.0 4000.0 4000.0 4000.0 4000.0 4000.0 4000.0 4000.0 4000.0 4000.0 4000.0 4000.0 4000.0 4000.0 4000.0 4000.0 4000.0 4000.0 4000.0 4000.0 4000.0 4000.0 4000.0 4000.0 4000.0 4000.0 4000.0 4000.0 4000.0 4000.0 4000.0 4000.0 4000.0 4000.0 4000.0 4000.0 4000.0 4000.0 4000.0 4000.0 4000.0 4000.0 4000.0 4000.0 4000.0 4000.0 4000.0 4000.0 4000.0 4000.0 4000.0 4000.0 4000.0 4000.0 4000.0 4000.0 4000.0 4000.0 4000.0 4000.0 4000.0 4000.0 4000.0 4000.0 4000.0 4000.0 4000.0 4000.0 4000.0 4000.0 4000.0 4000.0 4000.0 4000.0 4000.0 4000.0 4000.0 4000.0 4000.0 4000.0 4000.0 4000.0 4000.0 4000.0 4000.0 4000.0 4000.0 4000.0 4000.0 4000.0 4000.0 4000.0 4000.0 4000.0 4000.0 4000.0 4000.0 4000.0 4000.0 4000.0 4000.0 4000.0 4000.0 4000.0 4000.0 4000.0 4000.0 4000.0 4000.0 4000.0 4000.0 4000.0 4000.0 4000.0 4000.0 4000.0 4000.0 4000.0 4000.0 4000.0 4000.0 4000.0 4000.0 4000.0 4000.0 4000.0 4000.0 4000.0 4000.0 4000.0 4000.0 4000.0 4000.0 4000.0 4000.0 4000.0 4000.0 4000.0 4000.0 4000.0 4000.0 4000.0 4000.0 4000.0 4000.0 4000.0 4000.0 4000.0 4000.0 4000.0 4000.0 4000.0 4000.0 4000.0 4000.0 4000.0 4000.0 4000.0 4000.0 4000.0 4000.0 4000.0 4000.0 4000.0 4000.0 4000.0 4000.0 4000.0 4000.0 4000.0 4000.0 4000.0 4000.0 4000.0 4000.0 4000.0 4000.0 4000.0 4000.0 4000.0 4000.0 4000.0 4000.0 4000.0 4000.0 4000.0 4000.0 4000.0 4000.0 4000.0 4000.0 4000.0 4000.0 4000.0 4000.0 4000.0 4000.0 4000.0 4000.0 4000.0 4000.0 4000.0 4000.0 4000.0 4000.0 4000.0 4000.0 4000.0 4000.0 4000.0 4000.0 4000.0 4000.0 4000.0 4000.0 4000.0 4000.0 4000.0 4000.0 4000.0 4000.0 4000.0 4000.0 4000.0 4000.0 4000.0 4000.0 4000.0 4000.0 4000.0 4000.0 4000.0 4000.0 4000.0 4000.0 4000.0 4000.0 4000.0 4000.0 4000.0 4000.0 4000.0 4000.0 4000.0 4000.0 4000.0 4000.0 4000.0 4000.0 4000.0 4000.0 4000.0 4000.0 4000.0 4000.0 4000.0 4000.0 4000.0 4000.0 4000.0 4000.0 4000.0 4000.0 4000.0 4000.0 4000.0 4000.0 4000.0 4000.0 4000.0 4000.0 4000.0 4000.0 4000.0 4000.0 4000.0 4000.0 4000.0 4000.0 4000.0 4000.0 4000.0 4000.0 4000.0 4000.0 4000.0 4000.0 4000.0 4000.0 4000.0 4000.0 4000.0 4000.0 4000.0 4000.0 4000.0 4000.0 4000.0 4000.0 4000.0 4000.0 4000.0 4000.0 4000.0 4000.0 4000.0 4000.0 4000.0 4000.0 4000.0 4000.0 4000.0 4000.0 4000.0 4000.0 4000.0 4000.0 4000.0 4000.0 4000.0 4000.0 4000.0 4000.0 4000.0 4000.0 4000.0 4000.0 4000.0 4000.0 4000.0 4000.0 4000.0 4000.0 4000.0 4000.0 4000.0 4000.0 4000.0 4000.0 4000.0 4000.0 4000.0 4000.0 4000.0 4000.0 4000.0 4000.0 4000.0 4000.0 4000.0 4000.0 4000.0 4000.0 4000.0 4000.0 4000.0 4000.0 4000.0 4000.0 4000.0 4000.0 4000.0 4000.0 4000.0 4000.0 4000.0 4000.0 4000.0 4000.0 4000.0 4000.0 4000.0 4000.0 4000.0 4000.0 4000.0 4000.0 4000.0 4000.0 4000.0 4000.0 4000.0 4000.0 4000.0 4000.0 4000.0 4000.0 4000.0 4000.0 4000.0 4000.0 4000.0 4000.0 4000.0 4000.0 4000.0 4000.0 4000.0 4000.0 4000.0 4000.0 4000.0 4000.0 4000.0 4000.0 4000.0 4000.0 4000.0 4000.0 4000.0 4000.0 4000.0 4000.0 4000.0 4000.0 4000.0 4000.0 4000.0 4000.0 4000.0 4000.0 4000.0 4000.0 4000.0 4000.0 4000.0 4000.0 4000.0 4000.0 4000.0 4000.0 4000.0 4000.0 4000.0 4000.0 4000.0 4000.0 4000.0 4000.0 4000.0 4000.0 4000.0 4000.0 4000.0 4000.0 4000.0 4000.0 4000.0 4000.0 4000.0 4000.0 4000.0 4000.0 4000.0 4000.0 4000.0 4000.0 4000.0 4000.0 4000.0 4000.0 4000.0 4000.0 4000.0 4000.0 4000.0 4000.0 4000.0 4000.0 4000.0 4000.0 4000.0 4000.0 4000.0 4000.0 4000.0 4000.0 4000.0 4000.0 4000.0 4000.0 4000.0 4000.0 4000.0 4000.0 4000.0 4000.0 4000.0 4000.0 4000.0 4000.0 4000.0 4000.0 4000.0 4000.0 4000.0 4000.0 4000.0 4000.0 4000.0 4000.0 4000.0 4000.0 4000.0 4000.0 4000.0 4000.0 4000.0 4000.0 4000.0 4000.0 4000.0 4000.0 4000.0 4000.0 4000.0 4000.0 4000.0 4000.0 4000.0 4000.0 4000.0 4000.0 4000.0 4000.0 4000.0 4000.0 4000.0 4000.0 4000.0 4000.0 4000.0 4000.0 4000.0 4000.0 4000.0 4000.0 4000.0 4000.0 4000.0 4000.0 4000.0 4000.0 4000.0 4000.0 4000.0 4000.0 4000.0 4000.0 4000.0 4000.0 4000.0 4000.0 4000.0 4000.0 4000.0 4000.0 4000.0 4000.0 4000.0 4000.0 4000.0 4000.0 4000.0 4000.0 4000.0 4000.0 4000.0 4000.0 4000.0 4000.0 4000.0 4000.0 4000.0 4000.0 4000.0 4000.0 4000.0 4000.0 4000.0 4000.0 4000.0 4000.0 4000.0 4000.0 4000.0 4000.0 4000.0 4000.0 4000.0 4000.0 4000.0 4000.0 4000.0 4000.0 4000.0 4000.0 4000.0 4000.0 4000.0 4000.0 4000.0 4000.0 4000.0 4000.0 4000.0 4000.0 4000.0 4000.0 4000.0 4000.0 4000.0 4000.0 4000.0 4000.0 4000.0 4000.0 4000.0 4000.0 4000.0 4000.0 4000.0 4000.0 4000.0 4000.0 4000.0 4000.0 4000.0 4000.0 4000.0 4000.0 4000.0 4000.0 4000.0 4000.0 4000.0 4000.0 4000.0 4000.0 4000.0 4000.0 4000.0 4000.0 4000.0 4000.0 4000.0 4000.0 4000.0 4000.0 4000.0 4000.0 4000.0 4000.0 4000.0 4000.0 4000.0 4000.0 4000.0 4000.0 4000.0 4000.0 4000.0 4000.0 4000.0 4000.0 4000.0 4000.0 4000.0 4000.0 4000.0 4000.0 4000.0 4000.0 4000.0 4000.0 4000.0 4000.0 4000.0 4000.0 4000.0 4000.0 4000.0 4000.0 4000.0 4000.0 4000.0 4000.0 4000.0 4000.0 4000.0 4000.0 4000.0 4000.0 4000.0 4000.0 4000.0 4000.0 4000.0 4000.0 4000.0 4000.0 4000.0 4000.0 4000.0 4000.0 4000.0 4000.0 4000.0 4000.0 4000.0 4000.0 4000.0 4000.0 4000.0 4000.0 4000.0 4000.0 4000.0 4000.0 4000.0 4000.0 4000.0 4000.0 4000.0 4000.0 4000.0 4000.0 4000.0 4000.0 4000.0 4000.0 4000.0 4000.0 4000.0 4000.0 4000.0 4000.0 4000.0 4000.0 4000.0 4000.0 4000.0 4000.0 4000.0 4000.0 4000.0 4000.0 4000.0 4000.0 4000.0 4000.0 4000.0 4000.0 4000.0 4000.0 4000.0 4000.0 4000.0 4000.0 4000.0 4000.0 4000.0 4000.0 4000.0 4000.0 4000.0 4000.0 4000.0 4000.0 4000.0 4000.0 4000.0 4000.0 4000.0 4000.0 4000.0 4000.0 4000.0 4000.0 4000.0 4000.0 4000.0 4000.0 4000.0 4000.0 4000.0 4000.0 4000.0 4000.0 4000.0 4000.0 4000.0 4000.0 4000.0 4000.0 4000.0 4000.0 4000.0 4000.0 4000.0 4000.0 4000.0 4000.0 4000.0 4000.0 4000.0 4000.0 4000.0 4000.0 4000.0 4000.0 4000.0 4000.0 4000.0 4000.0 4000.0 4000.0 4000.0 4000.0 4000.0 4000.0 4000.0 4000.0 4000.0 4000.0 4000.0 4000.0 4000.0 4000.0 4000.0 4000.0 4000.0 4000.0 4000.0 4000.0 4000.0 4000.0 4000.0 4000.0 4000.0 4000.0 4000.0 4000.0 4000.0 4000.0 4000.0 4000.0 4000.0 4000.0 4000.0 4000.0 4000.0 4000.0 4000.0 4000.0 4000.0 4000.0 4000.0 4000.0 4000.0 4000.0 4000.0 4000.0 4000.0 4000.0 4000.0 4000.0 4000.0 4000.0 4000.0 4000.0 4000.0 4000.0 4000.0 4000.0 4000.0 4000.0 4000.0 4000.0 4000.0 4000.0 4000.0 4000.0 4000.0 4000.0 4000.0 4000.0 4000.0 4000.0 4000.0 4000.0 4000.0 4000.0 4000.0 4000.0 4000.0 4000.0 4000.0 4000.0 4000.0 4000.0 4000.0 4000.0 4000.0 4000.0 4000.0 4000.0 4000.0 4000.0 4000.0 4000.0 4000.0 4000.0 4000.0 4000.0 4000.0 4000.0 4000.0 4000.0 4000.0 4000.0 4000.0 4000.0 4000.0 4000.0 4000.0 4000.0 4000.0 4000.0 4000.0 4000.0 4000.0 4000.0 4000.0 4000.0 4000.0 4000.0 4000.0 4000.0 4000.0 4000.0 4000.0 4000.0 4000.0 4000.0 4000.0 4000.0 4000.0 4000.0 4000.0 4000.0 4000.0 4000.0 4000.0 4000.0 4000.0 4000.0 4000.0 4000.0 4000.0 4000.0 4000.0 4000.0 4000.0 4000.0 4000.0 4000.0 4000.0 4000.0 4000.0 4000.0 4000.0 4000.0 4000.0 4000.0 4000.0 4000.0 4000.0 4000.0 4000.0 4000.0 4000.0 4000.0 4000.0 4000.0 4000.0 4000.0 4000.0 4000.0 4000.0 4000.0 4000.0 4000.0 4000.0 4000.0 4000.0 4000.0 4000.0 4000.0 4000.0 4000.0 4000.0 4000.0 4000.0 4000.0 4000.0 4000.0 4000.0 4000.0 4000.0 4000.0 4000.0 4000.0 4000.0 4000.0 4000.0 4000.0 4000.0 4000.0 4000.0 4000.0 4000.0 4000.0 4000.0 4000.0 4000.0 4000.0 4000.0 4000.0 4000.0 4000.0 4000.0 4000.0 4000.0 4000.0 4000.0 4000.0 4000.0 4000.0 4000.0 4000.0 4000.0 4000.0 4000.0 4000.0 4000.0 4000.0 4000.0 4000.0 4000.0 4000.0 4000.0 4000.0 4000.0 4000.0 4000.0 4000.0 4000.0 4000.0 4000.0 4000.0 4000.0 4000.0 4000.0 4000.0 4000.0 4000.0 4000.0 4000.0 4000.0 4000.0 4000.0 4000.0 4000.0 4000.0 4000.0 4000.0 4000.0 4000.0 4000.0 4000.0 4000.0 4000.0 4000.0 4000.0 4000.0 4000.0 4000.0 4000.0 4000.0 4000.0 4000.0 4000.0 4000.0 4000.0 4000.0 4000.0 4000.0 4000.0 4000.0 4000.0 4000.0 4000.0 4000.0 4000.0 4000.0 4000.0 4000.0 4000.0 4000.0 4000.0 4000.0 4000.0 4000.0 4000.0 4000.0 4000.0 4000.0 4000.0 4000.0 4000.0 4000.0 4000.0 4000.0 4000.0 4000.0 4000.0 4000.0 4000.0 4000.0 4000.0 4000.0 4000.0 4000.0 4000.0 4000.0 4000.0 4000.0 4000.0 4000.0 4000.0 4000.0 4000.0 4000.0 4000.0 4000.0 4000.0 4000.0 4000.0 4000.0 4000.0 4000.0 4000.0 4000.0 4000.0 4000.0 4000.0 4000.0 4000.0 4000.0 4000.0 4000.0 4000.0 4000.0 4000.0 4000.0 4000.0 4000.0 4000.0 4000.0 4000.0 4000.0 4000.0 4000.0 4000.0 4000.0 4000.0 4000.0 4000.0 4000.0 4000.0 4000.0 4000.0 4000.0 4000.0 4000.0 4000.0 4000.0 4000.0 4000.0 4000.0 4000.0 4000.0 4000.0 4000.0 4000.0 4000.0 4000.0 4000.0 4000.0 4000.0 4000.0 4000.0 4000.0 4000.0 4000.0 4000.0 4000.0 4000.0 4000.0 4000.0 4000.0 4000.0 4000.0 4000.0 4000.0 4000.0 4000.0 4000.0 4000.0 4000.0 4000.0 4000.0 4000.0 4000.0 4000.0 4000.0 4000.0 4000.0 4000.0 4000.0 4000.0 4000.0 4000.0 4000.0 4000.0 4000.0 4000.0 4000.0 4000.0 4000.0 4000.0 4000.0 4000.0 4000.0 4000.0 4000.0 4000.0 4000.0 4000.0 4000.0 4000.0 4000.0 4000.0 4000.0 4000.0 4000.0 4000.0 4000.0 4000.0 4000.0 4000.0 4000.0 4000.0 4000.0 4000.0 4000.0 4000.0 4000.0 4000.0 4000.0 4000.0 4000.0 4000.0 4000.0 4000.0 4000.0 4000.0 4000.0 4000.0 4000.0 4000.0 4000.0 4000.0 4000.0 4000.0 4000.0 4000.0 4000.0 4000.0 4000.0 4000.0 4000.0 4000.0 4000.0 4000.0 4000.0 4000.0 4000.0 4000.0 4000.0 4000.0 4000.0 4000.0 4000.0 4000.0 4000.0 4000.0 4000.0 4000.0 4000.0 4000.0 4000.0 4000.0 4000.0 4000.0 4000.0 4000.0 4000.0 4000.0 4000.0 4000.0 4000.0 4000.0 4000.0 4000.0 4000.0 4000.0 4000.0 4000.0 4000.0 4000.0 4000.0 4000.0 4000.0 4000.0 4000.0 4000.0 4000.0 4000.0 4000.0 4000.0 4000.0 4000.0 4000.0 4000.0 4000.0 4000.0 4000.0 4000.0 4000.0 4000.0 4000.0 4000.0 4000.0 4000.0 4000.0 4000.0 4000.0 4000.0 4000.0 4000.0 4000.0 4000.0 4000.0 4000.0 4000.0 4000.0 4000.0 4000.0 4000.0 4000.0 4000.0 4000.0 4000.0 4000.0 4000.0 4000.0 4000.0 4000.0 4000.0 4000.0 4000.0 4000.0 4000.0 4000.0 4000.0 4000.0 4000.0 4000.0 4000.0 4000.0 4000.0 4000.0 4000.0 4000.0 4000.0 4000.0 4000.0 4000.0 4000.0 4000.0 4000.0 4000.0 4000.0 4000.0 4000.0 4000.0 4000.0 4000.0 4000.0 4000.0 4000.0 4000.0 4000.0 4000.0 4000.0 4000.0 4000.0 4000.0 4000.0 4000.0 4000.0 4000.0 4000.0 4000.0 4000.0 4000.0 4000.0 4000.0 4000.0 4000.0 4000.0 4000.0 4000.0 4000.0 4000.0 4000.0 4000.0 4000.0 4000.0 4000.0 4000.0 4000.0 4000.0 4000.0 4000.0 4000.0 4000.0 4000.0 4000.0 4000.0 4000.0 4000.0 4000.0 4000.0 4000.0 4000.0 4000.0 4000.0 4000.0 4000.0 4000.0 4000.0 4000.0 4000.0 4000.0 4000.0 4000.0 4000.0 4000.0 4000.0 4000.0 4000.0 4000.0 4000.0 4000.0 4000.0 4000.0 4000.0 4000.0 4000.0 4000.0 4000.0 4000.0 4000.0 4000.0 4000.0 4000.0 4000.0 4000.0 4000.0 4000.0 4000.0 4000.0 4000.0 4000.0 4000.0 4000.0 4000.0 4000.0 4000.0 4000.0 4000.0 4000.0 4000.0 4000.0 4000.0 4000.0 4000.0 4000.0 4000.0 4000.0 4000.0 4000.0 4000.0 4000.0 4000.0 4000.0 4000.0 4000.0 4000.0 4000.0 4000.0 4000.0 4000.0 4000.0 4000.0 4000.0 4000.0 4000.0 4000.0 4000.0 4000.0 4000.0 4000.0 4000.0 4000.0 4000.0 4000.0 4000.0 4000.0 4000.0 4000.0 4000.0 4000.0 4000.0 4000.0 4000.0 4000.0 4000.0 4000.0 4000.0 4000.0 4000.0 4000.0 4000.0 4000.0 4000.0 4000.0 4000.0 4000.0 4000.0 4000.0 4000.0 4000.0 4000.0 4000.0 4000.0 4000.0 4000.0 4000.0 4000.0 4000.0 4000.0 4000.0 4000.0 4000.0 4000.0 4000.0 4000.0 4000.0 4000.0 4000.0 4000.0 4000.0 4000.0 4000.0 4000.0 4000.0 4000.0 4000.0 4000.0 4000.0 4000.0 4000.0 4000.0 4000.0 4000.0 4000.0 4000.0 4000.0 4000.0 4000.0 4000.0 4000.0 4000.0 4000.0 4000.0 4000.0 4000.0 4000.0 4000.0 4000.0 4000.0 4000.0 4000.0 4000.0 4000.0 4000.0 4000.0 4000.0 4000.0 4000.0 4000.0 4000.0 4000.0 4000.0 4000.0 4000.0 4000.0 4000.0 4000.0 4000.0 4000.0 4000.0 4000.0 4000.0 4000.0 4000.0 4000.0 4000.0 4000.0 4000.0 4000.0 4000.0 4000.0 4000.0 4000.0 4000.0 4000.0 4000.0 4000.0 4000.0 4000.0 4000.0 4000.0 4000.0 4000.0 4000.0 4000.0 4000.0 4000.0 4000.0 4000.0 4000.0 4000.0 4000.0 4000.0 4000.0 4000.0 4000.0 4000.0 4000.0 4000.0 4000.0 4000.0 4000.0 4000.0 4000.0 4000.0 4000.0 4000.0 4000.0 4000.0 4000.0 4000.0 4000.0 4000.0 4000.0 4000.0 4000.0 4000.0 4000.0 4000.0 4000.0 4000.0 4000.0 4000.0 4000.0 4000.0 4000.0 4000.0 4000.0 4000.0 4000.0 4000.0 4000.0 4000.0 4000.0 4000.0 4000.0 4000.0 4000.0 4000.0 4000.0 4000.0 4000.0 4000.0 4000.0 4000.0 4000.0 4000.0 4000.0 4000.0 4000.0 4000.0 4000.0 4000.0 4000.0 4000.0 4000.0 4000.0 4000.0 4000.0 4000.0 4000.0 4000.0 4000.0 4000.0 4000.0 4000.0 4000.0 4000.0 4000.0 4000.0 4000.0 4000.0 4000.0 4000.0 4000.0 4000.0 4000.0 4000.0 4000.0 4000.0 4000.0 4000.0 4000.0 4000.0 4000.0 4000.0 4000.0 4000.0 4000.0 4000.0 4000.0 4000.0 4000.0 4000.0 4000.0 4000.0 4000.0 4000.0 4000.0 4000.0 4000.0 4000.0 4000.0 4000.0 4000.0 4000.0 4000.0 4000.0 4000.0 4000.0 4000.0 4000.0 4000.0 4000.0 4000.0 4000.0 4000.0 4000.0 4000.0 4000.0 4000.0 4000.0 4000.0 4000.0 4000.0 4000.0 4000.0 4000.0 4000.0 4000.0 4000.0 4000.0 4000.0 4000.0 4000.0 4000.0 4000.0 4000.0 4000.0 4000.0 4000.0 4000.0 4000.0 4000.0 4000.0 4000.0 4000.0 4000.0 4000.0 4000.0 4000.0 4000.0 4000.0 4000.0 4000.0 4000.0 4000.0 4000.0 4000.0 4000.0 4000.0 4000.0 4000.0 4000.0 4000.0 4000.0 4000.0 4000.0 4000.0 4000.0 4000.0 4000.0 4000.0 4000.0 4000.0 4000.0 4000.0 4000.0 4000.0 4000.0 4000.0 4000.0 4000.0 4000.0 4000.0 4000.0 4000.0 4000.0 4000.0 4000.0 4000.0 4000.0 4000.0 4000.0 4000.0 4000.0 4000.0 4000.0 4000.0 4000.0 4000.0 4000.0 4000.0 4000.0 4000.0 4000.0 4000.0 4000.0 4000.0 4000.0 4000.0 4000.0 4000.0 4000.0 4000.0 4000.0 4000.0 4000.0 4000.0 4000.0 4000.0 4000.0 4000.0 4000.0 4000.0 4000.0 4000.0 4000.0 4000.0 4000.0 4000.0 4000.0 4000.0 4000.0 4000.0 4000.0 4000.0 4000.0 4000.0 4000.0 4000.0 4000.0 4000.0 4000.0 4000.0 4000.0 4000.0 4000.0 4000.0 4000.0 4000.0 4000.0 4000.0 4000.0 4000.0 4000.0 4000.0 4000.0 4000.0 4000.0 4000.0 4000.0 4000.0 4000.0 4000.0 4000.0 4000.0 4000.0 4000.0 4000.0 4000.0 4000.0 4000.0 4000.0 4000.0 4000.0 4000.0 4000.0 4000.0 4000.0 4000.0 4000.0 4000.0 4000.0 4000.0 4000.0 4000.0 4000.0 4000.0 4000.0 4000.0 4000.0 4000.0 4000.0 4000.0 4000.0 4000.0 4000.0 4000.0 4000.0 4000.0 4000.0 4000.0 4000.0 4000.0 4000.0 4000.0 4000.0 4000.0 4000.0 4000.0 4000.0 4000.0 4000.0 4000.0 4000.0 4000.0 4000.0 4000.0 4000.0 4000.0 4000.0 4000.0 4000.0 4000.0 4000.0 4000.0 4000.0 4000.0 4000.0 4000.0 4000.0 4000.0 4000.0 4000.0 4000.0 4000.0 4000.0 4000.0 4000.0 4000.0 4000.0 4000.0 4000.0 4000.0 4000.0 4000.0 4000.0 4000.0 4000.0 4000.0 4000.0 4000.0 4000.0 4000.0 4000.0 4000.0 4000.0 4000.0 4000.0 4000.0 4000.0 4000.0 4000.0 4000.0 4000.0 4000.0 4000.0 4000.0 4000.0 4000.0 4000.0 4000.0 4000.0 4000.0 4000.0 4000.0 4000.0 4000.0 4000.0 4000.0 4000.0 4000.0 4000.0 4000.0 4000.0 4000.0 4000.0 4000.0 4000.0 4000.0 4000.0 4000.0 4000.0 4000.0 4000.0 4000.0 4000.0 4000.0 4000.0 4000.0 4000.0 4000.0 4000.0 4000.0 4000.0 4000.0 4000.0 4000.0 4000.0 4000.0 4000.0 4000.0 4000.0 4000.0 4000.0 4000.0 4000.0 4000.0 4000.0 4000.0 4000.0 4000.0 4000.0 4000.0 4000.0 4000.0 4000.0 4000.0 4000.0 4000.0 4000.0 4000.0 4000.0 4000.0 4000.0 4000.0 4000.0 4000.0 4000.0 4000.0 4000.0 4000.0 4000.0 4000.0 4000.0 4000.0 4000.0 4000.0 4000.0 4000.0 4000.0 4000.0 4000.0 4000.0 4000.0 4000.0 4000.0 4000.0 4000.0 4000.0 4000.0 4000.0 4000.0 4000.0 4000.0 4000.0 4000.0 4000.0 4000.0 4000.0 4000.0 4000.0 4000.0 4000.0 4000.0 4000.0 4000.0 4000.0 4000.0 4000.0 4000.0 4000.0 4000.0 4000.0 4000.0 4000.0 4000.0 4000.0 4000.0 4000.0 4000.0 4000.0 4000.0 4000.0 4000.0 4000.0 4000.0 4000.0 4000.0 4000.0 4000.0 4000.0 4000.0 4000.0 4000.0 4000.0 4000.0 4000.0 4000.0 4000.0 4000.0 4000.0 4000.0 4000.0 4000.0 4000.0 4000.0 4000.0 4000.0 4000.0 4000.0 4000.0 4000.0 4000.0 4000.0 4000.0 4000.0 4000.0 4000.0 4000.0 4000.0 4000.0 4000.0 4000.0 4000.0 4000.0 4000.0 4000.0 4000.0 4000.0 4000.0 4000.0 4000.0 4000.0 4000.0 4000.0 4000.0 4000.0 4000.0 4000.0 4000.0 4000.0 4000.0 4000.0 4000.0 4000.0 4000.0 4000.0 4000.0 4000.0 4000.0 4000.0 4000.0 4000.0 4000.0 4000.0 4000.0 4000.0 4000.0 4000.0 4000.0 4000.0 4000.0 4000.0 4000.0 4000.0 4000.0 4000.0 4000.0 4000.0 4000.0 4000.0 4000.0 4000.0 4000.0 4000.0 4000.0 4000.0 4000.0 4000.0 4000.0 4000.0 4000.0 4000.0 4000.0 4000.0 4000.0 4000.0 4000.0 4000.0 4000.0 4000.0 4000.0 4000.0 4000.0 4000.0 4000.0 4000.0 4000.0 4000.0 4000.0 4000.0 4000.0 4000.0 4000.0 4000.0 4000.0 4000.0 4000.0 4000.0 4000.0 4000.0 4000.0 4000.0 4000.0 4000.0 4000.0 4000.0 4000.0 4000.0 4000.0 4000.0 4000.0 4000.0 4000.0 4000.0 4000.0 4000.0 4000.0 4000.0 4000.0 4000.0 4000.0 4000.0 4000.0 4000.0 4000.0 4000.0 4000.0 4000.0 4000.0 4000.0 4000.0 4000.0 4000.0 4000.0 4000.0 4000.0 4000.0 4000.0 4000.0 4000.0 4000.0 4000.0 4000.0 4000.0 4000.0 4000.0 4000.0 4000.0 4000.0 4000.0 4000.0 4000.0 4000.0 4000.0 4000.0 4000.0 4000.0 4000.0 4000.0 4000.0 4000.0 4000.0 4000.0 4000.0 4000.0 4000.0 4000.0 4000.0 4000.0 4000.0 4000.0 4000.0 4000.0 4000.0 4000.0 4000.0 4000.0 4000.0 4000.0 4000.0 4000.0 4000.0 4000.0 4000.0 4000.0 4000.0 4000.0 4000.0 4000.0 4000.0 4000.0 4000.0 4000.0 4000.0 4000.0 4000.0 4000.0 4000.0 4000.0 4000.0 4000.0 4000.0 4000.0 4000.0 4000.0 4000.0 4000.0 4000.0 4000.0 4000.0 4000.0 4000.0 4000.0 4000.0 4000.0 4000.0 4000.0 4000.0 4000.0 4000.0 4000.0 4000.0 4000.0 4000.0 4000.0 4000.0 4000.0 4000.0 4000.0 4000.0 4000.0 4000.0 4000.0 4000.0 4000.0 4000.0 4000.0 4000.0 4000.0 4000.0 4000.0 4000.0 4000.0 4000.0 4000.0 4000.0 4000.0 4000.0 4000.0 4000.0 4000.0 4000.0 4000.0 4000.0 4000.0 4000.0 4000.0 4000.0 4000.0 4000.0 4000.0 4000.0 4000.0 4000.0 4000.0 4000.0 4000.0 4000.0 4000.0 4000.0 4000.0 4000.0 4000.0 4000.0 4000.0 4000.0 4000.0 4000.0 4000.0 4000.0 4000.0 4000.0 4000.0 4000.0 4000.0 4000.0 4000.0 4000.0 4000.0 4000.0 4000.0 4000.0 4000.0 4000.0 4000.0 4000.0 4000.0 4000.0 4000.0 4000.0 4000.0 4000.0 4000.0 4000.0 4000.0 4000.0 4000.0 4000.0 4000.0 4000.0 4000.0 4000.0 4000.0 4000.0 4000.0 4000.0 4000.0 4000.0 4000.0 4000.0 4000.0 4000.0 4000.0 4000.0 4000.0 4000.0 4000.0 4000.0 4000.0 4000.0 4000.0 4000.0 4000.0 4000.0 4000.0 4000.0 4000.0 4000.0 4000.0 4000.0 4000.0 4000.0 4000.0 4000.0 4000.0 4000.0 4000.0 4000.0 4000.0 4000.0 4000.0 4000.0 4000.0 4000.0 4000.0 4000.0 4000.0 4000.0 4000.0 4000.0 4000.0 4000.0 4000.0 4000.0 4000.0 4000.0 4000.0 4000.0 4000.0 4000.0 4000.0 4000.0 4000.0 4000.0 4000.0 4000.0 4000.0 4000.0 4000.0 4000.0 4000.0 4000.0 4000.0 4000.0 4000.0 4000.0 4000.0 4000.0 4000.0 4000.0 4000.0 4000.0 4000.0 4000.0 4000.0 4000.0 4000.0 4000.0 4000.0 4000.0 4000.0 4000.0 4000.0 4000.0 4000.0 4000.0 4000.0 4000.0 4000.0 4000.0 4000.0 4000.0 4000.0 4000.0 4000.0 4000.0 4000.0 4000.0 4000.0 4000.0 4000.0 4000.0 4000.0 4000.0 4000.0 4000.0 4000.0 4000.0 4000.0 4000.0 4000.0 4000.0 4000.0 4000.0 4000.0 4000.0 4000.0 4000.0 4000.0 4000.0 4000.0 4000.0 4000.0 4000.0 4000.0 4000.0 4000.0 4000.0 4000.0 4000.0 4000.0 4000.0 4000.0 4000.0 4000.0 4000.0 4000.0 4000.0 4000.0 4000.0 4000.0 4000.0 4000.0 4000.0 4000.0 4000.0 4000.0 4000.0 4000.0 4000.0 4000.0 4000.0 4000.0 4000.0 4000.0 4000.0 4000.0 4000.0 4000.0 4000.0 4000.0 4000.0 4000.0 4000.0 4000.0 4000.0 4000.0 4000.0 4000.0 4000.0 4000.0 4000.0 4000.0 4000.0 4000.0 4000.0 4000.0 4000.0 4000.0 4000.0 4000.0 4000.0 4000.0 4000.0 4000.0 4000.0 4000.0 4000.0 4000.0 4000.0 4000.0 4000.0 4000.0 4000.0 4000.0 4000.0 4000.0 4000.0 4000.0 4000.0 4000.0 4000.0 4000.0 4000.0 4000.0 4000.0 4000.0 4000.0 4000.0 4000.0 4000.0 4000.0 4000.0 4000.0 4000.0 4000.0 4000.0 4000.0 4000.0 4000.0 4000.0 4000.0 4000.0 4000.0 4000.0 4000.0 4000.0 4000.0 4000.0 4000.0 4000.0 4000.0 4000.0 4000.0 4000.0 4000.0 4000.0 4000.0 4000.0 4000.0 4000.0 4000.0 4000.0 4000.0 4000.0 4000.0 4000.0 4000.0 4000.0 4000.0 4000.0 4000.0 4000.0 4000.0 4000.0 4000.0 4000.0 4000.0 4000.0 4000.0 4000.0 4000.0 4000.0 4000.0 4000.0 SCALARS Mass float 1
LOOKUP_TABLE default
11309700000.0 11309700000.0 11309700000.0 11309700000.0 11309700000.0 11309700000.0 11309700000.0 11309700000.0 11309700000.0 11309700000.0 11309700000.0 11309700000.0 11309700000.0 11309700000.0 11309700000.0 11309700000.0 11309700000.0 11309700000.0 11309700000.0 11309700000.0 11309700000.0 11309700000.0 11309700000.0 11309700000.0 11309700000.0 11309700000.0 11309700000.0 11309700000.0 11309700000.0 11309700000.0 11309700000.0 11309700000.0 11309700000.0 11309700000.0 11309700000.0 11309700000.0 11309700000.0 11309700000.0 11309700000.0 11309700000.0 11309700000.0 11309700000.0 11309700000.0 11309700000.0 11309700000.0 11309700000.0 11309700000.0 11309700000.0 11309700000.0 11309700000.0 11309700000.0 11309700000.0 11309700000.0 11309700000.0 11309700000.0 11309700000.0 11309700000.0 11309700000.0 11309700000.0 11309700000.0 11309700000.0 11309700000.0 11309700000.0 11309700000.0 11309700000.0 11309700000.0 11309700000.0 11309700000.0 11309700000.0 11309700000.0 11309700000.0 11309700000.0 11309700000.0 11309700000.0 11309700000.0 11309700000.0 11309700000.0 11309700000.0 11309700000.0 11309700000.0 11309700000.0 11309700000.0 11309700000.0 11309700000.0 11309700000.0 11309700000.0 11309700000.0 11309700000.0 11309700000.0 11309700000.0 11309700000.0 11309700000.0 11309700000.0 11309700000.0 11309700000.0 11309700000.0 11309700000.0 11309700000.0 11309700000.0 11309700000.0 11309700000.0 11309700000.0 11309700000.0 11309700000.0 11309700000.0 11309700000.0 11309700000.0 11309700000.0 11309700000.0 11309700000.0 11309700000.0 11309700000.0 11309700000.0 11309700000.0 11309700000.0 11309700000.0 11309700000.0 11309700000.0 11309700000.0 11309700000.0 11309700000.0 11309700000.0 11309700000.0 11309700000.0 11309700000.0 11309700000.0 11309700000.0 11309700000.0 11309700000.0 11309700000.0 11309700000.0 11309700000.0 11309700000.0 11309700000.0 11309700000.0 11309700000.0 11309700000.0 11309700000.0 11309700000.0 11309700000.0 11309700000.0 11309700000.0 11309700000.0 11309700000.0 11309700000.0 11309700000.0 11309700000.0 11309700000.0 11309700000.0 11309700000.0 11309700000.0 11309700000.0 11309700000.0 11309700000.0 11309700000.0 11309700000.0 11309700000.0 11309700000.0 11309700000.0 11309700000.0 11309700000.0 11309700000.0 11309700000.0 11309700000.0 11309700000.0 11309700000.0 11309700000.0 11309700000.0 11309700000.0 11309700000.0 11309700000.0 11309700000.0 11309700000.0 11309700000.0 11309700000.0 11309700000.0 11309700000.0 11309700000.0 11309700000.0 11309700000.0 11309700000.0 11309700000.0 11309700000.0 11309700000.0 11309700000.0 11309700000.0 11309700000.0 11309700000.0 11309700000.0 11309700000.0 11309700000.0 11309700000.0 11309700000.0 11309700000.0 11309700000.0 11309700000.0 11309700000.0 11309700000.0 11309700000.0 11309700000.0 11309700000.0 11309700000.0 11309700000.0 11309700000.0 11309700000.0 11309700000.0 11309700000.0 11309700000.0 11309700000.0 11309700000.0 11309700000.0 11309700000.0 11309700000.0 11309700000.0 11309700000.0 11309700000.0 11309700000.0 11309700000.0 11309700000.0 11309700000.0 11309700000.0 11309700000.0 11309700000.0 11309700000.0 11309700000.0 11309700000.0 11309700000.0 11309700000.0 11309700000.0 11309700000.0 11309700000.0 11309700000.0 11309700000.0 11309700000.0 11309700000.0 11309700000.0 11309700000.0 11309700000.0 11309700000.0 11309700000.0 11309700000.0 11309700000.0 11309700000.0 11309700000.0 11309700000.0 11309700000.0 11309700000.0 11309700000.0 11309700000.0 11309700000.0 11309700000.0 11309700000.0 11309700000.0 11309700000.0 11309700000.0 11309700000.0 11309700000.0 11309700000.0 11309700000.0 11309700000.0 11309700000.0 11309700000.0 11309700000.0 11309700000.0 11309700000.0 11309700000.0 11309700000.0 11309700000.0 11309700000.0 11309700000.0 11309700000.0 11309700000.0 11309700000.0 11309700000.0 11309700000.0 11309700000.0 11309700000.0 11309700000.0 11309700000.0 11309700000.0 11309700000.0 11309700000.0 11309700000.0 11309700000.0 11309700000.0 11309700000.0 11309700000.0 11309700000.0 11309700000.0 11309700000.0 11309700000.0 11309700000.0 11309700000.0 11309700000.0 11309700000.0 11309700000.0 11309700000.0 11309700000.0 11309700000.0 11309700000.0 11309700000.0 11309700000.0 11309700000.0 11309700000.0 11309700000.0 11309700000.0 11309700000.0 11309700000.0 11309700000.0 11309700000.0 11309700000.0 11309700000.0 11309700000.0 11309700000.0 11309700000.0 11309700000.0 11309700000.0 11309700000.0 11309700000.0 11309700000.0 11309700000.0 11309700000.0 11309700000.0 11309700000.0 11309700000.0 11309700000.0 11309700000.0 11309700000.0 11309700000.0 11309700000.0 11309700000.0 11309700000.0 11309700000.0 11309700000.0 11309700000.0 11309700000.0 11309700000.0 11309700000.0 11309700000.0 11309700000.0 11309700000.0 11309700000.0 11309700000.0 11309700000.0 11309700000.0 11309700000.0 11309700000.0 11309700000.0 11309700000.0 11309700000.0 11309700000.0 11309700000.0 11309700000.0 11309700000.0 11309700000.0 11309700000.0 11309700000.0 11309700000.0 11309700000.0 11309700000.0 11309700000.0 11309700000.0 11309700000.0 11309700000.0 11309700000.0 11309700000.0 11309700000.0 11309700000.0 11309700000.0 11309700000.0 11309700000.0 11309700000.0 11309700000.0 11309700000.0 11309700000.0 11309700000.0 11309700000.0 11309700000.0 11309700000.0 11309700000.0 11309700000.0 11309700000.0 11309700000.0 11309700000.0 11309700000.0 11309700000.0 11309700000.0 11309700000.0 11309700000.0 11309700000.0 11309700000.0 11309700000.0 11309700000.0 11309700000.0 11309700000.0 11309700000.0 11309700000.0 11309700000.0 11309700000.0 11309700000.0 11309700000.0 11309700000.0 11309700000.0 11309700000.0 11309700000.0 11309700000.0 11309700000.0 11309700000.0 11309700000.0 11309700000.0 11309700000.0 11309700000.0 11309700000.0 11309700000.0 11309700000.0 11309700000.0 11309700000.0 11309700000.0 11309700000.0 11309700000.0 11309700000.0 11309700000.0 11309700000.0 11309700000.0 11309700000.0 11309700000.0 11309700000.0 11309700000.0 11309700000.0 11309700000.0 11309700000.0 11309700000.0 11309700000.0 11309700000.0 11309700000.0 11309700000.0 11309700000.0 11309700000.0 11309700000.0 11309700000.0 11309700000.0 11309700000.0 11309700000.0 11309700000.0 11309700000.0 11309700000.0 11309700000.0 11309700000.0 11309700000.0 11309700000.0 11309700000.0 11309700000.0 11309700000.0 11309700000.0 11309700000.0 11309700000.0 11309700000.0 11309700000.0 11309700000.0 11309700000.0 11309700000.0 11309700000.0 11309700000.0 11309700000.0 11309700000.0 11309700000.0 11309700000.0 11309700000.0 11309700000.0 11309700000.0 11309700000.0 11309700000.0 11309700000.0 11309700000.0 11309700000.0 11309700000.0 11309700000.0 11309700000.0 11309700000.0 11309700000.0 11309700000.0 11309700000.0 11309700000.0 11309700000.0 11309700000.0 11309700000.0 11309700000.0 11309700000.0 11309700000.0 11309700000.0 11309700000.0 11309700000.0 11309700000.0 11309700000.0 11309700000.0 11309700000.0 11309700000.0 11309700000.0 11309700000.0 11309700000.0 11309700000.0 11309700000.0 11309700000.0 11309700000.0 11309700000.0 11309700000.0 11309700000.0 11309700000.0 11309700000.0 11309700000.0 11309700000.0 11309700000.0 11309700000.0 11309700000.0 11309700000.0 11309700000.0 11309700000.0 11309700000.0 11309700000.0 11309700000.0 11309700000.0 11309700000.0 11309700000.0 11309700000.0 11309700000.0 11309700000.0 11309700000.0 11309700000.0 11309700000.0 11309700000.0 11309700000.0 11309700000.0 11309700000.0 11309700000.0 11309700000.0 11309700000.0 11309700000.0 11309700000.0 11309700000.0 11309700000.0 11309700000.0 11309700000.0 11309700000.0 11309700000.0 11309700000.0 11309700000.0 11309700000.0 11309700000.0 11309700000.0 11309700000.0 11309700000.0 11309700000.0 11309700000.0 11309700000.0 11309700000.0 11309700000.0 11309700000.0 11309700000.0 11309700000.0 11309700000.0 11309700000.0 11309700000.0 11309700000.0 11309700000.0 11309700000.0 11309700000.0 11309700000.0 11309700000.0 11309700000.0 11309700000.0 11309700000.0 11309700000.0 11309700000.0 11309700000.0 11309700000.0 11309700000.0 11309700000.0 11309700000.0 11309700000.0 11309700000.0 11309700000.0 11309700000.0 11309700000.0 11309700000.0 11309700000.0 11309700000.0 11309700000.0 11309700000.0 11309700000.0 11309700000.0 11309700000.0 11309700000.0 11309700000.0 11309700000.0 11309700000.0 11309700000.0 11309700000.0 11309700000.0 11309700000.0 11309700000.0 11309700000.0 11309700000.0 11309700000.0 11309700000.0 11309700000.0 11309700000.0 11309700000.0 11309700000.0 11309700000.0 11309700000.0 11309700000.0 11309700000.0 11309700000.0 11309700000.0 11309700000.0 11309700000.0 11309700000.0 11309700000.0 11309700000.0 11309700000.0 11309700000.0 11309700000.0 11309700000.0 11309700000.0 11309700000.0 11309700000.0 11309700000.0 11309700000.0 11309700000.0 11309700000.0 11309700000.0 11309700000.0 11309700000.0 11309700000.0 11309700000.0 11309700000.0 11309700000.0 11309700000.0 11309700000.0 11309700000.0 11309700000.0 11309700000.0 11309700000.0 11309700000.0 11309700000.0 11309700000.0 11309700000.0 11309700000.0 11309700000.0 11309700000.0 11309700000.0 11309700000.0 11309700000.0 11309700000.0 11309700000.0 11309700000.0 11309700000.0 11309700000.0 11309700000.0 11309700000.0 11309700000.0 11309700000.0 11309700000.0 11309700000.0 11309700000.0 11309700000.0 11309700000.0 11309700000.0 11309700000.0 11309700000.0 11309700000.0 11309700000.0 11309700000.0 11309700000.0 11309700000.0 11309700000.0 11309700000.0 11309700000.0 11309700000.0 11309700000.0 11309700000.0 11309700000.0 11309700000.0 11309700000.0 11309700000.0 11309700000.0 11309700000.0 11309700000.0 11309700000.0 11309700000.0 11309700000.0 11309700000.0 11309700000.0 11309700000.0 11309700000.0 11309700000.0 11309700000.0 11309700000.0 11309700000.0 11309700000.0 11309700000.0 11309700000.0 11309700000.0 11309700000.0 11309700000.0 11309700000.0 11309700000.0 11309700000.0 11309700000.0 11309700000.0 11309700000.0 11309700000.0 11309700000.0 11309700000.0 11309700000.0 11309700000.0 11309700000.0 11309700000.0 11309700000.0 11309700000.0 11309700000.0 11309700000.0 11309700000.0 11309700000.0 11309700000.0 11309700000.0 11309700000.0 11309700000.0 11309700000.0 11309700000.0 11309700000.0 11309700000.0 11309700000.0 11309700000.0 11309700000.0 11309700000.0 11309700000.0 11309700000.0 11309700000.0 11309700000.0 11309700000.0 11309700000.0 11309700000.0 11309700000.0 11309700000.0 11309700000.0 11309700000.0 11309700000.0 11309700000.0 11309700000.0 11309700000.0 11309700000.0 11309700000.0 11309700000.0 11309700000.0 11309700000.0 11309700000.0 11309700000.0 11309700000.0 11309700000.0 11309700000.0 11309700000.0 11309700000.0 11309700000.0 11309700000.0 11309700000.0 11309700000.0 11309700000.0 11309700000.0 11309700000.0 11309700000.0 11309700000.0 11309700000.0 11309700000.0 11309700000.0 11309700000.0 11309700000.0 11309700000.0 11309700000.0 11309700000.0 11309700000.0 11309700000.0 11309700000.0 11309700000.0 11309700000.0 11309700000.0 11309700000.0 11309700000.0 11309700000.0 11309700000.0 11309700000.0 11309700000.0 11309700000.0 11309700000.0 11309700000.0 11309700000.0 11309700000.0 11309700000.0 11309700000.0 11309700000.0 11309700000.0 11309700000.0 11309700000.0 11309700000.0 11309700000.0 11309700000.0 11309700000.0 11309700000.0 11309700000.0 11309700000.0 11309700000.0 11309700000.0 11309700000.0 11309700000.0 11309700000.0 11309700000.0 11309700000.0 11309700000.0 11309700000.0 11309700000.0 11309700000.0 11309700000.0 11309700000.0 11309700000.0 11309700000.0 11309700000.0 11309700000.0 11309700000.0 11309700000.0 11309700000.0 11309700000.0 11309700000.0 11309700000.0 11309700000.0 11309700000.0 11309700000.0 11309700000.0 11309700000.0 11309700000.0 11309700000.0 11309700000.0 11309700000.0 11309700000.0 11309700000.0 11309700000.0 11309700000.0 11309700000.0 11309700000.0 11309700000.0 11309700000.0 11309700000.0 11309700000.0 11309700000.0 11309700000.0 11309700000.0 11309700000.0 11309700000.0 11309700000.0 11309700000.0 11309700000.0 11309700000.0 11309700000.0 11309700000.0 11309700000.0 11309700000.0 11309700000.0 11309700000.0 11309700000.0 11309700000.0 11309700000.0 11309700000.0 11309700000.0 11309700000.0 11309700000.0 11309700000.0 11309700000.0 11309700000.0 11309700000.0 11309700000.0 11309700000.0 11309700000.0 11309700000.0 11309700000.0 11309700000.0 11309700000.0 11309700000.0 11309700000.0 11309700000.0 11309700000.0 11309700000.0 11309700000.0 11309700000.0 11309700000.0 11309700000.0 11309700000.0 11309700000.0 11309700000.0 11309700000.0 11309700000.0 11309700000.0 11309700000.0 11309700000.0 11309700000.0 11309700000.0 11309700000.0 11309700000.0 11309700000.0 11309700000.0 11309700000.0 11309700000.0 11309700000.0 11309700000.0 11309700000.0 11309700000.0 11309700000.0 11309700000.0 11309700000.0 11309700000.0 11309700000.0 11309700000.0 11309700000.0 11309700000.0 11309700000.0 11309700000.0 11309700000.0 11309700000.0 11309700000.0 11309700000.0 11309700000.0 11309700000.0 11309700000.0 11309700000.0 11309700000.0 11309700000.0 11309700000.0 11309700000.0 11309700000.0 11309700000.0 11309700000.0 11309700000.0 11309700000.0 11309700000.0 11309700000.0 11309700000.0 11309700000.0 11309700000.0 11309700000.0 11309700000.0 11309700000.0 11309700000.0 11309700000.0 11309700000.0 11309700000.0 11309700000.0 11309700000.0 11309700000.0 11309700000.0 11309700000.0 11309700000.0 11309700000.0 11309700000.0 11309700000.0 11309700000.0 11309700000.0 11309700000.0 11309700000.0 11309700000.0 11309700000.0 11309700000.0 11309700000.0 11309700000.0 11309700000.0 11309700000.0 11309700000.0 11309700000.0 11309700000.0 11309700000.0 11309700000.0 11309700000.0 11309700000.0 11309700000.0 11309700000.0 11309700000.0 11309700000.0 11309700000.0 11309700000.0 11309700000.0 11309700000.0 11309700000.0 11309700000.0 11309700000.0 11309700000.0 11309700000.0 11309700000.0 11309700000.0 11309700000.0 11309700000.0 11309700000.0 11309700000.0 11309700000.0 11309700000.0 11309700000.0 11309700000.0 11309700000.0 11309700000.0 11309700000.0 11309700000.0 11309700000.0 11309700000.0 11309700000.0 11309700000.0 11309700000.0 11309700000.0 11309700000.0 11309700000.0 11309700000.0 11309700000.0 11309700000.0 11309700000.0 11309700000.0 11309700000.0 11309700000.0 11309700000.0 11309700000.0 11309700000.0 11309700000.0 11309700000.0 11309700000.0 11309700000.0 11309700000.0 11309700000.0 11309700000.0 11309700000.0 11309700000.0 11309700000.0 11309700000.0 11309700000.0 11309700000.0 11309700000.0 11309700000.0 11309700000.0 11309700000.0 11309700000.0 11309700000.0 11309700000.0 11309700000.0 11309700000.0 11309700000.0 11309700000.0 11309700000.0 11309700000.0 11309700000.0 11309700000.0 11309700000.0 11309700000.0 11309700000.0 11309700000.0 11309700000.0 11309700000.0 11309700000.0 11309700000.0 11309700000.0 11309700000.0 11309700000.0 11309700000.0 11309700000.0 11309700000.0 11309700000.0 11309700000.0 11309700000.0 11309700000.0 11309700000.0 11309700000.0 11309700000.0 11309700000.0 11309700000.0 11309700000.0 11309700000.0 11309700000.0 11309700000.0 11309700000.0 11309700000.0 11309700000.0 11309700000.0 11309700000.0 11309700000.0 11309700000.0 11309700000.0 11309700000.0 11309700000.0 11309700000.0 11309700000.0 11309700000.0 11309700000.0 11309700000.0 11309700000.0 11309700000.0 11309700000.0 11309700000.0 11309700000.0 11309700000.0 11309700000.0 11309700000.0 11309700000.0 11309700000.0 11309700000.0 11309700000.0 11309700000.0 11309700000.0 11309700000.0 11309700000.0 11309700000.0 11309700000.0 11309700000.0 11309700000.0 11309700000.0 11309700000.0 11309700000.0 11309700000.0 11309700000.0 11309700000.0 11309700000.0 11309700000.0 11309700000.0 11309700000.0 11309700000.0 11309700000.0 11309700000.0 11309700000.0 11309700000.0 11309700000.0 11309700000.0 11309700000.0 11309700000.0 11309700000.0 11309700000.0 11309700000.0 11309700000.0 11309700000.0 11309700000.0 11309700000.0 11309700000.0 11309700000.0 11309700000.0 11309700000.0 11309700000.0 11309700000.0 11309700000.0 11309700000.0 11309700000.0 11309700000.0 11309700000.0 11309700000.0 11309700000.0 11309700000.0 11309700000.0 11309700000.0 11309700000.0 11309700000.0 11309700000.0 11309700000.0 11309700000.0 11309700000.0 11309700000.0 11309700000.0 11309700000.0 11309700000.0 11309700000.0 11309700000.0 11309700000.0 11309700000.0 11309700000.0 11309700000.0 11309700000.0 11309700000.0 11309700000.0 11309700000.0 11309700000.0 11309700000.0 11309700000.0 11309700000.0 11309700000.0 11309700000.0 11309700000.0 11309700000.0 11309700000.0 11309700000.0 11309700000.0 11309700000.0 11309700000.0 11309700000.0 11309700000.0 11309700000.0 11309700000.0 11309700000.0 11309700000.0 11309700000.0 11309700000.0 11309700000.0 11309700000.0 11309700000.0 11309700000.0 11309700000.0 11309700000.0 11309700000.0 11309700000.0 11309700000.0 11309700000.0 11309700000.0 11309700000.0 11309700000.0 11309700000.0 11309700000.0 11309700000.0 11309700000.0 11309700000.0 11309700000.0 11309700000.0 11309700000.0 11309700000.0 11309700000.0 11309700000.0 11309700000.0 11309700000.0 11309700000.0 11309700000.0 11309700000.0 11309700000.0 11309700000.0 11309700000.0 11309700000.0 11309700000.0 11309700000.0 11309700000.0 11309700000.0 11309700000.0 11309700000.0 11309700000.0 11309700000.0 11309700000.0 11309700000.0 11309700000.0 11309700000.0 11309700000.0 11309700000.0 11309700000.0 11309700000.0 11309700000.0 11309700000.0 11309700000.0 11309700000.0 11309700000.0 11309700000.0 11309700000.0 11309700000.0 11309700000.0 11309700000.0 11309700000.0 11309700000.0 11309700000.0 11309700000.0 11309700000.0 11309700000.0 11309700000.0 11309700000.0 11309700000.0 11309700000.0 11309700000.0 11309700000.0 11309700000.0 11309700000.0 11309700000.0 11309700000.0 11309700000.0 11309700000.0 11309700000.0 11309700000.0 11309700000.0 11309700000.0 11309700000.0 11309700000.0 11309700000.0 11309700000.0 11309700000.0 11309700000.0 11309700000.0 11309700000.0 11309700000.0 11309700000.0 11309700000.0 11309700000.0 11309700000.0 11309700000.0 11309700000.0 11309700000.0 11309700000.0 11309700000.0 11309700000.0 11309700000.0 11309700000.0 11309700000.0 11309700000.0 11309700000.0 11309700000.0 11309700000.0 11309700000.0 11309700000.0 11309700000.0 11309700000.0 11309700000.0 11309700000.0 11309700000.0 11309700000.0 11309700000.0 11309700000.0 11309700000.0 11309700000.0 11309700000.0 11309700000.0 11309700000.0 11309700000.0 11309700000.0 11309700000.0 11309700000.0 11309700000.0 11309700000.0 11309700000.0 11309700000.0 11309700000.0 11309700000.0 11309700000.0 11309700000.0 11309700000.0 11309700000.0 11309700000.0 11309700000.0 11309700000.0 11309700000.0 11309700000.0 11309700000.0 11309700000.0 11309700000.0 11309700000.0 11309700000.0 11309700000.0 11309700000.0 11309700000.0 11309700000.0 11309700000.0 11309700000.0 11309700000.0 11309700000.0 11309700000.0 11309700000.0 11309700000.0 11309700000.0 11309700000.0 11309700000.0 11309700000.0 11309700000.0 11309700000.0 11309700000.0 11309700000.0 11309700000.0 11309700000.0 11309700000.0 11309700000.0 11309700000.0 11309700000.0 11309700000.0 11309700000.0 11309700000.0 11309700000.0 11309700000.0 11309700000.0 11309700000.0 11309700000.0 11309700000.0 11309700000.0 11309700000.0 11309700000.0 11309700000.0 11309700000.0 11309700000.0 11309700000.0 11309700000.0 11309700000.0 11309700000.0 11309700000.0 11309700000.0 11309700000.0 11309700000.0 11309700000.0 11309700000.0 11309700000.0 11309700000.0 11309700000.0 11309700000.0 11309700000.0 11309700000.0 11309700000.0 11309700000.0 11309700000.0 11309700000.0 11309700000.0 11309700000.0 11309700000.0 11309700000.0 11309700000.0 11309700000.0 11309700000.0 11309700000.0 11309700000.0 11309700000.0 11309700000.0 11309700000.0 11309700000.0 11309700000.0 11309700000.0 11309700000.0 11309700000.0 11309700000.0 11309700000.0 11309700000.0 11309700000.0 11309700000.0 11309700000.0 11309700000.0 11309700000.0 11309700000.0 11309700000.0 11309700000.0 11309700000.0 11309700000.0 11309700000.0 11309700000.0 11309700000.0 11309700000.0 11309700000.0 11309700000.0 11309700000.0 11309700000.0 11309700000.0 11309700000.0 11309700000.0 11309700000.0 11309700000.0 11309700000.0 11309700000.0 11309700000.0 11309700000.0 11309700000.0 11309700000.0 11309700000.0 11309700000.0 11309700000.0 11309700000.0 11309700000.0 11309700000.0 11309700000.0 11309700000.0 11309700000.0 11309700000.0 11309700000.0 11309700000.0 11309700000.0 11309700000.0 11309700000.0 11309700000.0 11309700000.0 11309700000.0 11309700000.0 11309700000.0 11309700000.0 11309700000.0 11309700000.0 11309700000.0 11309700000.0 11309700000.0 11309700000.0 11309700000.0 11309700000.0 11309700000.0 11309700000.0 11309700000.0 11309700000.0 11309700000.0 11309700000.0 11309700000.0 11309700000.0 11309700000.0 11309700000.0 11309700000.0 11309700000.0 11309700000.0 11309700000.0 11309700000.0 11309700000.0 11309700000.0 11309700000.0 11309700000.0 11309700000.0 11309700000.0 11309700000.0 11309700000.0 11309700000.0 11309700000.0 11309700000.0 11309700000.0 11309700000.0 11309700000.0 11309700000.0 11309700000.0 11309700000.0 11309700000.0 11309700000.0 11309700000.0 11309700000.0 11309700000.0 11309700000.0 11309700000.0 11309700000.0 11309700000.0 11309700000.0 11309700000.0 11309700000.0 11309700000.0 11309700000.0 11309700000.0 11309700000.0 11309700000.0 11309700000.0 11309700000.0 11309700000.0 11309700000.0 11309700000.0 11309700000.0 11309700000.0 11309700000.0 11309700000.0 11309700000.0 11309700000.0 11309700000.0 11309700000.0 11309700000.0 11309700000.0 11309700000.0 11309700000.0 11309700000.0 11309700000.0 11309700000.0 11309700000.0 11309700000.0 11309700000.0 11309700000.0 11309700000.0 11309700000.0 11309700000.0 11309700000.0 11309700000.0 11309700000.0 11309700000.0 11309700000.0 11309700000.0 11309700000.0 11309700000.0 11309700000.0 11309700000.0 11309700000.0 11309700000.0 11309700000.0 11309700000.0 11309700000.0 11309700000.0 11309700000.0 11309700000.0 11309700000.0 11309700000.0 11309700000.0 11309700000.0 11309700000.0 11309700000.0 11309700000.0 11309700000.0 11309700000.0 11309700000.0 11309700000.0 11309700000.0 11309700000.0 11309700000.0 11309700000.0 11309700000.0 11309700000.0 11309700000.0 11309700000.0 11309700000.0 11309700000.0 11309700000.0 11309700000.0 11309700000.0 11309700000.0 11309700000.0 11309700000.0 11309700000.0 11309700000.0 11309700000.0 11309700000.0 11309700000.0 11309700000.0 11309700000.0 11309700000.0 11309700000.0 11309700000.0 11309700000.0 11309700000.0 11309700000.0 11309700000.0 11309700000.0 11309700000.0 11309700000.0 11309700000.0 11309700000.0 11309700000.0 11309700000.0 11309700000.0 11309700000.0 11309700000.0 11309700000.0 11309700000.0 11309700000.0 11309700000.0 11309700000.0 11309700000.0 11309700000.0 11309700000.0 11309700000.0 11309700000.0 11309700000.0 11309700000.0 11309700000.0 11309700000.0 11309700000.0 11309700000.0 11309700000.0 11309700000.0 11309700000.0 11309700000.0 11309700000.0 11309700000.0 11309700000.0 11309700000.0 11309700000.0 11309700000.0 11309700000.0 11309700000.0 11309700000.0 11309700000.0 11309700000.0 11309700000.0 11309700000.0 11309700000.0 11309700000.0 11309700000.0 11309700000.0 11309700000.0 11309700000.0 11309700000.0 11309700000.0 11309700000.0 11309700000.0 11309700000.0 11309700000.0 11309700000.0 11309700000.0 11309700000.0 11309700000.0 11309700000.0 11309700000.0 11309700000.0 11309700000.0 11309700000.0 11309700000.0 11309700000.0 11309700000.0 11309700000.0 11309700000.0 11309700000.0 11309700000.0 11309700000.0 11309700000.0 11309700000.0 11309700000.0 11309700000.0 11309700000.0 11309700000.0 11309700000.0 11309700000.0 11309700000.0 11309700000.0 11309700000.0 11309700000.0 11309700000.0 11309700000.0 11309700000.0 11309700000.0 11309700000.0 11309700000.0 11309700000.0 11309700000.0 11309700000.0 11309700000.0 11309700000.0 11309700000.0 11309700000.0 11309700000.0 11309700000.0 11309700000.0 11309700000.0 11309700000.0 11309700000.0 11309700000.0 11309700000.0 11309700000.0 11309700000.0 11309700000.0 11309700000.0 11309700000.0 11309700000.0 11309700000.0 11309700000.0 11309700000.0 11309700000.0 11309700000.0 11309700000.0 11309700000.0 11309700000.0 11309700000.0 11309700000.0 11309700000.0 11309700000.0 11309700000.0 11309700000.0 11309700000.0 11309700000.0 11309700000.0 11309700000.0 11309700000.0 11309700000.0 11309700000.0 11309700000.0 11309700000.0 11309700000.0 11309700000.0 11309700000.0 11309700000.0 11309700000.0 11309700000.0 11309700000.0 11309700000.0 11309700000.0 11309700000.0 11309700000.0 11309700000.0 11309700000.0 11309700000.0 11309700000.0 11309700000.0 11309700000.0 11309700000.0 11309700000.0 11309700000.0 11309700000.0 11309700000.0 11309700000.0 11309700000.0 11309700000.0 11309700000.0 11309700000.0 11309700000.0 11309700000.0 11309700000.0 11309700000.0 11309700000.0 11309700000.0 11309700000.0 11309700000.0 11309700000.0 11309700000.0 11309700000.0 11309700000.0 11309700000.0 11309700000.0 11309700000.0 11309700000.0 11309700000.0 11309700000.0 11309700000.0 11309700000.0 11309700000.0 11309700000.0 11309700000.0 11309700000.0 11309700000.0 11309700000.0 11309700000.0 11309700000.0 11309700000.0 11309700000.0 11309700000.0 11309700000.0 11309700000.0 11309700000.0 11309700000.0 11309700000.0 11309700000.0 11309700000.0 11309700000.0 11309700000.0 11309700000.0 11309700000.0 11309700000.0 11309700000.0 11309700000.0 11309700000.0 11309700000.0 11309700000.0 11309700000.0 11309700000.0 11309700000.0 11309700000.0 11309700000.0 11309700000.0 11309700000.0 11309700000.0 11309700000.0 11309700000.0 11309700000.0 11309700000.0 11309700000.0 11309700000.0 11309700000.0 11309700000.0 11309700000.0 11309700000.0 11309700000.0 11309700000.0 11309700000.0 11309700000.0 11309700000.0 11309700000.0 11309700000.0 11309700000.0 11309700000.0 11309700000.0 11309700000.0 11309700000.0 11309700000.0 11309700000.0 11309700000.0 11309700000.0 11309700000.0 11309700000.0 11309700000.0 11309700000.0 11309700000.0 11309700000.0 11309700000.0 11309700000.0 11309700000.0 11309700000.0 11309700000.0 11309700000.0 11309700000.0 11309700000.0 11309700000.0 11309700000.0 11309700000.0 11309700000.0 11309700000.0 11309700000.0 11309700000.0 11309700000.0 11309700000.0 11309700000.0 11309700000.0 11309700000.0 11309700000.0 11309700000.0 11309700000.0 11309700000.0 11309700000.0 11309700000.0 11309700000.0 11309700000.0 11309700000.0 11309700000.0 11309700000.0 11309700000.0 11309700000.0 11309700000.0 11309700000.0 11309700000.0 11309700000.0 11309700000.0 11309700000.0 11309700000.0 11309700000.0 11309700000.0 11309700000.0 11309700000.0 11309700000.0 11309700000.0 11309700000.0 11309700000.0 11309700000.0 11309700000.0 11309700000.0 11309700000.0 11309700000.0 11309700000.0 11309700000.0 11309700000.0 11309700000.0 11309700000.0 11309700000.0 11309700000.0 11309700000.0 11309700000.0 11309700000.0 11309700000.0 11309700000.0 11309700000.0 11309700000.0 11309700000.0 11309700000.0 11309700000.0 11309700000.0 11309700000.0 11309700000.0 11309700000.0 11309700000.0 11309700000.0 11309700000.0 11309700000.0 11309700000.0 11309700000.0 11309700000.0 11309700000.0 11309700000.0 11309700000.0 11309700000.0 11309700000.0 11309700000.0 11309700000.0 11309700000.0 11309700000.0 11309700000.0 11309700000.0 11309700000.0 11309700000.0 11309700000.0 11309700000.0 11309700000.0 11309700000.0 11309700000.0 11309700000.0 11309700000.0 11309700000.0 11309700000.0 11309700000.0 11309700000.0 11309700000.0 11309700000.0 11309700000.0 11309700000.0 11309700000.0 11309700000.0 11309700000.0 11309700000.0 11309700000.0 11309700000.0 11309700000.0 11309700000.0 11309700000.0 11309700000.0 11309700000.0 11309700000.0 11309700000.0 11309700000.0 11309700000.0 11309700000.0 11309700000.0 11309700000.0 11309700000.0 11309700000.0 11309700000.0 11309700000.0 11309700000.0 11309700000.0 11309700000.0 11309700000.0 11309700000.0 11309700000.0 11309700000.0 11309700000.0 11309700000.0 11309700000.0 11309700000.0 11309700000.0 11309700000.0 11309700000.0 11309700000.0 11309700000.0 11309700000.0 11309700000.0 11309700000.0 11309700000.0 11309700000.0 11309700000.0 11309700000.0 11309700000.0 11309700000.0 11309700000.0 11309700000.0 11309700000.0 11309700000.0 11309700000.0 11309700000.0 11309700000.0 11309700000.0 11309700000.0 11309700000.0 11309700000.0 11309700000.0 11309700000.0 11309700000.0 11309700000.0 11309700000.0 11309700000.0 11309700000.0 11309700000.0 11309700000.0 11309700000.0 11309700000.0 11309700000.0 11309700000.0 11309700000.0 11309700000.0 11309700000.0 11309700000.0 11309700000.0 11309700000.0 11309700000.0 11309700000.0 11309700000.0 11309700000.0 11309700000.0 11309700000.0 11309700000.0 11309700000.0 11309700000.0 11309700000.0 11309700000.0 11309700000.0 11309700000.0 11309700000.0 11309700000.0 11309700000.0 11309700000.0 11309700000.0 11309700000.0 11309700000.0 11309700000.0 11309700000.0 11309700000.0 11309700000.0 11309700000.0 11309700000.0 11309700000.0 11309700000.0 11309700000.0 11309700000.0 11309700000.0 11309700000.0 11309700000.0 11309700000.0 11309700000.0 11309700000.0 11309700000.0 11309700000.0 11309700000.0 11309700000.0 11309700000.0 11309700000.0 11309700000.0 11309700000.0 11309700000.0 11309700000.0 11309700000.0 11309700000.0 11309700000.0 11309700000.0 11309700000.0 11309700000.0 11309700000.0 11309700000.0 11309700000.0 11309700000.0 11309700000.0 11309700000.0 11309700000.0 11309700000.0 11309700000.0 11309700000.0 11309700000.0 11309700000.0 11309700000.0 11309700000.0 11309700000.0 11309700000.0 11309700000.0 11309700000.0 11309700000.0 11309700000.0 11309700000.0 11309700000.0 11309700000.0 11309700000.0 11309700000.0 11309700000.0 11309700000.0 11309700000.0 11309700000.0 11309700000.0 11309700000.0 11309700000.0 11309700000.0 11309700000.0 11309700000.0 11309700000.0 11309700000.0 11309700000.0 11309700000.0 11309700000.0 11309700000.0 11309700000.0 11309700000.0 11309700000.0 11309700000.0 11309700000.0 11309700000.0 11309700000.0 11309700000.0 11309700000.0 11309700000.0 11309700000.0 11309700000.0 11309700000.0 11309700000.0 11309700000.0 11309700000.0 11309700000.0 11309700000.0 11309700000.0 11309700000.0 11309700000.0 11309700000.0 11309700000.0 11309700000.0 11309700000.0 11309700000.0 11309700000.0 11309700000.0 11309700000.0 11309700000.0 11309700000.0 11309700000.0 11309700000.0 11309700000.0 11309700000.0 11309700000.0 11309700000.0 11309700000.0 11309700000.0 11309700000.0 11309700000.0 11309700000.0 11309700000.0 11309700000.0 11309700000.0 11309700000.0 11309700000.0 11309700000.0 11309700000.0 11309700000.0 11309700000.0 11309700000.0 11309700000.0 11309700000.0 11309700000.0 11309700000.0 11309700000.0 11309700000.0 11309700000.0 11309700000.0 11309700000.0 11309700000.0 11309700000.0 11309700000.0 11309700000.0 11309700000.0 11309700000.0 11309700000.0 11309700000.0 11309700000.0 11309700000.0 11309700000.0 11309700000.0 11309700000.0 11309700000.0 11309700000.0 11309700000.0 11309700000.0 11309700000.0 11309700000.0 11309700000.0 11309700000.0 11309700000.0 11309700000.0 11309700000.0 11309700000.0 11309700000.0 11309700000.0 11309700000.0 11309700000.0 11309700000.0 11309700000.0 11309700000.0 11309700000.0 11309700000.0 11309700000.0 11309700000.0 11309700000.0 11309700000.0 11309700000.0 11309700000.0 11309700000.0 11309700000.0 11309700000.0 11309700000.0 11309700000.0 11309700000.0 11309700000.0 11309700000.0 11309700000.0 11309700000.0 11309700000.0 11309700000.0 11309700000.0 11309700000.0 11309700000.0 11309700000.0 11309700000.0 11309700000.0 11309700000.0 11309700000.0 11309700000.0 11309700000.0 11309700000.0 11309700000.0 11309700000.0 11309700000.0 11309700000.0 11309700000.0 11309700000.0 11309700000.0 11309700000.0 11309700000.0 11309700000.0 11309700000.0 11309700000.0 11309700000.0 11309700000.0 11309700000.0 11309700000.0 11309700000.0 11309700000.0 11309700000.0 11309700000.0 11309700000.0 11309700000.0 11309700000.0 11309700000.0 11309700000.0 11309700000.0 11309700000.0 11309700000.0 11309700000.0 11309700000.0 11309700000.0 11309700000.0 11309700000.0 11309700000.0 11309700000.0 11309700000.0 11309700000.0 11309700000.0 11309700000.0 11309700000.0 11309700000.0 11309700000.0 11309700000.0 11309700000.0 11309700000.0 11309700000.0 11309700000.0 11309700000.0 11309700000.0 11309700000.0 11309700000.0 11309700000.0 11309700000.0 11309700000.0 11309700000.0 11309700000.0 11309700000.0 11309700000.0 11309700000.0 11309700000.0 11309700000.0 11309700000.0 11309700000.0 11309700000.0 11309700000.0 11309700000.0 11309700000.0 11309700000.0 11309700000.0 11309700000.0 11309700000.0 11309700000.0 11309700000.0 11309700000.0 11309700000.0 11309700000.0 11309700000.0 11309700000.0 11309700000.0 11309700000.0 11309700000.0 11309700000.0 11309700000.0 11309700000.0 11309700000.0 11309700000.0 11309700000.0 11309700000.0 11309700000.0 11309700000.0 11309700000.0 11309700000.0 11309700000.0 11309700000.0 11309700000.0 11309700000.0 11309700000.0 11309700000.0 11309700000.0 11309700000.0 11309700000.0 11309700000.0 11309700000.0 11309700000.0 11309700000.0 11309700000.0 11309700000.0 11309700000.0 11309700000.0 11309700000.0 11309700000.0 11309700000.0 11309700000.0 11309700000.0 11309700000.0 11309700000.0 11309700000.0 11309700000.0 11309700000.0 11309700000.0 11309700000.0 11309700000.0 11309700000.0 11309700000.0 11309700000.0 11309700000.0 11309700000.0 11309700000.0 11309700000.0 11309700000.0 11309700000.0 11309700000.0 11309700000.0 11309700000.0 11309700000.0 11309700000.0 11309700000.0 11309700000.0 11309700000.0 11309700000.0 11309700000.0 11309700000.0 11309700000.0 11309700000.0 11309700000.0 11309700000.0 11309700000.0 11309700000.0 11309700000.0 11309700000.0 11309700000.0 11309700000.0 11309700000.0 11309700000.0 11309700000.0 11309700000.0 11309700000.0 11309700000.0 11309700000.0 11309700000.0 11309700000.0 11309700000.0 11309700000.0 11309700000.0 11309700000.0 11309700000.0 11309700000.0 11309700000.0 11309700000.0 11309700000.0 11309700000.0 11309700000.0 11309700000.0 11309700000.0 11309700000.0 11309700000.0 11309700000.0 11309700000.0 11309700000.0 11309700000.0 11309700000.0 11309700000.0 11309700000.0 11309700000.0 11309700000.0 11309700000.0 11309700000.0 11309700000.0 11309700000.0 11309700000.0 11309700000.0 11309700000.0 11309700000.0 11309700000.0 11309700000.0 11309700000.0 11309700000.0 11309700000.0 11309700000.0 11309700000.0 11309700000.0 11309700000.0 11309700000.0 11309700000.0 11309700000.0 11309700000.0 11309700000.0 11309700000.0 11309700000.0 11309700000.0 11309700000.0 11309700000.0 11309700000.0 11309700000.0 11309700000.0 11309700000.0 11309700000.0 11309700000.0 11309700000.0 11309700000.0 11309700000.0 11309700000.0 11309700000.0 11309700000.0 11309700000.0 11309700000.0 11309700000.0 11309700000.0 11309700000.0 11309700000.0 11309700000.0 11309700000.0 11309700000.0 11309700000.0 11309700000.0 11309700000.0 11309700000.0 11309700000.0 11309700000.0 11309700000.0 11309700000.0 11309700000.0 11309700000.0 11309700000.0 11309700000.0 11309700000.0 11309700000.0 11309700000.0 11309700000.0 11309700000.0 11309700000.0 11309700000.0 11309700000.0 11309700000.0 11309700000.0 11309700000.0 11309700000.0 11309700000.0 11309700000.0 11309700000.0 11309700000.0 11309700000.0 11309700000.0 11309700000.0 11309700000.0 11309700000.0 11309700000.0 11309700000.0 11309700000.0 11309700000.0 11309700000.0 11309700000.0 11309700000.0 11309700000.0 11309700000.0 11309700000.0 11309700000.0 11309700000.0 11309700000.0 11309700000.0 11309700000.0 11309700000.0 11309700000.0 11309700000.0 11309700000.0 11309700000.0 11309700000.0 11309700000.0 11309700000.0 11309700000.0 11309700000.0 11309700000.0 11309700000.0 11309700000.0 11309700000.0 11309700000.0 11309700000.0 11309700000.0 11309700000.0 11309700000.0 11309700000.0 11309700000.0 11309700000.0 11309700000.0 11309700000.0 11309700000.0 11309700000.0 11309700000.0 11309700000.0 11309700000.0 11309700000.0 11309700000.0 11309700000.0 11309700000.0 11309700000.0 11309700000.0 11309700000.0 11309700000.0 11309700000.0 11309700000.0 11309700000.0 11309700000.0 11309700000.0 11309700000.0 11309700000.0 11309700000.0 11309700000.0 11309700000.0 11309700000.0 11309700000.0 11309700000.0 11309700000.0 11309700000.0 11309700000.0 11309700000.0 11309700000.0 11309700000.0 11309700000.0 11309700000.0 11309700000.0 11309700000.0 11309700000.0 11309700000.0 11309700000.0 11309700000.0 11309700000.0 11309700000.0 11309700000.0 11309700000.0 11309700000.0 11309700000.0 11309700000.0 11309700000.0 11309700000.0 11309700000.0 11309700000.0 11309700000.0 11309700000.0 11309700000.0 11309700000.0 11309700000.0 11309700000.0 11309700000.0 11309700000.0 11309700000.0 11309700000.0 11309700000.0 11309700000.0 11309700000.0 11309700000.0 11309700000.0 11309700000.0 11309700000.0 11309700000.0 11309700000.0 11309700000.0 11309700000.0 11309700000.0 11309700000.0 11309700000.0 11309700000.0 11309700000.0 11309700000.0 11309700000.0 11309700000.0 11309700000.0 11309700000.0 11309700000.0 11309700000.0 11309700000.0 11309700000.0 11309700000.0 11309700000.0 11309700000.0 11309700000.0 11309700000.0 11309700000.0 11309700000.0 11309700000.0 11309700000.0 11309700000.0 11309700000.0 11309700000.0 11309700000.0 11309700000.0 11309700000.0 11309700000.0 11309700000.0 11309700000.0 11309700000.0 11309700000.0 11309700000.0 11309700000.0 11309700000.0 11309700000.0 11309700000.0 11309700000.0 11309700000.0 11309700000.0 11309700000.0 11309700000.0 11309700000.0 11309700000.0 11309700000.0 11309700000.0 11309700000.0 11309700000.0 11309700000.0 11309700000.0 11309700000.0 11309700000.0 11309700000.0 11309700000.0 11309700000.0 11309700000.0 11309700000.0 11309700000.0 11309700000.0 11309700000.0 11309700000.0 11309700000.0 11309700000.0 11309700000.0 11309700000.0 11309700000.0 11309700000.0 11309700000.0 11309700000.0 11309700000.0 11309700000.0 11309700000.0 11309700000.0 11309700000.0 11309700000.0 11309700000.0 11309700000.0 11309700000.0 11309700000.0 11309700000.0 11309700000.0 11309700000.0 11309700000.0 11309700000.0 11309700000.0 11309700000.0 11309700000.0 11309700000.0 11309700000.0 11309700000.0 11309700000.0 11309700000.0 11309700000.0 11309700000.0 11309700000.0 11309700000.0 11309700000.0 11309700000.0 11309700000.0 11309700000.0 11309700000.0 11309700000.0 11309700000.0 11309700000.0 11309700000.0 11309700000.0 11309700000.0 11309700000.0 11309700000.0 11309700000.0 11309700000.0 11309700000.0 11309700000.0 11309700000.0 11309700000.0 11309700000.0 11309700000.0 11309700000.0 11309700000.0 11309700000.0 11309700000.0 11309700000.0 11309700000.0 11309700000.0 11309700000.0 11309700000.0 11309700000.0 11309700000.0 11309700000.0 11309700000.0 11309700000.0 11309700000.0 11309700000.0 11309700000.0 11309700000.0 11309700000.0 11309700000.0 11309700000.0 11309700000.0 11309700000.0 11309700000.0 11309700000.0 11309700000.0 11309700000.0 11309700000.0 11309700000.0 11309700000.0 11309700000.0 11309700000.0 11309700000.0 11309700000.0 11309700000.0 11309700000.0 11309700000.0 11309700000.0 11309700000.0 11309700000.0 11309700000.0 11309700000.0 11309700000.0 11309700000.0 11309700000.0 11309700000.0 11309700000.0 11309700000.0 11309700000.0 11309700000.0 11309700000.0 11309700000.0 11309700000.0 11309700000.0 11309700000.0 11309700000.0 11309700000.0 11309700000.0 11309700000.0 11309700000.0 11309700000.0 11309700000.0 11309700000.0 11309700000.0 11309700000.0 11309700000.0 11309700000.0 11309700000.0 11309700000.0 11309700000.0 11309700000.0 11309700000.0 11309700000.0 11309700000.0 11309700000.0 11309700000.0 11309700000.0 11309700000.0 11309700000.0 11309700000.0 11309700000.0 11309700000.0 11309700000.0 11309700000.0 11309700000.0 11309700000.0 11309700000.0 11309700000.0 11309700000.0 11309700000.0 11309700000.0 11309700000.0 11309700000.0 11309700000.0 11309700000.0 11309700000.0 11309700000.0 11309700000.0 11309700000.0 11309700000.0 11309700000.0 11309700000.0 11309700000.0 11309700000.0 11309700000.0 11309700000.0 11309700000.0 11309700000.0 11309700000.0 11309700000.0 11309700000.0 11309700000.0 11309700000.0 11309700000.0 11309700000.0 11309700000.0 11309700000.0 11309700000.0 11309700000.0 11309700000.0 11309700000.0 11309700000.0 11309700000.0 11309700000.0 11309700000.0 11309700000.0 11309700000.0 11309700000.0 11309700000.0 11309700000.0 11309700000.0 11309700000.0 11309700000.0 11309700000.0 11309700000.0 11309700000.0 11309700000.0 11309700000.0 11309700000.0 11309700000.0 11309700000.0 11309700000.0 11309700000.0 11309700000.0 11309700000.0 11309700000.0 11309700000.0 11309700000.0 11309700000.0 11309700000.0 11309700000.0 11309700000.0 11309700000.0 11309700000.0 11309700000.0 11309700000.0 11309700000.0 11309700000.0 11309700000.0 11309700000.0 11309700000.0 11309700000.0 11309700000.0 11309700000.0 11309700000.0 11309700000.0 11309700000.0 11309700000.0 11309700000.0 11309700000.0 11309700000.0 11309700000.0 11309700000.0 11309700000.0 11309700000.0 11309700000.0 11309700000.0 11309700000.0 11309700000.0 11309700000.0 11309700000.0 11309700000.0 11309700000.0 11309700000.0 11309700000.0 11309700000.0 11309700000.0 11309700000.0 11309700000.0 11309700000.0 11309700000.0 11309700000.0 11309700000.0 11309700000.0 11309700000.0 11309700000.0 11309700000.0 11309700000.0 11309700000.0 11309700000.0 11309700000.0 11309700000.0 11309700000.0 11309700000.0 11309700000.0 11309700000.0 11309700000.0 11309700000.0 11309700000.0 11309700000.0 11309700000.0 11309700000.0 11309700000.0 11309700000.0 11309700000.0 11309700000.0 11309700000.0 11309700000.0 11309700000.0 11309700000.0 11309700000.0 11309700000.0 11309700000.0 11309700000.0 11309700000.0 11309700000.0 11309700000.0 11309700000.0 11309700000.0 11309700000.0 11309700000.0 11309700000.0 11309700000.0 11309700000.0 11309700000.0 11309700000.0 11309700000.0 11309700000.0 11309700000.0 11309700000.0 11309700000.0 11309700000.0 11309700000.0 11309700000.0 11309700000.0 11309700000.0 11309700000.0 11309700000.0 11309700000.0 11309700000.0 11309700000.0 11309700000.0 11309700000.0 11309700000.0 11309700000.0 11309700000.0 11309700000.0 11309700000.0 11309700000.0 11309700000.0 11309700000.0 11309700000.0 11309700000.0 11309700000.0 11309700000.0 11309700000.0 11309700000.0 11309700000.0 11309700000.0 11309700000.0 11309700000.0 11309700000.0 11309700000.0 11309700000.0 11309700000.0 11309700000.0 11309700000.0 11309700000.0 11309700000.0 11309700000.0 11309700000.0 11309700000.0 11309700000.0 11309700000.0 11309700000.0 11309700000.0 11309700000.0 11309700000.0 11309700000.0 11309700000.0 11309700000.0 11309700000.0 11309700000.0 11309700000.0 11309700000.0 11309700000.0 11309700000.0 11309700000.0 11309700000.0 11309700000.0 11309700000.0 11309700000.0 11309700000.0 11309700000.0 11309700000.0 11309700000.0 11309700000.0 11309700000.0 11309700000.0 11309700000.0 11309700000.0 11309700000.0 11309700000.0 11309700000.0 11309700000.0 11309700000.0 11309700000.0 11309700000.0 11309700000.0 11309700000.0 11309700000.0 11309700000.0 11309700000.0 11309700000.0 11309700000.0 11309700000.0 11309700000.0 11309700000.0 11309700000.0 11309700000.0 11309700000.0 11309700000.0 11309700000.0 11309700000.0 11309700000.0 11309700000.0 11309700000.0 11309700000.0 11309700000.0 11309700000.0 11309700000.0 11309700000.0 11309700000.0 11309700000.0 11309700000.0 11309700000.0 11309700000.0 11309700000.0 11309700000.0 11309700000.0 11309700000.0 11309700000.0 11309700000.0 11309700000.0 11309700000.0 11309700000.0 11309700000.0 11309700000.0 11309700000.0 11309700000.0 11309700000.0 11309700000.0 11309700000.0 11309700000.0 11309700000.0 11309700000.0 11309700000.0 11309700000.0 11309700000.0 11309700000.0 11309700000.0 11309700000.0 11309700000.0 11309700000.0 11309700000.0 11309700000.0 11309700000.0 11309700000.0 11309700000.0 11309700000.0 11309700000.0 11309700000.0 11309700000.0 11309700000.0 11309700000.0 11309700000.0 11309700000.0 11309700000.0 11309700000.0 11309700000.0 11309700000.0 11309700000.0 11309700000.0 11309700000.0 11309700000.0 11309700000.0 11309700000.0 11309700000.0 11309700000.0 11309700000.0 11309700000.0 11309700000.0 11309700000.0 11309700000.0 11309700000.0 11309700000.0 11309700000.0 11309700000.0 11309700000.0 11309700000.0 11309700000.0 11309700000.0 11309700000.0 11309700000.0 11309700000.0 11309700000.0 11309700000.0 11309700000.0 11309700000.0 11309700000.0 11309700000.0 11309700000.0 11309700000.0 11309700000.0 11309700000.0 11309700000.0 11309700000.0 11309700000.0 11309700000.0 11309700000.0 11309700000.0 11309700000.0 11309700000.0 11309700000.0 11309700000.0 11309700000.0 11309700000.0 11309700000.0 11309700000.0 11309700000.0 11309700000.0 11309700000.0 11309700000.0 11309700000.0 11309700000.0 11309700000.0 11309700000.0 11309700000.0 11309700000.0 11309700000.0 11309700000.0 11309700000.0 11309700000.0 11309700000.0 11309700000.0 11309700000.0 11309700000.0 11309700000.0 11309700000.0 11309700000.0 11309700000.0 11309700000.0 11309700000.0 11309700000.0 11309700000.0 11309700000.0 11309700000.0 11309700000.0 11309700000.0 11309700000.0 11309700000.0 11309700000.0 11309700000.0 11309700000.0 11309700000.0 11309700000.0 11309700000.0 11309700000.0 11309700000.0 11309700000.0 11309700000.0 11309700000.0 11309700000.0 11309700000.0 11309700000.0 11309700000.0 11309700000.0 11309700000.0 11309700000.0 11309700000.0 11309700000.0 11309700000.0 11309700000.0 11309700000.0 11309700000.0 11309700000.0 11309700000.0 11309700000.0 11309700000.0 11309700000.0 11309700000.0 11309700000.0 11309700000.0 11309700000.0 11309700000.0 11309700000.0 11309700000.0 11309700000.0 11309700000.0 11309700000.0 11309700000.0 11309700000.0 11309700000.0 11309700000.0 11309700000.0 11309700000.0 11309700000.0 11309700000.0 11309700000.0 11309700000.0 11309700000.0 11309700000.0 11309700000.0 11309700000.0 11309700000.0 11309700000.0 11309700000.0 11309700000.0 11309700000.0 11309700000.0 11309700000.0 11309700000.0 11309700000.0 11309700000.0 11309700000.0 11309700000.0 11309700000.0 11309700000.0 11309700000.0 11309700000.0 11309700000.0 11309700000.0 11309700000.0 11309700000.0 11309700000.0 11309700000.0 11309700000.0 11309700000.0 11309700000.0 11309700000.0 11309700000.0 11309700000.0 11309700000.0 11309700000.0 11309700000.0 11309700000.0 11309700000.0 11309700000.0 11309700000.0 11309700000.0 11309700000.0 11309700000.0 11309700000.0 11309700000.0 11309700000.0 11309700000.0 11309700000.0 11309700000.0 11309700000.0 11309700000.0 11309700000.0 11309700000.0 11309700000.0 11309700000.0 11309700000.0 11309700000.0 11309700000.0 11309700000.0 11309700000.0 11309700000.0 11309700000.0 11309700000.0 11309700000.0 11309700000.0 11309700000.0 11309700000.0 11309700000.0 11309700000.0 11309700000.0 11309700000.0 11309700000.0 11309700000.0 11309700000.0 11309700000.0 11309700000.0 11309700000.0 11309700000.0 11309700000.0 11309700000.0 11309700000.0 11309700000.0 11309700000.0 11309700000.0 11309700000.0 11309700000.0 11309700000.0 11309700000.0 11309700000.0 11309700000.0 11309700000.0 11309700000.0 11309700000.0 11309700000.0 11309700000.0 11309700000.0 11309700000.0 11309700000.0 11309700000.0 11309700000.0 11309700000.0 11309700000.0 11309700000.0 11309700000.0 11309700000.0 11309700000.0 11309700000.0 11309700000.0 11309700000.0 11309700000.0 11309700000.0 11309700000.0 11309700000.0 11309700000.0 11309700000.0 11309700000.0 11309700000.0 11309700000.0 11309700000.0 11309700000.0 11309700000.0 11309700000.0 11309700000.0 11309700000.0 11309700000.0 11309700000.0 11309700000.0 11309700000.0 11309700000.0 11309700000.0 11309700000.0 11309700000.0 11309700000.0 11309700000.0 11309700000.0 11309700000.0 11309700000.0 11309700000.0 11309700000.0 11309700000.0 11309700000.0 11309700000.0 11309700000.0 11309700000.0 11309700000.0 11309700000.0 11309700000.0 11309700000.0 11309700000.0 11309700000.0 11309700000.0 11309700000.0 11309700000.0 11309700000.0 11309700000.0 11309700000.0 11309700000.0 11309700000.0 11309700000.0 11309700000.0 11309700000.0 11309700000.0 11309700000.0 11309700000.0 11309700000.0 11309700000.0 11309700000.0 11309700000.0 11309700000.0 11309700000.0 11309700000.0 11309700000.0 11309700000.0 11309700000.0 11309700000.0 11309700000.0 11309700000.0 11309700000.0 11309700000.0 11309700000.0 11309700000.0 11309700000.0 11309700000.0 11309700000.0 11309700000.0 11309700000.0 11309700000.0 11309700000.0 11309700000.0 11309700000.0 11309700000.0 11309700000.0 11309700000.0 11309700000.0 11309700000.0 11309700000.0 11309700000.0 11309700000.0 11309700000.0 11309700000.0 11309700000.0 11309700000.0 11309700000.0 11309700000.0 11309700000.0 11309700000.0 11309700000.0 11309700000.0 11309700000.0 11309700000.0 11309700000.0 11309700000.0 11309700000.0 11309700000.0 11309700000.0 11309700000.0 11309700000.0 11309700000.0 11309700000.0 11309700000.0 11309700000.0 11309700000.0 11309700000.0 11309700000.0 11309700000.0 11309700000.0 11309700000.0 11309700000.0 11309700000.0 11309700000.0 11309700000.0 11309700000.0 11309700000.0 11309700000.0 11309700000.0 11309700000.0 11309700000.0 11309700000.0 11309700000.0 11309700000.0 11309700000.0 11309700000.0 11309700000.0 11309700000.0 11309700000.0 11309700000.0 11309700000.0 11309700000.0 11309700000.0 11309700000.0 11309700000.0 11309700000.0 11309700000.0 11309700000.0 11309700000.0 11309700000.0 11309700000.0 11309700000.0 11309700000.0 11309700000.0 11309700000.0 11309700000.0 11309700000.0 11309700000.0 11309700000.0 11309700000.0 11309700000.0 11309700000.0 11309700000.0 11309700000.0 11309700000.0 11309700000.0 11309700000.0 11309700000.0 11309700000.0 11309700000.0 11309700000.0 11309700000.0 11309700000.0 11309700000.0 11309700000.0 11309700000.0 11309700000.0 11309700000.0 11309700000.0 11309700000.0 11309700000.0 11309700000.0 11309700000.0 11309700000.0 11309700000.0 11309700000.0 11309700000.0 11309700000.0 11309700000.0 11309700000.0 11309700000.0 11309700000.0 11309700000.0 11309700000.0 11309700000.0 11309700000.0 11309700000.0 11309700000.0 11309700000.0 11309700000.0 11309700000.0 11309700000.0 11309700000.0 11309700000.0 11309700000.0 11309700000.0 11309700000.0 11309700000.0 11309700000.0 11309700000.0 11309700000.0 11309700000.0 11309700000.0 11309700000.0 11309700000.0 11309700000.0 11309700000.0 11309700000.0 11309700000.0 11309700000.0 11309700000.0 11309700000.0 11309700000.0 11309700000.0 11309700000.0 11309700000.0 11309700000.0 11309700000.0 11309700000.0 11309700000.0 11309700000.0 11309700000.0 11309700000.0 11309700000.0 11309700000.0 11309700000.0 11309700000.0 11309700000.0 11309700000.0 11309700000.0 11309700000.0 11309700000.0 11309700000.0 11309700000.0 11309700000.0 11309700000.0 11309700000.0 11309700000.0 11309700000.0 11309700000.0 11309700000.0 11309700000.0 11309700000.0 11309700000.0 11309700000.0 11309700000.0 11309700000.0 11309700000.0 11309700000.0 11309700000.0 11309700000.0 11309700000.0 11309700000.0 11309700000.0 11309700000.0 11309700000.0 11309700000.0 11309700000.0 11309700000.0 11309700000.0 11309700000.0 11309700000.0 11309700000.0 11309700000.0 11309700000.0 11309700000.0 11309700000.0 11309700000.0 11309700000.0 11309700000.0 11309700000.0 11309700000.0 11309700000.0 11309700000.0 11309700000.0 11309700000.0 11309700000.0 11309700000.0 11309700000.0 11309700000.0 11309700000.0 11309700000.0 11309700000.0 11309700000.0 11309700000.0 11309700000.0 11309700000.0 11309700000.0 11309700000.0 11309700000.0 11309700000.0 11309700000.0 11309700000.0 11309700000.0 11309700000.0 11309700000.0 11309700000.0 11309700000.0 11309700000.0 11309700000.0 11309700000.0 11309700000.0 11309700000.0 11309700000.0 11309700000.0 11309700000.0 11309700000.0 11309700000.0 11309700000.0 11309700000.0 11309700000.0 11309700000.0 11309700000.0 11309700000.0 11309700000.0 11309700000.0 11309700000.0 11309700000.0 11309700000.0 11309700000.0 11309700000.0 11309700000.0 11309700000.0 11309700000.0 11309700000.0 11309700000.0 11309700000.0 11309700000.0 11309700000.0 11309700000.0 11309700000.0 11309700000.0 11309700000.0 11309700000.0 11309700000.0 11309700000.0 11309700000.0 11309700000.0 11309700000.0 11309700000.0 11309700000.0 11309700000.0 11309700000.0 11309700000.0 11309700000.0 11309700000.0 11309700000.0 11309700000.0 11309700000.0 11309700000.0 11309700000.0 11309700000.0 11309700000.0 11309700000.0 11309700000.0 11309700000.0 11309700000.0 11309700000.0 11309700000.0 11309700000.0 11309700000.0 11309700000.0 11309700000.0 11309700000.0 11309700000.0 11309700000.0 11309700000.0 11309700000.0 11309700000.0 11309700000.0 11309700000.0 11309700000.0 11309700000.0 11309700000.0 11309700000.0 11309700000.0 11309700000.0 11309700000.0 11309700000.0 11309700000.0 11309700000.0 11309700000.0 11309700000.0 11309700000.0 11309700000.0 11309700000.0 11309700000.0 11309700000.0 11309700000.0 11309700000.0 11309700000.0 11309700000.0 11309700000.0 11309700000.0 11309700000.0 11309700000.0 11309700000.0 11309700000.0 11309700000.0 11309700000.0 11309700000.0 11309700000.0 11309700000.0 11309700000.0 11309700000.0 11309700000.0 11309700000.0 11309700000.0 11309700000.0 11309700000.0 11309700000.0 11309700000.0 11309700000.0 11309700000.0 11309700000.0 11309700000.0 11309700000.0 11309700000.0 11309700000.0 11309700000.0 11309700000.0 11309700000.0 11309700000.0 11309700000.0 11309700000.0 11309700000.0 11309700000.0 11309700000.0 11309700000.0 11309700000.0 11309700000.0 11309700000.0 11309700000.0 11309700000.0 11309700000.0 11309700000.0 11309700000.0 11309700000.0 11309700000.0 11309700000.0 11309700000.0 11309700000.0 11309700000.0 11309700000.0 11309700000.0 11309700000.0 11309700000.0 11309700000.0 11309700000.0 11309700000.0 11309700000.0 11309700000.0 11309700000.0 11309700000.0 11309700000.0 11309700000.0 11309700000.0 11309700000.0 11309700000.0 11309700000.0 11309700000.0 11309700000.0 11309700000.0 11309700000.0 11309700000.0 11309700000.0 11309700000.0 11309700000.0 11309700000.0 11309700000.0 11309700000.0 11309700000.0 11309700000.0 11309700000.0 11309700000.0 11309700000.0 11309700000.0 11309700000.0 11309700000.0 11309700000.0 11309700000.0 11309700000.0 11309700000.0 11309700000.0 11309700000.0 11309700000.0 11309700000.0 11309700000.0 11309700000.0 11309700000.0 11309700000.0 11309700000.0 11309700000.0 11309700000.0 11309700000.0 11309700000.0 11309700000.0 11309700000.0 11309700000.0 11309700000.0 11309700000.0 11309700000.0 11309700000.0 11309700000.0 11309700000.0 11309700000.0 11309700000.0 11309700000.0 11309700000.0 11309700000.0 11309700000.0 11309700000.0 11309700000.0 11309700000.0 11309700000.0 11309700000.0 11309700000.0 11309700000.0 11309700000.0 11309700000.0 11309700000.0 11309700000.0 11309700000.0 11309700000.0 11309700000.0 11309700000.0 11309700000.0 11309700000.0 11309700000.0 11309700000.0 11309700000.0 11309700000.0 11309700000.0 11309700000.0 11309700000.0 11309700000.0 11309700000.0 11309700000.0 11309700000.0 11309700000.0 11309700000.0 11309700000.0 11309700000.0 11309700000.0 11309700000.0 11309700000.0 11309700000.0 11309700000.0 11309700000.0 11309700000.0 11309700000.0 11309700000.0 11309700000.0 11309700000.0 11309700000.0 11309700000.0 11309700000.0 11309700000.0 11309700000.0 11309700000.0 11309700000.0 11309700000.0 11309700000.0 11309700000.0 11309700000.0 11309700000.0 11309700000.0 11309700000.0 11309700000.0 11309700000.0 11309700000.0 11309700000.0 11309700000.0 11309700000.0 11309700000.0 11309700000.0 11309700000.0 11309700000.0 11309700000.0 11309700000.0 11309700000.0 11309700000.0 11309700000.0 11309700000.0 11309700000.0 11309700000.0 11309700000.0 11309700000.0 11309700000.0 11309700000.0 11309700000.0 11309700000.0 11309700000.0 11309700000.0 11309700000.0 11309700000.0 11309700000.0 11309700000.0 11309700000.0 11309700000.0 11309700000.0 11309700000.0 11309700000.0 11309700000.0 11309700000.0 11309700000.0 11309700000.0 11309700000.0 11309700000.0 11309700000.0 11309700000.0 11309700000.0 11309700000.0 11309700000.0 11309700000.0 11309700000.0 11309700000.0 11309700000.0 11309700000.0 11309700000.0 11309700000.0 11309700000.0 11309700000.0 11309700000.0 11309700000.0 11309700000.0 11309700000.0 11309700000.0 11309700000.0 11309700000.0 11309700000.0 11309700000.0 11309700000.0 11309700000.0 11309700000.0 11309700000.0 11309700000.0 11309700000.0 11309700000.0 11309700000.0 11309700000.0 11309700000.0 11309700000.0 11309700000.0 11309700000.0 11309700000.0 11309700000.0 11309700000.0 11309700000.0 11309700000.0 11309700000.0 11309700000.0 11309700000.0 11309700000.0 11309700000.0 11309700000.0 11309700000.0 11309700000.0 11309700000.0 11309700000.0 11309700000.0 11309700000.0 11309700000.0 11309700000.0 11309700000.0 11309700000.0 11309700000.0 11309700000.0 11309700000.0 11309700000.0 11309700000.0 11309700000.0 11309700000.0 11309700000.0 11309700000.0 11309700000.0 11309700000.0 11309700000.0 11309700000.0 11309700000.0 11309700000.0 11309700000.0 11309700000.0 11309700000.0 11309700000.0 11309700000.0 11309700000.0 11309700000.0 11309700000.0 11309700000.0 11309700000.0 11309700000.0 11309700000.0 11309700000.0 11309700000.0 11309700000.0 11309700000.0 11309700000.0 11309700000.0 11309700000.0 11309700000.0 11309700000.0 11309700000.0 11309700000.0 11309700000.0 11309700000.0 11309700000.0 11309700000.0 11309700000.0 11309700000.0 11309700000.0 11309700000.0 11309700000.0 11309700000.0 11309700000.0 11309700000.0 11309700000.0 11309700000.0 11309700000.0 11309700000.0 11309700000.0 11309700000.0 11309700000.0 11309700000.0 11309700000.0 11309700000.0 11309700000.0 11309700000.0 11309700000.0 11309700000.0 11309700000.0 11309700000.0 11309700000.0 11309700000.0 11309700000.0 11309700000.0 11309700000.0 11309700000.0 11309700000.0 11309700000.0 11309700000.0 11309700000.0 11309700000.0 11309700000.0 11309700000.0 11309700000.0 11309700000.0 11309700000.0 11309700000.0 11309700000.0 11309700000.0 11309700000.0 11309700000.0 11309700000.0 11309700000.0 11309700000.0 11309700000.0 11309700000.0 11309700000.0 11309700000.0 11309700000.0 11309700000.0 11309700000.0 11309700000.0 11309700000.0 11309700000.0 11309700000.0 11309700000.0 11309700000.0 11309700000.0 11309700000.0 11309700000.0 11309700000.0 11309700000.0 11309700000.0 11309700000.0 11309700000.0 11309700000.0 11309700000.0 11309700000.0 11309700000.0 11309700000.0 11309700000.0 11309700000.0 11309700000.0 11309700000.0 11309700000.0 11309700000.0 11309700000.0 11309700000.0 11309700000.0 11309700000.0 11309700000.0 11309700000.0 11309700000.0 11309700000.0 11309700000.0 11309700000.0 11309700000.0 11309700000.0 11309700000.0 11309700000.0 11309700000.0 11309700000.0 11309700000.0 11309700000.0 11309700000.0 11309700000.0 11309700000.0 11309700000.0 11309700000.0 11309700000.0 11309700000.0 11309700000.0 11309700000.0 11309700000.0 11309700000.0 11309700000.0 11309700000.0 11309700000.0 11309700000.0 11309700000.0 11309700000.0 11309700000.0 11309700000.0 11309700000.0 11309700000.0 11309700000.0 11309700000.0 11309700000.0 11309700000.0 11309700000.0 11309700000.0 11309700000.0 11309700000.0 11309700000.0 11309700000.0 11309700000.0 11309700000.0 11309700000.0 11309700000.0 11309700000.0 11309700000.0 11309700000.0 11309700000.0 11309700000.0 11309700000.0 11309700000.0 11309700000.0 11309700000.0 11309700000.0 11309700000.0 11309700000.0 11309700000.0 11309700000.0 11309700000.0 11309700000.0 11309700000.0 11309700000.0 11309700000.0 11309700000.0 11309700000.0 11309700000.0 11309700000.0 11309700000.0 11309700000.0 11309700000.0 11309700000.0 11309700000.0 11309700000.0 11309700000.0 11309700000.0 11309700000.0 11309700000.0 11309700000.0 11309700000.0 11309700000.0 11309700000.0 11309700000.0 11309700000.0 11309700000.0 11309700000.0 11309700000.0 11309700000.0 11309700000.0 11309700000.0 11309700000.0 11309700000.0 11309700000.0 11309700000.0 11309700000.0 11309700000.0 11309700000.0 11309700000.0 11309700000.0 11309700000.0 11309700000.0 11309700000.0 11309700000.0 11309700000.0 11309700000.0 11309700000.0 11309700000.0 11309700000.0 11309700000.0 11309700000.0 11309700000.0 11309700000.0 11309700000.0 11309700000.0 11309700000.0 11309700000.0 11309700000.0 11309700000.0 11309700000.0 11309700000.0 11309700000.0 11309700000.0 11309700000.0 11309700000.0 11309700000.0 11309700000.0 11309700000.0 11309700000.0 11309700000.0 11309700000.0 11309700000.0 11309700000.0 11309700000.0 11309700000.0 11309700000.0 11309700000.0 11309700000.0 11309700000.0 11309700000.0 11309700000.0 11309700000.0 11309700000.0 11309700000.0 11309700000.0 11309700000.0 11309700000.0 11309700000.0 11309700000.0 11309700000.0 11309700000.0 11309700000.0 11309700000.0 11309700000.0 11309700000.0 11309700000.0 11309700000.0 11309700000.0 11309700000.0 11309700000.0 11309700000.0 11309700000.0 11309700000.0 11309700000.0 11309700000.0 11309700000.0 11309700000.0 11309700000.0 11309700000.0 11309700000.0 11309700000.0 11309700000.0 11309700000.0 11309700000.0 11309700000.0 11309700000.0 11309700000.0 11309700000.0 11309700000.0 11309700000.0 11309700000.0 11309700000.0 11309700000.0 11309700000.0 11309700000.0 11309700000.0 11309700000.0 11309700000.0 11309700000.0 11309700000.0 11309700000.0 11309700000.0 11309700000.0 11309700000.0 11309700000.0 11309700000.0 11309700000.0 11309700000.0 11309700000.0 11309700000.0 11309700000.0 11309700000.0 11309700000.0 11309700000.0 11309700000.0 11309700000.0 11309700000.0 11309700000.0 11309700000.0 11309700000.0 11309700000.0 11309700000.0 11309700000.0 11309700000.0 11309700000.0 11309700000.0 11309700000.0 11309700000.0 11309700000.0 11309700000.0 11309700000.0 11309700000.0 11309700000.0 11309700000.0 11309700000.0 11309700000.0 11309700000.0 11309700000.0 11309700000.0 11309700000.0 11309700000.0 11309700000.0 11309700000.0 11309700000.0 11309700000.0 11309700000.0 11309700000.0 11309700000.0 11309700000.0 11309700000.0 11309700000.0 11309700000.0 11309700000.0 11309700000.0 11309700000.0 11309700000.0 11309700000.0 11309700000.0 11309700000.0 11309700000.0 11309700000.0 11309700000.0 11309700000.0 11309700000.0 11309700000.0 11309700000.0 11309700000.0 11309700000.0 11309700000.0 11309700000.0 11309700000.0 11309700000.0 11309700000.0 11309700000.0 11309700000.0 11309700000.0 11309700000.0 11309700000.0 11309700000.0 11309700000.0 11309700000.0 11309700000.0 11309700000.0 11309700000.0 11309700000.0 11309700000.0 11309700000.0 11309700000.0 11309700000.0 11309700000.0 11309700000.0 11309700000.0 11309700000.0 11309700000.0 11309700000.0 11309700000.0 11309700000.0 11309700000.0 11309700000.0 11309700000.0 11309700000.0 11309700000.0 11309700000.0 11309700000.0 11309700000.0 11309700000.0 11309700000.0 11309700000.0 11309700000.0 11309700000.0 11309700000.0 11309700000.0 11309700000.0 11309700000.0 11309700000.0 11309700000.0 11309700000.0 11309700000.0 11309700000.0 11309700000.0 11309700000.0 11309700000.0 11309700000.0 11309700000.0 11309700000.0 11309700000.0 11309700000.0 11309700000.0 11309700000.0 11309700000.0 11309700000.0 11309700000.0 11309700000.0 11309700000.0 11309700000.0 11309700000.0 11309700000.0 11309700000.0 11309700000.0 11309700000.0 11309700000.0 11309700000.0 11309700000.0 11309700000.0 11309700000.0 11309700000.0 11309700000.0 11309700000.0 11309700000.0 11309700000.0 11309700000.0 11309700000.0 11309700000.0 11309700000.0 11309700000.0 11309700000.0 11309700000.0 11309700000.0 11309700000.0 11309700000.0 11309700000.0 11309700000.0 11309700000.0 11309700000.0 11309700000.0 11309700000.0 11309700000.0 11309700000.0 11309700000.0 11309700000.0 11309700000.0 11309700000.0 11309700000.0 11309700000.0 11309700000.0 11309700000.0 11309700000.0 11309700000.0 11309700000.0 11309700000.0 11309700000.0 11309700000.0 11309700000.0 11309700000.0 11309700000.0 11309700000.0 11309700000.0 11309700000.0 11309700000.0 11309700000.0 11309700000.0 11309700000.0 11309700000.0 11309700000.0 11309700000.0 11309700000.0 11309700000.0 11309700000.0 11309700000.0 11309700000.0 11309700000.0 11309700000.0 11309700000.0 11309700000.0 11309700000.0 11309700000.0 11309700000.0 11309700000.0 11309700000.0 11309700000.0 11309700000.0 11309700000.0 11309700000.0 11309700000.0 11309700000.0 11309700000.0 11309700000.0 11309700000.0 11309700000.0 11309700000.0 11309700000.0 11309700000.0 11309700000.0 11309700000.0 11309700000.0 11309700000.0 11309700000.0 11309700000.0 11309700000.0 11309700000.0 11309700000.0 11309700000.0 11309700000.0 11309700000.0 11309700000.0 11309700000.0 11309700000.0 11309700000.0 11309700000.0 11309700000.0 11309700000.0 11309700000.0 11309700000.0 11309700000.0 11309700000.0 11309700000.0 11309700000.0 11309700000.0 11309700000.0 11309700000.0 11309700000.0 11309700000.0 11309700000.0 11309700000.0 11309700000.0 11309700000.0 11309700000.0 11309700000.0 11309700000.0 11309700000.0 11309700000.0 11309700000.0 11309700000.0 11309700000.0 11309700000.0 
SCALARS Velocity float 1
LOOKUP_TABLE default
0.76788 0.909466 1.03856 1.3798 1.29362 1.29362 1.3798 1.03856 0.909466 0.76788 0.769021 0.836815 1.2879 1.09001 1.26995 0.751078 1.07882 0.867618 0.911512 0.892149 0.894047 0.893873 0.893928 0.893918 0.893916 0.893909 0.893884 0.893895 0.893857 0.893863 0.8939 0.893826 0.8939 0.893863 0.893857 0.893895 0.893884 0.893909 0.893916 0.893918 0.893928 0.893873 0.894047 0.892149 0.911512 0.867618 1.07882 0.751078 1.26995 1.09001 1.2879 0.836815 0.769021 0.748777 0.804889 0.922159 1.18861 1.08592 1.00719 1.09095 1.09095 1.00719 1.08592 1.18861 0.922159 0.804889 0.748777 0.729521 0.719484 0.754157 0.864029 0.976076 0.870895 0.752798 0.875933 0.920663 0.894252 0.894803 0.894689 0.894508 0.894327 0.894161 0.894073 0.893933 0.893955 0.893986 0.893865 0.893915 0.893825 0.893915 0.893865 0.893986 0.893955 0.893933 0.894073 0.894161 0.894327 0.894508 0.894689 0.894803 0.894252 0.920663 0.875933 0.752798 0.870895 0.976076 0.864029 0.754157 0.719484 0.729521 0.720933 0.721758 0.719529 0.759358 0.81129 0.884162 0.901303 0.979261 0.744643 0.893193 1.05214 0.64647 1.10753 0.855823 0.926727 0.891622 0.893983 0.893833 0.893852 0.893841 0.89385 0.893824 0.893869 0.893802 0.893894 0.893797 0.893907 0.893822 0.893907 0.893797 0.893894 0.893802 0.893869 0.893824 0.89385 0.893841 0.893852 0.893833 0.893983 0.891622 0.926727 0.855823 1.10753 0.64647 1.05214 0.893193 0.744643 0.979261 0.901303 0.884162 0.81129 0.759358 0.719529 0.721758 0.720933 0.735296 0.711245 0.713616 0.771897 0.839433 0.881148 0.779922 0.894762 0.96407 0.96407 0.894762 0.779922 0.881148 0.839433 0.771897 0.713616 0.711245 0.735296 0.735073 0.72232 0.722365 0.696244 0.670613 0.896452 0.867917 0.924218 0.943615 0.613337 1.13105 0.829767 0.936555 0.889525 0.89524 0.893805 0.893971 0.893954 0.893977 0.893788 0.894045 0.893774 0.893917 0.893771 0.893908 0.893792 0.893908 0.893771 0.893917 0.893774 0.894045 0.893788 0.893977 0.893954 0.893971 0.893805 0.89524 0.889525 0.936555 0.829767 1.13105 0.613337 0.943615 0.924218 0.867917 0.896452 0.670613 0.696244 0.722365 0.72232 0.735073 0.717379 0.728275 0.737543 0.720515 0.690085 0.702903 0.814709 0.948426 0.896578 0.887815 0.948754 0.753777 0.700462 1.13473 0.790695 0.948445 0.886139 0.896188 0.893544 0.893784 0.893931 0.894072 0.894065 0.894098 0.893821 0.894053 0.89378 0.893913 0.893779 0.893913 0.89378 0.894053 0.893821 0.894098 0.894065 0.894072 0.893931 0.893784 0.893544 0.896188 0.886139 0.948445 0.790695 1.13473 0.700462 0.753777 0.948754 0.887815 0.896578 0.948426 0.814709 0.702903 0.690085 0.720515 0.737543 0.728275 0.717379 0.638744 0.689098 0.700006 0.716705 0.718758 0.637962 0.641898 0.773067 0.93816 0.900997 0.920003 0.892239 0.755209 0.755209 0.892239 0.920003 0.900997 0.93816 0.773067 0.641898 0.637962 0.718758 0.716705 0.700006 0.689098 0.638744 0.592042 0.65762 0.703598 0.667173 0.691294 0.671007 0.640877 0.901296 0.876645 0.903778 0.925695 0.847818 0.736702 1.1029 0.732142 0.957971 0.880041 0.896568 0.893274 0.893989 0.893837 0.893856 0.893844 0.89388 0.893717 0.893954 0.89376 0.893911 0.893779 0.893911 0.89376 0.893954 0.893717 0.89388 0.893844 0.893856 0.893837 0.893989 0.893274 0.896568 0.880041 0.957971 0.732142 1.1029 0.736702 0.847818 0.925695 0.903778 0.876645 0.901296 0.640877 0.671007 0.691294 0.667173 0.703598 0.65762 0.592042 0.444722 0.601898 0.66846 0.657787 0.649208 0.618721 0.494526 0.578694 0.924363 0.880119 0.876233 0.881557 0.822711 1.05675 0.742122 0.969562 0.879195 0.897231 0.893257 0.894055 0.893851 0.893884 0.893884 0.893902 0.893741 0.893944 0.893775 0.893916 0.893778 0.893916 0.893775 0.893944 0.893741 0.893902 0.893884 0.893884 0.893851 0.894055 0.893257 0.897231 0.879195 0.969562 0.742122 1.05675 0.822711 0.881557 0.876233 0.880119 0.924363 0.578694 0.494526 0.618721 0.649208 0.657787 0.66846 0.601898 0.444722 0.426288 0.405473 0.422124 0.540667 0.64833 0.651828 0.650577 0.632019 0.48094 0.49593 1.01459 0.91753 0.872176 0.901641 0.841157 0.83259 0.870856 0.870856 0.83259 0.841157 0.901641 0.872176 0.91753 1.01459 0.49593 0.48094 0.632019 0.650577 0.651828 0.64833 0.540667 0.422124 0.405473 0.426288 0.446271 0.37307 0.574359 0.637029 0.655752 0.608998 0.774606 0.852815 0.558705 0.537239 1.37946 0.925291 0.901833 0.862683 0.811716 0.853496 0.996887 0.761911 0.982588 0.876079 0.897778 0.89316 0.894354 0.894063 0.893992 0.893924 0.893907 0.8939 0.893909 0.893781 0.893929 0.893777 0.893929 0.893781 0.893909 0.8939 0.893907 0.893924 0.893992 0.894063 0.894354 0.89316 0.897778 0.876079 0.982588 0.761911 0.996887 0.853496 0.811716 0.862683 0.901833 0.925291 1.37946 0.537239 0.558705 0.852815 0.774606 0.608998 0.655752 0.637029 0.574359 0.37307 0.446271 0.429349 0.434966 0.383963 0.396323 0.672872 0.589431 0.625606 0.883247 0.799729 1.09038 0.889514 1.02572 0.82708 0.986839 0.751883 0.991595 0.873916 0.899329 0.894064 0.895218 0.894628 0.894435 0.894221 0.894089 0.894011 0.893967 0.893799 0.8939 0.893776 0.8939 0.893799 0.893967 0.894011 0.894089 0.894221 0.894435 0.894628 0.895218 0.894064 0.899329 0.873916 0.991595 0.751883 0.986839 0.82708 1.02572 0.889514 1.09038 0.799729 0.883247 0.625606 0.589431 0.672872 0.396323 0.383963 0.434966 0.429349 0.428852 0.427866 0.447143 0.471118 0.270409 0.573672 0.609253 0.528117 0.562325 0.697142 0.802527 0.556715 0.242456 0.803418 0.921528 0.878753 0.894738 0.811048 0.851617 0.851617 0.811048 0.894738 0.878753 0.921528 0.803418 0.242456 0.556715 0.802526 0.697142 0.562325 0.528117 0.609253 0.573672 0.270409 0.471118 0.447143 0.427866 0.428852 0.426628 0.426553 0.441648 0.45364 0.527384 0.632635 0.696719 0.625861 0.912021 0.710094 0.615514 0.783037 0.216209 0.970361 0.871197 0.893383 0.921206 0.877167 0.982347 0.85962 1.00593 0.757889 0.99731 0.866119 0.901138 0.896384 0.896107 0.895505 0.894781 0.894351 0.894151 0.894038 0.893963 0.893905 0.893855 0.893846 0.893855 0.893905 0.893963 0.894038 0.894151 0.894351 0.894781 0.895505 0.896107 0.896384 0.901138 0.866119 0.99731 0.757889 1.00593 0.85962 0.982347 0.877167 0.921206 0.893383 0.871197 0.970361 0.216209 0.783037 0.615514 0.710094 0.912021 0.625861 0.696719 0.632635 0.527384 0.45364 0.441648 0.426553 0.426628 0.0972102 0.428364 0.411876 0.357173 0.426387 0.385784 0.608894 0.686401 0.433189 0.500973 0.360412 0.538626 0.471364 0.90963 0.915885 0.910537 0.751452 0.942841 0.846092 0.954691 0.868848 0.89972 0.892972 0.894098 0.893991 0.894003 0.893953 0.89405 0.893769 0.894251 0.893757 0.894251 0.893769 0.89405 0.893953 0.894003 0.893991 0.894098 0.892972 0.89972 0.868848 0.954691 0.846092 0.942841 0.751452 0.910537 0.915885 0.90963 0.471364 0.538626 0.360412 0.500973 0.433189 0.686401 0.608894 0.385784 0.426387 0.357173 0.411876 0.428364 0.0972102 0.120824 0.301384 0.365531 0.337155 0.162136 0.630665 1.22387 0.623441 0.871184 0.749094 0.63638 0.455061 0.408485 0.414193 0.230044 0.909087 0.865705 0.861001 0.763264 0.712246 0.712246 0.763264 0.861001 0.865705 0.909087 0.230044 0.414193 0.408485 0.455061 0.63638 0.749094 0.871184 0.623441 1.22387 0.630665 0.162136 0.337155 0.365531 0.301384 0.120824 0.252162 0.232111 0.351401 0.184328 0.253252 1.64213 0.888075 0.725026 0.83147 0.764213 0.690929 0.589701 0.278204 0.475553 0.863136 0.859495 0.863538 0.844819 0.893519 0.86147 0.677284 0.881356 0.746968 1.10134 0.833 0.921312 0.899288 0.900229 0.898836 0.897744 0.896727 0.895864 0.895201 0.894627 0.894181 0.893931 0.893776 0.893931 0.894181 0.894627 0.895201 0.895864 0.896727 0.897744 0.898836 0.900229 0.899288 0.921312 0.833 1.10134 0.746968 0.881356 0.677284 0.86147 0.893519 0.844819 0.863538 0.859495 0.863136 0.475553 0.278204 0.589701 0.690929 0.764213 0.83147 0.725026 0.888075 1.64213 0.253252 0.184328 0.351401 0.232111 0.252162 0.299801 0.238245 0.282355 0.234778 0.56547 1.22491 0.780801 0.699646 0.807552 0.774426 0.717187 0.686361 0.594368 0.45091 0.792256 0.827323 0.63243 0.895916 0.759642 0.908309 0.845359 0.897154 0.894538 0.894485 0.894351 0.894192 0.894035 0.893912 0.893843 0.893834 0.893839 0.89385 0.89379 0.89385 0.893839 0.893834 0.893843 0.893912 0.894035 0.894192 0.894351 0.894485 0.894538 0.897154 0.845359 0.908309 0.759642 0.895916 0.63243 0.827323 0.792256 0.45091 0.594368 0.686361 0.717187 0.774426 0.807552 0.699646 0.780801 1.22491 0.56547 0.234778 0.282355 0.238245 0.299801 0.454101 0.343149 0.415461 0.633582 0.685004 0.705173 0.5586 0.377938 0.452329 0.655281 0.923584 0.873553 0.854623 0.854623 0.873553 0.923584 0.655281 0.452329 0.377938 0.5586 0.705173 0.685004 0.633582 0.415461 0.343149 0.454101 0.504623 0.404904 0.218019 0.823081 0.674783 0.984227 0.758972 0.670023 0.759135 0.718293 0.672092 0.499852 0.422779 0.718014 0.723139 0.886205 0.816236 0.822832 0.926855 0.745155 0.899573 0.778022 0.893861 0.839072 0.893832 0.893832 0.893832 0.893832 0.893832 0.893832 0.893832 0.893832 0.893832 0.893832 0.893832 0.893801 0.893832 0.893832 0.893832 0.893832 0.893832 0.893832 0.893832 0.893832 0.893832 0.893832 0.893832 0.839072 0.893861 0.778022 0.899573 0.745155 0.926855 0.822832 0.816236 0.886205 0.723139 0.718014 0.422779 0.499852 0.672092 0.718293 0.759135 0.670023 0.758972 0.984227 0.674783 0.823081 0.218019 0.404904 0.504623 0.619074 0.357615 0.71097 0.617768 0.857185 0.749273 0.6755 0.723932 0.70549 0.716355 0.612587 0.883862 0.824091 0.993835 0.963521 0.803654 0.915475 0.892216 0.894236 0.894123 0.894121 0.894104 0.894064 0.894015 0.893969 0.893927 0.893889 0.893862 0.893848 0.893814 0.893848 0.893862 0.893889 0.893927 0.893969 0.894015 0.894064 0.894104 0.894121 0.894123 0.894236 0.892216 0.915475 0.803654 0.963521 0.993835 0.824091 0.883862 0.612587 0.716355 0.70549 0.723932 0.6755 0.749273 0.857185 0.617768 0.71097 0.357615 0.619074 0.870729 0.604099 0.629294 0.673569 0.749073 0.61189 0.74174 0.727766 0.701517 0.73108 0.761677 0.644805 0.766232 0.672097 0.917698 0.798635 0.80318 0.791671 0.791671 0.80318 0.798635 0.917698 0.672097 0.766232 0.644805 0.761677 0.73108 0.701517 0.727766 0.74174 0.61189 0.749073 0.673569 0.629294 0.604099 0.870729 0.893998 0.408568 0.759682 0.651047 0.714989 0.746531 0.814442 0.669473 0.713045 0.781017 0.628523 0.868182 0.855258 0.8239 0.942527 0.820505 0.906103 0.82654 0.894904 0.825102 0.893832 0.893832 0.893832 0.893832 0.893832 0.893832 0.893832 0.893832 0.893832 0.893832 0.893832 0.893832 0.893832 0.893821 0.893832 0.893832 0.893832 0.893832 0.893832 0.893832 0.893832 0.893832 0.893832 0.893832 0.893832 0.893832 0.893832 0.825102 0.894904 0.82654 0.906103 0.820505 0.942527 0.8239 0.855258 0.868182 0.628523 0.781017 0.713045 0.669473 0.814442 0.746531 0.714989 0.651047 0.759682 0.408568 0.893998 0.639335 0.704984 0.706438 0.727226 0.651589 0.651589 0.727226 0.706438 0.704984 0.639335 0.922379 0.607775 0.601595 0.667974 0.712436 0.75772 0.620099 0.804674 0.785409 0.774174 0.855535 0.757296 0.721805 0.802537 0.849848 0.905475 0.85698 0.973083 0.854156 0.943812 0.853149 0.919554 0.84831 0.899876 0.895272 0.895088 0.894819 0.894592 0.894408 0.89426 0.894138 0.894039 0.893961 0.893904 0.893864 0.893841 0.89383 0.893841 0.893864 0.893904 0.893961 0.894039 0.894138 0.89426 0.894408 0.894592 0.894819 0.895088 0.895272 0.899876 0.84831 0.919554 0.853149 0.943812 0.854156 0.973083 0.85698 0.905475 0.849848 0.802537 0.721805 0.757296 0.855535 0.774174 0.785409 0.804674 0.620099 0.75772 0.712436 0.667974 0.601595 0.607775 0.922379 0.806318 0.815448 0.776334 0.821171 0.846719 0.855866 0.852722 0.752641 0.776513 0.793916 0.827904 0.790096 0.854545 0.86554 0.897993 0.88612 0.897813 0.879195 0.89648 0.879696 0.895528 0.861501 0.89436 0.860748 0.893832 0.893832 0.893832 0.893832 0.893832 0.893832 0.893832 0.893832 0.893832 0.893832 0.893832 0.893832 0.893832 0.893832 0.893832 0.893832 0.893832 0.893832 0.893832 0.893832 0.893832 0.893832 0.893832 0.893832 0.893832 0.893832 0.893832 0.860748 0.89436 0.861501 0.895528 0.879696 0.89648 0.879195 0.897813 0.88612 0.897993 0.86554 0.854545 0.790096 0.827904 0.793916 0.776513 0.752641 0.852722 0.855866 0.846719 0.821171 0.776334 0.815448 0.806318 0.874592 0.889346 0.872252 0.890995 0.915211 0.90722 0.915147 0.73061 0.814486 0.831319 0.840925 0.84155 0.914009 0.886923 0.912719 0.891997 0.90549 0.881261 0.900218 0.883882 0.897174 0.862154 0.895037 0.869294 0.894073 0.89389 0.893877 0.893867 0.893858 0.893851 0.893845 0.893841 0.893838 0.893836 0.893834 0.893833 0.893832 0.893832 0.893832 0.893833 0.893834 0.893836 0.893838 0.893841 0.893845 0.893851 0.893858 0.893867 0.893877 0.89389 0.894073 0.869294 0.895037 0.862154 0.897174 0.883882 0.900218 0.881261 0.90549 0.891997 0.912719 0.886923 0.914009 0.84155 0.840925 0.831319 0.814486 0.73061 0.915147 0.90722 0.915211 0.890995 0.872252 0.889346 0.874592 0.883621 0.895261 0.877633 0.896202 0.914399 0.918441 0.927737 0.770053 0.832243 0.855322 0.85799 0.853875 0.90069 0.887095 0.894325 0.888128 0.894186 0.882168 0.894027 0.883637 0.893917 0.86377 0.89385 0.876204 0.893832 0.893832 0.893832 0.893832 0.893832 0.893832 0.893832 0.893832 0.893832 0.893832 0.893832 0.893832 0.893832 0.893832 0.893832 0.893832 0.893832 0.893832 0.893832 0.893832 0.893832 0.893832 0.893832 0.893832 0.893832 0.893832 0.893832 0.876204 0.89385 0.86377 0.893917 0.883637 0.894027 0.882168 0.894186 0.888128 0.894325 0.887095 0.90069 0.853875 0.85799 0.855322 0.832243 0.770053 0.927737 0.918441 0.914399 0.896202 0.877633 0.895261 0.883621 0.887587 0.895708 0.880382 0.892476 0.904355 0.914984 0.920374 0.798566 0.8358 0.859735 0.856126 0.859887 0.889684 0.888335 0.89447 0.885644 0.894257 0.884046 0.89406 0.883342 0.89393 0.866672 0.893856 0.882107 0.893834 0.893833 0.893832 0.893832 0.893832 0.893832 0.893832 0.893832 0.893832 0.893832 0.893832 0.893832 0.893832 0.893832 0.893832 0.893832 0.893832 0.893832 0.893832 0.893832 0.893832 0.893832 0.893832 0.893832 0.893832 0.893833 0.893834 0.882107 0.893856 0.866672 0.89393 0.883342 0.89406 0.884046 0.894257 0.885644 0.89447 0.888335 0.889684 0.859887 0.856126 0.859735 0.8358 0.798566 0.920374 0.914984 0.904355 0.892476 0.880382 0.895708 0.887587 0.889666 0.895351 0.882195 0.888905 0.895773 0.909869 0.912791 0.822468 0.841748 0.865718 0.857031 0.866383 0.882454 0.891082 0.893832 0.885127 0.893832 0.885729 0.893832 0.883322 0.893832 0.870392 0.893832 0.886452 0.893832 0.893832 0.893832 0.893832 0.893832 0.893832 0.893832 0.893832 0.893832 0.893832 0.893832 0.893832 0.893832 0.893832 0.893832 0.893832 0.893832 0.893832 0.893832 0.893832 0.893832 0.893832 0.893832 0.893832 0.893832 0.893832 0.893832 0.886452 0.893832 0.870392 0.893832 0.883322 0.893832 0.885729 0.893832 0.885127 0.893832 0.891082 0.882454 0.866383 0.857031 0.865718 0.841748 0.822468 0.912791 0.909869 0.895773 0.888905 0.882195 0.895351 0.889666 0.890902 0.894983 0.883732 0.886198 0.888936 0.904832 0.906507 0.843009 0.849775 0.873053 0.860444 0.872744 0.879146 0.893635 0.893832 0.885829 0.893832 0.886758 0.893832 0.883452 0.893832 0.874385 0.893832 0.889604 0.893832 0.893832 0.893832 0.893832 0.893832 0.893832 0.893832 0.893832 0.893832 0.893832 0.893832 0.893832 0.893832 0.893832 0.893832 0.893832 0.893832 0.893832 0.893832 0.893832 0.893832 0.893832 0.893832 0.893832 0.893832 0.893832 0.893832 0.889604 0.893832 0.874385 0.893832 0.883452 0.893832 0.886758 0.893832 0.885829 0.893832 0.893635 0.879146 0.872744 0.860444 0.873053 0.849775 0.843009 0.906507 0.904832 0.888936 0.886198 0.883732 0.894983 0.890902 0.891699 0.894649 0.885321 0.884393 0.884373 0.900704 0.901603 0.859992 0.858503 0.87942 0.864935 0.878251 0.878429 0.894601 0.893832 0.887063 0.893832 0.887258 0.893832 0.883737 0.893832 0.878304 0.893832 0.891889 0.893832 0.893832 0.893832 0.893832 0.893832 0.893832 0.893832 0.893832 0.893832 0.893832 0.893832 0.893832 0.893832 0.893832 0.893832 0.893832 0.893832 0.893832 0.893832 0.893832 0.893832 0.893832 0.893832 0.893832 0.893832 0.893832 0.893832 0.891889 0.893832 0.878304 0.893832 0.883737 0.893832 0.887258 0.893832 0.887063 0.893832 0.894601 0.878429 0.878251 0.864935 0.87942 0.858503 0.859992 0.901603 0.900704 0.884373 0.884393 0.885321 0.894649 0.891699 0.892131 0.894136 0.886928 0.883453 0.881989 0.897531 0.897525 0.872559 0.866565 0.883902 0.869551 0.882702 0.879132 0.89443 0.893832 0.888264 0.893832 0.887481 0.893832 0.884195 0.893832 0.881925 0.893832 0.893163 0.893832 0.893832 0.893832 0.893832 0.893832 0.893832 0.893832 0.893832 0.893832 0.893832 0.893832 0.893832 0.893832 0.893832 0.893832 0.893832 0.893832 0.893832 0.893832 0.893832 0.893832 0.893832 0.893832 0.893832 0.893832 0.893832 0.893832 0.893163 0.893832 0.881925 0.893832 0.884195 0.893832 0.887481 0.893832 0.888264 0.893832 0.89443 0.879132 0.882702 0.869551 0.883902 0.866565 0.872559 0.897525 0.897531 0.881989 0.883453 0.886928 0.894136 0.892131 0.892293 0.893386 0.888454 0.883261 0.881186 0.895195 0.893981 0.881224 0.873097 0.886659 0.87382 0.885633 0.880644 0.893895 0.893832 0.889094 0.893832 0.887572 0.893832 0.884801 0.893832 0.88507 0.893832 0.89366 0.893832 0.893832 0.893832 0.893832 0.893832 0.893832 0.893832 0.893832 0.893832 0.893832 0.893832 0.893832 0.893832 0.893832 0.893832 0.893832 0.893832 0.893832 0.893832 0.893832 0.893832 0.893832 0.893832 0.893832 0.893832 0.893832 0.893832 0.89366 0.893832 0.88507 0.893832 0.884801 0.893832 0.887572 0.893832 0.889094 0.893832 0.893895 0.880644 0.885633 0.87382 0.886659 0.873097 0.881224 0.893981 0.895195 0.881186 0.883261 0.888454 0.893386 0.892293 0.892347 0.892503 0.889808 0.883635 0.88133 0.893544 0.89116 0.886505 0.877933 0.888067 0.87731 0.887014 0.882557 0.893356 0.893832 0.88954 0.893832 0.887618 0.893832 0.885515 0.893832 0.887633 0.893832 0.893799 0.893832 0.893832 0.893832 0.893832 0.893832 0.893832 0.893832 0.893832 0.893832 0.893832 0.893832 0.893832 0.893832 0.893832 0.893832 0.893832 0.893832 0.893832 0.893832 0.893832 0.893832 0.893832 0.893832 0.893832 0.893832 0.893832 0.893832 0.893799 0.893832 0.887633 0.893832 0.885515 0.893832 0.887618 0.893832 0.88954 0.893832 0.893356 0.882557 0.887014 0.87731 0.888067 0.877933 0.886505 0.89116 0.893544 0.88133 0.883635 0.889808 0.892503 0.892347 0.88439 0.882009 0.881254 0.879893 0.887445 0.884567 0.892897 0.893832 0.889746 0.893832 0.887702 0.893832 0.886303 0.893832 0.889606 0.893832 0.893827 0.893832 0.893832 0.893832 0.893832 0.893832 0.893832 0.893832 0.893832 0.893832 0.893832 0.893832 0.893832 0.893832 0.893832 0.893832 0.893832 0.893832 0.893832 0.893832 0.893832 0.893832 0.893832 0.893832 0.893832 0.893832 0.893832 0.893832 0.893827 0.893832 0.889606 0.893832 0.886303 0.893832 0.887702 0.893832 0.889746 0.893832 0.892897 0.884567 0.887445 0.879893 0.881254 0.882009 0.88439 0.892418 0.891615 0.89093 0.892407 0.889208 0.888944 0.888461 0.888461 0.888944 0.889208 0.892407 0.89093 0.891615 0.892418 0.892536 0.890813 0.89179 0.885385 0.883007 0.891642 0.887997 0.889572 0.883336 0.888084 0.881718 0.887553 0.886494 0.892525 0.893832 0.88984 0.893832 0.887875 0.893832 0.887134 0.893832 0.891049 0.893832 0.893832 0.893832 0.893832 0.893832 0.893832 0.893832 0.893832 0.893832 0.893832 0.893832 0.893832 0.893832 0.893832 0.893832 0.893832 0.893832 0.893832 0.893832 0.893832 0.893832 0.893832 0.893832 0.893832 0.893832 0.893832 0.893832 0.893832 0.893832 0.893832 0.893832 0.891049 0.893832 0.887134 0.893832 0.887875 0.893832 0.88984 0.893832 0.892525 0.886494 0.887553 0.881718 0.888084 0.883336 0.889572 0.887997 0.891642 0.883007 0.885385 0.89179 0.890813 0.892536 0.892671 0.890148 0.892379 0.886505 0.884187 0.891144 0.88729 0.889431 0.884452 0.88724 0.882968 0.887667 0.888233 0.892229 0.893832 0.889897 0.893832 0.888148 0.893832 0.887981 0.893832 0.89206 0.893832 0.893832 0.893832 0.893832 0.893832 0.893832 0.893832 0.893832 0.893832 0.893832 0.893832 0.893832 0.893832 0.893832 0.893832 0.893832 0.893832 0.893832 0.893832 0.893832 0.893832 0.893832 0.893832 0.893832 0.893832 0.893832 0.893832 0.893832 0.893832 0.893832 0.893832 0.89206 0.893832 0.887981 0.893832 0.888148 0.893832 0.889897 0.893832 0.892229 0.888233 0.887667 0.882968 0.88724 0.884452 0.889431 0.88729 0.891144 0.884187 0.886505 0.892379 0.890148 0.892671 0.892781 0.88964 0.892711 0.887646 0.885436 0.890832 0.886898 0.889127 0.884881 0.886292 0.883821 0.887881 0.889721 0.891998 0.893832 0.889955 0.893832 0.888506 0.893832 0.888814 0.893832 0.892742 0.893832 0.893832 0.893832 0.893832 0.893832 0.893832 0.893832 0.893832 0.893832 0.893832 0.893832 0.893832 0.893832 0.893832 0.893832 0.893832 0.893832 0.893832 0.893832 0.893832 0.893832 0.893832 0.893832 0.893832 0.893832 0.893832 0.893832 0.893832 0.893832 0.893832 0.893832 0.892742 0.893832 0.888814 0.893832 0.888506 0.893832 0.889955 0.893832 0.891998 0.889721 0.887881 0.883821 0.886292 0.884881 0.889127 0.886898 0.890832 0.885436 0.887646 0.892711 0.88964 0.892781 0.892834 0.889284 0.892823 0.88872 0.886663 0.890647 0.88671 0.888869 0.884925 0.885516 0.884466 0.888189 0.890926 0.891825 0.893832 0.890032 0.893832 0.88892 0.893832 0.889608 0.893832 0.893186 0.893832 0.893832 0.893832 0.893832 0.893832 0.893832 0.893832 0.893832 0.893832 0.893832 0.893832 0.893832 0.893832 0.893832 0.893832 0.893832 0.893832 0.893832 0.893832 0.893832 0.893832 0.893832 0.893832 0.893832 0.893832 0.893832 0.893832 0.893832 0.893832 0.893832 0.893832 0.893186 0.893832 0.889608 0.893832 0.88892 0.893832 0.890032 0.893832 0.891825 0.890926 0.888189 0.884466 0.885516 0.884925 0.888869 0.88671 0.890647 0.886663 0.88872 0.892823 0.889284 0.892834 0.89282 0.889061 0.892769 0.889673 0.887807 0.890545 0.886659 0.888687 0.884858 0.885037 0.885055 0.888556 0.891853 0.891702 0.893832 0.890136 0.893832 0.889363 0.893832 0.890341 0.893832 0.893463 0.893832 0.893832 0.893832 0.893832 0.893832 0.893832 0.893832 0.893832 0.893832 0.893832 0.893832 0.893832 0.893832 0.893832 0.893832 0.893832 0.893832 0.893832 0.893832 0.893832 0.893832 0.893832 0.893832 0.893832 0.893832 0.893832 0.893832 0.893832 0.893832 0.893832 0.893832 0.893463 0.893832 0.890341 0.893832 0.889363 0.893832 0.890136 0.893832 0.891702 0.891853 0.888556 0.885055 0.885037 0.884858 0.888687 0.886659 0.890545 0.887807 0.889673 0.892769 0.889061 0.89282 0.892741 0.88895 0.892603 0.890477 0.888834 0.890496 0.8867 0.888565 0.884856 0.884866 0.88567 0.88895 0.892532 0.891624 0.893832 0.89027 0.893832 0.889816 0.893832 0.890999 0.893832 0.89363 0.893832 0.893832 0.893832 0.893832 0.893832 0.893832 0.893832 0.893832 0.893832 0.893832 0.893832 0.893832 0.893832 0.893832 0.893832 0.893832 0.893832 0.893832 0.893832 0.893832 0.893832 0.893832 0.893832 0.893832 0.893832 0.893832 0.893832 0.893832 0.893832 0.893832 0.893832 0.89363 0.893832 0.890999 0.893832 0.889816 0.893832 0.89027 0.893832 0.891624 0.892532 0.88895 0.88567 0.884866 0.884856 0.888565 0.8867 0.890496 0.888834 0.890477 0.892603 0.88895 0.892741 0.892611 0.888931 0.892372 0.891128 0.889726 0.89048 0.8868 0.888493 0.884996 0.884958 0.886331 0.889347 0.893009 0.891584 0.893832 0.890434 0.893832 0.890262 0.893832 0.891576 0.893832 0.893727 0.893832 0.893832 0.893832 0.893832 0.893832 0.893832 0.893832 0.893832 0.893832 0.893832 0.893832 0.893832 0.893832 0.893832 0.893832 0.893832 0.893832 0.893832 0.893832 0.893832 0.893832 0.893832 0.893832 0.893832 0.893832 0.893832 0.893832 0.893832 0.893832 0.893832 0.893832 0.893727 0.893832 0.891576 0.893832 0.890262 0.893832 0.890434 0.893832 0.891584 0.893009 0.889347 0.886331 0.884958 0.884996 0.888493 0.8868 0.89048 0.889726 0.891128 0.892372 0.888931 0.892611 0.892445 0.888983 0.892115 0.891634 0.890478 0.890483 0.886938 0.888465 0.885287 0.885255 0.887025 0.889732 0.893331 0.891578 0.893832 0.890624 0.893832 0.890689 0.893832 0.892068 0.893832 0.89378 0.893832 0.893832 0.893832 0.893832 0.893832 0.893832 0.893832 0.893832 0.893832 0.893832 0.893832 0.893832 0.893832 0.893832 0.893832 0.893832 0.893832 0.893832 0.893832 0.893832 0.893832 0.893832 0.893832 0.893832 0.893832 0.893832 0.893832 0.893832 0.893832 0.893832 0.893832 0.89378 0.893832 0.892068 0.893832 0.890689 0.893832 0.890624 0.893832 0.891578 0.893331 0.889732 0.887025 0.885255 0.885287 0.888465 0.886938 0.890483 0.890478 0.891634 0.892115 0.888983 0.892445 0.892261 0.88909 0.891858 0.89201 0.891094 0.890497 0.8871 0.888478 0.885705 0.885698 0.887728 0.890095 0.893539 0.891601 0.893832 0.890832 0.893832 0.89109 0.893832 0.892478 0.893832 0.893808 0.893832 0.893832 0.893832 0.893832 0.893832 0.893832 0.893832 0.893832 0.893832 0.893832 0.893832 0.893832 0.893832 0.893832 0.893832 0.893832 0.893832 0.893832 0.893832 0.893832 0.893832 0.893832 0.893832 0.893832 0.893832 0.893832 0.893832 0.893832 0.893832 0.893832 0.893832 0.893808 0.893832 0.892478 0.893832 0.89109 0.893832 0.890832 0.893832 0.891601 0.893539 0.890095 0.887728 0.885698 0.885705 0.888478 0.8871 0.890497 0.891094 0.89201 0.891858 0.88909 0.892261 0.892074 0.889239 0.891621 0.892276 0.891584 0.890518 0.887281 0.888532 0.886218 0.886234 0.888421 0.890432 0.893669 0.891649 0.893832 0.891054 0.893832 0.891461 0.893832 0.892812 0.893832 0.893822 0.893832 0.893832 0.893832 0.893832 0.893832 0.893832 0.893832 0.893832 0.893832 0.893832 0.893832 0.893832 0.893832 0.893832 0.893832 0.893832 0.893832 0.893832 0.893832 0.893832 0.893832 0.893832 0.893832 0.893832 0.893832 0.893832 0.893832 0.893832 0.893832 0.893832 0.893832 0.893822 0.893832 0.892812 0.893832 0.891461 0.893832 0.891054 0.893832 0.891649 0.893669 0.890432 0.888421 0.886234 0.886218 0.888532 0.887281 0.890518 0.891584 0.892276 0.891621 0.889239 0.892074 0.891897 0.889415 0.891417 0.892453 0.891962 0.890543 0.88748 0.888623 0.886794 0.886822 0.889085 0.890741 0.893746 0.891717 0.893832 0.891282 0.893832 0.891798 0.893832 0.893078 0.893832 0.893828 0.893832 0.893832 0.893832 0.893832 0.893832 0.893832 0.893832 0.893832 0.893832 0.893832 0.893832 0.893832 0.893832 0.893832 0.893832 0.893832 0.893832 0.893832 0.893832 0.893832 0.893832 0.893832 0.893832 0.893832 0.893832 0.893832 0.893832 0.893832 0.893832 0.893832 0.893832 0.893828 0.893832 0.893078 0.893832 0.891798 0.893832 0.891282 0.893832 0.891717 0.893746 0.890741 0.889085 0.886822 0.886794 0.888623 0.88748 0.890543 0.891962 0.892453 0.891417 0.889415 0.891897 0.891739 0.88961 0.891252 0.89256 0.892245 0.890572 0.887699 0.888749 0.887405 0.887428 0.88971 0.891022 0.893789 0.891802 0.893832 0.891511 0.893832 0.892102 0.893832 0.893286 0.893832 0.893831 0.893832 0.893832 0.893832 0.893832 0.893832 0.893832 0.893832 0.893832 0.893832 0.893832 0.893832 0.893832 0.893832 0.893832 0.893832 0.893832 0.893832 0.893832 0.893832 0.893832 0.893832 0.893832 0.893832 0.893832 0.893832 0.893832 0.893832 0.893832 0.893832 0.893832 0.893832 0.893831 0.893832 0.893286 0.893832 0.892102 0.893832 0.891511 0.893832 0.891802 0.893789 0.891022 0.88971 0.887428 0.887405 0.888749 0.887699 0.890572 0.892245 0.89256 0.891252 0.88961 0.891739 0.891604 0.889813 0.891127 0.892616 0.892451 0.890605 0.887937 0.888905 0.888027 0.888025 0.890286 0.891277 0.893812 0.8919 0.893832 0.891736 0.893832 0.892373 0.893832 0.893443 0.893832 0.893832 0.893832 0.893832 0.893832 0.893832 0.893832 0.893832 0.893832 0.893832 0.893832 0.893832 0.893832 0.893832 0.893832 0.893832 0.893832 0.893832 0.893832 0.893832 0.893832 0.893832 0.893832 0.893832 0.893832 0.893832 0.893832 0.893832 0.893832 0.893832 0.893832 0.893832 0.893832 0.893832 0.893832 0.893443 0.893832 0.892373 0.893832 0.891736 0.893832 0.8919 0.893812 0.891277 0.890286 0.888025 0.888027 0.888905 0.887937 0.890605 0.892451 0.892616 0.891127 0.889813 0.891604 0.891496 0.890019 0.891042 0.892637 0.892597 0.890643 0.888197 0.889086 0.88864 0.888596 0.890811 0.891508 0.893824 0.892008 0.893832 0.891953 0.893832 0.892612 0.893832 0.893561 0.893832 0.893832 0.893832 0.893832 0.893832 0.893832 0.893832 0.893832 0.893832 0.893832 0.893832 0.893832 0.893832 0.893832 0.893832 0.893832 0.893832 0.893832 0.893832 0.893832 0.893832 0.893832 0.893832 0.893832 0.893832 0.893832 0.893832 0.893832 0.893832 0.893832 0.893832 0.893832 0.893832 0.893832 0.893832 0.893561 0.893832 0.892612 0.893832 0.891953 0.893832 0.892008 0.893824 0.891508 0.890811 0.888596 0.88864 0.889086 0.888197 0.890643 0.892597 0.892637 0.891042 0.890019 0.891496 0.890993 0.892635 0.892697 0.888476 0.889288 0.889231 0.889129 0.89128 0.891716 0.893829 0.892122 0.893832 0.892159 0.893832 0.89282 0.893832 0.893647 0.893832 0.893832 0.893832 0.893832 0.893832 0.893832 0.893832 0.893832 0.893832 0.893832 0.893832 0.893832 0.893832 0.893832 0.893832 0.893832 0.893832 0.893832 0.893832 0.893832 0.893832 0.893832 0.893832 0.893832 0.893832 0.893832 0.893832 0.893832 0.893832 0.893832 0.893832 0.893832 0.893832 0.893832 0.893832 0.893647 0.893832 0.89282 0.893832 0.892159 0.893832 0.892122 0.893829 0.891716 0.89128 0.889129 0.889231 0.889288 0.888476 0.892697 0.892635 0.890993 0.891415 0.890221 0.890687 0.890687 0.890221 0.891415 0.891358 0.890416 0.890976 0.892618 0.892764 0.890737 0.888772 0.889504 0.889788 0.889617 0.891696 0.891905 0.893831 0.892239 0.893832 0.892352 0.893832 0.893 0.893832 0.893708 0.893832 0.893832 0.893832 0.893832 0.893832 0.893832 0.893832 0.893832 0.893832 0.893832 0.893832 0.893832 0.893832 0.893832 0.893832 0.893832 0.893832 0.893832 0.893832 0.893832 0.893832 0.893832 0.893832 0.893832 0.893832 0.893832 0.893832 0.893832 0.893832 0.893832 0.893832 0.893832 0.893832 0.893832 0.893832 0.893708 0.893832 0.893 0.893832 0.892352 0.893832 0.892239 0.893831 0.891905 0.891696 0.889617 0.889788 0.889504 0.888772 0.890737 0.892764 0.892618 0.890976 0.890416 0.891358 0.891324 0.890601 0.890987 0.892595 0.892809 0.890793 0.889081 0.88973 0.890304 0.890058 0.892058 0.892075 0.893832 0.892358 0.893832 0.892531 0.893832 0.893153 0.893832 0.893751 0.893832 0.893832 0.893832 0.893832 0.893832 0.893832 0.893832 0.893832 0.893832 0.893832 0.893832 0.893832 0.893832 0.893832 0.893832 0.893832 0.893832 0.893832 0.893832 0.893832 0.893832 0.893832 0.893832 0.893832 0.893832 0.893832 0.893832 0.893832 0.893832 0.893832 0.893832 0.893832 0.893832 0.893832 0.893832 0.893751 0.893832 0.893153 0.893832 0.892531 0.893832 0.892358 0.893832 0.892075 0.892058 0.890058 0.890304 0.88973 0.889081 0.890793 0.892809 0.892595 0.890987 0.890601 0.891324 0.891308 0.890773 0.89102 0.892569 0.892838 0.890856 0.889398 0.889961 0.890776 0.890451 0.892371 0.892229 0.893832 0.892476 0.893832 0.892695 0.893832 0.893284 0.893832 0.89378 0.893832 0.893832 0.893832 0.893832 0.893832 0.893832 0.893832 0.893832 0.893832 0.893832 0.893832 0.893832 0.893832 0.893832 0.893832 0.893832 0.893832 0.893832 0.893832 0.893832 0.893832 0.893832 0.893832 0.893832 0.893832 0.893832 0.893832 0.893832 0.893832 0.893832 0.893832 0.893832 0.893832 0.893832 0.893832 0.89378 0.893832 0.893284 0.893832 0.892695 0.893832 0.892476 0.893832 0.892229 0.892371 0.890451 0.890776 0.889961 0.889398 0.890856 0.892838 0.892569 0.89102 0.890773 0.891308 0.891308 0.890932 0.891071 0.892544 0.892859 0.890924 0.88972 0.890193 0.891202 0.890798 0.892637 0.892368 0.893832 0.892591 0.893832 0.892844 0.893832 0.893392 0.893832 0.893799 0.893832 0.893832 0.893832 0.893832 0.893832 0.893832 0.893832 0.893832 0.893832 0.893832 0.893832 0.893832 0.893832 0.893832 0.893832 0.893832 0.893832 0.893832 0.893832 0.893832 0.893832 0.893832 0.893832 0.893832 0.893832 0.893832 0.893832 0.893832 0.893832 0.893832 0.893832 0.893832 0.893832 0.893832 0.893832 0.893799 0.893832 0.893392 0.893832 0.892844 0.893832 0.892591 0.893832 0.892368 0.892637 0.890798 0.891202 0.890193 0.88972 0.890924 0.892859 0.892544 0.891071 0.890932 0.891308 0.891321 0.891077 0.891136 0.892521 0.892874 0.890997 0.890039 0.890422 0.891582 0.891103 0.892862 0.892494 0.893832 0.892702 0.893832 0.892978 0.893832 0.893483 0.893832 0.893812 0.893832 0.893832 0.893832 0.893832 0.893832 0.893832 0.893832 0.893832 0.893832 0.893832 0.893832 0.893832 0.893832 0.893832 0.893832 0.893832 0.893832 0.893832 0.893832 0.893832 0.893832 0.893832 0.893832 0.893832 0.893832 0.893832 0.893832 0.893832 0.893832 0.893832 0.893832 0.893832 0.893832 0.893832 0.893832 0.893812 0.893832 0.893483 0.893832 0.892978 0.893832 0.892702 0.893832 0.892494 0.892862 0.891103 0.891582 0.890422 0.890039 0.890997 0.892874 0.892521 0.891136 0.891077 0.891321 0.891343 0.891207 0.891211 0.892503 0.892887 0.891073 0.890352 0.890644 0.891917 0.891369 0.89305 0.892608 0.893832 0.892808 0.893832 0.893098 0.893832 0.893557 0.893832 0.89382 0.893832 0.893832 0.893832 0.893832 0.893832 0.893832 0.893832 0.893832 0.893832 0.893832 0.893832 0.893832 0.893832 0.893832 0.893832 0.893832 0.893832 0.893832 0.893832 0.893832 0.893832 0.893832 0.893832 0.893832 0.893832 0.893832 0.893832 0.893832 0.893832 0.893832 0.893832 0.893832 0.893832 0.893832 0.893832 0.89382 0.893832 0.893557 0.893832 0.893098 0.893832 0.892808 0.893832 0.892608 0.89305 0.891369 0.891917 0.890644 0.890352 0.891073 0.892887 0.892503 0.891211 0.891207 0.891343 0.891373 0.891324 0.891292 0.892488 0.892899 0.891152 0.890654 0.890858 0.89221 0.8916 0.893205 0.892711 0.893832 0.892908 0.893832 0.893204 0.893832 0.893617 0.893832 0.893825 0.893832 0.893832 0.893832 0.893832 0.893832 0.893832 0.893832 0.893832 0.893832 0.893832 0.893832 0.893832 0.893832 0.893832 0.893832 0.893832 0.893832 0.893832 0.893832 0.893832 0.893832 0.893832 0.893832 0.893832 0.893832 0.893832 0.893832 0.893832 0.893832 0.893832 0.893832 0.893832 0.893832 0.893832 0.893832 0.893825 0.893832 0.893617 0.893832 0.893204 0.893832 0.892908 0.893832 0.892711 0.893205 0.8916 0.89221 0.890858 0.890654 0.891152 0.892899 0.892488 0.891292 0.891324 0.891373 0.891407 0.891427 0.891377 0.892478 0.892912 0.891232 0.890942 0.89106 0.892464 0.8918 0.893332 0.892804 0.893832 0.893001 0.893832 0.893298 0.893832 0.893666 0.893832 0.893828 0.893832 0.893832 0.893832 0.893832 0.893832 0.893832 0.893832 0.893832 0.893832 0.893832 0.893832 0.893832 0.893832 0.893832 0.893832 0.893832 0.893832 0.893832 0.893832 0.893832 0.893832 0.893832 0.893832 0.893832 0.893832 0.893832 0.893832 0.893832 0.893832 0.893832 0.893832 0.893832 0.893832 0.893832 0.893832 0.893828 0.893832 0.893666 0.893832 0.893298 0.893832 0.893001 0.893832 0.892804 0.893332 0.8918 0.892464 0.89106 0.890942 0.891232 0.892912 0.892478 0.891377 0.891427 0.891407 0.891445 0.891518 0.891463 0.892472 0.892925 0.891312 0.891211 0.891249 0.892682 0.891972 0.893435 0.892888 0.893832 0.893087 0.893832 0.893379 0.893832 0.893705 0.893832 0.89383 0.893832 0.893832 0.893832 0.893832 0.893832 0.893832 0.893832 0.893832 0.893832 0.893832 0.893832 0.893832 0.893832 0.893832 0.893832 0.893832 0.893832 0.893832 0.893832 0.893832 0.893832 0.893832 0.893832 0.893832 0.893832 0.893832 0.893832 0.893832 0.893832 0.893832 0.893832 0.893832 0.893832 0.893832 0.893832 0.89383 0.893832 0.893705 0.893832 0.893379 0.893832 0.893087 0.893832 0.892888 0.893435 0.891972 0.892682 0.891249 0.891211 0.891312 0.892925 0.892472 0.891463 0.891518 0.891445 0.891484 0.891597 0.891546 0.89247 0.892938 0.89139 0.891461 0.891423 0.892867 0.89212 0.893518 0.892964 0.893832 0.893165 0.893832 0.89345 0.893832 0.893735 0.893832 0.893831 0.893832 0.893832 0.893832 0.893832 0.893832 0.893832 0.893832 0.893832 0.893832 0.893832 0.893832 0.893832 0.893832 0.893832 0.893832 0.893832 0.893832 0.893832 0.893832 0.893832 0.893832 0.893832 0.893832 0.893832 0.893832 0.893832 0.893832 0.893832 0.893832 0.893832 0.893832 0.893832 0.893832 0.893832 0.893832 0.893831 0.893832 0.893735 0.893832 0.89345 0.893832 0.893165 0.893832 0.892964 0.893518 0.89212 0.892867 0.891423 0.891461 0.89139 0.892938 0.89247 0.891546 0.891597 0.891484 0.891523 0.891665 0.891627 0.89247 0.892951 0.891466 0.891688 0.891582 0.893024 0.892246 0.893584 0.893031 0.893832 0.893235 0.893832 0.893511 0.893832 0.893759 0.893832 0.893832 0.893832 0.893832 0.893832 0.893832 0.893832 0.893832 0.893832 0.893832 0.893832 0.893832 0.893832 0.893832 0.893832 0.893832 0.893832 0.893832 0.893832 0.893832 0.893832 0.893832 0.893832 0.893832 0.893832 0.893832 0.893832 0.893832 0.893832 0.893832 0.893832 0.893832 0.893832 0.893832 0.893832 0.893832 0.893832 0.893832 0.893832 0.893759 0.893832 0.893511 0.893832 0.893235 0.893832 0.893031 0.893584 0.892246 0.893024 0.891582 0.891688 0.891466 0.892951 0.89247 0.891627 0.891665 0.891523 0.89156 0.891723 0.891701 0.892473 0.892964 0.891536 0.891891 0.891724 0.893154 0.892354 0.893636 0.89309 0.893832 0.893298 0.893832 0.893562 0.893832 0.893778 0.893832 0.893832 0.893832 0.893832 0.893832 0.893832 0.893832 0.893832 0.893832 0.893832 0.893832 0.893832 0.893832 0.893832 0.893832 0.893832 0.893832 0.893832 0.893832 0.893832 0.893832 0.893832 0.893832 0.893832 0.893832 0.893832 0.893832 0.893832 0.893832 0.893832 0.893832 0.893832 0.893832 0.893832 0.893832 0.893832 0.893832 0.893832 0.893832 0.893778 0.893832 0.893562 0.893832 0.893298 0.893832 0.89309 0.893636 0.892354 0.893154 0.891724 0.891891 0.891536 0.892964 0.892473 0.891701 0.891723 0.89156 0.891595 0.891773 0.89177 0.892477 0.892977 0.891601 0.89207 0.891849 0.893261 0.892444 0.893677 0.893142 0.893832 0.893352 0.893832 0.893605 0.893832 0.893792 0.893832 0.893832 0.893832 0.893832 0.893832 0.893832 0.893832 0.893832 0.893832 0.893832 0.893832 0.893832 0.893832 0.893832 0.893832 0.893832 0.893832 0.893832 0.893832 0.893832 0.893832 0.893832 0.893832 0.893832 0.893832 0.893832 0.893832 0.893832 0.893832 0.893832 0.893832 0.893832 0.893832 0.893832 0.893832 0.893832 0.893832 0.893832 0.893832 0.893792 0.893832 0.893605 0.893832 0.893352 0.893832 0.893142 0.893677 0.892444 0.893261 0.891849 0.89207 0.891601 0.892977 0.892477 0.89177 0.891773 0.891595 0.891626 0.891813 0.89183 0.892482 0.892989 0.891659 0.892224 0.891956 0.893348 0.892519 0.893708 0.893186 0.893832 0.893398 0.893832 0.89364 0.893832 0.893802 0.893832 0.893832 0.893832 0.893832 0.893832 0.893832 0.893832 0.893832 0.893832 0.893832 0.893832 0.893832 0.893832 0.893832 0.893832 0.893832 0.893832 0.893832 0.893832 0.893832 0.893832 0.893832 0.893832 0.893832 0.893832 0.893832 0.893832 0.893832 0.893832 0.893832 0.893832 0.893832 0.893832 0.893832 0.893832 0.893832 0.893832 0.893832 0.893832 0.893802 0.893832 0.89364 0.893832 0.893398 0.893832 0.893186 0.893708 0.892519 0.893348 0.891956 0.892224 0.891659 0.892989 0.892482 0.89183 0.891813 0.891626 0.891653 0.891846 0.891882 0.892487 0.893 0.891709 0.892352 0.892045 0.893417 0.89258 0.893732 0.893223 0.893832 0.893437 0.893832 0.893669 0.893832 0.89381 0.893832 0.893832 0.893832 0.893832 0.893832 0.893832 0.893832 0.893832 0.893832 0.893832 0.893832 0.893832 0.893832 0.893832 0.893832 0.893832 0.893832 0.893832 0.893832 0.893832 0.893832 0.893832 0.893832 0.893832 0.893832 0.893832 0.893832 0.893832 0.893832 0.893832 0.893832 0.893832 0.893832 0.893832 0.893832 0.893832 0.893832 0.893832 0.893832 0.89381 0.893832 0.893669 0.893832 0.893437 0.893832 0.893223 0.893732 0.89258 0.893417 0.892045 0.892352 0.891709 0.893 0.892487 0.891882 0.891846 0.891653 0.891675 0.891872 0.891924 0.892492 0.893008 0.89175 0.892455 0.892117 0.89347 0.892628 0.89375 0.893252 0.893832 0.893468 0.893832 0.89369 0.893832 0.893816 0.893832 0.893832 0.893832 0.893832 0.893832 0.893832 0.893832 0.893832 0.893832 0.893832 0.893832 0.893832 0.893832 0.893832 0.893832 0.893832 0.893832 0.893832 0.893832 0.893832 0.893832 0.893832 0.893832 0.893832 0.893832 0.893832 0.893832 0.893832 0.893832 0.893832 0.893832 0.893832 0.893832 0.893832 0.893832 0.893832 0.893832 0.893832 0.893832 0.893816 0.893832 0.89369 0.893832 0.893468 0.893832 0.893252 0.89375 0.892628 0.89347 0.892117 0.892455 0.89175 0.893008 0.892492 0.891924 0.891872 0.891675 0.891692 0.891891 0.891956 0.892496 0.893015 0.891781 0.892532 0.89217 0.893508 0.892663 0.893762 0.893274 0.893832 0.893491 0.893832 0.893707 0.893832 0.89382 0.893832 0.893832 0.893832 0.893832 0.893832 0.893832 0.893832 0.893832 0.893832 0.893832 0.893832 0.893832 0.893832 0.893832 0.893832 0.893832 0.893832 0.893832 0.893832 0.893832 0.893832 0.893832 0.893832 0.893832 0.893832 0.893832 0.893832 0.893832 0.893832 0.893832 0.893832 0.893832 0.893832 0.893832 0.893832 0.893832 0.893832 0.893832 0.893832 0.89382 0.893832 0.893707 0.893832 0.893491 0.893832 0.893274 0.893762 0.892663 0.893508 0.89217 0.892532 0.891781 0.893015 0.892496 0.891956 0.891891 0.891692 0.891704 0.891904 0.891977 0.892499 0.89302 0.891802 0.892583 0.892206 0.893533 0.892686 0.89377 0.893289 0.893832 0.893506 0.893832 0.893717 0.893832 0.893822 0.893832 0.893832 0.893832 0.893832 0.893832 0.893832 0.893832 0.893832 0.893832 0.893832 0.893832 0.893832 0.893832 0.893832 0.893832 0.893832 0.893832 0.893832 0.893832 0.893832 0.893832 0.893832 0.893832 0.893832 0.893832 0.893832 0.893832 0.893832 0.893832 0.893832 0.893832 0.893832 0.893832 0.893832 0.893832 0.893832 0.893832 0.893832 0.893832 0.893822 0.893832 0.893717 0.893832 0.893506 0.893832 0.893289 0.89377 0.892686 0.893533 0.892206 0.892583 0.891802 0.89302 0.892499 0.891977 0.891904 0.891704 0.89171 0.89191 0.891988 0.8925 0.893022 0.891813 0.892608 0.892224 0.893546 0.892697 0.893773 0.893296 0.893832 0.893514 0.893832 0.893722 0.893832 0.893823 0.893832 0.893832 0.893832 0.893832 0.893832 0.893832 0.893832 0.893832 0.893832 0.893832 0.893832 0.893832 0.893832 0.893832 0.893832 0.893832 0.893832 0.893832 0.893832 0.893832 0.893832 0.893832 0.893832 0.893832 0.893832 0.893832 0.893832 0.893832 0.893832 0.893832 0.893832 0.893832 0.893832 0.893832 0.893832 0.893832 0.893832 0.893832 0.893832 0.893823 0.893832 0.893722 0.893832 0.893514 0.893832 0.893296 0.893773 0.892697 0.893546 0.892224 0.892608 0.891813 0.893022 0.8925 0.891988 0.89191 0.89171 
SCALARS Axial_Stress float 1
LOOKUP_TABLE default
-928663000000.0 -606400000000.0 -582561000000.0 -248250000000.0 -166360000000.0 -166360000000.0 -248250000000.0 -582561000000.0 -606400000000.0 -928663000000.0 -1.06105e+12 -1.60777e+12 -548138000000.0 -352903000000.0 -238472000000.0 -200593000000.0 -196859000000.0 -178849000000.0 -183233000000.0 -181594000000.0 -180888000000.0 -178850000000.0 -176108000000.0 -173020000000.0 -169874000000.0 -166840000000.0 -163991000000.0 -161436000000.0 -159350000000.0 -157839000000.0 -156950000000.0 -156637000000.0 -156950000000.0 -157839000000.0 -159350000000.0 -161436000000.0 -163991000000.0 -166840000000.0 -169874000000.0 -173020000000.0 -176108000000.0 -178850000000.0 -180888000000.0 -181594000000.0 -183233000000.0 -178849000000.0 -196859000000.0 -200593000000.0 -238472000000.0 -352903000000.0 -548138000000.0 -1.60777e+12 -1.06105e+12 -1.1448e+12 -1.81247e+12 -1.61587e+12 -1.0167e+12 -599947000000.0 -49567200000.0 -111333000000.0 -111333000000.0 -49567200000.0 -599947000000.0 -1.0167e+12 -1.61587e+12 -1.81247e+12 -1.1448e+12 -1.19401e+12 -2.00845e+12 -1.92267e+12 -1.73296e+12 -994428000000.0 -235133000000.0 -37789100000.0 -29858400000.0 -55420600000.0 -57545400000.0 -69616600000.0 -80990500000.0 -91832800000.0 -101607000000.0 -109983000000.0 -116887000000.0 -122391000000.0 -126658000000.0 -129894000000.0 -132112000000.0 -133491000000.0 -133895000000.0 -133491000000.0 -132112000000.0 -129894000000.0 -126658000000.0 -122391000000.0 -116887000000.0 -109983000000.0 -101607000000.0 -91832800000.0 -80990500000.0 -69616600000.0 -57545400000.0 -55420600000.0 -29858400000.0 -37789100000.0 -235133000000.0 -994428000000.0 -1.73296e+12 -1.92267e+12 -2.00845e+12 -1.19401e+12 -1.2312e+12 -1.21861e+12 -2.07917e+12 -1.82098e+12 -1.75827e+12 -1.6202e+12 -1.68092e+12 -982547000000.0 -619884000000.0 -524259000000.0 -244642000000.0 -159137000000.0 -316577000000.0 -134803000000.0 -160768000000.0 -133470000000.0 -129550000000.0 -127862000000.0 -128127000000.0 -128973000000.0 -129756000000.0 -130329000000.0 -130681000000.0 -130873000000.0 -131099000000.0 -131184000000.0 -131343000000.0 -131308000000.0 -131343000000.0 -131184000000.0 -131099000000.0 -130873000000.0 -130681000000.0 -130329000000.0 -129756000000.0 -128973000000.0 -128127000000.0 -127862000000.0 -129550000000.0 -133470000000.0 -160768000000.0 -134803000000.0 -316577000000.0 -159137000000.0 -244642000000.0 -524259000000.0 -619884000000.0 -982547000000.0 -1.68092e+12 -1.6202e+12 -1.75827e+12 -1.82098e+12 -2.07917e+12 -1.21861e+12 -1.2312e+12 -1.24549e+12 -2.13317e+12 -1.8975e+12 -1.68757e+12 -1.61112e+12 -1.39306e+12 -843343000000.0 -609104000000.0 -312351000000.0 -312351000000.0 -609104000000.0 -843343000000.0 -1.39306e+12 -1.61112e+12 -1.68757e+12 -1.8975e+12 -2.13317e+12 -1.24549e+12 -1.27001e+12 -2.17087e+12 -1.99947e+12 -1.95807e+12 -1.78113e+12 -1.37905e+12 -1.14868e+12 -722867000000.0 -435878000000.0 -286452000000.0 -426222000000.0 -176238000000.0 -211444000000.0 -171127000000.0 -163921000000.0 -157795000000.0 -157837000000.0 -161341000000.0 -165414000000.0 -168891000000.0 -171632000000.0 -173716000000.0 -175253000000.0 -176199000000.0 -176863000000.0 -177000000000.0 -176863000000.0 -176199000000.0 -175253000000.0 -173716000000.0 -171632000000.0 -168891000000.0 -165414000000.0 -161341000000.0 -157837000000.0 -157795000000.0 -163921000000.0 -171127000000.0 -211444000000.0 -176238000000.0 -426222000000.0 -286452000000.0 -435878000000.0 -722867000000.0 -1.14868e+12 -1.37905e+12 -1.78113e+12 -1.95807e+12 -1.99947e+12 -2.17087e+12 -1.27001e+12 -1.29975e+12 -2.21021e+12 -2.19925e+12 -2.02781e+12 -1.84868e+12 -1.5261e+12 -1.40861e+12 -1.17662e+12 -1.17311e+12 -874852000000.0 -494195000000.0 -336696000000.0 -323684000000.0 -482482000000.0 -219958000000.0 -261510000000.0 -202894000000.0 -198767000000.0 -193948000000.0 -190941000000.0 -190339000000.0 -192965000000.0 -197798000000.0 -203175000000.0 -207992000000.0 -211726000000.0 -214340000000.0 -215902000000.0 -216353000000.0 -215902000000.0 -214340000000.0 -211726000000.0 -207992000000.0 -203175000000.0 -197798000000.0 -192965000000.0 -190339000000.0 -190941000000.0 -193948000000.0 -198767000000.0 -202894000000.0 -261510000000.0 -219958000000.0 -482482000000.0 -323684000000.0 -336696000000.0 -494195000000.0 -874852000000.0 -1.17311e+12 -1.17662e+12 -1.40861e+12 -1.5261e+12 -1.84868e+12 -2.02781e+12 -2.19925e+12 -2.21021e+12 -1.29975e+12 -1.33179e+12 -1.32272e+12 -2.19833e+12 -2.0485e+12 -1.89888e+12 -1.79484e+12 -1.66987e+12 -1.40013e+12 -1.18266e+12 -919930000000.0 -649794000000.0 -281233000000.0 -327967000000.0 -327967000000.0 -281233000000.0 -649794000000.0 -919930000000.0 -1.18266e+12 -1.40013e+12 -1.66987e+12 -1.79484e+12 -1.89888e+12 -2.0485e+12 -2.19833e+12 -1.32272e+12 -1.33179e+12 -1.33017e+12 -2.16602e+12 -2.04034e+12 -1.908e+12 -1.89859e+12 -1.83313e+12 -1.66843e+12 -911424000000.0 -727023000000.0 -674910000000.0 -519217000000.0 -390297000000.0 -305444000000.0 -440020000000.0 -236628000000.0 -300387000000.0 -241927000000.0 -243373000000.0 -242349000000.0 -241976000000.0 -240923000000.0 -240316000000.0 -240105000000.0 -239492000000.0 -238760000000.0 -238525000000.0 -238985000000.0 -239533000000.0 -239749000000.0 -239533000000.0 -238985000000.0 -238525000000.0 -238760000000.0 -239492000000.0 -240105000000.0 -240316000000.0 -240923000000.0 -241976000000.0 -242349000000.0 -243373000000.0 -241927000000.0 -300387000000.0 -236628000000.0 -440020000000.0 -305444000000.0 -390297000000.0 -519217000000.0 -674910000000.0 -727023000000.0 -911424000000.0 -1.66843e+12 -1.83313e+12 -1.89859e+12 -1.908e+12 -2.04034e+12 -2.16602e+12 -1.33017e+12 -1.29127e+12 -2.12309e+12 -2.00792e+12 -1.86131e+12 -1.78751e+12 -1.8027e+12 -1.71451e+12 -1.47658e+12 -784046000000.0 -688544000000.0 -639712000000.0 -622450000000.0 -381356000000.0 -318033000000.0 -204323000000.0 -280738000000.0 -218859000000.0 -227294000000.0 -231669000000.0 -235662000000.0 -238607000000.0 -240480000000.0 -242253000000.0 -244339000000.0 -246023000000.0 -246936000000.0 -247524000000.0 -247893000000.0 -248075000000.0 -247893000000.0 -247524000000.0 -246936000000.0 -246023000000.0 -244339000000.0 -242253000000.0 -240480000000.0 -238607000000.0 -235662000000.0 -231669000000.0 -227294000000.0 -218859000000.0 -280738000000.0 -204323000000.0 -318033000000.0 -381356000000.0 -622450000000.0 -639712000000.0 -688544000000.0 -784046000000.0 -1.47658e+12 -1.71451e+12 -1.8027e+12 -1.78751e+12 -1.86131e+12 -2.00792e+12 -2.12309e+12 -1.29127e+12 -1.14565e+12 -1.22585e+12 -2.06949e+12 -2.08682e+12 -1.96406e+12 -1.79318e+12 -1.78813e+12 -1.86269e+12 -2.00166e+12 -1.05229e+12 -473218000000.0 -607922000000.0 -315284000000.0 -724057000000.0 -622263000000.0 -459376000000.0 -364753000000.0 -364753000000.0 -459376000000.0 -622263000000.0 -724057000000.0 -315284000000.0 -607922000000.0 -473218000000.0 -1.05229e+12 -2.00166e+12 -1.86269e+12 -1.78813e+12 -1.79318e+12 -1.96406e+12 -2.08682e+12 -2.06949e+12 -1.22585e+12 -1.14565e+12 -1.06105e+12 -2.04655e+12 -1.85843e+12 -1.91127e+12 -1.74437e+12 -1.65556e+12 -1.65825e+12 -2.02939e+12 -2.66365e+12 -2.0833e+12 -590994000000.0 -670178000000.0 -682008000000.0 -895677000000.0 -585434000000.0 -485667000000.0 -259903000000.0 -186019000000.0 -277721000000.0 -213700000000.0 -228238000000.0 -237979000000.0 -245438000000.0 -251834000000.0 -257769000000.0 -262291000000.0 -265338000000.0 -267698000000.0 -269785000000.0 -271543000000.0 -272620000000.0 -273032000000.0 -272620000000.0 -271543000000.0 -269785000000.0 -267698000000.0 -265338000000.0 -262291000000.0 -257769000000.0 -251834000000.0 -245438000000.0 -237979000000.0 -228238000000.0 -213700000000.0 -277721000000.0 -186019000000.0 -259903000000.0 -485667000000.0 -585434000000.0 -895677000000.0 -682008000000.0 -670178000000.0 -590994000000.0 -2.0833e+12 -2.66365e+12 -2.02939e+12 -1.65825e+12 -1.65556e+12 -1.74437e+12 -1.91127e+12 -1.85843e+12 -2.04655e+12 -1.06105e+12 -994668000000.0 -1.982e+12 -1.87914e+12 -1.89675e+12 -1.64854e+12 -1.56754e+12 -1.616e+12 -2.53818e+12 -1.71814e+12 -768219000000.0 -665769000000.0 -464976000000.0 -764677000000.0 -271745000000.0 -214908000000.0 -302085000000.0 -203687000000.0 -204734000000.0 -214313000000.0 -227604000000.0 -239855000000.0 -250405000000.0 -259367000000.0 -266539000000.0 -272164000000.0 -276767000000.0 -280454000000.0 -282845000000.0 -283688000000.0 -282845000000.0 -280454000000.0 -276767000000.0 -272164000000.0 -266539000000.0 -259367000000.0 -250405000000.0 -239855000000.0 -227604000000.0 -214313000000.0 -204734000000.0 -203687000000.0 -302085000000.0 -214908000000.0 -271745000000.0 -764677000000.0 -464976000000.0 -665769000000.0 -768219000000.0 -1.71814e+12 -2.53818e+12 -1.616e+12 -1.56754e+12 -1.64854e+12 -1.89675e+12 -1.87914e+12 -1.982e+12 -994668000000.0 -926142000000.0 -1.81205e+12 -1.91314e+12 -1.82879e+12 -1.74799e+12 -1.59598e+12 -1.41036e+12 -1.0204e+12 -1.51724e+12 -1.7265e+12 -909520000000.0 -2.07448e+12 -980225000000.0 -398520000000.0 -238326000000.0 -716187000000.0 -801275000000.0 -491500000000.0 -665803000000.0 -665803000000.0 -491500000000.0 -801275000000.0 -716187000000.0 -238326000000.0 -398520000000.0 -980225000000.0 -2.07448e+12 -909520000000.0 -1.7265e+12 -1.51724e+12 -1.0204e+12 -1.41036e+12 -1.59598e+12 -1.74799e+12 -1.82879e+12 -1.91314e+12 -1.81205e+12 -926142000000.0 -741598000000.0 -832060000000.0 -1.64459e+12 -1.73418e+12 -1.79409e+12 -1.80632e+12 -1.37643e+12 -1.33466e+12 -228622000000.0 -1.55342e+12 -1.93357e+12 -56547500000.0 -2.23541e+12 -688969000000.0 -637178000000.0 -273271000000.0 -355149000000.0 -71563100000.0 -329457000000.0 -220662000000.0 -552251000000.0 -381482000000.0 -414925000000.0 -273788000000.0 -250972000000.0 -229017000000.0 -210237000000.0 -192932000000.0 -177416000000.0 -165489000000.0 -156921000000.0 -150479000000.0 -145465000000.0 -141599000000.0 -138981000000.0 -138028000000.0 -138981000000.0 -141599000000.0 -145465000000.0 -150479000000.0 -156921000000.0 -165489000000.0 -177416000000.0 -192932000000.0 -210237000000.0 -229017000000.0 -250972000000.0 -273788000000.0 -414925000000.0 -381482000000.0 -552251000000.0 -220662000000.0 -329457000000.0 -71563100000.0 -355149000000.0 -273271000000.0 -637178000000.0 -688969000000.0 -2.23541e+12 -56547500000.0 -1.93357e+12 -1.55342e+12 -228622000000.0 -1.33466e+12 -1.37643e+12 -1.80632e+12 -1.79409e+12 -1.73418e+12 -1.64459e+12 -832060000000.0 -741598000000.0 -301012000000.0 -1.42654e+12 -1.56849e+12 -1.50207e+12 -1.74786e+12 -1.93658e+12 -1.09297e+12 -1.02872e+12 -1.40865e+12 -1.29271e+12 -1.08687e+12 -1.53639e+12 -950367000000.0 -681862000000.0 -644984000000.0 -548793000000.0 -434010000000.0 -437880000000.0 -431203000000.0 -425942000000.0 -430955000000.0 -436048000000.0 -438251000000.0 -438326000000.0 -436671000000.0 -434198000000.0 -431823000000.0 -429887000000.0 -428258000000.0 -427050000000.0 -426615000000.0 -427050000000.0 -428258000000.0 -429887000000.0 -431823000000.0 -434198000000.0 -436671000000.0 -438326000000.0 -438251000000.0 -436048000000.0 -430955000000.0 -425942000000.0 -431203000000.0 -437880000000.0 -434010000000.0 -548793000000.0 -644984000000.0 -681862000000.0 -950367000000.0 -1.53639e+12 -1.08687e+12 -1.29271e+12 -1.40865e+12 -1.02872e+12 -1.09297e+12 -1.93658e+12 -1.74786e+12 -1.50207e+12 -1.56849e+12 -1.42654e+12 -301012000000.0 -113757000000.0 -1.00956e+12 -1.37713e+12 -1.33817e+12 -1.49916e+12 -2.4425e+12 -497182000000.0 -1.21511e+12 -1.27791e+12 -1.13389e+12 -1.49495e+12 -1.00883e+12 -821601000000.0 -1.39577e+12 -928564000000.0 -894328000000.0 -931469000000.0 -808501000000.0 -586119000000.0 -671324000000.0 -671324000000.0 -586119000000.0 -808501000000.0 -931469000000.0 -894328000000.0 -928564000000.0 -1.39577e+12 -821601000000.0 -1.00883e+12 -1.49495e+12 -1.13389e+12 -1.27791e+12 -1.21511e+12 -497182000000.0 -2.4425e+12 -1.49916e+12 -1.33817e+12 -1.37713e+12 -1.00956e+12 -113757000000.0 -355778000000.0 -948205000000.0 -1.13886e+12 -1.23289e+12 -1.46426e+12 -2.00732e+12 -46275500000.0 -1.13255e+12 -640258000000.0 -1.00414e+12 -1.01091e+12 -1.00949e+12 -648420000000.0 -712183000000.0 -413850000000.0 -473181000000.0 -563289000000.0 -541251000000.0 -552576000000.0 -551144000000.0 -612477000000.0 -594716000000.0 -672124000000.0 -470776000000.0 -462760000000.0 -388870000000.0 -355642000000.0 -325122000000.0 -296793000000.0 -271504000000.0 -249258000000.0 -230288000000.0 -214759000000.0 -202343000000.0 -193074000000.0 -187357000000.0 -185507000000.0 -187357000000.0 -193074000000.0 -202343000000.0 -214759000000.0 -230288000000.0 -249258000000.0 -271504000000.0 -296793000000.0 -325122000000.0 -355642000000.0 -388870000000.0 -462760000000.0 -470776000000.0 -672124000000.0 -594716000000.0 -612477000000.0 -551144000000.0 -552576000000.0 -541251000000.0 -563289000000.0 -473181000000.0 -413850000000.0 -712183000000.0 -648420000000.0 -1.00949e+12 -1.01091e+12 -1.00414e+12 -640258000000.0 -1.13255e+12 -46275500000.0 -2.00732e+12 -1.46426e+12 -1.23289e+12 -1.13886e+12 -948205000000.0 -355778000000.0 -776691000000.0 -654562000000.0 -1.08024e+12 -1.30635e+12 -1.4467e+12 -1.23191e+12 -1.16623e+12 -1.67532e+12 -1.06252e+12 -788534000000.0 -806725000000.0 -733453000000.0 -728597000000.0 -748000000000.0 -165524000000.0 -163110000000.0 -330563000000.0 -97058200000.0 -248182000000.0 -70520400000.0 -114198000000.0 -93095500000.0 -104824000000.0 -115208000000.0 -124567000000.0 -133043000000.0 -140329000000.0 -146130000000.0 -150571000000.0 -153895000000.0 -156242000000.0 -157647000000.0 -158157000000.0 -157647000000.0 -156242000000.0 -153895000000.0 -150571000000.0 -146130000000.0 -140329000000.0 -133043000000.0 -124567000000.0 -115208000000.0 -104824000000.0 -93095500000.0 -114198000000.0 -70520400000.0 -248182000000.0 -97058200000.0 -330563000000.0 -163110000000.0 -165524000000.0 -748000000000.0 -728597000000.0 -733453000000.0 -806725000000.0 -788534000000.0 -1.06252e+12 -1.67532e+12 -1.16623e+12 -1.23191e+12 -1.4467e+12 -1.30635e+12 -1.08024e+12 -654562000000.0 -776691000000.0 -288405000000.0 -1.0914e+12 -708317000000.0 -988109000000.0 -510827000000.0 -475860000000.0 -610143000000.0 -621189000000.0 -263522000000.0 -313347000000.0 -112388000000.0 -207482000000.0 -236036000000.0 -236036000000.0 -207482000000.0 -112388000000.0 -313347000000.0 -263522000000.0 -621189000000.0 -610143000000.0 -475860000000.0 -510827000000.0 -988109000000.0 -708317000000.0 -1.0914e+12 -288405000000.0 -233380000000.0 -665329000000.0 -771529000000.0 -123517000000.0 -1.18579e+12 -811139000000.0 -380098000000.0 -838637000000.0 -700914000000.0 -536795000000.0 -488621000000.0 -427299000000.0 -397379000000.0 -118337000000.0 -80328200000.0 -159307000000.0 -99518400000.0 -176478000000.0 -33940400000.0 -185695000000.0 -20031100000.0 -151654000000.0 -9517490000.0 -20427100000.0 -9035750000.0 -9035750000.0 -9035750000.0 -9035750000.0 -9035750000.0 -9035750000.0 -9035750000.0 -9035750000.0 -9035750000.0 -9035750000.0 -9035750000.0 -9061670000.0 -9035750000.0 -9035750000.0 -9035750000.0 -9035750000.0 -9035750000.0 -9035750000.0 -9035750000.0 -9035750000.0 -9035750000.0 -9035750000.0 -9035750000.0 -20427100000.0 -9517490000.0 -151654000000.0 -20031100000.0 -185695000000.0 -33940400000.0 -176478000000.0 -99518400000.0 -159307000000.0 -80328200000.0 -118337000000.0 -397379000000.0 -427299000000.0 -488621000000.0 -536795000000.0 -700914000000.0 -838637000000.0 -380098000000.0 -811139000000.0 -1.18579e+12 -123517000000.0 -771529000000.0 -665329000000.0 -233380000000.0 -135532000000.0 -715972000000.0 -908496000000.0 -961830000000.0 -735946000000.0 -568084000000.0 -590165000000.0 -434301000000.0 -334501000000.0 -369388000000.0 -521054000000.0 -341654000000.0 -227101000000.0 -152392000000.0 -198240000000.0 -307845000000.0 -219920000000.0 -212930000000.0 -206465000000.0 -200200000000.0 -194164000000.0 -188238000000.0 -182493000000.0 -177200000000.0 -172558000000.0 -168623000000.0 -165465000000.0 -163191000000.0 -161845000000.0 -161416000000.0 -161845000000.0 -163191000000.0 -165465000000.0 -168623000000.0 -172558000000.0 -177200000000.0 -182493000000.0 -188238000000.0 -194164000000.0 -200200000000.0 -206465000000.0 -212930000000.0 -219920000000.0 -307845000000.0 -198240000000.0 -152392000000.0 -227101000000.0 -341654000000.0 -521054000000.0 -369388000000.0 -334501000000.0 -434301000000.0 -590165000000.0 -568084000000.0 -735946000000.0 -961830000000.0 -908496000000.0 -715972000000.0 -135532000000.0 -192240000000.0 -700721000000.0 -516534000000.0 -763548000000.0 -346858000000.0 -751166000000.0 -589059000000.0 -493189000000.0 -428805000000.0 -334723000000.0 -247973000000.0 -355165000000.0 -335493000000.0 -432006000000.0 -437506000000.0 -227152000000.0 -214603000000.0 -293619000000.0 -293619000000.0 -214603000000.0 -227152000000.0 -437506000000.0 -432006000000.0 -335493000000.0 -355165000000.0 -247973000000.0 -334723000000.0 -428805000000.0 -493189000000.0 -589059000000.0 -751166000000.0 -346858000000.0 -763548000000.0 -516534000000.0 -700721000000.0 -192240000000.0 -9039100000.0 -464602000000.0 -55397400000.0 -382531000000.0 -327573000000.0 -197785000000.0 -258527000000.0 -204102000000.0 -188532000000.0 -137425000000.0 -290925000000.0 -69141700000.0 -190614000000.0 -123669000000.0 -74412100000.0 -99639300000.0 -21809100000.0 -125835000000.0 -14401900000.0 -91162000000.0 -9035750000.0 -9035750000.0 -9035750000.0 -9035750000.0 -9035750000.0 -9035750000.0 -9035750000.0 -9035750000.0 -9035750000.0 -9035750000.0 -9035750000.0 -9035750000.0 -9035750000.0 -9042440000.0 -9035750000.0 -9035750000.0 -9035750000.0 -9035750000.0 -9035750000.0 -9035750000.0 -9035750000.0 -9035750000.0 -9035750000.0 -9035750000.0 -9035750000.0 -9035750000.0 -9035750000.0 -91162000000.0 -14401900000.0 -125835000000.0 -21809100000.0 -99639300000.0 -74412100000.0 -123669000000.0 -190614000000.0 -69141700000.0 -290925000000.0 -137425000000.0 -188532000000.0 -204102000000.0 -258527000000.0 -197785000000.0 -327573000000.0 -382531000000.0 -55397400000.0 -464602000000.0 -9039100000.0 -582259000000.0 -496622000000.0 -354347000000.0 -331442000000.0 -378223000000.0 -378223000000.0 -331442000000.0 -354347000000.0 -496622000000.0 -582259000000.0 -151751000000.0 -260748000000.0 -316751000000.0 -189806000000.0 -139717000000.0 -92622000000.0 -510531000000.0 -453100000000.0 -405252000000.0 -397792000000.0 -381565000000.0 -334959000000.0 -348136000000.0 -344036000000.0 -327317000000.0 -323929000000.0 -310944000000.0 -256105000000.0 -291447000000.0 -221996000000.0 -300410000000.0 -201090000000.0 -240272000000.0 -173249000000.0 -156758000000.0 -141922000000.0 -128611000000.0 -116815000000.0 -106494000000.0 -97561800000.0 -89917500000.0 -83519900000.0 -78348900000.0 -74370000000.0 -71548300000.0 -69862200000.0 -69302800000.0 -69862200000.0 -71548300000.0 -74370000000.0 -78348900000.0 -83519900000.0 -89917500000.0 -97561800000.0 -106494000000.0 -116815000000.0 -128611000000.0 -141922000000.0 -156758000000.0 -173249000000.0 -240272000000.0 -201090000000.0 -300410000000.0 -221996000000.0 -291447000000.0 -256105000000.0 -310944000000.0 -323929000000.0 -327317000000.0 -344036000000.0 -348136000000.0 -334959000000.0 -381565000000.0 -397792000000.0 -405252000000.0 -453100000000.0 -510531000000.0 -92622000000.0 -139717000000.0 -189806000000.0 -316751000000.0 -260748000000.0 -151751000000.0 -104255000000.0 -118264000000.0 -139381000000.0 -91988100000.0 -61712200000.0 -26528400000.0 -46356900000.0 -393508000000.0 -323159000000.0 -248128000000.0 -245496000000.0 -178557000000.0 -85219300000.0 -42562600000.0 -13346000000.0 -55247700000.0 -13665500000.0 -69313600000.0 -12533700000.0 -71292900000.0 -12617500000.0 -97022900000.0 -10311900000.0 -49703900000.0 -9035750000.0 -9035750000.0 -9035750000.0 -9035750000.0 -9035750000.0 -9035750000.0 -9035750000.0 -9035750000.0 -9035750000.0 -9035750000.0 -9035750000.0 -9035750000.0 -9035750000.0 -9035750000.0 -9035750000.0 -9035750000.0 -9035750000.0 -9035750000.0 -9035750000.0 -9035750000.0 -9035750000.0 -9035750000.0 -9035750000.0 -9035750000.0 -9035750000.0 -9035750000.0 -9035750000.0 -49703900000.0 -10311900000.0 -97022900000.0 -12617500000.0 -71292900000.0 -12533700000.0 -69313600000.0 -13665500000.0 -55247700000.0 -13346000000.0 -42562600000.0 -85219300000.0 -178557000000.0 -245496000000.0 -248128000000.0 -323159000000.0 -393508000000.0 -46356900000.0 -26528400000.0 -61712200000.0 -91988100000.0 -139381000000.0 -118264000000.0 -104255000000.0 -60603200000.0 -58601200000.0 -83251300000.0 -76981200000.0 -70259100000.0 -24822500000.0 -29672300000.0 -327828000000.0 -334431000000.0 -295265000000.0 -331880000000.0 -300088000000.0 -213932000000.0 -173574000000.0 -125123000000.0 -147851000000.0 -89544400000.0 -129573000000.0 -67169400000.0 -112313000000.0 -52160300000.0 -118863000000.0 -42851600000.0 -65396800000.0 -35016400000.0 -31648400000.0 -28712400000.0 -26147800000.0 -23906700000.0 -21968800000.0 -20323100000.0 -18952800000.0 -17835800000.0 -16950100000.0 -16277100000.0 -15804000000.0 -15522900000.0 -15429600000.0 -15522900000.0 -15804000000.0 -16277100000.0 -16950100000.0 -17835800000.0 -18952800000.0 -20323100000.0 -21968800000.0 -23906700000.0 -26147800000.0 -28712400000.0 -31648400000.0 -35016400000.0 -65396800000.0 -42851600000.0 -118863000000.0 -52160300000.0 -112313000000.0 -67169400000.0 -129573000000.0 -89544400000.0 -147851000000.0 -125123000000.0 -173574000000.0 -213932000000.0 -300088000000.0 -331880000000.0 -295265000000.0 -334431000000.0 -327828000000.0 -29672300000.0 -24822500000.0 -70259100000.0 -76981200000.0 -83251300000.0 -58601200000.0 -60603200000.0 -54860800000.0 -64595400000.0 -84963500000.0 -82698800000.0 -79013500000.0 -48150400000.0 -80301300000.0 -260975000000.0 -214172000000.0 -143016000000.0 -158213000000.0 -111272000000.0 -54742100000.0 -34003200000.0 -9735700000.0 -55504000000.0 -9581830000.0 -60268000000.0 -9411070000.0 -60148100000.0 -9330690000.0 -69673200000.0 -9099580000.0 -26559400000.0 -9035870000.0 -9035750000.0 -9035750000.0 -9035750000.0 -9035750000.0 -9035750000.0 -9035750000.0 -9035750000.0 -9035750000.0 -9035750000.0 -9035750000.0 -9035750000.0 -9035750000.0 -9035750000.0 -9035750000.0 -9035750000.0 -9035750000.0 -9035750000.0 -9035750000.0 -9035750000.0 -9035750000.0 -9035750000.0 -9035750000.0 -9035750000.0 -9035750000.0 -9035750000.0 -9035870000.0 -26559400000.0 -9099580000.0 -69673200000.0 -9330690000.0 -60148100000.0 -9411070000.0 -60268000000.0 -9581830000.0 -55504000000.0 -9735700000.0 -34003200000.0 -54742100000.0 -111272000000.0 -158213000000.0 -143016000000.0 -214172000000.0 -260975000000.0 -80301300000.0 -48150400000.0 -79013500000.0 -82698800000.0 -84963500000.0 -64595400000.0 -54860800000.0 -47548600000.0 -56455200000.0 -65490600000.0 -67098900000.0 -66577400000.0 -28000900000.0 -49065500000.0 -179351000000.0 -180427000000.0 -131802000000.0 -153149000000.0 -109799000000.0 -69572000000.0 -42690400000.0 -17886500000.0 -60085900000.0 -15004400000.0 -60025400000.0 -13032000000.0 -58702400000.0 -11666800000.0 -59747300000.0 -10778500000.0 -21060600000.0 -10161100000.0 -9919870000.0 -9718280000.0 -9551210000.0 -9416900000.0 -9312180000.0 -9230640000.0 -9169150000.0 -9124720000.0 -9092180000.0 -9068240000.0 -9052220000.0 -9043510000.0 -9040840000.0 -9043510000.0 -9052220000.0 -9068240000.0 -9092180000.0 -9124720000.0 -9169150000.0 -9230640000.0 -9312180000.0 -9416900000.0 -9551210000.0 -9718280000.0 -9919870000.0 -10161100000.0 -21060600000.0 -10778500000.0 -59747300000.0 -11666800000.0 -58702400000.0 -13032000000.0 -60025400000.0 -15004400000.0 -60085900000.0 -17886500000.0 -42690400000.0 -69572000000.0 -109799000000.0 -153149000000.0 -131802000000.0 -180427000000.0 -179351000000.0 -49065500000.0 -28000900000.0 -66577400000.0 -67098900000.0 -65490600000.0 -56455200000.0 -47548600000.0 -45245900000.0 -58046800000.0 -61338500000.0 -67676800000.0 -71243400000.0 -37833200000.0 -62274700000.0 -143971000000.0 -152586000000.0 -109209000000.0 -125781000000.0 -82795200000.0 -54635400000.0 -30059300000.0 -9035790000.0 -50020700000.0 -9035780000.0 -51215500000.0 -9035770000.0 -51083100000.0 -9035760000.0 -47042100000.0 -9036000000.0 -15036600000.0 -9035760000.0 -9035780000.0 -9035770000.0 -9035770000.0 -9035760000.0 -9035760000.0 -9035760000.0 -9035760000.0 -9035760000.0 -9035750000.0 -9035750000.0 -9035750000.0 -9035750000.0 -9035750000.0 -9035750000.0 -9035750000.0 -9035750000.0 -9035750000.0 -9035760000.0 -9035760000.0 -9035760000.0 -9035760000.0 -9035760000.0 -9035770000.0 -9035770000.0 -9035780000.0 -9035760000.0 -15036600000.0 -9036000000.0 -47042100000.0 -9035760000.0 -51083100000.0 -9035770000.0 -51215500000.0 -9035780000.0 -50020700000.0 -9035790000.0 -30059300000.0 -54635400000.0 -82795200000.0 -125781000000.0 -109209000000.0 -152586000000.0 -143971000000.0 -62274700000.0 -37833200000.0 -71243400000.0 -67676800000.0 -61338500000.0 -58046800000.0 -45245900000.0 -43175300000.0 -57731700000.0 -55397900000.0 -63657900000.0 -69579700000.0 -41674500000.0 -66754500000.0 -114970000000.0 -132297000000.0 -99075400000.0 -112509000000.0 -73053500000.0 -50606900000.0 -29010200000.0 -9035870000.0 -46622500000.0 -9035820000.0 -47712400000.0 -9035800000.0 -46637500000.0 -9035780000.0 -37889200000.0 -9035770000.0 -12095100000.0 -9035770000.0 -9035780000.0 -9035770000.0 -9035770000.0 -9035760000.0 -9035760000.0 -9035760000.0 -9035760000.0 -9035760000.0 -9035760000.0 -9035750000.0 -9035750000.0 -9035750000.0 -9035750000.0 -9035750000.0 -9035750000.0 -9035750000.0 -9035760000.0 -9035760000.0 -9035760000.0 -9035760000.0 -9035760000.0 -9035760000.0 -9035770000.0 -9035770000.0 -9035780000.0 -9035770000.0 -12095100000.0 -9035770000.0 -37889200000.0 -9035780000.0 -46637500000.0 -9035800000.0 -47712400000.0 -9035820000.0 -46622500000.0 -9035870000.0 -29010200000.0 -50606900000.0 -73053500000.0 -112509000000.0 -99075400000.0 -132297000000.0 -114970000000.0 -66754500000.0 -41674500000.0 -69579700000.0 -63657900000.0 -55397900000.0 -57731700000.0 -43175300000.0 -41920000000.0 -58052900000.0 -51428000000.0 -60320500000.0 -67335700000.0 -46003900000.0 -71613900000.0 -95465900000.0 -115026000000.0 -90134000000.0 -98471400000.0 -63766500000.0 -44235800000.0 -28528300000.0 -9035950000.0 -43400100000.0 -9035870000.0 -44624900000.0 -9035820000.0 -42285700000.0 -9035800000.0 -30293400000.0 -9035790000.0 -10349300000.0 -9035780000.0 -9035780000.0 -9035780000.0 -9035770000.0 -9035770000.0 -9035760000.0 -9035760000.0 -9035760000.0 -9035760000.0 -9035760000.0 -9035750000.0 -9035750000.0 -9035750000.0 -9035750000.0 -9035750000.0 -9035750000.0 -9035750000.0 -9035760000.0 -9035760000.0 -9035760000.0 -9035760000.0 -9035760000.0 -9035770000.0 -9035770000.0 -9035780000.0 -9035780000.0 -9035780000.0 -10349300000.0 -9035790000.0 -30293400000.0 -9035800000.0 -42285700000.0 -9035820000.0 -44624900000.0 -9035870000.0 -43400100000.0 -9035950000.0 -28528300000.0 -44235800000.0 -63766500000.0 -98471400000.0 -90134000000.0 -115026000000.0 -95465900000.0 -71613900000.0 -46003900000.0 -67335700000.0 -60320500000.0 -51428000000.0 -58052900000.0 -41920000000.0 -40988200000.0 -58174700000.0 -48099800000.0 -56354800000.0 -63377400000.0 -48525200000.0 -74130100000.0 -81942600000.0 -101169000000.0 -84213500000.0 -87029300000.0 -57345900000.0 -38130700000.0 -28659300000.0 -9036020000.0 -40579600000.0 -9035910000.0 -41757300000.0 -9035850000.0 -38086000000.0 -9035820000.0 -24215000000.0 -9035800000.0 -9482920000.0 -9035790000.0 -9035790000.0 -9035780000.0 -9035770000.0 -9035770000.0 -9035760000.0 -9035760000.0 -9035760000.0 -9035760000.0 -9035760000.0 -9035750000.0 -9035750000.0 -9035750000.0 -9035750000.0 -9035750000.0 -9035750000.0 -9035750000.0 -9035760000.0 -9035760000.0 -9035760000.0 -9035760000.0 -9035760000.0 -9035770000.0 -9035770000.0 -9035780000.0 -9035790000.0 -9035790000.0 -9482920000.0 -9035800000.0 -24215000000.0 -9035820000.0 -38086000000.0 -9035850000.0 -41757300000.0 -9035910000.0 -40579600000.0 -9036020000.0 -28659300000.0 -38130700000.0 -57345900000.0 -87029300000.0 -84213500000.0 -101169000000.0 -81942600000.0 -74130100000.0 -48525200000.0 -63377400000.0 -56354800000.0 -48099800000.0 -58174700000.0 -40988200000.0 -40253600000.0 -58064100000.0 -45402200000.0 -52082100000.0 -58503100000.0 -49879800000.0 -75237000000.0 -73222000000.0 -90292700000.0 -79937200000.0 -77265300000.0 -52557300000.0 -32324000000.0 -28782100000.0 -9036090000.0 -38192300000.0 -9035950000.0 -39002800000.0 -9035880000.0 -34101500000.0 -9035840000.0 -19532900000.0 -9035810000.0 -9153790000.0 -9035800000.0 -9035790000.0 -9035780000.0 -9035770000.0 -9035770000.0 -9035770000.0 -9035760000.0 -9035760000.0 -9035760000.0 -9035760000.0 -9035750000.0 -9035750000.0 -9035750000.0 -9035750000.0 -9035750000.0 -9035750000.0 -9035750000.0 -9035760000.0 -9035760000.0 -9035760000.0 -9035760000.0 -9035770000.0 -9035770000.0 -9035770000.0 -9035780000.0 -9035790000.0 -9035800000.0 -9153790000.0 -9035810000.0 -19532900000.0 -9035840000.0 -34101500000.0 -9035880000.0 -39002800000.0 -9035950000.0 -38192300000.0 -9036090000.0 -28782100000.0 -32324000000.0 -52557300000.0 -77265300000.0 -79937200000.0 -90292700000.0 -73222000000.0 -75237000000.0 -49879800000.0 -58503100000.0 -52082100000.0 -45402200000.0 -58064100000.0 -40253600000.0 -39612100000.0 -57653000000.0 -43291900000.0 -47781500000.0 -53329700000.0 -50307100000.0 -75014100000.0 -67777300000.0 -81835900000.0 -76661200000.0 -69074100000.0 -48935300000.0 -27124800000.0 -28713000000.0 -9036160000.0 -36132200000.0 -9035990000.0 -36314200000.0 -9035900000.0 -30388600000.0 -9035850000.0 -16067200000.0 -9035820000.0 -9060040000.0 -9035800000.0 -9035790000.0 -9035780000.0 -9035780000.0 -9035770000.0 -9035770000.0 -9035760000.0 -9035760000.0 -9035760000.0 -9035760000.0 -9035760000.0 -9035750000.0 -9035750000.0 -9035750000.0 -9035750000.0 -9035750000.0 -9035760000.0 -9035760000.0 -9035760000.0 -9035760000.0 -9035760000.0 -9035770000.0 -9035770000.0 -9035780000.0 -9035780000.0 -9035790000.0 -9035800000.0 -9060040000.0 -9035820000.0 -16067200000.0 -9035850000.0 -30388600000.0 -9035900000.0 -36314200000.0 -9035990000.0 -36132200000.0 -9036160000.0 -28713000000.0 -27124800000.0 -48935300000.0 -69074100000.0 -76661200000.0 -81835900000.0 -67777300000.0 -75014100000.0 -50307100000.0 -53329700000.0 -47781500000.0 -43291900000.0 -57653000000.0 -39612100000.0 -43665200000.0 -48241400000.0 -75189000000.0 -62207800000.0 -45943300000.0 -22684700000.0 -28432000000.0 -9036220000.0 -34262700000.0 -9036020000.0 -33676000000.0 -9035920000.0 -26987400000.0 -9035870000.0 -13600200000.0 -9035830000.0 -9039750000.0 -9035810000.0 -9035790000.0 -9035790000.0 -9035780000.0 -9035770000.0 -9035770000.0 -9035770000.0 -9035760000.0 -9035760000.0 -9035760000.0 -9035760000.0 -9035750000.0 -9035750000.0 -9035750000.0 -9035750000.0 -9035750000.0 -9035760000.0 -9035760000.0 -9035760000.0 -9035760000.0 -9035770000.0 -9035770000.0 -9035770000.0 -9035780000.0 -9035790000.0 -9035790000.0 -9035810000.0 -9039750000.0 -9035830000.0 -13600200000.0 -9035870000.0 -26987400000.0 -9035920000.0 -33676000000.0 -9036020000.0 -34262700000.0 -9036220000.0 -28432000000.0 -22684700000.0 -45943300000.0 -62207800000.0 -75189000000.0 -48241400000.0 -43665200000.0 -39007500000.0 -56899800000.0 -41694300000.0 -50077100000.0 -73714900000.0 -64419500000.0 -73887900000.0 -73887900000.0 -64419500000.0 -73714900000.0 -50077100000.0 -41694300000.0 -56899800000.0 -39007500000.0 -38429400000.0 -55805600000.0 -40514500000.0 -39873400000.0 -43451300000.0 -49394800000.0 -71649300000.0 -62121400000.0 -69796800000.0 -71264400000.0 -56352500000.0 -43199800000.0 -19038400000.0 -27967900000.0 -9036280000.0 -32488600000.0 -9036060000.0 -31098800000.0 -9035940000.0 -23923200000.0 -9035880000.0 -11908000000.0 -9035840000.0 -9036340000.0 -9035810000.0 -9035800000.0 -9035790000.0 -9035780000.0 -9035780000.0 -9035770000.0 -9035770000.0 -9035760000.0 -9035760000.0 -9035760000.0 -9035760000.0 -9035750000.0 -9035750000.0 -9035750000.0 -9035750000.0 -9035750000.0 -9035760000.0 -9035760000.0 -9035760000.0 -9035760000.0 -9035770000.0 -9035770000.0 -9035780000.0 -9035780000.0 -9035790000.0 -9035800000.0 -9035810000.0 -9036340000.0 -9035840000.0 -11908000000.0 -9035880000.0 -23923200000.0 -9035940000.0 -31098800000.0 -9036060000.0 -32488600000.0 -9036280000.0 -27967900000.0 -19038400000.0 -43199800000.0 -56352500000.0 -71264400000.0 -69796800000.0 -62121400000.0 -71649300000.0 -49394800000.0 -43451300000.0 -39873400000.0 -40514500000.0 -55805600000.0 -38429400000.0 -37886400000.0 -54404800000.0 -39649600000.0 -36489400000.0 -39079000000.0 -48408100000.0 -69100300000.0 -60163700000.0 -65210300000.0 -68534000000.0 -51234800000.0 -40546100000.0 -16148100000.0 -27355400000.0 -9036330000.0 -30763600000.0 -9036090000.0 -28612000000.0 -9035960000.0 -21208500000.0 -9035890000.0 -10787000000.0 -9035840000.0 -9035880000.0 -9035810000.0 -9035800000.0 -9035790000.0 -9035780000.0 -9035780000.0 -9035770000.0 -9035770000.0 -9035760000.0 -9035760000.0 -9035760000.0 -9035760000.0 -9035750000.0 -9035750000.0 -9035750000.0 -9035750000.0 -9035750000.0 -9035760000.0 -9035760000.0 -9035760000.0 -9035760000.0 -9035770000.0 -9035770000.0 -9035780000.0 -9035780000.0 -9035790000.0 -9035800000.0 -9035810000.0 -9035880000.0 -9035840000.0 -10787000000.0 -9035890000.0 -21208500000.0 -9035960000.0 -28612000000.0 -9036090000.0 -30763600000.0 -9036330000.0 -27355400000.0 -16148100000.0 -40546100000.0 -51234800000.0 -68534000000.0 -65210300000.0 -60163700000.0 -69100300000.0 -48408100000.0 -39079000000.0 -36489400000.0 -39649600000.0 -54404800000.0 -37886400000.0 -37381900000.0 -52751100000.0 -38996400000.0 -33553800000.0 -35189200000.0 -47222600000.0 -66270400000.0 -58197500000.0 -61085600000.0 -65534700000.0 -46647400000.0 -37962400000.0 -13937400000.0 -26625800000.0 -9036380000.0 -29072100000.0 -9036120000.0 -26251200000.0 -9035980000.0 -18845200000.0 -9035900000.0 -10068900000.0 -9035850000.0 -9035840000.0 -9035820000.0 -9035800000.0 -9035790000.0 -9035780000.0 -9035780000.0 -9035770000.0 -9035770000.0 -9035760000.0 -9035760000.0 -9035760000.0 -9035760000.0 -9035750000.0 -9035750000.0 -9035750000.0 -9035750000.0 -9035750000.0 -9035760000.0 -9035760000.0 -9035760000.0 -9035760000.0 -9035770000.0 -9035770000.0 -9035780000.0 -9035780000.0 -9035790000.0 -9035800000.0 -9035820000.0 -9035840000.0 -9035850000.0 -10068900000.0 -9035900000.0 -18845200000.0 -9035980000.0 -26251200000.0 -9036120000.0 -29072100000.0 -9036380000.0 -26625800000.0 -13937400000.0 -37962400000.0 -46647400000.0 -65534700000.0 -61085600000.0 -58197500000.0 -66270400000.0 -47222600000.0 -35189200000.0 -33553800000.0 -38996400000.0 -52751100000.0 -37381900000.0 -36905900000.0 -50905700000.0 -38458600000.0 -31069900000.0 -31804300000.0 -45912400000.0 -63287700000.0 -56125800000.0 -57175600000.0 -62220900000.0 -42443100000.0 -35478000000.0 -12307800000.0 -25806600000.0 -9036430000.0 -27414200000.0 -9036140000.0 -24046500000.0 -9035990000.0 -16824100000.0 -9035910000.0 -9624330000.0 -9035850000.0 -9035830000.0 -9035820000.0 -9035800000.0 -9035790000.0 -9035790000.0 -9035780000.0 -9035770000.0 -9035770000.0 -9035760000.0 -9035760000.0 -9035760000.0 -9035760000.0 -9035750000.0 -9035750000.0 -9035750000.0 -9035750000.0 -9035750000.0 -9035760000.0 -9035760000.0 -9035760000.0 -9035760000.0 -9035770000.0 -9035770000.0 -9035780000.0 -9035790000.0 -9035790000.0 -9035800000.0 -9035820000.0 -9035830000.0 -9035850000.0 -9624330000.0 -9035910000.0 -16824100000.0 -9035990000.0 -24046500000.0 -9036140000.0 -27414200000.0 -9036430000.0 -25806600000.0 -12307800000.0 -35478000000.0 -42443100000.0 -62220900000.0 -57175600000.0 -56125800000.0 -63287700000.0 -45912400000.0 -31804300000.0 -31069900000.0 -38458600000.0 -50905700000.0 -36905900000.0 -36437800000.0 -48928100000.0 -37953900000.0 -29009700000.0 -28913000000.0 -44527700000.0 -60233900000.0 -53955400000.0 -53334400000.0 -58647500000.0 -38536300000.0 -33125700000.0 -11150400000.0 -24921300000.0 -9036460000.0 -25797500000.0 -9036160000.0 -22018500000.0 -9036000000.0 -15126500000.0 -9035920000.0 -9358530000.0 -9035860000.0 -9035840000.0 -9035820000.0 -9035810000.0 -9035800000.0 -9035790000.0 -9035780000.0 -9035770000.0 -9035770000.0 -9035770000.0 -9035760000.0 -9035760000.0 -9035760000.0 -9035750000.0 -9035750000.0 -9035750000.0 -9035750000.0 -9035750000.0 -9035760000.0 -9035760000.0 -9035760000.0 -9035770000.0 -9035770000.0 -9035770000.0 -9035780000.0 -9035790000.0 -9035800000.0 -9035810000.0 -9035820000.0 -9035840000.0 -9035860000.0 -9358530000.0 -9035920000.0 -15126500000.0 -9036000000.0 -22018500000.0 -9036160000.0 -25797500000.0 -9036460000.0 -24921300000.0 -11150400000.0 -33125700000.0 -38536300000.0 -58647500000.0 -53334400000.0 -53955400000.0 -60233900000.0 -44527700000.0 -28913000000.0 -29009700000.0 -37953900000.0 -48928100000.0 -36437800000.0 -35953300000.0 -46871100000.0 -37420100000.0 -27324000000.0 -26480100000.0 -43101900000.0 -57163400000.0 -51715300000.0 -49511700000.0 -54920700000.0 -34896700000.0 -30927500000.0 -10357800000.0 -23990600000.0 -9036500000.0 -24232700000.0 -9036180000.0 -20177800000.0 -9036010000.0 -13726100000.0 -9035920000.0 -9205450000.0 -9035860000.0 -9035840000.0 -9035820000.0 -9035810000.0 -9035800000.0 -9035790000.0 -9035780000.0 -9035770000.0 -9035770000.0 -9035770000.0 -9035760000.0 -9035760000.0 -9035760000.0 -9035750000.0 -9035750000.0 -9035750000.0 -9035750000.0 -9035750000.0 -9035760000.0 -9035760000.0 -9035760000.0 -9035770000.0 -9035770000.0 -9035770000.0 -9035780000.0 -9035790000.0 -9035800000.0 -9035810000.0 -9035820000.0 -9035840000.0 -9035860000.0 -9205450000.0 -9035920000.0 -13726100000.0 -9036010000.0 -20177800000.0 -9036180000.0 -24232700000.0 -9036500000.0 -23990600000.0 -10357800000.0 -30927500000.0 -34896700000.0 -54920700000.0 -49511700000.0 -51715300000.0 -57163400000.0 -43101900000.0 -26480100000.0 -27324000000.0 -37420100000.0 -46871100000.0 -35953300000.0 -35429400000.0 -44778900000.0 -36815700000.0 -25954000000.0 -24456800000.0 -41656200000.0 -54113300000.0 -49431600000.0 -45724600000.0 -51154900000.0 -31526700000.0 -28893300000.0 -9834100000.0 -23032900000.0 -9036520000.0 -22731500000.0 -9036190000.0 -18526900000.0 -9036020000.0 -12591400000.0 -9035930000.0 -9120790000.0 -9035860000.0 -9035840000.0 -9035820000.0 -9035810000.0 -9035800000.0 -9035790000.0 -9035780000.0 -9035780000.0 -9035770000.0 -9035770000.0 -9035760000.0 -9035760000.0 -9035760000.0 -9035750000.0 -9035750000.0 -9035750000.0 -9035750000.0 -9035750000.0 -9035760000.0 -9035760000.0 -9035760000.0 -9035770000.0 -9035770000.0 -9035780000.0 -9035780000.0 -9035790000.0 -9035800000.0 -9035810000.0 -9035820000.0 -9035840000.0 -9035860000.0 -9120790000.0 -9035930000.0 -12591400000.0 -9036020000.0 -18526900000.0 -9036190000.0 -22731500000.0 -9036520000.0 -23032900000.0 -9834100000.0 -28893300000.0 -31526700000.0 -51154900000.0 -45724600000.0 -49431600000.0 -54113300000.0 -41656200000.0 -24456800000.0 -25954000000.0 -36815700000.0 -44778900000.0 -35429400000.0 -34848100000.0 -42687500000.0 -36117100000.0 -24838700000.0 -22788300000.0 -40204100000.0 -51108500000.0 -47125700000.0 -42022300000.0 -47449700000.0 -28439300000.0 -27023900000.0 -9500410000.0 -22063800000.0 -9036540000.0 -21304900000.0 -9036200000.0 -17061700000.0 -9036030000.0 -11688400000.0 -9035930000.0 -9076060000.0 -9035860000.0 -9035840000.0 -9035820000.0 -9035810000.0 -9035800000.0 -9035790000.0 -9035780000.0 -9035780000.0 -9035770000.0 -9035770000.0 -9035760000.0 -9035760000.0 -9035760000.0 -9035750000.0 -9035750000.0 -9035750000.0 -9035750000.0 -9035750000.0 -9035760000.0 -9035760000.0 -9035760000.0 -9035770000.0 -9035770000.0 -9035780000.0 -9035780000.0 -9035790000.0 -9035800000.0 -9035810000.0 -9035820000.0 -9035840000.0 -9035860000.0 -9076060000.0 -9035930000.0 -11688400000.0 -9036030000.0 -17061700000.0 -9036200000.0 -21304900000.0 -9036540000.0 -22063800000.0 -9500410000.0 -27023900000.0 -28439300000.0 -47449700000.0 -42022300000.0 -47125700000.0 -51108500000.0 -40204100000.0 -22788300000.0 -24838700000.0 -36117100000.0 -42687500000.0 -34848100000.0 -34197300000.0 -40625100000.0 -35315500000.0 -23921000000.0 -21418100000.0 -38753700000.0 -48165300000.0 -44816200000.0 -38459900000.0 -43882300000.0 -25644000000.0 -25314000000.0 -9295620000.0 -21097000000.0 -9036560000.0 -19962300000.0 -9036210000.0 -15773900000.0 -9036030000.0 -10982700000.0 -9035930000.0 -9053680000.0 -9035860000.0 -9035840000.0 -9035820000.0 -9035810000.0 -9035800000.0 -9035790000.0 -9035780000.0 -9035780000.0 -9035770000.0 -9035770000.0 -9035760000.0 -9035760000.0 -9035760000.0 -9035750000.0 -9035750000.0 -9035750000.0 -9035750000.0 -9035750000.0 -9035760000.0 -9035760000.0 -9035760000.0 -9035770000.0 -9035770000.0 -9035780000.0 -9035780000.0 -9035790000.0 -9035800000.0 -9035810000.0 -9035820000.0 -9035840000.0 -9035860000.0 -9053680000.0 -9035930000.0 -10982700000.0 -9036030000.0 -15773900000.0 -9036210000.0 -19962300000.0 -9036560000.0 -21097000000.0 -9295620000.0 -25314000000.0 -25644000000.0 -43882300000.0 -38459900000.0 -44816200000.0 -48165300000.0 -38753700000.0 -21418100000.0 -23921000000.0 -35315500000.0 -40625100000.0 -34197300000.0 -33471600000.0 -38613000000.0 -34412600000.0 -23149900000.0 -20291800000.0 -37309700000.0 -45295300000.0 -42520700000.0 -35085000000.0 -40507400000.0 -23142800000.0 -23754700000.0 -9174920000.0 -20144400000.0 -9036570000.0 -18710500000.0 -9036220000.0 -14652300000.0 -9036030000.0 -10441300000.0 -9035930000.0 -9043190000.0 -9035860000.0 -9035840000.0 -9035820000.0 -9035810000.0 -9035800000.0 -9035790000.0 -9035780000.0 -9035780000.0 -9035770000.0 -9035770000.0 -9035760000.0 -9035760000.0 -9035760000.0 -9035750000.0 -9035750000.0 -9035750000.0 -9035750000.0 -9035750000.0 -9035760000.0 -9035760000.0 -9035760000.0 -9035770000.0 -9035770000.0 -9035780000.0 -9035780000.0 -9035790000.0 -9035800000.0 -9035810000.0 -9035820000.0 -9035840000.0 -9035860000.0 -9043190000.0 -9035930000.0 -10441300000.0 -9036030000.0 -14652300000.0 -9036220000.0 -18710500000.0 -9036570000.0 -20144400000.0 -9174920000.0 -23754700000.0 -23142800000.0 -40507400000.0 -35085000000.0 -42520700000.0 -45295300000.0 -37309700000.0 -20291800000.0 -23149900000.0 -34412600000.0 -38613000000.0 -33471600000.0 -32671000000.0 -36666700000.0 -33417600000.0 -22482100000.0 -19359300000.0 -35875300000.0 -42507700000.0 -40255400000.0 -31933100000.0 -37359800000.0 -20929200000.0 -22335000000.0 -9106900000.0 -19215700000.0 -9036570000.0 -17554000000.0 -9036220000.0 -13683700000.0 -9036030000.0 -10033300000.0 -9035930000.0 -9038640000.0 -9035860000.0 -9035840000.0 -9035820000.0 -9035810000.0 -9035800000.0 -9035790000.0 -9035780000.0 -9035780000.0 -9035770000.0 -9035770000.0 -9035760000.0 -9035760000.0 -9035760000.0 -9035750000.0 -9035750000.0 -9035750000.0 -9035750000.0 -9035750000.0 -9035760000.0 -9035760000.0 -9035760000.0 -9035770000.0 -9035770000.0 -9035780000.0 -9035780000.0 -9035790000.0 -9035800000.0 -9035810000.0 -9035820000.0 -9035840000.0 -9035860000.0 -9038640000.0 -9035930000.0 -10033300000.0 -9036030000.0 -13683700000.0 -9036220000.0 -17554000000.0 -9036570000.0 -19215700000.0 -9106900000.0 -22335000000.0 -20929200000.0 -37359800000.0 -31933100000.0 -40255400000.0 -42507700000.0 -35875300000.0 -19359300000.0 -22482100000.0 -33417600000.0 -36666700000.0 -32671000000.0 -31800300000.0 -34797000000.0 -32344000000.0 -21882900000.0 -18576500000.0 -34452600000.0 -39810600000.0 -38035500000.0 -29026900000.0 -34457900000.0 -18990500000.0 -21043500000.0 -9070460000.0 -18319100000.0 -9036570000.0 -16494700000.0 -9036220000.0 -12854300000.0 -9036030000.0 -9731660000.0 -9035930000.0 -9036840000.0 -9035860000.0 -9035840000.0 -9035820000.0 -9035810000.0 -9035800000.0 -9035790000.0 -9035780000.0 -9035770000.0 -9035770000.0 -9035770000.0 -9035760000.0 -9035760000.0 -9035760000.0 -9035750000.0 -9035750000.0 -9035750000.0 -9035750000.0 -9035750000.0 -9035760000.0 -9035760000.0 -9035760000.0 -9035770000.0 -9035770000.0 -9035770000.0 -9035780000.0 -9035790000.0 -9035800000.0 -9035810000.0 -9035820000.0 -9035840000.0 -9035860000.0 -9036840000.0 -9035930000.0 -9731660000.0 -9036030000.0 -12854300000.0 -9036220000.0 -16494700000.0 -9036570000.0 -18319100000.0 -9070460000.0 -21043500000.0 -18990500000.0 -34457900000.0 -29026900000.0 -38035500000.0 -39810600000.0 -34452600000.0 -18576500000.0 -21882900000.0 -32344000000.0 -34797000000.0 -31800300000.0 -30867700000.0 -33010200000.0 -31207700000.0 -21325100000.0 -17906100000.0 -33043600000.0 -37212500000.0 -35874800000.0 -26378400000.0 -31806800000.0 -17309400000.0 -19868700000.0 -9052050000.0 -17461100000.0 -9036570000.0 -15532400000.0 -9036210000.0 -12150000000.0 -9036030000.0 -9512680000.0 -9035920000.0 -9036190000.0 -9035860000.0 -9035840000.0 -9035820000.0 -9035810000.0 -9035800000.0 -9035790000.0 -9035780000.0 -9035770000.0 -9035770000.0 -9035770000.0 -9035760000.0 -9035760000.0 -9035760000.0 -9035750000.0 -9035750000.0 -9035750000.0 -9035750000.0 -9035750000.0 -9035760000.0 -9035760000.0 -9035760000.0 -9035770000.0 -9035770000.0 -9035770000.0 -9035780000.0 -9035790000.0 -9035800000.0 -9035810000.0 -9035820000.0 -9035840000.0 -9035860000.0 -9036190000.0 -9035920000.0 -9512680000.0 -9036030000.0 -12150000000.0 -9036210000.0 -15532400000.0 -9036570000.0 -17461100000.0 -9052050000.0 -19868700000.0 -17309400000.0 -31806800000.0 -26378400000.0 -35874800000.0 -37212500000.0 -33043600000.0 -17906100000.0 -21325100000.0 -31207700000.0 -33010200000.0 -30867700000.0 -29882900000.0 -31309600000.0 -30025100000.0 -20788900000.0 -17317700000.0 -31650200000.0 -34721700000.0 -33784900000.0 -23990000000.0 -29402100000.0 -15865300000.0 -18799900000.0 -9043350000.0 -16646700000.0 -9036560000.0 -14664800000.0 -9036210000.0 -11556700000.0 -9036020000.0 -9356710000.0 -9035920000.0 -9035970000.0 -9035860000.0 -9035840000.0 -9035820000.0 -9035810000.0 -9035800000.0 -9035790000.0 -9035780000.0 -9035770000.0 -9035770000.0 -9035760000.0 -9035760000.0 -9035760000.0 -9035760000.0 -9035750000.0 -9035750000.0 -9035750000.0 -9035750000.0 -9035750000.0 -9035760000.0 -9035760000.0 -9035760000.0 -9035760000.0 -9035770000.0 -9035770000.0 -9035780000.0 -9035790000.0 -9035800000.0 -9035810000.0 -9035820000.0 -9035840000.0 -9035860000.0 -9035970000.0 -9035920000.0 -9356710000.0 -9036020000.0 -11556700000.0 -9036210000.0 -14664800000.0 -9036560000.0 -16646700000.0 -9043350000.0 -18799900000.0 -15865300000.0 -29402100000.0 -23990000000.0 -33784900000.0 -34721700000.0 -31650200000.0 -17317700000.0 -20788900000.0 -30025100000.0 -31309600000.0 -29882900000.0 -28812200000.0 -20260400000.0 -16787500000.0 -32346300000.0 -31775600000.0 -21857000000.0 -27232100000.0 -14636200000.0 -17827100000.0 -9039540000.0 -15879400000.0 -9036540000.0 -13888200000.0 -9036200000.0 -11061200000.0 -9036020000.0 -9247730000.0 -9035910000.0 -9035900000.0 -9035850000.0 -9035830000.0 -9035820000.0 -9035800000.0 -9035790000.0 -9035790000.0 -9035780000.0 -9035770000.0 -9035770000.0 -9035760000.0 -9035760000.0 -9035760000.0 -9035760000.0 -9035750000.0 -9035750000.0 -9035750000.0 -9035750000.0 -9035750000.0 -9035760000.0 -9035760000.0 -9035760000.0 -9035760000.0 -9035770000.0 -9035770000.0 -9035780000.0 -9035790000.0 -9035790000.0 -9035800000.0 -9035820000.0 -9035830000.0 -9035850000.0 -9035900000.0 -9035910000.0 -9247730000.0 -9036020000.0 -11061200000.0 -9036200000.0 -13888200000.0 -9036540000.0 -15879400000.0 -9039540000.0 -17827100000.0 -14636200000.0 -27232100000.0 -21857000000.0 -31775600000.0 -32346300000.0 -16787500000.0 -20260400000.0 -28812200000.0 -28856600000.0 -29695200000.0 -30274800000.0 -30274800000.0 -29695200000.0 -28856600000.0 -27799600000.0 -28165400000.0 -27583500000.0 -19730500000.0 -16297600000.0 -28919900000.0 -30093700000.0 -29854600000.0 -19968800000.0 -25280900000.0 -13599200000.0 -16941000000.0 -9037990000.0 -15161400000.0 -9036520000.0 -13197800000.0 -9036190000.0 -10650700000.0 -9036010000.0 -9173080000.0 -9035910000.0 -9035880000.0 -9035850000.0 -9035830000.0 -9035820000.0 -9035800000.0 -9035790000.0 -9035780000.0 -9035780000.0 -9035770000.0 -9035770000.0 -9035760000.0 -9035760000.0 -9035760000.0 -9035760000.0 -9035750000.0 -9035750000.0 -9035750000.0 -9035750000.0 -9035750000.0 -9035760000.0 -9035760000.0 -9035760000.0 -9035760000.0 -9035770000.0 -9035770000.0 -9035780000.0 -9035780000.0 -9035790000.0 -9035800000.0 -9035820000.0 -9035830000.0 -9035850000.0 -9035880000.0 -9035910000.0 -9173080000.0 -9036010000.0 -10650700000.0 -9036190000.0 -13197800000.0 -9036520000.0 -15161400000.0 -9037990000.0 -16941000000.0 -13599200000.0 -25280900000.0 -19968800000.0 -29854600000.0 -30093700000.0 -28919900000.0 -16297600000.0 -19730500000.0 -27583500000.0 -28165400000.0 -27799600000.0 -26721700000.0 -26716700000.0 -26351800000.0 -19193800000.0 -15835000000.0 -27587900000.0 -27970100000.0 -28027300000.0 -18310800000.0 -23529900000.0 -12731700000.0 -16133400000.0 -9037400000.0 -14494100000.0 -9036500000.0 -12587900000.0 -9036170000.0 -10313500000.0 -9036000000.0 -9122950000.0 -9035900000.0 -9035870000.0 -9035850000.0 -9035830000.0 -9035810000.0 -9035800000.0 -9035790000.0 -9035780000.0 -9035780000.0 -9035770000.0 -9035770000.0 -9035760000.0 -9035760000.0 -9035760000.0 -9035760000.0 -9035750000.0 -9035750000.0 -9035750000.0 -9035750000.0 -9035750000.0 -9035760000.0 -9035760000.0 -9035760000.0 -9035760000.0 -9035770000.0 -9035770000.0 -9035780000.0 -9035780000.0 -9035790000.0 -9035800000.0 -9035810000.0 -9035830000.0 -9035850000.0 -9035870000.0 -9035900000.0 -9122950000.0 -9036000000.0 -10313500000.0 -9036170000.0 -12587900000.0 -9036500000.0 -14494100000.0 -9037400000.0 -16133400000.0 -12731700000.0 -23529900000.0 -18310800000.0 -28027300000.0 -27970100000.0 -27587900000.0 -15835000000.0 -19193800000.0 -26351800000.0 -26716700000.0 -26721700000.0 -25631800000.0 -25344500000.0 -25128100000.0 -18647600000.0 -15390900000.0 -26281400000.0 -25980100000.0 -26297100000.0 -16865800000.0 -21959500000.0 -12011800000.0 -15396700000.0 -9037170000.0 -13877500000.0 -9036480000.0 -12052300000.0 -9036160000.0 -10038800000.0 -9035990000.0 -9090000000.0 -9035900000.0 -9035870000.0 -9035840000.0 -9035830000.0 -9035810000.0 -9035800000.0 -9035790000.0 -9035780000.0 -9035780000.0 -9035770000.0 -9035770000.0 -9035760000.0 -9035760000.0 -9035760000.0 -9035760000.0 -9035750000.0 -9035750000.0 -9035750000.0 -9035750000.0 -9035750000.0 -9035760000.0 -9035760000.0 -9035760000.0 -9035760000.0 -9035770000.0 -9035770000.0 -9035780000.0 -9035780000.0 -9035790000.0 -9035800000.0 -9035810000.0 -9035830000.0 -9035840000.0 -9035870000.0 -9035900000.0 -9090000000.0 -9035990000.0 -10038800000.0 -9036160000.0 -12052300000.0 -9036480000.0 -13877500000.0 -9037170000.0 -15396700000.0 -12011800000.0 -21959500000.0 -16865800000.0 -26297100000.0 -25980100000.0 -26281400000.0 -15390900000.0 -18647600000.0 -25128100000.0 -25344500000.0 -25631800000.0 -24537300000.0 -24043500000.0 -23921000000.0 -18091200000.0 -14959300000.0 -25003000000.0 -24126100000.0 -24665500000.0 -15615100000.0 -20550300000.0 -11419100000.0 -14724100000.0 -9037060000.0 -13311000000.0 -9036450000.0 -11584900000.0 -9036140000.0 -9817010000.0 -9035980000.0 -9068790000.0 -9035890000.0 -9035860000.0 -9035840000.0 -9035820000.0 -9035810000.0 -9035800000.0 -9035790000.0 -9035780000.0 -9035780000.0 -9035770000.0 -9035770000.0 -9035760000.0 -9035760000.0 -9035760000.0 -9035760000.0 -9035750000.0 -9035750000.0 -9035750000.0 -9035750000.0 -9035750000.0 -9035760000.0 -9035760000.0 -9035760000.0 -9035760000.0 -9035770000.0 -9035770000.0 -9035780000.0 -9035780000.0 -9035790000.0 -9035800000.0 -9035810000.0 -9035820000.0 -9035840000.0 -9035860000.0 -9035890000.0 -9068790000.0 -9035980000.0 -9817010000.0 -9036140000.0 -11584900000.0 -9036450000.0 -13311000000.0 -9037060000.0 -14724100000.0 -11419100000.0 -20550300000.0 -15615100000.0 -24665500000.0 -24126100000.0 -25003000000.0 -14959300000.0 -18091200000.0 -23921000000.0 -24043500000.0 -24537300000.0 -23444400000.0 -22808000000.0 -22737700000.0 -17525000000.0 -14536700000.0 -23754700000.0 -22408800000.0 -23132300000.0 -14539200000.0 -19283500000.0 -10934800000.0 -14109700000.0 -9036990000.0 -12793300000.0 -9036410000.0 -11179100000.0 -9036120000.0 -9639390000.0 -9035970000.0 -9055440000.0 -9035880000.0 -9035860000.0 -9035830000.0 -9035820000.0 -9035810000.0 -9035790000.0 -9035790000.0 -9035780000.0 -9035770000.0 -9035770000.0 -9035770000.0 -9035760000.0 -9035760000.0 -9035760000.0 -9035760000.0 -9035750000.0 -9035750000.0 -9035750000.0 -9035750000.0 -9035750000.0 -9035760000.0 -9035760000.0 -9035760000.0 -9035760000.0 -9035770000.0 -9035770000.0 -9035770000.0 -9035780000.0 -9035790000.0 -9035790000.0 -9035810000.0 -9035820000.0 -9035830000.0 -9035860000.0 -9035880000.0 -9055440000.0 -9035970000.0 -9639390000.0 -9036120000.0 -11179100000.0 -9036410000.0 -12793300000.0 -9036990000.0 -14109700000.0 -10934800000.0 -19283500000.0 -14539200000.0 -23132300000.0 -22408800000.0 -23754700000.0 -14536700000.0 -17525000000.0 -22737700000.0 -22808000000.0 -23444400000.0 -22358200000.0 -21632000000.0 -21583400000.0 -16950100000.0 -14120900000.0 -22538200000.0 -20826600000.0 -21695700000.0 -13619100000.0 -18141700000.0 -10541700000.0 -13547700000.0 -9036920000.0 -12322500000.0 -9036380000.0 -10828800000.0 -9036100000.0 -9498390000.0 -9035960000.0 -9047230000.0 -9035880000.0 -9035850000.0 -9035830000.0 -9035810000.0 -9035800000.0 -9035790000.0 -9035780000.0 -9035780000.0 -9035770000.0 -9035770000.0 -9035760000.0 -9035760000.0 -9035760000.0 -9035760000.0 -9035760000.0 -9035750000.0 -9035750000.0 -9035750000.0 -9035750000.0 -9035750000.0 -9035760000.0 -9035760000.0 -9035760000.0 -9035760000.0 -9035760000.0 -9035770000.0 -9035770000.0 -9035780000.0 -9035780000.0 -9035790000.0 -9035800000.0 -9035810000.0 -9035830000.0 -9035850000.0 -9035880000.0 -9047230000.0 -9035960000.0 -9498390000.0 -9036100000.0 -10828800000.0 -9036380000.0 -12322500000.0 -9036920000.0 -13547700000.0 -10541700000.0 -18141700000.0 -13619100000.0 -21695700000.0 -20826600000.0 -22538200000.0 -14120900000.0 -16950100000.0 -21583400000.0 -21632000000.0 -22358200000.0 -21282200000.0 -20509600000.0 -20461700000.0 -16368100000.0 -13711100000.0 -21355000000.0 -19376100000.0 -20352500000.0 -12836200000.0 -17108900000.0 -10224700000.0 -13033300000.0 -9036850000.0 -11896100000.0 -9036340000.0 -10527900000.0 -9036080000.0 -9387420000.0 -9035940000.0 -9042300000.0 -9035870000.0 -9035840000.0 -9035820000.0 -9035810000.0 -9035800000.0 -9035790000.0 -9035780000.0 -9035780000.0 -9035770000.0 -9035770000.0 -9035760000.0 -9035760000.0 -9035760000.0 -9035760000.0 -9035760000.0 -9035750000.0 -9035750000.0 -9035750000.0 -9035750000.0 -9035750000.0 -9035760000.0 -9035760000.0 -9035760000.0 -9035760000.0 -9035760000.0 -9035770000.0 -9035770000.0 -9035780000.0 -9035780000.0 -9035790000.0 -9035800000.0 -9035810000.0 -9035820000.0 -9035840000.0 -9035870000.0 -9042300000.0 -9035940000.0 -9387420000.0 -9036080000.0 -10527900000.0 -9036340000.0 -11896100000.0 -9036850000.0 -13033300000.0 -10224700000.0 -17108900000.0 -12836200000.0 -20352500000.0 -19376100000.0 -21355000000.0 -13711100000.0 -16368100000.0 -20461700000.0 -20509600000.0 -21282200000.0 -20219400000.0 -19434900000.0 -19374900000.0 -15780800000.0 -13306800000.0 -20205700000.0 -18051900000.0 -19098500000.0 -12173100000.0 -16170800000.0 -9970530000.0 -12561900000.0 -9036780000.0 -11511600000.0 -9036300000.0 -10270800000.0 -9036060000.0 -9300860000.0 -9035930000.0 -9039410000.0 -9035860000.0 -9035840000.0 -9035820000.0 -9035810000.0 -9035800000.0 -9035790000.0 -9035780000.0 -9035770000.0 -9035770000.0 -9035770000.0 -9035760000.0 -9035760000.0 -9035760000.0 -9035760000.0 -9035750000.0 -9035750000.0 -9035750000.0 -9035750000.0 -9035750000.0 -9035750000.0 -9035750000.0 -9035760000.0 -9035760000.0 -9035760000.0 -9035760000.0 -9035770000.0 -9035770000.0 -9035770000.0 -9035780000.0 -9035790000.0 -9035800000.0 -9035810000.0 -9035820000.0 -9035840000.0 -9035860000.0 -9039410000.0 -9035930000.0 -9300860000.0 -9036060000.0 -10270800000.0 -9036300000.0 -11511600000.0 -9036780000.0 -12561900000.0 -9970530000.0 -16170800000.0 -12173100000.0 -19098500000.0 -18051900000.0 -20205700000.0 -13306800000.0 -15780800000.0 -19374900000.0 -19434900000.0 -20219400000.0 -19171500000.0 -18402500000.0 -18324100000.0 -15189900000.0 -12908000000.0 -19090500000.0 -16847400000.0 -17928600000.0 -11613700000.0 -15314500000.0 -9767780000.0 -12129300000.0 -9036700000.0 -11165700000.0 -9036260000.0 -10052100000.0 -9036040000.0 -9233910000.0 -9035920000.0 -9037760000.0 -9035850000.0 -9035830000.0 -9035810000.0 -9035800000.0 -9035790000.0 -9035780000.0 -9035780000.0 -9035770000.0 -9035770000.0 -9035770000.0 -9035760000.0 -9035760000.0 -9035760000.0 -9035760000.0 -9035750000.0 -9035750000.0 -9035750000.0 -9035750000.0 -9035750000.0 -9035750000.0 -9035750000.0 -9035760000.0 -9035760000.0 -9035760000.0 -9035760000.0 -9035770000.0 -9035770000.0 -9035770000.0 -9035780000.0 -9035780000.0 -9035790000.0 -9035800000.0 -9035810000.0 -9035830000.0 -9035850000.0 -9037760000.0 -9035920000.0 -9233910000.0 -9036040000.0 -10052100000.0 -9036260000.0 -11165700000.0 -9036700000.0 -12129300000.0 -9767780000.0 -15314500000.0 -11613700000.0 -17928600000.0 -16847400000.0 -19090500000.0 -12908000000.0 -15189900000.0 -18324100000.0 -18402500000.0 -19171500000.0 -18139500000.0 -17407100000.0 -17309100000.0 -14596900000.0 -12514800000.0 -18008900000.0 -15754500000.0 -16836900000.0 -11142900000.0 -14528600000.0 -9606690000.0 -11731400000.0 -9036620000.0 -10855400000.0 -9036220000.0 -9866740000.0 -9036010000.0 -9182590000.0 -9035900000.0 -9036850000.0 -9035840000.0 -9035820000.0 -9035810000.0 -9035800000.0 -9035790000.0 -9035780000.0 -9035780000.0 -9035770000.0 -9035770000.0 -9035760000.0 -9035760000.0 -9035760000.0 -9035760000.0 -9035760000.0 -9035750000.0 -9035750000.0 -9035750000.0 -9035750000.0 -9035750000.0 -9035750000.0 -9035750000.0 -9035760000.0 -9035760000.0 -9035760000.0 -9035760000.0 -9035760000.0 -9035770000.0 -9035770000.0 -9035780000.0 -9035780000.0 -9035790000.0 -9035800000.0 -9035810000.0 -9035820000.0 -9035840000.0 -9036850000.0 -9035900000.0 -9182590000.0 -9036010000.0 -9866740000.0 -9036220000.0 -10855400000.0 -9036620000.0 -11731400000.0 -9606690000.0 -14528600000.0 -11142900000.0 -16836900000.0 -15754500000.0 -18008900000.0 -12514800000.0 -14596900000.0 -17309100000.0 -17407100000.0 -18139500000.0 -17123800000.0 -16443800000.0 -16328900000.0 -14003100000.0 -12127200000.0 -16959900000.0 -14764300000.0 -15817000000.0 -10747600000.0 -13803200000.0 -9479080000.0 -11364700000.0 -9036530000.0 -10577300000.0 -9036170000.0 -9710240000.0 -9035990000.0 -9143580000.0 -9035890000.0 -9036350000.0 -9035830000.0 -9035820000.0 -9035800000.0 -9035790000.0 -9035790000.0 -9035780000.0 -9035770000.0 -9035770000.0 -9035770000.0 -9035760000.0 -9035760000.0 -9035760000.0 -9035760000.0 -9035760000.0 -9035750000.0 -9035750000.0 -9035750000.0 -9035750000.0 -9035750000.0 -9035750000.0 -9035750000.0 -9035760000.0 -9035760000.0 -9035760000.0 -9035760000.0 -9035760000.0 -9035770000.0 -9035770000.0 -9035770000.0 -9035780000.0 -9035790000.0 -9035790000.0 -9035800000.0 -9035820000.0 -9035830000.0 -9036350000.0 -9035890000.0 -9143580000.0 -9035990000.0 -9710240000.0 -9036170000.0 -10577300000.0 -9036530000.0 -11364700000.0 -9479080000.0 -13803200000.0 -10747600000.0 -15817000000.0 -14764300000.0 -16959900000.0 -12127200000.0 -14003100000.0 -16328900000.0 -16443800000.0 -17123800000.0 -16124000000.0 -15508100000.0 -15381600000.0 -13409800000.0 -11745300000.0 -15942000000.0 -13866800000.0 -14861700000.0 -10415600000.0 -13129200000.0 -9378110000.0 -11025500000.0 -9036450000.0 -10328000000.0 -9036130000.0 -9578360000.0 -9035960000.0 -9114180000.0 -9035870000.0 -9036080000.0 -9035820000.0 -9035810000.0 -9035800000.0 -9035790000.0 -9035780000.0 -9035780000.0 -9035770000.0 -9035770000.0 -9035760000.0 -9035760000.0 -9035760000.0 -9035760000.0 -9035760000.0 -9035760000.0 -9035750000.0 -9035750000.0 -9035750000.0 -9035750000.0 -9035750000.0 -9035750000.0 -9035750000.0 -9035760000.0 -9035760000.0 -9035760000.0 -9035760000.0 -9035760000.0 -9035760000.0 -9035770000.0 -9035770000.0 -9035780000.0 -9035780000.0 -9035790000.0 -9035800000.0 -9035810000.0 -9035820000.0 -9036080000.0 -9035870000.0 -9114180000.0 -9035960000.0 -9578360000.0 -9036130000.0 -10328000000.0 -9036450000.0 -11025500000.0 -9378110000.0 -13129200000.0 -10415600000.0 -14861700000.0 -13866800000.0 -15942000000.0 -11745300000.0 -13409800000.0 -15381600000.0 -15508100000.0 -16124000000.0 -15139300000.0 -14595900000.0 -14464800000.0 -12817600000.0 -11368900000.0 -14952700000.0 -13051900000.0 -13964000000.0 -10136100000.0 -12498700000.0 -9298110000.0 -10710500000.0 -9036360000.0 -10104100000.0 -9036080000.0 -9467230000.0 -9035930000.0 -9092190000.0 -9035860000.0 -9035950000.0 -9035820000.0 -9035800000.0 -9035790000.0 -9035780000.0 -9035780000.0 -9035770000.0 -9035770000.0 -9035770000.0 -9035760000.0 -9035760000.0 -9035760000.0 -9035760000.0 -9035760000.0 -9035750000.0 -9035750000.0 -9035750000.0 -9035750000.0 -9035750000.0 -9035750000.0 -9035750000.0 -9035750000.0 -9035750000.0 -9035760000.0 -9035760000.0 -9035760000.0 -9035760000.0 -9035760000.0 -9035770000.0 -9035770000.0 -9035770000.0 -9035780000.0 -9035780000.0 -9035790000.0 -9035800000.0 -9035820000.0 -9035950000.0 -9035860000.0 -9092190000.0 -9035930000.0 -9467230000.0 -9036080000.0 -10104100000.0 -9036360000.0 -10710500000.0 -9298110000.0 -12498700000.0 -10136100000.0 -13964000000.0 -13051900000.0 -14952700000.0 -11368900000.0 -12817600000.0 -14464800000.0 -14595900000.0 -15139300000.0 -14168600000.0 -13703300000.0 -13575400000.0 -12227000000.0 -10997700000.0 -13989500000.0 -12308800000.0 -13116300000.0 -9899720000.0 -11904400000.0 -9234450000.0 -10416300000.0 -9036270000.0 -9902090000.0 -9036030000.0 -9373340000.0 -9035910000.0 -9075830000.0 -9035840000.0 -9035870000.0 -9035810000.0 -9035790000.0 -9035790000.0 -9035780000.0 -9035770000.0 -9035770000.0 -9035770000.0 -9035760000.0 -9035760000.0 -9035760000.0 -9035760000.0 -9035760000.0 -9035760000.0 -9035750000.0 -9035750000.0 -9035750000.0 -9035750000.0 -9035750000.0 -9035750000.0 -9035750000.0 -9035750000.0 -9035750000.0 -9035760000.0 -9035760000.0 -9035760000.0 -9035760000.0 -9035760000.0 -9035760000.0 -9035770000.0 -9035770000.0 -9035770000.0 -9035780000.0 -9035790000.0 -9035790000.0 -9035810000.0 -9035870000.0 -9035840000.0 -9075830000.0 -9035910000.0 -9373340000.0 -9036030000.0 -9902090000.0 -9036270000.0 -10416300000.0 -9234450000.0 -11904400000.0 -9899720000.0 -13116300000.0 -12308800000.0 -13989500000.0 -10997700000.0 -12227000000.0 -13575400000.0 -13703300000.0 -14168600000.0 -13210000000.0 -12826700000.0 -12709800000.0 -11638400000.0 -10631100000.0 -13049100000.0 -11626600000.0 -12311000000.0 -9697900000.0 -11339900000.0 -9183300000.0 -10139600000.0 -9036180000.0 -9718530000.0 -9035980000.0 -9293490000.0 -9035880000.0 -9063700000.0 -9035830000.0 -9035830000.0 -9035800000.0 -9035790000.0 -9035780000.0 -9035770000.0 -9035770000.0 -9035770000.0 -9035760000.0 -9035760000.0 -9035760000.0 -9035760000.0 -9035760000.0 -9035760000.0 -9035760000.0 -9035750000.0 -9035750000.0 -9035750000.0 -9035750000.0 -9035750000.0 -9035750000.0 -9035750000.0 -9035750000.0 -9035750000.0 -9035760000.0 -9035760000.0 -9035760000.0 -9035760000.0 -9035760000.0 -9035760000.0 -9035760000.0 -9035770000.0 -9035770000.0 -9035770000.0 -9035780000.0 -9035790000.0 -9035800000.0 -9035830000.0 -9035830000.0 -9063700000.0 -9035880000.0 -9293490000.0 -9035980000.0 -9718530000.0 -9036180000.0 -10139600000.0 -9183300000.0 -11339900000.0 -9697900000.0 -12311000000.0 -11626600000.0 -13049100000.0 -10631100000.0 -11638400000.0 -12709800000.0 -12826700000.0 -13210000000.0 -12261900000.0 -11962900000.0 -11864200000.0 -11051700000.0 -10268500000.0 -12127800000.0 -10994100000.0 -11540300000.0 -9523080000.0 -10799000000.0 -9141530000.0 -9877180000.0 -9036080000.0 -9549980000.0 -9035930000.0 -9224720000.0 -9035850000.0 -9054660000.0 -9035810000.0 -9035810000.0 -9035790000.0 -9035780000.0 -9035770000.0 -9035770000.0 -9035770000.0 -9035760000.0 -9035760000.0 -9035760000.0 -9035760000.0 -9035760000.0 -9035760000.0 -9035760000.0 -9035750000.0 -9035750000.0 -9035750000.0 -9035750000.0 -9035750000.0 -9035750000.0 -9035750000.0 -9035750000.0 -9035750000.0 -9035750000.0 -9035750000.0 -9035760000.0 -9035760000.0 -9035760000.0 -9035760000.0 -9035760000.0 -9035760000.0 -9035760000.0 -9035770000.0 -9035770000.0 -9035770000.0 -9035780000.0 -9035790000.0 -9035810000.0 -9035810000.0 -9054660000.0 -9035850000.0 -9224720000.0 -9035930000.0 -9549980000.0 -9036080000.0 -9877180000.0 -9141530000.0 -10799000000.0 -9523080000.0 -11540300000.0 -10994100000.0 -12127800000.0 -10268500000.0 -11051700000.0 -11864200000.0 -11962900000.0 -12261900000.0 -11322000000.0 -11108800000.0 -11034200000.0 -10466700000.0 -9909250000.0 -11221800000.0 -10400200000.0 -10796500000.0 -9368420000.0 -10276200000.0 -9106510000.0 -9625860000.0 -9035990000.0 -9393040000.0 -9035880000.0 -9164330000.0 -9035820000.0 -9047790000.0 -9035790000.0 -9035790000.0 -9035780000.0 -9035770000.0 -9035770000.0 -9035760000.0 -9035760000.0 -9035760000.0 -9035760000.0 -9035760000.0 -9035760000.0 -9035760000.0 -9035760000.0 -9035750000.0 -9035750000.0 -9035750000.0 -9035750000.0 -9035750000.0 -9035750000.0 -9035750000.0 -9035750000.0 -9035750000.0 -9035750000.0 -9035750000.0 -9035750000.0 -9035750000.0 -9035760000.0 -9035760000.0 -9035760000.0 -9035760000.0 -9035760000.0 -9035760000.0 -9035760000.0 -9035760000.0 -9035770000.0 -9035770000.0 -9035780000.0 -9035790000.0 -9035790000.0 -9047790000.0 -9035820000.0 -9164330000.0 -9035880000.0 -9393040000.0 -9035990000.0 -9625860000.0 -9106510000.0 -10276200000.0 -9368420000.0 -10796500000.0 -10400200000.0 -11221800000.0 -9909250000.0 -10466700000.0 -11034200000.0 -11108800000.0 -11322000000.0 -10388000000.0 -10261500000.0 -10215500000.0 -9883030000.0 -9552350000.0 -10326700000.0 -9833800000.0 -10071700000.0 -9227680000.0 -9765960000.0 -9076020000.0 -9382400000.0 -9035890000.0 -9244330000.0 -9035830000.0 -9109760000.0 -9035790000.0 -9042370000.0 -9035780000.0 -9035770000.0 -9035770000.0 -9035760000.0 -9035760000.0 -9035760000.0 -9035760000.0 -9035760000.0 -9035760000.0 -9035760000.0 -9035760000.0 -9035750000.0 -9035750000.0 -9035750000.0 -9035750000.0 -9035750000.0 -9035750000.0 -9035750000.0 -9035750000.0 -9035750000.0 -9035750000.0 -9035750000.0 -9035750000.0 -9035750000.0 -9035750000.0 -9035750000.0 -9035750000.0 -9035750000.0 -9035760000.0 -9035760000.0 -9035760000.0 -9035760000.0 -9035760000.0 -9035760000.0 -9035760000.0 -9035760000.0 -9035770000.0 -9035770000.0 -9035780000.0 -9042370000.0 -9035790000.0 -9109760000.0 -9035830000.0 -9244330000.0 -9035890000.0 -9382400000.0 -9076020000.0 -9765960000.0 -9227680000.0 -10071700000.0 -9833800000.0 -10326700000.0 -9552350000.0 -9883030000.0 -10215500000.0 -10261500000.0 -10388000000.0 -9457570000.0 -9418050000.0 -9403470000.0 -9300160000.0 -9196890000.0 -9438210000.0 -9283600000.0 -9358250000.0 -9095030000.0 -9263100000.0 -9048120000.0 -9143590000.0 -9035800000.0 -9100480000.0 -9035780000.0 -9058590000.0 -9035770000.0 -9037750000.0 -9035760000.0 -9035760000.0 -9035760000.0 -9035760000.0 -9035760000.0 -9035760000.0 -9035750000.0 -9035750000.0 -9035750000.0 -9035750000.0 -9035750000.0 -9035750000.0 -9035750000.0 -9035750000.0 -9035750000.0 -9035750000.0 -9035750000.0 -9035750000.0 -9035750000.0 -9035750000.0 -9035750000.0 -9035750000.0 -9035750000.0 -9035750000.0 -9035750000.0 -9035750000.0 -9035750000.0 -9035750000.0 -9035750000.0 -9035750000.0 -9035750000.0 -9035750000.0 -9035750000.0 -9035760000.0 -9035760000.0 -9035760000.0 -9035760000.0 -9035760000.0 -9035760000.0 -9037750000.0 -9035770000.0 -9058590000.0 -9035780000.0 -9100480000.0 -9035800000.0 -9143590000.0 -9048120000.0 -9263100000.0 -9095030000.0 -9358250000.0 -9283600000.0 -9438210000.0 -9196890000.0 -9300160000.0 -9403470000.0 -9418050000.0 -9457570000.0 
SCALARS Shear_Stress float 1
LOOKUP_TABLE default
64278800000.0 178904000000.0 101179000000.0 88413100000.0 26375900000.0 26375900000.0 88413100000.0 101179000000.0 178904000000.0 64278800000.0 41669700000.0 20796200000.0 91105500000.0 139741000000.0 126096000000.0 93661900000.0 118229000000.0 152854000000.0 158759000000.0 163590000000.0 162812000000.0 160783000000.0 158040000000.0 154952000000.0 151805000000.0 148771000000.0 145921000000.0 143365000000.0 141273000000.0 139767000000.0 138853000000.0 138566000000.0 138853000000.0 139767000000.0 141273000000.0 143365000000.0 145921000000.0 148771000000.0 151805000000.0 154952000000.0 158040000000.0 160783000000.0 162812000000.0 163590000000.0 158759000000.0 152854000000.0 118229000000.0 93661900000.0 126096000000.0 139741000000.0 91105500000.0 20796200000.0 41669700000.0 57442400000.0 43801300000.0 345717000000.0 597453000000.0 130349000000.0 12392200000.0 100741000000.0 100741000000.0 12392200000.0 130349000000.0 597453000000.0 345717000000.0 43801300000.0 57442400000.0 90175300000.0 202824000000.0 105826000000.0 165338000000.0 219378000000.0 66785300000.0 29018200000.0 5166600000.0 13187300000.0 39539400000.0 51581100000.0 62947600000.0 73782300000.0 83550000000.0 91921300000.0 98820900000.0 104326000000.0 108588000000.0 111754000000.0 114041000000.0 115341000000.0 115823000000.0 115341000000.0 114041000000.0 111754000000.0 108588000000.0 104326000000.0 98820900000.0 91921300000.0 83550000000.0 73782300000.0 62947600000.0 51581100000.0 39539400000.0 13187300000.0 5166600000.0 29018200000.0 66785300000.0 219378000000.0 165338000000.0 105826000000.0 202824000000.0 90175300000.0 125539000000.0 119358000000.0 300619000000.0 69897200000.0 72256300000.0 131435000000.0 136649000000.0 516962000000.0 196920000000.0 274419000000.0 97267600000.0 116271000000.0 59090000000.0 116562000000.0 93864100000.0 115482000000.0 111473000000.0 109791000000.0 110055000000.0 110902000000.0 111684000000.0 112258000000.0 112608000000.0 112803000000.0 112894000000.0 113114000000.0 113147000000.0 113237000000.0 113147000000.0 113114000000.0 112894000000.0 112803000000.0 112608000000.0 112258000000.0 111684000000.0 110902000000.0 110055000000.0 109791000000.0 111473000000.0 115482000000.0 93864100000.0 116562000000.0 59090000000.0 116271000000.0 97267600000.0 274419000000.0 196920000000.0 516962000000.0 136649000000.0 131435000000.0 72256300000.0 69897200000.0 300619000000.0 119358000000.0 125539000000.0 109330000000.0 350459000000.0 234525000000.0 119675000000.0 68756200000.0 46714600000.0 242641000000.0 315074000000.0 174261000000.0 174261000000.0 315074000000.0 242641000000.0 46714600000.0 68756200000.0 119675000000.0 234525000000.0 350459000000.0 109330000000.0 72702600000.0 334819000000.0 387213000000.0 360631000000.0 328131000000.0 109983000000.0 418589000000.0 293885000000.0 233212000000.0 178609000000.0 55612000000.0 157265000000.0 118588000000.0 153221000000.0 145199000000.0 139729000000.0 139770000000.0 143273000000.0 147343000000.0 150825000000.0 153554000000.0 155608000000.0 157045000000.0 158112000000.0 158656000000.0 158930000000.0 158656000000.0 158112000000.0 157045000000.0 155608000000.0 153554000000.0 150825000000.0 147343000000.0 143273000000.0 139770000000.0 139729000000.0 145199000000.0 153221000000.0 118588000000.0 157265000000.0 55612000000.0 178609000000.0 233212000000.0 293885000000.0 418589000000.0 109983000000.0 328131000000.0 360631000000.0 387213000000.0 334819000000.0 72702600000.0 24799900000.0 213851000000.0 284550000000.0 301507000000.0 451356000000.0 198110000000.0 74632400000.0 154013000000.0 161029000000.0 168636000000.0 176876000000.0 172287000000.0 172814000000.0 33379400000.0 199358000000.0 142159000000.0 185092000000.0 178936000000.0 175889000000.0 172875000000.0 172277000000.0 174903000000.0 179736000000.0 185106000000.0 189846000000.0 193587000000.0 196211000000.0 197720000000.0 198278000000.0 197720000000.0 196211000000.0 193587000000.0 189846000000.0 185106000000.0 179736000000.0 174903000000.0 172277000000.0 172875000000.0 175889000000.0 178936000000.0 185092000000.0 142159000000.0 199358000000.0 33379400000.0 172814000000.0 172287000000.0 176876000000.0 168636000000.0 161029000000.0 154013000000.0 74632400000.0 198110000000.0 451356000000.0 301507000000.0 284550000000.0 213851000000.0 24799900000.0 54964900000.0 19272900000.0 145193000000.0 207187000000.0 403176000000.0 520882000000.0 468041000000.0 339770000000.0 124211000000.0 143195000000.0 134368000000.0 149892000000.0 136910000000.0 136910000000.0 149892000000.0 134368000000.0 143195000000.0 124211000000.0 339770000000.0 468041000000.0 520882000000.0 403176000000.0 207187000000.0 145193000000.0 19272900000.0 54964900000.0 50976200000.0 90580300000.0 111379000000.0 92519500000.0 206689000000.0 379836000000.0 579253000000.0 158262000000.0 122660000000.0 75345400000.0 79215800000.0 142067000000.0 147747000000.0 10970100000.0 212959000000.0 160500000000.0 224290000000.0 223167000000.0 224301000000.0 223899000000.0 222852000000.0 222243000000.0 222033000000.0 221419000000.0 220623000000.0 220449000000.0 220823000000.0 221391000000.0 221658000000.0 221391000000.0 220823000000.0 220449000000.0 220623000000.0 221419000000.0 222033000000.0 222243000000.0 222852000000.0 223899000000.0 224301000000.0 223167000000.0 224290000000.0 160500000000.0 212959000000.0 10970100000.0 147747000000.0 142067000000.0 79215800000.0 75345400000.0 122660000000.0 158262000000.0 579253000000.0 379836000000.0 206689000000.0 92519500000.0 111379000000.0 90580300000.0 50976200000.0 1585320000.0 49515900000.0 39914800000.0 11804900000.0 15629700000.0 603031000000.0 742251000000.0 358215000000.0 215892000000.0 194291000000.0 86606900000.0 88102800000.0 168365000000.0 35415200000.0 180328000000.0 122200000000.0 201237000000.0 207391000000.0 213625000000.0 217584000000.0 220537000000.0 222409000000.0 224182000000.0 226267000000.0 227930000000.0 228861000000.0 229346000000.0 229796000000.0 229962000000.0 229796000000.0 229346000000.0 228861000000.0 227930000000.0 226267000000.0 224182000000.0 222409000000.0 220537000000.0 217584000000.0 213625000000.0 207391000000.0 201237000000.0 122200000000.0 180328000000.0 35415200000.0 168365000000.0 88102800000.0 86606900000.0 194291000000.0 215892000000.0 358215000000.0 742251000000.0 603031000000.0 15629700000.0 11804900000.0 39914800000.0 49515900000.0 1585320000.0 143120000000.0 86702700000.0 211986000000.0 90911700000.0 5350270000.0 58776300000.0 29177300000.0 287644000000.0 574376000000.0 386888000000.0 151085000000.0 136106000000.0 96105400000.0 143451000000.0 244119000000.0 140222000000.0 101324000000.0 101324000000.0 140222000000.0 244119000000.0 143451000000.0 96105400000.0 136106000000.0 151085000000.0 386888000000.0 574376000000.0 287644000000.0 29177300000.0 58776300000.0 5350270000.0 90911700000.0 211986000000.0 86702700000.0 143120000000.0 170142000000.0 336266000000.0 62994800000.0 17738800000.0 73543500000.0 110286000000.0 315343000000.0 75594200000.0 432210000000.0 517291000000.0 399909000000.0 173193000000.0 32247300000.0 295467000000.0 258696000000.0 90561300000.0 111221000000.0 158319000000.0 92251300000.0 196174000000.0 209284000000.0 219961000000.0 227366000000.0 233768000000.0 239700000000.0 244221000000.0 247268000000.0 249628000000.0 251713000000.0 253379000000.0 254545000000.0 254913000000.0 254545000000.0 253379000000.0 251713000000.0 249628000000.0 247268000000.0 244221000000.0 239700000000.0 233768000000.0 227366000000.0 219961000000.0 209284000000.0 196174000000.0 92251300000.0 158319000000.0 111221000000.0 90561300000.0 258696000000.0 295467000000.0 32247300000.0 173193000000.0 399909000000.0 517291000000.0 432210000000.0 75594200000.0 315343000000.0 110286000000.0 73543500000.0 17738800000.0 62994800000.0 336266000000.0 170142000000.0 149228000000.0 407474000000.0 456646000000.0 291931000000.0 23325300000.0 192741000000.0 81561000000.0 583318000000.0 62717900000.0 378847000000.0 134603000000.0 298219000000.0 296601000000.0 121041000000.0 170267000000.0 87979100000.0 186117000000.0 186523000000.0 196338000000.0 209556000000.0 221808000000.0 232348000000.0 241304000000.0 248473000000.0 254095000000.0 258696000000.0 262350000000.0 264771000000.0 265597000000.0 264771000000.0 262350000000.0 258696000000.0 254095000000.0 248473000000.0 241304000000.0 232348000000.0 221808000000.0 209556000000.0 196338000000.0 186523000000.0 186117000000.0 87979100000.0 170267000000.0 121041000000.0 296601000000.0 298219000000.0 134603000000.0 378847000000.0 62717900000.0 583318000000.0 81561000000.0 192741000000.0 23325300000.0 291931000000.0 456646000000.0 407474000000.0 149228000000.0 123518000000.0 285418000000.0 356239000000.0 389433000000.0 475241000000.0 66436200000.0 99824900000.0 202096000000.0 463691000000.0 105726000000.0 341426000000.0 633865000000.0 150418000000.0 120438000000.0 172993000000.0 126006000000.0 115423000000.0 165090000000.0 124231000000.0 124231000000.0 165090000000.0 115423000000.0 126006000000.0 172993000000.0 120438000000.0 150418000000.0 633865000000.0 341426000000.0 105726000000.0 463691000000.0 202096000000.0 99824900000.0 66436200000.0 475241000000.0 389433000000.0 356239000000.0 285418000000.0 123518000000.0 111689000000.0 102722000000.0 287337000000.0 228578000000.0 476461000000.0 727253000000.0 81390200000.0 91445900000.0 9436280000.0 105058000000.0 651983000000.0 12999100000.0 995305000000.0 417810000000.0 122750000000.0 4286220000.0 67444200000.0 35847100000.0 85566300000.0 91882500000.0 103258000000.0 281028000000.0 195347000000.0 256535000000.0 232856000000.0 211042000000.0 192230000000.0 174900000000.0 159368000000.0 147433000000.0 138859000000.0 132414000000.0 127396000000.0 123529000000.0 120910000000.0 119956000000.0 120910000000.0 123529000000.0 127396000000.0 132414000000.0 138859000000.0 147433000000.0 159368000000.0 174900000000.0 192230000000.0 211042000000.0 232856000000.0 256535000000.0 195347000000.0 281028000000.0 103258000000.0 91882500000.0 85566300000.0 35847100000.0 67444200000.0 4286220000.0 122750000000.0 417810000000.0 995305000000.0 12999100000.0 651983000000.0 105058000000.0 9436280000.0 91445900000.0 81390200000.0 727253000000.0 476461000000.0 228578000000.0 287337000000.0 102722000000.0 111689000000.0 37987100000.0 258459000000.0 231701000000.0 84119400000.0 149221000000.0 21393900000.0 287194000000.0 268764000000.0 188919000000.0 58630300000.0 87801400000.0 271352000000.0 292302000000.0 402721000000.0 232427000000.0 110927000000.0 230509000000.0 308580000000.0 371399000000.0 404252000000.0 413682000000.0 417719000000.0 420216000000.0 420249000000.0 418600000000.0 416125000000.0 413751000000.0 411810000000.0 410191000000.0 408962000000.0 408463000000.0 408962000000.0 410191000000.0 411810000000.0 413751000000.0 416125000000.0 418600000000.0 420249000000.0 420216000000.0 417719000000.0 413682000000.0 404252000000.0 371399000000.0 308580000000.0 230509000000.0 110927000000.0 232427000000.0 402721000000.0 292302000000.0 271352000000.0 87801400000.0 58630300000.0 188919000000.0 268764000000.0 287194000000.0 21393900000.0 149221000000.0 84119400000.0 231701000000.0 258459000000.0 37987100000.0 65252200000.0 363737000000.0 322479000000.0 189486000000.0 88817600000.0 16661300000.0 26286000000.0 364967000000.0 292964000000.0 226689000000.0 286308000000.0 154293000000.0 47680900000.0 10970100000.0 532671000000.0 599547000000.0 522602000000.0 499698000000.0 437209000000.0 171497000000.0 171497000000.0 437209000000.0 499698000000.0 522602000000.0 599547000000.0 532671000000.0 10970100000.0 47680900000.0 154293000000.0 286308000000.0 226689000000.0 292964000000.0 364967000000.0 26286000000.0 16661300000.0 88817600000.0 189486000000.0 322479000000.0 363737000000.0 65252200000.0 68670700000.0 263473000000.0 392094000000.0 81681700000.0 302257000000.0 69998400000.0 19276800000.0 503454000000.0 99640700000.0 61806300000.0 144574000000.0 189046000000.0 162262000000.0 27191800000.0 240662000000.0 288135000000.0 224978000000.0 344699000000.0 320809000000.0 299424000000.0 190474000000.0 399732000000.0 312017000000.0 431618000000.0 364141000000.0 370102000000.0 337908000000.0 307260000000.0 278890000000.0 253560000000.0 231276000000.0 212275000000.0 196704000000.0 184274000000.0 175002000000.0 169285000000.0 167299000000.0 169285000000.0 175002000000.0 184274000000.0 196704000000.0 212275000000.0 231276000000.0 253560000000.0 278890000000.0 307260000000.0 337908000000.0 370102000000.0 364141000000.0 431618000000.0 312017000000.0 399732000000.0 190474000000.0 299424000000.0 320809000000.0 344699000000.0 224978000000.0 288135000000.0 240662000000.0 27191800000.0 162262000000.0 189046000000.0 144574000000.0 61806300000.0 99640700000.0 503454000000.0 19276800000.0 69998400000.0 302257000000.0 81681700000.0 392094000000.0 263473000000.0 68670700000.0 242262000000.0 80050100000.0 199010000000.0 42862900000.0 81276700000.0 264889000000.0 696224000000.0 343166000000.0 260146000000.0 127218000000.0 90290300000.0 166551000000.0 210772000000.0 208507000000.0 23586800000.0 85999100000.0 93158000000.0 56497100000.0 116772000000.0 51506500000.0 31084400000.0 74949600000.0 86785400000.0 97158900000.0 106511000000.0 114982000000.0 122265000000.0 128065000000.0 132488000000.0 135810000000.0 138165000000.0 139574000000.0 139998000000.0 139574000000.0 138165000000.0 135810000000.0 132488000000.0 128065000000.0 122265000000.0 114982000000.0 106511000000.0 97158900000.0 86785400000.0 74949600000.0 31084400000.0 51506500000.0 116772000000.0 56497100000.0 93158000000.0 85999100000.0 23586800000.0 208507000000.0 210772000000.0 166551000000.0 90290300000.0 127218000000.0 260146000000.0 343166000000.0 696224000000.0 264889000000.0 81276700000.0 42862900000.0 199010000000.0 80050100000.0 242262000000.0 253438000000.0 397540000000.0 152972000000.0 106072000000.0 182355000000.0 199370000000.0 218126000000.0 228585000000.0 119685000000.0 33439000000.0 78601500000.0 61012700000.0 40888300000.0 40888300000.0 61012700000.0 78601500000.0 33439000000.0 119685000000.0 228585000000.0 218126000000.0 199370000000.0 182355000000.0 106072000000.0 152972000000.0 397540000000.0 253438000000.0 124950000000.0 495777000000.0 364089000000.0 21925300000.0 335924000000.0 147736000000.0 6912490000.0 291899000000.0 109254000000.0 91637600000.0 167282000000.0 102346000000.0 130956000000.0 53654100000.0 16721700000.0 51619600000.0 6741700000.0 88211900000.0 12591100000.0 113371000000.0 1827240000.0 122866000000.0 8554720000.0 19247700000.0 9035750000.0 9035750000.0 9035750000.0 9035750000.0 9035750000.0 9035750000.0 9035750000.0 9035750000.0 9035750000.0 9035750000.0 9035750000.0 9061670000.0 9035750000.0 9035750000.0 9035750000.0 9035750000.0 9035750000.0 9035750000.0 9035750000.0 9035750000.0 9035750000.0 9035750000.0 9035750000.0 19247700000.0 8554720000.0 122866000000.0 1827240000.0 113371000000.0 12591100000.0 88211900000.0 6741700000.0 51619600000.0 16721700000.0 53654100000.0 130956000000.0 102346000000.0 167282000000.0 91637600000.0 109254000000.0 291899000000.0 6912490000.0 147736000000.0 335924000000.0 21925300000.0 364089000000.0 495777000000.0 124950000000.0 56333200000.0 89854500000.0 250586000000.0 218302000000.0 66759700000.0 127134000000.0 266707000000.0 187709000000.0 150059000000.0 152618000000.0 205117000000.0 215416000000.0 120586000000.0 120258000000.0 174311000000.0 94878700000.0 200590000000.0 194945000000.0 188401000000.0 182140000000.0 176103000000.0 170176000000.0 164429000000.0 159134000000.0 154491000000.0 150554000000.0 147394000000.0 145120000000.0 143773000000.0 143315000000.0 143773000000.0 145120000000.0 147394000000.0 150554000000.0 154491000000.0 159134000000.0 164429000000.0 170176000000.0 176103000000.0 182140000000.0 188401000000.0 194945000000.0 200590000000.0 94878700000.0 174311000000.0 120258000000.0 120586000000.0 215416000000.0 205117000000.0 152618000000.0 150059000000.0 187709000000.0 266707000000.0 127134000000.0 66759700000.0 218302000000.0 250586000000.0 89854500000.0 56333200000.0 12964900000.0 349868000000.0 199943000000.0 89993800000.0 45189300000.0 242952000000.0 179666000000.0 217414000000.0 194629000000.0 143666000000.0 102713000000.0 121786000000.0 6338340000.0 88552500000.0 319368000000.0 164128000000.0 60372700000.0 44360900000.0 44360900000.0 60372700000.0 164128000000.0 319368000000.0 88552500000.0 6338340000.0 121786000000.0 102713000000.0 143666000000.0 194629000000.0 217414000000.0 179666000000.0 242952000000.0 45189300000.0 89993800000.0 199943000000.0 349868000000.0 12964900000.0 9037450000.0 270322000000.0 14772700000.0 196478000000.0 130876000000.0 35210400000.0 136585000000.0 114041000000.0 103707000000.0 32764200000.0 84754200000.0 50933200000.0 19752100000.0 52485300000.0 43915100000.0 41504500000.0 210060000.0 95019600000.0 3675070000.0 77271700000.0 9035750000.0 9035750000.0 9035750000.0 9035750000.0 9035750000.0 9035750000.0 9035750000.0 9035750000.0 9035750000.0 9035750000.0 9035750000.0 9035750000.0 9035750000.0 9042440000.0 9035750000.0 9035750000.0 9035750000.0 9035750000.0 9035750000.0 9035750000.0 9035750000.0 9035750000.0 9035750000.0 9035750000.0 9035750000.0 9035750000.0 9035750000.0 77271700000.0 3675070000.0 95019600000.0 210060000.0 41504500000.0 43915100000.0 52485300000.0 19752100000.0 50933200000.0 84754200000.0 32764200000.0 103707000000.0 114041000000.0 136585000000.0 35210400000.0 130876000000.0 196478000000.0 14772700000.0 270322000000.0 9037450000.0 259214000000.0 237349000000.0 172229000000.0 164708000000.0 219007000000.0 219007000000.0 164708000000.0 172229000000.0 237349000000.0 259214000000.0 53372300000.0 386323000.0 21652700000.0 60445600000.0 49528100000.0 16300700000.0 198202000000.0 109325000000.0 30958100000.0 1002470000.0 34498700000.0 106860000000.0 169050000000.0 217784000000.0 261496000000.0 229399000000.0 211127000000.0 221446000000.0 159463000000.0 197505000000.0 102796000000.0 181806000000.0 114368000000.0 155048000000.0 138743000000.0 123892000000.0 110572000000.0 98768800000.0 88442100000.0 79504400000.0 71856100000.0 65455200000.0 60281600000.0 56300800000.0 53477800000.0 51790900000.0 51228200000.0 51790900000.0 53477800000.0 56300800000.0 60281600000.0 65455200000.0 71856100000.0 79504400000.0 88442100000.0 98768800000.0 110572000000.0 123892000000.0 138743000000.0 155048000000.0 114368000000.0 181806000000.0 102796000000.0 197505000000.0 159463000000.0 221446000000.0 211127000000.0 229399000000.0 261496000000.0 217784000000.0 169050000000.0 106860000000.0 34498700000.0 1002470000.0 30958100000.0 109325000000.0 198202000000.0 16300700000.0 49528100000.0 60445600000.0 21652700000.0 386324000.0 53372300000.0 65580300000.0 31265900000.0 69425700000.0 62814400000.0 46280700000.0 13609000000.0 16688300000.0 236681000000.0 174156000000.0 115785000000.0 135573000000.0 118406000000.0 56442500000.0 38322700000.0 6324910000.0 44979200000.0 5871370000.0 58796900000.0 6562620000.0 63580000000.0 6011950000.0 89003600000.0 8016410000.0 47029600000.0 9035750000.0 9035750000.0 9035750000.0 9035750000.0 9035750000.0 9035750000.0 9035750000.0 9035750000.0 9035750000.0 9035750000.0 9035750000.0 9035750000.0 9035750000.0 9035750000.0 9035750000.0 9035750000.0 9035750000.0 9035750000.0 9035750000.0 9035750000.0 9035750000.0 9035750000.0 9035750000.0 9035750000.0 9035750000.0 9035750000.0 9035750000.0 47029600000.0 8016410000.0 89003600000.0 6011950000.0 63580000000.0 6562620000.0 58796900000.0 5871370000.0 44979200000.0 6324910000.0 38322700000.0 56442500000.0 118406000000.0 135573000000.0 115785000000.0 174156000000.0 236681000000.0 16688300000.0 13609000000.0 46280700000.0 62814400000.0 69425700000.0 31265900000.0 65580300000.0 55298900000.0 53293300000.0 73685400000.0 51749800000.0 26910400000.0 2252890000.0 22119100000.0 220793000000.0 111418000000.0 17468300000.0 12585000000.0 43647000000.0 109325000000.0 104112000000.0 104702000000.0 43103800000.0 69533800000.0 4948490000.0 47837600000.0 13617800000.0 33423800000.0 43586900000.0 24492300000.0 6426680000.0 16940400000.0 13578800000.0 10642300000.0 8077370000.0 5836020000.0 3897840000.0 2251970000.0 881556000.0 235481000.0 1121320000.0 1794350000.0 2267500000.0 2548620000.0 2641880000.0 2548620000.0 2267500000.0 1794350000.0 1121320000.0 235481000.0 881556000.0 2251970000.0 3897840000.0 5836020000.0 8077370000.0 10642300000.0 13578800000.0 16940400000.0 6426680000.0 24492300000.0 43586900000.0 33423800000.0 13617800000.0 47837600000.0 4948490000.0 69533800000.0 43103800000.0 104702000000.0 104112000000.0 109325000000.0 43647000000.0 12585000000.0 17468300000.0 111418000000.0 220793000000.0 22119100000.0 2252890000.0 26910400000.0 51749800000.0 73685400000.0 53293300000.0 55298900000.0 48675000000.0 46919300000.0 58749800000.0 50434400000.0 38155100000.0 11781100000.0 7893830000.0 179605000000.0 177678000000.0 128280000000.0 150626000000.0 109982000000.0 54462500000.0 33902200000.0 8541020000.0 54213400000.0 8639180000.0 59266900000.0 8742730000.0 59449600000.0 8776270000.0 69099700000.0 8981560000.0 26438300000.0 9035870000.0 9035750000.0 9035750000.0 9035750000.0 9035750000.0 9035750000.0 9035750000.0 9035750000.0 9035750000.0 9035750000.0 9035750000.0 9035750000.0 9035750000.0 9035750000.0 9035750000.0 9035750000.0 9035750000.0 9035750000.0 9035750000.0 9035750000.0 9035750000.0 9035750000.0 9035750000.0 9035750000.0 9035750000.0 9035750000.0 9035870000.0 26438300000.0 8981560000.0 69099700000.0 8776270000.0 59449600000.0 8742730000.0 59266900000.0 8639180000.0 54213400000.0 8541020000.0 33902200000.0 54462500000.0 109982000000.0 150626000000.0 128280000000.0 177678000000.0 179605000000.0 7893830000.0 11781100000.0 38155100000.0 50434400000.0 58749800000.0 46919300000.0 48675000000.0 47518600000.0 56414100000.0 65434500000.0 67032700000.0 65188800000.0 26662300000.0 49000200000.0 174283000000.0 166091000000.0 111225000000.0 127441000000.0 81505300000.0 43862800000.0 21079800000.0 406699000.0 45774800000.0 3227450000.0 50406300000.0 5126820000.0 52286300000.0 6441750000.0 55525200000.0 7303030000.0 18249000000.0 7910680000.0 8151650000.0 8353240000.0 8520310000.0 8654610000.0 8759330000.0 8840870000.0 8902360000.0 8946790000.0 8979330000.0 9003270000.0 9019290000.0 9027990000.0 9030660000.0 9027990000.0 9019290000.0 9003270000.0 8979330000.0 8946790000.0 8902360000.0 8840870000.0 8759330000.0 8654610000.0 8520310000.0 8353240000.0 8151650000.0 7910680000.0 18249000000.0 7303040000.0 55525200000.0 6441750000.0 52286300000.0 5126820000.0 50406300000.0 3227450000.0 45774800000.0 406700000.0 21079800000.0 43862800000.0 81505300000.0 127441000000.0 111225000000.0 166091000000.0 174283000000.0 49000200000.0 26662300000.0 65188800000.0 67032700000.0 65434500000.0 56414100000.0 47518600000.0 44615100000.0 56308400000.0 58724000000.0 64377100000.0 67427700000.0 33128400000.0 56626000000.0 139296000000.0 150481000000.0 108801000000.0 125760000000.0 82787900000.0 54633100000.0 30058600000.0 9035790000.0 50020100000.0 9035780000.0 51215300000.0 9035770000.0 51083000000.0 9035760000.0 47042100000.0 9035520000.0 15036100000.0 9035760000.0 9035780000.0 9035770000.0 9035770000.0 9035760000.0 9035760000.0 9035760000.0 9035760000.0 9035760000.0 9035750000.0 9035750000.0 9035750000.0 9035750000.0 9035750000.0 9035750000.0 9035750000.0 9035750000.0 9035750000.0 9035760000.0 9035760000.0 9035760000.0 9035760000.0 9035760000.0 9035770000.0 9035770000.0 9035780000.0 9035760000.0 15036100000.0 9035520000.0 47042100000.0 9035760000.0 51083000000.0 9035770000.0 51215300000.0 9035780000.0 50020100000.0 9035790000.0 30058600000.0 54633100000.0 82787900000.0 125760000000.0 108801000000.0 150481000000.0 139296000000.0 56626000000.0 33128400000.0 67427700000.0 64377100000.0 58724000000.0 56308400000.0 44615100000.0 43175200000.0 57731500000.0 55397700000.0 63657600000.0 69579300000.0 41674200000.0 66747000000.0 114705000000.0 131415000000.0 97592200000.0 110557000000.0 71249800000.0 49557600000.0 28671900000.0 9035870000.0 46622500000.0 9035820000.0 47712400000.0 9035800000.0 46637500000.0 9035780000.0 37889200000.0 9035770000.0 12095100000.0 9035770000.0 9035780000.0 9035770000.0 9035770000.0 9035760000.0 9035760000.0 9035760000.0 9035760000.0 9035760000.0 9035760000.0 9035750000.0 9035750000.0 9035750000.0 9035750000.0 9035750000.0 9035750000.0 9035750000.0 9035760000.0 9035760000.0 9035760000.0 9035760000.0 9035760000.0 9035760000.0 9035770000.0 9035770000.0 9035780000.0 9035770000.0 12095100000.0 9035770000.0 37889200000.0 9035780000.0 46637500000.0 9035800000.0 47712400000.0 9035820000.0 46622500000.0 9035870000.0 28671900000.0 49557600000.0 71249800000.0 110557000000.0 97592200000.0 131415000000.0 114705000000.0 66747000000.0 41674200000.0 69579300000.0 63657600000.0 55397700000.0 57731500000.0 43175200000.0 41920000000.0 58052900000.0 51428000000.0 60320500000.0 67335700000.0 45827300000.0 71259900000.0 95174100000.0 114911000000.0 90133800000.0 98471300000.0 63766500000.0 44235800000.0 28528300000.0 9035950000.0 43400100000.0 9035870000.0 44624900000.0 9035820000.0 42285700000.0 9035800000.0 30293400000.0 9035790000.0 10349300000.0 9035780000.0 9035780000.0 9035780000.0 9035770000.0 9035770000.0 9035760000.0 9035760000.0 9035760000.0 9035760000.0 9035760000.0 9035750000.0 9035750000.0 9035750000.0 9035750000.0 9035750000.0 9035750000.0 9035750000.0 9035760000.0 9035760000.0 9035760000.0 9035760000.0 9035760000.0 9035770000.0 9035770000.0 9035780000.0 9035780000.0 9035780000.0 10349300000.0 9035790000.0 30293400000.0 9035800000.0 42285700000.0 9035820000.0 44624900000.0 9035870000.0 43400100000.0 9035950000.0 28528300000.0 44235800000.0 63766500000.0 98471300000.0 90133800000.0 114911000000.0 95174100000.0 71259900000.0 45827300000.0 67335700000.0 60320500000.0 51428000000.0 58052900000.0 41920000000.0 40988200000.0 58174700000.0 48099800000.0 56354800000.0 63377400000.0 48525200000.0 74124200000.0 81936600000.0 101169000000.0 84213500000.0 87029300000.0 57345900000.0 38130700000.0 28659300000.0 9036020000.0 40579600000.0 9035910000.0 41757300000.0 9035850000.0 38086000000.0 9035820000.0 24215000000.0 9035800000.0 9482920000.0 9035790000.0 9035790000.0 9035780000.0 9035770000.0 9035770000.0 9035760000.0 9035760000.0 9035760000.0 9035760000.0 9035760000.0 9035750000.0 9035750000.0 9035750000.0 9035750000.0 9035750000.0 9035750000.0 9035750000.0 9035760000.0 9035760000.0 9035760000.0 9035760000.0 9035760000.0 9035770000.0 9035770000.0 9035780000.0 9035790000.0 9035790000.0 9482920000.0 9035800000.0 24215000000.0 9035820000.0 38086000000.0 9035850000.0 41757300000.0 9035910000.0 40579600000.0 9036020000.0 28659300000.0 38130700000.0 57345900000.0 87029300000.0 84213500000.0 101169000000.0 81936600000.0 74124200000.0 48525200000.0 63377400000.0 56354800000.0 48099800000.0 58174700000.0 40988200000.0 40253600000.0 58064100000.0 45402200000.0 52082100000.0 58503100000.0 49879800000.0 75237000000.0 73222000000.0 90292700000.0 79937200000.0 77265300000.0 52557300000.0 32324000000.0 28782100000.0 9036090000.0 38192300000.0 9035950000.0 39002800000.0 9035880000.0 34101500000.0 9035840000.0 19532900000.0 9035810000.0 9153790000.0 9035800000.0 9035790000.0 9035780000.0 9035770000.0 9035770000.0 9035770000.0 9035760000.0 9035760000.0 9035760000.0 9035760000.0 9035750000.0 9035750000.0 9035750000.0 9035750000.0 9035750000.0 9035750000.0 9035750000.0 9035760000.0 9035760000.0 9035760000.0 9035760000.0 9035770000.0 9035770000.0 9035770000.0 9035780000.0 9035790000.0 9035800000.0 9153790000.0 9035810000.0 19532900000.0 9035840000.0 34101500000.0 9035880000.0 39002800000.0 9035950000.0 38192300000.0 9036090000.0 28782100000.0 32324000000.0 52557300000.0 77265300000.0 79937200000.0 90292700000.0 73222000000.0 75237000000.0 49879800000.0 58503100000.0 52082100000.0 45402200000.0 58064100000.0 40253600000.0 39612100000.0 57653000000.0 43291900000.0 47781500000.0 53329700000.0 50307100000.0 75014100000.0 67777300000.0 81835900000.0 76661200000.0 69074100000.0 48935300000.0 27124800000.0 28713000000.0 9036160000.0 36132200000.0 9035990000.0 36314200000.0 9035900000.0 30388600000.0 9035850000.0 16067200000.0 9035820000.0 9060040000.0 9035800000.0 9035790000.0 9035780000.0 9035780000.0 9035770000.0 9035770000.0 9035760000.0 9035760000.0 9035760000.0 9035760000.0 9035760000.0 9035750000.0 9035750000.0 9035750000.0 9035750000.0 9035750000.0 9035760000.0 9035760000.0 9035760000.0 9035760000.0 9035760000.0 9035770000.0 9035770000.0 9035780000.0 9035780000.0 9035790000.0 9035800000.0 9060040000.0 9035820000.0 16067200000.0 9035850000.0 30388600000.0 9035900000.0 36314200000.0 9035990000.0 36132200000.0 9036160000.0 28713000000.0 27124800000.0 48935300000.0 69074100000.0 76661200000.0 81835900000.0 67777300000.0 75014100000.0 50307100000.0 53329700000.0 47781500000.0 43291900000.0 57653000000.0 39612100000.0 43665200000.0 48241400000.0 75189000000.0 62207800000.0 45943300000.0 22684700000.0 28432000000.0 9036220000.0 34262700000.0 9036020000.0 33676000000.0 9035920000.0 26987400000.0 9035870000.0 13600200000.0 9035830000.0 9039750000.0 9035810000.0 9035790000.0 9035790000.0 9035780000.0 9035770000.0 9035770000.0 9035770000.0 9035760000.0 9035760000.0 9035760000.0 9035760000.0 9035750000.0 9035750000.0 9035750000.0 9035750000.0 9035750000.0 9035760000.0 9035760000.0 9035760000.0 9035760000.0 9035770000.0 9035770000.0 9035770000.0 9035780000.0 9035790000.0 9035790000.0 9035810000.0 9039750000.0 9035830000.0 13600200000.0 9035870000.0 26987400000.0 9035920000.0 33676000000.0 9036020000.0 34262700000.0 9036220000.0 28432000000.0 22684700000.0 45943300000.0 62207800000.0 75189000000.0 48241400000.0 43665200000.0 39007500000.0 56899800000.0 41694300000.0 50077100000.0 73714900000.0 64419500000.0 73887900000.0 73887900000.0 64419500000.0 73714900000.0 50077100000.0 41694300000.0 56899800000.0 39007500000.0 38429400000.0 55805600000.0 40514500000.0 39873400000.0 43451300000.0 49394800000.0 71649300000.0 62121400000.0 69796800000.0 71264400000.0 56352500000.0 43199800000.0 19038400000.0 27967900000.0 9036280000.0 32488600000.0 9036060000.0 31098800000.0 9035940000.0 23923200000.0 9035880000.0 11908000000.0 9035840000.0 9036340000.0 9035810000.0 9035800000.0 9035790000.0 9035780000.0 9035780000.0 9035770000.0 9035770000.0 9035760000.0 9035760000.0 9035760000.0 9035760000.0 9035750000.0 9035750000.0 9035750000.0 9035750000.0 9035750000.0 9035760000.0 9035760000.0 9035760000.0 9035760000.0 9035770000.0 9035770000.0 9035780000.0 9035780000.0 9035790000.0 9035800000.0 9035810000.0 9036340000.0 9035840000.0 11908000000.0 9035880000.0 23923200000.0 9035940000.0 31098800000.0 9036060000.0 32488600000.0 9036280000.0 27967900000.0 19038400000.0 43199800000.0 56352500000.0 71264400000.0 69796800000.0 62121400000.0 71649300000.0 49394800000.0 43451300000.0 39873400000.0 40514500000.0 55805600000.0 38429400000.0 37886400000.0 54404800000.0 39649600000.0 36489400000.0 39079000000.0 48408100000.0 69100300000.0 60163700000.0 65210300000.0 68534000000.0 51234800000.0 40546100000.0 16148100000.0 27355400000.0 9036330000.0 30763600000.0 9036090000.0 28612000000.0 9035960000.0 21208500000.0 9035890000.0 10787000000.0 9035840000.0 9035880000.0 9035810000.0 9035800000.0 9035790000.0 9035780000.0 9035780000.0 9035770000.0 9035770000.0 9035760000.0 9035760000.0 9035760000.0 9035760000.0 9035750000.0 9035750000.0 9035750000.0 9035750000.0 9035750000.0 9035760000.0 9035760000.0 9035760000.0 9035760000.0 9035770000.0 9035770000.0 9035780000.0 9035780000.0 9035790000.0 9035800000.0 9035810000.0 9035880000.0 9035840000.0 10787000000.0 9035890000.0 21208500000.0 9035960000.0 28612000000.0 9036090000.0 30763600000.0 9036330000.0 27355400000.0 16148100000.0 40546100000.0 51234800000.0 68534000000.0 65210300000.0 60163700000.0 69100300000.0 48408100000.0 39079000000.0 36489400000.0 39649600000.0 54404800000.0 37886400000.0 37381900000.0 52751100000.0 38996400000.0 33553800000.0 35189200000.0 47222600000.0 66270400000.0 58197500000.0 61085600000.0 65534700000.0 46647400000.0 37962400000.0 13937400000.0 26625800000.0 9036380000.0 29072100000.0 9036120000.0 26251200000.0 9035980000.0 18845200000.0 9035900000.0 10068900000.0 9035850000.0 9035840000.0 9035820000.0 9035800000.0 9035790000.0 9035780000.0 9035780000.0 9035770000.0 9035770000.0 9035760000.0 9035760000.0 9035760000.0 9035760000.0 9035750000.0 9035750000.0 9035750000.0 9035750000.0 9035750000.0 9035760000.0 9035760000.0 9035760000.0 9035760000.0 9035770000.0 9035770000.0 9035780000.0 9035780000.0 9035790000.0 9035800000.0 9035820000.0 9035840000.0 9035850000.0 10068900000.0 9035900000.0 18845200000.0 9035980000.0 26251200000.0 9036120000.0 29072100000.0 9036380000.0 26625800000.0 13937400000.0 37962400000.0 46647400000.0 65534700000.0 61085600000.0 58197500000.0 66270400000.0 47222600000.0 35189200000.0 33553800000.0 38996400000.0 52751100000.0 37381900000.0 36905900000.0 50905700000.0 38458600000.0 31069900000.0 31804300000.0 45912400000.0 63287700000.0 56125800000.0 57175600000.0 62220900000.0 42443100000.0 35478000000.0 12307800000.0 25806600000.0 9036430000.0 27414200000.0 9036140000.0 24046500000.0 9035990000.0 16824100000.0 9035910000.0 9624330000.0 9035850000.0 9035830000.0 9035820000.0 9035800000.0 9035790000.0 9035790000.0 9035780000.0 9035770000.0 9035770000.0 9035760000.0 9035760000.0 9035760000.0 9035760000.0 9035750000.0 9035750000.0 9035750000.0 9035750000.0 9035750000.0 9035760000.0 9035760000.0 9035760000.0 9035760000.0 9035770000.0 9035770000.0 9035780000.0 9035790000.0 9035790000.0 9035800000.0 9035820000.0 9035830000.0 9035850000.0 9624330000.0 9035910000.0 16824100000.0 9035990000.0 24046500000.0 9036140000.0 27414200000.0 9036430000.0 25806600000.0 12307800000.0 35478000000.0 42443100000.0 62220900000.0 57175600000.0 56125800000.0 63287700000.0 45912400000.0 31804300000.0 31069900000.0 38458600000.0 50905700000.0 36905900000.0 36437800000.0 48928100000.0 37953900000.0 29009700000.0 28913000000.0 44527700000.0 60233900000.0 53955400000.0 53334400000.0 58647500000.0 38536300000.0 33125700000.0 11150400000.0 24921300000.0 9036460000.0 25797500000.0 9036160000.0 22018500000.0 9036000000.0 15126500000.0 9035920000.0 9358530000.0 9035860000.0 9035840000.0 9035820000.0 9035810000.0 9035800000.0 9035790000.0 9035780000.0 9035770000.0 9035770000.0 9035770000.0 9035760000.0 9035760000.0 9035760000.0 9035750000.0 9035750000.0 9035750000.0 9035750000.0 9035750000.0 9035760000.0 9035760000.0 9035760000.0 9035770000.0 9035770000.0 9035770000.0 9035780000.0 9035790000.0 9035800000.0 9035810000.0 9035820000.0 9035840000.0 9035860000.0 9358530000.0 9035920000.0 15126500000.0 9036000000.0 22018500000.0 9036160000.0 25797500000.0 9036460000.0 24921300000.0 11150400000.0 33125700000.0 38536300000.0 58647500000.0 53334400000.0 53955400000.0 60233900000.0 44527700000.0 28913000000.0 29009700000.0 37953900000.0 48928100000.0 36437800000.0 35953300000.0 46871100000.0 37420100000.0 27324000000.0 26480100000.0 43101900000.0 57163400000.0 51715300000.0 49511700000.0 54920700000.0 34896700000.0 30927500000.0 10357800000.0 23990600000.0 9036500000.0 24232700000.0 9036180000.0 20177800000.0 9036010000.0 13726100000.0 9035920000.0 9205450000.0 9035860000.0 9035840000.0 9035820000.0 9035810000.0 9035800000.0 9035790000.0 9035780000.0 9035770000.0 9035770000.0 9035770000.0 9035760000.0 9035760000.0 9035760000.0 9035750000.0 9035750000.0 9035750000.0 9035750000.0 9035750000.0 9035760000.0 9035760000.0 9035760000.0 9035770000.0 9035770000.0 9035770000.0 9035780000.0 9035790000.0 9035800000.0 9035810000.0 9035820000.0 9035840000.0 9035860000.0 9205450000.0 9035920000.0 13726100000.0 9036010000.0 20177800000.0 9036180000.0 24232700000.0 9036500000.0 23990600000.0 10357800000.0 30927500000.0 34896700000.0 54920700000.0 49511700000.0 51715300000.0 57163400000.0 43101900000.0 26480100000.0 27324000000.0 37420100000.0 46871100000.0 35953300000.0 35429400000.0 44778900000.0 36815700000.0 25954000000.0 24456800000.0 41656200000.0 54113300000.0 49431600000.0 45724600000.0 51154900000.0 31526700000.0 28893300000.0 9834100000.0 23032900000.0 9036520000.0 22731500000.0 9036190000.0 18526900000.0 9036020000.0 12591400000.0 9035930000.0 9120790000.0 9035860000.0 9035840000.0 9035820000.0 9035810000.0 9035800000.0 9035790000.0 9035780000.0 9035780000.0 9035770000.0 9035770000.0 9035760000.0 9035760000.0 9035760000.0 9035750000.0 9035750000.0 9035750000.0 9035750000.0 9035750000.0 9035760000.0 9035760000.0 9035760000.0 9035770000.0 9035770000.0 9035780000.0 9035780000.0 9035790000.0 9035800000.0 9035810000.0 9035820000.0 9035840000.0 9035860000.0 9120790000.0 9035930000.0 12591400000.0 9036020000.0 18526900000.0 9036190000.0 22731500000.0 9036520000.0 23032900000.0 9834100000.0 28893300000.0 31526700000.0 51154900000.0 45724600000.0 49431600000.0 54113300000.0 41656200000.0 24456800000.0 25954000000.0 36815700000.0 44778900000.0 35429400000.0 34848100000.0 42687500000.0 36117100000.0 24838700000.0 22788300000.0 40204100000.0 51108500000.0 47125700000.0 42022300000.0 47449700000.0 28439300000.0 27023900000.0 9500410000.0 22063800000.0 9036540000.0 21304900000.0 9036200000.0 17061700000.0 9036030000.0 11688400000.0 9035930000.0 9076060000.0 9035860000.0 9035840000.0 9035820000.0 9035810000.0 9035800000.0 9035790000.0 9035780000.0 9035780000.0 9035770000.0 9035770000.0 9035760000.0 9035760000.0 9035760000.0 9035750000.0 9035750000.0 9035750000.0 9035750000.0 9035750000.0 9035760000.0 9035760000.0 9035760000.0 9035770000.0 9035770000.0 9035780000.0 9035780000.0 9035790000.0 9035800000.0 9035810000.0 9035820000.0 9035840000.0 9035860000.0 9076060000.0 9035930000.0 11688400000.0 9036030000.0 17061700000.0 9036200000.0 21304900000.0 9036540000.0 22063800000.0 9500410000.0 27023900000.0 28439300000.0 47449700000.0 42022300000.0 47125700000.0 51108500000.0 40204100000.0 22788300000.0 24838700000.0 36117100000.0 42687500000.0 34848100000.0 34197300000.0 40625100000.0 35315500000.0 23921000000.0 21418100000.0 38753700000.0 48165300000.0 44816200000.0 38459900000.0 43882300000.0 25644000000.0 25314000000.0 9295620000.0 21097000000.0 9036560000.0 19962300000.0 9036210000.0 15773900000.0 9036030000.0 10982700000.0 9035930000.0 9053680000.0 9035860000.0 9035840000.0 9035820000.0 9035810000.0 9035800000.0 9035790000.0 9035780000.0 9035780000.0 9035770000.0 9035770000.0 9035760000.0 9035760000.0 9035760000.0 9035750000.0 9035750000.0 9035750000.0 9035750000.0 9035750000.0 9035760000.0 9035760000.0 9035760000.0 9035770000.0 9035770000.0 9035780000.0 9035780000.0 9035790000.0 9035800000.0 9035810000.0 9035820000.0 9035840000.0 9035860000.0 9053680000.0 9035930000.0 10982700000.0 9036030000.0 15773900000.0 9036210000.0 19962300000.0 9036560000.0 21097000000.0 9295620000.0 25314000000.0 25644000000.0 43882300000.0 38459900000.0 44816200000.0 48165300000.0 38753700000.0 21418100000.0 23921000000.0 35315500000.0 40625100000.0 34197300000.0 33471600000.0 38613000000.0 34412600000.0 23149900000.0 20291800000.0 37309700000.0 45295300000.0 42520700000.0 35085000000.0 40507400000.0 23142800000.0 23754700000.0 9174920000.0 20144400000.0 9036570000.0 18710500000.0 9036220000.0 14652300000.0 9036030000.0 10441300000.0 9035930000.0 9043190000.0 9035860000.0 9035840000.0 9035820000.0 9035810000.0 9035800000.0 9035790000.0 9035780000.0 9035780000.0 9035770000.0 9035770000.0 9035760000.0 9035760000.0 9035760000.0 9035750000.0 9035750000.0 9035750000.0 9035750000.0 9035750000.0 9035760000.0 9035760000.0 9035760000.0 9035770000.0 9035770000.0 9035780000.0 9035780000.0 9035790000.0 9035800000.0 9035810000.0 9035820000.0 9035840000.0 9035860000.0 9043190000.0 9035930000.0 10441300000.0 9036030000.0 14652300000.0 9036220000.0 18710500000.0 9036570000.0 20144400000.0 9174920000.0 23754700000.0 23142800000.0 40507400000.0 35085000000.0 42520700000.0 45295300000.0 37309700000.0 20291800000.0 23149900000.0 34412600000.0 38613000000.0 33471600000.0 32671000000.0 36666700000.0 33417600000.0 22482100000.0 19359300000.0 35875300000.0 42507700000.0 40255400000.0 31933100000.0 37359800000.0 20929200000.0 22335000000.0 9106900000.0 19215700000.0 9036570000.0 17554000000.0 9036220000.0 13683700000.0 9036030000.0 10033300000.0 9035930000.0 9038640000.0 9035860000.0 9035840000.0 9035820000.0 9035810000.0 9035800000.0 9035790000.0 9035780000.0 9035780000.0 9035770000.0 9035770000.0 9035760000.0 9035760000.0 9035760000.0 9035750000.0 9035750000.0 9035750000.0 9035750000.0 9035750000.0 9035760000.0 9035760000.0 9035760000.0 9035770000.0 9035770000.0 9035780000.0 9035780000.0 9035790000.0 9035800000.0 9035810000.0 9035820000.0 9035840000.0 9035860000.0 9038640000.0 9035930000.0 10033300000.0 9036030000.0 13683700000.0 9036220000.0 17554000000.0 9036570000.0 19215700000.0 9106900000.0 22335000000.0 20929200000.0 37359800000.0 31933100000.0 40255400000.0 42507700000.0 35875300000.0 19359300000.0 22482100000.0 33417600000.0 36666700000.0 32671000000.0 31800300000.0 34797000000.0 32344000000.0 21882900000.0 18576500000.0 34452600000.0 39810600000.0 38035500000.0 29026900000.0 34457900000.0 18990500000.0 21043500000.0 9070460000.0 18319100000.0 9036570000.0 16494700000.0 9036220000.0 12854300000.0 9036030000.0 9731660000.0 9035930000.0 9036840000.0 9035860000.0 9035840000.0 9035820000.0 9035810000.0 9035800000.0 9035790000.0 9035780000.0 9035770000.0 9035770000.0 9035770000.0 9035760000.0 9035760000.0 9035760000.0 9035750000.0 9035750000.0 9035750000.0 9035750000.0 9035750000.0 9035760000.0 9035760000.0 9035760000.0 9035770000.0 9035770000.0 9035770000.0 9035780000.0 9035790000.0 9035800000.0 9035810000.0 9035820000.0 9035840000.0 9035860000.0 9036840000.0 9035930000.0 9731660000.0 9036030000.0 12854300000.0 9036220000.0 16494700000.0 9036570000.0 18319100000.0 9070460000.0 21043500000.0 18990500000.0 34457900000.0 29026900000.0 38035500000.0 39810600000.0 34452600000.0 18576500000.0 21882900000.0 32344000000.0 34797000000.0 31800300000.0 30867700000.0 33010200000.0 31207700000.0 21325100000.0 17906100000.0 33043600000.0 37212500000.0 35874800000.0 26378400000.0 31806800000.0 17309400000.0 19868700000.0 9052050000.0 17461100000.0 9036570000.0 15532400000.0 9036210000.0 12150000000.0 9036030000.0 9512680000.0 9035920000.0 9036190000.0 9035860000.0 9035840000.0 9035820000.0 9035810000.0 9035800000.0 9035790000.0 9035780000.0 9035770000.0 9035770000.0 9035770000.0 9035760000.0 9035760000.0 9035760000.0 9035750000.0 9035750000.0 9035750000.0 9035750000.0 9035750000.0 9035760000.0 9035760000.0 9035760000.0 9035770000.0 9035770000.0 9035770000.0 9035780000.0 9035790000.0 9035800000.0 9035810000.0 9035820000.0 9035840000.0 9035860000.0 9036190000.0 9035920000.0 9512680000.0 9036030000.0 12150000000.0 9036210000.0 15532400000.0 9036570000.0 17461100000.0 9052050000.0 19868700000.0 17309400000.0 31806800000.0 26378400000.0 35874800000.0 37212500000.0 33043600000.0 17906100000.0 21325100000.0 31207700000.0 33010200000.0 30867700000.0 29882900000.0 31309600000.0 30025100000.0 20788900000.0 17317700000.0 31650200000.0 34721700000.0 33784900000.0 23990000000.0 29402100000.0 15865300000.0 18799900000.0 9043350000.0 16646700000.0 9036560000.0 14664800000.0 9036210000.0 11556700000.0 9036020000.0 9356710000.0 9035920000.0 9035970000.0 9035860000.0 9035840000.0 9035820000.0 9035810000.0 9035800000.0 9035790000.0 9035780000.0 9035770000.0 9035770000.0 9035760000.0 9035760000.0 9035760000.0 9035760000.0 9035750000.0 9035750000.0 9035750000.0 9035750000.0 9035750000.0 9035760000.0 9035760000.0 9035760000.0 9035760000.0 9035770000.0 9035770000.0 9035780000.0 9035790000.0 9035800000.0 9035810000.0 9035820000.0 9035840000.0 9035860000.0 9035970000.0 9035920000.0 9356710000.0 9036020000.0 11556700000.0 9036210000.0 14664800000.0 9036560000.0 16646700000.0 9043350000.0 18799900000.0 15865300000.0 29402100000.0 23990000000.0 33784900000.0 34721700000.0 31650200000.0 17317700000.0 20788900000.0 30025100000.0 31309600000.0 29882900000.0 28812200000.0 20260400000.0 16787500000.0 32346300000.0 31775600000.0 21857000000.0 27232100000.0 14636200000.0 17827100000.0 9039540000.0 15879400000.0 9036540000.0 13888200000.0 9036200000.0 11061200000.0 9036020000.0 9247730000.0 9035910000.0 9035900000.0 9035850000.0 9035830000.0 9035820000.0 9035800000.0 9035790000.0 9035790000.0 9035780000.0 9035770000.0 9035770000.0 9035760000.0 9035760000.0 9035760000.0 9035760000.0 9035750000.0 9035750000.0 9035750000.0 9035750000.0 9035750000.0 9035760000.0 9035760000.0 9035760000.0 9035760000.0 9035770000.0 9035770000.0 9035780000.0 9035790000.0 9035790000.0 9035800000.0 9035820000.0 9035830000.0 9035850000.0 9035900000.0 9035910000.0 9247730000.0 9036020000.0 11061200000.0 9036200000.0 13888200000.0 9036540000.0 15879400000.0 9039540000.0 17827100000.0 14636200000.0 27232100000.0 21857000000.0 31775600000.0 32346300000.0 16787500000.0 20260400000.0 28812200000.0 28856600000.0 29695200000.0 30274800000.0 30274800000.0 29695200000.0 28856600000.0 27799600000.0 28165400000.0 27583500000.0 19730500000.0 16297600000.0 28919900000.0 30093700000.0 29854600000.0 19968800000.0 25280900000.0 13599200000.0 16941000000.0 9037990000.0 15161400000.0 9036520000.0 13197800000.0 9036190000.0 10650700000.0 9036010000.0 9173080000.0 9035910000.0 9035880000.0 9035850000.0 9035830000.0 9035820000.0 9035800000.0 9035790000.0 9035780000.0 9035780000.0 9035770000.0 9035770000.0 9035760000.0 9035760000.0 9035760000.0 9035760000.0 9035750000.0 9035750000.0 9035750000.0 9035750000.0 9035750000.0 9035760000.0 9035760000.0 9035760000.0 9035760000.0 9035770000.0 9035770000.0 9035780000.0 9035780000.0 9035790000.0 9035800000.0 9035820000.0 9035830000.0 9035850000.0 9035880000.0 9035910000.0 9173080000.0 9036010000.0 10650700000.0 9036190000.0 13197800000.0 9036520000.0 15161400000.0 9037990000.0 16941000000.0 13599200000.0 25280900000.0 19968800000.0 29854600000.0 30093700000.0 28919900000.0 16297600000.0 19730500000.0 27583500000.0 28165400000.0 27799600000.0 26721700000.0 26716700000.0 26351800000.0 19193800000.0 15835000000.0 27587900000.0 27970100000.0 28027300000.0 18310800000.0 23529900000.0 12731700000.0 16133400000.0 9037400000.0 14494100000.0 9036500000.0 12587900000.0 9036170000.0 10313500000.0 9036000000.0 9122950000.0 9035900000.0 9035870000.0 9035850000.0 9035830000.0 9035810000.0 9035800000.0 9035790000.0 9035780000.0 9035780000.0 9035770000.0 9035770000.0 9035760000.0 9035760000.0 9035760000.0 9035760000.0 9035750000.0 9035750000.0 9035750000.0 9035750000.0 9035750000.0 9035760000.0 9035760000.0 9035760000.0 9035760000.0 9035770000.0 9035770000.0 9035780000.0 9035780000.0 9035790000.0 9035800000.0 9035810000.0 9035830000.0 9035850000.0 9035870000.0 9035900000.0 9122950000.0 9036000000.0 10313500000.0 9036170000.0 12587900000.0 9036500000.0 14494100000.0 9037400000.0 16133400000.0 12731700000.0 23529900000.0 18310800000.0 28027300000.0 27970100000.0 27587900000.0 15835000000.0 19193800000.0 26351800000.0 26716700000.0 26721700000.0 25631800000.0 25344500000.0 25128100000.0 18647600000.0 15390900000.0 26281400000.0 25980100000.0 26297100000.0 16865800000.0 21959500000.0 12011800000.0 15396700000.0 9037170000.0 13877500000.0 9036480000.0 12052300000.0 9036160000.0 10038800000.0 9035990000.0 9090000000.0 9035900000.0 9035870000.0 9035840000.0 9035830000.0 9035810000.0 9035800000.0 9035790000.0 9035780000.0 9035780000.0 9035770000.0 9035770000.0 9035760000.0 9035760000.0 9035760000.0 9035760000.0 9035750000.0 9035750000.0 9035750000.0 9035750000.0 9035750000.0 9035760000.0 9035760000.0 9035760000.0 9035760000.0 9035770000.0 9035770000.0 9035780000.0 9035780000.0 9035790000.0 9035800000.0 9035810000.0 9035830000.0 9035840000.0 9035870000.0 9035900000.0 9090000000.0 9035990000.0 10038800000.0 9036160000.0 12052300000.0 9036480000.0 13877500000.0 9037170000.0 15396700000.0 12011800000.0 21959500000.0 16865800000.0 26297100000.0 25980100000.0 26281400000.0 15390900000.0 18647600000.0 25128100000.0 25344500000.0 25631800000.0 24537300000.0 24043500000.0 23921000000.0 18091200000.0 14959300000.0 25003000000.0 24126100000.0 24665500000.0 15615100000.0 20550300000.0 11419100000.0 14724100000.0 9037060000.0 13311000000.0 9036450000.0 11584900000.0 9036140000.0 9817010000.0 9035980000.0 9068790000.0 9035890000.0 9035860000.0 9035840000.0 9035820000.0 9035810000.0 9035800000.0 9035790000.0 9035780000.0 9035780000.0 9035770000.0 9035770000.0 9035760000.0 9035760000.0 9035760000.0 9035760000.0 9035750000.0 9035750000.0 9035750000.0 9035750000.0 9035750000.0 9035760000.0 9035760000.0 9035760000.0 9035760000.0 9035770000.0 9035770000.0 9035780000.0 9035780000.0 9035790000.0 9035800000.0 9035810000.0 9035820000.0 9035840000.0 9035860000.0 9035890000.0 9068790000.0 9035980000.0 9817010000.0 9036140000.0 11584900000.0 9036450000.0 13311000000.0 9037060000.0 14724100000.0 11419100000.0 20550300000.0 15615100000.0 24665500000.0 24126100000.0 25003000000.0 14959300000.0 18091200000.0 23921000000.0 24043500000.0 24537300000.0 23444400000.0 22808000000.0 22737700000.0 17525000000.0 14536700000.0 23754700000.0 22408800000.0 23132300000.0 14539200000.0 19283500000.0 10934800000.0 14109700000.0 9036990000.0 12793300000.0 9036410000.0 11179100000.0 9036120000.0 9639390000.0 9035970000.0 9055440000.0 9035880000.0 9035860000.0 9035830000.0 9035820000.0 9035810000.0 9035790000.0 9035790000.0 9035780000.0 9035770000.0 9035770000.0 9035770000.0 9035760000.0 9035760000.0 9035760000.0 9035760000.0 9035750000.0 9035750000.0 9035750000.0 9035750000.0 9035750000.0 9035760000.0 9035760000.0 9035760000.0 9035760000.0 9035770000.0 9035770000.0 9035770000.0 9035780000.0 9035790000.0 9035790000.0 9035810000.0 9035820000.0 9035830000.0 9035860000.0 9035880000.0 9055440000.0 9035970000.0 9639390000.0 9036120000.0 11179100000.0 9036410000.0 12793300000.0 9036990000.0 14109700000.0 10934800000.0 19283500000.0 14539200000.0 23132300000.0 22408800000.0 23754700000.0 14536700000.0 17525000000.0 22737700000.0 22808000000.0 23444400000.0 22358200000.0 21632000000.0 21583400000.0 16950100000.0 14120900000.0 22538200000.0 20826600000.0 21695700000.0 13619100000.0 18141700000.0 10541700000.0 13547700000.0 9036920000.0 12322500000.0 9036380000.0 10828800000.0 9036100000.0 9498390000.0 9035960000.0 9047230000.0 9035880000.0 9035850000.0 9035830000.0 9035810000.0 9035800000.0 9035790000.0 9035780000.0 9035780000.0 9035770000.0 9035770000.0 9035760000.0 9035760000.0 9035760000.0 9035760000.0 9035760000.0 9035750000.0 9035750000.0 9035750000.0 9035750000.0 9035750000.0 9035760000.0 9035760000.0 9035760000.0 9035760000.0 9035760000.0 9035770000.0 9035770000.0 9035780000.0 9035780000.0 9035790000.0 9035800000.0 9035810000.0 9035830000.0 9035850000.0 9035880000.0 9047230000.0 9035960000.0 9498390000.0 9036100000.0 10828800000.0 9036380000.0 12322500000.0 9036920000.0 13547700000.0 10541700000.0 18141700000.0 13619100000.0 21695700000.0 20826600000.0 22538200000.0 14120900000.0 16950100000.0 21583400000.0 21632000000.0 22358200000.0 21282200000.0 20509600000.0 20461700000.0 16368100000.0 13711100000.0 21355000000.0 19376100000.0 20352500000.0 12836200000.0 17108900000.0 10224700000.0 13033300000.0 9036850000.0 11896100000.0 9036340000.0 10527900000.0 9036080000.0 9387420000.0 9035940000.0 9042300000.0 9035870000.0 9035840000.0 9035820000.0 9035810000.0 9035800000.0 9035790000.0 9035780000.0 9035780000.0 9035770000.0 9035770000.0 9035760000.0 9035760000.0 9035760000.0 9035760000.0 9035760000.0 9035750000.0 9035750000.0 9035750000.0 9035750000.0 9035750000.0 9035760000.0 9035760000.0 9035760000.0 9035760000.0 9035760000.0 9035770000.0 9035770000.0 9035780000.0 9035780000.0 9035790000.0 9035800000.0 9035810000.0 9035820000.0 9035840000.0 9035870000.0 9042300000.0 9035940000.0 9387420000.0 9036080000.0 10527900000.0 9036340000.0 11896100000.0 9036850000.0 13033300000.0 10224700000.0 17108900000.0 12836200000.0 20352500000.0 19376100000.0 21355000000.0 13711100000.0 16368100000.0 20461700000.0 20509600000.0 21282200000.0 20219400000.0 19434900000.0 19374900000.0 15780800000.0 13306800000.0 20205700000.0 18051900000.0 19098500000.0 12173100000.0 16170800000.0 9970530000.0 12561900000.0 9036780000.0 11511600000.0 9036300000.0 10270800000.0 9036060000.0 9300860000.0 9035930000.0 9039410000.0 9035860000.0 9035840000.0 9035820000.0 9035810000.0 9035800000.0 9035790000.0 9035780000.0 9035770000.0 9035770000.0 9035770000.0 9035760000.0 9035760000.0 9035760000.0 9035760000.0 9035750000.0 9035750000.0 9035750000.0 9035750000.0 9035750000.0 9035750000.0 9035750000.0 9035760000.0 9035760000.0 9035760000.0 9035760000.0 9035770000.0 9035770000.0 9035770000.0 9035780000.0 9035790000.0 9035800000.0 9035810000.0 9035820000.0 9035840000.0 9035860000.0 9039410000.0 9035930000.0 9300860000.0 9036060000.0 10270800000.0 9036300000.0 11511600000.0 9036780000.0 12561900000.0 9970530000.0 16170800000.0 12173100000.0 19098500000.0 18051900000.0 20205700000.0 13306800000.0 15780800000.0 19374900000.0 19434900000.0 20219400000.0 19171500000.0 18402500000.0 18324100000.0 15189900000.0 12908000000.0 19090500000.0 16847400000.0 17928600000.0 11613700000.0 15314500000.0 9767780000.0 12129300000.0 9036700000.0 11165700000.0 9036260000.0 10052100000.0 9036040000.0 9233910000.0 9035920000.0 9037760000.0 9035850000.0 9035830000.0 9035810000.0 9035800000.0 9035790000.0 9035780000.0 9035780000.0 9035770000.0 9035770000.0 9035770000.0 9035760000.0 9035760000.0 9035760000.0 9035760000.0 9035750000.0 9035750000.0 9035750000.0 9035750000.0 9035750000.0 9035750000.0 9035750000.0 9035760000.0 9035760000.0 9035760000.0 9035760000.0 9035770000.0 9035770000.0 9035770000.0 9035780000.0 9035780000.0 9035790000.0 9035800000.0 9035810000.0 9035830000.0 9035850000.0 9037760000.0 9035920000.0 9233910000.0 9036040000.0 10052100000.0 9036260000.0 11165700000.0 9036700000.0 12129300000.0 9767780000.0 15314500000.0 11613700000.0 17928600000.0 16847400000.0 19090500000.0 12908000000.0 15189900000.0 18324100000.0 18402500000.0 19171500000.0 18139500000.0 17407100000.0 17309100000.0 14596900000.0 12514800000.0 18008900000.0 15754500000.0 16836900000.0 11142900000.0 14528600000.0 9606690000.0 11731400000.0 9036620000.0 10855400000.0 9036220000.0 9866740000.0 9036010000.0 9182590000.0 9035900000.0 9036850000.0 9035840000.0 9035820000.0 9035810000.0 9035800000.0 9035790000.0 9035780000.0 9035780000.0 9035770000.0 9035770000.0 9035760000.0 9035760000.0 9035760000.0 9035760000.0 9035760000.0 9035750000.0 9035750000.0 9035750000.0 9035750000.0 9035750000.0 9035750000.0 9035750000.0 9035760000.0 9035760000.0 9035760000.0 9035760000.0 9035760000.0 9035770000.0 9035770000.0 9035780000.0 9035780000.0 9035790000.0 9035800000.0 9035810000.0 9035820000.0 9035840000.0 9036850000.0 9035900000.0 9182590000.0 9036010000.0 9866740000.0 9036220000.0 10855400000.0 9036620000.0 11731400000.0 9606690000.0 14528600000.0 11142900000.0 16836900000.0 15754500000.0 18008900000.0 12514800000.0 14596900000.0 17309100000.0 17407100000.0 18139500000.0 17123800000.0 16443800000.0 16328900000.0 14003100000.0 12127200000.0 16959900000.0 14764300000.0 15817000000.0 10747600000.0 13803200000.0 9479080000.0 11364700000.0 9036530000.0 10577300000.0 9036170000.0 9710240000.0 9035990000.0 9143580000.0 9035890000.0 9036350000.0 9035830000.0 9035820000.0 9035800000.0 9035790000.0 9035790000.0 9035780000.0 9035770000.0 9035770000.0 9035770000.0 9035760000.0 9035760000.0 9035760000.0 9035760000.0 9035760000.0 9035750000.0 9035750000.0 9035750000.0 9035750000.0 9035750000.0 9035750000.0 9035750000.0 9035760000.0 9035760000.0 9035760000.0 9035760000.0 9035760000.0 9035770000.0 9035770000.0 9035770000.0 9035780000.0 9035790000.0 9035790000.0 9035800000.0 9035820000.0 9035830000.0 9036350000.0 9035890000.0 9143580000.0 9035990000.0 9710240000.0 9036170000.0 10577300000.0 9036530000.0 11364700000.0 9479080000.0 13803200000.0 10747600000.0 15817000000.0 14764300000.0 16959900000.0 12127200000.0 14003100000.0 16328900000.0 16443800000.0 17123800000.0 16124000000.0 15508100000.0 15381600000.0 13409800000.0 11745300000.0 15942000000.0 13866800000.0 14861700000.0 10415600000.0 13129200000.0 9378110000.0 11025500000.0 9036450000.0 10328000000.0 9036130000.0 9578360000.0 9035960000.0 9114180000.0 9035870000.0 9036080000.0 9035820000.0 9035810000.0 9035800000.0 9035790000.0 9035780000.0 9035780000.0 9035770000.0 9035770000.0 9035760000.0 9035760000.0 9035760000.0 9035760000.0 9035760000.0 9035760000.0 9035750000.0 9035750000.0 9035750000.0 9035750000.0 9035750000.0 9035750000.0 9035750000.0 9035760000.0 9035760000.0 9035760000.0 9035760000.0 9035760000.0 9035760000.0 9035770000.0 9035770000.0 9035780000.0 9035780000.0 9035790000.0 9035800000.0 9035810000.0 9035820000.0 9036080000.0 9035870000.0 9114180000.0 9035960000.0 9578360000.0 9036130000.0 10328000000.0 9036450000.0 11025500000.0 9378110000.0 13129200000.0 10415600000.0 14861700000.0 13866800000.0 15942000000.0 11745300000.0 13409800000.0 15381600000.0 15508100000.0 16124000000.0 15139300000.0 14595900000.0 14464800000.0 12817600000.0 11368900000.0 14952700000.0 13051900000.0 13964000000.0 10136100000.0 12498700000.0 9298110000.0 10710500000.0 9036360000.0 10104100000.0 9036080000.0 9467230000.0 9035930000.0 9092190000.0 9035860000.0 9035950000.0 9035820000.0 9035800000.0 9035790000.0 9035780000.0 9035780000.0 9035770000.0 9035770000.0 9035770000.0 9035760000.0 9035760000.0 9035760000.0 9035760000.0 9035760000.0 9035750000.0 9035750000.0 9035750000.0 9035750000.0 9035750000.0 9035750000.0 9035750000.0 9035750000.0 9035750000.0 9035760000.0 9035760000.0 9035760000.0 9035760000.0 9035760000.0 9035770000.0 9035770000.0 9035770000.0 9035780000.0 9035780000.0 9035790000.0 9035800000.0 9035820000.0 9035950000.0 9035860000.0 9092190000.0 9035930000.0 9467230000.0 9036080000.0 10104100000.0 9036360000.0 10710500000.0 9298110000.0 12498700000.0 10136100000.0 13964000000.0 13051900000.0 14952700000.0 11368900000.0 12817600000.0 14464800000.0 14595900000.0 15139300000.0 14168600000.0 13703300000.0 13575400000.0 12227000000.0 10997700000.0 13989500000.0 12308800000.0 13116300000.0 9899720000.0 11904400000.0 9234450000.0 10416300000.0 9036270000.0 9902090000.0 9036030000.0 9373340000.0 9035910000.0 9075830000.0 9035840000.0 9035870000.0 9035810000.0 9035790000.0 9035790000.0 9035780000.0 9035770000.0 9035770000.0 9035770000.0 9035760000.0 9035760000.0 9035760000.0 9035760000.0 9035760000.0 9035760000.0 9035750000.0 9035750000.0 9035750000.0 9035750000.0 9035750000.0 9035750000.0 9035750000.0 9035750000.0 9035750000.0 9035760000.0 9035760000.0 9035760000.0 9035760000.0 9035760000.0 9035760000.0 9035770000.0 9035770000.0 9035770000.0 9035780000.0 9035790000.0 9035790000.0 9035810000.0 9035870000.0 9035840000.0 9075830000.0 9035910000.0 9373340000.0 9036030000.0 9902090000.0 9036270000.0 10416300000.0 9234450000.0 11904400000.0 9899720000.0 13116300000.0 12308800000.0 13989500000.0 10997700000.0 12227000000.0 13575400000.0 13703300000.0 14168600000.0 13210000000.0 12826700000.0 12709800000.0 11638400000.0 10631100000.0 13049100000.0 11626600000.0 12311000000.0 9697900000.0 11339900000.0 9183300000.0 10139600000.0 9036180000.0 9718530000.0 9035980000.0 9293490000.0 9035880000.0 9063700000.0 9035830000.0 9035830000.0 9035800000.0 9035790000.0 9035780000.0 9035770000.0 9035770000.0 9035770000.0 9035760000.0 9035760000.0 9035760000.0 9035760000.0 9035760000.0 9035760000.0 9035760000.0 9035750000.0 9035750000.0 9035750000.0 9035750000.0 9035750000.0 9035750000.0 9035750000.0 9035750000.0 9035750000.0 9035760000.0 9035760000.0 9035760000.0 9035760000.0 9035760000.0 9035760000.0 9035760000.0 9035770000.0 9035770000.0 9035770000.0 9035780000.0 9035790000.0 9035800000.0 9035830000.0 9035830000.0 9063700000.0 9035880000.0 9293490000.0 9035980000.0 9718530000.0 9036180000.0 10139600000.0 9183300000.0 11339900000.0 9697900000.0 12311000000.0 11626600000.0 13049100000.0 10631100000.0 11638400000.0 12709800000.0 12826700000.0 13210000000.0 12261900000.0 11962900000.0 11864200000.0 11051700000.0 10268500000.0 12127800000.0 10994100000.0 11540300000.0 9523080000.0 10799000000.0 9141530000.0 9877180000.0 9036080000.0 9549980000.0 9035930000.0 9224720000.0 9035850000.0 9054660000.0 9035810000.0 9035810000.0 9035790000.0 9035780000.0 9035770000.0 9035770000.0 9035770000.0 9035760000.0 9035760000.0 9035760000.0 9035760000.0 9035760000.0 9035760000.0 9035760000.0 9035750000.0 9035750000.0 9035750000.0 9035750000.0 9035750000.0 9035750000.0 9035750000.0 9035750000.0 9035750000.0 9035750000.0 9035750000.0 9035760000.0 9035760000.0 9035760000.0 9035760000.0 9035760000.0 9035760000.0 9035760000.0 9035770000.0 9035770000.0 9035770000.0 9035780000.0 9035790000.0 9035810000.0 9035810000.0 9054660000.0 9035850000.0 9224720000.0 9035930000.0 9549980000.0 9036080000.0 9877180000.0 9141530000.0 10799000000.0 9523080000.0 11540300000.0 10994100000.0 12127800000.0 10268500000.0 11051700000.0 11864200000.0 11962900000.0 12261900000.0 11322000000.0 11108800000.0 11034200000.0 10466700000.0 9909250000.0 11221800000.0 10400200000.0 10796500000.0 9368420000.0 10276200000.0 9106510000.0 9625860000.0 9035990000.0 9393040000.0 9035880000.0 9164330000.0 9035820000.0 9047790000.0 9035790000.0 9035790000.0 9035780000.0 9035770000.0 9035770000.0 9035760000.0 9035760000.0 9035760000.0 9035760000.0 9035760000.0 9035760000.0 9035760000.0 9035760000.0 9035750000.0 9035750000.0 9035750000.0 9035750000.0 9035750000.0 9035750000.0 9035750000.0 9035750000.0 9035750000.0 9035750000.0 9035750000.0 9035750000.0 9035750000.0 9035760000.0 9035760000.0 9035760000.0 9035760000.0 9035760000.0 9035760000.0 9035760000.0 9035760000.0 9035770000.0 9035770000.0 9035780000.0 9035790000.0 9035790000.0 9047790000.0 9035820000.0 9164330000.0 9035880000.0 9393040000.0 9035990000.0 9625860000.0 9106510000.0 10276200000.0 9368420000.0 10796500000.0 10400200000.0 11221800000.0 9909250000.0 10466700000.0 11034200000.0 11108800000.0 11322000000.0 10388000000.0 10261500000.0 10215500000.0 9883030000.0 9552350000.0 10326700000.0 9833800000.0 10071700000.0 9227680000.0 9765960000.0 9076020000.0 9382400000.0 9035890000.0 9244330000.0 9035830000.0 9109760000.0 9035790000.0 9042370000.0 9035780000.0 9035770000.0 9035770000.0 9035760000.0 9035760000.0 9035760000.0 9035760000.0 9035760000.0 9035760000.0 9035760000.0 9035760000.0 9035750000.0 9035750000.0 9035750000.0 9035750000.0 9035750000.0 9035750000.0 9035750000.0 9035750000.0 9035750000.0 9035750000.0 9035750000.0 9035750000.0 9035750000.0 9035750000.0 9035750000.0 9035750000.0 9035750000.0 9035760000.0 9035760000.0 9035760000.0 9035760000.0 9035760000.0 9035760000.0 9035760000.0 9035760000.0 9035770000.0 9035770000.0 9035780000.0 9042370000.0 9035790000.0 9109760000.0 9035830000.0 9244330000.0 9035890000.0 9382400000.0 9076020000.0 9765960000.0 9227680000.0 10071700000.0 9833800000.0 10326700000.0 9552350000.0 9883030000.0 10215500000.0 10261500000.0 10388000000.0 9457570000.0 9418050000.0 9403470000.0 9300160000.0 9196890000.0 9438210000.0 9283600000.0 9358250000.0 9095030000.0 9263100000.0 9048120000.0 9143590000.0 9035800000.0 9100480000.0 9035780000.0 9058590000.0 9035770000.0 9037750000.0 9035760000.0 9035760000.0 9035760000.0 9035760000.0 9035760000.0 9035760000.0 9035750000.0 9035750000.0 9035750000.0 9035750000.0 9035750000.0 9035750000.0 9035750000.0 9035750000.0 9035750000.0 9035750000.0 9035750000.0 9035750000.0 9035750000.0 9035750000.0 9035750000.0 9035750000.0 9035750000.0 9035750000.0 9035750000.0 9035750000.0 9035750000.0 9035750000.0 9035750000.0 9035750000.0 9035750000.0 9035750000.0 9035750000.0 9035760000.0 9035760000.0 9035760000.0 9035760000.0 9035760000.0 9035760000.0 9037750000.0 9035770000.0 9058590000.0 9035780000.0 9100480000.0 9035800000.0 9143590000.0 9048120000.0 9263100000.0 9095030000.0 9358250000.0 9283600000.0 9438210000.0 9196890000.0 9300160000.0 9403470000.0 9418050000.0 9457570000.0 