# vtk DataFile Version 2.0
Time step 35
ASCII
DATASET UNSTRUCTURED_GRID
POINTS 4650 float
112784.0 431850.0 0
116141.0 429765.0 0
119555.0 427847.0 0
123439.0 428405.0 0
127351.0 428163.0 0
131265.0 428299.0 0
135178.0 428239.0 0
139091.0 428249.0 0
143005.0 428242.0 0
146922.0 428238.0 0
150842.0 428235.0 0
154766.0 428232.0 0
158695.0 428229.0 0
162629.0 428227.0 0
166568.0 428225.0 0
170512.0 428224.0 0
174461.0 428223.0 0
178414.0 428222.0 0
182371.0 428221.0 0
186332.0 428220.0 0
190296.0 428219.0 0
194264.0 428219.0 0
198234.0 428218.0 0
202207.0 428218.0 0
206182.0 428218.0 0
210160.0 428217.0 0
214139.0 428217.0 0
218119.0 428217.0 0
222102.0 428217.0 0
226085.0 428217.0 0
230069.0 428217.0 0
234054.0 428217.0 0
238040.0 428216.0 0
242026.0 428216.0 0
246013.0 428216.0 0
250000.0 428216.0 0
253987.0 428216.0 0
257974.0 428216.0 0
261960.0 428216.0 0
265946.0 428217.0 0
269931.0 428217.0 0
273915.0 428217.0 0
277898.0 428217.0 0
281881.0 428217.0 0
285861.0 428217.0 0
289840.0 428217.0 0
293818.0 428218.0 0
297793.0 428218.0 0
301766.0 428218.0 0
305736.0 428219.0 0
309704.0 428219.0 0
313668.0 428220.0 0
317629.0 428221.0 0
321586.0 428222.0 0
325539.0 428223.0 0
329488.0 428224.0 0
333432.0 428225.0 0
337371.0 428227.0 0
341305.0 428229.0 0
345234.0 428232.0 0
349158.0 428235.0 0
353078.0 428238.0 0
356995.0 428242.0 0
360909.0 428249.0 0
364822.0 428239.0 0
368735.0 428299.0 0
372649.0 428163.0 0
376561.0 428405.0 0
380445.0 427847.0 0
383859.0 429765.0 0
387216.0 431850.0 0
109301.0 434026.0 0
116163.0 433719.0 0
119626.0 431851.0 0
123515.0 432400.0 0
127425.0 432203.0 0
131329.0 432295.0 0
135230.0 432253.0 0
139131.0 432259.0 0
143034.0 432250.0 0
146940.0 432245.0 0
150851.0 432240.0 0
154767.0 432236.0 0
158688.0 432233.0 0
162616.0 432230.0 0
166550.0 432227.0 0
170490.0 432225.0 0
174436.0 432224.0 0
178386.0 432222.0 0
182341.0 432221.0 0
186301.0 432220.0 0
190265.0 432219.0 0
194233.0 432219.0 0
198203.0 432218.0 0
202177.0 432218.0 0
206154.0 432218.0 0
210133.0 432217.0 0
214114.0 432217.0 0
218097.0 432217.0 0
222081.0 432217.0 0
226067.0 432217.0 0
230054.0 432217.0 0
234042.0 432217.0 0
238031.0 432216.0 0
242020.0 432216.0 0
246010.0 432216.0 0
250000.0 432216.0 0
253990.0 432216.0 0
257980.0 432216.0 0
261969.0 432216.0 0
265958.0 432217.0 0
269946.0 432217.0 0
273933.0 432217.0 0
277919.0 432217.0 0
281903.0 432217.0 0
285886.0 432217.0 0
289867.0 432217.0 0
293846.0 432218.0 0
297823.0 432218.0 0
301797.0 432218.0 0
305767.0 432219.0 0
309735.0 432219.0 0
313699.0 432220.0 0
317659.0 432221.0 0
321614.0 432222.0 0
325564.0 432224.0 0
329510.0 432225.0 0
333450.0 432227.0 0
337384.0 432230.0 0
341312.0 432233.0 0
345233.0 432236.0 0
349149.0 432240.0 0
353060.0 432245.0 0
356966.0 432250.0 0
360869.0 432259.0 0
364770.0 432253.0 0
368671.0 432295.0 0
372575.0 432203.0 0
376485.0 432400.0 0
380374.0 431851.0 0
383837.0 433719.0 0
390699.0 434026.0 0
105420.0 436460.0 0
112721.0 435673.0 0
387279.0 435673.0 0
394580.0 436460.0 0
108999.0 437875.0 0
112442.0 439524.0 0
115964.0 437702.0 0
119426.0 435869.0 0
123254.0 436384.0 0
127132.0 436228.0 0
131030.0 436279.0 0
134934.0 436251.0 0
138840.0 436249.0 0
142749.0 436242.0 0
146664.0 436237.0 0
150586.0 436233.0 0
154514.0 436230.0 0
158449.0 436227.0 0
162390.0 436224.0 0
166338.0 436222.0 0
170291.0 436221.0 0
174250.0 436220.0 0
178215.0 436219.0 0
182183.0 436218.0 0
186156.0 436218.0 0
190133.0 436217.0 0
194113.0 436217.0 0
198095.0 436217.0 0
202080.0 436217.0 0
206068.0 436217.0 0
210057.0 436217.0 0
214048.0 436217.0 0
218039.0 436217.0 0
222032.0 436217.0 0
226026.0 436216.0 0
230021.0 436216.0 0
234016.0 436216.0 0
238012.0 436216.0 0
242008.0 436216.0 0
246004.0 436216.0 0
250000.0 436216.0 0
253996.0 436216.0 0
257992.0 436216.0 0
261988.0 436216.0 0
265984.0 436216.0 0
269979.0 436216.0 0
273974.0 436216.0 0
277968.0 436217.0 0
281961.0 436217.0 0
285952.0 436217.0 0
289943.0 436217.0 0
293932.0 436217.0 0
297920.0 436217.0 0
301905.0 436217.0 0
305887.0 436217.0 0
309867.0 436217.0 0
313844.0 436218.0 0
317817.0 436218.0 0
321785.0 436219.0 0
325750.0 436220.0 0
329709.0 436221.0 0
333662.0 436222.0 0
337610.0 436224.0 0
341551.0 436227.0 0
345486.0 436230.0 0
349414.0 436233.0 0
353336.0 436237.0 0
357251.0 436242.0 0
361160.0 436249.0 0
365066.0 436251.0 0
368970.0 436279.0 0
372868.0 436228.0 0
376746.0 436384.0 0
380574.0 435869.0 0
384036.0 437702.0 0
387558.0 439524.0 0
391001.0 437875.0 0
99261.9 440313.0 0
103117.0 439627.0 0
106781.0 441105.0 0
115590.0 441634.0 0
119097.0 439991.0 0
122897.0 440355.0 0
126740.0 440239.0 0
130614.0 440253.0 0
134508.0 440232.0 0
138422.0 440228.0 0
142352.0 440225.0 0
146295.0 440223.0 0
150247.0 440221.0 0
154206.0 440220.0 0
158171.0 440219.0 0
162142.0 440218.0 0
166118.0 440217.0 0
170097.0 440217.0 0
174080.0 440217.0 0
178066.0 440217.0 0
182055.0 440217.0 0
186045.0 440217.0 0
190038.0 440217.0 0
194031.0 440217.0 0
198026.0 440217.0 0
202022.0 440216.0 0
206018.0 440216.0 0
210015.0 440216.0 0
214012.0 440216.0 0
218010.0 440216.0 0
222008.0 440216.0 0
226006.0 440216.0 0
230005.0 440216.0 0
234004.0 440216.0 0
238003.0 440216.0 0
242002.0 440216.0 0
246001.0 440216.0 0
250000.0 440216.0 0
253999.0 440216.0 0
257998.0 440216.0 0
261997.0 440216.0 0
265996.0 440216.0 0
269995.0 440216.0 0
273994.0 440216.0 0
277992.0 440216.0 0
281990.0 440216.0 0
285988.0 440216.0 0
289985.0 440216.0 0
293982.0 440216.0 0
297978.0 440216.0 0
301974.0 440217.0 0
305969.0 440217.0 0
309962.0 440217.0 0
313955.0 440217.0 0
317945.0 440217.0 0
321934.0 440217.0 0
325920.0 440217.0 0
329903.0 440217.0 0
333882.0 440217.0 0
337858.0 440218.0 0
341829.0 440219.0 0
345794.0 440220.0 0
349753.0 440221.0 0
353705.0 440223.0 0
357648.0 440225.0 0
361578.0 440228.0 0
365492.0 440232.0 0
369386.0 440253.0 0
373260.0 440239.0 0
377103.0 440355.0 0
380903.0 439991.0 0
384410.0 441634.0 0
393219.0 441105.0 0
396883.0 439627.0 0
400738.0 440313.0 0
97905.0 444011.0 0
103704.0 443565.0 0
110330.0 442796.0 0
389670.0 442796.0 0
396296.0 443565.0 0
402095.0 444011.0 0
101033.0 446481.0 0
107186.0 445539.0 0
111047.0 446626.0 0
114817.0 445398.0 0
118597.0 444121.0 0
122534.0 444314.0 0
126494.0 444233.0 0
130456.0 444245.0 0
134417.0 444230.0 0
138378.0 444227.0 0
142341.0 444224.0 0
146305.0 444222.0 0
150272.0 444221.0 0
154241.0 444220.0 0
158211.0 444219.0 0
162184.0 444219.0 0
166159.0 444218.0 0
170136.0 444218.0 0
174116.0 444217.0 0
178098.0 444217.0 0
182082.0 444217.0 0
186069.0 444217.0 0
190057.0 444217.0 0
194047.0 444217.0 0
198039.0 444217.0 0
202032.0 444217.0 0
206026.0 444216.0 0
210021.0 444216.0 0
214017.0 444216.0 0
218014.0 444216.0 0
222011.0 444216.0 0
226008.0 444216.0 0
230007.0 444216.0 0
234005.0 444216.0 0
238004.0 444216.0 0
242002.0 444216.0 0
246001.0 444216.0 0
250000.0 444216.0 0
253999.0 444216.0 0
257998.0 444216.0 0
261996.0 444216.0 0
265995.0 444216.0 0
269993.0 444216.0 0
273992.0 444216.0 0
277989.0 444216.0 0
281986.0 444216.0 0
285983.0 444216.0 0
289979.0 444216.0 0
293974.0 444216.0 0
297968.0 444217.0 0
301961.0 444217.0 0
305953.0 444217.0 0
309943.0 444217.0 0
313931.0 444217.0 0
317918.0 444217.0 0
321902.0 444217.0 0
325884.0 444217.0 0
329864.0 444218.0 0
333841.0 444218.0 0
337816.0 444219.0 0
341789.0 444219.0 0
345759.0 444220.0 0
349728.0 444221.0 0
353695.0 444222.0 0
357659.0 444224.0 0
361622.0 444227.0 0
365583.0 444230.0 0
369544.0 444245.0 0
373506.0 444233.0 0
377466.0 444314.0 0
381403.0 444121.0 0
385183.0 445398.0 0
388953.0 446626.0 0
392814.0 445539.0 0
398967.0 446481.0 0
114049.0 449185.0 0
118018.0 448188.0 0
122016.0 448263.0 0
126018.0 448218.0 0
130018.0 448219.0 0
134017.0 448217.0 0
138016.0 448217.0 0
142014.0 448217.0 0
146012.0 448217.0 0
150010.0 448217.0 0
154007.0 448217.0 0
158005.0 448217.0 0
162003.0 448216.0 0
166002.0 448216.0 0
170001.0 448216.0 0
174000.0 448216.0 0
178000.0 448216.0 0
182000.0 448216.0 0
186000.0 448216.0 0
190000.0 448216.0 0
194000.0 448216.0 0
198000.0 448216.0 0
202000.0 448216.0 0
206000.0 448216.0 0
210000.0 448216.0 0
214000.0 448216.0 0
218000.0 448216.0 0
222000.0 448216.0 0
226000.0 448216.0 0
230000.0 448216.0 0
234000.0 448216.0 0
238000.0 448216.0 0
242000.0 448216.0 0
246000.0 448216.0 0
250000.0 448216.0 0
254000.0 448216.0 0
258000.0 448216.0 0
262000.0 448216.0 0
266000.0 448216.0 0
270000.0 448216.0 0
274000.0 448216.0 0
278000.0 448216.0 0
282000.0 448216.0 0
286000.0 448216.0 0
290000.0 448216.0 0
294000.0 448216.0 0
298000.0 448216.0 0
302000.0 448216.0 0
306000.0 448216.0 0
310000.0 448216.0 0
314000.0 448216.0 0
318000.0 448216.0 0
322000.0 448216.0 0
326000.0 448216.0 0
329999.0 448216.0 0
333998.0 448216.0 0
337997.0 448216.0 0
341995.0 448217.0 0
345993.0 448217.0 0
349990.0 448217.0 0
353988.0 448217.0 0
357986.0 448217.0 0
361984.0 448217.0 0
365983.0 448217.0 0
369982.0 448219.0 0
373982.0 448218.0 0
377984.0 448263.0 0
381982.0 448188.0 0
385951.0 449185.0 0
99538.4 450166.0 0
104307.0 448898.0 0
108266.0 449387.0 0
391734.0 449387.0 0
395693.0 448898.0 0
400462.0 450166.0 0
102377.0 452971.0 0
106355.0 452822.0 0
110515.0 452715.0 0
114526.0 453012.0 0
118388.0 452166.0 0
122346.0 452240.0 0
126306.0 452225.0 0
130268.0 452223.0 0
134233.0 452222.0 0
138200.0 452220.0 0
142170.0 452219.0 0
146144.0 452219.0 0
150120.0 452218.0 0
154099.0 452218.0 0
158080.0 452217.0 0
162064.0 452217.0 0
166051.0 452217.0 0
170040.0 452217.0 0
174031.0 452217.0 0
178024.0 452217.0 0
182018.0 452216.0 0
186014.0 452216.0 0
190010.0 452216.0 0
194008.0 452216.0 0
198006.0 452216.0 0
202004.0 452216.0 0
206003.0 452216.0 0
210002.0 452216.0 0
214002.0 452216.0 0
218001.0 452216.0 0
222001.0 452216.0 0
226001.0 452216.0 0
230000.0 452216.0 0
234000.0 452216.0 0
238000.0 452216.0 0
242000.0 452216.0 0
246000.0 452216.0 0
250000.0 452216.0 0
254000.0 452216.0 0
258000.0 452216.0 0
262000.0 452216.0 0
266000.0 452216.0 0
270000.0 452216.0 0
273999.0 452216.0 0
277999.0 452216.0 0
281999.0 452216.0 0
285998.0 452216.0 0
289998.0 452216.0 0
293997.0 452216.0 0
297996.0 452216.0 0
301994.0 452216.0 0
305992.0 452216.0 0
309990.0 452216.0 0
313986.0 452216.0 0
317982.0 452216.0 0
321976.0 452217.0 0
325969.0 452217.0 0
329960.0 452217.0 0
333949.0 452217.0 0
337936.0 452217.0 0
341920.0 452217.0 0
345901.0 452218.0 0
349880.0 452218.0 0
353856.0 452219.0 0
357830.0 452219.0 0
361800.0 452220.0 0
365767.0 452222.0 0
369732.0 452223.0 0
373694.0 452225.0 0
377654.0 452240.0 0
381612.0 452166.0 0
385474.0 453012.0 0
389485.0 452715.0 0
393645.0 452822.0 0
397623.0 452971.0 0
105524.0 456687.0 0
109519.0 456593.0 0
113483.0 456746.0 0
118000.0 456214.0 0
122000.0 456220.0 0
126000.0 456217.0 0
130000.0 456217.0 0
134000.0 456217.0 0
138000.0 456217.0 0
142000.0 456217.0 0
146000.0 456217.0 0
150000.0 456217.0 0
154000.0 456216.0 0
158000.0 456216.0 0
162000.0 456216.0 0
166000.0 456216.0 0
170000.0 456216.0 0
174000.0 456216.0 0
178000.0 456216.0 0
182000.0 456216.0 0
186000.0 456216.0 0
190000.0 456216.0 0
194000.0 456216.0 0
198000.0 456216.0 0
202000.0 456216.0 0
206000.0 456216.0 0
210000.0 456216.0 0
214000.0 456216.0 0
218000.0 456216.0 0
222000.0 456216.0 0
226000.0 456216.0 0
230000.0 456216.0 0
234000.0 456216.0 0
238000.0 456216.0 0
242000.0 456216.0 0
246000.0 456216.0 0
250000.0 456216.0 0
254000.0 456216.0 0
258000.0 456216.0 0
262000.0 456216.0 0
266000.0 456216.0 0
270000.0 456216.0 0
274000.0 456216.0 0
278000.0 456216.0 0
282000.0 456216.0 0
286000.0 456216.0 0
290000.0 456216.0 0
294000.0 456216.0 0
298000.0 456216.0 0
302000.0 456216.0 0
306000.0 456216.0 0
310000.0 456216.0 0
314000.0 456216.0 0
318000.0 456216.0 0
322000.0 456216.0 0
326000.0 456216.0 0
330000.0 456216.0 0
334000.0 456216.0 0
338000.0 456216.0 0
342000.0 456216.0 0
346000.0 456216.0 0
350000.0 456217.0 0
354000.0 456217.0 0
358000.0 456217.0 0
362000.0 456217.0 0
366000.0 456217.0 0
370000.0 456217.0 0
374000.0 456217.0 0
378000.0 456220.0 0
382000.0 456214.0 0
386517.0 456746.0 0
390481.0 456593.0 0
394476.0 456687.0 0
101156.0 456768.0 0
398844.0 456768.0 0
102118.0 460637.0 0
106118.0 460600.0 0
110114.0 460541.0 0
114113.0 460588.0 0
118078.0 460213.0 0
122062.0 460218.0 0
126050.0 460217.0 0
130039.0 460217.0 0
134031.0 460217.0 0
138024.0 460217.0 0
142019.0 460217.0 0
146015.0 460217.0 0
150011.0 460217.0 0
154008.0 460216.0 0
158006.0 460216.0 0
162004.0 460216.0 0
166003.0 460216.0 0
170002.0 460216.0 0
174001.0 460216.0 0
178001.0 460216.0 0
182001.0 460216.0 0
186000.0 460216.0 0
190000.0 460216.0 0
194000.0 460216.0 0
198000.0 460216.0 0
202000.0 460216.0 0
206000.0 460216.0 0
210000.0 460216.0 0
214000.0 460216.0 0
218000.0 460216.0 0
222000.0 460216.0 0
226000.0 460216.0 0
230000.0 460216.0 0
234000.0 460216.0 0
238000.0 460216.0 0
242000.0 460216.0 0
246000.0 460216.0 0
250000.0 460216.0 0
254000.0 460216.0 0
258000.0 460216.0 0
262000.0 460216.0 0
266000.0 460216.0 0
270000.0 460216.0 0
274000.0 460216.0 0
278000.0 460216.0 0
282000.0 460216.0 0
286000.0 460216.0 0
290000.0 460216.0 0
294000.0 460216.0 0
298000.0 460216.0 0
302000.0 460216.0 0
306000.0 460216.0 0
310000.0 460216.0 0
314000.0 460216.0 0
317999.0 460216.0 0
321999.0 460216.0 0
325999.0 460216.0 0
329998.0 460216.0 0
333997.0 460216.0 0
337996.0 460216.0 0
341994.0 460216.0 0
345992.0 460216.0 0
349989.0 460217.0 0
353985.0 460217.0 0
357981.0 460217.0 0
361976.0 460217.0 0
365969.0 460217.0 0
369961.0 460217.0 0
373950.0 460217.0 0
377938.0 460218.0 0
381922.0 460213.0 0
385887.0 460588.0 0
389886.0 460541.0 0
393882.0 460600.0 0
397882.0 460637.0 0
113964.0 464494.0 0
118000.0 464217.0 0
122000.0 464217.0 0
126000.0 464217.0 0
130000.0 464217.0 0
134000.0 464217.0 0
138000.0 464217.0 0
142000.0 464217.0 0
146000.0 464217.0 0
150000.0 464217.0 0
154000.0 464216.0 0
158000.0 464216.0 0
162000.0 464216.0 0
166000.0 464216.0 0
170000.0 464216.0 0
174000.0 464216.0 0
178000.0 464216.0 0
182000.0 464216.0 0
186000.0 464216.0 0
190000.0 464216.0 0
194000.0 464216.0 0
198000.0 464216.0 0
202000.0 464216.0 0
206000.0 464216.0 0
210000.0 464216.0 0
214000.0 464216.0 0
218000.0 464216.0 0
222000.0 464216.0 0
226000.0 464216.0 0
230000.0 464216.0 0
234000.0 464216.0 0
238000.0 464216.0 0
242000.0 464216.0 0
246000.0 464216.0 0
250000.0 464216.0 0
254000.0 464216.0 0
258000.0 464216.0 0
262000.0 464216.0 0
266000.0 464216.0 0
270000.0 464216.0 0
274000.0 464216.0 0
278000.0 464216.0 0
282000.0 464216.0 0
286000.0 464216.0 0
290000.0 464216.0 0
294000.0 464216.0 0
298000.0 464216.0 0
302000.0 464216.0 0
306000.0 464216.0 0
310000.0 464216.0 0
314000.0 464216.0 0
318000.0 464216.0 0
322000.0 464216.0 0
326000.0 464216.0 0
330000.0 464216.0 0
334000.0 464216.0 0
338000.0 464216.0 0
342000.0 464216.0 0
346000.0 464216.0 0
350000.0 464217.0 0
354000.0 464217.0 0
358000.0 464217.0 0
362000.0 464217.0 0
366000.0 464217.0 0
370000.0 464217.0 0
374000.0 464217.0 0
378000.0 464217.0 0
382000.0 464217.0 0
386036.0 464494.0 0
101930.0 464613.0 0
105964.0 464560.0 0
109966.0 464519.0 0
390034.0 464519.0 0
394036.0 464560.0 0
398070.0 464613.0 0
102010.0 468588.0 0
106009.0 468525.0 0
110009.0 468492.0 0
114008.0 468421.0 0
118002.0 468217.0 0
122001.0 468217.0 0
126001.0 468217.0 0
130000.0 468217.0 0
134000.0 468217.0 0
138000.0 468217.0 0
142000.0 468217.0 0
146000.0 468217.0 0
150000.0 468216.0 0
154000.0 468216.0 0
158000.0 468216.0 0
162000.0 468216.0 0
166000.0 468216.0 0
170000.0 468216.0 0
174000.0 468216.0 0
178000.0 468216.0 0
182000.0 468216.0 0
186000.0 468216.0 0
190000.0 468216.0 0
194000.0 468216.0 0
198000.0 468216.0 0
202000.0 468216.0 0
206000.0 468216.0 0
210000.0 468216.0 0
214000.0 468216.0 0
218000.0 468216.0 0
222000.0 468216.0 0
226000.0 468216.0 0
230000.0 468216.0 0
234000.0 468216.0 0
238000.0 468216.0 0
242000.0 468216.0 0
246000.0 468216.0 0
250000.0 468216.0 0
254000.0 468216.0 0
258000.0 468216.0 0
262000.0 468216.0 0
266000.0 468216.0 0
270000.0 468216.0 0
274000.0 468216.0 0
278000.0 468216.0 0
282000.0 468216.0 0
286000.0 468216.0 0
290000.0 468216.0 0
294000.0 468216.0 0
298000.0 468216.0 0
302000.0 468216.0 0
306000.0 468216.0 0
310000.0 468216.0 0
314000.0 468216.0 0
318000.0 468216.0 0
322000.0 468216.0 0
326000.0 468216.0 0
330000.0 468216.0 0
334000.0 468216.0 0
338000.0 468216.0 0
342000.0 468216.0 0
346000.0 468216.0 0
350000.0 468216.0 0
354000.0 468217.0 0
358000.0 468217.0 0
362000.0 468217.0 0
366000.0 468217.0 0
370000.0 468217.0 0
373999.0 468217.0 0
377999.0 468217.0 0
381998.0 468217.0 0
385992.0 468421.0 0
389991.0 468492.0 0
393991.0 468525.0 0
397990.0 468588.0 0
114000.0 472362.0 0
118000.0 472217.0 0
122000.0 472217.0 0
126000.0 472217.0 0
130000.0 472217.0 0
134000.0 472217.0 0
138000.0 472217.0 0
142000.0 472217.0 0
146000.0 472217.0 0
150000.0 472216.0 0
154000.0 472216.0 0
158000.0 472216.0 0
162000.0 472216.0 0
166000.0 472216.0 0
170000.0 472216.0 0
174000.0 472216.0 0
178000.0 472216.0 0
182000.0 472216.0 0
186000.0 472216.0 0
190000.0 472216.0 0
194000.0 472216.0 0
198000.0 472216.0 0
202000.0 472216.0 0
206000.0 472216.0 0
210000.0 472216.0 0
214000.0 472216.0 0
218000.0 472216.0 0
222000.0 472216.0 0
226000.0 472216.0 0
230000.0 472216.0 0
234000.0 472216.0 0
238000.0 472216.0 0
242000.0 472216.0 0
246000.0 472216.0 0
250000.0 472216.0 0
254000.0 472216.0 0
258000.0 472216.0 0
262000.0 472216.0 0
266000.0 472216.0 0
270000.0 472216.0 0
274000.0 472216.0 0
278000.0 472216.0 0
282000.0 472216.0 0
286000.0 472216.0 0
290000.0 472216.0 0
294000.0 472216.0 0
298000.0 472216.0 0
302000.0 472216.0 0
306000.0 472216.0 0
310000.0 472216.0 0
314000.0 472216.0 0
318000.0 472216.0 0
322000.0 472216.0 0
326000.0 472216.0 0
330000.0 472216.0 0
334000.0 472216.0 0
338000.0 472216.0 0
342000.0 472216.0 0
346000.0 472216.0 0
350000.0 472216.0 0
354000.0 472217.0 0
358000.0 472217.0 0
362000.0 472217.0 0
366000.0 472217.0 0
370000.0 472217.0 0
374000.0 472217.0 0
378000.0 472217.0 0
382000.0 472217.0 0
386000.0 472362.0 0
101997.0 472559.0 0
105999.0 472495.0 0
109999.0 472462.0 0
390001.0 472462.0 0
394001.0 472495.0 0
398003.0 472559.0 0
102000.0 476529.0 0
106000.0 476469.0 0
110000.0 476430.0 0
114000.0 476318.0 0
118000.0 476217.0 0
122000.0 476217.0 0
126000.0 476217.0 0
130000.0 476217.0 0
134000.0 476217.0 0
138000.0 476217.0 0
142000.0 476217.0 0
146000.0 476217.0 0
150000.0 476216.0 0
154000.0 476216.0 0
158000.0 476216.0 0
162000.0 476216.0 0
166000.0 476216.0 0
170000.0 476216.0 0
174000.0 476216.0 0
178000.0 476216.0 0
182000.0 476216.0 0
186000.0 476216.0 0
190000.0 476216.0 0
194000.0 476216.0 0
198000.0 476216.0 0
202000.0 476216.0 0
206000.0 476216.0 0
210000.0 476216.0 0
214000.0 476216.0 0
218000.0 476216.0 0
222000.0 476216.0 0
226000.0 476216.0 0
230000.0 476216.0 0
234000.0 476216.0 0
238000.0 476216.0 0
242000.0 476216.0 0
246000.0 476216.0 0
250000.0 476216.0 0
254000.0 476216.0 0
258000.0 476216.0 0
262000.0 476216.0 0
266000.0 476216.0 0
270000.0 476216.0 0
274000.0 476216.0 0
278000.0 476216.0 0
282000.0 476216.0 0
286000.0 476216.0 0
290000.0 476216.0 0
294000.0 476216.0 0
298000.0 476216.0 0
302000.0 476216.0 0
306000.0 476216.0 0
310000.0 476216.0 0
314000.0 476216.0 0
318000.0 476216.0 0
322000.0 476216.0 0
326000.0 476216.0 0
330000.0 476216.0 0
334000.0 476216.0 0
338000.0 476216.0 0
342000.0 476216.0 0
346000.0 476216.0 0
350000.0 476216.0 0
354000.0 476217.0 0
358000.0 476217.0 0
362000.0 476217.0 0
366000.0 476217.0 0
370000.0 476217.0 0
374000.0 476217.0 0
378000.0 476217.0 0
382000.0 476217.0 0
386000.0 476318.0 0
390000.0 476430.0 0
394000.0 476469.0 0
398000.0 476529.0 0
102000.0 480497.0 0
106000.0 480445.0 0
110000.0 480400.0 0
114000.0 480285.0 0
118000.0 480217.0 0
122000.0 480217.0 0
126000.0 480217.0 0
130000.0 480217.0 0
134000.0 480217.0 0
138000.0 480217.0 0
142000.0 480217.0 0
146000.0 480217.0 0
150000.0 480216.0 0
154000.0 480216.0 0
158000.0 480216.0 0
162000.0 480216.0 0
166000.0 480216.0 0
170000.0 480216.0 0
174000.0 480216.0 0
178000.0 480216.0 0
182000.0 480216.0 0
186000.0 480216.0 0
190000.0 480216.0 0
194000.0 480216.0 0
198000.0 480216.0 0
202000.0 480216.0 0
206000.0 480216.0 0
210000.0 480216.0 0
214000.0 480216.0 0
218000.0 480216.0 0
222000.0 480216.0 0
226000.0 480216.0 0
230000.0 480216.0 0
234000.0 480216.0 0
238000.0 480216.0 0
242000.0 480216.0 0
246000.0 480216.0 0
250000.0 480216.0 0
254000.0 480216.0 0
258000.0 480216.0 0
262000.0 480216.0 0
266000.0 480216.0 0
270000.0 480216.0 0
274000.0 480216.0 0
278000.0 480216.0 0
282000.0 480216.0 0
286000.0 480216.0 0
290000.0 480216.0 0
294000.0 480216.0 0
298000.0 480216.0 0
302000.0 480216.0 0
306000.0 480216.0 0
310000.0 480216.0 0
314000.0 480216.0 0
318000.0 480216.0 0
322000.0 480216.0 0
326000.0 480216.0 0
330000.0 480216.0 0
334000.0 480216.0 0
338000.0 480216.0 0
342000.0 480216.0 0
346000.0 480216.0 0
350000.0 480216.0 0
354000.0 480217.0 0
358000.0 480217.0 0
362000.0 480217.0 0
366000.0 480217.0 0
370000.0 480217.0 0
374000.0 480217.0 0
378000.0 480217.0 0
382000.0 480217.0 0
386000.0 480285.0 0
390000.0 480400.0 0
394000.0 480445.0 0
398000.0 480497.0 0
102000.0 484466.0 0
106000.0 484423.0 0
110000.0 484371.0 0
114000.0 484262.0 0
118000.0 484217.0 0
122000.0 484217.0 0
126000.0 484217.0 0
130000.0 484217.0 0
134000.0 484217.0 0
138000.0 484217.0 0
142000.0 484217.0 0
146000.0 484217.0 0
150000.0 484216.0 0
154000.0 484216.0 0
158000.0 484216.0 0
162000.0 484216.0 0
166000.0 484216.0 0
170000.0 484216.0 0
174000.0 484216.0 0
178000.0 484216.0 0
182000.0 484216.0 0
186000.0 484216.0 0
190000.0 484216.0 0
194000.0 484216.0 0
198000.0 484216.0 0
202000.0 484216.0 0
206000.0 484216.0 0
210000.0 484216.0 0
214000.0 484216.0 0
218000.0 484216.0 0
222000.0 484216.0 0
226000.0 484216.0 0
230000.0 484216.0 0
234000.0 484216.0 0
238000.0 484216.0 0
242000.0 484216.0 0
246000.0 484216.0 0
250000.0 484216.0 0
254000.0 484216.0 0
258000.0 484216.0 0
262000.0 484216.0 0
266000.0 484216.0 0
270000.0 484216.0 0
274000.0 484216.0 0
278000.0 484216.0 0
282000.0 484216.0 0
286000.0 484216.0 0
290000.0 484216.0 0
294000.0 484216.0 0
298000.0 484216.0 0
302000.0 484216.0 0
306000.0 484216.0 0
310000.0 484216.0 0
314000.0 484216.0 0
318000.0 484216.0 0
322000.0 484216.0 0
326000.0 484216.0 0
330000.0 484216.0 0
334000.0 484216.0 0
338000.0 484216.0 0
342000.0 484216.0 0
346000.0 484216.0 0
350000.0 484216.0 0
354000.0 484217.0 0
358000.0 484217.0 0
362000.0 484217.0 0
366000.0 484217.0 0
370000.0 484217.0 0
374000.0 484217.0 0
378000.0 484217.0 0
382000.0 484217.0 0
386000.0 484262.0 0
390000.0 484371.0 0
394000.0 484423.0 0
398000.0 484466.0 0
102000.0 488436.0 0
106000.0 488402.0 0
110000.0 488345.0 0
114000.0 488246.0 0
118000.0 488217.0 0
122000.0 488217.0 0
126000.0 488217.0 0
130000.0 488217.0 0
134000.0 488217.0 0
138000.0 488217.0 0
142000.0 488217.0 0
146000.0 488216.0 0
150000.0 488216.0 0
154000.0 488216.0 0
158000.0 488216.0 0
162000.0 488216.0 0
166000.0 488216.0 0
170000.0 488216.0 0
174000.0 488216.0 0
178000.0 488216.0 0
182000.0 488216.0 0
186000.0 488216.0 0
190000.0 488216.0 0
194000.0 488216.0 0
198000.0 488216.0 0
202000.0 488216.0 0
206000.0 488216.0 0
210000.0 488216.0 0
214000.0 488216.0 0
218000.0 488216.0 0
222000.0 488216.0 0
226000.0 488216.0 0
230000.0 488216.0 0
234000.0 488216.0 0
238000.0 488216.0 0
242000.0 488216.0 0
246000.0 488216.0 0
250000.0 488216.0 0
254000.0 488216.0 0
258000.0 488216.0 0
262000.0 488216.0 0
266000.0 488216.0 0
270000.0 488216.0 0
274000.0 488216.0 0
278000.0 488216.0 0
282000.0 488216.0 0
286000.0 488216.0 0
290000.0 488216.0 0
294000.0 488216.0 0
298000.0 488216.0 0
302000.0 488216.0 0
306000.0 488216.0 0
310000.0 488216.0 0
314000.0 488216.0 0
318000.0 488216.0 0
322000.0 488216.0 0
326000.0 488216.0 0
330000.0 488216.0 0
334000.0 488216.0 0
338000.0 488216.0 0
342000.0 488216.0 0
346000.0 488216.0 0
350000.0 488216.0 0
354000.0 488216.0 0
358000.0 488217.0 0
362000.0 488217.0 0
366000.0 488217.0 0
370000.0 488217.0 0
374000.0 488217.0 0
378000.0 488217.0 0
382000.0 488217.0 0
386000.0 488246.0 0
390000.0 488345.0 0
394000.0 488402.0 0
398000.0 488436.0 0
102000.0 492408.0 0
106000.0 492383.0 0
110000.0 492322.0 0
114000.0 492235.0 0
118000.0 492217.0 0
122000.0 492217.0 0
126000.0 492217.0 0
130000.0 492217.0 0
134000.0 492217.0 0
138000.0 492217.0 0
142000.0 492217.0 0
146000.0 492216.0 0
150000.0 492216.0 0
154000.0 492216.0 0
158000.0 492216.0 0
162000.0 492216.0 0
166000.0 492216.0 0
170000.0 492216.0 0
174000.0 492216.0 0
178000.0 492216.0 0
182000.0 492216.0 0
186000.0 492216.0 0
190000.0 492216.0 0
194000.0 492216.0 0
198000.0 492216.0 0
202000.0 492216.0 0
206000.0 492216.0 0
210000.0 492216.0 0
214000.0 492216.0 0
218000.0 492216.0 0
222000.0 492216.0 0
226000.0 492216.0 0
230000.0 492216.0 0
234000.0 492216.0 0
238000.0 492216.0 0
242000.0 492216.0 0
246000.0 492216.0 0
250000.0 492216.0 0
254000.0 492216.0 0
258000.0 492216.0 0
262000.0 492216.0 0
266000.0 492216.0 0
270000.0 492216.0 0
274000.0 492216.0 0
278000.0 492216.0 0
282000.0 492216.0 0
286000.0 492216.0 0
290000.0 492216.0 0
294000.0 492216.0 0
298000.0 492216.0 0
302000.0 492216.0 0
306000.0 492216.0 0
310000.0 492216.0 0
314000.0 492216.0 0
318000.0 492216.0 0
322000.0 492216.0 0
326000.0 492216.0 0
330000.0 492216.0 0
334000.0 492216.0 0
338000.0 492216.0 0
342000.0 492216.0 0
346000.0 492216.0 0
350000.0 492216.0 0
354000.0 492216.0 0
358000.0 492217.0 0
362000.0 492217.0 0
366000.0 492217.0 0
370000.0 492217.0 0
374000.0 492217.0 0
378000.0 492217.0 0
382000.0 492217.0 0
386000.0 492235.0 0
390000.0 492322.0 0
394000.0 492383.0 0
398000.0 492408.0 0
102000.0 496381.0 0
106000.0 496364.0 0
110000.0 496302.0 0
114000.0 496228.0 0
118000.0 496217.0 0
122000.0 496217.0 0
126000.0 496217.0 0
130000.0 496217.0 0
134000.0 496217.0 0
138000.0 496217.0 0
142000.0 496217.0 0
146000.0 496216.0 0
150000.0 496216.0 0
154000.0 496216.0 0
158000.0 496216.0 0
162000.0 496216.0 0
166000.0 496216.0 0
170000.0 496216.0 0
174000.0 496216.0 0
178000.0 496216.0 0
182000.0 496216.0 0
186000.0 496216.0 0
190000.0 496216.0 0
194000.0 496216.0 0
198000.0 496216.0 0
202000.0 496216.0 0
206000.0 496216.0 0
210000.0 496216.0 0
214000.0 496216.0 0
218000.0 496216.0 0
222000.0 496216.0 0
226000.0 496216.0 0
230000.0 496216.0 0
234000.0 496216.0 0
238000.0 496216.0 0
242000.0 496216.0 0
246000.0 496216.0 0
250000.0 496216.0 0
254000.0 496216.0 0
258000.0 496216.0 0
262000.0 496216.0 0
266000.0 496216.0 0
270000.0 496216.0 0
274000.0 496216.0 0
278000.0 496216.0 0
282000.0 496216.0 0
286000.0 496216.0 0
290000.0 496216.0 0
294000.0 496216.0 0
298000.0 496216.0 0
302000.0 496216.0 0
306000.0 496216.0 0
310000.0 496216.0 0
314000.0 496216.0 0
318000.0 496216.0 0
322000.0 496216.0 0
326000.0 496216.0 0
330000.0 496216.0 0
334000.0 496216.0 0
338000.0 496216.0 0
342000.0 496216.0 0
346000.0 496216.0 0
350000.0 496216.0 0
354000.0 496216.0 0
358000.0 496217.0 0
362000.0 496217.0 0
366000.0 496217.0 0
370000.0 496217.0 0
374000.0 496217.0 0
378000.0 496217.0 0
382000.0 496217.0 0
386000.0 496228.0 0
390000.0 496302.0 0
394000.0 496364.0 0
398000.0 496381.0 0
102000.0 500358.0 0
106000.0 500347.0 0
110000.0 500285.0 0
114000.0 500224.0 0
118000.0 500217.0 0
122000.0 500217.0 0
126000.0 500217.0 0
130000.0 500217.0 0
134000.0 500217.0 0
138000.0 500217.0 0
142000.0 500217.0 0
146000.0 500216.0 0
150000.0 500216.0 0
154000.0 500216.0 0
158000.0 500216.0 0
162000.0 500216.0 0
166000.0 500216.0 0
170000.0 500216.0 0
174000.0 500216.0 0
178000.0 500216.0 0
182000.0 500216.0 0
186000.0 500216.0 0
190000.0 500216.0 0
194000.0 500216.0 0
198000.0 500216.0 0
202000.0 500216.0 0
206000.0 500216.0 0
210000.0 500216.0 0
214000.0 500216.0 0
218000.0 500216.0 0
222000.0 500216.0 0
226000.0 500216.0 0
230000.0 500216.0 0
234000.0 500216.0 0
238000.0 500216.0 0
242000.0 500216.0 0
246000.0 500216.0 0
250000.0 500216.0 0
254000.0 500216.0 0
258000.0 500216.0 0
262000.0 500216.0 0
266000.0 500216.0 0
270000.0 500216.0 0
274000.0 500216.0 0
278000.0 500216.0 0
282000.0 500216.0 0
286000.0 500216.0 0
290000.0 500216.0 0
294000.0 500216.0 0
298000.0 500216.0 0
302000.0 500216.0 0
306000.0 500216.0 0
310000.0 500216.0 0
314000.0 500216.0 0
318000.0 500216.0 0
322000.0 500216.0 0
326000.0 500216.0 0
330000.0 500216.0 0
334000.0 500216.0 0
338000.0 500216.0 0
342000.0 500216.0 0
346000.0 500216.0 0
350000.0 500216.0 0
354000.0 500216.0 0
358000.0 500217.0 0
362000.0 500217.0 0
366000.0 500217.0 0
370000.0 500217.0 0
374000.0 500217.0 0
378000.0 500217.0 0
382000.0 500217.0 0
386000.0 500224.0 0
390000.0 500285.0 0
394000.0 500347.0 0
398000.0 500358.0 0
102000.0 504337.0 0
106000.0 504330.0 0
110000.0 504271.0 0
114000.0 504221.0 0
118000.0 504217.0 0
122000.0 504217.0 0
126000.0 504217.0 0
130000.0 504217.0 0
134000.0 504217.0 0
138000.0 504217.0 0
142000.0 504216.0 0
146000.0 504216.0 0
150000.0 504216.0 0
154000.0 504216.0 0
158000.0 504216.0 0
162000.0 504216.0 0
166000.0 504216.0 0
170000.0 504216.0 0
174000.0 504216.0 0
178000.0 504216.0 0
182000.0 504216.0 0
186000.0 504216.0 0
190000.0 504216.0 0
194000.0 504216.0 0
198000.0 504216.0 0
202000.0 504216.0 0
206000.0 504216.0 0
210000.0 504216.0 0
214000.0 504216.0 0
218000.0 504216.0 0
222000.0 504216.0 0
226000.0 504216.0 0
230000.0 504216.0 0
234000.0 504216.0 0
238000.0 504216.0 0
242000.0 504216.0 0
246000.0 504216.0 0
250000.0 504216.0 0
254000.0 504216.0 0
258000.0 504216.0 0
262000.0 504216.0 0
266000.0 504216.0 0
270000.0 504216.0 0
274000.0 504216.0 0
278000.0 504216.0 0
282000.0 504216.0 0
286000.0 504216.0 0
290000.0 504216.0 0
294000.0 504216.0 0
298000.0 504216.0 0
302000.0 504216.0 0
306000.0 504216.0 0
310000.0 504216.0 0
314000.0 504216.0 0
318000.0 504216.0 0
322000.0 504216.0 0
326000.0 504216.0 0
330000.0 504216.0 0
334000.0 504216.0 0
338000.0 504216.0 0
342000.0 504216.0 0
346000.0 504216.0 0
350000.0 504216.0 0
354000.0 504216.0 0
358000.0 504216.0 0
362000.0 504217.0 0
366000.0 504217.0 0
370000.0 504217.0 0
374000.0 504217.0 0
378000.0 504217.0 0
382000.0 504217.0 0
386000.0 504221.0 0
390000.0 504271.0 0
394000.0 504330.0 0
398000.0 504337.0 0
102000.0 508319.0 0
106000.0 508315.0 0
110000.0 508258.0 0
114000.0 508220.0 0
118000.0 508217.0 0
122000.0 508217.0 0
126000.0 508217.0 0
130000.0 508217.0 0
134000.0 508217.0 0
138000.0 508217.0 0
142000.0 508216.0 0
146000.0 508216.0 0
150000.0 508216.0 0
154000.0 508216.0 0
158000.0 508216.0 0
162000.0 508216.0 0
166000.0 508216.0 0
170000.0 508216.0 0
174000.0 508216.0 0
178000.0 508216.0 0
182000.0 508216.0 0
186000.0 508216.0 0
190000.0 508216.0 0
194000.0 508216.0 0
198000.0 508216.0 0
202000.0 508216.0 0
206000.0 508216.0 0
210000.0 508216.0 0
214000.0 508216.0 0
218000.0 508216.0 0
222000.0 508216.0 0
226000.0 508216.0 0
230000.0 508216.0 0
234000.0 508216.0 0
238000.0 508216.0 0
242000.0 508216.0 0
246000.0 508216.0 0
250000.0 508216.0 0
254000.0 508216.0 0
258000.0 508216.0 0
262000.0 508216.0 0
266000.0 508216.0 0
270000.0 508216.0 0
274000.0 508216.0 0
278000.0 508216.0 0
282000.0 508216.0 0
286000.0 508216.0 0
290000.0 508216.0 0
294000.0 508216.0 0
298000.0 508216.0 0
302000.0 508216.0 0
306000.0 508216.0 0
310000.0 508216.0 0
314000.0 508216.0 0
318000.0 508216.0 0
322000.0 508216.0 0
326000.0 508216.0 0
330000.0 508216.0 0
334000.0 508216.0 0
338000.0 508216.0 0
342000.0 508216.0 0
346000.0 508216.0 0
350000.0 508216.0 0
354000.0 508216.0 0
358000.0 508216.0 0
362000.0 508217.0 0
366000.0 508217.0 0
370000.0 508217.0 0
374000.0 508217.0 0
378000.0 508217.0 0
382000.0 508217.0 0
386000.0 508220.0 0
390000.0 508258.0 0
394000.0 508315.0 0
398000.0 508319.0 0
102000.0 512303.0 0
106000.0 512301.0 0
110000.0 512249.0 0
114000.0 512219.0 0
118000.0 512217.0 0
122000.0 512217.0 0
126000.0 512217.0 0
130000.0 512217.0 0
134000.0 512217.0 0
138000.0 512216.0 0
142000.0 512216.0 0
146000.0 512216.0 0
150000.0 512216.0 0
154000.0 512216.0 0
158000.0 512216.0 0
162000.0 512216.0 0
166000.0 512216.0 0
170000.0 512216.0 0
174000.0 512216.0 0
178000.0 512216.0 0
182000.0 512216.0 0
186000.0 512216.0 0
190000.0 512216.0 0
194000.0 512216.0 0
198000.0 512216.0 0
202000.0 512216.0 0
206000.0 512216.0 0
210000.0 512216.0 0
214000.0 512216.0 0
218000.0 512216.0 0
222000.0 512216.0 0
226000.0 512216.0 0
230000.0 512216.0 0
234000.0 512216.0 0
238000.0 512216.0 0
242000.0 512216.0 0
246000.0 512216.0 0
250000.0 512216.0 0
254000.0 512216.0 0
258000.0 512216.0 0
262000.0 512216.0 0
266000.0 512216.0 0
270000.0 512216.0 0
274000.0 512216.0 0
278000.0 512216.0 0
282000.0 512216.0 0
286000.0 512216.0 0
290000.0 512216.0 0
294000.0 512216.0 0
298000.0 512216.0 0
302000.0 512216.0 0
306000.0 512216.0 0
310000.0 512216.0 0
314000.0 512216.0 0
318000.0 512216.0 0
322000.0 512216.0 0
326000.0 512216.0 0
330000.0 512216.0 0
334000.0 512216.0 0
338000.0 512216.0 0
342000.0 512216.0 0
346000.0 512216.0 0
350000.0 512216.0 0
354000.0 512216.0 0
358000.0 512216.0 0
362000.0 512216.0 0
366000.0 512217.0 0
370000.0 512217.0 0
374000.0 512217.0 0
378000.0 512217.0 0
382000.0 512217.0 0
386000.0 512219.0 0
390000.0 512249.0 0
394000.0 512301.0 0
398000.0 512303.0 0
102000.0 516290.0 0
106000.0 516288.0 0
110000.0 516241.0 0
114000.0 516218.0 0
118000.0 516217.0 0
122000.0 516217.0 0
126000.0 516217.0 0
130000.0 516217.0 0
134000.0 516217.0 0
138000.0 516216.0 0
142000.0 516216.0 0
146000.0 516216.0 0
150000.0 516216.0 0
154000.0 516216.0 0
158000.0 516216.0 0
162000.0 516216.0 0
166000.0 516216.0 0
170000.0 516216.0 0
174000.0 516216.0 0
178000.0 516216.0 0
182000.0 516216.0 0
186000.0 516216.0 0
190000.0 516216.0 0
194000.0 516216.0 0
198000.0 516216.0 0
202000.0 516216.0 0
206000.0 516216.0 0
210000.0 516216.0 0
214000.0 516216.0 0
218000.0 516216.0 0
222000.0 516216.0 0
226000.0 516216.0 0
230000.0 516216.0 0
234000.0 516216.0 0
238000.0 516216.0 0
242000.0 516216.0 0
246000.0 516216.0 0
250000.0 516216.0 0
254000.0 516216.0 0
258000.0 516216.0 0
262000.0 516216.0 0
266000.0 516216.0 0
270000.0 516216.0 0
274000.0 516216.0 0
278000.0 516216.0 0
282000.0 516216.0 0
286000.0 516216.0 0
290000.0 516216.0 0
294000.0 516216.0 0
298000.0 516216.0 0
302000.0 516216.0 0
306000.0 516216.0 0
310000.0 516216.0 0
314000.0 516216.0 0
318000.0 516216.0 0
322000.0 516216.0 0
326000.0 516216.0 0
330000.0 516216.0 0
334000.0 516216.0 0
338000.0 516216.0 0
342000.0 516216.0 0
346000.0 516216.0 0
350000.0 516216.0 0
354000.0 516216.0 0
358000.0 516216.0 0
362000.0 516216.0 0
366000.0 516217.0 0
370000.0 516217.0 0
374000.0 516217.0 0
378000.0 516217.0 0
382000.0 516217.0 0
386000.0 516218.0 0
390000.0 516241.0 0
394000.0 516288.0 0
398000.0 516290.0 0
102000.0 520279.0 0
106000.0 520277.0 0
110000.0 520235.0 0
114000.0 520218.0 0
118000.0 520217.0 0
122000.0 520217.0 0
126000.0 520217.0 0
130000.0 520217.0 0
134000.0 520217.0 0
138000.0 520216.0 0
142000.0 520216.0 0
146000.0 520216.0 0
150000.0 520216.0 0
154000.0 520216.0 0
158000.0 520216.0 0
162000.0 520216.0 0
166000.0 520216.0 0
170000.0 520216.0 0
174000.0 520216.0 0
178000.0 520216.0 0
182000.0 520216.0 0
186000.0 520216.0 0
190000.0 520216.0 0
194000.0 520216.0 0
198000.0 520216.0 0
202000.0 520216.0 0
206000.0 520216.0 0
210000.0 520216.0 0
214000.0 520216.0 0
218000.0 520216.0 0
222000.0 520216.0 0
226000.0 520216.0 0
230000.0 520216.0 0
234000.0 520216.0 0
238000.0 520216.0 0
242000.0 520216.0 0
246000.0 520216.0 0
250000.0 520216.0 0
254000.0 520216.0 0
258000.0 520216.0 0
262000.0 520216.0 0
266000.0 520216.0 0
270000.0 520216.0 0
274000.0 520216.0 0
278000.0 520216.0 0
282000.0 520216.0 0
286000.0 520216.0 0
290000.0 520216.0 0
294000.0 520216.0 0
298000.0 520216.0 0
302000.0 520216.0 0
306000.0 520216.0 0
310000.0 520216.0 0
314000.0 520216.0 0
318000.0 520216.0 0
322000.0 520216.0 0
326000.0 520216.0 0
330000.0 520216.0 0
334000.0 520216.0 0
338000.0 520216.0 0
342000.0 520216.0 0
346000.0 520216.0 0
350000.0 520216.0 0
354000.0 520216.0 0
358000.0 520216.0 0
362000.0 520216.0 0
366000.0 520217.0 0
370000.0 520217.0 0
374000.0 520217.0 0
378000.0 520217.0 0
382000.0 520217.0 0
386000.0 520218.0 0
390000.0 520235.0 0
394000.0 520277.0 0
398000.0 520279.0 0
102000.0 524269.0 0
106000.0 524267.0 0
110000.0 524230.0 0
114000.0 524218.0 0
118000.0 524217.0 0
122000.0 524217.0 0
126000.0 524217.0 0
130000.0 524217.0 0
134000.0 524216.0 0
138000.0 524216.0 0
142000.0 524216.0 0
146000.0 524216.0 0
150000.0 524216.0 0
154000.0 524216.0 0
158000.0 524216.0 0
162000.0 524216.0 0
166000.0 524216.0 0
170000.0 524216.0 0
174000.0 524216.0 0
178000.0 524216.0 0
182000.0 524216.0 0
186000.0 524216.0 0
190000.0 524216.0 0
194000.0 524216.0 0
198000.0 524216.0 0
202000.0 524216.0 0
206000.0 524216.0 0
210000.0 524216.0 0
214000.0 524216.0 0
218000.0 524216.0 0
222000.0 524216.0 0
226000.0 524216.0 0
230000.0 524216.0 0
234000.0 524216.0 0
238000.0 524216.0 0
242000.0 524216.0 0
246000.0 524216.0 0
250000.0 524216.0 0
254000.0 524216.0 0
258000.0 524216.0 0
262000.0 524216.0 0
266000.0 524216.0 0
270000.0 524216.0 0
274000.0 524216.0 0
278000.0 524216.0 0
282000.0 524216.0 0
286000.0 524216.0 0
290000.0 524216.0 0
294000.0 524216.0 0
298000.0 524216.0 0
302000.0 524216.0 0
306000.0 524216.0 0
310000.0 524216.0 0
314000.0 524216.0 0
318000.0 524216.0 0
322000.0 524216.0 0
326000.0 524216.0 0
330000.0 524216.0 0
334000.0 524216.0 0
338000.0 524216.0 0
342000.0 524216.0 0
346000.0 524216.0 0
350000.0 524216.0 0
354000.0 524216.0 0
358000.0 524216.0 0
362000.0 524216.0 0
366000.0 524216.0 0
370000.0 524217.0 0
374000.0 524217.0 0
378000.0 524217.0 0
382000.0 524217.0 0
386000.0 524218.0 0
390000.0 524230.0 0
394000.0 524267.0 0
398000.0 524269.0 0
102000.0 528261.0 0
106000.0 528258.0 0
110000.0 528226.0 0
114000.0 528217.0 0
118000.0 528217.0 0
122000.0 528217.0 0
126000.0 528217.0 0
130000.0 528217.0 0
134000.0 528216.0 0
138000.0 528216.0 0
142000.0 528216.0 0
146000.0 528216.0 0
150000.0 528216.0 0
154000.0 528216.0 0
158000.0 528216.0 0
162000.0 528216.0 0
166000.0 528216.0 0
170000.0 528216.0 0
174000.0 528216.0 0
178000.0 528216.0 0
182000.0 528216.0 0
186000.0 528216.0 0
190000.0 528216.0 0
194000.0 528216.0 0
198000.0 528216.0 0
202000.0 528216.0 0
206000.0 528216.0 0
210000.0 528216.0 0
214000.0 528216.0 0
218000.0 528216.0 0
222000.0 528216.0 0
226000.0 528216.0 0
230000.0 528216.0 0
234000.0 528216.0 0
238000.0 528216.0 0
242000.0 528216.0 0
246000.0 528216.0 0
250000.0 528216.0 0
254000.0 528216.0 0
258000.0 528216.0 0
262000.0 528216.0 0
266000.0 528216.0 0
270000.0 528216.0 0
274000.0 528216.0 0
278000.0 528216.0 0
282000.0 528216.0 0
286000.0 528216.0 0
290000.0 528216.0 0
294000.0 528216.0 0
298000.0 528216.0 0
302000.0 528216.0 0
306000.0 528216.0 0
310000.0 528216.0 0
314000.0 528216.0 0
318000.0 528216.0 0
322000.0 528216.0 0
326000.0 528216.0 0
330000.0 528216.0 0
334000.0 528216.0 0
338000.0 528216.0 0
342000.0 528216.0 0
346000.0 528216.0 0
350000.0 528216.0 0
354000.0 528216.0 0
358000.0 528216.0 0
362000.0 528216.0 0
366000.0 528216.0 0
370000.0 528217.0 0
374000.0 528217.0 0
378000.0 528217.0 0
382000.0 528217.0 0
386000.0 528217.0 0
390000.0 528226.0 0
394000.0 528258.0 0
398000.0 528261.0 0
102000.0 532254.0 0
106000.0 532251.0 0
110000.0 532223.0 0
114000.0 532217.0 0
118000.0 532217.0 0
122000.0 532217.0 0
126000.0 532217.0 0
130000.0 532216.0 0
134000.0 532216.0 0
138000.0 532216.0 0
142000.0 532216.0 0
146000.0 532216.0 0
150000.0 532216.0 0
154000.0 532216.0 0
158000.0 532216.0 0
162000.0 532216.0 0
166000.0 532216.0 0
170000.0 532216.0 0
174000.0 532216.0 0
178000.0 532216.0 0
182000.0 532216.0 0
186000.0 532216.0 0
190000.0 532216.0 0
194000.0 532216.0 0
198000.0 532216.0 0
202000.0 532216.0 0
206000.0 532216.0 0
210000.0 532216.0 0
214000.0 532216.0 0
218000.0 532216.0 0
222000.0 532216.0 0
226000.0 532216.0 0
230000.0 532216.0 0
234000.0 532216.0 0
238000.0 532216.0 0
242000.0 532216.0 0
246000.0 532216.0 0
250000.0 532216.0 0
254000.0 532216.0 0
258000.0 532216.0 0
262000.0 532216.0 0
266000.0 532216.0 0
270000.0 532216.0 0
274000.0 532216.0 0
278000.0 532216.0 0
282000.0 532216.0 0
286000.0 532216.0 0
290000.0 532216.0 0
294000.0 532216.0 0
298000.0 532216.0 0
302000.0 532216.0 0
306000.0 532216.0 0
310000.0 532216.0 0
314000.0 532216.0 0
318000.0 532216.0 0
322000.0 532216.0 0
326000.0 532216.0 0
330000.0 532216.0 0
334000.0 532216.0 0
338000.0 532216.0 0
342000.0 532216.0 0
346000.0 532216.0 0
350000.0 532216.0 0
354000.0 532216.0 0
358000.0 532216.0 0
362000.0 532216.0 0
366000.0 532216.0 0
370000.0 532216.0 0
374000.0 532217.0 0
378000.0 532217.0 0
382000.0 532217.0 0
386000.0 532217.0 0
390000.0 532223.0 0
394000.0 532251.0 0
398000.0 532254.0 0
102000.0 536248.0 0
106000.0 536244.0 0
110000.0 536221.0 0
114000.0 536217.0 0
118000.0 536217.0 0
122000.0 536217.0 0
126000.0 536217.0 0
130000.0 536216.0 0
134000.0 536216.0 0
138000.0 536216.0 0
142000.0 536216.0 0
146000.0 536216.0 0
150000.0 536216.0 0
154000.0 536216.0 0
158000.0 536216.0 0
162000.0 536216.0 0
166000.0 536216.0 0
170000.0 536216.0 0
174000.0 536216.0 0
178000.0 536216.0 0
182000.0 536216.0 0
186000.0 536216.0 0
190000.0 536216.0 0
194000.0 536216.0 0
198000.0 536216.0 0
202000.0 536216.0 0
206000.0 536216.0 0
210000.0 536216.0 0
214000.0 536216.0 0
218000.0 536216.0 0
222000.0 536216.0 0
226000.0 536216.0 0
230000.0 536216.0 0
234000.0 536216.0 0
238000.0 536216.0 0
242000.0 536216.0 0
246000.0 536216.0 0
250000.0 536216.0 0
254000.0 536216.0 0
258000.0 536216.0 0
262000.0 536216.0 0
266000.0 536216.0 0
270000.0 536216.0 0
274000.0 536216.0 0
278000.0 536216.0 0
282000.0 536216.0 0
286000.0 536216.0 0
290000.0 536216.0 0
294000.0 536216.0 0
298000.0 536216.0 0
302000.0 536216.0 0
306000.0 536216.0 0
310000.0 536216.0 0
314000.0 536216.0 0
318000.0 536216.0 0
322000.0 536216.0 0
326000.0 536216.0 0
330000.0 536216.0 0
334000.0 536216.0 0
338000.0 536216.0 0
342000.0 536216.0 0
346000.0 536216.0 0
350000.0 536216.0 0
354000.0 536216.0 0
358000.0 536216.0 0
362000.0 536216.0 0
366000.0 536216.0 0
370000.0 536216.0 0
374000.0 536217.0 0
378000.0 536217.0 0
382000.0 536217.0 0
386000.0 536217.0 0
390000.0 536221.0 0
394000.0 536244.0 0
398000.0 536248.0 0
102000.0 540243.0 0
106000.0 540239.0 0
110000.0 540220.0 0
114000.0 540217.0 0
118000.0 540217.0 0
122000.0 540217.0 0
126000.0 540216.0 0
130000.0 540216.0 0
134000.0 540216.0 0
138000.0 540216.0 0
142000.0 540216.0 0
146000.0 540216.0 0
150000.0 540216.0 0
154000.0 540216.0 0
158000.0 540216.0 0
162000.0 540216.0 0
166000.0 540216.0 0
170000.0 540216.0 0
174000.0 540216.0 0
178000.0 540216.0 0
182000.0 540216.0 0
186000.0 540216.0 0
190000.0 540216.0 0
194000.0 540216.0 0
198000.0 540216.0 0
202000.0 540216.0 0
206000.0 540216.0 0
210000.0 540216.0 0
214000.0 540216.0 0
218000.0 540216.0 0
222000.0 540216.0 0
226000.0 540216.0 0
230000.0 540216.0 0
234000.0 540216.0 0
238000.0 540216.0 0
242000.0 540216.0 0
246000.0 540216.0 0
250000.0 540216.0 0
254000.0 540216.0 0
258000.0 540216.0 0
262000.0 540216.0 0
266000.0 540216.0 0
270000.0 540216.0 0
274000.0 540216.0 0
278000.0 540216.0 0
282000.0 540216.0 0
286000.0 540216.0 0
290000.0 540216.0 0
294000.0 540216.0 0
298000.0 540216.0 0
302000.0 540216.0 0
306000.0 540216.0 0
310000.0 540216.0 0
314000.0 540216.0 0
318000.0 540216.0 0
322000.0 540216.0 0
326000.0 540216.0 0
330000.0 540216.0 0
334000.0 540216.0 0
338000.0 540216.0 0
342000.0 540216.0 0
346000.0 540216.0 0
350000.0 540216.0 0
354000.0 540216.0 0
358000.0 540216.0 0
362000.0 540216.0 0
366000.0 540216.0 0
370000.0 540216.0 0
374000.0 540216.0 0
378000.0 540217.0 0
382000.0 540217.0 0
386000.0 540217.0 0
390000.0 540220.0 0
394000.0 540239.0 0
398000.0 540243.0 0
102000.0 544239.0 0
106000.0 544234.0 0
110000.0 544219.0 0
114000.0 544217.0 0
118000.0 544217.0 0
122000.0 544217.0 0
126000.0 544216.0 0
130000.0 544216.0 0
134000.0 544216.0 0
138000.0 544216.0 0
142000.0 544216.0 0
146000.0 544216.0 0
150000.0 544216.0 0
154000.0 544216.0 0
158000.0 544216.0 0
162000.0 544216.0 0
166000.0 544216.0 0
170000.0 544216.0 0
174000.0 544216.0 0
178000.0 544216.0 0
182000.0 544216.0 0
186000.0 544216.0 0
190000.0 544216.0 0
194000.0 544216.0 0
198000.0 544216.0 0
202000.0 544216.0 0
206000.0 544216.0 0
210000.0 544216.0 0
214000.0 544216.0 0
218000.0 544216.0 0
222000.0 544216.0 0
226000.0 544216.0 0
230000.0 544216.0 0
234000.0 544216.0 0
238000.0 544216.0 0
242000.0 544216.0 0
246000.0 544216.0 0
250000.0 544216.0 0
254000.0 544216.0 0
258000.0 544216.0 0
262000.0 544216.0 0
266000.0 544216.0 0
270000.0 544216.0 0
274000.0 544216.0 0
278000.0 544216.0 0
282000.0 544216.0 0
286000.0 544216.0 0
290000.0 544216.0 0
294000.0 544216.0 0
298000.0 544216.0 0
302000.0 544216.0 0
306000.0 544216.0 0
310000.0 544216.0 0
314000.0 544216.0 0
318000.0 544216.0 0
322000.0 544216.0 0
326000.0 544216.0 0
330000.0 544216.0 0
334000.0 544216.0 0
338000.0 544216.0 0
342000.0 544216.0 0
346000.0 544216.0 0
350000.0 544216.0 0
354000.0 544216.0 0
358000.0 544216.0 0
362000.0 544216.0 0
366000.0 544216.0 0
370000.0 544216.0 0
374000.0 544216.0 0
378000.0 544217.0 0
382000.0 544217.0 0
386000.0 544217.0 0
390000.0 544219.0 0
394000.0 544234.0 0
398000.0 544239.0 0
102000.0 548235.0 0
106000.0 548231.0 0
110000.0 548218.0 0
114000.0 548217.0 0
118000.0 548217.0 0
122000.0 548216.0 0
126000.0 548216.0 0
130000.0 548216.0 0
134000.0 548216.0 0
138000.0 548216.0 0
142000.0 548216.0 0
146000.0 548216.0 0
150000.0 548216.0 0
154000.0 548216.0 0
158000.0 548216.0 0
162000.0 548216.0 0
166000.0 548216.0 0
170000.0 548216.0 0
174000.0 548216.0 0
178000.0 548216.0 0
182000.0 548216.0 0
186000.0 548216.0 0
190000.0 548216.0 0
194000.0 548216.0 0
198000.0 548216.0 0
202000.0 548216.0 0
206000.0 548216.0 0
210000.0 548216.0 0
214000.0 548216.0 0
218000.0 548216.0 0
222000.0 548216.0 0
226000.0 548216.0 0
230000.0 548216.0 0
234000.0 548216.0 0
238000.0 548216.0 0
242000.0 548216.0 0
246000.0 548216.0 0
250000.0 548216.0 0
254000.0 548216.0 0
258000.0 548216.0 0
262000.0 548216.0 0
266000.0 548216.0 0
270000.0 548216.0 0
274000.0 548216.0 0
278000.0 548216.0 0
282000.0 548216.0 0
286000.0 548216.0 0
290000.0 548216.0 0
294000.0 548216.0 0
298000.0 548216.0 0
302000.0 548216.0 0
306000.0 548216.0 0
310000.0 548216.0 0
314000.0 548216.0 0
318000.0 548216.0 0
322000.0 548216.0 0
326000.0 548216.0 0
330000.0 548216.0 0
334000.0 548216.0 0
338000.0 548216.0 0
342000.0 548216.0 0
346000.0 548216.0 0
350000.0 548216.0 0
354000.0 548216.0 0
358000.0 548216.0 0
362000.0 548216.0 0
366000.0 548216.0 0
370000.0 548216.0 0
374000.0 548216.0 0
378000.0 548216.0 0
382000.0 548217.0 0
386000.0 548217.0 0
390000.0 548218.0 0
394000.0 548231.0 0
398000.0 548235.0 0
102000.0 552232.0 0
106000.0 552228.0 0
110000.0 552218.0 0
114000.0 552217.0 0
118000.0 552216.0 0
122000.0 552216.0 0
126000.0 552216.0 0
130000.0 552216.0 0
134000.0 552216.0 0
138000.0 552216.0 0
142000.0 552216.0 0
146000.0 552216.0 0
150000.0 552216.0 0
154000.0 552216.0 0
158000.0 552216.0 0
162000.0 552216.0 0
166000.0 552216.0 0
170000.0 552216.0 0
174000.0 552216.0 0
178000.0 552216.0 0
182000.0 552216.0 0
186000.0 552216.0 0
190000.0 552216.0 0
194000.0 552216.0 0
198000.0 552216.0 0
202000.0 552216.0 0
206000.0 552216.0 0
210000.0 552216.0 0
214000.0 552216.0 0
218000.0 552216.0 0
222000.0 552216.0 0
226000.0 552216.0 0
230000.0 552216.0 0
234000.0 552216.0 0
238000.0 552216.0 0
242000.0 552216.0 0
246000.0 552216.0 0
250000.0 552216.0 0
254000.0 552216.0 0
258000.0 552216.0 0
262000.0 552216.0 0
266000.0 552216.0 0
270000.0 552216.0 0
274000.0 552216.0 0
278000.0 552216.0 0
282000.0 552216.0 0
286000.0 552216.0 0
290000.0 552216.0 0
294000.0 552216.0 0
298000.0 552216.0 0
302000.0 552216.0 0
306000.0 552216.0 0
310000.0 552216.0 0
314000.0 552216.0 0
318000.0 552216.0 0
322000.0 552216.0 0
326000.0 552216.0 0
330000.0 552216.0 0
334000.0 552216.0 0
338000.0 552216.0 0
342000.0 552216.0 0
346000.0 552216.0 0
350000.0 552216.0 0
354000.0 552216.0 0
358000.0 552216.0 0
362000.0 552216.0 0
366000.0 552216.0 0
370000.0 552216.0 0
374000.0 552216.0 0
378000.0 552216.0 0
382000.0 552216.0 0
386000.0 552217.0 0
390000.0 552218.0 0
394000.0 552228.0 0
398000.0 552232.0 0
102000.0 556230.0 0
106000.0 556225.0 0
110000.0 556217.0 0
114000.0 556217.0 0
118000.0 556216.0 0
122000.0 556216.0 0
126000.0 556216.0 0
130000.0 556216.0 0
134000.0 556216.0 0
138000.0 556216.0 0
142000.0 556216.0 0
146000.0 556216.0 0
150000.0 556216.0 0
154000.0 556216.0 0
158000.0 556216.0 0
162000.0 556216.0 0
166000.0 556216.0 0
170000.0 556216.0 0
174000.0 556216.0 0
178000.0 556216.0 0
182000.0 556216.0 0
186000.0 556216.0 0
190000.0 556216.0 0
194000.0 556216.0 0
198000.0 556216.0 0
202000.0 556216.0 0
206000.0 556216.0 0
210000.0 556216.0 0
214000.0 556216.0 0
218000.0 556216.0 0
222000.0 556216.0 0
226000.0 556216.0 0
230000.0 556216.0 0
234000.0 556216.0 0
238000.0 556216.0 0
242000.0 556216.0 0
246000.0 556216.0 0
250000.0 556216.0 0
254000.0 556216.0 0
258000.0 556216.0 0
262000.0 556216.0 0
266000.0 556216.0 0
270000.0 556216.0 0
274000.0 556216.0 0
278000.0 556216.0 0
282000.0 556216.0 0
286000.0 556216.0 0
290000.0 556216.0 0
294000.0 556216.0 0
298000.0 556216.0 0
302000.0 556216.0 0
306000.0 556216.0 0
310000.0 556216.0 0
314000.0 556216.0 0
318000.0 556216.0 0
322000.0 556216.0 0
326000.0 556216.0 0
330000.0 556216.0 0
334000.0 556216.0 0
338000.0 556216.0 0
342000.0 556216.0 0
346000.0 556216.0 0
350000.0 556216.0 0
354000.0 556216.0 0
358000.0 556216.0 0
362000.0 556216.0 0
366000.0 556216.0 0
370000.0 556216.0 0
374000.0 556216.0 0
378000.0 556216.0 0
382000.0 556216.0 0
386000.0 556217.0 0
390000.0 556217.0 0
394000.0 556225.0 0
398000.0 556230.0 0
102000.0 560227.0 0
106000.0 560223.0 0
110000.0 560217.0 0
114000.0 560217.0 0
118000.0 560216.0 0
122000.0 560216.0 0
126000.0 560216.0 0
130000.0 560216.0 0
134000.0 560216.0 0
138000.0 560216.0 0
142000.0 560216.0 0
146000.0 560216.0 0
150000.0 560216.0 0
154000.0 560216.0 0
158000.0 560216.0 0
162000.0 560216.0 0
166000.0 560216.0 0
170000.0 560216.0 0
174000.0 560216.0 0
178000.0 560216.0 0
182000.0 560216.0 0
186000.0 560216.0 0
190000.0 560216.0 0
194000.0 560216.0 0
198000.0 560216.0 0
202000.0 560216.0 0
206000.0 560216.0 0
210000.0 560216.0 0
214000.0 560216.0 0
218000.0 560216.0 0
222000.0 560216.0 0
226000.0 560216.0 0
230000.0 560216.0 0
234000.0 560216.0 0
238000.0 560216.0 0
242000.0 560216.0 0
246000.0 560216.0 0
250000.0 560216.0 0
254000.0 560216.0 0
258000.0 560216.0 0
262000.0 560216.0 0
266000.0 560216.0 0
270000.0 560216.0 0
274000.0 560216.0 0
278000.0 560216.0 0
282000.0 560216.0 0
286000.0 560216.0 0
290000.0 560216.0 0
294000.0 560216.0 0
298000.0 560216.0 0
302000.0 560216.0 0
306000.0 560216.0 0
310000.0 560216.0 0
314000.0 560216.0 0
318000.0 560216.0 0
322000.0 560216.0 0
326000.0 560216.0 0
330000.0 560216.0 0
334000.0 560216.0 0
338000.0 560216.0 0
342000.0 560216.0 0
346000.0 560216.0 0
350000.0 560216.0 0
354000.0 560216.0 0
358000.0 560216.0 0
362000.0 560216.0 0
366000.0 560216.0 0
370000.0 560216.0 0
374000.0 560216.0 0
378000.0 560216.0 0
382000.0 560216.0 0
386000.0 560217.0 0
390000.0 560217.0 0
394000.0 560223.0 0
398000.0 560227.0 0
102000.0 564225.0 0
106000.0 564222.0 0
110000.0 564217.0 0
114000.0 564217.0 0
118000.0 564216.0 0
122000.0 564216.0 0
126000.0 564216.0 0
130000.0 564216.0 0
134000.0 564216.0 0
138000.0 564216.0 0
142000.0 564216.0 0
146000.0 564216.0 0
150000.0 564216.0 0
154000.0 564216.0 0
158000.0 564216.0 0
162000.0 564216.0 0
166000.0 564216.0 0
170000.0 564216.0 0
174000.0 564216.0 0
178000.0 564216.0 0
182000.0 564216.0 0
186000.0 564216.0 0
190000.0 564216.0 0
194000.0 564216.0 0
198000.0 564216.0 0
202000.0 564216.0 0
206000.0 564216.0 0
210000.0 564216.0 0
214000.0 564216.0 0
218000.0 564216.0 0
222000.0 564216.0 0
226000.0 564216.0 0
230000.0 564216.0 0
234000.0 564216.0 0
238000.0 564216.0 0
242000.0 564216.0 0
246000.0 564216.0 0
250000.0 564216.0 0
254000.0 564216.0 0
258000.0 564216.0 0
262000.0 564216.0 0
266000.0 564216.0 0
270000.0 564216.0 0
274000.0 564216.0 0
278000.0 564216.0 0
282000.0 564216.0 0
286000.0 564216.0 0
290000.0 564216.0 0
294000.0 564216.0 0
298000.0 564216.0 0
302000.0 564216.0 0
306000.0 564216.0 0
310000.0 564216.0 0
314000.0 564216.0 0
318000.0 564216.0 0
322000.0 564216.0 0
326000.0 564216.0 0
330000.0 564216.0 0
334000.0 564216.0 0
338000.0 564216.0 0
342000.0 564216.0 0
346000.0 564216.0 0
350000.0 564216.0 0
354000.0 564216.0 0
358000.0 564216.0 0
362000.0 564216.0 0
366000.0 564216.0 0
370000.0 564216.0 0
374000.0 564216.0 0
378000.0 564216.0 0
382000.0 564216.0 0
386000.0 564217.0 0
390000.0 564217.0 0
394000.0 564222.0 0
398000.0 564225.0 0
102000.0 568224.0 0
106000.0 568220.0 0
110000.0 568217.0 0
114000.0 568217.0 0
118000.0 568216.0 0
122000.0 568216.0 0
126000.0 568216.0 0
130000.0 568216.0 0
134000.0 568216.0 0
138000.0 568216.0 0
142000.0 568216.0 0
146000.0 568216.0 0
150000.0 568216.0 0
154000.0 568216.0 0
158000.0 568216.0 0
162000.0 568216.0 0
166000.0 568216.0 0
170000.0 568216.0 0
174000.0 568216.0 0
178000.0 568216.0 0
182000.0 568216.0 0
186000.0 568216.0 0
190000.0 568216.0 0
194000.0 568216.0 0
198000.0 568216.0 0
202000.0 568216.0 0
206000.0 568216.0 0
210000.0 568216.0 0
214000.0 568216.0 0
218000.0 568216.0 0
222000.0 568216.0 0
226000.0 568216.0 0
230000.0 568216.0 0
234000.0 568216.0 0
238000.0 568216.0 0
242000.0 568216.0 0
246000.0 568216.0 0
250000.0 568216.0 0
254000.0 568216.0 0
258000.0 568216.0 0
262000.0 568216.0 0
266000.0 568216.0 0
270000.0 568216.0 0
274000.0 568216.0 0
278000.0 568216.0 0
282000.0 568216.0 0
286000.0 568216.0 0
290000.0 568216.0 0
294000.0 568216.0 0
298000.0 568216.0 0
302000.0 568216.0 0
306000.0 568216.0 0
310000.0 568216.0 0
314000.0 568216.0 0
318000.0 568216.0 0
322000.0 568216.0 0
326000.0 568216.0 0
330000.0 568216.0 0
334000.0 568216.0 0
338000.0 568216.0 0
342000.0 568216.0 0
346000.0 568216.0 0
350000.0 568216.0 0
354000.0 568216.0 0
358000.0 568216.0 0
362000.0 568216.0 0
366000.0 568216.0 0
370000.0 568216.0 0
374000.0 568216.0 0
378000.0 568216.0 0
382000.0 568216.0 0
386000.0 568217.0 0
390000.0 568217.0 0
394000.0 568220.0 0
398000.0 568224.0 0
102000.0 572222.0 0
106000.0 572219.0 0
110000.0 572217.0 0
114000.0 572216.0 0
118000.0 572216.0 0
122000.0 572216.0 0
126000.0 572216.0 0
130000.0 572216.0 0
134000.0 572216.0 0
138000.0 572216.0 0
142000.0 572216.0 0
146000.0 572216.0 0
150000.0 572216.0 0
154000.0 572216.0 0
158000.0 572216.0 0
162000.0 572216.0 0
166000.0 572216.0 0
170000.0 572216.0 0
174000.0 572216.0 0
178000.0 572216.0 0
182000.0 572216.0 0
186000.0 572216.0 0
190000.0 572216.0 0
194000.0 572216.0 0
198000.0 572216.0 0
202000.0 572216.0 0
206000.0 572216.0 0
210000.0 572216.0 0
214000.0 572216.0 0
218000.0 572216.0 0
222000.0 572216.0 0
226000.0 572216.0 0
230000.0 572216.0 0
234000.0 572216.0 0
238000.0 572216.0 0
242000.0 572216.0 0
246000.0 572216.0 0
250000.0 572216.0 0
254000.0 572216.0 0
258000.0 572216.0 0
262000.0 572216.0 0
266000.0 572216.0 0
270000.0 572216.0 0
274000.0 572216.0 0
278000.0 572216.0 0
282000.0 572216.0 0
286000.0 572216.0 0
290000.0 572216.0 0
294000.0 572216.0 0
298000.0 572216.0 0
302000.0 572216.0 0
306000.0 572216.0 0
310000.0 572216.0 0
314000.0 572216.0 0
318000.0 572216.0 0
322000.0 572216.0 0
326000.0 572216.0 0
330000.0 572216.0 0
334000.0 572216.0 0
338000.0 572216.0 0
342000.0 572216.0 0
346000.0 572216.0 0
350000.0 572216.0 0
354000.0 572216.0 0
358000.0 572216.0 0
362000.0 572216.0 0
366000.0 572216.0 0
370000.0 572216.0 0
374000.0 572216.0 0
378000.0 572216.0 0
382000.0 572216.0 0
386000.0 572216.0 0
390000.0 572217.0 0
394000.0 572219.0 0
398000.0 572222.0 0
102000.0 576221.0 0
106000.0 576219.0 0
110000.0 576217.0 0
114000.0 576216.0 0
118000.0 576216.0 0
122000.0 576216.0 0
126000.0 576216.0 0
130000.0 576216.0 0
134000.0 576216.0 0
138000.0 576216.0 0
142000.0 576216.0 0
146000.0 576216.0 0
150000.0 576216.0 0
154000.0 576216.0 0
158000.0 576216.0 0
162000.0 576216.0 0
166000.0 576216.0 0
170000.0 576216.0 0
174000.0 576216.0 0
178000.0 576216.0 0
182000.0 576216.0 0
186000.0 576216.0 0
190000.0 576216.0 0
194000.0 576216.0 0
198000.0 576216.0 0
202000.0 576216.0 0
206000.0 576216.0 0
210000.0 576216.0 0
214000.0 576216.0 0
218000.0 576216.0 0
222000.0 576216.0 0
226000.0 576216.0 0
230000.0 576216.0 0
234000.0 576216.0 0
238000.0 576216.0 0
242000.0 576216.0 0
246000.0 576216.0 0
250000.0 576216.0 0
254000.0 576216.0 0
258000.0 576216.0 0
262000.0 576216.0 0
266000.0 576216.0 0
270000.0 576216.0 0
274000.0 576216.0 0
278000.0 576216.0 0
282000.0 576216.0 0
286000.0 576216.0 0
290000.0 576216.0 0
294000.0 576216.0 0
298000.0 576216.0 0
302000.0 576216.0 0
306000.0 576216.0 0
310000.0 576216.0 0
314000.0 576216.0 0
318000.0 576216.0 0
322000.0 576216.0 0
326000.0 576216.0 0
330000.0 576216.0 0
334000.0 576216.0 0
338000.0 576216.0 0
342000.0 576216.0 0
346000.0 576216.0 0
350000.0 576216.0 0
354000.0 576216.0 0
358000.0 576216.0 0
362000.0 576216.0 0
366000.0 576216.0 0
370000.0 576216.0 0
374000.0 576216.0 0
378000.0 576216.0 0
382000.0 576216.0 0
386000.0 576216.0 0
390000.0 576217.0 0
394000.0 576219.0 0
398000.0 576221.0 0
102000.0 580220.0 0
106000.0 580218.0 0
110000.0 580217.0 0
114000.0 580216.0 0
118000.0 580216.0 0
122000.0 580216.0 0
126000.0 580216.0 0
130000.0 580216.0 0
134000.0 580216.0 0
138000.0 580216.0 0
142000.0 580216.0 0
146000.0 580216.0 0
150000.0 580216.0 0
154000.0 580216.0 0
158000.0 580216.0 0
162000.0 580216.0 0
166000.0 580216.0 0
170000.0 580216.0 0
174000.0 580216.0 0
178000.0 580216.0 0
182000.0 580216.0 0
186000.0 580216.0 0
190000.0 580216.0 0
194000.0 580216.0 0
198000.0 580216.0 0
202000.0 580216.0 0
206000.0 580216.0 0
210000.0 580216.0 0
214000.0 580216.0 0
218000.0 580216.0 0
222000.0 580216.0 0
226000.0 580216.0 0
230000.0 580216.0 0
234000.0 580216.0 0
238000.0 580216.0 0
242000.0 580216.0 0
246000.0 580216.0 0
250000.0 580216.0 0
254000.0 580216.0 0
258000.0 580216.0 0
262000.0 580216.0 0
266000.0 580216.0 0
270000.0 580216.0 0
274000.0 580216.0 0
278000.0 580216.0 0
282000.0 580216.0 0
286000.0 580216.0 0
290000.0 580216.0 0
294000.0 580216.0 0
298000.0 580216.0 0
302000.0 580216.0 0
306000.0 580216.0 0
310000.0 580216.0 0
314000.0 580216.0 0
318000.0 580216.0 0
322000.0 580216.0 0
326000.0 580216.0 0
330000.0 580216.0 0
334000.0 580216.0 0
338000.0 580216.0 0
342000.0 580216.0 0
346000.0 580216.0 0
350000.0 580216.0 0
354000.0 580216.0 0
358000.0 580216.0 0
362000.0 580216.0 0
366000.0 580216.0 0
370000.0 580216.0 0
374000.0 580216.0 0
378000.0 580216.0 0
382000.0 580216.0 0
386000.0 580216.0 0
390000.0 580217.0 0
394000.0 580218.0 0
398000.0 580220.0 0
102000.0 584220.0 0
106000.0 584218.0 0
110000.0 584217.0 0
114000.0 584216.0 0
118000.0 584216.0 0
122000.0 584216.0 0
126000.0 584216.0 0
130000.0 584216.0 0
134000.0 584216.0 0
138000.0 584216.0 0
142000.0 584216.0 0
146000.0 584216.0 0
150000.0 584216.0 0
154000.0 584216.0 0
158000.0 584216.0 0
162000.0 584216.0 0
166000.0 584216.0 0
170000.0 584216.0 0
174000.0 584216.0 0
178000.0 584216.0 0
182000.0 584216.0 0
186000.0 584216.0 0
190000.0 584216.0 0
194000.0 584216.0 0
198000.0 584216.0 0
202000.0 584216.0 0
206000.0 584216.0 0
210000.0 584216.0 0
214000.0 584216.0 0
218000.0 584216.0 0
222000.0 584216.0 0
226000.0 584216.0 0
230000.0 584216.0 0
234000.0 584216.0 0
238000.0 584216.0 0
242000.0 584216.0 0
246000.0 584216.0 0
250000.0 584216.0 0
254000.0 584216.0 0
258000.0 584216.0 0
262000.0 584216.0 0
266000.0 584216.0 0
270000.0 584216.0 0
274000.0 584216.0 0
278000.0 584216.0 0
282000.0 584216.0 0
286000.0 584216.0 0
290000.0 584216.0 0
294000.0 584216.0 0
298000.0 584216.0 0
302000.0 584216.0 0
306000.0 584216.0 0
310000.0 584216.0 0
314000.0 584216.0 0
318000.0 584216.0 0
322000.0 584216.0 0
326000.0 584216.0 0
330000.0 584216.0 0
334000.0 584216.0 0
338000.0 584216.0 0
342000.0 584216.0 0
346000.0 584216.0 0
350000.0 584216.0 0
354000.0 584216.0 0
358000.0 584216.0 0
362000.0 584216.0 0
366000.0 584216.0 0
370000.0 584216.0 0
374000.0 584216.0 0
378000.0 584216.0 0
382000.0 584216.0 0
386000.0 584216.0 0
390000.0 584217.0 0
394000.0 584218.0 0
398000.0 584220.0 0
102000.0 588219.0 0
106000.0 588217.0 0
110000.0 588216.0 0
114000.0 588216.0 0
118000.0 588216.0 0
122000.0 588216.0 0
126000.0 588216.0 0
130000.0 588216.0 0
134000.0 588216.0 0
138000.0 588216.0 0
142000.0 588216.0 0
146000.0 588216.0 0
150000.0 588216.0 0
154000.0 588216.0 0
158000.0 588216.0 0
162000.0 588216.0 0
166000.0 588216.0 0
170000.0 588216.0 0
174000.0 588216.0 0
178000.0 588216.0 0
182000.0 588216.0 0
186000.0 588216.0 0
190000.0 588216.0 0
194000.0 588216.0 0
198000.0 588216.0 0
202000.0 588216.0 0
206000.0 588216.0 0
210000.0 588216.0 0
214000.0 588216.0 0
218000.0 588216.0 0
222000.0 588216.0 0
226000.0 588216.0 0
230000.0 588216.0 0
234000.0 588216.0 0
238000.0 588216.0 0
242000.0 588216.0 0
246000.0 588216.0 0
250000.0 588216.0 0
254000.0 588216.0 0
258000.0 588216.0 0
262000.0 588216.0 0
266000.0 588216.0 0
270000.0 588216.0 0
274000.0 588216.0 0
278000.0 588216.0 0
282000.0 588216.0 0
286000.0 588216.0 0
290000.0 588216.0 0
294000.0 588216.0 0
298000.0 588216.0 0
302000.0 588216.0 0
306000.0 588216.0 0
310000.0 588216.0 0
314000.0 588216.0 0
318000.0 588216.0 0
322000.0 588216.0 0
326000.0 588216.0 0
330000.0 588216.0 0
334000.0 588216.0 0
338000.0 588216.0 0
342000.0 588216.0 0
346000.0 588216.0 0
350000.0 588216.0 0
354000.0 588216.0 0
358000.0 588216.0 0
362000.0 588216.0 0
366000.0 588216.0 0
370000.0 588216.0 0
374000.0 588216.0 0
378000.0 588216.0 0
382000.0 588216.0 0
386000.0 588216.0 0
390000.0 588216.0 0
394000.0 588217.0 0
398000.0 588219.0 0
102000.0 592218.0 0
106000.0 592217.0 0
110000.0 592216.0 0
114000.0 592216.0 0
118000.0 592216.0 0
122000.0 592216.0 0
126000.0 592216.0 0
130000.0 592216.0 0
134000.0 592216.0 0
138000.0 592216.0 0
142000.0 592216.0 0
146000.0 592216.0 0
150000.0 592216.0 0
154000.0 592216.0 0
158000.0 592216.0 0
162000.0 592216.0 0
166000.0 592216.0 0
170000.0 592216.0 0
174000.0 592216.0 0
178000.0 592216.0 0
182000.0 592216.0 0
186000.0 592216.0 0
190000.0 592216.0 0
194000.0 592216.0 0
198000.0 592216.0 0
202000.0 592216.0 0
206000.0 592216.0 0
210000.0 592216.0 0
214000.0 592216.0 0
218000.0 592216.0 0
222000.0 592216.0 0
226000.0 592216.0 0
230000.0 592216.0 0
234000.0 592216.0 0
238000.0 592216.0 0
242000.0 592216.0 0
246000.0 592216.0 0
250000.0 592216.0 0
254000.0 592216.0 0
258000.0 592216.0 0
262000.0 592216.0 0
266000.0 592216.0 0
270000.0 592216.0 0
274000.0 592216.0 0
278000.0 592216.0 0
282000.0 592216.0 0
286000.0 592216.0 0
290000.0 592216.0 0
294000.0 592216.0 0
298000.0 592216.0 0
302000.0 592216.0 0
306000.0 592216.0 0
310000.0 592216.0 0
314000.0 592216.0 0
318000.0 592216.0 0
322000.0 592216.0 0
326000.0 592216.0 0
330000.0 592216.0 0
334000.0 592216.0 0
338000.0 592216.0 0
342000.0 592216.0 0
346000.0 592216.0 0
350000.0 592216.0 0
354000.0 592216.0 0
358000.0 592216.0 0
362000.0 592216.0 0
366000.0 592216.0 0
370000.0 592216.0 0
374000.0 592216.0 0
378000.0 592216.0 0
382000.0 592216.0 0
386000.0 592216.0 0
390000.0 592216.0 0
394000.0 592217.0 0
398000.0 592218.0 0
102000.0 596218.0 0
106000.0 596217.0 0
110000.0 596216.0 0
114000.0 596216.0 0
118000.0 596216.0 0
122000.0 596216.0 0
126000.0 596216.0 0
130000.0 596216.0 0
134000.0 596216.0 0
138000.0 596216.0 0
142000.0 596216.0 0
146000.0 596216.0 0
150000.0 596216.0 0
154000.0 596216.0 0
158000.0 596216.0 0
162000.0 596216.0 0
166000.0 596216.0 0
170000.0 596216.0 0
174000.0 596216.0 0
178000.0 596216.0 0
182000.0 596216.0 0
186000.0 596216.0 0
190000.0 596216.0 0
194000.0 596216.0 0
198000.0 596216.0 0
202000.0 596216.0 0
206000.0 596216.0 0
210000.0 596216.0 0
214000.0 596216.0 0
218000.0 596216.0 0
222000.0 596216.0 0
226000.0 596216.0 0
230000.0 596216.0 0
234000.0 596216.0 0
238000.0 596216.0 0
242000.0 596216.0 0
246000.0 596216.0 0
250000.0 596216.0 0
254000.0 596216.0 0
258000.0 596216.0 0
262000.0 596216.0 0
266000.0 596216.0 0
270000.0 596216.0 0
274000.0 596216.0 0
278000.0 596216.0 0
282000.0 596216.0 0
286000.0 596216.0 0
290000.0 596216.0 0
294000.0 596216.0 0
298000.0 596216.0 0
302000.0 596216.0 0
306000.0 596216.0 0
310000.0 596216.0 0
314000.0 596216.0 0
318000.0 596216.0 0
322000.0 596216.0 0
326000.0 596216.0 0
330000.0 596216.0 0
334000.0 596216.0 0
338000.0 596216.0 0
342000.0 596216.0 0
346000.0 596216.0 0
350000.0 596216.0 0
354000.0 596216.0 0
358000.0 596216.0 0
362000.0 596216.0 0
366000.0 596216.0 0
370000.0 596216.0 0
374000.0 596216.0 0
378000.0 596216.0 0
382000.0 596216.0 0
386000.0 596216.0 0
390000.0 596216.0 0
394000.0 596217.0 0
398000.0 596218.0 0
102000.0 600218.0 0
106000.0 600217.0 0
110000.0 600216.0 0
114000.0 600216.0 0
118000.0 600216.0 0
122000.0 600216.0 0
126000.0 600216.0 0
130000.0 600216.0 0
134000.0 600216.0 0
138000.0 600216.0 0
142000.0 600216.0 0
146000.0 600216.0 0
150000.0 600216.0 0
154000.0 600216.0 0
158000.0 600216.0 0
162000.0 600216.0 0
166000.0 600216.0 0
170000.0 600216.0 0
174000.0 600216.0 0
178000.0 600216.0 0
182000.0 600216.0 0
186000.0 600216.0 0
190000.0 600216.0 0
194000.0 600216.0 0
198000.0 600216.0 0
202000.0 600216.0 0
206000.0 600216.0 0
210000.0 600216.0 0
214000.0 600216.0 0
218000.0 600216.0 0
222000.0 600216.0 0
226000.0 600216.0 0
230000.0 600216.0 0
234000.0 600216.0 0
238000.0 600216.0 0
242000.0 600216.0 0
246000.0 600216.0 0
250000.0 600216.0 0
254000.0 600216.0 0
258000.0 600216.0 0
262000.0 600216.0 0
266000.0 600216.0 0
270000.0 600216.0 0
274000.0 600216.0 0
278000.0 600216.0 0
282000.0 600216.0 0
286000.0 600216.0 0
290000.0 600216.0 0
294000.0 600216.0 0
298000.0 600216.0 0
302000.0 600216.0 0
306000.0 600216.0 0
310000.0 600216.0 0
314000.0 600216.0 0
318000.0 600216.0 0
322000.0 600216.0 0
326000.0 600216.0 0
330000.0 600216.0 0
334000.0 600216.0 0
338000.0 600216.0 0
342000.0 600216.0 0
346000.0 600216.0 0
350000.0 600216.0 0
354000.0 600216.0 0
358000.0 600216.0 0
362000.0 600216.0 0
366000.0 600216.0 0
370000.0 600216.0 0
374000.0 600216.0 0
378000.0 600216.0 0
382000.0 600216.0 0
386000.0 600216.0 0
390000.0 600216.0 0
394000.0 600217.0 0
398000.0 600218.0 0
102000.0 604217.0 0
106000.0 604217.0 0
110000.0 604216.0 0
114000.0 604216.0 0
118000.0 604216.0 0
122000.0 604216.0 0
126000.0 604216.0 0
130000.0 604216.0 0
134000.0 604216.0 0
138000.0 604216.0 0
142000.0 604216.0 0
146000.0 604216.0 0
150000.0 604216.0 0
154000.0 604216.0 0
158000.0 604216.0 0
162000.0 604216.0 0
166000.0 604216.0 0
170000.0 604216.0 0
174000.0 604216.0 0
178000.0 604216.0 0
182000.0 604216.0 0
186000.0 604216.0 0
190000.0 604216.0 0
194000.0 604216.0 0
198000.0 604216.0 0
202000.0 604216.0 0
206000.0 604216.0 0
210000.0 604216.0 0
214000.0 604216.0 0
218000.0 604216.0 0
222000.0 604216.0 0
226000.0 604216.0 0
230000.0 604216.0 0
234000.0 604216.0 0
238000.0 604216.0 0
242000.0 604216.0 0
246000.0 604216.0 0
250000.0 604216.0 0
254000.0 604216.0 0
258000.0 604216.0 0
262000.0 604216.0 0
266000.0 604216.0 0
270000.0 604216.0 0
274000.0 604216.0 0
278000.0 604216.0 0
282000.0 604216.0 0
286000.0 604216.0 0
290000.0 604216.0 0
294000.0 604216.0 0
298000.0 604216.0 0
302000.0 604216.0 0
306000.0 604216.0 0
310000.0 604216.0 0
314000.0 604216.0 0
318000.0 604216.0 0
322000.0 604216.0 0
326000.0 604216.0 0
330000.0 604216.0 0
334000.0 604216.0 0
338000.0 604216.0 0
342000.0 604216.0 0
346000.0 604216.0 0
350000.0 604216.0 0
354000.0 604216.0 0
358000.0 604216.0 0
362000.0 604216.0 0
366000.0 604216.0 0
370000.0 604216.0 0
374000.0 604216.0 0
378000.0 604216.0 0
382000.0 604216.0 0
386000.0 604216.0 0
390000.0 604216.0 0
394000.0 604217.0 0
398000.0 604217.0 0
102000.0 608217.0 0
106000.0 608217.0 0
110000.0 608216.0 0
114000.0 608216.0 0
118000.0 608216.0 0
122000.0 608216.0 0
126000.0 608216.0 0
130000.0 608216.0 0
134000.0 608216.0 0
138000.0 608216.0 0
142000.0 608216.0 0
146000.0 608216.0 0
150000.0 608216.0 0
154000.0 608216.0 0
158000.0 608216.0 0
162000.0 608216.0 0
166000.0 608216.0 0
170000.0 608216.0 0
174000.0 608216.0 0
178000.0 608216.0 0
182000.0 608216.0 0
186000.0 608216.0 0
190000.0 608216.0 0
194000.0 608216.0 0
198000.0 608216.0 0
202000.0 608216.0 0
206000.0 608216.0 0
210000.0 608216.0 0
214000.0 608216.0 0
218000.0 608216.0 0
222000.0 608216.0 0
226000.0 608216.0 0
230000.0 608216.0 0
234000.0 608216.0 0
238000.0 608216.0 0
242000.0 608216.0 0
246000.0 608216.0 0
250000.0 608216.0 0
254000.0 608216.0 0
258000.0 608216.0 0
262000.0 608216.0 0
266000.0 608216.0 0
270000.0 608216.0 0
274000.0 608216.0 0
278000.0 608216.0 0
282000.0 608216.0 0
286000.0 608216.0 0
290000.0 608216.0 0
294000.0 608216.0 0
298000.0 608216.0 0
302000.0 608216.0 0
306000.0 608216.0 0
310000.0 608216.0 0
314000.0 608216.0 0
318000.0 608216.0 0
322000.0 608216.0 0
326000.0 608216.0 0
330000.0 608216.0 0
334000.0 608216.0 0
338000.0 608216.0 0
342000.0 608216.0 0
346000.0 608216.0 0
350000.0 608216.0 0
354000.0 608216.0 0
358000.0 608216.0 0
362000.0 608216.0 0
366000.0 608216.0 0
370000.0 608216.0 0
374000.0 608216.0 0
378000.0 608216.0 0
382000.0 608216.0 0
386000.0 608216.0 0
390000.0 608216.0 0
394000.0 608217.0 0
398000.0 608217.0 0
102000.0 612217.0 0
106000.0 612217.0 0
110000.0 612216.0 0
114000.0 612216.0 0
118000.0 612216.0 0
122000.0 612216.0 0
126000.0 612216.0 0
130000.0 612216.0 0
134000.0 612216.0 0
138000.0 612216.0 0
142000.0 612216.0 0
146000.0 612216.0 0
150000.0 612216.0 0
154000.0 612216.0 0
158000.0 612216.0 0
162000.0 612216.0 0
166000.0 612216.0 0
170000.0 612216.0 0
174000.0 612216.0 0
178000.0 612216.0 0
182000.0 612216.0 0
186000.0 612216.0 0
190000.0 612216.0 0
194000.0 612216.0 0
198000.0 612216.0 0
202000.0 612216.0 0
206000.0 612216.0 0
210000.0 612216.0 0
214000.0 612216.0 0
218000.0 612216.0 0
222000.0 612216.0 0
226000.0 612216.0 0
230000.0 612216.0 0
234000.0 612216.0 0
238000.0 612216.0 0
242000.0 612216.0 0
246000.0 612216.0 0
250000.0 612216.0 0
254000.0 612216.0 0
258000.0 612216.0 0
262000.0 612216.0 0
266000.0 612216.0 0
270000.0 612216.0 0
274000.0 612216.0 0
278000.0 612216.0 0
282000.0 612216.0 0
286000.0 612216.0 0
290000.0 612216.0 0
294000.0 612216.0 0
298000.0 612216.0 0
302000.0 612216.0 0
306000.0 612216.0 0
310000.0 612216.0 0
314000.0 612216.0 0
318000.0 612216.0 0
322000.0 612216.0 0
326000.0 612216.0 0
330000.0 612216.0 0
334000.0 612216.0 0
338000.0 612216.0 0
342000.0 612216.0 0
346000.0 612216.0 0
350000.0 612216.0 0
354000.0 612216.0 0
358000.0 612216.0 0
362000.0 612216.0 0
366000.0 612216.0 0
370000.0 612216.0 0
374000.0 612216.0 0
378000.0 612216.0 0
382000.0 612216.0 0
386000.0 612216.0 0
390000.0 612216.0 0
394000.0 612217.0 0
398000.0 612217.0 0
102000.0 616217.0 0
106000.0 616217.0 0
110000.0 616216.0 0
114000.0 616216.0 0
118000.0 616216.0 0
122000.0 616216.0 0
126000.0 616216.0 0
130000.0 616216.0 0
134000.0 616216.0 0
138000.0 616216.0 0
142000.0 616216.0 0
146000.0 616216.0 0
150000.0 616216.0 0
154000.0 616216.0 0
158000.0 616216.0 0
162000.0 616216.0 0
166000.0 616216.0 0
170000.0 616216.0 0
174000.0 616216.0 0
178000.0 616216.0 0
182000.0 616216.0 0
186000.0 616216.0 0
190000.0 616216.0 0
194000.0 616216.0 0
198000.0 616216.0 0
202000.0 616216.0 0
206000.0 616216.0 0
210000.0 616216.0 0
214000.0 616216.0 0
218000.0 616216.0 0
222000.0 616216.0 0
226000.0 616216.0 0
230000.0 616216.0 0
234000.0 616216.0 0
238000.0 616216.0 0
242000.0 616216.0 0
246000.0 616216.0 0
250000.0 616216.0 0
254000.0 616216.0 0
258000.0 616216.0 0
262000.0 616216.0 0
266000.0 616216.0 0
270000.0 616216.0 0
274000.0 616216.0 0
278000.0 616216.0 0
282000.0 616216.0 0
286000.0 616216.0 0
290000.0 616216.0 0
294000.0 616216.0 0
298000.0 616216.0 0
302000.0 616216.0 0
306000.0 616216.0 0
310000.0 616216.0 0
314000.0 616216.0 0
318000.0 616216.0 0
322000.0 616216.0 0
326000.0 616216.0 0
330000.0 616216.0 0
334000.0 616216.0 0
338000.0 616216.0 0
342000.0 616216.0 0
346000.0 616216.0 0
350000.0 616216.0 0
354000.0 616216.0 0
358000.0 616216.0 0
362000.0 616216.0 0
366000.0 616216.0 0
370000.0 616216.0 0
374000.0 616216.0 0
378000.0 616216.0 0
382000.0 616216.0 0
386000.0 616216.0 0
390000.0 616216.0 0
394000.0 616217.0 0
398000.0 616217.0 0
102000.0 620217.0 0
106000.0 620216.0 0
110000.0 620216.0 0
114000.0 620216.0 0
118000.0 620216.0 0
122000.0 620216.0 0
126000.0 620216.0 0
130000.0 620216.0 0
134000.0 620216.0 0
138000.0 620216.0 0
142000.0 620216.0 0
146000.0 620216.0 0
150000.0 620216.0 0
154000.0 620216.0 0
158000.0 620216.0 0
162000.0 620216.0 0
166000.0 620216.0 0
170000.0 620216.0 0
174000.0 620216.0 0
178000.0 620216.0 0
182000.0 620216.0 0
186000.0 620216.0 0
190000.0 620216.0 0
194000.0 620216.0 0
198000.0 620216.0 0
202000.0 620216.0 0
206000.0 620216.0 0
210000.0 620216.0 0
214000.0 620216.0 0
218000.0 620216.0 0
222000.0 620216.0 0
226000.0 620216.0 0
230000.0 620216.0 0
234000.0 620216.0 0
238000.0 620216.0 0
242000.0 620216.0 0
246000.0 620216.0 0
250000.0 620216.0 0
254000.0 620216.0 0
258000.0 620216.0 0
262000.0 620216.0 0
266000.0 620216.0 0
270000.0 620216.0 0
274000.0 620216.0 0
278000.0 620216.0 0
282000.0 620216.0 0
286000.0 620216.0 0
290000.0 620216.0 0
294000.0 620216.0 0
298000.0 620216.0 0
302000.0 620216.0 0
306000.0 620216.0 0
310000.0 620216.0 0
314000.0 620216.0 0
318000.0 620216.0 0
322000.0 620216.0 0
326000.0 620216.0 0
330000.0 620216.0 0
334000.0 620216.0 0
338000.0 620216.0 0
342000.0 620216.0 0
346000.0 620216.0 0
350000.0 620216.0 0
354000.0 620216.0 0
358000.0 620216.0 0
362000.0 620216.0 0
366000.0 620216.0 0
370000.0 620216.0 0
374000.0 620216.0 0
378000.0 620216.0 0
382000.0 620216.0 0
386000.0 620216.0 0
390000.0 620216.0 0
394000.0 620216.0 0
398000.0 620217.0 0
102000.0 624217.0 0
106000.0 624216.0 0
110000.0 624216.0 0
114000.0 624216.0 0
118000.0 624216.0 0
122000.0 624216.0 0
126000.0 624216.0 0
130000.0 624216.0 0
134000.0 624216.0 0
138000.0 624216.0 0
142000.0 624216.0 0
146000.0 624216.0 0
150000.0 624216.0 0
154000.0 624216.0 0
158000.0 624216.0 0
162000.0 624216.0 0
166000.0 624216.0 0
170000.0 624216.0 0
174000.0 624216.0 0
178000.0 624216.0 0
182000.0 624216.0 0
186000.0 624216.0 0
190000.0 624216.0 0
194000.0 624216.0 0
198000.0 624216.0 0
202000.0 624216.0 0
206000.0 624216.0 0
210000.0 624216.0 0
214000.0 624216.0 0
218000.0 624216.0 0
222000.0 624216.0 0
226000.0 624216.0 0
230000.0 624216.0 0
234000.0 624216.0 0
238000.0 624216.0 0
242000.0 624216.0 0
246000.0 624216.0 0
250000.0 624216.0 0
254000.0 624216.0 0
258000.0 624216.0 0
262000.0 624216.0 0
266000.0 624216.0 0
270000.0 624216.0 0
274000.0 624216.0 0
278000.0 624216.0 0
282000.0 624216.0 0
286000.0 624216.0 0
290000.0 624216.0 0
294000.0 624216.0 0
298000.0 624216.0 0
302000.0 624216.0 0
306000.0 624216.0 0
310000.0 624216.0 0
314000.0 624216.0 0
318000.0 624216.0 0
322000.0 624216.0 0
326000.0 624216.0 0
330000.0 624216.0 0
334000.0 624216.0 0
338000.0 624216.0 0
342000.0 624216.0 0
346000.0 624216.0 0
350000.0 624216.0 0
354000.0 624216.0 0
358000.0 624216.0 0
362000.0 624216.0 0
366000.0 624216.0 0
370000.0 624216.0 0
374000.0 624216.0 0
378000.0 624216.0 0
382000.0 624216.0 0
386000.0 624216.0 0
390000.0 624216.0 0
394000.0 624216.0 0
398000.0 624217.0 0
102000.0 628217.0 0
106000.0 628216.0 0
110000.0 628216.0 0
114000.0 628216.0 0
118000.0 628216.0 0
122000.0 628216.0 0
126000.0 628216.0 0
130000.0 628216.0 0
134000.0 628216.0 0
138000.0 628216.0 0
142000.0 628216.0 0
146000.0 628216.0 0
150000.0 628216.0 0
154000.0 628216.0 0
158000.0 628216.0 0
162000.0 628216.0 0
166000.0 628216.0 0
170000.0 628216.0 0
174000.0 628216.0 0
178000.0 628216.0 0
182000.0 628216.0 0
186000.0 628216.0 0
190000.0 628216.0 0
194000.0 628216.0 0
198000.0 628216.0 0
202000.0 628216.0 0
206000.0 628216.0 0
210000.0 628216.0 0
214000.0 628216.0 0
218000.0 628216.0 0
222000.0 628216.0 0
226000.0 628216.0 0
230000.0 628216.0 0
234000.0 628216.0 0
238000.0 628216.0 0
242000.0 628216.0 0
246000.0 628216.0 0
250000.0 628216.0 0
254000.0 628216.0 0
258000.0 628216.0 0
262000.0 628216.0 0
266000.0 628216.0 0
270000.0 628216.0 0
274000.0 628216.0 0
278000.0 628216.0 0
282000.0 628216.0 0
286000.0 628216.0 0
290000.0 628216.0 0
294000.0 628216.0 0
298000.0 628216.0 0
302000.0 628216.0 0
306000.0 628216.0 0
310000.0 628216.0 0
314000.0 628216.0 0
318000.0 628216.0 0
322000.0 628216.0 0
326000.0 628216.0 0
330000.0 628216.0 0
334000.0 628216.0 0
338000.0 628216.0 0
342000.0 628216.0 0
346000.0 628216.0 0
350000.0 628216.0 0
354000.0 628216.0 0
358000.0 628216.0 0
362000.0 628216.0 0
366000.0 628216.0 0
370000.0 628216.0 0
374000.0 628216.0 0
378000.0 628216.0 0
382000.0 628216.0 0
386000.0 628216.0 0
390000.0 628216.0 0
394000.0 628216.0 0
398000.0 628217.0 0
102000.0 632217.0 0
106000.0 632216.0 0
110000.0 632216.0 0
114000.0 632216.0 0
118000.0 632216.0 0
122000.0 632216.0 0
126000.0 632216.0 0
130000.0 632216.0 0
134000.0 632216.0 0
138000.0 632216.0 0
142000.0 632216.0 0
146000.0 632216.0 0
150000.0 632216.0 0
154000.0 632216.0 0
158000.0 632216.0 0
162000.0 632216.0 0
166000.0 632216.0 0
170000.0 632216.0 0
174000.0 632216.0 0
178000.0 632216.0 0
182000.0 632216.0 0
186000.0 632216.0 0
190000.0 632216.0 0
194000.0 632216.0 0
198000.0 632216.0 0
202000.0 632216.0 0
206000.0 632216.0 0
210000.0 632216.0 0
214000.0 632216.0 0
218000.0 632216.0 0
222000.0 632216.0 0
226000.0 632216.0 0
230000.0 632216.0 0
234000.0 632216.0 0
238000.0 632216.0 0
242000.0 632216.0 0
246000.0 632216.0 0
250000.0 632216.0 0
254000.0 632216.0 0
258000.0 632216.0 0
262000.0 632216.0 0
266000.0 632216.0 0
270000.0 632216.0 0
274000.0 632216.0 0
278000.0 632216.0 0
282000.0 632216.0 0
286000.0 632216.0 0
290000.0 632216.0 0
294000.0 632216.0 0
298000.0 632216.0 0
302000.0 632216.0 0
306000.0 632216.0 0
310000.0 632216.0 0
314000.0 632216.0 0
318000.0 632216.0 0
322000.0 632216.0 0
326000.0 632216.0 0
330000.0 632216.0 0
334000.0 632216.0 0
338000.0 632216.0 0
342000.0 632216.0 0
346000.0 632216.0 0
350000.0 632216.0 0
354000.0 632216.0 0
358000.0 632216.0 0
362000.0 632216.0 0
366000.0 632216.0 0
370000.0 632216.0 0
374000.0 632216.0 0
378000.0 632216.0 0
382000.0 632216.0 0
386000.0 632216.0 0
390000.0 632216.0 0
394000.0 632216.0 0
398000.0 632217.0 0
102000.0 636217.0 0
106000.0 636216.0 0
110000.0 636216.0 0
114000.0 636216.0 0
118000.0 636216.0 0
122000.0 636216.0 0
126000.0 636216.0 0
130000.0 636216.0 0
134000.0 636216.0 0
138000.0 636216.0 0
142000.0 636216.0 0
146000.0 636216.0 0
150000.0 636216.0 0
154000.0 636216.0 0
158000.0 636216.0 0
162000.0 636216.0 0
166000.0 636216.0 0
170000.0 636216.0 0
174000.0 636216.0 0
178000.0 636216.0 0
182000.0 636216.0 0
186000.0 636216.0 0
190000.0 636216.0 0
194000.0 636216.0 0
198000.0 636216.0 0
202000.0 636216.0 0
206000.0 636216.0 0
210000.0 636216.0 0
214000.0 636216.0 0
218000.0 636216.0 0
222000.0 636216.0 0
226000.0 636216.0 0
230000.0 636216.0 0
234000.0 636216.0 0
238000.0 636216.0 0
242000.0 636216.0 0
246000.0 636216.0 0
250000.0 636216.0 0
254000.0 636216.0 0
258000.0 636216.0 0
262000.0 636216.0 0
266000.0 636216.0 0
270000.0 636216.0 0
274000.0 636216.0 0
278000.0 636216.0 0
282000.0 636216.0 0
286000.0 636216.0 0
290000.0 636216.0 0
294000.0 636216.0 0
298000.0 636216.0 0
302000.0 636216.0 0
306000.0 636216.0 0
310000.0 636216.0 0
314000.0 636216.0 0
318000.0 636216.0 0
322000.0 636216.0 0
326000.0 636216.0 0
330000.0 636216.0 0
334000.0 636216.0 0
338000.0 636216.0 0
342000.0 636216.0 0
346000.0 636216.0 0
350000.0 636216.0 0
354000.0 636216.0 0
358000.0 636216.0 0
362000.0 636216.0 0
366000.0 636216.0 0
370000.0 636216.0 0
374000.0 636216.0 0
378000.0 636216.0 0
382000.0 636216.0 0
386000.0 636216.0 0
390000.0 636216.0 0
394000.0 636216.0 0
398000.0 636217.0 0
102000.0 640217.0 0
106000.0 640216.0 0
110000.0 640216.0 0
114000.0 640216.0 0
118000.0 640216.0 0
122000.0 640216.0 0
126000.0 640216.0 0
130000.0 640216.0 0
134000.0 640216.0 0
138000.0 640216.0 0
142000.0 640216.0 0
146000.0 640216.0 0
150000.0 640216.0 0
154000.0 640216.0 0
158000.0 640216.0 0
162000.0 640216.0 0
166000.0 640216.0 0
170000.0 640216.0 0
174000.0 640216.0 0
178000.0 640216.0 0
182000.0 640216.0 0
186000.0 640216.0 0
190000.0 640216.0 0
194000.0 640216.0 0
198000.0 640216.0 0
202000.0 640216.0 0
206000.0 640216.0 0
210000.0 640216.0 0
214000.0 640216.0 0
218000.0 640216.0 0
222000.0 640216.0 0
226000.0 640216.0 0
230000.0 640216.0 0
234000.0 640216.0 0
238000.0 640216.0 0
242000.0 640216.0 0
246000.0 640216.0 0
250000.0 640216.0 0
254000.0 640216.0 0
258000.0 640216.0 0
262000.0 640216.0 0
266000.0 640216.0 0
270000.0 640216.0 0
274000.0 640216.0 0
278000.0 640216.0 0
282000.0 640216.0 0
286000.0 640216.0 0
290000.0 640216.0 0
294000.0 640216.0 0
298000.0 640216.0 0
302000.0 640216.0 0
306000.0 640216.0 0
310000.0 640216.0 0
314000.0 640216.0 0
318000.0 640216.0 0
322000.0 640216.0 0
326000.0 640216.0 0
330000.0 640216.0 0
334000.0 640216.0 0
338000.0 640216.0 0
342000.0 640216.0 0
346000.0 640216.0 0
350000.0 640216.0 0
354000.0 640216.0 0
358000.0 640216.0 0
362000.0 640216.0 0
366000.0 640216.0 0
370000.0 640216.0 0
374000.0 640216.0 0
378000.0 640216.0 0
382000.0 640216.0 0
386000.0 640216.0 0
390000.0 640216.0 0
394000.0 640216.0 0
398000.0 640217.0 0
102000.0 644216.0 0
106000.0 644216.0 0
110000.0 644216.0 0
114000.0 644216.0 0
118000.0 644216.0 0
122000.0 644216.0 0
126000.0 644216.0 0
130000.0 644216.0 0
134000.0 644216.0 0
138000.0 644216.0 0
142000.0 644216.0 0
146000.0 644216.0 0
150000.0 644216.0 0
154000.0 644216.0 0
158000.0 644216.0 0
162000.0 644216.0 0
166000.0 644216.0 0
170000.0 644216.0 0
174000.0 644216.0 0
178000.0 644216.0 0
182000.0 644216.0 0
186000.0 644216.0 0
190000.0 644216.0 0
194000.0 644216.0 0
198000.0 644216.0 0
202000.0 644216.0 0
206000.0 644216.0 0
210000.0 644216.0 0
214000.0 644216.0 0
218000.0 644216.0 0
222000.0 644216.0 0
226000.0 644216.0 0
230000.0 644216.0 0
234000.0 644216.0 0
238000.0 644216.0 0
242000.0 644216.0 0
246000.0 644216.0 0
250000.0 644216.0 0
254000.0 644216.0 0
258000.0 644216.0 0
262000.0 644216.0 0
266000.0 644216.0 0
270000.0 644216.0 0
274000.0 644216.0 0
278000.0 644216.0 0
282000.0 644216.0 0
286000.0 644216.0 0
290000.0 644216.0 0
294000.0 644216.0 0
298000.0 644216.0 0
302000.0 644216.0 0
306000.0 644216.0 0
310000.0 644216.0 0
314000.0 644216.0 0
318000.0 644216.0 0
322000.0 644216.0 0
326000.0 644216.0 0
330000.0 644216.0 0
334000.0 644216.0 0
338000.0 644216.0 0
342000.0 644216.0 0
346000.0 644216.0 0
350000.0 644216.0 0
354000.0 644216.0 0
358000.0 644216.0 0
362000.0 644216.0 0
366000.0 644216.0 0
370000.0 644216.0 0
374000.0 644216.0 0
378000.0 644216.0 0
382000.0 644216.0 0
386000.0 644216.0 0
390000.0 644216.0 0
394000.0 644216.0 0
398000.0 644216.0 0
102000.0 648216.0 0
106000.0 648216.0 0
110000.0 648216.0 0
114000.0 648216.0 0
118000.0 648216.0 0
122000.0 648216.0 0
126000.0 648216.0 0
130000.0 648216.0 0
134000.0 648216.0 0
138000.0 648216.0 0
142000.0 648216.0 0
146000.0 648216.0 0
150000.0 648216.0 0
154000.0 648216.0 0
158000.0 648216.0 0
162000.0 648216.0 0
166000.0 648216.0 0
170000.0 648216.0 0
174000.0 648216.0 0
178000.0 648216.0 0
182000.0 648216.0 0
186000.0 648216.0 0
190000.0 648216.0 0
194000.0 648216.0 0
198000.0 648216.0 0
202000.0 648216.0 0
206000.0 648216.0 0
210000.0 648216.0 0
214000.0 648216.0 0
218000.0 648216.0 0
222000.0 648216.0 0
226000.0 648216.0 0
230000.0 648216.0 0
234000.0 648216.0 0
238000.0 648216.0 0
242000.0 648216.0 0
246000.0 648216.0 0
250000.0 648216.0 0
254000.0 648216.0 0
258000.0 648216.0 0
262000.0 648216.0 0
266000.0 648216.0 0
270000.0 648216.0 0
274000.0 648216.0 0
278000.0 648216.0 0
282000.0 648216.0 0
286000.0 648216.0 0
290000.0 648216.0 0
294000.0 648216.0 0
298000.0 648216.0 0
302000.0 648216.0 0
306000.0 648216.0 0
310000.0 648216.0 0
314000.0 648216.0 0
318000.0 648216.0 0
322000.0 648216.0 0
326000.0 648216.0 0
330000.0 648216.0 0
334000.0 648216.0 0
338000.0 648216.0 0
342000.0 648216.0 0
346000.0 648216.0 0
350000.0 648216.0 0
354000.0 648216.0 0
358000.0 648216.0 0
362000.0 648216.0 0
366000.0 648216.0 0
370000.0 648216.0 0
374000.0 648216.0 0
378000.0 648216.0 0
382000.0 648216.0 0
386000.0 648216.0 0
390000.0 648216.0 0
394000.0 648216.0 0
398000.0 648216.0 0
102000.0 652216.0 0
106000.0 652216.0 0
110000.0 652216.0 0
114000.0 652216.0 0
118000.0 652216.0 0
122000.0 652216.0 0
126000.0 652216.0 0
130000.0 652216.0 0
134000.0 652216.0 0
138000.0 652216.0 0
142000.0 652216.0 0
146000.0 652216.0 0
150000.0 652216.0 0
154000.0 652216.0 0
158000.0 652216.0 0
162000.0 652216.0 0
166000.0 652216.0 0
170000.0 652216.0 0
174000.0 652216.0 0
178000.0 652216.0 0
182000.0 652216.0 0
186000.0 652216.0 0
190000.0 652216.0 0
194000.0 652216.0 0
198000.0 652216.0 0
202000.0 652216.0 0
206000.0 652216.0 0
210000.0 652216.0 0
214000.0 652216.0 0
218000.0 652216.0 0
222000.0 652216.0 0
226000.0 652216.0 0
230000.0 652216.0 0
234000.0 652216.0 0
238000.0 652216.0 0
242000.0 652216.0 0
246000.0 652216.0 0
250000.0 652216.0 0
254000.0 652216.0 0
258000.0 652216.0 0
262000.0 652216.0 0
266000.0 652216.0 0
270000.0 652216.0 0
274000.0 652216.0 0
278000.0 652216.0 0
282000.0 652216.0 0
286000.0 652216.0 0
290000.0 652216.0 0
294000.0 652216.0 0
298000.0 652216.0 0
302000.0 652216.0 0
306000.0 652216.0 0
310000.0 652216.0 0
314000.0 652216.0 0
318000.0 652216.0 0
322000.0 652216.0 0
326000.0 652216.0 0
330000.0 652216.0 0
334000.0 652216.0 0
338000.0 652216.0 0
342000.0 652216.0 0
346000.0 652216.0 0
350000.0 652216.0 0
354000.0 652216.0 0
358000.0 652216.0 0
362000.0 652216.0 0
366000.0 652216.0 0
370000.0 652216.0 0
374000.0 652216.0 0
378000.0 652216.0 0
382000.0 652216.0 0
386000.0 652216.0 0
390000.0 652216.0 0
394000.0 652216.0 0
398000.0 652216.0 0
102000.0 656216.0 0
106000.0 656216.0 0
110000.0 656216.0 0
114000.0 656216.0 0
118000.0 656216.0 0
122000.0 656216.0 0
126000.0 656216.0 0
130000.0 656216.0 0
134000.0 656216.0 0
138000.0 656216.0 0
142000.0 656216.0 0
146000.0 656216.0 0
150000.0 656216.0 0
154000.0 656216.0 0
158000.0 656216.0 0
162000.0 656216.0 0
166000.0 656216.0 0
170000.0 656216.0 0
174000.0 656216.0 0
178000.0 656216.0 0
182000.0 656216.0 0
186000.0 656216.0 0
190000.0 656216.0 0
194000.0 656216.0 0
198000.0 656216.0 0
202000.0 656216.0 0
206000.0 656216.0 0
210000.0 656216.0 0
214000.0 656216.0 0
218000.0 656216.0 0
222000.0 656216.0 0
226000.0 656216.0 0
230000.0 656216.0 0
234000.0 656216.0 0
238000.0 656216.0 0
242000.0 656216.0 0
246000.0 656216.0 0
250000.0 656216.0 0
254000.0 656216.0 0
258000.0 656216.0 0
262000.0 656216.0 0
266000.0 656216.0 0
270000.0 656216.0 0
274000.0 656216.0 0
278000.0 656216.0 0
282000.0 656216.0 0
286000.0 656216.0 0
290000.0 656216.0 0
294000.0 656216.0 0
298000.0 656216.0 0
302000.0 656216.0 0
306000.0 656216.0 0
310000.0 656216.0 0
314000.0 656216.0 0
318000.0 656216.0 0
322000.0 656216.0 0
326000.0 656216.0 0
330000.0 656216.0 0
334000.0 656216.0 0
338000.0 656216.0 0
342000.0 656216.0 0
346000.0 656216.0 0
350000.0 656216.0 0
354000.0 656216.0 0
358000.0 656216.0 0
362000.0 656216.0 0
366000.0 656216.0 0
370000.0 656216.0 0
374000.0 656216.0 0
378000.0 656216.0 0
382000.0 656216.0 0
386000.0 656216.0 0
390000.0 656216.0 0
394000.0 656216.0 0
398000.0 656216.0 0
102000.0 660216.0 0
106000.0 660216.0 0
110000.0 660216.0 0
114000.0 660216.0 0
118000.0 660216.0 0
122000.0 660216.0 0
126000.0 660216.0 0
130000.0 660216.0 0
134000.0 660216.0 0
138000.0 660216.0 0
142000.0 660216.0 0
146000.0 660216.0 0
150000.0 660216.0 0
154000.0 660216.0 0
158000.0 660216.0 0
162000.0 660216.0 0
166000.0 660216.0 0
170000.0 660216.0 0
174000.0 660216.0 0
178000.0 660216.0 0
182000.0 660216.0 0
186000.0 660216.0 0
190000.0 660216.0 0
194000.0 660216.0 0
198000.0 660216.0 0
202000.0 660216.0 0
206000.0 660216.0 0
210000.0 660216.0 0
214000.0 660216.0 0
218000.0 660216.0 0
222000.0 660216.0 0
226000.0 660216.0 0
230000.0 660216.0 0
234000.0 660216.0 0
238000.0 660216.0 0
242000.0 660216.0 0
246000.0 660216.0 0
250000.0 660216.0 0
254000.0 660216.0 0
258000.0 660216.0 0
262000.0 660216.0 0
266000.0 660216.0 0
270000.0 660216.0 0
274000.0 660216.0 0
278000.0 660216.0 0
282000.0 660216.0 0
286000.0 660216.0 0
290000.0 660216.0 0
294000.0 660216.0 0
298000.0 660216.0 0
302000.0 660216.0 0
306000.0 660216.0 0
310000.0 660216.0 0
314000.0 660216.0 0
318000.0 660216.0 0
322000.0 660216.0 0
326000.0 660216.0 0
330000.0 660216.0 0
334000.0 660216.0 0
338000.0 660216.0 0
342000.0 660216.0 0
346000.0 660216.0 0
350000.0 660216.0 0
354000.0 660216.0 0
358000.0 660216.0 0
362000.0 660216.0 0
366000.0 660216.0 0
370000.0 660216.0 0
374000.0 660216.0 0
378000.0 660216.0 0
382000.0 660216.0 0
386000.0 660216.0 0
390000.0 660216.0 0
394000.0 660216.0 0
398000.0 660216.0 0
102000.0 664216.0 0
106000.0 664216.0 0
110000.0 664216.0 0
114000.0 664216.0 0
118000.0 664216.0 0
122000.0 664216.0 0
126000.0 664216.0 0
130000.0 664216.0 0
134000.0 664216.0 0
138000.0 664216.0 0
142000.0 664216.0 0
146000.0 664216.0 0
150000.0 664216.0 0
154000.0 664216.0 0
158000.0 664216.0 0
162000.0 664216.0 0
166000.0 664216.0 0
170000.0 664216.0 0
174000.0 664216.0 0
178000.0 664216.0 0
182000.0 664216.0 0
186000.0 664216.0 0
190000.0 664216.0 0
194000.0 664216.0 0
198000.0 664216.0 0
202000.0 664216.0 0
206000.0 664216.0 0
210000.0 664216.0 0
214000.0 664216.0 0
218000.0 664216.0 0
222000.0 664216.0 0
226000.0 664216.0 0
230000.0 664216.0 0
234000.0 664216.0 0
238000.0 664216.0 0
242000.0 664216.0 0
246000.0 664216.0 0
250000.0 664216.0 0
254000.0 664216.0 0
258000.0 664216.0 0
262000.0 664216.0 0
266000.0 664216.0 0
270000.0 664216.0 0
274000.0 664216.0 0
278000.0 664216.0 0
282000.0 664216.0 0
286000.0 664216.0 0
290000.0 664216.0 0
294000.0 664216.0 0
298000.0 664216.0 0
302000.0 664216.0 0
306000.0 664216.0 0
310000.0 664216.0 0
314000.0 664216.0 0
318000.0 664216.0 0
322000.0 664216.0 0
326000.0 664216.0 0
330000.0 664216.0 0
334000.0 664216.0 0
338000.0 664216.0 0
342000.0 664216.0 0
346000.0 664216.0 0
350000.0 664216.0 0
354000.0 664216.0 0
358000.0 664216.0 0
362000.0 664216.0 0
366000.0 664216.0 0
370000.0 664216.0 0
374000.0 664216.0 0
378000.0 664216.0 0
382000.0 664216.0 0
386000.0 664216.0 0
390000.0 664216.0 0
394000.0 664216.0 0
398000.0 664216.0 0
102000.0 668216.0 0
106000.0 668216.0 0
110000.0 668216.0 0
114000.0 668216.0 0
118000.0 668216.0 0
122000.0 668216.0 0
126000.0 668216.0 0
130000.0 668216.0 0
134000.0 668216.0 0
138000.0 668216.0 0
142000.0 668216.0 0
146000.0 668216.0 0
150000.0 668216.0 0
154000.0 668216.0 0
158000.0 668216.0 0
162000.0 668216.0 0
166000.0 668216.0 0
170000.0 668216.0 0
174000.0 668216.0 0
178000.0 668216.0 0
182000.0 668216.0 0
186000.0 668216.0 0
190000.0 668216.0 0
194000.0 668216.0 0
198000.0 668216.0 0
202000.0 668216.0 0
206000.0 668216.0 0
210000.0 668216.0 0
214000.0 668216.0 0
218000.0 668216.0 0
222000.0 668216.0 0
226000.0 668216.0 0
230000.0 668216.0 0
234000.0 668216.0 0
238000.0 668216.0 0
242000.0 668216.0 0
246000.0 668216.0 0
250000.0 668216.0 0
254000.0 668216.0 0
258000.0 668216.0 0
262000.0 668216.0 0
266000.0 668216.0 0
270000.0 668216.0 0
274000.0 668216.0 0
278000.0 668216.0 0
282000.0 668216.0 0
286000.0 668216.0 0
290000.0 668216.0 0
294000.0 668216.0 0
298000.0 668216.0 0
302000.0 668216.0 0
306000.0 668216.0 0
310000.0 668216.0 0
314000.0 668216.0 0
318000.0 668216.0 0
322000.0 668216.0 0
326000.0 668216.0 0
330000.0 668216.0 0
334000.0 668216.0 0
338000.0 668216.0 0
342000.0 668216.0 0
346000.0 668216.0 0
350000.0 668216.0 0
354000.0 668216.0 0
358000.0 668216.0 0
362000.0 668216.0 0
366000.0 668216.0 0
370000.0 668216.0 0
374000.0 668216.0 0
378000.0 668216.0 0
382000.0 668216.0 0
386000.0 668216.0 0
390000.0 668216.0 0
394000.0 668216.0 0
398000.0 668216.0 0
102000.0 672216.0 0
106000.0 672216.0 0
110000.0 672216.0 0
114000.0 672216.0 0
118000.0 672216.0 0
122000.0 672216.0 0
126000.0 672216.0 0
130000.0 672216.0 0
134000.0 672216.0 0
138000.0 672216.0 0
142000.0 672216.0 0
146000.0 672216.0 0
150000.0 672216.0 0
154000.0 672216.0 0
158000.0 672216.0 0
162000.0 672216.0 0
166000.0 672216.0 0
170000.0 672216.0 0
174000.0 672216.0 0
178000.0 672216.0 0
182000.0 672216.0 0
186000.0 672216.0 0
190000.0 672216.0 0
194000.0 672216.0 0
198000.0 672216.0 0
202000.0 672216.0 0
206000.0 672216.0 0
210000.0 672216.0 0
214000.0 672216.0 0
218000.0 672216.0 0
222000.0 672216.0 0
226000.0 672216.0 0
230000.0 672216.0 0
234000.0 672216.0 0
238000.0 672216.0 0
242000.0 672216.0 0
246000.0 672216.0 0
250000.0 672216.0 0
254000.0 672216.0 0
258000.0 672216.0 0
262000.0 672216.0 0
266000.0 672216.0 0
270000.0 672216.0 0
274000.0 672216.0 0
278000.0 672216.0 0
282000.0 672216.0 0
286000.0 672216.0 0
290000.0 672216.0 0
294000.0 672216.0 0
298000.0 672216.0 0
302000.0 672216.0 0
306000.0 672216.0 0
310000.0 672216.0 0
314000.0 672216.0 0
318000.0 672216.0 0
322000.0 672216.0 0
326000.0 672216.0 0
330000.0 672216.0 0
334000.0 672216.0 0
338000.0 672216.0 0
342000.0 672216.0 0
346000.0 672216.0 0
350000.0 672216.0 0
354000.0 672216.0 0
358000.0 672216.0 0
362000.0 672216.0 0
366000.0 672216.0 0
370000.0 672216.0 0
374000.0 672216.0 0
378000.0 672216.0 0
382000.0 672216.0 0
386000.0 672216.0 0
390000.0 672216.0 0
394000.0 672216.0 0
398000.0 672216.0 0
POINT_DATA 4650
SCALARS Radius float 1
LOOKUP_TABLE default
4000.0 4000.0 4000.0 4000.0 4000.0 4000.0 4000.0 4000.0 4000.0 4000.0 4000.0 4000.0 4000.0 4000.0 4000.0 4000.0 4000.0 4000.0 4000.0 4000.0 4000.0 4000.0 4000.0 4000.0 4000.0 4000.0 4000.0 4000.0 4000.0 4000.0 4000.0 4000.0 4000.0 4000.0 4000.0 4000.0 4000.0 4000.0 4000.0 4000.0 4000.0 4000.0 4000.0 4000.0 4000.0 4000.0 4000.0 4000.0 4000.0 4000.0 4000.0 4000.0 4000.0 4000.0 4000.0 4000.0 4000.0 4000.0 4000.0 4000.0 4000.0 4000.0 4000.0 4000.0 4000.0 4000.0 4000.0 4000.0 4000.0 4000.0 4000.0 4000.0 4000.0 4000.0 4000.0 4000.0 4000.0 4000.0 4000.0 4000.0 4000.0 4000.0 4000.0 4000.0 4000.0 4000.0 4000.0 4000.0 4000.0 4000.0 4000.0 4000.0 4000.0 4000.0 4000.0 4000.0 4000.0 4000.0 4000.0 4000.0 4000.0 4000.0 4000.0 4000.0 4000.0 4000.0 4000.0 4000.0 4000.0 4000.0 4000.0 4000.0 4000.0 4000.0 4000.0 4000.0 4000.0 4000.0 4000.0 4000.0 4000.0 4000.0 4000.0 4000.0 4000.0 4000.0 4000.0 4000.0 4000.0 4000.0 4000.0 4000.0 4000.0 4000.0 4000.0 4000.0 4000.0 4000.0 4000.0 4000.0 4000.0 4000.0 4000.0 4000.0 4000.0 4000.0 4000.0 4000.0 4000.0 4000.0 4000.0 4000.0 4000.0 4000.0 4000.0 4000.0 4000.0 4000.0 4000.0 4000.0 4000.0 4000.0 4000.0 4000.0 4000.0 4000.0 4000.0 4000.0 4000.0 4000.0 4000.0 4000.0 4000.0 4000.0 4000.0 4000.0 4000.0 4000.0 4000.0 4000.0 4000.0 4000.0 4000.0 4000.0 4000.0 4000.0 4000.0 4000.0 4000.0 4000.0 4000.0 4000.0 4000.0 4000.0 4000.0 4000.0 4000.0 4000.0 4000.0 4000.0 4000.0 4000.0 4000.0 4000.0 4000.0 4000.0 4000.0 4000.0 4000.0 4000.0 4000.0 4000.0 4000.0 4000.0 4000.0 4000.0 4000.0 4000.0 4000.0 4000.0 4000.0 4000.0 4000.0 4000.0 4000.0 4000.0 4000.0 4000.0 4000.0 4000.0 4000.0 4000.0 4000.0 4000.0 4000.0 4000.0 4000.0 4000.0 4000.0 4000.0 4000.0 4000.0 4000.0 4000.0 4000.0 4000.0 4000.0 4000.0 4000.0 4000.0 4000.0 4000.0 4000.0 4000.0 4000.0 4000.0 4000.0 4000.0 4000.0 4000.0 4000.0 4000.0 4000.0 4000.0 4000.0 4000.0 4000.0 4000.0 4000.0 4000.0 4000.0 4000.0 4000.0 4000.0 4000.0 4000.0 4000.0 4000.0 4000.0 4000.0 4000.0 4000.0 4000.0 4000.0 4000.0 4000.0 4000.0 4000.0 4000.0 4000.0 4000.0 4000.0 4000.0 4000.0 4000.0 4000.0 4000.0 4000.0 4000.0 4000.0 4000.0 4000.0 4000.0 4000.0 4000.0 4000.0 4000.0 4000.0 4000.0 4000.0 4000.0 4000.0 4000.0 4000.0 4000.0 4000.0 4000.0 4000.0 4000.0 4000.0 4000.0 4000.0 4000.0 4000.0 4000.0 4000.0 4000.0 4000.0 4000.0 4000.0 4000.0 4000.0 4000.0 4000.0 4000.0 4000.0 4000.0 4000.0 4000.0 4000.0 4000.0 4000.0 4000.0 4000.0 4000.0 4000.0 4000.0 4000.0 4000.0 4000.0 4000.0 4000.0 4000.0 4000.0 4000.0 4000.0 4000.0 4000.0 4000.0 4000.0 4000.0 4000.0 4000.0 4000.0 4000.0 4000.0 4000.0 4000.0 4000.0 4000.0 4000.0 4000.0 4000.0 4000.0 4000.0 4000.0 4000.0 4000.0 4000.0 4000.0 4000.0 4000.0 4000.0 4000.0 4000.0 4000.0 4000.0 4000.0 4000.0 4000.0 4000.0 4000.0 4000.0 4000.0 4000.0 4000.0 4000.0 4000.0 4000.0 4000.0 4000.0 4000.0 4000.0 4000.0 4000.0 4000.0 4000.0 4000.0 4000.0 4000.0 4000.0 4000.0 4000.0 4000.0 4000.0 4000.0 4000.0 4000.0 4000.0 4000.0 4000.0 4000.0 4000.0 4000.0 4000.0 4000.0 4000.0 4000.0 4000.0 4000.0 4000.0 4000.0 4000.0 4000.0 4000.0 4000.0 4000.0 4000.0 4000.0 4000.0 4000.0 4000.0 4000.0 4000.0 4000.0 4000.0 4000.0 4000.0 4000.0 4000.0 4000.0 4000.0 4000.0 4000.0 4000.0 4000.0 4000.0 4000.0 4000.0 4000.0 4000.0 4000.0 4000.0 4000.0 4000.0 4000.0 4000.0 4000.0 4000.0 4000.0 4000.0 4000.0 4000.0 4000.0 4000.0 4000.0 4000.0 4000.0 4000.0 4000.0 4000.0 4000.0 4000.0 4000.0 4000.0 4000.0 4000.0 4000.0 4000.0 4000.0 4000.0 4000.0 4000.0 4000.0 4000.0 4000.0 4000.0 4000.0 4000.0 4000.0 4000.0 4000.0 4000.0 4000.0 4000.0 4000.0 4000.0 4000.0 4000.0 4000.0 4000.0 4000.0 4000.0 4000.0 4000.0 4000.0 4000.0 4000.0 4000.0 4000.0 4000.0 4000.0 4000.0 4000.0 4000.0 4000.0 4000.0 4000.0 4000.0 4000.0 4000.0 4000.0 4000.0 4000.0 4000.0 4000.0 4000.0 4000.0 4000.0 4000.0 4000.0 4000.0 4000.0 4000.0 4000.0 4000.0 4000.0 4000.0 4000.0 4000.0 4000.0 4000.0 4000.0 4000.0 4000.0 4000.0 4000.0 4000.0 4000.0 4000.0 4000.0 4000.0 4000.0 4000.0 4000.0 4000.0 4000.0 4000.0 4000.0 4000.0 4000.0 4000.0 4000.0 4000.0 4000.0 4000.0 4000.0 4000.0 4000.0 4000.0 4000.0 4000.0 4000.0 4000.0 4000.0 4000.0 4000.0 4000.0 4000.0 4000.0 4000.0 4000.0 4000.0 4000.0 4000.0 4000.0 4000.0 4000.0 4000.0 4000.0 4000.0 4000.0 4000.0 4000.0 4000.0 4000.0 4000.0 4000.0 4000.0 4000.0 4000.0 4000.0 4000.0 4000.0 4000.0 4000.0 4000.0 4000.0 4000.0 4000.0 4000.0 4000.0 4000.0 4000.0 4000.0 4000.0 4000.0 4000.0 4000.0 4000.0 4000.0 4000.0 4000.0 4000.0 4000.0 4000.0 4000.0 4000.0 4000.0 4000.0 4000.0 4000.0 4000.0 4000.0 4000.0 4000.0 4000.0 4000.0 4000.0 4000.0 4000.0 4000.0 4000.0 4000.0 4000.0 4000.0 4000.0 4000.0 4000.0 4000.0 4000.0 4000.0 4000.0 4000.0 4000.0 4000.0 4000.0 4000.0 4000.0 4000.0 4000.0 4000.0 4000.0 4000.0 4000.0 4000.0 4000.0 4000.0 4000.0 4000.0 4000.0 4000.0 4000.0 4000.0 4000.0 4000.0 4000.0 4000.0 4000.0 4000.0 4000.0 4000.0 4000.0 4000.0 4000.0 4000.0 4000.0 4000.0 4000.0 4000.0 4000.0 4000.0 4000.0 4000.0 4000.0 4000.0 4000.0 4000.0 4000.0 4000.0 4000.0 4000.0 4000.0 4000.0 4000.0 4000.0 4000.0 4000.0 4000.0 4000.0 4000.0 4000.0 4000.0 4000.0 4000.0 4000.0 4000.0 4000.0 4000.0 4000.0 4000.0 4000.0 4000.0 4000.0 4000.0 4000.0 4000.0 4000.0 4000.0 4000.0 4000.0 4000.0 4000.0 4000.0 4000.0 4000.0 4000.0 4000.0 4000.0 4000.0 4000.0 4000.0 4000.0 4000.0 4000.0 4000.0 4000.0 4000.0 4000.0 4000.0 4000.0 4000.0 4000.0 4000.0 4000.0 4000.0 4000.0 4000.0 4000.0 4000.0 4000.0 4000.0 4000.0 4000.0 4000.0 4000.0 4000.0 4000.0 4000.0 4000.0 4000.0 4000.0 4000.0 4000.0 4000.0 4000.0 4000.0 4000.0 4000.0 4000.0 4000.0 4000.0 4000.0 4000.0 4000.0 4000.0 4000.0 4000.0 4000.0 4000.0 4000.0 4000.0 4000.0 4000.0 4000.0 4000.0 4000.0 4000.0 4000.0 4000.0 4000.0 4000.0 4000.0 4000.0 4000.0 4000.0 4000.0 4000.0 4000.0 4000.0 4000.0 4000.0 4000.0 4000.0 4000.0 4000.0 4000.0 4000.0 4000.0 4000.0 4000.0 4000.0 4000.0 4000.0 4000.0 4000.0 4000.0 4000.0 4000.0 4000.0 4000.0 4000.0 4000.0 4000.0 4000.0 4000.0 4000.0 4000.0 4000.0 4000.0 4000.0 4000.0 4000.0 4000.0 4000.0 4000.0 4000.0 4000.0 4000.0 4000.0 4000.0 4000.0 4000.0 4000.0 4000.0 4000.0 4000.0 4000.0 4000.0 4000.0 4000.0 4000.0 4000.0 4000.0 4000.0 4000.0 4000.0 4000.0 4000.0 4000.0 4000.0 4000.0 4000.0 4000.0 4000.0 4000.0 4000.0 4000.0 4000.0 4000.0 4000.0 4000.0 4000.0 4000.0 4000.0 4000.0 4000.0 4000.0 4000.0 4000.0 4000.0 4000.0 4000.0 4000.0 4000.0 4000.0 4000.0 4000.0 4000.0 4000.0 4000.0 4000.0 4000.0 4000.0 4000.0 4000.0 4000.0 4000.0 4000.0 4000.0 4000.0 4000.0 4000.0 4000.0 4000.0 4000.0 4000.0 4000.0 4000.0 4000.0 4000.0 4000.0 4000.0 4000.0 4000.0 4000.0 4000.0 4000.0 4000.0 4000.0 4000.0 4000.0 4000.0 4000.0 4000.0 4000.0 4000.0 4000.0 4000.0 4000.0 4000.0 4000.0 4000.0 4000.0 4000.0 4000.0 4000.0 4000.0 4000.0 4000.0 4000.0 4000.0 4000.0 4000.0 4000.0 4000.0 4000.0 4000.0 4000.0 4000.0 4000.0 4000.0 4000.0 4000.0 4000.0 4000.0 4000.0 4000.0 4000.0 4000.0 4000.0 4000.0 4000.0 4000.0 4000.0 4000.0 4000.0 4000.0 4000.0 4000.0 4000.0 4000.0 4000.0 4000.0 4000.0 4000.0 4000.0 4000.0 4000.0 4000.0 4000.0 4000.0 4000.0 4000.0 4000.0 4000.0 4000.0 4000.0 4000.0 4000.0 4000.0 4000.0 4000.0 4000.0 4000.0 4000.0 4000.0 4000.0 4000.0 4000.0 4000.0 4000.0 4000.0 4000.0 4000.0 4000.0 4000.0 4000.0 4000.0 4000.0 4000.0 4000.0 4000.0 4000.0 4000.0 4000.0 4000.0 4000.0 4000.0 4000.0 4000.0 4000.0 4000.0 4000.0 4000.0 4000.0 4000.0 4000.0 4000.0 4000.0 4000.0 4000.0 4000.0 4000.0 4000.0 4000.0 4000.0 4000.0 4000.0 4000.0 4000.0 4000.0 4000.0 4000.0 4000.0 4000.0 4000.0 4000.0 4000.0 4000.0 4000.0 4000.0 4000.0 4000.0 4000.0 4000.0 4000.0 4000.0 4000.0 4000.0 4000.0 4000.0 4000.0 4000.0 4000.0 4000.0 4000.0 4000.0 4000.0 4000.0 4000.0 4000.0 4000.0 4000.0 4000.0 4000.0 4000.0 4000.0 4000.0 4000.0 4000.0 4000.0 4000.0 4000.0 4000.0 4000.0 4000.0 4000.0 4000.0 4000.0 4000.0 4000.0 4000.0 4000.0 4000.0 4000.0 4000.0 4000.0 4000.0 4000.0 4000.0 4000.0 4000.0 4000.0 4000.0 4000.0 4000.0 4000.0 4000.0 4000.0 4000.0 4000.0 4000.0 4000.0 4000.0 4000.0 4000.0 4000.0 4000.0 4000.0 4000.0 4000.0 4000.0 4000.0 4000.0 4000.0 4000.0 4000.0 4000.0 4000.0 4000.0 4000.0 4000.0 4000.0 4000.0 4000.0 4000.0 4000.0 4000.0 4000.0 4000.0 4000.0 4000.0 4000.0 4000.0 4000.0 4000.0 4000.0 4000.0 4000.0 4000.0 4000.0 4000.0 4000.0 4000.0 4000.0 4000.0 4000.0 4000.0 4000.0 4000.0 4000.0 4000.0 4000.0 4000.0 4000.0 4000.0 4000.0 4000.0 4000.0 4000.0 4000.0 4000.0 4000.0 4000.0 4000.0 4000.0 4000.0 4000.0 4000.0 4000.0 4000.0 4000.0 4000.0 4000.0 4000.0 4000.0 4000.0 4000.0 4000.0 4000.0 4000.0 4000.0 4000.0 4000.0 4000.0 4000.0 4000.0 4000.0 4000.0 4000.0 4000.0 4000.0 4000.0 4000.0 4000.0 4000.0 4000.0 4000.0 4000.0 4000.0 4000.0 4000.0 4000.0 4000.0 4000.0 4000.0 4000.0 4000.0 4000.0 4000.0 4000.0 4000.0 4000.0 4000.0 4000.0 4000.0 4000.0 4000.0 4000.0 4000.0 4000.0 4000.0 4000.0 4000.0 4000.0 4000.0 4000.0 4000.0 4000.0 4000.0 4000.0 4000.0 4000.0 4000.0 4000.0 4000.0 4000.0 4000.0 4000.0 4000.0 4000.0 4000.0 4000.0 4000.0 4000.0 4000.0 4000.0 4000.0 4000.0 4000.0 4000.0 4000.0 4000.0 4000.0 4000.0 4000.0 4000.0 4000.0 4000.0 4000.0 4000.0 4000.0 4000.0 4000.0 4000.0 4000.0 4000.0 4000.0 4000.0 4000.0 4000.0 4000.0 4000.0 4000.0 4000.0 4000.0 4000.0 4000.0 4000.0 4000.0 4000.0 4000.0 4000.0 4000.0 4000.0 4000.0 4000.0 4000.0 4000.0 4000.0 4000.0 4000.0 4000.0 4000.0 4000.0 4000.0 4000.0 4000.0 4000.0 4000.0 4000.0 4000.0 4000.0 4000.0 4000.0 4000.0 4000.0 4000.0 4000.0 4000.0 4000.0 4000.0 4000.0 4000.0 4000.0 4000.0 4000.0 4000.0 4000.0 4000.0 4000.0 4000.0 4000.0 4000.0 4000.0 4000.0 4000.0 4000.0 4000.0 4000.0 4000.0 4000.0 4000.0 4000.0 4000.0 4000.0 4000.0 4000.0 4000.0 4000.0 4000.0 4000.0 4000.0 4000.0 4000.0 4000.0 4000.0 4000.0 4000.0 4000.0 4000.0 4000.0 4000.0 4000.0 4000.0 4000.0 4000.0 4000.0 4000.0 4000.0 4000.0 4000.0 4000.0 4000.0 4000.0 4000.0 4000.0 4000.0 4000.0 4000.0 4000.0 4000.0 4000.0 4000.0 4000.0 4000.0 4000.0 4000.0 4000.0 4000.0 4000.0 4000.0 4000.0 4000.0 4000.0 4000.0 4000.0 4000.0 4000.0 4000.0 4000.0 4000.0 4000.0 4000.0 4000.0 4000.0 4000.0 4000.0 4000.0 4000.0 4000.0 4000.0 4000.0 4000.0 4000.0 4000.0 4000.0 4000.0 4000.0 4000.0 4000.0 4000.0 4000.0 4000.0 4000.0 4000.0 4000.0 4000.0 4000.0 4000.0 4000.0 4000.0 4000.0 4000.0 4000.0 4000.0 4000.0 4000.0 4000.0 4000.0 4000.0 4000.0 4000.0 4000.0 4000.0 4000.0 4000.0 4000.0 4000.0 4000.0 4000.0 4000.0 4000.0 4000.0 4000.0 4000.0 4000.0 4000.0 4000.0 4000.0 4000.0 4000.0 4000.0 4000.0 4000.0 4000.0 4000.0 4000.0 4000.0 4000.0 4000.0 4000.0 4000.0 4000.0 4000.0 4000.0 4000.0 4000.0 4000.0 4000.0 4000.0 4000.0 4000.0 4000.0 4000.0 4000.0 4000.0 4000.0 4000.0 4000.0 4000.0 4000.0 4000.0 4000.0 4000.0 4000.0 4000.0 4000.0 4000.0 4000.0 4000.0 4000.0 4000.0 4000.0 4000.0 4000.0 4000.0 4000.0 4000.0 4000.0 4000.0 4000.0 4000.0 4000.0 4000.0 4000.0 4000.0 4000.0 4000.0 4000.0 4000.0 4000.0 4000.0 4000.0 4000.0 4000.0 4000.0 4000.0 4000.0 4000.0 4000.0 4000.0 4000.0 4000.0 4000.0 4000.0 4000.0 4000.0 4000.0 4000.0 4000.0 4000.0 4000.0 4000.0 4000.0 4000.0 4000.0 4000.0 4000.0 4000.0 4000.0 4000.0 4000.0 4000.0 4000.0 4000.0 4000.0 4000.0 4000.0 4000.0 4000.0 4000.0 4000.0 4000.0 4000.0 4000.0 4000.0 4000.0 4000.0 4000.0 4000.0 4000.0 4000.0 4000.0 4000.0 4000.0 4000.0 4000.0 4000.0 4000.0 4000.0 4000.0 4000.0 4000.0 4000.0 4000.0 4000.0 4000.0 4000.0 4000.0 4000.0 4000.0 4000.0 4000.0 4000.0 4000.0 4000.0 4000.0 4000.0 4000.0 4000.0 4000.0 4000.0 4000.0 4000.0 4000.0 4000.0 4000.0 4000.0 4000.0 4000.0 4000.0 4000.0 4000.0 4000.0 4000.0 4000.0 4000.0 4000.0 4000.0 4000.0 4000.0 4000.0 4000.0 4000.0 4000.0 4000.0 4000.0 4000.0 4000.0 4000.0 4000.0 4000.0 4000.0 4000.0 4000.0 4000.0 4000.0 4000.0 4000.0 4000.0 4000.0 4000.0 4000.0 4000.0 4000.0 4000.0 4000.0 4000.0 4000.0 4000.0 4000.0 4000.0 4000.0 4000.0 4000.0 4000.0 4000.0 4000.0 4000.0 4000.0 4000.0 4000.0 4000.0 4000.0 4000.0 4000.0 4000.0 4000.0 4000.0 4000.0 4000.0 4000.0 4000.0 4000.0 4000.0 4000.0 4000.0 4000.0 4000.0 4000.0 4000.0 4000.0 4000.0 4000.0 4000.0 4000.0 4000.0 4000.0 4000.0 4000.0 4000.0 4000.0 4000.0 4000.0 4000.0 4000.0 4000.0 4000.0 4000.0 4000.0 4000.0 4000.0 4000.0 4000.0 4000.0 4000.0 4000.0 4000.0 4000.0 4000.0 4000.0 4000.0 4000.0 4000.0 4000.0 4000.0 4000.0 4000.0 4000.0 4000.0 4000.0 4000.0 4000.0 4000.0 4000.0 4000.0 4000.0 4000.0 4000.0 4000.0 4000.0 4000.0 4000.0 4000.0 4000.0 4000.0 4000.0 4000.0 4000.0 4000.0 4000.0 4000.0 4000.0 4000.0 4000.0 4000.0 4000.0 4000.0 4000.0 4000.0 4000.0 4000.0 4000.0 4000.0 4000.0 4000.0 4000.0 4000.0 4000.0 4000.0 4000.0 4000.0 4000.0 4000.0 4000.0 4000.0 4000.0 4000.0 4000.0 4000.0 4000.0 4000.0 4000.0 4000.0 4000.0 4000.0 4000.0 4000.0 4000.0 4000.0 4000.0 4000.0 4000.0 4000.0 4000.0 4000.0 4000.0 4000.0 4000.0 4000.0 4000.0 4000.0 4000.0 4000.0 4000.0 4000.0 4000.0 4000.0 4000.0 4000.0 4000.0 4000.0 4000.0 4000.0 4000.0 4000.0 4000.0 4000.0 4000.0 4000.0 4000.0 4000.0 4000.0 4000.0 4000.0 4000.0 4000.0 4000.0 4000.0 4000.0 4000.0 4000.0 4000.0 4000.0 4000.0 4000.0 4000.0 4000.0 4000.0 4000.0 4000.0 4000.0 4000.0 4000.0 4000.0 4000.0 4000.0 4000.0 4000.0 4000.0 4000.0 4000.0 4000.0 4000.0 4000.0 4000.0 4000.0 4000.0 4000.0 4000.0 4000.0 4000.0 4000.0 4000.0 4000.0 4000.0 4000.0 4000.0 4000.0 4000.0 4000.0 4000.0 4000.0 4000.0 4000.0 4000.0 4000.0 4000.0 4000.0 4000.0 4000.0 4000.0 4000.0 4000.0 4000.0 4000.0 4000.0 4000.0 4000.0 4000.0 4000.0 4000.0 4000.0 4000.0 4000.0 4000.0 4000.0 4000.0 4000.0 4000.0 4000.0 4000.0 4000.0 4000.0 4000.0 4000.0 4000.0 4000.0 4000.0 4000.0 4000.0 4000.0 4000.0 4000.0 4000.0 4000.0 4000.0 4000.0 4000.0 4000.0 4000.0 4000.0 4000.0 4000.0 4000.0 4000.0 4000.0 4000.0 4000.0 4000.0 4000.0 4000.0 4000.0 4000.0 4000.0 4000.0 4000.0 4000.0 4000.0 4000.0 4000.0 4000.0 4000.0 4000.0 4000.0 4000.0 4000.0 4000.0 4000.0 4000.0 4000.0 4000.0 4000.0 4000.0 4000.0 4000.0 4000.0 4000.0 4000.0 4000.0 4000.0 4000.0 4000.0 4000.0 4000.0 4000.0 4000.0 4000.0 4000.0 4000.0 4000.0 4000.0 4000.0 4000.0 4000.0 4000.0 4000.0 4000.0 4000.0 4000.0 4000.0 4000.0 4000.0 4000.0 4000.0 4000.0 4000.0 4000.0 4000.0 4000.0 4000.0 4000.0 4000.0 4000.0 4000.0 4000.0 4000.0 4000.0 4000.0 4000.0 4000.0 4000.0 4000.0 4000.0 4000.0 4000.0 4000.0 4000.0 4000.0 4000.0 4000.0 4000.0 4000.0 4000.0 4000.0 4000.0 4000.0 4000.0 4000.0 4000.0 4000.0 4000.0 4000.0 4000.0 4000.0 4000.0 4000.0 4000.0 4000.0 4000.0 4000.0 4000.0 4000.0 4000.0 4000.0 4000.0 4000.0 4000.0 4000.0 4000.0 4000.0 4000.0 4000.0 4000.0 4000.0 4000.0 4000.0 4000.0 4000.0 4000.0 4000.0 4000.0 4000.0 4000.0 4000.0 4000.0 4000.0 4000.0 4000.0 4000.0 4000.0 4000.0 4000.0 4000.0 4000.0 4000.0 4000.0 4000.0 4000.0 4000.0 4000.0 4000.0 4000.0 4000.0 4000.0 4000.0 4000.0 4000.0 4000.0 4000.0 4000.0 4000.0 4000.0 4000.0 4000.0 4000.0 4000.0 4000.0 4000.0 4000.0 4000.0 4000.0 4000.0 4000.0 4000.0 4000.0 4000.0 4000.0 4000.0 4000.0 4000.0 4000.0 4000.0 4000.0 4000.0 4000.0 4000.0 4000.0 4000.0 4000.0 4000.0 4000.0 4000.0 4000.0 4000.0 4000.0 4000.0 4000.0 4000.0 4000.0 4000.0 4000.0 4000.0 4000.0 4000.0 4000.0 4000.0 4000.0 4000.0 4000.0 4000.0 4000.0 4000.0 4000.0 4000.0 4000.0 4000.0 4000.0 4000.0 4000.0 4000.0 4000.0 4000.0 4000.0 4000.0 4000.0 4000.0 4000.0 4000.0 4000.0 4000.0 4000.0 4000.0 4000.0 4000.0 4000.0 4000.0 4000.0 4000.0 4000.0 4000.0 4000.0 4000.0 4000.0 4000.0 4000.0 4000.0 4000.0 4000.0 4000.0 4000.0 4000.0 4000.0 4000.0 4000.0 4000.0 4000.0 4000.0 4000.0 4000.0 4000.0 4000.0 4000.0 4000.0 4000.0 4000.0 4000.0 4000.0 4000.0 4000.0 4000.0 4000.0 4000.0 4000.0 4000.0 4000.0 4000.0 4000.0 4000.0 4000.0 4000.0 4000.0 4000.0 4000.0 4000.0 4000.0 4000.0 4000.0 4000.0 4000.0 4000.0 4000.0 4000.0 4000.0 4000.0 4000.0 4000.0 4000.0 4000.0 4000.0 4000.0 4000.0 4000.0 4000.0 4000.0 4000.0 4000.0 4000.0 4000.0 4000.0 4000.0 4000.0 4000.0 4000.0 4000.0 4000.0 4000.0 4000.0 4000.0 4000.0 4000.0 4000.0 4000.0 4000.0 4000.0 4000.0 4000.0 4000.0 4000.0 4000.0 4000.0 4000.0 4000.0 4000.0 4000.0 4000.0 4000.0 4000.0 4000.0 4000.0 4000.0 4000.0 4000.0 4000.0 4000.0 4000.0 4000.0 4000.0 4000.0 4000.0 4000.0 4000.0 4000.0 4000.0 4000.0 4000.0 4000.0 4000.0 4000.0 4000.0 4000.0 4000.0 4000.0 4000.0 4000.0 4000.0 4000.0 4000.0 4000.0 4000.0 4000.0 4000.0 4000.0 4000.0 4000.0 4000.0 4000.0 4000.0 4000.0 4000.0 4000.0 4000.0 4000.0 4000.0 4000.0 4000.0 4000.0 4000.0 4000.0 4000.0 4000.0 4000.0 4000.0 4000.0 4000.0 4000.0 4000.0 4000.0 4000.0 4000.0 4000.0 4000.0 4000.0 4000.0 4000.0 4000.0 4000.0 4000.0 4000.0 4000.0 4000.0 4000.0 4000.0 4000.0 4000.0 4000.0 4000.0 4000.0 4000.0 4000.0 4000.0 4000.0 4000.0 4000.0 4000.0 4000.0 4000.0 4000.0 4000.0 4000.0 4000.0 4000.0 4000.0 4000.0 4000.0 4000.0 4000.0 4000.0 4000.0 4000.0 4000.0 4000.0 4000.0 4000.0 4000.0 4000.0 4000.0 4000.0 4000.0 4000.0 4000.0 4000.0 4000.0 4000.0 4000.0 4000.0 4000.0 4000.0 4000.0 4000.0 4000.0 4000.0 4000.0 4000.0 4000.0 4000.0 4000.0 4000.0 4000.0 4000.0 4000.0 4000.0 4000.0 4000.0 4000.0 4000.0 4000.0 4000.0 4000.0 4000.0 4000.0 4000.0 4000.0 4000.0 4000.0 4000.0 4000.0 4000.0 4000.0 4000.0 4000.0 4000.0 4000.0 4000.0 4000.0 4000.0 4000.0 4000.0 4000.0 4000.0 4000.0 4000.0 4000.0 4000.0 4000.0 4000.0 4000.0 4000.0 4000.0 4000.0 4000.0 4000.0 4000.0 4000.0 4000.0 4000.0 4000.0 4000.0 4000.0 4000.0 4000.0 4000.0 4000.0 4000.0 4000.0 4000.0 4000.0 4000.0 4000.0 4000.0 4000.0 4000.0 4000.0 4000.0 4000.0 4000.0 4000.0 4000.0 4000.0 4000.0 4000.0 4000.0 4000.0 4000.0 4000.0 4000.0 4000.0 4000.0 4000.0 4000.0 4000.0 4000.0 4000.0 4000.0 4000.0 4000.0 4000.0 4000.0 4000.0 4000.0 4000.0 4000.0 4000.0 4000.0 4000.0 4000.0 4000.0 4000.0 4000.0 4000.0 4000.0 4000.0 4000.0 4000.0 4000.0 4000.0 4000.0 4000.0 4000.0 4000.0 4000.0 4000.0 4000.0 4000.0 4000.0 4000.0 4000.0 4000.0 4000.0 4000.0 4000.0 4000.0 4000.0 4000.0 4000.0 4000.0 4000.0 4000.0 4000.0 4000.0 4000.0 4000.0 4000.0 4000.0 4000.0 4000.0 4000.0 4000.0 4000.0 4000.0 4000.0 4000.0 4000.0 4000.0 4000.0 4000.0 4000.0 4000.0 4000.0 4000.0 4000.0 4000.0 4000.0 4000.0 4000.0 4000.0 4000.0 4000.0 4000.0 4000.0 4000.0 4000.0 4000.0 4000.0 4000.0 4000.0 4000.0 4000.0 4000.0 4000.0 4000.0 4000.0 4000.0 4000.0 4000.0 4000.0 4000.0 4000.0 4000.0 4000.0 4000.0 4000.0 4000.0 4000.0 4000.0 4000.0 4000.0 4000.0 4000.0 4000.0 4000.0 4000.0 4000.0 4000.0 4000.0 4000.0 4000.0 4000.0 4000.0 4000.0 4000.0 4000.0 4000.0 4000.0 4000.0 4000.0 4000.0 4000.0 4000.0 4000.0 4000.0 4000.0 4000.0 4000.0 4000.0 4000.0 4000.0 4000.0 4000.0 4000.0 4000.0 4000.0 4000.0 4000.0 4000.0 4000.0 4000.0 4000.0 4000.0 4000.0 4000.0 4000.0 4000.0 4000.0 4000.0 4000.0 4000.0 4000.0 4000.0 4000.0 4000.0 4000.0 4000.0 4000.0 4000.0 4000.0 4000.0 4000.0 4000.0 4000.0 4000.0 4000.0 4000.0 4000.0 4000.0 4000.0 4000.0 4000.0 4000.0 4000.0 4000.0 4000.0 4000.0 4000.0 4000.0 4000.0 4000.0 4000.0 4000.0 4000.0 4000.0 4000.0 4000.0 4000.0 4000.0 4000.0 4000.0 4000.0 4000.0 4000.0 4000.0 4000.0 4000.0 4000.0 4000.0 4000.0 4000.0 4000.0 4000.0 4000.0 4000.0 4000.0 4000.0 4000.0 4000.0 4000.0 4000.0 4000.0 4000.0 4000.0 4000.0 4000.0 4000.0 4000.0 4000.0 4000.0 4000.0 4000.0 4000.0 4000.0 4000.0 4000.0 4000.0 4000.0 4000.0 4000.0 4000.0 4000.0 4000.0 4000.0 4000.0 4000.0 4000.0 4000.0 4000.0 4000.0 4000.0 4000.0 4000.0 4000.0 4000.0 4000.0 4000.0 4000.0 4000.0 4000.0 4000.0 4000.0 4000.0 4000.0 4000.0 4000.0 4000.0 4000.0 4000.0 4000.0 4000.0 4000.0 4000.0 4000.0 4000.0 4000.0 4000.0 4000.0 4000.0 4000.0 4000.0 4000.0 4000.0 4000.0 4000.0 4000.0 4000.0 4000.0 4000.0 4000.0 4000.0 4000.0 4000.0 4000.0 4000.0 4000.0 4000.0 4000.0 4000.0 4000.0 4000.0 4000.0 4000.0 4000.0 4000.0 4000.0 4000.0 4000.0 4000.0 4000.0 4000.0 4000.0 4000.0 4000.0 4000.0 4000.0 4000.0 4000.0 4000.0 4000.0 4000.0 4000.0 4000.0 4000.0 4000.0 4000.0 4000.0 4000.0 4000.0 4000.0 4000.0 4000.0 4000.0 4000.0 4000.0 4000.0 4000.0 4000.0 4000.0 4000.0 4000.0 4000.0 4000.0 4000.0 4000.0 4000.0 4000.0 4000.0 4000.0 4000.0 4000.0 4000.0 4000.0 4000.0 4000.0 4000.0 4000.0 4000.0 4000.0 4000.0 4000.0 4000.0 4000.0 4000.0 4000.0 4000.0 4000.0 4000.0 4000.0 4000.0 4000.0 4000.0 4000.0 4000.0 4000.0 4000.0 4000.0 4000.0 4000.0 4000.0 4000.0 4000.0 4000.0 4000.0 4000.0 4000.0 4000.0 4000.0 4000.0 4000.0 4000.0 4000.0 4000.0 4000.0 4000.0 4000.0 4000.0 4000.0 4000.0 4000.0 4000.0 4000.0 4000.0 4000.0 4000.0 4000.0 4000.0 4000.0 4000.0 4000.0 4000.0 4000.0 4000.0 4000.0 4000.0 4000.0 4000.0 4000.0 4000.0 4000.0 4000.0 4000.0 4000.0 4000.0 4000.0 4000.0 4000.0 4000.0 4000.0 4000.0 4000.0 4000.0 4000.0 4000.0 4000.0 4000.0 4000.0 4000.0 4000.0 4000.0 4000.0 4000.0 4000.0 4000.0 4000.0 4000.0 4000.0 4000.0 4000.0 4000.0 4000.0 4000.0 4000.0 4000.0 4000.0 4000.0 4000.0 4000.0 4000.0 4000.0 4000.0 4000.0 4000.0 4000.0 4000.0 4000.0 4000.0 4000.0 4000.0 4000.0 4000.0 4000.0 4000.0 4000.0 4000.0 4000.0 4000.0 4000.0 4000.0 4000.0 4000.0 4000.0 4000.0 4000.0 4000.0 4000.0 4000.0 4000.0 4000.0 4000.0 4000.0 4000.0 4000.0 4000.0 4000.0 4000.0 4000.0 4000.0 4000.0 4000.0 4000.0 4000.0 4000.0 4000.0 4000.0 4000.0 4000.0 4000.0 4000.0 4000.0 4000.0 4000.0 4000.0 4000.0 4000.0 4000.0 4000.0 4000.0 4000.0 4000.0 4000.0 4000.0 4000.0 4000.0 4000.0 4000.0 4000.0 4000.0 4000.0 4000.0 4000.0 4000.0 4000.0 4000.0 4000.0 4000.0 4000.0 4000.0 4000.0 4000.0 4000.0 4000.0 4000.0 4000.0 4000.0 4000.0 4000.0 4000.0 4000.0 4000.0 4000.0 4000.0 4000.0 4000.0 4000.0 4000.0 4000.0 4000.0 4000.0 4000.0 4000.0 4000.0 4000.0 4000.0 4000.0 4000.0 4000.0 4000.0 4000.0 4000.0 4000.0 4000.0 4000.0 4000.0 4000.0 4000.0 4000.0 4000.0 4000.0 4000.0 4000.0 4000.0 4000.0 4000.0 4000.0 4000.0 4000.0 4000.0 4000.0 4000.0 4000.0 4000.0 4000.0 4000.0 4000.0 4000.0 4000.0 4000.0 4000.0 4000.0 4000.0 4000.0 4000.0 4000.0 4000.0 4000.0 4000.0 4000.0 4000.0 4000.0 4000.0 4000.0 4000.0 4000.0 4000.0 4000.0 4000.0 4000.0 4000.0 4000.0 4000.0 4000.0 4000.0 4000.0 4000.0 4000.0 4000.0 4000.0 4000.0 4000.0 4000.0 4000.0 4000.0 4000.0 4000.0 4000.0 4000.0 4000.0 4000.0 4000.0 4000.0 4000.0 4000.0 4000.0 4000.0 4000.0 4000.0 4000.0 4000.0 4000.0 4000.0 4000.0 4000.0 4000.0 4000.0 4000.0 4000.0 4000.0 4000.0 4000.0 4000.0 4000.0 4000.0 4000.0 4000.0 4000.0 4000.0 4000.0 4000.0 4000.0 4000.0 4000.0 4000.0 4000.0 4000.0 4000.0 4000.0 4000.0 4000.0 4000.0 4000.0 4000.0 4000.0 4000.0 4000.0 4000.0 4000.0 4000.0 4000.0 4000.0 4000.0 4000.0 4000.0 4000.0 4000.0 4000.0 4000.0 4000.0 4000.0 4000.0 4000.0 4000.0 4000.0 4000.0 4000.0 4000.0 4000.0 4000.0 4000.0 4000.0 4000.0 4000.0 4000.0 4000.0 4000.0 4000.0 4000.0 4000.0 4000.0 4000.0 4000.0 4000.0 4000.0 4000.0 4000.0 4000.0 4000.0 4000.0 4000.0 4000.0 4000.0 4000.0 4000.0 4000.0 4000.0 4000.0 4000.0 4000.0 4000.0 4000.0 4000.0 4000.0 4000.0 4000.0 4000.0 4000.0 4000.0 4000.0 4000.0 4000.0 4000.0 4000.0 4000.0 4000.0 4000.0 4000.0 4000.0 4000.0 4000.0 4000.0 4000.0 4000.0 4000.0 4000.0 4000.0 4000.0 4000.0 4000.0 4000.0 4000.0 4000.0 4000.0 4000.0 4000.0 4000.0 4000.0 4000.0 4000.0 4000.0 4000.0 4000.0 4000.0 4000.0 4000.0 4000.0 4000.0 4000.0 4000.0 4000.0 4000.0 4000.0 4000.0 4000.0 4000.0 4000.0 4000.0 4000.0 4000.0 4000.0 4000.0 4000.0 4000.0 4000.0 4000.0 4000.0 4000.0 4000.0 4000.0 4000.0 4000.0 4000.0 4000.0 4000.0 4000.0 4000.0 4000.0 4000.0 4000.0 4000.0 4000.0 4000.0 4000.0 4000.0 4000.0 4000.0 4000.0 4000.0 4000.0 4000.0 4000.0 4000.0 4000.0 4000.0 4000.0 4000.0 4000.0 4000.0 4000.0 4000.0 4000.0 4000.0 4000.0 4000.0 4000.0 4000.0 4000.0 4000.0 4000.0 4000.0 4000.0 4000.0 4000.0 4000.0 4000.0 4000.0 4000.0 4000.0 4000.0 4000.0 4000.0 4000.0 4000.0 4000.0 4000.0 4000.0 4000.0 4000.0 4000.0 4000.0 4000.0 4000.0 4000.0 4000.0 4000.0 4000.0 4000.0 4000.0 4000.0 4000.0 4000.0 4000.0 4000.0 4000.0 4000.0 4000.0 4000.0 4000.0 4000.0 4000.0 4000.0 4000.0 4000.0 4000.0 4000.0 4000.0 4000.0 4000.0 4000.0 4000.0 4000.0 4000.0 4000.0 4000.0 4000.0 4000.0 4000.0 4000.0 4000.0 4000.0 4000.0 4000.0 4000.0 4000.0 4000.0 4000.0 4000.0 4000.0 4000.0 4000.0 4000.0 4000.0 4000.0 4000.0 4000.0 4000.0 4000.0 4000.0 4000.0 4000.0 4000.0 4000.0 4000.0 4000.0 4000.0 4000.0 4000.0 4000.0 4000.0 4000.0 4000.0 4000.0 4000.0 4000.0 4000.0 4000.0 4000.0 4000.0 4000.0 4000.0 4000.0 4000.0 4000.0 4000.0 4000.0 4000.0 4000.0 4000.0 4000.0 4000.0 4000.0 4000.0 4000.0 4000.0 4000.0 4000.0 4000.0 4000.0 4000.0 4000.0 4000.0 4000.0 4000.0 4000.0 4000.0 4000.0 4000.0 4000.0 4000.0 4000.0 4000.0 4000.0 4000.0 4000.0 4000.0 4000.0 4000.0 4000.0 4000.0 4000.0 4000.0 4000.0 4000.0 4000.0 4000.0 4000.0 4000.0 4000.0 4000.0 4000.0 4000.0 4000.0 4000.0 4000.0 4000.0 4000.0 4000.0 4000.0 4000.0 4000.0 4000.0 4000.0 4000.0 4000.0 4000.0 4000.0 4000.0 4000.0 4000.0 4000.0 4000.0 4000.0 4000.0 4000.0 4000.0 4000.0 4000.0 4000.0 4000.0 4000.0 4000.0 4000.0 4000.0 4000.0 4000.0 4000.0 4000.0 4000.0 4000.0 4000.0 4000.0 4000.0 4000.0 4000.0 4000.0 4000.0 4000.0 4000.0 4000.0 4000.0 4000.0 4000.0 4000.0 4000.0 4000.0 4000.0 4000.0 4000.0 4000.0 4000.0 4000.0 4000.0 4000.0 4000.0 4000.0 4000.0 4000.0 4000.0 4000.0 4000.0 4000.0 4000.0 4000.0 4000.0 4000.0 4000.0 4000.0 4000.0 4000.0 4000.0 4000.0 4000.0 4000.0 4000.0 4000.0 4000.0 4000.0 4000.0 4000.0 4000.0 4000.0 4000.0 4000.0 4000.0 4000.0 4000.0 4000.0 4000.0 4000.0 4000.0 4000.0 4000.0 4000.0 4000.0 4000.0 4000.0 4000.0 4000.0 4000.0 4000.0 4000.0 4000.0 4000.0 4000.0 4000.0 4000.0 4000.0 4000.0 4000.0 4000.0 4000.0 4000.0 4000.0 4000.0 4000.0 4000.0 4000.0 4000.0 4000.0 4000.0 4000.0 4000.0 4000.0 4000.0 4000.0 4000.0 4000.0 4000.0 4000.0 4000.0 4000.0 4000.0 4000.0 4000.0 4000.0 4000.0 4000.0 4000.0 4000.0 4000.0 4000.0 4000.0 4000.0 4000.0 4000.0 4000.0 4000.0 4000.0 4000.0 4000.0 4000.0 4000.0 4000.0 4000.0 4000.0 4000.0 4000.0 4000.0 4000.0 4000.0 4000.0 4000.0 4000.0 4000.0 4000.0 4000.0 4000.0 4000.0 4000.0 4000.0 4000.0 4000.0 4000.0 4000.0 4000.0 4000.0 4000.0 4000.0 4000.0 4000.0 4000.0 4000.0 4000.0 4000.0 4000.0 4000.0 4000.0 4000.0 4000.0 4000.0 4000.0 4000.0 4000.0 4000.0 4000.0 4000.0 4000.0 4000.0 4000.0 4000.0 4000.0 4000.0 4000.0 4000.0 4000.0 4000.0 4000.0 4000.0 4000.0 4000.0 4000.0 4000.0 4000.0 4000.0 4000.0 4000.0 4000.0 4000.0 4000.0 4000.0 4000.0 4000.0 4000.0 4000.0 4000.0 4000.0 4000.0 4000.0 4000.0 4000.0 4000.0 4000.0 4000.0 4000.0 4000.0 4000.0 4000.0 4000.0 4000.0 4000.0 4000.0 4000.0 4000.0 4000.0 4000.0 4000.0 4000.0 4000.0 4000.0 4000.0 4000.0 4000.0 4000.0 4000.0 4000.0 4000.0 4000.0 4000.0 4000.0 4000.0 4000.0 4000.0 4000.0 4000.0 4000.0 4000.0 4000.0 4000.0 4000.0 4000.0 4000.0 4000.0 4000.0 4000.0 4000.0 4000.0 4000.0 4000.0 4000.0 4000.0 4000.0 4000.0 4000.0 4000.0 4000.0 4000.0 4000.0 4000.0 4000.0 4000.0 4000.0 4000.0 4000.0 4000.0 4000.0 4000.0 4000.0 4000.0 4000.0 4000.0 4000.0 4000.0 4000.0 4000.0 4000.0 4000.0 4000.0 4000.0 4000.0 4000.0 4000.0 4000.0 4000.0 4000.0 4000.0 4000.0 4000.0 4000.0 4000.0 4000.0 4000.0 4000.0 4000.0 4000.0 4000.0 4000.0 4000.0 4000.0 4000.0 4000.0 4000.0 4000.0 4000.0 4000.0 4000.0 4000.0 4000.0 4000.0 4000.0 4000.0 4000.0 4000.0 4000.0 4000.0 4000.0 4000.0 4000.0 4000.0 4000.0 4000.0 4000.0 4000.0 4000.0 4000.0 4000.0 4000.0 4000.0 4000.0 4000.0 4000.0 4000.0 4000.0 4000.0 4000.0 4000.0 4000.0 4000.0 4000.0 4000.0 4000.0 4000.0 4000.0 4000.0 4000.0 4000.0 4000.0 4000.0 4000.0 4000.0 4000.0 4000.0 4000.0 4000.0 4000.0 4000.0 4000.0 4000.0 4000.0 4000.0 4000.0 4000.0 4000.0 4000.0 4000.0 4000.0 4000.0 4000.0 4000.0 4000.0 4000.0 4000.0 4000.0 4000.0 4000.0 4000.0 4000.0 4000.0 4000.0 4000.0 4000.0 4000.0 4000.0 4000.0 4000.0 4000.0 4000.0 4000.0 4000.0 4000.0 4000.0 4000.0 4000.0 4000.0 4000.0 4000.0 4000.0 4000.0 4000.0 4000.0 4000.0 4000.0 4000.0 4000.0 4000.0 4000.0 4000.0 4000.0 4000.0 4000.0 4000.0 4000.0 4000.0 4000.0 4000.0 4000.0 4000.0 4000.0 4000.0 4000.0 4000.0 4000.0 4000.0 4000.0 4000.0 4000.0 4000.0 4000.0 4000.0 4000.0 4000.0 4000.0 4000.0 4000.0 4000.0 4000.0 4000.0 4000.0 4000.0 4000.0 4000.0 4000.0 4000.0 4000.0 4000.0 4000.0 4000.0 4000.0 4000.0 4000.0 4000.0 4000.0 4000.0 4000.0 4000.0 4000.0 4000.0 4000.0 4000.0 4000.0 4000.0 4000.0 4000.0 4000.0 4000.0 4000.0 4000.0 4000.0 4000.0 4000.0 4000.0 4000.0 4000.0 4000.0 4000.0 4000.0 4000.0 4000.0 4000.0 4000.0 4000.0 4000.0 4000.0 4000.0 4000.0 4000.0 4000.0 4000.0 4000.0 4000.0 4000.0 4000.0 4000.0 4000.0 4000.0 4000.0 4000.0 4000.0 4000.0 4000.0 4000.0 4000.0 4000.0 4000.0 4000.0 4000.0 4000.0 4000.0 4000.0 4000.0 4000.0 4000.0 4000.0 4000.0 4000.0 4000.0 4000.0 4000.0 4000.0 4000.0 4000.0 4000.0 4000.0 4000.0 4000.0 4000.0 4000.0 4000.0 4000.0 4000.0 4000.0 4000.0 4000.0 4000.0 4000.0 4000.0 4000.0 4000.0 4000.0 4000.0 4000.0 4000.0 4000.0 4000.0 4000.0 4000.0 4000.0 4000.0 4000.0 4000.0 4000.0 4000.0 4000.0 4000.0 4000.0 4000.0 4000.0 4000.0 4000.0 4000.0 4000.0 4000.0 4000.0 4000.0 4000.0 4000.0 4000.0 4000.0 4000.0 4000.0 4000.0 4000.0 4000.0 4000.0 4000.0 4000.0 4000.0 4000.0 4000.0 4000.0 4000.0 4000.0 4000.0 4000.0 4000.0 4000.0 4000.0 4000.0 4000.0 4000.0 4000.0 4000.0 4000.0 4000.0 4000.0 4000.0 4000.0 4000.0 4000.0 4000.0 4000.0 4000.0 4000.0 4000.0 4000.0 4000.0 4000.0 4000.0 4000.0 4000.0 4000.0 4000.0 4000.0 4000.0 4000.0 4000.0 4000.0 4000.0 4000.0 4000.0 4000.0 4000.0 4000.0 4000.0 4000.0 4000.0 4000.0 4000.0 4000.0 4000.0 4000.0 4000.0 4000.0 4000.0 4000.0 4000.0 4000.0 4000.0 4000.0 4000.0 4000.0 4000.0 4000.0 4000.0 4000.0 4000.0 4000.0 4000.0 4000.0 4000.0 4000.0 4000.0 4000.0 4000.0 4000.0 4000.0 4000.0 4000.0 4000.0 4000.0 4000.0 4000.0 4000.0 4000.0 4000.0 4000.0 4000.0 4000.0 4000.0 4000.0 4000.0 4000.0 4000.0 4000.0 4000.0 4000.0 4000.0 4000.0 4000.0 4000.0 4000.0 4000.0 4000.0 4000.0 4000.0 4000.0 4000.0 4000.0 4000.0 4000.0 4000.0 4000.0 4000.0 4000.0 4000.0 4000.0 4000.0 4000.0 4000.0 4000.0 4000.0 4000.0 4000.0 4000.0 4000.0 4000.0 4000.0 4000.0 4000.0 4000.0 4000.0 4000.0 4000.0 4000.0 4000.0 4000.0 4000.0 4000.0 4000.0 4000.0 4000.0 4000.0 4000.0 4000.0 4000.0 4000.0 4000.0 4000.0 4000.0 4000.0 4000.0 4000.0 4000.0 4000.0 4000.0 4000.0 4000.0 4000.0 4000.0 4000.0 4000.0 4000.0 4000.0 4000.0 4000.0 4000.0 4000.0 4000.0 4000.0 4000.0 4000.0 4000.0 4000.0 4000.0 4000.0 4000.0 4000.0 4000.0 4000.0 4000.0 4000.0 4000.0 4000.0 4000.0 4000.0 4000.0 4000.0 4000.0 4000.0 4000.0 4000.0 4000.0 4000.0 4000.0 4000.0 4000.0 4000.0 4000.0 4000.0 4000.0 4000.0 4000.0 4000.0 4000.0 4000.0 4000.0 4000.0 4000.0 4000.0 4000.0 4000.0 4000.0 4000.0 4000.0 4000.0 4000.0 4000.0 4000.0 4000.0 4000.0 4000.0 4000.0 4000.0 4000.0 4000.0 4000.0 4000.0 4000.0 4000.0 4000.0 4000.0 4000.0 4000.0 4000.0 4000.0 4000.0 4000.0 4000.0 4000.0 4000.0 4000.0 4000.0 4000.0 4000.0 4000.0 4000.0 4000.0 4000.0 4000.0 4000.0 4000.0 4000.0 4000.0 4000.0 4000.0 4000.0 4000.0 4000.0 4000.0 4000.0 4000.0 4000.0 4000.0 4000.0 4000.0 4000.0 4000.0 4000.0 4000.0 4000.0 4000.0 4000.0 4000.0 4000.0 4000.0 4000.0 4000.0 4000.0 4000.0 4000.0 4000.0 4000.0 4000.0 4000.0 4000.0 4000.0 4000.0 4000.0 4000.0 4000.0 4000.0 4000.0 4000.0 4000.0 4000.0 4000.0 4000.0 4000.0 4000.0 4000.0 4000.0 4000.0 4000.0 4000.0 4000.0 4000.0 4000.0 4000.0 4000.0 4000.0 4000.0 4000.0 4000.0 4000.0 4000.0 4000.0 4000.0 4000.0 4000.0 4000.0 4000.0 4000.0 4000.0 4000.0 4000.0 4000.0 4000.0 4000.0 4000.0 4000.0 4000.0 4000.0 4000.0 4000.0 4000.0 4000.0 4000.0 4000.0 4000.0 4000.0 4000.0 4000.0 4000.0 4000.0 4000.0 4000.0 4000.0 4000.0 4000.0 4000.0 4000.0 4000.0 4000.0 4000.0 4000.0 4000.0 4000.0 4000.0 4000.0 4000.0 4000.0 4000.0 4000.0 4000.0 4000.0 4000.0 4000.0 4000.0 4000.0 4000.0 4000.0 4000.0 4000.0 4000.0 4000.0 4000.0 4000.0 4000.0 4000.0 4000.0 4000.0 4000.0 4000.0 4000.0 4000.0 4000.0 4000.0 4000.0 4000.0 4000.0 4000.0 4000.0 4000.0 4000.0 4000.0 4000.0 4000.0 4000.0 4000.0 4000.0 4000.0 4000.0 4000.0 4000.0 4000.0 4000.0 4000.0 4000.0 4000.0 4000.0 4000.0 4000.0 4000.0 4000.0 4000.0 4000.0 4000.0 4000.0 4000.0 4000.0 4000.0 4000.0 4000.0 4000.0 4000.0 4000.0 4000.0 4000.0 4000.0 4000.0 4000.0 4000.0 4000.0 4000.0 4000.0 4000.0 4000.0 4000.0 4000.0 4000.0 4000.0 4000.0 4000.0 4000.0 4000.0 4000.0 4000.0 4000.0 4000.0 4000.0 4000.0 4000.0 4000.0 4000.0 4000.0 4000.0 4000.0 4000.0 4000.0 4000.0 4000.0 4000.0 4000.0 4000.0 4000.0 4000.0 4000.0 4000.0 4000.0 4000.0 4000.0 4000.0 4000.0 4000.0 4000.0 4000.0 4000.0 4000.0 4000.0 4000.0 4000.0 4000.0 4000.0 4000.0 4000.0 4000.0 4000.0 4000.0 4000.0 4000.0 4000.0 4000.0 4000.0 4000.0 4000.0 4000.0 4000.0 4000.0 4000.0 4000.0 4000.0 4000.0 4000.0 4000.0 4000.0 4000.0 4000.0 4000.0 4000.0 4000.0 4000.0 4000.0 4000.0 4000.0 4000.0 4000.0 4000.0 4000.0 4000.0 4000.0 4000.0 4000.0 4000.0 4000.0 4000.0 4000.0 4000.0 4000.0 4000.0 4000.0 4000.0 4000.0 4000.0 4000.0 4000.0 4000.0 4000.0 4000.0 4000.0 4000.0 4000.0 4000.0 4000.0 4000.0 4000.0 4000.0 4000.0 4000.0 4000.0 4000.0 4000.0 4000.0 4000.0 4000.0 SCALARS Mass float 1
LOOKUP_TABLE default
11309700000.0 11309700000.0 11309700000.0 11309700000.0 11309700000.0 11309700000.0 11309700000.0 11309700000.0 11309700000.0 11309700000.0 11309700000.0 11309700000.0 11309700000.0 11309700000.0 11309700000.0 11309700000.0 11309700000.0 11309700000.0 11309700000.0 11309700000.0 11309700000.0 11309700000.0 11309700000.0 11309700000.0 11309700000.0 11309700000.0 11309700000.0 11309700000.0 11309700000.0 11309700000.0 11309700000.0 11309700000.0 11309700000.0 11309700000.0 11309700000.0 11309700000.0 11309700000.0 11309700000.0 11309700000.0 11309700000.0 11309700000.0 11309700000.0 11309700000.0 11309700000.0 11309700000.0 11309700000.0 11309700000.0 11309700000.0 11309700000.0 11309700000.0 11309700000.0 11309700000.0 11309700000.0 11309700000.0 11309700000.0 11309700000.0 11309700000.0 11309700000.0 11309700000.0 11309700000.0 11309700000.0 11309700000.0 11309700000.0 11309700000.0 11309700000.0 11309700000.0 11309700000.0 11309700000.0 11309700000.0 11309700000.0 11309700000.0 11309700000.0 11309700000.0 11309700000.0 11309700000.0 11309700000.0 11309700000.0 11309700000.0 11309700000.0 11309700000.0 11309700000.0 11309700000.0 11309700000.0 11309700000.0 11309700000.0 11309700000.0 11309700000.0 11309700000.0 11309700000.0 11309700000.0 11309700000.0 11309700000.0 11309700000.0 11309700000.0 11309700000.0 11309700000.0 11309700000.0 11309700000.0 11309700000.0 11309700000.0 11309700000.0 11309700000.0 11309700000.0 11309700000.0 11309700000.0 11309700000.0 11309700000.0 11309700000.0 11309700000.0 11309700000.0 11309700000.0 11309700000.0 11309700000.0 11309700000.0 11309700000.0 11309700000.0 11309700000.0 11309700000.0 11309700000.0 11309700000.0 11309700000.0 11309700000.0 11309700000.0 11309700000.0 11309700000.0 11309700000.0 11309700000.0 11309700000.0 11309700000.0 11309700000.0 11309700000.0 11309700000.0 11309700000.0 11309700000.0 11309700000.0 11309700000.0 11309700000.0 11309700000.0 11309700000.0 11309700000.0 11309700000.0 11309700000.0 11309700000.0 11309700000.0 11309700000.0 11309700000.0 11309700000.0 11309700000.0 11309700000.0 11309700000.0 11309700000.0 11309700000.0 11309700000.0 11309700000.0 11309700000.0 11309700000.0 11309700000.0 11309700000.0 11309700000.0 11309700000.0 11309700000.0 11309700000.0 11309700000.0 11309700000.0 11309700000.0 11309700000.0 11309700000.0 11309700000.0 11309700000.0 11309700000.0 11309700000.0 11309700000.0 11309700000.0 11309700000.0 11309700000.0 11309700000.0 11309700000.0 11309700000.0 11309700000.0 11309700000.0 11309700000.0 11309700000.0 11309700000.0 11309700000.0 11309700000.0 11309700000.0 11309700000.0 11309700000.0 11309700000.0 11309700000.0 11309700000.0 11309700000.0 11309700000.0 11309700000.0 11309700000.0 11309700000.0 11309700000.0 11309700000.0 11309700000.0 11309700000.0 11309700000.0 11309700000.0 11309700000.0 11309700000.0 11309700000.0 11309700000.0 11309700000.0 11309700000.0 11309700000.0 11309700000.0 11309700000.0 11309700000.0 11309700000.0 11309700000.0 11309700000.0 11309700000.0 11309700000.0 11309700000.0 11309700000.0 11309700000.0 11309700000.0 11309700000.0 11309700000.0 11309700000.0 11309700000.0 11309700000.0 11309700000.0 11309700000.0 11309700000.0 11309700000.0 11309700000.0 11309700000.0 11309700000.0 11309700000.0 11309700000.0 11309700000.0 11309700000.0 11309700000.0 11309700000.0 11309700000.0 11309700000.0 11309700000.0 11309700000.0 11309700000.0 11309700000.0 11309700000.0 11309700000.0 11309700000.0 11309700000.0 11309700000.0 11309700000.0 11309700000.0 11309700000.0 11309700000.0 11309700000.0 11309700000.0 11309700000.0 11309700000.0 11309700000.0 11309700000.0 11309700000.0 11309700000.0 11309700000.0 11309700000.0 11309700000.0 11309700000.0 11309700000.0 11309700000.0 11309700000.0 11309700000.0 11309700000.0 11309700000.0 11309700000.0 11309700000.0 11309700000.0 11309700000.0 11309700000.0 11309700000.0 11309700000.0 11309700000.0 11309700000.0 11309700000.0 11309700000.0 11309700000.0 11309700000.0 11309700000.0 11309700000.0 11309700000.0 11309700000.0 11309700000.0 11309700000.0 11309700000.0 11309700000.0 11309700000.0 11309700000.0 11309700000.0 11309700000.0 11309700000.0 11309700000.0 11309700000.0 11309700000.0 11309700000.0 11309700000.0 11309700000.0 11309700000.0 11309700000.0 11309700000.0 11309700000.0 11309700000.0 11309700000.0 11309700000.0 11309700000.0 11309700000.0 11309700000.0 11309700000.0 11309700000.0 11309700000.0 11309700000.0 11309700000.0 11309700000.0 11309700000.0 11309700000.0 11309700000.0 11309700000.0 11309700000.0 11309700000.0 11309700000.0 11309700000.0 11309700000.0 11309700000.0 11309700000.0 11309700000.0 11309700000.0 11309700000.0 11309700000.0 11309700000.0 11309700000.0 11309700000.0 11309700000.0 11309700000.0 11309700000.0 11309700000.0 11309700000.0 11309700000.0 11309700000.0 11309700000.0 11309700000.0 11309700000.0 11309700000.0 11309700000.0 11309700000.0 11309700000.0 11309700000.0 11309700000.0 11309700000.0 11309700000.0 11309700000.0 11309700000.0 11309700000.0 11309700000.0 11309700000.0 11309700000.0 11309700000.0 11309700000.0 11309700000.0 11309700000.0 11309700000.0 11309700000.0 11309700000.0 11309700000.0 11309700000.0 11309700000.0 11309700000.0 11309700000.0 11309700000.0 11309700000.0 11309700000.0 11309700000.0 11309700000.0 11309700000.0 11309700000.0 11309700000.0 11309700000.0 11309700000.0 11309700000.0 11309700000.0 11309700000.0 11309700000.0 11309700000.0 11309700000.0 11309700000.0 11309700000.0 11309700000.0 11309700000.0 11309700000.0 11309700000.0 11309700000.0 11309700000.0 11309700000.0 11309700000.0 11309700000.0 11309700000.0 11309700000.0 11309700000.0 11309700000.0 11309700000.0 11309700000.0 11309700000.0 11309700000.0 11309700000.0 11309700000.0 11309700000.0 11309700000.0 11309700000.0 11309700000.0 11309700000.0 11309700000.0 11309700000.0 11309700000.0 11309700000.0 11309700000.0 11309700000.0 11309700000.0 11309700000.0 11309700000.0 11309700000.0 11309700000.0 11309700000.0 11309700000.0 11309700000.0 11309700000.0 11309700000.0 11309700000.0 11309700000.0 11309700000.0 11309700000.0 11309700000.0 11309700000.0 11309700000.0 11309700000.0 11309700000.0 11309700000.0 11309700000.0 11309700000.0 11309700000.0 11309700000.0 11309700000.0 11309700000.0 11309700000.0 11309700000.0 11309700000.0 11309700000.0 11309700000.0 11309700000.0 11309700000.0 11309700000.0 11309700000.0 11309700000.0 11309700000.0 11309700000.0 11309700000.0 11309700000.0 11309700000.0 11309700000.0 11309700000.0 11309700000.0 11309700000.0 11309700000.0 11309700000.0 11309700000.0 11309700000.0 11309700000.0 11309700000.0 11309700000.0 11309700000.0 11309700000.0 11309700000.0 11309700000.0 11309700000.0 11309700000.0 11309700000.0 11309700000.0 11309700000.0 11309700000.0 11309700000.0 11309700000.0 11309700000.0 11309700000.0 11309700000.0 11309700000.0 11309700000.0 11309700000.0 11309700000.0 11309700000.0 11309700000.0 11309700000.0 11309700000.0 11309700000.0 11309700000.0 11309700000.0 11309700000.0 11309700000.0 11309700000.0 11309700000.0 11309700000.0 11309700000.0 11309700000.0 11309700000.0 11309700000.0 11309700000.0 11309700000.0 11309700000.0 11309700000.0 11309700000.0 11309700000.0 11309700000.0 11309700000.0 11309700000.0 11309700000.0 11309700000.0 11309700000.0 11309700000.0 11309700000.0 11309700000.0 11309700000.0 11309700000.0 11309700000.0 11309700000.0 11309700000.0 11309700000.0 11309700000.0 11309700000.0 11309700000.0 11309700000.0 11309700000.0 11309700000.0 11309700000.0 11309700000.0 11309700000.0 11309700000.0 11309700000.0 11309700000.0 11309700000.0 11309700000.0 11309700000.0 11309700000.0 11309700000.0 11309700000.0 11309700000.0 11309700000.0 11309700000.0 11309700000.0 11309700000.0 11309700000.0 11309700000.0 11309700000.0 11309700000.0 11309700000.0 11309700000.0 11309700000.0 11309700000.0 11309700000.0 11309700000.0 11309700000.0 11309700000.0 11309700000.0 11309700000.0 11309700000.0 11309700000.0 11309700000.0 11309700000.0 11309700000.0 11309700000.0 11309700000.0 11309700000.0 11309700000.0 11309700000.0 11309700000.0 11309700000.0 11309700000.0 11309700000.0 11309700000.0 11309700000.0 11309700000.0 11309700000.0 11309700000.0 11309700000.0 11309700000.0 11309700000.0 11309700000.0 11309700000.0 11309700000.0 11309700000.0 11309700000.0 11309700000.0 11309700000.0 11309700000.0 11309700000.0 11309700000.0 11309700000.0 11309700000.0 11309700000.0 11309700000.0 11309700000.0 11309700000.0 11309700000.0 11309700000.0 11309700000.0 11309700000.0 11309700000.0 11309700000.0 11309700000.0 11309700000.0 11309700000.0 11309700000.0 11309700000.0 11309700000.0 11309700000.0 11309700000.0 11309700000.0 11309700000.0 11309700000.0 11309700000.0 11309700000.0 11309700000.0 11309700000.0 11309700000.0 11309700000.0 11309700000.0 11309700000.0 11309700000.0 11309700000.0 11309700000.0 11309700000.0 11309700000.0 11309700000.0 11309700000.0 11309700000.0 11309700000.0 11309700000.0 11309700000.0 11309700000.0 11309700000.0 11309700000.0 11309700000.0 11309700000.0 11309700000.0 11309700000.0 11309700000.0 11309700000.0 11309700000.0 11309700000.0 11309700000.0 11309700000.0 11309700000.0 11309700000.0 11309700000.0 11309700000.0 11309700000.0 11309700000.0 11309700000.0 11309700000.0 11309700000.0 11309700000.0 11309700000.0 11309700000.0 11309700000.0 11309700000.0 11309700000.0 11309700000.0 11309700000.0 11309700000.0 11309700000.0 11309700000.0 11309700000.0 11309700000.0 11309700000.0 11309700000.0 11309700000.0 11309700000.0 11309700000.0 11309700000.0 11309700000.0 11309700000.0 11309700000.0 11309700000.0 11309700000.0 11309700000.0 11309700000.0 11309700000.0 11309700000.0 11309700000.0 11309700000.0 11309700000.0 11309700000.0 11309700000.0 11309700000.0 11309700000.0 11309700000.0 11309700000.0 11309700000.0 11309700000.0 11309700000.0 11309700000.0 11309700000.0 11309700000.0 11309700000.0 11309700000.0 11309700000.0 11309700000.0 11309700000.0 11309700000.0 11309700000.0 11309700000.0 11309700000.0 11309700000.0 11309700000.0 11309700000.0 11309700000.0 11309700000.0 11309700000.0 11309700000.0 11309700000.0 11309700000.0 11309700000.0 11309700000.0 11309700000.0 11309700000.0 11309700000.0 11309700000.0 11309700000.0 11309700000.0 11309700000.0 11309700000.0 11309700000.0 11309700000.0 11309700000.0 11309700000.0 11309700000.0 11309700000.0 11309700000.0 11309700000.0 11309700000.0 11309700000.0 11309700000.0 11309700000.0 11309700000.0 11309700000.0 11309700000.0 11309700000.0 11309700000.0 11309700000.0 11309700000.0 11309700000.0 11309700000.0 11309700000.0 11309700000.0 11309700000.0 11309700000.0 11309700000.0 11309700000.0 11309700000.0 11309700000.0 11309700000.0 11309700000.0 11309700000.0 11309700000.0 11309700000.0 11309700000.0 11309700000.0 11309700000.0 11309700000.0 11309700000.0 11309700000.0 11309700000.0 11309700000.0 11309700000.0 11309700000.0 11309700000.0 11309700000.0 11309700000.0 11309700000.0 11309700000.0 11309700000.0 11309700000.0 11309700000.0 11309700000.0 11309700000.0 11309700000.0 11309700000.0 11309700000.0 11309700000.0 11309700000.0 11309700000.0 11309700000.0 11309700000.0 11309700000.0 11309700000.0 11309700000.0 11309700000.0 11309700000.0 11309700000.0 11309700000.0 11309700000.0 11309700000.0 11309700000.0 11309700000.0 11309700000.0 11309700000.0 11309700000.0 11309700000.0 11309700000.0 11309700000.0 11309700000.0 11309700000.0 11309700000.0 11309700000.0 11309700000.0 11309700000.0 11309700000.0 11309700000.0 11309700000.0 11309700000.0 11309700000.0 11309700000.0 11309700000.0 11309700000.0 11309700000.0 11309700000.0 11309700000.0 11309700000.0 11309700000.0 11309700000.0 11309700000.0 11309700000.0 11309700000.0 11309700000.0 11309700000.0 11309700000.0 11309700000.0 11309700000.0 11309700000.0 11309700000.0 11309700000.0 11309700000.0 11309700000.0 11309700000.0 11309700000.0 11309700000.0 11309700000.0 11309700000.0 11309700000.0 11309700000.0 11309700000.0 11309700000.0 11309700000.0 11309700000.0 11309700000.0 11309700000.0 11309700000.0 11309700000.0 11309700000.0 11309700000.0 11309700000.0 11309700000.0 11309700000.0 11309700000.0 11309700000.0 11309700000.0 11309700000.0 11309700000.0 11309700000.0 11309700000.0 11309700000.0 11309700000.0 11309700000.0 11309700000.0 11309700000.0 11309700000.0 11309700000.0 11309700000.0 11309700000.0 11309700000.0 11309700000.0 11309700000.0 11309700000.0 11309700000.0 11309700000.0 11309700000.0 11309700000.0 11309700000.0 11309700000.0 11309700000.0 11309700000.0 11309700000.0 11309700000.0 11309700000.0 11309700000.0 11309700000.0 11309700000.0 11309700000.0 11309700000.0 11309700000.0 11309700000.0 11309700000.0 11309700000.0 11309700000.0 11309700000.0 11309700000.0 11309700000.0 11309700000.0 11309700000.0 11309700000.0 11309700000.0 11309700000.0 11309700000.0 11309700000.0 11309700000.0 11309700000.0 11309700000.0 11309700000.0 11309700000.0 11309700000.0 11309700000.0 11309700000.0 11309700000.0 11309700000.0 11309700000.0 11309700000.0 11309700000.0 11309700000.0 11309700000.0 11309700000.0 11309700000.0 11309700000.0 11309700000.0 11309700000.0 11309700000.0 11309700000.0 11309700000.0 11309700000.0 11309700000.0 11309700000.0 11309700000.0 11309700000.0 11309700000.0 11309700000.0 11309700000.0 11309700000.0 11309700000.0 11309700000.0 11309700000.0 11309700000.0 11309700000.0 11309700000.0 11309700000.0 11309700000.0 11309700000.0 11309700000.0 11309700000.0 11309700000.0 11309700000.0 11309700000.0 11309700000.0 11309700000.0 11309700000.0 11309700000.0 11309700000.0 11309700000.0 11309700000.0 11309700000.0 11309700000.0 11309700000.0 11309700000.0 11309700000.0 11309700000.0 11309700000.0 11309700000.0 11309700000.0 11309700000.0 11309700000.0 11309700000.0 11309700000.0 11309700000.0 11309700000.0 11309700000.0 11309700000.0 11309700000.0 11309700000.0 11309700000.0 11309700000.0 11309700000.0 11309700000.0 11309700000.0 11309700000.0 11309700000.0 11309700000.0 11309700000.0 11309700000.0 11309700000.0 11309700000.0 11309700000.0 11309700000.0 11309700000.0 11309700000.0 11309700000.0 11309700000.0 11309700000.0 11309700000.0 11309700000.0 11309700000.0 11309700000.0 11309700000.0 11309700000.0 11309700000.0 11309700000.0 11309700000.0 11309700000.0 11309700000.0 11309700000.0 11309700000.0 11309700000.0 11309700000.0 11309700000.0 11309700000.0 11309700000.0 11309700000.0 11309700000.0 11309700000.0 11309700000.0 11309700000.0 11309700000.0 11309700000.0 11309700000.0 11309700000.0 11309700000.0 11309700000.0 11309700000.0 11309700000.0 11309700000.0 11309700000.0 11309700000.0 11309700000.0 11309700000.0 11309700000.0 11309700000.0 11309700000.0 11309700000.0 11309700000.0 11309700000.0 11309700000.0 11309700000.0 11309700000.0 11309700000.0 11309700000.0 11309700000.0 11309700000.0 11309700000.0 11309700000.0 11309700000.0 11309700000.0 11309700000.0 11309700000.0 11309700000.0 11309700000.0 11309700000.0 11309700000.0 11309700000.0 11309700000.0 11309700000.0 11309700000.0 11309700000.0 11309700000.0 11309700000.0 11309700000.0 11309700000.0 11309700000.0 11309700000.0 11309700000.0 11309700000.0 11309700000.0 11309700000.0 11309700000.0 11309700000.0 11309700000.0 11309700000.0 11309700000.0 11309700000.0 11309700000.0 11309700000.0 11309700000.0 11309700000.0 11309700000.0 11309700000.0 11309700000.0 11309700000.0 11309700000.0 11309700000.0 11309700000.0 11309700000.0 11309700000.0 11309700000.0 11309700000.0 11309700000.0 11309700000.0 11309700000.0 11309700000.0 11309700000.0 11309700000.0 11309700000.0 11309700000.0 11309700000.0 11309700000.0 11309700000.0 11309700000.0 11309700000.0 11309700000.0 11309700000.0 11309700000.0 11309700000.0 11309700000.0 11309700000.0 11309700000.0 11309700000.0 11309700000.0 11309700000.0 11309700000.0 11309700000.0 11309700000.0 11309700000.0 11309700000.0 11309700000.0 11309700000.0 11309700000.0 11309700000.0 11309700000.0 11309700000.0 11309700000.0 11309700000.0 11309700000.0 11309700000.0 11309700000.0 11309700000.0 11309700000.0 11309700000.0 11309700000.0 11309700000.0 11309700000.0 11309700000.0 11309700000.0 11309700000.0 11309700000.0 11309700000.0 11309700000.0 11309700000.0 11309700000.0 11309700000.0 11309700000.0 11309700000.0 11309700000.0 11309700000.0 11309700000.0 11309700000.0 11309700000.0 11309700000.0 11309700000.0 11309700000.0 11309700000.0 11309700000.0 11309700000.0 11309700000.0 11309700000.0 11309700000.0 11309700000.0 11309700000.0 11309700000.0 11309700000.0 11309700000.0 11309700000.0 11309700000.0 11309700000.0 11309700000.0 11309700000.0 11309700000.0 11309700000.0 11309700000.0 11309700000.0 11309700000.0 11309700000.0 11309700000.0 11309700000.0 11309700000.0 11309700000.0 11309700000.0 11309700000.0 11309700000.0 11309700000.0 11309700000.0 11309700000.0 11309700000.0 11309700000.0 11309700000.0 11309700000.0 11309700000.0 11309700000.0 11309700000.0 11309700000.0 11309700000.0 11309700000.0 11309700000.0 11309700000.0 11309700000.0 11309700000.0 11309700000.0 11309700000.0 11309700000.0 11309700000.0 11309700000.0 11309700000.0 11309700000.0 11309700000.0 11309700000.0 11309700000.0 11309700000.0 11309700000.0 11309700000.0 11309700000.0 11309700000.0 11309700000.0 11309700000.0 11309700000.0 11309700000.0 11309700000.0 11309700000.0 11309700000.0 11309700000.0 11309700000.0 11309700000.0 11309700000.0 11309700000.0 11309700000.0 11309700000.0 11309700000.0 11309700000.0 11309700000.0 11309700000.0 11309700000.0 11309700000.0 11309700000.0 11309700000.0 11309700000.0 11309700000.0 11309700000.0 11309700000.0 11309700000.0 11309700000.0 11309700000.0 11309700000.0 11309700000.0 11309700000.0 11309700000.0 11309700000.0 11309700000.0 11309700000.0 11309700000.0 11309700000.0 11309700000.0 11309700000.0 11309700000.0 11309700000.0 11309700000.0 11309700000.0 11309700000.0 11309700000.0 11309700000.0 11309700000.0 11309700000.0 11309700000.0 11309700000.0 11309700000.0 11309700000.0 11309700000.0 11309700000.0 11309700000.0 11309700000.0 11309700000.0 11309700000.0 11309700000.0 11309700000.0 11309700000.0 11309700000.0 11309700000.0 11309700000.0 11309700000.0 11309700000.0 11309700000.0 11309700000.0 11309700000.0 11309700000.0 11309700000.0 11309700000.0 11309700000.0 11309700000.0 11309700000.0 11309700000.0 11309700000.0 11309700000.0 11309700000.0 11309700000.0 11309700000.0 11309700000.0 11309700000.0 11309700000.0 11309700000.0 11309700000.0 11309700000.0 11309700000.0 11309700000.0 11309700000.0 11309700000.0 11309700000.0 11309700000.0 11309700000.0 11309700000.0 11309700000.0 11309700000.0 11309700000.0 11309700000.0 11309700000.0 11309700000.0 11309700000.0 11309700000.0 11309700000.0 11309700000.0 11309700000.0 11309700000.0 11309700000.0 11309700000.0 11309700000.0 11309700000.0 11309700000.0 11309700000.0 11309700000.0 11309700000.0 11309700000.0 11309700000.0 11309700000.0 11309700000.0 11309700000.0 11309700000.0 11309700000.0 11309700000.0 11309700000.0 11309700000.0 11309700000.0 11309700000.0 11309700000.0 11309700000.0 11309700000.0 11309700000.0 11309700000.0 11309700000.0 11309700000.0 11309700000.0 11309700000.0 11309700000.0 11309700000.0 11309700000.0 11309700000.0 11309700000.0 11309700000.0 11309700000.0 11309700000.0 11309700000.0 11309700000.0 11309700000.0 11309700000.0 11309700000.0 11309700000.0 11309700000.0 11309700000.0 11309700000.0 11309700000.0 11309700000.0 11309700000.0 11309700000.0 11309700000.0 11309700000.0 11309700000.0 11309700000.0 11309700000.0 11309700000.0 11309700000.0 11309700000.0 11309700000.0 11309700000.0 11309700000.0 11309700000.0 11309700000.0 11309700000.0 11309700000.0 11309700000.0 11309700000.0 11309700000.0 11309700000.0 11309700000.0 11309700000.0 11309700000.0 11309700000.0 11309700000.0 11309700000.0 11309700000.0 11309700000.0 11309700000.0 11309700000.0 11309700000.0 11309700000.0 11309700000.0 11309700000.0 11309700000.0 11309700000.0 11309700000.0 11309700000.0 11309700000.0 11309700000.0 11309700000.0 11309700000.0 11309700000.0 11309700000.0 11309700000.0 11309700000.0 11309700000.0 11309700000.0 11309700000.0 11309700000.0 11309700000.0 11309700000.0 11309700000.0 11309700000.0 11309700000.0 11309700000.0 11309700000.0 11309700000.0 11309700000.0 11309700000.0 11309700000.0 11309700000.0 11309700000.0 11309700000.0 11309700000.0 11309700000.0 11309700000.0 11309700000.0 11309700000.0 11309700000.0 11309700000.0 11309700000.0 11309700000.0 11309700000.0 11309700000.0 11309700000.0 11309700000.0 11309700000.0 11309700000.0 11309700000.0 11309700000.0 11309700000.0 11309700000.0 11309700000.0 11309700000.0 11309700000.0 11309700000.0 11309700000.0 11309700000.0 11309700000.0 11309700000.0 11309700000.0 11309700000.0 11309700000.0 11309700000.0 11309700000.0 11309700000.0 11309700000.0 11309700000.0 11309700000.0 11309700000.0 11309700000.0 11309700000.0 11309700000.0 11309700000.0 11309700000.0 11309700000.0 11309700000.0 11309700000.0 11309700000.0 11309700000.0 11309700000.0 11309700000.0 11309700000.0 11309700000.0 11309700000.0 11309700000.0 11309700000.0 11309700000.0 11309700000.0 11309700000.0 11309700000.0 11309700000.0 11309700000.0 11309700000.0 11309700000.0 11309700000.0 11309700000.0 11309700000.0 11309700000.0 11309700000.0 11309700000.0 11309700000.0 11309700000.0 11309700000.0 11309700000.0 11309700000.0 11309700000.0 11309700000.0 11309700000.0 11309700000.0 11309700000.0 11309700000.0 11309700000.0 11309700000.0 11309700000.0 11309700000.0 11309700000.0 11309700000.0 11309700000.0 11309700000.0 11309700000.0 11309700000.0 11309700000.0 11309700000.0 11309700000.0 11309700000.0 11309700000.0 11309700000.0 11309700000.0 11309700000.0 11309700000.0 11309700000.0 11309700000.0 11309700000.0 11309700000.0 11309700000.0 11309700000.0 11309700000.0 11309700000.0 11309700000.0 11309700000.0 11309700000.0 11309700000.0 11309700000.0 11309700000.0 11309700000.0 11309700000.0 11309700000.0 11309700000.0 11309700000.0 11309700000.0 11309700000.0 11309700000.0 11309700000.0 11309700000.0 11309700000.0 11309700000.0 11309700000.0 11309700000.0 11309700000.0 11309700000.0 11309700000.0 11309700000.0 11309700000.0 11309700000.0 11309700000.0 11309700000.0 11309700000.0 11309700000.0 11309700000.0 11309700000.0 11309700000.0 11309700000.0 11309700000.0 11309700000.0 11309700000.0 11309700000.0 11309700000.0 11309700000.0 11309700000.0 11309700000.0 11309700000.0 11309700000.0 11309700000.0 11309700000.0 11309700000.0 11309700000.0 11309700000.0 11309700000.0 11309700000.0 11309700000.0 11309700000.0 11309700000.0 11309700000.0 11309700000.0 11309700000.0 11309700000.0 11309700000.0 11309700000.0 11309700000.0 11309700000.0 11309700000.0 11309700000.0 11309700000.0 11309700000.0 11309700000.0 11309700000.0 11309700000.0 11309700000.0 11309700000.0 11309700000.0 11309700000.0 11309700000.0 11309700000.0 11309700000.0 11309700000.0 11309700000.0 11309700000.0 11309700000.0 11309700000.0 11309700000.0 11309700000.0 11309700000.0 11309700000.0 11309700000.0 11309700000.0 11309700000.0 11309700000.0 11309700000.0 11309700000.0 11309700000.0 11309700000.0 11309700000.0 11309700000.0 11309700000.0 11309700000.0 11309700000.0 11309700000.0 11309700000.0 11309700000.0 11309700000.0 11309700000.0 11309700000.0 11309700000.0 11309700000.0 11309700000.0 11309700000.0 11309700000.0 11309700000.0 11309700000.0 11309700000.0 11309700000.0 11309700000.0 11309700000.0 11309700000.0 11309700000.0 11309700000.0 11309700000.0 11309700000.0 11309700000.0 11309700000.0 11309700000.0 11309700000.0 11309700000.0 11309700000.0 11309700000.0 11309700000.0 11309700000.0 11309700000.0 11309700000.0 11309700000.0 11309700000.0 11309700000.0 11309700000.0 11309700000.0 11309700000.0 11309700000.0 11309700000.0 11309700000.0 11309700000.0 11309700000.0 11309700000.0 11309700000.0 11309700000.0 11309700000.0 11309700000.0 11309700000.0 11309700000.0 11309700000.0 11309700000.0 11309700000.0 11309700000.0 11309700000.0 11309700000.0 11309700000.0 11309700000.0 11309700000.0 11309700000.0 11309700000.0 11309700000.0 11309700000.0 11309700000.0 11309700000.0 11309700000.0 11309700000.0 11309700000.0 11309700000.0 11309700000.0 11309700000.0 11309700000.0 11309700000.0 11309700000.0 11309700000.0 11309700000.0 11309700000.0 11309700000.0 11309700000.0 11309700000.0 11309700000.0 11309700000.0 11309700000.0 11309700000.0 11309700000.0 11309700000.0 11309700000.0 11309700000.0 11309700000.0 11309700000.0 11309700000.0 11309700000.0 11309700000.0 11309700000.0 11309700000.0 11309700000.0 11309700000.0 11309700000.0 11309700000.0 11309700000.0 11309700000.0 11309700000.0 11309700000.0 11309700000.0 11309700000.0 11309700000.0 11309700000.0 11309700000.0 11309700000.0 11309700000.0 11309700000.0 11309700000.0 11309700000.0 11309700000.0 11309700000.0 11309700000.0 11309700000.0 11309700000.0 11309700000.0 11309700000.0 11309700000.0 11309700000.0 11309700000.0 11309700000.0 11309700000.0 11309700000.0 11309700000.0 11309700000.0 11309700000.0 11309700000.0 11309700000.0 11309700000.0 11309700000.0 11309700000.0 11309700000.0 11309700000.0 11309700000.0 11309700000.0 11309700000.0 11309700000.0 11309700000.0 11309700000.0 11309700000.0 11309700000.0 11309700000.0 11309700000.0 11309700000.0 11309700000.0 11309700000.0 11309700000.0 11309700000.0 11309700000.0 11309700000.0 11309700000.0 11309700000.0 11309700000.0 11309700000.0 11309700000.0 11309700000.0 11309700000.0 11309700000.0 11309700000.0 11309700000.0 11309700000.0 11309700000.0 11309700000.0 11309700000.0 11309700000.0 11309700000.0 11309700000.0 11309700000.0 11309700000.0 11309700000.0 11309700000.0 11309700000.0 11309700000.0 11309700000.0 11309700000.0 11309700000.0 11309700000.0 11309700000.0 11309700000.0 11309700000.0 11309700000.0 11309700000.0 11309700000.0 11309700000.0 11309700000.0 11309700000.0 11309700000.0 11309700000.0 11309700000.0 11309700000.0 11309700000.0 11309700000.0 11309700000.0 11309700000.0 11309700000.0 11309700000.0 11309700000.0 11309700000.0 11309700000.0 11309700000.0 11309700000.0 11309700000.0 11309700000.0 11309700000.0 11309700000.0 11309700000.0 11309700000.0 11309700000.0 11309700000.0 11309700000.0 11309700000.0 11309700000.0 11309700000.0 11309700000.0 11309700000.0 11309700000.0 11309700000.0 11309700000.0 11309700000.0 11309700000.0 11309700000.0 11309700000.0 11309700000.0 11309700000.0 11309700000.0 11309700000.0 11309700000.0 11309700000.0 11309700000.0 11309700000.0 11309700000.0 11309700000.0 11309700000.0 11309700000.0 11309700000.0 11309700000.0 11309700000.0 11309700000.0 11309700000.0 11309700000.0 11309700000.0 11309700000.0 11309700000.0 11309700000.0 11309700000.0 11309700000.0 11309700000.0 11309700000.0 11309700000.0 11309700000.0 11309700000.0 11309700000.0 11309700000.0 11309700000.0 11309700000.0 11309700000.0 11309700000.0 11309700000.0 11309700000.0 11309700000.0 11309700000.0 11309700000.0 11309700000.0 11309700000.0 11309700000.0 11309700000.0 11309700000.0 11309700000.0 11309700000.0 11309700000.0 11309700000.0 11309700000.0 11309700000.0 11309700000.0 11309700000.0 11309700000.0 11309700000.0 11309700000.0 11309700000.0 11309700000.0 11309700000.0 11309700000.0 11309700000.0 11309700000.0 11309700000.0 11309700000.0 11309700000.0 11309700000.0 11309700000.0 11309700000.0 11309700000.0 11309700000.0 11309700000.0 11309700000.0 11309700000.0 11309700000.0 11309700000.0 11309700000.0 11309700000.0 11309700000.0 11309700000.0 11309700000.0 11309700000.0 11309700000.0 11309700000.0 11309700000.0 11309700000.0 11309700000.0 11309700000.0 11309700000.0 11309700000.0 11309700000.0 11309700000.0 11309700000.0 11309700000.0 11309700000.0 11309700000.0 11309700000.0 11309700000.0 11309700000.0 11309700000.0 11309700000.0 11309700000.0 11309700000.0 11309700000.0 11309700000.0 11309700000.0 11309700000.0 11309700000.0 11309700000.0 11309700000.0 11309700000.0 11309700000.0 11309700000.0 11309700000.0 11309700000.0 11309700000.0 11309700000.0 11309700000.0 11309700000.0 11309700000.0 11309700000.0 11309700000.0 11309700000.0 11309700000.0 11309700000.0 11309700000.0 11309700000.0 11309700000.0 11309700000.0 11309700000.0 11309700000.0 11309700000.0 11309700000.0 11309700000.0 11309700000.0 11309700000.0 11309700000.0 11309700000.0 11309700000.0 11309700000.0 11309700000.0 11309700000.0 11309700000.0 11309700000.0 11309700000.0 11309700000.0 11309700000.0 11309700000.0 11309700000.0 11309700000.0 11309700000.0 11309700000.0 11309700000.0 11309700000.0 11309700000.0 11309700000.0 11309700000.0 11309700000.0 11309700000.0 11309700000.0 11309700000.0 11309700000.0 11309700000.0 11309700000.0 11309700000.0 11309700000.0 11309700000.0 11309700000.0 11309700000.0 11309700000.0 11309700000.0 11309700000.0 11309700000.0 11309700000.0 11309700000.0 11309700000.0 11309700000.0 11309700000.0 11309700000.0 11309700000.0 11309700000.0 11309700000.0 11309700000.0 11309700000.0 11309700000.0 11309700000.0 11309700000.0 11309700000.0 11309700000.0 11309700000.0 11309700000.0 11309700000.0 11309700000.0 11309700000.0 11309700000.0 11309700000.0 11309700000.0 11309700000.0 11309700000.0 11309700000.0 11309700000.0 11309700000.0 11309700000.0 11309700000.0 11309700000.0 11309700000.0 11309700000.0 11309700000.0 11309700000.0 11309700000.0 11309700000.0 11309700000.0 11309700000.0 11309700000.0 11309700000.0 11309700000.0 11309700000.0 11309700000.0 11309700000.0 11309700000.0 11309700000.0 11309700000.0 11309700000.0 11309700000.0 11309700000.0 11309700000.0 11309700000.0 11309700000.0 11309700000.0 11309700000.0 11309700000.0 11309700000.0 11309700000.0 11309700000.0 11309700000.0 11309700000.0 11309700000.0 11309700000.0 11309700000.0 11309700000.0 11309700000.0 11309700000.0 11309700000.0 11309700000.0 11309700000.0 11309700000.0 11309700000.0 11309700000.0 11309700000.0 11309700000.0 11309700000.0 11309700000.0 11309700000.0 11309700000.0 11309700000.0 11309700000.0 11309700000.0 11309700000.0 11309700000.0 11309700000.0 11309700000.0 11309700000.0 11309700000.0 11309700000.0 11309700000.0 11309700000.0 11309700000.0 11309700000.0 11309700000.0 11309700000.0 11309700000.0 11309700000.0 11309700000.0 11309700000.0 11309700000.0 11309700000.0 11309700000.0 11309700000.0 11309700000.0 11309700000.0 11309700000.0 11309700000.0 11309700000.0 11309700000.0 11309700000.0 11309700000.0 11309700000.0 11309700000.0 11309700000.0 11309700000.0 11309700000.0 11309700000.0 11309700000.0 11309700000.0 11309700000.0 11309700000.0 11309700000.0 11309700000.0 11309700000.0 11309700000.0 11309700000.0 11309700000.0 11309700000.0 11309700000.0 11309700000.0 11309700000.0 11309700000.0 11309700000.0 11309700000.0 11309700000.0 11309700000.0 11309700000.0 11309700000.0 11309700000.0 11309700000.0 11309700000.0 11309700000.0 11309700000.0 11309700000.0 11309700000.0 11309700000.0 11309700000.0 11309700000.0 11309700000.0 11309700000.0 11309700000.0 11309700000.0 11309700000.0 11309700000.0 11309700000.0 11309700000.0 11309700000.0 11309700000.0 11309700000.0 11309700000.0 11309700000.0 11309700000.0 11309700000.0 11309700000.0 11309700000.0 11309700000.0 11309700000.0 11309700000.0 11309700000.0 11309700000.0 11309700000.0 11309700000.0 11309700000.0 11309700000.0 11309700000.0 11309700000.0 11309700000.0 11309700000.0 11309700000.0 11309700000.0 11309700000.0 11309700000.0 11309700000.0 11309700000.0 11309700000.0 11309700000.0 11309700000.0 11309700000.0 11309700000.0 11309700000.0 11309700000.0 11309700000.0 11309700000.0 11309700000.0 11309700000.0 11309700000.0 11309700000.0 11309700000.0 11309700000.0 11309700000.0 11309700000.0 11309700000.0 11309700000.0 11309700000.0 11309700000.0 11309700000.0 11309700000.0 11309700000.0 11309700000.0 11309700000.0 11309700000.0 11309700000.0 11309700000.0 11309700000.0 11309700000.0 11309700000.0 11309700000.0 11309700000.0 11309700000.0 11309700000.0 11309700000.0 11309700000.0 11309700000.0 11309700000.0 11309700000.0 11309700000.0 11309700000.0 11309700000.0 11309700000.0 11309700000.0 11309700000.0 11309700000.0 11309700000.0 11309700000.0 11309700000.0 11309700000.0 11309700000.0 11309700000.0 11309700000.0 11309700000.0 11309700000.0 11309700000.0 11309700000.0 11309700000.0 11309700000.0 11309700000.0 11309700000.0 11309700000.0 11309700000.0 11309700000.0 11309700000.0 11309700000.0 11309700000.0 11309700000.0 11309700000.0 11309700000.0 11309700000.0 11309700000.0 11309700000.0 11309700000.0 11309700000.0 11309700000.0 11309700000.0 11309700000.0 11309700000.0 11309700000.0 11309700000.0 11309700000.0 11309700000.0 11309700000.0 11309700000.0 11309700000.0 11309700000.0 11309700000.0 11309700000.0 11309700000.0 11309700000.0 11309700000.0 11309700000.0 11309700000.0 11309700000.0 11309700000.0 11309700000.0 11309700000.0 11309700000.0 11309700000.0 11309700000.0 11309700000.0 11309700000.0 11309700000.0 11309700000.0 11309700000.0 11309700000.0 11309700000.0 11309700000.0 11309700000.0 11309700000.0 11309700000.0 11309700000.0 11309700000.0 11309700000.0 11309700000.0 11309700000.0 11309700000.0 11309700000.0 11309700000.0 11309700000.0 11309700000.0 11309700000.0 11309700000.0 11309700000.0 11309700000.0 11309700000.0 11309700000.0 11309700000.0 11309700000.0 11309700000.0 11309700000.0 11309700000.0 11309700000.0 11309700000.0 11309700000.0 11309700000.0 11309700000.0 11309700000.0 11309700000.0 11309700000.0 11309700000.0 11309700000.0 11309700000.0 11309700000.0 11309700000.0 11309700000.0 11309700000.0 11309700000.0 11309700000.0 11309700000.0 11309700000.0 11309700000.0 11309700000.0 11309700000.0 11309700000.0 11309700000.0 11309700000.0 11309700000.0 11309700000.0 11309700000.0 11309700000.0 11309700000.0 11309700000.0 11309700000.0 11309700000.0 11309700000.0 11309700000.0 11309700000.0 11309700000.0 11309700000.0 11309700000.0 11309700000.0 11309700000.0 11309700000.0 11309700000.0 11309700000.0 11309700000.0 11309700000.0 11309700000.0 11309700000.0 11309700000.0 11309700000.0 11309700000.0 11309700000.0 11309700000.0 11309700000.0 11309700000.0 11309700000.0 11309700000.0 11309700000.0 11309700000.0 11309700000.0 11309700000.0 11309700000.0 11309700000.0 11309700000.0 11309700000.0 11309700000.0 11309700000.0 11309700000.0 11309700000.0 11309700000.0 11309700000.0 11309700000.0 11309700000.0 11309700000.0 11309700000.0 11309700000.0 11309700000.0 11309700000.0 11309700000.0 11309700000.0 11309700000.0 11309700000.0 11309700000.0 11309700000.0 11309700000.0 11309700000.0 11309700000.0 11309700000.0 11309700000.0 11309700000.0 11309700000.0 11309700000.0 11309700000.0 11309700000.0 11309700000.0 11309700000.0 11309700000.0 11309700000.0 11309700000.0 11309700000.0 11309700000.0 11309700000.0 11309700000.0 11309700000.0 11309700000.0 11309700000.0 11309700000.0 11309700000.0 11309700000.0 11309700000.0 11309700000.0 11309700000.0 11309700000.0 11309700000.0 11309700000.0 11309700000.0 11309700000.0 11309700000.0 11309700000.0 11309700000.0 11309700000.0 11309700000.0 11309700000.0 11309700000.0 11309700000.0 11309700000.0 11309700000.0 11309700000.0 11309700000.0 11309700000.0 11309700000.0 11309700000.0 11309700000.0 11309700000.0 11309700000.0 11309700000.0 11309700000.0 11309700000.0 11309700000.0 11309700000.0 11309700000.0 11309700000.0 11309700000.0 11309700000.0 11309700000.0 11309700000.0 11309700000.0 11309700000.0 11309700000.0 11309700000.0 11309700000.0 11309700000.0 11309700000.0 11309700000.0 11309700000.0 11309700000.0 11309700000.0 11309700000.0 11309700000.0 11309700000.0 11309700000.0 11309700000.0 11309700000.0 11309700000.0 11309700000.0 11309700000.0 11309700000.0 11309700000.0 11309700000.0 11309700000.0 11309700000.0 11309700000.0 11309700000.0 11309700000.0 11309700000.0 11309700000.0 11309700000.0 11309700000.0 11309700000.0 11309700000.0 11309700000.0 11309700000.0 11309700000.0 11309700000.0 11309700000.0 11309700000.0 11309700000.0 11309700000.0 11309700000.0 11309700000.0 11309700000.0 11309700000.0 11309700000.0 11309700000.0 11309700000.0 11309700000.0 11309700000.0 11309700000.0 11309700000.0 11309700000.0 11309700000.0 11309700000.0 11309700000.0 11309700000.0 11309700000.0 11309700000.0 11309700000.0 11309700000.0 11309700000.0 11309700000.0 11309700000.0 11309700000.0 11309700000.0 11309700000.0 11309700000.0 11309700000.0 11309700000.0 11309700000.0 11309700000.0 11309700000.0 11309700000.0 11309700000.0 11309700000.0 11309700000.0 11309700000.0 11309700000.0 11309700000.0 11309700000.0 11309700000.0 11309700000.0 11309700000.0 11309700000.0 11309700000.0 11309700000.0 11309700000.0 11309700000.0 11309700000.0 11309700000.0 11309700000.0 11309700000.0 11309700000.0 11309700000.0 11309700000.0 11309700000.0 11309700000.0 11309700000.0 11309700000.0 11309700000.0 11309700000.0 11309700000.0 11309700000.0 11309700000.0 11309700000.0 11309700000.0 11309700000.0 11309700000.0 11309700000.0 11309700000.0 11309700000.0 11309700000.0 11309700000.0 11309700000.0 11309700000.0 11309700000.0 11309700000.0 11309700000.0 11309700000.0 11309700000.0 11309700000.0 11309700000.0 11309700000.0 11309700000.0 11309700000.0 11309700000.0 11309700000.0 11309700000.0 11309700000.0 11309700000.0 11309700000.0 11309700000.0 11309700000.0 11309700000.0 11309700000.0 11309700000.0 11309700000.0 11309700000.0 11309700000.0 11309700000.0 11309700000.0 11309700000.0 11309700000.0 11309700000.0 11309700000.0 11309700000.0 11309700000.0 11309700000.0 11309700000.0 11309700000.0 11309700000.0 11309700000.0 11309700000.0 11309700000.0 11309700000.0 11309700000.0 11309700000.0 11309700000.0 11309700000.0 11309700000.0 11309700000.0 11309700000.0 11309700000.0 11309700000.0 11309700000.0 11309700000.0 11309700000.0 11309700000.0 11309700000.0 11309700000.0 11309700000.0 11309700000.0 11309700000.0 11309700000.0 11309700000.0 11309700000.0 11309700000.0 11309700000.0 11309700000.0 11309700000.0 11309700000.0 11309700000.0 11309700000.0 11309700000.0 11309700000.0 11309700000.0 11309700000.0 11309700000.0 11309700000.0 11309700000.0 11309700000.0 11309700000.0 11309700000.0 11309700000.0 11309700000.0 11309700000.0 11309700000.0 11309700000.0 11309700000.0 11309700000.0 11309700000.0 11309700000.0 11309700000.0 11309700000.0 11309700000.0 11309700000.0 11309700000.0 11309700000.0 11309700000.0 11309700000.0 11309700000.0 11309700000.0 11309700000.0 11309700000.0 11309700000.0 11309700000.0 11309700000.0 11309700000.0 11309700000.0 11309700000.0 11309700000.0 11309700000.0 11309700000.0 11309700000.0 11309700000.0 11309700000.0 11309700000.0 11309700000.0 11309700000.0 11309700000.0 11309700000.0 11309700000.0 11309700000.0 11309700000.0 11309700000.0 11309700000.0 11309700000.0 11309700000.0 11309700000.0 11309700000.0 11309700000.0 11309700000.0 11309700000.0 11309700000.0 11309700000.0 11309700000.0 11309700000.0 11309700000.0 11309700000.0 11309700000.0 11309700000.0 11309700000.0 11309700000.0 11309700000.0 11309700000.0 11309700000.0 11309700000.0 11309700000.0 11309700000.0 11309700000.0 11309700000.0 11309700000.0 11309700000.0 11309700000.0 11309700000.0 11309700000.0 11309700000.0 11309700000.0 11309700000.0 11309700000.0 11309700000.0 11309700000.0 11309700000.0 11309700000.0 11309700000.0 11309700000.0 11309700000.0 11309700000.0 11309700000.0 11309700000.0 11309700000.0 11309700000.0 11309700000.0 11309700000.0 11309700000.0 11309700000.0 11309700000.0 11309700000.0 11309700000.0 11309700000.0 11309700000.0 11309700000.0 11309700000.0 11309700000.0 11309700000.0 11309700000.0 11309700000.0 11309700000.0 11309700000.0 11309700000.0 11309700000.0 11309700000.0 11309700000.0 11309700000.0 11309700000.0 11309700000.0 11309700000.0 11309700000.0 11309700000.0 11309700000.0 11309700000.0 11309700000.0 11309700000.0 11309700000.0 11309700000.0 11309700000.0 11309700000.0 11309700000.0 11309700000.0 11309700000.0 11309700000.0 11309700000.0 11309700000.0 11309700000.0 11309700000.0 11309700000.0 11309700000.0 11309700000.0 11309700000.0 11309700000.0 11309700000.0 11309700000.0 11309700000.0 11309700000.0 11309700000.0 11309700000.0 11309700000.0 11309700000.0 11309700000.0 11309700000.0 11309700000.0 11309700000.0 11309700000.0 11309700000.0 11309700000.0 11309700000.0 11309700000.0 11309700000.0 11309700000.0 11309700000.0 11309700000.0 11309700000.0 11309700000.0 11309700000.0 11309700000.0 11309700000.0 11309700000.0 11309700000.0 11309700000.0 11309700000.0 11309700000.0 11309700000.0 11309700000.0 11309700000.0 11309700000.0 11309700000.0 11309700000.0 11309700000.0 11309700000.0 11309700000.0 11309700000.0 11309700000.0 11309700000.0 11309700000.0 11309700000.0 11309700000.0 11309700000.0 11309700000.0 11309700000.0 11309700000.0 11309700000.0 11309700000.0 11309700000.0 11309700000.0 11309700000.0 11309700000.0 11309700000.0 11309700000.0 11309700000.0 11309700000.0 11309700000.0 11309700000.0 11309700000.0 11309700000.0 11309700000.0 11309700000.0 11309700000.0 11309700000.0 11309700000.0 11309700000.0 11309700000.0 11309700000.0 11309700000.0 11309700000.0 11309700000.0 11309700000.0 11309700000.0 11309700000.0 11309700000.0 11309700000.0 11309700000.0 11309700000.0 11309700000.0 11309700000.0 11309700000.0 11309700000.0 11309700000.0 11309700000.0 11309700000.0 11309700000.0 11309700000.0 11309700000.0 11309700000.0 11309700000.0 11309700000.0 11309700000.0 11309700000.0 11309700000.0 11309700000.0 11309700000.0 11309700000.0 11309700000.0 11309700000.0 11309700000.0 11309700000.0 11309700000.0 11309700000.0 11309700000.0 11309700000.0 11309700000.0 11309700000.0 11309700000.0 11309700000.0 11309700000.0 11309700000.0 11309700000.0 11309700000.0 11309700000.0 11309700000.0 11309700000.0 11309700000.0 11309700000.0 11309700000.0 11309700000.0 11309700000.0 11309700000.0 11309700000.0 11309700000.0 11309700000.0 11309700000.0 11309700000.0 11309700000.0 11309700000.0 11309700000.0 11309700000.0 11309700000.0 11309700000.0 11309700000.0 11309700000.0 11309700000.0 11309700000.0 11309700000.0 11309700000.0 11309700000.0 11309700000.0 11309700000.0 11309700000.0 11309700000.0 11309700000.0 11309700000.0 11309700000.0 11309700000.0 11309700000.0 11309700000.0 11309700000.0 11309700000.0 11309700000.0 11309700000.0 11309700000.0 11309700000.0 11309700000.0 11309700000.0 11309700000.0 11309700000.0 11309700000.0 11309700000.0 11309700000.0 11309700000.0 11309700000.0 11309700000.0 11309700000.0 11309700000.0 11309700000.0 11309700000.0 11309700000.0 11309700000.0 11309700000.0 11309700000.0 11309700000.0 11309700000.0 11309700000.0 11309700000.0 11309700000.0 11309700000.0 11309700000.0 11309700000.0 11309700000.0 11309700000.0 11309700000.0 11309700000.0 11309700000.0 11309700000.0 11309700000.0 11309700000.0 11309700000.0 11309700000.0 11309700000.0 11309700000.0 11309700000.0 11309700000.0 11309700000.0 11309700000.0 11309700000.0 11309700000.0 11309700000.0 11309700000.0 11309700000.0 11309700000.0 11309700000.0 11309700000.0 11309700000.0 11309700000.0 11309700000.0 11309700000.0 11309700000.0 11309700000.0 11309700000.0 11309700000.0 11309700000.0 11309700000.0 11309700000.0 11309700000.0 11309700000.0 11309700000.0 11309700000.0 11309700000.0 11309700000.0 11309700000.0 11309700000.0 11309700000.0 11309700000.0 11309700000.0 11309700000.0 11309700000.0 11309700000.0 11309700000.0 11309700000.0 11309700000.0 11309700000.0 11309700000.0 11309700000.0 11309700000.0 11309700000.0 11309700000.0 11309700000.0 11309700000.0 11309700000.0 11309700000.0 11309700000.0 11309700000.0 11309700000.0 11309700000.0 11309700000.0 11309700000.0 11309700000.0 11309700000.0 11309700000.0 11309700000.0 11309700000.0 11309700000.0 11309700000.0 11309700000.0 11309700000.0 11309700000.0 11309700000.0 11309700000.0 11309700000.0 11309700000.0 11309700000.0 11309700000.0 11309700000.0 11309700000.0 11309700000.0 11309700000.0 11309700000.0 11309700000.0 11309700000.0 11309700000.0 11309700000.0 11309700000.0 11309700000.0 11309700000.0 11309700000.0 11309700000.0 11309700000.0 11309700000.0 11309700000.0 11309700000.0 11309700000.0 11309700000.0 11309700000.0 11309700000.0 11309700000.0 11309700000.0 11309700000.0 11309700000.0 11309700000.0 11309700000.0 11309700000.0 11309700000.0 11309700000.0 11309700000.0 11309700000.0 11309700000.0 11309700000.0 11309700000.0 11309700000.0 11309700000.0 11309700000.0 11309700000.0 11309700000.0 11309700000.0 11309700000.0 11309700000.0 11309700000.0 11309700000.0 11309700000.0 11309700000.0 11309700000.0 11309700000.0 11309700000.0 11309700000.0 11309700000.0 11309700000.0 11309700000.0 11309700000.0 11309700000.0 11309700000.0 11309700000.0 11309700000.0 11309700000.0 11309700000.0 11309700000.0 11309700000.0 11309700000.0 11309700000.0 11309700000.0 11309700000.0 11309700000.0 11309700000.0 11309700000.0 11309700000.0 11309700000.0 11309700000.0 11309700000.0 11309700000.0 11309700000.0 11309700000.0 11309700000.0 11309700000.0 11309700000.0 11309700000.0 11309700000.0 11309700000.0 11309700000.0 11309700000.0 11309700000.0 11309700000.0 11309700000.0 11309700000.0 11309700000.0 11309700000.0 11309700000.0 11309700000.0 11309700000.0 11309700000.0 11309700000.0 11309700000.0 11309700000.0 11309700000.0 11309700000.0 11309700000.0 11309700000.0 11309700000.0 11309700000.0 11309700000.0 11309700000.0 11309700000.0 11309700000.0 11309700000.0 11309700000.0 11309700000.0 11309700000.0 11309700000.0 11309700000.0 11309700000.0 11309700000.0 11309700000.0 11309700000.0 11309700000.0 11309700000.0 11309700000.0 11309700000.0 11309700000.0 11309700000.0 11309700000.0 11309700000.0 11309700000.0 11309700000.0 11309700000.0 11309700000.0 11309700000.0 11309700000.0 11309700000.0 11309700000.0 11309700000.0 11309700000.0 11309700000.0 11309700000.0 11309700000.0 11309700000.0 11309700000.0 11309700000.0 11309700000.0 11309700000.0 11309700000.0 11309700000.0 11309700000.0 11309700000.0 11309700000.0 11309700000.0 11309700000.0 11309700000.0 11309700000.0 11309700000.0 11309700000.0 11309700000.0 11309700000.0 11309700000.0 11309700000.0 11309700000.0 11309700000.0 11309700000.0 11309700000.0 11309700000.0 11309700000.0 11309700000.0 11309700000.0 11309700000.0 11309700000.0 11309700000.0 11309700000.0 11309700000.0 11309700000.0 11309700000.0 11309700000.0 11309700000.0 11309700000.0 11309700000.0 11309700000.0 11309700000.0 11309700000.0 11309700000.0 11309700000.0 11309700000.0 11309700000.0 11309700000.0 11309700000.0 11309700000.0 11309700000.0 11309700000.0 11309700000.0 11309700000.0 11309700000.0 11309700000.0 11309700000.0 11309700000.0 11309700000.0 11309700000.0 11309700000.0 11309700000.0 11309700000.0 11309700000.0 11309700000.0 11309700000.0 11309700000.0 11309700000.0 11309700000.0 11309700000.0 11309700000.0 11309700000.0 11309700000.0 11309700000.0 11309700000.0 11309700000.0 11309700000.0 11309700000.0 11309700000.0 11309700000.0 11309700000.0 11309700000.0 11309700000.0 11309700000.0 11309700000.0 11309700000.0 11309700000.0 11309700000.0 11309700000.0 11309700000.0 11309700000.0 11309700000.0 11309700000.0 11309700000.0 11309700000.0 11309700000.0 11309700000.0 11309700000.0 11309700000.0 11309700000.0 11309700000.0 11309700000.0 11309700000.0 11309700000.0 11309700000.0 11309700000.0 11309700000.0 11309700000.0 11309700000.0 11309700000.0 11309700000.0 11309700000.0 11309700000.0 11309700000.0 11309700000.0 11309700000.0 11309700000.0 11309700000.0 11309700000.0 11309700000.0 11309700000.0 11309700000.0 11309700000.0 11309700000.0 11309700000.0 11309700000.0 11309700000.0 11309700000.0 11309700000.0 11309700000.0 11309700000.0 11309700000.0 11309700000.0 11309700000.0 11309700000.0 11309700000.0 11309700000.0 11309700000.0 11309700000.0 11309700000.0 11309700000.0 11309700000.0 11309700000.0 11309700000.0 11309700000.0 11309700000.0 11309700000.0 11309700000.0 11309700000.0 11309700000.0 11309700000.0 11309700000.0 11309700000.0 11309700000.0 11309700000.0 11309700000.0 11309700000.0 11309700000.0 11309700000.0 11309700000.0 11309700000.0 11309700000.0 11309700000.0 11309700000.0 11309700000.0 11309700000.0 11309700000.0 11309700000.0 11309700000.0 11309700000.0 11309700000.0 11309700000.0 11309700000.0 11309700000.0 11309700000.0 11309700000.0 11309700000.0 11309700000.0 11309700000.0 11309700000.0 11309700000.0 11309700000.0 11309700000.0 11309700000.0 11309700000.0 11309700000.0 11309700000.0 11309700000.0 11309700000.0 11309700000.0 11309700000.0 11309700000.0 11309700000.0 11309700000.0 11309700000.0 11309700000.0 11309700000.0 11309700000.0 11309700000.0 11309700000.0 11309700000.0 11309700000.0 11309700000.0 11309700000.0 11309700000.0 11309700000.0 11309700000.0 11309700000.0 11309700000.0 11309700000.0 11309700000.0 11309700000.0 11309700000.0 11309700000.0 11309700000.0 11309700000.0 11309700000.0 11309700000.0 11309700000.0 11309700000.0 11309700000.0 11309700000.0 11309700000.0 11309700000.0 11309700000.0 11309700000.0 11309700000.0 11309700000.0 11309700000.0 11309700000.0 11309700000.0 11309700000.0 11309700000.0 11309700000.0 11309700000.0 11309700000.0 11309700000.0 11309700000.0 11309700000.0 11309700000.0 11309700000.0 11309700000.0 11309700000.0 11309700000.0 11309700000.0 11309700000.0 11309700000.0 11309700000.0 11309700000.0 11309700000.0 11309700000.0 11309700000.0 11309700000.0 11309700000.0 11309700000.0 11309700000.0 11309700000.0 11309700000.0 11309700000.0 11309700000.0 11309700000.0 11309700000.0 11309700000.0 11309700000.0 11309700000.0 11309700000.0 11309700000.0 11309700000.0 11309700000.0 11309700000.0 11309700000.0 11309700000.0 11309700000.0 11309700000.0 11309700000.0 11309700000.0 11309700000.0 11309700000.0 11309700000.0 11309700000.0 11309700000.0 11309700000.0 11309700000.0 11309700000.0 11309700000.0 11309700000.0 11309700000.0 11309700000.0 11309700000.0 11309700000.0 11309700000.0 11309700000.0 11309700000.0 11309700000.0 11309700000.0 11309700000.0 11309700000.0 11309700000.0 11309700000.0 11309700000.0 11309700000.0 11309700000.0 11309700000.0 11309700000.0 11309700000.0 11309700000.0 11309700000.0 11309700000.0 11309700000.0 11309700000.0 11309700000.0 11309700000.0 11309700000.0 11309700000.0 11309700000.0 11309700000.0 11309700000.0 11309700000.0 11309700000.0 11309700000.0 11309700000.0 11309700000.0 11309700000.0 11309700000.0 11309700000.0 11309700000.0 11309700000.0 11309700000.0 11309700000.0 11309700000.0 11309700000.0 11309700000.0 11309700000.0 11309700000.0 11309700000.0 11309700000.0 11309700000.0 11309700000.0 11309700000.0 11309700000.0 11309700000.0 11309700000.0 11309700000.0 11309700000.0 11309700000.0 11309700000.0 11309700000.0 11309700000.0 11309700000.0 11309700000.0 11309700000.0 11309700000.0 11309700000.0 11309700000.0 11309700000.0 11309700000.0 11309700000.0 11309700000.0 11309700000.0 11309700000.0 11309700000.0 11309700000.0 11309700000.0 11309700000.0 11309700000.0 11309700000.0 11309700000.0 11309700000.0 11309700000.0 11309700000.0 11309700000.0 11309700000.0 11309700000.0 11309700000.0 11309700000.0 11309700000.0 11309700000.0 11309700000.0 11309700000.0 11309700000.0 11309700000.0 11309700000.0 11309700000.0 11309700000.0 11309700000.0 11309700000.0 11309700000.0 11309700000.0 11309700000.0 11309700000.0 11309700000.0 11309700000.0 11309700000.0 11309700000.0 11309700000.0 11309700000.0 11309700000.0 11309700000.0 11309700000.0 11309700000.0 11309700000.0 11309700000.0 11309700000.0 11309700000.0 11309700000.0 11309700000.0 11309700000.0 11309700000.0 11309700000.0 11309700000.0 11309700000.0 11309700000.0 11309700000.0 11309700000.0 11309700000.0 11309700000.0 11309700000.0 11309700000.0 11309700000.0 11309700000.0 11309700000.0 11309700000.0 11309700000.0 11309700000.0 11309700000.0 11309700000.0 11309700000.0 11309700000.0 11309700000.0 11309700000.0 11309700000.0 11309700000.0 11309700000.0 11309700000.0 11309700000.0 11309700000.0 11309700000.0 11309700000.0 11309700000.0 11309700000.0 11309700000.0 11309700000.0 11309700000.0 11309700000.0 11309700000.0 11309700000.0 11309700000.0 11309700000.0 11309700000.0 11309700000.0 11309700000.0 11309700000.0 11309700000.0 11309700000.0 11309700000.0 11309700000.0 11309700000.0 11309700000.0 11309700000.0 11309700000.0 11309700000.0 11309700000.0 11309700000.0 11309700000.0 11309700000.0 11309700000.0 11309700000.0 11309700000.0 11309700000.0 11309700000.0 11309700000.0 11309700000.0 11309700000.0 11309700000.0 11309700000.0 11309700000.0 11309700000.0 11309700000.0 11309700000.0 11309700000.0 11309700000.0 11309700000.0 11309700000.0 11309700000.0 11309700000.0 11309700000.0 11309700000.0 11309700000.0 11309700000.0 11309700000.0 11309700000.0 11309700000.0 11309700000.0 11309700000.0 11309700000.0 11309700000.0 11309700000.0 11309700000.0 11309700000.0 11309700000.0 11309700000.0 11309700000.0 11309700000.0 11309700000.0 11309700000.0 11309700000.0 11309700000.0 11309700000.0 11309700000.0 11309700000.0 11309700000.0 11309700000.0 11309700000.0 11309700000.0 11309700000.0 11309700000.0 11309700000.0 11309700000.0 11309700000.0 11309700000.0 11309700000.0 11309700000.0 11309700000.0 11309700000.0 11309700000.0 11309700000.0 11309700000.0 11309700000.0 11309700000.0 11309700000.0 11309700000.0 11309700000.0 11309700000.0 11309700000.0 11309700000.0 11309700000.0 11309700000.0 11309700000.0 11309700000.0 11309700000.0 11309700000.0 11309700000.0 11309700000.0 11309700000.0 11309700000.0 11309700000.0 11309700000.0 11309700000.0 11309700000.0 11309700000.0 11309700000.0 11309700000.0 11309700000.0 11309700000.0 11309700000.0 11309700000.0 11309700000.0 11309700000.0 11309700000.0 11309700000.0 11309700000.0 11309700000.0 11309700000.0 11309700000.0 11309700000.0 11309700000.0 11309700000.0 11309700000.0 11309700000.0 11309700000.0 11309700000.0 11309700000.0 11309700000.0 11309700000.0 11309700000.0 11309700000.0 11309700000.0 11309700000.0 11309700000.0 11309700000.0 11309700000.0 11309700000.0 11309700000.0 11309700000.0 11309700000.0 11309700000.0 11309700000.0 11309700000.0 11309700000.0 11309700000.0 11309700000.0 11309700000.0 11309700000.0 11309700000.0 11309700000.0 11309700000.0 11309700000.0 11309700000.0 11309700000.0 11309700000.0 11309700000.0 11309700000.0 11309700000.0 11309700000.0 11309700000.0 11309700000.0 11309700000.0 11309700000.0 11309700000.0 11309700000.0 11309700000.0 11309700000.0 11309700000.0 11309700000.0 11309700000.0 11309700000.0 11309700000.0 11309700000.0 11309700000.0 11309700000.0 11309700000.0 11309700000.0 11309700000.0 11309700000.0 11309700000.0 11309700000.0 11309700000.0 11309700000.0 11309700000.0 11309700000.0 11309700000.0 11309700000.0 11309700000.0 11309700000.0 11309700000.0 11309700000.0 11309700000.0 11309700000.0 11309700000.0 11309700000.0 11309700000.0 11309700000.0 11309700000.0 11309700000.0 11309700000.0 11309700000.0 11309700000.0 11309700000.0 11309700000.0 11309700000.0 11309700000.0 11309700000.0 11309700000.0 11309700000.0 11309700000.0 11309700000.0 11309700000.0 11309700000.0 11309700000.0 11309700000.0 11309700000.0 11309700000.0 11309700000.0 11309700000.0 11309700000.0 11309700000.0 11309700000.0 11309700000.0 11309700000.0 11309700000.0 11309700000.0 11309700000.0 11309700000.0 11309700000.0 11309700000.0 11309700000.0 11309700000.0 11309700000.0 11309700000.0 11309700000.0 11309700000.0 11309700000.0 11309700000.0 11309700000.0 11309700000.0 11309700000.0 11309700000.0 11309700000.0 11309700000.0 11309700000.0 11309700000.0 11309700000.0 11309700000.0 11309700000.0 11309700000.0 11309700000.0 11309700000.0 11309700000.0 11309700000.0 11309700000.0 11309700000.0 11309700000.0 11309700000.0 11309700000.0 11309700000.0 11309700000.0 11309700000.0 11309700000.0 11309700000.0 11309700000.0 11309700000.0 11309700000.0 11309700000.0 11309700000.0 11309700000.0 11309700000.0 11309700000.0 11309700000.0 11309700000.0 11309700000.0 11309700000.0 11309700000.0 11309700000.0 11309700000.0 11309700000.0 11309700000.0 11309700000.0 11309700000.0 11309700000.0 11309700000.0 11309700000.0 11309700000.0 11309700000.0 11309700000.0 11309700000.0 11309700000.0 11309700000.0 11309700000.0 11309700000.0 11309700000.0 11309700000.0 11309700000.0 11309700000.0 11309700000.0 11309700000.0 11309700000.0 11309700000.0 11309700000.0 11309700000.0 11309700000.0 11309700000.0 11309700000.0 11309700000.0 11309700000.0 11309700000.0 11309700000.0 11309700000.0 11309700000.0 11309700000.0 11309700000.0 11309700000.0 11309700000.0 11309700000.0 11309700000.0 11309700000.0 11309700000.0 11309700000.0 11309700000.0 11309700000.0 11309700000.0 11309700000.0 11309700000.0 11309700000.0 11309700000.0 11309700000.0 11309700000.0 11309700000.0 11309700000.0 11309700000.0 11309700000.0 11309700000.0 11309700000.0 11309700000.0 11309700000.0 11309700000.0 11309700000.0 11309700000.0 11309700000.0 11309700000.0 11309700000.0 11309700000.0 11309700000.0 11309700000.0 11309700000.0 11309700000.0 11309700000.0 11309700000.0 11309700000.0 11309700000.0 11309700000.0 11309700000.0 11309700000.0 11309700000.0 11309700000.0 11309700000.0 11309700000.0 11309700000.0 11309700000.0 11309700000.0 11309700000.0 11309700000.0 11309700000.0 11309700000.0 11309700000.0 11309700000.0 11309700000.0 11309700000.0 11309700000.0 11309700000.0 11309700000.0 11309700000.0 11309700000.0 11309700000.0 11309700000.0 11309700000.0 11309700000.0 11309700000.0 11309700000.0 11309700000.0 11309700000.0 11309700000.0 11309700000.0 11309700000.0 11309700000.0 11309700000.0 11309700000.0 11309700000.0 11309700000.0 11309700000.0 11309700000.0 11309700000.0 11309700000.0 11309700000.0 11309700000.0 11309700000.0 11309700000.0 11309700000.0 11309700000.0 11309700000.0 11309700000.0 11309700000.0 11309700000.0 11309700000.0 11309700000.0 11309700000.0 11309700000.0 11309700000.0 11309700000.0 11309700000.0 11309700000.0 11309700000.0 11309700000.0 11309700000.0 11309700000.0 11309700000.0 11309700000.0 11309700000.0 11309700000.0 11309700000.0 11309700000.0 11309700000.0 11309700000.0 11309700000.0 11309700000.0 11309700000.0 11309700000.0 11309700000.0 11309700000.0 11309700000.0 11309700000.0 11309700000.0 11309700000.0 11309700000.0 11309700000.0 11309700000.0 11309700000.0 11309700000.0 11309700000.0 11309700000.0 11309700000.0 11309700000.0 11309700000.0 11309700000.0 11309700000.0 11309700000.0 11309700000.0 11309700000.0 11309700000.0 11309700000.0 11309700000.0 11309700000.0 11309700000.0 11309700000.0 11309700000.0 11309700000.0 11309700000.0 11309700000.0 11309700000.0 11309700000.0 11309700000.0 11309700000.0 11309700000.0 11309700000.0 11309700000.0 11309700000.0 11309700000.0 11309700000.0 11309700000.0 11309700000.0 11309700000.0 11309700000.0 11309700000.0 11309700000.0 11309700000.0 11309700000.0 11309700000.0 11309700000.0 11309700000.0 11309700000.0 11309700000.0 11309700000.0 11309700000.0 11309700000.0 11309700000.0 11309700000.0 11309700000.0 11309700000.0 11309700000.0 11309700000.0 11309700000.0 11309700000.0 11309700000.0 11309700000.0 11309700000.0 11309700000.0 11309700000.0 11309700000.0 11309700000.0 11309700000.0 11309700000.0 11309700000.0 11309700000.0 11309700000.0 11309700000.0 11309700000.0 11309700000.0 11309700000.0 11309700000.0 11309700000.0 11309700000.0 11309700000.0 11309700000.0 11309700000.0 11309700000.0 11309700000.0 11309700000.0 11309700000.0 11309700000.0 11309700000.0 11309700000.0 11309700000.0 11309700000.0 11309700000.0 11309700000.0 11309700000.0 11309700000.0 11309700000.0 11309700000.0 11309700000.0 11309700000.0 11309700000.0 11309700000.0 11309700000.0 11309700000.0 11309700000.0 11309700000.0 11309700000.0 11309700000.0 11309700000.0 11309700000.0 11309700000.0 11309700000.0 11309700000.0 11309700000.0 11309700000.0 11309700000.0 11309700000.0 11309700000.0 11309700000.0 11309700000.0 11309700000.0 11309700000.0 11309700000.0 11309700000.0 11309700000.0 11309700000.0 11309700000.0 11309700000.0 11309700000.0 11309700000.0 11309700000.0 11309700000.0 11309700000.0 11309700000.0 11309700000.0 11309700000.0 11309700000.0 11309700000.0 11309700000.0 11309700000.0 11309700000.0 11309700000.0 11309700000.0 11309700000.0 11309700000.0 11309700000.0 11309700000.0 11309700000.0 11309700000.0 11309700000.0 11309700000.0 11309700000.0 11309700000.0 11309700000.0 11309700000.0 11309700000.0 11309700000.0 11309700000.0 11309700000.0 11309700000.0 11309700000.0 11309700000.0 11309700000.0 11309700000.0 11309700000.0 11309700000.0 11309700000.0 11309700000.0 11309700000.0 11309700000.0 11309700000.0 11309700000.0 11309700000.0 11309700000.0 11309700000.0 11309700000.0 11309700000.0 11309700000.0 11309700000.0 11309700000.0 11309700000.0 11309700000.0 11309700000.0 11309700000.0 11309700000.0 11309700000.0 11309700000.0 11309700000.0 11309700000.0 11309700000.0 11309700000.0 11309700000.0 11309700000.0 11309700000.0 11309700000.0 11309700000.0 11309700000.0 11309700000.0 11309700000.0 11309700000.0 11309700000.0 11309700000.0 11309700000.0 11309700000.0 11309700000.0 11309700000.0 11309700000.0 11309700000.0 11309700000.0 11309700000.0 11309700000.0 11309700000.0 11309700000.0 11309700000.0 11309700000.0 11309700000.0 11309700000.0 11309700000.0 11309700000.0 11309700000.0 11309700000.0 11309700000.0 11309700000.0 11309700000.0 11309700000.0 11309700000.0 11309700000.0 11309700000.0 11309700000.0 11309700000.0 11309700000.0 11309700000.0 11309700000.0 11309700000.0 11309700000.0 11309700000.0 11309700000.0 11309700000.0 11309700000.0 11309700000.0 11309700000.0 11309700000.0 11309700000.0 11309700000.0 11309700000.0 11309700000.0 11309700000.0 11309700000.0 11309700000.0 11309700000.0 11309700000.0 11309700000.0 11309700000.0 11309700000.0 11309700000.0 11309700000.0 11309700000.0 11309700000.0 11309700000.0 11309700000.0 11309700000.0 11309700000.0 11309700000.0 11309700000.0 11309700000.0 11309700000.0 11309700000.0 11309700000.0 11309700000.0 11309700000.0 11309700000.0 11309700000.0 11309700000.0 11309700000.0 11309700000.0 11309700000.0 11309700000.0 11309700000.0 11309700000.0 11309700000.0 11309700000.0 11309700000.0 11309700000.0 11309700000.0 11309700000.0 11309700000.0 11309700000.0 11309700000.0 11309700000.0 11309700000.0 11309700000.0 11309700000.0 11309700000.0 11309700000.0 11309700000.0 11309700000.0 11309700000.0 11309700000.0 11309700000.0 11309700000.0 11309700000.0 11309700000.0 11309700000.0 11309700000.0 11309700000.0 11309700000.0 11309700000.0 11309700000.0 11309700000.0 11309700000.0 11309700000.0 11309700000.0 11309700000.0 11309700000.0 11309700000.0 11309700000.0 11309700000.0 11309700000.0 11309700000.0 11309700000.0 11309700000.0 11309700000.0 11309700000.0 11309700000.0 11309700000.0 11309700000.0 11309700000.0 11309700000.0 11309700000.0 11309700000.0 11309700000.0 11309700000.0 11309700000.0 11309700000.0 11309700000.0 11309700000.0 11309700000.0 11309700000.0 11309700000.0 11309700000.0 11309700000.0 11309700000.0 11309700000.0 11309700000.0 11309700000.0 11309700000.0 11309700000.0 11309700000.0 11309700000.0 11309700000.0 11309700000.0 11309700000.0 11309700000.0 11309700000.0 11309700000.0 11309700000.0 11309700000.0 11309700000.0 11309700000.0 11309700000.0 11309700000.0 11309700000.0 11309700000.0 11309700000.0 11309700000.0 11309700000.0 11309700000.0 11309700000.0 11309700000.0 11309700000.0 11309700000.0 11309700000.0 11309700000.0 11309700000.0 11309700000.0 11309700000.0 11309700000.0 11309700000.0 11309700000.0 11309700000.0 11309700000.0 11309700000.0 11309700000.0 11309700000.0 11309700000.0 11309700000.0 11309700000.0 11309700000.0 11309700000.0 11309700000.0 11309700000.0 11309700000.0 11309700000.0 11309700000.0 11309700000.0 11309700000.0 11309700000.0 11309700000.0 11309700000.0 11309700000.0 11309700000.0 11309700000.0 11309700000.0 11309700000.0 11309700000.0 11309700000.0 11309700000.0 11309700000.0 11309700000.0 11309700000.0 11309700000.0 11309700000.0 11309700000.0 11309700000.0 11309700000.0 11309700000.0 11309700000.0 11309700000.0 11309700000.0 11309700000.0 11309700000.0 11309700000.0 11309700000.0 11309700000.0 11309700000.0 11309700000.0 11309700000.0 11309700000.0 11309700000.0 11309700000.0 11309700000.0 11309700000.0 11309700000.0 11309700000.0 11309700000.0 11309700000.0 11309700000.0 11309700000.0 11309700000.0 11309700000.0 11309700000.0 11309700000.0 11309700000.0 11309700000.0 11309700000.0 11309700000.0 11309700000.0 11309700000.0 11309700000.0 11309700000.0 11309700000.0 11309700000.0 11309700000.0 11309700000.0 11309700000.0 11309700000.0 11309700000.0 11309700000.0 11309700000.0 11309700000.0 11309700000.0 11309700000.0 11309700000.0 11309700000.0 11309700000.0 11309700000.0 11309700000.0 11309700000.0 11309700000.0 11309700000.0 11309700000.0 11309700000.0 11309700000.0 11309700000.0 11309700000.0 11309700000.0 11309700000.0 11309700000.0 11309700000.0 11309700000.0 11309700000.0 11309700000.0 11309700000.0 11309700000.0 11309700000.0 11309700000.0 11309700000.0 11309700000.0 11309700000.0 11309700000.0 11309700000.0 11309700000.0 11309700000.0 11309700000.0 11309700000.0 11309700000.0 11309700000.0 11309700000.0 11309700000.0 11309700000.0 11309700000.0 11309700000.0 11309700000.0 11309700000.0 11309700000.0 11309700000.0 11309700000.0 11309700000.0 11309700000.0 11309700000.0 11309700000.0 
SCALARS Velocity float 1
LOOKUP_TABLE default
0.313169 0.559785 1.28906 0.791427 0.962793 0.878008 0.906905 0.891031 0.895212 0.895506 0.896285 0.896632 0.8967 0.896572 0.896358 0.896087 0.895796 0.895503 0.895238 0.89501 0.894802 0.894617 0.894465 0.894345 0.894243 0.894155 0.89408 0.89402 0.893973 0.893935 0.893903 0.893878 0.893858 0.893844 0.893835 0.893833 0.893835 0.893844 0.893858 0.893878 0.893903 0.893935 0.893973 0.89402 0.89408 0.894155 0.894243 0.894345 0.894465 0.894617 0.894802 0.89501 0.895238 0.895503 0.895796 0.896087 0.896358 0.896572 0.8967 0.896632 0.896285 0.895506 0.895212 0.891031 0.906905 0.878008 0.962793 0.791427 1.28906 0.559785 0.313169 0.14119 0.464499 1.23432 0.80341 0.954305 0.880171 0.904164 0.89156 0.896342 0.896626 0.897368 0.897903 0.897967 0.897758 0.897374 0.89695 0.896543 0.896163 0.895802 0.895463 0.895162 0.89491 0.894705 0.894535 0.894389 0.894264 0.894161 0.894078 0.894014 0.893963 0.893923 0.89389 0.893865 0.893847 0.893836 0.893832 0.893836 0.893847 0.893865 0.89389 0.893923 0.893963 0.894014 0.894078 0.894161 0.894264 0.894389 0.894535 0.894705 0.89491 0.895162 0.895463 0.895802 0.896163 0.896543 0.89695 0.897374 0.897758 0.897967 0.897903 0.897368 0.896626 0.896342 0.89156 0.904164 0.880171 0.954305 0.80341 1.23432 0.464499 0.14119 0.487106 0.257944 0.257944 0.487106 0.473516 0.549494 0.749913 1.0276 0.776328 0.945163 0.878626 0.900173 0.895335 0.898243 0.898623 0.898742 0.898683 0.898484 0.898075 0.897509 0.89691 0.896364 0.895895 0.895489 0.895137 0.894839 0.894596 0.894403 0.894253 0.894138 0.89405 0.893984 0.893936 0.893901 0.893876 0.893859 0.893848 0.89384 0.893836 0.893833 0.893832 0.893833 0.893836 0.89384 0.893848 0.893859 0.893876 0.893901 0.893936 0.893984 0.89405 0.894138 0.894253 0.894403 0.894596 0.894839 0.895137 0.895489 0.895895 0.896364 0.89691 0.897509 0.898075 0.898484 0.898683 0.898742 0.898623 0.898243 0.895335 0.900173 0.878626 0.945163 0.776328 1.0276 0.749913 0.549494 0.473516 0.243859 0.745133 0.741515 0.839635 1.05322 0.884511 0.987211 0.920716 0.932693 0.917007 0.908611 0.903 0.89886 0.897607 0.896642 0.895911 0.895362 0.894938 0.894603 0.894357 0.894188 0.894069 0.893986 0.893932 0.893899 0.893877 0.893862 0.893851 0.893845 0.893841 0.893839 0.893837 0.893836 0.893835 0.893834 0.893833 0.893832 0.893832 0.893832 0.893833 0.893834 0.893835 0.893836 0.893837 0.893839 0.893841 0.893845 0.893851 0.893862 0.893877 0.893899 0.893932 0.893986 0.894069 0.894188 0.894357 0.894603 0.894938 0.895362 0.895911 0.896642 0.897607 0.89886 0.903 0.908611 0.917007 0.932693 0.920716 0.987211 0.884511 1.05322 0.839635 0.741515 0.745133 0.243859 0.737134 0.648117 0.724147 0.724147 0.648117 0.737134 0.679063 0.939926 0.672778 0.61297 0.684473 0.798254 0.901092 0.873746 0.89032 0.890501 0.890482 0.892139 0.89433 0.894231 0.894269 0.894378 0.894456 0.89448 0.894455 0.894388 0.894298 0.894206 0.894124 0.894055 0.893999 0.893955 0.893921 0.893894 0.893875 0.893861 0.893851 0.893844 0.89384 0.893837 0.893834 0.893833 0.893832 0.893832 0.893832 0.893833 0.893834 0.893837 0.89384 0.893844 0.893851 0.893861 0.893875 0.893894 0.893921 0.893955 0.893999 0.894055 0.894124 0.894206 0.894298 0.894388 0.894455 0.89448 0.894456 0.894378 0.894269 0.894231 0.89433 0.892139 0.890482 0.890501 0.89032 0.873746 0.901092 0.798254 0.684473 0.61297 0.672778 0.939926 0.679063 0.557511 0.934575 0.825216 0.89386 0.879166 0.893859 0.893851 0.893833 0.893826 0.893839 0.893833 0.893842 0.893863 0.89386 0.893844 0.893835 0.893833 0.893832 0.893832 0.893832 0.893832 0.893832 0.893832 0.893832 0.893832 0.893832 0.893832 0.893832 0.893832 0.893832 0.893832 0.893832 0.893832 0.893832 0.893832 0.893832 0.893832 0.893832 0.893832 0.893832 0.893832 0.893832 0.893832 0.893832 0.893832 0.893832 0.893832 0.893832 0.893832 0.893832 0.893832 0.893832 0.893833 0.893835 0.893844 0.89386 0.893863 0.893842 0.893833 0.893839 0.893826 0.893833 0.893851 0.893859 0.879166 0.89386 0.825216 0.934575 0.557511 0.783165 0.915236 0.882078 0.882078 0.915236 0.783165 0.930722 0.763319 0.897475 0.547368 0.943384 0.848536 0.895323 0.894541 0.894761 0.894864 0.8947 0.894563 0.894609 0.894675 0.894638 0.894526 0.894389 0.894253 0.894133 0.894037 0.893966 0.893917 0.893884 0.893864 0.893851 0.893843 0.893839 0.893836 0.893834 0.893833 0.893833 0.893833 0.893832 0.893832 0.893832 0.893832 0.893832 0.893832 0.893832 0.893832 0.893832 0.893832 0.893832 0.893833 0.893833 0.893833 0.893834 0.893836 0.893839 0.893843 0.893851 0.893864 0.893884 0.893917 0.893966 0.894037 0.894133 0.894253 0.894389 0.894526 0.894638 0.894675 0.894609 0.894563 0.8947 0.894864 0.894761 0.894541 0.895323 0.848536 0.943384 0.547368 0.897475 0.763319 0.930722 0.894884 1.02578 0.770349 0.899769 0.869982 0.893832 0.893832 0.893832 0.893832 0.893832 0.893832 0.893832 0.893832 0.893832 0.893832 0.893832 0.893833 0.893833 0.893834 0.893833 0.893833 0.893832 0.893832 0.893832 0.893832 0.893832 0.893832 0.893832 0.893832 0.893832 0.893832 0.893832 0.893832 0.893832 0.893832 0.893832 0.893832 0.893832 0.893832 0.893832 0.893832 0.893832 0.893832 0.893832 0.893832 0.893832 0.893832 0.893832 0.893832 0.893832 0.893832 0.893832 0.893833 0.893833 0.893834 0.893833 0.893833 0.893832 0.893832 0.893832 0.893832 0.893832 0.893832 0.893832 0.893832 0.893832 0.893832 0.893832 0.869982 0.899769 0.770349 1.02578 0.894884 0.921304 0.921304 0.952417 0.853625 0.99275 0.707006 0.902921 0.890842 0.894336 0.894173 0.894063 0.893993 0.893945 0.893912 0.89389 0.893875 0.893862 0.893853 0.893846 0.893841 0.893838 0.893835 0.893834 0.893833 0.893833 0.893832 0.893832 0.893832 0.893832 0.893832 0.893832 0.893832 0.893832 0.893832 0.893832 0.893832 0.893832 0.893832 0.893832 0.893832 0.893832 0.893832 0.893832 0.893832 0.893832 0.893832 0.893832 0.893832 0.893832 0.893832 0.893832 0.893832 0.893832 0.893832 0.893833 0.893833 0.893834 0.893835 0.893838 0.893841 0.893846 0.893853 0.893862 0.893875 0.89389 0.893912 0.893945 0.893993 0.894063 0.894173 0.894336 0.890842 0.902921 0.707006 0.99275 0.853625 0.952417 0.718033 0.893975 0.893791 0.89391 0.893894 0.893878 0.893863 0.893852 0.893845 0.89384 0.893837 0.893836 0.893835 0.893835 0.893834 0.893834 0.893833 0.893833 0.893832 0.893832 0.893832 0.893832 0.893832 0.893832 0.893832 0.893832 0.893832 0.893832 0.893832 0.893832 0.893832 0.893832 0.893832 0.893832 0.893832 0.893832 0.893832 0.893832 0.893832 0.893832 0.893832 0.893832 0.893832 0.893832 0.893832 0.893832 0.893832 0.893832 0.893832 0.893832 0.893832 0.893833 0.893833 0.893834 0.893834 0.893835 0.893835 0.893836 0.893837 0.89384 0.893845 0.893852 0.893863 0.893878 0.893894 0.89391 0.893791 0.893975 0.718033 0.941142 0.851225 0.952604 0.952604 0.851225 0.941142 0.926624 0.856091 0.917943 0.734294 0.894001 0.893946 0.893908 0.893888 0.893869 0.893856 0.893847 0.893842 0.893839 0.893837 0.893836 0.893835 0.893834 0.893834 0.893833 0.893833 0.893832 0.893832 0.893832 0.893832 0.893832 0.893832 0.893832 0.893832 0.893832 0.893832 0.893832 0.893832 0.893832 0.893832 0.893832 0.893832 0.893832 0.893832 0.893832 0.893832 0.893832 0.893832 0.893832 0.893832 0.893832 0.893832 0.893832 0.893832 0.893832 0.893832 0.893832 0.893832 0.893832 0.893832 0.893832 0.893833 0.893833 0.893834 0.893834 0.893835 0.893836 0.893837 0.893839 0.893842 0.893847 0.893856 0.893869 0.893888 0.893908 0.893946 0.894001 0.734294 0.917943 0.856091 0.926624 0.757808 0.893927 0.893928 0.893894 0.893875 0.89386 0.89385 0.893844 0.89384 0.893837 0.893836 0.893835 0.893834 0.893834 0.893833 0.893833 0.893832 0.893832 0.893832 0.893832 0.893832 0.893832 0.893832 0.893832 0.893832 0.893832 0.893832 0.893832 0.893832 0.893832 0.893832 0.893832 0.893832 0.893832 0.893832 0.893832 0.893832 0.893832 0.893832 0.893832 0.893832 0.893832 0.893832 0.893832 0.893832 0.893832 0.893832 0.893832 0.893832 0.893832 0.893832 0.893832 0.893832 0.893833 0.893833 0.893834 0.893834 0.893835 0.893836 0.893837 0.89384 0.893844 0.89385 0.89386 0.893875 0.893894 0.893928 0.893927 0.757808 0.912768 0.863763 0.894747 0.894747 0.863763 0.912768 0.900508 0.871179 0.880697 0.783193 0.893911 0.893908 0.893879 0.893863 0.893852 0.893845 0.89384 0.893838 0.893836 0.893835 0.893834 0.893833 0.893833 0.893833 0.893832 0.893832 0.893832 0.893832 0.893832 0.893832 0.893832 0.893832 0.893832 0.893832 0.893832 0.893832 0.893832 0.893832 0.893832 0.893832 0.893832 0.893832 0.893832 0.893832 0.893832 0.893832 0.893832 0.893832 0.893832 0.893832 0.893832 0.893832 0.893832 0.893832 0.893832 0.893832 0.893832 0.893832 0.893832 0.893832 0.893832 0.893832 0.893832 0.893833 0.893833 0.893833 0.893834 0.893835 0.893836 0.893838 0.89384 0.893845 0.893852 0.893863 0.893879 0.893908 0.893911 0.783193 0.880697 0.871179 0.900508 0.889921 0.877711 0.872417 0.807156 0.893894 0.893886 0.893865 0.893853 0.893846 0.893841 0.893838 0.893836 0.893835 0.893834 0.893833 0.893833 0.893833 0.893832 0.893832 0.893832 0.893832 0.893832 0.893832 0.893832 0.893832 0.893832 0.893832 0.893832 0.893832 0.893832 0.893832 0.893832 0.893832 0.893832 0.893832 0.893832 0.893832 0.893832 0.893832 0.893832 0.893832 0.893832 0.893832 0.893832 0.893832 0.893832 0.893832 0.893832 0.893832 0.893832 0.893832 0.893832 0.893832 0.893832 0.893832 0.893832 0.893832 0.893832 0.893833 0.893833 0.893833 0.893834 0.893835 0.893836 0.893838 0.893841 0.893846 0.893853 0.893865 0.893886 0.893894 0.807156 0.872417 0.877711 0.889921 0.881306 0.882398 0.867773 0.828658 0.893876 0.893865 0.893852 0.893844 0.89384 0.893837 0.893835 0.893834 0.893834 0.893833 0.893833 0.893832 0.893832 0.893832 0.893832 0.893832 0.893832 0.893832 0.893832 0.893832 0.893832 0.893832 0.893832 0.893832 0.893832 0.893832 0.893832 0.893832 0.893832 0.893832 0.893832 0.893832 0.893832 0.893832 0.893832 0.893832 0.893832 0.893832 0.893832 0.893832 0.893832 0.893832 0.893832 0.893832 0.893832 0.893832 0.893832 0.893832 0.893832 0.893832 0.893832 0.893832 0.893832 0.893832 0.893832 0.893832 0.893833 0.893833 0.893834 0.893834 0.893835 0.893837 0.89384 0.893844 0.893852 0.893865 0.893876 0.828658 0.867773 0.882398 0.881306 0.874873 0.885093 0.865596 0.847142 0.89386 0.893845 0.893841 0.893837 0.893835 0.893834 0.893833 0.893833 0.893832 0.893832 0.893832 0.893832 0.893832 0.893832 0.893832 0.893832 0.893832 0.893832 0.893832 0.893832 0.893832 0.893832 0.893832 0.893832 0.893832 0.893832 0.893832 0.893832 0.893832 0.893832 0.893832 0.893832 0.893832 0.893832 0.893832 0.893832 0.893832 0.893832 0.893832 0.893832 0.893832 0.893832 0.893832 0.893832 0.893832 0.893832 0.893832 0.893832 0.893832 0.893832 0.893832 0.893832 0.893832 0.893832 0.893832 0.893832 0.893832 0.893832 0.893832 0.893833 0.893833 0.893834 0.893835 0.893837 0.893841 0.893845 0.89386 0.847142 0.865596 0.885093 0.874873 0.870567 0.88608 0.865272 0.861963 0.893849 0.893828 0.893832 0.893831 0.893831 0.893831 0.893831 0.893831 0.893831 0.893832 0.893832 0.893832 0.893832 0.893832 0.893832 0.893832 0.893832 0.893832 0.893832 0.893832 0.893832 0.893832 0.893832 0.893832 0.893832 0.893832 0.893832 0.893832 0.893832 0.893832 0.893832 0.893832 0.893832 0.893832 0.893832 0.893832 0.893832 0.893832 0.893832 0.893832 0.893832 0.893832 0.893832 0.893832 0.893832 0.893832 0.893832 0.893832 0.893832 0.893832 0.893832 0.893832 0.893832 0.893832 0.893832 0.893832 0.893832 0.893832 0.893831 0.893831 0.893831 0.893831 0.893831 0.893831 0.893832 0.893828 0.893849 0.861963 0.865272 0.88608 0.870567 0.868217 0.885651 0.866316 0.87301 0.89384 0.893814 0.893824 0.893825 0.893827 0.893828 0.893829 0.89383 0.893831 0.893831 0.893831 0.893832 0.893832 0.893832 0.893832 0.893832 0.893832 0.893832 0.893832 0.893832 0.893832 0.893832 0.893832 0.893832 0.893832 0.893832 0.893832 0.893832 0.893832 0.893832 0.893832 0.893832 0.893832 0.893832 0.893832 0.893832 0.893832 0.893832 0.893832 0.893832 0.893832 0.893832 0.893832 0.893832 0.893832 0.893832 0.893832 0.893832 0.893832 0.893832 0.893832 0.893832 0.893832 0.893832 0.893832 0.893832 0.893831 0.893831 0.893831 0.89383 0.893829 0.893828 0.893827 0.893825 0.893824 0.893814 0.89384 0.87301 0.866316 0.885651 0.868217 0.867591 0.884351 0.868224 0.8808 0.893833 0.893803 0.893818 0.893821 0.893824 0.893826 0.893828 0.893829 0.89383 0.893831 0.893831 0.893831 0.893832 0.893832 0.893832 0.893832 0.893832 0.893832 0.893832 0.893832 0.893832 0.893832 0.893832 0.893832 0.893832 0.893832 0.893832 0.893832 0.893832 0.893832 0.893832 0.893832 0.893832 0.893832 0.893832 0.893832 0.893832 0.893832 0.893832 0.893832 0.893832 0.893832 0.893832 0.893832 0.893832 0.893832 0.893832 0.893832 0.893832 0.893832 0.893832 0.893832 0.893832 0.893832 0.893832 0.893831 0.893831 0.893831 0.89383 0.893829 0.893828 0.893826 0.893824 0.893821 0.893818 0.893803 0.893833 0.8808 0.868224 0.884351 0.867591 0.868376 0.882855 0.870598 0.886054 0.893826 0.893795 0.893814 0.893818 0.893822 0.893825 0.893827 0.893829 0.89383 0.893831 0.893831 0.893831 0.893831 0.893832 0.893832 0.893832 0.893832 0.893832 0.893832 0.893832 0.893832 0.893832 0.893832 0.893832 0.893832 0.893832 0.893832 0.893832 0.893832 0.893832 0.893832 0.893832 0.893832 0.893832 0.893832 0.893832 0.893832 0.893832 0.893832 0.893832 0.893832 0.893832 0.893832 0.893832 0.893832 0.893832 0.893832 0.893832 0.893832 0.893832 0.893832 0.893832 0.893832 0.893832 0.893831 0.893831 0.893831 0.893831 0.89383 0.893829 0.893827 0.893825 0.893822 0.893818 0.893814 0.893795 0.893826 0.886054 0.870598 0.882855 0.868376 0.870187 0.88165 0.873207 0.88941 0.89382 0.89379 0.89381 0.893816 0.893821 0.893824 0.893827 0.893828 0.89383 0.89383 0.893831 0.893831 0.893831 0.893832 0.893832 0.893832 0.893832 0.893832 0.893832 0.893832 0.893832 0.893832 0.893832 0.893832 0.893832 0.893832 0.893832 0.893832 0.893832 0.893832 0.893832 0.893832 0.893832 0.893832 0.893832 0.893832 0.893832 0.893832 0.893832 0.893832 0.893832 0.893832 0.893832 0.893832 0.893832 0.893832 0.893832 0.893832 0.893832 0.893832 0.893832 0.893832 0.893832 0.893832 0.893831 0.893831 0.893831 0.89383 0.89383 0.893828 0.893827 0.893824 0.893821 0.893816 0.89381 0.89379 0.89382 0.88941 0.873207 0.88165 0.870187 0.872628 0.880946 0.875921 0.891408 0.893816 0.893787 0.893809 0.893815 0.89382 0.893824 0.893827 0.893828 0.893829 0.89383 0.893831 0.893831 0.893831 0.893832 0.893832 0.893832 0.893832 0.893832 0.893832 0.893832 0.893832 0.893832 0.893832 0.893832 0.893832 0.893832 0.893832 0.893832 0.893832 0.893832 0.893832 0.893832 0.893832 0.893832 0.893832 0.893832 0.893832 0.893832 0.893832 0.893832 0.893832 0.893832 0.893832 0.893832 0.893832 0.893832 0.893832 0.893832 0.893832 0.893832 0.893832 0.893832 0.893832 0.893832 0.893831 0.893831 0.893831 0.89383 0.893829 0.893828 0.893827 0.893824 0.89382 0.893815 0.893809 0.893787 0.893816 0.891408 0.875921 0.880946 0.872628 0.875343 0.88076 0.878628 0.89251 0.893813 0.893787 0.893808 0.893815 0.89382 0.893824 0.893827 0.893828 0.893829 0.89383 0.893831 0.893831 0.893831 0.893832 0.893832 0.893832 0.893832 0.893832 0.893832 0.893832 0.893832 0.893832 0.893832 0.893832 0.893832 0.893832 0.893832 0.893832 0.893832 0.893832 0.893832 0.893832 0.893832 0.893832 0.893832 0.893832 0.893832 0.893832 0.893832 0.893832 0.893832 0.893832 0.893832 0.893832 0.893832 0.893832 0.893832 0.893832 0.893832 0.893832 0.893832 0.893832 0.893832 0.893832 0.893831 0.893831 0.893831 0.89383 0.893829 0.893828 0.893827 0.893824 0.89382 0.893815 0.893808 0.893787 0.893813 0.89251 0.878628 0.88076 0.875343 0.878048 0.881023 0.881219 0.893076 0.893811 0.893788 0.893808 0.893815 0.89382 0.893824 0.893827 0.893828 0.893829 0.89383 0.893831 0.893831 0.893831 0.893832 0.893832 0.893832 0.893832 0.893832 0.893832 0.893832 0.893832 0.893832 0.893832 0.893832 0.893832 0.893832 0.893832 0.893832 0.893832 0.893832 0.893832 0.893832 0.893832 0.893832 0.893832 0.893832 0.893832 0.893832 0.893832 0.893832 0.893832 0.893832 0.893832 0.893832 0.893832 0.893832 0.893832 0.893832 0.893832 0.893832 0.893832 0.893832 0.893832 0.893832 0.893831 0.893831 0.893831 0.89383 0.893829 0.893828 0.893827 0.893824 0.89382 0.893815 0.893808 0.893788 0.893811 0.893076 0.881219 0.881023 0.878048 0.880549 0.881634 0.883602 0.893348 0.893809 0.89379 0.893809 0.893816 0.893821 0.893824 0.893827 0.893828 0.89383 0.89383 0.893831 0.893831 0.893831 0.893832 0.893832 0.893832 0.893832 0.893832 0.893832 0.893832 0.893832 0.893832 0.893832 0.893832 0.893832 0.893832 0.893832 0.893832 0.893832 0.893832 0.893832 0.893832 0.893832 0.893832 0.893832 0.893832 0.893832 0.893832 0.893832 0.893832 0.893832 0.893832 0.893832 0.893832 0.893832 0.893832 0.893832 0.893832 0.893832 0.893832 0.893832 0.893832 0.893832 0.893832 0.893831 0.893831 0.893831 0.89383 0.89383 0.893828 0.893827 0.893824 0.893821 0.893816 0.893809 0.89379 0.893809 0.893348 0.883602 0.881634 0.880549 0.882739 0.882492 0.885715 0.893476 0.893809 0.893793 0.89381 0.893817 0.893822 0.893825 0.893827 0.893829 0.89383 0.89383 0.893831 0.893831 0.893831 0.893832 0.893832 0.893832 0.893832 0.893832 0.893832 0.893832 0.893832 0.893832 0.893832 0.893832 0.893832 0.893832 0.893832 0.893832 0.893832 0.893832 0.893832 0.893832 0.893832 0.893832 0.893832 0.893832 0.893832 0.893832 0.893832 0.893832 0.893832 0.893832 0.893832 0.893832 0.893832 0.893832 0.893832 0.893832 0.893832 0.893832 0.893832 0.893832 0.893832 0.893832 0.893831 0.893831 0.893831 0.89383 0.89383 0.893829 0.893827 0.893825 0.893822 0.893817 0.89381 0.893793 0.893809 0.893476 0.885715 0.882492 0.882739 0.88458 0.883504 0.887526 0.893541 0.893809 0.893797 0.893812 0.893818 0.893823 0.893826 0.893828 0.893829 0.89383 0.89383 0.893831 0.893831 0.893831 0.893832 0.893832 0.893832 0.893832 0.893832 0.893832 0.893832 0.893832 0.893832 0.893832 0.893832 0.893832 0.893832 0.893832 0.893832 0.893832 0.893832 0.893832 0.893832 0.893832 0.893832 0.893832 0.893832 0.893832 0.893832 0.893832 0.893832 0.893832 0.893832 0.893832 0.893832 0.893832 0.893832 0.893832 0.893832 0.893832 0.893832 0.893832 0.893832 0.893832 0.893832 0.893831 0.893831 0.893831 0.89383 0.89383 0.893829 0.893828 0.893826 0.893823 0.893818 0.893812 0.893797 0.893809 0.893541 0.887526 0.883504 0.88458 0.886087 0.884591 0.889032 0.893581 0.89381 0.893801 0.893814 0.893819 0.893823 0.893826 0.893828 0.893829 0.89383 0.893831 0.893831 0.893831 0.893832 0.893832 0.893832 0.893832 0.893832 0.893832 0.893832 0.893832 0.893832 0.893832 0.893832 0.893832 0.893832 0.893832 0.893832 0.893832 0.893832 0.893832 0.893832 0.893832 0.893832 0.893832 0.893832 0.893832 0.893832 0.893832 0.893832 0.893832 0.893832 0.893832 0.893832 0.893832 0.893832 0.893832 0.893832 0.893832 0.893832 0.893832 0.893832 0.893832 0.893832 0.893832 0.893832 0.893831 0.893831 0.893831 0.89383 0.893829 0.893828 0.893826 0.893823 0.893819 0.893814 0.893801 0.89381 0.893581 0.889032 0.884591 0.886087 0.887304 0.885693 0.890249 0.893612 0.893811 0.893804 0.893816 0.893821 0.893824 0.893827 0.893828 0.893829 0.89383 0.893831 0.893831 0.893831 0.893832 0.893832 0.893832 0.893832 0.893832 0.893832 0.893832 0.893832 0.893832 0.893832 0.893832 0.893832 0.893832 0.893832 0.893832 0.893832 0.893832 0.893832 0.893832 0.893832 0.893832 0.893832 0.893832 0.893832 0.893832 0.893832 0.893832 0.893832 0.893832 0.893832 0.893832 0.893832 0.893832 0.893832 0.893832 0.893832 0.893832 0.893832 0.893832 0.893832 0.893832 0.893832 0.893832 0.893831 0.893831 0.893831 0.89383 0.893829 0.893828 0.893827 0.893824 0.893821 0.893816 0.893804 0.893811 0.893612 0.890249 0.885693 0.887304 0.888283 0.886763 0.891207 0.893642 0.893812 0.893808 0.893818 0.893822 0.893825 0.893827 0.893829 0.89383 0.89383 0.893831 0.893831 0.893831 0.893832 0.893832 0.893832 0.893832 0.893832 0.893832 0.893832 0.893832 0.893832 0.893832 0.893832 0.893832 0.893832 0.893832 0.893832 0.893832 0.893832 0.893832 0.893832 0.893832 0.893832 0.893832 0.893832 0.893832 0.893832 0.893832 0.893832 0.893832 0.893832 0.893832 0.893832 0.893832 0.893832 0.893832 0.893832 0.893832 0.893832 0.893832 0.893832 0.893832 0.893832 0.893832 0.893832 0.893831 0.893831 0.893831 0.89383 0.89383 0.893829 0.893827 0.893825 0.893822 0.893818 0.893808 0.893812 0.893642 0.891207 0.886763 0.888283 0.889078 0.88777 0.891942 0.89367 0.893814 0.893812 0.89382 0.893823 0.893826 0.893828 0.893829 0.89383 0.893831 0.893831 0.893831 0.893832 0.893832 0.893832 0.893832 0.893832 0.893832 0.893832 0.893832 0.893832 0.893832 0.893832 0.893832 0.893832 0.893832 0.893832 0.893832 0.893832 0.893832 0.893832 0.893832 0.893832 0.893832 0.893832 0.893832 0.893832 0.893832 0.893832 0.893832 0.893832 0.893832 0.893832 0.893832 0.893832 0.893832 0.893832 0.893832 0.893832 0.893832 0.893832 0.893832 0.893832 0.893832 0.893832 0.893832 0.893832 0.893831 0.893831 0.893831 0.89383 0.893829 0.893828 0.893826 0.893823 0.89382 0.893812 0.893814 0.89367 0.891942 0.88777 0.889078 0.889734 0.888694 0.892494 0.893696 0.893815 0.893815 0.893821 0.893825 0.893827 0.893829 0.89383 0.89383 0.893831 0.893831 0.893831 0.893832 0.893832 0.893832 0.893832 0.893832 0.893832 0.893832 0.893832 0.893832 0.893832 0.893832 0.893832 0.893832 0.893832 0.893832 0.893832 0.893832 0.893832 0.893832 0.893832 0.893832 0.893832 0.893832 0.893832 0.893832 0.893832 0.893832 0.893832 0.893832 0.893832 0.893832 0.893832 0.893832 0.893832 0.893832 0.893832 0.893832 0.893832 0.893832 0.893832 0.893832 0.893832 0.893832 0.893832 0.893832 0.893831 0.893831 0.893831 0.89383 0.89383 0.893829 0.893827 0.893825 0.893821 0.893815 0.893815 0.893696 0.892494 0.888694 0.889734 0.890285 0.889524 0.8929 0.89372 0.893817 0.893817 0.893823 0.893826 0.893828 0.893829 0.89383 0.893831 0.893831 0.893831 0.893832 0.893832 0.893832 0.893832 0.893832 0.893832 0.893832 0.893832 0.893832 0.893832 0.893832 0.893832 0.893832 0.893832 0.893832 0.893832 0.893832 0.893832 0.893832 0.893832 0.893832 0.893832 0.893832 0.893832 0.893832 0.893832 0.893832 0.893832 0.893832 0.893832 0.893832 0.893832 0.893832 0.893832 0.893832 0.893832 0.893832 0.893832 0.893832 0.893832 0.893832 0.893832 0.893832 0.893832 0.893832 0.893832 0.893832 0.893831 0.893831 0.893831 0.89383 0.893829 0.893828 0.893826 0.893823 0.893817 0.893817 0.89372 0.8929 0.889524 0.890285 0.890757 0.890259 0.893191 0.893741 0.893819 0.89382 0.893824 0.893827 0.893828 0.89383 0.89383 0.893831 0.893831 0.893831 0.893832 0.893832 0.893832 0.893832 0.893832 0.893832 0.893832 0.893832 0.893832 0.893832 0.893832 0.893832 0.893832 0.893832 0.893832 0.893832 0.893832 0.893832 0.893832 0.893832 0.893832 0.893832 0.893832 0.893832 0.893832 0.893832 0.893832 0.893832 0.893832 0.893832 0.893832 0.893832 0.893832 0.893832 0.893832 0.893832 0.893832 0.893832 0.893832 0.893832 0.893832 0.893832 0.893832 0.893832 0.893832 0.893832 0.893832 0.893831 0.893831 0.893831 0.89383 0.89383 0.893828 0.893827 0.893824 0.89382 0.893819 0.893741 0.893191 0.890259 0.890757 0.891168 0.890899 0.893397 0.89376 0.89382 0.893822 0.893826 0.893828 0.893829 0.89383 0.893831 0.893831 0.893831 0.893832 0.893832 0.893832 0.893832 0.893832 0.893832 0.893832 0.893832 0.893832 0.893832 0.893832 0.893832 0.893832 0.893832 0.893832 0.893832 0.893832 0.893832 0.893832 0.893832 0.893832 0.893832 0.893832 0.893832 0.893832 0.893832 0.893832 0.893832 0.893832 0.893832 0.893832 0.893832 0.893832 0.893832 0.893832 0.893832 0.893832 0.893832 0.893832 0.893832 0.893832 0.893832 0.893832 0.893832 0.893832 0.893832 0.893832 0.893832 0.893832 0.893831 0.893831 0.893831 0.89383 0.893829 0.893828 0.893826 0.893822 0.89382 0.89376 0.893397 0.890899 0.891168 0.891528 0.891448 0.893539 0.893775 0.893822 0.893824 0.893827 0.893828 0.89383 0.89383 0.893831 0.893831 0.893832 0.893832 0.893832 0.893832 0.893832 0.893832 0.893832 0.893832 0.893832 0.893832 0.893832 0.893832 0.893832 0.893832 0.893832 0.893832 0.893832 0.893832 0.893832 0.893832 0.893832 0.893832 0.893832 0.893832 0.893832 0.893832 0.893832 0.893832 0.893832 0.893832 0.893832 0.893832 0.893832 0.893832 0.893832 0.893832 0.893832 0.893832 0.893832 0.893832 0.893832 0.893832 0.893832 0.893832 0.893832 0.893832 0.893832 0.893832 0.893832 0.893832 0.893832 0.893831 0.893831 0.89383 0.89383 0.893828 0.893827 0.893824 0.893822 0.893775 0.893539 0.891448 0.891528 0.891847 0.891914 0.893636 0.893788 0.893823 0.893825 0.893828 0.893829 0.89383 0.893831 0.893831 0.893831 0.893832 0.893832 0.893832 0.893832 0.893832 0.893832 0.893832 0.893832 0.893832 0.893832 0.893832 0.893832 0.893832 0.893832 0.893832 0.893832 0.893832 0.893832 0.893832 0.893832 0.893832 0.893832 0.893832 0.893832 0.893832 0.893832 0.893832 0.893832 0.893832 0.893832 0.893832 0.893832 0.893832 0.893832 0.893832 0.893832 0.893832 0.893832 0.893832 0.893832 0.893832 0.893832 0.893832 0.893832 0.893832 0.893832 0.893832 0.893832 0.893832 0.893832 0.893832 0.893831 0.893831 0.893831 0.89383 0.893829 0.893828 0.893825 0.893823 0.893788 0.893636 0.891914 0.891847 0.89213 0.892304 0.893701 0.893799 0.893825 0.893826 0.893828 0.89383 0.89383 0.893831 0.893831 0.893832 0.893832 0.893832 0.893832 0.893832 0.893832 0.893832 0.893832 0.893832 0.893832 0.893832 0.893832 0.893832 0.893832 0.893832 0.893832 0.893832 0.893832 0.893832 0.893832 0.893832 0.893832 0.893832 0.893832 0.893832 0.893832 0.893832 0.893832 0.893832 0.893832 0.893832 0.893832 0.893832 0.893832 0.893832 0.893832 0.893832 0.893832 0.893832 0.893832 0.893832 0.893832 0.893832 0.893832 0.893832 0.893832 0.893832 0.893832 0.893832 0.893832 0.893832 0.893832 0.893832 0.893831 0.893831 0.89383 0.89383 0.893828 0.893826 0.893825 0.893799 0.893701 0.892304 0.89213 0.89238 0.892627 0.893744 0.893807 0.893826 0.893828 0.893829 0.89383 0.893831 0.893831 0.893831 0.893832 0.893832 0.893832 0.893832 0.893832 0.893832 0.893832 0.893832 0.893832 0.893832 0.893832 0.893832 0.893832 0.893832 0.893832 0.893832 0.893832 0.893832 0.893832 0.893832 0.893832 0.893832 0.893832 0.893832 0.893832 0.893832 0.893832 0.893832 0.893832 0.893832 0.893832 0.893832 0.893832 0.893832 0.893832 0.893832 0.893832 0.893832 0.893832 0.893832 0.893832 0.893832 0.893832 0.893832 0.893832 0.893832 0.893832 0.893832 0.893832 0.893832 0.893832 0.893832 0.893832 0.893831 0.893831 0.893831 0.89383 0.893829 0.893828 0.893826 0.893807 0.893744 0.892627 0.89238 0.8926 0.892891 0.893772 0.893813 0.893827 0.893828 0.89383 0.89383 0.893831 0.893831 0.893832 0.893832 0.893832 0.893832 0.893832 0.893832 0.893832 0.893832 0.893832 0.893832 0.893832 0.893832 0.893832 0.893832 0.893832 0.893832 0.893832 0.893832 0.893832 0.893832 0.893832 0.893832 0.893832 0.893832 0.893832 0.893832 0.893832 0.893832 0.893832 0.893832 0.893832 0.893832 0.893832 0.893832 0.893832 0.893832 0.893832 0.893832 0.893832 0.893832 0.893832 0.893832 0.893832 0.893832 0.893832 0.893832 0.893832 0.893832 0.893832 0.893832 0.893832 0.893832 0.893832 0.893832 0.893832 0.893831 0.893831 0.89383 0.89383 0.893828 0.893827 0.893813 0.893772 0.892891 0.8926 0.892793 0.893105 0.893791 0.893818 0.893828 0.893829 0.89383 0.893831 0.893831 0.893831 0.893832 0.893832 0.893832 0.893832 0.893832 0.893832 0.893832 0.893832 0.893832 0.893832 0.893832 0.893832 0.893832 0.893832 0.893832 0.893832 0.893832 0.893832 0.893832 0.893832 0.893832 0.893832 0.893832 0.893832 0.893832 0.893832 0.893832 0.893832 0.893832 0.893832 0.893832 0.893832 0.893832 0.893832 0.893832 0.893832 0.893832 0.893832 0.893832 0.893832 0.893832 0.893832 0.893832 0.893832 0.893832 0.893832 0.893832 0.893832 0.893832 0.893832 0.893832 0.893832 0.893832 0.893832 0.893832 0.893831 0.893831 0.893831 0.89383 0.893829 0.893828 0.893818 0.893791 0.893105 0.892793 0.892962 0.893276 0.893803 0.893822 0.893829 0.89383 0.893831 0.893831 0.893831 0.893832 0.893832 0.893832 0.893832 0.893832 0.893832 0.893832 0.893832 0.893832 0.893832 0.893832 0.893832 0.893832 0.893832 0.893832 0.893832 0.893832 0.893832 0.893832 0.893832 0.893832 0.893832 0.893832 0.893832 0.893832 0.893832 0.893832 0.893832 0.893832 0.893832 0.893832 0.893832 0.893832 0.893832 0.893832 0.893832 0.893832 0.893832 0.893832 0.893832 0.893832 0.893832 0.893832 0.893832 0.893832 0.893832 0.893832 0.893832 0.893832 0.893832 0.893832 0.893832 0.893832 0.893832 0.893832 0.893832 0.893832 0.893831 0.893831 0.893831 0.89383 0.893829 0.893822 0.893803 0.893276 0.892962 0.893107 0.893411 0.893811 0.893825 0.893829 0.89383 0.893831 0.893831 0.893832 0.893832 0.893832 0.893832 0.893832 0.893832 0.893832 0.893832 0.893832 0.893832 0.893832 0.893832 0.893832 0.893832 0.893832 0.893832 0.893832 0.893832 0.893832 0.893832 0.893832 0.893832 0.893832 0.893832 0.893832 0.893832 0.893832 0.893832 0.893832 0.893832 0.893832 0.893832 0.893832 0.893832 0.893832 0.893832 0.893832 0.893832 0.893832 0.893832 0.893832 0.893832 0.893832 0.893832 0.893832 0.893832 0.893832 0.893832 0.893832 0.893832 0.893832 0.893832 0.893832 0.893832 0.893832 0.893832 0.893832 0.893832 0.893832 0.893831 0.893831 0.89383 0.893829 0.893825 0.893811 0.893411 0.893107 0.893232 0.893516 0.893817 0.893827 0.89383 0.893831 0.893831 0.893831 0.893832 0.893832 0.893832 0.893832 0.893832 0.893832 0.893832 0.893832 0.893832 0.893832 0.893832 0.893832 0.893832 0.893832 0.893832 0.893832 0.893832 0.893832 0.893832 0.893832 0.893832 0.893832 0.893832 0.893832 0.893832 0.893832 0.893832 0.893832 0.893832 0.893832 0.893832 0.893832 0.893832 0.893832 0.893832 0.893832 0.893832 0.893832 0.893832 0.893832 0.893832 0.893832 0.893832 0.893832 0.893832 0.893832 0.893832 0.893832 0.893832 0.893832 0.893832 0.893832 0.893832 0.893832 0.893832 0.893832 0.893832 0.893832 0.893832 0.893831 0.893831 0.893831 0.89383 0.893827 0.893817 0.893516 0.893232 0.893339 0.893598 0.89382 0.893828 0.89383 0.893831 0.893831 0.893832 0.893832 0.893832 0.893832 0.893832 0.893832 0.893832 0.893832 0.893832 0.893832 0.893832 0.893832 0.893832 0.893832 0.893832 0.893832 0.893832 0.893832 0.893832 0.893832 0.893832 0.893832 0.893832 0.893832 0.893832 0.893832 0.893832 0.893832 0.893832 0.893832 0.893832 0.893832 0.893832 0.893832 0.893832 0.893832 0.893832 0.893832 0.893832 0.893832 0.893832 0.893832 0.893832 0.893832 0.893832 0.893832 0.893832 0.893832 0.893832 0.893832 0.893832 0.893832 0.893832 0.893832 0.893832 0.893832 0.893832 0.893832 0.893832 0.893832 0.893832 0.893831 0.893831 0.89383 0.893828 0.89382 0.893598 0.893339 0.893429 0.89366 0.893823 0.893829 0.893831 0.893831 0.893832 0.893832 0.893832 0.893832 0.893832 0.893832 0.893832 0.893832 0.893832 0.893832 0.893832 0.893832 0.893832 0.893832 0.893832 0.893832 0.893832 0.893832 0.893832 0.893832 0.893832 0.893832 0.893832 0.893832 0.893832 0.893832 0.893832 0.893832 0.893832 0.893832 0.893832 0.893832 0.893832 0.893832 0.893832 0.893832 0.893832 0.893832 0.893832 0.893832 0.893832 0.893832 0.893832 0.893832 0.893832 0.893832 0.893832 0.893832 0.893832 0.893832 0.893832 0.893832 0.893832 0.893832 0.893832 0.893832 0.893832 0.893832 0.893832 0.893832 0.893832 0.893832 0.893832 0.893831 0.893831 0.893829 0.893823 0.89366 0.893429 0.893505 0.893707 0.893825 0.89383 0.893831 0.893831 0.893832 0.893832 0.893832 0.893832 0.893832 0.893832 0.893832 0.893832 0.893832 0.893832 0.893832 0.893832 0.893832 0.893832 0.893832 0.893832 0.893832 0.893832 0.893832 0.893832 0.893832 0.893832 0.893832 0.893832 0.893832 0.893832 0.893832 0.893832 0.893832 0.893832 0.893832 0.893832 0.893832 0.893832 0.893832 0.893832 0.893832 0.893832 0.893832 0.893832 0.893832 0.893832 0.893832 0.893832 0.893832 0.893832 0.893832 0.893832 0.893832 0.893832 0.893832 0.893832 0.893832 0.893832 0.893832 0.893832 0.893832 0.893832 0.893832 0.893832 0.893832 0.893832 0.893832 0.893831 0.893831 0.89383 0.893825 0.893707 0.893505 0.893569 0.893742 0.893827 0.893831 0.893831 0.893832 0.893832 0.893832 0.893832 0.893832 0.893832 0.893832 0.893832 0.893832 0.893832 0.893832 0.893832 0.893832 0.893832 0.893832 0.893832 0.893832 0.893832 0.893832 0.893832 0.893832 0.893832 0.893832 0.893832 0.893832 0.893832 0.893832 0.893832 0.893832 0.893832 0.893832 0.893832 0.893832 0.893832 0.893832 0.893832 0.893832 0.893832 0.893832 0.893832 0.893832 0.893832 0.893832 0.893832 0.893832 0.893832 0.893832 0.893832 0.893832 0.893832 0.893832 0.893832 0.893832 0.893832 0.893832 0.893832 0.893832 0.893832 0.893832 0.893832 0.893832 0.893832 0.893832 0.893832 0.893832 0.893831 0.893831 0.893827 0.893742 0.893569 0.893621 0.893768 0.893828 0.893831 0.893832 0.893832 0.893832 0.893832 0.893832 0.893832 0.893832 0.893832 0.893832 0.893832 0.893832 0.893832 0.893832 0.893832 0.893832 0.893832 0.893832 0.893832 0.893832 0.893832 0.893832 0.893832 0.893832 0.893832 0.893832 0.893832 0.893832 0.893832 0.893832 0.893832 0.893832 0.893832 0.893832 0.893832 0.893832 0.893832 0.893832 0.893832 0.893832 0.893832 0.893832 0.893832 0.893832 0.893832 0.893832 0.893832 0.893832 0.893832 0.893832 0.893832 0.893832 0.893832 0.893832 0.893832 0.893832 0.893832 0.893832 0.893832 0.893832 0.893832 0.893832 0.893832 0.893832 0.893832 0.893832 0.893832 0.893832 0.893831 0.893828 0.893768 0.893621 0.893664 0.893787 0.893829 0.893831 0.893832 0.893832 0.893832 0.893832 0.893832 0.893832 0.893832 0.893832 0.893832 0.893832 0.893832 0.893832 0.893832 0.893832 0.893832 0.893832 0.893832 0.893832 0.893832 0.893832 0.893832 0.893832 0.893832 0.893832 0.893832 0.893832 0.893832 0.893832 0.893832 0.893832 0.893832 0.893832 0.893832 0.893832 0.893832 0.893832 0.893832 0.893832 0.893832 0.893832 0.893832 0.893832 0.893832 0.893832 0.893832 0.893832 0.893832 0.893832 0.893832 0.893832 0.893832 0.893832 0.893832 0.893832 0.893832 0.893832 0.893832 0.893832 0.893832 0.893832 0.893832 0.893832 0.893832 0.893832 0.893832 0.893832 0.893832 0.893831 0.893829 0.893787 0.893664 0.893699 0.8938 0.89383 0.893832 0.893832 0.893832 0.893832 0.893832 0.893832 0.893832 0.893832 0.893832 0.893832 0.893832 0.893832 0.893832 0.893832 0.893832 0.893832 0.893832 0.893832 0.893832 0.893832 0.893832 0.893832 0.893832 0.893832 0.893832 0.893832 0.893832 0.893832 0.893832 0.893832 0.893832 0.893832 0.893832 0.893832 0.893832 0.893832 0.893832 0.893832 0.893832 0.893832 0.893832 0.893832 0.893832 0.893832 0.893832 0.893832 0.893832 0.893832 0.893832 0.893832 0.893832 0.893832 0.893832 0.893832 0.893832 0.893832 0.893832 0.893832 0.893832 0.893832 0.893832 0.893832 0.893832 0.893832 0.893832 0.893832 0.893832 0.893832 0.893832 0.89383 0.8938 0.893699 0.893728 0.89381 0.89383 0.893832 0.893832 0.893832 0.893832 0.893832 0.893832 0.893832 0.893832 0.893832 0.893832 0.893832 0.893832 0.893832 0.893832 0.893832 0.893832 0.893832 0.893832 0.893832 0.893832 0.893832 0.893832 0.893832 0.893832 0.893832 0.893832 0.893832 0.893832 0.893832 0.893832 0.893832 0.893832 0.893832 0.893832 0.893832 0.893832 0.893832 0.893832 0.893832 0.893832 0.893832 0.893832 0.893832 0.893832 0.893832 0.893832 0.893832 0.893832 0.893832 0.893832 0.893832 0.893832 0.893832 0.893832 0.893832 0.893832 0.893832 0.893832 0.893832 0.893832 0.893832 0.893832 0.893832 0.893832 0.893832 0.893832 0.893832 0.893832 0.893832 0.89383 0.89381 0.893728 0.893751 0.893817 0.893831 0.893832 0.893832 0.893832 0.893832 0.893832 0.893832 0.893832 0.893832 0.893832 0.893832 0.893832 0.893832 0.893832 0.893832 0.893832 0.893832 0.893832 0.893832 0.893832 0.893832 0.893832 0.893832 0.893832 0.893832 0.893832 0.893832 0.893832 0.893832 0.893832 0.893832 0.893832 0.893832 0.893832 0.893832 0.893832 0.893832 0.893832 0.893832 0.893832 0.893832 0.893832 0.893832 0.893832 0.893832 0.893832 0.893832 0.893832 0.893832 0.893832 0.893832 0.893832 0.893832 0.893832 0.893832 0.893832 0.893832 0.893832 0.893832 0.893832 0.893832 0.893832 0.893832 0.893832 0.893832 0.893832 0.893832 0.893832 0.893832 0.893832 0.893831 0.893817 0.893751 0.893769 0.893822 0.893831 0.893832 0.893832 0.893832 0.893832 0.893832 0.893832 0.893832 0.893832 0.893832 0.893832 0.893832 0.893832 0.893832 0.893832 0.893832 0.893832 0.893832 0.893832 0.893832 0.893832 0.893832 0.893832 0.893832 0.893832 0.893832 0.893832 0.893832 0.893832 0.893832 0.893832 0.893832 0.893832 0.893832 0.893832 0.893832 0.893832 0.893832 0.893832 0.893832 0.893832 0.893832 0.893832 0.893832 0.893832 0.893832 0.893832 0.893832 0.893832 0.893832 0.893832 0.893832 0.893832 0.893832 0.893832 0.893832 0.893832 0.893832 0.893832 0.893832 0.893832 0.893832 0.893832 0.893832 0.893832 0.893832 0.893832 0.893832 0.893832 0.893832 0.893831 0.893822 0.893769 0.893784 0.893825 0.893831 0.893832 0.893832 0.893832 0.893832 0.893832 0.893832 0.893832 0.893832 0.893832 0.893832 0.893832 0.893832 0.893832 0.893832 0.893832 0.893832 0.893832 0.893832 0.893832 0.893832 0.893832 0.893832 0.893832 0.893832 0.893832 0.893832 0.893832 0.893832 0.893832 0.893832 0.893832 0.893832 0.893832 0.893832 0.893832 0.893832 0.893832 0.893832 0.893832 0.893832 0.893832 0.893832 0.893832 0.893832 0.893832 0.893832 0.893832 0.893832 0.893832 0.893832 0.893832 0.893832 0.893832 0.893832 0.893832 0.893832 0.893832 0.893832 0.893832 0.893832 0.893832 0.893832 0.893832 0.893832 0.893832 0.893832 0.893832 0.893832 0.893832 0.893831 0.893825 0.893784 0.893795 0.893828 0.893832 0.893832 0.893832 0.893832 0.893832 0.893832 0.893832 0.893832 0.893832 0.893832 0.893832 0.893832 0.893832 0.893832 0.893832 0.893832 0.893832 0.893832 0.893832 0.893832 0.893832 0.893832 0.893832 0.893832 0.893832 0.893832 0.893832 0.893832 0.893832 0.893832 0.893832 0.893832 0.893832 0.893832 0.893832 0.893832 0.893832 0.893832 0.893832 0.893832 0.893832 0.893832 0.893832 0.893832 0.893832 0.893832 0.893832 0.893832 0.893832 0.893832 0.893832 0.893832 0.893832 0.893832 0.893832 0.893832 0.893832 0.893832 0.893832 0.893832 0.893832 0.893832 0.893832 0.893832 0.893832 0.893832 0.893832 0.893832 0.893832 0.893832 0.893832 0.893828 0.893795 0.893804 0.893829 0.893832 0.893832 0.893832 0.893832 0.893832 0.893832 0.893832 0.893832 0.893832 0.893832 0.893832 0.893832 0.893832 0.893832 0.893832 0.893832 0.893832 0.893832 0.893832 0.893832 0.893832 0.893832 0.893832 0.893832 0.893832 0.893832 0.893832 0.893832 0.893832 0.893832 0.893832 0.893832 0.893832 0.893832 0.893832 0.893832 0.893832 0.893832 0.893832 0.893832 0.893832 0.893832 0.893832 0.893832 0.893832 0.893832 0.893832 0.893832 0.893832 0.893832 0.893832 0.893832 0.893832 0.893832 0.893832 0.893832 0.893832 0.893832 0.893832 0.893832 0.893832 0.893832 0.893832 0.893832 0.893832 0.893832 0.893832 0.893832 0.893832 0.893832 0.893832 0.893829 0.893804 0.89381 0.89383 0.893832 0.893832 0.893832 0.893832 0.893832 0.893832 0.893832 0.893832 0.893832 0.893832 0.893832 0.893832 0.893832 0.893832 0.893832 0.893832 0.893832 0.893832 0.893832 0.893832 0.893832 0.893832 0.893832 0.893832 0.893832 0.893832 0.893832 0.893832 0.893832 0.893832 0.893832 0.893832 0.893832 0.893832 0.893832 0.893832 0.893832 0.893832 0.893832 0.893832 0.893832 0.893832 0.893832 0.893832 0.893832 0.893832 0.893832 0.893832 0.893832 0.893832 0.893832 0.893832 0.893832 0.893832 0.893832 0.893832 0.893832 0.893832 0.893832 0.893832 0.893832 0.893832 0.893832 0.893832 0.893832 0.893832 0.893832 0.893832 0.893832 0.893832 0.893832 0.89383 0.89381 0.893815 0.893831 0.893832 0.893832 0.893832 0.893832 0.893832 0.893832 0.893832 0.893832 0.893832 0.893832 0.893832 0.893832 0.893832 0.893832 0.893832 0.893832 0.893832 0.893832 0.893832 0.893832 0.893832 0.893832 0.893832 0.893832 0.893832 0.893832 0.893832 0.893832 0.893832 0.893832 0.893832 0.893832 0.893832 0.893832 0.893832 0.893832 0.893832 0.893832 0.893832 0.893832 0.893832 0.893832 0.893832 0.893832 0.893832 0.893832 0.893832 0.893832 0.893832 0.893832 0.893832 0.893832 0.893832 0.893832 0.893832 0.893832 0.893832 0.893832 0.893832 0.893832 0.893832 0.893832 0.893832 0.893832 0.893832 0.893832 0.893832 0.893832 0.893832 0.893832 0.893832 0.893831 0.893815 0.893818 0.893831 0.893832 0.893832 0.893832 0.893832 0.893832 0.893832 0.893832 0.893832 0.893832 0.893832 0.893832 0.893832 0.893832 0.893832 0.893832 0.893832 0.893832 0.893832 0.893832 0.893832 0.893832 0.893832 0.893832 0.893832 0.893832 0.893832 0.893832 0.893832 0.893832 0.893832 0.893832 0.893832 0.893832 0.893832 0.893832 0.893832 0.893832 0.893832 0.893832 0.893832 0.893832 0.893832 0.893832 0.893832 0.893832 0.893832 0.893832 0.893832 0.893832 0.893832 0.893832 0.893832 0.893832 0.893832 0.893832 0.893832 0.893832 0.893832 0.893832 0.893832 0.893832 0.893832 0.893832 0.893832 0.893832 0.893832 0.893832 0.893832 0.893832 0.893832 0.893832 0.893831 0.893818 0.893821 0.893832 0.893832 0.893832 0.893832 0.893832 0.893832 0.893832 0.893832 0.893832 0.893832 0.893832 0.893832 0.893832 0.893832 0.893832 0.893832 0.893832 0.893832 0.893832 0.893832 0.893832 0.893832 0.893832 0.893832 0.893832 0.893832 0.893832 0.893832 0.893832 0.893832 0.893832 0.893832 0.893832 0.893832 0.893832 0.893832 0.893832 0.893832 0.893832 0.893832 0.893832 0.893832 0.893832 0.893832 0.893832 0.893832 0.893832 0.893832 0.893832 0.893832 0.893832 0.893832 0.893832 0.893832 0.893832 0.893832 0.893832 0.893832 0.893832 0.893832 0.893832 0.893832 0.893832 0.893832 0.893832 0.893832 0.893832 0.893832 0.893832 0.893832 0.893832 0.893832 0.893832 0.893821 0.893822 0.893832 0.893832 0.893832 0.893832 0.893832 0.893832 0.893832 0.893832 0.893832 0.893832 0.893832 0.893832 0.893832 0.893832 0.893832 0.893832 0.893832 0.893832 0.893832 0.893832 0.893832 0.893832 0.893832 0.893832 0.893832 0.893832 0.893832 0.893832 0.893832 0.893832 0.893832 0.893832 0.893832 0.893832 0.893832 0.893832 0.893832 0.893832 0.893832 0.893832 0.893832 0.893832 0.893832 0.893832 0.893832 0.893832 0.893832 0.893832 0.893832 0.893832 0.893832 0.893832 0.893832 0.893832 0.893832 0.893832 0.893832 0.893832 0.893832 0.893832 0.893832 0.893832 0.893832 0.893832 0.893832 0.893832 0.893832 0.893832 0.893832 0.893832 0.893832 0.893832 0.893832 0.893822 
SCALARS Axial_Stress float 1
LOOKUP_TABLE default
-701121000000.0 -354419000000.0 -332690000000.0 -322716000000.0 -332346000000.0 -347802000000.0 -347909000000.0 -346284000000.0 -340227000000.0 -329649000000.0 -315128000000.0 -297574000000.0 -278394000000.0 -258824000000.0 -239526000000.0 -220888000000.0 -203173000000.0 -186556000000.0 -171176000000.0 -157036000000.0 -144052000000.0 -132226000000.0 -121581000000.0 -112035000000.0 -103454000000.0 -95768100000.0 -88968900000.0 -83038100000.0 -77920400000.0 -73548400000.0 -69871900000.0 -66865800000.0 -64522900000.0 -62844900000.0 -61835900000.0 -61499200000.0 -61835900000.0 -62844900000.0 -64522900000.0 -66865800000.0 -69871900000.0 -73548400000.0 -77920400000.0 -83038100000.0 -88968900000.0 -95768100000.0 -103454000000.0 -112035000000.0 -121581000000.0 -132226000000.0 -144052000000.0 -157036000000.0 -171176000000.0 -186556000000.0 -203173000000.0 -220888000000.0 -239526000000.0 -258824000000.0 -278394000000.0 -297574000000.0 -315128000000.0 -329649000000.0 -340227000000.0 -346284000000.0 -347909000000.0 -347802000000.0 -332346000000.0 -322716000000.0 -332690000000.0 -354419000000.0 -701121000000.0 -655610000000.0 -776365000000.0 -287389000000.0 -339995000000.0 -361458000000.0 -400616000000.0 -395812000000.0 -392512000000.0 -382097000000.0 -366694000000.0 -348029000000.0 -326900000000.0 -304063000000.0 -280610000000.0 -257532000000.0 -235449000000.0 -214652000000.0 -195204000000.0 -177099000000.0 -160369000000.0 -145081000000.0 -131251000000.0 -118804000000.0 -107606000000.0 -97550000000.0 -88586900000.0 -80697600000.0 -73844400000.0 -67957300000.0 -62953900000.0 -58766100000.0 -55353000000.0 -52697800000.0 -50798100000.0 -49656500000.0 -49275600000.0 -49656500000.0 -50798100000.0 -52697800000.0 -55353000000.0 -58766100000.0 -62953900000.0 -67957300000.0 -73844400000.0 -80697600000.0 -88586900000.0 -97550000000.0 -107606000000.0 -118804000000.0 -131251000000.0 -145081000000.0 -160369000000.0 -177099000000.0 -195204000000.0 -214652000000.0 -235449000000.0 -257532000000.0 -280610000000.0 -304063000000.0 -326900000000.0 -348029000000.0 -366694000000.0 -382097000000.0 -392512000000.0 -395812000000.0 -400616000000.0 -361458000000.0 -339995000000.0 -287389000000.0 -776365000000.0 -655610000000.0 -458035000000.0 -1.41118e+12 -1.41118e+12 -458035000000.0 -1.07113e+12 -1.29306e+12 -927379000000.0 -619134000000.0 -544925000000.0 -439098000000.0 -414068000000.0 -381016000000.0 -369590000000.0 -352030000000.0 -329118000000.0 -304110000000.0 -278693000000.0 -253339000000.0 -228357000000.0 -204270000000.0 -181654000000.0 -160864000000.0 -141961000000.0 -124856000000.0 -109475000000.0 -95772800000.0 -83694900000.0 -73147800000.0 -64010800000.0 -56151100000.0 -49440300000.0 -43765200000.0 -39023400000.0 -35114900000.0 -31941700000.0 -29415400000.0 -27460000000.0 -26011000000.0 -25015300000.0 -24433800000.0 -24242500000.0 -24433800000.0 -25015300000.0 -26011000000.0 -27460000000.0 -29415400000.0 -31941700000.0 -35114900000.0 -39023400000.0 -43765200000.0 -49440300000.0 -56151100000.0 -64010800000.0 -73147800000.0 -83694900000.0 -95772800000.0 -109475000000.0 -124856000000.0 -141961000000.0 -160864000000.0 -181654000000.0 -204270000000.0 -228357000000.0 -253339000000.0 -278693000000.0 -304110000000.0 -329118000000.0 -352030000000.0 -369590000000.0 -381016000000.0 -414068000000.0 -439098000000.0 -544925000000.0 -619134000000.0 -927379000000.0 -1.29306e+12 -1.07113e+12 -286267000000.0 -469987000000.0 -517083000000.0 -1.24645e+12 -842005000000.0 -730324000000.0 -553723000000.0 -478327000000.0 -385037000000.0 -316383000000.0 -260154000000.0 -218548000000.0 -185486000000.0 -158660000000.0 -135438000000.0 -115359000000.0 -98056900000.0 -83149000000.0 -70383800000.0 -59645500000.0 -50740100000.0 -43368600000.0 -37305300000.0 -32397400000.0 -28444400000.0 -25221000000.0 -22570000000.0 -20408000000.0 -18667600000.0 -17266200000.0 -16118400000.0 -15159000000.0 -14352000000.0 -13684600000.0 -13155900000.0 -12770500000.0 -12535400000.0 -12456200000.0 -12535400000.0 -12770500000.0 -13155900000.0 -13684600000.0 -14352000000.0 -15159000000.0 -16118400000.0 -17266200000.0 -18667600000.0 -20408000000.0 -22570000000.0 -25221000000.0 -28444400000.0 -32397400000.0 -37305300000.0 -43368600000.0 -50740100000.0 -59645500000.0 -70383800000.0 -83149000000.0 -98056900000.0 -115359000000.0 -135438000000.0 -158660000000.0 -185486000000.0 -218548000000.0 -260154000000.0 -316383000000.0 -385037000000.0 -478327000000.0 -553723000000.0 -730324000000.0 -842005000000.0 -1.24645e+12 -517083000000.0 -469987000000.0 -286267000000.0 -154800000000.0 -250453000000.0 -547180000000.0 -547180000000.0 -250453000000.0 -154800000000.0 -169706000000.0 -16415400000.0 -542708000000.0 -657921000000.0 -332509000000.0 -281525000000.0 -162909000000.0 -175593000000.0 -163072000000.0 -159293000000.0 -154303000000.0 -147683000000.0 -137745000000.0 -128698000000.0 -120743000000.0 -112853000000.0 -104242000000.0 -95052300000.0 -85647200000.0 -76352300000.0 -67489300000.0 -59313500000.0 -51952500000.0 -45429700000.0 -39714300000.0 -34754500000.0 -30492200000.0 -26867400000.0 -23819200000.0 -21285700000.0 -19205600000.0 -17521700000.0 -16182600000.0 -15144700000.0 -14373100000.0 -13841000000.0 -13529400000.0 -13426800000.0 -13529400000.0 -13841000000.0 -14373100000.0 -15144700000.0 -16182600000.0 -17521700000.0 -19205600000.0 -21285700000.0 -23819200000.0 -26867400000.0 -30492200000.0 -34754500000.0 -39714300000.0 -45429700000.0 -51952500000.0 -59313500000.0 -67489300000.0 -76352300000.0 -85647200000.0 -95052300000.0 -104242000000.0 -112853000000.0 -120743000000.0 -128698000000.0 -137745000000.0 -147683000000.0 -154303000000.0 -159293000000.0 -163072000000.0 -175593000000.0 -162909000000.0 -281525000000.0 -332509000000.0 -657921000000.0 -542708000000.0 -16415400000.0 -169706000000.0 -650709000000.0 -21768200000.0 -62875000000.0 -9962740000.0 -15763600000.0 -12894900000.0 -14562600000.0 -16456000000.0 -18555400000.0 -18746000000.0 -17662600000.0 -16923400000.0 -15985200000.0 -14138000000.0 -11988600000.0 -10383400000.0 -9527740000.0 -9181240000.0 -9070800000.0 -9042600000.0 -9036810000.0 -9035860000.0 -9035750000.0 -9035750000.0 -9035750000.0 -9035750000.0 -9035750000.0 -9035750000.0 -9035750000.0 -9035750000.0 -9035750000.0 -9035750000.0 -9035750000.0 -9035750000.0 -9035750000.0 -9035750000.0 -9035750000.0 -9035750000.0 -9035750000.0 -9035750000.0 -9035750000.0 -9035750000.0 -9035750000.0 -9035750000.0 -9035750000.0 -9035750000.0 -9035750000.0 -9035860000.0 -9036810000.0 -9042600000.0 -9070800000.0 -9181240000.0 -9527740000.0 -10383400000.0 -11988600000.0 -14138000000.0 -15985200000.0 -16923400000.0 -17662600000.0 -18746000000.0 -18555400000.0 -16456000000.0 -14562600000.0 -12894900000.0 -15763600000.0 -9962740000.0 -62875000000.0 -21768200000.0 -650709000000.0 -72159000000.0 -30259800000.0 -332010000000.0 -332010000000.0 -30259800000.0 -72159000000.0 -89035600000.0 -272241000000.0 -9109550000.0 -609875000000.0 -192435000000.0 -198173000000.0 -163349000000.0 -153973000000.0 -144046000000.0 -132766000000.0 -120449000000.0 -108978000000.0 -98765100000.0 -88632800000.0 -78097100000.0 -67653800000.0 -57849900000.0 -48975400000.0 -41174700000.0 -34506600000.0 -28954200000.0 -24441200000.0 -20846200000.0 -18024800000.0 -15835500000.0 -14152700000.0 -12868900000.0 -11895200000.0 -11161900000.0 -10614600000.0 -10210000000.0 -9913180000.0 -9697260000.0 -9542520000.0 -9434950000.0 -9364700000.0 -9325160000.0 -9312410000.0 -9325160000.0 -9364700000.0 -9434950000.0 -9542520000.0 -9697260000.0 -9913180000.0 -10210000000.0 -10614600000.0 -11161900000.0 -11895200000.0 -12868900000.0 -14152700000.0 -15835500000.0 -18024800000.0 -20846200000.0 -24441200000.0 -28954200000.0 -34506600000.0 -41174700000.0 -48975400000.0 -57849900000.0 -67653800000.0 -78097100000.0 -88632800000.0 -98765100000.0 -108978000000.0 -120449000000.0 -132766000000.0 -144046000000.0 -153973000000.0 -163349000000.0 -198173000000.0 -192435000000.0 -609875000000.0 -9109550000.0 -272241000000.0 -89035600000.0 -190363000000.0 -99944600000.0 -520535000000.0 -10879600000.0 -21669900000.0 -9035750000.0 -9035750000.0 -9035750000.0 -9035750000.0 -9035750000.0 -9035750000.0 -9035750000.0 -9035750000.0 -9035750000.0 -9035750000.0 -9035760000.0 -9035760000.0 -9035800000.0 -9036000000.0 -9036260000.0 -9036460000.0 -9036420000.0 -9036300000.0 -9036180000.0 -9036080000.0 -9036010000.0 -9035950000.0 -9035910000.0 -9035880000.0 -9035860000.0 -9035830000.0 -9035810000.0 -9035800000.0 -9035780000.0 -9035770000.0 -9035760000.0 -9035750000.0 -9035760000.0 -9035770000.0 -9035780000.0 -9035800000.0 -9035810000.0 -9035830000.0 -9035860000.0 -9035880000.0 -9035910000.0 -9035950000.0 -9036010000.0 -9036080000.0 -9036180000.0 -9036300000.0 -9036420000.0 -9036460000.0 -9036260000.0 -9036000000.0 -9035800000.0 -9035760000.0 -9035760000.0 -9035750000.0 -9035750000.0 -9035750000.0 -9035750000.0 -9035750000.0 -9035750000.0 -9035750000.0 -9035750000.0 -9035750000.0 -9035750000.0 -21669900000.0 -10879600000.0 -520535000000.0 -99944600000.0 -190363000000.0 -59506600000.0 -59506600000.0 -75576300000.0 -172596000000.0 -71850900000.0 -426801000000.0 -76844700000.0 -67346600000.0 -54908900000.0 -46330000000.0 -39158700000.0 -33321300000.0 -28569400000.0 -24706600000.0 -21575800000.0 -18996700000.0 -16824700000.0 -15000500000.0 -13497200000.0 -12286600000.0 -11345600000.0 -10645500000.0 -10141000000.0 -9781450000.0 -9526910000.0 -9351230000.0 -9234980000.0 -9160770000.0 -9114050000.0 -9084550000.0 -9065820000.0 -9053890000.0 -9046310000.0 -9041580000.0 -9038760000.0 -9037180000.0 -9036380000.0 -9036000000.0 -9035850000.0 -9035810000.0 -9035850000.0 -9036000000.0 -9036380000.0 -9037180000.0 -9038760000.0 -9041580000.0 -9046310000.0 -9053890000.0 -9065820000.0 -9084550000.0 -9114050000.0 -9160770000.0 -9234980000.0 -9351230000.0 -9526910000.0 -9781450000.0 -10141000000.0 -10645500000.0 -11345600000.0 -12286600000.0 -13497200000.0 -15000500000.0 -16824700000.0 -18996700000.0 -21575800000.0 -24706600000.0 -28569400000.0 -33321300000.0 -39158700000.0 -46330000000.0 -54908900000.0 -67346600000.0 -76844700000.0 -426801000000.0 -71850900000.0 -172596000000.0 -75576300000.0 -330234000000.0 -9074210000.0 -9296980000.0 -9052790000.0 -9049190000.0 -9046660000.0 -9046030000.0 -9045080000.0 -9043970000.0 -9042500000.0 -9041080000.0 -9039890000.0 -9038890000.0 -9038140000.0 -9037710000.0 -9037510000.0 -9037380000.0 -9037150000.0 -9036900000.0 -9036680000.0 -9036500000.0 -9036360000.0 -9036250000.0 -9036170000.0 -9036100000.0 -9036050000.0 -9036000000.0 -9035950000.0 -9035910000.0 -9035870000.0 -9035830000.0 -9035800000.0 -9035770000.0 -9035760000.0 -9035750000.0 -9035760000.0 -9035770000.0 -9035800000.0 -9035830000.0 -9035870000.0 -9035910000.0 -9035950000.0 -9036000000.0 -9036050000.0 -9036100000.0 -9036170000.0 -9036250000.0 -9036360000.0 -9036500000.0 -9036680000.0 -9036900000.0 -9037150000.0 -9037380000.0 -9037510000.0 -9037710000.0 -9038140000.0 -9038890000.0 -9039890000.0 -9041080000.0 -9042500000.0 -9043970000.0 -9045080000.0 -9046030000.0 -9046660000.0 -9049190000.0 -9052790000.0 -9296980000.0 -9074210000.0 -330234000000.0 -97261600000.0 -150620000000.0 -103742000000.0 -103742000000.0 -150620000000.0 -97261600000.0 -115499000000.0 -136443000000.0 -124290000000.0 -267482000000.0 -11659700000.0 -11210000000.0 -10633100000.0 -10225900000.0 -9701500000.0 -9289380000.0 -9109760000.0 -9059000000.0 -9047020000.0 -9043300000.0 -9041370000.0 -9040010000.0 -9039100000.0 -9038530000.0 -9038090000.0 -9037690000.0 -9037320000.0 -9037010000.0 -9036770000.0 -9036590000.0 -9036440000.0 -9036330000.0 -9036240000.0 -9036160000.0 -9036100000.0 -9036040000.0 -9035990000.0 -9035940000.0 -9035890000.0 -9035840000.0 -9035810000.0 -9035780000.0 -9035760000.0 -9035750000.0 -9035760000.0 -9035780000.0 -9035810000.0 -9035840000.0 -9035890000.0 -9035940000.0 -9035990000.0 -9036040000.0 -9036100000.0 -9036160000.0 -9036240000.0 -9036330000.0 -9036440000.0 -9036590000.0 -9036770000.0 -9037010000.0 -9037320000.0 -9037690000.0 -9038090000.0 -9038530000.0 -9039100000.0 -9040010000.0 -9041370000.0 -9043300000.0 -9047020000.0 -9059000000.0 -9109760000.0 -9289380000.0 -9701500000.0 -10225900000.0 -10633100000.0 -11210000000.0 -11659700000.0 -267482000000.0 -124290000000.0 -136443000000.0 -115499000000.0 -208952000000.0 -9056480000.0 -9187360000.0 -9111950000.0 -9094030000.0 -9078930000.0 -9067550000.0 -9059050000.0 -9052960000.0 -9048220000.0 -9044860000.0 -9042610000.0 -9041010000.0 -9039910000.0 -9039100000.0 -9038410000.0 -9037870000.0 -9037440000.0 -9037100000.0 -9036860000.0 -9036670000.0 -9036520000.0 -9036400000.0 -9036300000.0 -9036210000.0 -9036140000.0 -9036070000.0 -9036010000.0 -9035950000.0 -9035900000.0 -9035850000.0 -9035810000.0 -9035780000.0 -9035760000.0 -9035750000.0 -9035760000.0 -9035780000.0 -9035810000.0 -9035850000.0 -9035900000.0 -9035950000.0 -9036010000.0 -9036070000.0 -9036140000.0 -9036210000.0 -9036300000.0 -9036400000.0 -9036520000.0 -9036670000.0 -9036860000.0 -9037100000.0 -9037440000.0 -9037870000.0 -9038410000.0 -9039100000.0 -9039910000.0 -9041010000.0 -9042610000.0 -9044860000.0 -9048220000.0 -9052960000.0 -9059050000.0 -9067550000.0 -9078930000.0 -9094030000.0 -9111950000.0 -9187360000.0 -9056480000.0 -208952000000.0 -126289000000.0 -120957000000.0 -131938000000.0 -131938000000.0 -120957000000.0 -126289000000.0 -132251000000.0 -109404000000.0 -131576000000.0 -159678000000.0 -9092140000.0 -9223720000.0 -9135580000.0 -9110330000.0 -9089680000.0 -9074450000.0 -9063440000.0 -9055820000.0 -9050130000.0 -9046210000.0 -9043640000.0 -9041800000.0 -9040460000.0 -9039420000.0 -9038590000.0 -9037980000.0 -9037520000.0 -9037180000.0 -9036930000.0 -9036730000.0 -9036570000.0 -9036440000.0 -9036330000.0 -9036240000.0 -9036160000.0 -9036090000.0 -9036020000.0 -9035960000.0 -9035900000.0 -9035850000.0 -9035810000.0 -9035780000.0 -9035760000.0 -9035750000.0 -9035760000.0 -9035780000.0 -9035810000.0 -9035850000.0 -9035900000.0 -9035960000.0 -9036020000.0 -9036090000.0 -9036160000.0 -9036240000.0 -9036330000.0 -9036440000.0 -9036570000.0 -9036730000.0 -9036930000.0 -9037180000.0 -9037520000.0 -9037980000.0 -9038590000.0 -9039420000.0 -9040460000.0 -9041800000.0 -9043640000.0 -9046210000.0 -9050130000.0 -9055820000.0 -9063440000.0 -9074450000.0 -9089680000.0 -9110330000.0 -9135580000.0 -9223720000.0 -9092140000.0 -159678000000.0 -131576000000.0 -109404000000.0 -132251000000.0 -133446000000.0 -100398000000.0 -125684000000.0 -118814000000.0 -9122830000.0 -9251570000.0 -9153390000.0 -9122080000.0 -9097220000.0 -9079220000.0 -9066490000.0 -9057850000.0 -9051520000.0 -9047210000.0 -9044380000.0 -9042300000.0 -9040750000.0 -9039580000.0 -9038680000.0 -9038050000.0 -9037580000.0 -9037230000.0 -9036970000.0 -9036770000.0 -9036600000.0 -9036470000.0 -9036350000.0 -9036260000.0 -9036170000.0 -9036090000.0 -9036020000.0 -9035960000.0 -9035900000.0 -9035850000.0 -9035810000.0 -9035780000.0 -9035760000.0 -9035750000.0 -9035760000.0 -9035780000.0 -9035810000.0 -9035850000.0 -9035900000.0 -9035960000.0 -9036020000.0 -9036090000.0 -9036170000.0 -9036260000.0 -9036350000.0 -9036470000.0 -9036600000.0 -9036770000.0 -9036970000.0 -9037230000.0 -9037580000.0 -9038050000.0 -9038680000.0 -9039580000.0 -9040750000.0 -9042300000.0 -9044380000.0 -9047210000.0 -9051520000.0 -9057850000.0 -9066490000.0 -9079220000.0 -9097220000.0 -9122080000.0 -9153390000.0 -9251570000.0 -9122830000.0 -118814000000.0 -125684000000.0 -100398000000.0 -133446000000.0 -130679000000.0 -93615800000.0 -116634000000.0 -86273000000.0 -9146840000.0 -9270660000.0 -9165430000.0 -9129710000.0 -9102000000.0 -9082210000.0 -9068410000.0 -9059150000.0 -9052420000.0 -9047840000.0 -9044790000.0 -9042530000.0 -9040860000.0 -9039640000.0 -9038730000.0 -9038090000.0 -9037610000.0 -9037260000.0 -9037000000.0 -9036790000.0 -9036620000.0 -9036470000.0 -9036350000.0 -9036250000.0 -9036160000.0 -9036090000.0 -9036020000.0 -9035950000.0 -9035900000.0 -9035850000.0 -9035810000.0 -9035780000.0 -9035760000.0 -9035750000.0 -9035760000.0 -9035780000.0 -9035810000.0 -9035850000.0 -9035900000.0 -9035950000.0 -9036020000.0 -9036090000.0 -9036160000.0 -9036250000.0 -9036350000.0 -9036470000.0 -9036620000.0 -9036790000.0 -9037000000.0 -9037260000.0 -9037610000.0 -9038090000.0 -9038730000.0 -9039640000.0 -9040860000.0 -9042530000.0 -9044790000.0 -9047840000.0 -9052420000.0 -9059150000.0 -9068410000.0 -9082210000.0 -9102000000.0 -9129710000.0 -9165430000.0 -9270660000.0 -9146840000.0 -86273000000.0 -116634000000.0 -93615800000.0 -130679000000.0 -124776000000.0 -88459800000.0 -105887000000.0 -61389600000.0 -9163920000.0 -9281290000.0 -9172270000.0 -9133760000.0 -9104430000.0 -9083680000.0 -9069330000.0 -9059750000.0 -9052830000.0 -9048090000.0 -9044900000.0 -9042550000.0 -9040860000.0 -9039630000.0 -9038720000.0 -9038090000.0 -9037610000.0 -9037260000.0 -9036990000.0 -9036780000.0 -9036600000.0 -9036460000.0 -9036340000.0 -9036240000.0 -9036150000.0 -9036070000.0 -9036000000.0 -9035940000.0 -9035890000.0 -9035840000.0 -9035800000.0 -9035770000.0 -9035760000.0 -9035750000.0 -9035760000.0 -9035770000.0 -9035800000.0 -9035840000.0 -9035890000.0 -9035940000.0 -9036000000.0 -9036070000.0 -9036150000.0 -9036240000.0 -9036340000.0 -9036460000.0 -9036600000.0 -9036780000.0 -9036990000.0 -9037260000.0 -9037610000.0 -9038090000.0 -9038720000.0 -9039630000.0 -9040860000.0 -9042550000.0 -9044900000.0 -9048090000.0 -9052830000.0 -9059750000.0 -9069330000.0 -9083680000.0 -9104430000.0 -9133760000.0 -9172270000.0 -9281290000.0 -9163920000.0 -61389600000.0 -105887000000.0 -88459800000.0 -124776000000.0 -116597000000.0 -84249500000.0 -94395200000.0 -43256900000.0 -9174500000.0 -9284160000.0 -9174680000.0 -9134820000.0 -9104870000.0 -9083840000.0 -9069370000.0 -9059730000.0 -9052770000.0 -9048000000.0 -9044780000.0 -9042440000.0 -9040770000.0 -9039560000.0 -9038680000.0 -9038050000.0 -9037580000.0 -9037230000.0 -9036960000.0 -9036750000.0 -9036570000.0 -9036430000.0 -9036310000.0 -9036210000.0 -9036120000.0 -9036050000.0 -9035980000.0 -9035920000.0 -9035870000.0 -9035830000.0 -9035800000.0 -9035770000.0 -9035760000.0 -9035750000.0 -9035760000.0 -9035770000.0 -9035800000.0 -9035830000.0 -9035870000.0 -9035920000.0 -9035980000.0 -9036050000.0 -9036120000.0 -9036210000.0 -9036310000.0 -9036430000.0 -9036570000.0 -9036750000.0 -9036960000.0 -9037230000.0 -9037580000.0 -9038050000.0 -9038680000.0 -9039560000.0 -9040770000.0 -9042440000.0 -9044780000.0 -9048000000.0 -9052770000.0 -9059730000.0 -9069370000.0 -9083840000.0 -9104870000.0 -9134820000.0 -9174680000.0 -9284160000.0 -9174500000.0 -43256900000.0 -94395200000.0 -84249500000.0 -116597000000.0 -106952000000.0 -80415400000.0 -82847300000.0 -30692500000.0 -9180240000.0 -9280400000.0 -9173400000.0 -9133390000.0 -9103650000.0 -9082870000.0 -9068640000.0 -9059150000.0 -9052330000.0 -9047650000.0 -9044500000.0 -9042230000.0 -9040610000.0 -9039450000.0 -9038590000.0 -9037980000.0 -9037520000.0 -9037170000.0 -9036910000.0 -9036700000.0 -9036530000.0 -9036390000.0 -9036270000.0 -9036170000.0 -9036090000.0 -9036020000.0 -9035960000.0 -9035910000.0 -9035860000.0 -9035820000.0 -9035790000.0 -9035770000.0 -9035760000.0 -9035750000.0 -9035760000.0 -9035770000.0 -9035790000.0 -9035820000.0 -9035860000.0 -9035910000.0 -9035960000.0 -9036020000.0 -9036090000.0 -9036170000.0 -9036270000.0 -9036390000.0 -9036530000.0 -9036700000.0 -9036910000.0 -9037170000.0 -9037520000.0 -9037980000.0 -9038590000.0 -9039450000.0 -9040610000.0 -9042230000.0 -9044500000.0 -9047650000.0 -9052330000.0 -9059150000.0 -9068640000.0 -9082870000.0 -9103650000.0 -9133390000.0 -9173400000.0 -9280400000.0 -9180240000.0 -30692500000.0 -82847300000.0 -80415400000.0 -106952000000.0 -96560300000.0 -76493400000.0 -71759800000.0 -22376700000.0 -9182310000.0 -9271230000.0 -9169140000.0 -9129930000.0 -9101080000.0 -9080990000.0 -9067280000.0 -9058140000.0 -9051600000.0 -9047130000.0 -9044110000.0 -9041940000.0 -9040400000.0 -9039280000.0 -9038460000.0 -9037870000.0 -9037430000.0 -9037090000.0 -9036840000.0 -9036640000.0 -9036470000.0 -9036340000.0 -9036230000.0 -9036130000.0 -9036060000.0 -9035990000.0 -9035930000.0 -9035890000.0 -9035850000.0 -9035810000.0 -9035790000.0 -9035770000.0 -9035760000.0 -9035750000.0 -9035760000.0 -9035770000.0 -9035790000.0 -9035810000.0 -9035850000.0 -9035890000.0 -9035930000.0 -9035990000.0 -9036060000.0 -9036130000.0 -9036230000.0 -9036340000.0 -9036470000.0 -9036640000.0 -9036840000.0 -9037090000.0 -9037430000.0 -9037870000.0 -9038460000.0 -9039280000.0 -9040400000.0 -9041940000.0 -9044110000.0 -9047130000.0 -9051600000.0 -9058140000.0 -9067280000.0 -9080990000.0 -9101080000.0 -9129930000.0 -9169140000.0 -9271230000.0 -9182310000.0 -22376700000.0 -71759800000.0 -76493400000.0 -96560300000.0 -86036600000.0 -72177600000.0 -61473200000.0 -17102000000.0 -9181340000.0 -9257910000.0 -9162560000.0 -9124910000.0 -9097450000.0 -9078400000.0 -9065440000.0 -9056810000.0 -9050680000.0 -9046480000.0 -9043630000.0 -9041590000.0 -9040130000.0 -9039080000.0 -9038300000.0 -9037740000.0 -9037310000.0 -9037000000.0 -9036750000.0 -9036560000.0 -9036410000.0 -9036280000.0 -9036180000.0 -9036090000.0 -9036020000.0 -9035960000.0 -9035910000.0 -9035870000.0 -9035830000.0 -9035800000.0 -9035780000.0 -9035770000.0 -9035760000.0 -9035750000.0 -9035760000.0 -9035770000.0 -9035780000.0 -9035800000.0 -9035830000.0 -9035870000.0 -9035910000.0 -9035960000.0 -9036020000.0 -9036090000.0 -9036180000.0 -9036280000.0 -9036410000.0 -9036560000.0 -9036750000.0 -9037000000.0 -9037310000.0 -9037740000.0 -9038300000.0 -9039080000.0 -9040130000.0 -9041590000.0 -9043630000.0 -9046480000.0 -9050680000.0 -9056810000.0 -9065440000.0 -9078400000.0 -9097450000.0 -9124910000.0 -9162560000.0 -9257910000.0 -9181340000.0 -17102000000.0 -61473200000.0 -72177600000.0 -86036600000.0 -75879700000.0 -67380200000.0 -52172200000.0 -13902800000.0 -9177790000.0 -9241600000.0 -9154260000.0 -9118750000.0 -9093070000.0 -9075330000.0 -9063300000.0 -9055290000.0 -9049620000.0 -9045740000.0 -9043090000.0 -9041180000.0 -9039820000.0 -9038840000.0 -9038120000.0 -9037590000.0 -9037190000.0 -9036890000.0 -9036660000.0 -9036480000.0 -9036340000.0 -9036220000.0 -9036120000.0 -9036050000.0 -9035980000.0 -9035930000.0 -9035880000.0 -9035850000.0 -9035820000.0 -9035790000.0 -9035780000.0 -9035760000.0 -9035760000.0 -9035750000.0 -9035760000.0 -9035760000.0 -9035780000.0 -9035790000.0 -9035820000.0 -9035850000.0 -9035880000.0 -9035930000.0 -9035980000.0 -9036050000.0 -9036120000.0 -9036220000.0 -9036340000.0 -9036480000.0 -9036660000.0 -9036890000.0 -9037190000.0 -9037590000.0 -9038120000.0 -9038840000.0 -9039820000.0 -9041180000.0 -9043090000.0 -9045740000.0 -9049620000.0 -9055290000.0 -9063300000.0 -9075330000.0 -9093070000.0 -9118750000.0 -9154260000.0 -9241600000.0 -9177790000.0 -13902800000.0 -52172200000.0 -67380200000.0 -75879700000.0 -66453300000.0 -62192300000.0 -43941200000.0 -12049600000.0 -9172120000.0 -9223430000.0 -9144810000.0 -9111870000.0 -9088230000.0 -9071970000.0 -9060970000.0 -9053650000.0 -9048490000.0 -9044930000.0 -9042500000.0 -9040740000.0 -9039490000.0 -9038580000.0 -9037910000.0 -9037420000.0 -9037050000.0 -9036770000.0 -9036560000.0 -9036400000.0 -9036270000.0 -9036160000.0 -9036070000.0 -9036000000.0 -9035950000.0 -9035900000.0 -9035860000.0 -9035830000.0 -9035810000.0 -9035790000.0 -9035770000.0 -9035760000.0 -9035750000.0 -9035750000.0 -9035750000.0 -9035760000.0 -9035770000.0 -9035790000.0 -9035810000.0 -9035830000.0 -9035860000.0 -9035900000.0 -9035950000.0 -9036000000.0 -9036070000.0 -9036160000.0 -9036270000.0 -9036400000.0 -9036560000.0 -9036770000.0 -9037050000.0 -9037420000.0 -9037910000.0 -9038580000.0 -9039490000.0 -9040740000.0 -9042500000.0 -9044930000.0 -9048490000.0 -9053650000.0 -9060970000.0 -9071970000.0 -9088230000.0 -9111870000.0 -9144810000.0 -9223430000.0 -9172120000.0 -12049600000.0 -43941200000.0 -62192300000.0 -66453300000.0 -57982800000.0 -56791700000.0 -36808100000.0 -11014500000.0 -9164780000.0 -9204360000.0 -9134720000.0 -9104620000.0 -9083180000.0 -9068480000.0 -9058570000.0 -9051970000.0 -9047310000.0 -9044100000.0 -9041880000.0 -9040280000.0 -9039140000.0 -9038310000.0 -9037700000.0 -9037250000.0 -9036910000.0 -9036660000.0 -9036470000.0 -9036320000.0 -9036200000.0 -9036100000.0 -9036020000.0 -9035960000.0 -9035910000.0 -9035870000.0 -9035840000.0 -9035820000.0 -9035800000.0 -9035780000.0 -9035770000.0 -9035760000.0 -9035750000.0 -9035750000.0 -9035750000.0 -9035760000.0 -9035770000.0 -9035780000.0 -9035800000.0 -9035820000.0 -9035840000.0 -9035870000.0 -9035910000.0 -9035960000.0 -9036020000.0 -9036100000.0 -9036200000.0 -9036320000.0 -9036470000.0 -9036660000.0 -9036910000.0 -9037250000.0 -9037700000.0 -9038310000.0 -9039140000.0 -9040280000.0 -9041880000.0 -9044100000.0 -9047310000.0 -9051970000.0 -9058570000.0 -9068480000.0 -9083180000.0 -9104620000.0 -9134720000.0 -9204360000.0 -9164780000.0 -11014500000.0 -36808100000.0 -56791700000.0 -57982800000.0 -50567400000.0 -51369500000.0 -30759100000.0 -10441300000.0 -9156220000.0 -9185230000.0 -9124440000.0 -9097300000.0 -9078120000.0 -9065010000.0 -9056180000.0 -9050280000.0 -9046130000.0 -9043260000.0 -9041250000.0 -9039810000.0 -9038780000.0 -9038030000.0 -9037480000.0 -9037080000.0 -9036770000.0 -9036540000.0 -9036370000.0 -9036240000.0 -9036130000.0 -9036050000.0 -9035980000.0 -9035930000.0 -9035880000.0 -9035850000.0 -9035820000.0 -9035800000.0 -9035790000.0 -9035770000.0 -9035760000.0 -9035760000.0 -9035750000.0 -9035750000.0 -9035750000.0 -9035760000.0 -9035760000.0 -9035770000.0 -9035790000.0 -9035800000.0 -9035820000.0 -9035850000.0 -9035880000.0 -9035930000.0 -9035980000.0 -9036050000.0 -9036130000.0 -9036240000.0 -9036370000.0 -9036540000.0 -9036770000.0 -9037080000.0 -9037480000.0 -9038030000.0 -9038780000.0 -9039810000.0 -9041250000.0 -9043260000.0 -9046130000.0 -9050280000.0 -9056180000.0 -9065010000.0 -9078120000.0 -9097300000.0 -9124440000.0 -9185230000.0 -9156220000.0 -10441300000.0 -30759100000.0 -51369500000.0 -50567400000.0 -44204800000.0 -46092900000.0 -25741900000.0 -10111400000.0 -9146860000.0 -9166680000.0 -9114320000.0 -9090160000.0 -9073200000.0 -9061630000.0 -9053850000.0 -9048640000.0 -9044970000.0 -9042420000.0 -9040640000.0 -9039350000.0 -9038430000.0 -9037760000.0 -9037270000.0 -9036910000.0 -9036640000.0 -9036430000.0 -9036280000.0 -9036160000.0 -9036070000.0 -9036000000.0 -9035940000.0 -9035890000.0 -9035860000.0 -9035830000.0 -9035810000.0 -9035790000.0 -9035780000.0 -9035770000.0 -9035760000.0 -9035760000.0 -9035750000.0 -9035750000.0 -9035750000.0 -9035760000.0 -9035760000.0 -9035770000.0 -9035780000.0 -9035790000.0 -9035810000.0 -9035830000.0 -9035860000.0 -9035890000.0 -9035940000.0 -9036000000.0 -9036070000.0 -9036160000.0 -9036280000.0 -9036430000.0 -9036640000.0 -9036910000.0 -9037270000.0 -9037760000.0 -9038430000.0 -9039350000.0 -9040640000.0 -9042420000.0 -9044970000.0 -9048640000.0 -9053850000.0 -9061630000.0 -9073200000.0 -9090160000.0 -9114320000.0 -9166680000.0 -9146860000.0 -10111400000.0 -25741900000.0 -46092900000.0 -44204800000.0 -38821000000.0 -41092100000.0 -21671200000.0 -9902020000.0 -9137060000.0 -9149180000.0 -9104630000.0 -9083360000.0 -9068530000.0 -9058430000.0 -9051640000.0 -9047070000.0 -9043860000.0 -9041620000.0 -9040040000.0 -9038910000.0 -9038090000.0 -9037500000.0 -9037070000.0 -9036750000.0 -9036510000.0 -9036330000.0 -9036200000.0 -9036090000.0 -9036010000.0 -9035950000.0 -9035900000.0 -9035870000.0 -9035840000.0 -9035810000.0 -9035800000.0 -9035780000.0 -9035770000.0 -9035770000.0 -9035760000.0 -9035760000.0 -9035750000.0 -9035750000.0 -9035750000.0 -9035760000.0 -9035760000.0 -9035770000.0 -9035770000.0 -9035780000.0 -9035800000.0 -9035810000.0 -9035840000.0 -9035870000.0 -9035900000.0 -9035950000.0 -9036010000.0 -9036090000.0 -9036200000.0 -9036330000.0 -9036510000.0 -9036750000.0 -9037070000.0 -9037500000.0 -9038090000.0 -9038910000.0 -9040040000.0 -9041620000.0 -9043860000.0 -9047070000.0 -9051640000.0 -9058430000.0 -9068530000.0 -9083360000.0 -9104630000.0 -9149180000.0 -9137060000.0 -9902020000.0 -21671200000.0 -41092100000.0 -38821000000.0 -34300900000.0 -36458400000.0 -18438600000.0 -9750950000.0 -9127150000.0 -9133050000.0 -9095550000.0 -9077030000.0 -9064180000.0 -9055440000.0 -9049570000.0 -9045610000.0 -9042820000.0 -9040860000.0 -9039480000.0 -9038490000.0 -9037770000.0 -9037260000.0 -9036880000.0 -9036600000.0 -9036390000.0 -9036240000.0 -9036120000.0 -9036030000.0 -9035970000.0 -9035910000.0 -9035870000.0 -9035840000.0 -9035820000.0 -9035800000.0 -9035790000.0 -9035780000.0 -9035770000.0 -9035760000.0 -9035760000.0 -9035760000.0 -9035750000.0 -9035750000.0 -9035750000.0 -9035760000.0 -9035760000.0 -9035760000.0 -9035770000.0 -9035780000.0 -9035790000.0 -9035800000.0 -9035820000.0 -9035840000.0 -9035870000.0 -9035910000.0 -9035970000.0 -9036030000.0 -9036120000.0 -9036240000.0 -9036390000.0 -9036600000.0 -9036880000.0 -9037260000.0 -9037770000.0 -9038490000.0 -9039480000.0 -9040860000.0 -9042820000.0 -9045610000.0 -9049570000.0 -9055440000.0 -9064180000.0 -9077030000.0 -9095550000.0 -9133050000.0 -9127150000.0 -9750950000.0 -18438600000.0 -36458400000.0 -34300900000.0 -30513800000.0 -32248200000.0 -15924300000.0 -9629530000.0 -9117380000.0 -9118460000.0 -9087200000.0 -9071230000.0 -9060200000.0 -9052710000.0 -9047660000.0 -9044250000.0 -9041850000.0 -9040160000.0 -9038960000.0 -9038100000.0 -9037480000.0 -9037030000.0 -9036710000.0 -9036460000.0 -9036290000.0 -9036150000.0 -9036060000.0 -9035980000.0 -9035920000.0 -9035880000.0 -9035850000.0 -9035820000.0 -9035800000.0 -9035790000.0 -9035780000.0 -9035770000.0 -9035760000.0 -9035760000.0 -9035760000.0 -9035750000.0 -9035750000.0 -9035750000.0 -9035750000.0 -9035750000.0 -9035760000.0 -9035760000.0 -9035760000.0 -9035770000.0 -9035780000.0 -9035790000.0 -9035800000.0 -9035820000.0 -9035850000.0 -9035880000.0 -9035920000.0 -9035980000.0 -9036060000.0 -9036150000.0 -9036290000.0 -9036460000.0 -9036710000.0 -9037030000.0 -9037480000.0 -9038100000.0 -9038960000.0 -9040160000.0 -9041850000.0 -9044250000.0 -9047660000.0 -9052710000.0 -9060200000.0 -9071230000.0 -9087200000.0 -9118460000.0 -9117380000.0 -9629530000.0 -15924300000.0 -32248200000.0 -30513800000.0 -27332500000.0 -28488000000.0 -14007800000.0 -9526130000.0 -9107950000.0 -9105490000.0 -9079650000.0 -9066000000.0 -9056610000.0 -9050230000.0 -9045940000.0 -9043020000.0 -9040960000.0 -9039510000.0 -9038480000.0 -9037740000.0 -9037210000.0 -9036830000.0 -9036550000.0 -9036340000.0 -9036190000.0 -9036080000.0 -9036000000.0 -9035940000.0 -9035890000.0 -9035850000.0 -9035830000.0 -9035810000.0 -9035790000.0 -9035780000.0 -9035770000.0 -9035770000.0 -9035760000.0 -9035760000.0 -9035760000.0 -9035750000.0 -9035750000.0 -9035750000.0 -9035750000.0 -9035750000.0 -9035760000.0 -9035760000.0 -9035760000.0 -9035770000.0 -9035770000.0 -9035780000.0 -9035790000.0 -9035810000.0 -9035830000.0 -9035850000.0 -9035890000.0 -9035940000.0 -9036000000.0 -9036080000.0 -9036190000.0 -9036340000.0 -9036550000.0 -9036830000.0 -9037210000.0 -9037740000.0 -9038480000.0 -9039510000.0 -9040960000.0 -9043020000.0 -9045940000.0 -9050230000.0 -9056610000.0 -9066000000.0 -9079650000.0 -9105490000.0 -9107950000.0 -9526130000.0 -14007800000.0 -28488000000.0 -27332500000.0 -24644500000.0 -25180700000.0 -12574800000.0 -9436590000.0 -9099010000.0 -9094110000.0 -9072920000.0 -9061340000.0 -9053410000.0 -9048030000.0 -9044390000.0 -9041910000.0 -9040160000.0 -9038930000.0 -9038050000.0 -9037420000.0 -9036970000.0 -9036650000.0 -9036410000.0 -9036240000.0 -9036110000.0 -9036020000.0 -9035950000.0 -9035900000.0 -9035860000.0 -9035830000.0 -9035810000.0 -9035790000.0 -9035780000.0 -9035770000.0 -9035770000.0 -9035760000.0 -9035760000.0 -9035760000.0 -9035750000.0 -9035750000.0 -9035750000.0 -9035750000.0 -9035750000.0 -9035750000.0 -9035750000.0 -9035760000.0 -9035760000.0 -9035760000.0 -9035770000.0 -9035770000.0 -9035780000.0 -9035790000.0 -9035810000.0 -9035830000.0 -9035860000.0 -9035900000.0 -9035950000.0 -9036020000.0 -9036110000.0 -9036240000.0 -9036410000.0 -9036650000.0 -9036970000.0 -9037420000.0 -9038050000.0 -9038930000.0 -9040160000.0 -9041910000.0 -9044390000.0 -9048030000.0 -9053410000.0 -9061340000.0 -9072920000.0 -9094110000.0 -9099010000.0 -9436590000.0 -12574800000.0 -25180700000.0 -24644500000.0 -22357100000.0 -22311500000.0 -11523000000.0 -9359440000.0 -9090660000.0 -9084260000.0 -9066990000.0 -9057250000.0 -9050600000.0 -9046080000.0 -9043020000.0 -9040930000.0 -9039460000.0 -9038410000.0 -9037670000.0 -9037140000.0 -9036760000.0 -9036490000.0 -9036290000.0 -9036150000.0 -9036040000.0 -9035970000.0 -9035910000.0 -9035870000.0 -9035840000.0 -9035810000.0 -9035800000.0 -9035780000.0 -9035770000.0 -9035770000.0 -9035760000.0 -9035760000.0 -9035760000.0 -9035760000.0 -9035750000.0 -9035750000.0 -9035750000.0 -9035750000.0 -9035750000.0 -9035750000.0 -9035750000.0 -9035760000.0 -9035760000.0 -9035760000.0 -9035760000.0 -9035770000.0 -9035770000.0 -9035780000.0 -9035800000.0 -9035810000.0 -9035840000.0 -9035870000.0 -9035910000.0 -9035970000.0 -9036040000.0 -9036150000.0 -9036290000.0 -9036490000.0 -9036760000.0 -9037140000.0 -9037670000.0 -9038410000.0 -9039460000.0 -9040930000.0 -9043020000.0 -9046080000.0 -9050600000.0 -9057250000.0 -9066990000.0 -9084260000.0 -9090660000.0 -9359440000.0 -11523000000.0 -22311500000.0 -22357100000.0 -20397000000.0 -19853600000.0 -10764400000.0 -9293870000.0 -9082990000.0 -9075830000.0 -9061820000.0 -9053690000.0 -9048140000.0 -9044380000.0 -9041820000.0 -9040070000.0 -9038830000.0 -9037960000.0 -9037340000.0 -9036900000.0 -9036580000.0 -9036350000.0 -9036190000.0 -9036070000.0 -9035980000.0 -9035920000.0 -9035870000.0 -9035840000.0 -9035820000.0 -9035800000.0 -9035780000.0 -9035780000.0 -9035770000.0 -9035760000.0 -9035760000.0 -9035760000.0 -9035760000.0 -9035750000.0 -9035750000.0 -9035750000.0 -9035750000.0 -9035750000.0 -9035750000.0 -9035750000.0 -9035750000.0 -9035750000.0 -9035760000.0 -9035760000.0 -9035760000.0 -9035760000.0 -9035770000.0 -9035780000.0 -9035780000.0 -9035800000.0 -9035820000.0 -9035840000.0 -9035870000.0 -9035920000.0 -9035980000.0 -9036070000.0 -9036190000.0 -9036350000.0 -9036580000.0 -9036900000.0 -9037340000.0 -9037960000.0 -9038830000.0 -9040070000.0 -9041820000.0 -9044380000.0 -9048140000.0 -9053690000.0 -9061820000.0 -9075830000.0 -9082990000.0 -9293870000.0 -10764400000.0 -19853600000.0 -20397000000.0 -18707900000.0 -17772300000.0 -10226100000.0 -9239050000.0 -9076040000.0 -9068680000.0 -9057370000.0 -9050620000.0 -9046030000.0 -9042900000.0 -9040780000.0 -9039320000.0 -9038300000.0 -9037570000.0 -9037050000.0 -9036680000.0 -9036420000.0 -9036240000.0 -9036100000.0 -9036000000.0 -9035930000.0 -9035880000.0 -9035850000.0 -9035820000.0 -9035800000.0 -9035790000.0 -9035780000.0 -9035770000.0 -9035760000.0 -9035760000.0 -9035760000.0 -9035760000.0 -9035750000.0 -9035750000.0 -9035750000.0 -9035750000.0 -9035750000.0 -9035750000.0 -9035750000.0 -9035750000.0 -9035750000.0 -9035750000.0 -9035750000.0 -9035760000.0 -9035760000.0 -9035760000.0 -9035760000.0 -9035770000.0 -9035780000.0 -9035790000.0 -9035800000.0 -9035820000.0 -9035850000.0 -9035880000.0 -9035930000.0 -9036000000.0 -9036100000.0 -9036240000.0 -9036420000.0 -9036680000.0 -9037050000.0 -9037570000.0 -9038300000.0 -9039320000.0 -9040780000.0 -9042900000.0 -9046030000.0 -9050620000.0 -9057370000.0 -9068680000.0 -9076040000.0 -9239050000.0 -10226100000.0 -17772300000.0 -18707900000.0 -17247300000.0 -16029200000.0 -9849930000.0 -9193970000.0 -9069810000.0 -9062660000.0 -9053560000.0 -9048000000.0 -9044210000.0 -9041640000.0 -9039890000.0 -9038680000.0 -9037830000.0 -9037230000.0 -9036810000.0 -9036500000.0 -9036290000.0 -9036140000.0 -9036030000.0 -9035950000.0 -9035890000.0 -9035850000.0 -9035820000.0 -9035800000.0 -9035790000.0 -9035780000.0 -9035770000.0 -9035760000.0 -9035760000.0 -9035760000.0 -9035760000.0 -9035760000.0 -9035750000.0 -9035750000.0 -9035750000.0 -9035750000.0 -9035750000.0 -9035750000.0 -9035750000.0 -9035750000.0 -9035750000.0 -9035750000.0 -9035750000.0 -9035760000.0 -9035760000.0 -9035760000.0 -9035760000.0 -9035760000.0 -9035770000.0 -9035780000.0 -9035790000.0 -9035800000.0 -9035820000.0 -9035850000.0 -9035890000.0 -9035950000.0 -9036030000.0 -9036140000.0 -9036290000.0 -9036500000.0 -9036810000.0 -9037230000.0 -9037830000.0 -9038680000.0 -9039890000.0 -9041640000.0 -9044210000.0 -9048000000.0 -9053560000.0 -9062660000.0 -9069810000.0 -9193970000.0 -9849930000.0 -16029200000.0 -17247300000.0 -15982700000.0 -14584700000.0 -9590630000.0 -9157480000.0 -9064310000.0 -9057630000.0 -9050340000.0 -9045770000.0 -9042670000.0 -9040560000.0 -9039130000.0 -9038130000.0 -9037440000.0 -9036950000.0 -9036600000.0 -9036350000.0 -9036180000.0 -9036060000.0 -9035970000.0 -9035910000.0 -9035860000.0 -9035830000.0 -9035810000.0 -9035790000.0 -9035780000.0 -9035770000.0 -9035770000.0 -9035760000.0 -9035760000.0 -9035760000.0 -9035760000.0 -9035750000.0 -9035750000.0 -9035750000.0 -9035750000.0 -9035750000.0 -9035750000.0 -9035750000.0 -9035750000.0 -9035750000.0 -9035750000.0 -9035750000.0 -9035750000.0 -9035750000.0 -9035760000.0 -9035760000.0 -9035760000.0 -9035760000.0 -9035770000.0 -9035770000.0 -9035780000.0 -9035790000.0 -9035810000.0 -9035830000.0 -9035860000.0 -9035910000.0 -9035970000.0 -9036060000.0 -9036180000.0 -9036350000.0 -9036600000.0 -9036950000.0 -9037440000.0 -9038130000.0 -9039130000.0 -9040560000.0 -9042670000.0 -9045770000.0 -9050340000.0 -9057630000.0 -9064310000.0 -9157480000.0 -9590630000.0 -14584700000.0 -15982700000.0 -14888300000.0 -13399800000.0 -9413960000.0 -9128410000.0 -9059490000.0 -9053460000.0 -9047620000.0 -9043900000.0 -9041370000.0 -9039660000.0 -9038480000.0 -9037670000.0 -9037110000.0 -9036710000.0 -9036430000.0 -9036230000.0 -9036090000.0 -9035990000.0 -9035920000.0 -9035870000.0 -9035840000.0 -9035810000.0 -9035790000.0 -9035780000.0 -9035770000.0 -9035770000.0 -9035760000.0 -9035760000.0 -9035760000.0 -9035760000.0 -9035750000.0 -9035750000.0 -9035750000.0 -9035750000.0 -9035750000.0 -9035750000.0 -9035750000.0 -9035750000.0 -9035750000.0 -9035750000.0 -9035750000.0 -9035750000.0 -9035750000.0 -9035750000.0 -9035750000.0 -9035760000.0 -9035760000.0 -9035760000.0 -9035760000.0 -9035770000.0 -9035770000.0 -9035780000.0 -9035790000.0 -9035810000.0 -9035840000.0 -9035870000.0 -9035920000.0 -9035990000.0 -9036090000.0 -9036230000.0 -9036430000.0 -9036710000.0 -9037110000.0 -9037670000.0 -9038480000.0 -9039660000.0 -9041370000.0 -9043900000.0 -9047620000.0 -9053460000.0 -9059490000.0 -9128410000.0 -9413960000.0 -13399800000.0 -14888300000.0 -13943400000.0 -12437500000.0 -9294660000.0 -9105580000.0 -9055330000.0 -9050020000.0 -9045350000.0 -9042330000.0 -9040290000.0 -9038900000.0 -9037950000.0 -9037290000.0 -9036830000.0 -9036510000.0 -9036280000.0 -9036120000.0 -9036010000.0 -9035940000.0 -9035880000.0 -9035840000.0 -9035820000.0 -9035800000.0 -9035780000.0 -9035770000.0 -9035770000.0 -9035760000.0 -9035760000.0 -9035760000.0 -9035760000.0 -9035750000.0 -9035750000.0 -9035750000.0 -9035750000.0 -9035750000.0 -9035750000.0 -9035750000.0 -9035750000.0 -9035750000.0 -9035750000.0 -9035750000.0 -9035750000.0 -9035750000.0 -9035750000.0 -9035750000.0 -9035750000.0 -9035750000.0 -9035760000.0 -9035760000.0 -9035760000.0 -9035760000.0 -9035770000.0 -9035770000.0 -9035780000.0 -9035800000.0 -9035820000.0 -9035840000.0 -9035880000.0 -9035940000.0 -9036010000.0 -9036120000.0 -9036280000.0 -9036510000.0 -9036830000.0 -9037290000.0 -9037950000.0 -9038900000.0 -9040290000.0 -9042330000.0 -9045350000.0 -9050020000.0 -9055330000.0 -9105580000.0 -9294660000.0 -12437500000.0 -13943400000.0 -13130500000.0 -11663900000.0 -9214540000.0 -9087890000.0 -9051770000.0 -9047180000.0 -9043470000.0 -9041030000.0 -9039390000.0 -9038270000.0 -9037500000.0 -9036970000.0 -9036600000.0 -9036350000.0 -9036170000.0 -9036040000.0 -9035950000.0 -9035890000.0 -9035850000.0 -9035820000.0 -9035800000.0 -9035790000.0 -9035780000.0 -9035770000.0 -9035760000.0 -9035760000.0 -9035760000.0 -9035760000.0 -9035750000.0 -9035750000.0 -9035750000.0 -9035750000.0 -9035750000.0 -9035750000.0 -9035750000.0 -9035750000.0 -9035750000.0 -9035750000.0 -9035750000.0 -9035750000.0 -9035750000.0 -9035750000.0 -9035750000.0 -9035750000.0 -9035750000.0 -9035750000.0 -9035750000.0 -9035760000.0 -9035760000.0 -9035760000.0 -9035760000.0 -9035770000.0 -9035780000.0 -9035790000.0 -9035800000.0 -9035820000.0 -9035850000.0 -9035890000.0 -9035950000.0 -9036040000.0 -9036170000.0 -9036350000.0 -9036600000.0 -9036970000.0 -9037500000.0 -9038270000.0 -9039390000.0 -9041030000.0 -9043470000.0 -9047180000.0 -9051770000.0 -9087890000.0 -9214540000.0 -11663900000.0 -13130500000.0 -12434300000.0 -11048100000.0 -9160770000.0 -9074370000.0 -9048750000.0 -9044870000.0 -9041920000.0 -9039960000.0 -9038640000.0 -9037750000.0 -9037130000.0 -9036710000.0 -9036420000.0 -9036210000.0 -9036070000.0 -9035970000.0 -9035910000.0 -9035860000.0 -9035830000.0 -9035800000.0 -9035790000.0 -9035780000.0 -9035770000.0 -9035760000.0 -9035760000.0 -9035760000.0 -9035760000.0 -9035760000.0 -9035750000.0 -9035750000.0 -9035750000.0 -9035750000.0 -9035750000.0 -9035750000.0 -9035750000.0 -9035750000.0 -9035750000.0 -9035750000.0 -9035750000.0 -9035750000.0 -9035750000.0 -9035750000.0 -9035750000.0 -9035750000.0 -9035750000.0 -9035750000.0 -9035750000.0 -9035760000.0 -9035760000.0 -9035760000.0 -9035760000.0 -9035760000.0 -9035770000.0 -9035780000.0 -9035790000.0 -9035800000.0 -9035830000.0 -9035860000.0 -9035910000.0 -9035970000.0 -9036070000.0 -9036210000.0 -9036420000.0 -9036710000.0 -9037130000.0 -9037750000.0 -9038640000.0 -9039960000.0 -9041920000.0 -9044870000.0 -9048750000.0 -9074370000.0 -9160770000.0 -11048100000.0 -12434300000.0 -11841100000.0 -10562700000.0 -9124540000.0 -9064150000.0 -9046210000.0 -9042980000.0 -9040640000.0 -9039090000.0 -9038030000.0 -9037320000.0 -9036830000.0 -9036500000.0 -9036270000.0 -9036110000.0 -9036000000.0 -9035920000.0 -9035870000.0 -9035830000.0 -9035810000.0 -9035790000.0 -9035780000.0 -9035770000.0 -9035760000.0 -9035760000.0 -9035760000.0 -9035760000.0 -9035760000.0 -9035750000.0 -9035750000.0 -9035750000.0 -9035750000.0 -9035750000.0 -9035750000.0 -9035750000.0 -9035750000.0 -9035750000.0 -9035750000.0 -9035750000.0 -9035750000.0 -9035750000.0 -9035750000.0 -9035750000.0 -9035750000.0 -9035750000.0 -9035750000.0 -9035750000.0 -9035750000.0 -9035750000.0 -9035760000.0 -9035760000.0 -9035760000.0 -9035760000.0 -9035760000.0 -9035770000.0 -9035780000.0 -9035790000.0 -9035810000.0 -9035830000.0 -9035870000.0 -9035920000.0 -9036000000.0 -9036110000.0 -9036270000.0 -9036500000.0 -9036830000.0 -9037320000.0 -9038030000.0 -9039090000.0 -9040640000.0 -9042980000.0 -9046210000.0 -9064150000.0 -9124540000.0 -10562700000.0 -11841100000.0 -11338500000.0 -10183900000.0 -9099880000.0 -9056520000.0 -9044110000.0 -9041460000.0 -9039610000.0 -9038370000.0 -9037540000.0 -9036980000.0 -9036590000.0 -9036330000.0 -9036150000.0 -9036030000.0 -9035940000.0 -9035880000.0 -9035840000.0 -9035810000.0 -9035790000.0 -9035780000.0 -9035770000.0 -9035770000.0 -9035760000.0 -9035760000.0 -9035760000.0 -9035760000.0 -9035750000.0 -9035750000.0 -9035750000.0 -9035750000.0 -9035750000.0 -9035750000.0 -9035750000.0 -9035750000.0 -9035750000.0 -9035750000.0 -9035750000.0 -9035750000.0 -9035750000.0 -9035750000.0 -9035750000.0 -9035750000.0 -9035750000.0 -9035750000.0 -9035750000.0 -9035750000.0 -9035750000.0 -9035750000.0 -9035750000.0 -9035760000.0 -9035760000.0 -9035760000.0 -9035760000.0 -9035770000.0 -9035770000.0 -9035780000.0 -9035790000.0 -9035810000.0 -9035840000.0 -9035880000.0 -9035940000.0 -9036030000.0 -9036150000.0 -9036330000.0 -9036590000.0 -9036980000.0 -9037540000.0 -9038370000.0 -9039610000.0 -9041460000.0 -9044110000.0 -9056520000.0 -9099880000.0 -10183900000.0 -11338500000.0 -10915200000.0 -9891310000.0 -9082830000.0 -9050860000.0 -9042380000.0 -9040220000.0 -9038770000.0 -9037800000.0 -9037140000.0 -9036700000.0 -9036400000.0 -9036200000.0 -9036060000.0 -9035960000.0 -9035890000.0 -9035850000.0 -9035820000.0 -9035800000.0 -9035780000.0 -9035770000.0 -9035770000.0 -9035760000.0 -9035760000.0 -9035760000.0 -9035760000.0 -9035750000.0 -9035750000.0 -9035750000.0 -9035750000.0 -9035750000.0 -9035750000.0 -9035750000.0 -9035750000.0 -9035750000.0 -9035750000.0 -9035750000.0 -9035750000.0 -9035750000.0 -9035750000.0 -9035750000.0 -9035750000.0 -9035750000.0 -9035750000.0 -9035750000.0 -9035750000.0 -9035750000.0 -9035750000.0 -9035750000.0 -9035750000.0 -9035750000.0 -9035760000.0 -9035760000.0 -9035760000.0 -9035760000.0 -9035770000.0 -9035770000.0 -9035780000.0 -9035800000.0 -9035820000.0 -9035850000.0 -9035890000.0 -9035960000.0 -9036060000.0 -9036200000.0 -9036400000.0 -9036700000.0 -9037140000.0 -9037800000.0 -9038770000.0 -9040220000.0 -9042380000.0 -9050860000.0 -9082830000.0 -9891310000.0 -10915200000.0 -10560800000.0 -9667480000.0 -9070800000.0 -9046710000.0 -9040960000.0 -9039240000.0 -9038100000.0 -9037340000.0 -9036830000.0 -9036480000.0 -9036250000.0 -9036090000.0 -9035980000.0 -9035910000.0 -9035860000.0 -9035820000.0 -9035800000.0 -9035790000.0 -9035770000.0 -9035770000.0 -9035760000.0 -9035760000.0 -9035760000.0 -9035760000.0 -9035750000.0 -9035750000.0 -9035750000.0 -9035750000.0 -9035750000.0 -9035750000.0 -9035750000.0 -9035750000.0 -9035750000.0 -9035750000.0 -9035750000.0 -9035750000.0 -9035750000.0 -9035750000.0 -9035750000.0 -9035750000.0 -9035750000.0 -9035750000.0 -9035750000.0 -9035750000.0 -9035750000.0 -9035750000.0 -9035750000.0 -9035750000.0 -9035750000.0 -9035750000.0 -9035750000.0 -9035760000.0 -9035760000.0 -9035760000.0 -9035760000.0 -9035770000.0 -9035770000.0 -9035790000.0 -9035800000.0 -9035820000.0 -9035860000.0 -9035910000.0 -9035980000.0 -9036090000.0 -9036250000.0 -9036480000.0 -9036830000.0 -9037340000.0 -9038100000.0 -9039240000.0 -9040960000.0 -9046710000.0 -9070800000.0 -9667480000.0 -10560800000.0 -10265900000.0 -9497960000.0 -9062140000.0 -9043690000.0 -9039820000.0 -9038450000.0 -9037560000.0 -9036970000.0 -9036570000.0 -9036310000.0 -9036130000.0 -9036010000.0 -9035920000.0 -9035870000.0 -9035830000.0 -9035810000.0 -9035790000.0 -9035780000.0 -9035770000.0 -9035760000.0 -9035760000.0 -9035760000.0 -9035760000.0 -9035750000.0 -9035750000.0 -9035750000.0 -9035750000.0 -9035750000.0 -9035750000.0 -9035750000.0 -9035750000.0 -9035750000.0 -9035750000.0 -9035750000.0 -9035750000.0 -9035750000.0 -9035750000.0 -9035750000.0 -9035750000.0 -9035750000.0 -9035750000.0 -9035750000.0 -9035750000.0 -9035750000.0 -9035750000.0 -9035750000.0 -9035750000.0 -9035750000.0 -9035750000.0 -9035750000.0 -9035750000.0 -9035750000.0 -9035760000.0 -9035760000.0 -9035760000.0 -9035760000.0 -9035770000.0 -9035780000.0 -9035790000.0 -9035810000.0 -9035830000.0 -9035870000.0 -9035920000.0 -9036010000.0 -9036130000.0 -9036310000.0 -9036570000.0 -9036970000.0 -9037560000.0 -9038450000.0 -9039820000.0 -9043690000.0 -9062140000.0 -9497960000.0 -10265900000.0 -10022200000.0 -9370850000.0 -9055760000.0 -9041490000.0 -9038900000.0 -9037830000.0 -9037140000.0 -9036680000.0 -9036380000.0 -9036170000.0 -9036030000.0 -9035940000.0 -9035880000.0 -9035840000.0 -9035810000.0 -9035790000.0 -9035780000.0 -9035770000.0 -9035760000.0 -9035760000.0 -9035760000.0 -9035760000.0 -9035750000.0 -9035750000.0 -9035750000.0 -9035750000.0 -9035750000.0 -9035750000.0 -9035750000.0 -9035750000.0 -9035750000.0 -9035750000.0 -9035750000.0 -9035750000.0 -9035750000.0 -9035750000.0 -9035750000.0 -9035750000.0 -9035750000.0 -9035750000.0 -9035750000.0 -9035750000.0 -9035750000.0 -9035750000.0 -9035750000.0 -9035750000.0 -9035750000.0 -9035750000.0 -9035750000.0 -9035750000.0 -9035750000.0 -9035750000.0 -9035750000.0 -9035760000.0 -9035760000.0 -9035760000.0 -9035760000.0 -9035770000.0 -9035780000.0 -9035790000.0 -9035810000.0 -9035840000.0 -9035880000.0 -9035940000.0 -9036030000.0 -9036170000.0 -9036380000.0 -9036680000.0 -9037140000.0 -9037830000.0 -9038900000.0 -9041490000.0 -9055760000.0 -9370850000.0 -10022200000.0 -9822030000.0 -9276490000.0 -9050990000.0 -9039900000.0 -9038180000.0 -9037340000.0 -9036810000.0 -9036460000.0 -9036220000.0 -9036070000.0 -9035960000.0 -9035890000.0 -9035850000.0 -9035820000.0 -9035790000.0 -9035780000.0 -9035770000.0 -9035760000.0 -9035760000.0 -9035760000.0 -9035760000.0 -9035760000.0 -9035750000.0 -9035750000.0 -9035750000.0 -9035750000.0 -9035750000.0 -9035750000.0 -9035750000.0 -9035750000.0 -9035750000.0 -9035750000.0 -9035750000.0 -9035750000.0 -9035750000.0 -9035750000.0 -9035750000.0 -9035750000.0 -9035750000.0 -9035750000.0 -9035750000.0 -9035750000.0 -9035750000.0 -9035750000.0 -9035750000.0 -9035750000.0 -9035750000.0 -9035750000.0 -9035750000.0 -9035750000.0 -9035750000.0 -9035750000.0 -9035750000.0 -9035760000.0 -9035760000.0 -9035760000.0 -9035760000.0 -9035760000.0 -9035770000.0 -9035780000.0 -9035790000.0 -9035820000.0 -9035850000.0 -9035890000.0 -9035960000.0 -9036070000.0 -9036220000.0 -9036460000.0 -9036810000.0 -9037340000.0 -9038180000.0 -9039900000.0 -9050990000.0 -9276490000.0 -9822030000.0 -9658660000.0 -9207120000.0 -9047350000.0 -9038750000.0 -9037600000.0 -9036960000.0 -9036550000.0 -9036280000.0 -9036100000.0 -9035990000.0 -9035910000.0 -9035860000.0 -9035820000.0 -9035800000.0 -9035780000.0 -9035770000.0 -9035770000.0 -9035760000.0 -9035760000.0 -9035760000.0 -9035760000.0 -9035750000.0 -9035750000.0 -9035750000.0 -9035750000.0 -9035750000.0 -9035750000.0 -9035750000.0 -9035750000.0 -9035750000.0 -9035750000.0 -9035750000.0 -9035750000.0 -9035750000.0 -9035750000.0 -9035750000.0 -9035750000.0 -9035750000.0 -9035750000.0 -9035750000.0 -9035750000.0 -9035750000.0 -9035750000.0 -9035750000.0 -9035750000.0 -9035750000.0 -9035750000.0 -9035750000.0 -9035750000.0 -9035750000.0 -9035750000.0 -9035750000.0 -9035750000.0 -9035750000.0 -9035760000.0 -9035760000.0 -9035760000.0 -9035760000.0 -9035770000.0 -9035770000.0 -9035780000.0 -9035800000.0 -9035820000.0 -9035860000.0 -9035910000.0 -9035990000.0 -9036100000.0 -9036280000.0 -9036550000.0 -9036960000.0 -9037600000.0 -9038750000.0 -9047350000.0 -9207120000.0 -9658660000.0 -9526200000.0 -9156630000.0 -9044570000.0 -9037920000.0 -9037150000.0 -9036660000.0 -9036350000.0 -9036150000.0 -9036010000.0 -9035930000.0 -9035870000.0 -9035830000.0 -9035800000.0 -9035790000.0 -9035770000.0 -9035770000.0 -9035760000.0 -9035760000.0 -9035760000.0 -9035760000.0 -9035750000.0 -9035750000.0 -9035750000.0 -9035750000.0 -9035750000.0 -9035750000.0 -9035750000.0 -9035750000.0 -9035750000.0 -9035750000.0 -9035750000.0 -9035750000.0 -9035750000.0 -9035750000.0 -9035750000.0 -9035750000.0 -9035750000.0 -9035750000.0 -9035750000.0 -9035750000.0 -9035750000.0 -9035750000.0 -9035750000.0 -9035750000.0 -9035750000.0 -9035750000.0 -9035750000.0 -9035750000.0 -9035750000.0 -9035750000.0 -9035750000.0 -9035750000.0 -9035750000.0 -9035750000.0 -9035750000.0 -9035760000.0 -9035760000.0 -9035760000.0 -9035760000.0 -9035770000.0 -9035770000.0 -9035790000.0 -9035800000.0 -9035830000.0 -9035870000.0 -9035930000.0 -9036010000.0 -9036150000.0 -9036350000.0 -9036660000.0 -9037150000.0 -9037920000.0 -9044570000.0 -9156630000.0 -9526200000.0 -9419490000.0 -9120240000.0 -9042420000.0 -9037330000.0 -9036810000.0 -9036430000.0 -9036200000.0 -9036050000.0 -9035950000.0 -9035880000.0 -9035840000.0 -9035810000.0 -9035790000.0 -9035780000.0 -9035770000.0 -9035760000.0 -9035760000.0 -9035760000.0 -9035760000.0 -9035750000.0 -9035750000.0 -9035750000.0 -9035750000.0 -9035750000.0 -9035750000.0 -9035750000.0 -9035750000.0 -9035750000.0 -9035750000.0 -9035750000.0 -9035750000.0 -9035750000.0 -9035750000.0 -9035750000.0 -9035750000.0 -9035750000.0 -9035750000.0 -9035750000.0 -9035750000.0 -9035750000.0 -9035750000.0 -9035750000.0 -9035750000.0 -9035750000.0 -9035750000.0 -9035750000.0 -9035750000.0 -9035750000.0 -9035750000.0 -9035750000.0 -9035750000.0 -9035750000.0 -9035750000.0 -9035750000.0 -9035750000.0 -9035750000.0 -9035760000.0 -9035760000.0 -9035760000.0 -9035760000.0 -9035770000.0 -9035780000.0 -9035790000.0 -9035810000.0 -9035840000.0 -9035880000.0 -9035950000.0 -9036050000.0 -9036200000.0 -9036430000.0 -9036810000.0 -9037330000.0 -9042420000.0 -9120240000.0 -9419490000.0 -9334090000.0 -9094260000.0 -9040770000.0 -9036890000.0 -9036540000.0 -9036260000.0 -9036080000.0 -9035970000.0 -9035890000.0 -9035850000.0 -9035810000.0 -9035790000.0 -9035780000.0 -9035770000.0 -9035760000.0 -9035760000.0 -9035760000.0 -9035760000.0 -9035750000.0 -9035750000.0 -9035750000.0 -9035750000.0 -9035750000.0 -9035750000.0 -9035750000.0 -9035750000.0 -9035750000.0 -9035750000.0 -9035750000.0 -9035750000.0 -9035750000.0 -9035750000.0 -9035750000.0 -9035750000.0 -9035750000.0 -9035750000.0 -9035750000.0 -9035750000.0 -9035750000.0 -9035750000.0 -9035750000.0 -9035750000.0 -9035750000.0 -9035750000.0 -9035750000.0 -9035750000.0 -9035750000.0 -9035750000.0 -9035750000.0 -9035750000.0 -9035750000.0 -9035750000.0 -9035750000.0 -9035750000.0 -9035750000.0 -9035750000.0 -9035750000.0 -9035760000.0 -9035760000.0 -9035760000.0 -9035760000.0 -9035770000.0 -9035780000.0 -9035790000.0 -9035810000.0 -9035850000.0 -9035890000.0 -9035970000.0 -9036080000.0 -9036260000.0 -9036540000.0 -9036890000.0 -9040770000.0 -9094260000.0 -9334090000.0 -9266190000.0 -9075900000.0 -9039510000.0 -9036580000.0 -9036340000.0 -9036120000.0 -9036000000.0 -9035910000.0 -9035860000.0 -9035820000.0 -9035800000.0 -9035780000.0 -9035770000.0 -9035760000.0 -9035760000.0 -9035760000.0 -9035760000.0 -9035750000.0 -9035750000.0 -9035750000.0 -9035750000.0 -9035750000.0 -9035750000.0 -9035750000.0 -9035750000.0 -9035750000.0 -9035750000.0 -9035750000.0 -9035750000.0 -9035750000.0 -9035750000.0 -9035750000.0 -9035750000.0 -9035750000.0 -9035750000.0 -9035750000.0 -9035750000.0 -9035750000.0 -9035750000.0 -9035750000.0 -9035750000.0 -9035750000.0 -9035750000.0 -9035750000.0 -9035750000.0 -9035750000.0 -9035750000.0 -9035750000.0 -9035750000.0 -9035750000.0 -9035750000.0 -9035750000.0 -9035750000.0 -9035750000.0 -9035750000.0 -9035750000.0 -9035750000.0 -9035750000.0 -9035760000.0 -9035760000.0 -9035760000.0 -9035760000.0 -9035770000.0 -9035780000.0 -9035800000.0 -9035820000.0 -9035860000.0 -9035910000.0 -9036000000.0 -9036120000.0 -9036340000.0 -9036580000.0 -9039510000.0 -9075900000.0 -9266190000.0 -9212550000.0 -9063050000.0 -9038540000.0 -9036350000.0 -9036180000.0 -9036030000.0 -9035930000.0 -9035870000.0 -9035830000.0 -9035800000.0 -9035780000.0 -9035770000.0 -9035770000.0 -9035760000.0 -9035760000.0 -9035760000.0 -9035760000.0 -9035750000.0 -9035750000.0 -9035750000.0 -9035750000.0 -9035750000.0 -9035750000.0 -9035750000.0 -9035750000.0 -9035750000.0 -9035750000.0 -9035750000.0 -9035750000.0 -9035750000.0 -9035750000.0 -9035750000.0 -9035750000.0 -9035750000.0 -9035750000.0 -9035750000.0 -9035750000.0 -9035750000.0 -9035750000.0 -9035750000.0 -9035750000.0 -9035750000.0 -9035750000.0 -9035750000.0 -9035750000.0 -9035750000.0 -9035750000.0 -9035750000.0 -9035750000.0 -9035750000.0 -9035750000.0 -9035750000.0 -9035750000.0 -9035750000.0 -9035750000.0 -9035750000.0 -9035750000.0 -9035750000.0 -9035760000.0 -9035760000.0 -9035760000.0 -9035760000.0 -9035770000.0 -9035770000.0 -9035780000.0 -9035800000.0 -9035830000.0 -9035870000.0 -9035930000.0 -9036030000.0 -9036180000.0 -9036350000.0 -9038540000.0 -9063050000.0 -9212550000.0 -9170450000.0 -9054140000.0 -9037800000.0 -9036190000.0 -9036070000.0 -9035950000.0 -9035880000.0 -9035840000.0 -9035810000.0 -9035790000.0 -9035780000.0 -9035770000.0 -9035760000.0 -9035760000.0 -9035760000.0 -9035760000.0 -9035750000.0 -9035750000.0 -9035750000.0 -9035750000.0 -9035750000.0 -9035750000.0 -9035750000.0 -9035750000.0 -9035750000.0 -9035750000.0 -9035750000.0 -9035750000.0 -9035750000.0 -9035750000.0 -9035750000.0 -9035750000.0 -9035750000.0 -9035750000.0 -9035750000.0 -9035750000.0 -9035750000.0 -9035750000.0 -9035750000.0 -9035750000.0 -9035750000.0 -9035750000.0 -9035750000.0 -9035750000.0 -9035750000.0 -9035750000.0 -9035750000.0 -9035750000.0 -9035750000.0 -9035750000.0 -9035750000.0 -9035750000.0 -9035750000.0 -9035750000.0 -9035750000.0 -9035750000.0 -9035750000.0 -9035750000.0 -9035750000.0 -9035760000.0 -9035760000.0 -9035760000.0 -9035760000.0 -9035770000.0 -9035780000.0 -9035790000.0 -9035810000.0 -9035840000.0 -9035880000.0 -9035950000.0 -9036070000.0 -9036190000.0 -9037800000.0 -9054140000.0 -9170450000.0 -9137610000.0 -9048020000.0 -9037250000.0 -9036070000.0 -9035980000.0 -9035900000.0 -9035850000.0 -9035810000.0 -9035790000.0 -9035780000.0 -9035770000.0 -9035760000.0 -9035760000.0 -9035760000.0 -9035760000.0 -9035750000.0 -9035750000.0 -9035750000.0 -9035750000.0 -9035750000.0 -9035750000.0 -9035750000.0 -9035750000.0 -9035750000.0 -9035750000.0 -9035750000.0 -9035750000.0 -9035750000.0 -9035750000.0 -9035750000.0 -9035750000.0 -9035750000.0 -9035750000.0 -9035750000.0 -9035750000.0 -9035750000.0 -9035750000.0 -9035750000.0 -9035750000.0 -9035750000.0 -9035750000.0 -9035750000.0 -9035750000.0 -9035750000.0 -9035750000.0 -9035750000.0 -9035750000.0 -9035750000.0 -9035750000.0 -9035750000.0 -9035750000.0 -9035750000.0 -9035750000.0 -9035750000.0 -9035750000.0 -9035750000.0 -9035750000.0 -9035750000.0 -9035750000.0 -9035750000.0 -9035760000.0 -9035760000.0 -9035760000.0 -9035760000.0 -9035770000.0 -9035780000.0 -9035790000.0 -9035810000.0 -9035850000.0 -9035900000.0 -9035980000.0 -9036070000.0 -9037250000.0 -9048020000.0 -9137610000.0 -9112130000.0 -9043860000.0 -9036840000.0 -9035980000.0 -9035920000.0 -9035860000.0 -9035820000.0 -9035790000.0 -9035780000.0 -9035770000.0 -9035760000.0 -9035760000.0 -9035760000.0 -9035760000.0 -9035750000.0 -9035750000.0 -9035750000.0 -9035750000.0 -9035750000.0 -9035750000.0 -9035750000.0 -9035750000.0 -9035750000.0 -9035750000.0 -9035750000.0 -9035750000.0 -9035750000.0 -9035750000.0 -9035750000.0 -9035750000.0 -9035750000.0 -9035750000.0 -9035750000.0 -9035750000.0 -9035750000.0 -9035750000.0 -9035750000.0 -9035750000.0 -9035750000.0 -9035750000.0 -9035750000.0 -9035750000.0 -9035750000.0 -9035750000.0 -9035750000.0 -9035750000.0 -9035750000.0 -9035750000.0 -9035750000.0 -9035750000.0 -9035750000.0 -9035750000.0 -9035750000.0 -9035750000.0 -9035750000.0 -9035750000.0 -9035750000.0 -9035750000.0 -9035750000.0 -9035750000.0 -9035750000.0 -9035760000.0 -9035760000.0 -9035760000.0 -9035760000.0 -9035770000.0 -9035780000.0 -9035790000.0 -9035820000.0 -9035860000.0 -9035920000.0 -9035980000.0 -9036840000.0 -9043860000.0 -9112130000.0 -9092460000.0 -9041060000.0 -9036530000.0 -9035920000.0 -9035870000.0 -9035830000.0 -9035800000.0 -9035780000.0 -9035770000.0 -9035760000.0 -9035760000.0 -9035760000.0 -9035760000.0 -9035750000.0 -9035750000.0 -9035750000.0 -9035750000.0 -9035750000.0 -9035750000.0 -9035750000.0 -9035750000.0 -9035750000.0 -9035750000.0 -9035750000.0 -9035750000.0 -9035750000.0 -9035750000.0 -9035750000.0 -9035750000.0 -9035750000.0 -9035750000.0 -9035750000.0 -9035750000.0 -9035750000.0 -9035750000.0 -9035750000.0 -9035750000.0 -9035750000.0 -9035750000.0 -9035750000.0 -9035750000.0 -9035750000.0 -9035750000.0 -9035750000.0 -9035750000.0 -9035750000.0 -9035750000.0 -9035750000.0 -9035750000.0 -9035750000.0 -9035750000.0 -9035750000.0 -9035750000.0 -9035750000.0 -9035750000.0 -9035750000.0 -9035750000.0 -9035750000.0 -9035750000.0 -9035750000.0 -9035750000.0 -9035750000.0 -9035760000.0 -9035760000.0 -9035760000.0 -9035760000.0 -9035770000.0 -9035780000.0 -9035800000.0 -9035830000.0 -9035870000.0 -9035920000.0 -9036530000.0 -9041060000.0 -9092460000.0 -9077310000.0 -9039180000.0 -9036300000.0 -9035870000.0 -9035840000.0 -9035800000.0 -9035790000.0 -9035770000.0 -9035770000.0 -9035760000.0 -9035760000.0 -9035760000.0 -9035760000.0 -9035750000.0 -9035750000.0 -9035750000.0 -9035750000.0 -9035750000.0 -9035750000.0 -9035750000.0 -9035750000.0 -9035750000.0 -9035750000.0 -9035750000.0 -9035750000.0 -9035750000.0 -9035750000.0 -9035750000.0 -9035750000.0 -9035750000.0 -9035750000.0 -9035750000.0 -9035750000.0 -9035750000.0 -9035750000.0 -9035750000.0 -9035750000.0 -9035750000.0 -9035750000.0 -9035750000.0 -9035750000.0 -9035750000.0 -9035750000.0 -9035750000.0 -9035750000.0 -9035750000.0 -9035750000.0 -9035750000.0 -9035750000.0 -9035750000.0 -9035750000.0 -9035750000.0 -9035750000.0 -9035750000.0 -9035750000.0 -9035750000.0 -9035750000.0 -9035750000.0 -9035750000.0 -9035750000.0 -9035750000.0 -9035750000.0 -9035760000.0 -9035760000.0 -9035760000.0 -9035760000.0 -9035770000.0 -9035770000.0 -9035790000.0 -9035800000.0 -9035840000.0 -9035870000.0 -9036300000.0 -9039180000.0 -9077310000.0 -9065620000.0 -9037940000.0 -9036130000.0 -9035830000.0 -9035810000.0 -9035790000.0 -9035780000.0 -9035770000.0 -9035760000.0 -9035760000.0 -9035760000.0 -9035760000.0 -9035750000.0 -9035750000.0 -9035750000.0 -9035750000.0 -9035750000.0 -9035750000.0 -9035750000.0 -9035750000.0 -9035750000.0 -9035750000.0 -9035750000.0 -9035750000.0 -9035750000.0 -9035750000.0 -9035750000.0 -9035750000.0 -9035750000.0 -9035750000.0 -9035750000.0 -9035750000.0 -9035750000.0 -9035750000.0 -9035750000.0 -9035750000.0 -9035750000.0 -9035750000.0 -9035750000.0 -9035750000.0 -9035750000.0 -9035750000.0 -9035750000.0 -9035750000.0 -9035750000.0 -9035750000.0 -9035750000.0 -9035750000.0 -9035750000.0 -9035750000.0 -9035750000.0 -9035750000.0 -9035750000.0 -9035750000.0 -9035750000.0 -9035750000.0 -9035750000.0 -9035750000.0 -9035750000.0 -9035750000.0 -9035750000.0 -9035750000.0 -9035750000.0 -9035760000.0 -9035760000.0 -9035760000.0 -9035760000.0 -9035770000.0 -9035780000.0 -9035790000.0 -9035810000.0 -9035830000.0 -9036130000.0 -9037940000.0 -9065620000.0 -9056520000.0 -9037120000.0 -9036010000.0 -9035810000.0 -9035790000.0 -9035780000.0 -9035770000.0 -9035760000.0 -9035760000.0 -9035760000.0 -9035760000.0 -9035750000.0 -9035750000.0 -9035750000.0 -9035750000.0 -9035750000.0 -9035750000.0 -9035750000.0 -9035750000.0 -9035750000.0 -9035750000.0 -9035750000.0 -9035750000.0 -9035750000.0 -9035750000.0 -9035750000.0 -9035750000.0 -9035750000.0 -9035750000.0 -9035750000.0 -9035750000.0 -9035750000.0 -9035750000.0 -9035750000.0 -9035750000.0 -9035750000.0 -9035750000.0 -9035750000.0 -9035750000.0 -9035750000.0 -9035750000.0 -9035750000.0 -9035750000.0 -9035750000.0 -9035750000.0 -9035750000.0 -9035750000.0 -9035750000.0 -9035750000.0 -9035750000.0 -9035750000.0 -9035750000.0 -9035750000.0 -9035750000.0 -9035750000.0 -9035750000.0 -9035750000.0 -9035750000.0 -9035750000.0 -9035750000.0 -9035750000.0 -9035750000.0 -9035750000.0 -9035750000.0 -9035760000.0 -9035760000.0 -9035760000.0 -9035760000.0 -9035770000.0 -9035780000.0 -9035790000.0 -9035810000.0 -9036010000.0 -9037120000.0 -9056520000.0 -9049290000.0 -9036560000.0 -9035920000.0 -9035790000.0 -9035780000.0 -9035770000.0 -9035760000.0 -9035760000.0 -9035760000.0 -9035760000.0 -9035750000.0 -9035750000.0 -9035750000.0 -9035750000.0 -9035750000.0 -9035750000.0 -9035750000.0 -9035750000.0 -9035750000.0 -9035750000.0 -9035750000.0 -9035750000.0 -9035750000.0 -9035750000.0 -9035750000.0 -9035750000.0 -9035750000.0 -9035750000.0 -9035750000.0 -9035750000.0 -9035750000.0 -9035750000.0 -9035750000.0 -9035750000.0 -9035750000.0 -9035750000.0 -9035750000.0 -9035750000.0 -9035750000.0 -9035750000.0 -9035750000.0 -9035750000.0 -9035750000.0 -9035750000.0 -9035750000.0 -9035750000.0 -9035750000.0 -9035750000.0 -9035750000.0 -9035750000.0 -9035750000.0 -9035750000.0 -9035750000.0 -9035750000.0 -9035750000.0 -9035750000.0 -9035750000.0 -9035750000.0 -9035750000.0 -9035750000.0 -9035750000.0 -9035750000.0 -9035750000.0 -9035750000.0 -9035750000.0 -9035760000.0 -9035760000.0 -9035760000.0 -9035760000.0 -9035770000.0 -9035780000.0 -9035790000.0 -9035920000.0 -9036560000.0 -9049290000.0 -9043320000.0 -9036180000.0 -9035840000.0 -9035770000.0 -9035770000.0 -9035760000.0 -9035760000.0 -9035760000.0 -9035750000.0 -9035750000.0 -9035750000.0 -9035750000.0 -9035750000.0 -9035750000.0 -9035750000.0 -9035750000.0 -9035750000.0 -9035750000.0 -9035750000.0 -9035750000.0 -9035750000.0 -9035750000.0 -9035750000.0 -9035750000.0 -9035750000.0 -9035750000.0 -9035750000.0 -9035750000.0 -9035750000.0 -9035750000.0 -9035750000.0 -9035750000.0 -9035750000.0 -9035750000.0 -9035750000.0 -9035750000.0 -9035750000.0 -9035750000.0 -9035750000.0 -9035750000.0 -9035750000.0 -9035750000.0 -9035750000.0 -9035750000.0 -9035750000.0 -9035750000.0 -9035750000.0 -9035750000.0 -9035750000.0 -9035750000.0 -9035750000.0 -9035750000.0 -9035750000.0 -9035750000.0 -9035750000.0 -9035750000.0 -9035750000.0 -9035750000.0 -9035750000.0 -9035750000.0 -9035750000.0 -9035750000.0 -9035750000.0 -9035750000.0 -9035750000.0 -9035750000.0 -9035750000.0 -9035760000.0 -9035760000.0 -9035760000.0 -9035770000.0 -9035770000.0 -9035840000.0 -9036180000.0 -9043320000.0 -9038060000.0 -9035880000.0 -9035780000.0 -9035760000.0 -9035760000.0 -9035760000.0 -9035750000.0 -9035750000.0 -9035750000.0 -9035750000.0 -9035750000.0 -9035750000.0 -9035750000.0 -9035750000.0 -9035750000.0 -9035750000.0 -9035750000.0 -9035750000.0 -9035750000.0 -9035750000.0 -9035750000.0 -9035750000.0 -9035750000.0 -9035750000.0 -9035750000.0 -9035750000.0 -9035750000.0 -9035750000.0 -9035750000.0 -9035750000.0 -9035750000.0 -9035750000.0 -9035750000.0 -9035750000.0 -9035750000.0 -9035750000.0 -9035750000.0 -9035750000.0 -9035750000.0 -9035750000.0 -9035750000.0 -9035750000.0 -9035750000.0 -9035750000.0 -9035750000.0 -9035750000.0 -9035750000.0 -9035750000.0 -9035750000.0 -9035750000.0 -9035750000.0 -9035750000.0 -9035750000.0 -9035750000.0 -9035750000.0 -9035750000.0 -9035750000.0 -9035750000.0 -9035750000.0 -9035750000.0 -9035750000.0 -9035750000.0 -9035750000.0 -9035750000.0 -9035750000.0 -9035750000.0 -9035750000.0 -9035750000.0 -9035750000.0 -9035760000.0 -9035760000.0 -9035760000.0 -9035780000.0 -9035880000.0 -9038060000.0 
SCALARS Shear_Stress float 1
LOOKUP_TABLE default
150761000000.0 39243800000.0 210295000000.0 283278000000.0 309845000000.0 319701000000.0 329233000000.0 328367000000.0 322200000000.0 311670000000.0 297161000000.0 279612000000.0 260428000000.0 240850000000.0 221542000000.0 202893000000.0 185167000000.0 168540000000.0 153151000000.0 139003000000.0 126012000000.0 114180000000.0 103530000000.0 93980000000.0 85395700000.0 77707200000.0 70905700000.0 64973000000.0 59853700000.0 55480400000.0 51802900000.0 48795900000.0 46452300000.0 44773800000.0 43764500000.0 43427600000.0 43764500000.0 44773800000.0 46452300000.0 48795900000.0 51802900000.0 55480400000.0 59853700000.0 64973000000.0 70905700000.0 77707200000.0 85395700000.0 93980000000.0 103530000000.0 114180000000.0 126012000000.0 139003000000.0 153151000000.0 168540000000.0 185167000000.0 202893000000.0 221542000000.0 240850000000.0 260428000000.0 279612000000.0 297161000000.0 311670000000.0 322200000000.0 328367000000.0 329233000000.0 319701000000.0 309845000000.0 283278000000.0 210295000000.0 39243800000.0 150761000000.0 23785700000.0 210665000000.0 190483000000.0 271925000000.0 339965000000.0 353881000000.0 377302000000.0 374632000000.0 364101000000.0 348753000000.0 330108000000.0 308982000000.0 286141000000.0 262675000000.0 239582000000.0 217484000000.0 196672000000.0 177211000000.0 159092000000.0 142350000000.0 127053000000.0 113215000000.0 100761000000.0 89557800000.0 79496500000.0 70529400000.0 62636900000.0 55781200000.0 49892000000.0 44886900000.0 40697700000.0 37283400000.0 34627400000.0 32727100000.0 31585100000.0 31204100000.0 31585100000.0 32727100000.0 34627400000.0 37283400000.0 40697700000.0 44886900000.0 49892000000.0 55781200000.0 62636900000.0 70529400000.0 79496500000.0 89557800000.0 100761000000.0 113215000000.0 127053000000.0 142350000000.0 159092000000.0 177211000000.0 196672000000.0 217484000000.0 239582000000.0 262675000000.0 286141000000.0 308982000000.0 330108000000.0 348753000000.0 364101000000.0 374632000000.0 377302000000.0 353881000000.0 339965000000.0 271925000000.0 190483000000.0 210665000000.0 23785700000.0 162437000000.0 172343000000.0 172343000000.0 162437000000.0 110767000000.0 60527000000.0 223134000000.0 407592000000.0 439500000000.0 418348000000.0 358889000000.0 362799000000.0 351714000000.0 334126000000.0 311234000000.0 286227000000.0 260804000000.0 235435000000.0 210432000000.0 186323000000.0 163687000000.0 142878000000.0 123958000000.0 106839000000.0 91445200000.0 77733400000.0 65647500000.0 55094100000.0 45952300000.0 38088900000.0 31375300000.0 25698200000.0 20955000000.0 17045400000.0 13871500000.0 11344700000.0 9388960000.0 7939720000.0 6943950000.0 6362300000.0 6171030000.0 6362300000.0 6943950000.0 7939720000.0 9388960000.0 11344700000.0 13871500000.0 17045400000.0 20955000000.0 25698200000.0 31375300000.0 38088900000.0 45952300000.0 55094100000.0 65647500000.0 77733400000.0 91445200000.0 106839000000.0 123958000000.0 142878000000.0 163687000000.0 186323000000.0 210432000000.0 235435000000.0 260804000000.0 286227000000.0 311234000000.0 334126000000.0 351714000000.0 362799000000.0 358889000000.0 418348000000.0 439500000000.0 407592000000.0 223134000000.0 60527000000.0 110767000000.0 63955800000.0 135339000000.0 119552000000.0 34519400000.0 566661000000.0 562960000000.0 535222000000.0 425041000000.0 364972000000.0 296901000000.0 240895000000.0 198793000000.0 167571000000.0 140707000000.0 117455000000.0 97352000000.0 80031700000.0 65109900000.0 52334400000.0 41588800000.0 32678400000.0 25303400000.0 19237900000.0 14328600000.0 10374700000.0 7150670000.0 4499250000.0 2337030000.0 596515000.0 804953000.0 1952860000.0 2912370000.0 3719350000.0 4386840000.0 4915600000.0 5300940000.0 5536120000.0 5615280000.0 5536120000.0 5300940000.0 4915600000.0 4386840000.0 3719350000.0 2912370000.0 1952860000.0 804953000.0 596515000.0 2337030000.0 4499250000.0 7150670000.0 10374700000.0 14328600000.0 19237900000.0 25303400000.0 32678400000.0 41588800000.0 52334400000.0 65109900000.0 80031700000.0 97352000000.0 117455000000.0 140707000000.0 167571000000.0 198793000000.0 240895000000.0 296901000000.0 364972000000.0 425041000000.0 535222000000.0 562960000000.0 566661000000.0 34519400000.0 119552000000.0 135339000000.0 63955800000.0 78889200000.0 20304500000.0 190262000000.0 190262000000.0 20304500000.0 78889200000.0 37989200000.0 15458200000.0 119199000000.0 452263000000.0 163458000000.0 103811000000.0 144477000000.0 130979000000.0 142726000000.0 139653000000.0 135070000000.0 127917000000.0 119689000000.0 110646000000.0 102695000000.0 94808100000.0 86198600000.0 77007200000.0 67599100000.0 58300400000.0 49433600000.0 41254400000.0 33890500000.0 27365300000.0 21648000000.0 16686800000.0 12423300000.0 8797710000.0 5748980000.0 3215010000.0 1134690000.0 549405000.0 1888650000.0 2926650000.0 3698380000.0 4230520000.0 4542110000.0 4644680000.0 4542110000.0 4230520000.0 3698380000.0 2926650000.0 1888650000.0 549405000.0 1134690000.0 3215010000.0 5748980000.0 8797710000.0 12423300000.0 16686800000.0 21648000000.0 27365300000.0 33890500000.0 41254400000.0 49433600000.0 58300400000.0 67599100000.0 77007200000.0 86198600000.0 94808100000.0 102695000000.0 110646000000.0 119689000000.0 127917000000.0 135070000000.0 139653000000.0 142726000000.0 130979000000.0 144477000000.0 103811000000.0 163458000000.0 452263000000.0 119199000000.0 15458200000.0 37989200000.0 494633000000.0 16733400000.0 56583800000.0 8106390000.0 11042600000.0 5175530000.0 3508280000.0 1615230000.0 484478000.0 675296000.0 407891000.0 1146790000.0 2085230000.0 3933060000.0 6082720000.0 7688040000.0 8543760000.0 8890270000.0 9000700000.0 9028900000.0 9034700000.0 9035640000.0 9035750000.0 9035750000.0 9035750000.0 9035750000.0 9035750000.0 9035750000.0 9035750000.0 9035750000.0 9035750000.0 9035750000.0 9035750000.0 9035750000.0 9035750000.0 9035750000.0 9035750000.0 9035750000.0 9035750000.0 9035750000.0 9035750000.0 9035750000.0 9035750000.0 9035750000.0 9035750000.0 9035750000.0 9035750000.0 9035640000.0 9034700000.0 9028900000.0 9000700000.0 8890270000.0 8543760000.0 7688040000.0 6082720000.0 3933060000.0 2085230000.0 1146790000.0 407891000.0 675296000.0 484478000.0 1615230000.0 3508280000.0 5175530000.0 11042600000.0 8106390000.0 56583800000.0 16733400000.0 494633000000.0 36156600000.0 11529800000.0 63788600000.0 63788600000.0 11529800000.0 36156600000.0 8816450000.0 125911000000.0 9086660000.0 392794000000.0 145216000000.0 125107000000.0 145266000000.0 135935000000.0 126011000000.0 114730000000.0 102413000000.0 90943900000.0 80731600000.0 70596900000.0 60056100000.0 49606400000.0 39796600000.0 30916700000.0 23112000000.0 16440700000.0 10886000000.0 6371250000.0 2775300000.0 46525800.0 2236030000.0 3918890000.0 5202730000.0 6176370000.0 6909670000.0 7456950000.0 7861570000.0 8158380000.0 8374290000.0 8529020000.0 8636580000.0 8706810000.0 8746350000.0 8759100000.0 8746350000.0 8706810000.0 8636580000.0 8529020000.0 8374290000.0 8158380000.0 7861570000.0 7456950000.0 6909670000.0 6176370000.0 5202730000.0 3918890000.0 2236030000.0 46525800.0 2775300000.0 6371250000.0 10886000000.0 16440700000.0 23112000000.0 30916700000.0 39796600000.0 49606400000.0 60056100000.0 70596900000.0 80731600000.0 90943900000.0 102413000000.0 114730000000.0 126011000000.0 135935000000.0 145266000000.0 125107000000.0 145216000000.0 392794000000.0 9086660000.0 125911000000.0 8816450000.0 162089000000.0 49227100000.0 337336000000.0 10328900000.0 20966500000.0 9035750000.0 9035750000.0 9035750000.0 9035750000.0 9035750000.0 9035750000.0 9035750000.0 9035750000.0 9035750000.0 9035750000.0 9035760000.0 9035760000.0 9035800000.0 9036000000.0 9036260000.0 9036460000.0 9036420000.0 9036300000.0 9036180000.0 9036080000.0 9036010000.0 9035950000.0 9035910000.0 9035880000.0 9035860000.0 9035830000.0 9035810000.0 9035800000.0 9035780000.0 9035770000.0 9035760000.0 9035750000.0 9035760000.0 9035770000.0 9035780000.0 9035800000.0 9035810000.0 9035830000.0 9035860000.0 9035880000.0 9035910000.0 9035950000.0 9036010000.0 9036080000.0 9036180000.0 9036300000.0 9036420000.0 9036460000.0 9036260000.0 9036000000.0 9035800000.0 9035760000.0 9035760000.0 9035750000.0 9035750000.0 9035750000.0 9035750000.0 9035750000.0 9035750000.0 9035750000.0 9035750000.0 9035750000.0 9035750000.0 20966500000.0 10328900000.0 337336000000.0 49227100000.0 162089000000.0 51625700000.0 51625700000.0 72173000000.0 154985000000.0 54906600000.0 341474000000.0 54927600000.0 43598400000.0 36850900000.0 28267500000.0 21093000000.0 15250700000.0 10495800000.0 6631480000.0 3500440000.0 921764000.0 1249790000.0 3073350000.0 4576130000.0 5786370000.0 6727400000.0 7427890000.0 7932570000.0 8291970000.0 8546200000.0 8721560000.0 8837550000.0 8911560000.0 8958130000.0 8987510000.0 9006150000.0 9018000000.0 9025510000.0 9030180000.0 9032940000.0 9034450000.0 9035210000.0 9035540000.0 9035670000.0 9035700000.0 9035670000.0 9035540000.0 9035210000.0 9034450000.0 9032940000.0 9030180000.0 9025510000.0 9018000000.0 9006150000.0 8987510000.0 8958130000.0 8911560000.0 8837550000.0 8721560000.0 8546200000.0 8291970000.0 7932570000.0 7427890000.0 6727400000.0 5786370000.0 4576130000.0 3073350000.0 1249790000.0 921764000.0 3500440000.0 6631480000.0 10495800000.0 15250700000.0 21093000000.0 28267500000.0 36850900000.0 43598400000.0 54927600000.0 341474000000.0 54906600000.0 154985000000.0 72173000000.0 323891000000.0 9073800000.0 9296460000.0 9052790000.0 9049190000.0 9046660000.0 9046030000.0 9045080000.0 9043970000.0 9042500000.0 9041080000.0 9039890000.0 9038890000.0 9038140000.0 9037710000.0 9037510000.0 9037380000.0 9037150000.0 9036900000.0 9036680000.0 9036500000.0 9036360000.0 9036250000.0 9036170000.0 9036100000.0 9036050000.0 9036000000.0 9035950000.0 9035910000.0 9035870000.0 9035830000.0 9035800000.0 9035770000.0 9035760000.0 9035750000.0 9035760000.0 9035770000.0 9035800000.0 9035830000.0 9035870000.0 9035910000.0 9035950000.0 9036000000.0 9036050000.0 9036100000.0 9036170000.0 9036250000.0 9036360000.0 9036500000.0 9036680000.0 9036900000.0 9037150000.0 9037380000.0 9037510000.0 9037710000.0 9038140000.0 9038890000.0 9039890000.0 9041080000.0 9042500000.0 9043970000.0 9045080000.0 9046030000.0 9046660000.0 9049190000.0 9052790000.0 9296460000.0 9073800000.0 323891000000.0 97036000000.0 150355000000.0 97927000000.0 97927000000.0 150355000000.0 97036000000.0 113949000000.0 133734000000.0 121909000000.0 263515000000.0 6496230000.0 7087430000.0 7533840000.0 7920150000.0 8427740000.0 8826950000.0 8996350000.0 9039190000.0 9044440000.0 9043050000.0 9041350000.0 9040010000.0 9039100000.0 9038530000.0 9038090000.0 9037690000.0 9037320000.0 9037010000.0 9036770000.0 9036590000.0 9036440000.0 9036330000.0 9036240000.0 9036160000.0 9036100000.0 9036040000.0 9035990000.0 9035940000.0 9035890000.0 9035840000.0 9035810000.0 9035780000.0 9035760000.0 9035750000.0 9035760000.0 9035780000.0 9035810000.0 9035840000.0 9035890000.0 9035940000.0 9035990000.0 9036040000.0 9036100000.0 9036160000.0 9036240000.0 9036330000.0 9036440000.0 9036590000.0 9036770000.0 9037010000.0 9037320000.0 9037690000.0 9038090000.0 9038530000.0 9039100000.0 9040010000.0 9041350000.0 9043050000.0 9044440000.0 9039190000.0 8996350000.0 8826950000.0 8427740000.0 7920150000.0 7533840000.0 7087430000.0 6496230000.0 263515000000.0 121909000000.0 133734000000.0 113949000000.0 208951000000.0 9056460000.0 9187350000.0 9111950000.0 9094030000.0 9078930000.0 9067550000.0 9059050000.0 9052960000.0 9048220000.0 9044860000.0 9042610000.0 9041010000.0 9039910000.0 9039100000.0 9038410000.0 9037870000.0 9037440000.0 9037100000.0 9036860000.0 9036670000.0 9036520000.0 9036400000.0 9036300000.0 9036210000.0 9036140000.0 9036070000.0 9036010000.0 9035950000.0 9035900000.0 9035850000.0 9035810000.0 9035780000.0 9035760000.0 9035750000.0 9035760000.0 9035780000.0 9035810000.0 9035850000.0 9035900000.0 9035950000.0 9036010000.0 9036070000.0 9036140000.0 9036210000.0 9036300000.0 9036400000.0 9036520000.0 9036670000.0 9036860000.0 9037100000.0 9037440000.0 9037870000.0 9038410000.0 9039100000.0 9039910000.0 9041010000.0 9042610000.0 9044860000.0 9048220000.0 9052960000.0 9059050000.0 9067550000.0 9078930000.0 9094030000.0 9111950000.0 9187350000.0 9056460000.0 208951000000.0 126288000000.0 120956000000.0 131938000000.0 131938000000.0 120956000000.0 126288000000.0 132251000000.0 109404000000.0 131576000000.0 159678000000.0 9092140000.0 9223720000.0 9135580000.0 9110330000.0 9089680000.0 9074450000.0 9063440000.0 9055820000.0 9050130000.0 9046210000.0 9043640000.0 9041800000.0 9040460000.0 9039420000.0 9038590000.0 9037980000.0 9037520000.0 9037180000.0 9036930000.0 9036730000.0 9036570000.0 9036440000.0 9036330000.0 9036240000.0 9036160000.0 9036090000.0 9036020000.0 9035960000.0 9035900000.0 9035850000.0 9035810000.0 9035780000.0 9035760000.0 9035750000.0 9035760000.0 9035780000.0 9035810000.0 9035850000.0 9035900000.0 9035960000.0 9036020000.0 9036090000.0 9036160000.0 9036240000.0 9036330000.0 9036440000.0 9036570000.0 9036730000.0 9036930000.0 9037180000.0 9037520000.0 9037980000.0 9038590000.0 9039420000.0 9040460000.0 9041800000.0 9043640000.0 9046210000.0 9050130000.0 9055820000.0 9063440000.0 9074450000.0 9089680000.0 9110330000.0 9135580000.0 9223720000.0 9092140000.0 159678000000.0 131576000000.0 109404000000.0 132251000000.0 133446000000.0 100398000000.0 125684000000.0 118814000000.0 9122830000.0 9251570000.0 9153390000.0 9122080000.0 9097220000.0 9079220000.0 9066490000.0 9057850000.0 9051520000.0 9047210000.0 9044380000.0 9042300000.0 9040750000.0 9039580000.0 9038680000.0 9038050000.0 9037580000.0 9037230000.0 9036970000.0 9036770000.0 9036600000.0 9036470000.0 9036350000.0 9036260000.0 9036170000.0 9036090000.0 9036020000.0 9035960000.0 9035900000.0 9035850000.0 9035810000.0 9035780000.0 9035760000.0 9035750000.0 9035760000.0 9035780000.0 9035810000.0 9035850000.0 9035900000.0 9035960000.0 9036020000.0 9036090000.0 9036170000.0 9036260000.0 9036350000.0 9036470000.0 9036600000.0 9036770000.0 9036970000.0 9037230000.0 9037580000.0 9038050000.0 9038680000.0 9039580000.0 9040750000.0 9042300000.0 9044380000.0 9047210000.0 9051520000.0 9057850000.0 9066490000.0 9079220000.0 9097220000.0 9122080000.0 9153390000.0 9251570000.0 9122830000.0 118814000000.0 125684000000.0 100398000000.0 133446000000.0 130679000000.0 93615800000.0 116634000000.0 86273000000.0 9146840000.0 9270660000.0 9165430000.0 9129710000.0 9102000000.0 9082210000.0 9068410000.0 9059150000.0 9052420000.0 9047840000.0 9044790000.0 9042530000.0 9040860000.0 9039640000.0 9038730000.0 9038090000.0 9037610000.0 9037260000.0 9037000000.0 9036790000.0 9036620000.0 9036470000.0 9036350000.0 9036250000.0 9036160000.0 9036090000.0 9036020000.0 9035950000.0 9035900000.0 9035850000.0 9035810000.0 9035780000.0 9035760000.0 9035750000.0 9035760000.0 9035780000.0 9035810000.0 9035850000.0 9035900000.0 9035950000.0 9036020000.0 9036090000.0 9036160000.0 9036250000.0 9036350000.0 9036470000.0 9036620000.0 9036790000.0 9037000000.0 9037260000.0 9037610000.0 9038090000.0 9038730000.0 9039640000.0 9040860000.0 9042530000.0 9044790000.0 9047840000.0 9052420000.0 9059150000.0 9068410000.0 9082210000.0 9102000000.0 9129710000.0 9165430000.0 9270660000.0 9146840000.0 86273000000.0 116634000000.0 93615800000.0 130679000000.0 124776000000.0 88459800000.0 105887000000.0 61389600000.0 9163920000.0 9281290000.0 9172270000.0 9133760000.0 9104430000.0 9083680000.0 9069330000.0 9059750000.0 9052830000.0 9048090000.0 9044900000.0 9042550000.0 9040860000.0 9039630000.0 9038720000.0 9038090000.0 9037610000.0 9037260000.0 9036990000.0 9036780000.0 9036600000.0 9036460000.0 9036340000.0 9036240000.0 9036150000.0 9036070000.0 9036000000.0 9035940000.0 9035890000.0 9035840000.0 9035800000.0 9035770000.0 9035760000.0 9035750000.0 9035760000.0 9035770000.0 9035800000.0 9035840000.0 9035890000.0 9035940000.0 9036000000.0 9036070000.0 9036150000.0 9036240000.0 9036340000.0 9036460000.0 9036600000.0 9036780000.0 9036990000.0 9037260000.0 9037610000.0 9038090000.0 9038720000.0 9039630000.0 9040860000.0 9042550000.0 9044900000.0 9048090000.0 9052830000.0 9059750000.0 9069330000.0 9083680000.0 9104430000.0 9133760000.0 9172270000.0 9281290000.0 9163920000.0 61389600000.0 105887000000.0 88459800000.0 124776000000.0 116597000000.0 84249500000.0 94395200000.0 43256900000.0 9174500000.0 9284160000.0 9174680000.0 9134820000.0 9104870000.0 9083840000.0 9069370000.0 9059730000.0 9052770000.0 9048000000.0 9044780000.0 9042440000.0 9040770000.0 9039560000.0 9038680000.0 9038050000.0 9037580000.0 9037230000.0 9036960000.0 9036750000.0 9036570000.0 9036430000.0 9036310000.0 9036210000.0 9036120000.0 9036050000.0 9035980000.0 9035920000.0 9035870000.0 9035830000.0 9035800000.0 9035770000.0 9035760000.0 9035750000.0 9035760000.0 9035770000.0 9035800000.0 9035830000.0 9035870000.0 9035920000.0 9035980000.0 9036050000.0 9036120000.0 9036210000.0 9036310000.0 9036430000.0 9036570000.0 9036750000.0 9036960000.0 9037230000.0 9037580000.0 9038050000.0 9038680000.0 9039560000.0 9040770000.0 9042440000.0 9044780000.0 9048000000.0 9052770000.0 9059730000.0 9069370000.0 9083840000.0 9104870000.0 9134820000.0 9174680000.0 9284160000.0 9174500000.0 43256900000.0 94395200000.0 84249500000.0 116597000000.0 106952000000.0 80415400000.0 82847300000.0 30692500000.0 9180240000.0 9280400000.0 9173400000.0 9133390000.0 9103650000.0 9082870000.0 9068640000.0 9059150000.0 9052330000.0 9047650000.0 9044500000.0 9042230000.0 9040610000.0 9039450000.0 9038590000.0 9037980000.0 9037520000.0 9037170000.0 9036910000.0 9036700000.0 9036530000.0 9036390000.0 9036270000.0 9036170000.0 9036090000.0 9036020000.0 9035960000.0 9035910000.0 9035860000.0 9035820000.0 9035790000.0 9035770000.0 9035760000.0 9035750000.0 9035760000.0 9035770000.0 9035790000.0 9035820000.0 9035860000.0 9035910000.0 9035960000.0 9036020000.0 9036090000.0 9036170000.0 9036270000.0 9036390000.0 9036530000.0 9036700000.0 9036910000.0 9037170000.0 9037520000.0 9037980000.0 9038590000.0 9039450000.0 9040610000.0 9042230000.0 9044500000.0 9047650000.0 9052330000.0 9059150000.0 9068640000.0 9082870000.0 9103650000.0 9133390000.0 9173400000.0 9280400000.0 9180240000.0 30692500000.0 82847300000.0 80415400000.0 106952000000.0 96560300000.0 76493400000.0 71759800000.0 22376700000.0 9182310000.0 9271230000.0 9169140000.0 9129930000.0 9101080000.0 9080990000.0 9067280000.0 9058140000.0 9051600000.0 9047130000.0 9044110000.0 9041940000.0 9040400000.0 9039280000.0 9038460000.0 9037870000.0 9037430000.0 9037090000.0 9036840000.0 9036640000.0 9036470000.0 9036340000.0 9036230000.0 9036130000.0 9036060000.0 9035990000.0 9035930000.0 9035890000.0 9035850000.0 9035810000.0 9035790000.0 9035770000.0 9035760000.0 9035750000.0 9035760000.0 9035770000.0 9035790000.0 9035810000.0 9035850000.0 9035890000.0 9035930000.0 9035990000.0 9036060000.0 9036130000.0 9036230000.0 9036340000.0 9036470000.0 9036640000.0 9036840000.0 9037090000.0 9037430000.0 9037870000.0 9038460000.0 9039280000.0 9040400000.0 9041940000.0 9044110000.0 9047130000.0 9051600000.0 9058140000.0 9067280000.0 9080990000.0 9101080000.0 9129930000.0 9169140000.0 9271230000.0 9182310000.0 22376700000.0 71759800000.0 76493400000.0 96560300000.0 86036600000.0 72177600000.0 61473200000.0 17102000000.0 9181340000.0 9257910000.0 9162560000.0 9124910000.0 9097450000.0 9078400000.0 9065440000.0 9056810000.0 9050680000.0 9046480000.0 9043630000.0 9041590000.0 9040130000.0 9039080000.0 9038300000.0 9037740000.0 9037310000.0 9037000000.0 9036750000.0 9036560000.0 9036410000.0 9036280000.0 9036180000.0 9036090000.0 9036020000.0 9035960000.0 9035910000.0 9035870000.0 9035830000.0 9035800000.0 9035780000.0 9035770000.0 9035760000.0 9035750000.0 9035760000.0 9035770000.0 9035780000.0 9035800000.0 9035830000.0 9035870000.0 9035910000.0 9035960000.0 9036020000.0 9036090000.0 9036180000.0 9036280000.0 9036410000.0 9036560000.0 9036750000.0 9037000000.0 9037310000.0 9037740000.0 9038300000.0 9039080000.0 9040130000.0 9041590000.0 9043630000.0 9046480000.0 9050680000.0 9056810000.0 9065440000.0 9078400000.0 9097450000.0 9124910000.0 9162560000.0 9257910000.0 9181340000.0 17102000000.0 61473200000.0 72177600000.0 86036600000.0 75879700000.0 67380200000.0 52172200000.0 13902800000.0 9177790000.0 9241600000.0 9154260000.0 9118750000.0 9093070000.0 9075330000.0 9063300000.0 9055290000.0 9049620000.0 9045740000.0 9043090000.0 9041180000.0 9039820000.0 9038840000.0 9038120000.0 9037590000.0 9037190000.0 9036890000.0 9036660000.0 9036480000.0 9036340000.0 9036220000.0 9036120000.0 9036050000.0 9035980000.0 9035930000.0 9035880000.0 9035850000.0 9035820000.0 9035790000.0 9035780000.0 9035760000.0 9035760000.0 9035750000.0 9035760000.0 9035760000.0 9035780000.0 9035790000.0 9035820000.0 9035850000.0 9035880000.0 9035930000.0 9035980000.0 9036050000.0 9036120000.0 9036220000.0 9036340000.0 9036480000.0 9036660000.0 9036890000.0 9037190000.0 9037590000.0 9038120000.0 9038840000.0 9039820000.0 9041180000.0 9043090000.0 9045740000.0 9049620000.0 9055290000.0 9063300000.0 9075330000.0 9093070000.0 9118750000.0 9154260000.0 9241600000.0 9177790000.0 13902800000.0 52172200000.0 67380200000.0 75879700000.0 66453300000.0 62192300000.0 43941200000.0 12049600000.0 9172120000.0 9223430000.0 9144810000.0 9111870000.0 9088230000.0 9071970000.0 9060970000.0 9053650000.0 9048490000.0 9044930000.0 9042500000.0 9040740000.0 9039490000.0 9038580000.0 9037910000.0 9037420000.0 9037050000.0 9036770000.0 9036560000.0 9036400000.0 9036270000.0 9036160000.0 9036070000.0 9036000000.0 9035950000.0 9035900000.0 9035860000.0 9035830000.0 9035810000.0 9035790000.0 9035770000.0 9035760000.0 9035750000.0 9035750000.0 9035750000.0 9035760000.0 9035770000.0 9035790000.0 9035810000.0 9035830000.0 9035860000.0 9035900000.0 9035950000.0 9036000000.0 9036070000.0 9036160000.0 9036270000.0 9036400000.0 9036560000.0 9036770000.0 9037050000.0 9037420000.0 9037910000.0 9038580000.0 9039490000.0 9040740000.0 9042500000.0 9044930000.0 9048490000.0 9053650000.0 9060970000.0 9071970000.0 9088230000.0 9111870000.0 9144810000.0 9223430000.0 9172120000.0 12049600000.0 43941200000.0 62192300000.0 66453300000.0 57982800000.0 56791700000.0 36808100000.0 11014500000.0 9164780000.0 9204360000.0 9134720000.0 9104620000.0 9083180000.0 9068480000.0 9058570000.0 9051970000.0 9047310000.0 9044100000.0 9041880000.0 9040280000.0 9039140000.0 9038310000.0 9037700000.0 9037250000.0 9036910000.0 9036660000.0 9036470000.0 9036320000.0 9036200000.0 9036100000.0 9036020000.0 9035960000.0 9035910000.0 9035870000.0 9035840000.0 9035820000.0 9035800000.0 9035780000.0 9035770000.0 9035760000.0 9035750000.0 9035750000.0 9035750000.0 9035760000.0 9035770000.0 9035780000.0 9035800000.0 9035820000.0 9035840000.0 9035870000.0 9035910000.0 9035960000.0 9036020000.0 9036100000.0 9036200000.0 9036320000.0 9036470000.0 9036660000.0 9036910000.0 9037250000.0 9037700000.0 9038310000.0 9039140000.0 9040280000.0 9041880000.0 9044100000.0 9047310000.0 9051970000.0 9058570000.0 9068480000.0 9083180000.0 9104620000.0 9134720000.0 9204360000.0 9164780000.0 11014500000.0 36808100000.0 56791700000.0 57982800000.0 50567400000.0 51369500000.0 30759100000.0 10441300000.0 9156220000.0 9185230000.0 9124440000.0 9097300000.0 9078120000.0 9065010000.0 9056180000.0 9050280000.0 9046130000.0 9043260000.0 9041250000.0 9039810000.0 9038780000.0 9038030000.0 9037480000.0 9037080000.0 9036770000.0 9036540000.0 9036370000.0 9036240000.0 9036130000.0 9036050000.0 9035980000.0 9035930000.0 9035880000.0 9035850000.0 9035820000.0 9035800000.0 9035790000.0 9035770000.0 9035760000.0 9035760000.0 9035750000.0 9035750000.0 9035750000.0 9035760000.0 9035760000.0 9035770000.0 9035790000.0 9035800000.0 9035820000.0 9035850000.0 9035880000.0 9035930000.0 9035980000.0 9036050000.0 9036130000.0 9036240000.0 9036370000.0 9036540000.0 9036770000.0 9037080000.0 9037480000.0 9038030000.0 9038780000.0 9039810000.0 9041250000.0 9043260000.0 9046130000.0 9050280000.0 9056180000.0 9065010000.0 9078120000.0 9097300000.0 9124440000.0 9185230000.0 9156220000.0 10441300000.0 30759100000.0 51369500000.0 50567400000.0 44204800000.0 46092900000.0 25741900000.0 10111400000.0 9146860000.0 9166680000.0 9114320000.0 9090160000.0 9073200000.0 9061630000.0 9053850000.0 9048640000.0 9044970000.0 9042420000.0 9040640000.0 9039350000.0 9038430000.0 9037760000.0 9037270000.0 9036910000.0 9036640000.0 9036430000.0 9036280000.0 9036160000.0 9036070000.0 9036000000.0 9035940000.0 9035890000.0 9035860000.0 9035830000.0 9035810000.0 9035790000.0 9035780000.0 9035770000.0 9035760000.0 9035760000.0 9035750000.0 9035750000.0 9035750000.0 9035760000.0 9035760000.0 9035770000.0 9035780000.0 9035790000.0 9035810000.0 9035830000.0 9035860000.0 9035890000.0 9035940000.0 9036000000.0 9036070000.0 9036160000.0 9036280000.0 9036430000.0 9036640000.0 9036910000.0 9037270000.0 9037760000.0 9038430000.0 9039350000.0 9040640000.0 9042420000.0 9044970000.0 9048640000.0 9053850000.0 9061630000.0 9073200000.0 9090160000.0 9114320000.0 9166680000.0 9146860000.0 10111400000.0 25741900000.0 46092900000.0 44204800000.0 38821000000.0 41092100000.0 21671200000.0 9902020000.0 9137060000.0 9149180000.0 9104630000.0 9083360000.0 9068530000.0 9058430000.0 9051640000.0 9047070000.0 9043860000.0 9041620000.0 9040040000.0 9038910000.0 9038090000.0 9037500000.0 9037070000.0 9036750000.0 9036510000.0 9036330000.0 9036200000.0 9036090000.0 9036010000.0 9035950000.0 9035900000.0 9035870000.0 9035840000.0 9035810000.0 9035800000.0 9035780000.0 9035770000.0 9035770000.0 9035760000.0 9035760000.0 9035750000.0 9035750000.0 9035750000.0 9035760000.0 9035760000.0 9035770000.0 9035770000.0 9035780000.0 9035800000.0 9035810000.0 9035840000.0 9035870000.0 9035900000.0 9035950000.0 9036010000.0 9036090000.0 9036200000.0 9036330000.0 9036510000.0 9036750000.0 9037070000.0 9037500000.0 9038090000.0 9038910000.0 9040040000.0 9041620000.0 9043860000.0 9047070000.0 9051640000.0 9058430000.0 9068530000.0 9083360000.0 9104630000.0 9149180000.0 9137060000.0 9902020000.0 21671200000.0 41092100000.0 38821000000.0 34300900000.0 36458400000.0 18438600000.0 9750950000.0 9127150000.0 9133050000.0 9095550000.0 9077030000.0 9064180000.0 9055440000.0 9049570000.0 9045610000.0 9042820000.0 9040860000.0 9039480000.0 9038490000.0 9037770000.0 9037260000.0 9036880000.0 9036600000.0 9036390000.0 9036240000.0 9036120000.0 9036030000.0 9035970000.0 9035910000.0 9035870000.0 9035840000.0 9035820000.0 9035800000.0 9035790000.0 9035780000.0 9035770000.0 9035760000.0 9035760000.0 9035760000.0 9035750000.0 9035750000.0 9035750000.0 9035760000.0 9035760000.0 9035760000.0 9035770000.0 9035780000.0 9035790000.0 9035800000.0 9035820000.0 9035840000.0 9035870000.0 9035910000.0 9035970000.0 9036030000.0 9036120000.0 9036240000.0 9036390000.0 9036600000.0 9036880000.0 9037260000.0 9037770000.0 9038490000.0 9039480000.0 9040860000.0 9042820000.0 9045610000.0 9049570000.0 9055440000.0 9064180000.0 9077030000.0 9095550000.0 9133050000.0 9127150000.0 9750950000.0 18438600000.0 36458400000.0 34300900000.0 30513800000.0 32248200000.0 15924300000.0 9629530000.0 9117380000.0 9118460000.0 9087200000.0 9071230000.0 9060200000.0 9052710000.0 9047660000.0 9044250000.0 9041850000.0 9040160000.0 9038960000.0 9038100000.0 9037480000.0 9037030000.0 9036710000.0 9036460000.0 9036290000.0 9036150000.0 9036060000.0 9035980000.0 9035920000.0 9035880000.0 9035850000.0 9035820000.0 9035800000.0 9035790000.0 9035780000.0 9035770000.0 9035760000.0 9035760000.0 9035760000.0 9035750000.0 9035750000.0 9035750000.0 9035750000.0 9035750000.0 9035760000.0 9035760000.0 9035760000.0 9035770000.0 9035780000.0 9035790000.0 9035800000.0 9035820000.0 9035850000.0 9035880000.0 9035920000.0 9035980000.0 9036060000.0 9036150000.0 9036290000.0 9036460000.0 9036710000.0 9037030000.0 9037480000.0 9038100000.0 9038960000.0 9040160000.0 9041850000.0 9044250000.0 9047660000.0 9052710000.0 9060200000.0 9071230000.0 9087200000.0 9118460000.0 9117380000.0 9629530000.0 15924300000.0 32248200000.0 30513800000.0 27332500000.0 28488000000.0 14007800000.0 9526130000.0 9107950000.0 9105490000.0 9079650000.0 9066000000.0 9056610000.0 9050230000.0 9045940000.0 9043020000.0 9040960000.0 9039510000.0 9038480000.0 9037740000.0 9037210000.0 9036830000.0 9036550000.0 9036340000.0 9036190000.0 9036080000.0 9036000000.0 9035940000.0 9035890000.0 9035850000.0 9035830000.0 9035810000.0 9035790000.0 9035780000.0 9035770000.0 9035770000.0 9035760000.0 9035760000.0 9035760000.0 9035750000.0 9035750000.0 9035750000.0 9035750000.0 9035750000.0 9035760000.0 9035760000.0 9035760000.0 9035770000.0 9035770000.0 9035780000.0 9035790000.0 9035810000.0 9035830000.0 9035850000.0 9035890000.0 9035940000.0 9036000000.0 9036080000.0 9036190000.0 9036340000.0 9036550000.0 9036830000.0 9037210000.0 9037740000.0 9038480000.0 9039510000.0 9040960000.0 9043020000.0 9045940000.0 9050230000.0 9056610000.0 9066000000.0 9079650000.0 9105490000.0 9107950000.0 9526130000.0 14007800000.0 28488000000.0 27332500000.0 24644500000.0 25180700000.0 12574800000.0 9436590000.0 9099010000.0 9094110000.0 9072920000.0 9061340000.0 9053410000.0 9048030000.0 9044390000.0 9041910000.0 9040160000.0 9038930000.0 9038050000.0 9037420000.0 9036970000.0 9036650000.0 9036410000.0 9036240000.0 9036110000.0 9036020000.0 9035950000.0 9035900000.0 9035860000.0 9035830000.0 9035810000.0 9035790000.0 9035780000.0 9035770000.0 9035770000.0 9035760000.0 9035760000.0 9035760000.0 9035750000.0 9035750000.0 9035750000.0 9035750000.0 9035750000.0 9035750000.0 9035750000.0 9035760000.0 9035760000.0 9035760000.0 9035770000.0 9035770000.0 9035780000.0 9035790000.0 9035810000.0 9035830000.0 9035860000.0 9035900000.0 9035950000.0 9036020000.0 9036110000.0 9036240000.0 9036410000.0 9036650000.0 9036970000.0 9037420000.0 9038050000.0 9038930000.0 9040160000.0 9041910000.0 9044390000.0 9048030000.0 9053410000.0 9061340000.0 9072920000.0 9094110000.0 9099010000.0 9436590000.0 12574800000.0 25180700000.0 24644500000.0 22357100000.0 22311500000.0 11523000000.0 9359440000.0 9090660000.0 9084260000.0 9066990000.0 9057250000.0 9050600000.0 9046080000.0 9043020000.0 9040930000.0 9039460000.0 9038410000.0 9037670000.0 9037140000.0 9036760000.0 9036490000.0 9036290000.0 9036150000.0 9036040000.0 9035970000.0 9035910000.0 9035870000.0 9035840000.0 9035810000.0 9035800000.0 9035780000.0 9035770000.0 9035770000.0 9035760000.0 9035760000.0 9035760000.0 9035760000.0 9035750000.0 9035750000.0 9035750000.0 9035750000.0 9035750000.0 9035750000.0 9035750000.0 9035760000.0 9035760000.0 9035760000.0 9035760000.0 9035770000.0 9035770000.0 9035780000.0 9035800000.0 9035810000.0 9035840000.0 9035870000.0 9035910000.0 9035970000.0 9036040000.0 9036150000.0 9036290000.0 9036490000.0 9036760000.0 9037140000.0 9037670000.0 9038410000.0 9039460000.0 9040930000.0 9043020000.0 9046080000.0 9050600000.0 9057250000.0 9066990000.0 9084260000.0 9090660000.0 9359440000.0 11523000000.0 22311500000.0 22357100000.0 20397000000.0 19853600000.0 10764400000.0 9293870000.0 9082990000.0 9075830000.0 9061820000.0 9053690000.0 9048140000.0 9044380000.0 9041820000.0 9040070000.0 9038830000.0 9037960000.0 9037340000.0 9036900000.0 9036580000.0 9036350000.0 9036190000.0 9036070000.0 9035980000.0 9035920000.0 9035870000.0 9035840000.0 9035820000.0 9035800000.0 9035780000.0 9035780000.0 9035770000.0 9035760000.0 9035760000.0 9035760000.0 9035760000.0 9035750000.0 9035750000.0 9035750000.0 9035750000.0 9035750000.0 9035750000.0 9035750000.0 9035750000.0 9035750000.0 9035760000.0 9035760000.0 9035760000.0 9035760000.0 9035770000.0 9035780000.0 9035780000.0 9035800000.0 9035820000.0 9035840000.0 9035870000.0 9035920000.0 9035980000.0 9036070000.0 9036190000.0 9036350000.0 9036580000.0 9036900000.0 9037340000.0 9037960000.0 9038830000.0 9040070000.0 9041820000.0 9044380000.0 9048140000.0 9053690000.0 9061820000.0 9075830000.0 9082990000.0 9293870000.0 10764400000.0 19853600000.0 20397000000.0 18707900000.0 17772300000.0 10226100000.0 9239050000.0 9076040000.0 9068680000.0 9057370000.0 9050620000.0 9046030000.0 9042900000.0 9040780000.0 9039320000.0 9038300000.0 9037570000.0 9037050000.0 9036680000.0 9036420000.0 9036240000.0 9036100000.0 9036000000.0 9035930000.0 9035880000.0 9035850000.0 9035820000.0 9035800000.0 9035790000.0 9035780000.0 9035770000.0 9035760000.0 9035760000.0 9035760000.0 9035760000.0 9035750000.0 9035750000.0 9035750000.0 9035750000.0 9035750000.0 9035750000.0 9035750000.0 9035750000.0 9035750000.0 9035750000.0 9035750000.0 9035760000.0 9035760000.0 9035760000.0 9035760000.0 9035770000.0 9035780000.0 9035790000.0 9035800000.0 9035820000.0 9035850000.0 9035880000.0 9035930000.0 9036000000.0 9036100000.0 9036240000.0 9036420000.0 9036680000.0 9037050000.0 9037570000.0 9038300000.0 9039320000.0 9040780000.0 9042900000.0 9046030000.0 9050620000.0 9057370000.0 9068680000.0 9076040000.0 9239050000.0 10226100000.0 17772300000.0 18707900000.0 17247300000.0 16029200000.0 9849930000.0 9193970000.0 9069810000.0 9062660000.0 9053560000.0 9048000000.0 9044210000.0 9041640000.0 9039890000.0 9038680000.0 9037830000.0 9037230000.0 9036810000.0 9036500000.0 9036290000.0 9036140000.0 9036030000.0 9035950000.0 9035890000.0 9035850000.0 9035820000.0 9035800000.0 9035790000.0 9035780000.0 9035770000.0 9035760000.0 9035760000.0 9035760000.0 9035760000.0 9035760000.0 9035750000.0 9035750000.0 9035750000.0 9035750000.0 9035750000.0 9035750000.0 9035750000.0 9035750000.0 9035750000.0 9035750000.0 9035750000.0 9035760000.0 9035760000.0 9035760000.0 9035760000.0 9035760000.0 9035770000.0 9035780000.0 9035790000.0 9035800000.0 9035820000.0 9035850000.0 9035890000.0 9035950000.0 9036030000.0 9036140000.0 9036290000.0 9036500000.0 9036810000.0 9037230000.0 9037830000.0 9038680000.0 9039890000.0 9041640000.0 9044210000.0 9048000000.0 9053560000.0 9062660000.0 9069810000.0 9193970000.0 9849930000.0 16029200000.0 17247300000.0 15982700000.0 14584700000.0 9590630000.0 9157480000.0 9064310000.0 9057630000.0 9050340000.0 9045770000.0 9042670000.0 9040560000.0 9039130000.0 9038130000.0 9037440000.0 9036950000.0 9036600000.0 9036350000.0 9036180000.0 9036060000.0 9035970000.0 9035910000.0 9035860000.0 9035830000.0 9035810000.0 9035790000.0 9035780000.0 9035770000.0 9035770000.0 9035760000.0 9035760000.0 9035760000.0 9035760000.0 9035750000.0 9035750000.0 9035750000.0 9035750000.0 9035750000.0 9035750000.0 9035750000.0 9035750000.0 9035750000.0 9035750000.0 9035750000.0 9035750000.0 9035750000.0 9035760000.0 9035760000.0 9035760000.0 9035760000.0 9035770000.0 9035770000.0 9035780000.0 9035790000.0 9035810000.0 9035830000.0 9035860000.0 9035910000.0 9035970000.0 9036060000.0 9036180000.0 9036350000.0 9036600000.0 9036950000.0 9037440000.0 9038130000.0 9039130000.0 9040560000.0 9042670000.0 9045770000.0 9050340000.0 9057630000.0 9064310000.0 9157480000.0 9590630000.0 14584700000.0 15982700000.0 14888300000.0 13399800000.0 9413960000.0 9128410000.0 9059490000.0 9053460000.0 9047620000.0 9043900000.0 9041370000.0 9039660000.0 9038480000.0 9037670000.0 9037110000.0 9036710000.0 9036430000.0 9036230000.0 9036090000.0 9035990000.0 9035920000.0 9035870000.0 9035840000.0 9035810000.0 9035790000.0 9035780000.0 9035770000.0 9035770000.0 9035760000.0 9035760000.0 9035760000.0 9035760000.0 9035750000.0 9035750000.0 9035750000.0 9035750000.0 9035750000.0 9035750000.0 9035750000.0 9035750000.0 9035750000.0 9035750000.0 9035750000.0 9035750000.0 9035750000.0 9035750000.0 9035750000.0 9035760000.0 9035760000.0 9035760000.0 9035760000.0 9035770000.0 9035770000.0 9035780000.0 9035790000.0 9035810000.0 9035840000.0 9035870000.0 9035920000.0 9035990000.0 9036090000.0 9036230000.0 9036430000.0 9036710000.0 9037110000.0 9037670000.0 9038480000.0 9039660000.0 9041370000.0 9043900000.0 9047620000.0 9053460000.0 9059490000.0 9128410000.0 9413960000.0 13399800000.0 14888300000.0 13943400000.0 12437500000.0 9294660000.0 9105580000.0 9055330000.0 9050020000.0 9045350000.0 9042330000.0 9040290000.0 9038900000.0 9037950000.0 9037290000.0 9036830000.0 9036510000.0 9036280000.0 9036120000.0 9036010000.0 9035940000.0 9035880000.0 9035840000.0 9035820000.0 9035800000.0 9035780000.0 9035770000.0 9035770000.0 9035760000.0 9035760000.0 9035760000.0 9035760000.0 9035750000.0 9035750000.0 9035750000.0 9035750000.0 9035750000.0 9035750000.0 9035750000.0 9035750000.0 9035750000.0 9035750000.0 9035750000.0 9035750000.0 9035750000.0 9035750000.0 9035750000.0 9035750000.0 9035750000.0 9035760000.0 9035760000.0 9035760000.0 9035760000.0 9035770000.0 9035770000.0 9035780000.0 9035800000.0 9035820000.0 9035840000.0 9035880000.0 9035940000.0 9036010000.0 9036120000.0 9036280000.0 9036510000.0 9036830000.0 9037290000.0 9037950000.0 9038900000.0 9040290000.0 9042330000.0 9045350000.0 9050020000.0 9055330000.0 9105580000.0 9294660000.0 12437500000.0 13943400000.0 13130500000.0 11663900000.0 9214540000.0 9087890000.0 9051770000.0 9047180000.0 9043470000.0 9041030000.0 9039390000.0 9038270000.0 9037500000.0 9036970000.0 9036600000.0 9036350000.0 9036170000.0 9036040000.0 9035950000.0 9035890000.0 9035850000.0 9035820000.0 9035800000.0 9035790000.0 9035780000.0 9035770000.0 9035760000.0 9035760000.0 9035760000.0 9035760000.0 9035750000.0 9035750000.0 9035750000.0 9035750000.0 9035750000.0 9035750000.0 9035750000.0 9035750000.0 9035750000.0 9035750000.0 9035750000.0 9035750000.0 9035750000.0 9035750000.0 9035750000.0 9035750000.0 9035750000.0 9035750000.0 9035750000.0 9035760000.0 9035760000.0 9035760000.0 9035760000.0 9035770000.0 9035780000.0 9035790000.0 9035800000.0 9035820000.0 9035850000.0 9035890000.0 9035950000.0 9036040000.0 9036170000.0 9036350000.0 9036600000.0 9036970000.0 9037500000.0 9038270000.0 9039390000.0 9041030000.0 9043470000.0 9047180000.0 9051770000.0 9087890000.0 9214540000.0 11663900000.0 13130500000.0 12434300000.0 11048100000.0 9160770000.0 9074370000.0 9048750000.0 9044870000.0 9041920000.0 9039960000.0 9038640000.0 9037750000.0 9037130000.0 9036710000.0 9036420000.0 9036210000.0 9036070000.0 9035970000.0 9035910000.0 9035860000.0 9035830000.0 9035800000.0 9035790000.0 9035780000.0 9035770000.0 9035760000.0 9035760000.0 9035760000.0 9035760000.0 9035760000.0 9035750000.0 9035750000.0 9035750000.0 9035750000.0 9035750000.0 9035750000.0 9035750000.0 9035750000.0 9035750000.0 9035750000.0 9035750000.0 9035750000.0 9035750000.0 9035750000.0 9035750000.0 9035750000.0 9035750000.0 9035750000.0 9035750000.0 9035760000.0 9035760000.0 9035760000.0 9035760000.0 9035760000.0 9035770000.0 9035780000.0 9035790000.0 9035800000.0 9035830000.0 9035860000.0 9035910000.0 9035970000.0 9036070000.0 9036210000.0 9036420000.0 9036710000.0 9037130000.0 9037750000.0 9038640000.0 9039960000.0 9041920000.0 9044870000.0 9048750000.0 9074370000.0 9160770000.0 11048100000.0 12434300000.0 11841100000.0 10562700000.0 9124540000.0 9064150000.0 9046210000.0 9042980000.0 9040640000.0 9039090000.0 9038030000.0 9037320000.0 9036830000.0 9036500000.0 9036270000.0 9036110000.0 9036000000.0 9035920000.0 9035870000.0 9035830000.0 9035810000.0 9035790000.0 9035780000.0 9035770000.0 9035760000.0 9035760000.0 9035760000.0 9035760000.0 9035760000.0 9035750000.0 9035750000.0 9035750000.0 9035750000.0 9035750000.0 9035750000.0 9035750000.0 9035750000.0 9035750000.0 9035750000.0 9035750000.0 9035750000.0 9035750000.0 9035750000.0 9035750000.0 9035750000.0 9035750000.0 9035750000.0 9035750000.0 9035750000.0 9035750000.0 9035760000.0 9035760000.0 9035760000.0 9035760000.0 9035760000.0 9035770000.0 9035780000.0 9035790000.0 9035810000.0 9035830000.0 9035870000.0 9035920000.0 9036000000.0 9036110000.0 9036270000.0 9036500000.0 9036830000.0 9037320000.0 9038030000.0 9039090000.0 9040640000.0 9042980000.0 9046210000.0 9064150000.0 9124540000.0 10562700000.0 11841100000.0 11338500000.0 10183900000.0 9099880000.0 9056520000.0 9044110000.0 9041460000.0 9039610000.0 9038370000.0 9037540000.0 9036980000.0 9036590000.0 9036330000.0 9036150000.0 9036030000.0 9035940000.0 9035880000.0 9035840000.0 9035810000.0 9035790000.0 9035780000.0 9035770000.0 9035770000.0 9035760000.0 9035760000.0 9035760000.0 9035760000.0 9035750000.0 9035750000.0 9035750000.0 9035750000.0 9035750000.0 9035750000.0 9035750000.0 9035750000.0 9035750000.0 9035750000.0 9035750000.0 9035750000.0 9035750000.0 9035750000.0 9035750000.0 9035750000.0 9035750000.0 9035750000.0 9035750000.0 9035750000.0 9035750000.0 9035750000.0 9035750000.0 9035760000.0 9035760000.0 9035760000.0 9035760000.0 9035770000.0 9035770000.0 9035780000.0 9035790000.0 9035810000.0 9035840000.0 9035880000.0 9035940000.0 9036030000.0 9036150000.0 9036330000.0 9036590000.0 9036980000.0 9037540000.0 9038370000.0 9039610000.0 9041460000.0 9044110000.0 9056520000.0 9099880000.0 10183900000.0 11338500000.0 10915200000.0 9891310000.0 9082830000.0 9050860000.0 9042380000.0 9040220000.0 9038770000.0 9037800000.0 9037140000.0 9036700000.0 9036400000.0 9036200000.0 9036060000.0 9035960000.0 9035890000.0 9035850000.0 9035820000.0 9035800000.0 9035780000.0 9035770000.0 9035770000.0 9035760000.0 9035760000.0 9035760000.0 9035760000.0 9035750000.0 9035750000.0 9035750000.0 9035750000.0 9035750000.0 9035750000.0 9035750000.0 9035750000.0 9035750000.0 9035750000.0 9035750000.0 9035750000.0 9035750000.0 9035750000.0 9035750000.0 9035750000.0 9035750000.0 9035750000.0 9035750000.0 9035750000.0 9035750000.0 9035750000.0 9035750000.0 9035750000.0 9035750000.0 9035760000.0 9035760000.0 9035760000.0 9035760000.0 9035770000.0 9035770000.0 9035780000.0 9035800000.0 9035820000.0 9035850000.0 9035890000.0 9035960000.0 9036060000.0 9036200000.0 9036400000.0 9036700000.0 9037140000.0 9037800000.0 9038770000.0 9040220000.0 9042380000.0 9050860000.0 9082830000.0 9891310000.0 10915200000.0 10560800000.0 9667480000.0 9070800000.0 9046710000.0 9040960000.0 9039240000.0 9038100000.0 9037340000.0 9036830000.0 9036480000.0 9036250000.0 9036090000.0 9035980000.0 9035910000.0 9035860000.0 9035820000.0 9035800000.0 9035790000.0 9035770000.0 9035770000.0 9035760000.0 9035760000.0 9035760000.0 9035760000.0 9035750000.0 9035750000.0 9035750000.0 9035750000.0 9035750000.0 9035750000.0 9035750000.0 9035750000.0 9035750000.0 9035750000.0 9035750000.0 9035750000.0 9035750000.0 9035750000.0 9035750000.0 9035750000.0 9035750000.0 9035750000.0 9035750000.0 9035750000.0 9035750000.0 9035750000.0 9035750000.0 9035750000.0 9035750000.0 9035750000.0 9035750000.0 9035760000.0 9035760000.0 9035760000.0 9035760000.0 9035770000.0 9035770000.0 9035790000.0 9035800000.0 9035820000.0 9035860000.0 9035910000.0 9035980000.0 9036090000.0 9036250000.0 9036480000.0 9036830000.0 9037340000.0 9038100000.0 9039240000.0 9040960000.0 9046710000.0 9070800000.0 9667480000.0 10560800000.0 10265900000.0 9497960000.0 9062140000.0 9043690000.0 9039820000.0 9038450000.0 9037560000.0 9036970000.0 9036570000.0 9036310000.0 9036130000.0 9036010000.0 9035920000.0 9035870000.0 9035830000.0 9035810000.0 9035790000.0 9035780000.0 9035770000.0 9035760000.0 9035760000.0 9035760000.0 9035760000.0 9035750000.0 9035750000.0 9035750000.0 9035750000.0 9035750000.0 9035750000.0 9035750000.0 9035750000.0 9035750000.0 9035750000.0 9035750000.0 9035750000.0 9035750000.0 9035750000.0 9035750000.0 9035750000.0 9035750000.0 9035750000.0 9035750000.0 9035750000.0 9035750000.0 9035750000.0 9035750000.0 9035750000.0 9035750000.0 9035750000.0 9035750000.0 9035750000.0 9035750000.0 9035760000.0 9035760000.0 9035760000.0 9035760000.0 9035770000.0 9035780000.0 9035790000.0 9035810000.0 9035830000.0 9035870000.0 9035920000.0 9036010000.0 9036130000.0 9036310000.0 9036570000.0 9036970000.0 9037560000.0 9038450000.0 9039820000.0 9043690000.0 9062140000.0 9497960000.0 10265900000.0 10022200000.0 9370850000.0 9055760000.0 9041490000.0 9038900000.0 9037830000.0 9037140000.0 9036680000.0 9036380000.0 9036170000.0 9036030000.0 9035940000.0 9035880000.0 9035840000.0 9035810000.0 9035790000.0 9035780000.0 9035770000.0 9035760000.0 9035760000.0 9035760000.0 9035760000.0 9035750000.0 9035750000.0 9035750000.0 9035750000.0 9035750000.0 9035750000.0 9035750000.0 9035750000.0 9035750000.0 9035750000.0 9035750000.0 9035750000.0 9035750000.0 9035750000.0 9035750000.0 9035750000.0 9035750000.0 9035750000.0 9035750000.0 9035750000.0 9035750000.0 9035750000.0 9035750000.0 9035750000.0 9035750000.0 9035750000.0 9035750000.0 9035750000.0 9035750000.0 9035750000.0 9035750000.0 9035760000.0 9035760000.0 9035760000.0 9035760000.0 9035770000.0 9035780000.0 9035790000.0 9035810000.0 9035840000.0 9035880000.0 9035940000.0 9036030000.0 9036170000.0 9036380000.0 9036680000.0 9037140000.0 9037830000.0 9038900000.0 9041490000.0 9055760000.0 9370850000.0 10022200000.0 9822030000.0 9276490000.0 9050990000.0 9039900000.0 9038180000.0 9037340000.0 9036810000.0 9036460000.0 9036220000.0 9036070000.0 9035960000.0 9035890000.0 9035850000.0 9035820000.0 9035790000.0 9035780000.0 9035770000.0 9035760000.0 9035760000.0 9035760000.0 9035760000.0 9035760000.0 9035750000.0 9035750000.0 9035750000.0 9035750000.0 9035750000.0 9035750000.0 9035750000.0 9035750000.0 9035750000.0 9035750000.0 9035750000.0 9035750000.0 9035750000.0 9035750000.0 9035750000.0 9035750000.0 9035750000.0 9035750000.0 9035750000.0 9035750000.0 9035750000.0 9035750000.0 9035750000.0 9035750000.0 9035750000.0 9035750000.0 9035750000.0 9035750000.0 9035750000.0 9035750000.0 9035750000.0 9035760000.0 9035760000.0 9035760000.0 9035760000.0 9035760000.0 9035770000.0 9035780000.0 9035790000.0 9035820000.0 9035850000.0 9035890000.0 9035960000.0 9036070000.0 9036220000.0 9036460000.0 9036810000.0 9037340000.0 9038180000.0 9039900000.0 9050990000.0 9276490000.0 9822030000.0 9658660000.0 9207120000.0 9047350000.0 9038750000.0 9037600000.0 9036960000.0 9036550000.0 9036280000.0 9036100000.0 9035990000.0 9035910000.0 9035860000.0 9035820000.0 9035800000.0 9035780000.0 9035770000.0 9035770000.0 9035760000.0 9035760000.0 9035760000.0 9035760000.0 9035750000.0 9035750000.0 9035750000.0 9035750000.0 9035750000.0 9035750000.0 9035750000.0 9035750000.0 9035750000.0 9035750000.0 9035750000.0 9035750000.0 9035750000.0 9035750000.0 9035750000.0 9035750000.0 9035750000.0 9035750000.0 9035750000.0 9035750000.0 9035750000.0 9035750000.0 9035750000.0 9035750000.0 9035750000.0 9035750000.0 9035750000.0 9035750000.0 9035750000.0 9035750000.0 9035750000.0 9035750000.0 9035750000.0 9035760000.0 9035760000.0 9035760000.0 9035760000.0 9035770000.0 9035770000.0 9035780000.0 9035800000.0 9035820000.0 9035860000.0 9035910000.0 9035990000.0 9036100000.0 9036280000.0 9036550000.0 9036960000.0 9037600000.0 9038750000.0 9047350000.0 9207120000.0 9658660000.0 9526200000.0 9156630000.0 9044570000.0 9037920000.0 9037150000.0 9036660000.0 9036350000.0 9036150000.0 9036010000.0 9035930000.0 9035870000.0 9035830000.0 9035800000.0 9035790000.0 9035770000.0 9035770000.0 9035760000.0 9035760000.0 9035760000.0 9035760000.0 9035750000.0 9035750000.0 9035750000.0 9035750000.0 9035750000.0 9035750000.0 9035750000.0 9035750000.0 9035750000.0 9035750000.0 9035750000.0 9035750000.0 9035750000.0 9035750000.0 9035750000.0 9035750000.0 9035750000.0 9035750000.0 9035750000.0 9035750000.0 9035750000.0 9035750000.0 9035750000.0 9035750000.0 9035750000.0 9035750000.0 9035750000.0 9035750000.0 9035750000.0 9035750000.0 9035750000.0 9035750000.0 9035750000.0 9035750000.0 9035750000.0 9035760000.0 9035760000.0 9035760000.0 9035760000.0 9035770000.0 9035770000.0 9035790000.0 9035800000.0 9035830000.0 9035870000.0 9035930000.0 9036010000.0 9036150000.0 9036350000.0 9036660000.0 9037150000.0 9037920000.0 9044570000.0 9156630000.0 9526200000.0 9419490000.0 9120240000.0 9042420000.0 9037330000.0 9036810000.0 9036430000.0 9036200000.0 9036050000.0 9035950000.0 9035880000.0 9035840000.0 9035810000.0 9035790000.0 9035780000.0 9035770000.0 9035760000.0 9035760000.0 9035760000.0 9035760000.0 9035750000.0 9035750000.0 9035750000.0 9035750000.0 9035750000.0 9035750000.0 9035750000.0 9035750000.0 9035750000.0 9035750000.0 9035750000.0 9035750000.0 9035750000.0 9035750000.0 9035750000.0 9035750000.0 9035750000.0 9035750000.0 9035750000.0 9035750000.0 9035750000.0 9035750000.0 9035750000.0 9035750000.0 9035750000.0 9035750000.0 9035750000.0 9035750000.0 9035750000.0 9035750000.0 9035750000.0 9035750000.0 9035750000.0 9035750000.0 9035750000.0 9035750000.0 9035750000.0 9035760000.0 9035760000.0 9035760000.0 9035760000.0 9035770000.0 9035780000.0 9035790000.0 9035810000.0 9035840000.0 9035880000.0 9035950000.0 9036050000.0 9036200000.0 9036430000.0 9036810000.0 9037330000.0 9042420000.0 9120240000.0 9419490000.0 9334090000.0 9094260000.0 9040770000.0 9036890000.0 9036540000.0 9036260000.0 9036080000.0 9035970000.0 9035890000.0 9035850000.0 9035810000.0 9035790000.0 9035780000.0 9035770000.0 9035760000.0 9035760000.0 9035760000.0 9035760000.0 9035750000.0 9035750000.0 9035750000.0 9035750000.0 9035750000.0 9035750000.0 9035750000.0 9035750000.0 9035750000.0 9035750000.0 9035750000.0 9035750000.0 9035750000.0 9035750000.0 9035750000.0 9035750000.0 9035750000.0 9035750000.0 9035750000.0 9035750000.0 9035750000.0 9035750000.0 9035750000.0 9035750000.0 9035750000.0 9035750000.0 9035750000.0 9035750000.0 9035750000.0 9035750000.0 9035750000.0 9035750000.0 9035750000.0 9035750000.0 9035750000.0 9035750000.0 9035750000.0 9035750000.0 9035750000.0 9035760000.0 9035760000.0 9035760000.0 9035760000.0 9035770000.0 9035780000.0 9035790000.0 9035810000.0 9035850000.0 9035890000.0 9035970000.0 9036080000.0 9036260000.0 9036540000.0 9036890000.0 9040770000.0 9094260000.0 9334090000.0 9266190000.0 9075900000.0 9039510000.0 9036580000.0 9036340000.0 9036120000.0 9036000000.0 9035910000.0 9035860000.0 9035820000.0 9035800000.0 9035780000.0 9035770000.0 9035760000.0 9035760000.0 9035760000.0 9035760000.0 9035750000.0 9035750000.0 9035750000.0 9035750000.0 9035750000.0 9035750000.0 9035750000.0 9035750000.0 9035750000.0 9035750000.0 9035750000.0 9035750000.0 9035750000.0 9035750000.0 9035750000.0 9035750000.0 9035750000.0 9035750000.0 9035750000.0 9035750000.0 9035750000.0 9035750000.0 9035750000.0 9035750000.0 9035750000.0 9035750000.0 9035750000.0 9035750000.0 9035750000.0 9035750000.0 9035750000.0 9035750000.0 9035750000.0 9035750000.0 9035750000.0 9035750000.0 9035750000.0 9035750000.0 9035750000.0 9035750000.0 9035750000.0 9035760000.0 9035760000.0 9035760000.0 9035760000.0 9035770000.0 9035780000.0 9035800000.0 9035820000.0 9035860000.0 9035910000.0 9036000000.0 9036120000.0 9036340000.0 9036580000.0 9039510000.0 9075900000.0 9266190000.0 9212550000.0 9063050000.0 9038540000.0 9036350000.0 9036180000.0 9036030000.0 9035930000.0 9035870000.0 9035830000.0 9035800000.0 9035780000.0 9035770000.0 9035770000.0 9035760000.0 9035760000.0 9035760000.0 9035760000.0 9035750000.0 9035750000.0 9035750000.0 9035750000.0 9035750000.0 9035750000.0 9035750000.0 9035750000.0 9035750000.0 9035750000.0 9035750000.0 9035750000.0 9035750000.0 9035750000.0 9035750000.0 9035750000.0 9035750000.0 9035750000.0 9035750000.0 9035750000.0 9035750000.0 9035750000.0 9035750000.0 9035750000.0 9035750000.0 9035750000.0 9035750000.0 9035750000.0 9035750000.0 9035750000.0 9035750000.0 9035750000.0 9035750000.0 9035750000.0 9035750000.0 9035750000.0 9035750000.0 9035750000.0 9035750000.0 9035750000.0 9035750000.0 9035760000.0 9035760000.0 9035760000.0 9035760000.0 9035770000.0 9035770000.0 9035780000.0 9035800000.0 9035830000.0 9035870000.0 9035930000.0 9036030000.0 9036180000.0 9036350000.0 9038540000.0 9063050000.0 9212550000.0 9170450000.0 9054140000.0 9037800000.0 9036190000.0 9036070000.0 9035950000.0 9035880000.0 9035840000.0 9035810000.0 9035790000.0 9035780000.0 9035770000.0 9035760000.0 9035760000.0 9035760000.0 9035760000.0 9035750000.0 9035750000.0 9035750000.0 9035750000.0 9035750000.0 9035750000.0 9035750000.0 9035750000.0 9035750000.0 9035750000.0 9035750000.0 9035750000.0 9035750000.0 9035750000.0 9035750000.0 9035750000.0 9035750000.0 9035750000.0 9035750000.0 9035750000.0 9035750000.0 9035750000.0 9035750000.0 9035750000.0 9035750000.0 9035750000.0 9035750000.0 9035750000.0 9035750000.0 9035750000.0 9035750000.0 9035750000.0 9035750000.0 9035750000.0 9035750000.0 9035750000.0 9035750000.0 9035750000.0 9035750000.0 9035750000.0 9035750000.0 9035750000.0 9035750000.0 9035760000.0 9035760000.0 9035760000.0 9035760000.0 9035770000.0 9035780000.0 9035790000.0 9035810000.0 9035840000.0 9035880000.0 9035950000.0 9036070000.0 9036190000.0 9037800000.0 9054140000.0 9170450000.0 9137610000.0 9048020000.0 9037250000.0 9036070000.0 9035980000.0 9035900000.0 9035850000.0 9035810000.0 9035790000.0 9035780000.0 9035770000.0 9035760000.0 9035760000.0 9035760000.0 9035760000.0 9035750000.0 9035750000.0 9035750000.0 9035750000.0 9035750000.0 9035750000.0 9035750000.0 9035750000.0 9035750000.0 9035750000.0 9035750000.0 9035750000.0 9035750000.0 9035750000.0 9035750000.0 9035750000.0 9035750000.0 9035750000.0 9035750000.0 9035750000.0 9035750000.0 9035750000.0 9035750000.0 9035750000.0 9035750000.0 9035750000.0 9035750000.0 9035750000.0 9035750000.0 9035750000.0 9035750000.0 9035750000.0 9035750000.0 9035750000.0 9035750000.0 9035750000.0 9035750000.0 9035750000.0 9035750000.0 9035750000.0 9035750000.0 9035750000.0 9035750000.0 9035750000.0 9035750000.0 9035760000.0 9035760000.0 9035760000.0 9035760000.0 9035770000.0 9035780000.0 9035790000.0 9035810000.0 9035850000.0 9035900000.0 9035980000.0 9036070000.0 9037250000.0 9048020000.0 9137610000.0 9112130000.0 9043860000.0 9036840000.0 9035980000.0 9035920000.0 9035860000.0 9035820000.0 9035790000.0 9035780000.0 9035770000.0 9035760000.0 9035760000.0 9035760000.0 9035760000.0 9035750000.0 9035750000.0 9035750000.0 9035750000.0 9035750000.0 9035750000.0 9035750000.0 9035750000.0 9035750000.0 9035750000.0 9035750000.0 9035750000.0 9035750000.0 9035750000.0 9035750000.0 9035750000.0 9035750000.0 9035750000.0 9035750000.0 9035750000.0 9035750000.0 9035750000.0 9035750000.0 9035750000.0 9035750000.0 9035750000.0 9035750000.0 9035750000.0 9035750000.0 9035750000.0 9035750000.0 9035750000.0 9035750000.0 9035750000.0 9035750000.0 9035750000.0 9035750000.0 9035750000.0 9035750000.0 9035750000.0 9035750000.0 9035750000.0 9035750000.0 9035750000.0 9035750000.0 9035750000.0 9035750000.0 9035760000.0 9035760000.0 9035760000.0 9035760000.0 9035770000.0 9035780000.0 9035790000.0 9035820000.0 9035860000.0 9035920000.0 9035980000.0 9036840000.0 9043860000.0 9112130000.0 9092460000.0 9041060000.0 9036530000.0 9035920000.0 9035870000.0 9035830000.0 9035800000.0 9035780000.0 9035770000.0 9035760000.0 9035760000.0 9035760000.0 9035760000.0 9035750000.0 9035750000.0 9035750000.0 9035750000.0 9035750000.0 9035750000.0 9035750000.0 9035750000.0 9035750000.0 9035750000.0 9035750000.0 9035750000.0 9035750000.0 9035750000.0 9035750000.0 9035750000.0 9035750000.0 9035750000.0 9035750000.0 9035750000.0 9035750000.0 9035750000.0 9035750000.0 9035750000.0 9035750000.0 9035750000.0 9035750000.0 9035750000.0 9035750000.0 9035750000.0 9035750000.0 9035750000.0 9035750000.0 9035750000.0 9035750000.0 9035750000.0 9035750000.0 9035750000.0 9035750000.0 9035750000.0 9035750000.0 9035750000.0 9035750000.0 9035750000.0 9035750000.0 9035750000.0 9035750000.0 9035750000.0 9035750000.0 9035760000.0 9035760000.0 9035760000.0 9035760000.0 9035770000.0 9035780000.0 9035800000.0 9035830000.0 9035870000.0 9035920000.0 9036530000.0 9041060000.0 9092460000.0 9077310000.0 9039180000.0 9036300000.0 9035870000.0 9035840000.0 9035800000.0 9035790000.0 9035770000.0 9035770000.0 9035760000.0 9035760000.0 9035760000.0 9035760000.0 9035750000.0 9035750000.0 9035750000.0 9035750000.0 9035750000.0 9035750000.0 9035750000.0 9035750000.0 9035750000.0 9035750000.0 9035750000.0 9035750000.0 9035750000.0 9035750000.0 9035750000.0 9035750000.0 9035750000.0 9035750000.0 9035750000.0 9035750000.0 9035750000.0 9035750000.0 9035750000.0 9035750000.0 9035750000.0 9035750000.0 9035750000.0 9035750000.0 9035750000.0 9035750000.0 9035750000.0 9035750000.0 9035750000.0 9035750000.0 9035750000.0 9035750000.0 9035750000.0 9035750000.0 9035750000.0 9035750000.0 9035750000.0 9035750000.0 9035750000.0 9035750000.0 9035750000.0 9035750000.0 9035750000.0 9035750000.0 9035750000.0 9035760000.0 9035760000.0 9035760000.0 9035760000.0 9035770000.0 9035770000.0 9035790000.0 9035800000.0 9035840000.0 9035870000.0 9036300000.0 9039180000.0 9077310000.0 9065620000.0 9037940000.0 9036130000.0 9035830000.0 9035810000.0 9035790000.0 9035780000.0 9035770000.0 9035760000.0 9035760000.0 9035760000.0 9035760000.0 9035750000.0 9035750000.0 9035750000.0 9035750000.0 9035750000.0 9035750000.0 9035750000.0 9035750000.0 9035750000.0 9035750000.0 9035750000.0 9035750000.0 9035750000.0 9035750000.0 9035750000.0 9035750000.0 9035750000.0 9035750000.0 9035750000.0 9035750000.0 9035750000.0 9035750000.0 9035750000.0 9035750000.0 9035750000.0 9035750000.0 9035750000.0 9035750000.0 9035750000.0 9035750000.0 9035750000.0 9035750000.0 9035750000.0 9035750000.0 9035750000.0 9035750000.0 9035750000.0 9035750000.0 9035750000.0 9035750000.0 9035750000.0 9035750000.0 9035750000.0 9035750000.0 9035750000.0 9035750000.0 9035750000.0 9035750000.0 9035750000.0 9035750000.0 9035750000.0 9035760000.0 9035760000.0 9035760000.0 9035760000.0 9035770000.0 9035780000.0 9035790000.0 9035810000.0 9035830000.0 9036130000.0 9037940000.0 9065620000.0 9056520000.0 9037120000.0 9036010000.0 9035810000.0 9035790000.0 9035780000.0 9035770000.0 9035760000.0 9035760000.0 9035760000.0 9035760000.0 9035750000.0 9035750000.0 9035750000.0 9035750000.0 9035750000.0 9035750000.0 9035750000.0 9035750000.0 9035750000.0 9035750000.0 9035750000.0 9035750000.0 9035750000.0 9035750000.0 9035750000.0 9035750000.0 9035750000.0 9035750000.0 9035750000.0 9035750000.0 9035750000.0 9035750000.0 9035750000.0 9035750000.0 9035750000.0 9035750000.0 9035750000.0 9035750000.0 9035750000.0 9035750000.0 9035750000.0 9035750000.0 9035750000.0 9035750000.0 9035750000.0 9035750000.0 9035750000.0 9035750000.0 9035750000.0 9035750000.0 9035750000.0 9035750000.0 9035750000.0 9035750000.0 9035750000.0 9035750000.0 9035750000.0 9035750000.0 9035750000.0 9035750000.0 9035750000.0 9035750000.0 9035750000.0 9035760000.0 9035760000.0 9035760000.0 9035760000.0 9035770000.0 9035780000.0 9035790000.0 9035810000.0 9036010000.0 9037120000.0 9056520000.0 9049290000.0 9036560000.0 9035920000.0 9035790000.0 9035780000.0 9035770000.0 9035760000.0 9035760000.0 9035760000.0 9035760000.0 9035750000.0 9035750000.0 9035750000.0 9035750000.0 9035750000.0 9035750000.0 9035750000.0 9035750000.0 9035750000.0 9035750000.0 9035750000.0 9035750000.0 9035750000.0 9035750000.0 9035750000.0 9035750000.0 9035750000.0 9035750000.0 9035750000.0 9035750000.0 9035750000.0 9035750000.0 9035750000.0 9035750000.0 9035750000.0 9035750000.0 9035750000.0 9035750000.0 9035750000.0 9035750000.0 9035750000.0 9035750000.0 9035750000.0 9035750000.0 9035750000.0 9035750000.0 9035750000.0 9035750000.0 9035750000.0 9035750000.0 9035750000.0 9035750000.0 9035750000.0 9035750000.0 9035750000.0 9035750000.0 9035750000.0 9035750000.0 9035750000.0 9035750000.0 9035750000.0 9035750000.0 9035750000.0 9035750000.0 9035750000.0 9035760000.0 9035760000.0 9035760000.0 9035760000.0 9035770000.0 9035780000.0 9035790000.0 9035920000.0 9036560000.0 9049290000.0 9043320000.0 9036180000.0 9035840000.0 9035770000.0 9035770000.0 9035760000.0 9035760000.0 9035760000.0 9035750000.0 9035750000.0 9035750000.0 9035750000.0 9035750000.0 9035750000.0 9035750000.0 9035750000.0 9035750000.0 9035750000.0 9035750000.0 9035750000.0 9035750000.0 9035750000.0 9035750000.0 9035750000.0 9035750000.0 9035750000.0 9035750000.0 9035750000.0 9035750000.0 9035750000.0 9035750000.0 9035750000.0 9035750000.0 9035750000.0 9035750000.0 9035750000.0 9035750000.0 9035750000.0 9035750000.0 9035750000.0 9035750000.0 9035750000.0 9035750000.0 9035750000.0 9035750000.0 9035750000.0 9035750000.0 9035750000.0 9035750000.0 9035750000.0 9035750000.0 9035750000.0 9035750000.0 9035750000.0 9035750000.0 9035750000.0 9035750000.0 9035750000.0 9035750000.0 9035750000.0 9035750000.0 9035750000.0 9035750000.0 9035750000.0 9035750000.0 9035750000.0 9035750000.0 9035760000.0 9035760000.0 9035760000.0 9035770000.0 9035770000.0 9035840000.0 9036180000.0 9043320000.0 9038060000.0 9035880000.0 9035780000.0 9035760000.0 9035760000.0 9035760000.0 9035750000.0 9035750000.0 9035750000.0 9035750000.0 9035750000.0 9035750000.0 9035750000.0 9035750000.0 9035750000.0 9035750000.0 9035750000.0 9035750000.0 9035750000.0 9035750000.0 9035750000.0 9035750000.0 9035750000.0 9035750000.0 9035750000.0 9035750000.0 9035750000.0 9035750000.0 9035750000.0 9035750000.0 9035750000.0 9035750000.0 9035750000.0 9035750000.0 9035750000.0 9035750000.0 9035750000.0 9035750000.0 9035750000.0 9035750000.0 9035750000.0 9035750000.0 9035750000.0 9035750000.0 9035750000.0 9035750000.0 9035750000.0 9035750000.0 9035750000.0 9035750000.0 9035750000.0 9035750000.0 9035750000.0 9035750000.0 9035750000.0 9035750000.0 9035750000.0 9035750000.0 9035750000.0 9035750000.0 9035750000.0 9035750000.0 9035750000.0 9035750000.0 9035750000.0 9035750000.0 9035750000.0 9035750000.0 9035750000.0 9035760000.0 9035760000.0 9035760000.0 9035780000.0 9035880000.0 9038060000.0 