# vtk DataFile Version 2.0
Time step 53
ASCII
DATASET UNSTRUCTURED_GRID
POINTS 5000 float
207645.0 284653.0 0
213171.0 285798.0 0
278510.0 286279.0 0
297464.0 284636.0 0
202705.0 286442.0 0
202414.0 291473.0 0
206544.0 288945.0 0
209449.0 287883.0 0
211332.0 290973.0 0
216989.0 290127.0 0
221877.0 288039.0 0
228572.0 288843.0 0
224959.0 291345.0 0
232046.0 286663.0 0
232704.0 289967.0 0
237214.0 288576.0 0
242650.0 290631.0 0
249317.0 291082.0 0
255633.0 290546.0 0
266647.0 290522.0 0
271488.0 287689.0 0
285933.0 289177.0 0
291321.0 286628.0 0
297169.0 289911.0 0
207005.0 293241.0 0
214496.0 294793.0 0
220979.0 294058.0 0
226166.0 295517.0 0
230226.0 293301.0 0
235119.0 293728.0 0
239963.0 295378.0 0
244987.0 295707.0 0
253253.0 295565.0 0
257508.0 294877.0 0
260866.0 292096.0 0
264235.0 294690.0 0
268522.0 295375.0 0
270950.0 292207.0 0
273263.0 296415.0 0
275407.0 291605.0 0
277952.0 295831.0 0
280832.0 291870.0 0
284367.0 294458.0 0
281561.0 295964.0 0
287865.0 293713.0 0
292118.0 292166.0 0
296672.0 295921.0 0
203008.0 296716.0 0
201909.0 301253.0 0
206368.0 300971.0 0
209975.0 297368.0 0
213776.0 301048.0 0
217804.0 298066.0 0
222738.0 299650.0 0
228210.0 300261.0 0
231978.0 297345.0 0
232830.0 301547.0 0
236359.0 298734.0 0
241439.0 300656.0 0
249363.0 296635.0 0
247029.0 300224.0 0
251950.0 299982.0 0
256798.0 299607.0 0
260939.0 297261.0 0
261025.0 301531.0 0
265435.0 299480.0 0
270049.0 299233.0 0
276369.0 299648.0 0
280561.0 299650.0 0
285137.0 298501.0 0
288957.0 297130.0 0
289046.0 301514.0 0
292366.0 298569.0 0
203518.0 305276.0 0
209951.0 305387.0 0
218411.0 302371.0 0
222314.0 305385.0 0
226133.0 303806.0 0
229646.0 304991.0 0
233558.0 305168.0 0
236822.0 303218.0 0
240484.0 306415.0 0
245098.0 304717.0 0
249900.0 304271.0 0
254628.0 304050.0 0
259111.0 305477.0 0
264654.0 305602.0 0
268747.0 302754.0 0
273061.0 302362.0 0
270650.0 305160.0 0
278083.0 304485.0 0
283882.0 303612.0 0
287989.0 305623.0 0
291499.0 305044.0 0
296213.0 302859.0 0
202028.0 309418.0 0
206403.0 309884.0 0
211635.0 311059.0 0
216242.0 307288.0 0
221319.0 310552.0 0
226520.0 309067.0 0
232188.0 309497.0 0
236269.0 307572.0 0
244029.0 308609.0 0
241747.0 310574.0 0
247732.0 308825.0 0
252272.0 308308.0 0
256129.0 308162.0 0
259932.0 310783.0 0
269410.0 307824.0 0
266062.0 311979.0 0
273458.0 307020.0 0
271888.0 311162.0 0
277513.0 310715.0 0
281937.0 307956.0 0
282716.0 311910.0 0
286006.0 309142.0 0
290272.0 308363.0 0
293662.0 307704.0 0
294387.0 311134.0 0
297550.0 308631.0 0
202046.0 313143.0 0
202300.0 317076.0 0
206946.0 315152.0 0
212626.0 316274.0 0
216666.0 313009.0 0
220847.0 314914.0 0
229412.0 312889.0 0
225361.0 314510.0 0
232674.0 313892.0 0
229862.0 316593.0 0
237298.0 312742.0 0
242970.0 314482.0 0
246617.0 312634.0 0
248167.0 315777.0 0
254708.0 311990.0 0
250493.0 312600.0 0
252842.0 316643.0 0
257269.0 315194.0 0
261790.0 316296.0 0
270229.0 315402.0 0
274371.0 315058.0 0
280427.0 314478.0 0
277838.0 315447.0 0
283777.0 316255.0 0
286395.0 312956.0 0
290520.0 312116.0 0
288860.0 316066.0 0
294056.0 315597.0 0
297852.0 312906.0 0
298376.0 316433.0 0
201930.0 320869.0 0
205514.0 320185.0 0
209447.0 319441.0 0
213181.0 321529.0 0
217927.0 319003.0 0
222807.0 318147.0 0
226740.0 319669.0 0
234041.0 317734.0 0
230947.0 321691.0 0
239458.0 318587.0 0
245033.0 319073.0 0
249370.0 319117.0 0
252659.0 322006.0 0
257463.0 320124.0 0
263107.0 321469.0 0
266214.0 317655.0 0
269398.0 318632.0 0
273009.0 319476.0 0
276504.0 317861.0 0
279725.0 317861.0 0
277308.0 321742.0 0
282329.0 321282.0 0
286572.0 319615.0 0
291292.0 319796.0 0
295424.0 319879.0 0
298503.0 319292.0 0
201653.0 323831.0 0
202336.0 327185.0 0
204659.0 324203.0 0
208718.0 323839.0 0
212931.0 325424.0 0
217395.0 325033.0 0
222490.0 322395.0 0
222248.0 327027.0 0
227042.0 324510.0 0
232233.0 327310.0 0
235467.0 322470.0 0
237411.0 326737.0 0
239953.0 323482.0 0
243954.0 323603.0 0
248023.0 323114.0 0
246232.0 326543.0 0
256028.0 325832.0 0
259782.0 323932.0 0
264928.0 325827.0 0
268229.0 322384.0 0
272786.0 324032.0 0
280040.0 325661.0 0
275931.0 326125.0 0
283934.0 325302.0 0
288266.0 323708.0 0
293627.0 323865.0 0
297879.0 322647.0 0
297841.0 326417.0 0
202725.0 331312.0 0
205871.0 327902.0 0
207158.0 331826.0 0
209947.0 328357.0 0
213979.0 328301.0 0
211974.0 332118.0 0
217136.0 330363.0 0
221872.0 331917.0 0
226522.0 329132.0 0
229965.0 331881.0 0
237561.0 331626.0 0
242120.0 328126.0 0
246304.0 330237.0 0
250812.0 327584.0 0
255854.0 332191.0 0
260802.0 327857.0 0
269326.0 327315.0 0
265477.0 330691.0 0
269718.0 332348.0 0
273269.0 329640.0 0
277871.0 330079.0 0
282644.0 329836.0 0
286256.0 328034.0 0
290158.0 327949.0 0
286914.0 331400.0 0
294421.0 327935.0 0
297304.0 331021.0 0
201740.0 334802.0 0
205234.0 334956.0 0
208954.0 335281.0 0
212940.0 335976.0 0
214947.0 333509.0 0
217641.0 335641.0 0
222477.0 337165.0 0
226433.0 334228.0 0
233324.0 332758.0 0
230639.0 336210.0 0
235440.0 336354.0 0
239603.0 336797.0 0
242435.0 333184.0 0
246353.0 334230.0 0
250230.0 333060.0 0
252758.0 336715.0 0
259803.0 336319.0 0
261186.0 332600.0 0
264156.0 335885.0 0
268710.0 336888.0 0
273650.0 334767.0 0
278518.0 334502.0 0
283368.0 334728.0 0
288125.0 335596.0 0
292025.0 332583.0 0
296479.0 336438.0 0
202586.0 338176.0 0
203006.0 342493.0 0
206608.0 338202.0 0
207871.0 342192.0 0
210532.0 338751.0 0
212595.0 342582.0 0
214785.0 339299.0 0
218827.0 340414.0 0
223138.0 341729.0 0
226733.0 338649.0 0
229708.0 340240.0 0
233181.0 340032.0 0
237350.0 341948.0 0
244370.0 338172.0 0
241192.0 340619.0 0
249039.0 337739.0 0
247730.0 341962.0 0
251799.0 341489.0 0
256420.0 339448.0 0
261455.0 340022.0 0
265252.0 340014.0 0
268238.0 342101.0 0
272210.0 340050.0 0
280286.0 338036.0 0
276441.0 339090.0 0
282679.0 339434.0 0
285519.0 338773.0 0
289269.0 340485.0 0
292005.0 337616.0 0
293455.0 341182.0 0
297449.0 341178.0 0
202573.0 347074.0 0
206236.0 346700.0 0
210601.0 346568.0 0
216316.0 342755.0 0
215698.0 347029.0 0
219707.0 344423.0 0
223573.0 346176.0 0
227342.0 343256.0 0
228033.0 347595.0 0
231986.0 344523.0 0
235970.0 347160.0 0
241331.0 343841.0 0
244141.0 342851.0 0
240069.0 346793.0 0
243620.0 346407.0 0
246610.0 345314.0 0
250019.0 345860.0 0
254915.0 345896.0 0
259235.0 343598.0 0
263702.0 344725.0 0
267766.0 345629.0 0
271575.0 344770.0 0
275255.0 343697.0 0
279722.0 342666.0 0
277473.0 346221.0 0
285099.0 343465.0 0
281543.0 347123.0 0
290543.0 345191.0 0
296282.0 345954.0 0
202771.0 351144.0 0
207714.0 350720.0 0
212179.0 350753.0 0
216858.0 352003.0 0
220322.0 348777.0 0
222149.0 352856.0 0
224699.0 349798.0 0
228087.0 352457.0 0
231985.0 349715.0 0
235718.0 351636.0 0
238827.0 350753.0 0
242568.0 350216.0 0
246902.0 349520.0 0
251678.0 350979.0 0
259609.0 347809.0 0
256620.0 351240.0 0
262707.0 349301.0 0
260419.0 352521.0 0
266174.0 348873.0 0
270053.0 348515.0 0
268171.0 351750.0 0
274397.0 348110.0 0
271739.0 351819.0 0
275631.0 352280.0 0
278432.0 349663.0 0
282193.0 350663.0 0
286348.0 348835.0 0
288596.0 352419.0 0
291965.0 349521.0 0
297035.0 350885.0 0
197272.0 358095.0 0
201968.0 357319.0 0
201516.0 354518.0 0
205763.0 354847.0 0
209767.0 353732.0 0
213066.0 354071.0 0
210759.0 357286.0 0
215564.0 356496.0 0
219121.0 355633.0 0
222422.0 357785.0 0
225396.0 355671.0 0
229448.0 357270.0 0
233093.0 354859.0 0
237552.0 354686.0 0
240852.0 354127.0 0
244928.0 353873.0 0
240136.0 357754.0 0
243158.0 356979.0 0
248350.0 354263.0 0
254531.0 354825.0 0
251226.0 356967.0 0
257625.0 355683.0 0
264640.0 353011.0 0
260916.0 356435.0 0
264444.0 357082.0 0
268819.0 355741.0 0
273137.0 354611.0 0
272695.0 357540.0 0
279883.0 353335.0 0
276675.0 356433.0 0
284212.0 353678.0 0
280892.0 357002.0 0
284216.0 357255.0 0
288299.0 356487.0 0
292475.0 353587.0 0
292264.0 358018.0 0
296717.0 355596.0 0
202712.0 361235.0 0
204875.0 358484.0 0
207680.0 357969.0 0
207258.0 360981.0 0
210816.0 361950.0 0
214463.0 359833.0 0
219026.0 359721.0 0
217224.0 362690.0 0
222870.0 361755.0 0
225953.0 359673.0 0
229719.0 361583.0 0
233097.0 359630.0 0
236640.0 358330.0 0
235725.0 362799.0 0
239410.0 361538.0 0
243120.0 360308.0 0
246621.0 358049.0 0
246059.0 362949.0 0
249284.0 360903.0 0
252931.0 361125.0 0
255262.0 358474.0 0
258476.0 359466.0 0
256277.0 362295.0 0
261882.0 360575.0 0
266139.0 360365.0 0
270065.0 360532.0 0
274237.0 360844.0 0
278090.0 360459.0 0
282236.0 361021.0 0
286340.0 359923.0 0
289918.0 361810.0 0
293352.0 360765.0 0
296916.0 360139.0 0
202123.0 365005.0 0
205342.0 367170.0 0
205695.0 364023.0 0
208978.0 365425.0 0
212652.0 365948.0 0
214204.0 363527.0 0
216960.0 366742.0 0
220489.0 364142.0 0
220773.0 367580.0 0
223579.0 366220.0 0
226656.0 364107.0 0
232503.0 363604.0 0
230219.0 365972.0 0
233855.0 367009.0 0
238046.0 366347.0 0
242083.0 364506.0 0
241198.0 367981.0 0
244685.0 367540.0 0
247842.0 366309.0 0
250444.0 364464.0 0
253580.0 364155.0 0
252375.0 367190.0 0
259397.0 363506.0 0
256352.0 367033.0 0
260569.0 367920.0 0
263709.0 364696.0 0
267794.0 363860.0 0
267357.0 367108.0 0
271469.0 364890.0 0
279520.0 365140.0 0
275575.0 364325.0 0
285588.0 363363.0 0
283269.0 365150.0 0
284934.0 367694.0 0
287651.0 365658.0 0
290583.0 366475.0 0
293728.0 363758.0 0
294305.0 367701.0 0
297704.0 364029.0 0
297766.0 367241.0 0
202246.0 368385.0 0
206080.0 370334.0 0
208676.0 368823.0 0
208142.0 372459.0 0
210704.0 371918.0 0
211952.0 368957.0 0
215384.0 370451.0 0
223544.0 369626.0 0
219898.0 370557.0 0
222668.0 372846.0 0
227397.0 368804.0 0
226310.0 372867.0 0
230769.0 369029.0 0
232965.0 370532.0 0
230305.0 373265.0 0
236240.0 370480.0 0
239609.0 370940.0 0
242890.0 370516.0 0
246866.0 369810.0 0
249705.0 368895.0 0
245102.0 372483.0 0
248868.0 373502.0 0
253364.0 371703.0 0
257875.0 371895.0 0
264445.0 369232.0 0
261732.0 372261.0 0
267445.0 370739.0 0
270787.0 369124.0 0
269774.0 373174.0 0
273147.0 372372.0 0
275151.0 368538.0 0
278706.0 369300.0 0
277070.0 372676.0 0
281804.0 368540.0 0
280817.0 372342.0 0
283898.0 370480.0 0
287689.0 370164.0 0
295307.0 371264.0 0
290858.0 369987.0 0
292364.0 372788.0 0
298398.0 369898.0 0
302633.0 371890.0 0
196187.0 380009.0 0
200787.0 376293.0 0
198924.0 379012.0 0
201581.0 380241.0 0
203072.0 372221.0 0
203666.0 377383.0 0
206095.0 375097.0 0
208337.0 378940.0 0
210337.0 375841.0 0
213852.0 374247.0 0
218442.0 374317.0 0
216684.0 377423.0 0
221768.0 376105.0 0
223039.0 378971.0 0
225484.0 376526.0 0
229186.0 377559.0 0
234456.0 374110.0 0
232777.0 377421.0 0
237961.0 374538.0 0
236232.0 378171.0 0
241680.0 374410.0 0
240366.0 378586.0 0
244645.0 376176.0 0
247878.0 377604.0 0
251814.0 377008.0 0
259202.0 375804.0 0
255549.0 375817.0 0
262335.0 376376.0 0
265485.0 373846.0 0
264912.0 378606.0 0
268180.0 376612.0 0
271808.0 376079.0 0
274978.0 375493.0 0
278116.0 376827.0 0
284752.0 373497.0 0
280587.0 378459.0 0
280862.0 375549.0 0
283524.0 376855.0 0
288382.0 374730.0 0
292881.0 376580.0 0
299661.0 375403.0 0
296396.0 375213.0 0
297912.0 372721.0 0
295903.0 378402.0 0
300241.0 378641.0 0
303119.0 380520.0 0
306532.0 381226.0 0
190906.0 383103.0 0
188616.0 384875.0 0
193724.0 382354.0 0
192944.0 385608.0 0
197020.0 384030.0 0
200298.0 383028.0 0
205404.0 381828.0 0
208406.0 384088.0 0
211230.0 381121.0 0
213620.0 378713.0 0
214614.0 383046.0 0
216567.0 380879.0 0
219624.0 379217.0 0
218334.0 382995.0 0
222341.0 383306.0 0
225977.0 380473.0 0
228853.0 381866.0 0
231974.0 381002.0 0
234924.0 381236.0 0
238035.0 382307.0 0
244412.0 381091.0 0
254145.0 379598.0 0
249886.0 381371.0 0
256611.0 381147.0 0
257302.0 378643.0 0
260788.0 380694.0 0
267553.0 380291.0 0
265044.0 382540.0 0
268815.0 383733.0 0
270850.0 379855.0 0
272972.0 383183.0 0
274633.0 379233.0 0
278218.0 382175.0 0
282466.0 379942.0 0
283152.0 382401.0 0
286435.0 378859.0 0
285969.0 382638.0 0
289141.0 383644.0 0
290345.0 379743.0 0
292252.0 384342.0 0
297654.0 380375.0 0
294128.0 381766.0 0
297130.0 384724.0 0
303914.0 383309.0 0
299952.0 383310.0 0
308438.0 384022.0 0
311831.0 384959.0 0
178586.0 390885.0 0
183655.0 387901.0 0
186118.0 386309.0 0
181238.0 389799.0 0
185858.0 389986.0 0
190616.0 386822.0 0
187629.0 388449.0 0
188816.0 390564.0 0
191254.0 389314.0 0
194601.0 388957.0 0
195285.0 391316.0 0
195061.0 386797.0 0
199107.0 386922.0 0
198573.0 389570.0 0
202923.0 385584.0 0
203499.0 388837.0 0
206479.0 388584.0 0
206328.0 386307.0 0
208706.0 387308.0 0
211962.0 385502.0 0
211547.0 390182.0 0
215083.0 387490.0 0
216915.0 385237.0 0
219940.0 387289.0 0
224069.0 388083.0 0
226763.0 385119.0 0
231130.0 385493.0 0
234633.0 384361.0 0
234135.0 388183.0 0
237162.0 386299.0 0
240001.0 388148.0 0
241168.0 384371.0 0
243606.0 387387.0 0
246874.0 387952.0 0
246446.0 384804.0 0
249765.0 385927.0 0
253503.0 383642.0 0
253214.0 388170.0 0
258065.0 385544.0 0
262965.0 385691.0 0
266472.0 387432.0 0
270908.0 387451.0 0
275354.0 386711.0 0
278643.0 387130.0 0
281476.0 385853.0 0
284947.0 386210.0 0
288595.0 388272.0 0
292467.0 388855.0 0
294699.0 386321.0 0
295829.0 390159.0 0
302274.0 386047.0 0
299778.0 389527.0 0
306210.0 386648.0 0
308159.0 389775.0 0
310953.0 387576.0 0
312677.0 389202.0 0
314451.0 386376.0 0
316829.0 388391.0 0
315174.0 390655.0 0
319697.0 390282.0 0
171445.0 396182.0 0
174110.0 394567.0 0
176371.0 392769.0 0
178719.0 393850.0 0
182376.0 392182.0 0
185490.0 392413.0 0
180945.0 394725.0 0
185730.0 395037.0 0
183061.0 396022.0 0
188460.0 392562.0 0
189876.0 394581.0 0
191650.0 391825.0 0
193278.0 393713.0 0
195380.0 395947.0 0
201295.0 390732.0 0
197838.0 393167.0 0
204356.0 392187.0 0
200959.0 394408.0 0
207780.0 391065.0 0
207606.0 394523.0 0
210543.0 394271.0 0
214365.0 393437.0 0
217130.0 390394.0 0
218852.0 394167.0 0
221669.0 391156.0 0
225536.0 391967.0 0
222143.0 394040.0 0
227891.0 388985.0 0
229138.0 393664.0 0
231115.0 389924.0 0
233388.0 392565.0 0
236880.0 390701.0 0
238211.0 394104.0 0
241532.0 391563.0 0
245375.0 391135.0 0
249609.0 390138.0 0
248676.0 393448.0 0
252874.0 392548.0 0
256454.0 390584.0 0
258461.0 393298.0 0
261073.0 389837.0 0
264711.0 390617.0 0
262159.0 394170.0 0
268601.0 391029.0 0
266219.0 394231.0 0
269893.0 393618.0 0
273101.0 391656.0 0
277703.0 390286.0 0
277157.0 394016.0 0
281294.0 390362.0 0
283742.0 393805.0 0
284520.0 389876.0 0
287699.0 393249.0 0
292373.0 392403.0 0
295421.0 393884.0 0
299148.0 394168.0 0
302312.0 395017.0 0
303802.0 391021.0 0
307115.0 392289.0 0
305688.0 394879.0 0
310677.0 392207.0 0
309754.0 395454.0 0
313888.0 394903.0 0
314228.0 393066.0 0
318086.0 392613.0 0
317599.0 394822.0 0
322343.0 391942.0 0
322222.0 394541.0 0
320261.0 396106.0 0
325414.0 393443.0 0
327264.0 395474.0 0
329654.0 396212.0 0
164134.0 400616.0 0
161367.0 401236.0 0
168456.0 396952.0 0
166100.0 398677.0 0
168591.0 399632.0 0
172037.0 399622.0 0
174984.0 399027.0 0
176336.0 396861.0 0
177742.0 399268.0 0
178800.0 396992.0 0
180126.0 401410.0 0
180459.0 398833.0 0
182894.0 398444.0 0
184760.0 400061.0 0
186389.0 397201.0 0
189832.0 397579.0 0
187705.0 401268.0 0
193594.0 399275.0 0
198328.0 397118.0 0
199457.0 399525.0 0
204627.0 395739.0 0
201974.0 397694.0 0
203671.0 399594.0 0
205778.0 398198.0 0
206615.0 400800.0 0
208225.0 397267.0 0
209340.0 400139.0 0
212094.0 397233.0 0
214059.0 400409.0 0
216396.0 396953.0 0
218919.0 398768.0 0
221120.0 396826.0 0
223682.0 399333.0 0
224528.0 395154.0 0
226753.0 396910.0 0
229609.0 397873.0 0
231983.0 395697.0 0
235304.0 395699.0 0
232944.0 399246.0 0
238684.0 396882.0 0
236994.0 399068.0 0
241918.0 396056.0 0
244649.0 399403.0 0
245632.0 395149.0 0
247621.0 398046.0 0
250840.0 395996.0 0
253448.0 398756.0 0
255463.0 395531.0 0
259187.0 397152.0 0
263412.0 398772.0 0
267522.0 398221.0 0
269613.0 395758.0 0
271543.0 399311.0 0
272293.0 395681.0 0
274838.0 396209.0 0
275028.0 398813.0 0
278092.0 397845.0 0
281256.0 398658.0 0
280563.0 394704.0 0
283196.0 396697.0 0
285981.0 397513.0 0
289000.0 399166.0 0
291176.0 395904.0 0
291965.0 400867.0 0
294792.0 398143.0 0
302047.0 398310.0 0
298673.0 398207.0 0
305333.0 398122.0 0
308557.0 398642.0 0
312921.0 397895.0 0
311788.0 400658.0 0
316215.0 396957.0 0
317342.0 400335.0 0
323719.0 396612.0 0
320462.0 398923.0 0
323558.0 400213.0 0
326180.0 398343.0 0
328314.0 400101.0 0
331944.0 397255.0 0
329920.0 399449.0 0
332934.0 399462.0 0
335212.0 399338.0 0
337183.0 400807.0 0
154320.0 405927.0 0
159531.0 403198.0 0
156916.0 404204.0 0
164310.0 403629.0 0
161571.0 405393.0 0
167733.0 401926.0 0
166917.0 405176.0 0
170216.0 405778.0 0
174580.0 402896.0 0
170992.0 402498.0 0
173916.0 405371.0 0
177081.0 401728.0 0
177987.0 404499.0 0
180504.0 405288.0 0
182363.0 402965.0 0
185407.0 405270.0 0
189374.0 406036.0 0
191004.0 402849.0 0
194107.0 404328.0 0
196483.0 401840.0 0
198958.0 404957.0 0
201413.0 402040.0 0
202688.0 405824.0 0
204025.0 402815.0 0
206750.0 404967.0 0
210924.0 403344.0 0
214231.0 405231.0 0
217055.0 402276.0 0
221073.0 401676.0 0
224412.0 403165.0 0
221345.0 405102.0 0
226900.0 400847.0 0
229730.0 401331.0 0
227293.0 403961.0 0
234780.0 402094.0 0
231668.0 404786.0 0
237468.0 402817.0 0
239909.0 404989.0 0
240976.0 400350.0 0
243791.0 403834.0 0
247730.0 402596.0 0
250536.0 399666.0 0
252263.0 402292.0 0
254567.0 405287.0 0
256622.0 400822.0 0
259029.0 404737.0 0
261240.0 401945.0 0
260102.0 400572.0 0
263576.0 404583.0 0
265879.0 401659.0 0
268739.0 401675.0 0
271179.0 403373.0 0
274626.0 402820.0 0
277684.0 400864.0 0
278278.0 404248.0 0
280114.0 401412.0 0
282447.0 404033.0 0
284191.0 400501.0 0
287348.0 402467.0 0
290711.0 403635.0 0
293442.0 404823.0 0
295446.0 402292.0 0
297760.0 405311.0 0
302632.0 401005.0 0
299106.0 401840.0 0
302094.0 403860.0 0
305878.0 401058.0 0
308895.0 401610.0 0
305529.0 404292.0 0
309009.0 405107.0 0
311956.0 403655.0 0
314599.0 401960.0 0
314795.0 405328.0 0
318637.0 403844.0 0
322198.0 403481.0 0
324207.0 406285.0 0
327356.0 402293.0 0
325873.0 403855.0 0
331599.0 402278.0 0
330112.0 404808.0 0
334628.0 402740.0 0
338957.0 401718.0 0
335972.0 404898.0 0
340756.0 402976.0 0
338526.0 406153.0 0
342534.0 404233.0 0
344535.0 406016.0 0
147886.0 410079.0 0
145762.0 411967.0 0
150497.0 409290.0 0
152258.0 407039.0 0
153776.0 409416.0 0
155991.0 407087.0 0
159030.0 409279.0 0
158547.0 406930.0 0
155653.0 409113.0 0
157100.0 410482.0 0
162925.0 408074.0 0
161888.0 410950.0 0
165903.0 408110.0 0
167276.0 410370.0 0
174886.0 407977.0 0
170774.0 408848.0 0
175392.0 410978.0 0
177616.0 406789.0 0
179227.0 408567.0 0
178467.0 411305.0 0
181878.0 407146.0 0
182169.0 410090.0 0
185395.0 409131.0 0
188892.0 409097.0 0
192741.0 407044.0 0
192896.0 409955.0 0
195997.0 407089.0 0
195986.0 410284.0 0
199567.0 408684.0 0
202982.0 409069.0 0
206845.0 408701.0 0
210685.0 408043.0 0
214753.0 408948.0 0
218011.0 406370.0 0
218247.0 410265.0 0
220874.0 408874.0 0
224630.0 407071.0 0
228487.0 408503.0 0
233765.0 409351.0 0
235883.0 405625.0 0
237817.0 408630.0 0
242374.0 408610.0 0
246126.0 407786.0 0
250132.0 406810.0 0
253553.0 409597.0 0
257164.0 408888.0 0
261155.0 408651.0 0
268249.0 405752.0 0
265548.0 409724.0 0
272895.0 406973.0 0
270121.0 409960.0 0
276431.0 406766.0 0
280240.0 407521.0 0
283220.0 409128.0 0
285915.0 406675.0 0
288312.0 409968.0 0
291686.0 407863.0 0
289660.0 406607.0 0
291612.0 410967.0 0
295167.0 407960.0 0
298185.0 410536.0 0
301034.0 407540.0 0
302803.0 410795.0 0
304827.0 407363.0 0
307895.0 408253.0 0
306073.0 411159.0 0
311790.0 407193.0 0
310633.0 409603.0 0
314027.0 408723.0 0
316790.0 408179.0 0
316957.0 411171.0 0
319412.0 407152.0 0
319712.0 410715.0 0
322111.0 408605.0 0
323571.0 410997.0 0
327931.0 407437.0 0
326303.0 410072.0 0
332989.0 406493.0 0
330104.0 409587.0 0
331965.0 409068.0 0
334175.0 409217.0 0
332382.0 411492.0 0
336644.0 408860.0 0
341561.0 407974.0 0
340763.0 410827.0 0
347006.0 407480.0 0
349202.0 409271.0 0
344847.0 410015.0 0
352144.0 409695.0 0
138386.0 416757.0 0
143387.0 413237.0 0
140849.0 414672.0 0
144554.0 415875.0 0
147947.0 413734.0 0
146864.0 416150.0 0
150722.0 413171.0 0
153570.0 412024.0 0
151316.0 416735.0 0
156384.0 413721.0 0
159862.0 413565.0 0
164651.0 412734.0 0
162157.0 416564.0 0
168854.0 412536.0 0
166522.0 414543.0 0
169115.0 415825.0 0
172045.0 411710.0 0
172483.0 415089.0 0
175728.0 414613.0 0
179131.0 414509.0 0
182800.0 413447.0 0
189562.0 411844.0 0
186162.0 412625.0 0
187056.0 415761.0 0
190081.0 415121.0 0
192749.0 412895.0 0
195465.0 414605.0 0
198726.0 411917.0 0
201448.0 413020.0 0
206258.0 413064.0 0
210967.0 412084.0 0
211908.0 415999.0 0
215202.0 413432.0 0
219849.0 413771.0 0
222801.0 411083.0 0
225566.0 411089.0 0
224270.0 414574.0 0
227512.0 412742.0 0
229702.0 414490.0 0
230810.0 411649.0 0
233373.0 414426.0 0
236434.0 412357.0 0
240055.0 412580.0 0
244181.0 412199.0 0
247591.0 411117.0 0
246831.0 414939.0 0
250400.0 414856.0 0
250670.0 411346.0 0
255037.0 413948.0 0
258926.0 411991.0 0
262543.0 413207.0 0
268623.0 413045.0 0
272265.0 414000.0 0
273553.0 410884.0 0
277573.0 410880.0 0
280930.0 414418.0 0
281904.0 411651.0 0
285480.0 412494.0 0
289053.0 414011.0 0
292701.0 414946.0 0
295087.0 412081.0 0
296433.0 414526.0 0
300504.0 414279.0 0
309405.0 412801.0 0
304813.0 414674.0 0
307552.0 415994.0 0
313595.0 411723.0 0
311127.0 415620.0 0
314321.0 415154.0 0
317847.0 414215.0 0
321099.0 413207.0 0
321586.0 416477.0 0
324629.0 414198.0 0
327405.0 412986.0 0
328559.0 416334.0 0
330103.0 412103.0 0
334708.0 412507.0 0
333727.0 415414.0 0
330980.0 414800.0 0
337875.0 412065.0 0
338704.0 415216.0 0
342714.0 413329.0 0
341796.0 416159.0 0
345629.0 412564.0 0
348890.0 412371.0 0
346613.0 415376.0 0
354031.0 412217.0 0
351947.0 414638.0 0
356912.0 412634.0 0
359050.0 414216.0 0
356574.0 415660.0 0
361298.0 416474.0 0
129791.0 421842.0 0
132526.0 420399.0 0
135958.0 418976.0 0
142197.0 418076.0 0
139952.0 419994.0 0
144155.0 420344.0 0
148108.0 418746.0 0
148956.0 421458.0 0
154599.0 417598.0 0
151737.0 420533.0 0
158705.0 417917.0 0
155341.0 421344.0 0
158974.0 420880.0 0
162763.0 420214.0 0
165238.0 416859.0 0
167061.0 418356.0 0
165726.0 421534.0 0
170076.0 419227.0 0
173308.0 418521.0 0
176594.0 418248.0 0
180072.0 417782.0 0
183793.0 416704.0 0
180851.0 421300.0 0
184565.0 419851.0 0
187945.0 418503.0 0
188682.0 421044.0 0
192085.0 417956.0 0
198516.0 416439.0 0
195601.0 419307.0 0
198834.0 420862.0 0
202747.0 417691.0 0
209439.0 416091.0 0
207025.0 418869.0 0
210904.0 420553.0 0
214259.0 417459.0 0
217850.0 417702.0 0
222038.0 416938.0 0
220802.0 419908.0 0
224355.0 419919.0 0
227242.0 416891.0 0
228593.0 420911.0 0
230999.0 417173.0 0
232040.0 419711.0 0
233854.0 417859.0 0
237366.0 416686.0 0
241603.0 415807.0 0
244090.0 415252.0 0
244288.0 418273.0 0
240413.0 420341.0 0
248051.0 419027.0 0
252767.0 419173.0 0
259465.0 416189.0 0
256986.0 418865.0 0
263006.0 418826.0 0
266040.0 415595.0 0
269998.0 417550.0 0
273744.0 418354.0 0
276280.0 415322.0 0
277282.0 419394.0 0
279713.0 417277.0 0
280888.0 420592.0 0
284194.0 416871.0 0
288186.0 417403.0 0
289172.0 421174.0 0
291228.0 417438.0 0
292677.0 420183.0 0
295025.0 417405.0 0
298834.0 418081.0 0
303728.0 417661.0 0
302120.0 419670.0 0
304615.0 421426.0 0
307508.0 419578.0 0
311015.0 417856.0 0
312084.0 421110.0 0
318879.0 417356.0 0
315245.0 418722.0 0
320305.0 420317.0 0
323411.0 421186.0 0
324912.0 417799.0 0
327538.0 420037.0 0
330134.0 419021.0 0
332878.0 418511.0 0
336646.0 417097.0 0
337135.0 420105.0 0
340086.0 418634.0 0
342187.0 421202.0 0
345041.0 418634.0 0
349292.0 416640.0 0
347986.0 420701.0 0
353197.0 417917.0 0
351091.0 420339.0 0
358823.0 418356.0 0
355681.0 419454.0 0
359911.0 421465.0 0
364046.0 418339.0 0
363766.0 421373.0 0
367259.0 419134.0 0
368902.0 421344.0 0
123273.0 424882.0 0
121454.0 427007.0 0
125312.0 424129.0 0
124116.0 427147.0 0
127592.0 423107.0 0
128467.0 426537.0 0
132845.0 424255.0 0
131890.0 426865.0 0
136970.0 422684.0 0
136895.0 425949.0 0
139297.0 427314.0 0
140479.0 422825.0 0
141390.0 425455.0 0
144781.0 423396.0 0
147199.0 424524.0 0
149554.0 426937.0 0
150644.0 423587.0 0
153095.0 422963.0 0
153348.0 425547.0 0
156854.0 423978.0 0
160438.0 423607.0 0
163912.0 424815.0 0
169384.0 422871.0 0
166672.0 426143.0 0
169565.0 426706.0 0
173617.0 421807.0 0
173321.0 425209.0 0
177087.0 421918.0 0
176543.0 425841.0 0
179758.0 425003.0 0
183124.0 424450.0 0
186176.0 422929.0 0
188318.0 425870.0 0
191568.0 422331.0 0
192023.0 426527.0 0
194962.0 422624.0 0
195274.0 426285.0 0
197995.0 424069.0 0
200509.0 424357.0 0
202810.0 422355.0 0
206030.0 421918.0 0
205140.0 424545.0 0
208030.0 423868.0 0
211291.0 425065.0 0
214879.0 421253.0 0
215068.0 425733.0 0
218203.0 422668.0 0
221692.0 424144.0 0
225362.0 424256.0 0
229095.0 424990.0 0
232197.0 423140.0 0
234400.0 426002.0 0
235470.0 420943.0 0
237652.0 423564.0 0
240529.0 424435.0 0
244832.0 423407.0 0
249861.0 423086.0 0
253199.0 423926.0 0
259924.0 421384.0 0
256284.0 422799.0 0
259567.0 425814.0 0
263845.0 424157.0 0
266954.0 420607.0 0
268258.0 424734.0 0
271302.0 422002.0 0
274584.0 424461.0 0
274896.0 421724.0 0
278008.0 423086.0 0
281279.0 424981.0 0
285083.0 422168.0 0
288760.0 425499.0 0
291227.0 423900.0 0
294264.0 424362.0 0
296173.0 421204.0 0
297922.0 425808.0 0
299495.0 422263.0 0
302563.0 423640.0 0
308421.0 423444.0 0
305841.0 424652.0 0
311871.0 424920.0 0
317323.0 421795.0 0
315106.0 423898.0 0
319161.0 424113.0 0
321755.0 424274.0 0
324160.0 426170.0 0
327169.0 423816.0 0
334205.0 421603.0 0
331094.0 422853.0 0
332713.0 426351.0 0
339390.0 423530.0 0
335931.0 425260.0 0
344362.0 423133.0 0
345133.0 425454.0 0
348271.0 424190.0 0
352736.0 422948.0 0
351464.0 425346.0 0
356071.0 422660.0 0
360468.0 424262.0 0
356486.0 425639.0 0
360018.0 427190.0 0
364715.0 424157.0 0
367996.0 424746.0 0
371646.0 422937.0 0
374364.0 423182.0 0
372011.0 425760.0 0
375637.0 426994.0 0
376024.0 424800.0 0
378913.0 427042.0 0
116397.0 429460.0 0
114292.0 431915.0 0
119508.0 429036.0 0
121078.0 431440.0 0
123965.0 429966.0 0
124191.0 432176.0 0
126238.0 427989.0 0
127108.0 431004.0 0
129122.0 430117.0 0
132157.0 430256.0 0
135579.0 428038.0 0
136065.0 431455.0 0
143726.0 427297.0 0
140231.0 430058.0 0
143038.0 431695.0 0
146242.0 429185.0 0
151650.0 429216.0 0
155874.0 427633.0 0
159535.0 427389.0 0
155561.0 431272.0 0
159436.0 430907.0 0
162843.0 428212.0 0
162106.0 431584.0 0
165865.0 429543.0 0
169133.0 429865.0 0
172626.0 428279.0 0
171997.0 430796.0 0
178773.0 428119.0 0
175272.0 429834.0 0
178344.0 431265.0 0
181472.0 427775.0 0
184515.0 427116.0 0
182553.0 431415.0 0
186118.0 429280.0 0
189025.0 429714.0 0
192065.0 429933.0 0
195414.0 430270.0 0
198955.0 427739.0 0
198655.0 431705.0 0
202864.0 426748.0 0
202475.0 431123.0 0
207183.0 428131.0 0
211602.0 429018.0 0
215169.0 430205.0 0
218744.0 427201.0 0
219070.0 431277.0 0
222434.0 428306.0 0
226830.0 429418.0 0
231155.0 427024.0 0
231627.0 430071.0 0
235328.0 430482.0 0
238281.0 427315.0 0
242348.0 427952.0 0
248317.0 426604.0 0
245954.0 429638.0 0
249512.0 430318.0 0
251654.0 427151.0 0
255504.0 427002.0 0
262938.0 428222.0 0
266182.0 428301.0 0
269647.0 427978.0 0
272282.0 425694.0 0
273456.0 429843.0 0
277083.0 426942.0 0
281044.0 429403.0 0
285143.0 427093.0 0
288530.0 430278.0 0
292055.0 427973.0 0
294964.0 430943.0 0
295325.0 428025.0 0
297776.0 429809.0 0
301604.0 426825.0 0
301378.0 429810.0 0
305153.0 427881.0 0
308988.0 427212.0 0
308030.0 430339.0 0
313305.0 428478.0 0
317201.0 427310.0 0
317878.0 430941.0 0
321341.0 427925.0 0
320756.0 431166.0 0
324181.0 430948.0 0
325432.0 428388.0 0
328912.0 427862.0 0
327839.0 431123.0 0
332439.0 430302.0 0
336780.0 428232.0 0
335384.0 430285.0 0
339089.0 428853.0 0
341452.0 426482.0 0
343146.0 430072.0 0
346163.0 428410.0 0
349559.0 428279.0 0
347199.0 431685.0 0
354166.0 427814.0 0
352061.0 431204.0 0
356505.0 430065.0 0
360152.0 430902.0 0
364053.0 427360.0 0
364469.0 431166.0 0
367812.0 427569.0 0
367544.0 430256.0 0
370770.0 428040.0 0
371505.0 431247.0 0
374616.0 429522.0 0
375776.0 431942.0 0
377422.0 430116.0 0
379908.0 431953.0 0
381118.0 429317.0 0
384405.0 430706.0 0
106525.0 435990.0 0
111053.0 432969.0 0
108828.0 434645.0 0
110482.0 436875.0 0
113434.0 435352.0 0
117229.0 432921.0 0
118150.0 437161.0 0
119693.0 434417.0 0
123181.0 435079.0 0
127378.0 433944.0 0
127524.0 436860.0 0
130674.0 433462.0 0
130756.0 436423.0 0
134136.0 434471.0 0
139234.0 433502.0 0
137634.0 436227.0 0
141537.0 434302.0 0
140650.0 437062.0 0
147857.0 432267.0 0
144990.0 434508.0 0
148867.0 435719.0 0
151808.0 432823.0 0
153717.0 435999.0 0
157648.0 433688.0 0
161905.0 435066.0 0
165617.0 433294.0 0
169293.0 433570.0 0
173309.0 433538.0 0
176483.0 434297.0 0
180261.0 435578.0 0
184206.0 435883.0 0
186568.0 432642.0 0
187543.0 436176.0 0
190407.0 433393.0 0
193736.0 433603.0 0
196693.0 433710.0 0
199671.0 435348.0 0
203002.0 435477.0 0
206188.0 433137.0 0
209609.0 431959.0 0
209487.0 434813.0 0
212136.0 433032.0 0
215486.0 434878.0 0
219872.0 435502.0 0
222685.0 432803.0 0
225934.0 434927.0 0
229490.0 433268.0 0
233091.0 434077.0 0
236817.0 434591.0 0
239376.0 431722.0 0
240305.0 435708.0 0
243258.0 433071.0 0
247207.0 434312.0 0
253672.0 431481.0 0
250218.0 433430.0 0
259231.0 431603.0 0
255327.0 435527.0 0
262858.0 435704.0 0
264580.0 431537.0 0
266509.0 434882.0 0
269028.0 431972.0 0
273213.0 434722.0 0
277494.0 432302.0 0
281282.0 434076.0 0
284675.0 432014.0 0
284773.0 435784.0 0
288525.0 435189.0 0
292252.0 432940.0 0
296425.0 435103.0 0
304559.0 432409.0 0
299778.0 433002.0 0
307966.0 433639.0 0
309941.0 435983.0 0
311265.0 432025.0 0
314007.0 436280.0 0
315242.0 432191.0 0
318241.0 434648.0 0
321854.0 434484.0 0
329989.0 432487.0 0
326106.0 434522.0 0
329826.0 436118.0 0
333411.0 434627.0 0
336131.0 436672.0 0
337129.0 433576.0 0
340100.0 432054.0 0
344507.0 433583.0 0
341726.0 435357.0 0
349786.0 433928.0 0
346677.0 436457.0 0
355151.0 433073.0 0
354147.0 435598.0 0
351570.0 436769.0 0
359186.0 435036.0 0
363268.0 434688.0 0
368744.0 432859.0 0
367019.0 435057.0 0
370175.0 436806.0 0
373001.0 434708.0 0
377892.0 433463.0 0
376203.0 436308.0 0
380035.0 436089.0 0
381756.0 434348.0 0
385405.0 433769.0 0
388478.0 433200.0 0
390910.0 434525.0 0
387335.0 437125.0 0
393013.0 436931.0 0
97113.2 441791.0 0
101659.0 438494.0 0
99844.5 440661.0 0
104657.0 438052.0 0
105111.0 441254.0 0
109217.0 439217.0 0
109032.0 441799.0 0
112551.0 440475.0 0
115004.0 437856.0 0
114675.0 442518.0 0
116487.0 440827.0 0
118835.0 442176.0 0
120099.0 439199.0 0
123838.0 438648.0 0
129025.0 439195.0 0
126517.0 440938.0 0
134027.0 437925.0 0
131545.0 441199.0 0
138056.0 438955.0 0
136422.0 440231.0 0
138053.0 442285.0 0
144185.0 437791.0 0
139929.0 439789.0 0
143032.0 441118.0 0
147362.0 438734.0 0
146926.0 441728.0 0
150944.0 438839.0 0
154005.0 439266.0 0
157857.0 437703.0 0
155696.0 440314.0 0
159580.0 441504.0 0
161911.0 439111.0 0
162878.0 441799.0 0
165450.0 437746.0 0
169080.0 437092.0 0
166185.0 441600.0 0
173045.0 437832.0 0
169752.0 440673.0 0
176207.0 437176.0 0
175194.0 440296.0 0
178366.0 439686.0 0
182582.0 439733.0 0
186591.0 439448.0 0
191287.0 438070.0 0
195412.0 436937.0 0
194612.0 441144.0 0
198416.0 439469.0 0
202398.0 438451.0 0
204461.0 441416.0 0
206646.0 437334.0 0
209158.0 441352.0 0
211379.0 436853.0 0
213823.0 440444.0 0
217111.0 438310.0 0
219935.0 439155.0 0
217407.0 441350.0 0
222606.0 437015.0 0
222315.0 440661.0 0
225541.0 439405.0 0
229878.0 437984.0 0
234388.0 438113.0 0
237821.0 437647.0 0
240785.0 439792.0 0
243769.0 437210.0 0
247480.0 439028.0 0
251612.0 436584.0 0
254640.0 439162.0 0
258690.0 437958.0 0
262345.0 439685.0 0
265800.0 438789.0 0
269770.0 436932.0 0
273499.0 439438.0 0
277577.0 437324.0 0
280001.0 441571.0 0
282220.0 438210.0 0
287047.0 439776.0 0
290678.0 440980.0 0
292116.0 437553.0 0
296030.0 438935.0 0
299867.0 439331.0 0
301755.0 436364.0 0
303161.0 441596.0 0
303527.0 439169.0 0
306442.0 437268.0 0
306761.0 441532.0 0
311139.0 440215.0 0
315541.0 441063.0 0
317508.0 438373.0 0
319879.0 441016.0 0
323683.0 438087.0 0
320450.0 437615.0 0
323063.0 441778.0 0
327261.0 438205.0 0
326790.0 441100.0 0
331115.0 440093.0 0
333825.0 438020.0 0
334389.0 441811.0 0
339174.0 436990.0 0
336594.0 439377.0 0
343587.0 437896.0 0
341514.0 439786.0 0
343708.0 442000.0 0
346402.0 440538.0 0
349895.0 439490.0 0
353873.0 438912.0 0
352654.0 441251.0 0
356423.0 437954.0 0
355655.0 441654.0 0
358828.0 441053.0 0
361100.0 438697.0 0
364823.0 438160.0 0
362909.0 441113.0 0
366299.0 442080.0 0
368435.0 439696.0 0
374757.0 439548.0 0
371370.0 442084.0 0
372437.0 439469.0 0
375026.0 441365.0 0
377938.0 439521.0 0
380134.0 442234.0 0
381249.0 439127.0 0
383592.0 437321.0 0
383698.0 441786.0 0
386321.0 440171.0 0
389822.0 438157.0 0
388558.0 442256.0 0
395564.0 438684.0 0
391329.0 440898.0 0
395703.0 441976.0 0
398949.0 439516.0 0
401160.0 441794.0 0
89481.8 447820.0 0
92511.9 445733.0 0
95012.4 443711.0 0
98202.9 445372.0 0
94548.7 447868.0 0
101582.0 443186.0 0
102676.0 446232.0 0
106682.0 444601.0 0
111086.0 444484.0 0
114969.0 445253.0 0
118040.0 445236.0 0
122482.0 442735.0 0
121526.0 446207.0 0
125462.0 443760.0 0
128265.0 443250.0 0
124826.0 446329.0 0
128667.0 447083.0 0
131660.0 444953.0 0
133474.0 447287.0 0
134880.0 442498.0 0
134876.0 444935.0 0
137724.0 445929.0 0
140494.0 442740.0 0
141010.0 445295.0 0
144427.0 444322.0 0
147218.0 445361.0 0
149981.0 443029.0 0
153489.0 442199.0 0
151430.0 446805.0 0
157066.0 442317.0 0
155755.0 445634.0 0
160536.0 445581.0 0
164462.0 445060.0 0
168894.0 445027.0 0
172129.0 446832.0 0
172746.0 442654.0 0
176070.0 442397.0 0
175537.0 445197.0 0
178821.0 443165.0 0
183307.0 444301.0 0
187734.0 442302.0 0
188291.0 446269.0 0
190746.0 441977.0 0
192722.0 444766.0 0
197366.0 444474.0 0
201080.0 442017.0 0
201843.0 445780.0 0
205599.0 444831.0 0
208815.0 445898.0 0
211833.0 444572.0 0
215168.0 444874.0 0
219762.0 444252.0 0
224704.0 443851.0 0
228133.0 442408.0 0
229771.0 445441.0 0
232031.0 442245.0 0
236511.0 442169.0 0
237867.0 446091.0 0
244232.0 441997.0 0
240802.0 444117.0 0
247893.0 445024.0 0
251272.0 441494.0 0
254565.0 443054.0 0
252613.0 446244.0 0
257034.0 441778.0 0
260219.0 442978.0 0
264249.0 442853.0 0
269409.0 441983.0 0
266756.0 446018.0 0
273528.0 443433.0 0
276837.0 442289.0 0
280721.0 445908.0 0
283592.0 442217.0 0
285744.0 445829.0 0
288666.0 443461.0 0
291224.0 443872.0 0
294069.0 441995.0 0
293759.0 446324.0 0
297958.0 441751.0 0
296983.0 445040.0 0
300987.0 444845.0 0
305933.0 446587.0 0
309869.0 443990.0 0
314196.0 444759.0 0
318803.0 444575.0 0
322551.0 444951.0 0
325531.0 444031.0 0
326794.0 446924.0 0
329539.0 443714.0 0
333323.0 445004.0 0
339079.0 441799.0 0
337115.0 444209.0 0
336233.0 446808.0 0
339770.0 446457.0 0
341417.0 443989.0 0
344315.0 445049.0 0
348949.0 442832.0 0
346232.0 443228.0 0
347092.0 444732.0 0
348962.0 445241.0 0
351798.0 443925.0 0
355564.0 445362.0 0
359274.0 444818.0 0
361656.0 442779.0 0
364152.0 444162.0 0
362442.0 446631.0 0
366354.0 446973.0 0
369522.0 445047.0 0
374202.0 443273.0 0
374183.0 447040.0 0
377509.0 442573.0 0
380935.0 445556.0 0
377915.0 445986.0 0
381604.0 443338.0 0
384818.0 444367.0 0
383656.0 446520.0 0
386888.0 444472.0 0
390868.0 445133.0 0
388659.0 447010.0 0
393266.0 443480.0 0
395787.0 445965.0 0
398241.0 443860.0 0
400400.0 446410.0 0
403943.0 443813.0 0
403160.0 447273.0 0
406972.0 445491.0 0
410182.0 446706.0 0
82900.0 450588.0 0
86227.5 449448.0 0
86595.6 452666.0 0
91554.2 450943.0 0
98076.9 448136.0 0
95226.0 450947.0 0
100045.0 449914.0 0
103352.0 449008.0 0
100203.0 452813.0 0
107040.0 448133.0 0
103888.0 452367.0 0
107194.0 450962.0 0
110811.0 448024.0 0
111264.0 450844.0 0
114449.0 447801.0 0
117812.0 447876.0 0
115422.0 450056.0 0
118203.0 451133.0 0
121206.0 449521.0 0
124965.0 449109.0 0
125734.0 451963.0 0
128827.0 451369.0 0
131911.0 449609.0 0
132913.0 452564.0 0
136238.0 449532.0 0
140497.0 448644.0 0
143703.0 447936.0 0
140143.0 452119.0 0
143965.0 451515.0 0
147273.0 448641.0 0
147546.0 452291.0 0
150058.0 450450.0 0
153478.0 450307.0 0
156764.0 449489.0 0
159786.0 449332.0 0
161997.0 451933.0 0
162863.0 448748.0 0
165774.0 448010.0 0
165438.0 451245.0 0
168995.0 449344.0 0
171784.0 450642.0 0
178869.0 447093.0 0
174897.0 448995.0 0
178198.0 452024.0 0
181774.0 448898.0 0
184745.0 448597.0 0
186995.0 451757.0 0
191169.0 449367.0 0
194790.0 448048.0 0
198206.0 449727.0 0
201912.0 449354.0 0
205986.0 449518.0 0
211668.0 449020.0 0
216669.0 449762.0 0
222175.0 448444.0 0
226762.0 447384.0 0
230272.0 450032.0 0
233668.0 446985.0 0
237094.0 449998.0 0
240200.0 447752.0 0
243619.0 446969.0 0
241292.0 451671.0 0
246196.0 451129.0 0
250152.0 449417.0 0
254073.0 450925.0 0
257046.0 446652.0 0
258372.0 451339.0 0
262281.0 448116.0 0
266614.0 449609.0 0
271255.0 447781.0 0
276173.0 446608.0 0
275039.0 450796.0 0
278811.0 450976.0 0
283633.0 450995.0 0
287519.0 450009.0 0
290162.0 447301.0 0
294369.0 450510.0 0
290609.0 451527.0 0
297253.0 448238.0 0
299820.0 448327.0 0
298692.0 451604.0 0
302342.0 449770.0 0
309007.0 449975.0 0
311137.0 447326.0 0
312344.0 450600.0 0
314328.0 448629.0 0
315804.0 451602.0 0
317866.0 448557.0 0
322598.0 448888.0 0
326354.0 450700.0 0
329921.0 449894.0 0
330568.0 446998.0 0
333803.0 449382.0 0
337906.0 449589.0 0
340998.0 452227.0 0
343149.0 448867.0 0
347636.0 448581.0 0
351614.0 447591.0 0
352532.0 451113.0 0
359238.0 448185.0 0
356221.0 449768.0 0
359556.0 451859.0 0
362351.0 450040.0 0
366431.0 450580.0 0
370742.0 449396.0 0
373013.0 452512.0 0
375970.0 451036.0 0
379033.0 449806.0 0
381650.0 448785.0 0
384010.0 451473.0 0
386371.0 448996.0 0
389406.0 452008.0 0
391689.0 449918.0 0
393443.0 447883.0 0
394492.0 452526.0 0
397636.0 448113.0 0
400595.0 449658.0 0
396137.0 450244.0 0
399292.0 452011.0 0
403618.0 449964.0 0
406028.0 448557.0 0
407679.0 450064.0 0
410090.0 449702.0 0
407328.0 452309.0 0
413533.0 449259.0 0
416451.0 450377.0 0
418937.0 451614.0 0
421282.0 452628.0 0
76202.9 453981.0 0
73966.9 457340.0 0
77734.8 456298.0 0
80164.7 453408.0 0
83560.3 453745.0 0
81434.2 457045.0 0
84118.6 456476.0 0
86753.7 456376.0 0
89928.2 454105.0 0
88698.1 457813.0 0
92729.6 456228.0 0
94103.6 453589.0 0
97219.5 453198.0 0
96585.6 456952.0 0
100353.0 456137.0 0
102971.0 455402.0 0
106298.0 454718.0 0
104635.0 457528.0 0
107627.0 457132.0 0
108896.0 453259.0 0
113658.0 453239.0 0
110900.0 456328.0 0
116506.0 454966.0 0
122659.0 453073.0 0
119811.0 454435.0 0
123875.0 456351.0 0
126593.0 454954.0 0
129831.0 454944.0 0
134036.0 456382.0 0
136181.0 452941.0 0
137740.0 455821.0 0
141606.0 455636.0 0
145047.0 454847.0 0
148807.0 455486.0 0
150897.0 452748.0 0
152177.0 455244.0 0
154607.0 453161.0 0
158178.0 452722.0 0
156105.0 456522.0 0
160244.0 455809.0 0
164015.0 454853.0 0
168405.0 454299.0 0
173639.0 453625.0 0
176560.0 456595.0 0
182653.0 452033.0 0
180616.0 455777.0 0
184167.0 455526.0 0
190700.0 453741.0 0
194428.0 452325.0 0
197509.0 455570.0 0
201462.0 452912.0 0
201768.0 456734.0 0
205028.0 454753.0 0
208955.0 452963.0 0
212895.0 454487.0 0
216972.0 454770.0 0
220412.0 452937.0 0
222817.0 455957.0 0
225862.0 452339.0 0
230287.0 455137.0 0
233749.0 452442.0 0
237231.0 454362.0 0
243674.0 455369.0 0
240264.0 455439.0 0
247277.0 455589.0 0
250545.0 453751.0 0
253975.0 456329.0 0
256224.0 453678.0 0
258898.0 456351.0 0
261715.0 453254.0 0
265145.0 453038.0 0
268819.0 451884.0 0
272497.0 453367.0 0
276499.0 455259.0 0
280945.0 455623.0 0
285072.0 456326.0 0
287412.0 453439.0 0
290063.0 454714.0 0
293344.0 454490.0 0
296332.0 453975.0 0
299450.0 455943.0 0
302036.0 453175.0 0
305604.0 452414.0 0
309358.0 453119.0 0
308810.0 456828.0 0
312824.0 454023.0 0
317196.0 455923.0 0
320335.0 452706.0 0
325026.0 454663.0 0
329542.0 453256.0 0
333536.0 453440.0 0
337108.0 453039.0 0
338058.0 456879.0 0
339913.0 454396.0 0
342233.0 456395.0 0
345311.0 453781.0 0
349273.0 452241.0 0
349093.0 456644.0 0
352648.0 454801.0 0
355668.0 457447.0 0
356250.0 454112.0 0
360305.0 456155.0 0
362785.0 453061.0 0
365636.0 455516.0 0
369560.0 453700.0 0
374003.0 455720.0 0
377707.0 454710.0 0
379156.0 457663.0 0
380569.0 457377.0 0
381125.0 453662.0 0
384229.0 457344.0 0
386914.0 454363.0 0
389673.0 457778.0 0
392292.0 455048.0 0
395189.0 457341.0 0
397118.0 454108.0 0
399003.0 457294.0 0
401538.0 454348.0 0
404293.0 452980.0 0
406102.0 456272.0 0
409379.0 454513.0 0
412151.0 452714.0 0
415992.0 452997.0 0
414272.0 455492.0 0
418399.0 454044.0 0
417304.0 456603.0 0
421124.0 455657.0 0
423602.0 454601.0 0
425888.0 456454.0 0
63949.3 462380.0 0
67173.8 461092.0 0
70378.9 459156.0 0
71319.6 461772.0 0
74511.5 460395.0 0
78473.1 459882.0 0
81604.0 460120.0 0
84907.9 459761.0 0
83948.7 463210.0 0
88177.2 461822.0 0
91541.2 459698.0 0
95029.4 460978.0 0
98501.1 462712.0 0
99237.0 459651.0 0
101886.0 459048.0 0
103011.0 462455.0 0
106761.0 460713.0 0
110581.0 459986.0 0
113916.0 460079.0 0
114214.0 457646.0 0
117483.0 458337.0 0
116778.0 461848.0 0
120741.0 457418.0 0
123396.0 458834.0 0
120875.0 460399.0 0
126481.0 458252.0 0
124767.0 461619.0 0
130166.0 459465.0 0
132649.0 462327.0 0
135098.0 460045.0 0
138989.0 459134.0 0
142227.0 461427.0 0
142484.0 458449.0 0
145527.0 458353.0 0
146322.0 462091.0 0
152540.0 457479.0 0
149607.0 458976.0 0
154161.0 460857.0 0
158596.0 459632.0 0
163464.0 459073.0 0
167809.0 459095.0 0
172209.0 457784.0 0
175448.0 461485.0 0
179413.0 458957.0 0
183138.0 459271.0 0
186345.0 460625.0 0
187778.0 457000.0 0
192660.0 456906.0 0
190227.0 460680.0 0
195165.0 460844.0 0
199961.0 459939.0 0
204296.0 459283.0 0
208374.0 457345.0 0
211264.0 459176.0 0
215196.0 459211.0 0
218527.0 461217.0 0
219192.0 457412.0 0
222256.0 460056.0 0
226555.0 457974.0 0
230058.0 460457.0 0
234136.0 457951.0 0
237996.0 457851.0 0
241302.0 458793.0 0
245750.0 459904.0 0
250157.0 458575.0 0
256505.0 459163.0 0
259484.0 461272.0 0
263513.0 457699.0 0
268638.0 456585.0 0
267605.0 461019.0 0
271705.0 460156.0 0
273484.0 457467.0 0
278212.0 459113.0 0
275236.0 459917.0 0
282601.0 460565.0 0
287873.0 460896.0 0
288337.0 456827.0 0
292335.0 460702.0 0
291407.0 457646.0 0
295898.0 458118.0 0
300186.0 460329.0 0
304050.0 457425.0 0
307368.0 460784.0 0
312897.0 457606.0 0
311115.0 461079.0 0
315637.0 460446.0 0
319360.0 459742.0 0
322016.0 457388.0 0
322950.0 461228.0 0
326049.0 459618.0 0
329865.0 457646.0 0
329839.0 461968.0 0
334262.0 457341.0 0
333803.0 460925.0 0
337659.0 460670.0 0
341879.0 460360.0 0
345689.0 459026.0 0
350063.0 461351.0 0
353106.0 458445.0 0
354820.0 461436.0 0
357635.0 459689.0 0
361069.0 461292.0 0
363974.0 459475.0 0
365405.0 462468.0 0
370526.0 457794.0 0
366921.0 459344.0 0
369024.0 461895.0 0
373462.0 460024.0 0
372363.0 462579.0 0
376007.0 458540.0 0
378797.0 461189.0 0
382053.0 460198.0 0
386600.0 460930.0 0
390567.0 462165.0 0
393657.0 459960.0 0
395961.0 461401.0 0
397779.0 460403.0 0
401417.0 460703.0 0
399671.0 462875.0 0
403416.0 458075.0 0
405504.0 460851.0 0
403620.0 462587.0 0
408187.0 458804.0 0
411341.0 458008.0 0
408290.0 462746.0 0
411529.0 461742.0 0
414933.0 458887.0 0
414280.0 461131.0 0
418182.0 459906.0 0
420571.0 458330.0 0
421269.0 461934.0 0
422869.0 460222.0 0
424108.0 458305.0 0
425737.0 462677.0 0
427112.0 460473.0 0
428581.0 458197.0 0
431497.0 459688.0 0
429919.0 461861.0 0
433903.0 461628.0 0
55051.1 467971.0 0
61162.5 465208.0 0
58096.3 466777.0 0
62357.4 468044.0 0
64533.5 465056.0 0
64745.9 467377.0 0
67995.0 464426.0 0
72220.5 464172.0 0
68162.4 467875.0 0
71830.7 466763.0 0
76033.4 463217.0 0
77995.2 466788.0 0
81262.6 463408.0 0
82823.0 466525.0 0
85459.8 465249.0 0
92534.5 463438.0 0
90044.1 465760.0 0
95354.9 465362.0 0
97725.5 467427.0 0
100313.0 465679.0 0
108439.0 464040.0 0
104887.0 465612.0 0
112270.0 463203.0 0
111635.0 467256.0 0
115603.0 465910.0 0
120865.0 465152.0 0
128532.0 463886.0 0
125190.0 466046.0 0
132654.0 465497.0 0
134952.0 463289.0 0
138187.0 463157.0 0
136052.0 466036.0 0
141156.0 464961.0 0
144130.0 464893.0 0
148361.0 465822.0 0
150154.0 462575.0 0
153020.0 465380.0 0
156998.0 463361.0 0
157603.0 466696.0 0
160187.0 462797.0 0
160939.0 465578.0 0
165107.0 464377.0 0
169106.0 467234.0 0
170180.0 462706.0 0
173026.0 466794.0 0
177007.0 465786.0 0
180065.0 462568.0 0
180655.0 467055.0 0
183585.0 463163.0 0
184646.0 466536.0 0
187262.0 464037.0 0
191690.0 465432.0 0
195965.0 465054.0 0
198464.0 463478.0 0
198495.0 466785.0 0
202649.0 464133.0 0
207865.0 462583.0 0
210872.0 466951.0 0
212216.0 462692.0 0
215775.0 465181.0 0
221070.0 464425.0 0
225795.0 462615.0 0
229509.0 465449.0 0
233307.0 462350.0 0
234208.0 466090.0 0
237583.0 462278.0 0
242003.0 462502.0 0
241134.0 465632.0 0
245473.0 465125.0 0
249101.0 462858.0 0
253785.0 462448.0 0
257675.0 465371.0 0
263807.0 461984.0 0
261733.0 465924.0 0
267075.0 465841.0 0
270899.0 463601.0 0
274078.0 462282.0 0
273996.0 465556.0 0
277910.0 463959.0 0
282087.0 465288.0 0
285203.0 464222.0 0
288014.0 465779.0 0
291443.0 464169.0 0
296153.0 463104.0 0
300697.0 464818.0 0
304362.0 462452.0 0
304679.0 466968.0 0
308672.0 464835.0 0
314547.0 465162.0 0
319076.0 463113.0 0
322965.0 464856.0 0
326637.0 464086.0 0
330344.0 465585.0 0
333657.0 464798.0 0
336996.0 463601.0 0
340812.0 463972.0 0
345730.0 463872.0 0
350702.0 466038.0 0
353864.0 464033.0 0
355703.0 466963.0 0
358152.0 464075.0 0
362696.0 465165.0 0
367710.0 466534.0 0
375530.0 463040.0 0
371619.0 465321.0 0
374970.0 466150.0 0
378570.0 465196.0 0
384117.0 463086.0 0
381427.0 464449.0 0
382167.0 467521.0 0
385308.0 466549.0 0
387680.0 464613.0 0
389705.0 467180.0 0
394250.0 463467.0 0
392191.0 465458.0 0
397207.0 464886.0 0
402114.0 465590.0 0
405796.0 465792.0 0
409785.0 466196.0 0
413089.0 464900.0 0
416599.0 463366.0 0
419808.0 463879.0 0
417458.0 467114.0 0
421230.0 466962.0 0
423790.0 464723.0 0
426282.0 467245.0 0
429256.0 465262.0 0
432331.0 464047.0 0
436676.0 463335.0 0
434629.0 465670.0 0
433337.0 467089.0 0
436495.0 467723.0 0
439198.0 465607.0 0
442744.0 466646.0 0
52286.0 469859.0 0
49616.7 472168.0 0
55260.1 471643.0 0
61697.7 470786.0 0
58690.0 470065.0 0
65095.0 469704.0 0
66074.2 472033.0 0
69548.0 470920.0 0
73957.2 469677.0 0
77143.8 472742.0 0
80347.0 471023.0 0
83764.1 469571.0 0
87094.4 468501.0 0
85623.6 472890.0 0
92930.4 468104.0 0
89518.2 470618.0 0
91878.3 471392.0 0
99076.7 470094.0 0
95667.2 470573.0 0
102313.0 468182.0 0
101143.0 472454.0 0
107764.0 468140.0 0
104684.0 470036.0 0
108743.0 472363.0 0
112547.0 470562.0 0
115307.0 469430.0 0
116145.0 472647.0 0
118662.0 469126.0 0
122681.0 469157.0 0
120462.0 472763.0 0
125764.0 468591.0 0
125410.0 472706.0 0
129409.0 468637.0 0
130130.0 472665.0 0
134058.0 469418.0 0
137216.0 472294.0 0
139192.0 468313.0 0
141681.0 472233.0 0
144553.0 468532.0 0
149878.0 469701.0 0
153360.0 472246.0 0
154327.0 469074.0 0
157686.0 471420.0 0
161416.0 468730.0 0
161848.0 472230.0 0
165977.0 469978.0 0
171046.0 471294.0 0
175998.0 470374.0 0
179725.0 471155.0 0
183863.0 470623.0 0
187632.0 468661.0 0
191266.0 470846.0 0
195072.0 468470.0 0
197876.0 470087.0 0
201632.0 469127.0 0
206399.0 467730.0 0
209206.0 471298.0 0
214191.0 470988.0 0
219329.0 468801.0 0
224409.0 467208.0 0
222938.0 471925.0 0
227348.0 469815.0 0
231659.0 470364.0 0
235741.0 469457.0 0
238094.0 466990.0 0
242552.0 467917.0 0
240246.0 471540.0 0
245500.0 469910.0 0
250293.0 467429.0 0
254704.0 467494.0 0
253831.0 471548.0 0
258619.0 470173.0 0
264544.0 471089.0 0
269174.0 469826.0 0
271443.0 467636.0 0
272088.0 470837.0 0
275726.0 469301.0 0
280035.0 468847.0 0
284617.0 468728.0 0
288719.0 470439.0 0
290924.0 467606.0 0
292453.0 471148.0 0
294224.0 467407.0 0
297589.0 467453.0 0
296291.0 471152.0 0
300707.0 470219.0 0
304767.0 470969.0 0
308356.0 469770.0 0
311800.0 468439.0 0
315705.0 470808.0 0
319857.0 467615.0 0
319917.0 471898.0 0
323249.0 470693.0 0
324833.0 467939.0 0
326695.0 471248.0 0
328623.0 468310.0 0
333221.0 469295.0 0
337938.0 467654.0 0
337372.0 471810.0 0
343238.0 467981.0 0
340942.0 471217.0 0
347876.0 469347.0 0
353207.0 468722.0 0
351967.0 470834.0 0
355853.0 470812.0 0
360003.0 468903.0 0
364429.0 469252.0 0
369354.0 471985.0 0
371938.0 468460.0 0
374995.0 469271.0 0
373464.0 471263.0 0
378168.0 467924.0 0
376541.0 471365.0 0
380025.0 471116.0 0
384188.0 471206.0 0
387501.0 469817.0 0
394838.0 467957.0 0
392051.0 470189.0 0
395836.0 470816.0 0
399398.0 468634.0 0
398084.0 471600.0 0
403288.0 469694.0 0
406613.0 468924.0 0
406343.0 471812.0 0
409412.0 469412.0 0
408782.0 472460.0 0
414049.0 468895.0 0
412040.0 472355.0 0
416832.0 471548.0 0
419596.0 470235.0 0
424131.0 469314.0 0
422514.0 471404.0 0
426687.0 471751.0 0
428204.0 469856.0 0
431045.0 468734.0 0
431800.0 472506.0 0
435320.0 470391.0 0
440200.0 468754.0 0
439667.0 471949.0 0
444996.0 468606.0 0
443457.0 471075.0 0
447062.0 473002.0 0
447857.0 470090.0 0
450487.0 471501.0 0
453640.0 473482.0 0
40193.9 477916.0 0
43311.0 475701.0 0
46482.8 473784.0 0
45079.8 477994.0 0
48154.5 476848.0 0
51815.2 474507.0 0
51494.4 478137.0 0
55024.1 475700.0 0
58497.1 474638.0 0
62947.2 473616.0 0
61596.8 476899.0 0
67043.6 474159.0 0
65081.1 475551.0 0
67683.5 476781.0 0
70186.5 474451.0 0
71673.4 477669.0 0
73602.2 473511.0 0
77241.2 474897.0 0
74671.8 476185.0 0
82184.7 474283.0 0
79417.2 476223.0 0
83725.0 477319.0 0
86464.2 476137.0 0
88906.9 473365.0 0
93116.4 473790.0 0
90161.2 476441.0 0
97220.1 474134.0 0
94242.4 477315.0 0
100516.0 475783.0 0
103232.0 476264.0 0
104359.0 473319.0 0
106603.0 476440.0 0
112795.0 474087.0 0
110124.0 476619.0 0
115074.0 475763.0 0
117764.0 476580.0 0
122485.0 477485.0 0
127495.0 476414.0 0
133745.0 473262.0 0
131474.0 476484.0 0
135601.0 476410.0 0
139227.0 475312.0 0
142921.0 476096.0 0
146231.0 472885.0 0
146689.0 476772.0 0
150281.0 474391.0 0
154861.0 475834.0 0
159726.0 475257.0 0
168356.0 473403.0 0
165069.0 474953.0 0
169940.0 476284.0 0
173918.0 474494.0 0
177724.0 474337.0 0
181020.0 473876.0 0
184290.0 474454.0 0
187612.0 472871.0 0
186630.0 477028.0 0
190703.0 475294.0 0
194845.0 472362.0 0
194611.0 475601.0 0
199486.0 474187.0 0
204782.0 472062.0 0
203789.0 476307.0 0
207450.0 474811.0 0
210887.0 475390.0 0
215016.0 476181.0 0
218368.0 472479.0 0
219383.0 476044.0 0
224059.0 476681.0 0
227712.0 473716.0 0
232061.0 475865.0 0
235423.0 472528.0 0
237128.0 476540.0 0
244701.0 474820.0 0
241203.0 476602.0 0
249341.0 472911.0 0
252937.0 476426.0 0
257253.0 475096.0 0
261235.0 474483.0 0
269357.0 473604.0 0
274062.0 474182.0 0
278806.0 473248.0 0
282614.0 472281.0 0
282862.0 476956.0 0
286340.0 473850.0 0
290417.0 474401.0 0
293869.0 474087.0 0
298176.0 475849.0 0
303122.0 474534.0 0
307154.0 473994.0 0
309875.0 473359.0 0
312008.0 472268.0 0
310979.0 476419.0 0
314234.0 474860.0 0
318291.0 475824.0 0
322085.0 473670.0 0
324804.0 473364.0 0
330403.0 472502.0 0
327744.0 474882.0 0
331652.0 476853.0 0
334590.0 473742.0 0
335940.0 477253.0 0
340528.0 475947.0 0
344935.0 473074.0 0
349507.0 474434.0 0
353294.0 473765.0 0
354208.0 477604.0 0
359965.0 472973.0 0
356342.0 473886.0 0
358559.0 476804.0 0
364200.0 473185.0 0
362342.0 477253.0 0
368248.0 475914.0 0
365913.0 476770.0 0
374568.0 473971.0 0
372335.0 477334.0 0
378431.0 474708.0 0
381873.0 474334.0 0
385508.0 474665.0 0
389857.0 474332.0 0
394432.0 473086.0 0
393794.0 476332.0 0
397468.0 475132.0 0
402118.0 474072.0 0
410667.0 475364.0 0
406691.0 476076.0 0
414742.0 474011.0 0
413988.0 476996.0 0
418025.0 474410.0 0
420451.0 473465.0 0
417739.0 477831.0 0
421327.0 478043.0 0
422423.0 475202.0 0
424637.0 473637.0 0
424854.0 477770.0 0
426599.0 475811.0 0
428988.0 473767.0 0
429898.0 477618.0 0
436545.0 474463.0 0
433270.0 476247.0 0
441580.0 475227.0 0
438284.0 477410.0 0
444546.0 474278.0 0
445641.0 477404.0 0
448467.0 476265.0 0
451030.0 474420.0 0
456004.0 475278.0 0
453311.0 477704.0 0
458476.0 477491.0 0
30574.6 482850.0 0
33902.7 481881.0 0
36591.6 479501.0 0
36464.1 483652.0 0
39174.6 481479.0 0
42635.4 479471.0 0
45834.9 480922.0 0
42966.2 482029.0 0
47259.7 483137.0 0
48285.5 480010.0 0
50578.9 481714.0 0
54755.7 478722.0 0
53916.2 481748.0 0
57101.2 483192.0 0
58121.2 479083.0 0
61481.3 481131.0 0
64582.4 478358.0 0
65490.6 482073.0 0
68707.3 479757.0 0
71258.9 482431.0 0
73537.7 480184.0 0
76584.9 478681.0 0
75221.8 482269.0 0
77792.2 481811.0 0
80818.9 479438.0 0
85141.2 479687.0 0
87514.2 478852.0 0
83252.6 482112.0 0
87551.7 482246.0 0
91051.6 480074.0 0
97714.3 478259.0 0
94928.3 481700.0 0
101137.0 478958.0 0
99676.6 482351.0 0
108163.0 478684.0 0
104410.0 479748.0 0
108011.0 482047.0 0
110506.0 479221.0 0
113406.0 477915.0 0
112567.0 481765.0 0
115844.0 479950.0 0
118664.0 479958.0 0
120467.0 481905.0 0
123662.0 481893.0 0
125995.0 479521.0 0
127160.0 482541.0 0
129408.0 479793.0 0
130188.0 482955.0 0
133707.0 480522.0 0
139280.0 479691.0 0
143055.0 481690.0 0
143717.0 478842.0 0
146652.0 480399.0 0
150430.0 478254.0 0
149792.0 482410.0 0
153187.0 478500.0 0
153419.0 480940.0 0
157715.0 479937.0 0
162558.0 478767.0 0
165515.0 481413.0 0
167073.0 478366.0 0
169719.0 481271.0 0
173257.0 478640.0 0
174096.0 482498.0 0
176473.0 477430.0 0
176544.0 480118.0 0
181021.0 478652.0 0
185219.0 480792.0 0
189132.0 479796.0 0
192984.0 478839.0 0
195812.0 481137.0 0
196803.0 477975.0 0
200788.0 480615.0 0
207209.0 479384.0 0
212131.0 479981.0 0
216973.0 480900.0 0
221219.0 479817.0 0
224796.0 481460.0 0
227840.0 478475.0 0
230690.0 479945.0 0
234200.0 481516.0 0
239348.0 481016.0 0
243993.0 479938.0 0
248475.0 478244.0 0
252133.0 481447.0 0
256267.0 479578.0 0
260935.0 478403.0 0
265555.0 477062.0 0
268347.0 481019.0 0
270474.0 477508.0 0
273715.0 477917.0 0
277592.0 478176.0 0
281251.0 480823.0 0
284762.0 481686.0 0
288200.0 478525.0 0
292938.0 477486.0 0
296091.0 480371.0 0
300262.0 481383.0 0
302756.0 478357.0 0
305104.0 482242.0 0
306851.0 478078.0 0
310577.0 481192.0 0
314736.0 478848.0 0
319415.0 481088.0 0
323579.0 477633.0 0
323499.0 482351.0 0
326520.0 481154.0 0
328214.0 478308.0 0
330605.0 481852.0 0
334480.0 480206.0 0
338822.0 480881.0 0
343341.0 480943.0 0
345974.0 477697.0 0
348138.0 482350.0 0
350163.0 478630.0 0
353357.0 482515.0 0
358774.0 481704.0 0
363298.0 480837.0 0
365588.0 479411.0 0
366883.0 482325.0 0
368876.0 479432.0 0
374486.0 482056.0 0
377279.0 478415.0 0
379790.0 482778.0 0
382719.0 478486.0 0
383910.0 482774.0 0
386253.0 481852.0 0
387665.0 478666.0 0
389142.0 482126.0 0
392035.0 479650.0 0
395225.0 482935.0 0
396690.0 479180.0 0
400886.0 478455.0 0
399585.0 482009.0 0
403791.0 478879.0 0
402804.0 482073.0 0
406925.0 480912.0 0
410766.0 479477.0 0
414525.0 481713.0 0
418365.0 481941.0 0
421980.0 481377.0 0
424842.0 480776.0 0
427386.0 479669.0 0
428273.0 482352.0 0
431559.0 481223.0 0
435478.0 480300.0 0
442191.0 479265.0 0
439676.0 482658.0 0
445305.0 482126.0 0
447281.0 480188.0 0
450082.0 479531.0 0
451445.0 482955.0 0
454521.0 480571.0 0
457108.0 480088.0 0
461840.0 479239.0 0
459416.0 482704.0 0
465323.0 480481.0 0
463183.0 482318.0 0
467743.0 483223.0 0
24921.5 486787.0 0
28335.2 485379.0 0
29316.9 488424.0 0
32330.3 485073.0 0
35165.5 487051.0 0
38590.8 486623.0 0
40741.1 484550.0 0
44853.8 484313.0 0
42864.3 486264.0 0
46488.6 486180.0 0
49775.8 485719.0 0
53529.0 485306.0 0
56787.1 487792.0 0
59870.8 484616.0 0
60561.6 487857.0 0
63240.2 485106.0 0
66200.1 486816.0 0
68165.2 483929.0 0
70509.8 486842.0 0
73862.7 484543.0 0
77359.7 485374.0 0
74547.1 488301.0 0
80161.0 483421.0 0
79157.5 488045.0 0
81346.6 485663.0 0
84991.8 485114.0 0
90603.6 483275.0 0
88658.0 486390.0 0
92388.4 485037.0 0
96195.5 486050.0 0
100767.0 487430.0 0
103564.0 483507.0 0
106622.0 486660.0 0
111066.0 485528.0 0
116447.0 484278.0 0
121212.0 485565.0 0
124923.0 484744.0 0
128334.0 485580.0 0
132745.0 485613.0 0
136748.0 483806.0 0
140700.0 484762.0 0
145579.0 484675.0 0
149607.0 486175.0 0
152652.0 484252.0 0
153409.0 487566.0 0
156035.0 484144.0 0
161085.0 483957.0 0
166038.0 485276.0 0
171010.0 486579.0 0
176030.0 486416.0 0
178390.0 483067.0 0
179486.0 486574.0 0
182625.0 484415.0 0
187384.0 483985.0 0
192061.0 483340.0 0
193481.0 486994.0 0
196540.0 484480.0 0
200510.0 486202.0 0
204964.0 484063.0 0
209398.0 483860.0 0
213589.0 484321.0 0
217522.0 485805.0 0
221050.0 483461.0 0
224751.0 485554.0 0
229001.0 483366.0 0
232911.0 486724.0 0
237453.0 485555.0 0
242317.0 484907.0 0
247417.0 484003.0 0
252068.0 486229.0 0
258723.0 486289.0 0
255654.0 484096.0 0
259622.0 482543.0 0
261820.0 485967.0 0
264432.0 482477.0 0
268536.0 485148.0 0
272967.0 482225.0 0
275856.0 486099.0 0
277990.0 482999.0 0
278677.0 486641.0 0
281907.0 484649.0 0
285813.0 486716.0 0
288009.0 483294.0 0
292173.0 482600.0 0
290325.0 486903.0 0
293922.0 486762.0 0
297026.0 484873.0 0
301620.0 485900.0 0
305534.0 486639.0 0
308421.0 484331.0 0
308518.0 487080.0 0
311977.0 486644.0 0
315189.0 483475.0 0
318772.0 484918.0 0
322278.0 486038.0 0
326644.0 484808.0 0
330782.0 487099.0 0
335708.0 485131.0 0
340995.0 484825.0 0
344538.0 484828.0 0
347900.0 487129.0 0
351102.0 485769.0 0
354921.0 487158.0 0
358177.0 486060.0 0
361246.0 486194.0 0
363962.0 484213.0 0
370689.0 482507.0 0
368381.0 486121.0 0
372567.0 485987.0 0
376637.0 485752.0 0
380232.0 486723.0 0
383608.0 485789.0 0
387365.0 485124.0 0
390280.0 488229.0 0
391856.0 484456.0 0
398337.0 485143.0 0
405754.0 484502.0 0
402238.0 486323.0 0
410708.0 484861.0 0
415461.0 485918.0 0
417594.0 484541.0 0
421167.0 485432.0 0
425290.0 483484.0 0
425594.0 487556.0 0
429045.0 485320.0 0
432182.0 484693.0 0
430410.0 488241.0 0
435224.0 484197.0 0
433950.0 488317.0 0
438847.0 487580.0 0
443708.0 485016.0 0
447443.0 487545.0 0
448039.0 483691.0 0
451718.0 487161.0 0
455673.0 483992.0 0
456457.0 487395.0 0
460580.0 485757.0 0
464873.0 485936.0 0
471063.0 485126.0 0
470019.0 487826.0 0
474604.0 487087.0 0
477890.0 488892.0 0
14079.3 493660.0 0
22111.0 490154.0 0
18048.6 492300.0 0
26200.0 489341.0 0
26307.5 492395.0 0
29560.8 492158.0 0
32467.1 488603.0 0
36152.8 490440.0 0
33002.7 491580.0 0
40165.1 489930.0 0
38202.9 493728.0 0
44634.0 489465.0 0
42142.2 493601.0 0
48802.7 489553.0 0
51070.8 492889.0 0
52888.6 489148.0 0
55665.9 491939.0 0
59290.0 491501.0 0
63444.5 490072.0 0
65418.1 493108.0 0
67610.6 490183.0 0
71013.4 490473.0 0
73397.0 492198.0 0
76931.7 490688.0 0
80234.3 491712.0 0
83662.2 488962.0 0
84003.3 493181.0 0
92322.7 488600.0 0
87902.5 490481.0 0
92045.1 493018.0 0
96069.0 489974.0 0
99280.9 491725.0 0
104591.0 491397.0 0
109576.0 489967.0 0
113267.0 488510.0 0
117784.0 489740.0 0
121930.0 488390.0 0
121969.0 491812.0 0
125291.0 488060.0 0
126932.0 491467.0 0
129805.0 488832.0 0
130985.0 492760.0 0
134199.0 489743.0 0
135071.0 493426.0 0
137227.0 487459.0 0
139859.0 487862.0 0
142749.0 488226.0 0
139334.0 491539.0 0
146492.0 488489.0 0
144597.0 491750.0 0
149807.0 490447.0 0
157899.0 487857.0 0
154886.0 491230.0 0
159176.0 492156.0 0
162456.0 488742.0 0
166689.0 489484.0 0
174395.0 490329.0 0
170080.0 492700.0 0
178148.0 489665.0 0
181635.0 489008.0 0
183999.0 492009.0 0
185539.0 488115.0 0
188024.0 491897.0 0
189822.0 487603.0 0
192564.0 491037.0 0
196817.0 489154.0 0
200774.0 491360.0 0
203648.0 488022.0 0
204822.0 490663.0 0
207154.0 487531.0 0
208321.0 491671.0 0
211021.0 487740.0 0
213151.0 491758.0 0
214835.0 488111.0 0
218462.0 491487.0 0
221184.0 487356.0 0
223927.0 490056.0 0
228254.0 488328.0 0
231719.0 491692.0 0
236308.0 490478.0 0
239858.0 488018.0 0
243243.0 488922.0 0
240358.0 491263.0 0
247954.0 490166.0 0
252963.0 490745.0 0
256213.0 488447.0 0
260639.0 489849.0 0
264994.0 487464.0 0
268722.0 489795.0 0
272357.0 487381.0 0
272468.0 491695.0 0
276623.0 490107.0 0
281314.0 488934.0 0
284522.0 491089.0 0
288591.0 490613.0 0
293572.0 490649.0 0
298675.0 489442.0 0
303821.0 490678.0 0
308313.0 490071.0 0
312494.0 491328.0 0
317453.0 489269.0 0
322380.0 490118.0 0
326239.0 489269.0 0
330587.0 491310.0 0
335316.0 491175.0 0
339524.0 488712.0 0
343575.0 488891.0 0
344736.0 492701.0 0
347150.0 490770.0 0
351570.0 490220.0 0
355524.0 491128.0 0
359607.0 490477.0 0
364300.0 488073.0 0
364259.0 491478.0 0
368170.0 490467.0 0
375208.0 488813.0 0
372038.0 489768.0 0
378636.0 489477.0 0
382772.0 489702.0 0
386542.0 489304.0 0
389027.0 492546.0 0
392706.0 491403.0 0
395182.0 487996.0 0
399394.0 489527.0 0
400381.0 492715.0 0
406813.0 488238.0 0
403799.0 490903.0 0
408502.0 491998.0 0
410979.0 489482.0 0
414476.0 489385.0 0
412705.0 492965.0 0
416831.0 492884.0 0
418627.0 488882.0 0
422378.0 489725.0 0
421120.0 492896.0 0
425024.0 492074.0 0
428545.0 490979.0 0
432517.0 492517.0 0
437150.0 492550.0 0
441131.0 492527.0 0
443505.0 489322.0 0
445283.0 492472.0 0
449562.0 492571.0 0
453922.0 490162.0 0
457637.0 491820.0 0
453859.0 493272.0 0
459995.0 489066.0 0
461020.0 493695.0 0
463102.0 490477.0 0
467655.0 489815.0 0
472997.0 489772.0 0
471376.0 493300.0 0
475670.0 490762.0 0
477787.0 491687.0 0
475777.0 493714.0 0
481241.0 491852.0 0
485403.0 494105.0 0
3546.83 500049.0 0
11198.1 495412.0 0
8270.49 497802.0 0
16266.1 495688.0 0
13822.4 497801.0 0
19276.4 496055.0 0
22997.6 495026.0 0
21798.4 498676.0 0
24772.9 499143.0 0
26898.8 495794.0 0
30271.1 495284.0 0
28039.8 498685.0 0
34404.7 494862.0 0
31766.9 498349.0 0
40267.3 496788.0 0
36343.0 498678.0 0
45972.9 493661.0 0
43797.3 497356.0 0
48906.6 497230.0 0
54251.1 495704.0 0
61970.6 494078.0 0
58290.2 495150.0 0
61335.7 497747.0 0
65020.4 496340.0 0
68930.5 494008.0 0
68147.2 498209.0 0
76602.0 494239.0 0
72517.3 496188.0 0
78137.2 496643.0 0
80535.1 494824.0 0
83458.3 497120.0 0
87604.9 495065.0 0
90417.7 497309.0 0
96267.5 493347.0 0
94031.5 496945.0 0
100987.0 493961.0 0
98421.5 496314.0 0
104266.0 497075.0 0
108750.0 493621.0 0
113181.0 493245.0 0
109589.0 497271.0 0
114292.0 497774.0 0
117854.0 494636.0 0
122046.0 496339.0 0
124757.0 493867.0 0
127521.0 496233.0 0
132842.0 496770.0 0
137516.0 496116.0 0
142256.0 496016.0 0
147678.0 494991.0 0
152203.0 493510.0 0
151622.0 496892.0 0
155894.0 495628.0 0
160111.0 495864.0 0
164044.0 493484.0 0
167210.0 497145.0 0
172040.0 497531.0 0
175056.0 494181.0 0
176562.0 498185.0 0
179923.0 494016.0 0
185606.0 497021.0 0
191285.0 495490.0 0
196565.0 494268.0 0
201224.0 496093.0 0
203649.0 493480.0 0
205841.0 496005.0 0
210416.0 495900.0 0
215113.0 495939.0 0
219123.0 497494.0 0
223025.0 494411.0 0
227293.0 492849.0 0
226433.0 496472.0 0
230184.0 496090.0 0
234890.0 495635.0 0
239438.0 495370.0 0
243654.0 493537.0 0
247383.0 496145.0 0
251770.0 494953.0 0
256785.0 493551.0 0
260894.0 494184.0 0
264789.0 492318.0 0
269271.0 495291.0 0
275072.0 494845.0 0
280403.0 494014.0 0
286158.0 495680.0 0
290829.0 494091.0 0
294446.0 495857.0 0
297227.0 493326.0 0
301096.0 494106.0 0
305349.0 495579.0 0
308819.0 493649.0 0
312336.0 494924.0 0
316205.0 495048.0 0
320941.0 494009.0 0
324456.0 492824.0 0
327670.0 493514.0 0
331957.0 496428.0 0
340626.0 493053.0 0
336811.0 495513.0 0
344545.0 496549.0 0
349233.0 494903.0 0
354523.0 494443.0 0
358286.0 495089.0 0
362711.0 494942.0 0
367368.0 494512.0 0
370639.0 497598.0 0
371589.0 493768.0 0
376063.0 493019.0 0
374863.0 497367.0 0
381040.0 493396.0 0
379685.0 497695.0 0
384185.0 497044.0 0
385464.0 493311.0 0
388598.0 496686.0 0
396632.0 492957.0 0
392599.0 494980.0 0
395867.0 496727.0 0
399925.0 496731.0 0
403200.0 494890.0 0
405331.0 497999.0 0
406375.0 494202.0 0
410209.0 496100.0 0
415339.0 496453.0 0
419860.0 496685.0 0
424451.0 495814.0 0
428056.0 494734.0 0
431389.0 496524.0 0
435517.0 496261.0 0
439940.0 496174.0 0
443324.0 495189.0 0
446142.0 495693.0 0
448448.0 498110.0 0
452532.0 496989.0 0
456476.0 495442.0 0
459272.0 496287.0 0
463311.0 496807.0 0
466149.0 494151.0 0
466798.0 497919.0 0
469878.0 497373.0 0
474542.0 497036.0 0
478620.0 494439.0 0
478153.0 497368.0 0
482064.0 496640.0 0
487682.0 497724.0 0
489116.0 495030.0 0
491550.0 497017.0 0
494411.0 499635.0 0
1336.74 502969.0 0
11129.7 498867.0 0
8278.83 501167.0 0
6142.77 504115.0 0
11322.7 500990.0 0
14015.0 502219.0 0
17864.4 499932.0 0
21927.0 501998.0 0
25827.1 502839.0 0
29506.7 501470.0 0
33064.2 501802.0 0
40389.9 501056.0 0
36721.6 502629.0 0
45207.4 501384.0 0
50352.6 501357.0 0
53174.3 498923.0 0
57253.9 499185.0 0
53983.3 501363.0 0
56716.2 503794.0 0
60741.6 501229.0 0
64444.7 499804.0 0
63756.9 503365.0 0
67746.2 502201.0 0
71595.6 500644.0 0
75768.1 498965.0 0
74984.6 503092.0 0
80093.3 498672.0 0
78461.7 501479.0 0
82298.5 501299.0 0
86750.5 499805.0 0
91133.7 499823.0 0
93680.7 499858.0 0
93806.9 502308.0 0
96373.6 499845.0 0
99774.4 499790.0 0
102668.0 502592.0 0
106721.0 500982.0 0
110453.0 501620.0 0
115114.0 502578.0 0
118805.0 499052.0 0
123861.0 500596.0 0
129358.0 500518.0 0
133237.0 500476.0 0
135684.0 498938.0 0
135720.0 502732.0 0
139175.0 499787.0 0
143206.0 500717.0 0
146761.0 501107.0 0
145832.0 498325.0 0
149119.0 499216.0 0
153386.0 500399.0 0
158297.0 499562.0 0
162890.0 498341.0 0
165589.0 500546.0 0
169188.0 500809.0 0
173806.0 502176.0 0
177972.0 502126.0 0
180700.0 499355.0 0
183552.0 501850.0 0
190370.0 500471.0 0
194464.0 498818.0 0
196957.0 501560.0 0
198120.0 498072.0 0
200484.0 500452.0 0
203791.0 499058.0 0
208063.0 500429.0 0
212699.0 499537.0 0
216126.0 501191.0 0
223655.0 499110.0 0
220182.0 502489.0 0
227926.0 499860.0 0
232697.0 500143.0 0
238231.0 500676.0 0
243162.0 498334.0 0
246840.0 500125.0 0
250570.0 499361.0 0
254999.0 498358.0 0
259163.0 497518.0 0
258378.0 502303.0 0
263685.0 497409.0 0
263131.0 501681.0 0
267492.0 500497.0 0
273216.0 500162.0 0
277979.0 498104.0 0
282305.0 499501.0 0
286994.0 501661.0 0
290856.0 498881.0 0
295289.0 500931.0 0
298519.0 497570.0 0
300345.0 502252.0 0
302261.0 498023.0 0
305402.0 500708.0 0
310104.0 498299.0 0
315058.0 499602.0 0
317993.0 501846.0 0
319869.0 498487.0 0
320423.0 502019.0 0
323245.0 501653.0 0
325515.0 497671.0 0
330002.0 501659.0 0
340163.0 497819.0 0
336091.0 499574.0 0
339963.0 502403.0 0
343820.0 500587.0 0
348730.0 500563.0 0
352916.0 497988.0 0
353927.0 501841.0 0
360471.0 498550.0 0
356433.0 498352.0 0
358327.0 501967.0 0
362051.0 501826.0 0
366156.0 499330.0 0
372752.0 501320.0 0
377632.0 501645.0 0
383376.0 502120.0 0
386416.0 499518.0 0
389183.0 501666.0 0
392768.0 498700.0 0
393836.0 502241.0 0
397462.0 500384.0 0
402102.0 499999.0 0
405865.0 502957.0 0
409094.0 500109.0 0
413493.0 500147.0 0
418125.0 500146.0 0
420709.0 500150.0 0
423443.0 499537.0 0
426332.0 503386.0 0
428129.0 499351.0 0
430380.0 502821.0 0
433370.0 500094.0 0
436930.0 502993.0 0
438094.0 499176.0 0
440803.0 501567.0 0
443739.0 498873.0 0
444117.0 503017.0 0
447479.0 502001.0 0
452093.0 501395.0 0
456307.0 499280.0 0
456225.0 502981.0 0
460757.0 499514.0 0
459355.0 502363.0 0
463548.0 502643.0 0
465064.0 499705.0 0
472624.0 499607.0 0
468655.0 501723.0 0
476729.0 500221.0 0
473940.0 502974.0 0
480159.0 500307.0 0
482007.0 503297.0 0
478346.0 503715.0 0
484446.0 499820.0 0
486450.0 503406.0 0
490301.0 501200.0 0
498130.0 500090.0 0
497751.0 502406.0 0
2324.88 505525.0 0
10411.2 503854.0 0
5454.0 507619.0 0
9469.18 507473.0 0
13961.1 506353.0 0
18055.9 504331.0 0
17794.1 509067.0 0
21969.7 505930.0 0
26199.8 506690.0 0
23281.3 509239.0 0
29697.6 504690.0 0
29677.7 507671.0 0
33922.4 505667.0 0
36855.5 508558.0 0
38276.5 505021.0 0
41819.5 504502.0 0
40605.2 507728.0 0
45068.7 506494.0 0
48279.1 504434.0 0
49778.8 507749.0 0
52424.1 504509.0 0
54118.3 508024.0 0
60396.1 504630.0 0
58211.9 508030.0 0
62344.2 507079.0 0
66732.3 506248.0 0
71156.7 504504.0 0
70311.1 508175.0 0
74610.0 506632.0 0
79320.0 505095.0 0
84130.1 504619.0 0
86221.8 507728.0 0
89266.8 503864.0 0
89845.6 508231.0 0
97746.0 503552.0 0
93624.7 506086.0 0
96996.4 507753.0 0
101204.0 507033.0 0
106380.0 505675.0 0
111560.0 506203.0 0
116084.0 507022.0 0
119464.0 503569.0 0
120255.0 508107.0 0
123189.0 505062.0 0
127172.0 504615.0 0
131709.0 504397.0 0
134839.0 507640.0 0
140408.0 504997.0 0
145672.0 504339.0 0
149543.0 502709.0 0
149121.0 506693.0 0
152389.0 504452.0 0
156364.0 503854.0 0
161739.0 503172.0 0
158949.0 507400.0 0
166380.0 504107.0 0
168501.0 507472.0 0
170336.0 504225.0 0
172475.0 507376.0 0
176822.0 506333.0 0
181108.0 504702.0 0
186678.0 502562.0 0
185426.0 507230.0 0
190331.0 505250.0 0
194015.0 503241.0 0
198773.0 505288.0 0
203687.0 503401.0 0
208144.0 505530.0 0
212479.0 503604.0 0
216663.0 505887.0 0
221400.0 507444.0 0
224820.0 503698.0 0
229617.0 504065.0 0
234453.0 504840.0 0
239367.0 506593.0 0
243826.0 503474.0 0
248917.0 503165.0 0
253124.0 502633.0 0
251257.0 505961.0 0
255057.0 506674.0 0
262005.0 505376.0 0
265623.0 504415.0 0
269975.0 504726.0 0
274749.0 506180.0 0
278552.0 502846.0 0
283260.0 504821.0 0
287997.0 506362.0 0
291450.0 503676.0 0
291921.0 507542.0 0
295898.0 506035.0 0
300280.0 506841.0 0
304754.0 506199.0 0
310616.0 504042.0 0
315567.0 503809.0 0
320434.0 506437.0 0
325908.0 504578.0 0
330374.0 507642.0 0
335186.0 504263.0 0
340576.0 507700.0 0
345277.0 504797.0 0
350777.0 506481.0 0
356374.0 505838.0 0
361464.0 506006.0 0
365379.0 503762.0 0
369728.0 503943.0 0
366602.0 507732.0 0
370911.0 507776.0 0
374895.0 506080.0 0
379716.0 505453.0 0
383087.0 506954.0 0
387644.0 506405.0 0
392447.0 505545.0 0
396738.0 504621.0 0
400736.0 503372.0 0
399946.0 507527.0 0
404000.0 506681.0 0
411026.0 504207.0 0
408443.0 508165.0 0
416158.0 504037.0 0
413777.0 507783.0 0
421715.0 503751.0 0
419073.0 507898.0 0
429145.0 506477.0 0
432753.0 505981.0 0
433369.0 503755.0 0
436045.0 506541.0 0
440801.0 506106.0 0
445803.0 506331.0 0
450185.0 505356.0 0
453845.0 505258.0 0
457207.0 506406.0 0
460132.0 504656.0 0
463192.0 505835.0 0
460674.0 507828.0 0
466993.0 505258.0 0
471374.0 505896.0 0
469429.0 508597.0 0
473495.0 509551.0 0
475951.0 506859.0 0
480106.0 507018.0 0
483222.0 506216.0 0
486248.0 506945.0 0
493706.0 504254.0 0
489935.0 505754.0 0
492631.0 508146.0 0
497401.0 505496.0 0
2403.92 509293.0 0
2041.92 512513.0 0
7001.16 511280.0 0
12453.7 511069.0 0
17402.4 513821.0 0
21151.5 511351.0 0
27056.8 511145.0 0
32518.2 509508.0 0
35575.9 511970.0 0
31576.2 512940.0 0
39652.5 511571.0 0
43193.5 509754.0 0
46810.1 510279.0 0
43516.4 512909.0 0
51278.9 511679.0 0
55260.2 511100.0 0
60958.2 509764.0 0
58345.6 511668.0 0
61568.0 511867.0 0
64581.8 510030.0 0
63985.0 514220.0 0
68226.6 512329.0 0
73943.5 511608.0 0
78077.7 508924.0 0
79017.0 512788.0 0
82465.0 509134.0 0
87329.4 511828.0 0
93294.3 510914.0 0
98588.3 510998.0 0
103964.0 510933.0 0
108481.0 509666.0 0
112734.0 510663.0 0
117149.0 511073.0 0
121622.0 512404.0 0
124769.0 508859.0 0
126680.0 513153.0 0
129477.0 508376.0 0
131922.0 511980.0 0
135722.0 511686.0 0
139382.0 510531.0 0
144586.0 508832.0 0
149128.0 511943.0 0
153841.0 508337.0 0
157883.0 511350.0 0
163965.0 509149.0 0
169652.0 511750.0 0
174949.0 511327.0 0
180488.0 510369.0 0
190312.0 510321.0 0
194342.0 507264.0 0
197930.0 510429.0 0
203432.0 509117.0 0
207894.0 509414.0 0
212330.0 508755.0 0
217052.0 511148.0 0
220766.0 511352.0 0
224335.0 511227.0 0
226635.0 507733.0 0
228094.0 511046.0 0
230928.0 508402.0 0
235288.0 509617.0 0
239324.0 511417.0 0
243179.0 509893.0 0
247420.0 507636.0 0
251809.0 510175.0 0
259095.0 508365.0 0
256311.0 512354.0 0
263428.0 508902.0 0
267054.0 507971.0 0
271109.0 509737.0 0
279447.0 507904.0 0
279883.0 512107.0 0
275775.0 511320.0 0
284376.0 510091.0 0
289776.0 510616.0 0
294112.0 510481.0 0
298652.0 510684.0 0
303199.0 510855.0 0
308471.0 507854.0 0
307312.0 510890.0 0
310934.0 509349.0 0
314797.0 507971.0 0
317934.0 511394.0 0
325213.0 509251.0 0
332378.0 511905.0 0
335351.0 509579.0 0
338615.0 512222.0 0
342412.0 512657.0 0
346253.0 510074.0 0
350790.0 512439.0 0
354878.0 510349.0 0
359174.0 509380.0 0
363508.0 511413.0 0
369179.0 511384.0 0
373989.0 511475.0 0
379486.0 510401.0 0
385203.0 510976.0 0
389536.0 512195.0 0
391453.0 509251.0 0
395603.0 508355.0 0
394351.0 512773.0 0
399493.0 511980.0 0
404095.0 510614.0 0
407746.0 513169.0 0
411882.0 511517.0 0
416670.0 511250.0 0
421414.0 511972.0 0
424515.0 508372.0 0
428796.0 510992.0 0
433415.0 509919.0 0
438305.0 510041.0 0
440192.0 513584.0 0
443637.0 510677.0 0
449186.0 509866.0 0
452197.0 513246.0 0
453816.0 509219.0 0
457953.0 509451.0 0
456786.0 512978.0 0
461311.0 511396.0 0
465412.0 509279.0 0
470644.0 511666.0 0
478186.0 510764.0 0
474526.0 513341.0 0
483392.0 510222.0 0
488488.0 509665.0 0
486685.0 513820.0 0
491840.0 512793.0 0
496794.0 509207.0 0
497092.0 513363.0 0
2069.11 515768.0 0
1782.07 518535.0 0
5348.66 514563.0 0
9241.02 514595.0 0
6527.61 518529.0 0
13135.5 514938.0 0
10817.4 517666.0 0
19428.1 517239.0 0
22956.2 514418.0 0
23594.1 518844.0 0
28458.4 516645.0 0
34042.0 515738.0 0
32924.4 519685.0 0
37486.9 514728.0 0
37226.5 518325.0 0
41005.5 515853.0 0
45031.6 517435.0 0
47208.1 514212.0 0
50416.3 515690.0 0
48216.9 517793.0 0
54761.0 515495.0 0
59829.7 515063.0 0
57989.4 519099.0 0
62588.5 518721.0 0
66740.9 516487.0 0
65731.4 519234.0 0
71169.5 516132.0 0
76075.4 516510.0 0
80493.0 516824.0 0
82902.0 513386.0 0
85594.5 517019.0 0
90678.7 515509.0 0
95492.1 514948.0 0
97289.0 518511.0 0
100099.0 514663.0 0
101095.0 518448.0 0
104873.0 516038.0 0
108643.0 513471.0 0
108896.0 518237.0 0
112587.0 514933.0 0
117572.0 515526.0 0
122493.0 516715.0 0
126443.0 517562.0 0
130664.0 516414.0 0
135544.0 515385.0 0
139068.0 514588.0 0
143198.0 514169.0 0
147160.0 516818.0 0
152197.0 517659.0 0
154038.0 512929.0 0
157364.0 515632.0 0
161330.0 513556.0 0
161231.0 517644.0 0
165401.0 514341.0 0
169171.0 516246.0 0
172749.0 515155.0 0
177584.0 515497.0 0
182112.0 515096.0 0
185673.0 512664.0 0
185317.0 516992.0 0
189680.0 516023.0 0
194196.0 513381.0 0
198141.0 515449.0 0
201027.0 513367.0 0
201414.0 516551.0 0
204968.0 514534.0 0
208999.0 512676.0 0
213074.0 513603.0 0
209849.0 517449.0 0
215886.0 517560.0 0
221440.0 515398.0 0
226983.0 515315.0 0
231630.0 513036.0 0
233444.0 517296.0 0
236225.0 513843.0 0
242113.0 514297.0 0
244600.0 517608.0 0
247162.0 513264.0 0
251890.0 514396.0 0
255013.0 517296.0 0
259145.0 515951.0 0
261376.0 512525.0 0
263780.0 516897.0 0
266686.0 512721.0 0
268222.0 517049.0 0
271870.0 514602.0 0
277333.0 516964.0 0
282481.0 515020.0 0
287324.0 514776.0 0
292432.0 514609.0 0
297012.0 514937.0 0
301808.0 514807.0 0
305404.0 513736.0 0
305503.0 516978.0 0
309046.0 514871.0 0
313333.0 512888.0 0
313004.0 517466.0 0
317425.0 515993.0 0
322488.0 513582.0 0
328510.0 513122.0 0
326196.0 518036.0 0
331726.0 517535.0 0
335079.0 514287.0 0
335882.0 517912.0 0
339609.0 516195.0 0
343890.0 515841.0 0
347369.0 514550.0 0
351097.0 517736.0 0
354769.0 514898.0 0
359094.0 513138.0 0
358217.0 516391.0 0
362900.0 517632.0 0
367259.0 514794.0 0
371446.0 515191.0 0
377163.0 516245.0 0
382595.0 515385.0 0
387089.0 514763.0 0
391162.0 516714.0 0
395863.0 516957.0 0
399696.0 516247.0 0
403811.0 514763.0 0
407561.0 517882.0 0
411519.0 516152.0 0
414992.0 514618.0 0
418986.0 515083.0 0
420201.0 518338.0 0
425218.0 513251.0 0
422930.0 516343.0 0
426575.0 517896.0 0
431991.0 514040.0 0
428425.0 514722.0 0
430269.0 517434.0 0
436162.0 513888.0 0
434075.0 517916.0 0
439396.0 518302.0 0
443608.0 515677.0 0
447734.0 513845.0 0
446654.0 517812.0 0
450597.0 517083.0 0
454649.0 516729.0 0
458456.0 516981.0 0
461741.0 515345.0 0
466644.0 514013.0 0
465323.0 518786.0 0
471594.0 515370.0 0
469560.0 518279.0 0
477800.0 515285.0 0
474912.0 518472.0 0
481720.0 514420.0 0
479739.0 518718.0 0
484545.0 518361.0 0
489320.0 517785.0 0
493646.0 517218.0 0
497713.0 517173.0 0
2662.92 521831.0 0
15178.6 518573.0 0
11145.0 521095.0 0
15113.2 522931.0 0
19081.2 520963.0 0
22975.3 522700.0 0
27929.0 522095.0 0
32404.9 523871.0 0
36694.5 522270.0 0
41504.5 520740.0 0
46976.6 521351.0 0
51095.0 519025.0 0
51130.6 523294.0 0
54369.2 520380.0 0
56552.2 521764.0 0
59925.6 523173.0 0
65103.6 522879.0 0
68788.0 519850.0 0
69896.7 523837.0 0
73158.7 520385.0 0
77739.1 520963.0 0
82184.4 520443.0 0
86110.3 521820.0 0
89339.5 519366.0 0
93385.6 519311.0 0
95545.2 523138.0 0
99190.6 521652.0 0
104374.0 521869.0 0
109459.0 523467.0 0
113606.0 519422.0 0
118878.0 520386.0 0
124152.0 521869.0 0
129399.0 520789.0 0
134099.0 519613.0 0
137129.0 522632.0 0
139416.0 518454.0 0
143677.0 518870.0 0
147525.0 521323.0 0
157118.0 520228.0 0
161618.0 522045.0 0
165515.0 518793.0 0
170463.0 520470.0 0
174374.0 518382.0 0
181314.0 520186.0 0
187049.0 520678.0 0
191220.0 520209.0 0
194667.0 517908.0 0
199131.0 519768.0 0
194872.0 522729.0 0
204529.0 519509.0 0
208482.0 521688.0 0
212406.0 521608.0 0
220462.0 520106.0 0
224486.0 519142.0 0
229318.0 520288.0 0
234108.0 521440.0 0
238583.0 517850.0 0
242046.0 520899.0 0
249585.0 518631.0 0
245919.0 522429.0 0
253960.0 522423.0 0
259947.0 521234.0 0
266654.0 521681.0 0
272052.0 519727.0 0
284440.0 519256.0 0
280600.0 520355.0 0
289858.0 519595.0 0
294863.0 519148.0 0
299594.0 518626.0 0
303989.0 521795.0 0
308925.0 519159.0 0
312744.0 521663.0 0
316359.0 520056.0 0
319300.0 522292.0 0
321003.0 518671.0 0
329558.0 522169.0 0
334556.0 521994.0 0
338395.0 520086.0 0
343023.0 520444.0 0
346745.0 518085.0 0
348114.0 522007.0 0
352167.0 522242.0 0
356485.0 520213.0 0
366398.0 521763.0 0
369071.0 518861.0 0
369857.0 522868.0 0
373175.0 518350.0 0
372446.0 521268.0 0
375873.0 521239.0 0
380905.0 521122.0 0
386412.0 519435.0 0
390665.0 521188.0 0
394270.0 520648.0 0
398421.0 520168.0 0
403327.0 519234.0 0
407382.0 523368.0 0
411814.0 520775.0 0
416161.0 518713.0 0
415996.0 522851.0 0
422470.0 519317.0 0
420118.0 521872.0 0
424862.0 521615.0 0
430252.0 521809.0 0
435830.0 522525.0 0
440991.0 523556.0 0
443946.0 520431.0 0
448466.0 521474.0 0
453316.0 521514.0 0
457525.0 520080.0 0
457469.0 523858.0 0
461255.0 519269.0 0
460206.0 522183.0 0
463974.0 522568.0 0
468496.0 522712.0 0
471749.0 520767.0 0
473622.0 523716.0 0
477899.0 522096.0 0
482259.0 522301.0 0
487473.0 522960.0 0
492555.0 521771.0 0
497306.0 520905.0 0
2509.47 525906.0 0
7195.75 523778.0 0
9439.89 527252.0 0
11550.5 525205.0 0
14570.0 527416.0 0
19270.3 526116.0 0
24958.7 526483.0 0
29516.7 526899.0 0
35487.1 526563.0 0
40218.2 525581.0 0
44464.7 524635.0 0
44069.3 528623.0 0
47750.3 526170.0 0
55279.2 524390.0 0
51861.9 527785.0 0
62620.3 526448.0 0
66629.3 527261.0 0
70894.6 528148.0 0
74384.5 524581.0 0
75566.7 528605.0 0
78849.9 525355.0 0
82541.3 524021.0 0
82317.3 526902.0 0
85821.3 525843.0 0
90778.7 523726.0 0
94588.3 527418.0 0
99821.0 526045.0 0
105438.0 527605.0 0
114715.0 524557.0 0
119699.0 525196.0 0
123442.0 526718.0 0
126741.0 526241.0 0
129303.0 524431.0 0
132720.0 523688.0 0
135405.0 526726.0 0
138856.0 526375.0 0
142317.0 523336.0 0
147147.0 526506.0 0
152415.0 523607.0 0
155527.0 527210.0 0
157095.0 524041.0 0
160216.0 527180.0 0
166180.0 523441.0 0
171060.0 526106.0 0
173263.0 529839.0 0
175851.0 522855.0 0
180134.0 525172.0 0
184530.0 524856.0 0
188282.0 527667.0 0
190231.0 523903.0 0
193161.0 527627.0 0
198806.0 526641.0 0
201749.0 522940.0 0
205420.0 524490.0 0
210036.0 525425.0 0
214227.0 526966.0 0
216688.0 523104.0 0
218782.0 527784.0 0
221135.0 524172.0 0
223597.0 527778.0 0
225315.0 523453.0 0
229533.0 525836.0 0
234134.0 525535.0 0
238069.0 523135.0 0
242263.0 525441.0 0
249672.0 523628.0 0
247072.0 527492.0 0
251912.0 527063.0 0
257240.0 527380.0 0
263394.0 526798.0 0
268449.0 526500.0 0
272663.0 524749.0 0
277670.0 523225.0 0
282443.0 523294.0 0
281261.0 527652.0 0
285415.0 527088.0 0
286646.0 523512.0 0
289166.0 527002.0 0
292695.0 523793.0 0
292207.0 527101.0 0
298053.0 523367.0 0
309099.0 523318.0 0
306693.0 527182.0 0
312256.0 526014.0 0
316027.0 524268.0 0
319887.0 526561.0 0
323959.0 523274.0 0
327878.0 526286.0 0
332348.0 526511.0 0
339367.0 524489.0 0
344489.0 525518.0 0
348883.0 526188.0 0
352700.0 525784.0 0
356750.0 525221.0 0
361997.0 523736.0 0
367173.0 525375.0 0
370789.0 525953.0 0
373577.0 524198.0 0
377982.0 525839.0 0
385236.0 523888.0 0
382822.0 526214.0 0
388563.0 523727.0 0
387408.0 527498.0 0
392395.0 524788.0 0
396937.0 524140.0 0
395853.0 528398.0 0
399515.0 526989.0 0
401634.0 523623.0 0
403964.0 527733.0 0
412903.0 525570.0 0
416467.0 528130.0 0
418355.0 525695.0 0
422562.0 525752.0 0
427199.0 525629.0 0
432899.0 526062.0 0
437820.0 527024.0 0
442708.0 528272.0 0
445608.0 524721.0 0
450321.0 525972.0 0
454510.0 525742.0 0
457838.0 527669.0 0
461390.0 525853.0 0
465892.0 526203.0 0
470362.0 526099.0 0
477011.0 525715.0 0
480327.0 525012.0 0
483805.0 526110.0 0
487489.0 527057.0 0
492439.0 526677.0 0
497401.0 524888.0 0
2077.02 529718.0 0
6336.68 528902.0 0
8328.35 532493.0 0
11403.9 529735.0 0
11847.0 533632.0 0
16990.3 532356.0 0
22131.7 530137.0 0
22457.1 533887.0 0
26654.1 531217.0 0
32521.8 530355.0 0
38827.6 531032.0 0
44038.8 533122.0 0
48064.7 530474.0 0
52421.3 532167.0 0
57749.2 529422.0 0
63637.5 530252.0 0
67639.6 532991.0 0
72596.4 532008.0 0
76561.3 533192.0 0
79736.0 529623.0 0
81234.5 534143.0 0
84504.0 530319.0 0
89610.4 528838.0 0
93053.0 532247.0 0
98154.6 531138.0 0
102007.0 529747.0 0
103993.0 532268.0 0
107886.0 533839.0 0
110719.0 529088.0 0
116508.0 529333.0 0
120338.0 533366.0 0
121112.0 528998.0 0
125381.0 530671.0 0
130706.0 528668.0 0
136117.0 531829.0 0
142036.0 529505.0 0
147062.0 531692.0 0
151676.0 529181.0 0
156590.0 531471.0 0
161176.0 531949.0 0
165521.0 528683.0 0
170186.0 532007.0 0
176792.0 528555.0 0
181989.0 529210.0 0
186025.0 531551.0 0
190609.0 532099.0 0
196119.0 532598.0 0
203559.0 528102.0 0
201074.0 531183.0 0
206984.0 528093.0 0
205479.0 532196.0 0
210738.0 530623.0 0
215736.0 531113.0 0
219791.0 532043.0 0
223620.0 531854.0 0
227370.0 530055.0 0
232635.0 530564.0 0
237952.0 528228.0 0
239383.0 532149.0 0
242751.0 530171.0 0
246712.0 532439.0 0
253419.0 531118.0 0
257151.0 532062.0 0
260862.0 531202.0 0
266711.0 531649.0 0
271687.0 529460.0 0
275231.0 532735.0 0
276251.0 528135.0 0
279738.0 532190.0 0
287113.0 531090.0 0
291565.0 530764.0 0
295511.0 528038.0 0
301166.0 528486.0 0
305564.0 532569.0 0
311009.0 530881.0 0
315871.0 528675.0 0
320153.0 531480.0 0
324232.0 528845.0 0
328972.0 530719.0 0
333549.0 530823.0 0
336704.0 528191.0 0
337672.0 532617.0 0
341289.0 529249.0 0
346567.0 530449.0 0
351153.0 529462.0 0
355263.0 529281.0 0
358247.0 532433.0 0
359760.0 528550.0 0
361975.0 531805.0 0
364430.0 528638.0 0
365855.0 533280.0 0
369406.0 529759.0 0
373802.0 528399.0 0
374415.0 532926.0 0
377110.0 530083.0 0
379075.0 533153.0 0
383564.0 530958.0 0
391555.0 528751.0 0
389466.0 532546.0 0
393485.0 531680.0 0
396641.0 532544.0 0
400344.0 530662.0 0
404950.0 532684.0 0
408992.0 529017.0 0
411917.0 533473.0 0
413671.0 529637.0 0
417095.0 531998.0 0
420194.0 529147.0 0
421519.0 532965.0 0
424704.0 529991.0 0
427845.0 532358.0 0
429902.0 529381.0 0
434763.0 530600.0 0
439604.0 531778.0 0
447349.0 529039.0 0
444769.0 533399.0 0
450243.0 532622.0 0
453753.0 529458.0 0
454779.0 533182.0 0
458304.0 531375.0 0
463020.0 529889.0 0
461570.0 533619.0 0
468367.0 529791.0 0
465908.0 533936.0 0
473988.0 529102.0 0
477004.0 533608.0 0
479724.0 529145.0 0
481323.0 532920.0 0
484742.0 530434.0 0
489664.0 530631.0 0
494198.0 532789.0 0
497365.0 529116.0 0
498288.0 532585.0 0
3341.55 534104.0 0
8655.37 536954.0 0
13879.8 537633.0 0
20111.4 538007.0 0
25584.6 536288.0 0
29779.4 534248.0 0
29949.7 538194.0 0
34423.0 535345.0 0
39855.4 536898.0 0
45104.4 535598.0 0
48523.3 535310.0 0
53558.3 536996.0 0
57389.9 534695.0 0
61995.6 534723.0 0
67388.0 537919.0 0
72297.2 536795.0 0
77817.9 537903.0 0
84238.8 537199.0 0
87995.5 538963.0 0
87957.9 533955.0 0
91816.7 536760.0 0
96391.6 536006.0 0
101065.0 535364.0 0
104907.0 538084.0 0
113610.0 534525.0 0
117955.0 537803.0 0
121882.0 537804.0 0
125148.0 535431.0 0
129579.0 533875.0 0
133740.0 537975.0 0
138499.0 536058.0 0
142752.0 534994.0 0
147501.0 536419.0 0
151589.0 533887.0 0
155662.0 536153.0 0
160457.0 536532.0 0
165272.0 534418.0 0
169879.0 537183.0 0
174653.0 532835.0 0
178554.0 533559.0 0
175216.0 537519.0 0
182529.0 533830.0 0
186480.0 536710.0 0
192180.0 537259.0 0
201002.0 536064.0 0
208897.0 535609.0 0
205237.0 536449.0 0
213580.0 535187.0 0
217767.0 535040.0 0
221818.0 536071.0 0
226993.0 535125.0 0
231496.0 535468.0 0
236380.0 535615.0 0
242549.0 535491.0 0
247222.0 536484.0 0
250574.0 534350.0 0
255043.0 535391.0 0
259472.0 535030.0 0
263852.0 536399.0 0
268490.0 536519.0 0
271090.0 533556.0 0
273209.0 537566.0 0
278264.0 536487.0 0
283628.0 533100.0 0
282557.0 536771.0 0
286971.0 536072.0 0
291358.0 534963.0 0
296148.0 533307.0 0
299408.0 537662.0 0
300919.0 533486.0 0
303244.0 536323.0 0
306995.0 537402.0 0
311434.0 536420.0 0
315576.0 533571.0 0
317726.0 537962.0 0
321162.0 535527.0 0
324909.0 533843.0 0
329428.0 534879.0 0
333583.0 535034.0 0
338215.0 538281.0 0
342582.0 534375.0 0
347527.0 535534.0 0
353012.0 534334.0 0
357512.0 535717.0 0
361749.0 536404.0 0
367145.0 538323.0 0
370266.0 534448.0 0
373198.0 537609.0 0
377229.0 536774.0 0
381771.0 537105.0 0
385800.0 535336.0 0
389777.0 537965.0 0
394204.0 536075.0 0
400138.0 535971.0 0
404831.0 536925.0 0
408106.0 535789.0 0
415861.0 536455.0 0
419178.0 535142.0 0
421842.0 537383.0 0
425592.0 534738.0 0
431430.0 535160.0 0
436550.0 534420.0 0
436280.0 538353.0 0
440256.0 536000.0 0
444143.0 538703.0 0
448703.0 537108.0 0
453027.0 536380.0 0
457948.0 535968.0 0
462706.0 537247.0 0
471464.0 534220.0 0
472357.0 538316.0 0
476643.0 538788.0 0
484592.0 534663.0 0
481027.0 536688.0 0
489117.0 535442.0 0
485455.0 538878.0 0
493694.0 537649.0 0
497881.0 535702.0 0
3692.2 540242.0 0
10021.8 541941.0 0
15787.8 542436.0 0
20708.4 542493.0 0
24897.6 540872.0 0
29653.0 542054.0 0
34812.1 540806.0 0
40487.8 542321.0 0
44865.3 538973.0 0
49944.0 540993.0 0
54830.4 541905.0 0
58281.5 538767.0 0
59214.9 543444.0 0
63072.2 539853.0 0
66787.4 541797.0 0
69879.1 540817.0 0
74375.2 542369.0 0
79654.0 542334.0 0
81520.4 539366.0 0
84361.5 542201.0 0
90711.3 542641.0 0
94518.6 539900.0 0
99314.4 540134.0 0
103200.0 542261.0 0
107168.0 542561.0 0
109791.0 538777.0 0
111037.0 542965.0 0
114503.0 540657.0 0
120211.0 542377.0 0
124639.0 539592.0 0
125651.0 543279.0 0
128302.0 538439.0 0
130104.0 542354.0 0
139745.0 540433.0 0
144195.0 539327.0 0
147775.0 540795.0 0
151704.0 538621.0 0
155782.0 540679.0 0
160433.0 541673.0 0
164708.0 539346.0 0
168772.0 541641.0 0
173003.0 541901.0 0
177687.0 542465.0 0
180902.0 538125.0 0
182406.0 543090.0 0
186121.0 541535.0 0
190821.0 542784.0 0
196959.0 539848.0 0
201893.0 541289.0 0
205950.0 539783.0 0
211297.0 540984.0 0
216504.0 538501.0 0
216428.0 542100.0 0
220246.0 540730.0 0
225204.0 540264.0 0
230458.0 539988.0 0
239695.0 539994.0 0
235268.0 540834.0 0
245109.0 541176.0 0
251702.0 540019.0 0
257930.0 539803.0 0
262251.0 540343.0 0
266757.0 541181.0 0
271145.0 541114.0 0
276932.0 541257.0 0
281632.0 540653.0 0
285262.0 540002.0 0
289667.0 540846.0 0
294448.0 538493.0 0
299531.0 542244.0 0
303491.0 540123.0 0
307680.0 541563.0 0
313322.0 542148.0 0
319186.0 542613.0 0
322317.0 539127.0 0
327272.0 538744.0 0
332456.0 539327.0 0
340456.0 542762.0 0
344362.0 539999.0 0
350461.0 539827.0 0
356883.0 540110.0 0
362794.0 541947.0 0
367334.0 543120.0 0
370684.0 541069.0 0
374918.0 542180.0 0
378894.0 540382.0 0
383382.0 542481.0 0
385879.0 539144.0 0
388260.0 542077.0 0
392583.0 541816.0 0
397199.0 540640.0 0
403252.0 540882.0 0
407195.0 539252.0 0
411468.0 538962.0 0
408060.0 543412.0 0
417892.0 540378.0 0
422988.0 542708.0 0
426123.0 538909.0 0
429734.0 539606.0 0
428660.0 543753.0 0
433087.0 541469.0 0
437869.0 543489.0 0
440213.0 539829.0 0
442970.0 543382.0 0
448149.0 542374.0 0
451708.0 539738.0 0
455454.0 539728.0 0
453618.0 543528.0 0
459963.0 540790.0 0
467474.0 539071.0 0
468090.0 543968.0 0
472684.0 542646.0 0
477339.0 543675.0 0
481346.0 541495.0 0
487149.0 542166.0 0
490080.0 540285.0 0
494300.0 542092.0 0
497526.0 539698.0 0
497988.0 543477.0 0
3211.61 546027.0 0
8540.86 546442.0 0
13666.1 547611.0 0
19210.6 546973.0 0
23149.7 544691.0 0
23936.8 548249.0 0
27035.7 545347.0 0
31838.5 545639.0 0
36925.8 545955.0 0
45374.6 544232.0 0
41668.1 547263.0 0
46240.0 548152.0 0
50243.5 546189.0 0
55389.3 546399.0 0
60501.4 548018.0 0
63908.6 544849.0 0
69206.1 545737.0 0
74311.8 547506.0 0
77766.2 545718.0 0
81709.3 546265.0 0
87180.0 545744.0 0
91735.0 547743.0 0
95632.0 543931.0 0
96834.4 548320.0 0
100150.0 545049.0 0
104622.0 546311.0 0
109473.0 546771.0 0
114981.0 546057.0 0
120649.0 548051.0 0
125716.0 547398.0 0
130631.0 547398.0 0
135097.0 543797.0 0
139917.0 545330.0 0
144146.0 543694.0 0
147837.0 543884.0 0
147907.0 547117.0 0
151641.0 543446.0 0
152580.0 548174.0 0
156283.0 545146.0 0
160383.0 546106.0 0
163670.0 548288.0 0
164783.0 543986.0 0
167657.0 547297.0 0
170952.0 545263.0 0
174887.0 546429.0 0
180100.0 547812.0 0
186211.0 546568.0 0
191045.0 547568.0 0
194235.0 546353.0 0
195015.0 543537.0 0
198952.0 546153.0 0
205889.0 544548.0 0
210810.0 547864.0 0
214844.0 545069.0 0
218491.0 544950.0 0
222828.0 544949.0 0
220168.0 547724.0 0
227677.0 544756.0 0
232796.0 545127.0 0
238242.0 544765.0 0
242434.0 545378.0 0
248930.0 544018.0 0
246310.0 546867.0 0
252327.0 546059.0 0
257313.0 545031.0 0
262415.0 544587.0 0
270705.0 545716.0 0
275580.0 545380.0 0
280605.0 545839.0 0
285729.0 543944.0 0
289950.0 546173.0 0
294657.0 543783.0 0
298823.0 546426.0 0
304039.0 545504.0 0
309646.0 547011.0 0
319949.0 547189.0 0
324347.0 544041.0 0
329903.0 543413.0 0
327931.0 547568.0 0
335536.0 543606.0 0
332223.0 547611.0 0
339274.0 547380.0 0
343929.0 545577.0 0
347811.0 543584.0 0
349180.0 547835.0 0
353413.0 544769.0 0
359085.0 546024.0 0
364912.0 546125.0 0
371112.0 545505.0 0
375360.0 546729.0 0
379133.0 544920.0 0
386844.0 546017.0 0
390795.0 545325.0 0
395439.0 546583.0 0
400207.0 544391.0 0
399874.0 547575.0 0
404566.0 544075.0 0
404422.0 548177.0 0
410549.0 548265.0 0
413639.0 543831.0 0
415980.0 548632.0 0
418320.0 544701.0 0
420962.0 547648.0 0
425506.0 546653.0 0
433202.0 545907.0 0
436828.0 548179.0 0
441097.0 547872.0 0
445633.0 547062.0 0
450446.0 547361.0 0
455124.0 547809.0 0
458166.0 545039.0 0
463664.0 543735.0 0
461425.0 547798.0 0
466544.0 548520.0 0
470885.0 546591.0 0
474909.0 547178.0 0
480869.0 546344.0 0
484888.0 544639.0 0
490591.0 546027.0 0
497126.0 547616.0 0
2023.34 550414.0 0
6058.15 550412.0 0
10051.4 550185.0 0
13270.4 552593.0 0
17664.7 551702.0 0
21472.5 550431.0 0
24345.6 551998.0 0
28888.9 550212.0 0
33729.7 549241.0 0
33244.8 553122.0 0
38370.3 551292.0 0
43779.6 551013.0 0
48637.7 551098.0 0
52137.9 552967.0 0
52621.3 549601.0 0
56787.8 551854.0 0
62287.9 552524.0 0
65139.5 548929.0 0
67266.0 552923.0 0
71198.8 550494.0 0
78296.9 549709.0 0
80848.8 553549.0 0
84920.5 550160.0 0
87052.1 553729.0 0
89590.3 551902.0 0
94661.1 553240.0 0
101121.0 549707.0 0
106399.0 551710.0 0
112308.0 551078.0 0
116602.0 550557.0 0
119709.0 553099.0 0
124734.0 552058.0 0
136640.0 549841.0 0
143109.0 549083.0 0
140718.0 552492.0 0
148051.0 551591.0 0
152965.0 553152.0 0
157656.0 550009.0 0
162124.0 552213.0 0
166646.0 551515.0 0
171538.0 550048.0 0
175927.0 549993.0 0
180255.0 553128.0 0
184136.0 551213.0 0
188940.0 551765.0 0
194738.0 550848.0 0
203580.0 548845.0 0
200039.0 551614.0 0
206997.0 552475.0 0
216543.0 549021.0 0
217947.0 552831.0 0
220532.0 550783.0 0
225345.0 549938.0 0
230563.0 549612.0 0
235955.0 549483.0 0
241085.0 549365.0 0
246395.0 551564.0 0
249538.0 548669.0 0
251824.0 551195.0 0
255615.0 549287.0 0
260262.0 549346.0 0
265810.0 549249.0 0
271129.0 551469.0 0
276035.0 549651.0 0
280823.0 551645.0 0
285571.0 549053.0 0
289889.0 551883.0 0
294934.0 549768.0 0
301060.0 550618.0 0
306052.0 550714.0 0
310639.0 551805.0 0
314911.0 548374.0 0
314749.0 553179.0 0
318972.0 551937.0 0
324119.0 550472.0 0
329781.0 551601.0 0
335547.0 551879.0 0
341110.0 551794.0 0
345276.0 550313.0 0
349665.0 553043.0 0
354836.0 550477.0 0
360088.0 550859.0 0
364650.0 550530.0 0
368806.0 549080.0 0
369067.0 553702.0 0
373310.0 550568.0 0
376956.0 553499.0 0
378680.0 549587.0 0
383979.0 550380.0 0
390306.0 550326.0 0
395445.0 551894.0 0
399268.0 550433.0 0
408211.0 552910.0 0
413720.0 553425.0 0
419781.0 552909.0 0
424407.0 550317.0 0
429346.0 549217.0 0
432299.0 553475.0 0
433812.0 549913.0 0
437088.0 552482.0 0
442327.0 553018.0 0
447538.0 551802.0 0
452823.0 551791.0 0
458174.0 551540.0 0
463344.0 552773.0 0
468369.0 553635.0 0
471670.0 550180.0 0
475049.0 551517.0 0
478388.0 550000.0 0
484933.0 549555.0 0
481534.0 552963.0 0
489410.0 552166.0 0
493652.0 550792.0 0
497566.0 552739.0 0
2741.51 554495.0 0
4977.02 559042.0 0
8451.54 554638.0 0
9566.49 559169.0 0
12813.2 556952.0 0
17124.3 556402.0 0
21234.3 554379.0 0
21253.7 558889.0 0
30006.5 554460.0 0
26291.5 556519.0 0
32078.2 557627.0 0
36217.6 555934.0 0
41753.6 555062.0 0
43934.9 558367.0 0
46237.5 554922.0 0
53619.4 557089.0 0
59368.9 556878.0 0
64541.7 557075.0 0
69115.8 557057.0 0
74902.1 555001.0 0
80292.2 558646.0 0
84689.0 556163.0 0
89656.6 556537.0 0
94064.4 558971.0 0
100777.0 555318.0 0
105707.0 556838.0 0
110405.0 555911.0 0
115439.0 555346.0 0
121138.0 557568.0 0
126011.0 556876.0 0
130684.0 553511.0 0
136550.0 556393.0 0
141280.0 558044.0 0
144086.0 554535.0 0
148951.0 555648.0 0
152746.0 558653.0 0
158324.0 556056.0 0
164832.0 555828.0 0
169846.0 555267.0 0
175300.0 554337.0 0
179431.0 557520.0 0
184413.0 556043.0 0
191126.0 555925.0 0
195572.0 556179.0 0
202997.0 553825.0 0
200277.0 556243.0 0
204726.0 557008.0 0
213329.0 553543.0 0
209422.0 556692.0 0
217842.0 556897.0 0
222365.0 554000.0 0
222150.0 557670.0 0
228225.0 554416.0 0
232963.0 553585.0 0
231025.0 558108.0 0
238489.0 553591.0 0
235897.0 557680.0 0
242716.0 553539.0 0
241162.0 557926.0 0
249346.0 554619.0 0
253022.0 558069.0 0
255582.0 553496.0 0
259958.0 554266.0 0
258149.0 558234.0 0
264724.0 554478.0 0
262065.0 557880.0 0
269545.0 556555.0 0
275601.0 555495.0 0
280699.0 555949.0 0
285392.0 554888.0 0
291764.0 556681.0 0
297754.0 555563.0 0
303179.0 554939.0 0
307381.0 554911.0 0
311815.0 556845.0 0
317473.0 557322.0 0
322095.0 555350.0 0
326615.0 555265.0 0
331692.0 556487.0 0
339482.0 556808.0 0
344877.0 555186.0 0
349171.0 558193.0 0
353747.0 555844.0 0
358028.0 554663.0 0
362264.0 554503.0 0
365736.0 557614.0 0
373430.0 555081.0 0
376842.0 558032.0 0
381327.0 555293.0 0
386992.0 555671.0 0
392580.0 555560.0 0
397337.0 556033.0 0
402583.0 554440.0 0
410363.0 557236.0 0
415045.0 558871.0 0
419288.0 557536.0 0
426991.0 554547.0 0
423276.0 558278.0 0
430891.0 557388.0 0
435497.0 557484.0 0
440712.0 558009.0 0
445850.0 557323.0 0
450420.0 555884.0 0
452667.0 558886.0 0
455217.0 555956.0 0
460171.0 556826.0 0
465360.0 557484.0 0
472872.0 554410.0 0
470247.0 558062.0 0
477452.0 554542.0 0
474866.0 558102.0 0
481232.0 557738.0 0
485499.0 554872.0 0
493114.0 554595.0 0
489715.0 556730.0 0
493872.0 558685.0 0
497908.0 556968.0 0
1218.54 560403.0 0
2827.9 564100.0 0
7981.86 563188.0 0
13342.9 561769.0 0
17921.7 561591.0 0
24707.7 560859.0 0
21913.2 563835.0 0
28993.6 561904.0 0
34528.3 562957.0 0
39193.7 559661.0 0
43972.3 562830.0 0
48318.8 559420.0 0
52222.3 562000.0 0
56901.3 561686.0 0
61975.8 561357.0 0
67347.4 561730.0 0
71949.0 560028.0 0
76119.4 562071.0 0
80907.4 563793.0 0
86404.9 561640.0 0
91770.2 562997.0 0
98633.6 560601.0 0
103258.0 560255.0 0
108244.0 560748.0 0
113027.0 559641.0 0
117027.0 559659.0 0
120302.0 561714.0 0
124450.0 561270.0 0
130789.0 560814.0 0
136530.0 561348.0 0
140753.0 562494.0 0
144910.0 559935.0 0
148131.0 561783.0 0
148501.0 558924.0 0
157228.0 562203.0 0
162545.0 560292.0 0
167526.0 559643.0 0
173214.0 560200.0 0
177781.0 560623.0 0
182680.0 561157.0 0
188225.0 560053.0 0
194145.0 561856.0 0
199376.0 560368.0 0
204029.0 561807.0 0
209009.0 561027.0 0
213259.0 558883.0 0
217891.0 561547.0 0
221905.0 561413.0 0
226228.0 558702.0 0
225432.0 562943.0 0
236543.0 562823.0 0
246892.0 559061.0 0
252030.0 562951.0 0
256487.0 562591.0 0
265752.0 560210.0 0
272869.0 560387.0 0
278952.0 559858.0 0
282682.0 558774.0 0
282562.0 563072.0 0
286352.0 559968.0 0
290268.0 561179.0 0
295289.0 561417.0 0
305387.0 559126.0 0
300976.0 559720.0 0
309495.0 560735.0 0
313987.0 561919.0 0
318966.0 562266.0 0
324101.0 560402.0 0
329755.0 561367.0 0
335316.0 559669.0 0
333896.0 563723.0 0
339764.0 563322.0 0
344651.0 560077.0 0
348438.0 563508.0 0
353973.0 561262.0 0
360246.0 559630.0 0
365807.0 563435.0 0
371228.0 559714.0 0
381298.0 560319.0 0
386450.0 561562.0 0
390804.0 559478.0 0
395322.0 560576.0 0
400594.0 559900.0 0
402405.0 563341.0 0
405902.0 559201.0 0
410547.0 562298.0 0
415493.0 563885.0 0
419731.0 561694.0 0
427495.0 559530.0 0
424613.0 562867.0 0
431878.0 562209.0 0
437923.0 562732.0 0
443744.0 562444.0 0
449959.0 562843.0 0
456703.0 561497.0 0
462400.0 560962.0 0
467339.0 562549.0 0
472859.0 562166.0 0
477761.0 561443.0 0
482058.0 562462.0 0
486209.0 560102.0 0
490465.0 560794.0 0
493534.0 563291.0 0
497788.0 561166.0 0
1348.57 567939.0 0
6446.01 568129.0 0
11311.4 566539.0 0
16926.8 566698.0 0
26140.9 566536.0 0
31083.1 566853.0 0
35923.6 568166.0 0
39380.9 564810.0 0
40743.8 568989.0 0
45056.3 567652.0 0
48686.1 564631.0 0
53311.3 566430.0 0
58598.0 566778.0 0
63877.4 566130.0 0
68412.2 566497.0 0
72655.3 565739.0 0
77280.4 566955.0 0
84532.1 568309.0 0
89808.1 566714.0 0
96057.9 564999.0 0
101385.0 564892.0 0
106647.0 566188.0 0
112037.0 564711.0 0
117168.0 564489.0 0
114736.0 568616.0 0
122177.0 565833.0 0
127262.0 566097.0 0
131585.0 566727.0 0
135976.0 565614.0 0
140605.0 567591.0 0
145528.0 565256.0 0
151684.0 564277.0 0
149216.0 568722.0 0
155585.0 568384.0 0
160457.0 566538.0 0
164779.0 564661.0 0
169096.0 563879.0 0
173210.0 566294.0 0
177767.0 564229.0 0
182182.0 566086.0 0
185986.0 564134.0 0
189943.0 566250.0 0
199601.0 565443.0 0
207952.0 565478.0 0
213233.0 564053.0 0
230434.0 563548.0 0
242329.0 563728.0 0
247948.0 564537.0 0
261326.0 563132.0 0
266101.0 565948.0 0
271687.0 564913.0 0
277177.0 564751.0 0
287577.0 565272.0 0
292496.0 565709.0 0
300264.0 564279.0 0
296392.0 567140.0 0
306485.0 565282.0 0
312288.0 566775.0 0
317332.0 566956.0 0
321595.0 565370.0 0
325892.0 565925.0 0
330685.0 567139.0 0
335898.0 568541.0 0
344503.0 566116.0 0
349975.0 568667.0 0
354856.0 566975.0 0
360165.0 565802.0 0
366862.0 568368.0 0
370836.0 566508.0 0
376583.0 564145.0 0
379842.0 568245.0 0
382556.0 565228.0 0
387467.0 566867.0 0
391391.0 563860.0 0
394209.0 567986.0 0
398645.0 564939.0 0
405800.0 564021.0 0
403189.0 568091.0 0
412308.0 567234.0 0
417010.0 568306.0 0
421213.0 566234.0 0
425994.0 567834.0 0
430532.0 567018.0 0
434679.0 566748.0 0
441104.0 567518.0 0
446022.0 566916.0 0
455893.0 567011.0 0
461124.0 564982.0 0
465564.0 568146.0 0
471928.0 567798.0 0
477938.0 566524.0 0
482671.0 566343.0 0
488996.0 564466.0 0
492836.0 568560.0 0
497573.0 565651.0 0
2619.83 571255.0 0
6390.3 572442.0 0
11567.1 572307.0 0
18219.0 572968.0 0
22012.4 569031.0 0
27962.0 571521.0 0
33380.1 572919.0 0
38758.0 573332.0 0
43811.6 571644.0 0
49567.2 571080.0 0
55516.2 571063.0 0
60665.6 571717.0 0
66007.7 571074.0 0
70663.3 569815.0 0
74910.1 570990.0 0
79512.0 571003.0 0
85789.1 573117.0 0
89218.0 571519.0 0
93537.7 569499.0 0
98834.2 569748.0 0
103486.0 569642.0 0
110479.0 569790.0 0
118826.0 569581.0 0
124824.0 569665.0 0
129288.0 570024.0 0
134386.0 571072.0 0
341216.0 569078.0 0
345536.0 569935.0 0
358228.0 570503.0 0
363129.0 570095.0 0
371229.0 570970.0 0
374473.0 569232.0 0
383597.0 570251.0 0
390140.0 571155.0 0
398602.0 570160.0 0
403992.0 573028.0 0
408205.0 570259.0 0
413590.0 572460.0 0
421329.0 571169.0 0
426099.0 572980.0 0
431252.0 571702.0 0
436757.0 571073.0 0
441565.0 572855.0 0
445822.0 571208.0 0
450799.0 569398.0 0
455659.0 571614.0 0
460145.0 569900.0 0
463868.0 573156.0 0
469035.0 573302.0 0
476462.0 571782.0 0
481309.0 570403.0 0
486651.0 569339.0 0
490230.0 573275.0 0
497910.0 570083.0 0
495227.0 573049.0 0
452377.0 575031.0 0
485883.0 574372.0 0
POINT_DATA 5000
SCALARS Radius float 1
LOOKUP_TABLE default
5120.0 6182.6 6810.52 5073.35 5415.48 4834.9 3863.18 2356.98 4998.37 5492.18 5258.36 5061.3 3951.75 3163.97 3642.12 5812.43 5906.14 7513.1 5254.28 5733.48 5580.89 6110.27 5840.26 5670.04 5085.53 5351.6 5867.73 5013.56 4499.64 5542.27 5122.66 5484.19 4688.68 4402.52 4436.4 4182.53 4672.91 3588.44 5176.86 5645.7 4366.19 5553.16 3672.51 2938.66 4008.92 5561.06 6716.79 6044.04 3850.77 5325.36 5484.83 5538.89 4715.55 6059.59 5701.86 4375.68 4238.81 5054.98 6030.06 3557.27 5170.02 4927.31 5185.34 4517.56 4432.58 5903.42 3761.32 4118.05 5065.13 4940.78 3615.22 5305.17 4380.59 5546.39 6759.9 4730.36 5926.61 2720.68 4955.55 3563.63 4468.59 5885.03 5325.02 5200.76 4862.64 5205.43 6684.56 3955.56 5292.64 2635.86 6166.5 5936.02 4231.61 3379.84 7613.27 4133.88 5945.65 5418.62 7021.47 5416.38 6051.14 5836.15 4345.55 2837.58 3653.41 5246.2 5017.13 3673.74 6116.18 3968.64 7447.37 4385.06 4688.67 7184.19 4290.3 3867.67 4861.08 3942.53 3607.45 3589.27 4951.03 4094.62 4665.12 6483.19 6230.49 5493.32 4601.27 4195.44 5740.68 3261.21 4277.89 6704.06 5600.93 3871.88 3856.01 4827.23 4390.66 5279.39 4911.47 5803.39 4924.6 4733.32 2924.37 2899.43 5399.73 4003.05 4827.82 4805.87 5759.91 4333.2 3260.67 3936.02 4927.02 4174.52 5109.54 7054.71 3641.64 5747.75 5539.32 4796.33 6496.85 5541.59 4124.71 5728.85 6337.56 5863.59 4381.97 3255.82 5242.73 2812.98 4065.69 5603.15 5390.22 4712.33 5227.21 3997.1 3038.33 3383.4 4780.03 3856.1 5980.74 3829.13 6458.82 5489.43 5527.54 5054.25 7325.81 5360.19 4794.96 4874.39 4839.34 5083.08 2980.99 5525.39 3998.5 4024.3 6257.19 4737.14 4695.45 4686.65 4660.72 6038.78 5123.52 4295.38 4392.68 5495.39 4044.71 4487.31 5816.2 3091.3 5693.81 5789.98 6138.47 5573.7 4727.62 6425.26 6186.19 4840.01 6834.49 7933.0 5938.34 5555.28 6394.38 5118.27 5169.36 5834.74 5556.96 3888.21 5697.78 3921.18 4667.36 5529.52 3554.9 3996.0 4002.16 4138.16 2540.31 6029.66 6302.8 5697.4 4055.8 5206.78 5280.17 5028.96 5143.58 4484.76 5611.2 4220.65 4455.12 5173.87 5380.13 5711.87 5932.23 5788.23 6052.7 5891.05 6902.81 7199.21 5252.48 6124.89 4015.92 5708.81 4778.34 5043.05 4684.5 5120.49 5409.61 4270.95 4005.44 5555.88 6732.43 6362.12 3866.16 5152.36 4511.82 5826.64 6820.42 4894.16 4896.52 4941.22 5791.61 3798.62 5581.75 3666.57 4254.17 5615.42 4091.31 4523.7 5255.32 5337.48 5542.21 5924.89 3486.22 6894.71 4414.54 5262.61 6038.2 5094.81 5713.22 5861.71 3183.98 4524.28 5017.78 3794.63 3778.1 4727.24 6959.81 4816.2 6321.41 3372.79 5282.64 4479.66 6392.01 3369.13 6644.76 5308.1 6372.62 7565.34 5637.59 5481.78 4937.14 5551.36 5201.36 6038.14 4306.53 6135.57 5972.06 4312.67 4359.04 5015.69 6175.81 6677.09 4829.35 5813.4 4089.76 5201.67 4751.02 5184.56 3192.41 4715.72 4987.87 4669.66 5367.2 3043.85 6730.19 4907.89 4937.02 6037.08 4929.8 4049.23 3103.0 6084.86 3307.12 4467.94 5478.92 4933.21 4850.81 4723.12 5024.9 5659.17 5998.38 4270.24 4989.15 4947.52 3417.33 4164.13 4520.1 4305.57 5874.89 3791.79 5526.55 4754.05 4951.47 6084.93 3315.57 4764.96 4808.52 5607.24 5461.13 4726.76 3599.45 5655.21 5629.19 5091.39 6756.95 5601.05 3586.91 3115.91 4948.92 5810.84 5094.44 5375.47 4655.49 4809.42 4717.05 5287.2 4562.29 5423.8 5013.13 5080.66 4926.42 4642.34 5248.77 5153.74 4165.81 4293.03 4424.7 4389.21 4925.44 5246.61 5215.15 5046.33 5053.92 5839.13 5090.24 5923.5 2240.39 6324.23 4382.74 4384.42 4516.43 4749.8 4230.54 3748.24 6163.38 4566.18 3459.9 4964.09 5856.11 4234.94 4109.88 4980.85 5714.58 5110.45 3329.99 5208.32 4083.97 4528.09 3556.85 3895.51 4128.98 6291.51 5882.89 6246.22 4307.28 4100.38 5804.71 6352.26 5020.12 4073.93 3735.44 4907.06 4786.6 4645.41 5096.78 5740.84 4727.24 4612.68 4651.28 4362.19 4493.48 3693.63 3937.74 5082.6 6061.47 4093.08 4997.27 4449.22 5543.27 5628.24 3327.49 3960.8 5992.26 4923.9 4973.78 3947.47 3296.27 4607.02 4713.25 6243.0 6673.96 5174.89 4188.32 5370.52 4739.42 5538.93 3697.96 4899.11 5727.3 4242.52 4745.45 3847.38 5356.51 3057.03 5163.9 4973.83 4433.59 5530.87 3320.52 5293.9 4685.34 4151.94 5927.43 5492.26 6355.42 5244.78 5690.56 5762.84 5478.47 6142.37 5806.08 3982.23 4853.39 3130.65 5365.89 5409.33 5070.39 4511.54 4613.31 5196.0 5091.68 6119.09 4204.84 5069.25 5048.89 4288.3 5441.96 4652.29 5774.81 4495.87 5344.77 4723.48 4278.07 5281.28 5495.68 2631.9 3818.59 4863.72 6043.3 6445.94 4129.43 3912.37 4310.18 4320.28 6142.94 6342.25 3843.58 4329.05 4931.38 6082.81 3191.99 6327.9 4220.88 6640.13 5210.03 5351.39 5119.37 4583.31 4336.42 5243.29 3402.32 7589.94 5004.67 4466.03 4898.94 4178.15 4733.04 7531.29 3991.03 5935.03 3161.47 3435.9 6826.57 3746.31 4788.87 5498.32 5027.98 5346.27 5097.87 7267.18 4087.15 4143.08 5489.34 5002.48 5708.14 5952.75 4262.82 4281.49 5537.72 6332.36 4218.06 5542.14 6691.39 4602.25 4501.51 4792.73 4736.58 5513.6 4556.36 5110.37 3485.26 3240.09 5664.98 4659.59 4548.16 4048.37 5449.18 5367.52 6519.71 4714.54 3629.96 3092.35 3320.11 6022.17 6851.54 4503.89 4306.11 5903.66 4528.49 5419.37 5985.29 4247.23 4268.65 4694.83 4354.08 5788.66 4520.62 3903.75 4755.47 4485.99 6390.78 5475.8 7435.25 5543.46 6022.72 5527.33 6475.1 2691.29 6255.18 4758.21 7500.97 6623.85 3920.42 5102.36 4931.53 8332.24 7134.64 5480.13 4270.53 4790.08 4194.5 5191.63 5082.47 5344.25 5925.6 6013.14 5379.87 3708.04 4901.41 5264.06 5138.31 4551.24 4621.75 3369.23 5358.59 3688.8 4515.71 6202.55 4322.15 5025.39 5030.91 5893.5 5507.24 5101.59 3813.22 5570.3 5935.47 5234.29 5313.66 5512.23 2651.49 5275.32 5349.31 4649.22 5394.55 5509.42 4256.43 5936.36 5229.48 5475.7 4016.18 5127.16 5314.69 4244.99 6050.81 4249.46 5560.26 4643.31 5965.81 2330.66 6917.52 4969.21 5402.21 6256.02 4668.71 4277.88 7228.46 3948.23 5228.18 5787.31 4342.9 6122.55 2739.94 6155.31 5978.9 6308.71 3629.62 4187.56 4840.84 4997.27 5344.0 5135.69 4301.06 4593.7 6045.46 4763.45 5681.38 3771.48 4043.57 4478.15 4138.42 5987.17 3979.82 4602.86 2765.2 4581.13 4746.52 3856.59 4219.07 5413.79 3610.4 6387.01 6338.89 7111.16 3817.13 5023.15 4377.07 4547.19 3844.9 3695.36 3963.86 3848.93 5076.35 6020.48 5273.35 5200.05 4091.8 4645.58 5670.2 4711.62 4114.24 5166.79 2976.22 5094.52 5417.15 2682.24 4946.74 5928.32 3950.63 5415.19 4612.62 5526.75 4275.57 5435.74 5327.45 6185.89 4750.17 3702.37 5660.85 4177.19 3691.0 3990.25 4752.51 4989.09 4880.14 2845.98 5320.92 5269.18 6362.14 4406.1 6719.88 5065.11 5978.82 4553.56 4223.33 5911.67 5329.64 4716.19 6695.82 3456.98 5514.76 6405.76 4290.14 4020.32 4150.99 3815.26 5445.87 4216.92 4571.7 4271.69 5198.77 4107.03 5147.67 5643.58 4292.06 5577.04 6318.18 5006.58 5011.31 4481.53 5586.81 3948.17 3689.45 5572.95 6723.16 5372.61 5584.06 3686.21 6480.17 6445.22 4564.34 3838.56 4871.44 6248.81 6375.99 4853.02 6259.23 5181.4 3457.48 4998.21 4662.56 3405.98 3931.07 3688.16 7440.72 4681.72 4945.39 5996.33 5661.62 6631.19 3619.07 4467.04 5626.61 6385.23 5817.25 2614.4 2983.99 6363.92 3997.96 4439.35 3460.94 6184.4 3758.07 4373.45 3587.05 6229.37 4982.31 5289.52 5314.85 4305.43 5034.59 5450.44 3927.99 4942.77 5080.18 5069.84 4051.44 5266.5 5868.82 4050.9 3323.28 6049.55 5709.62 5835.78 5941.72 4877.67 3498.2 4245.72 6562.18 4704.72 4177.94 5908.1 4344.58 6048.7 4742.68 5634.83 4502.5 5499.11 5922.5 3929.19 3633.87 3970.25 4138.46 4850.01 2775.04 3821.72 5215.05 6035.6 4986.77 5137.34 5330.45 5423.0 5125.78 5077.33 3824.16 5045.38 3868.18 5350.88 5130.91 4948.5 5402.24 4527.02 4519.22 4531.14 5013.42 5651.07 4962.77 5872.05 5323.3 5088.44 4635.6 4256.67 6079.11 6430.39 5376.71 3949.6 5703.6 6326.18 4867.08 6648.68 4713.74 5407.78 5061.98 6205.93 6632.99 5830.72 4923.24 3828.81 5309.98 4236.14 6718.19 4407.87 3848.54 4307.48 5282.91 5941.4 5331.02 6510.17 4871.96 4263.33 4454.63 5742.65 4066.38 4523.88 3279.1 4241.89 4978.31 5054.74 4099.77 4981.9 4414.48 5794.24 4537.32 4541.21 4127.74 3066.13 4302.5 2476.04 4156.38 5896.46 6009.88 5495.84 6268.1 4164.68 3784.5 5782.6 5113.21 4862.21 4011.77 4374.35 4527.08 5347.48 4810.12 6396.74 6898.19 5526.14 5198.29 6449.45 3975.31 4044.45 5262.19 5344.43 6070.58 4373.47 6034.41 5452.83 5383.07 4959.34 4790.78 4591.87 4247.15 6552.22 4602.85 5210.48 7552.94 6101.92 3627.55 6239.84 5865.39 4427.28 3082.32 5370.85 3658.37 3178.54 4765.02 5629.39 4448.13 5070.29 4807.28 4266.03 5075.55 5280.69 4220.03 6923.84 4084.49 6179.96 4537.6 5147.36 4419.61 7177.44 4563.46 4082.57 5733.62 5169.9 5282.51 4425.84 3797.33 7256.35 5592.32 4800.69 4863.23 5912.61 4402.67 5381.16 4403.98 4948.98 4560.84 5227.52 5163.02 4729.43 4656.78 5105.16 5991.09 4092.24 6006.16 4678.38 5050.65 5448.61 5316.75 5022.8 4827.33 6133.92 7055.53 3719.84 4178.4 5013.67 5669.65 5253.55 5820.48 7034.11 6261.42 2586.12 6125.34 5965.78 5252.34 7099.43 2965.79 5315.4 5776.37 4516.28 5678.96 3627.82 4244.9 6048.86 4285.32 5490.43 5022.28 5197.52 5178.99 6169.11 5615.35 4027.09 4135.62 6422.84 5379.09 4502.18 5534.94 7644.38 4051.34 6004.68 6799.4 4409.63 5521.25 3661.9 5107.23 5136.08 5949.46 5558.68 3776.94 4010.57 2684.03 6157.04 4768.61 2261.36 4522.21 6191.29 5506.19 6719.94 5449.46 4950.67 6166.29 5703.07 6113.54 4662.43 6260.79 4043.66 3963.76 5528.53 6553.94 5255.18 5726.66 3004.16 5460.65 4460.92 5945.89 4105.55 4042.28 4340.76 6566.1 3555.86 6065.22 5565.13 6386.78 4470.61 6193.35 6086.96 3701.27 5233.78 4562.74 5126.91 5776.57 3942.07 5133.97 7443.72 3937.08 6600.94 5513.57 5371.02 5729.23 5260.34 5206.48 5934.22 6586.45 3780.23 5826.04 3471.03 5188.81 4359.62 3745.84 5011.84 5696.88 6057.22 5690.26 6946.21 5062.71 4289.17 5433.8 4497.59 5975.63 4274.61 6314.07 4410.55 4287.63 3921.08 4190.31 5486.68 5100.25 6894.26 4049.02 4470.4 4986.51 5311.03 5339.38 5255.12 4285.66 4896.11 5172.53 6132.95 5801.99 5266.22 4860.33 5226.97 3685.13 3312.06 5180.76 3361.26 3418.99 4480.95 4993.35 5278.36 6218.95 5222.16 5533.72 5533.42 4802.32 4599.38 5518.57 5246.47 4187.31 3240.51 7422.36 5161.01 4298.15 5227.59 4628.4 5832.37 6051.83 5453.6 5409.63 5294.77 3077.84 4709.05 4630.82 4813.08 6799.88 4540.86 3062.43 5426.78 4767.78 5652.0 5235.17 4779.5 4435.36 4421.12 5254.49 4996.99 4221.28 4456.39 4631.83 4384.88 6887.27 4806.34 6008.49 5480.83 7144.24 5653.9 3600.43 5598.74 4906.82 4788.58 5131.24 6155.1 4709.35 5196.67 6496.67 5876.71 5226.0 5624.49 3095.48 5339.78 5762.59 4166.08 4861.06 3979.26 5960.66 6608.73 3999.48 4203.26 4643.85 4730.41 3923.03 4004.04 5607.14 4156.2 6915.83 5564.02 6072.45 4470.98 6444.77 5083.41 7055.42 5683.61 5443.58 3836.45 5805.86 4558.46 5346.68 5296.29 4611.53 2681.29 3872.61 5094.48 5576.92 4238.4 4318.48 6408.83 3930.79 4004.35 4763.96 5008.63 5754.18 4270.74 5132.68 6293.89 6595.03 4983.39 5366.52 4690.55 5417.8 5146.37 7132.12 3678.08 4836.16 5151.11 5463.48 5730.33 4527.99 5545.46 4543.1 4376.7 5190.61 3764.06 4642.93 3973.12 4263.16 6642.76 6024.75 6109.49 5860.67 5987.42 5990.52 3764.1 2967.38 4835.83 5463.41 4159.35 5225.33 4929.75 4237.98 6045.22 6649.96 4614.3 4896.39 4303.19 5514.84 3633.79 6081.14 4256.57 5421.53 4220.46 4607.85 4287.53 5683.26 5612.21 5046.21 5894.61 4929.14 5687.83 5945.08 5004.23 6442.69 5474.8 6320.71 4373.3 4648.04 4750.78 6262.72 5029.78 3664.11 3365.82 5374.51 6481.79 5320.28 4569.12 4298.67 4796.58 4472.17 5873.69 4962.09 5470.77 5654.31 6062.05 5082.74 4735.33 5411.85 3999.94 4844.57 4027.46 5092.37 3901.8 4864.22 5759.46 5511.88 4512.11 6248.6 5708.99 5687.85 6401.43 5020.71 5997.88 5839.71 4360.23 6234.32 4585.31 5365.24 4586.19 5293.51 4446.06 3450.93 5097.45 4185.61 5737.75 4558.15 2761.07 3778.02 6552.21 4350.12 5227.02 5670.0 4232.16 5300.96 4344.51 5680.94 3781.77 5581.55 5193.01 6550.44 3474.5 8325.01 3860.83 5732.27 4440.81 4523.39 5941.9 5434.47 5829.22 4497.78 5567.93 4243.79 5811.18 5332.65 6451.33 6477.91 5604.35 3091.67 4332.87 6439.37 6420.81 4081.97 5401.99 5134.39 3914.2 5784.3 5769.98 6088.68 2221.99 5937.08 6070.3 5128.57 4135.08 6000.7 5620.74 5139.5 3979.54 5604.21 7493.3 4814.55 3527.05 5833.06 5698.77 6607.87 4163.5 6515.84 4143.78 4123.6 7092.87 5224.12 4850.14 4970.88 6739.08 4471.58 3637.61 5463.38 6098.14 5945.21 5750.71 3493.7 4938.74 6222.42 4200.03 3474.39 5516.95 4831.47 6939.12 4413.85 4406.4 6171.13 6853.85 2395.5 4020.4 4596.75 5941.61 3497.9 5782.48 4933.65 4031.78 6098.1 2435.33 6333.29 4074.48 4477.04 4558.47 3886.68 5731.57 5662.55 5703.74 5737.92 4747.55 3755.95 3056.7 5591.76 5889.35 5010.04 6625.18 5323.91 4275.07 5825.38 4047.87 5099.21 5742.47 6969.28 4917.99 5636.4 4367.78 4095.75 3319.67 3603.51 4298.45 5222.51 6609.84 5135.96 3834.43 5658.37 4707.06 6074.94 5491.37 4250.88 6348.03 3475.67 4792.39 5278.56 5146.37 6917.62 4013.38 5631.14 6137.8 4343.78 5433.65 4442.22 4887.76 5413.31 4669.06 3012.99 6316.56 4811.32 6400.08 4743.59 4715.58 5208.14 5580.92 3317.83 4450.7 3532.3 5151.52 5973.33 3583.21 4347.74 4643.56 5442.32 4863.01 5067.46 3580.58 5356.79 5233.29 3169.67 4312.56 4968.03 4612.06 5204.04 5304.13 5944.09 3306.14 5490.58 4863.79 3464.83 5395.14 4702.06 2477.07 5117.47 2990.77 5724.64 4538.95 4925.63 5965.15 4763.66 4888.6 7042.12 4666.81 4780.2 4797.52 6326.39 6643.85 6343.14 5501.93 5462.21 4020.95 6313.06 5374.98 6345.13 6470.3 4719.7 5313.22 5563.79 5328.22 4151.76 3905.51 4216.17 6484.17 4721.02 3546.71 3493.47 4254.37 5768.57 3374.08 4188.87 5564.23 3735.24 5950.04 4231.83 6574.95 3614.96 6817.57 6853.04 4745.43 5831.96 4539.07 5464.68 2685.81 4475.83 4510.8 7509.24 4394.56 5896.26 4570.98 5388.78 6101.13 4573.72 5599.7 4163.74 4296.69 3665.95 5698.96 6471.42 5283.8 4076.59 4428.14 5164.1 6464.15 4124.49 4972.17 4479.11 6685.4 5699.53 4222.77 4850.06 3783.54 5268.38 5527.23 7038.89 4805.33 3863.67 4814.12 6193.08 5067.56 6069.3 3352.35 2735.53 5263.3 5116.6 4008.15 4909.65 6523.86 7693.4 4286.49 6184.88 5829.32 4396.25 3763.05 5551.95 5092.24 5369.08 5291.9 4518.04 3101.75 4766.06 4009.62 4874.18 4011.37 2081.58 2511.46 2775.69 4778.82 6124.08 5467.84 3361.92 4750.58 5029.47 5053.95 6710.88 3967.48 6667.68 4923.41 4497.31 6213.04 3163.78 4305.16 4721.32 3293.56 5882.65 5092.28 5078.86 4918.77 5163.55 4819.73 6817.32 3382.7 6471.55 5085.71 4319.79 5960.56 5122.63 5774.97 6049.79 5862.86 4390.41 5226.56 4890.5 5274.19 6113.95 4050.08 5599.49 5452.42 4097.57 3436.15 5017.5 5005.85 5711.11 4575.94 5102.75 5021.88 4938.72 4597.29 5956.65 4498.25 5151.21 5931.77 5108.06 5398.64 4222.4 3573.73 4693.52 4568.41 3624.7 5262.35 3420.08 4912.04 4320.42 4691.91 4255.34 5480.3 5064.79 7046.11 3427.63 4146.81 6342.48 5756.75 4587.67 5951.81 3924.14 6918.35 6238.32 6804.79 6372.13 5369.5 5404.01 6016.19 5535.91 3230.13 5714.25 5955.86 6176.67 5325.96 5412.24 6332.01 5016.02 7044.29 4234.18 7085.01 5980.95 3936.95 6153.94 6836.82 3862.77 5887.01 5168.35 4631.99 3747.03 2783.85 5388.39 4356.49 4326.48 4437.07 3994.07 3449.37 4219.94 5491.9 6405.0 4264.91 4659.16 3918.87 5549.49 5423.42 4901.2 6605.86 6505.78 5657.36 4785.25 3619.79 6519.43 4270.15 5876.64 6306.21 5926.11 5253.37 5235.11 5211.38 3830.46 6031.67 6413.11 5529.42 5274.14 4739.14 5257.12 4636.5 5100.1 4434.19 4903.82 4940.42 3954.91 3703.1 4946.42 4371.99 5923.4 4623.61 4082.47 3295.83 2965.01 6413.02 6235.57 6263.44 4863.27 3492.19 4584.5 4118.84 6766.43 3623.87 5916.16 2315.64 4703.08 6934.37 4488.85 3731.84 3981.07 4579.69 3554.48 4901.07 5186.3 6496.52 5966.61 5325.44 4893.49 4834.87 3672.21 5760.22 5938.17 4200.09 4795.43 5097.95 4914.45 4698.87 4000.43 3984.88 4661.03 5160.59 5318.53 4732.09 4281.98 7165.9 5344.83 4701.5 4863.97 4449.98 4771.65 4840.44 5093.82 6639.64 5212.43 3687.65 5454.12 4834.3 6348.54 4066.57 5642.35 5156.76 6357.47 6101.57 4891.38 4793.65 4532.89 2949.12 4533.37 4848.46 5742.09 2779.99 5887.38 4581.37 4920.21 4049.16 5851.61 5478.11 5526.31 5030.15 3858.17 3477.1 4740.98 3185.39 5128.77 3728.18 5335.47 4526.81 5633.61 5048.19 6799.23 5907.46 6740.71 5399.29 5789.55 4633.05 5971.22 2275.45 4909.31 6522.59 5012.5 5711.62 5435.19 3562.79 5461.55 7093.13 3298.2 6865.76 5424.46 5266.01 5767.9 2978.76 2040.66 6515.8 7016.27 5384.76 6622.11 6138.12 4689.15 4428.78 6790.73 4965.89 5746.28 5659.95 5187.7 6090.91 3561.29 5409.66 4152.85 4537.14 5551.9 4219.78 4963.34 4260.92 5499.39 5644.82 4407.9 4440.57 5203.08 5412.31 5548.29 3087.09 7480.41 5163.77 6027.62 5765.42 3423.15 5010.2 6098.95 6123.03 4997.83 3718.69 3991.42 4388.63 6192.0 4514.79 2216.82 4940.28 4509.89 5885.28 6752.75 3004.34 5269.38 5607.3 4811.76 2928.82 5313.12 5498.42 3344.57 5351.56 6448.66 5220.76 6945.98 5138.2 5783.48 7001.83 4504.35 5012.97 4036.91 5589.37 5439.49 5110.11 6379.14 5216.26 4887.52 5478.95 3851.85 6318.23 4058.87 4206.98 5174.75 5932.07 4984.46 5948.71 3856.53 5460.89 6040.74 5260.85 2884.65 5393.65 5807.46 6942.34 4648.21 4393.16 3658.05 4549.69 3311.29 6423.81 6192.77 3644.78 4312.15 4078.93 5934.82 4501.78 7122.87 3572.94 4243.26 5797.36 5001.58 4153.84 4888.27 5119.86 4592.15 6487.56 5084.17 4854.11 4901.44 4998.22 5533.19 5417.21 6602.43 4383.56 4798.17 4990.79 5166.79 4953.1 4516.53 6449.64 2895.63 5818.95 3940.49 4093.99 4857.84 6464.8 4908.49 4962.21 5884.9 5089.62 3685.65 3685.13 4590.55 4673.35 5243.43 4655.16 3876.21 4741.26 5920.32 5869.4 4916.22 4186.6 3701.16 5251.4 3867.19 4345.67 4453.64 4188.3 5511.6 5019.93 5081.78 4459.28 3885.86 5235.29 4255.31 6116.33 5453.3 3838.47 4479.94 2588.37 6250.23 4718.54 5887.15 4435.51 6736.03 8659.64 5374.07 4055.54 4588.7 3766.55 5683.95 5469.13 4233.8 4976.12 5453.98 4817.16 5148.08 5653.03 5578.94 7610.49 6579.31 4286.17 5323.55 3022.6 5375.1 3804.5 4172.6 4638.18 5211.6 4196.37 5806.31 3556.79 5456.71 4453.97 3503.41 7317.04 3971.08 6412.67 6204.65 4482.9 4593.7 6550.4 4349.13 3766.69 4891.67 6818.91 3503.65 3634.5 4027.63 6631.28 6571.31 5420.67 4392.65 6413.15 6103.11 5048.55 6459.51 4024.31 4955.16 5844.72 3992.97 4147.31 5989.05 4054.22 7228.94 4441.22 4961.99 5853.89 6551.93 4595.12 3110.13 4386.8 6484.43 4625.67 3485.54 4458.64 4583.52 6418.11 6015.02 4922.49 5244.22 5585.14 7039.98 4820.17 4729.42 5089.26 3886.72 5415.45 3776.8 5096.43 6156.21 6104.26 3568.28 5583.61 5425.98 5996.66 6479.39 5079.22 4122.92 4997.91 3604.14 4684.44 4452.54 5381.54 4406.05 4749.59 4680.94 3468.42 4858.44 5799.69 5571.72 5689.26 4992.42 5297.19 6022.7 4255.85 4940.84 5895.77 5097.69 4765.72 6261.75 4517.73 5177.64 3757.34 2908.7 4039.91 6415.61 4338.08 4541.8 5660.16 6134.99 5424.88 5191.08 4062.5 4199.45 5415.85 7234.66 4207.54 6599.66 4886.12 6419.12 4936.96 6107.89 4301.61 3184.64 4446.84 5206.33 5530.49 5065.26 5660.55 4304.41 6789.23 3989.7 4157.29 5107.0 4777.03 4246.61 6212.15 3684.56 6813.72 6028.09 5327.75 5452.36 4896.65 6486.37 5561.74 6083.28 6100.73 4198.94 4745.79 5470.04 4908.75 4211.82 6556.26 5684.25 5438.92 4244.49 5036.98 5513.8 5188.53 4521.75 3429.57 5569.2 5350.88 4642.74 6735.97 5305.59 5416.45 6114.89 4330.58 5754.6 3288.01 4904.51 2202.77 6870.97 5751.15 5950.88 4149.55 5474.01 6201.86 7554.58 3380.69 4140.4 3639.44 5446.4 4725.01 5966.75 5510.9 3657.69 4505.28 4883.63 3492.83 4971.29 6280.13 3684.15 5832.29 4438.76 6006.89 6456.58 4618.73 3814.65 4159.81 3965.3 5244.98 5792.98 6592.93 4385.81 6350.71 4034.05 6436.74 2460.79 4456.11 4653.83 6063.64 4986.71 7382.3 4405.42 3598.08 2995.67 4599.81 4022.56 5522.21 5698.23 5810.77 5828.35 5089.1 2711.19 5876.72 4028.32 5236.43 3809.69 4099.92 4771.13 3208.96 7051.9 5285.07 4680.14 4608.41 4732.09 4184.23 4833.46 3988.3 5857.79 5750.07 6136.49 4642.66 6543.13 5276.7 5149.72 4687.64 4752.14 4378.3 4419.71 5411.02 4950.97 5037.06 4989.56 5175.29 5842.56 4863.96 4094.73 6200.54 5148.58 4652.01 3548.39 3583.49 3673.28 5421.64 5052.84 4858.51 3375.28 4366.74 5625.65 4603.5 4647.67 4214.44 4481.76 5375.12 5378.23 5452.78 4787.97 4356.36 3746.36 4892.44 4741.28 5069.89 4215.2 2205.51 5361.87 6502.97 4783.07 4609.02 4946.23 4852.58 4532.7 4504.86 5975.23 4473.29 4788.08 6163.54 5212.37 2628.22 6003.78 5058.51 4901.29 4124.76 4050.03 4775.04 4120.07 4813.33 4952.52 4882.66 3840.21 6746.66 5410.33 4954.76 3908.56 4844.83 5244.78 3636.15 5652.87 5483.7 5135.63 6384.7 4355.83 5952.38 5351.86 3896.27 6056.87 5230.02 5307.35 4342.18 5166.89 5491.63 5725.37 3868.62 6102.98 5138.33 3743.76 3425.69 6711.21 5510.45 4730.14 2606.51 3994.39 4941.02 3864.92 6119.99 2955.36 3668.93 4960.64 4128.1 5372.82 4983.3 4402.17 7778.01 5690.96 5798.38 3862.91 5805.1 5096.24 4125.9 5366.11 6171.71 5039.12 3628.89 3908.98 4668.88 6589.82 5027.43 3772.3 4855.01 7300.58 4714.83 3608.06 5474.15 7519.2 4884.59 6633.61 3858.06 5217.95 4478.6 4083.79 6355.68 5484.36 4511.7 4144.57 4304.63 4187.94 4351.38 5980.59 5933.7 5550.75 4809.67 5021.77 4757.74 4356.25 5036.58 5469.47 4888.12 5329.59 6119.63 3498.16 5439.9 4244.21 4752.9 5512.16 3197.63 4287.16 4617.55 3456.47 3645.12 5471.74 5199.44 4344.34 5580.34 5713.03 5849.65 4928.27 5134.67 5775.31 4847.14 4165.21 5297.16 3332.49 4215.0 5354.66 3566.79 3629.44 5116.66 5003.78 5374.67 4981.43 6246.56 4061.6 5826.78 2603.64 5473.72 6214.73 2856.55 4553.68 5175.89 3894.64 3703.49 4268.19 4374.74 3758.22 4062.56 4757.2 3205.68 6200.63 6816.66 3844.54 3217.67 5034.69 5079.64 4509.46 996.652 4680.69 6500.49 5965.58 4972.18 3352.34 5329.76 4607.18 5078.59 3899.7 2403.72 7200.89 4147.49 4802.98 4833.55 3646.95 4081.34 7224.99 6334.53 5377.37 5869.67 4311.48 4899.73 5018.69 3152.86 6394.19 5973.89 5807.52 5963.36 5518.11 5087.14 5169.48 6016.08 4743.9 4731.21 3124.7 6064.71 3719.11 4467.13 6060.17 5153.18 4763.4 5902.67 4236.86 5454.11 5393.76 5806.61 4983.1 6010.59 7123.04 3682.35 3756.96 4009.24 5906.57 4446.58 5401.4 5053.15 5127.82 5910.86 5124.17 6239.68 7320.78 4064.58 3419.87 4234.88 4824.81 5769.14 6328.42 5944.3 7307.21 3563.14 3381.82 5522.75 3619.72 5867.64 4646.51 6208.9 4923.57 4438.58 3340.09 4565.93 6059.93 5602.53 6061.63 4867.7 4829.35 3953.55 4063.9 4277.24 5263.27 6834.41 7248.4 6300.92 5161.1 3796.15 5776.96 6045.67 4216.95 4209.49 5464.25 5742.74 3821.94 3946.28 5984.81 4209.31 5486.48 5718.28 4409.27 5301.47 4947.24 4588.99 3875.05 4321.21 3540.11 5950.45 5088.57 5966.42 3852.6 5009.83 5131.15 5210.38 4110.59 5717.8 4706.5 4811.22 5210.75 3950.27 4474.83 3683.86 4918.76 3299.24 5293.75 4208.41 5730.61 7124.45 4508.18 6358.93 5064.67 6618.21 5232.85 3717.47 4051.18 5969.37 4928.35 5241.75 5849.53 4651.99 3538.53 4788.7 4420.11 6127.39 5640.12 6638.25 4759.99 5134.33 2646.13 5419.57 5162.67 5760.98 3629.49 4705.68 5469.35 5384.86 4749.96 4658.24 4906.11 4387.39 4564.1 5457.66 5509.51 4848.14 5366.22 6193.73 5254.24 3742.11 4192.21 5712.35 3597.43 5701.52 4158.91 6776.22 3360.86 5321.17 3034.16 4869.25 5545.21 3877.8 6273.6 4333.87 3667.93 5136.87 5024.32 4708.17 3779.45 2741.2 5790.42 5784.37 3142.09 5591.77 5182.13 6110.48 7541.76 4775.49 4681.29 5499.59 3220.29 5749.6 3845.9 4141.21 4834.44 4384.28 5782.43 4456.26 5113.6 3873.92 4810.98 5135.5 5091.22 5347.9 5640.72 4504.52 5851.63 7107.63 5073.02 2279.05 6545.43 4075.28 6760.92 4989.2 4469.54 4023.93 4314.56 5868.89 8137.11 5291.05 6650.77 3928.53 6226.14 5466.33 5599.29 5280.12 7216.98 5721.05 4444.97 5271.02 4807.4 4350.15 7013.17 6329.53 3805.67 4590.01 5367.73 4247.69 4640.06 4514.39 6242.79 5078.31 6506.86 4227.41 5391.48 6047.14 4803.57 4923.43 4568.64 5666.95 3919.62 4642.2 4127.53 4489.99 4548.45 4658.11 6555.44 4551.26 5114.07 5658.14 6570.35 4385.49 4263.18 7142.95 4383.68 5836.26 6666.67 2617.39 6063.44 5144.44 4826.52 4583.94 5120.92 5046.31 4685.4 4337.32 1937.5 4731.53 6240.42 3763.9 5146.0 5721.14 5863.0 4577.73 4987.28 5084.5 4918.64 4815.47 6562.03 4368.12 4365.58 3889.98 5214.4 5193.58 4636.53 5399.43 5766.05 5117.64 3835.81 3916.42 4019.34 5429.3 4869.48 5510.96 3623.19 6653.07 4745.16 4697.91 5825.55 5071.98 5719.79 3199.4 4316.5 4371.08 7261.51 4968.14 4914.03 5086.29 5144.56 5139.18 5311.55 4278.57 5551.43 5049.99 4201.03 5001.87 5684.05 5638.7 5813.79 4644.88 5293.13 7350.26 3768.46 5167.53 5003.3 6245.52 4932.29 4990.23 3954.77 3784.94 6016.87 3125.13 6715.73 4439.71 4174.44 5667.51 4027.33 4708.31 4198.9 5431.29 5026.76 4833.67 5023.41 6282.38 4546.44 4092.07 5727.79 5657.55 4184.21 5212.92 4831.93 4700.07 5188.82 5788.97 3472.91 5615.84 4464.73 4928.85 6440.38 5556.0 4711.04 5484.32 5007.21 7144.05 4173.54 5606.51 4619.2 4801.8 5166.41 5740.65 6038.68 5046.12 7104.73 3000.29 2596.96 5067.56 6349.67 5701.75 7066.96 4264.54 5262.47 3516.27 5261.19 4139.3 6541.45 3831.52 4263.65 4263.78 4601.74 4750.49 6101.86 4643.9 5228.75 6106.43 5993.0 4807.35 6761.81 5467.63 4929.6 4728.55 4554.68 4368.28 5750.35 4692.32 4945.0 5984.8 3127.83 4212.15 5260.52 5678.58 3185.09 4242.63 5114.23 3269.54 5495.0 7407.91 4559.74 6015.22 5064.23 6061.85 4454.74 5512.44 2904.46 6449.06 4924.07 4629.02 5914.5 6006.16 4288.45 4608.62 5407.96 4071.75 6206.98 5131.77 5549.71 4410.82 4967.51 6443.99 7212.97 5490.64 5695.44 4507.46 3422.21 5036.14 5603.68 4944.51 5610.95 5532.72 4584.81 3220.8 5179.17 5579.39 5270.51 5148.1 5490.75 5224.64 5949.73 4312.48 5527.13 6370.33 5081.08 6318.25 6864.06 4493.79 4932.56 4279.44 4899.19 5058.34 4028.22 3918.94 5575.11 5487.63 3852.82 4507.36 7145.73 5800.81 4168.52 5106.46 6793.1 5166.05 4506.66 5515.73 5209.55 4850.5 4564.41 6331.74 5426.4 5951.86 5763.05 5129.68 4252.18 5357.39 5325.91 4659.88 3791.41 5853.12 4213.05 5157.38 4224.3 6203.03 5235.87 5273.37 5043.14 4717.73 4732.37 4985.3 5072.5 3904.07 3274.85 5748.9 5545.59 4506.18 4067.96 4824.12 6542.5 2970.9 5206.47 4834.39 3834.47 4383.47 6162.3 5493.89 3272.75 4057.17 5464.83 2781.96 3512.94 4467.0 5414.58 3104.96 4991.35 7043.44 4587.7 5601.55 4258.98 5196.92 5644.81 3787.08 6545.99 5334.36 3903.91 5630.9 2918.64 6139.64 4140.92 4512.07 4756.8 4896.43 5463.06 5236.24 4639.8 4585.04 3986.41 4241.68 6102.49 3469.18 2945.34 4095.83 3372.95 4489.29 5676.61 4301.93 5846.95 5716.42 5268.15 5819.0 6347.72 3460.93 3200.6 5124.86 4927.73 4602.57 3763.85 3565.32 3419.07 5710.33 5344.44 4626.72 3186.07 4369.86 5482.76 3745.02 5173.82 3720.7 5698.53 5034.34 3856.73 3769.2 4450.49 3468.45 5635.32 4526.34 4316.45 5042.75 5409.08 4598.92 5241.22 6647.08 4979.52 3422.29 4407.79 5214.63 3495.68 6548.29 5783.94 3990.96 5352.24 7362.42 4202.77 5836.14 5473.05 6008.81 5537.34 5192.49 5884.99 3487.31 5726.42 6643.4 4674.9 3392.26 5461.72 2549.95 4361.24 6599.28 6224.85 5403.97 4556.19 5368.66 4795.08 6562.92 4068.31 5501.73 5077.29 3671.06 4697.24 3612.44 7035.54 5233.76 5866.91 6405.69 2820.07 5679.74 5076.84 4825.73 5247.01 4208.37 6296.54 4841.7 5702.4 5069.9 952.938 5473.89 4678.7 6089.45 3673.6 5810.17 5265.21 4966.07 4657.24 5713.36 4400.14 4749.18 5553.94 5494.28 4704.92 5610.53 3663.0 4954.81 4099.26 4580.06 6304.49 4608.34 5755.15 3926.11 4835.97 5134.72 5971.21 5695.79 6419.64 3622.8 4589.06 4770.51 4431.23 4184.47 5577.41 5917.34 4994.65 6511.37 5740.98 4346.07 3999.5 4462.87 4012.92 5759.79 4598.54 4013.86 4177.47 4816.51 5218.42 4218.16 5345.73 4933.49 4770.63 3990.94 4841.23 4357.11 5477.8 4176.32 5486.89 4462.35 6069.78 5532.75 3587.93 6949.65 4517.29 5695.25 4975.85 4495.75 5323.95 6171.01 5796.26 4603.04 5701.63 4870.94 4620.95 5368.93 4488.39 6121.56 7168.2 4571.74 4096.86 4796.12 3622.48 5001.51 6432.8 5385.86 5115.42 4209.0 4082.4 4930.72 5728.58 4887.73 4211.36 6297.99 5378.24 3604.31 5817.74 5887.71 5661.6 4827.61 5285.75 5385.03 5481.64 5673.75 5360.67 5968.54 6263.3 4501.05 4537.03 3247.97 5124.34 4114.2 4326.06 5034.46 5757.29 5793.12 5469.17 5061.75 4373.2 3769.24 6022.78 4087.32 6647.85 7025.09 4433.12 7336.37 5138.93 6945.69 6406.8 7086.69 5648.78 6875.73 5226.42 6081.3 4983.43 5117.52 5615.35 3967.76 6311.89 4683.28 4217.36 6549.8 4851.18 4165.36 5288.33 5368.52 4871.77 5797.21 5811.26 5685.74 5062.77 6740.35 6019.35 6028.63 3450.07 3306.84 4550.92 6215.87 5191.26 5866.42 3669.32 4762.1 3742.31 4316.0 3987.69 4546.96 5424.55 4287.25 4392.75 4921.1 4271.07 3814.16 4191.01 5287.25 4420.6 4475.38 5340.05 4920.88 4140.04 5995.4 5890.25 5700.79 4216.44 6710.14 5034.05 4426.02 4726.2 4711.15 3825.48 4658.59 4474.39 5188.22 3810.68 2804.54 4196.62 2809.19 5005.6 4916.7 5589.53 7208.19 4549.51 5025.42 5196.08 6379.38 6257.79 4849.5 6229.83 4468.26 5578.18 5106.33 5198.94 5293.37 5933.54 5271.88 5559.79 2980.31 5879.24 5740.78 6824.53 5997.91 4742.82 6791.86 6031.22 5485.84 6424.77 5918.95 4538.89 5689.56 6556.86 3242.31 6099.28 5372.25 3234.26 4830.13 4169.15 3494.16 4778.37 5134.17 4074.16 4904.35 5592.54 5390.33 4904.37 5078.73 4358.81 4651.64 5729.92 5016.46 4179.87 5275.57 6224.13 4761.84 3661.67 5517.65 4009.68 2569.12 4622.73 4161.32 5161.74 5256.75 5099.9 2960.5 5118.86 4298.7 4183.4 6170.9 4733.79 5833.78 4436.48 5758.98 5288.64 6213.24 6734.39 5942.45 4228.53 4150.76 5005.72 6123.46 6142.88 5155.28 5111.26 5388.73 5205.38 4884.93 6075.99 5262.79 5927.2 5146.1 4419.79 6485.77 6060.06 3869.39 5544.27 3484.81 5960.5 5308.33 6502.99 4666.12 6219.34 4685.65 6023.07 5674.63 5330.26 6470.23 6506.63 5939.22 4215.05 3626.86 4668.8 3495.3 6371.96 5322.11 4271.93 4697.49 5735.08 5524.45 7133.44 4750.81 5600.21 3953.26 4282.11 5467.51 4625.53 5459.92 4096.47 2347.41 6478.35 5453.77 5114.67 5353.66 4104.04 2638.82 5593.79 5234.2 4612.13 4965.24 5846.6 5327.05 5438.55 4290.49 5353.23 4434.65 5977.66 4523.81 5209.5 5065.74 5791.25 4873.23 4028.35 5464.05 5453.2 3148.79 6348.93 5136.51 6815.51 4332.64 5232.16 4422.23 4457.05 4820.68 3989.26 3618.64 5703.84 4335.79 5453.69 3530.82 5797.32 5432.04 3921.27 3702.45 3161.1 5265.63 4898.29 4431.06 5684.88 6523.78 5730.2 5620.88 5370.9 4941.52 4529.77 4325.13 4262.74 6172.27 3783.79 5317.19 4248.14 5278.54 5279.19 5729.0 4016.6 5192.92 7050.08 4786.66 5891.25 5370.1 5129.4 5114.51 3303.49 3720.38 4655.37 5585.25 4731.37 5023.61 6351.89 5932.28 6530.78 5560.23 4975.32 3043.77 5237.55 3902.48 4304.64 6030.39 4905.53 4823.06 3799.01 7392.65 5254.49 3757.23 6828.8 5987.88 3579.59 6161.94 4065.28 5057.59 4461.14 5418.98 5285.6 4574.54 4949.55 3132.34 4600.71 4764.83 4841.28 4494.15 3957.38 4047.95 5035.71 5507.38 6889.5 4710.88 5407.69 4416.87 5300.17 5152.78 4117.9 5393.43 6896.55 5534.23 4638.09 4753.76 4441.91 6025.77 5377.01 4781.9 6815.96 5339.6 5828.25 4725.11 5418.12 5125.17 4604.1 5322.07 4859.01 5076.11 5990.75 5101.6 4656.01 6589.13 5602.62 4542.16 5714.51 3543.37 2030.03 5628.97 5527.27 5030.33 5157.73 5104.39 5847.91 4934.66 4984.01 4109.44 4903.84 4605.39 4557.1 6688.53 5927.1 6175.27 5876.51 6731.89 5410.6 4733.41 4969.68 5264.83 3901.53 5431.14 5313.86 5178.07 5189.91 5777.26 4171.02 7012.36 5028.06 4002.99 4886.99 5159.67 5587.3 5764.52 3770.22 4390.64 4645.86 4045.67 6005.95 4308.49 5900.0 4581.1 6241.77 4745.44 5762.82 7360.12 6223.98 5821.49 5580.44 3035.06 5998.13 5095.52 4746.15 6892.33 4758.84 4452.36 3976.0 4068.41 4672.86 5059.37 5783.38 4139.39 6264.03 3909.94 5088.64 3562.8 6589.8 3729.16 5319.1 3783.36 4181.93 3038.91 3922.28 6570.43 6883.86 3350.99 4979.5 4745.37 5939.29 6200.05 5575.11 5615.06 4052.49 1969.87 5490.54 5203.54 6189.67 6142.94 4948.96 5001.69 5256.82 6581.56 4052.43 4061.87 4057.4 3980.46 4896.67 5383.9 3934.11 5158.44 4466.22 4496.51 6153.71 5917.08 5483.37 5092.93 5934.05 2803.01 4714.66 4444.0 6771.18 5770.07 4984.17 5327.39 5781.62 4037.86 4981.81 4138.59 4938.33 4970.55 4484.78 4621.33 5765.14 4541.22 4767.54 4946.08 3539.68 2927.84 4696.03 6217.33 4698.7 6270.59 6045.26 6500.45 4907.55 4103.76 4286.61 2932.52 4603.66 4757.87 3557.46 6636.43 5971.95 6298.8 3979.46 3689.24 6321.97 5151.19 6509.54 2589.19 6119.0 3792.06 5128.59 4993.49 4293.3 5310.33 6583.37 3572.73 4864.38 4848.98 4491.96 5150.84 5184.98 4608.01 4467.51 5087.97 5339.82 4519.03 4930.17 5110.27 4085.96 5703.34 4612.68 6668.98 6649.52 4232.33 5462.6 5617.29 4262.19 5770.92 3093.38 4597.88 4845.91 4878.93 2002.78 6275.25 4505.3 5793.14 4491.26 4511.34 4832.21 6463.71 4742.35 5394.79 5645.54 5264.08 4526.87 4151.74 5192.82 6920.92 4174.22 3573.84 4067.89 6294.09 3445.92 4571.57 3820.19 5131.07 5236.69 4586.82 5524.28 3133.28 6026.04 5731.43 5859.17 3518.14 4034.41 5061.74 5326.03 4420.35 5717.45 5772.57 5117.83 5268.27 4013.86 4645.93 5165.31 4585.37 3798.09 4288.5 3886.56 4511.05 3456.3 6561.94 5259.21 4256.08 5881.93 4460.89 4399.52 4157.1 8052.53 4554.24 3939.96 6182.19 5910.66 7415.84 4637.3 5141.03 4840.44 8123.59 4819.83 6286.27 4801.16 5071.38 5121.08 5616.66 5688.77 6177.68 5466.13 6229.64 2848.44 4220.43 4975.56 6263.87 5743.8 6666.34 4094.63 5084.76 6605.11 6834.92 6379.33 5130.57 5652.73 5402.45 3985.93 6412.84 6071.59 6079.55 5485.61 4937.36 5308.4 6581.13 3688.83 4569.32 3402.44 5537.61 6084.88 4397.06 4199.44 4053.12 4479.5 6261.67 5460.57 3435.13 5065.78 4431.46 4521.42 3207.84 3977.98 6043.34 4939.56 4959.72 4747.68 4712.17 4723.71 4461.67 5631.32 6322.0 6007.1 6345.2 4609.65 5704.61 5009.21 5410.73 4379.91 4574.03 4942.63 5290.37 5850.38 4227.66 4691.01 4730.97 4594.89 3677.85 5245.95 5214.71 5821.42 4515.02 4811.11 3463.53 4924.52 6126.03 4121.07 6044.69 2970.24 4197.87 5105.54 5462.1 6353.81 6032.45 3414.67 5444.36 4150.44 4026.03 5522.34 2649.69 5771.98 5899.78 5000.74 4813.81 6153.26 5637.53 5244.95 3882.37 4634.25 5448.64 4095.4 5901.8 5188.57 6417.61 5395.12 5715.51 3721.69 5783.69 6074.39 5350.9 5317.83 3483.61 6738.9 5992.06 5545.68 6080.69 4970.12 4867.12 4967.93 6044.01 6520.19 1458.87 5734.07 6241.48 3997.68 6033.28 4188.16 6327.54 5507.07 4802.36 5327.71 5368.28 4880.78 5257.38 5075.23 5625.02 7282.36 4829.77 3826.01 4645.91 5581.01 6959.88 4125.75 5749.53 5247.73 5090.48 5034.02 5582.28 5945.25 5181.31 3856.4 4696.06 5985.75 4137.16 6189.29 5984.55 5803.3 4721.98 3228.27 5252.82 3543.98 5056.26 5878.55 4014.44 6604.72 6002.77 3794.47 4610.55 4967.02 4614.49 5400.69 4462.5 4128.93 5573.31 5004.68 3808.04 4023.88 5348.11 4405.61 6126.5 5108.84 4034.88 3511.5 4520.14 5067.92 5488.96 5357.14 3188.21 5128.03 3720.92 5087.3 6637.38 6139.74 4975.57 7066.26 3057.3 6150.31 5873.62 4677.84 4996.91 3920.44 5379.52 4866.8 5314.67 5658.05 6593.1 4066.36 4000.51 5011.37 2827.92 5092.44 5044.68 6908.32 3467.11 5336.61 4817.75 5563.09 4848.15 4439.09 5523.81 4718.61 6351.48 3873.79 5717.67 3830.7 5357.33 6210.0 5252.37 5432.4 4262.52 7430.48 5640.67 6572.17 3751.73 5555.89 4766.47 6369.66 5678.08 5973.57 5922.62 4414.09 5125.45 5191.29 5957.82 3784.68 3717.22 6649.21 4654.92 2943.17 5286.55 5522.18 4322.56 5509.09 3873.72 4592.49 5212.05 3625.98 5479.86 6474.5 3928.99 4702.32 4444.92 4763.04 5971.9 3746.62 4532.67 4876.37 4769.62 5260.13 4649.5 4810.74 3900.93 5784.38 5475.83 4149.17 4329.8 5728.27 5672.46 5202.33 3956.24 7558.99 4142.1 3393.59 5043.14 5333.04 5445.91 4812.59 4521.99 6842.54 7115.67 5675.45 3361.11 6038.56 2807.46 5599.16 4179.8 3488.34 5658.35 5428.24 4487.51 4582.12 4295.25 7394.47 4729.45 4850.95 5919.27 4793.06 3421.81 6188.33 6111.23 6916.18 5786.06 4137.41 3868.69 5447.74 4450.51 6033.72 3768.62 3851.47 4966.74 5563.47 5651.46 3162.27 6033.93 5639.4 5516.37 6520.96 4441.44 4232.44 5432.2 4612.4 6178.19 3312.3 4746.19 6381.58 3282.57 4798.13 5212.2 5648.59 6697.45 4630.5 6296.36 4432.32 5515.59 3224.81 4499.54 3775.38 5037.58 4046.22 6457.89 4844.2 5114.61 6118.13 3374.62 4420.3 4926.62 4871.1 6009.93 5872.45 4083.1 3482.73 5270.1 5130.56 4957.99 4947.64 6305.9 4542.62 3470.69 4859.95 4132.08 6009.88 5223.1 4699.77 4850.49 4981.55 5144.23 6188.62 6153.07 4414.06 5908.57 5944.52 4413.56 5050.2 2513.38 4821.41 5316.05 4924.53 4908.32 3995.08 4499.52 5019.84 3874.12 4028.13 4457.73 6476.35 6260.58 4067.24 3053.19 3074.49 6571.26 5580.95 6598.99 3549.92 4032.06 5246.81 2468.16 5089.1 5888.95 5394.78 3463.34 2853.68 5122.38 5262.85 4998.37 5329.84 6559.82 3879.83 6565.95 4577.98 5043.34 5886.81 4246.24 6805.02 5354.48 4900.26 6261.13 5374.09 4167.55 6271.22 4720.34 5244.47 5378.75 3920.64 5510.89 6186.24 5822.7 3780.07 5466.49 4038.17 5007.41 4907.48 3692.99 6213.74 4959.94 2329.93 1635.31 6938.87 5412.07 6185.73 5512.57 4083.24 4806.99 3771.91 5217.62 3839.0 5349.85 4616.81 5715.25 4362.94 4611.21 5108.42 4469.82 6545.78 3354.94 4404.87 5237.27 4451.76 7885.41 5782.25 4104.97 4575.72 4081.77 4948.21 4987.01 2181.29 4202.12 6332.64 3917.09 4735.99 6492.44 4613.32 5145.39 3352.46 3996.93 6351.95 5195.09 4063.26 5345.05 4997.89 5093.28 4881.51 6131.52 2626.41 4311.92 6729.99 5093.41 6842.35 5464.34 3621.63 4777.96 5801.89 7296.47 5742.39 2613.78 4780.16 5738.37 5616.11 4433.23 4813.24 5759.19 3113.64 4490.2 4304.75 5480.86 6139.9 4313.38 4720.22 5827.3 5250.56 3010.1 3633.58 6294.14 4339.97 5203.75 5169.09 4691.15 2459.88 4512.6 4210.24 5470.67 5901.71 5225.11 5342.9 5252.22 5733.12 4962.35 6436.29 5402.81 4600.81 4919.13 5640.63 4124.33 5168.97 5783.88 5002.38 6705.93 4865.11 4731.16 5502.14 6470.87 4495.33 5282.67 4159.89 5747.9 5178.55 4287.93 5146.69 6203.24 6818.23 4488.41 4369.87 5652.19 5806.74 6578.62 4813.55 5856.43 4796.04 3465.03 5229.56 6011.4 5799.86 5172.1 6052.22 5376.41 5003.63 4870.14 2932.2 5105.72 5767.65 4082.01 5003.49 4750.76 4907.03 5497.27 5832.72 5617.91 3903.9 4444.95 4721.2 4706.31 5161.02 2694.25 6265.48 5003.81 4203.68 4739.56 3818.37 4701.03 6225.05 5434.04 5200.1 3997.52 7679.2 5779.9 4909.74 5310.33 5299.03 6664.54 3922.98 5161.73 5259.48 5254.93 4803.4 6833.5 6608.94 3796.73 5417.07 3834.01 5656.84 6789.66 4739.41 5312.2 5847.27 4706.59 5734.84 3982.31 4950.07 2832.83 4582.24 4474.96 6036.99 4084.87 5259.29 3825.98 3584.05 4589.22 5087.03 4818.53 4667.84 5097.85 3906.41 5584.64 4123.08 6224.64 4260.38 4636.45 4221.03 4932.27 3799.55 5638.51 6793.49 3563.33 6060.19 5536.0 6786.37 4333.23 4328.76 5561.63 5940.5 4358.06 5093.51 5647.93 6201.49 5449.09 5154.74 4605.61 4465.56 4131.08 5386.95 3864.19 5332.11 5315.71 6158.93 5081.65 4823.14 6679.12 4621.32 5699.4 3878.8 6284.12 4698.94 3948.21 5669.15 5296.05 5263.86 4672.34 3330.85 5056.32 5533.52 5410.33 4695.7 4747.24 4944.08 4380.86 5576.16 5269.39 3964.03 4305.35 5210.22 4216.33 2451.27 5677.42 4929.35 5606.22 3943.77 3124.49 5242.38 6081.35 5459.52 6262.18 5566.5 5663.36 4276.59 5579.04 5125.53 5994.21 4444.54 5403.81 5082.25 6964.78 4374.05 5036.84 4565.36 5813.68 4025.08 4008.67 3618.53 4770.21 8013.28 3846.55 5283.65 4644.68 2892.36 3082.16 5911.29 5416.41 4694.27 6760.64 2515.5 5177.88 5551.79 6981.47 3916.15 5367.05 4758.76 4790.63 4088.72 3945.62 4916.75 3743.85 5342.17 6189.04 3795.63 5189.4 5082.66 4550.77 4337.93 3550.88 5201.3 4345.51 4048.73 6223.33 5145.13 3860.8 3747.96 5611.29 4521.88 6568.45 5004.22 4280.92 4601.54 7263.57 4696.92 5705.96 6437.99 6898.8 6632.04 6540.57 4893.72 6004.72 4072.4 5373.78 5345.65 2489.44 5438.5 5863.36 4632.75 5237.76 4286.84 4994.98 6423.96 6058.13 5894.69 6988.4 6635.51 4060.17 6051.35 5302.53 4909.13 4287.61 5648.02 3308.75 4604.34 4439.17 2701.42 5442.79 5051.39 6673.92 5151.68 4884.94 5362.15 4609.98 4455.61 4738.72 4752.31 5240.97 5569.85 5405.6 3929.35 4884.93 4759.38 6960.97 4287.15 5282.51 5504.65 5669.41 5732.11 5040.9 3919.47 5596.68 4868.66 4004.39 5159.9 4987.48 5943.61 5981.54 4248.58 5479.17 5020.37 4542.25 4414.23 5233.88 4849.21 4785.55 3793.83 5245.4 6189.81 4449.73 5647.11 6236.46 6379.3 5015.67 4576.71 6538.04 4894.15 6157.59 5848.41 4090.28 5438.6 4246.83 7370.52 4726.5 5467.05 3724.23 5103.3 4963.88 5888.94 3832.09 5175.88 5267.65 5739.69 3509.34 5360.88 7360.62 3166.37 4977.64 4985.45 4983.56 5205.53 5699.51 4489.18 5499.37 4883.13 4836.76 4752.94 5551.09 3950.53 4501.1 5581.47 4384.91 4987.01 4713.56 6094.34 6779.82 5543.67 3999.81 4867.13 6377.45 4863.27 4502.12 3255.93 6853.07 6327.61 4633.59 5733.59 5575.8 5268.93 3695.72 6874.6 5106.9 5306.31 5523.96 4223.53 4733.37 4535.94 3037.72 4523.9 5126.08 5604.0 3760.4 4951.02 4602.7 3783.35 4037.16 6395.63 4727.98 4122.2 4516.26 4790.16 3647.26 3731.58 5369.42 5207.08 4714.52 4587.19 5543.05 6028.89 5333.16 4888.17 5755.98 5392.85 5077.2 4274.05 6550.61 4277.54 5529.09 4531.46 5925.82 5448.68 4739.5 6210.48 4491.62 4182.05 3865.5 5275.27 4072.95 
SCALARS Velocity float 1
LOOKUP_TABLE default
1.55459 1.54918 1.55014 1.52231 1.56013 1.55992 1.55827 1.55336 1.55411 1.51143 1.49733 1.56512 1.56313 1.56828 1.55738 1.55185 1.55812 1.5568 1.55327 1.52898 1.53533 1.55946 1.50791 1.52283 1.56056 1.51229 1.58476 1.55384 1.55237 1.54664 1.55723 1.55792 1.53995 1.54691 1.54915 1.52548 1.52908 1.53495 1.53049 1.53558 1.54469 1.55701 1.56029 1.55629 1.55983 1.51051 1.52719 1.56028 1.57721 1.49683 1.51953 1.61383 1.59748 1.57397 1.54133 1.54143 1.53495 1.53966 1.56884 1.5397 1.5418 1.53884 1.54636 1.52733 1.52709 1.52547 1.52942 1.53944 1.55086 1.55992 1.55917 1.55475 1.53808 1.53502 1.60044 1.58661 1.57616 1.53071 1.54558 1.52183 1.53442 1.57781 1.52764 1.53598 1.54182 1.52294 1.52869 1.52756 1.53519 1.53122 1.54252 1.55395 1.55361 1.55331 1.53735 1.45718 1.62763 1.59627 1.58236 1.56973 1.56303 1.5278 1.50869 1.51701 1.55496 1.52193 1.54135 1.52711 1.52305 1.53154 1.5293 1.53455 1.53407 1.53817 1.54825 1.54909 1.55088 1.55387 1.5449 1.5456 1.54197 1.47529 1.48989 1.58348 1.59068 1.57802 1.56936 1.56062 1.54865 1.49525 1.56262 1.48285 1.55187 1.49729 1.52085 1.53092 1.54459 1.53027 1.52667 1.52674 1.53361 1.53705 1.53356 1.53435 1.54646 1.54915 1.55222 1.55322 1.54726 1.54365 1.54519 1.4943 1.5469 1.58038 1.57505 1.58044 1.5629 1.52645 1.47635 1.45822 1.49408 1.56131 1.50802 1.52084 1.53041 1.52952 1.53087 1.53444 1.53763 1.5344 1.53288 1.53378 1.5335 1.55659 1.54904 1.54734 1.5452 1.5053 1.5234 1.54329 1.56103 1.5696 1.55572 1.57756 1.57014 1.48581 1.47192 1.48621 1.48105 1.48919 1.55367 1.5249 1.53268 1.52563 1.53473 1.53856 1.53549 1.54293 1.52964 1.53408 1.5214 1.54907 1.55417 1.54591 1.5463 1.53393 1.54786 1.54783 1.5615 1.56221 1.55318 1.54822 1.53834 1.45886 1.45066 1.4837 1.51499 1.5201 1.52502 1.52782 1.53794 1.53259 1.54964 1.5134 1.52427 1.53447 1.51832 1.53409 1.55272 1.53784 1.55493 1.54734 1.53683 1.53651 1.53831 1.54125 1.54511 1.5336 1.5265 1.47129 1.46888 1.46198 1.47036 1.48526 1.50484 1.51443 1.52238 1.52333 1.53351 1.53241 1.53966 1.50376 1.52955 1.53753 1.51763 1.53219 1.55052 1.53677 1.53972 1.53962 1.52356 1.50153 1.52413 1.50977 1.52718 1.51855 1.54598 1.48521 1.46974 1.4649 1.472 1.50365 1.4859 1.518 1.51201 1.52398 1.53248 1.53314 1.5237 1.50911 1.5118 1.52366 1.53026 1.51489 1.5167 1.52282 1.53376 1.51833 1.51538 1.55912 1.48264 1.49555 1.51546 1.50129 1.51575 1.59274 1.49405 1.5124 1.47134 1.47165 1.47972 1.49477 1.47988 1.48187 1.50451 1.52214 1.53348 1.53102 1.51612 1.50265 1.50708 1.51198 1.51736 1.50535 1.50794 1.50449 1.50784 1.48713 1.54182 1.49427 1.48997 1.50828 1.48883 1.49707 1.64361 1.45486 1.45556 1.52668 1.48677 1.46977 1.51014 1.53834 1.52062 1.52833 1.50204 1.49645 1.50116 1.49898 1.49166 1.50113 1.49028 1.48904 1.49556 1.48909 1.48583 1.45945 1.47877 1.43788 1.19178 1.52473 1.53345 1.51465 1.52069 1.49314 1.54459 1.52891 1.5709 1.42816 1.26186 1.42185 1.48429 1.56394 1.42875 1.51092 1.42463 1.4936 1.53338 1.53588 1.56842 1.49961 1.49161 1.47868 1.47475 1.47496 1.47986 1.46576 1.482 1.47362 1.47725 1.4747 1.48166 1.44883 1.45797 1.43307 1.38401 1.51056 1.52725 1.45332 1.47316 1.61509 1.54892 1.53861 1.57058 1.43812 1.30388 1.41631 1.47929 1.54304 1.5045 1.48136 1.47521 1.52995 1.48156 1.58005 1.53003 1.51405 1.4819 1.49879 1.46662 1.45575 1.45685 1.45922 1.46469 1.47117 1.46095 1.45757 1.43832 1.36064 1.47223 1.49377 1.45499 1.56163 1.53624 1.4985 1.58018 1.5362 1.54359 1.46114 1.36948 1.44918 1.43106 1.44236 1.48963 1.48324 1.49952 1.47055 1.44443 1.53255 1.51749 1.52245 1.46581 1.49696 1.44422 1.44313 1.44848 1.43098 1.43954 1.45979 1.46432 1.42306 1.52721 1.53121 1.31002 1.60148 1.47029 1.47211 1.3593 1.34433 1.50926 1.6841 1.67791 1.90941 1.38172 1.40553 1.37589 1.49411 1.5537 1.41892 1.44841 1.49595 1.40104 1.43183 1.36748 1.45252 1.53714 1.47333 1.39 1.45547 1.38656 1.4197 1.52265 1.47874 1.4156 1.39496 1.40922 1.43152 1.42353 1.46716 1.44417 1.43757 1.42425 1.46887 1.44088 1.53549 1.38461 1.46119 1.88269 1.54408 1.55557 1.27255 1.4752 13.1238 0.364834 1.57599 1.28571 2.26173 1.75883 1.37898 1.37696 1.37167 1.39906 1.4604 1.3226 1.40801 1.54915 1.42868 1.42824 1.32929 1.51928 1.53785 1.46181 1.38493 1.45352 1.44567 1.40009 1.42568 1.54053 1.37591 1.38181 1.38113 1.38701 1.46198 1.49139 1.42295 1.5661 1.45631 1.52752 1.61491 1.39405 1.49699 4.58638 1.88776 1.85477 2.84309 1.95907 1.27387 0.982112 1.26637 1.2329 1.29843 1.17509 1.2833 1.54495 1.36266 1.43321 1.54204 1.55933 1.29973 1.38525 1.2894 1.45649 1.36752 1.47841 1.36744 1.30371 1.63043 1.40461 1.49344 1.44845 1.36307 1.32922 1.46297 1.39818 1.38093 1.40871 1.38463 1.43281 1.44451 1.46621 1.42233 1.60885 1.55423 1.40187 1.44978 1.28788 1.15822 1.367 1.64187 1.52314 0.887265 0.915976 1.29838 1.04059 1.01154 1.0234 1.09328 1.15944 1.06737 1.05387 1.16041 1.12296 1.08517 1.10629 1.22697 0.957446 1.16507 1.23506 1.19304 1.3311 1.30094 1.20116 1.29924 1.18914 1.19967 1.17188 1.3407 1.42626 1.43673 1.30628 1.38425 1.34426 1.53038 1.43255 1.44794 1.21976 1.26828 0.910341 1.28771 1.3063 1.46756 1.48372 1.39687 1.18595 1.45408 1.40407 1.3773 1.4554 1.44619 1.36086 1.5362 1.49141 1.30972 1.51737 1.25606 1.24037 1.27547 0.831509 0.655486 0.867768 0.835779 0.907874 0.902099 0.877196 0.977348 0.99286 0.985603 1.00686 0.983637 1.01215 1.02686 1.03877 1.06364 1.01723 1.11481 0.997541 1.09498 0.916665 1.03711 1.22692 1.11654 1.13883 1.06038 1.05852 1.1436 1.18118 1.21276 1.32077 1.16624 1.37283 1.22168 1.32717 1.32252 1.34613 1.34552 1.31476 1.34086 1.30253 1.10125 1.16357 1.41136 1.38801 1.23385 1.16855 1.15081 1.17836 1.04503 1.12144 1.27792 0.985982 1.18575 1.337 1.45707 1.33921 1.41805 1.42439 1.36671 1.24108 1.42277 1.23086 1.24199 1.27237 1.31177 1.40219 1.27891 0.834568 1.31763 0.741082 1.0476 1.0113 0.878451 1.04761 1.01369 0.898569 1.03057 1.07339 1.28001 0.917351 0.918494 0.992853 0.918708 0.994953 0.965415 1.00042 0.984028 0.966456 1.00102 0.998145 0.99489 0.973949 0.994662 0.970613 0.961933 0.954563 0.999114 1.06834 1.08126 1.16001 1.08726 1.13821 1.16272 1.13833 1.14633 1.12559 1.15211 1.01596 1.07378 1.17786 1.21919 1.25881 1.2442 1.39578 1.2806 1.25549 1.17905 1.19688 1.2147 1.10566 1.10596 1.08192 1.05513 0.976634 1.2629 1.28822 1.16406 0.94244 1.17108 1.12223 1.03809 1.24041 1.32838 1.11521 1.06488 1.20294 1.2936 1.3326 1.37458 1.15644 1.11734 1.1078 1.13036 0.94681 1.20869 1.17592 1.3094 1.18631 1.38415 1.05529 0.834416 0.892262 0.902415 0.822785 0.819576 0.817802 0.959025 1.39529 0.522534 1.91243 0.295931 0.616132 0.854228 0.914496 0.913941 0.912467 0.894422 0.93255 0.869904 0.895296 0.965453 0.837148 0.949866 0.993694 0.913125 0.944871 0.987473 0.921419 0.81197 0.941712 1.15704 1.07663 1.11079 1.10479 1.0559 1.10172 1.12371 1.0147 0.995453 1.07018 1.27519 1.18116 1.15966 1.29204 1.24126 1.16215 1.0953 1.00487 1.1003 1.16548 1.12078 1.07836 1.0336 1.13138 0.959521 0.871494 1.26299 1.38704 1.49496 0.841641 0.71086 1.15287 1.17901 1.2904 1.18099 1.1344 1.18172 1.21706 1.15426 1.23141 1.05667 1.01488 1.09826 0.961572 0.94373 1.12743 1.00495 0.977538 1.14043 1.02672 1.06846 1.08659 1.03537 1.18751 1.02228 1.05585 0.783842 0.589896 0.705972 0.752804 1.1331 0.887487 1.21824 0.765913 0.704471 1.73096 1.25739 0.59204 0.458359 0.886079 0.84139 0.832529 0.842351 0.969401 0.971251 0.876249 0.886622 0.898915 0.845682 0.874941 0.840436 0.866959 0.868282 0.902608 0.899988 0.851084 0.820506 0.977129 0.88387 0.930659 0.899836 0.884734 0.916226 1.21369 1.01592 1.02746 0.890463 0.968375 0.950589 1.1493 1.01196 1.03788 0.928701 0.991826 1.12769 1.11685 0.984748 1.07999 1.1081 1.14244 1.06463 1.0403 0.946721 0.809227 1.18552 1.04308 1.09286 0.935317 1.15682 1.09682 1.23984 1.13182 1.02207 0.996458 0.958921 1.06787 0.99513 1.02577 1.075 1.0015 0.992279 0.978153 1.01188 1.0377 0.939337 1.00892 1.04132 0.93341 0.92125 0.928989 0.971027 0.910325 0.978167 0.881058 0.701071 0.935661 0.642068 0.836991 0.625255 1.12046 0.955248 1.00983 1.42054 0.605127 0.675572 0.663263 0.979639 0.692655 0.879161 0.833067 0.860617 0.890957 0.863057 0.845713 0.705747 0.759545 0.858461 0.861469 0.774038 0.843344 0.84177 0.881918 0.841295 0.878558 0.891857 0.861625 0.876844 0.924288 0.897391 0.722998 0.86319 0.826301 0.803649 0.967257 0.945286 0.926625 1.00317 1.1918 1.03866 0.944961 0.982206 0.882865 1.01733 1.06886 1.16605 1.03197 0.971634 1.02318 0.996672 1.07749 1.0541 1.01084 0.998257 1.00014 0.93451 0.928554 0.946367 1.04299 1.0499 0.983016 1.03558 1.12438 1.16746 1.05105 1.18158 0.975144 0.898468 0.903614 1.07067 1.02908 1.00139 0.96095 0.995179 0.953108 0.958898 0.889054 0.930696 0.933114 0.874636 0.89431 0.873986 0.972092 0.921196 0.898755 1.16095 0.98226 0.908426 1.10266 1.04554 0.924361 0.941041 0.533085 0.818786 0.916805 0.732325 0.874774 0.803701 0.794057 0.808852 0.792773 0.909615 0.889803 0.884556 0.830995 0.898622 0.964637 0.855192 0.743929 1.09684 0.804541 0.88135 0.852167 0.855369 0.895746 0.84784 0.884228 0.866709 0.863651 0.859937 0.875171 0.890874 0.899896 0.917112 0.89771 0.836669 0.919969 0.983855 0.864225 0.936161 0.941472 1.143 0.916397 0.993842 0.914099 1.01679 1.00129 0.982182 0.822663 0.732435 0.860721 0.92774 1.00921 0.997104 0.994454 1.03438 1.01907 1.00627 1.00396 0.988467 0.956596 0.916632 0.976344 0.942439 0.991451 1.00381 1.02545 1.02167 1.07344 1.01476 0.951688 0.924365 0.914555 0.860885 0.817771 0.916527 0.920309 0.922169 0.959717 1.0219 0.93187 0.945187 1.06614 0.94658 1.01703 0.92503 0.904906 0.885724 0.873213 0.928671 0.909167 0.938905 0.98309 1.04575 1.0155 0.990608 0.928724 0.951943 0.98542 0.891858 0.888365 0.91157 0.762599 0.884184 0.813992 0.802522 0.801439 0.82381 0.84195 0.782898 0.687726 0.818023 0.688788 0.932768 0.715428 0.935729 0.740647 0.998098 0.727523 0.631152 0.869353 0.55208 0.70385 0.828675 0.747121 0.810934 0.910631 0.871694 0.864739 0.849414 0.83433 0.860791 0.819345 0.821835 0.928155 0.965181 0.914209 0.897728 0.924178 0.971215 1.00563 0.853074 0.97996 0.970541 0.954574 0.890329 0.946976 0.902842 1.02202 1.00957 0.936653 0.910555 0.879993 1.18284 0.983241 0.806511 0.793224 0.867988 0.931737 0.963387 0.923683 1.00385 0.950616 0.976133 0.97695 0.926996 0.893424 0.923893 0.922952 0.915859 0.963261 1.00953 0.988928 1.02415 0.968525 0.993834 0.970305 0.899788 0.890772 0.861997 0.833589 0.947222 0.951227 1.0914 0.923207 0.78637 0.983251 0.857742 0.972092 0.920587 0.913291 0.884266 0.867447 0.843457 0.877765 0.931219 0.911999 0.876466 1.02492 0.792655 0.812318 0.847807 0.820309 0.884342 0.924117 0.900998 0.769037 0.943138 0.833683 0.788265 0.773777 0.919079 0.993424 0.844075 0.841269 0.996391 0.786184 0.667682 0.674668 0.671462 0.76066 0.731139 0.759934 0.731362 0.802699 0.787584 0.888553 0.759319 0.696407 0.803565 0.685871 0.792028 0.797139 0.893067 0.859881 0.84617 0.831519 0.8005 0.790272 0.783003 0.858777 0.845012 0.961513 0.937093 0.90985 0.85259 0.863922 0.893939 0.974615 0.779116 0.780818 0.800629 0.906045 0.777431 0.765314 0.731556 0.844672 0.791439 0.960123 0.961932 0.874466 0.800484 0.832564 0.830596 0.910796 0.885626 0.896298 0.937026 0.947861 0.977233 0.928276 0.90561 0.90228 0.905655 0.90268 0.950492 0.948237 0.971892 1.00303 0.971578 0.927535 0.880464 0.924198 0.993063 0.807255 0.774614 0.825895 0.928847 0.896354 0.455174 0.835022 0.931296 0.876614 0.952406 0.912106 0.946353 0.874138 0.913225 0.837743 0.840217 0.86618 0.848038 0.906365 0.516199 1.06731 0.902078 0.863765 0.80146 0.668749 0.71958 0.66896 0.856544 0.693446 0.859493 0.685803 0.796756 0.762415 0.72258 0.786208 0.614426 0.68512 0.697026 0.649114 0.652873 0.565195 0.865675 0.897764 0.700393 0.68464 0.693014 0.754907 0.740339 0.725087 0.700507 0.708782 0.703251 0.767104 0.771553 0.759652 0.753986 0.736012 0.746228 0.774764 0.746905 0.7617 0.775897 0.767968 0.800782 0.859214 0.81561 0.793765 0.809103 0.851419 0.815024 0.824004 0.833868 0.801904 0.820273 0.908008 0.892358 0.895309 0.893722 0.757166 0.713575 1.0082 1.1539 1.08329 0.934501 0.86575 0.827776 0.85889 0.871328 0.921153 0.928484 0.926186 0.932727 0.955283 0.916345 0.91933 0.889513 0.902511 0.89807 0.908579 0.903638 0.914637 0.936118 0.933415 0.935793 0.91144 0.871515 0.836635 0.939192 0.883043 1.07741 0.888706 0.859494 0.686471 1.07696 0.782929 0.811682 0.861066 0.847828 0.893307 0.885556 0.841343 0.85091 0.795955 0.870967 0.843112 0.944211 1.13174 0.957498 0.933274 1.05842 0.756196 0.832689 0.786066 0.761891 0.768532 0.825304 0.718404 0.810881 0.79191 0.824438 0.826599 0.597208 0.750705 0.778514 0.516558 1.04795 0.297998 0.363541 0.839314 0.494886 0.67943 0.687861 0.686975 0.693408 0.701455 0.736542 0.717124 0.723034 0.724642 0.724637 0.712942 0.806391 0.755372 0.78723 0.794012 0.806686 0.787425 0.793184 0.785097 0.792718 0.810086 0.800386 0.79824 0.822463 0.805568 0.835655 0.83302 0.813315 0.816265 0.838755 0.829958 0.769226 0.809928 0.810969 0.796349 0.781904 0.833688 0.79279 0.824133 0.879275 0.885199 0.90449 0.936386 0.850765 0.787481 0.714278 0.661333 0.881541 0.947848 0.954361 0.882014 0.843002 0.835992 0.818366 0.880282 0.861467 0.870203 0.817451 0.930869 0.970716 0.901123 0.916145 0.884887 0.896372 0.879319 0.883703 0.891049 0.911355 0.91359 0.92042 0.927655 0.916372 0.828691 0.787237 0.774927 0.966979 0.624237 0.855769 0.831337 0.967999 1.03919 0.84819 1.02841 0.735105 0.791254 0.802355 0.844911 0.859677 0.849066 0.812701 0.847307 0.831345 0.760243 0.7474 0.863762 0.878197 0.844521 1.04317 0.899392 1.00144 1.01651 1.05345 0.917679 0.816662 0.772422 0.795009 0.797199 0.782924 0.834303 0.83343 0.795129 0.836642 0.795222 0.79828 0.621757 0.773043 0.805535 0.673661 0.689056 0.715733 0.701418 0.958134 0.819301 0.864581 0.922537 0.822648 0.648961 0.829501 0.663003 0.697373 0.700735 0.699424 0.68102 0.674441 0.688254 0.690596 0.688016 0.700797 0.719541 0.715253 0.793937 0.796704 0.809453 0.812659 0.817366 0.795993 0.840084 0.827973 0.808699 0.839328 0.804463 0.82496 0.827613 0.821556 0.857619 0.845749 0.889021 0.83272 0.832732 0.916653 0.83139 0.884952 0.853494 0.790521 0.804231 0.821361 0.84368 0.804497 0.805282 0.80448 0.762173 0.640271 0.766751 0.852957 0.863335 0.75161 0.864633 0.890767 0.910012 0.889332 0.86033 0.87797 0.887758 0.884342 1.09197 0.954479 0.89169 0.893526 0.8714 0.865794 0.856152 0.867688 0.876626 0.886631 0.878891 0.9072 0.912008 0.921639 0.922429 0.926901 0.925801 0.89974 0.879683 0.805179 0.715907 0.818732 0.666992 0.811698 0.569073 0.899389 1.17379 0.794303 0.831162 0.78997 0.803638 0.836243 0.84687 0.774045 0.811736 0.810253 0.827561 0.923506 0.827394 0.841782 0.806358 1.03601 1.00574 0.899145 0.994171 0.968516 0.942561 0.865131 0.783861 0.775724 0.875056 0.881965 0.81681 0.826374 0.810926 0.78015 0.761665 0.666664 0.693876 0.759765 0.732231 0.793573 0.707096 0.765331 0.737247 0.803385 0.804129 0.754034 0.70952 0.756595 0.737543 0.743816 0.783791 0.7799 0.729399 0.714318 0.700208 0.695377 0.689972 0.687418 0.694128 0.711915 0.714555 0.735509 0.732571 0.761201 0.772935 0.811708 0.803804 0.822852 0.828862 0.819554 0.81926 0.825301 0.822866 0.825892 0.86036 0.755021 0.837592 0.901326 0.889386 0.86113 0.851352 0.941748 0.824358 0.848425 0.760422 0.756944 0.826831 0.795986 0.78384 0.78546 0.761747 0.801238 0.823764 0.774097 0.80522 0.789781 0.776738 0.809728 0.810296 0.823707 0.839479 0.814791 0.904266 0.900661 0.88105 0.888888 0.872924 0.679238 0.900073 0.9373 0.896513 0.862182 0.841371 0.849404 0.849181 0.87624 0.892144 0.899923 0.908065 0.921619 0.928688 0.935753 0.912377 0.915702 0.89862 0.840178 0.717139 0.766301 0.816954 0.802419 0.905354 0.481084 0.768554 0.591898 0.8167 0.787133 0.80288 0.795111 0.791498 0.779916 0.818514 0.807682 0.877489 0.815683 0.837569 0.77785 0.823491 0.885244 0.888682 0.888362 0.902726 0.805716 0.759532 0.774244 0.877501 0.822951 0.806109 0.769166 0.770952 0.753584 0.762593 0.7668 0.755309 0.746888 0.734342 0.773625 0.714244 0.783664 0.775332 0.758876 0.792821 0.751953 0.683199 0.612198 0.803774 0.813896 0.647844 0.668424 0.689486 0.690989 0.699904 0.654127 0.717858 0.750651 0.706853 0.695531 0.680515 0.721934 0.708867 0.67687 0.661538 0.69407 0.710746 0.718224 0.742378 0.758058 0.780479 0.765677 0.795178 0.81746 0.822499 0.803796 0.798678 0.822951 0.799502 0.846997 0.789782 0.76141 0.725239 0.788517 0.784777 0.715052 0.718147 0.765063 0.760641 0.684607 0.612529 0.818066 0.859483 0.848393 0.813185 0.819104 0.794987 0.803097 0.806591 0.816845 0.813719 0.840916 0.838001 0.856411 0.889439 0.885187 0.890676 0.901526 0.887475 0.900671 0.896007 0.890005 0.812661 0.873802 0.914534 0.85661 0.851733 0.852476 0.857363 0.877072 0.893171 0.90067 0.910225 0.921263 0.932982 0.935855 0.933909 0.891644 0.883733 0.875582 0.832015 0.840031 0.843426 0.76477 0.78081 0.745418 0.702062 0.765271 0.761845 0.787926 0.797227 0.78932 0.780119 0.816269 0.875076 0.640597 0.705475 0.705413 0.744565 0.83007 0.851123 0.824367 0.88285 0.756201 0.713087 0.740676 0.844988 0.830373 0.890527 0.726647 0.736701 0.831227 0.841969 0.76689 0.783899 0.74304 0.759528 0.675838 0.708437 0.708755 0.708913 0.764108 0.79225 0.737236 0.821549 0.886409 0.669518 0.89491 0.631045 0.729437 0.68071 0.634027 0.636948 0.644676 0.649733 0.653379 0.65745 0.696594 0.712984 0.611243 0.638716 0.695359 0.744676 0.720134 0.791706 0.791816 0.775154 0.772171 0.763004 0.797148 0.810117 0.817535 0.804095 0.789589 0.718426 0.841042 0.788061 0.734246 0.734847 0.721081 0.834634 0.872248 0.843318 0.798473 0.747264 0.763577 0.818834 1.14185 1.06328 1.00106 0.778434 0.829543 0.823885 0.825064 0.808896 0.812388 0.824957 0.835734 0.865239 0.849011 0.855687 0.863056 0.868598 0.876112 0.884218 0.889787 0.872315 0.89404 0.923245 0.909519 0.932842 0.860995 0.845033 0.813508 0.85766 0.843423 0.857845 0.873256 0.905121 0.912539 0.923833 0.937104 0.930991 0.930192 0.938033 0.891628 0.959681 0.890379 0.867598 0.845337 0.856397 0.859071 0.817656 0.812294 0.780801 0.788791 0.792963 0.785872 0.800489 0.797132 0.789516 0.805225 0.794778 0.819885 0.81854 0.890994 0.854653 0.761098 0.731309 0.778117 0.813438 0.885808 0.828602 0.761153 0.765525 0.65081 0.667586 0.931592 0.769325 0.808282 0.954818 0.760061 0.797696 0.732306 0.817311 0.819921 0.876744 0.747753 0.724569 0.679246 0.650729 0.678919 0.707767 0.647919 0.667922 0.719503 0.741355 0.650786 0.719284 0.801675 0.744988 0.683033 0.720521 0.683901 0.692672 0.663845 0.674797 0.660901 0.647523 0.65804 0.658777 0.669295 0.649248 0.633235 0.659002 0.626155 0.627524 0.68245 0.651172 0.722214 0.69288 0.722725 0.724557 0.700966 0.680827 0.727159 0.764128 0.762695 0.786827 0.762547 0.759073 0.748636 0.761527 0.764925 0.79671 0.857954 0.788378 0.816294 0.883296 0.769982 0.753729 0.870564 0.861593 0.711857 0.770826 1.33111 0.869235 0.863436 0.815813 0.826987 0.772975 0.820335 0.787682 0.804772 0.803951 0.813508 0.814603 0.818455 0.836542 0.863659 0.859471 0.86809 0.869401 0.86713 0.881215 0.880686 0.892925 0.883838 0.879103 0.881214 0.881706 0.886709 0.96952 0.868884 0.850984 0.827906 0.853582 0.846146 0.838278 0.83052 0.867704 0.873148 0.89053 0.904383 0.927539 0.921009 0.930087 0.935357 0.949548 0.938384 0.921039 0.898534 0.882602 0.879084 0.862738 0.841312 0.8355 0.810665 0.833221 0.808692 0.80225 0.798781 0.807272 0.814444 0.823181 0.842177 0.769556 0.759229 0.783154 0.828591 0.761563 0.768789 0.79269 0.793281 0.721819 0.834874 0.721619 0.772714 0.765205 0.743812 0.74126 0.792169 0.70644 0.743855 0.700827 0.803109 0.810137 0.848592 0.68526 0.699408 0.636376 0.715684 0.738326 0.691171 0.721288 0.711721 0.693595 0.717142 0.673169 0.657967 0.687206 0.684807 0.644175 0.672273 0.718343 0.666981 0.640352 0.630007 0.649421 0.591164 0.639 0.695001 0.71517 0.732657 0.678872 0.689791 0.725896 0.753075 0.771107 0.78993 0.764953 0.795906 0.7453 0.730501 0.738243 0.760314 0.765779 0.817009 0.800465 0.762049 0.746316 0.685702 0.746654 0.739769 0.655776 0.716788 0.493381 0.637483 0.709153 0.702436 0.676848 0.668156 0.547649 0.86849 0.780936 0.780398 0.790689 0.756489 0.794134 0.800599 0.791068 0.797679 0.80938 0.835796 0.877486 0.868725 0.873409 0.859706 0.889741 0.913146 0.895 0.887016 0.897589 0.89339 0.922816 0.87202 0.839135 0.868059 0.863531 0.86927 0.871144 0.864383 0.890328 0.875539 0.882314 0.896501 0.895319 0.909148 0.924787 0.928804 0.929882 0.92829 0.929712 0.912728 0.891438 0.882033 0.873422 0.869758 0.855468 0.847131 0.856944 0.849813 0.845313 0.833713 0.818347 0.82238 0.813154 0.821673 0.825106 0.817697 0.823812 0.825358 0.832303 0.781479 0.795387 0.778154 0.79604 0.793603 0.845587 0.801557 0.804857 0.779168 0.770061 0.665749 0.69488 0.747127 0.692643 0.770477 0.737265 0.822463 0.726949 0.656884 0.758074 0.707875 0.783141 0.847541 0.638897 0.772832 0.828704 0.730995 0.731718 0.653675 0.742056 0.742364 0.76942 0.716741 0.703823 0.668199 0.698252 0.731475 0.717426 0.7261 0.645378 0.697285 0.641657 0.624272 0.652899 0.576195 0.615868 0.613065 0.427798 0.633759 0.640747 0.643821 0.641795 0.640592 0.664415 0.66014 0.63905 0.608961 0.728534 0.708087 0.772033 0.738225 0.69216 0.681088 0.65789 0.664436 0.773592 0.730944 0.780985 0.733095 0.715063 0.739401 0.775616 0.768128 0.758281 0.764595 0.711381 0.753102 0.757117 0.753885 0.750188 0.831813 0.779158 0.722298 0.741891 0.685284 0.677843 0.724786 0.748297 0.766658 0.892835 0.899723 0.83812 0.866476 0.804771 0.813176 0.806158 0.796517 0.814578 0.802909 0.81422 0.876403 0.848287 0.853806 0.865075 0.853016 0.859815 0.922556 0.915026 0.901929 0.899011 0.905854 0.899655 0.90384 0.870973 0.949861 0.894398 0.852589 0.86278 0.86778 0.875249 0.884743 0.889575 0.894484 0.885243 0.896785 0.907008 0.914518 0.927068 0.930417 0.921147 0.902347 0.908357 0.890799 0.879702 0.871203 0.863237 0.858707 0.847279 0.84457 0.836911 0.854527 0.840621 0.836352 0.830348 0.829674 0.826461 0.825242 0.824878 0.836176 0.832328 0.812861 0.805595 0.842627 0.804098 0.841111 0.772207 0.77295 0.713885 0.863291 0.876967 0.85657 1.03533 0.825899 0.617141 0.857432 0.825309 0.747792 0.705575 0.673198 0.744863 0.625859 0.784867 0.695581 0.760716 0.688841 0.722251 0.693959 0.755738 0.628455 0.693076 0.729343 0.561405 0.635511 0.637537 0.707946 0.675759 0.631551 0.708183 0.635178 0.632425 0.661405 0.63473 0.579424 0.579635 0.421867 0.53576 0.460224 0.58494 0.606742 0.613668 0.618072 0.633159 0.62951 0.623152 0.638596 0.605043 0.611891 0.659475 0.633377 0.599305 0.564699 0.596036 0.703138 0.655022 0.724302 0.647301 0.547248 0.657223 0.698424 0.592472 0.631875 0.726394 0.687559 0.721097 0.6192 0.650115 0.686443 0.730409 0.701947 0.69529 0.689121 0.744888 0.717848 0.716108 0.714653 0.734822 0.717616 0.741178 0.689476 0.737023 0.719038 0.703013 0.736918 0.727751 0.781431 0.812802 0.9279 0.878398 0.911731 0.830937 0.817362 0.800699 0.821711 0.796174 0.810098 0.828044 0.832137 0.818765 0.820104 0.818499 0.749258 0.894962 0.823332 0.827452 0.848628 0.87241 0.902028 0.921894 0.92496 0.915577 0.908921 0.891723 0.885373 0.888099 0.871038 0.86991 0.872007 0.879048 0.891521 0.897566 0.893739 0.901085 0.907521 0.914238 0.92391 0.929593 0.930538 0.933971 0.925494 0.914546 0.906341 0.892811 0.877241 0.868726 0.868825 0.869808 0.882261 0.862655 0.880169 0.854933 0.850457 0.839155 0.846384 0.839351 0.828142 0.830176 0.818691 0.815724 0.814609 0.844226 0.858686 0.943153 1.0694 0.738076 0.865754 1.08519 0.787379 1.32181 0.38012 0.80771 0.730125 0.804915 0.773143 0.897979 0.787978 0.934228 0.64804 0.408682 0.68856 0.772089 0.749442 0.762947 0.608059 0.82189 0.608827 0.551858 0.419565 0.694968 0.432565 0.565816 0.456185 0.644899 0.64933 0.618928 0.62635 0.643838 0.659954 0.610273 0.599756 0.552758 0.571139 0.515347 0.565596 0.540288 0.55896 0.535942 0.541362 0.588625 0.569652 0.632824 0.631988 0.653204 0.642188 0.622651 0.619622 0.597271 0.661743 0.577548 0.670054 0.811593 0.82156 0.810679 0.540348 0.507424 0.583131 0.589899 0.617377 0.587174 0.651663 0.637463 0.671147 0.663384 0.684336 0.673468 0.710201 0.682314 0.699452 0.706826 0.716142 0.71414 0.739357 0.740269 0.729543 0.780493 0.837891 0.927439 0.843328 0.791756 0.808328 0.807193 0.82135 0.825419 0.845942 0.843332 0.791982 0.798538 0.836347 0.820501 0.829059 0.871019 0.907976 0.928349 0.930756 0.930571 0.929211 0.90892 0.894667 0.892995 0.886514 0.878791 0.874151 0.880242 0.887467 0.903555 0.901054 0.909781 0.915931 0.909474 0.915659 0.920408 0.923172 0.929378 0.933624 0.92721 0.925756 0.923161 0.913226 0.905431 0.89904 0.891722 0.900545 0.899576 0.869899 0.877738 0.896638 0.90544 0.92304 0.909673 0.870509 0.857305 0.858322 0.846694 0.839464 0.813057 0.801075 0.789479 0.809461 0.821603 1.13827 0.249804 0.54784 0.770617 1.16368 0.906315 0.88529 0.562943 0.735498 0.73531 0.790073 0.743192 0.951928 0.67341 0.710143 0.517347 0.70707 0.668231 0.442035 0.644071 0.483283 0.53116 0.512118 0.673605 0.58105 0.666096 0.66542 0.717967 0.660907 0.700323 0.653053 0.648441 0.580242 0.612908 0.555559 0.588409 0.545432 0.531886 0.503391 0.472753 0.379613 0.499237 0.465133 0.556293 0.611384 0.652686 0.640314 0.606318 0.71848 0.58124 0.518306 0.552383 0.51749 0.625725 0.575578 0.616419 0.600922 0.659018 0.540505 0.520931 0.519908 0.534199 0.591144 0.611865 0.660881 0.672594 0.667629 0.703829 0.683945 0.713161 0.702733 0.717224 0.71645 0.741366 0.754239 0.772776 0.789774 0.785417 0.77252 0.773172 0.773673 0.684352 0.760233 0.713097 0.818064 0.814525 0.77201 0.742332 0.772418 0.77501 0.817574 0.868535 0.874307 0.879713 0.862878 0.826955 0.783611 0.798676 0.786446 0.803155 0.836184 0.861178 0.896458 0.90297 0.941803 0.951517 0.94063 0.956887 0.988811 0.928544 0.884781 0.900065 0.915951 0.902321 0.895902 0.888385 0.879942 0.88018 0.887857 0.879347 0.905764 0.923726 0.926441 0.916673 0.916332 0.914237 0.920007 0.92782 0.940444 0.945684 0.957062 0.925199 0.915129 0.910107 0.907155 0.904271 0.878383 0.874744 0.930815 0.936369 0.869947 0.873793 0.861302 0.850091 0.821894 0.799368 0.771069 0.772283 0.781786 0.887394 1.1234 0.560984 0.668863 0.729558 0.816676 0.769382 0.805244 0.689276 0.735122 0.707234 0.724979 0.806238 0.889056 0.70891 0.691165 0.556525 0.600816 0.651611 0.688624 0.580315 0.674023 0.642461 0.739979 0.639885 0.677339 0.584873 0.500255 0.561664 0.527433 0.571863 0.796191 0.695631 0.588328 0.613024 0.603634 0.596387 0.593722 0.660554 0.586756 0.725237 0.595163 0.689264 0.583058 0.571366 0.650171 0.488057 0.421891 0.851814 0.245761 0.170405 0.556262 0.489458 0.62469 0.577466 0.462669 0.475071 0.593279 0.534503 0.472237 0.524381 0.474253 0.479078 0.443707 0.565174 0.544991 0.573851 0.595821 0.531136 0.598539 0.532969 0.516266 0.50288 0.488425 0.613925 0.589451 0.583516 0.626659 0.68367 0.700901 0.714251 0.716253 0.715986 0.723556 0.717566 0.716925 0.740802 0.760007 0.744633 0.748352 0.767897 0.767428 0.783529 0.717726 0.574266 0.634026 0.723771 0.809801 0.872362 0.909582 0.889517 0.870543 0.844062 0.811607 0.787822 0.780882 0.799856 0.742955 0.879974 0.963099 0.996732 0.976684 0.989774 0.875555 0.899466 0.943203 0.853586 0.87668 0.88418 0.890247 0.894943 0.89383 0.937283 0.920187 0.926894 0.924919 0.92183 0.928511 0.927965 0.936129 0.931449 0.92089 0.915704 0.912335 0.904207 0.892959 0.885474 0.884221 0.963554 1.01683 0.879135 0.895551 0.882343 0.884573 0.859028 0.797397 0.836639 0.789296 0.818556 0.906672 0.601024 0.678927 0.775687 0.748997 0.773131 0.752561 0.755738 0.733762 0.768442 0.757345 0.72091 0.74401 0.829671 0.794724 0.808922 0.766545 0.623436 0.695909 0.686535 0.698939 0.733174 0.518956 0.653901 0.538847 0.620836 0.671596 0.352725 0.619635 0.630437 0.549746 0.533651 0.535682 0.439008 0.593856 0.608787 0.558903 0.50446 0.618743 0.666633 0.538406 0.630163 0.570509 0.393298 0.478788 0.0619616 0.103135 0.39295 0.260983 0.254339 0.377689 0.585652 0.543559 0.372255 0.376747 0.430722 0.460444 0.55775 0.529113 0.560482 0.57253 0.593057 0.58789 0.583366 0.572549 0.540686 0.497676 0.505405 0.452137 0.568247 0.595402 0.620698 0.653098 0.655168 0.69016 0.710781 0.713788 0.713917 0.717468 0.714784 0.71843 0.710629 0.690907 0.732664 0.738178 0.756615 0.696393 0.673688 0.398872 0.48947 0.688628 0.728861 0.736887 0.84141 0.790464 0.85181 0.903738 0.886416 0.835414 0.798198 0.802425 0.785029 0.857347 0.66863 0.857791 1.02821 1.09249 1.01745 1.02068 0.948782 0.911632 0.895818 0.917828 0.787652 0.890333 0.861208 0.906889 0.903517 0.922093 0.932655 0.935916 0.934414 0.935612 0.928389 0.942086 0.944103 0.960897 0.946915 0.918524 0.929407 0.919294 0.914081 0.916956 0.902507 0.890823 0.885855 0.883141 0.908974 0.93828 0.852522 0.88936 0.897317 0.901707 0.888247 0.90784 0.887836 0.831801 0.87412 0.886913 0.800681 0.823245 0.861508 0.820482 0.712141 0.784514 0.792522 0.764241 0.761706 0.748384 0.763637 0.776158 0.75322 0.780793 0.7877 0.785893 0.772178 0.763457 0.734689 0.72853 0.775081 0.846352 1.22182 0.428036 0.582573 0.621037 0.961968 0.676914 0.662703 0.845377 0.907157 0.523478 0.685562 0.526652 0.565659 0.54182 0.597609 0.406653 0.52801 0.49401 0.584064 0.526641 0.522121 0.642482 0.52492 0.555336 0.431033 0.56954 0.670995 0.566094 0.533179 0.968079 0.29192 0.143197 0.45461 0.262644 0.431375 0.603279 0.51289 0.573142 0.285964 0.467179 0.66001 0.514563 0.57945 0.621737 0.651137 0.596697 0.59007 0.638473 0.395244 0.513295 0.51743 0.554612 0.616274 0.537727 0.565958 0.497359 0.430813 0.58975 0.727665 0.670507 0.682284 0.708004 0.713923 0.720445 0.725532 0.715501 0.719873 0.719766 0.7109 0.707402 0.724033 0.720983 0.729168 0.719728 0.697635 0.675003 0.773148 0.738808 0.731513 0.821295 0.864229 0.872296 0.887907 0.910966 0.839043 0.906891 0.771174 0.784513 0.783328 0.840679 0.87818 1.06775 1.09136 1.1239 0.965819 0.884425 0.957111 0.918136 0.915843 0.872368 0.767333 0.930405 0.925705 0.907907 0.917726 0.923525 0.936732 0.94037 0.944704 0.951135 0.952316 0.962822 0.95848 0.945503 0.928577 0.919734 0.911627 0.908873 0.920389 0.937688 0.900693 0.855292 0.93989 0.930807 0.870569 0.90576 0.854015 0.870916 0.893489 0.904247 0.811328 0.788297 0.813138 0.79948 0.7844 0.794113 0.80429 0.805165 0.777723 0.782432 0.789307 0.807264 0.782402 0.777319 0.761697 0.758899 0.72916 0.740097 0.709177 0.770758 0.679813 1.12549 0.702526 0.72437 0.462308 0.851995 0.488588 0.704862 0.595645 0.531596 0.526801 0.574767 0.472562 0.528725 0.557302 0.399808 0.436257 0.444847 0.457767 0.409077 0.409236 0.367354 0.495775 0.406873 0.435209 0.383593 0.263438 0.227405 0.347473 0.433738 0.493563 0.441223 0.846914 0.689503 0.702071 0.576427 0.564219 0.45232 0.453082 0.423649 0.719285 0.694986 0.637803 0.440816 0.501997 0.445325 0.388334 0.501108 0.650379 0.602893 0.652316 0.667118 0.695394 0.727461 0.726666 0.711865 0.69941 0.700091 0.72316 0.698878 0.749868 0.696937 0.704093 0.723175 0.76499 0.808601 0.774685 0.825235 0.890576 0.888284 0.908482 0.743461 0.78253 0.958381 1.02965 0.983501 0.837626 0.938792 0.931626 0.964873 0.874112 0.695427 0.970557 0.905574 0.913986 0.927638 0.922862 0.929841 0.92516 0.922478 0.941757 0.960802 0.968204 0.955117 0.966669 0.960993 0.956776 0.916314 0.921109 0.935164 0.907269 0.900356 0.923969 0.899003 0.970796 0.942955 0.972628 0.910832 0.898733 0.904994 0.856675 0.878497 0.892253 0.904415 0.915148 0.843157 0.888909 0.811198 0.806737 0.809166 0.814157 0.801174 0.794971 0.802821 0.793278 0.805042 0.784248 0.807947 0.759451 0.738494 0.722495 0.694775 0.723486 0.881886 1.04519 0.724415 0.269232 0.543956 0.576578 0.610439 0.559459 0.553011 0.534022 0.552514 0.524502 0.49587 0.651789 0.352446 0.444783 0.388303 0.474428 0.369902 0.394125 0.372873 0.423022 0.478083 0.438186 0.490717 0.525001 0.432891 0.533427 0.520136 0.511522 0.632924 0.86878 0.6217 0.457614 0.406695 0.345701 0.586801 0.422284 0.651162 1.19736 1.11923 0.578869 0.655672 0.571751 0.481972 0.596247 0.565212 0.575592 0.58204 0.624398 0.64568 0.70462 0.710832 0.737113 0.737855 0.718651 0.703634 0.704808 0.717548 0.712948 0.706632 0.731936 0.746687 0.738688 0.820828 0.763744 0.807123 0.876102 0.829508 0.863631 0.914783 0.923934 0.916901 0.87557 0.796374 0.890924 0.674703 0.724353 1.06077 1.0353 1.04927 1.07406 1.05843 1.01264 0.999972 0.947189 0.926989 0.926249 0.913519 0.946119 0.902886 0.938914 0.98188 0.955848 0.931941 0.938301 0.949098 0.937905 0.928667 0.940334 0.940065 0.96531 0.946055 0.960167 0.975492 0.973017 0.963799 0.96529 0.963774 0.947429 0.91404 0.919673 0.868879 0.862749 0.936552 0.975973 0.972089 0.997165 0.912347 0.91126 0.911607 0.840968 0.854336 0.851153 0.860314 0.882223 0.878781 0.895169 0.92589 0.860252 0.872436 0.839213 0.810013 0.822797 0.821102 0.815476 0.817305 0.813254 0.81169 0.802825 0.796038 0.805678 0.749968 0.747358 0.736665 0.717146 0.704717 0.779561 0.788607 1.03743 0.857122 0.676293 0.64729 0.787961 0.727534 0.518526 0.663843 0.601702 0.602303 0.583028 0.5885 0.58623 0.550036 0.579647 0.496037 0.590276 0.540605 0.39328 0.514816 0.425594 0.487779 0.504964 0.485259 0.458821 0.374797 0.40843 0.571778 0.546316 0.544514 0.567744 0.551355 0.581782 0.577511 0.463744 0.312446 0.509281 0.591705 0.787441 0.4551 0.632769 0.631523 0.590118 0.637648 0.555754 0.614964 0.601809 0.664471 0.716682 0.741001 0.735196 0.744009 0.73249 0.769245 0.729925 0.732522 0.739597 0.746678 0.795401 0.816391 0.829258 0.897891 0.889459 0.860008 0.900085 0.941013 0.922588 0.888334 0.788649 0.62456 1.18394 1.05724 1.02438 0.989806 0.974502 0.935782 0.966311 0.943548 0.954892 0.983992 0.959263 0.950735 0.946255 0.963244 0.946059 0.96094 0.955605 0.971618 0.93944 0.947711 0.968664 0.95607 0.928491 0.991182 0.894393 0.843535 0.918508 0.973658 0.980663 0.931697 0.896744 0.850197 0.862201 0.865894 0.862505 0.889786 0.917775 0.904322 0.915736 0.87526 0.829503 0.822453 0.821595 0.819332 0.824992 0.825391 0.821868 0.830463 0.814601 0.808866 0.803331 0.788316 0.757416 0.76197 0.751473 0.733276 0.724915 0.804906 0.796516 0.714626 0.715249 0.67505 0.643334 0.615094 0.591354 0.592386 0.594955 0.605616 0.547064 0.565176 0.567435 0.533126 0.546802 0.563222 0.531018 0.508006 0.478425 0.357171 0.59866 0.594536 0.59475 0.597539 0.579971 0.536032 0.535645 0.53902 0.566398 0.523457 0.572463 0.572394 0.548133 0.680854 0.698424 0.686689 0.691876 0.490861 0.839708 0.749762 0.73982 0.696035 0.732671 0.702366 0.710791 0.739244 0.784298 0.741979 0.736598 0.776877 0.816382 0.83614 0.865418 0.857801 0.899782 0.88576 0.942462 0.932553 0.945128 0.9463 0.890571 0.896054 0.840329 0.853942 0.716139 0.857924 1.23726 1.11922 1.00685 0.965329 0.977747 0.973761 0.977559 0.95339 0.971114 0.981271 0.971501 0.971774 0.963227 0.958745 0.965384 0.95838 0.969108 0.96826 0.957345 0.969566 0.959491 0.972914 0.947021 0.939732 0.94039 0.986156 0.960019 0.958503 0.987412 0.963106 0.741904 0.876604 1.02375 1.03821 1.07353 0.906654 0.972264 0.964081 0.934128 0.898174 0.861438 0.864827 0.898389 0.865981 0.893898 0.905509 0.911754 0.865467 0.823422 0.829478 0.823274 0.81709 0.82324 0.824482 0.821054 0.856946 0.81846 0.830247 0.80967 0.789069 0.784944 0.777313 0.790201 0.793828 0.817728 0.904768 0.769958 0.769188 0.716368 0.712662 0.69272 0.674844 0.635782 0.589451 0.61676 0.621047 0.556583 0.602574 0.570066 0.578246 0.557899 0.591941 0.553851 0.348787 0.633026 0.624359 0.627744 0.616756 0.569119 0.568791 0.497222 0.495651 0.509142 0.55439 0.689904 0.543704 0.583033 0.631304 0.730171 0.791113 0.668317 0.934467 0.722731 0.696713 0.634663 0.563254 0.679997 0.715327 0.808577 0.785171 0.698211 0.766535 0.763031 0.765886 0.820594 0.843711 0.833233 0.86908 0.892742 0.896137 0.94774 0.918259 0.908651 0.867412 0.779423 0.786172 0.310441 1.32711 1.02662 0.98192 0.97318 0.977454 0.983101 0.977013 0.981131 0.987281 0.979549 0.967839 0.958442 0.967473 0.98544 0.975329 0.96807 0.990988 0.981588 0.977091 0.952103 0.940488 0.923796 0.965392 0.97371 0.967349 0.952459 0.997132 1.07612 0.952632 0.952938 0.915156 0.947634 0.944775 0.902857 0.867159 0.86275 0.920286 0.8723 0.900955 0.890374 0.901486 0.919164 0.887971 0.852973 0.836053 0.823271 0.818486 0.8225 0.81536 0.82018 0.814203 0.826195 0.802946 0.777114 0.902382 0.829231 0.859238 0.821773 0.756961 0.779387 0.815963 0.744133 0.782166 0.824212 0.871751 0.797444 0.823708 0.777448 0.731101 0.695838 0.702154 0.699321 0.660742 0.677436 0.671845 0.586713 0.607355 0.579279 0.534363 0.506726 0.632717 0.569767 0.582968 0.55302 0.586797 0.574141 0.677147 0.581243 0.802516 0.677172 0.711825 0.643989 0.646818 0.517541 0.535984 0.573457 0.663682 0.661177 0.675438 0.572111 0.733225 0.645041 0.777522 0.82463 0.766702 0.842633 0.743123 0.69394 0.490969 0.862464 0.651078 0.928898 0.81966 0.816486 0.82381 0.855807 0.852203 0.833519 0.864754 0.923653 0.888151 0.878792 0.942865 0.87054 0.877897 0.876875 0.791847 0.673854 0.408721 1.32005 1.26251 1.21855 1.01023 0.966633 0.980894 0.970605 0.987434 0.991146 0.977451 0.945369 0.972163 1.00579 0.973231 1.01628 0.990245 0.966426 0.972013 0.948643 0.919531 0.99462 0.952569 0.967359 0.97583 0.979894 1.00567 0.984668 1.04726 0.955223 0.966826 0.950943 0.935834 0.947856 0.953151 0.962217 0.912167 0.955367 0.898604 0.87542 0.965674 0.896463 0.903981 0.902994 0.920882 0.882721 0.84545 0.817503 0.803403 0.824448 0.833088 0.786123 0.778863 0.93627 0.938533 0.616217 0.746315 0.814967 0.861313 0.800313 0.875045 0.824686 0.809742 0.701091 0.721784 0.745227 0.717601 0.690469 0.683408 0.677062 0.580767 0.460487 0.672782 0.716868 0.56072 0.636071 0.605985 0.542569 0.604062 0.781723 0.75273 0.638769 0.707327 0.550989 0.545925 0.595325 0.661435 0.626589 0.602174 0.735867 0.842651 0.768844 0.806059 0.812278 0.783731 0.778303 0.757769 0.683749 0.772982 0.90371 1.01639 0.716394 0.789519 0.797495 0.836463 0.875661 0.890968 0.881669 0.867166 0.82276 0.853987 0.685349 0.964791 0.922412 0.812692 0.880356 0.871987 0.863991 0.877748 0.803643 0.709618 0.563847 1.18124 1.08826 1.05243 1.0212 0.975498 1.00283 0.964217 0.97489 0.985831 0.982044 0.967354 0.977955 0.990224 1.04189 1.00035 1.00877 1.02851 0.985439 0.971924 0.933633 1.03057 0.965128 1.01816 0.98292 0.986036 1.03958 1.02432 0.967532 0.962872 0.948925 0.958257 1.00366 0.959373 0.928716 0.887209 0.83952 0.902349 0.902855 0.93346 0.852973 0.803143 0.785013 0.807426 0.847544 0.810104 0.772744 0.942512 0.936495 0.979451 0.647192 0.808583 0.838986 0.818317 0.819725 0.768654 0.798792 0.857766 0.722004 0.706172 0.780809 0.779883 0.744618 0.685272 0.672576 0.698464 0.690826 0.707352 0.574335 0.609928 0.641649 0.704993 0.525335 0.603423 0.670463 0.636386 0.784732 0.708918 0.708731 0.66643 0.717923 0.592936 0.562119 0.59638 0.644755 0.625513 0.66045 0.675939 0.773015 0.780301 0.75047 0.833967 0.771135 0.793357 0.790156 0.702751 0.695712 0.767421 0.899737 0.966306 0.716711 0.753947 0.73974 0.804868 0.873885 0.87592 0.848212 0.759961 0.614778 0.914202 0.811454 0.805357 0.855986 0.891509 0.910101 0.85707 0.884351 0.882796 0.819565 0.768402 0.756302 0.950409 0.925421 0.969262 1.02512 0.996469 1.00519 0.998372 0.999195 1.0085 0.983317 0.989788 0.976215 0.990718 1.01613 0.977474 1.07191 1.0324 1.01672 0.972943 1.00712 0.989264 0.953663 0.990385 1.04485 1.01763 0.984649 0.985483 1.02295 1.02181 0.983116 0.979061 0.962922 1.02063 0.96345 0.922729 0.888051 0.915171 0.824449 0.896329 0.84161 0.855208 0.950876 0.96606 0.911911 0.847827 0.789829 0.803705 0.837478 0.850776 0.870866 0.900147 0.97761 0.77558 0.81232 0.806976 0.799593 0.800099 0.783912 0.775269 0.755361 0.75115 0.744406 0.772291 0.798966 0.800455 0.614765 0.668595 0.715165 0.662808 1.00376 1.00425 0.754046 0.641489 0.667843 0.622903 0.688673 0.653988 0.712842 0.680176 0.693818 0.695878 0.642334 0.640814 0.602615 0.686474 0.616676 0.67431 0.68567 0.747912 0.744045 0.829176 0.7714 0.783425 0.753492 0.777153 0.78821 0.814538 0.683941 0.831457 0.853737 0.909297 0.82397 0.736346 0.720229 0.854618 0.899237 0.847804 0.838647 0.74647 0.639002 0.813775 0.807978 0.804285 0.931379 0.889007 0.859746 0.835602 0.895817 0.956269 0.980538 1.00168 0.984595 0.998052 1.00245 1.00278 1.00918 1.00409 0.979795 1.03846 1.12928 1.05772 1.03726 1.02382 0.984709 1.00273 0.877873 0.972021 1.0163 0.999234 1.07156 1.0168 0.98773 0.990845 1.00298 0.990713 0.993708 0.97919 0.973281 1.01104 1.00953 1.02426 0.973159 0.949882 0.919796 0.908239 0.829604 0.827454 0.960097 0.909573 0.829636 0.761475 0.915597 0.873672 0.855299 0.872948 0.84999 0.895257 0.898758 0.942254 0.799468 0.786627 0.773493 0.753663 0.683656 0.738484 0.750847 0.767291 0.797842 0.866257 0.557522 0.661135 0.863778 0.72913 0.688501 0.643632 0.72675 0.763572 0.677594 0.765445 0.665983 0.686604 0.705629 0.692281 0.716054 0.698384 0.71416 0.703379 0.625197 0.759856 0.752387 0.621992 0.741945 0.689545 0.763458 0.747796 0.765633 0.780556 0.763384 0.763443 0.790448 0.822073 0.79711 0.80677 0.85181 0.739201 0.705216 0.880693 0.891093 0.875764 0.746173 0.845826 0.778049 0.926635 0.855859 0.909997 0.82178 0.951683 0.883672 0.848701 0.894193 0.954658 0.994667 0.983611 0.966798 0.979603 1.00573 1.01307 1.01161 1.01085 0.993101 0.990349 1.02745 1.09075 1.08888 1.05275 1.02392 1.02487 1.03617 1.04184 1.00188 1.01706 1.0134 1.02841 1.06536 1.00924 0.98043 1.08496 1.04474 1.02324 0.991056 0.988256 0.999717 0.983043 0.994652 0.977695 0.982559 1.01396 1.03601 0.991062 0.963113 0.910089 0.873338 0.830752 0.910203 0.945703 0.871366 0.798075 0.892785 0.863798 0.882379 0.906743 0.904112 0.911886 0.921669 0.823643 0.777705 0.772464 0.717254 0.704149 0.7014 0.735171 0.780863 0.855355 0.934855 0.604748 0.696165 0.756761 0.812737 0.672339 0.684251 0.701264 0.756232 0.723216 0.753462 0.708302 0.696463 0.676469 0.717293 0.725134 0.798218 0.778377 0.701344 0.69728 0.8186 0.718721 0.757346 0.771654 0.783447 0.74263 0.755022 0.760623 0.75545 0.763186 0.780971 0.80391 0.853182 0.931085 0.719444 0.788257 0.792798 0.925922 0.886048 0.86649 1.02639 0.860027 0.862456 0.784454 0.912013 0.826414 0.908067 1.05828 0.999481 0.978905 0.862954 0.872049 0.969805 0.982882 0.935907 0.964474 1.03472 1.00164 1.00691 1.01226 0.991865 0.994937 1.02976 1.08994 1.08766 1.08882 1.04958 1.02031 1.03673 0.997465 0.98119 1.00684 1.01353 0.993716 0.997411 1.00459 0.963511 0.97754 0.977411 1.01287 1.00775 1.02277 1.03476 1.02609 0.898441 0.83787 0.808195 0.881781 0.827879 0.887204 0.931788 0.897043 0.895743 0.868147 0.910141 0.91281 0.927881 0.930046 0.875289 0.866978 0.82236 0.791234 0.780091 0.71098 0.703443 0.726727 0.748587 0.807717 0.912611 0.822207 0.734441 0.763493 0.678251 0.730921 0.728355 0.751512 0.727867 0.754781 0.739375 0.735224 0.78549 0.73043 0.664615 0.814951 0.802004 0.759888 0.781158 0.750806 0.745435 0.746653 0.737783 0.762752 0.776859 0.792566 0.799216 1.04558 0.860097 0.760921 0.854023 0.959586 0.899138 0.888276 0.830555 0.960464 0.812537 0.79264 1.01971 0.911015 0.802158 0.910501 0.934761 0.898898 0.841983 0.943339 0.885061 0.867178 0.986838 1.01331 0.930692 0.956 1.04607 1.02427 1.00278 1.02592 0.991736 1.02529 1.0166 1.01844 1.22056 0.986858 1.00696 1.04168 0.9897 1.00334 1.00361 1.04439 0.980115 1.00378 1.01558 1.06382 1.14885 0.742925 0.827601 0.948061 0.893227 0.934524 0.891806 0.899553 0.924796 0.885346 0.881909 0.878966 0.916939 0.926484 0.906458 0.901303 0.838156 0.876845 0.789131 0.783715 0.699311 0.759396 0.736009 0.785962 0.869217 0.92723 0.734662 0.660902 0.689094 0.734201 0.737433 0.752916 0.760349 0.761202 0.745628 0.754256 0.726051 0.66749 0.860648 0.920933 0.738979 0.861708 0.819835 0.748117 0.768378 0.765271 0.816783 0.849755 0.934926 0.729205 0.91955 0.796352 0.805977 0.985292 0.94309 1.02178 0.844636 0.782043 0.959657 0.971779 0.82782 0.895111 0.955022 0.906229 0.894137 0.929878 0.898526 0.880513 0.896001 0.886063 0.876541 0.88515 0.795745 0.699236 0.762601 0.735084 0.779247 0.806801 0.987254 0.795026 0.734415 0.67752 0.685897 0.73095 0.743499 0.749516 0.780526 0.777559 0.745491 0.759994 0.778859 0.812332 
SCALARS Stress float 1
LOOKUP_TABLE default
-154359000000.0 -266864000000.0 -311572000000.0 -136375000000.0 -213273000000.0 -395117000000.0 -332368000000.0 -128474000000.0 -667383000000.0 -477467000000.0 -195492000000.0 -261301000000.0 -504485000000.0 -61444200000.0 -269682000000.0 -260808000000.0 -366879000000.0 -597189000000.0 -221665000000.0 -305705000000.0 -229111000000.0 -295472000000.0 -189207000000.0 -498884000000.0 -1.04007e+12 -1.18227e+12 -690744000000.0 -867116000000.0 -370668000000.0 -1.11152e+12 -1.04938e+12 -1.27779e+12 -798396000000.0 -774957000000.0 -147159000000.0 -654109000000.0 -605920000000.0 -379765000000.0 -746327000000.0 -863813000000.0 -497528000000.0 -954823000000.0 -803583000000.0 -419397000000.0 -913389000000.0 -926782000000.0 -1.60921e+12 -1.2746e+12 -878902000000.0 -1.75967e+12 -1.23987e+12 -1.36724e+12 -1.51196e+12 -1.88703e+12 -1.90354e+12 -741395000000.0 -624509000000.0 -1.13166e+12 -766760000000.0 -264514000000.0 -1.43202e+12 -1.05123e+12 -668309000000.0 -1.06625e+12 -1.41791e+12 -1.71163e+12 -842118000000.0 -1.20733e+12 -1.73142e+12 -1.23935e+12 -802784000000.0 -1.45493e+12 -1.70651e+12 -1.67039e+12 -2.72907e+12 -2.33575e+12 -2.33263e+12 -443726000000.0 -1.71405e+12 -1.234e+12 -942040000000.0 -2.8994e+12 -2.66361e+12 -2.27738e+12 -979396000000.0 -2.25653e+12 -2.29773e+12 -1.34352e+12 -1.81265e+12 -832902000000.0 -1.64755e+12 -2.02585e+12 -2.36086e+12 -843748000000.0 -1.83043e+12 -1.5673e+12 -3.68622e+12 -1.86891e+12 -2.81698e+12 -2.21311e+12 -2.71405e+12 -2.67166e+12 -2.13932e+12 -751819000000.0 -1.48605e+12 -2.44525e+12 -2.34917e+12 -1.40732e+12 -2.38801e+12 -1.11501e+12 -4.74413e+12 -913092000000.0 -1.3976e+12 -3.9404e+12 -1.586e+12 -675890000000.0 -1.6043e+12 -1.52879e+12 -901348000000.0 -849364000000.0 -1.4521e+12 -814199000000.0 -1.96561e+12 -3.81424e+12 -4.72066e+12 -2.71885e+12 -3.27886e+12 -2.51105e+12 -2.74067e+12 -1.01636e+12 -1.86981e+12 -2.36337e+12 -3.10441e+12 -1.82911e+12 -1.07864e+12 -2.1095e+12 -1.24353e+12 -1.45179e+12 -3.45316e+12 -3.50729e+12 -2.95228e+12 -2.55606e+12 -857925000000.0 -1.15029e+12 -2.45939e+12 -1.86455e+12 -2.02493e+12 -2.32521e+12 -2.33727e+12 -1.13348e+12 -553863000000.0 -1.70932e+12 -3.27688e+12 -2.90366e+12 -3.48961e+12 -5.608e+12 -1.93488e+12 -3.84564e+12 -2.74818e+12 -2.02947e+12 -4.2362e+12 -2.98e+12 -2.4245e+12 -3.96698e+12 -3.74752e+12 -3.56068e+12 -1.83887e+12 -2.37069e+12 -2.6915e+12 -899061000000.0 -1.71877e+12 -3.02677e+12 -2.71121e+12 -3.23651e+12 -3.43868e+12 -1.86583e+12 -744812000000.0 -1.54032e+12 -2.84762e+12 -2.18321e+12 -4.88726e+12 -2.74398e+12 -4.67052e+12 -3.56532e+12 -4.08522e+12 -2.33693e+12 -4.82441e+12 -3.51961e+12 -3.90312e+12 -3.65951e+12 -3.33069e+12 -3.49959e+12 -998605000000.0 -3.57093e+12 -3.14129e+12 -1.72031e+12 -4.70486e+12 -2.75799e+12 -2.59185e+12 -3.62525e+12 -3.45434e+12 -4.70883e+12 -2.24996e+12 -1.50788e+12 -1.67703e+12 -2.96106e+12 -2.01013e+12 -2.71403e+12 -5.75128e+12 -1.5265e+12 -4.54413e+12 -4.44513e+12 -5.86967e+12 -4.50486e+12 -4.48847e+12 -4.62577e+12 -4.74634e+12 -3.27748e+12 -5.43032e+12 -6.97211e+12 -4.58851e+12 -4.07577e+12 -5.81119e+12 -4.44809e+12 -3.79089e+12 -4.99636e+12 -3.80574e+12 -2.8362e+12 -5.07715e+12 -1.68982e+12 -4.16585e+12 -3.51415e+12 -1.88375e+12 -2.28667e+12 -1.94929e+12 -2.84222e+12 -1.88088e+12 -5.65138e+12 -7.29028e+12 -5.63146e+12 -2.74083e+12 -3.95272e+12 -4.27615e+12 -3.4278e+12 -3.6638e+12 -4.02509e+12 -5.21951e+12 -3.43429e+12 -3.95713e+12 -5.6377e+12 -4.45826e+12 -4.62684e+12 -4.71119e+12 -5.6618e+12 -5.1357e+12 -6.37503e+12 -7.6754e+12 -6.13059e+12 -3.38094e+12 -4.75824e+12 -2.4451e+12 -5.56954e+12 -3.77836e+12 -4.67435e+12 -3.84402e+12 -4.86065e+12 -5.40456e+12 -3.02459e+12 -3.43027e+12 -6.17904e+12 -6.23719e+12 -6.3029e+12 -3.39993e+12 -4.605e+12 -3.45327e+12 -5.88351e+12 -6.532e+12 -4.13095e+12 -4.70419e+12 -4.2442e+12 -5.61249e+12 -3.17859e+12 -5.48734e+12 -2.815e+12 -4.13393e+12 -6.18411e+12 -3.77825e+12 -3.86371e+12 -4.43098e+12 -4.37829e+12 -6.14276e+12 -7.04802e+12 -2.66132e+12 -8.20277e+12 -3.58763e+12 -5.30937e+12 -6.76524e+12 -5.18403e+12 -5.40808e+12 -6.48271e+12 -2.27642e+12 -3.86438e+12 -4.66821e+12 -2.7666e+12 -3.11087e+12 -3.84566e+12 -7.51462e+12 -4.66287e+12 -5.71666e+12 -2.63054e+12 -5.14613e+12 -3.37146e+12 -7.00998e+12 -2.48061e+12 -8.05556e+12 -5.57611e+12 -7.47323e+12 -7.42586e+12 -4.20635e+12 -5.80043e+12 -4.78886e+12 -5.67008e+12 -5.28671e+12 -6.5213e+12 -4.12883e+12 -6.94461e+12 -6.91676e+12 -4.27019e+12 -3.83823e+12 -4.94056e+12 -6.64785e+12 -7.3656e+12 -4.30818e+12 -6.31885e+12 -3.65956e+12 -4.98294e+12 -4.34471e+12 -5.15196e+12 -2.4864e+12 -3.32968e+12 -4.57579e+12 -4.22195e+12 -5.39895e+12 -2.15264e+12 -7.57399e+12 -5.39964e+12 -4.48569e+12 -5.27362e+12 -12549700000.0 -2.52808e+12 -1.5938e+12 -6.43579e+12 -2.66317e+12 -4.39365e+12 -5.48484e+12 -5.09882e+12 -5.38995e+12 -5.11878e+12 -5.82489e+12 -6.88373e+12 -6.6019e+12 -3.70636e+12 -4.80438e+12 -4.85464e+12 -2.4069e+12 -3.97067e+12 -4.36164e+12 -4.15066e+12 -6.08344e+12 -2.59963e+12 -5.53256e+12 -4.33647e+12 -5.37061e+12 -6.29588e+12 -2.85897e+12 -5.28847e+12 -4.49566e+12 -5.80527e+12 -5.27711e+12 -4.66016e+12 -3.34479e+12 -6.09541e+12 -6.66605e+12 -5.77507e+12 -7.10427e+12 -4.7526e+12 -3.5978e+12 -2.88756e+12 -5.23859e+12 -7.01181e+12 -5.85624e+12 -5.96151e+12 -5.38967e+12 -5.06512e+12 -5.26148e+12 -6.1188e+12 -4.67755e+12 -5.72417e+12 -5.30387e+12 -5.26505e+12 -4.85732e+12 -3.74291e+12 -5.08186e+12 -5.49195e+12 -3.57912e+12 -3.58284e+12 -3.61452e+12 -3.83769e+12 -5.02988e+12 -5.7493e+12 -5.96006e+12 -5.51691e+12 -5.58308e+12 -7.11705e+12 -5.92096e+12 -6.86376e+12 -2.07787e+12 -6.2585e+12 -3.28017e+12 -4.63613e+12 -4.79218e+12 -5.03461e+12 -4.33233e+12 -4.0599e+12 -8.23145e+12 -4.95322e+12 -3.40448e+12 -5.51626e+12 -7.13071e+12 -4.20942e+12 -4.04783e+12 -5.1981e+12 -6.3359e+12 -5.65364e+12 -3.23074e+12 -5.25955e+12 -3.76853e+12 -3.93043e+12 -3.18677e+12 -3.85749e+12 -3.52093e+12 -7.43946e+12 -7.30496e+12 -7.5036e+12 -4.73126e+12 -4.0183e+12 -6.787e+12 -8.17201e+12 -5.91366e+12 -4.16992e+12 -3.57892e+12 -5.25244e+12 -5.07825e+12 -5.10979e+12 -5.99252e+12 -7.23107e+12 -3.94253e+12 -3.59227e+12 -3.7414e+12 -4.93662e+12 -4.89307e+12 -3.67878e+12 -4.29293e+12 -5.76474e+12 -8.38003e+12 -4.28105e+12 -6.09113e+12 -5.20515e+12 -6.50767e+12 -6.8427e+12 -2.89377e+12 -4.11656e+12 -7.21775e+12 -5.34299e+12 -5.38308e+12 -3.84513e+12 -2.90016e+12 -4.66159e+12 -4.85536e+12 -7.99729e+12 -8.91468e+12 -6.12758e+12 -4.13497e+12 -6.30001e+12 -5.15653e+12 -6.68907e+12 -3.62838e+12 -5.62483e+12 -7.09649e+12 -4.75968e+12 -5.23361e+12 -3.8277e+12 -6.02717e+12 -2.92896e+12 -5.73722e+12 -5.57501e+12 -4.71949e+12 -6.9092e+12 -2.19417e+12 -151989000000.0 -4.88601e+12 -5.68762e+12 -7.83523e+12 -8.52777e+12 -6.5665e+12 -8.30139e+12 -7.97554e+12 -8.47106e+12 -7.47461e+12 -8.79662e+12 -8.2112e+12 -4.69121e+12 -5.70722e+12 -3.72374e+12 -6.62512e+12 -6.56813e+12 -5.90708e+12 -4.86309e+12 -5.11403e+12 -6.04859e+12 -5.8568e+12 -7.76389e+12 -4.46777e+12 -6.59751e+12 -5.83422e+12 -4.20572e+12 -6.52526e+12 -5.42724e+12 -6.9573e+12 -5.13363e+12 -6.44159e+12 -5.41755e+12 -4.84904e+12 -6.21546e+12 -6.8339e+12 -2.4877e+12 -3.80405e+12 -5.45335e+12 -8.58987e+12 -9.78096e+12 -3.26001e+12 -3.93466e+12 -3.64424e+12 -5.55607e+12 -7.92208e+12 -7.66756e+12 -3.65356e+12 -4.29063e+12 -4.86965e+12 -7.47275e+12 -4.21054e+12 -1.1023e+13 -6.43837e+12 -1.06908e+13 -7.34977e+12 -7.24517e+12 -6.55399e+12 -5.50557e+12 -4.63354e+12 -6.80261e+12 -3.7277e+12 -1.23732e+13 -6.56435e+12 -5.13348e+12 -5.40968e+12 -4.12173e+12 -5.19257e+12 -1.14422e+13 -3.9608e+12 -7.66606e+12 -3.34696e+12 -3.22153e+12 -9.54233e+12 -4.06527e+12 -5.70634e+12 -7.16621e+12 -6.25937e+12 -7.40852e+12 -6.59537e+12 -1.12306e+13 -4.47198e+12 -4.75843e+12 -6.75826e+12 -6.03134e+12 -8.10368e+12 -8.53752e+12 -5.94757e+12 -5.93243e+12 -8.31849e+12 -1.06609e+13 -6.96609e+12 -9.9941e+12 -9.39617e+12 -4.49426e+12 -4.91483e+12 -4.94093e+12 -5.07161e+12 -6.29248e+12 -6.67559e+12 -7.30839e+12 -4.6827e+12 -3.94515e+12 -8.84578e+12 -5.81879e+12 -6.81606e+12 -5.39213e+12 -8.38451e+12 -7.63964e+12 -1.09598e+13 -6.0737e+12 -3.97828e+12 -3.46848e+12 -4.29649e+12 -9.25622e+12 -1.12392e+13 -5.90176e+12 -4.75989e+12 -8.60314e+12 -6.14635e+12 -7.45259e+12 -7.9054e+12 -4.41824e+12 -4.68824e+12 -5.10985e+12 -4.99373e+12 -7.18438e+12 -4.86452e+12 -4.22209e+12 -5.28749e+12 -5.185e+12 -9.12522e+12 -7.56075e+12 -1.20427e+13 -7.51803e+12 -7.99084e+12 -7.97582e+12 -1.00763e+13 -2.88672e+12 -9.08741e+12 -6.29976e+12 -1.2889e+13 -1.08049e+13 -4.82574e+12 -7.51359e+12 -8.06271e+12 -1.78612e+13 -1.34761e+13 -9.26608e+12 -6.95162e+12 -7.5347e+12 -4.07425e+12 -5.92233e+12 -7.99249e+12 -6.25077e+12 -7.339e+12 -7.44476e+12 -6.18796e+12 -4.9384e+12 -7.99759e+12 -7.94224e+12 -7.85878e+12 -6.03425e+12 -7.28682e+12 -3.81345e+12 -7.83768e+12 -4.35336e+12 -6.31427e+12 -1.06158e+13 -6.01796e+12 -7.34164e+12 -7.48623e+12 -9.12065e+12 -7.89922e+12 -7.06058e+12 -4.87677e+12 -8.34871e+12 -8.7894e+12 -6.92598e+12 -7.16672e+12 -6.89938e+12 -2.62559e+12 -6.76379e+12 -6.51664e+12 -5.34447e+12 -6.42895e+12 -6.62331e+12 -4.6251e+12 -7.68654e+12 -6.34566e+12 -6.74694e+12 -4.30136e+12 -6.37408e+12 -6.75138e+12 -5.00216e+12 -8.45755e+12 -4.97056e+12 -7.47644e+12 -5.76848e+12 -7.84561e+12 -2.18154e+12 -1.07995e+13 -6.52468e+12 -7.14589e+12 -8.75615e+12 -6.27671e+12 -6.11183e+12 -1.27542e+13 -5.51e+12 -8.44606e+12 -9.54132e+12 -6.20347e+12 -1.13362e+13 -3.97314e+12 -1.06514e+13 -1.06121e+13 -1.03717e+13 -5.09728e+12 -5.6686e+12 -7.52399e+12 -7.29072e+12 -5.82147e+12 -8.12986e+12 -6.07735e+12 -4.74444e+12 -7.70498e+12 -5.20532e+12 -7.18397e+12 -3.75522e+12 -4.00956e+12 -4.36184e+12 -6.31785e+12 -1.06427e+13 -5.7558e+12 -6.81384e+12 -3.64439e+12 -5.85708e+12 -6.4901e+12 -4.98376e+12 -5.21425e+12 -8.84861e+12 -4.95956e+12 -1.14579e+13 -1.17535e+13 -1.2935e+13 -4.98728e+12 -6.95644e+12 -5.65172e+12 -5.77078e+12 -4.42529e+12 -4.10632e+12 -4.67878e+12 -4.29395e+12 -6.86192e+12 -9.02338e+12 -7.33815e+12 -7.18056e+12 -4.54767e+12 -5.39013e+12 -7.233e+12 -5.47273e+12 -4.47058e+12 -6.13969e+12 -2.9988e+12 -5.77136e+12 -6.81362e+12 -2.4702e+12 -5.91753e+12 -7.52546e+12 -4.24966e+12 -6.38657e+12 -5.21952e+12 -6.82213e+12 -4.80693e+12 -6.75279e+12 -6.97574e+12 -8.27693e+12 -5.87647e+12 -3.80096e+12 -7.40543e+12 -4.40035e+12 -3.98544e+12 -4.39364e+12 -5.71139e+12 -6.02173e+12 -6.16566e+12 -2.73547e+12 -7.68037e+12 -7.37109e+12 -1.05781e+13 -5.70869e+12 -1.09045e+13 -7.54223e+12 -8.88398e+12 -6.00744e+12 -6.48081e+12 -9.58191e+12 -7.96998e+12 -6.87661e+12 -1.33756e+13 -5.13754e+12 -9.43966e+12 -1.10834e+13 -6.02497e+12 -4.90352e+12 -3.83528e+12 -5.18969e+12 -8.02763e+12 -3.81476e+12 -5.47388e+12 -3.60719e+12 -6.11622e+12 -4.02374e+12 -8.24425e+12 -9.21256e+12 -7.31369e+12 -9.20494e+12 -1.1365e+13 -7.8717e+12 -8.13382e+12 -6.53426e+12 -8.70311e+12 -4.82825e+12 -4.6783e+12 -8.70941e+12 -1.24813e+13 -8.25702e+12 -9.57603e+12 -4.84888e+12 -1.08804e+13 -1.01019e+13 -6.11498e+12 -4.69099e+12 -6.10975e+12 -9.63921e+12 -9.37074e+12 -6.72531e+12 -9.1767e+12 -6.40499e+12 -3.73438e+12 -6.34628e+12 -5.08845e+12 -3.64127e+12 -4.39621e+12 -4.10661e+12 -1.11192e+13 -5.23305e+12 -6.3247e+12 -7.87269e+12 -7.23773e+12 -9.08327e+12 -3.95707e+12 -5.3063e+12 -7.63838e+12 -8.75007e+12 -7.87347e+12 -2.43936e+12 -2.92362e+12 -8.92851e+12 -4.54649e+12 -5.08064e+12 -4.05119e+12 -8.67151e+12 -4.04442e+12 -5.31001e+12 -3.64047e+12 -9.09152e+12 -6.0215e+12 -7.14615e+12 -7.27527e+12 -5.26634e+12 -7.10538e+12 -8.15877e+12 -4.77317e+12 -6.91366e+12 -7.27772e+12 -7.32702e+12 -5.26688e+12 -7.47986e+12 -9.29211e+12 -5.32539e+12 -4.26146e+12 -1.04377e+13 -8.62931e+12 -1.03334e+13 -1.01752e+13 -7.61835e+12 -5.26821e+12 -5.38695e+12 -1.14421e+13 -7.76985e+12 -3.89869e+12 -9.39539e+12 -4.25806e+12 -1.04206e+13 -5.52991e+12 -7.0121e+12 -4.7155e+12 -6.99328e+12 -7.80182e+12 -3.39327e+12 -4.92786e+12 -4.9487e+12 -5.91303e+12 -7.91972e+12 -2.63859e+12 -5.43863e+12 -8.35043e+12 -1.05015e+13 -7.85582e+12 -7.54342e+12 -8.33215e+12 -8.23517e+12 -7.69762e+12 -7.50201e+12 -4.48123e+12 -7.6501e+12 -5.21799e+12 -8.10561e+12 -7.64783e+12 -7.55493e+12 -8.08804e+12 -6.02215e+12 -6.22038e+12 -6.07655e+12 -7.03686e+12 -8.3107e+12 -6.93228e+12 -8.91952e+12 -7.42217e+12 -6.73318e+12 -5.69446e+12 -4.86707e+12 -8.06119e+12 -9.26225e+12 -7.03008e+12 -4.40548e+12 -7.49309e+12 -8.81257e+12 -5.44648e+12 -9.22269e+12 -5.82429e+12 -6.90219e+12 -6.58288e+12 -8.96965e+12 -9.86818e+12 -8.06119e+12 -6.4482e+12 -4.62434e+12 -7.28978e+12 -4.83477e+12 -1.03336e+13 -5.45512e+12 -4.29374e+12 -4.86622e+12 -7.01879e+12 -8.83231e+12 -7.78728e+12 -1.02738e+13 -7.12159e+12 -5.93528e+12 -5.77656e+12 -8.22999e+12 -5.20722e+12 -6.24566e+12 -4.1837e+12 -5.58791e+12 -6.91716e+12 -8.19247e+12 -5.33936e+12 -6.74851e+12 -6.22205e+12 -8.29532e+12 -6.71646e+12 -5.8811e+12 -5.41966e+12 -3.07867e+12 -5.67843e+12 -2.40029e+12 -6.1587e+12 -9.91466e+12 -1.06383e+13 -5.86614e+12 -9.773e+12 -7.15594e+12 -3.74144e+12 -7.20807e+12 -5.86458e+12 -5.47428e+12 -6.40919e+12 -6.41906e+12 -7.11784e+12 -9.08783e+12 -7.53697e+12 -1.23819e+13 -1.41933e+13 -9.21952e+12 -8.0307e+12 -1.15398e+13 -5.80441e+12 -5.2759e+12 -7.83286e+12 -8.03226e+12 -9.75146e+12 -6.06081e+12 -9.8441e+12 -8.0966e+12 -7.67199e+12 -7.23171e+12 -6.51152e+12 -5.89435e+12 -5.40542e+12 -1.01736e+13 -5.73897e+12 -7.86877e+12 -1.37556e+13 -9.24803e+12 -3.99504e+12 -9.23007e+12 -7.75727e+12 -4.86181e+12 -2.99171e+12 -6.34708e+12 -3.76541e+12 -3.15457e+12 -5.58419e+12 -6.85671e+12 -5.23583e+12 -6.15065e+12 -5.09897e+12 -4.04132e+12 -5.63091e+12 -6.31766e+12 -4.51562e+12 -9.81863e+12 -4.69449e+12 -8.56378e+12 -5.4141e+12 -6.15694e+12 -5.30145e+12 -1.0829e+13 -5.70226e+12 -4.72576e+12 -7.4512e+12 -6.68666e+12 -6.86561e+12 -5.40075e+12 -4.73356e+12 -1.15232e+13 -8.19967e+12 -6.58823e+12 -6.54209e+12 -9.19736e+12 -5.75456e+12 -7.65007e+12 -5.75582e+12 -7.26304e+12 -6.38989e+12 -8.10158e+12 -7.44999e+12 -6.54627e+12 -6.15985e+12 -7.04007e+12 -9.84224e+12 -5.18517e+12 -1.06894e+13 -6.95371e+12 -8.24687e+12 -8.19654e+12 -8.68918e+12 -7.73483e+12 -7.93075e+12 -8.4183e+12 -1.37e+13 -3.38136e+12 -4.32351e+12 -9.88883e+12 -7.3348e+12 -6.0271e+12 -8.14975e+12 -1.04454e+13 -1.2183e+13 -4.04337e+12 -1.02692e+13 -9.54994e+12 -8.95437e+12 -1.2915e+13 -4.64449e+12 -1.00885e+13 -8.89667e+12 -6.67187e+12 -9.60374e+12 -4.58399e+12 -5.90205e+12 -9.00719e+12 -6.083e+12 -8.29882e+12 -7.7925e+12 -7.48231e+12 -7.3856e+12 -9.45631e+12 -8.61825e+12 -4.62376e+12 -5.35006e+12 -9.86491e+12 -7.88307e+12 -5.96771e+12 -8.16788e+12 -1.36852e+13 -5.34258e+12 -9.08152e+12 -9.95702e+12 -5.48127e+12 -6.96636e+12 -3.79998e+12 -6.21504e+12 -5.89811e+12 -7.48565e+12 -7.00925e+12 -3.63747e+12 -3.96814e+12 -2.39834e+12 -8.13095e+12 -5.28411e+12 -1.89455e+12 -5.06382e+12 -8.1584e+12 -6.98727e+12 -9.24176e+12 -6.84454e+12 -5.94974e+12 -8.22045e+12 -7.50471e+12 -8.18788e+12 -5.60428e+12 -8.60549e+12 -4.60115e+12 -4.61757e+12 -7.28643e+12 -9.45459e+12 -6.52407e+12 -7.29854e+12 -2.74943e+12 -6.83884e+12 -5.14242e+12 -8.55261e+12 -5.13811e+12 -4.3907e+12 -5.00716e+12 -9.74879e+12 -4.48593e+12 -9.36604e+12 -8.27504e+12 -9.73474e+12 -5.82031e+12 -9.52159e+12 -9.17967e+12 -5.27685e+12 -8.03558e+12 -6.64203e+12 -7.4438e+12 -9.07235e+12 -6.52763e+12 -7.79102e+12 -1.45965e+13 -6.49797e+12 -1.11918e+13 -8.725e+12 -8.80922e+12 -1.04725e+13 -8.82966e+12 -8.63879e+12 -7.40454e+12 -1.28097e+13 -3.77004e+12 -8.08624e+12 -2.7434e+12 -5.49186e+12 -4.59516e+12 -5.11212e+12 -4.83758e+12 -1.03541e+13 -1.19859e+13 -8.19451e+12 -1.40693e+13 -8.36094e+12 -6.3339e+12 -9.95102e+12 -7.01352e+12 -1.09011e+13 -6.32344e+12 -1.06868e+13 -5.95256e+12 -5.5212e+12 -5.47493e+12 -6.09087e+12 -8.3076e+12 -7.6259e+12 -1.21821e+13 -5.74631e+12 -6.1833e+12 -7.14669e+12 -7.79268e+12 -7.80605e+12 -6.84148e+12 -5.7613e+12 -6.69636e+12 -6.58222e+12 -8.93501e+12 -8.09239e+12 -6.81518e+12 -6.21103e+12 -6.65336e+12 -4.16944e+12 -3.54385e+12 -6.85646e+12 -3.46342e+12 -3.83036e+12 -5.47324e+12 -6.22105e+12 -6.78145e+12 -8.5306e+12 -6.69267e+12 -6.81379e+12 -6.76008e+12 -5.59693e+12 -5.02332e+12 -6.0158e+12 -5.81513e+12 -4.43037e+12 -3.33756e+12 -1.04755e+13 -6.30569e+12 -4.50748e+12 -6.25229e+12 -5.09222e+12 -7.51605e+12 -7.64808e+12 -7.14646e+12 -6.59399e+12 -6.36528e+12 -2.62978e+12 -5.00183e+12 -5.23188e+12 -6.09481e+12 -1.01736e+13 -5.36306e+12 -3.03197e+12 -6.80072e+12 -6.24477e+12 -7.24404e+12 -6.9462e+12 -5.6236e+12 -5.57774e+12 -5.23901e+12 -7.13211e+12 -6.93997e+12 -5.53507e+12 -5.57021e+12 -6.07767e+12 -5.62847e+12 -1.18457e+13 -6.74618e+12 -1.00603e+13 -7.976e+12 -1.2913e+13 -8.39847e+12 -5.20636e+12 -9.23337e+12 -7.32649e+12 -6.96369e+12 -7.23416e+12 -1.16509e+13 -8.03651e+12 -7.85869e+12 -1.22304e+13 -9.91511e+12 -9.7081e+12 -6.5785e+12 -2.92922e+12 -9.25085e+12 -8.67407e+12 -3.88746e+12 -5.16838e+12 -3.90895e+12 -7.45612e+12 -9.76391e+12 -6.01275e+12 -6.21753e+12 -6.07154e+12 -6.24345e+12 -5.10052e+12 -6.03336e+12 -9.25091e+12 -5.96638e+12 -1.30121e+13 -8.90236e+12 -1.03826e+13 -6.27641e+12 -1.08564e+13 -8.18764e+12 -1.23807e+13 -8.52022e+12 -8.39167e+12 -5.61627e+12 -8.781e+12 -6.30034e+12 -7.60202e+12 -7.1827e+12 -5.87236e+12 -3.20955e+12 -4.63271e+12 -6.7152e+12 -7.9292e+12 -5.1397e+12 -5.33239e+12 -9.80576e+12 -4.83159e+12 -4.72732e+12 -5.56254e+12 -6.05409e+12 -8.1187e+12 -4.96819e+12 -6.82899e+12 -9.04782e+12 -9.7645e+12 -6.2008e+12 -6.52916e+12 -5.2837e+12 -6.39329e+12 -6.11533e+12 -9.73577e+12 -3.59132e+12 -5.30698e+12 -5.83094e+12 -6.79839e+12 -7.18964e+12 -5.11266e+12 -6.27894e+12 -4.79496e+12 -4.28078e+12 -6.28642e+12 -3.90007e+12 -4.72774e+12 -4.36094e+12 -4.34643e+12 -9.21638e+12 -7.74229e+12 -8.13892e+12 -7.93893e+12 -8.02755e+12 -7.59742e+12 -3.79139e+12 -3.09622e+12 -5.64853e+12 -7.0198e+12 -5.06243e+12 -6.81867e+12 -6.58202e+12 -5.14953e+12 -8.73124e+12 -1.0159e+13 -5.5338e+12 -6.58997e+12 -5.45714e+12 -7.90362e+12 -4.21949e+12 -9.79626e+12 -5.21412e+12 -7.38637e+12 -4.68429e+12 -6.15841e+12 -5.98495e+12 -8.2176e+12 -9.28382e+12 -7.09079e+12 -1.04378e+13 -8.06007e+12 -9.46129e+12 -9.7846e+12 -9.01309e+12 -1.17894e+13 -9.72124e+12 -1.15632e+13 -6.47827e+12 -7.18968e+12 -7.24495e+12 -1.09217e+13 -7.76598e+12 -5.67427e+12 -5.46617e+12 -8.84615e+12 -8.91899e+12 -6.12347e+12 -4.60091e+12 -4.57768e+12 -5.5209e+12 -6.77359e+12 -1.03753e+13 -8.42366e+12 -9.31182e+12 -9.39531e+12 -1.02634e+13 -7.54412e+12 -7.11585e+12 -8.7072e+12 -5.88558e+12 -7.41019e+12 -5.58451e+12 -7.74926e+12 -5.33408e+12 -6.9499e+12 -9.10799e+12 -8.53623e+12 -6.68997e+12 -9.41999e+12 -8.82259e+12 -8.58738e+12 -1.05923e+13 -7.11963e+12 -8.92071e+12 -8.02486e+12 -5.17193e+12 -9.82619e+12 -5.97017e+12 -7.22205e+12 -5.84993e+12 -6.89474e+12 -5.16377e+12 -3.52959e+12 -5.93732e+12 -4.74657e+12 -7.7502e+12 -5.20899e+12 -2.31726e+12 -3.54528e+12 -8.39627e+12 -4.23145e+12 -5.85615e+12 -6.87734e+12 -4.65692e+12 -6.07585e+12 -4.10343e+12 -6.85661e+12 -3.32797e+12 -6.49352e+12 -5.23651e+12 -8.67119e+12 -3.52727e+12 -1.28086e+13 -3.79633e+12 -7.28025e+12 -4.66046e+12 -4.92702e+12 -7.11597e+12 -6.50024e+12 -7.71802e+12 -5.12349e+12 -7.12361e+12 -4.64513e+12 -7.40302e+12 -6.71229e+12 -8.149e+12 -9.4468e+12 -7.63944e+12 -3.61307e+12 -5.64516e+12 -9.5005e+12 -9.76464e+12 -5.2653e+12 -7.50038e+12 -7.02034e+12 -4.9993e+12 -8.56056e+12 -7.9957e+12 -9.2707e+12 -2.50665e+12 -7.85947e+12 -9.27565e+12 -7.74191e+12 -4.82554e+12 -9.17566e+12 -8.95115e+12 -7.54914e+12 -5.17091e+12 -8.38481e+12 -1.48241e+13 -8.25262e+12 -4.85892e+12 -1.00539e+13 -8.87019e+12 -1.15187e+13 -5.6217e+12 -1.15686e+13 -6.273e+12 -5.69376e+12 -1.27215e+13 -5.72565e+12 -5.72889e+12 -8.1378e+12 -8.97798e+12 -4.9908e+12 -3.35828e+12 -6.4191e+12 -7.69272e+12 -9.9537e+12 -1.02794e+13 -5.01043e+12 -7.63049e+12 -1.00422e+13 -6.29752e+12 -4.2149e+12 -8.7514e+12 -7.65115e+12 -1.25916e+13 -5.80479e+12 -6.56455e+12 -9.49849e+12 -1.21329e+13 -2.33678e+12 -5.03484e+12 -5.56278e+12 -8.40522e+12 -3.81811e+12 -8.90621e+12 -7.22534e+12 -5.11243e+12 -9.30567e+12 -2.69485e+12 -1.02301e+13 -4.63359e+12 -5.71104e+12 -6.1647e+12 -4.59167e+12 -8.05662e+12 -8.00077e+12 -7.91935e+12 -7.79232e+12 -6.17162e+12 -4.17006e+12 -2.98593e+12 -7.11245e+12 -8.24388e+12 -6.1428e+12 -9.09348e+12 -6.61619e+12 -4.69173e+12 -7.12119e+12 -4.03755e+12 -5.82446e+12 -6.99974e+12 -9.63689e+12 -5.38153e+12 -6.33737e+12 -4.60808e+12 -3.34587e+12 -3.0638e+12 -2.8081e+12 -4.25148e+12 -5.8395e+12 -8.49736e+12 -5.8244e+12 -3.62559e+12 -6.33352e+12 -4.53105e+12 -6.89584e+12 -5.77194e+12 -4.01332e+12 -7.75651e+12 -3.169e+12 -5.17458e+12 -5.96669e+12 -5.82747e+12 -9.30087e+12 -4.04768e+12 -6.96267e+12 -6.98887e+12 -4.52564e+12 -6.39111e+12 -4.93826e+12 -4.7269e+12 -7.01293e+12 -5.07077e+12 -2.89527e+12 -8.71549e+12 -5.61792e+12 -8.94846e+12 -5.88067e+12 -5.88312e+12 -6.36647e+12 -7.68131e+12 -3.71074e+12 -5.09607e+12 -4.28792e+12 -6.63609e+12 -8.38744e+12 -4.04314e+12 -4.94521e+12 -5.96468e+12 -7.02546e+12 -6.39951e+12 -6.42267e+12 -3.60942e+12 -7.49909e+12 -7.09489e+12 -3.52229e+12 -5.02982e+12 -7.07172e+12 -5.97316e+12 -7.40096e+12 -7.95751e+12 -1.01201e+13 -4.15373e+12 -8.36843e+12 -7.74715e+12 -4.02725e+12 -7.85601e+12 -7.20165e+12 -2.57054e+12 -7.5022e+12 -3.6776e+12 -9.15981e+12 -7.24153e+12 -6.38308e+12 -1.04359e+13 -7.77964e+12 -6.95336e+12 -1.05363e+13 -8.31592e+12 -7.08891e+12 -5.38605e+12 -8.156e+12 -8.63653e+12 -8.24436e+12 -6.53135e+12 -9.02749e+12 -6.32557e+12 -1.13119e+13 -8.65701e+12 -1.19865e+13 -1.21603e+13 -6.14827e+12 -7.43147e+12 -9.51144e+12 -7.88759e+12 -5.33599e+12 -5.03538e+12 -5.57281e+12 -1.04626e+13 -6.32044e+12 -4.20607e+12 -4.15471e+12 -5.56231e+12 -8.17897e+12 -3.81729e+12 -5.55217e+12 -7.66951e+12 -4.50909e+12 -8.61084e+12 -5.7282e+12 -1.03523e+13 -4.47585e+12 -1.05618e+13 -1.04867e+13 -6.0694e+12 -8.22899e+12 -5.1676e+12 -6.86714e+12 -2.53351e+12 -4.9324e+12 -5.28362e+12 -1.1584e+13 -4.82668e+12 -7.62489e+12 -4.89245e+12 -6.44643e+12 -7.63991e+12 -5.27081e+12 -6.45224e+12 -4.34377e+12 -4.77057e+12 -3.50727e+12 -6.54475e+12 -7.64291e+12 -5.69911e+12 -3.67439e+12 -4.16741e+12 -5.58167e+12 -7.8382e+12 -4.13112e+12 -4.92681e+12 -4.32693e+12 -7.75928e+12 -6.49165e+12 -4.12858e+12 -4.88251e+12 -3.3944e+12 -5.5241e+12 -6.46014e+12 -9.61457e+12 -5.85847e+12 -3.94681e+12 -4.78004e+12 -7.24086e+12 -5.99897e+12 -6.95887e+12 -2.95341e+12 -2.24027e+12 -5.89838e+12 -5.67988e+12 -4.3686e+12 -5.76074e+12 -8.37465e+12 -1.12403e+13 -5.07437e+12 -8.12763e+12 -7.34372e+12 -4.83386e+12 -3.99846e+12 -7.06715e+12 -6.54637e+12 -6.8282e+12 -6.52376e+12 -5.05419e+12 -3.28944e+12 -5.77433e+12 -4.36874e+12 -6.12258e+12 -4.44239e+12 -1.71774e+12 -2.22656e+12 -2.98776e+12 -6.07433e+12 -9.3637e+12 -7.60816e+12 -3.80108e+12 -6.29136e+12 -6.73449e+12 -7.76944e+12 -1.17571e+13 -5.32707e+12 -1.17372e+13 -6.65977e+12 -5.67988e+12 -9.63491e+12 -3.23734e+12 -5.78449e+12 -6.13291e+12 -4.0517e+12 -1.01249e+13 -6.53742e+12 -7.82315e+12 -7.55234e+12 -8.47739e+12 -7.83547e+12 -9.06983e+12 -5.05059e+12 -8.44664e+12 -5.10794e+12 -4.38184e+12 -7.24849e+12 -7.70365e+12 -1.00045e+13 -1.00037e+13 -9.25063e+12 -5.85185e+12 -7.49807e+12 -7.12603e+12 -8.48751e+12 -9.95499e+12 -5.17939e+12 -8.33512e+12 -8.31566e+12 -5.29992e+12 -4.33568e+12 -6.97989e+12 -6.96077e+12 -8.14321e+12 -6.4798e+12 -6.66982e+12 -6.98937e+12 -6.62113e+12 -6.19637e+12 -9.29045e+12 -6.09439e+12 -6.69177e+12 -8.35297e+12 -6.93811e+12 -7.56466e+12 -4.97136e+12 -4.16026e+12 -5.93055e+12 -5.50718e+12 -3.95336e+12 -6.02153e+12 -3.54615e+12 -5.72117e+12 -4.96018e+12 -5.49642e+12 -4.67068e+12 -7.23211e+12 -6.23373e+12 -9.93648e+12 -3.54428e+12 -4.70976e+12 -8.19425e+12 -7.44258e+12 -5.3673e+12 -6.86768e+12 -4.44875e+12 -8.96075e+12 -7.36276e+12 -8.07071e+12 -8.13825e+12 -5.94755e+12 -5.66979e+12 -6.2402e+12 -6.12942e+12 -2.65238e+12 -6.18511e+12 -6.1718e+12 -6.34278e+12 -5.97947e+12 -4.79635e+12 -7.18544e+12 -5.17559e+12 -8.3893e+12 -4.4479e+12 -9.06988e+12 -7.42524e+12 -3.86193e+12 -7.56285e+12 -8.17311e+12 -3.92237e+12 -6.77582e+12 -4.95916e+12 -4.55812e+12 -3.46266e+12 -2.37082e+12 -5.61584e+12 -4.39757e+12 -4.80468e+12 -4.98794e+12 -3.65617e+12 -3.24638e+12 -4.30056e+12 -6.73435e+12 -8.57093e+12 -5.15238e+12 -5.33791e+12 -4.58479e+12 -6.98998e+12 -6.95563e+12 -6.27208e+12 -1.01508e+13 -1.00207e+13 -8.46449e+12 -6.30019e+12 -4.6239e+12 -1.00358e+13 -5.72327e+12 -8.10702e+12 -1.0109e+13 -9.85769e+12 -7.37044e+12 -7.28391e+12 -7.87325e+12 -5.28222e+12 -1.01019e+13 -1.10136e+13 -8.66281e+12 -8.3744e+12 -6.69456e+12 -7.21817e+12 -6.848e+12 -7.54096e+12 -6.14219e+12 -7.19143e+12 -6.49003e+12 -4.89054e+12 -4.34548e+12 -8.00177e+12 -6.53285e+12 -7.17369e+12 -4.54104e+12 -3.55135e+12 -2.73708e+12 -2.54146e+12 -8.52092e+12 -9.56687e+12 -7.63812e+12 -6.77874e+12 -4.58802e+12 -6.30594e+12 -5.90704e+12 -1.18041e+13 -5.32471e+12 -9.55168e+12 -3.17377e+12 -6.13067e+12 -1.24784e+13 -5.85246e+12 -4.74593e+12 -5.01681e+12 -5.76768e+12 -4.2801e+12 -6.65493e+12 -7.21135e+12 -1.0968e+13 -9.39272e+12 -7.2757e+12 -6.46964e+12 -5.91379e+12 -4.04266e+12 -8.48925e+12 -8.97872e+12 -5.40029e+12 -6.14671e+12 -6.77326e+12 -5.85582e+12 -5.42683e+12 -4.31723e+12 -4.03495e+12 -5.4583e+12 -6.37466e+12 -6.81867e+12 -5.69101e+12 -4.98188e+12 -1.00046e+13 -6.73703e+12 -5.29594e+12 -5.63078e+12 -4.61873e+12 -5.1255e+12 -5.66667e+12 -5.76791e+12 -7.86513e+12 -5.93658e+12 -3.48197e+12 -6.06931e+12 -5.56612e+12 -6.70476e+12 -3.69029e+12 -6.50388e+12 -5.90691e+12 -7.40519e+12 -6.69672e+12 -4.16348e+12 -4.29782e+12 -3.81e+12 -2.0325e+12 -4.18885e+12 -4.26747e+12 -5.32768e+12 -2.31147e+12 -5.9815e+12 -4.45453e+12 -4.65726e+12 -4.24398e+12 -6.86815e+12 -5.32432e+12 -6.01484e+12 -4.59198e+12 -3.23273e+12 -2.8924e+12 -4.56928e+12 -2.53622e+12 -5.37976e+12 -3.59769e+12 -5.54156e+12 -4.73834e+12 -6.01905e+12 -5.64161e+12 -9.16032e+12 -7.62246e+12 -8.90081e+12 -7.03646e+12 -7.29096e+12 -5.35481e+12 -7.57902e+12 -2.17201e+12 -6.13493e+12 -9.93737e+12 -6.88936e+12 -8.05991e+12 -7.18776e+12 -3.97394e+12 -7.62984e+12 -1.1807e+13 -4.36301e+12 -1.16488e+13 -8.85432e+12 -7.50082e+12 -8.37979e+12 -3.26785e+12 -1.95571e+12 -1.01115e+13 -1.23924e+13 -8.67436e+12 -1.16973e+13 -1.00036e+13 -6.11822e+12 -6.31656e+12 -1.14824e+13 -7.20212e+12 -8.72998e+12 -9.12928e+12 -7.80881e+12 -1.05886e+13 -4.77133e+12 -8.21732e+12 -5.34781e+12 -6.40482e+12 -8.40449e+12 -3.6711e+12 -5.30717e+12 -4.371e+12 -6.09289e+12 -6.3164e+12 -6.71455e+12 -6.4945e+12 -8.29453e+12 -7.79518e+12 -8.24461e+12 -3.87267e+12 -1.32719e+13 -7.86124e+12 -1.00127e+13 -9.07803e+12 -4.14565e+12 -7.24711e+12 -8.95382e+12 -9.3661e+12 -6.79057e+12 -4.29045e+12 -4.90973e+12 -5.49527e+12 -9.45511e+12 -5.46847e+12 -2.26852e+12 -6.94418e+12 -5.54283e+12 -8.88029e+12 -1.07533e+13 -3.23881e+12 -6.93227e+12 -7.42733e+12 -5.83005e+12 -2.8985e+12 -6.8249e+12 -7.05282e+12 -3.33908e+12 -6.81542e+12 -8.95315e+12 -6.48535e+12 -9.60851e+12 -6.45072e+12 -7.65192e+12 -9.56694e+12 -4.7506e+12 -4.55843e+12 -3.71575e+12 -5.91471e+12 -6.13362e+12 -5.39673e+12 -7.37764e+12 -5.45149e+12 -4.65766e+12 -5.70331e+12 -3.28952e+12 -6.71221e+12 -3.73186e+12 -3.56402e+12 -5.41678e+12 -6.70972e+12 -4.22446e+12 -5.14694e+12 -3.25919e+12 -5.47487e+12 -5.93206e+12 -4.95159e+12 -2.42657e+12 -4.26024e+12 -5.20392e+12 -8.33673e+12 -4.00182e+12 -3.70382e+12 -2.81478e+12 -3.97212e+12 -1.73681e+12 -6.76343e+12 -5.63006e+12 -3.02529e+12 -4.21919e+12 -3.40561e+12 -6.13948e+12 -3.63135e+12 -8.76596e+12 -3.06991e+12 -4.56651e+12 -6.78339e+12 -5.74257e+12 -4.47228e+12 -5.38202e+12 -5.36692e+12 -4.25096e+12 -8.83927e+12 -5.47444e+12 -5.60544e+12 -5.26677e+12 -5.53242e+12 -6.82141e+12 -7.19407e+12 -9.547e+12 -5.03491e+12 -5.42187e+12 -6.16057e+12 -6.95828e+12 -6.36142e+12 -5.48556e+12 -9.79271e+12 -3.38079e+12 -7.89922e+12 -4.47181e+12 -4.51817e+12 -6.58387e+12 -9.1767e+12 -6.29561e+12 -7.28847e+12 -8.92677e+12 -7.19387e+12 -3.94591e+12 -4.37758e+12 -6.33864e+12 -5.75322e+12 -7.77365e+12 -6.53244e+12 -4.68347e+12 -6.91955e+12 -9.97702e+12 -9.04553e+12 -6.65791e+12 -5.86426e+12 -4.81019e+12 -7.73544e+12 -4.75335e+12 -5.60228e+12 -5.44177e+12 -5.43278e+12 -8.03789e+12 -7.37004e+12 -5.01807e+12 -3.9572e+12 -5.80417e+12 -5.35389e+12 -4.12451e+12 -6.995e+12 -5.4879e+12 -4.78954e+12 -6.4423e+12 -2.61457e+12 -1.04935e+13 -6.6853e+12 -9.2717e+12 -6.45195e+12 -1.21312e+13 -1.77097e+13 -9.37298e+12 -5.89284e+12 -6.53167e+12 -5.3858e+12 -8.68294e+12 -8.15792e+12 -5.34847e+12 -6.68058e+12 -8.01312e+12 -6.41584e+12 -7.07437e+12 -8.05046e+12 -8.09849e+12 -1.28787e+13 -9.66784e+12 -5.27562e+12 -6.8167e+12 -2.95931e+12 -6.92368e+12 -4.12598e+12 -4.58327e+12 -5.38239e+12 -6.40513e+12 -4.95484e+12 -7.0948e+12 -3.30895e+12 -6.02038e+12 -4.73344e+12 -3.61651e+12 -1.00323e+13 -4.17182e+12 -8.6802e+12 -7.80036e+12 -4.62713e+12 -4.49666e+12 -7.4758e+12 -3.93448e+12 -3.39619e+12 -4.91348e+12 -8.12093e+12 -3.05794e+12 -3.23232e+12 -3.08428e+12 -7.33029e+12 -7.08639e+12 -4.84707e+12 -4.20137e+12 -6.17059e+12 -6.85154e+12 -4.47044e+12 -6.07689e+12 -3.01576e+12 -3.96146e+12 -4.19863e+12 -3.33703e+12 -2.89565e+12 -5.48205e+12 -3.1546e+12 -7.14138e+12 -3.8647e+12 -4.86822e+12 -6.09817e+12 -7.26002e+12 -3.98836e+12 -2.22191e+12 -4.04537e+12 -5.68374e+12 -4.51612e+12 -2.58645e+12 -3.50547e+12 -4.0047e+12 -7.13318e+12 -6.64838e+12 -4.2169e+12 -5.21793e+12 -4.97564e+12 -8.6758e+12 -5.21981e+12 -5.06359e+12 -4.64346e+12 -3.56843e+12 -6.16183e+12 -3.79689e+12 -6.04659e+12 -7.86055e+12 -7.91454e+12 -3.70005e+12 -6.82534e+12 -6.87635e+12 -8.19839e+12 -9.41076e+12 -6.43066e+12 -4.77967e+12 -5.93058e+12 -4.08457e+12 -5.54907e+12 -5.1187e+12 -6.87363e+12 -4.8918e+12 -5.9283e+12 -5.5217e+12 -4.17686e+12 -6.25161e+12 -8.72539e+12 -8.25397e+12 -8.42262e+12 -7.31832e+12 -7.92552e+12 -9.70249e+12 -5.81284e+12 -7.37673e+12 -8.77536e+12 -7.11061e+12 -6.87601e+12 -1.00016e+13 -6.21581e+12 -5.41483e+12 -4.75972e+12 -3.16917e+12 -4.83689e+12 -7.93942e+12 -4.18657e+12 -4.49885e+12 -5.99313e+12 -1.00516e+13 -7.34502e+12 -7.60445e+12 -4.79343e+12 -5.01366e+12 -7.7786e+12 -1.36486e+13 -5.69111e+12 -1.06543e+13 -6.90251e+12 -1.04388e+13 -6.27243e+12 -9.22269e+12 -4.94846e+12 -3.43078e+12 -5.33539e+12 -6.99645e+12 -7.12941e+12 -6.27942e+12 -7.96556e+12 -5.33434e+12 -1.05122e+13 -4.53939e+12 -4.68936e+12 -6.26443e+12 -6.2414e+12 -5.33529e+12 -8.76596e+12 -3.81041e+12 -1.00085e+13 -8.30577e+12 -6.4329e+12 -6.58957e+12 -5.72977e+12 -8.68667e+12 -7.22389e+12 -7.97144e+12 -7.50984e+12 -4.29196e+12 -5.43945e+12 -5.54095e+12 -5.10418e+12 -4.23106e+12 -8.07883e+12 -5.4858e+12 -4.8516e+12 -3.98931e+12 -4.51139e+12 -5.73159e+12 -4.64658e+12 -3.94246e+12 -2.61887e+12 -5.5495e+12 -4.81977e+12 -3.131e+12 -5.6241e+12 -4.58727e+12 -4.79079e+12 -5.25166e+12 -3.53553e+12 -4.468e+12 -2.0486e+12 -4.35369e+12 -1.02089e+12 -5.31501e+12 -5.37534e+12 -4.258e+12 -3.22024e+12 -4.46224e+12 -5.54695e+12 -8.92562e+12 -2.60175e+12 -3.06084e+12 -2.59577e+12 -3.86077e+12 -3.3976e+12 -5.48057e+12 -5.35871e+12 -3.00581e+12 -3.65672e+12 -4.36515e+12 -2.87505e+12 -4.48811e+12 -6.38149e+12 -3.27173e+12 -6.09257e+12 -4.30276e+12 -6.48461e+12 -7.71627e+12 -4.87329e+12 -2.88436e+12 -3.30507e+12 -3.04775e+12 -5.06566e+12 -6.18408e+12 -8.70258e+12 -4.42621e+12 -8.47651e+12 -4.39511e+12 -8.37671e+12 -2.08054e+12 -4.45428e+12 -4.53808e+12 -7.51873e+12 -6.33805e+12 -1.06271e+13 -5.38588e+12 -3.42608e+12 -2.95779e+12 -5.256e+12 -4.25638e+12 -7.40736e+12 -7.4892e+12 -7.7397e+12 -7.92855e+12 -6.9122e+12 -2.41361e+12 -8.72435e+12 -4.73738e+12 -7.63209e+12 -4.19789e+12 -5.27546e+12 -6.2386e+12 -3.4882e+12 -1.22259e+13 -7.05079e+12 -5.96044e+12 -5.75271e+12 -5.8581e+12 -5.24954e+12 -5.99643e+12 -4.93014e+12 -9.10529e+12 -9.00671e+12 -1.03247e+13 -6.60796e+12 -1.05624e+13 -4.82724e+12 -7.9261e+12 -6.44454e+12 -4.4082e+12 -4.0041e+12 -4.0636e+12 -5.27543e+12 -4.33726e+12 -4.93204e+12 -6.89428e+12 -7.21731e+12 -9.05387e+12 -6.61796e+12 -5.56149e+12 -1.02868e+13 -6.66985e+12 -6.48591e+12 -3.88498e+12 -3.8857e+12 -4.36036e+12 -7.21951e+12 -6.53347e+12 -6.6391e+12 -3.24126e+12 -4.70355e+12 -7.4849e+12 -5.68329e+12 -5.0834e+12 -4.85155e+12 -5.5215e+12 -7.15696e+12 -7.04998e+12 -7.41907e+12 -6.32724e+12 -4.86523e+12 -3.89102e+12 -5.88962e+12 -5.62005e+12 -6.24508e+12 -4.63111e+12 -2.00485e+12 -6.47331e+12 -8.4236e+12 -5.30388e+12 -5.17355e+12 -5.64028e+12 -5.38923e+12 -5.06215e+12 -4.46757e+12 -7.54443e+12 -4.24817e+12 -4.90192e+12 -6.67678e+12 -5.52186e+12 -2.15226e+12 -6.39209e+12 -3.69378e+12 -4.13525e+12 -3.08422e+12 -3.65367e+12 -4.66331e+12 -2.88253e+12 -3.57713e+12 -3.07983e+12 -4.19126e+12 -2.88939e+12 -6.36735e+12 -4.98087e+12 -4.94159e+12 -3.01095e+12 -3.0534e+12 -4.2493e+12 -2.65887e+12 -4.94654e+12 -5.08574e+12 -4.01183e+12 -5.91432e+12 -3.81272e+12 -5.63773e+12 -4.32294e+12 -2.57951e+12 -5.58767e+12 -4.07916e+12 -4.10675e+12 -3.52663e+12 -4.41701e+12 -4.09246e+12 -4.88545e+12 -2.53939e+12 -4.68157e+12 -4.05195e+12 -1.78367e+12 -2.21336e+12 -5.70778e+12 -5.56901e+12 -4.34138e+12 -1.8962e+12 -3.11801e+12 -3.74278e+12 -3.09971e+12 -6.23122e+12 -2.28368e+12 -3.14577e+12 -4.60596e+12 -3.34219e+12 -4.87275e+12 -4.5313e+12 -4.32311e+12 -9.92062e+12 -6.8442e+12 -6.25013e+12 -3.64797e+12 -6.37568e+12 -5.48794e+12 -4.25382e+12 -6.54407e+12 -7.59557e+12 -5.37773e+12 -3.70943e+12 -3.70008e+12 -5.06069e+12 -8.59172e+12 -6.08659e+12 -4.49295e+12 -6.38649e+12 -1.1283e+13 -5.88312e+12 -4.2933e+12 -7.35991e+12 -1.24802e+13 -6.21089e+12 -1.0143e+13 -4.55504e+12 -7.01021e+12 -4.93293e+12 -4.4599e+12 -9.22827e+12 -7.14731e+12 -5.22688e+12 -4.20838e+12 -4.90033e+12 -4.88218e+12 -4.95865e+12 -8.63227e+12 -9.70062e+12 -7.6471e+12 -6.86241e+12 -7.28741e+12 -6.55715e+12 -5.02403e+12 -6.72421e+12 -7.64278e+12 -4.57554e+12 -7.79011e+12 -7.09844e+12 -2.60647e+12 -5.06738e+12 -3.68442e+12 -6.25946e+12 -7.62585e+12 -3.55278e+12 -4.80333e+12 -5.6906e+12 -3.73517e+12 -4.30391e+12 -7.39481e+12 -7.08372e+12 -5.23374e+12 -8.08451e+12 -8.26836e+12 -8.86171e+12 -6.48371e+12 -6.89578e+12 -7.96331e+12 -5.85812e+12 -4.38545e+12 -6.99987e+12 -3.2503e+12 -4.54208e+12 -7.00017e+12 -3.50397e+12 -3.79302e+12 -6.04079e+12 -6.12595e+12 -6.83808e+12 -6.32858e+12 -8.62475e+12 -4.44235e+12 -7.64591e+12 -2.25402e+12 -6.41437e+12 -8.30632e+12 -2.54291e+12 -4.72983e+12 -6.1072e+12 -3.96234e+12 -3.48224e+12 -4.27964e+12 -4.25992e+12 -3.67452e+12 -3.58228e+12 -5.07874e+12 -2.65342e+12 -7.53693e+12 -8.42769e+12 -3.73929e+12 -2.60228e+12 -5.17012e+12 -4.96449e+12 -4.03145e+12 -770459000000.0 -4.26216e+12 -7.95662e+12 -6.91002e+12 -5.05645e+12 -2.48599e+12 -3.79389e+12 -3.56867e+12 -4.30392e+12 -3.06785e+12 -956193000000.0 -6.51171e+12 -3.17894e+12 -3.71686e+12 -4.09107e+12 -2.57827e+12 -3.52273e+12 -6.36572e+12 -5.11924e+12 -3.92186e+12 -4.15324e+12 -3.61137e+12 -3.55994e+12 -4.12778e+12 -2.57121e+12 -5.222e+12 -5.59149e+12 -5.09707e+12 -5.18561e+12 -4.18706e+12 -3.73397e+12 -3.77593e+12 -4.4583e+12 -3.90338e+12 -3.46104e+12 -2.3906e+12 -5.1208e+12 -2.60633e+12 -2.4371e+12 -4.2199e+12 -4.10264e+12 -4.34186e+12 -5.55017e+12 -3.53046e+12 -4.04736e+12 -4.84959e+12 -4.44274e+12 -3.98699e+12 -5.55771e+12 -8.53263e+12 -2.97773e+12 -3.29413e+12 -3.66325e+12 -5.88195e+12 -4.27551e+12 -5.73012e+12 -4.58248e+12 -4.97911e+12 -5.73795e+12 -5.71834e+12 -7.12858e+12 -8.66787e+12 -3.87056e+12 -2.89992e+12 -4.00879e+12 -5.16362e+12 -6.88523e+12 -8.83445e+12 -7.4284e+12 -1.08347e+13 -3.40961e+12 -3.14532e+12 -7.40316e+12 -3.68369e+12 -7.70946e+12 -5.25874e+12 -8.31794e+12 -6.20277e+12 -4.77945e+12 -3.68693e+12 -4.98417e+12 -8.553e+12 -8.28235e+12 -9.06622e+12 -6.51735e+12 -5.87078e+12 -4.26245e+12 -4.47656e+12 -4.54023e+12 -6.87838e+12 -1.11572e+13 -1.25985e+13 -1.00265e+13 -6.26367e+12 -4.27126e+12 -8.26848e+12 -8.67465e+12 -5.34693e+12 -5.03872e+12 -5.39164e+12 -8.44831e+12 -2.82856e+12 -5.16173e+12 -6.16851e+12 -3.55556e+12 -5.03961e+12 -7.76275e+12 -5.7232e+12 -6.55151e+12 -6.37777e+12 -5.3881e+12 -3.93534e+12 -5.42549e+12 -4.06897e+12 -8.04297e+12 -7.11652e+12 -8.37846e+12 -4.60963e+12 -6.17473e+12 -6.66664e+12 -6.63158e+12 -4.90223e+12 -7.66108e+12 -5.47493e+12 -5.34954e+12 -6.18382e+12 -4.12141e+12 -4.77106e+12 -3.7859e+12 -5.87089e+12 -3.19601e+12 -6.25042e+12 -4.6383e+12 -7.55173e+12 -1.01706e+13 -5.37044e+12 -8.53945e+12 -5.6479e+12 -8.0471e+12 -5.20655e+12 -3.19799e+12 -3.30497e+12 -6.43489e+12 -5.55305e+12 -5.21236e+12 -6.08904e+12 -4.20895e+12 -2.73577e+12 -4.04398e+12 -3.60907e+12 -6.08851e+12 -5.25233e+12 -6.03037e+12 -3.78173e+12 -4.41273e+12 -953714000000.0 -3.55629e+12 -4.10349e+12 -4.78717e+12 -2.46816e+12 -3.35483e+12 -4.6307e+12 -4.45218e+12 -3.01937e+12 -2.84862e+12 -3.12191e+12 -2.77e+12 -2.70416e+12 -3.43355e+12 -3.63668e+12 -2.78675e+12 -3.48644e+12 -4.24951e+12 -3.87232e+12 -2.68431e+12 -2.27203e+12 -5.48419e+12 -2.39668e+12 -3.58581e+12 -1.37563e+12 -5.62291e+12 -2.02041e+12 -4.73341e+12 -1.57101e+12 -3.57926e+12 -3.3064e+12 -2.29691e+12 -5.13092e+12 -2.22367e+12 -2.33532e+12 -3.56037e+12 -3.48505e+12 -3.90443e+12 -3.06018e+12 -2.09244e+12 -4.92399e+12 -5.51906e+12 -2.68507e+12 -4.36974e+12 -4.76069e+12 -6.4004e+12 -9.49425e+12 -4.09211e+12 -4.60665e+12 -5.59074e+12 -2.16972e+12 -5.60323e+12 -3.92405e+12 -4.03102e+12 -4.52536e+12 -4.00155e+12 -5.63941e+12 -4.06295e+12 -5.44151e+12 -3.79083e+12 -4.85746e+12 -5.34079e+12 -5.74985e+12 -6.0964e+12 -6.85279e+12 -5.55261e+12 -7.11804e+12 -1.09097e+13 -6.1436e+12 -1.97905e+12 -9.39741e+12 -4.76442e+12 -9.86279e+12 -6.02544e+12 -5.06452e+12 -4.71882e+12 -5.8417e+12 -8.21681e+12 -1.42758e+13 -7.95643e+12 -1.02777e+13 -4.38505e+12 -9.35491e+12 -7.95144e+12 -7.95058e+12 -7.19972e+12 -1.18927e+13 -5.90702e+12 -5.32616e+12 -4.80921e+12 -3.80829e+12 -3.38003e+12 -8.52559e+12 -7.01284e+12 -4.60397e+12 -5.98758e+12 -6.85729e+12 -5.05057e+12 -6.03672e+12 -5.19603e+12 -8.73299e+12 -6.50052e+12 -9.48301e+12 -5.06683e+12 -7.53394e+12 -8.5512e+12 -6.43386e+12 -5.96291e+12 -5.35988e+12 -7.31803e+12 -4.20841e+12 -5.59435e+12 -4.3855e+12 -4.86795e+12 -4.87779e+12 -5.04306e+12 -8.81516e+12 -4.90966e+12 -5.90544e+12 -7.06649e+12 -8.31011e+12 -4.36851e+12 -4.05611e+12 -1.00204e+13 -4.05082e+12 -7.23562e+12 -7.918e+12 -2.25979e+12 -6.74224e+12 -4.69624e+12 -4.79087e+12 -3.92288e+12 -4.81955e+12 -4.50463e+12 -4.46854e+12 -3.64966e+12 -1.27994e+12 -4.41661e+12 -5.39394e+12 -3.15831e+12 -4.29267e+12 -4.82282e+12 -5.97839e+12 -3.31016e+12 -3.72028e+12 -4.14438e+12 -4.76026e+12 -3.8126e+12 -5.49542e+12 -3.08778e+12 -2.39817e+12 -2.28808e+12 -4.06845e+12 -3.73284e+12 -3.09456e+12 -4.40174e+12 -5.3253e+12 -2.77046e+12 -2.52865e+12 -2.61255e+12 -2.12568e+12 -3.86565e+12 -3.29935e+12 -4.51838e+12 -1.97395e+12 -3.60938e+12 -3.92977e+12 -2.68282e+12 -4.63832e+12 -2.92831e+12 -3.27067e+12 -1.60944e+12 -2.78694e+12 -3.35147e+12 -5.86766e+12 -4.54017e+12 -3.23324e+12 -2.46705e+12 -3.3001e+12 -3.39113e+12 -3.94803e+12 -2.80066e+12 -3.29487e+12 -3.49654e+12 -2.68195e+12 -3.21566e+12 -3.12661e+12 -3.46985e+12 -3.99511e+12 -3.16881e+12 -4.40509e+12 -6.63805e+12 -2.66539e+12 -3.66693e+12 -4.84898e+12 -5.30107e+12 -4.82572e+12 -3.5798e+12 -2.98171e+12 -3.08017e+12 -5.95952e+12 -2.35927e+12 -6.34284e+12 -3.77972e+12 -3.85351e+12 -5.98409e+12 -3.74352e+12 -4.01173e+12 -3.89709e+12 -5.93336e+12 -5.13926e+12 -4.67788e+12 -5.75632e+12 -7.83567e+12 -4.65547e+12 -4.15852e+12 -7.6161e+12 -6.13883e+12 -3.85339e+12 -6.40007e+12 -5.4583e+12 -4.89655e+12 -5.83593e+12 -7.50714e+12 -3.91909e+12 -6.81383e+12 -5.04915e+12 -5.89302e+12 -8.88362e+12 -7.44171e+12 -6.07011e+12 -7.91604e+12 -6.33516e+12 -1.08071e+13 -5.12008e+12 -7.33791e+12 -5.85305e+12 -6.28737e+12 -6.47821e+12 -8.48882e+12 -9.58045e+12 -6.60335e+12 -1.14293e+13 -3.0211e+12 -2.7385e+12 -6.38034e+12 -6.6433e+12 -5.45961e+12 -5.62445e+12 -3.17006e+12 -4.4325e+12 -4.14252e+12 -6.49393e+12 -5.13049e+12 -9.95303e+12 -4.4763e+12 -4.5481e+12 -4.86502e+12 -5.19566e+12 -5.21827e+12 -8.44605e+12 -5.63747e+12 -6.26764e+12 -8.31451e+12 -8.47409e+12 -5.51967e+12 -9.75153e+12 -6.79125e+12 -5.52552e+12 -5.21599e+12 -4.39926e+12 -4.24398e+12 -6.82383e+12 -4.71638e+12 -5.19924e+12 -7.38611e+12 -2.79222e+12 -4.09949e+12 -5.94732e+12 -6.83228e+12 -2.25144e+12 -4.31653e+12 -4.98929e+12 -3.25046e+12 -5.45895e+12 -9.17577e+12 -4.41415e+12 -5.78615e+12 -4.52662e+12 -6.2876e+12 -3.10659e+12 -5.56732e+12 -2.83627e+12 -6.82417e+12 -3.51246e+12 -3.47419e+12 -4.76938e+12 -5.59369e+12 -3.85723e+12 -4.23488e+12 -3.95386e+12 -3.03833e+12 -5.03741e+12 -3.76764e+12 -4.37033e+12 -2.72849e+12 -3.16439e+12 -4.04121e+12 -4.7414e+12 -3.90046e+12 -3.12349e+12 -1.28331e+12 -2.19985e+12 -3.07925e+12 -4.69862e+12 -3.19186e+12 -3.31407e+12 -4.03205e+12 -2.59924e+12 -1.45116e+12 -3.379e+12 -3.1013e+12 -3.48303e+12 -3.75797e+12 -3.85057e+12 -3.30218e+12 -3.67181e+12 -3.02961e+12 -3.93108e+12 -3.29856e+12 -2.56643e+12 -3.92531e+12 -5.58313e+12 -3.56112e+12 -3.27087e+12 -3.12386e+12 -3.16413e+12 -2.67941e+12 -2.40527e+12 -3.22966e+12 -3.85595e+12 -4.27915e+12 -2.83067e+12 -3.99904e+12 -6.37389e+12 -4.4462e+12 -3.08392e+12 -3.85442e+12 -7.03677e+12 -3.80403e+12 -3.62853e+12 -5.45629e+12 -5.21639e+12 -4.49767e+12 -3.63904e+12 -6.58473e+12 -5.2404e+12 -6.77628e+12 -5.64624e+12 -4.87992e+12 -3.42652e+12 -4.59575e+12 -5.26753e+12 -4.40111e+12 -3.17339e+12 -5.99098e+12 -4.29042e+12 -4.69402e+12 -4.19747e+12 -6.99187e+12 -5.51541e+12 -5.45964e+12 -5.48002e+12 -5.13976e+12 -5.51807e+12 -5.90938e+12 -5.55006e+12 -4.06013e+12 -3.35173e+12 -6.90333e+12 -7.27406e+12 -5.12832e+12 -4.38245e+12 -5.74077e+12 -1.0322e+13 -2.94229e+12 -6.8868e+12 -5.88746e+12 -4.43769e+12 -5.00069e+12 -8.91678e+12 -6.96804e+12 -2.05969e+12 -3.05187e+12 -4.86764e+12 -1.86569e+12 -3.40141e+12 -5.2804e+12 -6.63059e+12 -2.70112e+12 -5.91446e+12 -1.04527e+13 -5.18763e+12 -6.45189e+12 -4.57848e+12 -6.07802e+12 -6.61188e+12 -3.8022e+12 -8.57189e+12 -6.41169e+12 -4.01645e+12 -6.31135e+12 -2.49385e+12 -6.91989e+12 -3.61847e+12 -4.04922e+12 -4.60109e+12 -4.67894e+12 -6.08353e+12 -5.70578e+12 -4.05632e+12 -4.68162e+12 -3.6418e+12 -3.55441e+12 -6.60045e+12 -2.50857e+12 -2.19707e+12 -3.30793e+12 -2.34069e+12 -4.48783e+12 -6.02816e+12 -3.96317e+12 -5.95975e+12 -5.90352e+12 -4.65159e+12 -4.87321e+12 -6.90134e+12 -2.53451e+12 -1.99258e+12 -4.21435e+12 -3.9853e+12 -3.43641e+12 -2.73863e+12 -2.53129e+12 -1.65951e+12 -4.16938e+12 -4.12492e+12 -2.90731e+12 -1.52659e+12 -2.57544e+12 -3.10002e+12 -1.87806e+12 -3.60067e+12 -2.04066e+12 -4.32023e+12 -3.57365e+12 -2.24762e+12 -2.45332e+12 -2.35219e+12 -1.36927e+12 -2.96169e+12 -2.89706e+12 -1.78208e+12 -3.17513e+12 -3.34089e+12 -2.24547e+12 -2.67738e+12 -3.10424e+12 -2.47e+12 -1.30206e+12 -1.82906e+12 -2.76332e+12 -715642000000.0 -3.20889e+12 -3.15021e+12 -1.98409e+12 -3.28191e+12 -5.72752e+12 -2.48236e+12 -4.14921e+12 -3.30698e+12 -5.22751e+12 -3.76293e+12 -3.83964e+12 -3.16062e+12 -1.52466e+12 -3.91057e+12 -5.8031e+12 -2.0069e+12 -2.03599e+12 -3.52381e+12 -1.73207e+12 -2.99746e+12 -4.2418e+12 -4.61044e+12 -4.60945e+12 -2.75341e+12 -4.16556e+12 -4.13521e+12 -5.41452e+12 -3.05074e+12 -4.40251e+12 -4.12868e+12 -1.442e+12 -3.16799e+12 -2.76352e+12 -6.90914e+12 -4.47328e+12 -5.72553e+12 -4.69484e+12 -2.26536e+12 -4.7726e+12 -4.66741e+12 -4.62555e+12 -4.43784e+12 -3.58063e+12 -6.48565e+12 -5.37304e+12 -6.52727e+12 -5.17258e+12 -677317000000.0 -5.91551e+12 -4.0485e+12 -6.67207e+12 -2.81137e+12 -6.49285e+12 -5.76487e+12 -5.27645e+12 -4.98976e+12 -6.08966e+12 -4.57348e+12 -4.64565e+12 -6.30524e+12 -6.66515e+12 -4.64525e+12 -6.64646e+12 -3.10679e+12 -4.82083e+12 -4.27449e+12 -5.32825e+12 -7.97411e+12 -5.27186e+12 -7.25474e+12 -4.28307e+12 -5.41283e+12 -5.88292e+12 -7.90818e+12 -7.13142e+12 -8.90298e+12 -1.78676e+12 -3.76614e+12 -3.8689e+12 -4.97235e+12 -4.67711e+12 -6.91041e+12 -7.54223e+12 -5.99887e+12 -7.78784e+12 -6.46389e+12 -4.17377e+12 -3.48018e+12 -4.30599e+12 -3.73978e+12 -6.19963e+12 -4.16744e+12 -3.34762e+12 -4.18661e+12 -4.58844e+12 -5.15717e+12 -4.47937e+12 -5.50089e+12 -5.31436e+12 -4.27437e+12 -3.67297e+12 -3.94928e+12 -3.61152e+12 -5.06824e+12 -3.03304e+12 -5.63329e+12 -3.38921e+12 -5.81878e+12 -5.46174e+12 -2.72011e+12 -8.36887e+12 -4.53765e+12 -5.30977e+12 -4.92125e+12 -4.064e+12 -4.51568e+12 -5.38259e+12 -5.69181e+12 -3.11309e+12 -5.36774e+12 -3.71066e+12 -4.35477e+12 -4.90158e+12 -3.20958e+12 -4.87543e+12 -7.00574e+12 -2.91457e+12 -2.28242e+12 -2.77579e+12 -2.18277e+12 -3.50138e+12 -5.08047e+12 -4.63275e+12 -3.96281e+12 -3.23262e+12 -3.01125e+12 -3.21622e+12 -4.02347e+12 -2.35305e+12 -2.27459e+12 -3.79456e+12 -3.50463e+12 -726710000000.0 -2.84529e+12 -4.40412e+12 -3.93992e+12 -2.17853e+12 -2.1463e+12 -2.00646e+12 -3.36515e+12 -3.97568e+12 -2.80093e+12 -3.27116e+12 -3.13483e+12 -1.83694e+12 -1.71176e+12 -916713000000.0 -2.45798e+12 -2.08886e+12 -2.39421e+12 -2.88866e+12 -3.63408e+12 -4.08795e+12 -3.11145e+12 -2.54099e+12 -1.51109e+12 -1.71951e+12 -3.11051e+12 -2.74297e+12 -4.76767e+12 -5.05683e+12 -3.00353e+12 -4.92622e+12 -3.58846e+12 -5.89397e+12 -4.90003e+12 -5.82805e+12 -4.36464e+12 -4.94565e+12 -4.0618e+12 -4.86957e+12 -5.23462e+12 -3.5541e+12 -5.00617e+12 -2.89578e+12 -5.12031e+12 -4.16539e+12 -3.4062e+12 -6.06392e+12 -3.88933e+12 -2.97507e+12 -4.99872e+12 -5.05065e+12 -4.82792e+12 -6.14994e+12 -4.60773e+12 -6.21503e+12 -4.3057e+12 -8.22455e+12 -6.57127e+12 -6.44247e+12 -2.86428e+12 -2.37593e+12 -4.22286e+12 -6.95659e+12 -5.51149e+12 -6.78663e+12 -3.37019e+12 -4.53882e+12 -3.01173e+12 -4.42387e+12 -3.6033e+12 -4.72269e+12 -5.94589e+12 -4.05293e+12 -3.84517e+12 -5.27995e+12 -4.14078e+12 -3.69698e+12 -4.41903e+12 -5.95727e+12 -4.77277e+12 -4.52199e+12 -4.85506e+12 -3.55722e+12 -2.29595e+12 -6.02034e+12 -5.62895e+12 -5.1444e+12 -3.94803e+12 -7.74813e+12 -4.93134e+12 -3.77006e+12 -4.94919e+12 -3.79729e+12 -3.16648e+12 -4.1616e+12 -3.76111e+12 -4.33568e+12 -2.85928e+12 -1.69191e+12 -3.07918e+12 -1.75547e+12 -4.29144e+12 -4.23376e+12 -5.14483e+12 -8.60404e+12 -4.16331e+12 -4.16468e+12 -3.52294e+12 -5.80738e+12 -5.55614e+12 -3.20661e+12 -4.61598e+12 -3.63582e+12 -4.37467e+12 -4.11189e+12 -3.53201e+12 -4.32753e+12 -3.58653e+12 -3.6527e+12 -4.60724e+12 -1.9099e+12 -4.683e+12 -4.31358e+12 -5.12477e+12 -4.07337e+12 -3.04178e+12 -4.13954e+12 -3.33062e+12 -3.03685e+12 -3.18697e+12 -3.14099e+12 -1.57613e+12 -3.17872e+12 -3.07089e+12 -1.7801e+12 -3.53088e+12 -1.46897e+12 -1.69962e+12 -2.19682e+12 -1.34301e+12 -1.36817e+12 -2.20187e+12 -2.6341e+12 -1.35627e+12 -1.90611e+12 -2.64917e+12 -2.14855e+12 -1.91409e+12 -803452000000.0 -2.1352e+12 -3.22543e+12 -3.89872e+12 -2.11228e+12 -2.05677e+12 -2.43115e+12 -2.96732e+12 -1.85523e+12 -230682000000.0 -2.48534e+12 -1.39094e+12 -1.64909e+12 -2.11854e+12 -2.38535e+12 -3.25332e+12 -3.94709e+12 -3.56504e+12 -1.26866e+12 -3.45946e+12 -3.1265e+12 -2.19272e+12 -4.3275e+12 -2.00022e+12 -4.81781e+12 -3.56148e+12 -3.37609e+12 -4.29135e+12 -5.45363e+12 -5.46156e+12 -5.14264e+12 -2.44064e+12 -2.95406e+12 -4.07284e+12 -5.46233e+12 -5.63805e+12 -4.24699e+12 -3.84976e+12 -4.98487e+12 -4.86655e+12 -3.97303e+12 -5.75889e+12 -5.15563e+12 -5.91291e+12 -4.8192e+12 -4.13489e+12 -6.84013e+12 -6.78187e+12 -2.12792e+12 -5.2512e+12 -3.04879e+12 -5.81806e+12 -5.53629e+12 -8.05393e+12 -4.43202e+12 -6.91405e+12 -4.13494e+12 -6.77598e+12 -6.6219e+12 -5.36992e+12 -7.30863e+12 -6.11738e+12 -5.70268e+12 -2.43696e+12 -2.04318e+12 -4.467e+12 -1.97542e+12 -5.46209e+12 -5.53939e+12 -3.62609e+12 -4.21185e+12 -5.55581e+12 -5.41914e+12 -8.34167e+12 -4.08377e+12 -5.06499e+12 -3.26819e+12 -2.90461e+12 -5.23555e+12 -3.8847e+12 -5.1612e+12 -3.59207e+12 -976264000000.0 -5.75295e+12 -5.49131e+12 -4.67076e+12 -3.92055e+12 -2.73332e+12 -1.88912e+12 -5.21328e+12 -4.1093e+12 -2.98876e+12 -4.67958e+12 -4.41266e+12 -3.95958e+12 -4.41911e+12 -2.7741e+12 -4.48913e+12 -3.99633e+12 -5.51935e+12 -2.35909e+12 -3.13611e+12 -3.65673e+12 -4.03475e+12 -2.27508e+12 -2.4387e+12 -4.23016e+12 -3.57107e+12 -2.01524e+12 -4.63415e+12 -4.57674e+12 -4.834e+12 -2.93596e+12 -3.61473e+12 -2.35746e+12 -1.79901e+12 -2.42485e+12 -1.47062e+12 -731008000000.0 -2.83754e+12 -2.52189e+12 -2.9283e+12 -987350000000.0 -2.0096e+12 -3.30601e+12 -835748000000.0 -1.553e+12 -784809000000.0 -2.28027e+12 -2.76166e+12 -2.02729e+12 -1.21701e+12 -2.05991e+12 -1.61823e+12 -1.93898e+12 -2.50586e+12 -2.20659e+12 -2.23727e+12 -704973000000.0 -862089000000.0 -2.00935e+12 -1.07351e+12 -1.60779e+12 -1.9229e+12 -2.54695e+12 -2.17267e+12 -2.17615e+12 -1.35773e+12 -1.81205e+12 -2.66147e+12 -2.6389e+12 -3.81297e+12 -2.02734e+12 -2.96699e+12 -2.08638e+12 -1.29687e+12 -943451000000.0 -1.47118e+12 -3.00067e+12 -1.80542e+12 -1.92052e+12 -3.21681e+12 -3.52227e+12 -4.96103e+12 -2.67978e+12 -2.49172e+12 -808875000000.0 -2.5179e+12 -1.85088e+12 -2.3806e+12 -3.25986e+12 -3.07805e+12 -3.16585e+12 -3.31521e+12 -5.16139e+12 -4.6146e+12 -1.47948e+12 -5.415e+12 -4.98684e+12 -2.16755e+12 -5.13693e+12 -2.66132e+12 -4.22909e+12 -2.75321e+12 -4.10962e+12 -4.5845e+12 -4.42358e+12 -4.39739e+12 -2.03408e+12 -3.45228e+12 -3.36457e+12 -3.32142e+12 -3.70075e+12 -3.27443e+12 -3.4284e+12 -4.36432e+12 -5.18763e+12 -7.01804e+12 -3.85728e+12 -5.28974e+12 -4.1165e+12 -5.04276e+12 -4.89197e+12 -3.65665e+12 -5.3536e+12 -8.35905e+12 -5.55689e+12 -4.49819e+12 -4.28459e+12 -4.18217e+12 -4.85897e+12 -5.50482e+12 -3.97237e+12 -8.20241e+12 -4.95895e+12 -7.11271e+12 -3.91992e+12 -4.09914e+12 -3.64608e+12 -3.04114e+12 -4.63298e+12 -4.03745e+12 -5.13624e+12 -5.16267e+12 -4.46462e+12 -3.25095e+12 -6.47712e+12 -4.16694e+12 -3.3274e+12 -5.00126e+12 -1.61001e+12 -1.11729e+12 -3.9055e+12 -3.95308e+12 -4.49948e+12 -3.67382e+12 -3.82822e+12 -4.58107e+12 -3.88895e+12 -3.63149e+12 -2.89038e+12 -2.95039e+12 -2.40465e+12 -3.69262e+12 -5.00853e+12 -4.01382e+12 -5.46903e+12 -4.3849e+12 -4.77245e+12 -3.75957e+12 -2.46291e+12 -2.68736e+12 -2.1006e+12 -2.10271e+12 -3.1806e+12 -2.68012e+12 -2.09929e+12 -2.23254e+12 -2.54011e+12 -2.04755e+12 -3.46685e+12 -1.41151e+12 -1.85048e+12 -1.90737e+12 -1.14894e+12 -2.41003e+12 -1.82995e+12 -1.19036e+12 -919874000000.0 -1.75234e+12 -867159000000.0 -2.02199e+12 -1.40262e+12 -1.98331e+12 -2.07643e+12 -1.98002e+12 -1.54789e+12 -2.48797e+12 -3.50396e+12 -1.72098e+12 -2.63085e+12 -2.77736e+12 -1.10097e+12 -2.70026e+12 -1.94125e+12 -2.45559e+12 -2.84143e+12 -1.8575e+12 -1.5973e+12 -1.02129e+12 -1.87798e+12 -1.69682e+12 -2.07189e+12 -3.00656e+12 -2.65819e+12 -4.07113e+12 -2.48866e+12 -2.3145e+12 -1.07925e+12 -3.78916e+12 -1.73404e+12 -2.93582e+12 -1.52549e+12 -2.6475e+12 -1.14398e+12 -993537000000.0 -4.36405e+12 -6.54846e+12 -1.89925e+12 -3.46458e+12 -3.50354e+12 -5.44594e+12 -3.636e+12 -4.44593e+12 -4.4776e+12 -2.64141e+12 -771862000000.0 -4.18145e+12 -3.48613e+12 -4.15227e+12 -5.63988e+12 -3.18677e+12 -3.97848e+12 -4.53618e+12 -6.7456e+12 -2.87234e+12 -2.78035e+12 -3.06532e+12 -3.19473e+12 -4.27386e+12 -4.0689e+12 -3.64618e+12 -3.26281e+12 -2.76516e+12 -2.88047e+12 -4.47898e+12 -5.77979e+12 -4.30204e+12 -3.24104e+12 -5.13654e+12 -1.91666e+12 -3.64797e+12 -3.60461e+12 -6.90379e+12 -5.54901e+12 -3.87225e+12 -4.68997e+12 -5.37035e+12 -2.75711e+12 -2.93205e+12 -1.61697e+12 -3.69999e+12 -2.89694e+12 -3.61196e+12 -2.59308e+12 -4.33936e+12 -2.08709e+12 -2.69934e+12 -2.6794e+12 -1.55733e+12 -1.03599e+12 -2.7355e+12 -4.19431e+12 -1.35959e+12 -3.95292e+12 -3.20324e+12 -5.66825e+12 -2.90212e+12 -2.72357e+12 -2.62558e+12 -1.43628e+12 -2.53215e+12 -3.29545e+12 -1.88094e+12 -4.30476e+12 -3.17723e+12 -3.03684e+12 -2.12031e+12 -1.91266e+12 -3.62917e+12 -2.39574e+12 -3.16444e+12 -1.31583e+12 -2.6749e+12 -962623000000.0 -1.64957e+12 -1.92178e+12 -1.15202e+12 -1.50367e+12 -2.39079e+12 -1.19362e+12 -1.32857e+12 -1.18329e+12 -1.08856e+12 -1.37867e+12 -1.60811e+12 -2.34026e+12 -614682000000.0 -2.00484e+12 -1.39719e+12 -1.39286e+12 -1.24361e+12 -1.67758e+12 -1.73938e+12 -1.43697e+12 -1.4387e+12 -2.76701e+12 -3.52395e+12 -1.1378e+12 -2.15033e+12 -1.02909e+12 -1.63061e+12 -1.65462e+12 -520547000000.0 -1.39567e+12 -1.51757e+12 -1.14976e+12 -710525000000.0 -3.44327e+12 -2.50155e+12 -2.79221e+12 -1.39392e+12 -1.50793e+12 -1.55018e+12 -3.54031e+12 -3.04342e+12 -2.29833e+12 -2.88076e+12 -2.33106e+12 -2.38209e+12 -1.62164e+12 -3.64728e+12 -4.90074e+12 -1.45301e+12 -1.81579e+12 -1.65044e+12 -3.76611e+12 -1.53018e+12 -2.19762e+12 -2.22971e+12 -1.80899e+12 -2.97701e+12 -2.68677e+12 -3.39438e+12 -1.35268e+12 -5.462e+12 -4.63905e+12 -3.98785e+12 -1.6538e+12 -1.97895e+12 -3.39833e+12 -3.99933e+12 -2.24375e+12 -4.59995e+12 -4.42267e+12 -3.51944e+12 -3.35102e+12 -3.18764e+12 -3.27235e+12 -4.17767e+12 -3.10956e+12 -2.30366e+12 -3.58768e+12 -2.83011e+12 -2.51692e+12 -1.8524e+12 -5.17479e+12 -3.34436e+12 -2.66511e+12 -4.77355e+12 -3.28388e+12 -1.61392e+12 -2.93073e+12 -6.91444e+12 -3.80053e+12 -1.84204e+12 -4.6144e+12 -4.24532e+12 -6.56281e+12 -1.49689e+12 -2.70533e+12 -2.71494e+12 -6.27325e+12 -3.64963e+12 -2.95013e+12 -3.79566e+12 -2.83011e+12 -3.5067e+12 -3.79484e+12 -3.8242e+12 -4.85998e+12 -3.08367e+12 -4.27384e+12 -1.40499e+12 -1.40395e+12 -1.22021e+12 -3.2928e+12 -3.83136e+12 -4.51471e+12 -2.54463e+12 -915120000000.0 -4.29595e+12 -3.20972e+12 -2.95677e+12 -1.67562e+12 -2.86709e+12 -1.45052e+12 -841344000000.0 -3.74461e+12 -3.53768e+12 -2.37696e+12 -2.09735e+12 -2.6388e+12 -1.89129e+12 -2.0124e+12 -803864000000.0 -2.32931e+12 -740963000000.0 -1.75728e+12 -2.06705e+12 -1.02566e+12 -1.14244e+12 -901908000000.0 -619938000000.0 -943586000000.0 -1.17807e+12 -1.26083e+12 -1.72333e+12 -688589000000.0 -1.09463e+12 -601690000000.0 -608011000000.0 -1.47882e+12 -1.43731e+12 -1.23024e+12 -870634000000.0 -1.51197e+12 -703476000000.0 -976564000000.0 -2.87723e+12 -1.8979e+12 -2.47758e+12 -2.9403e+12 -862355000000.0 -2.22249e+12 -1.49676e+12 -1.69265e+12 -1.94232e+12 -1.90421e+12 -1.54794e+12 -2.14322e+12 -2.18306e+12 -1.92432e+12 -2.10282e+12 -2.42076e+12 -2.16063e+12 -1.72071e+12 -3.07225e+12 -2.96656e+12 -3.18307e+12 -1.88676e+12 -1.00454e+12 -1.57048e+12 -2.20622e+12 -2.62817e+12 -2.35647e+12 -2.73245e+12 -903962000000.0 -2.74814e+12 -3.13281e+12 -2.81262e+12 -4.82565e+12 -4.22364e+12 -1.75946e+12 -3.20872e+12 -1.61626e+12 -1.17389e+12 -3.12993e+12 -1.41913e+12 -4.4229e+12 -4.78822e+12 -2.86831e+12 -3.1215e+12 -3.04435e+12 -3.30303e+12 -3.30794e+12 -2.17055e+12 -2.20612e+12 -3.20189e+12 -2.59609e+12 -4.64475e+12 -3.08581e+12 -4.72186e+12 -2.57181e+12 -3.65152e+12 -2.1786e+12 -4.22965e+12 -6.08438e+12 -2.60861e+12 -3.04984e+12 -1.63604e+12 -3.94644e+12 -4.51214e+12 -3.25146e+12 -2.29606e+12 -2.28699e+12 -4.09311e+12 -2.64261e+12 -4.7055e+12 -4.49675e+12 -665894000000.0 -3.2208e+12 -4.4169e+12 -2.63816e+12 -3.24062e+12 -1.2514e+12 -3.40197e+12 -2.72672e+12 -2.52263e+12 -3.65689e+12 -2.27094e+12 -2.74959e+12 -3.107e+12 -2.64005e+12 -1.89364e+12 -4.45514e+12 -3.59073e+12 -2.07126e+12 -1.67116e+12 -2.5356e+12 -2.95315e+12 -2.47213e+12 -2.23786e+12 -2.66921e+12 -2.08381e+12 -2.36588e+12 -1.82092e+12 -2.92321e+12 -1.60666e+12 -1.2579e+12 -1.06968e+12 -1.32836e+12 -1.58592e+12 -1.97775e+12 -1.91009e+12 -1.51229e+12 -1.4023e+12 -782217000000.0 -1.7837e+12 -729698000000.0 -703247000000.0 -1.42463e+12 -1.24919e+12 -2.0584e+12 -1.24006e+12 -640494000000.0 -1.0933e+12 -1.50543e+12 -1.39905e+12 -1.38009e+12 -1.35089e+12 -1.83494e+12 -1.32155e+12 -1.37325e+12 -723795000000.0 -678380000000.0 -1.00309e+12 -1.16262e+12 -2.129e+12 -1.2863e+12 -1.17072e+12 -1.07616e+12 -1.00929e+12 -1.11665e+12 -2.68058e+12 -1.82091e+12 -635178000000.0 -528052000000.0 -1.09922e+12 -1.97611e+12 -2.024e+12 -3.33323e+12 -2.09001e+12 -3.36742e+12 -1.81059e+12 -3.07137e+12 -2.14866e+12 -2.31812e+12 -1.58446e+12 -1.04076e+12 -2.08604e+12 -3.36484e+12 -2.68968e+12 -1.98656e+12 -3.7727e+12 -2.58199e+12 -1.91191e+12 -3.25332e+12 -1.26607e+12 -2.28838e+12 -2.42136e+12 -3.49767e+12 -1.27925e+12 -2.65673e+12 -2.45289e+12 -3.17595e+12 -1.95615e+12 -1.96009e+12 -3.0853e+12 -2.77361e+12 -3.99977e+12 -2.72299e+12 -2.91089e+12 -1.9339e+12 -3.63789e+12 -4.48485e+12 -2.77622e+12 -3.47938e+12 -1.61374e+12 -4.2245e+12 -1.89825e+12 -3.41493e+12 -1.40089e+12 -2.19534e+12 -2.95692e+12 -2.74609e+12 -3.18277e+12 -4.21721e+12 -2.76932e+12 -1.15626e+12 -2.70288e+12 -2.03937e+12 -3.77553e+12 -1.85596e+12 -1.49239e+12 -3.83973e+12 -1.94256e+12 -953379000000.0 -1.47899e+12 -2.49417e+12 -2.01323e+12 -1.45432e+12 -1.19814e+12 -1.30163e+12 -2.1092e+12 -956266000000.0 -2.38317e+12 -2.06385e+12 -1.39664e+12 -1.23838e+12 -1.5197e+12 -1.31402e+12 -1.60832e+12 -927812000000.0 -1.84536e+12 -1.87373e+12 -1.49393e+12 -1.25753e+12 -849460000000.0 -1.19833e+12 -352276000000.0 -1.91729e+12 -693935000000.0 -607623000000.0 -1.26238e+12 -773375000000.0 -1.41516e+12 -1.52302e+12 -819829000000.0 -2.10889e+12 -989402000000.0 -881027000000.0 -1.09894e+12 -816823000000.0 -437857000000.0 -1.13178e+12 -962997000000.0 -1.95628e+12 -1.65805e+12 -762642000000.0 -558541000000.0 -1.35664e+12 -205109000000.0 -1.81272e+12 -546562000000.0 -448499000000.0 -579072000000.0 -1.77617e+12 -648559000000.0 -900071000000.0 -712102000000.0 -1.8452e+12 -991476000000.0 -1.62504e+12 -1.69718e+12 -1.40807e+12 -54916800000.0 -1.05709e+12 -2.51879e+12 -2.87682e+12 -1.79316e+12 -1.11151e+12 -1.22761e+12 -2.32504e+12 -2.02456e+12 -2.72288e+12 -1.76414e+12 -602672000000.0 -1.56917e+12 -2.12743e+12 -2.45792e+12 -901843000000.0 -3.47399e+12 -1.83466e+12 -2.95741e+12 -3.32947e+12 -2.11425e+12 -2.72694e+12 -1.8475e+12 -1.98283e+12 -2.93792e+12 -1.14997e+12 -1.62267e+12 -3.27793e+12 -1.02852e+12 -3.02344e+12 -2.15706e+12 -3.30827e+12 -3.5335e+12 -3.29354e+12 -4.1931e+12 -1.97382e+12 -3.00824e+12 -1.7374e+12 -2.06873e+12 -1.10261e+12 -2.70043e+12 -1.42988e+12 -3.28009e+12 -1.47311e+12 -622810000000.0 -2.6569e+12 -1.16903e+12 -1.72889e+12 -2.34334e+12 -1.74623e+12 -3.86014e+12 -3.27493e+12 -541995000000.0 -1.41907e+12 -1.5539e+12 -1.24543e+12 -1.43746e+12 -1.83435e+12 -2.05048e+12 -1.52679e+12 -1.09151e+12 -1.53483e+12 -695395000000.0 -2.1515e+12 -2.22498e+12 -1.78797e+12 -1.63533e+12 -1.50279e+12 -1.20049e+12 -1.3074e+12 -2.30082e+12 -1.39338e+12 -1.50029e+12 -2.25627e+12 -1.31595e+12 -559936000000.0 -853591000000.0 -944889000000.0 -1.34011e+12 -1.04939e+12 -1.27966e+12 -824689000000.0 -1.28917e+12 -1.24542e+12 -310585000000.0 -543100000000.0 -862590000000.0 -1.24719e+12 -1.18281e+12 -840849000000.0 -428155000000.0 -587275000000.0 -817679000000.0 -781314000000.0 -1.37847e+12 -734123000000.0 -789711000000.0 -1.2804e+12 -38502800000.0 -969462000000.0 -1.41237e+12 -717223000000.0 -684758000000.0 -463473000000.0 -842399000000.0 -520429000000.0 -244644000000.0 -627686000000.0 -1.38856e+12 -1.41332e+12 -1.29579e+12 -457540000000.0 -514201000000.0 -1.24949e+12 -967953000000.0 -1.89651e+12 -1.20559e+12 -840505000000.0 -1.35685e+12 -1.78893e+12 -984760000000.0 -2.32544e+12 -1.48078e+12 -1.51889e+12 -1.14265e+12 -1.17978e+12 -2.03501e+12 -3.40108e+12 -1.05891e+12 -347777000000.0 -2.08485e+12 -1.43464e+12 -2.03768e+12 -2.0454e+12 -1.14288e+12 -980903000000.0 -2.51747e+12 -726579000000.0 -428685000000.0 -2.01449e+12 -1.1679e+12 -3.65437e+12 -2.00894e+12 -1.9695e+12 -1.92273e+12 -1.56508e+12 -2.62542e+12 -1.24593e+12 -1.95021e+12 -1.37391e+12 -3.30963e+12 -1.7316e+12 -1.41438e+12 -1.77228e+12 -1.28539e+12 -3.70464e+12 -1.32744e+12 -1.10358e+12 -2.84263e+12 -1.90493e+12 -3.80151e+12 -1.83072e+12 -1.83005e+12 -1.34311e+12 -1.57913e+12 -1.49233e+12 -1.83866e+12 -28309900000.0 -1.89282e+12 -2.06053e+12 -1.57406e+12 -1.85554e+12 -2.68651e+12 -735265000000.0 -1.65158e+12 -1.04981e+12 -1.93721e+12 -2.11272e+12 -1.24336e+12 -534152000000.0 -1.72986e+12 -2.50376e+12 -1.3091e+12 -1.51201e+12 -1.58774e+12 -954639000000.0 -1.69673e+12 -1.82924e+12 -1.71512e+12 -2.033e+12 -1.1875e+12 -724339000000.0 -1.43326e+12 -1.67645e+12 -2.07666e+12 -397216000000.0 -205456000000.0 -860015000000.0 -1.1984e+12 -600549000000.0 -733188000000.0 -864526000000.0 -873298000000.0 -330381000000.0 -580325000000.0 -770466000000.0 -208135000000.0 -669325000000.0 -342594000000.0 -335991000000.0 -786312000000.0 -672663000000.0 -168937000000.0 -238870000000.0 -671990000000.0 -339972000000.0 -594312000000.0 -254295000000.0 -553134000000.0 -200638000000.0 -296805000000.0 -559586000000.0 -817184000000.0 -594066000000.0 -394910000000.0 -868449000000.0 -592120000000.0 -1.0413e+12 -825956000000.0 -1.11768e+12 -664228000000.0 -304421000000.0 -783087000000.0 -452547000000.0 -837783000000.0 -833393000000.0 -488438000000.0 -856141000000.0 -1.52486e+12 -1.51558e+12 -1.40386e+12 -1.30788e+12 -1.61078e+12 -1.16653e+12 -1.03643e+12 -1.32848e+12 -1.54972e+12 -605565000000.0 -1.15238e+12 -1.58967e+12 -1.54756e+12 -2.34708e+12 -1.05507e+12 -1.1232e+12 -1.9159e+12 -1.3003e+12 -2.23156e+12 -2.54606e+12 -2.04793e+12 -1.1174e+12 -1.05197e+12 -1.31505e+12 -2.36945e+12 -2.03379e+12 -1.90932e+12 -2.24228e+12 -2.24198e+12 -1.57054e+12 -1.93712e+12 -816920000000.0 -2.21125e+12 -1.55307e+12 -937917000000.0 -1.63874e+12 -3.05121e+12 -1.10376e+12 -1.44276e+12 -2.0771e+12 -887638000000.0 -970624000000.0 -1.1779e+12 -703983000000.0 -1.5891e+12 -1.54207e+12 -629418000000.0 -1.14825e+12 -819962000000.0 -1.38803e+12 -1.76237e+12 -1.1132e+12 -1.1757e+12 -1.58667e+12 -1.00076e+12 -1.17957e+12 -314015000000.0 -1.84159e+12 -1.58385e+12 -1.43165e+12 -1.01191e+12 -1.32707e+12 -1.38901e+12 -735698000000.0 -922881000000.0 -557077000000.0 -816252000000.0 -1.09933e+12 -1.42493e+12 -1.63425e+12 -574514000000.0 -462985000000.0 -361162000000.0 -734153000000.0 -1.18157e+12 -330726000000.0 -461378000000.0 -609422000000.0 -430340000000.0 -533550000000.0 -61208300000.0 -459649000000.0 -290525000000.0 -205189000000.0 -242745000000.0 -492160000000.0 -268746000000.0 -226930000000.0 -89225200000.0 -144637000000.0 -311029000000.0 -322346000000.0 -330354000000.0 -296823000000.0 -352392000000.0 -370161000000.0 -412229000000.0 -546101000000.0 -347157000000.0 -45362900000.0 -294081000000.0 -327481000000.0 -227928000000.0 -260927000000.0 -451490000000.0 -680308000000.0 -287044000000.0 -430302000000.0 -298425000000.0 -1.06024e+12 -353140000000.0 -567533000000.0 -734906000000.0 -456365000000.0 -591543000000.0 -889467000000.0 -830180000000.0 -1.43571e+12 -1.22983e+12 -546518000000.0 -459096000000.0 -939920000000.0 -345131000000.0 -1.49946e+12 -673758000000.0 -1.09915e+12 -619322000000.0 -836462000000.0 -1.05288e+12 -896971000000.0 -2.40633e+12 -1.20793e+12 -1.18663e+12 -1.68227e+12 -2.25535e+12 -777246000000.0 -1.23842e+12 -1.20991e+12 -1.5449e+12 -507884000000.0 -1.03898e+12 -1.18875e+12 -1.56609e+12 -1.7551e+12 -1.84164e+12 -1.80664e+12 -796270000000.0 -1.6195e+12 -1.25063e+12 -1.31961e+12 -1.79805e+12 -1.12546e+12 -747825000000.0 -1.80096e+12 -836807000000.0 -182647000000.0 -758363000000.0 -862799000000.0 -894754000000.0 -662328000000.0 -570698000000.0 -913676000000.0 -1.37566e+12 -434494000000.0 -1.86051e+12 -1.1566e+12 -1.23434e+12 -1.1521e+12 -1.39733e+12 -1.08371e+12 -1.07461e+12 -1.17299e+12 -992588000000.0 -1.1631e+12 -845305000000.0 -675389000000.0 -1.09463e+12 -630215000000.0 -1.23132e+12 -77224400000.0 -89409000000.0 -491113000000.0 -395364000000.0 -1.14995e+12 -1.00442e+12 -563360000000.0 -417138000000.0 -322715000000.0 -455804000000.0 -409810000000.0 -417075000000.0 -224207000000.0 -398751000000.0 -220374000000.0 -240206000000.0 -303292000000.0 -449666000000.0 -52262400000.0 -194588000000.0 -171479000000.0 -246237000000.0 -37556000000.0 -25011500000.0 -142418000000.0 -26888900000.0 -64714300000.0 -214322000000.0 -97210300000.0 -111942000000.0 -305777000000.0 -184725000000.0 -211117000000.0 -405440000000.0 -211918000000.0 -237110000000.0 -368924000000.0 -566722000000.0 -206125000000.0 -192866000000.0 -374118000000.0 -276611000000.0 -393567000000.0 -433478000000.0 -225347000000.0 -593691000000.0 -430811000000.0 -902579000000.0 -541200000000.0 -491708000000.0 -832473000000.0 -1.34938e+12 -633679000000.0 -354854000000.0 -518878000000.0 -1.08536e+12 -762296000000.0 -455521000000.0 -637439000000.0 -67736900000.0 -884035000000.0 -907238000000.0 -665932000000.0 -1.03289e+12 -1.09212e+12 -719834000000.0 -1.43018e+12 -1.12374e+12 -1.09252e+12 -1.07535e+12 -1.15628e+12 -492211000000.0 -967527000000.0 -1.41095e+12 -1.03225e+12 -811625000000.0 -1.03308e+12 -568717000000.0 -694584000000.0 -538575000000.0 -127188000000.0 -458803000000.0 -1.27225e+12 -1.09838e+12 -815147000000.0 -371629000000.0 -495876000000.0 -833672000000.0 -393359000000.0 -621379000000.0 -334600000000.0 -598726000000.0 -841394000000.0 -772173000000.0 -405394000000.0 -305445000000.0 -370016000000.0 -754326000000.0 -355298000000.0 -348296000000.0 -677872000000.0 -598721000000.0 -1.01139e+12 -652132000000.0 -183394000000.0 -686929000000.0 -446980000000.0 -246742000000.0 -463364000000.0 -127283000000.0 -294171000000.0 -420076000000.0 -89314400000.0 -152326000000.0 -223192000000.0 -278256000000.0 -303975000000.0 -122288000000.0 -158099000000.0 -91003300000.0 -123564000000.0 -96548100000.0 -170433000000.0 -42834100000.0 -81543400000.0 -84976700000.0 -139113000000.0 -101542000000.0 -48064200000.0 -165251000000.0 -157521000000.0 -165027000000.0 -174412000000.0 -111984000000.0 -377288000000.0 -62195800000.0 -408895000000.0 -187995000000.0 -160627000000.0 -207248000000.0 -252847000000.0 -265599000000.0 -214642000000.0 -149947000000.0 -194426000000.0 -288779000000.0 -544181000000.0 -129768000000.0 -469138000000.0 -905861000000.0 -66762500000.0 -418124000000.0 -285297000000.0 -431388000000.0 -358842000000.0 -440719000000.0 -552442000000.0 -517896000000.0 -628765000000.0 -318014000000.0 -771044000000.0 -550410000000.0 -615349000000.0 -579488000000.0 -172449000000.0 -376350000000.0 -716372000000.0 -380059000000.0 -595292000000.0 -936318000000.0 -307194000000.0 -504695000000.0 -486075000000.0 -541814000000.0 -423809000000.0 -88621400000.0 -44235900000.0 -261871000000.0 -183898000000.0 -191275000000.0 -267261000000.0 -233288000000.0 -147838000000.0 -60796500000.0 -397296000000.0 -221917000000.0 -184600000000.0 -223516000000.0 -234894000000.0 -200791000000.0 -148508000000.0 -42803800000.0 -161486000000.0 -278607000000.0 -219882000000.0 -81224800000.0 -134517000000.0 -157562000000.0 -51088300000.0 -64016200000.0 -191631000000.0 -119545000000.0 -89657900000.0 -75607300000.0 -108105000000.0 -43656100000.0 -71140000000.0 -122012000000.0 -124169000000.0 -172573000000.0 -89558600000.0 -262562000000.0 -175837000000.0 -146177000000.0 -125592000000.0 -203150000000.0 -367343000000.0 -270410000000.0 -325661000000.0 -932104000000.0 -295256000000.0 -680797000000.0 -215683000000.0 -290196000000.0 -239697000000.0 -208510000000.0 -574490000000.0 -110819000000.0 -115592000000.0 -74756100000.0 -142895000000.0 -69788900000.0 