# vtk DataFile Version 2.0
Time step 92
ASCII
DATASET UNSTRUCTURED_GRID
POINTS 4650 float
247388.0 286656.0 0
294585.0 286328.0 0
205451.0 289284.0 0
208914.0 287311.0 0
212349.0 289333.0 0
215638.0 287106.0 0
219308.0 288632.0 0
237014.0 288958.0 0
243970.0 288725.0 0
250902.0 288561.0 0
257846.0 288455.0 0
264803.0 288461.0 0
276667.0 288541.0 0
284289.0 288351.0 0
291149.0 288335.0 0
298003.0 288366.0 0
201999.0 291268.0 0
208900.0 291301.0 0
215801.0 291320.0 0
223098.0 289836.0 0
226719.0 291478.0 0
233631.0 291089.0 0
240560.0 290808.0 0
247485.0 290632.0 0
254402.0 290481.0 0
261326.0 290418.0 0
266644.0 291996.0 0
273012.0 290671.0 0
280862.0 290380.0 0
287738.0 290344.0 0
294581.0 290349.0 0
205445.0 293266.0 0
212357.0 293310.0 0
219554.0 292597.0 0
223328.0 293806.0 0
230275.0 293256.0 0
237179.0 292930.0 0
244082.0 292699.0 0
250985.0 292538.0 0
254461.0 294463.0 0
257876.0 292433.0 0
261322.0 294387.0 0
270144.0 293897.0 0
274073.0 294507.0 0
277463.0 292440.0 0
280963.0 294366.0 0
284337.0 292346.0 0
287783.0 294333.0 0
291175.0 292337.0 0
294597.0 294339.0 0
298004.0 292357.0 0
201997.0 295244.0 0
208892.0 295265.0 0
215820.0 295310.0 0
219618.0 296545.0 0
226933.0 295446.0 0
233820.0 295062.0 0
237359.0 296887.0 0
240706.0 294782.0 0
244206.0 296661.0 0
247583.0 294596.0 0
251060.0 296503.0 0
257916.0 296409.0 0
265046.0 295640.0 0
277622.0 296401.0 0
284415.0 296335.0 0
291208.0 296325.0 0
298005.0 296341.0 0
201996.0 299201.0 0
205433.0 297225.0 0
208854.0 299209.0 0
212333.0 297263.0 0
215751.0 299280.0 0
223421.0 297760.0 0
227062.0 299390.0 0
230477.0 297223.0 0
234043.0 299005.0 0
240860.0 298741.0 0
247681.0 298553.0 0
254512.0 298426.0 0
261368.0 298354.0 0
265095.0 299616.0 0
268498.0 297519.0 0
274326.0 298439.0 0
281075.0 298351.0 0
287839.0 298319.0 0
294615.0 298321.0 0
205408.0 301171.0 0
212246.0 301203.0 0
219535.0 300468.0 0
223305.0 301689.0 0
230775.0 301137.0 0
237547.0 300839.0 0
244329.0 300615.0 0
251129.0 300456.0 0
257944.0 300362.0 0
261337.0 302313.0 0
267815.0 302429.0 0
271078.0 300459.0 0
274479.0 302408.0 0
277765.0 300378.0 0
281172.0 302335.0 0
284494.0 300322.0 0
287892.0 302300.0 0
291244.0 300307.0 0
294633.0 302297.0 0
298007.0 300318.0 0
201994.0 303148.0 0
208789.0 303151.0 0
215590.0 303218.0 0
219299.0 304362.0 0
227574.0 303270.0 0
234277.0 302953.0 0
237726.0 304795.0 0
241009.0 302695.0 0
244442.0 304561.0 0
247772.0 302500.0 0
251190.0 304399.0 0
254553.0 302375.0 0
257941.0 304315.0 0
264572.0 304405.0 0
271193.0 304412.0 0
277868.0 304356.0 0
284560.0 304303.0 0
291276.0 304281.0 0
298008.0 304287.0 0
201991.0 307090.0 0
205375.0 305115.0 0
208719.0 307102.0 0
212125.0 305149.0 0
215421.0 307134.0 0
221422.0 307525.0 0
224454.0 305404.0 0
227897.0 307219.0 0
231059.0 305082.0 0
234486.0 306914.0 0
241143.0 306644.0 0
247852.0 306438.0 0
254581.0 306319.0 0
261257.0 306318.0 0
267910.0 306392.0 0
274568.0 306368.0 0
281243.0 306312.0 0
287935.0 306274.0 0
294648.0 306263.0 0
205340.0 309058.0 0
212021.0 309113.0 0
218352.0 309496.0 0
224781.0 309356.0 0
231288.0 309050.0 0
237879.0 308751.0 0
244539.0 308498.0 0
251241.0 308332.0 0
257933.0 308277.0 0
264599.0 308340.0 0
271268.0 308360.0 0
277934.0 308320.0 0
281291.0 310274.0 0
284609.0 308273.0 0
287967.0 310235.0 0
291301.0 308246.0 0
294659.0 310218.0 0
298009.0 308246.0 0
201989.0 311027.0 0
208650.0 311056.0 0
215139.0 311312.0 0
221638.0 311438.0 0
228124.0 311190.0 0
234651.0 310880.0 0
241253.0 310586.0 0
244616.0 312420.0 0
247919.0 310362.0 0
251286.0 312246.0 0
254608.0 310253.0 0
257963.0 312203.0 0
261281.0 310263.0 0
264636.0 312255.0 0
267956.0 310321.0 0
271311.0 312289.0 0
274625.0 310316.0 0
277976.0 312269.0 0
284641.0 312228.0 0
291319.0 312197.0 0
298010.0 312191.0 0
201987.0 314954.0 0
205309.0 312999.0 0
208588.0 315019.0 0
211874.0 313137.0 0
215153.0 315226.0 0
218414.0 313381.0 0
221740.0 315329.0 0
224955.0 313301.0 0
228267.0 315151.0 0
231454.0 313022.0 0
234772.0 314841.0 0
237997.0 312702.0 0
241336.0 314514.0 0
247973.0 314264.0 0
254643.0 314158.0 0
261315.0 314173.0 0
267990.0 314234.0 0
274659.0 314249.0 0
281320.0 314220.0 0
287987.0 314181.0 0
294667.0 314158.0 0
205290.0 316932.0 0
211880.0 317067.0 0
218485.0 317251.0 0
225065.0 317228.0 0
231569.0 316986.0 0
238084.0 316642.0 0
244672.0 316317.0 0
251324.0 316131.0 0
257992.0 316096.0 0
264666.0 316153.0 0
271337.0 316205.0 0
278000.0 316202.0 0
284661.0 316167.0 0
288000.0 318109.0 0
291331.0 316131.0 0
294672.0 318081.0 0
298011.0 316121.0 0
201986.0 318864.0 0
208594.0 318936.0 0
215211.0 319106.0 0
221834.0 319216.0 0
228375.0 319104.0 0
234862.0 318792.0 0
241394.0 318422.0 0
244707.0 320183.0 0
248010.0 318134.0 0
251344.0 319983.0 0
254667.0 318030.0 0
258002.0 319958.0 0
261336.0 318056.0 0
264674.0 320029.0 0
268010.0 318131.0 0
271347.0 320105.0 0
274677.0 318167.0 0
278012.0 320119.0 0
281337.0 318149.0 0
284673.0 320087.0 0
291339.0 320048.0 0
298012.0 320033.0 0
201986.0 322740.0 0
205296.0 320830.0 0
208620.0 322808.0 0
211922.0 320949.0 0
215278.0 322954.0 0
218570.0 321112.0 0
221941.0 323095.0 0
225173.0 321152.0 0
228492.0 323061.0 0
231667.0 320944.0 0
234946.0 322737.0 0
238149.0 320567.0 0
241433.0 322311.0 0
248026.0 321968.0 0
254665.0 321871.0 0
261326.0 321909.0 0
268005.0 322010.0 0
274681.0 322068.0 0
281348.0 322060.0 0
288010.0 322018.0 0
294677.0 321986.0 0
205307.0 324687.0 0
211967.0 324789.0 0
218656.0 324949.0 0
225309.0 325078.0 0
231791.0 324910.0 0
238212.0 324485.0 0
244721.0 324010.0 0
251335.0 323804.0 0
254613.0 325687.0 0
257968.0 323790.0 0
261257.0 325729.0 0
264645.0 323879.0 0
271336.0 323985.0 0
278018.0 324017.0 0
284685.0 323989.0 0
288023.0 325909.0 0
291347.0 323945.0 0
294683.0 325871.0 0
298012.0 323927.0 0
201986.0 326583.0 0
205315.0 328508.0 0
208644.0 326639.0 0
215337.0 326767.0 0
222046.0 326948.0 0
228677.0 327036.0 0
235061.0 326690.0 0
241460.0 326192.0 0
244716.0 327780.0 0
248021.0 325765.0 0
251290.0 327605.0 0
257850.0 327593.0 0
264550.0 327687.0 0
267965.0 325863.0 0
271302.0 327836.0 0
274675.0 325946.0 0
278030.0 327891.0 0
281361.0 325952.0 0
284706.0 327874.0 0
291360.0 327823.0 0
298013.0 327803.0 0
201985.0 330393.0 0
208656.0 330435.0 0
211998.0 328590.0 0
215368.0 330540.0 0
218726.0 328749.0 0
222130.0 330761.0 0
225432.0 328983.0 0
228800.0 330969.0 0
232060.0 328987.0 0
235471.0 330940.0 0
238294.0 328416.0 0
241484.0 330094.0 0
247998.0 329529.0 0
254489.0 329498.0 0
261060.0 329499.0 0
267873.0 329673.0 0
274677.0 329791.0 0
281391.0 329824.0 0
288048.0 329783.0 0
294692.0 329738.0 0
205317.0 332299.0 0
212005.0 332358.0 0
218750.0 332499.0 0
225512.0 332895.0 0
232185.0 332915.0 0
238900.0 332911.0 0
244724.0 331443.0 0
247812.0 333307.0 0
251159.0 331414.0 0
254311.0 333306.0 0
257661.0 331393.0 0
260795.0 333286.0 0
264218.0 331403.0 0
267262.0 333318.0 0
271280.0 331633.0 0
274722.0 333594.0 0
278070.0 331739.0 0
281460.0 333682.0 0
284748.0 331744.0 0
288093.0 333647.0 0
291383.0 331685.0 0
294708.0 333590.0 0
298014.0 331662.0 0
201985.0 334178.0 0
205311.0 336068.0 0
208651.0 334203.0 0
211986.0 336100.0 0
215362.0 334278.0 0
218725.0 336205.0 0
222132.0 334503.0 0
228890.0 334884.0 0
235581.0 334855.0 0
244249.0 334957.0 0
250962.0 335197.0 0
257447.0 335200.0 0
263869.0 335187.0 0
270249.0 335159.0 0
278167.0 335563.0 0
284829.0 335611.0 0
291423.0 335538.0 0
298016.0 335509.0 0
201984.0 337941.0 0
208631.0 337954.0 0
215323.0 337987.0 0
222105.0 338164.0 0
225611.0 336841.0 0
228992.0 338799.0 0
232278.0 336820.0 0
237497.0 338180.0 0
240774.0 336327.0 0
244131.0 338630.0 0
247532.0 336973.0 0
254123.0 337100.0 0
260551.0 337099.0 0
266913.0 337076.0 0
273213.0 336924.0 0
276185.0 338624.0 0
281588.0 337536.0 0
288171.0 337509.0 0
294734.0 337433.0 0
205303.0 339824.0 0
211942.0 339826.0 0
218674.0 339864.0 0
225737.0 340808.0 0
234254.0 340088.0 0
240829.0 340235.0 0
247446.0 340691.0 0
250778.0 338935.0 0
253993.0 340882.0 0
257268.0 339011.0 0
260392.0 340918.0 0
263633.0 338993.0 0
266718.0 340850.0 0
269960.0 338907.0 0
273026.0 340685.0 0
279187.0 340283.0 0
284967.0 339492.0 0
288301.0 341385.0 0
291488.0 339388.0 0
294771.0 341276.0 0
298018.0 339349.0 0
201984.0 341684.0 0
205304.0 343569.0 0
208613.0 341701.0 0
211915.0 343558.0 0
215240.0 341668.0 0
218518.0 343460.0 0
222067.0 341743.0 0
231044.0 342035.0 0
237616.0 342066.0 0
240954.0 344101.0 0
244160.0 342386.0 0
250730.0 342694.0 0
257178.0 342822.0 0
263507.0 342798.0 0
269828.0 342650.0 0
276111.0 342421.0 0
282238.0 341928.0 0
285350.0 343588.0 0
291577.0 343252.0 0
298021.0 343187.0 0
201984.0 345400.0 0
208621.0 345446.0 0
215211.0 345379.0 0
221722.0 345193.0 0
225041.0 346399.0 0
227889.0 344053.0 0
231333.0 345913.0 0
234444.0 343961.0 0
237809.0 345932.0 0
244293.0 346177.0 0
247490.0 344447.0 0
250801.0 346471.0 0
253984.0 344676.0 0
260341.0 344740.0 0
266632.0 344609.0 0
269784.0 346363.0 0
272960.0 344426.0 0
276085.0 346195.0 0
279204.0 344123.0 0
282305.0 345802.0 0
288500.0 345335.0 0
294812.0 345128.0 0
201985.0 349071.0 0
205322.0 347297.0 0
208665.0 349178.0 0
211942.0 347296.0 0
215288.0 349096.0 0
218512.0 347146.0 0
221946.0 348751.0 0
228371.0 348009.0 0
234716.0 347828.0 0
241153.0 347943.0 0
247629.0 348223.0 0
254097.0 348478.0 0
257215.0 346644.0 0
260424.0 348582.0 0
263486.0 346606.0 0
266630.0 348353.0 0
272935.0 348150.0 0
279180.0 347934.0 0
285414.0 347491.0 0
288540.0 349229.0 0
291667.0 347146.0 0
294845.0 348985.0 0
298023.0 347025.0 0
205354.0 351002.0 0
212034.0 351015.0 0
218729.0 350768.0 0
225369.0 350200.0 0
231709.0 349812.0 0
235038.0 351697.0 0
238066.0 349784.0 0
241398.0 351771.0 0
244491.0 349977.0 0
250958.0 350248.0 0
257396.0 350474.0 0
263602.0 350453.0 0
269782.0 350043.0 0
272850.0 351888.0 0
276020.0 349978.0 0
279063.0 351737.0 0
282268.0 349637.0 0
285379.0 351336.0 0
291687.0 351009.0 0
298025.0 350854.0 0
201987.0 352671.0 0
208722.0 352882.0 0
212122.0 354684.0 0
215478.0 352765.0 0
219213.0 354300.0 0
222287.0 352336.0 0
225722.0 353947.0 0
228725.0 351870.0 0
232050.0 353672.0 0
238356.0 353630.0 0
244723.0 353773.0 0
247826.0 352001.0 0
251162.0 354012.0 0
254289.0 352258.0 0
260724.0 352454.0 0
266722.0 352107.0 0
269668.0 353722.0 0
275817.0 353792.0 0
282155.0 353427.0 0
288517.0 353066.0 0
294850.0 352817.0 0
298025.0 354660.0 0
201986.0 356160.0 0
205388.0 354697.0 0
208755.0 356565.0 0
216272.0 356227.0 0
222713.0 355976.0 0
229076.0 355681.0 0
235356.0 355545.0 0
241663.0 355591.0 0
248046.0 355773.0 0
254510.0 356006.0 0
257644.0 354251.0 0
261057.0 356211.0 0
264132.0 354406.0 0
264695.0 358155.0 0
268267.0 356900.0 0
272504.0 355637.0 0
278851.0 355493.0 0
285302.0 355118.0 0
288465.0 356850.0 0
291671.0 354829.0 0
294842.0 356613.0 0
205457.0 358436.0 0
213346.0 358023.0 0
216809.0 359806.0 0
219757.0 357931.0 0
223163.0 359671.0 0
226108.0 357691.0 0
229432.0 359476.0 0
232385.0 357501.0 0
235665.0 359375.0 0
238646.0 357461.0 0
241924.0 359403.0 0
244964.0 357566.0 0
248256.0 359541.0 0
251369.0 357761.0 0
257884.0 357974.0 0
261294.0 359890.0 0
271560.0 359073.0 0
275455.0 357587.0 0
278653.0 359122.0 0
282020.0 357140.0 0
285206.0 358843.0 0
291648.0 358603.0 0
298026.0 358434.0 0
201983.0 359504.0 0
207406.0 361547.0 0
210383.0 359752.0 0
213826.0 361577.0 0
220238.0 361598.0 0
226499.0 361448.0 0
232711.0 361316.0 0
238924.0 361283.0 0
245187.0 361358.0 0
251533.0 361509.0 0
254691.0 359730.0 0
257996.0 361675.0 0
264490.0 361947.0 0
267936.0 360471.0 0
274772.0 361246.0 0
281853.0 360785.0 0
285196.0 362490.0 0
288433.0 360580.0 0
294830.0 360369.0 0
298025.0 362167.0 0
201963.0 362715.0 0
204933.0 363921.0 0
210840.0 363340.0 0
217291.0 363381.0 0
223586.0 363396.0 0
229780.0 363270.0 0
235960.0 363195.0 0
242163.0 363213.0 0
248427.0 363318.0 0
251629.0 365283.0 0
254776.0 363469.0 0
257929.0 365453.0 0
261169.0 363666.0 0
267559.0 364163.0 0
271076.0 362668.0 0
274018.0 364869.0 0
278331.0 362657.0 0
281968.0 364285.0 0
288399.0 364299.0 0
291615.0 362344.0 0
294802.0 364075.0 0
201964.0 366196.0 0
208058.0 365362.0 0
211366.0 366942.0 0
214303.0 365098.0 0
217763.0 366925.0 0
220695.0 365298.0 0
223970.0 367152.0 0
226866.0 365219.0 0
230107.0 367065.0 0
233023.0 365127.0 0
236236.0 367014.0 0
239182.0 365102.0 0
242371.0 367033.0 0
245374.0 365160.0 0
248546.0 367121.0 0
254761.0 367265.0 0
260969.0 367496.0 0
264209.0 365762.0 0
270479.0 366381.0 0
276099.0 367600.0 0
278988.0 366054.0 0
285203.0 366181.0 0
291566.0 366051.0 0
294785.0 367715.0 0
298025.0 365849.0 0
205122.0 367572.0 0
208430.0 368952.0 0
214768.0 368590.0 0
221111.0 369074.0 0
227205.0 368999.0 0
233318.0 368937.0 0
239412.0 368930.0 0
242541.0 370874.0 0
245519.0 368986.0 0
248613.0 370960.0 0
251658.0 369101.0 0
257802.0 369289.0 0
263890.0 369630.0 0
267119.0 367963.0 0
269811.0 370285.0 0
272973.0 368837.0 0
278964.0 369753.0 0
282094.0 368007.0 0
285155.0 369943.0 0
288342.0 368028.0 0
298031.0 369501.0 0
201975.0 369701.0 0
205478.0 371021.0 0
208971.0 372396.0 0
211824.0 370438.0 0
215128.0 372058.0 0
218126.0 370386.0 0
221522.0 372959.0 0
224322.0 370937.0 0
230421.0 370859.0 0
233599.0 372752.0 0
236490.0 370841.0 0
239607.0 372778.0 0
245618.0 372842.0 0
251642.0 372963.0 0
254696.0 371113.0 0
257649.0 373175.0 0
260742.0 371378.0 0
266671.0 371876.0 0
272531.0 372655.0 0
275719.0 371255.0 0
281899.0 371736.0 0
288304.0 371728.0 0
291544.0 369687.0 0
294934.0 371277.0 0
302236.0 373166.0 0
198602.0 378164.0 0
200254.0 375399.0 0
202628.0 373102.0 0
206267.0 374417.0 0
212316.0 373959.0 0
215504.0 375562.0 0
218390.0 373700.0 0
224690.0 374727.0 0
227539.0 372775.0 0
230736.0 374650.0 0
236709.0 374689.0 0
242668.0 374743.0 0
248637.0 374836.0 0
254602.0 375004.0 0
260514.0 375304.0 0
263573.0 373556.0 0
269412.0 374177.0 0
275330.0 374950.0 0
278585.0 373399.0 0
281445.0 375406.0 0
284884.0 373629.0 0
289250.0 374956.0 0
291933.0 373110.0 0
298033.0 373215.0 0
300382.0 377513.0 0
195883.0 379860.0 0
199194.0 381003.0 0
201849.0 378878.0 0
203899.0 376544.0 0
207306.0 377970.0 0
209700.0 375925.0 0
212882.0 377590.0 0
218761.0 376914.0 0
221942.0 376867.0 0
225136.0 378458.0 0
227904.0 376535.0 0
233840.0 376591.0 0
236872.0 378567.0 0
239757.0 376656.0 0
242749.0 378644.0 0
245674.0 376731.0 0
248626.0 378744.0 0
251595.0 376861.0 0
257488.0 377097.0 0
263310.0 377498.0 0
266341.0 375801.0 0
269093.0 378069.0 0
272174.0 376474.0 0
278135.0 377092.0 0
283672.0 377820.0 0
286544.0 376489.0 0
292128.0 376862.0 0
294939.0 374947.0 0
297554.0 376921.0 0
300285.0 380363.0 0
303372.0 379383.0 0
306339.0 381239.0 0
190111.0 383448.0 0
193104.0 381591.0 0
196320.0 382965.0 0
199868.0 383757.0 0
202582.0 382221.0 0
205043.0 380126.0 0
210440.0 379683.0 0
213613.0 381247.0 0
216107.0 379092.0 0
219468.0 380174.0 0
222538.0 380603.0 0
228142.0 380340.0 0
230989.0 378473.0 0
233995.0 380460.0 0
239851.0 380563.0 0
245692.0 380651.0 0
251527.0 380786.0 0
254493.0 378926.0 0
257335.0 381036.0 0
260311.0 379247.0 0
266068.0 379735.0 0
271842.0 380322.0 0
274946.0 378714.0 0
277626.0 380927.0 0
280680.0 379305.0 0
286280.0 380159.0 0
289259.0 378639.0 0
294733.0 378844.0 0
297314.0 380698.0 0
303282.0 382479.0 0
309403.0 383148.0 0
187162.0 385295.0 0
193025.0 384558.0 0
195501.0 386110.0 0
198299.0 385917.0 0
202311.0 385805.0 0
207985.0 381771.0 0
211020.0 383408.0 0
217023.0 382561.0 0
220704.0 383643.0 0
225268.0 382264.0 0
231083.0 382316.0 0
236954.0 382467.0 0
242783.0 382573.0 0
248590.0 382677.0 0
254381.0 382862.0 0
260128.0 383196.0 0
263085.0 381449.0 0
265816.0 383685.0 0
268803.0 381978.0 0
274561.0 382555.0 0
280277.0 383150.0 0
283273.0 381598.0 0
288991.0 382345.0 0
291909.0 380679.0 0
294447.0 382736.0 0
297192.0 384175.0 0
300185.0 383338.0 0
303478.0 385551.0 0
306437.0 384317.0 0
309551.0 386194.0 0
312518.0 385107.0 0
181041.0 389121.0 0
184125.0 387192.0 0
187068.0 388329.0 0
190140.0 386503.0 0
193001.0 387962.0 0
199728.0 388089.0 0
205344.0 383851.0 0
208335.0 385428.0 0
214218.0 384722.0 0
215152.0 387823.0 0
217843.0 385797.0 0
220990.0 387295.0 0
223957.0 385348.0 0
226952.0 387306.0 0
228037.0 384111.0 0
230882.0 386072.0 0
234006.0 384325.0 0
236925.0 386352.0 0
239880.0 384488.0 0
242771.0 386520.0 0
245676.0 384592.0 0
251452.0 384724.0 0
257195.0 384978.0 0
262868.0 385409.0 0
268516.0 385911.0 0
271523.0 384208.0 0
277263.0 384769.0 0
282954.0 385373.0 0
285958.0 383843.0 0
288669.0 386024.0 0
291696.0 384507.0 0
297697.0 387116.0 0
300584.0 386294.0 0
303330.0 388839.0 0
306465.0 387464.0 0
312538.0 388424.0 0
315518.0 386983.0 0
318532.0 388865.0 0
177939.0 391061.0 0
183952.0 390240.0 0
186906.0 391375.0 0
190018.0 389596.0 0
193146.0 390970.0 0
196319.0 389148.0 0
199173.0 391016.0 0
202506.0 389262.0 0
205324.0 387254.0 0
208209.0 388883.0 0
211385.0 387026.0 0
212886.0 389861.0 0
218241.0 389402.0 0
223880.0 389094.0 0
229764.0 389290.0 0
233793.0 388087.0 0
239830.0 388403.0 0
245641.0 388538.0 0
248542.0 386619.0 0
251401.0 388657.0 0
254288.0 386799.0 0
257096.0 388918.0 0
259961.0 387147.0 0
265523.0 387663.0 0
271256.0 388104.0 0
274250.0 386417.0 0
276978.0 388610.0 0
279967.0 386971.0 0
285659.0 387568.0 0
291395.0 388164.0 0
294463.0 386669.0 0
300386.0 389505.0 0
306024.0 390600.0 0
309483.0 389227.0 0
315472.0 390255.0 0
321668.0 390817.0 0
174855.0 392991.0 0
177701.0 394206.0 0
180815.0 392205.0 0
183745.0 393290.0 0
189955.0 392579.0 0
196022.0 392373.0 0
202051.0 392520.0 0
205218.0 390777.0 0
210248.0 391161.0 0
215690.0 391523.0 0
221070.0 391124.0 0
226640.0 391035.0 0
232469.0 391243.0 0
236733.0 390144.0 0
242717.0 390461.0 0
248524.0 390548.0 0
254260.0 390720.0 0
259562.0 391360.0 0
262536.0 389481.0 0
265326.0 391609.0 0
268281.0 389834.0 0
273998.0 390286.0 0
279718.0 390787.0 0
282685.0 389158.0 0
285421.0 391321.0 0
288378.0 389718.0 0
291012.0 391892.0 0
293939.0 390419.0 0
296886.0 389822.0 0
299630.0 392286.0 0
302954.0 392378.0 0
306232.0 393777.0 0
309042.0 391950.0 0
312394.0 391819.0 0
315775.0 393407.0 0
318692.0 392005.0 0
321985.0 393879.0 0
324887.0 392825.0 0
168879.0 396735.0 0
171822.0 394891.0 0
174644.0 396221.0 0
180604.0 395304.0 0
183564.0 396344.0 0
186737.0 394379.0 0
189730.0 395612.0 0
192878.0 394153.0 0
195750.0 395573.0 0
198900.0 394175.0 0
201651.0 395955.0 0
204653.0 394374.0 0
207555.0 392746.0 0
210007.0 394885.0 0
212851.0 393370.0 0
215517.0 395206.0 0
218375.0 393240.0 0
220996.0 395029.0 0
223769.0 392977.0 0
226435.0 394899.0 0
229355.0 393007.0 0
232055.0 394979.0 0
235115.0 393165.0 0
237727.0 395066.0 0
239679.0 392247.0 0
245625.0 392448.0 0
251440.0 392558.0 0
256601.0 393277.0 0
262394.0 393434.0 0
268084.0 393765.0 0
271032.0 392004.0 0
273796.0 394156.0 0
276753.0 392451.0 0
282478.0 392945.0 0
288135.0 393484.0 0
293704.0 394047.0 0
296705.0 393022.0 0
300377.0 395167.0 0
303715.0 395841.0 0
307170.0 396826.0 0
309857.0 394633.0 0
313109.0 395145.0 0
316458.0 396628.0 0
319152.0 395125.0 0
325302.0 395845.0 0
328149.0 394861.0 0
331415.0 396901.0 0
165965.0 398557.0 0
171743.0 398231.0 0
174614.0 399546.0 0
177508.0 397382.0 0
180426.0 398419.0 0
183393.0 399416.0 0
186562.0 397420.0 0
189591.0 398656.0 0
192626.0 397439.0 0
195432.0 398752.0 0
198566.0 397449.0 0
204239.0 397982.0 0
207153.0 396449.0 0
212580.0 396981.0 0
218129.0 397029.0 0
223601.0 396886.0 0
229111.0 396848.0 0
234750.0 396948.0 0
240377.0 396899.0 0
242655.0 394350.0 0
245749.0 396245.0 0
248615.0 394419.0 0
250734.0 397159.0 0
253661.0 395220.0 0
259480.0 395299.0 0
265157.0 395570.0 0
270853.0 395904.0 0
276584.0 396286.0 0
279531.0 394597.0 0
282335.0 396727.0 0
285248.0 395097.0 0
288053.0 397236.0 0
290880.0 395627.0 0
296699.0 396082.0 0
299051.0 398043.0 0
304958.0 399322.0 0
310546.0 397649.0 0
313830.0 398377.0 0
319792.0 398319.0 0
322502.0 396968.0 0
325775.0 398938.0 0
328588.0 397870.0 0
334641.0 398920.0 0
159969.0 402294.0 0
163023.0 400393.0 0
166013.0 401851.0 0
168910.0 400080.0 0
171830.0 401677.0 0
177557.0 400649.0 0
180643.0 401641.0 0
186347.0 400456.0 0
189282.0 401559.0 0
192395.0 400923.0 0
195290.0 401817.0 0
198265.0 400781.0 0
201262.0 399431.0 0
206704.0 400133.0 0
209652.0 398577.0 0
212208.0 400655.0 0
215182.0 398909.0 0
220717.0 398870.0 0
226230.0 398787.0 0
231806.0 398816.0 0
237485.0 398893.0 0
243266.0 398523.0 0
247815.0 399113.0 0
253708.0 399114.0 0
256588.0 397197.0 0
259360.0 399308.0 0
262247.0 397418.0 0
265023.0 399530.0 0
267928.0 397696.0 0
273644.0 398020.0 0
279403.0 398394.0 0
285181.0 398845.0 0
290937.0 399325.0 0
293748.0 397654.0 0
296431.0 399760.0 0
301962.0 398620.0 0
308110.0 400103.0 0
311349.0 400788.0 0
314594.0 401537.0 0
317180.0 399884.0 0
320367.0 401648.0 0
323019.0 400173.0 0
326063.0 402190.0 0
328923.0 400985.0 0
331792.0 399948.0 0
334995.0 401990.0 0
337847.0 400925.0 0
156899.0 404213.0 0
162878.0 403562.0 0
168987.0 403449.0 0
171983.0 405195.0 0
174780.0 402926.0 0
177996.0 403892.0 0
183772.0 402672.0 0
186990.0 403732.0 0
190645.0 404181.0 0
193799.0 404489.0 0
197294.0 404274.0 0
200544.0 402986.0 0
203677.0 401605.0 0
209226.0 402267.0 0
214776.0 402646.0 0
217760.0 400799.0 0
220344.0 402659.0 0
223320.0 400737.0 0
225947.0 402636.0 0
228887.0 400718.0 0
231569.0 402674.0 0
234529.0 400788.0 0
237336.0 402695.0 0
240378.0 400692.0 0
245175.0 401296.0 0
250831.0 401005.0 0
256484.0 401216.0 0
262140.0 401404.0 0
267811.0 401627.0 0
270719.0 399801.0 0
273540.0 401876.0 0
276468.0 400109.0 0
279338.0 402166.0 0
282268.0 400479.0 0
285198.0 402543.0 0
288096.0 400939.0 0
293794.0 401400.0 0
299586.0 401328.0 0
302678.0 402088.0 0
305775.0 402753.0 0
308989.0 403360.0 0
312194.0 403964.0 0
317854.0 403243.0 0
323234.0 403581.0 0
329227.0 404144.0 0
332115.0 403045.0 0
338158.0 404032.0 0
341022.0 402911.0 0
153804.0 406147.0 0
156749.0 407347.0 0
159827.0 405450.0 0
162712.0 406845.0 0
165685.0 405059.0 0
168352.0 406556.0 0
175383.0 406141.0 0
178725.0 407122.0 0
181249.0 404886.0 0
184619.0 405858.0 0
188307.0 406561.0 0
191956.0 407217.0 0
199522.0 406372.0 0
202947.0 405133.0 0
206167.0 403768.0 0
208772.0 405929.0 0
211801.0 404374.0 0
217334.0 404568.0 0
222957.0 404532.0 0
228590.0 404567.0 0
234292.0 404631.0 0
239674.0 405023.0 0
242482.0 403250.0 0
245325.0 405154.0 0
248126.0 403073.0 0
250848.0 405204.0 0
253593.0 403114.0 0
259270.0 403305.0 0
264923.0 403494.0 0
270626.0 403693.0 0
276403.0 403912.0 0
282270.0 404192.0 0
288193.0 404592.0 0
291054.0 403025.0 0
294209.0 404954.0 0
296953.0 403245.0 0
300256.0 404727.0 0
303494.0 405525.0 0
306886.0 406042.0 0
310300.0 406592.0 0
315354.0 404647.0 0
313750.0 407129.0 0
317540.0 407001.0 0
320437.0 405281.0 0
323564.0 406892.0 0
326368.0 405458.0 0
329409.0 407383.0 0
332340.0 406214.0 0
335261.0 405119.0 0
338392.0 407187.0 0
341297.0 406053.0 0
344169.0 404880.0 0
347285.0 406830.0 0
147518.0 410075.0 0
150676.0 408102.0 0
153616.0 409265.0 0
159700.0 408663.0 0
162622.0 410201.0 0
165480.0 408531.0 0
167936.0 410292.0 0
170549.0 408236.0 0
173363.0 408682.0 0
176437.0 409533.0 0
182130.0 408041.0 0
185701.0 408793.0 0
189252.0 409514.0 0
192738.0 410148.0 0
195710.0 407346.0 0
202226.0 408483.0 0
205559.0 407284.0 0
211426.0 408127.0 0
214367.0 406439.0 0
219924.0 406407.0 0
225571.0 406446.0 0
231249.0 406520.0 0
236791.0 406782.0 0
242406.0 407075.0 0
248028.0 407171.0 0
253618.0 407254.0 0
256386.0 405198.0 0
259167.0 407300.0 0
262050.0 405395.0 0
264855.0 407455.0 0
267733.0 405555.0 0
270578.0 407578.0 0
273480.0 405719.0 0
279323.0 405907.0 0
285277.0 406195.0 0
288388.0 408169.0 0
291298.0 406595.0 0
297571.0 406662.0 0
301081.0 408206.0 0
304770.0 408722.0 0
308333.0 409213.0 0
311825.0 409701.0 0
320850.0 408648.0 0
326492.0 408844.0 0
332529.0 409420.0 0
335465.0 408294.0 0
341469.0 409249.0 0
344395.0 408058.0 0
350377.0 408765.0 0
144364.0 412048.0 0
150437.0 411212.0 0
153378.0 412388.0 0
156577.0 410496.0 0
159541.0 411878.0 0
165321.0 412289.0 0
170884.0 411513.0 0
173959.0 412071.0 0
179711.0 410366.0 0
183172.0 411107.0 0
186715.0 411828.0 0
190343.0 412558.0 0
195748.0 410544.0 0
198803.0 409457.0 0
201308.0 411815.0 0
204785.0 410731.0 0
208174.0 409482.0 0
214195.0 410341.0 0
216931.0 408365.0 0
219443.0 410141.0 0
222509.0 408292.0 0
225043.0 410224.0 0
228180.0 408387.0 0
230775.0 410388.0 0
233825.0 408571.0 0
236452.0 410682.0 0
239448.0 408897.0 0
245125.0 409089.0 0
250761.0 409214.0 0
256368.0 409332.0 0
261981.0 409378.0 0
267696.0 409479.0 0
273466.0 409552.0 0
276384.0 407696.0 0
279351.0 409619.0 0
282315.0 407860.0 0
285399.0 409775.0 0
291563.0 410175.0 0
294471.0 408384.0 0
297613.0 409929.0 0
300383.0 411450.0 0
303443.0 411598.0 0
306791.0 411954.0 0
315363.0 409849.0 0
318481.0 410220.0 0
323567.0 410334.0 0
326712.0 412204.0 0
329590.0 410612.0 0
332528.0 412710.0 0
335537.0 411544.0 0
338516.0 410405.0 0
341563.0 412491.0 0
344528.0 411283.0 0
347470.0 410039.0 0
350513.0 412006.0 0
353446.0 410685.0 0
356500.0 412597.0 0
141215.0 414018.0 0
144171.0 415204.0 0
147296.0 413208.0 0
150269.0 414372.0 0
156325.0 413640.0 0
159244.0 415059.0 0
162481.0 413526.0 0
168139.0 413823.0 0
171326.0 414746.0 0
177182.0 412812.0 0
180553.0 413510.0 0
183991.0 414188.0 0
187448.0 414864.0 0
194026.0 413462.0 0
197851.0 412910.0 0
203922.0 414110.0 0
207449.0 412920.0 0
210893.0 411691.0 0
217058.0 412625.0 0
221827.0 412034.0 0
227614.0 412169.0 0
233393.0 412454.0 0
239145.0 412781.0 0
242160.0 410965.0 0
244892.0 413026.0 0
247852.0 411139.0 0
250599.0 413203.0 0
253503.0 411280.0 0
259156.0 411365.0 0
264827.0 411408.0 0
270576.0 411459.0 0
276407.0 411465.0 0
282398.0 411484.0 0
288568.0 411676.0 0
291711.0 413796.0 0
294725.0 411941.0 0
297878.0 413594.0 0
301529.0 414651.0 0
310235.0 412395.0 0
313767.0 412683.0 0
317217.0 413018.0 0
320816.0 412592.0 0
323980.0 413482.0 0
329453.0 413924.0 0
335597.0 414805.0 0
338583.0 413660.0 0
344537.0 414567.0 0
347541.0 413298.0 0
353547.0 413951.0 0
359544.0 414501.0 0
134894.0 417971.0 0
138059.0 415992.0 0
141027.0 417188.0 0
147179.0 416379.0 0
150243.0 417572.0 0
153279.0 415592.0 0
156324.0 416915.0 0
162208.0 416515.0 0
165346.0 416031.0 0
168589.0 417168.0 0
174571.0 415345.0 0
177915.0 415995.0 0
181331.0 416656.0 0
184773.0 417319.0 0
188219.0 418031.0 0
190833.0 415584.0 0
193917.0 416645.0 0
196963.0 416027.0 0
200465.0 415165.0 0
206540.0 416264.0 0
210165.0 415137.0 0
213676.0 413951.0 0
219910.0 414978.0 0
224301.0 413909.0 0
226868.0 415831.0 0
230223.0 414192.0 0
236070.0 414552.0 0
241875.0 414869.0 0
247646.0 415101.0 0
253385.0 415265.0 0
256290.0 413326.0 0
259116.0 415350.0 0
261983.0 413374.0 0
264849.0 415367.0 0
267702.0 413398.0 0
270617.0 415336.0 0
273502.0 413381.0 0
276487.0 415228.0 0
279411.0 413305.0 0
282483.0 415073.0 0
285530.0 413311.0 0
288744.0 415135.0 0
294716.0 415494.0 0
297805.0 416807.0 0
305119.0 414806.0 0
308616.0 415171.0 0
312135.0 415491.0 0
315640.0 415782.0 0
319255.0 415734.0 0
322589.0 416046.0 0
326348.0 415893.0 0
329621.0 416910.0 0
332619.0 415945.0 0
335266.0 418186.0 0
338426.0 417004.0 0
341504.0 415804.0 0
347535.0 416589.0 0
350556.0 415282.0 0
353548.0 417252.0 0
356566.0 415884.0 0
359583.0 417802.0 0
362584.0 416403.0 0
131713.0 419961.0 0
137878.0 419175.0 0
140906.0 420379.0 0
144042.0 418375.0 0
147101.0 419550.0 0
153374.0 418827.0 0
156616.0 420165.0 0
159443.0 418399.0 0
162887.0 419392.0 0
166077.0 419636.0 0
171937.0 417962.0 0
175288.0 418563.0 0
178690.0 419163.0 0
182133.0 419829.0 0
191656.0 418916.0 0
195520.0 419508.0 0
199268.0 418470.0 0
202883.0 417532.0 0
209231.0 418467.0 0
212898.0 417455.0 0
216455.0 416313.0 0
219319.0 418639.0 0
222893.0 417142.0 0
229605.0 417883.0 0
232906.0 416268.0 0
235636.0 418383.0 0
238795.0 416658.0 0
244635.0 416958.0 0
250436.0 417175.0 0
256213.0 417306.0 0
261984.0 417348.0 0
267766.0 417318.0 0
273569.0 417202.0 0
279556.0 416989.0 0
285585.0 416810.0 0
288679.0 418378.0 0
291982.0 417625.0 0
295294.0 419167.0 0
300791.0 417678.0 0
303935.0 417775.0 0
307205.0 418065.0 0
310594.0 418363.0 0
314049.0 418628.0 0
317581.0 418720.0 0
321018.0 418909.0 0
324572.0 418869.0 0
327972.0 419258.0 0
331922.0 419320.0 0
338464.0 420269.0 0
341471.0 419114.0 0
344501.0 417875.0 0
347415.0 419933.0 0
350494.0 418599.0 0
356537.0 419198.0 0
362610.0 419714.0 0
365630.0 418308.0 0
368685.0 420218.0 0
128514.0 421962.0 0
131533.0 423162.0 0
134715.0 421162.0 0
137765.0 422379.0 0
143974.0 421568.0 0
147076.0 422744.0 0
150196.0 420734.0 0
153308.0 421950.0 0
160075.0 421602.0 0
163636.0 422543.0 0
167003.0 423113.0 0
169406.0 420516.0 0
172761.0 421223.0 0
176136.0 421782.0 0
179558.0 422343.0 0
185554.0 420501.0 0
188960.0 421236.0 0
192475.0 421903.0 0
198421.0 421645.0 0
201865.0 420979.0 0
205544.0 419523.0 0
211819.0 420838.0 0
215583.0 419903.0 0
222856.0 420668.0 0
226090.0 419256.0 0
232372.0 420014.0 0
238408.0 420509.0 0
241559.0 418764.0 0
244365.0 420871.0 0
247432.0 419048.0 0
250273.0 421129.0 0
253269.0 419236.0 0
259086.0 419321.0 0
264906.0 419310.0 0
270727.0 419226.0 0
276558.0 418962.0 0
279590.0 420586.0 0
282744.0 418686.0 0
286117.0 420434.0 0
290490.0 421062.0 0
293712.0 421952.0 0
298742.0 420259.0 0
302257.0 420829.0 0
305623.0 421072.0 0
309008.0 421325.0 0
312440.0 421557.0 0
315925.0 421701.0 0
319378.0 421853.0 0
322854.0 421899.0 0
326206.0 422077.0 0
329625.0 422091.0 0
332759.0 422338.0 0
335511.0 421300.0 0
341237.0 422548.0 0
344323.0 421264.0 0
350327.0 421946.0 0
353451.0 420580.0 0
359543.0 421121.0 0
362571.0 423039.0 0
365650.0 421629.0 0
371753.0 422137.0 0
122069.0 425995.0 0
125297.0 423975.0 0
128331.0 425182.0 0
134608.0 424370.0 0
137725.0 425604.0 0
140853.0 423592.0 0
143976.0 424787.0 0
150200.0 423936.0 0
153314.0 425191.0 0
156384.0 423154.0 0
159133.0 424496.0 0
162007.0 425369.0 0
170338.0 423897.0 0
173686.0 424516.0 0
183012.0 423059.0 0
186396.0 423754.0 0
189799.0 424420.0 0
195597.0 422957.0 0
196672.0 425999.0 0
200076.0 424371.0 0
204564.0 422726.0 0
208165.0 421771.0 0
213742.0 423584.0 0
216947.0 423055.0 0
219916.0 422079.0 0
225695.0 423015.0 0
228986.0 421495.0 0
231839.0 423722.0 0
235169.0 422172.0 0
241223.0 422634.0 0
247215.0 422974.0 0
253162.0 423190.0 0
256148.0 421272.0 0
259079.0 423273.0 0
262012.0 421298.0 0
265005.0 423222.0 0
267891.0 421226.0 0
270926.0 423130.0 0
273715.0 421057.0 0
276730.0 422748.0 0
282638.0 422061.0 0
285483.0 423560.0 0
288619.0 423783.0 0
296968.0 422821.0 0
300412.0 423588.0 0
303884.0 424069.0 0
307323.0 424330.0 0
310785.0 424540.0 0
314280.0 424697.0 0
317775.0 424838.0 0
321279.0 424923.0 0
324739.0 425048.0 0
331621.0 425261.0 0
335085.0 424802.0 0
338161.0 423725.0 0
343970.0 424712.0 0
347165.0 423313.0 0
353278.0 423922.0 0
356431.0 422530.0 0
359445.0 424449.0 0
365623.0 424964.0 0
368706.0 423548.0 0
371783.0 425467.0 0
374841.0 424067.0 0
377952.0 426011.0 0
118837.0 428018.0 0
125117.0 427226.0 0
128230.0 428415.0 0
131428.0 426376.0 0
134576.0 427591.0 0
140874.0 426832.0 0
144054.0 428033.0 0
147130.0 425971.0 0
150308.0 427192.0 0
156326.0 426546.0 0
159478.0 427824.0 0
165075.0 426012.0 0
168182.0 426690.0 0
177065.0 425002.0 0
180498.0 425531.0 0
183961.0 426369.0 0
187277.0 427054.0 0
193110.0 425310.0 0
199408.0 427809.0 0
203074.0 425737.0 0
206803.0 425146.0 0
210331.0 424342.0 0
215894.0 426538.0 0
219330.0 425789.0 0
222549.0 424534.0 0
228492.0 425220.0 0
234712.0 425939.0 0
238003.0 424330.0 0
240877.0 426475.0 0
244085.0 424758.0 0
250117.0 425061.0 0
256103.0 425219.0 0
262072.0 425221.0 0
268083.0 425095.0 0
273970.0 424960.0 0
279804.0 424274.0 0
282941.0 425720.0 0
286437.0 426741.0 0
291905.0 424669.0 0
295265.0 425570.0 0
298626.0 426358.0 0
302059.0 426973.0 0
305552.0 427339.0 0
309066.0 427547.0 0
328217.0 425101.0 0
334037.0 427928.0 0
337526.0 427228.0 0
340763.0 426054.0 0
343470.0 428169.0 0
346808.0 426688.0 0
350077.0 425296.0 0
353059.0 427261.0 0
356274.0 425868.0 0
359319.0 427776.0 0
362494.0 426371.0 0
365566.0 428311.0 0
368693.0 426893.0 0
374882.0 427399.0 0
381090.0 427973.0 0
115612.0 430038.0 0
121899.0 429287.0 0
125026.0 430493.0 0
131402.0 429599.0 0
134625.0 430824.0 0
137762.0 428856.0 0
140968.0 430101.0 0
147267.0 429219.0 0
150515.0 430475.0 0
153469.0 428567.0 0
156694.0 429901.0 0
160086.0 431065.0 0
162757.0 428809.0 0
165928.0 429577.0 0
169115.0 430234.0 0
171395.0 427338.0 0
174706.0 427824.0 0
178073.0 428217.0 0
181510.0 428716.0 0
185023.0 429833.0 0
190561.0 427760.0 0
193988.0 428541.0 0
202038.0 429041.0 0
205391.0 428402.0 0
208938.0 427801.0 0
212439.0 427119.0 0
218259.0 429302.0 0
221849.0 428394.0 0
225153.0 426918.0 0
227986.0 428884.0 0
231383.0 427458.0 0
237600.0 428134.0 0
243799.0 428617.0 0
246998.0 426873.0 0
249973.0 428963.0 0
253077.0 427124.0 0
259097.0 427205.0 0
265150.0 427090.0 0
268373.0 428872.0 0
271219.0 427046.0 0
274268.0 428928.0 0
277046.0 426563.0 0
280353.0 427931.0 0
283887.0 429087.0 0
289806.0 427326.0 0
293257.0 428150.0 0
296793.0 429146.0 0
300205.0 429893.0 0
303710.0 430330.0 0
312600.0 427705.0 0
316140.0 427838.0 0
319689.0 427933.0 0
323230.0 428024.0 0
326795.0 428076.0 0
330365.0 428137.0 0
332704.0 430847.0 0
336544.0 430522.0 0
340090.0 429562.0 0
346385.0 430003.0 0
349774.0 428622.0 0
356103.0 429211.0 0
359182.0 431100.0 0
362398.0 429706.0 0
368648.0 430259.0 0
371780.0 428814.0 0
374891.0 430745.0 0
378006.0 429338.0 0
381165.0 431284.0 0
384263.0 429956.0 0
109200.0 434054.0 0
112398.0 432050.0 0
115497.0 433436.0 0
118690.0 431361.0 0
121828.0 432603.0 0
128213.0 431660.0 0
131458.0 432828.0 0
137878.0 432141.0 0
144199.0 431299.0 0
147467.0 432469.0 0
153823.0 431933.0 0
157192.0 433176.0 0
163490.0 432316.0 0
166755.0 433140.0 0
172408.0 430735.0 0
175737.0 431120.0 0
179057.0 431418.0 0
182401.0 431832.0 0
188275.0 430459.0 0
191794.0 430984.0 0
196834.0 429781.0 0
199592.0 431783.0 0
203530.0 431743.0 0
207267.0 431147.0 0
210962.0 430548.0 0
214605.0 429950.0 0
224307.0 431110.0 0
230990.0 431186.0 0
234292.0 429724.0 0
240517.0 430289.0 0
246787.0 430742.0 0
253014.0 431027.0 0
256101.0 429151.0 0
259195.0 431142.0 0
262140.0 429115.0 0
265229.0 430876.0 0
271746.0 431607.0 0
277728.0 430217.0 0
281343.0 431374.0 0
287463.0 430011.0 0
290963.0 430715.0 0
294534.0 431484.0 0
298257.0 432801.0 0
307288.0 430563.0 0
310874.0 430723.0 0
314464.0 430848.0 0
318062.0 430941.0 0
321662.0 431011.0 0
325285.0 431041.0 0
328944.0 431031.0 0
334984.0 433446.0 0
339196.0 432976.0 0
342880.0 431589.0 0
346251.0 433172.0 0
349577.0 431886.0 0
352862.0 430587.0 0
359046.0 434423.0 0
362291.0 433048.0 0
365488.0 431677.0 0
371744.0 432177.0 0
378030.0 432678.0 0
384367.0 433259.0 0
387475.0 431964.0 0
390722.0 433995.0 0
106010.0 436050.0 0
112325.0 435506.0 0
118647.0 434735.0 0
121851.0 435942.0 0
125025.0 433777.0 0
128281.0 434913.0 0
131598.0 436054.0 0
134755.0 434063.0 0
138065.0 435478.0 0
141130.0 433405.0 0
144399.0 434585.0 0
147727.0 435695.0 0
150808.0 433704.0 0
154202.0 435308.0 0
160646.0 434266.0 0
164202.0 435947.0 0
170170.0 433669.0 0
173648.0 434080.0 0
177153.0 434378.0 0
180723.0 434530.0 0
184965.0 433655.0 0
188473.0 433626.0 0
191927.0 433937.0 0
195230.0 432597.0 0
201591.0 434706.0 0
205511.0 434376.0 0
209313.0 433851.0 0
213076.0 433300.0 0
216838.0 432705.0 0
220623.0 432042.0 0
227660.0 432285.0 0
233732.0 433566.0 0
237154.0 431947.0 0
240168.0 434047.0 0
243526.0 432440.0 0
249836.0 432829.0 0
256134.0 433043.0 0
262362.0 433055.0 0
268391.0 432337.0 0
275224.0 432693.0 0
278879.0 433705.0 0
284986.0 432427.0 0
288544.0 433330.0 0
291994.0 434042.0 0
295506.0 434607.0 0
301815.0 433351.0 0
305466.0 433579.0 0
309118.0 433745.0 0
312762.0 433869.0 0
316406.0 433959.0 0
320050.0 434017.0 0
323708.0 434031.0 0
327397.0 433980.0 0
331155.0 433795.0 0
340265.0 436163.0 0
343069.0 434856.0 0
349439.0 435166.0 0
352707.0 433939.0 0
355941.0 432579.0 0
362173.0 436398.0 0
365395.0 435070.0 0
368576.0 433653.0 0
371682.0 435556.0 0
374869.0 434105.0 0
378023.0 436035.0 0
381210.0 434599.0 0
384438.0 436561.0 0
387609.0 435275.0 0
393989.0 436039.0 0
102800.0 438058.0 0
106011.0 439550.0 0
109174.0 437556.0 0
115490.0 436875.0 0
118699.0 438141.0 0
125109.0 437076.0 0
128426.0 438166.0 0
134975.0 437297.0 0
141324.0 436755.0 0
144578.0 437876.0 0
151174.0 436847.0 0
157459.0 436447.0 0
160897.0 437234.0 0
167833.0 436545.0 0
171500.0 436992.0 0
175176.0 437307.0 0
178917.0 437414.0 0
182839.0 436914.0 0
186493.0 436705.0 0
190183.0 436675.0 0
194190.0 436119.0 0
197815.0 435081.0 0
207555.0 437091.0 0
211358.0 436606.0 0
215140.0 436079.0 0
218905.0 435527.0 0
222628.0 435054.0 0
226248.0 435248.0 0
230200.0 434982.0 0
236699.0 435719.0 0
243296.0 436229.0 0
246595.0 434590.0 0
249705.0 436670.0 0
252944.0 434892.0 0
256130.0 436855.0 0
259358.0 435045.0 0
265651.0 434746.0 0
269351.0 435551.0 0
272914.0 435494.0 0
276574.0 436236.0 0
282593.0 434768.0 0
286217.0 435848.0 0
289644.0 436785.0 0
293183.0 437310.0 0
300068.0 436482.0 0
303708.0 436634.0 0
307380.0 436783.0 0
311057.0 436905.0 0
314734.0 436992.0 0
318414.0 437045.0 0
322100.0 437055.0 0
325802.0 436995.0 0
329531.0 436828.0 0
333263.0 436546.0 0
336932.0 436115.0 0
346101.0 436422.0 0
352645.0 437331.0 0
355803.0 436016.0 0
358873.0 437734.0 0
365311.0 438494.0 0
368489.0 437094.0 0
371586.0 438947.0 0
374820.0 437482.0 0
381217.0 437914.0 0
387692.0 438594.0 0
390869.0 437334.0 0
397261.0 438088.0 0
96274.4 442142.0 0
99553.7 440089.0 0
102796.0 441553.0 0
109257.0 441104.0 0
112366.0 439010.0 0
115590.0 440360.0 0
121956.0 439304.0 0
125258.0 440386.0 0
131807.0 439261.0 0
135269.0 440471.0 0
138357.0 438918.0 0
141627.0 440198.0 0
145066.0 441207.0 0
147887.0 438852.0 0
151200.0 439765.0 0
154582.0 438894.0 0
158243.0 439655.0 0
162078.0 439931.0 0
165583.0 439445.0 0
169320.0 439850.0 0
173110.0 440228.0 0
184576.0 439843.0 0
188359.0 439595.0 0
192309.0 439166.0 0
196226.0 438577.0 0
199914.0 437941.0 0
203706.0 437497.0 0
213327.0 439436.0 0
217071.0 438964.0 0
220773.0 438541.0 0
224440.0 438372.0 0
228338.0 438203.0 0
233136.0 437361.0 0
236477.0 439427.0 0
239908.0 437699.0 0
246402.0 438449.0 0
252881.0 438754.0 0
259378.0 438850.0 0
262728.0 436961.0 0
266930.0 438296.0 0
270899.0 438765.0 0
274565.0 439054.0 0
278225.0 439668.0 0
280288.0 437096.0 0
283992.0 438211.0 0
287344.0 439533.0 0
291052.0 440103.0 0
296813.0 437427.0 0
302096.0 439807.0 0
305714.0 439876.0 0
309383.0 439972.0 0
313073.0 440051.0 0
316775.0 440099.0 0
320485.0 440107.0 0
324203.0 440056.0 0
327937.0 439913.0 0
331675.0 439680.0 0
335398.0 439368.0 0
339038.0 439209.0 0
342834.0 438628.0 0
346226.0 439376.0 0
349455.0 438406.0 0
355570.0 439625.0 0
358763.0 440902.0 0
362091.0 439727.0 0
368355.0 440624.0 0
374730.0 440878.0 0
377971.0 439424.0 0
381174.0 441220.0 0
384457.0 439863.0 0
390947.0 440691.0 0
394131.0 439423.0 0
397379.0 441530.0 0
400527.0 440134.0 0
92981.2 444205.0 0
99532.3 443605.0 0
102867.0 445032.0 0
106106.0 443052.0 0
112514.0 442567.0 0
118861.0 441584.0 0
122188.0 442698.0 0
125561.0 443734.0 0
128594.0 441414.0 0
131942.0 442418.0 0
135298.0 443433.0 0
138686.0 442519.0 0
142290.0 443570.0 0
148609.0 442088.0 0
152441.0 442423.0 0
155919.0 442297.0 0
159689.0 442675.0 0
163510.0 442786.0 0
167146.0 442772.0 0
170943.0 443086.0 0
174870.0 443409.0 0
176916.0 440382.0 0
180814.0 440135.0 0
186531.0 442667.0 0
190428.0 442233.0 0
194350.0 441752.0 0
198202.0 441262.0 0
201967.0 440746.0 0
205752.0 440310.0 0
209553.0 439893.0 0
215184.0 442375.0 0
218868.0 441991.0 0
222514.0 441714.0 0
226192.0 441487.0 0
229823.0 441361.0 0
233329.0 441088.0 0
239658.0 441248.0 0
243072.0 440020.0 0
249557.0 440469.0 0
256166.0 440623.0 0
262498.0 440705.0 0
265864.0 441660.0 0
269372.0 441913.0 0
272979.0 442148.0 0
281904.0 440444.0 0
285065.0 442386.0 0
294836.0 440367.0 0
298629.0 440150.0 0
304053.0 443055.0 0
307722.0 443090.0 0
330084.0 442832.0 0
333815.0 442563.0 0
337513.0 442324.0 0
341250.0 441941.0 0
344794.0 442005.0 0
348700.0 441713.0 0
352247.0 440815.0 0
358432.0 443849.0 0
361891.0 443042.0 0
365182.0 441980.0 0
371425.0 442321.0 0
377900.0 442864.0 0
381064.0 444509.0 0
384412.0 443160.0 0
387706.0 441920.0 0
390939.0 444069.0 0
394183.0 442837.0 0
400596.0 443643.0 0
403772.0 442168.0 0
89692.7 446266.0 0
96250.2 445710.0 0
99577.9 447121.0 0
106286.0 446519.0 0
109447.0 444712.0 0
112768.0 446177.0 0
115808.0 443885.0 0
119179.0 445051.0 0
122615.0 446114.0 0
128974.0 444718.0 0
132445.0 445649.0 0
136150.0 446234.0 0
139667.0 446065.0 0
146003.0 444456.0 0
149857.0 445056.0 0
153639.0 445398.0 0
157303.0 445494.0 0
161079.0 445718.0 0
164849.0 445864.0 0
168627.0 446001.0 0
172547.0 446232.0 0
176978.0 446386.0 0
178825.0 443279.0 0
182697.0 443004.0 0
188596.0 445381.0 0
192477.0 444894.0 0
196353.0 444448.0 0
200180.0 444017.0 0
203950.0 443585.0 0
207709.0 443182.0 0
211461.0 442784.0 0
224275.0 444872.0 0
227929.0 444698.0 0
231603.0 444526.0 0
235269.0 444210.0 0
238817.0 444473.0 0
242562.0 443850.0 0
246105.0 442370.0 0
249444.0 444086.0 0
252865.0 442635.0 0
256322.0 444208.0 0
259905.0 443356.0 0
263602.0 444468.0 0
267516.0 445037.0 0
276586.0 442526.0 0
280271.0 442987.0 0
288907.0 442889.0 0
292795.0 443231.0 0
296689.0 443289.0 0
300435.0 443183.0 0
311419.0 443145.0 0
315134.0 443183.0 0
318863.0 443189.0 0
322600.0 443147.0 0
326343.0 443031.0 0
332246.0 445767.0 0
335981.0 445494.0 0
339742.0 445158.0 0
343461.0 444975.0 0
347302.0 444642.0 0
351215.0 444118.0 0
354950.0 443319.0 0
361032.0 446286.0 0
364685.0 445475.0 0
368110.0 444311.0 0
371386.0 445515.0 0
374694.0 444272.0 0
377767.0 446455.0 0
381003.0 447683.0 0
384351.0 446441.0 0
387658.0 445259.0 0
394107.0 446289.0 0
397373.0 445015.0 0
403780.0 445750.0 0
406992.0 444187.0 0
410196.0 446193.0 0
83109.1 450392.0 0
86405.6 448327.0 0
89772.0 449966.0 0
93000.8 447842.0 0
96355.3 449318.0 0
102965.0 448474.0 0
106407.0 449862.0 0
109721.0 448422.0 0
116190.0 447420.0 0
119696.0 448518.0 0
126113.0 447100.0 0
129692.0 448009.0 0
133425.0 448724.0 0
143405.0 446852.0 0
147263.0 447581.0 0
151097.0 448137.0 0
154873.0 448482.0 0
158586.0 448660.0 0
162293.0 448858.0 0
165932.0 449039.0 0
169445.0 449292.0 0
172839.0 449581.0 0
176162.0 449672.0 0
180923.0 446163.0 0
184757.0 445834.0 0
194496.0 447613.0 0
198321.0 447228.0 0
202103.0 446864.0 0
205847.0 446495.0 0
209571.0 446131.0 0
213279.0 445769.0 0
216960.0 445419.0 0
220617.0 445120.0 0
240790.0 447424.0 0
244415.0 447137.0 0
247970.0 447317.0 0
251709.0 447116.0 0
255264.0 447532.0 0
258932.0 447135.0 0
271319.0 445254.0 0
275051.0 445531.0 0
278822.0 445796.0 0
283044.0 445492.0 0
286894.0 445769.0 0
290794.0 446096.0 0
294716.0 446283.0 0
298576.0 446336.0 0
302343.0 446297.0 0
306045.0 446257.0 0
309761.0 446277.0 0
313491.0 446301.0 0
317233.0 446303.0 0
320986.0 446266.0 0
324745.0 446172.0 0
328501.0 446007.0 0
338224.0 448358.0 0
342031.0 448033.0 0
345888.0 447682.0 0
349758.0 447238.0 0
353569.0 446729.0 0
357154.0 446626.0 0
363618.0 448793.0 0
367379.0 448038.0 0
370911.0 448503.0 0
374456.0 447698.0 0
384122.0 449761.0 0
387470.0 448649.0 0
390799.0 447487.0 0
397212.0 448544.0 0
400521.0 447203.0 0
406936.0 447839.0 0
410118.0 449846.0 0
413431.0 448218.0 0
416702.0 450265.0 0
79785.0 452472.0 0
86536.1 452073.0 0
93190.3 451525.0 0
96647.9 452981.0 0
99752.4 450667.0 0
103195.0 451926.0 0
106758.0 453064.0 0
113209.0 449796.0 0
116785.0 450943.0 0
123271.0 449516.0 0
126920.0 450422.0 0
130670.0 451190.0 0
137221.0 449153.0 0
140855.0 449413.0 0
144654.0 450050.0 0
148530.0 450777.0 0
152342.0 451312.0 0
174382.0 452824.0 0
179603.0 449359.0 0
183251.0 449151.0 0
186880.0 448658.0 0
190655.0 448085.0 0
196441.0 450425.0 0
200207.0 450113.0 0
203945.0 449804.0 0
207657.0 449481.0 0
211353.0 449153.0 0
215035.0 448830.0 0
218703.0 448532.0 0
222368.0 448272.0 0
226033.0 448064.0 0
229713.0 447885.0 0
233398.0 447683.0 0
237010.0 447631.0 0
262497.0 447874.0 0
266091.0 448184.0 0
269756.0 448349.0 0
273487.0 448577.0 0
277288.0 448771.0 0
281223.0 448684.0 0
285053.0 448812.0 0
288905.0 449044.0 0
292801.0 449256.0 0
296691.0 449390.0 0
300537.0 449443.0 0
304326.0 449444.0 0
308079.0 449437.0 0
311834.0 449446.0 0
315596.0 449444.0 0
319364.0 449413.0 0
323139.0 449335.0 0
326914.0 449197.0 0
330683.0 448990.0 0
334442.0 448708.0 0
344463.0 450760.0 0
348337.0 450366.0 0
352170.0 449956.0 0
355918.0 449699.0 0
359735.0 449320.0 0
366040.0 451494.0 0
369653.0 451379.0 0
373519.0 451014.0 0
377202.0 450175.0 0
380661.0 450687.0 0
386945.0 452097.0 0
390424.0 450952.0 0
393845.0 449779.0 0
400295.0 450805.0 0
403642.0 449387.0 0
409938.0 453484.0 0
413359.0 451873.0 0
419997.0 452328.0 0
76298.7 454640.0 0
83261.3 454162.0 0
90030.5 453699.0 0
93588.2 455248.0 0
100141.0 454243.0 0
103750.0 455341.0 0
110303.0 452221.0 0
113916.0 453419.0 0
120433.0 451961.0 0
124140.0 452879.0 0
127910.0 453683.0 0
134481.0 451789.0 0
138263.0 452248.0 0
142013.0 452640.0 0
145852.0 453220.0 0
149792.0 454070.0 0
156113.0 451651.0 0
159831.0 451876.0 0
163512.0 452093.0 0
167137.0 452341.0 0
170743.0 452621.0 0
178065.0 452732.0 0
181704.0 452485.0 0
185392.0 452234.0 0
188899.0 451403.0 0
192654.0 450808.0 0
205701.0 452823.0 0
209396.0 452531.0 0
213081.0 452231.0 0
216761.0 451941.0 0
220440.0 451676.0 0
224120.0 451448.0 0
227808.0 451254.0 0
231501.0 451079.0 0
235174.0 450962.0 0
238886.0 450805.0 0
242573.0 450650.0 0
246177.0 450608.0 0
249873.0 450571.0 0
253480.0 450687.0 0
257233.0 450712.0 0
260794.0 451030.0 0
264433.0 451314.0 0
268132.0 451513.0 0
271853.0 451680.0 0
275635.0 451835.0 0
279490.0 451871.0 0
283300.0 451949.0 0
287116.0 452102.0 0
290967.0 452279.0 0
294842.0 452433.0 0
298711.0 452536.0 0
302553.0 452588.0 0
306362.0 452606.0 0
310152.0 452610.0 0
313939.0 452606.0 0
317730.0 452580.0 0
321524.0 452518.0 0
325321.0 452403.0 0
329116.0 452225.0 0
332910.0 451967.0 0
336707.0 451589.0 0
340583.0 451137.0 0
346932.0 453495.0 0
350778.0 453132.0 0
354584.0 452821.0 0
358412.0 452457.0 0
362247.0 452001.0 0
368437.0 454534.0 0
372221.0 454176.0 0
376016.0 453686.0 0
379593.0 453608.0 0
383366.0 453076.0 0
389789.0 454397.0 0
393373.0 453276.0 0
396872.0 452092.0 0
403373.0 453070.0 0
406756.0 451535.0 0
413236.0 455504.0 0
416648.0 453954.0 0
423287.0 454390.0 0
72923.8 456755.0 0
79580.5 456230.0 0
82811.0 457864.0 0
86823.5 455829.0 0
90468.1 457440.0 0
97194.1 456682.0 0
100902.0 457779.0 0
107464.0 456208.0 0
111140.0 456018.0 0
117619.0 454445.0 0
121376.0 455376.0 0
125170.0 456212.0 0
131725.0 454362.0 0
135542.0 454925.0 0
139341.0 455388.0 0
143125.0 455821.0 0
146946.0 456354.0 0
153617.0 454560.0 0
157400.0 454890.0 0
161140.0 455137.0 0
164852.0 455380.0 0
168567.0 455627.0 0
172316.0 455836.0 0
176122.0 455897.0 0
183669.0 455607.0 0
187426.0 455427.0 0
190787.0 454062.0 0
194521.0 453627.0 0
198262.0 453346.0 0
201990.0 453093.0 0
214785.0 455345.0 0
218481.0 455078.0 0
222179.0 454838.0 0
225882.0 454631.0 0
229588.0 454456.0 0
233287.0 454319.0 0
236996.0 454185.0 0
240690.0 454063.0 0
244354.0 453996.0 0
248023.0 453950.0 0
251679.0 454000.0 0
255363.0 454048.0 0
259005.0 454238.0 0
262684.0 454471.0 0
266406.0 454669.0 0
270153.0 454831.0 0
273928.0 454961.0 0
277745.0 455041.0 0
281555.0 455123.0 0
285363.0 455233.0 0
289188.0 455371.0 0
316070.0 455762.0 0
319887.0 455714.0 0
323706.0 455622.0 0
327528.0 455472.0 0
331355.0 455244.0 0
335202.0 454899.0 0
339154.0 454256.0 0
343057.0 453861.0 0
353228.0 455979.0 0
357061.0 455627.0 0
360897.0 455227.0 0
364703.0 454805.0 0
374775.0 457006.0 0
378506.0 456740.0 0
382304.0 456269.0 0
386093.0 455494.0 0
392705.0 456730.0 0
396349.0 455628.0 0
399905.0 454422.0 0
406461.0 455303.0 0
409753.0 457047.0 0
416508.0 457672.0 0
419920.0 456088.0 0
423172.0 458215.0 0
426580.0 456453.0 0
66180.5 460980.0 0
69553.6 458867.0 0
72929.5 460577.0 0
76252.9 458415.0 0
79559.2 460063.0 0
86004.2 459445.0 0
94181.6 458981.0 0
98141.6 460323.0 0
101951.0 461301.0 0
104663.0 458723.0 0
108480.0 459398.0 0
114859.0 457005.0 0
118647.0 457925.0 0
122463.0 458782.0 0
128992.0 456943.0 0
132823.0 457573.0 0
136647.0 458107.0 0
140450.0 458566.0 0
151167.0 457438.0 0
154985.0 457866.0 0
158781.0 458173.0 0
162559.0 458420.0 0
166341.0 458645.0 0
170152.0 458842.0 0
179910.0 455799.0 0
192453.0 456806.0 0
196219.0 456553.0 0
199961.0 456355.0 0
203686.0 456143.0 0
207394.0 455898.0 0
211092.0 455625.0 0
223932.0 458009.0 0
227656.0 457827.0 0
231374.0 457682.0 0
235092.0 457557.0 0
238799.0 457451.0 0
242489.0 457377.0 0
246175.0 457333.0 0
249849.0 457340.0 0
253535.0 457385.0 0
257208.0 457502.0 0
260904.0 457671.0 0
264635.0 457845.0 0
268395.0 457999.0 0
272178.0 458126.0 0
293038.0 455509.0 0
296902.0 455626.0 0
300763.0 455708.0 0
304609.0 455756.0 0
308437.0 455777.0 0
312255.0 455779.0 0
329734.0 458545.0 0
333578.0 458257.0 0
337858.0 457368.0 0
341714.0 456980.0 0
345563.0 456639.0 0
349403.0 456302.0 0
355696.0 458825.0 0
359535.0 458455.0 0
363364.0 458073.0 0
367163.0 457748.0 0
370976.0 457406.0 0
377352.0 459959.0 0
381196.0 459514.0 0
385062.0 458852.0 0
388958.0 457758.0 0
395645.0 459132.0 0
399333.0 458025.0 0
402944.0 456772.0 0
409477.0 460499.0 0
413041.0 459134.0 0
419730.0 459911.0 0
429886.0 458528.0 0
433226.0 460613.0 0
62801.2 463097.0 0
69598.2 462731.0 0
76305.0 462267.0 0
82861.1 461707.0 0
86192.4 463283.0 0
89193.0 460900.0 0
92416.9 462194.0 0
95805.2 463161.0 0
105768.0 462107.0 0
109600.0 462727.0 0
112193.0 459714.0 0
115973.0 460547.0 0
119803.0 461401.0 0
126296.0 459553.0 0
130138.0 460233.0 0
133980.0 460823.0 0
137810.0 461332.0 0
144240.0 458996.0 0
148068.0 459420.0 0
152624.0 460856.0 0
156442.0 461207.0 0
160263.0 461473.0 0
164092.0 461688.0 0
174005.0 458959.0 0
177872.0 458975.0 0
181720.0 458893.0 0
185540.0 458776.0 0
189340.0 458736.0 0
194005.0 459665.0 0
197821.0 459561.0 0
201593.0 459423.0 0
205339.0 459240.0 0
209062.0 459008.0 0
212775.0 458745.0 0
216488.0 458477.0 0
220208.0 458227.0 0
275982.0 458219.0 0
279792.0 458305.0 0
283604.0 458402.0 0
287424.0 458513.0 0
291260.0 458630.0 0
295114.0 458740.0 0
298976.0 458832.0 0
302838.0 458899.0 0
306693.0 458940.0 0
310539.0 458956.0 0
314379.0 458951.0 0
318218.0 458919.0 0
322057.0 458851.0 0
325895.0 458733.0 0
336535.0 460409.0 0
340387.0 460125.0 0
344209.0 459809.0 0
348034.0 459490.0 0
351861.0 459167.0 0
358155.0 461697.0 0
361999.0 461332.0 0
365836.0 460987.0 0
369685.0 460643.0 0
373538.0 460290.0 0
383871.0 462241.0 0
388070.0 461042.0 0
391887.0 460129.0 0
398565.0 461607.0 0
402296.0 460475.0 0
405956.0 459151.0 0
412626.0 462761.0 0
416228.0 461425.0 0
422952.0 462086.0 0
426442.0 460316.0 0
429765.0 462403.0 0
433103.0 464524.0 0
436578.0 462710.0 0
439946.0 464818.0 0
59414.6 465218.0 0
66255.1 464884.0 0
73026.2 464459.0 0
76474.3 466164.0 0
79690.4 463943.0 0
83110.2 465583.0 0
89585.2 464724.0 0
93100.4 465935.0 0
99378.4 464033.0 0
103101.0 464833.0 0
106907.0 465541.0 0
113351.0 463294.0 0
117165.0 464059.0 0
123644.0 462202.0 0
127493.0 462921.0 0
131351.0 463553.0 0
135209.0 464107.0 0
141624.0 461772.0 0
145435.0 462152.0 0
149273.0 462438.0 0
154151.0 464289.0 0
157979.0 464556.0 0
167941.0 461871.0 0
171821.0 462006.0 0
175721.0 462078.0 0
179619.0 462081.0 0
183495.0 462037.0 0
187346.0 462008.0 0
191197.0 462063.0 0
195541.0 462641.0 0
199406.0 462629.0 0
203219.0 462530.0 0
206995.0 462370.0 0
210735.0 462140.0 0
214467.0 461875.0 0
218209.0 461613.0 0
221956.0 461383.0 0
225702.0 461193.0 0
229441.0 461043.0 0
233172.0 460922.0 0
236894.0 460825.0 0
240603.0 460754.0 0
244306.0 460708.0 0
248001.0 460698.0 0
251698.0 460723.0 0
255396.0 460799.0 0
259106.0 460917.0 0
262843.0 461055.0 0
266607.0 461192.0 0
270394.0 461313.0 0
274198.0 461412.0 0
278010.0 461501.0 0
281827.0 461591.0 0
285650.0 461687.0 0
289485.0 461787.0 0
293333.0 461886.0 0
297193.0 461976.0 0
301060.0 462050.0 0
304928.0 462103.0 0
308795.0 462134.0 0
312657.0 462144.0 0
316516.0 462130.0 0
320372.0 462086.0 0
324224.0 462003.0 0
328070.0 461863.0 0
331906.0 461644.0 0
338997.0 463254.0 0
342826.0 462999.0 0
346647.0 462701.0 0
350474.0 462386.0 0
354311.0 462052.0 0
364458.0 464248.0 0
368327.0 463895.0 0
372213.0 463544.0 0
376114.0 463227.0 0
379985.0 462818.0 0
387055.0 464287.0 0
390941.0 463506.0 0
394776.0 462607.0 0
401439.0 464166.0 0
405189.0 463017.0 0
408909.0 463893.0 0
415680.0 465173.0 0
419389.0 463789.0 0
426255.0 464196.0 0
436451.0 466652.0 0
443327.0 466934.0 0
62900.4 467043.0 0
66400.7 468836.0 0
69724.0 466647.0 0
73213.8 468383.0 0
79959.8 467845.0 0
86594.9 467127.0 0
90185.7 468500.0 0
96706.6 466867.0 0
100422.0 467652.0 0
104210.0 468361.0 0
121029.0 464890.0 0
124885.0 465648.0 0
128759.0 466310.0 0
139058.0 464585.0 0
142899.0 464985.0 0
146743.0 465289.0 0
150597.0 465433.0 0
161832.0 464764.0 0
165706.0 464935.0 0
169604.0 465069.0 0
173520.0 465166.0 0
177440.0 465217.0 0
181350.0 465231.0 0
185241.0 465234.0 0
189121.0 465268.0 0
193016.0 465373.0 0
197125.0 465714.0 0
201031.0 465742.0 0
204884.0 465671.0 0
208687.0 465534.0 0
212432.0 465285.0 0
216190.0 465000.0 0
219960.0 464750.0 0
223729.0 464549.0 0
227489.0 464396.0 0
231237.0 464280.0 0
234972.0 464191.0 0
238698.0 464124.0 0
242417.0 464078.0 0
246131.0 464059.0 0
249844.0 464069.0 0
253561.0 464116.0 0
257287.0 464197.0 0
261031.0 464302.0 0
264799.0 464415.0 0
268587.0 464524.0 0
272393.0 464622.0 0
276209.0 464710.0 0
280031.0 464796.0 0
283860.0 464883.0 0
287698.0 464972.0 0
291546.0 465061.0 0
295406.0 465144.0 0
299274.0 465217.0 0
303150.0 465276.0 0
307028.0 465317.0 0
310906.0 465340.0 0
314782.0 465343.0 0
318655.0 465324.0 0
322520.0 465275.0 0
326373.0 465186.0 0
330207.0 465039.0 0
335147.0 463406.0 0
341374.0 466185.0 0
345213.0 465929.0 0
349050.0 465630.0 0
352894.0 465305.0 0
356745.0 464959.0 0
360601.0 464602.0 0
370804.0 466816.0 0
374722.0 466464.0 0
378708.0 466174.0 0
382604.0 465663.0 0
389875.0 466864.0 0
393768.0 466066.0 0
397625.0 465168.0 0
404252.0 466843.0 0
408104.0 467285.0 0
411915.0 466363.0 0
418662.0 467654.0 0
422684.0 465966.0 0
429593.0 466313.0 0
432943.0 468480.0 0
439806.0 468786.0 0
69920.7 470603.0 0
76740.5 470081.0 0
80326.6 471757.0 0
83503.2 469466.0 0
87137.2 470953.0 0
93879.4 469649.0 0
97659.7 470495.0 0
101487.0 471217.0 0
110716.0 466181.0 0
114523.0 466813.0 0
118382.0 467539.0 0
122307.0 468414.0 0
126201.0 469107.0 0
132642.0 466896.0 0
136528.0 467413.0 0
140408.0 467849.0 0
144286.0 468192.0 0
148171.0 468408.0 0
152045.0 468437.0 0
155740.0 467712.0 0
159587.0 467891.0 0
163470.0 468040.0 0
167377.0 468165.0 0
171300.0 468266.0 0
175230.0 468342.0 0
179157.0 468392.0 0
183073.0 468425.0 0
186978.0 468464.0 0
190881.0 468534.0 0
214176.0 468408.0 0
217952.0 468115.0 0
221740.0 467894.0 0
225521.0 467736.0 0
229285.0 467627.0 0
233034.0 467548.0 0
236773.0 467488.0 0
240506.0 467445.0 0
244237.0 467422.0 0
247967.0 467421.0 0
251701.0 467447.0 0
255442.0 467501.0 0
259198.0 467578.0 0
262970.0 467668.0 0
266762.0 467761.0 0
270569.0 467851.0 0
274389.0 467935.0 0
278217.0 468017.0 0
282052.0 468097.0 0
285895.0 468178.0 0
289747.0 468259.0 0
293609.0 468335.0 0
297479.0 468405.0 0
313018.0 468560.0 0
316905.0 468561.0 0
320785.0 468544.0 0
324650.0 468503.0 0
328490.0 468426.0 0
333674.0 466389.0 0
337526.0 466362.0 0
347572.0 468888.0 0
351434.0 468579.0 0
355298.0 468243.0 0
359166.0 467893.0 0
363036.0 467538.0 0
366913.0 467179.0 0
373233.0 469768.0 0
377139.0 469399.0 0
381354.0 469141.0 0
385956.0 467542.0 0
392665.0 469515.0 0
396559.0 468709.0 0
400430.0 467825.0 0
410972.0 469994.0 0
414808.0 468924.0 0
421911.0 469825.0 0
426038.0 468080.0 0
429382.0 470243.0 0
73471.6 472339.0 0
77070.7 474001.0 0
83980.0 473348.0 0
90883.6 472261.0 0
94823.3 473336.0 0
98738.2 474088.0 0
108032.0 469030.0 0
111865.0 469661.0 0
115705.0 470293.0 0
119566.0 470985.0 0
123701.0 471960.0 0
130104.0 469713.0 0
134017.0 470248.0 0
137941.0 470729.0 0
141856.0 471115.0 0
145780.0 471386.0 0
157380.0 471101.0 0
161257.0 471198.0 0
165165.0 471300.0 0
169087.0 471397.0 0
194805.0 468659.0 0
198793.0 468857.0 0
202728.0 468891.0 0
206611.0 468848.0 0
210440.0 468741.0 0
227314.0 470960.0 0
231074.0 470897.0 0
234825.0 470848.0 0
238572.0 470809.0 0
242317.0 470785.0 0
246064.0 470777.0 0
249815.0 470790.0 0
253572.0 470824.0 0
257339.0 470878.0 0
261121.0 470947.0 0
264917.0 471023.0 0
268729.0 471102.0 0
301358.0 468464.0 0
305242.0 468511.0 0
309130.0 468543.0 0
332118.0 469387.0 0
335974.0 469457.0 0
339845.0 469360.0 0
343711.0 469156.0 0
353805.0 471544.0 0
357691.0 471203.0 0
361575.0 470853.0 0
365459.0 470497.0 0
369344.0 470135.0 0
379459.0 472359.0 0
384915.0 470855.0 0
388771.0 470234.0 0
399294.0 471448.0 0
403174.0 470611.0 0
407092.0 470683.0 0
413816.0 472701.0 0
417715.0 471489.0 0
425241.0 471923.0 0
80748.2 475682.0 0
87757.8 474766.0 0
91833.5 475980.0 0
105336.0 471892.0 0
109196.0 472530.0 0
113053.0 473145.0 0
116908.0 473760.0 0
127606.0 472579.0 0
131529.0 473120.0 0
135473.0 473598.0 0
139441.0 474058.0 0
149705.0 471522.0 0
153599.0 471481.0 0
159080.0 474429.0 0
173018.0 471479.0 0
176951.0 471546.0 0
180880.0 471600.0 0
184802.0 471650.0 0
188718.0 471713.0 0
192638.0 471802.0 0
196576.0 471920.0 0
200548.0 472040.0 0
204491.0 472082.0 0
208391.0 472073.0 0
212233.0 472025.0 0
215947.0 471500.0 0
219737.0 471230.0 0
223535.0 471060.0 0
272552.0 471179.0 0
276385.0 471255.0 0
280227.0 471329.0 0
284075.0 471404.0 0
287932.0 471477.0 0
291797.0 471547.0 0
295671.0 471613.0 0
299552.0 471671.0 0
303440.0 471719.0 0
307334.0 471757.0 0
311229.0 471782.0 0
315126.0 471797.0 0
319019.0 471804.0 0
322900.0 471805.0 0
326754.0 471791.0 0
330489.0 472419.0 0
334354.0 472552.0 0
338246.0 472525.0 0
342141.0 472379.0 0
346032.0 472149.0 0
349919.0 471864.0 0
360076.0 474186.0 0
363976.0 473840.0 0
367868.0 473489.0 0
371749.0 473132.0 0
375615.0 472765.0 0
382930.0 473711.0 0
387628.0 473663.0 0
391496.0 472983.0 0
395392.0 472240.0 0
401953.0 474316.0 0
405858.0 474065.0 0
409772.0 473629.0 0
416767.0 475344.0 0
420967.0 473677.0 0
428544.0 474124.0 0
77445.8 477931.0 0
84614.7 477241.0 0
88770.5 478544.0 0
96038.6 476984.0 0
102637.0 474774.0 0
106533.0 475419.0 0
110418.0 476037.0 0
114293.0 476633.0 0
120791.0 474379.0 0
125165.0 475519.0 0
129080.0 476057.0 0
133016.0 476524.0 0
136969.0 476940.0 0
143403.0 474370.0 0
147368.0 474570.0 0
151323.0 474648.0 0
155242.0 474583.0 0
162974.0 474485.0 0
166890.0 474563.0 0
170818.0 474642.0 0
174750.0 474713.0 0
178683.0 474777.0 0
182614.0 474837.0 0
186541.0 474900.0 0
190470.0 474974.0 0
194409.0 475064.0 0
198367.0 475163.0 0
202338.0 475256.0 0
206292.0 475318.0 0
210207.0 475364.0 0
214055.0 475394.0 0
217714.0 474571.0 0
221524.0 474361.0 0
225319.0 474271.0 0
229086.0 474234.0 0
232847.0 474200.0 0
236608.0 474170.0 0
240370.0 474148.0 0
244133.0 474137.0 0
247901.0 474140.0 0
251674.0 474160.0 0
255456.0 474197.0 0
259248.0 474247.0 0
263053.0 474308.0 0
266870.0 474373.0 0
270699.0 474441.0 0
274537.0 474510.0 0
278384.0 474578.0 0
282239.0 474647.0 0
286101.0 474714.0 0
289971.0 474779.0 0
293848.0 474840.0 0
297732.0 474896.0 0
301623.0 474944.0 0
305520.0 474984.0 0
309420.0 475015.0 0
313321.0 475039.0 0
317221.0 475059.0 0
321115.0 475083.0 0
324992.0 475125.0 0
328793.0 475493.0 0
332676.0 475660.0 0
336589.0 475689.0 0
340511.0 475597.0 0
344432.0 475410.0 0
348348.0 475155.0 0
352260.0 474855.0 0
356170.0 474527.0 0
362457.0 477198.0 0
366369.0 476862.0 0
370269.0 476523.0 0
374155.0 476175.0 0
378025.0 475798.0 0
385487.0 476565.0 0
390280.0 476493.0 0
394156.0 475785.0 0
398053.0 475045.0 0
404488.0 477454.0 0
408420.0 477302.0 0
412564.0 476435.0 0
424322.0 475779.0 0
93098.5 479648.0 0
99965.8 477686.0 0
103896.0 478331.0 0
107810.0 478955.0 0
118171.0 477206.0 0
122066.0 477739.0 0
126692.0 479078.0 0
130619.0 479529.0 0
141056.0 477382.0 0
145041.0 477617.0 0
149027.0 477759.0 0
152998.0 477804.0 0
156925.0 477765.0 0
160804.0 477726.0 0
164708.0 477770.0 0
168627.0 477836.0 0
172556.0 477905.0 0
176489.0 477970.0 0
180423.0 478033.0 0
184358.0 478096.0 0
188295.0 478163.0 0
192240.0 478237.0 0
196197.0 478321.0 0
200170.0 478411.0 0
204149.0 478505.0 0
208118.0 478603.0 0
212058.0 478732.0 0
215922.0 478833.0 0
219461.0 477629.0 0
223281.0 477544.0 0
227053.0 477553.0 0
230828.0 477542.0 0
234607.0 477525.0 0
238388.0 477509.0 0
242171.0 477497.0 0
245958.0 477495.0 0
249748.0 477506.0 0
253546.0 477529.0 0
257351.0 477565.0 0
261166.0 477612.0 0
264991.0 477665.0 0
268827.0 477723.0 0
272672.0 477783.0 0
276525.0 477845.0 0
280386.0 477907.0 0
284253.0 477968.0 0
288128.0 478028.0 0
292010.0 478085.0 0
295898.0 478139.0 0
299792.0 478186.0 0
303691.0 478227.0 0
307593.0 478262.0 0
311497.0 478291.0 0
315401.0 478318.0 0
319300.0 478351.0 0
323188.0 478411.0 0
327037.0 478615.0 0
334886.0 478857.0 0
338832.0 478816.0 0
342781.0 478672.0 0
346726.0 478450.0 0
350667.0 478172.0 0
354604.0 477859.0 0
358535.0 477532.0 0
368754.0 479924.0 0
372665.0 479599.0 0
376563.0 479255.0 0
381622.0 477046.0 0
392877.0 479361.0 0
396761.0 478647.0 0
400641.0 477958.0 0
411178.0 480152.0 0
90101.5 482271.0 0
97321.9 480636.0 0
101295.0 481275.0 0
105230.0 481901.0 0
111711.0 479554.0 0
115604.0 480122.0 0
119499.0 480639.0 0
123410.0 481073.0 0
134568.0 479924.0 0
138537.0 480259.0 0
142744.0 480695.0 0
146738.0 480867.0 0
150728.0 480969.0 0
154696.0 481007.0 0
158626.0 481011.0 0
162532.0 481021.0 0
166447.0 481065.0 0
170371.0 481123.0 0
174303.0 481185.0 0
178238.0 481246.0 0
182176.0 481306.0 0
186118.0 481368.0 0
190066.0 481433.0 0
194023.0 481503.0 0
197993.0 481582.0 0
201975.0 481673.0 0
221127.0 480720.0 0
224930.0 480838.0 0
228743.0 480863.0 0
232555.0 480867.0 0
236365.0 480863.0 0
240174.0 480856.0 0
243983.0 480853.0 0
247794.0 480858.0 0
251609.0 480872.0 0
255429.0 480897.0 0
259257.0 480932.0 0
263093.0 480974.0 0
266937.0 481022.0 0
270789.0 481073.0 0
274649.0 481128.0 0
278516.0 481183.0 0
282390.0 481239.0 0
286270.0 481295.0 0
290157.0 481348.0 0
294049.0 481399.0 0
330944.0 478785.0 0
345062.0 481749.0 0
349030.0 481498.0 0
352995.0 481198.0 0
356952.0 480884.0 0
360897.0 480565.0 0
364831.0 480245.0 0
375049.0 482722.0 0
380254.0 480384.0 0
384157.0 479996.0 0
388038.0 479447.0 0
395462.0 482255.0 0
399358.0 481571.0 0
403257.0 480974.0 0
94399.1 483345.0 0
98731.2 484262.0 0
109156.0 482505.0 0
113073.0 483081.0 0
116988.0 483612.0 0
120906.0 484058.0 0
128286.0 482623.0 0
132225.0 482990.0 0
136190.0 483308.0 0
140175.0 483569.0 0
144475.0 484000.0 0
148470.0 484129.0 0
164272.0 484325.0 0
205964.0 481784.0 0
209955.0 481935.0 0
213986.0 482161.0 0
218562.0 483395.0 0
297946.0 481445.0 0
301848.0 481487.0 0
305753.0 481523.0 0
309660.0 481555.0 0
313566.0 481586.0 0
317470.0 481622.0 0
321367.0 481677.0 0
325252.0 481798.0 0
329176.0 481938.0 0
333130.0 482023.0 0
337114.0 482042.0 0
341088.0 481937.0 0
351355.0 484542.0 0
355333.0 484242.0 0
359298.0 483939.0 0
363252.0 483636.0 0
367195.0 483334.0 0
371128.0 483032.0 0
378812.0 483721.0 0
382750.0 483410.0 0
386678.0 482963.0 0
390572.0 482369.0 0
401955.0 484546.0 0
406584.0 483127.0 0
95889.0 487010.0 0
102677.0 484880.0 0
106620.0 485485.0 0
110560.0 486064.0 0
114501.0 486614.0 0
118446.0 487102.0 0
124844.0 484385.0 0
129944.0 486144.0 0
133897.0 486430.0 0
137878.0 486677.0 0
141880.0 486882.0 0
152454.0 484212.0 0
156414.0 484262.0 0
160349.0 484292.0 0
168197.0 484371.0 0
172127.0 484425.0 0
176063.0 484481.0 0
180002.0 484537.0 0
183945.0 484593.0 0
187893.0 484650.0 0
191848.0 484711.0 0
195811.0 484777.0 0
199783.0 484856.0 0
203765.0 484957.0 0
207750.0 485100.0 0
211730.0 485313.0 0
215654.0 485732.0 0
222640.0 484033.0 0
226565.0 484136.0 0
230443.0 484182.0 0
234297.0 484201.0 0
238139.0 484207.0 0
241975.0 484209.0 0
245810.0 484213.0 0
249645.0 484222.0 0
253483.0 484240.0 0
257325.0 484265.0 0
261173.0 484298.0 0
265028.0 484336.0 0
268889.0 484380.0 0
272757.0 484427.0 0
276631.0 484476.0 0
280511.0 484527.0 0
284397.0 484578.0 0
288289.0 484628.0 0
292186.0 484676.0 0
296087.0 484721.0 0
299992.0 484762.0 0
303901.0 484799.0 0
307811.0 484833.0 0
311721.0 484866.0 0
315630.0 484902.0 0
319536.0 484949.0 0
323441.0 485026.0 0
327370.0 485120.0 0
331339.0 485218.0 0
335313.0 485238.0 0
339375.0 485218.0 0
343364.0 485053.0 0
347357.0 484834.0 0
361635.0 487036.0 0
365591.0 486751.0 0
369539.0 486471.0 0
373476.0 486193.0 0
381253.0 486807.0 0
385231.0 486450.0 0
389195.0 485955.0 0
393128.0 485296.0 0
398032.0 485181.0 0
100156.0 487903.0 0
104106.0 488496.0 0
108056.0 489077.0 0
112007.0 489627.0 0
122416.0 487446.0 0
126374.0 487690.0 0
131660.0 489637.0 0
135630.0 489847.0 0
146232.0 487304.0 0
150222.0 487412.0 0
154199.0 487494.0 0
158156.0 487553.0 0
162096.0 487599.0 0
166029.0 487643.0 0
169962.0 487690.0 0
173899.0 487740.0 0
177838.0 487791.0 0
181781.0 487841.0 0
185728.0 487892.0 0
189678.0 487944.0 0
193633.0 488000.0 0
197595.0 488066.0 0
201561.0 488151.0 0
205531.0 488272.0 0
209502.0 488463.0 0
213454.0 488789.0 0
220191.0 487003.0 0
224356.0 487333.0 0
228294.0 487453.0 0
232192.0 487516.0 0
236071.0 487545.0 0
239938.0 487559.0 0
243798.0 487567.0 0
247656.0 487576.0 0
251513.0 487589.0 0
255371.0 487608.0 0
259233.0 487634.0 0
263100.0 487665.0 0
266971.0 487701.0 0
270848.0 487741.0 0
274730.0 487784.0 0
278617.0 487830.0 0
282510.0 487876.0 0
286407.0 487923.0 0
290309.0 487968.0 0
294215.0 488012.0 0
298125.0 488052.0 0
302037.0 488090.0 0
305951.0 488126.0 0
309866.0 488159.0 0
313780.0 488194.0 0
317693.0 488234.0 0
321608.0 488288.0 0
325536.0 488347.0 0
329492.0 488404.0 0
333521.0 488485.0 0
337503.0 488432.0 0
341657.0 488385.0 0
345645.0 488173.0 0
349699.0 487898.0 0
353691.0 487607.0 0
357668.0 487321.0 0
367906.0 489917.0 0
371852.0 489664.0 0
377292.0 487066.0 0
387696.0 489503.0 0
391788.0 488901.0 0
395715.0 488267.0 0
400582.0 488135.0 0
405159.0 486858.0 0
93368.2 490079.0 0
97353.9 490690.0 0
101622.0 491554.0 0
115971.0 490155.0 0
120052.0 490542.0 0
124029.0 490828.0 0
127992.0 491001.0 0
139620.0 490037.0 0
143640.0 490207.0 0
148006.0 490619.0 0
151991.0 490721.0 0
155962.0 490807.0 0
159918.0 490875.0 0
163863.0 490928.0 0
167804.0 490975.0 0
171744.0 491021.0 0
175686.0 491067.0 0
179629.0 491113.0 0
183574.0 491158.0 0
187521.0 491204.0 0
191469.0 491252.0 0
195419.0 491307.0 0
199370.0 491377.0 0
203323.0 491474.0 0
207274.0 491623.0 0
211220.0 491880.0 0
215144.0 492274.0 0
218334.0 490362.0 0
222157.0 490477.0 0
226130.0 490680.0 0
230063.0 490804.0 0
233976.0 490867.0 0
237874.0 490900.0 0
241762.0 490918.0 0
245643.0 490931.0 0
249520.0 490944.0 0
253397.0 490960.0 0
257274.0 490980.0 0
261153.0 491005.0 0
265035.0 491035.0 0
268922.0 491069.0 0
272812.0 491107.0 0
276707.0 491147.0 0
280607.0 491189.0 0
284510.0 491232.0 0
288418.0 491275.0 0
292330.0 491317.0 0
296244.0 491358.0 0
300161.0 491396.0 0
304080.0 491431.0 0
308000.0 491466.0 0
311921.0 491500.0 0
315841.0 491536.0 0
319763.0 491576.0 0
323692.0 491617.0 0
327634.0 491650.0 0
331596.0 491665.0 0
335740.0 491740.0 0
339718.0 491613.0 0
343948.0 491548.0 0
347992.0 491257.0 0
352030.0 490982.0 0
356012.0 490713.0 0
359986.0 490445.0 0
363951.0 490178.0 0
375702.0 490428.0 0
379670.0 490207.0 0
383651.0 489902.0 0
394352.0 491906.0 0
398290.0 491293.0 0
406363.0 490648.0 0
94961.0 493861.0 0
105575.0 492124.0 0
109526.0 492685.0 0
113464.0 493197.0 0
117663.0 493620.0 0
121725.0 493984.0 0
125713.0 494215.0 0
133438.0 493094.0 0
137413.0 493248.0 0
141406.0 493398.0 0
145433.0 493552.0 0
149790.0 493950.0 0
153772.0 494057.0 0
157739.0 494150.0 0
161696.0 494221.0 0
165649.0 494274.0 0
169598.0 494320.0 0
173544.0 494364.0 0
177490.0 494407.0 0
223968.0 493876.0 0
227920.0 494071.0 0
231862.0 494173.0 0
235790.0 494231.0 0
239705.0 494264.0 0
243610.0 494285.0 0
247509.0 494301.0 0
251403.0 494317.0 0
255296.0 494334.0 0
259189.0 494356.0 0
263083.0 494381.0 0
266980.0 494410.0 0
270879.0 494443.0 0
346308.0 494653.0 0
350334.0 494362.0 0
354329.0 494115.0 0
358309.0 493865.0 0
362279.0 493617.0 0
366239.0 493373.0 0
370189.0 493139.0 0
374064.0 493816.0 0
378034.0 493617.0 0
382021.0 493355.0 0
386046.0 493001.0 0
390303.0 492449.0 0
396890.0 494960.0 0
402480.0 491526.0 0
98933.6 494453.0 0
103129.0 495214.0 0
107076.0 495767.0 0
111019.0 496323.0 0
115185.0 496648.0 0
119355.0 497102.0 0
129710.0 494305.0 0
135252.0 496525.0 0
139226.0 496642.0 0
143219.0 496770.0 0
147249.0 496919.0 0
181435.0 494448.0 0
185378.0 494490.0 0
189321.0 494532.0 0
193263.0 494578.0 0
197203.0 494635.0 0
201142.0 494711.0 0
205078.0 494824.0 0
209017.0 495001.0 0
212978.0 495322.0 0
218443.0 494501.0 0
274782.0 494478.0 0
278689.0 494516.0 0
282600.0 494556.0 0
286513.0 494597.0 0
290431.0 494637.0 0
294351.0 494676.0 0
298273.0 494714.0 0
302198.0 494751.0 0
306124.0 494785.0 0
310051.0 494819.0 0
313979.0 494852.0 0
317909.0 494886.0 0
321844.0 494917.0 0
325787.0 494939.0 0
329741.0 494941.0 0
333708.0 494902.0 0
337980.0 494988.0 0
341953.0 494785.0 0
356606.0 497293.0 0
360579.0 497066.0 0
364542.0 496841.0 0
368496.0 496623.0 0
380341.0 496807.0 0
384374.0 496505.0 0
388651.0 495947.0 0
392813.0 495484.0 0
400866.0 495136.0 0
404973.0 494593.0 0
96552.6 497636.0 0
100865.0 498438.0 0
112846.0 499807.0 0
123427.0 497435.0 0
127523.0 497557.0 0
131493.0 497651.0 0
137076.0 499942.0 0
151579.0 497303.0 0
155560.0 497424.0 0
159526.0 497519.0 0
163493.0 497580.0 0
167455.0 497632.0 0
171410.0 497678.0 0
175361.0 497721.0 0
179309.0 497760.0 0
183252.0 497799.0 0
187192.0 497837.0 0
191128.0 497877.0 0
195060.0 497924.0 0
198989.0 497984.0 0
202914.0 498069.0 0
206838.0 498192.0 0
210769.0 498371.0 0
215157.0 498521.0 0
218914.0 499546.0 0
221812.0 497041.0 0
225769.0 497332.0 0
229738.0 497469.0 0
233693.0 497553.0 0
237634.0 497604.0 0
241562.0 497636.0 0
245481.0 497659.0 0
249394.0 497678.0 0
253302.0 497695.0 0
257209.0 497715.0 0
261115.0 497737.0 0
265022.0 497762.0 0
268931.0 497791.0 0
272843.0 497822.0 0
276757.0 497857.0 0
280674.0 497893.0 0
284594.0 497931.0 0
288518.0 497970.0 0
292444.0 498008.0 0
296372.0 498046.0 0
300303.0 498082.0 0
304235.0 498117.0 0
308169.0 498150.0 0
312105.0 498182.0 0
316043.0 498212.0 0
319987.0 498238.0 0
323937.0 498255.0 0
327895.0 498254.0 0
331863.0 498223.0 0
335831.0 498128.0 0
340250.0 498217.0 0
344284.0 497895.0 0
348636.0 497773.0 0
352622.0 497522.0 0
362817.0 500319.0 0
366776.0 500117.0 0
372391.0 497231.0 0
376357.0 497045.0 0
386983.0 499458.0 0
391127.0 499014.0 0
395298.0 498553.0 0
404597.0 498556.0 0
98125.2 501307.0 0
106017.0 499545.0 0
109360.0 501675.0 0
116861.0 500142.0 0
121058.0 500600.0 0
125346.0 500794.0 0
129325.0 500951.0 0
133295.0 501033.0 0
141053.0 500037.0 0
145047.0 500156.0 0
149076.0 500312.0 0
153364.0 500685.0 0
157349.0 500825.0 0
161339.0 500891.0 0
165317.0 500952.0 0
169283.0 501005.0 0
173243.0 501050.0 0
177196.0 501091.0 0
181142.0 501129.0 0
185082.0 501165.0 0
189015.0 501202.0 0
192941.0 501241.0 0
196863.0 501289.0 0
200782.0 501353.0 0
204703.0 501442.0 0
208641.0 501554.0 0
212703.0 501610.0 0
223608.0 500602.0 0
227622.0 500766.0 0
231598.0 500872.0 0
235559.0 500941.0 0
239507.0 500987.0 0
243444.0 501019.0 0
247373.0 501042.0 0
251296.0 501062.0 0
255216.0 501082.0 0
259133.0 501102.0 0
263051.0 501125.0 0
266969.0 501150.0 0
270889.0 501178.0 0
274810.0 501209.0 0
278734.0 501243.0 0
282661.0 501278.0 0
286590.0 501315.0 0
290522.0 501352.0 0
294457.0 501390.0 0
298394.0 501426.0 0
302332.0 501461.0 0
306273.0 501494.0 0
310216.0 501525.0 0
314162.0 501553.0 0
318114.0 501576.0 0
322072.0 501591.0 0
326039.0 501590.0 0
330015.0 501565.0 0
334002.0 501505.0 0
337985.0 501340.0 0
342619.0 501349.0 0
346621.0 501038.0 0
350892.0 500946.0 0
354874.0 500726.0 0
358850.0 500522.0 0
370689.0 500666.0 0
374653.0 500495.0 0
378631.0 500270.0 0
382647.0 499999.0 0
393586.0 502112.0 0
400640.0 499099.0 0
102839.0 501892.0 0
114556.0 503344.0 0
118542.0 503658.0 0
123068.0 503957.0 0
127159.0 504243.0 0
131150.0 504364.0 0
135120.0 504441.0 0
138909.0 503351.0 0
142886.0 503436.0 0
146879.0 503562.0 0
150888.0 503742.0 0
155118.0 504107.0 0
159195.0 504207.0 0
163184.0 504278.0 0
167164.0 504341.0 0
171134.0 504392.0 0
175095.0 504437.0 0
179047.0 504477.0 0
182990.0 504514.0 0
186922.0 504550.0 0
190846.0 504586.0 0
194760.0 504626.0 0
198669.0 504674.0 0
202576.0 504736.0 0
206492.0 504817.0 0
210427.0 504880.0 0
214337.0 505029.0 0
217799.0 503277.0 0
221648.0 504008.0 0
225573.0 504094.0 0
229532.0 504205.0 0
233495.0 504284.0 0
237453.0 504341.0 0
241403.0 504381.0 0
245345.0 504411.0 0
249281.0 504435.0 0
253212.0 504456.0 0
257140.0 504476.0 0
261067.0 504497.0 0
264994.0 504520.0 0
268921.0 504546.0 0
272850.0 504574.0 0
276780.0 504605.0 0
280713.0 504638.0 0
284648.0 504673.0 0
288586.0 504708.0 0
292527.0 504744.0 0
296470.0 504780.0 0
300415.0 504816.0 0
336185.0 504771.0 0
340314.0 504456.0 0
344928.0 504500.0 0
348905.0 504248.0 0
353103.0 504162.0 0
357085.0 503980.0 0
361059.0 503803.0 0
365024.0 503624.0 0
368956.0 504111.0 0
372923.0 503964.0 0
376900.0 503756.0 0
380893.0 503496.0 0
385257.0 502963.0 0
389432.0 502557.0 0
397656.0 501733.0 0
402989.0 502326.0 0
98223.6 505290.0 0
102183.0 505795.0 0
107083.0 504945.0 0
111086.0 505263.0 0
116249.0 506892.0 0
120601.0 506995.0 0
124868.0 507447.0 0
140746.0 506760.0 0
144711.0 506850.0 0
148674.0 507005.0 0
152652.0 507221.0 0
156985.0 507485.0 0
215955.0 508456.0 0
304362.0 504849.0 0
308312.0 504880.0 0
312265.0 504907.0 0
316223.0 504929.0 0
320188.0 504943.0 0
324161.0 504944.0 0
328142.0 504925.0 0
332132.0 504876.0 0
351130.0 507505.0 0
355268.0 507428.0 0
359257.0 507284.0 0
363230.0 507139.0 0
379141.0 507008.0 0
383493.0 506470.0 0
387684.0 506088.0 0
391863.0 505685.0 0
395920.0 505320.0 0
399984.0 504964.0 0
99824.2 509007.0 0
104867.0 508724.0 0
108838.0 508538.0 0
112808.0 508883.0 0
129029.0 507687.0 0
133008.0 507801.0 0
136969.0 507870.0 0
142587.0 510178.0 0
161054.0 507607.0 0
165048.0 507683.0 0
169033.0 507745.0 0
173006.0 507795.0 0
176967.0 507840.0 0
180915.0 507880.0 0
184851.0 507918.0 0
188774.0 507954.0 0
192684.0 507991.0 0
196582.0 508031.0 0
200470.0 508078.0 0
204353.0 508137.0 0
208236.0 508212.0 0
212096.0 508308.0 0
219677.0 507418.0 0
223572.0 507505.0 0
227496.0 507575.0 0
231447.0 507646.0 0
235406.0 507705.0 0
239363.0 507751.0 0
243315.0 507787.0 0
247260.0 507815.0 0
251201.0 507839.0 0
255138.0 507860.0 0
259074.0 507880.0 0
263008.0 507902.0 0
266943.0 507925.0 0
270877.0 507951.0 0
274813.0 507980.0 0
278751.0 508010.0 0
282692.0 508042.0 0
286636.0 508075.0 0
290582.0 508110.0 0
294531.0 508145.0 0
298482.0 508181.0 0
302435.0 508215.0 0
306391.0 508247.0 0
310350.0 508274.0 0
314313.0 508295.0 0
318283.0 508309.0 0
322261.0 508312.0 0
326247.0 508300.0 0
330239.0 508265.0 0
334285.0 508165.0 0
338554.0 507913.0 0
342634.0 507623.0 0
347146.0 507712.0 0
361381.0 510651.0 0
367184.0 507551.0 0
371156.0 507442.0 0
375139.0 507263.0 0
385897.0 509615.0 0
390084.0 509248.0 0
394179.0 508912.0 0
398200.0 508585.0 0
118362.0 510218.0 0
122384.0 510510.0 0
126773.0 510903.0 0
130918.0 511155.0 0
134901.0 511258.0 0
138859.0 511306.0 0
146480.0 510319.0 0
150365.0 510503.0 0
154230.0 510791.0 0
158082.0 511181.0 0
161957.0 511370.0 0
165857.0 511477.0 0
169777.0 511555.0 0
173715.0 511612.0 0
177667.0 511657.0 0
181631.0 511693.0 0
185602.0 511721.0 0
189582.0 511743.0 0
193568.0 511758.0 0
197560.0 511766.0 0
201557.0 511770.0 0
205568.0 511775.0 0
209697.0 511770.0 0
213691.0 511788.0 0
217672.0 511824.0 0
221519.0 510956.0 0
225460.0 510993.0 0
229409.0 511038.0 0
233368.0 511086.0 0
237328.0 511132.0 0
241286.0 511171.0 0
245238.0 511204.0 0
249186.0 511230.0 0
253130.0 511253.0 0
257072.0 511274.0 0
261013.0 511294.0 0
264954.0 511316.0 0
268894.0 511340.0 0
272835.0 511366.0 0
276777.0 511394.0 0
280723.0 511423.0 0
284673.0 511454.0 0
288624.0 511486.0 0
292578.0 511520.0 0
296534.0 511555.0 0
300492.0 511590.0 0
304453.0 511623.0 0
308416.0 511653.0 0
312384.0 511675.0 0
316357.0 511689.0 0
320337.0 511694.0 0
324324.0 511687.0 0
328319.0 511665.0 0
332384.0 511576.0 0
336651.0 511318.0 0
340877.0 511094.0 0
344867.0 510885.0 0
349305.0 510964.0 0
353297.0 510806.0 0
357392.0 510744.0 0
365353.0 510970.0 0
369335.0 510925.0 0
373329.0 510777.0 0
377383.0 510534.0 0
381734.0 509998.0 0
101691.0 512543.0 0
105775.0 512609.0 0
109855.0 512397.0 0
113839.0 512742.0 0
117729.0 514076.0 0
121709.0 514374.0 0
125685.0 514661.0 0
129666.0 514879.0 0
133658.0 514993.0 0
143325.0 514021.0 0
147453.0 514105.0 0
151769.0 514162.0 0
155753.0 514410.0 0
159741.0 514686.0 0
163711.0 514836.0 0
167669.0 514932.0 0
203484.0 515148.0 0
207538.0 515118.0 0
211579.0 515159.0 0
215567.0 515175.0 0
219554.0 515166.0 0
227385.0 514462.0 0
231341.0 514491.0 0
235301.0 514528.0 0
239260.0 514567.0 0
243217.0 514602.0 0
247169.0 514633.0 0
251118.0 514657.0 0
255066.0 514678.0 0
259012.0 514698.0 0
262957.0 514719.0 0
266901.0 514742.0 0
270846.0 514766.0 0
274794.0 514790.0 0
278746.0 514815.0 0
282699.0 514843.0 0
286655.0 514873.0 0
290614.0 514905.0 0
294574.0 514940.0 0
298536.0 514975.0 0
302501.0 515010.0 0
306468.0 515041.0 0
310438.0 515067.0 0
314412.0 515083.0 0
318391.0 515089.0 0
322378.0 515086.0 0
326373.0 515073.0 0
330457.0 514992.0 0
334746.0 514746.0 0
338974.0 514513.0 0
343068.0 514375.0 0
347063.0 514193.0 0
351409.0 514258.0 0
355408.0 514153.0 0
359446.0 514130.0 0
363415.0 514338.0 0
367431.0 514394.0 0
371476.0 514287.0 0
375583.0 514059.0 0
379974.0 513547.0 0
384121.0 513161.0 0
388182.0 512857.0 0
392177.0 512630.0 0
396161.0 512368.0 0
400144.0 512109.0 0
100439.0 516398.0 0
104435.0 516375.0 0
108421.0 516128.0 0
112396.0 516471.0 0
116191.0 517691.0 0
137727.0 515053.0 0
141039.0 517281.0 0
145296.0 517445.0 0
149528.0 517466.0 0
153513.0 517705.0 0
171629.0 514997.0 0
175595.0 515045.0 0
179565.0 515082.0 0
183542.0 515112.0 0
187523.0 515134.0 0
191508.0 515150.0 0
195496.0 515156.0 0
199488.0 515155.0 0
223439.0 514462.0 0
341144.0 517819.0 0
345227.0 517683.0 0
349219.0 517551.0 0
353445.0 517601.0 0
357425.0 517568.0 0
378168.0 517091.0 0
382362.0 516729.0 0
386376.0 516428.0 0
390360.0 516186.0 0
394346.0 516002.0 0
398341.0 516031.0 0
120159.0 517996.0 0
124134.0 518272.0 0
128110.0 518504.0 0
132085.0 518619.0 0
136054.0 518609.0 0
157491.0 517948.0 0
161543.0 518168.0 0
165536.0 518301.0 0
169526.0 518380.0 0
173510.0 518438.0 0
177494.0 518481.0 0
181480.0 518513.0 0
185467.0 518539.0 0
189456.0 518556.0 0
193447.0 518566.0 0
197439.0 518564.0 0
201434.0 518551.0 0
205454.0 518521.0 0
209452.0 518516.0 0
213500.0 518561.0 0
217489.0 518558.0 0
221470.0 518546.0 0
225377.0 517960.0 0
229326.0 517922.0 0
233282.0 517944.0 0
237241.0 517977.0 0
241199.0 518013.0 0
245154.0 518047.0 0
249106.0 518074.0 0
253055.0 518096.0 0
257005.0 518114.0 0
260954.0 518135.0 0
264902.0 518156.0 0
268851.0 518178.0 0
272804.0 518198.0 0
276760.0 518219.0 0
280717.0 518243.0 0
284676.0 518270.0 0
288638.0 518301.0 0
292601.0 518334.0 0
296567.0 518369.0 0
300535.0 518405.0 0
304505.0 518439.0 0
308478.0 518469.0 0
312453.0 518490.0 0
316432.0 518500.0 0
320416.0 518497.0 0
324407.0 518487.0 0
328504.0 518414.0 0
332811.0 518177.0 0
337066.0 517955.0 0
361395.0 517702.0 0
365385.0 517794.0 0
369559.0 517781.0 0
373729.0 517577.0 0
101766.0 520173.0 0
105759.0 520148.0 0
109739.0 519910.0 0
113640.0 520704.0 0
117935.0 521275.0 0
121948.0 521556.0 0
125956.0 521820.0 0
130035.0 522004.0 0
134113.0 522065.0 0
139088.0 521167.0 0
143054.0 520736.0 0
147311.0 520857.0 0
151305.0 521021.0 0
155287.0 521259.0 0
159301.0 521451.0 0
163379.0 521654.0 0
167418.0 521761.0 0
171422.0 521833.0 0
175420.0 521884.0 0
179416.0 521923.0 0
183412.0 521952.0 0
187408.0 521974.0 0
191406.0 521987.0 0
195404.0 521991.0 0
199402.0 521977.0 0
203403.0 521950.0 0
207397.0 521932.0 0
211390.0 521924.0 0
215450.0 521974.0 0
219425.0 521962.0 0
223400.0 521969.0 0
227321.0 521457.0 0
231271.0 521382.0 0
235225.0 521403.0 0
239184.0 521437.0 0
243138.0 521471.0 0
247095.0 521504.0 0
251044.0 521528.0 0
254996.0 521544.0 0
258946.0 521563.0 0
262898.0 521583.0 0
266852.0 521602.0 0
270809.0 521618.0 0
274767.0 521636.0 0
278728.0 521656.0 0
282690.0 521679.0 0
286653.0 521706.0 0
290618.0 521737.0 0
294586.0 521771.0 0
298556.0 521808.0 0
302528.0 521844.0 0
306504.0 521879.0 0
310481.0 521906.0 0
314461.0 521923.0 0
318445.0 521926.0 0
322433.0 521912.0 0
326520.0 521840.0 0
330852.0 521616.0 0
335125.0 521399.0 0
339224.0 521284.0 0
343303.0 521140.0 0
347323.0 521041.0 0
351316.0 520954.0 0
355355.0 521048.0 0
359332.0 521071.0 0
363313.0 521201.0 0
367297.0 521282.0 0
371268.0 521402.0 0
375243.0 521266.0 0
379206.0 520937.0 0
383170.0 520624.0 0
387135.0 520338.0 0
391105.0 520104.0 0
395087.0 520035.0 0
399077.0 520061.0 0
100733.0 524189.0 0
104725.0 524118.0 0
108705.0 523903.0 0
112633.0 524543.0 0
116596.0 525004.0 0
141190.0 524543.0 0
145172.0 524396.0 0
149157.0 524383.0 0
153132.0 524618.0 0
157122.0 524786.0 0
161140.0 524957.0 0
197384.0 525422.0 0
201382.0 525400.0 0
205372.0 525373.0 0
209359.0 525357.0 0
213343.0 525338.0 0
221347.0 525392.0 0
229255.0 524962.0 0
233213.0 524851.0 0
237167.0 524870.0 0
241124.0 524915.0 0
245078.0 524938.0 0
249036.0 524982.0 0
252987.0 524988.0 0
256937.0 525006.0 0
260889.0 525023.0 0
264850.0 525038.0 0
268812.0 525050.0 0
272775.0 525064.0 0
276738.0 525079.0 0
280701.0 525099.0 0
284665.0 525122.0 0
288631.0 525151.0 0
292597.0 525183.0 0
296567.0 525219.0 0
324523.0 525281.0 0
328853.0 525054.0 0
333158.0 524852.0 0
337265.0 524746.0 0
341381.0 524618.0 0
345381.0 524521.0 0
349371.0 524438.0 0
353347.0 524484.0 0
357334.0 524494.0 0
377566.0 524579.0 0
381685.0 524327.0 0
385854.0 524117.0 0
390000.0 523989.0 0
394000.0 523997.0 0
398000.0 524020.0 0
120586.0 525262.0 0
124577.0 525528.0 0
128567.0 525686.0 0
132557.0 525724.0 0
137207.0 524865.0 0
165276.0 525126.0 0
169325.0 525227.0 0
173345.0 525292.0 0
177353.0 525339.0 0
181358.0 525374.0 0
185361.0 525401.0 0
189366.0 525419.0 0
193373.0 525427.0 0
217366.0 525449.0 0
225321.0 525435.0 0
300540.0 525257.0 0
304517.0 525294.0 0
308497.0 525328.0 0
312480.0 525353.0 0
316466.0 525364.0 0
320459.0 525355.0 0
361451.0 524732.0 0
365449.0 524818.0 0
369453.0 525013.0 0
373447.0 524834.0 0
102016.0 528112.0 0
106016.0 528039.0 0
110016.0 527985.0 0
114223.0 528196.0 0
118383.0 528560.0 0
122372.0 528825.0 0
126454.0 529053.0 0
130524.0 529169.0 0
134523.0 529192.0 0
138492.0 528755.0 0
142465.0 528319.0 0
146458.0 528349.0 0
150453.0 528266.0 0
154450.0 528390.0 0
158460.0 528533.0 0
162523.0 528681.0 0
166687.0 528837.0 0
170783.0 528919.0 0
174871.0 528960.0 0
178938.0 528983.0 0
183020.0 528986.0 0
187087.0 528984.0 0
191167.0 528966.0 0
195212.0 528956.0 0
199257.0 528932.0 0
203256.0 528908.0 0
207253.0 528871.0 0
211242.0 528848.0 0
215217.0 528804.0 0
219158.0 529048.0 0
223117.0 528933.0 0
227062.0 529026.0 0
230999.0 528658.0 0
234961.0 528440.0 0
238938.0 528433.0 0
242915.0 528485.0 0
246901.0 528474.0 0
250884.0 528526.0 0
254878.0 528489.0 0
258867.0 528484.0 0
262846.0 528482.0 0
266820.0 528493.0 0
270787.0 528503.0 0
274752.0 528516.0 0
278715.0 528530.0 0
282677.0 528551.0 0
286640.0 528575.0 0
290604.0 528606.0 0
294571.0 528640.0 0
298541.0 528677.0 0
302517.0 528716.0 0
306498.0 528754.0 0
310484.0 528787.0 0
314478.0 528808.0 0
318475.0 528810.0 0
322479.0 528780.0 0
326467.0 528744.0 0
330445.0 528696.0 0
334418.0 528620.0 0
338391.0 528556.0 0
342364.0 528464.0 0
346336.0 528381.0 0
350311.0 528312.0 0
354291.0 528357.0 0
358274.0 528341.0 0
362236.0 528681.0 0
366217.0 528738.0 0
370195.0 528952.0 0
374178.0 528763.0 0
378160.0 528531.0 0
382143.0 528293.0 0
386130.0 528099.0 0
390121.0 527987.0 0
394117.0 527998.0 0
398114.0 528021.0 0
101904.0 532113.0 0
105901.0 532040.0 0
109897.0 531984.0 0
113886.0 532164.0 0
117866.0 532486.0 0
141829.0 532258.0 0
145823.0 532327.0 0
149812.0 532267.0 0
153797.0 532334.0 0
157777.0 532465.0 0
197600.0 532566.0 0
201582.0 532534.0 0
205562.0 532483.0 0
209545.0 532455.0 0
213530.0 532387.0 0
221492.0 532567.0 0
229558.0 532449.0 0
233789.0 532344.0 0
237786.0 532251.0 0
241842.0 532379.0 0
245839.0 532318.0 0
253827.0 532336.0 0
257822.0 532333.0 0
261815.0 532328.0 0
265806.0 532336.0 0
269797.0 532347.0 0
273789.0 532366.0 0
277782.0 532383.0 0
281778.0 532411.0 0
285776.0 532440.0 0
289786.0 532483.0 0
293801.0 532528.0 0
341963.0 532425.0 0
345964.0 532350.0 0
349964.0 532289.0 0
353963.0 532333.0 0
357962.0 532302.0 0
381985.0 532284.0 0
385994.0 532089.0 0
390000.0 531989.0 0
394000.0 531997.0 0
398000.0 532020.0 0
121854.0 532756.0 0
125846.0 532986.0 0
129853.0 533107.0 0
133852.0 533126.0 0
137863.0 532743.0 0
161755.0 532589.0 0
165732.0 532701.0 0
169712.0 532755.0 0
173694.0 532767.0 0
177678.0 532766.0 0
181662.0 532738.0 0
185648.0 532706.0 0
189633.0 532653.0 0
193617.0 532618.0 0
217505.0 532823.0 0
225574.0 532815.0 0
249834.0 532477.0 0
297829.0 532578.0 0
301850.0 532626.0 0
305870.0 532677.0 0
309883.0 532719.0 0
313888.0 532746.0 0
317889.0 532751.0 0
321889.0 532721.0 0
325889.0 532684.0 0
329915.0 532644.0 0
333951.0 532574.0 0
337957.0 532514.0 0
361950.0 532670.0 0
365949.0 532725.0 0
369944.0 532943.0 0
373953.0 532752.0 0
377976.0 532523.0 0
102000.0 536112.0 0
106000.0 536039.0 0
110000.0 535988.0 0
114006.0 536150.0 0
118027.0 536452.0 0
122031.0 536725.0 0
126026.0 536967.0 0
130024.0 537098.0 0
134025.0 537115.0 0
138032.0 536740.0 0
142006.0 536246.0 0
146005.0 536323.0 0
150004.0 536271.0 0
154004.0 536327.0 0
158014.0 536453.0 0
162021.0 536568.0 0
166035.0 536674.0 0
170047.0 536726.0 0
174055.0 536738.0 0
178060.0 536736.0 0
182064.0 536709.0 0
186067.0 536677.0 0
190068.0 536624.0 0
194074.0 536588.0 0
198080.0 536533.0 0
202087.0 536497.0 0
206106.0 536437.0 0
210107.0 536405.0 0
214171.0 536310.0 0
218138.0 536802.0 0
222126.0 536502.0 0
226114.0 536784.0 0
230094.0 536413.0 0
234090.0 536338.0 0
238087.0 536229.0 0
242083.0 536377.0 0
246081.0 536300.0 0
250075.0 536471.0 0
254071.0 536319.0 0
258069.0 536317.0 0
262066.0 536309.0 0
266064.0 536312.0 0
270063.0 536318.0 0
274061.0 536335.0 0
278058.0 536347.0 0
282056.0 536374.0 0
286053.0 536402.0 0
290049.0 536447.0 0
294045.0 536494.0 0
298040.0 536547.0 0
302036.0 536598.0 0
306031.0 536655.0 0
310028.0 536703.0 0
314024.0 536735.0 0
318022.0 536743.0 0
322020.0 536708.0 0
326019.0 536668.0 0
330017.0 536630.0 0
334015.0 536561.0 0
338014.0 536500.0 0
342012.0 536412.0 0
346010.0 536343.0 0
350010.0 536288.0 0
354009.0 536324.0 0
358009.0 536283.0 0
362013.0 536669.0 0
366014.0 536721.0 0
370020.0 536941.0 0
374015.0 536748.0 0
378008.0 536519.0 0
382001.0 536278.0 0
386000.0 536082.0 0
390000.0 535989.0 0
394000.0 535997.0 0
398000.0 536020.0 0
102000.0 540112.0 0
106000.0 540039.0 0
110000.0 539988.0 0
114000.0 540141.0 0
142000.0 540239.0 0
213981.0 540286.0 0
229908.0 540409.0 0
237984.0 540219.0 0
245992.0 540290.0 0
253993.0 540311.0 0
257993.0 540309.0 0
261993.0 540300.0 0
265993.0 540302.0 0
269993.0 540303.0 0
273993.0 540319.0 0
277993.0 540328.0 0
281993.0 540354.0 0
285993.0 540381.0 0
350000.0 540288.0 0
354000.0 540317.0 0
358000.0 540271.0 0
382000.0 540274.0 0
386000.0 540077.0 0
390000.0 539989.0 0
394000.0 539997.0 0
398000.0 540020.0 0
117998.0 540429.0 0
121997.0 540705.0 0
126002.0 540957.0 0
130002.0 541093.0 0
134002.0 541109.0 0
137994.0 540739.0 0
146000.0 540323.0 0
150000.0 540271.0 0
153999.0 540325.0 0
157997.0 540448.0 0
161996.0 540559.0 0
165994.0 540661.0 0
169993.0 540713.0 0
173993.0 540727.0 0
177992.0 540727.0 0
181992.0 540701.0 0
185991.0 540670.0 0
189990.0 540619.0 0
193989.0 540583.0 0
197988.0 540529.0 0
201987.0 540491.0 0
205986.0 540428.0 0
209984.0 540395.0 0
217948.0 540798.0 0
221934.0 540485.0 0
225925.0 540779.0 0
233986.0 540337.0 0
241993.0 540376.0 0
249997.0 540470.0 0
289995.0 540427.0 0
293996.0 540474.0 0
297997.0 540529.0 0
301997.0 540582.0 0
305998.0 540643.0 0
309998.0 540695.0 0
313998.0 540730.0 0
317998.0 540740.0 0
321998.0 540701.0 0
325998.0 540657.0 0
329999.0 540621.0 0
333999.0 540552.0 0
338000.0 540491.0 0
342000.0 540404.0 0
346000.0 540339.0 0
361996.0 540668.0 0
365999.0 540718.0 0
369993.0 540940.0 0
373998.0 540744.0 0
378000.0 540515.0 0
102000.0 544112.0 0
106000.0 544039.0 0
110000.0 543988.0 0
114000.0 544134.0 0
118000.0 544412.0 0
122000.0 544690.0 0
125999.0 544950.0 0
129998.0 545088.0 0
133998.0 545105.0 0
138002.0 544739.0 0
142000.0 544234.0 0
146000.0 544323.0 0
150000.0 544271.0 0
154000.0 544324.0 0
158000.0 544445.0 0
162000.0 544553.0 0
166000.0 544651.0 0
170000.0 544703.0 0
174000.0 544718.0 0
178000.0 544719.0 0
182000.0 544695.0 0
186000.0 544665.0 0
190001.0 544615.0 0
194001.0 544579.0 0
198001.0 544526.0 0
202001.0 544488.0 0
206001.0 544422.0 0
210001.0 544389.0 0
214004.0 544271.0 0
218001.0 544797.0 0
222006.0 544476.0 0
226020.0 544777.0 0
230012.0 544407.0 0
234011.0 544337.0 0
238009.0 544212.0 0
242006.0 544376.0 0
246005.0 544283.0 0
250000.0 544470.0 0
254000.0 544304.0 0
258000.0 544303.0 0
262000.0 544294.0 0
266000.0 544296.0 0
270000.0 544295.0 0
274000.0 544309.0 0
278000.0 544315.0 0
282000.0 544341.0 0
286000.0 544366.0 0
290000.0 544413.0 0
294000.0 544461.0 0
298000.0 544518.0 0
302000.0 544572.0 0
306000.0 544636.0 0
310000.0 544691.0 0
314000.0 544729.0 0
318000.0 544739.0 0
322000.0 544696.0 0
326000.0 544650.0 0
330000.0 544614.0 0
334000.0 544546.0 0
338000.0 544486.0 0
342000.0 544400.0 0
346000.0 544337.0 0
350000.0 544288.0 0
354000.0 544312.0 0
358000.0 544263.0 0
362000.0 544667.0 0
366000.0 544715.0 0
370001.0 544938.0 0
374000.0 544741.0 0
378000.0 544512.0 0
382000.0 544271.0 0
386000.0 544073.0 0
390000.0 543989.0 0
394000.0 543997.0 0
398000.0 544020.0 0
106000.0 548039.0 0
110000.0 547988.0 0
214000.0 548261.0 0
386000.0 548070.0 0
390000.0 547989.0 0
394000.0 547997.0 0
398000.0 548020.0 0
102000.0 548112.0 0
114000.0 548129.0 0
118000.0 548402.0 0
122000.0 548681.0 0
126000.0 548947.0 0
130000.0 549085.0 0
134000.0 549103.0 0
138000.0 548739.0 0
142000.0 548230.0 0
146000.0 548323.0 0
150000.0 548271.0 0
154000.0 548323.0 0
158000.0 548443.0 0
162000.0 548549.0 0
166000.0 548644.0 0
170000.0 548696.0 0
174000.0 548712.0 0
178000.0 548714.0 0
182000.0 548690.0 0
186000.0 548662.0 0
190000.0 548612.0 0
194000.0 548577.0 0
198000.0 548524.0 0
202000.0 548485.0 0
206000.0 548418.0 0
210000.0 548385.0 0
218000.0 548797.0 0
222000.0 548469.0 0
225997.0 548777.0 0
229997.0 548407.0 0
234000.0 548337.0 0
237999.0 548207.0 0
242000.0 548376.0 0
246000.0 548278.0 0
250000.0 548470.0 0
254000.0 548300.0 0
258000.0 548299.0 0
262000.0 548290.0 0
266000.0 548292.0 0
270000.0 548290.0 0
274000.0 548303.0 0
278000.0 548307.0 0
282000.0 548333.0 0
286000.0 548357.0 0
290000.0 548405.0 0
294000.0 548453.0 0
298000.0 548511.0 0
302000.0 548566.0 0
306000.0 548633.0 0
310000.0 548690.0 0
314000.0 548728.0 0
318000.0 548738.0 0
322000.0 548693.0 0
326000.0 548646.0 0
330000.0 548610.0 0
334000.0 548543.0 0
338000.0 548483.0 0
342000.0 548399.0 0
346000.0 548336.0 0
350000.0 548288.0 0
354000.0 548308.0 0
358000.0 548258.0 0
362000.0 548667.0 0
366000.0 548714.0 0
370000.0 548938.0 0
374000.0 548739.0 0
378000.0 548510.0 0
382000.0 548268.0 0
102000.0 552112.0 0
106000.0 552039.0 0
110000.0 551988.0 0
114000.0 552126.0 0
118000.0 552397.0 0
122000.0 552677.0 0
126000.0 552945.0 0
130000.0 553083.0 0
134000.0 553101.0 0
138000.0 552739.0 0
142000.0 552229.0 0
146000.0 552323.0 0
150000.0 552271.0 0
154000.0 552322.0 0
158000.0 552441.0 0
162000.0 552547.0 0
166000.0 552641.0 0
170000.0 552693.0 0
174000.0 552709.0 0
178000.0 552711.0 0
182000.0 552688.0 0
186000.0 552660.0 0
190000.0 552611.0 0
194000.0 552576.0 0
198000.0 552522.0 0
202000.0 552484.0 0
206000.0 552415.0 0
210000.0 552383.0 0
214000.0 552256.0 0
218000.0 552797.0 0
222000.0 552466.0 0
226000.0 552777.0 0
230000.0 552407.0 0
234000.0 552337.0 0
238000.0 552204.0 0
242000.0 552376.0 0
246000.0 552276.0 0
250000.0 552470.0 0
254000.0 552298.0 0
258000.0 552297.0 0
262000.0 552288.0 0
266000.0 552290.0 0
270000.0 552288.0 0
274000.0 552301.0 0
278000.0 552303.0 0
282000.0 552329.0 0
286000.0 552352.0 0
290000.0 552400.0 0
294000.0 552449.0 0
298000.0 552508.0 0
302000.0 552563.0 0
306000.0 552631.0 0
310000.0 552689.0 0
314000.0 552728.0 0
318000.0 552738.0 0
322000.0 552691.0 0
326000.0 552644.0 0
330000.0 552609.0 0
334000.0 552541.0 0
338000.0 552481.0 0
342000.0 552398.0 0
346000.0 552336.0 0
350000.0 552288.0 0
354000.0 552306.0 0
358000.0 552255.0 0
362000.0 552667.0 0
366000.0 552713.0 0
370000.0 552937.0 0
374000.0 552738.0 0
378000.0 552509.0 0
382000.0 552267.0 0
386000.0 552069.0 0
390000.0 551989.0 0
394000.0 551997.0 0
398000.0 552020.0 0
POINT_DATA 4650
SCALARS Radius float 1
LOOKUP_TABLE default
4000.0 4000.0 4000.0 4000.0 4000.0 4000.0 4000.0 4000.0 4000.0 4000.0 4000.0 4000.0 4000.0 4000.0 4000.0 4000.0 4000.0 4000.0 4000.0 4000.0 4000.0 4000.0 4000.0 4000.0 4000.0 4000.0 4000.0 4000.0 4000.0 4000.0 4000.0 4000.0 4000.0 4000.0 4000.0 4000.0 4000.0 4000.0 4000.0 4000.0 4000.0 4000.0 4000.0 4000.0 4000.0 4000.0 4000.0 4000.0 4000.0 4000.0 4000.0 4000.0 4000.0 4000.0 4000.0 4000.0 4000.0 4000.0 4000.0 4000.0 4000.0 4000.0 4000.0 4000.0 4000.0 4000.0 4000.0 4000.0 4000.0 4000.0 4000.0 4000.0 4000.0 4000.0 4000.0 4000.0 4000.0 4000.0 4000.0 4000.0 4000.0 4000.0 4000.0 4000.0 4000.0 4000.0 4000.0 4000.0 4000.0 4000.0 4000.0 4000.0 4000.0 4000.0 4000.0 4000.0 4000.0 4000.0 4000.0 4000.0 4000.0 4000.0 4000.0 4000.0 4000.0 4000.0 4000.0 4000.0 4000.0 4000.0 4000.0 4000.0 4000.0 4000.0 4000.0 4000.0 4000.0 4000.0 4000.0 4000.0 4000.0 4000.0 4000.0 4000.0 4000.0 4000.0 4000.0 4000.0 4000.0 4000.0 4000.0 4000.0 4000.0 4000.0 4000.0 4000.0 4000.0 4000.0 4000.0 4000.0 4000.0 4000.0 4000.0 4000.0 4000.0 4000.0 4000.0 4000.0 4000.0 4000.0 4000.0 4000.0 4000.0 4000.0 4000.0 4000.0 4000.0 4000.0 4000.0 4000.0 4000.0 4000.0 4000.0 4000.0 4000.0 4000.0 4000.0 4000.0 4000.0 4000.0 4000.0 4000.0 4000.0 4000.0 4000.0 4000.0 4000.0 4000.0 4000.0 4000.0 4000.0 4000.0 4000.0 4000.0 4000.0 4000.0 4000.0 4000.0 4000.0 4000.0 4000.0 4000.0 4000.0 4000.0 4000.0 4000.0 4000.0 4000.0 4000.0 4000.0 4000.0 4000.0 4000.0 4000.0 4000.0 4000.0 4000.0 4000.0 4000.0 4000.0 4000.0 4000.0 4000.0 4000.0 4000.0 4000.0 4000.0 4000.0 4000.0 4000.0 4000.0 4000.0 4000.0 4000.0 4000.0 4000.0 4000.0 4000.0 4000.0 4000.0 4000.0 4000.0 4000.0 4000.0 4000.0 4000.0 4000.0 4000.0 4000.0 4000.0 4000.0 4000.0 4000.0 4000.0 4000.0 4000.0 4000.0 4000.0 4000.0 4000.0 4000.0 4000.0 4000.0 4000.0 4000.0 4000.0 4000.0 4000.0 4000.0 4000.0 4000.0 4000.0 4000.0 4000.0 4000.0 4000.0 4000.0 4000.0 4000.0 4000.0 4000.0 4000.0 4000.0 4000.0 4000.0 4000.0 4000.0 4000.0 4000.0 4000.0 4000.0 4000.0 4000.0 4000.0 4000.0 4000.0 4000.0 4000.0 4000.0 4000.0 4000.0 4000.0 4000.0 4000.0 4000.0 4000.0 4000.0 4000.0 4000.0 4000.0 4000.0 4000.0 4000.0 4000.0 4000.0 4000.0 4000.0 4000.0 4000.0 4000.0 4000.0 4000.0 4000.0 4000.0 4000.0 4000.0 4000.0 4000.0 4000.0 4000.0 4000.0 4000.0 4000.0 4000.0 4000.0 4000.0 4000.0 4000.0 4000.0 4000.0 4000.0 4000.0 4000.0 4000.0 4000.0 4000.0 4000.0 4000.0 4000.0 4000.0 4000.0 4000.0 4000.0 4000.0 4000.0 4000.0 4000.0 4000.0 4000.0 4000.0 4000.0 4000.0 4000.0 4000.0 4000.0 4000.0 4000.0 4000.0 4000.0 4000.0 4000.0 4000.0 4000.0 4000.0 4000.0 4000.0 4000.0 4000.0 4000.0 4000.0 4000.0 4000.0 4000.0 4000.0 4000.0 4000.0 4000.0 4000.0 4000.0 4000.0 4000.0 4000.0 4000.0 4000.0 4000.0 4000.0 4000.0 4000.0 4000.0 4000.0 4000.0 4000.0 4000.0 4000.0 4000.0 4000.0 4000.0 4000.0 4000.0 4000.0 4000.0 4000.0 4000.0 4000.0 4000.0 4000.0 4000.0 4000.0 4000.0 4000.0 4000.0 4000.0 4000.0 4000.0 4000.0 4000.0 4000.0 4000.0 4000.0 4000.0 4000.0 4000.0 4000.0 4000.0 4000.0 4000.0 4000.0 4000.0 4000.0 4000.0 4000.0 4000.0 4000.0 4000.0 4000.0 4000.0 4000.0 4000.0 4000.0 4000.0 4000.0 4000.0 4000.0 4000.0 4000.0 4000.0 4000.0 4000.0 4000.0 4000.0 4000.0 4000.0 4000.0 4000.0 4000.0 4000.0 4000.0 4000.0 4000.0 4000.0 4000.0 4000.0 4000.0 4000.0 4000.0 4000.0 4000.0 4000.0 4000.0 4000.0 4000.0 4000.0 4000.0 4000.0 4000.0 4000.0 4000.0 4000.0 4000.0 4000.0 4000.0 4000.0 4000.0 4000.0 4000.0 4000.0 4000.0 4000.0 4000.0 4000.0 4000.0 4000.0 4000.0 4000.0 4000.0 4000.0 4000.0 4000.0 4000.0 4000.0 4000.0 4000.0 4000.0 4000.0 4000.0 4000.0 4000.0 4000.0 4000.0 4000.0 4000.0 4000.0 4000.0 4000.0 4000.0 4000.0 4000.0 4000.0 4000.0 4000.0 4000.0 4000.0 4000.0 4000.0 4000.0 4000.0 4000.0 4000.0 4000.0 4000.0 4000.0 4000.0 4000.0 4000.0 4000.0 4000.0 4000.0 4000.0 4000.0 4000.0 4000.0 4000.0 4000.0 4000.0 4000.0 4000.0 4000.0 4000.0 4000.0 4000.0 4000.0 4000.0 4000.0 4000.0 4000.0 4000.0 4000.0 4000.0 4000.0 4000.0 4000.0 4000.0 4000.0 4000.0 4000.0 4000.0 4000.0 4000.0 4000.0 4000.0 4000.0 4000.0 4000.0 4000.0 4000.0 4000.0 4000.0 4000.0 4000.0 4000.0 4000.0 4000.0 4000.0 4000.0 4000.0 4000.0 4000.0 4000.0 4000.0 4000.0 4000.0 4000.0 4000.0 4000.0 4000.0 4000.0 4000.0 4000.0 4000.0 4000.0 4000.0 4000.0 4000.0 4000.0 4000.0 4000.0 4000.0 4000.0 4000.0 4000.0 4000.0 4000.0 4000.0 4000.0 4000.0 4000.0 4000.0 4000.0 4000.0 4000.0 4000.0 4000.0 4000.0 4000.0 4000.0 4000.0 4000.0 4000.0 4000.0 4000.0 4000.0 4000.0 4000.0 4000.0 4000.0 4000.0 4000.0 4000.0 4000.0 4000.0 4000.0 4000.0 4000.0 4000.0 4000.0 4000.0 4000.0 4000.0 4000.0 4000.0 4000.0 4000.0 4000.0 4000.0 4000.0 4000.0 4000.0 4000.0 4000.0 4000.0 4000.0 4000.0 4000.0 4000.0 4000.0 4000.0 4000.0 4000.0 4000.0 4000.0 4000.0 4000.0 4000.0 4000.0 4000.0 4000.0 4000.0 4000.0 4000.0 4000.0 4000.0 4000.0 4000.0 4000.0 4000.0 4000.0 4000.0 4000.0 4000.0 4000.0 4000.0 4000.0 4000.0 4000.0 4000.0 4000.0 4000.0 4000.0 4000.0 4000.0 4000.0 4000.0 4000.0 4000.0 4000.0 4000.0 4000.0 4000.0 4000.0 4000.0 4000.0 4000.0 4000.0 4000.0 4000.0 4000.0 4000.0 4000.0 4000.0 4000.0 4000.0 4000.0 4000.0 4000.0 4000.0 4000.0 4000.0 4000.0 4000.0 4000.0 4000.0 4000.0 4000.0 4000.0 4000.0 4000.0 4000.0 4000.0 4000.0 4000.0 4000.0 4000.0 4000.0 4000.0 4000.0 4000.0 4000.0 4000.0 4000.0 4000.0 4000.0 4000.0 4000.0 4000.0 4000.0 4000.0 4000.0 4000.0 4000.0 4000.0 4000.0 4000.0 4000.0 4000.0 4000.0 4000.0 4000.0 4000.0 4000.0 4000.0 4000.0 4000.0 4000.0 4000.0 4000.0 4000.0 4000.0 4000.0 4000.0 4000.0 4000.0 4000.0 4000.0 4000.0 4000.0 4000.0 4000.0 4000.0 4000.0 4000.0 4000.0 4000.0 4000.0 4000.0 4000.0 4000.0 4000.0 4000.0 4000.0 4000.0 4000.0 4000.0 4000.0 4000.0 4000.0 4000.0 4000.0 4000.0 4000.0 4000.0 4000.0 4000.0 4000.0 4000.0 4000.0 4000.0 4000.0 4000.0 4000.0 4000.0 4000.0 4000.0 4000.0 4000.0 4000.0 4000.0 4000.0 4000.0 4000.0 4000.0 4000.0 4000.0 4000.0 4000.0 4000.0 4000.0 4000.0 4000.0 4000.0 4000.0 4000.0 4000.0 4000.0 4000.0 4000.0 4000.0 4000.0 4000.0 4000.0 4000.0 4000.0 4000.0 4000.0 4000.0 4000.0 4000.0 4000.0 4000.0 4000.0 4000.0 4000.0 4000.0 4000.0 4000.0 4000.0 4000.0 4000.0 4000.0 4000.0 4000.0 4000.0 4000.0 4000.0 4000.0 4000.0 4000.0 4000.0 4000.0 4000.0 4000.0 4000.0 4000.0 4000.0 4000.0 4000.0 4000.0 4000.0 4000.0 4000.0 4000.0 4000.0 4000.0 4000.0 4000.0 4000.0 4000.0 4000.0 4000.0 4000.0 4000.0 4000.0 4000.0 4000.0 4000.0 4000.0 4000.0 4000.0 4000.0 4000.0 4000.0 4000.0 4000.0 4000.0 4000.0 4000.0 4000.0 4000.0 4000.0 4000.0 4000.0 4000.0 4000.0 4000.0 4000.0 4000.0 4000.0 4000.0 4000.0 4000.0 4000.0 4000.0 4000.0 4000.0 4000.0 4000.0 4000.0 4000.0 4000.0 4000.0 4000.0 4000.0 4000.0 4000.0 4000.0 4000.0 4000.0 4000.0 4000.0 4000.0 4000.0 4000.0 4000.0 4000.0 4000.0 4000.0 4000.0 4000.0 4000.0 4000.0 4000.0 4000.0 4000.0 4000.0 4000.0 4000.0 4000.0 4000.0 4000.0 4000.0 4000.0 4000.0 4000.0 4000.0 4000.0 4000.0 4000.0 4000.0 4000.0 4000.0 4000.0 4000.0 4000.0 4000.0 4000.0 4000.0 4000.0 4000.0 4000.0 4000.0 4000.0 4000.0 4000.0 4000.0 4000.0 4000.0 4000.0 4000.0 4000.0 4000.0 4000.0 4000.0 4000.0 4000.0 4000.0 4000.0 4000.0 4000.0 4000.0 4000.0 4000.0 4000.0 4000.0 4000.0 4000.0 4000.0 4000.0 4000.0 4000.0 4000.0 4000.0 4000.0 4000.0 4000.0 4000.0 4000.0 4000.0 4000.0 4000.0 4000.0 4000.0 4000.0 4000.0 4000.0 4000.0 4000.0 4000.0 4000.0 4000.0 4000.0 4000.0 4000.0 4000.0 4000.0 4000.0 4000.0 4000.0 4000.0 4000.0 4000.0 4000.0 4000.0 4000.0 4000.0 4000.0 4000.0 4000.0 4000.0 4000.0 4000.0 4000.0 4000.0 4000.0 4000.0 4000.0 4000.0 4000.0 4000.0 4000.0 4000.0 4000.0 4000.0 4000.0 4000.0 4000.0 4000.0 4000.0 4000.0 4000.0 4000.0 4000.0 4000.0 4000.0 4000.0 4000.0 4000.0 4000.0 4000.0 4000.0 4000.0 4000.0 4000.0 4000.0 4000.0 4000.0 4000.0 4000.0 4000.0 4000.0 4000.0 4000.0 4000.0 4000.0 4000.0 4000.0 4000.0 4000.0 4000.0 4000.0 4000.0 4000.0 4000.0 4000.0 4000.0 4000.0 4000.0 4000.0 4000.0 4000.0 4000.0 4000.0 4000.0 4000.0 4000.0 4000.0 4000.0 4000.0 4000.0 4000.0 4000.0 4000.0 4000.0 4000.0 4000.0 4000.0 4000.0 4000.0 4000.0 4000.0 4000.0 4000.0 4000.0 4000.0 4000.0 4000.0 4000.0 4000.0 4000.0 4000.0 4000.0 4000.0 4000.0 4000.0 4000.0 4000.0 4000.0 4000.0 4000.0 4000.0 4000.0 4000.0 4000.0 4000.0 4000.0 4000.0 4000.0 4000.0 4000.0 4000.0 4000.0 4000.0 4000.0 4000.0 4000.0 4000.0 4000.0 4000.0 4000.0 4000.0 4000.0 4000.0 4000.0 4000.0 4000.0 4000.0 4000.0 4000.0 4000.0 4000.0 4000.0 4000.0 4000.0 4000.0 4000.0 4000.0 4000.0 4000.0 4000.0 4000.0 4000.0 4000.0 4000.0 4000.0 4000.0 4000.0 4000.0 4000.0 4000.0 4000.0 4000.0 4000.0 4000.0 4000.0 4000.0 4000.0 4000.0 4000.0 4000.0 4000.0 4000.0 4000.0 4000.0 4000.0 4000.0 4000.0 4000.0 4000.0 4000.0 4000.0 4000.0 4000.0 4000.0 4000.0 4000.0 4000.0 4000.0 4000.0 4000.0 4000.0 4000.0 4000.0 4000.0 4000.0 4000.0 4000.0 4000.0 4000.0 4000.0 4000.0 4000.0 4000.0 4000.0 4000.0 4000.0 4000.0 4000.0 4000.0 4000.0 4000.0 4000.0 4000.0 4000.0 4000.0 4000.0 4000.0 4000.0 4000.0 4000.0 4000.0 4000.0 4000.0 4000.0 4000.0 4000.0 4000.0 4000.0 4000.0 4000.0 4000.0 4000.0 4000.0 4000.0 4000.0 4000.0 4000.0 4000.0 4000.0 4000.0 4000.0 4000.0 4000.0 4000.0 4000.0 4000.0 4000.0 4000.0 4000.0 4000.0 4000.0 4000.0 4000.0 4000.0 4000.0 4000.0 4000.0 4000.0 4000.0 4000.0 4000.0 4000.0 4000.0 4000.0 4000.0 4000.0 4000.0 4000.0 4000.0 4000.0 4000.0 4000.0 4000.0 4000.0 4000.0 4000.0 4000.0 4000.0 4000.0 4000.0 4000.0 4000.0 4000.0 4000.0 4000.0 4000.0 4000.0 4000.0 4000.0 4000.0 4000.0 4000.0 4000.0 4000.0 4000.0 4000.0 4000.0 4000.0 4000.0 4000.0 4000.0 4000.0 4000.0 4000.0 4000.0 4000.0 4000.0 4000.0 4000.0 4000.0 4000.0 4000.0 4000.0 4000.0 4000.0 4000.0 4000.0 4000.0 4000.0 4000.0 4000.0 4000.0 4000.0 4000.0 4000.0 4000.0 4000.0 4000.0 4000.0 4000.0 4000.0 4000.0 4000.0 4000.0 4000.0 4000.0 4000.0 4000.0 4000.0 4000.0 4000.0 4000.0 4000.0 4000.0 4000.0 4000.0 4000.0 4000.0 4000.0 4000.0 4000.0 4000.0 4000.0 4000.0 4000.0 4000.0 4000.0 4000.0 4000.0 4000.0 4000.0 4000.0 4000.0 4000.0 4000.0 4000.0 4000.0 4000.0 4000.0 4000.0 4000.0 4000.0 4000.0 4000.0 4000.0 4000.0 4000.0 4000.0 4000.0 4000.0 4000.0 4000.0 4000.0 4000.0 4000.0 4000.0 4000.0 4000.0 4000.0 4000.0 4000.0 4000.0 4000.0 4000.0 4000.0 4000.0 4000.0 4000.0 4000.0 4000.0 4000.0 4000.0 4000.0 4000.0 4000.0 4000.0 4000.0 4000.0 4000.0 4000.0 4000.0 4000.0 4000.0 4000.0 4000.0 4000.0 4000.0 4000.0 4000.0 4000.0 4000.0 4000.0 4000.0 4000.0 4000.0 4000.0 4000.0 4000.0 4000.0 4000.0 4000.0 4000.0 4000.0 4000.0 4000.0 4000.0 4000.0 4000.0 4000.0 4000.0 4000.0 4000.0 4000.0 4000.0 4000.0 4000.0 4000.0 4000.0 4000.0 4000.0 4000.0 4000.0 4000.0 4000.0 4000.0 4000.0 4000.0 4000.0 4000.0 4000.0 4000.0 4000.0 4000.0 4000.0 4000.0 4000.0 4000.0 4000.0 4000.0 4000.0 4000.0 4000.0 4000.0 4000.0 4000.0 4000.0 4000.0 4000.0 4000.0 4000.0 4000.0 4000.0 4000.0 4000.0 4000.0 4000.0 4000.0 4000.0 4000.0 4000.0 4000.0 4000.0 4000.0 4000.0 4000.0 4000.0 4000.0 4000.0 4000.0 4000.0 4000.0 4000.0 4000.0 4000.0 4000.0 4000.0 4000.0 4000.0 4000.0 4000.0 4000.0 4000.0 4000.0 4000.0 4000.0 4000.0 4000.0 4000.0 4000.0 4000.0 4000.0 4000.0 4000.0 4000.0 4000.0 4000.0 4000.0 4000.0 4000.0 4000.0 4000.0 4000.0 4000.0 4000.0 4000.0 4000.0 4000.0 4000.0 4000.0 4000.0 4000.0 4000.0 4000.0 4000.0 4000.0 4000.0 4000.0 4000.0 4000.0 4000.0 4000.0 4000.0 4000.0 4000.0 4000.0 4000.0 4000.0 4000.0 4000.0 4000.0 4000.0 4000.0 4000.0 4000.0 4000.0 4000.0 4000.0 4000.0 4000.0 4000.0 4000.0 4000.0 4000.0 4000.0 4000.0 4000.0 4000.0 4000.0 4000.0 4000.0 4000.0 4000.0 4000.0 4000.0 4000.0 4000.0 4000.0 4000.0 4000.0 4000.0 4000.0 4000.0 4000.0 4000.0 4000.0 4000.0 4000.0 4000.0 4000.0 4000.0 4000.0 4000.0 4000.0 4000.0 4000.0 4000.0 4000.0 4000.0 4000.0 4000.0 4000.0 4000.0 4000.0 4000.0 4000.0 4000.0 4000.0 4000.0 4000.0 4000.0 4000.0 4000.0 4000.0 4000.0 4000.0 4000.0 4000.0 4000.0 4000.0 4000.0 4000.0 4000.0 4000.0 4000.0 4000.0 4000.0 4000.0 4000.0 4000.0 4000.0 4000.0 4000.0 4000.0 4000.0 4000.0 4000.0 4000.0 4000.0 4000.0 4000.0 4000.0 4000.0 4000.0 4000.0 4000.0 4000.0 4000.0 4000.0 4000.0 4000.0 4000.0 4000.0 4000.0 4000.0 4000.0 4000.0 4000.0 4000.0 4000.0 4000.0 4000.0 4000.0 4000.0 4000.0 4000.0 4000.0 4000.0 4000.0 4000.0 4000.0 4000.0 4000.0 4000.0 4000.0 4000.0 4000.0 4000.0 4000.0 4000.0 4000.0 4000.0 4000.0 4000.0 4000.0 4000.0 4000.0 4000.0 4000.0 4000.0 4000.0 4000.0 4000.0 4000.0 4000.0 4000.0 4000.0 4000.0 4000.0 4000.0 4000.0 4000.0 4000.0 4000.0 4000.0 4000.0 4000.0 4000.0 4000.0 4000.0 4000.0 4000.0 4000.0 4000.0 4000.0 4000.0 4000.0 4000.0 4000.0 4000.0 4000.0 4000.0 4000.0 4000.0 4000.0 4000.0 4000.0 4000.0 4000.0 4000.0 4000.0 4000.0 4000.0 4000.0 4000.0 4000.0 4000.0 4000.0 4000.0 4000.0 4000.0 4000.0 4000.0 4000.0 4000.0 4000.0 4000.0 4000.0 4000.0 4000.0 4000.0 4000.0 4000.0 4000.0 4000.0 4000.0 4000.0 4000.0 4000.0 4000.0 4000.0 4000.0 4000.0 4000.0 4000.0 4000.0 4000.0 4000.0 4000.0 4000.0 4000.0 4000.0 4000.0 4000.0 4000.0 4000.0 4000.0 4000.0 4000.0 4000.0 4000.0 4000.0 4000.0 4000.0 4000.0 4000.0 4000.0 4000.0 4000.0 4000.0 4000.0 4000.0 4000.0 4000.0 4000.0 4000.0 4000.0 4000.0 4000.0 4000.0 4000.0 4000.0 4000.0 4000.0 4000.0 4000.0 4000.0 4000.0 4000.0 4000.0 4000.0 4000.0 4000.0 4000.0 4000.0 4000.0 4000.0 4000.0 4000.0 4000.0 4000.0 4000.0 4000.0 4000.0 4000.0 4000.0 4000.0 4000.0 4000.0 4000.0 4000.0 4000.0 4000.0 4000.0 4000.0 4000.0 4000.0 4000.0 4000.0 4000.0 4000.0 4000.0 4000.0 4000.0 4000.0 4000.0 4000.0 4000.0 4000.0 4000.0 4000.0 4000.0 4000.0 4000.0 4000.0 4000.0 4000.0 4000.0 4000.0 4000.0 4000.0 4000.0 4000.0 4000.0 4000.0 4000.0 4000.0 4000.0 4000.0 4000.0 4000.0 4000.0 4000.0 4000.0 4000.0 4000.0 4000.0 4000.0 4000.0 4000.0 4000.0 4000.0 4000.0 4000.0 4000.0 4000.0 4000.0 4000.0 4000.0 4000.0 4000.0 4000.0 4000.0 4000.0 4000.0 4000.0 4000.0 4000.0 4000.0 4000.0 4000.0 4000.0 4000.0 4000.0 4000.0 4000.0 4000.0 4000.0 4000.0 4000.0 4000.0 4000.0 4000.0 4000.0 4000.0 4000.0 4000.0 4000.0 4000.0 4000.0 4000.0 4000.0 4000.0 4000.0 4000.0 4000.0 4000.0 4000.0 4000.0 4000.0 4000.0 4000.0 4000.0 4000.0 4000.0 4000.0 4000.0 4000.0 4000.0 4000.0 4000.0 4000.0 4000.0 4000.0 4000.0 4000.0 4000.0 4000.0 4000.0 4000.0 4000.0 4000.0 4000.0 4000.0 4000.0 4000.0 4000.0 4000.0 4000.0 4000.0 4000.0 4000.0 4000.0 4000.0 4000.0 4000.0 4000.0 4000.0 4000.0 4000.0 4000.0 4000.0 4000.0 4000.0 4000.0 4000.0 4000.0 4000.0 4000.0 4000.0 4000.0 4000.0 4000.0 4000.0 4000.0 4000.0 4000.0 4000.0 4000.0 4000.0 4000.0 4000.0 4000.0 4000.0 4000.0 4000.0 4000.0 4000.0 4000.0 4000.0 4000.0 4000.0 4000.0 4000.0 4000.0 4000.0 4000.0 4000.0 4000.0 4000.0 4000.0 4000.0 4000.0 4000.0 4000.0 4000.0 4000.0 4000.0 4000.0 4000.0 4000.0 4000.0 4000.0 4000.0 4000.0 4000.0 4000.0 4000.0 4000.0 4000.0 4000.0 4000.0 4000.0 4000.0 4000.0 4000.0 4000.0 4000.0 4000.0 4000.0 4000.0 4000.0 4000.0 4000.0 4000.0 4000.0 4000.0 4000.0 4000.0 4000.0 4000.0 4000.0 4000.0 4000.0 4000.0 4000.0 4000.0 4000.0 4000.0 4000.0 4000.0 4000.0 4000.0 4000.0 4000.0 4000.0 4000.0 4000.0 4000.0 4000.0 4000.0 4000.0 4000.0 4000.0 4000.0 4000.0 4000.0 4000.0 4000.0 4000.0 4000.0 4000.0 4000.0 4000.0 4000.0 4000.0 4000.0 4000.0 4000.0 4000.0 4000.0 4000.0 4000.0 4000.0 4000.0 4000.0 4000.0 4000.0 4000.0 4000.0 4000.0 4000.0 4000.0 4000.0 4000.0 4000.0 4000.0 4000.0 4000.0 4000.0 4000.0 4000.0 4000.0 4000.0 4000.0 4000.0 4000.0 4000.0 4000.0 4000.0 4000.0 4000.0 4000.0 4000.0 4000.0 4000.0 4000.0 4000.0 4000.0 4000.0 4000.0 4000.0 4000.0 4000.0 4000.0 4000.0 4000.0 4000.0 4000.0 4000.0 4000.0 4000.0 4000.0 4000.0 4000.0 4000.0 4000.0 4000.0 4000.0 4000.0 4000.0 4000.0 4000.0 4000.0 4000.0 4000.0 4000.0 4000.0 4000.0 4000.0 4000.0 4000.0 4000.0 4000.0 4000.0 4000.0 4000.0 4000.0 4000.0 4000.0 4000.0 4000.0 4000.0 4000.0 4000.0 4000.0 4000.0 4000.0 4000.0 4000.0 4000.0 4000.0 4000.0 4000.0 4000.0 4000.0 4000.0 4000.0 4000.0 4000.0 4000.0 4000.0 4000.0 4000.0 4000.0 4000.0 4000.0 4000.0 4000.0 4000.0 4000.0 4000.0 4000.0 4000.0 4000.0 4000.0 4000.0 4000.0 4000.0 4000.0 4000.0 4000.0 4000.0 4000.0 4000.0 4000.0 4000.0 4000.0 4000.0 4000.0 4000.0 4000.0 4000.0 4000.0 4000.0 4000.0 4000.0 4000.0 4000.0 4000.0 4000.0 4000.0 4000.0 4000.0 4000.0 4000.0 4000.0 4000.0 4000.0 4000.0 4000.0 4000.0 4000.0 4000.0 4000.0 4000.0 4000.0 4000.0 4000.0 4000.0 4000.0 4000.0 4000.0 4000.0 4000.0 4000.0 4000.0 4000.0 4000.0 4000.0 4000.0 4000.0 4000.0 4000.0 4000.0 4000.0 4000.0 4000.0 4000.0 4000.0 4000.0 4000.0 4000.0 4000.0 4000.0 4000.0 4000.0 4000.0 4000.0 4000.0 4000.0 4000.0 4000.0 4000.0 4000.0 4000.0 4000.0 4000.0 4000.0 4000.0 4000.0 4000.0 4000.0 4000.0 4000.0 4000.0 4000.0 4000.0 4000.0 4000.0 4000.0 4000.0 4000.0 4000.0 4000.0 4000.0 4000.0 4000.0 4000.0 4000.0 4000.0 4000.0 4000.0 4000.0 4000.0 4000.0 4000.0 4000.0 4000.0 4000.0 4000.0 4000.0 4000.0 4000.0 4000.0 4000.0 4000.0 4000.0 4000.0 4000.0 4000.0 4000.0 4000.0 4000.0 4000.0 4000.0 4000.0 4000.0 4000.0 4000.0 4000.0 4000.0 4000.0 4000.0 4000.0 4000.0 4000.0 4000.0 4000.0 4000.0 4000.0 4000.0 4000.0 4000.0 4000.0 4000.0 4000.0 4000.0 4000.0 4000.0 4000.0 4000.0 4000.0 4000.0 4000.0 4000.0 4000.0 4000.0 4000.0 4000.0 4000.0 4000.0 4000.0 4000.0 4000.0 4000.0 4000.0 4000.0 4000.0 4000.0 4000.0 4000.0 4000.0 4000.0 4000.0 4000.0 4000.0 4000.0 4000.0 4000.0 4000.0 4000.0 4000.0 4000.0 4000.0 4000.0 4000.0 4000.0 4000.0 4000.0 4000.0 4000.0 4000.0 4000.0 4000.0 4000.0 4000.0 4000.0 4000.0 4000.0 4000.0 4000.0 4000.0 4000.0 4000.0 4000.0 4000.0 4000.0 4000.0 4000.0 4000.0 4000.0 4000.0 4000.0 4000.0 4000.0 4000.0 4000.0 4000.0 4000.0 4000.0 4000.0 4000.0 4000.0 4000.0 4000.0 4000.0 4000.0 4000.0 4000.0 4000.0 4000.0 4000.0 4000.0 4000.0 4000.0 4000.0 4000.0 4000.0 4000.0 4000.0 4000.0 4000.0 4000.0 4000.0 4000.0 4000.0 4000.0 4000.0 4000.0 4000.0 4000.0 4000.0 4000.0 4000.0 4000.0 4000.0 4000.0 4000.0 4000.0 4000.0 4000.0 4000.0 4000.0 4000.0 4000.0 4000.0 4000.0 4000.0 4000.0 4000.0 4000.0 4000.0 4000.0 4000.0 4000.0 4000.0 4000.0 4000.0 4000.0 4000.0 4000.0 4000.0 4000.0 4000.0 4000.0 4000.0 4000.0 4000.0 4000.0 4000.0 4000.0 4000.0 4000.0 4000.0 4000.0 4000.0 4000.0 4000.0 4000.0 4000.0 4000.0 4000.0 4000.0 4000.0 4000.0 4000.0 4000.0 4000.0 4000.0 4000.0 4000.0 4000.0 4000.0 4000.0 4000.0 4000.0 4000.0 4000.0 4000.0 4000.0 4000.0 4000.0 4000.0 4000.0 4000.0 4000.0 4000.0 4000.0 4000.0 4000.0 4000.0 4000.0 4000.0 4000.0 4000.0 4000.0 4000.0 4000.0 4000.0 4000.0 4000.0 4000.0 4000.0 4000.0 4000.0 4000.0 4000.0 4000.0 4000.0 4000.0 4000.0 4000.0 4000.0 4000.0 4000.0 4000.0 4000.0 4000.0 4000.0 4000.0 4000.0 4000.0 4000.0 4000.0 4000.0 4000.0 4000.0 4000.0 4000.0 4000.0 4000.0 4000.0 4000.0 4000.0 4000.0 4000.0 4000.0 4000.0 4000.0 4000.0 4000.0 4000.0 4000.0 4000.0 4000.0 4000.0 4000.0 4000.0 4000.0 4000.0 4000.0 4000.0 4000.0 4000.0 4000.0 4000.0 4000.0 4000.0 4000.0 4000.0 4000.0 4000.0 4000.0 4000.0 4000.0 4000.0 4000.0 4000.0 4000.0 4000.0 4000.0 4000.0 4000.0 4000.0 4000.0 4000.0 4000.0 4000.0 4000.0 4000.0 4000.0 4000.0 4000.0 4000.0 4000.0 4000.0 4000.0 4000.0 4000.0 4000.0 4000.0 4000.0 4000.0 4000.0 4000.0 4000.0 4000.0 4000.0 4000.0 4000.0 4000.0 4000.0 4000.0 4000.0 4000.0 4000.0 4000.0 4000.0 4000.0 4000.0 4000.0 4000.0 4000.0 4000.0 4000.0 4000.0 4000.0 4000.0 4000.0 4000.0 4000.0 4000.0 4000.0 4000.0 4000.0 4000.0 4000.0 4000.0 4000.0 4000.0 4000.0 4000.0 4000.0 4000.0 4000.0 4000.0 4000.0 4000.0 4000.0 4000.0 4000.0 4000.0 4000.0 4000.0 4000.0 4000.0 4000.0 4000.0 4000.0 4000.0 4000.0 4000.0 4000.0 4000.0 4000.0 4000.0 4000.0 4000.0 4000.0 4000.0 4000.0 4000.0 4000.0 4000.0 4000.0 4000.0 4000.0 4000.0 4000.0 4000.0 4000.0 4000.0 4000.0 4000.0 4000.0 4000.0 4000.0 4000.0 4000.0 4000.0 4000.0 4000.0 4000.0 4000.0 4000.0 4000.0 4000.0 4000.0 4000.0 4000.0 4000.0 4000.0 4000.0 4000.0 4000.0 4000.0 4000.0 4000.0 4000.0 4000.0 4000.0 4000.0 4000.0 4000.0 4000.0 4000.0 4000.0 4000.0 4000.0 4000.0 4000.0 4000.0 4000.0 4000.0 4000.0 4000.0 4000.0 4000.0 4000.0 4000.0 4000.0 4000.0 4000.0 4000.0 4000.0 4000.0 4000.0 4000.0 4000.0 4000.0 4000.0 4000.0 4000.0 4000.0 4000.0 4000.0 4000.0 4000.0 4000.0 4000.0 4000.0 4000.0 4000.0 4000.0 4000.0 4000.0 4000.0 4000.0 4000.0 4000.0 4000.0 4000.0 4000.0 4000.0 4000.0 4000.0 4000.0 4000.0 4000.0 4000.0 4000.0 4000.0 4000.0 4000.0 4000.0 4000.0 4000.0 4000.0 4000.0 4000.0 4000.0 4000.0 4000.0 4000.0 4000.0 4000.0 4000.0 4000.0 4000.0 4000.0 4000.0 4000.0 4000.0 4000.0 4000.0 4000.0 4000.0 4000.0 4000.0 4000.0 4000.0 4000.0 4000.0 4000.0 4000.0 4000.0 4000.0 4000.0 4000.0 4000.0 4000.0 4000.0 4000.0 4000.0 4000.0 4000.0 4000.0 4000.0 4000.0 4000.0 4000.0 4000.0 4000.0 4000.0 4000.0 4000.0 4000.0 4000.0 4000.0 4000.0 4000.0 4000.0 4000.0 4000.0 4000.0 4000.0 4000.0 4000.0 4000.0 4000.0 4000.0 4000.0 4000.0 4000.0 4000.0 4000.0 4000.0 4000.0 4000.0 4000.0 4000.0 4000.0 4000.0 4000.0 4000.0 4000.0 4000.0 4000.0 4000.0 4000.0 4000.0 4000.0 4000.0 4000.0 4000.0 4000.0 4000.0 4000.0 4000.0 4000.0 4000.0 4000.0 4000.0 4000.0 4000.0 4000.0 4000.0 4000.0 4000.0 4000.0 4000.0 4000.0 4000.0 4000.0 4000.0 4000.0 4000.0 4000.0 4000.0 4000.0 4000.0 4000.0 4000.0 4000.0 4000.0 4000.0 4000.0 4000.0 4000.0 4000.0 4000.0 4000.0 4000.0 4000.0 4000.0 4000.0 4000.0 4000.0 4000.0 4000.0 4000.0 4000.0 4000.0 4000.0 4000.0 4000.0 4000.0 4000.0 4000.0 4000.0 4000.0 4000.0 4000.0 4000.0 4000.0 4000.0 4000.0 4000.0 4000.0 4000.0 4000.0 4000.0 4000.0 4000.0 4000.0 4000.0 4000.0 4000.0 4000.0 4000.0 4000.0 4000.0 4000.0 4000.0 4000.0 4000.0 4000.0 4000.0 4000.0 4000.0 4000.0 4000.0 4000.0 4000.0 4000.0 4000.0 4000.0 4000.0 4000.0 4000.0 4000.0 4000.0 4000.0 4000.0 4000.0 4000.0 4000.0 4000.0 4000.0 4000.0 4000.0 4000.0 4000.0 4000.0 4000.0 4000.0 4000.0 4000.0 4000.0 4000.0 4000.0 4000.0 4000.0 4000.0 4000.0 4000.0 4000.0 4000.0 4000.0 4000.0 4000.0 4000.0 4000.0 4000.0 4000.0 4000.0 4000.0 4000.0 4000.0 4000.0 4000.0 4000.0 4000.0 4000.0 4000.0 4000.0 4000.0 4000.0 4000.0 4000.0 4000.0 4000.0 4000.0 4000.0 4000.0 4000.0 4000.0 4000.0 4000.0 4000.0 4000.0 4000.0 4000.0 4000.0 4000.0 4000.0 4000.0 4000.0 4000.0 4000.0 4000.0 4000.0 4000.0 4000.0 4000.0 4000.0 4000.0 4000.0 4000.0 4000.0 4000.0 4000.0 4000.0 4000.0 4000.0 4000.0 4000.0 4000.0 4000.0 4000.0 4000.0 4000.0 4000.0 4000.0 4000.0 4000.0 4000.0 4000.0 4000.0 4000.0 4000.0 4000.0 4000.0 4000.0 4000.0 4000.0 4000.0 4000.0 4000.0 4000.0 4000.0 4000.0 4000.0 4000.0 4000.0 4000.0 4000.0 4000.0 4000.0 4000.0 4000.0 4000.0 4000.0 4000.0 4000.0 4000.0 4000.0 4000.0 4000.0 4000.0 4000.0 4000.0 4000.0 4000.0 4000.0 4000.0 4000.0 4000.0 4000.0 4000.0 4000.0 4000.0 4000.0 4000.0 4000.0 4000.0 4000.0 4000.0 4000.0 4000.0 4000.0 4000.0 4000.0 4000.0 4000.0 4000.0 4000.0 4000.0 4000.0 4000.0 4000.0 4000.0 4000.0 4000.0 4000.0 4000.0 4000.0 4000.0 4000.0 4000.0 4000.0 4000.0 4000.0 4000.0 4000.0 4000.0 4000.0 4000.0 4000.0 4000.0 4000.0 4000.0 4000.0 4000.0 4000.0 4000.0 4000.0 4000.0 4000.0 4000.0 4000.0 4000.0 4000.0 4000.0 4000.0 4000.0 4000.0 4000.0 4000.0 4000.0 4000.0 4000.0 4000.0 4000.0 4000.0 4000.0 4000.0 4000.0 4000.0 4000.0 4000.0 4000.0 4000.0 4000.0 4000.0 4000.0 4000.0 4000.0 4000.0 4000.0 4000.0 4000.0 4000.0 4000.0 4000.0 4000.0 4000.0 4000.0 4000.0 4000.0 4000.0 4000.0 4000.0 4000.0 4000.0 4000.0 4000.0 4000.0 4000.0 4000.0 4000.0 4000.0 4000.0 4000.0 4000.0 4000.0 4000.0 4000.0 4000.0 4000.0 4000.0 4000.0 4000.0 4000.0 4000.0 4000.0 4000.0 4000.0 4000.0 4000.0 4000.0 4000.0 4000.0 4000.0 4000.0 4000.0 4000.0 4000.0 4000.0 4000.0 4000.0 4000.0 4000.0 4000.0 4000.0 4000.0 4000.0 4000.0 4000.0 4000.0 4000.0 4000.0 4000.0 4000.0 4000.0 4000.0 4000.0 4000.0 4000.0 4000.0 4000.0 4000.0 4000.0 4000.0 4000.0 4000.0 4000.0 4000.0 4000.0 4000.0 4000.0 4000.0 4000.0 4000.0 4000.0 4000.0 4000.0 4000.0 4000.0 4000.0 4000.0 4000.0 4000.0 4000.0 4000.0 4000.0 4000.0 4000.0 4000.0 4000.0 4000.0 4000.0 4000.0 4000.0 4000.0 4000.0 4000.0 4000.0 4000.0 4000.0 4000.0 4000.0 4000.0 4000.0 4000.0 4000.0 4000.0 4000.0 4000.0 4000.0 4000.0 4000.0 4000.0 4000.0 4000.0 4000.0 4000.0 4000.0 4000.0 4000.0 4000.0 4000.0 4000.0 4000.0 4000.0 4000.0 4000.0 4000.0 4000.0 4000.0 4000.0 4000.0 4000.0 4000.0 4000.0 4000.0 4000.0 4000.0 4000.0 4000.0 4000.0 4000.0 4000.0 4000.0 4000.0 4000.0 4000.0 4000.0 4000.0 4000.0 4000.0 4000.0 4000.0 4000.0 4000.0 4000.0 4000.0 4000.0 4000.0 4000.0 4000.0 4000.0 4000.0 4000.0 4000.0 4000.0 4000.0 4000.0 4000.0 4000.0 4000.0 4000.0 4000.0 4000.0 4000.0 4000.0 4000.0 4000.0 4000.0 4000.0 4000.0 4000.0 4000.0 4000.0 4000.0 4000.0 4000.0 4000.0 4000.0 4000.0 4000.0 4000.0 4000.0 4000.0 4000.0 4000.0 4000.0 4000.0 4000.0 4000.0 4000.0 4000.0 4000.0 4000.0 4000.0 4000.0 4000.0 4000.0 4000.0 4000.0 4000.0 4000.0 4000.0 4000.0 4000.0 4000.0 4000.0 4000.0 4000.0 4000.0 4000.0 4000.0 4000.0 4000.0 4000.0 4000.0 4000.0 4000.0 4000.0 4000.0 4000.0 4000.0 4000.0 4000.0 4000.0 4000.0 4000.0 4000.0 4000.0 4000.0 4000.0 4000.0 4000.0 4000.0 4000.0 4000.0 4000.0 4000.0 4000.0 4000.0 4000.0 4000.0 4000.0 4000.0 4000.0 4000.0 4000.0 4000.0 4000.0 4000.0 4000.0 4000.0 4000.0 4000.0 4000.0 4000.0 4000.0 4000.0 4000.0 4000.0 4000.0 4000.0 4000.0 4000.0 4000.0 4000.0 4000.0 4000.0 4000.0 4000.0 4000.0 4000.0 4000.0 4000.0 4000.0 4000.0 4000.0 4000.0 4000.0 4000.0 4000.0 4000.0 4000.0 4000.0 4000.0 4000.0 4000.0 4000.0 4000.0 4000.0 4000.0 4000.0 4000.0 4000.0 4000.0 4000.0 4000.0 4000.0 4000.0 4000.0 4000.0 4000.0 4000.0 4000.0 4000.0 4000.0 4000.0 4000.0 4000.0 4000.0 4000.0 4000.0 4000.0 4000.0 4000.0 4000.0 4000.0 4000.0 4000.0 4000.0 4000.0 4000.0 4000.0 4000.0 4000.0 4000.0 4000.0 4000.0 4000.0 4000.0 4000.0 4000.0 4000.0 4000.0 4000.0 4000.0 4000.0 4000.0 4000.0 4000.0 4000.0 4000.0 4000.0 4000.0 4000.0 4000.0 4000.0 4000.0 4000.0 4000.0 4000.0 4000.0 4000.0 4000.0 4000.0 4000.0 4000.0 4000.0 4000.0 4000.0 4000.0 4000.0 4000.0 4000.0 4000.0 4000.0 4000.0 4000.0 4000.0 4000.0 4000.0 4000.0 4000.0 4000.0 4000.0 4000.0 4000.0 4000.0 4000.0 4000.0 4000.0 4000.0 4000.0 4000.0 4000.0 4000.0 4000.0 4000.0 4000.0 4000.0 4000.0 4000.0 4000.0 4000.0 4000.0 4000.0 4000.0 4000.0 4000.0 4000.0 4000.0 4000.0 4000.0 4000.0 4000.0 4000.0 4000.0 4000.0 4000.0 4000.0 4000.0 4000.0 4000.0 4000.0 4000.0 4000.0 4000.0 4000.0 4000.0 4000.0 4000.0 4000.0 4000.0 4000.0 4000.0 4000.0 4000.0 4000.0 4000.0 4000.0 4000.0 4000.0 4000.0 4000.0 4000.0 4000.0 4000.0 4000.0 4000.0 4000.0 4000.0 4000.0 4000.0 4000.0 4000.0 4000.0 4000.0 4000.0 4000.0 4000.0 4000.0 4000.0 4000.0 4000.0 4000.0 4000.0 4000.0 4000.0 4000.0 4000.0 4000.0 4000.0 4000.0 4000.0 4000.0 4000.0 4000.0 4000.0 4000.0 4000.0 4000.0 4000.0 4000.0 4000.0 4000.0 4000.0 4000.0 4000.0 4000.0 4000.0 4000.0 4000.0 4000.0 4000.0 4000.0 4000.0 4000.0 4000.0 4000.0 4000.0 4000.0 4000.0 4000.0 4000.0 4000.0 4000.0 4000.0 4000.0 4000.0 4000.0 4000.0 4000.0 4000.0 4000.0 4000.0 4000.0 4000.0 4000.0 4000.0 4000.0 4000.0 4000.0 4000.0 4000.0 4000.0 4000.0 4000.0 4000.0 4000.0 4000.0 4000.0 4000.0 4000.0 4000.0 4000.0 4000.0 4000.0 4000.0 4000.0 4000.0 4000.0 4000.0 4000.0 4000.0 4000.0 4000.0 4000.0 4000.0 4000.0 4000.0 4000.0 4000.0 4000.0 4000.0 4000.0 4000.0 4000.0 4000.0 4000.0 4000.0 4000.0 4000.0 4000.0 4000.0 4000.0 4000.0 4000.0 4000.0 4000.0 4000.0 4000.0 4000.0 4000.0 4000.0 4000.0 4000.0 4000.0 4000.0 4000.0 4000.0 4000.0 4000.0 4000.0 4000.0 4000.0 4000.0 4000.0 4000.0 4000.0 4000.0 4000.0 4000.0 4000.0 4000.0 4000.0 4000.0 4000.0 4000.0 4000.0 4000.0 4000.0 4000.0 4000.0 4000.0 4000.0 4000.0 4000.0 4000.0 4000.0 4000.0 4000.0 4000.0 4000.0 4000.0 4000.0 4000.0 4000.0 4000.0 4000.0 4000.0 4000.0 4000.0 4000.0 4000.0 4000.0 4000.0 4000.0 4000.0 4000.0 4000.0 4000.0 4000.0 4000.0 4000.0 4000.0 4000.0 4000.0 4000.0 4000.0 4000.0 4000.0 4000.0 4000.0 4000.0 4000.0 4000.0 4000.0 4000.0 4000.0 4000.0 4000.0 4000.0 4000.0 4000.0 4000.0 4000.0 4000.0 4000.0 4000.0 4000.0 4000.0 4000.0 4000.0 4000.0 4000.0 4000.0 4000.0 4000.0 4000.0 4000.0 4000.0 4000.0 4000.0 4000.0 4000.0 4000.0 4000.0 4000.0 4000.0 4000.0 4000.0 4000.0 4000.0 4000.0 4000.0 4000.0 4000.0 4000.0 4000.0 4000.0 4000.0 4000.0 4000.0 4000.0 4000.0 4000.0 4000.0 4000.0 4000.0 4000.0 4000.0 4000.0 4000.0 4000.0 4000.0 4000.0 4000.0 4000.0 4000.0 4000.0 4000.0 4000.0 4000.0 4000.0 4000.0 4000.0 4000.0 4000.0 4000.0 4000.0 4000.0 4000.0 4000.0 4000.0 4000.0 4000.0 4000.0 4000.0 4000.0 4000.0 4000.0 4000.0 4000.0 4000.0 4000.0 4000.0 4000.0 4000.0 4000.0 4000.0 4000.0 4000.0 4000.0 4000.0 4000.0 4000.0 4000.0 4000.0 4000.0 4000.0 4000.0 4000.0 4000.0 4000.0 4000.0 4000.0 4000.0 4000.0 4000.0 4000.0 4000.0 4000.0 4000.0 4000.0 4000.0 4000.0 4000.0 4000.0 4000.0 4000.0 4000.0 4000.0 4000.0 4000.0 4000.0 4000.0 4000.0 4000.0 4000.0 4000.0 4000.0 4000.0 4000.0 4000.0 4000.0 4000.0 4000.0 4000.0 4000.0 4000.0 4000.0 4000.0 4000.0 4000.0 4000.0 4000.0 4000.0 4000.0 4000.0 4000.0 4000.0 4000.0 4000.0 4000.0 4000.0 4000.0 4000.0 4000.0 4000.0 4000.0 4000.0 4000.0 4000.0 4000.0 4000.0 4000.0 4000.0 4000.0 4000.0 4000.0 4000.0 4000.0 4000.0 4000.0 4000.0 4000.0 4000.0 4000.0 4000.0 4000.0 4000.0 4000.0 4000.0 4000.0 4000.0 4000.0 4000.0 4000.0 4000.0 4000.0 4000.0 4000.0 4000.0 4000.0 4000.0 4000.0 4000.0 4000.0 4000.0 4000.0 4000.0 4000.0 4000.0 4000.0 4000.0 4000.0 4000.0 4000.0 4000.0 4000.0 4000.0 4000.0 4000.0 4000.0 4000.0 4000.0 4000.0 4000.0 4000.0 4000.0 4000.0 4000.0 4000.0 4000.0 4000.0 4000.0 4000.0 4000.0 4000.0 4000.0 4000.0 4000.0 4000.0 4000.0 4000.0 4000.0 4000.0 4000.0 4000.0 4000.0 4000.0 4000.0 4000.0 4000.0 4000.0 4000.0 4000.0 4000.0 4000.0 4000.0 4000.0 4000.0 4000.0 4000.0 4000.0 4000.0 4000.0 4000.0 4000.0 4000.0 4000.0 4000.0 4000.0 4000.0 4000.0 4000.0 4000.0 4000.0 4000.0 4000.0 4000.0 4000.0 4000.0 4000.0 4000.0 4000.0 4000.0 4000.0 4000.0 4000.0 4000.0 4000.0 4000.0 4000.0 4000.0 4000.0 4000.0 4000.0 4000.0 4000.0 4000.0 4000.0 4000.0 4000.0 4000.0 4000.0 4000.0 4000.0 4000.0 4000.0 4000.0 4000.0 4000.0 4000.0 4000.0 4000.0 4000.0 4000.0 4000.0 4000.0 4000.0 4000.0 4000.0 4000.0 4000.0 4000.0 4000.0 4000.0 4000.0 4000.0 4000.0 4000.0 4000.0 4000.0 4000.0 4000.0 4000.0 4000.0 4000.0 4000.0 4000.0 4000.0 4000.0 4000.0 4000.0 4000.0 4000.0 4000.0 4000.0 4000.0 4000.0 4000.0 4000.0 4000.0 4000.0 4000.0 4000.0 4000.0 4000.0 4000.0 4000.0 4000.0 4000.0 4000.0 4000.0 4000.0 4000.0 4000.0 4000.0 4000.0 4000.0 4000.0 4000.0 4000.0 4000.0 4000.0 4000.0 4000.0 4000.0 4000.0 4000.0 4000.0 4000.0 4000.0 4000.0 4000.0 4000.0 4000.0 4000.0 4000.0 4000.0 4000.0 4000.0 4000.0 4000.0 4000.0 4000.0 4000.0 4000.0 4000.0 4000.0 4000.0 4000.0 4000.0 4000.0 4000.0 4000.0 4000.0 4000.0 4000.0 4000.0 4000.0 4000.0 4000.0 4000.0 4000.0 4000.0 4000.0 4000.0 4000.0 4000.0 4000.0 4000.0 4000.0 4000.0 4000.0 4000.0 4000.0 4000.0 4000.0 4000.0 4000.0 4000.0 4000.0 4000.0 4000.0 4000.0 4000.0 4000.0 4000.0 4000.0 4000.0 4000.0 4000.0 4000.0 4000.0 4000.0 4000.0 4000.0 4000.0 4000.0 4000.0 4000.0 4000.0 4000.0 4000.0 4000.0 4000.0 4000.0 4000.0 4000.0 4000.0 4000.0 4000.0 4000.0 4000.0 4000.0 4000.0 4000.0 4000.0 4000.0 4000.0 4000.0 4000.0 4000.0 4000.0 4000.0 4000.0 4000.0 4000.0 4000.0 4000.0 4000.0 4000.0 4000.0 4000.0 4000.0 4000.0 4000.0 4000.0 4000.0 4000.0 4000.0 4000.0 4000.0 4000.0 4000.0 4000.0 4000.0 4000.0 4000.0 4000.0 4000.0 4000.0 4000.0 4000.0 4000.0 4000.0 4000.0 4000.0 4000.0 4000.0 4000.0 4000.0 4000.0 4000.0 4000.0 4000.0 4000.0 4000.0 4000.0 4000.0 4000.0 4000.0 4000.0 4000.0 4000.0 4000.0 4000.0 4000.0 4000.0 4000.0 4000.0 4000.0 4000.0 4000.0 4000.0 4000.0 4000.0 4000.0 4000.0 4000.0 4000.0 4000.0 4000.0 4000.0 4000.0 4000.0 4000.0 4000.0 4000.0 4000.0 4000.0 4000.0 4000.0 4000.0 4000.0 4000.0 4000.0 4000.0 4000.0 4000.0 4000.0 4000.0 4000.0 4000.0 4000.0 4000.0 4000.0 4000.0 4000.0 4000.0 4000.0 4000.0 4000.0 4000.0 4000.0 4000.0 4000.0 4000.0 4000.0 4000.0 4000.0 4000.0 4000.0 4000.0 4000.0 4000.0 4000.0 4000.0 4000.0 4000.0 4000.0 4000.0 4000.0 4000.0 4000.0 4000.0 4000.0 4000.0 4000.0 4000.0 4000.0 4000.0 4000.0 4000.0 4000.0 4000.0 4000.0 4000.0 4000.0 4000.0 4000.0 4000.0 4000.0 4000.0 4000.0 4000.0 4000.0 4000.0 4000.0 4000.0 4000.0 4000.0 4000.0 4000.0 4000.0 4000.0 4000.0 4000.0 4000.0 4000.0 4000.0 4000.0 4000.0 4000.0 4000.0 4000.0 4000.0 4000.0 4000.0 4000.0 4000.0 4000.0 4000.0 4000.0 4000.0 4000.0 4000.0 4000.0 4000.0 4000.0 4000.0 4000.0 4000.0 4000.0 4000.0 4000.0 4000.0 4000.0 4000.0 4000.0 4000.0 4000.0 4000.0 4000.0 4000.0 4000.0 4000.0 4000.0 4000.0 4000.0 4000.0 4000.0 4000.0 4000.0 4000.0 4000.0 4000.0 4000.0 4000.0 4000.0 4000.0 4000.0 4000.0 4000.0 4000.0 4000.0 4000.0 4000.0 4000.0 4000.0 4000.0 4000.0 4000.0 4000.0 4000.0 4000.0 4000.0 4000.0 4000.0 4000.0 4000.0 4000.0 4000.0 4000.0 4000.0 4000.0 4000.0 4000.0 4000.0 4000.0 4000.0 4000.0 4000.0 4000.0 4000.0 4000.0 4000.0 4000.0 4000.0 4000.0 4000.0 SCALARS Mass float 1
LOOKUP_TABLE default
11309700000.0 11309700000.0 11309700000.0 11309700000.0 11309700000.0 11309700000.0 11309700000.0 11309700000.0 11309700000.0 11309700000.0 11309700000.0 11309700000.0 11309700000.0 11309700000.0 11309700000.0 11309700000.0 11309700000.0 11309700000.0 11309700000.0 11309700000.0 11309700000.0 11309700000.0 11309700000.0 11309700000.0 11309700000.0 11309700000.0 11309700000.0 11309700000.0 11309700000.0 11309700000.0 11309700000.0 11309700000.0 11309700000.0 11309700000.0 11309700000.0 11309700000.0 11309700000.0 11309700000.0 11309700000.0 11309700000.0 11309700000.0 11309700000.0 11309700000.0 11309700000.0 11309700000.0 11309700000.0 11309700000.0 11309700000.0 11309700000.0 11309700000.0 11309700000.0 11309700000.0 11309700000.0 11309700000.0 11309700000.0 11309700000.0 11309700000.0 11309700000.0 11309700000.0 11309700000.0 11309700000.0 11309700000.0 11309700000.0 11309700000.0 11309700000.0 11309700000.0 11309700000.0 11309700000.0 11309700000.0 11309700000.0 11309700000.0 11309700000.0 11309700000.0 11309700000.0 11309700000.0 11309700000.0 11309700000.0 11309700000.0 11309700000.0 11309700000.0 11309700000.0 11309700000.0 11309700000.0 11309700000.0 11309700000.0 11309700000.0 11309700000.0 11309700000.0 11309700000.0 11309700000.0 11309700000.0 11309700000.0 11309700000.0 11309700000.0 11309700000.0 11309700000.0 11309700000.0 11309700000.0 11309700000.0 11309700000.0 11309700000.0 11309700000.0 11309700000.0 11309700000.0 11309700000.0 11309700000.0 11309700000.0 11309700000.0 11309700000.0 11309700000.0 11309700000.0 11309700000.0 11309700000.0 11309700000.0 11309700000.0 11309700000.0 11309700000.0 11309700000.0 11309700000.0 11309700000.0 11309700000.0 11309700000.0 11309700000.0 11309700000.0 11309700000.0 11309700000.0 11309700000.0 11309700000.0 11309700000.0 11309700000.0 11309700000.0 11309700000.0 11309700000.0 11309700000.0 11309700000.0 11309700000.0 11309700000.0 11309700000.0 11309700000.0 11309700000.0 11309700000.0 11309700000.0 11309700000.0 11309700000.0 11309700000.0 11309700000.0 11309700000.0 11309700000.0 11309700000.0 11309700000.0 11309700000.0 11309700000.0 11309700000.0 11309700000.0 11309700000.0 11309700000.0 11309700000.0 11309700000.0 11309700000.0 11309700000.0 11309700000.0 11309700000.0 11309700000.0 11309700000.0 11309700000.0 11309700000.0 11309700000.0 11309700000.0 11309700000.0 11309700000.0 11309700000.0 11309700000.0 11309700000.0 11309700000.0 11309700000.0 11309700000.0 11309700000.0 11309700000.0 11309700000.0 11309700000.0 11309700000.0 11309700000.0 11309700000.0 11309700000.0 11309700000.0 11309700000.0 11309700000.0 11309700000.0 11309700000.0 11309700000.0 11309700000.0 11309700000.0 11309700000.0 11309700000.0 11309700000.0 11309700000.0 11309700000.0 11309700000.0 11309700000.0 11309700000.0 11309700000.0 11309700000.0 11309700000.0 11309700000.0 11309700000.0 11309700000.0 11309700000.0 11309700000.0 11309700000.0 11309700000.0 11309700000.0 11309700000.0 11309700000.0 11309700000.0 11309700000.0 11309700000.0 11309700000.0 11309700000.0 11309700000.0 11309700000.0 11309700000.0 11309700000.0 11309700000.0 11309700000.0 11309700000.0 11309700000.0 11309700000.0 11309700000.0 11309700000.0 11309700000.0 11309700000.0 11309700000.0 11309700000.0 11309700000.0 11309700000.0 11309700000.0 11309700000.0 11309700000.0 11309700000.0 11309700000.0 11309700000.0 11309700000.0 11309700000.0 11309700000.0 11309700000.0 11309700000.0 11309700000.0 11309700000.0 11309700000.0 11309700000.0 11309700000.0 11309700000.0 11309700000.0 11309700000.0 11309700000.0 11309700000.0 11309700000.0 11309700000.0 11309700000.0 11309700000.0 11309700000.0 11309700000.0 11309700000.0 11309700000.0 11309700000.0 11309700000.0 11309700000.0 11309700000.0 11309700000.0 11309700000.0 11309700000.0 11309700000.0 11309700000.0 11309700000.0 11309700000.0 11309700000.0 11309700000.0 11309700000.0 11309700000.0 11309700000.0 11309700000.0 11309700000.0 11309700000.0 11309700000.0 11309700000.0 11309700000.0 11309700000.0 11309700000.0 11309700000.0 11309700000.0 11309700000.0 11309700000.0 11309700000.0 11309700000.0 11309700000.0 11309700000.0 11309700000.0 11309700000.0 11309700000.0 11309700000.0 11309700000.0 11309700000.0 11309700000.0 11309700000.0 11309700000.0 11309700000.0 11309700000.0 11309700000.0 11309700000.0 11309700000.0 11309700000.0 11309700000.0 11309700000.0 11309700000.0 11309700000.0 11309700000.0 11309700000.0 11309700000.0 11309700000.0 11309700000.0 11309700000.0 11309700000.0 11309700000.0 11309700000.0 11309700000.0 11309700000.0 11309700000.0 11309700000.0 11309700000.0 11309700000.0 11309700000.0 11309700000.0 11309700000.0 11309700000.0 11309700000.0 11309700000.0 11309700000.0 11309700000.0 11309700000.0 11309700000.0 11309700000.0 11309700000.0 11309700000.0 11309700000.0 11309700000.0 11309700000.0 11309700000.0 11309700000.0 11309700000.0 11309700000.0 11309700000.0 11309700000.0 11309700000.0 11309700000.0 11309700000.0 11309700000.0 11309700000.0 11309700000.0 11309700000.0 11309700000.0 11309700000.0 11309700000.0 11309700000.0 11309700000.0 11309700000.0 11309700000.0 11309700000.0 11309700000.0 11309700000.0 11309700000.0 11309700000.0 11309700000.0 11309700000.0 11309700000.0 11309700000.0 11309700000.0 11309700000.0 11309700000.0 11309700000.0 11309700000.0 11309700000.0 11309700000.0 11309700000.0 11309700000.0 11309700000.0 11309700000.0 11309700000.0 11309700000.0 11309700000.0 11309700000.0 11309700000.0 11309700000.0 11309700000.0 11309700000.0 11309700000.0 11309700000.0 11309700000.0 11309700000.0 11309700000.0 11309700000.0 11309700000.0 11309700000.0 11309700000.0 11309700000.0 11309700000.0 11309700000.0 11309700000.0 11309700000.0 11309700000.0 11309700000.0 11309700000.0 11309700000.0 11309700000.0 11309700000.0 11309700000.0 11309700000.0 11309700000.0 11309700000.0 11309700000.0 11309700000.0 11309700000.0 11309700000.0 11309700000.0 11309700000.0 11309700000.0 11309700000.0 11309700000.0 11309700000.0 11309700000.0 11309700000.0 11309700000.0 11309700000.0 11309700000.0 11309700000.0 11309700000.0 11309700000.0 11309700000.0 11309700000.0 11309700000.0 11309700000.0 11309700000.0 11309700000.0 11309700000.0 11309700000.0 11309700000.0 11309700000.0 11309700000.0 11309700000.0 11309700000.0 11309700000.0 11309700000.0 11309700000.0 11309700000.0 11309700000.0 11309700000.0 11309700000.0 11309700000.0 11309700000.0 11309700000.0 11309700000.0 11309700000.0 11309700000.0 11309700000.0 11309700000.0 11309700000.0 11309700000.0 11309700000.0 11309700000.0 11309700000.0 11309700000.0 11309700000.0 11309700000.0 11309700000.0 11309700000.0 11309700000.0 11309700000.0 11309700000.0 11309700000.0 11309700000.0 11309700000.0 11309700000.0 11309700000.0 11309700000.0 11309700000.0 11309700000.0 11309700000.0 11309700000.0 11309700000.0 11309700000.0 11309700000.0 11309700000.0 11309700000.0 11309700000.0 11309700000.0 11309700000.0 11309700000.0 11309700000.0 11309700000.0 11309700000.0 11309700000.0 11309700000.0 11309700000.0 11309700000.0 11309700000.0 11309700000.0 11309700000.0 11309700000.0 11309700000.0 11309700000.0 11309700000.0 11309700000.0 11309700000.0 11309700000.0 11309700000.0 11309700000.0 11309700000.0 11309700000.0 11309700000.0 11309700000.0 11309700000.0 11309700000.0 11309700000.0 11309700000.0 11309700000.0 11309700000.0 11309700000.0 11309700000.0 11309700000.0 11309700000.0 11309700000.0 11309700000.0 11309700000.0 11309700000.0 11309700000.0 11309700000.0 11309700000.0 11309700000.0 11309700000.0 11309700000.0 11309700000.0 11309700000.0 11309700000.0 11309700000.0 11309700000.0 11309700000.0 11309700000.0 11309700000.0 11309700000.0 11309700000.0 11309700000.0 11309700000.0 11309700000.0 11309700000.0 11309700000.0 11309700000.0 11309700000.0 11309700000.0 11309700000.0 11309700000.0 11309700000.0 11309700000.0 11309700000.0 11309700000.0 11309700000.0 11309700000.0 11309700000.0 11309700000.0 11309700000.0 11309700000.0 11309700000.0 11309700000.0 11309700000.0 11309700000.0 11309700000.0 11309700000.0 11309700000.0 11309700000.0 11309700000.0 11309700000.0 11309700000.0 11309700000.0 11309700000.0 11309700000.0 11309700000.0 11309700000.0 11309700000.0 11309700000.0 11309700000.0 11309700000.0 11309700000.0 11309700000.0 11309700000.0 11309700000.0 11309700000.0 11309700000.0 11309700000.0 11309700000.0 11309700000.0 11309700000.0 11309700000.0 11309700000.0 11309700000.0 11309700000.0 11309700000.0 11309700000.0 11309700000.0 11309700000.0 11309700000.0 11309700000.0 11309700000.0 11309700000.0 11309700000.0 11309700000.0 11309700000.0 11309700000.0 11309700000.0 11309700000.0 11309700000.0 11309700000.0 11309700000.0 11309700000.0 11309700000.0 11309700000.0 11309700000.0 11309700000.0 11309700000.0 11309700000.0 11309700000.0 11309700000.0 11309700000.0 11309700000.0 11309700000.0 11309700000.0 11309700000.0 11309700000.0 11309700000.0 11309700000.0 11309700000.0 11309700000.0 11309700000.0 11309700000.0 11309700000.0 11309700000.0 11309700000.0 11309700000.0 11309700000.0 11309700000.0 11309700000.0 11309700000.0 11309700000.0 11309700000.0 11309700000.0 11309700000.0 11309700000.0 11309700000.0 11309700000.0 11309700000.0 11309700000.0 11309700000.0 11309700000.0 11309700000.0 11309700000.0 11309700000.0 11309700000.0 11309700000.0 11309700000.0 11309700000.0 11309700000.0 11309700000.0 11309700000.0 11309700000.0 11309700000.0 11309700000.0 11309700000.0 11309700000.0 11309700000.0 11309700000.0 11309700000.0 11309700000.0 11309700000.0 11309700000.0 11309700000.0 11309700000.0 11309700000.0 11309700000.0 11309700000.0 11309700000.0 11309700000.0 11309700000.0 11309700000.0 11309700000.0 11309700000.0 11309700000.0 11309700000.0 11309700000.0 11309700000.0 11309700000.0 11309700000.0 11309700000.0 11309700000.0 11309700000.0 11309700000.0 11309700000.0 11309700000.0 11309700000.0 11309700000.0 11309700000.0 11309700000.0 11309700000.0 11309700000.0 11309700000.0 11309700000.0 11309700000.0 11309700000.0 11309700000.0 11309700000.0 11309700000.0 11309700000.0 11309700000.0 11309700000.0 11309700000.0 11309700000.0 11309700000.0 11309700000.0 11309700000.0 11309700000.0 11309700000.0 11309700000.0 11309700000.0 11309700000.0 11309700000.0 11309700000.0 11309700000.0 11309700000.0 11309700000.0 11309700000.0 11309700000.0 11309700000.0 11309700000.0 11309700000.0 11309700000.0 11309700000.0 11309700000.0 11309700000.0 11309700000.0 11309700000.0 11309700000.0 11309700000.0 11309700000.0 11309700000.0 11309700000.0 11309700000.0 11309700000.0 11309700000.0 11309700000.0 11309700000.0 11309700000.0 11309700000.0 11309700000.0 11309700000.0 11309700000.0 11309700000.0 11309700000.0 11309700000.0 11309700000.0 11309700000.0 11309700000.0 11309700000.0 11309700000.0 11309700000.0 11309700000.0 11309700000.0 11309700000.0 11309700000.0 11309700000.0 11309700000.0 11309700000.0 11309700000.0 11309700000.0 11309700000.0 11309700000.0 11309700000.0 11309700000.0 11309700000.0 11309700000.0 11309700000.0 11309700000.0 11309700000.0 11309700000.0 11309700000.0 11309700000.0 11309700000.0 11309700000.0 11309700000.0 11309700000.0 11309700000.0 11309700000.0 11309700000.0 11309700000.0 11309700000.0 11309700000.0 11309700000.0 11309700000.0 11309700000.0 11309700000.0 11309700000.0 11309700000.0 11309700000.0 11309700000.0 11309700000.0 11309700000.0 11309700000.0 11309700000.0 11309700000.0 11309700000.0 11309700000.0 11309700000.0 11309700000.0 11309700000.0 11309700000.0 11309700000.0 11309700000.0 11309700000.0 11309700000.0 11309700000.0 11309700000.0 11309700000.0 11309700000.0 11309700000.0 11309700000.0 11309700000.0 11309700000.0 11309700000.0 11309700000.0 11309700000.0 11309700000.0 11309700000.0 11309700000.0 11309700000.0 11309700000.0 11309700000.0 11309700000.0 11309700000.0 11309700000.0 11309700000.0 11309700000.0 11309700000.0 11309700000.0 11309700000.0 11309700000.0 11309700000.0 11309700000.0 11309700000.0 11309700000.0 11309700000.0 11309700000.0 11309700000.0 11309700000.0 11309700000.0 11309700000.0 11309700000.0 11309700000.0 11309700000.0 11309700000.0 11309700000.0 11309700000.0 11309700000.0 11309700000.0 11309700000.0 11309700000.0 11309700000.0 11309700000.0 11309700000.0 11309700000.0 11309700000.0 11309700000.0 11309700000.0 11309700000.0 11309700000.0 11309700000.0 11309700000.0 11309700000.0 11309700000.0 11309700000.0 11309700000.0 11309700000.0 11309700000.0 11309700000.0 11309700000.0 11309700000.0 11309700000.0 11309700000.0 11309700000.0 11309700000.0 11309700000.0 11309700000.0 11309700000.0 11309700000.0 11309700000.0 11309700000.0 11309700000.0 11309700000.0 11309700000.0 11309700000.0 11309700000.0 11309700000.0 11309700000.0 11309700000.0 11309700000.0 11309700000.0 11309700000.0 11309700000.0 11309700000.0 11309700000.0 11309700000.0 11309700000.0 11309700000.0 11309700000.0 11309700000.0 11309700000.0 11309700000.0 11309700000.0 11309700000.0 11309700000.0 11309700000.0 11309700000.0 11309700000.0 11309700000.0 11309700000.0 11309700000.0 11309700000.0 11309700000.0 11309700000.0 11309700000.0 11309700000.0 11309700000.0 11309700000.0 11309700000.0 11309700000.0 11309700000.0 11309700000.0 11309700000.0 11309700000.0 11309700000.0 11309700000.0 11309700000.0 11309700000.0 11309700000.0 11309700000.0 11309700000.0 11309700000.0 11309700000.0 11309700000.0 11309700000.0 11309700000.0 11309700000.0 11309700000.0 11309700000.0 11309700000.0 11309700000.0 11309700000.0 11309700000.0 11309700000.0 11309700000.0 11309700000.0 11309700000.0 11309700000.0 11309700000.0 11309700000.0 11309700000.0 11309700000.0 11309700000.0 11309700000.0 11309700000.0 11309700000.0 11309700000.0 11309700000.0 11309700000.0 11309700000.0 11309700000.0 11309700000.0 11309700000.0 11309700000.0 11309700000.0 11309700000.0 11309700000.0 11309700000.0 11309700000.0 11309700000.0 11309700000.0 11309700000.0 11309700000.0 11309700000.0 11309700000.0 11309700000.0 11309700000.0 11309700000.0 11309700000.0 11309700000.0 11309700000.0 11309700000.0 11309700000.0 11309700000.0 11309700000.0 11309700000.0 11309700000.0 11309700000.0 11309700000.0 11309700000.0 11309700000.0 11309700000.0 11309700000.0 11309700000.0 11309700000.0 11309700000.0 11309700000.0 11309700000.0 11309700000.0 11309700000.0 11309700000.0 11309700000.0 11309700000.0 11309700000.0 11309700000.0 11309700000.0 11309700000.0 11309700000.0 11309700000.0 11309700000.0 11309700000.0 11309700000.0 11309700000.0 11309700000.0 11309700000.0 11309700000.0 11309700000.0 11309700000.0 11309700000.0 11309700000.0 11309700000.0 11309700000.0 11309700000.0 11309700000.0 11309700000.0 11309700000.0 11309700000.0 11309700000.0 11309700000.0 11309700000.0 11309700000.0 11309700000.0 11309700000.0 11309700000.0 11309700000.0 11309700000.0 11309700000.0 11309700000.0 11309700000.0 11309700000.0 11309700000.0 11309700000.0 11309700000.0 11309700000.0 11309700000.0 11309700000.0 11309700000.0 11309700000.0 11309700000.0 11309700000.0 11309700000.0 11309700000.0 11309700000.0 11309700000.0 11309700000.0 11309700000.0 11309700000.0 11309700000.0 11309700000.0 11309700000.0 11309700000.0 11309700000.0 11309700000.0 11309700000.0 11309700000.0 11309700000.0 11309700000.0 11309700000.0 11309700000.0 11309700000.0 11309700000.0 11309700000.0 11309700000.0 11309700000.0 11309700000.0 11309700000.0 11309700000.0 11309700000.0 11309700000.0 11309700000.0 11309700000.0 11309700000.0 11309700000.0 11309700000.0 11309700000.0 11309700000.0 11309700000.0 11309700000.0 11309700000.0 11309700000.0 11309700000.0 11309700000.0 11309700000.0 11309700000.0 11309700000.0 11309700000.0 11309700000.0 11309700000.0 11309700000.0 11309700000.0 11309700000.0 11309700000.0 11309700000.0 11309700000.0 11309700000.0 11309700000.0 11309700000.0 11309700000.0 11309700000.0 11309700000.0 11309700000.0 11309700000.0 11309700000.0 11309700000.0 11309700000.0 11309700000.0 11309700000.0 11309700000.0 11309700000.0 11309700000.0 11309700000.0 11309700000.0 11309700000.0 11309700000.0 11309700000.0 11309700000.0 11309700000.0 11309700000.0 11309700000.0 11309700000.0 11309700000.0 11309700000.0 11309700000.0 11309700000.0 11309700000.0 11309700000.0 11309700000.0 11309700000.0 11309700000.0 11309700000.0 11309700000.0 11309700000.0 11309700000.0 11309700000.0 11309700000.0 11309700000.0 11309700000.0 11309700000.0 11309700000.0 11309700000.0 11309700000.0 11309700000.0 11309700000.0 11309700000.0 11309700000.0 11309700000.0 11309700000.0 11309700000.0 11309700000.0 11309700000.0 11309700000.0 11309700000.0 11309700000.0 11309700000.0 11309700000.0 11309700000.0 11309700000.0 11309700000.0 11309700000.0 11309700000.0 11309700000.0 11309700000.0 11309700000.0 11309700000.0 11309700000.0 11309700000.0 11309700000.0 11309700000.0 11309700000.0 11309700000.0 11309700000.0 11309700000.0 11309700000.0 11309700000.0 11309700000.0 11309700000.0 11309700000.0 11309700000.0 11309700000.0 11309700000.0 11309700000.0 11309700000.0 11309700000.0 11309700000.0 11309700000.0 11309700000.0 11309700000.0 11309700000.0 11309700000.0 11309700000.0 11309700000.0 11309700000.0 11309700000.0 11309700000.0 11309700000.0 11309700000.0 11309700000.0 11309700000.0 11309700000.0 11309700000.0 11309700000.0 11309700000.0 11309700000.0 11309700000.0 11309700000.0 11309700000.0 11309700000.0 11309700000.0 11309700000.0 11309700000.0 11309700000.0 11309700000.0 11309700000.0 11309700000.0 11309700000.0 11309700000.0 11309700000.0 11309700000.0 11309700000.0 11309700000.0 11309700000.0 11309700000.0 11309700000.0 11309700000.0 11309700000.0 11309700000.0 11309700000.0 11309700000.0 11309700000.0 11309700000.0 11309700000.0 11309700000.0 11309700000.0 11309700000.0 11309700000.0 11309700000.0 11309700000.0 11309700000.0 11309700000.0 11309700000.0 11309700000.0 11309700000.0 11309700000.0 11309700000.0 11309700000.0 11309700000.0 11309700000.0 11309700000.0 11309700000.0 11309700000.0 11309700000.0 11309700000.0 11309700000.0 11309700000.0 11309700000.0 11309700000.0 11309700000.0 11309700000.0 11309700000.0 11309700000.0 11309700000.0 11309700000.0 11309700000.0 11309700000.0 11309700000.0 11309700000.0 11309700000.0 11309700000.0 11309700000.0 11309700000.0 11309700000.0 11309700000.0 11309700000.0 11309700000.0 11309700000.0 11309700000.0 11309700000.0 11309700000.0 11309700000.0 11309700000.0 11309700000.0 11309700000.0 11309700000.0 11309700000.0 11309700000.0 11309700000.0 11309700000.0 11309700000.0 11309700000.0 11309700000.0 11309700000.0 11309700000.0 11309700000.0 11309700000.0 11309700000.0 11309700000.0 11309700000.0 11309700000.0 11309700000.0 11309700000.0 11309700000.0 11309700000.0 11309700000.0 11309700000.0 11309700000.0 11309700000.0 11309700000.0 11309700000.0 11309700000.0 11309700000.0 11309700000.0 11309700000.0 11309700000.0 11309700000.0 11309700000.0 11309700000.0 11309700000.0 11309700000.0 11309700000.0 11309700000.0 11309700000.0 11309700000.0 11309700000.0 11309700000.0 11309700000.0 11309700000.0 11309700000.0 11309700000.0 11309700000.0 11309700000.0 11309700000.0 11309700000.0 11309700000.0 11309700000.0 11309700000.0 11309700000.0 11309700000.0 11309700000.0 11309700000.0 11309700000.0 11309700000.0 11309700000.0 11309700000.0 11309700000.0 11309700000.0 11309700000.0 11309700000.0 11309700000.0 11309700000.0 11309700000.0 11309700000.0 11309700000.0 11309700000.0 11309700000.0 11309700000.0 11309700000.0 11309700000.0 11309700000.0 11309700000.0 11309700000.0 11309700000.0 11309700000.0 11309700000.0 11309700000.0 11309700000.0 11309700000.0 11309700000.0 11309700000.0 11309700000.0 11309700000.0 11309700000.0 11309700000.0 11309700000.0 11309700000.0 11309700000.0 11309700000.0 11309700000.0 11309700000.0 11309700000.0 11309700000.0 11309700000.0 11309700000.0 11309700000.0 11309700000.0 11309700000.0 11309700000.0 11309700000.0 11309700000.0 11309700000.0 11309700000.0 11309700000.0 11309700000.0 11309700000.0 11309700000.0 11309700000.0 11309700000.0 11309700000.0 11309700000.0 11309700000.0 11309700000.0 11309700000.0 11309700000.0 11309700000.0 11309700000.0 11309700000.0 11309700000.0 11309700000.0 11309700000.0 11309700000.0 11309700000.0 11309700000.0 11309700000.0 11309700000.0 11309700000.0 11309700000.0 11309700000.0 11309700000.0 11309700000.0 11309700000.0 11309700000.0 11309700000.0 11309700000.0 11309700000.0 11309700000.0 11309700000.0 11309700000.0 11309700000.0 11309700000.0 11309700000.0 11309700000.0 11309700000.0 11309700000.0 11309700000.0 11309700000.0 11309700000.0 11309700000.0 11309700000.0 11309700000.0 11309700000.0 11309700000.0 11309700000.0 11309700000.0 11309700000.0 11309700000.0 11309700000.0 11309700000.0 11309700000.0 11309700000.0 11309700000.0 11309700000.0 11309700000.0 11309700000.0 11309700000.0 11309700000.0 11309700000.0 11309700000.0 11309700000.0 11309700000.0 11309700000.0 11309700000.0 11309700000.0 11309700000.0 11309700000.0 11309700000.0 11309700000.0 11309700000.0 11309700000.0 11309700000.0 11309700000.0 11309700000.0 11309700000.0 11309700000.0 11309700000.0 11309700000.0 11309700000.0 11309700000.0 11309700000.0 11309700000.0 11309700000.0 11309700000.0 11309700000.0 11309700000.0 11309700000.0 11309700000.0 11309700000.0 11309700000.0 11309700000.0 11309700000.0 11309700000.0 11309700000.0 11309700000.0 11309700000.0 11309700000.0 11309700000.0 11309700000.0 11309700000.0 11309700000.0 11309700000.0 11309700000.0 11309700000.0 11309700000.0 11309700000.0 11309700000.0 11309700000.0 11309700000.0 11309700000.0 11309700000.0 11309700000.0 11309700000.0 11309700000.0 11309700000.0 11309700000.0 11309700000.0 11309700000.0 11309700000.0 11309700000.0 11309700000.0 11309700000.0 11309700000.0 11309700000.0 11309700000.0 11309700000.0 11309700000.0 11309700000.0 11309700000.0 11309700000.0 11309700000.0 11309700000.0 11309700000.0 11309700000.0 11309700000.0 11309700000.0 11309700000.0 11309700000.0 11309700000.0 11309700000.0 11309700000.0 11309700000.0 11309700000.0 11309700000.0 11309700000.0 11309700000.0 11309700000.0 11309700000.0 11309700000.0 11309700000.0 11309700000.0 11309700000.0 11309700000.0 11309700000.0 11309700000.0 11309700000.0 11309700000.0 11309700000.0 11309700000.0 11309700000.0 11309700000.0 11309700000.0 11309700000.0 11309700000.0 11309700000.0 11309700000.0 11309700000.0 11309700000.0 11309700000.0 11309700000.0 11309700000.0 11309700000.0 11309700000.0 11309700000.0 11309700000.0 11309700000.0 11309700000.0 11309700000.0 11309700000.0 11309700000.0 11309700000.0 11309700000.0 11309700000.0 11309700000.0 11309700000.0 11309700000.0 11309700000.0 11309700000.0 11309700000.0 11309700000.0 11309700000.0 11309700000.0 11309700000.0 11309700000.0 11309700000.0 11309700000.0 11309700000.0 11309700000.0 11309700000.0 11309700000.0 11309700000.0 11309700000.0 11309700000.0 11309700000.0 11309700000.0 11309700000.0 11309700000.0 11309700000.0 11309700000.0 11309700000.0 11309700000.0 11309700000.0 11309700000.0 11309700000.0 11309700000.0 11309700000.0 11309700000.0 11309700000.0 11309700000.0 11309700000.0 11309700000.0 11309700000.0 11309700000.0 11309700000.0 11309700000.0 11309700000.0 11309700000.0 11309700000.0 11309700000.0 11309700000.0 11309700000.0 11309700000.0 11309700000.0 11309700000.0 11309700000.0 11309700000.0 11309700000.0 11309700000.0 11309700000.0 11309700000.0 11309700000.0 11309700000.0 11309700000.0 11309700000.0 11309700000.0 11309700000.0 11309700000.0 11309700000.0 11309700000.0 11309700000.0 11309700000.0 11309700000.0 11309700000.0 11309700000.0 11309700000.0 11309700000.0 11309700000.0 11309700000.0 11309700000.0 11309700000.0 11309700000.0 11309700000.0 11309700000.0 11309700000.0 11309700000.0 11309700000.0 11309700000.0 11309700000.0 11309700000.0 11309700000.0 11309700000.0 11309700000.0 11309700000.0 11309700000.0 11309700000.0 11309700000.0 11309700000.0 11309700000.0 11309700000.0 11309700000.0 11309700000.0 11309700000.0 11309700000.0 11309700000.0 11309700000.0 11309700000.0 11309700000.0 11309700000.0 11309700000.0 11309700000.0 11309700000.0 11309700000.0 11309700000.0 11309700000.0 11309700000.0 11309700000.0 11309700000.0 11309700000.0 11309700000.0 11309700000.0 11309700000.0 11309700000.0 11309700000.0 11309700000.0 11309700000.0 11309700000.0 11309700000.0 11309700000.0 11309700000.0 11309700000.0 11309700000.0 11309700000.0 11309700000.0 11309700000.0 11309700000.0 11309700000.0 11309700000.0 11309700000.0 11309700000.0 11309700000.0 11309700000.0 11309700000.0 11309700000.0 11309700000.0 11309700000.0 11309700000.0 11309700000.0 11309700000.0 11309700000.0 11309700000.0 11309700000.0 11309700000.0 11309700000.0 11309700000.0 11309700000.0 11309700000.0 11309700000.0 11309700000.0 11309700000.0 11309700000.0 11309700000.0 11309700000.0 11309700000.0 11309700000.0 11309700000.0 11309700000.0 11309700000.0 11309700000.0 11309700000.0 11309700000.0 11309700000.0 11309700000.0 11309700000.0 11309700000.0 11309700000.0 11309700000.0 11309700000.0 11309700000.0 11309700000.0 11309700000.0 11309700000.0 11309700000.0 11309700000.0 11309700000.0 11309700000.0 11309700000.0 11309700000.0 11309700000.0 11309700000.0 11309700000.0 11309700000.0 11309700000.0 11309700000.0 11309700000.0 11309700000.0 11309700000.0 11309700000.0 11309700000.0 11309700000.0 11309700000.0 11309700000.0 11309700000.0 11309700000.0 11309700000.0 11309700000.0 11309700000.0 11309700000.0 11309700000.0 11309700000.0 11309700000.0 11309700000.0 11309700000.0 11309700000.0 11309700000.0 11309700000.0 11309700000.0 11309700000.0 11309700000.0 11309700000.0 11309700000.0 11309700000.0 11309700000.0 11309700000.0 11309700000.0 11309700000.0 11309700000.0 11309700000.0 11309700000.0 11309700000.0 11309700000.0 11309700000.0 11309700000.0 11309700000.0 11309700000.0 11309700000.0 11309700000.0 11309700000.0 11309700000.0 11309700000.0 11309700000.0 11309700000.0 11309700000.0 11309700000.0 11309700000.0 11309700000.0 11309700000.0 11309700000.0 11309700000.0 11309700000.0 11309700000.0 11309700000.0 11309700000.0 11309700000.0 11309700000.0 11309700000.0 11309700000.0 11309700000.0 11309700000.0 11309700000.0 11309700000.0 11309700000.0 11309700000.0 11309700000.0 11309700000.0 11309700000.0 11309700000.0 11309700000.0 11309700000.0 11309700000.0 11309700000.0 11309700000.0 11309700000.0 11309700000.0 11309700000.0 11309700000.0 11309700000.0 11309700000.0 11309700000.0 11309700000.0 11309700000.0 11309700000.0 11309700000.0 11309700000.0 11309700000.0 11309700000.0 11309700000.0 11309700000.0 11309700000.0 11309700000.0 11309700000.0 11309700000.0 11309700000.0 11309700000.0 11309700000.0 11309700000.0 11309700000.0 11309700000.0 11309700000.0 11309700000.0 11309700000.0 11309700000.0 11309700000.0 11309700000.0 11309700000.0 11309700000.0 11309700000.0 11309700000.0 11309700000.0 11309700000.0 11309700000.0 11309700000.0 11309700000.0 11309700000.0 11309700000.0 11309700000.0 11309700000.0 11309700000.0 11309700000.0 11309700000.0 11309700000.0 11309700000.0 11309700000.0 11309700000.0 11309700000.0 11309700000.0 11309700000.0 11309700000.0 11309700000.0 11309700000.0 11309700000.0 11309700000.0 11309700000.0 11309700000.0 11309700000.0 11309700000.0 11309700000.0 11309700000.0 11309700000.0 11309700000.0 11309700000.0 11309700000.0 11309700000.0 11309700000.0 11309700000.0 11309700000.0 11309700000.0 11309700000.0 11309700000.0 11309700000.0 11309700000.0 11309700000.0 11309700000.0 11309700000.0 11309700000.0 11309700000.0 11309700000.0 11309700000.0 11309700000.0 11309700000.0 11309700000.0 11309700000.0 11309700000.0 11309700000.0 11309700000.0 11309700000.0 11309700000.0 11309700000.0 11309700000.0 11309700000.0 11309700000.0 11309700000.0 11309700000.0 11309700000.0 11309700000.0 11309700000.0 11309700000.0 11309700000.0 11309700000.0 11309700000.0 11309700000.0 11309700000.0 11309700000.0 11309700000.0 11309700000.0 11309700000.0 11309700000.0 11309700000.0 11309700000.0 11309700000.0 11309700000.0 11309700000.0 11309700000.0 11309700000.0 11309700000.0 11309700000.0 11309700000.0 11309700000.0 11309700000.0 11309700000.0 11309700000.0 11309700000.0 11309700000.0 11309700000.0 11309700000.0 11309700000.0 11309700000.0 11309700000.0 11309700000.0 11309700000.0 11309700000.0 11309700000.0 11309700000.0 11309700000.0 11309700000.0 11309700000.0 11309700000.0 11309700000.0 11309700000.0 11309700000.0 11309700000.0 11309700000.0 11309700000.0 11309700000.0 11309700000.0 11309700000.0 11309700000.0 11309700000.0 11309700000.0 11309700000.0 11309700000.0 11309700000.0 11309700000.0 11309700000.0 11309700000.0 11309700000.0 11309700000.0 11309700000.0 11309700000.0 11309700000.0 11309700000.0 11309700000.0 11309700000.0 11309700000.0 11309700000.0 11309700000.0 11309700000.0 11309700000.0 11309700000.0 11309700000.0 11309700000.0 11309700000.0 11309700000.0 11309700000.0 11309700000.0 11309700000.0 11309700000.0 11309700000.0 11309700000.0 11309700000.0 11309700000.0 11309700000.0 11309700000.0 11309700000.0 11309700000.0 11309700000.0 11309700000.0 11309700000.0 11309700000.0 11309700000.0 11309700000.0 11309700000.0 11309700000.0 11309700000.0 11309700000.0 11309700000.0 11309700000.0 11309700000.0 11309700000.0 11309700000.0 11309700000.0 11309700000.0 11309700000.0 11309700000.0 11309700000.0 11309700000.0 11309700000.0 11309700000.0 11309700000.0 11309700000.0 11309700000.0 11309700000.0 11309700000.0 11309700000.0 11309700000.0 11309700000.0 11309700000.0 11309700000.0 11309700000.0 11309700000.0 11309700000.0 11309700000.0 11309700000.0 11309700000.0 11309700000.0 11309700000.0 11309700000.0 11309700000.0 11309700000.0 11309700000.0 11309700000.0 11309700000.0 11309700000.0 11309700000.0 11309700000.0 11309700000.0 11309700000.0 11309700000.0 11309700000.0 11309700000.0 11309700000.0 11309700000.0 11309700000.0 11309700000.0 11309700000.0 11309700000.0 11309700000.0 11309700000.0 11309700000.0 11309700000.0 11309700000.0 11309700000.0 11309700000.0 11309700000.0 11309700000.0 11309700000.0 11309700000.0 11309700000.0 11309700000.0 11309700000.0 11309700000.0 11309700000.0 11309700000.0 11309700000.0 11309700000.0 11309700000.0 11309700000.0 11309700000.0 11309700000.0 11309700000.0 11309700000.0 11309700000.0 11309700000.0 11309700000.0 11309700000.0 11309700000.0 11309700000.0 11309700000.0 11309700000.0 11309700000.0 11309700000.0 11309700000.0 11309700000.0 11309700000.0 11309700000.0 11309700000.0 11309700000.0 11309700000.0 11309700000.0 11309700000.0 11309700000.0 11309700000.0 11309700000.0 11309700000.0 11309700000.0 11309700000.0 11309700000.0 11309700000.0 11309700000.0 11309700000.0 11309700000.0 11309700000.0 11309700000.0 11309700000.0 11309700000.0 11309700000.0 11309700000.0 11309700000.0 11309700000.0 11309700000.0 11309700000.0 11309700000.0 11309700000.0 11309700000.0 11309700000.0 11309700000.0 11309700000.0 11309700000.0 11309700000.0 11309700000.0 11309700000.0 11309700000.0 11309700000.0 11309700000.0 11309700000.0 11309700000.0 11309700000.0 11309700000.0 11309700000.0 11309700000.0 11309700000.0 11309700000.0 11309700000.0 11309700000.0 11309700000.0 11309700000.0 11309700000.0 11309700000.0 11309700000.0 11309700000.0 11309700000.0 11309700000.0 11309700000.0 11309700000.0 11309700000.0 11309700000.0 11309700000.0 11309700000.0 11309700000.0 11309700000.0 11309700000.0 11309700000.0 11309700000.0 11309700000.0 11309700000.0 11309700000.0 11309700000.0 11309700000.0 11309700000.0 11309700000.0 11309700000.0 11309700000.0 11309700000.0 11309700000.0 11309700000.0 11309700000.0 11309700000.0 11309700000.0 11309700000.0 11309700000.0 11309700000.0 11309700000.0 11309700000.0 11309700000.0 11309700000.0 11309700000.0 11309700000.0 11309700000.0 11309700000.0 11309700000.0 11309700000.0 11309700000.0 11309700000.0 11309700000.0 11309700000.0 11309700000.0 11309700000.0 11309700000.0 11309700000.0 11309700000.0 11309700000.0 11309700000.0 11309700000.0 11309700000.0 11309700000.0 11309700000.0 11309700000.0 11309700000.0 11309700000.0 11309700000.0 11309700000.0 11309700000.0 11309700000.0 11309700000.0 11309700000.0 11309700000.0 11309700000.0 11309700000.0 11309700000.0 11309700000.0 11309700000.0 11309700000.0 11309700000.0 11309700000.0 11309700000.0 11309700000.0 11309700000.0 11309700000.0 11309700000.0 11309700000.0 11309700000.0 11309700000.0 11309700000.0 11309700000.0 11309700000.0 11309700000.0 11309700000.0 11309700000.0 11309700000.0 11309700000.0 11309700000.0 11309700000.0 11309700000.0 11309700000.0 11309700000.0 11309700000.0 11309700000.0 11309700000.0 11309700000.0 11309700000.0 11309700000.0 11309700000.0 11309700000.0 11309700000.0 11309700000.0 11309700000.0 11309700000.0 11309700000.0 11309700000.0 11309700000.0 11309700000.0 11309700000.0 11309700000.0 11309700000.0 11309700000.0 11309700000.0 11309700000.0 11309700000.0 11309700000.0 11309700000.0 11309700000.0 11309700000.0 11309700000.0 11309700000.0 11309700000.0 11309700000.0 11309700000.0 11309700000.0 11309700000.0 11309700000.0 11309700000.0 11309700000.0 11309700000.0 11309700000.0 11309700000.0 11309700000.0 11309700000.0 11309700000.0 11309700000.0 11309700000.0 11309700000.0 11309700000.0 11309700000.0 11309700000.0 11309700000.0 11309700000.0 11309700000.0 11309700000.0 11309700000.0 11309700000.0 11309700000.0 11309700000.0 11309700000.0 11309700000.0 11309700000.0 11309700000.0 11309700000.0 11309700000.0 11309700000.0 11309700000.0 11309700000.0 11309700000.0 11309700000.0 11309700000.0 11309700000.0 11309700000.0 11309700000.0 11309700000.0 11309700000.0 11309700000.0 11309700000.0 11309700000.0 11309700000.0 11309700000.0 11309700000.0 11309700000.0 11309700000.0 11309700000.0 11309700000.0 11309700000.0 11309700000.0 11309700000.0 11309700000.0 11309700000.0 11309700000.0 11309700000.0 11309700000.0 11309700000.0 11309700000.0 11309700000.0 11309700000.0 11309700000.0 11309700000.0 11309700000.0 11309700000.0 11309700000.0 11309700000.0 11309700000.0 11309700000.0 11309700000.0 11309700000.0 11309700000.0 11309700000.0 11309700000.0 11309700000.0 11309700000.0 11309700000.0 11309700000.0 11309700000.0 11309700000.0 11309700000.0 11309700000.0 11309700000.0 11309700000.0 11309700000.0 11309700000.0 11309700000.0 11309700000.0 11309700000.0 11309700000.0 11309700000.0 11309700000.0 11309700000.0 11309700000.0 11309700000.0 11309700000.0 11309700000.0 11309700000.0 11309700000.0 11309700000.0 11309700000.0 11309700000.0 11309700000.0 11309700000.0 11309700000.0 11309700000.0 11309700000.0 11309700000.0 11309700000.0 11309700000.0 11309700000.0 11309700000.0 11309700000.0 11309700000.0 11309700000.0 11309700000.0 11309700000.0 11309700000.0 11309700000.0 11309700000.0 11309700000.0 11309700000.0 11309700000.0 11309700000.0 11309700000.0 11309700000.0 11309700000.0 11309700000.0 11309700000.0 11309700000.0 11309700000.0 11309700000.0 11309700000.0 11309700000.0 11309700000.0 11309700000.0 11309700000.0 11309700000.0 11309700000.0 11309700000.0 11309700000.0 11309700000.0 11309700000.0 11309700000.0 11309700000.0 11309700000.0 11309700000.0 11309700000.0 11309700000.0 11309700000.0 11309700000.0 11309700000.0 11309700000.0 11309700000.0 11309700000.0 11309700000.0 11309700000.0 11309700000.0 11309700000.0 11309700000.0 11309700000.0 11309700000.0 11309700000.0 11309700000.0 11309700000.0 11309700000.0 11309700000.0 11309700000.0 11309700000.0 11309700000.0 11309700000.0 11309700000.0 11309700000.0 11309700000.0 11309700000.0 11309700000.0 11309700000.0 11309700000.0 11309700000.0 11309700000.0 11309700000.0 11309700000.0 11309700000.0 11309700000.0 11309700000.0 11309700000.0 11309700000.0 11309700000.0 11309700000.0 11309700000.0 11309700000.0 11309700000.0 11309700000.0 11309700000.0 11309700000.0 11309700000.0 11309700000.0 11309700000.0 11309700000.0 11309700000.0 11309700000.0 11309700000.0 11309700000.0 11309700000.0 11309700000.0 11309700000.0 11309700000.0 11309700000.0 11309700000.0 11309700000.0 11309700000.0 11309700000.0 11309700000.0 11309700000.0 11309700000.0 11309700000.0 11309700000.0 11309700000.0 11309700000.0 11309700000.0 11309700000.0 11309700000.0 11309700000.0 11309700000.0 11309700000.0 11309700000.0 11309700000.0 11309700000.0 11309700000.0 11309700000.0 11309700000.0 11309700000.0 11309700000.0 11309700000.0 11309700000.0 11309700000.0 11309700000.0 11309700000.0 11309700000.0 11309700000.0 11309700000.0 11309700000.0 11309700000.0 11309700000.0 11309700000.0 11309700000.0 11309700000.0 11309700000.0 11309700000.0 11309700000.0 11309700000.0 11309700000.0 11309700000.0 11309700000.0 11309700000.0 11309700000.0 11309700000.0 11309700000.0 11309700000.0 11309700000.0 11309700000.0 11309700000.0 11309700000.0 11309700000.0 11309700000.0 11309700000.0 11309700000.0 11309700000.0 11309700000.0 11309700000.0 11309700000.0 11309700000.0 11309700000.0 11309700000.0 11309700000.0 11309700000.0 11309700000.0 11309700000.0 11309700000.0 11309700000.0 11309700000.0 11309700000.0 11309700000.0 11309700000.0 11309700000.0 11309700000.0 11309700000.0 11309700000.0 11309700000.0 11309700000.0 11309700000.0 11309700000.0 11309700000.0 11309700000.0 11309700000.0 11309700000.0 11309700000.0 11309700000.0 11309700000.0 11309700000.0 11309700000.0 11309700000.0 11309700000.0 11309700000.0 11309700000.0 11309700000.0 11309700000.0 11309700000.0 11309700000.0 11309700000.0 11309700000.0 11309700000.0 11309700000.0 11309700000.0 11309700000.0 11309700000.0 11309700000.0 11309700000.0 11309700000.0 11309700000.0 11309700000.0 11309700000.0 11309700000.0 11309700000.0 11309700000.0 11309700000.0 11309700000.0 11309700000.0 11309700000.0 11309700000.0 11309700000.0 11309700000.0 11309700000.0 11309700000.0 11309700000.0 11309700000.0 11309700000.0 11309700000.0 11309700000.0 11309700000.0 11309700000.0 11309700000.0 11309700000.0 11309700000.0 11309700000.0 11309700000.0 11309700000.0 11309700000.0 11309700000.0 11309700000.0 11309700000.0 11309700000.0 11309700000.0 11309700000.0 11309700000.0 11309700000.0 11309700000.0 11309700000.0 11309700000.0 11309700000.0 11309700000.0 11309700000.0 11309700000.0 11309700000.0 11309700000.0 11309700000.0 11309700000.0 11309700000.0 11309700000.0 11309700000.0 11309700000.0 11309700000.0 11309700000.0 11309700000.0 11309700000.0 11309700000.0 11309700000.0 11309700000.0 11309700000.0 11309700000.0 11309700000.0 11309700000.0 11309700000.0 11309700000.0 11309700000.0 11309700000.0 11309700000.0 11309700000.0 11309700000.0 11309700000.0 11309700000.0 11309700000.0 11309700000.0 11309700000.0 11309700000.0 11309700000.0 11309700000.0 11309700000.0 11309700000.0 11309700000.0 11309700000.0 11309700000.0 11309700000.0 11309700000.0 11309700000.0 11309700000.0 11309700000.0 11309700000.0 11309700000.0 11309700000.0 11309700000.0 11309700000.0 11309700000.0 11309700000.0 11309700000.0 11309700000.0 11309700000.0 11309700000.0 11309700000.0 11309700000.0 11309700000.0 11309700000.0 11309700000.0 11309700000.0 11309700000.0 11309700000.0 11309700000.0 11309700000.0 11309700000.0 11309700000.0 11309700000.0 11309700000.0 11309700000.0 11309700000.0 11309700000.0 11309700000.0 11309700000.0 11309700000.0 11309700000.0 11309700000.0 11309700000.0 11309700000.0 11309700000.0 11309700000.0 11309700000.0 11309700000.0 11309700000.0 11309700000.0 11309700000.0 11309700000.0 11309700000.0 11309700000.0 11309700000.0 11309700000.0 11309700000.0 11309700000.0 11309700000.0 11309700000.0 11309700000.0 11309700000.0 11309700000.0 11309700000.0 11309700000.0 11309700000.0 11309700000.0 11309700000.0 11309700000.0 11309700000.0 11309700000.0 11309700000.0 11309700000.0 11309700000.0 11309700000.0 11309700000.0 11309700000.0 11309700000.0 11309700000.0 11309700000.0 11309700000.0 11309700000.0 11309700000.0 11309700000.0 11309700000.0 11309700000.0 11309700000.0 11309700000.0 11309700000.0 11309700000.0 11309700000.0 11309700000.0 11309700000.0 11309700000.0 11309700000.0 11309700000.0 11309700000.0 11309700000.0 11309700000.0 11309700000.0 11309700000.0 11309700000.0 11309700000.0 11309700000.0 11309700000.0 11309700000.0 11309700000.0 11309700000.0 11309700000.0 11309700000.0 11309700000.0 11309700000.0 11309700000.0 11309700000.0 11309700000.0 11309700000.0 11309700000.0 11309700000.0 11309700000.0 11309700000.0 11309700000.0 11309700000.0 11309700000.0 11309700000.0 11309700000.0 11309700000.0 11309700000.0 11309700000.0 11309700000.0 11309700000.0 11309700000.0 11309700000.0 11309700000.0 11309700000.0 11309700000.0 11309700000.0 11309700000.0 11309700000.0 11309700000.0 11309700000.0 11309700000.0 11309700000.0 11309700000.0 11309700000.0 11309700000.0 11309700000.0 11309700000.0 11309700000.0 11309700000.0 11309700000.0 11309700000.0 11309700000.0 11309700000.0 11309700000.0 11309700000.0 11309700000.0 11309700000.0 11309700000.0 11309700000.0 11309700000.0 11309700000.0 11309700000.0 11309700000.0 11309700000.0 11309700000.0 11309700000.0 11309700000.0 11309700000.0 11309700000.0 11309700000.0 11309700000.0 11309700000.0 11309700000.0 11309700000.0 11309700000.0 11309700000.0 11309700000.0 11309700000.0 11309700000.0 11309700000.0 11309700000.0 11309700000.0 11309700000.0 11309700000.0 11309700000.0 11309700000.0 11309700000.0 11309700000.0 11309700000.0 11309700000.0 11309700000.0 11309700000.0 11309700000.0 11309700000.0 11309700000.0 11309700000.0 11309700000.0 11309700000.0 11309700000.0 11309700000.0 11309700000.0 11309700000.0 11309700000.0 11309700000.0 11309700000.0 11309700000.0 11309700000.0 11309700000.0 11309700000.0 11309700000.0 11309700000.0 11309700000.0 11309700000.0 11309700000.0 11309700000.0 11309700000.0 11309700000.0 11309700000.0 11309700000.0 11309700000.0 11309700000.0 11309700000.0 11309700000.0 11309700000.0 11309700000.0 11309700000.0 11309700000.0 11309700000.0 11309700000.0 11309700000.0 11309700000.0 11309700000.0 11309700000.0 11309700000.0 11309700000.0 11309700000.0 11309700000.0 11309700000.0 11309700000.0 11309700000.0 11309700000.0 11309700000.0 11309700000.0 11309700000.0 11309700000.0 11309700000.0 11309700000.0 11309700000.0 11309700000.0 11309700000.0 11309700000.0 11309700000.0 11309700000.0 11309700000.0 11309700000.0 11309700000.0 11309700000.0 11309700000.0 11309700000.0 11309700000.0 11309700000.0 11309700000.0 11309700000.0 11309700000.0 11309700000.0 11309700000.0 11309700000.0 11309700000.0 11309700000.0 11309700000.0 11309700000.0 11309700000.0 11309700000.0 11309700000.0 11309700000.0 11309700000.0 11309700000.0 11309700000.0 11309700000.0 11309700000.0 11309700000.0 11309700000.0 11309700000.0 11309700000.0 11309700000.0 11309700000.0 11309700000.0 11309700000.0 11309700000.0 11309700000.0 11309700000.0 11309700000.0 11309700000.0 11309700000.0 11309700000.0 11309700000.0 11309700000.0 11309700000.0 11309700000.0 11309700000.0 11309700000.0 11309700000.0 11309700000.0 11309700000.0 11309700000.0 11309700000.0 11309700000.0 11309700000.0 11309700000.0 11309700000.0 11309700000.0 11309700000.0 11309700000.0 11309700000.0 11309700000.0 11309700000.0 11309700000.0 11309700000.0 11309700000.0 11309700000.0 11309700000.0 11309700000.0 11309700000.0 11309700000.0 11309700000.0 11309700000.0 11309700000.0 11309700000.0 11309700000.0 11309700000.0 11309700000.0 11309700000.0 11309700000.0 11309700000.0 11309700000.0 11309700000.0 11309700000.0 11309700000.0 11309700000.0 11309700000.0 11309700000.0 11309700000.0 11309700000.0 11309700000.0 11309700000.0 11309700000.0 11309700000.0 11309700000.0 11309700000.0 11309700000.0 11309700000.0 11309700000.0 11309700000.0 11309700000.0 11309700000.0 11309700000.0 11309700000.0 11309700000.0 11309700000.0 11309700000.0 11309700000.0 11309700000.0 11309700000.0 11309700000.0 11309700000.0 11309700000.0 11309700000.0 11309700000.0 11309700000.0 11309700000.0 11309700000.0 11309700000.0 11309700000.0 11309700000.0 11309700000.0 11309700000.0 11309700000.0 11309700000.0 11309700000.0 11309700000.0 11309700000.0 11309700000.0 11309700000.0 11309700000.0 11309700000.0 11309700000.0 11309700000.0 11309700000.0 11309700000.0 11309700000.0 11309700000.0 11309700000.0 11309700000.0 11309700000.0 11309700000.0 11309700000.0 11309700000.0 11309700000.0 11309700000.0 11309700000.0 11309700000.0 11309700000.0 11309700000.0 11309700000.0 11309700000.0 11309700000.0 11309700000.0 11309700000.0 11309700000.0 11309700000.0 11309700000.0 11309700000.0 11309700000.0 11309700000.0 11309700000.0 11309700000.0 11309700000.0 11309700000.0 11309700000.0 11309700000.0 11309700000.0 11309700000.0 11309700000.0 11309700000.0 11309700000.0 11309700000.0 11309700000.0 11309700000.0 11309700000.0 11309700000.0 11309700000.0 11309700000.0 11309700000.0 11309700000.0 11309700000.0 11309700000.0 11309700000.0 11309700000.0 11309700000.0 11309700000.0 11309700000.0 11309700000.0 11309700000.0 11309700000.0 11309700000.0 11309700000.0 11309700000.0 11309700000.0 11309700000.0 11309700000.0 11309700000.0 11309700000.0 11309700000.0 11309700000.0 11309700000.0 11309700000.0 11309700000.0 11309700000.0 11309700000.0 11309700000.0 11309700000.0 11309700000.0 11309700000.0 11309700000.0 11309700000.0 11309700000.0 11309700000.0 11309700000.0 11309700000.0 11309700000.0 11309700000.0 11309700000.0 11309700000.0 11309700000.0 11309700000.0 11309700000.0 11309700000.0 11309700000.0 11309700000.0 11309700000.0 11309700000.0 11309700000.0 11309700000.0 11309700000.0 11309700000.0 11309700000.0 11309700000.0 11309700000.0 11309700000.0 11309700000.0 11309700000.0 11309700000.0 11309700000.0 11309700000.0 11309700000.0 11309700000.0 11309700000.0 11309700000.0 11309700000.0 11309700000.0 11309700000.0 11309700000.0 11309700000.0 11309700000.0 11309700000.0 11309700000.0 11309700000.0 11309700000.0 11309700000.0 11309700000.0 11309700000.0 11309700000.0 11309700000.0 11309700000.0 11309700000.0 11309700000.0 11309700000.0 11309700000.0 11309700000.0 11309700000.0 11309700000.0 11309700000.0 11309700000.0 11309700000.0 11309700000.0 11309700000.0 11309700000.0 11309700000.0 11309700000.0 11309700000.0 11309700000.0 11309700000.0 11309700000.0 11309700000.0 11309700000.0 11309700000.0 11309700000.0 11309700000.0 11309700000.0 11309700000.0 11309700000.0 11309700000.0 11309700000.0 11309700000.0 11309700000.0 11309700000.0 11309700000.0 11309700000.0 11309700000.0 11309700000.0 11309700000.0 11309700000.0 11309700000.0 11309700000.0 11309700000.0 11309700000.0 11309700000.0 11309700000.0 11309700000.0 11309700000.0 11309700000.0 11309700000.0 11309700000.0 11309700000.0 11309700000.0 11309700000.0 11309700000.0 11309700000.0 11309700000.0 11309700000.0 11309700000.0 11309700000.0 11309700000.0 11309700000.0 11309700000.0 11309700000.0 11309700000.0 11309700000.0 11309700000.0 11309700000.0 11309700000.0 11309700000.0 11309700000.0 11309700000.0 11309700000.0 11309700000.0 11309700000.0 11309700000.0 11309700000.0 11309700000.0 11309700000.0 11309700000.0 11309700000.0 11309700000.0 11309700000.0 11309700000.0 11309700000.0 11309700000.0 11309700000.0 11309700000.0 11309700000.0 11309700000.0 11309700000.0 11309700000.0 11309700000.0 11309700000.0 11309700000.0 11309700000.0 11309700000.0 11309700000.0 11309700000.0 11309700000.0 11309700000.0 11309700000.0 11309700000.0 11309700000.0 11309700000.0 11309700000.0 11309700000.0 11309700000.0 11309700000.0 11309700000.0 11309700000.0 11309700000.0 11309700000.0 11309700000.0 11309700000.0 11309700000.0 11309700000.0 11309700000.0 11309700000.0 11309700000.0 11309700000.0 11309700000.0 11309700000.0 11309700000.0 11309700000.0 11309700000.0 11309700000.0 11309700000.0 11309700000.0 11309700000.0 11309700000.0 11309700000.0 11309700000.0 11309700000.0 11309700000.0 11309700000.0 11309700000.0 11309700000.0 11309700000.0 11309700000.0 11309700000.0 11309700000.0 11309700000.0 11309700000.0 11309700000.0 11309700000.0 11309700000.0 11309700000.0 11309700000.0 11309700000.0 11309700000.0 11309700000.0 11309700000.0 11309700000.0 11309700000.0 11309700000.0 11309700000.0 11309700000.0 11309700000.0 11309700000.0 11309700000.0 11309700000.0 11309700000.0 11309700000.0 11309700000.0 11309700000.0 11309700000.0 11309700000.0 11309700000.0 11309700000.0 11309700000.0 11309700000.0 11309700000.0 11309700000.0 11309700000.0 11309700000.0 11309700000.0 11309700000.0 11309700000.0 11309700000.0 11309700000.0 11309700000.0 11309700000.0 11309700000.0 11309700000.0 11309700000.0 11309700000.0 11309700000.0 11309700000.0 11309700000.0 11309700000.0 11309700000.0 11309700000.0 11309700000.0 11309700000.0 11309700000.0 11309700000.0 11309700000.0 11309700000.0 11309700000.0 11309700000.0 11309700000.0 11309700000.0 11309700000.0 11309700000.0 11309700000.0 11309700000.0 11309700000.0 11309700000.0 11309700000.0 11309700000.0 11309700000.0 11309700000.0 11309700000.0 11309700000.0 11309700000.0 11309700000.0 11309700000.0 11309700000.0 11309700000.0 11309700000.0 11309700000.0 11309700000.0 11309700000.0 11309700000.0 11309700000.0 11309700000.0 11309700000.0 11309700000.0 11309700000.0 11309700000.0 11309700000.0 11309700000.0 11309700000.0 11309700000.0 11309700000.0 11309700000.0 11309700000.0 11309700000.0 11309700000.0 11309700000.0 11309700000.0 11309700000.0 11309700000.0 11309700000.0 11309700000.0 11309700000.0 11309700000.0 11309700000.0 11309700000.0 11309700000.0 11309700000.0 11309700000.0 11309700000.0 11309700000.0 11309700000.0 11309700000.0 11309700000.0 11309700000.0 11309700000.0 11309700000.0 11309700000.0 11309700000.0 11309700000.0 11309700000.0 11309700000.0 11309700000.0 11309700000.0 11309700000.0 11309700000.0 11309700000.0 11309700000.0 11309700000.0 11309700000.0 11309700000.0 11309700000.0 11309700000.0 11309700000.0 11309700000.0 11309700000.0 11309700000.0 11309700000.0 11309700000.0 11309700000.0 11309700000.0 11309700000.0 11309700000.0 11309700000.0 11309700000.0 11309700000.0 11309700000.0 11309700000.0 11309700000.0 11309700000.0 11309700000.0 11309700000.0 11309700000.0 11309700000.0 11309700000.0 11309700000.0 11309700000.0 11309700000.0 11309700000.0 11309700000.0 11309700000.0 11309700000.0 11309700000.0 11309700000.0 11309700000.0 11309700000.0 11309700000.0 11309700000.0 11309700000.0 11309700000.0 11309700000.0 11309700000.0 11309700000.0 11309700000.0 11309700000.0 11309700000.0 11309700000.0 11309700000.0 11309700000.0 11309700000.0 11309700000.0 11309700000.0 11309700000.0 11309700000.0 11309700000.0 11309700000.0 11309700000.0 11309700000.0 11309700000.0 11309700000.0 11309700000.0 11309700000.0 11309700000.0 11309700000.0 11309700000.0 11309700000.0 11309700000.0 11309700000.0 11309700000.0 11309700000.0 11309700000.0 11309700000.0 11309700000.0 11309700000.0 11309700000.0 11309700000.0 11309700000.0 11309700000.0 11309700000.0 11309700000.0 11309700000.0 11309700000.0 11309700000.0 11309700000.0 11309700000.0 11309700000.0 11309700000.0 11309700000.0 11309700000.0 11309700000.0 11309700000.0 11309700000.0 11309700000.0 11309700000.0 11309700000.0 11309700000.0 11309700000.0 11309700000.0 11309700000.0 11309700000.0 11309700000.0 11309700000.0 11309700000.0 11309700000.0 11309700000.0 11309700000.0 11309700000.0 11309700000.0 11309700000.0 11309700000.0 11309700000.0 11309700000.0 11309700000.0 11309700000.0 11309700000.0 11309700000.0 11309700000.0 11309700000.0 11309700000.0 11309700000.0 11309700000.0 11309700000.0 11309700000.0 11309700000.0 11309700000.0 11309700000.0 11309700000.0 11309700000.0 11309700000.0 11309700000.0 11309700000.0 11309700000.0 11309700000.0 11309700000.0 11309700000.0 11309700000.0 11309700000.0 11309700000.0 11309700000.0 11309700000.0 11309700000.0 11309700000.0 11309700000.0 11309700000.0 11309700000.0 11309700000.0 11309700000.0 11309700000.0 11309700000.0 11309700000.0 11309700000.0 11309700000.0 11309700000.0 11309700000.0 11309700000.0 11309700000.0 11309700000.0 11309700000.0 11309700000.0 11309700000.0 11309700000.0 11309700000.0 11309700000.0 11309700000.0 11309700000.0 11309700000.0 11309700000.0 11309700000.0 11309700000.0 11309700000.0 11309700000.0 11309700000.0 11309700000.0 11309700000.0 11309700000.0 11309700000.0 11309700000.0 11309700000.0 11309700000.0 11309700000.0 11309700000.0 11309700000.0 11309700000.0 11309700000.0 11309700000.0 11309700000.0 11309700000.0 11309700000.0 11309700000.0 11309700000.0 11309700000.0 11309700000.0 11309700000.0 11309700000.0 11309700000.0 11309700000.0 11309700000.0 11309700000.0 11309700000.0 11309700000.0 11309700000.0 11309700000.0 11309700000.0 11309700000.0 11309700000.0 11309700000.0 11309700000.0 11309700000.0 11309700000.0 11309700000.0 11309700000.0 11309700000.0 11309700000.0 11309700000.0 11309700000.0 11309700000.0 11309700000.0 11309700000.0 11309700000.0 11309700000.0 11309700000.0 11309700000.0 11309700000.0 11309700000.0 11309700000.0 11309700000.0 11309700000.0 11309700000.0 11309700000.0 11309700000.0 11309700000.0 11309700000.0 11309700000.0 11309700000.0 11309700000.0 11309700000.0 11309700000.0 11309700000.0 11309700000.0 11309700000.0 11309700000.0 11309700000.0 11309700000.0 11309700000.0 11309700000.0 11309700000.0 11309700000.0 11309700000.0 11309700000.0 11309700000.0 11309700000.0 11309700000.0 11309700000.0 11309700000.0 11309700000.0 11309700000.0 11309700000.0 11309700000.0 11309700000.0 11309700000.0 11309700000.0 11309700000.0 11309700000.0 11309700000.0 11309700000.0 11309700000.0 11309700000.0 11309700000.0 11309700000.0 11309700000.0 11309700000.0 11309700000.0 11309700000.0 11309700000.0 11309700000.0 11309700000.0 11309700000.0 11309700000.0 11309700000.0 11309700000.0 11309700000.0 11309700000.0 11309700000.0 11309700000.0 11309700000.0 11309700000.0 11309700000.0 11309700000.0 11309700000.0 11309700000.0 11309700000.0 11309700000.0 11309700000.0 11309700000.0 11309700000.0 11309700000.0 11309700000.0 11309700000.0 11309700000.0 11309700000.0 11309700000.0 11309700000.0 11309700000.0 11309700000.0 11309700000.0 11309700000.0 11309700000.0 11309700000.0 11309700000.0 11309700000.0 11309700000.0 11309700000.0 11309700000.0 11309700000.0 11309700000.0 11309700000.0 11309700000.0 11309700000.0 11309700000.0 11309700000.0 11309700000.0 11309700000.0 11309700000.0 11309700000.0 11309700000.0 11309700000.0 11309700000.0 11309700000.0 11309700000.0 11309700000.0 11309700000.0 11309700000.0 11309700000.0 11309700000.0 11309700000.0 11309700000.0 11309700000.0 11309700000.0 11309700000.0 11309700000.0 11309700000.0 11309700000.0 11309700000.0 11309700000.0 11309700000.0 11309700000.0 11309700000.0 11309700000.0 11309700000.0 11309700000.0 11309700000.0 11309700000.0 11309700000.0 11309700000.0 11309700000.0 11309700000.0 11309700000.0 11309700000.0 11309700000.0 11309700000.0 11309700000.0 11309700000.0 11309700000.0 11309700000.0 11309700000.0 11309700000.0 11309700000.0 11309700000.0 11309700000.0 11309700000.0 11309700000.0 11309700000.0 11309700000.0 11309700000.0 11309700000.0 11309700000.0 11309700000.0 11309700000.0 11309700000.0 11309700000.0 11309700000.0 11309700000.0 11309700000.0 11309700000.0 11309700000.0 11309700000.0 11309700000.0 11309700000.0 11309700000.0 11309700000.0 11309700000.0 11309700000.0 11309700000.0 11309700000.0 11309700000.0 11309700000.0 11309700000.0 11309700000.0 11309700000.0 11309700000.0 11309700000.0 11309700000.0 11309700000.0 11309700000.0 11309700000.0 11309700000.0 11309700000.0 11309700000.0 11309700000.0 11309700000.0 11309700000.0 11309700000.0 11309700000.0 11309700000.0 11309700000.0 11309700000.0 11309700000.0 11309700000.0 11309700000.0 11309700000.0 11309700000.0 11309700000.0 11309700000.0 11309700000.0 11309700000.0 11309700000.0 11309700000.0 11309700000.0 11309700000.0 11309700000.0 11309700000.0 11309700000.0 11309700000.0 11309700000.0 11309700000.0 11309700000.0 11309700000.0 11309700000.0 11309700000.0 11309700000.0 11309700000.0 11309700000.0 11309700000.0 11309700000.0 11309700000.0 11309700000.0 11309700000.0 11309700000.0 11309700000.0 11309700000.0 11309700000.0 11309700000.0 11309700000.0 11309700000.0 11309700000.0 11309700000.0 11309700000.0 11309700000.0 11309700000.0 11309700000.0 11309700000.0 11309700000.0 11309700000.0 11309700000.0 11309700000.0 11309700000.0 11309700000.0 11309700000.0 11309700000.0 11309700000.0 11309700000.0 11309700000.0 11309700000.0 11309700000.0 11309700000.0 11309700000.0 11309700000.0 11309700000.0 11309700000.0 11309700000.0 11309700000.0 11309700000.0 11309700000.0 11309700000.0 11309700000.0 11309700000.0 11309700000.0 11309700000.0 11309700000.0 11309700000.0 11309700000.0 11309700000.0 11309700000.0 11309700000.0 11309700000.0 11309700000.0 11309700000.0 11309700000.0 11309700000.0 11309700000.0 11309700000.0 11309700000.0 11309700000.0 11309700000.0 11309700000.0 11309700000.0 11309700000.0 11309700000.0 11309700000.0 11309700000.0 11309700000.0 11309700000.0 11309700000.0 11309700000.0 11309700000.0 11309700000.0 11309700000.0 11309700000.0 11309700000.0 11309700000.0 11309700000.0 11309700000.0 11309700000.0 11309700000.0 11309700000.0 11309700000.0 11309700000.0 11309700000.0 11309700000.0 11309700000.0 11309700000.0 11309700000.0 11309700000.0 11309700000.0 11309700000.0 11309700000.0 11309700000.0 11309700000.0 11309700000.0 11309700000.0 11309700000.0 11309700000.0 11309700000.0 11309700000.0 11309700000.0 11309700000.0 11309700000.0 11309700000.0 11309700000.0 11309700000.0 11309700000.0 11309700000.0 11309700000.0 11309700000.0 11309700000.0 11309700000.0 11309700000.0 11309700000.0 11309700000.0 11309700000.0 11309700000.0 11309700000.0 11309700000.0 11309700000.0 11309700000.0 11309700000.0 11309700000.0 11309700000.0 11309700000.0 11309700000.0 11309700000.0 11309700000.0 11309700000.0 11309700000.0 11309700000.0 11309700000.0 11309700000.0 11309700000.0 11309700000.0 11309700000.0 11309700000.0 11309700000.0 11309700000.0 11309700000.0 11309700000.0 11309700000.0 11309700000.0 11309700000.0 11309700000.0 11309700000.0 11309700000.0 11309700000.0 11309700000.0 11309700000.0 11309700000.0 11309700000.0 11309700000.0 11309700000.0 11309700000.0 11309700000.0 11309700000.0 11309700000.0 11309700000.0 11309700000.0 11309700000.0 11309700000.0 11309700000.0 11309700000.0 11309700000.0 11309700000.0 11309700000.0 11309700000.0 11309700000.0 11309700000.0 11309700000.0 11309700000.0 11309700000.0 11309700000.0 11309700000.0 11309700000.0 11309700000.0 11309700000.0 11309700000.0 11309700000.0 11309700000.0 11309700000.0 11309700000.0 11309700000.0 11309700000.0 11309700000.0 11309700000.0 11309700000.0 11309700000.0 11309700000.0 11309700000.0 11309700000.0 11309700000.0 11309700000.0 11309700000.0 11309700000.0 11309700000.0 11309700000.0 11309700000.0 11309700000.0 11309700000.0 11309700000.0 11309700000.0 11309700000.0 11309700000.0 11309700000.0 11309700000.0 11309700000.0 11309700000.0 11309700000.0 11309700000.0 11309700000.0 11309700000.0 11309700000.0 11309700000.0 11309700000.0 11309700000.0 11309700000.0 11309700000.0 11309700000.0 11309700000.0 11309700000.0 11309700000.0 11309700000.0 11309700000.0 11309700000.0 11309700000.0 11309700000.0 11309700000.0 11309700000.0 11309700000.0 11309700000.0 11309700000.0 11309700000.0 11309700000.0 11309700000.0 11309700000.0 11309700000.0 11309700000.0 11309700000.0 11309700000.0 11309700000.0 11309700000.0 11309700000.0 11309700000.0 11309700000.0 11309700000.0 11309700000.0 11309700000.0 11309700000.0 11309700000.0 11309700000.0 11309700000.0 11309700000.0 11309700000.0 11309700000.0 11309700000.0 11309700000.0 11309700000.0 11309700000.0 11309700000.0 11309700000.0 11309700000.0 11309700000.0 11309700000.0 11309700000.0 11309700000.0 11309700000.0 11309700000.0 11309700000.0 11309700000.0 11309700000.0 11309700000.0 11309700000.0 11309700000.0 11309700000.0 11309700000.0 11309700000.0 11309700000.0 11309700000.0 11309700000.0 11309700000.0 11309700000.0 11309700000.0 11309700000.0 11309700000.0 11309700000.0 11309700000.0 11309700000.0 11309700000.0 11309700000.0 11309700000.0 11309700000.0 11309700000.0 11309700000.0 11309700000.0 11309700000.0 11309700000.0 11309700000.0 11309700000.0 11309700000.0 11309700000.0 11309700000.0 11309700000.0 11309700000.0 11309700000.0 11309700000.0 11309700000.0 11309700000.0 11309700000.0 11309700000.0 11309700000.0 11309700000.0 11309700000.0 11309700000.0 11309700000.0 11309700000.0 11309700000.0 11309700000.0 11309700000.0 11309700000.0 11309700000.0 11309700000.0 11309700000.0 11309700000.0 11309700000.0 11309700000.0 11309700000.0 11309700000.0 11309700000.0 11309700000.0 11309700000.0 11309700000.0 11309700000.0 11309700000.0 11309700000.0 11309700000.0 11309700000.0 11309700000.0 11309700000.0 11309700000.0 11309700000.0 11309700000.0 11309700000.0 11309700000.0 11309700000.0 11309700000.0 11309700000.0 11309700000.0 11309700000.0 11309700000.0 11309700000.0 11309700000.0 11309700000.0 11309700000.0 11309700000.0 11309700000.0 11309700000.0 11309700000.0 11309700000.0 11309700000.0 11309700000.0 11309700000.0 11309700000.0 11309700000.0 11309700000.0 11309700000.0 11309700000.0 11309700000.0 11309700000.0 11309700000.0 11309700000.0 11309700000.0 11309700000.0 11309700000.0 11309700000.0 11309700000.0 11309700000.0 11309700000.0 11309700000.0 11309700000.0 11309700000.0 11309700000.0 11309700000.0 11309700000.0 11309700000.0 11309700000.0 11309700000.0 11309700000.0 11309700000.0 11309700000.0 11309700000.0 11309700000.0 11309700000.0 11309700000.0 11309700000.0 11309700000.0 11309700000.0 11309700000.0 11309700000.0 11309700000.0 11309700000.0 11309700000.0 11309700000.0 11309700000.0 11309700000.0 11309700000.0 11309700000.0 11309700000.0 11309700000.0 11309700000.0 11309700000.0 11309700000.0 11309700000.0 11309700000.0 11309700000.0 11309700000.0 11309700000.0 11309700000.0 11309700000.0 11309700000.0 11309700000.0 11309700000.0 11309700000.0 11309700000.0 11309700000.0 11309700000.0 11309700000.0 11309700000.0 11309700000.0 11309700000.0 11309700000.0 11309700000.0 11309700000.0 11309700000.0 11309700000.0 11309700000.0 11309700000.0 11309700000.0 11309700000.0 11309700000.0 11309700000.0 11309700000.0 11309700000.0 11309700000.0 11309700000.0 11309700000.0 11309700000.0 11309700000.0 11309700000.0 11309700000.0 11309700000.0 11309700000.0 11309700000.0 11309700000.0 11309700000.0 11309700000.0 11309700000.0 11309700000.0 11309700000.0 11309700000.0 11309700000.0 11309700000.0 11309700000.0 11309700000.0 11309700000.0 11309700000.0 11309700000.0 11309700000.0 11309700000.0 11309700000.0 11309700000.0 11309700000.0 11309700000.0 11309700000.0 11309700000.0 11309700000.0 11309700000.0 11309700000.0 11309700000.0 11309700000.0 11309700000.0 11309700000.0 11309700000.0 11309700000.0 11309700000.0 11309700000.0 11309700000.0 11309700000.0 11309700000.0 11309700000.0 11309700000.0 11309700000.0 11309700000.0 11309700000.0 11309700000.0 11309700000.0 11309700000.0 11309700000.0 11309700000.0 11309700000.0 11309700000.0 11309700000.0 11309700000.0 11309700000.0 11309700000.0 11309700000.0 11309700000.0 11309700000.0 11309700000.0 11309700000.0 11309700000.0 11309700000.0 11309700000.0 11309700000.0 11309700000.0 11309700000.0 11309700000.0 11309700000.0 11309700000.0 11309700000.0 11309700000.0 11309700000.0 11309700000.0 11309700000.0 11309700000.0 11309700000.0 11309700000.0 11309700000.0 11309700000.0 11309700000.0 11309700000.0 11309700000.0 11309700000.0 11309700000.0 11309700000.0 11309700000.0 11309700000.0 11309700000.0 11309700000.0 11309700000.0 11309700000.0 11309700000.0 11309700000.0 11309700000.0 11309700000.0 11309700000.0 11309700000.0 11309700000.0 11309700000.0 11309700000.0 11309700000.0 11309700000.0 11309700000.0 11309700000.0 11309700000.0 11309700000.0 11309700000.0 11309700000.0 11309700000.0 11309700000.0 11309700000.0 11309700000.0 11309700000.0 11309700000.0 11309700000.0 11309700000.0 11309700000.0 11309700000.0 11309700000.0 11309700000.0 11309700000.0 11309700000.0 11309700000.0 11309700000.0 11309700000.0 11309700000.0 11309700000.0 11309700000.0 11309700000.0 11309700000.0 11309700000.0 11309700000.0 11309700000.0 11309700000.0 11309700000.0 11309700000.0 11309700000.0 11309700000.0 11309700000.0 11309700000.0 11309700000.0 11309700000.0 11309700000.0 11309700000.0 11309700000.0 11309700000.0 11309700000.0 11309700000.0 11309700000.0 11309700000.0 11309700000.0 11309700000.0 11309700000.0 11309700000.0 11309700000.0 11309700000.0 11309700000.0 11309700000.0 11309700000.0 11309700000.0 11309700000.0 11309700000.0 11309700000.0 11309700000.0 11309700000.0 11309700000.0 11309700000.0 11309700000.0 11309700000.0 11309700000.0 11309700000.0 11309700000.0 11309700000.0 11309700000.0 11309700000.0 11309700000.0 11309700000.0 11309700000.0 11309700000.0 11309700000.0 11309700000.0 11309700000.0 11309700000.0 11309700000.0 11309700000.0 11309700000.0 11309700000.0 11309700000.0 11309700000.0 11309700000.0 11309700000.0 11309700000.0 11309700000.0 11309700000.0 11309700000.0 11309700000.0 11309700000.0 11309700000.0 11309700000.0 11309700000.0 11309700000.0 11309700000.0 11309700000.0 11309700000.0 11309700000.0 11309700000.0 11309700000.0 11309700000.0 11309700000.0 11309700000.0 11309700000.0 11309700000.0 11309700000.0 11309700000.0 11309700000.0 11309700000.0 11309700000.0 
SCALARS Velocity float 1
LOOKUP_TABLE default
1.10722 1.07092 1.08657 1.08781 1.0883 1.10152 1.09525 1.10933 1.10773 1.10662 1.10755 1.04013 1.05933 1.06995 1.07043 1.06698 1.08521 1.08714 1.08889 1.10972 1.10949 1.1103 1.10854 1.10701 1.10639 1.10892 1.01895 1.05479 1.07081 1.06869 1.06715 1.08589 1.08734 1.09633 1.11017 1.11144 1.10934 1.10768 1.10632 1.10606 1.10746 1.10922 1.01841 1.07519 1.07144 1.07103 1.06986 1.06841 1.06712 1.06687 1.06683 1.08498 1.0864 1.08812 1.09752 1.10967 1.11024 1.10919 1.10853 1.10784 1.10685 1.10597 1.10651 1.03246 1.07238 1.06965 1.0673 1.06662 1.08426 1.08527 1.08589 1.08712 1.08749 1.11019 1.11023 1.11086 1.10926 1.1089 1.10696 1.1051 1.10866 1.03245 1.03374 1.07573 1.07097 1.06837 1.06682 1.08431 1.08699 1.09891 1.10997 1.10958 1.10969 1.10834 1.10587 1.10451 1.10594 1.08432 1.07917 1.07596 1.07294 1.07141 1.06966 1.06854 1.06744 1.06688 1.06655 1.08299 1.08487 1.08776 1.10079 1.10597 1.11031 1.11091 1.1097 1.10895 1.10735 1.10619 1.1048 1.10425 1.09717 1.08031 1.07398 1.07016 1.06766 1.06655 1.08122 1.08265 1.08288 1.08658 1.08911 1.08911 1.09968 1.10549 1.10953 1.11127 1.11056 1.10764 1.10529 1.10035 1.08838 1.07798 1.07255 1.06903 1.067 1.08045 1.08604 1.08011 1.09798 1.10945 1.11186 1.10912 1.1063 1.10368 1.09675 1.08425 1.07623 1.07457 1.07119 1.06979 1.068 1.06709 1.06653 1.07937 1.07993 1.07586 1.08807 1.10379 1.11193 1.11076 1.10812 1.10716 1.10546 1.10503 1.10392 1.10109 1.09887 1.09187 1.08888 1.08176 1.07965 1.07274 1.06836 1.06638 1.07731 1.07849 1.07594 1.07334 1.07505 1.07997 1.08546 1.095 1.10122 1.10904 1.11243 1.11225 1.10971 1.10525 1.10466 1.10318 1.09657 1.08653 1.07734 1.07069 1.06701 1.07562 1.07325 1.07803 1.09086 1.10893 1.11188 1.10515 1.10371 1.10508 1.10317 1.09473 1.08393 1.07459 1.07148 1.06854 1.06655 1.06594 1.07503 1.07375 1.07403 1.08136 1.09738 1.1133 1.10668 1.09952 1.10155 1.10111 1.10432 1.10709 1.10681 1.10972 1.10308 1.10217 1.09244 1.08896 1.08058 1.07647 1.06829 1.06498 1.07331 1.07351 1.07233 1.07261 1.07315 1.07553 1.07644 1.08455 1.09003 1.11014 1.11488 1.1104 1.10089 1.09612 1.10402 1.1118 1.11156 1.09952 1.08412 1.07186 1.0654 1.07211 1.07193 1.07425 1.07543 1.11428 1.10673 1.09111 1.09817 1.10391 1.10948 1.11686 1.11833 1.11114 1.0947 1.07816 1.07148 1.06725 1.06318 1.06317 1.07224 1.07119 1.0713 1.07267 1.07485 1.0732 1.11455 1.09288 1.08094 1.09016 1.09667 1.11057 1.12816 1.12155 1.12098 1.10769 1.10142 1.08794 1.07952 1.06502 1.06014 1.07179 1.07027 1.07119 1.07218 1.07416 1.07499 1.07322 1.06344 1.04427 1.02598 1.10372 1.08602 1.08632 1.10524 1.11688 1.13075 1.11755 1.09224 1.07001 1.05955 1.07053 1.06985 1.07421 1.06813 1.04209 1.01758 1.07168 1.08798 1.09785 1.10452 1.1125 1.12301 1.12866 1.1288 1.13302 1.13001 1.10973 1.09786 1.0807 1.06715 1.06129 1.05399 1.05533 1.07214 1.07018 1.06883 1.06714 1.07048 1.07262 1.07521 1.05625 1.02363 1.05835 1.09235 1.11339 1.13407 1.12004 1.12099 1.0825 1.05565 1.0477 1.07387 1.06678 1.0665 1.0761 1.06179 1.04866 1.03656 1.07575 1.05795 1.05787 1.07223 1.09875 1.12489 1.13725 1.10051 1.07492 1.1066 1.0623 1.0459 1.07084 1.06246 1.06929 1.05513 1.09537 1.06057 1.06472 1.08001 1.08786 1.10815 1.11971 1.13588 1.13949 1.12758 1.10545 1.05132 1.08685 1.05425 1.04792 1.03503 1.03531 1.07809 1.07404 1.06505 1.05767 1.05933 1.06102 1.07875 1.10848 1.07531 1.06438 1.05842 1.07063 1.09661 1.13102 1.12518 1.07862 1.03526 1.02641 1.04034 1.01371 1.08617 1.06579 1.05284 1.07761 1.11681 1.11197 1.10465 1.09205 1.0779 1.05977 1.06066 1.06306 1.07599 1.10615 1.13565 1.11328 1.10042 1.07663 1.05617 1.04074 1.03892 1.01918 1.09846 1.08148 1.07099 1.05563 1.04884 1.05654 1.08716 1.11443 1.09244 1.06766 1.05818 1.06258 1.07962 1.08422 1.11917 1.12983 1.08908 1.06077 1.03548 1.03763 1.026 0.999953 0.98045 1.09149 1.05656 1.04661 1.11786 1.10473 1.09188 1.07989 1.0684 1.06095 1.05637 1.05894 1.10301 1.08853 1.07001 1.07407 1.07064 1.05111 1.04708 1.02321 0.940023 1.11263 1.07407 1.04669 1.0445 1.08177 1.10743 1.11067 1.11156 1.09995 1.0782 1.05799 1.05617 1.05114 1.05171 1.05221 1.12813 1.03203 1.07891 1.0616 1.05115 0.982865 0.904604 1.12097 1.09955 1.06935 1.10751 1.09245 1.10126 1.08611 1.06448 1.04896 1.04548 1.04192 1.01164 1.08536 1.04288 1.15459 1.05379 1.07762 1.06482 1.08055 1.04292 0.989517 1.09389 1.14902 1.0923 1.07237 1.07301 1.09132 1.08435 1.08916 1.07514 1.07092 1.05438 1.05038 1.03603 1.03929 1.0327 0.967531 1.1359 1.07462 1.07606 1.06473 1.08608 1.09373 0.903711 1.11607 1.1668 1.1844 1.1289 1.05838 1.07147 1.07461 1.05884 1.03689 1.01873 1.02421 0.989477 0.998033 1.07609 1.12682 1.06796 1.11942 1.14779 1.04524 0.960664 1.11702 1.18071 1.14156 1.0945 1.05307 1.0686 1.06149 1.03999 1.01743 0.997262 0.99435 0.975126 0.968056 1.02538 1.07347 1.07935 1.07348 1.082 1.2187 1.20576 1.11093 1.19003 1.14299 1.11274 1.11287 1.13799 1.0386 1.03844 1.05727 1.0639 1.06249 1.04785 1.04359 1.02261 1.01918 0.998656 0.979409 0.970186 0.987321 1.02767 1.03367 1.02503 1.18289 1.36163 1.06023 0.933001 1.23078 1.22001 1.1842 1.00825 1.06607 1.05643 1.02605 1.00247 1.00083 0.984973 0.982857 0.971131 0.983046 1.00675 1.00672 0.994928 1.03806 1.04515 1.21556 1.35771 0.828199 1.11632 1.20242 0.968751 1.13228 1.19877 1.23427 1.01266 1.062 1.07374 1.05282 1.03407 1.00484 0.985132 0.978064 0.97476 0.974603 0.972443 0.989677 1.01251 1.03534 1.106 1.55308 1.65825 0.925283 0.890995 0.310034 3.18255 1.17866 0.582157 1.22952 1.18249 1.32359 1.11923 1.09899 1.0873 1.01557 0.982028 0.97753 0.979774 0.978921 0.978243 0.995676 1.07158 1.08805 1.23639 1.4793 1.45299 1.72109 0.937775 0.638544 0.763164 0.705199 1.85764 1.68011 1.20081 0.984344 1.19025 1.32004 1.11639 1.21197 1.13622 1.04138 0.99853 0.981714 0.964454 0.972083 0.977118 0.981887 0.987808 0.982471 0.980079 0.985954 1.01729 1.20003 0.739227 1.01016 1.44576 1.53387 1.4628 0.18934 0.497044 0.537797 0.309368 0.657914 0.65593 0.653159 1.44528 1.0972 1.28288 1.30713 1.23116 1.20701 1.30963 1.16571 1.08574 1.04779 0.969047 0.967188 0.996942 0.996483 1.01739 0.998269 0.971874 1.00303 1.07811 1.07135 1.09752 0.61895 0.86111 1.34385 1.30811 0.426196 0.562994 0.371501 0.37905 0.549866 0.661165 1.21543 1.20348 1.1911 1.2986 1.07328 1.389 1.17007 1.02086 0.961052 0.98966 1.02788 1.03852 1.00103 0.953747 0.963673 1.00778 1.01093 0.851984 0.795964 1.08143 1.17324 1.13412 0.712555 0.606021 0.514765 0.552924 0.591237 0.483866 0.466422 0.506413 0.449438 0.479781 0.742565 0.980128 1.06396 1.50219 0.971529 0.99393 0.99885 1.04024 1.26063 1.53837 1.62668 1.186 1.17424 1.00012 0.996857 0.981626 1.02985 1.06311 1.04216 0.929751 0.962429 0.98978 0.912767 0.811906 0.913051 0.992744 1.05377 0.704513 0.687074 0.59678 0.585386 0.605054 0.616619 0.462011 0.510917 0.525121 0.516971 0.557736 0.583254 0.713551 0.799952 0.952601 1.17517 1.27649 0.564016 1.09789 0.941867 1.34629 1.63977 1.13528 1.03619 1.02371 1.09085 1.08415 1.14488 1.08491 0.921277 0.944003 0.963834 0.952788 0.961503 0.91345 1.02177 1.04773 0.74807 0.631459 0.591704 0.60536 0.607426 0.440592 0.45576 0.485434 0.514741 0.558754 0.624749 0.771601 1.01746 0.11713 0.977563 1.05807 0.920596 1.29808 1.5704 1.11006 1.09641 1.19224 0.786387 0.829797 0.91778 0.939758 0.942165 0.942805 0.936132 0.936468 0.949632 0.973054 1.10572 1.03385 0.793477 0.756588 0.651177 0.569095 0.586586 0.596305 0.60933 0.599117 0.595504 0.470296 0.477128 0.458941 0.501556 0.531345 0.536354 0.567649 0.587553 0.633792 0.729931 0.723356 0.757381 0.618863 0.475515 0.589585 0.849385 1.01496 0.982049 0.944309 0.84726 0.837545 0.699785 1.1508 0.949309 1.4366 1.16572 1.22632 0.761378 0.875037 0.931929 0.938707 0.931753 0.936243 0.933814 0.944677 0.968243 1.29686 0.580839 0.589326 0.574452 0.572661 0.580781 0.588856 0.60225 0.589833 0.584805 0.56563 0.509093 0.51799 0.506233 0.492081 0.539278 0.570456 0.55275 0.570486 0.593547 0.621268 0.690583 0.686308 0.649455 0.638758 0.904022 0.920935 0.707869 0.596785 0.828677 1.32377 1.46278 1.27343 0.852625 0.769908 0.798994 0.919236 0.926559 0.924154 0.929058 0.919515 0.928128 0.927307 0.938573 1.03064 0.794107 0.589935 0.551663 0.581178 0.59399 0.593312 0.577748 0.573519 0.552877 0.508532 0.494687 0.434592 0.485408 0.473749 0.555549 0.604391 0.573116 0.579636 0.588741 0.615113 0.658339 0.680968 0.641119 0.59213 0.674216 0.786567 0.911766 0.832298 0.597226 0.624248 1.18731 0.979157 0.739863 0.752248 0.913535 0.892713 0.897837 0.917211 0.919497 0.913968 0.909786 0.944688 0.969869 0.988591 0.637375 0.558826 0.558366 0.575535 0.585371 0.586249 0.582781 0.576807 0.570569 0.561577 0.54525 0.535763 0.512167 0.459339 0.423839 0.529637 0.515552 0.593511 0.607092 0.580566 0.569769 0.591056 0.643242 0.645622 0.645437 0.635802 0.772053 0.864068 0.904776 0.888383 0.835059 0.742752 0.654966 0.572607 0.758106 0.947186 0.429325 0.862603 0.940449 0.879594 0.89675 0.911771 0.904793 0.910735 0.896341 0.896836 0.884726 0.918639 0.97246 0.790753 0.650392 0.588452 0.564084 0.583159 0.580925 0.584208 0.56598 0.556981 0.527432 0.519842 0.512787 0.498811 0.469715 0.39794 0.424108 0.391789 0.513591 0.609797 0.650618 0.589928 0.577305 0.590633 0.642274 0.642838 0.635661 0.655501 0.685206 0.893766 0.884536 0.753141 0.675021 0.21547 0.204184 0.280556 0.539685 0.706183 1.04566 0.88923 0.87757 0.891226 0.893122 0.876083 0.893321 0.937064 0.960023 0.961815 0.802369 0.631482 0.631198 0.621727 0.584077 0.615704 0.597702 0.586646 0.587122 0.5753 0.566719 0.553038 0.538388 0.523998 0.514079 0.515693 0.512174 0.510257 0.510626 0.503342 0.407797 0.312756 0.342643 0.522605 0.645446 0.540374 0.650018 0.538905 0.510094 0.499446 0.388966 0.667492 0.648394 0.652387 0.703332 0.765607 0.940905 0.836567 0.713787 0.418259 0.248167 0.592913 0.692161 0.959933 0.90803 0.861729 0.855916 0.874798 0.869753 0.88209 0.867322 0.877569 0.870717 0.93972 0.918002 0.826659 0.663001 0.663099 0.647182 0.597614 0.576775 0.546625 0.531355 0.509035 0.509453 0.510684 0.502744 0.51833 0.521069 0.448568 0.316771 0.371405 0.491996 0.621514 0.570388 0.475392 0.448714 0.426245 0.575197 0.604906 0.683 0.694596 0.699198 0.808354 0.975535 0.984595 0.889403 0.8747 0.755595 0.655095 0.592425 0.513022 0.388614 0.465139 0.659757 0.701652 0.851522 0.853814 0.858103 0.863465 0.831403 0.837323 0.818832 0.966057 0.974898 0.892095 0.732607 0.389166 0.542206 0.631528 0.615436 0.593993 0.583483 0.571362 0.547686 0.518358 0.521922 0.512985 0.507984 0.510351 0.509548 0.50941 0.512319 0.49065 0.518424 0.523342 0.543954 0.498166 0.510825 0.25127 0.498272 0.634487 0.622858 0.479585 0.457174 0.44506 0.513989 0.599531 0.743987 0.756349 0.776905 0.781091 0.973432 0.69948 0.605092 0.527541 0.454909 0.566981 0.609985 0.66204 0.682694 0.732859 0.842476 0.846312 0.83673 0.809006 0.735563 0.930446 0.98672 1.08338 0.854562 0.629044 0.641861 0.623032 0.610872 0.608193 0.589375 0.515158 0.527599 0.511494 0.51104 0.510712 0.510031 0.425353 0.458641 0.482068 0.543507 0.562147 0.555527 0.508237 0.58421 0.591179 0.677078 0.669752 0.597846 0.503607 0.482315 0.446781 0.457292 0.444979 0.549587 0.755817 0.788121 0.796601 0.809656 0.854267 1.00195 0.65734 0.635863 0.600154 0.570504 0.637393 0.687705 0.7074 0.737809 0.793506 0.80338 0.832696 0.823626 0.833892 0.822165 0.817326 0.813151 0.747994 0.527589 0.71679 0.886376 0.595624 0.612632 0.637057 0.622401 0.613777 0.608349 0.606599 0.643015 0.566729 0.541803 0.54793 0.535413 0.508686 0.509503 0.512588 0.512254 0.512002 0.503281 0.39374 0.441839 0.44899 0.492545 0.491775 0.538548 0.449644 0.537359 0.209536 0.683115 0.686486 0.686282 0.612263 0.551652 0.423014 0.535405 0.922049 0.792847 0.80892 0.819573 0.832415 0.967694 1.01706 0.683251 0.652688 0.65478 0.615463 0.622705 0.672264 0.71349 0.766983 0.802359 0.812764 0.83251 0.764943 0.406075 1.12211 0.873223 0.140362 0.339822 0.428706 0.554256 0.584246 0.585178 0.588816 0.600009 0.60044 0.656539 0.517406 0.530922 0.50957 0.510045 0.510457 0.514071 0.504598 0.489675 0.467424 0.36246 0.374519 0.407553 0.41347 0.444692 0.425392 0.455624 0.330736 0.77853 0.91042 0.597482 0.635001 0.67763 0.643131 0.56206 0.522713 0.571105 0.70035 1.27565 0.835767 0.787574 0.814495 0.925953 0.706185 0.505407 0.675579 0.657572 0.633497 0.656857 0.660419 0.68249 0.69526 0.734096 0.77565 0.800064 0.811809 0.814199 0.83896 0.818262 1.0055 0.527752 0.582986 0.255555 0.331379 0.432578 0.504235 0.531635 0.551153 0.566635 0.568934 0.563855 0.618662 0.429888 0.518209 0.51385 0.503226 0.513078 0.51248 0.496996 0.487672 0.441323 0.321107 0.336503 0.343683 0.387243 0.387486 0.412207 0.399388 0.366501 0.28421 0.250369 0.925108 1.20676 0.627649 0.578066 0.491799 0.523552 0.629605 0.849216 0.51805 1.13866 0.698133 0.779779 0.412642 0.358349 0.50356 0.636429 0.617124 0.657926 0.669808 0.664171 0.675855 0.698112 0.713218 0.726913 0.749198 0.754016 0.776319 0.785472 0.793972 0.787042 0.782907 0.733183 1.12349 0.450355 0.375304 0.294849 0.352205 0.43152 0.4755 0.508421 0.543739 0.552999 0.614705 0.552831 0.483689 0.493082 0.500399 0.496873 0.504047 0.49446 0.476333 0.457221 0.42929 0.406714 0.387622 0.312167 0.325162 0.333581 0.359359 0.373919 0.381531 0.359625 0.363157 0.278822 0.484797 0.344363 0.345787 0.539204 0.589404 0.397468 0.409643 0.566556 0.572552 1.63712 0.624232 0.63546 0.618839 0.458167 0.517502 0.640139 0.659308 0.668152 0.66693 0.67217 0.673987 0.687669 0.710811 0.736056 0.750346 0.77675 0.768901 0.75921 0.863381 0.67613 0.423692 0.392993 0.340268 0.338058 0.388245 0.560285 0.59654 0.530396 0.467746 0.445514 0.493874 0.496247 0.504091 0.49122 0.483163 0.482428 0.468136 0.452541 0.411539 0.37226 0.307598 0.31526 0.319395 0.352992 0.369034 0.369879 0.357005 0.302098 0.192534 0.208778 0.0801128 0.312091 0.765218 0.487791 0.485677 0.516436 0.530353 0.468761 0.284763 0.48692 0.73581 0.971794 0.801071 0.804638 0.677036 0.523479 0.522031 0.54823 0.682864 0.657639 0.662638 0.668015 0.678376 0.682499 0.688705 0.697667 0.722713 0.735053 0.7101 0.781245 0.753582 0.756257 0.75206 0.796218 0.900569 0.671718 0.436367 0.387438 0.372372 0.43346 0.466572 0.509095 0.52277 0.517372 0.555797 0.527155 0.63911 0.474618 0.490341 0.514105 0.487856 0.465549 0.47455 0.46239 0.432354 0.419398 0.381912 0.369102 0.373597 0.263432 0.285333 0.307667 0.317504 0.312268 0.3352 0.354471 0.360607 0.322802 0.259029 0.0891719 0.162374 0.578461 0.445351 0.492327 0.548264 0.40843 0.378849 0.827254 0.587122 1.45423 0.993167 0.648013 0.647702 0.558954 0.499221 0.219767 0.670419 0.666765 0.67062 0.683777 0.694141 0.706609 0.718978 0.73441 0.738129 0.811247 0.736201 0.765633 0.827913 0.808728 0.701483 0.458469 0.388145 0.417695 0.433928 0.457004 0.482019 0.487793 0.5168 0.470293 0.679513 0.458439 0.434022 0.464549 0.474372 0.420765 0.445723 0.46516 0.425214 0.372043 0.344927 0.363895 0.32545 0.220168 0.285609 0.310472 0.314399 0.324338 0.335703 0.345874 0.358506 0.347353 0.331978 0.303918 0.269423 0.198007 0.182776 0.318256 0.489311 0.473664 0.519011 0.613218 0.704535 0.312614 0.653358 0.778979 1.2717 0.539494 0.456159 0.539782 0.51701 0.504321 0.508036 0.680921 0.659158 0.66517 0.670703 0.677316 0.687177 0.698243 0.739124 0.677558 0.71526 0.737169 0.778453 0.777889 0.783999 0.845328 0.407429 0.411954 0.423016 0.423366 0.432477 0.455346 0.486024 0.513439 0.493872 0.579525 0.305287 0.436548 0.434101 0.461165 0.413215 0.439874 0.456793 0.391292 0.400145 0.33292 0.314575 0.301918 0.331979 0.315848 0.159471 0.222896 0.258682 0.306352 0.304662 0.320316 0.32975 0.346015 0.328592 0.307693 0.272381 0.21101 0.291676 0.387164 0.372341 0.446578 0.515575 0.623903 0.254125 0.352869 0.907122 1.24926 0.512135 0.537686 0.52725 0.526818 0.569287 0.671143 0.651303 0.66424 0.675643 0.682238 0.685186 0.690282 0.68734 0.707798 0.743678 0.642506 0.662186 0.698075 0.758799 0.727544 0.690043 0.676664 0.423077 0.369157 0.431622 0.435352 0.425399 0.421552 0.452491 0.500133 0.481323 0.476033 0.397526 0.386472 0.436596 0.452668 0.365055 0.46737 0.447339 0.366897 0.377161 0.304701 0.32129 0.313346 0.289639 0.0550473 0.0949412 0.177289 0.269686 0.292407 0.308505 0.310483 0.317351 0.338872 0.347353 0.35178 0.342166 0.3221 0.308326 0.316973 0.152735 0.265792 0.23067 0.368546 0.326678 0.231667 0.574478 0.369937 0.672773 0.831432 0.875937 0.577486 0.55698 0.553537 0.570647 0.623594 0.653653 0.657646 0.662113 0.667697 0.681019 0.691208 0.691929 0.733836 0.718536 0.639376 0.687836 0.678284 0.721537 0.755573 0.666906 0.652895 0.830111 0.389939 0.416677 0.438973 0.435381 0.428034 0.421822 0.470498 0.494853 0.46169 0.414232 0.501272 0.432676 0.410964 0.401714 0.505969 0.399818 0.425851 0.494885 0.391574 0.33811 0.288212 0.305747 0.315881 0.304238 0.283231 0.257858 0.0400564 0.103178 0.211407 0.23182 0.311453 0.309543 0.318227 0.315472 0.325213 0.345877 0.351692 0.377412 0.347268 0.32623 0.44659 0.285168 0.286585 0.327574 0.351522 0.357767 0.379784 0.459793 0.700253 0.561978 0.594001 0.653552 0.70437 0.720924 0.605888 0.561206 0.579821 0.583471 0.608046 0.633709 0.643945 0.657625 0.662771 0.670518 0.684307 0.678559 0.747923 0.59474 0.555185 0.63498 0.714863 0.620562 0.727927 0.584797 0.439161 0.451939 0.477085 0.442722 0.431047 0.43989 0.388741 0.410992 0.388032 0.19235 0.312882 0.439573 0.353416 0.378903 0.201149 0.277726 0.312334 0.30983 0.305854 0.227855 0.235246 0.0431468 0.0512436 0.142828 0.265489 0.298212 0.3409 0.328781 0.331414 0.32218 0.330917 0.342351 0.308947 0.365781 0.352486 0.398973 0.330907 0.283655 0.330145 0.332137 0.456997 0.434757 1.47519 0.911745 0.65066 0.583563 0.595153 0.623673 0.660932 0.665517 0.616832 0.58764 0.62522 0.638151 0.650745 0.658259 0.662092 0.665506 0.676279 0.668054 0.704652 0.671353 0.891883 0.70888 0.587954 0.617599 0.675075 0.653097 0.689633 0.675503 0.571921 0.452422 0.446216 0.428523 0.43167 0.466275 0.479676 0.466531 0.444675 0.418413 0.423687 0.422454 0.429426 0.253786 0.323214 0.523955 0.381887 0.462931 0.484416 0.376731 0.275798 0.289714 0.281668 0.268603 0.164143 0.200102 0.0760124 0.10782 0.0489315 0.0540333 0.0578064 0.0833646 0.265758 0.325687 0.357407 0.353076 0.333993 0.319485 0.323452 0.321821 0.376086 0.373563 0.338456 0.296472 0.302326 0.305704 0.25811 0.424302 0.618469 0.943506 0.663562 0.574153 0.593504 0.626469 0.648553 0.648274 0.622456 0.60485 0.60151 0.610868 0.664271 0.667735 0.660894 0.678078 0.65264 0.791548 0.603221 0.630155 0.636504 0.608415 0.633772 0.667788 0.681745 0.641843 0.564866 0.491998 0.482952 0.47571 0.465729 0.452253 0.447842 0.456903 0.479203 0.460515 0.452304 0.436001 0.451433 0.303366 0.359049 0.502904 0.200067 0.289738 0.163324 0.193214 0.272729 0.276718 0.24657 0.146262 0.043398 0.0120643 0.00767415 0.160835 0.101406 0.0524783 0.176725 0.207056 0.334892 0.409591 0.363048 0.323822 0.32958 0.320438 0.312079 0.345413 0.393679 0.396116 0.335741 0.297806 0.482739 0.769223 0.668262 0.587422 0.563665 0.60818 0.633679 0.647865 0.643569 0.628339 0.620089 0.621872 0.628698 0.636531 0.646447 0.655378 0.660936 0.612865 0.558447 0.603692 0.618846 0.634442 0.603293 0.622875 0.645482 0.661111 0.647107 0.612847 0.566503 0.525934 0.512041 0.499848 0.49089 0.487014 0.465304 0.471355 0.479961 0.469337 0.445971 0.428912 0.373291 0.336554 0.407187 0.267649 0.30425 0.434595 0.194316 0.174189 0.238197 0.273599 0.279743 0.202058 0.065304 0.0381777 0.00851286 0.484545 0.165893 0.164596 0.157538 0.313618 0.433619 0.406224 0.300762 0.335503 0.335468 0.316659 0.336693 0.373623 0.409124 0.414531 0.299464 0.286722 0.295741 0.253976 0.239956 0.286566 0.728416 0.711294 0.676076 0.541987 0.571477 0.647977 0.64306 0.636438 0.63492 0.637059 0.641368 0.647418 0.654507 0.660062 0.663335 0.665913 0.665306 0.669314 0.669824 0.704191 0.616406 0.586545 0.584288 0.608761 0.619837 0.615249 0.617468 0.632603 0.64415 0.641787 0.62661 0.601026 0.572118 0.548192 0.534735 0.521787 0.517137 0.501686 0.488991 0.470012 0.470574 0.487576 0.464258 0.433509 0.393557 0.378408 0.37662 0.303547 0.350061 0.421308 0.417542 0.260618 0.260743 0.263578 0.284193 0.27759 0.208537 0.020677 0.0819237 0.0754628 0.433966 0.463942 0.589222 0.198604 0.22876 0.447174 0.255883 0.336367 0.374919 0.313947 0.338609 0.32528 0.330276 0.36161 0.39602 0.429664 0.457174 0.273777 0.266653 0.262699 0.222174 0.211916 0.328061 0.503675 0.663051 0.694351 0.535058 0.58387 0.621839 0.643682 0.644905 0.646534 0.649598 0.652964 0.656676 0.660357 0.66277 0.66458 0.665053 0.666779 0.667675 0.679111 0.646392 0.60276 0.593051 0.598316 0.611091 0.614392 0.618833 0.625925 0.634623 0.549975 0.539496 0.528152 0.511184 0.486532 0.456933 0.518465 0.496655 0.417085 0.388445 0.383057 0.380362 0.308709 0.226447 0.315007 0.242648 0.333646 0.301414 0.304416 0.314287 0.0716444 0.0986477 0.093807 0.12683 0.0109459 0.369178 0.402601 0.404287 0.434595 0.454931 0.670413 0.45479 0.428347 0.238773 0.416746 0.386104 0.33226 0.336603 0.336027 0.326265 0.353198 0.390071 0.422122 0.259555 0.264115 0.253304 0.253454 0.251438 0.302931 0.642667 0.543393 0.606221 0.636755 0.64789 0.64766 0.645707 0.66089 0.661702 0.662431 0.66299 0.663498 0.663682 0.663994 0.6641 0.666247 0.651417 0.625151 0.604965 0.601803 0.606406 0.63648 0.630915 0.617451 0.598915 0.579331 0.563315 0.497074 0.460622 0.567553 0.527269 0.494777 0.458879 0.402893 0.379533 0.358647 0.311679 0.300556 0.206766 0.2307 0.252903 0.387202 0.39621 0.376289 0.340523 0.180786 0.0350368 0.190542 0.103591 0.147139 0.360677 0.387192 0.412088 0.495318 0.518699 0.726562 0.695828 0.727752 0.380999 0.376208 0.3808 0.371066 0.355008 0.32531 0.352164 0.383797 0.413941 0.461997 0.51004 0.239101 0.245077 0.26728 0.287704 0.426079 0.530285 0.602699 0.651556 0.695314 0.578251 0.627518 0.64273 0.642729 0.644154 0.648633 0.654661 0.659177 0.612762 0.617969 0.623888 0.629831 0.632927 0.631281 0.625139 0.615204 0.601305 0.586743 0.573131 0.559708 0.546336 0.526896 0.616104 0.552079 0.516035 0.481019 0.441221 0.387485 0.352366 0.307844 0.277075 0.257866 0.223633 0.470507 0.437953 0.466167 0.458264 0.49292 0.201702 0.112149 0.168401 0.199054 0.245028 0.204122 0.13911 0.132301 0.364328 0.371388 0.400936 0.395392 0.408825 0.399475 0.501304 0.598378 0.591493 0.276349 0.416537 0.411848 0.383092 0.321985 0.344589 0.380732 0.408024 0.450109 0.492892 0.55937 0.231774 0.259478 0.318559 0.382055 0.461156 0.537654 0.608226 0.647642 0.686945 0.610815 0.637162 0.634395 0.630911 0.641588 0.657206 0.669058 0.670678 0.668939 0.666388 0.664451 0.663056 0.662297 0.66161 0.660711 0.659705 0.651295 0.635294 0.61916 0.60975 0.608948 0.612346 0.617593 0.622931 0.628045 0.631329 0.631646 0.628704 0.623051 0.614696 0.604226 0.592208 0.57861 0.562983 0.541474 0.509338 0.466028 0.575554 0.530297 0.496799 0.460748 0.42384 0.314337 0.271662 0.231902 0.201943 0.207784 0.538642 0.512224 0.487207 0.556937 0.602184 0.379738 0.325993 0.160111 0.143189 0.189625 0.107493 0.373876 0.374523 0.39396 0.388372 0.362167 0.372286 0.396472 0.657934 0.45431 0.514853 0.335056 0.341992 0.378968 0.433245 0.468074 0.515333 0.605468 0.302976 0.347726 0.3891 0.442312 0.506913 0.565474 0.613149 0.646375 0.677109 0.633141 0.625974 0.619621 0.6167 0.647628 0.67871 0.681956 0.677606 0.671728 0.667058 0.663822 0.661581 0.659773 0.658099 0.655894 0.650168 0.64005 0.628349 0.619189 0.614849 0.61517 0.618307 0.622835 0.627358 0.630825 0.632233 0.631299 0.628018 0.622773 0.615 0.605852 0.595079 0.580276 0.558179 0.526597 0.480032 0.653163 0.549145 0.510323 0.478337 0.443329 0.405402 0.361916 0.221693 0.159817 0.191248 0.200871 0.54784 0.549322 0.548046 0.632079 0.511033 0.446843 0.481642 0.181644 0.134635 0.268403 0.156394 0.381094 0.3545 0.294991 0.309379 0.285689 0.531337 0.580737 0.512578 0.467787 0.462524 0.474179 0.316413 0.360365 0.407073 0.421009 0.446235 0.482967 0.542508 0.642426 0.247531 0.326279 0.379235 0.412918 0.449489 0.489897 0.539429 0.579351 0.620572 0.65092 0.686076 0.693379 0.686713 0.677537 0.670515 0.665534 0.661857 0.658994 0.656498 0.653731 0.649292 0.642493 0.634342 0.626778 0.621692 0.619796 0.620822 0.62373 0.62739 0.63067 0.632703 0.632944 0.631326 0.607198 0.595481 0.57687 0.5472 0.502339 0.678739 0.603847 0.494863 0.46175 0.424473 0.379832 0.328577 0.276006 0.161634 0.0860579 0.283337 0.547135 0.5822 0.587257 0.600172 0.55256 0.53502 0.564931 0.121893 0.0632474 0.368696 0.29842 0.261966 0.321458 0.523748 0.559288 0.542253 0.541745 0.512746 0.530408 0.331047 0.404663 0.420222 0.424336 0.457208 0.508235 0.328979 0.430453 0.441578 0.466471 0.667283 0.623773 0.613932 0.607111 0.602262 0.674496 0.668621 0.663258 0.659309 0.656153 0.653043 0.64921 0.644248 0.638418 0.632615 0.627904 0.625065 0.628202 0.623152 0.616178 0.691447 0.631013 0.576333 0.531583 0.444619 0.401891 0.350905 0.291098 0.229635 0.169549 0.622341 0.584587 0.609631 0.629735 0.561179 0.565175 0.57822 0.627821 0.321274 0.241554 0.251186 0.571273 0.561753 0.541947 0.537635 0.381795 0.414523 0.433252 0.428637 0.581002 0.665594 0.468038 0.489623 0.524156 0.563412 0.599807 0.634967 0.653803 0.641927 0.616564 0.603875 0.591143 0.557499 0.705035 0.696306 0.683606 0.624408 0.625702 0.628178 0.630882 0.633003 0.633911 0.633362 0.631453 0.628237 0.623432 0.617025 0.608085 0.595273 0.570193 0.529757 0.693193 0.651083 0.603786 0.558884 0.518105 0.480785 0.376018 0.318018 0.253978 0.186415 0.141934 0.724961 0.612955 0.59783 0.598837 0.586702 0.516782 0.556922 0.585745 0.639291 0.534184 0.317715 0.122767 0.167877 0.511421 0.550555 0.554423 0.543141 0.534588 0.575627 0.345863 0.390573 0.42579 0.45881 0.484361 0.55388 0.627893 0.67219 0.470797 0.480347 0.512837 0.53595 0.558674 0.596568 0.626372 0.639283 0.637843 0.624578 0.605427 0.587452 0.560726 0.525084 0.71362 0.691768 0.679019 0.673495 0.666325 0.660895 0.656818 0.65354 0.650108 0.646107 0.641661 0.63719 0.633248 0.6303 0.628704 0.628592 0.629748 0.631556 0.633318 0.634446 0.634552 0.633396 0.631026 0.627611 0.62296 0.616835 0.6089 0.597068 0.561221 0.689706 0.663727 0.62649 0.584554 0.544858 0.506561 0.468254 0.424642 0.346672 0.285134 0.217624 0.155427 0.132119 0.698247 0.588652 0.587857 0.587801 0.415722 0.411956 0.571742 0.677137 0.221423 0.535107 0.534917 0.525089 0.563896 0.610574 0.355021 0.400368 0.463485 0.521631 0.595022 0.655682 0.58493 0.520176 0.496207 0.522771 0.541325 0.567353 0.594794 0.615744 0.628529 0.630166 0.62419 0.610614 0.590069 0.561928 0.529893 0.503309 0.708785 0.685474 0.681871 0.670968 0.663592 0.658517 0.654845 0.651746 0.648425 0.644833 0.641212 0.637901 0.635212 0.633302 0.63231 0.6323 0.633042 0.634066 0.634887 0.635143 0.634475 0.632713 0.63013 0.62652 0.621687 0.616473 0.610497 0.60408 0.679857 0.643572 0.606349 0.567591 0.535755 0.49704 0.451018 0.400965 0.2534 0.189459 0.131238 0.69778 0.553719 0.551832 0.531796 0.41066 0.146961 0.51365 0.51759 0.525139 0.523045 0.534531 0.576941 0.634462 0.441929 0.503035 0.521811 0.560637 0.613773 0.615344 0.584407 0.555137 0.540926 0.550274 0.567546 0.592638 0.609331 0.618609 0.625144 0.622937 0.613089 0.595515 0.689888 0.698331 0.678479 0.667359 0.661247 0.65702 0.654056 0.651315 0.648336 0.645291 0.642397 0.639854 0.637875 0.636509 0.635706 0.635502 0.635721 0.635963 0.635868 0.635201 0.674054 0.561145 0.527513 0.479926 0.42914 0.377716 0.317341 0.164575 0.702635 0.666244 0.670252 0.517546 0.487209 0.389785 0.211381 0.498079 0.5139 0.518555 0.549392 0.586509 0.36834 0.417538 0.472718 0.546199 0.575093 0.605317 0.57996 0.567839 0.532979 0.499492 0.848487 0.633819 0.631719 0.62894 0.625144 0.621203 0.617053 0.615216 0.643397 0.674781 0.665126 0.618968 0.586728 0.512379 0.458141 0.409953 0.354278 0.292832 0.227774 0.715354 0.666341 0.640462 0.637019 0.418686 0.892235 0.308747 0.528966 0.54914 0.538083 0.528241 0.562344 0.649686 0.387062 0.445664 0.512614 0.591034 0.608049 0.622572 0.602825 0.574935 0.580446 0.590319 0.604824 0.616448 0.620871 0.620903 0.614494 0.601415 0.57797 0.54353 0.50265 0.470658 0.723756 0.687622 0.672923 0.665617 0.660834 0.657547 0.655025 0.652535 0.649854 0.647176 0.644695 0.642531 0.640862 0.639672 0.638788 0.638206 0.637868 0.637402 0.636486 0.635034 0.633066 0.630781 0.62802 0.625205 0.622564 0.622077 0.633281 0.648566 0.677943 0.652739 0.593337 0.575858 0.553523 0.390051 0.33387 0.271244 0.206616 0.678782 0.638783 0.610768 0.61031 0.472839 0.493814 0.534503 0.557962 0.566208 0.60469 0.664425 0.414633 0.485636 0.606843 0.630572 0.615913 0.616565 0.612801 0.603169 0.602401 0.602173 0.60647 0.613659 0.619461 0.620323 0.616501 0.606368 0.588499 0.558764 0.516293 0.465895 0.83728 0.703551 0.682746 0.673284 0.667559 0.6633 0.660151 0.657639 0.655174 0.652576 0.650052 0.647663 0.645594 0.643966 0.642703 0.641613 0.640608 0.639664 0.638573 0.637043 0.635059 0.632927 0.630847 0.628758 0.627355 0.627461 0.632594 0.639931 0.644948 0.671998 0.647074 0.581321 0.572097 0.533326 0.490185 0.441092 0.314667 0.250723 0.724803 0.598664 0.60777 0.587052 0.448368 0.874982 0.719911 0.689323 0.510212 0.551544 0.57578 0.616187 0.679443 0.555793 0.624194 0.618209 0.637971 0.628191 0.627722 0.626314 0.621066 0.616195 0.61454 0.617117 0.620233 0.621591 0.620063 0.61257 0.598103 0.574924 0.538782 0.485547 0.415102 0.964186 0.760463 0.709349 0.688993 0.678663 0.672214 0.667635 0.664143 0.661318 0.658605 0.655887 0.6534 0.650975 0.64882 0.64716 0.645774 0.64448 0.64316 0.641748 0.640158 0.638313 0.636262 0.634248 0.632494 0.631719 0.631968 0.635307 0.640192 0.643345 0.627788 0.659027 0.651807 0.582705 0.553278 0.510623 0.473807 0.426378 0.37123 0.732092 0.689646 0.654185 0.595918 0.575106 0.789207 0.735074 0.542564 0.56022 0.576095 0.552401 0.586373 0.626101 0.462695 0.538018 0.579689 0.644703 0.626017 0.641127 0.646608 0.64153 0.637612 0.62682 0.623583 0.623947 0.736174 0.71105 0.692713 0.682565 0.677185 0.67267 0.668789 0.665493 0.662288 0.659313 0.656755 0.654333 0.652176 0.562248 0.534606 0.505141 0.459778 0.407955 0.356402 0.293514 0.739863 0.699356 0.665667 0.607569 0.623337 0.593595 0.763339 0.791743 0.554467 0.568238 0.567003 0.588746 0.552703 0.714809 0.522628 0.572537 0.598705 0.647571 0.625425 0.626129 0.624761 0.61934 0.607114 0.588904 0.560891 0.516905 0.440811 0.81953 0.65055 0.649174 0.647907 0.646589 0.645175 0.643532 0.641754 0.639918 0.638085 0.63686 0.636452 0.638189 0.641737 0.643862 0.638546 0.617345 0.651577 0.66155 0.498636 0.442957 0.390247 0.336329 0.67242 0.617452 0.645926 0.628127 0.774672 0.852865 0.803843 0.879167 0.572159 0.599086 0.682091 0.737413 0.563543 0.639416 0.655723 0.653747 0.650923 0.639889 0.63216 0.630979 0.631814 0.632219 0.630571 0.625812 0.615639 0.599297 0.577831 0.547971 0.490804 0.478399 0.472026 0.728726 0.727504 0.705494 0.693186 0.686474 0.681382 0.676977 0.672979 0.669362 0.665782 0.662582 0.659924 0.657609 0.655714 0.654366 0.653273 0.652497 0.651713 0.650985 0.650186 0.648786 0.646888 0.645126 0.643947 0.643489 0.644542 0.645926 0.642149 0.635437 0.623419 0.6515 0.643363 0.550724 0.528156 0.422979 0.374071 0.748028 0.713231 0.662289 0.651612 0.627457 0.712302 0.809649 0.68315 0.787004 0.590499 0.553735 0.674531 0.710566 0.743595 0.590852 0.608408 0.649 0.648551 0.682827 0.655268 0.647349 0.64067 0.638061 0.638369 0.638133 0.636135 0.631726 0.623555 0.60947 0.590092 0.566677 0.536917 0.518149 0.736576 0.710015 0.703753 0.695565 0.689717 0.684726 0.68019 0.676107 0.67229 0.668561 0.665386 0.662827 0.660934 0.659515 0.658755 0.658514 0.65886 0.659649 0.660106 0.66018 0.659158 0.656852 0.654873 0.653147 0.652101 0.65062 0.648743 0.641386 0.642047 0.631879 0.638273 0.61634 0.557298 0.533345 0.479455 0.753598 0.725253 0.689654 0.621722 0.642466 0.790355 0.885191 0.577759 0.594983 0.64197 0.69796 0.728387 0.740407 0.586362 0.600473 0.615295 0.650377 0.681221 0.673072 0.652234 0.645964 0.644678 0.644437 0.643325 0.640973 0.637081 0.630615 0.619472 0.602789 0.578868 0.558605 0.551097 0.485151 0.531648 0.752539 0.698323 0.707638 0.703789 0.698506 0.69235 0.687232 0.682373 0.678009 0.674035 0.670392 0.667414 0.665419 0.664245 0.663692 0.664326 0.666544 0.669015 0.671146 0.672274 0.67251 0.64368 0.638346 0.609399 0.623218 0.573148 0.524913 0.462698 0.407481 0.766019 0.731503 0.704302 0.642678 0.671998 0.67576 0.719116 0.841376 0.7754 0.794209 0.790939 0.791493 0.585006 0.680779 0.657715 0.597457 0.607001 0.62646 0.684674 0.643326 0.482663 0.670897 0.668177 0.665942 0.663779 0.661779 0.658359 0.655608 0.642458 0.615886 0.579262 0.517564 0.449397 0.66287 0.695209 0.694629 0.666478 0.726991 0.762753 0.806811 0.794026 0.794276 0.818299 0.723465 0.731604 0.732822 0.606306 0.665355 0.652849 0.650147 0.649341 0.647588 0.644902 0.64106 0.635598 0.627584 0.615122 0.59679 0.567679 0.572728 0.531748 0.861494 0.710323 0.710284 0.708984 0.70677 0.700136 0.693998 0.688674 0.683506 0.67869 0.674466 0.670907 0.668743 0.667921 0.668162 0.671081 0.676139 0.680304 0.682376 0.685146 0.686355 0.68485 0.682523 0.681382 0.67898 0.674181 0.674484 0.66915 0.66515 0.631266 0.654776 0.633075 0.620532 0.535832 0.7852 0.748763 0.707082 0.725888 0.669697 0.740215 0.768378 0.668478 0.696726 0.691576 0.726497 0.730948 0.724788 0.620696 0.660668 0.722323 0.703341 0.715014 0.709162 0.704624 0.702142 0.699765 0.698246 0.697674 0.697423 0.69639 0.693337 0.688406 0.680471 0.697545 0.641218 0.59241 0.945088 0.71015 0.711417 0.709464 0.706297 0.698943 0.693818 0.688728 0.68322 0.678097 0.673349 0.67041 0.670324 0.673239 0.680818 0.689581 0.69179 0.694399 0.697155 0.697881 0.697008 0.69702 0.698477 0.696107 0.691816 0.684638 0.687768 0.683121 0.651931 0.654831 0.640366 0.66367 0.624328 0.617479 0.56179 0.803887 0.771621 0.729763 0.662499 0.711716 0.882923 0.834207 0.833599 0.861249 0.657249 0.689105 0.701498 0.7302 0.734353 0.5934 0.658024 0.635397 0.707338 0.7212 0.709991 0.704531 0.683118 0.670603 0.651418 0.613601 0.578049 0.706199 0.707897 0.706844 0.702707 0.697444 0.692187 0.686906 0.681433 0.675769 0.670962 0.671977 0.680214 0.695606 0.702197 0.702466 0.706753 0.707858 0.707592 0.706672 0.708216 0.714603 0.712427 0.706673 0.697269 0.696267 0.705216 0.659249 0.681301 0.661323 0.656805 0.674909 0.654915 0.599461 0.540149 0.718202 0.794324 0.747795 0.692212 0.710451 0.742217 0.814026 0.762455 0.768334 0.905332 0.895353 0.884138 0.880703 0.911712 0.745834 0.754562 0.701378 0.68976 0.602907 0.698639 0.702569 0.699756 0.696964 0.695322 0.694371 0.693406 0.691641 0.686612 0.947141 0.695278 0.693229 0.682054 0.648345 0.612863 0.735454 0.745379 0.818101 0.780641 0.900459 0.895425 0.784501 0.804595 0.82543 0.822592 0.781318 0.740871 0.7125 0.70145 0.702747 0.699543 0.696209 0.693797 0.692078 0.690359 0.689123 0.687422 0.680875 0.673472 0.623143 0.631824 0.599276 0.58044 0.947175 0.703044 0.702374 0.703079 0.699088 0.694996 0.689762 0.683887 0.678201 0.672173 0.674926 0.692652 0.712284 0.708845 0.714639 0.717128 0.719217 0.719381 0.719248 0.72221 0.725883 0.725484 0.728447 0.717276 0.709441 0.712913 0.669446 0.694085 0.686718 0.728009 0.737755 0.76861 0.707167 0.897531 0.875541 0.939467 0.754801 0.771695 0.791898 0.813893 0.823518 0.808028 0.884949 0.750725 0.766103 0.623863 0.761711 0.708886 0.705422 0.702068 0.699359 0.695458 0.692619 0.690412 0.688406 0.686481 0.686293 0.681372 0.669342 0.642363 0.598006 0.625691 0.58542 0.59151 0.933873 0.700315 0.698854 0.698696 0.695119 0.691368 0.686548 0.680678 0.677491 0.677943 0.710779 0.723417 0.721507 0.72711 0.727 0.728753 0.730584 0.731774 0.73284 0.73666 0.74197 0.739635 0.752094 0.742275 0.739629 0.660165 0.702594 0.699405 0.718828 0.704595 0.715424 0.67185 0.79029 0.70296 0.756606 0.791399 0.8809 0.816862 0.802568 0.791561 0.826785 0.798931 0.904545 0.901423 0.898195 0.892864 0.93461 0.740036 0.861555 0.825507 0.898006 0.658983 0.849134 0.729525 0.717695 0.678903 0.670509 0.649311 0.618504 0.570599 0.581549 0.920464 0.695839 0.693067 0.696752 0.687946 0.694984 0.681983 0.684613 0.689354 0.739503 0.72998 0.736453 0.73722 0.7391 0.739123 0.738345 0.740478 0.742237 0.654609 0.694321 0.7156 0.739751 0.71241 0.731785 0.739055 0.840363 0.743338 0.882922 0.875527 0.887002 0.893911 0.893832 0.893832 0.820005 0.834881 0.823015 0.787369 0.892417 0.708394 0.697627 0.69426 0.691254 0.689178 0.687208 0.685194 0.683943 0.705183 0.611383 0.747186 0.752098 0.760474 0.75732 0.764865 0.783919 0.860661 0.866624 0.89342 0.886007 0.893832 0.893832 0.894611 0.793073 0.818926 0.832067 0.841038 0.893797 0.866627 0.89738 0.866211 0.89342 0.895929 0.874809 0.820318 0.819848 0.829833 0.82571 0.820554 0.81424 0.806613 0.800126 0.792848 0.787817 0.780323 0.7796 0.766217 0.746694 0.645883 0.868541 0.75485 0.788555 0.93255 0.858604 0.842774 0.85606 0.842298 0.899329 0.835571 0.824331 0.748798 0.743655 0.749601 0.747935 0.746865 0.747007 0.747835 0.749544 0.751488 0.756757 0.76371 0.771578 0.783127 0.789697 0.78996 0.833549 0.836572 0.8414 0.830207 0.832347 0.811303 0.815761 0.821842 0.874742 0.800114 0.890001 0.887873 0.893644 0.895925 0.894104 0.885248 0.887944 0.896148 0.894366 0.894222 0.893877 0.894053 0.89651 0.862642 0.807787 0.884649 0.893376 0.898943 0.894711 0.879597 0.885377 0.88647 0.876478 0.866483 0.82368 0.864929 0.895469 0.893851 0.884469 0.894246 0.882692 0.881121 0.878605 0.85997 0.823205 0.818854 0.819463 0.813874 0.813047 0.810182 0.814891 0.812463 0.833621 0.849672 0.867035 0.877819 0.823586 0.885431 0.884253 0.893832 0.893832 0.893832 0.822289 0.840405 0.896079 0.87705 0.893192 0.859088 0.86592 0.871136 0.876776 0.879501 0.882305 0.884022 0.886227 0.887325 0.892683 0.893832 0.892577 0.809259 0.808724 0.812171 0.819755 0.827732 0.840995 0.858302 0.855726 0.858853 0.847757 0.845219 0.892657 0.887717 0.894991 0.893294 0.891924 0.893832 0.893832 0.893832 0.872735 0.820694 0.832192 0.8533 0.891132 0.877936 0.8934 0.882176 0.893829 0.893849 0.89289 0.885083 0.866549 0.866424 0.871088 0.876763 0.880139 0.88364 0.885997 0.888801 0.890386 0.889708 0.889905 0.883235 0.877603 0.850391 0.892 0.869698 0.891871 0.896892 0.894061 0.880771 0.893698 0.879049 0.893602 0.879804 0.880259 0.875643 0.854731 0.83383 0.833695 0.826978 0.825307 0.82325 0.824664 0.824126 0.824918 0.826351 0.834288 0.843519 0.858576 0.873349 0.868632 0.858198 0.863495 0.857435 0.853144 0.850335 0.866464 0.892 0.876836 0.845022 0.892572 0.886314 0.893907 0.889887 0.889239 0.885544 0.882215 0.893832 0.893832 0.893832 0.893832 0.893832 0.893832 0.872199 0.879663 0.849787 0.895789 0.87595 0.875206 0.877158 0.878434 0.876411 0.871678 0.852716 0.84541 0.839227 0.83878 0.835115 0.893832 0.876938 0.861866 0.885022 0.881504 0.893832 0.893832 0.893832 0.830989 0.84089 0.86259 0.885943 0.879624 0.893389 0.893787 0.893837 0.890821 0.884078 0.870553 0.864267 0.866974 0.871899 0.875375 0.879488 0.882324 0.885576 0.887143 0.887272 0.886196 0.879697 0.876471 0.893083 0.867614 0.892265 0.893833 0.893734 0.893613 0.837015 0.837758 0.840373 0.843869 0.851502 0.863146 0.878085 0.883608 0.873763 0.863887 0.866453 0.869239 0.866228 0.865734 0.878937 0.892336 0.886107 0.892408 0.887136 0.887115 0.893832 0.893832 0.893832 0.871684 0.840394 0.847107 0.870784 0.881194 0.880968 0.893382 0.877747 0.893757 0.893832 0.88953 0.883482 0.873137 0.863192 0.864116 0.868214 0.87163 0.876116 0.879258 0.882832 0.884314 0.885304 0.883132 0.876359 0.87514 0.84796 0.893256 0.866433 0.893181 0.893491 0.893828 0.872428 0.893669 0.872612 0.893475 0.875046 0.876599 0.875063 0.87513 0.866956 0.859034 0.848957 0.849387 0.845821 0.848348 0.849972 0.853927 0.856914 0.866618 0.879984 0.887657 0.888402 0.877002 0.869764 0.871797 0.876613 0.876236 0.878656 0.887757 0.893833 0.877426 0.868764 0.892105 0.886751 0.890904 0.885101 0.885612 0.883816 0.881118 0.893832 0.893832 0.893832 0.893832 0.893832 0.846894 0.880842 0.893832 0.893832 0.893832 0.893832 0.871865 0.847467 0.851458 0.877612 0.878336 0.881428 0.893382 0.876482 0.893738 0.893832 0.888906 0.883192 0.874928 0.862753 0.862313 0.865806 0.869123 0.873808 0.877125 0.880919 0.882354 0.883997 0.881024 0.873963 0.874222 0.893488 0.865393 0.893636 0.89207 0.893807 0.870117 0.893611 0.870922 0.893447 0.873725 0.875428 0.873858 0.874876 0.872032 0.869288 0.858696 0.857325 0.853217 0.856244 0.858511 0.863842 0.868144 0.879486 0.888509 0.891663 0.891138 0.879755 0.874653 0.876857 0.878974 0.880285 0.886839 0.891321 0.893832 0.877616 0.870236 0.891924 0.887605 0.889683 0.883809 0.884663 0.882649 0.893832 0.893832 0.893832 0.872253 0.850853 0.853876 0.881101 0.877206 0.881501 0.893383 0.875857 0.893731 0.893832 0.888652 0.882967 0.876324 0.86264 0.861452 0.864625 0.867864 0.872632 0.876031 0.879935 0.881356 0.883288 0.879961 0.872755 0.873758 0.846503 0.893547 0.864808 0.893801 0.891507 0.893796 0.868945 0.893576 0.870063 0.893413 0.87315 0.874876 0.873202 0.874395 0.872909 0.873411 0.865213 0.862801 0.857271 0.860316 0.863081 0.869716 0.875577 0.886172 0.89103 0.892778 0.892167 0.881407 0.877819 0.879206 0.879355 0.881271 0.890162 0.892132 0.893831 0.877611 0.870275 0.891825 0.888155 0.888962 0.883197 0.884204 0.881988 0.8807 0.893832 0.893832 0.893832 
SCALARS Axial_Stress float 1
LOOKUP_TABLE default
-72502000000.0 -95872700000.0 -123181000000.0 -87447900000.0 -233240000000.0 -118840000000.0 -165332000000.0 -67978100000.0 -82233500000.0 -87300400000.0 -74330000000.0 -59428300000.0 -52385100000.0 -87931400000.0 -178205000000.0 -160664000000.0 -129420000000.0 -224801000000.0 -181220000000.0 -156539000000.0 -160354000000.0 -79246400000.0 -92689600000.0 -203036000000.0 -127103000000.0 -112976000000.0 -114111000000.0 -51554600000.0 -138432000000.0 -306030000000.0 -334392000000.0 -296536000000.0 -243565000000.0 -313999000000.0 -300672000000.0 -179825000000.0 -236039000000.0 -277880000000.0 -279622000000.0 -366533000000.0 -275577000000.0 -434662000000.0 -135073000000.0 -276224000000.0 -245104000000.0 -433958000000.0 -336409000000.0 -465067000000.0 -396936000000.0 -486894000000.0 -239590000000.0 -263653000000.0 -358089000000.0 -112859000000.0 -290995000000.0 -329967000000.0 -320958000000.0 -507737000000.0 -376330000000.0 -514033000000.0 -401530000000.0 -500800000000.0 -462124000000.0 -378433000000.0 -608181000000.0 -546043000000.0 -556445000000.0 -328669000000.0 -390304000000.0 -476740000000.0 -548787000000.0 -362247000000.0 -321597000000.0 -276248000000.0 -311589000000.0 -353649000000.0 -640598000000.0 -634854000000.0 -627904000000.0 -592861000000.0 -424569000000.0 -366225000000.0 -371770000000.0 -867065000000.0 -666880000000.0 -638111000000.0 -640830000000.0 -683592000000.0 -617719000000.0 -495719000000.0 -441915000000.0 -844291000000.0 -772460000000.0 -751476000000.0 -727814000000.0 -656130000000.0 -661218000000.0 -1.16226e+12 -1.12547e+12 -1.03795e+12 -835519000000.0 -858842000000.0 -735455000000.0 -804645000000.0 -717780000000.0 -795073000000.0 -420429000000.0 -513136000000.0 -782222000000.0 -767932000000.0 -800102000000.0 -1.11089e+12 -934096000000.0 -1.02181e+12 -880006000000.0 -983990000000.0 -857072000000.0 -954527000000.0 -815644000000.0 -897013000000.0 -1.36544e+12 -1.16757e+12 -1.00457e+12 -904224000000.0 -873789000000.0 -514746000000.0 -638183000000.0 -903628000000.0 -1.00356e+12 -905075000000.0 -1.0383e+12 -2.06504e+12 -1.48039e+12 -1.39451e+12 -1.141e+12 -1.18147e+12 -1.11265e+12 -1.08533e+12 -1.05168e+12 -1.15568e+12 -1.28015e+12 -1.13728e+12 -1.01721e+12 -959864000000.0 -945227000000.0 -1.13187e+12 -1.0343e+12 -2.24251e+12 -1.72338e+12 -1.36509e+12 -1.24667e+12 -1.21175e+12 -1.18614e+12 -1.20055e+12 -1.31017e+12 -1.25428e+12 -1.13146e+12 -1.14973e+12 -1.0532e+12 -1.10282e+12 -1.02193e+12 -1.08922e+12 -611193000000.0 -767493000000.0 -1.21877e+12 -1.83539e+12 -1.97828e+12 -1.57406e+12 -1.38685e+12 -1.33235e+12 -1.43747e+12 -1.3153e+12 -1.42116e+12 -1.30045e+12 -1.39823e+12 -1.31431e+12 -1.39484e+12 -1.32779e+12 -1.33293e+12 -1.24112e+12 -1.24581e+12 -1.18565e+12 -1.16171e+12 -709438000000.0 -903021000000.0 -1.35604e+12 -1.53296e+12 -1.56838e+12 -1.76242e+12 -1.92925e+12 -1.84046e+12 -1.75802e+12 -1.65776e+12 -1.53153e+12 -1.55679e+12 -1.44859e+12 -1.54174e+12 -1.54832e+12 -1.51434e+12 -1.47019e+12 -1.4173e+12 -1.3361e+12 -1.26824e+12 -1.23499e+12 -1.22702e+12 -1.58537e+12 -1.67803e+12 -1.81739e+12 -1.73948e+12 -1.64249e+12 -1.632e+12 -1.6664e+12 -1.64754e+12 -1.58505e+12 -1.51267e+12 -1.42341e+12 -1.34835e+12 -1.3067e+12 -1.35937e+12 -1.29447e+12 -1.36037e+12 -809079000000.0 -1.05039e+12 -1.69083e+12 -1.77124e+12 -1.77897e+12 -1.68755e+12 -1.69701e+12 -1.74463e+12 -1.90991e+12 -1.7863e+12 -1.88002e+12 -1.72427e+12 -1.77342e+12 -1.62867e+12 -1.6395e+12 -1.51875e+12 -1.51133e+12 -1.4273e+12 -1.44077e+12 -1.37518e+12 -1.41892e+12 -1.42301e+12 -909729000000.0 -1.18469e+12 -1.74649e+12 -1.81833e+12 -1.77368e+12 -1.82148e+12 -1.79179e+12 -1.74015e+12 -1.70755e+12 -1.66443e+12 -1.71488e+12 -1.8251e+12 -1.80503e+12 -1.94338e+12 -2.04436e+12 -1.9421e+12 -1.78972e+12 -1.61329e+12 -1.50663e+12 -1.47209e+12 -1.47908e+12 -1.49252e+12 -1.87936e+12 -1.8736e+12 -1.81818e+12 -1.60363e+12 -1.76297e+12 -1.97958e+12 -2.19355e+12 -2.13339e+12 -2.18571e+12 -1.96899e+12 -1.94657e+12 -1.76048e+12 -1.57933e+12 -1.51938e+12 -1.52517e+12 -1.59775e+12 -1.55102e+12 -1.62786e+12 -1.01112e+12 -1.30866e+12 -2.00518e+12 -1.93957e+12 -1.90199e+12 -1.74506e+12 -1.41168e+12 -1.94645e+12 -2.12695e+12 -2.56978e+12 -2.33859e+12 -2.41155e+12 -2.20209e+12 -1.83232e+12 -1.67256e+12 -1.59316e+12 -1.56128e+12 -1.58585e+12 -1.56071e+12 -1.62797e+12 -1.6831e+12 -1.11324e+12 -1.42437e+12 -2.06551e+12 -1.98951e+12 -2.02632e+12 -1.88669e+12 -1.7907e+12 -1.516e+12 -1.38024e+12 -1.24113e+12 -1.1238e+12 -2.13264e+12 -2.16801e+12 -2.73239e+12 -2.38356e+12 -2.24568e+12 -1.53745e+12 -1.59747e+12 -1.64276e+12 -1.71929e+12 -1.77199e+12 -2.13419e+12 -2.12336e+12 -2.05077e+12 -1.28822e+12 -1.3212e+12 -937804000000.0 -3.39799e+12 -2.76902e+12 -2.56022e+12 -2.5365e+12 -2.41489e+12 -2.5187e+12 -2.38087e+12 -2.8355e+12 -1.47429e+12 -1.48696e+12 -1.64318e+12 -1.71807e+12 -1.72851e+12 -1.84716e+12 -1.82473e+12 -1.93161e+12 -1.21653e+12 -1.53419e+12 -2.26865e+12 -2.1992e+12 -2.27075e+12 -2.18584e+12 -2.27568e+12 -2.09582e+12 -1.34512e+12 -1.25762e+12 -2.33753e+12 -2.62995e+12 -2.59996e+12 -2.76457e+12 -3.17261e+12 -1.54981e+12 -1.82182e+12 -1.98232e+12 -1.32204e+12 -1.63811e+12 -2.34331e+12 -2.36037e+12 -2.37043e+12 -1.17871e+12 -1.32849e+12 -1.34919e+12 -1.59846e+12 -1.33043e+12 -2.27335e+12 -2.48127e+12 -2.64566e+12 -2.75236e+12 -3.07323e+12 -3.38161e+12 -3.43667e+12 -1.65491e+12 -1.98359e+12 -2.11414e+12 -2.39025e+12 -2.44813e+12 -2.46259e+12 -1.01828e+12 -1.6979e+12 -1.84371e+12 -2.47589e+12 -2.58503e+12 -2.70043e+12 -2.74716e+12 -2.90343e+12 -2.96561e+12 -3.20763e+12 -3.32301e+12 -3.45512e+12 -3.34038e+12 -1.80825e+12 -2.12433e+12 -2.16872e+12 -2.31723e+12 -1.42924e+12 -1.73947e+12 -2.47834e+12 -2.46006e+12 -2.56482e+12 -2.61553e+12 -2.90758e+12 -2.44124e+12 -1.673e+12 -1.9739e+12 -2.19101e+12 -2.31724e+12 -2.62329e+12 -2.83412e+12 -3.09543e+12 -3.40694e+12 -3.4397e+12 -3.11804e+12 -2.77935e+12 -2.38348e+12 -1.53616e+12 -1.84749e+12 -2.52415e+12 -2.72784e+12 -3.64818e+12 -2.54225e+12 -1.46858e+12 -2.05441e+12 -2.03178e+12 -2.25139e+12 -2.45747e+12 -2.52934e+12 -2.66561e+12 -2.74829e+12 -2.99178e+12 -3.33547e+12 -3.55059e+12 -3.47955e+12 -3.4029e+12 -3.30024e+12 -3.07403e+12 -2.63766e+12 -2.52532e+12 -1.98041e+12 -2.51616e+12 -2.5202e+12 -2.59706e+12 -2.70792e+12 -3.0362e+12 -3.03656e+12 -2.4306e+12 -2.32345e+12 -2.43509e+12 -2.62294e+12 -2.75056e+12 -2.86739e+12 -3.00203e+12 -3.18108e+12 -3.52183e+12 -3.57575e+12 -3.22965e+12 -2.87968e+12 -2.82169e+12 -2.67406e+12 -2.75032e+12 -1.64963e+12 -2.49741e+12 -2.51242e+12 -2.75204e+12 -2.80205e+12 -2.53761e+12 -2.65101e+12 -2.50647e+12 -2.65228e+12 -2.61361e+12 -2.727e+12 -2.77695e+12 -3.17976e+12 -3.85946e+12 -3.68613e+12 -3.36076e+12 -3.1474e+12 -3.04977e+12 -2.95723e+12 -2.85157e+12 -1.77884e+12 -2.16428e+12 -2.4746e+12 -2.23552e+12 -2.28424e+12 -3.11627e+12 -3.0653e+12 -3.02672e+12 -2.78095e+12 -2.83474e+12 -2.75998e+12 -2.77923e+12 -2.73704e+12 -2.80831e+12 -2.77353e+12 -2.69959e+12 -3.87825e+12 -4.17831e+12 -3.15819e+12 -3.04268e+12 -2.9504e+12 -2.91903e+12 -1.90408e+12 -2.55401e+12 -2.37115e+12 -2.3067e+12 -3.55811e+12 -3.23099e+12 -3.0304e+12 -2.90396e+12 -2.85996e+12 -2.86977e+12 -2.81977e+12 -2.74535e+12 -2.59252e+12 -2.27907e+12 -1.57778e+12 -2.18515e+12 -3.43539e+12 -3.01977e+12 -3.0425e+12 -3.04223e+12 -2.98415e+12 -3.06408e+12 -2.16253e+12 -3.69895e+12 -3.67427e+12 -3.43589e+12 -3.42324e+12 -3.22724e+12 -3.23326e+12 -3.06546e+12 -3.11233e+12 -2.97694e+12 -3.04806e+12 -2.94897e+12 -3.01476e+12 -2.91892e+12 -2.74098e+12 -2.37156e+12 -2.03876e+12 -2.53241e+12 -3.17015e+12 -3.10939e+12 -3.06815e+12 -3.11804e+12 -2.03557e+12 -3.04075e+12 -3.00443e+12 -3.5505e+12 -3.77483e+12 -3.53994e+12 -3.40562e+12 -3.25552e+12 -3.16468e+12 -3.11252e+12 -3.05031e+12 -2.91796e+12 -2.8199e+12 -2.47192e+12 -2.34217e+12 -1.73092e+12 -2.96195e+12 -3.30289e+12 -3.19478e+12 -3.20354e+12 -2.1822e+12 -3.45707e+12 -4.3469e+12 -3.71696e+12 -3.7585e+12 -3.55129e+12 -3.40143e+12 -3.28969e+12 -3.2171e+12 -3.16097e+12 -3.18778e+12 -3.04418e+12 -3.06414e+12 -2.82873e+12 -2.77656e+12 -2.48007e+12 -2.42874e+12 -2.1245e+12 -3.38957e+12 -3.30943e+12 -3.25258e+12 -3.35249e+12 -3.23044e+12 -4.10555e+12 -4.23993e+12 -3.92048e+12 -3.95902e+12 -3.54616e+12 -3.62614e+12 -3.53627e+12 -3.54135e+12 -3.41762e+12 -3.44588e+12 -3.3293e+12 -3.36643e+12 -3.26362e+12 -3.29805e+12 -3.21644e+12 -3.10511e+12 -2.9165e+12 -2.8494e+12 -4.58495e+12 -4.22093e+12 -3.40538e+12 -3.40263e+12 -3.54864e+12 -2.30889e+12 -4.2504e+12 -4.4055e+12 -4.4264e+12 -3.31413e+12 -3.64756e+12 -3.56446e+12 -3.47306e+12 -3.49085e+12 -3.39605e+12 -3.42197e+12 -3.32888e+12 -3.25224e+12 -3.19899e+12 -3.09719e+12 -3.51208e+12 -3.79173e+12 -4.24351e+12 -3.77258e+12 -3.44906e+12 -3.37704e+12 -2.4861e+12 -2.67185e+12 -4.31796e+12 -4.63781e+12 -4.62343e+12 -4.97693e+12 -4.58827e+12 -3.20576e+12 -3.69383e+12 -3.68324e+12 -3.70909e+12 -3.58528e+12 -3.58726e+12 -3.50595e+12 -3.45046e+12 -3.3619e+12 -3.40887e+12 -3.31117e+12 -3.44891e+12 -3.84216e+12 -4.17685e+12 -3.77122e+12 -3.06473e+12 -3.55556e+12 -4.11753e+12 -8978480000.0 -5.24791e+12 -3.19271e+12 -3.78448e+12 -4.52585e+12 -4.96322e+12 -5.3163e+12 -5.24319e+12 -3.92836e+12 -3.79864e+12 -3.86102e+12 -3.69178e+12 -3.58473e+12 -3.52615e+12 -3.49112e+12 -3.49532e+12 -3.4478e+12 -3.68474e+12 -4.04827e+12 -4.0377e+12 -3.46784e+12 -2.9757e+12 -5.21748e+12 -4.57512e+12 -2.4696e+12 -4.082e+12 -4.69555e+12 -6.76547e+12 -5.8654e+12 -4.6861e+12 -4.87464e+12 -4.78398e+12 -5.03479e+12 -5.47415e+12 -3.53312e+12 -4.53642e+12 -4.09627e+12 -3.81959e+12 -3.75699e+12 -3.66383e+12 -3.64678e+12 -3.59143e+12 -3.61665e+12 -3.56078e+12 -3.55839e+12 -3.61204e+12 -3.62128e+12 -3.78484e+12 -3.88851e+12 -3.96447e+12 -4.85656e+12 -5.38121e+12 -5.02565e+12 -4.67272e+12 -4.7142e+12 -6.51272e+12 -4.3448e+12 -4.15576e+12 -4.56383e+12 -4.4461e+12 -6.44076e+12 -6.76372e+12 -6.34845e+12 -5.60282e+12 -4.87206e+12 -5.02133e+12 -5.25484e+12 -4.92865e+12 -4.97134e+12 -4.36753e+12 -4.01185e+12 -3.8954e+12 -3.70538e+12 -3.65745e+12 -3.67219e+12 -3.62128e+12 -3.71047e+12 -3.65072e+12 -3.72899e+12 -3.9275e+12 -4.01699e+12 -4.24178e+12 -4.35439e+12 -5.13057e+12 -5.29651e+12 -4.96108e+12 -5.19307e+12 -6.48306e+12 -4.03954e+12 -4.38479e+12 -7.02443e+12 -7.19863e+12 -6.46767e+12 -5.72888e+12 -5.2211e+12 -5.12994e+12 -4.61813e+12 -3.6786e+12 -4.81561e+12 -4.14393e+12 -3.79684e+12 -3.68263e+12 -3.70383e+12 -3.76519e+12 -3.81062e+12 -3.73989e+12 -3.78166e+12 -3.84164e+12 -4.11323e+12 -4.47584e+12 -4.7646e+12 -5.05202e+12 -5.10114e+12 -4.9692e+12 -5.77945e+12 -5.95485e+12 -6.2424e+12 -6.62852e+12 -6.52188e+12 -3.86886e+12 -4.06319e+12 -4.1917e+12 -6.90727e+12 -7.04125e+12 -7.0109e+12 -6.55145e+12 -5.61483e+12 -5.47166e+12 -4.89244e+12 -5.45333e+12 -4.91711e+12 -4.59415e+12 -3.72842e+12 -4.06331e+12 -4.39252e+12 -3.9981e+12 -3.9612e+12 -3.84119e+12 -3.72898e+12 -3.70109e+12 -3.71592e+12 -3.79846e+12 -3.88619e+12 -3.85944e+12 -3.85761e+12 -3.98056e+12 -4.31067e+12 -4.70338e+12 -4.94434e+12 -5.03642e+12 -4.95421e+12 -6.6103e+12 -6.27383e+12 -6.16148e+12 -6.44505e+12 -6.07421e+12 -3.94741e+12 -3.78349e+12 -4.01888e+12 -6.76913e+12 -6.7547e+12 -6.9454e+12 -6.44048e+12 -6.21429e+12 -6.48422e+12 -6.35165e+12 -5.87546e+12 -5.09948e+12 -4.42292e+12 -6.35026e+12 -5.11789e+12 -4.49376e+12 -4.34016e+12 -3.76047e+12 -3.75148e+12 -3.79044e+12 -3.80537e+12 -3.96503e+12 -3.9417e+12 -4.03678e+12 -3.9695e+12 -3.69189e+12 -4.03665e+12 -4.16517e+12 -4.33839e+12 -4.49722e+12 -4.87857e+12 -5.06756e+12 -4.21515e+12 -6.21804e+12 -6.3472e+12 -6.11148e+12 -6.08634e+12 -3.65447e+12 -4.05023e+12 -6.60081e+12 -6.66782e+12 -6.61477e+12 -6.62982e+12 -6.48476e+12 -6.10033e+12 -5.84375e+12 -5.8686e+12 -5.74703e+12 -4.75955e+12 -4.56011e+12 -4.51231e+12 -3.61711e+12 -3.70564e+12 -3.9479e+12 -4.07411e+12 -3.5853e+12 -3.59743e+12 -3.81107e+12 -3.91847e+12 -4.19943e+12 -4.5067e+12 -4.67611e+12 -4.83269e+12 -5.00443e+12 -5.27907e+12 -5.16499e+12 -5.91468e+12 -6.32211e+12 -4.96412e+12 -6.18467e+12 -6.70763e+12 -5.16602e+12 -5.91944e+12 -6.20917e+12 -6.26927e+12 -3.55104e+12 -4.22206e+12 -4.1467e+12 -6.58827e+12 -6.51453e+12 -6.46019e+12 -6.55885e+12 -6.6972e+12 -6.47599e+12 -6.48766e+12 -6.43782e+12 -6.18887e+12 -5.98442e+12 -5.82129e+12 -5.85275e+12 -6.0785e+12 -5.53802e+12 -5.21632e+12 -4.90468e+12 -4.63864e+12 -4.62052e+12 -4.62447e+12 -4.643e+12 -4.5995e+12 -4.64412e+12 -3.47441e+12 -3.92155e+12 -4.05469e+12 -3.60582e+12 -3.74934e+12 -3.95327e+12 -4.07212e+12 -4.2301e+12 -4.36255e+12 -4.66673e+12 -5.03777e+12 -5.56966e+12 -5.91358e+12 -5.02378e+12 -5.50366e+12 -5.97722e+12 -6.08155e+12 -5.99246e+12 -6.12676e+12 -6.09684e+12 -6.33614e+12 -3.53384e+12 -3.60012e+12 -4.19174e+12 -6.50341e+12 -6.40764e+12 -6.508e+12 -6.49403e+12 -6.62274e+12 -6.51978e+12 -6.66606e+12 -6.28562e+12 -6.54245e+12 -6.41334e+12 -5.95327e+12 -5.82716e+12 -5.70537e+12 -5.16616e+12 -4.76001e+12 -4.59603e+12 -4.60014e+12 -4.64084e+12 -3.38502e+12 -3.98703e+12 -4.01071e+12 -3.7297e+12 -3.6606e+12 -3.73873e+12 -3.8464e+12 -4.10401e+12 -4.38859e+12 -4.52282e+12 -4.68889e+12 -4.8443e+12 -5.01889e+12 -5.2681e+12 -5.64234e+12 -6.77099e+12 -5.89463e+12 -6.30305e+12 -6.29833e+12 -6.19535e+12 -6.22176e+12 -6.34074e+12 -6.43902e+12 -3.66232e+12 -4.05316e+12 -4.08212e+12 -6.38034e+12 -6.48101e+12 -6.14614e+12 -6.36717e+12 -6.52607e+12 -6.84069e+12 -7.11684e+12 -5.75569e+12 -6.99503e+12 -6.5004e+12 -6.1853e+12 -5.65796e+12 -5.63205e+12 -5.42241e+12 -5.33468e+12 -4.94808e+12 -4.67482e+12 -4.53388e+12 -4.49683e+12 -3.98242e+12 -3.51114e+12 -3.79332e+12 -3.75676e+12 -3.70651e+12 -3.75242e+12 -3.87381e+12 -3.98558e+12 -4.2564e+12 -4.55164e+12 -4.84519e+12 -5.12043e+12 -5.34551e+12 -6.01913e+12 -6.04051e+12 -6.19392e+12 -6.48596e+12 -6.63421e+12 -6.23013e+12 -6.29494e+12 -6.32465e+12 -6.2684e+12 -6.35475e+12 -6.4576e+12 -6.46862e+12 -3.71924e+12 -3.98603e+12 -6.60573e+12 -6.04173e+12 -5.09386e+12 -6.04291e+12 -6.29532e+12 -6.6486e+12 -6.72985e+12 -6.26122e+12 -6.08538e+12 -6.1284e+12 -5.93394e+12 -5.7629e+12 -5.41992e+12 -5.1356e+12 -5.0748e+12 -4.9521e+12 -4.81987e+12 -4.70167e+12 -4.57944e+12 -4.44054e+12 -4.40436e+12 -3.92117e+12 -3.9077e+12 -4.39785e+12 -3.96765e+12 -3.73048e+12 -3.78092e+12 -3.99818e+12 -4.12674e+12 -4.27683e+12 -4.41465e+12 -4.5714e+12 -4.70783e+12 -4.83355e+12 -4.95263e+12 -5.37998e+12 -6.11744e+12 -5.75289e+12 -5.8301e+12 -6.24761e+12 -6.68744e+12 -6.32367e+12 -6.21733e+12 -6.30218e+12 -6.34656e+12 -6.46084e+12 -3.77244e+12 -3.88835e+12 -6.52997e+12 -6.60603e+12 -6.52691e+12 -6.42535e+12 -6.04948e+12 -5.89825e+12 -6.09414e+12 -6.36397e+12 -6.29118e+12 -5.85894e+12 -5.58145e+12 -5.33622e+12 -5.52918e+12 -5.46018e+12 -5.19674e+12 -5.17875e+12 -4.97479e+12 -4.85196e+12 -4.5468e+12 -4.0556e+12 -4.56407e+12 -4.70796e+12 -4.21027e+12 -3.85715e+12 -3.81256e+12 -3.7084e+12 -3.7387e+12 -3.87611e+12 -4.13527e+12 -4.43187e+12 -4.7075e+12 -4.94575e+12 -5.06394e+12 -5.06123e+12 -5.52865e+12 -5.37985e+12 -5.31991e+12 -5.73905e+12 -6.06766e+12 -6.95533e+12 -6.25447e+12 -5.54579e+12 -5.96794e+12 -6.35626e+12 -6.25388e+12 -6.23619e+12 -6.23283e+12 -6.3316e+12 -6.33042e+12 -6.45306e+12 -3.82139e+12 -3.85192e+12 -3.74622e+12 -3.79079e+12 -6.43374e+12 -6.44886e+12 -6.35877e+12 -6.10419e+12 -6.33363e+12 -6.70759e+12 -6.0341e+12 -6.14159e+12 -6.11827e+12 -5.92567e+12 -5.90248e+12 -5.55457e+12 -4.25918e+12 -5.51e+12 -5.34655e+12 -4.78495e+12 -4.87427e+12 -5.0034e+12 -4.68622e+12 -4.27949e+12 -4.33151e+12 -4.36951e+12 -3.99244e+12 -3.79148e+12 -3.73911e+12 -3.66842e+12 -3.76671e+12 -3.86021e+12 -3.99544e+12 -4.12622e+12 -4.28128e+12 -4.57891e+12 -4.81297e+12 -4.8268e+12 -4.9597e+12 -4.8182e+12 -3.68214e+12 -4.879e+12 -5.53415e+12 -5.99765e+12 -5.87327e+12 -6.10393e+12 -6.19065e+12 -6.23039e+12 -6.29803e+12 -6.4198e+12 -3.86938e+12 -3.7132e+12 -6.40121e+12 -6.33185e+12 -6.34657e+12 -6.27265e+12 -5.76962e+12 -6.2123e+12 -5.85977e+12 -6.04434e+12 -5.81216e+12 -5.58601e+12 -5.19701e+12 -6.33559e+12 -5.52525e+12 -5.08683e+12 -5.04218e+12 -4.98484e+12 -4.08605e+12 -4.86206e+12 -5.03874e+12 -4.87255e+12 -4.59679e+12 -4.44402e+12 -4.27304e+12 -4.20183e+12 -4.16161e+12 -4.27317e+12 -4.04543e+12 -3.81442e+12 -3.78074e+12 -3.68939e+12 -3.9741e+12 -4.26402e+12 -4.42939e+12 -4.57028e+12 -4.70726e+12 -4.77982e+12 -4.65906e+12 -5.07597e+12 -5.09558e+12 -6.07777e+12 -5.2266e+12 -5.39453e+12 -6.05557e+12 -6.62873e+12 -6.14251e+12 -6.12681e+12 -6.33739e+12 -6.03144e+12 -6.0885e+12 -6.18146e+12 -6.16765e+12 -6.27026e+12 -6.37639e+12 -6.30101e+12 -3.86366e+12 -3.84546e+12 -3.65711e+12 -6.24675e+12 -6.34698e+12 -6.27228e+12 -6.32769e+12 -6.44438e+12 -6.19372e+12 -5.80085e+12 -5.77682e+12 -5.88604e+12 -5.74786e+12 -5.64096e+12 -5.57375e+12 -4.29903e+12 -5.18972e+12 -4.8133e+12 -4.75055e+12 -4.57586e+12 -3.30085e+12 -4.65534e+12 -4.39598e+12 -4.12868e+12 -4.02766e+12 -4.06926e+12 -3.85231e+12 -3.84899e+12 -3.72214e+12 -3.76989e+12 -3.76502e+12 -3.81742e+12 -4.0893e+12 -4.41009e+12 -4.6853e+12 -4.7904e+12 -4.37123e+12 -4.70687e+12 -4.76814e+12 -4.34374e+12 -5.56784e+12 -5.64488e+12 -5.96917e+12 -4.96293e+12 -6.59819e+12 -6.08462e+12 -6.08171e+12 -6.09035e+12 -6.08265e+12 -6.19676e+12 -6.22078e+12 -3.8099e+12 -3.50975e+12 -3.59157e+12 -6.15069e+12 -6.14878e+12 -6.05068e+12 -6.23505e+12 -6.25201e+12 -6.60123e+12 -4.50794e+12 -5.41794e+12 -5.63552e+12 -5.6045e+12 -5.52352e+12 -5.47004e+12 -5.4408e+12 -5.61294e+12 -6.34481e+12 -5.04002e+12 -5.19687e+12 -4.52055e+12 -4.32909e+12 -3.98775e+12 -3.09142e+12 -4.44537e+12 -4.11305e+12 -4.16309e+12 -3.99813e+12 -3.85169e+12 -3.70313e+12 -3.64438e+12 -3.70297e+12 -3.66088e+12 -3.71829e+12 -3.77509e+12 -3.92505e+12 -4.03184e+12 -4.21191e+12 -4.33936e+12 -4.5639e+12 -4.74794e+12 -4.73517e+12 -4.6934e+12 -4.84751e+12 -5.44474e+12 -4.95978e+12 -5.2149e+12 -5.36976e+12 -5.58437e+12 -5.3369e+12 -5.49815e+12 -5.03815e+12 -6.56903e+12 -6.20786e+12 -5.55341e+12 -5.79683e+12 -5.95122e+12 -6.04169e+12 -6.12897e+12 -6.03441e+12 -6.12668e+12 -6.0243e+12 -3.75622e+12 -3.40594e+12 -6.04519e+12 -5.96149e+12 -6.05992e+12 -5.97724e+12 -5.92515e+12 -5.61059e+12 -6.19239e+12 -5.55924e+12 -4.79088e+12 -5.49828e+12 -5.44481e+12 -5.45487e+12 -5.41789e+12 -5.41344e+12 -3.91995e+12 -4.52592e+12 -4.40648e+12 -4.31692e+12 -3.81996e+12 -3.32136e+12 -2.36306e+12 -2.82587e+12 -4.00228e+12 -4.00357e+12 -3.82296e+12 -3.83621e+12 -3.68436e+12 -3.58968e+12 -3.58178e+12 -3.65121e+12 -3.8545e+12 -4.15996e+12 -4.44444e+12 -4.9846e+12 -5.59491e+12 -3.39309e+12 -4.08861e+12 -6.17691e+12 -5.36498e+12 -5.23923e+12 -5.2622e+12 -5.37764e+12 -5.32596e+12 -5.54711e+12 -5.27862e+12 -5.50541e+12 -5.07958e+12 -5.82729e+12 -5.86031e+12 -5.94699e+12 -5.86711e+12 -5.95062e+12 -5.92588e+12 -5.91671e+12 -3.69011e+12 -3.61627e+12 -3.28701e+12 -5.76557e+12 -5.92028e+12 -5.84473e+12 -5.88427e+12 -5.83319e+12 -5.92312e+12 -5.8797e+12 -4.47921e+12 -4.87451e+12 -4.86933e+12 -5.30435e+12 -5.34886e+12 -5.35064e+12 -5.41331e+12 -5.43436e+12 -5.5102e+12 -5.08932e+12 -5.44263e+12 -3.96795e+12 -4.57493e+12 -3.78433e+12 -2.55879e+12 -3.69521e+12 -3.47537e+12 -3.80349e+12 -3.64853e+12 -3.67198e+12 -3.51609e+12 -3.54824e+12 -3.43669e+12 -3.50595e+12 -3.5483e+12 -3.69254e+12 -3.91427e+12 -4.35014e+12 -4.62946e+12 -4.42615e+12 -3.7797e+12 -4.21419e+12 -4.7655e+12 -5.28458e+12 -5.45454e+12 -5.1806e+12 -5.13667e+12 -5.19266e+12 -5.20656e+12 -5.35373e+12 -5.36635e+12 -5.72197e+12 -5.84609e+12 -6.6574e+12 -5.85781e+12 -5.67611e+12 -5.75746e+12 -5.74007e+12 -5.83177e+12 -5.8189e+12 -5.70753e+12 -5.80781e+12 -3.53716e+12 -3.05476e+12 -3.166e+12 -5.58695e+12 -5.71098e+12 -5.63675e+12 -5.76693e+12 -5.70303e+12 -5.82289e+12 -5.79188e+12 -5.70394e+12 -6.405e+12 -5.75391e+12 -5.12211e+12 -5.20707e+12 -5.37317e+12 -5.43443e+12 -5.2997e+12 -5.73122e+12 -4.5015e+12 -4.08675e+12 -5.10221e+12 -4.53894e+12 -4.25968e+12 -4.89341e+12 -4.64141e+12 -3.46454e+12 -3.62423e+12 -3.50061e+12 -3.60361e+12 -3.48982e+12 -3.37603e+12 -3.34804e+12 -3.4465e+12 -3.41062e+12 -3.54632e+12 -3.58783e+12 -3.75842e+12 -3.72248e+12 -3.99947e+12 -4.2101e+12 -4.99529e+12 -6.14061e+12 -4.61568e+12 -4.69498e+12 -4.94811e+12 -5.00694e+12 -4.93987e+12 -4.97459e+12 -5.00365e+12 -5.09057e+12 -5.14051e+12 -5.31321e+12 -5.80097e+12 -6.08349e+12 -5.69779e+12 -5.44933e+12 -5.62522e+12 -5.60288e+12 -5.70999e+12 -5.60403e+12 -5.59669e+12 -5.70374e+12 -5.60994e+12 -3.44685e+12 -3.34721e+12 -2.95818e+12 -5.39657e+12 -5.35497e+12 -5.54429e+12 -5.50437e+12 -5.55971e+12 -5.50387e+12 -5.67501e+12 -5.67706e+12 -6.04257e+12 -6.01049e+12 -5.3029e+12 -4.99591e+12 -5.30899e+12 -5.44349e+12 -5.25006e+12 -5.31822e+12 -5.48225e+12 -4.94561e+12 -4.42431e+12 -4.74449e+12 -4.41778e+12 -4.31202e+12 -4.21163e+12 -3.76659e+12 -3.51451e+12 -3.35078e+12 -3.43733e+12 -3.28819e+12 -3.3294e+12 -3.25693e+12 -3.28683e+12 -3.40365e+12 -3.67793e+12 -3.70319e+12 -4.51888e+12 -5.20461e+12 -5.28607e+12 -4.90756e+12 -4.62658e+12 -4.53955e+12 -4.59453e+12 -4.67026e+12 -4.7225e+12 -5.3969e+12 -5.23855e+12 -5.38334e+12 -5.31118e+12 -4.99776e+12 -5.31151e+12 -5.4813e+12 -5.33066e+12 -5.47263e+12 -5.39314e+12 -5.49318e+12 -5.37713e+12 -5.49279e+12 -5.51103e+12 -3.23368e+12 -2.87336e+12 -5.20072e+12 -5.15738e+12 -5.33152e+12 -5.30519e+12 -5.4198e+12 -5.34004e+12 -5.48903e+12 -5.49626e+12 -5.65838e+12 -5.58913e+12 -5.42747e+12 -5.33433e+12 -4.88747e+12 -4.73498e+12 -5.04941e+12 -5.13944e+12 -5.30546e+12 -5.48994e+12 -4.65274e+12 -5.50593e+12 -5.08074e+12 -5.53839e+12 -4.81871e+12 -4.50662e+12 -4.25303e+12 -3.61566e+12 -2.98497e+12 -3.06918e+12 -3.49976e+12 -3.33265e+12 -3.20434e+12 -3.10559e+12 -3.1749e+12 -3.05095e+12 -3.14906e+12 -3.24663e+12 -3.44168e+12 -3.47016e+12 -3.45554e+12 -2.81822e+12 -3.92267e+12 -4.50792e+12 -4.74323e+12 -4.86427e+12 -4.82651e+12 -4.15096e+12 -4.12623e+12 -4.25145e+12 -4.76952e+12 -4.83981e+12 -4.90259e+12 -5.00686e+12 -5.07911e+12 -5.24022e+12 -4.8031e+12 -4.39617e+12 -4.69918e+12 -4.83336e+12 -5.14654e+12 -5.23677e+12 -5.19784e+12 -5.28262e+12 -5.27241e+12 -5.40498e+12 -5.30128e+12 -5.40678e+12 -5.29583e+12 -3.09367e+12 -2.69994e+12 -2.78947e+12 -4.79092e+12 -5.00101e+12 -4.95424e+12 -5.13575e+12 -5.13595e+12 -5.18735e+12 -5.29417e+12 -5.30457e+12 -5.22749e+12 -5.08499e+12 -4.60894e+12 -4.26829e+12 -4.89331e+12 -5.1323e+12 -5.58144e+12 -6.10253e+12 -4.86749e+12 -4.84419e+12 -5.28801e+12 -3.06943e+12 -4.25488e+12 -4.13095e+12 -4.04202e+12 -3.91727e+12 -1.79341e+12 -3.35786e+12 -3.16188e+12 -3.04038e+12 -2.94229e+12 -2.91094e+12 -3.05895e+12 -2.93073e+12 -3.27334e+12 -3.53109e+12 -2.22053e+12 -3.83454e+12 -4.25242e+12 -4.92324e+12 -4.79971e+12 -4.62881e+12 -2.98634e+12 -4.41785e+12 -4.50071e+12 -4.57628e+12 -4.64984e+12 -4.73749e+12 -4.80326e+12 -4.88386e+12 -4.32979e+12 -2.98498e+12 -3.9945e+12 -4.98777e+12 -4.99689e+12 -5.09728e+12 -5.05695e+12 -5.08518e+12 -5.1573e+12 -5.19585e+12 -5.18609e+12 -5.1415e+12 -2.93288e+12 -2.77592e+12 -2.59566e+12 -4.57102e+12 -4.74462e+12 -4.71449e+12 -4.92822e+12 -4.92715e+12 -4.95392e+12 -5.13363e+12 -4.9403e+12 -5.10227e+12 -5.05364e+12 -5.02123e+12 -5.28129e+12 -4.77019e+12 -4.77558e+12 -2.92193e+12 -4.41618e+12 -4.63459e+12 -4.93628e+12 -5.21747e+12 -3.76397e+12 -4.60324e+12 -5.817e+12 -3.75651e+12 -3.66675e+12 -3.93464e+12 -3.84575e+12 -3.68927e+12 -3.348e+12 -2.58254e+12 -4.38509e+12 -2.59576e+12 -2.8516e+12 -2.81073e+12 -2.85484e+12 -2.83349e+12 -2.78529e+12 -2.80931e+12 -4.52658e+12 -3.18148e+12 -3.88517e+12 -4.54408e+12 -4.7767e+12 -4.85631e+12 -5.31714e+12 -3.61577e+12 -3.99956e+12 -4.1809e+12 -4.29106e+12 -4.38156e+12 -4.47387e+12 -4.54891e+12 -4.61597e+12 -4.56668e+12 -5.54915e+12 -4.73229e+12 -4.77759e+12 -4.85118e+12 -4.97771e+12 -4.87057e+12 -4.92007e+12 -5.03597e+12 -4.99871e+12 -5.08373e+12 -4.95405e+12 -5.08047e+12 -4.91375e+12 -4.95133e+12 -2.64022e+12 -2.42663e+12 -4.16937e+12 -4.34702e+12 -4.52466e+12 -4.4978e+12 -4.70576e+12 -4.72242e+12 -4.96895e+12 -4.9039e+12 -4.92149e+12 -4.92654e+12 -4.80048e+12 -5.44864e+12 -3.75151e+12 -4.01032e+12 -4.22814e+12 -4.33684e+12 -3.61117e+12 -4.37528e+12 -4.82258e+12 -4.43155e+12 -3.16646e+12 -3.70808e+12 -3.5771e+12 -3.34089e+12 -2.94495e+12 -2.35314e+12 -3.33239e+12 -2.1752e+12 -2.40084e+12 -2.62887e+12 -2.6677e+12 -2.57841e+12 -2.65509e+12 -2.64211e+12 -2.45737e+12 -2.85458e+12 -3.66465e+12 -2.40075e+12 -3.53982e+12 -4.18282e+12 -4.36235e+12 -4.3934e+12 -4.87907e+12 -2.75344e+12 -3.62509e+12 -3.86165e+12 -4.00523e+12 -4.10594e+12 -4.20329e+12 -4.29044e+12 -4.36731e+12 -4.41742e+12 -4.45017e+12 -4.28517e+12 -4.84818e+12 -4.73443e+12 -4.70291e+12 -4.86041e+12 -4.70339e+12 -4.77665e+12 -4.81266e+12 -4.86622e+12 -4.8801e+12 -4.71917e+12 -4.74559e+12 -2.5254e+12 -2.01086e+12 -2.21774e+12 -3.91957e+12 -4.00951e+12 -4.28029e+12 -4.24102e+12 -4.50658e+12 -4.56875e+12 -4.75852e+12 -4.69505e+12 -4.51039e+12 -4.44757e+12 -4.74038e+12 -5.26657e+12 -5.90368e+12 -3.18157e+12 -4.61022e+12 -4.61619e+12 -3.05582e+12 -3.56879e+12 -3.58517e+12 -3.99786e+12 -4.21643e+12 -3.95974e+12 -3.85115e+12 -3.69263e+12 -3.67355e+12 -3.34103e+12 -3.10129e+12 -2.82713e+12 -2.95512e+12 -2.44435e+12 -1.51945e+12 -2.37909e+12 -2.86546e+12 -2.27574e+12 -2.23207e+12 -2.30955e+12 -1.77004e+12 -1.8957e+12 -2.61332e+12 -3.12358e+12 -3.87469e+12 -4.08935e+12 -4.16773e+12 -3.40432e+12 -4.03451e+12 -5.09513e+12 -3.42037e+12 -3.64937e+12 -3.76188e+12 -3.85017e+12 -3.93224e+12 -4.0199e+12 -4.09104e+12 -4.13551e+12 -4.16162e+12 -4.123e+12 -4.39014e+12 -3.3224e+12 -6.03885e+12 -5.16825e+12 -3.86185e+12 -5.04456e+12 -4.77033e+12 -4.38632e+12 -4.61426e+12 -4.70065e+12 -4.7525e+12 -4.72816e+12 -4.51108e+12 -4.53043e+12 -4.29872e+12 -2.42726e+12 -1.83388e+12 -3.61822e+12 -3.63398e+12 -3.88843e+12 -3.92997e+12 -4.24459e+12 -4.31713e+12 -4.45717e+12 -4.71165e+12 -5.00808e+12 -5.53386e+12 -3.11633e+12 -4.03726e+12 -5.0735e+12 -4.61041e+12 -3.97052e+12 -4.15007e+12 -3.86601e+12 -3.35151e+12 -3.25311e+12 -2.76967e+12 -3.68016e+12 -3.61696e+12 -3.8575e+12 -3.79207e+12 -3.76929e+12 -3.8296e+12 -3.67676e+12 -3.58436e+12 -3.50863e+12 -3.18608e+12 -3.03642e+12 -3.06898e+12 -3.01291e+12 -3.39248e+12 -3.02965e+12 -3.38696e+12 -2.37396e+12 -2.23854e+12 -2.46548e+12 -2.71694e+12 -3.72599e+12 -3.34886e+12 -3.24959e+12 -4.43881e+12 -2.26261e+12 -4.28389e+12 -3.99375e+12 -3.47638e+12 -3.55055e+12 -3.92214e+12 -3.96029e+12 -4.14371e+12 -3.97571e+12 -4.53101e+12 -4.96484e+12 -4.41346e+12 -5.38973e+12 -4.88623e+12 -4.42424e+12 -4.53782e+12 -4.44129e+12 -4.64017e+12 -4.57083e+12 -4.52065e+12 -4.33649e+12 -4.30273e+12 -4.02284e+12 -2.32431e+12 -1.63335e+12 -3.3112e+12 -3.38573e+12 -3.59888e+12 -3.53157e+12 -3.43698e+12 -3.89753e+12 -3.96797e+12 -4.09225e+12 -4.69011e+12 -5.0174e+12 -4.83594e+12 -3.37869e+12 -4.31748e+12 -4.22559e+12 -4.17906e+12 -3.77546e+12 -3.64364e+12 -3.41539e+12 -2.9038e+12 -2.67485e+12 -2.56702e+12 -3.23163e+12 -3.65017e+12 -3.6718e+12 -3.70964e+12 -3.76016e+12 -3.728e+12 -3.58828e+12 -3.46336e+12 -3.34187e+12 -2.99479e+12 -3.07183e+12 -3.10127e+12 -2.39757e+12 -3.74505e+12 -1.60802e+12 -1.33585e+12 -2.88993e+12 -1.49766e+12 -2.75733e+12 -1.59332e+12 -1.97973e+12 -2.51995e+12 -3.50568e+12 -4.02774e+12 -3.21433e+12 -3.59441e+12 -3.67877e+12 -3.69664e+12 -3.61845e+12 -3.68041e+12 -3.74736e+12 -3.8213e+12 -3.87587e+12 -3.71759e+12 -3.83171e+12 -3.85447e+12 -4.18514e+12 -4.11158e+12 -4.0988e+12 -2.88616e+12 -4.42213e+12 -3.97149e+12 -3.27187e+12 -4.91703e+12 -4.50059e+12 -3.69296e+12 -4.95904e+12 -4.61926e+12 -4.42558e+12 -4.09994e+12 -4.04342e+12 -3.69229e+12 -2.193e+12 -2.03165e+12 -1.14532e+12 -1.3983e+12 -2.50072e+12 -2.94623e+12 -3.01411e+12 -3.57006e+12 -3.93188e+12 -2.54349e+12 -3.52127e+12 -3.65956e+12 -4.25137e+12 -4.40478e+12 -4.3275e+12 -3.90691e+12 -3.83978e+12 -3.84864e+12 -3.73427e+12 -3.51905e+12 -3.51965e+12 -3.6277e+12 -3.98654e+12 -4.51274e+12 -4.51487e+12 -3.19023e+12 -3.57914e+12 -3.76943e+12 -3.72541e+12 -3.61791e+12 -3.46555e+12 -3.32911e+12 -3.20608e+12 -3.09296e+12 -3.04727e+12 -2.70582e+12 -2.15505e+12 -2.97275e+12 -1.84871e+12 -3.38901e+12 -1.65636e+12 -2.93668e+12 -3.13144e+12 -3.374e+12 -2.14172e+12 -2.68204e+12 -3.07336e+12 -3.27728e+12 -3.41611e+12 -3.43889e+12 -3.36998e+12 -3.40674e+12 -3.452e+12 -3.49656e+12 -3.54895e+12 -3.60451e+12 -3.65689e+12 -3.61464e+12 -3.85812e+12 -3.89891e+12 -3.86109e+12 -3.73716e+12 -4.08265e+12 -3.65586e+12 -2.54883e+12 -4.95631e+12 -4.40772e+12 -4.8065e+12 -4.40722e+12 -4.21693e+12 -3.76125e+12 -3.70652e+12 -3.33452e+12 -3.08606e+12 -1.82148e+12 -1.60182e+12 -860718000000.0 -2.03241e+12 -2.56475e+12 -2.69179e+12 -3.22927e+12 -3.63478e+12 -4.07092e+12 -2.91234e+12 -3.14565e+12 -3.80756e+12 -3.91868e+12 -3.90244e+12 -4.07376e+12 -3.71354e+12 -3.69634e+12 -3.46957e+12 -3.43409e+12 -4.11537e+12 -3.56852e+12 -3.37062e+12 -3.60588e+12 -3.73482e+12 -3.78027e+12 -3.63335e+12 -3.47268e+12 -3.31745e+12 -3.18934e+12 -3.08674e+12 -3.01782e+12 -2.963e+12 -2.95899e+12 -2.94668e+12 -2.7742e+12 -3.02873e+12 -2.96331e+12 -3.25806e+12 -2.94314e+12 -2.96867e+12 -2.99353e+12 -2.43543e+12 -2.57396e+12 -2.76581e+12 -2.95166e+12 -3.10534e+12 -3.20177e+12 -3.22852e+12 -3.21508e+12 -3.23861e+12 -3.26777e+12 -3.29727e+12 -3.33188e+12 -3.37389e+12 -3.42834e+12 -3.53698e+12 -3.66495e+12 -3.67494e+12 -3.65171e+12 -3.86698e+12 -3.74484e+12 -3.26367e+12 -3.70752e+12 -3.91187e+12 -2.85266e+12 -5.1927e+12 -4.1618e+12 -4.01467e+12 -3.8628e+12 -3.3372e+12 -3.31823e+12 -2.74354e+12 -2.79567e+12 -1.41158e+12 -1.10671e+12 -1.54992e+12 -2.04017e+12 -2.08101e+12 -3.03134e+12 -3.48979e+12 -1.9452e+12 -2.55721e+12 -3.34198e+12 -3.48326e+12 -3.52975e+12 -3.81878e+12 -3.7787e+12 -3.58136e+12 -3.51049e+12 -2.86866e+12 -3.38212e+12 -3.3476e+12 -3.45283e+12 -3.67182e+12 -3.96183e+12 -3.77219e+12 -3.2546e+12 -2.79395e+12 -3.76956e+12 -3.88968e+12 -3.28702e+12 -3.14933e+12 -3.04486e+12 -2.97038e+12 -2.91445e+12 -2.88381e+12 -2.85458e+12 -2.78419e+12 -2.84789e+12 -2.67493e+12 -2.53177e+12 -2.60364e+12 -2.40588e+12 -2.59686e+12 -2.23454e+12 -2.89011e+12 -3.0193e+12 -2.98379e+12 -2.89425e+12 -2.8773e+12 -2.66968e+12 -2.61291e+12 -2.65406e+12 -2.74301e+12 -2.85257e+12 -2.94967e+12 -3.01427e+12 -3.03864e+12 -3.04166e+12 -3.05484e+12 -3.06855e+12 -3.08015e+12 -3.09452e+12 -3.11547e+12 -3.16395e+12 -3.27695e+12 -3.58879e+12 -3.49998e+12 -3.50803e+12 -3.59769e+12 -3.57812e+12 -3.47749e+12 -3.41201e+12 -3.38119e+12 -3.18688e+12 -4.01965e+12 -4.34002e+12 -3.66306e+12 -3.55688e+12 -3.43008e+12 -2.82629e+12 -2.8599e+12 -2.56916e+12 -2.47433e+12 -1.21174e+12 -943387000000.0 -2.13795e+12 -2.42237e+12 -1.43227e+12 -1.40239e+12 -2.15615e+12 -2.71903e+12 -3.73175e+12 -1.77684e+12 -2.85467e+12 -3.05443e+12 -3.16938e+12 -3.53078e+12 -3.5478e+12 -3.5415e+12 -3.52815e+12 -3.65935e+12 -3.04417e+12 -3.10323e+12 -3.17382e+12 -3.31712e+12 -3.47493e+12 -3.56409e+12 -3.46042e+12 -2.80593e+12 -2.17438e+12 -4.07085e+12 -3.90268e+12 -3.66452e+12 -3.45835e+12 -2.90085e+12 -2.84986e+12 -2.81574e+12 -2.78386e+12 -2.73966e+12 -2.73282e+12 -2.64948e+12 -2.55715e+12 -2.56072e+12 -2.43941e+12 -2.52061e+12 -2.38652e+12 -2.59701e+12 -2.75855e+12 -2.80829e+12 -2.80446e+12 -2.76161e+12 -2.65975e+12 -2.61316e+12 -2.59836e+12 -2.62303e+12 -2.85966e+12 -2.85461e+12 -2.84297e+12 -2.82251e+12 -2.78615e+12 -2.62727e+12 -3.36767e+12 -3.47467e+12 -3.38588e+12 -3.36953e+12 -3.31418e+12 -3.22284e+12 -3.01468e+12 -3.32339e+12 -3.4348e+12 -3.54921e+12 -3.20132e+12 -3.07232e+12 -2.91941e+12 -2.028e+12 -2.78211e+12 -2.15631e+12 -2.06369e+12 -1.63688e+12 -981798000000.0 -559872000000.0 -757365000000.0 -1.53792e+12 -1.90372e+12 -1.97149e+12 -2.74248e+12 -1.4306e+12 -1.81425e+12 -2.40002e+12 -3.06047e+12 -3.02114e+12 -2.38871e+12 -2.63844e+12 -2.80151e+12 -3.22783e+12 -3.28089e+12 -3.33385e+12 -3.40455e+12 -2.49988e+12 -2.75389e+12 -2.86315e+12 -2.97659e+12 -3.0862e+12 -3.14786e+12 -3.20995e+12 -3.9219e+12 -3.67622e+12 -3.41842e+12 -3.22124e+12 -3.07713e+12 -2.97326e+12 -2.71998e+12 -2.68608e+12 -2.65727e+12 -2.60075e+12 -2.53643e+12 -2.50012e+12 -2.44131e+12 -2.43343e+12 -2.40038e+12 -2.46382e+12 -2.55676e+12 -2.62377e+12 -2.64984e+12 -2.64107e+12 -2.67525e+12 -2.74014e+12 -2.79978e+12 -2.84035e+12 -2.85716e+12 -2.85932e+12 -2.52922e+12 -2.31337e+12 -3.60014e+12 -3.45239e+12 -3.39134e+12 -3.36418e+12 -3.18499e+12 -3.13803e+12 -3.08411e+12 -3.12333e+12 -3.0976e+12 -2.83374e+12 -2.83509e+12 -2.67751e+12 -3.24572e+12 -2.73348e+12 -2.51639e+12 -2.27593e+12 -2.91319e+12 -2.45114e+12 -1.57212e+12 -782443000000.0 -586576000000.0 -354774000000.0 -1.15527e+12 -1.57151e+12 -2.1625e+12 -2.34344e+12 -2.98509e+12 -3.12955e+12 -2.63014e+12 -2.57253e+12 -2.40548e+12 -1.93925e+12 -2.33473e+12 -2.45056e+12 -2.90487e+12 -2.98251e+12 -3.06387e+12 -3.16241e+12 -3.53249e+12 -3.69112e+12 -2.21174e+12 -2.50092e+12 -2.63405e+12 -2.74113e+12 -3.10719e+12 -2.99323e+12 -2.77406e+12 -2.45617e+12 -2.02632e+12 -3.57052e+12 -3.33634e+12 -3.12033e+12 -2.9643e+12 -2.86661e+12 -2.80508e+12 -2.76689e+12 -2.74436e+12 -2.58488e+12 -2.54753e+12 -2.53137e+12 -2.52987e+12 -2.54741e+12 -2.57904e+12 -2.61705e+12 -2.65123e+12 -2.67291e+12 -2.67845e+12 -2.67127e+12 -2.65568e+12 -2.62953e+12 -2.59013e+12 -3.62866e+12 -3.49035e+12 -3.33258e+12 -3.24956e+12 -3.21595e+12 -2.96944e+12 -2.92013e+12 -2.90385e+12 -2.85529e+12 -2.75696e+12 -2.2674e+12 -3.11551e+12 -2.91775e+12 -2.18155e+12 -1.84725e+12 -1.30292e+12 -2.21759e+12 -1.75526e+12 -1.10286e+12 -1.25492e+12 -964496000000.0 -681595000000.0 -412109000000.0 -239910000000.0 -138406000000.0 -773877000000.0 -1.16225e+12 -1.17908e+12 -1.62913e+12 -1.70122e+12 -2.44154e+12 -2.27577e+12 -2.24472e+12 -2.27385e+12 -2.21399e+12 -2.15697e+12 -2.25474e+12 -2.56629e+12 -2.65493e+12 -2.75281e+12 -2.85729e+12 -3.29579e+12 -3.46314e+12 -3.6068e+12 -1.99901e+12 -2.28132e+12 -2.80539e+12 -2.80426e+12 -2.74972e+12 -2.63946e+12 -2.46656e+12 -2.27149e+12 -1.98987e+12 -3.13507e+12 -2.96754e+12 -2.8212e+12 -2.71183e+12 -2.67181e+12 -2.65854e+12 -2.66575e+12 -2.65987e+12 -2.63588e+12 -2.60108e+12 -2.55006e+12 -2.49327e+12 -2.4465e+12 -2.39864e+12 -2.3739e+12 -2.3497e+12 -2.3737e+12 -2.41827e+12 -2.46428e+12 -2.49538e+12 -2.50254e+12 -2.48104e+12 -2.45526e+12 -2.43979e+12 -2.434e+12 -2.43635e+12 -2.44797e+12 -2.46619e+12 -2.48631e+12 -2.50214e+12 -2.5077e+12 -2.49979e+12 -2.47845e+12 -2.44406e+12 -2.39399e+12 -2.32102e+12 -2.09403e+12 -3.42356e+12 -3.26983e+12 -3.14722e+12 -3.07293e+12 -3.01896e+12 -2.71917e+12 -2.66534e+12 -2.57616e+12 -2.42819e+12 -2.40766e+12 -2.81556e+12 -2.6639e+12 -2.43918e+12 -1.57336e+12 -1.02009e+12 -2.63487e+12 -1.31997e+12 -729449000000.0 -835799000000.0 -416690000000.0 -65296000000.0 -388514000000.0 -383100000000.0 -767215000000.0 -746770000000.0 -1.16232e+12 -1.73669e+12 -1.62675e+12 -1.9945e+12 -1.91489e+12 -1.91627e+12 -2.20789e+12 -2.28868e+12 -2.40426e+12 -2.98615e+12 -3.134e+12 -3.28945e+12 -3.38168e+12 -2.41397e+12 -2.50033e+12 -2.5315e+12 -2.51838e+12 -2.46825e+12 -2.38263e+12 -2.27004e+12 -2.15024e+12 -1.98683e+12 -2.69508e+12 -2.62116e+12 -2.5425e+12 -2.45392e+12 -2.50381e+12 -2.57867e+12 -2.60718e+12 -2.59688e+12 -2.56095e+12 -2.50597e+12 -2.44476e+12 -2.39047e+12 -2.34237e+12 -2.30853e+12 -2.28478e+12 -2.28541e+12 -2.30595e+12 -2.3319e+12 -2.35458e+12 -2.36587e+12 -2.36061e+12 -2.34779e+12 -2.33581e+12 -2.32884e+12 -2.32666e+12 -2.32879e+12 -2.33505e+12 -2.34349e+12 -2.35065e+12 -2.352e+12 -2.34315e+12 -2.32055e+12 -2.28162e+12 -2.22544e+12 -2.14643e+12 -1.93534e+12 -3.52295e+12 -3.13589e+12 -3.02376e+12 -2.93203e+12 -2.86216e+12 -2.80516e+12 -2.75635e+12 -2.43358e+12 -2.32357e+12 -1.81565e+12 -1.90034e+12 -2.38104e+12 -2.19127e+12 -1.92246e+12 -850555000000.0 -2.20582e+12 -1.80478e+12 -649365000000.0 -541157000000.0 -587788000000.0 -240978000000.0 -150169000000.0 -348114000000.0 -738444000000.0 -608935000000.0 -1.11265e+12 -979104000000.0 -1.37883e+12 -1.45727e+12 -1.55129e+12 -2.1723e+12 -2.10718e+12 -2.15427e+12 -1.78973e+12 -2.0069e+12 -2.52348e+12 -2.63465e+12 -2.76663e+12 -2.89473e+12 -3.01089e+12 -3.04243e+12 -1.84984e+12 -2.10046e+12 -2.227e+12 -2.28559e+12 -2.30318e+12 -2.29073e+12 -2.2543e+12 -2.19787e+12 -2.12971e+12 -2.06597e+12 -2.49239e+12 -2.5762e+12 -2.58111e+12 -2.543e+12 -2.47567e+12 -2.39909e+12 -2.33317e+12 -2.27882e+12 -2.23793e+12 -2.2094e+12 -2.19776e+12 -2.2014e+12 -2.21376e+12 -2.22711e+12 -2.23611e+12 -2.23682e+12 -2.23149e+12 -2.22428e+12 -2.2181e+12 -2.21427e+12 -2.21267e+12 -2.21292e+12 -2.21436e+12 -2.18003e+12 -2.14177e+12 -2.08123e+12 -1.99775e+12 -1.81301e+12 -3.2999e+12 -3.25766e+12 -2.77005e+12 -2.69892e+12 -2.63935e+12 -2.59002e+12 -2.54907e+12 -2.50114e+12 -2.27703e+12 -2.28285e+12 -1.20146e+12 -2.44106e+12 -2.01028e+12 -1.73953e+12 -1.37852e+12 -1.20338e+12 -1.01351e+12 -503606000000.0 -525807000000.0 -270826000000.0 -290528000000.0 -393596000000.0 -414286000000.0 -759495000000.0 -715671000000.0 -1.08771e+12 -1.95039e+12 -2.00315e+12 -2.07797e+12 -2.26808e+12 -1.5443e+12 -2.16202e+12 -2.29355e+12 -2.3748e+12 -2.48618e+12 -2.59813e+12 -1.75375e+12 -1.98247e+12 -2.07172e+12 -2.10834e+12 -2.00386e+12 -2.32459e+12 -2.32944e+12 -2.26268e+12 -2.10474e+12 -2.46903e+12 -2.36079e+12 -2.2759e+12 -2.21041e+12 -2.16166e+12 -2.12715e+12 -2.10696e+12 -2.09978e+12 -2.10165e+12 -2.10752e+12 -2.11274e+12 -2.11438e+12 -2.21512e+12 -2.21214e+12 -2.2018e+12 -2.99735e+12 -3.00862e+12 -2.93421e+12 -2.85001e+12 -2.46189e+12 -2.4154e+12 -2.37575e+12 -2.3382e+12 -2.3021e+12 -2.22975e+12 -2.29254e+12 -2.22479e+12 -1.28319e+12 -752801000000.0 -1.83842e+12 -532123000000.0 -557974000000.0 -409042000000.0 -139264000000.0 -438554000000.0 -573497000000.0 -1.64835e+12 -1.76648e+12 -1.89073e+12 -2.06117e+12 -1.78435e+12 -1.94735e+12 -2.07164e+12 -2.01793e+12 -2.66951e+12 -2.64106e+12 -1.78266e+12 -2.1179e+12 -2.11064e+12 -2.08774e+12 -2.05441e+12 -2.02152e+12 -2.00336e+12 -2.0194e+12 -2.1088e+12 -2.07869e+12 -1.97177e+12 -1.76579e+12 -2.57069e+12 -2.60628e+12 -2.56099e+12 -2.1124e+12 -2.10834e+12 -2.10381e+12 -2.09982e+12 -2.0967e+12 -2.09429e+12 -2.09216e+12 -2.08937e+12 -2.08396e+12 -2.07331e+12 -2.05411e+12 -2.02126e+12 -1.96674e+12 -1.87575e+12 -1.71265e+12 -2.65798e+12 -2.70727e+12 -2.67972e+12 -2.62955e+12 -2.57283e+12 -2.51539e+12 -2.19118e+12 -2.15443e+12 -2.12306e+12 -2.11279e+12 -2.16388e+12 -2.49629e+12 -1.97627e+12 -1.87912e+12 -1.62682e+12 -857255000000.0 -1.64512e+12 -739428000000.0 -140762000000.0 -309934000000.0 -124117000000.0 -112226000000.0 -109099000000.0 -269081000000.0 -717544000000.0 -1.29987e+12 -1.47935e+12 -1.63422e+12 -1.79942e+12 -2.26408e+12 -1.33575e+12 -1.59568e+12 -1.78617e+12 -1.98634e+12 -2.18883e+12 -2.28663e+12 -2.31003e+12 -2.19424e+12 -1.89583e+12 -1.93801e+12 -1.95582e+12 -1.96166e+12 -1.95917e+12 -1.94753e+12 -1.93231e+12 -1.91975e+12 -1.91338e+12 -1.90379e+12 -1.90326e+12 -1.83204e+12 -1.68243e+12 -1.47204e+12 -2.66073e+12 -2.63914e+12 -2.50242e+12 -2.33105e+12 -2.21733e+12 -2.13631e+12 -2.07842e+12 -2.03796e+12 -2.01165e+12 -1.99721e+12 -1.99179e+12 -1.9917e+12 -1.99335e+12 -1.99411e+12 -1.99312e+12 -1.99067e+12 -1.98741e+12 -1.9839e+12 -1.98039e+12 -1.97689e+12 -1.97319e+12 -1.96879e+12 -1.9626e+12 -1.95291e+12 -1.93755e+12 -1.913e+12 -1.87332e+12 -1.80381e+12 -1.64134e+12 -2.31176e+12 -2.38045e+12 -2.39143e+12 -2.37152e+12 -2.3419e+12 -2.30573e+12 -2.26648e+12 -2.22895e+12 -1.96074e+12 -1.91799e+12 -1.87869e+12 -1.85544e+12 -1.80176e+12 -2.12283e+12 -1.68121e+12 -1.54828e+12 -1.29692e+12 -1.49789e+12 -366362000000.0 -272758000000.0 -156724000000.0 -489819000000.0 -939156000000.0 -1.17856e+12 -1.35228e+12 -1.99234e+12 -2.19975e+12 -1.15468e+12 -1.43687e+12 -1.78951e+12 -1.94017e+12 -2.00785e+12 -1.99667e+12 -1.90119e+12 -1.77482e+12 -1.79484e+12 -1.81027e+12 -1.81957e+12 -1.82473e+12 -1.82617e+12 -1.82339e+12 -1.81755e+12 -1.80856e+12 -1.78963e+12 -1.75816e+12 -1.70493e+12 -1.58853e+12 -1.34822e+12 -1.21109e+12 -2.79738e+12 -2.61159e+12 -2.30243e+12 -2.14924e+12 -2.05101e+12 -1.98457e+12 -1.93957e+12 -1.90975e+12 -1.89119e+12 -1.88119e+12 -1.87702e+12 -1.87584e+12 -1.87537e+12 -1.8744e+12 -1.87259e+12 -1.87007e+12 -1.86705e+12 -1.86366e+12 -1.85988e+12 -1.85561e+12 -1.85062e+12 -1.84442e+12 -1.83616e+12 -1.82474e+12 -1.80868e+12 -1.78569e+12 -1.75157e+12 -1.68264e+12 -1.94487e+12 -2.0768e+12 -2.08596e+12 -2.08176e+12 -2.07047e+12 -2.05073e+12 -2.03107e+12 -2.00004e+12 -1.66381e+12 -1.5993e+12 -1.48839e+12 -2.24755e+12 -1.37177e+12 -1.29646e+12 -1.13713e+12 -132804000000.0 -117680000000.0 -570934000000.0 -896489000000.0 -1.06498e+12 -1.5114e+12 -1.6749e+12 -1.8756e+12 -2.0742e+12 -1.65124e+12 -1.83574e+12 -1.6211e+12 -1.73622e+12 -1.78022e+12 -1.77424e+12 -1.73436e+12 -1.67598e+12 -1.67545e+12 -1.68291e+12 -1.69162e+12 -1.69948e+12 -1.70472e+12 -1.70687e+12 -1.70371e+12 -1.69073e+12 -1.66349e+12 -1.6129e+12 -2.74368e+12 -2.21297e+12 -2.0414e+12 -1.93925e+12 -1.8724e+12 -1.82794e+12 -1.79846e+12 -1.77936e+12 -1.76771e+12 -1.76148e+12 -1.75864e+12 -1.75727e+12 -1.75614e+12 -1.75464e+12 -1.75254e+12 -1.74986e+12 -1.74667e+12 -1.74293e+12 -1.73853e+12 -1.73339e+12 -2.06792e+12 -1.81023e+12 -1.81056e+12 -1.82556e+12 -1.80879e+12 -1.77195e+12 -1.72224e+12 -1.25008e+12 -1.95014e+12 -1.89385e+12 -1.68348e+12 -1.16337e+12 -1.0906e+12 -1.08091e+12 -275457000000.0 -622686000000.0 -1.2168e+12 -1.35471e+12 -1.49501e+12 -1.68454e+12 -1.01833e+12 -1.30149e+12 -1.49943e+12 -1.63685e+12 -1.49172e+12 -1.57477e+12 -1.55393e+12 -1.51806e+12 -1.33574e+12 -775210000000.0 -1.13859e+12 -1.7274e+12 -1.72032e+12 -1.71175e+12 -1.70143e+12 -1.68927e+12 -1.67584e+12 -1.66406e+12 -1.74746e+12 -1.79408e+12 -1.83436e+12 -1.74252e+12 -1.80005e+12 -1.62388e+12 -1.62594e+12 -1.5944e+12 -1.54335e+12 -1.47602e+12 -1.3904e+12 -1.70106e+12 -1.59982e+12 -1.45862e+12 -1.3047e+12 -931049000000.0 -94573600000.0 -314402000000.0 -797937000000.0 -936962000000.0 -1.06223e+12 -1.14044e+12 -1.1868e+12 -1.89861e+12 -915651000000.0 -1.17447e+12 -1.35284e+12 -1.43064e+12 -1.60328e+12 -1.60658e+12 -1.58225e+12 -1.55177e+12 -1.55857e+12 -1.57025e+12 -1.58184e+12 -1.59121e+12 -1.59708e+12 -1.59553e+12 -1.58362e+12 -1.55675e+12 -1.50613e+12 -1.41571e+12 -1.23411e+12 -1.16585e+12 -1.74989e+12 -1.81575e+12 -1.7763e+12 -1.73215e+12 -1.69893e+12 -1.67548e+12 -1.65976e+12 -1.64968e+12 -1.64369e+12 -1.64061e+12 -1.63913e+12 -1.6381e+12 -1.63691e+12 -1.63523e+12 -1.63285e+12 -1.62979e+12 -1.62611e+12 -1.62174e+12 -1.61661e+12 -1.61075e+12 -1.60425e+12 -1.59726e+12 -1.59009e+12 -1.58345e+12 -1.57904e+12 -1.5822e+12 -1.62522e+12 -1.65455e+12 -1.5958e+12 -1.67223e+12 -1.48122e+12 -1.56211e+12 -1.54436e+12 -1.38285e+12 -1.31361e+12 -1.22355e+12 -1.07768e+12 -1.37605e+12 -1.13711e+12 -953506000000.0 -986906000000.0 -1.01869e+12 -539953000000.0 -685891000000.0 -798628000000.0 -897544000000.0 -1.50371e+12 -1.68136e+12 -822924000000.0 -1.07435e+12 -1.39255e+12 -1.44164e+12 -1.45761e+12 -1.45504e+12 -1.43959e+12 -1.42737e+12 -1.43006e+12 -1.44106e+12 -1.45623e+12 -1.47211e+12 -1.4864e+12 -1.49657e+12 -1.50062e+12 -1.49696e+12 -1.48249e+12 -1.45196e+12 -1.38134e+12 -1.34206e+12 -706768000000.0 -1.58377e+12 -1.59734e+12 -1.5736e+12 -1.5551e+12 -1.54145e+12 -1.53208e+12 -1.5262e+12 -1.52278e+12 -1.52105e+12 -1.52044e+12 -1.52012e+12 -1.51947e+12 -1.51829e+12 -1.51635e+12 -1.5135e+12 -1.50983e+12 -1.50544e+12 -1.50028e+12 -1.4944e+12 -1.48804e+12 -1.48164e+12 -1.47582e+12 -1.47156e+12 -1.47086e+12 -1.47826e+12 -1.50743e+12 -1.54211e+12 -1.56921e+12 -1.36317e+12 -1.51781e+12 -1.31056e+12 -1.40323e+12 -1.45903e+12 -1.47264e+12 -1.43552e+12 -1.08409e+12 -954816000000.0 -1.47308e+12 -823863000000.0 -887813000000.0 -714448000000.0 -909437000000.0 -164235000000.0 -62051600000.0 -231731000000.0 -439220000000.0 -852860000000.0 -1.15334e+12 -1.32237e+12 -1.45089e+12 -1.22296e+12 -1.25428e+12 -1.2923e+12 -1.31949e+12 -1.3198e+12 -1.30901e+12 -1.29993e+12 -1.30345e+12 -1.31359e+12 -1.3295e+12 -1.34932e+12 -1.3709e+12 -1.39162e+12 -1.40961e+12 -1.42495e+12 -1.43805e+12 -1.45191e+12 -1.47195e+12 -1.49572e+12 -1.40702e+12 -1.17884e+12 -1.0023e+12 -1.39371e+12 -1.38957e+12 -1.39347e+12 -1.39529e+12 -1.39622e+12 -1.39706e+12 -1.39829e+12 -1.39963e+12 -1.40092e+12 -1.40204e+12 -1.40247e+12 -1.40197e+12 -1.4006e+12 -1.39819e+12 -1.39467e+12 -1.39019e+12 -1.38492e+12 -1.3789e+12 -1.37236e+12 -1.36579e+12 -1.35996e+12 -1.35594e+12 -1.3554e+12 -1.36169e+12 -1.38211e+12 -1.41521e+12 -1.46171e+12 -1.54166e+12 -1.1969e+12 -1.34752e+12 -1.17955e+12 -1.29317e+12 -1.36069e+12 -1.30079e+12 -1.23985e+12 -1.1697e+12 -1.26971e+12 -1.20963e+12 -1.0807e+12 -615668000000.0 -423161000000.0 -89436200000.0 -59992500000.0 -577760000000.0 -662742000000.0 -792217000000.0 -904010000000.0 -982144000000.0 -1.0283e+12 -814419000000.0 -1.00225e+12 -1.09055e+12 -1.10141e+12 -1.19401e+12 -1.19121e+12 -1.17346e+12 -1.15998e+12 -1.16966e+12 -1.18353e+12 -1.20136e+12 -1.22387e+12 -1.17654e+12 -1.16449e+12 -1.20614e+12 -1.23303e+12 -1.25074e+12 -1.26213e+12 -1.27008e+12 -1.27616e+12 -1.28061e+12 -1.28378e+12 -1.28589e+12 -1.2866e+12 -1.28596e+12 -1.14345e+12 -1.18535e+12 -1.17493e+12 -1.11059e+12 -1.03614e+12 -955063000000.0 -844419000000.0 -1.08817e+12 -1.05138e+12 -943897000000.0 -784042000000.0 -805668000000.0 -385402000000.0 -449935000000.0 -147402000000.0 -350065000000.0 -460015000000.0 -363061000000.0 -828518000000.0 -761598000000.0 -1.23414e+12 -823960000000.0 -932378000000.0 -975754000000.0 -966966000000.0 -1.25048e+12 -1.27942e+12 -1.3085e+12 -1.33751e+12 -1.36808e+12 -1.40299e+12 -1.4521e+12 -1.53474e+12 -1.49367e+12 -48198600000.0 -1.28415e+12 -1.28104e+12 -1.27666e+12 -1.27125e+12 -1.26505e+12 -1.25825e+12 -1.25123e+12 -1.24465e+12 -1.23946e+12 -1.23693e+12 -1.2391e+12 -1.24996e+12 -1.27125e+12 -1.30406e+12 -1.35631e+12 -1.4319e+12 -1.02177e+12 -1.199e+12 -999675000000.0 -913358000000.0 -826962000000.0 -730838000000.0 -845047000000.0 -683766000000.0 -725225000000.0 -603744000000.0 -196053000000.0 -141516000000.0 -69570700000.0 -236652000000.0 -497534000000.0 -744505000000.0 -1.09587e+12 -1.03143e+12 -790952000000.0 -1.08655e+12 -1.03241e+12 -1.00116e+12 -1.02741e+12 -1.04687e+12 -1.06798e+12 -1.09415e+12 -1.12531e+12 -1.16048e+12 -1.19809e+12 -1.23718e+12 -1.27905e+12 -1.32646e+12 -1.38673e+12 -1.49026e+12 -1.71238e+12 -567091000000.0 -741459000000.0 -742768000000.0 -856607000000.0 -982424000000.0 -1.05067e+12 -1.09363e+12 -1.12115e+12 -1.13875e+12 -1.15081e+12 -1.15956e+12 -1.16561e+12 -1.16973e+12 -1.17217e+12 -1.17275e+12 -1.17172e+12 -1.16923e+12 -1.16524e+12 -1.15994e+12 -1.1536e+12 -1.1466e+12 -1.13921e+12 -1.13174e+12 -1.12488e+12 -1.11966e+12 -1.11714e+12 -1.11903e+12 -1.12738e+12 -1.14289e+12 -1.16682e+12 -1.19711e+12 -1.2637e+12 -849316000000.0 -1.04557e+12 -1.1094e+12 -1.0663e+12 -700630000000.0 -599502000000.0 -930283000000.0 -911617000000.0 -621894000000.0 -521813000000.0 -423040000000.0 -55643200000.0 -116559000000.0 -324572000000.0 -235431000000.0 -686431000000.0 -558165000000.0 -888440000000.0 -871951000000.0 -850256000000.0 -862314000000.0 -869358000000.0 -841193000000.0 -930411000000.0 -779089000000.0 -869088000000.0 -901973000000.0 -929264000000.0 -958802000000.0 -994520000000.0 -1.03524e+12 -1.07938e+12 -1.12584e+12 -1.17463e+12 -1.22682e+12 -1.28188e+12 -1.33822e+12 -1.40912e+12 -972078000000.0 -326753000000.0 -714013000000.0 -851218000000.0 -927533000000.0 -974724000000.0 -1.00501e+12 -1.02457e+12 -1.03815e+12 -1.04783e+12 -1.05438e+12 -1.05866e+12 -1.0609e+12 -1.0611e+12 -1.05942e+12 -1.05606e+12 -1.05115e+12 -1.04501e+12 -1.03807e+12 -1.03051e+12 -1.02239e+12 -1.01385e+12 -1.00586e+12 -999362000000.0 -994575000000.0 -992156000000.0 -992431000000.0 -993622000000.0 -990572000000.0 -944444000000.0 -1.01894e+12 -901578000000.0 -881296000000.0 -1.02084e+12 -914929000000.0 -806689000000.0 -797380000000.0 -768164000000.0 -737707000000.0 -599350000000.0 -323918000000.0 -135432000000.0 -233809000000.0 -459686000000.0 -512460000000.0 -686503000000.0 -618048000000.0 -702696000000.0 -704171000000.0 -760934000000.0 -808065000000.0 -771788000000.0 -673054000000.0 -690067000000.0 -741878000000.0 -761223000000.0 -783621000000.0 -816480000000.0 -857410000000.0 -903650000000.0 -953430000000.0 -1.00619e+12 -1.06172e+12 -1.12037e+12 -1.18135e+12 -1.23762e+12 -1.26759e+12 -1.13845e+12 -1.2606e+12 -602664000000.0 -589254000000.0 -546571000000.0 -686408000000.0 -772815000000.0 -830963000000.0 -871478000000.0 -898828000000.0 -917262000000.0 -930551000000.0 -940035000000.0 -946383000000.0 -950333000000.0 -952131000000.0 -951708000000.0 -949204000000.0 -945085000000.0 -939739000000.0 -933346000000.0 -925971000000.0 -917411000000.0 -907367000000.0 -731335000000.0 -854285000000.0 -928432000000.0 -767021000000.0 -868228000000.0 -723104000000.0 -583412000000.0 -453786000000.0 -686626000000.0 -616958000000.0 -576343000000.0 -540376000000.0 -518712000000.0 -441140000000.0 -189565000000.0 -28398000000.0 -55393100000.0 -192245000000.0 -39515900000.0 -166769000000.0 -376624000000.0 -593151000000.0 -485385000000.0 -763754000000.0 -819148000000.0 -714452000000.0 -474016000000.0 -646385000000.0 -1.3437e+12 -896582000000.0 -886696000000.0 -877742000000.0 -868646000000.0 -859196000000.0 -847878000000.0 -831297000000.0 -806399000000.0 -639937000000.0 -677412000000.0 -491009000000.0 -304989000000.0 -453839000000.0 -443917000000.0 -364023000000.0 -237343000000.0 -153129000000.0 -42942400000.0 -38912400000.0 -128552000000.0 -158840000000.0 -97617700000.0 -556577000000.0 -573971000000.0 -623986000000.0 -912274000000.0 -603758000000.0 -596554000000.0 -628488000000.0 -677060000000.0 -730585000000.0 -786604000000.0 -845120000000.0 -907338000000.0 -974468000000.0 -1.04688e+12 -1.1214e+12 -1.18322e+12 -1.16735e+12 -1.27854e+12 -616926000000.0 -530222000000.0 -546375000000.0 -630932000000.0 -694770000000.0 -741200000000.0 -774835000000.0 -797931000000.0 -814393000000.0 -826692000000.0 -835337000000.0 -841057000000.0 -844550000000.0 -845826000000.0 -844734000000.0 -842157000000.0 -838543000000.0 -833285000000.0 -826520000000.0 -818200000000.0 -807109000000.0 -793485000000.0 -780031000000.0 -768055000000.0 -755714000000.0 -741085000000.0 -722511000000.0 -694690000000.0 -655629000000.0 -654169000000.0 -680364000000.0 -698944000000.0 -807736000000.0 -188219000000.0 -596953000000.0 -469757000000.0 -390300000000.0 -314294000000.0 -148320000000.0 -109187000000.0 -42236400000.0 -446088000000.0 -382727000000.0 -422686000000.0 -370562000000.0 -421323000000.0 -614599000000.0 -856438000000.0 -841671000000.0 -829114000000.0 -1.04088e+12 -931585000000.0 -807413000000.0 -725476000000.0 -666777000000.0 -623358000000.0 -591112000000.0 -568026000000.0 -553071000000.0 -546631000000.0 -552345000000.0 -580977000000.0 -624012000000.0 -584603000000.0 -675293000000.0 -966795000000.0 -266671000000.0 -394368000000.0 -488446000000.0 -564113000000.0 -616930000000.0 -654261000000.0 -680897000000.0 -699798000000.0 -714539000000.0 -725487000000.0 -733078000000.0 -738040000000.0 -741213000000.0 -742249000000.0 -742436000000.0 -741684000000.0 -737824000000.0 -732499000000.0 -724895000000.0 -713710000000.0 -698480000000.0 -682277000000.0 -666877000000.0 -651233000000.0 -634921000000.0 -614950000000.0 -582881000000.0 -535096000000.0 -543806000000.0 -565943000000.0 -627303000000.0 -490618000000.0 -690195000000.0 -503117000000.0 -470794000000.0 -530165000000.0 -300937000000.0 -244095000000.0 -325381000000.0 -353691000000.0 -11419500000.0 -33314600000.0 -34001300000.0 -23843400000.0 -338444000000.0 -321556000000.0 -369093000000.0 -292211000000.0 -238380000000.0 -308685000000.0 -331072000000.0 -295326000000.0 -354566000000.0 -556767000000.0 -606988000000.0 -582346000000.0 -537504000000.0 -485586000000.0 -547631000000.0 -665012000000.0 -725335000000.0 -374152000000.0 -451570000000.0 -504236000000.0 -541444000000.0 -567536000000.0 -587228000000.0 -603716000000.0 -616715000000.0 -626821000000.0 -632498000000.0 -637209000000.0 -640983000000.0 -645565000000.0 -647943000000.0 -647255000000.0 -644109000000.0 -637584000000.0 -626795000000.0 -611057000000.0 -592808000000.0 -575164000000.0 -555533000000.0 -535881000000.0 -517808000000.0 -493292000000.0 -443350000000.0 -442756000000.0 -449957000000.0 -491940000000.0 -467644000000.0 -331040000000.0 -570637000000.0 -332210000000.0 -194305000000.0 -470960000000.0 -155653000000.0 -150246000000.0 -204651000000.0 -224175000000.0 -250488000000.0 -116241000000.0 -79097600000.0 -68807000000.0 -25789700000.0 -17295400000.0 -40217500000.0 -47674100000.0 -60933700000.0 -346410000000.0 -329653000000.0 -60040700000.0 -261049000000.0 -184796000000.0 -270165000000.0 -562223000000.0 -537846000000.0 -515734000000.0 -497678000000.0 -484699000000.0 -478457000000.0 -483416000000.0 -503890000000.0 -225891000000.0 -356987000000.0 -394893000000.0 -186760000000.0 -449674000000.0 -212265000000.0 -113624000000.0 -135842000000.0 -120183000000.0 -123848000000.0 -38336700000.0 -18720700000.0 -302754000000.0 -342718000000.0 -301196000000.0 -296269000000.0 -340181000000.0 -380690000000.0 -387413000000.0 -370532000000.0 -401506000000.0 -402225000000.0 -393806000000.0 -383334000000.0 -373027000000.0 -365375000000.0 -364791000000.0 -380142000000.0 -413293000000.0 -367415000000.0 -438528000000.0 -468544000000.0 -537534000000.0 -535430000000.0 -209429000000.0 -362260000000.0 -412022000000.0 -439550000000.0 -464459000000.0 -475659000000.0 -493884000000.0 -507613000000.0 -522805000000.0 -528430000000.0 -533636000000.0 -541156000000.0 -551966000000.0 -557348000000.0 -561695000000.0 -561363000000.0 -557471000000.0 -547776000000.0 -531957000000.0 -511464000000.0 -490275000000.0 -467585000000.0 -445478000000.0 -423963000000.0 -410810000000.0 -385212000000.0 -334899000000.0 -352126000000.0 -369142000000.0 -344112000000.0 -198983000000.0 -37557500000.0 -102701000000.0 -21559100000.0 -50599000000.0 -74959800000.0 -210035000000.0 -185619000000.0 -248697000000.0 -207635000000.0 -174442000000.0 -129827000000.0 -139268000000.0 -64633100000.0 -125657000000.0 -137534000000.0 -196317000000.0 -278375000000.0 -255055000000.0 -268431000000.0 -262036000000.0 -263569000000.0 -261797000000.0 -256362000000.0 -247749000000.0 -240270000000.0 -241553000000.0 -271166000000.0 -269369000000.0 -322605000000.0 -388915000000.0 -358433000000.0 -438490000000.0 -372652000000.0 -197120000000.0 -336389000000.0 -359508000000.0 -365854000000.0 -377721000000.0 -378148000000.0 -395119000000.0 -421348000000.0 -428251000000.0 -430179000000.0 -443928000000.0 -458731000000.0 -472344000000.0 -479356000000.0 -484999000000.0 -483218000000.0 -476382000000.0 -462156000000.0 -441225000000.0 -416126000000.0 -388298000000.0 -359692000000.0 -336825000000.0 -317764000000.0 -321596000000.0 -259685000000.0 -246978000000.0 -268900000000.0 -249045000000.0 -283766000000.0 -249044000000.0 -97290400000.0 -259717000000.0 -274700000000.0 -131993000000.0 -155937000000.0 -107235000000.0 -134636000000.0 -145393000000.0 -166749000000.0 -156771000000.0 -113190000000.0 -62810600000.0 -27291800000.0 -23393000000.0 -51559900000.0 -79016000000.0 -157534000000.0 -191026000000.0 -121422000000.0 -69016600000.0 -133540000000.0 -84931800000.0 -141166000000.0 -161686000000.0 -142854000000.0 -167364000000.0 -221704000000.0 -254619000000.0 -344362000000.0 -322367000000.0 -165208000000.0 -255788000000.0 -312172000000.0 -248480000000.0 -311442000000.0 -235932000000.0 -332627000000.0 -332323000000.0 -326847000000.0 -346048000000.0 -366515000000.0 -385896000000.0 -402459000000.0 -412722000000.0 -416436000000.0 -412773000000.0 -400737000000.0 -380918000000.0 -174641000000.0 -159177000000.0 -163791000000.0 -157356000000.0 -176121000000.0 -162122000000.0 -183109000000.0 -149555000000.0 -235321000000.0 -28956200000.0 -44353900000.0 -44519700000.0 -9051530000.0 -9035750000.0 -9035750000.0 -210220000000.0 -187919000000.0 -172893000000.0 -100969000000.0 -17302900000.0 -173141000000.0 -173542000000.0 -163564000000.0 -157336000000.0 -149683000000.0 -144289000000.0 -138701000000.0 -136070000000.0 -138756000000.0 -222496000000.0 -354116000000.0 -322391000000.0 -284270000000.0 -248345000000.0 -219942000000.0 -209978000000.0 -28691100000.0 -43087700000.0 -12115200000.0 -29787100000.0 -9035750000.0 -9035750000.0 -9222550000.0 -119049000000.0 -199252000000.0 -176906000000.0 -112118000000.0 -32248700000.0 -67584500000.0 -29228000000.0 -77538100000.0 -31390000000.0 -20011900000.0 -24563700000.0 -67877300000.0 -96045900000.0 -105654000000.0 -102678000000.0 -92182300000.0 -84805800000.0 -76085800000.0 -69641000000.0 -62951800000.0 -59325100000.0 -62800200000.0 -72268800000.0 -116856000000.0 -171501000000.0 -383368000000.0 -189046000000.0 -311376000000.0 -222836000000.0 -163671000000.0 -131841000000.0 -164216000000.0 -95055800000.0 -136141000000.0 -58593800000.0 -107372000000.0 -139443000000.0 -218748000000.0 -262907000000.0 -298469000000.0 -315309000000.0 -340196000000.0 -344142000000.0 -350517000000.0 -336134000000.0 -320274000000.0 -293583000000.0 -263191000000.0 -218199000000.0 -166749000000.0 -124795000000.0 -98274100000.0 -107978000000.0 -166185000000.0 -186236000000.0 -202066000000.0 -203041000000.0 -210237000000.0 -182064000000.0 -138319000000.0 -130160000000.0 -220138000000.0 -94278600000.0 -97707500000.0 -69591500000.0 -72870100000.0 -67132500000.0 -72745500000.0 -71193500000.0 -32211600000.0 -22867800000.0 -13639900000.0 -13013800000.0 -21218300000.0 -30173800000.0 -95557200000.0 -168553000000.0 -65066800000.0 -41308700000.0 -57515200000.0 -80875300000.0 -114262000000.0 -97484300000.0 -104519000000.0 -121033000000.0 -119460000000.0 -166147000000.0 -87345500000.0 -9069680000.0 -13299900000.0 -57479700000.0 -14693900000.0 -63396600000.0 -70004400000.0 -72797400000.0 -99300600000.0 -125364000000.0 -141586000000.0 -141603000000.0 -152477000000.0 -146311000000.0 -146178000000.0 -135963000000.0 -133734000000.0 -70811500000.0 -49034300000.0 -27033500000.0 -51597000000.0 -99873700000.0 -32464800000.0 -37263100000.0 -9035750000.0 -9035750000.0 -9035750000.0 -138598000000.0 -80583200000.0 -30641300000.0 -42983500000.0 -17626000000.0 -148931000000.0 -159204000000.0 -148394000000.0 -131602000000.0 -118542000000.0 -105948000000.0 -98467000000.0 -92855500000.0 -93160600000.0 -21773800000.0 -9035740000.0 -21994700000.0 -126763000000.0 -119351000000.0 -99639100000.0 -79261500000.0 -60736400000.0 -50365000000.0 -59050300000.0 -71948800000.0 -66169600000.0 -69917000000.0 -71741200000.0 -13132400000.0 -24783700000.0 -14155900000.0 -24962600000.0 -24865600000.0 -9035750000.0 -9035750000.0 -9035750000.0 -50925800000.0 -114824000000.0 -102131000000.0 -57401400000.0 -29852900000.0 -35282200000.0 -9900110000.0 -39090400000.0 -9909060000.0 -9306440000.0 -15973900000.0 -28662100000.0 -50765600000.0 -66031000000.0 -63373500000.0 -55267700000.0 -48921800000.0 -40796900000.0 -35084500000.0 -28502100000.0 -25597300000.0 -24138600000.0 -27528600000.0 -40791300000.0 -44312400000.0 -102312000000.0 -15159800000.0 -66601200000.0 -19708700000.0 -20456600000.0 -18195700000.0 -53933900000.0 -14963900000.0 -54264200000.0 -16669400000.0 -51295900000.0 -49758800000.0 -54834200000.0 -65268500000.0 -83772700000.0 -90235800000.0 -106548000000.0 -110371000000.0 -119366000000.0 -116777000000.0 -115550000000.0 -108887000000.0 -101830000000.0 -83228400000.0 -63883000000.0 -45999700000.0 -34967500000.0 -49913300000.0 -62402700000.0 -57282400000.0 -56541100000.0 -57346900000.0 -51316700000.0 -33297400000.0 -12278900000.0 -41308100000.0 -70146700000.0 -12292000000.0 -22114200000.0 -14163500000.0 -24396100000.0 -23919900000.0 -28620500000.0 -33155500000.0 -9035750000.0 -9035750000.0 -9035750000.0 -9035750000.0 -9035750000.0 -9035750000.0 -41518300000.0 -33121100000.0 -81122800000.0 -9466210000.0 -41433400000.0 -41036100000.0 -37583800000.0 -35221300000.0 -37821700000.0 -40101000000.0 -52834800000.0 -58721400000.0 -71141800000.0 -72635900000.0 -78672000000.0 -9055710000.0 -33644200000.0 -49363800000.0 -24522100000.0 -28132700000.0 -9035750000.0 -9035750000.0 -9035750000.0 -86361600000.0 -77373300000.0 -41395200000.0 -27927600000.0 -28642900000.0 -9711590000.0 -9149610000.0 -9333840000.0 -15954000000.0 -25500900000.0 -41137800000.0 -55946900000.0 -54770100000.0 -48918700000.0 -44035300000.0 -37601100000.0 -33205200000.0 -28210700000.0 -26351400000.0 -25150000000.0 -28960000000.0 -39696400000.0 -42290500000.0 -13053800000.0 -52197800000.0 -10062600000.0 -9353730000.0 -9514860000.0 -9768270000.0 -75020600000.0 -72548700000.0 -66055100000.0 -60019300000.0 -45709000000.0 -31475000000.0 -20473700000.0 -17602900000.0 -33376400000.0 -43263500000.0 -39974500000.0 -37024000000.0 -37463500000.0 -31380600000.0 -20050400000.0 -11676000000.0 -19179000000.0 -13737600000.0 -22179800000.0 -21409800000.0 -9035750000.0 -9035750000.0 -9035750000.0 -32373000000.0 -61326800000.0 -55505900000.0 -28827600000.0 -24193900000.0 -22493100000.0 -9518730000.0 -26776500000.0 -9127860000.0 -9035750000.0 -13982000000.0 -20166100000.0 -29927700000.0 -41619100000.0 -41351000000.0 -37424400000.0 -33917000000.0 -29113100000.0 -25716200000.0 -21828800000.0 -20286500000.0 -18821600000.0 -21662400000.0 -28917900000.0 -29335500000.0 -57459300000.0 -9505350000.0 -38518200000.0 -9461490000.0 -9993930000.0 -9246370000.0 -33448000000.0 -9673410000.0 -33270500000.0 -9897130000.0 -29721600000.0 -28007900000.0 -29670400000.0 -29234500000.0 -34932800000.0 -39387200000.0 -49568400000.0 -50800700000.0 -55390300000.0 -52584700000.0 -50454900000.0 -45229700000.0 -40697500000.0 -29428600000.0 -18792100000.0 -13323200000.0 -13094700000.0 -24998100000.0 -31424800000.0 -28998500000.0 -26229200000.0 -25651500000.0 -20044400000.0 -13644400000.0 -9035760000.0 -26319600000.0 -34993700000.0 -10982000000.0 -16075100000.0 -12801300000.0 -19090300000.0 -18363200000.0 -20411100000.0 -22761300000.0 -9035750000.0 -9035750000.0 -9035750000.0 -9035750000.0 -9035750000.0 -38010200000.0 -17232600000.0 -9035750000.0 -9035750000.0 -9035750000.0 -9035750000.0 -22946800000.0 -38942600000.0 -35716600000.0 -19165200000.0 -18746100000.0 -16875900000.0 -9322670000.0 -19779000000.0 -9094670000.0 -9035750000.0 -12104800000.0 -15643400000.0 -21247900000.0 -28513000000.0 -28575500000.0 -26353900000.0 -24279600000.0 -21381000000.0 -19327600000.0 -16981500000.0 -16080200000.0 -15055200000.0 -16945900000.0 -21286100000.0 -21227800000.0 -9257830000.0 -26698200000.0 -9156390000.0 -9824030000.0 -9050620000.0 -23783200000.0 -9170600000.0 -23339900000.0 -9277610000.0 -21588800000.0 -20526800000.0 -21492300000.0 -20892900000.0 -22757000000.0 -24505200000.0 -31260700000.0 -32563800000.0 -35440000000.0 -33651400000.0 -32219400000.0 -28802300000.0 -25840300000.0 -18294600000.0 -12376200000.0 -10364200000.0 -10686900000.0 -17892500000.0 -21496100000.0 -19649100000.0 -18462800000.0 -17693000000.0 -13445300000.0 -10708000000.0 -9035740000.0 -19185800000.0 -23846100000.0 -10218100000.0 -13085800000.0 -11430300000.0 -15266600000.0 -14764100000.0 -15978000000.0 -9035750000.0 -9035750000.0 -9035750000.0 -13393200000.0 -18260600000.0 -17247500000.0 -11928300000.0 -12167400000.0 -11473900000.0 -9125450000.0 -12413100000.0 -9054770000.0 -9035750000.0 -10006200000.0 -11091100000.0 -12862200000.0 -15142200000.0 -15185700000.0 -14503200000.0 -13855100000.0 -12943100000.0 -12296800000.0 -11559300000.0 -11279500000.0 -10934800000.0 -11558800000.0 -12920300000.0 -12858400000.0 -18118200000.0 -9096100000.0 -14576400000.0 -9056540000.0 -9308840000.0 -9040750000.0 -13701800000.0 -9079330000.0 -13551200000.0 -9111510000.0 -12992500000.0 -12652800000.0 -12955300000.0 -12745200000.0 -13147300000.0 -13466900000.0 -15669300000.0 -16269200000.0 -17230500000.0 -16650900000.0 -16172200000.0 -15035800000.0 -14007000000.0 -11464900000.0 -9752150000.0 -9294770000.0 -9436310000.0 -11699100000.0 -12836100000.0 -12134600000.0 -11906500000.0 -11607200000.0 -10095100000.0 -9440750000.0 -9035730000.0 -12189200000.0 -13614700000.0 -9407890000.0 -10283800000.0 -9794360000.0 -11014200000.0 -10848600000.0 -11229800000.0 -11604100000.0 -9035750000.0 -9035750000.0 -9035750000.0 
SCALARS Shear_Stress float 1
LOOKUP_TABLE default
51426600000.0 27117200000.0 13065600000.0 4854070000.0 20968500000.0 42211200000.0 7856600000.0 62050100000.0 54626700000.0 40691100000.0 48148000000.0 18003300000.0 49121100000.0 11479500000.0 67546000000.0 33571900000.0 27111200000.0 42703900000.0 63299400000.0 10134300000.0 4435250000.0 49173200000.0 45411400000.0 89302100000.0 10992200000.0 55679600000.0 36660900000.0 45870200000.0 8840940000.0 100492000000.0 116532000000.0 49156300000.0 105594000000.0 52613900000.0 38403300000.0 7411190000.0 92885400000.0 66074700000.0 47383400000.0 1052640000.0 20482100000.0 48031000000.0 25543600000.0 90700600000.0 63581400000.0 109307000000.0 101436000000.0 136042000000.0 140040000000.0 138545000000.0 26225400000.0 86192800000.0 111186000000.0 77169200000.0 242597000000.0 74588100000.0 78980700000.0 17844100000.0 18422100000.0 5747660000.0 50303400000.0 10603500000.0 2595620000.0 98636500000.0 98410900000.0 175392000000.0 162429000000.0 27621500000.0 107009000000.0 63773300000.0 79274200000.0 153933000000.0 99842100000.0 210879000000.0 268988000000.0 140388000000.0 4026710000.0 47811200000.0 13272700000.0 16505700000.0 9931890000.0 38495600000.0 16305600000.0 122553000000.0 215946000000.0 193672000000.0 168223000000.0 3911940000.0 47682200000.0 239821000000.0 268933000000.0 5858200000.0 100117000000.0 65201400000.0 37604200000.0 30570800000.0 161092000000.0 332360000000.0 270289000000.0 273738000000.0 251423000000.0 279132000000.0 239642000000.0 235239000000.0 199130000000.0 195419000000.0 26035200000.0 92201300000.0 52179500000.0 27327600000.0 154383000000.0 94714200000.0 184875000000.0 229337000000.0 136211000000.0 128410000000.0 71829500000.0 86860800000.0 69486100000.0 162552000000.0 423771000000.0 252872000000.0 292462000000.0 270909000000.0 223089000000.0 16746500000.0 63645200000.0 94367200000.0 187177000000.0 162268000000.0 125850000000.0 328202000000.0 199260000000.0 421830000000.0 291024000000.0 345884000000.0 213299000000.0 112562000000.0 135858000000.0 374424000000.0 284273000000.0 260301000000.0 288148000000.0 250306000000.0 207987000000.0 191274000000.0 325750000000.0 588373000000.0 510649000000.0 462513000000.0 322451000000.0 166082000000.0 115418000000.0 232284000000.0 180471000000.0 228644000000.0 271664000000.0 264780000000.0 268155000000.0 239911000000.0 226099000000.0 201720000000.0 4841640000.0 45215400000.0 308412000000.0 591165000000.0 359369000000.0 534696000000.0 439250000000.0 257283000000.0 166939000000.0 120811000000.0 97610500000.0 144700000000.0 138831000000.0 198737000000.0 120578000000.0 168246000000.0 176768000000.0 233051000000.0 238917000000.0 242531000000.0 208559000000.0 39629200000.0 60513200000.0 260810000000.0 368801000000.0 527547000000.0 250864000000.0 209649000000.0 227180000000.0 447760000000.0 516885000000.0 525733000000.0 478164000000.0 370671000000.0 269265000000.0 88420900000.0 79467700000.0 102220000000.0 122772000000.0 193366000000.0 229010000000.0 210734000000.0 178110000000.0 252987000000.0 260247000000.0 103328000000.0 377192000000.0 538739000000.0 391722000000.0 131483000000.0 39190900000.0 54752900000.0 71391300000.0 139445000000.0 197264000000.0 204165000000.0 170089000000.0 175407000000.0 142329000000.0 85346300000.0 128240000000.0 198868000000.0 83721700000.0 170308000000.0 515094000000.0 502394000000.0 271988000000.0 68932900000.0 26326100000.0 18148300000.0 11100000000.0 16348100000.0 25191200000.0 5182530000.0 79922100000.0 88694200000.0 149920000000.0 144952000000.0 183817000000.0 157787000000.0 133749000000.0 137369000000.0 243001000000.0 131333000000.0 33997300000.0 68473300000.0 63197300000.0 9104870000.0 72986300000.0 358792000000.0 566993000000.0 575134000000.0 568127000000.0 424489000000.0 312640000000.0 37063700000.0 31636700000.0 59946200000.0 8618600000.0 82534600000.0 129090000000.0 125422000000.0 101998000000.0 3314500000.0 92966700000.0 126769000000.0 265556000000.0 690184000000.0 525947000000.0 26377700000.0 27345200000.0 11669000000.0 69948300000.0 188007000000.0 111534000000.0 8880930000.0 69383700000.0 110301000000.0 87618900000.0 92618400000.0 66776800000.0 189374000000.0 358475000000.0 112943000000.0 104229000000.0 217189000000.0 82341100000.0 360219000000.0 728690000000.0 472134000000.0 221564000000.0 73617400000.0 76961400000.0 36814400000.0 384665000000.0 137760000000.0 221754000000.0 40077900000.0 29035200000.0 68759300000.0 75697100000.0 63849100000.0 233810000000.0 453879000000.0 201112000000.0 222902000000.0 347680000000.0 310024000000.0 327208000000.0 217185000000.0 212865000000.0 283408000000.0 132633000000.0 728960000000.0 792794000000.0 72032100000.0 82090700000.0 123740000000.0 599570000000.0 216698000000.0 20181100000.0 72723600000.0 48280400000.0 181614000000.0 306700000000.0 462328000000.0 268783000000.0 145717000000.0 40250900000.0 277050000000.0 151155000000.0 93441200000.0 108564000000.0 68989600000.0 100854000000.0 201270000000.0 134121000000.0 654650000000.0 557159000000.0 126582000000.0 13967600000.0 78666000000.0 101085000000.0 61775400000.0 59943500000.0 262238000000.0 523154000000.0 203912000000.0 248097000000.0 339220000000.0 429786000000.0 573542000000.0 529656000000.0 143794000000.0 44600200000.0 800107000000.0 36838500000.0 172494000000.0 196683000000.0 21963900000.0 328576000000.0 153009000000.0 101651000000.0 265703000000.0 578740000000.0 231842000000.0 478563000000.0 743201000000.0 430982000000.0 72625200000.0 32921500000.0 133139000000.0 289557000000.0 357538000000.0 405580000000.0 94875800000.0 271682000000.0 189611000000.0 251463000000.0 533306000000.0 24836500000.0 194781000000.0 117594000000.0 203935000000.0 273953000000.0 738144000000.0 349689000000.0 114990000000.0 314436000000.0 201067000000.0 113875000000.0 114118000000.0 238457000000.0 343292000000.0 309487000000.0 229378000000.0 197220000000.0 271194000000.0 789143000000.0 283808000000.0 408278000000.0 208213000000.0 223307000000.0 241399000000.0 650918000000.0 225509000000.0 191961000000.0 190832000000.0 341882000000.0 449721000000.0 1.12126e+12 139615000000.0 245733000000.0 271877000000.0 68218200000.0 2410550000.0 296688000000.0 360299000000.0 132464000000.0 417933000000.0 938949000000.0 947471000000.0 386622000000.0 204738000000.0 777576000000.0 196803000000.0 210328000000.0 487087000000.0 785785000000.0 279472000000.0 303001000000.0 232033000000.0 287779000000.0 98378700000.0 26325400000.0 74587900000.0 184438000000.0 428435000000.0 209214000000.0 44932100000.0 186213000000.0 371301000000.0 554725000000.0 617522000000.0 744853000000.0 335717000000.0 988641000000.0 296490000000.0 294770000000.0 208860000000.0 311278000000.0 325960000000.0 640784000000.0 669792000000.0 339452000000.0 271439000000.0 77490000000.0 168559000000.0 360818000000.0 562615000000.0 498343000000.0 269910000000.0 212123000000.0 450095000000.0 631671000000.0 549860000000.0 526484000000.0 389786000000.0 182771000000.0 367050000000.0 415034000000.0 747013000000.0 175883000000.0 498397000000.0 436544000000.0 341759000000.0 299897000000.0 175420000000.0 89462700000.0 228752000000.0 922541000000.0 76170500000.0 325156000000.0 459612000000.0 310071000000.0 421638000000.0 385211000000.0 432675000000.0 204239000000.0 1.31015e+12 429092000000.0 780567000000.0 877334000000.0 582015000000.0 484775000000.0 85886800000.0 403296000000.0 441209000000.0 392536000000.0 220953000000.0 119737000000.0 64845800000.0 80315500000.0 213250000000.0 893710000000.0 32426900000.0 452160000000.0 149518000000.0 351027000000.0 323853000000.0 282577000000.0 1.62429e+12 284170000000.0 540052000000.0 463026000000.0 175241000000.0 330618000000.0 440590000000.0 336916000000.0 146687000000.0 24918000000.0 7019170000.0 211876000000.0 144939000000.0 239608000000.0 1.00078e+12 217192000000.0 108656000000.0 147378000000.0 143658000000.0 288584000000.0 214185000000.0 11315100000.0 291012000000.0 276597000000.0 96494200000.0 100477000000.0 176519000000.0 362166000000.0 423026000000.0 452308000000.0 417031000000.0 379654000000.0 268357000000.0 204403000000.0 66887000000.0 176530000000.0 294739000000.0 1.03756e+12 15086800000.0 462072000000.0 135494000000.0 163603000000.0 167823000000.0 395934000000.0 1.82758e+12 88757000000.0 109961000000.0 390518000000.0 101146000000.0 303076000000.0 447345000000.0 453281000000.0 340799000000.0 156880000000.0 19839600000.0 58469400000.0 167370000000.0 654103000000.0 619052000000.0 706781000000.0 131749000000.0 59348600000.0 69677300000.0 547977000000.0 1.27156e+12 1.06101e+12 295507000000.0 305607000000.0 269411000000.0 421879000000.0 487465000000.0 448197000000.0 319862000000.0 342112000000.0 163632000000.0 335967000000.0 244496000000.0 2825630000.0 515944000000.0 407983000000.0 1.39463e+12 405377000000.0 94134900000.0 72514800000.0 118988000000.0 1.00955e+12 531713000000.0 121265000000.0 479721000000.0 426973000000.0 391401000000.0 397892000000.0 391461000000.0 464718000000.0 489151000000.0 547611000000.0 516555000000.0 550928000000.0 453093000000.0 485358000000.0 454927000000.0 572745000000.0 474741000000.0 204348000000.0 792176000000.0 70844200000.0 121611000000.0 97016200000.0 327846000000.0 670951000000.0 64923500000.0 138013000000.0 328333000000.0 896351000000.0 429156000000.0 542625000000.0 613565000000.0 680176000000.0 597200000000.0 665986000000.0 567470000000.0 629598000000.0 777952000000.0 559886000000.0 1.05342e+12 1.16468e+12 223577000000.0 275758000000.0 154636000000.0 80058100000.0 494104000000.0 1.24197e+12 525513000000.0 182898000000.0 117230000000.0 77773000000.0 480724000000.0 1.45266e+12 440852000000.0 500717000000.0 641373000000.0 643678000000.0 736531000000.0 749030000000.0 758994000000.0 693201000000.0 844803000000.0 825796000000.0 1.00041e+12 793687000000.0 278909000000.0 211522000000.0 723541000000.0 585498000000.0 28768200000.0 8934770000.0 477581000000.0 522900000000.0 852270000000.0 322231000000.0 192174000000.0 191866000000.0 428794000000.0 398072000000.0 428904000000.0 607703000000.0 765743000000.0 816068000000.0 824001000000.0 869003000000.0 999984000000.0 1.01409e+12 981886000000.0 409442000000.0 166584000000.0 57107200000.0 553183000000.0 41361800000.0 16788200000.0 318921000000.0 204246000000.0 470229000000.0 1.13093e+12 632745000000.0 199547000000.0 365809000000.0 309509000000.0 351310000000.0 151046000000.0 1.44989e+12 562908000000.0 562513000000.0 764110000000.0 870417000000.0 861273000000.0 937195000000.0 884858000000.0 945936000000.0 903209000000.0 983558000000.0 1.09255e+12 1.06077e+12 989274000000.0 785046000000.0 356759000000.0 1.15091e+12 636463000000.0 726904000000.0 693872000000.0 1.26232e+12 469967000000.0 361640000000.0 109881000000.0 352463000000.0 21473300000.0 744572000000.0 475697000000.0 435355000000.0 674998000000.0 573353000000.0 56589700000.0 171601000000.0 559905000000.0 1.35242e+12 619870000000.0 725711000000.0 819062000000.0 954573000000.0 989478000000.0 995342000000.0 980761000000.0 1.04791e+12 1.07424e+12 1.10927e+12 867539000000.0 609842000000.0 850509000000.0 1.14062e+12 491501000000.0 498085000000.0 1.1398e+12 858363000000.0 372971000000.0 70690000000.0 170285000000.0 104075000000.0 527364000000.0 91192300000.0 333666000000.0 675355000000.0 605578000000.0 660964000000.0 624511000000.0 244525000000.0 634216000000.0 887206000000.0 1.02663e+12 1.02048e+12 1.03283e+12 1.10976e+12 1.1396e+12 1.19533e+12 1.04495e+12 847048000000.0 909797000000.0 803892000000.0 490227000000.0 845350000000.0 1.4804e+12 311812000000.0 672146000000.0 12670900000.0 289415000000.0 654105000000.0 495266000000.0 193765000000.0 170245000000.0 390613000000.0 483998000000.0 150667000000.0 348664000000.0 239561000000.0 297672000000.0 478799000000.0 257153000000.0 227736000000.0 629973000000.0 259166000000.0 281051000000.0 113300000000.0 229530000000.0 639608000000.0 704295000000.0 975763000000.0 1.0601e+12 1.04319e+12 1.02722e+12 1.07517e+12 1.22433e+12 1.03599e+12 948689000000.0 867423000000.0 763041000000.0 567679000000.0 541205000000.0 602805000000.0 309921000000.0 77372100000.0 618985000000.0 385141000000.0 271961000000.0 226238000000.0 32277200000.0 260760000000.0 334873000000.0 437366000000.0 436252000000.0 519927000000.0 553776000000.0 690314000000.0 269366000000.0 118430000000.0 16510200000.0 144769000000.0 104563000000.0 532022000000.0 785345000000.0 182164000000.0 194638000000.0 842070000000.0 995884000000.0 1.02679e+12 990116000000.0 1.0311e+12 1.04405e+12 1.15728e+12 1.07787e+12 985016000000.0 907119000000.0 861599000000.0 832708000000.0 656326000000.0 487025000000.0 1.48901e+12 408551000000.0 510835000000.0 1.09629e+12 473926000000.0 39955000000.0 361686000000.0 124191000000.0 236345000000.0 354657000000.0 714879000000.0 192407000000.0 101177000000.0 232264000000.0 1.11971e+12 697344000000.0 951658000000.0 704704000000.0 10704700000.0 46499400000.0 981084000000.0 932303000000.0 899605000000.0 852724000000.0 993155000000.0 1.12765e+12 1.05553e+12 918735000000.0 803182000000.0 758658000000.0 699431000000.0 613354000000.0 766317000000.0 1.17183e+12 395276000000.0 228131000000.0 495627000000.0 682921000000.0 733508000000.0 11200700000.0 510474000000.0 379601000000.0 308137000000.0 12495100000.0 438325000000.0 503525000000.0 73280300000.0 237880000000.0 384584000000.0 527153000000.0 665123000000.0 64748400000.0 380779000000.0 419777000000.0 186651000000.0 532331000000.0 1.00108e+12 718470000000.0 182531000000.0 576213000000.0 883919000000.0 999389000000.0 1.01768e+12 944579000000.0 664596000000.0 693123000000.0 226843000000.0 536452000000.0 197731000000.0 749239000000.0 756885000000.0 719596000000.0 1.16847e+12 1.06237e+12 989212000000.0 908876000000.0 847147000000.0 739774000000.0 752174000000.0 776723000000.0 339053000000.0 1.18475e+12 120304000000.0 439595000000.0 943676000000.0 108606000000.0 108410000000.0 288295000000.0 198038000000.0 30492600000.0 98418600000.0 325380000000.0 237677000000.0 149961000000.0 6456480000.0 85718900000.0 40226900000.0 497865000000.0 839295000000.0 469322000000.0 614352000000.0 159164000000.0 568243000000.0 700833000000.0 404846000000.0 767711000000.0 988914000000.0 882903000000.0 770326000000.0 838683000000.0 527504000000.0 163676000000.0 642654000000.0 447172000000.0 601516000000.0 1.16156e+12 1.13736e+12 981868000000.0 814902000000.0 767449000000.0 697461000000.0 718712000000.0 674130000000.0 717260000000.0 545229000000.0 296427000000.0 898108000000.0 551276000000.0 204394000000.0 16640400000.0 146380000000.0 33853400000.0 150707000000.0 107602000000.0 191080000000.0 109413000000.0 233470000000.0 7346230000.0 406293000000.0 20451500000.0 57177500000.0 54598800000.0 133899000000.0 1.30433e+12 179608000000.0 499616000000.0 451018000000.0 542832000000.0 604839000000.0 539740000000.0 616828000000.0 833921000000.0 940134000000.0 859074000000.0 781662000000.0 502896000000.0 540622000000.0 1.08874e+12 1.12119e+12 1.22127e+12 1.19547e+12 1.14244e+12 1.0623e+12 882081000000.0 713520000000.0 613007000000.0 567121000000.0 515617000000.0 521997000000.0 1.09305e+12 247078000000.0 99573200000.0 288965000000.0 118731000000.0 465194000000.0 114333000000.0 67944400000.0 183266000000.0 186443000000.0 164248000000.0 146859000000.0 145199000000.0 108908000000.0 384416000000.0 369965000000.0 68988600000.0 142756000000.0 94634100000.0 293292000000.0 140087000000.0 363940000000.0 202323000000.0 183995000000.0 373093000000.0 521402000000.0 728778000000.0 733903000000.0 693794000000.0 834160000000.0 842926000000.0 907029000000.0 878867000000.0 855423000000.0 569175000000.0 290763000000.0 332804000000.0 928880000000.0 1.19269e+12 1.21766e+12 1.052e+12 964373000000.0 845752000000.0 764498000000.0 621579000000.0 595365000000.0 458213000000.0 496057000000.0 583623000000.0 15083200000.0 662507000000.0 592545000000.0 363647000000.0 324197000000.0 769818000000.0 75623700000.0 157020000000.0 170942000000.0 162419000000.0 174182000000.0 106172000000.0 324624000000.0 235207000000.0 59596800000.0 154167000000.0 46033100000.0 431927000000.0 340359000000.0 246403000000.0 591281000000.0 948292000000.0 1.39623e+12 925609000000.0 101628000000.0 284272000000.0 352333000000.0 638981000000.0 761263000000.0 718670000000.0 839677000000.0 798179000000.0 1.01726e+12 657420000000.0 897207000000.0 1.13916e+12 1.08476e+12 1.10923e+12 1.23733e+12 1.13886e+12 941084000000.0 699536000000.0 451011000000.0 343108000000.0 450253000000.0 67392300000.0 15640600000.0 195718000000.0 262508000000.0 35048300000.0 192602000000.0 113676000000.0 895197000000.0 386679000000.0 157201000000.0 53351300000.0 76809100000.0 248047000000.0 181501000000.0 175608000000.0 136656000000.0 138733000000.0 206584000000.0 225405000000.0 118911000000.0 87649700000.0 334280000000.0 294130000000.0 257474000000.0 571506000000.0 703428000000.0 451247000000.0 1.08752e+12 329972000000.0 493011000000.0 609344000000.0 486493000000.0 311492000000.0 1.4526e+12 42638100000.0 147913000000.0 362239000000.0 962490000000.0 615175000000.0 755372000000.0 807671000000.0 1.15207e+12 810668000000.0 1.21423e+12 1.14258e+12 1.1085e+12 1.14513e+12 1.20922e+12 1.11828e+12 1.03678e+12 920377000000.0 806292000000.0 517643000000.0 261358000000.0 36408600000.0 281160000000.0 805066000000.0 927567000000.0 746326000000.0 369882000000.0 287282000000.0 942655000000.0 42131900000.0 80481400000.0 118111000000.0 138942000000.0 144489000000.0 248338000000.0 119289000000.0 263948000000.0 275414000000.0 390612000000.0 395714000000.0 1.26984e+12 38783700000.0 337784000000.0 170879000000.0 562451000000.0 900048000000.0 1.33933e+12 426683000000.0 25181200000.0 371252000000.0 147181000000.0 17032100000.0 394417000000.0 1.11496e+12 676226000000.0 688911000000.0 539209000000.0 688059000000.0 800535000000.0 1.05763e+12 928279000000.0 900141000000.0 1.07972e+12 1.21535e+12 1.16485e+12 1.17319e+12 1.01788e+12 777287000000.0 635298000000.0 419990000000.0 298875000000.0 44905200000.0 242360000000.0 19069300000.0 107867000000.0 495093000000.0 910166000000.0 231354000000.0 366286000000.0 78326900000.0 511070000000.0 817983000000.0 177370000000.0 222068000000.0 151873000000.0 137507000000.0 70441700000.0 114847000000.0 134714000000.0 152891000000.0 255204000000.0 262152000000.0 97735000000.0 315439000000.0 275436000000.0 291418000000.0 241464000000.0 17275200000.0 556576000000.0 123096000000.0 158693000000.0 84484400000.0 344718000000.0 486969000000.0 477665000000.0 1.62868e+12 899951000000.0 108702000000.0 325759000000.0 86673200000.0 228409000000.0 296598000000.0 472081000000.0 813899000000.0 886375000000.0 935421000000.0 1.04179e+12 1.1358e+12 1.17952e+12 1.20977e+12 1.20913e+12 1.1015e+12 898158000000.0 597654000000.0 142126000000.0 195736000000.0 812514000000.0 102411000000.0 647148000000.0 1.29518e+12 155833000000.0 165693000000.0 617387000000.0 1.03391e+12 194505000000.0 810443000000.0 85838500000.0 12159400000.0 137863000000.0 152861000000.0 146710000000.0 254388000000.0 52682800000.0 81913600000.0 314382000000.0 383452000000.0 470304000000.0 291309000000.0 257705000000.0 497001000000.0 1.20759e+12 154773000000.0 50203700000.0 314232000000.0 405166000000.0 475913000000.0 542052000000.0 246338000000.0 309205000000.0 514344000000.0 119037000000.0 742869000000.0 522379000000.0 105202000000.0 166364000000.0 9281090000.0 287501000000.0 478194000000.0 791220000000.0 921913000000.0 1.08714e+12 1.15468e+12 1.19228e+12 1.15527e+12 1.1977e+12 1.0824e+12 1.00193e+12 913417000000.0 744331000000.0 509840000000.0 377009000000.0 173193000000.0 129280000000.0 636305000000.0 434756000000.0 53122900000.0 427739000000.0 240435000000.0 199421000000.0 410627000000.0 90700600000.0 442131000000.0 209443000000.0 207091000000.0 285053000000.0 606745000000.0 266033000000.0 148901000000.0 113271000000.0 145975000000.0 164217000000.0 162105000000.0 192631000000.0 239148000000.0 24033000000.0 334688000000.0 371529000000.0 372735000000.0 427972000000.0 617592000000.0 979958000000.0 81978600000.0 405789000000.0 873573000000.0 240557000000.0 201904000000.0 359186000000.0 305290000000.0 1.08149e+12 1.2496e+12 1.09572e+12 273207000000.0 700395000000.0 414370000000.0 61155700000.0 973229000000.0 930146000000.0 144926000000.0 567634000000.0 626158000000.0 804772000000.0 976556000000.0 1.09911e+12 1.13026e+12 1.10506e+12 969259000000.0 811043000000.0 137885000000.0 306848000000.0 47136800000.0 925121000000.0 127002000000.0 434815000000.0 738959000000.0 428498000000.0 162425000000.0 83842100000.0 45753000000.0 202563000000.0 107531000000.0 864345000000.0 1.47162e+12 177561000000.0 89431400000.0 22437100000.0 96371000000.0 150369000000.0 202227000000.0 216176000000.0 224380000000.0 205064000000.0 3767620000.0 420660000000.0 380424000000.0 403813000000.0 408131000000.0 436599000000.0 469318000000.0 455077000000.0 1.26765e+12 638307000000.0 431093000000.0 71446400000.0 54407300000.0 161540000000.0 325510000000.0 294956000000.0 407287000000.0 341602000000.0 274810000000.0 612069000000.0 948049000000.0 612485000000.0 805151000000.0 354651000000.0 19141100000.0 348730000000.0 670781000000.0 835479000000.0 867507000000.0 1.00056e+12 1.00135e+12 1.08248e+12 1.08444e+12 985998000000.0 948816000000.0 621006000000.0 362309000000.0 449728000000.0 1.11297e+12 438010000000.0 659048000000.0 399341000000.0 120991000000.0 358627000000.0 284867000000.0 114860000000.0 114917000000.0 47242100000.0 268841000000.0 202047000000.0 680560000000.0 275585000000.0 140662000000.0 248073000000.0 62933300000.0 215665000000.0 210242000000.0 254906000000.0 281981000000.0 229378000000.0 172014000000.0 6080300000.0 2113310000.0 438119000000.0 477159000000.0 465080000000.0 420111000000.0 443051000000.0 420618000000.0 236834000000.0 555502000000.0 163366000000.0 1.12337e+12 207014000000.0 88000600000.0 111616000000.0 124120000000.0 184567000000.0 43741800000.0 13299300000.0 568620000000.0 686065000000.0 436343000000.0 1.05739e+12 952088000000.0 629760000000.0 758043000000.0 120944000000.0 239593000000.0 463725000000.0 699795000000.0 880499000000.0 986772000000.0 1.04991e+12 991563000000.0 997270000000.0 827753000000.0 844655000000.0 970701000000.0 939077000000.0 733664000000.0 78515300000.0 89310700000.0 1.21523e+12 518269000000.0 95210200000.0 130136000000.0 242368000000.0 141922000000.0 85138400000.0 18898100000.0 63024200000.0 25926900000.0 336288000000.0 8594560000.0 332317000000.0 18813600000.0 185173000000.0 297840000000.0 265346000000.0 341567000000.0 281382000000.0 237430000000.0 270750000000.0 140344000000.0 93637100000.0 31649400000.0 428137000000.0 539837000000.0 530310000000.0 580416000000.0 460804000000.0 488331000000.0 470583000000.0 450051000000.0 6096610000.0 311618000000.0 1.08375e+12 1.02478e+12 106297000000.0 333468000000.0 259799000000.0 214723000000.0 240163000000.0 951293000000.0 370821000000.0 304532000000.0 378539000000.0 268864000000.0 413004000000.0 989082000000.0 46231500000.0 398504000000.0 540755000000.0 541654000000.0 722850000000.0 863175000000.0 956465000000.0 863615000000.0 559656000000.0 1.11438e+12 416531000000.0 146742000000.0 370889000000.0 406663000000.0 550073000000.0 485064000000.0 284306000000.0 162666000000.0 95294600000.0 30576500000.0 540312000000.0 8869790000.0 208240000000.0 191933000000.0 439001000000.0 369991000000.0 442835000000.0 349066000000.0 440737000000.0 357157000000.0 322727000000.0 275075000000.0 299148000000.0 27990600000.0 66214300000.0 394040000000.0 509845000000.0 644572000000.0 693945000000.0 503363000000.0 478970000000.0 556600000000.0 621619000000.0 141383000000.0 358508000000.0 748393000000.0 457341000000.0 852531000000.0 803743000000.0 593515000000.0 276076000000.0 70936800000.0 609600000000.0 778954000000.0 61607900000.0 689649000000.0 373477000000.0 364162000000.0 225306000000.0 417531000000.0 120689000000.0 482762000000.0 1.02676e+12 673951000000.0 216723000000.0 482375000000.0 528971000000.0 720680000000.0 675847000000.0 839804000000.0 944681000000.0 531106000000.0 367972000000.0 1.1278e+12 586745000000.0 479572000000.0 67185700000.0 339956000000.0 311048000000.0 114645000000.0 594916000000.0 480118000000.0 209198000000.0 33324000000.0 32745400000.0 65034500000.0 171566000000.0 270038000000.0 614690000000.0 978279000000.0 618960000000.0 91223400000.0 1.05684e+12 674096000000.0 385245000000.0 546876000000.0 429694000000.0 290803000000.0 318854000000.0 359484000000.0 346673000000.0 444531000000.0 28076300000.0 124603000000.0 104607000000.0 268809000000.0 337030000000.0 442757000000.0 634965000000.0 762463000000.0 493622000000.0 527819000000.0 679656000000.0 279471000000.0 707004000000.0 522844000000.0 507385000000.0 581502000000.0 492875000000.0 347732000000.0 157781000000.0 294449000000.0 1.36941e+12 565779000000.0 229425000000.0 1.06202e+12 463901000000.0 226195000000.0 195155000000.0 894103000000.0 682486000000.0 581253000000.0 265401000000.0 551354000000.0 632592000000.0 776428000000.0 782226000000.0 929258000000.0 778489000000.0 1.37615e+12 99463000000.0 355796000000.0 410456000000.0 224281000000.0 946425000000.0 805767000000.0 11904500000.0 43179400000.0 102923000000.0 158307000000.0 256433000000.0 397119000000.0 710311000000.0 1.23939e+12 1.51071e+12 1.13698e+12 1.01653e+12 728662000000.0 482349000000.0 661448000000.0 484816000000.0 333515000000.0 374148000000.0 410315000000.0 511833000000.0 63022400000.0 70307100000.0 46272000000.0 194093000000.0 353253000000.0 470230000000.0 574755000000.0 731053000000.0 909456000000.0 819568000000.0 319398000000.0 461240000000.0 589479000000.0 955826000000.0 931037000000.0 139196000000.0 1.56305e+12 352138000000.0 330560000000.0 178997000000.0 32049300000.0 875444000000.0 278152000000.0 244571000000.0 534161000000.0 308550000000.0 723788000000.0 856400000000.0 564209000000.0 481173000000.0 460098000000.0 120871000000.0 442634000000.0 297717000000.0 243764000000.0 203671000000.0 301283000000.0 477649000000.0 419655000000.0 793924000000.0 287368000000.0 255820000000.0 386818000000.0 289924000000.0 108965000000.0 33177400000.0 783794000000.0 151429000000.0 111726000000.0 160804000000.0 188099000000.0 225515000000.0 296109000000.0 409556000000.0 623879000000.0 849815000000.0 337492000000.0 288657000000.0 862538000000.0 451713000000.0 314515000000.0 594707000000.0 324839000000.0 261533000000.0 440456000000.0 418472000000.0 446866000000.0 566738000000.0 642477000000.0 519484000000.0 50997800000.0 38572500000.0 379843000000.0 163242000000.0 234558000000.0 325987000000.0 625871000000.0 832332000000.0 1.06074e+12 267805000000.0 399348000000.0 1.57624e+12 528346000000.0 1.14319e+12 236048000000.0 251205000000.0 425660000000.0 973682000000.0 181283000000.0 338008000000.0 1.01309e+12 673719000000.0 58753900000.0 661547000000.0 520201000000.0 376763000000.0 69605100000.0 574031000000.0 576920000000.0 84199900000.0 241277000000.0 201949000000.0 461106000000.0 213888000000.0 471238000000.0 85665900000.0 304249000000.0 401606000000.0 324109000000.0 868781000000.0 146715000000.0 327220000000.0 130343000000.0 114806000000.0 150652000000.0 949421000000.0 800330000.0 160099000000.0 220530000000.0 263952000000.0 318662000000.0 392311000000.0 493893000000.0 527571000000.0 372418000000.0 591549000000.0 1.44709e+12 105005000000.0 110618000000.0 1.06707e+12 203236000000.0 104079000000.0 578460000000.0 470023000000.0 717339000000.0 614464000000.0 482594000000.0 11721100000.0 53944100000.0 76533100000.0 529037000000.0 108825000000.0 136404000000.0 187416000000.0 438627000000.0 547122000000.0 1.13411e+12 1.62129e+12 52370500000.0 348161000000.0 507941000000.0 478927000000.0 877709000000.0 157554000000.0 1.005e+12 834020000000.0 308654000000.0 445424000000.0 506416000000.0 571024000000.0 995745000000.0 999698000000.0 529215000000.0 389734000000.0 612080000000.0 306551000000.0 65059400000.0 247998000000.0 320484000000.0 931306000000.0 544566000000.0 466309000000.0 592010000000.0 542345000000.0 363797000000.0 583771000000.0 175859000000.0 1.08392e+12 597776000000.0 157463000000.0 239400000000.0 485939000000.0 181056000000.0 103465000000.0 505797000000.0 124248000000.0 555812000000.0 63526200000.0 138197000000.0 244468000000.0 315056000000.0 380599000000.0 453391000000.0 493225000000.0 465935000000.0 233062000000.0 830031000000.0 311314000000.0 584188000000.0 248507000000.0 509910000000.0 1.31652e+12 594179000000.0 287857000000.0 570267000000.0 420254000000.0 865262000000.0 758376000000.0 530254000000.0 414473000000.0 319018000000.0 48684400000.0 6257330000.0 523252000000.0 787900000000.0 619749000000.0 79808700000.0 297046000000.0 397487000000.0 471594000000.0 642138000000.0 751354000000.0 1.20525e+12 69591900000.0 792387000000.0 874510000000.0 740307000000.0 22807300000.0 853830000000.0 632549000000.0 150356000000.0 739319000000.0 719621000000.0 763681000000.0 563095000000.0 888989000000.0 942953000000.0 849192000000.0 656389000000.0 480076000000.0 494867000000.0 462014000000.0 20410200000.0 218251000000.0 215752000000.0 322582000000.0 423487000000.0 339302000000.0 901787000000.0 375348000000.0 490268000000.0 520859000000.0 456072000000.0 475022000000.0 540120000000.0 293962000000.0 387527000000.0 49591600000.0 719150000000.0 63942200000.0 146217000000.0 63192300000.0 418980000000.0 327122000000.0 486584000000.0 49135500000.0 781630000000.0 892524000000.0 290879000000.0 864842000000.0 366965000000.0 61511500000.0 1.09385e+12 74347600000.0 1.18993e+12 884019000000.0 677869000000.0 491559000000.0 396996000000.0 223028000000.0 122394000000.0 36683900000.0 349905000000.0 537517000000.0 1.11472e+12 43361600000.0 135232000000.0 210866000000.0 347483000000.0 462155000000.0 546631000000.0 799917000000.0 1.02508e+12 36246500000.0 1.00806e+12 1.12282e+12 866546000000.0 463320000000.0 784538000000.0 852992000000.0 990551000000.0 1.52088e+12 1.35725e+12 853803000000.0 786545000000.0 761492000000.0 826414000000.0 769519000000.0 580178000000.0 402428000000.0 320516000000.0 213530000000.0 298453000000.0 227710000000.0 154722000000.0 848916000000.0 469855000000.0 107677000000.0 489561000000.0 695374000000.0 537903000000.0 713313000000.0 557951000000.0 584197000000.0 776147000000.0 61083700000.0 911126000000.0 702003000000.0 895099000000.0 607086000000.0 103979000000.0 197264000000.0 291488000000.0 363548000000.0 419334000000.0 438276000000.0 371909000000.0 472847000000.0 395739000000.0 910366000000.0 1.17217e+12 1.01857e+12 267126000000.0 1.02327e+12 439117000000.0 540878000000.0 1.2447e+12 461067000000.0 459651000000.0 1.28613e+12 754722000000.0 575816000000.0 337617000000.0 271168000000.0 120214000000.0 183098000000.0 80792600000.0 51595800000.0 19809000000.0 225637000000.0 237769000000.0 255213000000.0 817937000000.0 1.31027e+12 214818000000.0 337725000000.0 499381000000.0 595901000000.0 856870000000.0 1.18791e+12 938200000000.0 1.04196e+12 982980000000.0 752579000000.0 454642000000.0 380197000000.0 75995500000.0 267236000000.0 399202000000.0 454878000000.0 977843000000.0 739376000000.0 700560000000.0 587119000000.0 407754000000.0 244270000000.0 125191000000.0 6727960000.0 165306000000.0 242628000000.0 304861000000.0 1.04569e+12 258523000000.0 973964000000.0 7728070000.0 917271000000.0 334204000000.0 381798000000.0 1.10599e+12 320190000000.0 527573000000.0 819904000000.0 778852000000.0 517193000000.0 215562000000.0 89305400000.0 178826000000.0 263226000000.0 333320000000.0 389637000000.0 414375000000.0 400398000000.0 557155000000.0 937824000000.0 1.0601e+12 888531000000.0 158459000000.0 855848000000.0 952818000000.0 310748000000.0 940196000000.0 359636000000.0 415082000000.0 321575000000.0 365147000000.0 270608000000.0 179432000000.0 40330400000.0 323250000000.0 8752680000.0 21279700000.0 214927000000.0 306235000000.0 208052000000.0 142413000000.0 426493000000.0 718977000000.0 1.26841e+12 284014000000.0 516999000000.0 653307000000.0 871508000000.0 1.12755e+12 1.04756e+12 491232000000.0 1.06983e+12 898752000000.0 793000000000.0 249102000000.0 356690000000.0 147278000000.0 97616900000.0 578295000000.0 501045000000.0 367100000000.0 215868000000.0 80436600000.0 29161200000.0 132813000000.0 209383000000.0 260104000000.0 241516000000.0 210467000000.0 471093000000.0 103559000000.0 224096000000.0 139321000000.0 22992900000.0 316684000000.0 809197000000.0 418413000000.0 367266000000.0 573790000000.0 702395000000.0 643626000000.0 468023000000.0 293848000000.0 228185000000.0 268884000000.0 320765000000.0 366129000000.0 393821000000.0 397687000000.0 383341000000.0 457989000000.0 1.07081e+12 946026000000.0 641930000000.0 917240000000.0 1.10486e+12 70990700000.0 806877000000.0 935878000000.0 417441000000.0 918965000000.0 417692000000.0 420969000000.0 360306000000.0 207568000000.0 66496100000.0 723664000000.0 455179000000.0 63793600000.0 9066660000.0 577060000000.0 341575000000.0 310390000000.0 425966000000.0 775513000000.0 463028000000.0 361551000000.0 687176000000.0 859712000000.0 1.04263e+12 1.21878e+12 1.09355e+12 947850000000.0 1.36129e+12 722388000000.0 584704000000.0 332935000000.0 157996000000.0 11100800000.0 63557900000.0 50893300000.0 151047000000.0 446880000000.0 35005000000.0 531171000000.0 76602700000.0 27706100000.0 107622000000.0 165150000000.0 206504000000.0 216196000000.0 213852000000.0 296323000000.0 208376000000.0 291077000000.0 603231000000.0 542192000000.0 661165000000.0 410693000000.0 702200000000.0 575294000000.0 185151000000.0 13280800000.0 141803000000.0 434946000000.0 346001000000.0 260206000000.0 370468000000.0 520377000000.0 589195000000.0 549142000000.0 446055000000.0 351575000000.0 317724000000.0 336893000000.0 366342000000.0 389881000000.0 402158000000.0 408842000000.0 444849000000.0 602041000000.0 1.05235e+12 974927000000.0 808981000000.0 884444000000.0 926736000000.0 760206000000.0 710029000000.0 774320000000.0 32341400000.0 837497000000.0 799838000000.0 786998000000.0 564661000000.0 387074000000.0 114882000000.0 24708500000.0 594745000000.0 296153000000.0 121198000000.0 9040220000.0 61808300000.0 145377000000.0 705590000000.0 724212000000.0 303127000000.0 596028000000.0 1.07541e+12 405856000000.0 638440000000.0 803494000000.0 938407000000.0 1.14856e+12 1.14424e+12 1.06337e+12 1.03595e+12 1.39148e+12 656610000000.0 470836000000.0 292195000000.0 232988000000.0 300594000000.0 476674000000.0 500543000000.0 48620400000.0 430070000000.0 296379000000.0 422441000000.0 323513000000.0 199068000000.0 114744000000.0 143818000000.0 161101000000.0 176911000000.0 219730000000.0 219204000000.0 282300000000.0 432837000000.0 484316000000.0 581929000000.0 492942000000.0 602469000000.0 477298000000.0 197576000000.0 15519400000.0 110361000000.0 248249000000.0 264741000000.0 232326000000.0 267801000000.0 373500000000.0 384797000000.0 398489000000.0 410013000000.0 428740000000.0 489243000000.0 563929000000.0 1.32902e+12 1.12747e+12 843002000000.0 855297000000.0 754381000000.0 469883000000.0 496678000000.0 887981000000.0 1.03871e+12 781711000000.0 887326000000.0 598157000000.0 346551000000.0 103499000000.0 1.06541e+12 247161000000.0 67984300000.0 16832100000.0 101108000000.0 21129500000.0 16757000000.0 16182700000.0 9888140000.0 246344000000.0 332742000000.0 616922000000.0 493770000000.0 642037000000.0 880362000000.0 845708000000.0 451707000000.0 684046000000.0 809447000000.0 1.03123e+12 1.06145e+12 1.02838e+12 965397000000.0 358846000000.0 468818000000.0 401754000000.0 366524000000.0 429767000000.0 569609000000.0 298921000000.0 713915000000.0 464694000000.0 272672000000.0 126048000000.0 11676800000.0 67761200000.0 109751000000.0 152136000000.0 189111000000.0 250906000000.0 348559000000.0 420139000000.0 492992000000.0 495383000000.0 512987000000.0 442641000000.0 250320000000.0 63609900000.0 68748400000.0 168745000000.0 471722000000.0 514198000000.0 494626000000.0 441100000000.0 393388000000.0 376367000000.0 380053000000.0 242798000000.0 1.27949e+12 995408000000.0 904014000000.0 824112000000.0 793177000000.0 754371000000.0 647555000000.0 730099000000.0 753129000000.0 898418000000.0 1.04707e+12 947907000000.0 1.27126e+12 801376000000.0 538062000000.0 255293000000.0 1.16844e+12 573566000000.0 32981800000.0 30293100000.0 40366000000.0 35275200000.0 12473700000.0 127217000000.0 349794000000.0 372943000000.0 575199000000.0 740092000000.0 798266000000.0 799906000000.0 652902000000.0 95711500000.0 515012000000.0 655944000000.0 897009000000.0 947570000000.0 948627000000.0 910150000000.0 1.01117e+12 1.2905e+12 97925900000.0 356422000000.0 415876000000.0 489299000000.0 657192000000.0 601980000000.0 403159000000.0 139495000000.0 142290000000.0 972822000000.0 543108000000.0 291586000000.0 112307000000.0 4997890000.0 60085600000.0 77556100000.0 86926100000.0 201016000000.0 204458000000.0 227480000000.0 289035000000.0 371916000000.0 439612000000.0 471449000000.0 467212000000.0 443583000000.0 420867000000.0 409447000000.0 405753000000.0 399373000000.0 388976000000.0 1.13042e+12 901451000000.0 788423000000.0 758600000000.0 777652000000.0 727017000000.0 703849000000.0 759448000000.0 814550000000.0 741295000000.0 759337000000.0 1.36208e+12 1.05555e+12 679244000000.0 366126000000.0 225137000000.0 636817000000.0 277414000000.0 137641000000.0 93187600000.0 119965000000.0 25381200000.0 41128100000.0 33592800000.0 77684900000.0 3358110000.0 68661700000.0 103411000000.0 243740000000.0 241326000000.0 313058000000.0 175900000000.0 305359000000.0 340061000000.0 587156000000.0 258018000000.0 614840000000.0 741187000000.0 816284000000.0 864165000000.0 860363000000.0 884928000000.0 959207000000.0 1.09307e+12 43750900000.0 316528000000.0 600422000000.0 695282000000.0 711343000000.0 617131000000.0 430497000000.0 273442000000.0 187698000000.0 1.05273e+12 601731000000.0 323398000000.0 100704000000.0 12922100000.0 24060300000.0 6494110000.0 23068800000.0 72191800000.0 133838000000.0 206686000000.0 289351000000.0 360658000000.0 422183000000.0 447937000000.0 455342000000.0 403625000000.0 280775000000.0 126336000000.0 8537070000.0 106943000000.0 156264000000.0 176420000000.0 200879000000.0 244511000000.0 305575000000.0 370230000000.0 421116000000.0 449072000000.0 454730000000.0 446173000000.0 432132000000.0 414554000000.0 387637000000.0 343700000000.0 274415000000.0 16522500000.0 839911000000.0 726411000000.0 685681000000.0 702445000000.0 726771000000.0 736734000000.0 807265000000.0 875575000000.0 910256000000.0 894569000000.0 1.34189e+12 1.15178e+12 926268000000.0 420952000000.0 254015000000.0 1.17791e+12 405674000000.0 136138000000.0 245548000000.0 46039200000.0 34092700000.0 55739100000.0 77174800000.0 55369800000.0 77808200000.0 111398000000.0 91059500000.0 135245000000.0 65724900000.0 205574000000.0 434795000000.0 597497000000.0 682914000000.0 772630000000.0 840773000000.0 849883000000.0 915290000000.0 877320000000.0 468529000000.0 588163000000.0 683004000000.0 725624000000.0 693615000000.0 588703000000.0 464962000000.0 409523000000.0 464844000000.0 1.00613e+12 624998000000.0 334259000000.0 37450200000.0 32163400000.0 51368900000.0 67169900000.0 19121900000.0 61710100000.0 153295000000.0 239792000000.0 309981000000.0 365072000000.0 396027000000.0 403369000000.0 370062000000.0 286438000000.0 170886000000.0 51684000000.0 47021000000.0 110921000000.0 147516000000.0 176830000000.0 214116000000.0 262492000000.0 317109000000.0 369229000000.0 410300000000.0 435800000000.0 445551000000.0 441378000000.0 422959000000.0 384128000000.0 314961000000.0 201786000000.0 109675000000.0 920612000000.0 710811000000.0 658591000000.0 651807000000.0 670245000000.0 685009000000.0 692688000000.0 807684000000.0 1.00924e+12 890214000000.0 651148000000.0 1.1976e+12 991199000000.0 755092000000.0 95697300000.0 1.09579e+12 669356000000.0 96300500000.0 242761000000.0 139231000000.0 9600690000.0 14539600000.0 75943100000.0 40284800000.0 78787200000.0 2576400000.0 292408000000.0 242997000000.0 387517000000.0 479587000000.0 555585000000.0 542743000000.0 839587000000.0 544133000000.0 665127000000.0 825250000000.0 822886000000.0 827188000000.0 859005000000.0 882684000000.0 693012000000.0 58872800000.0 328974000000.0 518003000000.0 626941000000.0 684988000000.0 691974000000.0 646270000000.0 567349000000.0 499123000000.0 505493000000.0 22110200000.0 117957000000.0 107668000000.0 19632500000.0 94955400000.0 195733000000.0 267661000000.0 318551000000.0 348794000000.0 357367000000.0 336254000000.0 279426000000.0 193776000000.0 96551200000.0 5602210000.0 64962000000.0 113947000000.0 151139000000.0 187765000000.0 229742000000.0 276550000000.0 324137000000.0 367243000000.0 422549000000.0 388677000000.0 311313000000.0 173779000000.0 142616000000.0 712880000000.0 787513000000.0 644365000000.0 642816000000.0 651461000000.0 660936000000.0 684704000000.0 728855000000.0 663581000000.0 863346000000.0 620277000000.0 1.31144e+12 919102000000.0 772536000000.0 491611000000.0 516688000000.0 323070000000.0 50619200000.0 265606000000.0 132440000000.0 53962600000.0 149622000000.0 222767000000.0 529044000000.0 536574000000.0 596676000000.0 546944000000.0 571574000000.0 630815000000.0 900361000000.0 363887000000.0 756422000000.0 838425000000.0 822011000000.0 849290000000.0 891792000000.0 30172800000.0 392854000000.0 536509000000.0 607773000000.0 634845000000.0 889299000000.0 614938000000.0 317510000000.0 88812100000.0 33358800000.0 157028000000.0 231033000000.0 278220000000.0 305870000000.0 314956000000.0 301857000000.0 262877000000.0 200267000000.0 123404000000.0 44899900000.0 24172100000.0 401121000000.0 422973000000.0 431113000000.0 543321000000.0 732131000000.0 714339000000.0 669192000000.0 644375000000.0 641908000000.0 639475000000.0 637006000000.0 634837000000.0 74933300000.0 838134000000.0 947671000000.0 531143000000.0 74255000000.0 956621000000.0 239445000000.0 47175800000.0 115153000000.0 87641000000.0 400663000000.0 452182000000.0 533614000000.0 563314000000.0 573070000000.0 667948000000.0 589011000000.0 743400000000.0 904134000000.0 841100000000.0 848118000000.0 555813000000.0 174909000000.0 639356000000.0 633214000000.0 594858000000.0 546890000000.0 520918000000.0 553308000000.0 667445000000.0 742756000000.0 552016000000.0 243322000000.0 226861000000.0 42582000000.0 172574000000.0 106993000000.0 79074000000.0 122688000000.0 161502000000.0 200841000000.0 242535000000.0 285249000000.0 326012000000.0 361443000000.0 388456000000.0 404316000000.0 405720000000.0 386086000000.0 328225000000.0 192309000000.0 102610000000.0 422108000000.0 670681000000.0 715092000000.0 693173000000.0 665125000000.0 649235000000.0 628296000000.0 596389000000.0 548532000000.0 480652000000.0 396185000000.0 529350000000.0 651377000000.0 728558000000.0 698022000000.0 131428000000.0 713686000000.0 275107000000.0 40661400000.0 38463900000.0 26214400000.0 96214900000.0 103123000000.0 213297000000.0 414122000000.0 574133000000.0 562012000000.0 541657000000.0 558442000000.0 911451000000.0 232338000000.0 517649000000.0 692490000000.0 877656000000.0 899219000000.0 911713000000.0 814171000000.0 480233000000.0 409035000000.0 511165000000.0 559524000000.0 576855000000.0 573891000000.0 553426000000.0 537973000000.0 553577000000.0 612353000000.0 681189000000.0 676393000000.0 499279000000.0 151611000000.0 340717000000.0 152187000000.0 216152000000.0 42005900000.0 121529000000.0 193611000000.0 236024000000.0 261176000000.0 271158000000.0 264277000000.0 238158000000.0 193230000000.0 134315000000.0 69454400000.0 7029610000.0 47728300000.0 94127600000.0 134843000000.0 173341000000.0 211800000000.0 250377000000.0 287609000000.0 321232000000.0 348759000000.0 367681000000.0 375058000000.0 366438000000.0 332326000000.0 244914000000.0 13475000000.0 346576000000.0 618012000000.0 706967000000.0 712857000000.0 694685000000.0 675065000000.0 661873000000.0 649461000000.0 600051000000.0 543267000000.0 475194000000.0 403913000000.0 235878000000.0 522543000000.0 490727000000.0 522633000000.0 462958000000.0 493355000000.0 918783000.0 143634000000.0 23173000000.0 296097000000.0 516961000000.0 536163000000.0 511515000000.0 668478000000.0 859227000000.0 152194000000.0 467786000000.0 769589000000.0 875846000000.0 873136000000.0 731171000000.0 452128000000.0 291837000000.0 396933000000.0 466485000000.0 507328000000.0 523523000000.0 527792000000.0 532793000000.0 550252000000.0 591281000000.0 647155000000.0 686564000000.0 655517000000.0 495431000000.0 89191200000.0 408072000000.0 285920000000.0 171759000000.0 73194100000.0 135165000000.0 175456000000.0 203030000000.0 217851000000.0 218781000000.0 204237000000.0 174139000000.0 131071000000.0 80022300000.0 26950600000.0 23355100000.0 68726600000.0 109461000000.0 147129000000.0 183243000000.0 218392000000.0 252005000000.0 282649000000.0 308492000000.0 327412000000.0 336761000000.0 333228000000.0 311417000000.0 258793000000.0 116406000000.0 314744000000.0 702343000000.0 722198000000.0 720992000000.0 705785000000.0 691737000000.0 678778000000.0 645773000000.0 483988000000.0 407198000000.0 251275000000.0 604364000000.0 357833000000.0 339437000000.0 129060000000.0 49580000000.0 60060100000.0 359412000000.0 460661000000.0 458673000000.0 497146000000.0 523170000000.0 640177000000.0 780395000000.0 662113000000.0 816954000000.0 711649000000.0 811484000000.0 771553000000.0 622282000000.0 436360000000.0 346117000000.0 386834000000.0 432537000000.0 463516000000.0 482500000000.0 500896000000.0 524842000000.0 559229000000.0 606016000000.0 655279000000.0 686627000000.0 671429000000.0 97715800000.0 14654500000.0 59104600000.0 112032000000.0 144295000000.0 159370000000.0 158702000000.0 143272000000.0 115139000000.0 77782600000.0 35538100000.0 7565480000.0 48862100000.0 87344800000.0 123198000000.0 157014000000.0 189149000000.0 219407000000.0 246964000000.0 606932000000.0 735842000000.0 719673000000.0 717573000000.0 674503000000.0 617613000000.0 554337000000.0 245120000000.0 619309000000.0 607625000000.0 391359000000.0 296595000000.0 319804000000.0 549194000000.0 184009000000.0 293731000000.0 458441000000.0 463277000000.0 495992000000.0 628897000000.0 113914000000.0 445596000000.0 646348000000.0 739214000000.0 660265000000.0 724351000000.0 359551000000.0 673362000000.0 611503000000.0 363282000000.0 23113700000.0 270417000000.0 287997000000.0 297771000000.0 297654000000.0 285214000000.0 257815000000.0 213587000000.0 343000000000.0 549616000000.0 721545000000.0 729952000000.0 742516000000.0 749876000000.0 697559000000.0 627372000000.0 557552000000.0 485418000000.0 403087000000.0 606904000000.0 639715000000.0 484510000000.0 287345000000.0 447300000000.0 18900800000.0 127660000000.0 372372000000.0 407436000000.0 446222000000.0 468457000000.0 527095000000.0 706689000000.0 111842000000.0 440264000000.0 626442000000.0 652043000000.0 650127000000.0 526183000000.0 412529000000.0 372383000000.0 400675000000.0 427986000000.0 451784000000.0 476498000000.0 507415000000.0 545165000000.0 586898000000.0 624432000000.0 640626000000.0 600251000000.0 378991000000.0 4524390000.0 687527000000.0 389702000000.0 158465000000.0 28236700000.0 43347200000.0 82483200000.0 100043000000.0 100771000000.0 87773300000.0 64226400000.0 33623100000.0 595173000.0 35669500000.0 69924500000.0 102635000000.0 133640000000.0 162884000000.0 190087000000.0 214634000000.0 235585000000.0 251756000000.0 261794000000.0 264368000000.0 259235000000.0 249180000000.0 246835000000.0 338376000000.0 525832000000.0 615246000000.0 725439000000.0 686046000000.0 737491000000.0 731724000000.0 540333000000.0 465492000000.0 381702000000.0 225842000000.0 665409000000.0 597846000000.0 447454000000.0 334868000000.0 307047000000.0 235832000000.0 309159000000.0 355280000000.0 450212000000.0 659840000000.0 614676000000.0 140725000000.0 443143000000.0 604771000000.0 625819000000.0 551706000000.0 451716000000.0 376468000000.0 345782000000.0 351151000000.0 370986000000.0 394183000000.0 417922000000.0 442926000000.0 471591000000.0 502894000000.0 532338000000.0 554359000000.0 558135000000.0 491036000000.0 479194000000.0 291415000000.0 596903000000.0 343293000000.0 168002000000.0 66639900000.0 4827900000.0 31412200000.0 48683300000.0 50869100000.0 41127700000.0 22591200000.0 1741390000.0 29230300000.0 57816200000.0 86216800000.0 113700000000.0 139767000000.0 163999000000.0 185860000000.0 204622000000.0 219433000000.0 229395000000.0 233910000000.0 233567000000.0 231718000000.0 239841000000.0 298501000000.0 424683000000.0 621912000000.0 598935000000.0 662226000000.0 596633000000.0 656605000000.0 698101000000.0 688045000000.0 613708000000.0 339518000000.0 193870000000.0 551170000000.0 412315000000.0 428064000000.0 229061000000.0 429715000000.0 18376200000.0 12323500000.0 72807800000.0 175793000000.0 447944000000.0 534719000000.0 559544000000.0 501626000000.0 581425000000.0 564512000000.0 554654000000.0 538924000000.0 464832000000.0 389549000000.0 339033000000.0 323042000000.0 327402000000.0 340553000000.0 356764000000.0 374608000000.0 393374000000.0 412548000000.0 430736000000.0 445162000000.0 454105000000.0 453437000000.0 384576000000.0 55120000000.0 405182000000.0 96855700000.0 425371000000.0 264101000000.0 164887000000.0 92132500000.0 41333800000.0 9083920000.0 7545000000.0 11167700000.0 4511920000.0 9644410000.0 28783600000.0 50800600000.0 74053600000.0 97411300000.0 120070000000.0 141317000000.0 160553000000.0 177255000000.0 190874000000.0 200915000000.0 207160000000.0 210237000000.0 212898000000.0 222945000000.0 258771000000.0 329940000000.0 433697000000.0 600385000000.0 496200000000.0 557844000000.0 533315000000.0 624319000000.0 642634000000.0 575967000000.0 503537000000.0 425234000000.0 456694000000.0 569538000000.0 544757000000.0 312194000000.0 154372000000.0 6315280000.0 18351700000.0 232462000000.0 223558000000.0 352237000000.0 412389000000.0 475017000000.0 516754000000.0 148973000000.0 417660000000.0 520785000000.0 493193000000.0 506731000000.0 458756000000.0 384799000000.0 338812000000.0 316730000000.0 301387000000.0 298504000000.0 302464000000.0 414866000000.0 287473000000.0 235668000000.0 168968000000.0 111260000000.0 67666400000.0 38470500000.0 22453700000.0 17763800000.0 22010200000.0 32752600000.0 47852400000.0 65522300000.0 504350000000.0 587258000000.0 552522000000.0 463342000000.0 376363000000.0 288162000000.0 158055000000.0 366141000000.0 487936000000.0 484165000000.0 367480000000.0 411568000000.0 177924000000.0 163640000000.0 25447400000.0 102589000000.0 181445000000.0 151617000000.0 394630000000.0 358383000000.0 449983000000.0 153881000000.0 377304000000.0 462299000000.0 432048000000.0 309353000000.0 317443000000.0 326171000000.0 335008000000.0 343076000000.0 351872000000.0 378554000000.0 490418000000.0 493791000000.0 10090300000.0 84380500000.0 103413000000.0 121784000000.0 138718000000.0 153610000000.0 166030000000.0 175852000000.0 183259000000.0 189079000000.0 195613000000.0 207670000000.0 234276000000.0 281365000000.0 347257000000.0 430442000000.0 537970000000.0 393863000000.0 464116000000.0 421628000000.0 326657000000.0 232490000000.0 119063000000.0 417611000000.0 322213000000.0 344897000000.0 297443000000.0 88721200000.0 59334500000.0 27647800000.0 71072800000.0 154269000000.0 370726000000.0 458564000000.0 265327000000.0 174971000000.0 461117000000.0 378237000000.0 329654000000.0 322914000000.0 295705000000.0 273273000000.0 260839000000.0 254194000000.0 249796000000.0 246996000000.0 246207000000.0 247966000000.0 253776000000.0 268014000000.0 324247000000.0 561616000000.0 60235900000.0 50255300000.0 29160500000.0 239319000000.0 276569000000.0 226267000000.0 168603000000.0 118702000000.0 80970800000.0 55431700000.0 41023200000.0 36221700000.0 38978100000.0 47234100000.0 59260700000.0 73552800000.0 88922100000.0 104443000000.0 119357000000.0 132910000000.0 144679000000.0 154441000000.0 162362000000.0 169657000000.0 178608000000.0 192798000000.0 217080000000.0 254668000000.0 304966000000.0 363981000000.0 404695000000.0 448565000000.0 359720000000.0 459976000000.0 477408000000.0 487993000000.0 182422000000.0 82135400000.0 282116000000.0 385697000000.0 291941000000.0 246435000000.0 203180000000.0 33754900000.0 47970000000.0 72607200000.0 40328900000.0 340854000000.0 256649000000.0 350165000000.0 307634000000.0 194204000000.0 355564000000.0 414763000000.0 379423000000.0 421450000000.0 341722000000.0 353953000000.0 300149000000.0 260230000000.0 232963000000.0 211887000000.0 193866000000.0 178199000000.0 166016000000.0 160120000000.0 165808000000.0 194331000000.0 270243000000.0 509366000000.0 493402000000.0 151981000000.0 284579000000.0 244047000000.0 197582000000.0 151471000000.0 111629000000.0 80999700000.0 60145300000.0 48477800000.0 44664000000.0 46913600000.0 53567800000.0 63344500000.0 75116600000.0 87997100000.0 101160000000.0 113987000000.0 125747000000.0 135693000000.0 144129000000.0 152165000000.0 161910000000.0 176725000000.0 200220000000.0 233684000000.0 276943000000.0 329905000000.0 387621000000.0 386040000000.0 357771000000.0 369514000000.0 402763000000.0 435524000000.0 374236000000.0 280973000000.0 222851000000.0 281142000000.0 338893000000.0 279773000000.0 147802000000.0 57335800000.0 79382900000.0 170497000000.0 235877000000.0 265232000000.0 276949000000.0 251442000000.0 134504000000.0 180455000000.0 328328000000.0 368020000000.0 318661000000.0 358047000000.0 345403000000.0 299483000000.0 252700000000.0 215073000000.0 182016000000.0 150842000000.0 121132000000.0 93968600000.0 72561800000.0 63138300000.0 76145200000.0 126735000000.0 223331000000.0 181354000000.0 217901000000.0 110560000000.0 147174000000.0 68640800000.0 112917000000.0 154156000000.0 145978000000.0 120133000000.0 92433100000.0 69851600000.0 54532600000.0 46354700000.0 44109800000.0 46327300000.0 51919800000.0 60238400000.0 70640300000.0 82642100000.0 95666000000.0 108243000000.0 118970000000.0 127816000000.0 136117000000.0 344298000000.0 321162000000.0 341712000000.0 317630000000.0 368296000000.0 263120000000.0 148829000000.0 44242800000.0 192373000000.0 199770000000.0 249386000000.0 249300000000.0 237124000000.0 207581000000.0 53154000000.0 12859700000.0 20069500000.0 82815500000.0 17980300000.0 10985400000.0 137496000000.0 229074000000.0 205756000000.0 130963000000.0 219801000000.0 232591000000.0 226761000000.0 416483000000.0 8457200000.0 145629000000.0 158885000000.0 180003000000.0 211006000000.0 248721000000.0 289175000000.0 329228000000.0 364466000000.0 272093000000.0 296943000000.0 155970000000.0 19561700000.0 211432000000.0 194792000000.0 169426000000.0 103461000000.0 66621900000.0 15982800000.0 16882000000.0 19115600000.0 34128700000.0 38270300000.0 204167000000.0 122408000000.0 46469900000.0 43037700000.0 389191000000.0 339154000000.0 293469000000.0 249034000000.0 203840000000.0 159049000000.0 114764000000.0 72214300000.0 35602200000.0 11591600000.0 8984300000.0 24152100000.0 67398300000.0 76176200000.0 348201000000.0 257125000000.0 89125800000.0 53914200000.0 101517000000.0 102985000000.0 86191900000.0 66539600000.0 50831400000.0 40863600000.0 36111600000.0 35280700000.0 37398300000.0 42489700000.0 50964400000.0 63164200000.0 77849200000.0 91685300000.0 102891000000.0 112310000000.0 120760000000.0 129146000000.0 139806000000.0 156793000000.0 183023000000.0 217040000000.0 252569000000.0 281153000000.0 299103000000.0 300209000000.0 315587000000.0 280415000000.0 312692000000.0 24618700000.0 181722000000.0 140985000000.0 166490000000.0 144794000000.0 62892000000.0 49660700000.0 17960300000.0 273520000000.0 238597000000.0 253469000000.0 181469000000.0 80386000000.0 25179500000.0 117118000000.0 190052000000.0 247745000000.0 75381800000.0 53476200000.0 7362810000.0 55956000000.0 116386000000.0 166265000000.0 207877000000.0 243338000000.0 275668000000.0 309264000000.0 346453000000.0 383265000000.0 400817000000.0 343903000000.0 323085000000.0 310744000000.0 191041000000.0 119641000000.0 22522100000.0 45354300000.0 67432900000.0 62882000000.0 48777400000.0 35286800000.0 25974000000.0 20894500000.0 18623700000.0 18060200000.0 20773300000.0 29001600000.0 43992100000.0 61430400000.0 75480100000.0 86921900000.0 96198900000.0 103496000000.0 110049000000.0 118165000000.0 130389000000.0 149824000000.0 178658000000.0 210978000000.0 237454000000.0 246102000000.0 251815000000.0 249983000000.0 288777000000.0 192424000000.0 289448000000.0 227858000000.0 199759000000.0 185686000000.0 101521000000.0 117546000000.0 156389000000.0 152384000000.0 10282200000.0 29897700000.0 26718500000.0 18189100000.0 252233000000.0 185741000000.0 193500000000.0 154596000000.0 157894000000.0 223399000000.0 224036000000.0 174286000000.0 179146000000.0 222164000000.0 126910000000.0 73804400000.0 254901000000.0 240610000000.0 241001000000.0 260115000000.0 186833000000.0 99122400000.0 20047300000.0 18264300000.0 26894500000.0 17948000000.0 5960660000.0 960298000.0 3675620000.0 4510470000.0 6455020000.0 4675060000.0 6465980000.0 26603600000.0 44070600000.0 57432100000.0 69592000000.0 78521900000.0 84752900000.0 89474100000.0 94619200000.0 102433000000.0 113271000000.0 131097000000.0 159038000000.0 190903000000.0 201264000000.0 203229000000.0 199128000000.0 228216000000.0 226611000000.0 145297000000.0 261102000000.0 160429000000.0 21382900000.0 159773000000.0 82305500000.0 77234200000.0 99010300000.0 98921600000.0 114211000000.0 46372800000.0 19238500000.0 8991940000.0 7629230000.0 703851000.0 5212890000.0 19990200000.0 30807900000.0 76517400000.0 228437000000.0 12248700000.0 122549000000.0 68923400000.0 79931900000.0 77213900000.0 89606000000.0 107514000000.0 126534000000.0 144649000000.0 162388000000.0 184724000000.0 217823000000.0 187925000000.0 169723000000.0 177777000000.0 68916200000.0 161668000000.0 31649800000.0 64940400000.0 84391200000.0 43857200000.0 17310900000.0 20117300000.0 751792000.0 66985500000.0 92932900000.0 44665800000.0 3215690000.0 59877900000.0 155063000000.0 191797000000.0 157728000000.0 139213000000.0 118874000000.0 113011000000.0 115197000000.0 120576000000.0 126838000000.0 134439000000.0 153605000000.0 192121000000.0 178460000000.0 215724000000.0 202127000000.0 184694000000.0 77258800000.0 184064000000.0 96249300000.0 41128000000.0 23015000000.0 21490300000.0 33337300000.0 40260700000.0 39682900000.0 34975900000.0 35955900000.0 32081300000.0 15341100000.0 7158530000.0 21373100000.0 35919600000.0 48429000000.0 57566600000.0 64370300000.0 70484100000.0 75656500000.0 77940300000.0 80887400000.0 88325900000.0 101822000000.0 132567000000.0 163706000000.0 152597000000.0 153510000000.0 171519000000.0 59564600000.0 75159500000.0 22719200000.0 58308600000.0 3656120000.0 26598300000.0 51999600000.0 39406100000.0 109861000000.0 145677000000.0 122791000000.0 104247000000.0 79064000000.0 1794160000.0 1229360000.0 59001000000.0 26986500000.0 68857600000.0 146458000000.0 136634000000.0 141438000000.0 132302000000.0 121762000000.0 112897000000.0 108883000000.0 108650000000.0 110384000000.0 113204000000.0 132350000000.0 120070000000.0 124592000000.0 171369000000.0 103221000000.0 74388100000.0 14499300000.0 174342000000.0 107280000000.0 73672000000.0 72036700000.0 70920700000.0 85816000000.0 90028900000.0 72869700000.0 70949500000.0 61220100000.0 36355200000.0 16986300000.0 2620520000.0 11680800000.0 23174300000.0 32460900000.0 40395500000.0 46867100000.0 52578300000.0 56150300000.0 56696000000.0 55553000000.0 62384200000.0 76297500000.0 122700000000.0 115376000000.0 105758000000.0 122894000000.0 119033000000.0 138298000000.0 105598000000.0 29274100000.0 69730700000.0 17622500000.0 26721100000.0 41571600000.0 89806900000.0 59754200000.0 50373800000.0 33101000000.0 39191600000.0 52150300000.0 44887600000.0 9529390000.0 5559220000.0 33734700000.0 57331300000.0 21880000000.0 80797300000.0 12630800000.0 50768300000.0 29513400000.0 26010300000.0 66941700000.0 101194000000.0 69971600000.0 53177900000.0 46768900000.0 46502600000.0 130437000000.0 43283700000.0 143780000000.0 122615000000.0 100357000000.0 133003000000.0 96055600000.0 147362000000.0 121282000000.0 118353000000.0 90801500000.0 52343800000.0 34207300000.0 24631600000.0 15382200000.0 5612250000.0 1258700000.0 8071370000.0 13126400000.0 22158800000.0 86289200000.0 79545200000.0 92114500000.0 95806400000.0 109531000000.0 74517200000.0 5659970000.0 23044300000.0 112320000000.0 24507100000.0 38058400000.0 40297800000.0 9051500000.0 9035750000.0 9035750000.0 125195000000.0 91124800000.0 52580900000.0 33935700000.0 656873000.0 105854000000.0 104991000000.0 96993300000.0 91718200000.0 85465400000.0 80910700000.0 76127900000.0 73663600000.0 16070800000.0 69620400000.0 31482400000.0 35967200000.0 37360000000.0 36948400000.0 48153800000.0 84646600000.0 14011000000.0 26381600000.0 5925290000.0 18927600000.0 9035750000.0 9035750000.0 9222250000.0 76884300000.0 128568000000.0 111434000000.0 76100800000.0 21676800000.0 23903000000.0 10594000000.0 28597000000.0 13407400000.0 1927740000.0 17292900000.0 56864600000.0 78981400000.0 84165800000.0 79350300000.0 68824100000.0 61357500000.0 52791100000.0 46528700000.0 40131400000.0 36784900000.0 33908800000.0 29264200000.0 23829200000.0 10295300000.0 17997200000.0 172514000000.0 104407000000.0 177822000000.0 143423000000.0 91166200000.0 39452600000.0 60353400000.0 8149550000.0 32935300000.0 15813800000.0 13853000000.0 13784900000.0 22308300000.0 26498300000.0 27930900000.0 19245400000.0 17422200000.0 7823080000.0 4442650000.0 7872920000.0 20251400000.0 35340800000.0 41186400000.0 49225300000.0 54701700000.0 56780800000.0 37044700000.0 4263670000.0 22697300000.0 18869400000.0 18118900000.0 9034020000.0 25856800000.0 41061400000.0 21542800000.0 49985800000.0 71633200000.0 41695500000.0 46305500000.0 24123500000.0 16475100000.0 212744000.0 9557940000.0 14035700000.0 4813040000.0 4409450000.0 5035510000.0 3160920000.0 11628800000.0 41126700000.0 123703000000.0 23632200000.0 23262300000.0 39332600000.0 47514100000.0 41135200000.0 45403600000.0 47516300000.0 31584700000.0 17428800000.0 73702800000.0 50882700000.0 9069620000.0 4736840000.0 44740400000.0 3333590000.0 41504800000.0 28180100000.0 22390100000.0 27858700000.0 43764400000.0 66174100000.0 76422400000.0 101015000000.0 112241000000.0 128977000000.0 128580000000.0 127331000000.0 70014500000.0 48566800000.0 23528700000.0 43643200000.0 94822800000.0 32424000000.0 37227400000.0 9035750000.0 9035750000.0 9035750000.0 118521000000.0 74442600000.0 28267200000.0 40108500000.0 1512320000.0 20841100000.0 8185880000.0 6438690000.0 9898550000.0 12052500000.0 17703200000.0 23405700000.0 32106400000.0 39632300000.0 3816350000.0 9035740000.0 4003190000.0 121631000000.0 115185000000.0 96625600000.0 77093800000.0 59155700000.0 48314100000.0 56961700000.0 70320300000.0 64934600000.0 68891000000.0 70835000000.0 12610800000.0 24206400000.0 14134300000.0 24907500000.0 24830200000.0 9035750000.0 9035750000.0 9035750000.0 50882000000.0 114607000000.0 101899000000.0 57278300000.0 29812100000.0 35224600000.0 9898300000.0 38005900000.0 8377230000.0 8765730000.0 15924800000.0 28584300000.0 50544400000.0 65645600000.0 62926400000.0 54831800000.0 48502800000.0 40434000000.0 34761800000.0 28245600000.0 25359800000.0 23895900000.0 27202800000.0 40109600000.0 43483300000.0 89072900000.0 3106340000.0 54238100000.0 136199000.0 2168780000.0 110686000.0 40902400000.0 3361120000.0 41100500000.0 1920160000.0 35815300000.0 32343200000.0 37766500000.0 49981500000.0 68496700000.0 73284100000.0 87071500000.0 87453900000.0 92542900000.0 86412900000.0 82875700000.0 75484400000.0 69288800000.0 53223100000.0 37806000000.0 24698300000.0 18990800000.0 37756900000.0 51373400000.0 46580500000.0 46950200000.0 49301900000.0 44877400000.0 28647200000.0 9714920000.0 40419500000.0 69968400000.0 12291000000.0 22110200000.0 14161400000.0 24062300000.0 23393100000.0 28424000000.0 33155500000.0 9035750000.0 9035750000.0 9035750000.0 9035750000.0 9035750000.0 9035750000.0 41518200000.0 33121000000.0 71834300000.0 9465670000.0 40785500000.0 40523800000.0 36596900000.0 34454500000.0 37175500000.0 39406100000.0 52454800000.0 58610400000.0 71028300000.0 72577800000.0 78614200000.0 9036160000.0 33624500000.0 49363500000.0 24522100000.0 28132700000.0 9035750000.0 9035750000.0 9035750000.0 86356500000.0 77367300000.0 41393700000.0 27926900000.0 28642100000.0 9711510000.0 9149610000.0 8737970000.0 14761800000.0 23465900000.0 37921100000.0 52469400000.0 51362900000.0 45437600000.0 40435400000.0 33751400000.0 28885400000.0 23265000000.0 20679300000.0 18681500000.0 21596600000.0 31164600000.0 31558400000.0 5849220000.0 47874100000.0 10058900000.0 8730880000.0 9020610000.0 9234150000.0 75005500000.0 72536700000.0 66046600000.0 60013400000.0 45705700000.0 31473300000.0 20389100000.0 17443600000.0 33300400000.0 43262400000.0 39973700000.0 37023500000.0 37463000000.0 31380300000.0 20050300000.0 11676000000.0 19178800000.0 13737400000.0 22179500000.0 21409700000.0 9035750000.0 9035750000.0 9035750000.0 32373000000.0 61326800000.0 55505800000.0 28827600000.0 24193800000.0 22493100000.0 9518730000.0 26776500000.0 9127860000.0 9035750000.0 13982000000.0 20166100000.0 29927600000.0 41619000000.0 41350800000.0 37424200000.0 33916900000.0 29113000000.0 25716100000.0 21828700000.0 20286400000.0 18821400000.0 21662200000.0 28917500000.0 29335100000.0 57457200000.0 9505240000.0 38506400000.0 9461100000.0 9852660000.0 8857330000.0 32758700000.0 8793040000.0 31860800000.0 8928380000.0 29719800000.0 28006100000.0 29669700000.0 29233800000.0 34932700000.0 39387100000.0 49568200000.0 50800500000.0 55390100000.0 52584600000.0 50454900000.0 45229600000.0 40697500000.0 29428600000.0 18792100000.0 13323200000.0 13094700000.0 24998100000.0 31424800000.0 28998500000.0 26229200000.0 25651500000.0 20044400000.0 13644400000.0 9035760000.0 26319600000.0 34993700000.0 10982000000.0 16075100000.0 12801300000.0 19090200000.0 18363200000.0 20411100000.0 22761300000.0 9035750000.0 9035750000.0 9035750000.0 9035750000.0 9035750000.0 38010200000.0 17232600000.0 9035750000.0 9035750000.0 9035750000.0 9035750000.0 22946800000.0 38942600000.0 35716600000.0 19165200000.0 18746100000.0 16875900000.0 9322670000.0 19779000000.0 9094670000.0 9035750000.0 12104800000.0 15643400000.0 21247900000.0 28513000000.0 28575500000.0 26353900000.0 24279600000.0 21381000000.0 19327600000.0 16981500000.0 16080200000.0 15055200000.0 16945900000.0 21286100000.0 21227800000.0 9257830000.0 26698200000.0 9156380000.0 9824020000.0 9050620000.0 23783100000.0 9170600000.0 23339900000.0 9277610000.0 21588800000.0 20526800000.0 21492300000.0 20892600000.0 22756700000.0 24505200000.0 31260700000.0 32563800000.0 35440000000.0 33651400000.0 32219400000.0 28802300000.0 25840300000.0 18294600000.0 12376200000.0 10364200000.0 10686900000.0 17892500000.0 21496100000.0 19649100000.0 18462800000.0 17693000000.0 13445300000.0 10708000000.0 9035740000.0 19185800000.0 23846100000.0 10218100000.0 13085800000.0 11430300000.0 15266600000.0 14764100000.0 15978000000.0 9035750000.0 9035750000.0 9035750000.0 13393200000.0 18260600000.0 17247500000.0 11928300000.0 12167400000.0 11473900000.0 9125450000.0 12413100000.0 9054770000.0 9035750000.0 10006200000.0 11091100000.0 12862200000.0 15142200000.0 15185700000.0 14503200000.0 13855100000.0 12943100000.0 12296800000.0 11559300000.0 11279500000.0 10934800000.0 11558800000.0 12920300000.0 12858400000.0 18118200000.0 9096100000.0 14576400000.0 9056540000.0 9308840000.0 9040750000.0 13701800000.0 9079330000.0 13551200000.0 9111510000.0 12992500000.0 12652800000.0 12955300000.0 12745200000.0 13147300000.0 13466900000.0 15669300000.0 16269200000.0 17230500000.0 16650900000.0 16172200000.0 15035800000.0 14007000000.0 11464900000.0 9752150000.0 9294770000.0 9436310000.0 11699100000.0 12836100000.0 12134600000.0 11906500000.0 11607200000.0 10095100000.0 9440750000.0 9035730000.0 12189200000.0 13614700000.0 9407890000.0 10283800000.0 9794360000.0 11014200000.0 10848600000.0 11229800000.0 11604100000.0 9035750000.0 9035750000.0 9035750000.0 