# vtk DataFile Version 2.0
Time step 17
ASCII
DATASET UNSTRUCTURED_GRID
POINTS 5000 float
98739.8 441121.0 0
102334.0 438566.0 0
105700.0 440362.0 0
112478.0 438970.0 0
118037.0 439122.0 0
182921.0 440147.0 0
359805.0 440365.0 0
369875.0 436915.0 0
384146.0 441239.0 0
387781.0 436973.0 0
393797.0 437311.0 0
398240.0 438654.0 0
398395.0 442226.0 0
401238.0 440712.0 0
91294.1 445702.0 0
94930.3 443392.0 0
97987.1 445012.0 0
102194.0 443962.0 0
109180.0 441731.0 0
106491.0 444837.0 0
115327.0 443877.0 0
120686.0 444299.0 0
125662.0 442509.0 0
130294.0 440877.0 0
129394.0 445185.0 0
135174.0 442256.0 0
139748.0 443371.0 0
143584.0 442659.0 0
147831.0 442681.0 0
152501.0 442781.0 0
157711.0 442094.0 0
162698.0 442188.0 0
167039.0 442107.0 0
171834.0 440897.0 0
177716.0 440963.0 0
183613.0 445200.0 0
187362.0 442013.0 0
192500.0 443230.0 0
196095.0 442409.0 0
201731.0 441732.0 0
207650.0 442517.0 0
212983.0 441846.0 0
218129.0 442938.0 0
222480.0 442950.0 0
225799.0 442197.0 0
230433.0 442054.0 0
235809.0 443051.0 0
241168.0 441754.0 0
246497.0 443761.0 0
252672.0 441738.0 0
259037.0 442222.0 0
263759.0 443302.0 0
268725.0 442211.0 0
273921.0 442446.0 0
278883.0 441158.0 0
282031.0 444491.0 0
286326.0 442798.0 0
291718.0 443257.0 0
297321.0 441129.0 0
303611.0 441874.0 0
307658.0 444372.0 0
312088.0 442303.0 0
317888.0 442947.0 0
323191.0 442552.0 0
327485.0 443202.0 0
332102.0 442725.0 0
337095.0 442165.0 0
340474.0 444273.0 0
344665.0 441323.0 0
349119.0 443798.0 0
353656.0 442833.0 0
366043.0 440449.0 0
363847.0 444602.0 0
369434.0 445384.0 0
373503.0 440804.0 0
376411.0 444723.0 0
378948.0 440133.0 0
381142.0 445176.0 0
388002.0 444345.0 0
391075.0 441322.0 0
394975.0 442787.0 0
400855.0 444932.0 0
404425.0 443253.0 0
408284.0 445749.0 0
80949.0 451968.0 0
83835.5 449908.0 0
87570.9 448379.0 0
91379.9 449772.0 0
94977.6 451885.0 0
95018.7 447461.0 0
102895.0 448239.0 0
99208.3 448560.0 0
106089.0 449107.0 0
110749.0 446052.0 0
117635.0 447428.0 0
114164.0 449064.0 0
120454.0 449160.0 0
123535.0 448024.0 0
128026.0 449685.0 0
133230.0 447994.0 0
138188.0 447526.0 0
141639.0 450776.0 0
143036.0 446516.0 0
147000.0 446948.0 0
151973.0 447572.0 0
156787.0 446098.0 0
156637.0 450687.0 0
161234.0 446836.0 0
166469.0 446769.0 0
173047.0 446448.0 0
178449.0 446360.0 0
182263.0 450331.0 0
188684.0 446426.0 0
193633.0 447385.0 0
198310.0 446732.0 0
203954.0 447332.0 0
213712.0 446392.0 0
209388.0 447573.0 0
217612.0 448018.0 0
222043.0 447771.0 0
226816.0 446429.0 0
232212.0 447475.0 0
237692.0 448299.0 0
243289.0 448138.0 0
248462.0 447832.0 0
252677.0 448305.0 0
257264.0 446866.0 0
262313.0 447478.0 0
267071.0 447062.0 0
271622.0 446379.0 0
277007.0 446737.0 0
279768.0 450822.0 0
282821.0 448180.0 0
287500.0 447889.0 0
292901.0 447752.0 0
298245.0 446640.0 0
303125.0 447549.0 0
307369.0 447661.0 0
312501.0 448083.0 0
317470.0 447825.0 0
322301.0 446995.0 0
327500.0 447869.0 0
332500.0 447941.0 0
337109.0 446761.0 0
340575.0 450396.0 0
343414.0 446706.0 0
347026.0 446680.0 0
351096.0 447626.0 0
356832.0 446751.0 0
354653.0 450422.0 0
360862.0 446719.0 0
364327.0 448803.0 0
374459.0 450388.0 0
378319.0 447491.0 0
380942.0 450557.0 0
384979.0 447830.0 0
388553.0 449244.0 0
392595.0 447270.0 0
397503.0 446628.0 0
404517.0 447754.0 0
400955.0 449646.0 0
408832.0 450172.0 0
412023.0 447670.0 0
415213.0 449367.0 0
413293.0 452225.0 0
418056.0 451205.0 0
74435.0 455815.0 0
77383.0 453811.0 0
81048.1 455617.0 0
85910.5 453191.0 0
88527.4 457376.0 0
90470.5 453231.0 0
93413.9 456737.0 0
98752.9 452075.0 0
98196.9 455513.0 0
102606.0 452531.0 0
109965.0 451621.0 0
117475.0 451338.0 0
117417.0 455494.0 0
120707.0 453128.0 0
124579.0 453099.0 0
132059.0 453438.0 0
137292.0 453149.0 0
146918.0 451861.0 0
152302.0 453859.0 0
156976.0 455872.0 0
162145.0 452451.0 0
166728.0 454787.0 0
170080.0 451232.0 0
176371.0 452116.0 0
182453.0 455793.0 0
188124.0 452583.0 0
194338.0 452409.0 0
200044.0 451832.0 0
204331.0 452771.0 0
208159.0 452493.0 0
213328.0 451202.0 0
217709.0 452943.0 0
222569.0 452045.0 0
226880.0 451432.0 0
232442.0 452940.0 0
237422.0 452725.0 0
241800.0 453379.0 0
246852.0 451904.0 0
251794.0 453198.0 0
257728.0 451619.0 0
262718.0 452254.0 0
260334.0 455987.0 0
267483.0 451517.0 0
273040.0 451624.0 0
283438.0 453106.0 0
287086.0 453235.0 0
290833.0 451979.0 0
296537.0 451621.0 0
302021.0 452738.0 0
307453.0 452092.0 0
312928.0 453200.0 0
317913.0 452350.0 0
322098.0 450978.0 0
326186.0 453221.0 0
331198.0 452838.0 0
335664.0 451322.0 0
338764.0 455720.0 0
345961.0 451024.0 0
350869.0 452488.0 0
355537.0 454482.0 0
359682.0 451248.0 0
363924.0 454767.0 0
368208.0 451663.0 0
378164.0 455290.0 0
382705.0 455230.0 0
385863.0 452478.0 0
390922.0 453505.0 0
396471.0 451810.0 0
397342.0 456527.0 0
405032.0 452354.0 0
401141.0 454331.0 0
409462.0 455045.0 0
413946.0 456178.0 0
417447.0 454480.0 0
421294.0 453217.0 0
424694.0 455629.0 0
421405.0 456945.0 0
65467.5 462378.0 0
69568.5 459450.0 0
72770.8 461922.0 0
73579.0 458661.0 0
77352.7 457611.0 0
81164.5 460138.0 0
84441.0 457625.0 0
85410.0 461619.0 0
90378.9 461009.0 0
93430.6 460855.0 0
97017.3 460168.0 0
101550.0 458211.0 0
106520.0 456283.0 0
112406.0 456818.0 0
109004.0 460562.0 0
116612.0 460239.0 0
121865.0 457526.0 0
127615.0 456571.0 0
131430.0 457660.0 0
135156.0 457684.0 0
138924.0 456914.0 0
143475.0 457382.0 0
148309.0 456529.0 0
149114.0 460781.0 0
153788.0 458531.0 0
160584.0 457146.0 0
164473.0 458399.0 0
167798.0 460427.0 0
171123.0 457213.0 0
177274.0 458653.0 0
186809.0 458234.0 0
191804.0 457714.0 0
197366.0 457106.0 0
203180.0 456937.0 0
208837.0 458855.0 0
214428.0 456862.0 0
218771.0 458194.0 0
222069.0 456306.0 0
227550.0 456976.0 0
234341.0 457314.0 0
237883.0 456047.0 0
237974.0 460783.0 0
241773.0 457970.0 0
246236.0 457088.0 0
251521.0 458454.0 0
255872.0 456338.0 0
262616.0 459572.0 0
266316.0 456190.0 0
271714.0 457884.0 0
278313.0 456340.0 0
284323.0 457846.0 0
288726.0 456334.0 0
292926.0 458099.0 0
298880.0 457978.0 0
303979.0 458209.0 0
307500.0 458033.0 0
312164.0 457854.0 0
316119.0 456756.0 0
320944.0 456483.0 0
325490.0 458597.0 0
329263.0 456659.0 0
333665.0 458673.0 0
344943.0 457229.0 0
351490.0 458021.0 0
359363.0 457544.0 0
364072.0 459618.0 0
368535.0 457210.0 0
373939.0 458882.0 0
380998.0 458946.0 0
386768.0 458848.0 0
393098.0 458747.0 0
397265.0 460080.0 0
400975.0 458648.0 0
405160.0 457190.0 0
404254.0 461451.0 0
411008.0 458879.0 0
408049.0 460523.0 0
414145.0 459484.0 0
418036.0 458570.0 0
416829.0 462483.0 0
424505.0 459406.0 0
428327.0 458426.0 0
432243.0 460790.0 0
60717.1 466056.0 0
66013.8 467137.0 0
69672.4 463947.0 0
70584.3 467603.0 0
77072.1 461901.0 0
74134.4 465943.0 0
78366.1 465803.0 0
81384.5 464120.0 0
85005.4 466509.0 0
88596.9 464060.0 0
92723.4 464400.0 0
96816.1 464719.0 0
100743.0 462765.0 0
103788.0 464973.0 0
104914.0 461254.0 0
107678.0 464538.0 0
112454.0 463431.0 0
116783.0 465202.0 0
120703.0 462813.0 0
125749.0 461549.0 0
130216.0 460806.0 0
134088.0 462154.0 0
139293.0 461582.0 0
144753.0 463313.0 0
153511.0 463350.0 0
159515.0 462180.0 0
165080.0 462951.0 0
171247.0 463217.0 0
176949.0 464907.0 0
183122.0 462715.0 0
193857.0 461791.0 0
189379.0 462641.0 0
198372.0 463047.0 0
203277.0 462037.0 0
207385.0 464240.0 0
212177.0 463116.0 0
216365.0 461488.0 0
221216.0 461848.0 0
226371.0 463602.0 0
232020.0 461826.0 0
236041.0 465778.0 0
242868.0 462643.0 0
248052.0 462164.0 0
252884.0 462487.0 0
257714.0 461523.0 0
262803.0 465148.0 0
267525.0 462095.0 0
272610.0 463771.0 0
278386.0 462991.0 0
283473.0 462420.0 0
288731.0 461652.0 0
293398.0 462524.0 0
297375.0 463990.0 0
302639.0 462514.0 0
306520.0 462895.0 0
311345.0 462693.0 0
316263.0 461223.0 0
321525.0 462176.0 0
330156.0 462049.0 0
326390.0 462720.0 0
336487.0 462486.0 0
333177.0 466198.0 0
340833.0 461657.0 0
345309.0 464056.0 0
350183.0 463640.0 0
355771.0 462104.0 0
353727.0 466351.0 0
360634.0 462510.0 0
367757.0 462198.0 0
371713.0 463616.0 0
377872.0 462918.0 0
382461.0 462483.0 0
385728.0 465229.0 0
390829.0 463993.0 0
395623.0 463569.0 0
400085.0 463166.0 0
403700.0 465050.0 0
407190.0 464475.0 0
409376.0 466862.0 0
412344.0 463694.0 0
418434.0 465243.0 0
421868.0 462296.0 0
422009.0 467049.0 0
425870.0 466723.0 0
427376.0 463152.0 0
436584.0 463922.0 0
431817.0 464573.0 0
434392.0 467386.0 0
438017.0 467519.0 0
441244.0 465472.0 0
48422.8 471719.0 0
51375.6 470919.0 0
55603.8 468565.0 0
54506.3 473218.0 0
62823.8 469429.0 0
59294.1 472005.0 0
64169.8 472331.0 0
68493.9 471335.0 0
73120.7 470481.0 0
76979.3 469587.0 0
81127.6 468346.0 0
79896.2 472703.0 0
82886.6 471249.0 0
86277.8 471267.0 0
89833.0 468217.0 0
94824.1 469577.0 0
100334.0 467680.0 0
102274.0 471221.0 0
105357.0 468381.0 0
110318.0 466997.0 0
109275.0 470444.0 0
113959.0 468977.0 0
118726.0 469050.0 0
123868.0 467333.0 0
129992.0 466044.0 0
128937.0 470793.0 0
135658.0 466688.0 0
133068.0 470985.0 0
140837.0 467257.0 0
145610.0 468226.0 0
150034.0 467248.0 0
154321.0 468191.0 0
158496.0 468137.0 0
162821.0 466744.0 0
167455.0 466916.0 0
172614.0 469114.0 0
177281.0 469200.0 0
181550.0 469458.0 0
187029.0 467629.0 0
192549.0 467166.0 0
197944.0 468751.0 0
202708.0 466640.0 0
206761.0 468857.0 0
210726.0 467593.0 0
216455.0 467397.0 0
222750.0 467491.0 0
228359.0 469151.0 0
234023.0 470316.0 0
240955.0 468210.0 0
246430.0 468776.0 0
250901.0 466642.0 0
252378.0 470923.0 0
256750.0 467727.0 0
268229.0 467531.0 0
272849.0 468658.0 0
277799.0 469019.0 0
282001.0 466355.0 0
287013.0 467739.0 0
292927.0 467024.0 0
297742.0 469365.0 0
301714.0 466408.0 0
305965.0 468380.0 0
311189.0 468414.0 0
316431.0 466322.0 0
321764.0 468072.0 0
325070.0 470959.0 0
327346.0 467296.0 0
336082.0 470171.0 0
340569.0 467651.0 0
346211.0 468871.0 0
350445.0 468317.0 0
354307.0 470826.0 0
358639.0 467419.0 0
364354.0 466001.0 0
369171.0 469367.0 0
374749.0 467608.0 0
378409.0 469240.0 0
381031.0 466799.0 0
384342.0 469653.0 0
389041.0 469482.0 0
394861.0 469004.0 0
400724.0 468309.0 0
405403.0 467917.0 0
404738.0 472311.0 0
408729.0 470185.0 0
412312.0 468304.0 0
413019.0 472541.0 0
416505.0 468738.0 0
420628.0 471348.0 0
425852.0 471585.0 0
430246.0 468448.0 0
435301.0 470994.0 0
440841.0 469887.0 0
444757.0 468233.0 0
444681.0 471725.0 0
448915.0 471753.0 0
39533.4 478718.0 0
42405.8 475749.0 0
43590.9 478503.0 0
46515.5 474747.0 0
51473.1 475456.0 0
56831.5 477057.0 0
62099.0 476387.0 0
66374.4 475802.0 0
71451.9 474705.0 0
75855.7 473885.0 0
83405.6 474537.0 0
87137.3 475126.0 0
90810.6 473010.0 0
95161.7 475302.0 0
98550.3 472284.0 0
101393.0 475455.0 0
105522.0 472684.0 0
105676.0 476462.0 0
108941.0 474604.0 0
112243.0 473000.0 0
116741.0 474381.0 0
122014.0 472618.0 0
126539.0 473579.0 0
130620.0 475077.0 0
136709.0 473287.0 0
141106.0 472750.0 0
146336.0 472922.0 0
151901.0 472494.0 0
157771.0 473436.0 0
162742.0 471389.0 0
167757.0 472002.0 0
172053.0 474559.0 0
176659.0 472942.0 0
181297.0 475127.0 0
186013.0 472913.0 0
191779.0 473049.0 0
197487.0 474316.0 0
202753.0 472093.0 0
207695.0 472913.0 0
212195.0 471985.0 0
217259.0 473785.0 0
223388.0 473460.0 0
229011.0 475166.0 0
233437.0 474780.0 0
238483.0 473973.0 0
243859.0 473262.0 0
248992.0 472878.0 0
255542.0 473828.0 0
262518.0 472326.0 0
268704.0 472497.0 0
273460.0 473194.0 0
278338.0 474406.0 0
282740.0 471775.0 0
287916.0 473755.0 0
293140.0 472353.0 0
297566.0 474724.0 0
302429.0 472319.0 0
308183.0 473372.0 0
313173.0 472863.0 0
317128.0 472159.0 0
321824.0 473617.0 0
328981.0 472538.0 0
333867.0 473675.0 0
339058.0 473745.0 0
344512.0 474472.0 0
349571.0 472811.0 0
354501.0 476410.0 0
358865.0 473495.0 0
363936.0 471674.0 0
367857.0 474230.0 0
373908.0 474753.0 0
380577.0 472679.0 0
386129.0 473905.0 0
382855.0 477079.0 0
391750.0 472738.0 0
395242.0 475108.0 0
399868.0 473646.0 0
403352.0 476814.0 0
406115.0 475869.0 0
409141.0 474633.0 0
417248.0 474241.0 0
421830.0 475658.0 0
426293.0 476714.0 0
430891.0 473322.0 0
434967.0 475873.0 0
439311.0 474133.0 0
442917.0 473709.0 0
446001.0 474967.0 0
443147.0 477635.0 0
449944.0 476426.0 0
453898.0 474216.0 0
458451.0 477866.0 0
35685.6 480150.0 0
32810.3 482254.0 0
37923.3 483552.0 0
46036.5 479890.0 0
42607.9 482255.0 0
49438.4 478976.0 0
51440.9 482412.0 0
53116.9 478787.0 0
55588.5 482201.0 0
60454.9 480425.0 0
64777.2 479681.0 0
69163.4 478881.0 0
74335.3 478316.0 0
76553.5 481883.0 0
79249.9 477576.0 0
80446.3 481819.0 0
84679.1 479434.0 0
90581.2 477991.0 0
93660.8 481813.0 0
98111.3 479514.0 0
103151.0 479668.0 0
107648.0 479876.0 0
111946.0 477623.0 0
116318.0 480667.0 0
121728.0 478187.0 0
127133.0 478202.0 0
135035.0 477642.0 0
139338.0 476606.0 0
143247.0 477750.0 0
139318.0 480465.0 0
148679.0 478071.0 0
154163.0 477628.0 0
158295.0 479489.0 0
162676.0 476948.0 0
167998.0 476943.0 0
171614.0 478591.0 0
176916.0 477956.0 0
182551.0 479951.0 0
187035.0 477946.0 0
191677.0 478346.0 0
196453.0 479751.0 0
201634.0 477541.0 0
207159.0 477870.0 0
212987.0 477455.0 0
219860.0 478864.0 0
224968.0 478774.0 0
228706.0 479259.0 0
232761.0 478548.0 0
237003.0 479210.0 0
242113.0 477509.0 0
246569.0 477246.0 0
251473.0 476837.0 0
257775.0 479090.0 0
262741.0 478393.0 0
268247.0 478114.0 0
274057.0 478144.0 0
279327.0 479918.0 0
284533.0 477834.0 0
289600.0 478707.0 0
293160.0 476753.0 0
296327.0 479626.0 0
302228.0 477911.0 0
307258.0 478563.0 0
311742.0 477189.0 0
316446.0 476749.0 0
320945.0 478711.0 0
326002.0 477150.0 0
331281.0 477788.0 0
336893.0 479401.0 0
341937.0 479035.0 0
345721.0 478883.0 0
349883.0 477911.0 0
360061.0 479451.0 0
364477.0 476469.0 0
368524.0 478594.0 0
375166.0 481207.0 0
378878.0 478567.0 0
382545.0 481475.0 0
386355.0 479278.0 0
390479.0 476996.0 0
390291.0 481560.0 0
394560.0 481106.0 0
399188.0 479068.0 0
404376.0 481367.0 0
407816.0 478176.0 0
409402.0 481796.0 0
413499.0 478444.0 0
418719.0 478045.0 0
418232.0 482244.0 0
422470.0 480012.0 0
426840.0 481356.0 0
430773.0 478068.0 0
435458.0 480721.0 0
439072.0 478826.0 0
442040.0 481514.0 0
446960.0 478686.0 0
445227.0 481765.0 0
450310.0 482132.0 0
453737.0 478427.0 0
455845.0 482031.0 0
461179.0 483007.0 0
463615.0 479958.0 0
467517.0 483324.0 0
25546.9 486594.0 0
29173.1 484377.0 0
28996.1 487573.0 0
33334.8 486469.0 0
37851.1 487574.0 0
42628.7 486828.0 0
47172.8 483686.0 0
47243.8 487961.0 0
51589.3 486554.0 0
56084.9 486761.0 0
59102.4 484183.0 0
60193.3 486993.0 0
63584.7 484199.0 0
63616.1 488944.0 0
67401.7 482724.0 0
71972.3 482648.0 0
74503.9 486592.0 0
78689.3 484843.0 0
83441.8 485701.0 0
88792.8 483216.0 0
92127.7 486701.0 0
97484.9 485358.0 0
101436.0 483015.0 0
105282.0 483259.0 0
107561.0 486047.0 0
111030.0 483025.0 0
114678.0 485485.0 0
119761.0 485682.0 0
125036.0 482997.0 0
131206.0 482574.0 0
136534.0 483458.0 0
143517.0 482986.0 0
149375.0 484454.0 0
154602.0 482401.0 0
158866.0 483681.0 0
163840.0 482764.0 0
169137.0 482007.0 0
174027.0 481911.0 0
178437.0 482197.0 0
181945.0 484520.0 0
186743.0 483216.0 0
191843.0 482847.0 0
196082.0 485471.0 0
201275.0 483139.0 0
207279.0 483886.0 0
212200.0 482400.0 0
216890.0 483659.0 0
221656.0 484494.0 0
226119.0 483302.0 0
231064.0 482612.0 0
235913.0 483854.0 0
241314.0 482419.0 0
246753.0 482179.0 0
252446.0 482343.0 0
257587.0 484319.0 0
263686.0 483898.0 0
269577.0 483782.0 0
274543.0 483122.0 0
279874.0 485261.0 0
283949.0 482286.0 0
288523.0 483730.0 0
292585.0 482131.0 0
298610.0 484290.0 0
303485.0 482874.0 0
307618.0 482873.0 0
312133.0 482406.0 0
317380.0 482019.0 0
323005.0 483652.0 0
327604.0 481756.0 0
328021.0 486460.0 0
332240.0 482883.0 0
337031.0 484699.0 0
340537.0 483104.0 0
344031.0 482394.0 0
348104.0 481998.0 0
353845.0 482601.0 0
359180.0 484592.0 0
365094.0 482442.0 0
370414.0 483463.0 0
374474.0 485622.0 0
378918.0 484991.0 0
383394.0 485893.0 0
386834.0 483650.0 0
392094.0 484929.0 0
396244.0 485692.0 0
400049.0 483858.0 0
403533.0 486175.0 0
407790.0 485715.0 0
413525.0 485267.0 0
418431.0 486795.0 0
423038.0 485168.0 0
431804.0 483110.0 0
427769.0 485607.0 0
436075.0 485887.0 0
439102.0 483308.0 0
440117.0 487410.0 0
446868.0 485307.0 0
443053.0 484769.0 0
453639.0 485584.0 0
457578.0 485704.0 0
460744.0 488126.0 0
464394.0 486862.0 0
472562.0 486723.0 0
467953.0 488317.0 0
14483.1 492648.0 0
21678.4 490242.0 0
17510.6 491533.0 0
26304.9 491083.0 0
30894.5 490940.0 0
35318.8 491019.0 0
40197.1 491227.0 0
45487.6 491973.0 0
49790.8 490344.0 0
53651.3 490464.0 0
58617.5 490847.0 0
63376.7 492919.0 0
68656.4 487529.0 0
72891.2 491308.0 0
78755.4 490032.0 0
84576.9 491983.0 0
87906.7 487969.0 0
90320.0 491872.0 0
95030.6 489976.0 0
99734.6 489562.0 0
103028.0 486866.0 0
106396.0 490327.0 0
111207.0 487817.0 0
115511.0 489694.0 0
120429.0 491375.0 0
124882.0 488506.0 0
129048.0 487250.0 0
130088.0 491475.0 0
134852.0 488249.0 0
140355.0 487088.0 0
144933.0 487850.0 0
152851.0 488441.0 0
148893.0 490389.0 0
157481.0 488464.0 0
162359.0 487663.0 0
167243.0 487031.0 0
173543.0 488074.0 0
178902.0 488145.0 0
183854.0 489113.0 0
189548.0 488173.0 0
194013.0 489233.0 0
199902.0 488201.0 0
204039.0 488729.0 0
208427.0 489033.0 0
212806.0 487032.0 0
219114.0 488412.0 0
223351.0 487963.0 0
227650.0 488017.0 0
232479.0 487322.0 0
237797.0 488295.0 0
242345.0 488815.0 0
246718.0 487013.0 0
251890.0 488586.0 0
257364.0 488613.0 0
262193.0 490102.0 0
267644.0 487962.0 0
271711.0 487527.0 0
272411.0 491424.0 0
276049.0 487945.0 0
284232.0 486693.0 0
288505.0 488986.0 0
293511.0 486676.0 0
298566.0 489044.0 0
302394.0 487895.0 0
306437.0 486721.0 0
306655.0 491441.0 0
311341.0 488195.0 0
315749.0 491694.0 0
316402.0 486786.0 0
320825.0 488784.0 0
324274.0 487592.0 0
333333.0 488537.0 0
338685.0 488838.0 0
342647.0 486521.0 0
342751.0 491639.0 0
348434.0 487592.0 0
354797.0 489392.0 0
361036.0 489507.0 0
366766.0 487776.0 0
371953.0 489163.0 0
376603.0 489382.0 0
380422.0 490848.0 0
384577.0 489876.0 0
388927.0 488034.0 0
393334.0 488887.0 0
396571.0 491300.0 0
400014.0 488706.0 0
405875.0 491160.0 0
410327.0 488595.0 0
411681.0 491942.0 0
415996.0 490506.0 0
421365.0 490181.0 0
426755.0 490180.0 0
431675.0 492760.0 0
432041.0 488117.0 0
436644.0 491019.0 0
441109.0 491097.0 0
445049.0 489463.0 0
450441.0 488445.0 0
448807.0 491964.0 0
455961.0 489657.0 0
452952.0 492678.0 0
460351.0 491492.0 0
464367.0 491056.0 0
471044.0 490367.0 0
468432.0 492313.0 0
472228.0 492977.0 0
474288.0 491044.0 0
478058.0 490000.0 0
482814.0 492164.0 0
8035.85 498149.0 0
12149.3 495630.0 0
17212.0 495697.0 0
22516.6 495336.0 0
28143.1 495552.0 0
32508.4 494460.0 0
36683.9 495299.0 0
41766.3 495794.0 0
46142.2 496381.0 0
50335.9 494565.0 0
55046.8 494174.0 0
54009.6 498235.0 0
59400.8 496287.0 0
64849.3 496682.0 0
68050.1 493101.0 0
68589.1 497696.0 0
72133.5 495686.0 0
76104.0 494192.0 0
80112.9 494723.0 0
83828.3 497715.0 0
88085.2 495959.0 0
94308.6 493927.0 0
97839.7 492363.0 0
98026.1 496415.0 0
102190.0 493154.0 0
106480.0 495079.0 0
111010.0 492848.0 0
116268.0 495045.0 0
121417.0 496475.0 0
125543.0 493627.0 0
130089.0 496489.0 0
134372.0 493769.0 0
139668.0 492731.0 0
144718.0 491948.0 0
147467.0 494503.0 0
143806.0 496284.0 0
152933.0 492428.0 0
151198.0 496489.0 0
156125.0 496372.0 0
162970.0 491940.0 0
158887.0 492894.0 0
168298.0 492478.0 0
172812.0 493631.0 0
177456.0 493523.0 0
182624.0 494017.0 0
187294.0 493112.0 0
192455.0 493275.0 0
198115.0 492924.0 0
203083.0 492713.0 0
207475.0 493749.0 0
212172.0 491986.0 0
217296.0 493485.0 0
222544.0 492177.0 0
227503.0 493589.0 0
232489.0 492027.0 0
231537.0 496190.0 0
237117.0 492602.0 0
235510.0 496694.0 0
241406.0 493278.0 0
246119.0 492026.0 0
250335.0 493659.0 0
254503.0 493072.0 0
258787.0 493742.0 0
262563.0 496697.0 0
267334.0 493289.0 0
272337.0 496074.0 0
277076.0 493238.0 0
283012.0 492050.0 0
288005.0 493525.0 0
292532.0 492240.0 0
297136.0 492987.0 0
297823.0 496838.0 0
301854.0 492933.0 0
311102.0 493501.0 0
306591.0 496314.0 0
320065.0 493206.0 0
325723.0 492284.0 0
332014.0 494594.0 0
337701.0 493673.0 0
344197.0 496182.0 0
347287.0 493228.0 0
351839.0 494113.0 0
356689.0 494775.0 0
361182.0 494863.0 0
365430.0 493375.0 0
369982.0 493340.0 0
374990.0 494234.0 0
379453.0 494272.0 0
383213.0 494020.0 0
388186.0 492735.0 0
392641.0 493104.0 0
396885.0 495977.0 0
400737.0 493206.0 0
403920.0 496927.0 0
409338.0 496116.0 0
414690.0 495826.0 0
419064.0 494078.0 0
424154.0 495042.0 0
429853.0 497113.0 0
435108.0 495984.0 0
440626.0 495397.0 0
445826.0 494405.0 0
447999.0 497763.0 0
450167.0 495208.0 0
457462.0 494289.0 0
454628.0 497535.0 0
462014.0 494950.0 0
466069.0 495245.0 0
467863.0 498783.0 0
471185.0 496556.0 0
475640.0 494902.0 0
474771.0 498774.0 0
478074.0 498909.0 0
479874.0 495246.0 0
483610.0 496038.0 0
486626.0 494530.0 0
486639.0 498370.0 0
490533.0 496643.0 0
3720.99 500003.0 0
6870.87 502723.0 0
13157.5 500058.0 0
19212.0 500346.0 0
24237.6 499193.0 0
22627.1 502885.0 0
25986.7 502711.0 0
28089.0 499271.0 0
30079.7 502165.0 0
32887.6 498603.0 0
38236.6 500126.0 0
43727.9 499941.0 0
48984.8 500029.0 0
53085.2 502982.0 0
57596.8 501275.0 0
62659.1 500534.0 0
66766.6 500865.0 0
71681.5 499997.0 0
75554.3 498313.0 0
79366.4 498444.0 0
80927.3 502420.0 0
87517.8 501045.0 0
92555.9 498911.0 0
102867.0 498569.0 0
98045.2 501462.0 0
107557.0 499575.0 0
111838.0 498315.0 0
116326.0 500505.0 0
121121.0 501467.0 0
125872.0 498762.0 0
130297.0 501591.0 0
134362.0 498233.0 0
138810.0 498119.0 0
142629.0 500863.0 0
147202.0 498758.0 0
157192.0 501611.0 0
161618.0 496944.0 0
167555.0 498558.0 0
173300.0 497901.0 0
178397.0 498988.0 0
184074.0 498695.0 0
189510.0 497796.0 0
194433.0 497760.0 0
203923.0 496947.0 0
199269.0 498616.0 0
208403.0 498797.0 0
213229.0 497284.0 0
217945.0 498779.0 0
222500.0 497950.0 0
227501.0 498167.0 0
231682.0 500378.0 0
241064.0 497667.0 0
246280.0 497898.0 0
252719.0 498373.0 0
257760.0 497485.0 0
257365.0 500824.0 0
268496.0 498009.0 0
265444.0 501852.0 0
276515.0 498280.0 0
282692.0 497847.0 0
287943.0 497935.0 0
290224.0 501893.0 0
293157.0 497702.0 0
301972.0 498830.0 0
306661.0 501678.0 0
311186.0 498712.0 0
316950.0 497537.0 0
322669.0 497582.0 0
326473.0 497177.0 0
330975.0 499009.0 0
327564.0 500770.0 0
334997.0 499460.0 0
340051.0 498382.0 0
344416.0 501802.0 0
348608.0 498102.0 0
354203.0 499919.0 0
360116.0 499562.0 0
365591.0 498737.0 0
370870.0 498007.0 0
375714.0 500161.0 0
381031.0 498615.0 0
386794.0 497669.0 0
389718.0 501527.0 0
392057.0 497806.0 0
393891.0 502145.0 0
398747.0 500960.0 0
403730.0 501824.0 0
408624.0 501196.0 0
413726.0 500755.0 0
419730.0 499933.0 0
425721.0 499752.0 0
430116.0 502688.0 0
433529.0 499724.0 0
437708.0 499906.0 0
441842.0 499887.0 0
440871.0 502078.0 0
444930.0 498720.0 0
450727.0 498767.0 0
448433.0 501184.0 0
452733.0 501918.0 0
457392.0 501934.0 0
459619.0 498337.0 0
462037.0 502371.0 0
463785.0 498737.0 0
466720.0 502358.0 0
471692.0 501475.0 0
475918.0 502337.0 0
479713.0 502152.0 0
482494.0 499465.0 0
486703.0 501889.0 0
490446.0 500734.0 0
494270.0 499382.0 0
497847.0 501559.0 0
2093.3 503296.0 0
2795.91 507693.0 0
8160.54 507309.0 0
11410.8 504228.0 0
15749.5 504264.0 0
12904.6 507922.0 0
20098.9 505361.0 0
16875.7 508202.0 0
24151.9 506263.0 0
28619.3 506315.0 0
34230.6 504497.0 0
38374.0 503850.0 0
41564.7 503858.0 0
38691.6 507570.0 0
45591.6 503684.0 0
49153.8 505614.0 0
56692.3 506193.0 0
60681.5 504358.0 0
64770.0 504695.0 0
69646.8 504070.0 0
75216.8 503353.0 0
77053.9 507537.0 0
78714.6 505358.0 0
81545.5 508090.0 0
85093.2 504591.0 0
91249.8 505179.0 0
96050.9 505263.0 0
100644.0 505948.0 0
105011.0 503361.0 0
110636.0 504212.0 0
116370.0 505397.0 0
121288.0 506497.0 0
125603.0 503683.0 0
135058.0 502634.0 0
139267.0 504357.0 0
146060.0 503840.0 0
151142.0 502166.0 0
158124.0 506636.0 0
162978.0 502903.0 0
167606.0 506775.0 0
171473.0 502804.0 0
175790.0 504493.0 0
183485.0 502618.0 0
180024.0 503632.0 0
187522.0 502859.0 0
183830.0 506717.0 0
192879.0 502367.0 0
198181.0 504235.0 0
203139.0 502002.0 0
207017.0 504338.0 0
211149.0 502858.0 0
215808.0 503131.0 0
221302.0 503185.0 0
227239.0 503506.0 0
237645.0 502430.0 0
243907.0 503088.0 0
248958.0 502866.0 0
254199.0 504493.0 0
260307.0 502856.0 0
272329.0 502376.0 0
279426.0 502996.0 0
285586.0 502019.0 0
283914.0 506209.0 0
288958.0 506947.0 0
293400.0 505061.0 0
297176.0 502015.0 0
302138.0 503941.0 0
311987.0 504826.0 0
317929.0 503373.0 0
323011.0 502548.0 0
327092.0 506724.0 0
331745.0 503297.0 0
336127.0 504753.0 0
339713.0 502931.0 0
339826.0 507059.0 0
349704.0 503597.0 0
358078.0 504403.0 0
362910.0 503894.0 0
367401.0 503373.0 0
371652.0 502807.0 0
375466.0 505216.0 0
379440.0 503501.0 0
384948.0 503718.0 0
390693.0 506215.0 0
396336.0 505767.0 0
401096.0 505827.0 0
406451.0 505888.0 0
411773.0 505810.0 0
416224.0 504278.0 0
420165.0 506027.0 0
424804.0 504122.0 0
428651.0 507468.0 0
434949.0 503581.0 0
432927.0 507288.0 0
436880.0 507353.0 0
439241.0 504468.0 0
444529.0 503899.0 0
449910.0 505552.0 0
455000.0 505994.0 0
459827.0 505933.0 0
465477.0 506740.0 0
469954.0 505202.0 0
473694.0 505501.0 0
475103.0 508971.0 0
478555.0 506239.0 0
483696.0 504403.0 0
487482.0 507451.0 0
489387.0 504482.0 0
493987.0 504123.0 0
491745.0 507917.0 0
497823.0 505845.0 0
2482.07 512915.0 0
6004.75 511106.0 0
10399.4 511426.0 0
14419.2 511414.0 0
17310.9 511186.0 0
21554.1 510325.0 0
27363.8 511069.0 0
32749.7 512403.0 0
31774.7 508663.0 0
34932.6 509205.0 0
38855.0 513311.0 0
44275.4 508709.0 0
47882.3 512451.0 0
52246.6 509442.0 0
57002.9 510233.0 0
61483.9 508665.0 0
59414.3 513156.0 0
66811.6 508810.0 0
64269.7 512900.0 0
68699.3 512719.0 0
72402.0 509043.0 0
77569.3 510979.0 0
80693.2 512563.0 0
87098.9 508949.0 0
91054.4 512082.0 0
95224.2 509504.0 0
100013.0 510611.0 0
105587.0 508671.0 0
109799.0 511013.0 0
113370.0 508920.0 0
117876.0 510449.0 0
127977.0 508598.0 0
123027.0 511274.0 0
133608.0 507453.0 0
138054.0 509023.0 0
143124.0 508263.0 0
148450.0 507443.0 0
153289.0 507697.0 0
156843.0 511516.0 0
162495.0 508485.0 0
172852.0 507839.0 0
178533.0 508866.0 0
186465.0 511111.0 0
190732.0 507398.0 0
195673.0 508956.0 0
203523.0 507294.0 0
200035.0 509595.0 0
208375.0 508329.0 0
205104.0 511840.0 0
212747.0 507372.0 0
211726.0 511967.0 0
217823.0 507834.0 0
223441.0 507992.0 0
227809.0 508493.0 0
232847.0 507731.0 0
232107.0 511996.0 0
238026.0 508435.0 0
242300.0 507277.0 0
241561.0 511782.0 0
246628.0 507176.0 0
251478.0 508936.0 0
257643.0 508808.0 0
262646.0 507068.0 0
268046.0 507094.0 0
266276.0 511531.0 0
273547.0 509002.0 0
279335.0 509175.0 0
284775.0 511337.0 0
290202.0 511756.0 0
293784.0 509267.0 0
298767.0 507810.0 0
297407.0 512154.0 0
302935.0 507333.0 0
302776.0 510486.0 0
306987.0 507216.0 0
307326.0 511133.0 0
315965.0 508248.0 0
312542.0 510624.0 0
320861.0 508380.0 0
325748.0 512079.0 0
332892.0 508245.0 0
337027.0 510058.0 0
345527.0 508231.0 0
351474.0 508293.0 0
356793.0 509928.0 0
361165.0 507631.0 0
365970.0 508536.0 0
371357.0 507449.0 0
371437.0 512147.0 0
375525.0 509939.0 0
380699.0 508523.0 0
386240.0 509652.0 0
390788.0 511445.0 0
394416.0 509402.0 0
398679.0 510243.0 0
403984.0 510448.0 0
409283.0 510915.0 0
416392.0 508695.0 0
413042.0 509858.0 0
420143.0 510225.0 0
417989.0 512440.0 0
424152.0 509244.0 0
432532.0 511140.0 0
428338.0 512229.0 0
437306.0 511949.0 0
441551.0 508615.0 0
446710.0 509169.0 0
448179.0 513302.0 0
452328.0 510424.0 0
457439.0 509585.0 0
461898.0 509789.0 0
466202.0 511251.0 0
470409.0 509237.0 0
477100.0 513083.0 0
478550.0 510453.0 0
473688.0 512638.0 0
483202.0 509733.0 0
480564.0 513812.0 0
488543.0 511176.0 0
493332.0 511852.0 0
497579.0 510123.0 0
2466.26 517514.0 0
7167.46 515283.0 0
12404.2 515201.0 0
10108.9 518357.0 0
17740.2 514728.0 0
23716.5 515610.0 0
29131.2 515799.0 0
34005.7 516971.0 0
42936.9 517507.0 0
44141.5 513664.0 0
47680.0 516874.0 0
51328.4 513909.0 0
55024.6 513407.0 0
53032.0 516993.0 0
56935.6 516396.0 0
61573.6 517758.0 0
67201.0 516685.0 0
71442.1 515698.0 0
74576.6 513301.0 0
76410.7 517543.0 0
81557.2 516356.0 0
84551.8 512992.0 0
85737.5 516974.0 0
88948.1 515440.0 0
92458.7 516182.0 0
97145.3 514787.0 0
103208.0 514326.0 0
108580.0 515618.0 0
113683.0 513647.0 0
118956.0 515593.0 0
123887.0 515914.0 0
127693.0 513681.0 0
132382.0 512629.0 0
137334.0 513527.0 0
133390.0 516894.0 0
141925.0 514437.0 0
147416.0 512470.0 0
152565.0 514700.0 0
162289.0 514764.0 0
169657.0 513137.0 0
176279.0 514602.0 0
181891.0 513581.0 0
191246.0 512685.0 0
189614.0 517195.0 0
195966.0 513632.0 0
200738.0 514746.0 0
208583.0 514123.0 0
206355.0 516406.0 0
216608.0 513137.0 0
221822.0 512430.0 0
226811.0 512983.0 0
231094.0 516386.0 0
236202.0 513325.0 0
240520.0 516996.0 0
246882.0 512281.0 0
248572.0 517028.0 0
251533.0 513186.0 0
252682.0 516826.0 0
256237.0 513940.0 0
260049.0 517007.0 0
261514.0 512392.0 0
265464.0 516780.0 0
270493.0 513793.0 0
276558.0 513978.0 0
281875.0 516885.0 0
288245.0 516445.0 0
293852.0 513866.0 0
298736.0 516599.0 0
304579.0 515233.0 0
309826.0 513890.0 0
313676.0 515190.0 0
316751.0 512178.0 0
321231.0 514340.0 0
331292.0 513207.0 0
327380.0 516547.0 0
336004.0 514230.0 0
340970.0 512872.0 0
345854.0 513842.0 0
349613.0 512323.0 0
353422.0 514096.0 0
357091.0 517151.0 0
362073.0 513233.0 0
367373.0 513589.0 0
375468.0 515063.0 0
379623.0 513228.0 0
383958.0 514441.0 0
389738.0 516369.0 0
395268.0 514419.0 0
400897.0 514750.0 0
405634.0 515124.0 0
409861.0 515780.0 0
413989.0 513593.0 0
417857.0 516294.0 0
422931.0 514679.0 0
428611.0 517772.0 0
433486.0 515320.0 0
438279.0 517260.0 0
443054.0 514309.0 0
447202.0 517045.0 0
452222.0 516513.0 0
456573.0 513412.0 0
457933.0 518091.0 0
461303.0 514117.0 0
463531.0 518301.0 0
465721.0 514829.0 0
468292.0 518155.0 0
469530.0 513835.0 0
473132.0 517136.0 0
477432.0 516322.0 0
485303.0 514538.0 0
490198.0 515183.0 0
496961.0 515473.0 0
2688.41 522447.0 0
6587.83 519719.0 0
14869.6 518751.0 0
11633.6 521546.0 0
19687.6 519173.0 0
16211.7 522952.0 0
24047.3 520083.0 0
28060.1 519735.0 0
38285.7 519027.0 0
41585.4 522513.0 0
45811.7 520439.0 0
50476.6 521187.0 0
55841.3 520325.0 0
65722.9 521730.0 0
71302.3 520632.0 0
76538.8 522519.0 0
80868.8 520986.0 0
84971.3 520473.0 0
89530.9 519957.0 0
95077.4 520084.0 0
100678.0 519462.0 0
105654.0 519597.0 0
108910.0 519607.0 0
113229.0 519332.0 0
117495.0 522513.0 0
121558.0 520048.0 0
125338.0 519106.0 0
129069.0 518058.0 0
132496.0 522239.0 0
137221.0 518206.0 0
141476.0 518640.0 0
146936.0 518358.0 0
152365.0 520060.0 0
156832.0 517753.0 0
160972.0 520263.0 0
167188.0 519434.0 0
172618.0 518119.0 0
171314.0 521586.0 0
176338.0 522064.0 0
179645.0 518066.0 0
184471.0 518893.0 0
193923.0 518248.0 0
197751.0 517847.0 0
203130.0 518605.0 0
199665.0 522209.0 0
207604.0 521199.0 0
212396.0 517722.0 0
216945.0 517653.0 0
221106.0 517265.0 0
221787.0 521535.0 0
225862.0 517966.0 0
232594.0 522358.0 0
235800.0 518256.0 0
238580.0 522178.0 0
244817.0 521209.0 0
251421.0 521880.0 0
256130.0 518934.0 0
261880.0 521587.0 0
270059.0 520785.0 0
272727.0 517291.0 0
275452.0 517909.0 0
277834.0 520911.0 0
288727.0 521760.0 0
293405.0 518524.0 0
297056.0 521430.0 0
302843.0 521678.0 0
308983.0 517584.0 0
312865.0 519961.0 0
317331.0 517306.0 0
323148.0 519475.0 0
328398.0 521720.0 0
332488.0 518012.0 0
336289.0 518817.0 0
341472.0 518379.0 0
346438.0 518178.0 0
350945.0 517614.0 0
349411.0 522006.0 0
353938.0 520825.0 0
362549.0 519434.0 0
367672.0 517768.0 0
372238.0 519636.0 0
380822.0 517813.0 0
377224.0 519583.0 0
385282.0 519974.0 0
390219.0 521642.0 0
393738.0 519249.0 0
398403.0 519231.0 0
403437.0 518938.0 0
408415.0 520689.0 0
413690.0 518859.0 0
418356.0 520848.0 0
423557.0 520761.0 0
434014.0 520360.0 0
439559.0 522656.0 0
444164.0 519839.0 0
448746.0 520628.0 0
453981.0 521503.0 0
457707.0 522611.0 0
460959.0 521431.0 0
464573.0 522600.0 0
468502.0 522610.0 0
471919.0 521313.0 0
476489.0 521659.0 0
481706.0 518745.0 0
485086.0 522410.0 0
487348.0 518823.0 0
489200.0 522824.0 0
492525.0 519339.0 0
497303.0 520828.0 0
3806.23 527438.0 0
7773.94 524017.0 0
12420.2 525719.0 0
18096.1 527913.0 0
21307.4 523603.0 0
23663.4 527916.0 0
26442.5 523818.0 0
28541.4 527589.0 0
33266.2 523224.0 0
38899.0 527736.0 0
46396.8 524755.0 0
50089.4 527480.0 0
54383.3 525302.0 0
59952.8 523416.0 0
63989.5 526699.0 0
68708.3 525855.0 0
73502.1 525813.0 0
79284.8 526101.0 0
84499.9 524889.0 0
89687.4 524921.0 0
94442.6 524734.0 0
98199.7 523556.0 0
103530.0 524882.0 0
108338.0 522749.0 0
112644.0 525566.0 0
121554.0 525480.0 0
126765.0 523067.0 0
137999.0 523033.0 0
143814.0 523737.0 0
148895.0 523010.0 0
157301.0 522773.0 0
153076.0 524622.0 0
163073.0 526952.0 0
163673.0 522475.0 0
168555.0 524828.0 0
172672.0 526886.0 0
178325.0 527311.0 0
182060.0 524124.0 0
186642.0 526775.0 0
189364.0 522432.0 0
192335.0 527419.0 0
194473.0 522929.0 0
203836.0 524099.0 0
211061.0 524867.0 0
216332.0 523169.0 0
221974.0 526194.0 0
226648.0 523230.0 0
236526.0 527320.0 0
241318.0 526667.0 0
245882.0 526545.0 0
256875.0 523460.0 0
266270.0 524919.0 0
274136.0 523580.0 0
271147.0 527280.0 0
277983.0 526972.0 0
283188.0 523243.0 0
288291.0 527036.0 0
293021.0 523984.0 0
298290.0 526618.0 0
303350.0 527216.0 0
308649.0 522513.0 0
318174.0 522551.0 0
319095.0 527268.0 0
323835.0 524906.0 0
329289.0 527078.0 0
333587.0 523601.0 0
339072.0 523095.0 0
344396.0 522711.0 0
347418.0 527168.0 0
352661.0 526640.0 0
358160.0 523859.0 0
363335.0 524945.0 0
367525.0 522473.0 0
370993.0 524929.0 0
375525.0 524254.0 0
380705.0 522943.0 0
387378.0 523592.0 0
383345.0 527412.0 0
389463.0 525652.0 0
393601.0 524841.0 0
398583.0 524407.0 0
403828.0 524029.0 0
408148.0 525447.0 0
412759.0 523939.0 0
417790.0 526137.0 0
423408.0 526046.0 0
427331.0 527018.0 0
428642.0 523369.0 0
429691.0 527462.0 0
433940.0 526221.0 0
446073.0 523697.0 0
444330.0 526952.0 0
450594.0 525083.0 0
455728.0 525898.0 0
461024.0 525959.0 0
466596.0 526977.0 0
472264.0 525959.0 0
477312.0 526768.0 0
480969.0 524067.0 0
484986.0 526974.0 0
489564.0 526718.0 0
493680.0 524728.0 0
498112.0 525051.0 0
2110.51 531622.0 0
8811.58 528526.0 0
6669.93 532861.0 0
13667.5 529516.0 0
11079.7 531910.0 0
14327.3 533404.0 0
17442.0 532213.0 0
21684.2 532059.0 0
26680.8 531854.0 0
32856.7 530717.0 0
43995.0 528394.0 0
42059.7 532124.0 0
47571.6 532021.0 0
53403.5 530516.0 0
58692.9 529050.0 0
64196.4 531518.0 0
68595.4 530107.0 0
72673.6 530332.0 0
77379.7 530655.0 0
82414.1 529594.0 0
87522.0 528631.0 0
92457.0 529210.0 0
97800.4 527944.0 0
102269.0 530628.0 0
108270.0 530360.0 0
117290.0 528164.0 0
113484.0 530458.0 0
121627.0 530236.0 0
126174.0 528806.0 0
132097.0 528121.0 0
137926.0 528677.0 0
142962.0 529048.0 0
148175.0 527584.0 0
153179.0 529256.0 0
157915.0 527723.0 0
159786.0 531929.0 0
167596.0 529794.0 0
163722.0 532242.0 0
172446.0 531156.0 0
182644.0 529228.0 0
188409.0 531780.0 0
196900.0 527923.0 0
194074.0 532501.0 0
201408.0 527654.0 0
199228.0 532410.0 0
207061.0 527509.0 0
204340.0 532329.0 0
212749.0 527990.0 0
214183.0 531494.0 0
217712.0 529104.0 0
222210.0 531685.0 0
226884.0 528317.0 0
226345.0 532108.0 0
231630.0 527971.0 0
235821.0 532054.0 0
240131.0 530028.0 0
244031.0 530826.0 0
250491.0 527766.0 0
255235.0 527615.0 0
260801.0 527746.0 0
266749.0 530371.0 0
283221.0 530032.0 0
293334.0 528871.0 0
298859.0 532033.0 0
303092.0 531201.0 0
308066.0 527519.0 0
314200.0 527857.0 0
317407.0 532527.0 0
322249.0 530511.0 0
327484.0 531863.0 0
333400.0 527901.0 0
332709.0 532125.0 0
336934.0 527503.0 0
342209.0 528108.0 0
346244.0 530639.0 0
357412.0 528814.0 0
362043.0 529747.0 0
367267.0 528073.0 0
372852.0 529265.0 0
377136.0 532365.0 0
378327.0 528291.0 0
381944.0 532351.0 0
387054.0 527960.0 0
386571.0 532264.0 0
389930.0 529403.0 0
393194.0 528576.0 0
396943.0 528892.0 0
404939.0 529868.0 0
411047.0 529017.0 0
415973.0 531436.0 0
420956.0 530548.0 0
425670.0 530349.0 0
430543.0 530815.0 0
435637.0 531712.0 0
439729.0 528403.0 0
440136.0 532830.0 0
443746.0 531241.0 0
448192.0 529732.0 0
453289.0 529712.0 0
458173.0 530238.0 0
463110.0 530686.0 0
469575.0 530710.0 0
474550.0 531092.0 0
480849.0 531301.0 0
488244.0 531092.0 0
492344.0 529213.0 0
492575.0 533118.0 0
497018.0 529481.0 0
2704.52 536167.0 0
7152.05 537622.0 0
11066.7 535828.0 0
18970.3 535966.0 0
24022.0 535386.0 0
29106.5 535350.0 0
34146.8 536029.0 0
37811.4 533427.0 0
38017.9 537195.0 0
42414.1 536929.0 0
47305.9 537338.0 0
52240.6 535835.0 0
59742.9 534018.0 0
56984.5 537461.0 0
63947.8 536717.0 0
68810.4 534559.0 0
73740.2 534581.0 0
77934.9 534924.0 0
78925.4 537620.0 0
82617.1 534585.0 0
88302.4 533416.0 0
93521.5 534262.0 0
98351.4 533952.0 0
103110.0 535771.0 0
107420.0 535466.0 0
111989.0 534687.0 0
117639.0 533754.0 0
123705.0 533995.0 0
128984.0 533769.0 0
134195.0 532918.0 0
137004.0 537181.0 0
138092.0 533068.0 0
141585.0 532920.0 0
146575.0 533119.0 0
152039.0 534027.0 0
156961.0 536687.0 0
162917.0 536892.0 0
166962.0 534343.0 0
173004.0 536842.0 0
178036.0 532821.0 0
183474.0 533920.0 0
186921.0 537178.0 0
192066.0 537396.0 0
197038.0 536786.0 0
202119.0 537171.0 0
209669.0 532637.0 0
213798.0 535874.0 0
217523.0 533487.0 0
220564.0 536527.0 0
225458.0 536027.0 0
230551.0 533476.0 0
236462.0 537535.0 0
240170.0 533673.0 0
245149.0 536962.0 0
250353.0 533150.0 0
256452.0 532983.0 0
262638.0 533370.0 0
267398.0 535881.0 0
272588.0 532892.0 0
278383.0 532770.0 0
283039.0 535585.0 0
289492.0 532586.0 0
289293.0 537338.0 0
294419.0 533407.0 0
292934.0 536977.0 0
303243.0 536295.0 0
307262.0 532618.0 0
312407.0 533897.0 0
319886.0 536790.0 0
324056.0 535017.0 0
328547.0 537390.0 0
334448.0 537352.0 0
338572.0 533275.0 0
343889.0 533502.0 0
350517.0 532671.0 0
354717.0 536650.0 0
358167.0 533087.0 0
358943.0 536969.0 0
363148.0 534503.0 0
367784.0 533378.0 0
372805.0 534771.0 0
376640.0 536338.0 0
380314.0 536930.0 0
384830.0 536455.0 0
389319.0 533501.0 0
389506.0 536961.0 0
393567.0 533154.0 0
399880.0 532972.0 0
400073.0 537288.0 0
403675.0 535991.0 0
409136.0 534968.0 0
416065.0 537090.0 0
422344.0 535936.0 0
427574.0 534368.0 0
432481.0 535189.0 0
437709.0 536482.0 0
443202.0 536047.0 0
447239.0 534181.0 0
451379.0 533794.0 0
449351.0 536877.0 0
456760.0 535712.0 0
462238.0 534819.0 0
466320.0 533736.0 0
466517.0 537784.0 0
470877.0 535419.0 0
476756.0 536743.0 0
483121.0 537155.0 0
488650.0 536027.0 0
493199.0 536613.0 0
497149.0 535020.0 0
1744.15 540256.0 0
5416.83 541418.0 0
10546.8 540307.0 0
14631.9 538352.0 0
18429.2 540356.0 0
22645.8 539044.0 0
26442.4 537973.0 0
30492.3 539126.0 0
26072.4 542610.0 0
35307.0 540375.0 0
39857.7 541074.0 0
44892.7 541460.0 0
50052.4 539832.0 0
54008.3 541194.0 0
60429.7 540763.0 0
67513.4 540612.0 0
71429.2 538124.0 0
75753.5 538597.0 0
72765.8 542971.0 0
81635.9 539467.0 0
78172.0 542514.0 0
87192.1 539491.0 0
93622.8 539106.0 0
92873.9 543013.0 0
99032.9 539217.0 0
103656.0 539733.0 0
106852.0 541982.0 0
109799.0 538529.0 0
112050.0 542355.0 0
114064.0 538501.0 0
122231.0 537794.0 0
118384.0 539348.0 0
122471.0 541302.0 0
126388.0 538464.0 0
132067.0 537894.0 0
131804.0 542480.0 0
136943.0 542149.0 0
139852.0 540088.0 0
143474.0 538122.0 0
147216.0 542465.0 0
149382.0 537730.0 0
152969.0 540906.0 0
160733.0 541322.0 0
167708.0 538930.0 0
165016.0 542739.0 0
171588.0 542733.0 0
183194.0 538359.0 0
178649.0 538938.0 0
185390.0 542295.0 0
190204.0 541655.0 0
195318.0 542379.0 0
201300.0 542576.0 0
207607.0 537778.0 0
212555.0 541710.0 0
217061.0 538728.0 0
223141.0 540875.0 0
229444.0 538524.0 0
232748.0 542022.0 0
240615.0 539768.0 0
248555.0 541870.0 0
252406.0 538072.0 0
254933.0 542179.0 0
257120.0 538438.0 0
259709.0 542400.0 0
262068.0 538109.0 0
272459.0 538993.0 0
277644.0 537748.0 0
276244.0 542623.0 0
281310.0 541541.0 0
285760.0 539406.0 0
292421.0 541787.0 0
297393.0 537867.0 0
303046.0 541587.0 0
308861.0 538371.0 0
314814.0 539268.0 0
323692.0 539852.0 0
332017.0 541723.0 0
338300.0 539040.0 0
337163.0 542780.0 0
342992.0 538788.0 0
348483.0 537861.0 0
353235.0 541944.0 0
362122.0 538424.0 0
358616.0 540772.0 0
366538.0 538325.0 0
371594.0 539984.0 0
367768.0 542638.0 0
377003.0 540566.0 0
382883.0 541829.0 0
391553.0 541357.0 0
395890.0 538530.0 0
400679.0 542401.0 0
406093.0 539989.0 0
411331.0 540771.0 0
415986.0 542276.0 0
419888.0 540483.0 0
425201.0 540499.0 0
429088.0 538367.0 0
429229.0 542996.0 0
433770.0 540258.0 0
441241.0 541107.0 0
446799.0 539880.0 0
452332.0 539750.0 0
457121.0 541242.0 0
461515.0 538869.0 0
461082.0 542971.0 0
464910.0 541483.0 0
470397.0 540885.0 0
475776.0 542243.0 0
479915.0 540882.0 0
485770.0 541548.0 0
491536.0 541235.0 0
497380.0 540247.0 0
2097.75 543864.0 0
8754.83 545038.0 0
14575.5 543701.0 0
20633.9 544493.0 0
24386.6 548212.0 0
31554.7 544119.0 0
34035.3 548139.0 0
36947.7 544851.0 0
41494.7 544911.0 0
45395.1 545988.0 0
49356.3 543742.0 0
52953.4 546614.0 0
57636.2 545274.0 0
63592.4 544823.0 0
68132.2 545336.0 0
83151.7 544323.0 0
89089.2 545783.0 0
94916.4 546525.0 0
97400.7 543192.0 0
102191.0 543329.0 0
108631.0 546743.0 0
113876.0 547021.0 0
117694.0 543849.0 0
122229.0 545681.0 0
126951.0 543516.0 0
130639.0 547252.0 0
134695.0 545870.0 0
142044.0 542960.0 0
139272.0 546853.0 0
144509.0 547441.0 0
152049.0 547084.0 0
156996.0 543787.0 0
161599.0 546478.0 0
167688.0 546761.0 0
176534.0 543420.0 0
180640.0 543396.0 0
179585.0 547563.0 0
184414.0 547621.0 0
189270.0 545924.0 0
198663.0 546685.0 0
206559.0 543011.0 0
218402.0 542930.0 0
217650.0 547394.0 0
222263.0 546211.0 0
227694.0 543636.0 0
231526.0 547448.0 0
238098.0 543625.0 0
243715.0 543264.0 0
247259.0 547280.0 0
251647.0 545186.0 0
256718.0 547422.0 0
261921.0 547330.0 0
266434.0 542884.0 0
272374.0 543957.0 0
277554.0 547730.0 0
282403.0 547022.0 0
286808.0 543989.0 0
298343.0 543711.0 0
303257.0 546641.0 0
307187.0 542980.0 0
308121.0 547669.0 0
312000.0 544425.0 0
318524.0 543577.0 0
323182.0 544256.0 0
327412.0 542928.0 0
333340.0 547725.0 0
341562.0 543935.0 0
343659.0 547757.0 0
347385.0 543280.0 0
351980.0 547449.0 0
357748.0 546066.0 0
363092.0 542906.0 0
362934.0 547936.0 0
371271.0 543873.0 0
368095.0 547423.0 0
373741.0 546282.0 0
378433.0 545463.0 0
387813.0 544188.0 0
391998.0 546243.0 0
395451.0 543393.0 0
396807.0 547758.0 0
407851.0 544537.0 0
412108.0 545522.0 0
418618.0 544930.0 0
422361.0 543769.0 0
426121.0 547064.0 0
432794.0 544299.0 0
437114.0 543640.0 0
434807.0 547686.0 0
441138.0 547628.0 0
445364.0 544066.0 0
449721.0 543957.0 0
453960.0 543965.0 0
457727.0 545585.0 0
461828.0 546908.0 0
466648.0 545691.0 0
472315.0 546422.0 0
477452.0 546365.0 0
482030.0 544929.0 0
487576.0 546424.0 0
492999.0 546792.0 0
497599.0 545118.0 0
3740.77 548948.0 0
9012.9 549754.0 0
12991.2 548682.0 0
18725.1 550185.0 0
29474.2 549183.0 0
34769.0 552841.0 0
39482.0 549427.0 0
44546.0 550243.0 0
48819.1 548452.0 0
52386.8 551092.0 0
57200.8 550572.0 0
61678.1 549036.0 0
66204.4 549398.0 0
71501.5 548681.0 0
68641.2 552868.0 0
78018.2 548672.0 0
83865.4 549276.0 0
87544.9 550559.0 0
92270.4 551498.0 0
99755.1 548466.0 0
104411.0 548712.0 0
102156.0 552358.0 0
113346.0 552397.0 0
118366.0 548097.0 0
121403.0 551548.0 0
126286.0 548478.0 0
129629.0 551479.0 0
135334.0 551519.0 0
141542.0 551954.0 0
147645.0 552856.0 0
152858.0 552480.0 0
157440.0 549266.0 0
162276.0 552548.0 0
168437.0 552280.0 0
174277.0 548034.0 0
178591.0 552540.0 0
188719.0 551837.0 0
193950.0 548332.0 0
198491.0 551707.0 0
202556.0 548628.0 0
203704.0 552688.0 0
207312.0 548137.0 0
207548.0 552539.0 0
212753.0 548102.0 0
211479.0 552919.0 0
216561.0 551985.0 0
223173.0 552598.0 0
226594.0 548320.0 0
229040.0 552375.0 0
233478.0 551765.0 0
236422.0 548141.0 0
238082.0 552851.0 0
241319.0 548270.0 0
248686.0 552719.0 0
251897.0 549186.0 0
254454.0 552973.0 0
259284.0 552379.0 0
266146.0 550191.0 0
270295.0 552818.0 0
272354.0 548701.0 0
276275.0 552208.0 0
287420.0 549243.0 0
293401.0 548465.0 0
298861.0 548598.0 0
297422.0 552893.0 0
305384.0 552123.0 0
315535.0 548672.0 0
311363.0 549725.0 0
320598.0 548298.0 0
318492.0 552064.0 0
326289.0 548505.0 0
339316.0 548231.0 0
336757.0 552447.0 0
340841.0 552219.0 0
345883.0 552427.0 0
347575.0 548083.0 0
357077.0 551331.0 0
361669.0 552720.0 0
372181.0 550789.0 0
377847.0 551095.0 0
383082.0 547970.0 0
388139.0 549230.0 0
392767.0 551315.0 0
402492.0 548834.0 0
407096.0 548141.0 0
406698.0 552154.0 0
410671.0 549740.0 0
415796.0 548130.0 0
414406.0 552666.0 0
420929.0 548715.0 0
430435.0 549923.0 0
437015.0 553215.0 0
447860.0 549119.0 0
452517.0 552737.0 0
454012.0 548063.0 0
457917.0 549619.0 0
461036.0 552026.0 0
464594.0 550029.0 0
468769.0 549913.0 0
472267.0 552930.0 0
475688.0 549971.0 0
480361.0 550118.0 0
485598.0 551773.0 0
490490.0 550305.0 0
496835.0 550526.0 0
3162.35 555413.0 0
8372.11 553856.0 0
13707.1 553850.0 0
18667.7 555428.0 0
24046.6 553641.0 0
29573.0 554178.0 0
33526.1 558015.0 0
39790.4 554235.0 0
43481.6 554053.0 0
43454.4 558091.0 0
48157.2 553603.0 0
47829.1 558176.0 0
54134.9 555048.0 0
58833.9 555594.0 0
63345.2 553281.0 0
67822.1 557106.0 0
73650.0 554335.0 0
78996.7 554328.0 0
83323.3 553741.0 0
85444.5 557720.0 0
87899.3 554394.0 0
92102.9 557891.0 0
97658.4 553440.0 0
102556.0 556661.0 0
107228.0 553177.0 0
111231.0 556987.0 0
115619.0 556824.0 0
117595.0 553610.0 0
120886.0 557396.0 0
125835.0 554321.0 0
131168.0 557173.0 0
137612.0 557649.0 0
143073.0 557656.0 0
152995.0 556408.0 0
156804.0 553715.0 0
165795.0 556874.0 0
170727.0 557195.0 0
173569.0 553310.0 0
183386.0 553412.0 0
180891.0 556701.0 0
193868.0 553246.0 0
191464.0 556740.0 0
196680.0 557391.0 0
201127.0 555347.0 0
208587.0 557459.0 0
219002.0 555931.0 0
214406.0 556769.0 0
227111.0 557143.0 0
232907.0 556868.0 0
243306.0 553010.0 0
241014.0 557266.0 0
257510.0 556746.0 0
262914.0 554090.0 0
267058.0 555902.0 0
272364.0 556815.0 0
277520.0 556842.0 0
282115.0 553149.0 0
287482.0 553971.0 0
291798.0 554085.0 0
301421.0 556752.0 0
309525.0 553808.0 0
307299.0 557814.0 0
313431.0 553411.0 0
317647.0 556537.0 0
322500.0 553071.0 0
325871.0 557712.0 0
328301.0 553539.0 0
332720.0 553786.0 0
336307.0 556936.0 0
342172.0 557564.0 0
347993.0 557626.0 0
352084.0 553548.0 0
357662.0 557072.0 0
367320.0 553241.0 0
363314.0 557505.0 0
372367.0 555975.0 0
377692.0 557015.0 0
383660.0 554090.0 0
388787.0 553790.0 0
392947.0 556989.0 0
398100.0 553212.0 0
407876.0 555588.0 0
403172.0 557512.0 0
410639.0 554004.0 0
413454.0 557585.0 0
419272.0 553907.0 0
422186.0 558215.0 0
425679.0 553387.0 0
431939.0 553747.0 0
432670.0 557906.0 0
436759.0 558056.0 0
442933.0 553489.0 0
447748.0 554635.0 0
446646.0 557975.0 0
451360.0 557723.0 0
457278.0 553543.0 0
455623.0 557175.0 0
461582.0 558018.0 0
466965.0 554147.0 0
477018.0 553854.0 0
481538.0 555270.0 0
489968.0 554579.0 0
493323.0 555733.0 0
497161.0 556246.0 0
2171.92 560557.0 0
6249.92 559573.0 0
6147.81 563386.0 0
11508.9 559620.0 0
17110.8 559548.0 0
20070.3 563176.0 0
21924.6 558690.0 0
24949.8 562783.0 0
28485.8 558991.0 0
32234.5 563249.0 0
38500.1 558560.0 0
42806.8 563043.0 0
48300.5 562942.0 0
52219.6 559232.0 0
53153.0 563489.0 0
56549.2 559422.0 0
62995.1 558831.0 0
62527.6 563099.0 0
67283.5 562695.0 0
76359.1 559058.0 0
71873.6 559722.0 0
80925.7 558358.0 0
77321.8 562299.0 0
81325.4 563395.0 0
86917.6 562645.0 0
98083.9 558808.0 0
106851.0 558847.0 0
102682.0 561436.0 0
111123.0 562317.0 0
116690.0 561434.0 0
125937.0 559398.0 0
134246.0 561350.0 0
145814.0 563104.0 0
148966.0 558555.0 0
157002.0 558380.0 0
161572.0 559132.0 0
158461.0 562891.0 0
165841.0 562087.0 0
171346.0 562400.0 0
176166.0 558107.0 0
186073.0 558254.0 0
192499.0 561178.0 0
202559.0 560186.0 0
212586.0 562478.0 0
218125.0 560570.0 0
222484.0 558347.0 0
228441.0 562568.0 0
233478.0 562122.0 0
237279.0 560141.0 0
241753.0 562551.0 0
246636.0 558749.0 0
252793.0 558290.0 0
257106.0 561302.0 0
262233.0 559100.0 0
268536.0 561859.0 0
275265.0 560735.0 0
282598.0 560188.0 0
288950.0 558667.0 0
295462.0 558159.0 0
303738.0 561128.0 0
312769.0 558502.0 0
316800.0 561333.0 0
321519.0 558901.0 0
331267.0 558644.0 0
338058.0 561229.0 0
342632.0 563011.0 0
347227.0 562544.0 0
352557.0 559329.0 0
356904.0 562783.0 0
361831.0 562099.0 0
366099.0 562785.0 0
368010.0 558852.0 0
376089.0 562564.0 0
381954.0 560785.0 0
387453.0 558819.0 0
391641.0 562940.0 0
397549.0 559957.0 0
406724.0 562485.0 0
408928.0 558851.0 0
411580.0 562508.0 0
417952.0 558416.0 0
416837.0 562881.0 0
427450.0 559758.0 0
437947.0 562230.0 0
442623.0 558948.0 0
447984.0 562134.0 0
455354.0 562466.0 0
468239.0 559153.0 0
465466.0 563289.0 0
474139.0 558454.0 0
479372.0 559266.0 0
476955.0 563168.0 0
481671.0 562996.0 0
486123.0 559075.0 0
492648.0 560012.0 0
498371.0 560291.0 0
2129.29 564771.0 0
5022.22 568429.0 0
10686.4 566266.0 0
15686.8 563764.0 0
17608.7 567546.0 0
22759.5 567921.0 0
28064.9 566653.0 0
37725.5 563485.0 0
43376.2 567919.0 0
48086.1 568179.0 0
52313.5 567877.0 0
58374.1 563291.0 0
56603.9 567923.0 0
61655.6 567267.0 0
66367.8 567820.0 0
72835.9 563929.0 0
76927.9 566295.0 0
82500.0 568050.0 0
87817.9 567922.0 0
92995.0 564444.0 0
98597.6 564043.0 0
97307.2 568113.0 0
106254.0 564782.0 0
102131.0 567229.0 0
110290.0 568062.0 0
116441.0 567108.0 0
121538.0 564035.0 0
126164.0 563386.0 0
126347.0 567525.0 0
130623.0 563961.0 0
139023.0 563808.0 0
143212.0 567587.0 0
152497.0 563204.0 0
162189.0 565387.0 0
158547.0 567692.0 0
166239.0 567421.0 0
171878.0 568261.0 0
177066.0 564332.0 0
182929.0 563458.0 0
180941.0 567737.0 0
188231.0 564037.0 0
185193.0 568204.0 0
192450.0 567499.0 0
197266.0 564082.0 0
202241.0 565583.0 0
206983.0 564609.0 0
211731.0 568177.0 0
217305.0 566740.0 0
222783.0 563244.0 0
228516.0 568014.0 0
233608.0 566936.0 0
237309.0 564243.0 0
240406.0 568211.0 0
247087.0 565156.0 0
252668.0 563787.0 0
257922.0 566357.0 0
263118.0 564704.0 0
269663.0 567542.0 0
273648.0 564994.0 0
278224.0 563631.0 0
283739.0 566549.0 0
287481.0 563400.0 0
289123.0 568272.0 0
292521.0 563571.0 0
299012.0 563596.0 0
303747.0 566067.0 0
307176.0 563588.0 0
308097.0 567533.0 0
311831.0 563349.0 0
311863.0 567754.0 0
321364.0 563310.0 0
316499.0 565883.0 0
322457.0 567999.0 0
327450.0 563731.0 0
333888.0 564008.0 0
331704.0 568151.0 0
338989.0 565746.0 0
347191.0 567449.0 0
352038.0 564206.0 0
355720.0 567088.0 0
360356.0 566999.0 0
366828.0 567903.0 0
370508.0 563211.0 0
373288.0 568187.0 0
379639.0 567753.0 0
386349.0 563787.0 0
383015.0 564918.0 0
388338.0 568169.0 0
396355.0 564061.0 0
397434.0 567630.0 0
401428.0 564243.0 0
406826.0 567925.0 0
422492.0 563445.0 0
421822.0 568054.0 0
427368.0 564999.0 0
432311.0 563363.0 0
430388.0 568295.0 0
436577.0 568306.0 0
442731.0 564479.0 0
447582.0 568215.0 0
451433.0 565667.0 0
460845.0 564435.0 0
462145.0 568304.0 0
466250.0 568034.0 0
471239.0 564567.0 0
479270.0 566007.0 0
476057.0 567367.0 0
486609.0 565713.0 0
491967.0 565193.0 0
497002.0 564438.0 0
2628.57 573015.0 0
8443.69 570794.0 0
14490.2 570098.0 0
11541.4 573367.0 0
20824.2 572677.0 0
27626.1 572367.0 0
32671.2 568923.0 0
34113.1 573338.0 0
38293.1 568730.0 0
42347.6 572605.0 0
46350.2 572699.0 0
55816.5 572550.0 0
50999.1 572763.0 0
61277.1 573154.0 0
67333.9 572642.0 0
71360.4 568589.0 0
73155.7 573412.0 0
78643.7 571834.0 0
83247.2 571992.0 0
87520.6 572752.0 0
92172.4 570285.0 0
97834.3 572088.0 0
105994.0 568925.0 0
102141.0 571783.0 0
107500.0 572820.0 0
112773.0 572422.0 0
121935.0 569315.0 0
117973.0 572948.0 0
126999.0 571947.0 0
131094.0 569397.0 0
136266.0 569247.0 0
141055.0 572379.0 0
148790.0 568657.0 0
152336.0 573322.0 0
154130.0 568704.0 0
162332.0 570067.0 0
167438.0 572270.0 0
177276.0 570252.0 0
180894.0 572728.0 0
196633.0 569699.0 0
201618.0 570703.0 0
207248.0 569525.0 0
210581.0 573210.0 0
216105.0 572764.0 0
223117.0 568968.0 0
231636.0 571705.0 0
236398.0 570112.0 0
244584.0 571358.0 0
248938.0 570165.0 0
253416.0 568805.0 0
257678.0 571924.0 0
260909.0 569152.0 0
265126.0 570115.0 0
261842.0 573005.0 0
270389.0 572663.0 0
277893.0 569116.0 0
282619.0 571513.0 0
286577.0 572584.0 0
295446.0 568625.0 0
300686.0 569278.0 0
305161.0 569538.0 0
303381.0 573087.0 0
311418.0 572976.0 0
317491.0 571748.0 0
322962.0 572958.0 0
326848.0 569705.0 0
331151.0 572694.0 0
337320.0 571506.0 0
342679.0 568983.0 0
351789.0 569359.0 0
347812.0 571837.0 0
357277.0 571664.0 0
362540.0 571355.0 0
366317.0 573180.0 0
376802.0 573147.0 0
384260.0 570603.0 0
388307.0 573369.0 0
393260.0 569132.0 0
396615.0 572711.0 0
401351.0 570386.0 0
413586.0 568375.0 0
418743.0 569672.0 0
422082.0 572466.0 0
425792.0 569177.0 0
432268.0 572384.0 0
442429.0 569368.0 0
452500.0 569189.0 0
450103.0 572883.0 0
457327.0 568431.0 0
461221.0 572575.0 0
470727.0 570694.0 0
475992.0 572178.0 0
481881.0 569027.0 0
486256.0 571216.0 0
490666.0 569581.0 0
493619.0 572698.0 0
497259.0 569967.0 0
6951.99 573735.0 0
9146.94 577443.0 0
13962.0 577717.0 0
16561.7 573727.0 0
19040.1 578051.0 0
23028.3 576007.0 0
26995.7 578500.0 0
32393.3 577592.0 0
38301.6 573817.0 0
37366.3 578351.0 0
42285.3 578081.0 0
47588.2 577478.0 0
52701.3 577490.0 0
57167.6 576868.0 0
65004.1 577262.0 0
70130.5 577570.0 0
76519.6 578139.0 0
83008.5 576328.0 0
88527.3 577755.0 0
91936.3 574884.0 0
95681.3 575434.0 0
99506.8 577724.0 0
103683.0 575697.0 0
110908.0 577426.0 0
121899.0 577486.0 0
123112.0 573843.0 0
126003.0 578042.0 0
130920.0 575330.0 0
135863.0 573783.0 0
137170.0 578305.0 0
142774.0 578410.0 0
146870.0 574267.0 0
147088.0 578410.0 0
158306.0 573726.0 0
161956.0 578219.0 0
163457.0 573966.0 0
167170.0 577463.0 0
172718.0 574790.0 0
177860.0 574570.0 0
181242.0 576609.0 0
185835.0 573916.0 0
192386.0 573512.0 0
197764.0 574374.0 0
201400.0 578338.0 0
205986.0 573459.0 0
207645.0 578245.0 0
213171.0 577612.0 0
221359.0 574198.0 0
223758.0 577997.0 0
226818.0 574064.0 0
231921.0 577012.0 0
235601.0 573401.0 0
236827.0 577104.0 0
240303.0 573916.0 0
246175.0 576390.0 0
252275.0 573727.0 0
250883.0 578171.0 0
256512.0 578291.0 0
262673.0 577049.0 0
267812.0 577368.0 0
275339.0 574306.0 0
279845.0 574428.0 0
283612.0 575152.0 0
287512.0 578094.0 0
291985.0 573477.0 0
298219.0 574305.0 0
302543.0 577383.0 0
306803.0 575925.0 0
312882.0 577710.0 0
317765.0 577871.0 0
327065.0 576647.0 0
332631.0 577744.0 0
338078.0 577972.0 0
343304.0 574591.0 0
351538.0 574443.0 0
355875.0 576849.0 0
362226.0 577413.0 0
371115.0 573778.0 0
374208.0 578200.0 0
381587.0 573762.0 0
379661.0 578178.0 0
384502.0 576549.0 0
392665.0 573860.0 0
388538.0 578046.0 0
392724.0 577685.0 0
402815.0 575557.0 0
398307.0 576965.0 0
408078.0 573906.0 0
412772.0 574491.0 0
416994.0 573569.0 0
422548.0 577872.0 0
427417.0 574125.0 0
433275.0 578526.0 0
436671.0 574341.0 0
442016.0 574530.0 0
446761.0 576020.0 0
455543.0 574256.0 0
458570.0 578423.0 0
466475.0 574072.0 0
468041.0 578339.0 0
471438.0 575773.0 0
476495.0 578092.0 0
481159.0 574343.0 0
486138.0 575890.0 0
491521.0 577248.0 0
497973.0 574609.0 0
3606.53 579037.0 0
1390.16 583408.0 0
11420.0 582511.0 0
17146.5 583102.0 0
22288.3 582452.0 0
33995.7 582815.0 0
39077.3 582994.0 0
43529.8 582843.0 0
48051.9 582676.0 0
52845.8 582204.0 0
60963.6 579467.0 0
57500.0 582987.0 0
62812.7 583496.0 0
67298.7 582187.0 0
72351.6 582095.0 0
81753.8 582953.0 0
87863.1 582400.0 0
94050.9 580328.0 0
98512.2 581516.0 0
106125.0 578710.0 0
102328.0 582224.0 0
106916.0 582502.0 0
117231.0 579297.0 0
112295.0 583341.0 0
122864.0 582204.0 0
132436.0 580782.0 0
127813.0 582476.0 0
134652.0 582558.0 0
152773.0 578548.0 0
148788.0 582349.0 0
157393.0 579043.0 0
154557.0 582610.0 0
162994.0 582640.0 0
158596.0 583451.0 0
167401.0 582598.0 0
173127.0 580767.0 0
177438.0 578548.0 0
177514.0 583237.0 0
184164.0 580414.0 0
189417.0 578680.0 0
192375.0 583139.0 0
195426.0 578675.0 0
197381.0 583305.0 0
214096.0 582993.0 0
218676.0 579229.0 0
227616.0 580254.0 0
231994.0 582480.0 0
236289.0 581116.0 0
241116.0 579624.0 0
246176.0 582558.0 0
251985.0 583045.0 0
260745.0 582285.0 0
265880.0 582405.0 0
273154.0 579447.0 0
278679.0 578761.0 0
276704.0 583420.0 0
282887.0 579487.0 0
280883.0 582665.0 0
293508.0 578783.0 0
290871.0 582756.0 0
298336.0 579141.0 0
296183.0 583348.0 0
301816.0 582290.0 0
306317.0 580008.0 0
310562.0 581197.0 0
315763.0 583116.0 0
320983.0 582799.0 0
322701.0 578537.0 0
325990.0 581795.0 0
329295.0 580215.0 0
331922.0 582193.0 0
346919.0 578521.0 0
343217.0 579711.0 0
346448.0 582609.0 0
351492.0 579597.0 0
357496.0 581234.0 0
366728.0 583259.0 0
368579.0 578534.0 0
372188.0 583325.0 0
384757.0 582280.0 0
390808.0 581845.0 0
396085.0 581499.0 0
401410.0 580112.0 0
406332.0 578981.0 0
404538.0 582891.0 0
411217.0 578519.0 0
409021.0 583081.0 0
416810.0 579269.0 0
427780.0 579828.0 0
423640.0 582828.0 0
431434.0 583083.0 0
438697.0 579059.0 0
435851.0 583059.0 0
443729.0 579609.0 0
448561.0 580191.0 0
453393.0 579519.0 0
457422.0 583078.0 0
463367.0 578769.0 0
467604.0 582847.0 0
471557.0 580096.0 0
478823.0 583401.0 0
482379.0 579566.0 0
487116.0 580487.0 0
492779.0 583057.0 0
497101.0 579221.0 0
498191.0 583572.0 0
2802.98 587234.0 0
6480.35 583982.0 0
8273.57 588637.0 0
13865.0 587791.0 0
18902.4 587751.0 0
23179.7 586594.0 0
28010.8 584465.0 0
32462.8 587478.0 0
37295.5 588047.0 0
40798.7 587614.0 0
45090.5 588163.0 0
50298.4 587513.0 0
55878.4 588049.0 0
60737.9 587374.0 0
65865.6 587383.0 0
76172.7 584113.0 0
71979.2 587542.0 0
78628.9 588277.0 0
86325.3 586571.0 0
82366.3 588651.0 0
91482.7 585996.0 0
97726.5 586087.0 0
108182.0 586620.0 0
113813.0 588629.0 0
117424.0 585166.0 0
121609.0 586461.0 0
118270.0 588680.0 0
126352.0 587441.0 0
131155.0 584711.0 0
135668.0 587246.0 0
140049.0 584010.0 0
145402.0 587351.0 0
152587.0 586276.0 0
157073.0 587949.0 0
161374.0 587238.0 0
166855.0 588632.0 0
171158.0 584966.0 0
177774.0 588134.0 0
181580.0 584096.0 0
182164.0 588110.0 0
186966.0 585896.0 0
192359.0 588293.0 0
198311.0 587476.0 0
202868.0 584729.0 0
208806.0 583813.0 0
210732.0 587828.0 0
218883.0 584601.0 0
215518.0 588576.0 0
223893.0 584085.0 0
228399.0 584442.0 0
231254.0 587037.0 0
236840.0 586578.0 0
240947.0 583729.0 0
242924.0 587049.0 0
248550.0 587961.0 0
254305.0 588245.0 0
256901.0 584195.0 0
262275.0 587371.0 0
269084.0 588278.0 0
272931.0 584401.0 0
275413.0 587874.0 0
279858.0 586701.0 0
285659.0 583738.0 0
289468.0 587789.0 0
294261.0 587866.0 0
298696.0 588626.0 0
302741.0 586800.0 0
306110.0 588008.0 0
306551.0 584075.0 0
311372.0 586936.0 0
317533.0 587367.0 0
322296.0 588077.0 0
327191.0 586457.0 0
336686.0 583858.0 0
332234.0 586106.0 0
340567.0 587234.0 0
342041.0 583745.0 0
344306.0 587194.0 0
350473.0 584386.0 0
348073.0 587852.0 0
355880.0 586963.0 0
361571.0 583949.0 0
364878.0 587799.0 0
369597.0 587938.0 0
374635.0 587179.0 0
378204.0 584007.0 0
382102.0 587176.0 0
387069.0 587673.0 0
392046.0 586928.0 0
397197.0 586599.0 0
400876.0 584304.0 0
401270.0 588392.0 0
405946.0 587298.0 0
411075.0 588128.0 0
413924.0 584110.0 0
416528.0 588567.0 0
418479.0 584175.0 0
421724.0 586758.0 0
427587.0 584722.0 0
431431.0 588235.0 0
437110.0 587843.0 0
440789.0 583834.0 0
445789.0 584010.0 0
448437.0 588541.0 0
451397.0 584081.0 0
454699.0 587747.0 0
462577.0 583953.0 0
463331.0 588191.0 0
459360.0 587726.0 0
467471.0 587906.0 0
473489.0 583745.0 0
471919.0 588378.0 0
476048.0 587327.0 0
483905.0 584334.0 0
480317.0 588022.0 0
488263.0 584492.0 0
486509.0 588104.0 0
490819.0 587691.0 0
496009.0 587391.0 0
2384.9 592289.0 0
6748.7 593265.0 0
12080.8 593646.0 0
17321.3 592289.0 0
22374.8 591411.0 0
27843.3 589796.0 0
31907.4 592148.0 0
36907.6 592989.0 0
42435.5 592780.0 0
47936.7 592408.0 0
53067.2 593105.0 0
58076.9 592469.0 0
63005.6 592035.0 0
67206.7 591609.0 0
74675.5 592705.0 0
86053.2 592513.0 0
94109.7 591295.0 0
99267.4 592176.0 0
103406.0 588945.0 0
105280.0 593015.0 0
108727.0 591281.0 0
113086.0 593658.0 0
117367.0 591685.0 0
122087.0 590977.0 0
126712.0 592804.0 0
131416.0 588794.0 0
130944.0 592967.0 0
135054.0 591803.0 0
140119.0 590180.0 0
148117.0 592565.0 0
153461.0 591348.0 0
158387.0 592109.0 0
162500.0 593208.0 0
172842.0 589088.0 0
170552.0 592936.0 0
176026.0 592672.0 0
180838.0 592626.0 0
184952.0 590919.0 0
189809.0 593802.0 0
196393.0 592222.0 0
201666.0 590391.0 0
206601.0 589385.0 0
211099.0 592457.0 0
221119.0 588761.0 0
222117.0 593727.0 0
226742.0 589920.0 0
232538.0 592022.0 0
237455.0 591907.0 0
242249.0 592585.0 0
253539.0 593533.0 0
258455.0 591662.0 0
263012.0 593204.0 0
273618.0 593325.0 0
278858.0 591392.0 0
283862.0 588893.0 0
282445.0 592952.0 0
292823.0 592632.0 0
303144.0 591212.0 0
308063.0 591596.0 0
313120.0 593241.0 0
318660.0 592079.0 0
325648.0 592553.0 0
330465.0 590154.0 0
335929.0 589859.0 0
342079.0 592094.0 0
351171.0 591703.0 0
359329.0 592158.0 0
364379.0 592638.0 0
368765.0 592507.0 0
373367.0 591349.0 0
378960.0 590795.0 0
384014.0 590655.0 0
387447.0 592994.0 0
391700.0 592018.0 0
397522.0 592074.0 0
408121.0 591586.0 0
403453.0 593600.0 0
412410.0 592680.0 0
416560.0 593249.0 0
421111.0 591748.0 0
425826.0 589016.0 0
428788.0 593543.0 0
434880.0 592674.0 0
442570.0 589213.0 0
447852.0 593051.0 0
444429.0 593723.0 0
452427.0 592317.0 0
457328.0 591755.0 0
462223.0 593597.0 0
467411.0 592585.0 0
471764.0 592516.0 0
476988.0 592604.0 0
483392.0 592279.0 0
488779.0 591938.0 0
493232.0 591383.0 0
497709.0 591920.0 0
2460.4 597119.0 0
7838.81 598178.0 0
13681.1 598763.0 0
16951.5 596278.0 0
23377.8 596703.0 0
27432.4 594140.0 0
28943.8 598583.0 0
33786.5 597073.0 0
38820.9 597447.0 0
43136.6 598140.0 0
47394.8 597198.0 0
52323.9 598528.0 0
61164.5 596268.0 0
57000.4 596889.0 0
65072.8 597513.0 0
69805.5 595457.0 0
73932.2 598054.0 0
79795.7 594005.0 0
77500.0 598028.0 0
82721.2 598040.0 0
91196.4 596005.0 0
87104.6 598256.0 0
96682.4 596747.0 0
102407.0 596081.0 0
108312.0 596900.0 0
117182.0 596339.0 0
122620.0 596745.0 0
128255.0 597491.0 0
133638.0 596855.0 0
138777.0 597113.0 0
143018.0 594810.0 0
147061.0 597733.0 0
152813.0 597287.0 0
158623.0 596591.0 0
163085.0 598645.0 0
166119.0 594748.0 0
170476.0 597717.0 0
175762.0 597622.0 0
181181.0 598157.0 0
184473.0 594802.0 0
186377.0 598663.0 0
196373.0 598078.0 0
200794.0 595572.0 0
205754.0 594604.0 0
210120.0 598130.0 0
216891.0 594190.0 0
215164.0 598759.0 0
219868.0 598432.0 0
227570.0 594606.0 0
225023.0 598069.0 0
230939.0 597977.0 0
237001.0 596804.0 0
247966.0 593936.0 0
253481.0 598896.0 0
258363.0 596850.0 0
263583.0 598198.0 0
267591.0 594440.0 0
274211.0 598671.0 0
279722.0 597071.0 0
286907.0 593960.0 0
289675.0 597991.0 0
293764.0 597821.0 0
298596.0 594443.0 0
303292.0 598423.0 0
308659.0 596485.0 0
313224.0 598700.0 0
317811.0 597087.0 0
321201.0 598617.0 0
321823.0 595428.0 0
325611.0 598344.0 0
330648.0 595515.0 0
334876.0 596927.0 0
337264.0 594512.0 0
339205.0 598734.0 0
344521.0 597880.0 0
347057.0 594204.0 0
350557.0 597647.0 0
356688.0 597083.0 0
361691.0 596198.0 0
366728.0 598032.0 0
377331.0 594922.0 0
373036.0 597089.0 0
378018.0 598693.0 0
382864.0 595925.0 0
388573.0 597578.0 0
393770.0 596552.0 0
399194.0 597878.0 0
408960.0 596301.0 0
414048.0 597410.0 0
419172.0 596919.0 0
423807.0 595993.0 0
427482.0 598629.0 0
432756.0 597612.0 0
436015.0 596432.0 0
439880.0 594309.0 0
443552.0 597803.0 0
447353.0 596384.0 0
451903.0 597994.0 0
457436.0 596664.0 0
467714.0 597686.0 0
471987.0 596240.0 0
475788.0 598438.0 0
480518.0 596885.0 0
485753.0 597869.0 0
491438.0 596091.0 0
497330.0 596779.0 0
2997.04 602540.0 0
13860.6 603716.0 0
19433.8 601022.0 0
25082.9 601110.0 0
29641.3 603285.0 0
34985.4 602195.0 0
40749.8 601848.0 0
46360.0 601871.0 0
50741.2 603517.0 0
55313.0 603079.0 0
60068.3 601173.0 0
65750.1 602344.0 0
71984.0 602886.0 0
81121.5 601625.0 0
77490.7 602489.0 0
85449.7 602943.0 0
91035.1 601456.0 0
97772.5 602284.0 0
103310.0 602025.0 0
109335.0 603204.0 0
113439.0 599344.0 0
115300.0 603094.0 0
117686.0 600771.0 0
121390.0 602039.0 0
126610.0 602763.0 0
136515.0 600924.0 0
142489.0 600126.0 0
147124.0 603283.0 0
154248.0 603718.0 0
159768.0 602367.0 0
166741.0 599236.0 0
164304.0 603033.0 0
168578.0 602222.0 0
173352.0 602187.0 0
178205.0 602987.0 0
182321.0 602709.0 0
186866.0 603865.0 0
191290.0 599966.0 0
197453.0 603172.0 0
200681.0 599947.0 0
202894.0 603788.0 0
205060.0 599561.0 0
207648.0 602896.0 0
212871.0 602751.0 0
217500.0 602416.0 0
221894.0 603240.0 0
227083.0 603304.0 0
232728.0 603638.0 0
237676.0 602162.0 0
242003.0 599459.0 0
247747.0 600002.0 0
259726.0 601048.0 0
256216.0 602894.0 0
262945.0 602809.0 0
269096.0 599637.0 0
272795.0 602886.0 0
277521.0 602693.0 0
285281.0 599411.0 0
282443.0 603048.0 0
289471.0 602279.0 0
294643.0 602738.0 0
297896.0 599345.0 0
299802.0 602971.0 0
307672.0 600749.0 0
311275.0 603658.0 0
316904.0 602670.0 0
322096.0 602187.0 0
326802.0 603747.0 0
332771.0 601716.0 0
338008.0 603529.0 0
342456.0 603534.0 0
347320.0 602133.0 0
351872.0 602584.0 0
356816.0 603102.0 0
362077.0 601718.0 0
366816.0 603459.0 0
371340.0 602542.0 0
376731.0 603287.0 0
381829.0 601937.0 0
386972.0 602338.0 0
392300.0 601972.0 0
402509.0 602456.0 0
398132.0 603864.0 0
404504.0 599031.0 0
410721.0 601069.0 0
415593.0 602371.0 0
421366.0 602219.0 0
427141.0 603919.0 0
433020.0 603635.0 0
438387.0 600216.0 0
447205.0 600610.0 0
451037.0 603573.0 0
456721.0 602462.0 0
462248.0 599549.0 0
466320.0 603946.0 0
471477.0 601603.0 0
481719.0 601376.0 0
490330.0 602032.0 0
496748.0 602591.0 0
2069.73 608341.0 0
8389.13 604205.0 0
5842.11 607796.0 0
11553.2 608371.0 0
18422.7 607152.0 0
23317.1 605321.0 0
28926.4 607955.0 0
32811.2 606140.0 0
38202.1 605336.0 0
43705.1 604272.0 0
42246.7 607454.0 0
46691.9 608017.0 0
50528.5 608466.0 0
55697.1 607895.0 0
62031.0 607514.0 0
67876.5 606908.0 0
71724.6 608214.0 0
75991.0 608519.0 0
80756.7 606140.0 0
85769.9 608421.0 0
94092.3 606355.0 0
99699.2 607397.0 0
104844.0 607014.0 0
109402.0 609049.0 0
113755.0 606753.0 0
118491.0 605958.0 0
123375.0 607106.0 0
132429.0 604051.0 0
128084.0 607807.0 0
132033.0 608820.0 0
136040.0 608043.0 0
139657.0 604588.0 0
143663.0 607079.0 0
147694.0 608660.0 0
157814.0 608683.0 0
162498.0 607016.0 0
167892.0 607596.0 0
172978.0 606699.0 0
177376.0 607830.0 0
182661.0 607531.0 0
192135.0 605182.0 0
196118.0 607277.0 0
200634.0 608399.0 0
206072.0 607879.0 0
212114.0 608468.0 0
217596.0 606966.0 0
222116.0 608278.0 0
226739.0 608484.0 0
231545.0 608781.0 0
236781.0 607512.0 0
244515.0 604133.0 0
240805.0 604666.0 0
241747.0 608321.0 0
247498.0 609086.0 0
251667.0 604168.0 0
253591.0 608900.0 0
258133.0 607010.0 0
263105.0 607147.0 0
267649.0 604835.0 0
272055.0 607465.0 0
280092.0 607472.0 0
284372.0 607250.0 0
288404.0 607113.0 0
293015.0 607326.0 0
297601.0 607080.0 0
304631.0 604273.0 0
302065.0 608649.0 0
307866.0 608060.0 0
313012.0 608613.0 0
317946.0 608002.0 0
322232.0 606506.0 0
336153.0 606852.0 0
331640.0 608019.0 0
340214.0 607813.0 0
346537.0 608141.0 0
352733.0 607262.0 0
357697.0 608317.0 0
363276.0 607423.0 0
369275.0 607667.0 0
373631.0 606320.0 0
376919.0 608091.0 0
382339.0 608182.0 0
388661.0 607077.0 0
393614.0 607057.0 0
406430.0 604070.0 0
412627.0 606046.0 0
408965.0 608670.0 0
417351.0 607148.0 0
422647.0 608115.0 0
437332.0 607854.0 0
443342.0 604219.0 0
447893.0 608075.0 0
453064.0 607902.0 0
457945.0 608453.0 0
461447.0 604565.0 0
463215.0 608712.0 0
467847.0 608733.0 0
472250.0 608054.0 0
476858.0 604492.0 0
481120.0 608340.0 0
484995.0 605166.0 0
489620.0 607835.0 0
497033.0 608730.0 0
2382.86 612734.0 0
7856.41 611601.0 0
12639.2 613023.0 0
17819.7 612733.0 0
23959.9 611209.0 0
29341.1 612528.0 0
32903.2 610287.0 0
37392.1 609483.0 0
41859.9 612796.0 0
47819.6 612881.0 0
52577.1 612481.0 0
57367.5 613176.0 0
62911.4 613851.0 0
67753.5 611688.0 0
72798.2 612472.0 0
77615.5 613044.0 0
81693.4 611146.0 0
85723.7 613504.0 0
90755.8 611262.0 0
96729.6 612649.0 0
101891.0 612034.0 0
106465.0 613229.0 0
111547.0 613909.0 0
116579.0 611244.0 0
125124.0 612890.0 0
130558.0 613457.0 0
133765.0 611849.0 0
138244.0 612705.0 0
143691.0 611781.0 0
152517.0 609290.0 0
149149.0 613980.0 0
154808.0 612747.0 0
162132.0 611680.0 0
166922.0 613324.0 0
173006.0 612227.0 0
179325.0 612803.0 0
188644.0 609306.0 0
184583.0 612803.0 0
193195.0 609487.0 0
188845.0 614031.0 0
192939.0 613440.0 0
197650.0 612693.0 0
202921.0 613401.0 0
208139.0 612675.0 0
218323.0 612047.0 0
222696.0 612191.0 0
226728.0 613353.0 0
232055.0 614067.0 0
237357.0 612975.0 0
242555.0 613000.0 0
252353.0 613835.0 0
257755.0 612428.0 0
262844.0 611837.0 0
267461.0 610156.0 0
272138.0 613812.0 0
275939.0 610091.0 0
279675.0 612879.0 0
285264.0 611840.0 0
291785.0 612713.0 0
298201.0 612537.0 0
303632.0 613074.0 0
308622.0 613732.0 0
312835.0 612785.0 0
317758.0 613883.0 0
326243.0 609133.0 0
321711.0 610434.0 0
324526.0 614108.0 0
329559.0 613515.0 0
335505.0 612644.0 0
341879.0 612906.0 0
351872.0 612559.0 0
347144.0 613957.0 0
357270.0 613502.0 0
369286.0 613025.0 0
373523.0 610484.0 0
377982.0 612310.0 0
387268.0 612670.0 0
397922.0 609170.0 0
393769.0 612735.0 0
403302.0 609309.0 0
409332.0 613575.0 0
413649.0 610702.0 0
418752.0 611967.0 0
427956.0 609265.0 0
423813.0 613578.0 0
432694.0 610766.0 0
437475.0 613186.0 0
442615.0 609870.0 0
446421.0 613049.0 0
451149.0 612464.0 0
455969.0 613108.0 0
460950.0 613519.0 0
465545.0 612681.0 0
470328.0 612855.0 0
476831.0 610328.0 0
481352.0 614055.0 0
485300.0 610061.0 0
492596.0 612494.0 0
497638.0 614001.0 0
2107.41 617166.0 0
6180.64 615985.0 0
10549.9 617266.0 0
15386.6 617429.0 0
21395.0 617238.0 0
27161.7 616774.0 0
32424.8 618457.0 0
36013.8 614345.0 0
37583.0 619137.0 0
41813.4 618081.0 0
46416.8 617970.0 0
52456.8 617207.0 0
59965.0 618270.0 0
56157.2 618714.0 0
65067.1 618811.0 0
69529.2 616356.0 0
75004.5 617821.0 0
81347.1 617090.0 0
87082.9 618414.0 0
92721.7 617129.0 0
97970.5 618105.0 0
102863.0 617011.0 0
108202.0 617993.0 0
114488.0 618671.0 0
119683.0 616188.0 0
129345.0 617442.0 0
133699.0 617246.0 0
137558.0 617319.0 0
141888.0 616625.0 0
154156.0 616840.0 0
158258.0 614270.0 0
162926.0 616837.0 0
158443.0 618485.0 0
168397.0 617855.0 0
173391.0 617658.0 0
177294.0 618359.0 0
182190.0 617605.0 0
186812.0 617102.0 0
192355.0 617876.0 0
197330.0 616933.0 0
203628.0 618962.0 0
208451.0 617388.0 0
213312.0 614472.0 0
217255.0 619047.0 0
221619.0 616177.0 0
226002.0 618174.0 0
230775.0 619306.0 0
236714.0 619105.0 0
242431.0 618059.0 0
247259.0 615451.0 0
251137.0 618538.0 0
255871.0 617680.0 0
262123.0 617939.0 0
266155.0 615643.0 0
277107.0 618536.0 0
282673.0 616414.0 0
287580.0 617458.0 0
293082.0 618743.0 0
300991.0 617575.0 0
307129.0 619115.0 0
312670.0 617382.0 0
323903.0 618618.0 0
330589.0 617378.0 0
327627.0 617482.0 0
333993.0 617903.0 0
338731.0 617624.0 0
344403.0 618680.0 0
352219.0 618774.0 0
358930.0 619152.0 0
363438.0 614455.0 0
369017.0 617847.0 0
373989.0 616138.0 0
382140.0 615141.0 0
384551.0 618980.0 0
389607.0 618474.0 0
395690.0 618775.0 0
399843.0 614496.0 0
402916.0 618535.0 0
404885.0 614654.0 0
408064.0 618987.0 0
413906.0 616754.0 0
419829.0 616981.0 0
425438.0 618283.0 0
429056.0 614261.0 0
430106.0 619214.0 0
433726.0 615979.0 0
436313.0 618126.0 0
441586.0 614352.0 0
439706.0 618322.0 0
444844.0 617772.0 0
451928.0 618366.0 0
457495.0 617405.0 0
461662.0 618136.0 0
466022.0 617131.0 0
470543.0 617583.0 0
475224.0 615885.0 0
487401.0 614464.0 0
491624.0 618220.0 0
497258.0 619064.0 0
1812.82 621074.0 0
6796.21 621267.0 0
12602.1 621808.0 0
18129.9 622106.0 0
23501.2 622938.0 0
28161.4 622396.0 0
34310.8 624173.0 0
39011.3 622869.0 0
43707.0 621962.0 0
49745.9 620732.0 0
47500.0 623425.0 0
57329.7 622842.0 0
62618.3 623357.0 0
67468.6 623105.0 0
72676.2 623539.0 0
78198.1 622719.0 0
83571.4 622499.0 0
88223.6 624142.0 0
93339.9 623191.0 0
98550.5 622560.0 0
104682.0 622016.0 0
110592.0 622643.0 0
115063.0 623773.0 0
119319.0 621684.0 0
124492.0 619376.0 0
123103.0 623582.0 0
131974.0 621876.0 0
127602.0 622637.0 0
137222.0 621513.0 0
142583.0 622073.0 0
147754.0 619706.0 0
153168.0 622702.0 0
163240.0 622025.0 0
158712.0 622610.0 0
168509.0 622789.0 0
173742.0 621926.0 0
179129.0 623415.0 0
184883.0 622444.0 0
188905.0 620185.0 0
192847.0 622982.0 0
198507.0 621566.0 0
207857.0 622022.0 0
212407.0 619342.0 0
212435.0 624129.0 0
222158.0 621409.0 0
227311.0 623523.0 0
232782.0 624190.0 0
244104.0 623422.0 0
247401.0 619888.0 0
249679.0 623114.0 0
259043.0 622622.0 0
264130.0 624184.0 0
270335.0 619385.0 0
265788.0 620500.0 0
268328.0 623784.0 0
273428.0 623556.0 0
283290.0 621365.0 0
288552.0 623342.0 0
293769.0 623973.0 0
297440.0 621021.0 0
302144.0 623219.0 0
307078.0 624292.0 0
312385.0 623545.0 0
318566.0 620647.0 0
323898.0 623595.0 0
330006.0 622280.0 0
336209.0 622071.0 0
347952.0 623203.0 0
356267.0 623638.0 0
360838.0 624245.0 0
364734.0 620676.0 0
371955.0 622011.0 0
378853.0 619364.0 0
382705.0 623215.0 0
399900.0 621010.0 0
403999.0 623610.0 0
412600.0 622242.0 0
417158.0 620937.0 0
421951.0 621764.0 0
427092.0 623545.0 0
432636.0 623769.0 0
434446.0 619859.0 0
437920.0 623009.0 0
442395.0 621868.0 0
447357.0 623003.0 0
452771.0 624249.0 0
458374.0 622829.0 0
463525.0 621686.0 0
468196.0 621786.0 0
473417.0 621160.0 0
479462.0 619366.0 0
477508.0 623056.0 0
481684.0 623256.0 0
485862.0 619983.0 0
491142.0 624387.0 0
497370.0 624414.0 0
2708.57 625505.0 0
7547.7 628458.0 0
12595.9 626817.0 0
18111.8 628359.0 0
23973.0 627959.0 0
28658.2 626836.0 0
37332.0 628533.0 0
41758.2 626640.0 0
47302.3 627752.0 0
52067.1 624683.0 0
55974.3 627886.0 0
60785.1 628144.0 0
66312.0 628203.0 0
71900.6 628873.0 0
81011.8 626985.0 0
76522.8 627377.0 0
85462.0 628183.0 0
90886.7 629024.0 0
96792.4 627584.0 0
101723.0 626150.0 0
107098.0 626882.0 0
112393.0 627328.0 0
120611.0 626957.0 0
126023.0 626631.0 0
131776.0 627923.0 0
138320.0 627218.0 0
147788.0 624757.0 0
143891.0 627059.0 0
152957.0 628617.0 0
157211.0 626855.0 0
162590.0 627458.0 0
168256.0 628390.0 0
174132.0 627550.0 0
188609.0 625927.0 0
183826.0 627990.0 0
192880.0 628733.0 0
203355.0 624696.0 0
198987.0 628956.0 0
208238.0 627969.0 0
217744.0 624543.0 0
218969.0 628674.0 0
214675.0 628945.0 0
222575.0 627840.0 0
229027.0 628458.0 0
234209.0 629222.0 0
238314.0 625362.0 0
242871.0 628865.0 0
248012.0 627871.0 0
253906.0 624685.0 0
252399.0 628271.0 0
256545.0 628725.0 0
261460.0 627811.0 0
266077.0 627934.0 0
270562.0 627667.0 0
275393.0 629514.0 0
278733.0 624877.0 0
283233.0 627830.0 0
288684.0 629186.0 0
294165.0 628866.0 0
297869.0 625597.0 0
300035.0 628611.0 0
304617.0 628413.0 0
309340.0 627901.0 0
315323.0 628344.0 0
316735.0 625059.0 0
319945.0 626064.0 0
327853.0 628761.0 0
335143.0 627474.0 0
341603.0 624717.0 0
339284.0 629090.0 0
346782.0 627757.0 0
350768.0 628707.0 0
352248.0 624955.0 0
357674.0 628596.0 0
363135.0 628469.0 0
367625.0 625149.0 0
372699.0 628547.0 0
377648.0 624649.0 0
383082.0 627719.0 0
388509.0 624900.0 0
395347.0 625187.0 0
400266.0 626543.0 0
407838.0 629181.0 0
408920.0 624916.0 0
413045.0 627721.0 0
418352.0 625723.0 0
422879.0 628824.0 0
427661.0 628339.0 0
432159.0 629013.0 0
437284.0 628229.0 0
442960.0 627313.0 0
448412.0 628435.0 0
455941.0 628271.0 0
462876.0 625647.0 0
460522.0 628915.0 0
467278.0 626977.0 0
471349.0 625122.0 0
474061.0 628114.0 0
479029.0 627605.0 0
483582.0 628843.0 0
485688.0 625309.0 0
487280.0 628959.0 0
2546.06 630755.0 0
7080.94 634343.0 0
11109.9 632016.0 0
15203.0 633150.0 0
21641.0 633761.0 0
27398.4 631811.0 0
32694.7 630140.0 0
38025.6 632980.0 0
43623.5 631284.0 0
47814.2 633067.0 0
52003.8 630422.0 0
57488.3 632177.0 0
63021.7 632441.0 0
67657.1 633427.0 0
75849.5 631872.0 0
71898.1 633465.0 0
81411.0 632522.0 0
86785.3 632866.0 0
97517.1 633099.0 0
103351.0 631526.0 0
109333.0 632270.0 0
116486.0 631396.0 0
122331.0 631727.0 0
127328.0 631824.0 0
131744.0 633048.0 0
136257.0 632832.0 0
142976.0 632541.0 0
148273.0 629711.0 0
154718.0 632690.0 0
158950.0 630890.0 0
165044.0 631610.0 0
169373.0 633870.0 0
174304.0 632927.0 0
178985.0 630931.0 0
183326.0 634492.0 0
188160.0 631653.0 0
192931.0 633574.0 0
197040.0 633716.0 0
203848.0 629561.0 0
202597.0 633626.0 0
207667.0 633435.0 0
212319.0 633226.0 0
217640.0 633623.0 0
222896.0 633181.0 0
226881.0 631993.0 0
231075.0 633419.0 0
238654.0 630368.0 0
236010.0 633756.0 0
240836.0 633946.0 0
246057.0 633413.0 0
251790.0 632545.0 0
257718.0 633682.0 0
262803.0 632719.0 0
268295.0 632453.0 0
273325.0 634547.0 0
278529.0 634019.0 0
282977.0 632419.0 0
286980.0 634435.0 0
292303.0 634042.0 0
297712.0 632480.0 0
303255.0 633540.0 0
308219.0 632320.0 0
311970.0 630430.0 0
312665.0 634339.0 0
317575.0 632903.0 0
322239.0 630170.0 0
327037.0 634280.0 0
332560.0 633137.0 0
338592.0 633292.0 0
343035.0 630477.0 0
344347.0 634240.0 0
348027.0 632357.0 0
352593.0 632155.0 0
356666.0 634048.0 0
367260.0 629819.0 0
362513.0 634176.0 0
374532.0 634236.0 0
379026.0 629751.0 0
382500.0 633006.0 0
378288.0 634241.0 0
386353.0 629964.0 0
387409.0 633873.0 0
391663.0 630806.0 0
395768.0 633673.0 0
398383.0 629594.0 0
403004.0 629666.0 0
400104.0 633868.0 0
405880.0 633479.0 0
411180.0 633398.0 0
417165.0 632170.0 0
422704.0 634535.0 0
427135.0 632344.0 0
431510.0 634256.0 0
437130.0 633771.0 0
442072.0 632541.0 0
447031.0 633581.0 0
452145.0 631798.0 0
456786.0 634117.0 0
461631.0 633091.0 0
466608.0 633893.0 0
470441.0 630670.0 0
475239.0 633333.0 0
481094.0 632750.0 0
486602.0 633529.0 0
491742.0 630631.0 0
497342.0 629686.0 0
498259.0 633982.0 0
2127.74 635403.0 0
8754.87 639233.0 0
11910.3 636098.0 0
17392.3 637080.0 0
21780.4 638811.0 0
26481.4 637359.0 0
33093.1 636720.0 0
38654.6 639009.0 0
42268.9 635721.0 0
46766.8 637858.0 0
53156.0 636849.0 0
60086.0 636671.0 0
65239.3 637713.0 0
70172.7 637780.0 0
73872.8 639327.0 0
76582.7 636653.0 0
81612.3 638707.0 0
86847.4 637446.0 0
91886.2 635421.0 0
97267.4 639074.0 0
103415.0 637850.0 0
109110.0 637722.0 0
113063.0 635584.0 0
117050.0 636871.0 0
113532.0 639656.0 0
119949.0 634729.0 0
122922.0 636999.0 0
127687.0 636924.0 0
133355.0 638063.0 0
139332.0 637425.0 0
145027.0 638788.0 0
149315.0 634876.0 0
149967.0 639469.0 0
153892.0 637435.0 0
158669.0 635454.0 0
164088.0 636204.0 0
168374.0 638703.0 0
177585.0 635178.0 0
173950.0 638975.0 0
179961.0 638727.0 0
188151.0 636811.0 0
184439.0 639256.0 0
192905.0 638433.0 0
196861.0 637143.0 0
200970.0 638887.0 0
206683.0 638632.0 0
212782.0 638672.0 0
218361.0 638751.0 0
222657.0 639355.0 0
226714.0 636745.0 0
231969.0 638494.0 0
237382.0 638784.0 0
243008.0 637642.0 0
247984.0 639311.0 0
252469.0 637079.0 0
256689.0 638770.0 0
261202.0 637202.0 0
265956.0 637432.0 0
270539.0 638196.0 0
276307.0 639160.0 0
282708.0 638530.0 0
288949.0 639393.0 0
294723.0 639471.0 0
299796.0 637274.0 0
304697.0 638260.0 0
308634.0 636714.0 0
312192.0 639013.0 0
316815.0 637983.0 0
322299.0 635309.0 0
325488.0 638546.0 0
330691.0 639343.0 0
336318.0 638089.0 0
346769.0 636871.0 0
341898.0 637892.0 0
351953.0 637200.0 0
358900.0 637732.0 0
369237.0 634795.0 0
377537.0 637880.0 0
373676.0 638113.0 0
381320.0 637380.0 0
386283.0 638851.0 0
391094.0 636340.0 0
394765.0 639504.0 0
399274.0 638472.0 0
404089.0 638201.0 0
408212.0 636885.0 0
411985.0 639211.0 0
417972.0 638394.0 0
427700.0 637224.0 0
424280.0 638945.0 0
431675.0 639533.0 0
436818.0 637969.0 0
441092.0 638050.0 0
446470.0 638906.0 0
451575.0 637206.0 0
456493.0 639148.0 0
461390.0 638024.0 0
466242.0 638916.0 0
471451.0 638175.0 0
478174.0 639002.0 0
482857.0 637010.0 0
487226.0 639476.0 0
494223.0 635741.0 0
497869.0 638858.0 0
3369.29 640749.0 0
9511.4 644433.0 0
12936.4 640249.0 0
18083.3 643518.0 0
24423.0 642330.0 0
35170.3 643364.0 0
39130.1 642878.0 0
43100.2 641656.0 0
49267.7 641498.0 0
53055.7 644783.0 0
57483.1 641657.0 0
62282.1 641469.0 0
66347.7 644251.0 0
71679.3 644392.0 0
76934.1 642340.0 0
85927.9 642003.0 0
91007.7 643987.0 0
92894.3 639864.0 0
96214.6 644091.0 0
101438.0 643905.0 0
107315.0 642730.0 0
117737.0 641496.0 0
123470.0 642560.0 0
129106.0 641858.0 0
133058.0 643147.0 0
138163.0 642985.0 0
143733.0 644620.0 0
148202.0 642863.0 0
157994.0 640570.0 0
153259.0 643788.0 0
163146.0 643277.0 0
169435.0 643730.0 0
174350.0 644358.0 0
183448.0 643282.0 0
178752.0 643651.0 0
188327.0 642044.0 0
192835.0 642807.0 0
197030.0 642436.0 0
202801.0 643289.0 0
208424.0 643358.0 0
213057.0 644491.0 0
217794.0 643336.0 0
222604.0 643918.0 0
227943.0 642424.0 0
233065.0 642984.0 0
237517.0 644195.0 0
241639.0 641839.0 0
245613.0 644266.0 0
250016.0 644055.0 0
254931.0 644014.0 0
261407.0 643002.0 0
268186.0 642731.0 0
273834.0 644227.0 0
279426.0 643943.0 0
283722.0 643466.0 0
287229.0 644456.0 0
291595.0 643739.0 0
296236.0 644693.0 0
301442.0 642703.0 0
308008.0 643051.0 0
313696.0 643391.0 0
318057.0 642384.0 0
321625.0 639758.0 0
326335.0 642920.0 0
321969.0 644546.0 0
335069.0 642827.0 0
340111.0 643168.0 0
347783.0 641642.0 0
353099.0 642844.0 0
361903.0 640138.0 0
357832.0 641620.0 0
361406.0 644529.0 0
366561.0 640212.0 0
371371.0 642216.0 0
376885.0 642652.0 0
382045.0 642432.0 0
385823.0 643700.0 0
390929.0 643623.0 0
397895.0 642068.0 0
401468.0 642288.0 0
407424.0 642339.0 0
413008.0 644704.0 0
422745.0 642045.0 0
418745.0 644539.0 0
427153.0 642441.0 0
431486.0 644340.0 0
436712.0 642745.0 0
441851.0 643424.0 0
445973.0 643784.0 0
451423.0 643165.0 0
457350.0 644297.0 0
461784.0 642568.0 0
465713.0 643244.0 0
471653.0 643709.0 0
476181.0 643707.0 0
482442.0 643094.0 0
492858.0 640932.0 0
497429.0 643483.0 0
3714.8 647816.0 0
13716.5 648708.0 0
23483.9 647154.0 0
29130.3 645069.0 0
33407.7 649560.0 0
40360.2 646825.0 0
47073.9 646123.0 0
61344.3 646931.0 0
66910.6 649918.0 0
72824.3 649835.0 0
77443.9 647556.0 0
81818.4 644901.0 0
86470.5 647658.0 0
91560.1 649704.0 0
96630.2 648713.0 0
101589.0 649510.0 0
107712.0 649492.0 0
113066.0 645038.0 0
118491.0 646619.0 0
127886.0 647596.0 0
134463.0 647907.0 0
140155.0 648639.0 0
148748.0 647524.0 0
153223.0 648941.0 0
158349.0 647604.0 0
168356.0 647944.0 0
164307.0 649457.0 0
172564.0 648955.0 0
178338.0 648935.0 0
183477.0 647924.0 0
188607.0 647478.0 0
194548.0 647586.0 0
199662.0 648063.0 0
203172.0 648562.0 0
207230.0 647819.0 0
212327.0 649246.0 0
217206.0 648193.0 0
222140.0 648671.0 0
227116.0 648035.0 0
232056.0 647280.0 0
236817.0 649336.0 0
241629.0 647159.0 0
246711.0 649372.0 0
251697.0 648063.0 0
257053.0 649851.0 0
263706.0 649619.0 0
268866.0 647904.0 0
273201.0 649386.0 0
278019.0 648922.0 0
283551.0 647865.0 0
287979.0 648056.0 0
292938.0 648262.0 0
296420.0 648451.0 0
300252.0 648523.0 0
306162.0 649390.0 0
312115.0 648288.0 0
317010.0 646720.0 0
321338.0 649053.0 0
326421.0 648215.0 0
330753.0 645076.0 0
332649.0 649924.0 0
337801.0 647856.0 0
342331.0 647609.0 0
347222.0 647069.0 0
357015.0 645907.0 0
352628.0 648374.0 0
366522.0 645096.0 0
363581.0 648706.0 0
369216.0 648228.0 0
373482.0 646994.0 0
378250.0 648278.0 0
387160.0 647666.0 0
382759.0 649729.0 0
391785.0 649236.0 0
396387.0 646314.0 0
402174.0 647160.0 0
408185.0 648309.0 0
413532.0 649402.0 0
423572.0 647684.0 0
427473.0 647300.0 0
432704.0 648393.0 0
437039.0 648305.0 0
442015.0 647823.0 0
448559.0 648277.0 0
453760.0 648142.0 0
458266.0 649246.0 0
462790.0 647162.0 0
467977.0 647020.0 0
473145.0 649459.0 0
479050.0 647547.0 0
484293.0 649555.0 0
487418.0 645189.0 0
488654.0 649242.0 0
492240.0 645838.0 0
493709.0 649683.0 0
497977.0 647990.0 0
3263.27 654743.0 0
8982.99 651663.0 0
14373.6 654727.0 0
19199.2 650639.0 0
23821.3 654178.0 0
27348.1 650274.0 0
28957.3 654864.0 0
38481.1 652806.0 0
44114.4 651428.0 0
50537.4 650626.0 0
48092.9 654720.0 0
56038.6 649979.0 0
58075.2 654400.0 0
61371.0 652164.0 0
64633.0 654389.0 0
74006.9 654775.0 0
77348.2 652960.0 0
81731.2 650244.0 0
86138.9 652809.0 0
90441.6 654410.0 0
95308.3 653829.0 0
100789.0 654738.0 0
112157.0 653604.0 0
114620.0 650046.0 0
122219.0 650112.0 0
117904.0 652106.0 0
127011.0 654428.0 0
132255.0 652657.0 0
137297.0 653262.0 0
144730.0 650888.0 0
148879.0 653770.0 0
154180.0 653628.0 0
159938.0 653573.0 0
169010.0 652650.0 0
173189.0 654294.0 0
177560.0 653683.0 0
181977.0 652656.0 0
187092.0 652559.0 0
192869.0 653947.0 0
198058.0 651913.0 0
202981.0 653041.0 0
208787.0 653166.0 0
214157.0 653289.0 0
218412.0 652725.0 0
222515.0 653111.0 0
226772.0 652932.0 0
232136.0 652852.0 0
238122.0 653584.0 0
242145.0 652220.0 0
247109.0 654423.0 0
252181.0 652598.0 0
257525.0 654765.0 0
261079.0 654236.0 0
269072.0 653030.0 0
274092.0 653829.0 0
278632.0 653729.0 0
283419.0 653101.0 0
287669.0 653173.0 0
291919.0 652932.0 0
296330.0 651686.0 0
300895.0 654359.0 0
305966.0 654562.0 0
310960.0 654073.0 0
316815.0 652125.0 0
323215.0 653737.0 0
328496.0 653216.0 0
332732.0 654486.0 0
341838.0 652323.0 0
336880.0 653027.0 0
347354.0 652775.0 0
352814.0 653775.0 0
358335.0 651388.0 0
367245.0 652723.0 0
362775.0 653813.0 0
373251.0 652529.0 0
378653.0 653100.0 0
387469.0 652807.0 0
383000.0 654084.0 0
391753.0 654403.0 0
395800.0 652352.0 0
401219.0 652685.0 0
406601.0 654219.0 0
411211.0 652695.0 0
414762.0 653356.0 0
418410.0 650560.0 0
428402.0 651150.0 0
423525.0 653233.0 0
433203.0 653304.0 0
438213.0 652568.0 0
442153.0 652145.0 0
446125.0 652817.0 0
451689.0 653360.0 0
456481.0 652739.0 0
460935.0 653005.0 0
466008.0 651806.0 0
470421.0 654423.0 0
480274.0 652471.0 0
484276.0 654534.0 0
490441.0 654501.0 0
497110.0 653017.0 0
2052.08 659881.0 0
8498.61 656870.0 0
19435.9 655733.0 0
22090.2 658293.0 0
26203.0 658847.0 0
33763.4 655164.0 0
32482.4 659365.0 0
37440.7 659167.0 0
43051.8 657218.0 0
48105.1 659558.0 0
52840.4 655428.0 0
56812.5 658574.0 0
62425.3 658884.0 0
68911.3 657308.0 0
73576.9 659255.0 0
77628.5 658319.0 0
81865.4 655546.0 0
87011.0 657931.0 0
92877.4 658687.0 0
97377.9 658035.0 0
106137.0 655531.0 0
102182.0 659645.0 0
106271.0 660014.0 0
110564.0 658506.0 0
116418.0 657361.0 0
121350.0 655043.0 0
121531.0 659610.0 0
133344.0 657577.0 0
142329.0 655462.0 0
138136.0 658380.0 0
146439.0 658409.0 0
151244.0 658056.0 0
156152.0 659044.0 0
161091.0 658739.0 0
165264.0 655178.0 0
170543.0 658923.0 0
176243.0 658355.0 0
182068.0 658212.0 0
188149.0 658099.0 0
193644.0 660022.0 0
198656.0 657063.0 0
202281.0 659754.0 0
205543.0 657485.0 0
212407.0 657778.0 0
216801.0 657892.0 0
221089.0 657618.0 0
226527.0 658150.0 0
231465.0 657943.0 0
236750.0 658409.0 0
243007.0 657685.0 0
247836.0 658471.0 0
251815.0 657144.0 0
256344.0 658676.0 0
261124.0 658532.0 0
266081.0 657901.0 0
271006.0 657913.0 0
276004.0 658283.0 0
282207.0 657805.0 0
286720.0 657884.0 0
291405.0 657935.0 0
295961.0 656196.0 0
301886.0 659881.0 0
307915.0 657790.0 0
315919.0 657746.0 0
311499.0 659598.0 0
321245.0 658789.0 0
325653.0 657436.0 0
330083.0 658506.0 0
335456.0 657757.0 0
341257.0 658067.0 0
347607.0 658929.0 0
353744.0 659228.0 0
360239.0 658104.0 0
366561.0 658644.0 0
371332.0 659988.0 0
374278.0 657285.0 0
378720.0 658673.0 0
383643.0 658216.0 0
388878.0 658367.0 0
393784.0 657748.0 0
398118.0 656938.0 0
402950.0 658067.0 0
407520.0 657745.0 0
411152.0 657545.0 0
417058.0 657426.0 0
422162.0 657920.0 0
427456.0 657784.0 0
432588.0 657983.0 0
437026.0 657335.0 0
442708.0 657076.0 0
448081.0 657508.0 0
452926.0 659280.0 0
457846.0 656930.0 0
462091.0 659394.0 0
466406.0 657169.0 0
472164.0 658584.0 0
475785.0 655395.0 0
480914.0 658015.0 0
486119.0 659778.0 0
497547.0 658336.0 0
3033.3 664873.0 0
6239.6 660991.0 0
8034.54 664919.0 0
12230.3 660159.0 0
12539.1 665174.0 0
17839.6 660403.0 0
20279.5 663758.0 0
23344.3 662540.0 0
29416.4 663468.0 0
41626.0 661979.0 0
46775.7 663726.0 0
52850.3 661677.0 0
57565.1 663467.0 0
62034.1 664057.0 0
66407.4 662887.0 0
71148.6 662437.0 0
75929.3 662994.0 0
81148.7 665046.0 0
82737.7 660170.0 0
87059.8 663689.0 0
92406.6 663730.0 0
96975.4 662372.0 0
101457.0 664371.0 0
106516.0 664392.0 0
112170.0 664106.0 0
118330.0 663990.0 0
126219.0 660226.0 0
123607.0 663992.0 0
130815.0 662957.0 0
135919.0 662083.0 0
142154.0 660346.0 0
139931.0 664587.0 0
143588.0 663623.0 0
147542.0 663382.0 0
152607.0 662694.0 0
157251.0 663537.0 0
161745.0 663859.0 0
165426.0 660609.0 0
168044.0 664087.0 0
172879.0 664319.0 0
177653.0 662954.0 0
181859.0 663463.0 0
187540.0 663920.0 0
192337.0 664322.0 0
198405.0 662633.0 0
202930.0 663286.0 0
208672.0 662972.0 0
213858.0 664728.0 0
216042.0 661659.0 0
220480.0 662840.0 0
225597.0 663686.0 0
230882.0 662635.0 0
235709.0 663870.0 0
240364.0 663589.0 0
246188.0 663524.0 0
253158.0 663804.0 0
259542.0 663426.0 0
264199.0 663641.0 0
268969.0 662834.0 0
273387.0 662615.0 0
278445.0 663296.0 0
283226.0 662282.0 0
287032.0 661826.0 0
291312.0 663432.0 0
296749.0 661049.0 0
300778.0 664543.0 0
306430.0 661553.0 0
310199.0 663892.0 0
316038.0 663965.0 0
322087.0 664203.0 0
326591.0 662597.0 0
331512.0 663967.0 0
337265.0 663123.0 0
342385.0 662964.0 0
346470.0 664595.0 0
350963.0 663402.0 0
357530.0 664058.0 0
363513.0 663580.0 0
368685.0 662927.0 0
375083.0 662980.0 0
379824.0 663285.0 0
384327.0 662893.0 0
392704.0 661363.0 0
389191.0 663838.0 0
397522.0 662494.0 0
402497.0 661684.0 0
402138.0 665070.0 0
407087.0 662341.0 0
413253.0 662648.0 0
418696.0 663041.0 0
423756.0 662068.0 0
428359.0 663451.0 0
433634.0 662680.0 0
438370.0 661658.0 0
442770.0 662972.0 0
448337.0 662748.0 0
453886.0 664633.0 0
457653.0 661713.0 0
461494.0 663891.0 0
467026.0 662961.0 0
472725.0 662703.0 0
476871.0 660633.0 0
477974.0 664131.0 0
481878.0 663178.0 0
489743.0 663754.0 0
493107.0 660227.0 0
494155.0 664530.0 0
497892.0 662880.0 0
8581.2 669730.0 0
14322.1 669662.0 0
17444.7 665947.0 0
24090.0 666784.0 0
20636.1 669594.0 0
27455.0 667529.0 0
30949.8 668785.0 0
36601.4 665360.0 0
39535.8 670209.0 0
42074.9 666293.0 0
50461.3 665560.0 0
46624.7 668036.0 0
50284.5 670187.0 0
54789.7 668391.0 0
60561.0 668445.0 0
65811.5 668020.0 0
72306.7 668434.0 0
78423.8 669824.0 0
82139.6 669311.0 0
85534.9 668613.0 0
91592.4 669385.0 0
97139.2 667340.0 0
103018.0 670064.0 0
109078.0 669037.0 0
113612.0 668792.0 0
121539.0 669030.0 0
127226.0 667665.0 0
133708.0 668900.0 0
140129.0 669976.0 0
144895.0 667703.0 0
149571.0 669074.0 0
154616.0 667554.0 0
159640.0 668124.0 0
167751.0 668040.0 0
163817.0 668392.0 0
171794.0 669321.0 0
177253.0 668611.0 0
183619.0 668452.0 0
188776.0 668656.0 0
192098.0 667376.0 0
197376.0 668426.0 0
203438.0 668025.0 0
213918.0 668198.0 0
209188.0 670029.0 0
217677.0 667717.0 0
222308.0 667971.0 0
227440.0 668560.0 0
232919.0 668260.0 0
238566.0 668365.0 0
242979.0 667941.0 0
247867.0 669264.0 0
251802.0 668619.0 0
255782.0 669408.0 0
260848.0 668600.0 0
265919.0 667631.0 0
271804.0 668457.0 0
276979.0 667799.0 0
282193.0 668079.0 0
287659.0 667013.0 0
291577.0 669804.0 0
296066.0 666697.0 0
300547.0 669056.0 0
305750.0 667206.0 0
311663.0 668594.0 0
321917.0 669012.0 0
327420.0 668099.0 0
332609.0 668609.0 0
337051.0 668607.0 0
341848.0 667260.0 0
351951.0 668013.0 0
347085.0 669609.0 0
362967.0 668708.0 0
367658.0 667336.0 0
372362.0 666950.0 0
376916.0 667975.0 0
382072.0 667725.0 0
387564.0 669148.0 0
393963.0 667951.0 0
399565.0 668781.0 0
405518.0 669435.0 0
411481.0 667883.0 0
417177.0 668492.0 0
423324.0 667744.0 0
429661.0 668843.0 0
437530.0 665233.0 0
435220.0 668709.0 0
440935.0 667933.0 0
446538.0 668370.0 0
451827.0 669100.0 0
458313.0 668080.0 0
464027.0 668110.0 0
469207.0 668386.0 0
473938.0 667328.0 0
478667.0 668249.0 0
483130.0 667598.0 0
487721.0 668471.0 0
492506.0 668320.0 0
497319.0 667850.0 0
2916.22 670536.0 0
1225.6 674316.0 0
6708.45 674107.0 0
11869.9 673530.0 0
17523.1 673420.0 0
21661.3 673582.0 0
25985.9 671758.0 0
35075.9 670500.0 0
31685.7 673614.0 0
37320.1 675237.0 0
42098.7 673635.0 0
46301.1 672944.0 0
52497.8 674431.0 0
58191.9 673201.0 0
63484.4 672748.0 0
68068.6 672445.0 0
71620.9 674719.0 0
76726.6 674874.0 0
81839.3 673326.0 0
86943.1 673208.0 0
97176.6 673438.0 0
107115.0 674447.0 0
102105.0 675366.0 0
112214.0 673382.0 0
116848.0 671464.0 0
122833.0 674172.0 0
128681.0 673861.0 0
139549.0 674113.0 0
144539.0 672829.0 0
148605.0 674227.0 0
153241.0 673058.0 0
158278.0 672375.0 0
162883.0 672769.0 0
168166.0 672915.0 0
174034.0 672370.0 0
177422.0 674091.0 0
181761.0 673393.0 0
186652.0 673477.0 0
192342.0 672304.0 0
197474.0 674071.0 0
201769.0 672681.0 0
206053.0 675391.0 0
214548.0 672552.0 0
218952.0 673136.0 0
222500.0 673180.0 0
226809.0 674216.0 0
232241.0 673327.0 0
237229.0 673493.0 0
242389.0 672604.0 0
247084.0 674106.0 0
252500.0 673184.0 0
256709.0 674051.0 0
261542.0 673788.0 0
267210.0 673341.0 0
272693.0 674279.0 0
277616.0 672364.0 0
282122.0 675145.0 0
286753.0 672197.0 0
291419.0 674804.0 0
296758.0 672818.0 0
302648.0 673398.0 0
307585.0 672604.0 0
312216.0 673698.0 0
316843.0 670427.0 0
320940.0 673949.0 0
316446.0 675290.0 0
326415.0 674036.0 0
331728.0 673108.0 0
337571.0 674289.0 0
342961.0 672189.0 0
347476.0 674681.0 0
352883.0 673853.0 0
357742.0 670366.0 0
366549.0 671906.0 0
362440.0 673157.0 0
372130.0 671963.0 0
376906.0 672495.0 0
381053.0 672586.0 0
385453.0 674507.0 0
391356.0 674027.0 0
396901.0 673124.0 0
401803.0 673822.0 0
407801.0 675046.0 0
412898.0 672816.0 0
417868.0 674203.0 0
422476.0 672903.0 0
426724.0 673483.0 0
432781.0 672896.0 0
437556.0 673448.0 0
442996.0 672774.0 0
448172.0 673810.0 0
452402.0 673057.0 0
456583.0 673357.0 0
461871.0 673117.0 0
467417.0 673275.0 0
472623.0 671865.0 0
477319.0 672711.0 0
482292.0 672480.0 0
488502.0 673870.0 0
493000.0 672748.0 0
497500.0 672827.0 0
2838.61 678046.0 0
8060.43 678958.0 0
13289.8 678343.0 0
18044.5 677940.0 0
22087.6 680111.0 0
27249.5 677797.0 0
32876.5 679050.0 0
42135.1 678667.0 0
47698.1 677931.0 0
52124.2 680187.0 0
56757.5 678515.0 0
62045.8 677704.0 0
67594.3 678037.0 0
73058.7 679659.0 0
78399.9 680039.0 0
84279.9 678737.0 0
91634.5 675669.0 0
89774.4 680129.0 0
94477.2 679982.0 0
99106.3 678711.0 0
104187.0 679765.0 0
108976.0 678646.0 0
112932.0 677958.0 0
115983.0 680241.0 0
118068.0 676327.0 0
122209.0 679149.0 0
135213.0 675682.0 0
139055.0 679188.0 0
143449.0 677807.0 0
147033.0 680090.0 0
151022.0 678306.0 0
157229.0 677885.0 0
162981.0 677544.0 0
167827.0 678867.0 0
172976.0 676722.0 0
178023.0 678649.0 0
183250.0 678184.0 0
188106.0 678063.0 0
192566.0 677842.0 0
197251.0 678716.0 0
202500.0 678057.0 0
208039.0 679930.0 0
212662.0 677870.0 0
217500.0 678012.0 0
222500.0 677881.0 0
227997.0 679526.0 0
232860.0 677998.0 0
237720.0 678404.0 0
242755.0 677164.0 0
247901.0 678436.0 0
252100.0 677434.0 0
256405.0 678275.0 0
260823.0 678790.0 0
265601.0 678531.0 0
270818.0 679375.0 0
277060.0 678406.0 0
282298.0 679548.0 0
286921.0 678139.0 0
292500.0 679938.0 0
298611.0 679164.0 0
304059.0 678056.0 0
308264.0 677017.0 0
312848.0 678898.0 0
318515.0 679872.0 0
323333.0 678064.0 0
327899.0 679270.0 0
333232.0 678678.0 0
337960.0 680187.0 0
342769.0 678105.0 0
351183.0 678901.0 0
357994.0 675889.0 0
362944.0 678814.0 0
368518.0 676235.0 0
373225.0 679892.0 0
378331.0 676865.0 0
382983.0 678984.0 0
388419.0 679351.0 0
393455.0 679446.0 0
398019.0 678231.0 0
403360.0 678661.0 0
407986.0 680326.0 0
412633.0 678049.0 0
417713.0 679366.0 0
422263.0 677456.0 0
426984.0 679424.0 0
430310.0 676188.0 0
434930.0 678894.0 0
441122.0 678131.0 0
452467.0 678213.0 0
459266.0 678612.0 0
464418.0 677181.0 0
469192.0 678843.0 0
474393.0 676568.0 0
479395.0 677589.0 0
483969.0 677118.0 0
488134.0 679114.0 0
492777.0 676698.0 0
497500.0 677800.0 0
1594.65 683096.0 0
5640.3 683559.0 0
10865.4 683085.0 0
17009.7 683223.0 0
23590.0 685084.0 0
28269.5 683272.0 0
33256.7 684444.0 0
37560.5 680892.0 0
38071.5 685395.0 0
42386.8 683813.0 0
47076.9 683099.0 0
51725.6 684928.0 0
57062.7 684081.0 0
62431.9 682954.0 0
67097.6 682973.0 0
71197.5 684585.0 0
76011.5 684340.0 0
81800.3 685242.0 0
87174.0 683589.0 0
91909.9 684457.0 0
97766.9 684098.0 0
103195.0 685419.0 0
108573.0 683516.0 0
113933.0 684054.0 0
119298.0 683439.0 0
128239.0 681266.0 0
134939.0 680900.0 0
133537.0 685178.0 0
138545.0 683699.0 0
143434.0 682837.0 0
147009.0 684027.0 0
151445.0 684108.0 0
157390.0 684232.0 0
162834.0 682668.0 0
167748.0 683869.0 0
173411.0 683010.0 0
177951.0 683956.0 0
181762.0 683432.0 0
187123.0 682822.0 0
193331.0 683757.0 0
198741.0 682696.0 0
202936.0 682684.0 0
207317.0 684291.0 0
212274.0 683270.0 0
217524.0 682781.0 0
222455.0 682905.0 0
226548.0 684052.0 0
231432.0 682740.0 0
236422.0 683111.0 0
241592.0 681765.0 0
247240.0 683549.0 0
253438.0 682643.0 0
258760.0 683086.0 0
262765.0 682898.0 0
267186.0 683317.0 0
273241.0 683857.0 0
277685.0 683935.0 0
281888.0 683081.0 0
286951.0 683342.0 0
290989.0 684485.0 0
296081.0 685156.0 0
301835.0 683400.0 0
306197.0 682284.0 0
310590.0 682968.0 0
315021.0 684470.0 0
320094.0 684857.0 0
325633.0 684641.0 0
331333.0 683652.0 0
336102.0 684220.0 0
342006.0 684792.0 0
347012.0 681520.0 0
351389.0 684328.0 0
356605.0 681225.0 0
361423.0 684946.0 0
367757.0 683564.0 0
378743.0 684115.0 0
384885.0 683553.0 0
389735.0 684687.0 0
394642.0 683816.0 0
399974.0 683515.0 0
404012.0 682837.0 0
407191.0 685255.0 0
412942.0 683412.0 0
418130.0 684081.0 0
422665.0 682525.0 0
427343.0 684684.0 0
431795.0 683027.0 0
436435.0 684145.0 0
441472.0 683940.0 0
446522.0 680689.0 0
451483.0 684910.0 0
457330.0 684750.0 0
462143.0 683502.0 0
467380.0 684832.0 0
473665.0 683441.0 0
484242.0 681252.0 0
479812.0 683026.0 0
487460.0 685216.0 0
492976.0 682185.0 0
497909.0 684066.0 0
2251.06 687508.0 0
5535.51 689571.0 0
10560.6 689028.0 0
17114.3 689721.0 0
22592.6 689873.0 0
27762.2 688759.0 0
33301.5 689911.0 0
38715.3 690214.0 0
47161.8 688911.0 0
53066.1 689924.0 0
58244.8 689388.0 0
63549.6 688302.0 0
68421.6 688195.0 0
72803.5 689118.0 0
77435.8 688982.0 0
82568.0 690182.0 0
87352.7 687990.0 0
92579.5 689618.0 0
98302.6 689626.0 0
102958.0 690127.0 0
107356.0 688717.0 0
112272.0 688214.0 0
117339.0 688147.0 0
121501.0 689616.0 0
123863.0 685992.0 0
125554.0 690375.0 0
128110.0 687272.0 0
131983.0 690741.0 0
137287.0 688677.0 0
142959.0 688110.0 0
148089.0 687968.0 0
153255.0 689543.0 0
162927.0 687764.0 0
158505.0 689582.0 0
167359.0 688406.0 0
172160.0 688875.0 0
177548.0 687802.0 0
182501.0 688358.0 0
186767.0 687909.0 0
191027.0 689419.0 0
197786.0 688606.0 0
203473.0 687586.0 0
208228.0 688804.0 0
213260.0 688395.0 0
218096.0 687837.0 0
222113.0 687813.0 0
225921.0 688338.0 0
230910.0 688242.0 0
236699.0 688327.0 0
242526.0 687704.0 0
248078.0 689088.0 0
252475.0 688823.0 0
256709.0 687320.0 0
261171.0 689302.0 0
266725.0 689109.0 0
272409.0 688505.0 0
277894.0 689178.0 0
283234.0 687244.0 0
288540.0 688784.0 0
293444.0 689588.0 0
301150.0 688036.0 0
307545.0 688395.0 0
313506.0 689411.0 0
318598.0 689621.0 0
323170.0 689159.0 0
327459.0 690202.0 0
332215.0 688556.0 0
337537.0 689614.0 0
342796.0 690735.0 0
347229.0 686658.0 0
351784.0 689753.0 0
347220.0 690635.0 0
356260.0 687065.0 0
363712.0 689687.0 0
367765.0 688799.0 0
372905.0 686637.0 0
377188.0 689438.0 0
382420.0 687972.0 0
386600.0 688833.0 0
392350.0 689060.0 0
397532.0 688566.0 0
402469.0 688085.0 0
406579.0 690261.0 0
411680.0 688470.0 0
417381.0 689462.0 0
422813.0 687699.0 0
427689.0 689892.0 0
432601.0 687812.0 0
438086.0 688809.0 0
443260.0 689601.0 0
446090.0 685810.0 0
448202.0 689590.0 0
452855.0 690661.0 0
457458.0 689386.0 0
462301.0 688620.0 0
467077.0 690199.0 0
472275.0 689644.0 0
477763.0 688152.0 0
482857.0 688181.0 0
487932.0 690336.0 0
492474.0 688367.0 0
497459.0 688064.0 0
42844.1 691958.0 0
297352.0 691039.0 0
359233.0 690949.0 0
372529.0 691125.0 0
POINT_DATA 5000
SCALARS Radius float 1
LOOKUP_TABLE default
4931.38 4329.05 4151.94 5337.48 6124.89 5120.0 7613.27 5529.52 5096.78 6756.95 6324.23 3843.58 3320.52 4194.5 4792.73 4736.58 3485.26 6082.81 4049.23 4685.34 4929.8 5708.81 5252.48 4780.03 4015.92 5495.39 3996.0 3856.1 4665.12 3383.4 4133.88 4834.9 3850.77 6044.04 5415.48 5085.53 3863.18 2356.98 4998.37 6182.6 5492.18 5258.36 5061.3 3642.12 3163.97 5812.43 5122.66 5906.14 5484.19 7513.1 5254.28 4436.4 5733.48 4672.91 5580.89 3588.44 5645.7 5176.86 6810.52 5840.26 3672.51 6110.27 5561.06 5073.35 3615.22 5670.04 4380.59 3589.27 6716.79 3607.45 5759.91 4951.03 4333.2 7199.21 5255.32 4523.7 6037.08 5091.39 5293.9 4129.43 4727.24 4270.53 5191.63 5344.25 4478.15 4043.57 5379.87 4501.51 5513.6 4556.36 3191.99 5110.37 4382.74 5601.05 3586.91 4651.28 3103.0 3554.9 5481.78 5542.21 4487.31 5043.05 3936.02 4044.71 5980.74 4094.62 5109.54 4927.02 5546.39 5325.36 5484.83 5538.89 5351.6 4730.36 4715.55 5867.73 3951.75 5013.56 4499.64 4375.68 5542.27 5054.98 6030.06 5170.02 3557.27 4927.31 4688.68 4402.52 4517.56 4182.53 5903.42 3968.64 3955.56 3761.32 4118.05 4366.19 5553.16 2938.66 4940.78 4231.61 4008.92 3942.53 3379.84 4827.82 5227.21 3997.1 3260.67 5123.52 4392.68 4091.31 3038.33 4295.38 7565.34 2240.39 5923.5 4612.68 3912.37 6142.94 4602.25 5082.47 4790.08 4763.45 4593.7 4150.99 5445.87 4216.92 4107.03 3771.48 5681.38 5925.6 5987.17 3708.04 6013.14 3240.09 4901.41 5664.98 5927.43 4384.42 4362.19 3693.63 4516.43 5637.59 4937.14 5816.2 5693.81 4174.52 6483.19 3829.13 5945.65 6759.9 5418.62 7021.47 5416.38 6059.59 2720.68 4955.55 5701.86 3563.63 4238.81 4468.59 5885.03 2837.58 5325.02 5200.76 5017.13 4862.64 5185.34 3673.74 4432.58 6684.56 4688.67 2635.86 5292.64 6166.5 5065.13 5936.02 5305.17 4861.08 4003.05 5390.22 4712.33 4805.87 6038.78 5697.78 4667.36 4254.17 6372.62 5090.24 5615.42 5530.87 4281.49 4973.83 6342.25 6691.39 4187.56 5344.0 4840.84 6045.46 3815.26 4704.72 4177.94 4742.68 4571.7 5782.6 5113.21 4502.5 3929.19 4271.69 5198.77 4138.42 5147.67 3979.82 2765.2 5138.31 5264.06 6327.9 6355.42 4048.37 5492.26 5690.56 4948.92 3115.91 4493.48 3307.12 5924.89 4002.16 4778.34 4138.16 3486.22 4684.5 3091.3 6230.49 6458.82 4601.27 5493.32 5740.68 5926.61 6051.14 5836.15 3261.21 4345.55 6704.06 3653.41 3871.88 5600.93 3856.01 5246.2 4390.66 5279.39 4827.23 5205.43 6116.18 7447.37 4924.6 4385.06 4733.32 7184.19 2899.43 2924.37 3867.67 4290.3 5399.73 4660.72 3888.21 5891.05 6902.81 6644.76 5629.19 4786.6 5740.84 6445.94 4310.18 7134.64 5978.9 3629.62 4997.27 5135.69 4301.06 4020.32 4290.14 4245.72 5908.1 4541.21 4344.58 5634.83 5495.84 7034.11 6261.42 4862.21 4011.77 5922.5 5499.11 3633.87 3970.25 5643.58 4292.06 5011.31 5006.58 4602.86 3688.8 4659.59 4548.16 5449.18 4220.88 5244.78 5762.84 3937.74 4749.8 6084.86 5478.92 5551.36 6894.71 4414.54 5789.98 6138.47 7054.71 3641.64 5489.43 5747.75 4277.89 5054.25 4796.33 4195.44 5539.32 5360.19 6496.85 4794.96 4874.39 5541.59 4124.71 5728.85 6337.56 4911.47 5803.39 5863.59 4381.97 6257.19 3255.82 5242.73 2812.98 4065.69 5603.15 4695.45 6052.7 3921.18 3798.62 3666.57 6392.01 5308.1 4907.89 4937.02 5655.21 4073.93 4645.41 4433.59 4320.28 5542.14 4218.06 5480.13 6308.71 4716.19 5514.76 3456.98 4877.67 3066.13 6562.18 4156.38 6048.7 5316.75 4164.68 5896.46 6268.1 5022.8 3719.84 4178.4 3784.5 3471.03 5253.55 5820.48 5011.84 2586.12 6946.21 5433.8 6125.34 4527.08 5347.48 4850.01 4810.12 2775.04 5215.05 5577.04 6318.18 5586.81 3948.17 4621.75 3369.23 4551.24 5358.59 4515.71 6519.71 6640.13 3092.35 5082.6 5210.03 5810.84 4230.54 5094.44 3748.24 4655.49 4467.94 4850.81 6038.14 2540.31 6029.66 5527.54 5573.7 5697.4 4727.62 4270.95 4055.8 7325.81 5280.17 6425.26 5143.58 6186.19 4839.34 5083.08 2980.99 6834.49 5525.39 3998.5 5938.34 4024.3 6394.38 5555.28 5169.36 4737.14 4686.65 5834.74 5556.96 5788.23 3043.85 5581.75 3599.45 6730.19 4907.06 3735.44 5163.9 6043.3 5952.75 6332.36 6122.55 2739.94 4931.53 4223.33 5911.67 6695.82 6405.76 3498.2 5794.24 5105.16 4302.5 5448.61 6006.16 6009.88 7055.53 6133.92 5669.65 5934.22 4861.06 3780.23 6481.79 5960.66 3979.26 3999.48 6608.73 4359.62 6057.22 5062.71 4497.59 5965.78 4374.35 4138.46 3821.72 4986.77 5137.34 4481.53 5330.45 4581.13 3856.59 4219.07 3610.4 6387.01 5367.52 4322.15 4714.54 3629.96 5478.47 5351.39 6142.37 6061.47 4933.21 5375.47 4723.12 5120.49 5201.36 5262.61 6302.8 5409.61 6038.2 4005.44 5206.78 5555.88 6732.43 5028.96 3866.16 6362.12 4484.76 4840.01 5611.2 7933.0 4455.12 5173.87 4894.16 5380.13 5711.87 5118.27 4941.22 5932.23 5791.61 3369.13 4479.66 5367.2 5461.13 4726.76 5839.13 5495.68 5489.34 5002.48 5708.14 5537.72 3920.42 8332.24 6155.31 5329.64 4553.56 3323.28 5709.62 5835.78 4127.74 2476.04 4678.38 5050.65 4827.33 5513.57 5013.67 5826.04 5624.49 3095.48 4166.08 5762.59 5374.51 5320.28 6739.08 4298.67 4796.58 5873.69 4203.26 4962.09 5188.81 4730.41 3745.84 5696.88 5690.26 4156.2 5975.63 5252.34 4274.61 6396.74 2965.79 6898.19 6035.6 5198.29 5423.0 5077.33 4746.52 5413.79 6338.89 6202.55 5025.39 5893.5 3320.11 5030.91 4547.19 6022.17 5119.37 3982.23 6163.38 4566.18 3459.9 4964.09 4809.42 5024.9 4306.53 5659.17 5094.81 5972.06 5713.22 5861.71 4359.04 3183.98 3794.63 4524.28 3778.1 5152.36 4511.82 5826.64 4220.65 6820.42 4816.2 6321.41 4896.52 4751.02 3372.79 5184.56 5282.64 4715.72 4669.66 4808.52 5046.33 5607.24 5053.92 6352.26 3847.38 3818.59 4863.72 6623.85 4262.82 5102.36 5065.11 4342.9 5069.84 4051.44 6049.55 4241.89 5054.74 5941.72 5991.09 3942.07 5133.97 7443.72 3937.08 5371.02 5260.34 5206.48 5729.23 5226.0 5339.78 3365.82 4123.6 4143.78 7092.87 5224.12 4850.14 7042.12 4797.52 6326.39 4471.58 4569.12 3637.61 6098.14 4472.17 6222.42 5654.31 4938.74 5470.77 4643.85 3923.03 4004.04 5607.14 5082.74 4289.17 5564.02 6072.45 4410.55 7099.43 5526.14 5315.4 6449.45 3975.31 3689.45 3824.16 5572.95 3868.18 6723.16 5584.06 7111.16 3817.13 5507.24 6851.54 4583.31 4503.89 5806.08 4997.27 4853.39 4093.08 4449.22 5543.27 4717.05 5287.2 6135.57 5998.38 4312.67 5423.8 4270.24 4989.15 5017.78 5015.69 6175.81 4727.24 6677.09 4305.57 6959.81 4829.35 5201.67 4424.7 4089.76 5526.55 3192.41 5215.15 4987.87 3315.57 5804.71 4764.96 5727.3 4242.52 5281.28 5356.51 4277.88 3057.03 4087.15 4143.08 7500.97 3948.23 5228.18 5787.31 3927.99 5868.82 4050.9 4978.31 4099.77 4981.9 4537.32 4656.78 5126.91 6600.94 4788.58 6155.1 6586.45 4709.35 4373.3 4750.78 5029.78 4538.95 4163.5 4970.88 4763.66 4666.81 5163.55 6817.32 4819.73 2965.01 6643.85 4319.79 6343.14 5501.93 5463.38 5945.21 5750.71 3474.39 4831.47 6062.05 4735.33 6915.83 5092.37 6444.77 6314.07 4287.63 5776.37 4516.28 4044.45 5125.78 5344.43 4373.47 5045.38 5350.88 5372.61 3686.21 5402.24 6480.17 5023.15 4377.07 3813.22 5101.59 5570.3 4336.42 5243.29 7589.94 3130.65 5628.24 5856.11 3327.49 4109.88 4234.94 4562.29 5013.13 5080.66 3417.33 4926.42 4164.13 4642.34 4520.1 4947.52 5874.89 4293.03 5813.4 4389.21 3791.79 4128.98 4925.44 4754.05 4951.47 6084.93 4307.28 3697.96 4739.42 4723.48 5538.93 4899.11 5020.12 4745.45 2631.9 6255.18 4668.71 4758.21 5269.18 7228.46 6362.14 6719.88 5978.82 5266.5 4523.88 4066.38 4948.98 5227.52 4414.48 4092.24 5163.02 7144.24 3600.43 4906.82 5131.24 5196.67 6496.67 5474.8 5876.71 6262.72 3664.11 6515.84 5724.64 2990.77 5965.15 4888.6 4780.2 4636.5 3382.7 4940.42 3703.1 3954.91 6471.55 5085.71 5499.39 5644.82 6263.44 5960.56 5774.97 4020.95 5462.21 6313.06 3493.7 6470.3 4200.03 4719.7 6939.12 4406.4 5411.85 4413.85 4844.57 4027.46 4470.98 5759.46 3921.08 4190.31 3627.82 5678.96 5262.19 4244.9 6070.58 6034.41 5452.83 5130.91 4948.5 4519.22 6445.22 3844.9 3695.36 4564.34 3963.86 4871.44 5076.35 4306.11 3848.93 5935.47 3402.32 5903.66 4528.49 5004.67 5365.89 5992.26 3960.8 5070.39 4980.85 5714.58 5110.45 5208.32 5248.77 3296.27 4083.97 4713.25 4607.02 5153.74 3895.51 4528.09 4165.81 5441.96 6291.51 5174.89 5882.89 6246.22 4188.32 5246.61 4100.38 3746.31 5344.77 5097.87 5027.98 4278.07 7267.18 6256.02 5320.92 4305.43 4406.1 5034.59 4942.77 4263.33 5080.18 4454.63 5912.61 3279.1 4403.98 4560.84 4729.43 5776.57 4562.74 5683.26 5598.74 5687.83 5004.23 6442.69 6320.71 4648.04 6607.87 5117.47 3163.78 4925.63 5078.86 5882.65 4918.77 5100.1 4371.99 6090.91 4946.42 3561.29 4219.78 5923.4 3295.83 5081.78 5019.93 4459.28 4260.92 6116.33 6250.23 6413.02 4863.27 3492.19 4584.5 4118.84 5122.63 5862.86 6049.79 5374.98 6345.13 5274.19 5516.95 5313.22 3905.51 3999.94 4864.22 3901.8 5511.88 5083.41 7055.42 6048.86 5486.68 4285.32 5490.43 5022.28 5197.52 4959.34 5383.07 4527.02 4531.14 5013.42 3838.56 5651.07 6020.48 6375.99 5200.05 5234.29 5313.66 5419.37 4466.03 4511.54 5409.33 5196.0 4923.9 4973.78 3329.99 3947.47 5091.68 4204.84 6243.0 6673.96 3556.85 3161.47 3435.9 6390.78 4288.3 5370.52 4652.29 4495.87 5774.81 5498.32 5527.33 5346.27 6475.1 4969.21 2691.29 2845.98 4880.14 5289.52 5314.85 5941.4 5450.44 6510.17 5742.65 5592.32 5381.16 5565.13 6193.35 6086.96 3701.27 5233.78 4806.34 5653.9 5046.21 5894.61 5139.5 7493.3 4814.55 5833.06 3527.05 5698.77 3464.83 2477.07 4721.32 3293.56 4305.16 5092.28 5274.14 4739.14 4903.82 4434.19 5746.28 5187.7 4623.61 4188.3 4963.34 3885.86 5235.29 5177.64 4378.3 4255.31 5660.16 6134.99 4479.94 5453.3 4094.73 4407.9 4718.54 4440.57 5548.29 6766.43 2315.64 4703.08 5916.16 4390.41 5226.56 5599.49 4097.57 5017.5 5563.79 6171.13 3497.9 2395.5 5941.61 4512.11 6248.6 3836.45 5683.61 5100.25 6894.26 4986.51 5339.38 5178.99 4591.87 4790.78 4247.15 6552.22 4602.85 6248.81 5872.05 5273.35 4091.8 2651.49 4645.58 5512.23 5181.4 5275.32 5985.29 4898.94 4178.15 4613.31 4733.04 6119.09 5788.66 7531.29 5069.25 5048.89 5935.03 3991.03 7435.25 6826.57 4788.87 4249.46 5965.81 3702.37 6022.72 4643.31 6917.52 5402.21 4989.09 6718.19 4982.31 4307.48 3848.54 4425.84 5331.02 4871.96 4863.23 4402.67 4470.61 4631.83 4384.88 6887.27 6008.49 4287.53 5612.21 4929.14 5945.08 3979.54 5304.13 5944.09 4863.79 4923.41 4702.06 3830.46 4497.31 6413.11 5529.42 5257.12 4965.89 5659.95 4152.85 4082.47 4453.64 5511.6 6261.75 4517.73 4338.08 5469.47 4687.64 4419.71 5037.06 4541.8 4989.56 3838.47 2588.37 6736.03 6235.57 5412.31 3623.87 3087.09 7480.41 6934.37 4890.5 6113.95 4050.08 5452.42 4901.07 5328.22 5186.3 3436.15 6853.85 4020.4 3493.47 5782.48 4933.65 5443.58 4558.46 5805.86 4049.02 4470.4 5311.03 6169.11 5255.12 5615.35 4027.09 6422.84 4502.18 5379.09 5210.48 4962.77 4853.02 6259.23 5088.44 5670.2 4711.62 4247.23 4114.24 4268.65 5349.31 4694.83 4649.22 5509.42 4354.08 4256.43 5936.36 2682.24 4520.62 3903.75 5229.48 4755.47 4485.99 5127.16 5475.8 5314.69 4244.99 6050.81 5543.46 6185.89 3997.96 4750.17 5660.85 3460.94 2330.66 3990.25 4177.19 3691.0 3587.05 4752.51 6229.37 4407.87 5282.91 3797.33 7256.35 4800.69 6566.1 3555.86 6386.78 4996.99 4456.39 4896.39 6081.14 5480.83 4607.85 4220.46 5128.57 6000.7 5604.21 4968.03 3169.67 3306.14 3361.92 5490.58 3967.48 5395.14 6213.04 6031.67 5384.76 4689.15 6138.12 4428.78 5243.43 4537.14 5551.9 2908.7 3757.34 4765.72 6415.61 4642.66 4752.14 5329.59 4888.12 4950.97 5512.16 5175.29 3197.63 5842.56 5887.15 5203.08 5374.07 5163.77 3423.15 4488.85 3731.84 3981.07 4579.69 3554.48 6496.52 5005.85 4216.17 4151.76 6484.17 4721.02 4596.75 4254.37 3374.08 4031.78 6098.1 5708.99 5687.85 5346.68 5296.29 4611.53 4285.66 4896.11 5172.53 3872.61 4135.62 5801.99 5534.94 7644.38 7552.94 6101.92 5323.3 4998.21 4635.6 4662.56 5166.79 2976.22 3405.98 5394.55 5094.52 4946.74 5996.33 5928.32 5415.19 5475.7 4612.62 4016.18 3619.07 5526.75 4275.57 5435.74 6385.23 5327.45 5560.26 6363.92 6205.93 4439.35 5830.72 6184.4 3758.07 4373.45 4236.14 5733.62 5282.51 5169.9 4460.92 5945.89 4042.28 4105.55 4340.76 5254.49 6065.22 4221.28 5514.84 3633.79 5421.53 5937.08 6070.3 5233.29 4312.56 4612.06 5204.04 4750.58 6710.88 6667.68 5235.11 5211.38 6622.11 3685.13 6790.73 4655.16 5920.32 5409.66 5251.4 3867.19 5097.69 4345.67 5857.79 4039.91 5276.7 5036.58 6119.63 5411.02 4752.9 4863.96 4287.16 5191.08 5199.44 4062.5 4435.51 4588.7 5683.95 3766.55 6027.62 5010.2 5966.61 5711.11 4575.94 4938.72 3546.71 5768.57 5564.23 5950.04 4231.83 2435.33 6401.43 4558.47 5020.71 2681.29 5094.48 5839.71 4238.4 4318.48 6132.95 5266.22 4860.33 3685.13 6004.68 4051.34 3361.26 6799.4 3627.55 6239.84 4256.67 3457.48 3931.07 6079.11 6430.39 5417.15 3688.16 4681.72 3949.6 4945.39 6326.18 3950.63 5661.62 6631.19 6648.68 4467.04 5626.61 5817.25 2983.99 2614.4 5061.98 4537.6 4923.24 4419.61 7177.44 3828.81 5309.98 4082.57 5255.18 5460.65 3004.16 4767.78 5235.17 4779.5 4421.12 4929.75 4435.36 6649.96 4303.19 5784.3 3914.2 4256.57 6088.68 4643.56 4135.08 5620.74 4778.82 6124.08 5467.84 5053.95 5926.11 5767.9 6515.8 5089.62 4590.55 4741.26 3701.16 4186.6 4255.85 4732.09 3988.3 6136.49 6543.13 4356.25 5149.72 4216.95 5776.96 5464.25 5486.48 5301.47 4617.55 6200.54 5424.88 5148.58 5415.85 4199.45 8659.64 6599.66 5469.13 4233.8 5765.42 6123.03 4997.83 4893.49 5325.44 5021.88 5956.65 4498.25 4188.87 3735.24 6574.95 4074.48 6333.29 5731.57 5997.88 5576.92 6408.83 3930.79 5226.97 4004.35 5754.18 3312.06 5180.76 3418.99 4480.95 5278.36 4409.63 5865.39 5521.25 4427.28 3082.32 3658.37 7440.72 5376.71 5703.6 4807.28 4867.08 4266.03 4713.74 5407.78 4084.49 5449.46 6179.96 6632.99 6113.54 5147.36 6260.79 3963.76 4563.46 6553.94 3062.43 5726.66 5426.78 5652.0 5463.41 5225.33 4237.98 6439.37 6045.22 4614.3 5134.39 3532.3 5769.98 5442.32 2221.99 5067.46 3580.58 4863.01 5356.79 5657.36 3619.79 5029.47 6306.21 5266.01 2978.76 5253.37 2040.66 7016.27 3685.65 3876.21 5869.4 4916.22 6022.7 5895.77 5750.07 4809.67 4757.74 6045.67 4209.49 5742.74 3821.94 4244.21 4947.24 5367.73 3645.12 3875.05 3540.11 3456.47 4652.01 5421.64 7234.66 4055.54 4886.12 6419.12 4976.12 6098.95 5453.98 3991.42 4388.63 5102.75 4597.29 4200.09 5931.77 5151.21 5398.64 6817.57 4477.04 3614.96 3886.68 5703.74 5662.55 5737.92 4360.23 5365.24 5293.51 4763.96 4446.06 5008.63 3450.93 5132.68 4993.35 6218.95 3661.9 5222.16 5370.85 5107.23 5949.46 5136.08 3178.54 3776.94 4765.02 5629.39 4448.13 2684.03 5070.29 4768.61 2261.36 5075.55 5280.69 4220.03 6923.84 5227.59 5703.07 4662.43 4630.82 4043.66 5528.53 6799.88 4540.86 5990.52 4835.83 2967.38 5604.35 4159.35 6477.91 3091.67 4081.97 5401.99 5580.92 5973.33 4347.74 3583.21 5291.9 2511.46 4009.62 4011.37 2775.69 4785.25 6519.43 5876.64 5424.46 4857.84 4908.49 4962.21 4858.44 5884.9 3468.42 4673.35 5689.26 4992.42 5297.19 4940.84 4833.46 5933.7 7248.4 5280.12 3946.28 4444.97 5984.81 5439.9 4409.27 4640.06 5471.74 3548.39 3673.28 4858.51 4207.54 3375.28 5625.65 4301.61 6107.89 4817.16 4446.84 5660.55 5148.08 4834.87 3672.21 2216.82 5760.22 5938.17 4795.43 5097.95 5108.06 3573.73 4693.52 6853.04 4745.43 5831.96 4747.55 5464.68 3056.7 3755.95 6234.32 4586.19 6625.18 5323.91 4270.74 6293.89 6595.03 4558.15 4983.39 5366.52 4690.55 5533.72 5558.68 4802.32 4010.57 4599.38 5246.47 6157.04 6191.29 4522.21 7422.36 5506.19 6719.94 4950.67 5832.37 6166.29 5453.6 5409.63 5294.77 4263.16 4709.05 3077.84 6109.49 4813.08 5860.67 5332.65 3764.1 6451.33 5413.31 6316.56 4332.87 6420.81 5208.14 4715.58 3317.83 4450.7 5151.52 5369.08 3101.75 4518.04 4766.06 2081.58 4874.18 6505.78 5461.55 3298.2 4270.15 6865.76 6449.64 6464.8 4684.44 4749.59 5799.69 5571.72 3809.69 4771.13 3208.96 7051.9 4184.23 4351.38 4144.57 5550.75 6834.41 6226.14 5466.33 3000.29 5721.05 3498.16 4247.69 4514.39 4588.99 4321.21 4344.34 3583.49 4928.27 5713.03 5052.84 4366.74 5297.16 3184.64 5206.33 5530.49 5653.03 3718.69 4514.79 6192.0 4509.89 4940.28 6752.75 5269.38 3004.34 5607.3 2928.82 4914.45 4222.4 4698.87 4000.43 3420.08 4568.41 3624.7 4912.04 4539.07 4691.91 4475.83 2685.81 5591.76 5889.35 4585.31 5010.04 4570.98 5097.45 4275.07 5825.38 2761.07 5737.75 5742.47 3778.02 6552.21 5417.8 5533.42 7132.12 3678.08 5518.57 4187.31 5463.48 3240.51 4527.99 5161.01 4376.7 4298.15 5190.61 4628.4 6051.83 4642.93 4440.81 5941.9 3973.12 6642.76 6024.75 4497.78 5567.93 5987.42 4442.22 4669.06 3012.99 4811.32 6400.08 4743.59 5829.32 3763.05 4396.25 5092.24 5549.49 3918.87 5423.42 6605.86 5012.5 5435.19 7093.13 4953.1 5818.95 4093.99 3940.49 4406.05 4680.94 5089.1 5828.35 5876.72 5236.43 5285.07 4680.14 4608.41 4083.79 4187.94 5980.59 5021.77 3796.15 4801.8 7216.98 5271.02 4209.31 5718.28 6242.79 5950.45 5088.57 5849.65 3852.6 5134.67 4165.21 4215.0 4936.96 4481.76 5452.78 5065.26 4304.41 5885.28 6579.31 5323.55 3022.6 4811.76 5313.12 5351.56 4661.03 5160.59 5262.35 4320.42 4255.34 4510.8 5064.79 5480.3 7509.24 4394.56 5896.26 5388.78 4185.61 4047.87 4573.72 5099.21 4917.99 4367.78 5146.37 4836.16 4232.16 5300.96 5151.11 5680.94 5730.33 5545.46 5193.01 4543.1 6550.44 3860.83 8325.01 3764.06 4523.39 5278.56 5434.47 5829.22 5631.14 4243.79 4343.78 5811.18 5433.65 4008.15 4887.76 7693.4 4286.49 4437.07 6184.88 5491.9 6405.0 5551.95 4659.16 2275.45 5789.55 4633.05 4901.2 4383.56 4990.79 3562.79 5166.79 4516.53 4122.92 3604.14 4452.54 5810.77 2711.19 4028.32 5474.15 7519.2 4099.92 4884.59 3858.06 4511.7 4304.63 5263.27 6300.92 4173.54 5599.29 6038.68 5046.12 4807.4 7013.17 3805.67 4601.74 6506.86 5580.34 5966.42 5775.31 4706.5 4603.5 4647.67 5375.12 4356.36 4892.44 5578.94 3746.36 7610.49 4286.17 3684.56 6028.09 5375.1 4172.6 3804.5 5498.42 3984.88 5318.53 4732.09 4281.98 7165.9 5344.83 7046.11 3427.63 4146.81 6342.48 5756.75 6101.13 5599.7 6969.28 5636.4 5698.96 4350.12 4095.75 5227.02 3603.51 5670.0 4298.45 5222.51 6609.84 4344.51 5135.96 3834.43 3781.77 5658.37 5581.55 6074.94 3474.5 5491.37 4250.88 6348.03 3475.67 5732.27 4792.39 5146.37 6917.62 4013.38 5067.56 6137.8 5263.3 3352.35 4909.65 3747.03 6523.86 4326.48 3994.07 4219.94 5907.46 3449.37 4264.91 5399.29 4909.31 6522.59 5711.62 4798.17 5425.98 6479.39 2895.63 4405.42 4997.91 5079.22 4599.81 5381.54 4714.83 6633.61 6355.68 5484.36 4478.6 3953.55 4063.9 4469.54 4314.56 5161.1 3928.53 5606.51 5740.65 3834.47 6349.67 6329.53 4590.01 6101.86 4227.41 5993.0 4803.57 4923.43 4110.59 3332.49 4847.14 5354.66 3950.27 4214.44 5378.23 4787.97 4981.43 6789.23 3989.7 4777.03 4157.29 4246.61 6813.72 5452.36 4609.02 6486.37 4638.18 4196.37 3344.57 6448.66 5220.76 6945.98 5138.2 5783.48 4449.98 4863.97 4840.44 5093.82 4587.67 4163.74 3924.14 3665.95 4296.69 6238.32 3319.67 6471.42 4076.59 5283.8 5164.1 6464.15 4707.06 4972.17 4222.77 3783.54 5268.38 5527.23 4805.33 7038.89 3863.67 4814.12 6069.3 2735.53 5887.01 5116.6 5388.39 2783.85 5335.47 4356.49 4526.81 5048.19 6799.23 4888.27 6740.71 6487.56 5971.22 4854.11 5533.19 5417.21 6602.43 3568.28 6063.64 5996.66 2995.67 7382.3 3598.08 5522.21 5698.23 4855.01 7300.58 3608.06 4923.57 3340.09 5217.95 4867.7 2279.05 4829.35 4277.24 4075.28 8137.11 5291.05 4619.2 5166.41 5067.56 2596.96 5701.75 4350.15 4139.3 3516.27 6541.45 4750.49 4643.9 5078.31 5228.75 5391.48 6047.14 5131.15 5210.38 5717.8 5116.66 3629.44 3566.79 5374.67 3299.24 6246.56 4215.2 4741.28 5069.89 2603.64 5107.0 6212.15 5327.75 4896.65 4946.23 6083.28 5211.6 4453.97 3503.41 6412.67 4701.5 4504.35 4771.65 5012.97 5589.37 5439.49 5951.81 6918.35 4834.3 6804.79 6372.13 5369.5 4428.14 6016.19 4124.49 4479.11 5714.25 6685.4 5699.53 4850.06 6332.01 7044.29 4234.18 7085.01 5980.95 6193.08 3862.77 5168.35 3185.39 3728.18 5633.61 4243.26 4153.84 5119.86 4592.15 5084.17 4901.44 3776.8 4998.22 6156.21 6104.26 5583.61 6171.71 4986.71 4668.88 4022.56 5027.43 3772.3 5522.75 6208.9 5602.53 6061.63 6545.43 6760.92 5484.32 4711.04 6650.77 4067.96 4506.18 4824.12 7104.73 6162.3 3272.75 4264.54 5261.19 7043.44 4263.78 4263.65 6106.43 4807.35 5009.83 4642.2 4811.22 3683.86 5003.78 4918.76 5293.75 4208.41 4061.6 5473.72 2856.55 4553.68 6502.97 4783.07 3758.22 4852.58 4757.2 5561.74 6100.73 5806.31 3556.79 4745.79 5456.71 7317.04 3971.08 7001.83 4036.91 4593.7 5110.11 6379.14 6639.64 5212.43 3687.65 5454.12 4887.52 5478.95 6348.54 4066.57 5642.35 5156.76 6357.47 5404.01 4891.38 5535.91 3230.13 5955.86 6176.67 5325.96 5412.24 5016.02 4581.37 4920.21 4049.16 5851.61 3936.95 5478.11 6153.94 6836.82 3858.17 4631.99 3477.1 4740.98 4078.93 5128.77 5934.82 4501.78 7122.87 5797.36 3572.94 5001.58 4729.42 5089.26 3886.72 5415.45 6592.93 5096.43 6350.71 6436.74 4653.83 2460.79 5096.24 3628.89 3908.98 6589.82 6328.42 5867.64 3619.72 4438.58 6059.93 4565.93 7107.63 5073.02 5788.97 3472.91 4989.2 3274.85 5007.21 7144.05 2970.9 4099.26 6542.5 4383.47 5971.21 5262.47 3104.96 3831.52 4991.35 4258.98 6761.81 5467.63 3903.91 5666.95 3919.62 4127.53 4474.83 5210.75 6555.44 5658.14 5826.78 4508.18 6214.73 2205.51 5175.89 5361.87 4268.19 3205.68 4374.74 4532.7 4504.86 4788.08 5975.23 4198.94 5470.04 4908.75 6556.26 6204.65 5438.92 4482.9 4349.13 4891.67 5216.26 3634.5 3851.85 6318.23 4206.98 5174.75 5932.07 6101.57 4793.65 2949.12 4532.89 4533.37 4848.46 5742.09 2779.99 5887.38 2884.65 5807.46 6942.34 3658.05 4549.69 5526.31 5030.15 3644.78 4312.15 6418.11 6015.02 5244.22 4922.49 5585.14 7039.98 4820.17 5244.98 4159.81 5792.98 4385.81 4034.05 5798.38 4456.11 5366.11 5039.12 4824.81 5769.14 7307.21 3381.82 5347.9 4646.51 4504.52 4831.93 4023.93 4928.85 5868.89 5556.0 5494.28 5610.53 5206.47 4580.06 4834.39 3926.11 5493.89 3512.94 4467.0 4994.65 4587.7 5196.92 3787.08 5644.81 5334.36 4568.64 4728.55 4929.6 5750.35 4489.99 4548.45 4551.26 5730.61 7124.45 6358.93 5064.67 3894.64 3703.49 5232.85 4062.56 6200.63 3217.67 4473.29 5079.64 6163.54 4211.82 5212.37 6003.78 5684.25 2628.22 6550.4 5036.98 3766.69 5513.8 6818.91 3503.65 4027.63 6631.28 6571.31 4392.65 6413.15 4058.87 6103.11 5048.55 4984.46 4024.31 5948.71 5844.72 3856.53 3992.97 5460.89 6040.74 5260.85 4054.22 7228.94 5393.65 4961.99 4648.21 4393.16 3311.29 6484.43 6423.81 6192.77 4458.64 4583.52 3492.83 6280.13 5832.29 4438.76 6006.89 6456.58 4960.64 4983.3 7778.01 5690.96 5124.17 3862.91 5805.1 4125.9 3419.87 4064.58 4234.88 5113.6 4384.28 5944.3 3563.14 5135.5 5640.72 5851.63 5727.79 5212.92 5615.84 4464.73 6440.38 3904.07 5545.59 3663.0 4954.81 6304.49 5755.15 4835.97 6419.64 4057.17 7066.96 2781.96 5917.34 5601.55 4462.87 5630.9 4554.68 4368.28 4692.32 4945.0 4658.11 3127.83 4212.15 5114.07 4385.49 7142.95 4383.68 6618.21 2617.39 3717.47 5144.44 4051.18 6816.66 5969.37 5034.69 996.652 4509.46 4680.69 5058.51 5965.58 4244.49 3352.34 4050.03 4901.29 4775.04 5188.53 4521.75 4882.66 5569.2 5350.88 5410.33 5420.67 4642.74 5416.45 6459.51 4955.16 4904.51 4147.31 5989.05 5751.15 5950.88 4441.22 5853.89 6551.93 4595.12 4140.4 3110.13 4386.8 4625.67 4725.01 3485.54 5966.75 5510.9 3657.69 4883.63 4971.29 5510.45 3684.15 4730.14 2606.51 3994.39 3965.3 3814.65 4128.1 5372.82 4402.17 5053.15 5127.82 5910.86 7320.78 4834.44 5782.43 4456.26 4810.98 3873.92 5091.22 5026.76 6282.38 5657.55 4546.44 4184.21 5188.82 4700.07 5043.14 4717.73 5072.5 5713.36 5748.9 5553.94 3742.31 5424.55 5134.72 4608.34 5695.79 5464.83 3622.8 5414.58 4431.23 5577.41 5740.98 4346.07 4013.86 6545.99 4218.16 2918.64 4140.92 4512.07 5984.8 5236.24 4585.04 5678.58 4263.18 6570.35 4242.63 4559.74 3269.54 5836.26 6666.67 4583.94 5046.31 4928.35 3844.54 1937.5 5849.53 3538.53 4420.11 6500.49 6127.39 4972.18 4607.18 4124.76 7200.89 4120.07 4952.52 3429.57 3840.21 6746.66 4954.76 3908.56 6735.97 5305.59 3636.15 4330.58 6114.89 5754.6 3288.01 4355.83 6870.97 2202.77 5351.86 6056.87 5474.01 4149.55 6201.86 7554.58 3380.69 5166.89 3639.44 5446.4 5725.37 3868.62 5138.33 3743.76 3425.69 4505.28 6711.21 4236.86 5393.76 4941.02 6119.99 3864.92 2955.36 4618.73 3668.93 4446.58 4009.24 7541.76 5401.4 4775.49 4681.29 3220.29 6239.68 3845.9 4439.71 5667.51 4708.31 4027.33 4198.9 5431.29 4833.67 5023.41 5325.91 4092.07 4213.05 4224.3 6203.03 5235.87 5273.37 4732.37 5810.17 4985.3 4966.07 4749.18 3669.32 4400.14 4704.92 4546.96 4316.0 4287.25 4921.1 4392.75 3814.16 4271.07 4420.6 5287.25 4770.51 4184.47 6511.37 4012.92 5759.79 4177.47 5218.42 4933.49 6139.64 4896.43 5463.06 4639.8 5260.52 3185.09 5114.23 7407.91 6015.22 4454.74 6063.44 2904.46 4826.52 5120.92 4337.32 5241.75 4731.53 4651.99 3763.9 4788.7 5863.0 5640.12 5329.76 3899.7 2403.72 4813.33 4147.49 4802.98 4833.55 4081.34 7224.99 6334.53 4844.83 5244.78 5652.87 5135.63 5018.69 6384.7 5952.38 3896.27 5807.52 5230.02 5307.35 4342.18 6016.08 4731.21 5491.63 3124.7 6102.98 5153.18 4763.4 5902.67 5454.11 5806.61 4983.1 6010.59 7123.04 5906.57 4932.29 4990.23 3784.94 5499.59 5749.6 4141.21 4174.44 4564.41 6331.74 4252.18 5951.86 4659.88 3791.41 5853.12 5157.38 5702.4 5069.9 6089.45 3306.84 3673.6 5265.21 4657.24 5866.42 4762.1 3987.69 6502.99 6219.34 4191.01 4475.38 4589.06 4920.88 5890.25 4216.44 3999.5 5034.05 4598.54 4816.51 5345.73 4770.63 3990.94 4756.8 5477.8 3986.41 4462.35 4241.68 6102.49 3469.18 5495.0 2945.34 4489.29 5064.23 4301.93 6061.85 5512.44 6449.06 4685.4 6240.42 5146.0 5721.14 4577.73 5084.5 4918.64 6638.25 5078.59 4759.99 5134.33 5419.57 5162.67 5760.98 3646.95 4705.68 5384.86 4749.96 5377.37 5869.67 5483.7 4311.48 4899.73 3152.86 5457.66 6394.19 5973.89 5963.36 5518.11 5087.14 5712.35 5169.48 4743.9 6776.22 6064.71 3719.11 4467.13 6060.17 6273.6 5136.87 5024.32 4708.17 2741.2 3779.45 5790.42 5784.37 3142.09 3682.35 5591.77 5182.13 3756.96 6110.48 6245.52 3954.77 6793.1 3125.13 6016.87 4506.66 6715.73 5209.55 5426.4 5763.05 5357.39 5076.84 5247.01 4208.37 4841.7 5685.74 952.938 5473.89 4678.7 3450.07 6215.87 5191.26 5544.27 3484.81 5308.33 4666.12 6023.07 5674.63 5340.05 5995.4 5700.79 6710.14 4426.02 4711.15 5188.22 4841.23 4357.11 5005.6 4176.32 6069.78 5532.75 6949.65 3372.95 4095.83 5676.61 5846.95 5268.15 5819.0 6347.72 4924.07 3460.93 3200.6 4629.02 5914.5 4288.45 4987.28 6206.98 6562.03 4815.47 2646.13 4368.12 4365.58 5214.4 4636.53 3629.49 5766.05 5469.35 3835.81 4019.34 4869.48 4658.24 3623.19 4906.11 4387.39 4564.1 5825.55 5509.51 4848.14 5366.22 6193.73 3742.11 4192.21 3597.43 5701.52 4158.91 5311.55 5321.17 3360.86 4869.25 5545.21 3877.8 4333.87 3667.93 5638.7 5813.79 4644.88 5293.13 7350.26 3768.46 5167.53 5003.3 4168.52 5800.81 5106.46 4068.31 5166.05 5077.29 5515.73 4850.5 5866.91 2820.07 6405.69 5129.68 4825.73 5288.33 6296.54 5797.21 6019.35 6740.35 4550.92 5146.1 6485.77 6060.06 5960.5 5393.43 4685.65 6470.23 6506.63 4140.04 5322.11 3495.3 4697.49 5735.08 4726.2 4750.81 3825.48 3810.68 2804.54 4196.62 2809.19 4916.7 5486.89 7208.19 4549.51 3587.93 4975.85 5695.25 5323.95 5716.42 5701.63 4620.95 5368.93 4488.39 5124.86 4927.73 6006.16 4602.57 3565.32 4608.62 5407.96 4071.75 4626.72 5549.71 4410.82 6443.99 3889.98 5193.58 5399.43 5117.64 3916.42 5429.3 5510.96 6653.07 4745.16 4697.91 4584.81 5071.98 5719.79 4316.5 3199.4 4371.08 7261.51 5254.24 4968.14 4914.03 5086.29 5144.56 5139.18 5551.43 3034.16 5049.99 4201.03 5001.87 5684.05 4493.79 4279.44 4899.19 5058.34 4028.22 3852.82 5487.63 4507.36 7145.73 5403.97 4795.08 6562.92 5501.73 3671.06 3612.44 7035.54 5233.76 4683.28 5679.74 4165.36 4851.18 4871.77 5811.26 6075.99 6028.63 5927.2 4419.79 5407.69 3869.39 5152.78 4117.9 4753.76 6896.55 4638.09 5377.01 5330.26 5939.22 4668.8 5125.17 4859.01 5524.45 7133.44 3953.26 4474.39 4658.59 6478.35 5453.77 4104.04 5589.53 5593.79 5025.42 5196.08 4517.29 4495.75 4849.5 6171.01 5796.26 4603.04 4870.94 5271.88 6121.56 7168.2 3763.85 3419.07 5710.33 5344.44 5131.77 6432.8 3186.07 4967.51 5173.82 7212.97 5490.64 5695.44 5034.34 3422.21 3769.2 4507.46 5036.14 5603.68 4944.51 5532.72 3220.8 5179.17 5579.39 5270.51 5148.1 5224.64 5949.73 4312.48 5527.13 6370.33 4278.57 5081.08 6318.25 6864.06 6008.81 4932.56 5192.49 3487.31 6643.4 5575.11 3918.94 4674.9 5461.72 6599.28 6224.85 5368.66 4556.19 5648.78 5226.42 4697.24 4983.43 6311.89 4217.36 6734.39 6549.8 5005.72 5368.52 5155.28 5062.77 5388.73 4884.93 4600.71 5262.79 4494.15 5035.71 4710.88 5300.17 4057.4 5534.23 4781.9 6815.96 4441.91 5828.25 4725.11 4215.05 4271.93 4604.1 5076.11 5990.75 5600.21 5467.51 5459.92 4625.53 4096.47 5114.67 5353.66 5030.33 2638.82 5234.2 4965.24 6379.38 6257.79 5353.23 6229.83 4468.26 5578.18 5293.37 5933.54 5559.79 4571.74 4096.86 3622.48 5001.51 5115.42 4369.86 5482.76 4082.4 3745.02 3720.7 4211.36 5698.53 3604.31 4450.49 3468.45 5635.32 4526.34 5610.95 5409.08 5042.75 4598.92 5241.22 6647.08 4979.52 5490.75 4407.79 5214.63 3495.68 5783.94 7362.42 4202.77 5836.14 5473.05 5537.34 5884.99 5726.42 4433.12 2549.95 3392.26 4361.24 5138.93 6406.8 7086.69 6170.9 6875.73 4436.48 6081.3 5117.52 3967.76 6213.24 5987.88 5942.45 4228.53 4150.76 6123.46 6142.88 5111.26 4574.54 5205.38 4949.55 4764.83 1969.87 3957.38 4841.28 5507.38 6889.5 4416.87 4052.43 4896.67 3934.11 6025.77 5339.6 5917.08 5483.37 3626.86 6371.96 5322.07 5770.07 5101.6 4282.11 6589.13 2347.41 4542.16 3543.37 2030.03 5527.27 5104.39 4612.13 5846.6 5327.05 5438.55 4434.65 5977.66 4523.81 5106.33 5198.94 4028.35 5464.05 5879.24 2980.31 5740.78 3148.79 4796.12 5997.91 5385.86 6791.86 4930.72 4209.0 5728.58 4887.73 6297.99 5378.24 3856.73 5817.74 5887.71 4827.61 4316.45 5285.75 5481.64 5673.75 5360.67 6263.3 3422.29 4501.05 6548.29 4114.2 5352.24 3990.96 4326.06 5034.46 5793.12 5469.17 5061.75 4373.2 6022.78 4087.32 6647.85 7025.09 5161.74 7336.37 5099.9 5118.86 4304.64 4733.79 5833.78 5758.98 5615.35 5288.64 3579.59 6161.94 5057.59 4461.14 5285.6 5615.06 5490.54 3132.34 5203.54 4047.95 6142.94 5001.69 6581.56 3980.46 5383.9 5158.44 4466.22 3886.56 4496.51 6153.71 6561.94 5259.21 5418.12 5934.05 4714.66 6771.18 4984.17 4656.01 4037.86 5602.62 5714.51 5628.97 4484.78 5157.73 5847.91 4934.66 4903.84 4109.44 4290.49 6688.53 5209.5 5065.74 5791.25 4873.23 5410.6 5453.2 6348.93 6824.53 4742.82 4332.64 4422.23 4820.68 6031.22 5485.84 6424.77 4538.89 5918.95 5689.56 5661.6 6556.86 6099.28 5385.03 3234.26 5372.25 4169.15 4778.37 5134.17 5968.54 4904.35 5592.54 4537.03 3247.97 5124.34 4904.37 4358.81 4651.64 5729.92 5757.29 5016.46 6224.13 4761.84 3769.24 3661.67 5517.65 4009.68 4622.73 2569.12 4161.32 6351.89 5932.28 6945.69 2960.5 4298.7 3902.48 4183.4 6030.39 4905.53 4823.06 7392.65 5254.49 3757.23 6828.8 6883.86 3350.99 4745.37 4065.28 5939.29 5418.98 5575.11 4052.49 5061.74 5326.03 6189.67 4948.96 5256.82 4061.87 4013.86 5165.31 3798.09 4288.5 5715.51 3721.69 4511.05 3456.3 5092.93 5881.93 2803.01 4444.0 6182.19 5327.39 5781.62 4981.81 4138.59 4970.55 4938.33 4621.33 4541.22 4946.08 4984.01 3539.68 6217.33 4557.1 5927.1 6175.27 5876.51 6731.89 4733.41 5264.83 3901.53 5136.51 6815.51 5232.16 4457.05 3989.26 3618.64 5703.84 4335.79 5453.69 5797.32 5432.04 3921.27 3702.45 3242.31 5265.63 4898.29 4431.06 5730.2 4830.13 3494.16 5370.9 4074.16 4529.77 4325.13 6172.27 5390.33 5078.73 5278.54 5729.0 5192.92 5275.57 4179.87 4786.66 5891.25 5370.1 5129.4 5114.51 3303.49 4655.37 5585.25 5256.75 4672.86 6530.78 5560.23 4975.32 3043.77 5237.55 3909.94 5088.64 3799.01 6589.8 3729.16 5319.1 3038.91 3783.36 4181.93 3922.28 6570.43 3445.92 3820.19 4979.5 5236.69 4586.82 6026.04 6200.05 5859.17 4034.41 5522.34 5771.98 4420.35 5717.45 5117.83 5268.27 4645.93 5448.64 4585.37 6417.61 5395.12 5783.69 6074.39 5317.83 3483.61 4256.08 4460.89 4399.52 4554.24 3939.96 5910.66 7415.84 4637.3 5141.03 4840.44 8123.59 5765.14 4767.54 5121.08 2927.84 4696.03 6177.68 4605.39 6270.59 6045.26 6500.45 4907.55 4103.76 4286.61 4094.63 2932.52 4603.66 4969.68 6636.43 5431.14 6298.8 5313.86 3689.24 5178.07 5189.91 5777.26 4171.02 3530.82 7012.36 5028.06 4886.99 4002.99 5159.67 3161.1 5764.52 5684.88 6523.78 4645.86 4045.67 5620.88 4941.52 5900.0 4262.74 6241.77 3783.79 5317.19 4248.14 5279.19 4016.6 5821.49 7050.08 5580.44 5998.13 5095.52 4746.15 3720.38 4758.84 4731.37 5023.61 4068.41 6463.71 5059.37 4139.39 5783.38 6264.03 3562.8 6920.92 3573.84 4174.22 4067.89 6294.09 4571.57 5131.07 4121.07 5524.28 3133.28 5731.43 6353.81 4150.44 3518.14 5044.68 2649.69 5899.78 5000.74 5772.57 4813.81 5244.95 4634.25 5901.8 6351.48 3830.7 6210.0 5350.9 4262.52 6738.9 5992.06 4157.1 8052.53 4867.12 6520.19 1458.87 5734.07 3997.68 6033.28 4819.83 4801.16 5071.38 5616.66 5688.77 4698.7 6229.64 2848.44 4220.43 6263.87 5743.8 5084.76 6605.11 4757.87 3557.46 5971.95 5652.73 3979.46 5151.19 6321.97 6509.54 6119.0 3792.06 4293.3 5128.59 5587.3 3572.73 4864.38 3770.22 4390.64 5150.84 4608.01 5087.97 6005.95 4308.49 4930.17 4581.1 4745.44 4085.96 5762.82 7360.12 6223.98 5462.6 5617.29 3035.06 4262.19 4597.88 4878.93 6275.25 6892.33 4505.3 4452.36 3976.0 4832.21 4511.34 4742.35 5394.79 5645.54 5264.08 4151.74 4526.87 4691.01 5192.82 5245.95 5821.42 4515.02 3463.53 6126.03 2970.24 4197.87 5105.54 5462.1 3414.67 6032.45 5444.36 4026.03 6908.32 3467.11 4817.75 6153.26 5637.53 3882.37 4095.4 5188.57 3873.79 5357.33 5432.4 5037.58 7430.48 5545.68 4970.12 6044.01 6369.66 5973.57 6241.48 6286.27 6327.54 5507.07 4802.36 5368.28 5466.13 5257.38 5075.23 4975.56 7282.36 6666.34 4645.91 6834.92 6379.33 5130.57 5402.45 3985.93 6412.84 2589.19 6071.59 6079.55 5485.61 4993.49 5310.33 6583.37 3688.83 3402.44 4848.98 4491.96 5184.98 4467.51 5339.82 4519.03 5460.57 5110.27 5703.34 4612.68 6668.98 6649.52 4232.33 4939.56 4747.68 5770.92 3093.38 4845.91 2002.78 5631.32 6322.0 5793.14 4491.26 4609.65 5704.61 5009.21 5410.73 4379.91 4574.03 5290.37 4227.66 5850.38 4594.89 4730.97 3677.85 5214.71 4677.84 4924.52 4811.11 4866.8 6044.69 5658.05 6593.1 4000.51 5011.37 2827.92 4441.44 4232.44 5336.61 5563.09 4848.15 4439.09 5523.81 4718.61 6697.45 5717.67 5515.59 5252.37 3224.81 4499.54 3775.38 4046.22 6457.89 5640.67 6572.17 6080.69 5555.89 4967.93 4766.47 5678.08 5922.62 5125.45 4414.09 5957.82 3784.68 4188.16 3717.22 4654.92 2943.17 5327.71 4880.78 4322.56 5509.09 5625.02 4829.77 3826.01 5581.01 3928.99 6959.88 4125.75 5749.53 5090.48 5034.02 5582.28 5945.25 3856.4 4696.06 4137.16 4937.36 5308.4 6581.13 4569.32 5537.61 6084.88 4397.06 4199.44 4053.12 4479.5 6261.67 3435.13 5065.78 4431.46 4521.42 3207.84 3977.98 6043.34 4128.93 4959.72 4712.17 3808.04 4723.71 4461.67 6126.5 4034.88 6007.1 6345.2 5488.96 5128.03 3720.92 4942.63 5087.3 6139.74 4975.57 7066.26 6150.31 3057.3 5873.62 4996.91 5379.52 3920.44 3768.62 5314.67 5563.47 5651.46 4066.36 3162.27 6033.93 5092.44 5516.37 5432.2 4612.4 3312.3 4746.19 6381.58 3282.57 4798.13 5648.59 4630.5 4432.32 4451.76 7885.41 5782.25 4104.97 4844.2 3751.73 3374.62 4926.62 4871.1 3917.09 6009.93 5872.45 5270.1 5191.29 4947.64 6305.9 6649.21 3470.69 4859.95 5286.55 5522.18 5223.1 3873.72 5212.05 4592.49 3625.98 5479.86 6474.5 4444.92 4702.32 5971.9 5247.73 3746.62 4876.37 4769.62 5260.13 4649.5 5181.31 5985.75 5475.83 6189.29 5984.55 5672.46 5803.3 3228.27 4721.98 5252.82 3543.98 5056.26 5878.55 4014.44 6604.72 6002.77 3794.47 4610.55 4967.02 4614.49 5400.69 4462.5 5573.31 5004.68 4023.88 5348.11 4405.61 5108.84 3511.5 5067.92 4520.14 5357.14 3188.21 5919.27 4793.06 6637.38 6188.33 6111.23 6916.18 5786.06 4137.41 3868.69 5447.74 4450.51 6033.72 3851.47 4966.74 4959.94 1635.31 5639.4 6185.73 4083.24 6520.96 3771.91 5217.62 6178.19 4616.81 5715.25 5212.2 4611.21 5108.42 3354.94 6296.36 5237.27 5767.65 4907.03 5497.27 4575.72 4081.77 5114.61 4948.21 6118.13 2181.29 4420.3 6332.64 4083.1 3482.73 5130.56 4957.99 4063.26 4997.89 4542.62 5093.28 6131.52 4132.08 6009.88 4699.77 4850.49 4981.55 5144.23 6188.62 6153.07 4763.04 4414.06 5944.52 4413.56 4532.67 5050.2 2513.38 5316.05 4908.32 3995.08 5019.84 4810.74 3900.93 5784.38 4149.17 4329.8 5728.27 3074.49 5202.33 3956.24 7558.99 3393.59 4142.1 5043.14 5333.04 5445.91 4521.99 4812.59 6842.54 7115.67 5675.45 3361.11 6038.56 2807.46 5599.16 4179.8 3488.34 5658.35 5428.24 4487.51 4582.12 4295.25 7394.47 4729.45 4850.95 5374.09 6271.22 3421.81 5378.75 3920.64 6186.24 5822.7 3780.07 5466.49 4038.17 5007.41 3692.99 4907.48 6213.74 2329.93 4369.87 6938.87 5412.07 5512.57 4806.99 4813.55 5856.43 3839.0 5349.85 5799.86 5172.1 4362.94 4469.82 6545.78 4870.14 4404.87 2932.2 5105.72 5003.49 4750.76 3964.03 4216.33 5617.91 4721.2 4987.01 4202.12 4706.31 2694.25 4735.99 6492.44 4739.56 4613.32 3996.93 5145.39 3352.46 6351.95 5195.09 5345.05 7679.2 4881.51 2626.41 4311.92 6729.99 5093.41 6842.35 5464.34 3621.63 5801.89 5908.57 7296.47 5742.39 4821.41 4924.53 5616.11 4499.52 4028.13 3874.12 4457.73 6476.35 6260.58 4067.24 3053.19 6571.26 5580.95 3549.92 6598.99 4032.06 5246.81 5089.1 5888.95 5394.78 3463.34 5122.38 2853.68 5262.85 4998.37 5329.84 6559.82 3879.83 6565.95 4577.98 5043.34 5886.81 4246.24 6805.02 5354.48 4900.26 6261.13 4167.55 4720.34 5244.47 5510.89 4731.16 4495.33 5282.67 4159.89 5178.55 5146.69 6203.24 6818.23 4488.41 6679.12 5652.19 5806.74 6578.62 6284.12 3465.03 4796.04 5229.56 6011.4 4672.34 6052.22 5376.41 5003.63 4695.7 4944.08 4082.01 5269.39 4305.35 5210.22 5832.72 2451.27 3903.9 4444.95 5161.02 3124.49 6265.48 4203.68 5003.81 6262.18 3818.37 4701.03 6225.05 5434.04 5200.1 3997.52 4444.54 5779.9 4909.74 5310.33 6664.54 5161.73 3922.98 5259.48 4777.96 4803.4 6833.5 2613.78 4780.16 3834.01 5738.37 4433.23 4813.24 5759.19 3113.64 4490.2 4304.75 5480.86 6139.9 4720.22 4313.38 5827.3 5250.56 3633.58 2468.16 6294.14 4339.97 5203.75 5169.09 4691.15 2459.88 4210.24 5470.67 5901.71 5225.11 5342.9 5252.22 5733.12 4962.35 6436.29 5402.81 4600.81 4919.13 5640.63 5168.97 4124.33 5783.88 5002.38 6705.93 4865.11 5449.09 5502.14 6470.87 4131.08 4465.56 5747.9 3864.19 4287.93 5315.71 6158.93 5081.65 4823.14 5438.5 4621.32 5699.4 3878.8 4698.94 3948.21 5669.15 5296.05 5263.86 3330.85 5056.32 5533.52 5410.33 4747.24 4380.86 5576.16 5648.02 3308.75 4439.17 5677.42 4929.35 5606.22 3943.77 5242.38 6081.35 5459.52 5566.5 5663.36 4276.59 5579.04 5125.53 5994.21 5403.81 5082.25 6964.78 5299.03 4374.05 5036.84 4565.36 5813.68 4025.08 4008.67 3618.53 5254.93 4770.21 6608.94 3796.73 5417.07 3082.16 5656.84 6789.66 4739.41 5312.2 5847.27 4706.59 5734.84 3982.31 4950.07 4582.24 2832.83 4084.87 6036.99 3010.1 3825.98 4589.22 5087.03 4667.84 3906.41 4123.08 4512.6 4260.38 4636.45 4932.27 5638.51 6793.49 3563.33 6060.19 5536.0 6786.37 4333.23 4328.76 5561.63 5940.5 4358.06 5093.51 5647.93 4280.92 6201.49 5154.74 4605.61 6898.8 5386.95 6540.57 5332.11 4893.72 6004.72 4072.4 5373.78 5345.65 4489.18 5863.36 4632.75 5237.76 4994.98 4286.84 6423.96 6058.13 6988.4 6635.51 4060.17 6051.35 5302.53 4909.13 4287.61 4867.13 4604.34 4863.27 2701.42 5442.79 5051.39 6673.92 5151.68 4884.94 5362.15 4609.98 4455.61 4738.72 4752.31 5240.97 5569.85 5405.6 3929.35 4884.93 4759.38 6960.97 4287.15 5282.51 5504.65 5669.41 5732.11 5040.9 5596.68 8013.28 3846.55 5159.9 5283.65 4644.68 2892.36 5981.54 5911.29 5416.41 4694.27 6760.64 2515.5 5177.88 5551.79 6981.47 3916.15 4474.96 4758.76 4790.63 5259.29 3584.05 4916.75 4818.53 5097.85 5584.64 6189.04 6224.64 4221.03 3799.55 5082.66 4550.77 4337.93 3550.88 4345.51 4048.73 6223.33 3860.8 5145.13 3747.96 5611.29 4521.88 6568.45 5004.22 4601.54 7263.57 4696.92 5705.96 6437.99 5739.69 6632.04 7360.62 4977.64 4985.45 4983.56 5699.51 2489.44 5499.37 4883.13 4836.76 4752.94 5551.09 3950.53 4501.1 5581.47 5894.69 6550.61 4987.01 4713.56 6094.34 6779.82 3999.81 5543.67 6210.48 6377.45 4182.05 4502.12 3255.93 6853.07 6327.61 4633.59 5733.59 5575.8 5268.93 6874.6 5106.9 5306.31 5523.96 4223.53 4733.37 4535.94 3037.72 4523.9 5126.08 5604.0 3760.4 4951.02 3919.47 4602.7 3783.35 4868.66 4037.16 4004.39 6395.63 4987.48 5943.61 4248.58 5479.17 4542.25 5020.37 4414.23 5233.88 4849.21 4785.55 3793.83 5245.4 6189.81 5367.05 4449.73 5647.11 4088.72 3945.62 3743.85 6236.46 5342.17 6379.3 5015.67 3795.63 5189.4 4576.71 6538.04 4894.15 6157.59 5201.3 5848.41 4090.28 5438.6 7370.52 4726.5 5467.05 3724.23 5103.3 4963.88 5888.94 4727.98 3832.09 5175.88 4122.2 5267.65 4790.16 3509.34 5360.88 3731.58 3166.37 5369.42 5207.08 5205.53 4714.52 4587.19 5543.05 6028.89 5333.16 4888.17 5755.98 5392.85 5077.2 4384.91 4274.05 5275.27 4277.54 5529.09 4531.46 5925.82 5448.68 4739.5 4072.95 4491.62 3865.5 3695.72 4246.83 4516.26 3647.26 
SCALARS Velocity float 1
LOOKUP_TABLE default
0.966989 0.918768 1.47363 2.00144 1.61354 1.2028 1.39171 1.44424 1.12124 1.88311 0.752469 0.399023 0.608641 0.532433 1.09659 1.0378 1.17459 1.39618 1.6522 1.61414 1.60498 1.35166 1.40943 1.43749 1.41899 1.16838 1.10839 1.23211 1.23721 1.19178 1.21964 1.22669 1.19836 1.20005 1.2039 1.20482 1.19906 1.19178 1.19178 1.19333 1.19176 1.19535 1.19178 1.19173 1.19449 1.19421 1.19191 1.1929 1.19263 1.19215 1.19322 1.19148 1.19486 1.20271 1.19208 1.19156 1.19182 1.19177 1.1927 1.19917 1.20884 1.1943 1.19254 1.23402 1.18913 1.19176 1.24403 1.16334 1.30999 1.27098 1.26044 1.41588 1.39186 1.31767 1.26222 1.34591 1.6476 1.66883 1.23781 1.9089 2.05622 0.443152 0.759456 0.850864 1.25303 1.2322 1.15158 1.08217 0.995407 1.11475 1.27961 1.31318 1.43375 1.48631 1.26545 1.24381 1.25779 1.38907 1.46186 1.2305 1.3021 1.20668 1.23917 1.25238 1.18893 1.22997 1.23861 1.23127 1.20285 1.20165 1.20479 1.20713 1.20195 1.19107 1.19382 1.19392 1.19579 1.19428 1.19077 1.19576 1.19457 1.19277 1.19148 1.19511 1.19422 1.19234 1.19216 1.19169 1.19535 1.19278 1.20009 1.19284 1.19155 1.19178 1.19176 1.19334 1.19846 1.20878 1.19178 1.19271 1.23935 1.19178 1.19178 1.24991 1.24705 1.19222 1.28611 1.26992 1.32319 1.33359 1.29994 1.39128 1.38783 1.16594 1.23232 1.74846 1.38142 1.46377 1.89577 1.00373 1.71595 1.03718 0.878144 0.884009 1.03065 0.899635 1.41296 1.28296 1.04319 1.09656 0.92522 1.04777 0.905428 1.281 1.2615 1.34048 1.34631 1.27684 1.26597 1.06528 1.18977 1.36285 1.19932 1.24553 1.24428 1.21904 1.244 1.17659 1.21603 1.2084 1.21266 1.20189 1.19074 1.1931 1.20797 1.19161 1.19597 1.19178 1.19594 1.19461 1.19279 1.19145 1.19176 1.19569 1.19307 1.19208 1.19208 1.19497 1.19591 1.1934 1.19864 1.185 1.20395 1.20363 1.20511 1.20875 1.20511 1.18942 1.24428 1.19694 1.20763 1.25619 1.25287 1.25587 1.25029 1.3253 1.29978 1.25887 1.30787 1.22377 1.09117 1.68789 1.40847 1.5551 1.21867 1.44029 1.53482 1.36569 1.2391 1.13722 0.982782 1.02036 0.909306 0.91335 0.788428 1.08106 1.06512 1.02062 0.980656 1.02783 1.028 1.81868 1.51218 1.59332 1.51999 1.38681 1.24368 1.25928 1.27912 1.11215 1.05337 1.41805 1.2921 1.31021 1.32465 1.26548 1.28661 1.1999 1.25749 1.19176 1.26341 1.23488 1.2165 1.19434 1.20353 1.19781 1.20407 1.1911 1.19757 1.18678 1.19604 1.19462 1.19608 1.19262 1.19253 1.19728 1.19572 1.19324 1.19328 1.19366 1.1988 1.19576 1.19071 1.19356 1.19302 1.18631 1.19369 1.19178 1.19178 1.19178 1.23831 1.21534 1.15408 1.20402 1.18522 1.26257 1.25507 1.21038 1.23827 1.35877 1.20809 1.20866 1.18048 1.09731 1.00923 1.2477 1.49169 1.19875 1.15674 1.58569 0.435067 1.12502 0.769416 0.869248 0.890649 0.932289 1.02026 1.01169 0.983939 1.03158 1.00648 1.07502 1.12155 1.04338 1.21769 1.42452 0.848568 1.56852 1.46306 1.33972 1.37985 1.21102 1.26926 1.13218 1.10567 1.07252 1.4506 1.30945 1.30436 1.21703 1.19757 1.23844 1.18132 1.23432 1.22171 1.20402 1.20134 1.20556 1.19017 1.20363 1.19001 1.18732 1.19478 1.18494 1.19323 1.19771 1.19353 1.18783 1.19621 1.19236 1.19269 1.19373 1.20128 1.19517 1.19129 1.19583 1.19326 1.20997 1.1977 1.19178 1.19142 1.17728 1.24012 1.20916 1.19703 1.20598 1.20379 1.21413 1.19055 1.15659 1.2278 1.19535 1.13871 1.20321 1.3273 1.022 1.4196 1.18282 1.24068 1.08722 0.923248 0.995361 1.0198 1.47193 1.37423 1.26663 0.492587 1.28203 0.934181 0.607311 0.987179 0.967283 0.994147 0.90903 0.921414 0.987099 1.74841 1.68503 1.15662 0.749024 0.953587 0.889928 0.948722 0.97531 1.05997 1.16577 1.15239 0.980275 0.849146 0.947713 0.853929 1.37467 1.31137 1.11683 1.17106 1.25624 1.18291 1.08805 1.15185 1.07123 1.41269 1.42623 1.23299 1.29188 1.27053 1.07774 1.22608 1.19156 1.21684 1.20573 1.15723 1.20005 1.22598 1.19249 1.20326 1.20382 1.19052 1.19431 1.18865 1.196 1.19126 1.19185 1.1912 1.19016 1.19304 1.18876 1.19298 1.19952 1.19303 1.19543 1.19554 1.18863 1.19486 1.19291 1.19773 1.19493 1.19574 1.19804 1.17009 1.24108 1.21106 1.22265 1.23166 1.18415 1.20539 1.14862 1.19556 1.14822 1.13936 1.29441 1.26299 1.1704 0.759916 1.35254 1.41163 1.1948 0.95797 0.970215 0.986285 1.00116 0.754493 1.20729 0.938499 1.27673 1.23275 0.947326 0.772633 0.874136 0.90395 0.784757 0.851265 0.804465 0.202371 0.25936 0.623887 0.443415 1.34461 0.804601 0.83393 0.842964 0.907494 1.01777 0.95159 1.02584 1.12867 1.31317 1.30974 1.08337 1.17415 1.16123 1.12775 1.09615 1.08023 1.09547 1.22653 1.20693 1.31451 1.26181 1.06991 1.20464 1.22262 1.21019 1.15348 1.17539 1.2245 1.17924 1.20254 1.20293 1.18287 1.19337 1.18136 1.19324 1.19101 1.19199 1.19119 1.19042 1.19034 1.19493 1.19494 1.19249 1.19451 1.1956 1.19571 1.18897 1.18733 1.19462 1.19775 1.18234 1.19815 1.17319 1.19178 1.22102 1.21253 1.23648 1.17162 1.19463 1.21514 1.18121 1.15142 1.16642 1.32328 1.26554 1.19636 0.852001 1.41823 0.85927 1.15786 1.02472 1.25282 1.19682 0.908466 0.902845 0.968406 1.02251 0.902059 0.900476 0.867938 0.906143 0.894794 0.855387 0.878805 0.819328 0.785673 0.750575 0.317887 0.510756 0.632493 1.23573 0.843366 1.44113 1.32254 1.24859 0.541975 0.688388 0.803095 0.872229 0.982885 0.981434 0.967128 0.97392 1.00285 1.11022 0.967728 1.09751 1.14187 1.25145 1.13666 1.04514 1.10614 1.19264 1.27314 1.2344 1.23869 1.2225 1.12988 1.22021 1.19662 1.22447 1.15681 1.17702 1.22176 1.17615 1.19997 1.20296 1.1859 1.19702 1.18333 1.20455 1.19088 1.19181 1.19134 1.19 1.19154 1.19181 1.19596 1.19022 1.19356 1.19474 1.19533 1.19619 1.19043 1.19493 1.19529 1.20885 1.1871 1.20075 1.18705 1.17321 1.21729 1.20925 1.22716 1.1607 1.1974 1.25678 1.21992 1.18854 1.18655 1.33131 1.24647 1.17762 1.15191 1.02404 0.857904 1.41687 1.20765 1.31193 1.05967 1.09076 0.842445 0.898543 0.934645 0.980669 0.967723 0.98819 0.958529 0.814112 0.791115 0.898664 0.85554 0.853133 0.836616 0.824341 0.792744 0.790808 0.750601 0.708563 0.700592 0.696499 0.625295 0.72217 0.716424 0.722312 0.853335 1.04655 1.16253 1.31205 0.896008 0.780242 0.915052 0.824724 0.849937 0.919397 1.0089 0.971828 0.978182 0.943835 0.983363 1.01032 1.15997 1.17142 1.25752 1.0468 1.1186 1.05358 1.07765 1.16817 1.25259 1.11345 1.24176 1.15319 1.22608 1.19475 1.22294 1.19088 1.16164 1.26141 1.17651 1.19969 1.20376 1.18528 1.19577 1.19242 1.2026 1.19151 1.19261 1.19172 1.19125 1.19036 1.19234 1.19594 1.19064 1.19199 1.19389 1.1943 1.19555 1.19059 1.19453 1.19578 1.19731 1.1982 1.20768 1.19263 1.1748 1.18826 1.20279 1.22443 1.2259 1.16488 1.19131 1.18163 1.24318 1.20874 1.16304 1.17073 1.15049 1.23494 1.20898 1.09732 1.0669 0.978843 1.15919 1.29218 1.01007 1.03979 1.00614 0.904848 0.964737 0.975758 0.92658 0.963374 0.967585 0.85626 0.945751 0.823258 0.835955 0.811917 0.801484 0.786949 0.733556 0.677839 0.703589 0.731692 0.736942 0.75348 0.717988 0.696165 0.683981 0.743401 0.936007 1.06285 0.886806 0.806744 0.64438 1.02718 0.905941 0.986819 0.918772 0.95536 1.09101 1.21655 1.27455 1.28443 1.04127 1.20972 1.11718 1.08022 1.12613 1.30745 1.25869 1.12179 1.2644 1.21555 1.1163 1.155 1.19908 1.20867 1.16823 1.16674 1.19172 1.17363 1.18521 1.19258 1.18855 1.19382 1.19109 1.20128 1.19219 1.19178 1.19045 1.19966 1.18621 1.19361 1.19609 1.19155 1.19221 1.19359 1.19421 1.19477 1.19463 1.19612 1.19489 1.19003 1.19683 1.19913 1.18855 1.19768 1.19764 1.17152 1.19812 1.20017 1.18615 1.20093 1.17139 1.17045 1.27192 1.23562 1.22072 1.17828 1.15258 1.14253 1.0588 0.976985 1.13776 1.08031 1.04942 1.07319 0.950638 1.25686 1.02922 0.996058 0.98122 0.868514 0.957432 0.990122 0.961071 0.934824 0.96828 1.0373 0.85883 0.828868 0.851321 0.805449 0.818173 0.775714 0.72782 0.68083 0.709267 0.680963 0.656173 0.677511 0.618413 0.730736 0.735423 0.72651 0.695573 0.688485 0.680098 0.693169 0.806751 0.800702 0.837177 0.789712 0.720021 0.685018 0.741128 0.896005 0.95266 0.971405 0.996249 0.911259 0.793442 1.15826 1.3212 1.26017 1.07481 1.04587 1.09116 1.21632 1.10953 1.00083 1.07309 1.29512 1.16168 1.26073 1.22138 1.1797 1.19634 1.18401 1.21374 1.20941 1.18728 1.18286 1.16895 1.19929 1.17057 1.17479 1.17811 1.18774 1.18915 1.19447 1.18899 1.20028 1.19125 1.19442 1.18682 1.19971 1.2029 1.1854 1.19062 1.19256 1.19561 1.19118 1.19374 1.19365 1.19412 1.19422 1.1946 1.1959 1.19683 1.19088 1.20009 1.19504 1.19391 1.18466 1.17332 1.1962 1.18544 1.20864 1.16698 1.16769 1.22898 1.18184 1.07651 1.20101 1.12145 1.29407 0.978662 0.952494 1.1298 1.12183 1.09671 1.05222 0.942209 1.24912 1.16622 1.08314 0.954353 0.870196 0.907533 0.868102 0.931025 0.929866 0.795324 0.810766 0.830472 0.806975 0.828808 0.781875 0.75232 0.781435 0.729359 0.646128 0.722328 0.864711 0.709747 0.615325 0.539441 0.670799 0.66841 0.940829 0.356505 0.731741 0.649947 0.573412 0.577935 0.598628 0.62496 0.713321 0.690051 0.762442 0.773394 0.760789 0.676098 0.707174 0.738806 0.938577 1.01632 1.01247 0.880096 0.816724 0.836125 1.28669 1.07064 1.11406 0.67259 1.22538 1.07155 0.988993 1.09959 1.28218 1.17432 1.2554 1.17426 1.19055 1.21365 1.16375 1.16916 1.20018 1.17167 1.18206 1.18222 1.18938 1.19287 1.18238 1.18793 1.19734 1.19125 1.19178 1.18686 1.20334 1.19266 1.19574 1.1926 1.19178 1.19178 1.19429 1.19432 1.19539 1.19656 1.19117 1.18826 1.20009 1.21233 1.20118 1.1761 1.171 1.18809 1.2116 1.1687 1.19607 1.17219 1.17664 1.13987 1.15445 1.23248 1.15928 1.25752 0.995593 1.07246 1.12799 1.12978 1.09889 1.09997 1.13328 0.975598 0.946142 0.927678 0.865623 0.886637 0.884628 0.855132 0.917364 0.939941 0.913497 0.918445 0.85419 0.831904 0.833224 0.837568 0.844007 0.820523 0.830937 0.805386 0.83592 0.783532 0.695026 0.875874 0.913382 0.227066 0.579635 0.598643 0.955804 0.650762 0.679307 0.489436 0.637964 0.584387 0.613634 0.587317 0.58294 0.572383 0.765931 0.770943 0.755942 0.753434 0.756694 0.73638 0.710903 0.806638 0.803612 0.879985 1.04806 1.01007 1.0589 0.909189 0.68582 0.762265 1.15391 1.19225 0.956747 0.777516 1.21245 1.09935 1.04007 1.08086 1.17464 1.14984 1.13472 1.21538 1.22889 1.16692 1.19472 1.1933 1.18526 1.18288 1.18091 1.17965 1.1803 1.18568 1.18371 1.19312 1.18327 1.19156 1.18646 1.19637 1.18738 1.1947 1.19566 1.19437 1.19195 1.19178 1.19524 1.19499 1.19477 1.19328 1.18956 1.18817 1.20811 1.19871 1.16723 1.16824 1.18702 1.18504 1.18546 1.17225 1.18804 1.18635 1.19121 1.17096 1.1716 1.25752 1.02206 1.06973 1.13384 1.1295 1.09753 1.1057 0.985841 0.947575 0.951133 0.860538 0.880164 0.871296 0.859542 0.9482 1.09039 0.954865 0.927103 0.872678 0.838505 0.856261 0.852802 0.81018 0.892574 0.903047 0.913647 0.574863 0.989083 1.04814 0.514947 0.509765 0.733951 0.906815 0.7007 0.657449 0.587944 0.58045 0.58762 0.47095 0.70753 0.764089 0.864316 0.749133 0.715649 0.702101 0.837136 0.867768 0.839804 0.854049 0.864433 0.846722 0.860416 0.864417 1.04874 1.05392 0.707127 0.946592 1.06858 1.20425 1.0073 0.793334 1.11729 1.14801 1.08048 1.05876 1.0335 1.18593 1.11417 1.11507 1.16185 1.24118 1.23781 1.16637 1.18154 1.18148 1.17785 1.18327 1.18177 1.19921 1.17986 1.18708 1.19526 1.20106 1.199 1.18919 1.19259 1.18552 1.19321 1.19243 1.19469 1.19616 1.19625 1.19485 1.19212 1.19276 1.19453 1.1946 1.1938 1.19513 1.1949 1.19266 1.1897 1.18761 1.1894 1.19319 1.21126 1.21174 1.19729 1.20042 1.17599 1.16717 1.16855 1.17839 1.18211 1.18405 1.15673 1.20603 1.14799 1.1441 1.21927 1.03634 1.039 1.08128 1.14568 1.14067 1.07564 1.06367 1.0055 0.992293 1.04154 0.889939 1.02496 0.916703 0.925284 0.84983 1.05224 0.830829 0.952441 0.934298 0.851728 0.841396 0.844819 0.879181 0.879073 0.812686 0.841763 0.714311 0.778289 0.889718 0.731017 0.425928 0.886638 0.930869 0.919441 0.748346 0.690318 0.564176 0.641254 0.604319 0.676845 0.822788 0.820802 0.658274 0.711787 0.779322 0.889943 0.864925 0.874036 0.868747 0.870113 0.823442 0.94214 0.885938 1.033 0.797834 1.24779 1.30882 1.10401 0.936313 1.07103 1.05252 1.11756 1.13173 0.99912 0.978955 1.06282 1.1987 1.13721 1.21317 1.19229 1.16057 1.16241 1.16984 1.18981 1.18331 1.17739 1.18138 1.17868 1.18057 1.19851 1.17433 1.18851 1.19653 1.19513 1.18617 1.19234 1.19412 1.19596 1.19466 1.195 1.19212 1.19279 1.19326 1.19479 1.19427 1.19395 1.19237 1.19385 1.1928 1.19108 1.1881 1.19559 1.20345 1.17261 1.21097 1.20631 1.17152 1.18406 1.18027 1.15115 1.16971 1.16082 1.21785 1.17716 1.19952 1.18639 1.2254 1.1022 1.11537 1.08215 1.0902 1.05696 1.01124 1.00233 1.07318 1.06557 1.01438 0.852838 0.86925 1.04922 1.0348 0.921634 0.898654 0.842563 0.836843 0.862554 0.820406 0.853039 0.759057 0.800975 0.839599 0.950568 0.554474 0.721085 0.905286 0.962997 0.791371 0.755491 0.600264 0.706816 0.715271 0.575917 0.66035 0.913648 0.588717 0.685955 0.758306 0.890588 0.885211 0.88454 0.984717 1.00038 0.830843 1.20063 1.00996 1.01079 1.07926 1.14472 1.10236 1.13592 0.939168 0.990679 1.04587 1.11019 1.16946 1.13788 1.19062 1.16284 1.15854 1.20582 1.18651 1.18358 1.18245 1.17421 1.19812 1.19901 1.17836 1.17162 1.19492 1.19959 1.19526 1.1848 1.19988 1.19719 1.19439 1.19371 1.19127 1.19373 1.19178 1.19401 1.19537 1.19443 1.1932 1.19482 1.19516 1.19379 1.1921 1.18882 1.19211 1.18868 1.19558 1.19992 1.17405 1.20846 1.18138 1.1762 1.18493 1.19533 1.15754 1.16736 1.16557 1.15352 1.16082 1.16313 1.19147 1.23792 1.21462 1.24398 1.07974 1.08295 1.06869 1.06601 1.05238 1.02309 1.07816 1.12084 1.05974 0.857979 0.970853 1.04628 0.898195 0.899952 0.875098 0.879038 0.84952 0.877917 0.802247 0.768242 1.05441 0.596039 0.671095 0.796869 0.843504 0.900139 0.917484 0.851434 0.820239 0.710524 0.634687 0.696657 0.917566 0.869607 0.769268 0.837925 0.844822 0.8208 0.927926 0.92987 0.909611 0.959282 0.926016 0.879544 0.940764 1.07427 1.02037 1.04653 1.16386 1.06874 1.10235 1.12814 1.13637 1.07659 1.16011 1.15321 1.14825 1.1992 1.14251 1.22919 1.23192 1.17938 1.19236 1.18196 1.19178 1.19386 1.17786 1.1949 1.18261 1.17604 1.18385 1.19666 1.19354 1.19217 1.19865 1.19173 1.19597 1.19301 1.19575 1.19036 1.19022 1.19456 1.19433 1.19224 1.19255 1.19719 1.20001 1.19896 1.18396 1.1873 1.1791 1.18432 1.1774 1.15475 1.16741 1.22693 1.17198 1.16579 1.19998 1.23512 0.970586 1.17185 0.989926 1.19181 1.16433 1.0455 1.14814 1.04283 1.02216 1.05475 1.14984 1.03968 0.806984 0.857754 0.824742 0.964123 0.897211 0.904218 0.800804 0.919412 0.925288 0.911255 0.847761 0.811054 0.988157 0.668153 0.749283 0.83341 0.858803 0.919644 0.860695 0.869172 0.866739 0.817974 1.00036 0.574053 1.10395 1.18157 0.648262 0.855261 1.05828 0.958837 1.09869 0.972479 0.950081 0.943297 0.901143 0.995292 1.03161 1.06279 1.03041 1.02908 1.14099 1.09753 1.18633 1.13796 1.10758 1.12238 1.08149 1.19178 1.15734 1.16552 1.1524 1.14484 1.21103 1.19063 1.18312 1.19137 1.19178 1.19085 1.19387 1.19177 1.19513 1.18702 1.18592 1.19885 1.19709 1.19178 1.19526 1.19625 1.19345 1.19175 1.19172 1.19439 1.19835 1.19159 1.19437 1.19392 1.19221 1.19477 1.19203 1.19169 1.19274 1.1965 1.20087 1.19931 1.17817 1.17403 1.17995 1.18116 1.17647 1.17014 1.20396 1.16102 1.20775 1.17023 1.20399 1.21106 1.0241 1.19536 1.19178 1.22472 1.36274 1.29053 1.05861 1.09185 0.999341 1.0609 1.14871 0.991266 1.08744 0.834992 0.950825 0.919827 1.01808 1.00773 1.03757 0.82918 0.924473 1.00883 0.907533 1.01338 0.912821 0.975091 0.827247 0.829691 0.809709 0.921492 0.885655 0.895929 0.965943 0.980166 1.04197 1.4252 0.91125 1.01748 1.01316 0.969842 1.11272 1.02111 0.722636 0.802567 0.943223 0.872409 1.10159 1.01645 0.962405 1.06168 1.03852 1.05394 1.11122 1.12096 1.18307 1.14248 1.13202 1.13938 1.12057 1.2031 1.20514 1.17627 1.19205 1.18278 1.16504 1.1941 1.19424 1.18466 1.19012 1.18237 1.19101 1.19238 1.19424 1.18464 1.19519 1.20037 1.19279 1.19616 1.19336 1.19372 1.19381 1.19553 1.1983 1.19344 1.19377 1.19527 1.19496 1.19218 1.19058 1.1945 1.19181 1.19057 1.19023 1.1912 1.19068 1.19318 1.20074 1.1837 1.17954 1.18523 1.18412 1.16304 1.1414 1.19813 1.16597 1.19346 1.1857 1.18886 1.20403 1.21268 1.03921 1.16942 1.19313 1.25683 1.08837 1.07813 1.08299 1.0452 1.06552 1.1166 1.1485 0.996536 1.09123 0.900502 0.963764 0.914081 1.03631 0.853851 0.847113 0.875226 1.02595 0.80773 1.10781 1.11073 0.94706 0.979028 0.958134 0.841214 0.868314 0.970252 0.920768 0.915076 0.990743 1.03374 0.963549 0.816334 1.22958 0.886797 1.18592 0.977361 0.958543 1.05714 1.08641 0.949347 0.998983 1.12316 1.03346 1.05301 0.985544 1.0841 1.13913 1.04271 1.0705 1.08023 1.11846 1.12223 1.19607 1.14344 1.16041 1.16425 1.18641 1.16688 1.18869 1.18295 1.15276 1.16355 1.21458 1.15074 1.18528 1.17599 1.17647 1.20035 1.19538 1.18394 1.18831 1.18841 1.19178 1.18319 1.1932 1.19186 1.18944 1.19614 1.19885 1.19263 1.19266 1.19378 1.19363 1.19501 1.1892 1.19596 1.19026 1.19142 1.19403 1.19661 1.19514 1.19042 1.19514 1.18744 1.19285 1.18936 1.19089 1.19286 1.19309 1.18351 1.18917 1.17604 1.17375 1.18786 1.18641 1.1975 1.15727 1.19127 1.18909 1.2093 1.19384 1.02323 1.16596 1.17034 1.20361 1.13937 1.14464 1.07556 1.28007 1.12682 1.02501 1.05994 1.0838 0.966624 1.01928 0.949888 0.983192 0.960253 1.07246 1.0434 0.884807 0.869807 1.05412 0.969333 1.03862 0.980531 1.05032 0.930325 0.995087 0.956784 0.99507 0.985298 1.07107 1.04256 0.938493 0.987301 1.0193 1.02556 1.08533 1.06615 0.970854 1.05852 1.05822 1.08546 1.06226 1.02844 1.10933 1.14303 1.07763 1.23989 1.15418 1.17531 1.18799 1.19062 1.19259 1.17898 1.192 1.19604 1.17653 1.19895 1.19394 1.19337 1.19219 1.18227 1.18548 1.18719 1.19333 1.19341 1.19297 1.20003 1.19623 1.19677 1.19411 1.19699 1.19521 1.18796 1.19228 1.18699 1.19025 1.19449 1.20203 1.19261 1.18626 1.19213 1.19312 1.18978 1.19299 1.19318 1.18013 1.1896 1.18761 1.17994 1.16403 1.18978 1.18316 1.196 1.19629 1.19874 1.19224 1.18618 1.17318 1.1666 1.04421 1.16945 1.18151 1.18417 1.15447 1.15661 1.18366 1.17553 1.17113 1.14943 1.14703 1.06285 1.05884 0.980124 1.03579 1.04727 1.01188 0.810853 1.08844 1.11667 1.03907 0.862999 1.05653 0.992247 1.08907 1.07646 1.01014 0.958909 1.00381 1.03188 0.972067 1.01965 1.09217 0.955705 1.02421 1.03301 1.10685 1.05246 0.961913 1.06638 1.09417 1.1028 1.02289 1.15561 1.14318 1.04056 1.06175 1.1457 1.13186 1.19495 1.10015 1.16013 1.17504 1.16845 1.17962 1.17612 1.18096 1.16042 1.19357 1.20007 1.18357 1.1948 1.19086 1.18528 1.18755 1.19363 1.19245 1.19277 1.18601 1.19067 1.19961 1.20032 1.19249 1.18844 1.19576 1.19542 1.19754 1.199 1.19575 1.19178 1.19264 1.19039 1.18982 1.19098 1.18947 1.20693 1.19262 1.18916 1.18618 1.19063 1.18986 1.19094 1.1924 1.19132 1.19239 1.19251 1.19496 1.19069 1.19174 1.18298 1.19356 1.18394 1.19327 1.19621 1.19743 1.18758 1.1734 1.17745 1.18476 1.20238 1.17087 1.1645 1.10496 1.11068 1.11708 1.12304 1.16991 1.13533 1.13341 1.13443 1.03928 1.11567 1.10681 1.12342 1.06277 1.14616 1.04071 1.05484 1.13885 1.08442 1.07499 0.996415 1.00951 1.01575 1.06687 0.96618 1.03526 1.09546 1.04258 0.986863 1.09594 1.03813 1.12209 1.12257 1.01532 1.05291 0.975303 1.08112 1.09961 1.15643 1.09675 1.16208 1.03503 1.15537 1.07612 1.15277 1.1415 1.21526 1.16874 1.15716 1.21328 1.18024 1.16966 1.16217 1.17454 1.19178 1.19178 1.19977 1.18255 1.1898 1.19047 1.18536 1.19457 1.18676 1.19178 1.19278 1.19337 1.19693 1.19684 1.19546 1.19603 1.1997 1.19562 1.19077 1.19282 1.18728 1.18742 1.19389 1.1949 1.19091 1.19291 1.18809 1.19024 1.19083 1.19163 1.19413 1.19367 1.19244 1.19178 1.18356 1.18306 1.18443 1.18458 1.1938 1.18918 1.19237 1.18047 1.17184 1.17619 1.17833 1.18799 1.20399 1.19178 1.17232 1.14125 1.1232 1.16461 1.13083 1.13921 1.10519 1.09684 1.08427 1.13448 1.14506 1.04513 1.04295 1.11968 1.09805 1.12423 1.05165 1.07748 1.13975 1.05922 1.08194 1.052 1.02013 1.06051 1.03903 1.08368 1.07193 1.07387 1.07669 1.10424 1.0977 1.09659 1.09118 1.04339 1.09548 1.09564 1.11817 1.07311 1.04492 1.06772 1.1383 1.13983 1.14057 1.14249 1.02969 1.13259 1.08005 1.1325 1.08517 1.17905 1.14663 1.1682 1.21261 1.16297 1.19442 1.18519 1.15944 1.19214 1.19223 1.18201 1.19441 1.18601 1.18972 1.19031 1.19831 1.19405 1.19253 1.19434 1.19643 1.19558 1.19412 1.19941 1.19544 1.1943 1.19248 1.1914 1.19025 1.18976 1.18633 1.1947 1.19233 1.19313 1.18875 1.19004 1.19233 1.19362 1.19817 1.19099 1.18546 1.18756 1.19362 1.18945 1.19178 1.18139 1.17747 1.18428 1.18559 1.1868 1.18894 1.18347 1.17623 1.15151 1.15245 1.13208 1.1348 1.12472 1.1375 1.11461 1.07252 1.06456 1.09657 1.09304 1.07389 1.06635 1.1221 1.07457 1.14792 1.10593 1.08384 1.06523 1.06004 1.099 1.11916 1.08694 1.11789 1.15989 1.08899 1.13432 1.08033 1.11708 1.07916 1.19818 1.17224 1.18963 1.1511 1.15691 1.13103 1.14033 1.19178 1.17801 1.143 1.19687 1.20527 1.19738 1.18463 1.17085 1.18867 1.18862 1.18391 1.18455 1.17889 1.18006 1.18642 1.19193 1.187 1.18577 1.19003 1.19061 1.19874 1.19178 1.20553 1.19376 1.1914 1.19506 1.19393 1.19368 1.1902 1.19657 1.19551 1.1936 1.19922 1.19527 1.19178 1.19378 1.1915 1.18962 1.18926 1.186 1.19268 1.19296 1.19372 1.19281 1.18851 1.19249 1.18889 1.19066 1.18494 1.18754 1.18846 1.19394 1.19396 1.19078 1.1984 1.18864 1.1843 1.18954 1.19568 1.18746 1.18901 1.18377 1.18346 1.18109 1.18454 1.18916 1.18682 1.18303 1.18478 1.18815 1.18603 1.14936 1.15256 1.16193 1.16065 1.10474 1.11505 1.12757 1.14625 1.14166 1.11068 1.07811 1.10906 1.07228 1.13887 1.13524 1.07437 1.10961 1.13402 1.14624 1.09616 1.06526 1.08965 1.13649 1.09553 1.15648 1.16889 1.12741 1.14323 1.10249 1.1294 1.07775 1.23514 1.2018 1.19045 1.18706 1.15046 1.15636 1.14878 1.15267 1.15932 1.19178 1.17814 1.14714 1.20744 1.18863 1.18765 1.19178 1.18746 1.18985 1.19092 1.18409 1.18043 1.18511 1.19063 1.19151 1.19277 1.19197 1.18629 1.18875 1.19891 1.18291 1.19197 1.19338 1.19008 1.19713 1.19585 1.19303 1.19675 1.19054 1.19609 1.19038 1.1885 1.18939 1.19013 1.18251 1.18171 1.19401 1.19377 1.2011 1.19193 1.18974 1.18816 1.18625 1.18875 1.19451 1.19739 1.18676 1.18566 1.19457 1.1889 1.1853 1.18386 1.18761 1.18295 1.18362 1.1848 1.18218 1.18194 1.18481 1.17571 1.18365 1.16473 1.15986 1.09034 1.12296 1.14455 1.15234 1.09577 1.09583 1.13224 1.12392 1.12428 1.1198 1.14927 1.13618 1.10607 1.07341 1.11735 1.10462 1.08953 1.18498 1.14582 1.13327 1.18879 1.16011 1.14782 1.16395 1.07884 1.09589 1.19047 1.19699 1.18834 1.16048 1.17111 1.18135 1.17068 1.16588 1.17893 1.14922 1.18521 1.17963 1.19936 1.19016 1.18521 1.18533 1.19452 1.18945 1.18503 1.18499 1.18997 1.19118 1.19112 1.18996 1.18335 1.18399 1.18829 1.18841 1.19611 1.1937 1.19121 1.19492 1.18803 1.18758 1.19138 1.19259 1.19961 1.19294 1.19345 1.19499 1.19655 1.19047 1.19177 1.19369 1.19692 1.18873 1.18816 1.18974 1.18173 1.19504 1.18945 1.19665 1.1857 1.18721 1.19336 1.18693 1.18826 1.18919 1.19551 1.19729 1.1943 1.19178 1.18852 1.18532 1.18454 1.18281 1.18465 1.18718 1.18929 1.18099 1.18236 1.19178 1.17983 1.18486 1.1804 1.1692 1.18521 1.16848 1.19347 1.17458 1.13483 1.15667 1.14897 1.13124 1.09541 1.1299 1.14966 1.17302 1.15233 1.14929 1.12459 1.14849 1.13701 1.1105 1.13882 1.11114 1.15197 1.16572 1.15787 1.18985 1.19947 1.17865 1.18922 1.19201 1.20076 1.18945 1.19124 1.19178 1.19244 1.19529 1.18035 1.17105 1.18362 1.197 1.18869 1.18193 1.19153 1.18457 1.19143 1.19127 1.19636 1.19206 1.19531 1.18853 1.19214 1.18817 1.19123 1.19972 1.18358 1.19132 1.18784 1.18919 1.19476 1.1944 1.19329 1.19331 1.18868 1.19107 1.19244 1.19317 1.19153 1.19301 1.19156 1.19147 1.19396 1.18624 1.18807 1.19053 1.19581 1.19012 1.19733 1.18718 1.19178 1.19543 1.19105 1.19429 1.18711 1.19416 1.18846 1.19148 1.19618 1.1972 1.19701 1.19699 1.19395 1.19431 1.19334 1.19613 1.18513 1.19178 1.18486 1.18342 1.18394 1.18561 1.18763 1.19032 1.18063 1.1781 1.17583 1.17541 1.18157 1.19586 1.18603 1.17852 1.15342 1.15549 1.15785 1.14515 1.14626 1.14082 1.13143 1.15876 1.17798 1.15952 1.15373 1.12623 1.15462 1.14221 1.12159 1.14612 1.12324 1.13617 1.16607 1.14873 1.16263 1.17762 1.20117 1.20066 1.16351 1.17833 1.19178 1.19178 1.19241 1.19502 1.19258 1.19213 1.19293 1.18146 1.18334 1.19178 1.17838 1.19181 1.19696 1.1889 1.18695 1.18952 1.1914 1.19776 1.19487 1.19642 1.18856 1.19828 1.19122 1.18844 1.19502 1.18837 1.20973 1.19473 1.19141 1.19357 1.19036 1.18988 1.19202 1.18836 1.19139 1.18634 1.19115 1.19058 1.19152 1.19343 1.18919 1.18659 1.19094 1.19142 1.19178 1.18468 1.1868 1.18815 1.18916 1.19013 1.19509 1.1898 1.18637 1.19184 1.18921 1.19222 1.19103 1.18594 1.189 1.19144 1.19206 1.19639 1.19607 1.19711 1.19402 1.18836 1.19308 1.19178 1.19544 1.19383 1.18371 1.18984 1.18281 1.18521 1.18465 1.18967 1.19928 1.18126 1.18707 1.1927 1.18178 1.17902 1.17365 1.17516 1.188 1.19008 1.17568 1.17348 1.18304 1.17636 1.15339 1.15688 1.1489 1.15067 1.13691 1.15751 1.15422 1.17219 1.15987 1.13589 1.18686 1.15762 1.17593 1.17041 1.16713 1.13829 1.15386 1.13285 1.13951 1.14148 1.14934 1.16954 1.17285 1.18675 1.19292 1.19806 1.17018 1.18387 1.19161 1.19111 1.19415 1.19004 1.19474 1.18964 1.19299 1.18163 1.18168 1.19315 1.19512 1.1885 1.18892 1.18861 1.18794 1.1966 1.19758 1.18955 1.18853 1.18874 1.19817 1.19032 1.18908 1.1936 1.20222 1.19178 1.18967 1.1916 1.19301 1.19468 1.19114 1.18672 1.19072 1.18624 1.18627 1.19079 1.19042 1.18928 1.19099 1.19036 1.19135 1.18474 1.18795 1.18719 1.19156 1.19622 1.18674 1.18858 1.18762 1.19112 1.18904 1.19284 1.18693 1.19618 1.19441 1.19121 1.18783 1.19032 1.19027 1.19092 1.1834 1.19191 1.20221 1.18264 1.18861 1.18645 1.1814 1.18164 1.18926 1.18402 1.19508 1.17151 1.18158 1.16512 1.16565 1.16602 1.17365 1.15956 1.17889 1.17063 1.181 1.17784 1.15959 1.17018 1.17247 1.1595 1.19635 1.14455 1.15878 1.17237 1.17553 1.18922 1.19261 1.1941 1.17378 1.1784 1.1882 1.19279 1.19636 1.19479 1.1881 1.1935 1.19698 1.18874 1.18483 1.19178 1.17997 1.19178 1.18669 1.19197 1.18531 1.19384 1.1921 1.18989 1.19205 1.19471 1.19232 1.19474 1.18542 1.19216 1.18893 1.19294 1.20206 1.19585 1.19411 1.1914 1.19226 1.19026 1.19113 1.18636 1.1906 1.1867 1.18657 1.19131 1.1916 1.18994 1.19129 1.19001 1.18956 1.19089 1.19163 1.18637 1.1878 1.18704 1.19119 1.19336 1.19601 1.18678 1.18437 1.18874 1.1921 1.18995 1.18502 1.19193 1.18729 1.19762 1.19329 1.19255 1.1944 1.19119 1.19107 1.18867 1.19077 1.18693 1.18116 1.18872 1.19404 1.18526 1.18194 1.18703 1.20254 1.19339 1.18959 1.18567 1.17892 1.1858 1.19163 1.19442 1.17853 1.1907 1.17161 1.16957 1.19178 1.18315 1.18317 1.1646 1.17363 1.18242 1.15989 1.16916 1.17876 1.15646 1.16954 1.16956 1.16263 1.17408 1.18943 1.19103 1.19549 1.1805 1.18743 1.19431 1.19624 1.19119 1.19174 1.19217 1.19039 1.1931 1.18812 1.18937 1.18802 1.19176 1.19379 1.19407 1.19099 1.19481 1.19393 1.19456 1.19571 1.19347 1.18923 1.18949 1.18857 1.19253 1.20388 1.1919 1.19527 1.19172 1.19132 1.19436 1.19038 1.18605 1.18676 1.19178 1.18647 1.18747 1.1856 1.19178 1.19016 1.18935 1.18683 1.1899 1.19055 1.1918 1.19215 1.18606 1.19095 1.19484 1.18985 1.19164 1.19451 1.18652 1.18397 1.19178 1.18879 1.19157 1.18814 1.18641 1.19054 1.18622 1.19081 1.19445 1.19454 1.19106 1.18407 1.19576 1.19318 1.1863 1.19373 1.1891 1.18202 1.19358 1.19455 1.19012 1.18703 1.18055 1.18473 1.18734 1.18497 1.1925 1.18964 1.18097 1.17341 1.1987 1.18578 1.18178 1.17798 1.17865 1.17713 1.18408 1.16987 1.16369 1.16356 1.16586 1.19267 1.18829 1.19053 1.19074 1.19073 1.19318 1.18165 1.18183 1.19595 1.18755 1.18942 1.19199 1.19142 1.19167 1.19156 1.1911 1.18975 1.18919 1.18779 1.18888 1.19067 1.1947 1.19511 1.1908 1.19338 1.19483 1.1925 1.18757 1.19366 1.18735 1.18995 1.1901 1.1918 1.18781 1.18963 1.19299 1.18977 1.1903 1.19381 1.18282 1.18677 1.19341 1.18569 1.1895 1.18921 1.1889 1.19221 1.18957 1.18901 1.19345 1.18706 1.1896 1.19056 1.18885 1.19434 1.19052 1.19047 1.18945 1.19174 1.19458 1.18654 1.19406 1.18919 1.19263 1.18854 1.18327 1.18593 1.18604 1.18631 1.19114 1.19369 1.18223 1.19136 1.19306 1.19339 1.18563 1.1934 1.18901 1.18748 1.19015 1.1919 1.1902 1.18979 1.18293 1.18586 1.18777 1.18538 1.19178 1.18418 1.19863 1.18139 1.18028 1.17966 1.19912 1.19291 1.19321 1.18433 1.18936 1.17645 1.17895 1.1731 1.16553 1.16815 1.19272 1.19109 1.19105 1.19077 1.19288 1.19284 1.18205 1.19643 1.18705 1.19179 1.19165 1.19144 1.19171 1.19116 1.18966 1.18911 1.18761 1.18947 1.1925 1.19524 1.19057 1.19344 1.19166 1.19417 1.19274 1.19157 1.18943 1.19243 1.19157 1.1919 1.18882 1.19532 1.19252 1.1955 1.18958 1.19551 1.18608 1.17859 1.19629 1.18582 1.19625 1.18595 1.18532 1.18914 1.18845 1.1919 1.18955 1.18828 1.19321 1.19042 1.19024 1.19038 1.1897 1.19082 1.19109 1.19388 1.19095 1.19289 1.19375 1.18725 1.18457 1.18367 1.18638 1.18968 1.19436 1.19307 1.19496 1.19269 1.19044 1.19121 1.18469 1.19325 1.19249 1.18796 1.18997 1.18858 1.19035 1.18735 1.18365 1.18713 1.18573 1.18823 1.18991 1.17741 1.18475 1.18035 1.19824 1.18933 1.18249 1.18086 1.199 1.20132 1.19428 1.18555 1.1769 1.17869 1.17395 1.16719 1.16921 1.1927 1.19174 1.19159 1.19131 1.19164 1.19116 1.20012 1.19323 1.18602 1.18714 1.19298 1.19165 1.19341 1.18449 1.19044 1.19039 1.18956 1.19178 1.18916 1.19206 1.18971 1.19078 1.1943 1.19029 1.19328 1.19081 1.19178 1.19278 1.19186 1.19482 1.19044 1.19288 1.19035 1.19178 1.18802 1.18995 1.18611 1.1916 1.19518 1.186 1.18553 1.18891 1.18862 1.19259 1.19094 1.18904 1.18695 1.19131 1.19052 1.18882 1.19171 1.19019 1.19166 1.19013 1.1889 1.19253 1.19304 1.19386 1.1856 1.19161 1.18654 1.19483 1.19263 1.19169 1.1899 1.19033 1.19171 1.18485 1.19152 1.19133 1.18843 1.18753 1.18779 1.18737 1.19065 1.18426 1.18507 1.18313 1.18797 1.18627 1.19309 1.19021 1.18684 1.17962 1.18225 1.18739 1.17336 1.18733 1.18864 1.18409 1.18194 1.20032 1.20185 1.19464 1.18559 1.18477 1.17385 1.17019 1.17057 1.19255 1.19184 1.19091 1.19187 1.19191 1.19852 1.19531 1.19178 1.18955 1.19464 1.19178 1.19169 1.18822 1.19185 1.19066 1.19066 1.19001 1.19059 1.19189 1.18953 1.19117 1.19304 1.1976 1.19281 1.19239 1.19286 1.19077 1.1924 1.19237 1.19179 1.18788 1.1953 1.19277 1.19003 1.1882 1.18894 1.1873 1.19378 1.19941 1.1945 1.18941 1.18839 1.18752 1.18682 1.19063 1.18834 1.18561 1.19011 1.18849 1.1882 1.19277 1.18829 1.19104 1.18953 1.19048 1.19091 1.19289 1.18838 1.18877 1.18765 1.18427 1.19202 1.18693 1.18924 1.19023 1.19203 1.18998 1.19166 1.19213 1.19087 1.19116 1.18964 1.18716 1.18691 1.18086 1.18409 1.18975 1.18979 1.19504 1.1885 1.17744 1.18362 1.18833 1.18301 1.18631 1.18083 1.19907 1.19733 1.18962 1.1867 1.18386 1.18276 1.1859 1.17546 1.17328 1.17144 1.19238 1.1922 1.19065 1.19108 1.19195 1.19848 1.19589 1.18907 1.19005 1.19555 1.19302 1.18877 1.19309 1.19125 1.19004 1.20106 1.19187 1.19114 1.19373 1.19159 1.19001 1.19476 1.19268 1.1921 1.18923 1.19205 1.18761 1.19123 1.18949 1.1923 1.19337 1.18847 1.18799 1.19346 1.19437 1.19415 1.1924 1.19447 1.19022 1.1853 1.18505 1.18578 1.19207 1.192 1.18496 1.18745 1.19046 1.18917 1.19153 1.19325 1.1884 1.19058 1.1862 1.18867 1.18829 1.18851 1.19073 1.1885 1.18968 1.18417 1.18982 1.18779 1.18459 1.18781 1.1887 1.18929 1.18962 1.1886 1.19055 1.18764 1.19042 1.19033 1.19206 1.19191 1.18948 1.18891 1.19062 1.187 1.18625 1.19035 1.18443 1.18472 1.18654 1.18625 1.19023 1.19129 1.18323 1.18805 1.17849 1.18904 1.186 1.18675 1.18656 1.19739 1.18734 1.19009 1.18781 1.19064 1.18427 1.17374 1.17662 1.18454 1.19235 1.19185 1.19178 1.19054 1.18931 1.18915 1.1944 1.19607 1.19642 1.18951 1.19427 1.1949 1.19309 1.1965 1.20031 1.18649 1.18976 1.19016 1.19331 1.19066 1.18964 1.1933 1.19339 1.1925 1.18919 1.19127 1.19162 1.18703 1.19036 1.19216 1.19133 1.18917 1.1881 1.18944 1.18958 1.19412 1.19178 1.19182 1.1919 1.1925 1.19042 1.18863 1.18397 1.19681 1.19846 1.18674 1.18719 1.18925 1.18698 1.18903 1.19392 1.18835 1.1905 1.18607 1.1876 1.18906 1.1906 1.18891 1.18794 1.18985 1.18819 1.18557 1.18436 1.18438 1.18793 1.19067 1.19213 1.18891 1.18755 1.1906 1.18986 1.19036 1.1901 1.19076 1.18604 1.18879 1.19215 1.18539 1.19178 1.18431 1.19208 1.19116 1.18751 1.18695 1.18455 1.18471 1.18773 1.18897 1.19015 1.1903 1.18326 1.1872 1.17907 1.18972 1.18534 1.18609 1.18968 1.18915 1.18639 1.18178 1.19247 1.19013 1.18404 1.18636 1.17568 1.17196 1.17224 1.19216 1.19163 1.19251 1.19003 1.18888 1.18859 1.19445 1.19403 1.19526 1.18843 1.19521 1.19514 1.1962 1.19369 1.19805 1.20045 1.18916 1.19006 1.19081 1.19313 1.18994 1.19246 1.1919 1.19379 1.19124 1.19424 1.18605 1.19196 1.18745 1.18855 1.18936 1.18743 1.19323 1.1902 1.19126 1.18979 1.18911 1.18832 1.1877 1.18811 1.19371 1.18998 1.19164 1.19179 1.19144 1.18976 1.18867 1.1835 1.17924 1.18929 1.18745 1.18979 1.18775 1.18981 1.19458 1.18871 1.19144 1.18753 1.19048 1.18722 1.1882 1.18733 1.18753 1.18922 1.18827 1.18582 1.18416 1.1876 1.19075 1.18275 1.18998 1.19006 1.19009 1.18775 1.18997 1.18942 1.18745 1.18871 1.19063 1.20622 1.19042 1.18713 1.18831 1.18692 1.19122 1.19418 1.18911 1.18933 1.18621 1.18074 1.17897 1.1911 1.1828 1.187 1.19058 1.18964 1.1867 1.18238 1.18861 1.19452 1.18847 1.18701 1.17682 1.17949 1.19187 1.19178 1.19242 1.18914 1.18848 1.19415 1.19196 1.18764 1.1912 1.19123 1.19656 1.19534 1.19181 1.17651 1.18942 1.18973 1.19064 1.19099 1.19267 1.18867 1.19164 1.19274 1.18532 1.19184 1.18749 1.18721 1.18864 1.19184 1.19069 1.19014 1.18791 1.18858 1.18748 1.19044 1.18811 1.19357 1.19009 1.18562 1.19119 1.18877 1.18838 1.18333 1.1792 1.18971 1.1871 1.18964 1.18845 1.19062 1.18907 1.18741 1.19149 1.18882 1.1876 1.18756 1.18817 1.18851 1.18739 1.18737 1.1891 1.18347 1.18438 1.18704 1.19133 1.1896 1.18408 1.19007 1.18896 1.1883 1.18848 1.18468 1.19031 1.18532 1.18889 1.19303 1.19482 1.19909 1.19036 1.19214 1.18989 1.19065 1.1906 1.18866 1.17794 1.18827 1.19614 1.18745 1.19197 1.19144 1.18635 1.19044 1.18915 1.18649 1.18262 1.18896 1.19115 1.19178 1.17777 1.17984 1.19139 1.18872 1.18868 1.19099 1.19321 1.18784 1.19098 1.19588 1.19136 1.18803 1.1893 1.19037 1.19096 1.19047 1.19217 1.18784 1.19049 1.18709 1.20363 1.18659 1.18879 1.1908 1.19232 1.19013 1.18818 1.18865 1.18781 1.18763 1.18785 1.19043 1.19291 1.18823 1.19189 1.19059 1.18804 1.18853 1.18428 1.17941 1.1894 1.18708 1.18906 1.19188 1.19012 1.18844 1.18687 1.19123 1.18867 1.18747 1.18765 1.18803 1.18864 1.18721 1.19178 1.18996 1.18482 1.18668 1.1881 1.18402 1.18894 1.18977 1.19064 1.19178 1.18918 1.18747 1.18877 1.18785 1.18852 1.18988 1.18879 1.19352 1.19333 1.19013 1.18471 1.19068 1.19185 1.18979 1.18895 1.18888 1.19177 1.19212 1.18745 1.19252 1.19144 1.18809 1.19208 1.19128 1.18912 1.19122 1.18755 1.1878 1.18216 1.18679 1.18882 1.17882 1.18358 1.18011 1.19123 1.18796 1.18854 1.18967 1.19206 1.19104 1.19085 1.19031 1.19091 1.18785 1.18735 1.1888 1.18883 1.1956 1.1919 1.18905 1.19178 1.19012 1.19041 1.18534 1.19211 1.18723 1.19027 1.18733 1.19165 1.18323 1.18617 1.18759 1.18971 1.19144 1.19053 1.19035 1.18796 1.19218 1.18751 1.18741 1.18956 1.19159 1.18757 1.18962 1.18929 1.1827 1.19031 1.18671 1.18655 1.18921 1.1878 1.18828 1.19168 1.19017 1.18827 1.18697 1.19049 1.18846 1.18655 1.18696 1.18819 1.1867 1.18806 1.19088 1.18957 1.18476 1.18665 1.1877 1.18502 1.18988 1.19051 1.18834 1.19093 1.18729 1.18753 1.18847 1.18967 1.18831 1.1934 1.19282 1.19011 1.18453 1.19113 1.19058 1.18956 1.18849 1.18997 1.18992 1.18805 1.19324 1.19455 1.18759 1.19344 1.19157 1.18808 1.19048 1.19221 1.18983 1.19313 1.18977 1.1865 1.18227 1.1876 1.17984 1.19136 1.18704 1.19108 1.19216 1.19186 1.19274 1.19375 1.18916 1.19132 1.187 1.19711 1.18977 1.19062 1.19161 1.19437 1.18626 1.18989 1.18928 1.1913 1.19024 1.19017 1.18735 1.18723 1.18991 1.18952 1.19048 1.19023 1.18772 1.19066 1.19152 1.18817 1.19005 1.19197 1.1879 1.19118 1.18891 1.18532 1.1893 1.19089 1.18718 1.18881 1.18919 1.1864 1.19208 1.1957 1.19416 1.19008 1.18849 1.1889 1.19135 1.18932 1.18839 1.18848 1.19042 1.18863 1.18838 1.1865 1.18864 1.1918 1.18803 1.19085 1.18997 1.18887 1.18723 1.18236 1.18673 1.19178 1.18999 1.19083 1.18761 1.18719 1.1872 1.18811 1.18924 1.19115 1.19323 1.1861 1.18442 1.18982 1.19347 1.19026 1.18917 1.18884 1.18996 1.19067 1.19191 1.19151 1.19047 1.19431 1.18928 1.1947 1.189 1.19068 1.18854 1.19286 1.18936 1.18534 1.18334 1.18695 1.17994 1.19079 1.18638 1.18582 1.18812 1.1877 1.191 1.19081 1.19116 1.19211 1.19026 1.18887 1.18885 1.18963 1.19041 1.19094 1.19283 1.18655 1.18646 1.18872 1.18904 1.18854 1.18938 1.18702 1.18716 1.18968 1.19002 1.1861 1.18595 1.18796 1.18652 1.19062 1.18873 1.19195 1.18883 1.19073 1.19097 1.1906 1.18641 1.18744 1.18962 1.18607 1.18899 1.191 1.19215 1.18931 1.19047 1.18641 1.19053 1.1952 1.19169 1.19058 1.18824 1.18844 1.19273 1.18853 1.1875 1.18999 1.19338 1.19142 1.19181 1.18831 1.19009 1.19895 1.18781 1.19147 1.18976 1.19013 1.19025 1.1871 1.18862 1.19125 1.18933 1.18964 1.18658 1.18776 1.19005 1.1871 1.1884 1.19006 1.19066 1.1869 1.18483 1.19219 1.18933 1.18997 1.18903 1.18822 1.19047 1.18968 1.19051 1.19175 1.19125 1.19034 1.19412 1.18963 1.19053 1.18916 1.19063 1.18832 1.19262 1.18963 1.18496 1.18498 1.192 1.186 1.18701 1.18466 1.17996 1.18547 1.18862 1.19094 1.19051 1.18934 1.19303 1.19125 1.18944 1.18831 1.18928 1.18897 1.1884 1.18907 1.18968 1.19059 1.19086 1.19243 1.18697 1.18612 1.18946 1.18817 1.1894 1.18719 1.18789 1.19026 1.19004 1.18732 1.18759 1.18851 1.19087 1.18962 1.18917 1.18913 1.18757 1.19014 1.18986 1.18931 1.18815 1.19183 1.19194 1.18916 1.19041 1.19038 1.18619 1.19377 1.19223 1.19138 1.18708 1.19174 1.19178 1.18953 1.19468 1.18821 1.19033 1.19326 1.18971 1.1892 1.18533 1.18576 1.18768 1.19009 1.19094 1.19013 1.18755 1.18857 1.18948 1.18921 1.18933 1.18639 1.19063 1.188 1.18846 1.19059 1.19195 1.18967 1.19364 1.19061 1.19179 1.19178 1.18775 1.18949 1.19039 1.19174 1.19115 1.19316 1.19178 1.18928 1.19013 1.18993 1.18741 1.1889 1.19066 1.19126 1.19096 1.19348 1.18563 1.18432 1.18997 1.19061 1.19056 1.18745 1.18766 1.18697 1.18462 1.19303 1.18908 1.19009 1.18809 1.18797 1.18808 1.18927 1.19011 1.19011 1.19088 1.19057 1.18608 1.18825 1.1901 1.19146 1.1864 1.18782 1.18709 1.18838 1.19034 1.18719 1.18853 1.19031 1.18833 1.18833 1.18812 1.19332 1.18781 1.1905 1.18928 1.18828 1.18768 1.19032 1.18912 1.19106 1.18765 1.19089 1.19156 1.19178 1.19131 1.18769 1.19173 1.19203 1.19002 1.19178 1.1882 1.19035 1.19231 1.18982 1.18916 1.18836 1.18695 1.18763 1.19015 1.19134 1.19033 1.18755 1.18698 1.18822 1.18686 1.18921 1.18894 1.18917 1.18677 1.18784 1.18686 1.18642 1.18997 1.18817 1.19188 1.18961 1.19182 1.19063 1.1912 1.19243 1.18841 1.18859 1.18917 1.19021 1.19193 1.1918 1.19091 1.19062 1.18955 1.19016 1.18993 1.18738 1.18885 1.191 1.19127 1.19085 1.1921 1.18587 1.19198 1.19178 1.19051 1.19001 1.18609 1.18672 1.18711 1.19304 1.18656 1.19005 1.18831 1.18873 1.18983 1.18989 1.19026 1.19178 1.18674 1.18915 1.18856 1.18743 1.18991 1.19229 1.18918 1.18644 1.18701 1.18873 1.18874 1.18953 1.18752 1.1891 1.19027 1.18925 1.18817 1.1881 1.19328 1.18949 1.1908 1.18914 1.18818 1.19168 1.19027 1.18907 1.19178 1.18953 1.19128 1.19178 1.19178 1.1914 1.18892 1.1917 1.19178 1.19056 1.1923 1.18815 1.19022 1.19192 1.18945 1.18918 1.18845 1.19167 1.18795 1.19078 1.19191 1.19064 1.18768 1.18741 1.18846 1.18922 1.18838 1.18836 1.18917 1.18737 1.18592 1.1878 1.18877 1.18961 1.19048 1.18991 1.19087 1.19119 1.19252 1.18853 1.19008 1.18903 1.1901 1.19185 1.19023 1.1916 1.19121 1.18992 1.18983 1.18918 1.18846 1.19089 1.19093 1.19168 1.19211 1.18595 1.19173 1.19178 1.19198 1.19153 1.18781 1.18644 1.18717 1.19321 1.18638 1.18909 1.18901 1.19 1.18813 1.18869 1.18975 1.1898 1.19024 1.1905 1.18792 1.18968 1.18752 1.18852 1.19018 1.18889 1.19062 1.18916 1.18941 1.18691 1.1875 1.18677 1.18923 1.19023 1.18994 1.18798 1.18798 1.19178 1.18949 1.19067 1.18965 1.18888 1.19178 1.18993 1.18878 1.19178 1.18978 1.19143 1.19178 1.19179 1.19144 1.19029 1.19176 1.19178 1.19058 1.19178 1.19236 1.19208 1.1908 1.1907 1.18958 1.18919 1.19166 1.18889 1.1917 1.1891 1.19067 1.18854 1.18852 1.18686 1.18988 1.18894 1.1891 1.18918 1.18819 1.18733 1.18548 1.18752 1.18864 1.19006 1.18989 1.19121 1.19156 1.19216 1.19317 1.19023 1.18906 1.19 1.19199 1.19013 1.19091 1.19143 1.18994 1.19037 1.18972 1.19178 1.19001 1.19113 1.19147 1.19213 1.19162 1.19145 1.19154 1.19145 1.19206 1.19112 1.18753 1.18628 1.18755 1.19178 1.1863 1.18907 1.18802 1.18883 1.18986 1.1899 1.1902 1.19066 1.18976 1.1898 1.18747 1.18817 1.19004 1.18893 1.19034 1.19007 1.19084 1.18983 1.18718 1.1902 1.18685 1.18682 1.18937 1.19032 1.19059 1.18819 1.19198 1.1881 1.18945 1.19053 1.19178 1.18901 1.192 1.19013 1.19027 1.19083 1.18955 1.19144 1.19187 1.19195 1.19156 1.19019 1.19168 1.19126 1.19047 1.19161 1.19153 1.19167 1.19064 1.19104 1.18948 1.19035 1.18882 1.1916 1.19158 1.19071 1.18844 1.18676 1.18986 1.19078 1.18902 1.1886 1.1891 1.18813 1.18728 1.18811 1.18541 1.18827 1.19207 1.1889 1.19073 1.19178 1.19178 1.19034 1.1918 1.19136 1.19018 1.18969 1.19015 1.19129 1.19018 1.191 1.19152 1.19039 1.19031 1.19067 1.18979 1.19187 1.18997 1.1912 1.19169 1.19197 1.19129 1.19145 1.19178 1.19146 1.1885 1.1914 1.18824 1.18911 
SCALARS Stress float 1
LOOKUP_TABLE default
-2.09323e+12 -656009000000.0 -879007000000.0 -694362000000.0 -480592000000.0 -16244400000.0 -359084000000.0 -153206000000.0 -1.27665e+12 -1.25935e+12 -1.75344e+12 -868588000000.0 -1.05141e+12 -1.41126e+12 -2.2348e+12 -2.09325e+12 -1.98132e+12 -3.35565e+12 -1.3121e+12 -2.43907e+12 -370807000000.0 -719933000000.0 -448973000000.0 -232734000000.0 -148479000000.0 -141149000000.0 -79485200000.0 -51719800000.0 -36689100000.0 -12549700000.0 -18191700000.0 -24644000000.0 -18120500000.0 -18238500000.0 -17271200000.0 -25285100000.0 -13871000000.0 -12549700000.0 -12549700000.0 -13441700000.0 -12610100000.0 -13740400000.0 -12566400000.0 -12586000000.0 -12901900000.0 -14550600000.0 -14402200000.0 -14239300000.0 -15051900000.0 -14353500000.0 -14943700000.0 -15408300000.0 -16954300000.0 -18859400000.0 -12834200000.0 -12687000000.0 -12605700000.0 -12583300000.0 -13132900000.0 -16645200000.0 -20018300000.0 -15885500000.0 -13938500000.0 -26225500000.0 -15016200000.0 -15113300000.0 -26234100000.0 -74721300000.0 -136841000000.0 -213109000000.0 -218425000000.0 -253326000000.0 -481261000000.0 -1.00571e+12 -497775000000.0 -234284000000.0 -716024000000.0 -749766000000.0 -1.51107e+12 -1.19746e+12 -1.32603e+12 -1.60342e+12 -2.89496e+12 -3.2575e+12 -2.1807e+12 -2.39724e+12 -2.87971e+12 -3.07332e+12 -3.40085e+12 -2.78986e+12 -1.29108e+12 -2.41379e+12 -1.46413e+12 -2.17211e+12 -713612000000.0 -1.89761e+12 -130698000000.0 -54081800000.0 -375902000000.0 -170073000000.0 -87549600000.0 -150462000000.0 -23396500000.0 -47622900000.0 -17236500000.0 -36723800000.0 -83677000000.0 -52124900000.0 -24091200000.0 -28815800000.0 -33423300000.0 -48843900000.0 -22070100000.0 -14254700000.0 -13634600000.0 -17173100000.0 -15881000000.0 -15605700000.0 -13448200000.0 -14541600000.0 -16579900000.0 -13080100000.0 -14118200000.0 -14799000000.0 -14899100000.0 -13842900000.0 -13502300000.0 -13409700000.0 -14905100000.0 -12789000000.0 -24144400000.0 -27886000000.0 -12576900000.0 -12549700000.0 -12552100000.0 -14059400000.0 -20160200000.0 -22363100000.0 -12549700000.0 -13358700000.0 -42206600000.0 -12549700000.0 -12549700000.0 -92890800000.0 -111337000000.0 -27609100000.0 -51506200000.0 -227749000000.0 -135360000000.0 -374116000000.0 -68984000000.0 -380909000000.0 -2.08021e+12 -182139000000.0 -1.81193e+12 -1.59515e+12 -1.57146e+12 -2.63429e+12 -1.87663e+12 -3.38133e+12 -2.37194e+12 -2.88494e+12 -2.47348e+12 -2.53519e+12 -3.9711e+12 -1.99057e+12 -1.78242e+12 -1.32399e+12 -5.2771e+12 -4.38748e+12 -5.2092e+12 -1.40675e+12 -4.16663e+12 -2.20499e+12 -2.69994e+12 -1.86796e+12 -2.3427e+12 -1.18178e+12 -770322000000.0 -718114000000.0 -555790000000.0 -292696000000.0 -139153000000.0 -153256000000.0 -142041000000.0 -21603300000.0 -118446000000.0 -42533000000.0 -57138400000.0 -33814000000.0 -85392400000.0 -38535800000.0 -21161800000.0 -22827400000.0 -16278200000.0 -14149700000.0 -20651300000.0 -12549700000.0 -15436100000.0 -17718500000.0 -13542200000.0 -12908800000.0 -12565700000.0 -19356100000.0 -15778200000.0 -13167800000.0 -13547900000.0 -14875700000.0 -17208100000.0 -16431000000.0 -41569400000.0 -39359400000.0 -45641300000.0 -61454900000.0 -109962000000.0 -108965000000.0 -119198000000.0 -83266900000.0 -100961000000.0 -111729000000.0 -111654000000.0 -184026000000.0 -364414000000.0 -172087000000.0 -321515000000.0 -257942000000.0 -785037000000.0 -785348000000.0 -778104000000.0 -2.33018e+12 -1.5954e+12 -1.66631e+12 -2.68894e+12 -4.53402e+12 -1.99456e+12 -3.58517e+12 -2.4276e+12 -4.6812e+12 -2.09261e+12 -3.33326e+12 -1.67705e+12 -2.71238e+12 -3.4925e+12 -3.5337e+12 -2.28547e+12 -4.18882e+12 -2.32183e+12 -2.91202e+12 -4.37422e+12 -3.48053e+12 -3.02405e+12 -2.11177e+12 -1.06263e+12 -2.5933e+12 -2.64399e+12 -3.18238e+12 -2.31442e+12 -1.11137e+12 -1.77896e+12 -603468000000.0 -265421000000.0 -400876000000.0 -170155000000.0 -148380000000.0 -244569000000.0 -249623000000.0 -282641000000.0 -55564900000.0 -119862000000.0 -12549300000.0 -101464000000.0 -143455000000.0 -162624000000.0 -115785000000.0 -78508200000.0 -68012600000.0 -67851500000.0 -59693800000.0 -35870300000.0 -27043300000.0 -22179300000.0 -27800800000.0 -15566600000.0 -13333500000.0 -23142600000.0 -16349600000.0 -21838700000.0 -12868600000.0 -17567100000.0 -25613300000.0 -25371900000.0 -34597300000.0 -40379400000.0 -13754800000.0 -24308800000.0 -20225900000.0 -65424400000.0 -12549700000.0 -12549700000.0 -12549700000.0 -78417100000.0 -59350100000.0 -97857200000.0 -154151000000.0 -265192000000.0 -599766000000.0 -908777000000.0 -185245000000.0 -816512000000.0 -1.35311e+12 -1.94936e+12 -982784000000.0 -1.06375e+12 -2.48782e+12 -1.84355e+12 -3.21549e+12 -2.9466e+12 -2.20936e+12 -2.70925e+12 -2.04971e+12 -3.7409e+12 -5.85694e+12 -3.82694e+12 -3.98036e+12 -4.00067e+12 -3.61781e+12 -5.49544e+12 -7.20043e+12 -4.24837e+12 -3.34331e+12 -4.96387e+12 -4.57909e+12 -2.2695e+12 -1.71622e+12 -4.06904e+12 -3.11007e+12 -2.80985e+12 -3.3412e+12 -1.98765e+12 -1.50981e+12 -1.89588e+12 -1.20054e+12 -1.17255e+12 -510922000000.0 -1.78817e+12 -1.12916e+12 -824749000000.0 -738522000000.0 -557881000000.0 -320974000000.0 -418122000000.0 -349254000000.0 -145279000000.0 -80936600000.0 -279544000000.0 -168530000000.0 -33726200000.0 -54113100000.0 -32182900000.0 -26552000000.0 -25904700000.0 -46512600000.0 -19360300000.0 -25521100000.0 -37314500000.0 -50590900000.0 -37392000000.0 -17240300000.0 -25864600000.0 -14180700000.0 -22383300000.0 -38783500000.0 -19890800000.0 -41281600000.0 -38845300000.0 -27835200000.0 -36506600000.0 -33889000000.0 -95275200000.0 -12549700000.0 -19210300000.0 -40050700000.0 -125966000000.0 -137819000000.0 -122076000000.0 -110903000000.0 -193472000000.0 -284394000000.0 -245839000000.0 -98881400000.0 -130472000000.0 -866529000000.0 -473631000000.0 -920038000000.0 -488794000000.0 -650216000000.0 -1.40339e+12 -1.45063e+12 -2.45345e+12 -3.18583e+12 -2.16665e+12 -3.75461e+12 -1.89026e+12 -3.07422e+12 -2.05655e+12 -4.61841e+12 -3.39735e+12 -4.74779e+12 -4.33515e+12 -3.39518e+12 -4.60866e+12 -4.08659e+12 -5.3155e+12 -3.34671e+12 -3.58988e+12 -774868000000.0 -2.33113e+12 -3.38257e+12 -4.34572e+12 -5.29812e+12 -2.40591e+12 -8.62191e+12 -5.87009e+12 -6.88475e+12 -3.43723e+12 -4.52931e+12 -3.2109e+12 -3.36104e+12 -1.36771e+12 -3.18206e+12 -4.19934e+12 -3.2534e+12 -2.37201e+12 -2.14206e+12 -1.13044e+12 -1.14374e+12 -1.16366e+12 -708067000000.0 -514723000000.0 -1.71612e+12 -1.06105e+12 -64852800000.0 -851593000000.0 -697122000000.0 -924486000000.0 -390209000000.0 -395497000000.0 -84172500000.0 -75612800000.0 -215895000000.0 -103268000000.0 -177794000000.0 -92648100000.0 -27984100000.0 -70092400000.0 -61854900000.0 -53130400000.0 -14241000000.0 -22292500000.0 -14303400000.0 -50473800000.0 -41506500000.0 -19453300000.0 -20940100000.0 -39674700000.0 -37993400000.0 -43394700000.0 -13839900000.0 -58780600000.0 -30958600000.0 -46507600000.0 -31467800000.0 -40570100000.0 -66590200000.0 -76556100000.0 -40826600000.0 -73959700000.0 -112387000000.0 -154160000000.0 -201118000000.0 -270039000000.0 -91192900000.0 -221645000000.0 -225121000000.0 -142633000000.0 -169274000000.0 -181628000000.0 -707975000000.0 -399843000000.0 -1.01452e+12 -1.66339e+12 -1.58583e+12 -1.04573e+12 -1.1042e+12 -1.54413e+12 -2.85175e+12 -2.36865e+12 -4.42198e+12 -1.2313e+12 -3.78211e+12 -3.53148e+12 -3.57602e+12 -4.11947e+12 -4.20085e+12 -6.64739e+12 -7.3064e+12 -5.44628e+12 -4.2333e+12 -5.42386e+12 -2.25252e+12 -3.251e+12 -4.1727e+12 -4.80431e+12 -2.73478e+12 -3.81512e+12 -4.9615e+12 -2.81417e+12 -5.49293e+12 -4.16627e+12 -3.14972e+12 -5.95999e+12 -2.35761e+12 -1.90169e+12 -1.93237e+12 -2.28191e+12 -1.04418e+12 -2.37687e+12 -2.18666e+12 -2.05157e+12 -1.6502e+12 -1.78185e+12 -861879000000.0 -1.09019e+12 -1.58349e+12 -496308000000.0 -902081000000.0 -385810000000.0 -756334000000.0 -569440000000.0 -585329000000.0 -624652000000.0 -368418000000.0 -334280000000.0 -160229000000.0 -182579000000.0 -111573000000.0 -95065600000.0 -62932600000.0 -40923700000.0 -66995400000.0 -43847400000.0 -44040900000.0 -43272000000.0 -38735400000.0 -26756400000.0 -28046600000.0 -27110700000.0 -14281800000.0 -24115400000.0 -24293000000.0 -42973900000.0 -35816300000.0 -53359000000.0 -46913500000.0 -44254700000.0 -33042200000.0 -37293700000.0 -46983400000.0 -99288500000.0 -67804100000.0 -12549700000.0 -24870700000.0 -148173000000.0 -248174000000.0 -283839000000.0 -507817000000.0 -559070000000.0 -631746000000.0 -286502000000.0 -810339000000.0 -866472000000.0 -407394000000.0 -1.37838e+12 -1.85695e+12 -1.62419e+12 -1.77151e+12 -1.17989e+12 -2.86718e+12 -3.96523e+12 -1.72073e+12 -1.089e+12 -2.67121e+12 -3.45989e+12 -3.37637e+12 -4.4688e+12 -3.67259e+12 -5.70849e+12 -5.59454e+12 -2.10649e+12 -3.65883e+12 -5.45424e+12 -5.65517e+12 -2.80425e+12 -4.66937e+12 -2.96145e+12 -2.72827e+12 -5.19209e+12 -3.6562e+12 -4.40289e+12 -4.69941e+12 -4.15004e+12 -2.65115e+12 -4.52794e+12 -5.2373e+12 -2.24505e+12 -5.99624e+12 -4.07364e+12 -1.92191e+12 -4.46209e+12 -723814000000.0 -4.92055e+12 -3.35432e+12 -2.5961e+12 -1.1192e+12 -2.79475e+12 -1.82019e+12 -1.79268e+12 -2.25293e+12 -1.17434e+12 -762396000000.0 -1.10002e+12 -556967000000.0 -281519000000.0 -471795000000.0 -289257000000.0 -311801000000.0 -56942600000.0 -279832000000.0 -136800000000.0 -149981000000.0 -79099500000.0 -69600900000.0 -46377400000.0 -43415600000.0 -27983600000.0 -27548300000.0 -16300700000.0 -24182500000.0 -23398200000.0 -21551500000.0 -18336100000.0 -17643700000.0 -13469300000.0 -18653600000.0 -20979700000.0 -22755800000.0 -41759200000.0 -50497200000.0 -41166500000.0 -55842000000.0 -63017600000.0 -24109600000.0 -17230400000.0 -16028800000.0 -33448000000.0 -49182200000.0 -16510800000.0 -56782900000.0 -57388300000.0 -225796000000.0 -217308000000.0 -95458800000.0 -208545000000.0 -119634000000.0 -335122000000.0 -380130000000.0 -663345000000.0 -424813000000.0 -722900000000.0 -817416000000.0 -540427000000.0 -1.52049e+12 -886169000000.0 -2.78463e+12 -1.96416e+12 -1.14956e+12 -2.69885e+12 -2.77941e+12 -1.65546e+12 -4.1456e+12 -4.81221e+12 -2.31627e+12 -2.94056e+12 -3.58823e+12 -3.89388e+12 -4.94832e+12 -4.41486e+12 -5.18362e+12 -2.1698e+12 -3.71073e+12 -2.86871e+12 -7.33568e+12 -5.97087e+12 -4.82008e+12 -8.63597e+12 -2.77236e+12 -3.72206e+12 -2.0039e+12 -2.29525e+12 -2.89297e+12 -5.901e+12 -4.20032e+12 -5.27333e+12 -4.72349e+12 -4.49843e+12 -3.84925e+12 -2.82543e+12 -2.94366e+12 -2.88904e+12 -3.81529e+12 -3.53425e+12 -3.24087e+12 -4.40231e+12 -4.85422e+12 -3.03328e+12 -4.86509e+12 -3.02785e+12 -2.51406e+12 -3.06294e+12 -1.84209e+12 -628197000000.0 -473995000000.0 -1.57102e+12 -823475000000.0 -2.09215e+12 -786961000000.0 -1.29819e+12 -282068000000.0 -528723000000.0 -512763000000.0 -327452000000.0 -322120000000.0 -373755000000.0 -131947000000.0 -241077000000.0 -166350000000.0 -212628000000.0 -79433400000.0 -64199800000.0 -78491000000.0 -78510300000.0 -65880600000.0 -53584100000.0 -47834700000.0 -41119700000.0 -40499600000.0 -43770100000.0 -43238400000.0 -34944600000.0 -39480700000.0 -52510200000.0 -12592700000.0 -34059400000.0 -31958400000.0 -47818900000.0 -20338100000.0 -53458700000.0 -47529900000.0 -13283700000.0 -90513200000.0 -100601000000.0 -59022300000.0 -74430400000.0 -125466000000.0 -111910000000.0 -166323000000.0 -214655000000.0 -204094000000.0 -50652500000.0 -18383900000.0 -182896000000.0 -331726000000.0 -529949000000.0 -252450000000.0 -271697000000.0 -1.27229e+12 -1.07379e+12 -1.92165e+12 -1.30631e+12 -1.68723e+12 -1.0842e+12 -1.78604e+12 -1.80211e+12 -2.79959e+12 -2.83957e+12 -3.07915e+12 -3.18826e+12 -3.4512e+12 -6.91241e+12 -4.04321e+12 -2.28652e+12 -3.28899e+12 -3.63921e+12 -3.81158e+12 -2.40314e+12 -5.20927e+12 -5.14742e+12 -4.16743e+12 -5.4327e+12 -4.2792e+12 -4.42516e+12 -1.36546e+12 -5.12121e+12 -2.72671e+12 -7.36966e+12 -5.50353e+12 -5.35388e+12 -5.95944e+12 -3.85714e+12 -1.98357e+12 -3.05896e+12 -4.40212e+12 -3.01251e+12 -4.68989e+12 -2.18022e+12 -3.46361e+12 -2.00753e+12 -2.00721e+12 -1.91039e+12 -1.71525e+12 -1.6482e+12 -1.48058e+12 -1.60249e+12 -524326000000.0 -532335000000.0 -1.00211e+12 -695657000000.0 -739502000000.0 -1.1199e+12 -634283000000.0 -443912000000.0 -162717000000.0 -189215000000.0 -212013000000.0 -241260000000.0 -26603300000.0 -210102000000.0 -189970000000.0 -13555600000.0 -175578000000.0 -22616900000.0 -46078000000.0 -19542900000.0 -14856200000.0 -30235700000.0 -15515100000.0 -37434100000.0 -12549700000.0 -12902100000.0 -14191800000.0 -25550300000.0 -23889500000.0 -30216700000.0 -44737200000.0 -13068300000.0 -34100300000.0 -25449800000.0 -14593500000.0 -15487200000.0 -45862300000.0 -34348900000.0 -27649200000.0 -89985000000.0 -37173600000.0 -27027600000.0 -73936900000.0 -43234300000.0 -79608900000.0 -57183200000.0 -124565000000.0 -111378000000.0 -180223000000.0 -396355000000.0 -422450000000.0 -391121000000.0 -112990000000.0 -691785000000.0 -1.08926e+12 -1.37611e+12 -1.24478e+12 -1.18144e+12 -919799000000.0 -588932000000.0 -1.57095e+12 -1.52408e+12 -1.43963e+12 -949606000000.0 -1.62568e+12 -3.05433e+12 -1.95451e+12 -2.4005e+12 -1.65074e+12 -2.66753e+12 -4.47571e+12 -4.39105e+12 -5.31551e+12 -4.31066e+12 -2.82429e+12 -5.04586e+12 -3.8162e+12 -1.32123e+12 -5.49523e+12 -3.34757e+12 -4.42791e+12 -2.88154e+12 -3.02082e+12 -4.38026e+12 -3.13813e+12 -3.50356e+12 -3.62139e+12 -2.95518e+12 -2.9669e+12 -4.12273e+12 -5.9552e+12 -5.0486e+12 -4.02068e+12 -2.9719e+12 -4.70398e+12 -6.3125e+12 -1.68377e+12 -4.91563e+12 -2.74177e+12 -1.89402e+12 -5.76992e+12 -1.94782e+12 -2.18476e+12 -2.22332e+12 -2.39838e+12 -1.35793e+12 -1.90155e+12 -2.11848e+12 -679879000000.0 -1.9205e+12 -1.43071e+12 -3.3303e+12 -1.23317e+12 -412051000000.0 -1.91304e+12 -1.87833e+12 -1.81455e+12 -771470000000.0 -629039000000.0 -316341000000.0 -355200000000.0 -100237000000.0 -196903000000.0 -213414000000.0 -22865800000.0 -179787000000.0 -151182000000.0 -13263300000.0 -168235000000.0 -128854000000.0 -37788600000.0 -149806000000.0 -112734000000.0 -147943000000.0 -84734000000.0 -30860500000.0 -22174100000.0 -47110500000.0 -41734100000.0 -54207600000.0 -24274200000.0 -22049200000.0 -24102700000.0 -18176900000.0 -26135800000.0 -18040100000.0 -27899300000.0 -22659700000.0 -21960000000.0 -51573600000.0 -42347000000.0 -44159600000.0 -43421300000.0 -50175200000.0 -71491100000.0 -54018100000.0 -55204600000.0 -77288000000.0 -49677000000.0 -65409300000.0 -25527800000.0 -62330400000.0 -24313500000.0 -171432000000.0 -279382000000.0 -350075000000.0 -198790000000.0 -340662000000.0 -326375000000.0 -539312000000.0 -270312000000.0 -726142000000.0 -517984000000.0 -853581000000.0 -497732000000.0 -463798000000.0 -872226000000.0 -792625000000.0 -1.07053e+12 -1.93315e+12 -1.58869e+12 -1.57393e+12 -2.45378e+12 -2.24478e+12 -3.05595e+12 -4.25198e+12 -4.00192e+12 -1.59338e+12 -4.31655e+12 -3.34472e+12 -1.79276e+12 -3.64666e+12 -4.03881e+12 -4.23477e+12 -3.8776e+12 -4.33412e+12 -3.67248e+12 -5.73233e+12 -3.56023e+12 -2.02593e+12 -2.54789e+12 -5.84424e+12 -2.47368e+12 -2.88754e+12 -4.29803e+12 -1.86699e+12 -1.82928e+12 -5.04133e+12 -5.09823e+12 -4.99463e+12 -3.42566e+12 -2.06671e+12 -3.60772e+12 -3.23217e+12 -5.24825e+12 -4.079e+12 -4.15662e+12 -4.04544e+12 -4.20439e+12 -3.19171e+12 -3.97428e+12 -3.41345e+12 -1.58342e+12 -1.18199e+12 -2.24421e+12 -1.73542e+12 -1.35565e+12 -2.05897e+12 -2.7181e+12 -2.25861e+12 -2.13637e+12 -1.10425e+12 -1.77885e+12 -836681000000.0 -1.21441e+12 -628524000000.0 -410472000000.0 -422614000000.0 -229065000000.0 -331279000000.0 -12700800000.0 -128562000000.0 -214215000000.0 -208327000000.0 -36651200000.0 -74025900000.0 -65885900000.0 -112157000000.0 -97936400000.0 -53206600000.0 -79996900000.0 -27265700000.0 -17828300000.0 -45874900000.0 -12549700000.0 -13251100000.0 -34418700000.0 -27466000000.0 -21143500000.0 -44313700000.0 -12549700000.0 -12549700000.0 -27782000000.0 -72079700000.0 -65530900000.0 -20858300000.0 -35827600000.0 -73901300000.0 -78628800000.0 -82600500000.0 -173959000000.0 -108468000000.0 -145918000000.0 -27528900000.0 -81099100000.0 -73722700000.0 -178621000000.0 -432837000000.0 -533314000000.0 -536795000000.0 -522633000000.0 -635422000000.0 -979400000000.0 -428859000000.0 -804994000000.0 -964914000000.0 -1.69192e+12 -1.71518e+12 -330948000000.0 -1.70467e+12 -1.19481e+12 -1.50228e+12 -2.37039e+12 -2.74503e+12 -1.81928e+12 -2.80329e+12 -2.95788e+12 -2.46672e+12 -1.2526e+12 -3.92855e+12 -2.04785e+12 -1.38823e+12 -2.84845e+12 -2.02078e+12 -2.32646e+12 -3.67199e+12 -3.59429e+12 -2.78385e+12 -2.81108e+12 -3.03586e+12 -5.00993e+12 -3.15984e+12 -2.81457e+12 -3.16977e+12 -3.3397e+12 -2.93676e+12 -4.7173e+12 -2.68554e+12 -1.08407e+12 -1.55288e+12 -1.90422e+12 -5.73349e+12 -3.48418e+12 -4.4051e+12 -1.69286e+12 -2.35543e+12 -3.20334e+12 -2.55284e+12 -4.51837e+12 -5.16175e+12 -1.40501e+12 -2.96605e+12 -5.15519e+12 -3.10627e+12 -3.02124e+12 -3.38498e+12 -2.32414e+12 -2.44036e+12 -2.28518e+12 -2.10429e+12 -1.26666e+12 -885941000000.0 -1.39968e+12 -1.63637e+12 -1.40662e+12 -1.17814e+12 -1.69434e+12 -1.56867e+12 -1.19639e+12 -546055000000.0 -1.00663e+12 -1.03596e+12 -518439000000.0 -400798000000.0 -264872000000.0 -215782000000.0 -128748000000.0 -124801000000.0 -191306000000.0 -180582000000.0 -157724000000.0 -103631000000.0 -157743000000.0 -167704000000.0 -59165800000.0 -57645200000.0 -34101900000.0 -46736000000.0 -39901700000.0 -30263100000.0 -32164700000.0 -47277600000.0 -36731600000.0 -51053800000.0 -24093900000.0 -31286200000.0 -45535700000.0 -12549700000.0 -65984000000.0 -82909000000.0 -34021300000.0 -82030200000.0 -102842000000.0 -37749600000.0 -50235800000.0 -90867000000.0 -163332000000.0 -188248000000.0 -153832000000.0 -244370000000.0 -403462000000.0 -150400000000.0 -169706000000.0 -68655900000.0 -387983000000.0 -161564000000.0 -518692000000.0 -373222000000.0 -591792000000.0 -507453000000.0 -642361000000.0 -1.23979e+12 -1.20677e+12 -575872000000.0 -2.09603e+12 -954107000000.0 -1.57738e+12 -1.19548e+12 -2.62826e+12 -3.65666e+12 -2.20804e+12 -2.64734e+12 -1.92799e+12 -1.45111e+12 -2.34125e+12 -3.55047e+12 -3.31482e+12 -3.18181e+12 -2.80204e+12 -3.11191e+12 -2.62409e+12 -1.4654e+12 -2.48816e+12 -2.94772e+12 -5.10404e+12 -3.26806e+12 -2.71397e+12 -3.42498e+12 -2.42717e+12 -1.30177e+12 -1.46557e+12 -3.51853e+12 -3.21311e+12 -1.42346e+12 -1.64824e+12 -5.0155e+12 -3.6967e+12 -3.01059e+12 -1.83509e+12 -1.10239e+12 -3.81104e+12 -3.82479e+12 -2.24453e+12 -2.65248e+12 -2.01462e+12 -1.412e+12 -2.14566e+12 -2.02224e+12 -1.84103e+12 -51062800000.0 -2.92119e+12 -839471000000.0 -783710000000.0 -2.22531e+12 -1.1048e+12 -1.0241e+12 -1.22293e+12 -427181000000.0 -396173000000.0 -938789000000.0 -526035000000.0 -807099000000.0 -738534000000.0 -437461000000.0 -306043000000.0 -584801000000.0 -306304000000.0 -330167000000.0 -306139000000.0 -129641000000.0 -72263300000.0 -78658700000.0 -48764300000.0 -101768000000.0 -36204400000.0 -15016800000.0 -19712800000.0 -39903800000.0 -44080100000.0 -25897300000.0 -17058900000.0 -52000500000.0 -12747500000.0 -20077100000.0 -16815100000.0 -12709600000.0 -44025900000.0 -13984700000.0 -43068500000.0 -24110200000.0 -14009400000.0 -48410400000.0 -57399100000.0 -22271000000.0 -24013000000.0 -43821900000.0 -50191600000.0 -122483000000.0 -73068600000.0 -50583100000.0 -72580000000.0 -34032500000.0 -17679500000.0 -33492300000.0 -23770100000.0 -21613500000.0 -35354200000.0 -47335200000.0 -102226000000.0 -134041000000.0 -246914000000.0 -83293100000.0 -568098000000.0 -372974000000.0 -653251000000.0 -350034000000.0 -787760000000.0 -680797000000.0 -118305000000.0 -475076000000.0 -579660000000.0 -909767000000.0 -860393000000.0 -1.11009e+12 -1.60748e+12 -2.51225e+12 -1.51357e+12 -1.32055e+12 -1.59885e+12 -674885000000.0 -610051000000.0 -2.89019e+12 -1.47126e+12 -2.0395e+12 -3.29612e+12 -3.92983e+12 -2.43922e+12 -2.79742e+12 -2.65772e+12 -2.07218e+12 -3.53887e+12 -2.22006e+12 -2.54054e+12 -979805000000.0 -1.75141e+12 -2.6591e+12 -4.41085e+12 -2.5005e+12 -2.24272e+12 -3.13102e+12 -1.1618e+12 -1.00269e+12 -2.0808e+12 -2.4723e+12 -759130000000.0 -2.94804e+12 -2.14564e+12 -2.55212e+12 -3.07316e+12 -1.68402e+12 -971090000000.0 -598969000000.0 -1.62703e+12 -1.05781e+12 -1.82033e+12 -909198000000.0 -2.77431e+12 -988857000000.0 -622009000000.0 -2.19065e+12 -2.29282e+12 -1.26592e+12 -1.11923e+12 -1.31019e+12 -549481000000.0 -749352000000.0 -1.21297e+12 -684692000000.0 -663394000000.0 -600451000000.0 -85987400000.0 -523741000000.0 -339680000000.0 -16301900000.0 -86823300000.0 -30466800000.0 -12632800000.0 -358965000000.0 -194162000000.0 -437791000000.0 -295702000000.0 -170305000000.0 -37520300000.0 -99085700000.0 -88455300000.0 -52269400000.0 -65178900000.0 -15750200000.0 -12866300000.0 -45295500000.0 -14873400000.0 -17912000000.0 -38236700000.0 -39037200000.0 -41356600000.0 -44764600000.0 -28848700000.0 -32363200000.0 -16522000000.0 -42420300000.0 -66164800000.0 -65847300000.0 -60326700000.0 -40156000000.0 -21359700000.0 -59134800000.0 -121432000000.0 -22270300000.0 -43643200000.0 -67785300000.0 -28810300000.0 -22827900000.0 -34855600000.0 -94036000000.0 -267205000000.0 -297807000000.0 -163137000000.0 -376874000000.0 -130080000000.0 -72096300000.0 -272267000000.0 -96746800000.0 -550248000000.0 -197976000000.0 -279219000000.0 -114977000000.0 -401978000000.0 -1.05028e+12 -778193000000.0 -1.19292e+12 -635395000000.0 -1.21587e+12 -1.11999e+12 -1.68098e+12 -2.12939e+12 -3.18077e+12 -2.44002e+12 -1.65266e+12 -2.49275e+12 -1.2838e+12 -3.7449e+12 -2.19107e+12 -2.82406e+12 -2.82489e+12 -2.70373e+12 -1.64815e+12 -2.20935e+12 -1.49409e+12 -3.57752e+12 -1.59933e+12 -2.73508e+12 -2.89059e+12 -1.60023e+12 -1.16176e+12 -2.15547e+12 -2.50131e+12 -969541000000.0 -2.22433e+12 -1.76445e+12 -1.61807e+12 -2.01085e+12 -1.23326e+12 -1.48929e+12 -988119000000.0 -1.72102e+12 -1.61117e+12 -1.99448e+12 -450387000000.0 -1.73413e+12 -746845000000.0 -833918000000.0 -849746000000.0 -881070000000.0 -991645000000.0 -255833000000.0 -280637000000.0 -871583000000.0 -409346000000.0 -137629000000.0 -281105000000.0 -277130000000.0 -486138000000.0 -70417400000.0 -13922900000.0 -195705000000.0 -192822000000.0 -107633000000.0 -44473500000.0 -218676000000.0 -28626900000.0 -107631000000.0 -132768000000.0 -133548000000.0 -109217000000.0 -31648300000.0 -32978600000.0 -41398700000.0 -53453000000.0 -35851100000.0 -21963100000.0 -56193600000.0 -26549800000.0 -13385400000.0 -30502100000.0 -38188500000.0 -12549700000.0 -36496400000.0 -37091100000.0 -38988800000.0 -29621900000.0 -93485700000.0 -42255900000.0 -25173700000.0 -25709400000.0 -58047300000.0 -110530000000.0 -23755200000.0 -59578800000.0 -54045000000.0 -54501400000.0 -81452500000.0 -35077300000.0 -221759000000.0 -175540000000.0 -13368400000.0 -49544300000.0 -224569000000.0 -211688000000.0 -230585000000.0 -105917000000.0 -115462000000.0 -760177000000.0 -357736000000.0 -417929000000.0 -218240000000.0 -239255000000.0 -1.18895e+12 -500792000000.0 -577932000000.0 -1.38673e+12 -871839000000.0 -1.49533e+12 -1.15604e+12 -1.4707e+12 -1.72692e+12 -2.17221e+12 -2.04046e+12 -1.43631e+12 -1.42968e+12 -1.68468e+12 -1.70126e+12 -2.77129e+12 -1.94243e+12 -2.62411e+12 -2.06799e+12 -2.46157e+12 -3.43951e+12 -2.14055e+12 -2.57332e+12 -1.11376e+12 -2.53592e+12 -2.09141e+12 -1.15441e+12 -1.71935e+12 -863526000000.0 -2.035e+12 -2.64819e+12 -1.78079e+12 -2.55151e+12 -1.23551e+12 -3.61039e+12 -2.14288e+12 -1.83331e+12 -829364000000.0 -1.30453e+12 -2.27217e+12 -1.42793e+12 -1.19885e+12 -1.21349e+12 -807052000000.0 -1.23289e+12 -464188000000.0 -478121000000.0 -145216000000.0 -459226000000.0 -234007000000.0 -512987000000.0 -516204000000.0 -670144000000.0 -456768000000.0 -450671000000.0 -130541000000.0 -37693500000.0 -53032200000.0 -141410000000.0 -50912900000.0 -114294000000.0 -12634500000.0 -96063700000.0 -12549700000.0 -48298500000.0 -76643900000.0 -17591000000.0 -44983400000.0 -15503000000.0 -46939600000.0 -74865100000.0 -40975000000.0 -31441700000.0 -15918300000.0 -30343500000.0 -36889600000.0 -29503500000.0 -56684700000.0 -53725200000.0 -58700500000.0 -31416000000.0 -64832600000.0 -173429000000.0 -41664200000.0 -72221300000.0 -81618900000.0 -38734500000.0 -234660000000.0 -18545800000.0 -137036000000.0 -70224800000.0 -152607000000.0 -265729000000.0 -123224000000.0 -191621000000.0 -353508000000.0 -489903000000.0 -306910000000.0 -215436000000.0 -218864000000.0 -923314000000.0 -878432000000.0 -12550300000.0 -192424000000.0 -62461500000.0 -326997000000.0 -1.22667e+12 -1.10316e+12 -411468000000.0 -695925000000.0 -1.54518e+12 -1.00657e+12 -589860000000.0 -923274000000.0 -222312000000.0 -2.33725e+12 -306260000000.0 -183223000000.0 -2.0866e+12 -1.69898e+12 -2.86377e+12 -2.59671e+12 -1.12862e+12 -1.58926e+12 -1.78671e+12 -3.43163e+12 -1.90658e+12 -1.96857e+12 -1.14093e+12 -794448000000.0 -1.67693e+12 -1.05205e+12 -597912000000.0 -1.13537e+12 -285315000000.0 -1.08532e+12 -808098000000.0 -1.09114e+12 -2.62792e+12 -1.15649e+12 -1.57803e+12 -962096000000.0 -419142000000.0 -1.36086e+12 -1.10776e+12 -559448000000.0 -705389000000.0 -286364000000.0 -546391000000.0 -777811000000.0 -831652000000.0 -231237000000.0 -592854000000.0 -400625000000.0 -294297000000.0 -25003900000.0 -199278000000.0 -289867000000.0 -12549700000.0 -34680600000.0 -18622100000.0 -261369000000.0 -203036000000.0 -144274000000.0 -17411600000.0 -206387000000.0 -13115300000.0 -99222700000.0 -51585800000.0 -52608800000.0 -12555100000.0 -44374600000.0 -40462900000.0 -53707600000.0 -45553300000.0 -58446200000.0 -12549700000.0 -40183900000.0 -51612800000.0 -57112000000.0 -12626300000.0 -12589700000.0 -23660100000.0 -26427300000.0 -12554800000.0 -48244300000.0 -42499300000.0 -23875800000.0 -133140000000.0 -12686000000.0 -68015300000.0 -99305200000.0 -64966600000.0 -75155300000.0 -87669600000.0 -179386000000.0 -74918900000.0 -126301000000.0 -64300500000.0 -35556200000.0 -18690900000.0 -31664100000.0 -386945000000.0 -73720800000.0 -211048000000.0 -139017000000.0 -254404000000.0 -647062000000.0 -25993100000.0 -12549700000.0 -180412000000.0 -89711200000.0 -65996500000.0 -125376000000.0 -162434000000.0 -784302000000.0 -498681000000.0 -769666000000.0 -1.10045e+12 -647995000000.0 -1.11855e+12 -796575000000.0 -718053000000.0 -1.97641e+12 -748273000000.0 -1.49439e+12 -1.94698e+12 -1.61023e+12 -2.05337e+12 -1.63061e+12 -1.7423e+12 -2.15074e+12 -2.9657e+12 -1.4838e+12 -1.24537e+12 -779337000000.0 -1.24139e+12 -1.18303e+12 -958854000000.0 -949234000000.0 -1.54598e+12 -173191000000.0 -609305000000.0 -1.5561e+12 -286937000000.0 -243049000000.0 -1.24542e+12 -243654000000.0 -1.00507e+12 -1.06881e+12 -898889000000.0 -1.69241e+12 -331433000000.0 -641379000000.0 -222111000000.0 -167854000000.0 -523720000000.0 -744870000000.0 -730113000000.0 -351823000000.0 -144057000000.0 -78276900000.0 -195758000000.0 -332701000000.0 -48386400000.0 -177451000000.0 -27710800000.0 -45358200000.0 -24419800000.0 -13541700000.0 -125207000000.0 -102447000000.0 -66021100000.0 -69808800000.0 -127972000000.0 -22213000000.0 -158789000000.0 -111038000000.0 -112059000000.0 -85743500000.0 -63354500000.0 -73110500000.0 -49777800000.0 -12890600000.0 -23516300000.0 -29031000000.0 -72483500000.0 -37259500000.0 -20497500000.0 -30353600000.0 -96382400000.0 -62051500000.0 -73209600000.0 -76599700000.0 -60805900000.0 -78034500000.0 -85916000000.0 -14087700000.0 -85287900000.0 -94801200000.0 -107403000000.0 -82030100000.0 -56900700000.0 -116584000000.0 -191862000000.0 -62147200000.0 -94644800000.0 -157641000000.0 -211477000000.0 -233513000000.0 -27346100000.0 -139530000000.0 -112501000000.0 -137868000000.0 -172411000000.0 -157767000000.0 -188951000000.0 -540648000000.0 -210429000000.0 -371152000000.0 -281100000000.0 -79175500000.0 -445764000000.0 -762787000000.0 -296472000000.0 -138343000000.0 -46675900000.0 -632656000000.0 -947795000000.0 -532499000000.0 -1.21005e+12 -375968000000.0 -1.20384e+12 -1.55026e+12 -714731000000.0 -1.21406e+12 -743174000000.0 -2.01075e+12 -794208000000.0 -774124000000.0 -461848000000.0 -1.22306e+12 -1.99635e+12 -1.86371e+12 -1.47771e+12 -508250000000.0 -1.05388e+12 -516483000000.0 -369381000000.0 -473600000000.0 -664337000000.0 -1.45861e+12 -302042000000.0 -100483000000.0 -841750000000.0 -360314000000.0 -1.2914e+12 -381417000000.0 -778980000000.0 -244064000000.0 -102709000000.0 -1.02186e+12 -1.05384e+12 -123979000000.0 -470975000000.0 -623975000000.0 -647017000000.0 -804171000000.0 -562906000000.0 -432220000000.0 -390425000000.0 -182897000000.0 -42895900000.0 -111837000000.0 -127732000000.0 -54263900000.0 -19025500000.0 -26114000000.0 -175756000000.0 -25382700000.0 -27709000000.0 -100671000000.0 -75446200000.0 -49796500000.0 -49437400000.0 -90380300000.0 -120833000000.0 -107889000000.0 -54492700000.0 -36761400000.0 -129035000000.0 -66702000000.0 -95630500000.0 -12549700000.0 -60695700000.0 -95067200000.0 -12644500000.0 -35570000000.0 -44266200000.0 -63247500000.0 -67153700000.0 -16931100000.0 -62573700000.0 -49960800000.0 -68071200000.0 -13109400000.0 -18249000000.0 -15041100000.0 -26224400000.0 -50667200000.0 -108215000000.0 -60022900000.0 -76448800000.0 -74518100000.0 -38528300000.0 -106629000000.0 -68213400000.0 -142508000000.0 -52609600000.0 -36754800000.0 -22542500000.0 -161827000000.0 -19327700000.0 -151579000000.0 -33254000000.0 -20255200000.0 -48503100000.0 -27156800000.0 -80926000000.0 -199311000000.0 -118667000000.0 -74464300000.0 -316456000000.0 -255588000000.0 -239688000000.0 -129681000000.0 -312237000000.0 -407556000000.0 -556211000000.0 -331619000000.0 -870332000000.0 -303220000000.0 -247734000000.0 -318317000000.0 -1.19505e+12 -1.04243e+12 -1.36089e+12 -858633000000.0 -803821000000.0 -608636000000.0 -855610000000.0 -823294000000.0 -565065000000.0 -492126000000.0 -922995000000.0 -1.02618e+12 -472677000000.0 -1.32883e+12 -2.35213e+12 -1.02315e+12 -682018000000.0 -223051000000.0 -739157000000.0 -1.29489e+12 -659786000000.0 -1.25159e+12 -493565000000.0 -986921000000.0 -401814000000.0 -743067000000.0 -411963000000.0 -325453000000.0 -504069000000.0 -433961000000.0 -801801000000.0 -649679000000.0 -717937000000.0 -480051000000.0 -46975600000.0 -55967600000.0 -258713000000.0 -277233000000.0 -182980000000.0 -108217000000.0 -57201900000.0 -19479300000.0 -91628100000.0 -37703800000.0 -42519600000.0 -69145000000.0 -131736000000.0 -29409200000.0 -82475700000.0 -21750800000.0 -54469200000.0 -73418600000.0 -61068700000.0 -42553300000.0 -61896400000.0 -67805000000.0 -36230100000.0 -55173000000.0 -40082800000.0 -29307000000.0 -43049700000.0 -69093200000.0 -45932700000.0 -96036200000.0 -53928700000.0 -35568200000.0 -96586300000.0 -18177100000.0 -153903000000.0 -38344300000.0 -13632800000.0 -92698400000.0 -40347100000.0 -61211400000.0 -71178200000.0 -20467600000.0 -84599800000.0 -92877500000.0 -82447200000.0 -47836800000.0 -98111900000.0 -161942000000.0 -17088200000.0 -42018400000.0 -49502700000.0 -105687000000.0 -157654000000.0 -266181000000.0 -280141000000.0 -22785100000.0 -220312000000.0 -23226800000.0 -209574000000.0 -89682900000.0 -322457000000.0 -21453800000.0 -112185000000.0 -85346800000.0 -412066000000.0 -366857000000.0 -475109000000.0 -1.25654e+12 -374754000000.0 -609722000000.0 -906361000000.0 -1.78722e+12 -810891000000.0 -699474000000.0 -471126000000.0 -710494000000.0 -527181000000.0 -461160000000.0 -1.64552e+12 -614229000000.0 -780692000000.0 -1.08126e+12 -1.33954e+12 -407110000000.0 -774028000000.0 -289535000000.0 -526112000000.0 -651577000000.0 -826155000000.0 -453438000000.0 -704254000000.0 -495741000000.0 -499172000000.0 -695006000000.0 -628163000000.0 -371013000000.0 -326598000000.0 -624632000000.0 -210414000000.0 -622906000000.0 -338098000000.0 -393160000000.0 -177478000000.0 -358641000000.0 -308731000000.0 -42026300000.0 -64092300000.0 -177869000000.0 -148892000000.0 -55538400000.0 -67370400000.0 -198983000000.0 -118210000000.0 -140900000000.0 -62224500000.0 -61288800000.0 -63265100000.0 -21183300000.0 -88832900000.0 -61612300000.0 -75618000000.0 -67545900000.0 -59059000000.0 -33821700000.0 -23999600000.0 -46356000000.0 -34759100000.0 -48149000000.0 -17384800000.0 -52724200000.0 -20174400000.0 -29691000000.0 -34802100000.0 -79568900000.0 -12549700000.0 -67225100000.0 -57044100000.0 -64709900000.0 -13487600000.0 -106034000000.0 -23043900000.0 -97677800000.0 -14368600000.0 -20177800000.0 -18014100000.0 -13927600000.0 -118914000000.0 -50936100000.0 -74520600000.0 -62404800000.0 -56464900000.0 -34081300000.0 -90129500000.0 -51218800000.0 -121696000000.0 -49558900000.0 -69640300000.0 -56805000000.0 -114921000000.0 -79876100000.0 -143457000000.0 -293076000000.0 -188493000000.0 -281146000000.0 -168257000000.0 -131450000000.0 -326918000000.0 -442157000000.0 -98792000000.0 -248345000000.0 -319542000000.0 -384254000000.0 -514745000000.0 -481458000000.0 -585051000000.0 -581557000000.0 -446714000000.0 -302412000000.0 -221055000000.0 -426459000000.0 -514923000000.0 -883932000000.0 -1.09127e+12 -340640000000.0 -620914000000.0 -1.00177e+12 -926083000000.0 -400564000000.0 -1.05409e+12 -536563000000.0 -101202000000.0 -567063000000.0 -316095000000.0 -227149000000.0 -481697000000.0 -361513000000.0 -305221000000.0 -149603000000.0 -148503000000.0 -308664000000.0 -185464000000.0 -274697000000.0 -385696000000.0 -62340100000.0 -176349000000.0 -630560000000.0 -242906000000.0 -66498700000.0 -196026000000.0 -275317000000.0 -242692000000.0 -61096900000.0 -23789200000.0 -150399000000.0 -160009000000.0 -73406200000.0 -16189100000.0 -108651000000.0 -145889000000.0 -192735000000.0 -12549700000.0 -12549700000.0 -46436000000.0 -65820500000.0 -85893700000.0 -124198000000.0 -90933200000.0 -35113400000.0 -47001300000.0 -12549700000.0 -67900800000.0 -52386900000.0 -54487600000.0 -95636100000.0 -55530300000.0 -69227200000.0 -62852600000.0 -73570800000.0 -30955400000.0 -84326400000.0 -14481900000.0 -24861600000.0 -115308000000.0 -49945100000.0 -90292100000.0 -132889000000.0 -66814500000.0 -104897000000.0 -81837800000.0 -12647300000.0 -63749200000.0 -42681800000.0 -85702100000.0 -12549700000.0 -78641400000.0 -76552100000.0 -91665600000.0 -112226000000.0 -140209000000.0 -134744000000.0 -208594000000.0 -117890000000.0 -61022100000.0 -209785000000.0 -196239000000.0 -267602000000.0 -111832000000.0 -12549700000.0 -260837000000.0 -208657000000.0 -368753000000.0 -353793000000.0 -244834000000.0 -259913000000.0 -548660000000.0 -588832000000.0 -1.06141e+12 -132817000000.0 -166229000000.0 -362178000000.0 -727379000000.0 -476513000000.0 -140850000000.0 -524986000000.0 -515499000000.0 -651605000000.0 -672990000000.0 -818477000000.0 -836609000000.0 -800715000000.0 -942813000000.0 -581899000000.0 -1.06235e+12 -293052000000.0 -251247000000.0 -22532700000.0 -565203000000.0 -276734000000.0 -122070000000.0 -260850000000.0 -481727000000.0 -468580000000.0 -402227000000.0 -283129000000.0 -87519100000.0 -122026000000.0 -155064000000.0 -26098300000.0 -44092400000.0 -317014000000.0 -98406900000.0 -127885000000.0 -137764000000.0 -316531000000.0 -207180000000.0 -59346500000.0 -109194000000.0 -164522000000.0 -58493500000.0 -53045800000.0 -60418700000.0 -105209000000.0 -47454300000.0 -70686700000.0 -125751000000.0 -170099000000.0 -111140000000.0 -70202500000.0 -55379500000.0 -146481000000.0 -16045000000.0 -84559300000.0 -42460400000.0 -69916200000.0 -44011200000.0 -135328000000.0 -69555200000.0 -71334600000.0 -64346900000.0 -63240600000.0 -76445200000.0 -76277400000.0 -96649400000.0 -110567000000.0 -112565000000.0 -62248700000.0 -49164900000.0 -69014500000.0 -67362200000.0 -35141900000.0 -25654200000.0 -132828000000.0 -87925000000.0 -91551200000.0 -13359000000.0 -77807800000.0 -93080500000.0 -61587700000.0 -72135900000.0 -110425000000.0 -12549700000.0 -115303000000.0 -167133000000.0 -74351600000.0 -166214000000.0 -55820600000.0 -212654000000.0 -155157000000.0 -191478000000.0 -208321000000.0 -260618000000.0 -276813000000.0 -35656600000.0 -268782000000.0 -137047000000.0 -579558000000.0 -707450000000.0 -602333000000.0 -627492000000.0 -350429000000.0 -922930000000.0 -346941000000.0 -1.01457e+12 -246231000000.0 -209451000000.0 -239751000000.0 -920197000000.0 -271582000000.0 -568392000000.0 -224521000000.0 -400851000000.0 -471129000000.0 -217579000000.0 -78845500000.0 -216655000000.0 -216639000000.0 -255869000000.0 -51655800000.0 -62436400000.0 -34074400000.0 -23040200000.0 -46382600000.0 -112517000000.0 -67320300000.0 -221516000000.0 -179566000000.0 -12549700000.0 -87707300000.0 -204591000000.0 -87937000000.0 -17335200000.0 -52760000000.0 -53423600000.0 -66567400000.0 -15542400000.0 -40864100000.0 -55540500000.0 -36600000000.0 -49242600000.0 -153024000000.0 -37201300000.0 -147743000000.0 -107480000000.0 -30830700000.0 -142260000000.0 -201671000000.0 -41144300000.0 -12567900000.0 -38637300000.0 -72150600000.0 -58584400000.0 -54552600000.0 -59246200000.0 -126808000000.0 -50457400000.0 -20219100000.0 -34563800000.0 -90359200000.0 -64490000000.0 -62312900000.0 -12549700000.0 -76258600000.0 -65713800000.0 -57278000000.0 -42838800000.0 -14326200000.0 -117193000000.0 -83588200000.0 -17134800000.0 -63059700000.0 -23024400000.0 -75906100000.0 -68225000000.0 -127695000000.0 -49037800000.0 -81334100000.0 -27290600000.0 -105111000000.0 -42155800000.0 -109408000000.0 -136237000000.0 -14939700000.0 -144825000000.0 -66513400000.0 -17148200000.0 -102469000000.0 -71139600000.0 -62707000000.0 -90078000000.0 -136635000000.0 -56466700000.0 -94630900000.0 -133634000000.0 -173840000000.0 -305065000000.0 -105669000000.0 -224808000000.0 -193622000000.0 -167110000000.0 -262960000000.0 -270974000000.0 -334732000000.0 -209943000000.0 -342526000000.0 -455186000000.0 -111924000000.0 -518522000000.0 -275442000000.0 -247827000000.0 -245491000000.0 -537869000000.0 -141080000000.0 -154990000000.0 -780585000000.0 -261813000000.0 -180422000000.0 -789878000000.0 -325264000000.0 -670821000000.0 -229355000000.0 -92781400000.0 -124161000000.0 -64460000000.0 -139231000000.0 -157427000000.0 -165830000000.0 -116724000000.0 -141699000000.0 -55261800000.0 -57905100000.0 -70762200000.0 -60376900000.0 -148231000000.0 -157282000000.0 -150053000000.0 -60552200000.0 -139925000000.0 -12549700000.0 -83719800000.0 -96629500000.0 -27753900000.0 -14364400000.0 -43386600000.0 -12549700000.0 -66756200000.0 -31560800000.0 -55522500000.0 -43926600000.0 -59390300000.0 -76565200000.0 -70897500000.0 -68741500000.0 -62903300000.0 -41153200000.0 -41021500000.0 -32815700000.0 -138881000000.0 -140026000000.0 -12716500000.0 -132172000000.0 -16479400000.0 -55773400000.0 -49205800000.0 -103710000000.0 -57775300000.0 -61384100000.0 -75930600000.0 -85490600000.0 -68014200000.0 -74091900000.0 -30119000000.0 -57030300000.0 -47378300000.0 -85033700000.0 -84725500000.0 -19399200000.0 -38948900000.0 -61597700000.0 -59700200000.0 -28661700000.0 -38000300000.0 -89046700000.0 -149834000000.0 -97578800000.0 -79497600000.0 -113951000000.0 -155126000000.0 -37686500000.0 -96586300000.0 -94406000000.0 -63254600000.0 -86465800000.0 -105820000000.0 -108856000000.0 -100369000000.0 -110589000000.0 -153067000000.0 -111539000000.0 -313025000000.0 -185438000000.0 -78452100000.0 -299721000000.0 -207400000000.0 -131017000000.0 -209623000000.0 -227002000000.0 -396974000000.0 -407601000000.0 -331838000000.0 -686157000000.0 -322541000000.0 -409631000000.0 -120066000000.0 -260805000000.0 -488987000000.0 -558347000000.0 -25447200000.0 -17519800000.0 -113762000000.0 -115172000000.0 -39005700000.0 -88902900000.0 -194210000000.0 -97414200000.0 -115823000000.0 -34040300000.0 -16378100000.0 -31819600000.0 -33456900000.0 -44286100000.0 -30163200000.0 -109743000000.0 -143369000000.0 -100152000000.0 -113546000000.0 -76299300000.0 -46409900000.0 -34097600000.0 -43894100000.0 -52839800000.0 -38825400000.0 -41645800000.0 -36532000000.0 -35358800000.0 -42986000000.0 -26014300000.0 -97268200000.0 -100500000000.0 -29626800000.0 -54646200000.0 -35156800000.0 -17003300000.0 -44511800000.0 -96392800000.0 -63887400000.0 -25317000000.0 -208509000000.0 -148178000000.0 -150832000000.0 -91564600000.0 -81268700000.0 -93737600000.0 -61005200000.0 -114536000000.0 -68778300000.0 -39147400000.0 -51890000000.0 -64701700000.0 -106021000000.0 -40351100000.0 -58795500000.0 -62690700000.0 -52247700000.0 -181461000000.0 -101870000000.0 -128818000000.0 -77928400000.0 -63560600000.0 -51154700000.0 -105432000000.0 -139373000000.0 -85292000000.0 -96921800000.0 -76802500000.0 -14208200000.0 -74518400000.0 -118402000000.0 -12549700000.0 -68531900000.0 -104101000000.0 -74587300000.0 -84814800000.0 -125455000000.0 -152521000000.0 -54749000000.0 -62377200000.0 -124242000000.0 -12549700000.0 -30928500000.0 -100582000000.0 -14117800000.0 -240325000000.0 -117722000000.0 -111448000000.0 -81247800000.0 -110732000000.0 -297150000000.0 -171839000000.0 -251617000000.0 -529338000000.0 -240165000000.0 -345242000000.0 -453668000000.0 -76995000000.0 -345145000000.0 -237962000000.0 -310934000000.0 -303046000000.0 -563958000000.0 -286274000000.0 -590361000000.0 -183459000000.0 -183529000000.0 -60486700000.0 -97219900000.0 -27809000000.0 -14228600000.0 -68110400000.0 -29853700000.0 -25450000000.0 -31389700000.0 -15327500000.0 -20467200000.0 -12549700000.0 -18923600000.0 -28459300000.0 -74312200000.0 -100506000000.0 -88840000000.0 -23594500000.0 -23415800000.0 -41646800000.0 -13680000000.0 -32799900000.0 -50578200000.0 -82802700000.0 -13872200000.0 -12555700000.0 -27446800000.0 -22350600000.0 -29626500000.0 -42664200000.0 -31147800000.0 -14198200000.0 -24799300000.0 -28454200000.0 -31389100000.0 -61225300000.0 -53526200000.0 -46024500000.0 -14663100000.0 -98914100000.0 -134424000000.0 -53442000000.0 -74667700000.0 -44470400000.0 -120644000000.0 -88104800000.0 -74866800000.0 -104039000000.0 -100206000000.0 -87682200000.0 -131486000000.0 -66335400000.0 -69004500000.0 -109058000000.0 -37886400000.0 -73658900000.0 -12549700000.0 -66392200000.0 -25406300000.0 -14321500000.0 -14671900000.0 -41223700000.0 -79495500000.0 -29274400000.0 -15465900000.0 -75656300000.0 -80810200000.0 -19560400000.0 -88562900000.0 -38360300000.0 -40193700000.0 -14572600000.0 -48297600000.0 -12549700000.0 -50744600000.0 -83400000000.0 -107337000000.0 -62284900000.0 -94152600000.0 -131449000000.0 -106964000000.0 -113962000000.0 -52715500000.0 -210309000000.0 -111505000000.0 -139846000000.0 -63294200000.0 -194247000000.0 -307586000000.0 -51225200000.0 -200988000000.0 -245538000000.0 -110363000000.0 -210133000000.0 -156188000000.0 -218116000000.0 -82379900000.0 -74612600000.0 -193693000000.0 -53327600000.0 -303987000000.0 -267992000000.0 -202673000000.0 -351480000000.0 -191192000000.0 -139292000000.0 -75096000000.0 -116555000000.0 -46654900000.0 -48154100000.0 -35642800000.0 -18811100000.0 -126620000000.0 -58492400000.0 -12549700000.0 -12549700000.0 -12801300000.0 -34580000000.0 -26461600000.0 -23822700000.0 -54576200000.0 -19291500000.0 -75590100000.0 -12549700000.0 -137211000000.0 -12550400000.0 -68354200000.0 -39442500000.0 -74584500000.0 -28745300000.0 -24922800000.0 -28103800000.0 -12700100000.0 -42699100000.0 -23062700000.0 -51316700000.0 -94190500000.0 -38687400000.0 -28222600000.0 -38778500000.0 -30005400000.0 -50781000000.0 -66231500000.0 -54486600000.0 -12962200000.0 -28762900000.0 -34169100000.0 -97061300000.0 -20077800000.0 -128361000000.0 -84933400000.0 -100826000000.0 -76381300000.0 -139927000000.0 -48196200000.0 -14447900000.0 -70582600000.0 -91557300000.0 -12549700000.0 -46725100000.0 -49092700000.0 -77420800000.0 -19322200000.0 -56485900000.0 -125342000000.0 -35132300000.0 -96885400000.0 -12571000000.0 -125050000000.0 -86593300000.0 -39022200000.0 -20040900000.0 -67558000000.0 -35545900000.0 -30889800000.0 -79663500000.0 -13600200000.0 -78379500000.0 -82034800000.0 -96938900000.0 -29426100000.0 -12549700000.0 -63562900000.0 -63686900000.0 -47928700000.0 -59316900000.0 -172072000000.0 -152153000000.0 -73151400000.0 -35309700000.0 -14917500000.0 -94031200000.0 -85901700000.0 -81412000000.0 -115838000000.0 -165983000000.0 -94133800000.0 -52948800000.0 -112253000000.0 -19907400000.0 -78718200000.0 -44264600000.0 -26858800000.0 -36964500000.0 -162868000000.0 -198529000000.0 -122903000000.0 -69943700000.0 -84250200000.0 -240665000000.0 -229894000000.0 -126499000000.0 -28010300000.0 -87523000000.0 -120378000000.0 -242829000000.0 -44952600000.0 -107533000000.0 -191725000000.0 -69098500000.0 -161596000000.0 -135503000000.0 -116787000000.0 -126515000000.0 -334427000000.0 -62600100000.0 -37258100000.0 -26468900000.0 -12735900000.0 -40716400000.0 -79532900000.0 -67346500000.0 -27397500000.0 -25119000000.0 -35534800000.0 -17026000000.0 -21423100000.0 -36596000000.0 -12878000000.0 -86628700000.0 -149349000000.0 -49926900000.0 -35504200000.0 -53648200000.0 -29949500000.0 -50775300000.0 -73563200000.0 -55318400000.0 -61374300000.0 -48416300000.0 -48602600000.0 -54395900000.0 -46171400000.0 -58645600000.0 -32197500000.0 -48778000000.0 -14386500000.0 -12549700000.0 -52095600000.0 -18110300000.0 -86869900000.0 -27099200000.0 -28315800000.0 -107426000000.0 -83574100000.0 -37696900000.0 -118522000000.0 -27149100000.0 -106854000000.0 -52012900000.0 -78406100000.0 -45340600000.0 -78966300000.0 -44112200000.0 -62709900000.0 -84537000000.0 -45592200000.0 -15152400000.0 -73462100000.0 -36333100000.0 -78053900000.0 -147529000000.0 -103740000000.0 -135986000000.0 -69277800000.0 -76908100000.0 -62712300000.0 -128090000000.0 -116523000000.0 -132754000000.0 -172039000000.0 -15610000000.0 -60451200000.0 -13116400000.0 -40686300000.0 -24269800000.0 -108773000000.0 -29053100000.0 -52115500000.0 -167485000000.0 -126507000000.0 -73911800000.0 -97040000000.0 -102765000000.0 -187293000000.0 -206180000000.0 -116967000000.0 -51932800000.0 -179257000000.0 -32333700000.0 -21137300000.0 -179520000000.0 -145902000000.0 -108120000000.0 -191686000000.0 -79012800000.0 -135320000000.0 -228828000000.0 -13768400000.0 -147525000000.0 -269641000000.0 -44171900000.0 -18851800000.0 -19777600000.0 -13185400000.0 -90017500000.0 -91618800000.0 -60189200000.0 -57929400000.0 -37740700000.0 -43938500000.0 -48598700000.0 -55958700000.0 -50545500000.0 -48094300000.0 -51041500000.0 -48784200000.0 -12549800000.0 -81061700000.0 -12549700000.0 -35512700000.0 -100545000000.0 -89735000000.0 -140174000000.0 -83778400000.0 -95601300000.0 -40909300000.0 -40248300000.0 -59188000000.0 -88450100000.0 -25943400000.0 -49394500000.0 -65283600000.0 -67213500000.0 -32835800000.0 -42324200000.0 -39987900000.0 -33929400000.0 -106691000000.0 -59871500000.0 -29413500000.0 -70700000000.0 -32812200000.0 -50638600000.0 -88036600000.0 -64637500000.0 -75043700000.0 -54605300000.0 -49368200000.0 -41416200000.0 -86604300000.0 -82932300000.0 -73877000000.0 -63526500000.0 -75927500000.0 -48358800000.0 -39252600000.0 -96565000000.0 -73752500000.0 -107653000000.0 -76318700000.0 -16352000000.0 -43029700000.0 -137246000000.0 -44180000000.0 -85339800000.0 -43317200000.0 -25784900000.0 -37828700000.0 -48501600000.0 -69568500000.0 -81109200000.0 -52568400000.0 -53526200000.0 -15070000000.0 -22067900000.0 -112299000000.0 -197972000000.0 -75569100000.0 -67634300000.0 -111895000000.0 -12960900000.0 -104375000000.0 -123924000000.0 -158220000000.0 -78515400000.0 -165547000000.0 -61630400000.0 -89191300000.0 -51491900000.0 -135343000000.0 -18547300000.0 -68305100000.0 -44998300000.0 -12549700000.0 -85870200000.0 -52244700000.0 -33229200000.0 -151920000000.0 -69498700000.0 -161050000000.0 -28459000000.0 -33965700000.0 -145369000000.0 -220581000000.0 -103883000000.0 -243511000000.0 -48250900000.0 -78141100000.0 -86171600000.0 -37100500000.0 -34011500000.0 -27505500000.0 -27742000000.0 -14420100000.0 -32431900000.0 -12910200000.0 -17066900000.0 -34438700000.0 -16392700000.0 -25086700000.0 -16863600000.0 -63669100000.0 -33871800000.0 -78436900000.0 -13713100000.0 -51411000000.0 -36291600000.0 -27362900000.0 -13082700000.0 -17109600000.0 -37932400000.0 -69342300000.0 -13489300000.0 -45309900000.0 -57463500000.0 -30044600000.0 -12643400000.0 -67863200000.0 -53715700000.0 -104253000000.0 -31161000000.0 -33261600000.0 -65715300000.0 -49511800000.0 -12549700000.0 -40408800000.0 -73508400000.0 -51231900000.0 -12549700000.0 -56484000000.0 -63613400000.0 -25817100000.0 -78084100000.0 -101058000000.0 -69617600000.0 -45006300000.0 -81132900000.0 -15570400000.0 -41844400000.0 -14921500000.0 -128186000000.0 -44418200000.0 -34488500000.0 -68037300000.0 -12549700000.0 -67116800000.0 -92030000000.0 -56881800000.0 -39158700000.0 -104069000000.0 -83091000000.0 -59466700000.0 -87633800000.0 -90934500000.0 -127772000000.0 -64895800000.0 -75720400000.0 -116366000000.0 -116401000000.0 -64656500000.0 -61666200000.0 -18996600000.0 -13788100000.0 -107733000000.0 -120548000000.0 -91479100000.0 -118242000000.0 -51114300000.0 -65592800000.0 -90705100000.0 -70585800000.0 -59232100000.0 -159580000000.0 -140995000000.0 -94207100000.0 -109179000000.0 -39634700000.0 -169614000000.0 -93195400000.0 -156072000000.0 -78148300000.0 -142171000000.0 -106790000000.0 -301406000000.0 -324898000000.0 -19454000000.0 -66352300000.0 -30590000000.0 -21011100000.0 -66472700000.0 -41168000000.0 -30340900000.0 -19688100000.0 -34254700000.0 -13797300000.0 -12867300000.0 -12717600000.0 -34502000000.0 -18396500000.0 -29295800000.0 -36333100000.0 -23350600000.0 -35319800000.0 -45066600000.0 -58599000000.0 -51880700000.0 -83132200000.0 -20570100000.0 -67505600000.0 -30398200000.0 -40530600000.0 -44098200000.0 -17616400000.0 -34551500000.0 -28460100000.0 -30009700000.0 -72706300000.0 -69405600000.0 -84327000000.0 -38613900000.0 -57564200000.0 -19510000000.0 -76405200000.0 -26228300000.0 -21651800000.0 -63152000000.0 -58861400000.0 -90585600000.0 -59940800000.0 -100745000000.0 -77485100000.0 -49884000000.0 -77432900000.0 -76953600000.0 -55428600000.0 -44849200000.0 -47817900000.0 -75303000000.0 -83338300000.0 -20699000000.0 -86603500000.0 -87036600000.0 -86262200000.0 -100885000000.0 -74839500000.0 -33978000000.0 -27124600000.0 -54639200000.0 -48859500000.0 -95598400000.0 -67606000000.0 -74296800000.0 -13994600000.0 -64178500000.0 -37242500000.0 -52052100000.0 -34220300000.0 -99850300000.0 -38240000000.0 -106000000000.0 -130355000000.0 -120999000000.0 -105723000000.0 -98513300000.0 -103789000000.0 -12579100000.0 -52089200000.0 -46426500000.0 -107558000000.0 -95353900000.0 -22592000000.0 -52101500000.0 -12549700000.0 -76376700000.0 -67862700000.0 -59719000000.0 -173543000000.0 -18004500000.0 -22096700000.0 -25836100000.0 -27357100000.0 -53656800000.0 -13721100000.0 -137568000000.0 -81086800000.0 -63967100000.0 -211309000000.0 -261104000000.0 -14993400000.0 -29806200000.0 -23126400000.0 -67193900000.0 -54933900000.0 -26424000000.0 -30024300000.0 -44704000000.0 -32556600000.0 -40811900000.0 -30774600000.0 -29540300000.0 -44702900000.0 -36027600000.0 -40613300000.0 -34490600000.0 -37216600000.0 -31527900000.0 -62006200000.0 -17853300000.0 -80470100000.0 -54939400000.0 -40366700000.0 -24880300000.0 -44976000000.0 -20955900000.0 -23301500000.0 -32727400000.0 -36174400000.0 -84234200000.0 -85523700000.0 -37987100000.0 -54504300000.0 -48455000000.0 -108366000000.0 -32219300000.0 -42793300000.0 -27248800000.0 -26050200000.0 -21489600000.0 -27297400000.0 -21582900000.0 -63272100000.0 -58040700000.0 -34148300000.0 -25117100000.0 -54975400000.0 -78948000000.0 -45288500000.0 -65316100000.0 -59986700000.0 -37857500000.0 -35808200000.0 -104770000000.0 -60727200000.0 -71682900000.0 -77999400000.0 -72013600000.0 -87748100000.0 -100324000000.0 -110697000000.0 -85189800000.0 -89505500000.0 -137589000000.0 -144917000000.0 -114151000000.0 -14293100000.0 -100673000000.0 -130635000000.0 -177556000000.0 -123886000000.0 -114700000000.0 -140946000000.0 -115638000000.0 -88411100000.0 -76366300000.0 -113588000000.0 -20109300000.0 -150593000000.0 -53615400000.0 -41867900000.0 -26437000000.0 -31882400000.0 -75837900000.0 -62391700000.0 -22742900000.0 -33897200000.0 -74946800000.0 -70126100000.0 -62692500000.0 -43457500000.0 -38039000000.0 -39291100000.0 -74019300000.0 -16786400000.0 -110560000000.0 -104897000000.0 -327866000000.0 -99634400000.0 -18571400000.0 -27272800000.0 -18860900000.0 -43987800000.0 -81710400000.0 -43521600000.0 -46599300000.0 -28189500000.0 -14601500000.0 -18205900000.0 -28929300000.0 -16492400000.0 -18928500000.0 -14276300000.0 -42758200000.0 -34226200000.0 -35255500000.0 -12549700000.0 -44533200000.0 -75718300000.0 -42922800000.0 -83252400000.0 -65225600000.0 -32177400000.0 -25776600000.0 -17905100000.0 -12597500000.0 -15864300000.0 -33730700000.0 -52312500000.0 -36081300000.0 -51510900000.0 -47676300000.0 -12549700000.0 -66433100000.0 -14682600000.0 -23526300000.0 -21783800000.0 -25732600000.0 -13105700000.0 -79745700000.0 -51753600000.0 -45495400000.0 -28355900000.0 -33323300000.0 -71630100000.0 -84517500000.0 -17299700000.0 -23949000000.0 -80682700000.0 -12629500000.0 -38953500000.0 -12568200000.0 -58064300000.0 -67328100000.0 -38547800000.0 -56575000000.0 -27180500000.0 -91097100000.0 -12798900000.0 -76301100000.0 -59815600000.0 -43916900000.0 -66134600000.0 -49754800000.0 -45576400000.0 -123131000000.0 -17334200000.0 -115111000000.0 -114524000000.0 -19514800000.0 -52647800000.0 -100481000000.0 -44649600000.0 -49373800000.0 -113699000000.0 -73946600000.0 -46208300000.0 -17947900000.0 -41776800000.0 -22986300000.0 -48377400000.0 -22743200000.0 -78900700000.0 -56000000000.0 -42060100000.0 -24440100000.0 -49780500000.0 -42324700000.0 -96436200000.0 -42048200000.0 -32914100000.0 -31565200000.0 -18091800000.0 -13643200000.0 -106492000000.0 -114067000000.0 -208259000000.0 -77615100000.0 -31774500000.0 -70300800000.0 -75047200000.0 -84528600000.0 -13502900000.0 -14171400000.0 -44143000000.0 -12549700000.0 -24216000000.0 -21850600000.0 -12549700000.0 -21085900000.0 -31861300000.0 -26559400000.0 -24350700000.0 -41240700000.0 -43185200000.0 -20149800000.0 -50350000000.0 -24137000000.0 -59614900000.0 -65195200000.0 -26013100000.0 -54674000000.0 -45251000000.0 -12711000000.0 -31735600000.0 -35477900000.0 -33741300000.0 -52516100000.0 -61008400000.0 -52673200000.0 -49250800000.0 -43714800000.0 -25845800000.0 -74413700000.0 -22701300000.0 -27879700000.0 -27265600000.0 -77049500000.0 -69691600000.0 -65319700000.0 -58779100000.0 -92430100000.0 -78506400000.0 -33295300000.0 -84258600000.0 -54969500000.0 -55106300000.0 -42840800000.0 -52452400000.0 -58866700000.0 -23566200000.0 -51694600000.0 -36626200000.0 -12855300000.0 -86281500000.0 -42632800000.0 -43745900000.0 -44013200000.0 -87246800000.0 -34323600000.0 -98839900000.0 -125259000000.0 -17621500000.0 -77834400000.0 -85361400000.0 -53070500000.0 -72424300000.0 -48763000000.0 -21781900000.0 -13546100000.0 -76837700000.0 -75723400000.0 -55440700000.0 -77865500000.0 -61111500000.0 -74726500000.0 -43103000000.0 -46308900000.0 -60689000000.0 -20134300000.0 -49729800000.0 -33982600000.0 -111472000000.0 -66221000000.0 -56089900000.0 -45680800000.0 -47539400000.0 -76669100000.0 -19267900000.0 -45031000000.0 -66584900000.0 -80326900000.0 -174528000000.0 -60772800000.0 -38606100000.0 -63617900000.0 -67683900000.0 -107660000000.0 -20674100000.0 -20621900000.0 -44984700000.0 -31244600000.0 -28247500000.0 -33016000000.0 -26563200000.0 -29487500000.0 -19898000000.0 -14348400000.0 -41391200000.0 -15042700000.0 -12688200000.0 -33593400000.0 -33302000000.0 -33641000000.0 -91394300000.0 -109147000000.0 -54647200000.0 -46444600000.0 -29508300000.0 -28109800000.0 -67169100000.0 -67429200000.0 -54745800000.0 -91272800000.0 -80367200000.0 -73649200000.0 -106284000000.0 -66055900000.0 -74179500000.0 -54464500000.0 -44112500000.0 -57676100000.0 -26344100000.0 -69858800000.0 -13504700000.0 -89233800000.0 -12743900000.0 -15722100000.0 -68911900000.0 -44844500000.0 -45376000000.0 -70345200000.0 -40743800000.0 -49273500000.0 -63124600000.0 -60554300000.0 -65837300000.0 -60695400000.0 -123524000000.0 -114547000000.0 -24299300000.0 -24613100000.0 -22737300000.0 -26794300000.0 -24078700000.0 -88155600000.0 -56916900000.0 -80342200000.0 -58955300000.0 -27630500000.0 -84991000000.0 -37171800000.0 -111704000000.0 -19347500000.0 -33126800000.0 -37022500000.0 -50820100000.0 -61919100000.0 -56278000000.0 -17219600000.0 -91663500000.0 -91227000000.0 -19022700000.0 -68772200000.0 -90418400000.0 -54957200000.0 -29007100000.0 -78443400000.0 -64066700000.0 -49240000000.0 -39312600000.0 -43219600000.0 -59465300000.0 -52401600000.0 -46560600000.0 -52055500000.0 -41058300000.0 -61116000000.0 -43569600000.0 -58002800000.0 -36895400000.0 -36589700000.0 -58470000000.0 -15493400000.0 -33761400000.0 -15159900000.0 -39457500000.0 -30996500000.0 -12549700000.0 -18797600000.0 -85394800000.0 -14182700000.0 -36223700000.0 -49063000000.0 -13732200000.0 -20857200000.0 -14717500000.0 -21117900000.0 -29657500000.0 -30899500000.0 -22774400000.0 -15928800000.0 -43834400000.0 -20441100000.0 -55865400000.0 -76627100000.0 -15287500000.0 -126335000000.0 -15572600000.0 -26651800000.0 -16070900000.0 -13290200000.0 -108116000000.0 -77413200000.0 -18117200000.0 -54158300000.0 -27152000000.0 -17572900000.0 -13715100000.0 -116725000000.0 -54146500000.0 -41983200000.0 -12549700000.0 -12554500000.0 -16221900000.0 -47674000000.0 -39295600000.0 -57639200000.0 -49926400000.0 -26897900000.0 -21288500000.0 -59258000000.0 -60196100000.0 -25946500000.0 -29600500000.0 -30289700000.0 -17632700000.0 -36380000000.0 -31118400000.0 -53989700000.0 -95250900000.0 -58563600000.0 -16928600000.0 -15356800000.0 -19176400000.0 -28477600000.0 -81432900000.0 -47263700000.0 -51818200000.0 -39658800000.0 -94034400000.0 -63912800000.0 -12953700000.0 -90534400000.0 -54164800000.0 -91924800000.0 -76239700000.0 -36004000000.0 -32416000000.0 -69293100000.0 -47455300000.0 -35434700000.0 -13423200000.0 -17835400000.0 -12549700000.0 -13792100000.0 -20554300000.0 -24131100000.0 -48375000000.0 -14628800000.0 -13759900000.0 -40780000000.0 -17253400000.0 -35268300000.0 -56950100000.0 -39069200000.0 -39863400000.0 -25152000000.0 -50408800000.0 -41879500000.0 -23237800000.0 -31471900000.0 -48890400000.0 -27187000000.0 -44303100000.0 -38245000000.0 -64801300000.0 -87307100000.0 -100189000000.0 -117635000000.0 -196199000000.0 -65582000000.0 -36660000000.0 -38132700000.0 -29798700000.0 -21021100000.0 -12935300000.0 -50546700000.0 -88759700000.0 -101501000000.0 -51786700000.0 -42775300000.0 -62764000000.0 -67136500000.0 -62393900000.0 -40800000000.0 -46665000000.0 -45702500000.0 -26626000000.0 -66299100000.0 -36837000000.0 -46686400000.0 -40158600000.0 -72014300000.0 -45038500000.0 -44139000000.0 -42310800000.0 -13215400000.0 -76081300000.0 -85651700000.0 -74290200000.0 -86785400000.0 -133368000000.0 -40779800000.0 -23696500000.0 -44078300000.0 -49885700000.0 -80067000000.0 -52551400000.0 -52349900000.0 -64017600000.0 -70149800000.0 -49202500000.0 -17137800000.0 -45626800000.0 -12665500000.0 -12573600000.0 -49370600000.0 -34947600000.0 -61037900000.0 -47905400000.0 -35557300000.0 -47189500000.0 -20512200000.0 -21170400000.0 -38458600000.0 -31097600000.0 -23956500000.0 -46872900000.0 -27534500000.0 -27508400000.0 -45255700000.0 -57461300000.0 -74289500000.0 -57273500000.0 -70670700000.0 -92227100000.0 -23272100000.0 -22962200000.0 -57318200000.0 -72598400000.0 -19961800000.0 -17551600000.0 -71971800000.0 -14439200000.0 -57251300000.0 -65829200000.0 -39749000000.0 -61529600000.0 -82055600000.0 -22999600000.0 -29620500000.0 -24707400000.0 -41831300000.0 -36655500000.0 -24284800000.0 -14073900000.0 -28043000000.0 -14117700000.0 -41459600000.0 -14112500000.0 -26728000000.0 -31138600000.0 -21052700000.0 -15772800000.0 -25782000000.0 -40098600000.0 -41346400000.0 -37851000000.0 -36894900000.0 -38872200000.0 -51015800000.0 -19667300000.0 -21804600000.0 -69452200000.0 -118093000000.0 -28835300000.0 -48888700000.0 -12549700000.0 -33002100000.0 -83918000000.0 -60948900000.0 -53458000000.0 -12580900000.0 -56729400000.0 -18371100000.0 -40944100000.0 -37209600000.0 -49509600000.0 -49388200000.0 -42582000000.0 -82503300000.0 -47250300000.0 -72410700000.0 -26041500000.0 -72035500000.0 -85409700000.0 -50127100000.0 -64871300000.0 -92773600000.0 -17602300000.0 -26801100000.0 -79897500000.0 -57872800000.0 -50543400000.0 -58978400000.0 -59157800000.0 -46262100000.0 -70500200000.0 -26209400000.0 -17488900000.0 -34951900000.0 -46523700000.0 -30716400000.0 -45435900000.0 -12632100000.0 -16813200000.0 -47834700000.0 -32653900000.0 -27517200000.0 -29354700000.0 -29069600000.0 -40196400000.0 -38904500000.0 -37626900000.0 -39269300000.0 -62428700000.0 -39256100000.0 -59266500000.0 -23129400000.0 -49800700000.0 -26073000000.0 -25367800000.0 -33480200000.0 -24597900000.0 -72623900000.0 -49584900000.0 -25510400000.0 -64591000000.0 -12617100000.0 -48893800000.0 -52088800000.0 -54431800000.0 -82150700000.0 -53339800000.0 -44694100000.0 -47566200000.0 -55827700000.0 -17299100000.0 -73660000000.0 -40889000000.0 -23487300000.0 -21204100000.0 -35477600000.0 -13153200000.0 -23732500000.0 -29746300000.0 -13006000000.0 -52509700000.0 -34479700000.0 -39101300000.0 -22070400000.0 -23297000000.0 -28792400000.0 -23438800000.0 -34039000000.0 -20342800000.0 -28046100000.0 -19980500000.0 -23764800000.0 -39152500000.0 -23272800000.0 -12549700000.0 -78378700000.0 -19931000000.0 -54082300000.0 -65845500000.0 -24436600000.0 -46352500000.0 -31710300000.0 -43839800000.0 -54224800000.0 -29504600000.0 -28624400000.0 -22493400000.0 -28992700000.0 -55778500000.0 -57688200000.0 -13278400000.0 -35569200000.0 -58353600000.0 -47860400000.0 -73026800000.0 -26011800000.0 -114525000000.0 -136518000000.0 -73657600000.0 -28469900000.0 -14127000000.0 -30156200000.0 -33070300000.0 -37852400000.0 -67389500000.0 -46455900000.0 -22111100000.0 -42827300000.0 -43886900000.0 -13510700000.0 -13269700000.0 -13883900000.0 -41995900000.0 -19661100000.0 -14969400000.0 -15039300000.0 -13460700000.0 -40987900000.0 -24036200000.0 -23326500000.0 -33067400000.0 -28434600000.0 -23374200000.0 -46249200000.0 -29119500000.0 -36530200000.0 -23774500000.0 -12768700000.0 -26724000000.0 -12549700000.0 -56512900000.0 -33063200000.0 -26466700000.0 -40860700000.0 -48681400000.0 -32696100000.0 -48711600000.0 -25076800000.0 -12549700000.0 -73276600000.0 -66660700000.0 -47303200000.0 -60969400000.0 -37285200000.0 -36610800000.0 -32210200000.0 -46881700000.0 -31232800000.0 -46864900000.0 -35357700000.0 -42075100000.0 -26196100000.0 -36965300000.0 -37312200000.0 -26183500000.0 -12553200000.0 -12585300000.0 -16147800000.0 -15621800000.0 -12820900000.0 -31714200000.0 -25655400000.0 -33225400000.0 -13982000000.0 -35349900000.0 -20077900000.0 -20280800000.0 -51822800000.0 -67451300000.0 -14783200000.0 -72292800000.0 -66925800000.0 -14297300000.0 -19959600000.0 -68177400000.0 -28951500000.0 -19807100000.0 -15798700000.0 -26438200000.0 -26126500000.0 -15754700000.0 -59096600000.0 -22078100000.0 -27781500000.0 -31057200000.0 -27067400000.0 -25232200000.0 -33153000000.0 -13193600000.0 -12549700000.0 -34826000000.0 -64706400000.0 -50269000000.0 -61156400000.0 -76243700000.0 -14279700000.0 -17428000000.0 -39980600000.0 -15082400000.0 -66351200000.0 -54793100000.0 -49864300000.0 -54747800000.0 -41517300000.0 -28181400000.0 -38832500000.0 -12666100000.0 -50556500000.0 -19269300000.0 -44123700000.0 -45422300000.0 -29029600000.0 -27546000000.0 -22292500000.0 -28200500000.0 -34247000000.0 -26622300000.0 -24429300000.0 -26675300000.0 -33601600000.0 -24351600000.0 -22490500000.0 -13470500000.0 -26975600000.0 -17039200000.0 -15193100000.0 -36158700000.0 -28274900000.0 -45602500000.0 -37679400000.0 -31763700000.0 -47118900000.0 -38580000000.0 -46927200000.0 -30005600000.0 -25449500000.0 -68437400000.0 -20610400000.0 -21787000000.0 -33359500000.0 -77772600000.0 -31754900000.0 -50682700000.0 -57993600000.0 -71496500000.0 -44300600000.0 -20842000000.0 -33279900000.0 -17960000000.0 -19362100000.0 -25694300000.0 -24917300000.0 -46141800000.0 -48868000000.0 -51027500000.0 -27925700000.0 -17408400000.0 -29788500000.0 -13836000000.0 -26196200000.0 -14003300000.0 -16051700000.0 -13148100000.0 -19871800000.0 -21553300000.0 -12945800000.0 -49373300000.0 -50425000000.0 -48779400000.0 -33192200000.0 -30292800000.0 -47645900000.0 -46854500000.0 -24399600000.0 -48091500000.0 -14603700000.0 -15469800000.0 -23772700000.0 -34291500000.0 -20570600000.0 -30338300000.0 -44000800000.0 -26735800000.0 -19135900000.0 -40475200000.0 -33331500000.0 -24363000000.0 -29828100000.0 -34414100000.0 -44062900000.0 -41835600000.0 -13503000000.0 -31958900000.0 -54576100000.0 -32682500000.0 -20386700000.0 -63498000000.0 -47389600000.0 -47978600000.0 -29455000000.0 -60928200000.0 -35576200000.0 -12786200000.0 -29686300000.0 -41459000000.0 -33039000000.0 -37170800000.0 -13086400000.0 -50071700000.0 -32418300000.0 -42471900000.0 -44935900000.0 -37411800000.0 -15843100000.0 -15884900000.0 -16467600000.0 -37058100000.0 -19716500000.0 -20931400000.0 -22808400000.0 -29241100000.0 -36703600000.0 -29864700000.0 -32701300000.0 -35972000000.0 -40836600000.0 -39273600000.0 -45473100000.0 -30266400000.0 -50758100000.0 -14627200000.0 -13430400000.0 -29516200000.0 -15067400000.0 -35061400000.0 -18499600000.0 -52260400000.0 -16955000000.0 -14359900000.0 -12549700000.0 -31359500000.0 -12793700000.0 -69078500000.0 -42103200000.0 -55422300000.0 -57569200000.0 -46529500000.0 -31881100000.0 -29378100000.0 -24552100000.0 -31905900000.0 -28229700000.0 -13116600000.0 -22700400000.0 -16591100000.0 -12567400000.0 -48893900000.0 -30515800000.0 -29417800000.0 -44813000000.0 -39818100000.0 -40619600000.0 -39680100000.0 -34103300000.0 -51982000000.0 -47712200000.0 -27489800000.0 -28884800000.0 -12953400000.0 -51063500000.0 -42709000000.0 -40583600000.0 -31032400000.0 -15323100000.0 -45390500000.0 -36049700000.0 -35717200000.0 -33142000000.0 -17553900000.0 -17744600000.0 -20402200000.0 -22316900000.0 -40239600000.0 -16110100000.0 -32284700000.0 -23333400000.0 -20812300000.0 -37756800000.0 -37624500000.0 -27365400000.0 -40407000000.0 -24482300000.0 -50856500000.0 -35774100000.0 -41205800000.0 -48776200000.0 -25912700000.0 -58146300000.0 -44116100000.0 -48881200000.0 -34361600000.0 -71836300000.0 -19869400000.0 -22114600000.0 -24717200000.0 -12589000000.0 -17294600000.0 -22800700000.0 -19460000000.0 -24789500000.0 -45226600000.0 -18797500000.0 -30816100000.0 -19553900000.0 -27912700000.0 -22911600000.0 -12582200000.0 -34256800000.0 -33920500000.0 -42033600000.0 -16262700000.0 -15444800000.0 -14912100000.0 -16199500000.0 -18486400000.0 -29806500000.0 -22256100000.0 -30201900000.0 -26956100000.0 -16090900000.0 -12777300000.0 -21536900000.0 -12604400000.0 -43408400000.0 -16563300000.0 -16206600000.0 -33228000000.0 -12930400000.0 -36613600000.0 -22104700000.0 -27118700000.0 -66797700000.0 -38751200000.0 -37249200000.0 -36667700000.0 -53876100000.0 -23031700000.0 -25204300000.0 -14399900000.0 -76580500000.0 -22269800000.0 -24408400000.0 -22756300000.0 -18026000000.0 -20159500000.0 -26710300000.0 -20095300000.0 -30696000000.0 -12616500000.0 -28833500000.0 -22131900000.0 -39723400000.0 -30457900000.0 -32694800000.0 -25911100000.0 -25509200000.0 -20052800000.0 -20579200000.0 -28265000000.0 -26789000000.0 -16184800000.0 -22746200000.0 -23534200000.0 -21862900000.0 -23381900000.0 -13142700000.0 -14846200000.0 -34548400000.0 -22578700000.0 -24349100000.0 -21778700000.0 -35568000000.0 -30519400000.0 -19109400000.0 -17584400000.0 -16465500000.0 -23015300000.0 -16214800000.0 -14666000000.0 -35409500000.0 -43820000000.0 -26466600000.0 -37293000000.0 -22193300000.0 -26628700000.0 -21420000000.0 -30585100000.0 -39060400000.0 -42840300000.0 -17765300000.0 -28473400000.0 -16062100000.0 -13242000000.0 -55642900000.0 -38825700000.0 -21399900000.0 -32538600000.0 -54464400000.0 -63793400000.0 -45604200000.0 -17289000000.0 -14624000000.0 -29234000000.0 -24066600000.0 -17247800000.0 -15474500000.0 -21299900000.0 -18523300000.0 -32023000000.0 -22880100000.0 -12691200000.0 -19124200000.0 -19359700000.0 -18086900000.0 -25125300000.0 -16038500000.0 -16803800000.0 -18384300000.0 -23851500000.0 -12620600000.0 -12549700000.0 -17543100000.0 -13814700000.0 -19024300000.0 -18218000000.0 -17512500000.0 -27449500000.0 -26707100000.0 -35196000000.0 -20831500000.0 -26067800000.0 -40629700000.0 -24275000000.0 -40299600000.0 -37491500000.0 -24263900000.0 -22637200000.0 -17213100000.0 -36656700000.0 -18679300000.0 -12992400000.0 -20852000000.0 -19332500000.0 -25800900000.0 -15253900000.0 -19608900000.0 -16632200000.0 -20013200000.0 -14844300000.0 -12549700000.0 -28143800000.0 -31468100000.0 -16732300000.0 -14846800000.0 -17865900000.0 -17557300000.0 -12549700000.0 -18618900000.0 -24380500000.0 -23050000000.0 -19112000000.0 -28802300000.0 -18226900000.0 -19057600000.0 -18787400000.0 -19084900000.0 -26517100000.0 -14343700000.0 -13216000000.0 -19321500000.0 -14413900000.0 -13230100000.0 -33742100000.0 -23908900000.0 -15603900000.0 -22729900000.0 -17594500000.0 -13166000000.0 -33880400000.0 -14470700000.0 -22658900000.0 -27570800000.0 -31927500000.0 -32072200000.0 -25387300000.0 -23603900000.0 -28325400000.0 -29584300000.0 -37015900000.0 -38385800000.0 -18954400000.0 -19915200000.0 -25633600000.0 -30723900000.0 -12927900000.0 -34876200000.0 -12780600000.0 -34705200000.0 -32043600000.0 -31407300000.0 -23001700000.0 -16566700000.0 -16019700000.0 -17726800000.0 -21527200000.0 -24883600000.0 -16627700000.0 -26882000000.0 -18674800000.0 -18678700000.0 -19089500000.0 -14808400000.0 -12762900000.0 -12549700000.0 -13389100000.0 -17065100000.0 -12588000000.0 -12805200000.0 -15609000000.0 -12549700000.0 -14855900000.0 -14913000000.0 -14387100000.0 -22690600000.0 -20969900000.0 -22792000000.0 -33552600000.0 -24409800000.0 -23653800000.0 -18555700000.0 -18219300000.0 -23050000000.0 -35842900000.0 -21739500000.0 -24858100000.0 -13868300000.0 -13335500000.0 -40163400000.0 -16090600000.0 -30895700000.0 -30395200000.0 -69266900000.0 -24213100000.0 -25616900000.0 -12878100000.0 -16023000000.0 -12574400000.0 -12992600000.0 -19066600000.0 -17754300000.0 -19356000000.0 -13881300000.0 -22719100000.0 -18568500000.0 -16137800000.0 -15569900000.0 -17164900000.0 -16421500000.0 -23891500000.0 -15136900000.0 -22129900000.0 -16827600000.0 -24028000000.0 -12819500000.0 -12717000000.0 -14093800000.0 -12804800000.0 -19274000000.0 -12574000000.0 -12549700000.0 -16800900000.0 -19414100000.0 -38047500000.0 -24372300000.0 -30326800000.0 -33112100000.0 -35102500000.0 -23288300000.0 -33097600000.0 -19327000000.0 -22125200000.0 -22113600000.0 -18093200000.0 -12549700000.0 -18600200000.0 -21506700000.0 -41272600000.0 -24258600000.0 -18507200000.0 -14542900000.0 -20844900000.0 -16857200000.0 -19513000000.0 -20148600000.0 -19305500000.0 -15564800000.0 -27191000000.0 -16436800000.0 -17621300000.0 -12975100000.0 -23481300000.0 -27836400000.0 -19316200000.0 -19462500000.0 -20583100000.0 -13107800000.0 -18479100000.0 -14344200000.0 -19149000000.0 -14409200000.0 -12549700000.0 -16132500000.0 -14308900000.0 -12549700000.0 -12549700000.0 -13055300000.0 -15679300000.0 -12922400000.0 -12549700000.0 -15176900000.0 -13052600000.0 -13504300000.0 -13230600000.0 -12917500000.0 -16789600000.0 -18843600000.0 -14434800000.0 -12752900000.0 -18083900000.0 -16407500000.0 -16145300000.0 -12887400000.0 -16065400000.0 -27147100000.0 -24227000000.0 -24650100000.0 -30763000000.0 -16896100000.0 -37937600000.0 -15563900000.0 -40365900000.0 -28548500000.0 -22296000000.0 -21906300000.0 -16734300000.0 -15282100000.0 -18764600000.0 -14821500000.0 -14697300000.0 -16598600000.0 -16586800000.0 -20476900000.0 -16390800000.0 -15479100000.0 -16008400000.0 -17709800000.0 -17911000000.0 -20821200000.0 -23507200000.0 -20873700000.0 -14947400000.0 -14729800000.0 -14114300000.0 -12700900000.0 -12846500000.0 -14077000000.0 -13696600000.0 -12549700000.0 -12669200000.0 -13436200000.0 -20151200000.0 -24763900000.0 -16475900000.0 -13926400000.0 -20614200000.0 -17140900000.0 -16894700000.0 -16165500000.0 -21272100000.0 -19303700000.0 -18541800000.0 -19397300000.0 -17541800000.0 -17538700000.0 -18481100000.0 -19408400000.0 -18354700000.0 -15915400000.0 -15966500000.0 -16138400000.0 -14354500000.0 -14352900000.0 -17499300000.0 -28370500000.0 -18669000000.0 -17572400000.0 -15786300000.0 -15454200000.0 -13388500000.0 -18621500000.0 -17187500000.0 -12549700000.0 -14139800000.0 -14841100000.0 -13263800000.0 -15433100000.0 -12549700000.0 -16666900000.0 -13051700000.0 -12642200000.0 -14838600000.0 -12882700000.0 -12549700000.0 -12554700000.0 -12638100000.0 -14480400000.0 -12551400000.0 -12549700000.0 -14647500000.0 -12549700000.0 -12899600000.0 -13117800000.0 -14692800000.0 -13321200000.0 -15150000000.0 -13726600000.0 -12609800000.0 -15495700000.0 -13474500000.0 -13293900000.0 -16196800000.0 -14813600000.0 -16389500000.0 -18781200000.0 -18112800000.0 -18922100000.0 -14506800000.0 -22549900000.0 -19039500000.0 -22457500000.0 -33214100000.0 -17451500000.0 -19242700000.0 -20783000000.0 -18670900000.0 -15468200000.0 -14247200000.0 -13507500000.0 -12804100000.0 -13908000000.0 -14770500000.0 -14386900000.0 -12702500000.0 -14828100000.0 -14135800000.0 -12915200000.0 -13672400000.0 -17569300000.0 -15691000000.0 -12549700000.0 -15908700000.0 -13891000000.0 -14024100000.0 -13117100000.0 -13229100000.0 -13492800000.0 -13750700000.0 -12934200000.0 -12648800000.0 -12767400000.0 -15410900000.0 -15958600000.0 -13678000000.0 -12549700000.0 -14731400000.0 -14058300000.0 -16192600000.0 -13693700000.0 -13945300000.0 -14558500000.0 -14094400000.0 -13598500000.0 -13862200000.0 -12716400000.0 -13338900000.0 -13602000000.0 -13233800000.0 -12943000000.0 -13125000000.0 -12799100000.0 -12778000000.0 -12833900000.0 -17207700000.0 -12819200000.0 -17132300000.0 -15730500000.0 -13665700000.0 -13138900000.0 -12854300000.0 -14074300000.0 -12712700000.0 -13818700000.0 -13090600000.0 -13047200000.0 -12549700000.0 -13272000000.0 -12699000000.0 -13234000000.0 -14099000000.0 -13709100000.0 -13071500000.0 -12933100000.0 -12868200000.0 -12871700000.0 -12945900000.0 -13801400000.0 -13118800000.0 -13355200000.0 -13003100000.0 -12696800000.0 -12821000000.0 -12673300000.0 -13276300000.0 -12782100000.0 -13641300000.0 -13645100000.0 -14114900000.0 -12619100000.0 -13663800000.0 -15282800000.0 -15226000000.0 -15465700000.0 -13879200000.0 -13502100000.0 -15223600000.0 -15373600000.0 -13565200000.0 -15985600000.0 -14873400000.0 -13652600000.0 -18008700000.0 -13893100000.0 -12711500000.0 -16399500000.0 -12718000000.0 -12549700000.0 -12549700000.0 -13177900000.0 -12753800000.0 -12799600000.0 -12926400000.0 -13318000000.0 -13250100000.0 -12848700000.0 -12969000000.0 -12990000000.0 -13010900000.0 -13183000000.0 -14617800000.0 -12887200000.0 -13491700000.0 -13032800000.0 -13901300000.0 -13166900000.0 -13123200000.0 -13046100000.0 -12999700000.0 -12605900000.0 -12549700000.0 -12586300000.0 -13486100000.0 -12670000000.0 -13597500000.0 -12856300000.0 