# vtk DataFile Version 2.0
Time step 3
ASCII
DATASET UNSTRUCTURED_GRID
POINTS 5000 float
19145.7 491086.0 0
28393.6 488871.0 0
57040.5 491094.0 0
171868.0 490425.0 0
177765.0 490451.0 0
182988.0 489766.0 0
201798.0 491090.0 0
241200.0 491155.0 0
252610.0 491031.0 0
278830.0 490468.0 0
297327.0 490492.0 0
362121.0 491042.0 0
372081.0 489159.0 0
377051.0 491240.0 0
388129.0 491190.0 0
393997.0 490531.0 0
403513.0 489801.0 0
408427.0 491103.0 0
432585.0 490152.0 0
442042.0 491480.0 0
446131.0 490720.0 0
470429.0 490922.0 0
475526.0 491114.0 0
480056.0 490620.0 0
12370.1 494582.0 0
9031.53 496877.0 0
15226.2 492524.0 0
23996.1 492480.0 0
29467.9 495298.0 0
33656.8 491182.0 0
38523.3 492156.0 0
43030.8 492153.0 0
47500.0 492124.0 0
48642.2 496423.0 0
52137.1 492150.0 0
57893.8 496554.0 0
62763.5 492066.0 0
67994.7 492199.0 0
72669.4 491513.0 0
77500.0 492079.0 0
82500.0 492068.0 0
87438.0 491527.0 0
87828.3 496293.0 0
92500.0 492106.0 0
97279.6 492126.0 0
101379.0 492036.0 0
106056.0 491654.0 0
111876.0 492061.0 0
108286.0 496273.0 0
117792.0 492097.0 0
123272.0 492175.0 0
128288.0 492286.0 0
133373.0 491553.0 0
138071.0 492224.0 0
142500.0 492149.0 0
147500.0 492083.0 0
152501.0 492053.0 0
157550.0 491821.0 0
157094.0 495906.0 0
162511.0 491938.0 0
167009.0 491696.0 0
166717.0 496383.0 0
172745.0 496038.0 0
178147.0 495885.0 0
183362.0 494845.0 0
187476.0 491510.0 0
188445.0 496012.0 0
192500.0 492501.0 0
196243.0 491842.0 0
198140.0 496308.0 0
207687.0 491786.0 0
213053.0 491494.0 0
213659.0 496047.0 0
218166.0 492210.0 0
222517.0 492214.0 0
225913.0 492000.0 0
226985.0 496216.0 0
230392.0 491686.0 0
235817.0 492323.0 0
246497.0 493227.0 0
258964.0 491626.0 0
257008.0 496194.0 0
263695.0 492661.0 0
268703.0 491797.0 0
273901.0 491870.0 0
271712.0 495831.0 0
276869.0 496243.0 0
282040.0 493738.0 0
286349.0 492081.0 0
291731.0 492640.0 0
298101.0 496019.0 0
303583.0 491561.0 0
307777.0 493811.0 0
312145.0 491611.0 0
317946.0 492239.0 0
323262.0 492246.0 0
327602.0 492378.0 0
332227.0 491996.0 0
337244.0 491751.0 0
341054.0 492910.0 0
346008.0 491494.0 0
343193.0 496040.0 0
350943.0 492989.0 0
355586.0 492425.0 0
361868.0 496348.0 0
368180.0 492652.0 0
373168.0 496091.0 0
382639.0 491961.0 0
379013.0 495777.0 0
388129.0 496277.0 0
393303.0 496547.0 0
399024.0 492559.0 0
402824.0 495975.0 0
408202.0 495371.0 0
412500.0 492222.0 0
417500.0 492117.0 0
422534.0 491372.0 0
422197.0 496013.0 0
427293.0 492046.0 0
433042.0 495442.0 0
437537.0 492089.0 0
443016.0 495798.0 0
447331.0 494862.0 0
450439.0 491709.0 0
451676.0 496189.0 0
454863.0 491825.0 0
459694.0 491804.0 0
464974.0 491881.0 0
466359.0 496219.0 0
478965.0 495450.0 0
484511.0 494220.0 0
489750.0 496414.0 0
5436.92 499374.0 0
2264.79 502066.0 0
9109.63 501935.0 0
13618.0 498859.0 0
18924.6 496656.0 0
24229.8 497800.0 0
35613.9 497010.0 0
40872.8 497189.0 0
44914.2 497450.0 0
47652.8 501135.0 0
52719.4 497135.0 0
62765.2 497159.0 0
67505.3 496851.0 0
67567.5 501697.0 0
72302.6 496650.0 0
77500.0 497237.0 0
82116.1 496883.0 0
82032.0 501612.0 0
92500.0 497246.0 0
97219.5 497112.0 0
97546.3 501634.0 0
102467.0 496779.0 0
107946.0 501043.0 0
112500.0 497182.0 0
117500.0 497263.0 0
122500.0 497186.0 0
125907.0 501372.0 0
127629.0 496950.0 0
132451.0 497079.0 0
137520.0 497095.0 0
142740.0 496613.0 0
141112.0 500796.0 0
147129.0 496978.0 0
152137.0 496788.0 0
156424.0 500453.0 0
161505.0 496827.0 0
170106.0 501007.0 0
182272.0 500025.0 0
193435.0 496701.0 0
194327.0 501694.0 0
203832.0 496759.0 0
200030.0 501341.0 0
209266.0 496929.0 0
213282.0 500843.0 0
217716.0 497215.0 0
222149.0 497295.0 0
227232.0 501195.0 0
232248.0 496859.0 0
237746.0 497566.0 0
243346.0 497540.0 0
248206.0 497401.0 0
252435.0 497664.0 0
257611.0 500931.0 0
262425.0 496891.0 0
262579.0 501675.0 0
267412.0 496747.0 0
267359.0 501205.0 0
272908.0 501130.0 0
279834.0 500183.0 0
282701.0 497451.0 0
287500.0 497160.0 0
292534.0 497218.0 0
296814.0 501115.0 0
302914.0 497208.0 0
307497.0 497256.0 0
312501.0 497355.0 0
317500.0 497115.0 0
322501.0 496951.0 0
322465.0 500950.0 0
327500.0 497140.0 0
332500.0 497213.0 0
336640.0 501564.0 0
337575.0 496847.0 0
341478.0 500308.0 0
346855.0 501168.0 0
347598.0 496747.0 0
352576.0 497036.0 0
356198.0 500883.0 0
357818.0 496980.0 0
361424.0 501016.0 0
365549.0 496470.0 0
366736.0 500603.0 0
382081.0 497202.0 0
384558.0 500443.0 0
392500.0 501429.0 0
397885.0 496868.0 0
397270.0 501265.0 0
412683.0 496599.0 0
409156.0 500979.0 0
417345.0 496785.0 0
418970.0 501458.0 0
427463.0 497092.0 0
424070.0 500819.0 0
432164.0 501101.0 0
437500.0 497154.0 0
442129.0 501020.0 0
447957.0 499917.0 0
456840.0 496712.0 0
462191.0 497431.0 0
468970.0 498782.0 0
471806.0 501423.0 0
473486.0 496488.0 0
478787.0 500445.0 0
484622.0 500142.0 0
489598.0 501526.0 0
493949.0 499874.0 0
2472.18 506238.0 0
8465.17 507303.0 0
13874.9 503941.0 0
13670.4 508206.0 0
17619.4 501761.0 0
17836.6 506038.0 0
21711.8 501678.0 0
22555.8 506323.0 0
27472.0 502504.0 0
32538.0 502034.0 0
32300.8 506658.0 0
38302.3 502081.0 0
42978.6 501829.0 0
49074.4 505910.0 0
51816.5 502922.0 0
56489.1 502172.0 0
62020.2 502182.0 0
73520.8 502275.0 0
78286.4 502426.0 0
77073.8 506459.0 0
82135.5 506630.0 0
87032.2 501824.0 0
92531.5 501997.0 0
102630.0 502541.0 0
107658.0 506526.0 0
112500.0 502102.0 0
116823.0 502010.0 0
113012.0 506495.0 0
120924.0 501775.0 0
118034.0 506542.0 0
123308.0 505878.0 0
131232.0 502948.0 0
136507.0 502698.0 0
137670.0 506651.0 0
146428.0 501857.0 0
147832.0 506559.0 0
151946.0 503454.0 0
157001.0 506118.0 0
161827.0 502514.0 0
166608.0 504379.0 0
176391.0 501744.0 0
182253.0 505486.0 0
188151.0 502181.0 0
197177.0 506505.0 0
202969.0 506535.0 0
204274.0 502421.0 0
208043.0 501760.0 0
217707.0 502214.0 0
214522.0 506450.0 0
222505.0 501756.0 0
222497.0 506040.0 0
232563.0 502317.0 0
237511.0 502223.0 0
237360.0 505571.0 0
242009.0 502627.0 0
247177.0 501643.0 0
252185.0 502627.0 0
256220.0 505808.0 0
260680.0 505660.0 0
266389.0 505900.0 0
278305.0 505676.0 0
283575.0 502354.0 0
287234.0 502424.0 0
288507.0 505760.0 0
291130.0 501714.0 0
302259.0 502458.0 0
307677.0 501687.0 0
313179.0 502682.0 0
318176.0 501947.0 0
321207.0 506079.0 0
326945.0 502262.0 0
330150.0 506560.0 0
331965.0 502263.0 0
340052.0 505748.0 0
351963.0 501925.0 0
357660.0 504761.0 0
367069.0 505266.0 0
371409.0 502215.0 0
377937.0 501706.0 0
382884.0 505886.0 0
388607.0 503531.0 0
402836.0 502159.0 0
407971.0 506265.0 0
414394.0 503178.0 0
427763.0 503468.0 0
437191.0 501999.0 0
437375.0 506174.0 0
442070.0 506611.0 0
446685.0 505018.0 0
453730.0 501755.0 0
450878.0 505986.0 0
458690.0 502279.0 0
462865.0 501967.0 0
461147.0 506714.0 0
467500.0 502265.0 0
471882.0 506282.0 0
475457.0 503226.0 0
481850.0 504652.0 0
487308.0 505586.0 0
491539.0 504929.0 0
496611.0 504943.0 0
2153.9 510283.0 0
11247.4 511100.0 0
17651.7 511401.0 0
23447.9 511643.0 0
27174.2 508220.0 0
30240.9 511072.0 0
37736.0 507217.0 0
39701.6 511281.0 0
43294.5 506886.0 0
47841.5 510955.0 0
53820.7 507262.0 0
59018.4 506915.0 0
56979.9 511278.0 0
63415.0 506682.0 0
62943.6 511460.0 0
67916.5 507368.0 0
72474.3 507188.0 0
72958.5 511289.0 0
77877.4 511671.0 0
83162.1 511619.0 0
87315.6 506990.0 0
87958.2 511862.0 0
92263.1 507298.0 0
97744.6 506986.0 0
102756.0 508324.0 0
111499.0 511181.0 0
116820.0 511866.0 0
122263.0 511114.0 0
127500.0 507261.0 0
127055.0 511765.0 0
132615.0 507819.0 0
136650.0 511234.0 0
142507.0 506967.0 0
147033.0 510872.0 0
153382.0 508148.0 0
157969.0 511763.0 0
160624.0 507332.0 0
164616.0 508109.0 0
167041.0 511122.0 0
170852.0 507044.0 0
177053.0 508297.0 0
186676.0 507774.0 0
191669.0 507353.0 0
193577.0 511500.0 0
203155.0 511604.0 0
208778.0 507778.0 0
218942.0 507291.0 0
216560.0 511013.0 0
221380.0 510922.0 0
227946.0 506708.0 0
233845.0 506903.0 0
232182.0 511685.0 0
238025.0 510253.0 0
242367.0 507204.0 0
243053.0 511588.0 0
246900.0 506836.0 0
251784.0 507723.0 0
257816.0 511067.0 0
262781.0 509332.0 0
267600.0 511731.0 0
271793.0 507513.0 0
284203.0 507481.0 0
288717.0 511070.0 0
292779.0 507339.0 0
298804.0 507468.0 0
303875.0 507479.0 0
302639.0 511786.0 0
307500.0 507304.0 0
312363.0 507183.0 0
312080.0 511896.0 0
316431.0 506883.0 0
317193.0 511304.0 0
326007.0 507561.0 0
322551.0 511643.0 0
331117.0 511678.0 0
334692.0 508326.0 0
341532.0 511201.0 0
346272.0 507427.0 0
352980.0 507479.0 0
357962.0 511003.0 0
362030.0 506961.0 0
362975.0 511941.0 0
367201.0 510165.0 0
371822.0 507845.0 0
377746.0 508778.0 0
387348.0 507607.0 0
387720.0 511766.0 0
392958.0 507493.0 0
399394.0 507128.0 0
403030.0 510992.0 0
404165.0 506988.0 0
412341.0 507586.0 0
408523.0 511064.0 0
416881.0 506988.0 0
414045.0 511449.0 0
421364.0 507458.0 0
425856.0 507154.0 0
427436.0 511146.0 0
431199.0 507318.0 0
435998.0 511037.0 0
447897.0 510669.0 0
455534.0 507320.0 0
466663.0 507441.0 0
472895.0 511515.0 0
477767.0 508278.0 0
483846.0 508813.0 0
488873.0 509644.0 0
492397.0 508358.0 0
496777.0 510959.0 0
1476.32 513629.0 0
2745.43 517435.0 0
6672.91 513046.0 0
12857.0 515110.0 0
18148.8 517091.0 0
28635.5 515043.0 0
34850.8 511908.0 0
38854.7 516043.0 0
43334.0 513487.0 0
48163.1 516899.0 0
52655.0 512771.0 0
59414.7 516314.0 0
68257.4 512536.0 0
71903.8 515192.0 0
76209.0 516655.0 0
88152.8 516930.0 0
92500.0 512169.0 0
97504.3 512490.0 0
101508.0 512213.0 0
101747.0 516921.0 0
105914.0 512143.0 0
111222.0 516021.0 0
115549.0 516563.0 0
131351.0 512295.0 0
133441.0 516730.0 0
142237.0 512657.0 0
151840.0 512729.0 0
148410.0 516778.0 0
161347.0 516308.0 0
163575.0 512514.0 0
166928.0 516432.0 0
171015.0 513030.0 0
176759.0 514543.0 0
182827.0 512097.0 0
189082.0 512185.0 0
192165.0 516751.0 0
198199.0 512193.0 0
202513.0 516038.0 0
207488.0 513254.0 0
212207.0 511971.0 0
216400.0 516761.0 0
222680.0 516519.0 0
226431.0 512772.0 0
236422.0 515246.0 0
248206.0 512033.0 0
253027.0 512168.0 0
251164.0 516372.0 0
262938.0 514864.0 0
272687.0 513391.0 0
278410.0 512322.0 0
283513.0 512059.0 0
282157.0 515998.0 0
293326.0 512161.0 0
293008.0 516554.0 0
297355.0 513448.0 0
301823.0 515556.0 0
307253.0 512141.0 0
306266.0 516972.0 0
316960.0 516410.0 0
327377.0 512615.0 0
333883.0 516045.0 0
337235.0 512351.0 0
347138.0 513254.0 0
352052.0 513191.0 0
355957.0 515413.0 0
360826.0 516680.0 0
366779.0 516772.0 0
370554.0 513248.0 0
374876.0 513279.0 0
378884.0 516548.0 0
382861.0 511814.0 0
383679.0 515826.0 0
387481.0 516251.0 0
392084.0 513814.0 0
397901.0 513017.0 0
400494.0 517051.0 0
405343.0 516148.0 0
411975.0 515911.0 0
417500.0 512194.0 0
422556.0 512298.0 0
427082.0 515387.0 0
431159.0 512749.0 0
437140.0 516209.0 0
441721.0 512217.0 0
447189.0 516905.0 0
453573.0 512204.0 0
458843.0 512175.0 0
464253.0 512221.0 0
468800.0 513116.0 0
466341.0 516616.0 0
477031.0 514018.0 0
481470.0 512651.0 0
486169.0 512933.0 0
491457.0 513665.0 0
497461.0 516254.0 0
8134.42 518754.0 0
13713.6 520771.0 0
23729.8 517321.0 0
28619.0 520342.0 0
33413.8 517372.0 0
38142.7 521180.0 0
43308.6 517633.0 0
42748.7 521802.0 0
49505.5 521689.0 0
53723.5 517458.0 0
64574.7 517346.0 0
63306.8 521352.0 0
68029.5 517348.0 0
66913.1 521559.0 0
71727.7 520525.0 0
78030.6 521839.0 0
82092.8 517186.0 0
88125.3 521936.0 0
92899.4 517320.0 0
93011.5 522036.0 0
97169.4 517056.0 0
97926.6 521583.0 0
106662.0 517465.0 0
106134.0 521889.0 0
111075.0 521313.0 0
116912.0 521293.0 0
121079.0 517117.0 0
126731.0 522000.0 0
127630.0 517220.0 0
131685.0 521550.0 0
138825.0 517207.0 0
143806.0 517233.0 0
145541.0 521673.0 0
152777.0 517281.0 0
151231.0 521974.0 0
156949.0 517434.0 0
162355.0 520846.0 0
167430.0 521507.0 0
172401.0 518740.0 0
176838.0 518832.0 0
181117.0 518818.0 0
186629.0 517093.0 0
197664.0 517913.0 0
202726.0 521399.0 0
206634.0 517821.0 0
207681.0 521808.0 0
210716.0 517009.0 0
212213.0 521392.0 0
228231.0 518361.0 0
233879.0 519482.0 0
241266.0 517582.0 0
246628.0 518076.0 0
252000.0 520799.0 0
256909.0 517267.0 0
262464.0 522010.0 0
268357.0 517036.0 0
268605.0 522000.0 0
272867.0 518270.0 0
277754.0 518178.0 0
282640.0 521001.0 0
287154.0 517276.0 0
292832.0 521866.0 0
297925.0 518609.0 0
302508.0 521672.0 0
311449.0 517563.0 0
313173.0 522134.0 0
317580.0 521940.0 0
322454.0 517554.0 0
328077.0 517273.0 0
337950.0 518913.0 0
342740.0 517047.0 0
348440.0 517969.0 0
351629.0 522015.0 0
352719.0 517544.0 0
356437.0 520003.0 0
372737.0 518143.0 0
383731.0 520224.0 0
391323.0 518603.0 0
396326.0 518871.0 0
403287.0 521950.0 0
408938.0 521149.0 0
417930.0 517056.0 0
413987.0 521649.0 0
422971.0 518313.0 0
420472.0 521821.0 0
427905.0 521774.0 0
432258.0 517289.0 0
433518.0 521584.0 0
438001.0 521059.0 0
441928.0 517695.0 0
452749.0 517415.0 0
458209.0 517664.0 0
462470.0 517296.0 0
467503.0 521511.0 0
471544.0 517335.0 0
476707.0 518668.0 0
482376.0 517792.0 0
487807.0 517545.0 0
488172.0 522405.0 0
492544.0 519004.0 0
497146.0 520993.0 0
3052.46 522976.0 0
8885.58 524490.0 0
18520.6 524179.0 0
23836.8 522948.0 0
27669.3 527360.0 0
33409.8 522938.0 0
37509.5 527169.0 0
46362.0 525597.0 0
53564.1 522471.0 0
58471.6 522196.0 0
63402.6 526515.0 0
68325.1 524966.0 0
83463.8 523002.0 0
89852.5 526551.0 0
98159.1 525781.0 0
102258.0 522223.0 0
105731.0 526350.0 0
118538.0 526784.0 0
122735.0 522541.0 0
124095.0 527090.0 0
128616.0 525414.0 0
135753.0 523230.0 0
140249.0 522656.0 0
137959.0 526546.0 0
147449.0 527022.0 0
157222.0 522763.0 0
162094.0 526344.0 0
167377.0 526454.0 0
171767.0 524027.0 0
176424.0 522590.0 0
181184.0 524442.0 0
185951.0 522414.0 0
191684.0 522648.0 0
197440.0 523460.0 0
201992.0 527082.0 0
207514.0 526774.0 0
217248.0 523172.0 0
223332.0 522718.0 0
228930.0 524441.0 0
233326.0 523934.0 0
238346.0 523085.0 0
243761.0 522853.0 0
241837.0 526736.0 0
248479.0 522490.0 0
246284.0 526952.0 0
251331.0 526146.0 0
255492.0 523296.0 0
273300.0 522791.0 0
278228.0 523546.0 0
287660.0 523297.0 0
293287.0 526628.0 0
297490.0 523640.0 0
308253.0 522365.0 0
311866.0 526053.0 0
316535.0 526457.0 0
322388.0 523108.0 0
326295.0 527096.0 0
326431.0 522008.0 0
330662.0 522152.0 0
335721.0 522412.0 0
340943.0 523013.0 0
346496.0 523742.0 0
351739.0 527126.0 0
356766.0 525395.0 0
361237.0 522471.0 0
366813.0 522500.0 0
371452.0 523102.0 0
377503.0 523641.0 0
387922.0 523321.0 0
392726.0 523133.0 0
398114.0 524522.0 0
411638.0 526210.0 0
417269.0 521994.0 0
417094.0 525788.0 0
422821.0 526536.0 0
432651.0 526122.0 0
438321.0 526628.0 0
442723.0 522491.0 0
448330.0 522837.0 0
453738.0 522293.0 0
458240.0 522702.0 0
455005.0 526764.0 0
462631.0 522156.0 0
468414.0 526625.0 0
472778.0 522747.0 0
479645.0 522553.0 0
477565.0 526981.0 0
483944.0 522349.0 0
482183.0 527120.0 0
486447.0 527085.0 0
492449.0 523156.0 0
490358.0 526163.0 0
497782.0 525467.0 0
2129.2 527946.0 0
2233.51 532218.0 0
7051.57 530230.0 0
13942.6 527752.0 0
18783.8 529046.0 0
22451.4 527390.0 0
22987.9 532233.0 0
32540.7 527247.0 0
32593.8 530656.0 0
42494.2 528887.0 0
47043.0 532044.0 0
51342.6 527843.0 0
52842.7 532488.0 0
57235.4 528284.0 0
62073.5 531911.0 0
67788.4 531866.0 0
73240.0 527878.0 0
79497.9 527411.0 0
78184.9 532121.0 0
84790.2 527984.0 0
94658.3 528532.0 0
101264.0 528739.0 0
97648.2 531678.0 0
105652.0 531814.0 0
111446.0 527639.0 0
121827.0 531873.0 0
128203.0 531537.0 0
133466.0 527480.0 0
137478.0 530792.0 0
141980.0 527599.0 0
152979.0 527319.0 0
157409.0 528194.0 0
153606.0 532119.0 0
158079.0 532369.0 0
163160.0 532159.0 0
171003.0 527952.0 0
168483.0 531313.0 0
173482.0 531118.0 0
177170.0 527551.0 0
177770.0 532013.0 0
182351.0 529272.0 0
187260.0 527378.0 0
191884.0 527924.0 0
196746.0 528930.0 0
213336.0 527208.0 0
212310.0 532095.0 0
220042.0 528141.0 0
225142.0 527955.0 0
228859.0 528536.0 0
232426.0 527638.0 0
231232.0 531861.0 0
237217.0 528383.0 0
241424.0 531684.0 0
246817.0 531831.0 0
252457.0 531585.0 0
257807.0 528495.0 0
262730.0 528009.0 0
268171.0 527608.0 0
273929.0 527697.0 0
279282.0 528997.0 0
284714.0 527649.0 0
283502.0 531923.0 0
289537.0 528176.0 0
292461.0 531624.0 0
297053.0 528647.0 0
302515.0 527527.0 0
307505.0 527770.0 0
307500.0 532223.0 0
312022.0 531252.0 0
321113.0 528127.0 0
317298.0 531180.0 0
328063.0 531896.0 0
331574.0 527328.0 0
337215.0 527740.0 0
343337.0 528343.0 0
342418.0 532272.0 0
347167.0 528329.0 0
349900.0 531194.0 0
355970.0 531587.0 0
362259.0 528478.0 0
366912.0 532134.0 0
367516.0 527335.0 0
372126.0 527555.0 0
378540.0 530188.0 0
382434.0 527593.0 0
387090.0 527970.0 0
391807.0 527712.0 0
388121.0 532324.0 0
392583.0 532140.0 0
396050.0 529197.0 0
400659.0 529321.0 0
405961.0 527952.0 0
412492.0 531311.0 0
417305.0 530898.0 0
428180.0 528342.0 0
424910.0 531971.0 0
431772.0 531796.0 0
444190.0 527456.0 0
449926.0 529058.0 0
453903.0 531957.0 0
460608.0 527805.0 0
465185.0 528802.0 0
468253.0 531950.0 0
472935.0 528070.0 0
478013.0 531943.0 0
486891.0 531244.0 0
494242.0 528360.0 0
2123.09 536461.0 0
6883.5 536011.0 0
12267.6 533644.0 0
17788.3 533334.0 0
16020.4 537113.0 0
20043.4 537383.0 0
24857.8 537337.0 0
28788.3 533425.0 0
36318.4 532942.0 0
41325.5 533150.0 0
53420.2 537006.0 0
57521.4 534384.0 0
62549.3 537231.0 0
67208.1 537187.0 0
73526.3 534569.0 0
78878.3 537353.0 0
82901.4 532851.0 0
88769.7 532495.0 0
93953.4 533033.0 0
92508.1 537020.0 0
101128.0 533015.0 0
97396.8 536054.0 0
102629.0 537328.0 0
110432.0 532891.0 0
107397.0 536434.0 0
112037.0 537065.0 0
115713.0 532523.0 0
123301.0 537136.0 0
127790.0 536901.0 0
133601.0 532319.0 0
142037.0 532839.0 0
138479.0 536644.0 0
148118.0 533473.0 0
151917.0 537208.0 0
156605.0 537173.0 0
161573.0 537106.0 0
166838.0 536142.0 0
173113.0 537238.0 0
178470.0 537408.0 0
181532.0 533803.0 0
186322.0 532570.0 0
191393.0 532383.0 0
189481.0 537311.0 0
195909.0 534398.0 0
201288.0 532649.0 0
199479.0 537432.0 0
207275.0 532746.0 0
212601.0 536847.0 0
217031.0 532911.0 0
221806.0 532903.0 0
223146.0 537179.0 0
226342.0 532471.0 0
227630.0 537257.0 0
232500.0 537119.0 0
236037.0 532983.0 0
238111.0 537286.0 0
247246.0 536611.0 0
257564.0 533604.0 0
263838.0 533412.0 0
269717.0 533208.0 0
274691.0 532611.0 0
271560.0 537082.0 0
279312.0 534348.0 0
283473.0 536261.0 0
288119.0 533105.0 0
292967.0 536232.0 0
298002.0 533722.0 0
302980.0 532662.0 0
302500.0 537168.0 0
307043.0 536891.0 0
312179.0 536898.0 0
317382.0 536051.0 0
323239.0 533030.0 0
325631.0 537048.0 0
329557.0 536581.0 0
332807.0 532380.0 0
337547.0 532982.0 0
340408.0 536325.0 0
345984.0 532440.0 0
344955.0 536939.0 0
350808.0 536759.0 0
361282.0 533625.0 0
369766.0 536945.0 0
373767.0 532689.0 0
378318.0 534629.0 0
383229.0 532940.0 0
388184.0 536748.0 0
397839.0 533159.0 0
393127.0 537155.0 0
401880.0 537477.0 0
403514.0 533287.0 0
408219.0 532906.0 0
406358.0 537381.0 0
412310.0 537068.0 0
418165.0 536476.0 0
420865.0 533300.0 0
428362.0 535555.0 0
437516.0 532784.0 0
443435.0 532961.0 0
450162.0 535443.0 0
458109.0 533041.0 0
455474.0 537162.0 0
459371.0 537188.0 0
463075.0 533361.0 0
462548.0 537418.0 0
466793.0 537266.0 0
473306.0 532627.0 0
471937.0 537076.0 0
477245.0 537317.0 0
482798.0 532742.0 0
482133.0 537339.0 0
486800.0 536415.0 0
491663.0 533243.0 0
497407.0 532544.0 0
497811.0 537293.0 0
3066.3 541459.0 0
8582.2 540406.0 0
12541.1 538966.0 0
16210.6 541356.0 0
21084.6 542272.0 0
32180.2 537573.0 0
32655.5 541959.0 0
37594.3 538605.0 0
43305.5 537689.0 0
41717.3 542657.0 0
48636.4 538027.0 0
53277.1 542068.0 0
57194.9 539209.0 0
62674.4 541648.0 0
71140.2 539366.0 0
67085.1 541628.0 0
84010.9 537591.0 0
82453.2 541487.0 0
86490.9 541121.0 0
88079.7 537486.0 0
91345.1 541875.0 0
96746.1 541177.0 0
101407.0 542046.0 0
106523.0 541555.0 0
118042.0 538009.0 0
123313.0 542374.0 0
128459.0 541380.0 0
132819.0 537382.0 0
138646.0 542340.0 0
143051.0 537721.0 0
147550.0 539411.0 0
143755.0 541766.0 0
152554.0 541903.0 0
157500.0 542150.0 0
162804.0 541248.0 0
167936.0 541534.0 0
177408.0 542314.0 0
183810.0 538193.0 0
187156.0 542234.0 0
192269.0 542192.0 0
193978.0 538219.0 0
197890.0 542211.0 0
203566.0 538226.0 0
202816.0 542251.0 0
207951.0 537977.0 0
212124.0 541812.0 0
218944.0 537791.0 0
222569.0 541873.0 0
227660.0 542350.0 0
232825.0 541977.0 0
237417.0 541550.0 0
242651.0 537623.0 0
241599.0 542515.0 0
246322.0 541549.0 0
252488.0 537791.0 0
250674.0 542563.0 0
254828.0 542341.0 0
257594.0 537903.0 0
262372.0 539560.0 0
267530.0 537691.0 0
272348.0 540945.0 0
275880.0 537494.0 0
282966.0 541648.0 0
287817.0 538404.0 0
292488.0 541828.0 0
298531.0 538424.0 0
297089.0 542353.0 0
301763.0 541992.0 0
306739.0 541601.0 0
311573.0 542167.0 0
316360.0 540884.0 0
320664.0 542355.0 0
321828.0 538029.0 0
326354.0 541943.0 0
335188.0 537681.0 0
343734.0 541766.0 0
348536.0 542065.0 0
357265.0 538396.0 0
363682.0 538322.0 0
367873.0 542384.0 0
375205.0 537978.0 0
372530.0 541940.0 0
379946.0 538491.0 0
382411.0 541503.0 0
384076.0 538238.0 0
386981.0 541258.0 0
391424.0 541674.0 0
397787.0 537405.0 0
396030.0 541599.0 0
401209.0 542326.0 0
406362.0 542165.0 0
416779.0 541492.0 0
423314.0 537224.0 0
427981.0 541740.0 0
433563.0 537757.0 0
439795.0 538757.0 0
445090.0 537606.0 0
448255.0 540106.0 0
452784.0 542005.0 0
458148.0 540752.0 0
462753.0 541580.0 0
467727.0 542234.0 0
473029.0 542233.0 0
477933.0 542189.0 0
482500.0 542308.0 0
486417.0 541347.0 0
492566.0 538332.0 0
490955.0 542387.0 0
495916.0 541813.0 0
2829.31 547311.0 0
7477.11 544750.0 0
12144.4 543473.0 0
12075.2 547111.0 0
16711.9 546906.0 0
23124.3 547734.0 0
27200.7 542708.0 0
32467.2 546083.0 0
37097.1 543905.0 0
48020.0 543497.0 0
51684.3 546621.0 0
58941.7 542880.0 0
56177.3 546340.0 0
61412.9 546830.0 0
67218.3 547122.0 0
71987.0 543448.0 0
76757.4 542714.0 0
81209.1 545784.0 0
87162.1 546675.0 0
98739.9 546435.0 0
103879.0 546681.0 0
108739.0 546866.0 0
112487.0 542550.0 0
118137.0 543332.0 0
123830.0 547376.0 0
128660.0 546519.0 0
133193.0 542842.0 0
133274.0 547331.0 0
142867.0 545863.0 0
146955.0 543767.0 0
146603.0 547776.0 0
150590.0 546031.0 0
155550.0 546338.0 0
161092.0 546119.0 0
167126.0 547529.0 0
172362.0 543017.0 0
172889.0 547368.0 0
178067.0 547788.0 0
182509.0 543074.0 0
188999.0 547061.0 0
193904.0 546815.0 0
203488.0 546594.0 0
207247.0 542807.0 0
213094.0 546760.0 0
217305.0 542922.0 0
222500.0 547221.0 0
227500.0 547140.0 0
232612.0 546230.0 0
236593.0 545847.0 0
240981.0 546856.0 0
246185.0 547241.0 0
252657.0 547446.0 0
258986.0 543133.0 0
257726.0 546772.0 0
262478.0 546293.0 0
267306.0 543003.0 0
272374.0 545577.0 0
277050.0 542714.0 0
282528.0 547363.0 0
287963.0 542968.0 0
287521.0 547338.0 0
292767.0 547287.0 0
297373.0 546241.0 0
306529.0 546458.0 0
311599.0 547369.0 0
317416.0 546567.0 0
323107.0 547121.0 0
326926.0 546870.0 0
332867.0 543444.0 0
338574.0 542747.0 0
345097.0 546316.0 0
349892.0 546755.0 0
353364.0 542822.0 0
358876.0 543780.0 0
363457.0 543785.0 0
367100.0 547631.0 0
372444.0 546809.0 0
377541.0 543065.0 0
382674.0 546218.0 0
388721.0 546169.0 0
397033.0 546442.0 0
407337.0 546791.0 0
411410.0 543339.0 0
417051.0 547128.0 0
421853.0 543144.0 0
421839.0 547743.0 0
431955.0 547075.0 0
435473.0 543014.0 0
439942.0 543651.0 0
444421.0 542594.0 0
448475.0 543078.0 0
447817.0 546501.0 0
457532.0 545606.0 0
462803.0 546715.0 0
468022.0 547264.0 0
472903.0 547310.0 0
477930.0 547014.0 0
482560.0 547356.0 0
487578.0 546623.0 0
493153.0 546940.0 0
497792.0 546292.0 0
2515.52 552619.0 0
9302.76 548684.0 0
7230.44 552274.0 0
12051.5 552196.0 0
28039.6 547824.0 0
28623.8 552289.0 0
32697.6 550555.0 0
37853.1 549487.0 0
44092.7 547774.0 0
48841.7 549482.0 0
52473.9 552522.0 0
57708.8 551259.0 0
63670.8 552555.0 0
68836.7 552553.0 0
72913.6 548051.0 0
71703.4 551904.0 0
77753.3 549028.0 0
81221.7 552758.0 0
93230.4 547996.0 0
92083.2 552510.0 0
96783.3 552260.0 0
101939.0 550946.0 0
113864.0 547953.0 0
118925.0 548509.0 0
123396.0 552410.0 0
128496.0 551664.0 0
133354.0 551848.0 0
137731.0 547720.0 0
141567.0 550453.0 0
145634.0 552482.0 0
150921.0 551732.0 0
156953.0 551503.0 0
162808.0 552014.0 0
170529.0 552198.0 0
183321.0 547887.0 0
179189.0 552549.0 0
182752.0 552111.0 0
186775.0 552001.0 0
192140.0 551705.0 0
198700.0 547838.0 0
202491.0 551294.0 0
208164.0 547852.0 0
206760.0 552730.0 0
211064.0 552013.0 0
217814.0 548208.0 0
215673.0 552550.0 0
221075.0 552652.0 0
231785.0 550320.0 0
237877.0 551813.0 0
244106.0 552518.0 0
249108.0 552063.0 0
257416.0 550105.0 0
260319.0 552180.0 0
268654.0 547660.0 0
265433.0 551304.0 0
272282.0 551853.0 0
276535.0 547733.0 0
279316.0 552463.0 0
285102.0 551717.0 0
289711.0 551318.0 0
296916.0 551468.0 0
301568.0 548094.0 0
306494.0 551728.0 0
318484.0 552372.0 0
323650.0 552057.0 0
331380.0 547743.0 0
328290.0 550378.0 0
335377.0 548580.0 0
332570.0 552810.0 0
340545.0 547679.0 0
337617.0 552819.0 0
341630.0 552112.0 0
346432.0 551238.0 0
355536.0 548405.0 0
361576.0 548382.0 0
368785.0 552311.0 0
377463.0 548770.0 0
373166.0 551679.0 0
381289.0 551928.0 0
386885.0 552328.0 0
393045.0 548277.0 0
393285.0 553063.0 0
402186.0 547918.0 0
398636.0 551841.0 0
403143.0 552724.0 0
408015.0 552032.0 0
411918.0 548573.0 0
415349.0 552716.0 0
426371.0 547790.0 0
424553.0 551908.0 0
428901.0 552380.0 0
437792.0 547776.0 0
433955.0 552021.0 0
443230.0 547619.0 0
442536.0 551789.0 0
447427.0 551748.0 0
452565.0 547860.0 0
457835.0 551407.0 0
463105.0 551493.0 0
467908.0 552521.0 0
473036.0 551724.0 0
478082.0 552151.0 0
482772.0 551795.0 0
487539.0 552141.0 0
492547.0 551898.0 0
497557.0 550854.0 0
2474.99 557589.0 0
7687.35 557248.0 0
12003.2 556730.0 0
17410.4 553140.0 0
23172.5 553724.0 0
26917.1 557688.0 0
34121.8 555621.0 0
39422.5 554391.0 0
43385.8 553201.0 0
44438.2 557753.0 0
47807.8 553331.0 0
48477.5 557100.0 0
52727.0 557674.0 0
59009.4 556332.0 0
63859.5 557648.0 0
67595.3 557108.0 0
75454.3 553705.0 0
71655.0 556890.0 0
78219.1 557519.0 0
82271.4 557822.0 0
87159.6 553309.0 0
92436.0 557221.0 0
97433.4 557292.0 0
102561.0 556783.0 0
107514.0 552878.0 0
110977.0 557292.0 0
113384.0 552929.0 0
118424.0 553659.0 0
126549.0 557120.0 0
132390.0 556854.0 0
137657.0 553347.0 0
137084.0 557725.0 0
142123.0 556538.0 0
147486.0 556396.0 0
156992.0 556616.0 0
161653.0 557459.0 0
166934.0 556406.0 0
172250.0 557054.0 0
174972.0 553514.0 0
177857.0 557795.0 0
183301.0 556061.0 0
189572.0 556748.0 0
197495.0 553396.0 0
194597.0 557861.0 0
202871.0 557056.0 0
207500.0 557111.0 0
212370.0 557089.0 0
217582.0 557285.0 0
223147.0 557438.0 0
226985.0 552782.0 0
227432.0 557759.0 0
232479.0 557102.0 0
238689.0 557746.0 0
242771.0 556787.0 0
247076.0 556495.0 0
254385.0 553481.0 0
262514.0 556363.0 0
267994.0 556506.0 0
283533.0 555924.0 0
288594.0 556334.0 0
292814.0 554030.0 0
298604.0 557579.0 0
301796.0 553575.0 0
302612.0 557511.0 0
307500.0 557118.0 0
312447.0 553423.0 0
316553.0 557372.0 0
321460.0 557330.0 0
327804.0 556138.0 0
333534.0 557825.0 0
340941.0 556169.0 0
346534.0 557780.0 0
351789.0 552968.0 0
358937.0 552944.0 0
364204.0 552973.0 0
362864.0 556948.0 0
367759.0 557583.0 0
377198.0 553779.0 0
373305.0 556549.0 0
383255.0 557670.0 0
397909.0 556285.0 0
402441.0 557312.0 0
407977.0 557768.0 0
417863.0 556574.0 0
420727.0 553409.0 0
420898.0 557781.0 0
426033.0 557646.0 0
432039.0 556745.0 0
438497.0 552950.0 0
436711.0 556893.0 0
442313.0 556676.0 0
452639.0 552846.0 0
453164.0 556930.0 0
458160.0 557846.0 0
463442.0 555954.0 0
467917.0 557783.0 0
471879.0 555632.0 0
476441.0 557191.0 0
481170.0 555826.0 0
485707.0 556735.0 0
490869.0 557176.0 0
496342.0 556126.0 0
3073.78 562717.0 0
8249.41 562324.0 0
12762.8 562111.0 0
15743.1 558210.0 0
17441.8 562927.0 0
20968.7 558800.0 0
26203.7 562699.0 0
30825.8 561120.0 0
39722.0 558647.0 0
35735.8 561401.0 0
42790.3 562031.0 0
47465.5 561108.0 0
51483.8 561714.0 0
56732.3 561673.0 0
62455.8 561575.0 0
67233.5 562224.0 0
72587.6 562047.0 0
78168.5 561613.0 0
82726.3 562217.0 0
86918.1 558867.0 0
86939.1 562995.0 0
90641.1 562333.0 0
95702.3 562275.0 0
101587.0 562427.0 0
107024.0 558864.0 0
115757.0 558106.0 0
112274.0 561982.0 0
120999.0 558280.0 0
118132.0 562818.0 0
123078.0 562747.0 0
127489.0 562262.0 0
132069.0 562335.0 0
137094.0 562306.0 0
145862.0 561283.0 0
152152.0 557604.0 0
155756.0 561361.0 0
169004.0 562731.0 0
181228.0 562873.0 0
185807.0 560539.0 0
190625.0 561932.0 0
198950.0 558487.0 0
195378.0 562463.0 0
204721.0 561684.0 0
208753.0 562600.0 0
212442.0 561783.0 0
217341.0 562708.0 0
222514.0 562096.0 0
227488.0 562331.0 0
232699.0 561398.0 0
236835.0 562583.0 0
242219.0 561308.0 0
247516.0 561574.0 0
251867.0 558167.0 0
252133.0 562409.0 0
257505.0 557990.0 0
261994.0 561712.0 0
267571.0 561178.0 0
273237.0 558723.0 0
279399.0 558567.0 0
284736.0 560916.0 0
289821.0 561125.0 0
293493.0 558437.0 0
293511.0 563131.0 0
297251.0 561909.0 0
302142.0 560841.0 0
307521.0 561394.0 0
310872.0 563011.0 0
312822.0 559233.0 0
317123.0 562080.0 0
326711.0 561535.0 0
331502.0 562688.0 0
336381.0 562731.0 0
337902.0 558899.0 0
341558.0 562070.0 0
351009.0 562155.0 0
352512.0 557971.0 0
358111.0 558564.0 0
363389.0 561976.0 0
368459.0 562816.0 0
372614.0 561583.0 0
377857.0 558431.0 0
381578.0 562226.0 0
386073.0 562664.0 0
389005.0 558102.0 0
391827.0 563065.0 0
394004.0 558281.0 0
397848.0 561928.0 0
403455.0 562334.0 0
408142.0 562861.0 0
412518.0 563003.0 0
413754.0 558148.0 0
417284.0 562223.0 0
422152.0 561738.0 0
433121.0 562591.0 0
438769.0 561001.0 0
448363.0 558321.0 0
443863.0 562101.0 0
452906.0 561564.0 0
462351.0 562523.0 0
467371.0 562432.0 0
471782.0 561071.0 0
476077.0 562090.0 0
481159.0 561176.0 0
486872.0 561739.0 0
497276.0 561700.0 0
8070.35 567328.0 0
15014.4 567176.0 0
20024.7 567699.0 0
22032.4 563405.0 0
25472.2 567603.0 0
32506.5 567873.0 0
39200.0 565100.0 0
47325.6 566380.0 0
52760.8 565798.0 0
57900.4 567830.0 0
63811.4 566846.0 0
69562.0 567335.0 0
74626.3 567719.0 0
79094.1 566326.0 0
83144.7 567275.0 0
87717.0 567475.0 0
93300.0 567526.0 0
98995.0 567611.0 0
104023.0 567602.0 0
107099.0 563732.0 0
107297.0 567786.0 0
111660.0 567723.0 0
119881.0 567659.0 0
123722.0 567411.0 0
128288.0 566895.0 0
132812.0 566653.0 0
136898.0 566994.0 0
141528.0 563686.0 0
141140.0 567888.0 0
146372.0 567204.0 0
150959.0 563633.0 0
156543.0 567288.0 0
161600.0 563714.0 0
172452.0 567474.0 0
175632.0 563516.0 0
178953.0 566972.0 0
183694.0 568077.0 0
188813.0 566336.0 0
193177.0 567161.0 0
197360.0 567351.0 0
200014.0 563953.0 0
202941.0 567421.0 0
207663.0 565582.0 0
212428.0 567049.0 0
217608.0 567210.0 0
221771.0 566903.0 0
226564.0 567229.0 0
231783.0 565631.0 0
236952.0 567495.0 0
241570.0 566587.0 0
248716.0 566470.0 0
252957.0 566138.0 0
256777.0 563221.0 0
260550.0 566333.0 0
265824.0 566113.0 0
271343.0 564081.0 0
273089.0 567812.0 0
276732.0 563345.0 0
275737.0 567208.0 0
281971.0 566412.0 0
288241.0 565944.0 0
293471.0 567808.0 0
298631.0 566321.0 0
304530.0 565312.0 0
309283.0 566790.0 0
314161.0 565395.0 0
318173.0 566722.0 0
321960.0 563268.0 0
327445.0 566212.0 0
332500.0 567285.0 0
336825.0 567321.0 0
341815.0 567617.0 0
346821.0 567681.0 0
347130.0 563343.0 0
351667.0 566549.0 0
355107.0 563085.0 0
357386.0 567275.0 0
368511.0 567048.0 0
377202.0 563527.0 0
373481.0 567725.0 0
379188.0 567959.0 0
382692.0 565877.0 0
396281.0 566750.0 0
401071.0 567166.0 0
406207.0 566903.0 0
411484.0 568164.0 0
417192.0 567556.0 0
422299.0 566589.0 0
427021.0 563873.0 0
438032.0 566367.0 0
448680.0 564148.0 0
443951.0 567876.0 0
453279.0 567106.0 0
457133.0 563496.0 0
458126.0 567584.0 0
462062.0 567517.0 0
467093.0 567415.0 0
472194.0 565933.0 0
477996.0 566713.0 0
483808.0 565918.0 0
488068.0 566199.0 0
492020.0 563228.0 0
491778.0 568190.0 0
496601.0 567151.0 0
2743.04 568144.0 0
2122.02 572962.0 0
6753.08 572271.0 0
11810.2 569770.0 0
16400.5 572398.0 0
22195.6 572519.0 0
26861.9 572254.0 0
37884.4 573252.0 0
42549.6 569472.0 0
47277.6 571589.0 0
52250.1 571157.0 0
62797.2 572212.0 0
67700.8 572774.0 0
72775.6 572282.0 0
77941.0 572044.0 0
83426.4 572005.0 0
88684.0 572492.0 0
93317.3 572359.0 0
97256.7 572092.0 0
102395.0 572881.0 0
107388.0 571035.0 0
116192.0 570702.0 0
120572.0 573280.0 0
126236.0 572079.0 0
132034.0 571440.0 0
137636.0 571833.0 0
143458.0 572717.0 0
151811.0 568930.0 0
148553.0 572085.0 0
157718.0 572173.0 0
161140.0 569337.0 0
162988.0 572289.0 0
166063.0 568802.0 0
171221.0 571725.0 0
176271.0 571402.0 0
188602.0 571539.0 0
193674.0 572036.0 0
198886.0 571990.0 0
203301.0 573123.0 0
207205.0 570460.0 0
216251.0 572574.0 0
221763.0 571190.0 0
226382.0 572547.0 0
232313.0 571691.0 0
238265.0 572088.0 0
245437.0 571184.0 0
252049.0 571191.0 0
256631.0 568157.0 0
257577.0 572607.0 0
262466.0 571053.0 0
269775.0 570570.0 0
274145.0 572600.0 0
277888.0 570270.0 0
283015.0 572782.0 0
288454.0 571229.0 0
296852.0 571087.0 0
302606.0 571674.0 0
308383.0 572539.0 0
312539.0 569949.0 0
318034.0 572030.0 0
322862.0 568670.0 0
328562.0 571347.0 0
333799.0 572938.0 0
339241.0 572289.0 0
344510.0 572069.0 0
349485.0 571700.0 0
353975.0 570655.0 0
358503.0 573205.0 0
363208.0 568297.0 0
368063.0 571722.0 0
372321.0 572230.0 0
376925.0 572408.0 0
382410.0 571567.0 0
387064.0 568292.0 0
387497.0 572898.0 0
392350.0 568513.0 0
392407.0 572611.0 0
396587.0 572043.0 0
401654.0 572592.0 0
407084.0 571995.0 0
411581.0 572971.0 0
415864.0 572632.0 0
421475.0 572175.0 0
426539.0 569452.0 0
431588.0 568271.0 0
430776.0 572922.0 0
436062.0 572350.0 0
448910.0 568980.0 0
446845.0 572142.0 0
451429.0 573276.0 0
456357.0 571499.0 0
461645.0 572555.0 0
467042.0 572758.0 0
472986.0 571064.0 0
478115.0 572135.0 0
482445.0 570243.0 0
487700.0 571221.0 0
493216.0 572217.0 0
498092.0 571569.0 0
2851.06 577744.0 0
8300.61 577187.0 0
11091.9 573456.0 0
12832.0 576857.0 0
16674.2 577212.0 0
20728.3 577225.0 0
25648.7 578289.0 0
31424.6 575720.0 0
43898.9 573973.0 0
41755.1 577852.0 0
47428.5 577787.0 0
53070.1 577123.0 0
57516.9 573866.0 0
63630.1 577362.0 0
68340.2 577284.0 0
72513.9 577111.0 0
77248.0 577130.0 0
82085.5 577193.0 0
86344.8 576148.0 0
91332.5 576965.0 0
96803.4 576480.0 0
111908.0 574038.0 0
116678.0 576550.0 0
121142.0 578045.0 0
125935.0 577925.0 0
132173.0 577494.0 0
137897.0 577533.0 0
142960.0 578077.0 0
147754.0 576623.0 0
152846.0 577986.0 0
153178.0 573353.0 0
157746.0 577143.0 0
162944.0 576801.0 0
167685.0 574082.0 0
172654.0 576405.0 0
178351.0 576618.0 0
182187.0 573619.0 0
186637.0 576203.0 0
192448.0 576857.0 0
197156.0 577187.0 0
201667.0 576999.0 0
207316.0 577080.0 0
210884.0 573887.0 0
212749.0 577261.0 0
221928.0 575826.0 0
227600.0 577474.0 0
232538.0 577305.0 0
237431.0 577255.0 0
241961.0 575759.0 0
246352.0 576538.0 0
250971.0 577016.0 0
255565.0 576540.0 0
260950.0 577438.0 0
266397.0 574851.0 0
271513.0 576444.0 0
277646.0 576269.0 0
288017.0 576455.0 0
292743.0 573460.0 0
297806.0 576318.0 0
302752.0 577208.0 0
307412.0 577456.0 0
313482.0 576870.0 0
318383.0 576808.0 0
323769.0 574076.0 0
328958.0 576773.0 0
333116.0 577339.0 0
336660.0 576911.0 0
342360.0 577438.0 0
347706.0 577179.0 0
352993.0 576103.0 0
363741.0 573858.0 0
367583.0 577162.0 0
373328.0 577000.0 0
378084.0 577379.0 0
382364.0 576791.0 0
387500.0 577434.0 0
391365.0 577228.0 0
394718.0 576763.0 0
398476.0 576506.0 0
406084.0 577927.0 0
412591.0 577540.0 0
418199.0 577338.0 0
423300.0 577397.0 0
427629.0 573413.0 0
428125.0 577313.0 0
433002.0 577427.0 0
437869.0 577914.0 0
442302.0 573810.0 0
441968.0 578425.0 0
447281.0 577061.0 0
456396.0 576582.0 0
461334.0 578149.0 0
466238.0 577766.0 0
470741.0 575784.0 0
475938.0 576975.0 0
482474.0 576261.0 0
488699.0 576653.0 0
497008.0 576226.0 0
2499.69 582197.0 0
7287.19 581967.0 0
12167.0 580890.0 0
17805.1 581523.0 0
22329.4 582175.0 0
25879.0 582829.0 0
33687.6 581309.0 0
37289.8 578603.0 0
41496.9 583072.0 0
46444.9 583209.0 0
51579.5 582452.0 0
58811.7 579113.0 0
56772.8 583236.0 0
62420.5 582869.0 0
67748.9 582096.0 0
72700.9 581700.0 0
76833.4 582590.0 0
81515.1 582336.0 0
87203.2 581132.0 0
92474.4 582197.0 0
101424.0 578918.0 0
97417.5 582301.0 0
107488.0 578851.0 0
111634.0 582817.0 0
113322.0 578799.0 0
117363.0 582167.0 0
123156.0 582347.0 0
128779.0 582942.0 0
134054.0 582571.0 0
137950.0 582266.0 0
142169.0 582196.0 0
147680.0 582345.0 0
153203.0 582883.0 0
158909.0 581578.0 0
162829.0 582009.0 0
167750.0 579100.0 0
172499.0 580674.0 0
178119.0 582121.0 0
182732.0 578718.0 0
188360.0 581179.0 0
193983.0 581993.0 0
199075.0 581525.0 0
204134.0 582062.0 0
209443.0 582419.0 0
213908.0 581074.0 0
217628.0 578508.0 0
217498.0 582888.0 0
222154.0 581292.0 0
226144.0 582363.0 0
230536.0 582452.0 0
235953.0 581778.0 0
240480.0 579041.0 0
243864.0 580452.0 0
250542.0 582329.0 0
256595.0 582624.0 0
262397.0 583155.0 0
266413.0 580058.0 0
272431.0 582074.0 0
278184.0 582044.0 0
282834.0 579087.0 0
289271.0 581918.0 0
292878.0 578359.0 0
294194.0 582731.0 0
298695.0 581749.0 0
302934.0 581153.0 0
307072.0 582562.0 0
312265.0 583068.0 0
317104.0 581447.0 0
321925.0 579572.0 0
326899.0 581458.0 0
332057.0 581523.0 0
337953.0 581982.0 0
343192.0 582770.0 0
346423.0 580996.0 0
351003.0 582181.0 0
357577.0 578613.0 0
358236.0 582950.0 0
362290.0 578593.0 0
367486.0 582515.0 0
372741.0 582617.0 0
377645.0 581899.0 0
383219.0 581879.0 0
387851.0 582156.0 0
390874.0 582403.0 0
395034.0 581391.0 0
400975.0 580962.0 0
410000.0 583297.0 0
416637.0 583223.0 0
423067.0 583000.0 0
428624.0 582079.0 0
433406.0 582218.0 0
438580.0 583113.0 0
444188.0 582299.0 0
448816.0 582613.0 0
451842.0 578468.0 0
452268.0 582423.0 0
457329.0 582822.0 0
462901.0 582582.0 0
470785.0 580856.0 0
476460.0 583284.0 0
482921.0 582951.0 0
488623.0 581913.0 0
492782.0 579180.0 0
492892.0 582835.0 0
497141.0 581984.0 0
2549.71 586864.0 0
7998.02 586371.0 0
12689.1 585470.0 0
17052.5 586353.0 0
22358.3 586401.0 0
29896.2 584352.0 0
26606.9 587007.0 0
33984.3 587203.0 0
37045.4 583668.0 0
38671.6 587174.0 0
43386.2 588181.0 0
47519.1 587245.0 0
51838.6 588096.0 0
58588.6 587852.0 0
64155.6 588235.0 0
68707.6 587134.0 0
73534.1 586293.0 0
77191.5 587006.0 0
80547.6 587366.0 0
86175.7 587341.0 0
92866.4 587208.0 0
98385.8 587564.0 0
102480.0 584052.0 0
106818.0 583996.0 0
103009.0 588032.0 0
108576.0 587470.0 0
112664.0 587029.0 0
117520.0 587873.0 0
122499.0 587206.0 0
126613.0 587855.0 0
132005.0 587265.0 0
136979.0 586752.0 0
144332.0 587182.0 0
150740.0 586735.0 0
157172.0 586809.0 0
163054.0 586387.0 0
166904.0 583583.0 0
167916.0 588102.0 0
173303.0 586311.0 0
183489.0 583436.0 0
179038.0 588188.0 0
183282.0 587616.0 0
187030.0 586581.0 0
192155.0 586923.0 0
197070.0 586026.0 0
202028.0 587136.0 0
207510.0 587613.0 0
213686.0 585356.0 0
217036.0 587935.0 0
220774.0 586187.0 0
226103.0 586312.0 0
230617.0 587537.0 0
236344.0 587211.0 0
240295.0 583626.0 0
240817.0 588674.0 0
245634.0 586417.0 0
253106.0 587646.0 0
257901.0 587950.0 0
262346.0 587885.0 0
267471.0 585352.0 0
272883.0 588106.0 0
278102.0 587050.0 0
282992.0 584625.0 0
289329.0 586600.0 0
292876.0 586275.0 0
297276.0 587087.0 0
303125.0 586189.0 0
308732.0 587558.0 0
319323.0 585852.0 0
323544.0 584170.0 0
328435.0 586835.0 0
334339.0 586525.0 0
338091.0 588407.0 0
342772.0 588098.0 0
348235.0 587020.0 0
354799.0 586512.0 0
358978.0 587051.0 0
362786.0 583444.0 0
362440.0 587488.0 0
366832.0 587589.0 0
372100.0 588022.0 0
377004.0 585561.0 0
380772.0 586121.0 0
386820.0 586922.0 0
391496.0 585820.0 0
396500.0 587176.0 0
400408.0 585267.0 0
404525.0 584288.0 0
407813.0 588734.0 0
418129.0 588359.0 0
422124.0 588088.0 0
426872.0 586826.0 0
431364.0 586417.0 0
436193.0 588368.0 0
442181.0 587640.0 0
447695.0 586992.0 0
452939.0 587251.0 0
461786.0 586817.0 0
466863.0 583655.0 0
466065.0 587733.0 0
470982.0 586522.0 0
480894.0 587523.0 0
485200.0 587925.0 0
491206.0 587578.0 0
497368.0 587384.0 0
2100.23 591066.0 0
6960.47 591388.0 0
12821.8 590877.0 0
18820.6 591162.0 0
24561.5 591145.0 0
30272.1 591155.0 0
35458.6 592825.0 0
39817.4 591272.0 0
43298.1 593582.0 0
47320.0 591419.0 0
51748.9 592940.0 0
56691.3 592985.0 0
61931.0 593140.0 0
66564.1 592574.0 0
71625.4 591287.0 0
77125.9 590610.0 0
82259.6 592268.0 0
88451.7 593575.0 0
93140.9 591330.0 0
97500.0 592281.0 0
102336.0 592080.0 0
107190.0 591817.0 0
112286.0 591355.0 0
117500.0 592486.0 0
122407.0 591090.0 0
127575.0 592846.0 0
132465.0 591941.0 0
140516.0 588767.0 0
137910.0 591632.0 0
142395.0 591835.0 0
147743.0 591792.0 0
153098.0 590835.0 0
157341.0 592985.0 0
161373.0 591036.0 0
165636.0 592180.0 0
171573.0 592049.0 0
176513.0 592481.0 0
180572.0 592807.0 0
185233.0 591565.0 0
190631.0 591181.0 0
195769.0 591646.0 0
201656.0 592580.0 0
206866.0 593062.0 0
212672.0 591224.0 0
218387.0 592745.0 0
223048.0 590682.0 0
227700.0 593179.0 0
232755.0 591744.0 0
238140.0 592874.0 0
243707.0 592526.0 0
248636.0 591571.0 0
255672.0 591653.0 0
260374.0 592342.0 0
267058.0 592253.0 0
272950.0 593015.0 0
276696.0 591661.0 0
281689.0 590887.0 0
285786.0 588379.0 0
286867.0 593184.0 0
292421.0 591032.0 0
298353.0 592912.0 0
303279.0 591412.0 0
307536.0 592313.0 0
314364.0 588545.0 0
318608.0 592238.0 0
323309.0 588669.0 0
323239.0 592942.0 0
327619.0 592391.0 0
332146.0 590994.0 0
336968.0 592149.0 0
341380.0 593252.0 0
347309.0 592433.0 0
353267.0 591750.0 0
358410.0 590859.0 0
363666.0 591927.0 0
368394.0 591874.0 0
372442.0 592415.0 0
377251.0 589806.0 0
383080.0 591178.0 0
388369.0 592635.0 0
392597.0 590608.0 0
397134.0 592372.0 0
401989.0 590184.0 0
413201.0 588746.0 0
408596.0 593378.0 0
417500.0 592180.0 0
423329.0 592076.0 0
429386.0 590841.0 0
432924.0 592477.0 0
439061.0 592277.0 0
445256.0 591508.0 0
449690.0 591885.0 0
454017.0 592187.0 0
457638.0 588855.0 0
457984.0 593423.0 0
461837.0 591578.0 0
466411.0 592422.0 0
472172.0 592406.0 0
476816.0 589185.0 0
481647.0 592150.0 0
487384.0 592835.0 0
492867.0 593402.0 0
497601.0 592332.0 0
3506.23 596721.0 0
8699.23 598231.0 0
12469.5 596375.0 0
17975.1 597303.0 0
23661.9 596445.0 0
28947.9 596707.0 0
33622.0 596927.0 0
38377.5 597405.0 0
43538.3 598058.0 0
47840.7 596378.0 0
52298.7 597467.0 0
57188.8 598362.0 0
61985.2 597849.0 0
66513.7 597158.0 0
71705.9 597165.0 0
78238.7 597678.0 0
84110.8 596977.0 0
87685.7 598627.0 0
94115.8 595373.0 0
99208.7 596979.0 0
103865.0 598009.0 0
108438.0 596767.0 0
113729.0 596162.0 0
118276.0 597188.0 0
122540.0 595478.0 0
126902.0 597791.0 0
131504.0 596877.0 0
135468.0 595246.0 0
140017.0 596236.0 0
145244.0 596885.0 0
152179.0 596897.0 0
157860.0 598090.0 0
162459.0 596149.0 0
168061.0 596338.0 0
173820.0 597492.0 0
179087.0 596801.0 0
183869.0 597470.0 0
189068.0 595176.0 0
193821.0 597406.0 0
198643.0 596382.0 0
202794.0 597552.0 0
207497.0 598180.0 0
212864.0 597608.0 0
217765.0 597174.0 0
222345.0 596031.0 0
226774.0 597817.0 0
231699.0 597106.0 0
236609.0 597590.0 0
241288.0 597496.0 0
247480.0 596286.0 0
252170.0 594370.0 0
251330.0 598272.0 0
257004.0 597061.0 0
262275.0 596958.0 0
272767.0 597692.0 0
277826.0 597146.0 0
282625.0 596338.0 0
287393.0 598449.0 0
293375.0 597605.0 0
298769.0 597919.0 0
303264.0 596399.0 0
308159.0 597003.0 0
312242.0 594020.0 0
315665.0 598313.0 0
320474.0 597004.0 0
326015.0 597798.0 0
333042.0 597060.0 0
338969.0 597743.0 0
343278.0 597176.0 0
347186.0 597231.0 0
351618.0 597094.0 0
357485.0 596161.0 0
362951.0 596933.0 0
368156.0 596719.0 0
373426.0 595725.0 0
378241.0 594842.0 0
382939.0 597309.0 0
388112.0 598047.0 0
392288.0 595547.0 0
397132.0 597006.0 0
402933.0 596881.0 0
407598.0 596936.0 0
412895.0 593695.0 0
411380.0 597994.0 0
416261.0 596813.0 0
421463.0 596606.0 0
426962.0 595672.0 0
431595.0 598145.0 0
436225.0 596080.0 0
442676.0 596665.0 0
449539.0 597500.0 0
454878.0 596660.0 0
459001.0 597501.0 0
462685.0 595683.0 0
466758.0 597245.0 0
471108.0 597483.0 0
477123.0 593887.0 0
475335.0 597774.0 0
480114.0 597695.0 0
485747.0 598329.0 0
491456.0 597524.0 0
496539.0 597742.0 0
3161.66 603378.0 0
8470.79 602420.0 0
13724.3 601862.0 0
23012.8 601935.0 0
28399.3 601860.0 0
33776.7 601833.0 0
38788.5 602317.0 0
42507.2 602220.0 0
47500.0 602056.0 0
52500.0 602115.0 0
57713.1 603690.0 0
62755.8 602354.0 0
67014.0 602082.0 0
73037.7 603196.0 0
78419.1 603472.0 0
82582.5 602089.0 0
87073.1 602524.0 0
92048.3 600649.0 0
97524.1 602229.0 0
102112.0 602140.0 0
107205.0 602518.0 0
113483.0 601578.0 0
117720.0 602828.0 0
121432.0 600596.0 0
125908.0 603365.0 0
130004.0 601035.0 0
135677.0 600939.0 0
141853.0 601097.0 0
147779.0 602598.0 0
152987.0 602231.0 0
157105.0 602519.0 0
162685.0 602255.0 0
168932.0 601766.0 0
173991.0 602763.0 0
178916.0 601846.0 0
183594.0 602902.0 0
188738.0 601020.0 0
193888.0 602321.0 0
198473.0 601402.0 0
203347.0 601729.0 0
207094.0 602526.0 0
211045.0 602332.0 0
216479.0 601642.0 0
222500.0 602130.0 0
228466.0 602217.0 0
232902.0 601588.0 0
237568.0 602202.0 0
242870.0 602300.0 0
248166.0 601833.0 0
253858.0 602133.0 0
258667.0 602169.0 0
262471.0 601234.0 0
267084.0 599395.0 0
271957.0 602236.0 0
276054.0 601691.0 0
281902.0 602339.0 0
287235.0 602951.0 0
291495.0 603014.0 0
297272.0 602169.0 0
304936.0 601985.0 0
309289.0 602654.0 0
311431.0 598948.0 0
313183.0 602778.0 0
318357.0 601946.0 0
322500.0 602342.0 0
328712.0 602404.0 0
332993.0 603122.0 0
336879.0 601465.0 0
340950.0 601513.0 0
345966.0 601727.0 0
352081.0 603115.0 0
357212.0 601441.0 0
361933.0 601804.0 0
367419.0 602969.0 0
372106.0 600302.0 0
377768.0 600493.0 0
383634.0 603427.0 0
388778.0 603062.0 0
392795.0 600689.0 0
398391.0 602441.0 0
405979.0 601379.0 0
408658.0 603926.0 0
411511.0 602282.0 0
415548.0 601593.0 0
420665.0 602066.0 0
427160.0 602172.0 0
432743.0 602141.0 0
437908.0 601894.0 0
444208.0 602697.0 0
449112.0 603459.0 0
453860.0 601523.0 0
458699.0 601565.0 0
462503.0 599877.0 0
466618.0 602082.0 0
471792.0 602047.0 0
477421.0 602112.0 0
482448.0 602493.0 0
489953.0 601625.0 0
493064.0 603734.0 0
497154.0 603675.0 0
2174.69 608615.0 0
6283.03 607574.0 0
11610.1 607787.0 0
18381.3 604047.0 0
17497.7 608436.0 0
22580.1 607604.0 0
28337.3 606948.0 0
33481.7 607264.0 0
38492.2 606917.0 0
43474.2 607116.0 0
47871.5 607147.0 0
52500.0 607059.0 0
57498.7 608137.0 0
62274.4 607411.0 0
67528.9 606413.0 0
71758.0 608805.0 0
76952.8 607498.0 0
81570.0 607036.0 0
86157.2 606605.0 0
91624.0 607032.0 0
97929.0 607598.0 0
102788.0 606327.0 0
107096.0 608411.0 0
111339.0 606167.0 0
115714.0 606430.0 0
121001.0 606458.0 0
126106.0 608278.0 0
131520.0 606604.0 0
137764.0 607010.0 0
143223.0 607108.0 0
149564.0 608091.0 0
153542.0 606055.0 0
157767.0 607148.0 0
162140.0 608288.0 0
166413.0 606378.0 0
171252.0 606622.0 0
176639.0 607424.0 0
181348.0 606225.0 0
186537.0 607557.0 0
191744.0 605696.0 0
196700.0 607082.0 0
201735.0 605058.0 0
208280.0 607359.0 0
213960.0 606189.0 0
218566.0 605728.0 0
222255.0 607677.0 0
226871.0 607098.0 0
232526.0 606605.0 0
240637.0 606478.0 0
246202.0 607859.0 0
252263.0 607457.0 0
256865.0 605930.0 0
261552.0 608154.0 0
266191.0 604967.0 0
271210.0 606665.0 0
277527.0 606182.0 0
288791.0 607612.0 0
294889.0 607226.0 0
300936.0 606527.0 0
307331.0 607479.0 0
312832.0 607817.0 0
317908.0 606484.0 0
322036.0 608325.0 0
326054.0 606357.0 0
331314.0 607902.0 0
336407.0 606335.0 0
342251.0 606858.0 0
348018.0 607180.0 0
352485.0 608679.0 0
357649.0 606784.0 0
363282.0 606705.0 0
367845.0 608407.0 0
372385.0 605808.0 0
377773.0 606382.0 0
387565.0 608076.0 0
393084.0 606377.0 0
403668.0 606791.0 0
409222.0 607911.0 0
413680.0 606286.0 0
418042.0 607814.0 0
422262.0 607064.0 0
432440.0 606392.0 0
436552.0 606676.0 0
442600.0 607949.0 0
447268.0 606984.0 0
451832.0 607403.0 0
455950.0 605801.0 0
461933.0 606802.0 0
468658.0 607516.0 0
474652.0 607051.0 0
479770.0 606061.0 0
486810.0 606744.0 0
493256.0 608068.0 0
498364.0 607991.0 0
2132.1 612913.0 0
6386.24 612229.0 0
16515.7 612827.0 0
20944.1 612382.0 0
25814.1 611609.0 0
31938.7 612515.0 0
37716.3 611922.0 0
42833.1 612195.0 0
48297.0 612012.0 0
52981.3 612237.0 0
57538.2 612402.0 0
62504.8 612118.0 0
67308.6 612018.0 0
73578.8 612795.0 0
77225.3 611722.0 0
81102.4 612099.0 0
86743.7 611739.0 0
92831.5 613548.0 0
98386.0 612659.0 0
102974.0 611092.0 0
111640.0 611486.0 0
117236.0 610877.0 0
122118.0 613410.0 0
126632.0 612236.0 0
131046.0 613043.0 0
134791.0 610627.0 0
139614.0 612961.0 0
146388.0 612479.0 0
153059.0 612741.0 0
158953.0 611920.0 0
166075.0 611570.0 0
171541.0 611757.0 0
177223.0 613660.0 0
182933.0 612386.0 0
188105.0 613447.0 0
192467.0 610661.0 0
197126.0 613918.0 0
202350.0 610069.0 0
207194.0 613816.0 0
212771.0 611861.0 0
218300.0 610418.0 0
223141.0 612551.0 0
228752.0 612434.0 0
233658.0 611708.0 0
237088.0 609378.0 0
237327.0 613511.0 0
241432.0 611739.0 0
252209.0 612917.0 0
256788.0 610905.0 0
262483.0 613634.0 0
268199.0 612170.0 0
274930.0 609705.0 0
273796.0 613982.0 0
278022.0 612557.0 0
282522.0 609335.0 0
287161.0 612256.0 0
292136.0 612652.0 0
298607.0 612520.0 0
303655.0 610675.0 0
307368.0 612730.0 0
312040.0 612607.0 0
316741.0 611179.0 0
320817.0 612535.0 0
326919.0 612492.0 0
333452.0 613201.0 0
338186.0 610548.0 0
342520.0 612574.0 0
347124.0 612057.0 0
352243.0 613398.0 0
357251.0 612536.0 0
362102.0 611414.0 0
366291.0 612483.0 0
370724.0 612486.0 0
376309.0 611937.0 0
382110.0 610043.0 0
386402.0 613192.0 0
391669.0 612313.0 0
397915.0 608928.0 0
396463.0 612951.0 0
401504.0 613429.0 0
406883.0 611883.0 0
411694.0 611677.0 0
416889.0 612302.0 0
422531.0 612401.0 0
427459.0 608848.0 0
432277.0 612588.0 0
437747.0 610963.0 0
442424.0 613466.0 0
447815.0 611362.0 0
456036.0 611316.0 0
461525.0 613274.0 0
466158.0 611943.0 0
471914.0 613262.0 0
477545.0 611753.0 0
481809.0 609895.0 0
480776.0 613576.0 0
486154.0 613482.0 0
491580.0 613017.0 0
497016.0 612753.0 0
4281.6 617155.0 0
8180.12 618664.0 0
11131.1 614541.0 0
17388.9 616997.0 0
22547.6 617508.0 0
27917.4 616143.0 0
32699.9 618214.0 0
38177.7 617237.0 0
43329.6 617144.0 0
48048.3 617401.0 0
52500.0 617169.0 0
57103.4 617324.0 0
62121.4 616396.0 0
66798.2 617205.0 0
71880.6 617433.0 0
77294.8 615757.0 0
82500.0 617322.0 0
87451.2 617062.0 0
97500.0 617160.0 0
102500.0 617077.0 0
106830.0 614081.0 0
106593.0 618102.0 0
110950.0 617232.0 0
117041.0 616512.0 0
122307.0 618698.0 0
126676.0 616800.0 0
131494.0 618475.0 0
136666.0 618287.0 0
143719.0 616830.0 0
149097.0 618139.0 0
154421.0 618296.0 0
158624.0 616690.0 0
162456.0 614738.0 0
162388.0 619052.0 0
166465.0 616855.0 0
172041.0 617535.0 0
181074.0 617086.0 0
185293.0 617756.0 0
192155.0 616941.0 0
197247.0 619016.0 0
202094.0 615457.0 0
206950.0 618652.0 0
211445.0 617393.0 0
217408.0 616208.0 0
223277.0 618261.0 0
228732.0 617865.0 0
233731.0 616393.0 0
237343.0 618518.0 0
241616.0 617486.0 0
246707.0 614234.0 0
249040.0 618954.0 0
253425.0 617799.0 0
257975.0 615883.0 0
260842.0 618774.0 0
265106.0 618311.0 0
270646.0 617408.0 0
277929.0 618039.0 0
283736.0 615661.0 0
289027.0 617490.0 0
295110.0 617614.0 0
300315.0 618155.0 0
303542.0 614535.0 0
304598.0 618132.0 0
307827.0 616784.0 0
311545.0 616899.0 0
316363.0 615722.0 0
322929.0 616850.0 0
327348.0 618462.0 0
331929.0 617630.0 0
338517.0 615068.0 0
342528.0 617852.0 0
347189.0 616931.0 0
351925.0 618438.0 0
356190.0 616862.0 0
360811.0 616389.0 0
367035.0 617582.0 0
373475.0 617452.0 0
379816.0 617154.0 0
383047.0 614192.0 0
388930.0 617305.0 0
397153.0 616619.0 0
406568.0 617371.0 0
413333.0 617612.0 0
418600.0 618425.0 0
421813.0 617081.0 0
427335.0 614096.0 0
425761.0 618242.0 0
430278.0 617473.0 0
437078.0 617242.0 0
442947.0 618314.0 0
448164.0 617481.0 0
451863.0 614220.0 0
453055.0 617717.0 0
457933.0 617310.0 0
462958.0 617055.0 0
467040.0 616843.0 0
476839.0 615955.0 0
481216.0 617559.0 0
487154.0 618875.0 0
491666.0 617587.0 0
497255.0 618429.0 0
2631.17 622147.0 0
7019.2 622186.0 0
13971.3 619160.0 0
11261.4 622630.0 0
17047.8 622014.0 0
21424.4 622551.0 0
27825.6 621896.0 0
34094.3 622680.0 0
38316.8 622386.0 0
42552.4 622141.0 0
46756.3 622097.0 0
51420.9 621988.0 0
56254.8 621920.0 0
61754.4 622304.0 0
67854.1 622005.0 0
73215.5 622423.0 0
78839.2 621363.0 0
83210.4 621646.0 0
91846.8 619354.0 0
87247.5 621913.0 0
91319.5 623909.0 0
97500.0 622111.0 0
102500.0 622103.0 0
107500.0 622091.0 0
112603.0 621934.0 0
117794.0 622482.0 0
122942.0 623279.0 0
126931.0 621614.0 0
136274.0 622818.0 0
141423.0 621468.0 0
147093.0 623708.0 0
152518.0 622839.0 0
158453.0 622698.0 0
163603.0 622920.0 0
167743.0 621681.0 0
173138.0 623927.0 0
177376.0 619550.0 0
178237.0 623794.0 0
181120.0 621728.0 0
185837.0 623466.0 0
192349.0 622836.0 0
197713.0 623545.0 0
202073.0 620595.0 0
206714.0 622704.0 0
211259.0 622490.0 0
216754.0 622304.0 0
221985.0 623600.0 0
227329.0 623243.0 0
232198.0 621191.0 0
236411.0 621758.0 0
240797.0 623102.0 0
245262.0 621142.0 0
252218.0 622618.0 0
257561.0 621436.0 0
262520.0 622316.0 0
269243.0 622285.0 0
274392.0 622506.0 0
278771.0 623575.0 0
282683.0 620316.0 0
282612.0 623799.0 0
286488.0 621786.0 0
291927.0 622613.0 0
298163.0 623300.0 0
303179.0 621827.0 0
311633.0 622047.0 0
317832.0 621481.0 0
323447.0 621696.0 0
331064.0 622126.0 0
337181.0 620858.0 0
343377.0 623411.0 0
348149.0 621221.0 0
352069.0 623418.0 0
357658.0 621441.0 0
362687.0 620885.0 0
366396.0 622830.0 0
371199.0 622942.0 0
376879.0 622457.0 0
381889.0 622520.0 0
384710.0 619473.0 0
388380.0 622720.0 0
392720.0 623381.0 0
393547.0 619224.0 0
396822.0 622818.0 0
400955.0 619553.0 0
408570.0 623147.0 0
413205.0 624031.0 0
417202.0 622440.0 0
422329.0 621745.0 0
427865.0 622995.0 0
432703.0 621240.0 0
437001.0 623350.0 0
442269.0 623410.0 0
447181.0 623779.0 0
451301.0 621773.0 0
456599.0 623483.0 0
461957.0 621265.0 0
467096.0 622650.0 0
471524.0 619492.0 0
476817.0 620761.0 0
481936.0 622928.0 0
487061.0 623509.0 0
493693.0 621430.0 0
497972.0 623127.0 0
3530.96 628244.0 0
9063.74 626803.0 0
13749.0 626985.0 0
18795.7 627259.0 0
23108.9 626172.0 0
27376.0 628035.0 0
32733.4 627084.0 0
37720.8 627076.0 0
42504.4 627218.0 0
47800.2 627069.0 0
52864.8 626661.0 0
57330.5 626276.0 0
61115.4 628811.0 0
65161.2 626670.0 0
70242.4 627150.0 0
76604.9 627625.0 0
83124.4 625926.0 0
88610.5 627423.0 0
94752.4 625489.0 0
98789.3 627366.0 0
103294.0 626354.0 0
106722.0 628129.0 0
111551.0 627133.0 0
117818.0 628854.0 0
122455.0 627077.0 0
126557.0 627094.0 0
131361.0 624280.0 0
137154.0 627439.0 0
142768.0 627541.0 0
147069.0 627859.0 0
153323.0 627998.0 0
157948.0 628019.0 0
162495.0 627176.0 0
167747.0 626882.0 0
177161.0 627921.0 0
181081.0 626165.0 0
189580.0 628042.0 0
195501.0 627872.0 0
201383.0 627476.0 0
207599.0 627597.0 0
213117.0 627183.0 0
218719.0 628196.0 0
223916.0 627659.0 0
232255.0 626401.0 0
237062.0 625900.0 0
241099.0 628752.0 0
246488.0 626171.0 0
251373.0 627075.0 0
256910.0 627852.0 0
263088.0 626624.0 0
268196.0 627375.0 0
273855.0 628009.0 0
279407.0 627952.0 0
283080.0 629078.0 0
287463.0 627184.0 0
293038.0 627980.0 0
297080.0 627976.0 0
302460.0 626723.0 0
306718.0 624475.0 0
308271.0 628270.0 0
312809.0 626776.0 0
317586.0 627591.0 0
322518.0 627563.0 0
326959.0 626016.0 0
329727.0 629172.0 0
332534.0 627050.0 0
337826.0 627296.0 0
342585.0 628450.0 0
346384.0 627657.0 0
350982.0 628389.0 0
355858.0 626462.0 0
362206.0 626913.0 0
368592.0 627612.0 0
373697.0 627707.0 0
379121.0 627726.0 0
383910.0 625962.0 0
388028.0 627414.0 0
392329.0 627188.0 0
398218.0 627114.0 0
402109.0 629046.0 0
403214.0 624438.0 0
406524.0 628104.0 0
411353.0 627918.0 0
416928.0 628125.0 0
422693.0 627169.0 0
428004.0 628693.0 0
433415.0 627325.0 0
438730.0 628350.0 0
443807.0 628434.0 0
448667.0 628080.0 0
453533.0 628213.0 0
458619.0 628238.0 0
463359.0 627351.0 0
468094.0 627120.0 0
471745.0 624692.0 0
471347.0 629005.0 0
476824.0 626680.0 0
482158.0 628303.0 0
486932.0 628401.0 0
491827.0 626179.0 0
497279.0 627811.0 0
1501.88 632729.0 0
6338.13 633248.0 0
11322.4 631871.0 0
17313.1 632440.0 0
22312.3 631870.0 0
27713.7 634033.0 0
33600.4 632492.0 0
38682.1 632236.0 0
43139.6 632144.0 0
47665.0 632316.0 0
52592.0 631456.0 0
57500.0 632258.0 0
63115.4 632729.0 0
67672.6 631915.0 0
72389.5 631710.0 0
76220.8 633630.0 0
81741.6 632495.0 0
88584.5 632099.0 0
93825.2 630554.0 0
98489.5 631298.0 0
102364.0 631764.0 0
106951.0 631985.0 0
113010.0 632990.0 0
122657.0 632260.0 0
127398.0 631783.0 0
132500.0 630032.0 0
131281.0 632780.0 0
135306.0 632022.0 0
140726.0 633337.0 0
149182.0 631591.0 0
154252.0 632096.0 0
158390.0 632517.0 0
162840.0 632120.0 0
167434.0 632010.0 0
172381.0 629779.0 0
171322.0 634213.0 0
177180.0 632621.0 0
181326.0 632850.0 0
184380.0 629559.0 0
192579.0 632365.0 0
197521.0 632432.0 0
202924.0 633854.0 0
208819.0 633067.0 0
214079.0 632276.0 0
218749.0 633515.0 0
223699.0 632737.0 0
227949.0 629570.0 0
228204.0 633694.0 0
232376.0 631662.0 0
236811.0 631278.0 0
241882.0 632765.0 0
245900.0 631945.0 0
251712.0 631945.0 0
256968.0 633521.0 0
260934.0 631999.0 0
265999.0 632102.0 0
272386.0 632750.0 0
276715.0 632436.0 0
280910.0 632113.0 0
285690.0 632809.0 0
291570.0 632373.0 0
296890.0 632664.0 0
302528.0 631699.0 0
307430.0 632577.0 0
311728.0 630748.0 0
316089.0 632972.0 0
321857.0 632098.0 0
326949.0 631567.0 0
331475.0 631944.0 0
336620.0 633182.0 0
342355.0 632627.0 0
346663.0 631920.0 0
350733.0 633227.0 0
357518.0 630698.0 0
361525.0 633421.0 0
366484.0 632187.0 0
371832.0 632869.0 0
377770.0 633572.0 0
384256.0 631665.0 0
390194.0 632163.0 0
395326.0 631199.0 0
400125.0 632662.0 0
404053.0 632966.0 0
408480.0 632601.0 0
413492.0 632586.0 0
418136.0 633157.0 0
422871.0 632254.0 0
427793.0 633528.0 0
431691.0 631922.0 0
436274.0 632905.0 0
441262.0 632918.0 0
446626.0 632319.0 0
451451.0 632687.0 0
457311.0 632857.0 0
462533.0 632795.0 0
467552.0 631675.0 0
473208.0 632699.0 0
478350.0 632257.0 0
484692.0 632538.0 0
488972.0 632803.0 0
493569.0 631943.0 0
498192.0 632178.0 0
2762.45 636626.0 0
8407.28 637794.0 0
14009.5 637042.0 0
19025.8 637507.0 0
23124.9 636643.0 0
27658.9 639297.0 0
32375.2 637251.0 0
37500.0 637306.0 0
41290.3 636927.0 0
45581.1 637441.0 0
50763.0 636680.0 0
56271.8 637617.0 0
61036.9 636564.0 0
66109.6 637257.0 0
72185.6 637184.0 0
78715.1 637553.0 0
82724.7 638150.0 0
86353.7 635891.0 0
91489.6 636298.0 0
97739.5 635873.0 0
103773.0 637704.0 0
108716.0 635899.0 0
114585.0 638250.0 0
118125.0 634709.0 0
118074.0 638142.0 0
122000.0 636632.0 0
126797.0 636896.0 0
131990.0 637388.0 0
136432.0 636665.0 0
140742.0 639437.0 0
146067.0 636736.0 0
152553.0 635893.0 0
157284.0 637086.0 0
161609.0 637281.0 0
167189.0 637989.0 0
173347.0 638135.0 0
178134.0 637442.0 0
182481.0 637374.0 0
187175.0 635004.0 0
193216.0 637393.0 0
198379.0 636607.0 0
206975.0 638193.0 0
211111.0 636791.0 0
215763.0 637752.0 0
221145.0 637523.0 0
226582.0 638340.0 0
231245.0 636009.0 0
236706.0 636739.0 0
242706.0 636442.0 0
248269.0 637195.0 0
253853.0 637113.0 0
262666.0 637011.0 0
269434.0 637727.0 0
275572.0 636877.0 0
279767.0 635894.0 0
283764.0 637927.0 0
289248.0 636993.0 0
294039.0 636801.0 0
298426.0 637969.0 0
302543.0 636314.0 0
306436.0 637329.0 0
311431.0 636486.0 0
318128.0 637036.0 0
322906.0 637439.0 0
327921.0 636284.0 0
332359.0 635744.0 0
336563.0 639201.0 0
341703.0 636333.0 0
345972.0 636951.0 0
349776.0 637300.0 0
355858.0 636275.0 0
364718.0 637290.0 0
369384.0 637520.0 0
373706.0 637033.0 0
381738.0 636548.0 0
387243.0 637178.0 0
392375.0 636868.0 0
397406.0 635931.0 0
401610.0 637294.0 0
406387.0 637369.0 0
411496.0 637085.0 0
416537.0 637573.0 0
421111.0 636258.0 0
425598.0 637585.0 0
431564.0 637061.0 0
437197.0 637795.0 0
442774.0 638388.0 0
448523.0 637151.0 0
453923.0 636963.0 0
459440.0 637444.0 0
463446.0 636974.0 0
467733.0 636775.0 0
472500.0 637107.0 0
478217.0 637007.0 0
482454.0 636478.0 0
486960.0 637447.0 0
491180.0 636434.0 0
496781.0 636313.0 0
2385.06 641695.0 0
6803.76 642398.0 0
12130.2 642868.0 0
17322.8 641857.0 0
22190.3 641434.0 0
26987.4 643541.0 0
31562.1 641884.0 0
36567.7 642371.0 0
42050.2 642072.0 0
47522.1 641964.0 0
52649.4 642256.0 0
57656.9 642352.0 0
62437.1 641257.0 0
66621.0 641661.0 0
70657.5 643915.0 0
75762.0 641743.0 0
80827.3 642967.0 0
87062.9 641696.0 0
94570.7 641284.0 0
99757.8 641983.0 0
103980.0 642159.0 0
108417.0 640540.0 0
113416.0 643168.0 0
117896.0 641664.0 0
122725.0 641064.0 0
127602.0 642085.0 0
131878.0 641858.0 0
136145.0 642039.0 0
143033.0 644319.0 0
148756.0 641940.0 0
154092.0 640798.0 0
158478.0 642340.0 0
162500.0 642479.0 0
166622.0 644089.0 0
171667.0 642238.0 0
176441.0 642134.0 0
181239.0 641767.0 0
185352.0 640064.0 0
184911.0 643867.0 0
190331.0 642690.0 0
196960.0 641511.0 0
202191.0 639649.0 0
201473.0 644573.0 0
206322.0 643446.0 0
211348.0 641405.0 0
217415.0 643317.0 0
222573.0 642376.0 0
227426.0 643027.0 0
231957.0 641068.0 0
236642.0 642041.0 0
241375.0 641835.0 0
247060.0 642921.0 0
252612.0 642325.0 0
258018.0 640162.0 0
262244.0 642356.0 0
266824.0 643410.0 0
273343.0 643241.0 0
278715.0 640592.0 0
282086.0 642504.0 0
286600.0 642908.0 0
292514.0 641765.0 0
298205.0 643536.0 0
303007.0 640722.0 0
307832.0 641702.0 0
313082.0 642510.0 0
318689.0 641795.0 0
322293.0 644615.0 0
326218.0 641941.0 0
331184.0 639962.0 0
336849.0 644023.0 0
342724.0 641245.0 0
347682.0 643284.0 0
352160.0 641595.0 0
358852.0 641703.0 0
363769.0 642017.0 0
368131.0 641768.0 0
372731.0 641279.0 0
377380.0 644121.0 0
378041.0 639574.0 0
382918.0 640231.0 0
386623.0 641956.0 0
390881.0 641653.0 0
397273.0 641311.0 0
403313.0 642186.0 0
408359.0 641744.0 0
412750.0 642132.0 0
416926.0 642096.0 0
421646.0 641325.0 0
428522.0 642132.0 0
434231.0 641979.0 0
439378.0 643046.0 0
444086.0 643081.0 0
447468.0 642224.0 0
451700.0 641545.0 0
456574.0 640944.0 0
461604.0 642277.0 0
466766.0 641378.0 0
471039.0 641960.0 0
476231.0 641872.0 0
483681.0 641528.0 0
488876.0 641332.0 0
493230.0 640372.0 0
497708.0 641022.0 0
2460.37 646527.0 0
7822.48 647327.0 0
13594.3 648026.0 0
17077.1 645851.0 0
23439.5 646659.0 0
28354.4 647996.0 0
33287.6 646865.0 0
38329.5 647104.0 0
42704.2 647226.0 0
47178.2 647076.0 0
52250.5 647709.0 0
57132.4 646856.0 0
62858.8 645813.0 0
66707.6 647186.0 0
73762.5 647557.0 0
77500.0 647299.0 0
82802.7 647518.0 0
87183.2 647545.0 0
91525.5 645823.0 0
96930.0 646748.0 0
102587.0 646104.0 0
108492.0 646118.0 0
113408.0 648920.0 0
117277.0 646138.0 0
122650.0 646738.0 0
128263.0 646933.0 0
133583.0 646574.0 0
138685.0 646346.0 0
142423.0 649307.0 0
147195.0 646942.0 0
152903.0 646598.0 0
158697.0 647119.0 0
163507.0 647911.0 0
167174.0 647924.0 0
171048.0 646935.0 0
176304.0 647114.0 0
181722.0 647309.0 0
186908.0 647496.0 0
191752.0 648951.0 0
196894.0 647342.0 0
201277.0 648894.0 0
205573.0 648400.0 0
210634.0 647041.0 0
215585.0 648163.0 0
220155.0 647727.0 0
225239.0 646863.0 0
231120.0 647106.0 0
237287.0 646812.0 0
242490.0 649030.0 0
248232.0 648704.0 0
253852.0 647548.0 0
258460.0 645180.0 0
259014.0 649538.0 0
263220.0 647439.0 0
268719.0 648417.0 0
273793.0 648576.0 0
278955.0 646300.0 0
284602.0 648223.0 0
288974.0 647133.0 0
293028.0 646966.0 0
296946.0 648312.0 0
303211.0 646975.0 0
308836.0 646514.0 0
313651.0 647877.0 0
318500.0 646839.0 0
322077.0 647819.0 0
326331.0 647753.0 0
331523.0 645249.0 0
335532.0 647149.0 0
339808.0 647815.0 0
345066.0 646908.0 0
350645.0 647157.0 0
356686.0 646806.0 0
361584.0 645873.0 0
366724.0 647066.0 0
372981.0 646961.0 0
377873.0 648368.0 0
382603.0 645550.0 0
388390.0 646707.0 0
393546.0 645737.0 0
398858.0 647082.0 0
404133.0 647663.0 0
409076.0 646449.0 0
414052.0 647365.0 0
418911.0 646123.0 0
423510.0 645960.0 0
427684.0 647295.0 0
432810.0 647103.0 0
436321.0 645697.0 0
443068.0 647123.0 0
446985.0 646049.0 0
451885.0 647163.0 0
457373.0 645795.0 0
462318.0 648417.0 0
467718.0 646429.0 0
472104.0 645519.0 0
475902.0 647646.0 0
480524.0 645915.0 0
485685.0 647200.0 0
491864.0 645246.0 0
497331.0 645832.0 0
2994.51 651941.0 0
8281.03 653746.0 0
13640.6 652984.0 0
19319.6 650702.0 0
24973.5 651106.0 0
29268.2 652634.0 0
34544.9 651964.0 0
39551.9 651981.0 0
43349.6 652390.0 0
47048.1 652074.0 0
51650.1 652909.0 0
56171.3 652175.0 0
60970.8 650427.0 0
66531.6 652027.0 0
72697.8 652656.0 0
78146.9 652238.0 0
81702.8 651259.0 0
86041.1 652395.0 0
91596.3 651114.0 0
97504.7 652251.0 0
102994.0 651734.0 0
109019.0 652423.0 0
113914.0 653050.0 0
116938.0 651661.0 0
121311.0 651909.0 0
126581.0 652133.0 0
132442.0 653113.0 0
136777.0 650353.0 0
139994.0 653897.0 0
147059.0 652417.0 0
153676.0 653093.0 0
159262.0 652047.0 0
163835.0 652451.0 0
168135.0 651272.0 0
173019.0 651826.0 0
177929.0 652051.0 0
182057.0 651984.0 0
187057.0 652658.0 0
192957.0 654091.0 0
197453.0 652443.0 0
203422.0 652692.0 0
207635.0 652168.0 0
212770.0 651936.0 0
217550.0 652033.0 0
222021.0 652185.0 0
227226.0 652214.0 0
233268.0 652570.0 0
238347.0 651997.0 0
241821.0 653775.0 0
245363.0 652928.0 0
251420.0 653372.0 0
255879.0 651916.0 0
262217.0 651948.0 0
267078.0 653514.0 0
271576.0 652400.0 0
277122.0 652248.0 0
282443.0 652319.0 0
288531.0 651366.0 0
293674.0 651886.0 0
298576.0 652037.0 0
303459.0 652896.0 0
307477.0 650653.0 0
311517.0 652853.0 0
317124.0 651880.0 0
322265.0 651453.0 0
326810.0 653270.0 0
332828.0 651601.0 0
338256.0 652223.0 0
342600.0 652715.0 0
347411.0 651416.0 0
352145.0 651933.0 0
357039.0 652744.0 0
362085.0 650741.0 0
366592.0 652457.0 0
371171.0 652217.0 0
376584.0 652945.0 0
381639.0 651506.0 0
386722.0 651420.0 0
391991.0 651027.0 0
398006.0 653035.0 0
402111.0 651041.0 0
405987.0 652719.0 0
410967.0 651216.0 0
415898.0 652139.0 0
421552.0 651226.0 0
427379.0 652528.0 0
433072.0 653827.0 0
438154.0 650004.0 0
443377.0 653429.0 0
447374.0 650028.0 0
451411.0 652715.0 0
457069.0 651779.0 0
461601.0 654165.0 0
466313.0 652890.0 0
471395.0 650457.0 0
476677.0 653562.0 0
481504.0 650470.0 0
485113.0 653937.0 0
490392.0 651104.0 0
496751.0 651586.0 0
2067.76 657349.0 0
5839.69 657357.0 0
11689.9 657881.0 0
17926.9 656732.0 0
22889.3 655118.0 0
28128.8 657204.0 0
32151.1 655745.0 0
37853.4 655939.0 0
42509.3 656755.0 0
47155.9 657315.0 0
50984.6 657814.0 0
56110.2 657003.0 0
62437.0 656851.0 0
68308.4 656725.0 0
72188.7 657881.0 0
76422.1 657357.0 0
81493.7 655776.0 0
86560.1 657850.0 0
93850.2 656244.0 0
99320.9 657322.0 0
104386.0 656739.0 0
109093.0 658195.0 0
113736.0 656983.0 0
118246.0 655609.0 0
123180.0 656259.0 0
127788.0 657606.0 0
132182.0 657891.0 0
136196.0 657143.0 0
143905.0 656457.0 0
148026.0 657655.0 0
152701.0 658795.0 0
157839.0 657480.0 0
162713.0 656681.0 0
168101.0 656652.0 0
173243.0 656327.0 0
177706.0 657043.0 0
182944.0 656402.0 0
188218.0 658217.0 0
192717.0 658490.0 0
196126.0 657289.0 0
200732.0 657073.0 0
206146.0 657019.0 0
212121.0 657630.0 0
217631.0 656578.0 0
222163.0 657531.0 0
226710.0 657420.0 0
231442.0 657446.0 0
236757.0 656971.0 0
241737.0 657481.0 0
247483.0 658210.0 0
253518.0 657972.0 0
257916.0 655931.0 0
262800.0 656213.0 0
267345.0 658813.0 0
272829.0 656831.0 0
280092.0 656714.0 0
284295.0 656920.0 0
288199.0 656242.0 0
292714.0 656620.0 0
297223.0 656471.0 0
301760.0 657586.0 0
307500.0 657108.0 0
313559.0 657676.0 0
318477.0 657015.0 0
322814.0 655731.0 0
326588.0 658651.0 0
331945.0 657842.0 0
336425.0 656558.0 0
340562.0 657080.0 0
346693.0 657297.0 0
352913.0 656530.0 0
357774.0 657889.0 0
363182.0 656470.0 0
369122.0 657163.0 0
373487.0 655933.0 0
376687.0 657621.0 0
381988.0 657624.0 0
388447.0 656122.0 0
393385.0 655989.0 0
397701.0 658288.0 0
403020.0 658019.0 0
408670.0 657497.0 0
412743.0 655621.0 0
417110.0 657002.0 0
422356.0 657411.0 0
427696.0 657886.0 0
432354.0 659410.0 0
437523.0 657830.0 0
442942.0 659022.0 0
448075.0 656948.0 0
453567.0 656975.0 0
458409.0 657745.0 0
463661.0 658129.0 0
468233.0 657538.0 0
472636.0 657606.0 0
477073.0 659346.0 0
481178.0 657047.0 0
485240.0 658908.0 0
489582.0 656827.0 0
497039.0 657658.0 0
2334.65 662236.0 0
7465.9 661298.0 0
12252.9 662621.0 0
17405.5 662277.0 0
23534.4 660920.0 0
28921.9 662021.0 0
32439.7 659833.0 0
34404.2 664373.0 0
36944.8 660040.0 0
42042.4 662095.0 0
47942.6 661997.0 0
52663.9 661996.0 0
57435.8 662385.0 0
62916.9 663149.0 0
67881.5 661473.0 0
72876.9 662189.0 0
77688.6 662195.0 0
81923.6 660817.0 0
86021.7 662935.0 0
91120.7 661251.0 0
97081.3 662636.0 0
102094.0 661455.0 0
106580.0 662494.0 0
111637.0 662846.0 0
117039.0 661062.0 0
124044.0 662134.0 0
129447.0 662742.0 0
132814.0 661562.0 0
137319.0 662166.0 0
142703.0 660971.0 0
148472.0 663078.0 0
153560.0 662769.0 0
157305.0 662684.0 0
161719.0 661254.0 0
166480.0 662932.0 0
172542.0 661790.0 0
178852.0 662258.0 0
184031.0 661482.0 0
188216.0 662945.0 0
192320.0 662418.0 0
197108.0 662023.0 0
202679.0 662225.0 0
208136.0 661792.0 0
213095.0 663634.0 0
218319.0 661765.0 0
222634.0 662348.0 0
226809.0 662302.0 0
232153.0 662645.0 0
237521.0 662367.0 0
242662.0 662076.0 0
247332.0 664496.0 0
252380.0 662877.0 0
257752.0 661362.0 0
262819.0 660868.0 0
266183.0 664555.0 0
271878.0 662531.0 0
276390.0 659851.0 0
280277.0 662345.0 0
285790.0 661329.0 0
292268.0 662082.0 0
298635.0 661770.0 0
304090.0 661558.0 0
308847.0 662972.0 0
312977.0 661798.0 0
317912.0 662745.0 0
322063.0 659632.0 0
324755.0 663418.0 0
329981.0 662940.0 0
335933.0 662198.0 0
342191.0 662179.0 0
347382.0 662989.0 0
351933.0 661710.0 0
357090.0 662921.0 0
363223.0 663214.0 0
369111.0 662506.0 0
373326.0 660054.0 0
377777.0 661769.0 0
382130.0 664170.0 0
387107.0 661705.0 0
393408.0 661557.0 0
399397.0 663249.0 0
404339.0 663190.0 0
408733.0 662416.0 0
413344.0 660338.0 0
418329.0 661857.0 0
423454.0 662900.0 0
428715.0 662882.0 0
433527.0 664066.0 0
438103.0 663262.0 0
442332.0 663559.0 0
446767.0 661919.0 0
451400.0 661166.0 0
455977.0 662418.0 0
460874.0 662540.0 0
465440.0 662331.0 0
470112.0 661990.0 0
475281.0 664418.0 0
481493.0 663075.0 0
487507.0 663195.0 0
492692.0 661296.0 0
497638.0 663097.0 0
2104.18 666932.0 0
6098.71 665743.0 0
10319.2 666917.0 0
15097.6 666957.0 0
21220.9 666947.0 0
26888.2 666294.0 0
31597.0 668984.0 0
38401.4 667418.0 0
42743.6 667296.0 0
47322.0 667368.0 0
52485.7 666718.0 0
56392.9 667371.0 0
60183.2 667629.0 0
65258.5 667959.0 0
70067.3 666417.0 0
75630.0 667220.0 0
81810.6 666400.0 0
87333.4 668273.0 0
92951.3 666931.0 0
98213.0 667655.0 0
103027.0 666351.0 0
108382.0 667072.0 0
113891.0 667961.0 0
119335.0 666318.0 0
124530.0 668561.0 0
129481.0 666899.0 0
133864.0 666792.0 0
137744.0 666782.0 0
141986.0 666058.0 0
147289.0 668787.0 0
152886.0 666768.0 0
157500.0 667127.0 0
162484.0 666448.0 0
168169.0 667053.0 0
173796.0 667036.0 0
177727.0 666974.0 0
182638.0 666609.0 0
187422.0 666897.0 0
192536.0 666884.0 0
197387.0 666262.0 0
202923.0 667825.0 0
207754.0 666435.0 0
211691.0 668334.0 0
216518.0 667953.0 0
221458.0 666298.0 0
226194.0 667160.0 0
231057.0 667865.0 0
237100.0 668269.0 0
242784.0 667089.0 0
247186.0 668825.0 0
251224.0 667550.0 0
255945.0 666622.0 0
262295.0 667158.0 0
265906.0 669398.0 0
270393.0 668173.0 0
276685.0 667349.0 0
282402.0 666468.0 0
287478.0 667118.0 0
293025.0 668146.0 0
297860.0 669058.0 0
302086.0 666315.0 0
307562.0 668357.0 0
313017.0 666397.0 0
318870.0 669414.0 0
324370.0 667940.0 0
328113.0 666913.0 0
331197.0 666728.0 0
334574.0 667387.0 0
339675.0 667254.0 0
345390.0 667873.0 0
352232.0 667930.0 0
358841.0 668360.0 0
364589.0 669598.0 0
369036.0 667315.0 0
373839.0 665510.0 0
378874.0 668273.0 0
384110.0 668247.0 0
389151.0 667586.0 0
395238.0 667502.0 0
399613.0 669322.0 0
402759.0 667044.0 0
407855.0 667864.0 0
413757.0 666074.0 0
419696.0 666782.0 0
424460.0 667766.0 0
429210.0 667907.0 0
433307.0 667986.0 0
437326.0 667749.0 0
440730.0 667661.0 0
445803.0 666698.0 0
452404.0 666993.0 0
458024.0 666458.0 0
462068.0 667663.0 0
466411.0 666650.0 0
470814.0 666647.0 0
474028.0 669827.0 0
479760.0 668436.0 0
485591.0 668588.0 0
491718.0 666862.0 0
497259.0 668181.0 0
1808.9 670812.0 0
6717.95 671010.0 0
12430.6 671390.0 0
17862.0 671543.0 0
23094.0 672913.0 0
27636.5 671806.0 0
34456.9 674129.0 0
38491.3 672224.0 0
42543.1 671569.0 0
47500.0 672696.0 0
50493.8 670693.0 0
52570.3 674768.0 0
57271.5 671945.0 0
62497.9 672685.0 0
67308.2 672356.0 0
72470.5 672397.0 0
78019.8 672504.0 0
83429.1 671971.0 0
88096.8 673504.0 0
93231.7 672764.0 0
98412.6 672118.0 0
103939.0 671513.0 0
110005.0 671886.0 0
114452.0 672902.0 0
118958.0 671694.0 0
123055.0 672712.0 0
127542.0 671783.0 0
131884.0 671451.0 0
137031.0 670892.0 0
142317.0 671511.0 0
147131.0 673783.0 0
152561.0 672596.0 0
157904.0 672168.0 0
162305.0 671639.0 0
167506.0 671739.0 0
172662.0 671108.0 0
178059.0 672249.0 0
183817.0 671974.0 0
188130.0 670538.0 0
192541.0 672337.0 0
198112.0 670878.0 0
202968.0 673925.0 0
207315.0 671056.0 0
211931.0 673051.0 0
217197.0 673305.0 0
222222.0 671483.0 0
227678.0 672100.0 0
233095.0 672715.0 0
238425.0 674415.0 0
244157.0 672499.0 0
249639.0 671840.0 0
253568.0 673951.0 0
258649.0 671780.0 0
263865.0 672850.0 0
268238.0 672838.0 0
273008.0 672624.0 0
278285.0 673630.0 0
283502.0 671332.0 0
288946.0 672539.0 0
294090.0 673248.0 0
298388.0 673815.0 0
302810.0 671923.0 0
307564.0 673356.0 0
312774.0 672486.0 0
317154.0 673834.0 0
320356.0 674782.0 0
324512.0 672724.0 0
330630.0 671615.0 0
336812.0 671458.0 0
342317.0 673641.0 0
348349.0 672738.0 0
352618.0 674425.0 0
356454.0 672870.0 0
360929.0 673359.0 0
367292.0 674137.0 0
371884.0 671537.0 0
377093.0 673302.0 0
382243.0 672467.0 0
388031.0 673980.0 0
394805.0 673810.0 0
399707.0 674915.0 0
403528.0 672170.0 0
408316.0 673888.0 0
412119.0 671419.0 0
416748.0 670538.0 0
421451.0 671652.0 0
426753.0 672574.0 0
432229.0 672142.0 0
437502.0 671848.0 0
442065.0 671900.0 0
447091.0 672221.0 0
452577.0 672887.0 0
458281.0 671915.0 0
463522.0 672422.0 0
468091.0 671450.0 0
472007.0 673798.0 0
477703.0 672404.0 0
481871.0 672385.0 0
486090.0 673894.0 0
491506.0 672861.0 0
497371.0 673542.0 0
2702.14 675211.0 0
7583.34 677888.0 0
12565.9 676356.0 0
18055.2 677602.0 0
23913.1 677856.0 0
28663.2 676149.0 0
37764.3 678197.0 0
42199.7 676585.0 0
47693.7 677410.0 0
52332.8 680085.0 0
56784.1 677468.0 0
61549.1 677705.0 0
67001.9 677520.0 0
72335.4 677753.0 0
76788.7 677632.0 0
81064.8 676507.0 0
85449.3 677440.0 0
90741.3 678389.0 0
96500.4 677152.0 0
101358.0 675840.0 0
106695.0 676124.0 0
111870.0 676462.0 0
116355.0 679824.0 0
121248.0 676474.0 0
126477.0 675862.0 0
131988.0 677476.0 0
138328.0 676527.0 0
143719.0 676443.0 0
147833.0 678755.0 0
152509.0 678151.0 0
156747.0 676523.0 0
162027.0 677139.0 0
167679.0 677326.0 0
173504.0 676655.0 0
178493.0 679735.0 0
183651.0 677556.0 0
188313.0 675271.0 0
192594.0 678054.0 0
198659.0 678212.0 0
203531.0 678482.0 0
207939.0 677009.0 0
214297.0 677790.0 0
218581.0 677385.0 0
222500.0 677119.0 0
227599.0 677297.0 0
233511.0 677918.0 0
238653.0 679373.0 0
242869.0 677898.0 0
248289.0 676678.0 0
252538.0 677718.0 0
256675.0 677586.0 0
261531.0 676670.0 0
266091.0 676612.0 0
270524.0 676749.0 0
275354.0 678458.0 0
282287.0 677195.0 0
287799.0 678232.0 0
294302.0 678110.0 0
298464.0 677496.0 0
303046.0 677610.0 0
307800.0 677360.0 0
312026.0 678256.0 0
315817.0 677115.0 0
322207.0 679076.0 0
327785.0 677755.0 0
335006.0 676584.0 0
339321.0 677564.0 0
342762.0 679510.0 0
346668.0 677094.0 0
350625.0 677861.0 0
357874.0 677764.0 0
363312.0 677502.0 0
367520.0 678405.0 0
373063.0 678003.0 0
379368.0 678456.0 0
383530.0 676751.0 0
386545.0 679241.0 0
391880.0 679795.0 0
397908.0 678163.0 0
402460.0 677949.0 0
407258.0 678153.0 0
412383.0 676881.0 0
417839.0 675540.0 0
422902.0 677604.0 0
427679.0 677292.0 0
432197.0 677399.0 0
437346.0 677161.0 0
443058.0 676918.0 0
448561.0 677406.0 0
455432.0 677068.0 0
459900.0 677965.0 0
463568.0 676428.0 0
468119.0 676672.0 0
474056.0 677253.0 0
479025.0 676998.0 0
483716.0 677268.0 0
487259.0 677694.0 0
491827.0 678963.0 0
497349.0 678819.0 0
2546.48 680414.0 0
2124.35 685012.0 0
6955.13 683674.0 0
11109.9 681287.0 0
14772.0 682106.0 0
11791.7 685332.0 0
21449.7 682838.0 0
27887.2 681072.0 0
33286.6 680074.0 0
37980.2 682647.0 0
43279.5 681368.0 0
47646.1 682659.0 0
57221.2 681971.0 0
62633.4 682382.0 0
67296.1 682864.0 0
71306.1 681830.0 0
75473.9 681947.0 0
81005.4 681991.0 0
86330.6 681768.0 0
92147.0 684553.0 0
97778.4 682455.0 0
103511.0 680963.0 0
109471.0 681241.0 0
113364.0 684248.0 0
118883.0 683843.0 0
121812.0 681431.0 0
126728.0 681194.0 0
131066.0 682416.0 0
135772.0 681910.0 0
142706.0 681786.0 0
148508.0 683976.0 0
154276.0 682138.0 0
158398.0 680583.0 0
164252.0 681409.0 0
168698.0 682798.0 0
173652.0 682020.0 0
177087.0 683931.0 0
182882.0 683351.0 0
188016.0 681101.0 0
192922.0 682842.0 0
197412.0 683187.0 0
202568.0 682618.0 0
207629.0 682447.0 0
212264.0 682198.0 0
217651.0 682193.0 0
222918.0 682126.0 0
226995.0 681363.0 0
231232.0 682624.0 0
236137.0 682798.0 0
241127.0 682737.0 0
246339.0 682183.0 0
252117.0 682003.0 0
257518.0 682575.0 0
262595.0 681596.0 0
268064.0 681304.0 0
273093.0 683376.0 0
278296.0 683026.0 0
282838.0 681749.0 0
286895.0 683628.0 0
292133.0 682936.0 0
297637.0 681911.0 0
302772.0 682845.0 0
307760.0 681886.0 0
312559.0 682582.0 0
317580.0 681769.0 0
322251.0 684220.0 0
327022.0 683533.0 0
332421.0 682148.0 0
338408.0 682383.0 0
344060.0 683241.0 0
347821.0 681677.0 0
352315.0 681297.0 0
356355.0 683042.0 0
362121.0 683094.0 0
368780.0 683571.0 0
374087.0 683481.0 0
377748.0 682696.0 0
382500.0 682277.0 0
387781.0 683021.0 0
391319.0 685321.0 0
396158.0 682374.0 0
400481.0 682611.0 0
405381.0 682410.0 0
410683.0 682590.0 0
416619.0 681212.0 0
422257.0 683274.0 0
426695.0 681187.0 0
431227.0 682590.0 0
436830.0 682986.0 0
441811.0 682070.0 0
446839.0 682403.0 0
452018.0 680860.0 0
456812.0 682686.0 0
461641.0 681881.0 0
466562.0 682547.0 0
471030.0 680472.0 0
476070.0 682314.0 0
481796.0 681783.0 0
487187.0 682313.0 0
493997.0 684162.0 0
498260.0 683118.0 0
3366.38 690286.0 0
8590.2 688506.0 0
12686.8 689482.0 0
16998.5 686013.0 0
21464.0 687755.0 0
26196.1 686373.0 0
32736.0 686480.0 0
38229.2 688910.0 0
41870.6 685771.0 0
46482.6 687327.0 0
52852.0 686588.0 0
59679.5 686515.0 0
64880.0 686990.0 0
69784.8 687235.0 0
73607.8 688395.0 0
76881.1 686522.0 0
82054.6 688009.0 0
87070.8 686243.0 0
92680.5 688947.0 0
97018.4 688285.0 0
103102.0 687087.0 0
108747.0 686570.0 0
112889.0 688242.0 0
116744.0 686666.0 0
121875.0 686024.0 0
126635.0 686322.0 0
133106.0 687130.0 0
138898.0 686379.0 0
144406.0 688064.0 0
149264.0 688770.0 0
153139.0 686782.0 0
157995.0 685121.0 0
163319.0 686004.0 0
167925.0 687650.0 0
173457.0 687680.0 0
179419.0 687485.0 0
183816.0 688203.0 0
187701.0 686190.0 0
192528.0 687360.0 0
196618.0 686935.0 0
200934.0 687862.0 0
206584.0 687587.0 0
212644.0 687624.0 0
218182.0 687450.0 0
222472.0 687775.0 0
226877.0 685900.0 0
232298.0 687708.0 0
237728.0 687721.0 0
242733.0 686698.0 0
247763.0 688174.0 0
252478.0 686560.0 0
256854.0 687695.0 0
261356.0 686150.0 0
266101.0 686437.0 0
270836.0 687335.0 0
275978.0 688059.0 0
282473.0 687459.0 0
288614.0 688732.0 0
294358.0 688423.0 0
299595.0 686772.0 0
304648.0 687354.0 0
308687.0 686184.0 0
312689.0 687480.0 0
317353.0 686793.0 0
321719.0 688681.0 0
325611.0 687668.0 0
330833.0 688328.0 0
336436.0 687304.0 0
341778.0 686912.0 0
346630.0 686183.0 0
351788.0 686325.0 0
358589.0 686675.0 0
362181.0 688467.0 0
366789.0 689162.0 0
372913.0 687253.0 0
377500.0 687184.0 0
381319.0 687224.0 0
386454.0 687876.0 0
394835.0 688615.0 0
399111.0 687048.0 0
403868.0 687368.0 0
407985.0 686240.0 0
411839.0 688351.0 0
417777.0 687381.0 0
423800.0 687684.0 0
427586.0 687115.0 0
432575.0 687691.0 0
437271.0 687164.0 0
441542.0 687288.0 0
446972.0 687722.0 0
452117.0 686166.0 0
457153.0 687698.0 0
462071.0 686792.0 0
466924.0 687531.0 0
472127.0 686985.0 0
478091.0 688347.0 0
482826.0 686496.0 0
487550.0 688172.0 0
493208.0 689441.0 0
497870.0 686984.0 0
9362.31 693659.0 0
17887.4 692455.0 0
24078.5 691191.0 0
28519.8 694054.0 0
34539.3 692991.0 0
38786.1 692175.0 0
43088.0 691301.0 0
48754.3 690971.0 0
52861.8 693710.0 0
57648.0 691383.0 0
62345.6 690978.0 0
66811.4 692767.0 0
72024.6 692339.0 0
77524.8 691648.0 0
82609.3 693813.0 0
86575.8 690819.0 0
91345.1 693133.0 0
96345.3 693254.0 0
101399.0 693089.0 0
107091.0 691621.0 0
112811.0 693534.0 0
117911.0 691119.0 0
123523.0 691259.0 0
129007.0 690782.0 0
132875.0 692188.0 0
137609.0 691872.0 0
143062.0 693821.0 0
147490.0 692138.0 0
152558.0 692496.0 0
157702.0 690223.0 0
162987.0 692436.0 0
169185.0 692587.0 0
174080.0 693113.0 0
178459.0 692450.0 0
183143.0 692258.0 0
187995.0 691405.0 0
192557.0 691706.0 0
197648.0 691985.0 0
202615.0 692322.0 0
208357.0 692264.0 0
212965.0 693420.0 0
217626.0 692042.0 0
222450.0 692329.0 0
227934.0 691588.0 0
233026.0 692275.0 0
237550.0 693115.0 0
241785.0 691002.0 0
245814.0 693269.0 0
250183.0 692720.0 0
255083.0 692909.0 0
261550.0 691921.0 0
268305.0 691734.0 0
273914.0 693301.0 0
279417.0 692905.0 0
283703.0 692345.0 0
287157.0 693500.0 0
291536.0 692883.0 0
296375.0 693464.0 0
301748.0 691989.0 0
308304.0 691849.0 0
313952.0 691931.0 0
318308.0 691160.0 0
317760.0 695536.0 0
322249.0 693077.0 0
326690.0 691991.0 0
331164.0 694008.0 0
335624.0 692150.0 0
340640.0 692278.0 0
347971.0 690860.0 0
353341.0 691815.0 0
358066.0 690604.0 0
361875.0 693152.0 0
357022.0 694792.0 0
366432.0 693924.0 0
371477.0 691733.0 0
377105.0 691956.0 0
382259.0 692152.0 0
386195.0 692684.0 0
391215.0 692840.0 0
397823.0 691550.0 0
402319.0 691953.0 0
407223.0 691488.0 0
413072.0 693778.0 0
418787.0 693478.0 0
422748.0 690968.0 0
427054.0 691896.0 0
431585.0 693164.0 0
436875.0 691916.0 0
441962.0 692667.0 0
446055.0 692511.0 0
451477.0 691978.0 0
458035.0 692831.0 0
462729.0 692118.0 0
466689.0 691840.0 0
471276.0 692453.0 0
475768.0 692883.0 0
482202.0 692491.0 0
487324.0 693789.0 0
492164.0 694273.0 0
497482.0 692411.0 0
3704.01 697246.0 0
9087.4 700453.0 0
13631.1 697524.0 0
19065.1 699451.0 0
23329.8 695996.0 0
27029.1 699242.0 0
32637.6 699016.0 0
39737.4 696014.0 0
43473.9 700341.0 0
47134.7 695703.0 0
50973.0 699862.0 0
56315.9 698510.0 0
62002.3 696449.0 0
67935.8 698310.0 0
73713.1 698138.0 0
78493.2 696698.0 0
82514.5 699498.0 0
87070.8 696873.0 0
92086.7 698742.0 0
97104.2 697711.0 0
101973.0 698505.0 0
107961.0 698275.0 0
113898.0 698640.0 0
117533.0 696484.0 0
122060.0 698679.0 0
127721.0 696332.0 0
134158.0 696935.0 0
139688.0 697859.0 0
144343.0 699716.0 0
148532.0 696694.0 0
153106.0 697582.0 0
158198.0 696720.0 0
164144.0 698613.0 0
168069.0 696792.0 0
172303.0 697715.0 0
178043.0 697727.0 0
183178.0 696866.0 0
188293.0 696834.0 0
194190.0 696494.0 0
199240.0 697288.0 0
202750.0 697595.0 0
206722.0 696556.0 0
212730.0 698199.0 0
217441.0 696992.0 0
222266.0 697095.0 0
227168.0 697187.0 0
232061.0 696581.0 0
236818.0 698232.0 0
241781.0 696265.0 0
246779.0 698349.0 0
251679.0 696800.0 0
256935.0 698823.0 0
263582.0 698597.0 0
268732.0 696901.0 0
273040.0 698412.0 0
277801.0 697752.0 0
283355.0 697015.0 0
287780.0 697275.0 0
292907.0 697378.0 0
296309.0 697670.0 0
300116.0 697627.0 0
306928.0 698304.0 0
312826.0 696949.0 0
321828.0 697560.0 0
326922.0 697206.0 0
332792.0 698912.0 0
337801.0 697127.0 0
342385.0 696829.0 0
347228.0 696217.0 0
352657.0 697271.0 0
358391.0 700210.0 0
363582.0 697537.0 0
368792.0 697217.0 0
373125.0 696680.0 0
377935.0 697397.0 0
382599.0 697462.0 0
387318.0 696656.0 0
391771.0 698569.0 0
396488.0 695854.0 0
402232.0 696853.0 0
408303.0 697425.0 0
413496.0 698471.0 0
418398.0 699472.0 0
423592.0 696954.0 0
427510.0 696838.0 0
432569.0 697274.0 0
437247.0 697692.0 0
442003.0 697062.0 0
447986.0 697301.0 0
453181.0 697102.0 0
457624.0 698254.0 0
462332.0 696792.0 0
467387.0 696147.0 0
472655.0 698247.0 0
478635.0 696698.0 0
484079.0 698045.0 0
488436.0 697799.0 0
494190.0 697868.0 0
497977.0 696911.0 0
3244.48 704237.0 0
8749.03 705501.0 0
14241.3 703535.0 0
19231.8 704366.0 0
23579.9 703081.0 0
28614.0 703787.0 0
33264.8 704481.0 0
37900.7 701941.0 0
42871.3 705967.0 0
47635.5 703265.0 0
52081.9 704885.0 0
57992.1 703006.0 0
61697.7 701695.0 0
65480.1 702631.0 0
72717.5 703086.0 0
77213.3 702261.0 0
81520.6 704578.0 0
86889.8 702011.0 0
91236.4 703360.0 0
95976.5 702782.0 0
101378.0 703578.0 0
106651.0 704291.0 0
112167.0 702582.0 0
117501.0 701062.0 0
121196.0 703571.0 0
126815.0 703036.0 0
132144.0 701697.0 0
137439.0 702706.0 0
142572.0 704524.0 0
148251.0 702867.0 0
153500.0 702307.0 0
159209.0 702794.0 0
164573.0 704223.0 0
168536.0 702061.0 0
172827.0 703006.0 0
177171.0 702455.0 0
181577.0 701541.0 0
186654.0 701867.0 0
192500.0 702818.0 0
197820.0 701164.0 0
202791.0 702060.0 0
208719.0 701629.0 0
213911.0 702456.0 0
218184.0 702118.0 0
222301.0 702179.0 0
226559.0 702039.0 0
232310.0 701963.0 0
238237.0 702433.0 0
242349.0 701389.0 0
247097.0 703360.0 0
252204.0 701807.0 0
257699.0 703683.0 0
261269.0 703357.0 0
268930.0 702005.0 0
273943.0 702853.0 0
278674.0 702470.0 0
283470.0 702250.0 0
287692.0 702173.0 0
291916.0 702038.0 0
296330.0 700901.0 0
296945.0 705268.0 0
301776.0 703210.0 0
306806.0 703658.0 0
311713.0 702741.0 0
317572.0 700903.0 0
323363.0 702356.0 0
328664.0 702257.0 0
332912.0 703445.0 0
337038.0 701970.0 0
341989.0 701455.0 0
347469.0 701876.0 0
352926.0 702608.0 0
362624.0 702953.0 0
367026.0 701714.0 0
372989.0 702217.0 0
378404.0 702204.0 0
382811.0 702739.0 0
387331.0 701732.0 0
391643.0 703254.0 0
395881.0 701501.0 0
401232.0 702331.0 0
406693.0 703327.0 0
411289.0 701821.0 0
414843.0 702363.0 0
423202.0 702627.0 0
428156.0 700745.0 0
433216.0 702180.0 0
438280.0 701988.0 0
442188.0 701379.0 0
446142.0 702086.0 0
451664.0 702424.0 0
456645.0 701974.0 0
460758.0 702052.0 0
465871.0 701077.0 0
470403.0 703430.0 0
475785.0 703938.0 0
480435.0 701395.0 0
484375.0 703301.0 0
490475.0 702888.0 0
497113.0 701734.0 0
2046.89 709384.0 0
6269.85 709349.0 0
12196.2 708965.0 0
17760.2 709031.0 0
22107.4 707262.0 0
26163.5 707920.0 0
32421.0 708768.0 0
37284.1 707885.0 0
41406.6 710536.0 0
47953.3 708087.0 0
52688.4 710105.0 0
56584.3 707042.0 0
62111.4 707447.0 0
68479.0 706787.0 0
73295.4 708135.0 0
77289.6 707223.0 0
83726.3 708652.0 0
88178.9 707008.0 0
93557.0 707561.0 0
98085.3 706919.0 0
102386.0 708432.0 0
106432.0 708677.0 0
110778.0 707524.0 0
116487.0 706176.0 0
121542.0 708383.0 0
126181.0 708757.0 0
133192.0 706566.0 0
137945.0 707710.0 0
142284.0 709384.0 0
146591.0 707521.0 0
151340.0 706981.0 0
156141.0 708310.0 0
161008.0 707743.0 0
165423.0 709235.0 0
170547.0 707754.0 0
176227.0 707163.0 0
182038.0 707069.0 0
188096.0 707307.0 0
193696.0 708796.0 0
198877.0 706243.0 0
202705.0 708638.0 0
205833.0 706188.0 0
212632.0 707081.0 0
217012.0 707253.0 0
221293.0 707063.0 0
226743.0 707198.0 0
231669.0 707050.0 0
236957.0 707274.0 0
243231.0 706851.0 0
248097.0 707312.0 0
252156.0 706363.0 0
256734.0 707635.0 0
261473.0 707629.0 0
266384.0 707071.0 0
271289.0 707181.0 0
276278.0 707105.0 0
282696.0 707041.0 0
287500.0 707132.0 0
292405.0 707022.0 0
297238.0 710150.0 0
302302.0 708766.0 0
308123.0 707184.0 0
312019.0 708125.0 0
316495.0 706439.0 0
321623.0 707568.0 0
325812.0 706736.0 0
330305.0 707460.0 0
335551.0 706763.0 0
341182.0 707074.0 0
347399.0 707990.0 0
353415.0 708037.0 0
359755.0 707000.0 0
365984.0 707510.0 0
370601.0 709074.0 0
373949.0 706968.0 0
378534.0 707500.0 0
383427.0 707083.0 0
388633.0 707218.0 0
392493.0 710734.0 0
393529.0 707116.0 0
397803.0 706243.0 0
402566.0 707590.0 0
407577.0 706895.0 0
411206.0 706651.0 0
417092.0 706445.0 0
422122.0 707301.0 0
427385.0 706924.0 0
432479.0 707230.0 0
436901.0 706694.0 0
442540.0 706139.0 0
447958.0 706526.0 0
452840.0 708275.0 0
457787.0 706052.0 0
457617.0 710833.0 0
462134.0 708280.0 0
466575.0 706379.0 0
472594.0 707633.0 0
476549.0 709217.0 0
480744.0 706873.0 0
486092.0 708092.0 0
492889.0 708706.0 0
497547.0 707449.0 0
3258.48 714028.0 0
7976.65 713207.0 0
12399.6 713899.0 0
17323.2 714525.0 0
20534.6 712821.0 0
23774.9 712190.0 0
29129.6 712649.0 0
37586.5 714104.0 0
43514.9 714081.0 0
47963.5 712459.0 0
51192.0 714343.0 0
57801.4 711781.0 0
62190.9 712623.0 0
66672.0 712525.0 0
71287.4 711575.0 0
76021.6 712006.0 0
81442.5 713147.0 0
87417.3 712597.0 0
92676.8 712449.0 0
97145.1 711095.0 0
101570.0 713009.0 0
97049.6 716059.0 0
106600.0 713020.0 0
112238.0 713080.0 0
118360.0 712760.0 0
123600.0 712503.0 0
130520.0 711701.0 0
135650.0 711135.0 0
139764.0 713433.0 0
143468.0 712699.0 0
147373.0 712523.0 0
152388.0 711696.0 0
157409.0 712861.0 0
162195.0 712928.0 0
167743.0 712895.0 0
172561.0 713240.0 0
177544.0 711829.0 0
182103.0 712323.0 0
187295.0 713095.0 0
192334.0 713610.0 0
198163.0 711809.0 0
202660.0 712402.0 0
208345.0 711796.0 0
213439.0 713773.0 0
216383.0 711442.0 0
220913.0 712112.0 0
226042.0 712750.0 0
231318.0 711758.0 0
236167.0 712781.0 0
240796.0 713022.0 0
246543.0 712354.0 0
253485.0 712692.0 0
259867.0 712490.0 0
264349.0 713060.0 0
268955.0 712131.0 0
273384.0 711887.0 0
278357.0 712260.0 0
283197.0 711600.0 0
287251.0 711624.0 0
287807.0 715681.0 0
291746.0 712454.0 0
296469.0 715723.0 0
301336.0 713457.0 0
306600.0 710923.0 0
310735.0 712431.0 0
316539.0 712617.0 0
322494.0 713175.0 0
326881.0 711494.0 0
331775.0 712885.0 0
337499.0 712231.0 0
342631.0 711890.0 0
346659.0 713660.0 0
351147.0 712487.0 0
357034.0 712887.0 0
363008.0 712461.0 0
367838.0 711888.0 0
374121.0 712248.0 0
378852.0 712231.0 0
383357.0 712028.0 0
388651.0 712631.0 0
397328.0 711754.0 0
402482.0 711228.0 0
401803.0 714500.0 0
407112.0 711415.0 0
413278.0 711727.0 0
418697.0 712138.0 0
423779.0 711412.0 0
428366.0 712749.0 0
433606.0 711902.0 0
438347.0 710967.0 0
437460.0 714497.0 0
442824.0 711880.0 0
448370.0 711831.0 0
453726.0 713577.0 0
461580.0 712771.0 0
467093.0 712141.0 0
472775.0 711878.0 0
477754.0 712677.0 0
482438.0 712285.0 0
489094.0 712538.0 0
493547.0 713007.0 0
497533.0 712111.0 0
2914.75 719714.0 0
8325.51 717957.0 0
14254.6 718265.0 0
20257.2 718359.0 0
24252.7 716466.0 0
27646.8 716887.0 0
31243.0 717711.0 0
35490.9 718965.0 0
41788.2 718359.0 0
47389.7 716740.0 0
51115.9 718536.0 0
55605.4 716944.0 0
61261.4 717143.0 0
66387.8 717669.0 0
72756.8 717472.0 0
78890.7 717940.0 0
82547.5 717371.0 0
85960.4 717428.0 0
91464.7 718012.0 0
102769.0 718630.0 0
108768.0 717831.0 0
113207.0 717813.0 0
116680.0 719925.0 0
121554.0 718143.0 0
127019.0 716337.0 0
133505.0 717469.0 0
139807.0 718811.0 0
144633.0 716748.0 0
149306.0 718094.0 0
154340.0 716557.0 0
157947.0 721078.0 0
159376.0 716812.0 0
163507.0 717414.0 0
167405.0 716834.0 0
171406.0 718222.0 0
176898.0 717525.0 0
183246.0 717504.0 0
188385.0 717860.0 0
191974.0 716655.0 0
197190.0 717594.0 0
203232.0 717126.0 0
209060.0 718834.0 0
213852.0 717211.0 0
217627.0 717140.0 0
222251.0 717287.0 0
227385.0 717774.0 0
232836.0 717244.0 0
238461.0 717546.0 0
242877.0 717216.0 0
248000.0 718130.0 0
251977.0 718204.0 0
256021.0 718320.0 0
261090.0 717666.0 0
266199.0 717109.0 0
272101.0 717537.0 0
277223.0 716838.0 0
282401.0 716907.0 0
291739.0 718436.0 0
300821.0 718238.0 0
306037.0 716573.0 0
312039.0 717070.0 0
317108.0 719108.0 0
322223.0 717947.0 0
327682.0 716963.0 0
332846.0 717527.0 0
337264.0 717635.0 0
342010.0 716183.0 0
342910.0 721156.0 0
346986.0 718650.0 0
351868.0 717135.0 0
357531.0 719059.0 0
362694.0 717579.0 0
367313.0 716354.0 0
371933.0 716517.0 0
376495.0 716968.0 0
381555.0 717346.0 0
387121.0 717909.0 0
393500.0 716964.0 0
399052.0 717967.0 0
405654.0 718397.0 0
411590.0 716953.0 0
417244.0 717606.0 0
423377.0 717087.0 0
429688.0 718123.0 0
435210.0 717945.0 0
441085.0 716861.0 0
446665.0 717458.0 0
451944.0 718110.0 0
458186.0 716936.0 0
463876.0 717114.0 0
469027.0 717571.0 0
473748.0 716552.0 0
472404.0 721080.0 0
478482.0 717349.0 0
482968.0 717012.0 0
487611.0 717441.0 0
492385.0 717114.0 0
497201.0 717103.0 0
1281.01 723518.0 0
7230.8 722583.0 0
11427.9 721834.0 0
17170.2 722165.0 0
21946.1 722349.0 0
26495.9 721196.0 0
31981.9 722490.0 0
37472.6 723746.0 0
42340.4 722559.0 0
46423.2 721478.0 0
52487.7 723053.0 0
58196.9 722219.0 0
63446.6 721992.0 0
68005.0 722042.0 0
71814.4 723758.0 0
76801.5 722829.0 0
81969.7 721654.0 0
86983.5 722022.0 0
91724.9 724077.0 0
97362.9 722492.0 0
102430.0 723932.0 0
107013.0 722840.0 0
112211.0 722202.0 0
117914.0 724702.0 0
122768.0 723309.0 0
128531.0 722454.0 0
135020.0 724190.0 0
139467.0 722972.0 0
143988.0 721920.0 0
148228.0 722385.0 0
152964.0 722042.0 0
162438.0 722146.0 0
167714.0 721896.0 0
173381.0 721446.0 0
172921.0 725899.0 0
177168.0 722987.0 0
181522.0 722493.0 0
186402.0 722464.0 0
192091.0 721344.0 0
197603.0 723221.0 0
201919.0 721895.0 0
206323.0 724406.0 0
214242.0 721699.0 0
218630.0 722383.0 0
222500.0 722451.0 0
226885.0 723432.0 0
232533.0 722371.0 0
237292.0 722707.0 0
242609.0 721906.0 0
247419.0 722982.0 0
252500.0 722455.0 0
256816.0 722980.0 0
261652.0 722857.0 0
267329.0 722663.0 0
272842.0 723342.0 0
277745.0 721405.0 0
282224.0 724200.0 0
286796.0 721171.0 0
291526.0 723601.0 0
296918.0 721851.0 0
302772.0 722628.0 0
307716.0 722013.0 0
312449.0 722171.0 0
316559.0 723981.0 0
321029.0 722806.0 0
326493.0 722828.0 0
331817.0 721989.0 0
337531.0 723252.0 0
347589.0 723658.0 0
352863.0 722587.0 0
358052.0 724503.0 0
362128.0 721997.0 0
366335.0 721121.0 0
368537.0 725340.0 0
372443.0 721428.0 0
377212.0 721399.0 0
381195.0 722047.0 0
378224.0 725863.0 0
385743.0 723447.0 0
391453.0 723120.0 0
396993.0 722315.0 0
401905.0 722714.0 0
407676.0 724100.0 0
412952.0 721883.0 0
417901.0 723316.0 0
422567.0 722248.0 0
426806.0 722880.0 0
432896.0 722068.0 0
430518.0 725400.0 0
437644.0 722563.0 0
443017.0 721740.0 0
448128.0 722903.0 0
452316.0 722046.0 0
456482.0 722215.0 0
461756.0 722099.0 0
464353.0 726112.0 0
467410.0 722509.0 0
474204.0 725767.0 0
477267.0 722022.0 0
482238.0 721793.0 0
488485.0 722818.0 0
492991.0 722060.0 0
492512.0 725987.0 0
497500.0 722098.0 0
2835.18 727272.0 0
8037.79 727787.0 0
13073.0 726511.0 0
17745.5 726601.0 0
21950.4 728122.0 0
27439.8 727274.0 0
33091.0 727575.0 0
37704.8 729350.0 0
42222.7 727215.0 0
47670.3 726435.0 0
52027.4 728621.0 0
56738.3 727522.0 0
61966.0 726908.0 0
67447.7 727008.0 0
72852.5 728560.0 0
77996.1 728114.0 0
83873.4 727254.0 0
89388.1 728272.0 0
94024.9 728654.0 0
98718.6 727924.0 0
103823.0 728524.0 0
108523.0 727164.0 0
112506.0 726912.0 0
115887.0 728622.0 0
121638.0 727990.0 0
127739.0 729771.0 0
134889.0 729389.0 0
138561.0 727972.0 0
143029.0 726904.0 0
146783.0 728887.0 0
150866.0 727341.0 0
157059.0 726746.0 0
162803.0 726905.0 0
167718.0 727868.0 0
177926.0 727589.0 0
183135.0 727244.0 0
187992.0 727312.0 0
192433.0 726857.0 0
197233.0 727855.0 0
202500.0 727328.0 0
207955.0 729084.0 0
212611.0 727102.0 0
217500.0 727284.0 0
222500.0 727153.0 0
228015.0 728746.0 0
232694.0 727084.0 0
237657.0 727625.0 0
242750.0 726442.0 0
241596.0 731044.0 0
247511.0 727374.0 0
252133.0 726738.0 0
256494.0 727198.0 0
260893.0 727848.0 0
265675.0 727821.0 0
270925.0 728396.0 0
277174.0 727479.0 0
282215.0 728606.0 0
286863.0 727409.0 0
292477.0 728750.0 0
298585.0 728231.0 0
304028.0 727305.0 0
308240.0 726436.0 0
306445.0 731348.0 0
312947.0 727842.0 0
318619.0 728556.0 0
323446.0 726875.0 0
327973.0 728037.0 0
333256.0 727606.0 0
338031.0 728846.0 0
342829.0 726836.0 0
347096.0 730211.0 0
351236.0 727604.0 0
356596.0 729779.0 0
362869.0 727600.0 0
373210.0 729021.0 0
382974.0 727720.0 0
388376.0 728404.0 0
393377.0 728590.0 0
397930.0 727458.0 0
403260.0 727594.0 0
407835.0 729306.0 0
412474.0 727083.0 0
417510.0 728468.0 0
422124.0 726780.0 0
426969.0 728350.0 0
435153.0 728056.0 0
441307.0 727137.0 0
446645.0 729778.0 0
452504.0 727162.0 0
459255.0 727629.0 0
469004.0 728014.0 0
479197.0 726807.0 0
483780.0 726475.0 0
484070.0 730605.0 0
488073.0 728056.0 0
497500.0 727071.0 0
2072.65 732390.0 0
6141.54 732604.0 0
11334.9 731519.0 0
17186.5 731846.0 0
23133.7 733145.0 0
28126.8 732716.0 0
33239.6 732965.0 0
38071.4 733816.0 0
42427.5 732350.0 0
47108.0 731583.0 0
51838.9 733325.0 0
57263.8 733118.0 0
62657.0 732116.0 0
67320.3 732072.0 0
71485.8 733497.0 0
76240.8 732705.0 0
81968.3 733934.0 0
87227.4 731997.0 0
91822.4 733304.0 0
97230.5 732790.0 0
102644.0 734117.0 0
108067.0 732355.0 0
113416.0 732497.0 0
118699.0 732242.0 0
123384.0 734501.0 0
127621.0 735761.0 0
133127.0 733515.0 0
138233.0 732487.0 0
143149.0 731921.0 0
146809.0 732763.0 0
151216.0 733151.0 0
157154.0 733085.0 0
162704.0 731981.0 0
167677.0 732865.0 0
173361.0 732183.0 0
177929.0 732971.0 0
181746.0 732518.0 0
187093.0 732100.0 0
193325.0 732738.0 0
198704.0 731840.0 0
202897.0 731980.0 0
207273.0 733452.0 0
212288.0 732506.0 0
217524.0 732053.0 0
222469.0 732178.0 0
226576.0 733273.0 0
231481.0 731920.0 0
236417.0 732344.0 0
247294.0 732514.0 0
253474.0 731936.0 0
258881.0 732369.0 0
262900.0 732186.0 0
267481.0 732491.0 0
273059.0 733013.0 0
277501.0 733032.0 0
282273.0 732155.0 0
283292.0 736405.0 0
287149.0 732604.0 0
291271.0 733382.0 0
296318.0 734315.0 0
302044.0 732269.0 0
310761.0 732310.0 0
315275.0 733437.0 0
320309.0 733485.0 0
325808.0 733417.0 0
331488.0 732596.0 0
336246.0 732898.0 0
342119.0 733481.0 0
347336.0 735296.0 0
351491.0 733009.0 0
356340.0 735602.0 0
361522.0 733757.0 0
367576.0 732423.0 0
372690.0 735525.0 0
378647.0 733334.0 0
384737.0 732492.0 0
389548.0 733755.0 0
394466.0 732979.0 0
399799.0 732808.0 0
403857.0 732273.0 0
407323.0 734255.0 0
412913.0 732531.0 0
418049.0 733161.0 0
422652.0 731826.0 0
427492.0 733581.0 0
432021.0 732173.0 0
436514.0 733340.0 0
441544.0 733016.0 0
446164.0 734882.0 0
451526.0 733834.0 0
457330.0 734021.0 0
461995.0 732575.0 0
467189.0 734041.0 0
473461.0 732604.0 0
479604.0 732270.0 0
487434.0 734437.0 0
492969.0 731454.0 0
497909.0 733300.0 0
2250.95 736872.0 0
5728.73 738584.0 0
10641.2 737407.0 0
17165.0 738330.0 0
22632.8 737996.0 0
27814.9 738034.0 0
33454.7 738420.0 0
38871.9 738579.0 0
42986.2 740333.0 0
47352.8 737373.0 0
53277.7 738271.0 0
58471.7 738518.0 0
63775.3 737459.0 0
68621.4 737026.0 0
72971.0 738063.0 0
77571.9 737611.0 0
82471.3 739111.0 0
87338.9 737100.0 0
92462.8 738462.0 0
98171.6 738249.0 0
102848.0 738819.0 0
107425.0 737643.0 0
112500.0 737143.0 0
117490.0 737193.0 0
121857.0 738543.0 0
125892.0 739387.0 0
131607.0 739073.0 0
137435.0 737552.0 0
142981.0 737207.0 0
148109.0 737227.0 0
153098.0 738563.0 0
158347.0 738414.0 0
162928.0 737045.0 0
167391.0 737408.0 0
172171.0 738059.0 0
177548.0 737074.0 0
182513.0 737440.0 0
186796.0 737206.0 0
191143.0 738444.0 0
197713.0 737638.0 0
203435.0 736870.0 0
208211.0 737979.0 0
213244.0 737648.0 0
218079.0 737133.0 0
222091.0 737116.0 0
225906.0 737550.0 0
230890.0 737414.0 0
236673.0 737556.0 0
242499.0 736957.0 0
248086.0 738056.0 0
252487.0 738049.0 0
256739.0 736612.0 0
261235.0 738501.0 0
266780.0 738252.0 0
272461.0 737693.0 0
277946.0 738298.0 0
288650.0 737716.0 0
293523.0 738643.0 0
297420.0 740106.0 0
301336.0 737268.0 0
307721.0 737461.0 0
313678.0 738352.0 0
318747.0 738215.0 0
323308.0 737897.0 0
327522.0 739154.0 0
332261.0 737505.0 0
337619.0 738241.0 0
342966.0 739404.0 0
347386.0 739262.0 0
351954.0 738422.0 0
358877.0 739776.0 0
363395.0 738673.0 0
367502.0 738093.0 0
372567.0 740023.0 0
377201.0 738687.0 0
382456.0 737247.0 0
386663.0 738050.0 0
392233.0 738075.0 0
397430.0 737839.0 0
402363.0 737339.0 0
406607.0 739240.0 0
411642.0 737687.0 0
417363.0 738543.0 0
422821.0 736968.0 0
427656.0 738789.0 0
432660.0 736977.0 0
438135.0 738010.0 0
443326.0 738656.0 0
448145.0 738727.0 0
452840.0 739589.0 0
457520.0 738659.0 0
462318.0 737675.0 0
467042.0 739385.0 0
472235.0 738833.0 0
477745.0 737444.0 0
482836.0 737400.0 0
487922.0 739554.0 0
492474.0 737638.0 0
497468.0 737298.0 0
POINT_DATA 5000
SCALARS Radius float 1
LOOKUP_TABLE default
5253.55 5782.6 5379.87 6044.04 5415.48 5120.0 6182.6 5906.14 7513.1 5580.89 6810.52 7613.27 5529.52 5255.32 5096.78 6756.95 6324.23 3843.58 5191.63 4150.99 4216.92 6268.1 4861.06 5320.28 3979.26 4298.67 3471.03 5820.48 7034.11 4862.21 5113.21 3929.19 4107.03 4043.57 4478.15 5681.38 5925.6 4501.51 4792.73 4736.58 4931.38 3485.26 6082.81 4329.05 4151.94 4049.23 5337.48 6124.89 4929.8 5708.81 5252.48 4780.03 5495.39 3996.0 3856.1 4665.12 3383.4 4133.88 4094.62 4834.9 3850.77 5546.39 5325.36 5484.83 5085.53 3863.18 5351.6 2356.98 4998.37 4715.55 5492.18 5258.36 3951.75 5061.3 3642.12 3163.97 5542.27 5812.43 5122.66 5484.19 5254.28 4688.68 4436.4 5733.48 4672.91 4182.53 5903.42 3588.44 5645.7 5176.86 4366.19 5840.26 3672.51 6110.27 5561.06 5073.35 3615.22 5670.04 4380.59 3589.27 6716.79 3997.1 3607.45 5759.91 3038.33 4951.03 7199.21 6037.08 4523.7 5091.39 5293.9 4129.43 6142.94 4727.24 3320.52 4194.5 4270.53 5082.47 5344.25 5445.87 4593.7 4704.72 4177.94 4742.68 4571.7 4344.58 5634.83 5495.84 3784.5 5374.51 6739.08 4797.52 4796.58 4569.12 5873.69 5960.66 6608.73 5011.84 6261.42 4502.5 3771.48 5499.11 4271.69 4138.42 3708.04 5987.17 5513.6 3240.09 4556.36 4901.41 3191.99 4685.34 4382.74 5601.05 4651.28 3586.91 3103.0 3554.9 5481.78 4015.92 5542.21 4487.31 3936.02 5043.05 4044.71 5980.74 5109.54 4927.02 5945.65 5538.89 4730.36 5416.38 5867.73 6059.59 5013.56 5701.86 4499.64 4375.68 4468.59 5054.98 6030.06 5170.02 3557.27 4927.31 4862.64 4402.52 5185.34 4517.56 4432.58 6684.56 3968.64 3955.56 3761.32 4118.05 6166.5 5553.16 2938.66 4940.78 4231.61 4008.92 4003.05 3942.53 3379.84 4805.87 4827.82 5227.21 5697.78 3260.67 5123.52 4091.31 4392.68 6372.62 4333.2 4295.38 2240.39 5923.5 4612.68 3912.37 4973.83 4602.25 6691.39 4790.08 5135.69 4763.45 5344.0 6045.46 3815.26 5908.1 6048.7 5896.46 5022.8 3780.23 4166.08 6481.79 5224.12 7042.12 4819.73 6326.39 4471.58 6098.14 4962.09 4472.17 3999.48 4203.26 4359.62 5188.81 6946.21 2586.12 6057.22 5433.8 4011.77 4527.08 3633.87 5922.5 5198.77 6013.14 2765.2 5011.31 5138.31 5110.37 5664.98 5927.43 6355.42 4384.42 3693.63 4362.19 4516.43 5690.56 4948.92 5637.59 4937.14 3307.12 5816.2 4002.16 5693.81 4174.52 6483.19 3829.13 6759.9 5418.62 7021.47 5740.68 5926.61 2720.68 4955.55 3563.63 5836.15 4238.81 4345.55 5885.03 2837.58 3871.88 5325.02 5200.76 5017.13 5279.39 3673.74 5205.43 7447.37 4688.67 2635.86 4385.06 5292.64 5065.13 5936.02 5305.17 4861.08 5399.73 5390.22 3888.21 4712.33 6038.78 4667.36 4254.17 5090.24 5615.42 7565.34 5530.87 4281.49 6342.25 4187.56 4840.84 4020.32 4245.72 4156.38 5316.75 4541.21 6133.92 4164.68 3719.84 4178.4 5934.22 3095.48 5762.59 4123.6 4850.14 5163.55 3382.7 6817.32 4319.79 3637.61 6222.42 5654.31 4730.41 3745.84 5062.71 4156.2 6125.34 5965.78 5347.48 4850.01 4810.12 3970.25 5643.58 5147.67 3979.82 4292.06 5577.04 5006.58 5264.06 4602.86 4659.59 6327.9 4048.37 5492.26 5244.78 5762.84 3115.91 3937.74 4493.48 6084.86 5924.89 4778.34 4138.16 6894.71 3486.22 4684.5 3091.3 6230.49 6458.82 4601.27 5493.32 3641.64 4277.89 6051.14 3261.21 4195.44 5539.32 6704.06 3653.41 6496.85 5600.93 3856.01 4874.39 5246.2 4390.66 5728.85 4827.23 4911.47 6116.18 4924.6 6257.19 4733.32 7184.19 2899.43 2812.98 2924.37 3867.67 5603.15 4290.3 4695.45 4660.72 6052.7 3921.18 5891.05 5308.1 6902.81 6644.76 5655.21 5629.19 4645.41 4786.6 5740.84 6445.94 4310.18 4218.06 7134.64 5978.9 4716.19 3629.62 4997.27 5514.76 4301.06 3456.98 4877.67 4290.14 3066.13 6562.18 6006.16 7055.53 5669.65 5624.49 4970.88 7092.87 4666.81 3703.1 3954.91 6471.55 2965.01 5499.39 6643.85 5501.93 5463.38 4938.74 5690.26 5607.14 4497.59 5975.63 4374.35 6396.74 5215.05 3821.72 4986.77 5586.81 3688.8 4548.16 3369.23 4551.24 5449.18 4220.88 4515.71 4749.8 5082.6 5478.92 5551.36 5094.44 4467.94 4414.54 4850.81 5789.98 6138.47 7054.71 5489.43 5573.7 5747.75 4727.62 5054.25 4796.33 7325.81 5280.17 5360.19 4794.96 5541.59 4124.71 5083.08 6337.56 5803.39 5863.59 4381.97 4024.3 3255.82 5555.28 5242.73 4737.14 4065.69 4686.65 5556.96 3798.62 6392.01 3666.57 4907.89 4937.02 4073.93 6043.3 5952.75 4433.59 4320.28 6122.55 5542.14 2739.94 4931.53 5480.13 6308.71 3323.28 6695.82 6405.76 3498.2 5105.16 5448.61 4302.5 4827.33 6009.88 5513.57 5013.67 5826.04 5339.78 4143.78 4538.95 4763.66 4636.5 4940.42 5923.4 5085.71 5644.82 6343.14 5945.21 5750.71 5696.88 4831.47 3923.03 4643.85 4004.04 5252.34 4138.46 4274.61 2775.04 2965.79 6898.19 6035.6 6318.18 4481.53 3948.17 5330.45 4621.75 4581.13 5358.59 3610.4 6387.01 5367.52 6519.71 3092.35 6640.13 5210.03 5810.84 4230.54 5351.39 3748.24 6142.37 4655.49 4933.21 5375.47 6038.14 2540.31 6029.66 5527.54 5697.4 6038.2 4270.95 4005.44 4055.8 5206.78 6425.26 5143.58 6186.19 4839.34 2980.99 6834.49 7933.0 5525.39 4455.12 3998.5 5938.34 5380.13 6394.38 5118.27 5169.36 5932.23 5834.74 3369.13 4479.66 5788.23 5581.75 3599.45 6730.19 4907.06 5489.34 3735.44 5163.9 6332.36 6155.31 4223.33 5911.67 5709.62 5835.78 5794.24 4127.74 4678.38 3942.07 7443.72 5050.65 3937.08 5260.34 5206.48 5729.23 5226.0 3365.82 5724.64 5965.15 4780.2 6090.91 4946.42 4963.34 5019.93 5081.78 6116.33 6263.44 5774.97 5462.21 6313.06 5470.77 6470.3 6062.05 4289.17 5564.02 6072.45 4410.55 5137.34 5423.0 3856.59 4219.07 5413.79 6202.55 4322.15 5025.39 4714.54 3629.96 5478.47 3320.11 6022.17 6061.47 6163.38 4566.18 4723.12 5120.49 5201.36 5262.61 6302.8 5409.61 5094.81 5972.06 5555.88 6732.43 5028.96 3866.16 6362.12 4484.76 3778.1 4840.01 5152.36 4511.82 5611.2 5173.87 4894.16 5711.87 3372.79 4941.22 5791.61 4669.66 4808.52 5367.2 5607.24 3043.85 5461.13 4726.76 5839.13 5495.68 4863.72 5002.48 5708.14 5537.72 3920.42 8332.24 4553.56 5329.64 6049.55 5991.09 2476.04 5133.97 6600.94 5371.02 6155.1 4709.35 6586.45 4373.3 4750.78 5029.78 4163.5 4888.6 5078.86 5100.1 4918.77 3561.29 4371.99 4219.78 3295.83 3885.86 4459.28 4260.92 4479.94 6250.23 5960.56 4118.84 4020.95 5862.86 3474.39 3493.7 4200.03 6939.12 5082.74 4735.33 6915.83 5092.37 6444.77 7099.43 5526.14 4287.63 5198.29 5077.33 4746.52 3689.45 5572.95 6338.89 5584.06 7111.16 5893.5 4547.19 5030.91 5119.37 3982.23 4583.31 4503.89 5806.08 3459.9 4997.27 4853.39 4964.09 4093.08 4809.42 5024.9 4306.53 5659.17 5713.22 4312.67 5861.71 4359.04 3183.98 3794.63 5017.78 4524.28 6175.81 4727.24 6677.09 5826.64 4220.65 6820.42 4816.2 6321.41 4896.52 4089.76 4751.02 3192.41 5184.56 5282.64 4715.72 3315.57 5804.71 5046.33 4764.96 4242.52 5053.92 6352.26 3847.38 3057.03 3818.59 4143.08 7500.97 6623.85 5228.18 4262.82 5102.36 5065.11 4342.9 5069.84 4051.44 4050.9 4978.31 4241.89 5054.74 5941.72 4656.78 5126.91 4788.58 5131.24 5196.67 5876.71 6262.72 3664.11 6515.84 2990.77 5882.65 4739.14 5187.7 4188.3 5235.29 4255.31 5453.3 6413.02 4863.27 3492.19 4584.5 5122.63 6049.79 5374.98 4719.7 4406.4 5411.85 4844.57 4027.46 6314.07 5776.37 5315.4 6449.45 3975.31 4044.45 3824.16 5125.78 5344.43 3868.18 4373.47 5045.38 6723.16 5372.61 3686.21 3817.13 5507.24 5023.15 6851.54 3813.22 5570.3 4336.42 5243.29 7589.94 3130.65 4449.22 5543.27 4717.05 5856.11 5287.2 6135.57 4109.88 5998.38 5013.13 5423.8 4270.24 3417.33 4989.15 4926.42 4164.13 5015.69 4642.34 4947.52 4305.57 6959.81 4829.35 5201.67 3791.79 4424.7 4754.05 5526.55 6084.93 5215.15 4987.87 3697.96 4739.42 5538.93 5020.12 5727.3 2631.9 5281.28 5356.51 4277.88 4668.71 4087.15 4758.21 7228.46 3948.23 5978.82 5787.31 3927.99 5868.82 4948.98 4099.77 5227.52 4092.24 4981.9 4537.32 5163.02 7144.24 4906.82 3600.43 5004.23 6496.67 5474.8 6607.87 5117.47 4721.32 3163.78 4925.63 3293.56 5274.14 4434.19 4903.82 5746.28 4623.61 4082.47 5511.6 6261.75 5177.64 4378.3 6134.99 4094.73 4407.9 4440.57 5548.29 4703.08 2315.64 6345.13 5274.19 5226.56 5516.95 5313.22 4413.85 3999.94 4470.98 4864.22 4516.28 3921.08 4190.31 3627.82 5678.96 5262.19 4244.9 6070.58 5350.88 5130.91 5402.24 6480.17 6445.22 4377.07 5101.59 3844.9 3963.86 3848.93 4306.11 5935.47 5903.66 5628.24 5004.67 5365.89 3327.49 5992.26 4234.94 3960.8 4562.29 4980.85 5080.66 5110.45 5208.32 5248.77 4083.97 4520.1 4607.02 5153.74 5874.89 3895.51 4528.09 4293.03 5813.4 4389.21 4128.98 4925.44 6246.22 4951.47 5246.61 4307.28 4100.38 5344.77 4723.48 5097.87 4899.11 4278.07 4745.45 7267.18 6255.18 5269.18 4406.1 6362.14 6719.88 5080.18 5266.5 4454.63 4523.88 3279.1 4066.38 4403.98 4560.84 4414.48 4729.43 5776.57 4562.74 5598.74 5687.83 7493.3 6442.69 6320.71 4648.04 3464.83 6413.11 4305.16 5092.28 4965.89 5659.95 4152.85 2908.7 4453.64 4338.08 4517.73 5469.47 5660.16 4989.56 4718.54 2588.37 6736.03 6235.57 6766.43 5916.16 4390.41 5599.49 4097.57 3905.51 5017.5 5563.79 6171.13 3901.8 5759.46 5083.41 7055.42 6048.86 4285.32 5490.43 6034.41 5452.83 4959.34 4948.5 4519.22 4527.02 4564.34 3695.36 3838.56 4871.44 5076.35 6020.48 6375.99 3402.32 5200.05 5234.29 4528.49 5419.37 4466.03 4511.54 5070.39 4923.9 5714.58 3329.99 3947.47 3296.27 4713.25 4204.84 6243.0 6673.96 4165.81 3556.85 5441.96 6291.51 5174.89 5882.89 5370.52 4188.32 4652.29 5774.81 3746.31 5027.98 5346.27 6475.1 4969.21 2691.29 6256.02 5320.92 4305.43 5450.44 5034.59 4942.77 4263.33 5592.32 5381.16 5912.61 6193.35 6086.96 5233.78 5046.21 5683.26 5894.61 5139.5 3979.54 5944.09 4814.55 3527.05 5698.77 2477.07 4497.31 5529.42 5257.12 5243.43 4537.14 5551.9 3757.34 6415.61 4687.64 4419.71 5037.06 3838.47 4541.8 5175.29 3623.87 5412.31 3087.09 6934.37 6113.95 4050.08 5452.42 5328.22 6853.85 3497.9 5511.88 2395.5 4512.11 5782.48 5486.68 3836.45 5683.61 5100.25 5022.28 5197.52 5178.99 5383.07 4591.87 4531.14 5013.42 4247.15 6552.22 5651.07 6248.81 5273.35 5313.66 4645.58 2651.49 5512.23 5275.32 5409.33 4898.94 5196.0 4178.15 4613.31 4973.78 4733.04 6119.09 5091.68 7531.29 5069.25 5048.89 3161.47 3991.03 3435.9 6390.78 7435.25 4288.3 6826.57 4788.87 4495.87 6022.72 5498.32 5527.33 5402.21 4989.09 2845.98 4880.14 5289.52 4982.31 5314.85 4307.48 3848.54 5941.4 6510.17 5742.65 4402.67 5565.13 4470.61 4384.88 6887.27 3701.27 6008.49 5653.9 4806.34 4287.53 5612.21 4929.14 5945.08 5304.13 3306.14 5490.58 5833.06 4863.79 4923.41 3830.46 6031.67 5384.76 6138.12 4428.78 5409.66 4345.67 4765.72 4642.66 4752.14 5329.59 4888.12 4950.97 5512.16 3197.63 5842.56 5887.15 5203.08 7480.41 3423.15 4890.5 4488.85 3981.07 3731.84 4901.07 5186.3 3436.15 4151.76 5941.61 4020.4 3493.47 4596.75 6248.6 5443.58 4558.46 5805.86 6894.26 4470.4 4986.51 5339.38 6169.11 5615.35 4790.78 4027.09 6422.84 4502.18 4602.85 4962.77 5872.05 4853.02 4091.8 6259.23 5181.4 5670.2 5985.29 4711.62 4247.23 4268.65 4694.83 5509.42 4354.08 5788.66 4256.43 5936.36 4520.62 3903.75 4755.47 5935.03 5475.8 5314.69 4249.46 5965.81 3702.37 5660.85 4643.31 2330.66 4177.19 6917.52 3587.05 6229.37 6718.19 5282.91 4425.84 7256.35 5331.02 4871.96 4863.23 3555.86 6386.78 4631.83 4996.99 6081.14 4220.46 5128.57 6000.7 3169.67 4968.03 3361.92 6710.88 5395.14 4702.06 3967.48 6213.04 4689.15 3685.13 6790.73 4655.16 5251.4 3867.19 5857.79 4039.91 5276.7 5036.58 6119.63 5411.02 4752.9 4287.16 4863.96 5199.44 5191.08 4435.51 5374.07 5163.77 4588.7 3766.55 4579.69 3554.48 6496.52 5005.85 4216.17 6484.17 4721.02 4254.37 4933.65 3374.08 4031.78 6098.1 5708.99 4049.02 5311.03 5346.68 5255.12 5296.29 4611.53 4285.66 4896.11 5172.53 5801.99 5379.09 5210.48 7552.94 5323.3 5088.44 4998.21 4114.24 4662.56 5349.31 2976.22 4649.22 5394.55 5094.52 4946.74 2682.24 5928.32 5229.48 5475.7 4485.99 4016.18 5127.16 5435.74 4244.99 6050.81 5543.46 6185.89 3997.96 4750.17 4439.35 3460.94 3990.25 3691.0 3758.07 4752.51 4236.14 4407.87 5282.51 4460.92 3797.33 5945.89 4105.55 4800.69 6566.1 6065.22 4221.28 4456.39 4896.39 3633.79 5421.53 5480.83 5937.08 4607.85 6070.3 5233.29 4312.56 4612.06 5604.21 5204.04 4750.58 6667.68 5235.11 6622.11 5211.38 4590.55 5920.32 4255.85 5097.69 3988.3 6543.13 5149.72 5464.25 5301.47 4617.55 5424.88 4062.5 5415.85 8659.64 5683.95 6027.62 5010.2 6123.03 5966.61 5711.11 4575.94 4938.72 3546.71 5768.57 5564.23 5950.04 4231.83 5687.85 2435.33 6401.43 5020.71 2681.29 5094.48 3872.61 4238.4 4135.62 4318.48 6132.95 5534.94 4860.33 7644.38 4051.34 6101.92 3627.55 6239.84 4635.6 4256.67 3457.48 5166.79 3931.07 3405.98 5417.15 3688.16 4681.72 4945.39 5996.33 3950.63 5415.19 4612.62 3619.07 5526.75 4275.57 6385.23 5327.45 2983.99 5560.26 2614.4 6363.92 6205.93 4923.24 5830.72 6184.4 3828.81 4373.45 4082.57 5733.62 5169.9 3004.16 4767.78 5235.17 4779.5 4042.28 4421.12 4340.76 5254.49 4303.19 5514.84 5784.3 4256.57 3914.2 4135.08 5620.74 4778.82 6124.08 5467.84 5053.95 5926.11 5767.9 5089.62 6515.8 5869.4 4741.26 3701.16 4186.6 5895.77 4732.09 6136.49 4356.25 4216.95 5776.96 4209.49 5742.74 5486.48 4244.21 4947.24 3645.12 6200.54 5148.58 4199.45 6599.66 5469.13 4233.8 5765.42 4997.83 4893.49 5325.44 5021.88 5956.65 4498.25 4188.87 3735.24 6574.95 4074.48 4558.47 5731.57 5997.88 5839.71 5576.92 6408.83 5266.22 3930.79 5226.97 3685.13 3312.06 6004.68 3361.26 6799.4 5865.39 4427.28 6079.11 3082.32 6430.39 7440.72 3949.6 5703.6 6326.18 5661.62 6631.19 6648.68 4467.04 4713.74 5626.61 5817.25 4084.49 5061.98 6632.99 4537.6 4419.61 7177.44 4563.46 5309.98 6553.94 5255.18 5460.65 5652.0 5463.41 5225.33 4929.75 4435.36 6045.22 6649.96 5134.39 3532.3 5769.98 5442.32 6088.68 2221.99 4643.56 3580.58 4863.01 5356.79 5657.36 3619.79 5029.47 6306.21 5266.01 5253.37 2040.66 7016.27 3685.65 3876.21 5689.26 4916.22 6022.7 4940.84 5750.07 4809.67 4757.74 6045.67 3946.28 3821.94 5439.9 5367.73 3875.05 3540.11 3456.47 4652.01 5421.64 7234.66 4055.54 4886.12 6419.12 4976.12 6098.95 5453.98 3991.42 4388.63 5102.75 4597.29 4200.09 5931.77 5151.21 6333.29 4477.04 3886.68 5703.74 5662.55 5737.92 4360.23 5365.24 5293.51 4004.35 4763.96 5754.18 5180.76 3418.99 4480.95 5278.36 4409.63 5521.25 3661.9 5370.85 5949.46 3658.37 3178.54 5376.71 4448.13 5070.29 4807.28 4867.08 4266.03 5280.69 4220.03 6923.84 5407.78 5449.46 6179.96 6113.54 5147.36 6260.79 3963.76 5528.53 6799.88 3062.43 5726.66 5426.78 2967.38 4159.35 6477.91 4237.98 6439.37 4614.3 5580.92 5973.33 3583.21 5067.46 2511.46 4011.37 2775.69 4785.25 6519.43 5876.64 5424.46 4857.84 2978.76 4908.49 4962.21 4858.44 5884.9 3468.42 4673.35 4992.42 5297.19 4351.38 4833.46 5933.7 7248.4 5280.12 5984.81 3498.16 4409.27 4640.06 5471.74 3548.39 3673.28 4858.51 4207.54 5625.65 4301.61 6107.89 4817.16 4446.84 5660.55 5148.08 4834.87 3672.21 5760.22 5938.17 4795.43 5398.64 5097.95 6817.57 4693.52 3614.96 6853.04 4745.43 5831.96 4747.55 3056.7 3755.95 6234.32 4586.19 4446.06 3450.93 5008.63 5132.68 6595.03 4993.35 6218.95 5222.16 5107.23 5136.08 5558.68 3776.94 4765.02 4010.57 5629.39 2684.03 6157.04 4768.61 2261.36 5075.55 5506.19 6719.94 4950.67 5227.59 6166.29 5453.6 5703.07 5294.77 4662.43 4709.05 4630.82 4043.66 4813.08 5860.67 4540.86 5990.52 4835.83 5604.35 6316.56 4332.87 3091.67 6420.81 4081.97 4715.58 5401.99 5151.52 5369.08 4347.74 5291.9 4009.62 2081.58 6505.78 5461.55 6865.76 6449.64 6464.8 4684.44 4749.59 5799.69 5571.72 3809.69 4771.13 3208.96 7051.9 4184.23 5550.75 6834.41 6226.14 5466.33 4444.97 3000.29 5721.05 4247.69 4514.39 4588.99 4321.21 4344.34 4928.27 3583.49 5052.84 3375.28 4366.74 5297.16 3184.64 5206.33 5530.49 5653.03 3718.69 4514.79 2216.82 4509.89 6752.75 5269.38 5607.3 5108.06 3573.73 2928.82 4222.4 4000.43 4568.41 3420.08 4912.04 4539.07 5464.68 5591.76 4585.31 6625.18 5323.91 4270.74 5097.45 6293.89 4558.15 5737.75 2761.07 4983.39 5366.52 4690.55 5533.72 5533.42 4802.32 3678.08 4599.38 5246.47 4187.31 6191.29 4522.21 3240.51 7422.36 5161.01 4298.15 4628.4 5832.37 6051.83 4642.93 5409.63 4263.16 3077.84 6024.75 6109.49 5567.93 5332.65 3764.1 6451.33 5413.31 3012.99 6400.08 4743.59 5208.14 3317.83 4450.7 3763.05 5092.24 5549.49 3101.75 4518.04 4766.06 4874.18 5435.19 3298.2 4270.15 4953.1 4093.99 3940.49 4406.05 4680.94 5828.35 5876.72 5236.43 5285.07 4608.41 4144.57 4187.94 5980.59 3796.15 4801.8 7216.98 5271.02 4209.31 5718.28 6242.79 5950.45 5713.03 5849.65 5134.67 4165.21 4215.0 4936.96 4481.76 5452.78 5065.26 4304.41 6192.0 4940.28 5885.28 6579.31 3004.34 3022.6 4811.76 4914.45 4698.87 4661.03 3624.7 5262.35 4691.91 2685.81 4475.83 4510.8 5889.35 5010.04 4394.56 4570.98 4275.07 5825.38 4185.61 4047.87 5742.47 3778.02 6552.21 5417.8 5146.37 7132.12 4836.16 5518.57 5151.11 5463.48 5730.33 5545.46 4527.99 4376.7 5190.61 8325.01 3764.06 4440.81 5941.9 3973.12 5434.47 6642.76 5829.22 4497.78 4243.79 5987.42 5433.65 4442.22 4008.15 4887.76 4669.06 4811.32 4286.49 6184.88 5829.32 4396.25 5551.95 3918.87 2275.45 5423.42 6605.86 4383.56 5012.5 3562.79 7093.13 5818.95 4516.53 3604.14 4452.54 5089.1 2711.19 4028.32 4099.92 4884.59 3858.06 4680.14 4511.7 4083.79 5263.27 6300.92 5021.77 5599.29 6038.68 5046.12 4807.4 7013.17 3805.67 4601.74 6506.86 5088.57 5580.34 3852.6 5775.31 4706.5 4603.5 4647.67 5375.12 4356.36 4892.44 5578.94 7610.49 4286.17 3684.56 5323.55 5375.1 4172.6 5313.12 5351.56 3984.88 5160.59 4732.09 4320.42 4255.34 5064.79 5480.3 7509.24 4146.81 5896.26 5388.78 6101.13 4573.72 5099.21 4917.99 5636.4 4367.78 4350.12 5227.02 5670.0 4232.16 5300.96 4344.51 5680.94 3781.77 5581.55 5193.01 4543.1 3474.5 6550.44 3860.83 5732.27 4523.39 5278.56 5146.37 6917.62 4013.38 5631.14 4343.78 5811.18 5263.3 4909.65 6523.86 7693.4 4326.48 4437.07 3449.37 5491.9 6405.0 4659.16 5789.55 4633.05 4901.2 5711.62 4798.17 4990.79 5166.79 6479.39 2895.63 4122.92 4997.91 5079.22 5381.54 5810.77 4714.83 5474.15 7519.2 6355.68 4478.6 3953.55 4304.63 4469.54 4314.56 4173.54 3928.53 5606.51 5740.65 3834.47 6349.67 6329.53 4590.01 6101.86 5993.0 4803.57 5966.42 4110.59 3332.49 5354.66 4214.44 5378.23 4787.97 3746.36 6789.23 3989.7 4777.03 4246.61 6028.09 5452.36 3804.5 6486.37 5498.42 3344.57 5318.53 5220.76 4281.98 7165.9 5344.83 7046.11 3427.63 4863.97 6342.48 5756.75 4587.67 5599.7 4163.74 6969.28 3665.95 5698.96 4095.75 3603.51 4298.45 5222.51 6609.84 5135.96 3834.43 5658.37 4707.06 6074.94 5491.37 4250.88 3783.54 6348.03 3475.67 4792.39 7038.89 3863.67 4814.12 5067.56 6137.8 2735.53 3352.35 5116.6 3747.03 2783.85 4356.49 4526.81 3994.07 4219.94 5907.46 6740.71 4264.91 5399.29 5971.22 4909.31 6522.59 6602.43 3568.28 5425.98 5996.66 4405.42 2995.67 3598.08 4599.81 5698.23 7300.58 3608.06 6633.61 5217.95 4867.7 5484.36 4277.24 4063.9 5291.05 5161.1 4619.2 5166.41 5067.56 2596.96 5701.75 4350.15 4139.3 6541.45 4227.41 4750.49 5078.31 5391.48 4923.43 5131.15 4847.14 3950.27 5116.66 3566.79 5374.67 4981.43 4741.28 4215.2 5069.89 4157.29 6813.72 5327.75 4609.02 4896.65 4638.18 4196.37 6448.66 4453.97 6945.98 5138.2 5783.48 4701.5 4449.98 4504.35 4771.65 4840.44 5093.82 5951.81 3924.14 6918.35 4296.69 6238.32 3319.67 6471.42 5283.8 4076.59 4428.14 5164.1 6464.15 4972.17 6685.4 5699.53 4222.77 6332.01 5268.38 5527.23 4805.33 5980.95 6193.08 6069.3 5887.01 5168.35 5388.39 3728.18 5335.47 5633.61 5048.19 6799.23 4888.27 4592.15 6487.56 4854.11 4998.22 5533.19 5417.21 5583.61 6063.64 7382.3 4022.56 5522.21 3772.3 4855.01 4923.57 3340.09 6061.63 2279.05 4829.35 4075.28 8137.11 5484.32 6650.77 4067.96 7104.73 6162.3 3272.75 4264.54 3516.27 4263.78 4643.9 5228.75 6047.14 5009.83 5210.38 5717.8 3629.44 5003.78 3299.24 6246.56 4061.6 2603.64 5107.0 6212.15 6502.97 4783.07 4946.23 6083.28 5211.6 5806.31 3556.79 5456.71 3503.41 7317.04 6412.67 7001.83 5012.97 5589.37 5439.49 6639.64 5212.43 5454.12 4834.3 6348.54 6804.79 5642.35 6372.13 5369.5 5404.01 6016.19 4124.49 4479.11 3230.13 5714.25 5325.96 4850.06 5016.02 7044.29 4234.18 4920.21 4049.16 7085.01 3936.95 6153.94 6836.82 3862.77 4631.99 4740.98 3185.39 5128.77 7122.87 5797.36 4243.26 4153.84 5119.86 5089.26 5084.17 4901.44 3776.8 5096.43 6156.21 6104.26 4653.83 6171.71 4986.71 3628.89 6589.82 4668.88 5027.43 5522.75 5867.64 6208.9 6059.93 5602.53 5073.02 6545.43 6760.92 4989.2 4711.04 7144.05 4506.18 4824.12 2970.9 6542.5 4383.47 5971.21 5261.19 3104.96 7043.44 4263.65 6106.43 4807.35 5467.63 5666.95 4642.2 4811.22 3683.86 4918.76 5293.75 4208.41 5826.78 5473.72 2856.55 4553.68 3758.22 4757.2 4852.58 3205.68 5561.74 6100.73 4788.08 4745.79 5470.04 4908.75 3971.08 6204.65 4482.9 4593.7 4036.91 4349.13 5110.11 6379.14 3687.65 4887.52 5478.95 3851.85 4066.57 4206.98 5156.76 6357.47 6101.57 4891.38 5535.91 2949.12 5955.86 6176.67 4533.37 4848.46 5412.24 2779.99 5887.38 4581.37 6942.34 5851.61 5478.11 5526.31 5030.15 3858.17 3644.78 3477.1 4078.93 5934.82 4501.78 4922.49 3572.94 5001.58 4820.17 4729.42 5244.98 3886.72 5415.45 6592.93 6350.71 6436.74 2460.79 5096.24 3908.98 6328.42 7307.21 3381.82 3619.72 4438.58 4646.51 4565.93 7107.63 4831.93 5788.97 3472.91 4023.93 5868.89 3274.85 5007.21 4099.26 5206.47 4580.06 4834.39 5493.89 5262.47 3512.94 3831.52 4991.35 4587.7 4258.98 6761.81 3903.91 4568.64 3919.62 4127.53 5210.75 4474.83 6555.44 5658.14 4508.18 6214.73 2205.51 5361.87 5175.89 3894.64 4268.19 4374.74 4532.7 4504.86 5975.23 4473.29 4198.94 4211.82 6556.26 5684.25 5438.92 6550.4 3766.69 4891.67 6818.91 5216.26 3503.65 3634.5 6631.28 6571.31 4392.65 6318.23 4058.87 5174.75 5932.07 4984.46 5948.71 4793.65 3856.53 5460.89 4532.89 5260.85 5742.09 2884.65 5807.46 4648.21 4393.16 3658.05 3311.29 4549.69 6423.81 6192.77 4312.15 6418.11 6015.02 5244.22 5585.14 7039.98 6456.58 4159.81 4960.64 5792.98 4385.81 4034.05 5690.96 5798.38 3862.91 4456.11 5366.11 3419.87 5039.12 4824.81 5769.14 5944.3 3563.14 5135.5 5347.9 5851.63 4504.52 5212.92 5615.84 4464.73 4928.85 6440.38 5556.0 5545.59 5494.28 5610.53 5755.15 4835.97 3926.11 4057.17 7066.96 4467.0 4994.65 5196.92 3787.08 5644.81 5334.36 4728.55 4929.6 5750.35 4489.99 4548.45 4658.11 4551.26 5730.61 7124.45 6358.93 5064.67 3703.49 5232.85 4062.56 3717.47 6200.63 6816.66 3217.67 5079.64 6163.54 5212.37 6003.78 2628.22 5058.51 4244.49 5036.98 5513.8 4521.75 4027.63 5350.88 5420.67 6413.15 6103.11 5048.55 6459.51 4024.31 5844.72 3992.97 5989.05 6040.74 4054.22 7228.94 5393.65 4961.99 6551.93 4595.12 3110.13 6484.43 4625.67 3485.54 4458.64 4583.52 3657.69 3492.83 6280.13 3684.15 5832.29 2606.51 4438.76 6006.89 3814.65 3965.3 5372.82 4983.3 7778.01 5127.82 5124.17 5805.1 4125.9 4064.58 4234.88 4384.28 4456.26 5113.6 4810.98 5091.22 6282.38 5640.72 5657.55 5727.79 5188.82 5043.14 4717.73 5072.5 3904.07 5748.9 3663.0 4954.81 3742.31 6304.49 5134.72 4608.34 6419.64 5464.83 2781.96 4431.23 5917.34 5601.55 4462.87 6545.99 5630.9 4554.68 4368.28 4692.32 4945.0 3127.83 4212.15 5114.07 4385.49 4263.18 7142.95 4383.68 6618.21 2617.39 5144.44 4051.18 5969.37 5034.69 4509.46 996.652 3538.53 4680.69 6500.49 5965.58 3352.34 4901.29 4050.03 4775.04 5188.53 4120.07 4882.66 3429.57 5569.2 5410.33 4642.74 6735.97 5305.59 5416.45 4330.58 5754.6 4955.16 3288.01 4904.51 4147.31 2202.77 5751.15 5950.88 4149.55 4441.22 5853.89 3380.69 4140.4 4386.8 5446.4 4725.01 5966.75 5510.9 4505.28 4883.63 4971.29 5510.45 4730.14 3994.39 6119.99 4618.73 4128.1 4446.58 4402.17 5401.4 5053.15 5910.86 6239.68 7320.78 4834.44 5782.43 4027.33 3873.92 5026.76 5023.41 4092.07 4546.44 4224.3 4184.21 4700.07 5273.37 4732.37 4985.3 5713.36 4749.18 5553.94 4546.96 5424.55 4921.1 3814.16 5695.79 3622.8 5414.58 5577.41 5740.98 4346.07 4013.86 4177.47 4218.16 2918.64 4140.92 4512.07 5984.8 5236.24 4585.04 5678.58 6570.35 4242.63 3269.54 4559.74 5836.26 6666.67 6063.44 4583.94 5046.31 4928.35 1937.5 3844.54 5849.53 4651.99 4420.11 5863.0 6127.39 4972.18 4607.18 4124.76 7200.89 4813.33 4952.52 3840.21 6746.66 4954.76 3908.56 5244.78 3636.15 6114.89 5135.63 6384.7 4355.83 6870.97 5351.86 6056.87 5474.01 6201.86 7554.58 5166.89 3639.44 5491.63 5725.37 3868.62 5138.33 3743.76 3425.69 6711.21 4236.86 5393.76 4941.02 3864.92 6010.59 2955.36 3668.93 4009.24 7541.76 4775.49 4681.29 3220.29 3845.9 4439.71 5667.51 4708.31 4198.9 5431.29 4833.67 5325.91 4213.05 5157.38 6203.03 5235.87 6089.45 5810.17 4966.07 4400.14 3669.32 4704.92 4316.0 4287.25 4392.75 4271.07 4420.6 5287.25 4770.51 4184.47 6511.37 4012.92 5759.79 4598.54 5218.42 4933.49 6139.64 4896.43 5463.06 4639.8 5260.52 3185.09 6102.49 5114.23 5495.0 7407.91 6015.22 4454.74 2904.46 4826.52 5120.92 4337.32 5241.75 4731.53 3763.9 4788.7 5084.5 5640.12 5329.76 3899.7 2403.72 5134.33 4147.49 4802.98 4833.55 4081.34 3646.95 7224.99 6334.53 4844.83 4749.96 5377.37 5652.87 5483.7 5018.69 3152.86 5952.38 3896.27 5807.52 5963.36 5230.02 5307.35 4342.18 5169.48 6016.08 4731.21 3124.7 6064.71 6102.98 6060.17 5153.18 4763.4 5902.67 5454.11 3779.45 5806.61 4983.1 3682.35 7123.04 3756.96 5906.57 4932.29 4990.23 3784.94 5499.59 3125.13 5749.6 4141.21 4174.44 4564.41 6331.74 5951.86 4252.18 4659.88 3791.41 5853.12 5702.4 5069.9 5473.89 3673.6 3306.84 5265.21 4657.24 5866.42 4762.1 3987.69 6502.99 6219.34 4191.01 4475.38 4589.06 4920.88 5890.25 4216.44 3999.5 5034.05 4816.51 5345.73 4770.63 3990.94 4756.8 5477.8 4462.35 3986.41 4241.68 3469.18 2945.34 4489.29 4301.93 5064.23 6061.85 5512.44 6449.06 4924.07 4685.4 6240.42 5146.0 5721.14 4577.73 4987.28 4918.64 6638.25 5078.59 4759.99 2646.13 5419.57 5162.67 5760.98 4705.68 5469.35 5384.86 4019.34 4658.24 5869.67 4311.48 4899.73 5457.66 6394.19 5973.89 5366.22 6193.73 5518.11 5087.14 3742.11 5712.35 5701.52 4743.9 6776.22 5321.17 3719.11 4467.13 3877.8 6273.6 5136.87 5024.32 4708.17 2741.2 5790.42 5784.37 3142.09 5591.77 5182.13 6110.48 6245.52 3954.77 6793.1 6016.87 4506.66 6715.73 5209.55 5426.4 5763.05 5129.68 5357.39 5076.84 5247.01 4208.37 4841.7 5685.74 952.938 4678.7 3450.07 6215.87 5191.26 6060.06 5544.27 3484.81 5308.33 4666.12 6023.07 5674.63 5340.05 5995.4 5322.11 5700.79 6710.14 4426.02 4711.15 5188.22 4841.23 2804.54 4357.11 5005.6 4176.32 6069.78 5532.75 6949.65 4095.83 3372.95 5676.61 5846.95 5268.15 5819.0 6347.72 3460.93 3200.6 4629.02 5914.5 6006.16 4288.45 5407.96 6206.98 6562.03 4815.47 4368.12 4365.58 5214.4 4636.53 3629.49 5766.05 5117.64 3835.81 4869.48 3623.19 4906.11 4387.39 4564.1 5825.55 5509.51 4848.14 3199.4 4316.5 5254.24 4192.21 3597.43 5144.56 4158.91 5311.55 3360.86 4869.25 5545.21 4333.87 5684.05 3667.93 5638.7 5813.79 4644.88 5293.13 7350.26 3768.46 5167.53 5003.3 4168.52 5800.81 5106.46 4068.31 5166.05 5077.29 5515.73 4850.5 5866.91 6405.69 2820.07 5679.74 4825.73 5288.33 6296.54 5797.21 6019.35 6740.35 6028.63 4550.92 5146.1 6485.77 3869.39 5960.5 5393.43 6896.55 4685.65 5377.01 6470.23 6506.63 4140.04 3495.3 4697.49 5735.08 4726.2 4750.81 3825.48 3810.68 4196.62 2809.19 4916.7 5486.89 7208.19 4549.51 3587.93 4975.85 5695.25 5323.95 5716.42 5701.63 4620.95 5368.93 4488.39 5124.86 4927.73 4602.57 3565.32 4608.62 4071.75 4626.72 5131.77 5549.71 4410.82 6443.99 3889.98 5193.58 5399.43 5695.44 3422.21 3916.42 5429.3 5510.96 6653.07 4745.16 4697.91 4584.81 5071.98 5719.79 4371.08 7261.51 4968.14 4914.03 5086.29 5527.13 5139.18 5551.43 3034.16 5049.99 4201.03 5001.87 4493.79 4279.44 4899.19 5058.34 4028.22 5575.11 5487.63 3852.82 4507.36 7145.73 5403.97 4795.08 6562.92 5501.73 3671.06 3612.44 7035.54 5233.76 4683.28 4217.36 6549.8 4851.18 4165.36 4871.77 5811.26 5062.77 4884.93 6075.99 5262.79 5927.2 4419.79 5407.69 5152.78 4117.9 4753.76 4781.9 4638.09 4441.91 5330.26 5939.22 4668.8 5125.17 4859.01 5524.45 7133.44 3953.26 4474.39 5459.92 4658.59 6478.35 5453.77 4104.04 5589.53 5593.79 5025.42 5196.08 4517.29 4495.75 4849.5 6171.01 5796.26 4603.04 4870.94 5271.88 6121.56 7168.2 3763.85 3419.07 5710.33 5344.44 6432.8 3186.07 4369.86 4967.51 5173.82 7212.97 5490.64 5034.34 3769.2 4507.46 5036.14 5603.68 4944.51 5610.95 5532.72 3220.8 5179.17 5579.39 5270.51 5148.1 5490.75 5224.64 5949.73 4312.48 5783.94 6370.33 4278.57 5081.08 6318.25 6864.06 6008.81 4932.56 5192.49 3487.31 6643.4 3918.94 4674.9 5461.72 6599.28 6224.85 4556.19 5368.66 5648.78 6875.73 5226.42 4697.24 4983.43 5117.52 6311.89 6734.39 5942.45 4150.76 5005.72 5368.52 5155.28 5388.73 5205.38 4764.83 4600.71 3957.38 4494.15 5035.71 4710.88 5300.17 4057.4 5534.23 6025.77 6815.96 5339.6 5828.25 4725.11 4215.05 4271.93 4604.1 5076.11 5990.75 5600.21 5467.51 4625.53 4096.47 5114.67 5353.66 2638.82 5030.33 5234.2 4965.24 6379.38 6257.79 5353.23 6229.83 4468.26 5578.18 5293.37 5933.54 5559.79 5879.24 4571.74 4096.86 3622.48 5001.51 5385.86 5115.42 4082.4 5482.76 3745.02 3720.7 4211.36 5698.53 3604.31 4450.49 3468.45 5635.32 4526.34 4316.45 5409.08 5042.75 4598.92 5241.22 6647.08 4979.52 3422.29 4407.79 5214.63 3495.68 3990.96 5352.24 7362.42 4202.77 5836.14 5473.05 4373.2 5537.34 5884.99 5726.42 7025.09 4433.12 3392.26 2549.95 4361.24 5138.93 6406.8 7086.69 6170.9 5833.78 4436.48 6081.3 5615.35 3967.76 6213.24 5987.88 3579.59 4228.53 6123.46 6142.88 5111.26 4574.54 4949.55 3132.34 1969.87 4841.28 5507.38 6889.5 4416.87 4052.43 4896.67 3934.11 5158.44 4466.22 6153.71 5917.08 5483.37 3626.86 6371.96 5322.07 5770.07 5101.6 4282.11 6589.13 2347.41 4542.16 2030.03 3543.37 5628.97 5527.27 5104.39 4612.13 5846.6 5327.05 5438.55 4434.65 5977.66 4523.81 5106.33 5198.94 4028.35 5464.05 2980.31 3148.79 5740.78 4796.12 5997.91 4742.82 6791.86 4209.0 4930.72 5728.58 4887.73 6297.99 5378.24 3856.73 5817.74 5887.71 5661.6 4827.61 5285.75 5385.03 5481.64 5673.75 5360.67 5968.54 6263.3 4501.05 4537.03 6548.29 4114.2 4326.06 5034.46 5757.29 5793.12 5469.17 5061.75 3769.24 6022.78 4087.32 6647.85 2569.12 4161.32 5161.74 7336.37 5099.9 6945.69 5118.86 4183.4 4304.64 4733.79 4823.06 5758.98 5254.49 5288.64 6828.8 6883.86 3350.99 6161.94 4065.28 5057.59 4461.14 5285.6 5615.06 5490.54 5203.54 4047.95 6142.94 5001.69 6581.56 3980.46 5383.9 3798.09 3886.56 4496.51 4511.05 6561.94 5259.21 5418.12 5934.05 4714.66 6771.18 4984.17 4656.01 4037.86 5602.62 5714.51 4938.33 4484.78 5157.73 5847.91 4934.66 4109.44 4903.84 4290.49 6688.53 5209.5 5065.74 5791.25 4873.23 6731.89 5410.6 5453.2 6348.93 6824.53 4332.64 5232.16 4422.23 4820.68 6031.22 5485.84 6424.77 5453.69 5918.95 4538.89 5689.56 6556.86 3242.31 6099.28 5372.25 3234.26 4169.15 4778.37 5134.17 4074.16 4904.35 5592.54 3247.97 5124.34 4904.37 4358.81 4651.64 5729.92 5016.46 6224.13 4761.84 3661.67 5517.65 4009.68 3303.49 4622.73 5256.75 6351.89 5932.28 2960.5 4975.32 4298.7 3902.48 6030.39 4905.53 3799.01 7392.65 5319.1 3757.23 4181.93 6570.43 3820.19 4979.5 4745.37 5939.29 5418.98 5575.11 4052.49 5061.74 5326.03 6189.67 4948.96 5256.82 4013.86 4061.87 5165.31 4288.5 5715.51 3721.69 3456.3 6074.39 5317.83 5092.93 4256.08 5881.93 2803.01 4444.0 4399.52 6182.19 5327.39 5781.62 4981.81 4138.59 4970.55 4621.33 4541.22 4946.08 3539.68 4984.01 6217.33 4557.1 6270.59 5927.1 6175.27 5876.51 4103.76 2932.52 4733.41 5264.83 3901.53 5136.51 6815.51 5313.86 4457.05 3989.26 3618.64 5703.84 4335.79 3530.82 5797.32 5432.04 3921.27 3702.45 5265.63 4898.29 4431.06 5730.2 4830.13 3494.16 5370.9 4529.77 4325.13 6172.27 5390.33 5078.73 5278.54 5729.0 5192.92 5275.57 4179.87 4786.66 5891.25 5370.1 5129.4 5114.51 4655.37 5585.25 5023.61 4672.86 6530.78 5560.23 3043.77 5237.55 3909.94 5088.64 6589.8 6920.92 3729.16 3783.36 3038.91 3922.28 4571.57 3445.92 5236.69 4586.82 6026.04 6200.05 5859.17 4034.41 5522.34 5771.98 4420.35 5717.45 5117.83 5268.27 4645.93 5448.64 4585.37 6417.61 5395.12 5783.69 5350.9 3483.61 6738.9 4460.89 4157.1 4554.24 3939.96 5910.66 7415.84 4637.3 5141.03 4840.44 8123.59 5765.14 4767.54 5121.08 2927.84 4696.03 6177.68 4605.39 2848.44 6045.26 6500.45 4907.55 4094.63 4286.61 4603.66 4969.68 6636.43 5431.14 6298.8 3689.24 5178.07 5189.91 5777.26 4171.02 7012.36 5028.06 4002.99 4886.99 5159.67 3161.1 5764.52 5684.88 6523.78 4645.86 4045.67 5620.88 4941.52 5900.0 4262.74 6241.77 3783.79 5317.19 4248.14 5279.19 4016.6 5821.49 7050.08 5580.44 5998.13 5095.52 4746.15 3720.38 4758.84 4731.37 3976.0 4068.41 6463.71 5059.37 5783.38 4139.39 6264.03 3562.8 4151.74 5192.82 4174.22 3573.84 4067.89 6294.09 5131.07 4121.07 5524.28 3133.28 5731.43 6353.81 3518.14 4150.44 5044.68 2649.69 5899.78 5000.74 5772.57 4813.81 5244.95 4634.25 5901.8 6351.48 3830.7 6210.0 5432.4 4262.52 5992.06 8052.53 4867.12 6044.01 6520.19 1458.87 5734.07 3997.68 6033.28 4819.83 4801.16 5071.38 5616.66 5688.77 5368.28 4698.7 6229.64 4220.43 6263.87 5743.8 6666.34 5084.76 6605.11 4757.87 3557.46 5971.95 5652.73 3979.46 6321.97 5151.19 6509.54 6119.0 3792.06 5128.59 4293.3 5587.3 3572.73 4864.38 3770.22 4390.64 5150.84 4608.01 5087.97 6005.95 4308.49 4930.17 4581.1 4745.44 4085.96 5762.82 7360.12 6223.98 5462.6 5617.29 3035.06 4262.19 4597.88 4878.93 6275.25 6892.33 4505.3 4452.36 4491.26 4511.34 4832.21 5009.21 4742.35 5394.79 5645.54 5264.08 4526.87 4691.01 4227.66 4594.89 5245.95 5821.42 4515.02 3463.53 6126.03 2970.24 4197.87 5105.54 5462.1 6032.45 3414.67 5444.36 4026.03 6908.32 3467.11 4817.75 6153.26 5637.53 3882.37 4095.4 5188.57 3873.79 5357.33 5252.37 4499.54 5037.58 7430.48 5640.67 5545.68 6080.69 4970.12 4967.93 6369.66 5973.57 5922.62 6241.48 5125.45 5957.82 6286.27 6327.54 5507.07 4802.36 5327.71 5466.13 5257.38 5075.23 4975.56 7282.36 3826.01 4645.91 5581.01 6834.92 6379.33 5130.57 5090.48 5402.45 3985.93 6412.84 6071.59 2589.19 6079.55 5485.61 4993.49 5310.33 6583.37 3688.83 3402.44 4848.98 4491.96 5184.98 4467.51 5339.82 4519.03 5460.57 5110.27 5703.34 4612.68 6668.98 6649.52 4232.33 4939.56 4747.68 5770.92 3093.38 4845.91 2002.78 5631.32 6322.0 5793.14 4609.65 5704.61 5410.73 4379.91 4574.03 5290.37 5850.38 7066.26 4730.97 3677.85 5214.71 4677.84 4811.11 4924.52 4866.8 6044.69 5658.05 6593.1 4000.51 6033.93 5011.37 2827.92 4441.44 4232.44 5336.61 5563.09 4848.15 4439.09 5523.81 4718.61 6697.45 5717.67 5515.59 3224.81 3775.38 4046.22 6457.89 4844.2 6572.17 3751.73 5555.89 4766.47 4871.1 5678.08 5872.45 4414.09 5191.29 3784.68 4188.16 3717.22 4654.92 2943.17 5286.55 4880.78 4322.56 5509.09 5625.02 5212.05 4829.77 3928.99 4444.92 6959.88 4125.75 5749.53 5247.73 5034.02 5582.28 5945.25 5181.31 3856.4 4696.06 4137.16 4937.36 5308.4 6581.13 4569.32 5537.61 6084.88 4397.06 4199.44 4053.12 4479.5 6261.67 3435.13 5065.78 4431.46 4521.42 3207.84 3977.98 6043.34 4128.93 4959.72 4712.17 3808.04 4723.71 4461.67 4405.61 6126.5 4034.88 6007.1 6345.2 5488.96 5128.03 3720.92 5087.3 4942.63 6139.74 4975.57 3057.3 6150.31 5873.62 4996.91 3920.44 5379.52 3768.62 5314.67 5563.47 5651.46 4066.36 3162.27 5516.37 5092.44 5432.2 4612.4 3312.3 4746.19 6381.58 3282.57 4798.13 5648.59 4630.5 6296.36 4432.32 4451.76 7885.41 5782.25 4104.97 4575.72 5114.61 6118.13 3374.62 4926.62 3917.09 6009.93 4083.1 5270.1 5130.56 4947.64 6305.9 6649.21 3470.69 4859.95 4132.08 5522.18 5223.1 3873.72 4592.49 3625.98 5479.86 6474.5 4702.32 4763.04 5971.9 3746.62 4532.67 4876.37 4769.62 5260.13 4649.5 4810.74 5985.75 5475.83 6189.29 5984.55 5672.46 5803.3 3228.27 4721.98 5252.82 3543.98 5056.26 5878.55 4014.44 6604.72 6002.77 3794.47 4610.55 4967.02 4614.49 5400.69 4462.5 5573.31 5004.68 4023.88 5348.11 5428.24 5108.84 3511.5 4520.14 5067.92 5357.14 3188.21 5919.27 4793.06 6637.38 6188.33 6111.23 6916.18 5786.06 4137.41 3868.69 5447.74 4450.51 6033.72 3692.99 3851.47 4966.74 4959.94 1635.31 5639.4 6185.73 4083.24 6520.96 3771.91 5217.62 6178.19 4616.81 5715.25 5212.2 4362.94 4611.21 5108.42 3354.94 4404.87 5237.27 5767.65 4750.76 4907.03 5497.27 4081.77 4948.21 4987.01 2181.29 4420.3 6332.64 6492.44 4613.32 3482.73 3996.93 4957.99 4063.26 4997.89 4542.62 5093.28 6131.52 6009.88 4699.77 4850.49 4981.55 5093.41 5144.23 6188.62 6153.07 4414.06 5944.52 4413.56 5050.2 2513.38 5316.05 4908.32 3995.08 5019.84 3900.93 5784.38 4149.17 4329.8 5728.27 3074.49 5202.33 3956.24 7558.99 3393.59 4142.1 5043.14 5333.04 5445.91 4521.99 4812.59 6842.54 7115.67 5675.45 3361.11 6038.56 2807.46 5599.16 4179.8 3488.34 4577.98 5658.35 5886.81 4487.51 4582.12 4295.25 7394.47 4729.45 4850.95 5374.09 6271.22 3421.81 5378.75 3920.64 6186.24 5822.7 3780.07 5466.49 4038.17 5007.41 4907.48 6213.74 2329.93 4369.87 6938.87 5412.07 5512.57 4806.99 4813.55 5856.43 3839.0 3465.03 5349.85 5799.86 5172.1 4469.82 6545.78 4870.14 2932.2 5105.72 5003.49 3964.03 4216.33 5832.72 5617.91 4721.2 4706.31 4202.12 2694.25 4735.99 4203.68 4739.56 5145.39 3352.46 6351.95 5195.09 5345.05 7679.2 4881.51 2626.41 4311.92 6729.99 6842.35 5464.34 3621.63 4777.96 5801.89 5908.57 7296.47 5742.39 4821.41 4924.53 5616.11 4433.23 4499.52 3874.12 4028.13 4457.73 6476.35 6260.58 4067.24 3053.19 6571.26 5580.95 6598.99 3549.92 4032.06 5246.81 5089.1 5888.95 5394.78 3463.34 5122.38 2853.68 5262.85 4998.37 5329.84 6559.82 3879.83 6565.95 5043.34 4246.24 6805.02 5354.48 5640.63 4900.26 6261.13 4167.55 4720.34 5244.47 4865.11 4731.16 5510.89 6470.87 4495.33 5282.67 4159.89 5178.55 5146.69 6203.24 6818.23 4488.41 6679.12 5652.19 5806.74 6578.62 6284.12 4796.04 5229.56 6011.4 4672.34 6052.22 5376.41 5003.63 4695.7 4747.24 4944.08 4082.01 5269.39 4305.35 5210.22 2451.27 3903.9 4444.95 5161.02 3124.49 6265.48 5003.81 6262.18 3818.37 4701.03 6225.05 5434.04 5200.1 3997.52 4444.54 5779.9 4909.74 5310.33 5299.03 6664.54 3922.98 5161.73 5259.48 5254.93 4803.4 6833.5 6608.94 2613.78 4780.16 3834.01 5738.37 4813.24 5759.19 3113.64 5847.27 4490.2 4304.75 5480.86 6139.9 4720.22 4313.38 5827.3 5250.56 3633.58 2468.16 6294.14 4339.97 5203.75 5169.09 4691.15 2459.88 4210.24 5470.67 5901.71 5225.11 5342.9 5252.22 5733.12 4962.35 6436.29 5402.81 4600.81 4919.13 4124.33 5168.97 5783.88 5002.38 6705.93 5449.09 5502.14 4605.61 4465.56 4131.08 5386.95 5747.9 3864.19 4287.93 5332.11 5315.71 6158.93 5081.65 4823.14 5438.5 4621.32 5699.4 3878.8 4698.94 3948.21 4286.84 5669.15 5296.05 5263.86 3330.85 5056.32 5533.52 4060.17 5410.33 5302.53 4380.86 5576.16 5648.02 3308.75 4604.34 4439.17 5677.42 4929.35 5606.22 3943.77 5242.38 6081.35 5459.52 4609.98 5566.5 5663.36 4276.59 5579.04 5125.53 5994.21 5403.81 5082.25 6964.78 4374.05 5036.84 4565.36 5813.68 4025.08 4008.67 3618.53 4770.21 8013.28 3846.55 3796.73 5417.07 3082.16 5656.84 6789.66 4739.41 5312.2 4706.59 5734.84 3982.31 4950.07 4582.24 2832.83 4084.87 6036.99 3010.1 3825.98 4589.22 5087.03 4667.84 3906.41 5584.64 4123.08 4512.6 4260.38 4636.45 4932.27 5638.51 6793.49 3563.33 6060.19 5536.0 6786.37 4333.23 4328.76 5145.13 5561.63 5940.5 4358.06 5093.51 5647.93 4280.92 6201.49 4696.92 5154.74 6437.99 6898.8 6540.57 4893.72 6004.72 4072.4 5373.78 5345.65 4489.18 5863.36 4632.75 5237.76 4994.98 6423.96 6058.13 5894.69 6988.4 6635.51 6051.35 4909.13 4287.61 3999.81 4867.13 4863.27 2701.42 5442.79 5051.39 6673.92 5151.68 4884.94 5362.15 4455.61 4738.72 4752.31 5240.97 5569.85 5405.6 3929.35 4884.93 4759.38 6960.97 4287.15 5282.51 5504.65 5669.41 5732.11 5040.9 5596.68 4868.66 4004.39 5159.9 5283.65 4644.68 2892.36 5981.54 5911.29 5416.41 4694.27 6760.64 2515.5 5177.88 5551.79 6981.47 3916.15 4474.96 4758.76 4790.63 5259.29 3584.05 4916.75 4818.53 5097.85 6189.04 6224.64 4221.03 3799.55 5082.66 4550.77 4337.93 3550.88 5201.3 4345.51 4048.73 6223.33 3860.8 3747.96 5611.29 4521.88 6568.45 5004.22 4601.54 7263.57 3832.09 5705.96 5267.65 5739.69 6632.04 5360.88 7360.62 4977.64 4985.45 4983.56 5699.51 2489.44 5499.37 4883.13 4836.76 4752.94 5551.09 3950.53 4501.1 5581.47 4384.91 6550.61 4987.01 4713.56 6094.34 6779.82 5543.67 6210.48 6377.45 4182.05 4502.12 3255.93 6853.07 6327.61 4633.59 5733.59 5575.8 5268.93 3695.72 6874.6 5106.9 5306.31 5523.96 4223.53 4733.37 4535.94 3037.72 4523.9 5126.08 5604.0 3760.4 4951.02 3919.47 4602.7 3783.35 4037.16 6395.63 4987.48 5943.61 4248.58 5479.17 5020.37 4542.25 4414.23 5233.88 4849.21 4785.55 3793.83 5245.4 6189.81 5367.05 4449.73 5647.11 4088.72 3945.62 3743.85 6236.46 5342.17 6379.3 5015.67 3795.63 5189.4 4576.71 6538.04 4894.15 6157.59 5848.41 4090.28 4246.83 5438.6 7370.52 4726.5 5467.05 3724.23 5103.3 4963.88 5888.94 4727.98 4122.2 5175.88 4516.26 4790.16 3509.34 3647.26 3731.58 3166.37 5369.42 5207.08 5205.53 4714.52 4587.19 5543.05 6028.89 5333.16 4888.17 5755.98 5392.85 5077.2 4274.05 5275.27 4277.54 5529.09 4531.46 5925.82 5448.68 4739.5 4072.95 4491.62 3865.5 
SCALARS Velocity float 1
LOOKUP_TABLE default
1.16303 1.44212 1.20856 1.20242 1.20221 1.23391 1.19921 1.20407 1.19441 1.19711 1.2097 1.22533 1.20889 1.23342 1.22787 1.21804 1.24935 1.27199 1.22643 1.19631 1.31985 1.50573 0.993546 0.918203 1.06735 1.02678 1.11819 1.34436 1.23763 1.44418 1.27292 1.19965 1.19178 1.29128 1.19178 1.21353 1.19178 1.19178 1.20694 1.19178 1.19178 1.21046 1.21117 1.19178 1.19172 1.19141 1.20453 1.19178 1.21606 1.19178 1.19178 1.19178 1.19178 1.19178 1.19178 1.19178 1.19178 1.2144 1.21604 1.19178 1.21705 1.21777 1.20757 1.20382 1.23292 1.21377 1.21731 1.19178 1.21223 1.22098 1.19166 1.23594 1.23655 1.19177 1.19155 1.2266 1.22701 1.21733 1.18407 1.21452 1.20126 1.19188 1.20646 1.2258 1.20373 1.19799 1.20189 1.1904 1.19269 1.19177 1.21236 1.2238 1.19077 1.19246 1.19168 1.19204 1.18961 1.19201 1.19628 1.19899 1.21634 1.2054 1.18049 1.2032 1.22433 1.2264 1.24567 1.21391 1.22438 1.22522 1.21315 1.2496 1.2451 1.27144 1.19178 1.19178 1.32484 1.32279 1.21138 1.22945 1.19178 1.21479 1.19979 1.31979 1.3287 1.21809 1.48056 1.32339 1.35936 1.00107 1.01306 1.07658 0.899359 1.19493 1.20147 1.0278 1.17428 1.26678 1.23518 1.22277 1.33969 1.23619 1.18369 1.19101 1.19981 1.20086 1.20782 1.19178 1.19208 1.19221 1.19178 1.19212 1.19212 1.19178 1.2148 1.19178 1.19178 1.19178 1.2261 1.21775 1.19178 1.19178 1.19927 1.20745 1.19814 1.19024 1.21674 1.22704 1.2233 1.2317 1.1922 1.19062 1.20722 1.21869 1.19202 1.23319 1.18619 1.18605 1.23004 1.20536 1.19178 1.19178 1.22475 1.19991 1.18773 1.2126 1.21224 1.23234 1.22951 1.19959 1.2066 1.19422 1.19178 1.19138 1.21828 1.22081 1.21521 1.19178 1.1912 1.24199 1.2412 1.19178 1.19178 1.23786 1.23191 1.21252 1.23861 1.19178 1.18636 1.29469 1.25588 1.22164 1.24491 1.24408 1.23695 1.2597 1.21673 1.19479 1.19773 1.26533 1.26935 1.23834 1.22437 1.2172 1.30705 1.24157 1.19178 1.22952 1.20408 1.20654 1.13767 0.953591 1.01393 1.51385 0.810277 0.910404 0.941184 1.09332 1.17288 0.888849 1.09179 0.65248 1.56427 1.11084 1.24933 1.08447 1.16746 1.19178 1.19093 1.13905 1.19102 1.21624 1.17215 1.21017 1.18342 1.21694 1.19096 1.20466 1.19267 1.21236 1.19178 1.19178 1.21086 1.19178 1.20187 1.20598 1.19174 1.20621 1.2168 1.19323 1.18622 1.19415 1.19833 1.20783 1.18561 1.23233 1.22565 1.2327 1.21043 1.22678 1.21624 1.21121 1.22765 1.23313 1.19157 1.19125 1.22149 1.23896 1.23868 1.2041 1.23459 1.23314 1.19049 1.23616 1.20278 1.19832 1.23129 1.22372 1.20373 1.18413 1.18305 1.20082 1.24284 1.22169 1.21487 1.1998 1.20415 1.19069 1.16038 1.25458 1.16763 1.21883 1.20097 1.27105 1.23712 1.25275 1.22856 1.24733 1.25616 1.23803 1.26773 1.19382 1.22784 1.23305 1.23393 1.23012 1.23861 1.1959 1.31082 1.19178 1.14719 1.324 1.19178 0.950933 0.951739 0.712776 0.738408 0.7242 0.831569 1.07389 0.797462 1.15469 1.18097 1.20837 1.19003 1.17438 1.21784 1.19617 1.21148 1.18943 1.2058 1.19937 1.23501 1.2337 1.19596 1.23454 1.23681 1.20789 1.19296 1.21211 1.21399 1.18935 1.19269 1.19012 1.21726 1.21537 1.22165 1.19178 1.1925 1.19033 1.20016 1.20706 1.21085 1.18574 1.2123 1.22545 1.23645 1.24372 1.22358 1.20731 1.21317 1.21669 1.21695 1.22044 1.1367 1.21181 1.20821 1.20029 1.23491 1.21722 1.23368 1.22521 1.18918 1.16394 1.23514 1.18503 1.20855 1.2449 1.2193 1.20382 1.24118 1.19713 1.18454 1.21612 1.19178 1.19178 1.19178 1.20341 1.20202 1.23182 1.23334 1.19648 1.19276 1.16947 1.21265 1.22444 1.24002 1.2006 1.19496 1.21141 1.19752 1.23557 1.25632 1.19642 1.24312 1.24396 1.18321 1.21537 1.23252 1.23872 1.18456 1.25758 1.19534 1.25232 1.15695 1.21025 1.20833 1.24027 1.19511 1.23934 1.16415 1.27365 0.908378 0.965236 0.8582 0.707595 0.744128 0.683504 0.97371 0.860417 0.869821 1.0912 1.03899 1.21964 1.19918 1.24099 1.15894 1.21083 1.14395 1.20241 1.19542 1.23418 1.21061 1.20837 1.19178 1.22308 1.19204 1.19875 1.22625 1.21489 1.21359 1.22808 1.23302 1.20605 1.18443 1.16656 1.22469 1.23312 1.24546 1.22246 1.20131 1.19451 1.21205 1.21749 1.17309 1.20985 1.17574 1.18498 1.20328 1.14654 1.17631 1.20811 1.24216 1.20749 1.21858 1.23953 1.20072 1.19732 1.24224 1.23944 1.22356 1.22494 1.19992 1.165 1.19161 1.14323 1.23054 1.17922 1.17 1.22626 1.2369 1.19955 1.19646 1.17438 1.20386 1.21101 1.2149 1.20301 1.27198 1.24014 1.24089 1.14419 1.19449 1.15102 1.20206 1.30817 1.19178 1.16411 1.21049 1.2399 1.19402 1.20939 1.22262 1.10934 1.20553 1.08771 1.14446 1.10149 0.90108 0.942219 0.897397 1.09587 0.627906 0.959519 0.945997 1.1764 1.2329 1.21522 1.25981 1.15549 1.1609 1.20133 1.14221 1.21728 1.2308 1.19258 1.16562 1.23228 1.19939 1.19304 1.20517 1.186 1.1833 1.22506 1.22617 1.22325 1.21999 1.21229 1.21474 1.2151 1.19862 1.1899 1.24456 1.21884 1.20293 1.16637 1.18689 1.21454 1.20639 1.20813 1.24354 1.21494 1.1943 1.189 1.19945 1.1707 1.20722 1.16731 1.16036 1.19517 1.19668 1.18602 1.1795 1.1973 1.17541 1.23364 1.20893 1.22597 1.20839 1.20812 1.2015 1.18932 1.20035 1.2216 1.22353 1.18992 1.20624 1.19815 1.19178 1.23081 1.19282 1.16357 1.12174 1.22127 1.23984 1.18588 1.16577 1.19196 1.20927 1.22806 1.15698 1.20892 1.16367 1.25785 1.20168 1.193 1.20572 1.19457 1.20977 1.2416 1.24883 1.18346 1.2041 1.10891 1.1808 1.17385 1.1661 1.24114 0.835965 1.05987 0.998322 1.14246 1.14397 0.690916 0.914648 0.996096 1.11602 1.20401 1.13722 1.19567 1.16961 1.19487 1.17299 1.20352 1.23096 1.1827 1.19032 1.22898 1.22655 1.15937 1.22041 1.21028 1.19178 1.19821 1.21696 1.1099 1.19703 1.27389 1.18493 1.20196 1.20619 1.23994 1.22095 1.19324 1.18464 1.196 1.2143 1.16869 1.20621 1.1547 1.19162 1.19079 1.19871 1.1794 1.17558 1.21889 1.1875 1.19756 1.21115 1.18238 1.20703 1.20241 1.18061 1.22118 1.235 1.18161 1.1996 1.15925 1.23409 1.19355 1.22842 1.25031 1.20333 1.17004 1.23268 1.14327 1.1777 1.20073 1.1614 1.2042 1.20877 1.20004 1.17584 1.165 1.22169 1.18126 1.30447 1.30346 1.1924 1.23976 1.17037 1.20417 1.21672 1.12984 1.18723 1.1522 1.19379 1.16956 1.19178 0.997757 1.11594 1.17717 1.18753 1.26805 1.13798 1.15774 0.674405 0.964321 1.00503 1.07564 1.12836 1.12561 1.21265 1.19863 1.18801 1.17457 1.1996 1.19638 1.13271 1.17149 1.19539 1.22827 1.20746 1.18184 1.2139 1.22349 1.20846 1.20268 1.15059 1.21549 1.2163 1.20333 1.20246 1.21177 1.21988 1.22709 1.21667 1.23149 1.1442 1.23249 1.14719 1.20806 1.21158 1.18438 1.20264 1.18963 1.18853 1.18857 1.18764 1.20681 1.16995 1.2188 1.22189 1.17391 1.18397 1.19708 1.18088 1.18618 1.17829 1.19434 1.20755 1.18216 1.20603 1.21674 1.2079 1.19782 1.16528 1.24451 1.22324 1.20963 1.22659 1.17823 1.19246 1.18097 1.19178 1.15531 1.17413 1.22492 1.25103 1.20984 1.178 1.19325 1.19412 1.15638 1.16361 1.18887 1.1561 1.2045 1.20587 1.20389 1.19404 1.21957 1.16069 1.1852 1.14853 1.19453 1.24624 1.16516 1.18297 1.17784 1.30464 1.23787 1.20629 1.25255 1.20409 1.21336 1.21429 1.21019 1.06171 1.176 1.07968 1.13109 1.27712 1.13632 1.0519 1.09837 1.14836 1.15686 1.1844 1.12754 1.17838 1.14178 1.17029 1.19731 1.19301 1.1847 1.2107 1.21812 1.17824 1.18076 1.22305 1.19305 1.19113 1.19178 1.14641 1.21379 1.12076 1.19097 1.19222 1.20032 1.21131 1.20546 1.21106 1.2194 1.214 1.19428 1.1739 1.16716 1.14869 1.19199 1.18835 1.19116 1.19159 1.18715 1.17654 1.19224 1.18601 1.15616 1.20807 1.18831 1.14993 1.23455 1.17243 1.15027 1.19533 1.18109 1.1847 1.19178 1.16887 1.17465 1.20383 1.19146 1.21152 1.20969 1.19846 1.20843 1.1627 1.21859 1.19413 1.23887 1.19994 1.20539 1.19178 1.24589 1.1509 1.22144 1.17328 1.19379 1.28621 1.20503 1.1624 1.07896 1.17777 1.25371 1.17706 1.1565 1.19862 1.20401 1.18589 1.13056 1.14409 1.23817 1.19501 1.17067 1.18542 1.17649 1.1798 1.16668 1.23621 1.26428 1.22088 1.16037 1.20075 1.21216 1.20468 1.21106 1.22167 1.21254 1.21824 1.19672 1.09954 1.18836 1.16644 1.06016 1.14657 1.19802 1.05122 1.23959 1.24093 1.09592 1.11061 1.14047 1.17807 1.13986 1.13182 1.19506 1.1578 1.18395 1.17687 1.19452 1.17599 1.17418 1.21027 1.17261 1.21787 1.22356 1.24155 1.18666 1.19116 1.17036 1.21629 1.22492 1.18871 1.20281 1.20415 1.21204 1.21792 1.19141 1.21765 1.16933 1.21639 1.19178 1.19178 1.19201 1.18351 1.15808 1.18117 1.17564 1.16266 1.15718 1.19355 1.20058 1.20638 1.15713 1.2386 1.19247 1.24568 1.15979 1.24382 1.17731 1.14639 1.17468 1.20185 1.183 1.17471 1.17797 1.19128 1.20819 1.21013 1.21243 1.19835 1.21528 1.19085 1.23863 1.17814 1.18339 1.15361 1.24442 1.1455 1.21491 1.17336 1.18228 1.2078 1.2229 1.23922 1.19537 1.18294 1.17298 1.15437 1.19851 1.19198 1.17224 1.20047 1.20853 1.15979 1.20986 1.24014 1.27556 1.17272 1.17431 1.22195 1.28341 1.21293 1.15771 1.15741 1.20424 1.21546 1.22685 1.18561 1.23958 1.20389 1.22514 1.18012 1.19178 1.17943 1.09603 1.07905 1.22336 1.1282 1.11507 1.1328 1.1332 1.18335 1.16072 1.19068 1.17446 1.15314 1.20054 1.21602 1.17427 1.18484 1.14348 1.21423 1.15554 1.21326 1.24154 1.18264 1.21804 1.22745 1.19155 1.1976 1.18798 1.20062 1.21085 1.21631 1.21235 1.211 1.17738 1.16529 1.20427 1.2394 1.19317 1.17731 1.18839 1.20166 1.15131 1.17295 1.18882 1.17521 1.22651 1.14757 1.21732 1.20645 1.19178 1.19178 1.24202 1.17959 1.16925 1.19601 1.17871 1.21587 1.20837 1.22151 1.20923 1.20998 1.19553 1.20784 1.18726 1.18794 1.23697 1.18482 1.24607 1.14248 1.17907 1.2257 1.19824 1.16221 1.20444 1.23655 1.21129 1.19178 1.1605 1.17215 1.15573 1.18451 1.17278 1.2032 1.17557 1.26857 1.17153 1.14525 1.21124 1.1227 1.10344 1.20817 1.17329 1.14911 1.1896 1.18766 1.20731 1.18169 1.25296 1.19544 1.21783 1.16606 1.17147 1.1821 1.2595 1.2163 1.14728 1.13972 1.17259 1.08713 1.18996 1.18404 1.16199 1.14703 1.1655 1.18036 1.2205 1.20048 1.16751 1.17752 1.15995 1.29169 1.17968 1.14488 1.21244 1.21126 1.21045 1.22214 1.20874 1.1679 1.19903 1.20966 1.20891 1.19634 1.21933 1.15262 1.20309 1.2303 1.17826 1.21208 1.1607 1.1583 1.26813 1.18668 1.21483 1.19454 1.20593 1.14696 1.08336 1.23846 1.2001 1.19388 1.19682 1.23302 1.18309 1.21667 1.17901 1.20487 1.21428 1.20939 1.21658 1.20821 1.19504 1.20146 1.22221 1.21465 1.21421 1.11581 1.24175 1.18285 1.23231 1.16227 1.20416 1.16497 1.15774 1.20965 1.16593 1.20569 1.22945 1.14299 1.16003 1.19316 1.17097 1.19794 1.1931 1.17735 1.12732 1.11936 1.16696 1.24242 1.14728 1.16694 1.1271 1.1751 1.1986 1.31494 1.18917 1.17402 1.20976 1.21264 1.18297 1.20417 1.22575 1.18435 1.26712 1.19265 1.21882 1.15577 1.21172 1.18043 1.26528 1.2228 1.15968 1.16829 1.23762 1.17418 1.16168 1.15247 1.17338 1.13659 1.1661 1.1696 1.18259 1.18475 1.21848 1.18992 1.16525 1.20195 1.19339 1.175 1.26201 1.14294 1.18068 1.19206 1.19776 1.21349 1.18572 1.15338 1.2086 1.15118 1.19703 1.20954 1.20083 1.1875 1.18007 1.16983 1.22687 1.16573 1.21817 1.15858 1.15318 1.15572 1.20192 1.22105 1.18972 1.14649 1.20988 1.19178 1.19178 1.18927 1.21577 1.20278 1.20622 1.21891 1.18846 1.2077 1.16846 1.18444 1.20867 1.21487 1.21594 1.21074 1.19278 1.22935 1.21377 1.19178 1.19178 1.14453 1.19233 1.16401 1.20331 1.1464 1.20832 1.22018 1.18117 1.14838 1.20333 1.22405 1.21273 1.15455 1.17405 1.19772 1.24687 1.12949 1.1624 1.19178 1.12709 1.19177 1.16075 1.19853 1.19241 1.19955 1.17497 1.22034 1.21078 1.18081 1.26906 1.18774 1.25032 1.17274 1.25767 1.20776 1.18788 1.23701 1.16956 1.16596 1.19229 1.18217 1.18295 1.16988 1.17214 1.16846 1.13519 1.17263 1.20222 1.18079 1.2131 1.19407 1.16778 1.19178 1.17407 1.2589 1.14142 1.17711 1.17607 1.19198 1.19486 1.21935 1.16523 1.1372 1.14673 1.14992 1.13941 1.15522 1.19941 1.20637 1.18509 1.17462 1.27771 1.23008 1.20928 1.19331 1.23326 1.21272 1.16199 1.13538 1.26752 1.2087 1.26156 1.18124 1.22318 1.20527 1.21389 1.20977 1.21451 1.1652 1.1927 1.19121 1.17541 1.20075 1.21289 1.23594 1.20618 1.20345 1.2096 1.11984 1.13872 1.22444 1.24192 1.2622 1.16465 1.14426 1.19863 1.21607 1.14522 1.17795 1.17687 1.18149 1.21557 1.1903 1.14228 1.18637 1.21618 1.20454 1.1408 1.20329 1.19268 1.16971 1.1413 1.12627 1.20854 1.12316 1.15914 1.15132 1.1762 1.17445 1.195 1.17436 1.19365 1.13571 1.15646 1.15706 1.18719 1.16941 1.266 1.15519 1.26128 1.22861 1.23774 1.16254 1.18565 1.18192 1.18257 1.19178 1.17235 1.20152 1.18209 1.19684 1.18677 1.16902 1.17247 1.17643 1.25732 1.17512 1.18185 1.1665 1.20348 1.12869 1.15992 1.15925 1.13788 1.16368 1.19464 1.19178 1.2098 1.18437 1.18061 1.18546 1.17398 1.1813 1.19912 1.16741 1.19116 1.14789 1.13462 1.18184 1.21575 1.18743 1.18242 1.11256 1.13457 1.23121 1.19178 1.17336 1.21845 1.1835 1.21249 1.20868 1.2223 1.17591 1.1933 1.17439 1.18856 1.20523 1.22971 1.25231 1.24913 1.23586 1.1913 1.20543 1.14063 1.23002 1.2534 1.29783 1.2265 1.23728 1.15958 1.23368 1.19178 1.17769 1.17619 1.20321 1.21466 1.19178 1.18622 1.24082 1.21473 1.13548 1.09768 1.17309 1.25532 1.25198 1.14477 1.1927 1.15127 1.16976 1.18841 1.14912 1.19005 1.13607 1.144 1.22236 1.17787 1.17312 1.18065 1.15837 1.25717 1.18632 1.23058 1.20265 1.14504 1.14994 1.23455 1.17455 1.17756 1.17059 1.15406 1.19279 1.18886 1.19182 1.15473 1.16629 1.22058 1.19406 1.16898 1.18162 1.18063 1.19221 1.17687 1.18576 1.16252 1.17653 1.19128 1.15854 1.2233 1.10788 1.21167 1.22434 1.17919 1.18785 1.17447 1.19128 1.19316 1.16959 1.20645 1.19884 1.29414 1.17946 1.21057 1.16431 1.21216 1.1472 1.21686 1.15858 1.21391 1.18255 1.21349 1.22388 1.2128 1.20807 1.16416 1.15134 1.26542 1.24395 1.12963 1.20502 1.18538 1.19973 1.23084 1.2588 1.2342 1.23205 1.23694 1.18201 1.21976 1.09893 1.16628 1.19507 1.22012 1.23072 1.17149 1.18481 1.21598 1.10157 1.19399 1.14435 1.19916 1.19178 1.06788 1.06843 1.20154 1.13175 1.18678 1.13772 1.18113 1.1919 1.14939 1.18024 1.19178 1.19717 1.10604 1.12585 1.14068 1.1992 1.17837 1.14684 1.25268 1.16874 1.25006 1.20173 1.19178 1.23633 1.17953 1.18334 1.15602 1.20786 1.18951 1.19481 1.18491 1.17494 1.17863 1.18263 1.14509 1.17029 1.17763 1.16669 1.18932 1.17839 1.19225 1.19648 1.19072 1.17833 1.17631 1.14496 1.16103 1.115 1.19912 1.19178 1.19178 1.18288 1.18566 1.19152 1.18802 1.18936 1.20702 1.18517 1.23092 1.19452 1.18761 1.2214 1.23028 1.19134 1.19644 1.17673 1.14396 1.19178 1.20841 1.18706 1.21109 1.23043 1.17875 1.22534 1.17815 1.11853 1.20806 1.30103 1.16562 1.15449 1.19702 1.19449 1.23154 1.25538 1.22565 1.18364 1.24138 1.17162 1.2249 1.18908 1.16291 1.17387 1.19473 1.18766 1.17853 1.1703 1.17362 1.18062 1.149 1.19178 1.18674 1.23514 1.15532 1.16385 1.13781 1.19874 1.21209 1.17738 1.16904 1.17385 1.19363 1.14615 1.13039 1.19178 1.19178 1.17036 1.19178 1.21354 1.13348 1.22726 1.2093 1.218 1.17795 1.18665 1.20994 1.20036 1.19337 1.1877 1.17518 1.1484 1.18568 1.17598 1.16224 1.1706 1.15339 1.16076 1.19608 1.17566 1.13269 1.20021 1.1882 1.18216 1.1578 1.18454 1.16889 1.17291 1.09357 1.18688 1.18579 1.19508 1.20692 1.19178 1.19178 1.18308 1.18644 1.21208 1.21708 1.18091 1.22995 1.18856 1.18586 1.20846 1.24544 1.142 1.18498 1.21525 1.22007 1.15362 1.15224 1.20212 1.33254 1.19423 1.21959 1.19878 1.24216 1.14957 1.15166 1.23427 1.2715 1.15195 1.15484 1.16478 1.2064 1.19505 1.19021 1.22025 1.24466 1.22809 1.19242 1.19664 1.16318 1.21451 1.23877 1.17877 1.17482 1.39995 1.21461 1.15742 1.17229 1.17311 1.17207 1.16508 1.23105 1.14505 1.19446 1.24167 1.23456 1.20326 1.13634 1.19027 1.20216 1.16721 1.17908 1.16703 1.10159 1.16759 1.14282 1.14305 1.14383 1.17337 1.19606 1.12991 1.21996 1.20028 1.19061 1.18893 1.19972 1.21065 1.18757 1.20682 1.20595 1.19178 1.1903 1.28823 1.26617 1.1617 1.16265 1.20959 1.19694 1.16243 1.16484 1.1838 1.19676 1.1875 1.1918 1.19212 1.17987 1.18904 1.1872 1.15155 1.16872 1.1535 1.19409 1.17766 1.18539 1.1933 1.19935 1.19103 1.19798 1.16439 1.18857 1.23956 1.20881 1.17442 1.16516 1.21922 1.21152 1.17696 1.19173 1.20212 1.24464 1.25384 1.24372 1.23451 1.21997 1.07603 1.18001 1.32933 1.18772 1.21611 1.1936 1.09091 1.22349 1.23194 1.12471 1.23745 1.21738 1.13441 1.14935 1.16617 1.19982 1.19424 1.16468 1.23164 1.17859 1.21754 1.18024 1.20209 1.21913 1.16234 1.1779 1.16349 1.26029 1.26163 1.16631 1.1627 1.17626 1.16389 1.23915 1.16783 1.24551 1.24034 1.23201 1.18839 1.18126 1.11648 1.19234 1.20254 1.06316 1.26817 1.22531 1.11789 1.18328 1.21231 1.1832 1.21105 1.21263 1.18241 1.22096 1.20855 1.18945 1.18115 1.21071 1.17577 1.2069 1.23284 1.17939 1.19147 1.19312 1.17192 1.11651 1.18772 1.16789 1.17844 1.1856 1.16029 1.20422 1.19742 1.18818 1.18547 1.19063 1.19178 1.19137 1.21255 1.18197 1.18482 1.21241 1.1991 1.22628 1.10923 1.20381 1.13572 1.207 1.22027 1.18018 1.23461 1.20389 1.19225 1.18922 1.18356 1.19344 1.25209 1.20806 1.24534 1.23151 1.22748 1.23859 1.23447 1.09396 1.2206 1.22821 1.14691 1.2741 1.18145 1.27552 1.17426 1.29786 1.171 1.19154 1.20621 1.20041 1.19325 1.15271 1.22216 1.19598 1.21289 1.19304 1.1666 1.12523 1.19891 1.21074 1.16728 1.18177 1.20254 1.24476 1.2539 1.19092 1.21848 1.21382 1.23947 1.20327 1.15339 1.23797 1.18284 1.16204 1.16167 1.1163 1.19178 1.20765 1.1756 1.17778 1.25202 1.21967 1.20093 1.23857 1.18497 1.19628 1.29872 1.20783 1.18415 1.13154 1.22163 1.1967 1.17914 1.1634 1.18385 1.20452 1.19454 1.23233 1.18099 1.1971 1.21183 1.17484 1.09769 1.30177 1.1642 1.17839 1.18527 1.15928 1.20263 1.17448 1.19457 1.18534 1.20671 1.18588 1.17847 1.21988 1.19323 1.21848 1.21151 1.20575 1.18939 1.22025 1.22179 1.20731 1.21369 1.16685 1.23581 1.22191 1.18695 1.17807 1.20832 1.21567 1.18589 1.22198 1.20717 1.23033 1.22995 1.22755 1.24603 1.09803 1.23959 1.26242 1.18311 1.23826 1.13728 1.10118 1.20983 1.19178 1.27606 1.18453 1.18896 1.191 1.18782 1.21967 1.21382 1.20496 1.24557 1.23628 1.16315 1.20376 1.20867 1.20753 1.20563 1.19934 1.23452 1.24989 1.19194 1.2187 1.2258 1.24399 1.20102 1.09893 1.22784 1.1777 1.15446 1.11772 1.1726 1.1825 1.19861 1.20234 1.20953 1.18911 1.21778 1.25946 1.20053 1.24264 1.18986 1.28587 1.20048 1.1995 1.2101 1.19178 1.22242 1.18087 1.18083 1.15682 1.18185 1.20392 1.16659 1.17692 1.19371 1.21119 1.17137 1.19266 1.19178 1.19178 1.18416 1.18727 1.2124 1.20364 1.17473 1.18305 1.1796 1.21198 1.16828 1.21892 1.22273 1.19292 1.21318 1.19604 1.17294 1.22427 1.22128 1.21693 1.19931 1.21395 1.16241 1.23693 1.21397 1.18416 1.17477 1.22933 1.2028 1.17118 1.22039 1.20445 1.23277 1.19178 1.21401 1.21079 1.14425 1.27234 1.28564 1.19465 1.18893 1.16804 1.24199 1.09553 1.11672 1.27926 1.21862 1.18494 1.18748 1.17228 1.20839 1.21677 1.13346 1.14806 1.18394 1.24754 1.19178 1.16858 1.20752 1.28782 1.17403 1.20989 1.22499 1.24264 1.18853 1.20866 1.22512 1.23722 1.19433 1.19178 1.22438 1.1833 1.21554 1.12084 1.18219 1.21503 1.21117 1.21001 1.19696 1.22836 1.24023 1.27039 1.23329 1.19989 1.24497 1.1936 1.20481 1.19178 1.19772 1.1628 1.17867 1.14859 1.17819 1.18091 1.17266 1.16215 1.1677 1.21105 1.19087 1.20975 1.17319 1.19129 1.19179 1.19178 1.18895 1.18704 1.21009 1.20998 1.19053 1.20685 1.18578 1.20967 1.16909 1.23473 1.20451 1.19511 1.20103 1.19609 1.1491 1.22958 1.19189 1.183 1.18348 1.2118 1.15656 1.19583 1.22156 1.1955 1.19811 1.25232 1.20183 1.17503 1.22197 1.25351 1.24072 1.17056 1.2289 1.16118 1.15661 1.26674 1.2074 1.18371 1.15224 1.24528 1.2543 1.06145 1.26321 1.203 1.1828 1.19467 1.17814 1.17657 1.18559 1.25266 1.21803 1.15426 1.19739 1.22172 1.18356 1.2045 1.21358 1.23783 1.19227 1.20333 1.21689 1.22142 1.18366 1.21645 1.23565 1.19555 1.20127 1.19628 1.22223 1.20749 1.22817 1.2194 1.20155 1.23301 1.20689 1.19021 1.20208 1.1946 1.14954 1.17917 1.17655 1.14753 1.17474 1.19896 1.17092 1.20748 1.21067 1.20427 1.17943 1.19178 1.19178 1.19178 1.19247 1.209 1.20961 1.19481 1.22764 1.20315 1.18514 1.20926 1.17922 1.2311 1.19187 1.19814 1.19014 1.1483 1.17865 1.23157 1.18349 1.18694 1.15997 1.20064 1.21207 1.19035 1.19554 1.17474 1.19146 1.19178 1.19756 1.2601 1.15481 1.17977 1.22817 1.19345 1.21552 1.23596 1.19785 1.18835 1.20875 1.14911 1.20832 1.24044 1.36005 1.08949 1.11755 1.20048 1.17418 1.18898 1.19656 1.17894 1.12644 1.17552 1.17665 1.20357 1.18362 1.16639 1.18942 1.20854 1.18983 1.21813 1.19976 1.2352 1.20535 1.21838 1.16857 1.21384 1.1896 1.25191 1.20704 1.23035 1.21906 1.22737 1.22182 1.1874 1.19826 1.21975 1.20732 1.18867 1.21931 1.20953 1.2019 1.22089 1.19761 1.19877 1.17476 1.20291 1.13462 1.13532 1.1625 1.16034 1.20917 1.18165 1.14356 1.17596 1.18206 1.22826 1.22359 1.20027 1.18228 1.19223 1.19155 1.19178 1.19746 1.20998 1.20703 1.18019 1.22728 1.19178 1.18254 1.19178 1.19178 1.18732 1.18491 1.18674 1.19552 1.19032 1.20883 1.17429 1.17498 1.21454 1.19927 1.16677 1.19785 1.21981 1.18503 1.20048 1.18552 1.19567 1.18835 1.19003 1.19725 1.26458 1.14043 1.17045 1.20796 1.19481 1.21931 1.21015 1.05877 1.21175 1.16134 1.18293 1.16402 1.22482 1.20666 1.20204 1.27099 1.19263 1.18152 1.19441 1.17977 1.17331 1.11386 1.1342 1.40452 1.16976 1.20269 1.15093 1.16417 1.1889 1.20577 1.15898 1.21916 1.18186 1.2381 1.21173 1.21897 1.19284 1.22119 1.19828 1.19326 1.20395 1.20987 1.18741 1.15591 1.22202 1.20226 1.20149 1.19349 1.21749 1.19519 1.19822 1.19349 1.17983 1.21449 1.19173 1.22631 1.21514 1.11672 1.15849 1.17 1.21105 1.1861 1.19178 1.20562 1.20986 1.15306 1.24243 1.22071 1.20381 1.19275 1.19253 1.19168 1.19201 1.20594 1.21118 1.19946 1.18479 1.22452 1.22574 1.19885 1.17792 1.1889 1.19178 1.19178 1.19178 1.20926 1.20323 1.20373 1.25895 1.17273 1.18951 1.20724 1.17476 1.18199 1.18661 1.18965 1.17838 1.19643 1.19484 1.21615 1.18068 1.17004 1.18795 1.26918 1.14516 1.1788 1.20884 1.21229 1.18598 1.20664 1.04493 1.195 1.26202 1.16358 1.22532 1.19178 1.18121 1.161 1.19787 1.17516 1.17684 1.19596 1.17785 1.1772 1.15041 1.16387 1.19642 1.15014 1.18502 1.20664 1.15286 1.21375 1.16567 1.24939 1.22414 1.22061 1.18826 1.21092 1.17455 1.10562 1.19481 1.19298 1.23573 1.24984 1.21926 1.20086 1.14888 1.16269 1.1982 1.18408 1.17209 1.21559 1.18341 1.07865 1.1846 1.17478 1.19673 1.13985 1.16802 1.23607 1.08688 1.15849 1.19878 1.20821 1.18473 1.2089 1.19855 1.17713 1.25684 1.21811 1.2092 1.19849 1.18051 1.18527 1.19189 1.2231 1.15387 1.21181 1.20045 1.2209 1.22606 1.22429 1.27533 1.19573 1.32359 1.20134 1.21584 1.19652 1.21555 1.20597 1.17088 1.18271 1.18951 1.20712 1.17463 1.17771 1.18232 1.18106 1.19854 1.23154 1.16433 1.18257 1.18185 1.14885 1.20373 1.17782 1.22581 1.2004 1.19287 1.19421 1.24278 1.16257 1.22458 1.20872 1.18319 1.16245 1.17131 1.21501 1.18499 1.18866 1.16061 1.23593 1.1367 1.15367 1.1549 1.19271 1.16301 1.18511 1.2125 1.20298 1.20601 1.14095 1.17457 1.13715 1.24561 1.21598 1.1634 1.20878 1.22094 1.23768 1.19168 1.19853 1.27472 1.18731 1.2095 1.205 1.14448 1.16064 1.19446 1.18272 1.16575 1.1885 1.18499 1.09064 1.12596 1.20131 1.19404 1.18507 1.1582 1.14758 1.24387 1.07736 1.16036 1.23856 1.20485 1.20291 1.18976 1.19657 1.17844 1.19208 1.21351 1.21197 1.19273 1.19255 1.19153 1.19178 1.19178 1.15558 1.18108 1.21502 1.16474 1.21896 1.22389 1.28731 1.28536 1.19332 1.19977 1.20511 1.25123 1.21714 1.16811 1.13539 1.19496 1.1772 1.20463 1.1837 1.18855 1.19807 1.17522 1.15787 1.16314 1.19879 1.11881 1.12805 1.18562 1.18064 1.18134 1.15188 1.20442 1.16907 1.16004 1.20847 1.19348 1.19137 1.23426 1.20082 1.2238 1.15253 1.23051 1.16657 1.17531 1.16034 1.18406 1.18508 1.17516 1.23496 1.15948 1.23624 1.16471 1.16307 1.19874 1.16862 1.28263 1.24844 1.20063 1.13843 1.22601 1.13844 1.22747 1.21541 1.14972 1.21385 1.22187 1.23548 1.34065 1.25909 1.10474 1.18606 1.22239 1.14857 1.1811 1.19028 1.18489 1.16783 1.19178 1.18401 1.12931 1.16302 1.20608 1.18246 1.19866 1.15267 1.28619 1.11242 1.04626 1.24846 1.17556 1.21208 1.179 1.18667 1.2305 1.22706 1.20725 1.21599 1.19178 1.19655 1.18072 1.20932 1.17084 1.19516 1.28043 1.21896 1.19178 1.19178 1.20658 1.2684 1.28914 1.15905 1.20225 1.2398 1.19506 1.19446 1.25146 1.2198 1.14597 1.18184 1.17065 1.21361 1.2099 1.2108 1.21197 1.17118 1.14612 1.20193 1.21794 1.15672 1.17456 1.17729 1.11404 1.1085 1.18115 1.1638 1.10982 1.171 1.22836 1.20904 1.21685 1.141 1.16343 1.18067 1.18088 1.17796 1.17308 1.1752 1.19272 1.18628 1.23581 1.18768 1.17538 1.22084 1.16988 1.2765 1.23575 1.1997 1.18207 1.28537 1.169 1.21898 1.23126 1.21834 1.2332 1.22623 1.19178 1.27963 1.20598 1.12671 1.25163 1.17164 1.20827 1.18886 1.16735 1.16521 1.26889 1.17465 1.14204 1.19471 1.21339 1.19326 1.20667 1.19178 1.29701 1.23026 1.23137 1.23929 1.19282 1.21069 1.17759 1.18518 1.22532 1.22923 1.19967 1.21381 1.15992 1.19643 1.20728 1.19484 1.19351 1.2139 1.28042 1.17301 1.22676 1.15194 1.18 1.26964 1.19104 1.18756 1.19944 1.24741 1.19894 1.25332 1.2238 1.1956 1.27879 1.17058 1.21757 1.20803 1.19178 1.19178 1.17055 1.20226 1.19215 1.20727 1.18072 1.18284 1.15529 1.1935 1.19004 1.1476 1.12005 1.10624 1.18746 1.15651 1.11695 1.17727 1.22476 1.18891 1.19307 1.22306 1.0878 1.09336 1.16149 1.20862 1.21433 1.22344 1.18406 1.18493 1.1814 1.23742 1.33105 1.19923 1.22425 1.19771 1.18536 1.26091 1.21197 1.18719 1.19045 1.22179 1.23506 1.22291 1.18673 1.23087 1.19178 1.21058 1.2256 1.18108 1.23099 1.18866 1.17441 1.26848 1.16904 1.19745 1.24945 1.14365 1.2157 1.13119 1.18885 1.19687 1.18661 1.20132 1.15805 1.21776 1.26847 1.17274 1.23738 1.23924 1.23234 1.19969 1.2101 1.17864 1.18184 1.22786 1.2264 1.21445 1.23184 1.19078 1.19173 1.19584 1.19942 1.20239 1.20753 1.22205 1.19591 1.19178 1.20434 1.17723 1.25171 1.27053 1.22176 1.20206 1.21973 1.23682 1.24645 1.21559 1.21852 1.17038 1.16068 1.20413 1.20309 1.20592 1.14822 1.16801 1.18052 1.19272 1.18991 1.17184 1.16981 1.19514 1.14105 1.13135 1.08864 1.21511 1.18183 1.15012 1.18337 1.19674 1.18952 1.15029 1.18574 1.07463 1.08337 1.14371 1.1691 1.20064 1.21248 1.17221 1.19266 1.17881 1.17816 1.17969 1.33483 1.20237 1.21858 1.20753 1.1732 1.25106 1.28439 1.16014 1.18434 1.20243 1.24686 1.24837 1.18461 1.22138 1.21107 1.2224 1.20428 1.18852 1.17736 1.17413 1.26903 1.2276 1.21271 1.28447 1.13726 1.22636 1.19235 1.18026 1.22147 1.18981 1.18759 1.19481 1.21972 1.26411 1.17248 1.23632 1.2129 1.22994 1.19015 1.20985 1.20786 1.18108 1.23408 1.24538 1.19916 1.24342 1.27503 1.18899 1.19642 1.1965 1.18743 1.20057 1.22293 1.21246 1.26181 1.23572 1.20098 1.23129 1.25804 1.21484 1.19395 1.23808 1.24204 1.22632 1.19208 1.17172 1.23337 1.16834 1.2031 1.2067 1.19768 1.18468 1.20254 1.21454 1.18953 1.20222 1.16813 1.17621 1.19178 1.19693 1.19304 1.22032 1.26021 1.19155 1.19178 1.17629 1.19277 1.14944 1.16316 1.17408 1.19495 1.20942 1.15852 1.18442 1.20651 1.19178 1.19153 1.17978 1.20676 1.18479 1.32992 1.18217 1.18367 1.21103 1.17515 1.25561 1.14711 1.15405 1.18654 1.19707 1.23458 1.15738 1.1797 1.21098 1.20547 1.21334 1.19238 1.17199 1.16931 1.17757 1.16686 1.23321 1.22424 1.20219 1.13667 1.23385 1.23581 1.1822 1.21267 1.19908 1.23848 1.21361 1.16001 1.17592 1.16146 1.22223 1.18606 1.22375 1.1814 1.19254 1.20757 1.21285 1.21657 1.26215 1.18149 1.24862 1.31028 1.19178 1.19598 1.19752 1.18792 1.19677 1.23999 1.21904 1.17077 1.23651 1.19449 1.24576 1.25617 1.21186 1.18115 1.25705 1.23956 1.20933 1.23311 1.17972 1.21452 1.21975 1.19498 1.21109 1.18177 1.21109 1.20076 1.20803 1.17703 1.19452 1.16066 1.14265 1.22742 1.20577 1.17246 1.20086 1.26155 1.08575 1.20517 1.16198 1.17765 1.14744 1.17687 1.17299 1.18856 1.21769 1.15061 1.12165 1.14889 1.21459 1.18403 1.18463 1.23568 1.21534 1.19178 1.18618 1.17713 1.20409 1.17978 1.23481 1.21992 1.15499 1.16782 1.20036 1.22333 1.16206 1.19648 1.21386 1.20446 1.19711 1.17948 1.15597 1.16217 1.13538 1.19878 1.20018 1.22367 1.20009 1.14164 1.13661 1.21084 1.17712 1.17832 1.20489 1.18972 1.21023 1.1531 1.17926 1.14137 1.12406 1.16506 1.21141 1.17333 1.19178 1.23439 1.22046 1.2097 1.26412 1.15209 1.22919 1.25644 1.3022 1.21911 1.15641 1.22149 1.20292 1.18748 1.24055 1.2358 1.19023 1.23601 1.15667 1.24737 1.28081 1.19837 1.19656 1.1634 1.24493 1.20946 1.1871 1.28556 1.23952 1.20309 1.19641 1.22445 1.1466 1.23372 1.17699 1.20344 1.17348 1.1904 1.16031 1.14682 1.20888 1.21155 1.17705 1.18791 1.23052 1.2662 1.19924 1.1641 1.17491 1.15598 1.16389 1.16945 1.17778 1.20675 1.1677 1.15734 1.22451 1.2101 1.19759 1.17814 1.22809 1.20085 1.20094 1.18673 1.15705 1.20001 1.18716 1.21388 1.22946 1.17065 1.13998 1.19227 1.20057 1.14426 1.19413 1.21281 1.1998 1.19076 1.17137 1.14651 1.16424 1.12819 1.201 1.20343 1.22331 1.19815 1.14679 1.12831 1.23676 1.19355 1.16695 1.19077 1.19133 1.17571 1.23305 1.15008 1.10773 1.16965 1.15722 1.18158 1.2014 1.24426 1.24503 1.23455 1.21553 1.31778 1.1879 1.26399 1.13062 1.21446 1.17456 1.2231 1.1445 1.21715 1.14825 1.27398 1.21751 1.17047 1.22678 1.22142 1.26793 1.21573 1.21593 1.20399 1.27902 1.17747 1.18513 1.19178 1.23398 1.20448 1.19196 1.22323 1.19178 1.22267 1.18906 1.21147 1.16315 1.17479 1.36676 1.14791 1.20768 1.21011 1.16984 1.17501 1.18845 1.26349 1.19012 1.16291 1.1685 1.15898 1.15581 1.16887 1.17325 1.19178 1.16441 1.16319 1.1576 1.23587 1.21327 1.17488 1.18867 1.21076 1.19579 1.19346 1.13533 1.17135 1.20958 1.17698 1.2464 1.24909 1.16433 1.19146 1.15928 1.11362 1.18522 1.18684 1.18753 1.21415 1.17554 1.14249 1.08662 1.13512 1.20579 1.20138 1.22201 1.19613 1.16164 1.1296 1.1925 1.18926 1.17483 1.19046 1.18203 1.14039 1.22167 1.14255 1.11688 1.17799 1.1557 1.15465 1.19742 1.23949 1.24404 1.22681 1.20068 1.27984 1.21206 1.32721 1.26047 1.20871 1.19178 1.26614 1.28893 1.16879 1.25032 1.16618 1.16634 1.26389 1.18721 1.16465 1.19092 1.25993 1.22484 1.21088 1.2071 1.27177 1.14379 1.19598 1.21448 1.22908 1.20253 1.18996 1.22603 1.20233 1.22118 1.18424 1.19773 1.18873 1.1946 1.39066 1.2009 1.2114 1.17841 1.16822 1.16679 1.18278 1.25863 1.17546 1.1557 1.16993 1.16166 1.1554 1.20317 1.19429 1.12867 1.18778 1.20213 1.15741 1.24247 1.1946 1.15807 1.11039 1.20678 1.17607 1.20108 1.14337 1.11578 1.16505 1.16502 1.24647 1.11751 1.19582 1.19081 1.13145 1.16169 1.14911 1.22183 1.17172 1.21779 1.17149 1.13096 1.19118 1.14645 1.10338 1.20118 1.24413 1.20338 1.20043 1.144 1.20932 1.22417 1.19664 1.19108 1.17835 1.26793 1.25313 1.09705 1.17459 1.18112 1.15321 1.12953 1.19491 1.23373 1.19735 1.22462 1.17522 1.26308 1.20272 1.09628 1.21148 1.25104 1.22395 1.21326 1.27618 1.16442 1.17254 1.28103 1.20731 1.20641 1.1669 1.17932 1.24203 1.24206 1.21024 1.06316 1.19241 1.20263 1.21803 1.22151 1.19954 1.18734 1.21998 1.23129 1.20483 1.18108 1.19612 1.15491 1.18932 1.20745 1.19383 1.17913 1.18311 1.16921 1.17226 1.18404 1.19178 1.17729 1.16285 1.17088 1.16203 1.16113 1.20074 1.15464 1.15427 1.20427 1.2343 1.18426 1.17451 1.17682 1.154 1.11005 1.20546 1.18284 1.17917 1.15361 1.13944 1.14673 1.20821 1.03972 1.10483 1.18357 1.15842 1.12454 1.21541 1.12151 1.20625 1.16582 1.20258 1.17849 1.1446 1.15103 1.15426 1.11151 1.20288 1.18719 1.18172 1.21264 1.14448 1.19217 1.21271 1.16841 1.17559 1.20451 1.26559 1.25026 1.13073 1.20746 1.20214 1.16035 1.11441 1.19344 1.22477 1.22372 1.19287 1.19178 1.17556 1.19721 1.1877 1.22297 1.34437 1.10263 1.28923 1.24634 1.21913 1.28619 1.15642 1.16042 1.25958 1.2143 1.19897 1.15763 1.17376 1.2399 1.2521 1.1441 1.13495 1.19871 1.20503 1.20553 1.20686 1.19787 1.19923 1.1855 1.24978 1.20544 1.17283 1.187 1.16618 1.18816 1.18014 1.18692 1.18138 1.18248 1.16399 1.17359 1.14698 1.1805 1.18653 1.21181 1.16846 1.17956 1.16237 1.20173 1.16301 1.1585 1.21108 1.16572 1.19179 1.16733 1.17707 1.16442 1.11629 1.19867 1.17964 1.13844 1.17222 1.14141 1.17848 1.18566 1.18423 1.13322 1.21896 1.23975 1.09306 1.21574 1.1279 1.18707 1.12426 1.19178 1.16514 1.14757 1.13295 1.16559 1.12622 1.2117 1.18778 1.18451 1.21431 1.15006 1.19871 1.20868 1.15305 1.17711 1.12776 1.16996 1.17613 1.19689 1.17816 1.23182 1.1548 1.1194 1.19128 1.22499 1.18583 1.20988 1.18286 1.16748 1.15386 1.27717 1.16974 1.3161 1.2532 1.22087 1.23329 1.10416 1.20779 1.08337 1.24149 1.22322 1.19441 1.15396 1.17057 1.2233 1.24736 1.1126 1.2727 1.18386 1.19022 1.19925 1.16412 1.21198 1.19587 1.15533 1.28633 1.20592 1.17163 1.18091 1.16829 1.16479 1.18538 1.17857 1.34635 1.18622 1.16034 1.17034 1.22007 1.13104 1.18625 1.1951 1.1684 1.19096 1.16236 1.20136 1.17151 1.16208 1.21071 1.17643 1.17667 1.17791 1.18877 1.15525 1.22065 1.18987 1.17521 1.13076 1.16853 1.14265 1.19198 1.1901 1.19134 1.19151 1.24501 1.2345 1.16296 1.20889 1.2024 1.17757 1.1918 1.19648 1.16771 1.19975 1.15174 1.19908 1.20892 1.20882 1.18479 1.20963 1.19846 1.16024 1.19688 1.1924 1.14376 1.1589 1.1311 1.16839 1.17344 1.13309 1.19691 1.23118 1.14873 1.11845 1.14485 1.18037 1.17646 1.15125 1.13535 1.20734 1.19223 1.25328 1.23168 1.19707 1.28676 1.16367 1.13294 1.09995 1.23665 1.18819 1.19082 1.16765 1.17158 1.21585 1.23873 1.1025 1.29902 1.11919 1.13726 1.19523 1.16446 1.19905 1.21631 1.16322 1.29138 1.1755 1.16945 1.14087 1.16951 1.16312 1.19441 1.17297 1.19219 1.18798 1.17072 1.17095 1.21812 1.14634 1.18672 1.19725 1.16591 1.19475 1.16832 1.14649 1.17561 1.15927 1.1857 1.19303 1.17396 1.17456 1.17348 1.17228 1.14701 1.20907 1.16532 1.15902 1.16021 1.15717 1.13485 1.19121 1.18465 1.27922 1.1945 1.23364 1.21281 1.17883 1.16194 1.19735 1.16667 1.22682 1.1942 1.20309 1.16341 1.20779 1.20151 1.23639 1.18615 1.20268 1.18093 1.2417 1.20315 1.13449 1.20121 1.17599 1.1432 1.1459 1.12334 1.28484 1.1715 1.14473 1.21636 1.22788 1.13885 1.10683 1.18082 1.22127 1.17355 1.15796 1.13132 1.14752 1.14384 1.1973 1.18768 1.11553 1.22074 1.15829 1.14431 1.16709 1.11683 1.15549 1.22066 1.17157 1.15792 1.17628 1.16132 1.19236 1.1622 1.11663 1.16056 1.11414 1.12894 1.1843 1.19572 1.12569 1.20572 1.14474 1.20168 1.16704 1.17117 1.14954 1.17213 1.16169 1.20094 1.16445 1.1857 1.17725 1.16482 1.17116 1.19179 1.16878 1.18395 1.20024 1.16661 1.19178 1.16918 1.15262 1.18853 1.17127 1.18053 1.17801 1.1454 1.20307 1.19159 1.18466 1.20671 1.18739 1.1697 1.17223 1.13751 1.18548 1.19172 1.19178 1.21909 1.21541 1.18997 1.19921 1.16205 1.17156 1.24358 1.17088 1.12087 1.17943 1.18568 1.20467 1.23616 1.19558 1.19883 1.17834 1.19177 1.19717 1.14995 1.21578 1.17641 1.19186 1.17209 1.11021 1.2683 1.18389 1.17077 1.24584 1.1469 1.12616 1.11606 1.18972 1.1937 1.16567 1.14545 1.12059 1.13264 1.14757 1.18702 1.18452 1.08402 1.06007 1.1867 1.18735 1.37674 1.09336 1.11103 1.19178 1.1242 1.15068 1.18854 1.15465 1.1714 1.14783 1.1664 1.19178 1.11947 1.11666 1.21341 1.23197 1.1576 1.11844 1.14516 1.22165 1.17008 1.20645 1.14462 1.17535 1.16577 1.20769 1.16542 1.19445 1.17546 1.14743 1.18249 1.19837 1.18977 1.17494 1.19815 1.16245 1.17667 1.16826 1.23473 1.17932 1.18977 1.17415 1.17224 1.12881 1.19903 1.18768 1.19158 1.2064 1.2003 1.17372 1.19627 1.16991 1.15676 1.14051 1.1887 1.18372 1.16765 1.21018 1.19783 1.17027 1.23804 1.16888 1.238 1.17134 1.14567 1.16753 1.18814 1.19636 1.23525 1.19766 1.19296 1.18308 1.198 1.20103 1.18929 1.22113 1.18701 1.2234 1.19203 1.1712 1.2611 1.20099 1.20059 1.13841 1.19936 1.11657 1.1098 1.20255 1.19029 1.13722 1.14166 1.12821 1.15691 1.18409 1.18847 1.14302 1.08075 1.15522 1.16325 1.17864 1.1762 1.18988 1.09306 1.18215 1.08691 1.15537 1.15881 1.1633 1.15088 1.1391 1.15727 1.1822 1.14427 1.10782 1.20944 1.19178 1.15729 1.15028 1.1823 1.20882 1.18637 1.12253 1.15444 1.18206 1.1633 1.20143 1.15533 1.19353 1.17138 1.15999 1.19011 1.18077 1.19626 1.16826 1.19194 1.15868 1.17738 1.16419 1.23544 1.18012 1.18531 1.19082 1.18644 1.13245 1.19258 1.19178 1.19193 1.19558 1.16386 1.20205 1.16205 1.15766 1.19015 1.20228 1.17969 1.18509 1.19 1.18531 1.15429 1.21423 1.1593 1.18603 1.24123 1.16806 1.21456 1.16326 1.20079 1.19304 1.20167 1.22936 1.19153 1.1866 1.17533 1.20628 1.16151 1.19362 1.22544 1.16039 1.19178 1.1874 1.20395 1.20224 1.14484 1.19491 1.19178 1.14018 1.229 1.11411 1.12532 1.19767 1.18841 1.1342 1.12897 1.12228 1.18995 1.24257 1.18928 1.15128 1.02415 1.16969 1.19035 1.14626 1.17377 1.23025 1.13703 1.18823 1.12597 1.15552 1.15836 1.1654 1.13416 1.16488 1.12972 1.14686 1.15294 1.11476 1.16933 1.2326 1.14496 1.16472 1.15058 1.18621 1.20181 1.15934 1.14377 1.16537 1.19178 1.16356 1.19891 1.19178 1.1868 1.18741 1.17031 1.15732 1.25333 1.19429 1.17123 1.19403 1.16581 1.21344 1.16864 1.1633 1.1713 1.18847 1.19137 1.19178 1.17624 1.19984 1.1952 1.16636 1.19678 1.18024 1.16239 1.21531 1.15801 1.16043 1.16639 1.16934 1.17551 1.1873 1.18494 1.1781 1.16696 1.18308 1.18747 1.17856 1.21825 1.17993 1.19719 1.15302 1.19547 1.22872 1.22407 1.16521 1.19304 1.17577 1.21435 1.19687 1.19591 1.21816 1.21131 1.15453 1.18196 1.17262 1.14635 1.18858 1.18222 1.13622 1.19178 1.17418 1.13695 1.19847 1.16162 1.13269 1.11387 1.18149 1.24381 1.1866 1.16852 1.1277 1.12592 1.15869 1.05144 1.13718 1.16648 1.22516 1.15177 1.1111 1.13635 1.13813 1.14883 1.13263 1.16775 1.16861 1.0778 1.2018 1.16006 1.14576 1.1447 1.13506 1.17028 1.19312 1.21215 1.19744 1.16728 1.14276 1.16133 1.16478 1.18858 1.20084 1.19178 1.18521 1.18507 1.17106 1.1542 1.19655 1.19429 1.18466 1.19713 1.17549 1.19276 1.16985 1.19319 1.16116 1.16555 1.20993 1.17092 1.19312 1.20525 1.14092 1.18911 1.21451 1.1573 1.16087 1.16337 1.16427 1.17629 1.17672 1.17302 1.17614 1.17081 1.16795 1.16051 1.17587 1.18462 1.24185 1.17587 1.20906 1.1259 1.12479 1.16928 1.15813 1.19579 1.17986 1.21316 1.20216 1.18996 1.16171 1.18863 1.1763 1.15957 1.17173 1.18883 1.18503 1.18899 1.17265 1.20704 1.17948 1.19309 1.19178 1.18806 1.14026 1.1243 1.1794 1.18854 1.19967 1.16227 1.15646 1.12421 1.15129 1.07283 1.18804 1.16761 1.25424 1.10962 1.13123 1.10797 1.13899 1.12192 1.17305 1.12383 1.15752 1.18589 1.06433 1.19178 1.14645 1.13911 1.14547 1.17452 1.1376 1.19132 1.19613 1.19259 1.18051 1.18424 1.16409 1.19294 1.18379 1.17975 1.18382 1.18903 1.18067 1.18715 1.19049 1.19178 1.18311 1.19213 1.18147 1.19414 1.16872 1.19178 1.16205 1.16355 1.19588 1.16402 1.18816 1.18591 1.19208 1.14017 1.17657 1.19488 1.21818 1.15773 1.15922 1.16164 1.15223 1.17162 1.16721 1.16217 1.15027 1.14686 1.16858 1.1938 1.17907 1.22717 1.14889 1.21353 1.15415 1.14411 1.18237 1.21512 1.15135 1.16673 1.1977 1.17894 1.21541 1.20497 1.18419 1.19561 1.17198 1.17069 1.19468 1.16963 1.15896 1.17081 1.17452 1.18028 1.19086 1.20995 1.20154 1.17229 1.20129 1.19882 1.19178 1.21087 1.15046 1.12932 1.15469 1.09896 1.19214 1.15755 1.08014 1.12495 1.14244 1.11707 1.2048 1.17372 1.25043 1.11881 1.14341 1.12921 1.097 1.14446 1.18204 1.12982 1.1416 1.2774 1.0779 1.15283 1.13476 1.13543 1.15432 1.17552 1.15107 1.19517 1.16996 1.19508 1.17468 1.19175 1.18967 1.19055 1.17625 1.18359 1.19178 1.1861 1.19144 1.19178 1.19178 1.18139 1.19178 1.18198 1.19423 1.19392 1.16907 1.19605 1.16221 1.16294 1.19604 1.15761 1.17121 1.18428 1.19426 1.1396 1.17923 1.19844 1.21959 1.16965 1.17329 1.15762 1.15915 1.14116 1.16015 1.12855 1.13916 1.14197 1.14574 1.1359 1.15666 1.17731 1.11912 1.15772 1.17116 1.2229 1.15891 1.15484 1.19241 1.17734 1.21061 1.15687 1.17459 1.17642 1.17247 1.15854 1.17089 1.17985 1.18466 1.20666 1.20507 1.17074 1.19178 1.19178 1.16062 1.13948 1.14805 1.1059 1.19555 1.15757 1.07731 1.12563 1.13992 1.10919 1.19039 1.17103 1.2037 1.14565 1.16763 1.16549 1.11609 1.16237 1.14804 1.12567 1.11762 1.18199 1.15472 1.12846 1.13245 1.12067 1.15266 1.17588 1.16819 1.1921 1.1711 1.19543 1.17514 1.18452 1.17708 1.18857 1.19279 1.17344 1.18585 1.19599 1.1871 1.19155 1.19178 1.19226 1.18013 1.18763 1.18335 1.16957 1.19779 1.19178 1.19178 1.18278 1.17516 1.173 1.18231 1.18632 1.19244 1.14581 1.18546 1.14771 1.20121 1.1726 1.14895 1.1367 1.15969 1.12727 1.13242 1.11533 1.14328 1.13288 1.1565 1.15786 1.15751 1.18348 1.14979 1.15806 1.16835 1.19386 1.21608 1.15427 1.19178 1.17038 1.20056 1.15165 1.17122 1.18035 1.19328 1.16681 1.15007 1.19178 1.16938 1.18401 1.17274 1.18682 1.18184 1.1956 1.18401 1.19785 1.17298 1.1405 1.14325 1.10888 1.19215 1.1567 1.07233 1.10973 1.1385 1.09742 1.18503 1.17407 1.18573 1.13895 1.13933 1.19178 1.19178 1.16065 1.13992 1.12117 1.12321 1.19178 1.17096 1.15763 1.16947 1.11902 1.15706 1.17627 1.19178 1.18726 1.16973 1.19242 1.17588 1.18566 1.19178 1.18769 1.19311 1.17606 1.17276 1.19571 1.18348 1.19103 1.19529 1.19605 1.17842 1.18691 1.18277 1.19389 1.16995 1.18073 1.19735 1.17574 1.17429 1.17719 1.18163 1.18985 1.16274 1.1542 1.1913 1.17264 1.16568 1.13986 1.12248 1.14823 1.16109 1.12273 1.12994 1.11332 1.14226 1.15471 1.17021 1.19421 1.15668 1.18451 1.19178 1.18012 1.15531 1.19172 1.19091 1.14998 1.18394 1.16749 1.19178 1.15106 1.17221 1.1794 1.15822 1.17226 1.14786 1.19051 1.16371 1.17539 1.17592 1.19567 1.18076 1.18086 1.19178 1.18378 
SCALARS Stress float 1
LOOKUP_TABLE default
-1.32359e+12 -179194000000.0 -19279900000.0 -17924000000.0 -16601300000.0 -26335000000.0 -16759500000.0 -31286700000.0 -21610000000.0 -16814200000.0 -23690000000.0 -61440000000.0 -24799800000.0 -57439400000.0 -87450300000.0 -76826500000.0 -47525800000.0 -26992300000.0 -24776000000.0 -40367600000.0 -106981000000.0 -1.12587e+12 -1.20838e+12 -1.538e+12 -853053000000.0 -485953000000.0 -386949000000.0 -1.33532e+12 -1.28734e+12 -160082000000.0 -100104000000.0 -28159700000.0 -12549700000.0 -73197500000.0 -12549700000.0 -37055800000.0 -12549700000.0 -12549700000.0 -16957300000.0 -12549700000.0 -12549700000.0 -15398000000.0 -27536600000.0 -12549700000.0 -12956800000.0 -13852800000.0 -18273900000.0 -12549700000.0 -27794300000.0 -12549700000.0 -12549700000.0 -12549700000.0 -12549700000.0 -12549700000.0 -12549700000.0 -12549700000.0 -12549700000.0 -16598900000.0 -32563600000.0 -12549700000.0 -17093000000.0 -42962000000.0 -32216400000.0 -28054700000.0 -56329800000.0 -16485500000.0 -40273400000.0 -12549700000.0 -19114400000.0 -37034800000.0 -13364200000.0 -27246200000.0 -51908500000.0 -12594000000.0 -12922600000.0 -17418300000.0 -60341900000.0 -33528100000.0 -27709700000.0 -41334400000.0 -21944800000.0 -20809300000.0 -23741700000.0 -35837100000.0 -26400900000.0 -13978000000.0 -28225400000.0 -15608900000.0 -13707300000.0 -13139700000.0 -40593900000.0 -27546900000.0 -12825700000.0 -14389700000.0 -16337000000.0 -16840000000.0 -17021200000.0 -17612100000.0 -17489000000.0 -17904400000.0 -34988900000.0 -42002000000.0 -29378600000.0 -36588200000.0 -52304200000.0 -71028900000.0 -158595000000.0 -82979000000.0 -73358300000.0 -64828000000.0 -45325600000.0 -78532400000.0 -213776000000.0 -108621000000.0 -12549700000.0 -12549700000.0 -42709200000.0 -142317000000.0 -20279100000.0 -52238300000.0 -12549700000.0 -56021600000.0 -102794000000.0 -259652000000.0 -142152000000.0 -336039000000.0 -711739000000.0 -964935000000.0 -296719000000.0 -1.89871e+12 -2.53373e+12 -300826000000.0 -1.69716e+12 -914967000000.0 -2.73659e+12 -2.66942e+12 -1.84933e+12 -1.42231e+12 -793253000000.0 -259339000000.0 -194397000000.0 -177826000000.0 -31629900000.0 -13829100000.0 -13974700000.0 -76523600000.0 -28167200000.0 -12549700000.0 -12619500000.0 -14339600000.0 -12549700000.0 -12633700000.0 -12804700000.0 -12549700000.0 -41040100000.0 -12549700000.0 -12549700000.0 -12549700000.0 -43651000000.0 -17921200000.0 -12549700000.0 -12549700000.0 -13933700000.0 -35191300000.0 -15261300000.0 -17856800000.0 -54876100000.0 -39885600000.0 -126029000000.0 -125252000000.0 -20289600000.0 -85041100000.0 -36014500000.0 -126494000000.0 -20348200000.0 -85275100000.0 -20857800000.0 -22070800000.0 -75975600000.0 -17114300000.0 -12549700000.0 -12549700000.0 -46938300000.0 -27622500000.0 -13509000000.0 -25962700000.0 -44597400000.0 -45421600000.0 -82405700000.0 -48823700000.0 -33197100000.0 -15415700000.0 -12549700000.0 -12607600000.0 -87504900000.0 -54899200000.0 -15061800000.0 -12549700000.0 -12642400000.0 -21030400000.0 -86488000000.0 -12549700000.0 -12549700000.0 -116985000000.0 -23881200000.0 -87738900000.0 -83425200000.0 -12549700000.0 -13930800000.0 -84761400000.0 -36309900000.0 -87887500000.0 -37616400000.0 -72694000000.0 -16069500000.0 -111620000000.0 -69123300000.0 -37960000000.0 -69396400000.0 -103384000000.0 -368663000000.0 -96862700000.0 -281904000000.0 -37520200000.0 -388971000000.0 -154479000000.0 -12549700000.0 -178904000000.0 -265749000000.0 -410745000000.0 -178162000000.0 -300005000000.0 -449752000000.0 -777141000000.0 -1.16954e+12 -3.76562e+12 -2.63161e+12 -2.45584e+12 -713823000000.0 -1.51638e+12 -1.55478e+12 -1.05795e+12 -361125000000.0 -123098000000.0 -236135000000.0 -110821000000.0 -765760000000.0 -12549700000.0 -492567000000.0 -317754000000.0 -96525500000.0 -147784000000.0 -131453000000.0 -138698000000.0 -87378200000.0 -84655300000.0 -12787800000.0 -84832100000.0 -36635500000.0 -44054300000.0 -12549700000.0 -12549700000.0 -67033900000.0 -12549700000.0 -14330000000.0 -26533300000.0 -12603300000.0 -34126500000.0 -58854700000.0 -32519600000.0 -32063900000.0 -16034000000.0 -42559800000.0 -19625300000.0 -52836200000.0 -29445400000.0 -100629000000.0 -133084000000.0 -132322000000.0 -116416000000.0 -138843000000.0 -135058000000.0 -229937000000.0 -44746900000.0 -38105200000.0 -12694500000.0 -199683000000.0 -21946600000.0 -103450000000.0 -25700400000.0 -16031200000.0 -28250300000.0 -16328200000.0 -68002200000.0 -36332100000.0 -56056400000.0 -65660000000.0 -117531000000.0 -106812000000.0 -18514000000.0 -18124600000.0 -69310600000.0 -56990600000.0 -146860000000.0 -95241800000.0 -107799000000.0 -91639400000.0 -32533400000.0 -84309000000.0 -46949600000.0 -88886900000.0 -161802000000.0 -69936800000.0 -158434000000.0 -212206000000.0 -267236000000.0 -262837000000.0 -475424000000.0 -83828000000.0 -449262000000.0 -132965000000.0 -346243000000.0 -388530000000.0 -139549000000.0 -95057200000.0 -191342000000.0 -201580000000.0 -332621000000.0 -299677000000.0 -12549700000.0 -37500100000.0 -545795000000.0 -12549700000.0 -1.26228e+12 -801705000000.0 -1.7301e+12 -744982000000.0 -338353000000.0 -2.19543e+12 -793009000000.0 -939265000000.0 -707348000000.0 -579767000000.0 -444120000000.0 -204656000000.0 -391475000000.0 -295797000000.0 -50551000000.0 -220752000000.0 -15285800000.0 -52404500000.0 -62668300000.0 -33702900000.0 -58698100000.0 -24100300000.0 -22564100000.0 -35226200000.0 -84444800000.0 -24471600000.0 -70987900000.0 -68926000000.0 -23095100000.0 -18693500000.0 -13790200000.0 -31485700000.0 -56077000000.0 -100211000000.0 -12549700000.0 -46757700000.0 -19969900000.0 -59390900000.0 -19787900000.0 -46264500000.0 -42533300000.0 -118725000000.0 -96835600000.0 -107663000000.0 -84656900000.0 -105647000000.0 -192630000000.0 -220511000000.0 -143227000000.0 -61899800000.0 -138416000000.0 -164072000000.0 -130889000000.0 -150589000000.0 -193182000000.0 -204655000000.0 -40396100000.0 -445538000000.0 -117271000000.0 -16274100000.0 -104380000000.0 -93573400000.0 -16106200000.0 -88439900000.0 -171888000000.0 -32019500000.0 -91084200000.0 -91064600000.0 -74961800000.0 -17459200000.0 -194317000000.0 -12549700000.0 -12549700000.0 -12549700000.0 -42973200000.0 -56942800000.0 -22842400000.0 -50861900000.0 -45285600000.0 -49248200000.0 -22367500000.0 -86025600000.0 -233663000000.0 -282019000000.0 -263485000000.0 -173756000000.0 -255640000000.0 -498222000000.0 -394659000000.0 -337265000000.0 -420844000000.0 -456039000000.0 -260307000000.0 -346721000000.0 -563775000000.0 -158996000000.0 -96086000000.0 -315124000000.0 -333288000000.0 -208235000000.0 -34263300000.0 -204481000000.0 -218045000000.0 -14325500000.0 -633583000000.0 -795705000000.0 -627326000000.0 -501315000000.0 -950778000000.0 -538946000000.0 -1.77574e+12 -629926000000.0 -277888000000.0 -347705000000.0 -2.02633e+12 -424246000000.0 -886542000000.0 -1.63604e+12 -561372000000.0 -564703000000.0 -184136000000.0 -207027000000.0 -225027000000.0 -239801000000.0 -143069000000.0 -70942100000.0 -125203000000.0 -33853500000.0 -67267500000.0 -100623000000.0 -82839300000.0 -12549700000.0 -19994500000.0 -15525100000.0 -32542100000.0 -86532800000.0 -52480200000.0 -62566000000.0 -63375800000.0 -151194000000.0 -79478300000.0 -93241800000.0 -103467000000.0 -171150000000.0 -100731000000.0 -34168100000.0 -178800000000.0 -319439000000.0 -203858000000.0 -159878000000.0 -100580000000.0 -63456900000.0 -88740300000.0 -108017000000.0 -107435000000.0 -96601000000.0 -71493400000.0 -273903000000.0 -351583000000.0 -199574000000.0 -48680400000.0 -451673000000.0 -382580000000.0 -89287900000.0 -72418800000.0 -126254000000.0 -202514000000.0 -59527000000.0 -276481000000.0 -281740000000.0 -132539000000.0 -13141500000.0 -126041000000.0 -208455000000.0 -19475600000.0 -164296000000.0 -130753000000.0 -81218000000.0 -43243500000.0 -116738000000.0 -534248000000.0 -184979000000.0 -202875000000.0 -212841000000.0 -162694000000.0 -155455000000.0 -124739000000.0 -308602000000.0 -82456300000.0 -247828000000.0 -211364000000.0 -586817000000.0 -199591000000.0 -12549700000.0 -20350400000.0 -71865000000.0 -72344800000.0 -322056000000.0 -755934000000.0 -145043000000.0 -665010000000.0 -444702000000.0 -632151000000.0 -408821000000.0 -317834000000.0 -445290000000.0 -702134000000.0 -443729000000.0 -693198000000.0 -987754000000.0 -748638000000.0 -1.14672e+12 -636344000000.0 -774911000000.0 -292847000000.0 -290880000000.0 -249443000000.0 -345302000000.0 -68139000000.0 -83171200000.0 -27178500000.0 -51243100000.0 -14294800000.0 -28662500000.0 -215130000000.0 -150337000000.0 -13446100000.0 -134285000000.0 -25561500000.0 -59716800000.0 -49543400000.0 -90453300000.0 -130441000000.0 -135486000000.0 -182636000000.0 -243558000000.0 -159179000000.0 -18452300000.0 -105100000000.0 -88950700000.0 -136075000000.0 -153803000000.0 -165161000000.0 -76570700000.0 -187143000000.0 -114465000000.0 -204455000000.0 -173682000000.0 -241161000000.0 -118933000000.0 -23292300000.0 -112990000000.0 -53734500000.0 -168895000000.0 -59033800000.0 -178301000000.0 -16943000000.0 -167433000000.0 -125517000000.0 -125223000000.0 -405206000000.0 -387613000000.0 -20916000000.0 -595358000000.0 -347309000000.0 -281054000000.0 -201115000000.0 -284322000000.0 -267849000000.0 -178350000000.0 -259627000000.0 -163840000000.0 -137326000000.0 -238134000000.0 -251036000000.0 -12549700000.0 -21894700000.0 -220326000000.0 -167077000000.0 -81828300000.0 -284094000000.0 -180026000000.0 -419204000000.0 -73807900000.0 -353539000000.0 -209981000000.0 -695681000000.0 -208461000000.0 -374376000000.0 -327453000000.0 -626046000000.0 -120220000000.0 -14071500000.0 -144086000000.0 -21616700000.0 -278090000000.0 -40149800000.0 -272084000000.0 -579276000000.0 -442611000000.0 -297454000000.0 -50106800000.0 -53992200000.0 -369330000000.0 -144339000000.0 -273856000000.0 -464754000000.0 -455976000000.0 -230306000000.0 -126870000000.0 -732898000000.0 -781071000000.0 -1.30781e+12 -652274000000.0 -725422000000.0 -122421000000.0 -588370000000.0 -255956000000.0 -427872000000.0 -40120400000.0 -118498000000.0 -291357000000.0 -260787000000.0 -103678000000.0 -177019000000.0 -58398600000.0 -59010000000.0 -135150000000.0 -269952000000.0 -12549700000.0 -174745000000.0 -151781000000.0 -55031700000.0 -120753000000.0 -54292900000.0 -104294000000.0 -255323000000.0 -432887000000.0 -236831000000.0 -280952000000.0 -232087000000.0 -198026000000.0 -197752000000.0 -205609000000.0 -177491000000.0 -22039000000.0 -59359500000.0 -165063000000.0 -157330000000.0 -82810400000.0 -104328000000.0 -194058000000.0 -24505400000.0 -64558800000.0 -155294000000.0 -101907000000.0 -135645000000.0 -124378000000.0 -247771000000.0 -243280000000.0 -200078000000.0 -24237100000.0 -185926000000.0 -273126000000.0 -213985000000.0 -152521000000.0 -99117200000.0 -132060000000.0 -50155200000.0 -70962900000.0 -105857000000.0 -339922000000.0 -233370000000.0 -192030000000.0 -43556700000.0 -359305000000.0 -180467000000.0 -163871000000.0 -699394000000.0 -465105000000.0 -469675000000.0 -623734000000.0 -628728000000.0 -24390900000.0 -297817000000.0 -367432000000.0 -262398000000.0 -606938000000.0 -384169000000.0 -177881000000.0 -274888000000.0 -106831000000.0 -283081000000.0 -84818000000.0 -360404000000.0 -12549700000.0 -410972000000.0 -356783000000.0 -85773500000.0 -74829700000.0 -104756000000.0 -16161100000.0 -240250000000.0 -602068000000.0 -280971000000.0 -442327000000.0 -808261000000.0 -369545000000.0 -278671000000.0 -246205000000.0 -289263000000.0 -189302000000.0 -222801000000.0 -251261000000.0 -180512000000.0 -326636000000.0 -126266000000.0 -402251000000.0 -218436000000.0 -176683000000.0 -176122000000.0 -171603000000.0 -119188000000.0 -193358000000.0 -144099000000.0 -51747500000.0 -113148000000.0 -116761000000.0 -155338000000.0 -53359900000.0 -73200100000.0 -117163000000.0 -89115400000.0 -130045000000.0 -121279000000.0 -112499000000.0 -189148000000.0 -201940000000.0 -364820000000.0 -359442000000.0 -81104600000.0 -388582000000.0 -80032300000.0 -254660000000.0 -105501000000.0 -46402000000.0 -107790000000.0 -102109000000.0 -62055200000.0 -229023000000.0 -35938900000.0 -37959100000.0 -48038300000.0 -48842900000.0 -241381000000.0 -76455400000.0 -182673000000.0 -254114000000.0 -371459000000.0 -261547000000.0 -406920000000.0 -227741000000.0 -286957000000.0 -308952000000.0 -150159000000.0 -300843000000.0 -35195800000.0 -17067200000.0 -111704000000.0 -16189700000.0 -22435600000.0 -12549700000.0 -103725000000.0 -253128000000.0 -75738400000.0 -87056300000.0 -148577000000.0 -282757000000.0 -15095300000.0 -14356700000.0 -59889000000.0 -148769000000.0 -316320000000.0 -362243000000.0 -37442200000.0 -192621000000.0 -284675000000.0 -305313000000.0 -112208000000.0 -254000000000.0 -58210900000.0 -281733000000.0 -233504000000.0 -172436000000.0 -408647000000.0 -85353500000.0 -526735000000.0 -183459000000.0 -283147000000.0 -396096000000.0 -84093700000.0 -675446000000.0 -414891000000.0 -144674000000.0 -231091000000.0 -179725000000.0 -351738000000.0 -193492000000.0 -283773000000.0 -154234000000.0 -749054000000.0 -366640000000.0 -345337000000.0 -593008000000.0 -433818000000.0 -32800400000.0 -252666000000.0 -317494000000.0 -242849000000.0 -248698000000.0 -165830000000.0 -210278000000.0 -367737000000.0 -17431700000.0 -17427400000.0 -202837000000.0 -45483800000.0 -158036000000.0 -18980000000.0 -13720800000.0 -12549700000.0 -87127800000.0 -77700900000.0 -40035500000.0 -15103100000.0 -130525000000.0 -154861000000.0 -376602000000.0 -127970000000.0 -133627000000.0 -93303500000.0 -262350000000.0 -201055000000.0 -226824000000.0 -22198700000.0 -31485400000.0 -12574900000.0 -370377000000.0 -448342000000.0 -13384200000.0 -327677000000.0 -178428000000.0 -182839000000.0 -26821600000.0 -203546000000.0 -266460000000.0 -68256400000.0 -250525000000.0 -28335700000.0 -207865000000.0 -181780000000.0 -14947600000.0 -192538000000.0 -14329000000.0 -12549700000.0 -277588000000.0 -153882000000.0 -178157000000.0 -13053800000.0 -270868000000.0 -81620100000.0 -112949000000.0 -87902700000.0 -74989800000.0 -247292000000.0 -128137000000.0 -174571000000.0 -143938000000.0 -28342500000.0 -12549700000.0 -30534000000.0 -78692000000.0 -93814300000.0 -160289000000.0 -17385100000.0 -114956000000.0 -112430000000.0 -233018000000.0 -327077000000.0 -20002800000.0 -401606000000.0 -673970000000.0 -200553000000.0 -380228000000.0 -262571000000.0 -133134000000.0 -87540800000.0 -414615000000.0 -24371700000.0 -505307000000.0 -434458000000.0 -372062000000.0 -111412000000.0 -674732000000.0 -971251000000.0 -495490000000.0 -314476000000.0 -385498000000.0 -527106000000.0 -433258000000.0 -385442000000.0 -176255000000.0 -283858000000.0 -92036900000.0 -137327000000.0 -131158000000.0 -222525000000.0 -185573000000.0 -58546500000.0 -148993000000.0 -127479000000.0 -91170000000.0 -220053000000.0 -674384000000.0 -27768600000.0 -55327500000.0 -289790000000.0 -190846000000.0 -261844000000.0 -127189000000.0 -269004000000.0 -53173100000.0 -12618900000.0 -212555000000.0 -222156000000.0 -132505000000.0 -300976000000.0 -42595100000.0 -260756000000.0 -62470100000.0 -105338000000.0 -98529500000.0 -149480000000.0 -70692000000.0 -122557000000.0 -14666600000.0 -73577100000.0 -144578000000.0 -65686300000.0 -117772000000.0 -271623000000.0 -120120000000.0 -151157000000.0 -221651000000.0 -127170000000.0 -21454100000.0 -39768600000.0 -43901900000.0 -12549700000.0 -12549700000.0 -12633400000.0 -353377000000.0 -327008000000.0 -257546000000.0 -307361000000.0 -225041000000.0 -66940200000.0 -197460000000.0 -32820100000.0 -133608000000.0 -30187200000.0 -150464000000.0 -43635200000.0 -133296000000.0 -135762000000.0 -156175000000.0 -204287000000.0 -78474000000.0 -164263000000.0 -186954000000.0 -280266000000.0 -147472000000.0 -368647000000.0 -12612300000.0 -255292000000.0 -91916800000.0 -53026500000.0 -176237000000.0 -385852000000.0 -27532800000.0 -253403000000.0 -81673200000.0 -146900000000.0 -120375000000.0 -149451000000.0 -161200000000.0 -136562000000.0 -267597000000.0 -157103000000.0 -352731000000.0 -228045000000.0 -189155000000.0 -166269000000.0 -480468000000.0 -589001000000.0 -297856000000.0 -470966000000.0 -332868000000.0 -435415000000.0 -45297200000.0 -379430000000.0 -136636000000.0 -261265000000.0 -396053000000.0 -162744000000.0 -163557000000.0 -215678000000.0 -398385000000.0 -353723000000.0 -812663000000.0 -653625000000.0 -269886000000.0 -621762000000.0 -84737600000.0 -164793000000.0 -106620000000.0 -129904000000.0 -207363000000.0 -70381800000.0 -84412000000.0 -12549700000.0 -101158000000.0 -338629000000.0 -147801000000.0 -236343000000.0 -136023000000.0 -285373000000.0 -106430000000.0 -70004000000.0 -136649000000.0 -304287000000.0 -372078000000.0 -319692000000.0 -186237000000.0 -211724000000.0 -156472000000.0 -253477000000.0 -182391000000.0 -305004000000.0 -263635000000.0 -48393500000.0 -39747200000.0 -209140000000.0 -252400000000.0 -221155000000.0 -79506000000.0 -254124000000.0 -195458000000.0 -326137000000.0 -169333000000.0 -200242000000.0 -102460000000.0 -221026000000.0 -61105400000.0 -15817400000.0 -20439000000.0 -25201900000.0 -37176300000.0 -18181100000.0 -410446000000.0 -13765500000.0 -73978900000.0 -203212000000.0 -222354000000.0 -174683000000.0 -107228000000.0 -44003500000.0 -134577000000.0 -40775900000.0 -197424000000.0 -12549700000.0 -12549700000.0 -56173600000.0 -73535500000.0 -71853700000.0 -37597000000.0 -206262000000.0 -338602000000.0 -35034500000.0 -304512000000.0 -221976000000.0 -312144000000.0 -279176000000.0 -281475000000.0 -169385000000.0 -101737000000.0 -227273000000.0 -122322000000.0 -139732000000.0 -170047000000.0 -203763000000.0 -48664100000.0 -60651600000.0 -348519000000.0 -133739000000.0 -232630000000.0 -337998000000.0 -12549700000.0 -123696000000.0 -160664000000.0 -322264000000.0 -296528000000.0 -230063000000.0 -325688000000.0 -498122000000.0 -255319000000.0 -386809000000.0 -232635000000.0 -511759000000.0 -100449000000.0 -266694000000.0 -237276000000.0 -105588000000.0 -90142400000.0 -411893000000.0 -24420900000.0 -21250300000.0 -109494000000.0 -143623000000.0 -199857000000.0 -89190200000.0 -94968200000.0 -44935500000.0 -232548000000.0 -31594700000.0 -218275000000.0 -156124000000.0 -215078000000.0 -215480000000.0 -199051000000.0 -73835400000.0 -75363000000.0 -66205900000.0 -312926000000.0 -296601000000.0 -145237000000.0 -61993500000.0 -72994100000.0 -240570000000.0 -30721700000.0 -220955000000.0 -28372500000.0 -261021000000.0 -205901000000.0 -218529000000.0 -147825000000.0 -278410000000.0 -320609000000.0 -66018700000.0 -328587000000.0 -376003000000.0 -353498000000.0 -373877000000.0 -189805000000.0 -250912000000.0 -236493000000.0 -193844000000.0 -252077000000.0 -361060000000.0 -190433000000.0 -141037000000.0 -223505000000.0 -124995000000.0 -334408000000.0 -61144800000.0 -138398000000.0 -112273000000.0 -45740600000.0 -84878400000.0 -87509600000.0 -134258000000.0 -116329000000.0 -199375000000.0 -157356000000.0 -237650000000.0 -122467000000.0 -195328000000.0 -41797400000.0 -33941900000.0 -137047000000.0 -504811000000.0 -329755000000.0 -213567000000.0 -577071000000.0 -92917700000.0 -281807000000.0 -100121000000.0 -123674000000.0 -120717000000.0 -189016000000.0 -102007000000.0 -14424600000.0 -70475300000.0 -247219000000.0 -183914000000.0 -186497000000.0 -20516100000.0 -76515600000.0 -208688000000.0 -371090000000.0 -390831000000.0 -89584000000.0 -407881000000.0 -33717800000.0 -87426200000.0 -246583000000.0 -271964000000.0 -149056000000.0 -365894000000.0 -25555000000.0 -210894000000.0 -279647000000.0 -419361000000.0 -410592000000.0 -557996000000.0 -70467200000.0 -630716000000.0 -153651000000.0 -454482000000.0 -360376000000.0 -442939000000.0 -110536000000.0 -140285000000.0 -123736000000.0 -182521000000.0 -200686000000.0 -72811900000.0 -53445600000.0 -18885300000.0 -221220000000.0 -127334000000.0 -238204000000.0 -75881600000.0 -103254000000.0 -31303700000.0 -258017000000.0 -376666000000.0 -251063000000.0 -209039000000.0 -111527000000.0 -104870000000.0 -100404000000.0 -83392100000.0 -111702000000.0 -123339000000.0 -121667000000.0 -144696000000.0 -51842100000.0 -102326000000.0 -76843800000.0 -35247000000.0 -46376800000.0 -227517000000.0 -16479200000.0 -184759000000.0 -165714000000.0 -514551000000.0 -221643000000.0 -211350000000.0 -583300000000.0 -146526000000.0 -143168000000.0 -374095000000.0 -151515000000.0 -474952000000.0 -341671000000.0 -150883000000.0 -241207000000.0 -268725000000.0 -30494000000.0 -140047000000.0 -157612000000.0 -31287100000.0 -288092000000.0 -110975000000.0 -141619000000.0 -21025400000.0 -12549700000.0 -12549700000.0 -82131200000.0 -76618900000.0 -169371000000.0 -95009800000.0 -29992600000.0 -146072000000.0 -77022900000.0 -82170300000.0 -171275000000.0 -314682000000.0 -269730000000.0 -301949000000.0 -410767000000.0 -75922700000.0 -128403000000.0 -124411000000.0 -12549600000.0 -12549700000.0 -158310000000.0 -12981500000.0 -125147000000.0 -287187000000.0 -148323000000.0 -93470500000.0 -333712000000.0 -59543700000.0 -142089000000.0 -49378400000.0 -123052000000.0 -236378000000.0 -262493000000.0 -151971000000.0 -154957000000.0 -88338000000.0 -207732000000.0 -222866000000.0 -12549700000.0 -85586100000.0 -12549600000.0 -318083000000.0 -280312000000.0 -482659000000.0 -35803000000.0 -853293000000.0 -222261000000.0 -479406000000.0 -549056000000.0 -391449000000.0 -517556000000.0 -152788000000.0 -162311000000.0 -87961500000.0 -231014000000.0 -20042400000.0 -407545000000.0 -50641900000.0 -71607900000.0 -14311200000.0 -65418100000.0 -70790500000.0 -20169800000.0 -56265400000.0 -353959000000.0 -108701000000.0 -265201000000.0 -15246300000.0 -94637200000.0 -21184900000.0 -263146000000.0 -163059000000.0 -12549700000.0 -42239200000.0 -67014400000.0 -20252200000.0 -80375400000.0 -65622600000.0 -16877800000.0 -193931000000.0 -177375000000.0 -22437100000.0 -481742000000.0 -435479000000.0 -138623000000.0 -71502800000.0 -41105400000.0 -36239500000.0 -40777900000.0 -74876800000.0 -253390000000.0 -337753000000.0 -418319000000.0 -662035000000.0 -244071000000.0 -186468000000.0 -227628000000.0 -36737500000.0 -147157000000.0 -85614400000.0 -87941100000.0 -91425300000.0 -171602000000.0 -167280000000.0 -172098000000.0 -34071900000.0 -261290000000.0 -160071000000.0 -166771000000.0 -12688800000.0 -143830000000.0 -184492000000.0 -318323000000.0 -254238000000.0 -39025700000.0 -293945000000.0 -590216000000.0 -118863000000.0 -76484000000.0 -51257400000.0 -82615000000.0 -53255400000.0 -28634200000.0 -23002500000.0 -34947900000.0 -18188500000.0 -171318000000.0 -28173100000.0 -21814200000.0 -131139000000.0 -154891000000.0 -60313700000.0 -180263000000.0 -275223000000.0 -164780000000.0 -86356000000.0 -21300300000.0 -252226000000.0 -38842900000.0 -150743000000.0 -177095000000.0 -34203900000.0 -225136000000.0 -150108000000.0 -247071000000.0 -319641000000.0 -459533000000.0 -332475000000.0 -231376000000.0 -334051000000.0 -510861000000.0 -460128000000.0 -559064000000.0 -312479000000.0 -66683000000.0 -309198000000.0 -357821000000.0 -397394000000.0 -369390000000.0 -360075000000.0 -477871000000.0 -563538000000.0 -62118500000.0 -48342500000.0 -17693900000.0 -54074100000.0 -12549700000.0 -207390000000.0 -196605000000.0 -207165000000.0 -188350000000.0 -307756000000.0 -275847000000.0 -200178000000.0 -217816000000.0 -222848000000.0 -206487000000.0 -278948000000.0 -350287000000.0 -272454000000.0 -155373000000.0 -157828000000.0 -122805000000.0 -369052000000.0 -37625400000.0 -14484800000.0 -12549700000.0 -23951600000.0 -44463500000.0 -47671300000.0 -29529500000.0 -133618000000.0 -256298000000.0 -196963000000.0 -749545000000.0 -12667000000.0 -529399000000.0 -222113000000.0 -261055000000.0 -180894000000.0 -17395300000.0 -13714600000.0 -121673000000.0 -23314800000.0 -49492100000.0 -12549700000.0 -102445000000.0 -95909700000.0 -44758100000.0 -325444000000.0 -79926000000.0 -42805900000.0 -16240000000.0 -12581800000.0 -293391000000.0 -161521000000.0 -560089000000.0 -99081500000.0 -203103000000.0 -244633000000.0 -257840000000.0 -406093000000.0 -280837000000.0 -44625400000.0 -131661000000.0 -174904000000.0 -88468700000.0 -28511300000.0 -26532200000.0 -92200700000.0 -173290000000.0 -12549700000.0 -18882000000.0 -121760000000.0 -173310000000.0 -174199000000.0 -12549700000.0 -103052000000.0 -158752000000.0 -146595000000.0 -203469000000.0 -108304000000.0 -98900800000.0 -37062600000.0 -226554000000.0 -264887000000.0 -259014000000.0 -423455000000.0 -178515000000.0 -316593000000.0 -218443000000.0 -360819000000.0 -56676100000.0 -332331000000.0 -128560000000.0 -144295000000.0 -49014200000.0 -157575000000.0 -231967000000.0 -124187000000.0 -151239000000.0 -81858900000.0 -295858000000.0 -447712000000.0 -157182000000.0 -357519000000.0 -43055400000.0 -27645300000.0 -28522800000.0 -32736700000.0 -29372300000.0 -13630200000.0 -12688500000.0 -131892000000.0 -309407000000.0 -33386900000.0 -42964800000.0 -86589500000.0 -38702100000.0 -88503800000.0 -21266100000.0 -46813600000.0 -75138400000.0 -134324000000.0 -105393000000.0 -13268400000.0 -16647400000.0 -200714000000.0 -235874000000.0 -246108000000.0 -275645000000.0 -311207000000.0 -394477000000.0 -206556000000.0 -177138000000.0 -81295700000.0 -70760100000.0 -60571100000.0 -269196000000.0 -63640300000.0 -117469000000.0 -300591000000.0 -129505000000.0 -91715200000.0 -94913500000.0 -92605600000.0 -123999000000.0 -104575000000.0 -77692300000.0 -319791000000.0 -163348000000.0 -111892000000.0 -204661000000.0 -268940000000.0 -163800000000.0 -183161000000.0 -702571000000.0 -554335000000.0 -615935000000.0 -547559000000.0 -238624000000.0 -158589000000.0 -248131000000.0 -146468000000.0 -190363000000.0 -291545000000.0 -97365100000.0 -318534000000.0 -241611000000.0 -230121000000.0 -401841000000.0 -324629000000.0 -204053000000.0 -162422000000.0 -230152000000.0 -153234000000.0 -116686000000.0 -225083000000.0 -251513000000.0 -286151000000.0 -12549700000.0 -210978000000.0 -27452800000.0 -32265000000.0 -167873000000.0 -374480000000.0 -240992000000.0 -98015000000.0 -235741000000.0 -230371000000.0 -343762000000.0 -12549700000.0 -567274000000.0 -68811700000.0 -189526000000.0 -195922000000.0 -252927000000.0 -368887000000.0 -349843000000.0 -215886000000.0 -326548000000.0 -182804000000.0 -462082000000.0 -12549700000.0 -298786000000.0 -20369600000.0 -19599200000.0 -16332600000.0 -14744500000.0 -27893500000.0 -16059300000.0 -28403600000.0 -102928000000.0 -192602000000.0 -115364000000.0 -119386000000.0 -83484300000.0 -250879000000.0 -50068300000.0 -39850600000.0 -85759200000.0 -40819600000.0 -47138800000.0 -79855900000.0 -284240000000.0 -179984000000.0 -204377000000.0 -70725900000.0 -24405800000.0 -16961600000.0 -12549700000.0 -12549700000.0 -14283600000.0 -363384000000.0 -200808000000.0 -23995800000.0 -203479000000.0 -176223000000.0 -229258000000.0 -17832800000.0 -101922000000.0 -58977900000.0 -238655000000.0 -28409400000.0 -14766900000.0 -80048300000.0 -54897900000.0 -84316900000.0 -12549700000.0 -103284000000.0 -13563400000.0 -306865000000.0 -183766000000.0 -287667000000.0 -343963000000.0 -460250000000.0 -372380000000.0 -539358000000.0 -745089000000.0 -379853000000.0 -173798000000.0 -923917000000.0 -122737000000.0 -388790000000.0 -316883000000.0 -318896000000.0 -225544000000.0 -108532000000.0 -298968000000.0 -36530800000.0 -13483600000.0 -29922000000.0 -237201000000.0 -20664400000.0 -217147000000.0 -315666000000.0 -121501000000.0 -152180000000.0 -26381400000.0 -84117600000.0 -12549700000.0 -20156700000.0 -36237000000.0 -79493900000.0 -269658000000.0 -237784000000.0 -117907000000.0 -276177000000.0 -38165300000.0 -168967000000.0 -254748000000.0 -304516000000.0 -250274000000.0 -163472000000.0 -12549700000.0 -12549700000.0 -168970000000.0 -12549700000.0 -447188000000.0 -275885000000.0 -175055000000.0 -468805000000.0 -370122000000.0 -14071900000.0 -15358000000.0 -20946800000.0 -30701500000.0 -13864300000.0 -20607400000.0 -121274000000.0 -91062500000.0 -117032000000.0 -48327400000.0 -116800000000.0 -172615000000.0 -116703000000.0 -101675000000.0 -69224400000.0 -99293100000.0 -71717600000.0 -117884000000.0 -261393000000.0 -35035100000.0 -165812000000.0 -23253400000.0 -179865000000.0 -61735900000.0 -25570200000.0 -41505100000.0 -19064300000.0 -20014300000.0 -19851600000.0 -12549700000.0 -12549700000.0 -246562000000.0 -96526800000.0 -72408700000.0 -21144600000.0 -351570000000.0 -217923000000.0 -439480000000.0 -176738000000.0 -212370000000.0 -198798000000.0 -149966000000.0 -90852500000.0 -94955600000.0 -20798500000.0 -40058900000.0 -17802700000.0 -120184000000.0 -88081700000.0 -283816000000.0 -100027000000.0 -14674800000.0 -121319000000.0 -299103000000.0 -222368000000.0 -176333000000.0 -381799000000.0 -412022000000.0 -262943000000.0 -320278000000.0 -280367000000.0 -544236000000.0 -383832000000.0 -146212000000.0 -235764000000.0 -434892000000.0 -402738000000.0 -262658000000.0 -388644000000.0 -305586000000.0 -178001000000.0 -315919000000.0 -112358000000.0 -72602600000.0 -187883000000.0 -105462000000.0 -47039100000.0 -187827000000.0 -54252100000.0 -73369300000.0 -19660900000.0 -60388000000.0 -34197500000.0 -40393200000.0 -102151000000.0 -187232000000.0 -326195000000.0 -83123800000.0 -215184000000.0 -17796100000.0 -155137000000.0 -315419000000.0 -184597000000.0 -121699000000.0 -51505500000.0 -137095000000.0 -167010000000.0 -193914000000.0 -367150000000.0 -320445000000.0 -308867000000.0 -413022000000.0 -220443000000.0 -196311000000.0 -300936000000.0 -16241200000.0 -13321400000.0 -32774500000.0 -42967300000.0 -12549700000.0 -95092900000.0 -81971700000.0 -87390200000.0 -42090000000.0 -88464600000.0 -89453600000.0 -16061900000.0 -22075900000.0 -88922500000.0 -75504900000.0 -15562800000.0 -30355000000.0 -12550100000.0 -52997400000.0 -186945000000.0 -26121500000.0 -14248400000.0 -34001500000.0 -29123700000.0 -14664600000.0 -23496900000.0 -32063500000.0 -17496200000.0 -14324000000.0 -23066900000.0 -14043800000.0 -26453900000.0 -85672500000.0 -187070000000.0 -320859000000.0 -246446000000.0 -203433000000.0 -296818000000.0 -264035000000.0 -147812000000.0 -89971700000.0 -12548800000.0 -242372000000.0 -226811000000.0 -94651900000.0 -121463000000.0 -113244000000.0 -72219500000.0 -36713900000.0 -89827000000.0 -145283000000.0 -294640000000.0 -193638000000.0 -68871200000.0 -37659300000.0 -336470000000.0 -27100600000.0 -81997400000.0 -229609000000.0 -555171000000.0 -243322000000.0 -146640000000.0 -47860000000.0 -441774000000.0 -399410000000.0 -487736000000.0 -614831000000.0 -199665000000.0 -55953800000.0 -21059600000.0 -194293000000.0 -240762000000.0 -51098400000.0 -97789700000.0 -26945300000.0 -243148000000.0 -117531000000.0 -141182000000.0 -202384000000.0 -103323000000.0 -129385000000.0 -31144200000.0 -26610400000.0 -61866600000.0 -103931000000.0 -78183200000.0 -112317000000.0 -19859500000.0 -145401000000.0 -41519400000.0 -94080400000.0 -112935000000.0 -212508000000.0 -232262000000.0 -179239000000.0 -35785000000.0 -47876900000.0 -81182100000.0 -175930000000.0 -102120000000.0 -507463000000.0 -44041500000.0 -134066000000.0 -732210000000.0 -363031000000.0 -129321000000.0 -286496000000.0 -302325000000.0 -342089000000.0 -314028000000.0 -222373000000.0 -130473000000.0 -75133300000.0 -34459900000.0 -82324800000.0 -78347000000.0 -110474000000.0 -56122100000.0 -102374000000.0 -100152000000.0 -82590300000.0 -128626000000.0 -101845000000.0 -23380200000.0 -12549700000.0 -14800800000.0 -33420000000.0 -28390700000.0 -13923700000.0 -15639600000.0 -30857800000.0 -27155800000.0 -22772800000.0 -24055400000.0 -28506300000.0 -51827600000.0 -433501000000.0 -17755700000.0 -43603200000.0 -63367300000.0 -474972000000.0 -115494000000.0 -229314000000.0 -266952000000.0 -140296000000.0 -96155600000.0 -191707000000.0 -191808000000.0 -284399000000.0 -289209000000.0 -302939000000.0 -172669000000.0 -550251000000.0 -344541000000.0 -346488000000.0 -88738400000.0 -109696000000.0 -321209000000.0 -1.07442e+12 -366325000000.0 -349504000000.0 -567737000000.0 -362136000000.0 -261348000000.0 -670817000000.0 -56642700000.0 -251687000000.0 -63813700000.0 -368055000000.0 -242565000000.0 -22946900000.0 -90605200000.0 -266234000000.0 -215301000000.0 -18416500000.0 -22329200000.0 -75678800000.0 -229745000000.0 -45205400000.0 -142703000000.0 -25361600000.0 -13796700000.0 -150404000000.0 -136165000000.0 -34925600000.0 -159984000000.0 -15652800000.0 -134909000000.0 -79332200000.0 -61028500000.0 -12549700000.0 -92969200000.0 -135142000000.0 -14337500000.0 -245443000000.0 -179556000000.0 -100573000000.0 -81181800000.0 -77445200000.0 -129459000000.0 -70173700000.0 -136043000000.0 -510553000000.0 -55910200000.0 -133197000000.0 -610881000000.0 -367659000000.0 -297132000000.0 -42641000000.0 -18667300000.0 -13860700000.0 -237273000000.0 -186405000000.0 -134727000000.0 -98798300000.0 -153829000000.0 -103207000000.0 -98565600000.0 -108178000000.0 -162297000000.0 -116664000000.0 -133707000000.0 -159900000000.0 -151519000000.0 -143195000000.0 -166328000000.0 -56387200000.0 -31206400000.0 -22890200000.0 -64533500000.0 -43196700000.0 -29752100000.0 -30226400000.0 -52330100000.0 -13843200000.0 -54428900000.0 -36401600000.0 -63667000000.0 -481045000000.0 -97402700000.0 -127805000000.0 -278614000000.0 -249695000000.0 -157912000000.0 -36534200000.0 -326242000000.0 -261950000000.0 -216309000000.0 -123704000000.0 -226689000000.0 -184025000000.0 -264601000000.0 -144072000000.0 -164864000000.0 -340909000000.0 -26358300000.0 -261945000000.0 -140224000000.0 -109510000000.0 -43228300000.0 -253557000000.0 -12549700000.0 -414956000000.0 -104307000000.0 -430086000000.0 -12533200000.0 -527148000000.0 -229149000000.0 -346733000000.0 -146445000000.0 -171638000000.0 -338265000000.0 -374251000000.0 -485723000000.0 -305303000000.0 -132337000000.0 -88100100000.0 -131307000000.0 -277200000000.0 -150567000000.0 -175751000000.0 -57957200000.0 -23158900000.0 -109582000000.0 -159474000000.0 -83119200000.0 -191209000000.0 -71365600000.0 -119870000000.0 -65766000000.0 -53313500000.0 -64190400000.0 -87764300000.0 -122856000000.0 -225469000000.0 -86961100000.0 -86106800000.0 -499247000000.0 -97691200000.0 -65059400000.0 -114528000000.0 -66039000000.0 -166777000000.0 -348845000000.0 -208744000000.0 -12549700000.0 -145272000000.0 -512167000000.0 -199372000000.0 -215909000000.0 -129492000000.0 -186093000000.0 -279567000000.0 -70773600000.0 -62095200000.0 -37633100000.0 -47781700000.0 -14014600000.0 -12549700000.0 -12549700000.0 -65568500000.0 -16769500000.0 -16189300000.0 -43407400000.0 -16962800000.0 -16472900000.0 -53763400000.0 -180189000000.0 -123680000000.0 -108294000000.0 -154275000000.0 -25535500000.0 -22873900000.0 -42213900000.0 -115559000000.0 -152131000000.0 -274696000000.0 -275460000000.0 -465016000000.0 -224015000000.0 -77848700000.0 -96786200000.0 -253844000000.0 -360321000000.0 -269773000000.0 -317901000000.0 -574100000000.0 -26498300000.0 -75278400000.0 -64512200000.0 -163025000000.0 -12549700000.0 -286705000000.0 -27801500000.0 -67356800000.0 -351325000000.0 -141196000000.0 -342087000000.0 -374409000000.0 -351672000000.0 -293679000000.0 -231840000000.0 -875280000000.0 -26982600000.0 -257254000000.0 -555921000000.0 -217565000000.0 -507436000000.0 -108188000000.0 -232012000000.0 -76607800000.0 -104300000000.0 -285251000000.0 -21962700000.0 -12549700000.0 -357424000000.0 -367118000000.0 -91348700000.0 -128357000000.0 -203277000000.0 -575324000000.0 -355925000000.0 -356228000000.0 -271774000000.0 -181184000000.0 -337125000000.0 -26980800000.0 -12549700000.0 -137747000000.0 -16261600000.0 -45019500000.0 -18537900000.0 -35266100000.0 -50557400000.0 -101745000000.0 -250381000000.0 -20311900000.0 -35496300000.0 -540560000000.0 -244748000000.0 -186883000000.0 -194396000000.0 -33024100000.0 -245344000000.0 -427234000000.0 -12549700000.0 -510947000000.0 -370804000000.0 -186670000000.0 -254281000000.0 -43245700000.0 -37175900000.0 -108379000000.0 -77163100000.0 -34125500000.0 -20458500000.0 -42698900000.0 -48649900000.0 -43068000000.0 -17855700000.0 -13931800000.0 -12549700000.0 -57074000000.0 -13997200000.0 -26852200000.0 -59309900000.0 -15184000000.0 -27566800000.0 -65024900000.0 -106720000000.0 -19976500000.0 -23384300000.0 -21800500000.0 -165057000000.0 -102180000000.0 -201407000000.0 -113077000000.0 -163732000000.0 -14151900000.0 -19883500000.0 -513965000000.0 -327216000000.0 -279171000000.0 -440602000000.0 -426822000000.0 -608926000000.0 -264444000000.0 -228095000000.0 -531605000000.0 -379849000000.0 -403827000000.0 -39795500000.0 -496639000000.0 -304258000000.0 -271842000000.0 -366616000000.0 -393344000000.0 -623965000000.0 -531588000000.0 -531710000000.0 -450442000000.0 -350976000000.0 -656242000000.0 -616294000000.0 -267190000000.0 -456348000000.0 -233081000000.0 -472083000000.0 -202057000000.0 -78385800000.0 -310744000000.0 -105737000000.0 -170453000000.0 -227939000000.0 -90784000000.0 -310787000000.0 -275683000000.0 -297663000000.0 -360125000000.0 -170686000000.0 -216427000000.0 -262596000000.0 -180449000000.0 -390319000000.0 -155491000000.0 -262590000000.0 -166095000000.0 -120449000000.0 -94298500000.0 -88317200000.0 -155966000000.0 -45438500000.0 -68238800000.0 -562763000000.0 -13323800000.0 -261435000000.0 -133242000000.0 -510353000000.0 -194719000000.0 -756356000000.0 -488776000000.0 -458040000000.0 -380502000000.0 -16306900000.0 -31491900000.0 -14646800000.0 -31299900000.0 -28120900000.0 -64753900000.0 -55428200000.0 -24719600000.0 -12549700000.0 -12549700000.0 -12549700000.0 -59545800000.0 -14706300000.0 -47761900000.0 -54053800000.0 -15534600000.0 -40501500000.0 -71982900000.0 -165848000000.0 -57967500000.0 -72465600000.0 -143587000000.0 -114382000000.0 -57802600000.0 -65876900000.0 -77400600000.0 -161575000000.0 -250249000000.0 -542988000000.0 -230564000000.0 -228870000000.0 -233629000000.0 -462540000000.0 -374600000000.0 -252817000000.0 -411592000000.0 -12549700000.0 -303667000000.0 -783075000000.0 -409114000000.0 -649482000000.0 -507011000000.0 -336078000000.0 -318025000000.0 -569881000000.0 -702942000000.0 -13441200000.0 -594068000000.0 -394595000000.0 -263111000000.0 -706703000000.0 -416202000000.0 -426790000000.0 -668112000000.0 -102123000000.0 -316122000000.0 -244238000000.0 -454703000000.0 -253554000000.0 -28226300000.0 -57522700000.0 -258876000000.0 -13961500000.0 -186589000000.0 -192755000000.0 -18341900000.0 -240070000000.0 -16402000000.0 -135393000000.0 -304239000000.0 -106030000000.0 -99144900000.0 -103327000000.0 -170861000000.0 -233968000000.0 -346254000000.0 -291760000000.0 -211165000000.0 -248744000000.0 -215336000000.0 -284349000000.0 -106055000000.0 -145757000000.0 -195985000000.0 -195579000000.0 -352034000000.0 -396150000000.0 -494013000000.0 -248115000000.0 -346503000000.0 -284251000000.0 -367586000000.0 -99386800000.0 -406083000000.0 -180329000000.0 -359185000000.0 -191136000000.0 -300075000000.0 -141332000000.0 -174860000000.0 -28696100000.0 -19033700000.0 -80015500000.0 -20168400000.0 -41370300000.0 -97751400000.0 -46692400000.0 -23399000000.0 -16107400000.0 -13682900000.0 -12549700000.0 -68495900000.0 -31723700000.0 -60951300000.0 -20419400000.0 -89859600000.0 -12549700000.0 -42781600000.0 -12549700000.0 -12549700000.0 -69496800000.0 -13038300000.0 -151827000000.0 -74592300000.0 -30861500000.0 -25138500000.0 -72514800000.0 -98824000000.0 -242920000000.0 -141560000000.0 -156194000000.0 -129072000000.0 -110978000000.0 -274112000000.0 -427388000000.0 -732854000000.0 -50222500000.0 -94714000000.0 -497228000000.0 -22623800000.0 -147377000000.0 -219069000000.0 -218757000000.0 -73296200000.0 -195750000000.0 -130792000000.0 -399998000000.0 -152638000000.0 -387510000000.0 -519661000000.0 -546419000000.0 -606274000000.0 -530214000000.0 -123980000000.0 -338923000000.0 -323672000000.0 -695354000000.0 -417012000000.0 -324302000000.0 -227846000000.0 -261970000000.0 -51400900000.0 -146483000000.0 -125652000000.0 -349498000000.0 -208371000000.0 -34818100000.0 -143865000000.0 -14695000000.0 -269002000000.0 -95470600000.0 -176516000000.0 -367527000000.0 -114405000000.0 -82734300000.0 -177166000000.0 -431683000000.0 -300064000000.0 -164834000000.0 -192045000000.0 -120148000000.0 -239886000000.0 -221312000000.0 -55102800000.0 -56585900000.0 -437139000000.0 -359730000000.0 -174499000000.0 -160816000000.0 -253706000000.0 -175129000000.0 -170738000000.0 -200380000000.0 -254225000000.0 -252648000000.0 -165111000000.0 -128656000000.0 -178678000000.0 -219835000000.0 -112464000000.0 -175521000000.0 -20252000000.0 -12549700000.0 -60016800000.0 -37535000000.0 -41331400000.0 -79665000000.0 -141623000000.0 -36253600000.0 -17983000000.0 -14180200000.0 -16338400000.0 -26533000000.0 -80324600000.0 -45055400000.0 -67342000000.0 -14123300000.0 -134469000000.0 -14845400000.0 -133990000000.0 -52284300000.0 -127512000000.0 -12549700000.0 -12549700000.0 -12549700000.0 -165416000000.0 -129206000000.0 -69577300000.0 -43398400000.0 -196601000000.0 -351676000000.0 -280141000000.0 -282666000000.0 -286834000000.0 -32731900000.0 -49788900000.0 -472803000000.0 -343966000000.0 -199348000000.0 -267037000000.0 -391764000000.0 -567486000000.0 -320254000000.0 -345448000000.0 -414699000000.0 -327816000000.0 -202757000000.0 -451486000000.0 -341874000000.0 -556860000000.0 -196564000000.0 -453103000000.0 -591210000000.0 -352414000000.0 -161856000000.0 -12549700000.0 -661692000000.0 -359326000000.0 -205933000000.0 -76616400000.0 -17702000000.0 -110801000000.0 -395816000000.0 -195378000000.0 -112723000000.0 -265731000000.0 -123644000000.0 -46345200000.0 -237429000000.0 -396809000000.0 -240823000000.0 -228694000000.0 -472576000000.0 -161747000000.0 -201318000000.0 -222360000000.0 -378235000000.0 -301350000000.0 -23446700000.0 -112291000000.0 -37679000000.0 -15493100000.0 -211190000000.0 -235651000000.0 -263194000000.0 -137139000000.0 -127025000000.0 -236443000000.0 -293265000000.0 -197576000000.0 -198507000000.0 -525178000000.0 -551144000000.0 -329395000000.0 -427675000000.0 -640227000000.0 -799494000000.0 -671287000000.0 -471998000000.0 -451560000000.0 -534222000000.0 -499185000000.0 -201513000000.0 -71201100000.0 -104948000000.0 -148182000000.0 -115955000000.0 -126912000000.0 -161580000000.0 -354133000000.0 -151927000000.0 -119560000000.0 -119874000000.0 -117864000000.0 -103706000000.0 -137220000000.0 -137366000000.0 -113589000000.0 -200091000000.0 -228542000000.0 -183037000000.0 -151953000000.0 -66872500000.0 -104491000000.0 -79869600000.0 -96627300000.0 -201298000000.0 -235750000000.0 -139730000000.0 -172823000000.0 -196709000000.0 -27830200000.0 -367688000000.0 -30167400000.0 -121197000000.0 -191145000000.0 -55952500000.0 -72869700000.0 -17402300000.0 -148207000000.0 -440095000000.0 -312804000000.0 -163703000000.0 -407888000000.0 -303058000000.0 -340744000000.0 -76575700000.0 -544123000000.0 -245859000000.0 -500004000000.0 -449113000000.0 -466556000000.0 -271679000000.0 -51471300000.0 -620815000000.0 -331078000000.0 -205011000000.0 -67392100000.0 -284495000000.0 -135382000000.0 -112703000000.0 -23548300000.0 -88742700000.0 -51115500000.0 -235730000000.0 -228969000000.0 -155570000000.0 -176527000000.0 -58578300000.0 -15616200000.0 -197621000000.0 -116186000000.0 -46938100000.0 -205528000000.0 -411251000000.0 -392909000000.0 -231215000000.0 -171227000000.0 -357755000000.0 -30915300000.0 -35963200000.0 -15294900000.0 -293610000000.0 -405477000000.0 -202424000000.0 -357824000000.0 -328999000000.0 -405798000000.0 -441681000000.0 -565268000000.0 -443082000000.0 -131853000000.0 -277195000000.0 -123561000000.0 -329336000000.0 -34654700000.0 -16731400000.0 -64133300000.0 -513517000000.0 -48536200000.0 -630107000000.0 -528630000000.0 -383200000000.0 -926521000000.0 -530621000000.0 -16809800000.0 -48836300000.0 -20804800000.0 -35942300000.0 -13135700000.0 -278603000000.0 -44555600000.0 -21836600000.0 -17815100000.0 -14391200000.0 -12549700000.0 -12549700000.0 -130560000000.0 -96208200000.0 -111305000000.0 -201826000000.0 -444744000000.0 -204963000000.0 -223602000000.0 -21578400000.0 -18864300000.0 -65760400000.0 -379655000000.0 -54712200000.0 -113410000000.0 -12056300000.0 -40691000000.0 -51868100000.0 -355937000000.0 -114295000000.0 -18885900000.0 -144217000000.0 -20825100000.0 -26739900000.0 -273205000000.0 -267602000000.0 -24178900000.0 -26393900000.0 -215737000000.0 -591688000000.0 -328711000000.0 -376648000000.0 -422282000000.0 -234916000000.0 -329145000000.0 -152761000000.0 -228133000000.0 -12900200000.0 -439011000000.0 -274017000000.0 -28886000000.0 -611773000000.0 -381031000000.0 -160023000000.0 -271680000000.0 -697060000000.0 -16069900000.0 -249166000000.0 -328079000000.0 -346019000000.0 -158623000000.0 -143521000000.0 -99766300000.0 -95345600000.0 -245480000000.0 -182053000000.0 -40406600000.0 -39332700000.0 -60313500000.0 -190986000000.0 -76726500000.0 -35050900000.0 -196625000000.0 -565500000000.0 -597368000000.0 -350495000000.0 -371193000000.0 -326881000000.0 -521999000000.0 -391431000000.0 -326272000000.0 -265380000000.0 -31809100000.0 -87281800000.0 -68261700000.0 -42708400000.0 -25794000000.0 -284263000000.0 -161807000000.0 -12549700000.0 -34879600000.0 -267130000000.0 -275022000000.0 -55478500000.0 -35692900000.0 -93198500000.0 -20074600000.0 -257206000000.0 -422547000000.0 -185593000000.0 -325055000000.0 -233517000000.0 -31996000000.0 -40194200000.0 -48287300000.0 -32329100000.0 -20959900000.0 -257345000000.0 -43370800000.0 -12549700000.0 -18060900000.0 -32212600000.0 -58953300000.0 -87025400000.0 -136263000000.0 -156424000000.0 -210560000000.0 -12549700000.0 -12549700000.0 -528073000000.0 -213961000000.0 -288108000000.0 -219126000000.0 -301420000000.0 -75033200000.0 -162784000000.0 -13747000000.0 -211228000000.0 -200948000000.0 -96107000000.0 -111582000000.0 -362624000000.0 -136480000000.0 -33329000000.0 -203755000000.0 -105880000000.0 -221961000000.0 -177558000000.0 -124883000000.0 -137958000000.0 -260780000000.0 -354682000000.0 -58576200000.0 -281188000000.0 -375785000000.0 -805205000000.0 -818289000000.0 -816629000000.0 -573638000000.0 -484123000000.0 -388867000000.0 -831503000000.0 -792391000000.0 -494889000000.0 -792351000000.0 -546679000000.0 -266452000000.0 -234220000000.0 -468742000000.0 -15386200000.0 -96173500000.0 -49695700000.0 -16379800000.0 -213396000000.0 -166711000000.0 -90038000000.0 -120239000000.0 -116798000000.0 -312820000000.0 -63348400000.0 -48842900000.0 -133308000000.0 -940735000000.0 -244560000000.0 -204026000000.0 -17820000000.0 -384442000000.0 -12549700000.0 -318244000000.0 -548710000000.0 -93337300000.0 -158264000000.0 -60964900000.0 -79874800000.0 -38090900000.0 -229401000000.0 -311091000000.0 -175895000000.0 -234329000000.0 -452862000000.0 -142044000000.0 -20102000000.0 -13865500000.0 -81619700000.0 -12549700000.0 -398143000000.0 -373019000000.0 -32111300000.0 -28250300000.0 -365787000000.0 -45232300000.0 -29029400000.0 -23147200000.0 -18896500000.0 -66157600000.0 -328418000000.0 -172574000000.0 -133691000000.0 -137315000000.0 -131232000000.0 -126543000000.0 -147987000000.0 -228764000000.0 -58754400000.0 -176553000000.0 -288718000000.0 -311229000000.0 -596060000000.0 -450125000000.0 -13830500000.0 -66146200000.0 -163244000000.0 -157373000000.0 -16811600000.0 -172103000000.0 -126346000000.0 -18810300000.0 -138668000000.0 -277320000000.0 -142099000000.0 -246703000000.0 -12549700000.0 -12549700000.0 -130043000000.0 -119567000000.0 -21180500000.0 -37554900000.0 -160055000000.0 -106472000000.0 -308619000000.0 -436020000000.0 -119189000000.0 -303510000000.0 -285911000000.0 -526959000000.0 -22981500000.0 -88431100000.0 -19152000000.0 -569249000000.0 -568939000000.0 -323578000000.0 -664453000000.0 -39312500000.0 -777357000000.0 -150894000000.0 -406246000000.0 -99287300000.0 -222899000000.0 -172400000000.0 -316999000000.0 -550017000000.0 -468279000000.0 -130821000000.0 -128363000000.0 -262550000000.0 -203054000000.0 -150435000000.0 -144650000000.0 -386264000000.0 -49213200000.0 -323222000000.0 -243651000000.0 -872273000000.0 -176514000000.0 -255121000000.0 -51187100000.0 -277040000000.0 -12549700000.0 -134159000000.0 -370393000000.0 -262975000000.0 -394232000000.0 -485908000000.0 -121204000000.0 -217728000000.0 -116447000000.0 -167644000000.0 -230863000000.0 -155443000000.0 -201653000000.0 -55404000000.0 -32822200000.0 -14402800000.0 -427047000000.0 -200492000000.0 -222334000000.0 -229676000000.0 -170868000000.0 -441844000000.0 -386113000000.0 -32517500000.0 -48627500000.0 -355745000000.0 -52845700000.0 -17820300000.0 -17250700000.0 -33764500000.0 -330092000000.0 -168013000000.0 -85443300000.0 -30770500000.0 -17354600000.0 -19957300000.0 -50680500000.0 -79633100000.0 -148920000000.0 -148784000000.0 -13889200000.0 -12549700000.0 -98542100000.0 -57183200000.0 -694685000000.0 -568786000000.0 -314110000000.0 -423533000000.0 -160178000000.0 -176160000000.0 -415477000000.0 -400472000000.0 -332688000000.0 -123252000000.0 -68800200000.0 -368324000000.0 -350762000000.0 -127139000000.0 -133595000000.0 -114784000000.0 -220155000000.0 -109762000000.0 -147185000000.0 -331233000000.0 -122260000000.0 -168488000000.0 -241734000000.0 -67195800000.0 -248562000000.0 -58142200000.0 -58232900000.0 -124094000000.0 -323174000000.0 -348497000000.0 -86026000000.0 -775591000000.0 -395841000000.0 -565268000000.0 -96684900000.0 -475221000000.0 -602813000000.0 -521515000000.0 -406245000000.0 -254156000000.0 -160522000000.0 -210670000000.0 -121252000000.0 -317859000000.0 -291426000000.0 -357337000000.0 -117119000000.0 -129171000000.0 -63902500000.0 -324569000000.0 -152746000000.0 -130110000000.0 -219798000000.0 -1.15872e+12 -521356000000.0 -327845000000.0 -528331000000.0 -607330000000.0 -553461000000.0 -575862000000.0 -234006000000.0 -727868000000.0 -555095000000.0 -459228000000.0 -463230000000.0 -500198000000.0 -449520000000.0 -359939000000.0 -494376000000.0 -466549000000.0 -12561700000.0 -42491500000.0 -18410100000.0 -451857000000.0 -167020000000.0 -203114000000.0 -158461000000.0 -120365000000.0 -555988000000.0 -181400000000.0 -468604000000.0 -103625000000.0 -396377000000.0 -137982000000.0 -301217000000.0 -310291000000.0 -410870000000.0 -149349000000.0 -120943000000.0 -79381500000.0 -47265700000.0 -15632100000.0 -17634700000.0 -53122800000.0 -47511900000.0 -220413000000.0 -244500000000.0 -184338000000.0 -166523000000.0 -146224000000.0 -209284000000.0 -566896000000.0 -477752000000.0 -145286000000.0 -307150000000.0 -85783200000.0 -19929700000.0 -276444000000.0 -226626000000.0 -50160800000.0 -168831000000.0 -183480000000.0 -290564000000.0 -219623000000.0 -21618600000.0 -42013800000.0 -65378300000.0 -135149000000.0 -29481000000.0 -36430400000.0 -206434000000.0 -47436000000.0 -12549700000.0 -212698000000.0 -13802700000.0 -145929000000.0 -49832200000.0 -14588200000.0 -12549700000.0 -327186000000.0 -467938000000.0 -308366000000.0 -446062000000.0 -251653000000.0 -188045000000.0 -93852300000.0 -237010000000.0 -152710000000.0 -192558000000.0 -12549700000.0 -271286000000.0 -212463000000.0 -197061000000.0 -364120000000.0 -212469000000.0 -163608000000.0 -525394000000.0 -270639000000.0 -293731000000.0 -629677000000.0 -254372000000.0 -288997000000.0 -655984000000.0 -355431000000.0 -321616000000.0 -94313500000.0 -164421000000.0 -137571000000.0 -185745000000.0 -676731000000.0 -318436000000.0 -450310000000.0 -321434000000.0 -132003000000.0 -193893000000.0 -151690000000.0 -356076000000.0 -257672000000.0 -411107000000.0 -238912000000.0 -482308000000.0 -492326000000.0 -123019000000.0 -489419000000.0 -262839000000.0 -173421000000.0 -145139000000.0 -172888000000.0 -647331000000.0 -212049000000.0 -88465400000.0 -613373000000.0 -611764000000.0 -55682700000.0 -160421000000.0 -18074700000.0 -199339000000.0 -283625000000.0 -96062500000.0 -141365000000.0 -71134000000.0 -12549700000.0 -14381100000.0 -65445700000.0 -61830700000.0 -335686000000.0 -90468900000.0 -107661000000.0 -60219500000.0 -210448000000.0 -172206000000.0 -899659000000.0 -629471000000.0 -208608000000.0 -576087000000.0 -389915000000.0 -326564000000.0 -389964000000.0 -28415200000.0 -17372600000.0 -47856700000.0 -211753000000.0 -396082000000.0 -326988000000.0 -123970000000.0 -141483000000.0 -179603000000.0 -167588000000.0 -66312900000.0 -106173000000.0 -222113000000.0 -135209000000.0 -150930000000.0 -182325000000.0 -373309000000.0 -450517000000.0 -268241000000.0 -220939000000.0 -232133000000.0 -418360000000.0 -284450000000.0 -254256000000.0 -508745000000.0 -430886000000.0 -313943000000.0 -401054000000.0 -271584000000.0 -108911000000.0 -268479000000.0 -204998000000.0 -365143000000.0 -345085000000.0 -268673000000.0 -388905000000.0 -12549700000.0 -105885000000.0 -412600000000.0 -97501300000.0 -492281000000.0 -579793000000.0 -35670300000.0 -64814900000.0 -508653000000.0 -390879000000.0 -514980000000.0 -280395000000.0 -176828000000.0 -275371000000.0 -81348300000.0 -626393000000.0 -122506000000.0 -469529000000.0 -261865000000.0 -206093000000.0 -89328300000.0 -86006800000.0 -324850000000.0 -221417000000.0 -332015000000.0 -250348000000.0 -375864000000.0 -443020000000.0 -688615000000.0 -47318700000.0 -43525300000.0 -169398000000.0 -90159300000.0 -311007000000.0 -135152000000.0 -203733000000.0 -265491000000.0 -497057000000.0 -536317000000.0 -12549700000.0 -151585000000.0 -110299000000.0 -321114000000.0 -560616000000.0 -198738000000.0 -228165000000.0 -195820000000.0 -259783000000.0 -259796000000.0 -192565000000.0 -160539000000.0 -162965000000.0 -486583000000.0 -210377000000.0 -261949000000.0 -149744000000.0 -186362000000.0 -405960000000.0 -976419000000.0 -159225000000.0 -579894000000.0 -542162000000.0 -69161200000.0 -303456000000.0 -457345000000.0 -84012900000.0 -58191900000.0 -103470000000.0 -117196000000.0 -278963000000.0 -235357000000.0 -75220200000.0 -86673800000.0 -92712900000.0 -310727000000.0 -91246000000.0 -219523000000.0 -17423900000.0 -37339100000.0 -17100500000.0 -44999700000.0 -228013000000.0 -193428000000.0 -70711100000.0 -75239100000.0 -70930600000.0 -315627000000.0 -281234000000.0 -352896000000.0 -440784000000.0 -239307000000.0 -148022000000.0 -187417000000.0 -202485000000.0 -430789000000.0 -305675000000.0 -316816000000.0 -430765000000.0 -382939000000.0 -288868000000.0 -370549000000.0 -276721000000.0 -155363000000.0 -597704000000.0 -323249000000.0 -52857500000.0 -213162000000.0 -661919000000.0 -549037000000.0 -910512000000.0 -721598000000.0 -943632000000.0 -378079000000.0 -423397000000.0 -270528000000.0 -490389000000.0 -513540000000.0 -893260000000.0 -1.0596e+12 -363042000000.0 -313660000000.0 -380857000000.0 -377212000000.0 -172139000000.0 -133398000000.0 -196859000000.0 -140615000000.0 -97984800000.0 -151763000000.0 -433951000000.0 -480323000000.0 -335329000000.0 -294312000000.0 -371744000000.0 -379121000000.0 -300884000000.0 -278449000000.0 -338270000000.0 -918045000000.0 -37718300000.0 -121883000000.0 -235948000000.0 -243838000000.0 -318259000000.0 -583077000000.0 -395465000000.0 -476294000000.0 -53011400000.0 -157593000000.0 -81224600000.0 -93254400000.0 -79847100000.0 -284565000000.0 -306277000000.0 -155291000000.0 -466479000000.0 -348176000000.0 -60654900000.0 -899281000000.0 -141155000000.0 -366110000000.0 -512780000000.0 -232771000000.0 -604536000000.0 -368500000000.0 -38880200000.0 -12549700000.0 -98985800000.0 -117837000000.0 -240792000000.0 -311082000000.0 -12549700000.0 -37931600000.0 -22760200000.0 -226889000000.0 -87348800000.0 -182585000000.0 -37007800000.0 -20390400000.0 -23730600000.0 -190907000000.0 -264477000000.0 -255898000000.0 -61829600000.0 -82022400000.0 -29404500000.0 -227603000000.0 -147373000000.0 -141401000000.0 -316244000000.0 -17910300000.0 -189530000000.0 -12549700000.0 -123437000000.0 -156673000000.0 -355731000000.0 -31812700000.0 -183885000000.0 -193452000000.0 -16460300000.0 -379739000000.0 -49066100000.0 -384124000000.0 -339346000000.0 -123299000000.0 -124454000000.0 -79987400000.0 -378482000000.0 -116248000000.0 -647772000000.0 -22695300000.0 -700195000000.0 -468608000000.0 -379534000000.0 -537551000000.0 -561232000000.0 -48188100000.0 -145947000000.0 -506986000000.0 -117864000000.0 -109177000000.0 -206947000000.0 -33628300000.0 -82551800000.0 -58549600000.0 -94767600000.0 -52788700000.0 -13437900000.0 -27859800000.0 -458729000000.0 -169129000000.0 -143452000000.0 -44106900000.0 -168286000000.0 -82615700000.0 -159209000000.0 -25050200000.0 -61074900000.0 -749642000000.0 -40084800000.0 -185877000000.0 -488175000000.0 -457434000000.0 -877468000000.0 -111634000000.0 -53287900000.0 -516648000000.0 -21322700000.0 -113197000000.0 -12549700000.0 -30665700000.0 -397152000000.0 -284652000000.0 -135870000000.0 -304529000000.0 -265490000000.0 -251354000000.0 -206202000000.0 -73506700000.0 -906095000000.0 -142088000000.0 -307817000000.0 -617839000000.0 -235170000000.0 -455776000000.0 -61811600000.0 -314367000000.0 -269713000000.0 -310884000000.0 -310731000000.0 -676051000000.0 -828468000000.0 -363886000000.0 -347874000000.0 -354970000000.0 -411341000000.0 -262337000000.0 -351384000000.0 -206635000000.0 -327413000000.0 -305791000000.0 -210542000000.0 -134720000000.0 -364982000000.0 -269448000000.0 -279221000000.0 -312372000000.0 -316450000000.0 -323036000000.0 -396856000000.0 -180553000000.0 -161306000000.0 -202164000000.0 -99843800000.0 -15503900000.0 -118800000000.0 -447235000000.0 -240626000000.0 -290598000000.0 -320940000000.0 -233528000000.0 -534239000000.0 -274125000000.0 -446360000000.0 -175088000000.0 -132117000000.0 -101591000000.0 -431401000000.0 -468163000000.0 -613219000000.0 -226022000000.0 -261683000000.0 -401455000000.0 -201225000000.0 -130136000000.0 -52483900000.0 -428236000000.0 -366969000000.0 -372120000000.0 -560329000000.0 -259883000000.0 -215044000000.0 -88236200000.0 -207959000000.0 -130645000000.0 -261834000000.0 -229262000000.0 -249775000000.0 -170309000000.0 -164114000000.0 -581221000000.0 -240302000000.0 -134845000000.0 -62344200000.0 -194321000000.0 -90826200000.0 -99420100000.0 -79983200000.0 -80648000000.0 -723081000000.0 -48216000000.0 -389899000000.0 -437913000000.0 -382123000000.0 -926298000000.0 -166263000000.0 -29506600000.0 -349868000000.0 -331589000000.0 -453684000000.0 -24557400000.0 -171857000000.0 -224530000000.0 -280445000000.0 -235490000000.0 -222890000000.0 -519876000000.0 -299963000000.0 -879719000000.0 -554037000000.0 -464846000000.0 -870426000000.0 -692029000000.0 -761813000000.0 -750953000000.0 -577911000000.0 -675466000000.0 -624934000000.0 -802649000000.0 -332981000000.0 -394896000000.0 -383123000000.0 -327189000000.0 -356488000000.0 -378654000000.0 -318782000000.0 -363287000000.0 -111985000000.0 -251268000000.0 -201948000000.0 -72033200000.0 -254009000000.0 -186773000000.0 -14521400000.0 -12549700000.0 -76351200000.0 -79091200000.0 -189164000000.0 -116705000000.0 -228601000000.0 -125509000000.0 -260801000000.0 -356633000000.0 -172629000000.0 -229080000000.0 -393204000000.0 -78253100000.0 -133423000000.0 -130206000000.0 -81498500000.0 -241416000000.0 -94167900000.0 -17022800000.0 -353944000000.0 -242973000000.0 -332428000000.0 -317806000000.0 -68090000000.0 -309761000000.0 -323227000000.0 -226367000000.0 -255046000000.0 -188841000000.0 -212066000000.0 -561476000000.0 -125311000000.0 -182247000000.0 -214908000000.0 -216982000000.0 -20526100000.0 -208228000000.0 -193318000000.0 -277573000000.0 -208457000000.0 -99397000000.0 -144258000000.0 -144868000000.0 -121416000000.0 -141706000000.0 -526257000000.0 -340506000000.0 -210209000000.0 -153096000000.0 -252173000000.0 -91986100000.0 -129674000000.0 -53732300000.0 -67674600000.0 -1.00146e+12 -271757000000.0 -150840000000.0 -256046000000.0 -341250000000.0 -12549700000.0 -94781900000.0 -115537000000.0 -783834000000.0 -242573000000.0 -671034000000.0 -199911000000.0 -35135900000.0 -290927000000.0 -105534000000.0 -230598000000.0 -337260000000.0 -248019000000.0 -309782000000.0 -424999000000.0 -240611000000.0 -692874000000.0 -648176000000.0 -961649000000.0 -263676000000.0 -320703000000.0 -269253000000.0 -398621000000.0 -222472000000.0 -394540000000.0 -81509400000.0 -619150000000.0 -47054500000.0 -208810000000.0 -85683800000.0 -39395900000.0 -92722600000.0 -53679700000.0 -188159000000.0 -69828800000.0 -261478000000.0 -25426800000.0 -14016100000.0 -105375000000.0 -193672000000.0 -148963000000.0 -50589600000.0 -43173200000.0 -89160300000.0 -172590000000.0 -173153000000.0 -68935800000.0 -193112000000.0 -45947300000.0 -120955000000.0 -176853000000.0 -108577000000.0 -195591000000.0 -262983000000.0 -50597100000.0 -245518000000.0 -211357000000.0 -134234000000.0 -357670000000.0 -172026000000.0 -97247100000.0 -505089000000.0 -90987500000.0 -85475100000.0 -553473000000.0 -207664000000.0 -237245000000.0 -235221000000.0 -306914000000.0 -455308000000.0 -351019000000.0 -653018000000.0 -48339100000.0 -36070600000.0 -12549700000.0 -248060000000.0 -104078000000.0 -40584900000.0 -129851000000.0 -39008400000.0 -134584000000.0 -109737000000.0 -182160000000.0 -131335000000.0 -119592000000.0 -105547000000.0 -95986000000.0 -182767000000.0 -582340000000.0 -188071000000.0 -255544000000.0 -280731000000.0 -432458000000.0 -522508000000.0 -507593000000.0 -727515000000.0 -242232000000.0 -51405900000.0 -435584000000.0 -337981000000.0 -321619000000.0 -14676200000.0 -415167000000.0 -644982000000.0 -873693000000.0 -245893000000.0 -372030000000.0 -602400000000.0 -490995000000.0 -531100000000.0 -269270000000.0 -87510700000.0 -101868000000.0 -223046000000.0 -650090000000.0 -336949000000.0 -382760000000.0 -527051000000.0 -832349000000.0 -134196000000.0 -269640000000.0 -236457000000.0 -340169000000.0 -33178300000.0 -829382000000.0 -762262000000.0 -508030000000.0 -268992000000.0 -217183000000.0 -381697000000.0 -243222000000.0 -289591000000.0 -358986000000.0 -245490000000.0 -194283000000.0 -253462000000.0 -159773000000.0 -120035000000.0 -248385000000.0 -281307000000.0 -239474000000.0 -121621000000.0 -127539000000.0 -193280000000.0 -13450100000.0 -119269000000.0 -63386500000.0 -208263000000.0 -101410000000.0 -198339000000.0 -144544000000.0 -56342900000.0 -123720000000.0 -44248700000.0 -433214000000.0 -150020000000.0 -213810000000.0 -225014000000.0 -203566000000.0 -98514000000.0 -88459900000.0 -347297000000.0 -19551800000.0 -17327900000.0 -524747000000.0 -203134000000.0 -444233000000.0 -199252000000.0 -302344000000.0 -215240000000.0 -27639200000.0 -349911000000.0 -38215800000.0 -14417700000.0 -20634700000.0 -189571000000.0 -225487000000.0 -200187000000.0 -170769000000.0 -165050000000.0 -141239000000.0 -117235000000.0 -53516200000.0 -18576300000.0 -21896500000.0 -37467300000.0 -19087200000.0 -124106000000.0 -418465000000.0 -129420000000.0 -103956000000.0 -207649000000.0 -159481000000.0 -115286000000.0 -31884100000.0 -394362000000.0 -184061000000.0 -28143400000.0 -67486200000.0 -867262000000.0 -786481000000.0 -642055000000.0 -1.28735e+12 -12559200000.0 -210316000000.0 -483077000000.0 -481358000000.0 -290473000000.0 -539625000000.0 -371519000000.0 -334093000000.0 -513141000000.0 -178109000000.0 -517216000000.0 -1.02635e+12 -818150000000.0 -891876000000.0 -598598000000.0 -1.19909e+12 -762529000000.0 -960814000000.0 -723955000000.0 -185746000000.0 -224143000000.0 -403385000000.0 -281112000000.0 -423790000000.0 -394292000000.0 -401862000000.0 -540515000000.0 -87612600000.0 -119167000000.0 -135669000000.0 -72751300000.0 -68616100000.0 -127348000000.0 -13002900000.0 -110791000000.0 -148498000000.0 -55392100000.0 -71988900000.0 -126406000000.0 -59988200000.0 -117660000000.0 -131569000000.0 -196110000000.0 -73613300000.0 -166235000000.0 -222739000000.0 -234485000000.0 -104528000000.0 -282575000000.0 -27168000000.0 -26643800000.0 -90657200000.0 -30474400000.0 -304350000000.0 -174201000000.0 -157532000000.0 -385221000000.0 -164868000000.0 -300289000000.0 -368700000000.0 -262743000000.0 -131081000000.0 -353212000000.0 -167085000000.0 -214438000000.0 -210192000000.0 -72642000000.0 -199669000000.0 -334802000000.0 -40792600000.0 -26550200000.0 -44104700000.0 -174260000000.0 -216548000000.0 -13543500000.0 -73216700000.0 -14536900000.0 -151138000000.0 -147931000000.0 -96402500000.0 -76031100000.0 -98843500000.0 -126068000000.0 -125471000000.0 -183501000000.0 -367646000000.0 -48807400000.0 -62069300000.0 -147953000000.0 -65776400000.0 -83459700000.0 -96741900000.0 -331143000000.0 -65367400000.0 -68085500000.0 -658335000000.0 -1.07106e+12 -672948000000.0 -177300000000.0 -217998000000.0 -490181000000.0 -460435000000.0 -797146000000.0 -1.04313e+12 -574969000000.0 -109661000000.0 -373519000000.0 -345612000000.0 -473375000000.0 -455013000000.0 -625249000000.0 -640386000000.0 -497220000000.0 -312524000000.0 -450806000000.0 -812435000000.0 -736331000000.0 -79052100000.0 -249017000000.0 -293620000000.0 -950712000000.0 -692545000000.0 -642966000000.0 -349962000000.0 -246076000000.0 -196699000000.0 -151559000000.0 -28598200000.0 -20259200000.0 -316985000000.0 -153416000000.0 -171407000000.0 -156162000000.0 -244415000000.0 -63595900000.0 -58792900000.0 -84242600000.0 -100370000000.0 -12787900000.0 -21225400000.0 -67379700000.0 -16803400000.0 -74490300000.0 -12549700000.0 -179609000000.0 -74852700000.0 -93608200000.0 -135028000000.0 -155217000000.0 -146343000000.0 -217079000000.0 -22838300000.0 -12814700000.0 -72547000000.0 -31259600000.0 -275388000000.0 -31983600000.0 -45141100000.0 -256189000000.0 -297726000000.0 -124470000000.0 -12549700000.0 -344247000000.0 -282719000000.0 -291080000000.0 -421810000000.0 -212320000000.0 -284995000000.0 -229810000000.0 -215386000000.0 -201018000000.0 -429872000000.0 -142589000000.0 -78888800000.0 -179426000000.0 -121181000000.0 -75171700000.0 -126713000000.0 -12592800000.0 -13099500000.0 -19631000000.0 -17454800000.0 -23159300000.0 -88440600000.0 -331057000000.0 -149888000000.0 -163353000000.0 -176542000000.0 -131408000000.0 -188137000000.0 -104156000000.0 -198057000000.0 -26465900000.0 -51935200000.0 -17136600000.0 -513324000000.0 -389529000000.0 -330080000000.0 -449181000000.0 -362608000000.0 -569209000000.0 -19865000000.0 -703899000000.0 -213824000000.0 -218188000000.0 -252149000000.0 -126260000000.0 -204890000000.0 -88064100000.0 -12549700000.0 -373847000000.0 -237576000000.0 -541631000000.0 -520363000000.0 -789727000000.0 -446480000000.0 -164275000000.0 -12549700000.0 -254794000000.0 -534219000000.0 -269616000000.0 -389907000000.0 -230387000000.0 -119577000000.0 -184212000000.0 -153871000000.0 -34350000000.0 -17464500000.0 -244544000000.0 -106832000000.0 -166400000000.0 -138484000000.0 -155348000000.0 -21706100000.0 -23534200000.0 -56169300000.0 -86478400000.0 -33854200000.0 -28020900000.0 -63645600000.0 -43253700000.0 -51322400000.0 -38731900000.0 -117646000000.0 -25961600000.0 -62763000000.0 -69250500000.0 -177918000000.0 -16904100000.0 -183627000000.0 -107921000000.0 -94070300000.0 -152463000000.0 -130424000000.0 -102273000000.0 -201339000000.0 -96396200000.0 -106608000000.0 -313600000000.0 -38199100000.0 -226354000000.0 -144538000000.0 -103827000000.0 -414913000000.0 -294511000000.0 -380855000000.0 -103452000000.0 -342456000000.0 -119645000000.0 -69351800000.0 -54721100000.0 -227924000000.0 -13955700000.0 -129371000000.0 -265210000000.0 -183411000000.0 -127130000000.0 -62957600000.0 -95876400000.0 -23456500000.0 -15820300000.0 -38492200000.0 -35904900000.0 -156019000000.0 -288262000000.0 -38745000000.0 -66402600000.0 -191919000000.0 -194630000000.0 -207210000000.0 -255177000000.0 -191721000000.0 -425334000000.0 -192493000000.0 -137269000000.0 -403464000000.0 -371298000000.0 -256307000000.0 -152496000000.0 -171311000000.0 -111207000000.0 -531873000000.0 -713078000000.0 -193174000000.0 -262006000000.0 -501277000000.0 -261832000000.0 -380240000000.0 -177338000000.0 -221051000000.0 -308425000000.0 -530430000000.0 -25832300000.0 -223551000000.0 -416094000000.0 -204675000000.0 -529240000000.0 -426457000000.0 -226216000000.0 -443323000000.0 -524073000000.0 -12549700000.0 -81627600000.0 -199238000000.0 -150213000000.0 -158562000000.0 -202937000000.0 -214694000000.0 -282519000000.0 -76132500000.0 -108291000000.0 -145168000000.0 -172501000000.0 -13728300000.0 -15515400000.0 -26463900000.0 -113991000000.0 -45412700000.0 -50125000000.0 -89723200000.0 -82167200000.0 -75971600000.0 -62813600000.0 -154664000000.0 -103025000000.0 -182850000000.0 -207159000000.0 -260636000000.0 -78708900000.0 -149222000000.0 -25658600000.0 -12549700000.0 -102622000000.0 -114381000000.0 -143686000000.0 -37988300000.0 -32384600000.0 -201177000000.0 -14885700000.0 -18549000000.0 -393568000000.0 -222289000000.0 -668753000000.0 -585846000000.0 -655612000000.0 -588105000000.0 -466793000000.0 -254301000000.0 -139022000000.0 -110236000000.0 -105264000000.0 -287418000000.0 -52501100000.0 -126952000000.0 -274215000000.0 -49019600000.0 -12672700000.0 -199963000000.0 -101931000000.0 -106108000000.0 -134739000000.0 -122898000000.0 -136417000000.0 -134168000000.0 -12549700000.0 -343252000000.0 -146420000000.0 -29236200000.0 -97740400000.0 -194261000000.0 -12549700000.0 -79927600000.0 -61967700000.0 -127531000000.0 -54225100000.0 -18682400000.0 -13802400000.0 -273523000000.0 -281786000000.0 -115328000000.0 -12511300000.0 -26286900000.0 -221409000000.0 -202404000000.0 -524570000000.0 -18292000000.0 -244568000000.0 -194401000000.0 -139629000000.0 -161022000000.0 -293728000000.0 -255014000000.0 -448528000000.0 -562842000000.0 -289529000000.0 -347028000000.0 -564438000000.0 -19844700000.0 -169135000000.0 -331727000000.0 -145381000000.0 -135704000000.0 -800481000000.0 -66394500000.0 -90099300000.0 -25493200000.0 -139570000000.0 -128360000000.0 -15075100000.0 -24021400000.0 -60799400000.0 -147505000000.0 -12549700000.0 -18252200000.0 -56733700000.0 -12549700000.0 -158293000000.0 -130666000000.0 -148571000000.0 -47974400000.0 -40682500000.0 -53053500000.0 -94780300000.0 -87471600000.0 -84451400000.0 -126365000000.0 -217249000000.0 -148996000000.0 -87048700000.0 -13971000000.0 -145586000000.0 -12549700000.0 -83984600000.0 -32883200000.0 -14798600000.0 -96272000000.0 -132230000000.0 -193017000000.0 -31437500000.0 -129856000000.0 -115230000000.0 -340656000000.0 -283151000000.0 -314649000000.0 -234260000000.0 -403733000000.0 -14494400000.0 -218122000000.0 -65100500000.0 -500411000000.0 -135865000000.0 -99398200000.0 -182414000000.0 -53788500000.0 -27204800000.0 -189213000000.0 -244504000000.0 -27489000000.0 -140488000000.0 -39808600000.0 -165093000000.0 -86460900000.0 -105813000000.0 -107617000000.0 -94965900000.0 -91287700000.0 -75877100000.0 -120997000000.0 -154970000000.0 -213242000000.0 -47642300000.0 -171889000000.0 -73923100000.0 -15427600000.0 -12549700000.0 -65540600000.0 -29992500000.0 -17371000000.0 -65843200000.0 -256647000000.0 -260867000000.0 -111421000000.0 -83587300000.0 -108923000000.0 -188620000000.0 -202895000000.0 -129228000000.0 -531062000000.0 -312057000000.0 -429478000000.0 -340458000000.0 -479485000000.0 -543640000000.0 -466962000000.0 -122048000000.0 -326160000000.0 -52285200000.0 -709444000000.0 -322778000000.0 -355127000000.0 -383524000000.0 -285346000000.0 -497506000000.0 -520222000000.0 -272021000000.0 -109320000000.0 -33361900000.0 -104848000000.0 -34444600000.0 -44650800000.0 -35514600000.0 -41571800000.0 -34072900000.0 -115743000000.0 -77824300000.0 -62276900000.0 -12549700000.0 -114892000000.0 -75933800000.0 -78619100000.0 -52642900000.0 -42044200000.0 -42119000000.0 -73926100000.0 -41331100000.0 -51092800000.0 -13931500000.0 -84745500000.0 -35594500000.0 -84832100000.0 -110218000000.0 -86094000000.0 -246532000000.0 -178946000000.0 -157222000000.0 -39553500000.0 -188368000000.0 -212684000000.0 -245267000000.0 -113528000000.0 -172079000000.0 -237939000000.0 -79928300000.0 -306965000000.0 -66452500000.0 -47531400000.0 -166339000000.0 -52655500000.0 -697863000000.0 -365307000000.0 -296790000000.0 -264072000000.0 -310731000000.0 -241013000000.0 -379592000000.0 -212584000000.0 -32140800000.0 -220127000000.0 -235829000000.0 -134045000000.0 -137919000000.0 -152623000000.0 -64575600000.0 -82029700000.0 -133700000000.0 -153234000000.0 -92230100000.0 -188528000000.0 -97494500000.0 -69643300000.0 -23598500000.0 -51141200000.0 -44044200000.0 -62825700000.0 -15691100000.0 -12549700000.0 -16624400000.0 -19946500000.0 -211897000000.0 -229128000000.0 -14076400000.0 -70147900000.0 -89281500000.0 -233186000000.0 -172846000000.0 -246155000000.0 -261680000000.0 -212420000000.0 -234318000000.0 -114750000000.0 -119475000000.0 -185377000000.0 -294138000000.0 -503318000000.0 -471683000000.0 -434234000000.0 -221359000000.0 -69276100000.0 -16442000000.0 -193132000000.0 -12549700000.0 -285906000000.0 -191066000000.0 -15514500000.0 -151625000000.0 -101029000000.0 -144607000000.0 -30024500000.0 -17998100000.0 -20331500000.0 -73439500000.0 -72879100000.0 -53422800000.0 -44619600000.0 -122163000000.0 -21426400000.0 -16895400000.0 -23862000000.0 -19263400000.0 -13702300000.0 -12549700000.0 -40066400000.0 -13504000000.0 -29112800000.0 -14370700000.0 -53577000000.0 -12549700000.0 -32383900000.0 -48156300000.0 -34143400000.0 -162163000000.0 -68849200000.0 -74359200000.0 -103616000000.0 -110770000000.0 -163375000000.0 -114295000000.0 -92478800000.0 -99807600000.0 -93419000000.0 -153196000000.0 -129203000000.0 -26320100000.0 -365349000000.0 -340761000000.0 -407474000000.0 -209892000000.0 -103007000000.0 -14148000000.0 -151708000000.0 -132506000000.0 -156204000000.0 -108305000000.0 -67208700000.0 -246817000000.0 -71555800000.0 -75179900000.0 -115166000000.0 -25465400000.0 -77032000000.0 -43209000000.0 -31426900000.0 -23105600000.0 -118975000000.0 -92372400000.0 -160891000000.0 -208830000000.0 -117659000000.0 -160248000000.0 -72190500000.0 -134718000000.0 -121453000000.0 -39473500000.0 -47945300000.0 -20429800000.0 -18641400000.0 -36363000000.0 -13621100000.0 -22769800000.0 -12549700000.0 -113321000000.0 -230561000000.0 -346305000000.0 -400119000000.0 -342836000000.0 -352813000000.0 -404580000000.0 -294650000000.0 -385106000000.0 -495183000000.0 -297225000000.0 -248115000000.0 -286698000000.0 -226413000000.0 -261923000000.0 -263176000000.0 -361832000000.0 -225620000000.0 -259572000000.0 -159192000000.0 -307037000000.0 -85900300000.0 -64024900000.0 -85938700000.0 -142312000000.0 -274126000000.0 -72722800000.0 -70360900000.0 -77476900000.0 -20138800000.0 -19591300000.0 -100103000000.0 -64201400000.0 -64864300000.0 -12650500000.0 -20088700000.0 -15967500000.0 -69382700000.0 -16063800000.0 -12549700000.0 -16280300000.0 -13668500000.0 -12549700000.0 -12549700000.0 -33268200000.0 -12549700000.0 -22009800000.0 -13706100000.0 -18815600000.0 -43194100000.0 -14607000000.0 -20348900000.0 -23535700000.0 -21286600000.0 -77655900000.0 -65401400000.0 -53052100000.0 -88168400000.0 -121400000000.0 -167414000000.0 -161668000000.0 -98401200000.0 -101256000000.0 -101826000000.0 -155800000000.0 -164729000000.0 -242555000000.0 -299588000000.0 -116410000000.0 -395435000000.0 -100899000000.0 -167109000000.0 -222364000000.0 -269113000000.0 -77178200000.0 -50406500000.0 -175471000000.0 -98332700000.0 -88213400000.0 -113903000000.0 -116601000000.0 -115387000000.0 -85274100000.0 -85515400000.0 -92666200000.0 -109005000000.0 -99343000000.0 -101019000000.0 -255033000000.0 -177639000000.0 -96483600000.0 -24743200000.0 -26640500000.0 -30584700000.0 -19276000000.0 -12549700000.0 -12549700000.0 -23538900000.0 -98329600000.0 -86523800000.0 -85719400000.0 -27245000000.0 -59757000000.0 -111782000000.0 -32225400000.0 -78992300000.0 -122786000000.0 -15550000000.0 -42723500000.0 -22577300000.0 -65393800000.0 -24798500000.0 -95373000000.0 -73790300000.0 -48308500000.0 -99814700000.0 -75446200000.0 -158475000000.0 -99179500000.0 -141096000000.0 -94305600000.0 -83041700000.0 -112320000000.0 -81962500000.0 -66079300000.0 -38110000000.0 -40865400000.0 -56164600000.0 -25474400000.0 -31043400000.0 -30938300000.0 -18105100000.0 -20945900000.0 -17120300000.0 -59765400000.0 -13587000000.0 -13818100000.0 -13542700000.0 -12610600000.0 -12549700000.0 -12777900000.0 -17650200000.0 -24492100000.0 -25165300000.0 -36346400000.0 -19538500000.0 -12549700000.0 -12549700000.0 -36095600000.0 -30597000000.0 -18688900000.0 -25653600000.0 -43186800000.0 -15742600000.0 -27210000000.0 -56120700000.0 -26988200000.0 -71909300000.0 -85126600000.0 -158764000000.0 -209089000000.0 -182825000000.0 -115050000000.0 -271030000000.0 -86263300000.0 -125610000000.0 -69025500000.0 -48176400000.0 -87732100000.0 -61082900000.0 -86020900000.0 -78974400000.0 -68910100000.0 -32913600000.0 -22694100000.0 -17155100000.0 -51946800000.0 -12549700000.0 -38745100000.0 -19845800000.0 -57779600000.0 -48667900000.0 -24941800000.0 -14469300000.0 -51124300000.0 -76622500000.0 -12549700000.0 -63887600000.0 -26765100000.0 -66888200000.0 -33958400000.0 -37213100000.0 -36837600000.0 -21748800000.0 -15190700000.0 -18567900000.0 -51631400000.0 -44977000000.0 -35579600000.0 -16689300000.0 -31433100000.0 -64663100000.0 -35571700000.0 -73894500000.0 -48581500000.0 -30601100000.0 -39428400000.0 -40648900000.0 -42063000000.0 -49157300000.0 -12549700000.0 -12549700000.0 -21401400000.0 -31933100000.0 -21308300000.0 -30961100000.0 -12549700000.0 -17379200000.0 -16651600000.0 -15703400000.0 -56605000000.0 -21699000000.0 -18776700000.0 -12549700000.0 -14370000000.0 -19475400000.0 -13337800000.0 -16174200000.0 -15064700000.0 -12549700000.0 -13892600000.0 -13595300000.0 -18940800000.0 -32193700000.0 -26793700000.0 -24849700000.0 -25108400000.0 -23996100000.0 -22603300000.0 -24112500000.0 -27402000000.0 -26910700000.0 -24240900000.0 -27812000000.0 -21741000000.0 -30381100000.0 -30259400000.0 -41796900000.0 -38518900000.0 -33613500000.0 -35762500000.0 -35610800000.0 -25778800000.0 -60209700000.0 -96022300000.0 -83504300000.0 -88139300000.0 -77373000000.0 -50084800000.0 -74354200000.0 -77097700000.0 -32662200000.0 -29490500000.0 -37336000000.0 -23757500000.0 -23836700000.0 -14731700000.0 -16367700000.0 -13640700000.0 -12549700000.0 -17063000000.0 -29363700000.0 -19424000000.0 -16795800000.0 -21979700000.0 -20678700000.0 -25275100000.0 -12549700000.0 -23313200000.0 -24129400000.0 -26160900000.0 -28119800000.0 -18462900000.0 -33495800000.0 -24404000000.0 -40952900000.0 -28590000000.0 -33664000000.0 -23714700000.0 -22785500000.0 -14344600000.0 -12549700000.0 -13423000000.0 