# vtk DataFile Version 2.0
Time step 76
ASCII
DATASET UNSTRUCTURED_GRID
POINTS 5000 float
233210.0 185408.0 0
279281.0 185418.0 0
196543.0 191660.0 0
202632.0 190344.0 0
209525.0 188939.0 0
215059.0 190680.0 0
219807.0 186739.0 0
227943.0 186871.0 0
224900.0 190170.0 0
231933.0 188546.0 0
236788.0 188102.0 0
242535.0 189046.0 0
249015.0 190453.0 0
255322.0 189802.0 0
263605.0 189618.0 0
268610.0 190214.0 0
273350.0 187171.0 0
283594.0 189833.0 0
289330.0 189101.0 0
296850.0 191269.0 0
302277.0 191514.0 0
194838.0 196861.0 0
199863.0 194890.0 0
202944.0 194564.0 0
206481.0 193602.0 0
211414.0 195036.0 0
216350.0 195561.0 0
220491.0 192216.0 0
228851.0 191549.0 0
225383.0 194728.0 0
233632.0 192751.0 0
238898.0 193113.0 0
243997.0 194538.0 0
252389.0 194707.0 0
259737.0 191623.0 0
256435.0 194671.0 0
265211.0 193800.0 0
261338.0 195708.0 0
271147.0 194706.0 0
273790.0 191679.0 0
275802.0 196206.0 0
278329.0 191522.0 0
281942.0 194922.0 0
285341.0 193662.0 0
288604.0 193946.0 0
292342.0 193091.0 0
302778.0 196857.0 0
199062.0 199418.0 0
204173.0 198275.0 0
209326.0 200002.0 0
214418.0 199822.0 0
220998.0 198032.0 0
226376.0 199948.0 0
229992.0 196491.0 0
231144.0 200878.0 0
234483.0 197787.0 0
239893.0 198464.0 0
248683.0 196941.0 0
245050.0 200589.0 0
253284.0 198762.0 0
258067.0 199219.0 0
262673.0 199872.0 0
267467.0 198285.0 0
272248.0 198739.0 0
276186.0 201410.0 0
279779.0 198489.0 0
285776.0 197604.0 0
291243.0 197320.0 0
294042.0 200507.0 0
297170.0 197152.0 0
302773.0 201878.0 0
308286.0 201441.0 0
191382.0 206528.0 0
193835.0 202231.0 0
198977.0 204609.0 0
204983.0 204297.0 0
212407.0 205298.0 0
218406.0 203236.0 0
222725.0 202011.0 0
228533.0 204649.0 0
232824.0 204268.0 0
236142.0 202050.0 0
240810.0 204147.0 0
246099.0 205645.0 0
249952.0 202305.0 0
254820.0 203561.0 0
259996.0 203793.0 0
265840.0 204213.0 0
270658.0 202111.0 0
273354.0 204001.0 0
270843.0 205934.0 0
278868.0 205542.0 0
282955.0 202416.0 0
288883.0 202050.0 0
293331.0 204350.0 0
296483.0 206828.0 0
297999.0 202509.0 0
195172.0 209282.0 0
200851.0 209912.0 0
206481.0 210055.0 0
211687.0 211193.0 0
217543.0 208709.0 0
223341.0 206281.0 0
226999.0 209529.0 0
231736.0 208730.0 0
236170.0 206236.0 0
243904.0 208759.0 0
240897.0 208590.0 0
246813.0 210082.0 0
250856.0 207170.0 0
254546.0 210070.0 0
257224.0 207049.0 0
261671.0 208965.0 0
268009.0 210557.0 0
274857.0 207306.0 0
283469.0 209002.0 0
288728.0 206933.0 0
288547.0 210807.0 0
292713.0 209038.0 0
300052.0 207442.0 0
297890.0 210896.0 0
301832.0 212282.0 0
305472.0 208019.0 0
190256.0 214020.0 0
194346.0 213985.0 0
199172.0 216024.0 0
205410.0 215629.0 0
216131.0 213383.0 0
221968.0 211884.0 0
219389.0 215614.0 0
226528.0 213479.0 0
230101.0 212855.0 0
233244.0 215731.0 0
236972.0 211388.0 0
242769.0 212655.0 0
247158.0 213821.0 0
250429.0 211731.0 0
253734.0 214915.0 0
258204.0 212844.0 0
263070.0 214660.0 0
267853.0 215986.0 0
273780.0 211783.0 0
271269.0 214659.0 0
278288.0 211339.0 0
276450.0 215905.0 0
280546.0 214256.0 0
286159.0 213263.0 0
283371.0 214082.0 0
285645.0 216700.0 0
289975.0 214910.0 0
294179.0 213158.0 0
297716.0 215631.0 0
302612.0 217503.0 0
305158.0 213600.0 0
307575.0 216722.0 0
309720.0 212629.0 0
189252.0 218406.0 0
190371.0 222561.0 0
194002.0 218426.0 0
202288.0 220308.0 0
206811.0 220917.0 0
211774.0 217090.0 0
217411.0 219496.0 0
223605.0 217283.0 0
228682.0 217151.0 0
234109.0 220789.0 0
238917.0 217190.0 0
244687.0 217551.0 0
249540.0 216798.0 0
248164.0 221007.0 0
253114.0 220052.0 0
258383.0 218118.0 0
265291.0 219833.0 0
271762.0 219128.0 0
276796.0 220699.0 0
281197.0 218321.0 0
289074.0 219883.0 0
293743.0 218221.0 0
298061.0 220505.0 0
306932.0 220811.0 0
310528.0 221178.0 0
190395.0 226664.0 0
193508.0 224854.0 0
197372.0 227525.0 0
197647.0 222290.0 0
202329.0 225470.0 0
207019.0 225201.0 0
211877.0 223292.0 0
217633.0 224697.0 0
221961.0 221954.0 0
228207.0 222740.0 0
238928.0 222221.0 0
235715.0 225260.0 0
243591.0 222323.0 0
246696.0 224445.0 0
251400.0 225616.0 0
257078.0 223799.0 0
261184.0 221732.0 0
266765.0 223977.0 0
271454.0 224528.0 0
276472.0 225080.0 0
280549.0 223390.0 0
284738.0 221782.0 0
288188.0 224235.0 0
293094.0 223656.0 0
302935.0 222905.0 0
298450.0 225734.0 0
306503.0 225947.0 0
309695.0 224205.0 0
191553.0 230565.0 0
196253.0 232652.0 0
200624.0 230256.0 0
205832.0 229747.0 0
209455.0 227332.0 0
209878.0 229956.0 0
213590.0 228430.0 0
223239.0 226593.0 0
218993.0 229937.0 0
227745.0 228237.0 0
231876.0 226913.0 0
236180.0 230295.0 0
241054.0 226789.0 0
246217.0 227955.0 0
250345.0 231014.0 0
256824.0 230280.0 0
262197.0 225946.0 0
262888.0 230731.0 0
267542.0 228552.0 0
274086.0 228803.0 0
279467.0 229316.0 0
284280.0 226663.0 0
289580.0 228795.0 0
294411.0 228365.0 0
298498.0 231684.0 0
303554.0 229200.0 0
309464.0 229108.0 0
192158.0 234636.0 0
198020.0 237052.0 0
200926.0 234384.0 0
205227.0 234697.0 0
209308.0 233009.0 0
214340.0 233519.0 0
220072.0 235330.0 0
224420.0 231789.0 0
228164.0 234216.0 0
230873.0 231159.0 0
233440.0 234975.0 0
238240.0 235278.0 0
241413.0 231791.0 0
245819.0 232109.0 0
248692.0 235599.0 0
253039.0 234658.0 0
261367.0 234376.0 0
270836.0 232103.0 0
266261.0 234192.0 0
275758.0 233659.0 0
280672.0 234749.0 0
284984.0 231988.0 0
288255.0 235296.0 0
292664.0 233583.0 0
299439.0 236608.0 0
304600.0 235289.0 0
310670.0 233991.0 0
193742.0 238665.0 0
196231.0 243532.0 0
201803.0 238199.0 0
206400.0 239425.0 0
210613.0 236840.0 0
211403.0 241112.0 0
215441.0 238253.0 0
220180.0 240242.0 0
225005.0 236466.0 0
229710.0 238128.0 0
235215.0 239990.0 0
243580.0 236514.0 0
239883.0 238941.0 0
242920.0 241412.0 0
247234.0 239920.0 0
251913.0 239219.0 0
257386.0 237348.0 0
263049.0 238126.0 0
267234.0 238655.0 0
270847.0 241220.0 0
271261.0 236577.0 0
275790.0 239233.0 0
284874.0 236538.0 0
291033.0 238048.0 0
295568.0 238460.0 0
301443.0 239971.0 0
305638.0 242303.0 0
202238.0 242814.0 0
207643.0 244593.0 0
215419.0 241796.0 0
213710.0 246114.0 0
218134.0 243899.0 0
222327.0 244642.0 0
225504.0 241045.0 0
226764.0 246121.0 0
230557.0 243161.0 0
235340.0 245504.0 0
239838.0 245147.0 0
239304.0 241873.0 0
243438.0 245011.0 0
246266.0 243208.0 0
250101.0 243623.0 0
260601.0 241554.0 0
255616.0 243529.0 0
265518.0 243100.0 0
260774.0 245676.0 0
269905.0 244603.0 0
274215.0 244197.0 0
281445.0 239890.0 0
278294.0 243367.0 0
278999.0 246497.0 0
282688.0 245037.0 0
287181.0 240984.0 0
293187.0 243351.0 0
300017.0 245280.0 0
199964.0 247267.0 0
202737.0 251552.0 0
206003.0 249198.0 0
210238.0 249246.0 0
216110.0 251307.0 0
219152.0 247972.0 0
223565.0 248592.0 0
231024.0 248408.0 0
234899.0 249959.0 0
238366.0 249288.0 0
242130.0 248878.0 0
246850.0 247507.0 0
252078.0 248630.0 0
257330.0 248904.0 0
264102.0 247552.0 0
261368.0 250403.0 0
267806.0 247618.0 0
269567.0 250979.0 0
271852.0 247875.0 0
276174.0 248535.0 0
280601.0 249887.0 0
284005.0 248562.0 0
287900.0 246736.0 0
292817.0 248419.0 0
297025.0 250494.0 0
201521.0 255219.0 0
205744.0 255164.0 0
208719.0 252582.0 0
212166.0 252734.0 0
218553.0 255318.0 0
214880.0 255947.0 0
221545.0 252343.0 0
227255.0 251496.0 0
224964.0 255414.0 0
232595.0 253807.0 0
236816.0 252947.0 0
244587.0 252078.0 0
240389.0 253264.0 0
243339.0 255755.0 0
248455.0 251864.0 0
246859.0 255629.0 0
254969.0 252507.0 0
251440.0 254772.0 0
258248.0 253369.0 0
255562.0 256188.0 0
261743.0 254427.0 0
265325.0 255816.0 0
265828.0 251617.0 0
269792.0 255346.0 0
273129.0 251799.0 0
274306.0 254961.0 0
277188.0 252805.0 0
280927.0 254483.0 0
284899.0 252215.0 0
289074.0 251339.0 0
288360.0 256093.0 0
292591.0 253276.0 0
296721.0 255987.0 0
201981.0 258204.0 0
204954.0 259088.0 0
207819.0 258889.0 0
210507.0 256658.0 0
214079.0 259915.0 0
218397.0 259656.0 0
221928.0 257623.0 0
229112.0 256651.0 0
225659.0 259553.0 0
233222.0 258674.0 0
229711.0 261099.0 0
237054.0 257031.0 0
240820.0 257239.0 0
244306.0 259400.0 0
240130.0 260725.0 0
248848.0 258926.0 0
252950.0 258949.0 0
258884.0 257122.0 0
256402.0 260018.0 0
259404.0 261131.0 0
262311.0 258755.0 0
266472.0 259658.0 0
270291.0 260743.0 0
273265.0 258109.0 0
277349.0 257566.0 0
278373.0 262025.0 0
281491.0 258622.0 0
284251.0 256203.0 0
285742.0 259780.0 0
292488.0 258163.0 0
293248.0 261333.0 0
296913.0 261287.0 0
202701.0 262425.0 0
202120.0 266992.0 0
206754.0 262153.0 0
205182.0 265664.0 0
208639.0 266098.0 0
210586.0 261975.0 0
213472.0 264255.0 0
211884.0 266885.0 0
216383.0 263279.0 0
222500.0 261857.0 0
219747.0 264039.0 0
223218.0 266508.0 0
226505.0 264074.0 0
232885.0 262769.0 0
230457.0 265406.0 0
234357.0 266214.0 0
236234.0 261756.0 0
238799.0 265575.0 0
242961.0 263769.0 0
247067.0 262908.0 0
249895.0 265807.0 0
251096.0 262243.0 0
254427.0 262247.0 0
253154.0 265028.0 0
257583.0 265216.0 0
263020.0 263507.0 0
267298.0 263626.0 0
266212.0 266926.0 0
274361.0 261993.0 0
270779.0 265572.0 0
275590.0 265893.0 0
279910.0 266818.0 0
282765.0 262799.0 0
284217.0 266419.0 0
289742.0 261579.0 0
286703.0 264235.0 0
290027.0 266220.0 0
293625.0 264598.0 0
297679.0 265938.0 0
202276.0 270835.0 0
205539.0 269040.0 0
209205.0 269846.0 0
212939.0 270695.0 0
216266.0 267812.0 0
219989.0 267079.0 0
223881.0 270247.0 0
220507.0 270289.0 0
227531.0 268714.0 0
231150.0 268378.0 0
233323.0 269991.0 0
236669.0 269816.0 0
242428.0 267373.0 0
240377.0 270008.0 0
243963.0 270390.0 0
245964.0 267132.0 0
249287.0 269306.0 0
246777.0 270927.0 0
253644.0 269194.0 0
257982.0 270747.0 0
261718.0 268107.0 0
264876.0 270312.0 0
268639.0 270195.0 0
273274.0 269546.0 0
277212.0 270137.0 0
280324.0 271184.0 0
283540.0 269965.0 0
287008.0 268319.0 0
289902.0 270384.0 0
293659.0 269025.0 0
297749.0 269629.0 0
197272.0 277149.0 0
203095.0 275178.0 0
206410.0 272287.0 0
207756.0 276198.0 0
210042.0 273204.0 0
213242.0 274080.0 0
211669.0 277240.0 0
217303.0 273095.0 0
221921.0 273854.0 0
225864.0 273429.0 0
228427.0 277216.0 0
230328.0 272746.0 0
234506.0 273707.0 0
232191.0 277176.0 0
238235.0 273674.0 0
242098.0 273755.0 0
245870.0 273917.0 0
250182.0 273749.0 0
254769.0 274087.0 0
258492.0 275227.0 0
261568.0 272933.0 0
265374.0 273847.0 0
268476.0 274269.0 0
271624.0 273453.0 0
273802.0 276454.0 0
270367.0 277357.0 0
275608.0 273408.0 0
279200.0 274423.0 0
276635.0 277306.0 0
282787.0 273038.0 0
283103.0 276360.0 0
286543.0 272815.0 0
295006.0 273059.0 0
291141.0 274069.0 0
294842.0 276815.0 0
298392.0 272619.0 0
297904.0 275554.0 0
202009.0 279102.0 0
205848.0 279763.0 0
210199.0 281035.0 0
215911.0 277729.0 0
214401.0 281613.0 0
218440.0 281239.0 0
220311.0 277577.0 0
224376.0 277439.0 0
222819.0 281371.0 0
226393.0 280176.0 0
230061.0 280948.0 0
234121.0 281122.0 0
236059.0 277554.0 0
238032.0 281483.0 0
244230.0 277127.0 0
240123.0 277903.0 0
243556.0 281954.0 0
247715.0 277810.0 0
249071.0 281764.0 0
252046.0 278029.0 0
254963.0 279984.0 0
252779.0 281718.0 0
255812.0 277288.0 0
258524.0 279166.0 0
262254.0 277518.0 0
261210.0 281883.0 0
264924.0 281471.0 0
266577.0 277753.0 0
269222.0 281284.0 0
273438.0 280168.0 0
279830.0 278754.0 0
276868.0 279893.0 0
279115.0 282015.0 0
283421.0 281109.0 0
287088.0 277298.0 0
287618.0 282203.0 0
291452.0 278886.0 0
295205.0 280611.0 0
297987.0 278657.0 0
297916.0 281987.0 0
202887.0 282972.0 0
202253.0 286737.0 0
207438.0 284130.0 0
205450.0 286922.0 0
212095.0 286024.0 0
216700.0 284971.0 0
220308.0 283826.0 0
222524.0 285623.0 0
219707.0 287460.0 0
226733.0 284676.0 0
232040.0 284610.0 0
235763.0 284960.0 0
239403.0 284670.0 0
242594.0 287390.0 0
246791.0 285653.0 0
251723.0 285720.0 0
256783.0 283743.0 0
260719.0 285782.0 0
263615.0 284750.0 0
267271.0 285087.0 0
272361.0 285331.0 0
276181.0 282547.0 0
277243.0 285767.0 0
281117.0 284585.0 0
284820.0 286186.0 0
288986.0 285666.0 0
292527.0 283518.0 0
296897.0 285602.0 0
203083.0 290679.0 0
208524.0 289468.0 0
212599.0 290179.0 0
214111.0 292509.0 0
215914.0 289277.0 0
217016.0 292665.0 0
223287.0 288719.0 0
220227.0 291389.0 0
226807.0 290246.0 0
230612.0 288075.0 0
234551.0 289051.0 0
230890.0 292000.0 0
238376.0 288153.0 0
237566.0 291924.0 0
240634.0 290937.0 0
243785.0 292038.0 0
245497.0 289271.0 0
248596.0 288642.0 0
247294.0 292123.0 0
251372.0 290993.0 0
255960.0 289277.0 0
264681.0 288560.0 0
260540.0 289450.0 0
269335.0 289682.0 0
274940.0 290064.0 0
272033.0 292222.0 0
280211.0 289511.0 0
284539.0 290489.0 0
288221.0 289773.0 0
292289.0 287746.0 0
295067.0 289650.0 0
292222.0 292180.0 0
298159.0 289426.0 0
302750.0 290882.0 0
202951.0 295001.0 0
207036.0 293727.0 0
208298.0 297082.0 0
204884.0 297956.0 0
211059.0 293127.0 0
212172.0 296329.0 0
215797.0 295678.0 0
223984.0 292903.0 0
220471.0 296219.0 0
227950.0 294473.0 0
225135.0 297191.0 0
234092.0 293668.0 0
231186.0 296560.0 0
237283.0 295524.0 0
240871.0 295013.0 0
245281.0 295970.0 0
249700.0 295045.0 0
253920.0 294400.0 0
258119.0 294199.0 0
259314.0 297929.0 0
262469.0 293067.0 0
262385.0 296663.0 0
266308.0 293212.0 0
270042.0 294551.0 0
274437.0 295122.0 0
277944.0 293738.0 0
282352.0 294385.0 0
287665.0 295221.0 0
292858.0 297233.0 0
296749.0 293408.0 0
297778.0 297281.0 0
304194.0 296652.0 0
201537.0 298096.0 0
202486.0 300866.0 0
206520.0 301346.0 0
213865.0 299631.0 0
210478.0 300065.0 0
213027.0 303000.0 0
217048.0 299641.0 0
216697.0 302845.0 0
220116.0 300608.0 0
223423.0 301018.0 0
228276.0 298290.0 0
227249.0 301618.0 0
234774.0 298426.0 0
230583.0 300315.0 0
233459.0 301623.0 0
238809.0 299317.0 0
236260.0 301756.0 0
242379.0 298709.0 0
241630.0 301274.0 0
248635.0 299115.0 0
245384.0 300835.0 0
249949.0 301978.0 0
252424.0 298276.0 0
253314.0 301765.0 0
255855.0 297894.0 0
257399.0 301238.0 0
262160.0 300925.0 0
265205.0 302299.0 0
266377.0 298142.0 0
267681.0 302039.0 0
270303.0 301861.0 0
270818.0 298504.0 0
272928.0 301129.0 0
274773.0 299092.0 0
279372.0 298520.0 0
276449.0 302494.0 0
284175.0 299112.0 0
283428.0 302474.0 0
288227.0 300778.0 0
293078.0 301812.0 0
297329.0 300634.0 0
197681.0 308814.0 0
202391.0 304202.0 0
202289.0 307418.0 0
205532.0 304391.0 0
207914.0 305670.0 0
205554.0 307319.0 0
208910.0 307921.0 0
209419.0 303583.0 0
211038.0 306152.0 0
219602.0 303201.0 0
215079.0 306413.0 0
218845.0 305809.0 0
222909.0 305002.0 0
226861.0 305466.0 0
230639.0 304090.0 0
230167.0 307195.0 0
234487.0 305014.0 0
238986.0 303331.0 0
237720.0 306918.0 0
243181.0 304266.0 0
241226.0 307370.0 0
247804.0 304442.0 0
245202.0 307488.0 0
248230.0 308110.0 0
251507.0 305317.0 0
250906.0 308075.0 0
255320.0 305243.0 0
259887.0 304952.0 0
257694.0 307835.0 0
263762.0 304389.0 0
263997.0 308031.0 0
266457.0 304799.0 0
269730.0 305348.0 0
267514.0 307719.0 0
273015.0 303900.0 0
273287.0 307419.0 0
280091.0 303067.0 0
277349.0 306534.0 0
281969.0 307119.0 0
290114.0 304341.0 0
286472.0 305170.0 0
294624.0 305574.0 0
291724.0 306534.0 0
297939.0 303750.0 0
297984.0 306922.0 0
202321.0 310593.0 0
206047.0 310427.0 0
212142.0 308988.0 0
209581.0 311332.0 0
213573.0 313324.0 0
218145.0 308944.0 0
215243.0 310268.0 0
218318.0 312286.0 0
220970.0 308250.0 0
224375.0 309126.0 0
221280.0 311187.0 0
224356.0 313514.0 0
227908.0 309661.0 0
232906.0 308443.0 0
231433.0 312177.0 0
234964.0 312715.0 0
235961.0 309927.0 0
239558.0 311039.0 0
237287.0 313265.0 0
243744.0 310730.0 0
247805.0 312057.0 0
254420.0 309312.0 0
251138.0 311491.0 0
257938.0 310856.0 0
256460.0 312729.0 0
260433.0 309022.0 0
261354.0 311628.0 0
264566.0 312345.0 0
270359.0 308683.0 0
267789.0 310593.0 0
273645.0 310775.0 0
270708.0 312810.0 0
277235.0 310458.0 0
280324.0 310852.0 0
285434.0 310231.0 0
282924.0 312840.0 0
289508.0 308906.0 0
290769.0 312777.0 0
293907.0 309357.0 0
294408.0 312668.0 0
297532.0 309864.0 0
297659.0 312953.0 0
202669.0 313972.0 0
202486.0 317215.0 0
206211.0 314081.0 0
206186.0 317492.0 0
210045.0 315931.0 0
216518.0 316596.0 0
220794.0 315127.0 0
221829.0 318185.0 0
228085.0 313786.0 0
225366.0 318063.0 0
228886.0 317238.0 0
231969.0 316434.0 0
234664.0 315344.0 0
238023.0 317341.0 0
240419.0 313976.0 0
243224.0 314483.0 0
241981.0 317142.0 0
246416.0 316144.0 0
253542.0 314215.0 0
250511.0 316453.0 0
259463.0 313485.0 0
257144.0 316497.0 0
262494.0 316140.0 0
267044.0 314453.0 0
265849.0 318173.0 0
269466.0 316864.0 0
273643.0 315791.0 0
279846.0 314670.0 0
276352.0 313970.0 0
277655.0 317556.0 0
284514.0 315480.0 0
281755.0 317490.0 0
287296.0 313524.0 0
287522.0 317065.0 0
290969.0 316369.0 0
294421.0 315272.0 0
294140.0 317550.0 0
297574.0 315994.0 0
196515.0 322446.0 0
201776.0 320085.0 0
202921.0 323108.0 0
204777.0 319737.0 0
208611.0 320080.0 0
206440.0 322057.0 0
212815.0 319437.0 0
210633.0 322744.0 0
218924.0 320402.0 0
215397.0 322539.0 0
223405.0 321334.0 0
227004.0 322287.0 0
233511.0 319996.0 0
229854.0 320433.0 0
237151.0 322406.0 0
243885.0 319245.0 0
241162.0 321404.0 0
247405.0 319889.0 0
245182.0 323359.0 0
254153.0 319164.0 0
250891.0 321407.0 0
259987.0 320074.0 0
256508.0 321902.0 0
263612.0 321406.0 0
268015.0 322601.0 0
275351.0 319132.0 0
271683.0 320196.0 0
273692.0 323012.0 0
279878.0 320325.0 0
276756.0 321444.0 0
284317.0 319034.0 0
283516.0 322173.0 0
287687.0 320797.0 0
290745.0 323021.0 0
291112.0 319567.0 0
293790.0 319971.0 0
293971.0 323029.0 0
297410.0 319156.0 0
297420.0 322433.0 0
303051.0 321778.0 0
195692.0 327364.0 0
202224.0 326090.0 0
207607.0 324111.0 0
205449.0 325526.0 0
206577.0 328393.0 0
213296.0 325146.0 0
209417.0 326401.0 0
217611.0 324967.0 0
216666.0 327728.0 0
221124.0 324130.0 0
220560.0 327896.0 0
224713.0 325171.0 0
227790.0 328107.0 0
229654.0 325000.0 0
232073.0 323314.0 0
232800.0 327261.0 0
234291.0 324589.0 0
238901.0 325719.0 0
235976.0 326512.0 0
241855.0 324841.0 0
243598.0 327661.0 0
239871.0 328927.0 0
248566.0 325012.0 0
246559.0 328182.0 0
253694.0 324120.0 0
252159.0 326682.0 0
254378.0 328426.0 0
260057.0 324374.0 0
257062.0 326100.0 0
262838.0 324407.0 0
262210.0 327994.0 0
266011.0 326333.0 0
269587.0 328099.0 0
270840.0 325312.0 0
273206.0 326251.0 0
280249.0 324052.0 0
276809.0 324968.0 0
277382.0 328909.0 0
284027.0 325749.0 0
281126.0 327116.0 0
286712.0 324156.0 0
289626.0 326601.0 0
285935.0 328764.0 0
294541.0 326337.0 0
298335.0 324974.0 0
297915.0 327321.0 0
202865.0 329013.0 0
202885.0 332675.0 0
206216.0 331795.0 0
212471.0 329529.0 0
209467.0 331135.0 0
213580.0 333413.0 0
216601.0 331374.0 0
224190.0 329039.0 0
219896.0 331250.0 0
223613.0 333347.0 0
227319.0 332162.0 0
230773.0 330479.0 0
233996.0 332717.0 0
235941.0 329558.0 0
238063.0 331844.0 0
243216.0 331963.0 0
240012.0 332351.0 0
246814.0 331467.0 0
249490.0 331878.0 0
250115.0 329202.0 0
252502.0 330910.0 0
251201.0 333972.0 0
258912.0 329210.0 0
255891.0 331756.0 0
263417.0 331086.0 0
260255.0 333034.0 0
266341.0 329449.0 0
266892.0 332436.0 0
270255.0 331346.0 0
273380.0 329301.0 0
273788.0 332872.0 0
280155.0 331357.0 0
276599.0 333162.0 0
282411.0 329468.0 0
284372.0 332112.0 0
289237.0 331555.0 0
286381.0 333688.0 0
293302.0 329950.0 0
297781.0 329892.0 0
297078.0 333016.0 0
201935.0 335939.0 0
202001.0 338434.0 0
208352.0 334407.0 0
205298.0 335687.0 0
208904.0 337599.0 0
205497.0 338536.0 0
211200.0 334648.0 0
211714.0 337158.0 0
217761.0 334382.0 0
215136.0 336529.0 0
218608.0 338003.0 0
220407.0 335711.0 0
221796.0 338995.0 0
229139.0 334402.0 0
225762.0 337544.0 0
229405.0 338398.0 0
231970.0 335714.0 0
237494.0 334950.0 0
235109.0 337026.0 0
238963.0 338392.0 0
244574.0 335769.0 0
240876.0 334781.0 0
241785.0 337383.0 0
247647.0 334391.0 0
249344.0 337579.0 0
254847.0 335724.0 0
258446.0 336939.0 0
263659.0 334687.0 0
262071.0 337511.0 0
267531.0 336161.0 0
271398.0 335112.0 0
274129.0 336504.0 0
271510.0 338098.0 0
278112.0 336828.0 0
281717.0 334279.0 0
284206.0 336999.0 0
281427.0 339177.0 0
290624.0 335032.0 0
287835.0 336678.0 0
288269.0 339232.0 0
293634.0 334202.0 0
294663.0 337134.0 0
291733.0 337821.0 0
297696.0 336155.0 0
298154.0 338492.0 0
202162.0 340963.0 0
202053.0 343434.0 0
205703.0 341685.0 0
209223.0 340603.0 0
211785.0 339666.0 0
210218.0 343726.0 0
213670.0 342880.0 0
214717.0 339745.0 0
217682.0 340460.0 0
217049.0 343625.0 0
220912.0 342625.0 0
224597.0 342672.0 0
227925.0 342358.0 0
232413.0 339281.0 0
231390.0 343067.0 0
236102.0 340047.0 0
234948.0 343275.0 0
242783.0 339973.0 0
239929.0 341999.0 0
243285.0 342689.0 0
246266.0 339313.0 0
247116.0 343363.0 0
252770.0 339440.0 0
250884.0 342400.0 0
255559.0 341491.0 0
258648.0 340677.0 0
259764.0 343927.0 0
264615.0 338715.0 0
261827.0 340598.0 0
263104.0 342911.0 0
269014.0 339622.0 0
265838.0 341662.0 0
273338.0 339539.0 0
271283.0 342321.0 0
274367.0 343799.0 0
276357.0 340546.0 0
278493.0 342421.0 0
285422.0 339670.0 0
281811.0 342114.0 0
285110.0 342165.0 0
288463.0 342409.0 0
291528.0 340785.0 0
294917.0 339550.0 0
293432.0 343887.0 0
298005.0 340703.0 0
296818.0 343542.0 0
196497.0 347310.0 0
202748.0 346227.0 0
202490.0 349235.0 0
206421.0 345125.0 0
207659.0 348368.0 0
211225.0 346832.0 0
217678.0 347075.0 0
214457.0 346647.0 0
220996.0 346836.0 0
224801.0 346709.0 0
227744.0 346759.0 0
231293.0 347447.0 0
237411.0 344857.0 0
234669.0 347762.0 0
237476.0 349035.0 0
241910.0 345236.0 0
239705.0 346964.0 0
244671.0 346776.0 0
249597.0 346786.0 0
247298.0 348887.0 0
252448.0 345004.0 0
253470.0 347788.0 0
255514.0 344652.0 0
255647.0 349363.0 0
258201.0 347346.0 0
261389.0 348160.0 0
263184.0 345925.0 0
267989.0 344359.0 0
266541.0 347438.0 0
269651.0 349021.0 0
270963.0 345534.0 0
272453.0 347516.0 0
277884.0 345011.0 0
275746.0 346951.0 0
279296.0 347463.0 0
281093.0 345159.0 0
285373.0 345186.0 0
283663.0 347099.0 0
281552.0 349058.0 0
288467.0 345524.0 0
288147.0 348235.0 0
291324.0 345883.0 0
292088.0 348943.0 0
294781.0 347712.0 0
297977.0 346406.0 0
297726.0 348962.0 0
303399.0 347680.0 0
201797.0 351826.0 0
202493.0 354393.0 0
205432.0 350424.0 0
209094.0 353507.0 0
205778.0 353451.0 0
210729.0 350675.0 0
214039.0 353330.0 0
214665.0 349990.0 0
217623.0 350499.0 0
217167.0 354087.0 0
221073.0 350501.0 0
220198.0 353439.0 0
224444.0 352952.0 0
224901.0 350074.0 0
230417.0 350664.0 0
227483.0 350108.0 0
226953.0 352859.0 0
229257.0 353454.0 0
233150.0 352327.0 0
235415.0 351328.0 0
238603.0 353998.0 0
240348.0 350309.0 0
243352.0 349951.0 0
244908.0 353068.0 0
248215.0 351803.0 0
251281.0 349719.0 0
253290.0 352578.0 0
258929.0 351004.0 0
256778.0 352430.0 0
261839.0 351834.0 0
264930.0 350641.0 0
267046.0 353406.0 0
270244.0 352528.0 0
273443.0 351316.0 0
276915.0 350522.0 0
280726.0 352110.0 0
285625.0 349778.0 0
284240.0 353103.0 0
289607.0 351608.0 0
287323.0 354560.0 0
293963.0 351495.0 0
293611.0 354155.0 0
291309.0 354179.0 0
297146.0 351673.0 0
197463.0 360329.0 0
201978.0 357272.0 0
205478.0 357072.0 0
208895.0 357230.0 0
212143.0 355822.0 0
214149.0 357913.0 0
217477.0 357414.0 0
222756.0 355364.0 0
220843.0 357586.0 0
226108.0 355947.0 0
228131.0 355868.0 0
225317.0 358754.0 0
229780.0 357715.0 0
232335.0 355370.0 0
232301.0 359181.0 0
235799.0 356230.0 0
240111.0 357856.0 0
242214.0 354614.0 0
243146.0 357939.0 0
246415.0 356674.0 0
250158.0 355265.0 0
254652.0 355636.0 0
252217.0 359418.0 0
257880.0 355621.0 0
256575.0 358714.0 0
261343.0 355667.0 0
265521.0 356333.0 0
268822.0 357315.0 0
271315.0 356206.0 0
274164.0 354905.0 0
272693.0 359375.0 0
276587.0 354438.0 0
279816.0 355858.0 0
278088.0 358579.0 0
275392.0 357873.0 0
282817.0 357087.0 0
281857.0 360094.0 0
285434.0 357776.0 0
289031.0 356913.0 0
290385.0 359054.0 0
291291.0 356135.0 0
294706.0 356732.0 0
293463.0 359351.0 0
297808.0 354573.0 0
298012.0 357545.0 0
202002.0 359626.0 0
201323.0 361582.0 0
204775.0 362202.0 0
205184.0 359646.0 0
209240.0 360352.0 0
209002.0 363223.0 0
212607.0 360540.0 0
212355.0 363934.0 0
217424.0 360586.0 0
215345.0 362308.0 0
219815.0 361943.0 0
219252.0 364657.0 0
222522.0 360753.0 0
224051.0 363496.0 0
227994.0 360242.0 0
226821.0 363203.0 0
230931.0 362348.0 0
234765.0 363762.0 0
235599.0 359901.0 0
238930.0 360311.0 0
237557.0 364652.0 0
243755.0 360973.0 0
240868.0 362690.0 0
245147.0 363643.0 0
247474.0 360110.0 0
247630.0 363749.0 0
250005.0 362967.0 0
254295.0 363218.0 0
258511.0 360351.0 0
257720.0 363438.0 0
261496.0 359795.0 0
261769.0 363072.0 0
265306.0 359874.0 0
268562.0 359387.0 0
266115.0 362610.0 0
268450.0 364691.0 0
270187.0 361144.0 0
271844.0 363847.0 0
278631.0 361683.0 0
274908.0 361841.0 0
283716.0 361360.0 0
282627.0 363837.0 0
286311.0 360260.0 0
288884.0 360743.0 0
284886.0 364666.0 0
287129.0 363876.0 0
293276.0 362910.0 0
297914.0 360030.0 0
297152.0 362579.0 0
202043.0 365830.0 0
201692.0 373825.0 0
202292.0 368533.0 0
201911.0 363572.0 0
204806.0 367265.0 0
206218.0 364939.0 0
208826.0 368082.0 0
210499.0 365428.0 0
213785.0 366588.0 0
212233.0 368827.0 0
216812.0 365171.0 0
216610.0 368404.0 0
219305.0 368493.0 0
221414.0 365333.0 0
224275.0 366485.0 0
220926.0 367836.0 0
223658.0 369335.0 0
226564.0 366640.0 0
229476.0 365746.0 0
228823.0 369365.0 0
233014.0 367241.0 0
234116.0 370426.0 0
235804.0 368074.0 0
237853.0 367694.0 0
236219.0 370944.0 0
238486.0 370353.0 0
244220.0 365876.0 0
240931.0 366419.0 0
242333.0 369575.0 0
248845.0 366800.0 0
245894.0 367316.0 0
249144.0 370648.0 0
251280.0 365329.0 0
252090.0 368929.0 0
253946.0 366920.0 0
258942.0 366323.0 0
256446.0 368348.0 0
262222.0 367574.0 0
264507.0 365157.0 0
265674.0 369244.0 0
268636.0 368046.0 0
272067.0 366672.0 0
273873.0 368982.0 0
274807.0 364642.0 0
276722.0 367452.0 0
279522.0 364855.0 0
281542.0 367613.0 0
284275.0 367997.0 0
287033.0 367707.0 0
290187.0 364014.0 0
293157.0 368234.0 0
290320.0 367403.0 0
294300.0 366023.0 0
297731.0 365428.0 0
297291.0 368161.0 0
195693.0 380204.0 0
199997.0 378043.0 0
201027.0 375852.0 0
198133.0 379485.0 0
203372.0 371357.0 0
205172.0 375498.0 0
207085.0 370621.0 0
210071.0 372790.0 0
212580.0 371882.0 0
215501.0 375053.0 0
216129.0 371025.0 0
218850.0 374761.0 0
219458.0 371456.0 0
222168.0 371842.0 0
226449.0 370179.0 0
228878.0 373570.0 0
226523.0 372859.0 0
229268.0 376152.0 0
231284.0 371278.0 0
232882.0 373699.0 0
235529.0 372970.0 0
238254.0 373930.0 0
240648.0 372217.0 0
242723.0 375134.0 0
245313.0 370354.0 0
244926.0 373575.0 0
248090.0 374540.0 0
252049.0 372733.0 0
253484.0 370955.0 0
250934.0 375104.0 0
256826.0 371887.0 0
258974.0 374888.0 0
260478.0 370964.0 0
262577.0 373119.0 0
261116.0 375909.0 0
265614.0 372902.0 0
268472.0 373359.0 0
270767.0 371010.0 0
272874.0 373457.0 0
274982.0 371514.0 0
276836.0 372633.0 0
278355.0 370228.0 0
278572.0 374207.0 0
280656.0 371047.0 0
283702.0 372147.0 0
280307.0 374531.0 0
287061.0 372143.0 0
289233.0 370154.0 0
291186.0 371947.0 0
293916.0 374021.0 0
293678.0 370788.0 0
297446.0 370799.0 0
294547.0 376923.0 0
297375.0 373754.0 0
298413.0 377497.0 0
303139.0 379050.0 0
191846.0 382954.0 0
189539.0 384209.0 0
193894.0 381884.0 0
196050.0 383809.0 0
199644.0 382083.0 0
203751.0 379749.0 0
197895.0 383559.0 0
202648.0 382379.0 0
206957.0 379074.0 0
208355.0 374631.0 0
210150.0 377270.0 0
208464.0 381783.0 0
211360.0 380403.0 0
212409.0 376186.0 0
213914.0 380669.0 0
216197.0 381896.0 0
216075.0 378567.0 0
218980.0 379916.0 0
221307.0 377314.0 0
223266.0 380176.0 0
223950.0 374863.0 0
226427.0 377073.0 0
228637.0 380694.0 0
231360.0 378663.0 0
234283.0 376755.0 0
236742.0 375843.0 0
236396.0 381001.0 0
238728.0 378783.0 0
240194.0 376263.0 0
244320.0 378890.0 0
247482.0 378288.0 0
253019.0 376823.0 0
249960.0 379383.0 0
255228.0 375065.0 0
257715.0 377621.0 0
262298.0 378793.0 0
264910.0 380746.0 0
265130.0 376595.0 0
267483.0 377489.0 0
267480.0 380403.0 0
269769.0 376050.0 0
270217.0 378913.0 0
271564.0 381414.0 0
273739.0 379614.0 0
273689.0 376267.0 0
277037.0 376225.0 0
278548.0 378584.0 0
281259.0 378198.0 0
283379.0 376112.0 0
286287.0 377235.0 0
288816.0 375017.0 0
291078.0 376264.0 0
289698.0 382201.0 0
291925.0 379517.0 0
296117.0 380332.0 0
300888.0 378342.0 0
304704.0 381389.0 0
301492.0 381490.0 0
306577.0 383070.0 0
309836.0 383201.0 0
311585.0 384538.0 0
180414.0 390445.0 0
185337.0 387379.0 0
183250.0 389406.0 0
187622.0 389834.0 0
187771.0 386172.0 0
190691.0 388277.0 0
193323.0 386051.0 0
195645.0 387191.0 0
199178.0 384959.0 0
197908.0 387289.0 0
201787.0 385068.0 0
200160.0 386791.0 0
204842.0 384782.0 0
203535.0 387882.0 0
207295.0 384140.0 0
208569.0 386725.0 0
211099.0 384216.0 0
213751.0 384709.0 0
216642.0 384487.0 0
219525.0 382969.0 0
222837.0 383427.0 0
221849.0 386535.0 0
225479.0 383567.0 0
225964.0 380073.0 0
228426.0 383445.0 0
225999.0 386336.0 0
230759.0 383476.0 0
233095.0 382249.0 0
237892.0 384445.0 0
241288.0 383960.0 0
241746.0 380502.0 0
244154.0 383958.0 0
246180.0 382541.0 0
248511.0 383874.0 0
244971.0 385973.0 0
251248.0 383250.0 0
253416.0 380464.0 0
256789.0 381167.0 0
255589.0 384925.0 0
258409.0 385923.0 0
260476.0 382331.0 0
262697.0 384922.0 0
265302.0 383365.0 0
266870.0 384243.0 0
268906.0 382386.0 0
270273.0 385610.0 0
272490.0 384139.0 0
275091.0 384697.0 0
276853.0 381813.0 0
280123.0 383747.0 0
282274.0 381504.0 0
284814.0 383490.0 0
284583.0 380600.0 0
287662.0 384746.0 0
284530.0 386168.0 0
287369.0 379970.0 0
288598.0 387474.0 0
290900.0 387616.0 0
294221.0 382898.0 0
292039.0 384787.0 0
294569.0 386619.0 0
298632.0 382871.0 0
300859.0 385103.0 0
296871.0 385916.0 0
302257.0 389456.0 0
299602.0 388189.0 0
303475.0 385545.0 0
305148.0 388214.0 0
308105.0 386089.0 0
306750.0 390444.0 0
310272.0 387796.0 0
313207.0 386427.0 0
315482.0 387989.0 0
317850.0 389793.0 0
175973.0 392814.0 0
173818.0 393784.0 0
178053.0 391634.0 0
180727.0 394439.0 0
187139.0 392067.0 0
183847.0 393049.0 0
191317.0 390683.0 0
189288.0 393844.0 0
194903.0 390047.0 0
195262.0 392798.0 0
198271.0 390375.0 0
201341.0 390570.0 0
206164.0 388710.0 0
204088.0 392220.0 0
207011.0 391824.0 0
210417.0 388374.0 0
209659.0 391741.0 0
213794.0 391488.0 0
213506.0 388137.0 0
216319.0 388140.0 0
216497.0 391001.0 0
219225.0 390852.0 0
218879.0 387393.0 0
221890.0 391017.0 0
223909.0 388105.0 0
225223.0 391346.0 0
228925.0 386897.0 0
228209.0 390506.0 0
232305.0 386968.0 0
235626.0 387237.0 0
239698.0 388793.0 0
235711.0 391496.0 0
242293.0 387657.0 0
244975.0 390067.0 0
247830.0 387515.0 0
249365.0 391442.0 0
251236.0 388448.0 0
252976.0 385781.0 0
251883.0 392282.0 0
254115.0 390458.0 0
256211.0 388177.0 0
258615.0 389366.0 0
260507.0 387776.0 0
262787.0 391086.0 0
264667.0 387990.0 0
267599.0 387170.0 0
267004.0 391402.0 0
269383.0 390629.0 0
272291.0 389169.0 0
275656.0 388756.0 0
278558.0 386643.0 0
281959.0 387119.0 0
280903.0 389467.0 0
283926.0 390064.0 0
286441.0 389079.0 0
286429.0 392030.0 0
282453.0 392351.0 0
289377.0 392140.0 0
291808.0 390580.0 0
294856.0 390645.0 0
297827.0 390424.0 0
299782.0 393296.0 0
302495.0 392220.0 0
305371.0 393395.0 0
310214.0 390494.0 0
308063.0 394998.0 0
310115.0 393176.0 0
313318.0 390720.0 0
312565.0 394992.0 0
314821.0 393600.0 0
320959.0 390192.0 0
317717.0 393127.0 0
320444.0 394502.0 0
322681.0 392410.0 0
324990.0 393743.0 0
327222.0 394985.0 0
163706.0 399762.0 0
165789.0 399034.0 0
169534.0 395951.0 0
172136.0 395600.0 0
167886.0 398240.0 0
169943.0 399062.0 0
173109.0 398294.0 0
176476.0 398095.0 0
177915.0 395651.0 0
181288.0 397215.0 0
179465.0 399599.0 0
184892.0 395812.0 0
183185.0 398625.0 0
185081.0 400184.0 0
187701.0 396148.0 0
192339.0 394736.0 0
187550.0 398261.0 0
189727.0 399065.0 0
192319.0 397761.0 0
197290.0 395158.0 0
197218.0 398248.0 0
200493.0 394122.0 0
202483.0 396617.0 0
205374.0 395490.0 0
207873.0 397040.0 0
210385.0 395101.0 0
216186.0 393553.0 0
213103.0 394350.0 0
214460.0 396547.0 0
218646.0 394427.0 0
221589.0 394608.0 0
224690.0 394789.0 0
227332.0 397263.0 0
231521.0 391835.0 0
228514.0 394820.0 0
233243.0 395093.0 0
235889.0 396137.0 0
238889.0 392437.0 0
239269.0 396091.0 0
243103.0 394975.0 0
242640.0 392236.0 0
245455.0 394769.0 0
246857.0 392653.0 0
248125.0 396538.0 0
250514.0 394403.0 0
253454.0 396034.0 0
255992.0 393701.0 0
259443.0 392325.0 0
260377.0 395300.0 0
264812.0 394358.0 0
267971.0 394566.0 0
268573.0 397093.0 0
272604.0 393113.0 0
270337.0 393834.0 0
271393.0 396958.0 0
274339.0 393004.0 0
273956.0 396225.0 0
275854.0 394889.0 0
277898.0 396657.0 0
277769.0 391719.0 0
280855.0 397536.0 0
280251.0 394461.0 0
283148.0 396842.0 0
284760.0 393543.0 0
285864.0 396039.0 0
289034.0 395558.0 0
291922.0 395414.0 0
292535.0 393710.0 0
294989.0 394009.0 0
294174.0 397060.0 0
297551.0 394763.0 0
297114.0 397812.0 0
301407.0 396239.0 0
299966.0 398238.0 0
303952.0 396367.0 0
305633.0 398959.0 0
308796.0 398251.0 0
311904.0 397876.0 0
317404.0 397626.0 0
315302.0 399559.0 0
321584.0 397482.0 0
324452.0 397417.0 0
327026.0 398154.0 0
329422.0 396042.0 0
331381.0 397450.0 0
330677.0 400442.0 0
333809.0 397833.0 0
335311.0 399362.0 0
155422.0 405046.0 0
160550.0 402564.0 0
158590.0 404541.0 0
162071.0 400879.0 0
165294.0 402252.0 0
162197.0 406278.0 0
163990.0 404345.0 0
167748.0 402002.0 0
169932.0 402452.0 0
168205.0 405261.0 0
171118.0 404959.0 0
172316.0 401272.0 0
174203.0 402670.0 0
176867.0 401152.0 0
181016.0 400924.0 0
178125.0 403562.0 0
181007.0 403224.0 0
186226.0 402905.0 0
183355.0 404525.0 0
187849.0 405273.0 0
189293.0 401719.0 0
191723.0 403128.0 0
194326.0 400100.0 0
197070.0 401525.0 0
195012.0 403149.0 0
200432.0 399489.0 0
202343.0 402614.0 0
198655.0 402513.0 0
200733.0 403889.0 0
204013.0 400237.0 0
203836.0 404621.0 0
206161.0 404105.0 0
206370.0 400692.0 0
210518.0 398508.0 0
209258.0 401620.0 0
212590.0 398824.0 0
214237.0 401420.0 0
217661.0 398300.0 0
217515.0 402159.0 0
221040.0 399273.0 0
220444.0 403276.0 0
223696.0 397847.0 0
223683.0 403083.0 0
225956.0 400226.0 0
229127.0 400640.0 0
231157.0 398181.0 0
232020.0 403079.0 0
233846.0 402313.0 0
233805.0 399838.0 0
236447.0 399251.0 0
238263.0 401992.0 0
240969.0 399421.0 0
243694.0 397407.0 0
246073.0 399037.0 0
247444.0 401509.0 0
250729.0 399081.0 0
253403.0 399177.0 0
254601.0 402371.0 0
256368.0 399603.0 0
259211.0 400964.0 0
258054.0 396944.0 0
260377.0 398646.0 0
261629.0 401250.0 0
262509.0 397134.0 0
264176.0 400313.0 0
266671.0 398614.0 0
268531.0 400390.0 0
271357.0 402446.0 0
271234.0 399615.0 0
273755.0 400387.0 0
274935.0 398649.0 0
277462.0 399545.0 0
276677.0 402520.0 0
280337.0 399930.0 0
280869.0 402531.0 0
286060.0 398836.0 0
283495.0 400423.0 0
285466.0 403424.0 0
289689.0 398640.0 0
288318.0 401230.0 0
290681.0 403023.0 0
292581.0 401544.0 0
292561.0 399041.0 0
295048.0 402248.0 0
296570.0 400481.0 0
301023.0 400845.0 0
298983.0 401988.0 0
301367.0 403996.0 0
303851.0 401095.0 0
304804.0 403891.0 0
309336.0 401748.0 0
311932.0 401456.0 0
307963.0 403696.0 0
313018.0 403616.0 0
315686.0 402690.0 0
320298.0 402584.0 0
320563.0 400361.0 0
318357.0 403724.0 0
322498.0 404794.0 0
324260.0 400464.0 0
327857.0 400040.0 0
325283.0 402459.0 0
327680.0 404193.0 0
330954.0 403781.0 0
333384.0 400657.0 0
336697.0 401181.0 0
334709.0 402764.0 0
336115.0 404909.0 0
338931.0 402034.0 0
341060.0 404274.0 0
343919.0 405409.0 0
146751.0 410945.0 0
148974.0 409258.0 0
151494.0 408619.0 0
153585.0 407347.0 0
156252.0 408706.0 0
159032.0 407304.0 0
160842.0 409481.0 0
163706.0 409507.0 0
166426.0 407545.0 0
169977.0 408630.0 0
173107.0 407132.0 0
175888.0 405605.0 0
175028.0 409857.0 0
177833.0 407848.0 0
179409.0 405906.0 0
180796.0 406397.0 0
177419.0 410299.0 0
179761.0 408399.0 0
181706.0 409101.0 0
186623.0 407153.0 0
183970.0 407665.0 0
185862.0 410517.0 0
190967.0 406569.0 0
188797.0 409499.0 0
196951.0 405791.0 0
194441.0 408060.0 0
199969.0 406523.0 0
199089.0 409317.0 0
202541.0 407023.0 0
206546.0 407034.0 0
209160.0 406581.0 0
211449.0 403972.0 0
215467.0 404430.0 0
213216.0 406937.0 0
215374.0 408671.0 0
218088.0 405867.0 0
220527.0 407977.0 0
226695.0 404292.0 0
223558.0 406826.0 0
226506.0 407711.0 0
229406.0 403843.0 0
229930.0 407706.0 0
233217.0 405965.0 0
235765.0 408518.0 0
236123.0 404296.0 0
238988.0 406901.0 0
241013.0 404602.0 0
243045.0 406568.0 0
243519.0 401970.0 0
244717.0 408007.0 0
245259.0 404317.0 0
247874.0 405720.0 0
250895.0 403093.0 0
252599.0 406411.0 0
256634.0 404610.0 0
259141.0 403962.0 0
255640.0 407602.0 0
261211.0 406992.0 0
261868.0 404186.0 0
264922.0 408327.0 0
265301.0 404081.0 0
269249.0 406989.0 0
268425.0 403740.0 0
271488.0 406324.0 0
273971.0 403871.0 0
275142.0 406895.0 0
279097.0 404610.0 0
282688.0 405045.0 0
282188.0 407918.0 0
287081.0 406625.0 0
289866.0 405580.0 0
289674.0 409360.0 0
292599.0 406282.0 0
295298.0 405027.0 0
297653.0 406966.0 0
298431.0 403632.0 0
300271.0 405946.0 0
302541.0 408903.0 0
299926.0 410940.0 0
304159.0 406337.0 0
306516.0 406851.0 0
306162.0 408422.0 0
307729.0 408592.0 0
308366.0 406390.0 0
311638.0 404885.0 0
310709.0 407229.0 0
311375.0 409937.0 0
313967.0 406754.0 0
316187.0 405464.0 0
315156.0 410044.0 0
319618.0 405945.0 0
318167.0 408115.0 0
320334.0 409492.0 0
323311.0 407171.0 0
326822.0 406889.0 0
324599.0 409699.0 0
328330.0 409164.0 0
330715.0 408192.0 0
332260.0 410373.0 0
333205.0 406092.0 0
337749.0 408325.0 0
334820.0 408890.0 0
338475.0 406028.0 0
341278.0 407611.0 0
341334.0 409685.0 0
346085.0 407757.0 0
344231.0 410117.0 0
348893.0 408471.0 0
351318.0 409752.0 0
139618.0 414738.0 0
142646.0 414246.0 0
144348.0 412318.0 0
148347.0 412850.0 0
146064.0 414936.0 0
149258.0 415072.0 0
151536.0 411763.0 0
153913.0 413194.0 0
151985.0 415702.0 0
155470.0 415811.0 0
156278.0 411425.0 0
159214.0 412054.0 0
158047.0 414954.0 0
160929.0 414022.0 0
163511.0 412211.0 0
164673.0 415882.0 0
165345.0 413358.0 0
167043.0 410757.0 0
170478.0 411306.0 0
168544.0 413585.0 0
172597.0 411147.0 0
174531.0 412247.0 0
171475.0 415186.0 0
174181.0 415036.0 0
178740.0 412461.0 0
181433.0 411593.0 0
177875.0 415179.0 0
183876.0 412576.0 0
185486.0 414610.0 0
181739.0 415066.0 0
190328.0 411685.0 0
187433.0 413263.0 0
189584.0 414389.0 0
193072.0 411035.0 0
196990.0 410447.0 0
194193.0 413636.0 0
196944.0 413004.0 0
200707.0 410625.0 0
199702.0 412824.0 0
204320.0 409901.0 0
203977.0 413600.0 0
209956.0 409424.0 0
207720.0 411005.0 0
208626.0 413463.0 0
211231.0 413922.0 0
212112.0 410585.0 0
213921.0 412882.0 0
216736.0 411135.0 0
220252.0 411525.0 0
223674.0 410018.0 0
222977.0 413298.0 0
226410.0 411922.0 0
229535.0 413508.0 0
232166.0 410864.0 0
234538.0 413622.0 0
237991.0 412098.0 0
240839.0 409480.0 0
241951.0 413383.0 0
243215.0 410899.0 0
245484.0 410438.0 0
248395.0 408987.0 0
251430.0 408964.0 0
253766.0 411392.0 0
258996.0 409214.0 0
257424.0 413737.0 0
261440.0 413113.0 0
262212.0 410849.0 0
265143.0 412263.0 0
268122.0 409079.0 0
270545.0 410461.0 0
272763.0 408825.0 0
272376.0 412310.0 0
275682.0 411918.0 0
278320.0 408436.0 0
280109.0 411622.0 0
282355.0 411864.0 0
284941.0 409792.0 0
288158.0 411529.0 0
292889.0 410068.0 0
291839.0 413415.0 0
296419.0 410618.0 0
303449.0 413744.0 0
300542.0 413747.0 0
304968.0 411193.0 0
308197.0 411723.0 0
306245.0 414206.0 0
310011.0 415316.0 0
312663.0 413405.0 0
316322.0 413460.0 0
318851.0 412242.0 0
322278.0 411837.0 0
320995.0 414252.0 0
327903.0 412414.0 0
325258.0 413786.0 0
331046.0 412232.0 0
332527.0 415934.0 0
333287.0 411727.0 0
336145.0 411513.0 0
334883.0 414400.0 0
339254.0 411298.0 0
342075.0 413268.0 0
338849.0 413895.0 0
340871.0 415071.0 0
344767.0 413492.0 0
347691.0 411794.0 0
346924.0 415527.0 0
349861.0 412888.0 0
353297.0 412081.0 0
349739.0 416130.0 0
355553.0 413675.0 0
358749.0 414359.0 0
135201.0 417985.0 0
130873.0 421295.0 0
133322.0 419724.0 0
137799.0 416909.0 0
139745.0 419166.0 0
137270.0 421446.0 0
142828.0 417178.0 0
145733.0 418702.0 0
148695.0 418478.0 0
154790.0 418428.0 0
151736.0 419151.0 0
156137.0 420144.0 0
157908.0 417120.0 0
159487.0 418582.0 0
161970.0 416691.0 0
163370.0 419629.0 0
166350.0 419532.0 0
167479.0 416967.0 0
170528.0 418052.0 0
171051.0 420559.0 0
174513.0 417938.0 0
174296.0 420327.0 0
178324.0 417864.0 0
176848.0 419963.0 0
180604.0 419546.0 0
182613.0 417021.0 0
185755.0 416940.0 0
185680.0 419841.0 0
188383.0 416590.0 0
189438.0 418303.0 0
192338.0 415587.0 0
196916.0 416083.0 0
192565.0 418172.0 0
196683.0 419149.0 0
200694.0 415320.0 0
201133.0 418814.0 0
205596.0 416616.0 0
208852.0 417124.0 0
211124.0 417610.0 0
213689.0 416873.0 0
216781.0 415354.0 0
220276.0 415411.0 0
219301.0 418125.0 0
222827.0 416554.0 0
225911.0 416303.0 0
230463.0 416557.0 0
233730.0 416962.0 0
236893.0 417279.0 0
239511.0 415281.0 0
242797.0 417025.0 0
245501.0 414728.0 0
248104.0 412230.0 0
250158.0 417111.0 0
251305.0 413620.0 0
254164.0 416822.0 0
257676.0 418084.0 0
260553.0 416177.0 0
263391.0 415303.0 0
268254.0 413372.0 0
266445.0 417063.0 0
269006.0 418112.0 0
271184.0 415380.0 0
274244.0 415516.0 0
276569.0 416662.0 0
282672.0 414943.0 0
279135.0 414886.0 0
283127.0 418621.0 0
285711.0 414353.0 0
286231.0 418466.0 0
289172.0 414529.0 0
290072.0 418517.0 0
293825.0 415403.0 0
296353.0 414139.0 0
294400.0 418136.0 0
296963.0 418788.0 0
298552.0 415931.0 0
301241.0 417681.0 0
304217.0 416576.0 0
307437.0 417084.0 0
307583.0 420581.0 0
312447.0 418140.0 0
315159.0 416363.0 0
317633.0 418897.0 0
319625.0 416575.0 0
323051.0 418884.0 0
323567.0 415555.0 0
326821.0 418299.0 0
329196.0 416334.0 0
332659.0 419392.0 0
337513.0 415766.0 0
335546.0 419854.0 0
337702.0 418701.0 0
339908.0 416675.0 0
342216.0 418001.0 0
340742.0 421006.0 0
343736.0 416778.0 0
345800.0 417887.0 0
346852.0 420804.0 0
352352.0 416501.0 0
349251.0 419309.0 0
351876.0 420546.0 0
355950.0 417123.0 0
358577.0 418378.0 0
354042.0 419140.0 0
355634.0 421302.0 0
358423.0 420784.0 0
361098.0 416695.0 0
363720.0 418672.0 0
361805.0 421023.0 0
366147.0 419981.0 0
369087.0 421005.0 0
123342.0 426242.0 0
128800.0 423052.0 0
126191.0 424843.0 0
134822.0 422904.0 0
130981.0 425969.0 0
133517.0 425509.0 0
137931.0 425132.0 0
140436.0 424795.0 0
141481.0 421914.0 0
144519.0 421780.0 0
145633.0 424134.0 0
143006.0 425685.0 0
148314.0 422012.0 0
150002.0 423845.0 0
152589.0 422104.0 0
154935.0 423254.0 0
151717.0 425935.0 0
158890.0 420976.0 0
158014.0 423968.0 0
161459.0 424382.0 0
162334.0 421879.0 0
164716.0 423307.0 0
163996.0 425880.0 0
167573.0 422149.0 0
168274.0 425575.0 0
171873.0 424202.0 0
175204.0 423572.0 0
178136.0 422318.0 0
180074.0 423851.0 0
182815.0 421359.0 0
183892.0 423954.0 0
186714.0 424903.0 0
188392.0 421565.0 0
191751.0 420990.0 0
190575.0 424136.0 0
192448.0 424305.0 0
195699.0 422847.0 0
199242.0 423627.0 0
205890.0 420189.0 0
202065.0 421968.0 0
205966.0 423867.0 0
208605.0 420381.0 0
211200.0 421206.0 0
209429.0 424255.0 0
212612.0 424579.0 0
214223.0 420468.0 0
215407.0 423659.0 0
217094.0 419614.0 0
219199.0 422924.0 0
221813.0 419708.0 0
222443.0 423890.0 0
224518.0 420988.0 0
227830.0 419542.0 0
228148.0 423869.0 0
230895.0 420617.0 0
233781.0 420767.0 0
236878.0 421240.0 0
240096.0 419729.0 0
239602.0 423720.0 0
244441.0 419818.0 0
242705.0 422721.0 0
246917.0 418969.0 0
245820.0 424243.0 0
248537.0 422442.0 0
251716.0 420477.0 0
253561.0 423504.0 0
255580.0 420520.0 0
258808.0 423002.0 0
260195.0 419462.0 0
263067.0 419458.0 0
262505.0 423559.0 0
265978.0 421627.0 0
269450.0 422124.0 0
271803.0 419431.0 0
272952.0 422830.0 0
274379.0 418985.0 0
274772.0 422188.0 0
276969.0 420154.0 0
279930.0 419090.0 0
280912.0 423154.0 0
283527.0 422068.0 0
286463.0 422490.0 0
289109.0 423683.0 0
292386.0 421932.0 0
295887.0 421946.0 0
298932.0 420248.0 0
301771.0 421185.0 0
298753.0 423560.0 0
302362.0 425048.0 0
304652.0 420542.0 0
304929.0 423862.0 0
307697.0 424192.0 0
310529.0 420720.0 0
312074.0 423882.0 0
315549.0 421178.0 0
316503.0 424772.0 0
320356.0 420841.0 0
319544.0 422932.0 0
321744.0 424501.0 0
323915.0 422849.0 0
327781.0 421994.0 0
327785.0 425345.0 0
331069.0 421664.0 0
330405.0 425343.0 0
333393.0 424903.0 0
335787.0 423167.0 0
339042.0 423510.0 0
341877.0 424998.0 0
344086.0 421798.0 0
344366.0 425054.0 0
348994.0 424003.0 0
351731.0 423362.0 0
354951.0 423950.0 0
357657.0 424511.0 0
359778.0 422873.0 0
362110.0 423990.0 0
366361.0 423266.0 0
364309.0 424284.0 0
368077.0 424369.0 0
371177.0 422800.0 0
373982.0 423811.0 0
370817.0 425682.0 0
375807.0 425426.0 0
378264.0 426191.0 0
112859.0 431079.0 0
118505.0 429465.0 0
116063.0 430975.0 0
120475.0 427105.0 0
123727.0 429503.0 0
121268.0 431095.0 0
128488.0 427823.0 0
126808.0 430722.0 0
130864.0 428774.0 0
133440.0 428916.0 0
136269.0 427584.0 0
137903.0 429074.0 0
140380.0 427909.0 0
136272.0 431619.0 0
138826.0 431441.0 0
142082.0 429471.0 0
143870.0 427668.0 0
147314.0 426706.0 0
150381.0 427905.0 0
146635.0 429791.0 0
153991.0 426213.0 0
151783.0 430380.0 0
154945.0 429014.0 0
157981.0 426806.0 0
160194.0 429300.0 0
161032.0 426398.0 0
163497.0 429404.0 0
170725.0 427758.0 0
167147.0 428864.0 0
172629.0 426813.0 0
176074.0 426359.0 0
171411.0 429775.0 0
174644.0 429587.0 0
178793.0 426707.0 0
178635.0 430535.0 0
181800.0 426370.0 0
184824.0 427885.0 0
189312.0 427180.0 0
187611.0 430007.0 0
192231.0 427511.0 0
195735.0 427435.0 0
197686.0 430150.0 0
199573.0 427276.0 0
202559.0 426064.0 0
203914.0 428766.0 0
206611.0 427503.0 0
209682.0 427657.0 0
212677.0 427627.0 0
215541.0 426625.0 0
215313.0 429492.0 0
217940.0 426844.0 0
221156.0 427159.0 0
225078.0 424370.0 0
224479.0 428160.0 0
227904.0 428239.0 0
231085.0 428144.0 0
231497.0 424245.0 0
234503.0 425003.0 0
234432.0 428556.0 0
237131.0 424627.0 0
237445.0 428643.0 0
241044.0 427219.0 0
244850.0 428144.0 0
248631.0 428748.0 0
250779.0 425667.0 0
253468.0 427845.0 0
256188.0 425717.0 0
258045.0 428807.0 0
260894.0 426712.0 0
264232.0 425682.0 0
266285.0 425018.0 0
267358.0 427757.0 0
270262.0 425955.0 0
271030.0 429194.0 0
277531.0 424687.0 0
273987.0 426165.0 0
278934.0 428382.0 0
282393.0 425960.0 0
285113.0 425571.0 0
287696.0 426211.0 0
285809.0 428917.0 0
293182.0 425875.0 0
289955.0 426487.0 0
289075.0 429308.0 0
291897.0 429594.0 0
296008.0 425110.0 0
298360.0 426555.0 0
294781.0 428908.0 0
296947.0 428005.0 0
298497.0 429934.0 0
300798.0 428295.0 0
304491.0 428015.0 0
307895.0 427450.0 0
312013.0 427744.0 0
315717.0 428905.0 0
319373.0 426188.0 0
322786.0 427752.0 0
319542.0 429209.0 0
325391.0 426720.0 0
327690.0 430371.0 0
329532.0 428084.0 0
332823.0 428471.0 0
336794.0 426918.0 0
336178.0 428992.0 0
339531.0 426331.0 0
343058.0 427147.0 0
338757.0 430911.0 0
341078.0 429070.0 0
347390.0 427122.0 0
345667.0 429782.0 0
353613.0 426994.0 0
351217.0 428850.0 0
356503.0 428209.0 0
358606.0 426833.0 0
357421.0 430888.0 0
360997.0 427087.0 0
359790.0 430243.0 0
363117.0 429586.0 0
365686.0 427580.0 0
368110.0 426908.0 0
368157.0 431208.0 0
372500.0 427867.0 0
370354.0 429927.0 0
375869.0 428746.0 0
379441.0 429688.0 0
380003.0 426984.0 0
381652.0 428609.0 0
383803.0 429200.0 0
382387.0 431739.0 0
385320.0 431453.0 0
106281.0 436759.0 0
108957.0 435493.0 0
111223.0 433386.0 0
114448.0 433813.0 0
118682.0 433375.0 0
118393.0 435792.0 0
122149.0 433337.0 0
124972.0 433459.0 0
121755.0 436099.0 0
129604.0 432568.0 0
126029.0 435414.0 0
128963.0 435697.0 0
133049.0 431830.0 0
134323.0 435052.0 0
140109.0 433943.0 0
137284.0 435972.0 0
143704.0 431800.0 0
145141.0 434463.0 0
149118.0 431586.0 0
148401.0 434415.0 0
153279.0 433593.0 0
151504.0 435063.0 0
155344.0 436038.0 0
157396.0 432499.0 0
160810.0 434050.0 0
163850.0 433099.0 0
169119.0 431324.0 0
166913.0 433369.0 0
171032.0 433871.0 0
174122.0 433208.0 0
177961.0 434354.0 0
182015.0 430324.0 0
184885.0 431830.0 0
181751.0 434269.0 0
185552.0 435132.0 0
191518.0 430574.0 0
188996.0 432949.0 0
194351.0 431940.0 0
191503.0 435193.0 0
195939.0 435440.0 0
200828.0 430565.0 0
198103.0 432691.0 0
200195.0 434799.0 0
206499.0 430514.0 0
203784.0 433299.0 0
209168.0 430719.0 0
207425.0 434163.0 0
210373.0 433696.0 0
212715.0 431124.0 0
214752.0 433531.0 0
218520.0 431024.0 0
222274.0 431632.0 0
225341.0 432258.0 0
228060.0 432363.0 0
231258.0 431580.0 0
234166.0 432086.0 0
237565.0 432709.0 0
240828.0 431425.0 0
244109.0 431994.0 0
247753.0 433925.0 0
251949.0 430814.0 0
252086.0 434668.0 0
255346.0 430291.0 0
258114.0 432440.0 0
255359.0 433361.0 0
263861.0 429312.0 0
260716.0 431152.0 0
261080.0 434532.0 0
268360.0 431299.0 0
264721.0 433210.0 0
267854.0 434685.0 0
271310.0 432744.0 0
274693.0 430020.0 0
278107.0 432357.0 0
282409.0 429689.0 0
280944.0 433170.0 0
284078.0 433550.0 0
286121.0 432100.0 0
289129.0 433183.0 0
292371.0 432735.0 0
295929.0 432231.0 0
301602.0 431146.0 0
299508.0 434389.0 0
304609.0 431652.0 0
308027.0 430889.0 0
303536.0 434582.0 0
307593.0 433834.0 0
311234.0 430968.0 0
311861.0 434631.0 0
318447.0 432240.0 0
315535.0 432579.0 0
321238.0 432018.0 0
320464.0 434530.0 0
322621.0 435889.0 0
324429.0 431456.0 0
325164.0 434799.0 0
332458.0 432171.0 0
328854.0 433800.0 0
335929.0 431831.0 0
337002.0 434962.0 0
343453.0 431594.0 0
339460.0 433888.0 0
342059.0 433503.0 0
343423.0 435834.0 0
347402.0 432523.0 0
346009.0 434654.0 0
349955.0 431744.0 0
351801.0 434229.0 0
349625.0 435663.0 0
354553.0 432067.0 0
359368.0 432865.0 0
356086.0 434890.0 0
359065.0 435772.0 0
361875.0 432702.0 0
362230.0 436139.0 0
365556.0 432189.0 0
364962.0 434481.0 0
368938.0 434067.0 0
367602.0 436463.0 0
371532.0 434492.0 0
372505.0 432157.0 0
375633.0 431797.0 0
378845.0 432013.0 0
375883.0 434815.0 0
378411.0 436143.0 0
380856.0 434086.0 0
383268.0 436072.0 0
385314.0 434425.0 0
387751.0 432179.0 0
389794.0 433895.0 0
387644.0 435330.0 0
392078.0 435397.0 0
394734.0 436699.0 0
100324.0 439637.0 0
103417.0 438437.0 0
104117.0 441623.0 0
107488.0 440092.0 0
111257.0 437295.0 0
110163.0 439917.0 0
115067.0 437171.0 0
114521.0 441503.0 0
119215.0 438365.0 0
118633.0 440310.0 0
123898.0 438724.0 0
121082.0 440936.0 0
127612.0 438227.0 0
129558.0 441018.0 0
131535.0 437495.0 0
134217.0 439369.0 0
133037.0 441669.0 0
137284.0 439662.0 0
140221.0 439698.0 0
141256.0 437078.0 0
144248.0 437500.0 0
141864.0 441819.0 0
145552.0 440482.0 0
148321.0 437332.0 0
149075.0 440798.0 0
151309.0 438009.0 0
154266.0 438918.0 0
158182.0 436847.0 0
160871.0 437332.0 0
157273.0 440999.0 0
164249.0 436790.0 0
161459.0 440390.0 0
165203.0 440468.0 0
167825.0 436063.0 0
169067.0 439583.0 0
171591.0 436936.0 0
174373.0 436817.0 0
172401.0 440611.0 0
174041.0 439320.0 0
177088.0 437948.0 0
176586.0 441042.0 0
180353.0 437787.0 0
179966.0 440904.0 0
182609.0 436385.0 0
183451.0 438517.0 0
187976.0 438248.0 0
193889.0 437569.0 0
191707.0 439564.0 0
198194.0 436144.0 0
196551.0 438959.0 0
200373.0 437957.0 0
201867.0 440143.0 0
204202.0 437509.0 0
208078.0 437341.0 0
207115.0 440320.0 0
212305.0 436397.0 0
215233.0 438469.0 0
217748.0 435647.0 0
219800.0 438255.0 0
224719.0 434826.0 0
221670.0 435098.0 0
223268.0 438556.0 0
227417.0 437387.0 0
230773.0 434771.0 0
231434.0 438562.0 0
234343.0 436025.0 0
238977.0 436653.0 0
236392.0 439490.0 0
241261.0 434369.0 0
243451.0 435952.0 0
241655.0 438820.0 0
245738.0 438645.0 0
249718.0 438320.0 0
254104.0 437970.0 0
257842.0 436117.0 0
261457.0 438823.0 0
264849.0 436659.0 0
270114.0 435085.0 0
268664.0 438239.0 0
272503.0 437218.0 0
274522.0 434434.0 0
277399.0 435964.0 0
275726.0 438762.0 0
278910.0 439782.0 0
280522.0 436570.0 0
282333.0 439937.0 0
286623.0 435227.0 0
284226.0 437205.0 0
289572.0 437157.0 0
293609.0 436461.0 0
296965.0 437869.0 0
295147.0 440638.0 0
299330.0 440652.0 0
301417.0 437626.0 0
303781.0 437504.0 0
306248.0 436074.0 0
306874.0 439916.0 0
309882.0 437983.0 0
312611.0 440622.0 0
317945.0 435876.0 0
314945.0 437758.0 0
322315.0 438185.0 0
319700.0 439102.0 0
326340.0 437851.0 0
324767.0 440746.0 0
329823.0 437424.0 0
330046.0 440771.0 0
333941.0 436467.0 0
338786.0 437315.0 0
333847.0 440032.0 0
336278.0 441180.0 0
337750.0 439218.0 0
340526.0 436385.0 0
341973.0 438355.0 0
345906.0 438514.0 0
349241.0 438491.0 0
349058.0 441436.0 0
353938.0 436713.0 0
352886.0 439143.0 0
357763.0 438590.0 0
356778.0 441780.0 0
360849.0 439202.0 0
363211.0 441089.0 0
364606.0 438720.0 0
367560.0 441242.0 0
369982.0 438610.0 0
373188.0 436974.0 0
371687.0 440959.0 0
375097.0 439220.0 0
378798.0 439887.0 0
381913.0 439056.0 0
384390.0 440445.0 0
385500.0 438129.0 0
387669.0 437766.0 0
389162.0 440965.0 0
390616.0 438015.0 0
393075.0 439045.0 0
395133.0 440905.0 0
396956.0 438523.0 0
399542.0 440120.0 0
92021.6 445413.0 0
89472.6 446457.0 0
94721.1 443868.0 0
97731.7 442340.0 0
98517.2 445626.0 0
100740.0 442492.0 0
101191.0 444475.0 0
104993.0 444494.0 0
100357.0 446611.0 0
102681.0 446463.0 0
108395.0 442860.0 0
107050.0 447000.0 0
111112.0 444992.0 0
117364.0 444736.0 0
120736.0 443754.0 0
123638.0 445291.0 0
125680.0 442102.0 0
127481.0 445288.0 0
130190.0 444530.0 0
133807.0 443932.0 0
137000.0 442864.0 0
139568.0 443345.0 0
137130.0 446208.0 0
140259.0 446629.0 0
145506.0 444037.0 0
142842.0 445063.0 0
148196.0 443352.0 0
147180.0 445839.0 0
149643.0 444914.0 0
151654.0 442509.0 0
154339.0 444748.0 0
157313.0 446202.0 0
159371.0 443818.0 0
162668.0 444389.0 0
166423.0 444284.0 0
169696.0 443832.0 0
173723.0 443521.0 0
176196.0 445758.0 0
178195.0 443686.0 0
181027.0 444013.0 0
184048.0 441797.0 0
188549.0 442387.0 0
194013.0 441682.0 0
191319.0 445015.0 0
198736.0 441279.0 0
196655.0 443687.0 0
199048.0 445604.0 0
204496.0 441263.0 0
201309.0 442987.0 0
203818.0 445444.0 0
210693.0 440585.0 0
207519.0 443863.0 0
214031.0 442256.0 0
217875.0 440140.0 0
217100.0 442664.0 0
220978.0 442052.0 0
218418.0 444758.0 0
225084.0 441989.0 0
229042.0 442091.0 0
233086.0 440971.0 0
235421.0 443561.0 0
231901.0 443941.0 0
239392.0 442132.0 0
243579.0 441946.0 0
248127.0 442293.0 0
252139.0 441768.0 0
257928.0 439694.0 0
255682.0 441446.0 0
259405.0 443248.0 0
263635.0 443317.0 0
265377.0 440017.0 0
268140.0 442562.0 0
272333.0 441403.0 0
276399.0 443599.0 0
280858.0 442863.0 0
284461.0 442829.0 0
286918.0 439898.0 0
287589.0 444884.0 0
292203.0 440391.0 0
289439.0 442438.0 0
292570.0 443930.0 0
296475.0 444459.0 0
302998.0 440880.0 0
300984.0 444724.0 0
304991.0 444485.0 0
309883.0 443813.0 0
316722.0 441226.0 0
314614.0 444385.0 0
318026.0 444898.0 0
321517.0 442920.0 0
327805.0 443788.0 0
332929.0 442278.0 0
331958.0 444956.0 0
335253.0 443199.0 0
338221.0 443861.0 0
335203.0 445736.0 0
340959.0 441319.0 0
342419.0 444731.0 0
344869.0 441479.0 0
347242.0 444004.0 0
352087.0 442379.0 0
351249.0 446251.0 0
355234.0 445601.0 0
359182.0 445063.0 0
360728.0 441878.0 0
362115.0 445117.0 0
366028.0 444710.0 0
370717.0 443053.0 0
374084.0 442118.0 0
373558.0 444548.0 0
370364.0 446310.0 0
377323.0 443448.0 0
376012.0 446141.0 0
379993.0 444600.0 0
382039.0 442913.0 0
384559.0 444718.0 0
380402.0 446908.0 0
386702.0 442183.0 0
389317.0 445075.0 0
387409.0 446697.0 0
392287.0 442669.0 0
393924.0 445471.0 0
397189.0 442287.0 0
396308.0 444174.0 0
398695.0 444252.0 0
399161.0 447187.0 0
401836.0 442274.0 0
404821.0 442938.0 0
402316.0 445920.0 0
407009.0 444847.0 0
409844.0 446532.0 0
82210.3 451817.0 0
84553.9 449700.0 0
87476.6 448787.0 0
92671.0 448777.0 0
89543.2 451274.0 0
96057.4 447117.0 0
97522.9 449759.0 0
94476.5 450931.0 0
99806.0 448865.0 0
101541.0 450029.0 0
103220.0 448720.0 0
105879.0 449750.0 0
104635.0 452536.0 0
108830.0 451495.0 0
110248.0 448745.0 0
113949.0 447291.0 0
114786.0 449559.0 0
112141.0 450181.0 0
118140.0 448089.0 0
118513.0 451331.0 0
121357.0 448099.0 0
125146.0 448209.0 0
121813.0 450911.0 0
125153.0 450904.0 0
127808.0 447737.0 0
128540.0 450573.0 0
131101.0 447864.0 0
134275.0 446949.0 0
132116.0 451283.0 0
135190.0 449923.0 0
138438.0 450287.0 0
143875.0 447308.0 0
145453.0 447460.0 0
142557.0 449913.0 0
148431.0 448208.0 0
146159.0 451065.0 0
151218.0 447070.0 0
154274.0 448605.0 0
150950.0 450451.0 0
154363.0 451408.0 0
159815.0 446661.0 0
157174.0 448910.0 0
160151.0 448909.0 0
163429.0 448067.0 0
166583.0 447203.0 0
169468.0 447755.0 0
166579.0 449277.0 0
172208.0 446549.0 0
174508.0 448548.0 0
171940.0 450768.0 0
179209.0 447657.0 0
176942.0 450744.0 0
180706.0 451357.0 0
182875.0 446899.0 0
184365.0 450369.0 0
185788.0 445225.0 0
188322.0 448384.0 0
194849.0 446478.0 0
192533.0 449507.0 0
197157.0 449413.0 0
201298.0 447258.0 0
206420.0 448083.0 0
209945.0 449357.0 0
211013.0 445386.0 0
215269.0 445785.0 0
213251.0 448334.0 0
215711.0 449169.0 0
218570.0 447901.0 0
222060.0 445740.0 0
223849.0 449086.0 0
226295.0 445743.0 0
229864.0 446712.0 0
233254.0 446832.0 0
237263.0 446688.0 0
241486.0 446644.0 0
245600.0 445248.0 0
248440.0 446379.0 0
250072.0 449198.0 0
246000.0 449743.0 0
250963.0 445423.0 0
253185.0 448686.0 0
255277.0 445298.0 0
256983.0 449530.0 0
259023.0 447222.0 0
262366.0 447510.0 0
267323.0 447579.0 0
271023.0 445115.0 0
273734.0 447204.0 0
277303.0 449217.0 0
280561.0 446721.0 0
284320.0 446785.0 0
287735.0 448695.0 0
290860.0 446409.0 0
290655.0 449890.0 0
293916.0 448443.0 0
297366.0 448996.0 0
299850.0 447990.0 0
302772.0 447851.0 0
306388.0 447863.0 0
304951.0 450803.0 0
309566.0 448506.0 0
313674.0 448040.0 0
317453.0 448245.0 0
321119.0 447455.0 0
321252.0 451102.0 0
323953.0 449893.0 0
324863.0 446446.0 0
327355.0 450250.0 0
329420.0 447528.0 0
330617.0 450094.0 0
332543.0 447778.0 0
334251.0 450979.0 0
336733.0 448020.0 0
338050.0 451402.0 0
339875.0 447066.0 0
340941.0 450741.0 0
343818.0 449497.0 0
345029.0 446782.0 0
348715.0 449496.0 0
352313.0 450849.0 0
353950.0 449308.0 0
357579.0 448039.0 0
356362.0 451365.0 0
359214.0 451896.0 0
361414.0 449028.0 0
365458.0 448705.0 0
368601.0 449176.0 0
368999.0 451508.0 0
373137.0 448666.0 0
371578.0 451670.0 0
378374.0 448474.0 0
376114.0 450987.0 0
383104.0 447385.0 0
381927.0 451347.0 0
386839.0 448812.0 0
384942.0 450178.0 0
388675.0 450876.0 0
391165.0 447248.0 0
390794.0 449521.0 0
393556.0 450106.0 0
395803.0 448155.0 0
400334.0 450486.0 0
405109.0 447752.0 0
403559.0 450762.0 0
408377.0 449507.0 0
407964.0 452411.0 0
412461.0 447947.0 0
415062.0 449536.0 0
411647.0 450636.0 0
417708.0 451020.0 0
73680.0 456990.0 0
76430.0 455006.0 0
79298.1 453274.0 0
80921.6 456225.0 0
83664.4 456326.0 0
85582.3 453600.0 0
87857.1 455559.0 0
91155.1 454042.0 0
91283.8 456983.0 0
94767.8 453973.0 0
98424.9 452912.0 0
95544.2 456912.0 0
98859.7 456203.0 0
101568.0 452952.0 0
102081.0 456384.0 0
107198.0 453916.0 0
108478.0 455773.0 0
104846.0 455702.0 0
111436.0 453267.0 0
112259.0 455867.0 0
115099.0 452490.0 0
116031.0 455168.0 0
119245.0 453592.0 0
118964.0 456688.0 0
121806.0 453470.0 0
121431.0 455639.0 0
123446.0 456925.0 0
125094.0 454005.0 0
129315.0 454362.0 0
126991.0 457834.0 0
134183.0 453216.0 0
132317.0 456604.0 0
136948.0 454032.0 0
140877.0 453892.0 0
144699.0 455181.0 0
148641.0 453202.0 0
151415.0 453731.0 0
152048.0 456736.0 0
154711.0 454618.0 0
157007.0 451530.0 0
160334.0 451807.0 0
158152.0 454690.0 0
164184.0 451807.0 0
161841.0 455333.0 0
166050.0 455784.0 0
168100.0 451536.0 0
170719.0 454928.0 0
174791.0 452953.0 0
174571.0 456155.0 0
178420.0 454555.0 0
182205.0 454573.0 0
189401.0 452546.0 0
185653.0 453940.0 0
193631.0 452654.0 0
197348.0 453796.0 0
199935.0 455438.0 0
202038.0 451086.0 0
203035.0 455270.0 0
206664.0 452542.0 0
210366.0 452848.0 0
213226.0 451589.0 0
220949.0 450951.0 0
216965.0 452595.0 0
224440.0 453093.0 0
221089.0 454993.0 0
227095.0 450390.0 0
228207.0 454928.0 0
230787.0 450933.0 0
234472.0 450467.0 0
231880.0 454627.0 0
238407.0 450823.0 0
235203.0 454273.0 0
238928.0 455076.0 0
242367.0 452008.0 0
245278.0 455149.0 0
248621.0 453442.0 0
251525.0 452031.0 0
254423.0 451975.0 0
258251.0 452988.0 0
260339.0 450618.0 0
261428.0 454475.0 0
263994.0 451551.0 0
267879.0 453205.0 0
271376.0 450475.0 0
271675.0 455160.0 0
275055.0 452469.0 0
279118.0 453614.0 0
280948.0 450905.0 0
284226.0 450855.0 0
283503.0 455292.0 0
288126.0 453220.0 0
292630.0 452605.0 0
296830.0 452910.0 0
301031.0 451416.0 0
301002.0 455465.0 0
304684.0 454860.0 0
309082.0 452582.0 0
313653.0 452590.0 0
318027.0 452138.0 0
316204.0 456256.0 0
319508.0 456198.0 0
324371.0 452696.0 0
322209.0 454294.0 0
327216.0 455302.0 0
330853.0 453546.0 0
333918.0 455576.0 0
337266.0 454899.0 0
340767.0 454938.0 0
343764.0 453798.0 0
346107.0 451866.0 0
345280.0 456479.0 0
347764.0 454704.0 0
350271.0 453087.0 0
351500.0 455957.0 0
354287.0 453591.0 0
359304.0 454703.0 0
356523.0 456338.0 0
362725.0 452740.0 0
364144.0 455862.0 0
365800.0 451633.0 0
367779.0 455127.0 0
374249.0 453777.0 0
371416.0 455711.0 0
379138.0 453414.0 0
377362.0 456905.0 0
384359.0 454576.0 0
381944.0 456976.0 0
386939.0 452784.0 0
389378.0 455132.0 0
386850.0 457001.0 0
391047.0 453009.0 0
393934.0 452553.0 0
393599.0 455138.0 0
396464.0 455189.0 0
397526.0 452459.0 0
399446.0 457123.0 0
400842.0 454786.0 0
404986.0 454411.0 0
409388.0 457210.0 0
411832.0 454241.0 0
415252.0 452542.0 0
414973.0 456723.0 0
417090.0 454724.0 0
419833.0 452989.0 0
419946.0 456547.0 0
422652.0 454123.0 0
425038.0 456142.0 0
67290.3 460319.0 0
70731.9 458892.0 0
69312.5 462203.0 0
72873.0 461638.0 0
74697.1 459499.0 0
77939.7 457694.0 0
77039.4 460300.0 0
75520.7 462490.0 0
78924.2 461483.0 0
80729.1 459300.0 0
82682.5 461192.0 0
85055.0 458939.0 0
88243.5 458456.0 0
93150.8 458989.0 0
90070.7 461516.0 0
95509.7 461664.0 0
98296.8 459648.0 0
101674.0 459281.0 0
106032.0 457984.0 0
104168.0 460827.0 0
108265.0 459971.0 0
110166.0 457403.0 0
114283.0 458007.0 0
111792.0 460841.0 0
117270.0 459738.0 0
121457.0 459536.0 0
124345.0 460530.0 0
130156.0 460915.0 0
126558.0 462256.0 0
136065.0 457904.0 0
139845.0 457283.0 0
138983.0 460822.0 0
143077.0 459155.0 0
148477.0 456739.0 0
146703.0 460218.0 0
154936.0 458756.0 0
150709.0 460134.0 0
159108.0 458096.0 0
157781.0 461359.0 0
160281.0 460941.0 0
162886.0 458797.0 0
168583.0 458232.0 0
166212.0 460187.0 0
169698.0 460749.0 0
171274.0 458274.0 0
173913.0 459852.0 0
178134.0 458392.0 0
181789.0 457727.0 0
184482.0 456960.0 0
181550.0 462085.0 0
187567.0 456805.0 0
185523.0 460119.0 0
189216.0 459695.0 0
191132.0 456132.0 0
194551.0 456149.0 0
192986.0 460082.0 0
197057.0 458029.0 0
201199.0 459169.0 0
206042.0 456837.0 0
209264.0 455546.0 0
209737.0 458831.0 0
212987.0 455908.0 0
213842.0 461045.0 0
217235.0 456887.0 0
217589.0 460466.0 0
224778.0 456998.0 0
221148.0 459541.0 0
227435.0 459099.0 0
230314.0 458565.0 0
233214.0 457417.0 0
236410.0 458353.0 0
242127.0 456361.0 0
240339.0 459250.0 0
244102.0 459115.0 0
248283.0 458643.0 0
252027.0 456096.0 0
251984.0 460243.0 0
255709.0 455437.0 0
255372.0 459434.0 0
258922.0 457400.0 0
261995.0 459567.0 0
264865.0 456337.0 0
268784.0 458097.0 0
272301.0 459198.0 0
275808.0 457075.0 0
278716.0 460419.0 0
279856.0 457011.0 0
281928.0 459038.0 0
287366.0 457014.0 0
285368.0 460218.0 0
289226.0 459957.0 0
291953.0 457106.0 0
294232.0 460633.0 0
296998.0 458033.0 0
303877.0 457895.0 0
301237.0 459170.0 0
306220.0 458280.0 0
308233.0 456578.0 0
309107.0 460240.0 0
312407.0 457534.0 0
316687.0 459593.0 0
323589.0 457489.0 0
320456.0 460347.0 0
324236.0 461235.0 0
328305.0 459979.0 0
331376.0 457498.0 0
334158.0 458574.0 0
337441.0 458546.0 0
341728.0 459183.0 0
349020.0 457188.0 0
346580.0 459599.0 0
353674.0 458672.0 0
350466.0 460989.0 0
358543.0 459151.0 0
361128.0 457260.0 0
361809.0 461020.0 0
364691.0 459188.0 0
368100.0 459120.0 0
370705.0 460700.0 0
373496.0 458717.0 0
378605.0 461002.0 0
384444.0 458120.0 0
382027.0 460527.0 0
388815.0 460178.0 0
385226.0 460670.0 0
392195.0 458015.0 0
392188.0 461938.0 0
396591.0 457435.0 0
399804.0 460319.0 0
396002.0 461008.0 0
402747.0 458194.0 0
402996.0 461185.0 0
405742.0 458398.0 0
406132.0 461888.0 0
410634.0 461658.0 0
414286.0 459619.0 0
418020.0 458125.0 0
417693.0 461809.0 0
422705.0 458453.0 0
421210.0 461614.0 0
427929.0 457713.0 0
425748.0 460182.0 0
430677.0 460114.0 0
427799.0 461893.0 0
434534.0 462140.0 0
56800.8 467591.0 0
59101.4 465036.0 0
61870.5 463819.0 0
64863.6 462521.0 0
66136.3 464957.0 0
64976.4 467635.0 0
69257.2 465224.0 0
72343.9 464414.0 0
77004.3 464066.0 0
74511.6 466881.0 0
80108.5 464380.0 0
84201.1 464905.0 0
86356.3 462323.0 0
88036.9 465186.0 0
90926.4 466599.0 0
92875.4 463882.0 0
93168.6 468403.0 0
97539.9 464226.0 0
95378.0 466386.0 0
100026.0 462886.0 0
102680.0 463675.0 0
99264.9 467013.0 0
101882.0 466612.0 0
106854.0 462941.0 0
105531.0 466068.0 0
109837.0 464062.0 0
113150.0 466300.0 0
115133.0 463075.0 0
116879.0 466227.0 0
119707.0 463369.0 0
123308.0 463649.0 0
120435.0 467308.0 0
126414.0 464486.0 0
124258.0 467044.0 0
129539.0 466950.0 0
134442.0 462459.0 0
138296.0 464766.0 0
142063.0 463369.0 0
145993.0 463493.0 0
149773.0 464007.0 0
154303.0 463664.0 0
158846.0 464367.0 0
163214.0 463789.0 0
167879.0 463456.0 0
171694.0 462823.0 0
174202.0 464101.0 0
170406.0 465831.0 0
177004.0 462291.0 0
178137.0 465870.0 0
188784.0 463023.0 0
185526.0 464087.0 0
192176.0 464547.0 0
196956.0 462674.0 0
205655.0 460919.0 0
201876.0 463754.0 0
209531.0 463087.0 0
205990.0 465640.0 0
212230.0 465408.0 0
215521.0 466004.0 0
218325.0 463534.0 0
221727.0 464016.0 0
225007.0 461722.0 0
228797.0 463111.0 0
233296.0 461696.0 0
231629.0 465685.0 0
237739.0 462243.0 0
242415.0 463100.0 0
246160.0 462309.0 0
249907.0 463989.0 0
254656.0 463350.0 0
258596.0 461909.0 0
262451.0 464006.0 0
265918.0 461229.0 0
266221.0 465361.0 0
270237.0 463445.0 0
274998.0 461803.0 0
278427.0 464856.0 0
282191.0 462901.0 0
285235.0 465449.0 0
288392.0 463403.0 0
292177.0 462198.0 0
291259.0 465356.0 0
294318.0 465742.0 0
299478.0 462684.0 0
295998.0 462897.0 0
302271.0 466128.0 0
304789.0 462306.0 0
309089.0 464481.0 0
313593.0 462804.0 0
318472.0 464272.0 0
323236.0 465600.0 0
327883.0 464298.0 0
332467.0 461752.0 0
332043.0 466335.0 0
336086.0 461643.0 0
336690.0 465031.0 0
339214.0 462315.0 0
344693.0 462785.0 0
341702.0 465170.0 0
347993.0 464016.0 0
350550.0 466668.0 0
353241.0 464195.0 0
356351.0 461648.0 0
359601.0 463659.0 0
356713.0 466702.0 0
362875.0 464071.0 0
365916.0 462626.0 0
368908.0 463291.0 0
365417.0 466308.0 0
371922.0 463733.0 0
375059.0 462482.0 0
372519.0 467094.0 0
379536.0 464288.0 0
376232.0 466142.0 0
382429.0 464067.0 0
385238.0 463594.0 0
388750.0 463532.0 0
386822.0 466898.0 0
391729.0 464748.0 0
395193.0 465158.0 0
398874.0 464368.0 0
401567.0 463954.0 0
405152.0 465872.0 0
409386.0 466304.0 0
414362.0 464535.0 0
412821.0 467447.0 0
418270.0 465801.0 0
424255.0 463866.0 0
428259.0 465346.0 0
431604.0 464101.0 0
435911.0 464976.0 0
433183.0 467311.0 0
438041.0 463413.0 0
440427.0 466146.0 0
443691.0 468031.0 0
51018.0 472105.0 0
53473.6 468949.0 0
55674.7 470870.0 0
59855.4 468968.0 0
62060.4 466406.0 0
62716.6 470574.0 0
66056.6 470770.0 0
69735.0 468791.0 0
68970.7 472590.0 0
73605.0 471087.0 0
77463.6 472174.0 0
78226.6 468014.0 0
82218.4 467936.0 0
81398.8 471266.0 0
85845.8 468218.0 0
84959.9 471220.0 0
87906.9 472183.0 0
89071.0 469248.0 0
92232.8 471569.0 0
96821.5 470199.0 0
100637.0 469970.0 0
103369.0 469321.0 0
105988.0 470569.0 0
108828.0 467849.0 0
112607.0 469484.0 0
115414.0 468559.0 0
117512.0 468516.0 0
114786.0 471057.0 0
118304.0 471714.0 0
121926.0 470640.0 0
125677.0 470916.0 0
134162.0 467167.0 0
129667.0 471762.0 0
133328.0 471484.0 0
137920.0 468793.0 0
137421.0 472416.0 0
142042.0 467757.0 0
141355.0 471752.0 0
145521.0 466943.0 0
148764.0 467898.0 0
145506.0 471065.0 0
152480.0 467699.0 0
150123.0 471414.0 0
154241.0 471546.0 0
156719.0 468016.0 0
157980.0 471601.0 0
161083.0 468738.0 0
166149.0 467577.0 0
169863.0 470610.0 0
174133.0 467664.0 0
174487.0 471841.0 0
177902.0 469989.0 0
182586.0 467428.0 0
180891.0 471661.0 0
184949.0 471533.0 0
187956.0 467799.0 0
191679.0 468384.0 0
195185.0 467752.0 0
198936.0 466448.0 0
198603.0 469678.0 0
202448.0 468448.0 0
206930.0 469698.0 0
209680.0 467361.0 0
212459.0 468263.0 0
210730.0 471374.0 0
215471.0 470458.0 0
219806.0 468042.0 0
224800.0 467046.0 0
228939.0 468003.0 0
232655.0 469682.0 0
235514.0 466308.0 0
239498.0 465628.0 0
238926.0 469253.0 0
242396.0 468052.0 0
245787.0 466244.0 0
248661.0 468773.0 0
253049.0 467832.0 0
258369.0 467065.0 0
263908.0 468864.0 0
268450.0 469348.0 0
274496.0 466350.0 0
271336.0 467642.0 0
273033.0 470276.0 0
277698.0 470108.0 0
281782.0 467764.0 0
285850.0 470424.0 0
288934.0 467620.0 0
292062.0 468387.0 0
298198.0 467064.0 0
295040.0 469850.0 0
302177.0 470033.0 0
306648.0 468354.0 0
311975.0 467795.0 0
316228.0 467880.0 0
314350.0 470850.0 0
317837.0 471656.0 0
320204.0 469040.0 0
323512.0 470367.0 0
327514.0 469247.0 0
331899.0 471348.0 0
339300.0 468051.0 0
335692.0 469516.0 0
342894.0 470264.0 0
345980.0 467547.0 0
349178.0 469847.0 0
353662.0 469689.0 0
358326.0 470881.0 0
361376.0 467819.0 0
362369.0 471756.0 0
369003.0 466440.0 0
366389.0 470806.0 0
370498.0 470263.0 0
374628.0 470059.0 0
378242.0 470219.0 0
380007.0 467375.0 0
382903.0 467477.0 0
382124.0 471985.0 0
386030.0 470545.0 0
390033.0 471518.0 0
390815.0 468031.0 0
394607.0 468916.0 0
393901.0 472360.0 0
398557.0 467814.0 0
398318.0 471490.0 0
401652.0 467846.0 0
405734.0 469572.0 0
402640.0 471588.0 0
408981.0 470010.0 0
412366.0 470594.0 0
416016.0 468094.0 0
415723.0 471561.0 0
418535.0 469416.0 0
421788.0 467463.0 0
425957.0 467826.0 0
423287.0 471503.0 0
426651.0 470629.0 0
429979.0 468950.0 0
434484.0 471317.0 0
431282.0 472217.0 0
437540.0 468693.0 0
439613.0 472662.0 0
442459.0 470786.0 0
446995.0 469852.0 0
445391.0 472840.0 0
450052.0 471506.0 0
39943.8 477993.0 0
42851.9 475683.0 0
46762.5 474348.0 0
45748.1 477867.0 0
50544.7 477232.0 0
54733.4 473915.0 0
54733.4 476961.0 0
58435.7 472571.0 0
62266.9 473673.0 0
58816.5 476595.0 0
65768.6 473925.0 0
63187.4 477468.0 0
67543.2 477483.0 0
71807.6 474944.0 0
75814.5 475434.0 0
74415.2 477990.0 0
79965.6 475856.0 0
83224.5 474309.0 0
86199.2 474919.0 0
83740.7 477812.0 0
87934.5 477763.0 0
90149.9 474753.0 0
92186.6 476939.0 0
94977.4 474459.0 0
97746.2 476953.0 0
99379.4 473238.0 0
102614.0 472447.0 0
101741.0 476983.0 0
105550.0 474313.0 0
108351.0 476774.0 0
110173.0 472638.0 0
111526.0 476826.0 0
114651.0 474556.0 0
118137.0 475631.0 0
121988.0 474477.0 0
126916.0 475004.0 0
130936.0 475422.0 0
134844.0 475607.0 0
139478.0 475489.0 0
143544.0 475059.0 0
147852.0 475073.0 0
152241.0 475568.0 0
156710.0 475138.0 0
159949.0 472581.0 0
164099.0 472123.0 0
160773.0 475882.0 0
164337.0 476597.0 0
167598.0 474824.0 0
172182.0 475897.0 0
177439.0 474294.0 0
182144.0 474984.0 0
188423.0 472311.0 0
186339.0 475904.0 0
191231.0 471276.0 0
191091.0 476135.0 0
195326.0 472873.0 0
200448.0 472624.0 0
204096.0 472045.0 0
203223.0 475426.0 0
207317.0 474186.0 0
213240.0 473679.0 0
218932.0 472093.0 0
216293.0 475103.0 0
222415.0 471619.0 0
220463.0 475208.0 0
224364.0 475499.0 0
226195.0 471789.0 0
229833.0 471997.0 0
228672.0 475938.0 0
232749.0 474304.0 0
236142.0 471711.0 0
244930.0 470830.0 0
240914.0 472963.0 0
244532.0 475655.0 0
248216.0 473512.0 0
251400.0 471539.0 0
251821.0 475645.0 0
255608.0 472718.0 0
260763.0 472707.0 0
265867.0 474067.0 0
270527.0 473690.0 0
274996.0 473496.0 0
279143.0 474837.0 0
281922.0 472150.0 0
282265.0 475080.0 0
285648.0 475500.0 0
290769.0 472797.0 0
298774.0 471626.0 0
295836.0 473527.0 0
301739.0 473802.0 0
299119.0 476014.0 0
305206.0 472885.0 0
310307.0 472398.0 0
314868.0 474444.0 0
318489.0 475139.0 0
321631.0 473486.0 0
325477.0 473357.0 0
328919.0 473055.0 0
327995.0 475895.0 0
332217.0 476157.0 0
335470.0 473689.0 0
339308.0 471911.0 0
338680.0 475073.0 0
343102.0 475911.0 0
346747.0 472466.0 0
348704.0 476788.0 0
350869.0 473332.0 0
355400.0 474301.0 0
352552.0 476989.0 0
360309.0 475176.0 0
365374.0 475505.0 0
369424.0 474126.0 0
372893.0 472941.0 0
376815.0 473781.0 0
380387.0 475696.0 0
383982.0 477228.0 0
386835.0 474446.0 0
391472.0 475841.0 0
396290.0 473216.0 0
400425.0 475044.0 0
396458.0 476549.0 0
403771.0 475509.0 0
407079.0 473760.0 0
411075.0 473934.0 0
409901.0 476836.0 0
414630.0 474801.0 0
419423.0 472830.0 0
417417.0 476225.0 0
421257.0 475938.0 0
424564.0 475049.0 0
427962.0 473373.0 0
428584.0 476897.0 0
432270.0 475554.0 0
436217.0 474722.0 0
442801.0 476076.0 0
448189.0 473618.0 0
449676.0 474934.0 0
447337.0 476810.0 0
450310.0 477571.0 0
452918.0 474186.0 0
456753.0 476185.0 0
460515.0 477158.0 0
32769.8 482489.0 0
36079.4 479852.0 0
35975.9 482892.0 0
40049.8 481965.0 0
43387.0 478898.0 0
47013.6 480246.0 0
44331.4 481561.0 0
49857.0 481696.0 0
53300.4 480275.0 0
57130.7 480784.0 0
61495.6 480998.0 0
65105.9 481213.0 0
71859.4 479767.0 0
68612.4 481499.0 0
77497.9 479200.0 0
74707.4 482123.0 0
81299.0 479950.0 0
82282.0 482794.0 0
85619.9 481151.0 0
90616.4 480261.0 0
94851.4 478822.0 0
98423.9 480492.0 0
101986.0 481535.0 0
105587.0 478793.0 0
109892.0 480853.0 0
114977.0 479222.0 0
119465.0 478715.0 0
123885.0 478432.0 0
121187.0 482356.0 0
128812.0 478955.0 0
126219.0 482372.0 0
132476.0 479257.0 0
137291.0 479225.0 0
141862.0 478895.0 0
145610.0 478397.0 0
149537.0 479555.0 0
153826.0 479096.0 0
157742.0 479326.0 0
162353.0 480659.0 0
167394.0 479057.0 0
171267.0 481549.0 0
175762.0 478795.0 0
179520.0 477657.0 0
179296.0 481652.0 0
183134.0 479511.0 0
187686.0 480971.0 0
193108.0 480980.0 0
195428.0 477699.0 0
198893.0 476475.0 0
198190.0 481185.0 0
201942.0 478883.0 0
206178.0 478667.0 0
211177.0 477214.0 0
213059.0 481575.0 0
215259.0 478728.0 0
218052.0 478186.0 0
221611.0 479646.0 0
225986.0 479208.0 0
229480.0 479926.0 0
232523.0 478248.0 0
236981.0 476403.0 0
235106.0 480782.0 0
241298.0 477160.0 0
244498.0 480465.0 0
248362.0 477963.0 0
254922.0 477129.0 0
252092.0 479455.0 0
258180.0 476874.0 0
256040.0 480286.0 0
262046.0 476675.0 0
260515.0 480751.0 0
268901.0 477944.0 0
265061.0 478823.0 0
273358.0 477733.0 0
276574.0 476380.0 0
275221.0 481539.0 0
278084.0 479257.0 0
281931.0 477845.0 0
285518.0 481046.0 0
289823.0 478449.0 0
294508.0 477121.0 0
297647.0 479682.0 0
303183.0 476683.0 0
301276.0 479632.0 0
307587.0 476725.0 0
305362.0 480481.0 0
312138.0 477560.0 0
313375.0 481348.0 0
317006.0 478797.0 0
320593.0 477385.0 0
324618.0 477829.0 0
321498.0 481776.0 0
329205.0 479576.0 0
332894.0 480311.0 0
337081.0 478697.0 0
342680.0 481504.0 0
346484.0 479625.0 0
349419.0 480523.0 0
352258.0 479918.0 0
356878.0 479556.0 0
362703.0 479606.0 0
366671.0 479708.0 0
368837.0 477572.0 0
370621.0 481680.0 0
372854.0 477127.0 0
374599.0 481413.0 0
377300.0 478422.0 0
381269.0 480370.0 0
385323.0 481615.0 0
388458.0 478779.0 0
389849.0 482657.0 0
392969.0 479867.0 0
397677.0 481232.0 0
401761.0 478987.0 0
405032.0 481897.0 0
406729.0 478307.0 0
410281.0 479842.0 0
413034.0 477942.0 0
416377.0 479349.0 0
413478.0 482492.0 0
420687.0 479488.0 0
418224.0 482877.0 0
425003.0 479022.0 0
428508.0 481614.0 0
431360.0 479192.0 0
434615.0 478723.0 0
436323.0 481815.0 0
433023.0 482129.0 0
438784.0 478532.0 0
439711.0 483357.0 0
442516.0 480600.0 0
446045.0 480246.0 0
449577.0 480993.0 0
447148.0 483413.0 0
453616.0 479274.0 0
453107.0 482989.0 0
456451.0 483171.0 0
458515.0 479970.0 0
460507.0 483504.0 0
462965.0 479984.0 0
466436.0 481322.0 0
25134.5 485871.0 0
23500.7 487687.0 0
28821.3 486027.0 0
33372.3 485935.0 0
36044.3 485030.0 0
35849.1 488530.0 0
38730.7 485866.0 0
43143.6 485570.0 0
46600.7 483816.0 0
46899.4 487620.0 0
49880.6 485560.0 0
53158.7 483579.0 0
56105.0 484357.0 0
53624.8 487835.0 0
59519.3 484382.0 0
62901.5 484883.0 0
57651.8 486977.0 0
66683.5 484507.0 0
64786.3 487821.0 0
71198.1 484331.0 0
68552.8 487714.0 0
72677.7 488164.0 0
75587.5 485636.0 0
78809.6 483281.0 0
81202.0 485575.0 0
78873.0 487079.0 0
81708.5 487882.0 0
84436.8 485763.0 0
87185.9 487996.0 0
88547.6 484005.0 0
91197.4 487247.0 0
94420.7 483324.0 0
99270.0 484697.0 0
103281.0 485725.0 0
105615.0 482760.0 0
108292.0 485914.0 0
112994.0 484145.0 0
117181.0 483061.0 0
116018.0 487451.0 0
123264.0 485355.0 0
119520.0 486391.0 0
127292.0 487677.0 0
130356.0 483257.0 0
134798.0 483295.0 0
140032.0 483065.0 0
142641.0 486993.0 0
145089.0 482688.0 0
149229.0 483684.0 0
146983.0 486957.0 0
151992.0 482244.0 0
151990.0 486816.0 0
155033.0 482640.0 0
158654.0 482925.0 0
156792.0 485887.0 0
161490.0 486448.0 0
166229.0 483942.0 0
169738.0 486798.0 0
173520.0 485214.0 0
175485.0 482502.0 0
177714.0 486203.0 0
183184.0 484775.0 0
190363.0 483710.0 0
188125.0 486811.0 0
192345.0 485408.0 0
195730.0 484919.0 0
203213.0 482622.0 0
199842.0 485590.0 0
208617.0 482988.0 0
213618.0 486057.0 0
217242.0 482361.0 0
224236.0 482485.0 0
220858.0 484654.0 0
224647.0 486118.0 0
227543.0 482899.0 0
232082.0 483405.0 0
239373.0 481227.0 0
236618.0 485678.0 0
241969.0 485131.0 0
248921.0 482070.0 0
245724.0 484629.0 0
253214.0 483464.0 0
257596.0 484720.0 0
264156.0 482943.0 0
261642.0 485643.0 0
267742.0 482270.0 0
271574.0 481688.0 0
270376.0 485886.0 0
274081.0 484892.0 0
278202.0 484080.0 0
281225.0 481580.0 0
283220.0 485528.0 0
289324.0 483200.0 0
293676.0 482306.0 0
291423.0 485856.0 0
298721.0 484124.0 0
303165.0 483211.0 0
309539.0 481445.0 0
307323.0 485286.0 0
312408.0 485593.0 0
316855.0 483511.0 0
320062.0 485923.0 0
324032.0 486380.0 0
326368.0 482801.0 0
330723.0 483298.0 0
334468.0 483115.0 0
333041.0 486427.0 0
338188.0 483140.0 0
336810.0 486705.0 0
340988.0 486220.0 0
347538.0 483023.0 0
345169.0 486116.0 0
349817.0 486879.0 0
351123.0 483222.0 0
353746.0 482665.0 0
353699.0 485866.0 0
356307.0 484083.0 0
360664.0 484014.0 0
366098.0 484190.0 0
370532.0 485669.0 0
374408.0 485148.0 0
378106.0 483039.0 0
378868.0 486666.0 0
382182.0 484266.0 0
386560.0 485544.0 0
394244.0 483823.0 0
391126.0 486890.0 0
395147.0 487765.0 0
398364.0 485747.0 0
401574.0 483689.0 0
404960.0 485478.0 0
401522.0 487266.0 0
403490.0 487877.0 0
408860.0 482939.0 0
408727.0 486365.0 0
416351.0 486219.0 0
412078.0 486260.0 0
420414.0 486074.0 0
423582.0 483523.0 0
424117.0 488179.0 0
428038.0 485946.0 0
431665.0 484645.0 0
435551.0 485018.0 0
432692.0 488057.0 0
436749.0 488004.0 0
438991.0 486710.0 0
443923.0 483789.0 0
442251.0 487021.0 0
446104.0 486597.0 0
450232.0 485513.0 0
454681.0 486458.0 0
458001.0 486110.0 0
461224.0 487455.0 0
464425.0 484522.0 0
469196.0 483859.0 0
467424.0 486928.0 0
471722.0 488407.0 0
472732.0 484992.0 0
475601.0 487371.0 0
13809.1 493746.0 0
17204.1 492053.0 0
20498.7 489910.0 0
21118.6 494221.0 0
24704.4 490531.0 0
28157.9 490567.0 0
31961.5 489662.0 0
35330.1 492980.0 0
39891.6 489536.0 0
43981.0 489233.0 0
42703.2 492214.0 0
47126.1 492593.0 0
49937.3 489414.0 0
52631.2 492038.0 0
56978.5 490318.0 0
55960.7 493267.0 0
60781.0 488251.0 0
59993.9 492972.0 0
63065.7 490670.0 0
66723.9 491382.0 0
70364.2 491003.0 0
76293.8 489244.0 0
74155.1 492941.0 0
79653.5 490987.0 0
83980.6 490096.0 0
88576.4 491287.0 0
85458.3 492539.0 0
92779.0 490858.0 0
95994.5 488042.0 0
96267.6 492299.0 0
100177.0 489165.0 0
102716.0 492058.0 0
105006.0 489137.0 0
109157.0 490334.0 0
112093.0 487855.0 0
119033.0 490566.0 0
114169.0 491676.0 0
122226.0 488574.0 0
124056.0 492209.0 0
132312.0 487899.0 0
129637.0 492726.0 0
137660.0 487548.0 0
135033.0 492366.0 0
144552.0 489873.0 0
140460.0 491537.0 0
148177.0 490777.0 0
152121.0 491978.0 0
157013.0 490607.0 0
162060.0 491895.0 0
165791.0 489151.0 0
169466.0 491760.0 0
173390.0 489344.0 0
177248.0 491397.0 0
180781.0 489180.0 0
184494.0 490275.0 0
192428.0 489577.0 0
196720.0 488420.0 0
195791.0 492746.0 0
200587.0 490576.0 0
204717.0 491221.0 0
204535.0 487128.0 0
209124.0 488364.0 0
212800.0 491221.0 0
217761.0 486519.0 0
216234.0 489541.0 0
220969.0 490550.0 0
228797.0 486921.0 0
225836.0 490044.0 0
232789.0 488679.0 0
239699.0 488643.0 0
236359.0 491103.0 0
244508.0 489730.0 0
249662.0 487246.0 0
254769.0 488386.0 0
256027.0 492447.0 0
259441.0 490034.0 0
262963.0 488629.0 0
266050.0 486935.0 0
273124.0 488816.0 0
269431.0 490754.0 0
275973.0 487595.0 0
275838.0 491599.0 0
279584.0 488570.0 0
284216.0 490756.0 0
287659.0 486871.0 0
288541.0 491208.0 0
294929.0 486993.0 0
291632.0 489386.0 0
295049.0 491018.0 0
298800.0 489260.0 0
302949.0 487364.0 0
303093.0 491896.0 0
306207.0 489478.0 0
309774.0 489463.0 0
313636.0 489594.0 0
316575.0 487727.0 0
316925.0 491877.0 0
320610.0 489824.0 0
328959.0 487456.0 0
325224.0 491220.0 0
329691.0 492323.0 0
334644.0 491194.0 0
339668.0 489835.0 0
343047.0 489317.0 0
346600.0 490501.0 0
353722.0 489737.0 0
350470.0 491349.0 0
357836.0 488348.0 0
356440.0 492326.0 0
362605.0 488503.0 0
365706.0 488303.0 0
368605.0 488302.0 0
365985.0 491662.0 0
369936.0 491617.0 0
372276.0 488793.0 0
375990.0 489104.0 0
379516.0 491414.0 0
383218.0 488451.0 0
388228.0 490366.0 0
393350.0 491576.0 0
398564.0 490168.0 0
402774.0 491015.0 0
406426.0 488857.0 0
410274.0 489441.0 0
407411.0 492516.0 0
414544.0 489679.0 0
419910.0 490348.0 0
424735.0 492312.0 0
428248.0 490066.0 0
431793.0 491611.0 0
436233.0 491439.0 0
439996.0 489616.0 0
440846.0 493349.0 0
444653.0 490786.0 0
448746.0 489371.0 0
449808.0 493836.0 0
452801.0 489829.0 0
454657.0 493721.0 0
457349.0 490079.0 0
461755.0 491284.0 0
464724.0 488959.0 0
466327.0 493260.0 0
468004.0 489917.0 0
471284.0 492945.0 0
475337.0 491656.0 0
478544.0 489656.0 0
481953.0 492428.0 0
8158.86 497014.0 0
10977.8 495522.0 0
12736.0 498645.0 0
16697.2 495866.0 0
19528.5 497892.0 0
25747.2 494634.0 0
23333.1 498888.0 0
30327.2 493902.0 0
28342.0 498208.0 0
33119.4 497680.0 0
37653.1 497062.0 0
39361.5 493547.0 0
42392.2 495882.0 0
50603.9 495475.0 0
54272.1 496255.0 0
57825.0 496255.0 0
63834.8 494530.0 0
66767.0 494790.0 0
66413.2 498188.0 0
69603.3 494598.0 0
71266.0 498247.0 0
74924.9 496776.0 0
77093.3 497787.0 0
78360.7 494972.0 0
82679.6 494707.0 0
87235.1 495349.0 0
92066.3 494995.0 0
96233.1 496498.0 0
99613.1 493738.0 0
102826.0 494962.0 0
100396.0 497731.0 0
105728.0 493192.0 0
105211.0 497873.0 0
109692.0 494822.0 0
114089.0 496734.0 0
118107.0 494355.0 0
122142.0 496556.0 0
126345.0 495625.0 0
129142.0 496865.0 0
133148.0 496872.0 0
138596.0 497090.0 0
144620.0 494626.0 0
149322.0 495421.0 0
154636.0 496562.0 0
159281.0 495073.0 0
162488.0 496533.0 0
165858.0 494203.0 0
169541.0 496594.0 0
173183.0 494078.0 0
177246.0 496024.0 0
180995.0 493432.0 0
184658.0 495154.0 0
188566.0 492427.0 0
187824.0 496700.0 0
191940.0 495937.0 0
196212.0 497160.0 0
199152.0 495124.0 0
203251.0 495250.0 0
208127.0 493686.0 0
212205.0 495637.0 0
216482.0 494294.0 0
222915.0 495120.0 0
225668.0 493650.0 0
229054.0 491580.0 0
228567.0 495796.0 0
232466.0 493926.0 0
240508.0 493281.0 0
236436.0 496290.0 0
243240.0 495981.0 0
248559.0 491827.0 0
246537.0 494827.0 0
252043.0 492354.0 0
250496.0 496750.0 0
254967.0 496113.0 0
259923.0 495786.0 0
264500.0 492604.0 0
267784.0 495814.0 0
272273.0 495276.0 0
279972.0 492997.0 0
286832.0 494651.0 0
291956.0 495060.0 0
298579.0 494901.0 0
303907.0 496557.0 0
307279.0 493237.0 0
312286.0 493787.0 0
316732.0 496064.0 0
321478.0 495198.0 0
327027.0 496747.0 0
332562.0 496403.0 0
338966.0 492832.0 0
338466.0 496950.0 0
343123.0 493770.0 0
348409.0 495342.0 0
353275.0 494111.0 0
357220.0 495982.0 0
360892.0 492897.0 0
364773.0 495531.0 0
369564.0 495728.0 0
374151.0 493266.0 0
373416.0 497106.0 0
377526.0 494432.0 0
376859.0 497171.0 0
384559.0 493356.0 0
380874.0 495971.0 0
389832.0 495541.0 0
394391.0 495593.0 0
396910.0 493772.0 0
400182.0 494418.0 0
397511.0 496880.0 0
404189.0 495132.0 0
401138.0 497842.0 0
408952.0 496792.0 0
411971.0 493464.0 0
413640.0 497828.0 0
416794.0 494361.0 0
421693.0 495256.0 0
425946.0 496385.0 0
428930.0 493845.0 0
430045.0 497816.0 0
433163.0 494900.0 0
437511.0 495798.0 0
441602.0 497243.0 0
445052.0 495755.0 0
448670.0 498802.0 0
452942.0 497880.0 0
456622.0 496779.0 0
458799.0 493928.0 0
460730.0 498325.0 0
462574.0 494934.0 0
465601.0 497708.0 0
469683.0 497177.0 0
474462.0 496330.0 0
478225.0 494709.0 0
482526.0 497445.0 0
486186.0 494764.0 0
483322.0 501353.0 0
489866.0 496360.0 0
492875.0 498699.0 0
5525.96 499642.0 0
2492.12 501812.0 0
8811.81 501717.0 0
12654.6 502433.0 0
15595.1 503092.0 0
16768.8 499551.0 0
19695.0 501765.0 0
26392.9 502142.0 0
30921.5 501630.0 0
35777.5 501004.0 0
40621.8 499915.0 0
46619.0 498524.0 0
44169.9 503134.0 0
52001.3 499723.0 0
49328.3 503209.0 0
56537.7 499870.0 0
61474.2 498535.0 0
59641.0 503263.0 0
68104.3 501589.0 0
64335.1 502461.0 0
71769.4 502996.0 0
75316.0 500191.0 0
80170.8 499089.0 0
82754.7 502547.0 0
84681.9 498718.0 0
87405.1 502580.0 0
89210.4 498746.0 0
93018.0 499501.0 0
97005.9 500840.0 0
101806.0 501932.0 0
106514.0 502309.0 0
109926.0 499567.0 0
113868.0 501389.0 0
117810.0 498939.0 0
121566.0 501461.0 0
126069.0 499724.0 0
130777.0 500623.0 0
135251.0 501615.0 0
143161.0 499270.0 0
147059.0 498838.0 0
145158.0 502109.0 0
148833.0 502507.0 0
150712.0 499233.0 0
159170.0 499614.0 0
162954.0 502385.0 0
165620.0 498668.0 0
166274.0 501672.0 0
169737.0 501274.0 0
173523.0 498581.0 0
177437.0 500068.0 0
181226.0 498023.0 0
182127.0 501855.0 0
185173.0 499386.0 0
189184.0 500104.0 0
194148.0 501290.0 0
200251.0 499848.0 0
205192.0 500859.0 0
206031.0 497801.0 0
209222.0 498954.0 0
214206.0 499407.0 0
219868.0 498615.0 0
225132.0 498460.0 0
228440.0 498807.0 0
227953.0 501667.0 0
232178.0 499611.0 0
237025.0 501308.0 0
240421.0 498460.0 0
244756.0 499750.0 0
247672.0 498377.0 0
252781.0 500244.0 0
249017.0 501490.0 0
257097.0 500400.0 0
261313.0 501749.0 0
264494.0 498353.0 0
269234.0 499956.0 0
274147.0 500741.0 0
277224.0 496644.0 0
282759.0 497164.0 0
287685.0 499006.0 0
291629.0 500621.0 0
295610.0 499515.0 0
300262.0 500759.0 0
308737.0 498026.0 0
304954.0 500983.0 0
313775.0 498886.0 0
311021.0 502309.0 0
319140.0 500689.0 0
323491.0 499608.0 0
326718.0 502132.0 0
330308.0 500261.0 0
334803.0 501386.0 0
344228.0 499124.0 0
348841.0 499340.0 0
353198.0 498337.0 0
351146.0 501616.0 0
357387.0 499670.0 0
359941.0 502676.0 0
361466.0 498393.0 0
364758.0 502660.0 0
366163.0 498777.0 0
369942.0 500553.0 0
375011.0 500605.0 0
385287.0 498023.0 0
380759.0 500775.0 0
388941.0 500109.0 0
385727.0 502157.0 0
393681.0 499493.0 0
398437.0 500653.0 0
405269.0 499202.0 0
402169.0 501965.0 0
410490.0 501072.0 0
415583.0 501979.0 0
418579.0 498640.0 0
420504.0 503191.0 0
423344.0 499859.0 0
427755.0 500788.0 0
431009.0 503720.0 0
434327.0 499863.0 0
435537.0 503894.0 0
438689.0 499154.0 0
438690.0 502472.0 0
441583.0 500505.0 0
444672.0 499890.0 0
447372.0 502893.0 0
451644.0 501984.0 0
456321.0 500876.0 0
460707.0 502184.0 0
464603.0 501295.0 0
468629.0 500908.0 0
470971.0 504468.0 0
473000.0 500586.0 0
478395.0 500023.0 0
486555.0 504367.0 0
487533.0 499843.0 0
497181.0 500055.0 0
2108.94 505571.0 0
7034.87 506341.0 0
11672.4 505162.0 0
15219.4 506605.0 0
19019.7 505868.0 0
22868.2 503869.0 0
28165.0 505217.0 0
29454.0 508446.0 0
33362.6 505535.0 0
39028.7 504256.0 0
42579.4 507555.0 0
46788.1 506784.0 0
51208.5 507518.0 0
54358.9 503647.0 0
57219.1 508403.0 0
62957.6 506563.0 0
67521.1 505343.0 0
71688.5 507228.0 0
77510.0 504876.0 0
83730.4 507228.0 0
88406.9 506601.0 0
92787.6 504320.0 0
98048.8 505289.0 0
102217.0 506672.0 0
104497.0 504632.0 0
106879.0 507310.0 0
110350.0 504400.0 0
114066.0 505757.0 0
117613.0 503740.0 0
124498.0 503744.0 0
121196.0 506109.0 0
128186.0 503989.0 0
125368.0 507470.0 0
132052.0 504384.0 0
130095.0 507854.0 0
135594.0 507181.0 0
140332.0 503512.0 0
145080.0 505792.0 0
154152.0 502673.0 0
150166.0 506716.0 0
158810.0 504195.0 0
162230.0 507445.0 0
166639.0 504938.0 0
174278.0 502918.0 0
171016.0 506029.0 0
178529.0 503585.0 0
181778.0 505960.0 0
186151.0 503892.0 0
190315.0 503458.0 0
194717.0 506329.0 0
198158.0 504241.0 0
202635.0 504644.0 0
208059.0 504851.0 0
210947.0 501849.0 0
213218.0 504279.0 0
217042.0 502800.0 0
216735.0 506850.0 0
221399.0 504452.0 0
224985.0 502363.0 0
226835.0 504978.0 0
230319.0 504243.0 0
234214.0 504408.0 0
238224.0 506628.0 0
241120.0 502883.0 0
242426.0 506583.0 0
245543.0 504225.0 0
254060.0 503911.0 0
250065.0 506646.0 0
258051.0 505086.0 0
254859.0 507959.0 0
261843.0 505975.0 0
265631.0 503647.0 0
270960.0 505551.0 0
276792.0 505544.0 0
279035.0 501081.0 0
288896.0 503571.0 0
283894.0 503339.0 0
287253.0 507325.0 0
291176.0 506640.0 0
294502.0 504060.0 0
298429.0 505253.0 0
302716.0 505058.0 0
307743.0 505082.0 0
312439.0 506682.0 0
314905.0 503110.0 0
318064.0 507037.0 0
322863.0 504442.0 0
326923.0 507128.0 0
330961.0 504723.0 0
336248.0 506985.0 0
340022.0 502533.0 0
344005.0 503780.0 0
341593.0 507046.0 0
347348.0 502738.0 0
346238.0 507280.0 0
350724.0 505455.0 0
355174.0 502945.0 0
358262.0 506059.0 0
362045.0 506900.0 0
368775.0 504428.0 0
366435.0 507645.0 0
372761.0 504380.0 0
370320.0 507439.0 0
377783.0 504953.0 0
383046.0 505905.0 0
385444.0 508103.0 0
386921.0 505005.0 0
390970.0 503937.0 0
396003.0 504266.0 0
399792.0 504224.0 0
399116.0 508078.0 0
403084.0 506014.0 0
406209.0 503189.0 0
409268.0 504549.0 0
407476.0 507078.0 0
412916.0 506543.0 0
417753.0 505616.0 0
421408.0 507303.0 0
425643.0 504849.0 0
429862.0 508378.0 0
434441.0 507254.0 0
438936.0 506074.0 0
442214.0 508039.0 0
442792.0 503879.0 0
445766.0 506589.0 0
450099.0 506679.0 0
454618.0 505181.0 0
458743.0 504166.0 0
458992.0 508312.0 0
463434.0 505963.0 0
467462.0 504477.0 0
472422.0 508064.0 0
476109.0 504878.0 0
481662.0 505206.0 0
479381.0 508909.0 0
484858.0 508175.0 0
489479.0 507869.0 0
492086.0 503129.0 0
494507.0 507706.0 0
497376.0 503890.0 0
498303.0 507234.0 0
3320.07 510037.0 0
8440.37 512557.0 0
11912.5 509472.0 0
17270.4 510255.0 0
23659.3 509151.0 0
28468.4 511633.0 0
32908.0 511249.0 0
37534.9 508911.0 0
37213.6 513698.0 0
41386.7 511410.0 0
46381.6 511362.0 0
52167.7 512515.0 0
61759.3 510945.0 0
66518.2 509929.0 0
71290.8 512093.0 0
75170.3 509509.0 0
75929.7 513054.0 0
79598.6 510249.0 0
87457.8 509817.0 0
84355.8 512837.0 0
90869.1 508715.0 0
90308.6 513301.0 0
95256.9 509810.0 0
99750.0 509285.0 0
103393.0 510630.0 0
107372.0 511394.0 0
111706.0 509441.0 0
117036.0 508769.0 0
115362.0 512923.0 0
121434.0 510446.0 0
126580.0 512435.0 0
132479.0 511806.0 0
136853.0 511697.0 0
141083.0 509400.0 0
146041.0 509598.0 0
150321.0 512347.0 0
156094.0 508816.0 0
159536.0 512181.0 0
163458.0 512489.0 0
167034.0 509175.0 0
171682.0 510870.0 0
176000.0 507657.0 0
180321.0 509853.0 0
185062.0 509358.0 0
190074.0 507577.0 0
194149.0 510534.0 0
199013.0 508871.0 0
203798.0 508711.0 0
202561.0 512999.0 0
207644.0 510308.0 0
211294.0 512502.0 0
211856.0 508352.0 0
215505.0 511396.0 0
220120.0 509939.0 0
224620.0 508565.0 0
229439.0 508382.0 0
226951.0 512034.0 0
234061.0 508893.0 0
236830.0 512827.0 0
241450.0 510826.0 0
245622.0 508614.0 0
250941.0 511447.0 0
258817.0 509456.0 0
255190.0 512523.0 0
263345.0 509874.0 0
267690.0 509683.0 0
274108.0 509468.0 0
271186.0 511923.0 0
277424.0 510155.0 0
281286.0 508287.0 0
285152.0 511865.0 0
290368.0 510857.0 0
295218.0 509081.0 0
300519.0 509706.0 0
305117.0 508862.0 0
309228.0 510229.0 0
314211.0 511429.0 0
322997.0 509175.0 0
326648.0 512199.0 0
331215.0 509722.0 0
335364.0 512267.0 0
339481.0 510787.0 0
343564.0 510680.0 0
350454.0 510440.0 0
354760.0 507867.0 0
354758.0 511950.0 0
358779.0 510470.0 0
363721.0 512050.0 0
369729.0 512209.0 0
374602.0 508938.0 0
379782.0 509383.0 0
377323.0 511664.0 0
384521.0 512065.0 0
388719.0 508465.0 0
394000.0 508837.0 0
390693.0 513050.0 0
399916.0 512135.0 0
404666.0 511051.0 0
409728.0 510087.0 0
413675.0 511832.0 0
417529.0 509411.0 0
421302.0 511033.0 0
425246.0 510106.0 0
429364.0 513815.0 0
433832.0 511520.0 0
437961.0 509754.0 0
441468.0 511710.0 0
437193.0 512954.0 0
446004.0 510671.0 0
450333.0 510907.0 0
453222.0 514075.0 0
454171.0 509893.0 0
458680.0 513420.0 0
463809.0 511152.0 0
468279.0 508944.0 0
472497.0 512329.0 0
475680.0 509581.0 0
477927.0 513049.0 0
482492.0 510753.0 0
486928.0 512103.0 0
492661.0 511945.0 0
497889.0 510316.0 0
3674.15 515901.0 0
9152.93 517343.0 0
13975.1 514920.0 0
20076.0 514484.0 0
26294.3 514039.0 0
21430.5 518062.0 0
24301.7 516876.0 0
29924.6 514178.0 0
28619.4 517455.0 0
33178.9 515823.0 0
42143.0 515793.0 0
37244.0 517987.0 0
47967.7 516504.0 0
53156.3 517733.0 0
57667.5 514389.0 0
61086.7 513799.0 0
60650.2 518714.0 0
64408.3 514788.0 0
69071.6 516331.0 0
73982.7 516869.0 0
78067.7 518262.0 0
79603.2 514611.0 0
82579.6 517749.0 0
86990.9 517366.0 0
95373.7 514725.0 0
98526.8 517852.0 0
99656.5 513311.0 0
104539.0 515524.0 0
110383.0 514536.0 0
120789.0 515718.0 0
125855.0 517300.0 0
130274.0 516443.0 0
139732.0 514443.0 0
135163.0 515774.0 0
144630.0 514159.0 0
155479.0 515490.0 0
160204.0 515250.0 0
163543.0 517375.0 0
167790.0 513173.0 0
166988.0 516274.0 0
171182.0 516289.0 0
176799.0 513761.0 0
182573.0 513611.0 0
185351.0 517295.0 0
189256.0 513474.0 0
193712.0 513831.0 0
193614.0 517252.0 0
197424.0 514016.0 0
200565.0 517054.0 0
207625.0 516248.0 0
214107.0 516793.0 0
219106.0 514422.0 0
223221.0 512997.0 0
222661.0 517809.0 0
226917.0 515794.0 0
231417.0 513587.0 0
235345.0 517751.0 0
241080.0 516642.0 0
246518.0 513560.0 0
251511.0 515891.0 0
260499.0 514736.0 0
266147.0 514060.0 0
270775.0 517048.0 0
275383.0 513796.0 0
280064.0 512966.0 0
283718.0 516685.0 0
289027.0 515847.0 0
293126.0 514039.0 0
297552.0 514130.0 0
300917.0 517698.0 0
304867.0 514004.0 0
310510.0 514918.0 0
319615.0 513070.0 0
315378.0 516086.0 0
327060.0 517020.0 0
331196.0 514743.0 0
335936.0 517537.0 0
341628.0 515590.0 0
346889.0 513762.0 0
352127.0 516044.0 0
357266.0 514737.0 0
361241.0 516781.0 0
366660.0 517374.0 0
374980.0 513770.0 0
372194.0 517223.0 0
379344.0 513802.0 0
376947.0 517540.0 0
382175.0 518037.0 0
387633.0 517145.0 0
392874.0 517797.0 0
396050.0 513782.0 0
402008.0 515469.0 0
405901.0 515899.0 0
409488.0 514026.0 0
413655.0 516352.0 0
418397.0 514255.0 0
417209.0 518521.0 0
423385.0 514272.0 0
421501.0 518824.0 0
426030.0 517370.0 0
434697.0 516375.0 0
439659.0 515634.0 0
444264.0 515071.0 0
448783.0 514893.0 0
455886.0 517426.0 0
463278.0 515199.0 0
460470.0 518256.0 0
467932.0 514321.0 0
465336.0 519184.0 0
470312.0 518606.0 0
478638.0 517111.0 0
474270.0 516787.0 0
482534.0 515068.0 0
486321.0 516101.0 0
490069.0 515841.0 0
494052.0 515461.0 0
497501.0 513965.0 0
497989.0 517904.0 0
3199.88 521570.0 0
8171.06 521403.0 0
12574.9 520375.0 0
17845.6 519624.0 0
23091.1 520752.0 0
27765.5 521477.0 0
32795.1 520670.0 0
40686.2 520743.0 0
37185.7 521519.0 0
44657.3 519357.0 0
45165.4 523625.0 0
49617.6 520954.0 0
53629.4 522366.0 0
56594.3 519802.0 0
58217.5 523481.0 0
62554.1 522867.0 0
65643.1 519887.0 0
70760.7 521080.0 0
75790.7 521778.0 0
80621.3 521880.0 0
85072.2 521219.0 0
92466.1 519382.0 0
97672.3 522856.0 0
102422.0 520464.0 0
106075.0 519199.0 0
106844.0 522746.0 0
109468.0 519146.0 0
111865.0 523189.0 0
114787.0 518260.0 0
119260.0 521099.0 0
123589.0 520481.0 0
128411.0 521279.0 0
133035.0 519814.0 0
138604.0 519088.0 0
135830.0 522375.0 0
143205.0 518995.0 0
149315.0 519187.0 0
155007.0 520516.0 0
159360.0 519656.0 0
164014.0 522555.0 0
166709.0 519119.0 0
169925.0 521887.0 0
175424.0 519858.0 0
180642.0 518214.0 0
184148.0 521685.0 0
189421.0 519021.0 0
193024.0 522158.0 0
197506.0 519931.0 0
203326.0 520492.0 0
278939.0 517834.0 0
282574.0 521106.0 0
286456.0 519790.0 0
294117.0 519447.0 0
299496.0 522024.0 0
304452.0 521137.0 0
307665.0 518084.0 0
311576.0 519686.0 0
316180.0 520353.0 0
321727.0 519030.0 0
326587.0 521226.0 0
330964.0 520200.0 0
340240.0 521331.0 0
346714.0 519565.0 0
352106.0 521691.0 0
356795.0 519366.0 0
361231.0 521621.0 0
366154.0 523139.0 0
370245.0 520903.0 0
374710.0 521684.0 0
379767.0 523109.0 0
385094.0 522951.0 0
389559.0 521541.0 0
394166.0 522952.0 0
398571.0 519124.0 0
404192.0 519472.0 0
402056.0 523279.0 0
409313.0 519158.0 0
414069.0 520996.0 0
418074.0 521578.0 0
421208.0 524006.0 0
425877.0 522035.0 0
430563.0 519391.0 0
434492.0 522300.0 0
442519.0 518638.0 0
438338.0 520186.0 0
442550.0 522752.0 0
447058.0 519791.0 0
451824.0 518393.0 0
451527.0 522999.0 0
456913.0 522125.0 0
461636.0 521929.0 0
464619.0 524173.0 0
468872.0 522832.0 0
473117.0 522750.0 0
476913.0 520903.0 0
481446.0 519334.0 0
487000.0 520908.0 0
493419.0 519245.0 0
497559.0 521928.0 0
2033.92 526089.0 0
6237.65 525449.0 0
10720.6 524813.0 0
15432.7 524289.0 0
20250.4 524185.0 0
25091.8 524749.0 0
22359.9 527869.0 0
30520.0 525902.0 0
35953.8 524889.0 0
40229.1 524829.0 0
46371.6 529163.0 0
50168.3 525156.0 0
51171.5 529040.0 0
54504.0 526625.0 0
62367.0 526143.0 0
59019.1 528529.0 0
66853.4 525381.0 0
72956.1 526065.0 0
78122.0 526198.0 0
83793.2 525961.0 0
88325.0 523483.0 0
88570.0 527983.0 0
92768.9 525419.0 0
96920.8 528169.0 0
102461.0 526346.0 0
107951.0 527224.0 0
112442.0 528283.0 0
116676.0 525309.0 0
122200.0 525252.0 0
127475.0 526833.0 0
132268.0 524724.0 0
139851.0 523742.0 0
136337.0 526013.0 0
144579.0 523496.0 0
142224.0 527116.0 0
148679.0 524961.0 0
145950.0 527781.0 0
153164.0 524438.0 0
158185.0 524537.0 0
167399.0 526286.0 0
174405.0 525362.0 0
179640.0 523254.0 0
313467.0 524249.0 0
318826.0 524810.0 0
324076.0 524540.0 0
328765.0 524525.0 0
335391.0 523205.0 0
339179.0 526085.0 0
344112.0 525050.0 0
348547.0 524197.0 0
351483.0 526063.0 0
356814.0 525589.0 0
362587.0 526914.0 0
371076.0 525217.0 0
376030.0 526824.0 0
382484.0 525785.0 0
385304.0 527738.0 0
390109.0 526595.0 0
398358.0 524235.0 0
396004.0 527519.0 0
400866.0 527895.0 0
406992.0 524156.0 0
410391.0 528070.0 0
411752.0 524329.0 0
416164.0 525506.0 0
425340.0 527185.0 0
430431.0 524697.0 0
438866.0 524227.0 0
441953.0 528150.0 0
446902.0 525151.0 0
451160.0 528152.0 0
456036.0 527271.0 0
460587.0 525793.0 0
467320.0 526482.0 0
464134.0 528513.0 0
471176.0 526667.0 0
480866.0 523865.0 0
476130.0 526483.0 0
484929.0 526411.0 0
489271.0 526347.0 0
492335.0 523575.0 0
493895.0 527545.0 0
497912.0 525956.0 0
3198.79 530183.0 0
8538.38 529494.0 0
13286.6 528484.0 0
11996.3 532404.0 0
18001.2 528543.0 0
16228.3 533235.0 0
22010.3 532977.0 0
26505.3 529436.0 0
30474.9 530578.0 0
34980.2 529918.0 0
40609.3 529324.0 0
38445.9 533950.0 0
43455.7 533798.0 0
49899.9 532950.0 0
54717.7 531684.0 0
61024.5 533003.0 0
63818.1 529503.0 0
65874.3 533622.0 0
69817.6 530228.0 0
75434.5 530509.0 0
80630.6 530575.0 0
85160.6 530578.0 0
92597.7 530352.0 0
88664.5 532430.0 0
100504.0 532844.0 0
105674.0 530775.0 0
109898.0 532679.0 0
119417.0 528940.0 0
116108.0 532131.0 0
123500.0 530325.0 0
129675.0 531047.0 0
133521.0 529260.0 0
138550.0 529920.0 0
150792.0 529604.0 0
348082.0 528389.0 0
352876.0 529436.0 0
359784.0 529848.0 0
363488.0 531875.0 0
367292.0 528393.0 0
371990.0 530146.0 0
376548.0 531964.0 0
380799.0 529294.0 0
388024.0 531827.0 0
393035.0 530976.0 0
397783.0 531745.0 0
405639.0 529222.0 0
402367.0 532618.0 0
409183.0 532759.0 0
414699.0 531139.0 0
420385.0 529255.0 0
424967.0 532555.0 0
429809.0 529924.0 0
435520.0 527791.0 0
446885.0 529670.0 0
444509.0 533267.0 0
449571.0 532912.0 0
454776.0 532298.0 0
459708.0 530309.0 0
463543.0 533281.0 0
468191.0 529962.0 0
472636.0 530987.0 0
476960.0 531250.0 0
480841.0 529085.0 0
483992.0 533304.0 0
487097.0 529777.0 0
489205.0 533461.0 0
490600.0 529702.0 0
493650.0 532077.0 0
497789.0 530016.0 0
2907.09 535456.0 0
1223.31 539167.0 0
8139.63 534545.0 0
12658.1 536932.0 0
27514.7 533948.0 0
32152.8 534484.0 0
35704.9 538417.0 0
41288.6 538624.0 0
47491.8 537133.0 0
52793.4 536261.0 0
57345.1 535895.0 0
55207.9 539484.0 0
62422.9 538505.0 0
72561.8 534907.0 0
68355.3 538054.0 0
77927.7 535053.0 0
83722.1 534985.0 0
90871.1 536206.0 0
94988.7 534167.0 0
97591.1 536873.0 0
105747.0 535101.0 0
368370.0 533685.0 0
383336.0 533548.0 0
394685.0 536075.0 0
405416.0 536532.0 0
411446.0 537341.0 0
415635.0 536191.0 0
419225.0 534176.0 0
422845.0 537675.0 0
428134.0 539310.0 0
429762.0 534846.0 0
433619.0 532967.0 0
433631.0 537524.0 0
438818.0 533639.0 0
442657.0 537411.0 0
447518.0 537502.0 0
452463.0 536916.0 0
458892.0 536365.0 0
468994.0 535289.0 0
474964.0 535570.0 0
479464.0 534427.0 0
486848.0 538357.0 0
492962.0 537335.0 0
497580.0 534407.0 0
2782.84 541175.0 0
6640.51 539574.0 0
11185.2 541613.0 0
14978.9 542038.0 0
18549.5 538569.0 0
25084.8 538647.0 0
438395.0 539446.0 0
464104.0 539080.0 0
472310.0 540309.0 0
478023.0 539588.0 0
481863.0 537596.0 0
490602.0 542119.0 0
497916.0 538803.0 0
495316.0 541811.0 0
POINT_DATA 5000
SCALARS Radius float 1
LOOKUP_TABLE default
3163.97 6810.52 5415.48 5120.0 6182.6 5492.18 5258.36 5061.3 3951.75 3642.12 5812.43 5906.14 7513.1 5254.28 4436.4 5733.48 5580.89 5553.16 6110.27 5840.26 5073.35 4834.9 3863.18 2356.98 4998.37 5351.6 4715.55 5867.73 4499.64 5013.56 5542.27 5122.66 5484.19 3557.27 4402.52 4688.68 4182.53 4517.56 4672.91 3588.44 5176.86 5645.7 4366.19 2938.66 3672.51 4008.92 5670.04 5085.53 5484.83 5538.89 4730.36 6059.59 5701.86 4375.68 4238.81 5054.98 6030.06 5170.02 5325.02 4927.31 5185.34 4432.58 5903.42 3761.32 5292.64 4118.05 5065.13 4940.78 3615.22 5561.06 4380.59 6716.79 3850.77 6044.04 5325.36 6759.9 7021.47 5926.61 2720.68 4955.55 3563.63 4468.59 5885.03 5246.2 5200.76 4862.64 5205.43 6684.56 3955.56 2635.86 3968.64 4385.06 6166.5 5936.02 4231.61 3942.53 5305.17 5546.39 5945.65 5418.62 5493.32 5416.38 6051.14 4195.44 5836.15 4345.55 2837.58 3653.41 3871.88 5017.13 4827.23 3673.74 6116.18 7447.37 4688.67 7184.19 4290.3 3867.67 4861.08 3379.84 4827.82 3607.45 7613.27 4133.88 4094.62 6483.19 6230.49 4601.27 5740.68 3641.64 4277.89 3261.21 5539.32 6704.06 5600.93 3856.01 4390.66 5279.39 4911.47 5803.39 4381.97 4924.6 3255.82 4733.32 5242.73 2812.98 2924.37 2899.43 4065.69 5399.73 4003.05 4805.87 5759.91 3589.27 4333.2 4951.03 4665.12 3936.02 4927.02 4174.52 5109.54 7054.71 5489.43 5747.75 4796.33 5360.19 6496.85 5541.59 4124.71 5083.08 5728.85 6337.56 5863.59 6257.19 4737.14 5603.15 5390.22 4712.33 5227.21 3997.1 3260.67 3383.4 3856.1 4044.71 5980.74 5816.2 3829.13 6458.82 5527.54 5054.25 7325.81 4874.39 4794.96 4839.34 2980.99 6834.49 5525.39 3998.5 4024.3 5555.28 4686.65 4695.45 4660.72 3888.21 6038.78 5123.52 5697.78 4295.38 3038.33 4780.03 5495.39 4487.31 5693.81 3091.3 2540.31 5789.98 5573.7 6138.47 4727.62 4055.8 6425.26 6186.19 4840.01 5611.2 7933.0 5938.34 5173.87 6394.38 5169.36 5834.74 5556.96 6052.7 3921.18 6902.81 4667.36 4392.68 3554.9 3996.0 4002.16 4778.34 4138.16 6029.66 6302.8 5697.4 4005.44 5206.78 5280.17 5028.96 5143.58 4484.76 5152.36 4220.65 4455.12 5118.27 5380.13 5932.23 5581.75 5788.23 3798.62 5891.05 4091.31 7199.21 5529.52 5252.48 6124.89 4015.92 5708.81 4684.5 5043.05 5120.49 5409.61 4270.95 5555.88 6732.43 6362.12 3866.16 4524.28 4511.82 5826.64 6820.42 4894.16 4896.52 4941.22 5711.87 5791.61 3666.57 4254.17 5615.42 4523.7 5255.32 5542.21 5924.89 3486.22 6894.71 4414.54 5262.61 6038.2 5094.81 5713.22 5861.71 5017.78 3183.98 3794.63 3778.1 4727.24 4816.2 6959.81 6321.41 4829.35 3372.79 5282.64 6392.01 4479.66 3369.13 5308.1 6644.76 6372.62 7565.34 5337.48 5637.59 5481.78 4937.14 5551.36 5201.36 4306.53 5972.06 4312.67 4359.04 5015.69 6175.81 6677.09 5813.4 4089.76 5201.67 4751.02 3192.41 5184.56 4715.72 5367.2 3043.85 6730.19 4937.02 6037.08 3103.0 6084.86 3307.12 4467.94 4850.81 4933.21 6038.14 6135.57 5024.9 5998.38 4270.24 4947.52 4989.15 4164.13 4520.1 4642.34 4305.57 5874.89 3791.79 4293.03 4754.05 4951.47 5526.55 6084.93 4987.87 3315.57 4669.66 4808.52 5461.13 4907.89 5655.21 5629.19 6756.95 4049.23 3586.91 3115.91 5478.92 5094.44 5375.47 4723.12 5659.17 4717.05 4562.29 5287.2 5423.8 3417.33 4926.42 5080.66 5153.74 4165.81 4424.7 4389.21 4128.98 4925.44 5246.61 5215.15 4764.96 5607.24 5053.92 4726.76 3599.45 5090.24 5091.39 2240.39 6324.23 5601.05 4382.74 4948.92 4516.43 4749.8 5810.84 3748.24 4230.54 4655.49 4809.42 4566.18 4964.09 5856.11 4234.94 4109.88 4980.85 5013.13 5714.58 5110.45 5248.77 4083.97 4528.09 3556.85 3895.51 6291.51 6246.22 4307.28 4100.38 5046.33 5804.71 5020.12 6352.26 5839.13 3735.44 5923.5 4073.93 4645.41 5096.78 4727.24 4651.28 4384.42 4493.48 5082.6 6163.38 3459.9 4093.08 4997.27 5543.27 3327.49 3960.8 4923.9 3329.99 4973.78 3947.47 5208.32 4607.02 3296.27 6673.96 5174.89 5882.89 4188.32 5538.93 5727.3 4242.52 3847.38 4907.06 4786.6 4433.59 5740.84 4612.68 4929.8 6355.42 4362.19 5690.56 3693.63 3937.74 5478.47 6061.47 4449.22 5628.24 5365.89 5992.26 5070.39 4511.54 4613.31 5091.68 4713.25 6243.0 5441.96 4288.3 5370.52 4739.42 3697.96 4899.11 4278.07 4723.48 4745.45 5356.51 3818.59 3057.03 5495.68 5163.9 4973.83 5530.87 3912.37 3320.52 4310.18 4151.94 5244.78 5762.84 6142.37 5119.37 3982.23 5806.08 4853.39 5243.29 3130.65 5004.67 5409.33 5196.0 4178.15 4204.84 6119.09 7531.29 5069.25 5935.03 5048.89 3991.03 3161.47 3435.9 4652.29 5774.81 4495.87 5027.98 5344.77 5097.87 5281.28 4863.72 2631.9 4087.15 5489.34 6043.3 5952.75 6445.94 4281.49 4129.43 4320.28 5927.43 4685.34 5492.26 4220.88 6640.13 5351.39 4336.42 3402.32 4583.31 7589.94 4466.03 4898.94 4733.04 5788.66 4755.47 6390.78 6826.57 4788.87 3746.31 5346.27 7267.18 4143.08 4758.21 5002.48 5708.14 4262.82 5537.72 6342.25 6327.9 6519.71 3092.35 3629.96 5210.03 3320.11 4306.11 6022.17 5903.66 5419.37 5985.29 4528.49 4247.23 4268.65 4694.83 4354.08 3903.75 4485.99 4520.62 5475.8 7435.25 5498.32 5543.46 6475.1 6255.18 2691.29 7500.97 3920.42 6332.36 5542.14 4218.06 4931.53 3843.58 5293.9 6082.81 5449.18 5367.52 4048.37 4714.54 5030.91 5507.24 4503.89 6851.54 5313.66 5935.47 5275.32 5512.23 4649.22 5509.42 5936.36 5475.7 5314.69 6050.81 4249.46 6022.72 4643.31 5527.33 4969.21 6256.02 4277.88 6623.85 8332.24 7134.64 6691.39 4602.25 6142.94 3191.99 5110.37 5664.98 4322.15 4659.59 5025.39 5101.59 4377.07 3813.22 5570.3 2651.49 5234.29 5349.31 4711.62 4114.24 5394.55 2976.22 4256.43 2682.24 5229.48 5415.19 4016.18 5127.16 5435.74 4244.99 5560.26 5965.81 2330.66 6917.52 4177.19 3691.0 5402.21 2845.98 4668.71 7228.46 5320.92 5102.36 5228.18 5787.31 6122.55 5480.13 4329.05 4931.38 4736.58 3485.26 3240.09 4556.36 3369.23 4548.16 3688.8 3848.93 5893.5 3695.36 6020.48 5200.05 4645.58 4091.8 5670.2 5094.52 5166.79 5928.32 4946.74 5526.75 3950.63 4612.62 4275.57 3619.07 5327.45 6185.89 2983.99 3702.37 5660.85 3990.25 4752.51 3758.07 4880.14 4989.09 3948.23 6362.14 6719.88 4342.9 5978.82 5978.9 2739.94 4270.53 4194.5 4792.73 5264.06 4515.71 5358.59 6202.55 4547.19 3817.13 5023.15 3963.86 5076.35 3844.9 6375.99 5273.35 5181.4 6259.23 3457.48 4662.56 5417.15 3405.98 5996.33 6631.19 6385.23 4467.04 3997.96 2614.4 4750.17 3460.94 6184.4 3587.05 4373.45 4982.31 6229.37 5269.18 4406.1 6155.31 5065.11 6308.71 5911.67 4790.08 4187.56 5082.47 4840.84 5513.6 5138.31 4901.41 4551.24 6387.01 7111.16 4871.44 4564.34 4853.02 6248.81 5088.44 4998.21 3931.07 7440.72 3688.16 4681.72 3949.6 5661.62 5817.25 5626.61 4439.35 6363.92 6205.93 3828.81 5830.72 5309.98 5289.52 5034.59 5314.85 4305.43 4553.56 4942.77 4223.33 5069.84 5329.64 3629.62 3323.28 4997.27 4501.51 3708.04 6013.14 3610.4 4621.75 4581.13 6338.89 4219.07 6480.17 5584.06 3838.56 5872.05 6079.11 4256.67 6430.39 4945.39 5376.71 4867.08 5703.6 5407.78 6648.68 6632.99 5061.98 4923.24 7177.44 4307.48 6718.19 4407.87 5450.44 3848.54 3927.99 5266.5 5868.82 4716.19 4051.44 4301.06 5135.69 5344.25 5344.0 5191.63 5379.87 4602.86 3856.59 2765.2 5572.95 5372.61 5413.79 3686.21 5402.24 6445.22 5013.42 4962.77 6101.92 5323.3 4427.28 4635.6 3082.32 4765.02 3658.37 4448.13 5070.29 5629.39 6326.18 4807.28 4713.74 4266.03 4084.49 4537.6 6179.96 4419.61 5147.36 6260.79 4563.46 4082.57 4236.14 5080.18 5941.4 6510.17 4454.63 4263.33 4050.9 6695.82 6049.55 5514.76 3456.98 4290.14 5925.6 5987.17 3979.82 6723.16 4746.52 5130.91 4948.5 5651.07 5210.48 7552.94 3627.55 6239.84 5865.39 5370.85 3178.54 6157.04 2684.03 4768.61 2261.36 5075.55 4220.03 5280.69 5703.07 5449.46 4662.43 6113.54 3963.76 5733.62 5169.9 5282.91 4425.84 4871.96 5331.02 4066.38 4523.88 5709.62 4241.89 6405.76 4593.7 6045.46 4043.57 4138.42 5586.81 5006.58 3824.16 5011.31 3868.18 3689.45 4527.02 5383.07 4531.14 4519.22 4602.85 4409.63 7644.38 4051.34 5521.25 5949.46 3661.9 5136.08 5246.47 3776.94 4010.57 4522.21 5506.19 6923.84 6166.29 4043.66 5294.77 6553.94 5282.51 3797.33 3004.16 7256.35 5742.65 5592.32 4800.69 5835.78 5054.74 4099.77 4877.67 4020.32 3498.2 4763.45 3815.26 4481.53 4292.06 5330.45 5077.33 3948.17 5045.38 5350.88 4959.34 4247.15 4790.78 6552.22 5379.09 6004.68 5278.36 6799.4 5107.23 5222.16 4187.31 5558.68 3240.51 6191.29 7422.36 6719.94 5161.01 4950.67 5453.6 5409.63 4709.05 3077.84 4630.82 5255.18 5528.53 4460.92 5460.65 4767.78 5945.89 4105.55 3279.1 5912.61 4978.31 4981.9 5941.72 4245.72 5794.24 4150.99 6562.18 4478.15 5681.38 5147.67 6318.18 5577.04 5125.78 4591.87 5452.83 6422.84 5534.94 5180.76 6218.95 5533.42 5533.72 3678.08 4599.38 4802.32 5730.33 4527.99 4543.1 4628.4 4376.7 5227.59 4298.15 6051.83 4263.16 4813.08 5726.66 6799.88 4540.86 3062.43 5426.78 4042.28 4863.23 3555.86 4402.67 4403.98 5381.16 4560.84 4948.98 4414.48 4537.32 5163.02 4127.74 4216.92 4704.72 5445.87 3771.48 5198.77 4986.77 5423.0 5643.58 6034.41 5197.52 5178.99 4027.09 5615.35 5801.99 4135.62 4860.33 4502.18 4993.35 3312.06 3361.26 4983.39 4690.55 5146.37 7132.12 5518.57 5463.48 5680.94 5545.46 5190.61 5832.37 3973.12 4642.93 6024.75 5860.67 5987.42 5990.52 5235.17 6566.1 6386.78 5227.52 5565.13 6086.96 6193.35 4541.21 4302.5 3066.13 5908.1 4850.01 4107.03 5215.05 5137.34 5344.43 4373.47 6169.11 5266.22 5172.53 3685.13 3418.99 5226.97 4480.95 5366.52 4558.15 5417.8 4232.16 4836.16 5151.11 5581.55 6550.44 3764.06 8325.01 5941.9 4440.81 6642.76 6109.49 3764.1 5652.0 4340.76 5463.41 4435.36 6065.22 5254.49 4421.12 4996.99 4221.28 4470.61 4656.78 4156.38 2476.04 6048.7 6009.88 4571.7 4177.94 4138.46 2775.04 5198.29 3975.31 6070.58 4044.45 5490.43 4285.32 4896.11 5022.28 4318.48 4285.66 6132.95 5008.63 5754.18 4270.74 5132.68 6595.03 6552.21 5227.02 4350.12 5300.96 5670.0 4344.51 5193.01 4707.06 3474.5 6348.03 4523.39 5732.27 5829.22 4497.78 5567.93 2967.38 5811.18 5332.65 4835.83 4779.5 6045.22 4929.75 4456.39 3701.27 4631.83 4092.24 4729.43 5105.16 6006.16 4344.58 5896.46 4271.69 3633.87 4810.12 3970.25 3821.72 6035.6 6449.45 3627.82 5262.19 4244.9 5339.38 4986.51 3872.61 4004.35 4763.96 3930.79 5293.51 3450.93 6293.89 5097.45 5737.75 2761.07 3778.02 3603.51 4367.78 4095.75 3834.43 6609.84 5135.96 5491.37 3781.77 6074.94 3860.83 4250.88 4792.39 5434.47 5278.56 6917.62 4243.79 5433.65 6451.33 4159.35 5225.33 4237.98 6439.37 6649.96 4896.39 5233.78 4562.74 5991.09 4678.38 5126.91 4164.68 4742.68 5634.83 4502.5 5347.48 3929.19 5922.5 6898.19 7099.43 5526.14 4470.4 6048.86 6894.26 5311.03 5255.12 4238.4 5365.24 4446.06 4185.61 4047.87 5099.21 5742.47 4917.99 3319.67 4076.59 5222.51 5164.1 5658.37 4972.17 5699.53 3783.54 3475.67 4222.77 7038.89 3863.67 5146.37 5631.14 4814.12 6137.8 4442.22 5604.35 5413.31 3091.67 4332.87 4614.3 4303.19 4384.88 6887.27 3633.79 6008.49 4806.34 3942.07 5448.61 5050.65 5316.75 4827.33 5495.84 6268.1 3784.5 5113.21 4862.21 5499.11 4011.77 4374.35 6396.74 4527.08 5776.37 5486.68 4516.28 5315.4 5100.25 5678.96 4611.53 5296.29 2681.29 5094.48 5576.92 6408.83 4586.19 6625.18 4573.72 4163.74 6969.28 5636.4 4298.45 6471.42 5283.8 4428.14 6464.15 6685.4 5268.38 4850.06 5527.23 4805.33 5980.95 4013.38 5067.56 4343.78 5263.3 4887.76 3012.99 4008.15 6316.56 6477.91 4081.97 5401.99 5514.84 6081.14 5421.53 5480.83 5776.57 7144.24 5133.97 7443.72 5022.8 6133.92 3937.08 7055.53 3719.84 4178.4 5820.48 5782.6 7034.11 2586.12 6261.42 6125.34 5965.78 5252.34 2965.79 4410.55 4287.63 3921.08 4190.31 5683.61 5805.86 5346.68 4049.02 5997.88 4360.23 6234.32 4585.31 5010.04 4570.98 5323.91 4296.69 4275.07 3665.95 5698.96 6372.13 5369.5 6016.19 4124.49 4479.11 5714.25 3230.13 5325.96 6332.01 7044.29 4581.37 4234.18 7085.01 6193.08 3352.35 2735.53 4909.65 5116.6 4669.06 4811.32 6420.81 6400.08 5134.39 4256.57 3914.2 4607.85 5580.92 5653.9 4220.46 4287.53 3600.43 5683.26 5598.74 6600.94 5371.02 4906.82 4788.58 5131.24 5513.57 6155.1 5013.67 5260.34 5729.23 5669.65 5934.22 6586.45 5011.84 4359.62 5253.55 5062.71 5433.8 6946.21 5975.63 5564.02 4274.61 6314.07 5083.41 7055.42 4558.46 3836.45 5731.57 5020.71 5662.55 5737.92 5839.71 3755.95 3056.7 5591.76 5889.35 4394.56 5388.78 6101.13 5825.38 5599.7 6238.32 6804.79 5404.01 5642.35 5535.91 5955.86 6176.67 4533.37 5412.24 5016.02 2779.99 5887.38 4920.21 4049.16 3936.95 6153.94 6069.3 5887.01 3862.77 5168.35 6523.86 7693.4 4286.49 4715.58 4743.59 3317.83 5784.3 3532.3 5208.14 5769.98 6088.68 5937.08 6070.3 5612.21 5046.21 5894.61 5206.48 5687.83 5196.67 4709.35 5004.23 6496.67 3780.23 5876.71 5474.8 5826.04 5624.49 5339.78 3745.84 4730.41 3471.03 5690.26 5696.88 4004.04 5607.14 6915.83 6057.22 4156.2 4027.46 4289.17 6072.45 5511.88 4497.59 6444.77 4470.98 4512.11 5759.46 6248.6 5708.99 5443.58 5687.85 6401.43 5703.74 4747.55 2685.81 5464.68 4510.8 5896.26 4587.67 5951.81 3924.14 6918.35 4834.3 6348.54 4066.57 6357.47 6101.57 4891.38 4793.65 2949.12 4532.89 6040.74 4848.46 5742.09 6942.34 5851.61 3658.05 6836.82 3858.17 3477.1 3747.03 4631.99 5388.39 2783.85 4356.49 4326.48 4437.07 6184.88 3449.37 5829.32 4396.25 4450.7 5151.52 5973.33 3583.21 2221.99 4643.56 5442.32 4135.08 5291.9 5128.57 5067.46 4929.14 6000.7 5945.08 5139.5 6442.69 7493.3 6320.71 5226.0 4373.3 4750.78 5029.78 6262.72 3095.48 4166.08 3979.26 5188.81 6608.73 3923.03 4643.85 3999.48 6062.05 4203.26 5082.74 4735.33 4413.85 5411.85 3999.94 4844.57 3901.8 5092.37 4864.22 5941.61 5782.48 4031.78 4933.65 5950.04 6098.1 2435.33 4231.83 6333.29 4477.04 4074.48 3614.96 4558.47 3886.68 4691.91 5831.96 4539.07 5064.79 4475.83 5480.3 7509.24 4146.81 5756.75 4840.44 5093.82 6639.64 5212.43 5454.12 6318.23 3851.85 4058.87 4206.98 5156.76 5932.07 5948.71 3856.53 5460.89 4054.22 5260.85 2884.65 5393.65 5807.46 4648.21 4393.16 3311.29 3110.13 5478.11 5526.31 5030.15 3644.78 4078.93 4740.98 3185.39 3728.18 5335.47 5128.77 4526.81 3994.07 3763.05 5491.9 6405.0 5092.24 5551.95 4659.16 3918.87 4347.74 5369.08 4518.04 4863.01 4009.62 3580.58 5620.74 5356.79 5604.21 3979.54 5233.29 3169.67 4968.03 5304.13 4814.55 3361.92 5944.09 4648.04 3527.05 5833.06 5698.77 6607.87 3664.11 5762.59 3365.82 4163.5 4861.06 6481.79 5320.28 4796.58 4298.67 5873.69 5960.66 4962.09 5654.31 4831.47 5563.79 6939.12 4406.4 6853.85 6171.13 3493.47 4020.4 2395.5 3497.9 4596.75 3374.08 4188.87 3735.24 5564.23 5151.21 6574.95 5398.64 6853.04 6817.57 4745.43 3420.08 4912.04 4255.34 5344.83 7046.11 3427.63 4863.97 5589.37 6342.48 5439.49 3687.65 5216.26 4887.52 5478.95 6571.31 4392.65 6103.11 5174.75 5048.55 4984.46 4024.31 5844.72 4147.31 3992.97 5989.05 7228.94 4441.22 4961.99 4595.12 5853.89 4386.8 4549.69 6484.43 6423.81 3485.54 6192.77 4312.15 5934.82 4501.78 5633.61 4219.94 5048.19 5907.46 4264.91 4888.27 5399.29 5549.49 5789.55 3101.75 4766.06 6605.86 5423.42 4874.18 2081.58 2511.46 2775.69 4011.37 4312.56 4778.82 5657.36 4612.06 5204.04 6124.08 3306.14 5467.84 5029.47 5490.58 4863.79 4750.58 5395.14 4702.06 3464.83 6515.84 4143.78 5117.47 5374.51 4123.6 4538.95 7092.87 4970.88 5224.12 4850.14 3637.61 6098.14 4569.12 5750.71 3493.7 4938.74 4472.17 6222.42 4200.03 5313.22 5470.77 5516.95 3474.39 5328.22 4151.76 4575.94 4216.17 3905.51 4721.02 6484.17 3546.71 4254.37 4938.72 5956.65 5768.57 4498.25 5931.77 5108.06 4000.43 4222.4 4693.52 3573.73 4661.03 4568.41 3624.7 5160.59 5262.35 4320.42 4281.98 7165.9 5783.48 4449.98 4701.5 4504.35 5012.97 4771.65 4036.91 5110.11 6379.14 3634.5 4027.63 6631.28 5420.67 6413.15 5416.45 6459.51 4955.16 3288.01 4904.51 2202.77 5950.88 4149.55 6201.86 6551.93 7554.58 3380.69 4140.4 4725.01 4625.67 4458.64 4583.52 3657.69 6418.11 7122.87 4243.26 3572.94 6799.23 4153.84 6740.71 5119.86 6487.56 4633.05 4854.11 4901.2 6505.78 2275.45 6522.59 5012.5 6519.43 3619.79 5876.64 4270.15 6710.88 5053.95 3967.48 6667.68 2477.07 4923.41 6213.04 5724.64 4925.63 2990.77 3163.78 5965.15 4763.66 4888.6 4666.81 6739.08 5882.65 7042.12 4797.52 4471.58 5501.93 5462.21 5463.38 6313.06 5374.98 5945.21 6345.13 6470.3 4719.7 5599.49 4097.57 3436.15 5005.85 5711.11 5325.44 5102.75 5021.88 4597.29 5938.17 4200.09 4795.43 5097.95 2928.82 5313.12 4914.45 4698.87 5351.56 3984.88 3344.57 5318.53 4732.09 5220.76 6945.98 5138.2 6412.67 7001.83 4593.7 4349.13 4891.67 6818.91 3503.65 3429.57 5569.2 5350.88 5305.59 6114.89 4330.58 5754.6 4355.83 6870.97 5751.15 6056.87 5474.01 5307.35 4342.18 3639.44 5446.4 5966.75 5725.37 3868.62 5510.9 4883.63 3492.83 4922.49 6015.02 5244.22 5797.36 5585.14 5001.58 7039.98 4820.17 4592.15 4729.42 5089.26 5084.17 4901.44 5971.22 4909.31 5533.19 5711.62 4785.25 5435.19 5461.55 7093.13 3298.2 6306.21 5926.11 5253.37 4497.31 5235.11 5211.38 3830.46 4721.32 6515.8 4305.16 3293.56 6413.11 5078.86 5092.28 4739.14 4780.2 5163.55 4918.77 4636.5 4819.73 6326.39 6817.32 3382.7 6471.55 5085.71 5960.56 6343.14 6643.85 6049.79 4020.95 5862.86 4390.41 6113.95 5226.56 5274.19 4901.07 3981.07 4050.08 5186.3 5452.42 5017.5 3991.42 4893.49 5966.61 4514.79 4834.87 3672.21 4509.89 5760.22 6752.75 5269.38 5607.3 4811.76 4638.18 5498.42 4196.37 5806.31 6448.66 4453.97 3556.79 3503.41 7317.04 3971.08 4482.9 6204.65 6550.4 3766.69 5513.8 5036.98 4120.07 5188.53 4882.66 4521.75 6746.66 5410.33 3908.56 4642.74 6735.97 5244.78 3636.15 5483.7 5135.63 6384.7 3152.86 3896.27 5952.38 5351.86 5807.52 5963.36 5230.02 5087.14 5169.48 6016.08 5166.89 5491.63 4731.21 6064.71 6102.98 5138.33 3743.76 4505.28 3425.69 4971.29 6280.13 5510.45 3684.15 5832.29 4438.76 6456.58 4159.81 3886.72 5415.45 5244.98 5792.98 4998.22 3776.8 5096.43 5417.21 6156.21 6602.43 6104.26 3562.79 4383.56 4798.17 4990.79 6865.76 4953.1 5424.46 2895.63 6449.64 5266.01 5767.9 2040.66 6031.67 5384.76 5529.42 5274.14 5257.12 4434.19 4903.82 5100.1 3954.91 4940.42 3703.1 5923.4 4623.61 4946.42 5409.66 4082.47 2965.01 6263.44 6235.57 4319.79 5122.63 4863.27 5774.97 6766.43 2315.64 4703.08 4890.5 4488.85 3731.84 3423.15 5010.2 4579.69 3554.48 6496.52 3718.69 4997.83 4388.63 5578.94 6192.0 4940.28 5885.28 2216.82 6579.31 3004.34 5323.55 3022.6 5375.1 3804.5 6486.37 4172.6 6083.28 5211.6 4745.79 5456.71 5470.04 4908.75 6556.26 2628.22 5684.25 5438.92 4124.76 4244.49 4775.04 4952.52 3840.21 3646.95 4081.34 4954.76 4844.83 6334.53 5377.37 5869.67 5652.87 4311.48 4899.73 5018.69 5457.66 6394.19 5973.89 6193.73 5518.11 4192.21 5712.35 5701.52 4743.9 3124.7 3719.11 4467.13 6060.17 3877.8 6711.21 5153.18 5902.67 4236.86 4730.14 2606.51 5393.76 6006.89 3994.39 4941.02 3864.92 3814.65 3965.3 4618.73 2955.36 3668.93 4960.64 4983.3 6592.93 6350.71 6436.74 3568.28 5425.98 5583.61 5166.79 5996.66 4516.53 5818.95 3940.49 4093.99 4857.84 2978.76 5079.22 6464.8 7016.27 4908.49 6138.12 6622.11 4689.15 4428.78 5089.62 4965.89 3685.65 6790.73 5746.28 4371.99 5243.43 5187.7 5659.95 6090.91 4186.6 3561.29 4537.14 3295.83 4152.85 5551.9 5644.82 6413.02 5203.08 5412.31 3492.19 5374.07 4584.5 4118.84 5548.29 5916.16 3623.87 5163.77 6934.37 6027.62 6098.95 5765.42 6123.03 5453.98 5148.08 5653.03 4777.03 4157.29 4246.61 7610.49 4286.17 6028.09 5452.36 4609.02 4896.65 5561.74 5975.23 6100.73 4198.94 4788.08 6163.54 4211.82 5212.37 6003.78 5965.58 4607.18 4901.29 5058.51 3899.7 4050.03 7200.89 4813.33 4147.49 4802.98 4833.55 4705.68 7224.99 4749.96 4658.24 4906.11 4387.39 4564.1 5509.51 4848.14 5366.22 7261.51 5254.24 4968.14 3742.11 3597.43 4914.03 6776.22 4158.91 5144.56 5321.17 5311.55 3360.86 4869.25 6273.6 4763.4 5454.11 5024.32 4708.17 3779.45 5806.61 4983.1 6119.99 4128.1 7123.04 5372.82 4385.81 4009.24 4402.17 4034.05 7778.01 2460.79 5690.96 4653.83 4456.11 4125.9 6063.64 5096.24 6479.39 4986.71 4122.92 4405.42 4452.54 4997.91 3604.14 4599.81 4684.44 5381.54 4962.21 4749.59 4406.05 5884.9 3468.42 4858.44 5828.35 3685.13 5799.69 4590.55 4673.35 3876.21 5571.72 4655.16 4741.26 5920.32 3701.16 4916.22 5297.19 6022.7 5251.4 3867.19 4219.78 4963.34 4188.3 5081.78 4459.28 4260.92 5499.39 6250.23 4407.9 4440.57 4718.54 6736.03 8659.64 3087.09 4055.54 7480.41 4588.7 3766.55 6107.89 5469.13 4976.12 4233.8 5530.49 4304.41 4817.16 5660.55 4892.44 6789.23 3989.7 5069.89 5107.0 6212.15 3684.56 5327.75 6813.72 4946.23 4783.07 6200.63 4852.58 6816.66 4532.7 4504.86 3844.54 3217.67 4473.29 5034.69 5079.64 4509.46 996.652 4680.69 6500.49 3352.34 4972.18 2403.72 5078.59 5134.33 2646.13 5419.57 5162.67 3629.49 5760.98 5469.35 5384.86 4019.34 3623.19 4869.48 5510.96 6653.07 4745.16 4697.91 5825.55 5719.79 5071.98 3199.4 4316.5 4371.08 5148.1 5224.64 5949.73 5086.29 5527.13 5139.18 3034.16 5551.43 5049.99 5545.21 4333.87 4201.03 5001.87 5136.87 3667.93 2741.2 5638.7 5790.42 5784.37 6010.59 3142.09 5591.77 3682.35 3756.96 4446.58 5906.57 5401.4 5053.15 5798.38 5127.82 3862.91 5124.17 5366.11 5805.1 6171.71 5039.12 7382.3 2995.67 3908.98 3628.89 4668.88 3598.08 4022.56 5522.21 5698.23 3772.3 4680.94 5810.77 5089.1 7300.58 2711.19 4028.32 5876.72 5236.43 5689.26 5869.4 3809.69 4992.42 7051.9 4940.84 4255.85 4345.67 4453.64 5511.6 5019.93 3885.86 4517.73 5235.29 5177.64 5191.08 4255.31 5453.3 6116.33 3838.47 4479.94 2588.37 5887.15 4062.5 4199.45 4435.51 5415.85 7234.66 6599.66 4886.12 6419.12 5683.95 4301.61 5206.33 4446.84 5065.26 3746.36 4356.36 5473.72 4215.2 4741.28 2205.51 4553.68 3703.49 5361.87 6502.97 3758.22 4757.2 5969.37 4928.35 5241.75 5849.53 4651.99 3538.53 4420.11 6127.39 5640.12 5329.76 6638.25 4365.58 4759.99 4368.12 4636.53 5214.4 5193.58 5766.05 5399.43 5117.64 3835.81 3916.42 5429.3 3422.21 4944.51 5532.72 4584.81 5179.17 3220.8 5579.39 5270.51 5490.75 5214.63 4312.48 3495.68 5783.94 6370.33 4278.57 5081.08 6318.25 6864.06 4493.79 5684.05 5813.79 4279.44 5293.13 4644.88 4028.22 7350.26 5182.13 5167.53 6110.48 7541.76 5910.86 4775.49 4681.29 6239.68 7320.78 4064.58 4834.44 3419.87 4824.81 4234.88 6589.82 4384.28 5027.43 6328.42 4855.01 7307.21 5522.75 3608.06 4714.83 5474.15 7519.2 4099.92 4771.13 3208.96 6633.61 5285.07 4884.59 3858.06 4680.14 5895.77 4478.6 5097.69 4765.72 4732.09 6261.75 5857.79 3757.34 2908.7 4039.91 6136.49 6415.61 4338.08 4642.66 5276.7 5149.72 5660.16 4541.8 6134.99 5424.88 6200.54 5148.58 4928.27 4652.01 3583.49 3673.28 3548.39 5421.64 5052.84 4366.74 4858.51 4207.54 4603.5 3375.28 5625.65 4647.67 4936.96 4481.76 4214.44 5378.23 3184.64 4787.97 5375.12 5452.78 4981.43 4061.6 6214.73 2603.64 2856.55 5175.89 3894.64 6618.21 4268.19 4374.74 5232.85 3717.47 3205.68 4062.56 4583.94 5046.31 4337.32 4731.53 1937.5 3763.9 4788.7 5721.14 5863.0 4577.73 4987.28 5084.5 6206.98 4918.64 6562.03 4815.47 4410.82 6443.99 3889.98 5490.64 5034.34 5695.44 4507.46 3769.2 3468.45 5036.14 5603.68 4526.34 5610.95 5042.75 4598.92 5241.22 6647.08 4979.52 3422.29 4501.05 6263.3 4407.79 4537.03 6548.29 4114.2 3990.96 5352.24 7362.42 4202.77 5836.14 5473.05 6008.81 4932.56 5192.49 4899.19 3487.31 5058.34 3918.94 3768.46 3852.82 4507.36 5487.63 5003.3 6245.52 4932.29 5499.59 4990.23 3220.29 5749.6 6016.87 3845.9 3125.13 4141.21 6715.73 4439.71 4174.44 5782.43 5667.51 4456.26 5769.14 5944.3 3563.14 3381.82 5867.64 5135.5 3619.72 6208.9 4923.57 3340.09 4438.58 6059.93 4565.93 5217.95 5602.53 4608.41 6355.68 4184.23 4083.79 4144.57 3988.3 4833.46 4351.38 5750.07 5550.75 6543.13 5933.7 4809.67 5021.77 4752.14 4687.64 4757.74 4378.3 5411.02 4950.97 5037.06 5175.29 4863.96 5842.56 4094.73 5713.03 3852.6 5849.65 5134.67 5131.15 4110.59 5775.31 4847.14 4165.21 4215.0 3332.49 5297.16 3950.27 5354.66 5116.66 3566.79 5003.78 3629.44 3299.24 4208.41 5374.67 6246.56 5730.61 4508.18 5826.78 5064.67 5836.26 6666.67 2617.39 5144.44 2904.46 4826.52 4051.18 4685.4 5120.92 6240.42 4629.02 5914.5 5146.0 6006.16 4288.45 4608.62 5407.96 4071.75 5549.71 5131.77 4967.51 5173.82 3720.7 7212.97 4211.36 5698.53 3856.73 4450.49 5635.32 5887.71 4316.45 4827.61 5409.08 5385.03 5481.64 5673.75 4169.15 5360.67 4778.37 5134.17 5968.54 4904.35 5592.54 3247.97 5124.34 4358.81 4326.06 4651.64 5034.46 5757.29 5793.12 5016.46 5469.17 5061.75 4373.2 5537.34 6022.78 5884.99 5726.42 6643.4 5575.11 4674.9 5461.72 6599.28 7145.73 5800.81 4168.52 5403.97 3784.94 3954.77 6793.1 5166.05 4506.66 5515.73 5209.55 4708.31 5113.6 4564.41 3873.92 4810.98 4198.9 5431.29 5091.22 5026.76 5347.9 5023.41 4646.51 6282.38 4504.52 5640.72 6061.63 7107.63 5484.36 5073.02 4511.7 4829.35 4867.7 4304.63 4187.94 3953.55 4063.9 5980.59 4277.24 5263.27 6834.41 6300.92 7248.4 4356.25 5161.1 3796.15 5469.47 5036.58 4419.71 5329.59 4244.21 5512.16 4588.99 4617.55 3197.63 4989.56 4287.16 3875.05 3456.47 3645.12 5471.74 5199.44 5580.34 5009.83 5966.42 5210.38 5717.8 4706.5 4811.22 5210.75 4474.83 3683.86 4918.76 6555.44 5293.75 5114.07 4385.49 7124.45 4263.18 6358.93 4383.68 4559.74 6015.22 6063.44 4454.74 6449.06 5512.44 4924.07 3460.93 3200.6 4927.73 3565.32 4602.57 3763.85 3419.07 5710.33 5344.44 4626.72 3186.07 6432.8 4369.86 5115.42 4082.4 5482.76 3745.02 5728.58 4887.73 6297.99 5378.24 3604.31 4538.89 5817.74 6556.86 5661.6 3242.31 5285.75 6099.28 3234.26 4830.13 3494.16 5370.9 4074.16 4529.77 4325.13 6172.27 5390.33 3783.79 4904.37 5078.73 5278.54 5729.0 5729.92 5275.57 4179.87 6224.13 4761.84 3769.24 3661.67 4087.32 5517.65 4009.68 6647.85 2569.12 7025.09 3392.26 4433.12 2549.95 4361.24 5138.93 6224.85 4556.19 5106.46 5368.66 4795.08 6562.92 4068.31 3671.06 5077.29 7035.54 4027.33 4850.5 5951.86 6331.74 4252.18 4833.67 5357.39 4659.88 5325.91 4546.44 5851.63 5727.79 2279.05 5212.92 5788.97 4831.93 6545.43 3472.91 4075.28 4989.2 6760.92 4469.54 4023.93 4314.56 5868.89 8137.11 5291.05 3928.53 6650.77 5776.96 6045.67 4888.12 4209.49 6119.63 4216.95 5464.25 5486.48 3498.16 4409.27 5439.9 4752.9 5301.47 4947.24 4321.21 3540.11 6506.86 5950.45 5088.57 4344.34 4923.43 4568.64 5666.95 3919.62 4127.53 4642.2 4489.99 4548.45 4945.0 4212.15 4658.11 5260.52 4551.26 5678.58 5658.14 3185.09 6570.35 4242.63 5114.23 3269.54 5495.0 7407.91 7142.95 5064.23 6061.85 5268.15 5819.0 6347.72 5124.86 7168.2 4571.74 4096.86 3622.48 4796.12 5001.51 5385.86 4930.72 4209.0 5485.84 6424.77 5918.95 5453.69 5689.56 5432.04 3702.45 5265.63 4898.29 4431.06 5372.25 5730.2 5620.88 4045.67 4941.52 5900.0 4262.74 6241.77 5317.19 4248.14 5279.19 5192.92 4016.6 7050.08 4786.66 5891.25 5370.1 5129.4 5114.51 4622.73 3303.49 4655.37 5161.74 4161.32 5256.75 7336.37 5099.9 6945.69 6406.8 7086.69 5648.78 5501.73 6875.73 4697.24 5226.42 3612.44 4983.43 6081.3 5233.76 5117.52 5426.4 5763.05 5129.68 5866.91 2820.07 5076.84 3791.41 5679.74 4092.07 5657.55 5247.01 4213.05 5853.12 4224.3 4184.21 4700.07 6203.03 5188.82 5615.84 4464.73 4928.85 6440.38 5556.0 5484.32 4711.04 5007.21 6226.14 5466.33 5742.74 3946.28 5280.12 3821.94 5984.81 5721.05 7013.17 4209.31 3805.67 5718.28 4247.69 4514.39 4640.06 6242.79 4227.41 5993.0 6047.14 5391.48 4803.57 5467.63 4728.55 4554.68 4368.28 4929.6 5750.35 5984.8 3127.83 4585.04 4241.68 6102.49 3469.18 2945.34 3372.95 4095.83 5695.25 4489.29 5676.61 5846.95 4301.93 5796.26 5716.42 4603.04 5701.63 4870.94 4620.95 5368.93 5293.37 4488.39 5271.88 5559.79 6121.56 2980.31 5879.24 5740.78 6824.53 5997.91 4332.64 4742.82 6791.86 4422.23 4820.68 6031.22 3618.64 5703.84 4335.79 3530.82 5797.32 4886.99 3921.27 3161.1 5159.67 5764.52 5684.88 6523.78 4645.86 5087.97 6005.95 4308.49 4519.03 4930.17 4581.1 4745.44 5762.82 7360.12 6223.98 5821.49 5580.44 3035.06 4262.19 5998.13 5095.52 6275.25 4746.15 3720.38 5585.25 4758.84 5023.61 6351.89 5932.28 5118.86 2960.5 4975.32 4298.7 4183.4 6170.9 4733.79 4436.48 5833.78 5758.98 5615.35 3967.76 6311.89 4683.28 6405.69 4217.36 4825.73 6549.8 4851.18 4165.36 5288.33 4208.37 5157.38 6296.54 4841.7 5702.4 5235.87 5273.37 5069.9 5043.14 5473.89 4717.73 4732.37 6089.45 4985.3 5072.5 3904.07 5713.36 3274.85 7144.05 4173.54 5545.59 4619.2 5599.29 4801.8 5606.51 7216.98 6038.68 4444.97 5271.02 5046.12 4807.4 5261.19 4350.15 6329.53 4139.3 6541.45 4590.01 4601.74 5367.73 5078.31 6101.86 4807.35 5228.75 6545.99 6761.81 3903.91 2918.64 5630.9 4140.92 4512.07 4756.8 4896.43 4692.32 4176.32 5463.06 4639.8 5236.24 3986.41 6069.78 5532.75 3587.93 6949.65 4517.29 4975.85 4495.75 5323.95 6171.01 4468.26 5578.18 5106.33 5198.94 5933.54 5464.05 5453.2 3148.79 6348.93 5264.83 3901.53 5136.51 6815.51 5232.16 5189.91 3989.26 5777.26 4171.02 6119.0 7012.36 5028.06 4002.99 4293.3 5587.3 3572.73 3770.22 4864.38 4390.64 4848.98 4491.96 5150.84 4608.01 5184.98 4467.51 5339.82 5110.27 5460.57 5065.78 5703.34 4085.96 4612.68 6668.98 6649.52 5462.6 5617.29 4597.88 4845.91 4878.93 2002.78 5631.32 6892.33 4731.37 4505.3 3976.0 4452.36 4672.86 6530.78 5560.23 3043.77 5237.55 3902.48 4304.64 3909.94 6030.39 4905.53 4823.06 3799.01 7392.65 5254.49 5319.1 5288.64 6213.24 3757.23 6734.39 5942.45 4150.76 5005.72 5368.52 4871.77 5811.26 5797.21 5685.74 952.938 4678.7 6740.35 3673.6 5810.17 4966.07 3306.84 4657.24 5748.9 4400.14 4749.18 5553.94 4506.18 5494.28 5166.41 5740.65 7104.73 3000.29 2596.96 5067.56 3834.47 6349.67 5701.75 3272.75 5262.47 4264.54 3512.94 7043.44 3516.27 4263.65 3831.52 4750.49 4263.78 6106.43 5644.81 4177.47 5334.36 4218.16 6139.64 4933.49 3990.94 4357.11 5477.8 5486.89 4462.35 4549.51 5025.42 5196.08 6379.38 6257.79 4849.5 6229.83 5353.23 4523.81 5977.66 5065.74 5791.25 4873.23 4028.35 5410.6 4733.41 4969.68 6636.43 5431.14 6298.8 5313.86 4457.05 5178.07 5151.19 6509.54 6079.55 3792.06 5128.59 5485.61 4993.49 5310.33 6583.37 4569.32 3688.83 3402.44 6084.88 4397.06 4053.12 4479.5 6261.67 4014.44 3435.13 6002.77 4431.46 3207.84 4521.42 3977.98 4614.49 4232.33 6043.34 4747.68 4939.56 5770.92 3093.38 3808.04 4723.71 4461.67 6126.5 6322.0 5793.14 4491.26 4068.41 4511.34 6463.71 4832.21 5059.37 4742.35 5783.38 4139.39 6264.03 5645.54 5088.64 3562.8 6589.8 6920.92 3729.16 3783.36 4181.93 6828.8 5987.88 3579.59 4228.53 6161.94 6123.46 4065.28 6142.88 5155.28 5111.26 5388.73 5285.6 5062.77 6019.35 6075.99 4600.71 6028.63 3450.07 5265.21 4550.92 5927.2 6215.87 5146.1 5191.26 5866.42 4067.96 4824.12 3663.0 4704.92 6542.5 5610.53 4099.26 5206.47 4834.39 2970.9 6162.3 4383.47 4608.34 5971.21 4835.97 5493.89 4057.17 2781.96 4184.47 7066.96 4467.0 3104.96 4994.65 4587.7 5601.55 4258.98 4462.87 5196.92 4643.9 3787.08 5759.79 4013.86 4816.51 4598.54 5218.42 3825.48 5345.73 4658.59 5188.22 4770.63 4841.23 2804.54 4196.62 2809.19 5005.6 4104.04 5589.53 5593.79 7208.19 5234.2 4612.13 4965.24 5846.6 5327.05 5438.55 4903.84 4434.65 4290.49 6688.53 5209.5 6175.27 5876.51 4907.55 6731.89 4286.61 4103.76 2932.52 6605.11 4603.66 3557.46 4757.87 6379.33 5971.95 5652.73 3979.46 3689.24 6321.97 6412.84 2589.19 6071.59 3856.4 4696.06 5308.4 4937.36 6581.13 5803.3 5537.61 3543.98 4721.98 5252.82 4199.44 5878.55 6604.72 5445.91 4812.59 4610.55 3794.47 4967.02 5400.69 4128.93 4462.5 4959.72 4712.17 5004.68 4023.88 5348.11 4405.61 5428.24 4034.88 6007.1 3511.5 6345.2 4609.65 5009.21 5704.61 5410.73 5394.79 4574.03 5290.37 5264.08 4526.87 4151.74 4227.66 5192.82 4691.01 4594.89 4174.22 5245.95 5821.42 3573.84 3038.91 4067.89 3922.28 6570.43 6883.86 3350.99 4979.5 5057.59 4745.37 4461.14 5418.98 5205.38 5575.11 4574.54 4949.55 4884.93 4764.83 3132.34 1969.87 5262.79 3957.38 5035.71 4494.15 4419.79 6485.77 4710.88 6060.06 3669.32 4762.1 5544.27 3484.81 3742.31 4954.81 4316.0 4546.96 6304.49 4580.06 3926.11 5134.72 5695.79 5464.83 4191.01 6419.64 3622.8 4589.06 4140.04 4920.88 4770.51 5995.4 5414.58 4431.23 4991.35 6511.37 5740.98 4346.07 3999.5 6710.14 4012.92 5034.05 4426.02 3953.26 4711.15 5467.51 4474.39 5459.92 4096.47 3810.68 6478.35 5453.77 4916.7 5030.33 2638.82 5157.73 5104.39 4541.22 5847.91 3539.68 4934.66 4984.01 4109.44 4605.39 6217.33 4557.1 6270.59 5927.1 6045.26 6500.45 6263.87 4094.63 5743.8 5084.76 5581.01 6834.92 5749.53 5130.57 5090.48 5402.45 5582.28 3985.93 5945.25 5985.75 4137.16 5475.83 6189.29 3074.49 5984.55 5672.46 5202.33 3228.27 3956.24 7558.99 5056.26 4142.1 5333.04 4521.99 5089.1 6842.54 7115.67 5675.45 3361.11 6038.56 2807.46 5573.31 4179.8 5599.16 3488.34 4577.98 5658.35 5886.81 5108.84 4487.51 4520.14 4582.12 4295.25 5067.92 5488.96 5357.14 3188.21 5128.03 3720.92 4379.91 5087.3 4942.63 5850.38 6139.74 4975.57 7066.26 4730.97 3677.85 5214.71 4515.02 4677.84 6294.09 3463.53 4571.57 3445.92 3820.19 5131.07 4121.07 5236.69 4586.82 6026.04 5939.29 6200.05 5859.17 5615.06 5490.54 4841.28 4047.95 5203.54 5507.38 6889.5 5001.69 5407.69 3869.39 5960.5 3987.69 5308.33 6502.99 4287.25 6896.55 5424.55 4666.12 5755.15 4921.1 4271.07 6219.34 3814.16 6023.07 4420.6 5340.05 6506.63 3626.86 4215.05 6371.96 4668.8 3495.3 5577.41 5890.25 5917.34 5322.11 5700.79 4697.49 4216.44 5735.08 4726.2 4750.81 4282.11 4625.53 2347.41 5602.62 4542.16 5714.51 3543.37 2030.03 5114.67 5353.66 5527.27 5765.14 4767.54 4946.08 2927.84 5121.08 4696.03 5688.77 6177.68 5466.13 4698.7 6229.64 2848.44 4220.43 4975.56 7282.36 6666.34 4645.91 6959.88 4125.75 3746.62 5247.73 4876.37 5034.02 5260.13 4649.5 4810.74 5181.31 3900.93 5784.38 4149.17 4329.8 5728.27 6571.26 4313.38 5580.95 3549.92 3393.59 5043.14 4032.06 5246.81 5394.78 5888.95 3463.34 2853.68 5122.38 4998.37 5262.85 5329.84 5901.71 6559.82 3879.83 6565.95 5043.34 4246.24 6805.02 7394.47 4729.45 4850.95 5919.27 4793.06 6637.38 6188.33 6111.23 3057.3 6916.18 6150.31 5873.62 4811.11 4924.52 6126.03 4866.8 6044.69 5524.28 2970.24 3133.28 4197.87 5731.43 5105.54 6353.81 3414.67 4052.49 4034.41 3518.14 5061.74 4150.44 5326.03 6189.67 4420.35 6142.94 4948.96 5117.83 4416.87 5256.82 5300.17 5152.78 4117.9 5393.43 5534.23 4753.76 4638.09 4392.75 6025.77 4685.65 4441.91 5377.01 5674.63 5287.25 5828.25 5939.22 4475.38 4725.11 5483.37 5418.12 5092.93 5934.05 2803.01 4604.1 4271.93 5125.17 5322.07 4859.01 5076.11 5524.45 7133.44 5990.75 5600.21 5101.6 4656.01 6589.13 5781.62 4138.59 4037.86 4970.55 4938.33 5628.97 4819.83 4484.78 6286.27 4621.33 4801.16 5071.38 5616.66 4802.36 5368.28 4880.78 5257.38 5075.23 5625.02 5212.05 5479.86 4829.77 3826.01 3928.99 4763.04 4444.92 5971.9 5050.2 4532.67 2513.38 5316.05 4769.62 3995.08 5019.84 3874.12 4028.13 4457.73 6476.35 6260.58 4067.24 3053.19 4720.22 5827.3 6598.99 5250.56 2468.16 3633.58 6294.14 4339.97 5203.75 5169.09 2459.88 4210.24 4512.6 5470.67 4932.27 5225.11 5342.9 5252.22 5733.12 6436.29 5402.81 4600.81 5354.48 5640.63 6261.13 4900.26 5374.09 4167.55 6271.22 3421.81 5378.75 3920.64 6186.24 5786.06 4137.41 4996.91 3868.69 3920.44 4450.51 5379.52 6033.72 3768.62 5314.67 5658.05 5462.1 6593.1 4000.51 4066.36 6032.45 5444.36 5522.34 4026.03 5771.98 5899.78 5717.45 5000.74 5772.57 4813.81 5268.27 6581.56 4013.86 4052.43 4061.87 3980.46 4057.4 4896.67 4585.37 5383.9 3934.11 5158.44 4466.22 4781.9 5330.26 6470.23 5339.6 5917.08 5259.21 4256.08 5881.93 4460.89 4157.1 4714.66 4399.52 4444.0 4554.24 6771.18 5770.07 4984.17 4867.12 5910.66 5327.39 7415.84 4981.81 5141.03 4840.44 8123.59 6033.28 4188.16 6327.54 5507.07 4654.92 2943.17 5286.55 5327.71 4322.56 5509.09 3873.72 4850.49 4592.49 4981.55 3625.98 5144.23 6188.62 6474.5 4702.32 5944.52 5908.57 4413.56 5742.39 4821.41 4908.32 4924.53 4499.52 4813.24 5759.19 3113.64 4490.2 4304.75 5480.86 6139.9 2832.83 4474.96 4084.87 4758.76 6036.99 3010.1 3584.05 3825.98 4589.22 5087.03 4667.84 3906.41 4691.15 4260.38 6224.64 4636.45 4221.03 3799.55 5638.51 6793.49 6060.19 4962.35 4333.23 6786.37 3860.8 4328.76 4919.13 4124.33 5168.97 5783.88 5002.38 4720.34 6705.93 5244.47 4731.16 5510.89 6470.87 5822.7 3780.07 4495.33 4159.89 5282.67 5466.49 5447.74 4038.17 5007.41 3851.47 4907.48 4966.74 3692.99 5563.47 5651.46 1635.31 3162.27 6033.93 5011.37 2827.92 5516.37 5092.44 5044.68 2649.69 4441.44 6908.32 3467.11 4817.75 6153.26 5637.53 5244.95 4645.93 3882.37 5165.31 4634.25 5448.64 5901.8 3798.09 6351.48 6417.61 4288.5 4496.51 6815.96 6153.71 4511.05 3456.3 6074.39 6561.94 5350.9 5317.83 3483.61 6738.9 5640.67 5992.06 5545.68 8052.53 3939.96 5555.89 6182.19 4970.12 4967.93 6044.01 6520.19 4637.3 5734.07 6241.48 3997.68 4414.09 5125.45 3784.68 5957.82 3717.22 6305.9 6649.21 3470.69 4859.95 4132.08 5522.18 5223.1 4699.77 5093.41 6842.35 5464.34 3621.63 6153.07 4414.06 6833.5 7296.47 2613.78 5417.07 4780.16 5738.37 5616.11 4433.23 5312.2 5847.27 4706.59 5734.84 3982.31 5551.79 4950.07 3916.15 4582.24 5367.05 4790.63 5259.29 4916.75 3743.85 4818.53 5097.85 5584.64 4123.08 3795.63 4576.71 5189.4 5082.66 4550.77 3563.33 4337.93 3550.88 5536.0 6223.33 5145.13 5561.63 5940.5 4358.06 5093.51 5647.93 4865.11 5449.09 5502.14 4605.61 4465.56 4131.08 5747.9 5178.55 3864.19 5146.69 6203.24 6818.23 6213.74 4959.94 2329.93 6938.87 5639.4 6185.73 5412.07 4083.24 6520.96 4232.44 4612.4 5336.61 3312.3 5563.09 6381.58 4848.15 4439.09 4798.13 3282.57 5523.81 4095.4 4718.61 5188.57 6697.45 5395.12 5715.51 5357.33 3886.56 5783.69 3830.7 6210.0 5432.4 4262.52 7430.48 4844.2 6572.17 6080.69 3751.73 2181.29 4420.3 3374.62 4926.62 4766.47 6369.66 4871.1 6009.93 5678.08 5973.57 1458.87 5872.45 5922.62 5130.56 4957.99 4063.26 5191.29 4947.64 4997.89 4542.62 4881.51 5093.28 6131.52 6009.88 6664.54 3922.98 5161.73 4777.96 5259.48 5801.89 6608.94 3796.73 4644.68 3834.01 3082.16 5656.84 6789.66 4739.41 4694.27 6760.64 2515.5 4849.21 5177.88 3793.83 6981.47 6189.81 4449.73 4088.72 5647.11 3945.62 6236.46 5342.17 6379.3 6189.04 5015.67 6538.04 4894.15 6157.59 5201.3 4345.51 4048.73 5438.6 3747.96 5611.29 4521.88 6568.45 5004.22 6201.49 4280.92 4696.92 5154.74 6437.99 6898.8 5386.95 6540.57 4287.93 5315.71 6158.93 4488.41 5081.65 4369.87 4823.14 6679.12 5652.19 5806.74 5512.57 4806.99 3771.91 5432.2 5217.62 6178.19 3839.0 4746.19 5349.85 4616.81 5715.25 5212.2 4611.21 5648.59 5108.42 3873.79 4630.5 5717.67 6296.36 4432.32 3721.69 5515.59 5252.37 3224.81 4499.54 3775.38 5037.58 4046.22 6457.89 4081.77 5114.61 6118.13 4706.31 4202.12 6332.64 4735.99 2694.25 3917.09 6492.44 4083.1 4613.32 3482.73 5145.39 3996.93 5270.1 6351.95 5195.09 5345.05 3997.52 7679.2 5779.9 4909.74 2626.41 5310.33 4311.92 5299.03 6729.99 5036.84 4565.36 5813.68 4025.08 5254.93 4008.67 4803.4 8013.28 3846.55 5283.65 5943.61 2892.36 5981.54 5911.29 5416.41 4542.25 4414.23 5233.88 4785.55 5245.4 5848.41 4090.28 4246.83 7370.52 4726.5 5467.05 3724.23 5103.3 4601.54 7263.57 3832.09 5705.96 5267.65 6632.04 5360.88 5332.11 4893.72 6004.72 4072.4 5373.78 5345.65 5438.5 4621.32 5699.4 6578.62 4813.55 4698.94 5856.43 4796.04 3465.03 5229.56 6011.4 5799.86 4672.34 4362.94 5172.1 5056.32 6052.22 4469.82 5376.41 6545.78 3354.94 4404.87 5105.72 4082.01 5237.27 4451.76 7885.41 5782.25 4907.03 4104.97 4575.72 4948.21 4987.01 4721.2 5161.02 3943.77 6265.48 5003.81 4203.68 6262.18 4739.56 3818.37 4701.03 3352.46 5663.36 6225.05 5434.04 5200.1 5994.21 4444.54 4884.93 5403.81 5082.25 6964.78 4374.05 5282.51 5504.65 5669.41 5732.11 5040.9 4770.21 3618.53 4868.66 3783.35 4004.39 4037.16 5159.9 4987.48 4248.58 5479.17 5020.37 4963.88 5888.94 4727.98 4122.2 5175.88 4516.26 5739.69 3509.34 3647.26 7360.62 4977.64 4983.56 5699.51 2489.44 4489.18 5863.36 3878.8 4632.75 5237.76 6284.12 4286.84 3948.21 5669.15 5296.05 5263.86 3330.85 6635.51 5533.52 5410.33 5003.63 4870.14 2932.2 4695.7 4944.08 5767.65 5576.16 5003.49 3964.03 4750.76 5210.22 4216.33 5497.27 5617.91 4444.95 3903.9 5606.22 5051.39 6673.92 5242.38 3124.49 6081.35 5459.52 4884.94 5362.15 4609.98 5566.5 4752.31 4276.59 5240.97 5579.04 5125.53 5405.6 3929.35 4759.38 4223.53 6960.97 4287.15 5126.08 3760.4 5604.0 4951.02 3919.47 4602.7 5596.68 6395.63 4790.16 3731.58 3166.37 5369.42 4985.45 5205.53 4714.52 5499.37 5543.05 4883.13 4836.76 4994.98 4752.94 5551.09 6423.96 6058.13 5581.47 5894.69 6988.4 4060.17 4987.01 4713.56 6051.35 4747.24 5302.53 4380.86 4909.13 4287.61 5269.39 5648.02 4305.35 4867.13 3308.75 4604.34 4439.17 5832.72 2451.27 4929.35 5442.79 4633.59 5151.68 5733.59 5575.8 5268.93 4455.61 4738.72 3695.72 6874.6 5569.85 5106.9 5306.31 5523.96 4733.37 4535.94 3037.72 4523.9 5207.08 4587.19 6028.89 5333.16 4888.17 3950.53 4501.1 5755.98 5392.85 4384.91 4274.05 5077.2 6550.61 4277.54 5529.09 4531.46 6094.34 6779.82 5543.67 3999.81 6210.48 6377.45 4863.27 2701.42 5677.42 4502.12 3255.93 6853.07 6327.61 5275.27 5925.82 5448.68 4739.5 4072.95 4491.62 4182.05 3865.5 
SCALARS Velocity float 1
LOOKUP_TABLE default
1.4005 1.32643 1.21056 1.23694 1.27557 1.3685 1.35286 1.34612 1.33316 1.4123 1.41618 1.38394 1.33769 1.28633 1.37256 1.29969 1.4003 1.33633 1.34358 1.27677 1.2204 1.2528 1.14804 1.38195 1.24734 1.37403 1.37128 1.34979 1.3444 1.33883 1.42051 1.41613 1.36603 1.3837 1.46976 1.47869 1.32062 1.45669 1.33599 1.40783 1.27953 1.32517 1.41045 1.37165 1.31176 1.4022 1.18384 1.16647 1.35231 1.46383 1.4335 1.35062 1.34054 1.38573 1.34861 1.40356 1.42284 1.41811 1.47026 1.38151 1.46847 1.45411 1.34959 1.34329 1.28664 1.36946 1.34617 1.38165 1.18425 1.23892 1.18726 1.22024 1.25468 1.21759 1.14842 1.33692 1.46709 1.37378 1.39474 1.32824 1.36295 1.40922 1.44179 1.46579 1.45795 1.30705 1.45302 1.39945 1.46248 1.54288 1.46926 1.20227 1.30144 1.40161 1.17858 1.24699 1.25825 1.33557 1.15317 1.32055 1.44019 1.35402 1.44195 1.56264 1.34583 1.41334 1.42069 1.44275 1.47302 1.45006 1.48583 1.41519 1.43669 1.40391 1.538 1.31466 1.39968 1.39905 1.22455 1.3921 1.32556 1.13227 1.21457 1.21131 1.39162 1.22655 1.42701 1.22389 1.45668 1.35225 1.56939 1.34089 1.43354 1.43539 1.43527 1.46134 1.44454 1.48064 1.49703 1.45615 1.36836 1.45493 1.41651 1.39668 1.40276 1.48025 1.33774 1.3535 1.33091 1.36753 1.31262 1.3257 1.27893 1.24646 1.20451 1.24037 1.24169 1.23806 1.42725 1.21185 1.4387 1.49138 1.56152 1.46288 1.59432 1.40751 1.42545 1.45173 1.46861 1.46185 1.47232 1.50724 1.42484 1.3991 1.39404 1.44158 1.37812 1.37098 1.30604 1.20546 1.30931 1.1783 1.0373 1.29144 1.36908 1.49753 1.4259 1.47211 1.5376 1.59276 1.58983 1.42075 1.43974 1.46805 1.47126 1.4722 1.47479 1.50278 1.55595 1.38596 1.4252 1.43644 1.45328 1.44284 1.18844 1.28829 1.29896 1.49153 1.32314 1.32565 1.18368 1.35879 1.49684 1.37719 1.37342 1.47319 1.55911 1.50189 1.52372 1.6503 1.47455 1.45087 1.46277 1.47097 1.51102 1.57623 1.53448 1.50039 1.39034 1.49895 1.38531 1.68509 1.38139 1.36408 1.31148 1.1397 1.44344 1.21846 1.38847 1.63172 1.40153 1.47551 1.4897 1.5544 1.67399 1.61976 1.56901 1.48174 1.44464 1.45683 1.48338 1.49354 1.51222 1.50897 1.51468 1.38222 1.79504 1.58766 1.14825 1.49485 1.53387 1.71281 1.47607 1.64299 1.79089 1.45642 1.62818 1.44852 1.49813 1.45592 1.49143 1.58072 1.61821 1.61283 1.43024 1.46454 1.40118 1.50139 1.49985 1.50863 1.50689 1.48826 1.47343 1.49626 1.46004 1.58064 1.44766 1.73561 1.69595 1.30955 1.69532 1.60099 1.47113 1.42223 1.52136 1.53573 1.56116 1.56439 1.58327 1.61482 1.53596 1.50463 1.43569 1.52973 1.49831 1.50922 1.51745 1.49253 1.51231 1.48832 1.474 1.71404 1.66665 1.63045 1.64723 1.77055 1.66715 1.50559 0.663087 1.80508 1.73824 1.65278 1.48388 1.52696 1.54428 1.60351 1.60192 1.5707 1.47986 1.4876 1.50726 1.5173 1.50189 1.5136 1.50057 1.49625 1.49177 1.4897 1.65236 1.64901 1.77551 1.58459 1.63684 1.5999 1.47804 1.67942 1.70945 1.48114 1.59249 1.51529 1.56676 1.53181 1.5795 1.57872 1.49808 1.5257 1.51807 1.49709 1.50377 1.5107 1.50883 1.51559 1.51286 1.51225 1.50266 1.50338 1.49189 1.49188 1.50704 1.54246 1.57807 1.56409 1.64414 1.57366 1.57198 1.58149 1.44551 1.42562 1.49792 1.59529 1.55761 1.52173 1.51044 1.55059 1.52255 1.54903 1.53118 1.55032 1.52214 1.51754 1.52711 1.51137 1.51132 1.51545 1.51209 1.51449 1.51041 1.49541 1.48837 1.48862 1.52799 1.50688 1.54437 1.55778 1.54811 1.54204 1.52847 1.54257 1.42966 1.43726 1.44731 1.43706 1.49715 1.56533 1.50707 1.44008 1.51985 1.51138 1.51757 1.50679 1.51643 1.52916 1.51691 1.51761 1.53453 1.52052 1.51935 1.51526 1.5105 1.51043 1.513 1.51055 1.50829 1.50003 1.4911 1.4853 1.47169 1.47699 1.47822 1.49165 1.52411 1.50958 1.53812 1.52361 1.51916 1.52363 1.52347 1.44195 1.45922 1.46791 1.45401 1.50434 1.50644 1.49002 1.49461 1.50178 1.50507 1.50147 1.50876 1.51608 1.51317 1.5124 1.51384 1.5075 1.50917 1.50565 1.49378 1.49237 1.47744 1.47198 1.46837 1.47506 1.47996 1.49076 1.50755 1.50489 1.51441 1.51235 1.19178 1.43717 1.44905 1.44494 1.458 1.45243 1.44782 1.47618 1.48016 1.48303 1.47401 1.49112 1.49192 1.47913 1.50251 1.51043 1.50745 1.50123 1.49191 1.47521 1.47905 1.46863 1.4651 1.46369 1.46226 1.4596 1.46573 1.47178 1.46695 1.48184 1.4788 1.48972 1.50546 1.4954 1.49364 1.50407 1.49585 1.43267 1.43579 1.43933 1.46073 1.44804 1.45275 1.46536 1.46949 1.45496 1.45969 1.46465 1.47072 1.48379 1.48263 1.50647 1.50224 1.49751 1.49965 1.48607 1.48389 1.46263 1.46477 1.47646 1.45959 1.45956 1.44207 1.44994 1.46005 1.452 1.46322 1.46873 1.46834 1.47199 1.47942 1.48345 1.4751 1.48609 1.47943 1.4852 1.47234 1.4289 1.42544 1.42923 1.42615 1.43371 1.44068 1.44696 1.4475 1.44206 1.44688 1.45627 1.471 1.47387 1.47394 1.47353 1.45859 1.44704 1.41559 1.44855 1.43855 1.45671 1.46541 1.46748 1.49863 1.46709 1.46077 1.4733 1.46287 1.42269 1.4228 1.42103 1.41441 1.42825 1.41877 1.43969 1.43903 1.43807 1.44355 1.4582 1.43972 1.4701 1.46315 1.48153 1.44295 1.4414 1.45444 1.42112 1.42063 1.44722 1.44604 1.41138 1.43728 1.45413 1.42452 1.50327 1.43778 1.44788 1.45295 1.44319 1.43598 1.45091 1.19178 1.41983 1.41568 1.40717 1.4197 1.41301 1.40403 1.40388 1.43345 1.43262 1.43488 1.42013 1.45485 1.45057 1.45207 1.46995 1.41723 1.38634 1.43428 1.44747 1.37626 1.46747 1.41335 1.4387 1.3908 1.40917 1.50445 1.45254 1.42889 1.41665 1.43524 1.42204 1.19178 1.41803 1.41664 1.41262 1.39209 1.3916 1.38589 1.40117 1.39506 1.45034 1.42008 1.43521 1.42312 1.45525 1.43935 1.45224 1.45313 1.45312 1.4682 1.4505 1.35956 1.41574 1.367 1.40153 1.41123 1.43725 1.39119 1.4128 1.4233 1.43794 1.42954 1.34801 1.38545 1.32084 1.37078 1.44392 1.42205 1.45701 1.44967 1.42534 1.41147 1.40948 1.19178 1.41023 1.40666 1.3962 1.3659 1.40514 1.37759 1.39737 1.39421 1.42804 1.38622 1.41891 1.39451 1.4062 1.42675 1.42102 1.4518 1.45421 1.49107 1.38715 1.35199 1.40766 1.37009 1.3948 1.38691 1.37419 1.39478 1.41678 1.42154 1.41578 1.41636 1.42367 1.39464 1.41517 1.30736 1.29392 1.41172 1.37903 1.42246 1.40857 1.42001 1.41383 1.42211 1.40485 1.3999 1.4029 1.40118 1.39077 1.38353 1.39573 1.41724 1.39495 1.40446 1.40282 1.37452 1.3917 1.37575 1.42604 1.41451 1.42353 1.60188 1.49676 1.3921 1.37197 1.33416 1.38144 1.38911 1.38736 1.40901 1.38944 1.405 1.40468 1.39539 1.38434 1.40776 1.33929 1.4201 1.35282 1.42915 1.4025 1.39815 1.40783 1.3893 1.40977 1.40113 1.39948 1.38789 1.39696 1.38954 1.39134 1.38771 1.37774 1.3988 1.40678 1.3917 1.43483 1.37594 1.45105 1.42034 1.53613 1.31005 1.3642 1.36583 1.39218 1.40341 1.38663 1.38872 1.39384 1.3745 1.39987 1.40224 1.39366 1.40084 1.35528 1.40827 1.31302 1.36775 1.39549 1.38903 1.39207 1.38243 1.37686 1.39059 1.38132 1.38239 1.19178 1.38406 1.37629 1.37804 1.37949 1.372 1.38672 1.38231 1.39266 1.39907 1.37695 1.35114 1.50685 1.49134 1.0851 1.34327 1.46892 1.43274 1.47429 1.36455 1.3418 1.4016 1.36499 1.39516 1.40188 1.3766 1.38146 1.37478 1.35837 1.36897 1.39017 1.38149 1.36924 1.36742 1.37512 1.37394 1.37045 1.37277 1.36597 1.19178 1.19178 1.37421 1.37362 1.37267 1.37101 1.38565 1.37147 1.4055 1.41507 1.39549 1.37733 1.37877 1.32968 1.26782 1.66037 1.35561 1.37421 1.2564 1.48075 1.5693 1.44819 1.26275 1.35116 1.4485 1.3459 1.34135 1.34308 1.38694 1.35314 1.40013 1.40247 1.4039 1.40365 1.4007 1.35618 1.36051 1.36959 1.36589 1.36244 1.35096 1.35877 1.36194 1.35711 1.36253 1.3613 1.35714 1.37302 1.36809 1.36932 1.36567 1.36342 1.3651 1.44206 1.36591 1.35577 1.34525 1.34762 1.31997 1.34903 1.45621 1.36212 1.34948 1.36802 1.40663 1.32385 1.35472 1.3518 1.34395 1.38441 1.34196 1.41144 1.38255 1.40151 1.40179 1.41241 1.35888 1.37484 1.34658 1.34767 1.34921 1.34679 1.35247 1.3542 1.35099 1.35602 1.3502 1.36399 1.36124 1.36865 1.37036 1.378 1.36968 1.36431 1.36089 1.38134 1.32591 1.33915 1.34881 1.33566 1.33765 1.34945 1.33221 1.3392 1.37952 1.33913 1.39494 1.39173 1.4317 1.50351 1.37081 1.35257 1.32073 1.33779 1.41771 1.40202 1.40922 1.39645 1.36197 1.38806 1.33662 1.34429 1.33838 1.3325 1.34198 1.3518 1.34502 1.34678 1.34475 1.34217 1.34726 1.3457 1.35787 1.34886 1.35645 1.37352 1.3644 1.36094 1.37408 1.33154 1.31976 1.3077 1.32427 1.34937 1.34351 1.36961 1.34597 1.36496 1.40505 1.41565 1.33008 1.40862 1.37226 1.37257 1.33833 1.33586 1.32205 1.37281 1.38195 1.42776 1.42837 1.44294 1.39865 1.41901 1.37608 1.38707 1.36928 1.3377 1.3285 1.33738 1.32893 1.33663 1.34644 1.33631 1.34093 1.3255 1.34285 1.33679 1.19178 1.35008 1.35895 1.35584 1.35941 1.34348 1.28709 1.39062 1.33588 1.35094 1.34599 1.35385 1.29544 1.32567 1.30895 1.38142 1.34525 1.40388 1.33947 1.36236 1.33294 1.33227 1.33496 1.34161 1.36208 1.38146 1.42276 1.4076 1.41114 1.40017 1.39089 1.38198 1.32625 1.37825 1.33746 1.32511 1.32734 1.33485 1.3157 1.35798 1.34623 1.33754 1.32436 1.32353 1.33417 1.33377 1.19178 1.36398 1.36758 1.35693 1.37359 1.37038 1.36284 1.37293 1.36577 1.30333 1.33249 1.32695 1.32487 1.28906 1.33152 1.34391 1.36009 1.36999 1.34438 1.32413 1.32443 1.32728 1.33253 1.36594 1.33715 1.35179 1.33259 1.32564 1.36698 1.35356 1.36639 1.40348 1.39447 1.3902 1.38126 1.39831 1.34187 1.30308 1.27393 1.30052 1.2881 1.33765 1.3415 1.33451 1.32928 1.19178 1.38404 1.38696 1.41238 1.40034 1.34815 1.33641 1.31657 1.31641 1.34509 1.357 1.35778 1.34342 1.32446 1.31898 1.29934 1.30832 1.33373 1.32569 1.33403 1.32225 1.32996 1.31228 1.35275 1.33926 1.3768 1.38981 1.34213 1.33841 1.3933 1.31822 1.42029 1.36699 1.4015 1.43366 1.32747 1.37772 1.22042 1.31884 1.32539 1.33543 1.31262 1.28871 1.37064 1.45944 1.42833 1.44842 1.42286 1.38912 1.46376 1.43872 1.35629 1.35965 1.34009 1.33054 1.3375 1.33474 1.32999 1.35681 1.35162 1.36069 1.32667 1.33075 1.30889 1.24246 1.24257 1.32701 1.31082 1.29527 1.30694 1.28178 1.29122 1.33585 1.3573 1.33348 1.36224 1.3457 1.33591 1.38189 1.31764 0.995584 1.30272 1.38104 1.4189 1.35882 1.34355 1.37885 1.21886 1.35699 1.33714 1.27679 1.30871 1.48319 1.49397 1.50276 1.30495 1.52722 1.46261 1.41566 1.51231 1.46744 1.38329 1.29083 1.28935 1.35343 1.35213 1.3428 1.33407 1.38404 1.32106 1.36446 1.35736 1.30129 1.3225 1.38449 1.3393 1.13392 1.31409 1.05614 1.46949 1.30014 1.36596 1.39427 1.25509 1.2764 1.203 1.32335 1.3322 1.35477 1.32096 1.31946 1.2657 1.29186 1.04246 1.0923 1.30694 1.4432 1.4724 1.47112 1.44816 1.39599 1.37669 1.36887 1.3514 1.31996 1.39642 1.41855 1.49711 1.4273 0.472396 2.35852 4.57042 1.29541 1.64089 1.48902 1.60165 1.57159 1.37181 1.19499 1.32755 1.37669 1.30454 1.39228 1.41205 1.35445 1.36006 1.3004 1.33347 1.12024 1.3657 1.44206 1.26867 1.14079 1.28583 1.32477 1.26874 1.24435 1.35004 1.0883 1.36618 1.53279 1.30949 1.04846 1.0501 1.04145 1.10451 1.20158 1.35574 1.5867 1.42394 1.46723 1.38355 1.28961 1.4203 1.29911 1.4214 1.56067 1.29267 1.76359 1.41757 1.30812 1.94904 1.10408 3.08639 1.16335 0.723586 0.857515 0.698799 1.14888 1.07128 1.5571 1.12963 1.49061 1.94153 1.7853 1.35358 1.21706 1.40682 1.28464 1.2226 1.23415 1.30953 1.33391 1.41812 1.29886 1.34598 1.3548 1.3666 1.13318 0.939439 1.51654 1.22074 1.45466 1.29151 1.24316 1.46569 1.16265 0.991646 1.34374 1.34982 1.1523 1.05259 1.12199 1.07171 1.10318 1.1967 0.917417 0.72401 1.41059 1.32715 1.47062 1.37958 1.34463 1.41745 1.43734 1.58992 1.02201 1.25548 0.989232 1.3552 1.16927 1.14485 1.1621 1.04855 0.954268 0.981296 0.840374 0.890858 0.871648 0.943098 0.909133 0.89088 0.880101 1.0567 1.53478 1.3632 1.22669 0.997488 0.664681 0.781444 1.4008 1.06697 1.29875 1.18276 1.19798 1.33473 1.15687 1.10292 1.25517 1.3219 1.22729 1.30453 1.43237 0.930849 1.41062 0.937004 1.07908 1.52048 1.55756 0.935481 1.2602 1.11071 1.34799 1.38197 1.43615 1.28659 1.37997 1.22315 1.15523 1.1884 1.08212 1.03601 0.879962 1.34725 1.31891 1.41181 1.344 1.47347 1.58348 1.14239 1.34017 1.38002 1.01577 1.10594 1.05449 1.18721 1.05463 1.16673 1.06752 1.16459 0.901788 0.996244 1.135 1.06638 0.904075 0.959435 0.830661 0.883236 0.78986 0.828433 0.793835 0.790085 0.81648 0.785764 0.876881 0.762394 0.931174 0.65296 1.25196 0.897071 0.992983 0.850915 1.01293 1.08443 1.10935 1.16814 1.07477 1.09205 1.13192 1.14807 1.15172 1.15717 1.21576 1.04548 1.33057 1.37649 1.22623 1.28688 1.4391 1.1619 0.915038 1.01938 1.10072 1.24247 1.21108 1.08576 1.07218 1.12826 1.05168 1.10458 1.19746 1.25153 1.29107 1.1854 1.16151 1.09966 1.05205 1.04903 1.05176 1.15653 1.25656 1.35509 0.980223 1.1969 1.29817 1.16659 0.97464 1.06578 1.09044 0.992472 1.08296 0.994278 0.952827 0.882624 1.10561 0.693666 0.752173 1.02435 0.727154 1.07553 0.939054 0.922859 0.933468 0.880198 0.852107 0.843833 0.687013 0.688119 0.71792 0.74105 0.683849 0.699968 0.805008 0.796695 0.769822 0.756053 0.724551 0.732251 0.658797 0.766466 0.727571 1.00124 0.663307 1.00706 0.921997 0.955189 1.00092 1.00052 1.02229 0.999734 1.06551 1.09885 1.14858 1.09731 1.138 1.10839 1.19407 1.23593 0.921137 1.1843 1.2873 0.84622 1.11331 0.908676 1.06045 1.20916 1.11073 1.08968 1.16857 1.07777 1.01338 1.10253 1.15754 1.22764 1.16161 1.09216 1.02899 1.0385 1.10779 1.0227 1.02855 1.09444 1.03989 1.09732 1.07204 1.15715 1.01449 1.06756 0.982254 1.17969 1.14554 1.06717 1.10815 1.05825 1.02317 1.07045 0.993133 0.987277 1.06177 0.871421 0.944571 1.08757 0.849781 0.797185 0.699356 0.938794 0.836285 0.990388 0.995604 0.820447 0.853984 0.730991 0.818699 0.790753 0.663207 0.691972 0.671443 0.689169 0.782509 0.681218 0.69545 0.705158 0.896241 0.661199 0.72901 0.858921 0.769948 0.745777 0.699305 0.776 0.756111 0.933629 0.914848 0.914329 0.981856 0.999706 1.00967 0.98242 0.998895 1.00214 1.03263 1.05987 1.03087 1.06934 0.904138 1.11713 0.954721 1.0755 1.17977 1.14276 1.22074 1.18628 1.01503 1.12924 0.831903 1.30122 1.05087 0.926902 0.727802 1.01382 0.706265 1.05135 0.832623 1.08028 1.18009 1.1136 1.153 1.30792 1.03064 0.923285 1.12991 0.921548 1.0418 1.09903 1.10754 1.13146 1.09815 1.06808 1.07626 1.02589 1.01204 0.994664 1.00769 0.997672 1.00861 1.03208 1.00146 1.10476 1.04727 0.989816 0.933566 0.921084 1.09679 0.868648 0.925365 1.2292 1.14171 1.07606 1.01097 1.04053 0.814218 0.924386 0.869665 1.06803 0.786542 0.810445 1.15818 0.679405 0.720396 0.414429 0.934941 0.927132 0.636557 0.817217 0.907366 0.780044 0.832698 0.752101 0.794188 0.784643 0.735158 0.750685 0.783433 0.76258 0.747719 0.646954 0.659481 0.657838 0.660848 0.669348 0.676446 0.671072 0.698739 0.688843 0.769388 0.741022 0.697162 0.70503 0.706659 0.595612 0.776324 0.649504 0.719145 0.853573 0.856404 0.838104 0.805574 0.966807 0.875967 0.974775 0.916143 0.956044 0.89349 0.881783 0.580434 1.00625 1.1538 0.8165 0.47406 1.12965 0.89163 0.943956 0.769984 0.949996 0.813624 0.66211 0.853152 0.927457 0.82426 1.06478 1.03026 1.07776 0.926967 1.11177 0.569298 0.593417 1.23138 1.03111 0.933988 0.896723 1.08806 0.941716 1.10581 1.03177 1.01695 1.02441 1.02825 1.02373 1.00184 0.988223 0.99375 1.00744 0.911387 0.913627 0.842098 0.893614 0.767801 0.965708 1.09506 1.08222 0.895335 0.725022 0.742943 0.744783 0.691285 0.869807 0.875884 0.935108 0.885591 0.854895 1.03949 0.969788 0.785507 0.774543 0.905713 0.882335 0.832463 0.83104 0.831842 0.711822 0.903258 0.806055 0.789716 0.766225 0.770611 0.747807 0.751795 0.762041 0.752136 0.740174 0.738081 0.734273 0.722187 0.718309 0.631421 0.643249 0.6443 0.664407 0.645482 0.6512 0.659611 0.66361 0.651724 0.662283 0.672141 0.673667 0.701604 0.725239 0.716759 0.727341 0.751659 0.759268 0.720656 0.725976 0.721453 0.710472 0.701793 0.711826 0.760945 0.773275 0.720672 0.795967 0.783921 0.762033 0.887148 0.833653 0.829013 0.889708 0.879155 0.854753 0.867723 0.861144 0.847772 0.74358 0.758911 0.877334 0.843498 0.820349 1.0844 0.947433 1.07619 0.732587 0.920884 0.895532 0.894286 0.842651 0.905485 0.912171 0.771711 0.885095 1.01615 0.766413 0.748914 0.472072 1.06099 1.03105 1.00199 0.79701 0.864248 0.852067 0.93347 0.932078 1.00581 1.00572 1.01766 1.03911 0.992974 0.963068 0.910177 0.891878 0.918406 0.807277 0.912233 0.860204 0.951348 0.446043 0.652981 0.838128 0.882365 0.688224 0.6908 0.834142 0.87732 0.840341 0.836183 0.858734 0.719752 0.926262 0.749791 0.722332 0.745302 0.741133 0.749498 0.736066 0.729191 0.721911 0.718675 0.717002 0.719679 0.702275 0.711059 0.709959 0.706004 0.702372 0.695895 0.617045 0.612758 0.617435 0.624765 0.616699 0.60788 0.622778 0.624752 0.634293 0.702652 0.670742 0.671172 0.717766 0.727036 0.727501 0.676192 0.675688 0.678854 0.691847 0.69294 0.703631 0.703931 0.733755 0.721754 0.744146 0.776255 0.830363 0.822277 0.831551 0.831747 0.853966 0.82285 0.83587 0.806707 0.760694 0.797017 0.721386 0.867608 0.916264 0.877201 0.773242 0.966619 0.872476 0.844278 0.835735 0.833454 0.749702 0.853268 0.865802 0.725031 0.655285 0.927172 0.963481 1.06744 0.940175 0.803521 0.813918 0.885839 0.961106 0.884387 0.977516 0.993926 1.06265 0.94054 0.908812 0.932529 0.912522 0.836655 0.911945 0.679106 0.693078 0.952059 0.868758 1.01893 0.94992 0.86656 0.709923 0.571402 0.766408 0.706245 0.691889 0.650724 0.68515 0.715078 0.79495 0.789547 0.752375 0.779848 0.716367 0.741702 0.70386 0.718079 0.705967 0.696577 0.691886 0.710714 0.702573 0.689124 0.700711 0.692018 0.690286 0.692582 0.688218 0.684505 0.676811 0.683804 0.689366 0.681657 0.689705 0.681131 0.676936 0.609308 0.612561 0.611467 0.607121 0.608491 0.607441 0.60933 0.616095 0.617216 0.625129 0.627967 0.619338 0.646924 0.653751 0.678012 0.635467 0.63634 0.680653 0.675347 0.672116 0.67235 0.664143 0.671857 0.677641 0.684731 0.686503 0.705093 0.729385 0.745971 0.796906 0.81381 0.829602 0.815689 0.811479 0.809866 0.823674 0.818252 0.796472 0.87135 0.786093 0.734826 0.886626 0.788442 0.777063 0.818265 0.792894 0.825621 0.783235 0.866828 0.836216 0.815684 0.833404 0.794293 0.797389 0.794964 0.84168 0.852413 0.822836 0.750282 0.708341 0.741016 0.874061 0.682757 0.990641 0.747382 0.714242 0.831409 0.840683 0.854103 0.755578 0.849395 0.744165 0.974433 1.08139 0.897062 0.958357 0.990989 0.824971 0.961729 0.879165 0.949315 0.876032 0.724293 0.699029 0.966223 0.96158 0.649875 1.00881 0.721777 0.704901 0.691354 0.719416 0.755045 0.723212 0.695157 0.677533 0.694959 0.67561 0.660163 0.700795 0.71101 0.689942 0.732114 0.702364 0.717811 0.707815 0.704434 0.680638 0.684314 0.682629 0.674715 0.683356 0.685385 0.679764 0.680182 0.677259 0.670107 0.683109 0.674644 0.667904 0.664958 0.6738 0.662351 0.645892 0.587542 0.604329 0.592315 0.608355 0.610292 0.607443 0.608905 0.612092 0.609196 0.606698 0.608955 0.612282 0.61325 0.610651 0.606239 0.61485 0.620987 0.631525 0.638499 0.62627 0.641248 0.646286 0.675191 0.675396 0.677865 0.685082 0.685572 0.683196 0.687725 0.69598 0.716589 0.688007 0.698262 0.727268 0.727111 0.79048 0.842788 0.825381 0.803433 0.861821 0.802438 0.633496 0.7787 0.688768 0.746794 0.737172 0.852368 0.858105 0.845673 0.814411 0.820688 0.795322 0.789761 0.792368 0.776005 0.809397 0.817795 0.829661 0.803557 0.828923 0.795975 0.708347 0.71083 0.535003 0.741975 0.767942 0.828244 0.833017 0.87833 0.840188 0.81467 0.584879 0.934551 0.868918 0.892008 1.02877 0.885663 0.800944 0.932832 0.841975 0.825654 0.716538 0.751179 0.783343 0.761324 0.725818 0.737784 0.71828 0.721569 0.733528 0.680359 0.688421 0.711278 0.764931 0.709321 0.661389 0.660539 0.679231 0.625639 0.651067 0.651318 0.683919 0.70315 0.704304 0.690315 0.655418 0.682842 0.712168 0.687542 0.653979 0.645257 0.699794 0.655541 0.663976 0.616856 0.66169 0.629006 0.63363 0.658993 0.66139 0.631101 0.655558 0.638228 0.644784 0.62979 0.64841 0.632106 0.628556 0.615053 0.616983 0.566093 0.567933 0.582717 0.584481 0.604374 0.606578 0.613128 0.612733 0.605912 0.609325 0.610937 0.616328 0.60906 0.621197 0.630601 0.611986 0.633731 0.604272 0.628304 0.633197 0.671003 0.66421 0.707642 0.676012 0.688674 0.694675 0.685219 0.685516 0.693937 0.703373 0.772141 0.799747 0.824506 0.820166 0.790571 0.823681 0.815889 0.712716 0.787217 0.658576 0.639367 0.628396 0.88584 0.846098 0.931116 0.879734 0.662098 0.717508 0.792865 0.71997 0.730271 0.832892 0.730118 0.794956 0.781617 0.784335 0.76242 0.688776 0.670057 0.639681 0.71048 0.696559 0.75677 0.767418 0.724011 0.921458 0.794905 0.764892 0.610861 0.918091 0.605045 0.800001 0.995167 0.850668 0.814584 0.85066 0.834999 0.81043 0.785662 0.784343 0.712514 0.725434 0.682269 0.713222 0.691719 0.730545 0.796648 0.768805 0.839566 0.695117 0.710353 0.691223 0.713608 0.689769 0.65588 0.691851 0.639945 0.67081 0.656378 0.640348 0.697481 0.645929 0.675659 0.684109 0.649127 0.651396 0.655639 0.647036 0.643317 0.647511 0.59781 0.634249 0.63433 0.616648 0.600402 0.622136 0.644871 0.629377 0.619933 0.626198 0.630353 0.633654 0.630771 0.625793 0.623084 0.627278 0.606301 0.612517 0.614914 0.60334 0.61763 0.608843 0.61604 0.573379 0.580248 0.584836 0.560491 0.580334 0.546404 0.582756 0.623354 0.605852 0.607769 0.609428 0.607726 0.624546 0.609635 0.628707 0.597124 0.576478 0.564837 0.571748 0.583969 0.60984 0.598653 0.612069 0.64503 0.713986 0.706293 0.706 0.685891 0.713863 0.661286 0.692658 0.678126 0.66933 0.688123 0.68026 0.683033 0.723548 0.667256 0.668622 0.672389 0.701263 0.72441 0.729289 0.736866 0.773272 0.819051 0.712953 0.741357 0.765513 0.638503 0.598592 0.604648 0.784186 0.55553 0.664914 0.714498 0.70715 0.697794 0.75727 0.742987 0.757751 0.776426 0.740462 0.746925 0.794044 0.789883 0.685926 0.714021 0.659349 0.63406 0.666396 0.626468 0.677039 0.725474 0.779539 0.784065 0.860306 0.644591 0.658426 0.711408 0.93585 0.781118 0.636298 0.538922 0.867867 0.702432 0.790571 0.86177 0.791711 0.719302 0.631392 0.638434 0.624731 0.668526 0.614058 0.699427 0.501186 0.836355 0.89364 0.692114 0.792682 0.762619 0.741504 0.710145 0.780019 0.690832 0.701189 0.643375 0.639375 0.666304 0.658252 0.648902 0.64075 0.641908 0.658601 0.653332 0.655365 0.637339 0.647669 0.640029 0.629519 0.625626 0.624488 0.593387 0.60365 0.605476 0.615998 0.60167 0.610194 0.613652 0.618297 0.612408 0.580099 0.596032 0.567864 0.607459 0.614141 0.605095 0.610108 0.594024 0.575834 0.561836 0.609413 0.656856 0.592649 0.650727 0.592107 0.642765 0.52922 0.59281 0.506208 0.521662 0.741478 0.634901 0.61257 0.649803 0.623011 0.589369 0.587913 0.603429 0.565063 0.53435 0.571041 0.655387 0.438373 0.622163 0.600388 0.660093 0.682242 0.644579 0.704693 0.673584 0.699673 0.70637 0.701773 0.693132 0.695303 0.702909 0.73709 0.77353 0.767997 0.737572 0.683564 0.725262 0.554195 0.571947 0.626363 0.847499 0.633215 0.882019 0.714023 0.74805 0.679708 0.738087 0.745551 0.766103 0.718149 0.747943 0.717346 0.60156 0.652833 0.612648 0.70464 0.655585 0.669069 0.721086 0.801685 0.769079 0.772343 0.720885 0.803553 0.65047 0.703628 0.627392 0.464296 0.743404 0.860219 0.788058 0.795287 0.870521 0.876149 0.622815 0.603081 0.638455 0.598541 0.570672 0.86797 0.685779 0.779816 0.783538 0.779717 0.674428 0.704189 0.669236 0.654987 0.657983 0.655983 0.655609 0.651246 0.657592 0.646793 0.662658 0.633653 0.626551 0.62417 0.618918 0.615306 0.607271 0.603336 0.600066 0.599837 0.593236 0.59367 0.589695 0.59955 0.591149 0.587596 0.605293 0.527409 0.63378 0.574101 0.574898 0.592838 0.582755 0.57785 0.577788 0.574805 0.567399 0.567643 0.567929 0.568072 0.544745 0.550613 0.563737 0.551731 0.518422 0.57709 0.54034 0.53047 0.545752 0.484968 0.483813 0.393467 0.483893 0.679632 0.736021 0.683283 0.558526 0.649213 0.600571 0.617306 0.619219 0.557287 0.540856 0.556946 0.562584 0.546667 0.553427 0.546978 0.481778 0.48114 0.495459 1.30052 0.747259 0.860704 0.829968 0.68482 0.732709 0.675633 0.697817 0.691882 0.682508 0.690892 0.709985 0.68597 0.707012 0.68964 0.700859 0.695091 0.692576 0.739065 0.679325 0.661144 0.715422 0.667562 0.727188 0.678043 0.761172 0.641364 0.74203 0.746176 0.860007 0.657087 0.71267 0.673627 0.696726 0.686177 0.723313 0.730235 0.760658 0.732969 0.728237 0.645385 0.635069 0.644246 0.689524 0.682986 0.646335 0.661125 0.672443 0.700149 0.728623 0.751327 0.741304 0.761863 0.717886 0.624873 0.753977 0.599026 0.581712 0.570486 0.855644 0.841455 0.84917 0.972438 0.714943 0.598128 0.712653 0.68213 0.690219 0.594001 0.720229 0.5342 0.670811 0.778375 0.795775 0.695548 0.728272 0.652264 0.710992 0.619134 0.629919 0.607195 0.622715 0.599531 0.631371 0.615845 0.620779 0.647444 0.648704 0.650768 0.699664 0.646952 0.718618 0.698352 0.630541 0.614885 0.60009 0.597997 0.592525 0.586032 0.5865 0.583179 0.581737 0.578897 0.531099 0.61982 0.602454 0.558632 0.501564 0.482155 0.567315 0.595489 0.560468 0.564732 0.563484 0.577192 0.56517 0.571108 0.577934 0.567426 0.542063 0.532421 0.51036 0.561125 0.5341 0.53759 0.525166 0.551604 0.56019 0.552969 0.509843 0.547071 0.547329 0.431708 0.551023 0.849049 0.649478 0.752771 0.779955 0.676832 0.650852 0.632508 0.536974 0.522137 0.523428 0.499925 0.641409 0.547463 0.428664 0.501237 0.463916 0.485475 0.496623 0.785489 0.686194 0.674891 0.582591 0.529332 0.608706 0.719874 0.701017 0.638415 0.698316 0.665371 0.677856 0.7198 0.722841 0.635181 0.563165 0.77299 0.797206 0.808987 0.926367 0.707854 0.635255 0.655555 0.647969 0.659807 0.690143 0.716186 0.702099 0.672359 0.682356 0.676772 0.647291 0.679234 0.64664 0.630814 0.632985 0.632252 0.656766 0.645707 0.659758 0.66887 0.658116 0.669581 0.674039 0.722027 0.718015 0.729264 0.686055 0.671274 0.612595 0.522128 0.558061 0.534314 0.534647 0.556611 0.722506 0.619757 0.722571 0.995357 0.558343 0.672924 0.624585 0.605508 0.683558 0.455759 0.545198 0.478181 0.537691 0.781324 0.73814 0.815844 0.581902 0.590376 0.55683 0.599564 0.63535 0.607896 0.627277 0.592775 0.637796 0.597216 0.615043 0.617854 0.629395 0.646989 0.593674 0.638277 0.654831 0.582879 0.579035 0.582331 0.57218 0.590022 0.577091 0.596806 0.578539 0.575681 0.560774 0.543463 0.508244 0.57868 0.4882 0.333693 0.615983 0.588 0.55037 0.569602 0.566342 0.540854 0.543544 0.562782 0.521028 0.553911 0.549261 0.669573 0.578034 0.546299 0.488258 0.470526 0.508898 0.482613 0.489518 0.453803 0.521232 0.431534 0.493571 0.561808 0.539462 0.533351 0.478681 0.508467 0.515254 0.590323 0.503875 0.591242 0.679735 0.618744 0.639573 0.377814 0.530349 0.405837 0.564857 0.531175 0.559513 0.69786 0.693664 0.686822 0.608972 0.598425 0.592614 0.466936 0.669103 0.683958 0.688243 0.690431 0.526651 0.626219 0.672976 0.812575 0.31636 0.656981 0.507619 0.706062 0.52942 0.583515 0.564832 0.561907 0.611655 0.581873 0.564277 0.653818 0.663319 0.680995 0.692261 0.671726 0.677646 0.64123 0.652266 0.639613 0.640535 0.628487 0.620017 0.63058 0.634935 0.650584 0.661159 0.657057 0.658034 0.663051 0.678175 0.659685 0.711698 0.677919 0.682414 0.637921 0.637282 0.606218 0.571267 0.550298 0.576513 0.554259 0.595229 0.646552 0.643889 0.652203 0.709908 0.679071 0.459796 0.59796 0.610386 0.583439 0.664985 0.588831 0.494562 0.472773 0.687945 0.480998 0.586692 0.788531 0.62395 0.605513 0.558436 0.574408 0.57145 0.605129 0.584616 0.560621 0.606667 0.604655 0.587513 0.55086 0.583161 0.551639 0.554205 0.554205 0.588766 0.57018 0.563751 0.58394 0.56424 0.588902 0.48019 0.505777 0.770736 0.493114 0.525192 0.519201 0.512327 0.524151 0.541996 0.51962 0.511163 0.520673 0.499381 0.510851 0.523277 0.45011 0.406226 0.410998 0.41101 0.502923 0.608722 0.640519 0.520625 0.498252 0.48988 0.537447 0.311296 0.354636 0.271312 0.628675 0.573969 0.514685 0.333916 0.432622 0.431657 0.439685 0.391373 0.461608 0.460021 0.381761 0.452445 0.628266 0.637389 0.648088 0.400765 0.345711 0.454629 0.403183 0.440884 0.428362 0.430802 0.424129 0.437424 0.714406 0.723815 0.845171 0.902216 0.596156 0.659038 0.630098 0.629834 0.618714 0.534993 0.549197 0.269541 0.808336 0.509271 0.584899 0.521054 0.473652 0.694473 0.679766 0.684299 0.649972 0.652245 0.633289 0.611049 0.618013 0.611726 0.612789 0.619346 0.639237 0.62904 0.651868 0.656164 0.662684 0.64906 0.652407 0.645041 0.619688 0.611829 0.597305 0.588463 0.575107 0.597048 0.609786 0.626793 0.663439 0.648223 0.661859 0.609195 0.573802 0.590812 0.585781 0.594805 0.589511 0.514066 0.47234 0.519792 0.589784 0.625845 0.416038 0.644643 0.458419 0.639366 0.554309 0.608156 0.49842 0.498423 0.542128 0.58105 0.582205 0.557054 0.586545 0.535636 0.521512 0.579853 0.506055 0.544333 0.505694 0.552913 0.524707 0.537776 0.588029 0.597232 0.610161 0.557142 0.590889 0.588672 0.432561 0.467322 0.482696 0.556608 0.458649 0.637712 0.41544 0.357659 0.390771 0.381234 0.390404 0.398369 0.389285 0.37876 0.351332 0.365078 0.442143 0.492394 0.544431 0.499783 0.490088 0.43125 0.390532 0.347227 0.246057 0.366563 0.735214 0.488359 0.776377 0.542856 0.228149 0.45403 0.394176 0.431006 0.509653 0.667293 0.467779 0.409348 0.395393 0.425024 0.522075 0.47078 0.491071 0.425408 0.450209 0.660417 0.3971 0.521209 0.421628 0.466965 0.455913 0.478956 0.623097 0.444732 0.530963 0.535366 0.529721 0.542071 0.564094 0.548181 0.562964 0.514747 0.231093 0.263846 0.326743 0.49335 0.536744 0.510148 0.577503 0.580287 0.539472 0.847873 0.735381 0.65589 0.636423 0.624421 0.630795 0.618024 0.608474 0.597586 0.600925 0.605539 0.618616 0.636111 0.64956 0.652291 0.652142 0.654556 0.652889 0.637218 0.632995 0.620635 0.600406 0.583963 0.590812 0.595158 0.591595 0.602327 0.61431 0.626907 0.644489 0.631914 0.603723 0.608089 0.59974 0.584017 0.570777 0.560059 0.582403 0.597587 0.525394 0.540305 0.528274 0.449923 0.478662 0.353499 0.535331 0.561655 0.546765 0.522509 0.539182 0.572588 0.55387 0.529174 0.534753 0.46799 0.458129 0.422736 0.572459 0.537653 0.448266 0.436577 0.437875 0.626381 0.580474 0.394697 0.531156 0.488002 0.518642 0.498514 0.497169 0.486466 0.50438 0.441762 0.48333 0.365324 0.658641 0.552549 0.657788 0.587277 0.481993 0.478394 0.543116 0.364922 0.42987 0.409123 0.385622 0.386712 0.367586 0.317969 0.28697 0.314691 0.301499 0.30426 0.435159 0.356186 0.486731 0.473525 0.367963 0.46582 0.349427 0.281025 0.258848 0.223585 0.301268 0.498948 0.591104 0.327528 0.474189 0.456336 0.462239 0.447716 0.425586 0.43375 0.461604 0.539365 0.471813 0.431481 0.432626 0.410402 0.448474 0.476974 0.470959 0.431963 0.409552 0.48003 0.491671 0.471257 0.523001 0.528821 0.518393 0.512796 0.506573 0.453493 0.486238 0.431703 0.301026 0.419472 0.527755 0.551103 0.426551 0.503796 0.333368 0.502804 0.73048 0.618865 0.612043 0.625898 0.610393 0.590006 0.593493 0.591003 0.593642 0.590935 0.591023 0.603528 0.619549 0.601168 0.638531 0.660713 0.637937 0.653355 0.619941 0.621733 0.627008 0.609134 0.613956 0.602014 0.58458 0.576854 0.589885 0.60457 0.6173 0.619033 0.626623 0.618549 0.594435 0.598054 0.592703 0.580451 0.582028 0.569708 0.596912 0.609568 0.605588 0.571835 0.557652 0.572214 0.53127 0.405443 0.456246 0.435458 0.492412 0.523235 0.512734 0.534319 0.521558 0.525082 0.53347 0.530587 0.504239 0.474156 0.467566 0.48295 0.468196 0.45919 0.462058 0.344151 0.47373 0.408527 0.473734 0.478901 0.468989 0.435353 0.482603 0.502116 0.466245 0.491404 0.548656 0.566108 0.524346 0.558414 0.552263 0.316462 0.395813 0.37899 0.314612 0.334491 0.34089 0.33118 0.32116 0.284337 0.296208 0.289492 0.279557 0.276853 0.306144 0.276883 0.337523 0.36969 0.419432 0.394509 0.317776 0.258441 0.306731 0.538732 0.601323 0.448219 0.360346 0.44672 0.436643 0.417705 0.445078 0.469785 0.452 0.462011 0.467207 0.457201 0.455862 0.469213 0.465822 0.481147 0.479402 0.484131 0.50544 0.522769 0.521701 0.51374 0.507094 0.484146 0.420464 0.493952 0.533257 0.534381 0.521155 0.513889 0.508435 0.549437 0.650254 0.667658 0.662218 0.658055 0.607293 0.588839 0.578667 0.588401 0.588399 0.596746 0.578487 0.578245 0.630666 0.677362 0.680957 0.654909 0.599578 0.606528 0.607307 0.603709 0.605354 0.606767 0.59424 0.59957 0.567211 0.589269 0.567483 0.592409 0.544461 0.589442 0.620599 0.647705 0.609628 0.589883 0.568649 0.57871 0.562899 0.567448 0.557368 0.566061 0.557456 0.590426 0.617318 0.60473 0.589587 0.56773 0.534292 0.493193 0.525948 0.499892 0.515776 0.520364 0.525379 0.527849 0.523753 0.517659 0.514329 0.500349 0.502429 0.493248 0.491849 0.477059 0.464334 0.466618 0.458638 0.420512 0.432411 0.426248 0.45067 0.433661 0.434696 0.430286 0.418441 0.456443 0.419607 0.489073 0.452135 0.47181 0.454213 0.439808 0.447218 0.42003 0.414557 0.402664 0.34865 0.341899 0.342949 0.319441 0.324576 0.314203 0.305465 0.296001 0.297869 0.276244 0.322119 0.338893 0.31721 0.325035 0.289928 0.322603 0.277077 0.325522 0.361491 0.387872 0.378236 0.40294 0.435006 0.451667 0.421809 0.364331 0.472835 0.375031 0.416188 0.412395 0.408018 0.406628 0.468787 0.404074 0.354004 0.382566 0.394988 0.419999 0.441089 0.432159 0.450984 0.443474 0.463575 0.469008 0.462251 0.467858 0.466163 0.464248 0.469094 0.476892 0.471943 0.483029 0.467772 0.48952 0.504657 0.514723 0.513501 0.524415 0.517835 0.519726 0.520016 0.514099 0.50715 0.518266 0.513081 0.486116 0.521419 0.524778 0.525218 0.533545 0.514875 0.521775 0.524798 0.51593 0.664592 0.635324 0.606722 0.586824 0.558241 0.589734 0.580319 0.625378 0.563947 0.564431 0.580088 0.689947 0.624058 0.611407 0.601972 0.613997 0.604019 0.601582 0.608144 0.604938 0.574307 0.544907 0.558116 0.499501 0.572644 0.616852 0.643693 0.610898 0.582164 0.574901 0.558585 0.551357 0.553378 0.553332 0.559946 0.570073 0.567931 0.562544 0.579295 0.553714 0.525837 0.548648 0.512508 0.537823 0.534465 0.521973 0.53741 0.534796 0.526337 0.528032 0.531606 0.532491 0.527528 0.525728 0.516779 0.509847 0.499443 0.504014 0.492976 0.47844 0.458527 0.467227 0.461393 0.44129 0.429761 0.433429 0.443805 0.444392 0.422632 0.421963 0.41804 0.415535 0.417564 0.43903 0.431061 0.442183 0.430121 0.428478 0.425372 0.420722 0.403705 0.386142 0.394388 0.370654 0.336766 0.317859 0.306638 0.293342 0.284131 0.25966 0.275883 0.241055 0.237713 0.212591 0.509948 0.442004 0.383406 0.389959 0.367355 0.357178 0.339521 0.358506 0.352053 0.385047 0.406256 0.419095 0.435537 0.448495 0.468526 0.447944 0.426362 0.437971 0.422067 0.401905 0.405326 0.447712 0.419029 0.409221 0.425531 0.445751 0.443062 0.457072 0.458019 0.463307 0.466752 0.47507 0.472533 0.473973 0.468343 0.477319 0.477878 0.477656 0.484983 0.488075 0.495074 0.505366 0.506002 0.517749 0.515477 0.522328 0.527242 0.526801 0.533355 0.52241 0.53676 0.535808 0.551382 0.531941 0.514622 0.418974 0.561651 0.515109 0.624224 0.710516 0.644643 0.544065 0.544887 0.606233 0.543972 0.677904 0.521253 0.440913 0.587428 0.46964 0.47801 0.639509 0.619379 0.577571 0.56548 0.61504 0.582381 0.617473 0.453567 0.672128 0.492652 0.440679 0.617386 0.685233 0.589955 0.529991 0.554556 0.545685 0.542307 0.546731 0.550428 0.550474 0.558243 0.565107 0.568237 0.567678 0.568276 0.566757 0.560351 0.562972 0.562777 0.558985 0.54942 0.545203 0.547222 0.536604 0.543338 0.534306 0.538628 0.530958 0.530075 0.52483 0.53218 0.524965 0.51757 0.512304 0.510744 0.497052 0.484371 0.474511 0.456006 0.452367 0.43981 0.423542 0.442634 0.413886 0.412892 0.43226 0.452072 0.43028 0.420822 0.404721 0.426862 0.390222 0.364258 0.371032 0.334529 0.33491 0.30964 0.285574 0.275854 0.263948 0.252909 0.227048 0.218709 0.208163 0.216456 0.584981 0.589607 0.445814 0.421605 0.390136 0.366759 0.361318 0.350516 0.330617 0.371295 0.386896 0.374638 0.403704 0.447613 0.455331 0.456792 0.415954 0.413046 0.416999 0.417069 0.41504 0.420527 0.423206 0.42449 0.437451 0.44678 0.461377 0.476313 0.474157 0.479536 0.481454 0.479244 0.484959 0.483076 0.490421 0.489845 0.493992 0.498314 0.505585 0.512449 0.521931 0.527061 0.532185 0.53974 0.539401 0.546922 0.538575 0.545419 0.550751 0.564794 0.518862 0.488661 0.454159 0.515417 0.492646 0.537478 0.552797 0.742972 0.549424 0.570553 0.523031 0.656379 0.357252 0.523892 0.560857 0.597138 0.481443 0.485984 0.418452 0.65216 0.667234 0.560738 0.510974 0.555968 0.640415 0.56321 0.52781 0.719231 0.668312 0.59056 0.506064 0.55728 0.553082 0.572333 0.575318 0.574425 0.567246 0.566713 0.563543 0.560147 0.561565 0.555595 0.554196 0.542524 0.538613 0.535976 0.537654 0.529911 0.520527 0.524491 0.518499 0.523947 0.504296 0.5167 0.492275 0.480534 0.468149 0.457513 0.473113 0.456716 0.455421 0.442051 0.425251 0.422394 0.411208 0.406769 0.431529 0.481213 0.539024 0.431126 0.438706 0.454436 0.419128 0.404583 0.367855 0.357573 0.30744 0.355442 0.277731 0.2913 0.247347 0.226735 0.212885 0.214948 0.267599 0.258049 0.302703 0.349348 0.681704 1.18611 0.466527 0.400012 0.351469 0.391696 0.342191 0.310271 0.359836 0.392677 0.417221 0.430089 0.425897 0.443477 0.430654 0.448026 0.427947 0.422197 0.404506 0.420366 0.428101 0.42888 0.439579 0.456171 0.452698 0.465192 0.464101 0.481498 0.483684 0.488398 0.492614 0.491831 0.495976 0.495519 0.502741 0.507548 0.517002 0.525167 0.533523 0.537356 0.541302 0.54357 0.540902 0.552121 0.550345 0.543558 0.559352 0.562006 0.559268 0.572148 0.502558 0.572876 0.522223 0.523474 0.56962 0.665083 0.590295 0.534109 0.578642 0.496886 0.284933 0.814589 0.520393 0.634434 0.572715 0.472659 0.481924 0.455484 0.623686 0.539944 0.591473 0.55371 0.324975 0.522062 0.583559 0.744541 0.961083 0.6169 0.564211 0.54599 0.446249 0.602534 0.593646 0.518987 0.572006 0.607857 0.578244 0.57178 0.574124 0.567795 0.565552 0.558946 0.554559 0.543443 0.552527 0.539997 0.540712 0.533701 0.533537 0.54075 0.532918 0.523743 0.51375 0.525134 0.502563 0.529664 0.494509 0.490895 0.457249 0.494147 0.448256 0.434904 0.396127 0.424913 0.365741 0.344672 0.374523 0.501288 0.425268 0.495014 0.476217 0.507841 0.44857 0.437386 0.382026 0.372354 0.36911 0.388858 0.281189 0.348621 0.291307 0.240933 0.23019 0.240898 0.769734 0.910152 0.415405 0.324995 0.324215 0.311837 0.321805 0.374241 0.329385 0.385071 0.412012 0.402822 0.418112 0.466613 0.451774 0.398749 0.425738 0.409581 0.466182 0.450561 0.471272 0.483728 0.484223 0.488082 0.492768 0.493349 0.496668 0.496809 0.500835 0.501805 0.512616 0.510786 0.518662 0.520229 0.525119 0.527172 0.534669 0.536066 0.549634 0.553181 0.556441 0.557044 0.566526 0.573866 0.579497 0.595911 0.639626 0.531017 0.516872 0.553245 0.581339 0.588582 0.533436 0.29512 0.520671 0.542239 0.38006 0.426566 0.184354 0.767869 0.717027 0.685665 0.519393 0.61401 0.521901 0.532763 0.513126 0.548609 0.565433 0.471899 0.511898 0.309276 0.439589 0.698944 0.678906 0.889468 0.591232 0.695466 0.678393 0.600743 0.572278 0.714843 0.60147 0.535616 0.547293 0.582731 0.580885 0.59029 0.585107 0.57168 0.57082 0.563951 0.562876 0.567362 0.560133 0.566043 0.557234 0.547363 0.547341 0.542827 0.531737 0.538266 0.528517 0.532772 0.519936 0.521037 0.522168 0.529119 0.496798 0.490015 0.490971 0.496141 0.49742 0.475333 0.468605 0.484159 0.464494 0.445326 0.444135 0.421725 0.421597 0.391634 0.420588 0.461719 0.520713 0.570132 0.420749 0.394085 0.378091 0.408818 0.368037 0.438437 0.294927 0.292393 0.23415 0.391106 0.31406 0.191638 0.185753 0.174174 0.0872461 0.102074 0.652556 0.472629 0.348836 0.321615 0.329706 0.316416 0.384856 0.397325 0.372194 0.362698 0.336006 0.353212 0.428189 0.369834 0.465841 0.45253 0.428606 0.461643 0.496224 0.506487 0.492409 0.496471 0.494457 0.493877 0.496877 0.499956 0.502631 0.508076 0.508987 0.519458 0.528142 0.537075 0.543415 0.547441 0.556166 0.565531 0.566228 0.622259 0.601499 0.603239 0.630789 0.645431 0.593423 0.649147 0.598704 0.561865 0.562998 0.582016 0.54139 0.458062 0.479417 0.550496 0.412906 0.790258 0.513248 0.680651 0.389814 0.554023 0.493776 0.549571 0.511816 0.551462 0.463704 0.528478 0.269879 0.817403 0.693401 0.670561 0.626037 0.396551 0.365491 0.48503 0.556933 0.687976 0.593357 0.566449 0.555504 0.59874 0.599495 0.580003 0.583977 0.573661 0.568793 0.563921 0.554415 0.559392 0.55272 0.548178 0.541884 0.528846 0.515587 0.530304 0.499489 0.540571 0.510756 0.539948 0.513158 0.509364 0.490038 0.482054 0.462926 0.465994 0.453841 0.451043 0.43589 0.417261 0.468635 0.478509 0.500058 0.281946 0.328063 0.342113 0.405705 0.463203 0.347623 0.46922 0.372512 0.489383 0.592518 0.126206 0.19489 0.0952709 0.51693 0.450982 0.361601 0.305668 0.30688 0.322286 0.307997 0.428337 0.359099 0.36542 0.331128 0.318335 0.334902 0.298569 0.297591 0.378443 0.292921 0.279435 0.391613 0.348851 0.463075 0.526173 0.508478 0.491598 0.498308 0.494907 0.496219 0.499703 0.505292 0.522058 0.535655 0.541677 0.552307 0.546223 0.561452 0.579703 0.601682 0.597196 0.625138 0.612543 0.616521 0.618241 0.647879 0.567428 0.564045 0.541128 0.530621 0.535971 0.497046 0.489762 0.443306 0.944017 0.492761 0.505334 0.48783 0.605631 0.502014 0.508171 0.515857 0.504258 0.405372 0.856917 0.711808 0.55962 0.531501 0.286727 0.389068 0.496104 0.515693 0.46955 0.631349 0.587184 0.575029 0.541974 0.628246 0.590785 0.594174 0.579162 0.567387 0.566586 0.558808 0.555878 0.552721 0.539725 0.547423 0.53159 0.547232 0.537204 0.515925 0.529438 0.525786 0.51202 0.510228 0.501814 0.494041 0.478424 0.489979 0.480083 0.49489 0.516125 0.378978 0.473491 0.577291 0.578683 0.251371 0.416878 0.264507 0.570771 0.343151 0.628549 0.0340184 0.435688 0.647024 0.314932 0.228743 0.275494 0.0660654 0.102872 0.428624 0.454551 0.404802 0.336802 0.291385 0.316831 0.291974 0.323078 0.316436 0.337316 0.228303 0.262576 0.288822 0.293032 0.310097 0.34195 0.352819 0.372047 0.465034 0.4775 0.465171 0.499361 0.486567 0.494414 0.499537 0.499744 0.505089 0.514261 0.513344 0.526887 0.534816 0.544559 0.546616 0.557659 0.557273 0.568446 0.576425 0.588558 0.60079 0.609208 0.613941 0.618106 0.618428 0.616985 0.570353 0.547413 0.503379 0.489948 0.48315 0.485518 0.537334 0.307858 0.47488 0.399165 0.47368 0.63028 0.592047 0.587314 0.600822 0.612014 0.638972 0.595979 0.57851 0.575687 0.566131 0.564109 0.562704 0.552973 0.54803 0.539024 0.538532 0.520467 0.52918 0.523566 0.515857 0.524698 0.509792 0.500199 0.50567 0.508723 0.498206 0.534401 0.588197 0.443778 0.339363 0.409069 0.394215 0.543274 0.513222 0.168902 0.180031 0.0859406 0.390183 0.866359 0.55962 0.574715 0.245603 0.294204 0.10327 0.345447 0.436252 0.448432 0.371694 0.328975 0.321581 0.343016 0.247467 0.298269 0.26183 0.258545 0.285146 0.305383 0.311578 0.348285 0.343131 0.368615 0.460737 0.481528 0.492142 0.495895 0.485619 0.483406 0.477455 0.492307 0.496846 0.517006 0.523437 0.5361 0.549565 0.554662 0.561094 0.559049 0.576747 0.58312 0.583096 0.583329 0.591502 0.605814 0.62149 0.626901 0.605355 0.579968 0.581422 0.595549 0.609829 0.621353 0.615506 0.596154 0.584987 0.583935 0.575632 0.571628 0.558829 0.554201 0.540726 0.541824 0.524575 0.529317 0.539391 0.536501 0.51752 0.499499 0.525626 0.498648 0.507051 0.485016 0.311726 0.457792 0.382706 0.41122 0.104315 0.15 0.369129 0.271365 0.678779 0.921941 1.08969 0.440806 0.501485 0.508391 0.0290593 0.0538703 0.269259 0.474902 0.465373 0.47388 0.376181 0.401697 0.320025 0.25045 0.245394 0.328444 0.310911 0.292959 0.217324 0.341104 0.350584 0.404319 0.385197 0.451397 0.461681 0.478533 0.503649 0.484313 0.474991 0.478606 0.497541 0.497906 0.512784 0.539689 0.540462 0.54864 0.58094 0.580057 0.584827 0.598794 0.595138 0.586864 0.57744 0.575739 0.569281 0.565227 0.560987 0.550595 0.54783 0.533544 0.538388 0.540925 0.535722 0.549439 0.477393 0.448598 0.485432 0.534829 0.531253 0.42678 0.480104 0.441636 0.25058 0.120217 0.127776 0.461466 0.375697 0.842551 0.376839 0.429964 0.472408 0.146918 0.278394 0.180329 0.0102404 0.195955 0.186132 0.519067 0.485717 0.209618 0.43831 0.412723 0.303541 0.293985 0.386985 0.409281 0.429546 0.460431 0.485678 0.486457 0.514057 0.470416 0.524414 0.517662 0.492936 0.50676 0.568763 0.556341 0.532074 0.540041 0.545698 0.479433 0.460899 0.435746 0.439474 0.541014 0.538008 0.540319 0.521658 0.503609 0.483502 0.256437 0.33672 0.286283 0.592154 0.884894 0.2553 0.0924303 0.0775604 0.572833 0.551816 0.52318 0.448328 0.378685 0.295454 0.550923 0.522339 0.527448 0.511423 0.660593 0.271564 0.100896 0.102566 
SCALARS Stress float 1
LOOKUP_TABLE default
-41904400000.0 -124976000000.0 -21159200000.0 -34079300000.0 -96157400000.0 -186842000000.0 -76143300000.0 -80477500000.0 -138566000000.0 -121349000000.0 -202103000000.0 -293472000000.0 -402830000000.0 -146474000000.0 -141928000000.0 -184796000000.0 -129838000000.0 -238532000000.0 -162155000000.0 -122833000000.0 -53955600000.0 -42029100000.0 -29077000000.0 -49240700000.0 -163928000000.0 -231342000000.0 -386482000000.0 -369149000000.0 -250879000000.0 -199207000000.0 -590329000000.0 -402640000000.0 -279229000000.0 -371334000000.0 -287462000000.0 -281312000000.0 -100209000000.0 -308827000000.0 -463338000000.0 -278023000000.0 -381661000000.0 -449563000000.0 -214504000000.0 -141686000000.0 -70602500000.0 -289574000000.0 -24258500000.0 -120069000000.0 -303767000000.0 -550680000000.0 -285995000000.0 -989461000000.0 -720971000000.0 -108936000000.0 -385639000000.0 -758065000000.0 -940334000000.0 -389825000000.0 -629088000000.0 -779857000000.0 -981049000000.0 -795652000000.0 -652445000000.0 -325131000000.0 -244819000000.0 -363695000000.0 -250597000000.0 -395759000000.0 -95913900000.0 -32190700000.0 -75632700000.0 -57070400000.0 -29138600000.0 -39436600000.0 -114104000000.0 -399008000000.0 -1.07622e+12 -1.04328e+12 -169859000000.0 -581635000000.0 -345428000000.0 -642723000000.0 -970932000000.0 -893102000000.0 -714735000000.0 -54221500000.0 -995832000000.0 -1.47644e+12 -355063000000.0 -279273000000.0 -780601000000.0 -390493000000.0 -631694000000.0 -860682000000.0 -201234000000.0 -303629000000.0 -145693000000.0 -132316000000.0 -144727000000.0 -674336000000.0 -1.3319e+12 -613570000000.0 -920658000000.0 -816936000000.0 -1.37564e+12 -762571000000.0 -705318000000.0 -1.15685e+12 -477342000000.0 -798257000000.0 -1.18463e+12 -505951000000.0 -1.4584e+12 -2.96561e+12 -545335000000.0 -884313000000.0 -688608000000.0 -709674000000.0 -190225000000.0 -144718000000.0 -339905000000.0 -76703500000.0 -136407000000.0 -36915200000.0 -224207000000.0 -291823000000.0 -852203000000.0 -607160000000.0 -920386000000.0 -773040000000.0 -1.18084e+12 -417611000000.0 -1.84612e+12 -3.06941e+12 -1.44663e+12 -988517000000.0 -1.0214e+12 -1.45895e+12 -1.62287e+12 -1.50466e+12 -1.93525e+12 -1.48448e+12 -857671000000.0 -906388000000.0 -746504000000.0 -208866000000.0 -61722100000.0 -51026100000.0 -276282000000.0 -1.04116e+12 -417357000000.0 -436365000000.0 -211805000000.0 -78328000000.0 -105311000000.0 -58717400000.0 -69219300000.0 -23510200000.0 -330199000000.0 -182017000000.0 -839303000000.0 -1.9931e+12 -992315000000.0 -1.40616e+12 -1.6652e+12 -1.12569e+12 -2.30397e+12 -1.88793e+12 -616368000000.0 -2.15126e+12 -2.51222e+12 -2.48589e+12 -1.94304e+12 -1.74576e+12 -1.20684e+12 -843202000000.0 -1.46612e+12 -307195000000.0 -622246000000.0 -106001000000.0 -35912700000.0 -41720500000.0 -97016200000.0 -35161400000.0 -640804000000.0 -906630000000.0 -613009000000.0 -2.27821e+12 -1.51243e+12 -1.52621e+12 -2.00062e+12 -2.25471e+12 -1.81804e+12 -1.46904e+12 -833359000000.0 -3.1683e+12 -1.56485e+12 -2.03766e+12 -1.37149e+12 -1.80083e+12 -1.4186e+12 -904077000000.0 -1.09831e+12 -692846000000.0 -606203000000.0 -276177000000.0 -1.14361e+12 -184435000000.0 -50602800000.0 -80681800000.0 -26408200000.0 -245096000000.0 -1.00327e+12 -593785000000.0 -521772000000.0 -3.0014e+12 -2.32491e+12 -3.26082e+12 -2.36454e+12 -818769000000.0 -3.26103e+12 -2.68106e+12 -1.47417e+12 -3.04491e+12 -3.05552e+12 -2.22429e+12 -3.83142e+12 -3.6011e+12 -2.26156e+12 -963997000000.0 -1.42356e+12 -1.41095e+12 -486604000000.0 -1.95307e+12 -329104000000.0 -24954700000.0 -152902000000.0 -183447000000.0 -356116000000.0 -917224000000.0 -823994000000.0 -2.90389e+12 -3.55806e+12 -2.42128e+12 -1.84798e+12 -2.9137e+12 -3.32531e+12 -2.44633e+12 -2.89789e+12 -2.35614e+12 -3.06372e+12 -2.04433e+12 -2.42915e+12 -3.49789e+12 -1.74315e+12 -3.19418e+12 -2.9515e+12 -1.96745e+12 -542319000000.0 -1.4387e+12 -2.03895e+12 -995149000000.0 -262685000000.0 -467730000000.0 -926093000000.0 -453995000000.0 -2.0553e+12 -1.72006e+12 -2.16771e+12 -2.20859e+12 -3.09043e+12 -1.50996e+12 -3.30761e+12 -4.84957e+12 -4.29901e+12 -2.50889e+12 -1.91137e+12 -2.01428e+12 -4.10303e+12 -4.29672e+12 -2.34219e+12 -3.80702e+12 -2.64618e+12 -3.98991e+12 -2.49193e+12 -869900000000.0 -1.67846e+12 -1.92684e+12 -1.57151e+12 -200210000000.0 -1.14967e+12 -2.58704e+12 -1.96468e+12 -4.99838e+12 -3.3519e+12 -4.18003e+12 -3.98413e+12 -3.5653e+12 -4.15604e+12 -4.69461e+12 -3.46131e+12 -1.77445e+12 -2.71045e+12 -2.40704e+12 -2.38543e+12 -3.3479e+12 -5.35664e+12 -3.33706e+12 -3.02789e+12 -1.63407e+12 -3.11418e+12 -4.49676e+12 -2.81068e+12 -2.03231e+12 -2.55387e+12 -3.31351e+12 -2.02043e+12 -2.03725e+12 -1.63773e+12 -3.9163e+12 -3.65865e+12 -3.77568e+12 -4.05087e+12 -3.91217e+12 -3.27405e+12 -5.51314e+12 -3.83643e+12 -2.80412e+12 -4.0273e+12 -5.6886e+12 -5.98621e+12 -5.4589e+12 -3.03676e+12 -4.30889e+12 -3.48739e+12 -1.73637e+12 -4.2802e+12 -2.66642e+12 -3.45106e+12 -2.00922e+12 -5.21025e+12 -3.22941e+12 -4.15839e+12 -1.32343e+12 -4.97626e+12 -1.62653e+12 -3.25185e+12 -4.54401e+12 -4.05097e+12 -5.08396e+12 -4.94175e+12 -5.13327e+12 -4.77859e+12 -3.61746e+12 -4.32059e+12 -3.30482e+12 -3.50297e+12 -4.1474e+12 -3.87624e+12 -3.65191e+12 -5.07429e+12 -2.06212e+12 -3.09017e+12 -3.89657e+12 -5.07066e+12 -4.39095e+12 -4.67212e+12 -3.98338e+12 -2.27985e+12 -3.08058e+12 -3.49401e+12 -3.71202e+12 -4.30836e+12 -4.32338e+12 -5.40946e+12 -5.82699e+12 -1.85341e+12 -2.95713e+12 -2.26839e+12 -4.31102e+12 -4.80139e+12 -4.74053e+12 -3.96832e+12 -5.66383e+12 -4.3827e+12 -3.45861e+12 -5.26927e+12 -3.81369e+12 -2.16065e+12 -3.51388e+12 -4.3171e+12 -4.6474e+12 -3.00077e+12 -3.37687e+12 -3.19615e+12 -3.58421e+12 -4.68444e+12 -5.02765e+12 -4.9471e+12 -4.70137e+12 -4.41254e+12 -4.50931e+12 -3.91369e+12 -2.38716e+12 -4.5473e+12 -4.81319e+12 -1.72917e+12 -4.79552e+12 -3.84727e+12 -2.43285e+12 -5.25163e+12 -4.69203e+12 -4.4251e+12 -5.51758e+12 -3.13801e+12 -3.55125e+12 -4.59677e+12 -3.9974e+12 -4.06373e+12 -4.45779e+12 -6.30722e+12 -3.69017e+12 -3.27418e+12 -4.0844e+12 -4.12316e+12 -5.2293e+12 -4.79185e+12 -5.05122e+12 -3.32688e+12 -3.96636e+12 -2.72754e+12 -3.58993e+12 -5.85346e+12 -6.62531e+12 -4.14751e+12 -3.08001e+12 -4.29091e+12 -5.27112e+12 -4.65604e+12 -7.34271e+12 -6.52203e+12 -3.54253e+12 -5.60448e+12 -3.12812e+12 -4.17962e+12 -4.97574e+12 -2.77574e+12 -2.73694e+12 -3.85704e+12 -3.94966e+12 -5.18929e+12 -6.71195e+12 -3.27839e+12 -3.76466e+12 -5.20848e+12 -5.45902e+12 -2.40641e+12 -3.63502e+12 -4.71722e+12 -2.55984e+12 -4.88598e+12 -3.23586e+12 -4.86675e+12 -4.78376e+12 -2.71399e+12 -8.08382e+12 -5.04664e+12 -6.46397e+12 -4.0409e+12 -5.39609e+12 -6.47859e+12 -3.69724e+12 -3.52451e+12 -5.00077e+12 -4.48353e+12 -4.17778e+12 -5.36312e+12 -3.13515e+12 -12549700000.0 -5.5714e+12 -3.9115e+12 -6.71316e+12 -2.90186e+12 -3.86028e+12 -6.27315e+12 -6.87155e+12 -4.19767e+12 -6.40429e+12 -5.96723e+12 -6.56604e+12 -5.26601e+12 -4.33282e+12 -4.58145e+12 -5.44129e+12 -4.74584e+12 -7.36778e+12 -5.92335e+12 -3.78892e+12 -5.85326e+12 -4.58492e+12 -3.35575e+12 -5.26941e+12 -4.32135e+12 -5.00091e+12 -4.78805e+12 -5.36083e+12 -3.1979e+12 -2.40967e+12 -6.17565e+12 -4.86838e+12 -4.93938e+12 -5.34854e+12 -3.26594e+12 -1.9641e+12 -2.95381e+12 -3.06615e+12 -6.1138e+12 -7.07323e+12 -7.82934e+12 -5.80995e+12 -3.71184e+12 -6.7573e+12 -5.10309e+12 -5.4869e+12 -2.76136e+12 -5.29345e+12 -5.82759e+12 -5.67848e+12 -3.91504e+12 -4.64929e+12 -7.71887e+12 -1.05128e+13 -5.48261e+12 -7.32342e+12 -4.93995e+12 -3.97697e+12 -2.8987e+12 -2.95749e+12 -4.67668e+12 -6.29383e+12 -4.50763e+12 -5.38414e+12 -6.06964e+12 -5.84232e+12 -5.7944e+12 -5.04448e+12 -1.97653e+12 -3.73611e+12 -5.95526e+12 -7.54814e+12 -7.56701e+12 -8.65353e+12 -4.20693e+12 -2.65695e+12 -3.2004e+12 -5.45442e+12 -3.92819e+12 -6.87204e+12 -4.97589e+12 -8.96197e+12 -6.30139e+12 -4.35516e+12 -3.14232e+12 -4.97073e+12 -1.07068e+13 -4.62063e+12 -5.10316e+12 -5.28868e+12 -7.05618e+12 -5.54526e+12 -8.73807e+12 -9.20609e+12 -5.20405e+12 -3.50705e+12 -6.60161e+12 -1.06863e+13 -4.34306e+12 -5.74511e+12 -5.91947e+12 -6.96862e+12 -5.06307e+12 -6.77431e+12 -5.97855e+12 -6.76907e+12 -8.99716e+12 -2.92243e+12 -3.25189e+12 -5.75532e+12 -3.21018e+12 -4.51742e+12 -7.65432e+12 -7.76553e+12 -6.96848e+12 -7.06843e+12 -5.2692e+12 -4.39225e+12 -4.45952e+12 -5.06337e+12 -4.64729e+12 -3.92262e+12 -5.01264e+12 -5.19352e+12 -7.22464e+12 -1.14979e+13 -6.67127e+12 -7.28085e+12 -9.05523e+12 -8.65625e+12 -2.8552e+12 -1.16295e+13 -4.80583e+12 -9.05591e+12 -7.21135e+12 -5.05051e+12 -6.8543e+12 -2.91526e+12 -12549700000.0 -6.04738e+12 -7.05971e+12 -6.44729e+12 -4.43675e+12 -5.16908e+12 -5.67774e+12 -6.79512e+12 -5.28016e+12 -1.00221e+13 -6.41107e+12 -7.77022e+12 -6.29931e+12 -6.59994e+12 -5.34443e+12 -6.65516e+12 -7.89835e+12 -7.25002e+12 -7.06748e+12 -8.3734e+12 -4.88132e+12 -7.92796e+12 -5.75777e+12 -7.02948e+12 -6.37719e+12 -8.57364e+12 -5.4194e+12 -1.05031e+13 -1.46285e+13 -1.16103e+13 -7.44091e+12 -4.2288e+12 -12549700000.0 -2.18954e+12 -4.42513e+12 -7.23941e+12 -4.72866e+12 -5.74165e+12 -6.025e+12 -6.12508e+12 -4.66892e+12 -3.96694e+12 -7.20489e+12 -2.42643e+12 -6.23548e+12 -6.49478e+12 -5.32035e+12 -4.41758e+12 -6.48564e+12 -2.85651e+12 -4.69723e+12 -2.56339e+12 -6.28456e+12 -6.69305e+12 -4.11577e+12 -6.22997e+12 -6.57355e+12 -4.79746e+12 -7.39482e+12 -8.39239e+12 -2.05442e+12 -9.83785e+12 -4.26537e+12 -3.58656e+12 -6.89098e+12 -2.76231e+12 -5.88165e+12 -1.11373e+13 -7.02652e+12 -7.22621e+12 -6.75421e+12 -8.32946e+12 -8.44581e+12 -5.40679e+12 -12549700000.0 -4.24183e+12 -3.93017e+12 -3.24296e+12 -2.80373e+12 -4.95725e+12 -3.24993e+12 -4.94613e+12 -3.74952e+12 -3.9311e+12 -7.83301e+12 -3.96305e+12 -7.86171e+12 -6.48196e+12 -5.31042e+12 -4.27367e+12 -6.88373e+12 -6.1245e+12 -6.47149e+12 -7.71034e+12 -6.41246e+12 -6.79237e+12 -4.52277e+12 -5.19193e+12 -4.71313e+12 -3.59099e+12 -7.05409e+12 -8.90229e+12 -3.44136e+12 -4.00308e+12 -7.50088e+12 -4.0856e+12 -5.41097e+12 -3.82712e+12 -5.85443e+12 -6.02749e+12 -4.82134e+12 -9.15617e+12 -1.03079e+13 -5.64835e+12 -8.80923e+12 -8.31754e+12 -2.78472e+12 -3.47656e+12 -3.42219e+12 -4.06606e+12 -6.74877e+12 -5.40723e+12 -7.34167e+12 -9.38588e+12 -5.28715e+12 -4.46207e+12 -6.56842e+12 -4.20471e+12 -6.55919e+12 -4.33926e+12 -9.0239e+12 -6.94562e+12 -6.07886e+12 -8.79275e+12 -3.30234e+12 -5.53137e+12 -6.98483e+12 -3.88189e+12 -8.21455e+12 -9.79081e+12 -9.09748e+12 -5.35995e+12 -4.29562e+12 -2.81933e+12 -5.63134e+12 -3.58159e+12 -8.36976e+12 -3.84944e+12 -5.13779e+12 -6.15613e+12 -8.50188e+12 -6.81541e+12 -5.26555e+12 -8.85732e+12 -6.28882e+12 -9.13824e+12 -8.07839e+12 -5.86073e+12 -4.58315e+12 -4.77774e+12 -4.16165e+12 -5.34414e+12 -4.84924e+12 -6.42631e+12 -5.4899e+12 -1.01228e+13 -1.20284e+13 -6.3354e+12 -5.79663e+12 -6.58682e+12 -9.36336e+12 -6.13521e+12 -6.20399e+12 -4.75247e+12 -1.25968e+13 -4.34008e+12 -5.69472e+12 -4.78905e+12 -7.92993e+12 -8.26787e+12 -8.01395e+12 -5.0705e+12 -9.80779e+12 -9.33453e+12 -4.71251e+12 -8.31249e+12 -7.84081e+12 -7.40399e+12 -6.21193e+12 -6.59655e+12 -5.22552e+12 -5.23325e+12 -6.02498e+12 -5.0864e+12 -6.33654e+12 -6.62917e+12 -3.8293e+12 -3.36893e+12 -4.27064e+12 -12549700000.0 -2.89851e+12 -6.51512e+12 -4.33912e+12 -5.9338e+12 -4.93213e+12 -9.78841e+12 -5.14865e+12 -1.01026e+13 -7.73658e+12 -5.24238e+12 -7.81711e+12 -9.05459e+12 -5.1483e+12 -1.03475e+13 -6.25485e+12 -7.96957e+12 -6.77614e+12 -8.36469e+12 -7.5768e+12 -1.00347e+13 -1.0099e+13 -7.18882e+12 -6.71483e+12 -1.20488e+13 -4.97742e+12 -1.02117e+13 -5.48002e+12 -7.04361e+12 -4.12623e+12 -4.61453e+12 -7.1326e+12 -8.24688e+12 -5.95186e+12 -4.55878e+12 -5.11247e+12 -6.43325e+12 -5.03685e+12 -5.55873e+12 -12549700000.0 -12549700000.0 -3.97256e+12 -4.03353e+12 -2.53156e+12 -7.7486e+12 -7.61737e+12 -7.58356e+12 -4.44905e+12 -7.90648e+12 -9.4487e+12 -6.30529e+12 -6.80588e+12 -9.06644e+12 -6.86977e+12 -5.19965e+12 -5.94e+12 -2.95481e+12 -5.87348e+12 -4.16894e+12 -5.68458e+12 -6.47171e+12 -8.11135e+12 -9.84935e+12 -6.40132e+12 -6.10371e+12 -4.96811e+12 -4.84283e+12 -5.70045e+12 -8.78921e+12 -5.83828e+12 -7.06935e+12 -9.24864e+12 -5.9018e+12 -4.7941e+12 -5.27604e+12 -6.66305e+12 -8.41657e+12 -1.01749e+13 -5.30812e+12 -5.06592e+12 -5.15715e+12 -1.11916e+13 -9.00811e+12 -7.9345e+12 -2.5094e+12 -3.37577e+12 -6.43639e+12 -6.64659e+12 -5.70146e+12 -1.09704e+13 -6.58468e+12 -7.09756e+12 -6.85756e+12 -8.63875e+12 -7.98635e+12 -1.29446e+13 -4.62177e+12 -9.77751e+12 -8.30058e+12 -7.46875e+12 -3.70024e+12 -9.37659e+12 -3.11758e+12 -5.78625e+12 -2.19182e+12 -7.12505e+12 -4.78961e+12 -7.56399e+12 -8.17568e+12 -7.6758e+12 -6.169e+12 -1.01357e+13 -4.83579e+12 -8.03021e+12 -7.26667e+12 -7.13969e+12 -5.38665e+12 -6.74977e+12 -7.77787e+12 -4.82467e+12 -5.86021e+12 -8.80129e+12 -5.73454e+12 -1.07233e+13 -4.34932e+12 -7.09621e+12 -3.48801e+12 -3.38082e+12 -7.64213e+12 -6.88525e+12 -4.45617e+12 -6.82281e+12 -4.14767e+12 -4.23928e+12 -6.2154e+12 -7.01422e+12 -6.24355e+12 -6.2946e+12 -6.35973e+12 -5.77081e+12 -1.36643e+13 -5.69891e+12 -8.04891e+12 -8.48703e+12 -4.7893e+12 -7.12988e+12 -7.22787e+12 -4.69901e+12 -4.36511e+12 -5.85303e+12 -8.54091e+12 -1.13603e+13 -9.06642e+12 -5.44759e+12 -7.75435e+12 -1.07574e+13 -7.09661e+12 -4.85277e+12 -3.22987e+12 -1.23609e+13 -8.4889e+12 -8.04001e+12 -6.13813e+12 -8.59505e+12 -6.34204e+12 -4.96655e+12 -6.58857e+12 -4.71684e+12 -3.72845e+12 -4.35642e+12 -2.82361e+12 -4.13364e+12 -4.21723e+12 -7.38393e+12 -6.92598e+12 -4.57761e+12 -6.66865e+12 -7.84765e+12 -6.67243e+12 -5.21842e+12 -7.35486e+12 -1.06634e+13 -8.28499e+12 -9.54631e+12 -7.98056e+12 -1.17508e+13 -7.65906e+12 -7.64531e+12 -5.38263e+12 -8.12308e+12 -4.07461e+12 -9.02992e+12 -1.39291e+13 -1.06168e+13 -7.12867e+12 -6.45924e+12 -7.50549e+12 -8.1948e+12 -6.27057e+12 -3.4505e+12 -5.45504e+12 -8.17426e+12 -7.79245e+12 -5.90181e+12 -7.4946e+12 -6.15322e+12 -8.78617e+12 -4.64139e+12 -3.33575e+12 -8.61199e+12 -6.19684e+12 -6.77943e+12 -8.58461e+12 -5.60547e+12 -8.24005e+12 -3.49179e+12 -8.42754e+12 -12549700000.0 -6.33932e+12 -4.82715e+12 -1.03676e+13 -8.19684e+12 -8.28562e+12 -6.33908e+12 -7.8752e+12 -1.05396e+13 -8.37257e+12 -7.86466e+12 -8.95965e+12 -8.08464e+12 -8.60032e+12 -5.11694e+12 -6.29918e+12 -6.56159e+12 -8.302e+12 -6.25456e+12 -6.86449e+12 -5.94942e+12 -5.98963e+12 -7.3754e+12 -5.62976e+12 -9.25007e+12 -5.99017e+12 -6.76995e+12 -8.49002e+12 -1.09452e+13 -6.14645e+12 -3.20289e+12 -8.13778e+12 -4.66396e+12 -6.3743e+12 -4.30332e+12 -5.66062e+12 -5.75297e+12 -7.15084e+12 -6.67453e+12 -6.02451e+12 -6.08702e+12 -5.732e+12 -6.94352e+12 -5.91985e+12 -3.62867e+12 -4.24961e+12 -12549700000.0 -3.33136e+12 -5.61591e+12 -7.18157e+12 -8.27295e+12 -8.51996e+12 -9.95741e+12 -7.61768e+12 -8.00161e+12 -4.85334e+12 -8.39776e+12 -9.39923e+12 -5.3432e+12 -6.14262e+12 -6.22167e+12 -6.38635e+12 -3.44281e+12 -3.33561e+12 -7.02215e+12 -6.47705e+12 -7.26287e+12 -1.18934e+13 -8.16809e+12 -8.0134e+12 -8.70301e+12 -8.55604e+12 -7.50022e+12 -9.59853e+12 -4.92274e+12 -6.05471e+12 -9.91612e+12 -9.12581e+12 -1.00257e+13 -9.07895e+12 -7.62495e+12 -1.14619e+13 -1.06141e+13 -8.40934e+12 -8.59319e+12 -1.00404e+13 -9.74716e+12 -5.76464e+12 -5.51116e+12 -3.61215e+12 -6.90266e+12 -12549700000.0 -3.38497e+12 -8.20766e+12 -7.57279e+12 -8.29954e+12 -5.44664e+12 -9.5113e+12 -7.41344e+12 -7.887e+12 -4.16852e+12 -3.54678e+12 -7.57552e+12 -5.75584e+12 -7.92252e+12 -7.08124e+12 -7.97074e+12 -5.74412e+12 -7.39824e+12 -7.39114e+12 -9.4547e+12 -1.16183e+13 -5.78286e+12 -1.7195e+13 -1.00004e+13 -6.22458e+12 -1.04515e+13 -9.86029e+12 -4.7785e+12 -8.76194e+12 -5.88911e+12 -7.63693e+12 -6.70448e+12 -9.9411e+12 -7.36727e+12 -6.66556e+12 -7.16021e+12 -5.32438e+12 -5.75121e+12 -6.07429e+12 -4.84114e+12 -2.68536e+12 -9.30793e+12 -9.73764e+12 -4.41804e+12 -3.86088e+12 -3.80699e+12 -1.8291e+12 -7.15913e+12 -4.43011e+12 -9.98513e+12 -5.51708e+12 -8.41885e+12 -5.96619e+12 -7.36502e+12 -7.30246e+12 -5.74919e+12 -4.74157e+12 -9.97433e+12 -6.64869e+12 -9.03149e+12 -5.87806e+12 -8.0286e+12 -1.17434e+13 -1.15017e+13 -7.41246e+12 -6.16838e+12 -7.42789e+12 -8.30491e+12 -5.81298e+12 -8.45886e+12 -6.40016e+12 -5.09652e+12 -1.08363e+13 -5.92849e+12 -9.15901e+12 -9.91139e+12 -6.9244e+12 -8.00345e+12 -3.17713e+12 -8.60139e+12 -8.05162e+12 -6.8055e+12 -7.11829e+12 -9.17873e+12 -7.36041e+12 -6.06689e+12 -4.46864e+12 -5.39059e+12 -5.47524e+12 -6.6904e+12 -7.56485e+12 -9.01304e+12 -4.20477e+12 -7.58142e+12 -4.19884e+12 -4.0494e+12 -4.58847e+12 -3.51514e+12 -6.09814e+12 -1.01273e+13 -1.24052e+13 -4.74126e+12 -8.86763e+12 -5.30673e+12 -8.03076e+12 -7.00949e+12 -4.7052e+12 -5.11235e+12 -6.76108e+12 -4.9175e+12 -7.389e+12 -4.42722e+12 -1.09285e+13 -7.48451e+12 -9.07354e+12 -3.13593e+12 -4.72459e+12 -4.23842e+12 -5.38439e+12 -5.50525e+12 -4.38589e+12 -1.10852e+13 -7.11328e+12 -8.15647e+12 -4.72069e+12 -1.00848e+13 -5.04113e+12 -5.58701e+12 -6.09907e+12 -8.14249e+12 -8.21171e+12 -1.25897e+13 -6.03178e+12 -7.9686e+12 -1.11172e+13 -6.34793e+12 -8.21244e+12 -6.24065e+12 -1.09373e+13 -1.12143e+13 -8.11308e+12 -7.80719e+12 -7.42505e+12 -9.22339e+12 -5.95107e+12 -7.5706e+12 -6.32481e+12 -4.62355e+12 -6.97788e+12 -4.63312e+12 -7.33941e+12 -5.06108e+12 -9.37682e+12 -1.10085e+13 -1.61356e+13 -8.91337e+12 -6.07489e+12 -1.09138e+13 -1.30385e+13 -8.75646e+12 -9.18805e+12 -5.58486e+12 -8.16765e+12 -5.59468e+12 -5.38694e+12 -5.00071e+12 -7.27569e+12 -8.15693e+12 -7.39891e+12 -3.57866e+12 -4.84806e+12 -7.95446e+12 -6.75925e+12 -9.25364e+12 -7.61548e+12 -9.26637e+12 -5.24521e+12 -4.19978e+12 -5.88345e+12 -1.25838e+13 -5.74856e+12 -7.61704e+12 -9.99901e+12 -6.58006e+12 -1.0326e+13 -5.4528e+12 -8.41935e+12 -8.43123e+12 -3.52893e+12 -5.88658e+12 -6.22766e+12 -5.07533e+12 -5.58593e+12 -1.27909e+13 -4.8394e+12 -1.08025e+13 -6.82955e+12 -5.82094e+12 -9.21012e+12 -8.13502e+12 -5.75328e+12 -9.20577e+12 -7.10201e+12 -1.03409e+13 -3.63867e+12 -6.35703e+12 -6.47062e+12 -8.30708e+12 -6.47639e+12 -7.43558e+12 -1.24925e+13 -7.87601e+12 -9.97957e+12 -1.03257e+13 -6.52056e+12 -9.21914e+12 -7.81042e+12 -1.02759e+13 -7.01317e+12 -7.72492e+12 -3.98826e+12 -8.0834e+12 -8.6563e+12 -1.19133e+13 -7.11477e+12 -1.21686e+13 -6.48652e+12 -5.14773e+12 -1.36612e+13 -8.82171e+12 -5.52648e+12 -1.23849e+13 -7.8112e+12 -6.77121e+12 -1.06505e+13 -1.18528e+13 -7.90886e+12 -6.89733e+12 -8.27214e+12 -7.94535e+12 -9.4804e+12 -5.45057e+12 -8.52732e+12 -5.05704e+12 -7.49367e+12 -7.6016e+12 -4.11008e+12 -4.97399e+12 -1.10872e+13 -1.02658e+13 -5.47267e+12 -9.57833e+12 -8.48706e+12 -1.04968e+13 -9.64886e+12 -8.54379e+12 -1.01454e+13 -1.41207e+13 -8.82688e+12 -1.67729e+13 -7.39557e+12 -8.73964e+12 -6.54477e+12 -1.22721e+13 -3.70429e+12 -5.02005e+12 -8.88477e+12 -7.75721e+12 -1.32134e+13 -4.09403e+12 -1.06906e+13 -1.228e+13 -1.35698e+13 -8.67882e+12 -3.68833e+12 -7.411e+12 -6.59996e+12 -6.23497e+12 -6.20901e+12 -1.02428e+13 -1.04797e+13 -8.95826e+12 -6.43975e+12 -1.05121e+13 -6.11211e+12 -1.13268e+13 -6.1325e+12 -7.41588e+12 -6.22966e+12 -8.75821e+12 -5.88196e+12 -5.66166e+12 -5.1787e+12 -9.81818e+12 -1.17406e+13 -7.71745e+12 -1.10074e+13 -5.87306e+12 -6.19856e+12 -8.99951e+12 -4.15821e+12 -7.94485e+12 -1.08833e+13 -1.23987e+13 -6.89911e+12 -6.93046e+12 -1.24779e+13 -1.01434e+13 -4.11883e+12 -2.93998e+12 -6.9893e+12 -7.27011e+12 -7.92721e+12 -7.67698e+12 -1.09046e+13 -1.21307e+13 -7.7207e+12 -6.80818e+12 -5.63335e+12 -7.86357e+12 -9.42942e+12 -9.54762e+12 -6.58077e+12 -6.54615e+12 -6.13858e+12 -1.02658e+13 -1.05731e+13 -1.44087e+13 -9.64312e+12 -8.86882e+12 -9.09535e+12 -8.7216e+12 -1.13767e+13 -1.34442e+13 -9.3363e+12 -1.02693e+13 -1.18437e+13 -7.95356e+12 -8.17778e+12 -1.21118e+13 -6.91246e+12 -5.0196e+12 -7.40504e+12 -1.03914e+13 -1.15197e+13 -1.68697e+13 -1.31365e+13 -1.01114e+13 -7.44009e+12 -1.23048e+13 -9.92706e+12 -1.56309e+13 -7.47588e+12 -5.79166e+12 -1.05501e+13 -8.45122e+12 -1.04133e+13 -9.90967e+12 -1.02626e+13 -5.49874e+12 -3.73006e+12 -8.69791e+12 -1.05559e+13 -6.97218e+12 -8.80753e+12 -1.00051e+13 -1.02991e+13 -9.34774e+12 -1.08233e+13 -1.25837e+13 -9.3878e+12 -9.85938e+12 -8.93864e+12 -9.2808e+12 -9.98947e+12 -6.80142e+12 -7.74618e+12 -7.7291e+12 -3.49271e+12 -9.44512e+12 -7.34711e+12 -5.79883e+12 -5.5499e+12 -9.58172e+12 -9.02806e+12 -1.03363e+13 -5.71225e+12 -7.51293e+12 -1.22995e+13 -1.48258e+13 -6.5403e+12 -6.4762e+12 -7.69878e+12 -4.42963e+12 -1.06013e+13 -4.77826e+12 -8.23321e+12 -9.63206e+12 -1.08374e+13 -9.53086e+12 -1.18431e+13 -9.73967e+12 -9.1373e+12 -1.15214e+13 -8.49425e+12 -1.1581e+13 -9.98488e+12 -9.9907e+12 -8.87535e+12 -1.57175e+13 -3.8233e+12 -1.13886e+13 -1.10711e+13 -9.35998e+12 -8.15761e+12 -7.16813e+12 -3.88214e+12 -5.16854e+12 -3.28444e+12 -8.97311e+12 -8.76195e+12 -6.7474e+12 -1.04345e+13 -1.56706e+13 -1.17959e+13 -7.24703e+12 -7.54959e+12 -7.23337e+12 -1.26392e+13 -9.35844e+12 -8.05312e+12 -1.32669e+13 -7.60557e+12 -7.44767e+12 -1.07008e+13 -1.34483e+13 -9.74832e+12 -1.07705e+13 -9.58152e+12 -1.26547e+13 -9.32012e+12 -8.11993e+12 -3.19558e+12 -8.71386e+12 -6.21433e+12 -9.9422e+12 -7.85622e+12 -9.44134e+12 -6.14884e+12 -1.39804e+13 -8.5644e+12 -1.12376e+13 -5.10257e+12 -1.0666e+13 -1.00582e+13 -7.51265e+12 -7.14844e+12 -2.99172e+12 -6.44287e+12 -9.50471e+12 -7.07667e+12 -9.48116e+12 -1.28409e+13 -9.36383e+12 -5.08757e+12 -1.27109e+13 -5.00051e+12 -4.48223e+12 -5.25498e+12 -6.4257e+12 -7.69346e+12 -3.59063e+12 -5.24809e+12 -5.63135e+12 -6.53484e+12 -1.10892e+13 -4.69657e+12 -9.68777e+12 -6.55287e+12 -6.77206e+12 -7.61508e+12 -1.00999e+13 -4.91175e+12 -2.72705e+12 -8.19115e+12 -8.88984e+12 -6.47572e+12 -8.74694e+12 -8.99246e+12 -8.33747e+12 -8.60494e+12 -1.1965e+13 -1.0405e+13 -9.70528e+12 -1.37297e+13 -1.68544e+13 -1.38558e+13 -9.57893e+12 -7.75632e+12 -5.49017e+12 -5.98906e+12 -1.31852e+13 -2.7864e+12 -4.33421e+12 -4.436e+12 -6.71151e+12 -1.1392e+13 -4.37629e+12 -7.7164e+12 -7.73556e+12 -1.30929e+13 -6.83835e+12 -8.70471e+12 -8.77936e+12 -7.46086e+12 -1.00762e+13 -6.76117e+12 -8.61499e+12 -5.97446e+12 -8.4673e+12 -7.27628e+12 -1.14312e+13 -1.01022e+13 -6.40574e+12 -8.80027e+12 -1.22683e+13 -1.18418e+13 -3.52848e+12 -6.68431e+12 -1.23332e+13 -7.01426e+12 -6.38612e+12 -5.57373e+12 -6.70612e+12 -4.70282e+12 -7.50604e+12 -1.03559e+13 -6.65397e+12 -8.07634e+12 -7.01072e+12 -9.06159e+12 -1.55871e+13 -6.6019e+12 -9.92252e+12 -7.74262e+12 -8.12825e+12 -1.20355e+13 -7.99548e+12 -7.74056e+12 -1.04451e+13 -4.77002e+12 -5.32536e+12 -5.18612e+12 -8.8373e+12 -9.70819e+12 -1.04406e+13 -5.15997e+12 -8.23037e+12 -5.98255e+12 -8.60794e+12 -3.96933e+12 -8.17455e+12 -9.1249e+12 -6.16787e+12 -6.52802e+12 -3.85345e+12 -3.2606e+12 -7.98171e+12 -8.59035e+12 -7.47899e+12 -4.42923e+12 -5.1818e+12 -6.78075e+12 -3.95295e+12 -4.71275e+12 -7.18906e+12 -6.96961e+12 -6.32126e+12 -5.57829e+12 -5.73108e+12 -9.09052e+12 -1.08849e+13 -8.11466e+12 -8.75505e+12 -7.00611e+12 -4.85138e+12 -5.79525e+12 -9.21177e+12 -6.63474e+12 -7.17015e+12 -5.26144e+12 -4.95939e+12 -8.62922e+12 -9.21615e+12 -9.80647e+12 -6.52566e+12 -8.21839e+12 -4.48636e+12 -7.89317e+12 -9.3506e+12 -8.18397e+12 -4.48259e+12 -1.12519e+13 -8.2105e+12 -4.68785e+12 -1.12977e+13 -1.06816e+13 -1.29533e+13 -6.30878e+12 -8.56613e+12 -5.39645e+12 -6.90166e+12 -5.35558e+12 -1.07165e+13 -6.19096e+12 -4.73753e+12 -4.99357e+12 -8.20619e+12 -8.69524e+12 -9.73255e+12 -1.10712e+13 -7.98426e+12 -1.05062e+13 -1.40524e+13 -7.38629e+12 -1.46529e+13 -1.12958e+13 -4.83261e+12 -5.97721e+12 -2.9926e+12 -5.60114e+12 -7.19381e+12 -4.2769e+12 -5.83118e+12 -6.24199e+12 -9.84834e+12 -8.21621e+12 -1.35479e+13 -8.82425e+12 -1.40545e+13 -1.34238e+13 -6.68567e+12 -4.27084e+12 -7.3177e+12 -5.96395e+12 -8.78495e+12 -1.31556e+13 -5.10114e+12 -7.86564e+12 -8.69106e+12 -1.11669e+13 -8.33588e+12 -5.01384e+12 -7.54145e+12 -7.30796e+12 -8.449e+12 -1.13434e+13 -6.70479e+12 -1.08283e+13 -7.60451e+12 -7.67095e+12 -6.83568e+12 -4.76839e+12 -9.61288e+12 -5.52901e+12 -4.61464e+12 -9.50315e+12 -1.20834e+13 -6.43863e+12 -6.9761e+12 -5.71828e+12 -9.28044e+12 -5.96918e+12 -6.33787e+12 -1.16794e+13 -9.58678e+12 -4.06126e+12 -1.0869e+13 -5.98738e+12 -9.88875e+12 -6.70561e+12 -9.55562e+12 -6.09316e+12 -8.00505e+12 -9.51859e+12 -5.93102e+12 -8.32245e+12 -9.40094e+12 -8.66762e+12 -1.09407e+13 -4.28098e+12 -6.83814e+12 -1.30918e+13 -8.39025e+12 -7.07404e+12 -2.05e+12 -3.43976e+12 -3.16314e+12 -5.26274e+12 -6.52482e+12 -7.20781e+12 -9.79081e+12 -8.06511e+12 -9.18035e+12 -1.19972e+13 -5.27152e+12 -8.9569e+12 -8.13035e+12 -9.56881e+12 -9.07044e+12 -8.67447e+12 -8.68949e+12 -8.60992e+12 -4.81664e+12 -1.26377e+13 -6.6016e+12 -8.93881e+12 -1.01285e+13 -7.99704e+12 -7.16032e+12 -1.31072e+13 -9.07322e+12 -6.3062e+12 -6.23498e+12 -3.97035e+12 -9.0218e+12 -5.15518e+12 -1.09814e+13 -6.41913e+12 -8.53904e+12 -7.31149e+12 -1.22639e+13 -7.63764e+12 -9.43761e+12 -9.79691e+12 -1.03608e+13 -5.52117e+12 -8.59927e+12 -6.13505e+12 -8.41395e+12 -6.51001e+12 -6.55249e+12 -7.74767e+12 -1.30822e+13 -4.98176e+12 -6.84474e+12 -7.62526e+12 -1.06055e+13 -9.82643e+12 -6.54911e+12 -1.04785e+13 -8.21744e+12 -5.40832e+12 -6.17727e+12 -7.5415e+12 -5.01532e+12 -5.90725e+12 -7.12419e+12 -4.91909e+12 -8.1323e+12 -8.41688e+12 -6.2818e+12 -5.79837e+12 -1.35607e+13 -9.77148e+12 -5.44449e+12 -6.92626e+12 -6.30705e+12 -7.292e+12 -6.86333e+12 -5.74184e+12 -7.76644e+12 -1.16752e+13 -5.3687e+12 -5.55947e+12 -1.20965e+13 -8.15006e+12 -1.09502e+13 -8.7517e+12 -1.09085e+13 -6.55792e+12 -4.12166e+12 -6.65786e+12 -2.68992e+12 -8.94638e+12 -5.56749e+12 -1.06116e+13 -1.18108e+13 -1.4404e+13 -4.25274e+12 -5.69321e+12 -6.57221e+12 -5.72236e+12 -5.3503e+12 -6.04159e+12 -5.09069e+12 -1.11979e+13 -1.25075e+13 -6.5373e+12 -4.75453e+12 -1.28301e+13 -6.32845e+12 -1.24404e+13 -8.03275e+12 -1.14361e+13 -7.10848e+12 -8.05788e+12 -6.31296e+12 -1.25841e+13 -3.29467e+12 -1.20797e+13 -9.84411e+12 -1.16879e+13 -5.53476e+12 -1.11182e+13 -6.41045e+12 -1.43039e+13 -8.84915e+12 -6.55562e+12 -1.29871e+13 -3.41237e+12 -7.47218e+12 -1.11252e+13 -1.08264e+13 -8.26657e+12 -4.20091e+12 -4.19727e+12 -1.10492e+13 -9.52658e+12 -8.49078e+12 -8.30513e+12 -1.03681e+13 -1.15708e+13 -1.14334e+13 -5.83838e+12 -5.17903e+12 -6.93595e+12 -7.21543e+12 -7.29209e+12 -1.24192e+13 -1.08173e+13 -1.14403e+13 -1.22752e+13 -1.29935e+13 -6.80996e+12 -9.55526e+12 -6.70857e+12 -4.48981e+12 -8.27073e+12 -9.11214e+12 -9.44844e+12 -8.12274e+12 -8.40673e+12 -7.12748e+12 -1.10711e+13 -6.46405e+12 -7.10036e+12 -7.75574e+12 -3.54484e+12 -8.38857e+12 -8.31928e+12 -5.97286e+12 -8.41037e+12 -5.29158e+12 -4.13678e+12 -8.16415e+12 -7.41406e+12 -8.43833e+12 -1.28605e+13 -8.88527e+12 -1.08315e+13 -1.29662e+13 -6.38224e+12 -5.63025e+12 -6.8215e+12 -1.22888e+13 -4.41421e+12 -4.63139e+12 -8.48978e+12 -8.24478e+12 -7.50476e+12 -8.67592e+12 -6.145e+12 -8.74115e+12 -5.69225e+12 -1.1869e+13 -8.88358e+12 -1.02613e+13 -8.55461e+12 -8.70254e+12 -5.9838e+12 -4.86526e+12 -8.24431e+12 -9.51678e+12 -9.12411e+12 -5.02734e+12 -8.35919e+12 -7.07646e+12 -4.51361e+12 -7.45957e+12 -9.73808e+12 -7.83627e+12 -9.90695e+12 -8.38655e+12 -7.10782e+12 -1.35911e+13 -7.13414e+12 -6.49638e+12 -6.79512e+12 -6.91473e+12 -6.65684e+12 -7.8313e+12 -1.02591e+13 -7.36071e+12 -8.71764e+12 -9.6965e+12 -8.28499e+12 -9.06363e+12 -8.87513e+12 -1.54665e+13 -4.78695e+12 -1.16022e+13 -1.05821e+13 -8.88668e+12 -7.14737e+12 -9.31631e+12 -8.76e+12 -5.74378e+12 -7.36896e+12 -1.28626e+13 -6.65007e+12 -4.83385e+12 -1.32969e+13 -1.03146e+13 -8.8259e+12 -8.49376e+12 -8.62166e+12 -9.71118e+12 -7.9566e+12 -8.07948e+12 -7.89958e+12 -9.62712e+12 -9.49017e+12 -5.25854e+12 -9.73041e+12 -5.79439e+12 -8.20215e+12 -9.45062e+12 -1.01978e+13 -1.09195e+13 -5.83194e+12 -1.03069e+13 -6.98048e+12 -1.20623e+13 -9.26152e+12 -9.81913e+12 -7.63332e+12 -6.14912e+12 -7.09819e+12 -8.55371e+12 -9.67465e+12 -7.29831e+12 -6.29845e+12 -7.29791e+12 -9.94648e+12 -6.58702e+12 -7.37589e+12 -5.70315e+12 -6.67948e+12 -9.62684e+12 -1.311e+13 -9.03819e+12 -8.53096e+12 -7.27349e+12 -6.9859e+12 -9.04104e+12 -5.76852e+12 -1.00159e+13 -1.13285e+13 -6.73446e+12 -5.07753e+12 -4.62153e+12 -1.41474e+13 -5.51882e+12 -6.68052e+12 -1.08424e+13 -1.10601e+13 -5.28259e+12 -8.15496e+12 -7.10604e+12 -5.28795e+12 -7.64403e+12 -6.75093e+12 -6.4528e+12 -1.1026e+13 -7.30724e+12 -5.14213e+12 -6.13039e+12 -1.06972e+13 -7.31265e+12 -4.55519e+12 -7.47304e+12 -7.00797e+12 -1.03543e+13 -4.12605e+12 -4.77306e+12 -8.6702e+12 -7.6841e+12 -8.85814e+12 -8.77926e+12 -7.67191e+12 -7.25589e+12 -7.50915e+12 -8.78967e+12 -6.61479e+12 -8.34199e+12 -6.29376e+12 -8.97056e+12 -9.08858e+12 -7.08557e+12 -4.79309e+12 -5.35326e+12 -4.02958e+12 -6.64374e+12 -1.03266e+13 -8.00427e+12 -4.30879e+12 -8.93828e+12 -6.13942e+12 -1.05718e+13 -5.67936e+12 -4.97866e+12 -8.5196e+12 -7.58463e+12 -9.17907e+12 -7.654e+12 -5.17677e+12 -7.68004e+12 -9.04111e+12 -1.16497e+13 -1.26763e+13 -1.12819e+13 -4.57389e+12 -6.9208e+12 -6.67918e+12 -7.9334e+12 -1.46574e+13 -7.20364e+12 -8.71344e+12 -4.16259e+12 -1.18008e+13 -8.522e+12 -1.00018e+13 -2.25294e+12 -1.04991e+13 -1.03351e+13 -1.05494e+13 -9.74119e+12 -8.54804e+12 -7.60112e+12 -7.82749e+12 -7.9329e+12 -5.72117e+12 -7.98636e+12 -6.3771e+12 -8.25131e+12 -5.03315e+12 -8.04944e+12 -6.90632e+12 -4.2653e+12 -2.81928e+12 -8.15752e+12 -8.6048e+12 -4.53374e+12 -9.38514e+12 -7.27809e+12 -1.19945e+13 -1.39902e+13 -2.78703e+12 -6.64366e+12 -8.36378e+12 -5.99986e+12 -4.91946e+12 -4.82757e+12 -8.01388e+12 -6.78177e+12 -5.35379e+12 -1.26549e+13 -5.10995e+12 -7.48279e+12 -6.53146e+12 -9.377e+12 -1.13805e+13 -7.97247e+12 -1.03712e+13 -2.81255e+12 -1.12894e+13 -3.99558e+12 -8.24843e+12 -3.9703e+12 -8.71514e+12 -4.53517e+12 -1.10152e+13 -5.81195e+12 -1.08747e+13 -8.26935e+12 -7.47532e+12 -8.36129e+12 -8.30005e+12 -7.07014e+12 -1.06302e+13 -3.45526e+12 -8.70668e+12 -8.54102e+12 -5.50141e+12 -5.81446e+12 -6.14839e+12 -6.38645e+12 -4.40436e+12 -4.29159e+12 -5.3713e+12 -7.15507e+12 -6.26849e+12 -9.57292e+12 -7.14711e+12 -8.42344e+12 -7.98956e+12 -5.44239e+12 -5.92029e+12 -6.53943e+12 -7.67445e+12 -1.04339e+13 -8.69684e+12 -9.39387e+12 -7.73184e+12 -5.31921e+12 -7.99725e+12 -7.73555e+12 -6.4398e+12 -3.31603e+12 -4.85459e+12 -5.52831e+12 -8.70213e+12 -4.87902e+12 -1.14923e+13 -7.04437e+12 -8.7566e+12 -5.38149e+12 -5.95266e+12 -2.9091e+12 -7.06066e+12 -9.07963e+12 -4.38086e+12 -6.26392e+12 -4.8363e+12 -4.83752e+12 -4.82917e+12 -5.86763e+12 -2.82245e+12 -4.88581e+12 -6.30449e+12 -6.91754e+12 -1.18021e+13 -1.07775e+13 -1.04131e+13 -5.20161e+12 -8.34818e+12 -8.89594e+12 -8.85938e+12 -1.03891e+13 -6.76517e+12 -9.50429e+12 -6.05472e+12 -5.88791e+12 -6.87354e+12 -3.6592e+12 -6.89063e+12 -1.22669e+13 -1.4319e+13 -7.27478e+12 -1.1283e+13 -1.23191e+13 -7.71631e+12 -6.68741e+12 -7.66403e+12 -8.50344e+12 -5.25434e+12 -1.29507e+13 -1.05756e+13 -6.05058e+12 -8.7248e+12 -9.2764e+12 -9.75956e+12 -1.09511e+13 -6.45456e+12 -3.07164e+12 -4.6458e+12 -2.69663e+12 -5.71116e+12 -7.64011e+12 -6.55565e+12 -8.65376e+12 -6.75e+12 -8.61909e+12 -5.08524e+12 -9.17776e+12 -6.95299e+12 -6.06484e+12 -8.62788e+12 -1.02207e+13 -4.98143e+12 -8.46699e+12 -1.39589e+13 -1.05027e+13 -1.04487e+13 -1.00585e+13 -1.05509e+13 -8.76944e+12 -8.09914e+12 -9.89404e+12 -7.51343e+12 -5.45421e+12 -6.06121e+12 -1.62602e+13 -5.71125e+12 -1.07122e+13 -8.02485e+12 -6.68172e+12 -6.69898e+12 -8.76758e+12 -1.02202e+13 -9.89082e+12 -5.86704e+12 -7.35559e+12 -9.62068e+12 -6.13071e+12 -7.60983e+12 -9.61608e+12 -9.43094e+12 -6.07915e+12 -6.77684e+12 -6.94996e+12 -4.38745e+12 -4.93623e+12 -1.2272e+13 -6.21869e+12 -5.14056e+12 -6.32703e+12 -6.24702e+12 -6.21561e+12 -1.2492e+13 -6.36411e+12 -5.60942e+12 -6.06954e+12 -5.23678e+12 -5.7126e+12 -7.28682e+12 -6.34619e+12 -7.40944e+12 -1.20045e+13 -7.43196e+12 -6.6984e+12 -4.06147e+12 -4.03728e+12 -6.08704e+12 -1.08457e+13 -4.93182e+12 -6.47116e+12 -7.07263e+12 -7.15474e+12 -3.54014e+12 -6.38058e+12 -1.00826e+13 -6.18309e+12 -7.3332e+12 -6.29356e+12 -5.93987e+12 -4.06506e+12 -8.2994e+12 -6.68401e+12 -9.44734e+12 -5.08704e+12 -1.2051e+13 -8.1043e+12 -6.3157e+12 -4.68469e+12 -5.51807e+12 -5.63987e+12 -1.50354e+13 -2.89923e+12 -8.54037e+12 -6.15133e+12 -4.94057e+12 -5.2256e+12 -1.0374e+13 -7.0666e+12 -1.16479e+13 -8.10142e+12 -6.31121e+12 -5.74989e+12 -5.92713e+12 -7.50634e+12 -4.40901e+12 -6.3582e+12 -6.55198e+12 -8.3394e+12 -8.07857e+12 -6.92541e+12 -6.18352e+12 -1.08588e+13 -4.3797e+12 -7.39204e+12 -8.62474e+12 -5.29399e+12 -8.83806e+12 -6.55504e+12 -7.4852e+12 -5.0871e+12 -9.32649e+12 -7.52022e+12 -8.16671e+12 -1.043e+13 -5.0901e+12 -7.65009e+12 -9.02964e+12 -1.08703e+13 -8.46575e+12 -5.1343e+12 -4.20953e+12 -5.49465e+12 -6.40435e+12 -5.33195e+12 -4.42263e+12 -4.76414e+12 -6.07202e+12 -1.10048e+13 -6.61022e+12 -7.57099e+12 -8.40603e+12 -1.28545e+13 -1.93748e+13 -4.77309e+12 -6.76533e+12 -1.59359e+13 -6.90407e+12 -5.642e+12 -1.11335e+13 -9.07868e+12 -8.27127e+12 -5.81294e+12 -8.27324e+12 -5.46557e+12 -7.45331e+12 -9.06584e+12 -6.61168e+12 -1.14584e+13 -6.0483e+12 -7.02361e+12 -7.74488e+12 -9.88929e+12 -5.09968e+12 -8.6183e+12 -1.15948e+13 -7.45143e+12 -7.17339e+12 -1.02817e+13 -7.61269e+12 -1.12839e+13 -6.50105e+12 -5.71547e+12 -4.68133e+12 -3.60241e+12 -5.85182e+12 -6.21965e+12 -6.93416e+12 -6.00607e+12 -1.22402e+12 -6.59788e+12 -1.10915e+13 -3.8823e+12 -7.20823e+12 -2.41974e+12 -6.58593e+12 -6.68298e+12 -2.73074e+12 -7.22533e+12 -7.22935e+12 -4.2566e+12 -7.60656e+12 -7.1151e+12 -7.25985e+12 -4.75272e+12 -4.06964e+12 -6.5268e+12 -7.56511e+12 -9.61615e+12 -6.32193e+12 -5.92154e+12 -8.06242e+12 -7.41198e+12 -6.33504e+12 -3.32876e+12 -5.20162e+12 -4.90356e+12 -6.60881e+12 -7.24395e+12 -8.27649e+12 -6.46709e+12 -7.45622e+12 -6.69267e+12 -2.78073e+12 -7.49749e+12 -6.47957e+12 -7.5299e+12 -4.99767e+12 -5.06735e+12 -6.29754e+12 -6.48473e+12 -4.25187e+12 -2.92965e+12 -7.40271e+12 -8.20942e+12 -8.67282e+12 -8.882e+12 -3.40339e+12 -7.87632e+12 -4.52892e+12 -4.35531e+12 -5.73255e+12 -9.08322e+12 -8.06473e+12 -7.50021e+12 -9.01629e+12 -7.57429e+12 -4.31812e+12 -6.97534e+12 -8.03467e+12 -8.01304e+12 -9.73557e+12 -7.54124e+12 -1.38606e+13 -3.28476e+12 -4.8811e+12 -4.34605e+12 -6.05555e+12 -4.22009e+12 -4.83509e+12 -8.83592e+12 -8.72577e+12 -5.01723e+12 -6.28648e+12 -9.23359e+12 -8.03219e+12 -1.35919e+13 -3.39756e+12 -5.19833e+12 -1.03481e+13 -8.3605e+12 -9.1555e+12 -9.46078e+12 -4.94434e+12 -7.81469e+12 -1.35353e+13 -7.9149e+12 -5.9567e+12 -6.41939e+12 -5.9299e+12 -8.60669e+12 -8.41297e+12 -6.04836e+12 -6.58607e+12 -5.78993e+12 -5.5744e+12 -5.5577e+12 -4.36203e+12 -5.96836e+12 -7.56808e+12 -4.83396e+12 -6.36534e+12 -3.18961e+12 -9.41737e+12 -4.74421e+12 -5.28407e+12 -7.48936e+12 -8.59968e+12 -1.46736e+13 -1.25139e+13 -7.24654e+12 -1.08406e+13 -9.28926e+12 -6.42274e+12 -7.87556e+12 -5.70086e+12 -7.28843e+12 -4.70866e+12 -5.7159e+12 -7.96819e+12 -4.78122e+12 -6.39621e+12 -2.62214e+12 -5.37926e+12 -4.37107e+12 -8.03674e+12 -1.10875e+13 -4.33029e+12 -6.76815e+12 -9.25349e+12 -6.96324e+12 -7.37725e+12 -8.44511e+12 -5.45358e+12 -4.06735e+12 -5.4337e+12 -9.53052e+12 -8.31112e+12 -6.82726e+12 -1.03099e+13 -4.91401e+12 -5.72978e+12 -4.83078e+12 -5.62076e+12 -6.58817e+12 -6.55811e+12 -8.40956e+12 -7.15772e+12 -6.26102e+12 -3.97144e+12 -4.04581e+12 -7.10079e+12 -3.48723e+12 -6.3743e+12 -7.14089e+12 -5.16503e+12 -6.39225e+12 -3.14589e+12 -6.92359e+12 -6.79545e+12 -6.90078e+12 -6.79177e+12 -5.06447e+12 -3.96359e+12 -7.76105e+12 -9.31296e+12 -5.39678e+12 -6.91654e+12 -9.13192e+12 -1.03186e+13 -5.65185e+12 -7.3755e+12 -7.56812e+12 -4.79738e+12 -7.39327e+12 -5.41824e+12 -4.55572e+12 -1.16891e+13 -7.20882e+12 -7.28075e+12 -9.32278e+12 -1.38223e+13 -9.25891e+12 -6.64141e+12 -6.33128e+12 -1.018e+13 -1.26304e+13 -4.68806e+12 -6.61267e+12 -3.67417e+12 -6.49296e+12 -4.87052e+12 -1.07308e+13 -6.08622e+12 -6.81177e+12 -1.06359e+13 -8.20709e+12 -1.29241e+13 -8.58786e+12 -5.27472e+12 -6.86709e+12 -8.4225e+12 -1.4628e+13 -6.26132e+12 -7.15334e+12 -4.10604e+12 -1.0836e+13 -7.81362e+12 -6.80319e+12 -4.95265e+12 -6.99563e+12 -9.65033e+12 -6.01631e+12 -7.3698e+12 -7.7689e+12 -6.1613e+12 -1.08229e+13 -9.98035e+12 -5.16635e+12 -3.66049e+12 -5.35105e+12 -1.12762e+13 -8.68876e+12 -4.48317e+12 -6.89588e+12 -5.5806e+12 -6.12865e+12 -6.65687e+12 -4.63056e+12 -7.56839e+12 -8.66825e+12 -1.01398e+13 -8.60757e+12 -6.98586e+12 -7.12539e+12 -3.82426e+12 -4.3585e+12 -4.02695e+12 -8.31748e+12 -6.92385e+12 -5.50486e+12 -7.58819e+12 -6.779e+12 -5.81442e+12 -4.02336e+12 -8.29112e+12 -6.34031e+12 -7.95574e+12 -6.10852e+12 -5.12012e+12 -7.55724e+12 -3.49182e+12 -6.97207e+12 -7.60494e+12 -8.15088e+12 -6.96842e+12 -4.79191e+12 -1.03693e+13 -2.48464e+12 -2.99239e+12 -7.59314e+12 -4.80553e+12 -1.06159e+13 -5.53467e+12 -5.46839e+12 -7.11352e+12 -4.11823e+12 -3.55829e+12 -4.37775e+12 -5.55549e+12 -6.31504e+12 -5.07087e+12 -5.67299e+12 -1.79604e+12 -4.51343e+12 -5.93976e+12 -8.01769e+12 -8.55355e+12 -5.56121e+12 -6.28477e+12 -6.73523e+12 -9.058e+12 -6.65239e+12 -9.75723e+12 -6.14723e+12 -5.74064e+12 -9.32049e+12 -4.54759e+12 -7.11641e+12 -6.01681e+12 -7.39529e+12 -5.01467e+12 -3.85248e+12 -3.4033e+12 -5.85775e+12 -7.15398e+12 -5.23808e+12 -7.31969e+12 -5.74732e+12 -5.19971e+12 -6.62217e+12 -9.46277e+12 -6.24714e+12 -3.3547e+12 -4.69954e+12 -8.33911e+12 -4.85442e+12 -4.88054e+12 -9.07818e+12 -4.12828e+12 -4.33609e+12 -6.91543e+12 -1.12751e+13 -4.92255e+12 -7.60696e+12 -6.97561e+12 -8.07749e+12 -6.03876e+12 -6.4945e+12 -5.78889e+12 -3.76338e+12 -6.26022e+12 -4.5249e+12 -4.07891e+12 -4.59522e+12 -5.72705e+12 -7.17047e+12 -6.9027e+12 -9.2508e+12 -6.3984e+12 -7.74326e+12 -5.98122e+12 -3.75147e+12 -8.20434e+12 -8.8724e+12 -4.7626e+12 -3.69602e+12 -4.73329e+12 -1.05347e+13 -5.25465e+12 -5.33006e+12 -8.61232e+12 -7.43537e+12 -5.56914e+12 -8.46622e+12 -9.13341e+12 -4.50502e+12 -4.23308e+12 -9.04865e+12 -6.66817e+12 -4.70434e+12 -1.02648e+13 -7.15351e+12 -3.8524e+12 -5.61158e+12 -9.15703e+12 -6.05872e+12 -7.91089e+12 -8.71832e+12 -6.07253e+12 -1.01465e+13 -4.94011e+12 -5.16712e+12 -4.73114e+12 -5.25204e+12 -6.26202e+12 -5.95412e+12 -8.77768e+12 -9.01389e+12 -1.20871e+13 -1.00435e+13 -7.2145e+12 -8.52548e+12 -4.56061e+12 -4.94123e+12 -7.52846e+12 -3.98779e+12 -5.77329e+12 -4.82746e+12 -4.99575e+12 -7.52024e+12 -6.18164e+12 -9.79962e+12 -5.4156e+12 -8.52307e+12 -4.67311e+12 -8.67669e+12 -6.97402e+12 -7.13911e+12 -5.75274e+12 -8.52329e+12 -6.33891e+12 -5.11313e+12 -4.45049e+12 -3.67275e+12 -7.29496e+12 -4.724e+12 -7.15068e+12 -7.11369e+12 -3.96729e+12 -6.28437e+12 -3.83181e+12 -3.45409e+12 -5.11743e+12 -7.89418e+12 -9.95488e+12 -8.93067e+12 -5.9142e+12 -8.63382e+12 -6.91963e+12 -8.89314e+12 -1.03407e+13 -3.11217e+12 -6.48311e+12 -3.46608e+12 -6.01457e+12 -4.66003e+12 -5.73203e+12 -6.66489e+12 -9.3626e+12 -6.13539e+12 -8.51208e+12 -7.22017e+12 -8.42221e+12 -5.0219e+12 -5.37141e+12 -6.75048e+12 -4.4287e+12 -7.43375e+12 -5.95702e+12 -6.14689e+12 -6.39408e+12 -3.96868e+12 -1.08548e+13 -4.86916e+12 -7.55082e+12 -4.01961e+12 -4.82696e+12 -6.88467e+12 -7.54519e+12 -4.54653e+12 -5.5599e+12 -6.40491e+12 -5.70648e+12 -6.39634e+12 -6.75377e+12 -3.7653e+12 -6.72798e+12 -5.03384e+12 -5.83648e+12 -7.7775e+12 -5.32378e+12 -6.71843e+12 -2.82423e+12 -5.62722e+12 -4.46749e+12 -4.40508e+12 -4.69743e+12 -5.88257e+12 -7.39124e+12 -7.61947e+12 -5.81733e+12 -6.79573e+12 -5.72801e+12 -4.66357e+12 -6.94285e+12 -6.9177e+12 -7.71955e+12 -7.55655e+12 -9.39367e+12 -7.18839e+12 -5.61121e+12 -6.84639e+12 -9.70225e+12 -1.15211e+13 -7.64225e+12 -5.12484e+12 -6.61697e+12 -4.43415e+12 -4.34182e+12 -1.03157e+13 -6.98467e+12 -5.48772e+12 -7.26904e+12 -6.95305e+12 -5.75973e+12 -6.72107e+12 -5.48944e+12 -3.99979e+12 -6.30846e+12 -4.72053e+12 -7.30152e+12 -6.43243e+12 -6.17349e+12 -7.77186e+12 -6.3818e+12 -6.29655e+12 -9.78594e+12 -6.09636e+12 -8.12479e+12 -9.8907e+12 -1.23614e+13 -7.81845e+12 -6.98274e+12 -5.96825e+12 -6.15726e+12 -6.69744e+12 -5.80663e+12 -5.19248e+12 -4.74628e+12 -4.88789e+12 -9.63292e+12 -5.33395e+12 -8.25291e+12 -1.17008e+13 -1.09998e+13 -1.31964e+13 -6.41433e+12 -7.26827e+12 -4.94079e+12 -5.90856e+12 -7.17207e+12 -4.64353e+12 -5.50849e+12 -3.50166e+12 -5.81606e+12 -6.43663e+12 -5.75748e+12 -3.67359e+12 -7.15786e+12 -4.47483e+12 -4.36717e+12 -3.94229e+12 -3.97296e+12 -7.86516e+12 -6.88609e+12 -8.33024e+12 -6.99397e+12 -8.63605e+12 -7.11745e+12 -8.25164e+12 -5.63567e+12 -5.76734e+12 -6.58647e+12 -5.68601e+12 -4.09343e+12 -6.24032e+12 -1.0402e+13 -8.16761e+12 -6.9021e+12 -5.00863e+12 -1.10961e+13 -5.33377e+12 -9.6696e+12 -5.70317e+12 -6.45107e+12 -8.79107e+12 -8.90637e+12 -5.44936e+12 -9.44827e+12 -7.74525e+12 -6.11599e+12 -3.80072e+12 -3.3854e+12 -6.1789e+12 -3.8554e+12 -5.58705e+12 -3.64574e+12 -3.38504e+12 -7.04806e+12 -6.85713e+12 -5.09138e+12 -3.01339e+12 -8.76157e+12 -4.78562e+12 -5.71074e+12 -4.33753e+12 -6.83906e+12 -3.89011e+12 -6.85484e+12 -5.60399e+12 -8.29e+12 -6.38709e+12 -3.68968e+12 -4.98605e+12 -7.13589e+12 -8.17917e+12 -7.24178e+12 -3.45865e+12 -5.9441e+12 -7.75459e+12 -2.53362e+12 -4.41142e+12 -2.99076e+12 -6.01209e+12 -4.11665e+12 -4.47604e+12 -4.22152e+12 -7.32065e+12 -5.87475e+12 -3.48395e+12 -5.74437e+12 -5.34656e+12 -5.74821e+12 -6.57893e+12 -6.793e+12 -5.89884e+12 -4.35805e+12 -7.72883e+12 -5.03594e+12 -3.84508e+12 -3.50059e+12 -4.31372e+12 -5.83837e+12 -4.19592e+12 -8.87829e+12 -2.39213e+12 -9.9632e+12 -3.30819e+12 -5.18454e+12 -2.1641e+12 -4.93287e+12 -6.54637e+12 -8.83408e+12 -5.33075e+12 -6.59499e+12 -6.56082e+12 -5.9559e+12 -9.41173e+12 -4.80781e+12 -3.76828e+12 -6.22773e+12 -1.06329e+13 -4.47584e+12 -6.40048e+12 -8.39824e+12 -8.78944e+12 -4.98024e+12 -6.39299e+12 -6.7846e+12 -6.23947e+12 -7.19687e+12 -5.15753e+12 -8.23878e+12 -7.9017e+12 -2.42721e+12 -6.81772e+12 -7.98846e+12 -5.99027e+12 -1.06708e+13 -4.5144e+12 -5.01963e+12 -6.82804e+12 -1.11708e+13 -6.27972e+12 -4.7253e+12 -6.14576e+12 -9.24386e+12 -1.59599e+13 -8.42845e+12 -5.09074e+12 -1.08466e+13 -8.89153e+12 -9.56586e+12 -4.68567e+12 -6.02049e+12 -6.98055e+12 -5.93225e+12 -5.50735e+12 -5.1855e+12 -2.71577e+12 -3.3699e+12 -5.30971e+12 -5.67713e+12 -7.24542e+12 -6.21836e+12 -5.31714e+12 -3.99898e+12 -1.0265e+13 -8.65659e+12 -7.28372e+12 -6.28854e+12 -6.88943e+12 -5.26024e+12 -8.04842e+12 -4.66218e+12 -4.82595e+12 -5.91704e+12 -5.40826e+12 -5.1913e+12 -5.85591e+12 -4.54985e+12 -5.63791e+12 -6.64477e+12 -5.63974e+12 -7.71117e+12 -8.06306e+12 -3.40852e+12 -9.81966e+12 -4.93759e+12 -6.2151e+12 -3.54252e+12 -7.53972e+12 -1.21243e+13 -1.18395e+13 -7.04988e+12 -8.51805e+12 -6.58812e+12 -7.70181e+12 -9.40553e+12 -6.72984e+12 -1.06692e+13 -5.25313e+12 -4.01482e+12 -3.33916e+12 -5.31669e+12 -6.02405e+12 -6.61258e+12 -5.07298e+12 -4.56404e+12 -6.20477e+12 -8.24622e+12 -7.67534e+12 -6.7163e+12 -6.92078e+12 -6.34861e+12 -3.41186e+12 -5.53285e+12 -5.19854e+12 -4.72727e+12 -6.06205e+12 -5.6073e+12 -5.80679e+12 -3.8029e+12 -5.28145e+12 -6.26572e+12 -4.35163e+12 -6.81695e+12 -5.8303e+12 -3.63291e+12 -5.51835e+12 -5.80151e+12 -3.69813e+12 -8.44359e+12 -5.00616e+12 -6.94358e+12 -5.98669e+12 -5.22392e+12 -5.45101e+12 -4.36279e+12 -2.81773e+12 -4.34587e+12 -5.97741e+12 -3.75563e+12 -6.42952e+12 -1.04854e+13 -6.62776e+12 -9.65802e+12 -8.43674e+12 -9.86096e+12 -7.82388e+12 -6.65165e+12 -9.54714e+12 -5.19571e+12 -6.1853e+12 -3.9322e+12 -6.17636e+12 -7.7789e+12 -6.55897e+12 -6.17526e+12 -7.0658e+12 -7.72751e+12 -6.50623e+12 -8.21772e+12 -3.05487e+12 -6.24846e+12 -3.91554e+12 -7.51687e+12 -4.39817e+12 -7.96133e+12 -6.45482e+12 -4.72659e+12 -7.92756e+12 -4.3797e+12 -4.8378e+12 -5.87807e+12 -8.8425e+12 -6.83271e+12 -8.02584e+12 -5.7345e+12 -6.48182e+12 -9.77693e+12 -8.15434e+12 -8.67737e+12 -5.92629e+12 -7.09829e+12 -1.03407e+13 -7.57255e+12 -9.1045e+12 -5.35251e+12 -7.46601e+12 -3.11455e+12 -6.3087e+12 -5.94524e+12 -8.38453e+12 -3.53277e+12 -4.61767e+12 -7.59974e+12 -4.67775e+12 -5.52608e+12 -5.91506e+12 -9.47696e+12 -5.41087e+12 -8.76452e+12 -8.57491e+12 -7.8487e+12 -6.50826e+12 -7.50295e+12 -5.65812e+12 -5.49758e+12 -5.00981e+12 -6.24596e+12 -7.69217e+12 -8.48909e+12 -3.05523e+12 -4.76823e+12 -4.95265e+12 -8.64009e+12 -3.91673e+12 -2.50142e+12 -2.97843e+12 -4.22392e+12 -7.12209e+12 -5.3188e+12 -7.31508e+12 -8.51437e+12 -4.98793e+12 -7.51192e+12 -7.45132e+12 -5.2566e+12 -7.41191e+12 -5.68181e+12 -5.44589e+12 -6.57581e+12 -6.29112e+12 -5.36923e+12 -6.29956e+12 -6.71545e+12 -8.26915e+12 -2.33707e+12 -7.31758e+12 -7.42824e+12 -9.40158e+12 -7.48229e+12 -4.57049e+12 -4.92281e+12 -8.8015e+12 -4.39761e+12 -4.7865e+12 -6.16354e+12 -3.34507e+12 -6.5297e+12 -4.73536e+12 -3.36863e+12 -6.60981e+12 -4.99079e+12 -3.24402e+12 -2.47151e+12 -4.5016e+12 -5.91823e+12 -5.6972e+12 -7.00842e+12 -4.09891e+12 -4.9669e+12 -6.47906e+12 -4.58136e+12 -4.45388e+12 -4.48417e+12 -3.91972e+12 -4.11462e+12 -6.5177e+12 -9.29591e+12 -7.12535e+12 -5.25275e+12 -6.38393e+12 -2.83476e+12 -3.50673e+12 -5.94231e+12 -5.24296e+12 -7.29089e+12 -4.71536e+12 -3.31309e+12 -5.53874e+12 -4.61313e+12 -5.1553e+12 -7.62105e+12 -7.39761e+12 -5.42699e+12 -2.39309e+12 -4.86744e+12 -3.91011e+12 -4.08234e+12 -7.61599e+12 -5.03341e+12 -5.12961e+12 -7.56298e+12 -7.26655e+12 -6.8607e+12 -4.16757e+12 -8.52e+12 -5.58405e+12 -8.99282e+12 -4.70199e+12 -5.75913e+12 -9.03659e+12 -5.65703e+12 -4.69661e+12 -6.40164e+12 -4.71779e+12 -6.28105e+12 -8.13675e+12 -6.3311e+12 -7.87805e+12 -6.45771e+12 -6.90231e+12 -6.46267e+12 -6.27649e+12 -7.36592e+12 -6.0163e+12 -6.19021e+12 -8.0662e+12 -6.31852e+12 -5.97283e+12 -4.36502e+12 -7.45177e+12 -4.05624e+12 -1.17624e+13 -5.90788e+12 -7.5538e+12 -5.55522e+12 -8.14433e+12 -6.35796e+12 -7.30748e+12 -1.23573e+13 -8.78789e+12 -5.8923e+12 -4.92837e+12 -6.51368e+12 -4.06186e+12 -4.42541e+12 -3.3707e+12 -6.92233e+12 -4.45731e+12 -9.92949e+12 -5.59766e+12 -5.59781e+12 -7.17553e+12 -6.4694e+12 -8.83366e+12 -5.93104e+12 -6.94047e+12 -9.40057e+12 -9.82316e+12 -4.51163e+12 -2.99292e+12 -7.55276e+12 -4.76642e+12 -5.15622e+12 -5.41288e+12 -5.52854e+12 -5.30447e+12 -4.24317e+12 -6.95737e+12 -5.33266e+12 -6.4332e+12 -4.0664e+12 -7.70191e+12 -6.89826e+12 -3.82966e+12 -1.02906e+13 -5.4623e+12 -5.99821e+12 -4.85275e+12 -6.1379e+12 -7.99987e+12 -4.52084e+12 -6.83764e+12 -5.89906e+12 -5.95408e+12 -7.32494e+12 -6.41067e+12 -5.42852e+12 -2.44785e+12 -7.81725e+12 -5.5673e+12 -3.90881e+12 -6.24328e+12 -8.21542e+12 -4.85816e+12 -5.18623e+12 -3.31935e+12 -6.22074e+12 -3.57008e+12 -5.95558e+12 -8.43321e+12 -5.17794e+12 -3.87056e+12 -3.61564e+12 -5.88675e+12 -3.27762e+12 -3.04564e+12 -3.71017e+12 -3.14918e+12 -4.02597e+12 -2.89854e+12 -4.54077e+12 -4.33949e+12 -3.77928e+12 -3.3691e+12 -5.12335e+12 -4.48205e+12 -4.25036e+12 -4.13703e+12 -5.76199e+12 -3.79706e+12 -3.76335e+12 -7.23119e+12 -7.95991e+12 -3.71964e+12 -5.2115e+12 -3.96219e+12 -3.74975e+12 -4.54786e+12 -1.25339e+12 -4.72978e+12 -7.20274e+12 -4.13949e+12 -4.17472e+12 -3.27238e+12 -2.6493e+12 -4.15175e+12 -7.56337e+12 -5.87123e+12 -2.36296e+12 -4.54277e+12 -3.08836e+12 -4.25155e+12 -3.6866e+12 -6.4901e+12 -5.30537e+12 -5.51246e+12 -4.07978e+12 -9.41098e+12 -6.08401e+12 -5.08607e+12 -6.28288e+12 -8.3563e+12 -3.29522e+12 -9.45895e+12 -7.25622e+12 -4.3771e+12 -5.68677e+12 -6.49619e+12 -5.7424e+12 -7.30509e+12 -7.85604e+12 -7.62716e+12 -1.09295e+12 -5.78347e+12 -9.65973e+12 -4.08345e+12 -7.73589e+12 -5.99392e+12 -3.2781e+12 -5.05825e+12 -7.79262e+12 -4.94199e+12 -5.82507e+12 -7.24136e+12 -5.20345e+12 -7.49547e+12 -6.57668e+12 -8.2143e+12 -1.14151e+13 -2.7692e+12 -2.54356e+12 -6.29508e+12 -4.19797e+12 -6.72924e+12 -5.84164e+12 -2.19715e+12 -3.87681e+12 -3.01715e+12 -3.35367e+12 -1.03371e+13 -3.56047e+12 -4.35934e+12 -3.87941e+12 -5.57889e+12 -5.02729e+12 -8.23761e+12 -7.26077e+12 -4.48607e+12 -6.83251e+12 -4.81207e+12 -7.78524e+12 -5.65199e+12 -4.03806e+12 -4.32317e+12 -6.30379e+12 -6.67658e+12 -5.06788e+12 -4.86991e+12 -5.38177e+12 -6.26768e+12 -8.12789e+12 -7.74968e+12 -5.06639e+12 -8.10886e+12 -6.09068e+12 -4.36446e+12 -7.31876e+12 -5.29153e+12 -7.00863e+12 -5.2056e+12 -4.06732e+12 -5.33832e+12 -4.2007e+12 -4.74616e+12 -7.52958e+12 -5.68096e+12 -6.4448e+12 -5.4183e+12 -4.40286e+12 -5.1073e+12 -4.93058e+12 -6.371e+12 -5.86619e+12 -2.95164e+12 -5.03156e+12 -4.18661e+12 -5.1015e+12 -5.01558e+12 -5.95688e+12 -4.13194e+12 -2.79864e+12 -2.39386e+12 -5.3951e+12 -3.04068e+12 -3.024e+12 -2.8223e+12 -5.85017e+12 -3.05703e+12 -2.09084e+12 -4.61632e+12 -2.92738e+12 -1.8601e+12 -2.97399e+12 -2.35032e+12 -3.14952e+12 -3.48106e+12 -5.18077e+12 -3.29198e+12 -3.81963e+12 -5.29297e+12 -2.54908e+12 -2.676e+12 -3.11971e+12 -3.28871e+12 -5.27345e+12 -6.76591e+12 -6.01485e+12 -3.96475e+12 -2.57578e+12 -3.13701e+12 -7.42508e+12 -3.84708e+12 -4.79371e+12 -4.60866e+12 -5.40872e+12 -3.74935e+12 -6.32057e+12 -4.42483e+12 -4.96093e+12 -2.654e+12 -6.82431e+12 -8.23767e+12 -3.53214e+12 -3.07743e+12 -3.2826e+12 -8.07931e+12 -7.40922e+12 -3.17317e+12 -4.27373e+12 -6.85814e+12 -7.61628e+12 -4.1515e+12 -7.95275e+12 -5.80254e+12 -5.54952e+12 -6.5535e+12 -5.90985e+12 -5.98125e+12 -7.69503e+12 -7.84025e+12 -5.15578e+12 -7.54302e+12 -3.31834e+12 -6.12491e+12 -5.18359e+12 -6.89799e+12 -8.40728e+12 -6.00067e+12 -6.81992e+12 -7.7577e+12 -4.82808e+12 -6.18691e+12 -3.9823e+12 -5.16997e+12 -9.95993e+12 -6.72079e+12 -5.13219e+12 -6.3507e+12 -5.57701e+12 -2.79245e+12 -9.02249e+12 -5.04333e+12 -5.30629e+12 -8.33211e+12 -5.8639e+12 -4.93231e+12 -2.9678e+12 -1.77489e+12 -2.72352e+12 -6.7534e+12 -5.02535e+12 -2.58874e+12 -5.98669e+12 -5.33312e+12 -6.83502e+12 -4.36119e+12 -4.69564e+12 -6.07627e+12 -5.35007e+12 -3.86003e+12 -6.81915e+12 -4.14546e+12 -4.87966e+12 -4.87544e+12 -5.80697e+12 -3.36545e+12 -6.13982e+12 -4.71755e+12 -5.70089e+12 -4.92972e+12 -5.10095e+12 -2.1738e+12 -3.7762e+12 -1.99314e+12 -4.91107e+12 -3.88458e+12 -6.60321e+12 -6.53794e+12 -9.82639e+12 -5.63847e+12 -4.11432e+12 -5.65105e+12 -6.05009e+12 -5.57034e+12 -5.88121e+12 -4.38783e+12 -4.66144e+12 -3.71118e+12 -7.68364e+12 -5.29661e+12 -7.60922e+12 -7.06104e+12 -4.18169e+12 -7.8677e+12 -4.00146e+12 -2.58846e+12 -1.80533e+12 -5.86537e+12 -3.83168e+12 -2.82451e+12 -4.71264e+12 -5.96607e+12 -6.16196e+12 -5.5006e+12 -3.52585e+12 -3.11695e+12 -6.37328e+12 -5.7063e+12 -2.02301e+12 -5.30713e+12 -3.02564e+12 -3.58896e+12 -4.4096e+12 -3.62946e+12 -5.5652e+12 -4.03294e+12 -4.17999e+12 -2.40258e+12 -3.08254e+12 -4.57084e+12 -2.66164e+12 -4.07815e+12 -6.77907e+12 -3.17923e+12 -3.08181e+12 -2.81864e+12 -2.16438e+12 -3.51474e+12 -4.05327e+12 -3.07923e+12 -2.8728e+12 -3.75366e+12 -3.46133e+12 -3.69507e+12 -2.23914e+12 -3.77851e+12 -3.74429e+12 -3.82726e+12 -2.77081e+12 -5.22453e+12 -2.07043e+12 -5.78892e+12 -4.17236e+12 -4.1352e+12 -4.03402e+12 -3.53006e+12 -5.00353e+12 -4.05191e+12 -4.18138e+12 -4.13228e+12 -3.46317e+12 -2.93372e+12 -3.29115e+12 -5.74708e+12 -3.93462e+12 -4.10218e+12 -3.22824e+12 -4.94948e+12 -5.32108e+12 -2.31046e+12 -2.06218e+12 -2.83604e+12 -3.61711e+12 -8.15388e+12 -7.82908e+12 -2.43719e+12 -4.02173e+12 -5.19989e+12 -4.11819e+12 -3.95287e+12 -5.84476e+12 -5.79114e+12 -6.32137e+12 -4.77577e+12 -5.03893e+12 -5.10341e+12 -4.3268e+12 -1.77366e+12 -1.29575e+12 -5.29832e+12 -3.5574e+12 -5.35068e+12 -4.138e+12 -4.74175e+12 -8.78459e+12 -4.93858e+12 -7.77544e+12 -3.58736e+12 -4.86546e+12 -6.03275e+12 -3.04322e+12 -3.36005e+12 -5.55113e+12 -4.29224e+12 -4.95058e+12 -7.95284e+12 -5.08145e+12 -3.97085e+12 -5.9156e+12 -6.99272e+12 -4.73822e+12 -4.50686e+12 -8.30262e+12 -2.42411e+12 -3.22901e+12 -2.43757e+12 -3.61195e+12 -3.60628e+12 -6.73724e+12 -5.75346e+12 -4.90194e+12 -6.19708e+12 -8.22318e+12 -6.66922e+12 -4.82091e+12 -4.28046e+12 -7.95464e+12 -4.13203e+12 -4.55747e+12 -3.99499e+12 -3.66228e+12 -4.07453e+12 -5.30871e+12 -4.58448e+12 -5.74489e+12 -4.19465e+12 -3.52095e+12 -6.54164e+12 -4.93445e+12 -4.04478e+12 -4.53283e+12 -2.10462e+12 -5.5895e+12 -5.38437e+12 -3.52234e+12 -5.68317e+12 -2.8941e+12 -4.39048e+12 -4.54865e+12 -3.73443e+12 -2.9456e+12 -5.85538e+12 -4.51865e+12 -5.8561e+12 -6.27409e+12 -4.72136e+12 -7.73075e+12 -6.23945e+12 -3.28933e+12 -5.42949e+12 -4.04593e+12 -5.99473e+12 -6.90928e+12 -5.1857e+12 -3.98773e+12 -3.72893e+12 -4.99831e+12 -5.18958e+12 -2.93277e+12 -5.4427e+12 -4.86032e+12 -2.97279e+12 -4.46907e+12 -5.16906e+12 -1.68935e+12 -5.27697e+12 -4.99689e+12 -3.84073e+12 -1.37828e+12 -2.58929e+12 -5.67543e+12 -3.88138e+12 -3.15991e+12 -3.4804e+12 -3.16882e+12 -3.12468e+12 -5.61949e+12 -7.0346e+12 -4.81234e+12 -1.52781e+12 -3.98413e+12 -1.94218e+12 -3.76387e+12 -2.43912e+12 -3.85709e+12 -2.01981e+12 -1.93302e+12 -4.88251e+12 -3.83315e+12 -2.65946e+12 -3.3197e+12 -2.82817e+12 -2.59048e+12 -2.93226e+12 -3.50309e+12 -4.89356e+12 -3.99586e+12 -1.52248e+12 -3.63393e+12 -2.29564e+12 -2.70915e+12 -3.55104e+12 -3.43659e+12 -4.12766e+12 -5.57209e+12 -4.13325e+12 -6.01391e+12 -3.7561e+12 -2.82849e+12 -4.73565e+12 -3.35238e+12 -4.35634e+12 -6.35372e+12 -2.14925e+12 -3.57707e+12 -3.0762e+12 -2.79201e+12 -3.62818e+12 -3.27283e+12 -5.01545e+12 -4.23012e+12 -5.95132e+12 -6.46885e+12 -7.02335e+12 -5.59122e+12 -5.1271e+12 -5.19856e+12 -4.81326e+12 -3.38501e+12 -5.23907e+12 -6.04349e+12 -8.17673e+12 -4.66475e+12 -5.83268e+12 -3.6e+12 -6.59992e+12 -3.46842e+12 -5.58073e+12 -7.72404e+12 -4.85705e+12 -8.43097e+12 -6.37061e+12 -4.2508e+12 -6.29087e+12 -5.19488e+12 -4.2331e+12 -7.24619e+12 -4.07319e+12 -7.59418e+12 -4.00999e+12 -4.19063e+12 -6.43772e+12 -1.54185e+12 -2.81604e+12 -6.5383e+12 -4.4454e+12 -2.97045e+12 -6.44551e+12 -5.93758e+12 -7.29063e+12 -5.61153e+12 -6.11367e+12 -4.3138e+12 -4.3558e+12 -6.41499e+12 -5.08944e+12 -4.5231e+12 -4.13221e+12 -4.59078e+12 -1.72795e+12 -5.01113e+12 -4.01258e+12 -4.84777e+12 -3.11396e+12 -1.3891e+12 -5.23664e+12 -4.5526e+12 -5.5872e+12 -5.15967e+12 -3.58319e+12 -4.49223e+12 -1.84585e+12 -4.26851e+12 -4.01411e+12 -4.32278e+12 -6.56566e+12 -4.90598e+12 -3.48523e+12 -6.01397e+12 -1.2746e+12 -3.35821e+12 -3.29905e+12 -6.60658e+12 -6.25395e+12 -3.04525e+12 -6.44881e+12 -3.09736e+12 -1.58593e+12 -3.84412e+12 -2.69994e+12 -3.59554e+12 -4.01046e+12 -3.07892e+12 -2.96719e+12 -3.28981e+12 -2.29568e+12 -3.45216e+12 -2.82724e+12 -3.48042e+12 -4.4497e+12 -5.34246e+12 -2.81848e+12 -3.28286e+12 -1.90678e+12 -761595000000.0 -3.50805e+12 -1.24918e+12 -3.0645e+12 -3.42926e+12 -4.37538e+12 -2.06712e+12 -1.34159e+12 -2.6489e+12 -2.80128e+12 -3.37749e+12 -3.51831e+12 -2.80324e+12 -4.52731e+12 -2.17252e+12 -4.37842e+12 -4.14649e+12 -2.53343e+12 -3.58899e+12 -6.22712e+12 -1.98051e+12 -2.61046e+12 -3.83421e+12 -3.74393e+12 -5.01656e+12 -3.94201e+12 -5.31941e+12 -2.37211e+12 -5.41556e+12 -4.86343e+12 -3.71971e+12 -3.21675e+12 -3.20205e+12 -4.73253e+12 -4.21112e+12 -4.59368e+12 -3.58699e+12 -1.33094e+12 -2.54766e+12 -2.44926e+12 -5.58173e+12 -4.62782e+12 -5.56701e+12 -2.19346e+12 -3.23732e+12 -2.52022e+12 -1.51629e+12 -4.37555e+12 -2.49824e+12 -4.77851e+12 -7.19429e+12 -2.91347e+12 -7.09118e+12 -4.51795e+12 -4.75251e+12 -3.87379e+12 -5.32834e+12 -5.63995e+12 -5.31769e+12 -3.20243e+12 -5.51819e+12 -5.57512e+12 -3.82811e+12 -4.54041e+12 -4.00846e+12 -6.09329e+12 -4.90529e+12 -3.66929e+12 -5.50958e+12 -6.02311e+12 -5.42117e+12 -6.6899e+12 -5.416e+12 -4.15226e+12 -3.74079e+12 -4.23756e+12 -3.91205e+12 -2.28097e+12 -5.67275e+12 -2.2574e+12 -3.17762e+12 -4.09082e+12 -4.67276e+12 -5.00589e+12 -3.9544e+12 -4.2393e+12 -5.39538e+12 -8.54088e+12 -6.20262e+12 -5.75262e+12 -4.31824e+12 -3.79471e+12 -6.7589e+12 -4.77012e+12 -3.02256e+12 -1.53723e+12 -3.50639e+12 -4.62391e+12 -4.7176e+12 -4.24455e+12 -3.11309e+12 -5.51865e+12 -3.81114e+12 -3.67042e+12 -3.55801e+12 -4.15934e+12 -3.48135e+12 -4.57135e+12 -3.59857e+12 -4.47042e+12 -4.12714e+12 -4.26977e+12 -4.1279e+12 -3.43911e+12 -4.22694e+12 -1.73798e+12 -2.28289e+12 -2.6688e+12 -3.23979e+12 -4.08762e+12 -2.64951e+12 -1.75621e+12 -1.36166e+12 -2.29069e+12 -2.56394e+12 -1.74206e+12 -2.6162e+12 -1.30525e+12 -1.23888e+12 -1.79183e+12 -3.3795e+12 -3.16399e+12 -930671000000.0 -1.53598e+12 -1.52015e+12 -3.13025e+12 -3.70538e+12 -2.43124e+12 -1.26558e+12 -1.11665e+12 -2.51022e+12 -1.10898e+12 -3.48457e+12 -2.34258e+12 -1.10998e+12 -1.99896e+12 -1.0908e+12 -3.11395e+12 -2.27579e+12 -1.91076e+12 -2.26178e+12 -1.92355e+12 -4.11552e+12 -4.09843e+12 -3.16573e+12 -2.60948e+12 -3.90871e+12 -2.74006e+12 -4.30632e+12 -2.83739e+12 -3.74972e+12 -2.06206e+12 -3.23579e+12 -1.23296e+12 -3.0218e+12 -2.23898e+12 -5.21307e+12 -2.55849e+12 -2.52101e+12 -2.05191e+12 -2.44005e+12 -2.10693e+12 -1.83243e+12 -2.71201e+12 -3.34626e+12 -2.2635e+12 -3.04226e+12 -4.11621e+12 -4.63363e+12 -5.02462e+12 -2.39796e+12 -1.76487e+12 -4.52469e+12 -4.51135e+12 -4.7973e+12 -2.294e+12 -4.5582e+12 -5.43895e+12 -5.43875e+12 -3.60003e+12 -5.42561e+12 -4.09629e+12 -3.41953e+12 -6.88236e+12 -3.03441e+12 -3.71776e+12 -2.84658e+12 -3.32845e+12 -2.65646e+12 -3.58073e+12 -2.83074e+12 -4.32806e+12 -3.07676e+12 -4.84789e+12 -3.37884e+12 -3.62919e+12 -4.81346e+12 -6.33158e+12 -4.61239e+12 -5.68e+12 -2.36269e+12 -1.9639e+12 -3.35531e+12 -3.34761e+12 -3.21401e+12 -3.3301e+12 -3.42725e+12 -3.13804e+12 -3.96557e+12 -6.66778e+12 -5.58774e+12 -3.86081e+12 -4.40689e+12 -5.07483e+12 -4.17862e+12 -6.44596e+12 -2.54462e+12 -3.10777e+12 -2.58157e+12 -7.78002e+12 -3.80136e+12 -3.09646e+12 -4.25905e+12 -4.17237e+12 -3.15631e+12 -2.1019e+12 -2.80208e+12 -3.92085e+12 -3.13721e+12 -4.57038e+12 -2.55061e+12 -2.99121e+12 -2.77022e+12 -3.03521e+12 -1.84907e+12 -2.66874e+12 -2.46412e+12 -3.54766e+12 -1.86271e+12 -2.0412e+12 -3.24289e+12 -2.35619e+12 -2.1245e+12 -2.40165e+12 -2.20467e+12 -1.69214e+12 -2.10262e+12 -2.2949e+12 -2.35327e+12 -1.2771e+12 -1.86173e+12 -2.2109e+12 -2.48039e+12 -1.58938e+12 -1.21364e+12 -1.36915e+12 -1.97861e+12 -1.48909e+12 -2.03925e+12 -895582000000.0 -525216000000.0 -870114000000.0 -1.43196e+12 -1.08222e+12 -1.37772e+12 -1.69234e+12 -1.52984e+12 -1.50663e+12 -1.90616e+12 -1.41164e+12 -902504000000.0 -1.00727e+12 -2.21591e+12 -3.0588e+12 -2.6999e+12 -2.66057e+12 -1.79909e+12 -3.33471e+12 -309489000000.0 -1.77617e+12 -1.92999e+12 -989580000000.0 -2.79135e+12 -2.96023e+12 -2.05455e+12 -3.38127e+12 -3.33653e+12 -2.77705e+12 -1.26475e+12 -3.25711e+12 -2.98344e+12 -3.80791e+12 -1.68243e+12 -1.38068e+12 -1.68144e+12 -2.10814e+12 -3.88517e+12 -2.93417e+12 -2.28862e+12 -2.36003e+12 -2.30142e+12 -2.46253e+12 -3.39468e+12 -2.15031e+12 -3.91023e+12 -2.73082e+12 -824436000000.0 -1.75452e+12 -4.34343e+12 -3.14285e+12 -1.00255e+12 -3.17164e+12 -3.43181e+12 -4.29193e+12 -1.89613e+12 -2.87249e+12 -5.71863e+12 -2.00826e+12 -3.14142e+12 -4.27353e+12 -3.99239e+12 -3.93922e+12 -2.95657e+12 -1.82838e+12 -3.5581e+12 -3.809e+12 -3.27757e+12 -5.82491e+12 -2.96937e+12 -6.74863e+12 -6.17991e+12 -3.62401e+12 -3.85721e+12 -7.15932e+12 -5.26228e+12 -3.42815e+12 -1.44154e+12 -5.78303e+12 -6.02157e+12 -4.55973e+12 -3.6615e+12 -1.96759e+12 -4.87935e+12 -3.7114e+12 -4.45554e+12 -3.60024e+12 -6.07198e+12 -2.89662e+12 -3.85174e+12 -6.23894e+12 -3.01747e+12 -4.32497e+12 -3.35441e+12 -5.1041e+12 -2.56439e+12 -3.50648e+12 -4.25998e+12 -2.539e+12 -2.64431e+12 -3.12559e+12 -2.30106e+12 -2.74552e+12 -2.19654e+12 -3.56214e+12 -4.89978e+12 -1.71757e+12 -2.71049e+12 -2.09025e+12 -1.86472e+12 -2.15698e+12 -1.24525e+12 -2.72252e+12 -3.77499e+12 -2.56963e+12 -779242000000.0 -1.86102e+12 -2.26636e+12 -4.6541e+12 -2.90369e+12 -304558000000.0 -1.66013e+12 -1.68208e+12 -2.5442e+12 -1.31602e+12 -1.51558e+12 -1.23108e+12 -2.54018e+12 -1.25533e+12 -1.13506e+12 -1.27144e+12 -1.33091e+12 -780929000000.0 -833478000000.0 -977414000000.0 -1.80857e+12 -1.01132e+12 -1.83577e+12 -737542000000.0 -787922000000.0 -1.11786e+12 -978853000000.0 -1.43556e+12 -938439000000.0 -392610000000.0 -868010000000.0 -731434000000.0 -1.35407e+12 -1.44323e+12 -538183000000.0 -770978000000.0 -895958000000.0 -2.70119e+12 -1.9698e+12 -1.62411e+12 -1.30845e+12 -2.59629e+12 -2.22801e+12 -1.48723e+12 -2.02612e+12 -2.31821e+12 -1.27796e+12 -2.10333e+12 -981269000000.0 -1.74481e+12 -1.38674e+12 -3.21311e+12 -3.30732e+12 -1.68137e+12 -1.98948e+12 -2.84442e+12 -4.04371e+12 -4.78052e+12 -2.81104e+12 -1.15449e+12 -3.35857e+12 -4.29335e+12 -4.2167e+12 -2.37728e+12 -2.34072e+12 -3.53307e+12 -2.78017e+12 -2.06679e+12 -3.9749e+12 -1.53996e+12 -3.7835e+12 -3.60085e+12 -2.74452e+12 -2.51374e+12 -2.85714e+12 -1.67712e+12 -3.29034e+12 -2.51478e+12 -2.62817e+12 -3.70807e+12 -5.35511e+12 -3.66286e+12 -3.34435e+12 -2.90469e+12 -2.85594e+12 -3.50031e+12 -1.31987e+12 -4.31336e+12 -2.87688e+12 -2.06469e+12 -5.27128e+12 -2.34322e+12 -2.72078e+12 -3.75518e+12 -1.72438e+12 -901303000000.0 -2.02391e+12 -1.76665e+12 -2.05402e+12 -2.48898e+12 -4.06439e+12 -2.44598e+12 -3.71343e+12 -3.27785e+12 -3.06155e+12 -495135000000.0 -3.20577e+12 -3.45626e+12 -3.16764e+12 -1.39892e+12 -1.63899e+12 -3.7833e+12 -2.58083e+12 -2.39131e+12 -2.55256e+12 -1.27342e+12 -2.08761e+12 -1.88729e+12 -3.2272e+12 -1.69232e+12 -1.1129e+12 -2.02215e+12 -1.60439e+12 -2.02689e+12 -1.83844e+12 -2.81621e+12 -1.29347e+12 -1.16066e+12 -1.17254e+12 -706803000000.0 -1.24357e+12 -1.68526e+12 -576140000000.0 -1.01456e+12 -1.45033e+12 -770712000000.0 -620683000000.0 -727021000000.0 -516460000000.0 -927588000000.0 -415616000000.0 -446458000000.0 -214210000000.0 -302977000000.0 -282896000000.0 -981669000000.0 -223589000000.0 -347293000000.0 -641649000000.0 -272971000000.0 -471895000000.0 -164264000000.0 -220429000000.0 -686259000000.0 -469852000000.0 -184746000000.0 -1.09449e+12 -740225000000.0 -1.36752e+12 -544395000000.0 -1.24592e+12 -953481000000.0 -1.92826e+12 -359441000000.0 -1.17164e+12 -1.19225e+12 -2.61768e+12 -3.41103e+12 -2.55436e+12 -2.28275e+12 -1.22724e+12 -1.87489e+12 -1.91562e+12 -1.94391e+12 -1.80336e+12 -1.60705e+12 -1.94355e+12 -3.7634e+12 -2.919e+12 -3.14018e+12 -2.26278e+12 -2.65595e+12 -1.55078e+12 -3.54034e+12 -3.0299e+12 -3.82016e+12 -2.03509e+12 -2.20864e+12 -1.55256e+12 -2.71179e+12 -2.51654e+12 -3.36748e+12 -2.27836e+12 -4.09657e+12 -4.03052e+12 -1.85316e+12 -2.20663e+12 -2.56591e+12 -3.86238e+12 -1.67281e+12 -1.78551e+12 -2.84505e+12 -2.33013e+12 -1.93651e+12 -1.97892e+12 -2.42663e+12 -2.0756e+12 -1.18333e+12 -3.59833e+12 -1.02777e+12 -1.75432e+12 -2.50238e+12 -1.60262e+12 -1.19753e+12 -3.47764e+12 -1.93705e+12 -618434000000.0 -2.60277e+12 -3.32974e+12 -879991000000.0 -1.57434e+12 -1.49182e+12 -1.34538e+12 -1.47982e+12 -2.61659e+12 -4.2657e+12 -2.35064e+12 -2.68785e+12 -975672000000.0 -4.33337e+12 -1.92717e+12 -722445000000.0 -768266000000.0 -2.13064e+12 -1.30313e+12 -1.26778e+12 -2.98461e+12 -2.35083e+12 -1.47819e+12 -1.54281e+12 -645216000000.0 -1.93964e+12 -1.12722e+12 -1.42744e+12 -2.21769e+12 -679955000000.0 -1.12423e+12 -453077000000.0 -495416000000.0 -609032000000.0 -1.08953e+12 -1.16777e+12 -142743000000.0 -349285000000.0 -187149000000.0 -212941000000.0 -233725000000.0 -459459000000.0 -169638000000.0 -238914000000.0 -731401000000.0 -285625000000.0 -338740000000.0 -742818000000.0 -755790000000.0 -795514000000.0 -1.85081e+12 -781198000000.0 -1.3249e+12 -667904000000.0 -1.58406e+12 -1.43581e+12 -1.22528e+12 -1.15861e+12 -1.9988e+12 -1.34235e+12 -1.39799e+12 -1.21667e+12 -1.2971e+12 -1.6943e+12 -2.63222e+12 -2.52541e+12 -1.52022e+12 -2.00836e+12 -2.56764e+12 -1.73822e+12 -1.07252e+12 -1.95996e+12 -3.60061e+12 -3.107e+12 -1.65111e+12 -2.74772e+12 -2.09918e+12 -2.24581e+12 -2.92269e+12 -1.91659e+12 -2.0849e+12 -4.00459e+12 -895037000000.0 -1.47745e+12 -2.49717e+12 -1.03209e+12 -2.13727e+12 -2.19727e+12 -3.5867e+12 -3.25987e+12 -1.46694e+12 -1.39137e+12 -1.60336e+12 -1.47255e+12 -1.36661e+12 -1.16372e+12 -2.1058e+12 -1.33649e+12 -2.07265e+12 -1.79564e+12 -1.42085e+12 -2.22805e+12 -1.37456e+12 -1.10781e+12 -1.15422e+12 -1.14434e+12 -1.96736e+12 -1.7817e+12 -1.65255e+12 -1.22943e+12 -1.47597e+12 -939982000000.0 -1.20737e+12 -1.71107e+12 -983870000000.0 -2.34759e+12 -784366000000.0 -1.07399e+12 -1.0655e+12 -1.08218e+12 -816926000000.0 -1.00748e+12 -656557000000.0 -340802000000.0 -414326000000.0 -364626000000.0 -678490000000.0 -271227000000.0 -583960000000.0 -212603000000.0 -131622000000.0 -225007000000.0 -184600000000.0 -213887000000.0 -380619000000.0 -207171000000.0 -101686000000.0 -419951000000.0 -243742000000.0 -692736000000.0 -413520000000.0 -527444000000.0 -1.57071e+12 -994080000000.0 -824213000000.0 -1.46585e+12 -357394000000.0 -952055000000.0 -1.18345e+12 -1.39137e+12 -991375000000.0 -828477000000.0 -2.56941e+12 -450283000000.0 -1.15379e+12 -1.70181e+12 -1.6349e+12 -1.74382e+12 -734309000000.0 -2.39253e+12 -2.52182e+12 -1.54663e+12 -1.79621e+12 -1.86698e+12 -326369000000.0 -1.06675e+12 -1.88361e+12 -2.80009e+12 -943541000000.0 -2.65216e+12 -533698000000.0 -2.42058e+12 -2.1673e+12 -1.21852e+12 -1.32061e+12 -1.65467e+12 -880981000000.0 -618535000000.0 -2.12902e+12 -1.01502e+12 -1.41056e+12 -1.85099e+12 -133529000000.0 -1.55889e+12 -883045000000.0 -534172000000.0 -1.08318e+12 -860626000000.0 -1.18667e+12 -817547000000.0 -620177000000.0 -818803000000.0 -1.17039e+12 -606458000000.0 -990944000000.0 -682357000000.0 -662225000000.0 -394486000000.0 -765169000000.0 -579725000000.0 -269371000000.0 -351670000000.0 -270816000000.0 -212508000000.0 -109985000000.0 -196303000000.0 -248811000000.0 -315505000000.0 -205035000000.0 -94395700000.0 -158083000000.0 -348110000000.0 -406019000000.0 -743918000000.0 -230153000000.0 -901118000000.0 -485906000000.0 -724719000000.0 -658220000000.0 -1.24214e+12 -489262000000.0 -1.05875e+12 -1.21539e+12 -2.06435e+12 -811616000000.0 -2.2422e+12 -2.30288e+12 -1.19836e+12 -644520000000.0 -546273000000.0 -1.63447e+12 -688235000000.0 -945189000000.0 -907215000000.0 -1.2057e+12 -1.06565e+12 -1.37694e+12 -1.08728e+12 -1.68366e+12 -1.03773e+12 -775096000000.0 -1.03755e+12 -794982000000.0 -941843000000.0 -89988200000.0 -532661000000.0 -479282000000.0 -966962000000.0 -782881000000.0 -375065000000.0 -329973000000.0 -240354000000.0 -291213000000.0 -528950000000.0 -92473200000.0 -513597000000.0 -535199000000.0 -295951000000.0 -301316000000.0 -212491000000.0 -162751000000.0 -350885000000.0 -66671100000.0 -158426000000.0 -291439000000.0 -203708000000.0 -276522000000.0 -250286000000.0 -224799000000.0 -258242000000.0 -530670000000.0 -347222000000.0 -218936000000.0 -505804000000.0 -818063000000.0 -218815000000.0 -1.01716e+12 -264507000000.0 -314896000000.0 -227244000000.0 -775539000000.0 -1.57114e+12 -929468000000.0 -501804000000.0 -645054000000.0 -1.26867e+12 -802403000000.0 -37503500000.0 -497705000000.0 -276360000000.0 -155518000000.0 -741980000000.0 -425884000000.0 -246792000000.0 -454419000000.0 -236971000000.0 -205159000000.0 -360451000000.0 -181949000000.0 -318875000000.0 -127829000000.0 