# vtk DataFile Version 2.0
Time step 25
ASCII
DATASET UNSTRUCTURED_GRID
POINTS 5000 float
152060.0 407729.0 0
160280.0 409280.0 0
336577.0 407987.0 0
342895.0 406207.0 0
348457.0 408170.0 0
139635.0 416235.0 0
143835.0 413132.0 0
148230.0 410727.0 0
147377.0 414747.0 0
152698.0 411554.0 0
151144.0 415003.0 0
155073.0 414114.0 0
156144.0 409012.0 0
158113.0 412370.0 0
161645.0 413072.0 0
164558.0 409882.0 0
168456.0 411329.0 0
173246.0 410474.0 0
178699.0 412077.0 0
183695.0 410590.0 0
189121.0 412965.0 0
192384.0 414703.0 0
196029.0 414250.0 0
201501.0 413138.0 0
207986.0 413727.0 0
213326.0 413315.0 0
218286.0 414692.0 0
222630.0 414814.0 0
225921.0 413957.0 0
230541.0 413570.0 0
235829.0 414945.0 0
241147.0 413501.0 0
252675.0 413545.0 0
259042.0 413907.0 0
268674.0 413916.0 0
273866.0 413705.0 0
278934.0 412934.0 0
286144.0 414610.0 0
291552.0 414774.0 0
297252.0 412920.0 0
303586.0 413179.0 0
311467.0 413153.0 0
317144.0 414086.0 0
322023.0 411979.0 0
327671.0 411945.0 0
332473.0 411281.0 0
335073.0 414207.0 0
338032.0 412762.0 0
342176.0 411842.0 0
347962.0 412372.0 0
345256.0 414109.0 0
352442.0 410946.0 0
352123.0 415892.0 0
357016.0 413630.0 0
134890.0 418738.0 0
130949.0 420498.0 0
138632.0 420483.0 0
144175.0 417980.0 0
148361.0 417668.0 0
151331.0 419247.0 0
154489.0 417735.0 0
158909.0 416988.0 0
163137.0 419752.0 0
165319.0 415412.0 0
170387.0 415461.0 0
175499.0 416283.0 0
180568.0 417397.0 0
185367.0 415364.0 0
189971.0 417701.0 0
194743.0 419206.0 0
199356.0 418294.0 0
204638.0 418258.0 0
214120.0 417846.0 0
209926.0 419389.0 0
218016.0 419451.0 0
222412.0 419377.0 0
227170.0 418125.0 0
232335.0 419172.0 0
237750.0 420223.0 0
243307.0 419746.0 0
246482.0 415483.0 0
248641.0 419452.0 0
252832.0 420093.0 0
257398.0 418594.0 0
263735.0 415086.0 0
262056.0 419167.0 0
266920.0 418731.0 0
271525.0 418041.0 0
276640.0 418195.0 0
281901.0 416429.0 0
282848.0 420080.0 0
287279.0 419555.0 0
292052.0 419391.0 0
298131.0 418464.0 0
303119.0 418840.0 0
307489.0 415970.0 0
307466.0 419271.0 0
311720.0 418634.0 0
316284.0 418918.0 0
321106.0 416466.0 0
324657.0 415310.0 0
324038.0 418924.0 0
327557.0 417039.0 0
331309.0 415642.0 0
334970.0 417888.0 0
338134.0 416019.0 0
338988.0 420210.0 0
342474.0 416762.0 0
345325.0 420130.0 0
347078.0 416695.0 0
349963.0 420631.0 0
357750.0 417978.0 0
354551.0 420643.0 0
362579.0 417974.0 0
367708.0 420935.0 0
124450.0 424701.0 0
120934.0 427206.0 0
127730.0 422541.0 0
127997.0 426266.0 0
134536.0 423206.0 0
130868.0 424290.0 0
138453.0 423908.0 0
140340.0 425774.0 0
142353.0 422402.0 0
147270.0 422020.0 0
151848.0 423322.0 0
156350.0 422132.0 0
160990.0 424279.0 0
168359.0 420893.0 0
165499.0 424997.0 0
174104.0 421610.0 0
179753.0 423772.0 0
184864.0 420609.0 0
189976.0 423872.0 0
196036.0 424081.0 0
201523.0 423224.0 0
209423.0 425111.0 0
205784.0 424044.0 0
214126.0 422684.0 0
218362.0 424661.0 0
222643.0 423660.0 0
226968.0 423177.0 0
232398.0 424634.0 0
237380.0 424640.0 0
241865.0 424973.0 0
246893.0 423461.0 0
251756.0 424941.0 0
257659.0 423354.0 0
262645.0 423912.0 0
267391.0 423178.0 0
272939.0 423284.0 0
278963.0 422529.0 0
282830.0 424438.0 0
289605.0 423434.0 0
295311.0 423361.0 0
300878.0 423631.0 0
306314.0 423596.0 0
311836.0 423683.0 0
320133.0 420306.0 0
316822.0 423421.0 0
321660.0 424669.0 0
330063.0 420167.0 0
325989.0 422478.0 0
334396.0 422404.0 0
339203.0 425074.0 0
342736.0 422756.0 0
347492.0 424775.0 0
354159.0 425513.0 0
358817.0 425606.0 0
359052.0 422516.0 0
363337.0 422679.0 0
366130.0 426066.0 0
372470.0 422983.0 0
369636.0 424734.0 0
373804.0 425737.0 0
376284.0 424861.0 0
113801.0 431582.0 0
117206.0 429436.0 0
120039.0 430518.0 0
124330.0 429212.0 0
128764.0 430454.0 0
132832.0 427780.0 0
136801.0 426824.0 0
136412.0 430414.0 0
140138.0 428871.0 0
144256.0 426610.0 0
148940.0 426494.0 0
146674.0 429543.0 0
149504.0 429925.0 0
153946.0 427866.0 0
158481.0 428007.0 0
162887.0 428428.0 0
166636.0 428265.0 0
169863.0 425774.0 0
170067.0 429975.0 0
174632.0 427547.0 0
184667.0 426989.0 0
188802.0 429536.0 0
193624.0 428862.0 0
199072.0 429197.0 0
204678.0 428217.0 0
215384.0 428284.0 0
219373.0 430383.0 0
222192.0 427902.0 0
227626.0 428723.0 0
234684.0 428805.0 0
238311.0 427865.0 0
241929.0 429561.0 0
246375.0 428642.0 0
251487.0 430204.0 0
255812.0 428062.0 0
260250.0 427621.0 0
266059.0 427805.0 0
271428.0 429501.0 0
278037.0 428150.0 0
284068.0 429265.0 0
286284.0 425572.0 0
288567.0 428208.0 0
292874.0 429531.0 0
298768.0 429328.0 0
303717.0 430102.0 0
306584.0 430380.0 0
309383.0 428528.0 0
313379.0 428094.0 0
318044.0 428423.0 0
322816.0 429624.0 0
325593.0 426778.0 0
329960.0 425511.0 0
334992.0 428315.0 0
343057.0 426441.0 0
346139.0 429867.0 0
350660.0 429191.0 0
358865.0 429167.0 0
361929.0 426350.0 0
363882.0 430428.0 0
367299.0 429372.0 0
371263.0 428367.0 0
379301.0 426971.0 0
376013.0 428427.0 0
378832.0 430838.0 0
382439.0 429480.0 0
386372.0 432017.0 0
106101.0 435951.0 0
109818.0 434406.0 0
113578.0 434618.0 0
111254.0 437294.0 0
117427.0 433201.0 0
119288.0 435544.0 0
121788.0 433084.0 0
123236.0 436915.0 0
125381.0 433164.0 0
128174.0 436001.0 0
132673.0 432830.0 0
139631.0 432307.0 0
136906.0 435134.0 0
143388.0 431432.0 0
141873.0 436052.0 0
147068.0 432880.0 0
151924.0 433011.0 0
156478.0 434778.0 0
160049.0 431729.0 0
165372.0 433042.0 0
173319.0 431955.0 0
170426.0 434341.0 0
180038.0 430625.0 0
185682.0 434279.0 0
191689.0 433875.0 0
196023.0 432713.0 0
199901.0 435244.0 0
204442.0 433283.0 0
209988.0 430620.0 0
212882.0 435073.0 0
216841.0 433076.0 0
221554.0 434166.0 0
226841.0 435226.0 0
232359.0 433289.0 0
238322.0 432594.0 0
242983.0 434917.0 0
248027.0 433751.0 0
252807.0 434349.0 0
257582.0 433236.0 0
262435.0 431244.0 0
266802.0 433318.0 0
271669.0 435430.0 0
277391.0 434762.0 0
282364.0 433829.0 0
287604.0 433549.0 0
292237.0 433434.0 0
296051.0 434987.0 0
299837.0 434131.0 0
303039.0 434791.0 0
307648.0 434806.0 0
311983.0 432233.0 0
316991.0 433933.0 0
321659.0 433436.0 0
325340.0 433094.0 0
329822.0 431604.0 0
332292.0 435580.0 0
336133.0 433956.0 0
340689.0 430653.0 0
349837.0 433278.0 0
345310.0 434612.0 0
352714.0 435984.0 0
354815.0 432001.0 0
360470.0 433377.0 0
364670.0 434780.0 0
368656.0 433230.0 0
374179.0 432852.0 0
378762.0 434588.0 0
382509.0 433390.0 0
386616.0 436086.0 0
390261.0 434009.0 0
390753.0 437221.0 0
394025.0 436107.0 0
95741.8 442305.0 0
102860.0 438271.0 0
99459.1 441072.0 0
103273.0 441846.0 0
107125.0 438885.0 0
111821.0 440674.0 0
115561.0 437350.0 0
119312.0 438658.0 0
116354.0 441736.0 0
121307.0 441813.0 0
125546.0 440331.0 0
129385.0 440380.0 0
132896.0 438099.0 0
137992.0 439547.0 0
145219.0 438211.0 0
148269.0 436539.0 0
152331.0 438456.0 0
157080.0 439703.0 0
161080.0 436777.0 0
164352.0 440183.0 0
167884.0 437827.0 0
171531.0 440150.0 0
174686.0 436065.0 0
180052.0 436865.0 0
189798.0 439035.0 0
195096.0 438020.0 0
203962.0 438468.0 0
208139.0 436056.0 0
211522.0 439250.0 0
217355.0 438992.0 0
223567.0 439360.0 0
236087.0 437473.0 0
240906.0 440027.0 0
250585.0 438369.0 0
256389.0 439365.0 0
262414.0 436816.0 0
267682.0 439419.0 0
272336.0 440241.0 0
281200.0 437863.0 0
286039.0 439652.0 0
291644.0 437952.0 0
299996.0 437889.0 0
304427.0 438930.0 0
312426.0 437287.0 0
317235.0 439769.0 0
322250.0 437850.0 0
327904.0 437484.0 0
333327.0 440556.0 0
337725.0 438357.0 0
340964.0 435807.0 0
341437.0 439728.0 0
344995.0 439015.0 0
348911.0 437620.0 0
352945.0 440552.0 0
357352.0 437224.0 0
361945.0 437348.0 0
365122.0 438641.0 0
369937.0 438467.0 0
375266.0 437725.0 0
379258.0 438428.0 0
378027.0 441316.0 0
381511.0 441769.0 0
382327.0 437173.0 0
385080.0 439800.0 0
389255.0 440826.0 0
394237.0 439741.0 0
397517.0 438328.0 0
397985.0 441856.0 0
400925.0 440438.0 0
92865.7 444290.0 0
89710.9 446153.0 0
96428.3 445102.0 0
99941.3 444943.0 0
103911.0 445815.0 0
107255.0 442998.0 0
107718.0 446925.0 0
110866.0 444823.0 0
113628.0 443613.0 0
114371.0 446369.0 0
118307.0 444686.0 0
124046.0 443770.0 0
127467.0 443706.0 0
125139.0 446338.0 0
131591.0 443876.0 0
134550.0 441479.0 0
137248.0 445068.0 0
142520.0 442008.0 0
141909.0 446355.0 0
147924.0 441258.0 0
145994.0 446235.0 0
150608.0 445018.0 0
153803.0 442525.0 0
157510.0 445056.0 0
160657.0 441366.0 0
163065.0 445298.0 0
167797.0 442967.0 0
172115.0 445166.0 0
176420.0 441641.0 0
180442.0 441101.0 0
184488.0 440708.0 0
180826.0 444836.0 0
188441.0 444426.0 0
193977.0 443745.0 0
199572.0 441157.0 0
204199.0 444612.0 0
207724.0 440882.0 0
209051.0 445343.0 0
213161.0 443556.0 0
218169.0 445327.0 0
224222.0 445301.0 0
229155.0 440961.0 0
234765.0 442245.0 0
244362.0 444968.0 0
246328.0 440791.0 0
249325.0 444587.0 0
252518.0 442357.0 0
255457.0 445485.0 0
262046.0 444023.0 0
268156.0 444354.0 0
272870.0 444744.0 0
277229.0 440833.0 0
281997.0 443820.0 0
287177.0 445586.0 0
292184.0 443862.0 0
296126.0 440767.0 0
301064.0 443105.0 0
308810.0 441466.0 0
313472.0 443116.0 0
310603.0 445743.0 0
317752.0 445135.0 0
320753.0 442296.0 0
324859.0 442504.0 0
329043.0 442912.0 0
338636.0 442817.0 0
343434.0 443090.0 0
348290.0 442485.0 0
352884.0 445753.0 0
357046.0 441922.0 0
358240.0 446106.0 0
361433.0 441538.0 0
366110.0 442466.0 0
370050.0 444191.0 0
367562.0 446722.0 0
374343.0 442722.0 0
378612.0 445037.0 0
382742.0 446154.0 0
385399.0 443423.0 0
386476.0 446762.0 0
388592.0 444846.0 0
391582.0 445201.0 0
392597.0 442803.0 0
395363.0 443916.0 0
398811.0 446484.0 0
401284.0 443962.0 0
404286.0 442837.0 0
404315.0 446127.0 0
407962.0 445645.0 0
82598.0 451650.0 0
86354.9 448906.0 0
86824.2 452538.0 0
93436.7 448049.0 0
89632.2 449334.0 0
97413.3 448481.0 0
95093.5 451235.0 0
98256.0 452276.0 0
101203.0 449108.0 0
105873.0 450280.0 0
110777.0 448545.0 0
114108.0 450853.0 0
117630.0 448757.0 0
121584.0 446527.0 0
120662.0 450864.0 0
124188.0 449431.0 0
128494.0 447910.0 0
126562.0 451641.0 0
132845.0 447788.0 0
135847.0 450530.0 0
139690.0 448875.0 0
143283.0 449786.0 0
146953.0 450503.0 0
149509.0 448825.0 0
153682.0 448826.0 0
159746.0 449715.0 0
167643.0 448434.0 0
172442.0 450100.0 0
176498.0 446932.0 0
176159.0 450883.0 0
180138.0 449794.0 0
184736.0 447918.0 0
189572.0 449365.0 0
194071.0 448977.0 0
198916.0 446610.0 0
202845.0 449993.0 0
208292.0 450213.0 0
213942.0 448958.0 0
220056.0 450665.0 0
229727.0 447152.0 0
225127.0 450760.0 0
234083.0 446691.0 0
232962.0 450346.0 0
239085.0 446010.0 0
242580.0 449644.0 0
246972.0 448973.0 0
251772.0 448900.0 0
262234.0 450059.0 0
267671.0 449944.0 0
273390.0 449674.0 0
277576.0 446231.0 0
283549.0 449375.0 0
289567.0 450204.0 0
292928.0 448018.0 0
296617.0 446196.0 0
300988.0 448741.0 0
305854.0 446246.0 0
309655.0 449628.0 0
313929.0 448124.0 0
318262.0 450378.0 0
322393.0 447253.0 0
327276.0 446923.0 0
332243.0 446173.0 0
334330.0 450194.0 0
337535.0 447406.0 0
342564.0 447500.0 0
345316.0 451400.0 0
347956.0 447603.0 0
355401.0 449675.0 0
351857.0 450156.0 0
363680.0 446450.0 0
370566.0 448020.0 0
367094.0 450815.0 0
374959.0 447882.0 0
380004.0 450183.0 0
385784.0 450632.0 0
389858.0 448675.0 0
390080.0 452147.0 0
394405.0 448147.0 0
392386.0 451636.0 0
395488.0 452338.0 0
398539.0 450861.0 0
402601.0 449096.0 0
407682.0 449494.0 0
412115.0 448163.0 0
412195.0 451571.0 0
416547.0 451360.0 0
73447.0 457382.0 0
78391.1 454993.0 0
83579.6 456088.0 0
87986.2 455499.0 0
91142.2 452671.0 0
90689.7 457072.0 0
94426.8 454909.0 0
97541.9 455238.0 0
102408.0 453244.0 0
99975.4 456176.0 0
102977.0 457077.0 0
106162.0 455100.0 0
110043.0 452890.0 0
117176.0 452888.0 0
114247.0 455369.0 0
119762.0 454472.0 0
123241.0 453246.0 0
126373.0 455580.0 0
130813.0 452428.0 0
135196.0 455625.0 0
139819.0 453030.0 0
144550.0 454321.0 0
150414.0 452722.0 0
155633.0 453558.0 0
160524.0 454093.0 0
163803.0 451570.0 0
167885.0 454084.0 0
173097.0 454759.0 0
177840.0 454448.0 0
181980.0 453703.0 0
186050.0 452587.0 0
193070.0 453685.0 0
197887.0 451938.0 0
202363.0 455555.0 0
212757.0 453792.0 0
217270.0 455506.0 0
228845.0 451130.0 0
226388.0 455253.0 0
231251.0 454396.0 0
237058.0 451061.0 0
235996.0 455737.0 0
241369.0 454451.0 0
246722.0 453859.0 0
252325.0 454448.0 0
257354.0 450854.0 0
263061.0 455556.0 0
268914.0 455609.0 0
273840.0 455007.0 0
278462.0 451678.0 0
283011.0 453798.0 0
287527.0 454846.0 0
295675.0 451283.0 0
292211.0 453676.0 0
305368.0 451361.0 0
301283.0 453794.0 0
305020.0 455300.0 0
309354.0 454709.0 0
314155.0 452849.0 0
321310.0 453783.0 0
324919.0 451626.0 0
330057.0 451569.0 0
331562.0 455905.0 0
334415.0 454056.0 0
337212.0 451881.0 0
338261.0 455570.0 0
340827.0 451922.0 0
349599.0 454388.0 0
354737.0 453850.0 0
360641.0 452227.0 0
365564.0 455093.0 0
369546.0 455237.0 0
372156.0 451826.0 0
374276.0 456215.0 0
375982.0 452154.0 0
378955.0 455173.0 0
383862.0 454834.0 0
388780.0 455419.0 0
393343.0 455214.0 0
398264.0 455644.0 0
401364.0 452978.0 0
405389.0 452862.0 0
403418.0 456640.0 0
409521.0 453019.0 0
408778.0 456933.0 0
414042.0 455279.0 0
420977.0 452761.0 0
418267.0 454605.0 0
420801.0 455895.0 0
424338.0 456042.0 0
65530.2 461005.0 0
69199.8 459709.0 0
71980.5 461505.0 0
77129.5 460284.0 0
80748.6 458401.0 0
82290.6 461232.0 0
86627.6 459514.0 0
93620.6 458892.0 0
90635.8 461752.0 0
97058.4 458474.0 0
100821.0 461206.0 0
106037.0 459796.0 0
110088.0 457638.0 0
113728.0 460101.0 0
117867.0 457897.0 0
122154.0 457109.0 0
120860.0 460538.0 0
125098.0 460425.0 0
130279.0 458288.0 0
134655.0 461132.0 0
139987.0 458577.0 0
144908.0 458873.0 0
148343.0 456686.0 0
148101.0 461075.0 0
152537.0 458161.0 0
158247.0 459124.0 0
163443.0 456891.0 0
163480.0 461847.0 0
167002.0 458742.0 0
171323.0 459450.0 0
177240.0 460422.0 0
184057.0 457188.0 0
182367.0 460504.0 0
188951.0 456599.0 0
192772.0 460559.0 0
197019.0 457244.0 0
200556.0 460324.0 0
208232.0 456140.0 0
204843.0 460041.0 0
213100.0 458484.0 0
221962.0 456360.0 0
219438.0 460284.0 0
224006.0 459585.0 0
228150.0 459926.0 0
232546.0 458786.0 0
237634.0 460234.0 0
242169.0 460718.0 0
246397.0 458652.0 0
251409.0 460612.0 0
257497.0 456212.0 0
256989.0 460475.0 0
266882.0 459727.0 0
270946.0 459392.0 0
275257.0 459837.0 0
278923.0 457000.0 0
283322.0 458127.0 0
291939.0 458304.0 0
297054.0 456293.0 0
296241.0 460962.0 0
300094.0 461112.0 0
303406.0 458827.0 0
308211.0 460209.0 0
312962.0 458457.0 0
317689.0 456606.0 0
319703.0 460240.0 0
322834.0 458260.0 0
327432.0 456358.0 0
330982.0 459324.0 0
334840.0 458104.0 0
339118.0 461557.0 0
343719.0 456841.0 0
348636.0 459278.0 0
353061.0 458616.0 0
357915.0 457914.0 0
362779.0 458228.0 0
360681.0 461613.0 0
367209.0 458848.0 0
371023.0 459014.0 0
373981.0 460980.0 0
377758.0 459858.0 0
382305.0 459152.0 0
386498.0 458968.0 0
389330.0 458747.0 0
392402.0 458911.0 0
396201.0 459635.0 0
401057.0 459822.0 0
405688.0 460663.0 0
410154.0 461736.0 0
413360.0 459070.0 0
415038.0 462466.0 0
417868.0 458496.0 0
422411.0 459891.0 0
425953.0 461968.0 0
426020.0 459475.0 0
428766.0 458215.0 0
428614.0 461740.0 0
432522.0 461483.0 0
62968.6 464412.0 0
58798.3 465516.0 0
67632.0 462968.0 0
66838.3 466708.0 0
70048.4 464700.0 0
73966.3 464794.0 0
78580.9 464399.0 0
82506.9 464960.0 0
80022.2 467392.0 0
86505.9 464539.0 0
91322.6 466323.0 0
95453.8 463189.0 0
94787.4 467200.0 0
99557.2 467031.0 0
104991.0 464582.0 0
109812.0 462414.0 0
109637.0 467089.0 0
113715.0 464375.0 0
117405.0 462494.0 0
117870.0 466915.0 0
121137.0 463734.0 0
124526.0 464383.0 0
129432.0 463941.0 0
134460.0 466054.0 0
138158.0 463507.0 0
143019.0 463610.0 0
147975.0 466393.0 0
151933.0 462820.0 0
152535.0 466695.0 0
155900.0 464468.0 0
159751.0 464028.0 0
162279.0 466341.0 0
167979.0 462680.0 0
172103.0 464992.0 0
176405.0 465712.0 0
180804.0 465969.0 0
186432.0 461496.0 0
190062.0 465053.0 0
197167.0 461811.0 0
195052.0 465593.0 0
200597.0 465358.0 0
209043.0 461317.0 0
205312.0 464059.0 0
209253.0 466094.0 0
213344.0 463377.0 0
218147.0 465510.0 0
223197.0 463745.0 0
227933.0 465667.0 0
232672.0 463473.0 0
237206.0 464536.0 0
241477.0 465218.0 0
246087.0 463680.0 0
254282.0 464880.0 0
250151.0 465621.0 0
258530.0 465478.0 0
261861.0 461802.0 0
266946.0 465037.0 0
271858.0 463236.0 0
276519.0 465039.0 0
282279.0 463482.0 0
287171.0 460926.0 0
286955.0 465687.0 0
291214.0 463832.0 0
295540.0 465024.0 0
300052.0 465525.0 0
304453.0 463453.0 0
308496.0 466120.0 0
312276.0 463291.0 0
316510.0 461576.0 0
315854.0 465937.0 0
321302.0 464855.0 0
327091.0 462053.0 0
333551.0 462718.0 0
337204.0 466789.0 0
341950.0 466727.0 0
345253.0 463001.0 0
350964.0 463675.0 0
356434.0 463032.0 0
360844.0 465861.0 0
364986.0 463029.0 0
369528.0 462294.0 0
368607.0 465944.0 0
372677.0 464589.0 0
376794.0 463811.0 0
380796.0 463377.0 0
385140.0 462603.0 0
383822.0 466789.0 0
389903.0 462238.0 0
387541.0 465727.0 0
394028.0 463309.0 0
391414.0 466817.0 0
395422.0 467277.0 0
399163.0 464210.0 0
403698.0 463122.0 0
404426.0 466964.0 0
407607.0 464826.0 0
411992.0 465816.0 0
419680.0 462939.0 0
416832.0 466904.0 0
421358.0 467374.0 0
424080.0 464213.0 0
428465.0 465427.0 0
432806.0 465524.0 0
437097.0 463703.0 0
441033.0 466097.0 0
52041.8 469893.0 0
48993.2 472102.0 0
55971.2 468399.0 0
53645.0 472950.0 0
60391.6 468278.0 0
58265.6 471239.0 0
62141.5 472388.0 0
63532.9 468806.0 0
66591.1 470732.0 0
70601.9 468634.0 0
72791.9 471489.0 0
75706.2 468454.0 0
75767.6 472414.0 0
79499.0 470814.0 0
83489.7 468385.0 0
87479.0 469007.0 0
91709.1 470181.0 0
95327.7 470105.0 0
101806.0 470861.0 0
105103.0 469148.0 0
108414.0 471973.0 0
111973.0 470743.0 0
114023.0 467879.0 0
115930.0 471494.0 0
122030.0 467101.0 0
120887.0 471431.0 0
125880.0 468094.0 0
130406.0 469291.0 0
134875.0 470832.0 0
139022.0 467652.0 0
143437.0 468865.0 0
146939.0 471539.0 0
151082.0 470388.0 0
155197.0 468807.0 0
158805.0 467775.0 0
162245.0 470660.0 0
166665.0 467446.0 0
171225.0 470982.0 0
176673.0 469827.0 0
181412.0 471391.0 0
185735.0 466486.0 0
186551.0 471215.0 0
191599.0 469786.0 0
196322.0 470234.0 0
200973.0 471013.0 0
205063.0 468320.0 0
209125.0 471122.0 0
213685.0 468957.0 0
218574.0 470768.0 0
222602.0 469782.0 0
227489.0 470223.0 0
231675.0 467605.0 0
235539.0 468559.0 0
241087.0 469590.0 0
246303.0 469599.0 0
252728.0 470221.0 0
257768.0 469305.0 0
262220.0 468473.0 0
268011.0 469776.0 0
271857.0 467883.0 0
276039.0 470059.0 0
280823.0 469058.0 0
285726.0 469888.0 0
290836.0 469238.0 0
295515.0 468845.0 0
299600.0 470790.0 0
304197.0 468497.0 0
308499.0 471220.0 0
314090.0 470764.0 0
319567.0 470665.0 0
323013.0 469463.0 0
327033.0 468025.0 0
332385.0 467336.0 0
339945.0 470251.0 0
335718.0 471614.0 0
347192.0 467981.0 0
351909.0 468564.0 0
354273.0 471650.0 0
356763.0 468223.0 0
361671.0 470116.0 0
365055.0 467804.0 0
368171.0 469449.0 0
370251.0 472565.0 0
371663.0 468741.0 0
374616.0 471928.0 0
375997.0 467822.0 0
379321.0 471006.0 0
379911.0 467189.0 0
383488.0 470576.0 0
387594.0 469453.0 0
392404.0 472098.0 0
396494.0 470615.0 0
400562.0 469854.0 0
405399.0 470961.0 0
409418.0 469630.0 0
413818.0 469858.0 0
418456.0 471515.0 0
425337.0 468163.0 0
422522.0 470891.0 0
426350.0 471835.0 0
431270.0 468840.0 0
428583.0 469287.0 0
429778.0 472378.0 0
436323.0 468488.0 0
432729.0 471567.0 0
440892.0 469693.0 0
438675.0 472836.0 0
445361.0 469634.0 0
442890.0 473020.0 0
450337.0 471671.0 0
41763.9 476421.0 0
45386.8 474213.0 0
44952.0 477058.0 0
49245.2 476022.0 0
53327.6 476769.0 0
57821.9 475345.0 0
62447.8 477008.0 0
65772.4 474781.0 0
69604.4 473193.0 0
68480.2 477455.0 0
73197.0 475693.0 0
78225.1 475047.0 0
81182.9 478068.0 0
83416.8 473177.0 0
85655.8 477737.0 0
88476.7 473524.0 0
93234.8 474660.0 0
98508.4 473370.0 0
100647.0 477389.0 0
104070.0 474215.0 0
108077.0 475783.0 0
112287.0 474755.0 0
117820.0 475325.0 0
122346.0 476411.0 0
126187.0 472820.0 0
131066.0 474159.0 0
135660.0 475576.0 0
139042.0 472342.0 0
143121.0 473009.0 0
140512.0 476901.0 0
145544.0 476336.0 0
149942.0 474917.0 0
153781.0 472862.0 0
157670.0 471918.0 0
160561.0 475821.0 0
166218.0 474441.0 0
175176.0 474780.0 0
183244.0 475776.0 0
186578.0 475076.0 0
190435.0 474963.0 0
195676.0 474991.0 0
205027.0 473906.0 0
212539.0 474544.0 0
217030.0 475304.0 0
222360.0 474801.0 0
228186.0 475709.0 0
231843.0 471758.0 0
237595.0 474284.0 0
243846.0 474835.0 0
248875.0 474616.0 0
257058.0 472588.0 0
259927.0 474717.0 0
265000.0 473634.0 0
271846.0 474139.0 0
278883.0 474778.0 0
284719.0 474442.0 0
289343.0 474096.0 0
294699.0 473607.0 0
299506.0 475756.0 0
304021.0 473893.0 0
314930.0 476458.0 0
319780.0 475625.0 0
323720.0 473119.0 0
327152.0 472273.0 0
327737.0 475916.0 0
330917.0 472207.0 0
335645.0 476054.0 0
339992.0 475129.0 0
344073.0 471739.0 0
349243.0 473246.0 0
353971.0 475909.0 0
358583.0 473123.0 0
362399.0 476727.0 0
365601.0 472765.0 0
372661.0 476534.0 0
377839.0 475428.0 0
382395.0 474524.0 0
386899.0 473654.0 0
390244.0 477269.0 0
395309.0 477029.0 0
398103.0 473837.0 0
400759.0 477450.0 0
403423.0 474268.0 0
408195.0 474352.0 0
413595.0 474124.0 0
418731.0 475725.0 0
423267.0 475036.0 0
427640.0 475179.0 0
431677.0 476410.0 0
435164.0 473461.0 0
436824.0 477183.0 0
441326.0 476238.0 0
444707.0 478267.0 0
447423.0 474649.0 0
451053.0 477448.0 0
453977.0 474819.0 0
458712.0 478042.0 0
33723.4 481371.0 0
37959.8 480051.0 0
42289.5 480474.0 0
46774.1 480069.0 0
50908.0 480477.0 0
55171.1 480137.0 0
59455.8 479568.0 0
57659.7 483024.0 0
62453.5 482674.0 0
65158.3 478976.0 0
66982.1 481515.0 0
71749.9 480617.0 0
76737.5 478757.0 0
76187.3 482366.0 0
79597.5 481919.0 0
83671.2 481682.0 0
87972.2 481277.0 0
89535.9 477652.0 0
92176.7 479782.0 0
96548.0 478353.0 0
99665.4 481775.0 0
104686.0 479712.0 0
109910.0 479616.0 0
114761.0 478999.0 0
119076.0 479155.0 0
123026.0 482152.0 0
127035.0 477774.0 0
131787.0 478769.0 0
136418.0 480154.0 0
141234.0 481817.0 0
145944.0 480627.0 0
150039.0 479388.0 0
154854.0 477544.0 0
159137.0 481078.0 0
163957.0 479227.0 0
170936.0 478105.0 0
179165.0 476468.0 0
176112.0 479708.0 0
181581.0 480842.0 0
186904.0 478903.0 0
192783.0 479908.0 0
197676.0 481420.0 0
200751.0 477118.0 0
205430.0 479068.0 0
208650.0 476383.0 0
214234.0 479062.0 0
209993.0 480261.0 0
219228.0 479858.0 0
224114.0 479728.0 0
228269.0 480693.0 0
233120.0 479306.0 0
238227.0 480222.0 0
242250.0 479023.0 0
246568.0 478923.0 0
254060.0 476344.0 0
251378.0 480812.0 0
257363.0 480706.0 0
262256.0 478831.0 0
267602.0 478862.0 0
272898.0 480765.0 0
278614.0 480933.0 0
282830.0 478498.0 0
287827.0 479057.0 0
292400.0 477722.0 0
297018.0 480024.0 0
300825.0 478959.0 0
304020.0 479140.0 0
309089.0 477247.0 0
313168.0 480517.0 0
317928.0 481278.0 0
323876.0 479677.0 0
329721.0 480592.0 0
332065.0 476745.0 0
334939.0 480032.0 0
340584.0 481340.0 0
345070.0 477013.0 0
349869.0 478860.0 0
346256.0 481676.0 0
354431.0 480408.0 0
358088.0 477794.0 0
364283.0 480869.0 0
367617.0 477753.0 0
371673.0 481140.0 0
377078.0 480932.0 0
381327.0 478508.0 0
385210.0 478109.0 0
388184.0 481499.0 0
393127.0 481189.0 0
397992.0 481221.0 0
405790.0 478224.0 0
403011.0 481655.0 0
410975.0 478476.0 0
413832.0 482634.0 0
416630.0 479438.0 0
421798.0 479223.0 0
420291.0 481760.0 0
426627.0 479438.0 0
431120.0 481163.0 0
434205.0 479887.0 0
434412.0 482692.0 0
437327.0 481240.0 0
440900.0 480181.0 0
444576.0 482098.0 0
448088.0 479797.0 0
451656.0 481459.0 0
454613.0 479615.0 0
455133.0 483961.0 0
457320.0 481750.0 0
460268.0 482338.0 0
463747.0 481013.0 0
468457.0 483152.0 0
26839.3 484933.0 0
24667.8 487797.0 0
30652.5 484438.0 0
35708.0 484885.0 0
33260.9 488568.0 0
36928.0 488851.0 0
40158.6 485116.0 0
44491.4 483549.0 0
44448.7 487146.0 0
48410.3 484252.0 0
53346.0 484862.0 0
58422.5 486624.0 0
65505.5 485548.0 0
69209.0 485155.0 0
73686.5 485409.0 0
77716.4 485523.0 0
81177.8 484993.0 0
85326.9 486010.0 0
91203.8 483440.0 0
89496.7 486392.0 0
88567.7 484161.0 0
93220.4 487523.0 0
95222.9 483001.0 0
98087.1 486301.0 0
103136.0 485205.0 0
107823.0 483672.0 0
107242.0 487955.0 0
112262.0 483902.0 0
117288.0 483210.0 0
119872.0 486192.0 0
123511.0 487371.0 0
128229.0 482090.0 0
132441.0 483538.0 0
137178.0 485384.0 0
144551.0 484646.0 0
149617.0 484544.0 0
154706.0 483017.0 0
163148.0 483877.0 0
167532.0 482049.0 0
172736.0 484832.0 0
179018.0 486221.0 0
188845.0 483476.0 0
184443.0 485771.0 0
193355.0 485182.0 0
197889.0 486045.0 0
202042.0 481988.0 0
206734.0 483653.0 0
212115.0 484110.0 0
217023.0 484814.0 0
222191.0 484202.0 0
227073.0 485079.0 0
232051.0 483832.0 0
236244.0 485027.0 0
241629.0 483634.0 0
246908.0 484010.0 0
251471.0 485085.0 0
256130.0 485818.0 0
261353.0 484174.0 0
266129.0 483394.0 0
270339.0 485807.0 0
275852.0 485741.0 0
283784.0 483532.0 0
288739.0 484002.0 0
292335.0 481851.0 0
292246.0 486407.0 0
295577.0 484264.0 0
301301.0 482077.0 0
305673.0 482740.0 0
309878.0 482907.0 0
307242.0 486129.0 0
314482.0 484973.0 0
323401.0 484988.0 0
328179.0 485362.0 0
333020.0 483622.0 0
336962.0 486386.0 0
345633.0 485848.0 0
350772.0 484536.0 0
355308.0 483815.0 0
359675.0 482393.0 0
364175.0 485379.0 0
367979.0 482666.0 0
368792.0 486905.0 0
373737.0 485582.0 0
379214.0 486143.0 0
382985.0 482725.0 0
386819.0 485520.0 0
391200.0 485404.0 0
395561.0 485220.0 0
400006.0 485858.0 0
403955.0 485561.0 0
408478.0 483534.0 0
414023.0 486806.0 0
418466.0 484828.0 0
423756.0 483803.0 0
426893.0 485501.0 0
428212.0 483614.0 0
429437.0 487260.0 0
431710.0 484982.0 0
434861.0 485875.0 0
440997.0 484553.0 0
437163.0 484315.0 0
438091.0 487997.0 0
445331.0 486234.0 0
448229.0 483594.0 0
451763.0 485321.0 0
449048.0 487497.0 0
453921.0 488039.0 0
457849.0 488212.0 0
458466.0 484477.0 0
461696.0 485915.0 0
465636.0 485586.0 0
472151.0 485479.0 0
469518.0 486660.0 0
475551.0 487273.0 0
17605.7 491420.0 0
21030.3 490004.0 0
24562.7 492969.0 0
28662.8 489167.0 0
31668.7 491689.0 0
35292.6 492191.0 0
40140.3 489495.0 0
44379.8 491862.0 0
49319.7 488724.0 0
48294.4 492363.0 0
51218.1 492661.0 0
54284.5 489532.0 0
55391.5 493339.0 0
58773.2 491443.0 0
62634.2 488411.0 0
67180.8 489834.0 0
71197.9 488664.0 0
71713.9 492547.0 0
75217.6 489131.0 0
76924.9 492993.0 0
79779.2 488943.0 0
84090.1 491257.0 0
88799.0 489540.0 0
91826.2 492066.0 0
96527.7 491177.0 0
100941.0 489336.0 0
104696.0 492374.0 0
111347.0 488262.0 0
115654.0 488098.0 0
119930.0 490418.0 0
124784.0 491593.0 0
127940.0 486814.0 0
132711.0 488411.0 0
129194.0 491301.0 0
136838.0 490341.0 0
140942.0 488449.0 0
142951.0 492104.0 0
145617.0 488674.0 0
149545.0 489615.0 0
154009.0 488570.0 0
158837.0 486475.0 0
160930.0 491133.0 0
166547.0 488839.0 0
175734.0 489812.0 0
182038.0 489800.0 0
186664.0 490922.0 0
191903.0 489713.0 0
196032.0 491283.0 0
202588.0 486676.0 0
199527.0 489686.0 0
204284.0 490817.0 0
206607.0 488040.0 0
209453.0 486762.0 0
212834.0 489157.0 0
217332.0 489306.0 0
221455.0 489018.0 0
226141.0 489909.0 0
231368.0 488382.0 0
235999.0 490151.0 0
240471.0 488796.0 0
248526.0 488773.0 0
252623.0 488722.0 0
259946.0 488791.0 0
256086.0 490792.0 0
265230.0 488618.0 0
272803.0 489141.0 0
275514.0 489804.0 0
280853.0 488943.0 0
287095.0 488723.0 0
292107.0 491071.0 0
296866.0 488609.0 0
302510.0 486912.0 0
306548.0 489852.0 0
311024.0 487209.0 0
314627.0 489338.0 0
318927.0 487104.0 0
324982.0 489335.0 0
328864.0 489321.0 0
332200.0 487994.0 0
335449.0 491511.0 0
340205.0 490708.0 0
341853.0 486763.0 0
344624.0 490998.0 0
348209.0 488892.0 0
352573.0 490507.0 0
356903.0 487551.0 0
361374.0 489006.0 0
365258.0 489593.0 0
369096.0 491726.0 0
372507.0 489564.0 0
376742.0 490446.0 0
381411.0 490072.0 0
384424.0 487941.0 0
388951.0 489352.0 0
394180.0 489799.0 0
399022.0 490721.0 0
402550.0 488971.0 0
403869.0 492640.0 0
405938.0 488618.0 0
407598.0 491923.0 0
410109.0 489070.0 0
414142.0 491660.0 0
418137.0 489591.0 0
421508.0 491909.0 0
421863.0 488068.0 0
425667.0 488353.0 0
425733.0 492937.0 0
429202.0 490534.0 0
433708.0 490163.0 0
438985.0 492297.0 0
442336.0 489011.0 0
446589.0 490199.0 0
443687.0 493108.0 0
451279.0 490850.0 0
455749.0 492022.0 0
461188.0 489802.0 0
459424.0 492722.0 0
464140.0 489200.0 0
462922.0 492750.0 0
466081.0 492145.0 0
468150.0 489267.0 0
472242.0 489624.0 0
475531.0 490969.0 0
478688.0 489655.0 0
478547.0 493462.0 0
482274.0 491866.0 0
11022.0 495542.0 0
8150.48 498169.0 0
14856.1 494215.0 0
12838.4 498650.0 0
19738.4 494114.0 0
17121.7 498018.0 0
22088.3 497139.0 0
26062.9 497530.0 0
28676.5 494048.0 0
30144.4 498876.0 0
32177.4 494525.0 0
35323.4 497259.0 0
39179.2 493666.0 0
40276.5 497964.0 0
43072.1 495805.0 0
47421.4 495977.0 0
52779.1 497022.0 0
58358.4 496160.0 0
61881.1 497426.0 0
62956.0 493329.0 0
67418.4 493796.0 0
65437.7 496972.0 0
69506.6 496746.0 0
73958.9 496568.0 0
77960.2 496757.0 0
80697.2 494809.0 0
85164.3 496746.0 0
88252.7 493003.0 0
90214.1 495985.0 0
94285.7 495344.0 0
97820.1 495308.0 0
100322.0 493284.0 0
101729.0 497287.0 0
107133.0 496974.0 0
110208.0 492530.0 0
111987.0 496819.0 0
115452.0 493555.0 0
120765.0 495418.0 0
126345.0 496191.0 0
129691.0 494516.0 0
133372.0 493240.0 0
136987.0 496934.0 0
139404.0 493108.0 0
142532.0 496635.0 0
146489.0 493751.0 0
151381.0 493907.0 0
156635.0 493287.0 0
160645.0 496257.0 0
164170.0 493787.0 0
167590.0 494151.0 0
171897.0 492703.0 0
174758.0 496250.0 0
179125.0 493990.0 0
184615.0 496247.0 0
190971.0 494860.0 0
195904.0 495882.0 0
200749.0 494223.0 0
208712.0 493368.0 0
204861.0 496131.0 0
216876.0 494807.0 0
222364.0 493299.0 0
226959.0 495133.0 0
232866.0 494319.0 0
238794.0 494053.0 0
244801.0 492956.0 0
251368.0 493690.0 0
256801.0 495300.0 0
261599.0 493393.0 0
269916.0 492455.0 0
266082.0 496546.0 0
273542.0 495751.0 0
277226.0 493226.0 0
282712.0 495133.0 0
288128.0 493893.0 0
292286.0 496240.0 0
296037.0 493541.0 0
301699.0 493449.0 0
307201.0 495033.0 0
310650.0 491811.0 0
315709.0 494498.0 0
320896.0 492119.0 0
325662.0 494524.0 0
330714.0 492506.0 0
335405.0 496605.0 0
340450.0 495615.0 0
345323.0 495518.0 0
348661.0 492918.0 0
352526.0 496048.0 0
357792.0 493252.0 0
362905.0 492920.0 0
361523.0 497395.0 0
366407.0 496104.0 0
371081.0 495710.0 0
373416.0 492899.0 0
375704.0 496914.0 0
380410.0 494537.0 0
385766.0 492746.0 0
384308.0 497082.0 0
388708.0 497431.0 0
391349.0 493671.0 0
395966.0 494435.0 0
400162.0 494770.0 0
403987.0 497517.0 0
410432.0 492927.0 0
407839.0 495394.0 0
412975.0 496746.0 0
418120.0 494181.0 0
422523.0 496284.0 0
427143.0 497993.0 0
430802.0 494587.0 0
435848.0 495255.0 0
441151.0 497159.0 0
445675.0 496586.0 0
448361.0 493984.0 0
449617.0 498216.0 0
457399.0 495753.0 0
453011.0 495336.0 0
458684.0 499144.0 0
461815.0 496453.0 0
466057.0 495657.0 0
469751.0 493276.0 0
469639.0 497451.0 0
474088.0 498723.0 0
473951.0 494648.0 0
478344.0 497709.0 0
482372.0 495299.0 0
482786.0 498821.0 0
486033.0 497345.0 0
485938.0 493717.0 0
489331.0 495859.0 0
492632.0 498198.0 0
3632.85 500051.0 0
2433.99 503653.0 0
7102.4 502340.0 0
11573.4 501933.0 0
20179.1 500429.0 0
16028.6 502390.0 0
23896.0 500768.0 0
26519.9 501235.0 0
20798.0 503818.0 0
29300.3 503942.0 0
33559.8 502439.0 0
37417.4 501340.0 0
44040.2 498577.0 0
41986.5 502037.0 0
47620.3 501574.0 0
56466.4 499622.0 0
52947.2 501577.0 0
59644.9 500401.0 0
63652.6 500503.0 0
67170.8 499789.0 0
71390.1 501331.0 0
76505.8 500139.0 0
80792.5 498797.0 0
84316.0 501650.0 0
88726.7 500191.0 0
92578.3 498693.0 0
96823.1 499276.0 0
100851.0 501906.0 0
104340.0 500721.0 0
108942.0 502030.0 0
115268.0 497536.0 0
113509.0 500209.0 0
118195.0 500759.0 0
123084.0 499539.0 0
127074.0 501351.0 0
131381.0 498110.0 0
134986.0 502064.0 0
140203.0 501485.0 0
147918.0 498823.0 0
152839.0 501673.0 0
154513.0 497423.0 0
157559.0 499515.0 0
161510.0 501092.0 0
165668.0 498133.0 0
171043.0 498149.0 0
175103.0 499515.0 0
178996.0 499602.0 0
183412.0 501210.0 0
188318.0 499224.0 0
193190.0 499984.0 0
197739.0 500320.0 0
202188.0 499703.0 0
207793.0 499515.0 0
211931.0 497176.0 0
213148.0 500316.0 0
218084.0 500785.0 0
222339.0 498079.0 0
226818.0 500202.0 0
231562.0 499843.0 0
236454.0 498916.0 0
241284.0 498659.0 0
245832.0 498287.0 0
250418.0 499562.0 0
255155.0 499440.0 0
260720.0 499565.0 0
270640.0 499408.0 0
277559.0 498912.0 0
287592.0 499140.0 0
292566.0 501092.0 0
297413.0 498663.0 0
302430.0 498921.0 0
306967.0 499901.0 0
312980.0 500400.0 0
317788.0 500411.0 0
320924.0 497465.0 0
325656.0 499952.0 0
330255.0 497507.0 0
329449.0 501703.0 0
333546.0 501042.0 0
338778.0 501216.0 0
343343.0 499291.0 0
348339.0 500251.0 0
353359.0 500894.0 0
357015.0 498667.0 0
365848.0 500367.0 0
362116.0 502441.0 0
370342.0 500088.0 0
375166.0 502033.0 0
378167.0 500131.0 0
381208.0 499454.0 0
385517.0 501044.0 0
390535.0 501945.0 0
393621.0 497991.0 0
395562.0 502521.0 0
398874.0 498956.0 0
404659.0 501959.0 0
408675.0 499762.0 0
413922.0 502330.0 0
418353.0 499342.0 0
423280.0 501283.0 0
428538.0 503073.0 0
432673.0 499606.0 0
436427.0 502838.0 0
437451.0 499421.0 0
441228.0 503057.0 0
445500.0 500093.0 0
450745.0 502421.0 0
454678.0 499419.0 0
459350.0 503012.0 0
462267.0 500356.0 0
465588.0 499180.0 0
464315.0 503475.0 0
471700.0 499606.0 0
468786.0 501969.0 0
473174.0 501989.0 0
476442.0 501824.0 0
480841.0 502247.0 0
485424.0 501832.0 0
489172.0 500299.0 0
492873.0 502851.0 0
496945.0 500056.0 0
2643.66 507794.0 0
6493.91 506095.0 0
9995.42 504883.0 0
13484.6 505639.0 0
10436.5 508296.0 0
17395.9 506675.0 0
22259.2 507815.0 0
25025.2 504156.0 0
31594.7 507863.0 0
37639.1 506997.0 0
43776.9 505682.0 0
51780.5 505047.0 0
48183.2 507124.0 0
56428.2 504114.0 0
61498.1 504322.0 0
58618.3 508340.0 0
66592.7 504216.0 0
70751.6 506865.0 0
75142.3 505058.0 0
79893.2 503126.0 0
83110.6 506301.0 0
87666.4 504587.0 0
92631.9 503042.0 0
90912.0 507701.0 0
94944.1 507092.0 0
97339.1 503784.0 0
99661.1 507715.0 0
104104.0 504983.0 0
108531.0 507400.0 0
114105.0 505415.0 0
119046.0 505478.0 0
122572.0 503741.0 0
126064.0 505732.0 0
130697.0 505043.0 0
137082.0 506438.0 0
140799.0 505644.0 0
144637.0 502774.0 0
143910.0 506660.0 0
148712.0 505616.0 0
157430.0 503971.0 0
153719.0 506946.0 0
161782.0 505505.0 0
168515.0 502463.0 0
165558.0 505297.0 0
173369.0 503317.0 0
168948.0 506971.0 0
178849.0 505119.0 0
184248.0 505875.0 0
189344.0 504358.0 0
194961.0 504943.0 0
199980.0 504395.0 0
205032.0 504315.0 0
210311.0 504636.0 0
214721.0 503365.0 0
218028.0 505269.0 0
222501.0 503544.0 0
226648.0 503761.0 0
230759.0 505379.0 0
235933.0 503671.0 0
239995.0 501977.0 0
244213.0 502651.0 0
240248.0 505354.0 0
250240.0 504934.0 0
256324.0 504771.0 0
262109.0 505278.0 0
266221.0 502333.0 0
272048.0 504969.0 0
277788.0 504717.0 0
282586.0 502051.0 0
289041.0 504591.0 0
293940.0 505498.0 0
298328.0 504022.0 0
302471.0 502892.0 0
306377.0 504872.0 0
311328.0 506345.0 0
321181.0 503284.0 0
316282.0 504995.0 0
326390.0 504848.0 0
331491.0 505427.0 0
337116.0 507023.0 0
344306.0 502701.0 0
342051.0 505542.0 0
347226.0 506345.0 0
352509.0 505153.0 0
357059.0 503451.0 0
362918.0 507499.0 0
367321.0 504669.0 0
371820.0 504361.0 0
376195.0 506804.0 0
379773.0 503616.0 0
381662.0 507565.0 0
384923.0 506848.0 0
383535.0 504409.0 0
387039.0 504756.0 0
389824.0 505610.0 0
392990.0 506306.0 0
400818.0 503136.0 0
398475.0 507249.0 0
404020.0 506640.0 0
409340.0 504859.0 0
414471.0 507281.0 0
418914.0 504624.0 0
420269.0 508015.0 0
424224.0 506817.0 0
433339.0 504993.0 0
437450.0 506551.0 0
446461.0 503696.0 0
444590.0 507667.0 0
449253.0 506993.0 0
452988.0 505928.0 0
455284.0 503349.0 0
457024.0 507532.0 0
461446.0 506391.0 0
465005.0 507845.0 0
467948.0 505894.0 0
472552.0 505866.0 0
478150.0 506153.0 0
483831.0 505643.0 0
482135.0 508861.0 0
488727.0 505402.0 0
486102.0 509333.0 0
493678.0 507646.0 0
497322.0 504506.0 0
498123.0 508181.0 0
2096.62 511804.0 0
6433.59 510478.0 0
14514.6 509761.0 0
11133.2 512571.0 0
15949.2 513220.0 0
18901.7 510630.0 0
23694.8 512770.0 0
26648.3 508167.0 0
29047.1 511981.0 0
33390.8 511549.0 0
43579.0 510453.0 0
48780.4 510980.0 0
53210.0 508773.0 0
56222.3 511996.0 0
60471.7 512604.0 0
64040.6 508857.0 0
68925.5 510988.0 0
74271.6 509510.0 0
78658.9 508086.0 0
77460.3 512114.0 0
81887.1 511051.0 0
86398.1 509102.0 0
85215.8 512960.0 0
89782.3 512272.0 0
95310.5 511707.0 0
100380.0 512497.0 0
104346.0 510052.0 0
112076.0 509814.0 0
108710.0 512214.0 0
116841.0 510041.0 0
122288.0 509217.0 0
128041.0 509290.0 0
125926.0 512510.0 0
133214.0 509751.0 0
140585.0 509783.0 0
145888.0 510757.0 0
150903.0 510417.0 0
158381.0 509765.0 0
164253.0 509448.0 0
173756.0 508965.0 0
168740.0 511543.0 0
183345.0 510181.0 0
179248.0 511274.0 0
187252.0 509471.0 0
192374.0 509474.0 0
197383.0 509215.0 0
202453.0 509063.0 0
207908.0 509575.0 0
214380.0 507801.0 0
217397.0 510755.0 0
220819.0 508465.0 0
225678.0 507922.0 0
229638.0 510417.0 0
236582.0 509255.0 0
240619.0 511690.0 0
245100.0 508806.0 0
252081.0 509938.0 0
256800.0 510242.0 0
261823.0 509999.0 0
266824.0 507830.0 0
272138.0 511035.0 0
277283.0 509698.0 0
282703.0 507591.0 0
285340.0 511460.0 0
288757.0 509301.0 0
292366.0 509008.0 0
296767.0 510009.0 0
302502.0 508461.0 0
307838.0 510818.0 0
314045.0 511378.0 0
319050.0 509061.0 0
323186.0 507596.0 0
327301.0 510309.0 0
333038.0 510701.0 0
337117.0 511685.0 0
341758.0 511057.0 0
347137.0 511667.0 0
351671.0 509957.0 0
355708.0 510240.0 0
358424.0 507817.0 0
358861.0 511721.0 0
363143.0 512308.0 0
367441.0 510016.0 0
371174.0 511597.0 0
371578.0 507964.0 0
374611.0 510867.0 0
378931.0 510803.0 0
384371.0 508677.0 0
383363.0 511595.0 0
388399.0 509648.0 0
394041.0 510658.0 0
398247.0 512139.0 0
403379.0 512398.0 0
408373.0 509881.0 0
412677.0 511469.0 0
417175.0 511471.0 0
418165.0 508225.0 0
421536.0 511205.0 0
425955.0 511871.0 0
429900.0 508614.0 0
429954.0 513582.0 0
434597.0 508762.0 0
433070.0 511232.0 0
440562.0 508324.0 0
437864.0 511041.0 0
442855.0 512287.0 0
447908.0 511287.0 0
452578.0 509855.0 0
456562.0 512514.0 0
461134.0 510858.0 0
465428.0 511861.0 0
469521.0 509960.0 0
472702.0 513743.0 0
478781.0 510897.0 0
474725.0 509936.0 0
483300.0 512997.0 0
489671.0 509562.0 0
492499.0 511641.0 0
497036.0 512082.0 0
2677.12 515813.0 0
6929.29 514549.0 0
6154.2 518788.0 0
10214.8 516995.0 0
13707.9 515366.0 0
19122.0 514201.0 0
16887.9 516575.0 0
21126.9 517357.0 0
27375.5 515984.0 0
31988.9 515715.0 0
35422.9 517913.0 0
37842.4 513908.0 0
46749.3 514414.0 0
42658.2 515097.0 0
44556.3 517610.0 0
48642.3 518631.0 0
51966.0 514236.0 0
57043.9 516592.0 0
61781.0 516497.0 0
64894.7 513740.0 0
68839.9 516131.0 0
73162.2 513496.0 0
76571.7 515857.0 0
80372.6 515219.0 0
83641.2 515302.0 0
86846.3 516194.0 0
92264.3 517108.0 0
97915.9 516443.0 0
103223.0 516365.0 0
107180.0 515527.0 0
110976.0 516331.0 0
113760.0 512957.0 0
115552.0 516746.0 0
118616.0 513809.0 0
122686.0 514640.0 0
126359.0 515766.0 0
129843.0 513589.0 0
133751.0 516128.0 0
136847.0 512885.0 0
142539.0 513127.0 0
140011.0 515604.0 0
144280.0 516063.0 0
149203.0 515222.0 0
154293.0 513671.0 0
158277.0 516026.0 0
162077.0 513781.0 0
166114.0 515339.0 0
172705.0 514899.0 0
177373.0 516118.0 0
181321.0 515671.0 0
185901.0 514523.0 0
190504.0 513597.0 0
195546.0 514493.0 0
201515.0 514435.0 0
206770.0 514765.0 0
212787.0 513552.0 0
218627.0 514814.0 0
223376.0 512780.0 0
227951.0 515461.0 0
232990.0 513834.0 0
238269.0 515586.0 0
243867.0 515127.0 0
248659.0 513589.0 0
254609.0 513978.0 0
251469.0 517129.0 0
259378.0 514208.0 0
266082.0 514840.0 0
272000.0 515923.0 0
275884.0 514698.0 0
280899.0 513507.0 0
286242.0 516058.0 0
291784.0 513804.0 0
297665.0 515846.0 0
302331.0 513688.0 0
306303.0 515448.0 0
311195.0 516359.0 0
317093.0 516073.0 0
322389.0 512620.0 0
321686.0 516781.0 0
325890.0 515699.0 0
330465.0 514779.0 0
335256.0 515243.0 0
339692.0 515977.0 0
344848.0 516421.0 0
350699.0 515322.0 0
355526.0 513956.0 0
359949.0 516105.0 0
364584.0 516390.0 0
368983.0 515068.0 0
374410.0 515251.0 0
380462.0 516105.0 0
386131.0 515300.0 0
391087.0 514527.0 0
395581.0 514493.0 0
399348.0 516152.0 0
409100.0 515420.0 0
415175.0 516113.0 0
420204.0 515181.0 0
426403.0 516120.0 0
430863.0 518525.0 0
434633.0 514708.0 0
439409.0 515724.0 0
443254.0 516783.0 0
446643.0 515477.0 0
452066.0 515051.0 0
456874.0 517338.0 0
463468.0 515412.0 0
459765.0 514922.0 0
460913.0 518367.0 0
468025.0 515246.0 0
477806.0 515748.0 0
485384.0 517137.0 0
488665.0 513597.0 0
493136.0 515025.0 0
497171.0 517200.0 0
1737.3 519445.0 0
2074.76 522637.0 0
5777.65 522437.0 0
9861.76 520951.0 0
13789.9 519033.0 0
17587.4 520201.0 0
25128.5 519052.0 0
21614.0 522440.0 0
29401.7 519203.0 0
27230.9 522919.0 0
32701.2 519758.0 0
40625.2 518722.0 0
36610.0 521272.0 0
40683.2 523135.0 0
44541.7 520883.0 0
48597.6 523395.0 0
53055.3 519268.0 0
56200.2 520908.0 0
60222.4 520653.0 0
65061.1 519333.0 0
68687.4 522444.0 0
73020.0 518578.0 0
78127.3 520290.0 0
83033.8 518746.0 0
87482.0 520881.0 0
95988.1 519848.0 0
98408.7 522877.0 0
100412.0 519431.0 0
107313.0 519133.0 0
103434.0 522067.0 0
111755.0 521196.0 0
116654.0 521392.0 0
119907.0 517904.0 0
120902.0 522017.0 0
124459.0 519498.0 0
129497.0 518488.0 0
133422.0 520728.0 0
137158.0 518812.0 0
141553.0 519947.0 0
146715.0 520206.0 0
153759.0 519817.0 0
162503.0 518890.0 0
158861.0 522327.0 0
169031.0 519081.0 0
174600.0 520437.0 0
179845.0 519667.0 0
184627.0 519755.0 0
189917.0 517888.0 0
199047.0 518634.0 0
194435.0 520470.0 0
202930.0 520507.0 0
207620.0 519853.0 0
213019.0 519922.0 0
217896.0 519273.0 0
222484.0 518097.0 0
226853.0 520075.0 0
231788.0 519255.0 0
236459.0 519990.0 0
241564.0 520167.0 0
247148.0 519345.0 0
251900.0 521105.0 0
256560.0 519299.0 0
261745.0 519099.0 0
265841.0 522127.0 0
271990.0 520641.0 0
276980.0 519562.0 0
281821.0 518996.0 0
286955.0 521296.0 0
292917.0 520421.0 0
298331.0 520703.0 0
302633.0 518694.0 0
307479.0 519668.0 0
310422.0 522124.0 0
314471.0 520697.0 0
319477.0 520605.0 0
325021.0 521257.0 0
331981.0 520542.0 0
337749.0 521219.0 0
341862.0 520748.0 0
345568.0 520977.0 0
349743.0 520812.0 0
355188.0 519253.0 0
360270.0 520961.0 0
365318.0 520996.0 0
368433.0 518781.0 0
371704.0 519250.0 0
376267.0 519637.0 0
380731.0 522011.0 0
385171.0 519756.0 0
389261.0 521951.0 0
389069.0 518126.0 0
394509.0 519207.0 0
399911.0 520364.0 0
404210.0 518328.0 0
405641.0 522747.0 0
408601.0 520521.0 0
412064.0 519456.0 0
415472.0 520938.0 0
418955.0 519468.0 0
422920.0 518210.0 0
426571.0 520735.0 0
432738.0 522797.0 0
436195.0 519686.0 0
441478.0 520547.0 0
445267.0 519151.0 0
446501.0 522725.0 0
449161.0 519310.0 0
450841.0 523009.0 0
453736.0 520274.0 0
457664.0 521328.0 0
461258.0 521783.0 0
465674.0 519797.0 0
471916.0 519225.0 0
476643.0 520658.0 0
481272.0 520108.0 0
485951.0 521691.0 0
494632.0 520296.0 0
490537.0 519355.0 0
497424.0 522141.0 0
3482.46 527422.0 0
8985.07 525356.0 0
14274.8 523852.0 0
12164.7 528599.0 0
18761.2 527506.0 0
24084.0 526646.0 0
28967.6 527994.0 0
32343.7 523878.0 0
33415.2 528251.0 0
36984.6 526001.0 0
44490.3 524553.0 0
41677.9 528089.0 0
46535.7 527502.0 0
50825.0 527399.0 0
53328.4 523521.0 0
55186.8 527653.0 0
57724.6 524194.0 0
60049.9 528053.0 0
63531.1 524305.0 0
67293.1 526756.0 0
71398.9 526925.0 0
72920.2 522919.0 0
76296.5 525636.0 0
82549.0 525142.0 0
88318.0 525476.0 0
91247.3 528116.0 0
92805.3 523246.0 0
96087.7 527947.0 0
101388.0 526993.0 0
107851.0 523284.0 0
105471.0 526118.0 0
109997.0 527873.0 0
115407.0 526325.0 0
119680.0 526516.0 0
123666.0 525364.0 0
127868.0 522957.0 0
128075.0 527819.0 0
131878.0 524719.0 0
137523.0 524462.0 0
143555.0 524586.0 0
149448.0 525538.0 0
154555.0 525125.0 0
158206.0 526785.0 0
163323.0 524843.0 0
169219.0 524576.0 0
174145.0 525661.0 0
179031.0 524606.0 0
183810.0 525372.0 0
189095.0 523740.0 0
194219.0 525143.0 0
199046.0 523659.0 0
204028.0 524570.0 0
201579.0 527331.0 0
207851.0 524241.0 0
211763.0 524730.0 0
216764.0 523846.0 0
223264.0 524383.0 0
229206.0 524169.0 0
233642.0 523601.0 0
238237.0 524675.0 0
243426.0 524945.0 0
248798.0 524710.0 0
254561.0 524931.0 0
259327.0 523934.0 0
262704.0 526103.0 0
270020.0 524765.0 0
276072.0 524130.0 0
281907.0 525092.0 0
287248.0 525970.0 0
291548.0 526059.0 0
296866.0 524948.0 0
304847.0 524114.0 0
308970.0 525734.0 0
312884.0 525561.0 0
317220.0 524223.0 0
322338.0 525051.0 0
327740.0 525864.0 0
335996.0 524934.0 0
332050.0 526494.0 0
340190.0 524741.0 0
345200.0 525421.0 0
351295.0 526583.0 0
356147.0 524349.0 0
360588.0 525713.0 0
365900.0 526602.0 0
370025.0 523465.0 0
375391.0 524874.0 0
385181.0 524284.0 0
389412.0 526870.0 0
393468.0 524521.0 0
398838.0 525166.0 0
402514.0 522721.0 0
403835.0 526380.0 0
408281.0 525934.0 0
412309.0 523518.0 0
417196.0 524938.0 0
422153.0 522956.0 0
427004.0 525276.0 0
429627.0 522857.0 0
431622.0 527115.0 0
437647.0 525336.0 0
442856.0 524701.0 0
446593.0 527663.0 0
451294.0 526529.0 0
455008.0 524374.0 0
454525.0 528281.0 0
459222.0 525153.0 0
463943.0 524683.0 0
469233.0 524476.0 0
474410.0 523981.0 0
478517.0 523870.0 0
474457.0 527743.0 0
482995.0 525047.0 0
488650.0 525700.0 0
493473.0 524275.0 0
492998.0 528345.0 0
497609.0 526620.0 0
8189.65 529602.0 0
8376.22 533300.0 0
15172.4 532152.0 0
20129.6 532345.0 0
24834.4 531373.0 0
31807.2 531956.0 0
36957.1 531202.0 0
44615.3 531187.0 0
41483.6 532592.0 0
48173.7 530988.0 0
52618.7 531816.0 0
56860.9 531399.0 0
60726.3 533074.0 0
64517.3 529902.0 0
69121.1 531342.0 0
73240.9 530390.0 0
78193.8 530927.0 0
83266.6 530740.0 0
87002.1 529223.0 0
90158.5 531919.0 0
100562.0 532054.0 0
105093.0 530269.0 0
108708.0 533232.0 0
114232.0 531224.0 0
118335.0 529936.0 0
123339.0 531125.0 0
128508.0 532578.0 0
133493.0 530038.0 0
139434.0 530287.0 0
144805.0 529904.0 0
149886.0 531183.0 0
153841.0 528970.0 0
157432.0 531322.0 0
162005.0 530970.0 0
166486.0 529302.0 0
171358.0 529539.0 0
176805.0 530094.0 0
181451.0 528648.0 0
186561.0 530169.0 0
191898.0 528581.0 0
197070.0 529276.0 0
202871.0 532173.0 0
208742.0 529179.0 0
219161.0 527802.0 0
214563.0 528604.0 0
218234.0 532431.0 0
222607.0 530248.0 0
227173.0 528882.0 0
232964.0 528683.0 0
237307.0 531981.0 0
241060.0 529150.0 0
246655.0 530690.0 0
252797.0 530210.0 0
257536.0 528750.0 0
262217.0 531155.0 0
266900.0 527790.0 0
272210.0 528685.0 0
277359.0 528816.0 0
282392.0 532115.0 0
288754.0 530652.0 0
295046.0 530235.0 0
300943.0 528732.0 0
306832.0 529743.0 0
312235.0 530601.0 0
317079.0 528710.0 0
321074.0 530705.0 0
325467.0 530060.0 0
330749.0 531316.0 0
335681.0 529415.0 0
341401.0 530268.0 0
347160.0 530430.0 0
351694.0 532233.0 0
356748.0 529999.0 0
362290.0 530438.0 0
366886.0 531776.0 0
371012.0 528754.0 0
375940.0 530621.0 0
380946.0 527962.0 0
385659.0 528341.0 0
384749.0 532540.0 0
390157.0 532114.0 0
395021.0 529491.0 0
401140.0 531434.0 0
405807.0 529396.0 0
408926.0 529841.0 0
412386.0 528027.0 0
416574.0 530233.0 0
422513.0 528850.0 0
427694.0 529199.0 0
430584.0 531922.0 0
436256.0 531426.0 0
441706.0 529906.0 0
445922.0 532549.0 0
450917.0 531234.0 0
455423.0 531875.0 0
458096.0 528893.0 0
462026.0 528472.0 0
466244.0 528406.0 0
466781.0 532618.0 0
470727.0 529571.0 0
475507.0 531381.0 0
478970.0 528187.0 0
480404.0 532807.0 0
484423.0 529601.0 0
489366.0 530753.0 0
492772.0 531358.0 0
496843.0 531574.0 0
3147.45 533455.0 0
2172.12 538365.0 0
6519.78 537133.0 0
11956.5 536979.0 0
18207.9 536135.0 0
22866.6 535907.0 0
28394.9 535233.0 0
34453.0 535702.0 0
39194.6 536060.0 0
44744.2 535168.0 0
48971.4 534733.0 0
52682.4 536733.0 0
56797.4 535200.0 0
60261.6 537864.0 0
65290.0 534685.0 0
69615.2 537621.0 0
73756.9 534349.0 0
77740.2 536327.0 0
82059.1 534894.0 0
86244.9 533410.0 0
89628.8 537032.0 0
95057.8 533745.0 0
99921.8 537020.0 0
104351.0 535188.0 0
113040.0 536303.0 0
118181.0 534451.0 0
122786.0 537132.0 0
127202.0 536252.0 0
131512.0 536926.0 0
135250.0 534760.0 0
140159.0 536470.0 0
146754.0 535567.0 0
153431.0 535713.0 0
159373.0 535459.0 0
165855.0 534403.0 0
171349.0 534749.0 0
177358.0 536262.0 0
183179.0 535219.0 0
188450.0 535983.0 0
192675.0 533065.0 0
197481.0 535904.0 0
202419.0 537541.0 0
207181.0 536631.0 0
212672.0 534241.0 0
222855.0 535141.0 0
228479.0 534309.0 0
233510.0 533939.0 0
237309.0 536088.0 0
241744.0 534440.0 0
247048.0 537093.0 0
252622.0 535710.0 0
257069.0 533259.0 0
263158.0 536747.0 0
268374.0 533724.0 0
275033.0 532656.0 0
273410.0 536902.0 0
278006.0 535537.0 0
287175.0 535337.0 0
292198.0 535642.0 0
298680.0 535604.0 0
303313.0 533054.0 0
306733.0 535482.0 0
311335.0 535385.0 0
316805.0 533140.0 0
320720.0 535061.0 0
326659.0 536139.0 0
333050.0 536482.0 0
337204.0 533748.0 0
341654.0 535649.0 0
346130.0 535204.0 0
350719.0 537117.0 0
355360.0 535405.0 0
360167.0 534643.0 0
364373.0 535289.0 0
368666.0 536201.0 0
373935.0 535669.0 0
379777.0 534803.0 0
384766.0 537455.0 0
390096.0 537662.0 0
394978.0 534692.0 0
404500.0 535987.0 0
407174.0 532915.0 0
411890.0 532972.0 0
409030.0 537098.0 0
415918.0 534750.0 0
419980.0 533955.0 0
425867.0 534365.0 0
433135.0 534602.0 0
430664.0 537913.0 0
436360.0 537184.0 0
441567.0 535317.0 0
445651.0 535837.0 0
449175.0 535683.0 0
454850.0 535643.0 0
460772.0 534130.0 0
466275.0 537698.0 0
471755.0 534998.0 0
476855.0 535076.0 0
480374.0 537485.0 0
485707.0 535255.0 0
491986.0 535440.0 0
497179.0 537115.0 0
2126.32 542398.0 0
8352.59 540204.0 0
12475.0 543303.0 0
16420.9 539809.0 0
18282.8 543481.0 0
20743.4 539928.0 0
25869.8 539595.0 0
31419.0 539729.0 0
36665.4 540105.0 0
42541.7 539479.0 0
45000.0 543389.0 0
47876.7 539152.0 0
56249.8 538699.0 0
53351.0 540881.0 0
57110.9 542690.0 0
64264.9 538779.0 0
62074.5 542388.0 0
66606.4 541642.0 0
74370.9 538557.0 0
72069.3 542885.0 0
80649.6 538300.0 0
78009.8 541135.0 0
84386.0 538999.0 0
82736.7 542476.0 0
87852.3 541922.0 0
95179.0 539889.0 0
99890.0 541498.0 0
103687.0 539924.0 0
107021.0 541948.0 0
108077.0 538146.0 0
111691.0 541838.0 0
117660.0 540045.0 0
126931.0 540361.0 0
122591.0 542288.0 0
131621.0 542313.0 0
136653.0 541378.0 0
144392.0 540187.0 0
149507.0 541014.0 0
154791.0 541257.0 0
162833.0 538117.0 0
159131.0 540198.0 0
163080.0 542290.0 0
166983.0 539573.0 0
172491.0 540506.0 0
177942.0 542117.0 0
181435.0 539385.0 0
185602.0 540248.0 0
192698.0 539337.0 0
196704.0 541694.0 0
201686.0 542633.0 0
207370.0 541538.0 0
211786.0 539930.0 0
217381.0 538518.0 0
223153.0 540855.0 0
228525.0 539755.0 0
233632.0 538746.0 0
236306.0 542018.0 0
240288.0 540065.0 0
248893.0 542099.0 0
253369.0 540732.0 0
257883.0 538303.0 0
260860.0 541100.0 0
265025.0 542249.0 0
269404.0 539417.0 0
277619.0 541017.0 0
283449.0 538480.0 0
288786.0 540294.0 0
295182.0 540645.0 0
300405.0 541276.0 0
303419.0 538061.0 0
304823.0 541536.0 0
307677.0 539420.0 0
311431.0 539754.0 0
316014.0 537782.0 0
321952.0 539787.0 0
326059.0 542086.0 0
330169.0 540123.0 0
338065.0 538232.0 0
346608.0 540067.0 0
341988.0 541159.0 0
351069.0 542194.0 0
354660.0 539674.0 0
359195.0 539609.0 0
365016.0 540386.0 0
371394.0 541163.0 0
381566.0 538676.0 0
377676.0 540564.0 0
386771.0 541756.0 0
391679.0 542852.0 0
394581.0 538802.0 0
396016.0 542015.0 0
399489.0 538129.0 0
405074.0 541109.0 0
411493.0 542532.0 0
416503.0 539079.0 0
421844.0 538479.0 0
419703.0 542337.0 0
426358.0 539837.0 0
434520.0 542830.0 0
440164.0 540507.0 0
445742.0 539975.0 0
452201.0 540083.0 0
457586.0 539084.0 0
462092.0 540319.0 0
471103.0 541106.0 0
476105.0 538817.0 0
479116.0 541002.0 0
476154.0 542794.0 0
484101.0 541351.0 0
488981.0 539592.0 0
493495.0 541201.0 0
498371.0 541130.0 0
2613.51 546941.0 0
6532.88 543902.0 0
9248.55 547002.0 0
16398.5 546838.0 0
20117.4 547984.0 0
23304.0 544360.0 0
28405.1 543604.0 0
34226.4 544673.0 0
39970.8 543986.0 0
43364.8 547312.0 0
50195.6 543469.0 0
47327.7 546740.0 0
51749.3 547905.0 0
56360.9 547120.0 0
61682.2 548017.0 0
67523.5 546319.0 0
75046.3 546876.0 0
80342.2 546186.0 0
84193.3 544521.0 0
87242.5 546547.0 0
91892.2 544383.0 0
97398.5 544593.0 0
101644.0 545102.0 0
104776.0 547834.0 0
108286.0 545472.0 0
113524.0 546427.0 0
118636.0 545873.0 0
127536.0 544782.0 0
123703.0 546672.0 0
136211.0 545876.0 0
141415.0 544525.0 0
147221.0 546400.0 0
152746.0 545736.0 0
158709.0 545689.0 0
167696.0 544438.0 0
163815.0 546326.0 0
172908.0 547041.0 0
178016.0 546470.0 0
181207.0 544928.0 0
186124.0 545948.0 0
192631.0 545324.0 0
197947.0 546416.0 0
206010.0 545434.0 0
210584.0 544947.0 0
216109.0 544526.0 0
221337.0 546057.0 0
226790.0 545848.0 0
231599.0 543485.0 0
235507.0 545304.0 0
244505.0 543159.0 0
240255.0 545768.0 0
252229.0 545655.0 0
257624.0 543864.0 0
261736.0 545135.0 0
270423.0 544483.0 0
275300.0 546302.0 0
279795.0 546224.0 0
282449.0 543197.0 0
283449.0 547311.0 0
286295.0 544623.0 0
291712.0 545444.0 0
297933.0 546287.0 0
303067.0 545099.0 0
311016.0 544944.0 0
317039.0 543591.0 0
322289.0 545446.0 0
330617.0 544621.0 0
336764.0 543955.0 0
342668.0 546981.0 0
347161.0 544476.0 0
350802.0 547226.0 0
356117.0 544239.0 0
361113.0 544096.0 0
365036.0 545527.0 0
369603.0 546685.0 0
375170.0 545929.0 0
379905.0 546184.0 0
382391.0 543020.0 0
386946.0 546698.0 0
391225.0 546952.0 0
395215.0 546181.0 0
400109.0 544234.0 0
406660.0 546797.0 0
411121.0 547840.0 0
416613.0 543454.0 0
415256.0 547314.0 0
420265.0 546587.0 0
423711.0 543236.0 0
426069.0 547719.0 0
428833.0 543413.0 0
431102.0 547288.0 0
439762.0 545100.0 0
444838.0 545737.0 0
448919.0 543839.0 0
452428.0 545024.0 0
449457.0 548000.0 0
457133.0 543989.0 0
461659.0 544186.0 0
465672.0 543443.0 0
469983.0 546452.0 0
475246.0 547284.0 0
479949.0 544895.0 0
484988.0 546426.0 0
488974.0 544102.0 0
492787.0 545932.0 0
497264.0 545090.0 0
3522.03 552763.0 0
6555.25 548574.0 0
9022.26 551675.0 0
12691.6 548913.0 0
13317.0 553480.0 0
17023.1 550885.0 0
24444.2 549043.0 0
21555.7 552321.0 0
29609.0 548699.0 0
34777.2 549292.0 0
38811.5 548575.0 0
37728.8 552816.0 0
42342.9 551563.0 0
47531.5 551378.0 0
52445.4 552411.0 0
56731.8 551491.0 0
60748.7 553400.0 0
66122.7 551141.0 0
71217.8 550561.0 0
77438.7 551998.0 0
84050.1 551061.0 0
89737.0 550982.0 0
93378.7 548425.0 0
97151.7 548411.0 0
95186.8 553055.0 0
101019.0 550517.0 0
105324.0 551652.0 0
110083.0 550390.0 0
122314.0 550219.0 0
117682.0 552090.0 0
126477.0 550412.0 0
131549.0 548090.0 0
132433.0 552626.0 0
137588.0 550348.0 0
143163.0 550553.0 0
147465.0 550496.0 0
152844.0 550895.0 0
157477.0 550910.0 0
162084.0 550373.0 0
167287.0 549567.0 0
177446.0 550430.0 0
181340.0 548720.0 0
184543.0 552255.0 0
189824.0 550576.0 0
195417.0 550617.0 0
201586.0 550353.0 0
207822.0 550153.0 0
213306.0 549260.0 0
218727.0 551115.0 0
223793.0 549825.0 0
227642.0 552108.0 0
231896.0 548793.0 0
236803.0 548980.0 0
241131.0 551440.0 0
246169.0 548169.0 0
250821.0 550102.0 0
256453.0 550226.0 0
262646.0 549164.0 0
267794.0 549156.0 0
273066.0 551406.0 0
278564.0 550536.0 0
282724.0 551257.0 0
287392.0 550160.0 0
293246.0 550737.0 0
298374.0 551105.0 0
302222.0 549394.0 0
305562.0 551938.0 0
306472.0 547945.0 0
312596.0 549629.0 0
317472.0 549680.0 0
322368.0 550419.0 0
326742.0 548657.0 0
328946.0 552217.0 0
332353.0 549573.0 0
337506.0 550380.0 0
343827.0 551900.0 0
347083.0 549781.0 0
350975.0 552349.0 0
355234.0 549463.0 0
361573.0 550096.0 0
367859.0 551610.0 0
372983.0 550819.0 0
378394.0 550698.0 0
382861.0 548784.0 0
388608.0 550928.0 0
392702.0 550357.0 0
397377.0 550077.0 0
401923.0 549192.0 0
405973.0 551965.0 0
410858.0 551997.0 0
416373.0 552670.0 0
421944.0 551521.0 0
432411.0 552070.0 0
436158.0 548451.0 0
437525.0 553382.0 0
441206.0 549795.0 0
445960.0 550693.0 0
454715.0 549400.0 0
458532.0 552450.0 0
460427.0 548328.0 0
465561.0 548618.0 0
467630.0 552632.0 0
471438.0 550943.0 0
476409.0 552803.0 0
481271.0 549787.0 0
486371.0 550589.0 0
491890.0 550794.0 0
497979.0 549403.0 0
1387.13 557074.0 0
6116.55 557638.0 0
11019.6 557894.0 0
17764.8 556082.0 0
22687.9 556827.0 0
26644.3 553897.0 0
32860.2 553453.0 0
36266.4 557584.0 0
40972.4 556017.0 0
45282.9 555825.0 0
49710.8 555911.0 0
54496.5 556420.0 0
58510.1 556545.0 0
63797.5 556349.0 0
68267.1 555322.0 0
72867.4 555325.0 0
76515.8 557491.0 0
82051.6 557326.0 0
87485.6 555123.0 0
99591.4 554158.0 0
103160.0 555492.0 0
107644.0 554798.0 0
112582.0 555813.0 0
117546.0 557937.0 0
123193.0 554232.0 0
128325.0 554739.0 0
131639.0 556929.0 0
134809.0 554392.0 0
140148.0 555997.0 0
148767.0 554534.0 0
154505.0 554714.0 0
162979.0 554818.0 0
158558.0 555323.0 0
167364.0 554662.0 0
173345.0 552986.0 0
171104.0 557010.0 0
177909.0 555101.0 0
181962.0 556012.0 0
187039.0 557857.0 0
192494.0 555174.0 0
197490.0 555187.0 0
202921.0 556763.0 0
208839.0 555743.0 0
214113.0 554838.0 0
218941.0 556475.0 0
223952.0 555979.0 0
228453.0 556369.0 0
232016.0 554354.0 0
236316.0 552994.0 0
240947.0 555574.0 0
246113.0 554514.0 0
251927.0 554978.0 0
256871.0 556048.0 0
260733.0 554167.0 0
265872.0 554200.0 0
272989.0 556347.0 0
276617.0 555387.0 0
280755.0 554445.0 0
285469.0 555757.0 0
290708.0 554661.0 0
296012.0 555240.0 0
301652.0 554312.0 0
310253.0 553090.0 0
306391.0 555916.0 0
315423.0 554880.0 0
320625.0 554653.0 0
325635.0 553765.0 0
331709.0 553953.0 0
336184.0 556230.0 0
331478.0 557871.0 0
341433.0 555317.0 0
346450.0 554808.0 0
350002.0 557120.0 0
356829.0 553813.0 0
361034.0 556540.0 0
366200.0 556262.0 0
371614.0 556031.0 0
377658.0 556539.0 0
384041.0 554315.0 0
390018.0 554991.0 0
395228.0 554554.0 0
400176.0 553468.0 0
400608.0 557556.0 0
403938.0 555646.0 0
408328.0 556218.0 0
413215.0 557124.0 0
417745.0 557554.0 0
423056.0 556283.0 0
427072.0 553258.0 0
426925.0 558124.0 0
430631.0 556457.0 0
434821.0 557398.0 0
443226.0 554439.0 0
439705.0 557927.0 0
447990.0 554658.0 0
452742.0 554462.0 0
457436.0 556828.0 0
463054.0 553319.0 0
462369.0 558243.0 0
467193.0 557096.0 0
471079.0 555001.0 0
474116.0 557471.0 0
479068.0 557597.0 0
483295.0 554544.0 0
488030.0 554683.0 0
492498.0 556722.0 0
497007.0 553678.0 0
498202.0 557773.0 0
2693.66 560859.0 0
7805.68 562347.0 0
15490.7 561256.0 0
20272.6 560308.0 0
25234.3 560049.0 0
30278.8 558633.0 0
27718.6 563197.0 0
34464.5 561848.0 0
38239.2 561361.0 0
41584.1 560245.0 0
45909.3 560189.0 0
51180.5 560754.0 0
56696.8 560813.0 0
61440.6 560024.0 0
66481.8 560343.0 0
72417.9 560771.0 0
78044.2 561415.0 0
81621.6 562481.0 0
87254.5 559566.0 0
92069.1 558210.0 0
98260.9 558759.0 0
103872.0 561450.0 0
108481.0 558973.0 0
113746.0 561136.0 0
121844.0 558440.0 0
118829.0 561118.0 0
122163.0 562963.0 0
126510.0 559542.0 0
131515.0 560969.0 0
135669.0 559120.0 0
140137.0 562154.0 0
145471.0 559528.0 0
152611.0 558388.0 0
157171.0 559852.0 0
161399.0 558804.0 0
166746.0 560592.0 0
172812.0 561089.0 0
177810.0 560012.0 0
182206.0 560023.0 0
185012.0 562863.0 0
192339.0 560303.0 0
198282.0 559388.0 0
201719.0 562423.0 0
206655.0 561402.0 0
210752.0 559763.0 0
215549.0 560418.0 0
221150.0 560644.0 0
226774.0 561784.0 0
231297.0 558919.0 0
236879.0 558450.0 0
242948.0 559067.0 0
248577.0 559946.0 0
254337.0 560141.0 0
262223.0 559264.0 0
269040.0 560097.0 0
275391.0 559866.0 0
279845.0 558542.0 0
283744.0 560917.0 0
289382.0 559706.0 0
294177.0 559789.0 0
298612.0 560566.0 0
302682.0 558793.0 0
306097.0 559859.0 0
311179.0 558812.0 0
317359.0 559160.0 0
322120.0 559870.0 0
327039.0 558342.0 0
330203.0 562098.0 0
335648.0 562209.0 0
340239.0 559112.0 0
343535.0 558834.0 0
347095.0 560148.0 0
355421.0 559529.0 0
364052.0 560547.0 0
368779.0 560472.0 0
374259.0 559662.0 0
381751.0 559349.0 0
378535.0 562898.0 0
386631.0 559578.0 0
383724.0 562707.0 0
391655.0 559847.0 0
396747.0 559398.0 0
400582.0 561545.0 0
405036.0 560116.0 0
410099.0 560774.0 0
415569.0 561671.0 0
421041.0 559942.0 0
425089.0 562282.0 0
430894.0 561455.0 0
436546.0 561990.0 0
442088.0 562846.0 0
445454.0 558619.0 0
447839.0 563181.0 0
450471.0 558714.0 0
454688.0 561199.0 0
459357.0 561364.0 0
463267.0 562196.0 0
467350.0 562018.0 0
471645.0 561006.0 0
475914.0 561224.0 0
483762.0 559389.0 0
480085.0 562145.0 0
488010.0 558718.0 0
486853.0 562522.0 0
490920.0 561463.0 0
495604.0 561001.0 0
2380.15 565783.0 0
6606.21 566928.0 0
12235.9 566335.0 0
18255.1 565174.0 0
23009.8 564358.0 0
27416.6 567495.0 0
31722.9 565418.0 0
36910.3 565513.0 0
42379.3 565265.0 0
47797.5 564839.0 0
53475.0 565839.0 0
58728.0 565139.0 0
63634.6 564891.0 0
67833.3 564514.0 0
74854.4 565972.0 0
79953.9 566920.0 0
86115.5 565311.0 0
94257.2 563598.0 0
99440.5 564276.0 0
105742.0 565421.0 0
102588.0 568134.0 0
109102.0 563573.0 0
113311.0 566150.0 0
117490.0 563954.0 0
126799.0 564799.0 0
131020.0 565127.0 0
135162.0 563871.0 0
143139.0 566699.0 0
148374.0 564624.0 0
153711.0 563388.0 0
158664.0 563830.0 0
162500.0 565053.0 0
166088.0 566697.0 0
170447.0 564878.0 0
176080.0 564569.0 0
180875.0 564481.0 0
184472.0 566714.0 0
189824.0 565812.0 0
196414.0 564162.0 0
200738.0 567598.0 0
205684.0 566592.0 0
211209.0 564383.0 0
216791.0 566064.0 0
222020.0 565634.0 0
227474.0 566492.0 0
232554.0 563915.0 0
237469.0 563781.0 0
242239.0 564598.0 0
247963.0 565917.0 0
253528.0 565426.0 0
258458.0 563601.0 0
263064.0 564999.0 0
267632.0 566279.0 0
273569.0 565146.0 0
278793.0 563436.0 0
282390.0 564982.0 0
286845.0 566018.0 0
292725.0 564548.0 0
298476.0 566410.0 0
303031.0 563202.0 0
307946.0 563497.0 0
312995.0 565177.0 0
318509.0 563889.0 0
325359.0 564420.0 0
321568.0 567337.0 0
330467.0 567441.0 0
337324.0 566722.0 0
341937.0 563957.0 0
346573.0 566686.0 0
350381.0 563804.0 0
359340.0 564302.0 0
364145.0 565283.0 0
368461.0 564685.0 0
372961.0 563685.0 0
376967.0 567047.0 0
382306.0 567886.0 0
386976.0 565189.0 0
391233.0 564856.0 0
396611.0 564773.0 0
402625.0 566093.0 0
407344.0 564274.0 0
411697.0 565185.0 0
415766.0 566158.0 0
420253.0 564705.0 0
428195.0 566642.0 0
433759.0 566206.0 0
438826.0 567455.0 0
448733.0 567485.0 0
444826.0 566813.0 0
452604.0 565720.0 0
457401.0 565120.0 0
462367.0 566723.0 0
467646.0 566531.0 0
471714.0 565098.0 0
476750.0 566314.0 0
483231.0 566130.0 0
488994.0 566014.0 0
493232.0 565138.0 0
497715.0 565155.0 0
2460.12 570519.0 0
8674.17 571356.0 0
13696.4 571441.0 0
16828.4 568850.0 0
23261.5 569593.0 0
29554.1 571630.0 0
34245.1 569872.0 0
39207.1 569677.0 0
43447.4 570250.0 0
47688.6 569574.0 0
52451.6 571163.0 0
61063.3 568663.0 0
56948.5 569264.0 0
59943.5 573488.0 0
64990.6 569510.0 0
69990.7 568581.0 0
74472.2 570240.0 0
77668.3 570465.0 0
83315.4 570550.0 0
91500.6 568318.0 0
87679.3 570896.0 0
96951.7 568921.0 0
108423.0 569152.0 0
113655.0 571263.0 0
117543.0 568495.0 0
117659.0 572602.0 0
122925.0 568650.0 0
128506.0 569429.0 0
133855.0 568906.0 0
136564.0 573043.0 0
138979.0 569133.0 0
142729.0 572088.0 0
147080.0 569732.0 0
152818.0 569269.0 0
158587.0 568314.0 0
162974.0 570514.0 0
166686.0 571089.0 0
170451.0 569644.0 0
175730.0 569516.0 0
181149.0 570037.0 0
186334.0 570640.0 0
191235.0 571976.0 0
196285.0 570012.0 0
200552.0 571967.0 0
205079.0 571558.0 0
210111.0 570033.0 0
215152.0 570666.0 0
219781.0 570299.0 0
224941.0 569967.0 0
230859.0 569848.0 0
236921.0 568668.0 0
241940.0 571294.0 0
247671.0 571980.0 0
253391.0 570791.0 0
258291.0 568788.0 0
259832.0 572927.0 0
263543.0 570002.0 0
269036.0 571506.0 0
274139.0 570490.0 0
279709.0 569112.0 0
285260.0 571480.0 0
289850.0 569878.0 0
293949.0 569675.0 0
298140.0 571347.0 0
303148.0 570416.0 0
308495.0 568371.0 0
307580.0 572639.0 0
313026.0 570637.0 0
317557.0 568875.0 0
320894.0 570516.0 0
325398.0 570204.0 0
334689.0 568855.0 0
338536.0 571172.0 0
343790.0 570134.0 0
350386.0 569745.0 0
356455.0 569051.0 0
361493.0 568841.0 0
366554.0 570523.0 0
372720.0 569337.0 0
377634.0 570804.0 0
387924.0 569764.0 0
393173.0 569387.0 0
398637.0 570359.0 0
403888.0 571431.0 0
408321.0 568859.0 0
413349.0 569748.0 0
418415.0 569804.0 0
423023.0 568807.0 0
426523.0 571542.0 0
431716.0 571052.0 0
435767.0 568450.0 0
437463.0 573301.0 0
442588.0 570843.0 0
446499.0 569897.0 0
451532.0 571200.0 0
456972.0 569778.0 0
461784.0 572523.0 0
467469.0 571463.0 0
471717.0 568823.0 0
474984.0 571763.0 0
480159.0 570538.0 0
485962.0 571395.0 0
491898.0 569866.0 0
497333.0 569885.0 0
2995.23 575864.0 0
8500.31 576830.0 0
13875.6 576328.0 0
19263.0 573575.0 0
25492.9 573706.0 0
23274.8 577633.0 0
31024.7 576126.0 0
35891.6 574755.0 0
41138.5 574015.0 0
39118.2 577814.0 0
43898.3 576631.0 0
45787.0 573664.0 0
49958.3 575702.0 0
55115.8 575129.0 0
65663.9 574314.0 0
71882.4 574790.0 0
81039.9 573746.0 0
77381.7 574443.0 0
80628.2 578321.0 0
85323.4 575191.0 0
91870.2 573730.0 0
97750.8 574452.0 0
103248.0 573750.0 0
109694.0 575336.0 0
115278.0 575092.0 0
121368.0 573853.0 0
118549.0 577834.0 0
126587.0 574601.0 0
132372.0 576022.0 0
139733.0 576641.0 0
147336.0 575264.0 0
154316.0 575672.0 0
159758.0 574049.0 0
164271.0 574874.0 0
168559.0 574140.0 0
173339.0 574097.0 0
178201.0 574839.0 0
182320.0 574581.0 0
186837.0 575846.0 0
192105.0 577173.0 0
197453.0 575017.0 0
202855.0 575753.0 0
207692.0 574769.0 0
212852.0 574658.0 0
217481.0 574324.0 0
221850.0 575250.0 0
227035.0 575191.0 0
232678.0 575505.0 0
237625.0 574020.0 0
244426.0 576100.0 0
240708.0 576581.0 0
251743.0 576000.0 0
256277.0 574682.0 0
263056.0 574680.0 0
267583.0 576707.0 0
272766.0 574717.0 0
277495.0 574724.0 0
282443.0 574893.0 0
289574.0 574163.0 0
294750.0 574604.0 0
299997.0 574996.0 0
304805.0 576367.0 0
311115.0 575623.0 0
316727.0 574575.0 0
321902.0 574054.0 0
322090.0 578372.0 0
326599.0 575605.0 0
332574.0 573637.0 0
337683.0 575767.0 0
342088.0 575226.0 0
346996.0 574067.0 0
351514.0 574710.0 0
356461.0 575061.0 0
361782.0 574011.0 0
366720.0 575853.0 0
371184.0 574695.0 0
376410.0 575392.0 0
381461.0 573928.0 0
386517.0 574560.0 0
391806.0 574735.0 0
397715.0 576298.0 0
402030.0 574886.0 0
405969.0 576344.0 0
410273.0 573528.0 0
411928.0 577961.0 0
415163.0 574553.0 0
420853.0 574897.0 0
426460.0 576731.0 0
432194.0 576798.0 0
442663.0 576884.0 0
446853.0 573793.0 0
450717.0 576635.0 0
456259.0 575414.0 0
460964.0 577376.0 0
465813.0 576821.0 0
471177.0 575379.0 0
476840.0 577490.0 0
481821.0 574727.0 0
485214.0 578214.0 0
490421.0 575544.0 0
496753.0 575594.0 0
2064.48 580801.0 0
5716.34 580105.0 0
11464.8 580818.0 0
18484.6 579657.0 0
23927.2 583483.0 0
28987.5 580381.0 0
34248.5 578896.0 0
33023.9 582811.0 0
37445.4 581668.0 0
42557.9 579793.0 0
46634.3 579858.0 0
50526.9 580568.0 0
55672.6 579891.0 0
62011.2 579685.0 0
67804.9 578834.0 0
71571.7 580270.0 0
75814.8 580517.0 0
81599.8 583352.0 0
85633.8 580612.0 0
90650.4 583332.0 0
94502.3 578850.0 0
100178.0 579310.0 0
105264.0 578556.0 0
109520.0 581141.0 0
113841.0 578782.0 0
116784.0 583165.0 0
123417.0 578983.0 0
128125.0 579627.0 0
132017.0 580819.0 0
136004.0 579966.0 0
143796.0 578985.0 0
147771.0 580646.0 0
152584.0 581236.0 0
157867.0 580598.0 0
162524.0 578880.0 0
167908.0 579496.0 0
172992.0 578614.0 0
177400.0 579687.0 0
182692.0 579581.0 0
188617.0 581293.0 0
193190.0 581292.0 0
196155.0 579137.0 0
200640.0 580383.0 0
206074.0 579811.0 0
212119.0 580380.0 0
217601.0 578876.0 0
222137.0 580137.0 0
226759.0 580378.0 0
231566.0 580670.0 0
236781.0 579325.0 0
241732.0 580213.0 0
247476.0 581012.0 0
253565.0 580774.0 0
258091.0 578847.0 0
263063.0 579063.0 0
267447.0 582033.0 0
272013.0 579294.0 0
280145.0 579456.0 0
275900.0 581918.0 0
284396.0 578945.0 0
288427.0 578981.0 0
293036.0 579159.0 0
297621.0 579005.0 0
302063.0 580628.0 0
308141.0 580064.0 0
312886.0 580565.0 0
317811.0 579894.0 0
326106.0 580994.0 0
321586.0 582302.0 0
331506.0 579944.0 0
336104.0 579220.0 0
340249.0 579687.0 0
346316.0 580054.0 0
352524.0 579343.0 0
357501.0 580242.0 0
363104.0 579685.0 0
369111.0 579921.0 0
373424.0 578500.0 0
376919.0 579936.0 0
373398.0 582656.0 0
382308.0 580109.0 0
388486.0 579162.0 0
393397.0 579675.0 0
397517.0 581574.0 0
402878.0 581526.0 0
408519.0 580883.0 0
417251.0 579166.0 0
413320.0 582511.0 0
422352.0 580711.0 0
428201.0 581769.0 0
433002.0 583006.0 0
437330.0 579674.0 0
442093.0 582465.0 0
447247.0 580657.0 0
452811.0 580883.0 0
457690.0 581093.0 0
462898.0 581373.0 0
467514.0 581452.0 0
471809.0 580381.0 0
476898.0 583263.0 0
481131.0 581229.0 0
489605.0 581164.0 0
485213.0 583033.0 0
497033.0 581667.0 0
2956.39 585064.0 0
7695.8 583871.0 0
6145.78 588236.0 0
12700.5 585363.0 0
17844.2 585144.0 0
29308.0 584718.0 0
36251.4 586552.0 0
41983.9 585035.0 0
47922.7 585007.0 0
52662.7 584512.0 0
57447.7 585116.0 0
62950.4 585944.0 0
67683.5 583600.0 0
69384.9 588348.0 0
72687.4 584507.0 0
77483.1 585109.0 0
85653.4 585675.0 0
96562.6 584417.0 0
101753.0 584162.0 0
106374.0 585155.0 0
111794.0 585903.0 0
119812.0 588131.0 0
125200.0 584749.0 0
130633.0 585302.0 0
133874.0 583770.0 0
138364.0 584549.0 0
141965.0 588508.0 0
143817.0 583683.0 0
149246.0 585947.0 0
155041.0 584574.0 0
162216.0 583549.0 0
158417.0 586249.0 0
166995.0 585226.0 0
173080.0 584148.0 0
179401.0 584638.0 0
184646.0 584891.0 0
188888.0 586045.0 0
192941.0 585236.0 0
197675.0 584689.0 0
202948.0 585376.0 0
208158.0 584601.0 0
213324.0 586386.0 0
218336.0 583957.0 0
222718.0 584050.0 0
221681.0 588047.0 0
226742.0 585250.0 0
232072.0 585962.0 0
237363.0 584788.0 0
242566.0 584887.0 0
247257.0 587378.0 0
252344.0 585715.0 0
257743.0 584281.0 0
262843.0 583756.0 0
266185.0 587536.0 0
272137.0 585677.0 0
279610.0 584742.0 0
285192.0 583646.0 0
282644.0 588243.0 0
291715.0 584525.0 0
298137.0 584474.0 0
303565.0 585071.0 0
308557.0 585708.0 0
312762.0 584739.0 0
317689.0 585806.0 0
324341.0 585849.0 0
329389.0 585403.0 0
335340.0 584591.0 0
341707.0 584838.0 0
351742.0 584642.0 0
346976.0 585854.0 0
357154.0 585429.0 0
363309.0 586376.0 0
369192.0 585234.0 0
374017.0 588101.0 0
377939.0 584208.0 0
381986.0 587168.0 0
387087.0 584726.0 0
393520.0 585276.0 0
399648.0 586799.0 0
404753.0 586541.0 0
409257.0 585718.0 0
418231.0 584235.0 0
423941.0 586026.0 0
429151.0 586731.0 0
437556.0 584981.0 0
433951.0 587934.0 0
441365.0 586892.0 0
445806.0 585579.0 0
450501.0 584982.0 0
455291.0 585488.0 0
460275.0 585758.0 0
465557.0 585021.0 0
470306.0 585277.0 0
475109.0 588304.0 0
481342.0 586976.0 0
487460.0 587279.0 0
492708.0 585530.0 0
497645.0 586907.0 0
2105.36 589385.0 0
1811.61 593254.0 0
6777.41 593485.0 0
10402.3 589435.0 0
15213.2 589678.0 0
21462.7 589549.0 0
27163.7 588958.0 0
32448.0 590404.0 0
37382.8 591452.0 0
41572.2 590280.0 0
46169.1 589961.0 0
49570.9 592626.0 0
52426.0 589222.0 0
56056.5 590882.0 0
59828.2 590216.0 0
64986.0 590898.0 0
74846.8 589863.0 0
81209.0 588997.0 0
87199.3 590520.0 0
92799.5 589104.0 0
98032.0 590093.0 0
102927.0 589071.0 0
108295.0 589848.0 0
114571.0 590730.0 0
119459.0 593619.0 0
124602.0 591237.0 0
129446.0 589293.0 0
133774.0 589087.0 0
137632.0 589155.0 0
137288.0 593348.0 0
147840.0 591662.0 0
154330.0 588656.0 0
162982.0 588712.0 0
158544.0 590467.0 0
172870.0 589601.0 0
168397.0 589700.0 0
177116.0 590219.0 0
182029.0 589575.0 0
186639.0 588964.0 0
192468.0 589680.0 0
188954.0 591889.0 0
197307.0 588924.0 0
198516.0 593479.0 0
203675.0 590934.0 0
208486.0 589316.0 0
212447.0 591267.0 0
217291.0 590878.0 0
222173.0 593284.0 0
226049.0 590080.0 0
230825.0 591215.0 0
236761.0 590963.0 0
242482.0 589944.0 0
247439.0 591821.0 0
251157.0 590425.0 0
255885.0 589543.0 0
262123.0 589784.0 0
270367.0 591259.0 0
265808.0 592398.0 0
277091.0 590423.0 0
283236.0 593195.0 0
287546.0 589304.0 0
293060.0 590543.0 0
300880.0 589542.0 0
297330.0 592984.0 0
307075.0 591042.0 0
312624.0 589337.0 0
318477.0 592570.0 0
323741.0 590362.0 0
330473.0 589257.0 0
327511.0 589391.0 0
333869.0 589861.0 0
338602.0 589563.0 0
344279.0 590589.0 0
352211.0 590843.0 0
358830.0 591076.0 0
364646.0 592580.0 0
369096.0 590041.0 0
378786.0 591420.0 0
384534.0 590917.0 0
389594.0 590449.0 0
395635.0 591172.0 0
402795.0 590761.0 0
399862.0 593328.0 0
407940.0 591090.0 0
414027.0 588593.0 0
417148.0 593074.0 0
419725.0 589095.0 0
425774.0 590646.0 0
430441.0 591571.0 0
436050.0 590530.0 0
434381.0 592424.0 0
439414.0 590732.0 0
444549.0 590319.0 0
451852.0 590737.0 0
457319.0 589524.0 0
461471.0 590231.0 0
463411.0 593695.0 0
465855.0 589413.0 0
470420.0 589988.0 0
473266.0 593525.0 0
478785.0 591964.0 0
485726.0 592687.0 0
491547.0 591126.0 0
497183.0 591909.0 0
2705.71 597653.0 0
12545.7 594103.0 0
18061.1 594270.0 0
23499.1 594757.0 0
28138.9 594060.0 0
28716.5 598490.0 0
34268.8 596101.0 0
39011.3 594714.0 0
43648.7 594051.0 0
41666.9 598691.0 0
47500.0 595270.0 0
51954.6 596536.0 0
57249.8 594808.0 0
62526.4 595420.0 0
67493.0 595095.0 0
72679.5 595570.0 0
78176.3 594661.0 0
83540.5 594462.0 0
88203.7 596064.0 0
93325.3 595157.0 0
98537.6 594553.0 0
101827.0 598033.0 0
104907.0 593990.0 0
110545.0 594566.0 0
115182.0 595666.0 0
123250.0 595451.0 0
126116.0 598527.0 0
132044.0 593745.0 0
127678.0 594528.0 0
142641.0 593960.0 0
147908.0 596709.0 0
153227.0 594498.0 0
157177.0 598744.0 0
158906.0 594585.0 0
163419.0 593892.0 0
168681.0 594708.0 0
173902.0 593771.0 0
179262.0 595355.0 0
184992.0 594253.0 0
188571.0 597734.0 0
192822.0 594793.0 0
203393.0 596569.0 0
207936.0 593957.0 0
212525.0 596059.0 0
217833.0 596529.0 0
227317.0 595427.0 0
232786.0 596125.0 0
238321.0 597301.0 0
244101.0 595321.0 0
249728.0 595045.0 0
253990.0 596531.0 0
259121.0 594446.0 0
264181.0 596102.0 0
268376.0 595665.0 0
273450.0 595438.0 0
278721.0 596767.0 0
288459.0 595269.0 0
293670.0 595944.0 0
297765.0 597582.0 0
302033.0 595188.0 0
306990.0 596153.0 0
312313.0 595501.0 0
316670.0 596990.0 0
319882.0 597980.0 0
323820.0 595491.0 0
329921.0 594169.0 0
336122.0 594016.0 0
341530.0 596640.0 0
347841.0 595099.0 0
356185.0 595568.0 0
352148.0 596822.0 0
360771.0 596156.0 0
372406.0 593900.0 0
367578.0 597026.0 0
377683.0 596702.0 0
382721.0 595166.0 0
388518.0 596875.0 0
395328.0 597522.0 0
400275.0 598695.0 0
404018.0 595801.0 0
412568.0 594179.0 0
408961.0 596920.0 0
421955.0 593761.0 0
418475.0 597812.0 0
427048.0 595596.0 0
432534.0 596301.0 0
437764.0 595389.0 0
442282.0 594493.0 0
447302.0 595334.0 0
452679.0 596618.0 0
458170.0 594880.0 0
462664.0 597612.0 0
468055.0 593992.0 0
471078.0 597413.0 0
477138.0 595786.0 0
481307.0 595600.0 0
485091.0 597957.0 0
490533.0 597140.0 0
497371.0 597217.0 0
2622.89 602854.0 0
7592.83 600471.0 0
12703.3 599097.0 0
11109.9 603861.0 0
18245.1 600478.0 0
24072.6 599766.0 0
27291.6 603789.0 0
32552.3 602022.0 0
37212.7 600489.0 0
43623.3 603137.0 0
47236.9 599673.0 0
55873.8 599724.0 0
51899.9 602247.0 0
60664.9 600186.0 0
66179.0 600133.0 0
76460.3 599065.0 0
71686.6 600864.0 0
75841.9 603568.0 0
80964.8 598937.0 0
85429.0 600028.0 0
90836.6 600965.0 0
96894.5 599446.0 0
103312.0 603451.0 0
107179.0 598905.0 0
112483.0 599195.0 0
116537.0 603301.0 0
120703.0 598896.0 0
122488.0 603638.0 0
127483.0 603697.0 0
131863.0 599831.0 0
138396.0 599051.0 0
143969.0 598943.0 0
152926.0 600532.0 0
148245.0 601672.0 0
162569.0 599299.0 0
158956.0 602762.0 0
168232.0 600297.0 0
164978.0 603477.0 0
174113.0 599417.0 0
178974.0 602810.0 0
183764.0 599765.0 0
188125.0 603470.0 0
192843.0 600542.0 0
198954.0 600755.0 0
203852.0 601397.0 0
208275.0 599843.0 0
219033.0 600668.0 0
214720.0 600905.0 0
222601.0 599682.0 0
229214.0 600296.0 0
226890.0 603718.0 0
234184.0 601171.0 0
238638.0 602310.0 0
242844.0 600760.0 0
247995.0 599781.0 0
252394.0 600079.0 0
256532.0 600636.0 0
261442.0 599679.0 0
266060.0 599893.0 0
270546.0 599586.0 0
275388.0 601417.0 0
283229.0 599711.0 0
288670.0 601110.0 0
294154.0 600828.0 0
300036.0 600519.0 0
304619.0 600327.0 0
309349.0 599910.0 0
315285.0 600286.0 0
311977.0 602440.0 0
322243.0 602049.0 0
327874.0 600686.0 0
335159.0 599429.0 0
339296.0 601048.0 0
346790.0 599681.0 0
343030.0 602388.0 0
350782.0 600617.0 0
357633.0 600513.0 0
363097.0 600366.0 0
367199.0 601800.0 0
372626.0 600463.0 0
378859.0 601834.0 0
382838.0 599674.0 0
386148.0 601838.0 0
391402.0 602928.0 0
398509.0 601810.0 0
403105.0 601722.0 0
407934.0 601190.0 0
413125.0 599644.0 0
423010.0 600876.0 0
427775.0 600354.0 0
432159.0 601506.0 0
437236.0 600567.0 0
442879.0 599567.0 0
448387.0 600705.0 0
452276.0 603850.0 0
456106.0 600404.0 0
460660.0 601066.0 0
466948.0 599114.0 0
474087.0 600068.0 0
470366.0 602486.0 0
479070.0 600155.0 0
483525.0 601737.0 0
487496.0 601106.0 0
491747.0 603236.0 0
497343.0 602463.0 0
2126.76 607457.0 0
7057.48 606335.0 0
15183.2 605158.0 0
11883.1 608083.0 0
21884.3 605770.0 0
33200.6 608572.0 0
38152.0 604872.0 0
42387.8 607601.0 0
47776.1 604988.0 0
53197.1 608648.0 0
57524.6 603971.0 0
60118.5 608482.0 0
63153.7 604339.0 0
67798.5 605274.0 0
72033.2 605474.0 0
81365.8 604470.0 0
76671.0 608335.0 0
86737.9 604804.0 0
91859.7 607358.0 0
97465.0 604974.0 0
109411.0 604274.0 0
113171.0 607543.0 0
117177.0 608765.0 0
120049.0 606588.0 0
122925.0 608987.0 0
131886.0 604954.0 0
127691.0 608803.0 0
136395.0 604686.0 0
142886.0 604398.0 0
149335.0 606823.0 0
154765.0 604572.0 0
158720.0 607333.0 0
164142.0 608096.0 0
169420.0 605763.0 0
174347.0 604804.0 0
177649.0 607093.0 0
183325.0 606369.0 0
188187.0 608629.0 0
192931.0 605419.0 0
197040.0 605559.0 0
202542.0 605446.0 0
207616.0 605300.0 0
212273.0 605141.0 0
217675.0 605597.0 0
222911.0 604932.0 0
226606.0 608625.0 0
231011.0 605348.0 0
235949.0 605665.0 0
240808.0 605901.0 0
246024.0 605317.0 0
251724.0 604346.0 0
252458.0 608872.0 0
257716.0 605592.0 0
262793.0 604585.0 0
268290.0 604410.0 0
273342.0 606464.0 0
278546.0 605911.0 0
282991.0 604303.0 0
286980.0 606349.0 0
292322.0 605943.0 0
297738.0 604403.0 0
303236.0 605451.0 0
308224.0 604327.0 0
308663.0 608718.0 0
312708.0 606340.0 0
317594.0 604822.0 0
322338.0 607186.0 0
327070.0 606138.0 0
332570.0 605081.0 0
338606.0 605241.0 0
344366.0 606148.0 0
346786.0 608783.0 0
348054.0 604275.0 0
352621.0 604059.0 0
356690.0 605971.0 0
362528.0 606080.0 0
369249.0 606749.0 0
374543.0 606078.0 0
382500.0 604851.0 0
378363.0 606335.0 0
381301.0 608931.0 0
387015.0 605785.0 0
391018.0 608465.0 0
395741.0 605556.0 0
400270.0 605970.0 0
406066.0 605459.0 0
411359.0 605339.0 0
408255.0 608705.0 0
417320.0 604018.0 0
422765.0 606577.0 0
427163.0 604339.0 0
431320.0 606672.0 0
436915.0 606062.0 0
441831.0 604754.0 0
446792.0 605755.0 0
456956.0 606092.0 0
461830.0 605192.0 0
466800.0 605989.0 0
474989.0 605326.0 0
480826.0 605391.0 0
486354.0 605564.0 0
494163.0 608324.0 0
498260.0 606748.0 0
3379.48 612765.0 0
8751.12 611211.0 0
12931.0 612225.0 0
17495.8 609015.0 0
21880.4 610812.0 0
26630.3 609461.0 0
38757.9 610864.0 0
43157.1 613587.0 0
46839.5 609802.0 0
49397.6 613394.0 0
57526.5 613453.0 0
65278.9 609504.0 0
62327.4 613268.0 0
70214.1 609682.0 0
73992.2 611042.0 0
81586.6 610652.0 0
85910.1 613939.0 0
86819.9 609381.0 0
92963.4 611780.0 0
97331.2 610950.0 0
103493.0 609777.0 0
109194.0 609653.0 0
113454.0 611630.0 0
117684.0 613411.0 0
129019.0 613714.0 0
133349.0 610014.0 0
139328.0 609358.0 0
145026.0 610707.0 0
149980.0 611298.0 0
153941.0 609320.0 0
158044.0 612453.0 0
168431.0 610600.0 0
174009.0 610895.0 0
180020.0 610650.0 0
184507.0 611121.0 0
188437.0 613860.0 0
192929.0 610284.0 0
196882.0 608987.0 0
200993.0 610733.0 0
206711.0 610511.0 0
212812.0 610584.0 0
218392.0 610731.0 0
222677.0 611433.0 0
231960.0 610414.0 0
237375.0 610676.0 0
243019.0 609579.0 0
241606.0 613764.0 0
248016.0 611193.0 0
256635.0 610672.0 0
261131.0 609047.0 0
265883.0 609359.0 0
270476.0 610056.0 0
276300.0 611096.0 0
282699.0 610451.0 0
288941.0 611338.0 0
294719.0 611393.0 0
299799.0 609208.0 0
304689.0 610168.0 0
312224.0 611012.0 0
316834.0 609911.0 0
325448.0 610494.0 0
321588.0 611622.0 0
330654.0 611271.0 0
336273.0 610004.0 0
341938.0 609821.0 0
351969.0 609104.0 0
347692.0 613577.0 0
358928.0 609654.0 0
361852.0 612152.0 0
357736.0 613511.0 0
366510.0 612129.0 0
371354.0 614058.0 0
373741.0 609999.0 0
377611.0 609917.0 0
386127.0 610799.0 0
394827.0 611445.0 0
397936.0 614024.0 0
399364.0 610556.0 0
404166.0 610124.0 0
411945.0 611167.0 0
417922.0 610290.0 0
427395.0 609463.0 0
423944.0 611100.0 0
431497.0 611908.0 0
435970.0 610153.0 0
441016.0 610182.0 0
446373.0 611073.0 0
451394.0 609187.0 0
456306.0 611097.0 0
461207.0 610065.0 0
466049.0 610964.0 0
471243.0 610183.0 0
478014.0 610910.0 0
482889.0 609487.0 0
487493.0 611420.0 0
492892.0 613509.0 0
497870.0 611341.0 0
9539.8 616373.0 0
18100.0 615452.0 0
24455.6 614370.0 0
23501.5 619182.0 0
29243.5 616953.0 0
35270.3 615211.0 0
39229.0 614717.0 0
40405.4 618750.0 0
47183.3 618008.0 0
53173.1 616684.0 0
61283.5 618710.0 0
66337.4 616126.0 0
71662.4 616399.0 0
76871.3 614235.0 0
81765.9 616786.0 0
91009.0 615874.0 0
96220.1 615954.0 0
101449.0 615816.0 0
107326.0 614632.0 0
113052.0 617004.0 0
118552.0 618315.0 0
123402.0 614557.0 0
132940.0 615090.0 0
138220.0 614940.0 0
143800.0 616554.0 0
148243.0 614712.0 0
153298.0 615663.0 0
163181.0 615192.0 0
169473.0 615635.0 0
174385.0 616284.0 0
183477.0 615140.0 0
178786.0 615571.0 0
192940.0 614674.0 0
197146.0 614389.0 0
202807.0 615142.0 0
208422.0 615248.0 0
213049.0 616410.0 0
217802.0 615317.0 0
222601.0 615997.0 0
227879.0 614296.0 0
232996.0 614920.0 0
237462.0 616088.0 0
241611.0 618999.0 0
245617.0 616134.0 0
250024.0 615948.0 0
254942.0 615940.0 0
261406.0 614844.0 0
268189.0 614627.0 0
273826.0 616164.0 0
279431.0 615874.0 0
283727.0 615385.0 0
287237.0 616365.0 0
291607.0 615672.0 0
296251.0 616611.0 0
301465.0 614632.0 0
308031.0 615046.0 0
313741.0 615381.0 0
318086.0 614317.0 0
316909.0 618627.0 0
326304.0 614859.0 0
321961.0 616549.0 0
330729.0 617001.0 0
335042.0 614745.0 0
340089.0 615080.0 0
347219.0 619013.0 0
353011.0 614768.0 0
357007.0 617820.0 0
361274.0 616531.0 0
366522.0 617008.0 0
376862.0 614537.0 0
373447.0 618849.0 0
382011.0 614286.0 0
385753.0 615650.0 0
390800.0 615436.0 0
396225.0 618188.0 0
401507.0 614174.0 0
402004.0 619063.0 0
407499.0 614261.0 0
412809.0 616679.0 0
422633.0 614287.0 0
418534.0 616579.0 0
427032.0 614627.0 0
427472.0 619138.0 0
431408.0 616424.0 0
436663.0 614872.0 0
441823.0 615211.0 0
445885.0 615929.0 0
451312.0 615135.0 0
457323.0 616212.0 0
461782.0 614569.0 0
462808.0 619142.0 0
465697.0 615300.0 0
468083.0 618990.0 0
471756.0 615689.0 0
476275.0 615703.0 0
482232.0 614947.0 0
487057.0 617111.0 0
491755.0 618305.0 0
497482.0 615965.0 0
3714.61 619806.0 0
8996.53 623623.0 0
13687.4 620604.0 0
19153.2 622576.0 0
27470.7 622163.0 0
33547.6 621416.0 0
44212.1 623309.0 0
50575.2 622563.0 0
56077.1 621924.0 0
61354.5 623943.0 0
66897.8 621793.0 0
72813.2 621838.0 0
77380.8 619453.0 0
86440.2 619515.0 0
81677.8 622129.0 0
91496.3 621596.0 0
96561.6 620583.0 0
101512.0 621428.0 0
107637.0 621388.0 0
114669.0 621992.0 0
122140.0 621957.0 0
117908.0 624122.0 0
127863.0 619559.0 0
134450.0 619819.0 0
140152.0 620517.0 0
144745.0 622740.0 0
148763.0 619373.0 0
153229.0 620816.0 0
158372.0 619506.0 0
164327.0 621375.0 0
168374.0 619845.0 0
172580.0 620877.0 0
178358.0 620856.0 0
183484.0 619783.0 0
188612.0 619303.0 0
194553.0 619488.0 0
198097.0 623790.0 0
199672.0 619906.0 0
203180.0 620422.0 0
207245.0 619715.0 0
212259.0 621159.0 0
217059.0 620155.0 0
222092.0 620746.0 0
227100.0 619915.0 0
232010.0 619222.0 0
236826.0 621239.0 0
242098.0 624063.0 0
246685.0 621247.0 0
251680.0 619968.0 0
257042.0 621788.0 0
263691.0 621465.0 0
268870.0 619804.0 0
273194.0 621325.0 0
278012.0 620852.0 0
283568.0 619784.0 0
288007.0 619961.0 0
292943.0 620196.0 0
296364.0 620298.0 0
300175.0 620432.0 0
296256.0 623602.0 0
306076.0 621354.0 0
312022.0 620226.0 0
321321.0 621056.0 0
316739.0 624040.0 0
326387.0 620125.0 0
332663.0 621831.0 0
337801.0 619701.0 0
342321.0 619519.0 0
341861.0 624242.0 0
352629.0 620306.0 0
358347.0 623300.0 0
363595.0 620627.0 0
369205.0 620143.0 0
378237.0 620070.0 0
387065.0 619618.0 0
382680.0 621720.0 0
391686.0 621203.0 0
395763.0 624239.0 0
407996.0 620274.0 0
413526.0 621353.0 0
418384.0 622602.0 0
423572.0 619529.0 0
428514.0 622961.0 0
432638.0 620458.0 0
436972.0 620420.0 0
442011.0 619641.0 0
442397.0 623947.0 0
448578.0 620333.0 0
453765.0 620049.0 0
458262.0 621158.0 0
465992.0 623712.0 0
473233.0 621442.0 0
479137.0 619535.0 0
484307.0 621711.0 0
488661.0 621098.0 0
493910.0 621790.0 0
497977.0 620464.0 0
3254.6 626722.0 0
8498.08 628827.0 0
14305.6 626631.0 0
19440.0 627579.0 0
23851.5 626007.0 0
29024.4 626769.0 0
33833.0 627021.0 0
38585.2 624715.0 0
43042.9 629082.0 0
48138.8 626661.0 0
52910.1 627188.0 0
58159.9 626323.0 0
64568.8 626239.0 0
68850.9 629155.0 0
74075.1 626758.0 0
77348.2 624805.0 0
86100.5 624672.0 0
81834.6 627431.0 0
90379.0 626353.0 0
95244.6 625702.0 0
100724.0 626662.0 0
106082.0 627435.0 0
112104.0 625477.0 0
116393.0 629230.0 0
121328.0 626902.0 0
127004.0 626394.0 0
132237.0 624576.0 0
137316.0 625158.0 0
142364.0 627326.0 0
148882.0 625645.0 0
154185.0 625503.0 0
159945.0 625481.0 0
165288.0 627031.0 0
169025.0 624490.0 0
173262.0 626215.0 0
177636.0 625613.0 0
182043.0 624535.0 0
187161.0 624407.0 0
192923.0 625863.0 0
198565.0 628954.0 0
203016.0 624930.0 0
208819.0 625171.0 0
214165.0 625171.0 0
218428.0 624642.0 0
222530.0 625053.0 0
226787.0 624814.0 0
232154.0 624772.0 0
238099.0 625498.0 0
247107.0 626296.0 0
252153.0 624507.0 0
251731.0 629050.0 0
257560.0 626698.0 0
261103.0 626105.0 0
269004.0 624935.0 0
274016.0 625782.0 0
278556.0 625670.0 0
283342.0 625018.0 0
287594.0 625136.0 0
291843.0 624848.0 0
295873.0 628054.0 0
300827.0 626269.0 0
305898.0 626527.0 0
310891.0 626014.0 0
323252.0 625718.0 0
325654.0 629331.0 0
328523.0 625099.0 0
332753.0 626392.0 0
336900.0 624924.0 0
347374.0 624719.0 0
352836.0 625709.0 0
367259.0 624642.0 0
362787.0 625726.0 0
373261.0 624380.0 0
374277.0 629137.0 0
378668.0 624924.0 0
387430.0 624751.0 0
382974.0 626074.0 0
391726.0 626315.0 0
401184.0 624603.0 0
398063.0 628834.0 0
406545.0 626210.0 0
411122.0 624589.0 0
414663.0 625299.0 0
417066.0 629305.0 0
423625.0 625016.0 0
433285.0 625341.0 0
438487.0 624562.0 0
437040.0 629250.0 0
442732.0 629076.0 0
446297.0 624945.0 0
448122.0 629362.0 0
451846.0 625315.0 0
456631.0 624656.0 0
457833.0 628843.0 0
460923.0 624921.0 0
466336.0 629063.0 0
470380.0 626358.0 0
475718.0 627441.0 0
480194.0 624496.0 0
484233.0 626679.0 0
490384.0 626425.0 0
497110.0 625291.0 0
2052.04 631860.0 0
6244.24 632951.0 0
12247.5 632094.0 0
17859.5 632254.0 0
22092.8 630111.0 0
23352.0 634404.0 0
26199.9 630702.0 0
32487.7 631201.0 0
37449.2 631077.0 0
41657.2 633858.0 0
48060.1 631499.0 0
52824.2 633577.0 0
56779.1 630461.0 0
62395.3 630752.0 0
71132.8 634264.0 0
73536.3 631061.0 0
77617.8 630244.0 0
82617.6 632072.0 0
86880.9 629811.0 0
92771.7 630540.0 0
97278.1 629926.0 0
96944.4 634271.0 0
102162.0 631561.0 0
106253.0 631931.0 0
110534.0 630386.0 0
121511.0 631472.0 0
126187.0 632191.0 0
133375.0 629491.0 0
135927.0 634012.0 0
138178.0 630228.0 0
142137.0 632209.0 0
146443.0 630317.0 0
151248.0 629934.0 0
156169.0 630877.0 0
161114.0 630645.0 0
165441.0 632543.0 0
170549.0 630812.0 0
176257.0 630323.0 0
182081.0 630095.0 0
188163.0 629961.0 0
193640.0 631946.0 0
202191.0 631645.0 0
205488.0 629425.0 0
212321.0 629626.0 0
216717.0 629678.0 0
216000.0 633453.0 0
221006.0 629420.0 0
226438.0 630019.0 0
231378.0 629849.0 0
236664.0 630306.0 0
242918.0 629536.0 0
247743.0 630359.0 0
256266.0 630574.0 0
261048.0 630401.0 0
266015.0 629810.0 0
270943.0 629814.0 0
273415.0 634460.0 0
275938.0 630233.0 0
282127.0 629721.0 0
283249.0 634174.0 0
286656.0 629728.0 0
287031.0 633552.0 0
291341.0 629854.0 0
296706.0 632900.0 0
301855.0 631786.0 0
307908.0 629717.0 0
306397.0 633465.0 0
315860.0 629669.0 0
311465.0 631580.0 0
321171.0 630726.0 0
330080.0 630397.0 0
326569.0 634474.0 0
335485.0 629656.0 0
341291.0 629992.0 0
347640.0 630873.0 0
353779.0 631162.0 0
360257.0 630021.0 0
366582.0 630561.0 0
371364.0 631872.0 0
378679.0 630640.0 0
383603.0 630208.0 0
388838.0 630278.0 0
392726.0 633196.0 0
393722.0 629559.0 0
397531.0 634393.0 0
402874.0 630031.0 0
402466.0 633650.0 0
407535.0 629717.0 0
407084.0 634233.0 0
411162.0 629441.0 0
422175.0 629747.0 0
427469.0 629642.0 0
423744.0 633905.0 0
432599.0 629885.0 0
438352.0 633577.0 0
452938.0 631245.0 0
457652.0 633626.0 0
462053.0 631351.0 0
471989.0 630503.0 0
476773.0 632687.0 0
480823.0 630095.0 0
486073.0 631711.0 0
492991.0 632177.0 0
497547.0 630595.0 0
2924.46 636737.0 0
8027.31 636885.0 0
12533.6 637111.0 0
20285.7 635619.0 0
17450.6 637809.0 0
24061.6 638655.0 0
29430.6 635312.0 0
27436.4 639358.0 0
36556.3 637262.0 0
42031.9 638184.0 0
46601.3 635623.0 0
50415.8 637451.0 0
57545.1 635352.0 0
62017.8 635922.0 0
66390.8 634745.0 0
75903.7 634915.0 0
81120.5 636978.0 0
87022.4 635571.0 0
92372.3 635630.0 0
101422.0 636288.0 0
97146.0 639238.0 0
106482.0 636310.0 0
112136.0 635992.0 0
118299.0 635847.0 0
123575.0 635957.0 0
127238.0 639587.0 0
130819.0 634867.0 0
139964.0 636479.0 0
147602.0 635278.0 0
143607.0 635465.0 0
144903.0 639567.0 0
152663.0 634559.0 0
157198.0 635388.0 0
154618.0 639442.0 0
161692.0 635719.0 0
168085.0 636002.0 0
172923.0 636195.0 0
177718.0 634907.0 0
181934.0 635351.0 0
187530.0 635781.0 0
192338.0 636162.0 0
192137.0 639219.0 0
198428.0 634517.0 0
202959.0 635153.0 0
208708.0 634910.0 0
213919.0 636594.0 0
217656.0 639530.0 0
220424.0 634686.0 0
225538.0 635552.0 0
230832.0 634547.0 0
235662.0 635776.0 0
240313.0 635414.0 0
246138.0 635427.0 0
253110.0 635722.0 0
259492.0 635304.0 0
264175.0 635458.0 0
268996.0 634689.0 0
265893.0 639450.0 0
278470.0 635205.0 0
287624.0 638976.0 0
291234.0 635352.0 0
300755.0 636452.0 0
296024.0 638568.0 0
305729.0 639115.0 0
310174.0 635794.0 0
316016.0 635891.0 0
322070.0 636104.0 0
331487.0 635862.0 0
337242.0 635008.0 0
341828.0 639205.0 0
342349.0 634905.0 0
346439.0 636527.0 0
350918.0 635281.0 0
357571.0 635990.0 0
363552.0 635503.0 0
368736.0 634827.0 0
367671.0 639226.0 0
372370.0 638778.0 0
375136.0 634839.0 0
379871.0 635230.0 0
382061.0 639522.0 0
384379.0 634872.0 0
389259.0 635737.0 0
402142.0 636981.0 0
413250.0 634549.0 0
418693.0 634923.0 0
428336.0 635315.0 0
433614.0 634584.0 0
437514.0 637129.0 0
442745.0 634898.0 0
448307.0 634647.0 0
453916.0 636587.0 0
461466.0 635851.0 0
466880.0 634850.0 0
472574.0 634628.0 0
473939.0 639208.0 0
477959.0 636157.0 0
481851.0 635156.0 0
483141.0 639562.0 0
489653.0 635724.0 0
494058.0 636532.0 0
497892.0 635129.0 0
2916.27 642401.0 0
8595.57 641694.0 0
14385.8 641571.0 0
20616.9 641477.0 0
25964.7 643587.0 0
30922.2 640641.0 0
35035.3 642388.0 0
39497.0 642108.0 0
46582.0 639936.0 0
50251.7 642074.0 0
54754.5 640269.0 0
60527.0 640304.0 0
65778.7 639879.0 0
63468.8 644617.0 0
68054.9 644296.0 0
72277.5 640266.0 0
78377.1 641749.0 0
85480.9 640494.0 0
82096.0 641247.0 0
91602.7 641292.0 0
103021.0 641974.0 0
109087.0 640954.0 0
113620.0 640666.0 0
116853.0 643347.0 0
121528.0 640877.0 0
133724.0 640811.0 0
140152.0 641870.0 0
149572.0 640960.0 0
159642.0 640014.0 0
158324.0 644280.0 0
162936.0 644587.0 0
167758.0 639952.0 0
163821.0 640264.0 0
171814.0 641194.0 0
177290.0 640495.0 0
174069.0 644234.0 0
183657.0 640355.0 0
188817.0 640505.0 0
192365.0 644172.0 0
197416.0 640315.0 0
203477.0 639893.0 0
201777.0 644538.0 0
213904.0 640065.0 0
209202.0 641970.0 0
214601.0 644409.0 0
222287.0 639808.0 0
227418.0 640412.0 0
232902.0 640186.0 0
238566.0 640209.0 0
242979.0 639786.0 0
242353.0 644443.0 0
247852.0 641157.0 0
251789.0 640528.0 0
255771.0 641309.0 0
260831.0 640469.0 0
271769.0 640342.0 0
276946.0 639691.0 0
277596.0 644255.0 0
282156.0 640037.0 0
286746.0 644123.0 0
291569.0 641728.0 0
300510.0 640918.0 0
307575.0 644509.0 0
311639.0 640520.0 0
316818.0 642357.0 0
321885.0 640913.0 0
327386.0 639985.0 0
332573.0 640507.0 0
337016.0 640495.0 0
342977.0 644125.0 0
351969.0 639878.0 0
347122.0 641532.0 0
357772.0 642305.0 0
362990.0 640628.0 0
366584.0 643801.0 0
372098.0 643806.0 0
376911.0 639856.0 0
376870.0 644376.0 0
381047.0 644429.0 0
387534.0 641017.0 0
393932.0 639821.0 0
399565.0 640626.0 0
405513.0 641353.0 0
411471.0 639781.0 0
417169.0 640372.0 0
423322.0 639583.0 0
429655.0 640702.0 0
435214.0 640559.0 0
440896.0 639853.0 0
442981.0 644683.0 0
446499.0 640263.0 0
451783.0 641014.0 0
458315.0 640062.0 0
464024.0 640066.0 0
469208.0 640259.0 0
472620.0 643741.0 0
478667.0 640120.0 0
477334.0 644587.0 0
482305.0 644323.0 0
487721.0 640474.0 0
492507.0 640362.0 0
493001.0 644591.0 0
497326.0 639801.0 0
497500.0 644672.0 0
1225.61 646181.0 0
6637.35 646033.0 0
11941.6 645445.0 0
17562.6 645351.0 0
21699.6 645546.0 0
27239.0 649625.0 0
31629.0 645484.0 0
37278.5 647138.0 0
42057.2 645536.0 0
46260.1 644846.0 0
52478.9 646312.0 0
58172.8 645068.0 0
62037.4 649576.0 0
71607.6 646574.0 0
76712.9 646811.0 0
81818.0 645229.0 0
86924.7 645080.0 0
91611.4 647560.0 0
97146.5 645299.0 0
107127.0 646350.0 0
102059.0 647270.0 0
112229.0 645296.0 0
118100.0 648205.0 0
122836.0 646024.0 0
128706.0 645783.0 0
135234.0 647594.0 0
139564.0 646007.0 0
144584.0 644697.0 0
143488.0 649676.0 0
148644.0 646124.0 0
153284.0 644958.0 0
157267.0 649790.0 0
163015.0 649363.0 0
168217.0 644824.0 0
172985.0 648581.0 0
177448.0 645976.0 0
181791.0 645296.0 0
186683.0 645385.0 0
192598.0 649711.0 0
197491.0 645960.0 0
206023.0 647307.0 0
212696.0 649722.0 0
219005.0 644985.0 0
222500.0 645025.0 0
222500.0 649726.0 0
226799.0 646070.0 0
232125.0 645240.0 0
237227.0 645336.0 0
242755.0 649009.0 0
247033.0 645994.0 0
252500.0 645029.0 0
252114.0 649267.0 0
256698.0 645953.0 0
261529.0 645657.0 0
267194.0 645177.0 0
272669.0 646163.0 0
282098.0 647046.0 0
291414.0 646728.0 0
296735.0 644693.0 0
302628.0 645252.0 0
308295.0 648914.0 0
312201.0 645624.0 0
320934.0 645856.0 0
316430.0 647222.0 0
326410.0 645927.0 0
331724.0 645011.0 0
337568.0 646177.0 0
347497.0 646607.0 0
352907.0 645784.0 0
357989.0 647834.0 0
362482.0 645077.0 0
368523.0 648144.0 0
378344.0 648730.0 0
385435.0 646380.0 0
391351.0 645878.0 0
396898.0 644977.0 0
401791.0 645734.0 0
407845.0 646944.0 0
412875.0 644718.0 0
417851.0 646083.0 0
422446.0 644738.0 0
422276.0 649294.0 0
426693.0 645325.0 0
432764.0 644763.0 0
430272.0 648039.0 0
437538.0 645319.0 0
448163.0 645691.0 0
452396.0 644961.0 0
456570.0 645333.0 0
461856.0 645061.0 0
467401.0 645142.0 0
464392.0 649130.0 0
474402.0 648439.0 0
479409.0 649437.0 0
483982.0 648961.0 0
488538.0 645864.0 0
492901.0 648553.0 0
497506.0 649646.0 0
2838.68 649911.0 0
8061.38 650827.0 0
13299.6 650278.0 0
18055.7 649875.0 0
22112.8 652023.0 0
32847.7 650970.0 0
37548.2 652772.0 0
42118.1 650536.0 0
47686.8 649826.0 0
52118.7 652074.0 0
56747.7 650387.0 0
62416.0 654827.0 0
67587.2 649901.0 0
67082.9 654837.0 0
73058.7 651504.0 0
78423.1 651964.0 0
84295.2 650625.0 0
89785.5 652037.0 0
94492.9 651849.0 0
99116.8 650557.0 0
104192.0 651645.0 0
108988.0 650548.0 0
112947.0 649873.0 0
116023.0 652125.0 0
122248.0 651019.0 0
128260.0 653190.0 0
134934.0 652812.0 0
139099.0 651076.0 0
147062.0 651974.0 0
143447.0 654706.0 0
151059.0 650208.0 0
162834.0 654513.0 0
167844.0 650749.0 0
173399.0 654871.0 0
178034.0 650537.0 0
183281.0 650088.0 0
188136.0 649908.0 0
187123.0 654667.0 0
197279.0 650606.0 0
198757.0 654590.0 0
202500.0 649902.0 0
202952.0 654529.0 0
208088.0 651812.0 0
217500.0 649857.0 0
217524.0 654626.0 0
222453.0 654750.0 0
227996.0 651378.0 0
232888.0 649890.0 0
231408.0 654616.0 0
237753.0 650244.0 0
241612.0 653618.0 0
247924.0 650309.0 0
253430.0 654494.0 0
256405.0 650177.0 0
260827.0 650661.0 0
262731.0 654737.0 0
265602.0 650373.0 0
270811.0 651266.0 0
277029.0 650297.0 0
282336.0 651446.0 0
286930.0 650015.0 0
292530.0 651855.0 0
298635.0 651025.0 0
304078.0 649898.0 0
306178.0 654147.0 0
310564.0 654873.0 0
312857.0 650823.0 0
318524.0 651796.0 0
323335.0 649968.0 0
327905.0 651162.0 0
333241.0 650580.0 0
337966.0 652099.0 0
342766.0 649998.0 0
351179.0 650822.0 0
346999.0 653428.0 0
356603.0 653175.0 0
362954.0 650735.0 0
373250.0 651776.0 0
382991.0 650862.0 0
388428.0 651210.0 0
393465.0 651304.0 0
398027.0 650081.0 0
403363.0 650568.0 0
407999.0 652205.0 0
404046.0 654659.0 0
412658.0 649953.0 0
417744.0 651247.0 0
422664.0 654364.0 0
426979.0 651306.0 0
434887.0 650753.0 0
441083.0 650029.0 0
446488.0 652574.0 0
452438.0 650115.0 0
459233.0 650544.0 0
469196.0 650702.0 0
484239.0 653104.0 0
479821.0 654895.0 0
488192.0 651105.0 0
492982.0 654043.0 0
1539.7 654938.0 0
2251.06 659349.0 0
5584.56 655407.0 0
10814.5 654990.0 0
17039.4 655145.0 0
23619.1 656996.0 0
28264.0 655097.0 0
33227.7 656366.0 0
38050.8 657277.0 0
42362.1 655683.0 0
47056.8 654994.0 0
51709.7 656814.0 0
57045.5 655953.0 0
71184.7 656447.0 0
76002.0 656247.0 0
81795.9 657123.0 0
87178.0 655493.0 0
87357.6 659895.0 0
91962.6 656346.0 0
97781.4 655967.0 0
103207.0 657301.0 0
108584.0 655409.0 0
113946.0 655925.0 0
119341.0 655321.0 0
123884.0 657916.0 0
128131.0 659197.0 0
133560.0 657100.0 0
138561.0 655584.0 0
147022.0 655897.0 0
142955.0 659977.0 0
151457.0 656012.0 0
148055.0 659832.0 0
157402.0 656138.0 0
162928.0 659606.0 0
167740.0 655751.0 0
177936.0 655835.0 0
177548.0 659647.0 0
181748.0 655324.0 0
186766.0 659750.0 0
193328.0 655631.0 0
203474.0 659446.0 0
207333.0 656169.0 0
212270.0 655119.0 0
218090.0 659680.0 0
222107.0 659655.0 0
226544.0 655904.0 0
236422.0 654956.0 0
242522.0 659560.0 0
247249.0 655420.0 0
258725.0 654920.0 0
256706.0 659170.0 0
267149.0 655180.0 0
273278.0 655723.0 0
277721.0 655819.0 0
281819.0 654965.0 0
283222.0 659110.0 0
286940.0 655218.0 0
290972.0 656386.0 0
296070.0 657002.0 0
301822.0 655288.0 0
301138.0 659887.0 0
314998.0 656369.0 0
320070.0 656791.0 0
325608.0 656520.0 0
331310.0 655542.0 0
336078.0 656119.0 0
341983.0 656683.0 0
351369.0 656249.0 0
347201.0 658566.0 0
356255.0 659016.0 0
361443.0 656869.0 0
367791.0 655462.0 0
372943.0 658530.0 0
378774.0 655991.0 0
382420.0 659817.0 0
384916.0 655430.0 0
389772.0 656539.0 0
394679.0 655666.0 0
400011.0 655353.0 0
402479.0 659938.0 0
407183.0 657132.0 0
412982.0 655315.0 0
418144.0 655963.0 0
422775.0 659557.0 0
427321.0 656567.0 0
431768.0 654897.0 0
432590.0 659679.0 0
436419.0 655996.0 0
441458.0 655836.0 0
446081.0 657696.0 0
451476.0 656813.0 0
457330.0 656595.0 0
462152.0 655407.0 0
467396.0 656704.0 0
473675.0 655294.0 0
487460.0 657065.0 0
497909.0 655930.0 0
497455.0 659927.0 0
5527.15 661426.0 0
10557.7 660935.0 0
17109.8 661644.0 0
22588.7 661778.0 0
27762.2 660604.0 0
33290.1 661834.0 0
38706.1 662095.0 0
42831.2 663848.0 0
47153.3 660806.0 0
53059.5 661809.0 0
58236.7 661258.0 0
63541.9 660174.0 0
68414.0 660061.0 0
72797.4 660978.0 0
77430.3 660862.0 0
82578.5 662061.0 0
92591.9 661511.0 0
98305.2 661497.0 0
102959.0 662009.0 0
107361.0 660609.0 0
112259.0 660075.0 0
117327.0 660006.0 0
121455.0 661495.0 0
125510.0 662246.0 0
132006.0 662664.0 0
137295.0 660561.0 0
153282.0 661444.0 0
158532.0 661486.0 0
167354.0 660288.0 0
172157.0 660738.0 0
182505.0 660247.0 0
191015.0 661290.0 0
197789.0 660476.0 0
208226.0 660685.0 0
213255.0 660244.0 0
225915.0 660188.0 0
230904.0 660120.0 0
236693.0 660174.0 0
248076.0 660961.0 0
252472.0 660672.0 0
261170.0 661149.0 0
266724.0 660975.0 0
272408.0 660365.0 0
277889.0 661063.0 0
288518.0 660683.0 0
293435.0 661435.0 0
297340.0 662892.0 0
307532.0 660256.0 0
313487.0 661312.0 0
318577.0 661557.0 0
323143.0 661038.0 0
327436.0 662063.0 0
332202.0 660445.0 0
337522.0 661514.0 0
342770.0 662626.0 0
351761.0 661675.0 0
347194.0 662542.0 0
359291.0 662852.0 0
363770.0 661591.0 0
367809.0 660639.0 0
377177.0 661302.0 0
372521.0 663014.0 0
386600.0 660678.0 0
392362.0 660928.0 0
397542.0 660410.0 0
406577.0 662138.0 0
411664.0 660358.0 0
417371.0 661340.0 0
427694.0 661773.0 0
438078.0 660657.0 0
443247.0 661484.0 0
448211.0 661465.0 0
452858.0 662561.0 0
457444.0 661229.0 0
462296.0 660524.0 0
467086.0 662060.0 0
472283.0 661492.0 0
477769.0 659993.0 0
482863.0 660037.0 0
487933.0 662185.0 0
492474.0 660212.0 0
POINT_DATA 5000
SCALARS Radius float 1
LOOKUP_TABLE default
4780.03 4133.88 6716.79 7613.27 4951.03 6124.89 5252.48 5495.39 3554.9 3856.1 3996.0 3936.02 4665.12 3383.4 4094.62 4834.9 3850.77 6044.04 5415.48 5120.0 3863.18 2356.98 4998.37 6182.6 5492.18 5258.36 5061.3 3642.12 3163.97 5812.43 5122.66 5906.14 7513.1 5254.28 5733.48 4672.91 5580.89 5645.7 5176.86 6810.52 5840.26 6110.27 5561.06 5073.35 5670.04 4380.59 3589.27 3607.45 5759.91 4333.2 3038.33 5529.52 7199.21 5255.32 5337.48 4049.23 4929.8 5708.81 4015.92 4487.31 4044.71 5980.74 5109.54 4927.02 5546.39 5325.36 5484.83 5085.53 5351.6 4730.36 4715.55 5867.73 3951.75 5013.56 4499.64 4375.68 5542.27 5054.98 6030.06 5170.02 5484.19 3557.27 4927.31 4688.68 4436.4 4402.52 4517.56 4182.53 5903.42 3588.44 3955.56 3761.32 4118.05 4366.19 5553.16 3672.51 2938.66 4940.78 4231.61 4008.92 3615.22 3942.53 3379.84 4827.82 3997.1 3260.67 5697.78 5123.52 4392.68 4295.38 5615.42 6037.08 4523.7 6756.95 6324.23 4329.05 4931.38 4151.94 4685.34 5601.05 4382.74 3586.91 3103.0 5481.78 5542.21 5043.05 5816.2 5693.81 6483.19 4174.52 5945.65 6759.9 5538.89 7021.47 5416.38 6059.59 4955.55 2720.68 5701.86 3563.63 4238.81 4468.59 5885.03 2837.58 5325.02 5200.76 5017.13 4862.64 5185.34 4432.58 6684.56 3968.64 4688.67 5292.64 6166.5 5065.13 5936.02 5305.17 4003.05 4861.08 5390.22 4805.87 4712.33 5227.21 4667.36 4091.31 6372.62 7565.34 2240.39 5091.39 5096.78 5293.9 4727.24 4129.43 3320.52 3843.58 4792.73 4736.58 3485.26 6082.81 5927.43 4651.28 4384.42 4362.19 4516.43 5637.59 4937.14 3115.91 3307.12 5924.89 4002.16 4138.16 3486.22 3829.13 4684.5 6230.49 5418.62 4601.27 5493.32 5740.68 5926.61 5836.15 3261.21 4345.55 6704.06 3653.41 3871.88 3856.01 5246.2 4390.66 5279.39 3673.74 5205.43 6116.18 7447.37 4924.6 2635.86 4385.06 4733.32 7184.19 2899.43 2924.37 3867.67 4290.3 5399.73 4660.72 3888.21 6038.78 6902.81 4254.17 5629.19 5090.24 5923.5 4612.68 4973.83 3912.37 6142.94 4194.5 4602.25 4270.53 5191.63 5344.25 4043.57 5379.87 4501.51 3708.04 4556.36 3240.09 5110.37 5664.98 3191.99 6327.9 6355.42 3693.63 5690.56 4948.92 5762.84 4493.48 6084.86 5478.92 4778.34 6894.71 3091.3 4414.54 6458.82 7054.71 5489.43 3641.64 5747.75 4277.89 6051.14 4796.33 4195.44 5539.32 5360.19 6496.85 5600.93 4874.39 5541.59 4124.71 5728.85 4827.23 4911.47 5803.39 5863.59 4381.97 6257.19 3255.82 5242.73 2812.98 4065.69 5603.15 4695.45 6052.7 3798.62 3921.18 5891.05 3666.57 5308.1 6644.76 4786.6 5655.21 4433.59 5740.84 5530.87 4281.49 6342.25 6691.39 4790.08 5082.47 5344.0 4593.7 4763.45 4150.99 3771.48 4478.15 5681.38 4138.42 5925.6 6013.14 5513.6 4901.41 5138.31 5264.06 4659.59 4048.37 5492.26 5244.78 3937.74 4749.8 5810.84 5094.44 5551.36 4655.49 4467.94 4850.81 5789.98 6138.47 5527.54 5573.7 4727.62 5054.25 4055.8 7325.81 5280.17 4794.96 6186.19 5083.08 6834.49 6337.56 5525.39 3998.5 4024.3 6394.38 5555.28 4737.14 4686.65 5556.96 5788.23 5581.75 6392.01 6730.19 4907.89 4937.02 3735.44 4073.93 4645.41 5952.75 6445.94 4310.18 4218.06 7134.64 5978.9 4187.56 3629.62 4997.27 4840.84 5135.69 6045.46 5445.87 4216.92 4704.72 4177.94 4107.03 3929.19 4271.69 5198.77 5147.67 5987.17 4292.06 3979.82 2765.2 5006.58 4602.86 3688.8 4548.16 3369.23 5449.18 4220.88 6519.71 6640.13 3092.35 5082.6 5210.03 5478.47 4230.54 6142.37 3748.24 6061.47 4933.21 5375.47 6038.14 2540.31 6029.66 5120.49 5262.61 6302.8 5697.4 6038.2 4270.95 4005.44 5206.78 5555.88 6732.43 6425.26 5143.58 4484.76 4839.34 4840.01 2980.99 5611.2 7933.0 4455.12 5173.87 5938.34 5380.13 5711.87 5118.27 5169.36 5932.23 5834.74 4479.66 3369.13 5367.2 3043.85 5461.13 3599.45 4907.06 5163.9 6043.3 5537.72 4320.28 6332.36 5542.14 4931.53 5480.13 2739.94 6308.71 4716.19 5514.76 4301.06 3456.98 4290.14 4020.32 3815.26 4245.72 5908.1 4571.7 4742.68 4344.58 5634.83 5782.6 5113.21 4862.21 5922.5 4502.5 3970.25 3633.87 4850.01 5643.58 5577.04 5011.31 4481.53 5586.81 4621.75 4581.13 4551.24 5358.59 3610.4 4515.71 5367.52 4322.15 4714.54 3629.96 3320.11 5351.39 5119.37 6163.38 4566.18 4723.12 3459.9 4964.09 5201.36 5024.9 4306.53 5409.61 5094.81 5972.06 5713.22 5861.71 5028.96 4359.04 3866.16 3794.63 6362.12 3778.1 5152.36 4511.82 4220.65 6820.42 4816.2 4894.16 4896.52 4751.02 3372.79 4941.22 5282.64 5791.61 4669.66 4808.52 5046.33 5607.24 4726.76 5839.13 3847.38 5495.68 5489.34 5002.48 5708.14 3920.42 4262.82 6122.55 4223.33 6155.31 5911.67 6695.82 6405.76 4877.67 3498.2 6562.18 3066.13 4302.5 4541.21 6048.7 5896.46 5495.84 5022.8 6268.1 5820.48 7034.11 6261.42 4011.77 5499.11 4527.08 5347.48 2775.04 5215.05 4138.46 3821.72 4986.77 6318.18 3948.17 5330.45 3856.59 4219.07 5413.79 6387.01 6202.55 5025.39 5893.5 5030.91 6022.17 4583.31 3982.23 5806.08 4997.27 4853.39 4093.08 4809.42 4717.05 5659.17 6135.57 4312.67 5423.8 3183.98 4989.15 5017.78 4524.28 5015.69 6175.81 4727.24 6677.09 5826.64 6959.81 4829.35 5201.67 6321.41 4089.76 5526.55 5184.56 3192.41 4715.72 4987.87 3315.57 5804.71 4764.96 4242.52 5053.92 6352.26 3057.03 4087.15 3818.59 4143.08 4863.72 6623.85 5102.36 8332.24 4342.9 4553.56 5329.64 6049.55 3323.28 5709.62 5835.78 5794.24 5105.16 6006.16 4156.38 5316.75 6009.88 4164.68 7055.53 6133.92 3784.5 3719.84 4178.4 5934.22 3471.03 5253.55 5011.84 6946.21 2586.12 5433.8 6125.34 4374.35 5965.78 4810.12 6898.19 6035.6 5137.34 5423.0 5077.33 4746.52 3689.45 5572.95 6338.89 5584.06 7111.16 3817.13 4547.19 5023.15 5507.24 6851.54 4503.89 5570.3 4336.42 5243.29 7589.94 4449.22 3130.65 5543.27 5856.11 5287.2 4109.88 5998.38 4234.94 5013.13 4270.24 5080.66 3417.33 4926.42 4164.13 4642.34 4520.1 4947.52 5874.89 4305.57 4293.03 4389.21 3791.79 4925.44 4424.7 4754.05 6084.93 5215.15 4307.28 3697.96 4739.42 5538.93 5020.12 5727.3 2631.9 5281.28 5356.51 4277.88 4758.21 7228.46 7500.97 3948.23 5228.18 5787.31 5065.11 3927.99 5069.84 4051.44 4241.89 5054.74 5941.72 4127.74 2476.04 4678.38 5448.61 5050.65 4827.33 5513.57 5013.67 5729.23 5669.65 5624.49 3095.48 3780.23 4861.06 4166.08 6481.79 6608.73 3979.26 4359.62 5188.81 3745.84 6057.22 5062.71 4497.59 4156.2 5975.63 5252.34 6396.74 2965.79 7099.43 5526.14 5198.29 6449.45 3975.31 5125.78 5344.43 3824.16 3868.18 6723.16 5372.61 3686.21 6480.17 6445.22 4377.07 3844.9 5101.59 3813.22 3848.93 4306.11 5935.47 3402.32 5903.66 5628.24 5004.67 3327.49 5365.89 5992.26 4562.29 3960.8 5070.39 4980.85 5714.58 5110.45 5208.32 5248.77 4083.97 4607.02 5153.74 4528.09 3895.51 4165.81 5813.4 6291.51 4128.98 5882.89 6246.22 4951.47 4188.32 5246.61 4100.38 5344.77 4723.48 5097.87 4899.11 4745.45 4278.07 7267.18 6255.18 4668.71 5269.18 4406.1 6362.14 6719.88 5978.82 5266.5 5868.82 4050.9 4066.38 4978.31 4099.77 4981.9 4537.32 5163.02 5991.09 4656.78 3942.07 5126.91 5133.97 7443.72 3937.08 5371.02 5260.34 5206.48 5826.04 6586.45 5226.0 5339.78 5762.59 5374.51 5320.28 5224.12 4298.67 4796.58 5960.66 5873.69 3999.48 4962.09 5654.31 4203.26 4730.41 5696.88 3923.03 5690.26 4004.04 5607.14 4289.17 5564.02 4274.61 4410.55 4287.63 5315.4 4516.28 3627.82 4044.45 5262.19 4373.47 6070.58 5045.38 5350.88 5130.91 5402.24 4519.22 4531.14 4564.34 3695.36 3963.86 5076.35 6020.48 6375.99 5200.05 5234.29 4528.49 5313.66 5419.37 4466.03 5409.33 4511.54 5196.0 4923.9 4973.78 3329.99 3947.47 3296.27 4713.25 4204.84 6243.0 6673.96 3556.85 5441.96 3435.9 5174.89 4288.3 5370.52 4652.29 5774.81 3746.31 5498.32 5027.98 5346.27 6475.1 4969.21 2691.29 6256.02 5320.92 4305.43 5314.85 5034.59 4942.77 4263.33 5080.18 4454.63 4523.88 3279.1 4403.98 4948.98 4560.84 5227.52 4729.43 4414.48 4092.24 4562.74 7144.24 3600.43 6600.94 4788.58 6155.1 4709.35 5876.71 4750.78 4373.3 5029.78 4123.6 3365.82 4163.5 7092.87 4143.78 4850.14 4970.88 6739.08 4763.66 4797.52 4471.58 4569.12 3637.61 6098.14 4472.17 6222.42 4938.74 5470.77 4643.85 4831.47 6062.05 5082.74 5411.85 6915.83 5092.37 6072.45 6444.77 6314.07 3921.08 5776.37 4190.31 5678.96 4244.9 5490.43 6034.41 5452.83 4959.34 4948.5 4527.02 5383.07 4591.87 5013.42 3838.56 4871.44 5651.07 6248.81 5273.35 4645.58 2651.49 5512.23 5275.32 4898.94 4613.31 4733.04 6119.09 5788.66 5091.68 7531.29 5069.25 5048.89 3161.47 3991.03 6390.78 7435.25 6826.57 4788.87 4495.87 6022.72 4643.31 5527.33 5402.21 4989.09 4880.14 2845.98 4982.31 5289.52 3848.54 5941.4 5450.44 6510.17 5742.65 5592.32 5381.16 5912.61 6193.35 6086.96 5233.78 5776.57 5683.26 5598.74 4906.82 5687.83 5131.24 5196.67 6496.67 5474.8 6262.72 3664.11 6515.84 4538.95 5724.64 5965.15 4666.81 7042.12 5163.55 6326.39 6817.32 4319.79 6643.85 6343.14 5501.93 5463.38 5945.21 5750.71 3493.7 6470.3 3474.39 4200.03 6939.12 4735.33 4406.4 4413.85 4844.57 4864.22 4027.46 4470.98 5759.46 5083.41 7055.42 5486.68 6048.86 4285.32 6894.26 5022.28 5197.52 5178.99 5615.35 4790.78 4247.15 6552.22 5379.09 4602.85 5872.05 4091.8 4853.02 6259.23 5181.4 5670.2 4711.62 5985.29 4247.23 4178.15 4694.83 4268.65 5509.42 4354.08 4256.43 5936.36 4520.62 3903.75 4755.47 5935.03 4485.99 5127.16 5475.8 5314.69 6050.81 5543.46 4249.46 5965.81 3702.37 5660.85 2330.66 4177.19 6917.52 3587.05 6229.37 6718.19 5282.91 4307.48 4425.84 7256.35 5331.02 4871.96 4800.69 4863.23 4402.67 4470.61 5565.13 4384.88 6887.27 3701.27 4806.34 5653.9 5046.21 5894.61 5004.23 5139.5 6442.69 4814.55 6320.71 4648.04 3527.05 6607.87 5117.47 2990.77 3163.78 4925.63 4888.6 5078.86 4780.2 4636.5 4819.73 4940.42 3382.7 3954.91 6471.55 5085.71 2965.01 5644.82 6263.44 5960.56 4863.27 4118.84 5774.97 4020.95 5862.86 5462.21 6313.06 6345.13 4719.7 5516.95 5313.22 3905.51 3999.94 6171.13 3901.8 3497.9 2395.5 5941.61 5511.88 4512.11 6248.6 3836.45 5443.58 5683.61 5100.25 4049.02 4470.4 4986.51 5339.38 6169.11 4027.09 6422.84 4502.18 5210.48 4962.77 7552.94 6101.92 5088.44 5323.3 4998.21 4662.56 4114.24 5349.31 4649.22 5394.55 5094.52 4946.74 2682.24 5928.32 5229.48 5475.7 4016.18 5526.75 5435.74 4244.99 5327.45 5560.26 6185.89 3997.96 4750.17 4439.35 3460.94 3990.25 3691.0 4752.51 3758.07 4236.14 4407.87 5282.51 3797.33 5945.89 4105.55 6566.1 3555.86 6386.78 4996.99 4631.83 4896.39 6081.14 5480.83 6008.49 4287.53 5612.21 4929.14 5945.08 3979.54 7493.3 5944.09 5833.06 5698.77 2477.07 3464.83 4497.31 4721.32 4305.16 5882.65 3293.56 5092.28 4739.14 4918.77 5100.1 4434.19 4371.99 6090.91 3703.1 4946.42 5923.4 5081.78 3295.83 4459.28 4260.92 5499.39 6250.23 6413.02 3492.19 4584.5 5122.63 6766.43 6049.79 2315.64 4703.08 5374.98 4390.41 5226.56 5274.19 5599.49 4097.57 5452.42 5017.5 5328.22 5563.79 6853.85 4020.4 4596.75 5782.48 4933.65 6098.1 4558.46 5805.86 5346.68 5296.29 5311.03 5255.12 4611.53 4285.66 4896.11 4238.4 5172.53 4135.62 5801.99 5534.94 4860.33 7644.38 4051.34 3627.55 6239.84 4635.6 4256.67 5166.79 3457.48 3931.07 3405.98 2976.22 5417.15 3688.16 4681.72 4945.39 5996.33 3950.63 5415.19 4612.62 3619.07 4275.57 4467.04 6385.23 2983.99 2614.4 6363.92 6205.93 4923.24 5830.72 6184.4 3828.81 4373.45 4082.57 5733.62 5169.9 3004.16 4460.92 5235.17 4779.5 4042.28 4421.12 4340.76 5254.49 6065.22 4221.28 4456.39 5514.84 3633.79 5421.53 4607.85 4220.46 5128.57 6000.7 5604.21 3169.67 5204.04 4968.03 3361.92 5304.13 5490.58 4863.79 3967.48 4702.06 4923.41 6213.04 3830.46 6413.11 5529.42 5274.14 4903.82 5257.12 5746.28 5187.7 3561.29 4082.47 4219.78 4623.61 4188.3 4963.34 5019.93 3885.86 5235.29 4517.73 5177.64 4255.31 5660.16 6116.33 4541.8 4479.94 6134.99 5453.3 4718.54 4407.9 6736.03 4440.57 6235.57 5548.29 5412.31 3623.87 5916.16 6934.37 4890.5 3731.84 6113.95 4050.08 3981.07 4901.07 5186.3 3436.15 4151.76 6484.17 3493.47 4721.02 4254.37 3374.08 4031.78 5564.23 5950.04 5708.99 4231.83 5687.85 6401.43 5020.71 2681.29 5094.48 5839.71 3872.61 5576.92 4318.48 6132.95 5266.22 5226.97 3685.13 3312.06 6004.68 3361.26 6799.4 5278.36 5865.39 4427.28 6079.11 6430.39 3082.32 7440.72 3949.6 5703.6 6326.18 5661.62 6631.19 6648.68 4713.74 5626.61 5817.25 5407.78 4084.49 5061.98 6632.99 4537.6 5147.36 4419.61 7177.44 4563.46 5309.98 6553.94 5255.18 5460.65 4767.78 5463.41 5225.33 4929.75 4435.36 6045.22 6649.96 4303.19 5134.39 5784.3 4256.57 3914.2 6088.68 5937.08 6070.3 4135.08 5620.74 5233.29 4312.56 4612.06 5467.84 3306.14 4750.58 6710.88 5395.14 5235.11 5211.38 6031.67 5384.76 6138.12 4428.78 4965.89 5243.43 4152.85 5659.95 4537.14 5551.9 4453.64 5511.6 4765.72 3757.34 6261.75 6415.61 4338.08 4752.14 4687.64 4378.3 4419.71 4888.12 5037.06 4950.97 5512.16 4989.56 4094.73 5175.29 3838.47 2588.37 5842.56 5887.15 4435.51 5203.08 3087.09 5374.07 7480.41 3423.15 5163.77 4488.85 4579.69 3554.48 6496.52 5005.85 4216.17 4575.94 4938.72 3546.71 5768.57 4188.87 3735.24 6574.95 2435.33 4074.48 6333.29 4558.47 5731.57 5997.88 5662.55 5737.92 6408.83 5365.24 3930.79 4004.35 4763.96 5754.18 5180.76 3418.99 4480.95 4993.35 4409.63 5521.25 3661.9 5370.85 5949.46 3658.37 3178.54 4765.02 5376.71 4448.13 5070.29 4807.28 4867.08 4266.03 5280.69 4220.03 6923.84 5449.46 6179.96 6113.54 4662.43 6260.79 3963.76 5528.53 6799.88 3062.43 5726.66 5426.78 5652.0 2967.38 4159.35 6477.91 4237.98 6439.37 4081.97 4614.3 3532.3 5580.92 5769.98 5442.32 2221.99 4643.56 4863.01 5356.79 4778.82 5657.36 6124.08 5029.47 5053.95 5926.11 6667.68 5767.9 6515.8 6622.11 3685.13 4689.15 6790.73 4655.16 5920.32 5409.66 5251.4 3867.19 4345.67 5097.69 2908.7 5857.79 4039.91 4642.66 5276.7 5036.58 5469.47 5329.59 6119.63 5411.02 4752.9 3197.63 4287.16 5301.47 4863.96 5191.08 4062.5 5415.85 8659.64 4588.7 3766.55 5683.95 6027.62 5010.2 5765.42 6123.03 4997.83 5966.61 5711.11 5325.44 5021.88 5956.65 4597.29 4200.09 4498.25 5931.77 5151.21 5398.64 6817.57 3614.96 4477.04 3886.68 5703.74 4747.55 3056.7 4360.23 3755.95 6234.32 5293.51 4586.19 4446.06 5008.63 3450.93 5132.68 4270.74 6595.03 4558.15 6218.95 5222.16 5107.23 5136.08 5558.68 3776.94 4010.57 5629.39 2684.03 6157.04 4768.61 2261.36 5075.55 4522.21 5506.19 6719.94 4950.67 5227.59 6166.29 5453.6 5703.07 5294.77 4709.05 4630.82 4043.66 4813.08 5860.67 5990.52 4540.86 4835.83 5604.35 6316.56 3091.67 4332.87 6420.81 4715.58 5401.99 5151.52 5973.33 3583.21 5291.9 5067.46 4009.62 2511.46 3580.58 4011.37 2775.69 4785.25 3619.79 6519.43 5876.64 6306.21 5266.01 5253.37 2040.66 7016.27 5089.62 4590.55 4741.26 5869.4 4916.22 3701.16 4186.6 6022.7 4255.85 4732.09 3988.3 6136.49 6543.13 5149.72 4356.25 5776.96 4216.95 5742.74 5464.25 3821.94 4244.21 5486.48 4617.55 4947.24 3645.12 5199.44 6200.54 5424.88 5148.58 4199.45 6599.66 4055.54 5469.13 4233.8 4976.12 6098.95 5453.98 3991.42 4893.49 4388.63 4834.87 5102.75 3672.21 5760.22 5938.17 4795.43 5097.95 3573.73 5108.06 4693.52 6853.04 4745.43 3420.08 5831.96 5464.68 5591.76 4585.31 6625.18 5323.91 6293.89 5097.45 2761.07 5737.75 4983.39 5366.52 4690.55 5533.72 5533.42 4802.32 3678.08 4599.38 5246.47 4187.31 6191.29 3240.51 7422.36 5161.01 4298.15 4628.4 5832.37 6051.83 4642.93 5409.63 3973.12 4263.16 3077.84 6024.75 6109.49 5567.93 5987.42 5332.65 3764.1 6451.33 5413.31 3012.99 6400.08 4743.59 5208.14 3317.83 4450.7 3763.05 5092.24 5369.08 3101.75 4347.74 4518.04 4766.06 2081.58 4874.18 6505.78 5461.55 4270.15 6865.76 5424.46 4857.84 4908.49 2978.76 4962.21 4749.59 5884.9 4858.44 3685.65 3468.42 3876.21 4673.35 5689.26 4992.42 5297.19 4940.84 5895.77 4833.46 5750.07 5933.7 4757.74 4809.67 6045.67 4209.49 3946.28 5984.81 5439.9 5367.73 4409.27 4640.06 3875.05 3456.47 3540.11 5471.74 4652.01 5421.64 3673.28 7234.66 4886.12 4207.54 3375.28 5625.65 6419.12 6107.89 4446.84 4817.16 5660.55 5148.08 3718.69 4514.79 2216.82 4509.89 6752.75 5269.38 5607.3 2928.82 4914.45 4222.4 4698.87 4000.43 4568.41 3624.7 4912.04 4691.91 4539.07 2685.81 4475.83 4510.8 5889.35 5010.04 4394.56 4570.98 4275.07 5825.38 4185.61 4047.87 5742.47 3778.02 6552.21 5417.8 5146.37 7132.12 4836.16 5518.57 5151.11 5463.48 5730.33 5545.46 4527.99 4376.7 4543.1 5190.61 8325.01 3764.06 4440.81 5941.9 5434.47 6642.76 5829.22 4497.78 4243.79 5811.18 5433.65 4442.22 4008.15 4887.76 4669.06 4811.32 4286.49 6184.88 5829.32 4396.25 5551.95 3918.87 5549.49 5423.42 6605.86 5012.5 5435.19 3298.2 4953.1 6449.64 6464.8 4684.44 4680.94 5828.35 5799.69 5571.72 3809.69 4771.13 7051.9 4608.41 4351.38 4184.23 4144.57 5550.75 7248.4 5466.33 5280.12 4444.97 5721.05 3498.16 4209.31 4247.69 4514.39 4588.99 4321.21 4344.34 5950.45 3548.39 5713.03 3583.49 4858.51 4928.27 5052.84 4366.74 5297.16 4301.61 3184.64 5206.33 5530.49 5065.26 5653.03 6192.0 4940.28 5885.28 3004.34 5323.55 3022.6 4811.76 5375.1 5313.12 5351.56 4661.03 3984.88 5160.59 5262.35 4320.42 4255.34 5064.79 5480.3 7509.24 5896.26 4146.81 5388.78 6101.13 4573.72 5099.21 4917.99 4367.78 5636.4 4350.12 5227.02 5670.0 4232.16 5300.96 4344.51 5680.94 3781.77 5581.55 5193.01 3474.5 6550.44 3860.83 6348.03 5732.27 4523.39 5278.56 5146.37 6917.62 4013.38 5631.14 4343.78 3352.35 5263.3 4909.65 6523.86 7693.4 4326.48 4437.07 3449.37 5491.9 6405.0 4659.16 5789.55 2275.45 4633.05 4901.2 5711.62 4383.56 4990.79 3562.79 7093.13 4516.53 5818.95 4122.92 4093.99 3940.49 3604.14 4452.54 4406.05 5089.1 4028.32 5876.72 5236.43 3208.96 4884.59 5285.07 3858.06 4680.14 4083.79 4187.94 5980.59 6834.41 3796.15 6226.14 4801.8 3000.29 7216.98 5271.02 7013.17 5718.28 6242.79 4601.74 6506.86 5088.57 5580.34 5849.65 3852.6 5134.67 4165.21 5775.31 4215.0 4603.5 4936.96 4647.67 4481.76 5375.12 5452.78 4356.36 4892.44 4304.41 5578.94 7610.49 4286.17 3684.56 6579.31 6028.09 5452.36 4172.6 3804.5 6486.37 5498.42 3344.57 5318.53 4732.09 5220.76 4281.98 7165.9 5344.83 7046.11 3427.63 4863.97 6342.48 5756.75 4587.67 5599.7 4163.74 6969.28 3665.95 5698.96 4095.75 3319.67 3603.51 4298.45 5222.51 6609.84 5135.96 3834.43 5658.37 4707.06 6074.94 5491.37 4250.88 3783.54 3475.67 4792.39 7038.89 3863.67 4814.12 5067.56 6137.8 2735.53 5116.6 3747.03 2783.85 4356.49 3994.07 4526.81 4219.94 5907.46 6740.71 4264.91 5399.29 5971.22 4909.31 6522.59 4798.17 5425.98 5166.79 6479.39 2895.63 4405.42 4997.91 5079.22 5381.54 5810.77 4714.83 2711.19 5474.15 7519.2 4099.92 6355.68 4478.6 4511.7 3953.55 4304.63 5263.27 6300.92 5021.77 4173.54 3928.53 5599.29 6038.68 5046.12 3834.47 4807.4 3805.67 4590.01 6101.86 4227.41 5993.0 4803.57 5966.42 3332.49 4110.59 4706.5 5354.66 4214.44 5378.23 4787.97 4981.43 3746.36 6789.23 3989.7 4777.03 4246.61 5327.75 4609.02 4896.65 4638.18 4196.37 6448.66 4453.97 6945.98 5138.2 5783.48 4701.5 4449.98 4504.35 4771.65 4840.44 5093.82 5951.81 3924.14 6918.35 4296.69 6238.32 6804.79 6471.42 4076.59 5283.8 5369.5 4428.14 5164.1 6464.15 4479.11 4972.17 6685.4 5699.53 4222.77 6332.01 5268.38 5527.23 4805.33 7085.01 5980.95 6193.08 6069.3 5887.01 5168.35 5388.39 3728.18 5335.47 5633.61 5048.19 6799.23 4888.27 4592.15 6487.56 4854.11 4998.22 5533.19 5417.21 6602.43 3568.28 5583.61 6063.64 5996.66 7382.3 2995.67 3598.08 4599.81 5698.23 7300.58 3608.06 4923.57 6633.61 5217.95 4867.7 5484.36 4277.24 4063.9 4469.54 4314.56 5291.05 5161.1 4619.2 5606.51 5166.41 5740.65 5067.56 2596.96 6349.67 6329.53 4350.15 4139.3 6541.45 4750.49 5078.31 5391.48 4923.43 5131.15 4847.14 3950.27 5116.66 3566.79 5003.78 5374.67 6246.56 4741.28 4215.2 5069.89 4157.29 6212.15 6813.72 4783.07 4946.23 6083.28 5211.6 5806.31 3556.79 5456.71 3503.41 7317.04 6412.67 7001.83 5012.97 5589.37 5439.49 6639.64 5212.43 5454.12 4834.3 6348.54 4066.57 5642.35 6372.13 5404.01 6016.19 4124.49 3230.13 5714.25 6176.67 5325.96 4850.06 5016.02 7044.29 4234.18 4920.21 4049.16 3936.95 6153.94 6836.82 3862.77 4631.99 4740.98 3185.39 5128.77 7122.87 5797.36 4243.26 4153.84 5119.86 5089.26 5084.17 4901.44 3776.8 5096.43 6156.21 6104.26 4653.83 6171.71 4986.71 4668.88 4022.56 5522.21 5027.43 3772.3 4855.01 6208.9 3340.09 6059.93 5602.53 6061.63 2279.05 4829.35 4075.28 8137.11 5484.32 6650.77 4067.96 4824.12 7104.73 6162.3 5701.75 4264.54 3516.27 7043.44 4263.78 4263.65 4643.9 5228.75 6047.14 5009.83 5210.38 4642.2 5717.8 3629.44 3683.86 4918.76 3299.24 5293.75 4208.41 4061.6 5826.78 2603.64 5473.72 5107.0 2856.55 4553.68 6502.97 3758.22 4757.2 3205.68 4852.58 5561.74 6100.73 4745.79 4788.08 5470.04 4908.75 3971.08 6204.65 4482.9 4036.91 4593.7 4349.13 5110.11 6379.14 5216.26 3687.65 4887.52 5478.95 3851.85 6318.23 4206.98 5156.76 6357.47 6101.57 4891.38 5535.91 2949.12 5955.86 4533.37 4848.46 5412.24 2779.99 5887.38 4581.37 6942.34 5851.61 5478.11 5526.31 5030.15 3858.17 3644.78 3477.1 4078.93 5934.82 4501.78 4922.49 3572.94 5001.58 4729.42 4820.17 5244.98 3886.72 5415.45 6592.93 6350.71 2460.79 6436.74 5096.24 5039.12 3628.89 3908.98 6589.82 6328.42 7307.21 5522.75 5867.64 3619.72 4438.58 7107.63 5073.02 6545.43 6760.92 4989.2 4711.04 7144.05 4506.18 2970.9 4099.26 6542.5 4383.47 5971.21 3272.75 5262.47 5261.19 3104.96 3831.52 4258.98 6106.43 4807.35 5467.63 5666.95 3919.62 4811.22 4127.53 5210.75 4474.83 6555.44 5658.14 4508.18 6214.73 2205.51 5175.89 5361.87 4268.19 4374.74 4062.56 4532.7 4504.86 5975.23 4198.94 4473.29 4211.82 6556.26 5684.25 5438.92 6550.4 4891.67 3766.69 6818.91 3503.65 3634.5 6631.28 6571.31 4392.65 4058.87 5174.75 5932.07 4984.46 5948.71 4793.65 3856.53 4532.89 5460.89 5260.85 5742.09 2884.65 5807.46 4648.21 4393.16 3658.05 3311.29 4549.69 6423.81 6192.77 4312.15 6418.11 6015.02 5244.22 5585.14 7039.98 6456.58 4159.81 4960.64 5792.98 4385.81 4034.05 5690.96 5798.38 3862.91 4456.11 5366.11 3419.87 4824.81 5769.14 5944.3 3563.14 3381.82 5135.5 5347.9 4646.51 5851.63 4565.93 4504.52 4831.93 5788.97 3472.91 4023.93 4928.85 5868.89 3274.85 5007.21 5494.28 5610.53 5206.47 4580.06 4834.39 3926.11 5493.89 7066.96 3512.94 4467.0 4991.35 4994.65 4587.7 3787.08 5196.92 6761.81 3903.91 4568.64 4728.55 4929.6 5750.35 4489.99 4548.45 4658.11 4551.26 5730.61 7124.45 6358.93 5064.67 3894.64 3703.49 6618.21 5232.85 3717.47 6200.63 3217.67 6816.66 5079.64 6163.54 996.652 5212.37 6003.78 2628.22 5058.51 4244.49 5036.98 5513.8 4521.75 4027.63 5569.2 5350.88 5420.67 6413.15 6103.11 5048.55 6459.51 4024.31 4955.16 5844.72 3992.97 5989.05 6040.74 4054.22 7228.94 5393.65 4961.99 6551.93 4595.12 3110.13 6484.43 4625.67 3485.54 4458.64 3657.69 4583.52 3492.83 6280.13 3684.15 5832.29 2606.51 4438.76 6006.89 3814.65 3965.3 5372.82 4983.3 7778.01 5127.82 5124.17 5805.1 4125.9 4064.58 4234.88 4384.28 5113.6 4810.98 5091.22 6282.38 5640.72 5727.79 5212.92 5188.82 5615.84 4464.73 6440.38 3904.07 5556.0 5545.59 3663.0 4954.81 6304.49 5755.15 4835.97 6419.64 4057.17 2781.96 4431.23 5917.34 5601.55 4462.87 5644.81 5334.36 5630.9 4554.68 4368.28 4692.32 4945.0 3127.83 4212.15 5114.07 4385.49 4263.18 7142.95 4383.68 2617.39 5144.44 4051.18 5969.37 4928.35 5034.69 4509.46 3538.53 4680.69 6500.49 5965.58 3352.34 4050.03 4901.29 4775.04 5188.53 4120.07 4882.66 3429.57 6746.66 5410.33 4642.74 6735.97 5305.59 5416.45 4330.58 5754.6 3288.01 4904.51 4147.31 2202.77 5751.15 5950.88 4149.55 4441.22 5853.89 3380.69 4140.4 4386.8 5446.4 4725.01 5966.75 5510.9 4883.63 4505.28 4971.29 5510.45 4730.14 3994.39 6119.99 3864.92 4618.73 4128.1 4446.58 4402.17 5401.4 5053.15 5910.86 6239.68 7320.78 4834.44 5782.43 4456.26 4027.33 3873.92 5026.76 5023.41 4092.07 4546.44 5657.55 4224.3 4184.21 4700.07 5043.14 5273.37 4717.73 5072.5 5713.36 5748.9 4749.18 5553.94 3742.31 4546.96 5424.55 5134.72 4608.34 5695.79 5464.83 3622.8 5414.58 5577.41 5740.98 4346.07 4013.86 6545.99 4177.47 4218.16 2918.64 4140.92 4512.07 5984.8 5236.24 4585.04 5678.58 6570.35 4242.63 3269.54 4559.74 5836.26 6666.67 6063.44 4583.94 5046.31 3844.54 1937.5 5241.75 5849.53 4651.99 4420.11 5863.0 6127.39 4972.18 4607.18 4124.76 7200.89 4813.33 4952.52 3840.21 4081.34 4954.76 3908.56 4844.83 5244.78 3636.15 6114.89 5135.63 6384.7 4355.83 6870.97 5351.86 6056.87 5474.01 6201.86 7554.58 5166.89 3639.44 5491.63 5725.37 3868.62 5138.33 3743.76 3425.69 6711.21 4236.86 5393.76 4941.02 4983.1 6010.59 2955.36 3668.93 4009.24 7541.76 4775.49 4681.29 3220.29 3845.9 5749.6 4439.71 4141.21 5667.51 4708.31 4198.9 5431.29 4833.67 5325.91 4213.05 5157.38 6203.03 5235.87 6089.45 4732.37 5810.17 4985.3 4966.07 4400.14 3669.32 4704.92 4316.0 4287.25 4921.1 4392.75 3814.16 4271.07 4420.6 5287.25 4770.51 4184.47 6511.37 4012.92 5759.79 4598.54 5218.42 4933.49 6139.64 4896.43 5463.06 4639.8 5260.52 3185.09 5114.23 5495.0 7407.91 6015.22 4454.74 2904.46 5512.44 4826.52 5120.92 4337.32 4731.53 3763.9 4788.7 5084.5 5640.12 5329.76 3899.7 2403.72 5134.33 4147.49 4802.98 4833.55 3646.95 7224.99 6334.53 4749.96 5377.37 5652.87 5483.7 5018.69 3152.86 5952.38 3896.27 5807.52 5963.36 5230.02 5307.35 4342.18 5169.48 6016.08 4731.21 3124.7 6064.71 6102.98 6060.17 5153.18 4763.4 5902.67 5454.11 5806.61 3779.45 5784.37 3682.35 7123.04 3756.96 5906.57 4932.29 4990.23 3784.94 5499.59 3125.13 6715.73 4174.44 4564.41 6331.74 5951.86 4252.18 4659.88 3791.41 5853.12 5702.4 5069.9 5473.89 3306.84 3673.6 5265.21 4657.24 5866.42 4762.1 3987.69 6502.99 6219.34 4191.01 4475.38 4589.06 4920.88 5890.25 4216.44 3999.5 5034.05 4816.51 5345.73 4770.63 3990.94 4756.8 5477.8 3986.41 4462.35 6069.78 4241.68 6102.49 3469.18 2945.34 4489.29 5064.23 4301.93 6061.85 6449.06 4924.07 4685.4 3200.6 6240.42 5146.0 5721.14 4288.45 4577.73 4987.28 4918.64 6638.25 5078.59 4759.99 2646.13 5419.57 5162.67 5760.98 4705.68 5469.35 5384.86 4019.34 4658.24 5869.67 4311.48 4899.73 5457.66 6394.19 5973.89 5366.22 6193.73 5518.11 5087.14 3742.11 5712.35 5701.52 4743.9 6776.22 5321.17 3719.11 4467.13 3877.8 6273.6 5136.87 3667.93 5024.32 4708.17 2741.2 5790.42 3142.09 5591.77 5182.13 6110.48 6245.52 3954.77 6793.1 6016.87 4506.66 5209.55 5426.4 5763.05 5129.68 5357.39 5076.84 5247.01 4208.37 4841.7 5685.74 952.938 6740.35 4678.7 3450.07 6215.87 5191.26 6060.06 5544.27 3484.81 5308.33 4666.12 6023.07 5674.63 5340.05 5995.4 5322.11 5700.79 6710.14 4426.02 4726.2 4711.15 5188.22 4841.23 3810.68 2804.54 4357.11 5005.6 4176.32 5532.75 6949.65 3372.95 4095.83 5695.25 5676.61 5846.95 5268.15 5819.0 6347.72 3460.93 4629.02 5124.86 5914.5 6006.16 5407.96 6206.98 6562.03 4815.47 4368.12 4365.58 5214.4 4636.53 3629.49 5766.05 5117.64 3835.81 4869.48 3623.19 4906.11 4387.39 4564.1 5825.55 5509.51 4848.14 4316.5 3199.4 5254.24 4192.21 3597.43 5144.56 4158.91 5311.55 3360.86 4869.25 5545.21 4333.87 5684.05 5638.7 5813.79 4644.88 4028.22 5293.13 7350.26 3768.46 5167.53 5003.3 4168.52 5800.81 5106.46 4068.31 5166.05 5077.29 5515.73 4850.5 5866.91 6405.69 2820.07 5679.74 4825.73 4165.36 5288.33 6296.54 5797.21 6019.35 6028.63 4550.92 5146.1 6485.77 3869.39 5960.5 5393.43 6896.55 4685.65 5377.01 6470.23 6506.63 4140.04 3495.3 4697.49 5735.08 7133.44 4750.81 3825.48 4474.39 4658.59 4196.62 2809.19 4916.7 5486.89 7208.19 4549.51 3587.93 4975.85 4495.75 5323.95 6171.01 5716.42 5701.63 4620.95 5368.93 4488.39 6121.56 4927.73 4602.57 3565.32 4608.62 4071.75 4626.72 5131.77 5549.71 4410.82 6443.99 3889.98 5193.58 5399.43 5695.44 3422.21 3916.42 5429.3 5510.96 6653.07 4745.16 4697.91 4584.81 5071.98 5719.79 4371.08 7261.51 4968.14 4914.03 5086.29 5527.13 5139.18 5551.43 4278.57 3034.16 5049.99 4201.03 5001.87 4493.79 4279.44 4899.19 5058.34 5575.11 3918.94 5487.63 3852.82 4507.36 7145.73 5403.97 4795.08 6562.92 5501.73 3671.06 3612.44 4697.24 7035.54 5233.76 4683.28 4217.36 6549.8 4851.18 4871.77 5368.52 5811.26 5062.77 4884.93 6075.99 5262.79 5927.2 4419.79 5407.69 5152.78 4117.9 4753.76 4781.9 4638.09 5330.26 4441.91 5939.22 4668.8 5125.17 4271.93 4859.01 5524.45 3953.26 5459.92 6478.35 5453.77 4104.04 5589.53 5593.79 5025.42 4965.24 5196.08 4517.29 4849.5 5796.26 4603.04 4870.94 5271.88 5559.79 7168.2 3763.85 3419.07 5710.33 5001.51 5344.44 6432.8 3186.07 4967.51 4369.86 5173.82 7212.97 5490.64 5034.34 3769.2 4507.46 5036.14 5603.68 4944.51 5610.95 5532.72 3220.8 5042.75 5179.17 5579.39 5270.51 5148.1 5490.75 5224.64 5949.73 4312.48 5783.94 6370.33 5081.08 6318.25 4202.77 6864.06 6008.81 4932.56 5192.49 3487.31 6643.4 4674.9 5461.72 6599.28 6224.85 5368.66 4556.19 5648.78 6875.73 5226.42 6081.3 4983.43 5117.52 6311.89 6734.39 5942.45 4150.76 5005.72 5155.28 5388.73 5205.38 4600.71 4764.83 3957.38 4494.15 5035.71 4710.88 5300.17 4057.4 5534.23 6025.77 6815.96 5339.6 5828.25 4725.11 4215.05 3626.86 6371.96 4604.1 5076.11 5990.75 5600.21 5467.51 4625.53 4096.47 5114.67 3543.37 5353.66 2638.82 5030.33 5234.2 6379.38 6257.79 5353.23 6229.83 4468.26 5578.18 5293.37 5933.54 5464.05 5879.24 4571.74 4096.86 3622.48 4796.12 5385.86 5115.42 5482.76 4082.4 3720.7 3745.02 4211.36 5698.53 3604.31 4450.49 3856.73 3468.45 5887.71 5635.32 4526.34 4316.45 5409.08 5481.64 4598.92 5241.22 6647.08 4979.52 3422.29 4407.79 5214.63 3495.68 5352.24 3990.96 7362.42 5793.12 5836.14 5473.05 5537.34 4373.2 5884.99 5726.42 7025.09 4433.12 2549.95 3392.26 4361.24 5138.93 6406.8 7086.69 6170.9 5833.78 4436.48 5615.35 3967.76 6213.24 5987.88 4228.53 3579.59 6123.46 6142.88 4461.14 5111.26 4574.54 4949.55 1969.87 3132.34 4841.28 5507.38 6889.5 4416.87 4052.43 3980.46 4896.67 3934.11 5158.44 4466.22 6153.71 5917.08 5483.37 5418.12 5322.07 5770.07 5101.6 4282.11 4656.01 6589.13 2347.41 4542.16 5602.62 2030.03 5628.97 5527.27 5104.39 4612.13 5846.6 5327.05 5438.55 4434.65 5977.66 4523.81 5065.74 5106.33 5198.94 4028.35 2980.31 5453.2 5740.78 3148.79 5997.91 4742.82 6791.86 4820.68 4209.0 4930.72 5728.58 4887.73 6297.99 5378.24 4538.89 5817.74 5661.6 4827.61 5285.75 5385.03 5673.75 5360.67 5968.54 6263.3 4501.05 4537.03 6548.29 4114.2 4326.06 5034.46 5757.29 5469.17 5061.75 3769.24 6022.78 4087.32 6647.85 2569.12 4161.32 5161.74 7336.37 5099.9 6945.69 5118.86 4304.64 4183.4 4733.79 5758.98 4823.06 5254.49 5288.64 6828.8 6883.86 3350.99 6161.94 5057.59 4065.28 5285.6 5418.98 5615.06 5490.54 5203.54 4047.95 6142.94 5001.69 6581.56 4061.87 5383.9 3798.09 3886.56 4496.51 4511.05 6561.94 5259.21 5092.93 5934.05 4714.66 2803.01 6771.18 4984.17 5327.39 5781.62 4037.86 4138.59 5714.51 4484.78 4938.33 5157.73 5847.91 4109.44 4934.66 4984.01 4903.84 4290.49 6688.53 5209.5 6175.27 5791.25 4873.23 6731.89 5410.6 4733.41 5264.83 6348.93 6824.53 4332.64 4422.23 5232.16 6031.22 3989.26 5485.84 3618.64 6424.77 5453.69 5918.95 5432.04 5689.56 6556.86 3242.31 6099.28 3234.26 5372.25 4169.15 4778.37 3494.16 5134.17 4074.16 4904.35 5592.54 3247.97 5124.34 4904.37 4358.81 4651.64 5729.92 5016.46 6224.13 4761.84 3661.67 5517.65 4009.68 4622.73 3303.49 5256.75 6351.89 5932.28 2960.5 4298.7 4975.32 3902.48 6030.39 4905.53 3799.01 7392.65 5319.1 3757.23 4181.93 6570.43 3820.19 4979.5 4745.37 5939.29 5575.11 4052.49 5061.74 5326.03 6189.67 4948.96 5117.83 5256.82 4013.86 5165.31 4288.5 4585.37 5715.51 3721.69 3456.3 6074.39 5317.83 4256.08 5881.93 4444.0 4399.52 6182.19 7415.84 4981.81 5141.03 4970.55 8123.59 4621.33 5765.14 4541.22 4946.08 3539.68 6217.33 4696.03 4557.1 6270.59 5927.1 5876.51 4103.76 4286.61 2932.52 4603.66 3901.53 4969.68 5136.51 6815.51 5313.86 4457.05 5189.91 5777.26 5703.84 4335.79 3530.82 5797.32 4886.99 3921.27 3702.45 5265.63 4898.29 4431.06 5730.2 4830.13 5620.88 5370.9 4529.77 4325.13 6172.27 5390.33 3783.79 5078.73 5278.54 5729.0 5192.92 5275.57 4179.87 4786.66 5891.25 5370.1 5129.4 5114.51 3720.38 4655.37 5585.25 5023.61 4672.86 6530.78 5560.23 3043.77 4139.39 5237.55 3909.94 5088.64 6589.8 6920.92 3729.16 3038.91 3783.36 4067.89 3922.28 4571.57 3445.92 5236.69 4586.82 6026.04 3133.28 6200.05 5859.17 4034.41 5522.34 5771.98 4420.35 5717.45 5268.27 4645.93 5448.64 6417.61 5395.12 5783.69 5350.9 3483.61 6738.9 4460.89 4157.1 4554.24 3939.96 5910.66 4637.3 5734.07 4840.44 3997.68 4819.83 4767.54 4801.16 5121.08 2927.84 6177.68 4698.7 4605.39 2848.44 6045.26 6500.45 4907.55 4094.63 5084.76 4757.87 6636.43 5431.14 6298.8 3689.24 5178.07 5151.19 4171.02 7012.36 5028.06 4002.99 5587.3 5159.67 3161.1 5764.52 5684.88 6523.78 4645.86 4045.67 4941.52 5900.0 4262.74 4581.1 6241.77 5317.19 4248.14 5279.19 4016.6 5821.49 7050.08 5580.44 5998.13 5095.52 4746.15 4758.84 4731.37 4068.41 3976.0 6463.71 5059.37 5783.38 6264.03 5645.54 3562.8 4151.74 4526.87 5192.82 5245.95 4174.22 3573.84 6294.09 5131.07 2970.24 4121.07 5524.28 5731.43 6353.81 4150.44 3518.14 5044.68 2649.69 5899.78 5000.74 5772.57 4813.81 5244.95 4634.25 5901.8 6351.48 3830.7 6210.0 5432.4 4262.52 5992.06 8052.53 4867.12 4970.12 6044.01 6520.19 1458.87 5973.57 6241.48 6033.28 6286.27 5071.38 5616.66 5688.77 5368.28 6229.64 4220.43 6263.87 5743.8 6666.34 4645.91 6605.11 3557.46 5971.95 5652.73 3979.46 6321.97 6509.54 6119.0 3792.06 4293.3 5128.59 3572.73 4864.38 3770.22 4390.64 5150.84 4608.01 5087.97 6005.95 4308.49 4930.17 5110.27 4745.44 4085.96 5762.82 7360.12 6223.98 5462.6 5617.29 3035.06 4262.19 4597.88 4878.93 6275.25 6892.33 4505.3 4452.36 4491.26 4832.21 4511.34 5009.21 4742.35 5394.79 5290.37 5264.08 4227.66 4691.01 4594.89 5821.42 5214.71 4515.02 3463.53 6126.03 6044.69 4197.87 5658.05 5105.54 5462.1 3414.67 6032.45 5444.36 2827.92 4026.03 6908.32 3467.11 4817.75 6153.26 5637.53 3882.37 5523.81 4095.4 4718.61 5188.57 3873.79 5357.33 5252.37 4499.54 5037.58 7430.48 5640.67 5545.68 6080.69 4967.93 6369.66 5922.62 5125.45 5957.82 4188.16 6327.54 5507.07 4802.36 5466.13 5327.71 5257.38 5075.23 4975.56 7282.36 3826.01 5581.01 3928.99 6834.92 6379.33 5130.57 5090.48 5402.45 3985.93 6412.84 6071.59 2589.19 6079.55 5485.61 4993.49 5310.33 6583.37 4569.32 3688.83 3402.44 4848.98 4491.96 5184.98 4467.51 5339.82 4519.03 5460.57 5065.78 5703.34 4612.68 6668.98 6649.52 4232.33 4939.56 4747.68 5770.92 3093.38 4845.91 2002.78 5631.32 4461.67 6322.0 5793.14 4609.65 6345.2 5704.61 5410.73 4379.91 4574.03 4942.63 5850.38 7066.26 4730.97 3677.85 4677.84 4924.52 4811.11 4866.8 5314.67 6593.1 4000.51 6033.93 5011.37 5092.44 4441.44 4232.44 5336.61 3312.3 5563.09 4848.15 4439.09 5648.59 6697.45 5717.67 5515.59 3224.81 3775.38 4046.22 6457.89 4844.2 6572.17 3751.73 5555.89 4766.47 4871.1 5678.08 5872.45 4414.09 5191.29 3784.68 3717.22 6649.21 4654.92 2943.17 4880.78 5286.55 4322.56 5509.09 5625.02 5212.05 4829.77 6474.5 4444.92 6959.88 4125.75 5749.53 5247.73 5034.02 5582.28 5945.25 5181.31 3856.4 4696.06 4137.16 4937.36 5308.4 6581.13 5803.3 5537.61 6084.88 4397.06 4199.44 4053.12 4479.5 6261.67 3435.13 4431.46 4521.42 4610.55 3207.84 3977.98 6043.34 4128.93 4959.72 4712.17 3808.04 4723.71 4405.61 6126.5 4034.88 6007.1 5488.96 3188.21 5128.03 3720.92 5087.3 6139.74 4975.57 6150.31 3057.3 5873.62 3868.69 4996.91 5379.52 3920.44 3768.62 5563.47 4966.74 5651.46 4066.36 3162.27 6185.73 5516.37 5432.2 4612.4 5217.62 6178.19 4746.19 4616.81 6381.58 3282.57 5212.2 4798.13 5108.42 4630.5 6296.36 4432.32 4451.76 7885.41 5782.25 4104.97 4575.72 5114.61 6118.13 3374.62 4420.3 4926.62 3917.09 6009.93 4083.1 5270.1 5130.56 4947.64 6305.9 4542.62 3470.69 4859.95 4132.08 5522.18 5223.1 3873.72 4850.49 4592.49 3625.98 5479.86 4702.32 4763.04 5971.9 4413.56 3746.62 4532.67 4876.37 4769.62 5260.13 4649.5 4810.74 5985.75 5475.83 6189.29 5984.55 5672.46 3228.27 4721.98 5252.82 3543.98 4142.1 5056.26 5878.55 4014.44 6604.72 6002.77 3794.47 4967.02 4614.49 5400.69 4462.5 2807.46 5573.31 5004.68 4179.8 4023.88 3488.34 5348.11 5428.24 5108.84 3511.5 4582.12 5067.92 4520.14 5357.14 5919.27 4850.95 4793.06 6637.38 6188.33 6111.23 6916.18 5786.06 4137.41 5447.74 4450.51 6033.72 3692.99 3851.47 6213.74 4959.94 2329.93 1635.31 6938.87 5639.4 4083.24 6520.96 4806.99 3771.91 3839.0 5715.25 4362.94 4611.21 3354.94 4404.87 5237.27 5767.65 4750.76 4907.03 5497.27 4081.77 4948.21 2181.29 4987.01 4202.12 6332.64 2694.25 6492.44 4613.32 3482.73 3996.93 4957.99 4063.26 4997.89 5093.28 6131.52 6009.88 4699.77 4981.55 5093.41 5144.23 6188.62 6153.07 4414.06 5908.57 5944.52 5050.2 5316.05 2513.38 4821.41 4908.32 3995.08 5616.11 5019.84 3900.93 5784.38 4149.17 4329.8 5728.27 3074.49 3053.19 5202.33 3956.24 7558.99 3393.59 4032.06 5043.14 5333.04 5445.91 4521.99 4812.59 6842.54 7115.67 5675.45 3361.11 6038.56 5329.84 5599.16 4577.98 5658.35 4487.51 5886.81 6805.02 4295.25 7394.47 4729.45 5374.09 6271.22 5244.47 3421.81 5378.75 3920.64 6186.24 5822.7 3780.07 5282.67 4159.89 5466.49 4038.17 5146.69 5007.41 4907.48 4369.87 5412.07 5512.57 4813.55 5856.43 3465.03 5349.85 5799.86 5172.1 4469.82 6545.78 4870.14 4695.7 2932.2 5105.72 4082.01 5003.49 3964.03 4216.33 5832.72 5617.91 4721.2 4706.31 6265.48 4735.99 4203.68 4739.56 5145.39 3352.46 6351.95 5195.09 5345.05 5200.1 3997.52 7679.2 4881.51 4311.92 2626.41 6729.99 6842.35 5464.34 3621.63 4777.96 5801.89 7296.47 5742.39 4924.53 4499.52 4433.23 4813.24 4028.13 3874.12 4457.73 6476.35 3113.64 6260.58 4067.24 6139.9 6571.26 5580.95 4313.38 3549.92 6598.99 5250.56 5246.81 5089.1 5888.95 5394.78 3463.34 5169.09 5122.38 2853.68 5262.85 4998.37 6559.82 3879.83 5342.9 6565.95 5733.12 5043.34 4246.24 4600.81 5354.48 5640.63 4900.26 6261.13 4167.55 4720.34 4865.11 5510.89 4731.16 6470.87 4495.33 4131.08 5747.9 5178.55 3864.19 4287.93 6203.24 6818.23 4488.41 6679.12 5652.19 5806.74 6578.62 6284.12 4796.04 5229.56 5296.05 6011.4 4672.34 6052.22 5376.41 5003.63 4747.24 4944.08 4380.86 5576.16 5269.39 4305.35 3308.75 5210.22 4439.17 2451.27 3903.9 4444.95 5161.02 3124.49 6081.35 5003.81 6262.18 3818.37 4701.03 6225.05 5434.04 5125.53 4444.54 5779.9 4909.74 5310.33 5299.03 6664.54 5161.73 3922.98 5259.48 5254.93 4803.4 6833.5 6608.94 2613.78 4780.16 5417.07 3834.01 5738.37 6789.66 4739.41 5759.19 5847.27 4490.2 4304.75 5480.86 4950.07 4720.22 5827.3 6036.99 3633.58 2468.16 3825.98 6294.14 4339.97 5203.75 3906.41 4691.15 2459.88 4512.6 4210.24 5470.67 5901.71 5225.11 5252.22 4962.35 6436.29 5402.81 4328.76 4919.13 5168.97 4124.33 5783.88 5002.38 6705.93 5449.09 5502.14 4605.61 4465.56 5386.95 5332.11 5315.71 6158.93 5081.65 4823.14 5438.5 4621.32 5699.4 3878.8 5237.76 4698.94 3948.21 4286.84 5669.15 5263.86 3330.85 5056.32 5533.52 5410.33 4060.17 5302.53 4909.13 4287.61 5648.02 4604.34 4863.27 5677.42 4929.35 5606.22 3943.77 5242.38 5459.52 4609.98 5566.5 5663.36 4276.59 5579.04 5405.6 5994.21 3929.35 5403.81 5082.25 6964.78 4374.05 5036.84 4565.36 5813.68 4025.08 4008.67 3618.53 4770.21 8013.28 3846.55 3796.73 3082.16 4644.68 5656.84 5416.41 5312.2 6760.64 4706.59 5734.84 3982.31 5551.79 4582.24 3916.15 2832.83 4474.96 4084.87 3010.1 5259.29 3584.05 4589.22 5087.03 4818.53 4667.84 5584.64 4123.08 6224.64 4260.38 4636.45 3799.55 4932.27 5638.51 6793.49 3563.33 6060.19 5536.0 6786.37 4333.23 5145.13 3747.96 5561.63 5940.5 4358.06 5093.51 5647.93 4280.92 6201.49 5154.74 4696.92 6437.99 6898.8 6540.57 4893.72 6004.72 4072.4 5373.78 5345.65 4489.18 2489.44 5863.36 4632.75 4752.94 4994.98 6423.96 6058.13 5894.69 6988.4 6635.51 6051.35 3999.81 5543.67 4867.13 6377.45 2701.42 4502.12 5442.79 5051.39 6673.92 5151.68 4884.94 5362.15 4455.61 4738.72 4752.31 5240.97 5569.85 4884.93 4759.38 6960.97 4287.15 4523.9 5282.51 5504.65 5669.41 5732.11 5040.9 5596.68 4868.66 4004.39 5159.9 5283.65 2892.36 5943.61 5981.54 4248.58 5911.29 4542.25 4694.27 2515.5 4849.21 5177.88 3793.83 6981.47 5367.05 4758.76 4790.63 4088.72 3945.62 4916.75 5097.85 6379.3 6189.04 4221.03 5189.4 5082.66 4550.77 4337.93 3550.88 5201.3 4345.51 4048.73 6223.33 3860.8 5438.6 5611.29 4521.88 6568.45 5004.22 4601.54 7263.57 5705.96 3832.09 5267.65 5739.69 6632.04 5360.88 7360.62 3166.37 4977.64 4985.45 4983.56 5699.51 4714.52 5499.37 4883.13 4836.76 5333.16 5551.09 3950.53 5755.98 4501.1 5581.47 4384.91 6550.61 4987.01 4713.56 6094.34 6779.82 6210.48 4182.05 3865.5 3255.93 6853.07 6327.61 4633.59 5733.59 5575.8 5268.93 3695.72 6874.6 5106.9 5306.31 5523.96 4223.53 4733.37 4535.94 3037.72 5126.08 5604.0 3760.4 4951.02 3919.47 4602.7 3783.35 4037.16 6395.63 4987.48 5479.17 5020.37 4414.23 5233.88 4785.55 5245.4 6189.81 4449.73 5647.11 3743.85 6236.46 5342.17 5015.67 3795.63 4576.71 6538.04 4894.15 6157.59 5848.41 4090.28 4246.83 7370.52 4726.5 5467.05 3724.23 5103.3 4963.88 5888.94 4727.98 5175.88 4122.2 4516.26 4790.16 3509.34 3731.58 3647.26 5369.42 5207.08 5205.53 4587.19 5543.05 6028.89 4888.17 5392.85 5077.2 4274.05 5275.27 4277.54 5529.09 4531.46 5925.82 5448.68 4739.5 4072.95 4491.62 
SCALARS Velocity float 1
LOOKUP_TABLE default
1.64928 1.67077 1.85783 1.60627 1.66799 1.18145 1.33969 2.31166 2.44487 1.0841 1.09564 1.46706 1.39184 1.34392 1.74802 1.80208 1.52054 1.40133 1.34978 1.42582 1.28065 1.2832 1.18857 1.24582 1.31563 1.2281 1.2368 1.18565 1.21723 1.22169 1.18334 1.19925 1.19813 1.21405 1.19921 1.23314 1.20125 1.1922 1.20309 1.19209 1.24199 1.38621 1.43973 1.5133 1.61661 1.25848 1.30294 1.79056 1.37725 1.39452 1.42261 1.65691 1.36799 1.84827 1.09707 1.10342 1.01116 1.76317 1.12926 1.26954 1.62012 1.73664 1.37906 1.47582 1.45105 1.41481 1.24653 1.37222 1.18375 1.25933 1.22323 1.30755 1.2233 1.19219 1.23748 1.23777 1.21222 1.22158 1.17474 1.22057 1.21913 1.22161 1.21076 1.2155 1.20588 1.22889 1.20493 1.21382 1.21665 1.18999 1.19041 1.21857 1.20235 1.19178 1.24515 1.16047 1.14488 1.3436 1.30299 1.42468 1.46736 1.44035 1.13648 1.45554 1.30613 1.45324 1.35792 1.10288 1.02667 1.24997 1.12776 1.53962 1.09321 0.99034 1.10362 1.08806 1.01857 1.03048 1.18616 1.07873 1.17629 1.19393 1.32512 1.47087 1.20949 1.19555 1.7705 1.42037 1.40401 1.41178 1.40974 1.26905 1.40144 1.18738 1.29438 1.26502 1.05695 1.32884 1.21431 1.2578 1.24108 1.20057 1.22215 1.17628 1.22782 1.22372 1.21418 1.21495 1.23369 1.20502 1.21273 1.2002 1.21485 1.20822 1.18611 1.29418 1.16542 1.34079 1.32111 1.31848 1.31453 1.20817 1.43574 1.11112 1.38359 1.21364 1.12847 1.25358 1.37126 1.50833 1.22114 1.19485 1.05892 1.19596 0.966636 0.981183 0.971912 0.984457 1.02447 1.0384 0.818223 0.99957 1.12905 1.1985 1.24794 1.28254 1.20983 1.15048 1.02363 1.33205 1.50665 1.21256 1.27494 1.22277 1.29394 1.34179 1.0682 1.18625 1.27467 1.18761 1.32451 1.24132 1.20265 1.24597 1.20192 1.23685 1.19578 1.22814 1.22389 1.21255 1.21394 1.24076 1.21335 1.21533 1.19802 1.23991 1.2142 1.22598 1.29232 1.268 1.15869 0.845887 1.32321 1.31579 1.2118 1.19682 1.3571 1.34455 1.22667 1.25499 1.16989 1.12914 1.29964 1.37431 1.3504 1.15981 1.12907 1.07616 1.03394 1.14422 1.14325 1.11962 0.970546 0.971738 0.992388 1.02128 1.00034 0.984158 0.952368 0.964767 0.896394 1.04662 1.24277 1.24859 1.32577 1.21181 1.2952 1.09959 1.22711 1.22973 1.12696 1.31511 1.2942 1.29421 1.15667 1.23037 1.29479 1.21858 1.2951 1.3326 1.20624 1.1996 1.22292 1.20228 1.18673 1.232 1.19783 1.15663 1.21806 1.20613 1.21247 1.22758 1.25295 1.2147 1.20727 1.25732 1.18512 1.31974 1.27935 1.25126 1.26958 1.31881 1.29261 1.20755 1.30886 1.38106 1.2722 1.30137 1.17086 1.33823 1.18743 1.23929 1.19665 1.16561 1.35803 1.50314 1.34146 1.17158 1.08575 1.12969 1.06327 1.07137 0.997089 1.0457 1.00176 0.984916 0.992084 0.948099 0.998171 0.980554 1.01267 0.956721 0.992975 1.043 1.23172 1.3808 1.44805 1.26038 0.993356 1.13286 1.32751 1.23911 1.20129 1.04279 1.26619 1.13523 1.15584 1.18609 1.28183 1.35904 1.11037 1.15377 1.20913 1.2055 1.18897 1.20068 1.17502 1.21186 1.21746 1.2234 1.1776 1.226 1.24028 1.1805 1.27437 1.25737 1.4518 1.2892 1.20598 1.32192 1.42547 1.39121 1.24702 1.5604 1.39502 1.14239 1.17965 1.23236 1.14288 1.18111 1.33331 1.0338 0.643392 0.796331 0.862131 0.900642 1.04493 1.05165 1.12733 0.958709 0.918931 1.05488 1.04626 0.960927 0.983097 0.878359 0.883388 0.914979 0.941596 1.00052 1.00279 1.03269 0.913743 0.963492 1.29286 1.31374 1.22656 1.18962 1.28547 1.17434 1.11435 1.09211 1.2281 1.10982 1.12614 1.31821 1.18939 1.1205 0.955837 1.03036 1.18933 1.19131 1.20523 1.23498 1.22234 1.19992 1.378 1.1457 1.1608 1.12968 1.14037 1.20549 1.22055 1.19368 1.19723 1.1845 1.19538 1.21995 1.21785 1.22768 1.22251 1.21149 1.17717 1.23241 1.21062 1.17732 1.17996 1.14568 1.21688 1.31161 1.22871 1.0211 1.17332 1.14969 1.31158 1.3241 0.78532 1.35933 1.41998 1.11477 1.09834 1.13615 1.02819 1.20115 1.47967 1.44572 0.844899 0.935942 0.895477 0.944486 0.817801 0.957185 0.713722 0.732739 1.68402 1.11298 1.01668 1.0033 1.00543 1.00154 0.996707 0.894088 0.918305 0.90759 0.918586 0.95386 0.904613 0.857105 0.91919 0.922929 0.984374 0.949809 0.990311 1.01151 1.16294 1.16627 1.18498 1.10923 1.11545 1.05837 1.07981 1.08469 1.0821 1.05098 1.08651 1.05454 1.03402 1.14151 1.25271 1.21434 1.25018 1.21976 1.22773 1.17704 1.39717 1.15107 1.16977 1.14421 1.21057 1.21364 1.19495 1.18361 1.18818 1.20424 1.16052 1.14937 1.19145 1.15899 1.21622 1.18289 1.2339 1.2085 1.21896 1.21864 1.14932 1.29922 1.25288 1.20866 1.13906 1.21028 1.22155 1.16989 1.35664 1.07457 1.11656 0.946039 1.05295 1.06495 0.853344 1.08468 0.944343 1.10267 1.06228 1.04486 0.775873 0.867592 1.04108 1.02316 1.33288 0.683916 0.855991 0.73375 0.777254 0.965936 0.972568 0.970561 0.9414 0.946749 0.895292 0.899142 0.898462 0.873524 0.882477 0.87048 0.89063 1.00961 0.973517 0.960289 0.996957 0.989884 0.976375 1.00705 0.967914 1.25064 1.18826 1.08236 1.02364 1.05188 1.07709 1.0926 1.06873 0.99015 1.23498 1.39379 1.05846 1.16546 1.14001 1.09685 1.1971 1.3162 1.16008 1.19107 1.22435 1.22314 1.2089 1.1819 1.2053 1.18855 1.19649 1.16447 1.19901 1.15589 1.21032 1.22192 1.18738 1.17748 1.21534 1.22284 1.27192 1.16612 1.22651 1.23619 1.29133 1.24374 1.20867 1.20445 1.16776 1.13693 1.25429 1.24751 1.1702 1.10235 1.1944 1.22132 1.11948 1.11724 1.07875 1.09122 1.10859 1.0661 1.06562 0.951061 1.00527 0.942377 1.06577 0.744034 0.830338 0.902015 0.975239 0.899513 0.986078 0.96212 0.950216 0.93085 0.941394 0.919564 0.890629 0.853474 0.866319 0.903752 0.906938 0.913514 0.87042 0.866348 0.852317 0.875042 0.914805 0.963091 0.967793 0.964737 1.03718 1.19217 1.1257 1.11513 1.08445 1.03355 1.04702 1.07636 1.09064 1.09134 1.0508 1.03611 1.19043 0.703776 0.952408 1.10421 1.17702 1.20187 1.04706 1.00884 1.15957 1.14803 1.16416 1.187 1.14516 1.22299 1.18731 1.18699 1.20129 1.23844 1.18397 1.22859 1.19838 1.17443 1.20334 1.16413 1.15805 1.16047 1.20051 1.17859 1.17565 1.22129 1.22957 1.24357 1.10905 1.15074 1.13822 1.27225 1.26191 1.20417 1.15133 1.11687 1.17282 1.2549 1.27031 1.19609 1.15911 1.17937 1.20228 1.12436 1.10161 1.11701 1.16071 1.09753 1.16141 1.14254 1.16604 1.19301 1.33828 1.35537 1.15264 1.00604 0.979238 0.951529 0.967418 0.934022 0.94339 0.931139 0.90739 0.869749 0.895132 0.83019 0.833783 0.781089 0.852372 0.855243 0.869968 0.851828 0.885506 0.882635 0.853031 0.864801 0.8417 0.882002 0.89218 0.937638 0.967158 0.950182 0.967352 1.01202 0.958721 1.03104 1.15731 1.01019 1.01936 1.05056 1.03705 1.04386 1.05344 1.05486 1.05343 1.03606 1.11976 1.16084 1.08371 1.00198 1.20625 1.12643 1.23947 1.20765 1.15641 1.15513 1.18018 1.16577 1.20251 1.1538 1.25156 1.16161 1.20757 1.18105 1.24808 1.18243 1.22611 1.20008 1.17074 1.20086 1.19924 1.18517 1.21018 1.21712 1.20176 1.18256 1.18682 1.21681 1.25669 1.15112 1.23978 1.15898 1.14819 1.21445 1.17606 1.2446 1.17156 1.2187 1.09912 1.19418 1.27507 0.95372 0.990476 1.16238 1.24523 1.00009 1.19411 1.08077 1.0057 1.02074 0.923868 1.04293 1.10086 1.16551 1.06264 1.34743 1.10014 0.900415 1.0946 0.615873 0.948993 0.974715 0.931189 0.94065 0.960849 0.937708 0.963508 0.959736 0.938588 0.894085 0.825521 0.812977 0.801616 0.842857 0.835366 0.850765 0.841675 0.83772 0.823833 0.817979 0.831502 0.819138 0.842611 0.793131 0.823151 0.799988 0.811394 0.847267 0.86259 0.835554 0.911652 0.894417 0.912331 0.891164 0.896537 0.886368 0.958085 1.01548 1.04033 1.07636 1.05463 1.05276 1.04303 1.0376 1.12127 1.15502 1.10232 1.09463 1.11546 1.20677 1.09564 1.20292 1.141 1.16272 1.12955 1.14078 1.11602 1.18469 1.26462 1.17004 1.21592 1.18802 1.2048 1.18614 1.22183 1.19337 1.1734 1.21158 1.19695 1.19517 1.19753 1.20038 1.18219 1.18869 1.26876 1.19866 1.2457 1.18019 1.15818 1.14461 1.17332 1.15492 1.01941 1.09199 1.17312 1.15062 1.05491 0.844449 1.07068 1.13323 0.913803 0.707102 1.35121 1.06202 0.985816 0.970648 0.975142 1.02383 0.933043 0.984699 1.27004 0.911264 1.04351 0.992428 0.514257 0.796907 0.852881 0.911208 0.933178 0.923467 0.972073 0.917285 0.950019 0.782003 0.902096 0.896883 0.775512 0.779638 0.706727 0.704756 0.734667 0.619628 0.700814 0.728273 0.79194 0.778253 0.803484 0.812091 0.803627 0.782753 0.779968 0.789658 0.786121 0.807579 0.815993 0.8203 0.833606 0.835031 0.843936 0.896618 0.892486 0.832934 0.848958 0.87455 0.934142 1.04681 1.08874 1.10013 1.06863 1.08457 1.05773 1.05289 1.03528 1.1042 1.16283 1.02496 1.16171 1.13076 1.08218 1.20764 1.1856 1.15852 1.16953 1.12015 1.14025 1.24513 1.18471 1.22873 1.15243 1.22377 1.18769 1.197 1.20983 1.20893 1.21157 1.19857 1.1871 1.19468 1.11978 1.13818 1.21254 1.18793 1.12873 1.16092 0.98552 1.07732 1.14605 1.11479 1.20098 0.696566 1.12182 1.22608 1.15008 0.978882 0.714866 0.77164 1.21808 0.809788 1.04986 0.985609 1.0127 1.00328 0.989885 0.673008 0.743966 0.866926 0.878389 0.894329 0.884669 0.876899 0.873473 0.806579 0.721333 0.797034 0.769295 0.836 0.704519 0.659447 0.70543 0.74489 0.590558 0.614901 0.746408 0.76747 0.810502 0.802257 0.766318 0.735871 0.748668 0.771502 0.821799 0.860485 0.835399 0.857792 0.815692 0.82543 0.902792 0.879306 0.924315 0.911319 0.782106 0.833036 0.96466 1.06489 1.09902 1.12151 1.17519 1.13273 1.0453 0.909256 0.97408 1.10642 0.873778 1.23478 1.09952 1.20006 1.18489 1.18996 1.17712 1.17491 1.1565 1.13971 1.11874 1.19986 1.21419 1.20924 1.17791 1.1764 1.214 1.15411 1.24455 1.18974 1.19081 1.20549 1.19656 1.19028 1.18154 1.20742 1.20207 1.18914 1.19683 1.16877 1.16935 1.08366 1.13041 1.2033 1.25575 1.18234 1.16372 1.16237 1.03683 1.15101 1.23314 0.986927 1.23669 1.168 1.14961 1.19079 1.00013 0.923148 0.87979 1.09116 0.698748 0.90911 1.01436 1.00432 0.96165 1.02742 0.977337 0.846547 0.755673 0.897257 0.95901 0.922239 0.9011 0.907322 0.868986 0.835635 0.807749 0.821173 0.809185 0.827086 0.915677 0.797482 0.652994 0.743589 0.864946 0.744711 0.712055 0.816652 0.807649 0.50465 0.486923 0.553477 0.576625 0.580028 0.683474 0.760274 0.767458 0.926869 0.821646 0.767742 0.726013 0.886366 0.904991 0.87899 0.822061 0.763749 0.946156 0.921098 0.928067 0.924625 0.938216 0.904902 1.00413 0.867583 1.00891 1.0806 1.06849 1.15609 1.17157 1.0623 1.23554 1.06426 0.972575 1.02017 1.17123 0.992189 1.11527 1.20476 1.18364 1.1737 1.16914 1.16443 1.14419 1.13843 1.11057 1.16757 1.15712 1.19185 1.17015 1.1666 1.19178 1.19744 1.18681 1.20789 1.18092 1.18204 1.19718 1.18831 1.14474 1.19325 1.16489 1.13542 1.10388 1.10877 1.12581 1.20242 1.20698 1.19731 1.19149 1.15939 1.0822 1.19221 0.869158 1.04325 1.12899 1.10207 0.999306 0.990418 0.969985 1.02034 0.993027 0.781465 0.870219 1.00223 0.924816 0.972679 1.121 1.05955 0.793247 0.889475 0.912379 0.981294 0.896453 0.849703 0.837205 0.83665 0.812285 0.803679 0.839197 0.781419 0.733341 1.00993 0.954029 0.906394 1.35146 0.622771 0.451911 0.872063 0.708357 0.754731 0.749808 0.762008 0.664721 0.609171 0.678064 0.625768 0.442505 0.508237 0.638443 1.10992 0.831312 0.789587 0.764097 0.724398 0.732509 0.7605 0.785404 0.82432 0.822245 0.803499 0.737134 0.756914 0.696775 0.635709 0.957028 0.920002 0.877781 0.869861 0.804402 0.979523 1.04661 1.24096 1.07511 0.932159 1.29099 1.07634 1.202 0.973448 1.09061 1.07774 1.07929 1.18392 1.09035 1.27249 1.29224 1.15042 1.28675 1.13108 1.15521 1.14107 1.0998 1.1876 1.16444 1.16707 1.13959 1.14191 1.16663 1.19924 1.17506 1.16936 1.16853 1.16343 1.18891 1.20451 1.18109 1.19357 1.18422 1.19379 1.17045 1.18114 1.16549 1.14533 1.0995 1.14015 1.20859 1.19441 1.2065 1.21109 1.1446 1.10955 1.18495 1.21509 1.13328 1.26353 1.1881 1.09919 1.06779 1.14528 1.01522 0.955597 1.04701 1.02835 1.06024 1.04999 0.893801 1.04603 0.893021 0.922984 0.790655 1.032 0.890646 0.684232 0.763998 0.789442 0.852059 0.912645 0.931498 1.0362 0.86433 0.765611 0.811913 0.740759 0.640496 0.78461 0.792452 0.774461 1.15946 0.648324 0.567428 0.617309 0.639075 0.654778 0.679947 0.702349 0.658246 0.631306 0.620587 0.614504 0.591897 0.629383 0.730082 0.570218 0.903761 0.835917 1.08239 0.647697 0.743632 0.458786 1.12165 0.804895 1.0432 1.03475 0.919033 0.854524 0.730253 0.746116 0.795101 0.800725 0.806653 0.767331 0.764189 0.738472 0.745784 0.863578 0.942597 0.887827 0.883595 0.862995 0.858006 0.850449 0.84134 0.896248 0.939164 0.900384 1.04118 1.12535 0.993265 0.936402 1.105 1.05807 0.998226 0.93995 0.958773 0.968046 1.04413 1.08485 1.13456 1.19725 1.14446 1.04785 0.981799 1.22704 1.18652 1.14242 1.0923 1.15771 1.18786 1.17947 1.20595 1.20124 1.17241 1.16567 1.17758 1.1941 1.18282 1.18641 1.19337 1.21239 1.21044 1.1554 1.13074 1.17661 1.15969 1.14611 1.13849 1.19046 1.10882 1.20958 1.21583 1.14225 1.11704 1.12021 1.09399 1.17807 1.0815 1.09653 1.14336 1.0812 0.969059 1.02671 0.930215 1.0816 1.05271 1.0717 0.990065 0.992077 1.01054 0.997964 0.947924 0.928311 0.84789 0.873603 0.821952 0.844533 0.882969 0.902127 0.93673 0.872058 0.732716 0.586609 0.666374 0.907141 0.817038 0.925211 0.722317 1.00493 0.75586 0.794186 0.895739 0.771114 1.18957 0.322682 0.6593 0.413666 0.598076 0.531524 0.522121 0.505992 0.383145 0.240078 2.18358 0.308229 0.203518 0.325644 0.33059 0.896992 0.419996 1.29893 0.392427 0.974899 0.352874 0.784293 0.812794 0.789523 0.714654 0.784064 0.73756 0.811256 0.764093 0.7183 0.76432 0.897758 0.919483 0.894145 0.874069 0.86468 0.863642 0.883143 0.895519 0.926731 1.0738 1.02738 1.06322 0.981132 0.968517 1.07809 1.00827 0.956596 0.961264 1.1269 1.12272 1.15632 1.12736 1.18729 1.0399 0.98647 1.22832 1.17648 1.17376 1.12912 1.14537 1.16192 1.17931 1.18451 1.13552 1.19981 1.17887 1.18366 1.17831 1.21402 1.17119 1.19342 1.18745 1.19418 1.18653 1.15551 1.17263 1.16255 1.16383 1.14256 1.19791 1.12146 1.18187 1.0549 1.14245 1.1467 1.05761 1.06114 1.07791 1.12279 1.14954 1.08075 1.14403 1.13354 0.90236 0.981153 0.978148 0.933972 1.15879 0.957354 1.00188 0.996713 0.965559 0.956573 0.905044 0.885225 0.867576 0.911627 0.931158 0.979218 0.987462 0.732513 0.584531 0.517939 0.746207 1.43337 0.504534 1.09122 0.336796 0.659878 0.789876 0.521543 1.74308 0.771911 1.56958 0.757688 0.502134 0.524476 0.45326 0.357669 1.28693 0.352934 0.213846 0.187071 0.397254 0.286394 0.64711 0.600118 0.737698 0.925842 0.736997 0.728647 0.749165 0.714937 0.795328 0.799479 0.738149 0.727053 0.888417 1.01651 0.936571 0.873577 0.870407 0.869073 0.868082 0.90396 0.879929 0.875442 0.876859 0.949212 1.07399 1.07823 1.01016 0.960278 0.926823 1.03828 1.00689 1.06771 1.0897 1.15753 1.15818 1.18892 1.10733 1.10788 1.06644 1.05818 1.14277 1.20376 1.14785 1.1596 1.14136 1.17901 1.19215 1.17307 1.18659 1.18 1.18218 1.1787 1.17457 1.21374 1.20309 1.18753 1.2066 1.19295 1.19638 1.17748 1.17817 1.16425 1.17229 1.16338 1.16983 1.17144 1.15353 1.19901 1.12318 1.16492 1.10538 1.18559 1.14879 1.06973 1.09995 1.16176 1.25238 1.10736 1.18613 1.12993 0.983413 0.951557 0.997424 0.95935 0.974393 1.04692 1.01204 0.966166 1.02844 1.03916 0.922768 0.908506 0.998738 0.880479 0.918129 0.941854 0.920447 0.806397 1.05031 0.87323 1.00348 1.05734 0.680098 0.71816 0.656459 0.771188 0.565715 0.438699 0.635442 0.670211 0.931047 0.270128 0.361539 0.287475 0.448018 0.203154 0.462865 0.281681 0.328953 0.405878 0.285469 0.412648 0.407439 0.611972 0.698642 0.656431 0.736617 0.765573 0.83596 0.725518 0.656976 0.76606 0.716254 0.684338 0.714628 0.830798 1.18388 0.881884 0.863375 0.867221 0.873635 0.878365 0.86782 0.897394 0.884912 0.88204 1.1109 1.04707 0.89621 0.974594 0.970608 1.00153 0.975537 1.04959 1.13655 1.16343 1.13715 1.09 1.09255 1.14238 1.23113 1.21384 1.16032 1.16075 1.14349 1.17798 1.18647 1.18194 1.1725 1.18165 1.18055 1.17704 1.20411 1.17748 1.18489 1.19596 1.19454 1.1792 1.17532 1.16842 1.17001 1.16373 1.17129 1.19395 1.18409 1.14799 1.15601 1.16483 1.17499 1.1853 1.11755 1.13721 1.07086 1.0989 1.13801 1.08188 1.15301 1.02386 1.12571 1.08715 0.984787 0.964549 1.033 1.0454 1.04935 0.96666 1.12482 1.14479 1.00691 0.860886 1.00637 0.867657 0.867717 0.821749 0.899342 1.09762 0.676593 0.932628 1.10821 0.795015 0.965784 1.10375 1.39663 0.942097 0.982537 0.628837 0.677463 0.57974 0.608452 0.707888 0.788473 0.756286 0.394362 0.529525 0.271792 0.601293 0.532542 0.465868 0.483009 0.373413 0.524282 0.50936 0.635194 0.713997 0.598555 0.694715 0.721458 0.836617 1.04223 0.879363 0.659346 0.713819 0.684148 0.581277 0.742778 0.748039 0.655512 0.74245 0.850739 1.04413 0.932636 0.796794 0.883307 0.876986 0.886713 0.898588 0.801226 0.988167 0.819523 0.851725 0.948537 0.972667 0.993223 1.02057 1.00457 1.02887 1.02027 1.09751 1.08631 1.10395 1.15275 1.13158 1.10788 1.11186 1.14177 1.10782 1.14419 1.14793 1.16985 1.1706 1.15543 1.18099 1.19178 1.18604 1.17315 1.18131 1.18668 1.18938 1.18587 1.18474 1.2063 1.195 1.1851 1.18922 1.17451 1.17354 1.16674 1.17428 1.1679 1.18456 1.14866 1.16396 1.17719 1.19194 1.15609 1.15747 1.15218 1.14198 1.11247 1.07818 1.13794 1.11376 1.10471 1.02222 1.03822 1.00417 0.918147 0.998503 1.01472 1.26685 0.948929 0.903122 1.02345 0.905068 0.911844 0.906057 0.84039 0.807262 1.00967 0.924623 1.00579 0.848245 0.75209 0.920262 0.703728 0.662677 0.72771 0.749304 0.792855 0.653548 0.717856 0.583394 0.545127 0.556149 0.625025 0.618883 0.560254 0.582404 0.571707 0.880071 0.780626 0.840457 0.890085 0.989919 0.77642 0.778743 0.788892 0.680217 0.523478 0.856892 0.754914 0.580925 0.651372 0.630144 1.02167 0.990902 0.874191 0.909152 0.899136 0.925971 0.879102 0.943291 1.02576 0.823572 0.998433 0.996283 1.01864 1.04021 1.0139 1.07359 1.07966 1.10018 1.13505 1.12912 1.11594 1.11125 1.11276 1.13102 1.15281 1.17403 1.17168 1.17398 1.16058 1.18913 1.19775 1.18981 1.17522 1.18116 1.18618 1.19066 1.18933 1.18726 1.16819 1.18484 1.18635 1.16696 1.17695 1.17931 1.20147 1.17291 1.16943 1.18992 1.15401 1.16757 1.17593 1.10553 1.16685 1.15312 1.13825 1.11886 1.17576 1.19379 1.12285 1.14329 1.02151 1.0625 1.01479 0.872714 0.970979 0.998845 1.01877 1.05432 0.874821 1.23468 1.07041 1.13812 0.905437 0.884847 0.952689 0.926587 0.954398 0.866988 0.995085 0.951832 0.882563 0.843651 0.697774 1.15036 1.34334 0.731422 0.991792 0.659147 0.93361 0.726822 0.761149 0.704522 0.752485 0.987533 0.702684 0.49547 0.673909 0.639182 0.696757 0.628752 0.54085 0.578496 0.803459 0.840146 0.847011 0.859773 0.805564 0.832565 0.681445 0.85223 0.539578 0.613138 0.793391 0.75733 0.76691 0.920973 0.690697 0.655343 1.19273 1.18592 1.02385 0.999534 0.886976 0.878647 0.876831 0.894176 1.0602 0.911961 0.963845 0.805213 1.05291 1.47977 0.954459 1.00942 1.03721 1.07111 1.07984 1.129 1.12728 1.1374 1.0983 1.11504 1.1231 1.14047 1.16383 1.17848 1.17302 1.18225 1.17668 1.18162 1.16468 1.19833 1.19475 1.1814 1.19517 1.18318 1.18857 1.19208 1.17919 1.17208 1.18318 1.19372 1.18218 1.17232 1.19204 1.17701 1.18021 1.18398 1.1663 1.17677 1.15453 1.14193 1.15996 1.1048 1.1885 1.10527 1.11556 1.19982 1.10709 1.15628 1.03216 1.07409 1.03333 1.02975 1.05818 0.985512 0.958059 0.878906 0.883619 1.45424 0.895836 0.930676 0.923808 0.983471 0.951246 0.932541 1.12093 0.901283 0.879194 0.51265 1.0108 0.798927 0.802423 0.788086 0.831601 0.759048 0.755175 0.742829 0.91835 0.772929 0.87948 0.7841 0.707492 0.770157 0.722461 0.659487 0.682319 0.857291 0.796571 0.846433 0.803417 0.79743 1.18127 0.774931 0.553527 0.613794 0.854853 0.884706 1.01925 1.24083 0.835765 0.904805 0.96195 0.894226 0.878558 1.12877 0.933558 0.869021 1.09901 1.33898 1.01408 1.05115 1.07793 1.0738 1.13965 1.11879 1.12959 1.10564 1.24207 1.12774 1.13049 1.16536 1.17786 1.1749 1.18037 1.18252 1.16708 1.19989 1.18004 1.18861 1.1831 1.17649 1.19425 1.19211 1.18603 1.1808 1.17528 1.18571 1.18083 1.1748 1.17768 1.17552 1.18271 1.17967 1.18146 1.1645 1.18089 1.18343 1.14699 1.14845 1.21151 1.17409 1.12438 1.11369 1.10285 1.11762 1.15642 1.13207 1.06794 1.06265 1.05979 1.06317 1.02261 0.984382 1.00707 1.02487 0.829668 0.919457 0.969895 0.947801 0.9542 0.981776 0.936745 0.865088 0.906178 0.803125 1.05988 0.952853 0.779302 0.836804 0.832928 0.824969 0.754915 0.756888 0.814898 0.835159 0.925647 0.919143 0.884756 0.835588 0.817162 0.802235 0.779265 0.824541 0.740927 0.877706 0.810428 0.83654 0.769682 0.795933 0.911242 1.30586 0.899993 0.634311 0.858775 0.893465 1.06086 1.11257 0.910563 0.892513 0.991747 0.91556 0.880589 0.86541 1.1337 1.12106 1.10371 1.2094 1.05189 1.10677 1.08703 0.945474 1.14345 1.12657 1.10033 1.14489 1.14541 1.12604 1.16774 1.20515 1.16406 1.17233 1.19212 1.1718 1.16041 1.19256 1.17799 1.19402 1.19153 1.19178 1.18079 1.17582 1.18576 1.1811 1.1762 1.18374 1.18049 1.18283 1.18001 1.1896 1.16606 1.17357 1.18673 1.19229 1.15417 1.19178 1.21918 1.16235 1.12406 1.11403 1.11068 1.13255 1.10301 1.1418 1.1055 1.10065 1.07648 1.07213 1.06156 0.994623 1.02753 0.87248 0.957796 0.989084 0.977484 1.02568 0.99521 0.984061 0.974815 0.901136 0.906167 0.895101 0.991555 0.937557 0.875613 0.906302 0.852149 0.770577 0.869884 0.865866 0.910052 0.893148 0.862298 0.8693 0.869687 0.899811 0.881445 0.823986 0.82772 0.822849 0.797019 0.780882 0.812081 1.32062 1.00949 0.845427 0.859594 0.733681 1.04622 1.05315 1.03271 1.12729 0.8796 0.954216 1.01373 0.902528 1.01418 1.13371 0.931204 0.879879 1.02054 1.17431 1.13386 1.12963 1.12557 1.13494 1.10113 1.08209 1.09113 1.19714 1.13101 1.12538 1.08294 1.11155 1.14742 1.11179 1.16822 1.14589 1.17681 1.19626 1.15921 1.18659 1.14473 1.17605 1.17062 1.19174 1.19335 1.1813 1.19478 1.19267 1.18386 1.18337 1.17988 1.18711 1.18334 1.18128 1.17404 1.18498 1.181 1.1798 1.16765 1.17219 1.17607 1.17647 1.17983 1.19517 1.15916 1.18122 1.20626 1.15996 1.15373 1.11762 1.13213 1.1295 1.10868 1.12782 1.11365 1.1103 1.07159 1.07105 1.0707 1.00103 1.02981 0.833948 0.917271 0.990733 1.01666 1.0687 1.01224 1.03202 1.05727 1.00365 0.948585 0.946258 0.903843 0.90952 0.944981 0.908303 0.895439 0.899769 0.90541 0.931638 0.898023 0.906248 0.919055 0.90649 0.918717 0.91673 0.907961 0.869505 0.938758 0.789104 0.851224 0.857734 1.17938 0.931449 0.960392 1.07912 0.991224 1.01079 0.923509 0.995885 1.16559 0.974257 1.28981 0.955253 0.98274 1.00327 1.10195 0.997884 1.173 1.09721 1.11257 1.09623 1.0899 1.19956 1.18037 1.15641 1.10074 1.15783 1.15904 1.13996 1.14856 1.16995 1.1388 1.16261 1.18997 1.17279 1.17144 1.18711 1.19531 1.1863 1.19576 1.19387 1.18383 1.19144 1.18371 1.18554 1.18385 1.17647 1.18948 1.17664 1.18843 1.19424 1.1619 1.16603 1.17422 1.17589 1.18013 1.16219 1.18942 1.13294 1.16417 1.12501 1.12734 1.12963 1.10703 1.11742 1.11696 1.13072 1.08605 1.12078 1.17997 1.11516 1.00569 1.04791 0.970485 0.967846 1.06881 1.07735 1.02385 1.05546 1.05597 1.02695 1.07288 1.0652 1.04801 0.927302 0.898027 0.899358 0.91239 0.895797 0.957693 0.921995 1.07942 0.947499 0.993672 0.884765 0.949183 0.937172 0.954074 0.941494 0.960227 0.944448 0.924408 0.882175 0.891598 0.860359 0.884961 1.03003 0.982479 0.911782 1.18845 1.11906 0.978098 1.03612 1.03711 1.02914 0.928612 1.00644 1.10475 1.02097 0.87292 1.04368 1.05391 1.04189 1.08142 1.07061 0.980021 1.15057 1.09794 1.09819 1.11906 1.09733 1.19178 1.19667 1.17119 1.15948 1.10857 1.16855 1.14631 1.1615 1.16502 1.14547 1.19838 1.18165 1.18057 1.17783 1.17821 1.20021 1.18475 1.19104 1.18822 1.19411 1.18642 1.19285 1.19353 1.18598 1.18327 1.17829 1.19197 1.17999 1.18997 1.20461 1.17254 1.17956 1.17847 1.17945 1.17943 1.18117 1.15996 1.19215 1.16979 1.15001 1.14576 1.19956 1.1295 1.16092 1.23378 1.10424 1.11546 1.12148 1.05398 1.09872 1.15214 1.18672 1.07039 1.13434 1.01726 0.988915 1.07236 1.06587 1.08449 1.08008 1.07268 0.969058 0.972961 0.901135 0.949976 0.946139 0.978244 0.980173 1.10877 1.16596 1.02921 1.05268 0.95759 0.999401 0.978953 0.970624 1.00947 1.00048 0.863406 1.05548 1.05825 1.03884 0.983505 1.0458 1.07894 1.0188 1.05511 1.07145 0.843703 1.112 1.0255 1.08254 1.02697 0.898491 1.03732 1.07006 0.995985 1.12763 1.15007 1.09065 1.11495 1.13003 1.1374 1.20914 1.17928 1.15291 1.11182 1.14767 1.17537 1.16663 1.15106 1.15864 1.17565 1.18809 1.17982 1.17207 1.18644 1.17633 1.17819 1.18818 1.18686 1.18815 1.18756 1.18819 1.18706 1.19178 1.18685 1.18577 1.19178 1.18992 1.18971 1.18227 1.18504 1.19379 1.17514 1.17922 1.18061 1.17848 1.16786 1.18139 1.20398 1.17844 1.16087 1.20014 1.12439 1.20565 1.24182 1.09538 1.0904 1.12131 1.13079 1.03795 1.05931 1.13304 1.20022 1.02383 1.04275 1.01517 1.03762 1.09614 1.08527 1.10497 1.08828 1.06937 1.05978 1.05017 1.07213 0.906368 0.916061 1.01567 1.03697 0.958732 1.0121 1.05775 1.06523 1.13417 1.04796 1.08703 1.02363 0.956983 0.998021 1.00704 0.978115 0.964708 1.05362 0.960509 1.03939 1.07471 1.09115 1.05911 1.09504 1.05207 1.01131 1.07904 1.02209 1.08213 1.05985 1.1553 1.0633 1.07969 0.981796 0.902831 1.07928 1.14443 1.06771 1.14209 1.12771 1.12575 1.14638 1.13385 1.15241 1.16544 1.14455 1.19118 1.17892 1.14849 1.1387 1.18887 1.15711 1.17083 1.16658 1.17928 1.19178 1.18218 1.17646 1.18362 1.17665 1.17839 1.18016 1.18818 1.18773 1.18941 1.18817 1.18822 1.18307 1.18243 1.18903 1.18865 1.18662 1.18401 1.19198 1.17626 1.18017 1.18178 1.18976 1.1807 1.1817 1.17143 1.19333 1.18898 1.1775 1.18211 1.12545 1.18991 1.23235 1.15585 1.1119 1.09552 1.12204 1.09808 1.17564 1.17728 1.20732 1.18528 1.05605 1.07761 1.06151 1.09773 1.10296 1.10247 1.07738 1.05952 1.0864 0.939918 1.07783 1.00291 0.967053 1.00433 1.05135 1.05306 1.07477 1.13598 1.10672 1.07126 0.958949 1.02119 1.00473 1.00468 1.03127 0.990617 1.07159 0.964639 1.10151 1.03262 1.08746 1.11634 1.05128 1.02801 1.05646 1.15841 1.10554 1.08212 1.03315 1.10168 1.10947 1.1624 1.14134 1.13087 1.19351 1.15137 1.18931 1.13314 1.11387 1.172 1.17085 1.14602 1.16285 1.19524 1.16713 1.15496 1.20008 1.19178 1.17325 1.17554 1.17441 1.18423 1.17964 1.17968 1.1809 1.17341 1.18215 1.18158 1.18723 1.18652 1.18837 1.18773 1.18888 1.18342 1.18307 1.18951 1.18645 1.19693 1.1871 1.18559 1.17734 1.17819 1.17908 1.1822 1.17949 1.18093 1.17627 1.18448 1.18782 1.18713 1.18547 1.18429 1.14571 1.20205 1.14042 1.17728 1.15368 1.10158 1.10367 1.11868 1.17036 1.18716 1.1709 1.06953 1.08854 1.08918 1.10824 1.11134 1.10506 1.09677 1.09287 1.0345 1.14344 0.997387 1.02457 1.02968 1.07519 1.08757 1.13068 1.10117 1.07257 1.04922 1.00094 1.01881 1.02359 1.08257 1.04946 1.11973 1.12038 1.0891 1.13238 1.03954 1.03029 1.20811 1.16348 1.1214 1.06854 1.09507 1.08978 1.18861 1.11377 1.10706 1.1644 1.15329 1.128 1.1426 1.15936 1.14219 1.17482 1.13646 1.19214 1.16012 1.1753 1.15955 1.15245 1.1829 1.16442 1.17605 1.1642 1.20028 1.18678 1.19164 1.17748 1.17713 1.18812 1.1857 1.17949 1.18203 1.17478 1.18269 1.1845 1.18642 1.18878 1.18746 1.18957 1.19019 1.19218 1.1838 1.18972 1.1868 1.18954 1.1965 1.18691 1.18603 1.17784 1.1779 1.19095 1.18881 1.17862 1.1849 1.18038 1.18238 1.18469 1.18827 1.18656 1.18685 1.17802 1.13646 1.15229 1.17122 1.16833 1.10012 1.12241 1.12635 1.16667 1.17179 1.08925 1.09938 1.10465 1.11027 1.11715 1.09846 1.11172 1.11885 1.04293 1.07542 1.13725 1.15083 1.04387 1.04195 1.07914 1.09197 1.11699 1.09786 1.09495 1.08306 1.06814 1.02852 1.05264 1.0924 1.05136 1.12331 1.12351 1.10837 1.14649 1.14914 1.09553 1.11615 1.11985 1.09378 1.18645 1.14915 1.11835 1.18353 1.12294 1.16114 1.18443 1.17921 1.15287 1.13288 1.16195 1.18247 1.16031 1.16643 1.17531 1.1831 1.18996 1.18134 1.1607 1.17838 1.16881 1.17866 1.19146 1.1791 1.17845 1.18966 1.1887 1.18584 1.18211 1.19178 1.18229 1.18724 1.18603 1.1873 1.18075 1.1883 1.19025 1.19071 1.18451 1.18736 1.19064 1.19448 1.19084 1.18677 1.1868 1.18016 1.19178 1.19109 1.18809 1.17853 1.17091 1.18191 1.1839 1.18789 1.18744 1.18396 1.18202 1.14086 1.21546 1.17455 1.16956 1.16959 1.15498 1.13564 1.13341 1.16505 1.18126 1.16428 1.10923 1.10278 1.10615 1.1271 1.11187 1.19412 1.13357 1.12182 1.1216 1.06127 1.158 1.04999 1.05373 1.0863 1.0925 1.10555 1.09023 1.1158 1.10129 1.09492 1.05115 1.07751 1.10181 1.03583 1.10429 1.13442 1.15703 1.16808 1.14024 1.14142 1.15822 1.10868 1.19178 1.15933 1.12916 1.11998 1.17053 1.18618 1.16103 1.15719 1.15757 1.17281 1.13988 1.18134 1.18453 1.16501 1.15927 1.17726 1.18391 1.19261 1.1782 1.18281 1.18128 1.17771 1.17057 1.18585 1.19064 1.17999 1.18008 1.18966 1.18357 1.18476 1.18522 1.19045 1.18373 1.18256 1.18673 1.18788 1.19021 1.18819 1.1897 1.19269 1.18898 1.1872 1.18984 1.19319 1.18638 1.18732 1.1869 1.18689 1.19118 1.20767 1.19207 1.1902 1.1859 1.18021 1.18161 1.18427 1.18591 1.18452 1.18739 1.18127 1.11782 1.18917 1.17907 1.17551 1.17487 1.15875 1.14493 1.14726 1.19178 1.14878 1.18618 1.15387 1.11054 1.11066 1.14355 1.13827 1.13551 1.20881 1.1233 1.14978 1.12177 1.15089 1.14623 1.13547 1.0648 1.11284 1.09899 1.11145 1.09985 1.11626 1.12584 1.07205 1.09928 1.09624 1.12624 1.09129 1.12796 1.09981 1.14114 1.16991 1.15347 1.11813 1.16306 1.16016 1.12993 1.13427 1.17999 1.18 1.17903 1.17929 1.16097 1.19711 1.16955 1.18121 1.17313 1.17774 1.18601 1.19405 1.18701 1.1908 1.18506 1.18227 1.17653 1.18549 1.1903 1.17557 1.18005 1.18134 1.19046 1.17943 1.17982 1.18671 1.1827 1.18562 1.18436 1.18708 1.1881 1.19025 1.19002 1.18818 1.1898 1.19274 1.18944 1.18724 1.18979 1.19026 1.18627 1.18745 1.19041 1.18829 1.19409 1.19184 1.19131 1.18608 1.18142 1.18525 1.18474 1.18537 1.19868 1.18631 1.18507 1.18287 1.17643 1.18186 1.17555 1.1682 1.14797 1.18075 1.18786 1.17401 1.16352 1.11113 1.13938 1.19178 1.15487 1.14623 1.13989 1.15024 1.16473 1.19176 1.13534 1.1368 1.12715 1.14869 1.11798 1.10907 1.11306 1.11935 1.10279 1.11649 1.10606 1.10498 1.14193 1.14429 1.13258 1.12219 1.15802 1.1497 1.16629 1.17215 1.14949 1.1216 1.18279 1.17653 1.16252 1.15221 1.16674 1.14486 1.17844 1.17811 1.16831 1.17962 1.17948 1.17326 1.18771 1.16729 1.17998 1.18546 1.19329 1.19248 1.19088 1.19175 1.18063 1.18859 1.18858 1.17552 1.18377 1.19178 1.19151 1.18494 1.18723 1.18747 1.19315 1.18331 1.1867 1.18553 1.18461 1.1874 1.19237 1.18978 1.18803 1.18975 1.19109 1.1896 1.18729 1.18768 1.19017 1.19178 1.1899 1.18799 1.18836 1.19178 1.18871 1.19231 1.18439 1.18333 1.18543 1.18501 1.18605 1.19877 1.18669 1.18622 1.18577 1.18447 1.18429 1.17754 1.17555 1.17589 1.14877 1.17192 1.18699 1.18079 1.12716 1.15824 1.15224 1.16431 1.18541 1.16395 1.16451 1.14425 1.15873 1.16715 1.12951 1.14325 1.12648 1.14265 1.14807 1.12068 1.16202 1.11091 1.12133 1.11438 1.11407 1.11843 1.11848 1.11267 1.14745 1.15769 1.1639 1.19614 1.20212 1.20348 1.16765 1.19178 1.14281 1.17281 1.19178 1.18201 1.16529 1.16296 1.16387 1.16671 1.19311 1.17767 1.17687 1.18035 1.18015 1.1873 1.18059 1.18272 1.16975 1.18542 1.17803 1.1888 1.1779 1.18464 1.18251 1.19018 1.18334 1.17698 1.1895 1.18894 1.19464 1.1869 1.1908 1.1901 1.18776 1.18614 1.18484 1.18789 1.18639 1.18937 1.18894 1.18773 1.18886 1.1877 1.19168 1.19233 1.18776 1.18943 1.18804 1.18879 1.18825 1.18431 1.18597 1.18529 1.18963 1.18554 1.18655 1.18556 1.18534 1.18667 1.18545 1.18452 1.18362 1.17674 1.18901 1.18051 1.18996 1.18642 1.17387 1.18532 1.18173 1.13452 1.1642 1.15991 1.18377 1.18386 1.16982 1.16618 1.18211 1.14425 1.13571 1.12739 1.13465 1.14752 1.15955 1.17072 1.13653 1.12531 1.10869 1.13338 1.12205 1.13397 1.11793 1.1537 1.1737 1.15942 1.19178 1.16662 1.19769 1.17576 1.17451 1.16826 1.18223 1.18117 1.19231 1.19211 1.1635 1.17745 1.19972 1.17438 1.19972 1.18407 1.19104 1.18231 1.18676 1.18428 1.17632 1.18535 1.18407 1.17892 1.18241 1.18116 1.18879 1.19292 1.18681 1.18638 1.18309 1.19112 1.18658 1.18973 1.19054 1.19417 1.19081 1.19284 1.19239 1.18836 1.1903 1.19178 1.18902 1.18621 1.18735 1.19186 1.19167 1.1954 1.1887 1.18769 1.18901 1.18866 1.19334 1.18896 1.19035 1.1863 1.18754 1.18901 1.19023 1.18846 1.18499 1.18936 1.18774 1.1838 1.18641 1.18433 1.1887 1.18469 1.18527 1.18312 1.18225 1.18576 1.18493 1.18043 1.18479 1.18542 1.18635 1.1738 1.18649 1.19368 1.16078 1.15385 1.17866 1.18206 1.18476 1.17471 1.18493 1.14693 1.13311 1.12913 1.14518 1.16106 1.15893 1.16526 1.14506 1.1781 1.19073 1.12318 1.11071 1.14045 1.13727 1.12087 1.16117 1.17579 1.17614 1.17857 1.17747 1.1814 1.17593 1.17989 1.18285 1.194 1.19438 1.18535 1.17582 1.18267 1.17778 1.18444 1.20122 1.18528 1.18227 1.18626 1.17906 1.17909 1.18518 1.18935 1.18279 1.18912 1.18104 1.19035 1.18952 1.18476 1.18846 1.18733 1.18999 1.18993 1.19187 1.18873 1.19054 1.19248 1.19178 1.19189 1.19156 1.18964 1.18886 1.18763 1.19489 1.19091 1.1893 1.18849 1.18698 1.18916 1.1935 1.19362 1.18927 1.19079 1.18716 1.18865 1.18999 1.19021 1.18835 1.18989 1.18747 1.18829 1.18378 1.18405 1.18516 1.1882 1.18858 1.18473 1.18491 1.18362 1.18646 1.18583 1.18401 1.18605 1.18235 1.18563 1.18653 1.19178 1.19178 1.18019 1.18742 1.18926 1.16097 1.19178 1.16298 1.18134 1.18306 1.18776 1.19396 1.17617 1.18912 1.15573 1.13423 1.13541 1.15698 1.18506 1.17256 1.17761 1.17465 1.1169 1.15813 1.13955 1.12179 1.16682 1.17708 1.17907 1.18307 1.17785 1.16683 1.18493 1.18534 1.18141 1.18558 1.19301 1.19159 1.18985 1.17987 1.19885 1.18504 1.18532 1.18531 1.18469 1.18658 1.18489 1.17947 1.17828 1.18416 1.191 1.1851 1.18689 1.18771 1.19022 1.18691 1.18768 1.18971 1.18926 1.18769 1.19167 1.19255 1.19135 1.19183 1.1909 1.18935 1.18907 1.18761 1.18482 1.1895 1.18902 1.18786 1.1882 1.19012 1.18983 1.19201 1.1888 1.19152 1.18809 1.18886 1.18876 1.18941 1.18681 1.18868 1.18548 1.18809 1.18745 1.18889 1.18597 1.18433 1.18553 1.18636 1.1863 1.18493 1.18321 1.18698 1.18869 1.18815 1.18688 1.17927 1.18107 1.18084 1.17898 1.16809 1.18473 1.1835 1.18627 1.15956 1.1685 1.16012 1.1631 1.16476 1.15701 1.17038 1.18156 1.17787 1.18239 1.18163 1.17036 1.11867 1.17473 1.13904 1.15062 1.17795 1.18409 1.17371 1.17474 1.18765 1.18487 1.19235 1.18606 1.18768 1.18449 1.1924 1.18721 1.18316 1.18832 1.18827 1.18906 1.18905 1.18842 1.18341 1.18378 1.19552 1.18277 1.18591 1.18659 1.1873 1.18946 1.1897 1.1887 1.1897 1.18889 1.19181 1.18798 1.19146 1.18836 1.19085 1.18929 1.18899 1.1877 1.18476 1.19125 1.18918 1.18911 1.19183 1.19044 1.18982 1.18897 1.1922 1.1902 1.1881 1.18851 1.18893 1.18918 1.18908 1.18964 1.18727 1.18614 1.18599 1.18816 1.18908 1.18718 1.18547 1.18631 1.18498 1.18689 1.18667 1.18656 1.18731 1.18355 1.18965 1.17848 1.18495 1.17035 1.18266 1.1942 1.18646 1.18782 1.18699 1.17994 1.18247 1.15808 1.17682 1.16056 1.19178 1.16239 1.17132 1.20841 1.16028 1.17296 1.18456 1.18053 1.18123 1.18123 1.18082 1.18311 1.16495 1.18386 1.18201 1.14488 1.15132 1.1709 1.18159 1.18524 1.18533 1.18657 1.18673 1.18826 1.18483 1.18221 1.19314 1.18777 1.18341 1.18849 1.1908 1.18844 1.18879 1.18913 1.18845 1.18855 1.18555 1.19153 1.18285 1.18554 1.18807 1.1893 1.19076 1.18956 1.18978 1.18974 1.1886 1.19005 1.18904 1.18832 1.19177 1.1924 1.19025 1.1913 1.19184 1.19148 1.18955 1.18907 1.18853 1.18493 1.19104 1.18901 1.18892 1.19177 1.19032 1.18953 1.18859 1.19204 1.19027 1.18812 1.18875 1.18887 1.18956 1.18847 1.19217 1.18821 1.18788 1.18727 1.18814 1.1858 1.18882 1.18715 1.18761 1.19178 1.18801 1.18822 1.18674 1.18779 1.18446 1.1884 1.19502 1.18168 1.18613 1.17981 1.18885 1.18377 1.18471 1.1768 1.19178 1.19319 1.16853 1.17142 1.19595 1.19775 1.17389 1.18447 1.18461 1.18175 1.18417 1.17318 1.1746 1.19178 1.17364 1.15422 1.17217 1.18296 1.18422 1.19187 1.19291 1.18488 1.18766 1.18767 1.19003 1.1851 1.19613 1.18437 1.18951 1.19158 1.18431 1.19178 1.19081 1.1887 1.18852 1.1889 1.18823 1.18808 1.19063 1.19135 1.19138 1.18584 1.18907 1.18868 1.19039 1.19025 1.18955 1.1895 1.19139 1.19204 1.18921 1.18798 1.19047 1.19162 1.1896 1.191 1.18983 1.18918 1.18902 1.18984 1.18862 1.19103 1.18938 1.18879 1.19037 1.18942 1.18946 1.18882 1.19081 1.19032 1.18782 1.18863 1.18899 1.18692 1.18851 1.1912 1.18834 1.18726 1.18812 1.18725 1.18543 1.18904 1.18766 1.18827 1.18699 1.18703 1.18499 1.18871 1.18539 1.186 1.19318 1.18295 1.18637 1.18885 1.18579 1.18778 1.18194 1.18984 1.18514 1.19044 1.19468 1.17322 1.17894 1.18526 1.17911 1.16973 1.19177 1.18194 1.17927 1.18729 1.18547 1.18272 1.18023 1.18324 1.17356 1.17609 1.19154 1.15706 1.17186 1.18324 1.18466 1.19122 1.19455 1.1895 1.19001 1.18877 1.18657 1.18933 1.18545 1.18769 1.18821 1.18974 1.19212 1.19251 1.18944 1.18829 1.19038 1.19158 1.18876 1.18877 1.18872 1.18936 1.19021 1.19136 1.1861 1.1895 1.18942 1.19171 1.1905 1.18903 1.19036 1.19208 1.18966 1.18881 1.1906 1.18748 1.19056 1.19118 1.18936 1.19092 1.18945 1.18912 1.19281 1.19296 1.19396 1.19098 1.18955 1.1892 1.19172 1.19001 1.18988 1.19084 1.18988 1.19077 1.19178 1.18816 1.189 1.18985 1.19181 1.19559 1.18851 1.19151 1.18863 1.18771 1.18771 1.18857 1.18864 1.18876 1.18864 1.18858 1.18804 1.18839 1.18719 1.18769 1.18824 1.18584 1.18681 1.18455 1.18675 1.18345 1.1878 1.18838 1.18737 1.18496 1.18535 1.18352 1.18906 1.18976 1.19423 1.19055 1.19315 1.17761 1.18464 1.18181 1.18757 1.18398 1.18958 1.18212 1.17842 1.18895 1.18937 1.16005 1.19064 1.18299 1.18502 1.19018 1.19042 1.18944 1.19105 1.19167 1.18757 1.18901 1.1892 1.18913 1.18871 1.18991 1.19103 1.1896 1.18793 1.1904 1.18979 1.18887 1.18888 1.18931 1.18997 1.1919 1.18635 1.18907 1.18948 1.1902 1.18947 1.19184 1.19071 1.19088 1.19149 1.19018 1.19132 1.18947 1.19116 1.18811 1.19054 1.19118 1.19191 1.19184 1.19064 1.19132 1.1885 1.1911 1.19274 1.19178 1.19108 1.18953 1.18923 1.19252 1.18982 1.18973 1.1908 1.19178 1.19052 1.1911 1.18941 1.1867 1.18857 1.18843 1.19117 1.1878 1.18845 1.18862 1.18995 1.18883 1.18979 1.18788 1.18794 1.18778 1.18988 1.18792 1.18604 1.1865 1.1867 1.19355 1.1915 1.18544 1.19451 1.18739 1.18879 1.18564 1.18903 1.18991 1.19038 1.17885 1.1843 1.18565 1.18801 1.18298 1.1842 1.18356 1.18614 1.18785 1.18435 1.18008 1.17949 1.18599 1.18243 1.1621 1.19063 1.18363 1.18737 1.18961 1.1919 1.19079 1.1877 1.18951 1.18917 1.18984 1.18995 1.19104 1.19125 1.19091 1.19138 1.19198 1.18864 1.19057 1.18775 1.18954 1.18925 1.18903 1.19042 1.19119 1.19279 1.18969 1.19018 1.19023 1.19031 1.19 1.19265 1.18957 1.19072 1.19122 1.19059 1.19121 1.19003 1.19153 1.19109 1.19045 1.19135 1.19169 1.19109 1.18853 1.19146 1.19201 1.19146 1.18879 1.19183 1.19178 1.19201 1.18995 1.18959 1.18997 1.19091 1.19012 1.19011 1.1902 1.18768 1.18928 1.1888 1.19102 1.18793 1.18835 1.18864 1.18996 1.18957 1.18871 1.18989 1.18825 1.19072 1.18835 1.18814 1.18633 1.18726 1.19186 1.19021 1.19025 1.19183 1.19053 1.1896 1.19178 1.18678 1.18898 1.18979 1.19262 1.19101 1.18774 1.18538 1.18663 1.18808 1.1861 1.18131 1.18277 1.19034 1.18855 1.18992 1.18962 1.19179 1.18433 1.17963 1.19178 1.16408 1.19178 1.19064 1.18625 1.18756 1.1867 1.18552 1.1921 1.19007 1.18938 1.18985 1.18931 1.19035 1.19073 1.19082 1.19164 1.18823 1.18971 1.19098 1.19054 1.1912 1.19026 1.18959 1.18985 1.19122 1.19178 1.1892 1.18964 1.19025 1.19107 1.19113 1.19018 1.18999 1.18998 1.19264 1.18966 1.19141 1.19058 1.19007 1.18997 1.19108 1.19046 1.18942 1.19163 1.19167 1.19178 1.19178 1.1914 1.18931 1.19185 1.19178 1.19007 1.19178 1.1922 1.19014 1.19104 1.1921 1.19028 1.19007 1.18881 1.19066 1.19133 1.18819 1.1884 1.18971 1.18859 1.18939 1.18844 1.19007 1.18829 1.18853 1.18812 1.18679 1.18757 1.19102 1.1904 1.1919 1.19043 1.18828 1.18804 1.18879 1.18978 1.19294 1.19237 1.19215 1.19048 1.19166 1.19018 1.18939 1.18719 1.18176 1.18407 1.19041 1.18368 1.18982 1.19159 1.19182 1.18533 1.18979 1.19114 1.19063 1.19095 1.18686 1.18651 1.1893 1.18889 1.19081 1.19108 1.18985 1.19027 1.19069 1.19079 1.19123 1.19129 1.19178 1.18868 1.19034 1.18996 1.19139 1.19174 1.19068 1.19001 1.18975 1.19091 1.19137 1.18926 1.18969 1.19043 1.19082 1.19113 1.19016 1.19178 1.19068 1.19136 1.1905 1.19005 1.19178 1.19178 1.19044 1.19033 1.19178 1.19178 1.19067 1.19178 1.19178 1.19179 1.1915 1.19018 1.19073 1.19198 1.19147 1.1907 1.19098 1.19009 1.19094 1.19198 1.19199 1.19004 1.19019 1.19013 1.1893 1.18904 1.19112 1.19165 1.1915 1.18942 1.18858 1.18916 1.18999 1.18988 1.18971 1.18882 1.18971 1.18891 1.18929 1.1883 1.18715 1.19001 1.19015 1.19136 1.19122 1.19067 1.18877 1.19018 1.1927 1.1888 1.1898 1.19227 1.18947 1.19111 1.18801 1.18904 1.18771 1.1852 1.19191 1.18999 1.19008 1.18613 1.18967 1.19196 1.19195 1.19157 1.18891 1.18852 1.1892 1.19247 1.18893 1.19073 1.19104 1.18999 1.19035 1.19069 1.19135 1.1894 1.19061 1.19027 1.19027 1.19063 1.19122 1.19074 1.19001 1.19142 1.19068 1.18915 1.18925 1.18948 1.19055 1.19107 1.19118 1.19008 1.19124 1.18994 1.19184 1.19069 1.19082 1.19178 1.19044 1.19188 1.19094 1.19133 1.19084 1.19171 1.19183 1.19189 1.19154 1.19178 1.19137 1.19079 1.19215 1.19164 1.19115 1.1909 1.19049 1.19053 1.19117 1.18929 1.18937 1.19131 1.19093 1.19098 1.19013 1.18862 1.1905 1.19025 1.18936 1.18983 1.18896 1.1895 1.18828 1.18747 1.18938 1.18968 1.19037 1.19178 1.19054 1.19152 1.19157 1.19206 1.19145 1.19039 1.1889 1.18978 1.19092 1.18944 1.19 1.1902 1.19176 1.18828 1.18894 1.18761 1.19178 1.18691 1.18917 1.19121 1.19152 1.18778 1.18794 1.19138 1.18888 1.18857 1.18953 1.19178 1.18898 1.19078 1.1904 1.19003 1.19046 1.19078 1.19087 1.19114 1.19146 1.19054 1.19069 1.19046 1.19119 1.19074 1.19018 1.19166 1.19137 1.19056 1.19091 1.18944 1.19063 1.19023 1.19004 1.19068 1.1913 1.19052 1.19103 1.19109 1.19072 1.19169 1.19156 1.19068 1.19171 1.19073 1.19166 1.19169 1.19106 1.19119 1.19043 1.18959 1.19153 1.19129 1.19146 1.19021 1.18858 1.19051 1.1912 1.19033 1.18958 1.18988 1.18899 1.1895 1.19003 1.18915 1.19196 1.19098 1.1899 1.19178 1.19085 1.1918 1.19038 1.18969 1.18998 1.18959 1.19181 1.18923 1.18978 1.18786 1.19198 1.18707 1.19055 1.19089 1.18969 1.19143 1.19155 1.19178 
SCALARS Stress float 1
LOOKUP_TABLE default
-1.25722e+12 -550042000000.0 -1.60647e+12 -3.00288e+12 -1.49049e+12 -3.66164e+12 -2.33118e+12 -1.41286e+12 -1.61151e+12 -1.07525e+12 -292439000000.0 -1.00048e+12 -882624000000.0 -404681000000.0 -872989000000.0 -553798000000.0 -469356000000.0 -249949000000.0 -265908000000.0 -145018000000.0 -36099800000.0 -24193700000.0 -25831100000.0 -53828300000.0 -107567000000.0 -60491500000.0 -51662500000.0 -21012500000.0 -17285900000.0 -33443700000.0 -23167700000.0 -23611600000.0 -38650000000.0 -37015700000.0 -33121000000.0 -36676400000.0 -18035500000.0 -13574200000.0 -17692500000.0 -13195000000.0 -36538300000.0 -209259000000.0 -329108000000.0 -126853000000.0 -460327000000.0 -778091000000.0 -620284000000.0 -1.10041e+12 -3.09299e+12 -1.52905e+12 -1.57262e+12 -2.62163e+12 -7.32422e+12 -2.63942e+12 -3.05308e+12 -1.46444e+12 -4.5191e+12 -4.50633e+12 -2.47267e+12 -2.22522e+12 -1.76795e+12 -1.97279e+12 -1.928e+12 -596767000000.0 -1.10519e+12 -921251000000.0 -586165000000.0 -317585000000.0 -160701000000.0 -122755000000.0 -52419100000.0 -318493000000.0 -45938000000.0 -98031200000.0 -141595000000.0 -125712000000.0 -115852000000.0 -97536100000.0 -80957100000.0 -89008200000.0 -53748400000.0 -24597200000.0 -26489300000.0 -32351900000.0 -38733800000.0 -35992200000.0 -17146500000.0 -18058600000.0 -56339400000.0 -13453700000.0 -12710500000.0 -17937700000.0 -24579300000.0 -12549700000.0 -85879900000.0 -35735800000.0 -15034900000.0 -176856000000.0 -69556500000.0 -466294000000.0 -542589000000.0 -542079000000.0 -298675000000.0 -754515000000.0 -551015000000.0 -377879000000.0 -2.36254e+12 -1.99584e+12 -2.09529e+12 -1.90979e+12 -4.26809e+12 -6.36109e+12 -3.84339e+12 -4.44905e+12 -4.17227e+12 -2.04887e+12 -3.08741e+12 -1.83555e+12 -4.09154e+12 -4.71414e+12 -3.5617e+12 -2.69455e+12 -1.79525e+12 -4.58701e+12 -3.1815e+12 -3.56004e+12 -2.15359e+12 -2.55153e+12 -2.02046e+12 -1.16666e+12 -1.46075e+12 -1.21125e+12 -807129000000.0 -856049000000.0 -678325000000.0 -604642000000.0 -101203000000.0 -122071000000.0 -182184000000.0 -25700400000.0 -63512200000.0 -17143700000.0 -54732100000.0 -13540500000.0 -51391100000.0 -118348000000.0 -92419800000.0 -48933200000.0 -83950500000.0 -42639400000.0 -68570600000.0 -69397000000.0 -64546800000.0 -65242800000.0 -111662000000.0 -262940000000.0 -256824000000.0 -500725000000.0 -170831000000.0 -302053000000.0 -940202000000.0 -604846000000.0 -1.09796e+12 -1.20294e+12 -1.56687e+12 -1.61988e+12 -4.32294e+12 -6.21935e+12 -1.38512e+12 -3.48551e+12 -5.23367e+12 -4.54154e+12 -2.14078e+12 -4.00683e+12 -2.77146e+12 -1.55909e+12 -2.92068e+12 -2.92768e+12 -3.01335e+12 -6.7564e+12 -6.0492e+12 -2.41638e+12 -3.02055e+12 -2.79609e+12 -3.10471e+12 -3.78251e+12 -3.0997e+12 -1.63257e+12 -1.65164e+12 -2.06866e+12 -1.25711e+12 -950102000000.0 -939845000000.0 -127932000000.0 -1.19628e+12 -1.05208e+12 -688798000000.0 -669574000000.0 -892026000000.0 -475299000000.0 -626891000000.0 -216817000000.0 -169587000000.0 -128382000000.0 -109550000000.0 -73967500000.0 -54645300000.0 -47362500000.0 -80700300000.0 -37493800000.0 -148474000000.0 -68491500000.0 -108923000000.0 -157322000000.0 -230751000000.0 -184796000000.0 -71866400000.0 -133231000000.0 -203918000000.0 -314785000000.0 -75837000000.0 -62364600000.0 -108329000000.0 -553601000000.0 -746406000000.0 -688262000000.0 -983761000000.0 -2.38321e+12 -3.7112e+12 -2.64307e+12 -4.34545e+12 -4.20685e+12 -5.63126e+12 -3.416e+12 -2.96564e+12 -3.76831e+12 -6.40043e+12 -2.04846e+12 -4.16554e+12 -3.33518e+12 -3.42171e+12 -3.78786e+12 -2.43097e+12 -3.67494e+12 -4.64687e+12 -3.55753e+12 -3.97328e+12 -2.54684e+12 -4.97328e+12 -5.35333e+12 -2.2023e+12 -6.16075e+12 -6.84366e+12 -2.43206e+12 -5.20519e+12 -3.1457e+12 -3.41272e+12 -2.47569e+12 -4.14519e+12 -2.78483e+12 -1.48999e+12 -3.12714e+12 -282955000000.0 -1.49084e+12 -428191000000.0 -1.29139e+12 -879800000000.0 -251646000000.0 -394062000000.0 -188773000000.0 -490599000000.0 -536945000000.0 -154741000000.0 -219152000000.0 -269604000000.0 -326822000000.0 -146251000000.0 -111194000000.0 -163073000000.0 -72728800000.0 -221035000000.0 -157969000000.0 -142604000000.0 -314780000000.0 -257523000000.0 -192308000000.0 -337881000000.0 -331705000000.0 -520793000000.0 -403469000000.0 -488408000000.0 -676585000000.0 -468412000000.0 -874914000000.0 -945429000000.0 -475684000000.0 -757796000000.0 -902541000000.0 -1.83938e+12 -3.9804e+12 -2.74722e+12 -3.62177e+12 -3.21167e+12 -3.0602e+12 -4.76656e+12 -2.75164e+12 -6.52713e+12 -7.04884e+12 -4.6136e+12 -5.04339e+12 -5.63284e+12 -2.70487e+12 -5.18268e+12 -2.04242e+12 -2.01234e+12 -2.62503e+12 -4.03545e+12 -3.56032e+12 -6.71052e+12 -7.16292e+12 -5.65364e+12 -5.10309e+12 -4.90703e+12 -4.37361e+12 -3.7453e+12 -2.92918e+12 -4.32099e+12 -3.74957e+12 -2.8034e+12 -3.03855e+12 -3.41778e+12 -2.70614e+12 -2.36269e+12 -1.62215e+12 -1.22158e+12 -1.33648e+12 -1.75704e+12 -1.9954e+12 -539842000000.0 -988905000000.0 -275963000000.0 -243912000000.0 -107534000000.0 -554528000000.0 -299677000000.0 -142706000000.0 -163100000000.0 -250326000000.0 -415569000000.0 -228176000000.0 -212119000000.0 -216646000000.0 -149440000000.0 -423365000000.0 -395230000000.0 -557351000000.0 -461864000000.0 -1.13333e+12 -1.37216e+12 -1.40418e+12 -1.4516e+12 -2.99695e+12 -3.21184e+12 -2.92993e+12 -1.69484e+12 -1.57563e+12 -2.41049e+12 -4.83836e+12 -5.19159e+12 -3.61274e+12 -2.9557e+12 -6.87668e+12 -6.77147e+12 -3.81023e+12 -3.01769e+12 -4.35818e+12 -4.72564e+12 -5.74202e+12 -6.88995e+12 -6.27539e+12 -2.17156e+12 -4.97355e+12 -2.23867e+12 -2.36289e+12 -2.12975e+12 -3.8609e+12 -5.26143e+12 -5.61294e+12 -7.40265e+12 -4.34921e+12 -3.6983e+12 -2.35581e+12 -4.38232e+12 -4.35806e+12 -2.88063e+12 -3.71741e+12 -2.50345e+12 -4.12073e+12 -3.78508e+12 -4.35417e+12 -4.51109e+12 -1.08363e+12 -2.28415e+12 -1.98152e+12 -3.34086e+12 -2.72631e+12 -3.09959e+12 -1.29689e+12 -2.3754e+12 -1.43899e+12 -1.39921e+12 -1.41847e+12 -633148000000.0 -1.22821e+12 -758526000000.0 -872757000000.0 -758700000000.0 -545781000000.0 -447630000000.0 -103384000000.0 -365623000000.0 -379999000000.0 -480586000000.0 -329804000000.0 -126751000000.0 -114387000000.0 -171542000000.0 -196718000000.0 -56643200000.0 -51580200000.0 -187430000000.0 -325536000000.0 -304351000000.0 -340574000000.0 -145636000000.0 -405168000000.0 -406019000000.0 -384307000000.0 -547341000000.0 -368983000000.0 -1.03e+12 -653515000000.0 -65996000000.0 -1.34487e+12 -329593000000.0 -1.14929e+12 -856474000000.0 -1.49201e+12 -2.90311e+12 -4.12662e+12 -2.67508e+12 -3.32719e+12 -5.28632e+12 -3.28904e+12 -3.85964e+12 -4.81613e+12 -1.53829e+12 -6.80398e+12 -3.90716e+12 -5.6546e+12 -4.11556e+12 -2.98121e+12 -3.9615e+12 -3.74631e+12 -3.68404e+12 -4.4395e+12 -7.36236e+12 -4.82209e+12 -3.19548e+12 -4.87121e+12 -4.56553e+12 -5.08459e+12 -3.58422e+12 -5.58774e+12 -6.80512e+12 -4.94852e+12 -3.35555e+12 -3.09985e+12 -4.44497e+12 -6.46514e+12 -5.50079e+12 -4.81427e+12 -3.85411e+12 -5.79661e+12 -3.38115e+12 -3.68567e+12 -3.55984e+12 -4.08819e+12 -2.48664e+12 -3.36577e+12 -4.11255e+12 -3.29941e+12 -2.75929e+12 -1.29107e+12 -1.10627e+12 -2.18153e+12 -1.24827e+12 -2.18943e+12 -702507000000.0 -1.02162e+12 -643018000000.0 -763576000000.0 -834231000000.0 -532258000000.0 -464841000000.0 -644966000000.0 -349259000000.0 -362112000000.0 -226825000000.0 -208321000000.0 -225166000000.0 -118113000000.0 -183867000000.0 -31740100000.0 -255402000000.0 -96626200000.0 -203101000000.0 -123223000000.0 -323012000000.0 -330177000000.0 -350511000000.0 -394362000000.0 -166012000000.0 -192484000000.0 -145795000000.0 -180494000000.0 -269671000000.0 -900078000000.0 -715588000000.0 -652854000000.0 -476251000000.0 -1.62752e+12 -916909000000.0 -2.38501e+12 -2.01416e+12 -2.11692e+12 -2.87405e+12 -3.48107e+12 -2.93661e+12 -1.93063e+12 -2.0483e+12 -5.14768e+12 -3.36124e+12 -4.97109e+12 -4.96853e+12 -6.49271e+12 -6.91676e+12 -4.66037e+12 -2.61815e+12 -8.23212e+12 -2.16931e+12 -4.37858e+12 -4.80828e+12 -7.41063e+12 -7.84685e+12 -4.2518e+12 -6.26631e+12 -5.43785e+12 -5.25765e+12 -7.26546e+12 -8.40768e+12 -4.09383e+12 -5.89135e+12 -4.44018e+12 -5.60109e+12 -2.29934e+12 -5.39451e+12 -3.53726e+12 -3.58105e+12 -4.85816e+12 -7.2679e+12 -2.79904e+12 -4.55891e+12 -2.66063e+12 -3.1298e+12 -4.68451e+12 -5.40882e+12 -5.33046e+12 -3.09796e+12 -3.25348e+12 -1.21672e+12 -2.26756e+12 -1.86042e+12 -530616000000.0 -1.1789e+12 -630592000000.0 -1.03455e+12 -975908000000.0 -894536000000.0 -204928000000.0 -829002000000.0 -766726000000.0 -180376000000.0 -362157000000.0 -123512000000.0 -179377000000.0 -271850000000.0 -14931400000.0 -268004000000.0 -221950000000.0 -295129000000.0 -350153000000.0 -256421000000.0 -226451000000.0 -212289000000.0 -208778000000.0 -697942000000.0 -577382000000.0 -580781000000.0 -29355300000.0 -16919800000.0 -488911000000.0 -578491000000.0 -546269000000.0 -1.00067e+12 -502520000000.0 -1.0533e+12 -1.55703e+12 -2.91388e+12 -518707000000.0 -1.23489e+12 -1.77267e+12 -711309000000.0 -2.3695e+12 -4.56649e+12 -2.63397e+12 -7.41931e+12 -3.34339e+12 -2.91204e+12 -4.53083e+12 -5.08848e+12 -1.92185e+12 -5.53586e+12 -5.78292e+12 -5.39911e+12 -4.17016e+12 -6.27601e+12 -4.43356e+12 -6.74891e+12 -7.46306e+12 -4.60297e+12 -1.00297e+13 -8.38246e+12 -1.68948e+12 -3.85561e+12 -4.41979e+12 -4.68935e+12 -2.04015e+12 -3.88921e+12 -5.90242e+12 -1.01066e+13 -2.73373e+12 -5.9646e+12 -7.68135e+12 -4.5614e+12 -7.23151e+12 -5.01062e+12 -8.20267e+12 -6.65262e+12 -4.78599e+12 -4.66712e+12 -3.63127e+12 -3.7199e+12 -2.19792e+12 -3.8412e+12 -5.6243e+12 -3.55644e+12 -5.42476e+12 -1.69894e+12 -2.38993e+12 -2.13136e+12 -1.8058e+12 -2.24243e+12 -1.05123e+12 -1.7537e+12 -1.83231e+12 -1.37041e+12 -1.71193e+12 -519961000000.0 -575400000000.0 -860447000000.0 -912642000000.0 -549984000000.0 -89665300000.0 -611301000000.0 -151717000000.0 -391942000000.0 -217706000000.0 -50375700000.0 -80838100000.0 -31231500000.0 -53872700000.0 -131851000000.0 -81145200000.0 -142940000000.0 -193107000000.0 -97746800000.0 -22958200000.0 -110764000000.0 -79055500000.0 -190532000000.0 -155221000000.0 -330690000000.0 -914869000000.0 -484920000000.0 -438964000000.0 -468563000000.0 -528570000000.0 -895534000000.0 -1.21948e+12 -1.28052e+12 -547483000000.0 -940720000000.0 -1.39652e+12 -1.72782e+12 -1.73519e+12 -4.06274e+12 -5.45005e+12 -1.44502e+12 -2.39846e+12 -3.99576e+12 -3.15941e+12 -2.11463e+12 -3.8457e+12 -2.71617e+12 -2.60223e+12 -3.99466e+12 -6.18226e+12 -2.93873e+12 -1.98697e+12 -4.06018e+12 -4.85453e+12 -4.9763e+12 -4.68779e+12 -6.63903e+12 -6.44899e+12 -7.35605e+12 -6.99753e+12 -7.1823e+12 -2.60732e+12 -3.99338e+12 -3.29249e+12 -4.52588e+12 -5.84029e+12 -6.04593e+12 -2.64257e+12 -4.38875e+12 -6.11749e+12 -3.76272e+12 -7.86802e+12 -5.70417e+12 -4.66411e+12 -4.13046e+12 -6.49254e+12 -4.77012e+12 -7.42849e+12 -1.96348e+12 -6.90829e+12 -4.76109e+12 -4.1896e+12 -5.99652e+12 -1.94298e+12 -3.80892e+12 -3.14621e+12 -1.8869e+12 -2.42483e+12 -4.94949e+12 -2.98442e+12 -1.26097e+12 -3.56674e+12 -3.71178e+12 -1.57939e+12 -1.84641e+12 -1.84504e+12 -1.60461e+12 -1.18311e+12 -1.57702e+12 -981565000000.0 -991821000000.0 -1.01221e+12 -819347000000.0 -1.28804e+12 -67998700000.0 -656282000000.0 -366397000000.0 -119205000000.0 -261555000000.0 -467061000000.0 -397083000000.0 -329248000000.0 -187126000000.0 -123998000000.0 -77278900000.0 -136097000000.0 -90238600000.0 -77763800000.0 -214371000000.0 -66844300000.0 -171116000000.0 -135571000000.0 -215589000000.0 -38041500000.0 -383776000000.0 -457781000000.0 -489545000000.0 -204575000000.0 -703148000000.0 -611190000000.0 -836166000000.0 -506512000000.0 -760086000000.0 -1.03023e+12 -1.25398e+12 -885913000000.0 -1.72263e+12 -1.81544e+12 -892863000000.0 -2.3174e+12 -926824000000.0 -3.98411e+12 -4.71575e+12 -3.43364e+12 -2.98053e+12 -3.51206e+12 -2.12537e+12 -1.69545e+12 -3.24574e+12 -2.17739e+12 -3.78679e+12 -3.43251e+12 -4.01863e+12 -5.64233e+12 -4.53224e+12 -2.36181e+12 -4.31433e+12 -4.77917e+12 -9.14572e+12 -3.53603e+12 -5.39147e+12 -5.26273e+12 -5.87355e+12 -7.80716e+12 -9.11568e+12 -6.22392e+12 -6.31498e+12 -6.87711e+12 -6.91753e+12 -4.25585e+12 -3.77205e+12 -3.12672e+12 -3.47869e+12 -5.2193e+12 -7.36882e+12 -3.91774e+12 -5.8129e+12 -6.26912e+12 -4.39402e+12 -4.79233e+12 -6.22236e+12 -3.80201e+12 -6.46325e+12 -4.05091e+12 -6.58386e+12 -3.79119e+12 -5.68579e+12 -3.45135e+12 -3.32737e+12 -4.60208e+12 -4.61446e+12 -2.68388e+12 -2.38556e+12 -2.89795e+12 -3.52287e+12 -3.22677e+12 -3.89762e+12 -3.36865e+12 -3.12758e+12 -2.46942e+12 -2.43002e+12 -1.66717e+12 -1.45618e+12 -1.70659e+12 -710691000000.0 -555597000000.0 -831577000000.0 -1.49811e+12 -1.90299e+12 -864710000000.0 -839940000000.0 -766563000000.0 -623004000000.0 -909242000000.0 -716816000000.0 -615500000000.0 -147594000000.0 -358230000000.0 -27741200000.0 -202468000000.0 -17958200000.0 -13397800000.0 -140532000000.0 -161536000000.0 -66355300000.0 -39429200000.0 -171737000000.0 -12936900000.0 -187997000000.0 -64364500000.0 -307604000000.0 -168841000000.0 -215726000000.0 -255084000000.0 -460817000000.0 -361223000000.0 -898087000000.0 -589658000000.0 -1.11471e+12 -1.33751e+12 -731450000000.0 -530039000000.0 -1.94129e+12 -1.63344e+12 -1.97143e+12 -1.57182e+12 -1.59266e+12 -2.67981e+12 -2.51558e+12 -1.75236e+12 -2.28081e+12 -2.11422e+12 -1.46626e+12 -2.13478e+12 -3.39929e+12 -2.28263e+12 -3.75574e+12 -2.58797e+12 -3.15796e+12 -2.071e+12 -2.89804e+12 -6.50631e+12 -3.45172e+12 -7.28868e+12 -4.94226e+12 -5.83819e+12 -5.09848e+12 -6.3887e+12 -5.22401e+12 -4.60264e+12 -5.46652e+12 -4.06562e+12 -2.97557e+12 -3.81287e+12 -1.0148e+13 -4.12687e+12 -6.17352e+12 -6.09826e+12 -6.18413e+12 -6.12562e+12 -3.25876e+12 -2.69557e+12 -2.84987e+12 -3.67701e+12 -7.62154e+12 -5.12576e+12 -7.96619e+12 -4.95559e+12 -6.00003e+12 -4.34579e+12 -4.34796e+12 -6.53891e+12 -5.16488e+12 -5.23915e+12 -8.21129e+12 -4.74805e+12 -6.95661e+12 -6.51301e+12 -6.01102e+12 -2.49597e+12 -4.55849e+12 -3.08294e+12 -3.79484e+12 -1.69544e+12 -3.39783e+12 -4.17099e+12 -3.02111e+12 -1.84518e+12 -2.64726e+12 -2.23581e+12 -1.67996e+12 -1.08839e+12 -1.19577e+12 -1.40505e+12 -1.5661e+12 -1.37171e+12 -1.09064e+12 -1.2527e+12 -960646000000.0 -621870000000.0 -894559000000.0 -469916000000.0 -633965000000.0 -334293000000.0 -435048000000.0 -224353000000.0 -219858000000.0 -191073000000.0 -276157000000.0 -88719200000.0 -136931000000.0 -16118400000.0 -28187100000.0 -305003000000.0 -400570000000.0 -474200000000.0 -132469000000.0 -141366000000.0 -591042000000.0 -758144000000.0 -916807000000.0 -1.27934e+12 -807044000000.0 -834140000000.0 -1.11372e+12 -1.51784e+12 -1.67275e+12 -1.15319e+12 -2.32078e+12 -2.34138e+12 -3.01519e+12 -3.93663e+12 -2.38159e+12 -2.15515e+12 -3.01604e+12 -4.40765e+12 -5.42237e+12 -4.06443e+12 -5.09965e+12 -4.77557e+12 -4.66374e+12 -3.93061e+12 -4.86008e+12 -4.17113e+12 -4.36988e+12 -6.26477e+12 -6.04474e+12 -7.15265e+12 -3.42426e+12 -7.37091e+12 -5.11214e+12 -6.57612e+12 -7.40164e+12 -5.3508e+12 -9.83831e+12 -6.36574e+12 -4.9968e+12 -6.00768e+12 -3.30877e+12 -6.128e+12 -8.53583e+12 -6.89849e+12 -6.88085e+12 -7.5384e+12 -7.33439e+12 -3.18065e+12 -6.16531e+12 -2.43017e+12 -3.2168e+12 -8.4874e+12 -4.2585e+12 -4.23335e+12 -3.25559e+12 -3.86506e+12 -3.21005e+12 -3.29261e+12 -2.8551e+12 -5.47822e+12 -3.56033e+12 -6.83886e+12 -4.27128e+12 -4.91899e+12 -2.89635e+12 -3.63877e+12 -2.02976e+12 -2.41505e+12 -1.95246e+12 -2.63603e+12 -1.57924e+12 -968902000000.0 -1.94107e+12 -1.37089e+12 -1.04836e+12 -661622000000.0 -878082000000.0 -195891000000.0 -934351000000.0 -563323000000.0 -387491000000.0 -257150000000.0 -468124000000.0 -132424000000.0 -422034000000.0 -186865000000.0 -410965000000.0 -299356000000.0 -119250000000.0 -228239000000.0 -142486000000.0 -263446000000.0 -42891900000.0 -66433200000.0 -191204000000.0 -12848100000.0 -264433000000.0 -299727000000.0 -232824000000.0 -336881000000.0 -319861000000.0 -472246000000.0 -389891000000.0 -368453000000.0 -722190000000.0 -123419000000.0 -323559000000.0 -1.12627e+12 -330948000000.0 -1.12911e+12 -1.67804e+12 -935963000000.0 -1.13422e+12 -215773000000.0 -1.94495e+12 -1.16505e+12 -745977000000.0 -1.80302e+12 -2.01288e+12 -2.27582e+12 -2.35458e+12 -2.32596e+12 -1.9138e+12 -4.86456e+12 -1.84347e+12 -2.86041e+12 -4.73052e+12 -3.71118e+12 -5.55714e+12 -3.33405e+12 -3.90269e+12 -7.04947e+12 -4.63786e+12 -6.10433e+12 -4.05461e+12 -3.06852e+12 -7.14227e+12 -5.04644e+12 -2.3083e+12 -2.09687e+12 -4.84608e+12 -5.39288e+12 -5.65497e+12 -5.52932e+12 -4.96033e+12 -5.5171e+12 -4.9964e+12 -3.44472e+12 -4.12066e+12 -5.41348e+12 -3.71101e+12 -1.47028e+12 -4.94924e+12 -5.46706e+12 -7.31518e+12 -5.01695e+12 -3.37588e+12 -6.53003e+12 -4.25273e+12 -7.09032e+12 -6.35884e+12 -7.24368e+12 -7.08545e+12 -4.54901e+12 -5.67899e+12 -5.54702e+12 -2.46717e+12 -2.82453e+12 -4.9015e+12 -2.48843e+12 -2.48914e+12 -1.63096e+12 -4.37231e+12 -4.72951e+12 -1.87123e+12 -4.91188e+12 -1.45097e+12 -3.40491e+12 -3.32709e+12 -2.76327e+12 -2.33607e+12 -2.24508e+12 -3.11767e+12 -2.75657e+12 -3.61034e+12 -1.32897e+12 -1.49843e+12 -404307000000.0 -2.17152e+12 -1.4683e+12 -1.69028e+12 -1.81153e+12 -874108000000.0 -1.04841e+12 -634769000000.0 -597869000000.0 -37545100000.0 -370118000000.0 -213110000000.0 -225175000000.0 -215888000000.0 -255251000000.0 -12549700000.0 -145891000000.0 -225605000000.0 -199491000000.0 -147833000000.0 -302837000000.0 -124768000000.0 -49854400000.0 -108833000000.0 -96403100000.0 -702666000000.0 -475330000000.0 -707198000000.0 -93319400000.0 -296581000000.0 -319613000000.0 -27426000000.0 -524771000000.0 -454367000000.0 -499945000000.0 -718658000000.0 -780517000000.0 -186910000000.0 -1.34501e+12 -714742000000.0 -1.82095e+12 -2.34906e+12 -2.74524e+12 -1.35901e+12 -1.83573e+12 -1.78134e+12 -3.11972e+12 -3.21414e+12 -3.12728e+12 -2.95401e+12 -4.88369e+12 -4.06273e+12 -5.19057e+12 -3.26387e+12 -7.17932e+12 -5.79584e+12 -4.9089e+12 -4.25064e+12 -1.62311e+12 -2.07243e+12 -3.42852e+12 -3.84913e+12 -3.97138e+12 -6.58492e+12 -2.62645e+12 -5.24935e+12 -4.68828e+12 -5.4255e+12 -5.51303e+12 -4.46982e+12 -4.40067e+12 -6.90393e+12 -3.71089e+12 -5.2583e+12 -7.48954e+12 -3.55752e+12 -3.01855e+12 -2.91991e+12 -3.13639e+12 -4.68264e+12 -7.18006e+12 -7.39813e+12 -2.86473e+12 -3.51337e+12 -5.45308e+12 -8.15805e+12 -6.42678e+12 -1.76064e+12 -4.29298e+12 -5.3096e+12 -4.00894e+12 -4.61787e+12 -4.72549e+12 -4.41068e+12 -3.46029e+12 -3.44032e+12 -3.99742e+12 -3.58259e+12 -4.40889e+12 -6.63624e+12 -1.87798e+12 -2.57133e+12 -3.58967e+12 -3.65675e+12 -4.09354e+12 -3.39276e+12 -3.41176e+12 -3.11269e+12 -2.31379e+12 -1.65095e+12 -2.30643e+12 -1.99225e+12 -1.13779e+12 -1.74262e+12 -1.92967e+12 -1.9575e+12 -1.88056e+12 -1.42375e+12 -1.1612e+12 -809146000000.0 -2.02885e+12 -600506000000.0 -570757000000.0 -934413000000.0 -221798000000.0 -55725900000.0 -529327000000.0 -195385000000.0 -346216000000.0 -155200000000.0 -208891000000.0 -170473000000.0 -230816000000.0 -137380000000.0 -179994000000.0 -261849000000.0 -50677500000.0 -133712000000.0 -78586400000.0 -77330600000.0 -281461000000.0 -132712000000.0 -222578000000.0 -32891300000.0 -39560400000.0 -493123000000.0 -432908000000.0 -129645000000.0 -509538000000.0 -686445000000.0 -59321000000.0 -763981000000.0 -209178000000.0 -553876000000.0 -998599000000.0 -652381000000.0 -515536000000.0 -1.15745e+12 -681075000000.0 -555940000000.0 -548362000000.0 -1.49121e+12 -1.24654e+12 -3.22375e+12 -1.02285e+12 -2.04663e+12 -3.06261e+12 -1.7615e+12 -2.07743e+12 -2.76179e+12 -1.59402e+12 -3.11211e+12 -4.19052e+12 -3.9095e+12 -1.83588e+12 -3.047e+12 -4.15655e+12 -2.15141e+12 -4.79441e+12 -5.02186e+12 -3.70958e+12 -2.34415e+12 -3.48008e+12 -4.01513e+12 -5.70744e+12 -3.11048e+12 -5.30166e+12 -4.89735e+12 -5.51517e+12 -4.85073e+12 -5.13008e+12 -6.14054e+12 -5.46612e+12 -2.95893e+12 -3.16608e+12 -4.10532e+12 -4.37236e+12 -4.15072e+12 -5.37346e+12 -4.85027e+12 -3.57167e+12 -3.93606e+12 -4.35633e+12 -3.68115e+12 -2.90397e+12 -3.74017e+12 -5.3338e+12 -3.92966e+12 -4.35496e+12 -7.12527e+12 -5.86675e+12 -4.05218e+12 -3.60418e+12 -7.26807e+12 -4.34008e+12 -6.24444e+12 -5.11982e+12 -5.5341e+12 -2.88036e+12 -5.84169e+12 -7.38513e+12 -2.48939e+12 -2.40703e+12 -4.94105e+12 -2.86582e+12 -2.28177e+12 -3.61951e+12 -3.85895e+12 -1.93372e+12 -2.41808e+12 -5.11016e+12 -1.94037e+12 -2.83864e+12 -1.82581e+12 -1.50091e+12 -2.75317e+12 -2.35044e+12 -3.79476e+12 -2.93414e+12 -1.31779e+12 -1.84057e+12 -3.67873e+12 -1.09901e+12 -797827000000.0 -1.61493e+12 -1.8955e+12 -1.02203e+12 -1.33945e+12 -966880000000.0 -2.29384e+12 -1.36428e+12 -914550000000.0 -698403000000.0 -404592000000.0 -1.03431e+12 -543925000000.0 -603138000000.0 -388544000000.0 -683618000000.0 -385002000000.0 -519265000000.0 -241110000000.0 -129552000000.0 -241317000000.0 -19373000000.0 -228281000000.0 -269483000000.0 -235622000000.0 -210408000000.0 -152100000000.0 -123189000000.0 -219985000000.0 -158077000000.0 -152813000000.0 -334537000000.0 -340958000000.0 -285621000000.0 -333004000000.0 -537972000000.0 -629342000000.0 -634433000000.0 -684588000000.0 -862346000000.0 -1.14079e+12 -988181000000.0 -298687000000.0 -630675000000.0 -1.39528e+12 -703699000000.0 -1.29811e+12 -1.44824e+12 -1.88067e+12 -2.6289e+12 -1.24171e+12 -1.58142e+12 -2.56937e+12 -2.38318e+12 -1.9358e+12 -2.7982e+12 -3.36575e+12 -3.13502e+12 -2.41222e+12 -3.489e+12 -2.50675e+12 -1.10108e+12 -3.36917e+12 -3.31021e+12 -2.02412e+12 -2.93081e+12 -5.4581e+12 -4.18855e+12 -3.86046e+12 -3.29461e+12 -5.77855e+12 -4.19256e+12 -4.98356e+12 -4.07909e+12 -4.59575e+12 -4.47065e+12 -2.91094e+12 -5.76414e+12 -3.91176e+12 -4.835e+12 -3.74012e+12 -6.17435e+12 -3.72263e+12 -2.95884e+12 -6.64764e+12 -7.33134e+12 -3.80251e+12 -5.01758e+12 -4.23849e+12 -2.34573e+12 -2.40763e+12 -3.23278e+12 -2.89695e+12 -2.80853e+12 -5.60988e+12 -4.04446e+12 -3.69443e+12 -3.89905e+12 -2.4318e+12 -1.12754e+12 -5.61741e+12 -5.42646e+12 -3.00057e+12 -5.66007e+12 -1.90766e+12 -4.78542e+12 -7.49332e+12 -2.05749e+12 -5.42211e+12 -2.6111e+12 -2.9957e+12 -2.20578e+12 -5.24772e+12 -3.50865e+12 -1.85722e+12 -1.9436e+12 -2.85654e+12 -1.57475e+12 -2.97788e+12 -1.24397e+12 -1.45123e+12 -4.04235e+12 -163585000000.0 -1.80379e+12 -2.72608e+12 -2.68178e+12 -2.7648e+12 -2.46689e+12 -2.6117e+12 -1.97724e+12 -1.38334e+12 -768845000000.0 -734063000000.0 -758525000000.0 -697726000000.0 -1.0313e+12 -482578000000.0 -268756000000.0 -176338000000.0 -137345000000.0 -307517000000.0 -514375000000.0 -74435400000.0 -266370000000.0 -263902000000.0 -278737000000.0 -93924400000.0 -87293700000.0 -243788000000.0 -23135500000.0 -74311100000.0 -19451200000.0 -83311200000.0 -76995800000.0 -91270000000.0 -64081000000.0 -240674000000.0 -343165000000.0 -97529800000.0 -647607000000.0 -275807000000.0 -285623000000.0 -345834000000.0 -746501000000.0 -905786000000.0 -346076000000.0 -897540000000.0 -1.19727e+12 -1.34685e+12 -110322000000.0 -259140000000.0 -1.53688e+12 -1.34491e+12 -1.56279e+12 -852554000000.0 -969025000000.0 -1.10056e+12 -1.57572e+12 -2.28953e+12 -3.08312e+12 -612375000000.0 -1.796e+12 -1.82177e+12 -2.02335e+12 -1.34979e+12 -3.65619e+12 -3.42865e+12 -2.77806e+12 -2.64554e+12 -4.25883e+12 -6.5588e+12 -4.24542e+12 -6.22025e+12 -5.81658e+12 -2.18356e+12 -4.05828e+12 -4.96489e+12 -3.18414e+12 -5.08122e+12 -4.32369e+12 -3.92169e+12 -2.98739e+12 -2.95938e+12 -3.4412e+12 -2.22947e+12 -5.53618e+12 -3.55328e+12 -3.99586e+12 -5.32189e+12 -4.78431e+12 -5.40732e+12 -4.93606e+12 -3.41488e+12 -3.71674e+12 -3.9528e+12 -2.20901e+12 -2.7782e+12 -4.52195e+12 -3.57163e+12 -4.01119e+12 -2.37336e+12 -4.52239e+12 -8.52539e+12 -3.61569e+12 -2.42172e+12 -4.55346e+12 -4.30403e+12 -3.07808e+12 -4.35276e+12 -4.60102e+12 -2.80827e+12 -4.94305e+12 -4.40122e+12 -3.23945e+12 -2.44304e+12 -3.302e+12 -1.76976e+12 -1.96466e+12 -2.60548e+12 -2.58872e+12 -1.46413e+12 -2.49234e+12 -3.23235e+12 -1.03139e+12 -990708000000.0 -1.20168e+12 -2.28809e+12 -1.10406e+12 -540755000000.0 -1.34044e+12 -520428000000.0 -1.19326e+12 -1.16158e+12 -873554000000.0 -1.05e+12 -824593000000.0 -419887000000.0 -497167000000.0 -436698000000.0 -446567000000.0 -419778000000.0 -484520000000.0 -556716000000.0 -363958000000.0 -184447000000.0 -352872000000.0 -251600000000.0 -183794000000.0 -133953000000.0 -21798700000.0 -104575000000.0 -54581300000.0 -21054100000.0 -103838000000.0 -63619600000.0 -128033000000.0 -148900000000.0 -289636000000.0 -103241000000.0 -336377000000.0 -290178000000.0 -347517000000.0 -212092000000.0 -266825000000.0 -117791000000.0 -144882000000.0 -730394000000.0 -915216000000.0 -575608000000.0 -234746000000.0 -578149000000.0 -391396000000.0 -1.77285e+12 -352764000000.0 -497110000000.0 -1.33616e+12 -626551000000.0 -1.63236e+12 -1.56456e+12 -2.09719e+12 -1.25135e+12 -1.95273e+12 -2.07527e+12 -623650000000.0 -624715000000.0 -1.30333e+12 -1.69264e+12 -1.49156e+12 -2.10893e+12 -1.01747e+12 -3.30183e+12 -3.54799e+12 -3.87289e+12 -2.03726e+12 -2.08791e+12 -681895000000.0 -6.12282e+12 -3.50649e+12 -2.67261e+12 -4.08114e+12 -5.19107e+12 -3.80272e+12 -2.62059e+12 -3.03412e+12 -4.86737e+12 -3.32082e+12 -3.47207e+12 -2.92619e+12 -5.56065e+12 -6.23624e+12 -4.05969e+12 -3.66e+12 -4.35989e+12 -2.15747e+12 -4.27573e+12 -4.03536e+12 -2.0357e+12 -1.96671e+12 -4.5209e+12 -2.71852e+12 -2.86294e+12 -1.64609e+12 -3.97817e+12 -3.58155e+12 -4.21028e+12 -3.35452e+12 -2.69566e+12 -5.07795e+12 -2.3351e+12 -2.35451e+12 -2.71859e+12 -3.01654e+12 -3.89197e+12 -2.7172e+12 -1.13786e+12 -2.53007e+12 -1.30183e+12 -1.54897e+12 -2.89979e+12 -1.38606e+12 -3.40404e+12 -1.76081e+12 -2.20623e+12 -1.41767e+12 -1.15832e+12 -1.73549e+12 -1.3014e+12 -1.9908e+12 -1.13491e+12 -924851000000.0 -1.75689e+12 -1.05995e+12 -771792000000.0 -688470000000.0 -1.03025e+12 -897013000000.0 -500970000000.0 -961948000000.0 -22332100000.0 -147056000000.0 -459382000000.0 -279094000000.0 -179890000000.0 -218598000000.0 -256607000000.0 -64112600000.0 -88545100000.0 -193757000000.0 -170827000000.0 -114777000000.0 -30689300000.0 -15776900000.0 -225808000000.0 -20643700000.0 -61235100000.0 -179709000000.0 -168651000000.0 -213609000000.0 -160195000000.0 -43565800000.0 -202563000000.0 -242568000000.0 -180398000000.0 -442540000000.0 -543857000000.0 -112911000000.0 -891723000000.0 -419126000000.0 -636114000000.0 -917330000000.0 -1.15678e+12 -58308400000.0 -740464000000.0 -1.20941e+12 -708023000000.0 -627117000000.0 -1.1441e+12 -573553000000.0 -1.56905e+12 -1.68187e+12 -744169000000.0 -988803000000.0 -2.09603e+12 -1.32713e+12 -738941000000.0 -2.01216e+12 -2.13843e+12 -3.06368e+12 -2.29654e+12 -3.55498e+12 -3.1678e+12 -2.59305e+12 -2.45717e+12 -1.38435e+12 -2.85893e+12 -2.3875e+12 -3.51382e+12 -2.7162e+12 -1.68179e+12 -2.11893e+12 -2.10156e+12 -1.47935e+12 -3.1155e+12 -2.84934e+12 -4.09995e+12 -3.3036e+12 -4.60419e+12 -4.21853e+12 -4.26464e+12 -5.96769e+12 -4.12428e+12 -3.60773e+12 -4.52033e+12 -3.05013e+12 -2.65248e+12 -3.08832e+12 -2.94758e+12 -4.58157e+12 -1.90657e+12 -2.84115e+12 -2.25941e+12 -1.78285e+12 -1.09115e+12 -3.44113e+12 -2.69684e+12 -2.92425e+12 -2.33196e+12 -5.85218e+12 -3.29091e+12 -3.05158e+12 -1.58227e+12 -3.5093e+12 -4.35535e+12 -3.93279e+12 -2.89233e+12 -2.52666e+12 -3.47211e+12 -2.33876e+12 -1.2952e+12 -1.15308e+12 -273630000000.0 -1.64933e+12 -3.40867e+12 -1.81144e+12 -1.38285e+12 -846847000000.0 -1.3867e+12 -1.02601e+12 -1.13991e+12 -485377000000.0 -1.22418e+12 -1.12939e+12 -1.19093e+12 -606241000000.0 -1.14693e+12 -438806000000.0 -875805000000.0 -917261000000.0 -1.39592e+12 -755382000000.0 -304538000000.0 -638538000000.0 -326982000000.0 -843569000000.0 -445815000000.0 -452571000000.0 -634049000000.0 -214181000000.0 -243348000000.0 -114686000000.0 -108235000000.0 -150399000000.0 -79821400000.0 -157217000000.0 -103583000000.0 -160561000000.0 -110140000000.0 -181966000000.0 -55174200000.0 -47312100000.0 -84795500000.0 -206762000000.0 -363394000000.0 -142533000000.0 -99880800000.0 -257183000000.0 -186157000000.0 -407356000000.0 -117604000000.0 -227771000000.0 -184755000000.0 -571548000000.0 -362611000000.0 -53462800000.0 -265792000000.0 -510972000000.0 -852072000000.0 -178870000000.0 -157829000000.0 -881188000000.0 -882880000000.0 -516113000000.0 -1.46946e+12 -689664000000.0 -981587000000.0 -1.44059e+12 -1.60016e+12 -1.13618e+12 -2.59127e+12 -910468000000.0 -2.06363e+12 -2.81224e+12 -3.9082e+12 -1.86468e+12 -1.95485e+12 -2.85199e+12 -4.23305e+12 -3.85199e+12 -2.26114e+12 -2.71514e+12 -6.0496e+12 -2.14556e+12 -2.14874e+12 -2.94002e+12 -1.7825e+12 -4.3678e+12 -6.17375e+12 -4.59374e+12 -2.45448e+12 -2.80931e+12 -2.54944e+12 -1.19225e+12 -1.78037e+12 -2.02583e+12 -1.85103e+12 -2.51156e+12 -2.14812e+12 -2.29302e+12 -3.37006e+12 -978221000000.0 -3.09351e+12 -1.54778e+12 -2.02173e+12 -2.29356e+12 -2.94359e+12 -1.91027e+12 -2.46183e+12 -1.87855e+12 -982630000000.0 -2.73552e+12 -2.94728e+12 -1.28071e+12 -3.0454e+12 -2.46068e+12 -1.71108e+12 -2.94907e+12 -958279000000.0 -1.80105e+12 -790616000000.0 -1.66953e+12 -1.19664e+12 -1.31315e+12 -1.94728e+12 -1.07999e+12 -1.07807e+12 -767238000000.0 -1.35185e+12 -706859000000.0 -534695000000.0 -806012000000.0 -954769000000.0 -1.14283e+12 -410176000000.0 -386398000000.0 -292817000000.0 -385606000000.0 -337873000000.0 -194473000000.0 -294559000000.0 -198956000000.0 -328650000000.0 -169577000000.0 -200579000000.0 -209023000000.0 -123721000000.0 -109717000000.0 -84327000000.0 -120245000000.0 -15217700000.0 -107406000000.0 -89055800000.0 -62760000000.0 -216666000000.0 -68996200000.0 -177736000000.0 -114445000000.0 -74343400000.0 -266474000000.0 -27903200000.0 -288378000000.0 -238773000000.0 -312193000000.0 -304005000000.0 -48489700000.0 -441929000000.0 -479871000000.0 -637523000000.0 -1.10284e+12 -609931000000.0 -546682000000.0 -1.0105e+12 -1.05227e+12 -1.56808e+12 -1.06826e+12 -1.04385e+12 -480738000000.0 -980451000000.0 -1.91829e+12 -1.48611e+12 -378240000000.0 -1.43072e+12 -1.04121e+12 -3.08515e+12 -2.28426e+12 -2.17761e+12 -1.70628e+12 -987860000000.0 -1.82576e+12 -950774000000.0 -1.62026e+12 -1.96646e+12 -2.59938e+12 -1.533e+12 -4.03408e+12 -1.73731e+12 -1.16782e+12 -2.31016e+12 -3.85254e+12 -1.38428e+12 -2.19005e+12 -1.4018e+12 -2.46007e+12 -2.72222e+12 -4.81458e+12 -2.1312e+12 -5.2506e+12 -3.97184e+12 -1.97264e+12 -4.96188e+12 -2.71583e+12 -2.93268e+12 -3.96475e+12 -3.06655e+12 -1.91723e+12 -3.06865e+12 -3.21642e+12 -2.52167e+12 -3.25772e+12 -1.61563e+12 -2.48145e+12 -2.65089e+12 -2.60815e+12 -1.56513e+12 -1.47893e+12 -1.78093e+12 -1.50753e+12 -1.81298e+12 -1.91648e+12 -1.7237e+12 -1.59627e+12 -1.48205e+12 -2.15112e+12 -2.51276e+12 -2.13771e+12 -1.86278e+12 -97866500000.0 -3.37641e+12 -2.23952e+12 -1.89766e+12 -1.49753e+12 -1.20323e+12 -1.79632e+12 -1.37615e+12 -450194000000.0 -1.20101e+12 -899219000000.0 -914196000000.0 -352547000000.0 -1.22301e+12 -1.03097e+12 -1.71303e+12 -455011000000.0 -418458000000.0 -898515000000.0 -522308000000.0 -630405000000.0 -343273000000.0 -132888000000.0 -366146000000.0 -19260600000.0 -212171000000.0 -54965600000.0 -145421000000.0 -81463300000.0 -63190500000.0 -103104000000.0 -15442300000.0 -70462500000.0 -126264000000.0 -102427000000.0 -68811600000.0 -148282000000.0 -164357000000.0 -20979300000.0 -21283000000.0 -92497300000.0 -15012400000.0 -264760000000.0 -110640000000.0 -251583000000.0 -130167000000.0 -309878000000.0 -27019400000.0 -206443000000.0 -207026000000.0 -19556800000.0 -315025000000.0 -114967000000.0 -613307000000.0 -22431800000.0 -775867000000.0 -1.14945e+12 -634093000000.0 -1.35168e+12 -1.85405e+12 -887643000000.0 -1.73521e+12 -1.05025e+12 -2.32913e+12 -2.9212e+12 -3.0635e+12 -788437000000.0 -1.18855e+12 -1.66097e+12 -1.67298e+12 -959025000000.0 -2.77242e+12 -1.24196e+12 -508872000000.0 -1.27433e+12 -4.74595e+12 -1.96504e+12 -3.92745e+12 -2.27815e+12 -1.22832e+12 -1.58916e+12 -874165000000.0 -3.13979e+12 -3.64124e+12 -2.93212e+12 -2.27624e+12 -1.80674e+12 -3.89485e+12 -2.32468e+12 -2.5318e+12 -694750000000.0 -1.54146e+12 -1.33373e+12 -1.42984e+12 -2.98652e+12 -1.48567e+12 -3.18619e+12 -1.66986e+12 -2.35106e+12 -1.07627e+12 -1.92269e+12 -2.26375e+12 -1.91292e+12 -1.79758e+12 -2.29893e+12 -1.23571e+12 -349502000000.0 -1.1443e+12 -2.4336e+12 -1.27486e+12 -1.75004e+12 -914158000000.0 -1.24691e+12 -487471000000.0 -759315000000.0 -581560000000.0 -901643000000.0 -739730000000.0 -440120000000.0 -1.24999e+12 -292244000000.0 -485078000000.0 -734590000000.0 -528097000000.0 -577861000000.0 -130920000000.0 -416789000000.0 -364557000000.0 -452653000000.0 -286837000000.0 -370829000000.0 -203688000000.0 -158011000000.0 -350332000000.0 -190183000000.0 -87480500000.0 -128012000000.0 -131277000000.0 -109689000000.0 -110677000000.0 -107633000000.0 -129362000000.0 -141837000000.0 -199499000000.0 -152872000000.0 -57624000000.0 -152080000000.0 -242101000000.0 -72978700000.0 -130246000000.0 -90742100000.0 -79341200000.0 -357129000000.0 -224372000000.0 -211956000000.0 -374433000000.0 -312670000000.0 -282201000000.0 -330833000000.0 -437586000000.0 -527408000000.0 -847018000000.0 -536743000000.0 -33473000000.0 -1.03154e+12 -851617000000.0 -1.06107e+12 -1.01861e+12 -1.65237e+12 -1.88366e+12 -1.30168e+12 -1.83058e+12 -2.70977e+12 -2.67864e+12 -1.89873e+12 -334186000000.0 -1.15395e+12 -1.39241e+12 -2.12691e+12 -3.32738e+12 -921586000000.0 -1.50386e+12 -2.91183e+12 -1.7204e+12 -1.93667e+12 -1.6587e+12 -1.85876e+12 -1.4267e+12 -1.94e+12 -1.80969e+12 -2.68917e+12 -1.92297e+12 -1.89539e+12 -2.6962e+12 -2.30007e+12 -3.054e+12 -2.16303e+12 -1.11124e+12 -1.94148e+12 -1.97779e+12 -700526000000.0 -647830000000.0 -2.41499e+12 -1.66012e+12 -2.04021e+12 -1.76522e+12 -1.63397e+12 -1.90148e+12 -1.11448e+12 -1.29935e+12 -1.29311e+12 -147714000000.0 -1.06759e+12 -1.95046e+12 -2.01904e+12 -961914000000.0 -392011000000.0 -1.64223e+12 -795795000000.0 -1.16493e+12 -2.68663e+12 -312875000000.0 -791736000000.0 -1.3121e+12 -766356000000.0 -885706000000.0 -506842000000.0 -441468000000.0 -690700000000.0 -775126000000.0 -1.11576e+12 -353759000000.0 -560514000000.0 -256651000000.0 -156135000000.0 -373151000000.0 -41356000000.0 -272841000000.0 -53667700000.0 -106139000000.0 -154647000000.0 -99841000000.0 -110952000000.0 -151300000000.0 -101188000000.0 -116195000000.0 -12549700000.0 -144901000000.0 -98975000000.0 -64534000000.0 -132168000000.0 -18508600000.0 -186837000000.0 -95068800000.0 -180660000000.0 -22473800000.0 -71798500000.0 -240906000000.0 -256740000000.0 -246462000000.0 -217312000000.0 -363993000000.0 -12549700000.0 -342311000000.0 -502352000000.0 -417229000000.0 -289597000000.0 -460394000000.0 -525322000000.0 -448163000000.0 -794277000000.0 -573965000000.0 -286596000000.0 -1.32215e+12 -1.77359e+12 -1.21212e+12 -630702000000.0 -1.93701e+12 -814157000000.0 -1.70787e+12 -593217000000.0 -1.29296e+12 -906404000000.0 -958535000000.0 -1.59368e+12 -1.48856e+12 -1.93922e+12 -2.12531e+12 -2.39843e+12 -1.51147e+12 -595479000000.0 -1.72738e+12 -824731000000.0 -4.00683e+12 -1.57627e+12 -3.2061e+12 -1.80879e+12 -1.62596e+12 -3.81213e+12 -2.19829e+12 -2.0891e+12 -628805000000.0 -898045000000.0 -2.62426e+12 -1.38761e+12 -602023000000.0 -1.12828e+12 -1.61057e+12 -2.1848e+12 -1.15057e+12 -1.54304e+12 -896813000000.0 -1.32771e+12 -806098000000.0 -542897000000.0 -734355000000.0 -308679000000.0 -1.16771e+12 -701109000000.0 -1.03071e+12 -691927000000.0 -358464000000.0 -935472000000.0 -1.04473e+12 -285527000000.0 -1.07946e+12 -2.04966e+12 -448774000000.0 -424976000000.0 -289774000000.0 -626746000000.0 -438584000000.0 -593357000000.0 -142535000000.0 -427085000000.0 -366347000000.0 -308109000000.0 -34535300000.0 -682609000000.0 -255432000000.0 -497701000000.0 -325825000000.0 -28007100000.0 -606131000000.0 -618132000000.0 -390244000000.0 -103063000000.0 -151456000000.0 -200437000000.0 -51784100000.0 -188084000000.0 -42974700000.0 -32034700000.0 -26759300000.0 -123375000000.0 -60754400000.0 -76590500000.0 -67399600000.0 -93577500000.0 -99221600000.0 -61469100000.0 -72289900000.0 -43539200000.0 -70608400000.0 -137965000000.0 -212192000000.0 -164731000000.0 -184068000000.0 -205440000000.0 -130965000000.0 -117812000000.0 -28806100000.0 -32819900000.0 -141092000000.0 -383470000000.0 -19163900000.0 -178733000000.0 -178224000000.0 -608815000000.0 -146959000000.0 -72126000000.0 -740892000000.0 -568098000000.0 -546346000000.0 -1.10638e+12 -918524000000.0 -274525000000.0 -1.16112e+12 -1.2861e+12 -562880000000.0 -918705000000.0 -685814000000.0 -1.08649e+12 -1.72759e+12 -2.04491e+12 -1.3344e+12 -2.49145e+12 -794751000000.0 -1.57443e+12 -2.40269e+12 -1.30939e+12 -1.72424e+12 -2.54076e+12 -2.52106e+12 -793600000000.0 -4.01534e+12 -1.45925e+12 -346265000000.0 -1.44445e+12 -2.82896e+12 -1.54759e+12 -1.76347e+12 -599642000000.0 -1.13522e+12 -1.11458e+12 -531371000000.0 -843897000000.0 -962523000000.0 -1.76142e+12 -2.07341e+12 -226860000000.0 -1.26138e+12 -167315000000.0 -1.11873e+12 -925836000000.0 -1.03262e+12 -727561000000.0 -965147000000.0 -509803000000.0 -505072000000.0 -1.10239e+12 -69704100000.0 -818032000000.0 -1.31132e+12 -489898000000.0 -183139000000.0 -211552000000.0 -455130000000.0 -387037000000.0 -673688000000.0 -162519000000.0 -494683000000.0 -142049000000.0 -95087400000.0 -286159000000.0 -353304000000.0 -240296000000.0 -245676000000.0 -44186800000.0 -243682000000.0 -80408100000.0 -334276000000.0 -404601000000.0 -281753000000.0 -195088000000.0 -117381000000.0 -80651200000.0 -49283800000.0 -136921000000.0 -54579200000.0 -70296900000.0 -72269000000.0 -74820200000.0 -45952200000.0 -72692300000.0 -83845900000.0 -42075800000.0 -115040000000.0 -144312000000.0 -124106000000.0 -16549600000.0 -106668000000.0 -64297300000.0 -302671000000.0 -134558000000.0 -53343400000.0 -223307000000.0 -343688000000.0 -204417000000.0 -486984000000.0 -723561000000.0 -594095000000.0 -422763000000.0 -152904000000.0 -463686000000.0 -422574000000.0 -693906000000.0 -1.00954e+12 -788985000000.0 -398379000000.0 -568116000000.0 -854144000000.0 -396889000000.0 -497535000000.0 -808971000000.0 -1.34729e+12 -715744000000.0 -624082000000.0 -1.12894e+12 -1.04691e+12 -937667000000.0 -886671000000.0 -516743000000.0 -680397000000.0 -1.52486e+12 -1.57633e+12 -370023000000.0 -1.40312e+12 -1.21801e+12 -1.56376e+12 -316205000000.0 -571080000000.0 -2.80497e+12 -1.24634e+12 -1.72329e+12 -1.19056e+12 -557962000000.0 -822920000000.0 -1.33291e+12 -1.23585e+12 -465434000000.0 -499477000000.0 -1.48848e+12 -1.61846e+12 -818327000000.0 -421358000000.0 -905703000000.0 -1.7687e+12 -401788000000.0 -1.04922e+12 -851057000000.0 -552653000000.0 -1.02945e+12 -1.02046e+12 -467188000000.0 -613433000000.0 -454920000000.0 -212861000000.0 -1.16202e+12 -1.08211e+12 -146609000000.0 -769410000000.0 -407806000000.0 -1.18767e+12 -157633000000.0 -134870000000.0 -644924000000.0 -91061200000.0 -384078000000.0 -342461000000.0 -163033000000.0 -12549700000.0 -140192000000.0 -173207000000.0 -139156000000.0 -254105000000.0 -114113000000.0 -69323000000.0 -167669000000.0 -93160800000.0 -103618000000.0 -85000700000.0 -205507000000.0 -57156100000.0 -141166000000.0 -134176000000.0 -90460200000.0 -164301000000.0 -63627400000.0 -64041000000.0 -38829800000.0 -105670000000.0 -75791700000.0 -46852200000.0 -40000500000.0 -197257000000.0 -103356000000.0 -131210000000.0 -143411000000.0 -44238800000.0 -17276400000.0 -237652000000.0 -49299200000.0 -14080400000.0 -137242000000.0 -68525800000.0 -159446000000.0 -46633200000.0 -189468000000.0 -120914000000.0 -392542000000.0 -88249000000.0 -22454500000.0 -288251000000.0 -220610000000.0 -25646000000.0 -161599000000.0 -268184000000.0 -666360000000.0 -438578000000.0 -485024000000.0 -562863000000.0 -477916000000.0 -390015000000.0 -269664000000.0 -482330000000.0 -910382000000.0 -583787000000.0 -610045000000.0 -1.31534e+12 -1.52359e+12 -1.34969e+12 -1.27619e+12 -1.05414e+12 -1.90685e+12 -911356000000.0 -2.10018e+12 -1.16664e+12 -1.50357e+12 -1.92476e+12 -490597000000.0 -1.46148e+12 -2.14321e+12 -1.69591e+12 -1.01387e+12 -729181000000.0 -862471000000.0 -239259000000.0 -909503000000.0 -1.60729e+12 -442265000000.0 -762567000000.0 -810354000000.0 -1.0096e+12 -958349000000.0 -605905000000.0 -408389000000.0 -887299000000.0 -507744000000.0 -58673200000.0 -501842000000.0 -517436000000.0 -451001000000.0 -760482000000.0 -982058000000.0 -116021000000.0 -180078000000.0 -196340000000.0 -252936000000.0 -578904000000.0 -202685000000.0 -96837000000.0 -226200000000.0 -167277000000.0 -133960000000.0 -117622000000.0 -262511000000.0 -112795000000.0 -77689600000.0 -147032000000.0 -175667000000.0 -164171000000.0 -180116000000.0 -37152900000.0 -14574900000.0 -87714100000.0 -201813000000.0 -116434000000.0 -187404000000.0 -102404000000.0 -45031000000.0 -108059000000.0 -40322600000.0 -20896000000.0 -58651700000.0 -101389000000.0 -12549700000.0 -70779200000.0 -125698000000.0 -12549700000.0 -63789900000.0 -55421100000.0 -93250500000.0 -66885300000.0 -74793200000.0 -186300000000.0 -59468200000.0 -89054600000.0 -139332000000.0 -22806800000.0 -66806800000.0 -188150000000.0 -162793000000.0 -194369000000.0 -92476100000.0 -314773000000.0 -38037500000.0 -162176000000.0 -116675000000.0 -239014000000.0 -301407000000.0 -550390000000.0 -496643000000.0 -401423000000.0 -489194000000.0 -341901000000.0 -528670000000.0 -678143000000.0 -428114000000.0 -471481000000.0 -343963000000.0 -555605000000.0 -574897000000.0 -308477000000.0 -671653000000.0 -1.15384e+12 -556784000000.0 -972625000000.0 -458178000000.0 -1.04095e+12 -1.02428e+12 -601262000000.0 -1.04241e+12 -1.03974e+12 -1.21199e+12 -1.13704e+12 -965840000000.0 -772176000000.0 -960882000000.0 -1.193e+12 -803960000000.0 -1.02541e+12 -987439000000.0 -1.00878e+12 -628072000000.0 -791029000000.0 -885649000000.0 -810645000000.0 -667586000000.0 -329467000000.0 -791768000000.0 -630121000000.0 -920538000000.0 -26428900000.0 -169501000000.0 -44133600000.0 -884306000000.0 -669451000000.0 -271920000000.0 -810755000000.0 -649173000000.0 -73580000000.0 -109222000000.0 -730889000000.0 -777489000000.0 -669713000000.0 -461408000000.0 -396904000000.0 -186871000000.0 -171281000000.0 -14396800000.0 -60640400000.0 -246570000000.0 -215432000000.0 -12792500000.0 -243660000000.0 -207324000000.0 -116842000000.0 -76180000000.0 -79391400000.0 -171610000000.0 -117582000000.0 -23156600000.0 -12923800000.0 -61091900000.0 -193874000000.0 -13615600000.0 -33786200000.0 -149895000000.0 -107777000000.0 -149804000000.0 -109839000000.0 -87744300000.0 -63954800000.0 -106602000000.0 -54106100000.0 -54281600000.0 -56196600000.0 -63479300000.0 -124129000000.0 -75690500000.0 -12606000000.0 -76630200000.0 -106673000000.0 -42030800000.0 -16042800000.0 -82751400000.0 -43804400000.0 -177278000000.0 -14555600000.0 -118802000000.0 -153725000000.0 -229148000000.0 -277647000000.0 -15519200000.0 -144851000000.0 -139370000000.0 -693932000000.0 -418473000000.0 -55425100000.0 -364427000000.0 -288357000000.0 -24123800000.0 -83074800000.0 -277483000000.0 -409624000000.0 -674352000000.0 -659604000000.0 -528246000000.0 -415873000000.0 -229934000000.0 -564743000000.0 -419562000000.0 -624067000000.0 -483823000000.0 -927567000000.0 -383117000000.0 -1.10755e+12 -750799000000.0 -574004000000.0 -790410000000.0 -483483000000.0 -712628000000.0 -334898000000.0 -742769000000.0 -746804000000.0 -878961000000.0 -441455000000.0 -747539000000.0 -641300000000.0 -1.23413e+12 -443987000000.0 -472318000000.0 -442748000000.0 -245052000000.0 -680060000000.0 -497403000000.0 -751257000000.0 -434356000000.0 -309435000000.0 -413132000000.0 -383979000000.0 -403322000000.0 -268753000000.0 -115994000000.0 -435302000000.0 -354473000000.0 -565189000000.0 -484533000000.0 -32768500000.0 -290158000000.0 -305218000000.0 -186505000000.0 -280866000000.0 -45944100000.0 -97509100000.0 -69765700000.0 -231673000000.0 -99197100000.0 -63097000000.0 -141260000000.0 -22762700000.0 -12549700000.0 -96186800000.0 -65664100000.0 -111905000000.0 -62871500000.0 -37169300000.0 -137781000000.0 -105756000000.0 -73716000000.0 -115453000000.0 -38351300000.0 -70407300000.0 -49392400000.0 -37041300000.0 -41607700000.0 -85588000000.0 -48356400000.0 -68899900000.0 -60014900000.0 -79700600000.0 -41362700000.0 -91412100000.0 -32566300000.0 -53215500000.0 -106714000000.0 -79355700000.0 -177725000000.0 -161824000000.0 -133044000000.0 -204059000000.0 -58775400000.0 -78205300000.0 -97451800000.0 -42614200000.0 -128072000000.0 -131410000000.0 -232097000000.0 -258803000000.0 -421948000000.0 -219805000000.0 -505107000000.0 -90449200000.0 -331581000000.0 -14172600000.0 -383992000000.0 -280704000000.0 -404599000000.0 -820459000000.0 -279361000000.0 -415638000000.0 -172278000000.0 -384049000000.0 -803334000000.0 -462260000000.0 -482893000000.0 -443449000000.0 -423629000000.0 -155752000000.0 -773171000000.0 -872730000000.0 -479278000000.0 -627363000000.0 -232892000000.0 -1.01267e+12 -846694000000.0 -283976000000.0 -519525000000.0 -649589000000.0 -255600000000.0 -477988000000.0 -248383000000.0 -195783000000.0 -785978000000.0 -270949000000.0 -607936000000.0 -444260000000.0 -243465000000.0 -378250000000.0 -446813000000.0 -425655000000.0 -471154000000.0 -451925000000.0 -262859000000.0 -355746000000.0 -29326900000.0 -17043100000.0 -139416000000.0 -452521000000.0 -326613000000.0 -470995000000.0 -482689000000.0 -149461000000.0 -234507000000.0 -12676100000.0 -241533000000.0 -197445000000.0 -281206000000.0 -156073000000.0 -61949300000.0 -29683100000.0 -132784000000.0 -152784000000.0 -48634300000.0 -80248600000.0 -12573500000.0 -92882800000.0 -106668000000.0 -62725400000.0 -57940800000.0 -102340000000.0 -47736900000.0 -48033300000.0 -57356300000.0 -78591300000.0 -56206000000.0 -40001500000.0 -73799200000.0 -62091000000.0 -72503000000.0 -37026500000.0 -73884800000.0 -67338800000.0 -45548200000.0 -18366700000.0 -46406000000.0 -127728000000.0 -83630600000.0 -120715000000.0 -59851400000.0 -13497700000.0 -47548800000.0 -61953100000.0 -46511700000.0 -129347000000.0 -133823000000.0 -62069100000.0 -30672400000.0 -39069300000.0 -89295900000.0 -65169800000.0 -121797000000.0 -119444000000.0 -422715000000.0 -255184000000.0 -176155000000.0 -631119000000.0 -547257000000.0 -464840000000.0 -205648000000.0 -582253000000.0 -482892000000.0 -497890000000.0 -503126000000.0 -561527000000.0 -515462000000.0 -219950000000.0 -456649000000.0 -488896000000.0 -10412700000.0 -519760000000.0 -104536000000.0 -259591000000.0 -799485000000.0 -754676000000.0 -638004000000.0 -611964000000.0 -23899200000.0 -522950000000.0 -507186000000.0 -580258000000.0 -739004000000.0 -632243000000.0 -277969000000.0 -605457000000.0 -658214000000.0 -778476000000.0 -212808000000.0 -206039000000.0 -86170100000.0 -274404000000.0 -123934000000.0 -164462000000.0 -142182000000.0 -201993000000.0 -213105000000.0 -144480000000.0 -143621000000.0 -102223000000.0 -34068500000.0 -39242100000.0 -137971000000.0 -316390000000.0 -109109000000.0 -228342000000.0 -40737700000.0 -266130000000.0 -87534000000.0 -17002600000.0 -85006200000.0 -55510500000.0 -22544300000.0 -148339000000.0 -76734000000.0 -94777700000.0 -42042200000.0 -71456100000.0 -71706300000.0 -95883900000.0 -28419900000.0 -30146100000.0 -44817300000.0 -97962800000.0 -12549700000.0 -81248600000.0 -13183300000.0 -53006100000.0 -67392400000.0 -35261900000.0 -80049200000.0 -87588700000.0 -68201500000.0 -44524100000.0 -48414000000.0 -17713500000.0 -39317300000.0 -12745800000.0 -91453800000.0 -50165800000.0 -46956300000.0 -12549700000.0 -56635100000.0 -89531400000.0 -44001200000.0 -85890000000.0 -93989100000.0 -103986000000.0 -127606000000.0 -47256200000.0 -130774000000.0 -221669000000.0 -99751300000.0 -114449000000.0 -275449000000.0 -183657000000.0 -123489000000.0 -123153000000.0 -288179000000.0 -45075100000.0 -182542000000.0 -341190000000.0 -296938000000.0 -443730000000.0 -370930000000.0 -197147000000.0 -495911000000.0 -360239000000.0 -75822800000.0 -331268000000.0 -612437000000.0 -899871000000.0 -711196000000.0 -389204000000.0 -312578000000.0 -880757000000.0 -754107000000.0 -285472000000.0 -935682000000.0 -608323000000.0 -658947000000.0 -590450000000.0 -511260000000.0 -1.21431e+12 -741018000000.0 -211394000000.0 -280790000000.0 -346992000000.0 -382108000000.0 -188846000000.0 -41395100000.0 -148006000000.0 -131753000000.0 -96763700000.0 -186595000000.0 -12549700000.0 -182318000000.0 -106729000000.0 -339966000000.0 -166908000000.0 -95962800000.0 -125990000000.0 -87829200000.0 -242709000000.0 -184202000000.0 -151948000000.0 -197148000000.0 -78737300000.0 -194466000000.0 -106416000000.0 -100222000000.0 -94688900000.0 -44250000000.0 -41273000000.0 -42921300000.0 -131347000000.0 -154503000000.0 -130450000000.0 -63114900000.0 -77110300000.0 -54523300000.0 -75923900000.0 -26342900000.0 -21417300000.0 -33187900000.0 -39661400000.0 -55522300000.0 -91492400000.0 -54763300000.0 -88214500000.0 -71272900000.0 -46731800000.0 -68484500000.0 -62949500000.0 -59637100000.0 -81531100000.0 -89034400000.0 -85699400000.0 -81037400000.0 -81873400000.0 -80950200000.0 -73886500000.0 -48006000000.0 -72593500000.0 -35051800000.0 -57917600000.0 -59768500000.0 -99591400000.0 -89390500000.0 -15209100000.0 -65947400000.0 -47503700000.0 -169407000000.0 -137653000000.0 -136287000000.0 -52077600000.0 -54543600000.0 -218728000000.0 -199483000000.0 -181596000000.0 -227009000000.0 -258844000000.0 -165269000000.0 -12549700000.0 -145486000000.0 -146476000000.0 -156363000000.0 -380967000000.0 -119889000000.0 -294013000000.0 -238668000000.0 -48006100000.0 -162246000000.0 -376800000000.0 -266861000000.0 -56067300000.0 -620378000000.0 -627372000000.0 -751343000000.0 -128889000000.0 -355913000000.0 -651635000000.0 -298845000000.0 -123501000000.0 -208094000000.0 -221880000000.0 -842117000000.0 -587997000000.0 -426104000000.0 -117678000000.0 -232385000000.0 -196931000000.0 -213063000000.0 -406654000000.0 -116164000000.0 -228226000000.0 -229446000000.0 -156431000000.0 -100310000000.0 -104520000000.0 -303853000000.0 -104957000000.0 -56086300000.0 -143557000000.0 -94972500000.0 -70783000000.0 -20623300000.0 -149301000000.0 -74437800000.0 -136704000000.0 -85090800000.0 -55624500000.0 -28940800000.0 -31758700000.0 -43770800000.0 -32766800000.0 -47548800000.0 -127638000000.0 -44091800000.0 -52761300000.0 -36267200000.0 -67106900000.0 -88824700000.0 -51187600000.0 -42983000000.0 -25925000000.0 -49694500000.0 -30112100000.0 -66540500000.0 -52628600000.0 -31293100000.0 -26787100000.0 -18803400000.0 -29976800000.0 -39894300000.0 -50304800000.0 -28010100000.0 -52010100000.0 -54787700000.0 -36730600000.0 -28183000000.0 -27735700000.0 -42075800000.0 -53044200000.0 -75000100000.0 -59449000000.0 -45940100000.0 -74081100000.0 -81768300000.0 -117632000000.0 -90153900000.0 -94884800000.0 -154520000000.0 -16091600000.0 -103232000000.0 -152371000000.0 -261917000000.0 -174277000000.0 -164583000000.0 -178518000000.0 -258188000000.0 -289064000000.0 -133597000000.0 -144954000000.0 -212168000000.0 -324958000000.0 -494412000000.0 -223523000000.0 -12549700000.0 -124234000000.0 -230620000000.0 -195638000000.0 -297863000000.0 -92436200000.0 -107872000000.0 -332571000000.0 -313967000000.0 -313605000000.0 -217061000000.0 -343953000000.0 -260965000000.0 -367113000000.0 -458608000000.0 -292584000000.0 -303934000000.0 -923017000000.0 -381800000000.0 -137622000000.0 -124703000000.0 -330322000000.0 -193284000000.0 -183915000000.0 -298159000000.0 -220325000000.0 -229079000000.0 -59483300000.0 -73674500000.0 -87365500000.0 -34219100000.0 -37315400000.0 -20271000000.0 -59871000000.0 -179399000000.0 -84478100000.0 -22762800000.0 -77597300000.0 -175610000000.0 -80127500000.0 -173649000000.0 -80029900000.0 -106257000000.0 -104171000000.0 -70032400000.0 -28234700000.0 -15464600000.0 -18922300000.0 -40652800000.0 -82365500000.0 -66180100000.0 -59951800000.0 -56805400000.0 -33905200000.0 -12549700000.0 -12966500000.0 -18963500000.0 -15342800000.0 -38290600000.0 -20660300000.0 -13369300000.0 -39229700000.0 -68282800000.0 -39675900000.0 -39931100000.0 -23377200000.0 -58829100000.0 -55703900000.0 -62437700000.0 -19568400000.0 -32974200000.0 -38100000000.0 -14574300000.0 -33344700000.0 -12549700000.0 -26245100000.0 -36275400000.0 -52920100000.0 -78281400000.0 -45519300000.0 -25386300000.0 -92696800000.0 -49062100000.0 -15729300000.0 -71109300000.0 -137292000000.0 -62570300000.0 -25076500000.0 -75144600000.0 -51229800000.0 -95056300000.0 -159900000000.0 -38902600000.0 -151995000000.0 -58316400000.0 -71349500000.0 -204505000000.0 -44145600000.0 -80346500000.0 -404446000000.0 -88964400000.0 -106491000000.0 -141099000000.0 -18666900000.0 -167492000000.0 -208547000000.0 -32042400000.0 -198026000000.0 -82314000000.0 -57307200000.0 -270498000000.0 -404009000000.0 -249838000000.0 -351339000000.0 -150933000000.0 -124799000000.0 -186748000000.0 -53514300000.0 -209060000000.0 -214464000000.0 -193319000000.0 -499244000000.0 -206765000000.0 -268243000000.0 -186128000000.0 -259915000000.0 -14044100000.0 -14765500000.0 -25276500000.0 -169895000000.0 -12549700000.0 -90073100000.0 -85733900000.0 -12549700000.0 -47061200000.0 -44576000000.0 -63660200000.0 -112389000000.0 -80193200000.0 -86495000000.0 -72533100000.0 -25845100000.0 -108018000000.0 -31733100000.0 -45042600000.0 -115408000000.0 -72112300000.0 -35188400000.0 -43638000000.0 -69216200000.0 -37900700000.0 -41582500000.0 -54888300000.0 -71344800000.0 -47271200000.0 -64693000000.0 -41763200000.0 -45075800000.0 -24222200000.0 -41850800000.0 -22722200000.0 -23862700000.0 -39870700000.0 -55244400000.0 -42354100000.0 -42491800000.0 -58128300000.0 -52453100000.0 -25731700000.0 -60425700000.0 -33608900000.0 -50212500000.0 -30551800000.0 -29742000000.0 -40640200000.0 -43566000000.0 -33392100000.0 -14043900000.0 -90042000000.0 -45680500000.0 -48766200000.0 -23858900000.0 -77343500000.0 -26854000000.0 -91931500000.0 -65148700000.0 -30312800000.0 -31638500000.0 -95379000000.0 -111408000000.0 -123756000000.0 -62528100000.0 -81900500000.0 -54127700000.0 -75062700000.0 -44680700000.0 -16705700000.0 -133994000000.0 -92013300000.0 -78178800000.0 -298131000000.0 -110977000000.0 -172509000000.0 -148930000000.0 -153309000000.0 -135452000000.0 -119569000000.0 -140262000000.0 -248075000000.0 -263450000000.0 -84899400000.0 -465097000000.0 -156874000000.0 -274978000000.0 -256771000000.0 -256687000000.0 -107026000000.0 -116791000000.0 -226579000000.0 -186240000000.0 -447942000000.0 -146741000000.0 -135738000000.0 -134673000000.0 -127963000000.0 -12549700000.0 -268177000000.0 -33148500000.0 -23329300000.0 -89852900000.0 -106688000000.0 -46514700000.0 -25580100000.0 -32761200000.0 -22300100000.0 -49305500000.0 -70134300000.0 -14453500000.0 -20011600000.0 -26297300000.0 -56312100000.0 -16379200000.0 -55226800000.0 -55231100000.0 -67703600000.0 -149682000000.0 -115893000000.0 -112473000000.0 -61822100000.0 -28427100000.0 -44460700000.0 -37137200000.0 -31442300000.0 -57650700000.0 -35699900000.0 -67026200000.0 -50878800000.0 -45015500000.0 -41889100000.0 -22047700000.0 -52733000000.0 -61245800000.0 -42625500000.0 -34008100000.0 -45257200000.0 -46349100000.0 -12549700000.0 -23554200000.0 -13056100000.0 -56706500000.0 -12596800000.0 -14105300000.0 -16567500000.0 -48587900000.0 -36317800000.0 -29824400000.0 -56102200000.0 -38473700000.0 -48199500000.0 -48128900000.0 -46940000000.0 -48559700000.0 -97728100000.0 -18667400000.0 -22682300000.0 -25293800000.0 -22038500000.0 -81505700000.0 -65572600000.0 -68268800000.0 -56050800000.0 -48654200000.0 -67277600000.0 -64288900000.0 -43316500000.0 -31105500000.0 -71768700000.0 -33601600000.0 -77991700000.0 -41198500000.0 -33327700000.0 -109567000000.0 -80418000000.0 -55325000000.0 -58027000000.0 -144460000000.0 -46436400000.0 -60988200000.0 -48675600000.0 -130074000000.0 -84055700000.0 -100229000000.0 -230041000000.0 -229232000000.0 -148707000000.0 -192612000000.0 -149827000000.0 -156817000000.0 -138593000000.0 -245787000000.0 -89392400000.0 -226234000000.0 -148351000000.0 -54512600000.0 -83040800000.0 -442699000000.0 -152258000000.0 -139739000000.0 -78803400000.0 -48564300000.0 -46787700000.0 -175377000000.0 -169301000000.0 -98817100000.0 -90516600000.0 -36903700000.0 -99324400000.0 -13699500000.0 -93443800000.0 -68820000000.0 -40817500000.0 -19308600000.0 -59451800000.0 -21640600000.0 -32596800000.0 -44658400000.0 -66046300000.0 -61404400000.0 -38787200000.0 -49869000000.0 -71265900000.0 -73753100000.0 -24931800000.0 -65683100000.0 -15736400000.0 -75780100000.0 -37992500000.0 -13209400000.0 -57792300000.0 -37500100000.0 -14406500000.0 -12655200000.0 -37188300000.0 -37965800000.0 -14817200000.0 -12549700000.0 -12564700000.0 -35606700000.0 -31685900000.0 -41729800000.0 -30598000000.0 -19322100000.0 -29492300000.0 -35454000000.0 -27501300000.0 -20476300000.0 -29973300000.0 -14718200000.0 -17872300000.0 -29275600000.0 -26314200000.0 -37130400000.0 -71903000000.0 -43439400000.0 -13132900000.0 -13560700000.0 -13957100000.0 -25912400000.0 -74903200000.0 -42755100000.0 -24587300000.0 -39143700000.0 -68788800000.0 -29223800000.0 -17582700000.0 -91077600000.0 -57809300000.0 -59761600000.0 -64285800000.0 -36802700000.0 -21954400000.0 -77037400000.0 -26632300000.0 -92156600000.0 -12549700000.0 -12549700000.0 -59606100000.0 -25738800000.0 -58018000000.0 -77793600000.0 -12549700000.0 -31016100000.0 -78713400000.0 -109192000000.0 -14460600000.0 -56557800000.0 -85904200000.0 -52288900000.0 -211892000000.0 -156048000000.0 -51829200000.0 -110080000000.0 -18056200000.0 -115467000000.0 -65590100000.0 -332881000000.0 -287221000000.0 -241675000000.0 -258978000000.0 -62415300000.0 -144745000000.0 -54279300000.0 -44368200000.0 -14522800000.0 -64374300000.0 -143646000000.0 -68185600000.0 -54073200000.0 -95870500000.0 -35068200000.0 -32407300000.0 -28531700000.0 -56169000000.0 -37087100000.0 -34546200000.0 -67148600000.0 -47954700000.0 -38986700000.0 -17984900000.0 -36301800000.0 -41831400000.0 -39224200000.0 -15107300000.0 -65306700000.0 -19411800000.0 -76676500000.0 -99570300000.0 -44657200000.0 -28379900000.0 -42589800000.0 -47950300000.0 -36019500000.0 -46333400000.0 -40460400000.0 -27920400000.0 -28065200000.0 -12925800000.0 -12629800000.0 -33705800000.0 -25010900000.0 -40576400000.0 -29858400000.0 -24255100000.0 -16891100000.0 -25095900000.0 -25977200000.0 -30203500000.0 -23545800000.0 -33613200000.0 -21412700000.0 -18788300000.0 -36961300000.0 -47141500000.0 -57860600000.0 -46926400000.0 -60855400000.0 -82357900000.0 -23506000000.0 -54043000000.0 -47935900000.0 -25009300000.0 -13067200000.0 -76602400000.0 -25032500000.0 -60403800000.0 -46146600000.0 -49649700000.0 -53147300000.0 -50395300000.0 -41116100000.0 -84766300000.0 -30689400000.0 -21060800000.0 -52626300000.0 -89420400000.0 -44109200000.0 -39216700000.0 -21196300000.0 -60056000000.0 -73764400000.0 -21071600000.0 -50094900000.0 -61336300000.0 -143150000000.0 -36154700000.0 -80204500000.0 -137277000000.0 -147128000000.0 -81972400000.0 -123416000000.0 -80383200000.0 -94891400000.0 -124342000000.0 -91768700000.0 -172847000000.0 -211833000000.0 -56742900000.0 -18202600000.0 -92607400000.0 -107260000000.0 -48024700000.0 -62489900000.0 -81908800000.0 -12654000000.0 -47130500000.0 -46041200000.0 -41739200000.0 -30308900000.0 -53953800000.0 -49651200000.0 -72044400000.0 -43884900000.0 -55462400000.0 -61504500000.0 -62475400000.0 -47527600000.0 -61604400000.0 -16340400000.0 -83104200000.0 -25035000000.0 -47565800000.0 -35290200000.0 -36416500000.0 -40205900000.0 -39187200000.0 -50126900000.0 -17765800000.0 -13215000000.0 -26812500000.0 -21854100000.0 -31209100000.0 -12686700000.0 -15062700000.0 -33035500000.0 -22372900000.0 -20551900000.0 -20610300000.0 -21135900000.0 -31176200000.0 -19198100000.0 -30344800000.0 -29697900000.0 -46060200000.0 -34028400000.0 -43714300000.0 -20284000000.0 -39108900000.0 -24139000000.0 -24800000000.0 -34969500000.0 -13845300000.0 -58524900000.0 -34930600000.0 -37179400000.0 -47151200000.0 -21459900000.0 -48646500000.0 -46631600000.0 -55550700000.0 -48037300000.0 -66398700000.0 -58397900000.0 -40135700000.0 -34486900000.0 -22672500000.0 -50816400000.0 -79574000000.0 -70474100000.0 -49109400000.0 -50437300000.0 -15374900000.0 -40447600000.0 -57638900000.0 -72151500000.0 -18093800000.0 -102122000000.0 -80754100000.0 -87540500000.0 -58491100000.0 -12549700000.0 -55132800000.0 -103427000000.0 -51918600000.0 -102248000000.0 -46355200000.0 -53478000000.0 -74678300000.0 -69034900000.0 -52520700000.0 -75164900000.0 -70751600000.0 -58859600000.0 -63007100000.0 -134823000000.0 -131860000000.0 -79295800000.0 -127524000000.0 -90535100000.0 -65293900000.0 -40564500000.0 -30337700000.0 -46934400000.0 -51116100000.0 -24039600000.0 -33908300000.0 -21791500000.0 -25195400000.0 -23533100000.0 -22681000000.0 -34245500000.0 -29601600000.0 -14092200000.0 -32321300000.0 -41783000000.0 -37937000000.0 -18464000000.0 -21729100000.0 -14996100000.0 -86491100000.0 -88323900000.0 -46728700000.0 -38934500000.0 -23486300000.0 -14926600000.0 -20556900000.0 -27226700000.0 -23253800000.0 -40908800000.0 -33777400000.0 -17323400000.0 -26911700000.0 -31102900000.0 -24002900000.0 -12689300000.0 -12730900000.0 -13213300000.0 -29458600000.0 -15796900000.0 -13893300000.0 -13556700000.0 -13072900000.0 -30955800000.0 -19309100000.0 -21187600000.0 -25995900000.0 -23093700000.0 -22409900000.0 -33826000000.0 -22744300000.0 -28499800000.0 -21739900000.0 -12683500000.0 -25772500000.0 -17585100000.0 -56543200000.0 -31357600000.0 -35548100000.0 -40912200000.0 -47768700000.0 -54197200000.0 -36445200000.0 -29989500000.0 -12549700000.0 -57881600000.0 -64108000000.0 -51505600000.0 -59260500000.0 -45518700000.0 -50164300000.0 -21564300000.0 -55656900000.0 -26668900000.0 -42775800000.0 -35287300000.0 -80157400000.0 -20167100000.0 -36907800000.0 -12549700000.0 -13720700000.0 -46931900000.0 -47198600000.0 -13814000000.0 -22321000000.0 -96396100000.0 -79033600000.0 -53796900000.0 -117209000000.0 -32826100000.0 -50982300000.0 -82970000000.0 -12549700000.0 -105262000000.0 -41038000000.0 -43187500000.0 -52004500000.0 -38077400000.0 -12566100000.0 -13879600000.0 -28784600000.0 -39222400000.0 -16105600000.0 -35238600000.0 -28362800000.0 -18094200000.0 -23926700000.0 -25964900000.0 -19018600000.0 -14333700000.0 -12549700000.0 -37408000000.0 -29023200000.0 -30394800000.0 -38622900000.0 -42741300000.0 -30986400000.0 -15261200000.0 -26722800000.0 -24485700000.0 -47807200000.0 -29775200000.0 -33395400000.0 -27419300000.0 -30299000000.0 -22753100000.0 -28146000000.0 -12910600000.0 -12628200000.0 -29223700000.0 -14508100000.0 -26233600000.0 -26406300000.0 -25599600000.0 -13619600000.0 -21928100000.0 -26509500000.0 -23025000000.0 -19690500000.0 -18815400000.0 -20181100000.0 -24863000000.0 -21051700000.0 -13858900000.0 -21739300000.0 -27216500000.0 -15301800000.0 -14127200000.0 -32857800000.0 -23780100000.0 -36149200000.0 -31526400000.0 -26679400000.0 -38661800000.0 -13409600000.0 -37036900000.0 -23944200000.0 -30108500000.0 -19249900000.0 -14007800000.0 -22007500000.0 -30684400000.0 -31741800000.0 -49618100000.0 -54109900000.0 -59392100000.0 -21024300000.0 -42561700000.0 -35938200000.0 -17067800000.0 -29207300000.0 -22629500000.0 -18008300000.0 -60117000000.0 -48452600000.0 -71829700000.0 -24038300000.0 -21214300000.0 -34215000000.0 -26428900000.0 -33935200000.0 -40498700000.0 -45781200000.0 -25918600000.0 -39328500000.0 -12592000000.0 -80679300000.0 -15272100000.0 -48162500000.0 -54484200000.0 -65971700000.0 -58830700000.0 -69026500000.0 -33727900000.0 -72705500000.0 -77523300000.0 -118026000000.0 -28319900000.0 -45355200000.0 -37714400000.0 -18086400000.0 -16285400000.0 -19452200000.0 -24057500000.0 -18845400000.0 -32080500000.0 -28260400000.0 -25047600000.0 -24760800000.0 -31052400000.0 -24673100000.0 -25130800000.0 -19902700000.0 -21981700000.0 -20269700000.0 -28194300000.0 -12955700000.0 -26263600000.0 -31209400000.0 -22098300000.0 -16296700000.0 -34887500000.0 -17086700000.0 -36146700000.0 -32319600000.0 -15247400000.0 -12618300000.0 -16134000000.0 -23287800000.0 -29085900000.0 -24196500000.0 -26791100000.0 -29532900000.0 -29238900000.0 -25028200000.0 -29226500000.0 -30971300000.0 -23859700000.0 -13739100000.0 -14052000000.0 -29911800000.0 -19123200000.0 -13760400000.0 -19895200000.0 -21027300000.0 -24130100000.0 -29083500000.0 -23555600000.0 -25852400000.0 -30043600000.0 -28515800000.0 -32631600000.0 -27729000000.0 -12549700000.0 -38630300000.0 -14095200000.0 -14383900000.0 -12777700000.0 -14200700000.0 -24483800000.0 -12923500000.0 -29290400000.0 -26312200000.0 -28193600000.0 -37411300000.0 -15830300000.0 -13644600000.0 -31691300000.0 -27019300000.0 -13507600000.0 -50582500000.0 -35027700000.0 -46655700000.0 -35627000000.0 -52451400000.0 -30408500000.0 -28904600000.0 -33531600000.0 -34943700000.0 -19777800000.0 -31002800000.0 -32393100000.0 -33547900000.0 -18019200000.0 -12600200000.0 -17561700000.0 -48571800000.0 -31673400000.0 -44572200000.0 -34966300000.0 -50642100000.0 -34877500000.0 -90327800000.0 -15772900000.0 -23486500000.0 -12928700000.0 -41143200000.0 -89581400000.0 -45689000000.0 -32334100000.0 -67068500000.0 -15051000000.0 -34553000000.0 -32219100000.0 -17178000000.0 -18231200000.0 -15847600000.0 -20200200000.0 -19407000000.0 -17226200000.0 -28976600000.0 -16043900000.0 -19267800000.0 -19880500000.0 -17538200000.0 -25381300000.0 -21050800000.0 -29229800000.0 -33909600000.0 -26489900000.0 -32729900000.0 -13427400000.0 -21797500000.0 -36919500000.0 -30430300000.0 -32001900000.0 -33586500000.0 -37996900000.0 -16773900000.0 -17015800000.0 -12563400000.0 -16855900000.0 -19735700000.0 -15359600000.0 -22171500000.0 -17360000000.0 -17583000000.0 -20046400000.0 -15843800000.0 -19347700000.0 -18299500000.0 -12561300000.0 -12602600000.0 -22515400000.0 -22412700000.0 -28568200000.0 -13888700000.0 -14092200000.0 -13662900000.0 -14780600000.0 -15533000000.0 -22924400000.0 -17978600000.0 -23540000000.0 -21083900000.0 -14162600000.0 -12549700000.0 -22491500000.0 -17166400000.0 -33073300000.0 -18315700000.0 -26435500000.0 -28125400000.0 -31431900000.0 -41776900000.0 -19140000000.0 -43897400000.0 -27480400000.0 -31247600000.0 -38276300000.0 -17798300000.0 -21009700000.0 -22663300000.0 -14345400000.0 -57154800000.0 -32644200000.0 -27507300000.0 -28508900000.0 -16330400000.0 -18197500000.0 -16062600000.0 -17911700000.0 -16970100000.0 -16402500000.0 -26113600000.0 -41865300000.0 -34553900000.0 -31844700000.0 -38129200000.0 -25478000000.0 -31739000000.0 -47819200000.0 -50586700000.0 -20173600000.0 -71515900000.0 -44217700000.0 -25978000000.0 -13036800000.0 -24938300000.0 -28066000000.0 -48180800000.0 -28062400000.0 -43457400000.0 -17232400000.0 -31325800000.0 -27735100000.0 -15021800000.0 -19168200000.0 -14577700000.0 -16305200000.0 -24462600000.0 -26203400000.0 -17801800000.0 -19689100000.0 -16860800000.0 -21027700000.0 -20177300000.0 -16855100000.0 -23591100000.0 -27489000000.0 -20624800000.0 -15167600000.0 -14704200000.0 -31981400000.0 -23117300000.0 -14076500000.0 -17525100000.0 -17172900000.0 -39421800000.0 -29113000000.0 -14025200000.0 -18182000000.0 -15826700000.0 -13418700000.0 -16461000000.0 -14654400000.0 -15114900000.0 -15976800000.0 -14526600000.0 -21915100000.0 -17648100000.0 -18831600000.0 -14997800000.0 -15003200000.0 -15470000000.0 -14721600000.0 -19143100000.0 -13476400000.0 -14565800000.0 -15996900000.0 -19429400000.0 -12569400000.0 -12549700000.0 -12774300000.0 -17011500000.0 -14600600000.0 -17327900000.0 -16836300000.0 -23998900000.0 -21001600000.0 -15774200000.0 -31433400000.0 -31277100000.0 -23167500000.0 -25668900000.0 -18329000000.0 -32586400000.0 -28530400000.0 -20823100000.0 -20868000000.0 -16678000000.0 -27183300000.0 -16424100000.0 -12974800000.0 -18788600000.0 -52363600000.0 -25205700000.0 -23521000000.0 -12793400000.0 -19150100000.0 -15008100000.0 -12577200000.0 -21103100000.0 -22936000000.0 -12549700000.0 -29328300000.0 -32549400000.0 -18421300000.0 -13219400000.0 -19779700000.0 -13519200000.0 -24913000000.0 -33101000000.0 -37228200000.0 -34920600000.0 -33901100000.0 -56730300000.0 -20201400000.0 -13913800000.0 -23763900000.0 -14603800000.0 -12655300000.0 -41518800000.0 -15715000000.0 -12549700000.0 -20101600000.0 -12549700000.0 -13717100000.0 -13443400000.0 -28381600000.0 -21175100000.0 -15128500000.0 -23032100000.0 -13185700000.0 -23199300000.0 -13769100000.0 -18430400000.0 -18923000000.0 -19909500000.0 -16813000000.0 -16290500000.0 -19385600000.0 -16776800000.0 -22838200000.0 -22979800000.0 -22310300000.0 -17517600000.0 -14878000000.0 -18385000000.0 -13680600000.0 -12549700000.0 -24579400000.0 -19915500000.0 -12670900000.0 -22360600000.0 -14720600000.0 -21131300000.0 -21458500000.0 -19786700000.0 -15767200000.0 -13500600000.0 -16073700000.0 -16582800000.0 -17932300000.0 -14029700000.0 -15561700000.0 -15510000000.0 -15870800000.0 -13227400000.0 -12654400000.0 -12549700000.0 -12549700000.0 -13227900000.0 -15406700000.0 -12609200000.0 -12549700000.0 -15132600000.0 -12549700000.0 -12931000000.0 -14357000000.0 -13848400000.0 -13618800000.0 -20027700000.0 -18564100000.0 -21275000000.0 -20119700000.0 -14156200000.0 -15594400000.0 -18778900000.0 -19254600000.0 -18952100000.0 -14193300000.0 -13635400000.0 -29259200000.0 -27577600000.0 -29089500000.0 -26942700000.0 -27628700000.0 -20445900000.0 -15602100000.0 -13323300000.0 -16138900000.0 -18737000000.0 -18937500000.0 -14140000000.0 -23077300000.0 -20141200000.0 -15550500000.0 -15803700000.0 -16219900000.0 -19350900000.0 -19671400000.0 -18709900000.0 -16557800000.0 -31361500000.0 -21033000000.0 -40523100000.0 -13028400000.0 -16307600000.0 -14803200000.0 -12853600000.0 -12634700000.0 -30646500000.0 -15033900000.0 -13249500000.0 -14339800000.0 -15070400000.0 -29001700000.0 -19396300000.0 -21859000000.0 -23566000000.0 -14104800000.0 -16504300000.0 -21533600000.0 -15221200000.0 -17069500000.0 -15264200000.0 -14557100000.0 -14284700000.0 -12549700000.0 -15964400000.0 -17705100000.0 -16698300000.0 -14093700000.0 -12594400000.0 -14240300000.0 -16239300000.0 -15805600000.0 -15333100000.0 -12802600000.0 -20222000000.0 -15731000000.0 -14347900000.0 -12707200000.0 -13728100000.0 -17239200000.0 -12549700000.0 -15776500000.0 -13469600000.0 -12820300000.0 -15307000000.0 -13377700000.0 -12549700000.0 -13448200000.0 -12791100000.0 -12549700000.0 -12593300000.0 -14252400000.0 -12549700000.0 -12549700000.0 -12554000000.0 -12962600000.0 -14629300000.0 -13891100000.0 -13020500000.0 -12713100000.0 -14685900000.0 -12977500000.0 -14009800000.0 -13263900000.0 -12913700000.0 -13096900000.0 -15653400000.0 -16614200000.0 -13544200000.0 -15056900000.0 -16954200000.0 -16833400000.0 -15518400000.0 -14303700000.0 -13898100000.0 -16946100000.0 -22277300000.0 -20949900000.0 -21108400000.0 -24686400000.0 -16390600000.0 -28997200000.0 -16848700000.0 -15683600000.0 -23004500000.0 -26538900000.0 -19941000000.0 -14664100000.0 -16792700000.0 -14498300000.0 -15140700000.0 -16372000000.0 -16300200000.0 -12721400000.0 -20364600000.0 -16526200000.0 -12890000000.0 -17105000000.0 -21266800000.0 -27722500000.0 -22196500000.0 -35281400000.0 -32818000000.0 -16654300000.0 -21237600000.0 -22313700000.0 -28212600000.0 -22461200000.0 -12665300000.0 -12610600000.0 -13370400000.0 -18030000000.0 -19743800000.0 -14665600000.0 -13178300000.0 -16582100000.0 -14336000000.0 -14156600000.0 -16892100000.0 -14855900000.0 -14928200000.0 -14394400000.0 -14941100000.0 -15778500000.0 -14541700000.0 -12826700000.0 -13764000000.0 -13804000000.0 -13871900000.0 -14457500000.0 -12806600000.0 -14849600000.0 -14978300000.0 -14702300000.0 -14796600000.0 -13945200000.0 -12883000000.0 -12793400000.0 -15198400000.0 -12690300000.0 -14765300000.0 -12599600000.0 -13301100000.0 -12873900000.0 -12549700000.0 -13875300000.0 -12616100000.0 -14418800000.0 -13091500000.0 -13627800000.0 -12623200000.0 -12737400000.0 -12747700000.0 -12640100000.0 -12549700000.0 -13165300000.0 -14227900000.0 -12773000000.0 -12739200000.0 -13907200000.0 -13192300000.0 -14073300000.0 -13137900000.0 -13216600000.0 -13129400000.0 -14822200000.0 -13361200000.0 -13615200000.0 -13467700000.0 -14426200000.0 -16507100000.0 -16138700000.0 -16412400000.0 -14075600000.0 -19634400000.0 -18125600000.0 -14725900000.0 -15415200000.0 -16563800000.0 -17601100000.0 -15334000000.0 -18741100000.0 -12549700000.0 -16994400000.0 -14583800000.0 -13820500000.0 -13249200000.0 -12705000000.0 -13741600000.0 -14858700000.0 -14633800000.0 -13084000000.0 -16149000000.0 -15786600000.0 -13458000000.0 -12672200000.0 -14643900000.0 -16410200000.0 -18827400000.0 -12549700000.0 -21941900000.0 -18203500000.0 -22051700000.0 -13239800000.0 -17328800000.0 -13004200000.0 -12684800000.0 -14507300000.0 -14558100000.0 -13161000000.0 -12549700000.0 -13660700000.0 -13148600000.0 -12946500000.0 -14321700000.0 -13354500000.0 -13501600000.0 -13787000000.0 -13514100000.0 -13153700000.0 -13364600000.0 -12642100000.0 -12934700000.0 -12779800000.0 -12692700000.0 -13028800000.0 -12566000000.0 -12649600000.0 -12732000000.0 -12702200000.0 -14033200000.0 -13057300000.0 -13196400000.0 -13126300000.0 -12784700000.0 -12736800000.0 -12878900000.0 -12860600000.0 -13257800000.0 -12803000000.0 -12727900000.0 -12811300000.0 -13402500000.0 -12958600000.0 -12908800000.0 -12654800000.0 -12653400000.0 -13051000000.0 -12787200000.0 -13232000000.0 -13685600000.0 -12643800000.0 -12705000000.0 -13838100000.0 -13969700000.0 -14324200000.0 -13335500000.0 -13113200000.0 -14148200000.0 -14468700000.0 -13231000000.0 -13894500000.0 -13175500000.0 -13063000000.0 -13458800000.0 -12649300000.0 -12680000000.0 -12769000000.0 -12549700000.0 -12948900000.0 -12665300000.0 -12872900000.0 -13313300000.0 -13330900000.0 -13126500000.0 -13247500000.0 -13702400000.0 -13156300000.0 -14381900000.0 -13505000000.0 -15714800000.0 -13966000000.0 -14268700000.0 -14418000000.0 -12898000000.0 -12597200000.0 -12549700000.0 