# vtk DataFile Version 2.0
Time step 4
ASCII
DATASET UNSTRUCTURED_GRID
POINTS 4650 float
102000.0 493677.0 0
106000.0 493677.0 0
110000.0 493677.0 0
114000.0 493677.0 0
118000.0 493677.0 0
122000.0 493677.0 0
126000.0 493677.0 0
130000.0 493677.0 0
134000.0 493677.0 0
138000.0 493677.0 0
142000.0 493677.0 0
146000.0 493677.0 0
150000.0 493677.0 0
154000.0 493677.0 0
158000.0 493677.0 0
162000.0 493677.0 0
166000.0 493677.0 0
170000.0 493677.0 0
174000.0 493677.0 0
178000.0 493677.0 0
182000.0 493677.0 0
186000.0 493677.0 0
190000.0 493677.0 0
194000.0 493677.0 0
198000.0 493677.0 0
202000.0 493677.0 0
206000.0 493677.0 0
210000.0 493677.0 0
214000.0 493677.0 0
218000.0 493677.0 0
222000.0 493677.0 0
226000.0 493677.0 0
230000.0 493677.0 0
234000.0 493677.0 0
238000.0 493677.0 0
242000.0 493677.0 0
246000.0 493677.0 0
250000.0 493677.0 0
254000.0 493677.0 0
258000.0 493677.0 0
262000.0 493677.0 0
266000.0 493677.0 0
270000.0 493677.0 0
274000.0 493677.0 0
278000.0 493677.0 0
282000.0 493677.0 0
286000.0 493677.0 0
290000.0 493677.0 0
294000.0 493677.0 0
298000.0 493677.0 0
302000.0 493677.0 0
306000.0 493677.0 0
310000.0 493677.0 0
314000.0 493677.0 0
318000.0 493677.0 0
322000.0 493677.0 0
326000.0 493677.0 0
330000.0 493677.0 0
334000.0 493677.0 0
338000.0 493677.0 0
342000.0 493677.0 0
346000.0 493677.0 0
350000.0 493677.0 0
354000.0 493677.0 0
358000.0 493677.0 0
362000.0 493677.0 0
366000.0 493677.0 0
370000.0 493677.0 0
374000.0 493677.0 0
378000.0 493677.0 0
382000.0 493677.0 0
386000.0 493677.0 0
390000.0 493677.0 0
394000.0 493677.0 0
398000.0 493677.0 0
102000.0 497677.0 0
106000.0 497677.0 0
110000.0 497677.0 0
114000.0 497677.0 0
118000.0 497677.0 0
122000.0 497677.0 0
126000.0 497677.0 0
130000.0 497677.0 0
134000.0 497677.0 0
138000.0 497677.0 0
142000.0 497677.0 0
146000.0 497677.0 0
150000.0 497677.0 0
154000.0 497677.0 0
158000.0 497677.0 0
162000.0 497677.0 0
166000.0 497677.0 0
170000.0 497677.0 0
174000.0 497677.0 0
178000.0 497677.0 0
182000.0 497677.0 0
186000.0 497677.0 0
190000.0 497677.0 0
194000.0 497677.0 0
198000.0 497677.0 0
202000.0 497677.0 0
206000.0 497677.0 0
210000.0 497677.0 0
214000.0 497677.0 0
218000.0 497677.0 0
222000.0 497677.0 0
226000.0 497677.0 0
230000.0 497677.0 0
234000.0 497677.0 0
238000.0 497677.0 0
242000.0 497677.0 0
246000.0 497677.0 0
250000.0 497677.0 0
254000.0 497677.0 0
258000.0 497677.0 0
262000.0 497677.0 0
266000.0 497677.0 0
270000.0 497677.0 0
274000.0 497677.0 0
278000.0 497677.0 0
282000.0 497677.0 0
286000.0 497677.0 0
290000.0 497677.0 0
294000.0 497677.0 0
298000.0 497677.0 0
302000.0 497677.0 0
306000.0 497677.0 0
310000.0 497677.0 0
314000.0 497677.0 0
318000.0 497677.0 0
322000.0 497677.0 0
326000.0 497677.0 0
330000.0 497677.0 0
334000.0 497677.0 0
338000.0 497677.0 0
342000.0 497677.0 0
346000.0 497677.0 0
350000.0 497677.0 0
354000.0 497677.0 0
358000.0 497677.0 0
362000.0 497677.0 0
366000.0 497677.0 0
370000.0 497677.0 0
374000.0 497677.0 0
378000.0 497677.0 0
382000.0 497677.0 0
386000.0 497677.0 0
390000.0 497677.0 0
394000.0 497677.0 0
398000.0 497677.0 0
102000.0 501677.0 0
106000.0 501677.0 0
110000.0 501677.0 0
114000.0 501677.0 0
118000.0 501677.0 0
122000.0 501677.0 0
126000.0 501677.0 0
130000.0 501677.0 0
134000.0 501677.0 0
138000.0 501677.0 0
142000.0 501677.0 0
146000.0 501677.0 0
150000.0 501677.0 0
154000.0 501677.0 0
158000.0 501677.0 0
162000.0 501677.0 0
166000.0 501677.0 0
170000.0 501677.0 0
174000.0 501677.0 0
178000.0 501677.0 0
182000.0 501677.0 0
186000.0 501677.0 0
190000.0 501677.0 0
194000.0 501677.0 0
198000.0 501677.0 0
202000.0 501677.0 0
206000.0 501677.0 0
210000.0 501677.0 0
214000.0 501677.0 0
218000.0 501677.0 0
222000.0 501677.0 0
226000.0 501677.0 0
230000.0 501677.0 0
234000.0 501677.0 0
238000.0 501677.0 0
242000.0 501677.0 0
246000.0 501677.0 0
250000.0 501677.0 0
254000.0 501677.0 0
258000.0 501677.0 0
262000.0 501677.0 0
266000.0 501677.0 0
270000.0 501677.0 0
274000.0 501677.0 0
278000.0 501677.0 0
282000.0 501677.0 0
286000.0 501677.0 0
290000.0 501677.0 0
294000.0 501677.0 0
298000.0 501677.0 0
302000.0 501677.0 0
306000.0 501677.0 0
310000.0 501677.0 0
314000.0 501677.0 0
318000.0 501677.0 0
322000.0 501677.0 0
326000.0 501677.0 0
330000.0 501677.0 0
334000.0 501677.0 0
338000.0 501677.0 0
342000.0 501677.0 0
346000.0 501677.0 0
350000.0 501677.0 0
354000.0 501677.0 0
358000.0 501677.0 0
362000.0 501677.0 0
366000.0 501677.0 0
370000.0 501677.0 0
374000.0 501677.0 0
378000.0 501677.0 0
382000.0 501677.0 0
386000.0 501677.0 0
390000.0 501677.0 0
394000.0 501677.0 0
398000.0 501677.0 0
102000.0 505677.0 0
106000.0 505677.0 0
110000.0 505677.0 0
114000.0 505677.0 0
118000.0 505677.0 0
122000.0 505677.0 0
126000.0 505677.0 0
130000.0 505677.0 0
134000.0 505677.0 0
138000.0 505677.0 0
142000.0 505677.0 0
146000.0 505677.0 0
150000.0 505677.0 0
154000.0 505677.0 0
158000.0 505677.0 0
162000.0 505677.0 0
166000.0 505677.0 0
170000.0 505677.0 0
174000.0 505677.0 0
178000.0 505677.0 0
182000.0 505677.0 0
186000.0 505677.0 0
190000.0 505677.0 0
194000.0 505677.0 0
198000.0 505677.0 0
202000.0 505677.0 0
206000.0 505677.0 0
210000.0 505677.0 0
214000.0 505677.0 0
218000.0 505677.0 0
222000.0 505677.0 0
226000.0 505677.0 0
230000.0 505677.0 0
234000.0 505677.0 0
238000.0 505677.0 0
242000.0 505677.0 0
246000.0 505677.0 0
250000.0 505677.0 0
254000.0 505677.0 0
258000.0 505677.0 0
262000.0 505677.0 0
266000.0 505677.0 0
270000.0 505677.0 0
274000.0 505677.0 0
278000.0 505677.0 0
282000.0 505677.0 0
286000.0 505677.0 0
290000.0 505677.0 0
294000.0 505677.0 0
298000.0 505677.0 0
302000.0 505677.0 0
306000.0 505677.0 0
310000.0 505677.0 0
314000.0 505677.0 0
318000.0 505677.0 0
322000.0 505677.0 0
326000.0 505677.0 0
330000.0 505677.0 0
334000.0 505677.0 0
338000.0 505677.0 0
342000.0 505677.0 0
346000.0 505677.0 0
350000.0 505677.0 0
354000.0 505677.0 0
358000.0 505677.0 0
362000.0 505677.0 0
366000.0 505677.0 0
370000.0 505677.0 0
374000.0 505677.0 0
378000.0 505677.0 0
382000.0 505677.0 0
386000.0 505677.0 0
390000.0 505677.0 0
394000.0 505677.0 0
398000.0 505677.0 0
102000.0 509677.0 0
106000.0 509677.0 0
110000.0 509677.0 0
114000.0 509677.0 0
118000.0 509677.0 0
122000.0 509677.0 0
126000.0 509677.0 0
130000.0 509677.0 0
134000.0 509677.0 0
138000.0 509677.0 0
142000.0 509677.0 0
146000.0 509677.0 0
150000.0 509677.0 0
154000.0 509677.0 0
158000.0 509677.0 0
162000.0 509677.0 0
166000.0 509677.0 0
170000.0 509677.0 0
174000.0 509677.0 0
178000.0 509677.0 0
182000.0 509677.0 0
186000.0 509677.0 0
190000.0 509677.0 0
194000.0 509677.0 0
198000.0 509677.0 0
202000.0 509677.0 0
206000.0 509677.0 0
210000.0 509677.0 0
214000.0 509677.0 0
218000.0 509677.0 0
222000.0 509677.0 0
226000.0 509677.0 0
230000.0 509677.0 0
234000.0 509677.0 0
238000.0 509677.0 0
242000.0 509677.0 0
246000.0 509677.0 0
250000.0 509677.0 0
254000.0 509677.0 0
258000.0 509677.0 0
262000.0 509677.0 0
266000.0 509677.0 0
270000.0 509677.0 0
274000.0 509677.0 0
278000.0 509677.0 0
282000.0 509677.0 0
286000.0 509677.0 0
290000.0 509677.0 0
294000.0 509677.0 0
298000.0 509677.0 0
302000.0 509677.0 0
306000.0 509677.0 0
310000.0 509677.0 0
314000.0 509677.0 0
318000.0 509677.0 0
322000.0 509677.0 0
326000.0 509677.0 0
330000.0 509677.0 0
334000.0 509677.0 0
338000.0 509677.0 0
342000.0 509677.0 0
346000.0 509677.0 0
350000.0 509677.0 0
354000.0 509677.0 0
358000.0 509677.0 0
362000.0 509677.0 0
366000.0 509677.0 0
370000.0 509677.0 0
374000.0 509677.0 0
378000.0 509677.0 0
382000.0 509677.0 0
386000.0 509677.0 0
390000.0 509677.0 0
394000.0 509677.0 0
398000.0 509677.0 0
102000.0 513677.0 0
106000.0 513677.0 0
110000.0 513677.0 0
114000.0 513677.0 0
118000.0 513677.0 0
122000.0 513677.0 0
126000.0 513677.0 0
130000.0 513677.0 0
134000.0 513677.0 0
138000.0 513677.0 0
142000.0 513677.0 0
146000.0 513677.0 0
150000.0 513677.0 0
154000.0 513677.0 0
158000.0 513677.0 0
162000.0 513677.0 0
166000.0 513677.0 0
170000.0 513677.0 0
174000.0 513677.0 0
178000.0 513677.0 0
182000.0 513677.0 0
186000.0 513677.0 0
190000.0 513677.0 0
194000.0 513677.0 0
198000.0 513677.0 0
202000.0 513677.0 0
206000.0 513677.0 0
210000.0 513677.0 0
214000.0 513677.0 0
218000.0 513677.0 0
222000.0 513677.0 0
226000.0 513677.0 0
230000.0 513677.0 0
234000.0 513677.0 0
238000.0 513677.0 0
242000.0 513677.0 0
246000.0 513677.0 0
250000.0 513677.0 0
254000.0 513677.0 0
258000.0 513677.0 0
262000.0 513677.0 0
266000.0 513677.0 0
270000.0 513677.0 0
274000.0 513677.0 0
278000.0 513677.0 0
282000.0 513677.0 0
286000.0 513677.0 0
290000.0 513677.0 0
294000.0 513677.0 0
298000.0 513677.0 0
302000.0 513677.0 0
306000.0 513677.0 0
310000.0 513677.0 0
314000.0 513677.0 0
318000.0 513677.0 0
322000.0 513677.0 0
326000.0 513677.0 0
330000.0 513677.0 0
334000.0 513677.0 0
338000.0 513677.0 0
342000.0 513677.0 0
346000.0 513677.0 0
350000.0 513677.0 0
354000.0 513677.0 0
358000.0 513677.0 0
362000.0 513677.0 0
366000.0 513677.0 0
370000.0 513677.0 0
374000.0 513677.0 0
378000.0 513677.0 0
382000.0 513677.0 0
386000.0 513677.0 0
390000.0 513677.0 0
394000.0 513677.0 0
398000.0 513677.0 0
102000.0 517677.0 0
106000.0 517677.0 0
110000.0 517677.0 0
114000.0 517677.0 0
118000.0 517677.0 0
122000.0 517677.0 0
126000.0 517677.0 0
130000.0 517677.0 0
134000.0 517677.0 0
138000.0 517677.0 0
142000.0 517677.0 0
146000.0 517677.0 0
150000.0 517677.0 0
154000.0 517677.0 0
158000.0 517677.0 0
162000.0 517677.0 0
166000.0 517677.0 0
170000.0 517677.0 0
174000.0 517677.0 0
178000.0 517677.0 0
182000.0 517677.0 0
186000.0 517677.0 0
190000.0 517677.0 0
194000.0 517677.0 0
198000.0 517677.0 0
202000.0 517677.0 0
206000.0 517677.0 0
210000.0 517677.0 0
214000.0 517677.0 0
218000.0 517677.0 0
222000.0 517677.0 0
226000.0 517677.0 0
230000.0 517677.0 0
234000.0 517677.0 0
238000.0 517677.0 0
242000.0 517677.0 0
246000.0 517677.0 0
250000.0 517677.0 0
254000.0 517677.0 0
258000.0 517677.0 0
262000.0 517677.0 0
266000.0 517677.0 0
270000.0 517677.0 0
274000.0 517677.0 0
278000.0 517677.0 0
282000.0 517677.0 0
286000.0 517677.0 0
290000.0 517677.0 0
294000.0 517677.0 0
298000.0 517677.0 0
302000.0 517677.0 0
306000.0 517677.0 0
310000.0 517677.0 0
314000.0 517677.0 0
318000.0 517677.0 0
322000.0 517677.0 0
326000.0 517677.0 0
330000.0 517677.0 0
334000.0 517677.0 0
338000.0 517677.0 0
342000.0 517677.0 0
346000.0 517677.0 0
350000.0 517677.0 0
354000.0 517677.0 0
358000.0 517677.0 0
362000.0 517677.0 0
366000.0 517677.0 0
370000.0 517677.0 0
374000.0 517677.0 0
378000.0 517677.0 0
382000.0 517677.0 0
386000.0 517677.0 0
390000.0 517677.0 0
394000.0 517677.0 0
398000.0 517677.0 0
102000.0 521677.0 0
106000.0 521677.0 0
110000.0 521677.0 0
114000.0 521677.0 0
118000.0 521677.0 0
122000.0 521677.0 0
126000.0 521677.0 0
130000.0 521677.0 0
134000.0 521677.0 0
138000.0 521677.0 0
142000.0 521677.0 0
146000.0 521677.0 0
150000.0 521677.0 0
154000.0 521677.0 0
158000.0 521677.0 0
162000.0 521677.0 0
166000.0 521677.0 0
170000.0 521677.0 0
174000.0 521677.0 0
178000.0 521677.0 0
182000.0 521677.0 0
186000.0 521677.0 0
190000.0 521677.0 0
194000.0 521677.0 0
198000.0 521677.0 0
202000.0 521677.0 0
206000.0 521677.0 0
210000.0 521677.0 0
214000.0 521677.0 0
218000.0 521677.0 0
222000.0 521677.0 0
226000.0 521677.0 0
230000.0 521677.0 0
234000.0 521677.0 0
238000.0 521677.0 0
242000.0 521677.0 0
246000.0 521677.0 0
250000.0 521677.0 0
254000.0 521677.0 0
258000.0 521677.0 0
262000.0 521677.0 0
266000.0 521677.0 0
270000.0 521677.0 0
274000.0 521677.0 0
278000.0 521677.0 0
282000.0 521677.0 0
286000.0 521677.0 0
290000.0 521677.0 0
294000.0 521677.0 0
298000.0 521677.0 0
302000.0 521677.0 0
306000.0 521677.0 0
310000.0 521677.0 0
314000.0 521677.0 0
318000.0 521677.0 0
322000.0 521677.0 0
326000.0 521677.0 0
330000.0 521677.0 0
334000.0 521677.0 0
338000.0 521677.0 0
342000.0 521677.0 0
346000.0 521677.0 0
350000.0 521677.0 0
354000.0 521677.0 0
358000.0 521677.0 0
362000.0 521677.0 0
366000.0 521677.0 0
370000.0 521677.0 0
374000.0 521677.0 0
378000.0 521677.0 0
382000.0 521677.0 0
386000.0 521677.0 0
390000.0 521677.0 0
394000.0 521677.0 0
398000.0 521677.0 0
102000.0 525677.0 0
106000.0 525677.0 0
110000.0 525677.0 0
114000.0 525677.0 0
118000.0 525677.0 0
122000.0 525677.0 0
126000.0 525677.0 0
130000.0 525677.0 0
134000.0 525677.0 0
138000.0 525677.0 0
142000.0 525677.0 0
146000.0 525677.0 0
150000.0 525677.0 0
154000.0 525677.0 0
158000.0 525677.0 0
162000.0 525677.0 0
166000.0 525677.0 0
170000.0 525677.0 0
174000.0 525677.0 0
178000.0 525677.0 0
182000.0 525677.0 0
186000.0 525677.0 0
190000.0 525677.0 0
194000.0 525677.0 0
198000.0 525677.0 0
202000.0 525677.0 0
206000.0 525677.0 0
210000.0 525677.0 0
214000.0 525677.0 0
218000.0 525677.0 0
222000.0 525677.0 0
226000.0 525677.0 0
230000.0 525677.0 0
234000.0 525677.0 0
238000.0 525677.0 0
242000.0 525677.0 0
246000.0 525677.0 0
250000.0 525677.0 0
254000.0 525677.0 0
258000.0 525677.0 0
262000.0 525677.0 0
266000.0 525677.0 0
270000.0 525677.0 0
274000.0 525677.0 0
278000.0 525677.0 0
282000.0 525677.0 0
286000.0 525677.0 0
290000.0 525677.0 0
294000.0 525677.0 0
298000.0 525677.0 0
302000.0 525677.0 0
306000.0 525677.0 0
310000.0 525677.0 0
314000.0 525677.0 0
318000.0 525677.0 0
322000.0 525677.0 0
326000.0 525677.0 0
330000.0 525677.0 0
334000.0 525677.0 0
338000.0 525677.0 0
342000.0 525677.0 0
346000.0 525677.0 0
350000.0 525677.0 0
354000.0 525677.0 0
358000.0 525677.0 0
362000.0 525677.0 0
366000.0 525677.0 0
370000.0 525677.0 0
374000.0 525677.0 0
378000.0 525677.0 0
382000.0 525677.0 0
386000.0 525677.0 0
390000.0 525677.0 0
394000.0 525677.0 0
398000.0 525677.0 0
102000.0 529677.0 0
106000.0 529677.0 0
110000.0 529677.0 0
114000.0 529677.0 0
118000.0 529677.0 0
122000.0 529677.0 0
126000.0 529677.0 0
130000.0 529677.0 0
134000.0 529677.0 0
138000.0 529677.0 0
142000.0 529677.0 0
146000.0 529677.0 0
150000.0 529677.0 0
154000.0 529677.0 0
158000.0 529677.0 0
162000.0 529677.0 0
166000.0 529677.0 0
170000.0 529677.0 0
174000.0 529677.0 0
178000.0 529677.0 0
182000.0 529677.0 0
186000.0 529677.0 0
190000.0 529677.0 0
194000.0 529677.0 0
198000.0 529677.0 0
202000.0 529677.0 0
206000.0 529677.0 0
210000.0 529677.0 0
214000.0 529677.0 0
218000.0 529677.0 0
222000.0 529677.0 0
226000.0 529677.0 0
230000.0 529677.0 0
234000.0 529677.0 0
238000.0 529677.0 0
242000.0 529677.0 0
246000.0 529677.0 0
250000.0 529677.0 0
254000.0 529677.0 0
258000.0 529677.0 0
262000.0 529677.0 0
266000.0 529677.0 0
270000.0 529677.0 0
274000.0 529677.0 0
278000.0 529677.0 0
282000.0 529677.0 0
286000.0 529677.0 0
290000.0 529677.0 0
294000.0 529677.0 0
298000.0 529677.0 0
302000.0 529677.0 0
306000.0 529677.0 0
310000.0 529677.0 0
314000.0 529677.0 0
318000.0 529677.0 0
322000.0 529677.0 0
326000.0 529677.0 0
330000.0 529677.0 0
334000.0 529677.0 0
338000.0 529677.0 0
342000.0 529677.0 0
346000.0 529677.0 0
350000.0 529677.0 0
354000.0 529677.0 0
358000.0 529677.0 0
362000.0 529677.0 0
366000.0 529677.0 0
370000.0 529677.0 0
374000.0 529677.0 0
378000.0 529677.0 0
382000.0 529677.0 0
386000.0 529677.0 0
390000.0 529677.0 0
394000.0 529677.0 0
398000.0 529677.0 0
102000.0 533677.0 0
106000.0 533677.0 0
110000.0 533677.0 0
114000.0 533677.0 0
118000.0 533677.0 0
122000.0 533677.0 0
126000.0 533677.0 0
130000.0 533677.0 0
134000.0 533677.0 0
138000.0 533677.0 0
142000.0 533677.0 0
146000.0 533677.0 0
150000.0 533677.0 0
154000.0 533677.0 0
158000.0 533677.0 0
162000.0 533677.0 0
166000.0 533677.0 0
170000.0 533677.0 0
174000.0 533677.0 0
178000.0 533677.0 0
182000.0 533677.0 0
186000.0 533677.0 0
190000.0 533677.0 0
194000.0 533677.0 0
198000.0 533677.0 0
202000.0 533677.0 0
206000.0 533677.0 0
210000.0 533677.0 0
214000.0 533677.0 0
218000.0 533677.0 0
222000.0 533677.0 0
226000.0 533677.0 0
230000.0 533677.0 0
234000.0 533677.0 0
238000.0 533677.0 0
242000.0 533677.0 0
246000.0 533677.0 0
250000.0 533677.0 0
254000.0 533677.0 0
258000.0 533677.0 0
262000.0 533677.0 0
266000.0 533677.0 0
270000.0 533677.0 0
274000.0 533677.0 0
278000.0 533677.0 0
282000.0 533677.0 0
286000.0 533677.0 0
290000.0 533677.0 0
294000.0 533677.0 0
298000.0 533677.0 0
302000.0 533677.0 0
306000.0 533677.0 0
310000.0 533677.0 0
314000.0 533677.0 0
318000.0 533677.0 0
322000.0 533677.0 0
326000.0 533677.0 0
330000.0 533677.0 0
334000.0 533677.0 0
338000.0 533677.0 0
342000.0 533677.0 0
346000.0 533677.0 0
350000.0 533677.0 0
354000.0 533677.0 0
358000.0 533677.0 0
362000.0 533677.0 0
366000.0 533677.0 0
370000.0 533677.0 0
374000.0 533677.0 0
378000.0 533677.0 0
382000.0 533677.0 0
386000.0 533677.0 0
390000.0 533677.0 0
394000.0 533677.0 0
398000.0 533677.0 0
102000.0 537677.0 0
106000.0 537677.0 0
110000.0 537677.0 0
114000.0 537677.0 0
118000.0 537677.0 0
122000.0 537677.0 0
126000.0 537677.0 0
130000.0 537677.0 0
134000.0 537677.0 0
138000.0 537677.0 0
142000.0 537677.0 0
146000.0 537677.0 0
150000.0 537677.0 0
154000.0 537677.0 0
158000.0 537677.0 0
162000.0 537677.0 0
166000.0 537677.0 0
170000.0 537677.0 0
174000.0 537677.0 0
178000.0 537677.0 0
182000.0 537677.0 0
186000.0 537677.0 0
190000.0 537677.0 0
194000.0 537677.0 0
198000.0 537677.0 0
202000.0 537677.0 0
206000.0 537677.0 0
210000.0 537677.0 0
214000.0 537677.0 0
218000.0 537677.0 0
222000.0 537677.0 0
226000.0 537677.0 0
230000.0 537677.0 0
234000.0 537677.0 0
238000.0 537677.0 0
242000.0 537677.0 0
246000.0 537677.0 0
250000.0 537677.0 0
254000.0 537677.0 0
258000.0 537677.0 0
262000.0 537677.0 0
266000.0 537677.0 0
270000.0 537677.0 0
274000.0 537677.0 0
278000.0 537677.0 0
282000.0 537677.0 0
286000.0 537677.0 0
290000.0 537677.0 0
294000.0 537677.0 0
298000.0 537677.0 0
302000.0 537677.0 0
306000.0 537677.0 0
310000.0 537677.0 0
314000.0 537677.0 0
318000.0 537677.0 0
322000.0 537677.0 0
326000.0 537677.0 0
330000.0 537677.0 0
334000.0 537677.0 0
338000.0 537677.0 0
342000.0 537677.0 0
346000.0 537677.0 0
350000.0 537677.0 0
354000.0 537677.0 0
358000.0 537677.0 0
362000.0 537677.0 0
366000.0 537677.0 0
370000.0 537677.0 0
374000.0 537677.0 0
378000.0 537677.0 0
382000.0 537677.0 0
386000.0 537677.0 0
390000.0 537677.0 0
394000.0 537677.0 0
398000.0 537677.0 0
102000.0 541677.0 0
106000.0 541677.0 0
110000.0 541677.0 0
114000.0 541677.0 0
118000.0 541677.0 0
122000.0 541677.0 0
126000.0 541677.0 0
130000.0 541677.0 0
134000.0 541677.0 0
138000.0 541677.0 0
142000.0 541677.0 0
146000.0 541677.0 0
150000.0 541677.0 0
154000.0 541677.0 0
158000.0 541677.0 0
162000.0 541677.0 0
166000.0 541677.0 0
170000.0 541677.0 0
174000.0 541677.0 0
178000.0 541677.0 0
182000.0 541677.0 0
186000.0 541677.0 0
190000.0 541677.0 0
194000.0 541677.0 0
198000.0 541677.0 0
202000.0 541677.0 0
206000.0 541677.0 0
210000.0 541677.0 0
214000.0 541677.0 0
218000.0 541677.0 0
222000.0 541677.0 0
226000.0 541677.0 0
230000.0 541677.0 0
234000.0 541677.0 0
238000.0 541677.0 0
242000.0 541677.0 0
246000.0 541677.0 0
250000.0 541677.0 0
254000.0 541677.0 0
258000.0 541677.0 0
262000.0 541677.0 0
266000.0 541677.0 0
270000.0 541677.0 0
274000.0 541677.0 0
278000.0 541677.0 0
282000.0 541677.0 0
286000.0 541677.0 0
290000.0 541677.0 0
294000.0 541677.0 0
298000.0 541677.0 0
302000.0 541677.0 0
306000.0 541677.0 0
310000.0 541677.0 0
314000.0 541677.0 0
318000.0 541677.0 0
322000.0 541677.0 0
326000.0 541677.0 0
330000.0 541677.0 0
334000.0 541677.0 0
338000.0 541677.0 0
342000.0 541677.0 0
346000.0 541677.0 0
350000.0 541677.0 0
354000.0 541677.0 0
358000.0 541677.0 0
362000.0 541677.0 0
366000.0 541677.0 0
370000.0 541677.0 0
374000.0 541677.0 0
378000.0 541677.0 0
382000.0 541677.0 0
386000.0 541677.0 0
390000.0 541677.0 0
394000.0 541677.0 0
398000.0 541677.0 0
102000.0 545677.0 0
106000.0 545677.0 0
110000.0 545677.0 0
114000.0 545677.0 0
118000.0 545677.0 0
122000.0 545677.0 0
126000.0 545677.0 0
130000.0 545677.0 0
134000.0 545677.0 0
138000.0 545677.0 0
142000.0 545677.0 0
146000.0 545677.0 0
150000.0 545677.0 0
154000.0 545677.0 0
158000.0 545677.0 0
162000.0 545677.0 0
166000.0 545677.0 0
170000.0 545677.0 0
174000.0 545677.0 0
178000.0 545677.0 0
182000.0 545677.0 0
186000.0 545677.0 0
190000.0 545677.0 0
194000.0 545677.0 0
198000.0 545677.0 0
202000.0 545677.0 0
206000.0 545677.0 0
210000.0 545677.0 0
214000.0 545677.0 0
218000.0 545677.0 0
222000.0 545677.0 0
226000.0 545677.0 0
230000.0 545677.0 0
234000.0 545677.0 0
238000.0 545677.0 0
242000.0 545677.0 0
246000.0 545677.0 0
250000.0 545677.0 0
254000.0 545677.0 0
258000.0 545677.0 0
262000.0 545677.0 0
266000.0 545677.0 0
270000.0 545677.0 0
274000.0 545677.0 0
278000.0 545677.0 0
282000.0 545677.0 0
286000.0 545677.0 0
290000.0 545677.0 0
294000.0 545677.0 0
298000.0 545677.0 0
302000.0 545677.0 0
306000.0 545677.0 0
310000.0 545677.0 0
314000.0 545677.0 0
318000.0 545677.0 0
322000.0 545677.0 0
326000.0 545677.0 0
330000.0 545677.0 0
334000.0 545677.0 0
338000.0 545677.0 0
342000.0 545677.0 0
346000.0 545677.0 0
350000.0 545677.0 0
354000.0 545677.0 0
358000.0 545677.0 0
362000.0 545677.0 0
366000.0 545677.0 0
370000.0 545677.0 0
374000.0 545677.0 0
378000.0 545677.0 0
382000.0 545677.0 0
386000.0 545677.0 0
390000.0 545677.0 0
394000.0 545677.0 0
398000.0 545677.0 0
102000.0 549677.0 0
106000.0 549677.0 0
110000.0 549677.0 0
114000.0 549677.0 0
118000.0 549677.0 0
122000.0 549677.0 0
126000.0 549677.0 0
130000.0 549677.0 0
134000.0 549677.0 0
138000.0 549677.0 0
142000.0 549677.0 0
146000.0 549677.0 0
150000.0 549677.0 0
154000.0 549677.0 0
158000.0 549677.0 0
162000.0 549677.0 0
166000.0 549677.0 0
170000.0 549677.0 0
174000.0 549677.0 0
178000.0 549677.0 0
182000.0 549677.0 0
186000.0 549677.0 0
190000.0 549677.0 0
194000.0 549677.0 0
198000.0 549677.0 0
202000.0 549677.0 0
206000.0 549677.0 0
210000.0 549677.0 0
214000.0 549677.0 0
218000.0 549677.0 0
222000.0 549677.0 0
226000.0 549677.0 0
230000.0 549677.0 0
234000.0 549677.0 0
238000.0 549677.0 0
242000.0 549677.0 0
246000.0 549677.0 0
250000.0 549677.0 0
254000.0 549677.0 0
258000.0 549677.0 0
262000.0 549677.0 0
266000.0 549677.0 0
270000.0 549677.0 0
274000.0 549677.0 0
278000.0 549677.0 0
282000.0 549677.0 0
286000.0 549677.0 0
290000.0 549677.0 0
294000.0 549677.0 0
298000.0 549677.0 0
302000.0 549677.0 0
306000.0 549677.0 0
310000.0 549677.0 0
314000.0 549677.0 0
318000.0 549677.0 0
322000.0 549677.0 0
326000.0 549677.0 0
330000.0 549677.0 0
334000.0 549677.0 0
338000.0 549677.0 0
342000.0 549677.0 0
346000.0 549677.0 0
350000.0 549677.0 0
354000.0 549677.0 0
358000.0 549677.0 0
362000.0 549677.0 0
366000.0 549677.0 0
370000.0 549677.0 0
374000.0 549677.0 0
378000.0 549677.0 0
382000.0 549677.0 0
386000.0 549677.0 0
390000.0 549677.0 0
394000.0 549677.0 0
398000.0 549677.0 0
102000.0 553677.0 0
106000.0 553677.0 0
110000.0 553677.0 0
114000.0 553677.0 0
118000.0 553677.0 0
122000.0 553677.0 0
126000.0 553677.0 0
130000.0 553677.0 0
134000.0 553677.0 0
138000.0 553677.0 0
142000.0 553677.0 0
146000.0 553677.0 0
150000.0 553677.0 0
154000.0 553677.0 0
158000.0 553677.0 0
162000.0 553677.0 0
166000.0 553677.0 0
170000.0 553677.0 0
174000.0 553677.0 0
178000.0 553677.0 0
182000.0 553677.0 0
186000.0 553677.0 0
190000.0 553677.0 0
194000.0 553677.0 0
198000.0 553677.0 0
202000.0 553677.0 0
206000.0 553677.0 0
210000.0 553677.0 0
214000.0 553677.0 0
218000.0 553677.0 0
222000.0 553677.0 0
226000.0 553677.0 0
230000.0 553677.0 0
234000.0 553677.0 0
238000.0 553677.0 0
242000.0 553677.0 0
246000.0 553677.0 0
250000.0 553677.0 0
254000.0 553677.0 0
258000.0 553677.0 0
262000.0 553677.0 0
266000.0 553677.0 0
270000.0 553677.0 0
274000.0 553677.0 0
278000.0 553677.0 0
282000.0 553677.0 0
286000.0 553677.0 0
290000.0 553677.0 0
294000.0 553677.0 0
298000.0 553677.0 0
302000.0 553677.0 0
306000.0 553677.0 0
310000.0 553677.0 0
314000.0 553677.0 0
318000.0 553677.0 0
322000.0 553677.0 0
326000.0 553677.0 0
330000.0 553677.0 0
334000.0 553677.0 0
338000.0 553677.0 0
342000.0 553677.0 0
346000.0 553677.0 0
350000.0 553677.0 0
354000.0 553677.0 0
358000.0 553677.0 0
362000.0 553677.0 0
366000.0 553677.0 0
370000.0 553677.0 0
374000.0 553677.0 0
378000.0 553677.0 0
382000.0 553677.0 0
386000.0 553677.0 0
390000.0 553677.0 0
394000.0 553677.0 0
398000.0 553677.0 0
102000.0 557677.0 0
106000.0 557677.0 0
110000.0 557677.0 0
114000.0 557677.0 0
118000.0 557677.0 0
122000.0 557677.0 0
126000.0 557677.0 0
130000.0 557677.0 0
134000.0 557677.0 0
138000.0 557677.0 0
142000.0 557677.0 0
146000.0 557677.0 0
150000.0 557677.0 0
154000.0 557677.0 0
158000.0 557677.0 0
162000.0 557677.0 0
166000.0 557677.0 0
170000.0 557677.0 0
174000.0 557677.0 0
178000.0 557677.0 0
182000.0 557677.0 0
186000.0 557677.0 0
190000.0 557677.0 0
194000.0 557677.0 0
198000.0 557677.0 0
202000.0 557677.0 0
206000.0 557677.0 0
210000.0 557677.0 0
214000.0 557677.0 0
218000.0 557677.0 0
222000.0 557677.0 0
226000.0 557677.0 0
230000.0 557677.0 0
234000.0 557677.0 0
238000.0 557677.0 0
242000.0 557677.0 0
246000.0 557677.0 0
250000.0 557677.0 0
254000.0 557677.0 0
258000.0 557677.0 0
262000.0 557677.0 0
266000.0 557677.0 0
270000.0 557677.0 0
274000.0 557677.0 0
278000.0 557677.0 0
282000.0 557677.0 0
286000.0 557677.0 0
290000.0 557677.0 0
294000.0 557677.0 0
298000.0 557677.0 0
302000.0 557677.0 0
306000.0 557677.0 0
310000.0 557677.0 0
314000.0 557677.0 0
318000.0 557677.0 0
322000.0 557677.0 0
326000.0 557677.0 0
330000.0 557677.0 0
334000.0 557677.0 0
338000.0 557677.0 0
342000.0 557677.0 0
346000.0 557677.0 0
350000.0 557677.0 0
354000.0 557677.0 0
358000.0 557677.0 0
362000.0 557677.0 0
366000.0 557677.0 0
370000.0 557677.0 0
374000.0 557677.0 0
378000.0 557677.0 0
382000.0 557677.0 0
386000.0 557677.0 0
390000.0 557677.0 0
394000.0 557677.0 0
398000.0 557677.0 0
102000.0 561677.0 0
106000.0 561677.0 0
110000.0 561677.0 0
114000.0 561677.0 0
118000.0 561677.0 0
122000.0 561677.0 0
126000.0 561677.0 0
130000.0 561677.0 0
134000.0 561677.0 0
138000.0 561677.0 0
142000.0 561677.0 0
146000.0 561677.0 0
150000.0 561677.0 0
154000.0 561677.0 0
158000.0 561677.0 0
162000.0 561677.0 0
166000.0 561677.0 0
170000.0 561677.0 0
174000.0 561677.0 0
178000.0 561677.0 0
182000.0 561677.0 0
186000.0 561677.0 0
190000.0 561677.0 0
194000.0 561677.0 0
198000.0 561677.0 0
202000.0 561677.0 0
206000.0 561677.0 0
210000.0 561677.0 0
214000.0 561677.0 0
218000.0 561677.0 0
222000.0 561677.0 0
226000.0 561677.0 0
230000.0 561677.0 0
234000.0 561677.0 0
238000.0 561677.0 0
242000.0 561677.0 0
246000.0 561677.0 0
250000.0 561677.0 0
254000.0 561677.0 0
258000.0 561677.0 0
262000.0 561677.0 0
266000.0 561677.0 0
270000.0 561677.0 0
274000.0 561677.0 0
278000.0 561677.0 0
282000.0 561677.0 0
286000.0 561677.0 0
290000.0 561677.0 0
294000.0 561677.0 0
298000.0 561677.0 0
302000.0 561677.0 0
306000.0 561677.0 0
310000.0 561677.0 0
314000.0 561677.0 0
318000.0 561677.0 0
322000.0 561677.0 0
326000.0 561677.0 0
330000.0 561677.0 0
334000.0 561677.0 0
338000.0 561677.0 0
342000.0 561677.0 0
346000.0 561677.0 0
350000.0 561677.0 0
354000.0 561677.0 0
358000.0 561677.0 0
362000.0 561677.0 0
366000.0 561677.0 0
370000.0 561677.0 0
374000.0 561677.0 0
378000.0 561677.0 0
382000.0 561677.0 0
386000.0 561677.0 0
390000.0 561677.0 0
394000.0 561677.0 0
398000.0 561677.0 0
102000.0 565677.0 0
106000.0 565677.0 0
110000.0 565677.0 0
114000.0 565677.0 0
118000.0 565677.0 0
122000.0 565677.0 0
126000.0 565677.0 0
130000.0 565677.0 0
134000.0 565677.0 0
138000.0 565677.0 0
142000.0 565677.0 0
146000.0 565677.0 0
150000.0 565677.0 0
154000.0 565677.0 0
158000.0 565677.0 0
162000.0 565677.0 0
166000.0 565677.0 0
170000.0 565677.0 0
174000.0 565677.0 0
178000.0 565677.0 0
182000.0 565677.0 0
186000.0 565677.0 0
190000.0 565677.0 0
194000.0 565677.0 0
198000.0 565677.0 0
202000.0 565677.0 0
206000.0 565677.0 0
210000.0 565677.0 0
214000.0 565677.0 0
218000.0 565677.0 0
222000.0 565677.0 0
226000.0 565677.0 0
230000.0 565677.0 0
234000.0 565677.0 0
238000.0 565677.0 0
242000.0 565677.0 0
246000.0 565677.0 0
250000.0 565677.0 0
254000.0 565677.0 0
258000.0 565677.0 0
262000.0 565677.0 0
266000.0 565677.0 0
270000.0 565677.0 0
274000.0 565677.0 0
278000.0 565677.0 0
282000.0 565677.0 0
286000.0 565677.0 0
290000.0 565677.0 0
294000.0 565677.0 0
298000.0 565677.0 0
302000.0 565677.0 0
306000.0 565677.0 0
310000.0 565677.0 0
314000.0 565677.0 0
318000.0 565677.0 0
322000.0 565677.0 0
326000.0 565677.0 0
330000.0 565677.0 0
334000.0 565677.0 0
338000.0 565677.0 0
342000.0 565677.0 0
346000.0 565677.0 0
350000.0 565677.0 0
354000.0 565677.0 0
358000.0 565677.0 0
362000.0 565677.0 0
366000.0 565677.0 0
370000.0 565677.0 0
374000.0 565677.0 0
378000.0 565677.0 0
382000.0 565677.0 0
386000.0 565677.0 0
390000.0 565677.0 0
394000.0 565677.0 0
398000.0 565677.0 0
102000.0 569677.0 0
106000.0 569677.0 0
110000.0 569677.0 0
114000.0 569677.0 0
118000.0 569677.0 0
122000.0 569677.0 0
126000.0 569677.0 0
130000.0 569677.0 0
134000.0 569677.0 0
138000.0 569677.0 0
142000.0 569677.0 0
146000.0 569677.0 0
150000.0 569677.0 0
154000.0 569677.0 0
158000.0 569677.0 0
162000.0 569677.0 0
166000.0 569677.0 0
170000.0 569677.0 0
174000.0 569677.0 0
178000.0 569677.0 0
182000.0 569677.0 0
186000.0 569677.0 0
190000.0 569677.0 0
194000.0 569677.0 0
198000.0 569677.0 0
202000.0 569677.0 0
206000.0 569677.0 0
210000.0 569677.0 0
214000.0 569677.0 0
218000.0 569677.0 0
222000.0 569677.0 0
226000.0 569677.0 0
230000.0 569677.0 0
234000.0 569677.0 0
238000.0 569677.0 0
242000.0 569677.0 0
246000.0 569677.0 0
250000.0 569677.0 0
254000.0 569677.0 0
258000.0 569677.0 0
262000.0 569677.0 0
266000.0 569677.0 0
270000.0 569677.0 0
274000.0 569677.0 0
278000.0 569677.0 0
282000.0 569677.0 0
286000.0 569677.0 0
290000.0 569677.0 0
294000.0 569677.0 0
298000.0 569677.0 0
302000.0 569677.0 0
306000.0 569677.0 0
310000.0 569677.0 0
314000.0 569677.0 0
318000.0 569677.0 0
322000.0 569677.0 0
326000.0 569677.0 0
330000.0 569677.0 0
334000.0 569677.0 0
338000.0 569677.0 0
342000.0 569677.0 0
346000.0 569677.0 0
350000.0 569677.0 0
354000.0 569677.0 0
358000.0 569677.0 0
362000.0 569677.0 0
366000.0 569677.0 0
370000.0 569677.0 0
374000.0 569677.0 0
378000.0 569677.0 0
382000.0 569677.0 0
386000.0 569677.0 0
390000.0 569677.0 0
394000.0 569677.0 0
398000.0 569677.0 0
102000.0 573677.0 0
106000.0 573677.0 0
110000.0 573677.0 0
114000.0 573677.0 0
118000.0 573677.0 0
122000.0 573677.0 0
126000.0 573677.0 0
130000.0 573677.0 0
134000.0 573677.0 0
138000.0 573677.0 0
142000.0 573677.0 0
146000.0 573677.0 0
150000.0 573677.0 0
154000.0 573677.0 0
158000.0 573677.0 0
162000.0 573677.0 0
166000.0 573677.0 0
170000.0 573677.0 0
174000.0 573677.0 0
178000.0 573677.0 0
182000.0 573677.0 0
186000.0 573677.0 0
190000.0 573677.0 0
194000.0 573677.0 0
198000.0 573677.0 0
202000.0 573677.0 0
206000.0 573677.0 0
210000.0 573677.0 0
214000.0 573677.0 0
218000.0 573677.0 0
222000.0 573677.0 0
226000.0 573677.0 0
230000.0 573677.0 0
234000.0 573677.0 0
238000.0 573677.0 0
242000.0 573677.0 0
246000.0 573677.0 0
250000.0 573677.0 0
254000.0 573677.0 0
258000.0 573677.0 0
262000.0 573677.0 0
266000.0 573677.0 0
270000.0 573677.0 0
274000.0 573677.0 0
278000.0 573677.0 0
282000.0 573677.0 0
286000.0 573677.0 0
290000.0 573677.0 0
294000.0 573677.0 0
298000.0 573677.0 0
302000.0 573677.0 0
306000.0 573677.0 0
310000.0 573677.0 0
314000.0 573677.0 0
318000.0 573677.0 0
322000.0 573677.0 0
326000.0 573677.0 0
330000.0 573677.0 0
334000.0 573677.0 0
338000.0 573677.0 0
342000.0 573677.0 0
346000.0 573677.0 0
350000.0 573677.0 0
354000.0 573677.0 0
358000.0 573677.0 0
362000.0 573677.0 0
366000.0 573677.0 0
370000.0 573677.0 0
374000.0 573677.0 0
378000.0 573677.0 0
382000.0 573677.0 0
386000.0 573677.0 0
390000.0 573677.0 0
394000.0 573677.0 0
398000.0 573677.0 0
102000.0 577677.0 0
106000.0 577677.0 0
110000.0 577677.0 0
114000.0 577677.0 0
118000.0 577677.0 0
122000.0 577677.0 0
126000.0 577677.0 0
130000.0 577677.0 0
134000.0 577677.0 0
138000.0 577677.0 0
142000.0 577677.0 0
146000.0 577677.0 0
150000.0 577677.0 0
154000.0 577677.0 0
158000.0 577677.0 0
162000.0 577677.0 0
166000.0 577677.0 0
170000.0 577677.0 0
174000.0 577677.0 0
178000.0 577677.0 0
182000.0 577677.0 0
186000.0 577677.0 0
190000.0 577677.0 0
194000.0 577677.0 0
198000.0 577677.0 0
202000.0 577677.0 0
206000.0 577677.0 0
210000.0 577677.0 0
214000.0 577677.0 0
218000.0 577677.0 0
222000.0 577677.0 0
226000.0 577677.0 0
230000.0 577677.0 0
234000.0 577677.0 0
238000.0 577677.0 0
242000.0 577677.0 0
246000.0 577677.0 0
250000.0 577677.0 0
254000.0 577677.0 0
258000.0 577677.0 0
262000.0 577677.0 0
266000.0 577677.0 0
270000.0 577677.0 0
274000.0 577677.0 0
278000.0 577677.0 0
282000.0 577677.0 0
286000.0 577677.0 0
290000.0 577677.0 0
294000.0 577677.0 0
298000.0 577677.0 0
302000.0 577677.0 0
306000.0 577677.0 0
310000.0 577677.0 0
314000.0 577677.0 0
318000.0 577677.0 0
322000.0 577677.0 0
326000.0 577677.0 0
330000.0 577677.0 0
334000.0 577677.0 0
338000.0 577677.0 0
342000.0 577677.0 0
346000.0 577677.0 0
350000.0 577677.0 0
354000.0 577677.0 0
358000.0 577677.0 0
362000.0 577677.0 0
366000.0 577677.0 0
370000.0 577677.0 0
374000.0 577677.0 0
378000.0 577677.0 0
382000.0 577677.0 0
386000.0 577677.0 0
390000.0 577677.0 0
394000.0 577677.0 0
398000.0 577677.0 0
102000.0 581677.0 0
106000.0 581677.0 0
110000.0 581677.0 0
114000.0 581677.0 0
118000.0 581677.0 0
122000.0 581677.0 0
126000.0 581677.0 0
130000.0 581677.0 0
134000.0 581677.0 0
138000.0 581677.0 0
142000.0 581677.0 0
146000.0 581677.0 0
150000.0 581677.0 0
154000.0 581677.0 0
158000.0 581677.0 0
162000.0 581677.0 0
166000.0 581677.0 0
170000.0 581677.0 0
174000.0 581677.0 0
178000.0 581677.0 0
182000.0 581677.0 0
186000.0 581677.0 0
190000.0 581677.0 0
194000.0 581677.0 0
198000.0 581677.0 0
202000.0 581677.0 0
206000.0 581677.0 0
210000.0 581677.0 0
214000.0 581677.0 0
218000.0 581677.0 0
222000.0 581677.0 0
226000.0 581677.0 0
230000.0 581677.0 0
234000.0 581677.0 0
238000.0 581677.0 0
242000.0 581677.0 0
246000.0 581677.0 0
250000.0 581677.0 0
254000.0 581677.0 0
258000.0 581677.0 0
262000.0 581677.0 0
266000.0 581677.0 0
270000.0 581677.0 0
274000.0 581677.0 0
278000.0 581677.0 0
282000.0 581677.0 0
286000.0 581677.0 0
290000.0 581677.0 0
294000.0 581677.0 0
298000.0 581677.0 0
302000.0 581677.0 0
306000.0 581677.0 0
310000.0 581677.0 0
314000.0 581677.0 0
318000.0 581677.0 0
322000.0 581677.0 0
326000.0 581677.0 0
330000.0 581677.0 0
334000.0 581677.0 0
338000.0 581677.0 0
342000.0 581677.0 0
346000.0 581677.0 0
350000.0 581677.0 0
354000.0 581677.0 0
358000.0 581677.0 0
362000.0 581677.0 0
366000.0 581677.0 0
370000.0 581677.0 0
374000.0 581677.0 0
378000.0 581677.0 0
382000.0 581677.0 0
386000.0 581677.0 0
390000.0 581677.0 0
394000.0 581677.0 0
398000.0 581677.0 0
102000.0 585677.0 0
106000.0 585677.0 0
110000.0 585677.0 0
114000.0 585677.0 0
118000.0 585677.0 0
122000.0 585677.0 0
126000.0 585677.0 0
130000.0 585677.0 0
134000.0 585677.0 0
138000.0 585677.0 0
142000.0 585677.0 0
146000.0 585677.0 0
150000.0 585677.0 0
154000.0 585677.0 0
158000.0 585677.0 0
162000.0 585677.0 0
166000.0 585677.0 0
170000.0 585677.0 0
174000.0 585677.0 0
178000.0 585677.0 0
182000.0 585677.0 0
186000.0 585677.0 0
190000.0 585677.0 0
194000.0 585677.0 0
198000.0 585677.0 0
202000.0 585677.0 0
206000.0 585677.0 0
210000.0 585677.0 0
214000.0 585677.0 0
218000.0 585677.0 0
222000.0 585677.0 0
226000.0 585677.0 0
230000.0 585677.0 0
234000.0 585677.0 0
238000.0 585677.0 0
242000.0 585677.0 0
246000.0 585677.0 0
250000.0 585677.0 0
254000.0 585677.0 0
258000.0 585677.0 0
262000.0 585677.0 0
266000.0 585677.0 0
270000.0 585677.0 0
274000.0 585677.0 0
278000.0 585677.0 0
282000.0 585677.0 0
286000.0 585677.0 0
290000.0 585677.0 0
294000.0 585677.0 0
298000.0 585677.0 0
302000.0 585677.0 0
306000.0 585677.0 0
310000.0 585677.0 0
314000.0 585677.0 0
318000.0 585677.0 0
322000.0 585677.0 0
326000.0 585677.0 0
330000.0 585677.0 0
334000.0 585677.0 0
338000.0 585677.0 0
342000.0 585677.0 0
346000.0 585677.0 0
350000.0 585677.0 0
354000.0 585677.0 0
358000.0 585677.0 0
362000.0 585677.0 0
366000.0 585677.0 0
370000.0 585677.0 0
374000.0 585677.0 0
378000.0 585677.0 0
382000.0 585677.0 0
386000.0 585677.0 0
390000.0 585677.0 0
394000.0 585677.0 0
398000.0 585677.0 0
102000.0 589677.0 0
106000.0 589677.0 0
110000.0 589677.0 0
114000.0 589677.0 0
118000.0 589677.0 0
122000.0 589677.0 0
126000.0 589677.0 0
130000.0 589677.0 0
134000.0 589677.0 0
138000.0 589677.0 0
142000.0 589677.0 0
146000.0 589677.0 0
150000.0 589677.0 0
154000.0 589677.0 0
158000.0 589677.0 0
162000.0 589677.0 0
166000.0 589677.0 0
170000.0 589677.0 0
174000.0 589677.0 0
178000.0 589677.0 0
182000.0 589677.0 0
186000.0 589677.0 0
190000.0 589677.0 0
194000.0 589677.0 0
198000.0 589677.0 0
202000.0 589677.0 0
206000.0 589677.0 0
210000.0 589677.0 0
214000.0 589677.0 0
218000.0 589677.0 0
222000.0 589677.0 0
226000.0 589677.0 0
230000.0 589677.0 0
234000.0 589677.0 0
238000.0 589677.0 0
242000.0 589677.0 0
246000.0 589677.0 0
250000.0 589677.0 0
254000.0 589677.0 0
258000.0 589677.0 0
262000.0 589677.0 0
266000.0 589677.0 0
270000.0 589677.0 0
274000.0 589677.0 0
278000.0 589677.0 0
282000.0 589677.0 0
286000.0 589677.0 0
290000.0 589677.0 0
294000.0 589677.0 0
298000.0 589677.0 0
302000.0 589677.0 0
306000.0 589677.0 0
310000.0 589677.0 0
314000.0 589677.0 0
318000.0 589677.0 0
322000.0 589677.0 0
326000.0 589677.0 0
330000.0 589677.0 0
334000.0 589677.0 0
338000.0 589677.0 0
342000.0 589677.0 0
346000.0 589677.0 0
350000.0 589677.0 0
354000.0 589677.0 0
358000.0 589677.0 0
362000.0 589677.0 0
366000.0 589677.0 0
370000.0 589677.0 0
374000.0 589677.0 0
378000.0 589677.0 0
382000.0 589677.0 0
386000.0 589677.0 0
390000.0 589677.0 0
394000.0 589677.0 0
398000.0 589677.0 0
102000.0 593677.0 0
106000.0 593677.0 0
110000.0 593677.0 0
114000.0 593677.0 0
118000.0 593677.0 0
122000.0 593677.0 0
126000.0 593677.0 0
130000.0 593677.0 0
134000.0 593677.0 0
138000.0 593677.0 0
142000.0 593677.0 0
146000.0 593677.0 0
150000.0 593677.0 0
154000.0 593677.0 0
158000.0 593677.0 0
162000.0 593677.0 0
166000.0 593677.0 0
170000.0 593677.0 0
174000.0 593677.0 0
178000.0 593677.0 0
182000.0 593677.0 0
186000.0 593677.0 0
190000.0 593677.0 0
194000.0 593677.0 0
198000.0 593677.0 0
202000.0 593677.0 0
206000.0 593677.0 0
210000.0 593677.0 0
214000.0 593677.0 0
218000.0 593677.0 0
222000.0 593677.0 0
226000.0 593677.0 0
230000.0 593677.0 0
234000.0 593677.0 0
238000.0 593677.0 0
242000.0 593677.0 0
246000.0 593677.0 0
250000.0 593677.0 0
254000.0 593677.0 0
258000.0 593677.0 0
262000.0 593677.0 0
266000.0 593677.0 0
270000.0 593677.0 0
274000.0 593677.0 0
278000.0 593677.0 0
282000.0 593677.0 0
286000.0 593677.0 0
290000.0 593677.0 0
294000.0 593677.0 0
298000.0 593677.0 0
302000.0 593677.0 0
306000.0 593677.0 0
310000.0 593677.0 0
314000.0 593677.0 0
318000.0 593677.0 0
322000.0 593677.0 0
326000.0 593677.0 0
330000.0 593677.0 0
334000.0 593677.0 0
338000.0 593677.0 0
342000.0 593677.0 0
346000.0 593677.0 0
350000.0 593677.0 0
354000.0 593677.0 0
358000.0 593677.0 0
362000.0 593677.0 0
366000.0 593677.0 0
370000.0 593677.0 0
374000.0 593677.0 0
378000.0 593677.0 0
382000.0 593677.0 0
386000.0 593677.0 0
390000.0 593677.0 0
394000.0 593677.0 0
398000.0 593677.0 0
102000.0 597677.0 0
106000.0 597677.0 0
110000.0 597677.0 0
114000.0 597677.0 0
118000.0 597677.0 0
122000.0 597677.0 0
126000.0 597677.0 0
130000.0 597677.0 0
134000.0 597677.0 0
138000.0 597677.0 0
142000.0 597677.0 0
146000.0 597677.0 0
150000.0 597677.0 0
154000.0 597677.0 0
158000.0 597677.0 0
162000.0 597677.0 0
166000.0 597677.0 0
170000.0 597677.0 0
174000.0 597677.0 0
178000.0 597677.0 0
182000.0 597677.0 0
186000.0 597677.0 0
190000.0 597677.0 0
194000.0 597677.0 0
198000.0 597677.0 0
202000.0 597677.0 0
206000.0 597677.0 0
210000.0 597677.0 0
214000.0 597677.0 0
218000.0 597677.0 0
222000.0 597677.0 0
226000.0 597677.0 0
230000.0 597677.0 0
234000.0 597677.0 0
238000.0 597677.0 0
242000.0 597677.0 0
246000.0 597677.0 0
250000.0 597677.0 0
254000.0 597677.0 0
258000.0 597677.0 0
262000.0 597677.0 0
266000.0 597677.0 0
270000.0 597677.0 0
274000.0 597677.0 0
278000.0 597677.0 0
282000.0 597677.0 0
286000.0 597677.0 0
290000.0 597677.0 0
294000.0 597677.0 0
298000.0 597677.0 0
302000.0 597677.0 0
306000.0 597677.0 0
310000.0 597677.0 0
314000.0 597677.0 0
318000.0 597677.0 0
322000.0 597677.0 0
326000.0 597677.0 0
330000.0 597677.0 0
334000.0 597677.0 0
338000.0 597677.0 0
342000.0 597677.0 0
346000.0 597677.0 0
350000.0 597677.0 0
354000.0 597677.0 0
358000.0 597677.0 0
362000.0 597677.0 0
366000.0 597677.0 0
370000.0 597677.0 0
374000.0 597677.0 0
378000.0 597677.0 0
382000.0 597677.0 0
386000.0 597677.0 0
390000.0 597677.0 0
394000.0 597677.0 0
398000.0 597677.0 0
102000.0 601677.0 0
106000.0 601677.0 0
110000.0 601677.0 0
114000.0 601677.0 0
118000.0 601677.0 0
122000.0 601677.0 0
126000.0 601677.0 0
130000.0 601677.0 0
134000.0 601677.0 0
138000.0 601677.0 0
142000.0 601677.0 0
146000.0 601677.0 0
150000.0 601677.0 0
154000.0 601677.0 0
158000.0 601677.0 0
162000.0 601677.0 0
166000.0 601677.0 0
170000.0 601677.0 0
174000.0 601677.0 0
178000.0 601677.0 0
182000.0 601677.0 0
186000.0 601677.0 0
190000.0 601677.0 0
194000.0 601677.0 0
198000.0 601677.0 0
202000.0 601677.0 0
206000.0 601677.0 0
210000.0 601677.0 0
214000.0 601677.0 0
218000.0 601677.0 0
222000.0 601677.0 0
226000.0 601677.0 0
230000.0 601677.0 0
234000.0 601677.0 0
238000.0 601677.0 0
242000.0 601677.0 0
246000.0 601677.0 0
250000.0 601677.0 0
254000.0 601677.0 0
258000.0 601677.0 0
262000.0 601677.0 0
266000.0 601677.0 0
270000.0 601677.0 0
274000.0 601677.0 0
278000.0 601677.0 0
282000.0 601677.0 0
286000.0 601677.0 0
290000.0 601677.0 0
294000.0 601677.0 0
298000.0 601677.0 0
302000.0 601677.0 0
306000.0 601677.0 0
310000.0 601677.0 0
314000.0 601677.0 0
318000.0 601677.0 0
322000.0 601677.0 0
326000.0 601677.0 0
330000.0 601677.0 0
334000.0 601677.0 0
338000.0 601677.0 0
342000.0 601677.0 0
346000.0 601677.0 0
350000.0 601677.0 0
354000.0 601677.0 0
358000.0 601677.0 0
362000.0 601677.0 0
366000.0 601677.0 0
370000.0 601677.0 0
374000.0 601677.0 0
378000.0 601677.0 0
382000.0 601677.0 0
386000.0 601677.0 0
390000.0 601677.0 0
394000.0 601677.0 0
398000.0 601677.0 0
102000.0 605677.0 0
106000.0 605677.0 0
110000.0 605677.0 0
114000.0 605677.0 0
118000.0 605677.0 0
122000.0 605677.0 0
126000.0 605677.0 0
130000.0 605677.0 0
134000.0 605677.0 0
138000.0 605677.0 0
142000.0 605677.0 0
146000.0 605677.0 0
150000.0 605677.0 0
154000.0 605677.0 0
158000.0 605677.0 0
162000.0 605677.0 0
166000.0 605677.0 0
170000.0 605677.0 0
174000.0 605677.0 0
178000.0 605677.0 0
182000.0 605677.0 0
186000.0 605677.0 0
190000.0 605677.0 0
194000.0 605677.0 0
198000.0 605677.0 0
202000.0 605677.0 0
206000.0 605677.0 0
210000.0 605677.0 0
214000.0 605677.0 0
218000.0 605677.0 0
222000.0 605677.0 0
226000.0 605677.0 0
230000.0 605677.0 0
234000.0 605677.0 0
238000.0 605677.0 0
242000.0 605677.0 0
246000.0 605677.0 0
250000.0 605677.0 0
254000.0 605677.0 0
258000.0 605677.0 0
262000.0 605677.0 0
266000.0 605677.0 0
270000.0 605677.0 0
274000.0 605677.0 0
278000.0 605677.0 0
282000.0 605677.0 0
286000.0 605677.0 0
290000.0 605677.0 0
294000.0 605677.0 0
298000.0 605677.0 0
302000.0 605677.0 0
306000.0 605677.0 0
310000.0 605677.0 0
314000.0 605677.0 0
318000.0 605677.0 0
322000.0 605677.0 0
326000.0 605677.0 0
330000.0 605677.0 0
334000.0 605677.0 0
338000.0 605677.0 0
342000.0 605677.0 0
346000.0 605677.0 0
350000.0 605677.0 0
354000.0 605677.0 0
358000.0 605677.0 0
362000.0 605677.0 0
366000.0 605677.0 0
370000.0 605677.0 0
374000.0 605677.0 0
378000.0 605677.0 0
382000.0 605677.0 0
386000.0 605677.0 0
390000.0 605677.0 0
394000.0 605677.0 0
398000.0 605677.0 0
102000.0 609677.0 0
106000.0 609677.0 0
110000.0 609677.0 0
114000.0 609677.0 0
118000.0 609677.0 0
122000.0 609677.0 0
126000.0 609677.0 0
130000.0 609677.0 0
134000.0 609677.0 0
138000.0 609677.0 0
142000.0 609677.0 0
146000.0 609677.0 0
150000.0 609677.0 0
154000.0 609677.0 0
158000.0 609677.0 0
162000.0 609677.0 0
166000.0 609677.0 0
170000.0 609677.0 0
174000.0 609677.0 0
178000.0 609677.0 0
182000.0 609677.0 0
186000.0 609677.0 0
190000.0 609677.0 0
194000.0 609677.0 0
198000.0 609677.0 0
202000.0 609677.0 0
206000.0 609677.0 0
210000.0 609677.0 0
214000.0 609677.0 0
218000.0 609677.0 0
222000.0 609677.0 0
226000.0 609677.0 0
230000.0 609677.0 0
234000.0 609677.0 0
238000.0 609677.0 0
242000.0 609677.0 0
246000.0 609677.0 0
250000.0 609677.0 0
254000.0 609677.0 0
258000.0 609677.0 0
262000.0 609677.0 0
266000.0 609677.0 0
270000.0 609677.0 0
274000.0 609677.0 0
278000.0 609677.0 0
282000.0 609677.0 0
286000.0 609677.0 0
290000.0 609677.0 0
294000.0 609677.0 0
298000.0 609677.0 0
302000.0 609677.0 0
306000.0 609677.0 0
310000.0 609677.0 0
314000.0 609677.0 0
318000.0 609677.0 0
322000.0 609677.0 0
326000.0 609677.0 0
330000.0 609677.0 0
334000.0 609677.0 0
338000.0 609677.0 0
342000.0 609677.0 0
346000.0 609677.0 0
350000.0 609677.0 0
354000.0 609677.0 0
358000.0 609677.0 0
362000.0 609677.0 0
366000.0 609677.0 0
370000.0 609677.0 0
374000.0 609677.0 0
378000.0 609677.0 0
382000.0 609677.0 0
386000.0 609677.0 0
390000.0 609677.0 0
394000.0 609677.0 0
398000.0 609677.0 0
102000.0 613677.0 0
106000.0 613677.0 0
110000.0 613677.0 0
114000.0 613677.0 0
118000.0 613677.0 0
122000.0 613677.0 0
126000.0 613677.0 0
130000.0 613677.0 0
134000.0 613677.0 0
138000.0 613677.0 0
142000.0 613677.0 0
146000.0 613677.0 0
150000.0 613677.0 0
154000.0 613677.0 0
158000.0 613677.0 0
162000.0 613677.0 0
166000.0 613677.0 0
170000.0 613677.0 0
174000.0 613677.0 0
178000.0 613677.0 0
182000.0 613677.0 0
186000.0 613677.0 0
190000.0 613677.0 0
194000.0 613677.0 0
198000.0 613677.0 0
202000.0 613677.0 0
206000.0 613677.0 0
210000.0 613677.0 0
214000.0 613677.0 0
218000.0 613677.0 0
222000.0 613677.0 0
226000.0 613677.0 0
230000.0 613677.0 0
234000.0 613677.0 0
238000.0 613677.0 0
242000.0 613677.0 0
246000.0 613677.0 0
250000.0 613677.0 0
254000.0 613677.0 0
258000.0 613677.0 0
262000.0 613677.0 0
266000.0 613677.0 0
270000.0 613677.0 0
274000.0 613677.0 0
278000.0 613677.0 0
282000.0 613677.0 0
286000.0 613677.0 0
290000.0 613677.0 0
294000.0 613677.0 0
298000.0 613677.0 0
302000.0 613677.0 0
306000.0 613677.0 0
310000.0 613677.0 0
314000.0 613677.0 0
318000.0 613677.0 0
322000.0 613677.0 0
326000.0 613677.0 0
330000.0 613677.0 0
334000.0 613677.0 0
338000.0 613677.0 0
342000.0 613677.0 0
346000.0 613677.0 0
350000.0 613677.0 0
354000.0 613677.0 0
358000.0 613677.0 0
362000.0 613677.0 0
366000.0 613677.0 0
370000.0 613677.0 0
374000.0 613677.0 0
378000.0 613677.0 0
382000.0 613677.0 0
386000.0 613677.0 0
390000.0 613677.0 0
394000.0 613677.0 0
398000.0 613677.0 0
102000.0 617677.0 0
106000.0 617677.0 0
110000.0 617677.0 0
114000.0 617677.0 0
118000.0 617677.0 0
122000.0 617677.0 0
126000.0 617677.0 0
130000.0 617677.0 0
134000.0 617677.0 0
138000.0 617677.0 0
142000.0 617677.0 0
146000.0 617677.0 0
150000.0 617677.0 0
154000.0 617677.0 0
158000.0 617677.0 0
162000.0 617677.0 0
166000.0 617677.0 0
170000.0 617677.0 0
174000.0 617677.0 0
178000.0 617677.0 0
182000.0 617677.0 0
186000.0 617677.0 0
190000.0 617677.0 0
194000.0 617677.0 0
198000.0 617677.0 0
202000.0 617677.0 0
206000.0 617677.0 0
210000.0 617677.0 0
214000.0 617677.0 0
218000.0 617677.0 0
222000.0 617677.0 0
226000.0 617677.0 0
230000.0 617677.0 0
234000.0 617677.0 0
238000.0 617677.0 0
242000.0 617677.0 0
246000.0 617677.0 0
250000.0 617677.0 0
254000.0 617677.0 0
258000.0 617677.0 0
262000.0 617677.0 0
266000.0 617677.0 0
270000.0 617677.0 0
274000.0 617677.0 0
278000.0 617677.0 0
282000.0 617677.0 0
286000.0 617677.0 0
290000.0 617677.0 0
294000.0 617677.0 0
298000.0 617677.0 0
302000.0 617677.0 0
306000.0 617677.0 0
310000.0 617677.0 0
314000.0 617677.0 0
318000.0 617677.0 0
322000.0 617677.0 0
326000.0 617677.0 0
330000.0 617677.0 0
334000.0 617677.0 0
338000.0 617677.0 0
342000.0 617677.0 0
346000.0 617677.0 0
350000.0 617677.0 0
354000.0 617677.0 0
358000.0 617677.0 0
362000.0 617677.0 0
366000.0 617677.0 0
370000.0 617677.0 0
374000.0 617677.0 0
378000.0 617677.0 0
382000.0 617677.0 0
386000.0 617677.0 0
390000.0 617677.0 0
394000.0 617677.0 0
398000.0 617677.0 0
102000.0 621677.0 0
106000.0 621677.0 0
110000.0 621677.0 0
114000.0 621677.0 0
118000.0 621677.0 0
122000.0 621677.0 0
126000.0 621677.0 0
130000.0 621677.0 0
134000.0 621677.0 0
138000.0 621677.0 0
142000.0 621677.0 0
146000.0 621677.0 0
150000.0 621677.0 0
154000.0 621677.0 0
158000.0 621677.0 0
162000.0 621677.0 0
166000.0 621677.0 0
170000.0 621677.0 0
174000.0 621677.0 0
178000.0 621677.0 0
182000.0 621677.0 0
186000.0 621677.0 0
190000.0 621677.0 0
194000.0 621677.0 0
198000.0 621677.0 0
202000.0 621677.0 0
206000.0 621677.0 0
210000.0 621677.0 0
214000.0 621677.0 0
218000.0 621677.0 0
222000.0 621677.0 0
226000.0 621677.0 0
230000.0 621677.0 0
234000.0 621677.0 0
238000.0 621677.0 0
242000.0 621677.0 0
246000.0 621677.0 0
250000.0 621677.0 0
254000.0 621677.0 0
258000.0 621677.0 0
262000.0 621677.0 0
266000.0 621677.0 0
270000.0 621677.0 0
274000.0 621677.0 0
278000.0 621677.0 0
282000.0 621677.0 0
286000.0 621677.0 0
290000.0 621677.0 0
294000.0 621677.0 0
298000.0 621677.0 0
302000.0 621677.0 0
306000.0 621677.0 0
310000.0 621677.0 0
314000.0 621677.0 0
318000.0 621677.0 0
322000.0 621677.0 0
326000.0 621677.0 0
330000.0 621677.0 0
334000.0 621677.0 0
338000.0 621677.0 0
342000.0 621677.0 0
346000.0 621677.0 0
350000.0 621677.0 0
354000.0 621677.0 0
358000.0 621677.0 0
362000.0 621677.0 0
366000.0 621677.0 0
370000.0 621677.0 0
374000.0 621677.0 0
378000.0 621677.0 0
382000.0 621677.0 0
386000.0 621677.0 0
390000.0 621677.0 0
394000.0 621677.0 0
398000.0 621677.0 0
102000.0 625677.0 0
106000.0 625677.0 0
110000.0 625677.0 0
114000.0 625677.0 0
118000.0 625677.0 0
122000.0 625677.0 0
126000.0 625677.0 0
130000.0 625677.0 0
134000.0 625677.0 0
138000.0 625677.0 0
142000.0 625677.0 0
146000.0 625677.0 0
150000.0 625677.0 0
154000.0 625677.0 0
158000.0 625677.0 0
162000.0 625677.0 0
166000.0 625677.0 0
170000.0 625677.0 0
174000.0 625677.0 0
178000.0 625677.0 0
182000.0 625677.0 0
186000.0 625677.0 0
190000.0 625677.0 0
194000.0 625677.0 0
198000.0 625677.0 0
202000.0 625677.0 0
206000.0 625677.0 0
210000.0 625677.0 0
214000.0 625677.0 0
218000.0 625677.0 0
222000.0 625677.0 0
226000.0 625677.0 0
230000.0 625677.0 0
234000.0 625677.0 0
238000.0 625677.0 0
242000.0 625677.0 0
246000.0 625677.0 0
250000.0 625677.0 0
254000.0 625677.0 0
258000.0 625677.0 0
262000.0 625677.0 0
266000.0 625677.0 0
270000.0 625677.0 0
274000.0 625677.0 0
278000.0 625677.0 0
282000.0 625677.0 0
286000.0 625677.0 0
290000.0 625677.0 0
294000.0 625677.0 0
298000.0 625677.0 0
302000.0 625677.0 0
306000.0 625677.0 0
310000.0 625677.0 0
314000.0 625677.0 0
318000.0 625677.0 0
322000.0 625677.0 0
326000.0 625677.0 0
330000.0 625677.0 0
334000.0 625677.0 0
338000.0 625677.0 0
342000.0 625677.0 0
346000.0 625677.0 0
350000.0 625677.0 0
354000.0 625677.0 0
358000.0 625677.0 0
362000.0 625677.0 0
366000.0 625677.0 0
370000.0 625677.0 0
374000.0 625677.0 0
378000.0 625677.0 0
382000.0 625677.0 0
386000.0 625677.0 0
390000.0 625677.0 0
394000.0 625677.0 0
398000.0 625677.0 0
102000.0 629677.0 0
106000.0 629677.0 0
110000.0 629677.0 0
114000.0 629677.0 0
118000.0 629677.0 0
122000.0 629677.0 0
126000.0 629677.0 0
130000.0 629677.0 0
134000.0 629677.0 0
138000.0 629677.0 0
142000.0 629677.0 0
146000.0 629677.0 0
150000.0 629677.0 0
154000.0 629677.0 0
158000.0 629677.0 0
162000.0 629677.0 0
166000.0 629677.0 0
170000.0 629677.0 0
174000.0 629677.0 0
178000.0 629677.0 0
182000.0 629677.0 0
186000.0 629677.0 0
190000.0 629677.0 0
194000.0 629677.0 0
198000.0 629677.0 0
202000.0 629677.0 0
206000.0 629677.0 0
210000.0 629677.0 0
214000.0 629677.0 0
218000.0 629677.0 0
222000.0 629677.0 0
226000.0 629677.0 0
230000.0 629677.0 0
234000.0 629677.0 0
238000.0 629677.0 0
242000.0 629677.0 0
246000.0 629677.0 0
250000.0 629677.0 0
254000.0 629677.0 0
258000.0 629677.0 0
262000.0 629677.0 0
266000.0 629677.0 0
270000.0 629677.0 0
274000.0 629677.0 0
278000.0 629677.0 0
282000.0 629677.0 0
286000.0 629677.0 0
290000.0 629677.0 0
294000.0 629677.0 0
298000.0 629677.0 0
302000.0 629677.0 0
306000.0 629677.0 0
310000.0 629677.0 0
314000.0 629677.0 0
318000.0 629677.0 0
322000.0 629677.0 0
326000.0 629677.0 0
330000.0 629677.0 0
334000.0 629677.0 0
338000.0 629677.0 0
342000.0 629677.0 0
346000.0 629677.0 0
350000.0 629677.0 0
354000.0 629677.0 0
358000.0 629677.0 0
362000.0 629677.0 0
366000.0 629677.0 0
370000.0 629677.0 0
374000.0 629677.0 0
378000.0 629677.0 0
382000.0 629677.0 0
386000.0 629677.0 0
390000.0 629677.0 0
394000.0 629677.0 0
398000.0 629677.0 0
102000.0 633677.0 0
106000.0 633677.0 0
110000.0 633677.0 0
114000.0 633677.0 0
118000.0 633677.0 0
122000.0 633677.0 0
126000.0 633677.0 0
130000.0 633677.0 0
134000.0 633677.0 0
138000.0 633677.0 0
142000.0 633677.0 0
146000.0 633677.0 0
150000.0 633677.0 0
154000.0 633677.0 0
158000.0 633677.0 0
162000.0 633677.0 0
166000.0 633677.0 0
170000.0 633677.0 0
174000.0 633677.0 0
178000.0 633677.0 0
182000.0 633677.0 0
186000.0 633677.0 0
190000.0 633677.0 0
194000.0 633677.0 0
198000.0 633677.0 0
202000.0 633677.0 0
206000.0 633677.0 0
210000.0 633677.0 0
214000.0 633677.0 0
218000.0 633677.0 0
222000.0 633677.0 0
226000.0 633677.0 0
230000.0 633677.0 0
234000.0 633677.0 0
238000.0 633677.0 0
242000.0 633677.0 0
246000.0 633677.0 0
250000.0 633677.0 0
254000.0 633677.0 0
258000.0 633677.0 0
262000.0 633677.0 0
266000.0 633677.0 0
270000.0 633677.0 0
274000.0 633677.0 0
278000.0 633677.0 0
282000.0 633677.0 0
286000.0 633677.0 0
290000.0 633677.0 0
294000.0 633677.0 0
298000.0 633677.0 0
302000.0 633677.0 0
306000.0 633677.0 0
310000.0 633677.0 0
314000.0 633677.0 0
318000.0 633677.0 0
322000.0 633677.0 0
326000.0 633677.0 0
330000.0 633677.0 0
334000.0 633677.0 0
338000.0 633677.0 0
342000.0 633677.0 0
346000.0 633677.0 0
350000.0 633677.0 0
354000.0 633677.0 0
358000.0 633677.0 0
362000.0 633677.0 0
366000.0 633677.0 0
370000.0 633677.0 0
374000.0 633677.0 0
378000.0 633677.0 0
382000.0 633677.0 0
386000.0 633677.0 0
390000.0 633677.0 0
394000.0 633677.0 0
398000.0 633677.0 0
102000.0 637677.0 0
106000.0 637677.0 0
110000.0 637677.0 0
114000.0 637677.0 0
118000.0 637677.0 0
122000.0 637677.0 0
126000.0 637677.0 0
130000.0 637677.0 0
134000.0 637677.0 0
138000.0 637677.0 0
142000.0 637677.0 0
146000.0 637677.0 0
150000.0 637677.0 0
154000.0 637677.0 0
158000.0 637677.0 0
162000.0 637677.0 0
166000.0 637677.0 0
170000.0 637677.0 0
174000.0 637677.0 0
178000.0 637677.0 0
182000.0 637677.0 0
186000.0 637677.0 0
190000.0 637677.0 0
194000.0 637677.0 0
198000.0 637677.0 0
202000.0 637677.0 0
206000.0 637677.0 0
210000.0 637677.0 0
214000.0 637677.0 0
218000.0 637677.0 0
222000.0 637677.0 0
226000.0 637677.0 0
230000.0 637677.0 0
234000.0 637677.0 0
238000.0 637677.0 0
242000.0 637677.0 0
246000.0 637677.0 0
250000.0 637677.0 0
254000.0 637677.0 0
258000.0 637677.0 0
262000.0 637677.0 0
266000.0 637677.0 0
270000.0 637677.0 0
274000.0 637677.0 0
278000.0 637677.0 0
282000.0 637677.0 0
286000.0 637677.0 0
290000.0 637677.0 0
294000.0 637677.0 0
298000.0 637677.0 0
302000.0 637677.0 0
306000.0 637677.0 0
310000.0 637677.0 0
314000.0 637677.0 0
318000.0 637677.0 0
322000.0 637677.0 0
326000.0 637677.0 0
330000.0 637677.0 0
334000.0 637677.0 0
338000.0 637677.0 0
342000.0 637677.0 0
346000.0 637677.0 0
350000.0 637677.0 0
354000.0 637677.0 0
358000.0 637677.0 0
362000.0 637677.0 0
366000.0 637677.0 0
370000.0 637677.0 0
374000.0 637677.0 0
378000.0 637677.0 0
382000.0 637677.0 0
386000.0 637677.0 0
390000.0 637677.0 0
394000.0 637677.0 0
398000.0 637677.0 0
102000.0 641677.0 0
106000.0 641677.0 0
110000.0 641677.0 0
114000.0 641677.0 0
118000.0 641677.0 0
122000.0 641677.0 0
126000.0 641677.0 0
130000.0 641677.0 0
134000.0 641677.0 0
138000.0 641677.0 0
142000.0 641677.0 0
146000.0 641677.0 0
150000.0 641677.0 0
154000.0 641677.0 0
158000.0 641677.0 0
162000.0 641677.0 0
166000.0 641677.0 0
170000.0 641677.0 0
174000.0 641677.0 0
178000.0 641677.0 0
182000.0 641677.0 0
186000.0 641677.0 0
190000.0 641677.0 0
194000.0 641677.0 0
198000.0 641677.0 0
202000.0 641677.0 0
206000.0 641677.0 0
210000.0 641677.0 0
214000.0 641677.0 0
218000.0 641677.0 0
222000.0 641677.0 0
226000.0 641677.0 0
230000.0 641677.0 0
234000.0 641677.0 0
238000.0 641677.0 0
242000.0 641677.0 0
246000.0 641677.0 0
250000.0 641677.0 0
254000.0 641677.0 0
258000.0 641677.0 0
262000.0 641677.0 0
266000.0 641677.0 0
270000.0 641677.0 0
274000.0 641677.0 0
278000.0 641677.0 0
282000.0 641677.0 0
286000.0 641677.0 0
290000.0 641677.0 0
294000.0 641677.0 0
298000.0 641677.0 0
302000.0 641677.0 0
306000.0 641677.0 0
310000.0 641677.0 0
314000.0 641677.0 0
318000.0 641677.0 0
322000.0 641677.0 0
326000.0 641677.0 0
330000.0 641677.0 0
334000.0 641677.0 0
338000.0 641677.0 0
342000.0 641677.0 0
346000.0 641677.0 0
350000.0 641677.0 0
354000.0 641677.0 0
358000.0 641677.0 0
362000.0 641677.0 0
366000.0 641677.0 0
370000.0 641677.0 0
374000.0 641677.0 0
378000.0 641677.0 0
382000.0 641677.0 0
386000.0 641677.0 0
390000.0 641677.0 0
394000.0 641677.0 0
398000.0 641677.0 0
102000.0 645677.0 0
106000.0 645677.0 0
110000.0 645677.0 0
114000.0 645677.0 0
118000.0 645677.0 0
122000.0 645677.0 0
126000.0 645677.0 0
130000.0 645677.0 0
134000.0 645677.0 0
138000.0 645677.0 0
142000.0 645677.0 0
146000.0 645677.0 0
150000.0 645677.0 0
154000.0 645677.0 0
158000.0 645677.0 0
162000.0 645677.0 0
166000.0 645677.0 0
170000.0 645677.0 0
174000.0 645677.0 0
178000.0 645677.0 0
182000.0 645677.0 0
186000.0 645677.0 0
190000.0 645677.0 0
194000.0 645677.0 0
198000.0 645677.0 0
202000.0 645677.0 0
206000.0 645677.0 0
210000.0 645677.0 0
214000.0 645677.0 0
218000.0 645677.0 0
222000.0 645677.0 0
226000.0 645677.0 0
230000.0 645677.0 0
234000.0 645677.0 0
238000.0 645677.0 0
242000.0 645677.0 0
246000.0 645677.0 0
250000.0 645677.0 0
254000.0 645677.0 0
258000.0 645677.0 0
262000.0 645677.0 0
266000.0 645677.0 0
270000.0 645677.0 0
274000.0 645677.0 0
278000.0 645677.0 0
282000.0 645677.0 0
286000.0 645677.0 0
290000.0 645677.0 0
294000.0 645677.0 0
298000.0 645677.0 0
302000.0 645677.0 0
306000.0 645677.0 0
310000.0 645677.0 0
314000.0 645677.0 0
318000.0 645677.0 0
322000.0 645677.0 0
326000.0 645677.0 0
330000.0 645677.0 0
334000.0 645677.0 0
338000.0 645677.0 0
342000.0 645677.0 0
346000.0 645677.0 0
350000.0 645677.0 0
354000.0 645677.0 0
358000.0 645677.0 0
362000.0 645677.0 0
366000.0 645677.0 0
370000.0 645677.0 0
374000.0 645677.0 0
378000.0 645677.0 0
382000.0 645677.0 0
386000.0 645677.0 0
390000.0 645677.0 0
394000.0 645677.0 0
398000.0 645677.0 0
102000.0 649677.0 0
106000.0 649677.0 0
110000.0 649677.0 0
114000.0 649677.0 0
118000.0 649677.0 0
122000.0 649677.0 0
126000.0 649677.0 0
130000.0 649677.0 0
134000.0 649677.0 0
138000.0 649677.0 0
142000.0 649677.0 0
146000.0 649677.0 0
150000.0 649677.0 0
154000.0 649677.0 0
158000.0 649677.0 0
162000.0 649677.0 0
166000.0 649677.0 0
170000.0 649677.0 0
174000.0 649677.0 0
178000.0 649677.0 0
182000.0 649677.0 0
186000.0 649677.0 0
190000.0 649677.0 0
194000.0 649677.0 0
198000.0 649677.0 0
202000.0 649677.0 0
206000.0 649677.0 0
210000.0 649677.0 0
214000.0 649677.0 0
218000.0 649677.0 0
222000.0 649677.0 0
226000.0 649677.0 0
230000.0 649677.0 0
234000.0 649677.0 0
238000.0 649677.0 0
242000.0 649677.0 0
246000.0 649677.0 0
250000.0 649677.0 0
254000.0 649677.0 0
258000.0 649677.0 0
262000.0 649677.0 0
266000.0 649677.0 0
270000.0 649677.0 0
274000.0 649677.0 0
278000.0 649677.0 0
282000.0 649677.0 0
286000.0 649677.0 0
290000.0 649677.0 0
294000.0 649677.0 0
298000.0 649677.0 0
302000.0 649677.0 0
306000.0 649677.0 0
310000.0 649677.0 0
314000.0 649677.0 0
318000.0 649677.0 0
322000.0 649677.0 0
326000.0 649677.0 0
330000.0 649677.0 0
334000.0 649677.0 0
338000.0 649677.0 0
342000.0 649677.0 0
346000.0 649677.0 0
350000.0 649677.0 0
354000.0 649677.0 0
358000.0 649677.0 0
362000.0 649677.0 0
366000.0 649677.0 0
370000.0 649677.0 0
374000.0 649677.0 0
378000.0 649677.0 0
382000.0 649677.0 0
386000.0 649677.0 0
390000.0 649677.0 0
394000.0 649677.0 0
398000.0 649677.0 0
102000.0 653677.0 0
106000.0 653677.0 0
110000.0 653677.0 0
114000.0 653677.0 0
118000.0 653677.0 0
122000.0 653677.0 0
126000.0 653677.0 0
130000.0 653677.0 0
134000.0 653677.0 0
138000.0 653677.0 0
142000.0 653677.0 0
146000.0 653677.0 0
150000.0 653677.0 0
154000.0 653677.0 0
158000.0 653677.0 0
162000.0 653677.0 0
166000.0 653677.0 0
170000.0 653677.0 0
174000.0 653677.0 0
178000.0 653677.0 0
182000.0 653677.0 0
186000.0 653677.0 0
190000.0 653677.0 0
194000.0 653677.0 0
198000.0 653677.0 0
202000.0 653677.0 0
206000.0 653677.0 0
210000.0 653677.0 0
214000.0 653677.0 0
218000.0 653677.0 0
222000.0 653677.0 0
226000.0 653677.0 0
230000.0 653677.0 0
234000.0 653677.0 0
238000.0 653677.0 0
242000.0 653677.0 0
246000.0 653677.0 0
250000.0 653677.0 0
254000.0 653677.0 0
258000.0 653677.0 0
262000.0 653677.0 0
266000.0 653677.0 0
270000.0 653677.0 0
274000.0 653677.0 0
278000.0 653677.0 0
282000.0 653677.0 0
286000.0 653677.0 0
290000.0 653677.0 0
294000.0 653677.0 0
298000.0 653677.0 0
302000.0 653677.0 0
306000.0 653677.0 0
310000.0 653677.0 0
314000.0 653677.0 0
318000.0 653677.0 0
322000.0 653677.0 0
326000.0 653677.0 0
330000.0 653677.0 0
334000.0 653677.0 0
338000.0 653677.0 0
342000.0 653677.0 0
346000.0 653677.0 0
350000.0 653677.0 0
354000.0 653677.0 0
358000.0 653677.0 0
362000.0 653677.0 0
366000.0 653677.0 0
370000.0 653677.0 0
374000.0 653677.0 0
378000.0 653677.0 0
382000.0 653677.0 0
386000.0 653677.0 0
390000.0 653677.0 0
394000.0 653677.0 0
398000.0 653677.0 0
102000.0 657677.0 0
106000.0 657677.0 0
110000.0 657677.0 0
114000.0 657677.0 0
118000.0 657677.0 0
122000.0 657677.0 0
126000.0 657677.0 0
130000.0 657677.0 0
134000.0 657677.0 0
138000.0 657677.0 0
142000.0 657677.0 0
146000.0 657677.0 0
150000.0 657677.0 0
154000.0 657677.0 0
158000.0 657677.0 0
162000.0 657677.0 0
166000.0 657677.0 0
170000.0 657677.0 0
174000.0 657677.0 0
178000.0 657677.0 0
182000.0 657677.0 0
186000.0 657677.0 0
190000.0 657677.0 0
194000.0 657677.0 0
198000.0 657677.0 0
202000.0 657677.0 0
206000.0 657677.0 0
210000.0 657677.0 0
214000.0 657677.0 0
218000.0 657677.0 0
222000.0 657677.0 0
226000.0 657677.0 0
230000.0 657677.0 0
234000.0 657677.0 0
238000.0 657677.0 0
242000.0 657677.0 0
246000.0 657677.0 0
250000.0 657677.0 0
254000.0 657677.0 0
258000.0 657677.0 0
262000.0 657677.0 0
266000.0 657677.0 0
270000.0 657677.0 0
274000.0 657677.0 0
278000.0 657677.0 0
282000.0 657677.0 0
286000.0 657677.0 0
290000.0 657677.0 0
294000.0 657677.0 0
298000.0 657677.0 0
302000.0 657677.0 0
306000.0 657677.0 0
310000.0 657677.0 0
314000.0 657677.0 0
318000.0 657677.0 0
322000.0 657677.0 0
326000.0 657677.0 0
330000.0 657677.0 0
334000.0 657677.0 0
338000.0 657677.0 0
342000.0 657677.0 0
346000.0 657677.0 0
350000.0 657677.0 0
354000.0 657677.0 0
358000.0 657677.0 0
362000.0 657677.0 0
366000.0 657677.0 0
370000.0 657677.0 0
374000.0 657677.0 0
378000.0 657677.0 0
382000.0 657677.0 0
386000.0 657677.0 0
390000.0 657677.0 0
394000.0 657677.0 0
398000.0 657677.0 0
102000.0 661677.0 0
106000.0 661677.0 0
110000.0 661677.0 0
114000.0 661677.0 0
118000.0 661677.0 0
122000.0 661677.0 0
126000.0 661677.0 0
130000.0 661677.0 0
134000.0 661677.0 0
138000.0 661677.0 0
142000.0 661677.0 0
146000.0 661677.0 0
150000.0 661677.0 0
154000.0 661677.0 0
158000.0 661677.0 0
162000.0 661677.0 0
166000.0 661677.0 0
170000.0 661677.0 0
174000.0 661677.0 0
178000.0 661677.0 0
182000.0 661677.0 0
186000.0 661677.0 0
190000.0 661677.0 0
194000.0 661677.0 0
198000.0 661677.0 0
202000.0 661677.0 0
206000.0 661677.0 0
210000.0 661677.0 0
214000.0 661677.0 0
218000.0 661677.0 0
222000.0 661677.0 0
226000.0 661677.0 0
230000.0 661677.0 0
234000.0 661677.0 0
238000.0 661677.0 0
242000.0 661677.0 0
246000.0 661677.0 0
250000.0 661677.0 0
254000.0 661677.0 0
258000.0 661677.0 0
262000.0 661677.0 0
266000.0 661677.0 0
270000.0 661677.0 0
274000.0 661677.0 0
278000.0 661677.0 0
282000.0 661677.0 0
286000.0 661677.0 0
290000.0 661677.0 0
294000.0 661677.0 0
298000.0 661677.0 0
302000.0 661677.0 0
306000.0 661677.0 0
310000.0 661677.0 0
314000.0 661677.0 0
318000.0 661677.0 0
322000.0 661677.0 0
326000.0 661677.0 0
330000.0 661677.0 0
334000.0 661677.0 0
338000.0 661677.0 0
342000.0 661677.0 0
346000.0 661677.0 0
350000.0 661677.0 0
354000.0 661677.0 0
358000.0 661677.0 0
362000.0 661677.0 0
366000.0 661677.0 0
370000.0 661677.0 0
374000.0 661677.0 0
378000.0 661677.0 0
382000.0 661677.0 0
386000.0 661677.0 0
390000.0 661677.0 0
394000.0 661677.0 0
398000.0 661677.0 0
102000.0 665677.0 0
106000.0 665677.0 0
110000.0 665677.0 0
114000.0 665677.0 0
118000.0 665677.0 0
122000.0 665677.0 0
126000.0 665677.0 0
130000.0 665677.0 0
134000.0 665677.0 0
138000.0 665677.0 0
142000.0 665677.0 0
146000.0 665677.0 0
150000.0 665677.0 0
154000.0 665677.0 0
158000.0 665677.0 0
162000.0 665677.0 0
166000.0 665677.0 0
170000.0 665677.0 0
174000.0 665677.0 0
178000.0 665677.0 0
182000.0 665677.0 0
186000.0 665677.0 0
190000.0 665677.0 0
194000.0 665677.0 0
198000.0 665677.0 0
202000.0 665677.0 0
206000.0 665677.0 0
210000.0 665677.0 0
214000.0 665677.0 0
218000.0 665677.0 0
222000.0 665677.0 0
226000.0 665677.0 0
230000.0 665677.0 0
234000.0 665677.0 0
238000.0 665677.0 0
242000.0 665677.0 0
246000.0 665677.0 0
250000.0 665677.0 0
254000.0 665677.0 0
258000.0 665677.0 0
262000.0 665677.0 0
266000.0 665677.0 0
270000.0 665677.0 0
274000.0 665677.0 0
278000.0 665677.0 0
282000.0 665677.0 0
286000.0 665677.0 0
290000.0 665677.0 0
294000.0 665677.0 0
298000.0 665677.0 0
302000.0 665677.0 0
306000.0 665677.0 0
310000.0 665677.0 0
314000.0 665677.0 0
318000.0 665677.0 0
322000.0 665677.0 0
326000.0 665677.0 0
330000.0 665677.0 0
334000.0 665677.0 0
338000.0 665677.0 0
342000.0 665677.0 0
346000.0 665677.0 0
350000.0 665677.0 0
354000.0 665677.0 0
358000.0 665677.0 0
362000.0 665677.0 0
366000.0 665677.0 0
370000.0 665677.0 0
374000.0 665677.0 0
378000.0 665677.0 0
382000.0 665677.0 0
386000.0 665677.0 0
390000.0 665677.0 0
394000.0 665677.0 0
398000.0 665677.0 0
102000.0 669677.0 0
106000.0 669677.0 0
110000.0 669677.0 0
114000.0 669677.0 0
118000.0 669677.0 0
122000.0 669677.0 0
126000.0 669677.0 0
130000.0 669677.0 0
134000.0 669677.0 0
138000.0 669677.0 0
142000.0 669677.0 0
146000.0 669677.0 0
150000.0 669677.0 0
154000.0 669677.0 0
158000.0 669677.0 0
162000.0 669677.0 0
166000.0 669677.0 0
170000.0 669677.0 0
174000.0 669677.0 0
178000.0 669677.0 0
182000.0 669677.0 0
186000.0 669677.0 0
190000.0 669677.0 0
194000.0 669677.0 0
198000.0 669677.0 0
202000.0 669677.0 0
206000.0 669677.0 0
210000.0 669677.0 0
214000.0 669677.0 0
218000.0 669677.0 0
222000.0 669677.0 0
226000.0 669677.0 0
230000.0 669677.0 0
234000.0 669677.0 0
238000.0 669677.0 0
242000.0 669677.0 0
246000.0 669677.0 0
250000.0 669677.0 0
254000.0 669677.0 0
258000.0 669677.0 0
262000.0 669677.0 0
266000.0 669677.0 0
270000.0 669677.0 0
274000.0 669677.0 0
278000.0 669677.0 0
282000.0 669677.0 0
286000.0 669677.0 0
290000.0 669677.0 0
294000.0 669677.0 0
298000.0 669677.0 0
302000.0 669677.0 0
306000.0 669677.0 0
310000.0 669677.0 0
314000.0 669677.0 0
318000.0 669677.0 0
322000.0 669677.0 0
326000.0 669677.0 0
330000.0 669677.0 0
334000.0 669677.0 0
338000.0 669677.0 0
342000.0 669677.0 0
346000.0 669677.0 0
350000.0 669677.0 0
354000.0 669677.0 0
358000.0 669677.0 0
362000.0 669677.0 0
366000.0 669677.0 0
370000.0 669677.0 0
374000.0 669677.0 0
378000.0 669677.0 0
382000.0 669677.0 0
386000.0 669677.0 0
390000.0 669677.0 0
394000.0 669677.0 0
398000.0 669677.0 0
102000.0 673677.0 0
106000.0 673677.0 0
110000.0 673677.0 0
114000.0 673677.0 0
118000.0 673677.0 0
122000.0 673677.0 0
126000.0 673677.0 0
130000.0 673677.0 0
134000.0 673677.0 0
138000.0 673677.0 0
142000.0 673677.0 0
146000.0 673677.0 0
150000.0 673677.0 0
154000.0 673677.0 0
158000.0 673677.0 0
162000.0 673677.0 0
166000.0 673677.0 0
170000.0 673677.0 0
174000.0 673677.0 0
178000.0 673677.0 0
182000.0 673677.0 0
186000.0 673677.0 0
190000.0 673677.0 0
194000.0 673677.0 0
198000.0 673677.0 0
202000.0 673677.0 0
206000.0 673677.0 0
210000.0 673677.0 0
214000.0 673677.0 0
218000.0 673677.0 0
222000.0 673677.0 0
226000.0 673677.0 0
230000.0 673677.0 0
234000.0 673677.0 0
238000.0 673677.0 0
242000.0 673677.0 0
246000.0 673677.0 0
250000.0 673677.0 0
254000.0 673677.0 0
258000.0 673677.0 0
262000.0 673677.0 0
266000.0 673677.0 0
270000.0 673677.0 0
274000.0 673677.0 0
278000.0 673677.0 0
282000.0 673677.0 0
286000.0 673677.0 0
290000.0 673677.0 0
294000.0 673677.0 0
298000.0 673677.0 0
302000.0 673677.0 0
306000.0 673677.0 0
310000.0 673677.0 0
314000.0 673677.0 0
318000.0 673677.0 0
322000.0 673677.0 0
326000.0 673677.0 0
330000.0 673677.0 0
334000.0 673677.0 0
338000.0 673677.0 0
342000.0 673677.0 0
346000.0 673677.0 0
350000.0 673677.0 0
354000.0 673677.0 0
358000.0 673677.0 0
362000.0 673677.0 0
366000.0 673677.0 0
370000.0 673677.0 0
374000.0 673677.0 0
378000.0 673677.0 0
382000.0 673677.0 0
386000.0 673677.0 0
390000.0 673677.0 0
394000.0 673677.0 0
398000.0 673677.0 0
102000.0 677677.0 0
106000.0 677677.0 0
110000.0 677677.0 0
114000.0 677677.0 0
118000.0 677677.0 0
122000.0 677677.0 0
126000.0 677677.0 0
130000.0 677677.0 0
134000.0 677677.0 0
138000.0 677677.0 0
142000.0 677677.0 0
146000.0 677677.0 0
150000.0 677677.0 0
154000.0 677677.0 0
158000.0 677677.0 0
162000.0 677677.0 0
166000.0 677677.0 0
170000.0 677677.0 0
174000.0 677677.0 0
178000.0 677677.0 0
182000.0 677677.0 0
186000.0 677677.0 0
190000.0 677677.0 0
194000.0 677677.0 0
198000.0 677677.0 0
202000.0 677677.0 0
206000.0 677677.0 0
210000.0 677677.0 0
214000.0 677677.0 0
218000.0 677677.0 0
222000.0 677677.0 0
226000.0 677677.0 0
230000.0 677677.0 0
234000.0 677677.0 0
238000.0 677677.0 0
242000.0 677677.0 0
246000.0 677677.0 0
250000.0 677677.0 0
254000.0 677677.0 0
258000.0 677677.0 0
262000.0 677677.0 0
266000.0 677677.0 0
270000.0 677677.0 0
274000.0 677677.0 0
278000.0 677677.0 0
282000.0 677677.0 0
286000.0 677677.0 0
290000.0 677677.0 0
294000.0 677677.0 0
298000.0 677677.0 0
302000.0 677677.0 0
306000.0 677677.0 0
310000.0 677677.0 0
314000.0 677677.0 0
318000.0 677677.0 0
322000.0 677677.0 0
326000.0 677677.0 0
330000.0 677677.0 0
334000.0 677677.0 0
338000.0 677677.0 0
342000.0 677677.0 0
346000.0 677677.0 0
350000.0 677677.0 0
354000.0 677677.0 0
358000.0 677677.0 0
362000.0 677677.0 0
366000.0 677677.0 0
370000.0 677677.0 0
374000.0 677677.0 0
378000.0 677677.0 0
382000.0 677677.0 0
386000.0 677677.0 0
390000.0 677677.0 0
394000.0 677677.0 0
398000.0 677677.0 0
102000.0 681677.0 0
106000.0 681677.0 0
110000.0 681677.0 0
114000.0 681677.0 0
118000.0 681677.0 0
122000.0 681677.0 0
126000.0 681677.0 0
130000.0 681677.0 0
134000.0 681677.0 0
138000.0 681677.0 0
142000.0 681677.0 0
146000.0 681677.0 0
150000.0 681677.0 0
154000.0 681677.0 0
158000.0 681677.0 0
162000.0 681677.0 0
166000.0 681677.0 0
170000.0 681677.0 0
174000.0 681677.0 0
178000.0 681677.0 0
182000.0 681677.0 0
186000.0 681677.0 0
190000.0 681677.0 0
194000.0 681677.0 0
198000.0 681677.0 0
202000.0 681677.0 0
206000.0 681677.0 0
210000.0 681677.0 0
214000.0 681677.0 0
218000.0 681677.0 0
222000.0 681677.0 0
226000.0 681677.0 0
230000.0 681677.0 0
234000.0 681677.0 0
238000.0 681677.0 0
242000.0 681677.0 0
246000.0 681677.0 0
250000.0 681677.0 0
254000.0 681677.0 0
258000.0 681677.0 0
262000.0 681677.0 0
266000.0 681677.0 0
270000.0 681677.0 0
274000.0 681677.0 0
278000.0 681677.0 0
282000.0 681677.0 0
286000.0 681677.0 0
290000.0 681677.0 0
294000.0 681677.0 0
298000.0 681677.0 0
302000.0 681677.0 0
306000.0 681677.0 0
310000.0 681677.0 0
314000.0 681677.0 0
318000.0 681677.0 0
322000.0 681677.0 0
326000.0 681677.0 0
330000.0 681677.0 0
334000.0 681677.0 0
338000.0 681677.0 0
342000.0 681677.0 0
346000.0 681677.0 0
350000.0 681677.0 0
354000.0 681677.0 0
358000.0 681677.0 0
362000.0 681677.0 0
366000.0 681677.0 0
370000.0 681677.0 0
374000.0 681677.0 0
378000.0 681677.0 0
382000.0 681677.0 0
386000.0 681677.0 0
390000.0 681677.0 0
394000.0 681677.0 0
398000.0 681677.0 0
102000.0 685677.0 0
106000.0 685677.0 0
110000.0 685677.0 0
114000.0 685677.0 0
118000.0 685677.0 0
122000.0 685677.0 0
126000.0 685677.0 0
130000.0 685677.0 0
134000.0 685677.0 0
138000.0 685677.0 0
142000.0 685677.0 0
146000.0 685677.0 0
150000.0 685677.0 0
154000.0 685677.0 0
158000.0 685677.0 0
162000.0 685677.0 0
166000.0 685677.0 0
170000.0 685677.0 0
174000.0 685677.0 0
178000.0 685677.0 0
182000.0 685677.0 0
186000.0 685677.0 0
190000.0 685677.0 0
194000.0 685677.0 0
198000.0 685677.0 0
202000.0 685677.0 0
206000.0 685677.0 0
210000.0 685677.0 0
214000.0 685677.0 0
218000.0 685677.0 0
222000.0 685677.0 0
226000.0 685677.0 0
230000.0 685677.0 0
234000.0 685677.0 0
238000.0 685677.0 0
242000.0 685677.0 0
246000.0 685677.0 0
250000.0 685677.0 0
254000.0 685677.0 0
258000.0 685677.0 0
262000.0 685677.0 0
266000.0 685677.0 0
270000.0 685677.0 0
274000.0 685677.0 0
278000.0 685677.0 0
282000.0 685677.0 0
286000.0 685677.0 0
290000.0 685677.0 0
294000.0 685677.0 0
298000.0 685677.0 0
302000.0 685677.0 0
306000.0 685677.0 0
310000.0 685677.0 0
314000.0 685677.0 0
318000.0 685677.0 0
322000.0 685677.0 0
326000.0 685677.0 0
330000.0 685677.0 0
334000.0 685677.0 0
338000.0 685677.0 0
342000.0 685677.0 0
346000.0 685677.0 0
350000.0 685677.0 0
354000.0 685677.0 0
358000.0 685677.0 0
362000.0 685677.0 0
366000.0 685677.0 0
370000.0 685677.0 0
374000.0 685677.0 0
378000.0 685677.0 0
382000.0 685677.0 0
386000.0 685677.0 0
390000.0 685677.0 0
394000.0 685677.0 0
398000.0 685677.0 0
102000.0 689677.0 0
106000.0 689677.0 0
110000.0 689677.0 0
114000.0 689677.0 0
118000.0 689677.0 0
122000.0 689677.0 0
126000.0 689677.0 0
130000.0 689677.0 0
134000.0 689677.0 0
138000.0 689677.0 0
142000.0 689677.0 0
146000.0 689677.0 0
150000.0 689677.0 0
154000.0 689677.0 0
158000.0 689677.0 0
162000.0 689677.0 0
166000.0 689677.0 0
170000.0 689677.0 0
174000.0 689677.0 0
178000.0 689677.0 0
182000.0 689677.0 0
186000.0 689677.0 0
190000.0 689677.0 0
194000.0 689677.0 0
198000.0 689677.0 0
202000.0 689677.0 0
206000.0 689677.0 0
210000.0 689677.0 0
214000.0 689677.0 0
218000.0 689677.0 0
222000.0 689677.0 0
226000.0 689677.0 0
230000.0 689677.0 0
234000.0 689677.0 0
238000.0 689677.0 0
242000.0 689677.0 0
246000.0 689677.0 0
250000.0 689677.0 0
254000.0 689677.0 0
258000.0 689677.0 0
262000.0 689677.0 0
266000.0 689677.0 0
270000.0 689677.0 0
274000.0 689677.0 0
278000.0 689677.0 0
282000.0 689677.0 0
286000.0 689677.0 0
290000.0 689677.0 0
294000.0 689677.0 0
298000.0 689677.0 0
302000.0 689677.0 0
306000.0 689677.0 0
310000.0 689677.0 0
314000.0 689677.0 0
318000.0 689677.0 0
322000.0 689677.0 0
326000.0 689677.0 0
330000.0 689677.0 0
334000.0 689677.0 0
338000.0 689677.0 0
342000.0 689677.0 0
346000.0 689677.0 0
350000.0 689677.0 0
354000.0 689677.0 0
358000.0 689677.0 0
362000.0 689677.0 0
366000.0 689677.0 0
370000.0 689677.0 0
374000.0 689677.0 0
378000.0 689677.0 0
382000.0 689677.0 0
386000.0 689677.0 0
390000.0 689677.0 0
394000.0 689677.0 0
398000.0 689677.0 0
102000.0 693677.0 0
106000.0 693677.0 0
110000.0 693677.0 0
114000.0 693677.0 0
118000.0 693677.0 0
122000.0 693677.0 0
126000.0 693677.0 0
130000.0 693677.0 0
134000.0 693677.0 0
138000.0 693677.0 0
142000.0 693677.0 0
146000.0 693677.0 0
150000.0 693677.0 0
154000.0 693677.0 0
158000.0 693677.0 0
162000.0 693677.0 0
166000.0 693677.0 0
170000.0 693677.0 0
174000.0 693677.0 0
178000.0 693677.0 0
182000.0 693677.0 0
186000.0 693677.0 0
190000.0 693677.0 0
194000.0 693677.0 0
198000.0 693677.0 0
202000.0 693677.0 0
206000.0 693677.0 0
210000.0 693677.0 0
214000.0 693677.0 0
218000.0 693677.0 0
222000.0 693677.0 0
226000.0 693677.0 0
230000.0 693677.0 0
234000.0 693677.0 0
238000.0 693677.0 0
242000.0 693677.0 0
246000.0 693677.0 0
250000.0 693677.0 0
254000.0 693677.0 0
258000.0 693677.0 0
262000.0 693677.0 0
266000.0 693677.0 0
270000.0 693677.0 0
274000.0 693677.0 0
278000.0 693677.0 0
282000.0 693677.0 0
286000.0 693677.0 0
290000.0 693677.0 0
294000.0 693677.0 0
298000.0 693677.0 0
302000.0 693677.0 0
306000.0 693677.0 0
310000.0 693677.0 0
314000.0 693677.0 0
318000.0 693677.0 0
322000.0 693677.0 0
326000.0 693677.0 0
330000.0 693677.0 0
334000.0 693677.0 0
338000.0 693677.0 0
342000.0 693677.0 0
346000.0 693677.0 0
350000.0 693677.0 0
354000.0 693677.0 0
358000.0 693677.0 0
362000.0 693677.0 0
366000.0 693677.0 0
370000.0 693677.0 0
374000.0 693677.0 0
378000.0 693677.0 0
382000.0 693677.0 0
386000.0 693677.0 0
390000.0 693677.0 0
394000.0 693677.0 0
398000.0 693677.0 0
102000.0 697677.0 0
106000.0 697677.0 0
110000.0 697677.0 0
114000.0 697677.0 0
118000.0 697677.0 0
122000.0 697677.0 0
126000.0 697677.0 0
130000.0 697677.0 0
134000.0 697677.0 0
138000.0 697677.0 0
142000.0 697677.0 0
146000.0 697677.0 0
150000.0 697677.0 0
154000.0 697677.0 0
158000.0 697677.0 0
162000.0 697677.0 0
166000.0 697677.0 0
170000.0 697677.0 0
174000.0 697677.0 0
178000.0 697677.0 0
182000.0 697677.0 0
186000.0 697677.0 0
190000.0 697677.0 0
194000.0 697677.0 0
198000.0 697677.0 0
202000.0 697677.0 0
206000.0 697677.0 0
210000.0 697677.0 0
214000.0 697677.0 0
218000.0 697677.0 0
222000.0 697677.0 0
226000.0 697677.0 0
230000.0 697677.0 0
234000.0 697677.0 0
238000.0 697677.0 0
242000.0 697677.0 0
246000.0 697677.0 0
250000.0 697677.0 0
254000.0 697677.0 0
258000.0 697677.0 0
262000.0 697677.0 0
266000.0 697677.0 0
270000.0 697677.0 0
274000.0 697677.0 0
278000.0 697677.0 0
282000.0 697677.0 0
286000.0 697677.0 0
290000.0 697677.0 0
294000.0 697677.0 0
298000.0 697677.0 0
302000.0 697677.0 0
306000.0 697677.0 0
310000.0 697677.0 0
314000.0 697677.0 0
318000.0 697677.0 0
322000.0 697677.0 0
326000.0 697677.0 0
330000.0 697677.0 0
334000.0 697677.0 0
338000.0 697677.0 0
342000.0 697677.0 0
346000.0 697677.0 0
350000.0 697677.0 0
354000.0 697677.0 0
358000.0 697677.0 0
362000.0 697677.0 0
366000.0 697677.0 0
370000.0 697677.0 0
374000.0 697677.0 0
378000.0 697677.0 0
382000.0 697677.0 0
386000.0 697677.0 0
390000.0 697677.0 0
394000.0 697677.0 0
398000.0 697677.0 0
102000.0 701677.0 0
106000.0 701677.0 0
110000.0 701677.0 0
114000.0 701677.0 0
118000.0 701677.0 0
122000.0 701677.0 0
126000.0 701677.0 0
130000.0 701677.0 0
134000.0 701677.0 0
138000.0 701677.0 0
142000.0 701677.0 0
146000.0 701677.0 0
150000.0 701677.0 0
154000.0 701677.0 0
158000.0 701677.0 0
162000.0 701677.0 0
166000.0 701677.0 0
170000.0 701677.0 0
174000.0 701677.0 0
178000.0 701677.0 0
182000.0 701677.0 0
186000.0 701677.0 0
190000.0 701677.0 0
194000.0 701677.0 0
198000.0 701677.0 0
202000.0 701677.0 0
206000.0 701677.0 0
210000.0 701677.0 0
214000.0 701677.0 0
218000.0 701677.0 0
222000.0 701677.0 0
226000.0 701677.0 0
230000.0 701677.0 0
234000.0 701677.0 0
238000.0 701677.0 0
242000.0 701677.0 0
246000.0 701677.0 0
250000.0 701677.0 0
254000.0 701677.0 0
258000.0 701677.0 0
262000.0 701677.0 0
266000.0 701677.0 0
270000.0 701677.0 0
274000.0 701677.0 0
278000.0 701677.0 0
282000.0 701677.0 0
286000.0 701677.0 0
290000.0 701677.0 0
294000.0 701677.0 0
298000.0 701677.0 0
302000.0 701677.0 0
306000.0 701677.0 0
310000.0 701677.0 0
314000.0 701677.0 0
318000.0 701677.0 0
322000.0 701677.0 0
326000.0 701677.0 0
330000.0 701677.0 0
334000.0 701677.0 0
338000.0 701677.0 0
342000.0 701677.0 0
346000.0 701677.0 0
350000.0 701677.0 0
354000.0 701677.0 0
358000.0 701677.0 0
362000.0 701677.0 0
366000.0 701677.0 0
370000.0 701677.0 0
374000.0 701677.0 0
378000.0 701677.0 0
382000.0 701677.0 0
386000.0 701677.0 0
390000.0 701677.0 0
394000.0 701677.0 0
398000.0 701677.0 0
102000.0 705677.0 0
106000.0 705677.0 0
110000.0 705677.0 0
114000.0 705677.0 0
118000.0 705677.0 0
122000.0 705677.0 0
126000.0 705677.0 0
130000.0 705677.0 0
134000.0 705677.0 0
138000.0 705677.0 0
142000.0 705677.0 0
146000.0 705677.0 0
150000.0 705677.0 0
154000.0 705677.0 0
158000.0 705677.0 0
162000.0 705677.0 0
166000.0 705677.0 0
170000.0 705677.0 0
174000.0 705677.0 0
178000.0 705677.0 0
182000.0 705677.0 0
186000.0 705677.0 0
190000.0 705677.0 0
194000.0 705677.0 0
198000.0 705677.0 0
202000.0 705677.0 0
206000.0 705677.0 0
210000.0 705677.0 0
214000.0 705677.0 0
218000.0 705677.0 0
222000.0 705677.0 0
226000.0 705677.0 0
230000.0 705677.0 0
234000.0 705677.0 0
238000.0 705677.0 0
242000.0 705677.0 0
246000.0 705677.0 0
250000.0 705677.0 0
254000.0 705677.0 0
258000.0 705677.0 0
262000.0 705677.0 0
266000.0 705677.0 0
270000.0 705677.0 0
274000.0 705677.0 0
278000.0 705677.0 0
282000.0 705677.0 0
286000.0 705677.0 0
290000.0 705677.0 0
294000.0 705677.0 0
298000.0 705677.0 0
302000.0 705677.0 0
306000.0 705677.0 0
310000.0 705677.0 0
314000.0 705677.0 0
318000.0 705677.0 0
322000.0 705677.0 0
326000.0 705677.0 0
330000.0 705677.0 0
334000.0 705677.0 0
338000.0 705677.0 0
342000.0 705677.0 0
346000.0 705677.0 0
350000.0 705677.0 0
354000.0 705677.0 0
358000.0 705677.0 0
362000.0 705677.0 0
366000.0 705677.0 0
370000.0 705677.0 0
374000.0 705677.0 0
378000.0 705677.0 0
382000.0 705677.0 0
386000.0 705677.0 0
390000.0 705677.0 0
394000.0 705677.0 0
398000.0 705677.0 0
102000.0 709677.0 0
106000.0 709677.0 0
110000.0 709677.0 0
114000.0 709677.0 0
118000.0 709677.0 0
122000.0 709677.0 0
126000.0 709677.0 0
130000.0 709677.0 0
134000.0 709677.0 0
138000.0 709677.0 0
142000.0 709677.0 0
146000.0 709677.0 0
150000.0 709677.0 0
154000.0 709677.0 0
158000.0 709677.0 0
162000.0 709677.0 0
166000.0 709677.0 0
170000.0 709677.0 0
174000.0 709677.0 0
178000.0 709677.0 0
182000.0 709677.0 0
186000.0 709677.0 0
190000.0 709677.0 0
194000.0 709677.0 0
198000.0 709677.0 0
202000.0 709677.0 0
206000.0 709677.0 0
210000.0 709677.0 0
214000.0 709677.0 0
218000.0 709677.0 0
222000.0 709677.0 0
226000.0 709677.0 0
230000.0 709677.0 0
234000.0 709677.0 0
238000.0 709677.0 0
242000.0 709677.0 0
246000.0 709677.0 0
250000.0 709677.0 0
254000.0 709677.0 0
258000.0 709677.0 0
262000.0 709677.0 0
266000.0 709677.0 0
270000.0 709677.0 0
274000.0 709677.0 0
278000.0 709677.0 0
282000.0 709677.0 0
286000.0 709677.0 0
290000.0 709677.0 0
294000.0 709677.0 0
298000.0 709677.0 0
302000.0 709677.0 0
306000.0 709677.0 0
310000.0 709677.0 0
314000.0 709677.0 0
318000.0 709677.0 0
322000.0 709677.0 0
326000.0 709677.0 0
330000.0 709677.0 0
334000.0 709677.0 0
338000.0 709677.0 0
342000.0 709677.0 0
346000.0 709677.0 0
350000.0 709677.0 0
354000.0 709677.0 0
358000.0 709677.0 0
362000.0 709677.0 0
366000.0 709677.0 0
370000.0 709677.0 0
374000.0 709677.0 0
378000.0 709677.0 0
382000.0 709677.0 0
386000.0 709677.0 0
390000.0 709677.0 0
394000.0 709677.0 0
398000.0 709677.0 0
102000.0 713677.0 0
106000.0 713677.0 0
110000.0 713677.0 0
114000.0 713677.0 0
118000.0 713677.0 0
122000.0 713677.0 0
126000.0 713677.0 0
130000.0 713677.0 0
134000.0 713677.0 0
138000.0 713677.0 0
142000.0 713677.0 0
146000.0 713677.0 0
150000.0 713677.0 0
154000.0 713677.0 0
158000.0 713677.0 0
162000.0 713677.0 0
166000.0 713677.0 0
170000.0 713677.0 0
174000.0 713677.0 0
178000.0 713677.0 0
182000.0 713677.0 0
186000.0 713677.0 0
190000.0 713677.0 0
194000.0 713677.0 0
198000.0 713677.0 0
202000.0 713677.0 0
206000.0 713677.0 0
210000.0 713677.0 0
214000.0 713677.0 0
218000.0 713677.0 0
222000.0 713677.0 0
226000.0 713677.0 0
230000.0 713677.0 0
234000.0 713677.0 0
238000.0 713677.0 0
242000.0 713677.0 0
246000.0 713677.0 0
250000.0 713677.0 0
254000.0 713677.0 0
258000.0 713677.0 0
262000.0 713677.0 0
266000.0 713677.0 0
270000.0 713677.0 0
274000.0 713677.0 0
278000.0 713677.0 0
282000.0 713677.0 0
286000.0 713677.0 0
290000.0 713677.0 0
294000.0 713677.0 0
298000.0 713677.0 0
302000.0 713677.0 0
306000.0 713677.0 0
310000.0 713677.0 0
314000.0 713677.0 0
318000.0 713677.0 0
322000.0 713677.0 0
326000.0 713677.0 0
330000.0 713677.0 0
334000.0 713677.0 0
338000.0 713677.0 0
342000.0 713677.0 0
346000.0 713677.0 0
350000.0 713677.0 0
354000.0 713677.0 0
358000.0 713677.0 0
362000.0 713677.0 0
366000.0 713677.0 0
370000.0 713677.0 0
374000.0 713677.0 0
378000.0 713677.0 0
382000.0 713677.0 0
386000.0 713677.0 0
390000.0 713677.0 0
394000.0 713677.0 0
398000.0 713677.0 0
102000.0 717677.0 0
106000.0 717677.0 0
110000.0 717677.0 0
114000.0 717677.0 0
118000.0 717677.0 0
122000.0 717677.0 0
126000.0 717677.0 0
130000.0 717677.0 0
134000.0 717677.0 0
138000.0 717677.0 0
142000.0 717677.0 0
146000.0 717677.0 0
150000.0 717677.0 0
154000.0 717677.0 0
158000.0 717677.0 0
162000.0 717677.0 0
166000.0 717677.0 0
170000.0 717677.0 0
174000.0 717677.0 0
178000.0 717677.0 0
182000.0 717677.0 0
186000.0 717677.0 0
190000.0 717677.0 0
194000.0 717677.0 0
198000.0 717677.0 0
202000.0 717677.0 0
206000.0 717677.0 0
210000.0 717677.0 0
214000.0 717677.0 0
218000.0 717677.0 0
222000.0 717677.0 0
226000.0 717677.0 0
230000.0 717677.0 0
234000.0 717677.0 0
238000.0 717677.0 0
242000.0 717677.0 0
246000.0 717677.0 0
250000.0 717677.0 0
254000.0 717677.0 0
258000.0 717677.0 0
262000.0 717677.0 0
266000.0 717677.0 0
270000.0 717677.0 0
274000.0 717677.0 0
278000.0 717677.0 0
282000.0 717677.0 0
286000.0 717677.0 0
290000.0 717677.0 0
294000.0 717677.0 0
298000.0 717677.0 0
302000.0 717677.0 0
306000.0 717677.0 0
310000.0 717677.0 0
314000.0 717677.0 0
318000.0 717677.0 0
322000.0 717677.0 0
326000.0 717677.0 0
330000.0 717677.0 0
334000.0 717677.0 0
338000.0 717677.0 0
342000.0 717677.0 0
346000.0 717677.0 0
350000.0 717677.0 0
354000.0 717677.0 0
358000.0 717677.0 0
362000.0 717677.0 0
366000.0 717677.0 0
370000.0 717677.0 0
374000.0 717677.0 0
378000.0 717677.0 0
382000.0 717677.0 0
386000.0 717677.0 0
390000.0 717677.0 0
394000.0 717677.0 0
398000.0 717677.0 0
102000.0 721677.0 0
106000.0 721677.0 0
110000.0 721677.0 0
114000.0 721677.0 0
118000.0 721677.0 0
122000.0 721677.0 0
126000.0 721677.0 0
130000.0 721677.0 0
134000.0 721677.0 0
138000.0 721677.0 0
142000.0 721677.0 0
146000.0 721677.0 0
150000.0 721677.0 0
154000.0 721677.0 0
158000.0 721677.0 0
162000.0 721677.0 0
166000.0 721677.0 0
170000.0 721677.0 0
174000.0 721677.0 0
178000.0 721677.0 0
182000.0 721677.0 0
186000.0 721677.0 0
190000.0 721677.0 0
194000.0 721677.0 0
198000.0 721677.0 0
202000.0 721677.0 0
206000.0 721677.0 0
210000.0 721677.0 0
214000.0 721677.0 0
218000.0 721677.0 0
222000.0 721677.0 0
226000.0 721677.0 0
230000.0 721677.0 0
234000.0 721677.0 0
238000.0 721677.0 0
242000.0 721677.0 0
246000.0 721677.0 0
250000.0 721677.0 0
254000.0 721677.0 0
258000.0 721677.0 0
262000.0 721677.0 0
266000.0 721677.0 0
270000.0 721677.0 0
274000.0 721677.0 0
278000.0 721677.0 0
282000.0 721677.0 0
286000.0 721677.0 0
290000.0 721677.0 0
294000.0 721677.0 0
298000.0 721677.0 0
302000.0 721677.0 0
306000.0 721677.0 0
310000.0 721677.0 0
314000.0 721677.0 0
318000.0 721677.0 0
322000.0 721677.0 0
326000.0 721677.0 0
330000.0 721677.0 0
334000.0 721677.0 0
338000.0 721677.0 0
342000.0 721677.0 0
346000.0 721677.0 0
350000.0 721677.0 0
354000.0 721677.0 0
358000.0 721677.0 0
362000.0 721677.0 0
366000.0 721677.0 0
370000.0 721677.0 0
374000.0 721677.0 0
378000.0 721677.0 0
382000.0 721677.0 0
386000.0 721677.0 0
390000.0 721677.0 0
394000.0 721677.0 0
398000.0 721677.0 0
102000.0 725677.0 0
106000.0 725677.0 0
110000.0 725677.0 0
114000.0 725677.0 0
118000.0 725677.0 0
122000.0 725677.0 0
126000.0 725677.0 0
130000.0 725677.0 0
134000.0 725677.0 0
138000.0 725677.0 0
142000.0 725677.0 0
146000.0 725677.0 0
150000.0 725677.0 0
154000.0 725677.0 0
158000.0 725677.0 0
162000.0 725677.0 0
166000.0 725677.0 0
170000.0 725677.0 0
174000.0 725677.0 0
178000.0 725677.0 0
182000.0 725677.0 0
186000.0 725677.0 0
190000.0 725677.0 0
194000.0 725677.0 0
198000.0 725677.0 0
202000.0 725677.0 0
206000.0 725677.0 0
210000.0 725677.0 0
214000.0 725677.0 0
218000.0 725677.0 0
222000.0 725677.0 0
226000.0 725677.0 0
230000.0 725677.0 0
234000.0 725677.0 0
238000.0 725677.0 0
242000.0 725677.0 0
246000.0 725677.0 0
250000.0 725677.0 0
254000.0 725677.0 0
258000.0 725677.0 0
262000.0 725677.0 0
266000.0 725677.0 0
270000.0 725677.0 0
274000.0 725677.0 0
278000.0 725677.0 0
282000.0 725677.0 0
286000.0 725677.0 0
290000.0 725677.0 0
294000.0 725677.0 0
298000.0 725677.0 0
302000.0 725677.0 0
306000.0 725677.0 0
310000.0 725677.0 0
314000.0 725677.0 0
318000.0 725677.0 0
322000.0 725677.0 0
326000.0 725677.0 0
330000.0 725677.0 0
334000.0 725677.0 0
338000.0 725677.0 0
342000.0 725677.0 0
346000.0 725677.0 0
350000.0 725677.0 0
354000.0 725677.0 0
358000.0 725677.0 0
362000.0 725677.0 0
366000.0 725677.0 0
370000.0 725677.0 0
374000.0 725677.0 0
378000.0 725677.0 0
382000.0 725677.0 0
386000.0 725677.0 0
390000.0 725677.0 0
394000.0 725677.0 0
398000.0 725677.0 0
102000.0 729677.0 0
106000.0 729677.0 0
110000.0 729677.0 0
114000.0 729677.0 0
118000.0 729677.0 0
122000.0 729677.0 0
126000.0 729677.0 0
130000.0 729677.0 0
134000.0 729677.0 0
138000.0 729677.0 0
142000.0 729677.0 0
146000.0 729677.0 0
150000.0 729677.0 0
154000.0 729677.0 0
158000.0 729677.0 0
162000.0 729677.0 0
166000.0 729677.0 0
170000.0 729677.0 0
174000.0 729677.0 0
178000.0 729677.0 0
182000.0 729677.0 0
186000.0 729677.0 0
190000.0 729677.0 0
194000.0 729677.0 0
198000.0 729677.0 0
202000.0 729677.0 0
206000.0 729677.0 0
210000.0 729677.0 0
214000.0 729677.0 0
218000.0 729677.0 0
222000.0 729677.0 0
226000.0 729677.0 0
230000.0 729677.0 0
234000.0 729677.0 0
238000.0 729677.0 0
242000.0 729677.0 0
246000.0 729677.0 0
250000.0 729677.0 0
254000.0 729677.0 0
258000.0 729677.0 0
262000.0 729677.0 0
266000.0 729677.0 0
270000.0 729677.0 0
274000.0 729677.0 0
278000.0 729677.0 0
282000.0 729677.0 0
286000.0 729677.0 0
290000.0 729677.0 0
294000.0 729677.0 0
298000.0 729677.0 0
302000.0 729677.0 0
306000.0 729677.0 0
310000.0 729677.0 0
314000.0 729677.0 0
318000.0 729677.0 0
322000.0 729677.0 0
326000.0 729677.0 0
330000.0 729677.0 0
334000.0 729677.0 0
338000.0 729677.0 0
342000.0 729677.0 0
346000.0 729677.0 0
350000.0 729677.0 0
354000.0 729677.0 0
358000.0 729677.0 0
362000.0 729677.0 0
366000.0 729677.0 0
370000.0 729677.0 0
374000.0 729677.0 0
378000.0 729677.0 0
382000.0 729677.0 0
386000.0 729677.0 0
390000.0 729677.0 0
394000.0 729677.0 0
398000.0 729677.0 0
102000.0 733677.0 0
106000.0 733677.0 0
110000.0 733677.0 0
114000.0 733677.0 0
118000.0 733677.0 0
122000.0 733677.0 0
126000.0 733677.0 0
130000.0 733677.0 0
134000.0 733677.0 0
138000.0 733677.0 0
142000.0 733677.0 0
146000.0 733677.0 0
150000.0 733677.0 0
154000.0 733677.0 0
158000.0 733677.0 0
162000.0 733677.0 0
166000.0 733677.0 0
170000.0 733677.0 0
174000.0 733677.0 0
178000.0 733677.0 0
182000.0 733677.0 0
186000.0 733677.0 0
190000.0 733677.0 0
194000.0 733677.0 0
198000.0 733677.0 0
202000.0 733677.0 0
206000.0 733677.0 0
210000.0 733677.0 0
214000.0 733677.0 0
218000.0 733677.0 0
222000.0 733677.0 0
226000.0 733677.0 0
230000.0 733677.0 0
234000.0 733677.0 0
238000.0 733677.0 0
242000.0 733677.0 0
246000.0 733677.0 0
250000.0 733677.0 0
254000.0 733677.0 0
258000.0 733677.0 0
262000.0 733677.0 0
266000.0 733677.0 0
270000.0 733677.0 0
274000.0 733677.0 0
278000.0 733677.0 0
282000.0 733677.0 0
286000.0 733677.0 0
290000.0 733677.0 0
294000.0 733677.0 0
298000.0 733677.0 0
302000.0 733677.0 0
306000.0 733677.0 0
310000.0 733677.0 0
314000.0 733677.0 0
318000.0 733677.0 0
322000.0 733677.0 0
326000.0 733677.0 0
330000.0 733677.0 0
334000.0 733677.0 0
338000.0 733677.0 0
342000.0 733677.0 0
346000.0 733677.0 0
350000.0 733677.0 0
354000.0 733677.0 0
358000.0 733677.0 0
362000.0 733677.0 0
366000.0 733677.0 0
370000.0 733677.0 0
374000.0 733677.0 0
378000.0 733677.0 0
382000.0 733677.0 0
386000.0 733677.0 0
390000.0 733677.0 0
394000.0 733677.0 0
398000.0 733677.0 0
102000.0 737677.0 0
106000.0 737677.0 0
110000.0 737677.0 0
114000.0 737677.0 0
118000.0 737677.0 0
122000.0 737677.0 0
126000.0 737677.0 0
130000.0 737677.0 0
134000.0 737677.0 0
138000.0 737677.0 0
142000.0 737677.0 0
146000.0 737677.0 0
150000.0 737677.0 0
154000.0 737677.0 0
158000.0 737677.0 0
162000.0 737677.0 0
166000.0 737677.0 0
170000.0 737677.0 0
174000.0 737677.0 0
178000.0 737677.0 0
182000.0 737677.0 0
186000.0 737677.0 0
190000.0 737677.0 0
194000.0 737677.0 0
198000.0 737677.0 0
202000.0 737677.0 0
206000.0 737677.0 0
210000.0 737677.0 0
214000.0 737677.0 0
218000.0 737677.0 0
222000.0 737677.0 0
226000.0 737677.0 0
230000.0 737677.0 0
234000.0 737677.0 0
238000.0 737677.0 0
242000.0 737677.0 0
246000.0 737677.0 0
250000.0 737677.0 0
254000.0 737677.0 0
258000.0 737677.0 0
262000.0 737677.0 0
266000.0 737677.0 0
270000.0 737677.0 0
274000.0 737677.0 0
278000.0 737677.0 0
282000.0 737677.0 0
286000.0 737677.0 0
290000.0 737677.0 0
294000.0 737677.0 0
298000.0 737677.0 0
302000.0 737677.0 0
306000.0 737677.0 0
310000.0 737677.0 0
314000.0 737677.0 0
318000.0 737677.0 0
322000.0 737677.0 0
326000.0 737677.0 0
330000.0 737677.0 0
334000.0 737677.0 0
338000.0 737677.0 0
342000.0 737677.0 0
346000.0 737677.0 0
350000.0 737677.0 0
354000.0 737677.0 0
358000.0 737677.0 0
362000.0 737677.0 0
366000.0 737677.0 0
370000.0 737677.0 0
374000.0 737677.0 0
378000.0 737677.0 0
382000.0 737677.0 0
386000.0 737677.0 0
390000.0 737677.0 0
394000.0 737677.0 0
398000.0 737677.0 0
POINT_DATA 4650
SCALARS Radius float 1
LOOKUP_TABLE default
4000.0 4000.0 4000.0 4000.0 4000.0 4000.0 4000.0 4000.0 4000.0 4000.0 4000.0 4000.0 4000.0 4000.0 4000.0 4000.0 4000.0 4000.0 4000.0 4000.0 4000.0 4000.0 4000.0 4000.0 4000.0 4000.0 4000.0 4000.0 4000.0 4000.0 4000.0 4000.0 4000.0 4000.0 4000.0 4000.0 4000.0 4000.0 4000.0 4000.0 4000.0 4000.0 4000.0 4000.0 4000.0 4000.0 4000.0 4000.0 4000.0 4000.0 4000.0 4000.0 4000.0 4000.0 4000.0 4000.0 4000.0 4000.0 4000.0 4000.0 4000.0 4000.0 4000.0 4000.0 4000.0 4000.0 4000.0 4000.0 4000.0 4000.0 4000.0 4000.0 4000.0 4000.0 4000.0 4000.0 4000.0 4000.0 4000.0 4000.0 4000.0 4000.0 4000.0 4000.0 4000.0 4000.0 4000.0 4000.0 4000.0 4000.0 4000.0 4000.0 4000.0 4000.0 4000.0 4000.0 4000.0 4000.0 4000.0 4000.0 4000.0 4000.0 4000.0 4000.0 4000.0 4000.0 4000.0 4000.0 4000.0 4000.0 4000.0 4000.0 4000.0 4000.0 4000.0 4000.0 4000.0 4000.0 4000.0 4000.0 4000.0 4000.0 4000.0 4000.0 4000.0 4000.0 4000.0 4000.0 4000.0 4000.0 4000.0 4000.0 4000.0 4000.0 4000.0 4000.0 4000.0 4000.0 4000.0 4000.0 4000.0 4000.0 4000.0 4000.0 4000.0 4000.0 4000.0 4000.0 4000.0 4000.0 4000.0 4000.0 4000.0 4000.0 4000.0 4000.0 4000.0 4000.0 4000.0 4000.0 4000.0 4000.0 4000.0 4000.0 4000.0 4000.0 4000.0 4000.0 4000.0 4000.0 4000.0 4000.0 4000.0 4000.0 4000.0 4000.0 4000.0 4000.0 4000.0 4000.0 4000.0 4000.0 4000.0 4000.0 4000.0 4000.0 4000.0 4000.0 4000.0 4000.0 4000.0 4000.0 4000.0 4000.0 4000.0 4000.0 4000.0 4000.0 4000.0 4000.0 4000.0 4000.0 4000.0 4000.0 4000.0 4000.0 4000.0 4000.0 4000.0 4000.0 4000.0 4000.0 4000.0 4000.0 4000.0 4000.0 4000.0 4000.0 4000.0 4000.0 4000.0 4000.0 4000.0 4000.0 4000.0 4000.0 4000.0 4000.0 4000.0 4000.0 4000.0 4000.0 4000.0 4000.0 4000.0 4000.0 4000.0 4000.0 4000.0 4000.0 4000.0 4000.0 4000.0 4000.0 4000.0 4000.0 4000.0 4000.0 4000.0 4000.0 4000.0 4000.0 4000.0 4000.0 4000.0 4000.0 4000.0 4000.0 4000.0 4000.0 4000.0 4000.0 4000.0 4000.0 4000.0 4000.0 4000.0 4000.0 4000.0 4000.0 4000.0 4000.0 4000.0 4000.0 4000.0 4000.0 4000.0 4000.0 4000.0 4000.0 4000.0 4000.0 4000.0 4000.0 4000.0 4000.0 4000.0 4000.0 4000.0 4000.0 4000.0 4000.0 4000.0 4000.0 4000.0 4000.0 4000.0 4000.0 4000.0 4000.0 4000.0 4000.0 4000.0 4000.0 4000.0 4000.0 4000.0 4000.0 4000.0 4000.0 4000.0 4000.0 4000.0 4000.0 4000.0 4000.0 4000.0 4000.0 4000.0 4000.0 4000.0 4000.0 4000.0 4000.0 4000.0 4000.0 4000.0 4000.0 4000.0 4000.0 4000.0 4000.0 4000.0 4000.0 4000.0 4000.0 4000.0 4000.0 4000.0 4000.0 4000.0 4000.0 4000.0 4000.0 4000.0 4000.0 4000.0 4000.0 4000.0 4000.0 4000.0 4000.0 4000.0 4000.0 4000.0 4000.0 4000.0 4000.0 4000.0 4000.0 4000.0 4000.0 4000.0 4000.0 4000.0 4000.0 4000.0 4000.0 4000.0 4000.0 4000.0 4000.0 4000.0 4000.0 4000.0 4000.0 4000.0 4000.0 4000.0 4000.0 4000.0 4000.0 4000.0 4000.0 4000.0 4000.0 4000.0 4000.0 4000.0 4000.0 4000.0 4000.0 4000.0 4000.0 4000.0 4000.0 4000.0 4000.0 4000.0 4000.0 4000.0 4000.0 4000.0 4000.0 4000.0 4000.0 4000.0 4000.0 4000.0 4000.0 4000.0 4000.0 4000.0 4000.0 4000.0 4000.0 4000.0 4000.0 4000.0 4000.0 4000.0 4000.0 4000.0 4000.0 4000.0 4000.0 4000.0 4000.0 4000.0 4000.0 4000.0 4000.0 4000.0 4000.0 4000.0 4000.0 4000.0 4000.0 4000.0 4000.0 4000.0 4000.0 4000.0 4000.0 4000.0 4000.0 4000.0 4000.0 4000.0 4000.0 4000.0 4000.0 4000.0 4000.0 4000.0 4000.0 4000.0 4000.0 4000.0 4000.0 4000.0 4000.0 4000.0 4000.0 4000.0 4000.0 4000.0 4000.0 4000.0 4000.0 4000.0 4000.0 4000.0 4000.0 4000.0 4000.0 4000.0 4000.0 4000.0 4000.0 4000.0 4000.0 4000.0 4000.0 4000.0 4000.0 4000.0 4000.0 4000.0 4000.0 4000.0 4000.0 4000.0 4000.0 4000.0 4000.0 4000.0 4000.0 4000.0 4000.0 4000.0 4000.0 4000.0 4000.0 4000.0 4000.0 4000.0 4000.0 4000.0 4000.0 4000.0 4000.0 4000.0 4000.0 4000.0 4000.0 4000.0 4000.0 4000.0 4000.0 4000.0 4000.0 4000.0 4000.0 4000.0 4000.0 4000.0 4000.0 4000.0 4000.0 4000.0 4000.0 4000.0 4000.0 4000.0 4000.0 4000.0 4000.0 4000.0 4000.0 4000.0 4000.0 4000.0 4000.0 4000.0 4000.0 4000.0 4000.0 4000.0 4000.0 4000.0 4000.0 4000.0 4000.0 4000.0 4000.0 4000.0 4000.0 4000.0 4000.0 4000.0 4000.0 4000.0 4000.0 4000.0 4000.0 4000.0 4000.0 4000.0 4000.0 4000.0 4000.0 4000.0 4000.0 4000.0 4000.0 4000.0 4000.0 4000.0 4000.0 4000.0 4000.0 4000.0 4000.0 4000.0 4000.0 4000.0 4000.0 4000.0 4000.0 4000.0 4000.0 4000.0 4000.0 4000.0 4000.0 4000.0 4000.0 4000.0 4000.0 4000.0 4000.0 4000.0 4000.0 4000.0 4000.0 4000.0 4000.0 4000.0 4000.0 4000.0 4000.0 4000.0 4000.0 4000.0 4000.0 4000.0 4000.0 4000.0 4000.0 4000.0 4000.0 4000.0 4000.0 4000.0 4000.0 4000.0 4000.0 4000.0 4000.0 4000.0 4000.0 4000.0 4000.0 4000.0 4000.0 4000.0 4000.0 4000.0 4000.0 4000.0 4000.0 4000.0 4000.0 4000.0 4000.0 4000.0 4000.0 4000.0 4000.0 4000.0 4000.0 4000.0 4000.0 4000.0 4000.0 4000.0 4000.0 4000.0 4000.0 4000.0 4000.0 4000.0 4000.0 4000.0 4000.0 4000.0 4000.0 4000.0 4000.0 4000.0 4000.0 4000.0 4000.0 4000.0 4000.0 4000.0 4000.0 4000.0 4000.0 4000.0 4000.0 4000.0 4000.0 4000.0 4000.0 4000.0 4000.0 4000.0 4000.0 4000.0 4000.0 4000.0 4000.0 4000.0 4000.0 4000.0 4000.0 4000.0 4000.0 4000.0 4000.0 4000.0 4000.0 4000.0 4000.0 4000.0 4000.0 4000.0 4000.0 4000.0 4000.0 4000.0 4000.0 4000.0 4000.0 4000.0 4000.0 4000.0 4000.0 4000.0 4000.0 4000.0 4000.0 4000.0 4000.0 4000.0 4000.0 4000.0 4000.0 4000.0 4000.0 4000.0 4000.0 4000.0 4000.0 4000.0 4000.0 4000.0 4000.0 4000.0 4000.0 4000.0 4000.0 4000.0 4000.0 4000.0 4000.0 4000.0 4000.0 4000.0 4000.0 4000.0 4000.0 4000.0 4000.0 4000.0 4000.0 4000.0 4000.0 4000.0 4000.0 4000.0 4000.0 4000.0 4000.0 4000.0 4000.0 4000.0 4000.0 4000.0 4000.0 4000.0 4000.0 4000.0 4000.0 4000.0 4000.0 4000.0 4000.0 4000.0 4000.0 4000.0 4000.0 4000.0 4000.0 4000.0 4000.0 4000.0 4000.0 4000.0 4000.0 4000.0 4000.0 4000.0 4000.0 4000.0 4000.0 4000.0 4000.0 4000.0 4000.0 4000.0 4000.0 4000.0 4000.0 4000.0 4000.0 4000.0 4000.0 4000.0 4000.0 4000.0 4000.0 4000.0 4000.0 4000.0 4000.0 4000.0 4000.0 4000.0 4000.0 4000.0 4000.0 4000.0 4000.0 4000.0 4000.0 4000.0 4000.0 4000.0 4000.0 4000.0 4000.0 4000.0 4000.0 4000.0 4000.0 4000.0 4000.0 4000.0 4000.0 4000.0 4000.0 4000.0 4000.0 4000.0 4000.0 4000.0 4000.0 4000.0 4000.0 4000.0 4000.0 4000.0 4000.0 4000.0 4000.0 4000.0 4000.0 4000.0 4000.0 4000.0 4000.0 4000.0 4000.0 4000.0 4000.0 4000.0 4000.0 4000.0 4000.0 4000.0 4000.0 4000.0 4000.0 4000.0 4000.0 4000.0 4000.0 4000.0 4000.0 4000.0 4000.0 4000.0 4000.0 4000.0 4000.0 4000.0 4000.0 4000.0 4000.0 4000.0 4000.0 4000.0 4000.0 4000.0 4000.0 4000.0 4000.0 4000.0 4000.0 4000.0 4000.0 4000.0 4000.0 4000.0 4000.0 4000.0 4000.0 4000.0 4000.0 4000.0 4000.0 4000.0 4000.0 4000.0 4000.0 4000.0 4000.0 4000.0 4000.0 4000.0 4000.0 4000.0 4000.0 4000.0 4000.0 4000.0 4000.0 4000.0 4000.0 4000.0 4000.0 4000.0 4000.0 4000.0 4000.0 4000.0 4000.0 4000.0 4000.0 4000.0 4000.0 4000.0 4000.0 4000.0 4000.0 4000.0 4000.0 4000.0 4000.0 4000.0 4000.0 4000.0 4000.0 4000.0 4000.0 4000.0 4000.0 4000.0 4000.0 4000.0 4000.0 4000.0 4000.0 4000.0 4000.0 4000.0 4000.0 4000.0 4000.0 4000.0 4000.0 4000.0 4000.0 4000.0 4000.0 4000.0 4000.0 4000.0 4000.0 4000.0 4000.0 4000.0 4000.0 4000.0 4000.0 4000.0 4000.0 4000.0 4000.0 4000.0 4000.0 4000.0 4000.0 4000.0 4000.0 4000.0 4000.0 4000.0 4000.0 4000.0 4000.0 4000.0 4000.0 4000.0 4000.0 4000.0 4000.0 4000.0 4000.0 4000.0 4000.0 4000.0 4000.0 4000.0 4000.0 4000.0 4000.0 4000.0 4000.0 4000.0 4000.0 4000.0 4000.0 4000.0 4000.0 4000.0 4000.0 4000.0 4000.0 4000.0 4000.0 4000.0 4000.0 4000.0 4000.0 4000.0 4000.0 4000.0 4000.0 4000.0 4000.0 4000.0 4000.0 4000.0 4000.0 4000.0 4000.0 4000.0 4000.0 4000.0 4000.0 4000.0 4000.0 4000.0 4000.0 4000.0 4000.0 4000.0 4000.0 4000.0 4000.0 4000.0 4000.0 4000.0 4000.0 4000.0 4000.0 4000.0 4000.0 4000.0 4000.0 4000.0 4000.0 4000.0 4000.0 4000.0 4000.0 4000.0 4000.0 4000.0 4000.0 4000.0 4000.0 4000.0 4000.0 4000.0 4000.0 4000.0 4000.0 4000.0 4000.0 4000.0 4000.0 4000.0 4000.0 4000.0 4000.0 4000.0 4000.0 4000.0 4000.0 4000.0 4000.0 4000.0 4000.0 4000.0 4000.0 4000.0 4000.0 4000.0 4000.0 4000.0 4000.0 4000.0 4000.0 4000.0 4000.0 4000.0 4000.0 4000.0 4000.0 4000.0 4000.0 4000.0 4000.0 4000.0 4000.0 4000.0 4000.0 4000.0 4000.0 4000.0 4000.0 4000.0 4000.0 4000.0 4000.0 4000.0 4000.0 4000.0 4000.0 4000.0 4000.0 4000.0 4000.0 4000.0 4000.0 4000.0 4000.0 4000.0 4000.0 4000.0 4000.0 4000.0 4000.0 4000.0 4000.0 4000.0 4000.0 4000.0 4000.0 4000.0 4000.0 4000.0 4000.0 4000.0 4000.0 4000.0 4000.0 4000.0 4000.0 4000.0 4000.0 4000.0 4000.0 4000.0 4000.0 4000.0 4000.0 4000.0 4000.0 4000.0 4000.0 4000.0 4000.0 4000.0 4000.0 4000.0 4000.0 4000.0 4000.0 4000.0 4000.0 4000.0 4000.0 4000.0 4000.0 4000.0 4000.0 4000.0 4000.0 4000.0 4000.0 4000.0 4000.0 4000.0 4000.0 4000.0 4000.0 4000.0 4000.0 4000.0 4000.0 4000.0 4000.0 4000.0 4000.0 4000.0 4000.0 4000.0 4000.0 4000.0 4000.0 4000.0 4000.0 4000.0 4000.0 4000.0 4000.0 4000.0 4000.0 4000.0 4000.0 4000.0 4000.0 4000.0 4000.0 4000.0 4000.0 4000.0 4000.0 4000.0 4000.0 4000.0 4000.0 4000.0 4000.0 4000.0 4000.0 4000.0 4000.0 4000.0 4000.0 4000.0 4000.0 4000.0 4000.0 4000.0 4000.0 4000.0 4000.0 4000.0 4000.0 4000.0 4000.0 4000.0 4000.0 4000.0 4000.0 4000.0 4000.0 4000.0 4000.0 4000.0 4000.0 4000.0 4000.0 4000.0 4000.0 4000.0 4000.0 4000.0 4000.0 4000.0 4000.0 4000.0 4000.0 4000.0 4000.0 4000.0 4000.0 4000.0 4000.0 4000.0 4000.0 4000.0 4000.0 4000.0 4000.0 4000.0 4000.0 4000.0 4000.0 4000.0 4000.0 4000.0 4000.0 4000.0 4000.0 4000.0 4000.0 4000.0 4000.0 4000.0 4000.0 4000.0 4000.0 4000.0 4000.0 4000.0 4000.0 4000.0 4000.0 4000.0 4000.0 4000.0 4000.0 4000.0 4000.0 4000.0 4000.0 4000.0 4000.0 4000.0 4000.0 4000.0 4000.0 4000.0 4000.0 4000.0 4000.0 4000.0 4000.0 4000.0 4000.0 4000.0 4000.0 4000.0 4000.0 4000.0 4000.0 4000.0 4000.0 4000.0 4000.0 4000.0 4000.0 4000.0 4000.0 4000.0 4000.0 4000.0 4000.0 4000.0 4000.0 4000.0 4000.0 4000.0 4000.0 4000.0 4000.0 4000.0 4000.0 4000.0 4000.0 4000.0 4000.0 4000.0 4000.0 4000.0 4000.0 4000.0 4000.0 4000.0 4000.0 4000.0 4000.0 4000.0 4000.0 4000.0 4000.0 4000.0 4000.0 4000.0 4000.0 4000.0 4000.0 4000.0 4000.0 4000.0 4000.0 4000.0 4000.0 4000.0 4000.0 4000.0 4000.0 4000.0 4000.0 4000.0 4000.0 4000.0 4000.0 4000.0 4000.0 4000.0 4000.0 4000.0 4000.0 4000.0 4000.0 4000.0 4000.0 4000.0 4000.0 4000.0 4000.0 4000.0 4000.0 4000.0 4000.0 4000.0 4000.0 4000.0 4000.0 4000.0 4000.0 4000.0 4000.0 4000.0 4000.0 4000.0 4000.0 4000.0 4000.0 4000.0 4000.0 4000.0 4000.0 4000.0 4000.0 4000.0 4000.0 4000.0 4000.0 4000.0 4000.0 4000.0 4000.0 4000.0 4000.0 4000.0 4000.0 4000.0 4000.0 4000.0 4000.0 4000.0 4000.0 4000.0 4000.0 4000.0 4000.0 4000.0 4000.0 4000.0 4000.0 4000.0 4000.0 4000.0 4000.0 4000.0 4000.0 4000.0 4000.0 4000.0 4000.0 4000.0 4000.0 4000.0 4000.0 4000.0 4000.0 4000.0 4000.0 4000.0 4000.0 4000.0 4000.0 4000.0 4000.0 4000.0 4000.0 4000.0 4000.0 4000.0 4000.0 4000.0 4000.0 4000.0 4000.0 4000.0 4000.0 4000.0 4000.0 4000.0 4000.0 4000.0 4000.0 4000.0 4000.0 4000.0 4000.0 4000.0 4000.0 4000.0 4000.0 4000.0 4000.0 4000.0 4000.0 4000.0 4000.0 4000.0 4000.0 4000.0 4000.0 4000.0 4000.0 4000.0 4000.0 4000.0 4000.0 4000.0 4000.0 4000.0 4000.0 4000.0 4000.0 4000.0 4000.0 4000.0 4000.0 4000.0 4000.0 4000.0 4000.0 4000.0 4000.0 4000.0 4000.0 4000.0 4000.0 4000.0 4000.0 4000.0 4000.0 4000.0 4000.0 4000.0 4000.0 4000.0 4000.0 4000.0 4000.0 4000.0 4000.0 4000.0 4000.0 4000.0 4000.0 4000.0 4000.0 4000.0 4000.0 4000.0 4000.0 4000.0 4000.0 4000.0 4000.0 4000.0 4000.0 4000.0 4000.0 4000.0 4000.0 4000.0 4000.0 4000.0 4000.0 4000.0 4000.0 4000.0 4000.0 4000.0 4000.0 4000.0 4000.0 4000.0 4000.0 4000.0 4000.0 4000.0 4000.0 4000.0 4000.0 4000.0 4000.0 4000.0 4000.0 4000.0 4000.0 4000.0 4000.0 4000.0 4000.0 4000.0 4000.0 4000.0 4000.0 4000.0 4000.0 4000.0 4000.0 4000.0 4000.0 4000.0 4000.0 4000.0 4000.0 4000.0 4000.0 4000.0 4000.0 4000.0 4000.0 4000.0 4000.0 4000.0 4000.0 4000.0 4000.0 4000.0 4000.0 4000.0 4000.0 4000.0 4000.0 4000.0 4000.0 4000.0 4000.0 4000.0 4000.0 4000.0 4000.0 4000.0 4000.0 4000.0 4000.0 4000.0 4000.0 4000.0 4000.0 4000.0 4000.0 4000.0 4000.0 4000.0 4000.0 4000.0 4000.0 4000.0 4000.0 4000.0 4000.0 4000.0 4000.0 4000.0 4000.0 4000.0 4000.0 4000.0 4000.0 4000.0 4000.0 4000.0 4000.0 4000.0 4000.0 4000.0 4000.0 4000.0 4000.0 4000.0 4000.0 4000.0 4000.0 4000.0 4000.0 4000.0 4000.0 4000.0 4000.0 4000.0 4000.0 4000.0 4000.0 4000.0 4000.0 4000.0 4000.0 4000.0 4000.0 4000.0 4000.0 4000.0 4000.0 4000.0 4000.0 4000.0 4000.0 4000.0 4000.0 4000.0 4000.0 4000.0 4000.0 4000.0 4000.0 4000.0 4000.0 4000.0 4000.0 4000.0 4000.0 4000.0 4000.0 4000.0 4000.0 4000.0 4000.0 4000.0 4000.0 4000.0 4000.0 4000.0 4000.0 4000.0 4000.0 4000.0 4000.0 4000.0 4000.0 4000.0 4000.0 4000.0 4000.0 4000.0 4000.0 4000.0 4000.0 4000.0 4000.0 4000.0 4000.0 4000.0 4000.0 4000.0 4000.0 4000.0 4000.0 4000.0 4000.0 4000.0 4000.0 4000.0 4000.0 4000.0 4000.0 4000.0 4000.0 4000.0 4000.0 4000.0 4000.0 4000.0 4000.0 4000.0 4000.0 4000.0 4000.0 4000.0 4000.0 4000.0 4000.0 4000.0 4000.0 4000.0 4000.0 4000.0 4000.0 4000.0 4000.0 4000.0 4000.0 4000.0 4000.0 4000.0 4000.0 4000.0 4000.0 4000.0 4000.0 4000.0 4000.0 4000.0 4000.0 4000.0 4000.0 4000.0 4000.0 4000.0 4000.0 4000.0 4000.0 4000.0 4000.0 4000.0 4000.0 4000.0 4000.0 4000.0 4000.0 4000.0 4000.0 4000.0 4000.0 4000.0 4000.0 4000.0 4000.0 4000.0 4000.0 4000.0 4000.0 4000.0 4000.0 4000.0 4000.0 4000.0 4000.0 4000.0 4000.0 4000.0 4000.0 4000.0 4000.0 4000.0 4000.0 4000.0 4000.0 4000.0 4000.0 4000.0 4000.0 4000.0 4000.0 4000.0 4000.0 4000.0 4000.0 4000.0 4000.0 4000.0 4000.0 4000.0 4000.0 4000.0 4000.0 4000.0 4000.0 4000.0 4000.0 4000.0 4000.0 4000.0 4000.0 4000.0 4000.0 4000.0 4000.0 4000.0 4000.0 4000.0 4000.0 4000.0 4000.0 4000.0 4000.0 4000.0 4000.0 4000.0 4000.0 4000.0 4000.0 4000.0 4000.0 4000.0 4000.0 4000.0 4000.0 4000.0 4000.0 4000.0 4000.0 4000.0 4000.0 4000.0 4000.0 4000.0 4000.0 4000.0 4000.0 4000.0 4000.0 4000.0 4000.0 4000.0 4000.0 4000.0 4000.0 4000.0 4000.0 4000.0 4000.0 4000.0 4000.0 4000.0 4000.0 4000.0 4000.0 4000.0 4000.0 4000.0 4000.0 4000.0 4000.0 4000.0 4000.0 4000.0 4000.0 4000.0 4000.0 4000.0 4000.0 4000.0 4000.0 4000.0 4000.0 4000.0 4000.0 4000.0 4000.0 4000.0 4000.0 4000.0 4000.0 4000.0 4000.0 4000.0 4000.0 4000.0 4000.0 4000.0 4000.0 4000.0 4000.0 4000.0 4000.0 4000.0 4000.0 4000.0 4000.0 4000.0 4000.0 4000.0 4000.0 4000.0 4000.0 4000.0 4000.0 4000.0 4000.0 4000.0 4000.0 4000.0 4000.0 4000.0 4000.0 4000.0 4000.0 4000.0 4000.0 4000.0 4000.0 4000.0 4000.0 4000.0 4000.0 4000.0 4000.0 4000.0 4000.0 4000.0 4000.0 4000.0 4000.0 4000.0 4000.0 4000.0 4000.0 4000.0 4000.0 4000.0 4000.0 4000.0 4000.0 4000.0 4000.0 4000.0 4000.0 4000.0 4000.0 4000.0 4000.0 4000.0 4000.0 4000.0 4000.0 4000.0 4000.0 4000.0 4000.0 4000.0 4000.0 4000.0 4000.0 4000.0 4000.0 4000.0 4000.0 4000.0 4000.0 4000.0 4000.0 4000.0 4000.0 4000.0 4000.0 4000.0 4000.0 4000.0 4000.0 4000.0 4000.0 4000.0 4000.0 4000.0 4000.0 4000.0 4000.0 4000.0 4000.0 4000.0 4000.0 4000.0 4000.0 4000.0 4000.0 4000.0 4000.0 4000.0 4000.0 4000.0 4000.0 4000.0 4000.0 4000.0 4000.0 4000.0 4000.0 4000.0 4000.0 4000.0 4000.0 4000.0 4000.0 4000.0 4000.0 4000.0 4000.0 4000.0 4000.0 4000.0 4000.0 4000.0 4000.0 4000.0 4000.0 4000.0 4000.0 4000.0 4000.0 4000.0 4000.0 4000.0 4000.0 4000.0 4000.0 4000.0 4000.0 4000.0 4000.0 4000.0 4000.0 4000.0 4000.0 4000.0 4000.0 4000.0 4000.0 4000.0 4000.0 4000.0 4000.0 4000.0 4000.0 4000.0 4000.0 4000.0 4000.0 4000.0 4000.0 4000.0 4000.0 4000.0 4000.0 4000.0 4000.0 4000.0 4000.0 4000.0 4000.0 4000.0 4000.0 4000.0 4000.0 4000.0 4000.0 4000.0 4000.0 4000.0 4000.0 4000.0 4000.0 4000.0 4000.0 4000.0 4000.0 4000.0 4000.0 4000.0 4000.0 4000.0 4000.0 4000.0 4000.0 4000.0 4000.0 4000.0 4000.0 4000.0 4000.0 4000.0 4000.0 4000.0 4000.0 4000.0 4000.0 4000.0 4000.0 4000.0 4000.0 4000.0 4000.0 4000.0 4000.0 4000.0 4000.0 4000.0 4000.0 4000.0 4000.0 4000.0 4000.0 4000.0 4000.0 4000.0 4000.0 4000.0 4000.0 4000.0 4000.0 4000.0 4000.0 4000.0 4000.0 4000.0 4000.0 4000.0 4000.0 4000.0 4000.0 4000.0 4000.0 4000.0 4000.0 4000.0 4000.0 4000.0 4000.0 4000.0 4000.0 4000.0 4000.0 4000.0 4000.0 4000.0 4000.0 4000.0 4000.0 4000.0 4000.0 4000.0 4000.0 4000.0 4000.0 4000.0 4000.0 4000.0 4000.0 4000.0 4000.0 4000.0 4000.0 4000.0 4000.0 4000.0 4000.0 4000.0 4000.0 4000.0 4000.0 4000.0 4000.0 4000.0 4000.0 4000.0 4000.0 4000.0 4000.0 4000.0 4000.0 4000.0 4000.0 4000.0 4000.0 4000.0 4000.0 4000.0 4000.0 4000.0 4000.0 4000.0 4000.0 4000.0 4000.0 4000.0 4000.0 4000.0 4000.0 4000.0 4000.0 4000.0 4000.0 4000.0 4000.0 4000.0 4000.0 4000.0 4000.0 4000.0 4000.0 4000.0 4000.0 4000.0 4000.0 4000.0 4000.0 4000.0 4000.0 4000.0 4000.0 4000.0 4000.0 4000.0 4000.0 4000.0 4000.0 4000.0 4000.0 4000.0 4000.0 4000.0 4000.0 4000.0 4000.0 4000.0 4000.0 4000.0 4000.0 4000.0 4000.0 4000.0 4000.0 4000.0 4000.0 4000.0 4000.0 4000.0 4000.0 4000.0 4000.0 4000.0 4000.0 4000.0 4000.0 4000.0 4000.0 4000.0 4000.0 4000.0 4000.0 4000.0 4000.0 4000.0 4000.0 4000.0 4000.0 4000.0 4000.0 4000.0 4000.0 4000.0 4000.0 4000.0 4000.0 4000.0 4000.0 4000.0 4000.0 4000.0 4000.0 4000.0 4000.0 4000.0 4000.0 4000.0 4000.0 4000.0 4000.0 4000.0 4000.0 4000.0 4000.0 4000.0 4000.0 4000.0 4000.0 4000.0 4000.0 4000.0 4000.0 4000.0 4000.0 4000.0 4000.0 4000.0 4000.0 4000.0 4000.0 4000.0 4000.0 4000.0 4000.0 4000.0 4000.0 4000.0 4000.0 4000.0 4000.0 4000.0 4000.0 4000.0 4000.0 4000.0 4000.0 4000.0 4000.0 4000.0 4000.0 4000.0 4000.0 4000.0 4000.0 4000.0 4000.0 4000.0 4000.0 4000.0 4000.0 4000.0 4000.0 4000.0 4000.0 4000.0 4000.0 4000.0 4000.0 4000.0 4000.0 4000.0 4000.0 4000.0 4000.0 4000.0 4000.0 4000.0 4000.0 4000.0 4000.0 4000.0 4000.0 4000.0 4000.0 4000.0 4000.0 4000.0 4000.0 4000.0 4000.0 4000.0 4000.0 4000.0 4000.0 4000.0 4000.0 4000.0 4000.0 4000.0 4000.0 4000.0 4000.0 4000.0 4000.0 4000.0 4000.0 4000.0 4000.0 4000.0 4000.0 4000.0 4000.0 4000.0 4000.0 4000.0 4000.0 4000.0 4000.0 4000.0 4000.0 4000.0 4000.0 4000.0 4000.0 4000.0 4000.0 4000.0 4000.0 4000.0 4000.0 4000.0 4000.0 4000.0 4000.0 4000.0 4000.0 4000.0 4000.0 4000.0 4000.0 4000.0 4000.0 4000.0 4000.0 4000.0 4000.0 4000.0 4000.0 4000.0 4000.0 4000.0 4000.0 4000.0 4000.0 4000.0 4000.0 4000.0 4000.0 4000.0 4000.0 4000.0 4000.0 4000.0 4000.0 4000.0 4000.0 4000.0 4000.0 4000.0 4000.0 4000.0 4000.0 4000.0 4000.0 4000.0 4000.0 4000.0 4000.0 4000.0 4000.0 4000.0 4000.0 4000.0 4000.0 4000.0 4000.0 4000.0 4000.0 4000.0 4000.0 4000.0 4000.0 4000.0 4000.0 4000.0 4000.0 4000.0 4000.0 4000.0 4000.0 4000.0 4000.0 4000.0 4000.0 4000.0 4000.0 4000.0 4000.0 4000.0 4000.0 4000.0 4000.0 4000.0 4000.0 4000.0 4000.0 4000.0 4000.0 4000.0 4000.0 4000.0 4000.0 4000.0 4000.0 4000.0 4000.0 4000.0 4000.0 4000.0 4000.0 4000.0 4000.0 4000.0 4000.0 4000.0 4000.0 4000.0 4000.0 4000.0 4000.0 4000.0 4000.0 4000.0 4000.0 4000.0 4000.0 4000.0 4000.0 4000.0 4000.0 4000.0 4000.0 4000.0 4000.0 4000.0 4000.0 4000.0 4000.0 4000.0 4000.0 4000.0 4000.0 4000.0 4000.0 4000.0 4000.0 4000.0 4000.0 4000.0 4000.0 4000.0 4000.0 4000.0 4000.0 4000.0 4000.0 4000.0 4000.0 4000.0 4000.0 4000.0 4000.0 4000.0 4000.0 4000.0 4000.0 4000.0 4000.0 4000.0 4000.0 4000.0 4000.0 4000.0 4000.0 4000.0 4000.0 4000.0 4000.0 4000.0 4000.0 4000.0 4000.0 4000.0 4000.0 4000.0 4000.0 4000.0 4000.0 4000.0 4000.0 4000.0 4000.0 4000.0 4000.0 4000.0 4000.0 4000.0 4000.0 4000.0 4000.0 4000.0 4000.0 4000.0 4000.0 4000.0 4000.0 4000.0 4000.0 4000.0 4000.0 4000.0 4000.0 4000.0 4000.0 4000.0 4000.0 4000.0 4000.0 4000.0 4000.0 4000.0 4000.0 4000.0 4000.0 4000.0 4000.0 4000.0 4000.0 4000.0 4000.0 4000.0 4000.0 4000.0 4000.0 4000.0 4000.0 4000.0 4000.0 4000.0 4000.0 4000.0 4000.0 4000.0 4000.0 4000.0 4000.0 4000.0 4000.0 4000.0 4000.0 4000.0 4000.0 4000.0 4000.0 4000.0 4000.0 4000.0 4000.0 4000.0 4000.0 4000.0 4000.0 4000.0 4000.0 4000.0 4000.0 4000.0 4000.0 4000.0 4000.0 4000.0 4000.0 4000.0 4000.0 4000.0 4000.0 4000.0 4000.0 4000.0 4000.0 4000.0 4000.0 4000.0 4000.0 4000.0 4000.0 4000.0 4000.0 4000.0 4000.0 4000.0 4000.0 4000.0 4000.0 4000.0 4000.0 4000.0 4000.0 4000.0 4000.0 4000.0 4000.0 4000.0 4000.0 4000.0 4000.0 4000.0 4000.0 4000.0 4000.0 4000.0 4000.0 4000.0 4000.0 4000.0 4000.0 4000.0 4000.0 4000.0 4000.0 4000.0 4000.0 4000.0 4000.0 4000.0 4000.0 4000.0 4000.0 4000.0 4000.0 4000.0 4000.0 4000.0 4000.0 4000.0 4000.0 4000.0 4000.0 4000.0 4000.0 4000.0 4000.0 4000.0 4000.0 4000.0 4000.0 4000.0 4000.0 4000.0 4000.0 4000.0 4000.0 4000.0 4000.0 4000.0 4000.0 4000.0 4000.0 4000.0 4000.0 4000.0 4000.0 4000.0 4000.0 4000.0 4000.0 4000.0 4000.0 4000.0 4000.0 4000.0 4000.0 4000.0 4000.0 4000.0 4000.0 4000.0 4000.0 4000.0 4000.0 4000.0 4000.0 4000.0 4000.0 4000.0 4000.0 4000.0 4000.0 4000.0 4000.0 4000.0 4000.0 4000.0 4000.0 4000.0 4000.0 4000.0 4000.0 4000.0 4000.0 4000.0 4000.0 4000.0 4000.0 4000.0 4000.0 4000.0 4000.0 4000.0 4000.0 4000.0 4000.0 4000.0 4000.0 4000.0 4000.0 4000.0 4000.0 4000.0 4000.0 4000.0 4000.0 4000.0 4000.0 4000.0 4000.0 4000.0 4000.0 4000.0 4000.0 4000.0 4000.0 4000.0 4000.0 4000.0 4000.0 4000.0 4000.0 4000.0 4000.0 4000.0 4000.0 4000.0 4000.0 4000.0 4000.0 4000.0 4000.0 4000.0 4000.0 4000.0 4000.0 4000.0 4000.0 4000.0 4000.0 4000.0 4000.0 4000.0 4000.0 4000.0 4000.0 4000.0 4000.0 4000.0 4000.0 4000.0 4000.0 4000.0 4000.0 4000.0 4000.0 4000.0 4000.0 4000.0 4000.0 4000.0 4000.0 4000.0 4000.0 4000.0 4000.0 4000.0 4000.0 4000.0 4000.0 4000.0 4000.0 4000.0 4000.0 4000.0 4000.0 4000.0 4000.0 4000.0 4000.0 4000.0 4000.0 4000.0 4000.0 4000.0 4000.0 4000.0 4000.0 4000.0 4000.0 4000.0 4000.0 4000.0 4000.0 4000.0 4000.0 4000.0 4000.0 4000.0 4000.0 4000.0 4000.0 4000.0 4000.0 4000.0 4000.0 4000.0 4000.0 4000.0 4000.0 4000.0 4000.0 4000.0 4000.0 4000.0 4000.0 4000.0 4000.0 4000.0 4000.0 4000.0 4000.0 4000.0 4000.0 4000.0 4000.0 4000.0 4000.0 4000.0 4000.0 4000.0 4000.0 4000.0 4000.0 4000.0 4000.0 4000.0 4000.0 4000.0 4000.0 4000.0 4000.0 4000.0 4000.0 4000.0 4000.0 4000.0 4000.0 4000.0 4000.0 4000.0 4000.0 4000.0 4000.0 4000.0 4000.0 4000.0 4000.0 4000.0 4000.0 4000.0 4000.0 4000.0 4000.0 4000.0 4000.0 4000.0 4000.0 4000.0 4000.0 4000.0 4000.0 4000.0 4000.0 4000.0 4000.0 4000.0 4000.0 4000.0 4000.0 4000.0 4000.0 4000.0 4000.0 4000.0 4000.0 4000.0 4000.0 4000.0 4000.0 4000.0 4000.0 4000.0 4000.0 4000.0 4000.0 4000.0 4000.0 4000.0 4000.0 4000.0 4000.0 4000.0 4000.0 4000.0 4000.0 4000.0 4000.0 4000.0 4000.0 4000.0 4000.0 4000.0 4000.0 4000.0 4000.0 4000.0 4000.0 4000.0 4000.0 4000.0 4000.0 4000.0 4000.0 4000.0 4000.0 4000.0 4000.0 4000.0 4000.0 4000.0 4000.0 4000.0 4000.0 4000.0 4000.0 4000.0 4000.0 4000.0 4000.0 4000.0 4000.0 4000.0 4000.0 4000.0 4000.0 4000.0 4000.0 4000.0 4000.0 4000.0 4000.0 4000.0 4000.0 4000.0 4000.0 4000.0 4000.0 4000.0 4000.0 4000.0 4000.0 4000.0 4000.0 4000.0 4000.0 4000.0 4000.0 4000.0 4000.0 4000.0 4000.0 4000.0 4000.0 4000.0 4000.0 4000.0 4000.0 4000.0 4000.0 4000.0 4000.0 4000.0 4000.0 4000.0 4000.0 4000.0 4000.0 4000.0 4000.0 4000.0 4000.0 4000.0 4000.0 4000.0 4000.0 4000.0 4000.0 4000.0 4000.0 4000.0 4000.0 4000.0 4000.0 4000.0 4000.0 4000.0 4000.0 4000.0 4000.0 4000.0 4000.0 4000.0 4000.0 4000.0 4000.0 4000.0 4000.0 4000.0 4000.0 4000.0 4000.0 4000.0 4000.0 4000.0 4000.0 4000.0 4000.0 4000.0 4000.0 4000.0 4000.0 4000.0 4000.0 4000.0 4000.0 4000.0 4000.0 4000.0 4000.0 4000.0 4000.0 4000.0 4000.0 4000.0 4000.0 4000.0 4000.0 4000.0 4000.0 4000.0 4000.0 4000.0 4000.0 4000.0 4000.0 4000.0 4000.0 4000.0 4000.0 4000.0 4000.0 4000.0 4000.0 4000.0 4000.0 4000.0 4000.0 4000.0 4000.0 4000.0 4000.0 4000.0 4000.0 4000.0 4000.0 4000.0 4000.0 4000.0 4000.0 4000.0 4000.0 4000.0 4000.0 4000.0 4000.0 4000.0 4000.0 4000.0 4000.0 4000.0 4000.0 4000.0 4000.0 4000.0 4000.0 4000.0 4000.0 4000.0 4000.0 4000.0 4000.0 4000.0 4000.0 4000.0 4000.0 4000.0 4000.0 4000.0 4000.0 4000.0 4000.0 4000.0 4000.0 4000.0 4000.0 4000.0 4000.0 4000.0 4000.0 4000.0 4000.0 4000.0 4000.0 4000.0 4000.0 4000.0 4000.0 4000.0 4000.0 4000.0 4000.0 4000.0 4000.0 4000.0 4000.0 4000.0 4000.0 4000.0 4000.0 4000.0 4000.0 4000.0 4000.0 4000.0 4000.0 4000.0 4000.0 4000.0 4000.0 4000.0 4000.0 4000.0 4000.0 4000.0 4000.0 4000.0 4000.0 4000.0 4000.0 4000.0 4000.0 4000.0 4000.0 4000.0 4000.0 4000.0 4000.0 4000.0 4000.0 4000.0 4000.0 4000.0 4000.0 4000.0 4000.0 4000.0 4000.0 4000.0 4000.0 4000.0 4000.0 4000.0 4000.0 4000.0 4000.0 4000.0 4000.0 4000.0 4000.0 4000.0 4000.0 4000.0 4000.0 4000.0 4000.0 4000.0 4000.0 4000.0 4000.0 4000.0 4000.0 4000.0 4000.0 4000.0 4000.0 4000.0 4000.0 4000.0 4000.0 4000.0 4000.0 4000.0 4000.0 4000.0 4000.0 4000.0 4000.0 4000.0 4000.0 4000.0 4000.0 4000.0 4000.0 4000.0 4000.0 4000.0 4000.0 4000.0 4000.0 4000.0 4000.0 4000.0 4000.0 4000.0 4000.0 4000.0 4000.0 4000.0 4000.0 4000.0 4000.0 4000.0 4000.0 4000.0 4000.0 4000.0 4000.0 4000.0 4000.0 4000.0 4000.0 4000.0 4000.0 4000.0 4000.0 4000.0 4000.0 4000.0 4000.0 4000.0 4000.0 4000.0 4000.0 4000.0 4000.0 4000.0 4000.0 4000.0 4000.0 4000.0 4000.0 4000.0 4000.0 4000.0 4000.0 4000.0 4000.0 4000.0 4000.0 4000.0 4000.0 4000.0 4000.0 4000.0 4000.0 4000.0 4000.0 4000.0 4000.0 4000.0 4000.0 4000.0 4000.0 4000.0 4000.0 4000.0 4000.0 4000.0 4000.0 4000.0 4000.0 4000.0 4000.0 4000.0 4000.0 4000.0 4000.0 4000.0 4000.0 4000.0 4000.0 4000.0 4000.0 4000.0 4000.0 4000.0 4000.0 4000.0 4000.0 4000.0 4000.0 4000.0 4000.0 4000.0 4000.0 4000.0 4000.0 4000.0 4000.0 4000.0 4000.0 4000.0 4000.0 4000.0 4000.0 4000.0 4000.0 4000.0 4000.0 4000.0 4000.0 4000.0 4000.0 4000.0 4000.0 4000.0 4000.0 4000.0 4000.0 4000.0 4000.0 4000.0 4000.0 4000.0 4000.0 4000.0 4000.0 4000.0 4000.0 4000.0 4000.0 4000.0 4000.0 4000.0 4000.0 4000.0 4000.0 4000.0 4000.0 4000.0 4000.0 4000.0 4000.0 4000.0 4000.0 4000.0 4000.0 4000.0 4000.0 4000.0 4000.0 4000.0 4000.0 4000.0 4000.0 4000.0 4000.0 4000.0 4000.0 4000.0 4000.0 4000.0 4000.0 4000.0 4000.0 4000.0 4000.0 4000.0 4000.0 4000.0 4000.0 4000.0 4000.0 4000.0 4000.0 4000.0 4000.0 4000.0 4000.0 4000.0 4000.0 4000.0 4000.0 4000.0 4000.0 4000.0 4000.0 4000.0 4000.0 4000.0 4000.0 4000.0 4000.0 4000.0 4000.0 4000.0 4000.0 4000.0 4000.0 4000.0 4000.0 4000.0 4000.0 4000.0 4000.0 4000.0 4000.0 4000.0 4000.0 4000.0 4000.0 4000.0 4000.0 4000.0 4000.0 4000.0 4000.0 4000.0 4000.0 4000.0 4000.0 4000.0 4000.0 4000.0 4000.0 4000.0 4000.0 4000.0 4000.0 4000.0 4000.0 4000.0 4000.0 4000.0 4000.0 4000.0 4000.0 4000.0 4000.0 4000.0 4000.0 4000.0 4000.0 4000.0 4000.0 4000.0 4000.0 4000.0 4000.0 4000.0 4000.0 4000.0 4000.0 4000.0 4000.0 4000.0 4000.0 4000.0 4000.0 4000.0 4000.0 4000.0 4000.0 4000.0 4000.0 4000.0 4000.0 4000.0 4000.0 4000.0 4000.0 4000.0 4000.0 4000.0 4000.0 4000.0 4000.0 4000.0 4000.0 4000.0 4000.0 4000.0 4000.0 4000.0 4000.0 4000.0 4000.0 4000.0 4000.0 4000.0 4000.0 4000.0 4000.0 4000.0 4000.0 4000.0 4000.0 4000.0 4000.0 4000.0 4000.0 4000.0 4000.0 4000.0 4000.0 4000.0 4000.0 4000.0 4000.0 4000.0 4000.0 4000.0 4000.0 4000.0 4000.0 4000.0 4000.0 4000.0 4000.0 4000.0 4000.0 4000.0 4000.0 4000.0 4000.0 4000.0 4000.0 4000.0 4000.0 4000.0 4000.0 4000.0 4000.0 4000.0 4000.0 4000.0 4000.0 4000.0 4000.0 4000.0 4000.0 4000.0 4000.0 4000.0 4000.0 4000.0 4000.0 4000.0 4000.0 4000.0 4000.0 4000.0 4000.0 4000.0 4000.0 4000.0 4000.0 4000.0 4000.0 4000.0 4000.0 4000.0 4000.0 4000.0 4000.0 4000.0 4000.0 4000.0 4000.0 4000.0 4000.0 4000.0 4000.0 4000.0 4000.0 4000.0 4000.0 4000.0 4000.0 4000.0 4000.0 4000.0 4000.0 4000.0 4000.0 4000.0 4000.0 4000.0 4000.0 4000.0 4000.0 4000.0 4000.0 4000.0 4000.0 4000.0 4000.0 4000.0 4000.0 4000.0 4000.0 4000.0 4000.0 4000.0 4000.0 4000.0 4000.0 4000.0 4000.0 4000.0 4000.0 4000.0 4000.0 4000.0 4000.0 4000.0 4000.0 4000.0 4000.0 4000.0 4000.0 4000.0 4000.0 4000.0 4000.0 4000.0 4000.0 4000.0 4000.0 4000.0 4000.0 4000.0 4000.0 4000.0 4000.0 4000.0 4000.0 4000.0 4000.0 4000.0 4000.0 4000.0 4000.0 4000.0 4000.0 4000.0 4000.0 4000.0 4000.0 4000.0 4000.0 4000.0 4000.0 4000.0 4000.0 4000.0 4000.0 4000.0 4000.0 4000.0 4000.0 4000.0 4000.0 4000.0 4000.0 4000.0 4000.0 4000.0 4000.0 4000.0 4000.0 4000.0 4000.0 4000.0 4000.0 4000.0 4000.0 4000.0 4000.0 4000.0 4000.0 4000.0 4000.0 4000.0 4000.0 4000.0 4000.0 4000.0 4000.0 4000.0 4000.0 4000.0 4000.0 4000.0 4000.0 4000.0 4000.0 4000.0 4000.0 4000.0 4000.0 4000.0 4000.0 4000.0 4000.0 4000.0 4000.0 4000.0 4000.0 4000.0 4000.0 4000.0 4000.0 4000.0 4000.0 4000.0 4000.0 4000.0 4000.0 4000.0 4000.0 4000.0 4000.0 4000.0 4000.0 4000.0 4000.0 4000.0 4000.0 4000.0 4000.0 4000.0 4000.0 4000.0 4000.0 4000.0 4000.0 4000.0 4000.0 4000.0 4000.0 4000.0 4000.0 4000.0 4000.0 4000.0 4000.0 4000.0 4000.0 4000.0 4000.0 4000.0 4000.0 4000.0 4000.0 4000.0 4000.0 4000.0 4000.0 4000.0 4000.0 4000.0 4000.0 4000.0 4000.0 4000.0 4000.0 4000.0 4000.0 4000.0 4000.0 4000.0 4000.0 4000.0 4000.0 4000.0 4000.0 4000.0 4000.0 4000.0 4000.0 4000.0 4000.0 4000.0 4000.0 4000.0 4000.0 4000.0 4000.0 4000.0 4000.0 4000.0 4000.0 4000.0 4000.0 4000.0 4000.0 4000.0 4000.0 4000.0 4000.0 4000.0 4000.0 4000.0 4000.0 4000.0 4000.0 4000.0 4000.0 4000.0 4000.0 4000.0 4000.0 4000.0 4000.0 4000.0 4000.0 4000.0 4000.0 4000.0 4000.0 4000.0 4000.0 4000.0 4000.0 4000.0 4000.0 4000.0 4000.0 4000.0 4000.0 4000.0 4000.0 4000.0 4000.0 4000.0 4000.0 4000.0 4000.0 4000.0 4000.0 4000.0 4000.0 4000.0 4000.0 4000.0 4000.0 4000.0 4000.0 4000.0 4000.0 4000.0 4000.0 4000.0 4000.0 4000.0 4000.0 4000.0 4000.0 4000.0 4000.0 4000.0 4000.0 4000.0 4000.0 4000.0 4000.0 4000.0 4000.0 4000.0 4000.0 4000.0 4000.0 4000.0 4000.0 4000.0 4000.0 4000.0 4000.0 4000.0 4000.0 4000.0 4000.0 4000.0 4000.0 4000.0 4000.0 4000.0 4000.0 4000.0 4000.0 4000.0 4000.0 4000.0 4000.0 4000.0 4000.0 4000.0 4000.0 4000.0 4000.0 4000.0 4000.0 4000.0 4000.0 4000.0 4000.0 4000.0 4000.0 4000.0 4000.0 4000.0 4000.0 4000.0 4000.0 4000.0 4000.0 4000.0 4000.0 4000.0 4000.0 4000.0 4000.0 4000.0 4000.0 4000.0 4000.0 4000.0 4000.0 4000.0 4000.0 4000.0 4000.0 4000.0 4000.0 4000.0 4000.0 4000.0 4000.0 4000.0 4000.0 4000.0 4000.0 4000.0 4000.0 4000.0 4000.0 4000.0 4000.0 4000.0 4000.0 4000.0 4000.0 4000.0 4000.0 4000.0 4000.0 4000.0 4000.0 4000.0 4000.0 4000.0 4000.0 4000.0 4000.0 4000.0 4000.0 4000.0 4000.0 4000.0 4000.0 4000.0 4000.0 4000.0 4000.0 4000.0 4000.0 4000.0 4000.0 4000.0 4000.0 4000.0 4000.0 4000.0 4000.0 4000.0 4000.0 4000.0 4000.0 4000.0 4000.0 4000.0 4000.0 4000.0 4000.0 4000.0 4000.0 4000.0 4000.0 4000.0 4000.0 4000.0 4000.0 4000.0 4000.0 4000.0 4000.0 4000.0 4000.0 4000.0 4000.0 4000.0 4000.0 4000.0 4000.0 4000.0 4000.0 4000.0 4000.0 4000.0 4000.0 4000.0 4000.0 4000.0 4000.0 4000.0 4000.0 4000.0 4000.0 4000.0 4000.0 4000.0 4000.0 4000.0 4000.0 4000.0 4000.0 4000.0 4000.0 4000.0 4000.0 4000.0 4000.0 4000.0 4000.0 4000.0 4000.0 4000.0 4000.0 4000.0 4000.0 4000.0 4000.0 4000.0 4000.0 4000.0 4000.0 4000.0 4000.0 4000.0 4000.0 4000.0 4000.0 4000.0 4000.0 4000.0 4000.0 4000.0 4000.0 4000.0 4000.0 4000.0 4000.0 4000.0 4000.0 4000.0 4000.0 4000.0 4000.0 4000.0 4000.0 4000.0 4000.0 4000.0 4000.0 4000.0 4000.0 4000.0 4000.0 4000.0 4000.0 4000.0 4000.0 4000.0 4000.0 4000.0 4000.0 4000.0 4000.0 4000.0 4000.0 4000.0 4000.0 4000.0 4000.0 4000.0 4000.0 4000.0 4000.0 4000.0 4000.0 4000.0 4000.0 4000.0 4000.0 4000.0 4000.0 4000.0 4000.0 4000.0 4000.0 4000.0 4000.0 4000.0 4000.0 4000.0 4000.0 4000.0 4000.0 4000.0 4000.0 4000.0 4000.0 4000.0 4000.0 4000.0 4000.0 4000.0 4000.0 4000.0 4000.0 4000.0 4000.0 4000.0 4000.0 4000.0 4000.0 4000.0 4000.0 4000.0 4000.0 4000.0 4000.0 4000.0 4000.0 4000.0 4000.0 4000.0 4000.0 4000.0 4000.0 4000.0 4000.0 4000.0 4000.0 4000.0 4000.0 4000.0 4000.0 4000.0 4000.0 4000.0 4000.0 4000.0 4000.0 4000.0 4000.0 4000.0 4000.0 4000.0 4000.0 4000.0 4000.0 4000.0 4000.0 4000.0 4000.0 4000.0 4000.0 4000.0 4000.0 4000.0 4000.0 4000.0 4000.0 4000.0 4000.0 4000.0 4000.0 4000.0 4000.0 4000.0 4000.0 4000.0 4000.0 4000.0 4000.0 4000.0 4000.0 4000.0 4000.0 4000.0 4000.0 4000.0 4000.0 4000.0 4000.0 4000.0 4000.0 4000.0 4000.0 4000.0 4000.0 4000.0 4000.0 4000.0 4000.0 4000.0 4000.0 4000.0 4000.0 4000.0 4000.0 4000.0 4000.0 4000.0 4000.0 4000.0 4000.0 4000.0 4000.0 4000.0 4000.0 4000.0 4000.0 4000.0 4000.0 4000.0 4000.0 4000.0 4000.0 4000.0 4000.0 4000.0 4000.0 4000.0 4000.0 4000.0 4000.0 4000.0 4000.0 4000.0 4000.0 4000.0 4000.0 4000.0 4000.0 4000.0 4000.0 4000.0 4000.0 4000.0 4000.0 4000.0 4000.0 4000.0 4000.0 4000.0 4000.0 4000.0 4000.0 4000.0 4000.0 4000.0 4000.0 4000.0 4000.0 4000.0 4000.0 4000.0 4000.0 4000.0 4000.0 4000.0 4000.0 4000.0 4000.0 4000.0 4000.0 4000.0 4000.0 4000.0 4000.0 4000.0 4000.0 4000.0 4000.0 4000.0 4000.0 4000.0 4000.0 4000.0 4000.0 4000.0 4000.0 4000.0 4000.0 4000.0 4000.0 4000.0 4000.0 4000.0 4000.0 4000.0 4000.0 4000.0 4000.0 4000.0 4000.0 4000.0 4000.0 4000.0 4000.0 4000.0 4000.0 4000.0 4000.0 4000.0 4000.0 4000.0 4000.0 4000.0 4000.0 4000.0 4000.0 4000.0 4000.0 4000.0 4000.0 4000.0 4000.0 4000.0 4000.0 4000.0 4000.0 4000.0 4000.0 4000.0 4000.0 4000.0 4000.0 4000.0 4000.0 4000.0 4000.0 4000.0 4000.0 4000.0 4000.0 4000.0 4000.0 4000.0 4000.0 4000.0 4000.0 4000.0 4000.0 4000.0 4000.0 4000.0 4000.0 4000.0 4000.0 4000.0 4000.0 4000.0 4000.0 4000.0 4000.0 4000.0 4000.0 4000.0 4000.0 4000.0 4000.0 4000.0 4000.0 SCALARS Mass float 1
LOOKUP_TABLE default
11309700000.0 11309700000.0 11309700000.0 11309700000.0 11309700000.0 11309700000.0 11309700000.0 11309700000.0 11309700000.0 11309700000.0 11309700000.0 11309700000.0 11309700000.0 11309700000.0 11309700000.0 11309700000.0 11309700000.0 11309700000.0 11309700000.0 11309700000.0 11309700000.0 11309700000.0 11309700000.0 11309700000.0 11309700000.0 11309700000.0 11309700000.0 11309700000.0 11309700000.0 11309700000.0 11309700000.0 11309700000.0 11309700000.0 11309700000.0 11309700000.0 11309700000.0 11309700000.0 11309700000.0 11309700000.0 11309700000.0 11309700000.0 11309700000.0 11309700000.0 11309700000.0 11309700000.0 11309700000.0 11309700000.0 11309700000.0 11309700000.0 11309700000.0 11309700000.0 11309700000.0 11309700000.0 11309700000.0 11309700000.0 11309700000.0 11309700000.0 11309700000.0 11309700000.0 11309700000.0 11309700000.0 11309700000.0 11309700000.0 11309700000.0 11309700000.0 11309700000.0 11309700000.0 11309700000.0 11309700000.0 11309700000.0 11309700000.0 11309700000.0 11309700000.0 11309700000.0 11309700000.0 11309700000.0 11309700000.0 11309700000.0 11309700000.0 11309700000.0 11309700000.0 11309700000.0 11309700000.0 11309700000.0 11309700000.0 11309700000.0 11309700000.0 11309700000.0 11309700000.0 11309700000.0 11309700000.0 11309700000.0 11309700000.0 11309700000.0 11309700000.0 11309700000.0 11309700000.0 11309700000.0 11309700000.0 11309700000.0 11309700000.0 11309700000.0 11309700000.0 11309700000.0 11309700000.0 11309700000.0 11309700000.0 11309700000.0 11309700000.0 11309700000.0 11309700000.0 11309700000.0 11309700000.0 11309700000.0 11309700000.0 11309700000.0 11309700000.0 11309700000.0 11309700000.0 11309700000.0 11309700000.0 11309700000.0 11309700000.0 11309700000.0 11309700000.0 11309700000.0 11309700000.0 11309700000.0 11309700000.0 11309700000.0 11309700000.0 11309700000.0 11309700000.0 11309700000.0 11309700000.0 11309700000.0 11309700000.0 11309700000.0 11309700000.0 11309700000.0 11309700000.0 11309700000.0 11309700000.0 11309700000.0 11309700000.0 11309700000.0 11309700000.0 11309700000.0 11309700000.0 11309700000.0 11309700000.0 11309700000.0 11309700000.0 11309700000.0 11309700000.0 11309700000.0 11309700000.0 11309700000.0 11309700000.0 11309700000.0 11309700000.0 11309700000.0 11309700000.0 11309700000.0 11309700000.0 11309700000.0 11309700000.0 11309700000.0 11309700000.0 11309700000.0 11309700000.0 11309700000.0 11309700000.0 11309700000.0 11309700000.0 11309700000.0 11309700000.0 11309700000.0 11309700000.0 11309700000.0 11309700000.0 11309700000.0 11309700000.0 11309700000.0 11309700000.0 11309700000.0 11309700000.0 11309700000.0 11309700000.0 11309700000.0 11309700000.0 11309700000.0 11309700000.0 11309700000.0 11309700000.0 11309700000.0 11309700000.0 11309700000.0 11309700000.0 11309700000.0 11309700000.0 11309700000.0 11309700000.0 11309700000.0 11309700000.0 11309700000.0 11309700000.0 11309700000.0 11309700000.0 11309700000.0 11309700000.0 11309700000.0 11309700000.0 11309700000.0 11309700000.0 11309700000.0 11309700000.0 11309700000.0 11309700000.0 11309700000.0 11309700000.0 11309700000.0 11309700000.0 11309700000.0 11309700000.0 11309700000.0 11309700000.0 11309700000.0 11309700000.0 11309700000.0 11309700000.0 11309700000.0 11309700000.0 11309700000.0 11309700000.0 11309700000.0 11309700000.0 11309700000.0 11309700000.0 11309700000.0 11309700000.0 11309700000.0 11309700000.0 11309700000.0 11309700000.0 11309700000.0 11309700000.0 11309700000.0 11309700000.0 11309700000.0 11309700000.0 11309700000.0 11309700000.0 11309700000.0 11309700000.0 11309700000.0 11309700000.0 11309700000.0 11309700000.0 11309700000.0 11309700000.0 11309700000.0 11309700000.0 11309700000.0 11309700000.0 11309700000.0 11309700000.0 11309700000.0 11309700000.0 11309700000.0 11309700000.0 11309700000.0 11309700000.0 11309700000.0 11309700000.0 11309700000.0 11309700000.0 11309700000.0 11309700000.0 11309700000.0 11309700000.0 11309700000.0 11309700000.0 11309700000.0 11309700000.0 11309700000.0 11309700000.0 11309700000.0 11309700000.0 11309700000.0 11309700000.0 11309700000.0 11309700000.0 11309700000.0 11309700000.0 11309700000.0 11309700000.0 11309700000.0 11309700000.0 11309700000.0 11309700000.0 11309700000.0 11309700000.0 11309700000.0 11309700000.0 11309700000.0 11309700000.0 11309700000.0 11309700000.0 11309700000.0 11309700000.0 11309700000.0 11309700000.0 11309700000.0 11309700000.0 11309700000.0 11309700000.0 11309700000.0 11309700000.0 11309700000.0 11309700000.0 11309700000.0 11309700000.0 11309700000.0 11309700000.0 11309700000.0 11309700000.0 11309700000.0 11309700000.0 11309700000.0 11309700000.0 11309700000.0 11309700000.0 11309700000.0 11309700000.0 11309700000.0 11309700000.0 11309700000.0 11309700000.0 11309700000.0 11309700000.0 11309700000.0 11309700000.0 11309700000.0 11309700000.0 11309700000.0 11309700000.0 11309700000.0 11309700000.0 11309700000.0 11309700000.0 11309700000.0 11309700000.0 11309700000.0 11309700000.0 11309700000.0 11309700000.0 11309700000.0 11309700000.0 11309700000.0 11309700000.0 11309700000.0 11309700000.0 11309700000.0 11309700000.0 11309700000.0 11309700000.0 11309700000.0 11309700000.0 11309700000.0 11309700000.0 11309700000.0 11309700000.0 11309700000.0 11309700000.0 11309700000.0 11309700000.0 11309700000.0 11309700000.0 11309700000.0 11309700000.0 11309700000.0 11309700000.0 11309700000.0 11309700000.0 11309700000.0 11309700000.0 11309700000.0 11309700000.0 11309700000.0 11309700000.0 11309700000.0 11309700000.0 11309700000.0 11309700000.0 11309700000.0 11309700000.0 11309700000.0 11309700000.0 11309700000.0 11309700000.0 11309700000.0 11309700000.0 11309700000.0 11309700000.0 11309700000.0 11309700000.0 11309700000.0 11309700000.0 11309700000.0 11309700000.0 11309700000.0 11309700000.0 11309700000.0 11309700000.0 11309700000.0 11309700000.0 11309700000.0 11309700000.0 11309700000.0 11309700000.0 11309700000.0 11309700000.0 11309700000.0 11309700000.0 11309700000.0 11309700000.0 11309700000.0 11309700000.0 11309700000.0 11309700000.0 11309700000.0 11309700000.0 11309700000.0 11309700000.0 11309700000.0 11309700000.0 11309700000.0 11309700000.0 11309700000.0 11309700000.0 11309700000.0 11309700000.0 11309700000.0 11309700000.0 11309700000.0 11309700000.0 11309700000.0 11309700000.0 11309700000.0 11309700000.0 11309700000.0 11309700000.0 11309700000.0 11309700000.0 11309700000.0 11309700000.0 11309700000.0 11309700000.0 11309700000.0 11309700000.0 11309700000.0 11309700000.0 11309700000.0 11309700000.0 11309700000.0 11309700000.0 11309700000.0 11309700000.0 11309700000.0 11309700000.0 11309700000.0 11309700000.0 11309700000.0 11309700000.0 11309700000.0 11309700000.0 11309700000.0 11309700000.0 11309700000.0 11309700000.0 11309700000.0 11309700000.0 11309700000.0 11309700000.0 11309700000.0 11309700000.0 11309700000.0 11309700000.0 11309700000.0 11309700000.0 11309700000.0 11309700000.0 11309700000.0 11309700000.0 11309700000.0 11309700000.0 11309700000.0 11309700000.0 11309700000.0 11309700000.0 11309700000.0 11309700000.0 11309700000.0 11309700000.0 11309700000.0 11309700000.0 11309700000.0 11309700000.0 11309700000.0 11309700000.0 11309700000.0 11309700000.0 11309700000.0 11309700000.0 11309700000.0 11309700000.0 11309700000.0 11309700000.0 11309700000.0 11309700000.0 11309700000.0 11309700000.0 11309700000.0 11309700000.0 11309700000.0 11309700000.0 11309700000.0 11309700000.0 11309700000.0 11309700000.0 11309700000.0 11309700000.0 11309700000.0 11309700000.0 11309700000.0 11309700000.0 11309700000.0 11309700000.0 11309700000.0 11309700000.0 11309700000.0 11309700000.0 11309700000.0 11309700000.0 11309700000.0 11309700000.0 11309700000.0 11309700000.0 11309700000.0 11309700000.0 11309700000.0 11309700000.0 11309700000.0 11309700000.0 11309700000.0 11309700000.0 11309700000.0 11309700000.0 11309700000.0 11309700000.0 11309700000.0 11309700000.0 11309700000.0 11309700000.0 11309700000.0 11309700000.0 11309700000.0 11309700000.0 11309700000.0 11309700000.0 11309700000.0 11309700000.0 11309700000.0 11309700000.0 11309700000.0 11309700000.0 11309700000.0 11309700000.0 11309700000.0 11309700000.0 11309700000.0 11309700000.0 11309700000.0 11309700000.0 11309700000.0 11309700000.0 11309700000.0 11309700000.0 11309700000.0 11309700000.0 11309700000.0 11309700000.0 11309700000.0 11309700000.0 11309700000.0 11309700000.0 11309700000.0 11309700000.0 11309700000.0 11309700000.0 11309700000.0 11309700000.0 11309700000.0 11309700000.0 11309700000.0 11309700000.0 11309700000.0 11309700000.0 11309700000.0 11309700000.0 11309700000.0 11309700000.0 11309700000.0 11309700000.0 11309700000.0 11309700000.0 11309700000.0 11309700000.0 11309700000.0 11309700000.0 11309700000.0 11309700000.0 11309700000.0 11309700000.0 11309700000.0 11309700000.0 11309700000.0 11309700000.0 11309700000.0 11309700000.0 11309700000.0 11309700000.0 11309700000.0 11309700000.0 11309700000.0 11309700000.0 11309700000.0 11309700000.0 11309700000.0 11309700000.0 11309700000.0 11309700000.0 11309700000.0 11309700000.0 11309700000.0 11309700000.0 11309700000.0 11309700000.0 11309700000.0 11309700000.0 11309700000.0 11309700000.0 11309700000.0 11309700000.0 11309700000.0 11309700000.0 11309700000.0 11309700000.0 11309700000.0 11309700000.0 11309700000.0 11309700000.0 11309700000.0 11309700000.0 11309700000.0 11309700000.0 11309700000.0 11309700000.0 11309700000.0 11309700000.0 11309700000.0 11309700000.0 11309700000.0 11309700000.0 11309700000.0 11309700000.0 11309700000.0 11309700000.0 11309700000.0 11309700000.0 11309700000.0 11309700000.0 11309700000.0 11309700000.0 11309700000.0 11309700000.0 11309700000.0 11309700000.0 11309700000.0 11309700000.0 11309700000.0 11309700000.0 11309700000.0 11309700000.0 11309700000.0 11309700000.0 11309700000.0 11309700000.0 11309700000.0 11309700000.0 11309700000.0 11309700000.0 11309700000.0 11309700000.0 11309700000.0 11309700000.0 11309700000.0 11309700000.0 11309700000.0 11309700000.0 11309700000.0 11309700000.0 11309700000.0 11309700000.0 11309700000.0 11309700000.0 11309700000.0 11309700000.0 11309700000.0 11309700000.0 11309700000.0 11309700000.0 11309700000.0 11309700000.0 11309700000.0 11309700000.0 11309700000.0 11309700000.0 11309700000.0 11309700000.0 11309700000.0 11309700000.0 11309700000.0 11309700000.0 11309700000.0 11309700000.0 11309700000.0 11309700000.0 11309700000.0 11309700000.0 11309700000.0 11309700000.0 11309700000.0 11309700000.0 11309700000.0 11309700000.0 11309700000.0 11309700000.0 11309700000.0 11309700000.0 11309700000.0 11309700000.0 11309700000.0 11309700000.0 11309700000.0 11309700000.0 11309700000.0 11309700000.0 11309700000.0 11309700000.0 11309700000.0 11309700000.0 11309700000.0 11309700000.0 11309700000.0 11309700000.0 11309700000.0 11309700000.0 11309700000.0 11309700000.0 11309700000.0 11309700000.0 11309700000.0 11309700000.0 11309700000.0 11309700000.0 11309700000.0 11309700000.0 11309700000.0 11309700000.0 11309700000.0 11309700000.0 11309700000.0 11309700000.0 11309700000.0 11309700000.0 11309700000.0 11309700000.0 11309700000.0 11309700000.0 11309700000.0 11309700000.0 11309700000.0 11309700000.0 11309700000.0 11309700000.0 11309700000.0 11309700000.0 11309700000.0 11309700000.0 11309700000.0 11309700000.0 11309700000.0 11309700000.0 11309700000.0 11309700000.0 11309700000.0 11309700000.0 11309700000.0 11309700000.0 11309700000.0 11309700000.0 11309700000.0 11309700000.0 11309700000.0 11309700000.0 11309700000.0 11309700000.0 11309700000.0 11309700000.0 11309700000.0 11309700000.0 11309700000.0 11309700000.0 11309700000.0 11309700000.0 11309700000.0 11309700000.0 11309700000.0 11309700000.0 11309700000.0 11309700000.0 11309700000.0 11309700000.0 11309700000.0 11309700000.0 11309700000.0 11309700000.0 11309700000.0 11309700000.0 11309700000.0 11309700000.0 11309700000.0 11309700000.0 11309700000.0 11309700000.0 11309700000.0 11309700000.0 11309700000.0 11309700000.0 11309700000.0 11309700000.0 11309700000.0 11309700000.0 11309700000.0 11309700000.0 11309700000.0 11309700000.0 11309700000.0 11309700000.0 11309700000.0 11309700000.0 11309700000.0 11309700000.0 11309700000.0 11309700000.0 11309700000.0 11309700000.0 11309700000.0 11309700000.0 11309700000.0 11309700000.0 11309700000.0 11309700000.0 11309700000.0 11309700000.0 11309700000.0 11309700000.0 11309700000.0 11309700000.0 11309700000.0 11309700000.0 11309700000.0 11309700000.0 11309700000.0 11309700000.0 11309700000.0 11309700000.0 11309700000.0 11309700000.0 11309700000.0 11309700000.0 11309700000.0 11309700000.0 11309700000.0 11309700000.0 11309700000.0 11309700000.0 11309700000.0 11309700000.0 11309700000.0 11309700000.0 11309700000.0 11309700000.0 11309700000.0 11309700000.0 11309700000.0 11309700000.0 11309700000.0 11309700000.0 11309700000.0 11309700000.0 11309700000.0 11309700000.0 11309700000.0 11309700000.0 11309700000.0 11309700000.0 11309700000.0 11309700000.0 11309700000.0 11309700000.0 11309700000.0 11309700000.0 11309700000.0 11309700000.0 11309700000.0 11309700000.0 11309700000.0 11309700000.0 11309700000.0 11309700000.0 11309700000.0 11309700000.0 11309700000.0 11309700000.0 11309700000.0 11309700000.0 11309700000.0 11309700000.0 11309700000.0 11309700000.0 11309700000.0 11309700000.0 11309700000.0 11309700000.0 11309700000.0 11309700000.0 11309700000.0 11309700000.0 11309700000.0 11309700000.0 11309700000.0 11309700000.0 11309700000.0 11309700000.0 11309700000.0 11309700000.0 11309700000.0 11309700000.0 11309700000.0 11309700000.0 11309700000.0 11309700000.0 11309700000.0 11309700000.0 11309700000.0 11309700000.0 11309700000.0 11309700000.0 11309700000.0 11309700000.0 11309700000.0 11309700000.0 11309700000.0 11309700000.0 11309700000.0 11309700000.0 11309700000.0 11309700000.0 11309700000.0 11309700000.0 11309700000.0 11309700000.0 11309700000.0 11309700000.0 11309700000.0 11309700000.0 11309700000.0 11309700000.0 11309700000.0 11309700000.0 11309700000.0 11309700000.0 11309700000.0 11309700000.0 11309700000.0 11309700000.0 11309700000.0 11309700000.0 11309700000.0 11309700000.0 11309700000.0 11309700000.0 11309700000.0 11309700000.0 11309700000.0 11309700000.0 11309700000.0 11309700000.0 11309700000.0 11309700000.0 11309700000.0 11309700000.0 11309700000.0 11309700000.0 11309700000.0 11309700000.0 11309700000.0 11309700000.0 11309700000.0 11309700000.0 11309700000.0 11309700000.0 11309700000.0 11309700000.0 11309700000.0 11309700000.0 11309700000.0 11309700000.0 11309700000.0 11309700000.0 11309700000.0 11309700000.0 11309700000.0 11309700000.0 11309700000.0 11309700000.0 11309700000.0 11309700000.0 11309700000.0 11309700000.0 11309700000.0 11309700000.0 11309700000.0 11309700000.0 11309700000.0 11309700000.0 11309700000.0 11309700000.0 11309700000.0 11309700000.0 11309700000.0 11309700000.0 11309700000.0 11309700000.0 11309700000.0 11309700000.0 11309700000.0 11309700000.0 11309700000.0 11309700000.0 11309700000.0 11309700000.0 11309700000.0 11309700000.0 11309700000.0 11309700000.0 11309700000.0 11309700000.0 11309700000.0 11309700000.0 11309700000.0 11309700000.0 11309700000.0 11309700000.0 11309700000.0 11309700000.0 11309700000.0 11309700000.0 11309700000.0 11309700000.0 11309700000.0 11309700000.0 11309700000.0 11309700000.0 11309700000.0 11309700000.0 11309700000.0 11309700000.0 11309700000.0 11309700000.0 11309700000.0 11309700000.0 11309700000.0 11309700000.0 11309700000.0 11309700000.0 11309700000.0 11309700000.0 11309700000.0 11309700000.0 11309700000.0 11309700000.0 11309700000.0 11309700000.0 11309700000.0 11309700000.0 11309700000.0 11309700000.0 11309700000.0 11309700000.0 11309700000.0 11309700000.0 11309700000.0 11309700000.0 11309700000.0 11309700000.0 11309700000.0 11309700000.0 11309700000.0 11309700000.0 11309700000.0 11309700000.0 11309700000.0 11309700000.0 11309700000.0 11309700000.0 11309700000.0 11309700000.0 11309700000.0 11309700000.0 11309700000.0 11309700000.0 11309700000.0 11309700000.0 11309700000.0 11309700000.0 11309700000.0 11309700000.0 11309700000.0 11309700000.0 11309700000.0 11309700000.0 11309700000.0 11309700000.0 11309700000.0 11309700000.0 11309700000.0 11309700000.0 11309700000.0 11309700000.0 11309700000.0 11309700000.0 11309700000.0 11309700000.0 11309700000.0 11309700000.0 11309700000.0 11309700000.0 11309700000.0 11309700000.0 11309700000.0 11309700000.0 11309700000.0 11309700000.0 11309700000.0 11309700000.0 11309700000.0 11309700000.0 11309700000.0 11309700000.0 11309700000.0 11309700000.0 11309700000.0 11309700000.0 11309700000.0 11309700000.0 11309700000.0 11309700000.0 11309700000.0 11309700000.0 11309700000.0 11309700000.0 11309700000.0 11309700000.0 11309700000.0 11309700000.0 11309700000.0 11309700000.0 11309700000.0 11309700000.0 11309700000.0 11309700000.0 11309700000.0 11309700000.0 11309700000.0 11309700000.0 11309700000.0 11309700000.0 11309700000.0 11309700000.0 11309700000.0 11309700000.0 11309700000.0 11309700000.0 11309700000.0 11309700000.0 11309700000.0 11309700000.0 11309700000.0 11309700000.0 11309700000.0 11309700000.0 11309700000.0 11309700000.0 11309700000.0 11309700000.0 11309700000.0 11309700000.0 11309700000.0 11309700000.0 11309700000.0 11309700000.0 11309700000.0 11309700000.0 11309700000.0 11309700000.0 11309700000.0 11309700000.0 11309700000.0 11309700000.0 11309700000.0 11309700000.0 11309700000.0 11309700000.0 11309700000.0 11309700000.0 11309700000.0 11309700000.0 11309700000.0 11309700000.0 11309700000.0 11309700000.0 11309700000.0 11309700000.0 11309700000.0 11309700000.0 11309700000.0 11309700000.0 11309700000.0 11309700000.0 11309700000.0 11309700000.0 11309700000.0 11309700000.0 11309700000.0 11309700000.0 11309700000.0 11309700000.0 11309700000.0 11309700000.0 11309700000.0 11309700000.0 11309700000.0 11309700000.0 11309700000.0 11309700000.0 11309700000.0 11309700000.0 11309700000.0 11309700000.0 11309700000.0 11309700000.0 11309700000.0 11309700000.0 11309700000.0 11309700000.0 11309700000.0 11309700000.0 11309700000.0 11309700000.0 11309700000.0 11309700000.0 11309700000.0 11309700000.0 11309700000.0 11309700000.0 11309700000.0 11309700000.0 11309700000.0 11309700000.0 11309700000.0 11309700000.0 11309700000.0 11309700000.0 11309700000.0 11309700000.0 11309700000.0 11309700000.0 11309700000.0 11309700000.0 11309700000.0 11309700000.0 11309700000.0 11309700000.0 11309700000.0 11309700000.0 11309700000.0 11309700000.0 11309700000.0 11309700000.0 11309700000.0 11309700000.0 11309700000.0 11309700000.0 11309700000.0 11309700000.0 11309700000.0 11309700000.0 11309700000.0 11309700000.0 11309700000.0 11309700000.0 11309700000.0 11309700000.0 11309700000.0 11309700000.0 11309700000.0 11309700000.0 11309700000.0 11309700000.0 11309700000.0 11309700000.0 11309700000.0 11309700000.0 11309700000.0 11309700000.0 11309700000.0 11309700000.0 11309700000.0 11309700000.0 11309700000.0 11309700000.0 11309700000.0 11309700000.0 11309700000.0 11309700000.0 11309700000.0 11309700000.0 11309700000.0 11309700000.0 11309700000.0 11309700000.0 11309700000.0 11309700000.0 11309700000.0 11309700000.0 11309700000.0 11309700000.0 11309700000.0 11309700000.0 11309700000.0 11309700000.0 11309700000.0 11309700000.0 11309700000.0 11309700000.0 11309700000.0 11309700000.0 11309700000.0 11309700000.0 11309700000.0 11309700000.0 11309700000.0 11309700000.0 11309700000.0 11309700000.0 11309700000.0 11309700000.0 11309700000.0 11309700000.0 11309700000.0 11309700000.0 11309700000.0 11309700000.0 11309700000.0 11309700000.0 11309700000.0 11309700000.0 11309700000.0 11309700000.0 11309700000.0 11309700000.0 11309700000.0 11309700000.0 11309700000.0 11309700000.0 11309700000.0 11309700000.0 11309700000.0 11309700000.0 11309700000.0 11309700000.0 11309700000.0 11309700000.0 11309700000.0 11309700000.0 11309700000.0 11309700000.0 11309700000.0 11309700000.0 11309700000.0 11309700000.0 11309700000.0 11309700000.0 11309700000.0 11309700000.0 11309700000.0 11309700000.0 11309700000.0 11309700000.0 11309700000.0 11309700000.0 11309700000.0 11309700000.0 11309700000.0 11309700000.0 11309700000.0 11309700000.0 11309700000.0 11309700000.0 11309700000.0 11309700000.0 11309700000.0 11309700000.0 11309700000.0 11309700000.0 11309700000.0 11309700000.0 11309700000.0 11309700000.0 11309700000.0 11309700000.0 11309700000.0 11309700000.0 11309700000.0 11309700000.0 11309700000.0 11309700000.0 11309700000.0 11309700000.0 11309700000.0 11309700000.0 11309700000.0 11309700000.0 11309700000.0 11309700000.0 11309700000.0 11309700000.0 11309700000.0 11309700000.0 11309700000.0 11309700000.0 11309700000.0 11309700000.0 11309700000.0 11309700000.0 11309700000.0 11309700000.0 11309700000.0 11309700000.0 11309700000.0 11309700000.0 11309700000.0 11309700000.0 11309700000.0 11309700000.0 11309700000.0 11309700000.0 11309700000.0 11309700000.0 11309700000.0 11309700000.0 11309700000.0 11309700000.0 11309700000.0 11309700000.0 11309700000.0 11309700000.0 11309700000.0 11309700000.0 11309700000.0 11309700000.0 11309700000.0 11309700000.0 11309700000.0 11309700000.0 11309700000.0 11309700000.0 11309700000.0 11309700000.0 11309700000.0 11309700000.0 11309700000.0 11309700000.0 11309700000.0 11309700000.0 11309700000.0 11309700000.0 11309700000.0 11309700000.0 11309700000.0 11309700000.0 11309700000.0 11309700000.0 11309700000.0 11309700000.0 11309700000.0 11309700000.0 11309700000.0 11309700000.0 11309700000.0 11309700000.0 11309700000.0 11309700000.0 11309700000.0 11309700000.0 11309700000.0 11309700000.0 11309700000.0 11309700000.0 11309700000.0 11309700000.0 11309700000.0 11309700000.0 11309700000.0 11309700000.0 11309700000.0 11309700000.0 11309700000.0 11309700000.0 11309700000.0 11309700000.0 11309700000.0 11309700000.0 11309700000.0 11309700000.0 11309700000.0 11309700000.0 11309700000.0 11309700000.0 11309700000.0 11309700000.0 11309700000.0 11309700000.0 11309700000.0 11309700000.0 11309700000.0 11309700000.0 11309700000.0 11309700000.0 11309700000.0 11309700000.0 11309700000.0 11309700000.0 11309700000.0 11309700000.0 11309700000.0 11309700000.0 11309700000.0 11309700000.0 11309700000.0 11309700000.0 11309700000.0 11309700000.0 11309700000.0 11309700000.0 11309700000.0 11309700000.0 11309700000.0 11309700000.0 11309700000.0 11309700000.0 11309700000.0 11309700000.0 11309700000.0 11309700000.0 11309700000.0 11309700000.0 11309700000.0 11309700000.0 11309700000.0 11309700000.0 11309700000.0 11309700000.0 11309700000.0 11309700000.0 11309700000.0 11309700000.0 11309700000.0 11309700000.0 11309700000.0 11309700000.0 11309700000.0 11309700000.0 11309700000.0 11309700000.0 11309700000.0 11309700000.0 11309700000.0 11309700000.0 11309700000.0 11309700000.0 11309700000.0 11309700000.0 11309700000.0 11309700000.0 11309700000.0 11309700000.0 11309700000.0 11309700000.0 11309700000.0 11309700000.0 11309700000.0 11309700000.0 11309700000.0 11309700000.0 11309700000.0 11309700000.0 11309700000.0 11309700000.0 11309700000.0 11309700000.0 11309700000.0 11309700000.0 11309700000.0 11309700000.0 11309700000.0 11309700000.0 11309700000.0 11309700000.0 11309700000.0 11309700000.0 11309700000.0 11309700000.0 11309700000.0 11309700000.0 11309700000.0 11309700000.0 11309700000.0 11309700000.0 11309700000.0 11309700000.0 11309700000.0 11309700000.0 11309700000.0 11309700000.0 11309700000.0 11309700000.0 11309700000.0 11309700000.0 11309700000.0 11309700000.0 11309700000.0 11309700000.0 11309700000.0 11309700000.0 11309700000.0 11309700000.0 11309700000.0 11309700000.0 11309700000.0 11309700000.0 11309700000.0 11309700000.0 11309700000.0 11309700000.0 11309700000.0 11309700000.0 11309700000.0 11309700000.0 11309700000.0 11309700000.0 11309700000.0 11309700000.0 11309700000.0 11309700000.0 11309700000.0 11309700000.0 11309700000.0 11309700000.0 11309700000.0 11309700000.0 11309700000.0 11309700000.0 11309700000.0 11309700000.0 11309700000.0 11309700000.0 11309700000.0 11309700000.0 11309700000.0 11309700000.0 11309700000.0 11309700000.0 11309700000.0 11309700000.0 11309700000.0 11309700000.0 11309700000.0 11309700000.0 11309700000.0 11309700000.0 11309700000.0 11309700000.0 11309700000.0 11309700000.0 11309700000.0 11309700000.0 11309700000.0 11309700000.0 11309700000.0 11309700000.0 11309700000.0 11309700000.0 11309700000.0 11309700000.0 11309700000.0 11309700000.0 11309700000.0 11309700000.0 11309700000.0 11309700000.0 11309700000.0 11309700000.0 11309700000.0 11309700000.0 11309700000.0 11309700000.0 11309700000.0 11309700000.0 11309700000.0 11309700000.0 11309700000.0 11309700000.0 11309700000.0 11309700000.0 11309700000.0 11309700000.0 11309700000.0 11309700000.0 11309700000.0 11309700000.0 11309700000.0 11309700000.0 11309700000.0 11309700000.0 11309700000.0 11309700000.0 11309700000.0 11309700000.0 11309700000.0 11309700000.0 11309700000.0 11309700000.0 11309700000.0 11309700000.0 11309700000.0 11309700000.0 11309700000.0 11309700000.0 11309700000.0 11309700000.0 11309700000.0 11309700000.0 11309700000.0 11309700000.0 11309700000.0 11309700000.0 11309700000.0 11309700000.0 11309700000.0 11309700000.0 11309700000.0 11309700000.0 11309700000.0 11309700000.0 11309700000.0 11309700000.0 11309700000.0 11309700000.0 11309700000.0 11309700000.0 11309700000.0 11309700000.0 11309700000.0 11309700000.0 11309700000.0 11309700000.0 11309700000.0 11309700000.0 11309700000.0 11309700000.0 11309700000.0 11309700000.0 11309700000.0 11309700000.0 11309700000.0 11309700000.0 11309700000.0 11309700000.0 11309700000.0 11309700000.0 11309700000.0 11309700000.0 11309700000.0 11309700000.0 11309700000.0 11309700000.0 11309700000.0 11309700000.0 11309700000.0 11309700000.0 11309700000.0 11309700000.0 11309700000.0 11309700000.0 11309700000.0 11309700000.0 11309700000.0 11309700000.0 11309700000.0 11309700000.0 11309700000.0 11309700000.0 11309700000.0 11309700000.0 11309700000.0 11309700000.0 11309700000.0 11309700000.0 11309700000.0 11309700000.0 11309700000.0 11309700000.0 11309700000.0 11309700000.0 11309700000.0 11309700000.0 11309700000.0 11309700000.0 11309700000.0 11309700000.0 11309700000.0 11309700000.0 11309700000.0 11309700000.0 11309700000.0 11309700000.0 11309700000.0 11309700000.0 11309700000.0 11309700000.0 11309700000.0 11309700000.0 11309700000.0 11309700000.0 11309700000.0 11309700000.0 11309700000.0 11309700000.0 11309700000.0 11309700000.0 11309700000.0 11309700000.0 11309700000.0 11309700000.0 11309700000.0 11309700000.0 11309700000.0 11309700000.0 11309700000.0 11309700000.0 11309700000.0 11309700000.0 11309700000.0 11309700000.0 11309700000.0 11309700000.0 11309700000.0 11309700000.0 11309700000.0 11309700000.0 11309700000.0 11309700000.0 11309700000.0 11309700000.0 11309700000.0 11309700000.0 11309700000.0 11309700000.0 11309700000.0 11309700000.0 11309700000.0 11309700000.0 11309700000.0 11309700000.0 11309700000.0 11309700000.0 11309700000.0 11309700000.0 11309700000.0 11309700000.0 11309700000.0 11309700000.0 11309700000.0 11309700000.0 11309700000.0 11309700000.0 11309700000.0 11309700000.0 11309700000.0 11309700000.0 11309700000.0 11309700000.0 11309700000.0 11309700000.0 11309700000.0 11309700000.0 11309700000.0 11309700000.0 11309700000.0 11309700000.0 11309700000.0 11309700000.0 11309700000.0 11309700000.0 11309700000.0 11309700000.0 11309700000.0 11309700000.0 11309700000.0 11309700000.0 11309700000.0 11309700000.0 11309700000.0 11309700000.0 11309700000.0 11309700000.0 11309700000.0 11309700000.0 11309700000.0 11309700000.0 11309700000.0 11309700000.0 11309700000.0 11309700000.0 11309700000.0 11309700000.0 11309700000.0 11309700000.0 11309700000.0 11309700000.0 11309700000.0 11309700000.0 11309700000.0 11309700000.0 11309700000.0 11309700000.0 11309700000.0 11309700000.0 11309700000.0 11309700000.0 11309700000.0 11309700000.0 11309700000.0 11309700000.0 11309700000.0 11309700000.0 11309700000.0 11309700000.0 11309700000.0 11309700000.0 11309700000.0 11309700000.0 11309700000.0 11309700000.0 11309700000.0 11309700000.0 11309700000.0 11309700000.0 11309700000.0 11309700000.0 11309700000.0 11309700000.0 11309700000.0 11309700000.0 11309700000.0 11309700000.0 11309700000.0 11309700000.0 11309700000.0 11309700000.0 11309700000.0 11309700000.0 11309700000.0 11309700000.0 11309700000.0 11309700000.0 11309700000.0 11309700000.0 11309700000.0 11309700000.0 11309700000.0 11309700000.0 11309700000.0 11309700000.0 11309700000.0 11309700000.0 11309700000.0 11309700000.0 11309700000.0 11309700000.0 11309700000.0 11309700000.0 11309700000.0 11309700000.0 11309700000.0 11309700000.0 11309700000.0 11309700000.0 11309700000.0 11309700000.0 11309700000.0 11309700000.0 11309700000.0 11309700000.0 11309700000.0 11309700000.0 11309700000.0 11309700000.0 11309700000.0 11309700000.0 11309700000.0 11309700000.0 11309700000.0 11309700000.0 11309700000.0 11309700000.0 11309700000.0 11309700000.0 11309700000.0 11309700000.0 11309700000.0 11309700000.0 11309700000.0 11309700000.0 11309700000.0 11309700000.0 11309700000.0 11309700000.0 11309700000.0 11309700000.0 11309700000.0 11309700000.0 11309700000.0 11309700000.0 11309700000.0 11309700000.0 11309700000.0 11309700000.0 11309700000.0 11309700000.0 11309700000.0 11309700000.0 11309700000.0 11309700000.0 11309700000.0 11309700000.0 11309700000.0 11309700000.0 11309700000.0 11309700000.0 11309700000.0 11309700000.0 11309700000.0 11309700000.0 11309700000.0 11309700000.0 11309700000.0 11309700000.0 11309700000.0 11309700000.0 11309700000.0 11309700000.0 11309700000.0 11309700000.0 11309700000.0 11309700000.0 11309700000.0 11309700000.0 11309700000.0 11309700000.0 11309700000.0 11309700000.0 11309700000.0 11309700000.0 11309700000.0 11309700000.0 11309700000.0 11309700000.0 11309700000.0 11309700000.0 11309700000.0 11309700000.0 11309700000.0 11309700000.0 11309700000.0 11309700000.0 11309700000.0 11309700000.0 11309700000.0 11309700000.0 11309700000.0 11309700000.0 11309700000.0 11309700000.0 11309700000.0 11309700000.0 11309700000.0 11309700000.0 11309700000.0 11309700000.0 11309700000.0 11309700000.0 11309700000.0 11309700000.0 11309700000.0 11309700000.0 11309700000.0 11309700000.0 11309700000.0 11309700000.0 11309700000.0 11309700000.0 11309700000.0 11309700000.0 11309700000.0 11309700000.0 11309700000.0 11309700000.0 11309700000.0 11309700000.0 11309700000.0 11309700000.0 11309700000.0 11309700000.0 11309700000.0 11309700000.0 11309700000.0 11309700000.0 11309700000.0 11309700000.0 11309700000.0 11309700000.0 11309700000.0 11309700000.0 11309700000.0 11309700000.0 11309700000.0 11309700000.0 11309700000.0 11309700000.0 11309700000.0 11309700000.0 11309700000.0 11309700000.0 11309700000.0 11309700000.0 11309700000.0 11309700000.0 11309700000.0 11309700000.0 11309700000.0 11309700000.0 11309700000.0 11309700000.0 11309700000.0 11309700000.0 11309700000.0 11309700000.0 11309700000.0 11309700000.0 11309700000.0 11309700000.0 11309700000.0 11309700000.0 11309700000.0 11309700000.0 11309700000.0 11309700000.0 11309700000.0 11309700000.0 11309700000.0 11309700000.0 11309700000.0 11309700000.0 11309700000.0 11309700000.0 11309700000.0 11309700000.0 11309700000.0 11309700000.0 11309700000.0 11309700000.0 11309700000.0 11309700000.0 11309700000.0 11309700000.0 11309700000.0 11309700000.0 11309700000.0 11309700000.0 11309700000.0 11309700000.0 11309700000.0 11309700000.0 11309700000.0 11309700000.0 11309700000.0 11309700000.0 11309700000.0 11309700000.0 11309700000.0 11309700000.0 11309700000.0 11309700000.0 11309700000.0 11309700000.0 11309700000.0 11309700000.0 11309700000.0 11309700000.0 11309700000.0 11309700000.0 11309700000.0 11309700000.0 11309700000.0 11309700000.0 11309700000.0 11309700000.0 11309700000.0 11309700000.0 11309700000.0 11309700000.0 11309700000.0 11309700000.0 11309700000.0 11309700000.0 11309700000.0 11309700000.0 11309700000.0 11309700000.0 11309700000.0 11309700000.0 11309700000.0 11309700000.0 11309700000.0 11309700000.0 11309700000.0 11309700000.0 11309700000.0 11309700000.0 11309700000.0 11309700000.0 11309700000.0 11309700000.0 11309700000.0 11309700000.0 11309700000.0 11309700000.0 11309700000.0 11309700000.0 11309700000.0 11309700000.0 11309700000.0 11309700000.0 11309700000.0 11309700000.0 11309700000.0 11309700000.0 11309700000.0 11309700000.0 11309700000.0 11309700000.0 11309700000.0 11309700000.0 11309700000.0 11309700000.0 11309700000.0 11309700000.0 11309700000.0 11309700000.0 11309700000.0 11309700000.0 11309700000.0 11309700000.0 11309700000.0 11309700000.0 11309700000.0 11309700000.0 11309700000.0 11309700000.0 11309700000.0 11309700000.0 11309700000.0 11309700000.0 11309700000.0 11309700000.0 11309700000.0 11309700000.0 11309700000.0 11309700000.0 11309700000.0 11309700000.0 11309700000.0 11309700000.0 11309700000.0 11309700000.0 11309700000.0 11309700000.0 11309700000.0 11309700000.0 11309700000.0 11309700000.0 11309700000.0 11309700000.0 11309700000.0 11309700000.0 11309700000.0 11309700000.0 11309700000.0 11309700000.0 11309700000.0 11309700000.0 11309700000.0 11309700000.0 11309700000.0 11309700000.0 11309700000.0 11309700000.0 11309700000.0 11309700000.0 11309700000.0 11309700000.0 11309700000.0 11309700000.0 11309700000.0 11309700000.0 11309700000.0 11309700000.0 11309700000.0 11309700000.0 11309700000.0 11309700000.0 11309700000.0 11309700000.0 11309700000.0 11309700000.0 11309700000.0 11309700000.0 11309700000.0 11309700000.0 11309700000.0 11309700000.0 11309700000.0 11309700000.0 11309700000.0 11309700000.0 11309700000.0 11309700000.0 11309700000.0 11309700000.0 11309700000.0 11309700000.0 11309700000.0 11309700000.0 11309700000.0 11309700000.0 11309700000.0 11309700000.0 11309700000.0 11309700000.0 11309700000.0 11309700000.0 11309700000.0 11309700000.0 11309700000.0 11309700000.0 11309700000.0 11309700000.0 11309700000.0 11309700000.0 11309700000.0 11309700000.0 11309700000.0 11309700000.0 11309700000.0 11309700000.0 11309700000.0 11309700000.0 11309700000.0 11309700000.0 11309700000.0 11309700000.0 11309700000.0 11309700000.0 11309700000.0 11309700000.0 11309700000.0 11309700000.0 11309700000.0 11309700000.0 11309700000.0 11309700000.0 11309700000.0 11309700000.0 11309700000.0 11309700000.0 11309700000.0 11309700000.0 11309700000.0 11309700000.0 11309700000.0 11309700000.0 11309700000.0 11309700000.0 11309700000.0 11309700000.0 11309700000.0 11309700000.0 11309700000.0 11309700000.0 11309700000.0 11309700000.0 11309700000.0 11309700000.0 11309700000.0 11309700000.0 11309700000.0 11309700000.0 11309700000.0 11309700000.0 11309700000.0 11309700000.0 11309700000.0 11309700000.0 11309700000.0 11309700000.0 11309700000.0 11309700000.0 11309700000.0 11309700000.0 11309700000.0 11309700000.0 11309700000.0 11309700000.0 11309700000.0 11309700000.0 11309700000.0 11309700000.0 11309700000.0 11309700000.0 11309700000.0 11309700000.0 11309700000.0 11309700000.0 11309700000.0 11309700000.0 11309700000.0 11309700000.0 11309700000.0 11309700000.0 11309700000.0 11309700000.0 11309700000.0 11309700000.0 11309700000.0 11309700000.0 11309700000.0 11309700000.0 11309700000.0 11309700000.0 11309700000.0 11309700000.0 11309700000.0 11309700000.0 11309700000.0 11309700000.0 11309700000.0 11309700000.0 11309700000.0 11309700000.0 11309700000.0 11309700000.0 11309700000.0 11309700000.0 11309700000.0 11309700000.0 11309700000.0 11309700000.0 11309700000.0 11309700000.0 11309700000.0 11309700000.0 11309700000.0 11309700000.0 11309700000.0 11309700000.0 11309700000.0 11309700000.0 11309700000.0 11309700000.0 11309700000.0 11309700000.0 11309700000.0 11309700000.0 11309700000.0 11309700000.0 11309700000.0 11309700000.0 11309700000.0 11309700000.0 11309700000.0 11309700000.0 11309700000.0 11309700000.0 11309700000.0 11309700000.0 11309700000.0 11309700000.0 11309700000.0 11309700000.0 11309700000.0 11309700000.0 11309700000.0 11309700000.0 11309700000.0 11309700000.0 11309700000.0 11309700000.0 11309700000.0 11309700000.0 11309700000.0 11309700000.0 11309700000.0 11309700000.0 11309700000.0 11309700000.0 11309700000.0 11309700000.0 11309700000.0 11309700000.0 11309700000.0 11309700000.0 11309700000.0 11309700000.0 11309700000.0 11309700000.0 11309700000.0 11309700000.0 11309700000.0 11309700000.0 11309700000.0 11309700000.0 11309700000.0 11309700000.0 11309700000.0 11309700000.0 11309700000.0 11309700000.0 11309700000.0 11309700000.0 11309700000.0 11309700000.0 11309700000.0 11309700000.0 11309700000.0 11309700000.0 11309700000.0 11309700000.0 11309700000.0 11309700000.0 11309700000.0 11309700000.0 11309700000.0 11309700000.0 11309700000.0 11309700000.0 11309700000.0 11309700000.0 11309700000.0 11309700000.0 11309700000.0 11309700000.0 11309700000.0 11309700000.0 11309700000.0 11309700000.0 11309700000.0 11309700000.0 11309700000.0 11309700000.0 11309700000.0 11309700000.0 11309700000.0 11309700000.0 11309700000.0 11309700000.0 11309700000.0 11309700000.0 11309700000.0 11309700000.0 11309700000.0 11309700000.0 11309700000.0 11309700000.0 11309700000.0 11309700000.0 11309700000.0 11309700000.0 11309700000.0 11309700000.0 11309700000.0 11309700000.0 11309700000.0 11309700000.0 11309700000.0 11309700000.0 11309700000.0 11309700000.0 11309700000.0 11309700000.0 11309700000.0 11309700000.0 11309700000.0 11309700000.0 11309700000.0 11309700000.0 11309700000.0 11309700000.0 11309700000.0 11309700000.0 11309700000.0 11309700000.0 11309700000.0 11309700000.0 11309700000.0 11309700000.0 11309700000.0 11309700000.0 11309700000.0 11309700000.0 11309700000.0 11309700000.0 11309700000.0 11309700000.0 11309700000.0 11309700000.0 11309700000.0 11309700000.0 11309700000.0 11309700000.0 11309700000.0 11309700000.0 11309700000.0 11309700000.0 11309700000.0 11309700000.0 11309700000.0 11309700000.0 11309700000.0 11309700000.0 11309700000.0 11309700000.0 11309700000.0 11309700000.0 11309700000.0 11309700000.0 11309700000.0 11309700000.0 11309700000.0 11309700000.0 11309700000.0 11309700000.0 11309700000.0 11309700000.0 11309700000.0 11309700000.0 11309700000.0 11309700000.0 11309700000.0 11309700000.0 11309700000.0 11309700000.0 11309700000.0 11309700000.0 11309700000.0 11309700000.0 11309700000.0 11309700000.0 11309700000.0 11309700000.0 11309700000.0 11309700000.0 11309700000.0 11309700000.0 11309700000.0 11309700000.0 11309700000.0 11309700000.0 11309700000.0 11309700000.0 11309700000.0 11309700000.0 11309700000.0 11309700000.0 11309700000.0 11309700000.0 11309700000.0 11309700000.0 11309700000.0 11309700000.0 11309700000.0 11309700000.0 11309700000.0 11309700000.0 11309700000.0 11309700000.0 11309700000.0 11309700000.0 11309700000.0 11309700000.0 11309700000.0 11309700000.0 11309700000.0 11309700000.0 11309700000.0 11309700000.0 11309700000.0 11309700000.0 11309700000.0 11309700000.0 11309700000.0 11309700000.0 11309700000.0 11309700000.0 11309700000.0 11309700000.0 11309700000.0 11309700000.0 11309700000.0 11309700000.0 11309700000.0 11309700000.0 11309700000.0 11309700000.0 11309700000.0 11309700000.0 11309700000.0 11309700000.0 11309700000.0 11309700000.0 11309700000.0 11309700000.0 11309700000.0 11309700000.0 11309700000.0 11309700000.0 11309700000.0 11309700000.0 11309700000.0 11309700000.0 11309700000.0 11309700000.0 11309700000.0 11309700000.0 11309700000.0 11309700000.0 11309700000.0 11309700000.0 11309700000.0 11309700000.0 11309700000.0 11309700000.0 11309700000.0 11309700000.0 11309700000.0 11309700000.0 11309700000.0 11309700000.0 11309700000.0 11309700000.0 11309700000.0 11309700000.0 11309700000.0 11309700000.0 11309700000.0 11309700000.0 11309700000.0 11309700000.0 11309700000.0 11309700000.0 11309700000.0 11309700000.0 11309700000.0 11309700000.0 11309700000.0 11309700000.0 11309700000.0 11309700000.0 11309700000.0 11309700000.0 11309700000.0 11309700000.0 11309700000.0 11309700000.0 11309700000.0 11309700000.0 11309700000.0 11309700000.0 11309700000.0 11309700000.0 11309700000.0 11309700000.0 11309700000.0 11309700000.0 11309700000.0 11309700000.0 11309700000.0 11309700000.0 11309700000.0 11309700000.0 11309700000.0 11309700000.0 11309700000.0 11309700000.0 11309700000.0 11309700000.0 11309700000.0 11309700000.0 11309700000.0 11309700000.0 11309700000.0 11309700000.0 11309700000.0 11309700000.0 11309700000.0 11309700000.0 11309700000.0 11309700000.0 11309700000.0 11309700000.0 11309700000.0 11309700000.0 11309700000.0 11309700000.0 11309700000.0 11309700000.0 11309700000.0 11309700000.0 11309700000.0 11309700000.0 11309700000.0 11309700000.0 11309700000.0 11309700000.0 11309700000.0 11309700000.0 11309700000.0 11309700000.0 11309700000.0 11309700000.0 11309700000.0 11309700000.0 11309700000.0 11309700000.0 11309700000.0 11309700000.0 11309700000.0 11309700000.0 11309700000.0 11309700000.0 11309700000.0 11309700000.0 11309700000.0 11309700000.0 11309700000.0 11309700000.0 11309700000.0 11309700000.0 11309700000.0 11309700000.0 11309700000.0 11309700000.0 11309700000.0 11309700000.0 11309700000.0 11309700000.0 11309700000.0 11309700000.0 11309700000.0 11309700000.0 11309700000.0 11309700000.0 11309700000.0 11309700000.0 11309700000.0 11309700000.0 11309700000.0 11309700000.0 11309700000.0 11309700000.0 11309700000.0 11309700000.0 11309700000.0 11309700000.0 11309700000.0 11309700000.0 11309700000.0 11309700000.0 11309700000.0 11309700000.0 11309700000.0 11309700000.0 11309700000.0 11309700000.0 11309700000.0 11309700000.0 11309700000.0 11309700000.0 11309700000.0 11309700000.0 11309700000.0 11309700000.0 11309700000.0 11309700000.0 11309700000.0 11309700000.0 11309700000.0 11309700000.0 11309700000.0 11309700000.0 11309700000.0 11309700000.0 11309700000.0 11309700000.0 11309700000.0 11309700000.0 11309700000.0 11309700000.0 11309700000.0 11309700000.0 11309700000.0 11309700000.0 11309700000.0 11309700000.0 11309700000.0 11309700000.0 11309700000.0 11309700000.0 11309700000.0 11309700000.0 11309700000.0 11309700000.0 11309700000.0 11309700000.0 11309700000.0 11309700000.0 11309700000.0 11309700000.0 11309700000.0 11309700000.0 11309700000.0 11309700000.0 11309700000.0 11309700000.0 11309700000.0 11309700000.0 11309700000.0 11309700000.0 11309700000.0 11309700000.0 11309700000.0 11309700000.0 11309700000.0 11309700000.0 11309700000.0 11309700000.0 11309700000.0 11309700000.0 11309700000.0 11309700000.0 11309700000.0 11309700000.0 11309700000.0 11309700000.0 11309700000.0 11309700000.0 11309700000.0 11309700000.0 11309700000.0 11309700000.0 11309700000.0 11309700000.0 11309700000.0 11309700000.0 11309700000.0 11309700000.0 11309700000.0 11309700000.0 11309700000.0 11309700000.0 11309700000.0 11309700000.0 11309700000.0 11309700000.0 11309700000.0 11309700000.0 11309700000.0 11309700000.0 11309700000.0 11309700000.0 11309700000.0 11309700000.0 11309700000.0 11309700000.0 11309700000.0 11309700000.0 11309700000.0 11309700000.0 11309700000.0 11309700000.0 11309700000.0 11309700000.0 11309700000.0 11309700000.0 11309700000.0 11309700000.0 11309700000.0 11309700000.0 11309700000.0 11309700000.0 11309700000.0 11309700000.0 11309700000.0 11309700000.0 11309700000.0 11309700000.0 11309700000.0 11309700000.0 11309700000.0 11309700000.0 11309700000.0 11309700000.0 11309700000.0 11309700000.0 11309700000.0 11309700000.0 11309700000.0 11309700000.0 11309700000.0 11309700000.0 11309700000.0 11309700000.0 11309700000.0 11309700000.0 11309700000.0 11309700000.0 11309700000.0 11309700000.0 11309700000.0 11309700000.0 11309700000.0 11309700000.0 11309700000.0 11309700000.0 11309700000.0 11309700000.0 11309700000.0 11309700000.0 11309700000.0 11309700000.0 11309700000.0 11309700000.0 11309700000.0 11309700000.0 11309700000.0 11309700000.0 11309700000.0 11309700000.0 11309700000.0 11309700000.0 11309700000.0 11309700000.0 11309700000.0 11309700000.0 11309700000.0 11309700000.0 11309700000.0 11309700000.0 11309700000.0 11309700000.0 11309700000.0 11309700000.0 11309700000.0 11309700000.0 11309700000.0 11309700000.0 11309700000.0 11309700000.0 11309700000.0 11309700000.0 11309700000.0 11309700000.0 11309700000.0 11309700000.0 11309700000.0 11309700000.0 11309700000.0 11309700000.0 11309700000.0 11309700000.0 11309700000.0 11309700000.0 11309700000.0 11309700000.0 11309700000.0 11309700000.0 11309700000.0 11309700000.0 11309700000.0 11309700000.0 11309700000.0 11309700000.0 11309700000.0 11309700000.0 11309700000.0 11309700000.0 11309700000.0 11309700000.0 11309700000.0 11309700000.0 11309700000.0 11309700000.0 11309700000.0 11309700000.0 11309700000.0 11309700000.0 11309700000.0 11309700000.0 11309700000.0 11309700000.0 11309700000.0 11309700000.0 11309700000.0 11309700000.0 11309700000.0 11309700000.0 11309700000.0 11309700000.0 11309700000.0 11309700000.0 11309700000.0 11309700000.0 11309700000.0 11309700000.0 11309700000.0 11309700000.0 11309700000.0 11309700000.0 11309700000.0 11309700000.0 11309700000.0 11309700000.0 11309700000.0 11309700000.0 11309700000.0 11309700000.0 11309700000.0 11309700000.0 11309700000.0 11309700000.0 11309700000.0 11309700000.0 11309700000.0 11309700000.0 11309700000.0 11309700000.0 11309700000.0 11309700000.0 11309700000.0 11309700000.0 11309700000.0 11309700000.0 11309700000.0 11309700000.0 11309700000.0 11309700000.0 11309700000.0 11309700000.0 11309700000.0 11309700000.0 11309700000.0 11309700000.0 11309700000.0 11309700000.0 11309700000.0 11309700000.0 11309700000.0 11309700000.0 11309700000.0 11309700000.0 11309700000.0 11309700000.0 11309700000.0 11309700000.0 11309700000.0 11309700000.0 11309700000.0 11309700000.0 11309700000.0 11309700000.0 11309700000.0 11309700000.0 11309700000.0 11309700000.0 11309700000.0 11309700000.0 11309700000.0 11309700000.0 11309700000.0 11309700000.0 11309700000.0 11309700000.0 11309700000.0 11309700000.0 11309700000.0 11309700000.0 11309700000.0 11309700000.0 11309700000.0 11309700000.0 11309700000.0 11309700000.0 11309700000.0 11309700000.0 11309700000.0 11309700000.0 11309700000.0 11309700000.0 11309700000.0 11309700000.0 11309700000.0 11309700000.0 11309700000.0 11309700000.0 11309700000.0 11309700000.0 11309700000.0 11309700000.0 11309700000.0 11309700000.0 11309700000.0 11309700000.0 11309700000.0 11309700000.0 11309700000.0 11309700000.0 11309700000.0 11309700000.0 11309700000.0 11309700000.0 11309700000.0 11309700000.0 11309700000.0 11309700000.0 11309700000.0 11309700000.0 11309700000.0 11309700000.0 11309700000.0 11309700000.0 11309700000.0 11309700000.0 11309700000.0 11309700000.0 11309700000.0 11309700000.0 11309700000.0 11309700000.0 11309700000.0 11309700000.0 11309700000.0 11309700000.0 11309700000.0 11309700000.0 11309700000.0 11309700000.0 11309700000.0 11309700000.0 11309700000.0 11309700000.0 11309700000.0 11309700000.0 11309700000.0 11309700000.0 11309700000.0 11309700000.0 11309700000.0 11309700000.0 11309700000.0 11309700000.0 11309700000.0 11309700000.0 11309700000.0 11309700000.0 11309700000.0 11309700000.0 11309700000.0 11309700000.0 11309700000.0 11309700000.0 11309700000.0 11309700000.0 11309700000.0 11309700000.0 11309700000.0 11309700000.0 11309700000.0 11309700000.0 11309700000.0 11309700000.0 11309700000.0 11309700000.0 11309700000.0 11309700000.0 11309700000.0 11309700000.0 11309700000.0 11309700000.0 11309700000.0 11309700000.0 11309700000.0 11309700000.0 11309700000.0 11309700000.0 11309700000.0 11309700000.0 11309700000.0 11309700000.0 11309700000.0 11309700000.0 11309700000.0 11309700000.0 11309700000.0 11309700000.0 11309700000.0 11309700000.0 11309700000.0 11309700000.0 11309700000.0 11309700000.0 11309700000.0 11309700000.0 11309700000.0 11309700000.0 11309700000.0 11309700000.0 11309700000.0 11309700000.0 11309700000.0 11309700000.0 11309700000.0 11309700000.0 11309700000.0 11309700000.0 11309700000.0 11309700000.0 11309700000.0 11309700000.0 11309700000.0 11309700000.0 11309700000.0 11309700000.0 11309700000.0 11309700000.0 11309700000.0 11309700000.0 11309700000.0 11309700000.0 11309700000.0 11309700000.0 11309700000.0 11309700000.0 11309700000.0 11309700000.0 11309700000.0 11309700000.0 11309700000.0 11309700000.0 11309700000.0 11309700000.0 11309700000.0 11309700000.0 11309700000.0 11309700000.0 11309700000.0 11309700000.0 11309700000.0 11309700000.0 11309700000.0 11309700000.0 11309700000.0 11309700000.0 11309700000.0 11309700000.0 11309700000.0 11309700000.0 11309700000.0 11309700000.0 11309700000.0 11309700000.0 11309700000.0 11309700000.0 11309700000.0 11309700000.0 11309700000.0 11309700000.0 11309700000.0 11309700000.0 11309700000.0 11309700000.0 11309700000.0 11309700000.0 11309700000.0 11309700000.0 11309700000.0 11309700000.0 11309700000.0 11309700000.0 11309700000.0 11309700000.0 11309700000.0 11309700000.0 11309700000.0 11309700000.0 11309700000.0 11309700000.0 11309700000.0 11309700000.0 11309700000.0 11309700000.0 11309700000.0 11309700000.0 11309700000.0 11309700000.0 11309700000.0 11309700000.0 11309700000.0 11309700000.0 11309700000.0 11309700000.0 11309700000.0 11309700000.0 11309700000.0 11309700000.0 11309700000.0 11309700000.0 11309700000.0 11309700000.0 11309700000.0 11309700000.0 11309700000.0 11309700000.0 11309700000.0 11309700000.0 11309700000.0 11309700000.0 11309700000.0 11309700000.0 11309700000.0 11309700000.0 11309700000.0 11309700000.0 11309700000.0 11309700000.0 11309700000.0 11309700000.0 11309700000.0 11309700000.0 11309700000.0 11309700000.0 11309700000.0 11309700000.0 11309700000.0 11309700000.0 11309700000.0 11309700000.0 11309700000.0 11309700000.0 11309700000.0 11309700000.0 11309700000.0 11309700000.0 11309700000.0 11309700000.0 11309700000.0 11309700000.0 11309700000.0 11309700000.0 11309700000.0 11309700000.0 11309700000.0 11309700000.0 11309700000.0 11309700000.0 11309700000.0 11309700000.0 11309700000.0 11309700000.0 11309700000.0 11309700000.0 11309700000.0 11309700000.0 11309700000.0 11309700000.0 11309700000.0 11309700000.0 11309700000.0 11309700000.0 11309700000.0 11309700000.0 11309700000.0 11309700000.0 11309700000.0 11309700000.0 11309700000.0 11309700000.0 11309700000.0 11309700000.0 11309700000.0 11309700000.0 11309700000.0 11309700000.0 11309700000.0 11309700000.0 11309700000.0 11309700000.0 11309700000.0 11309700000.0 11309700000.0 11309700000.0 11309700000.0 11309700000.0 11309700000.0 11309700000.0 11309700000.0 11309700000.0 11309700000.0 11309700000.0 11309700000.0 11309700000.0 11309700000.0 11309700000.0 11309700000.0 11309700000.0 11309700000.0 11309700000.0 11309700000.0 11309700000.0 11309700000.0 11309700000.0 11309700000.0 11309700000.0 11309700000.0 11309700000.0 11309700000.0 11309700000.0 11309700000.0 11309700000.0 11309700000.0 11309700000.0 11309700000.0 11309700000.0 11309700000.0 11309700000.0 11309700000.0 11309700000.0 11309700000.0 11309700000.0 11309700000.0 11309700000.0 11309700000.0 11309700000.0 11309700000.0 11309700000.0 11309700000.0 11309700000.0 11309700000.0 11309700000.0 11309700000.0 11309700000.0 11309700000.0 11309700000.0 11309700000.0 11309700000.0 11309700000.0 11309700000.0 11309700000.0 11309700000.0 11309700000.0 11309700000.0 11309700000.0 11309700000.0 11309700000.0 11309700000.0 11309700000.0 11309700000.0 11309700000.0 11309700000.0 11309700000.0 11309700000.0 11309700000.0 11309700000.0 11309700000.0 11309700000.0 11309700000.0 11309700000.0 11309700000.0 11309700000.0 11309700000.0 11309700000.0 11309700000.0 11309700000.0 11309700000.0 11309700000.0 11309700000.0 11309700000.0 11309700000.0 11309700000.0 11309700000.0 11309700000.0 11309700000.0 11309700000.0 11309700000.0 11309700000.0 11309700000.0 11309700000.0 11309700000.0 11309700000.0 11309700000.0 11309700000.0 11309700000.0 11309700000.0 11309700000.0 11309700000.0 11309700000.0 11309700000.0 11309700000.0 11309700000.0 11309700000.0 11309700000.0 11309700000.0 11309700000.0 11309700000.0 11309700000.0 11309700000.0 11309700000.0 11309700000.0 11309700000.0 11309700000.0 11309700000.0 11309700000.0 11309700000.0 11309700000.0 11309700000.0 11309700000.0 11309700000.0 11309700000.0 11309700000.0 11309700000.0 11309700000.0 11309700000.0 11309700000.0 11309700000.0 11309700000.0 11309700000.0 11309700000.0 11309700000.0 11309700000.0 11309700000.0 11309700000.0 11309700000.0 11309700000.0 11309700000.0 11309700000.0 11309700000.0 11309700000.0 11309700000.0 11309700000.0 11309700000.0 11309700000.0 11309700000.0 11309700000.0 11309700000.0 11309700000.0 11309700000.0 11309700000.0 11309700000.0 11309700000.0 11309700000.0 11309700000.0 11309700000.0 11309700000.0 11309700000.0 11309700000.0 11309700000.0 11309700000.0 11309700000.0 11309700000.0 11309700000.0 11309700000.0 11309700000.0 11309700000.0 11309700000.0 11309700000.0 11309700000.0 11309700000.0 11309700000.0 11309700000.0 11309700000.0 11309700000.0 11309700000.0 11309700000.0 11309700000.0 11309700000.0 11309700000.0 11309700000.0 11309700000.0 11309700000.0 11309700000.0 11309700000.0 11309700000.0 11309700000.0 11309700000.0 11309700000.0 11309700000.0 11309700000.0 11309700000.0 11309700000.0 11309700000.0 11309700000.0 11309700000.0 11309700000.0 11309700000.0 11309700000.0 11309700000.0 11309700000.0 11309700000.0 11309700000.0 11309700000.0 11309700000.0 11309700000.0 11309700000.0 11309700000.0 11309700000.0 11309700000.0 11309700000.0 11309700000.0 11309700000.0 11309700000.0 11309700000.0 11309700000.0 11309700000.0 11309700000.0 11309700000.0 11309700000.0 11309700000.0 11309700000.0 11309700000.0 11309700000.0 11309700000.0 11309700000.0 11309700000.0 11309700000.0 11309700000.0 11309700000.0 11309700000.0 11309700000.0 11309700000.0 11309700000.0 11309700000.0 11309700000.0 11309700000.0 11309700000.0 11309700000.0 11309700000.0 11309700000.0 11309700000.0 11309700000.0 11309700000.0 11309700000.0 11309700000.0 11309700000.0 11309700000.0 11309700000.0 11309700000.0 11309700000.0 11309700000.0 11309700000.0 11309700000.0 11309700000.0 11309700000.0 11309700000.0 11309700000.0 11309700000.0 11309700000.0 11309700000.0 11309700000.0 11309700000.0 11309700000.0 11309700000.0 11309700000.0 11309700000.0 11309700000.0 11309700000.0 11309700000.0 11309700000.0 11309700000.0 11309700000.0 11309700000.0 11309700000.0 11309700000.0 11309700000.0 11309700000.0 11309700000.0 11309700000.0 11309700000.0 11309700000.0 11309700000.0 11309700000.0 11309700000.0 11309700000.0 11309700000.0 11309700000.0 11309700000.0 11309700000.0 11309700000.0 11309700000.0 11309700000.0 11309700000.0 11309700000.0 11309700000.0 11309700000.0 11309700000.0 11309700000.0 11309700000.0 11309700000.0 11309700000.0 11309700000.0 11309700000.0 11309700000.0 11309700000.0 11309700000.0 11309700000.0 11309700000.0 11309700000.0 11309700000.0 11309700000.0 11309700000.0 11309700000.0 11309700000.0 11309700000.0 11309700000.0 11309700000.0 11309700000.0 11309700000.0 11309700000.0 11309700000.0 11309700000.0 11309700000.0 11309700000.0 11309700000.0 11309700000.0 11309700000.0 11309700000.0 11309700000.0 11309700000.0 11309700000.0 11309700000.0 11309700000.0 11309700000.0 11309700000.0 11309700000.0 11309700000.0 11309700000.0 11309700000.0 11309700000.0 11309700000.0 11309700000.0 11309700000.0 11309700000.0 11309700000.0 11309700000.0 11309700000.0 11309700000.0 11309700000.0 11309700000.0 11309700000.0 11309700000.0 11309700000.0 11309700000.0 11309700000.0 11309700000.0 11309700000.0 11309700000.0 11309700000.0 11309700000.0 11309700000.0 11309700000.0 11309700000.0 11309700000.0 11309700000.0 11309700000.0 11309700000.0 11309700000.0 11309700000.0 11309700000.0 11309700000.0 11309700000.0 11309700000.0 11309700000.0 11309700000.0 11309700000.0 11309700000.0 11309700000.0 11309700000.0 11309700000.0 11309700000.0 11309700000.0 11309700000.0 11309700000.0 11309700000.0 11309700000.0 11309700000.0 11309700000.0 11309700000.0 11309700000.0 11309700000.0 11309700000.0 11309700000.0 11309700000.0 11309700000.0 11309700000.0 11309700000.0 11309700000.0 11309700000.0 11309700000.0 11309700000.0 11309700000.0 11309700000.0 11309700000.0 11309700000.0 11309700000.0 11309700000.0 11309700000.0 11309700000.0 11309700000.0 11309700000.0 11309700000.0 11309700000.0 11309700000.0 11309700000.0 11309700000.0 11309700000.0 11309700000.0 11309700000.0 11309700000.0 11309700000.0 11309700000.0 11309700000.0 11309700000.0 11309700000.0 11309700000.0 11309700000.0 11309700000.0 11309700000.0 11309700000.0 11309700000.0 11309700000.0 11309700000.0 11309700000.0 11309700000.0 11309700000.0 11309700000.0 11309700000.0 11309700000.0 11309700000.0 11309700000.0 11309700000.0 11309700000.0 11309700000.0 11309700000.0 11309700000.0 11309700000.0 11309700000.0 11309700000.0 11309700000.0 11309700000.0 11309700000.0 11309700000.0 11309700000.0 11309700000.0 11309700000.0 11309700000.0 11309700000.0 11309700000.0 11309700000.0 11309700000.0 11309700000.0 11309700000.0 11309700000.0 11309700000.0 11309700000.0 11309700000.0 11309700000.0 11309700000.0 11309700000.0 11309700000.0 11309700000.0 11309700000.0 11309700000.0 11309700000.0 11309700000.0 11309700000.0 11309700000.0 11309700000.0 11309700000.0 11309700000.0 11309700000.0 11309700000.0 11309700000.0 11309700000.0 11309700000.0 11309700000.0 11309700000.0 11309700000.0 11309700000.0 11309700000.0 11309700000.0 11309700000.0 11309700000.0 11309700000.0 11309700000.0 11309700000.0 11309700000.0 11309700000.0 11309700000.0 11309700000.0 11309700000.0 11309700000.0 11309700000.0 11309700000.0 11309700000.0 11309700000.0 11309700000.0 11309700000.0 11309700000.0 11309700000.0 11309700000.0 11309700000.0 11309700000.0 11309700000.0 11309700000.0 11309700000.0 11309700000.0 11309700000.0 11309700000.0 11309700000.0 11309700000.0 11309700000.0 11309700000.0 11309700000.0 11309700000.0 11309700000.0 11309700000.0 11309700000.0 11309700000.0 11309700000.0 11309700000.0 11309700000.0 11309700000.0 11309700000.0 11309700000.0 11309700000.0 11309700000.0 11309700000.0 11309700000.0 11309700000.0 11309700000.0 11309700000.0 11309700000.0 11309700000.0 11309700000.0 11309700000.0 11309700000.0 11309700000.0 11309700000.0 11309700000.0 11309700000.0 11309700000.0 11309700000.0 11309700000.0 11309700000.0 11309700000.0 11309700000.0 11309700000.0 11309700000.0 11309700000.0 11309700000.0 11309700000.0 11309700000.0 11309700000.0 11309700000.0 11309700000.0 11309700000.0 11309700000.0 11309700000.0 11309700000.0 11309700000.0 11309700000.0 11309700000.0 11309700000.0 11309700000.0 11309700000.0 11309700000.0 11309700000.0 11309700000.0 11309700000.0 11309700000.0 11309700000.0 11309700000.0 11309700000.0 11309700000.0 11309700000.0 11309700000.0 11309700000.0 11309700000.0 11309700000.0 11309700000.0 11309700000.0 11309700000.0 11309700000.0 11309700000.0 11309700000.0 11309700000.0 11309700000.0 11309700000.0 11309700000.0 11309700000.0 11309700000.0 11309700000.0 11309700000.0 11309700000.0 11309700000.0 11309700000.0 11309700000.0 11309700000.0 11309700000.0 11309700000.0 11309700000.0 11309700000.0 11309700000.0 11309700000.0 11309700000.0 11309700000.0 11309700000.0 11309700000.0 11309700000.0 11309700000.0 11309700000.0 11309700000.0 11309700000.0 11309700000.0 11309700000.0 11309700000.0 11309700000.0 11309700000.0 11309700000.0 11309700000.0 11309700000.0 11309700000.0 11309700000.0 11309700000.0 11309700000.0 11309700000.0 11309700000.0 11309700000.0 11309700000.0 11309700000.0 11309700000.0 11309700000.0 11309700000.0 11309700000.0 11309700000.0 11309700000.0 11309700000.0 11309700000.0 11309700000.0 11309700000.0 11309700000.0 11309700000.0 11309700000.0 11309700000.0 11309700000.0 11309700000.0 11309700000.0 11309700000.0 11309700000.0 11309700000.0 11309700000.0 11309700000.0 11309700000.0 11309700000.0 11309700000.0 11309700000.0 11309700000.0 11309700000.0 11309700000.0 11309700000.0 11309700000.0 11309700000.0 11309700000.0 11309700000.0 11309700000.0 11309700000.0 11309700000.0 11309700000.0 11309700000.0 11309700000.0 11309700000.0 11309700000.0 11309700000.0 11309700000.0 11309700000.0 11309700000.0 11309700000.0 11309700000.0 11309700000.0 11309700000.0 11309700000.0 11309700000.0 11309700000.0 11309700000.0 11309700000.0 11309700000.0 11309700000.0 11309700000.0 11309700000.0 11309700000.0 11309700000.0 11309700000.0 11309700000.0 11309700000.0 11309700000.0 11309700000.0 11309700000.0 11309700000.0 11309700000.0 11309700000.0 11309700000.0 11309700000.0 11309700000.0 11309700000.0 11309700000.0 11309700000.0 11309700000.0 11309700000.0 11309700000.0 11309700000.0 11309700000.0 11309700000.0 11309700000.0 11309700000.0 11309700000.0 11309700000.0 11309700000.0 11309700000.0 11309700000.0 11309700000.0 11309700000.0 11309700000.0 11309700000.0 11309700000.0 11309700000.0 11309700000.0 11309700000.0 11309700000.0 11309700000.0 11309700000.0 11309700000.0 11309700000.0 11309700000.0 11309700000.0 11309700000.0 11309700000.0 11309700000.0 11309700000.0 11309700000.0 11309700000.0 11309700000.0 11309700000.0 11309700000.0 11309700000.0 11309700000.0 11309700000.0 11309700000.0 11309700000.0 11309700000.0 11309700000.0 11309700000.0 11309700000.0 11309700000.0 11309700000.0 11309700000.0 11309700000.0 11309700000.0 11309700000.0 11309700000.0 11309700000.0 11309700000.0 11309700000.0 11309700000.0 11309700000.0 11309700000.0 11309700000.0 11309700000.0 11309700000.0 11309700000.0 11309700000.0 11309700000.0 11309700000.0 11309700000.0 11309700000.0 11309700000.0 11309700000.0 11309700000.0 11309700000.0 11309700000.0 11309700000.0 11309700000.0 11309700000.0 11309700000.0 11309700000.0 11309700000.0 11309700000.0 11309700000.0 11309700000.0 11309700000.0 11309700000.0 11309700000.0 11309700000.0 11309700000.0 11309700000.0 11309700000.0 11309700000.0 11309700000.0 11309700000.0 11309700000.0 11309700000.0 11309700000.0 11309700000.0 11309700000.0 11309700000.0 11309700000.0 11309700000.0 11309700000.0 11309700000.0 11309700000.0 11309700000.0 11309700000.0 11309700000.0 11309700000.0 11309700000.0 11309700000.0 11309700000.0 11309700000.0 11309700000.0 11309700000.0 11309700000.0 11309700000.0 11309700000.0 11309700000.0 11309700000.0 11309700000.0 11309700000.0 11309700000.0 11309700000.0 11309700000.0 11309700000.0 11309700000.0 11309700000.0 11309700000.0 11309700000.0 11309700000.0 11309700000.0 11309700000.0 11309700000.0 11309700000.0 11309700000.0 11309700000.0 11309700000.0 11309700000.0 11309700000.0 11309700000.0 11309700000.0 11309700000.0 11309700000.0 11309700000.0 11309700000.0 11309700000.0 11309700000.0 11309700000.0 11309700000.0 11309700000.0 11309700000.0 11309700000.0 11309700000.0 11309700000.0 11309700000.0 11309700000.0 11309700000.0 11309700000.0 11309700000.0 11309700000.0 11309700000.0 11309700000.0 11309700000.0 11309700000.0 11309700000.0 11309700000.0 11309700000.0 11309700000.0 11309700000.0 11309700000.0 11309700000.0 11309700000.0 11309700000.0 11309700000.0 11309700000.0 11309700000.0 11309700000.0 11309700000.0 11309700000.0 11309700000.0 11309700000.0 11309700000.0 11309700000.0 11309700000.0 11309700000.0 11309700000.0 11309700000.0 11309700000.0 11309700000.0 11309700000.0 11309700000.0 11309700000.0 11309700000.0 11309700000.0 11309700000.0 11309700000.0 11309700000.0 11309700000.0 11309700000.0 11309700000.0 11309700000.0 11309700000.0 11309700000.0 11309700000.0 11309700000.0 11309700000.0 11309700000.0 11309700000.0 11309700000.0 11309700000.0 11309700000.0 11309700000.0 11309700000.0 11309700000.0 11309700000.0 11309700000.0 11309700000.0 11309700000.0 11309700000.0 11309700000.0 11309700000.0 11309700000.0 11309700000.0 11309700000.0 11309700000.0 11309700000.0 11309700000.0 11309700000.0 11309700000.0 11309700000.0 11309700000.0 11309700000.0 11309700000.0 11309700000.0 11309700000.0 11309700000.0 11309700000.0 11309700000.0 11309700000.0 11309700000.0 11309700000.0 11309700000.0 11309700000.0 11309700000.0 11309700000.0 11309700000.0 11309700000.0 11309700000.0 11309700000.0 11309700000.0 11309700000.0 11309700000.0 11309700000.0 11309700000.0 11309700000.0 11309700000.0 11309700000.0 11309700000.0 11309700000.0 11309700000.0 11309700000.0 11309700000.0 11309700000.0 11309700000.0 11309700000.0 11309700000.0 11309700000.0 11309700000.0 11309700000.0 11309700000.0 11309700000.0 11309700000.0 11309700000.0 11309700000.0 11309700000.0 11309700000.0 11309700000.0 11309700000.0 11309700000.0 11309700000.0 11309700000.0 11309700000.0 11309700000.0 11309700000.0 11309700000.0 11309700000.0 11309700000.0 11309700000.0 11309700000.0 11309700000.0 11309700000.0 11309700000.0 11309700000.0 11309700000.0 11309700000.0 11309700000.0 11309700000.0 11309700000.0 11309700000.0 11309700000.0 11309700000.0 11309700000.0 11309700000.0 11309700000.0 11309700000.0 11309700000.0 11309700000.0 11309700000.0 11309700000.0 11309700000.0 11309700000.0 11309700000.0 11309700000.0 11309700000.0 11309700000.0 11309700000.0 11309700000.0 11309700000.0 11309700000.0 11309700000.0 11309700000.0 11309700000.0 11309700000.0 11309700000.0 11309700000.0 11309700000.0 11309700000.0 11309700000.0 11309700000.0 11309700000.0 11309700000.0 11309700000.0 11309700000.0 11309700000.0 11309700000.0 11309700000.0 11309700000.0 11309700000.0 11309700000.0 11309700000.0 11309700000.0 11309700000.0 11309700000.0 11309700000.0 11309700000.0 11309700000.0 11309700000.0 11309700000.0 11309700000.0 11309700000.0 11309700000.0 11309700000.0 11309700000.0 11309700000.0 11309700000.0 11309700000.0 11309700000.0 11309700000.0 11309700000.0 11309700000.0 11309700000.0 11309700000.0 
SCALARS Velocity float 1
LOOKUP_TABLE default
0.893832 0.893832 0.893832 0.893832 0.893832 0.893832 0.893832 0.893832 0.893832 0.893832 0.893832 0.893832 0.893832 0.893832 0.893832 0.893832 0.893832 0.893832 0.893832 0.893832 0.893832 0.893832 0.893832 0.893832 0.893832 0.893832 0.893832 0.893832 0.893832 0.893832 0.893832 0.893832 0.893832 0.893832 0.893832 0.893832 0.893832 0.893832 0.893832 0.893832 0.893832 0.893832 0.893832 0.893832 0.893832 0.893832 0.893832 0.893832 0.893832 0.893832 0.893832 0.893832 0.893832 0.893832 0.893832 0.893832 0.893832 0.893832 0.893832 0.893832 0.893832 0.893832 0.893832 0.893832 0.893832 0.893832 0.893832 0.893832 0.893832 0.893832 0.893832 0.893832 0.893832 0.893832 0.893832 0.893832 0.893832 0.893832 0.893832 0.893832 0.893832 0.893832 0.893832 0.893832 0.893832 0.893832 0.893832 0.893832 0.893832 0.893832 0.893832 0.893832 0.893832 0.893832 0.893832 0.893832 0.893832 0.893832 0.893832 0.893832 0.893832 0.893832 0.893832 0.893832 0.893832 0.893832 0.893832 0.893832 0.893832 0.893832 0.893832 0.893832 0.893832 0.893832 0.893832 0.893832 0.893832 0.893832 0.893832 0.893832 0.893832 0.893832 0.893832 0.893832 0.893832 0.893832 0.893832 0.893832 0.893832 0.893832 0.893832 0.893832 0.893832 0.893832 0.893832 0.893832 0.893832 0.893832 0.893832 0.893832 0.893832 0.893832 0.893832 0.893832 0.893832 0.893832 0.893832 0.893832 0.893832 0.893832 0.893832 0.893832 0.893832 0.893832 0.893832 0.893832 0.893832 0.893832 0.893832 0.893832 0.893832 0.893832 0.893832 0.893832 0.893832 0.893832 0.893832 0.893832 0.893832 0.893832 0.893832 0.893832 0.893832 0.893832 0.893832 0.893832 0.893832 0.893832 0.893832 0.893832 0.893832 0.893832 0.893832 0.893832 0.893832 0.893832 0.893832 0.893832 0.893832 0.893832 0.893832 0.893832 0.893832 0.893832 0.893832 0.893832 0.893832 0.893832 0.893832 0.893832 0.893832 0.893832 0.893832 0.893832 0.893832 0.893832 0.893832 0.893832 0.893832 0.893832 0.893832 0.893832 0.893832 0.893832 0.893832 0.893832 0.893832 0.893832 0.893832 0.893832 0.893832 0.893832 0.893832 0.893832 0.893832 0.893832 0.893832 0.893832 0.893832 0.893832 0.893832 0.893832 0.893832 0.893832 0.893832 0.893832 0.893832 0.893832 0.893832 0.893832 0.893832 0.893832 0.893832 0.893832 0.893832 0.893832 0.893832 0.893832 0.893832 0.893832 0.893832 0.893832 0.893832 0.893832 0.893832 0.893832 0.893832 0.893832 0.893832 0.893832 0.893832 0.893832 0.893832 0.893832 0.893832 0.893832 0.893832 0.893832 0.893832 0.893832 0.893832 0.893832 0.893832 0.893832 0.893832 0.893832 0.893832 0.893832 0.893832 0.893832 0.893832 0.893832 0.893832 0.893832 0.893832 0.893832 0.893832 0.893832 0.893832 0.893832 0.893832 0.893832 0.893832 0.893832 0.893832 0.893832 0.893832 0.893832 0.893832 0.893832 0.893832 0.893832 0.893832 0.893832 0.893832 0.893832 0.893832 0.893832 0.893832 0.893832 0.893832 0.893832 0.893832 0.893832 0.893832 0.893832 0.893832 0.893832 0.893832 0.893832 0.893832 0.893832 0.893832 0.893832 0.893832 0.893832 0.893832 0.893832 0.893832 0.893832 0.893832 0.893832 0.893832 0.893832 0.893832 0.893832 0.893832 0.893832 0.893832 0.893832 0.893832 0.893832 0.893832 0.893832 0.893832 0.893832 0.893832 0.893832 0.893832 0.893832 0.893832 0.893832 0.893832 0.893832 0.893832 0.893832 0.893832 0.893832 0.893832 0.893832 0.893832 0.893832 0.893832 0.893832 0.893832 0.893832 0.893832 0.893832 0.893832 0.893832 0.893832 0.893832 0.893832 0.893832 0.893832 0.893832 0.893832 0.893832 0.893832 0.893832 0.893832 0.893832 0.893832 0.893832 0.893832 0.893832 0.893832 0.893832 0.893832 0.893832 0.893832 0.893832 0.893832 0.893832 0.893832 0.893832 0.893832 0.893832 0.893832 0.893832 0.893832 0.893832 0.893832 0.893832 0.893832 0.893832 0.893832 0.893832 0.893832 0.893832 0.893832 0.893832 0.893832 0.893832 0.893832 0.893832 0.893832 0.893832 0.893832 0.893832 0.893832 0.893832 0.893832 0.893832 0.893832 0.893832 0.893832 0.893832 0.893832 0.893832 0.893832 0.893832 0.893832 0.893832 0.893832 0.893832 0.893832 0.893832 0.893832 0.893832 0.893832 0.893832 0.893832 0.893832 0.893832 0.893832 0.893832 0.893832 0.893832 0.893832 0.893832 0.893832 0.893832 0.893832 0.893832 0.893832 0.893832 0.893832 0.893832 0.893832 0.893832 0.893832 0.893832 0.893832 0.893832 0.893832 0.893832 0.893832 0.893832 0.893832 0.893832 0.893832 0.893832 0.893832 0.893832 0.893832 0.893832 0.893832 0.893832 0.893832 0.893832 0.893832 0.893832 0.893832 0.893832 0.893832 0.893832 0.893832 0.893832 0.893832 0.893832 0.893832 0.893832 0.893832 0.893832 0.893832 0.893832 0.893832 0.893832 0.893832 0.893832 0.893832 0.893832 0.893832 0.893832 0.893832 0.893832 0.893832 0.893832 0.893832 0.893832 0.893832 0.893832 0.893832 0.893832 0.893832 0.893832 0.893832 0.893832 0.893832 0.893832 0.893832 0.893832 0.893832 0.893832 0.893832 0.893832 0.893832 0.893832 0.893832 0.893832 0.893832 0.893832 0.893832 0.893832 0.893832 0.893832 0.893832 0.893832 0.893832 0.893832 0.893832 0.893832 0.893832 0.893832 0.893832 0.893832 0.893832 0.893832 0.893832 0.893832 0.893832 0.893832 0.893832 0.893832 0.893832 0.893832 0.893832 0.893832 0.893832 0.893832 0.893832 0.893832 0.893832 0.893832 0.893832 0.893832 0.893832 0.893832 0.893832 0.893832 0.893832 0.893832 0.893832 0.893832 0.893832 0.893832 0.893832 0.893832 0.893832 0.893832 0.893832 0.893832 0.893832 0.893832 0.893832 0.893832 0.893832 0.893832 0.893832 0.893832 0.893832 0.893832 0.893832 0.893832 0.893832 0.893832 0.893832 0.893832 0.893832 0.893832 0.893832 0.893832 0.893832 0.893832 0.893832 0.893832 0.893832 0.893832 0.893832 0.893832 0.893832 0.893832 0.893832 0.893832 0.893832 0.893832 0.893832 0.893832 0.893832 0.893832 0.893832 0.893832 0.893832 0.893832 0.893832 0.893832 0.893832 0.893832 0.893832 0.893832 0.893832 0.893832 0.893832 0.893832 0.893832 0.893832 0.893832 0.893832 0.893832 0.893832 0.893832 0.893832 0.893832 0.893832 0.893832 0.893832 0.893832 0.893832 0.893832 0.893832 0.893832 0.893832 0.893832 0.893832 0.893832 0.893832 0.893832 0.893832 0.893832 0.893832 0.893832 0.893832 0.893832 0.893832 0.893832 0.893832 0.893832 0.893832 0.893832 0.893832 0.893832 0.893832 0.893832 0.893832 0.893832 0.893832 0.893832 0.893832 0.893832 0.893832 0.893832 0.893832 0.893832 0.893832 0.893832 0.893832 0.893832 0.893832 0.893832 0.893832 0.893832 0.893832 0.893832 0.893832 0.893832 0.893832 0.893832 0.893832 0.893832 0.893832 0.893832 0.893832 0.893832 0.893832 0.893832 0.893832 0.893832 0.893832 0.893832 0.893832 0.893832 0.893832 0.893832 0.893832 0.893832 0.893832 0.893832 0.893832 0.893832 0.893832 0.893832 0.893832 0.893832 0.893832 0.893832 0.893832 0.893832 0.893832 0.893832 0.893832 0.893832 0.893832 0.893832 0.893832 0.893832 0.893832 0.893832 0.893832 0.893832 0.893832 0.893832 0.893832 0.893832 0.893832 0.893832 0.893832 0.893832 0.893832 0.893832 0.893832 0.893832 0.893832 0.893832 0.893832 0.893832 0.893832 0.893832 0.893832 0.893832 0.893832 0.893832 0.893832 0.893832 0.893832 0.893832 0.893832 0.893832 0.893832 0.893832 0.893832 0.893832 0.893832 0.893832 0.893832 0.893832 0.893832 0.893832 0.893832 0.893832 0.893832 0.893832 0.893832 0.893832 0.893832 0.893832 0.893832 0.893832 0.893832 0.893832 0.893832 0.893832 0.893832 0.893832 0.893832 0.893832 0.893832 0.893832 0.893832 0.893832 0.893832 0.893832 0.893832 0.893832 0.893832 0.893832 0.893832 0.893832 0.893832 0.893832 0.893832 0.893832 0.893832 0.893832 0.893832 0.893832 0.893832 0.893832 0.893832 0.893832 0.893832 0.893832 0.893832 0.893832 0.893832 0.893832 0.893832 0.893832 0.893832 0.893832 0.893832 0.893832 0.893832 0.893832 0.893832 0.893832 0.893832 0.893832 0.893832 0.893832 0.893832 0.893832 0.893832 0.893832 0.893832 0.893832 0.893832 0.893832 0.893832 0.893832 0.893832 0.893832 0.893832 0.893832 0.893832 0.893832 0.893832 0.893832 0.893832 0.893832 0.893832 0.893832 0.893832 0.893832 0.893832 0.893832 0.893832 0.893832 0.893832 0.893832 0.893832 0.893832 0.893832 0.893832 0.893832 0.893832 0.893832 0.893832 0.893832 0.893832 0.893832 0.893832 0.893832 0.893832 0.893832 0.893832 0.893832 0.893832 0.893832 0.893832 0.893832 0.893832 0.893832 0.893832 0.893832 0.893832 0.893832 0.893832 0.893832 0.893832 0.893832 0.893832 0.893832 0.893832 0.893832 0.893832 0.893832 0.893832 0.893832 0.893832 0.893832 0.893832 0.893832 0.893832 0.893832 0.893832 0.893832 0.893832 0.893832 0.893832 0.893832 0.893832 0.893832 0.893832 0.893832 0.893832 0.893832 0.893832 0.893832 0.893832 0.893832 0.893832 0.893832 0.893832 0.893832 0.893832 0.893832 0.893832 0.893832 0.893832 0.893832 0.893832 0.893832 0.893832 0.893832 0.893832 0.893832 0.893832 0.893832 0.893832 0.893832 0.893832 0.893832 0.893832 0.893832 0.893832 0.893832 0.893832 0.893832 0.893832 0.893832 0.893832 0.893832 0.893832 0.893832 0.893832 0.893832 0.893832 0.893832 0.893832 0.893832 0.893832 0.893832 0.893832 0.893832 0.893832 0.893832 0.893832 0.893832 0.893832 0.893832 0.893832 0.893832 0.893832 0.893832 0.893832 0.893832 0.893832 0.893832 0.893832 0.893832 0.893832 0.893832 0.893832 0.893832 0.893832 0.893832 0.893832 0.893832 0.893832 0.893832 0.893832 0.893832 0.893832 0.893832 0.893832 0.893832 0.893832 0.893832 0.893832 0.893832 0.893832 0.893832 0.893832 0.893832 0.893832 0.893832 0.893832 0.893832 0.893832 0.893832 0.893832 0.893832 0.893832 0.893832 0.893832 0.893832 0.893832 0.893832 0.893832 0.893832 0.893832 0.893832 0.893832 0.893832 0.893832 0.893832 0.893832 0.893832 0.893832 0.893832 0.893832 0.893832 0.893832 0.893832 0.893832 0.893832 0.893832 0.893832 0.893832 0.893832 0.893832 0.893832 0.893832 0.893832 0.893832 0.893832 0.893832 0.893832 0.893832 0.893832 0.893832 0.893832 0.893832 0.893832 0.893832 0.893832 0.893832 0.893832 0.893832 0.893832 0.893832 0.893832 0.893832 0.893832 0.893832 0.893832 0.893832 0.893832 0.893832 0.893832 0.893832 0.893832 0.893832 0.893832 0.893832 0.893832 0.893832 0.893832 0.893832 0.893832 0.893832 0.893832 0.893832 0.893832 0.893832 0.893832 0.893832 0.893832 0.893832 0.893832 0.893832 0.893832 0.893832 0.893832 0.893832 0.893832 0.893832 0.893832 0.893832 0.893832 0.893832 0.893832 0.893832 0.893832 0.893832 0.893832 0.893832 0.893832 0.893832 0.893832 0.893832 0.893832 0.893832 0.893832 0.893832 0.893832 0.893832 0.893832 0.893832 0.893832 0.893832 0.893832 0.893832 0.893832 0.893832 0.893832 0.893832 0.893832 0.893832 0.893832 0.893832 0.893832 0.893832 0.893832 0.893832 0.893832 0.893832 0.893832 0.893832 0.893832 0.893832 0.893832 0.893832 0.893832 0.893832 0.893832 0.893832 0.893832 0.893832 0.893832 0.893832 0.893832 0.893832 0.893832 0.893832 0.893832 0.893832 0.893832 0.893832 0.893832 0.893832 0.893832 0.893832 0.893832 0.893832 0.893832 0.893832 0.893832 0.893832 0.893832 0.893832 0.893832 0.893832 0.893832 0.893832 0.893832 0.893832 0.893832 0.893832 0.893832 0.893832 0.893832 0.893832 0.893832 0.893832 0.893832 0.893832 0.893832 0.893832 0.893832 0.893832 0.893832 0.893832 0.893832 0.893832 0.893832 0.893832 0.893832 0.893832 0.893832 0.893832 0.893832 0.893832 0.893832 0.893832 0.893832 0.893832 0.893832 0.893832 0.893832 0.893832 0.893832 0.893832 0.893832 0.893832 0.893832 0.893832 0.893832 0.893832 0.893832 0.893832 0.893832 0.893832 0.893832 0.893832 0.893832 0.893832 0.893832 0.893832 0.893832 0.893832 0.893832 0.893832 0.893832 0.893832 0.893832 0.893832 0.893832 0.893832 0.893832 0.893832 0.893832 0.893832 0.893832 0.893832 0.893832 0.893832 0.893832 0.893832 0.893832 0.893832 0.893832 0.893832 0.893832 0.893832 0.893832 0.893832 0.893832 0.893832 0.893832 0.893832 0.893832 0.893832 0.893832 0.893832 0.893832 0.893832 0.893832 0.893832 0.893832 0.893832 0.893832 0.893832 0.893832 0.893832 0.893832 0.893832 0.893832 0.893832 0.893832 0.893832 0.893832 0.893832 0.893832 0.893832 0.893832 0.893832 0.893832 0.893832 0.893832 0.893832 0.893832 0.893832 0.893832 0.893832 0.893832 0.893832 0.893832 0.893832 0.893832 0.893832 0.893832 0.893832 0.893832 0.893832 0.893832 0.893832 0.893832 0.893832 0.893832 0.893832 0.893832 0.893832 0.893832 0.893832 0.893832 0.893832 0.893832 0.893832 0.893832 0.893832 0.893832 0.893832 0.893832 0.893832 0.893832 0.893832 0.893832 0.893832 0.893832 0.893832 0.893832 0.893832 0.893832 0.893832 0.893832 0.893832 0.893832 0.893832 0.893832 0.893832 0.893832 0.893832 0.893832 0.893832 0.893832 0.893832 0.893832 0.893832 0.893832 0.893832 0.893832 0.893832 0.893832 0.893832 0.893832 0.893832 0.893832 0.893832 0.893832 0.893832 0.893832 0.893832 0.893832 0.893832 0.893832 0.893832 0.893832 0.893832 0.893832 0.893832 0.893832 0.893832 0.893832 0.893832 0.893832 0.893832 0.893832 0.893832 0.893832 0.893832 0.893832 0.893832 0.893832 0.893832 0.893832 0.893832 0.893832 0.893832 0.893832 0.893832 0.893832 0.893832 0.893832 0.893832 0.893832 0.893832 0.893832 0.893832 0.893832 0.893832 0.893832 0.893832 0.893832 0.893832 0.893832 0.893832 0.893832 0.893832 0.893832 0.893832 0.893832 0.893832 0.893832 0.893832 0.893832 0.893832 0.893832 0.893832 0.893832 0.893832 0.893832 0.893832 0.893832 0.893832 0.893832 0.893832 0.893832 0.893832 0.893832 0.893832 0.893832 0.893832 0.893832 0.893832 0.893832 0.893832 0.893832 0.893832 0.893832 0.893832 0.893832 0.893832 0.893832 0.893832 0.893832 0.893832 0.893832 0.893832 0.893832 0.893832 0.893832 0.893832 0.893832 0.893832 0.893832 0.893832 0.893832 0.893832 0.893832 0.893832 0.893832 0.893832 0.893832 0.893832 0.893832 0.893832 0.893832 0.893832 0.893832 0.893832 0.893832 0.893832 0.893832 0.893832 0.893832 0.893832 0.893832 0.893832 0.893832 0.893832 0.893832 0.893832 0.893832 0.893832 0.893832 0.893832 0.893832 0.893832 0.893832 0.893832 0.893832 0.893832 0.893832 0.893832 0.893832 0.893832 0.893832 0.893832 0.893832 0.893832 0.893832 0.893832 0.893832 0.893832 0.893832 0.893832 0.893832 0.893832 0.893832 0.893832 0.893832 0.893832 0.893832 0.893832 0.893832 0.893832 0.893832 0.893832 0.893832 0.893832 0.893832 0.893832 0.893832 0.893832 0.893832 0.893832 0.893832 0.893832 0.893832 0.893832 0.893832 0.893832 0.893832 0.893832 0.893832 0.893832 0.893832 0.893832 0.893832 0.893832 0.893832 0.893832 0.893832 0.893832 0.893832 0.893832 0.893832 0.893832 0.893832 0.893832 0.893832 0.893832 0.893832 0.893832 0.893832 0.893832 0.893832 0.893832 0.893832 0.893832 0.893832 0.893832 0.893832 0.893832 0.893832 0.893832 0.893832 0.893832 0.893832 0.893832 0.893832 0.893832 0.893832 0.893832 0.893832 0.893832 0.893832 0.893832 0.893832 0.893832 0.893832 0.893832 0.893832 0.893832 0.893832 0.893832 0.893832 0.893832 0.893832 0.893832 0.893832 0.893832 0.893832 0.893832 0.893832 0.893832 0.893832 0.893832 0.893832 0.893832 0.893832 0.893832 0.893832 0.893832 0.893832 0.893832 0.893832 0.893832 0.893832 0.893832 0.893832 0.893832 0.893832 0.893832 0.893832 0.893832 0.893832 0.893832 0.893832 0.893832 0.893832 0.893832 0.893832 0.893832 0.893832 0.893832 0.893832 0.893832 0.893832 0.893832 0.893832 0.893832 0.893832 0.893832 0.893832 0.893832 0.893832 0.893832 0.893832 0.893832 0.893832 0.893832 0.893832 0.893832 0.893832 0.893832 0.893832 0.893832 0.893832 0.893832 0.893832 0.893832 0.893832 0.893832 0.893832 0.893832 0.893832 0.893832 0.893832 0.893832 0.893832 0.893832 0.893832 0.893832 0.893832 0.893832 0.893832 0.893832 0.893832 0.893832 0.893832 0.893832 0.893832 0.893832 0.893832 0.893832 0.893832 0.893832 0.893832 0.893832 0.893832 0.893832 0.893832 0.893832 0.893832 0.893832 0.893832 0.893832 0.893832 0.893832 0.893832 0.893832 0.893832 0.893832 0.893832 0.893832 0.893832 0.893832 0.893832 0.893832 0.893832 0.893832 0.893832 0.893832 0.893832 0.893832 0.893832 0.893832 0.893832 0.893832 0.893832 0.893832 0.893832 0.893832 0.893832 0.893832 0.893832 0.893832 0.893832 0.893832 0.893832 0.893832 0.893832 0.893832 0.893832 0.893832 0.893832 0.893832 0.893832 0.893832 0.893832 0.893832 0.893832 0.893832 0.893832 0.893832 0.893832 0.893832 0.893832 0.893832 0.893832 0.893832 0.893832 0.893832 0.893832 0.893832 0.893832 0.893832 0.893832 0.893832 0.893832 0.893832 0.893832 0.893832 0.893832 0.893832 0.893832 0.893832 0.893832 0.893832 0.893832 0.893832 0.893832 0.893832 0.893832 0.893832 0.893832 0.893832 0.893832 0.893832 0.893832 0.893832 0.893832 0.893832 0.893832 0.893832 0.893832 0.893832 0.893832 0.893832 0.893832 0.893832 0.893832 0.893832 0.893832 0.893832 0.893832 0.893832 0.893832 0.893832 0.893832 0.893832 0.893832 0.893832 0.893832 0.893832 0.893832 0.893832 0.893832 0.893832 0.893832 0.893832 0.893832 0.893832 0.893832 0.893832 0.893832 0.893832 0.893832 0.893832 0.893832 0.893832 0.893832 0.893832 0.893832 0.893832 0.893832 0.893832 0.893832 0.893832 0.893832 0.893832 0.893832 0.893832 0.893832 0.893832 0.893832 0.893832 0.893832 0.893832 0.893832 0.893832 0.893832 0.893832 0.893832 0.893832 0.893832 0.893832 0.893832 0.893832 0.893832 0.893832 0.893832 0.893832 0.893832 0.893832 0.893832 0.893832 0.893832 0.893832 0.893832 0.893832 0.893832 0.893832 0.893832 0.893832 0.893832 0.893832 0.893832 0.893832 0.893832 0.893832 0.893832 0.893832 0.893832 0.893832 0.893832 0.893832 0.893832 0.893832 0.893832 0.893832 0.893832 0.893832 0.893832 0.893832 0.893832 0.893832 0.893832 0.893832 0.893832 0.893832 0.893832 0.893832 0.893832 0.893832 0.893832 0.893832 0.893832 0.893832 0.893832 0.893832 0.893832 0.893832 0.893832 0.893832 0.893832 0.893832 0.893832 0.893832 0.893832 0.893832 0.893832 0.893832 0.893832 0.893832 0.893832 0.893832 0.893832 0.893832 0.893832 0.893832 0.893832 0.893832 0.893832 0.893832 0.893832 0.893832 0.893832 0.893832 0.893832 0.893832 0.893832 0.893832 0.893832 0.893832 0.893832 0.893832 0.893832 0.893832 0.893832 0.893832 0.893832 0.893832 0.893832 0.893832 0.893832 0.893832 0.893832 0.893832 0.893832 0.893832 0.893832 0.893832 0.893832 0.893832 0.893832 0.893832 0.893832 0.893832 0.893832 0.893832 0.893832 0.893832 0.893832 0.893832 0.893832 0.893832 0.893832 0.893832 0.893832 0.893832 0.893832 0.893832 0.893832 0.893832 0.893832 0.893832 0.893832 0.893832 0.893832 0.893832 0.893832 0.893832 0.893832 0.893832 0.893832 0.893832 0.893832 0.893832 0.893832 0.893832 0.893832 0.893832 0.893832 0.893832 0.893832 0.893832 0.893832 0.893832 0.893832 0.893832 0.893832 0.893832 0.893832 0.893832 0.893832 0.893832 0.893832 0.893832 0.893832 0.893832 0.893832 0.893832 0.893832 0.893832 0.893832 0.893832 0.893832 0.893832 0.893832 0.893832 0.893832 0.893832 0.893832 0.893832 0.893832 0.893832 0.893832 0.893832 0.893832 0.893832 0.893832 0.893832 0.893832 0.893832 0.893832 0.893832 0.893832 0.893832 0.893832 0.893832 0.893832 0.893832 0.893832 0.893832 0.893832 0.893832 0.893832 0.893832 0.893832 0.893832 0.893832 0.893832 0.893832 0.893832 0.893832 0.893832 0.893832 0.893832 0.893832 0.893832 0.893832 0.893832 0.893832 0.893832 0.893832 0.893832 0.893832 0.893832 0.893832 0.893832 0.893832 0.893832 0.893832 0.893832 0.893832 0.893832 0.893832 0.893832 0.893832 0.893832 0.893832 0.893832 0.893832 0.893832 0.893832 0.893832 0.893832 0.893832 0.893832 0.893832 0.893832 0.893832 0.893832 0.893832 0.893832 0.893832 0.893832 0.893832 0.893832 0.893832 0.893832 0.893832 0.893832 0.893832 0.893832 0.893832 0.893832 0.893832 0.893832 0.893832 0.893832 0.893832 0.893832 0.893832 0.893832 0.893832 0.893832 0.893832 0.893832 0.893832 0.893832 0.893832 0.893832 0.893832 0.893832 0.893832 0.893832 0.893832 0.893832 0.893832 0.893832 0.893832 0.893832 0.893832 0.893832 0.893832 0.893832 0.893832 0.893832 0.893832 0.893832 0.893832 0.893832 0.893832 0.893832 0.893832 0.893832 0.893832 0.893832 0.893832 0.893832 0.893832 0.893832 0.893832 0.893832 0.893832 0.893832 0.893832 0.893832 0.893832 0.893832 0.893832 0.893832 0.893832 0.893832 0.893832 0.893832 0.893832 0.893832 0.893832 0.893832 0.893832 0.893832 0.893832 0.893832 0.893832 0.893832 0.893832 0.893832 0.893832 0.893832 0.893832 0.893832 0.893832 0.893832 0.893832 0.893832 0.893832 0.893832 0.893832 0.893832 0.893832 0.893832 0.893832 0.893832 0.893832 0.893832 0.893832 0.893832 0.893832 0.893832 0.893832 0.893832 0.893832 0.893832 0.893832 0.893832 0.893832 0.893832 0.893832 0.893832 0.893832 0.893832 0.893832 0.893832 0.893832 0.893832 0.893832 0.893832 0.893832 0.893832 0.893832 0.893832 0.893832 0.893832 0.893832 0.893832 0.893832 0.893832 0.893832 0.893832 0.893832 0.893832 0.893832 0.893832 0.893832 0.893832 0.893832 0.893832 0.893832 0.893832 0.893832 0.893832 0.893832 0.893832 0.893832 0.893832 0.893832 0.893832 0.893832 0.893832 0.893832 0.893832 0.893832 0.893832 0.893832 0.893832 0.893832 0.893832 0.893832 0.893832 0.893832 0.893832 0.893832 0.893832 0.893832 0.893832 0.893832 0.893832 0.893832 0.893832 0.893832 0.893832 0.893832 0.893832 0.893832 0.893832 0.893832 0.893832 0.893832 0.893832 0.893832 0.893832 0.893832 0.893832 0.893832 0.893832 0.893832 0.893832 0.893832 0.893832 0.893832 0.893832 0.893832 0.893832 0.893832 0.893832 0.893832 0.893832 0.893832 0.893832 0.893832 0.893832 0.893832 0.893832 0.893832 0.893832 0.893832 0.893832 0.893832 0.893832 0.893832 0.893832 0.893832 0.893832 0.893832 0.893832 0.893832 0.893832 0.893832 0.893832 0.893832 0.893832 0.893832 0.893832 0.893832 0.893832 0.893832 0.893832 0.893832 0.893832 0.893832 0.893832 0.893832 0.893832 0.893832 0.893832 0.893832 0.893832 0.893832 0.893832 0.893832 0.893832 0.893832 0.893832 0.893832 0.893832 0.893832 0.893832 0.893832 0.893832 0.893832 0.893832 0.893832 0.893832 0.893832 0.893832 0.893832 0.893832 0.893832 0.893832 0.893832 0.893832 0.893832 0.893832 0.893832 0.893832 0.893832 0.893832 0.893832 0.893832 0.893832 0.893832 0.893832 0.893832 0.893832 0.893832 0.893832 0.893832 0.893832 0.893832 0.893832 0.893832 0.893832 0.893832 0.893832 0.893832 0.893832 0.893832 0.893832 0.893832 0.893832 0.893832 0.893832 0.893832 0.893832 0.893832 0.893832 0.893832 0.893832 0.893832 0.893832 0.893832 0.893832 0.893832 0.893832 0.893832 0.893832 0.893832 0.893832 0.893832 0.893832 0.893832 0.893832 0.893832 0.893832 0.893832 0.893832 0.893832 0.893832 0.893832 0.893832 0.893832 0.893832 0.893832 0.893832 0.893832 0.893832 0.893832 0.893832 0.893832 0.893832 0.893832 0.893832 0.893832 0.893832 0.893832 0.893832 0.893832 0.893832 0.893832 0.893832 0.893832 0.893832 0.893832 0.893832 0.893832 0.893832 0.893832 0.893832 0.893832 0.893832 0.893832 0.893832 0.893832 0.893832 0.893832 0.893832 0.893832 0.893832 0.893832 0.893832 0.893832 0.893832 0.893832 0.893832 0.893832 0.893832 0.893832 0.893832 0.893832 0.893832 0.893832 0.893832 0.893832 0.893832 0.893832 0.893832 0.893832 0.893832 0.893832 0.893832 0.893832 0.893832 0.893832 0.893832 0.893832 0.893832 0.893832 0.893832 0.893832 0.893832 0.893832 0.893832 0.893832 0.893832 0.893832 0.893832 0.893832 0.893832 0.893832 0.893832 0.893832 0.893832 0.893832 0.893832 0.893832 0.893832 0.893832 0.893832 0.893832 0.893832 0.893832 0.893832 0.893832 0.893832 0.893832 0.893832 0.893832 0.893832 0.893832 0.893832 0.893832 0.893832 0.893832 0.893832 0.893832 0.893832 0.893832 0.893832 0.893832 0.893832 0.893832 0.893832 0.893832 0.893832 0.893832 0.893832 0.893832 0.893832 0.893832 0.893832 0.893832 0.893832 0.893832 0.893832 0.893832 0.893832 0.893832 0.893832 0.893832 0.893832 0.893832 0.893832 0.893832 0.893832 0.893832 0.893832 0.893832 0.893832 0.893832 0.893832 0.893832 0.893832 0.893832 0.893832 0.893832 0.893832 0.893832 0.893832 0.893832 0.893832 0.893832 0.893832 0.893832 0.893832 0.893832 0.893832 0.893832 0.893832 0.893832 0.893832 0.893832 0.893832 0.893832 0.893832 0.893832 0.893832 0.893832 0.893832 0.893832 0.893832 0.893832 0.893832 0.893832 0.893832 0.893832 0.893832 0.893832 0.893832 0.893832 0.893832 0.893832 0.893832 0.893832 0.893832 0.893832 0.893832 0.893832 0.893832 0.893832 0.893832 0.893832 0.893832 0.893832 0.893832 0.893832 0.893832 0.893832 0.893832 0.893832 0.893832 0.893832 0.893832 0.893832 0.893832 0.893832 0.893832 0.893832 0.893832 0.893832 0.893832 0.893832 0.893832 0.893832 0.893832 0.893832 0.893832 0.893832 0.893832 0.893832 0.893832 0.893832 0.893832 0.893832 0.893832 0.893832 0.893832 0.893832 0.893832 0.893832 0.893832 0.893832 0.893832 0.893832 0.893832 0.893832 0.893832 0.893832 0.893832 0.893832 0.893832 0.893832 0.893832 0.893832 0.893832 0.893832 0.893832 0.893832 0.893832 0.893832 0.893832 0.893832 0.893832 0.893832 0.893832 0.893832 0.893832 0.893832 0.893832 0.893832 0.893832 0.893832 0.893832 0.893832 0.893832 0.893832 0.893832 0.893832 0.893832 0.893832 0.893832 0.893832 0.893832 0.893832 0.893832 0.893832 0.893832 0.893832 0.893832 0.893832 0.893832 0.893832 0.893832 0.893832 0.893832 0.893832 0.893832 0.893832 0.893832 0.893832 0.893832 0.893832 0.893832 0.893832 0.893832 0.893832 0.893832 0.893832 0.893832 0.893832 0.893832 0.893832 0.893832 0.893832 0.893832 0.893832 0.893832 0.893832 0.893832 0.893832 0.893832 0.893832 0.893832 0.893832 0.893832 0.893832 0.893832 0.893832 0.893832 0.893832 0.893832 0.893832 0.893832 0.893832 0.893832 0.893832 0.893832 0.893832 0.893832 0.893832 0.893832 0.893832 0.893832 0.893832 0.893832 0.893832 0.893832 0.893832 0.893832 0.893832 0.893832 0.893832 0.893832 0.893832 0.893832 0.893832 0.893832 0.893832 0.893832 0.893832 0.893832 0.893832 0.893832 0.893832 0.893832 0.893832 0.893832 0.893832 0.893832 0.893832 0.893832 0.893832 0.893832 0.893832 0.893832 0.893832 0.893832 0.893832 0.893832 0.893832 0.893832 0.893832 0.893832 0.893832 0.893832 0.893832 0.893832 0.893832 0.893832 0.893832 0.893832 0.893832 0.893832 0.893832 0.893832 0.893832 0.893832 0.893832 0.893832 0.893832 0.893832 0.893832 0.893832 0.893832 0.893832 0.893832 0.893832 0.893832 0.893832 0.893832 0.893832 0.893832 0.893832 0.893832 0.893832 0.893832 0.893832 0.893832 0.893832 0.893832 0.893832 0.893832 0.893832 0.893832 0.893832 0.893832 0.893832 0.893832 0.893832 0.893832 0.893832 0.893832 0.893832 0.893832 0.893832 0.893832 0.893832 0.893832 0.893832 0.893832 0.893832 0.893832 0.893832 0.893832 0.893832 0.893832 0.893832 0.893832 0.893832 0.893832 0.893832 0.893832 0.893832 0.893832 0.893832 0.893832 0.893832 0.893832 0.893832 0.893832 0.893832 0.893832 0.893832 0.893832 0.893832 0.893832 0.893832 0.893832 0.893832 0.893832 0.893832 0.893832 0.893832 0.893832 0.893832 0.893832 0.893832 0.893832 0.893832 0.893832 0.893832 0.893832 0.893832 0.893832 0.893832 0.893832 0.893832 0.893832 0.893832 0.893832 0.893832 0.893832 0.893832 0.893832 0.893832 0.893832 0.893832 0.893832 0.893832 0.893832 0.893832 0.893832 0.893832 0.893832 0.893832 0.893832 0.893832 0.893832 0.893832 0.893832 0.893832 0.893832 0.893832 0.893832 0.893832 0.893832 0.893832 0.893832 0.893832 0.893832 0.893832 0.893832 0.893832 0.893832 0.893832 0.893832 0.893832 0.893832 0.893832 0.893832 0.893832 0.893832 0.893832 0.893832 0.893832 0.893832 0.893832 0.893832 0.893832 0.893832 0.893832 0.893832 0.893832 0.893832 0.893832 0.893832 0.893832 0.893832 0.893832 0.893832 0.893832 0.893832 0.893832 0.893832 0.893832 0.893832 0.893832 0.893832 0.893832 0.893832 0.893832 0.893832 0.893832 0.893832 0.893832 0.893832 0.893832 0.893832 0.893832 0.893832 0.893832 0.893832 0.893832 0.893832 0.893832 0.893832 0.893832 0.893832 0.893832 0.893832 0.893832 0.893832 0.893832 0.893832 0.893832 0.893832 0.893832 0.893832 0.893832 0.893832 0.893832 0.893832 0.893832 0.893832 0.893832 0.893832 0.893832 0.893832 0.893832 0.893832 0.893832 0.893832 0.893832 0.893832 0.893832 0.893832 0.893832 0.893832 0.893832 0.893832 0.893832 0.893832 0.893832 0.893832 0.893832 0.893832 0.893832 0.893832 0.893832 0.893832 0.893832 0.893832 0.893832 0.893832 0.893832 0.893832 0.893832 0.893832 0.893832 0.893832 0.893832 0.893832 0.893832 0.893832 0.893832 0.893832 0.893832 0.893832 0.893832 0.893832 0.893832 0.893832 0.893832 0.893832 0.893832 0.893832 0.893832 0.893832 0.893832 0.893832 0.893832 0.893832 0.893832 0.893832 0.893832 0.893832 0.893832 0.893832 0.893832 0.893832 0.893832 0.893832 0.893832 0.893832 0.893832 0.893832 0.893832 0.893832 0.893832 0.893832 0.893832 0.893832 0.893832 0.893832 0.893832 0.893832 0.893832 0.893832 0.893832 0.893832 0.893832 0.893832 0.893832 0.893832 0.893832 0.893832 0.893832 0.893832 0.893832 0.893832 0.893832 0.893832 0.893832 0.893832 0.893832 0.893832 0.893832 0.893832 0.893832 0.893832 0.893832 0.893832 0.893832 0.893832 0.893832 0.893832 0.893832 0.893832 0.893832 0.893832 0.893832 0.893832 0.893832 0.893832 0.893832 0.893832 0.893832 0.893832 0.893832 0.893832 0.893832 0.893832 0.893832 0.893832 0.893832 0.893832 0.893832 0.893832 0.893832 0.893832 0.893832 0.893832 0.893832 0.893832 0.893832 0.893832 0.893832 0.893832 0.893832 0.893832 0.893832 0.893832 0.893832 0.893832 0.893832 0.893832 0.893832 0.893832 0.893832 0.893832 0.893832 0.893832 0.893832 0.893832 0.893832 0.893832 0.893832 0.893832 0.893832 0.893832 0.893832 0.893832 0.893832 0.893832 0.893832 0.893832 0.893832 0.893832 0.893832 0.893832 0.893832 0.893832 0.893832 0.893832 0.893832 0.893832 0.893832 0.893832 0.893832 0.893832 0.893832 0.893832 0.893832 0.893832 0.893832 0.893832 0.893832 0.893832 0.893832 0.893832 0.893832 0.893832 0.893832 0.893832 0.893832 0.893832 0.893832 0.893832 0.893832 0.893832 0.893832 0.893832 0.893832 0.893832 0.893832 0.893832 0.893832 0.893832 0.893832 0.893832 0.893832 0.893832 0.893832 0.893832 0.893832 0.893832 0.893832 0.893832 0.893832 0.893832 0.893832 0.893832 0.893832 0.893832 0.893832 0.893832 0.893832 0.893832 0.893832 0.893832 0.893832 0.893832 0.893832 0.893832 0.893832 0.893832 0.893832 0.893832 0.893832 0.893832 0.893832 0.893832 0.893832 0.893832 0.893832 0.893832 0.893832 0.893832 0.893832 0.893832 0.893832 0.893832 0.893832 0.893832 0.893832 0.893832 0.893832 0.893832 0.893832 0.893832 0.893832 0.893832 0.893832 0.893832 0.893832 0.893832 0.893832 0.893832 0.893832 0.893832 0.893832 0.893832 0.893832 0.893832 0.893832 0.893832 0.893832 0.893832 0.893832 0.893832 0.893832 0.893832 0.893832 0.893832 0.893832 0.893832 0.893832 0.893832 0.893832 0.893832 0.893832 0.893832 0.893832 0.893832 0.893832 0.893832 0.893832 0.893832 0.893832 0.893832 0.893832 0.893832 0.893832 0.893832 0.893832 0.893832 0.893832 0.893832 0.893832 0.893832 0.893832 0.893832 0.893832 0.893832 0.893832 0.893832 0.893832 0.893832 0.893832 0.893832 0.893832 0.893832 0.893832 0.893832 0.893832 0.893832 0.893832 0.893832 0.893832 0.893832 0.893832 0.893832 0.893832 0.893832 0.893832 0.893832 0.893832 0.893832 0.893832 0.893832 0.893832 0.893832 0.893832 0.893832 0.893832 0.893832 0.893832 0.893832 0.893832 0.893832 0.893832 0.893832 0.893832 0.893832 0.893832 0.893832 0.893832 0.893832 0.893832 0.893832 0.893832 0.893832 0.893832 0.893832 0.893832 0.893832 0.893832 0.893832 0.893832 0.893832 0.893832 0.893832 0.893832 0.893832 0.893832 0.893832 0.893832 0.893832 0.893832 0.893832 0.893832 0.893832 0.893832 0.893832 0.893832 0.893832 0.893832 0.893832 0.893832 0.893832 0.893832 0.893832 0.893832 0.893832 0.893832 0.893832 0.893832 0.893832 0.893832 0.893832 0.893832 0.893832 0.893832 0.893832 0.893832 0.893832 0.893832 0.893832 0.893832 0.893832 0.893832 0.893832 0.893832 0.893832 0.893832 0.893832 0.893832 0.893832 0.893832 0.893832 0.893832 0.893832 0.893832 0.893832 0.893832 0.893832 0.893832 0.893832 0.893832 0.893832 0.893832 0.893832 0.893832 0.893832 0.893832 0.893832 0.893832 0.893832 0.893832 0.893832 0.893832 0.893832 0.893832 0.893832 0.893832 0.893832 0.893832 0.893832 0.893832 0.893832 0.893832 0.893832 0.893832 0.893832 0.893832 0.893832 0.893832 0.893832 0.893832 0.893832 0.893832 0.893832 0.893832 0.893832 0.893832 0.893832 0.893832 0.893832 0.893832 0.893832 0.893832 0.893832 0.893832 0.893832 0.893832 0.893832 0.893832 0.893832 0.893832 0.893832 0.893832 0.893832 0.893832 0.893832 0.893832 0.893832 0.893832 0.893832 0.893832 0.893832 0.893832 0.893832 0.893832 0.893832 0.893832 0.893832 0.893832 0.893832 0.893832 0.893832 0.893832 0.893832 0.893832 0.893832 0.893832 0.893832 0.893832 0.893832 0.893832 0.893832 0.893832 0.893832 0.893832 0.893832 0.893832 0.893832 0.893832 0.893832 0.893832 0.893832 0.893832 0.893832 0.893832 0.893832 0.893832 0.893832 0.893832 0.893832 0.893832 0.893832 0.893832 0.893832 0.893832 0.893832 0.893832 0.893832 0.893832 0.893832 0.893832 0.893832 0.893832 0.893832 0.893832 0.893832 0.893832 0.893832 0.893832 0.893832 0.893832 0.893832 0.893832 0.893832 0.893832 0.893832 0.893832 0.893832 0.893832 0.893832 0.893832 0.893832 0.893832 0.893832 0.893832 0.893832 0.893832 0.893832 0.893832 0.893832 0.893832 0.893832 0.893832 0.893832 0.893832 0.893832 0.893832 0.893832 0.893832 0.893832 0.893832 0.893832 0.893832 0.893832 0.893832 0.893832 0.893832 0.893832 0.893832 0.893832 0.893832 0.893832 0.893832 0.893832 0.893832 0.893832 0.893832 0.893832 0.893832 0.893832 0.893832 0.893832 0.893832 0.893832 0.893832 0.893832 0.893832 0.893832 0.893832 0.893832 0.893832 0.893832 0.893832 0.893832 0.893832 0.893832 0.893832 0.893832 0.893832 0.893832 0.893832 0.893832 0.893832 0.893832 0.893832 0.893832 0.893832 0.893832 0.893832 0.893832 0.893832 0.893832 0.893832 0.893832 0.893832 0.893832 0.893832 0.893832 0.893832 0.893832 0.893832 0.893832 0.893832 0.893832 0.893832 0.893832 0.893832 0.893832 0.893832 0.893832 0.893832 0.893832 0.893832 0.893832 0.893832 0.893832 0.893832 0.893832 0.893832 0.893832 0.893832 0.893832 0.893832 0.893832 0.893832 0.893832 0.893832 0.893832 0.893832 0.893832 0.893832 0.893832 0.893832 0.893832 0.893832 0.893832 0.893832 0.893832 0.893832 0.893832 0.893832 0.893832 0.893832 0.893832 0.893832 0.893832 0.893832 0.893832 0.893832 0.893832 0.893832 0.893832 0.893832 0.893832 0.893832 0.893832 0.893832 0.893832 0.893832 0.893832 0.893832 0.893832 0.893832 0.893832 0.893832 0.893832 0.893832 0.893832 0.893832 0.893832 0.893832 0.893832 0.893832 0.893832 0.893832 0.893832 0.893832 0.893832 0.893832 0.893832 0.893832 0.893832 0.893832 0.893832 0.893832 0.893832 0.893832 0.893832 0.893832 0.893832 0.893832 0.893832 0.893832 0.893832 0.893832 0.893832 0.893832 0.893832 0.893832 0.893832 0.893832 0.893832 0.893832 0.893832 0.893832 0.893832 0.893832 0.893832 0.893832 0.893832 0.893832 0.893832 0.893832 0.893832 0.893832 0.893832 0.893832 0.893832 0.893832 0.893832 0.893832 0.893832 0.893832 0.893832 0.893832 0.893832 0.893832 0.893832 0.893832 0.893832 0.893832 0.893832 0.893832 0.893832 0.893832 0.893832 0.893832 0.893832 0.893832 0.893832 0.893832 0.893832 0.893832 0.893832 0.893832 0.893832 0.893832 0.893832 0.893832 0.893832 0.893832 0.893832 0.893832 0.893832 0.893832 0.893832 0.893832 0.893832 0.893832 0.893832 0.893832 0.893832 0.893832 0.893832 0.893832 0.893832 0.893832 0.893832 0.893832 0.893832 0.893832 0.893832 0.893832 0.893832 0.893832 0.893832 0.893832 0.893832 0.893832 0.893832 0.893832 0.893832 0.893832 0.893832 0.893832 0.893832 0.893832 0.893832 0.893832 0.893832 0.893832 0.893832 0.893832 0.893832 0.893832 0.893832 0.893832 0.893832 0.893832 0.893832 0.893832 0.893832 0.893832 0.893832 0.893832 0.893832 0.893832 0.893832 0.893832 0.893832 0.893832 0.893832 0.893832 0.893832 0.893832 0.893832 0.893832 0.893832 0.893832 0.893832 0.893832 0.893832 0.893832 0.893832 0.893832 0.893832 0.893832 0.893832 0.893832 0.893832 0.893832 0.893832 0.893832 0.893832 0.893832 0.893832 0.893832 0.893832 0.893832 0.893832 0.893832 0.893832 0.893832 0.893832 0.893832 0.893832 0.893832 0.893832 0.893832 0.893832 0.893832 0.893832 0.893832 0.893832 0.893832 0.893832 0.893832 0.893832 0.893832 0.893832 0.893832 0.893832 0.893832 0.893832 0.893832 0.893832 0.893832 0.893832 0.893832 0.893832 0.893832 0.893832 0.893832 0.893832 0.893832 0.893832 0.893832 0.893832 0.893832 0.893832 0.893832 0.893832 0.893832 0.893832 0.893832 0.893832 0.893832 0.893832 0.893832 0.893832 0.893832 0.893832 0.893832 0.893832 0.893832 0.893832 0.893832 0.893832 0.893832 0.893832 0.893832 0.893832 0.893832 0.893832 0.893832 0.893832 0.893832 0.893832 0.893832 0.893832 0.893832 0.893832 0.893832 0.893832 0.893832 0.893832 0.893832 0.893832 0.893832 0.893832 0.893832 0.893832 0.893832 0.893832 0.893832 0.893832 0.893832 0.893832 0.893832 0.893832 0.893832 0.893832 0.893832 0.893832 0.893832 0.893832 0.893832 0.893832 0.893832 0.893832 0.893832 0.893832 0.893832 0.893832 0.893832 0.893832 0.893832 0.893832 0.893832 0.893832 0.893832 0.893832 0.893832 0.893832 0.893832 0.893832 0.893832 0.893832 0.893832 0.893832 0.893832 0.893832 0.893832 0.893832 0.893832 0.893832 0.893832 0.893832 0.893832 0.893832 0.893832 0.893832 0.893832 0.893832 0.893832 0.893832 0.893832 0.893832 0.893832 0.893832 0.893832 0.893832 0.893832 0.893832 0.893832 0.893832 0.893832 0.893832 0.893832 0.893832 0.893832 0.893832 0.893832 0.893832 0.893832 0.893832 0.893832 0.893832 0.893832 0.893832 0.893832 0.893832 0.893832 0.893832 0.893832 0.893832 0.893832 0.893832 0.893832 0.893832 0.893832 0.893832 0.893832 0.893832 0.893832 0.893832 0.893832 0.893832 0.893832 0.893832 0.893832 0.893832 0.893832 0.893832 0.893832 0.893832 0.893832 0.893832 0.893832 0.893832 0.893832 0.893832 0.893832 0.893832 0.893832 0.893832 0.893832 0.893832 0.893832 0.893832 0.893832 0.893832 0.893832 0.893832 0.893832 0.893832 0.893832 0.893832 0.893832 0.893832 0.893832 0.893832 0.893832 0.893832 0.893832 0.893832 0.893832 0.893832 0.893832 0.893832 0.893832 0.893832 0.893832 0.893832 0.893832 0.893832 0.893832 0.893832 0.893832 0.893832 0.893832 0.893832 0.893832 0.893832 0.893832 0.893832 0.893832 0.893832 0.893832 0.893832 0.893832 0.893832 0.893832 0.893832 0.893832 0.893832 0.893832 0.893832 0.893832 0.893832 0.893832 0.893832 0.893832 0.893832 0.893832 0.893832 0.893832 0.893832 0.893832 0.893832 0.893832 0.893832 0.893832 0.893832 0.893832 0.893832 0.893832 0.893832 0.893832 0.893832 0.893832 0.893832 0.893832 0.893832 0.893832 0.893832 0.893832 0.893832 0.893832 0.893832 0.893832 0.893832 0.893832 0.893832 0.893832 0.893832 0.893832 0.893832 0.893832 0.893832 0.893832 0.893832 0.893832 0.893832 0.893832 0.893832 0.893832 0.893832 0.893832 0.893832 0.893832 0.893832 0.893832 0.893832 0.893832 0.893832 0.893832 0.893832 0.893832 0.893832 0.893832 0.893832 0.893832 0.893832 0.893832 0.893832 0.893832 0.893832 0.893832 0.893832 0.893832 0.893832 0.893832 0.893832 0.893832 0.893832 0.893832 0.893832 0.893832 0.893832 0.893832 0.893832 0.893832 0.893832 0.893832 0.893832 0.893832 0.893832 0.893832 0.893832 0.893832 0.893832 0.893832 0.893832 0.893832 0.893832 0.893832 0.893832 0.893832 0.893832 0.893832 0.893832 0.893832 0.893832 0.893832 0.893832 0.893832 0.893832 0.893832 0.893832 0.893832 0.893832 0.893832 0.893832 0.893832 0.893832 0.893832 0.893832 0.893832 0.893832 0.893832 0.893832 0.893832 0.893832 0.893832 0.893832 0.893832 0.893832 0.893832 0.893832 0.893832 0.893832 0.893832 0.893832 0.893832 0.893832 0.893832 0.893832 0.893832 0.893832 0.893832 0.893832 0.893832 0.893832 0.893832 0.893832 0.893832 0.893832 0.893832 0.893832 0.893832 0.893832 0.893832 0.893832 0.893832 0.893832 0.893832 0.893832 0.893832 0.893832 0.893832 0.893832 0.893832 0.893832 0.893832 0.893832 0.893832 0.893832 0.893832 0.893832 0.893832 0.893832 0.893832 0.893832 0.893832 0.893832 0.893832 0.893832 0.893832 0.893832 0.893832 0.893832 0.893832 0.893832 0.893832 0.893832 0.893832 0.893832 0.893832 0.893832 0.893832 0.893832 0.893832 0.893832 0.893832 0.893832 0.893832 0.893832 0.893832 0.893832 0.893832 0.893832 0.893832 0.893832 0.893832 0.893832 0.893832 0.893832 0.893832 0.893832 0.893832 0.893832 0.893832 0.893832 0.893832 0.893832 0.893832 0.893832 0.893832 0.893832 0.893832 0.893832 0.893832 0.893832 0.893832 0.893832 0.893832 0.893832 0.893832 0.893832 0.893832 0.893832 0.893832 0.893832 0.893832 0.893832 0.893832 0.893832 0.893832 0.893832 0.893832 0.893832 0.893832 0.893832 0.893832 0.893832 0.893832 0.893832 0.893832 0.893832 0.893832 0.893832 0.893832 0.893832 0.893832 0.893832 0.893832 0.893832 0.893832 0.893832 0.893832 0.893832 0.893832 0.893832 0.893832 0.893832 0.893832 0.893832 0.893832 0.893832 0.893832 0.893832 0.893832 0.893832 0.893832 0.893832 0.893832 0.893832 0.893832 0.893832 0.893832 0.893832 0.893832 0.893832 0.893832 0.893832 0.893832 0.893832 0.893832 0.893832 0.893832 0.893832 0.893832 0.893832 0.893832 0.893832 0.893832 0.893832 0.893832 0.893832 0.893832 0.893832 0.893832 0.893832 0.893832 0.893832 0.893832 0.893832 0.893832 0.893832 0.893832 0.893832 0.893832 0.893832 0.893832 0.893832 0.893832 0.893832 0.893832 0.893832 0.893832 0.893832 0.893832 0.893832 0.893832 0.893832 0.893832 0.893832 0.893832 0.893832 0.893832 0.893832 0.893832 0.893832 0.893832 0.893832 0.893832 0.893832 0.893832 0.893832 0.893832 0.893832 0.893832 0.893832 0.893832 0.893832 0.893832 0.893832 0.893832 0.893832 0.893832 0.893832 0.893832 0.893832 0.893832 0.893832 0.893832 0.893832 0.893832 0.893832 0.893832 0.893832 0.893832 0.893832 0.893832 0.893832 0.893832 0.893832 0.893832 0.893832 0.893832 0.893832 0.893832 0.893832 0.893832 0.893832 0.893832 0.893832 0.893832 0.893832 0.893832 0.893832 0.893832 0.893832 0.893832 0.893832 0.893832 0.893832 0.893832 0.893832 0.893832 0.893832 0.893832 0.893832 0.893832 0.893832 0.893832 0.893832 0.893832 0.893832 0.893832 0.893832 0.893832 0.893832 0.893832 0.893832 0.893832 0.893832 0.893832 0.893832 0.893832 0.893832 0.893832 0.893832 0.893832 0.893832 0.893832 0.893832 0.893832 0.893832 0.893832 0.893832 0.893832 0.893832 0.893832 0.893832 0.893832 0.893832 0.893832 0.893832 0.893832 0.893832 0.893832 0.893832 0.893832 0.893832 0.893832 0.893832 0.893832 0.893832 0.893832 0.893832 0.893832 0.893832 0.893832 0.893832 0.893832 0.893832 0.893832 0.893832 0.893832 0.893832 0.893832 0.893832 0.893832 0.893832 0.893832 0.893832 0.893832 0.893832 0.893832 0.893832 0.893832 0.893832 0.893832 0.893832 0.893832 0.893832 0.893832 0.893832 0.893832 0.893832 0.893832 0.893832 0.893832 0.893832 0.893832 0.893832 0.893832 0.893832 0.893832 0.893832 0.893832 0.893832 0.893832 0.893832 0.893832 0.893832 0.893832 0.893832 0.893832 0.893832 0.893832 0.893832 0.893832 0.893832 0.893832 0.893832 0.893832 0.893832 0.893832 0.893832 0.893832 0.893832 0.893832 0.893832 0.893832 
SCALARS Axial_Stress float 1
LOOKUP_TABLE default
-9035750000.0 -9035750000.0 -9035750000.0 -9035750000.0 -9035750000.0 -9035750000.0 -9035750000.0 -9035750000.0 -9035750000.0 -9035750000.0 -9035750000.0 -9035750000.0 -9035750000.0 -9035750000.0 -9035750000.0 -9035750000.0 -9035750000.0 -9035750000.0 -9035750000.0 -9035750000.0 -9035750000.0 -9035750000.0 -9035750000.0 -9035750000.0 -9035750000.0 -9035750000.0 -9035750000.0 -9035750000.0 -9035750000.0 -9035750000.0 -9035750000.0 -9035750000.0 -9035750000.0 -9035750000.0 -9035750000.0 -9035750000.0 -9035750000.0 -9035750000.0 -9035750000.0 -9035750000.0 -9035750000.0 -9035750000.0 -9035750000.0 -9035750000.0 -9035750000.0 -9035750000.0 -9035750000.0 -9035750000.0 -9035750000.0 -9035750000.0 -9035750000.0 -9035750000.0 -9035750000.0 -9035750000.0 -9035750000.0 -9035750000.0 -9035750000.0 -9035750000.0 -9035750000.0 -9035750000.0 -9035750000.0 -9035750000.0 -9035750000.0 -9035750000.0 -9035750000.0 -9035750000.0 -9035750000.0 -9035750000.0 -9035750000.0 -9035750000.0 -9035750000.0 -9035750000.0 -9035750000.0 -9035750000.0 -9035750000.0 -9035750000.0 -9035750000.0 -9035750000.0 -9035750000.0 -9035750000.0 -9035750000.0 -9035750000.0 -9035750000.0 -9035750000.0 -9035750000.0 -9035750000.0 -9035750000.0 -9035750000.0 -9035750000.0 -9035750000.0 -9035750000.0 -9035750000.0 -9035750000.0 -9035750000.0 -9035750000.0 -9035750000.0 -9035750000.0 -9035750000.0 -9035750000.0 -9035750000.0 -9035750000.0 -9035750000.0 -9035750000.0 -9035750000.0 -9035750000.0 -9035750000.0 -9035750000.0 -9035750000.0 -9035750000.0 -9035750000.0 -9035750000.0 -9035750000.0 -9035750000.0 -9035750000.0 -9035750000.0 -9035750000.0 -9035750000.0 -9035750000.0 -9035750000.0 -9035750000.0 -9035750000.0 -9035750000.0 -9035750000.0 -9035750000.0 -9035750000.0 -9035750000.0 -9035750000.0 -9035750000.0 -9035750000.0 -9035750000.0 -9035750000.0 -9035750000.0 -9035750000.0 -9035750000.0 -9035750000.0 -9035750000.0 -9035750000.0 -9035750000.0 -9035750000.0 -9035750000.0 -9035750000.0 -9035750000.0 -9035750000.0 -9035750000.0 -9035750000.0 -9035750000.0 -9035750000.0 -9035750000.0 -9035750000.0 -9035750000.0 -9035750000.0 -9035750000.0 -9035750000.0 -9035750000.0 -9035750000.0 -9035750000.0 -9035750000.0 -9035750000.0 -9035750000.0 -9035750000.0 -9035750000.0 -9035750000.0 -9035750000.0 -9035750000.0 -9035750000.0 -9035750000.0 -9035750000.0 -9035750000.0 -9035750000.0 -9035750000.0 -9035750000.0 -9035750000.0 -9035750000.0 -9035750000.0 -9035750000.0 -9035750000.0 -9035750000.0 -9035750000.0 -9035750000.0 -9035750000.0 -9035750000.0 -9035750000.0 -9035750000.0 -9035750000.0 -9035750000.0 -9035750000.0 -9035750000.0 -9035750000.0 -9035750000.0 -9035750000.0 -9035750000.0 -9035750000.0 -9035750000.0 -9035750000.0 -9035750000.0 -9035750000.0 -9035750000.0 -9035750000.0 -9035750000.0 -9035750000.0 -9035750000.0 -9035750000.0 -9035750000.0 -9035750000.0 -9035750000.0 -9035750000.0 -9035750000.0 -9035750000.0 -9035750000.0 -9035750000.0 -9035750000.0 -9035750000.0 -9035750000.0 -9035750000.0 -9035750000.0 -9035750000.0 -9035750000.0 -9035750000.0 -9035750000.0 -9035750000.0 -9035750000.0 -9035750000.0 -9035750000.0 -9035750000.0 -9035750000.0 -9035750000.0 -9035750000.0 -9035750000.0 -9035750000.0 -9035750000.0 -9035750000.0 -9035750000.0 -9035750000.0 -9035750000.0 -9035750000.0 -9035750000.0 -9035750000.0 -9035750000.0 -9035750000.0 -9035750000.0 -9035750000.0 -9035750000.0 -9035750000.0 -9035750000.0 -9035750000.0 -9035750000.0 -9035750000.0 -9035750000.0 -9035750000.0 -9035750000.0 -9035750000.0 -9035750000.0 -9035750000.0 -9035750000.0 -9035750000.0 -9035750000.0 -9035750000.0 -9035750000.0 -9035750000.0 -9035750000.0 -9035750000.0 -9035750000.0 -9035750000.0 -9035750000.0 -9035750000.0 -9035750000.0 -9035750000.0 -9035750000.0 -9035750000.0 -9035750000.0 -9035750000.0 -9035750000.0 -9035750000.0 -9035750000.0 -9035750000.0 -9035750000.0 -9035750000.0 -9035750000.0 -9035750000.0 -9035750000.0 -9035750000.0 -9035750000.0 -9035750000.0 -9035750000.0 -9035750000.0 -9035750000.0 -9035750000.0 -9035750000.0 -9035750000.0 -9035750000.0 -9035750000.0 -9035750000.0 -9035750000.0 -9035750000.0 -9035750000.0 -9035750000.0 -9035750000.0 -9035750000.0 -9035750000.0 -9035750000.0 -9035750000.0 -9035750000.0 -9035750000.0 -9035750000.0 -9035750000.0 -9035750000.0 -9035750000.0 -9035750000.0 -9035750000.0 -9035750000.0 -9035750000.0 -9035750000.0 -9035750000.0 -9035750000.0 -9035750000.0 -9035750000.0 -9035750000.0 -9035750000.0 -9035750000.0 -9035750000.0 -9035750000.0 -9035750000.0 -9035750000.0 -9035750000.0 -9035750000.0 -9035750000.0 -9035750000.0 -9035750000.0 -9035750000.0 -9035750000.0 -9035750000.0 -9035750000.0 -9035750000.0 -9035750000.0 -9035750000.0 -9035750000.0 -9035750000.0 -9035750000.0 -9035750000.0 -9035750000.0 -9035750000.0 -9035750000.0 -9035750000.0 -9035750000.0 -9035750000.0 -9035750000.0 -9035750000.0 -9035750000.0 -9035750000.0 -9035750000.0 -9035750000.0 -9035750000.0 -9035750000.0 -9035750000.0 -9035750000.0 -9035750000.0 -9035750000.0 -9035750000.0 -9035750000.0 -9035750000.0 -9035750000.0 -9035750000.0 -9035750000.0 -9035750000.0 -9035750000.0 -9035750000.0 -9035750000.0 -9035750000.0 -9035750000.0 -9035750000.0 -9035750000.0 -9035750000.0 -9035750000.0 -9035750000.0 -9035750000.0 -9035750000.0 -9035750000.0 -9035750000.0 -9035750000.0 -9035750000.0 -9035750000.0 -9035750000.0 -9035750000.0 -9035750000.0 -9035750000.0 -9035750000.0 -9035750000.0 -9035750000.0 -9035750000.0 -9035750000.0 -9035750000.0 -9035750000.0 -9035750000.0 -9035750000.0 -9035750000.0 -9035750000.0 -9035750000.0 -9035750000.0 -9035750000.0 -9035750000.0 -9035750000.0 -9035750000.0 -9035750000.0 -9035750000.0 -9035750000.0 -9035750000.0 -9035750000.0 -9035750000.0 -9035750000.0 -9035750000.0 -9035750000.0 -9035750000.0 -9035750000.0 -9035750000.0 -9035750000.0 -9035750000.0 -9035750000.0 -9035750000.0 -9035750000.0 -9035750000.0 -9035750000.0 -9035750000.0 -9035750000.0 -9035750000.0 -9035750000.0 -9035750000.0 -9035750000.0 -9035750000.0 -9035750000.0 -9035750000.0 -9035750000.0 -9035750000.0 -9035750000.0 -9035750000.0 -9035750000.0 -9035750000.0 -9035750000.0 -9035750000.0 -9035750000.0 -9035750000.0 -9035750000.0 -9035750000.0 -9035750000.0 -9035750000.0 -9035750000.0 -9035750000.0 -9035750000.0 -9035750000.0 -9035750000.0 -9035750000.0 -9035750000.0 -9035750000.0 -9035750000.0 -9035750000.0 -9035750000.0 -9035750000.0 -9035750000.0 -9035750000.0 -9035750000.0 -9035750000.0 -9035750000.0 -9035750000.0 -9035750000.0 -9035750000.0 -9035750000.0 -9035750000.0 -9035750000.0 -9035750000.0 -9035750000.0 -9035750000.0 -9035750000.0 -9035750000.0 -9035750000.0 -9035750000.0 -9035750000.0 -9035750000.0 -9035750000.0 -9035750000.0 -9035750000.0 -9035750000.0 -9035750000.0 -9035750000.0 -9035750000.0 -9035750000.0 -9035750000.0 -9035750000.0 -9035750000.0 -9035750000.0 -9035750000.0 -9035750000.0 -9035750000.0 -9035750000.0 -9035750000.0 -9035750000.0 -9035750000.0 -9035750000.0 -9035750000.0 -9035750000.0 -9035750000.0 -9035750000.0 -9035750000.0 -9035750000.0 -9035750000.0 -9035750000.0 -9035750000.0 -9035750000.0 -9035750000.0 -9035750000.0 -9035750000.0 -9035750000.0 -9035750000.0 -9035750000.0 -9035750000.0 -9035750000.0 -9035750000.0 -9035750000.0 -9035750000.0 -9035750000.0 -9035750000.0 -9035750000.0 -9035750000.0 -9035750000.0 -9035750000.0 -9035750000.0 -9035750000.0 -9035750000.0 -9035750000.0 -9035750000.0 -9035750000.0 -9035750000.0 -9035750000.0 -9035750000.0 -9035750000.0 -9035750000.0 -9035750000.0 -9035750000.0 -9035750000.0 -9035750000.0 -9035750000.0 -9035750000.0 -9035750000.0 -9035750000.0 -9035750000.0 -9035750000.0 -9035750000.0 -9035750000.0 -9035750000.0 -9035750000.0 -9035750000.0 -9035750000.0 -9035750000.0 -9035750000.0 -9035750000.0 -9035750000.0 -9035750000.0 -9035750000.0 -9035750000.0 -9035750000.0 -9035750000.0 -9035750000.0 -9035750000.0 -9035750000.0 -9035750000.0 -9035750000.0 -9035750000.0 -9035750000.0 -9035750000.0 -9035750000.0 -9035750000.0 -9035750000.0 -9035750000.0 -9035750000.0 -9035750000.0 -9035750000.0 -9035750000.0 -9035750000.0 -9035750000.0 -9035750000.0 -9035750000.0 -9035750000.0 -9035750000.0 -9035750000.0 -9035750000.0 -9035750000.0 -9035750000.0 -9035750000.0 -9035750000.0 -9035750000.0 -9035750000.0 -9035750000.0 -9035750000.0 -9035750000.0 -9035750000.0 -9035750000.0 -9035750000.0 -9035750000.0 -9035750000.0 -9035750000.0 -9035750000.0 -9035750000.0 -9035750000.0 -9035750000.0 -9035750000.0 -9035750000.0 -9035750000.0 -9035750000.0 -9035750000.0 -9035750000.0 -9035750000.0 -9035750000.0 -9035750000.0 -9035750000.0 -9035750000.0 -9035750000.0 -9035750000.0 -9035750000.0 -9035750000.0 -9035750000.0 -9035750000.0 -9035750000.0 -9035750000.0 -9035750000.0 -9035750000.0 -9035750000.0 -9035750000.0 -9035750000.0 -9035750000.0 -9035750000.0 -9035750000.0 -9035750000.0 -9035750000.0 -9035750000.0 -9035750000.0 -9035750000.0 -9035750000.0 -9035750000.0 -9035750000.0 -9035750000.0 -9035750000.0 -9035750000.0 -9035750000.0 -9035750000.0 -9035750000.0 -9035750000.0 -9035750000.0 -9035750000.0 -9035750000.0 -9035750000.0 -9035750000.0 -9035750000.0 -9035750000.0 -9035750000.0 -9035750000.0 -9035750000.0 -9035750000.0 -9035750000.0 -9035750000.0 -9035750000.0 -9035750000.0 -9035750000.0 -9035750000.0 -9035750000.0 -9035750000.0 -9035750000.0 -9035750000.0 -9035750000.0 -9035750000.0 -9035750000.0 -9035750000.0 -9035750000.0 -9035750000.0 -9035750000.0 -9035750000.0 -9035750000.0 -9035750000.0 -9035750000.0 -9035750000.0 -9035750000.0 -9035750000.0 -9035750000.0 -9035750000.0 -9035750000.0 -9035750000.0 -9035750000.0 -9035750000.0 -9035750000.0 -9035750000.0 -9035750000.0 -9035750000.0 -9035750000.0 -9035750000.0 -9035750000.0 -9035750000.0 -9035750000.0 -9035750000.0 -9035750000.0 -9035750000.0 -9035750000.0 -9035750000.0 -9035750000.0 -9035750000.0 -9035750000.0 -9035750000.0 -9035750000.0 -9035750000.0 -9035750000.0 -9035750000.0 -9035750000.0 -9035750000.0 -9035750000.0 -9035750000.0 -9035750000.0 -9035750000.0 -9035750000.0 -9035750000.0 -9035750000.0 -9035750000.0 -9035750000.0 -9035750000.0 -9035750000.0 -9035750000.0 -9035750000.0 -9035750000.0 -9035750000.0 -9035750000.0 -9035750000.0 -9035750000.0 -9035750000.0 -9035750000.0 -9035750000.0 -9035750000.0 -9035750000.0 -9035750000.0 -9035750000.0 -9035750000.0 -9035750000.0 -9035750000.0 -9035750000.0 -9035750000.0 -9035750000.0 -9035750000.0 -9035750000.0 -9035750000.0 -9035750000.0 -9035750000.0 -9035750000.0 -9035750000.0 -9035750000.0 -9035750000.0 -9035750000.0 -9035750000.0 -9035750000.0 -9035750000.0 -9035750000.0 -9035750000.0 -9035750000.0 -9035750000.0 -9035750000.0 -9035750000.0 -9035750000.0 -9035750000.0 -9035750000.0 -9035750000.0 -9035750000.0 -9035750000.0 -9035750000.0 -9035750000.0 -9035750000.0 -9035750000.0 -9035750000.0 -9035750000.0 -9035750000.0 -9035750000.0 -9035750000.0 -9035750000.0 -9035750000.0 -9035750000.0 -9035750000.0 -9035750000.0 -9035750000.0 -9035750000.0 -9035750000.0 -9035750000.0 -9035750000.0 -9035750000.0 -9035750000.0 -9035750000.0 -9035750000.0 -9035750000.0 -9035750000.0 -9035750000.0 -9035750000.0 -9035750000.0 -9035750000.0 -9035750000.0 -9035750000.0 -9035750000.0 -9035750000.0 -9035750000.0 -9035750000.0 -9035750000.0 -9035750000.0 -9035750000.0 -9035750000.0 -9035750000.0 -9035750000.0 -9035750000.0 -9035750000.0 -9035750000.0 -9035750000.0 -9035750000.0 -9035750000.0 -9035750000.0 -9035750000.0 -9035750000.0 -9035750000.0 -9035750000.0 -9035750000.0 -9035750000.0 -9035750000.0 -9035750000.0 -9035750000.0 -9035750000.0 -9035750000.0 -9035750000.0 -9035750000.0 -9035750000.0 -9035750000.0 -9035750000.0 -9035750000.0 -9035750000.0 -9035750000.0 -9035750000.0 -9035750000.0 -9035750000.0 -9035750000.0 -9035750000.0 -9035750000.0 -9035750000.0 -9035750000.0 -9035750000.0 -9035750000.0 -9035750000.0 -9035750000.0 -9035750000.0 -9035750000.0 -9035750000.0 -9035750000.0 -9035750000.0 -9035750000.0 -9035750000.0 -9035750000.0 -9035750000.0 -9035750000.0 -9035750000.0 -9035750000.0 -9035750000.0 -9035750000.0 -9035750000.0 -9035750000.0 -9035750000.0 -9035750000.0 -9035750000.0 -9035750000.0 -9035750000.0 -9035750000.0 -9035750000.0 -9035750000.0 -9035750000.0 -9035750000.0 -9035750000.0 -9035750000.0 -9035750000.0 -9035750000.0 -9035750000.0 -9035750000.0 -9035750000.0 -9035750000.0 -9035750000.0 -9035750000.0 -9035750000.0 -9035750000.0 -9035750000.0 -9035750000.0 -9035750000.0 -9035750000.0 -9035750000.0 -9035750000.0 -9035750000.0 -9035750000.0 -9035750000.0 -9035750000.0 -9035750000.0 -9035750000.0 -9035750000.0 -9035750000.0 -9035750000.0 -9035750000.0 -9035750000.0 -9035750000.0 -9035750000.0 -9035750000.0 -9035750000.0 -9035750000.0 -9035750000.0 -9035750000.0 -9035750000.0 -9035750000.0 -9035750000.0 -9035750000.0 -9035750000.0 -9035750000.0 -9035750000.0 -9035750000.0 -9035750000.0 -9035750000.0 -9035750000.0 -9035750000.0 -9035750000.0 -9035750000.0 -9035750000.0 -9035750000.0 -9035750000.0 -9035750000.0 -9035750000.0 -9035750000.0 -9035750000.0 -9035750000.0 -9035750000.0 -9035750000.0 -9035750000.0 -9035750000.0 -9035750000.0 -9035750000.0 -9035750000.0 -9035750000.0 -9035750000.0 -9035750000.0 -9035750000.0 -9035750000.0 -9035750000.0 -9035750000.0 -9035750000.0 -9035750000.0 -9035750000.0 -9035750000.0 -9035750000.0 -9035750000.0 -9035750000.0 -9035750000.0 -9035750000.0 -9035750000.0 -9035750000.0 -9035750000.0 -9035750000.0 -9035750000.0 -9035750000.0 -9035750000.0 -9035750000.0 -9035750000.0 -9035750000.0 -9035750000.0 -9035750000.0 -9035750000.0 -9035750000.0 -9035750000.0 -9035750000.0 -9035750000.0 -9035750000.0 -9035750000.0 -9035750000.0 -9035750000.0 -9035750000.0 -9035750000.0 -9035750000.0 -9035750000.0 -9035750000.0 -9035750000.0 -9035750000.0 -9035750000.0 -9035750000.0 -9035750000.0 -9035750000.0 -9035750000.0 -9035750000.0 -9035750000.0 -9035750000.0 -9035750000.0 -9035750000.0 -9035750000.0 -9035750000.0 -9035750000.0 -9035750000.0 -9035750000.0 -9035750000.0 -9035750000.0 -9035750000.0 -9035750000.0 -9035750000.0 -9035750000.0 -9035750000.0 -9035750000.0 -9035750000.0 -9035750000.0 -9035750000.0 -9035750000.0 -9035750000.0 -9035750000.0 -9035750000.0 -9035750000.0 -9035750000.0 -9035750000.0 -9035750000.0 -9035750000.0 -9035750000.0 -9035750000.0 -9035750000.0 -9035750000.0 -9035750000.0 -9035750000.0 -9035750000.0 -9035750000.0 -9035750000.0 -9035750000.0 -9035750000.0 -9035750000.0 -9035750000.0 -9035750000.0 -9035750000.0 -9035750000.0 -9035750000.0 -9035750000.0 -9035750000.0 -9035750000.0 -9035750000.0 -9035750000.0 -9035750000.0 -9035750000.0 -9035750000.0 -9035750000.0 -9035750000.0 -9035750000.0 -9035750000.0 -9035750000.0 -9035750000.0 -9035750000.0 -9035750000.0 -9035750000.0 -9035750000.0 -9035750000.0 -9035750000.0 -9035750000.0 -9035750000.0 -9035750000.0 -9035750000.0 -9035750000.0 -9035750000.0 -9035750000.0 -9035750000.0 -9035750000.0 -9035750000.0 -9035750000.0 -9035750000.0 -9035750000.0 -9035750000.0 -9035750000.0 -9035750000.0 -9035750000.0 -9035750000.0 -9035750000.0 -9035750000.0 -9035750000.0 -9035750000.0 -9035750000.0 -9035750000.0 -9035750000.0 -9035750000.0 -9035750000.0 -9035750000.0 -9035750000.0 -9035750000.0 -9035750000.0 -9035750000.0 -9035750000.0 -9035750000.0 -9035750000.0 -9035750000.0 -9035750000.0 -9035750000.0 -9035750000.0 -9035750000.0 -9035750000.0 -9035750000.0 -9035750000.0 -9035750000.0 -9035750000.0 -9035750000.0 -9035750000.0 -9035750000.0 -9035750000.0 -9035750000.0 -9035750000.0 -9035750000.0 -9035750000.0 -9035750000.0 -9035750000.0 -9035750000.0 -9035750000.0 -9035750000.0 -9035750000.0 -9035750000.0 -9035750000.0 -9035750000.0 -9035750000.0 -9035750000.0 -9035750000.0 -9035750000.0 -9035750000.0 -9035750000.0 -9035750000.0 -9035750000.0 -9035750000.0 -9035750000.0 -9035750000.0 -9035750000.0 -9035750000.0 -9035750000.0 -9035750000.0 -9035750000.0 -9035750000.0 -9035750000.0 -9035750000.0 -9035750000.0 -9035750000.0 -9035750000.0 -9035750000.0 -9035750000.0 -9035750000.0 -9035750000.0 -9035750000.0 -9035750000.0 -9035750000.0 -9035750000.0 -9035750000.0 -9035750000.0 -9035750000.0 -9035750000.0 -9035750000.0 -9035750000.0 -9035750000.0 -9035750000.0 -9035750000.0 -9035750000.0 -9035750000.0 -9035750000.0 -9035750000.0 -9035750000.0 -9035750000.0 -9035750000.0 -9035750000.0 -9035750000.0 -9035750000.0 -9035750000.0 -9035750000.0 -9035750000.0 -9035750000.0 -9035750000.0 -9035750000.0 -9035750000.0 -9035750000.0 -9035750000.0 -9035750000.0 -9035750000.0 -9035750000.0 -9035750000.0 -9035750000.0 -9035750000.0 -9035750000.0 -9035750000.0 -9035750000.0 -9035750000.0 -9035750000.0 -9035750000.0 -9035750000.0 -9035750000.0 -9035750000.0 -9035750000.0 -9035750000.0 -9035750000.0 -9035750000.0 -9035750000.0 -9035750000.0 -9035750000.0 -9035750000.0 -9035750000.0 -9035750000.0 -9035750000.0 -9035750000.0 -9035750000.0 -9035750000.0 -9035750000.0 -9035750000.0 -9035750000.0 -9035750000.0 -9035750000.0 -9035750000.0 -9035750000.0 -9035750000.0 -9035750000.0 -9035750000.0 -9035750000.0 -9035750000.0 -9035750000.0 -9035750000.0 -9035750000.0 -9035750000.0 -9035750000.0 -9035750000.0 -9035750000.0 -9035750000.0 -9035750000.0 -9035750000.0 -9035750000.0 -9035750000.0 -9035750000.0 -9035750000.0 -9035750000.0 -9035750000.0 -9035750000.0 -9035750000.0 -9035750000.0 -9035750000.0 -9035750000.0 -9035750000.0 -9035750000.0 -9035750000.0 -9035750000.0 -9035750000.0 -9035750000.0 -9035750000.0 -9035750000.0 -9035750000.0 -9035750000.0 -9035750000.0 -9035750000.0 -9035750000.0 -9035750000.0 -9035750000.0 -9035750000.0 -9035750000.0 -9035750000.0 -9035750000.0 -9035750000.0 -9035750000.0 -9035750000.0 -9035750000.0 -9035750000.0 -9035750000.0 -9035750000.0 -9035750000.0 -9035750000.0 -9035750000.0 -9035750000.0 -9035750000.0 -9035750000.0 -9035750000.0 -9035750000.0 -9035750000.0 -9035750000.0 -9035750000.0 -9035750000.0 -9035750000.0 -9035750000.0 -9035750000.0 -9035750000.0 -9035750000.0 -9035750000.0 -9035750000.0 -9035750000.0 -9035750000.0 -9035750000.0 -9035750000.0 -9035750000.0 -9035750000.0 -9035750000.0 -9035750000.0 -9035750000.0 -9035750000.0 -9035750000.0 -9035750000.0 -9035750000.0 -9035750000.0 -9035750000.0 -9035750000.0 -9035750000.0 -9035750000.0 -9035750000.0 -9035750000.0 -9035750000.0 -9035750000.0 -9035750000.0 -9035750000.0 -9035750000.0 -9035750000.0 -9035750000.0 -9035750000.0 -9035750000.0 -9035750000.0 -9035750000.0 -9035750000.0 -9035750000.0 -9035750000.0 -9035750000.0 -9035750000.0 -9035750000.0 -9035750000.0 -9035750000.0 -9035750000.0 -9035750000.0 -9035750000.0 -9035750000.0 -9035750000.0 -9035750000.0 -9035750000.0 -9035750000.0 -9035750000.0 -9035750000.0 -9035750000.0 -9035750000.0 -9035750000.0 -9035750000.0 -9035750000.0 -9035750000.0 -9035750000.0 -9035750000.0 -9035750000.0 -9035750000.0 -9035750000.0 -9035750000.0 -9035750000.0 -9035750000.0 -9035750000.0 -9035750000.0 -9035750000.0 -9035750000.0 -9035750000.0 -9035750000.0 -9035750000.0 -9035750000.0 -9035750000.0 -9035750000.0 -9035750000.0 -9035750000.0 -9035750000.0 -9035750000.0 -9035750000.0 -9035750000.0 -9035750000.0 -9035750000.0 -9035750000.0 -9035750000.0 -9035750000.0 -9035750000.0 -9035750000.0 -9035750000.0 -9035750000.0 -9035750000.0 -9035750000.0 -9035750000.0 -9035750000.0 -9035750000.0 -9035750000.0 -9035750000.0 -9035750000.0 -9035750000.0 -9035750000.0 -9035750000.0 -9035750000.0 -9035750000.0 -9035750000.0 -9035750000.0 -9035750000.0 -9035750000.0 -9035750000.0 -9035750000.0 -9035750000.0 -9035750000.0 -9035750000.0 -9035750000.0 -9035750000.0 -9035750000.0 -9035750000.0 -9035750000.0 -9035750000.0 -9035750000.0 -9035750000.0 -9035750000.0 -9035750000.0 -9035750000.0 -9035750000.0 -9035750000.0 -9035750000.0 -9035750000.0 -9035750000.0 -9035750000.0 -9035750000.0 -9035750000.0 -9035750000.0 -9035750000.0 -9035750000.0 -9035750000.0 -9035750000.0 -9035750000.0 -9035750000.0 -9035750000.0 -9035750000.0 -9035750000.0 -9035750000.0 -9035750000.0 -9035750000.0 -9035750000.0 -9035750000.0 -9035750000.0 -9035750000.0 -9035750000.0 -9035750000.0 -9035750000.0 -9035750000.0 -9035750000.0 -9035750000.0 -9035750000.0 -9035750000.0 -9035750000.0 -9035750000.0 -9035750000.0 -9035750000.0 -9035750000.0 -9035750000.0 -9035750000.0 -9035750000.0 -9035750000.0 -9035750000.0 -9035750000.0 -9035750000.0 -9035750000.0 -9035750000.0 -9035750000.0 -9035750000.0 -9035750000.0 -9035750000.0 -9035750000.0 -9035750000.0 -9035750000.0 -9035750000.0 -9035750000.0 -9035750000.0 -9035750000.0 -9035750000.0 -9035750000.0 -9035750000.0 -9035750000.0 -9035750000.0 -9035750000.0 -9035750000.0 -9035750000.0 -9035750000.0 -9035750000.0 -9035750000.0 -9035750000.0 -9035750000.0 -9035750000.0 -9035750000.0 -9035750000.0 -9035750000.0 -9035750000.0 -9035750000.0 -9035750000.0 -9035750000.0 -9035750000.0 -9035750000.0 -9035750000.0 -9035750000.0 -9035750000.0 -9035750000.0 -9035750000.0 -9035750000.0 -9035750000.0 -9035750000.0 -9035750000.0 -9035750000.0 -9035750000.0 -9035750000.0 -9035750000.0 -9035750000.0 -9035750000.0 -9035750000.0 -9035750000.0 -9035750000.0 -9035750000.0 -9035750000.0 -9035750000.0 -9035750000.0 -9035750000.0 -9035750000.0 -9035750000.0 -9035750000.0 -9035750000.0 -9035750000.0 -9035750000.0 -9035750000.0 -9035750000.0 -9035750000.0 -9035750000.0 -9035750000.0 -9035750000.0 -9035750000.0 -9035750000.0 -9035750000.0 -9035750000.0 -9035750000.0 -9035750000.0 -9035750000.0 -9035750000.0 -9035750000.0 -9035750000.0 -9035750000.0 -9035750000.0 -9035750000.0 -9035750000.0 -9035750000.0 -9035750000.0 -9035750000.0 -9035750000.0 -9035750000.0 -9035750000.0 -9035750000.0 -9035750000.0 -9035750000.0 -9035750000.0 -9035750000.0 -9035750000.0 -9035750000.0 -9035750000.0 -9035750000.0 -9035750000.0 -9035750000.0 -9035750000.0 -9035750000.0 -9035750000.0 -9035750000.0 -9035750000.0 -9035750000.0 -9035750000.0 -9035750000.0 -9035750000.0 -9035750000.0 -9035750000.0 -9035750000.0 -9035750000.0 -9035750000.0 -9035750000.0 -9035750000.0 -9035750000.0 -9035750000.0 -9035750000.0 -9035750000.0 -9035750000.0 -9035750000.0 -9035750000.0 -9035750000.0 -9035750000.0 -9035750000.0 -9035750000.0 -9035750000.0 -9035750000.0 -9035750000.0 -9035750000.0 -9035750000.0 -9035750000.0 -9035750000.0 -9035750000.0 -9035750000.0 -9035750000.0 -9035750000.0 -9035750000.0 -9035750000.0 -9035750000.0 -9035750000.0 -9035750000.0 -9035750000.0 -9035750000.0 -9035750000.0 -9035750000.0 -9035750000.0 -9035750000.0 -9035750000.0 -9035750000.0 -9035750000.0 -9035750000.0 -9035750000.0 -9035750000.0 -9035750000.0 -9035750000.0 -9035750000.0 -9035750000.0 -9035750000.0 -9035750000.0 -9035750000.0 -9035750000.0 -9035750000.0 -9035750000.0 -9035750000.0 -9035750000.0 -9035750000.0 -9035750000.0 -9035750000.0 -9035750000.0 -9035750000.0 -9035750000.0 -9035750000.0 -9035750000.0 -9035750000.0 -9035750000.0 -9035750000.0 -9035750000.0 -9035750000.0 -9035750000.0 -9035750000.0 -9035750000.0 -9035750000.0 -9035750000.0 -9035750000.0 -9035750000.0 -9035750000.0 -9035750000.0 -9035750000.0 -9035750000.0 -9035750000.0 -9035750000.0 -9035750000.0 -9035750000.0 -9035750000.0 -9035750000.0 -9035750000.0 -9035750000.0 -9035750000.0 -9035750000.0 -9035750000.0 -9035750000.0 -9035750000.0 -9035750000.0 -9035750000.0 -9035750000.0 -9035750000.0 -9035750000.0 -9035750000.0 -9035750000.0 -9035750000.0 -9035750000.0 -9035750000.0 -9035750000.0 -9035750000.0 -9035750000.0 -9035750000.0 -9035750000.0 -9035750000.0 -9035750000.0 -9035750000.0 -9035750000.0 -9035750000.0 -9035750000.0 -9035750000.0 -9035750000.0 -9035750000.0 -9035750000.0 -9035750000.0 -9035750000.0 -9035750000.0 -9035750000.0 -9035750000.0 -9035750000.0 -9035750000.0 -9035750000.0 -9035750000.0 -9035750000.0 -9035750000.0 -9035750000.0 -9035750000.0 -9035750000.0 -9035750000.0 -9035750000.0 -9035750000.0 -9035750000.0 -9035750000.0 -9035750000.0 -9035750000.0 -9035750000.0 -9035750000.0 -9035750000.0 -9035750000.0 -9035750000.0 -9035750000.0 -9035750000.0 -9035750000.0 -9035750000.0 -9035750000.0 -9035750000.0 -9035750000.0 -9035750000.0 -9035750000.0 -9035750000.0 -9035750000.0 -9035750000.0 -9035750000.0 -9035750000.0 -9035750000.0 -9035750000.0 -9035750000.0 -9035750000.0 -9035750000.0 -9035750000.0 -9035750000.0 -9035750000.0 -9035750000.0 -9035750000.0 -9035750000.0 -9035750000.0 -9035750000.0 -9035750000.0 -9035750000.0 -9035750000.0 -9035750000.0 -9035750000.0 -9035750000.0 -9035750000.0 -9035750000.0 -9035750000.0 -9035750000.0 -9035750000.0 -9035750000.0 -9035750000.0 -9035750000.0 -9035750000.0 -9035750000.0 -9035750000.0 -9035750000.0 -9035750000.0 -9035750000.0 -9035750000.0 -9035750000.0 -9035750000.0 -9035750000.0 -9035750000.0 -9035750000.0 -9035750000.0 -9035750000.0 -9035750000.0 -9035750000.0 -9035750000.0 -9035750000.0 -9035750000.0 -9035750000.0 -9035750000.0 -9035750000.0 -9035750000.0 -9035750000.0 -9035750000.0 -9035750000.0 -9035750000.0 -9035750000.0 -9035750000.0 -9035750000.0 -9035750000.0 -9035750000.0 -9035750000.0 -9035750000.0 -9035750000.0 -9035750000.0 -9035750000.0 -9035750000.0 -9035750000.0 -9035750000.0 -9035750000.0 -9035750000.0 -9035750000.0 -9035750000.0 -9035750000.0 -9035750000.0 -9035750000.0 -9035750000.0 -9035750000.0 -9035750000.0 -9035750000.0 -9035750000.0 -9035750000.0 -9035750000.0 -9035750000.0 -9035750000.0 -9035750000.0 -9035750000.0 -9035750000.0 -9035750000.0 -9035750000.0 -9035750000.0 -9035750000.0 -9035750000.0 -9035750000.0 -9035750000.0 -9035750000.0 -9035750000.0 -9035750000.0 -9035750000.0 -9035750000.0 -9035750000.0 -9035750000.0 -9035750000.0 -9035750000.0 -9035750000.0 -9035750000.0 -9035750000.0 -9035750000.0 -9035750000.0 -9035750000.0 -9035750000.0 -9035750000.0 -9035750000.0 -9035750000.0 -9035750000.0 -9035750000.0 -9035750000.0 -9035750000.0 -9035750000.0 -9035750000.0 -9035750000.0 -9035750000.0 -9035750000.0 -9035750000.0 -9035750000.0 -9035750000.0 -9035750000.0 -9035750000.0 -9035750000.0 -9035750000.0 -9035750000.0 -9035750000.0 -9035750000.0 -9035750000.0 -9035750000.0 -9035750000.0 -9035750000.0 -9035750000.0 -9035750000.0 -9035750000.0 -9035750000.0 -9035750000.0 -9035750000.0 -9035750000.0 -9035750000.0 -9035750000.0 -9035750000.0 -9035750000.0 -9035750000.0 -9035750000.0 -9035750000.0 -9035750000.0 -9035750000.0 -9035750000.0 -9035750000.0 -9035750000.0 -9035750000.0 -9035750000.0 -9035750000.0 -9035750000.0 -9035750000.0 -9035750000.0 -9035750000.0 -9035750000.0 -9035750000.0 -9035750000.0 -9035750000.0 -9035750000.0 -9035750000.0 -9035750000.0 -9035750000.0 -9035750000.0 -9035750000.0 -9035750000.0 -9035750000.0 -9035750000.0 -9035750000.0 -9035750000.0 -9035750000.0 -9035750000.0 -9035750000.0 -9035750000.0 -9035750000.0 -9035750000.0 -9035750000.0 -9035750000.0 -9035750000.0 -9035750000.0 -9035750000.0 -9035750000.0 -9035750000.0 -9035750000.0 -9035750000.0 -9035750000.0 -9035750000.0 -9035750000.0 -9035750000.0 -9035750000.0 -9035750000.0 -9035750000.0 -9035750000.0 -9035750000.0 -9035750000.0 -9035750000.0 -9035750000.0 -9035750000.0 -9035750000.0 -9035750000.0 -9035750000.0 -9035750000.0 -9035750000.0 -9035750000.0 -9035750000.0 -9035750000.0 -9035750000.0 -9035750000.0 -9035750000.0 -9035750000.0 -9035750000.0 -9035750000.0 -9035750000.0 -9035750000.0 -9035750000.0 -9035750000.0 -9035750000.0 -9035750000.0 -9035750000.0 -9035750000.0 -9035750000.0 -9035750000.0 -9035750000.0 -9035750000.0 -9035750000.0 -9035750000.0 -9035750000.0 -9035750000.0 -9035750000.0 -9035750000.0 -9035750000.0 -9035750000.0 -9035750000.0 -9035750000.0 -9035750000.0 -9035750000.0 -9035750000.0 -9035750000.0 -9035750000.0 -9035750000.0 -9035750000.0 -9035750000.0 -9035750000.0 -9035750000.0 -9035750000.0 -9035750000.0 -9035750000.0 -9035750000.0 -9035750000.0 -9035750000.0 -9035750000.0 -9035750000.0 -9035750000.0 -9035750000.0 -9035750000.0 -9035750000.0 -9035750000.0 -9035750000.0 -9035750000.0 -9035750000.0 -9035750000.0 -9035750000.0 -9035750000.0 -9035750000.0 -9035750000.0 -9035750000.0 -9035750000.0 -9035750000.0 -9035750000.0 -9035750000.0 -9035750000.0 -9035750000.0 -9035750000.0 -9035750000.0 -9035750000.0 -9035750000.0 -9035750000.0 -9035750000.0 -9035750000.0 -9035750000.0 -9035750000.0 -9035750000.0 -9035750000.0 -9035750000.0 -9035750000.0 -9035750000.0 -9035750000.0 -9035750000.0 -9035750000.0 -9035750000.0 -9035750000.0 -9035750000.0 -9035750000.0 -9035750000.0 -9035750000.0 -9035750000.0 -9035750000.0 -9035750000.0 -9035750000.0 -9035750000.0 -9035750000.0 -9035750000.0 -9035750000.0 -9035750000.0 -9035750000.0 -9035750000.0 -9035750000.0 -9035750000.0 -9035750000.0 -9035750000.0 -9035750000.0 -9035750000.0 -9035750000.0 -9035750000.0 -9035750000.0 -9035750000.0 -9035750000.0 -9035750000.0 -9035750000.0 -9035750000.0 -9035750000.0 -9035750000.0 -9035750000.0 -9035750000.0 -9035750000.0 -9035750000.0 -9035750000.0 -9035750000.0 -9035750000.0 -9035750000.0 -9035750000.0 -9035750000.0 -9035750000.0 -9035750000.0 -9035750000.0 -9035750000.0 -9035750000.0 -9035750000.0 -9035750000.0 -9035750000.0 -9035750000.0 -9035750000.0 -9035750000.0 -9035750000.0 -9035750000.0 -9035750000.0 -9035750000.0 -9035750000.0 -9035750000.0 -9035750000.0 -9035750000.0 -9035750000.0 -9035750000.0 -9035750000.0 -9035750000.0 -9035750000.0 -9035750000.0 -9035750000.0 -9035750000.0 -9035750000.0 -9035750000.0 -9035750000.0 -9035750000.0 -9035750000.0 -9035750000.0 -9035750000.0 -9035750000.0 -9035750000.0 -9035750000.0 -9035750000.0 -9035750000.0 -9035750000.0 -9035750000.0 -9035750000.0 -9035750000.0 -9035750000.0 -9035750000.0 -9035750000.0 -9035750000.0 -9035750000.0 -9035750000.0 -9035750000.0 -9035750000.0 -9035750000.0 -9035750000.0 -9035750000.0 -9035750000.0 -9035750000.0 -9035750000.0 -9035750000.0 -9035750000.0 -9035750000.0 -9035750000.0 -9035750000.0 -9035750000.0 -9035750000.0 -9035750000.0 -9035750000.0 -9035750000.0 -9035750000.0 -9035750000.0 -9035750000.0 -9035750000.0 -9035750000.0 -9035750000.0 -9035750000.0 -9035750000.0 -9035750000.0 -9035750000.0 -9035750000.0 -9035750000.0 -9035750000.0 -9035750000.0 -9035750000.0 -9035750000.0 -9035750000.0 -9035750000.0 -9035750000.0 -9035750000.0 -9035750000.0 -9035750000.0 -9035750000.0 -9035750000.0 -9035750000.0 -9035750000.0 -9035750000.0 -9035750000.0 -9035750000.0 -9035750000.0 -9035750000.0 -9035750000.0 -9035750000.0 -9035750000.0 -9035750000.0 -9035750000.0 -9035750000.0 -9035750000.0 -9035750000.0 -9035750000.0 -9035750000.0 -9035750000.0 -9035750000.0 -9035750000.0 -9035750000.0 -9035750000.0 -9035750000.0 -9035750000.0 -9035750000.0 -9035750000.0 -9035750000.0 -9035750000.0 -9035750000.0 -9035750000.0 -9035750000.0 -9035750000.0 -9035750000.0 -9035750000.0 -9035750000.0 -9035750000.0 -9035750000.0 -9035750000.0 -9035750000.0 -9035750000.0 -9035750000.0 -9035750000.0 -9035750000.0 -9035750000.0 -9035750000.0 -9035750000.0 -9035750000.0 -9035750000.0 -9035750000.0 -9035750000.0 -9035750000.0 -9035750000.0 -9035750000.0 -9035750000.0 -9035750000.0 -9035750000.0 -9035750000.0 -9035750000.0 -9035750000.0 -9035750000.0 -9035750000.0 -9035750000.0 -9035750000.0 -9035750000.0 -9035750000.0 -9035750000.0 -9035750000.0 -9035750000.0 -9035750000.0 -9035750000.0 -9035750000.0 -9035750000.0 -9035750000.0 -9035750000.0 -9035750000.0 -9035750000.0 -9035750000.0 -9035750000.0 -9035750000.0 -9035750000.0 -9035750000.0 -9035750000.0 -9035750000.0 -9035750000.0 -9035750000.0 -9035750000.0 -9035750000.0 -9035750000.0 -9035750000.0 -9035750000.0 -9035750000.0 -9035750000.0 -9035750000.0 -9035750000.0 -9035750000.0 -9035750000.0 -9035750000.0 -9035750000.0 -9035750000.0 -9035750000.0 -9035750000.0 -9035750000.0 -9035750000.0 -9035750000.0 -9035750000.0 -9035750000.0 -9035750000.0 -9035750000.0 -9035750000.0 -9035750000.0 -9035750000.0 -9035750000.0 -9035750000.0 -9035750000.0 -9035750000.0 -9035750000.0 -9035750000.0 -9035750000.0 -9035750000.0 -9035750000.0 -9035750000.0 -9035750000.0 -9035750000.0 -9035750000.0 -9035750000.0 -9035750000.0 -9035750000.0 -9035750000.0 -9035750000.0 -9035750000.0 -9035750000.0 -9035750000.0 -9035750000.0 -9035750000.0 -9035750000.0 -9035750000.0 -9035750000.0 -9035750000.0 -9035750000.0 -9035750000.0 -9035750000.0 -9035750000.0 -9035750000.0 -9035750000.0 -9035750000.0 -9035750000.0 -9035750000.0 -9035750000.0 -9035750000.0 -9035750000.0 -9035750000.0 -9035750000.0 -9035750000.0 -9035750000.0 -9035750000.0 -9035750000.0 -9035750000.0 -9035750000.0 -9035750000.0 -9035750000.0 -9035750000.0 -9035750000.0 -9035750000.0 -9035750000.0 -9035750000.0 -9035750000.0 -9035750000.0 -9035750000.0 -9035750000.0 -9035750000.0 -9035750000.0 -9035750000.0 -9035750000.0 -9035750000.0 -9035750000.0 -9035750000.0 -9035750000.0 -9035750000.0 -9035750000.0 -9035750000.0 -9035750000.0 -9035750000.0 -9035750000.0 -9035750000.0 -9035750000.0 -9035750000.0 -9035750000.0 -9035750000.0 -9035750000.0 -9035750000.0 -9035750000.0 -9035750000.0 -9035750000.0 -9035750000.0 -9035750000.0 -9035750000.0 -9035750000.0 -9035750000.0 -9035750000.0 -9035750000.0 -9035750000.0 -9035750000.0 -9035750000.0 -9035750000.0 -9035750000.0 -9035750000.0 -9035750000.0 -9035750000.0 -9035750000.0 -9035750000.0 -9035750000.0 -9035750000.0 -9035750000.0 -9035750000.0 -9035750000.0 -9035750000.0 -9035750000.0 -9035750000.0 -9035750000.0 -9035750000.0 -9035750000.0 -9035750000.0 -9035750000.0 -9035750000.0 -9035750000.0 -9035750000.0 -9035750000.0 -9035750000.0 -9035750000.0 -9035750000.0 -9035750000.0 -9035750000.0 -9035750000.0 -9035750000.0 -9035750000.0 -9035750000.0 -9035750000.0 -9035750000.0 -9035750000.0 -9035750000.0 -9035750000.0 -9035750000.0 -9035750000.0 -9035750000.0 -9035750000.0 -9035750000.0 -9035750000.0 -9035750000.0 -9035750000.0 -9035750000.0 -9035750000.0 -9035750000.0 -9035750000.0 -9035750000.0 -9035750000.0 -9035750000.0 -9035750000.0 -9035750000.0 -9035750000.0 -9035750000.0 -9035750000.0 -9035750000.0 -9035750000.0 -9035750000.0 -9035750000.0 -9035750000.0 -9035750000.0 -9035750000.0 -9035750000.0 -9035750000.0 -9035750000.0 -9035750000.0 -9035750000.0 -9035750000.0 -9035750000.0 -9035750000.0 -9035750000.0 -9035750000.0 -9035750000.0 -9035750000.0 -9035750000.0 -9035750000.0 -9035750000.0 -9035750000.0 -9035750000.0 -9035750000.0 -9035750000.0 -9035750000.0 -9035750000.0 -9035750000.0 -9035750000.0 -9035750000.0 -9035750000.0 -9035750000.0 -9035750000.0 -9035750000.0 -9035750000.0 -9035750000.0 -9035750000.0 -9035750000.0 -9035750000.0 -9035750000.0 -9035750000.0 -9035750000.0 -9035750000.0 -9035750000.0 -9035750000.0 -9035750000.0 -9035750000.0 -9035750000.0 -9035750000.0 -9035750000.0 -9035750000.0 -9035750000.0 -9035750000.0 -9035750000.0 -9035750000.0 -9035750000.0 -9035750000.0 -9035750000.0 -9035750000.0 -9035750000.0 -9035750000.0 -9035750000.0 -9035750000.0 -9035750000.0 -9035750000.0 -9035750000.0 -9035750000.0 -9035750000.0 -9035750000.0 -9035750000.0 -9035750000.0 -9035750000.0 -9035750000.0 -9035750000.0 -9035750000.0 -9035750000.0 -9035750000.0 -9035750000.0 -9035750000.0 -9035750000.0 -9035750000.0 -9035750000.0 -9035750000.0 -9035750000.0 -9035750000.0 -9035750000.0 -9035750000.0 -9035750000.0 -9035750000.0 -9035750000.0 -9035750000.0 -9035750000.0 -9035750000.0 -9035750000.0 -9035750000.0 -9035750000.0 -9035750000.0 -9035750000.0 -9035750000.0 -9035750000.0 -9035750000.0 -9035750000.0 -9035750000.0 -9035750000.0 -9035750000.0 -9035750000.0 -9035750000.0 -9035750000.0 -9035750000.0 -9035750000.0 -9035750000.0 -9035750000.0 -9035750000.0 -9035750000.0 -9035750000.0 -9035750000.0 -9035750000.0 -9035750000.0 -9035750000.0 -9035750000.0 -9035750000.0 -9035750000.0 -9035750000.0 -9035750000.0 -9035750000.0 -9035750000.0 -9035750000.0 -9035750000.0 -9035750000.0 -9035750000.0 -9035750000.0 -9035750000.0 -9035750000.0 -9035750000.0 -9035750000.0 -9035750000.0 -9035750000.0 -9035750000.0 -9035750000.0 -9035750000.0 -9035750000.0 -9035750000.0 -9035750000.0 -9035750000.0 -9035750000.0 -9035750000.0 -9035750000.0 -9035750000.0 -9035750000.0 -9035750000.0 -9035750000.0 -9035750000.0 -9035750000.0 -9035750000.0 -9035750000.0 -9035750000.0 -9035750000.0 -9035750000.0 -9035750000.0 -9035750000.0 -9035750000.0 -9035750000.0 -9035750000.0 -9035750000.0 -9035750000.0 -9035750000.0 -9035750000.0 -9035750000.0 -9035750000.0 -9035750000.0 -9035750000.0 -9035750000.0 -9035750000.0 -9035750000.0 -9035750000.0 -9035750000.0 -9035750000.0 -9035750000.0 -9035750000.0 -9035750000.0 -9035750000.0 -9035750000.0 -9035750000.0 -9035750000.0 -9035750000.0 -9035750000.0 -9035750000.0 -9035750000.0 -9035750000.0 -9035750000.0 -9035750000.0 -9035750000.0 -9035750000.0 -9035750000.0 -9035750000.0 -9035750000.0 -9035750000.0 -9035750000.0 -9035750000.0 -9035750000.0 -9035750000.0 -9035750000.0 -9035750000.0 -9035750000.0 -9035750000.0 -9035750000.0 -9035750000.0 -9035750000.0 -9035750000.0 -9035750000.0 -9035750000.0 -9035750000.0 -9035750000.0 -9035750000.0 -9035750000.0 -9035750000.0 -9035750000.0 -9035750000.0 -9035750000.0 -9035750000.0 -9035750000.0 -9035750000.0 -9035750000.0 -9035750000.0 -9035750000.0 -9035750000.0 -9035750000.0 -9035750000.0 -9035750000.0 -9035750000.0 -9035750000.0 -9035750000.0 -9035750000.0 -9035750000.0 -9035750000.0 -9035750000.0 -9035750000.0 -9035750000.0 -9035750000.0 -9035750000.0 -9035750000.0 -9035750000.0 -9035750000.0 -9035750000.0 -9035750000.0 -9035750000.0 -9035750000.0 -9035750000.0 -9035750000.0 -9035750000.0 -9035750000.0 -9035750000.0 -9035750000.0 -9035750000.0 -9035750000.0 -9035750000.0 -9035750000.0 -9035750000.0 -9035750000.0 -9035750000.0 -9035750000.0 -9035750000.0 -9035750000.0 -9035750000.0 -9035750000.0 -9035750000.0 -9035750000.0 -9035750000.0 -9035750000.0 -9035750000.0 -9035750000.0 -9035750000.0 -9035750000.0 -9035750000.0 -9035750000.0 -9035750000.0 -9035750000.0 -9035750000.0 -9035750000.0 -9035750000.0 -9035750000.0 -9035750000.0 -9035750000.0 -9035750000.0 -9035750000.0 -9035750000.0 -9035750000.0 -9035750000.0 -9035750000.0 -9035750000.0 -9035750000.0 -9035750000.0 -9035750000.0 -9035750000.0 -9035750000.0 -9035750000.0 -9035750000.0 -9035750000.0 -9035750000.0 -9035750000.0 -9035750000.0 -9035750000.0 -9035750000.0 -9035750000.0 -9035750000.0 -9035750000.0 -9035750000.0 -9035750000.0 -9035750000.0 -9035750000.0 -9035750000.0 -9035750000.0 -9035750000.0 -9035750000.0 -9035750000.0 -9035750000.0 -9035750000.0 -9035750000.0 -9035750000.0 -9035750000.0 -9035750000.0 -9035750000.0 -9035750000.0 -9035750000.0 -9035750000.0 -9035750000.0 -9035750000.0 -9035750000.0 -9035750000.0 -9035750000.0 -9035750000.0 -9035750000.0 -9035750000.0 -9035750000.0 -9035750000.0 -9035750000.0 -9035750000.0 -9035750000.0 -9035750000.0 -9035750000.0 -9035750000.0 -9035750000.0 -9035750000.0 -9035750000.0 -9035750000.0 -9035750000.0 -9035750000.0 -9035750000.0 -9035750000.0 -9035750000.0 -9035750000.0 -9035750000.0 -9035750000.0 -9035750000.0 -9035750000.0 -9035750000.0 -9035750000.0 -9035750000.0 -9035750000.0 -9035750000.0 -9035750000.0 -9035750000.0 -9035750000.0 -9035750000.0 -9035750000.0 -9035750000.0 -9035750000.0 -9035750000.0 -9035750000.0 -9035750000.0 -9035750000.0 -9035750000.0 -9035750000.0 -9035750000.0 -9035750000.0 -9035750000.0 -9035750000.0 -9035750000.0 -9035750000.0 -9035750000.0 -9035750000.0 -9035750000.0 -9035750000.0 -9035750000.0 -9035750000.0 -9035750000.0 -9035750000.0 -9035750000.0 -9035750000.0 -9035750000.0 -9035750000.0 -9035750000.0 -9035750000.0 -9035750000.0 -9035750000.0 -9035750000.0 -9035750000.0 -9035750000.0 -9035750000.0 -9035750000.0 -9035750000.0 -9035750000.0 -9035750000.0 -9035750000.0 -9035750000.0 -9035750000.0 -9035750000.0 -9035750000.0 -9035750000.0 -9035750000.0 -9035750000.0 -9035750000.0 -9035750000.0 -9035750000.0 -9035750000.0 -9035750000.0 -9035750000.0 -9035750000.0 -9035750000.0 -9035750000.0 -9035750000.0 -9035750000.0 -9035750000.0 -9035750000.0 -9035750000.0 -9035750000.0 -9035750000.0 -9035750000.0 -9035750000.0 -9035750000.0 -9035750000.0 -9035750000.0 -9035750000.0 -9035750000.0 -9035750000.0 -9035750000.0 -9035750000.0 -9035750000.0 -9035750000.0 -9035750000.0 -9035750000.0 -9035750000.0 -9035750000.0 -9035750000.0 -9035750000.0 -9035750000.0 -9035750000.0 -9035750000.0 -9035750000.0 -9035750000.0 -9035750000.0 -9035750000.0 -9035750000.0 -9035750000.0 -9035750000.0 -9035750000.0 -9035750000.0 -9035750000.0 -9035750000.0 -9035750000.0 -9035750000.0 -9035750000.0 -9035750000.0 -9035750000.0 -9035750000.0 -9035750000.0 -9035750000.0 -9035750000.0 -9035750000.0 -9035750000.0 -9035750000.0 -9035750000.0 -9035750000.0 -9035750000.0 -9035750000.0 -9035750000.0 -9035750000.0 -9035750000.0 -9035750000.0 -9035750000.0 -9035750000.0 -9035750000.0 -9035750000.0 -9035750000.0 -9035750000.0 -9035750000.0 -9035750000.0 -9035750000.0 -9035750000.0 -9035750000.0 -9035750000.0 -9035750000.0 -9035750000.0 -9035750000.0 -9035750000.0 -9035750000.0 -9035750000.0 -9035750000.0 -9035750000.0 -9035750000.0 -9035750000.0 -9035750000.0 -9035750000.0 -9035750000.0 -9035750000.0 -9035750000.0 -9035750000.0 -9035750000.0 -9035750000.0 -9035750000.0 -9035750000.0 -9035750000.0 -9035750000.0 -9035750000.0 -9035750000.0 -9035750000.0 -9035750000.0 -9035750000.0 -9035750000.0 -9035750000.0 -9035750000.0 -9035750000.0 -9035750000.0 -9035750000.0 -9035750000.0 -9035750000.0 -9035750000.0 -9035750000.0 -9035750000.0 -9035750000.0 -9035750000.0 -9035750000.0 -9035750000.0 -9035750000.0 -9035750000.0 -9035750000.0 -9035750000.0 -9035750000.0 -9035750000.0 -9035750000.0 -9035750000.0 -9035750000.0 -9035750000.0 -9035750000.0 -9035750000.0 -9035750000.0 -9035750000.0 -9035750000.0 -9035750000.0 -9035750000.0 -9035750000.0 -9035750000.0 -9035750000.0 -9035750000.0 -9035750000.0 -9035750000.0 -9035750000.0 -9035750000.0 -9035750000.0 -9035750000.0 -9035750000.0 -9035750000.0 -9035750000.0 -9035750000.0 -9035750000.0 -9035750000.0 -9035750000.0 -9035750000.0 -9035750000.0 -9035750000.0 -9035750000.0 -9035750000.0 -9035750000.0 -9035750000.0 -9035750000.0 -9035750000.0 -9035750000.0 -9035750000.0 -9035750000.0 -9035750000.0 -9035750000.0 -9035750000.0 -9035750000.0 -9035750000.0 -9035750000.0 -9035750000.0 -9035750000.0 -9035750000.0 -9035750000.0 -9035750000.0 -9035750000.0 -9035750000.0 -9035750000.0 -9035750000.0 -9035750000.0 -9035750000.0 -9035750000.0 -9035750000.0 -9035750000.0 -9035750000.0 -9035750000.0 -9035750000.0 -9035750000.0 -9035750000.0 -9035750000.0 -9035750000.0 -9035750000.0 -9035750000.0 -9035750000.0 -9035750000.0 -9035750000.0 -9035750000.0 -9035750000.0 -9035750000.0 -9035750000.0 -9035750000.0 -9035750000.0 -9035750000.0 -9035750000.0 -9035750000.0 -9035750000.0 -9035750000.0 -9035750000.0 -9035750000.0 -9035750000.0 -9035750000.0 -9035750000.0 -9035750000.0 -9035750000.0 -9035750000.0 -9035750000.0 -9035750000.0 -9035750000.0 -9035750000.0 -9035750000.0 -9035750000.0 -9035750000.0 -9035750000.0 -9035750000.0 -9035750000.0 -9035750000.0 -9035750000.0 -9035750000.0 -9035750000.0 -9035750000.0 -9035750000.0 -9035750000.0 -9035750000.0 -9035750000.0 -9035750000.0 -9035750000.0 -9035750000.0 -9035750000.0 -9035750000.0 -9035750000.0 -9035750000.0 -9035750000.0 -9035750000.0 -9035750000.0 -9035750000.0 -9035750000.0 -9035750000.0 -9035750000.0 -9035750000.0 -9035750000.0 -9035750000.0 -9035750000.0 -9035750000.0 -9035750000.0 -9035750000.0 -9035750000.0 -9035750000.0 -9035750000.0 -9035750000.0 -9035750000.0 -9035750000.0 -9035750000.0 -9035750000.0 -9035750000.0 -9035750000.0 -9035750000.0 -9035750000.0 -9035750000.0 -9035750000.0 -9035750000.0 -9035750000.0 -9035750000.0 -9035750000.0 -9035750000.0 -9035750000.0 -9035750000.0 -9035750000.0 -9035750000.0 -9035750000.0 -9035750000.0 -9035750000.0 -9035750000.0 -9035750000.0 -9035750000.0 -9035750000.0 -9035750000.0 -9035750000.0 -9035750000.0 -9035750000.0 -9035750000.0 -9035750000.0 -9035750000.0 -9035750000.0 -9035750000.0 -9035750000.0 -9035750000.0 -9035750000.0 -9035750000.0 -9035750000.0 -9035750000.0 -9035750000.0 -9035750000.0 -9035750000.0 -9035750000.0 -9035750000.0 -9035750000.0 -9035750000.0 -9035750000.0 -9035750000.0 -9035750000.0 -9035750000.0 -9035750000.0 -9035750000.0 -9035750000.0 -9035750000.0 -9035750000.0 -9035750000.0 -9035750000.0 -9035750000.0 -9035750000.0 -9035750000.0 -9035750000.0 -9035750000.0 -9035750000.0 -9035750000.0 -9035750000.0 -9035750000.0 -9035750000.0 -9035750000.0 -9035750000.0 -9035750000.0 -9035750000.0 -9035750000.0 -9035750000.0 -9035750000.0 -9035750000.0 -9035750000.0 -9035750000.0 -9035750000.0 -9035750000.0 -9035750000.0 -9035750000.0 -9035750000.0 -9035750000.0 -9035750000.0 -9035750000.0 -9035750000.0 -9035750000.0 -9035750000.0 -9035750000.0 -9035750000.0 -9035750000.0 -9035750000.0 -9035750000.0 -9035750000.0 -9035750000.0 -9035750000.0 -9035750000.0 -9035750000.0 -9035750000.0 -9035750000.0 -9035750000.0 -9035750000.0 -9035750000.0 -9035750000.0 -9035750000.0 -9035750000.0 -9035750000.0 -9035750000.0 -9035750000.0 -9035750000.0 -9035750000.0 -9035750000.0 -9035750000.0 -9035750000.0 -9035750000.0 -9035750000.0 -9035750000.0 -9035750000.0 -9035750000.0 -9035750000.0 -9035750000.0 -9035750000.0 -9035750000.0 -9035750000.0 -9035750000.0 -9035750000.0 -9035750000.0 -9035750000.0 -9035750000.0 -9035750000.0 -9035750000.0 -9035750000.0 -9035750000.0 -9035750000.0 -9035750000.0 -9035750000.0 -9035750000.0 -9035750000.0 -9035750000.0 -9035750000.0 -9035750000.0 -9035750000.0 -9035750000.0 -9035750000.0 -9035750000.0 -9035750000.0 -9035750000.0 -9035750000.0 -9035750000.0 -9035750000.0 -9035750000.0 -9035750000.0 -9035750000.0 -9035750000.0 -9035750000.0 -9035750000.0 -9035750000.0 -9035750000.0 -9035750000.0 -9035750000.0 -9035750000.0 -9035750000.0 -9035750000.0 -9035750000.0 -9035750000.0 -9035750000.0 -9035750000.0 -9035750000.0 -9035750000.0 -9035750000.0 -9035750000.0 -9035750000.0 -9035750000.0 -9035750000.0 -9035750000.0 -9035750000.0 -9035750000.0 -9035750000.0 -9035750000.0 -9035750000.0 -9035750000.0 -9035750000.0 -9035750000.0 -9035750000.0 -9035750000.0 -9035750000.0 -9035750000.0 -9035750000.0 -9035750000.0 -9035750000.0 -9035750000.0 -9035750000.0 -9035750000.0 -9035750000.0 -9035750000.0 -9035750000.0 -9035750000.0 -9035750000.0 -9035750000.0 -9035750000.0 -9035750000.0 -9035750000.0 -9035750000.0 -9035750000.0 -9035750000.0 -9035750000.0 -9035750000.0 -9035750000.0 -9035750000.0 -9035750000.0 -9035750000.0 -9035750000.0 -9035750000.0 -9035750000.0 -9035750000.0 -9035750000.0 -9035750000.0 -9035750000.0 -9035750000.0 -9035750000.0 -9035750000.0 -9035750000.0 -9035750000.0 -9035750000.0 -9035750000.0 -9035750000.0 -9035750000.0 -9035750000.0 -9035750000.0 -9035750000.0 -9035750000.0 -9035750000.0 -9035750000.0 -9035750000.0 -9035750000.0 -9035750000.0 -9035750000.0 -9035750000.0 -9035750000.0 -9035750000.0 -9035750000.0 -9035750000.0 -9035750000.0 -9035750000.0 -9035750000.0 -9035750000.0 -9035750000.0 -9035750000.0 -9035750000.0 -9035750000.0 -9035750000.0 -9035750000.0 -9035750000.0 -9035750000.0 -9035750000.0 -9035750000.0 -9035750000.0 -9035750000.0 -9035750000.0 -9035750000.0 -9035750000.0 -9035750000.0 -9035750000.0 -9035750000.0 -9035750000.0 -9035750000.0 -9035750000.0 -9035750000.0 -9035750000.0 -9035750000.0 -9035750000.0 -9035750000.0 -9035750000.0 -9035750000.0 -9035750000.0 -9035750000.0 -9035750000.0 -9035750000.0 -9035750000.0 -9035750000.0 -9035750000.0 -9035750000.0 -9035750000.0 -9035750000.0 -9035750000.0 -9035750000.0 -9035750000.0 -9035750000.0 -9035750000.0 -9035750000.0 -9035750000.0 -9035750000.0 -9035750000.0 -9035750000.0 -9035750000.0 -9035750000.0 -9035750000.0 -9035750000.0 -9035750000.0 -9035750000.0 -9035750000.0 -9035750000.0 -9035750000.0 -9035750000.0 -9035750000.0 -9035750000.0 -9035750000.0 -9035750000.0 -9035750000.0 -9035750000.0 -9035750000.0 -9035750000.0 -9035750000.0 -9035750000.0 -9035750000.0 -9035750000.0 -9035750000.0 -9035750000.0 -9035750000.0 -9035750000.0 -9035750000.0 -9035750000.0 -9035750000.0 -9035750000.0 -9035750000.0 -9035750000.0 -9035750000.0 -9035750000.0 -9035750000.0 -9035750000.0 -9035750000.0 -9035750000.0 -9035750000.0 -9035750000.0 -9035750000.0 -9035750000.0 -9035750000.0 -9035750000.0 -9035750000.0 -9035750000.0 -9035750000.0 -9035750000.0 -9035750000.0 -9035750000.0 -9035750000.0 -9035750000.0 -9035750000.0 -9035750000.0 -9035750000.0 -9035750000.0 -9035750000.0 -9035750000.0 -9035750000.0 -9035750000.0 -9035750000.0 -9035750000.0 -9035750000.0 -9035750000.0 -9035750000.0 -9035750000.0 -9035750000.0 -9035750000.0 -9035750000.0 -9035750000.0 -9035750000.0 -9035750000.0 -9035750000.0 -9035750000.0 -9035750000.0 -9035750000.0 -9035750000.0 -9035750000.0 -9035750000.0 -9035750000.0 -9035750000.0 -9035750000.0 -9035750000.0 -9035750000.0 -9035750000.0 -9035750000.0 -9035750000.0 -9035750000.0 -9035750000.0 -9035750000.0 -9035750000.0 -9035750000.0 -9035750000.0 -9035750000.0 -9035750000.0 -9035750000.0 -9035750000.0 -9035750000.0 -9035750000.0 -9035750000.0 -9035750000.0 -9035750000.0 -9035750000.0 -9035750000.0 -9035750000.0 -9035750000.0 -9035750000.0 -9035750000.0 -9035750000.0 -9035750000.0 -9035750000.0 -9035750000.0 -9035750000.0 -9035750000.0 -9035750000.0 -9035750000.0 -9035750000.0 -9035750000.0 -9035750000.0 -9035750000.0 -9035750000.0 -9035750000.0 -9035750000.0 -9035750000.0 -9035750000.0 -9035750000.0 -9035750000.0 -9035750000.0 -9035750000.0 -9035750000.0 -9035750000.0 -9035750000.0 -9035750000.0 -9035750000.0 -9035750000.0 -9035750000.0 -9035750000.0 -9035750000.0 -9035750000.0 -9035750000.0 -9035750000.0 -9035750000.0 -9035750000.0 -9035750000.0 -9035750000.0 -9035750000.0 -9035750000.0 -9035750000.0 -9035750000.0 -9035750000.0 -9035750000.0 -9035750000.0 -9035750000.0 -9035750000.0 -9035750000.0 -9035750000.0 -9035750000.0 -9035750000.0 -9035750000.0 -9035750000.0 -9035750000.0 -9035750000.0 -9035750000.0 -9035750000.0 -9035750000.0 -9035750000.0 -9035750000.0 -9035750000.0 -9035750000.0 -9035750000.0 -9035750000.0 -9035750000.0 -9035750000.0 -9035750000.0 -9035750000.0 -9035750000.0 -9035750000.0 -9035750000.0 -9035750000.0 -9035750000.0 -9035750000.0 -9035750000.0 -9035750000.0 -9035750000.0 -9035750000.0 -9035750000.0 -9035750000.0 -9035750000.0 -9035750000.0 -9035750000.0 -9035750000.0 -9035750000.0 -9035750000.0 -9035750000.0 -9035750000.0 -9035750000.0 -9035750000.0 -9035750000.0 -9035750000.0 -9035750000.0 -9035750000.0 -9035750000.0 -9035750000.0 -9035750000.0 -9035750000.0 -9035750000.0 -9035750000.0 -9035750000.0 -9035750000.0 -9035750000.0 -9035750000.0 -9035750000.0 -9035750000.0 -9035750000.0 -9035750000.0 -9035750000.0 -9035750000.0 -9035750000.0 -9035750000.0 -9035750000.0 -9035750000.0 -9035750000.0 -9035750000.0 -9035750000.0 -9035750000.0 -9035750000.0 -9035750000.0 -9035750000.0 -9035750000.0 -9035750000.0 -9035750000.0 -9035750000.0 -9035750000.0 -9035750000.0 -9035750000.0 -9035750000.0 -9035750000.0 -9035750000.0 -9035750000.0 -9035750000.0 -9035750000.0 -9035750000.0 -9035750000.0 -9035750000.0 -9035750000.0 -9035750000.0 -9035750000.0 -9035750000.0 -9035750000.0 -9035750000.0 -9035750000.0 -9035750000.0 -9035750000.0 -9035750000.0 -9035750000.0 -9035750000.0 -9035750000.0 -9035750000.0 -9035750000.0 -9035750000.0 -9035750000.0 -9035750000.0 -9035750000.0 -9035750000.0 -9035750000.0 -9035750000.0 -9035750000.0 -9035750000.0 -9035750000.0 -9035750000.0 -9035750000.0 -9035750000.0 -9035750000.0 -9035750000.0 -9035750000.0 -9035750000.0 -9035750000.0 -9035750000.0 -9035750000.0 -9035750000.0 -9035750000.0 -9035750000.0 -9035750000.0 -9035750000.0 -9035750000.0 -9035750000.0 -9035750000.0 -9035750000.0 -9035750000.0 -9035750000.0 -9035750000.0 -9035750000.0 -9035750000.0 -9035750000.0 -9035750000.0 -9035750000.0 -9035750000.0 -9035750000.0 -9035750000.0 -9035750000.0 -9035750000.0 -9035750000.0 -9035750000.0 -9035750000.0 -9035750000.0 -9035750000.0 -9035750000.0 -9035750000.0 -9035750000.0 -9035750000.0 -9035750000.0 -9035750000.0 -9035750000.0 -9035750000.0 -9035750000.0 -9035750000.0 -9035750000.0 -9035750000.0 -9035750000.0 -9035750000.0 -9035750000.0 -9035750000.0 -9035750000.0 -9035750000.0 -9035750000.0 -9035750000.0 -9035750000.0 -9035750000.0 -9035750000.0 -9035750000.0 -9035750000.0 -9035750000.0 -9035750000.0 -9035750000.0 -9035750000.0 -9035750000.0 -9035750000.0 -9035750000.0 -9035750000.0 -9035750000.0 -9035750000.0 -9035750000.0 -9035750000.0 -9035750000.0 -9035750000.0 -9035750000.0 -9035750000.0 -9035750000.0 -9035750000.0 -9035750000.0 -9035750000.0 -9035750000.0 -9035750000.0 -9035750000.0 -9035750000.0 -9035750000.0 -9035750000.0 -9035750000.0 -9035750000.0 -9035750000.0 -9035750000.0 -9035750000.0 -9035750000.0 -9035750000.0 -9035750000.0 -9035750000.0 -9035750000.0 -9035750000.0 -9035750000.0 -9035750000.0 -9035750000.0 -9035750000.0 -9035750000.0 -9035750000.0 -9035750000.0 -9035750000.0 -9035750000.0 -9035750000.0 -9035750000.0 -9035750000.0 -9035750000.0 -9035750000.0 -9035750000.0 -9035750000.0 -9035750000.0 -9035750000.0 -9035750000.0 -9035750000.0 -9035750000.0 -9035750000.0 -9035750000.0 -9035750000.0 -9035750000.0 -9035750000.0 -9035750000.0 -9035750000.0 -9035750000.0 -9035750000.0 -9035750000.0 -9035750000.0 -9035750000.0 -9035750000.0 -9035750000.0 -9035750000.0 -9035750000.0 -9035750000.0 -9035750000.0 -9035750000.0 -9035750000.0 -9035750000.0 -9035750000.0 -9035750000.0 -9035750000.0 -9035750000.0 -9035750000.0 -9035750000.0 -9035750000.0 -9035750000.0 -9035750000.0 -9035750000.0 -9035750000.0 -9035750000.0 -9035750000.0 -9035750000.0 -9035750000.0 -9035750000.0 -9035750000.0 -9035750000.0 -9035750000.0 -9035750000.0 -9035750000.0 -9035750000.0 -9035750000.0 -9035750000.0 -9035750000.0 -9035750000.0 -9035750000.0 -9035750000.0 -9035750000.0 -9035750000.0 -9035750000.0 -9035750000.0 -9035750000.0 -9035750000.0 -9035750000.0 -9035750000.0 -9035750000.0 -9035750000.0 -9035750000.0 -9035750000.0 -9035750000.0 -9035750000.0 -9035750000.0 -9035750000.0 -9035750000.0 -9035750000.0 -9035750000.0 -9035750000.0 -9035750000.0 -9035750000.0 -9035750000.0 -9035750000.0 -9035750000.0 -9035750000.0 -9035750000.0 -9035750000.0 -9035750000.0 -9035750000.0 -9035750000.0 -9035750000.0 -9035750000.0 -9035750000.0 -9035750000.0 -9035750000.0 -9035750000.0 -9035750000.0 -9035750000.0 -9035750000.0 -9035750000.0 -9035750000.0 -9035750000.0 -9035750000.0 -9035750000.0 -9035750000.0 -9035750000.0 -9035750000.0 -9035750000.0 -9035750000.0 -9035750000.0 -9035750000.0 -9035750000.0 -9035750000.0 -9035750000.0 -9035750000.0 -9035750000.0 -9035750000.0 -9035750000.0 -9035750000.0 -9035750000.0 -9035750000.0 -9035750000.0 -9035750000.0 -9035750000.0 -9035750000.0 -9035750000.0 -9035750000.0 -9035750000.0 -9035750000.0 -9035750000.0 -9035750000.0 -9035750000.0 -9035750000.0 -9035750000.0 -9035750000.0 -9035750000.0 -9035750000.0 -9035750000.0 -9035750000.0 -9035750000.0 -9035750000.0 -9035750000.0 -9035750000.0 -9035750000.0 -9035750000.0 -9035750000.0 -9035750000.0 -9035750000.0 -9035750000.0 -9035750000.0 -9035750000.0 -9035750000.0 -9035750000.0 -9035750000.0 -9035750000.0 -9035750000.0 -9035750000.0 -9035750000.0 -9035750000.0 -9035750000.0 -9035750000.0 -9035750000.0 -9035750000.0 -9035750000.0 -9035750000.0 -9035750000.0 -9035750000.0 -9035750000.0 -9035750000.0 -9035750000.0 -9035750000.0 -9035750000.0 -9035750000.0 -9035750000.0 -9035750000.0 -9035750000.0 -9035750000.0 -9035750000.0 -9035750000.0 -9035750000.0 -9035750000.0 -9035750000.0 -9035750000.0 -9035750000.0 -9035750000.0 -9035750000.0 -9035750000.0 -9035750000.0 -9035750000.0 -9035750000.0 -9035750000.0 -9035750000.0 -9035750000.0 -9035750000.0 -9035750000.0 -9035750000.0 -9035750000.0 -9035750000.0 -9035750000.0 -9035750000.0 -9035750000.0 -9035750000.0 -9035750000.0 -9035750000.0 -9035750000.0 -9035750000.0 -9035750000.0 -9035750000.0 -9035750000.0 -9035750000.0 -9035750000.0 -9035750000.0 -9035750000.0 -9035750000.0 -9035750000.0 -9035750000.0 -9035750000.0 -9035750000.0 -9035750000.0 -9035750000.0 -9035750000.0 -9035750000.0 -9035750000.0 -9035750000.0 -9035750000.0 -9035750000.0 -9035750000.0 -9035750000.0 -9035750000.0 -9035750000.0 -9035750000.0 -9035750000.0 -9035750000.0 -9035750000.0 -9035750000.0 -9035750000.0 -9035750000.0 -9035750000.0 -9035750000.0 -9035750000.0 -9035750000.0 -9035750000.0 -9035750000.0 -9035750000.0 -9035750000.0 -9035750000.0 -9035750000.0 -9035750000.0 -9035750000.0 -9035750000.0 -9035750000.0 -9035750000.0 -9035750000.0 -9035750000.0 -9035750000.0 -9035750000.0 -9035750000.0 -9035750000.0 -9035750000.0 -9035750000.0 -9035750000.0 -9035750000.0 -9035750000.0 -9035750000.0 -9035750000.0 -9035750000.0 -9035750000.0 -9035750000.0 -9035750000.0 -9035750000.0 -9035750000.0 -9035750000.0 -9035750000.0 -9035750000.0 -9035750000.0 -9035750000.0 -9035750000.0 -9035750000.0 -9035750000.0 -9035750000.0 -9035750000.0 -9035750000.0 -9035750000.0 -9035750000.0 -9035750000.0 -9035750000.0 -9035750000.0 -9035750000.0 -9035750000.0 -9035750000.0 -9035750000.0 -9035750000.0 -9035750000.0 -9035750000.0 -9035750000.0 -9035750000.0 -9035750000.0 -9035750000.0 -9035750000.0 -9035750000.0 -9035750000.0 -9035750000.0 -9035750000.0 -9035750000.0 -9035750000.0 -9035750000.0 -9035750000.0 -9035750000.0 -9035750000.0 -9035750000.0 -9035750000.0 -9035750000.0 -9035750000.0 -9035750000.0 -9035750000.0 -9035750000.0 -9035750000.0 -9035750000.0 -9035750000.0 -9035750000.0 -9035750000.0 -9035750000.0 -9035750000.0 -9035750000.0 -9035750000.0 -9035750000.0 -9035750000.0 -9035750000.0 -9035750000.0 -9035750000.0 -9035750000.0 -9035750000.0 -9035750000.0 -9035750000.0 -9035750000.0 -9035750000.0 -9035750000.0 -9035750000.0 -9035750000.0 -9035750000.0 -9035750000.0 -9035750000.0 -9035750000.0 -9035750000.0 -9035750000.0 -9035750000.0 -9035750000.0 -9035750000.0 -9035750000.0 -9035750000.0 -9035750000.0 -9035750000.0 -9035750000.0 -9035750000.0 -9035750000.0 -9035750000.0 -9035750000.0 -9035750000.0 -9035750000.0 -9035750000.0 -9035750000.0 -9035750000.0 -9035750000.0 -9035750000.0 -9035750000.0 -9035750000.0 -9035750000.0 -9035750000.0 -9035750000.0 -9035750000.0 -9035750000.0 -9035750000.0 -9035750000.0 -9035750000.0 -9035750000.0 -9035750000.0 -9035750000.0 -9035750000.0 -9035750000.0 -9035750000.0 -9035750000.0 -9035750000.0 -9035750000.0 -9035750000.0 -9035750000.0 -9035750000.0 -9035750000.0 -9035750000.0 -9035750000.0 -9035750000.0 -9035750000.0 -9035750000.0 -9035750000.0 -9035750000.0 -9035750000.0 -9035750000.0 -9035750000.0 -9035750000.0 -9035750000.0 -9035750000.0 -9035750000.0 -9035750000.0 -9035750000.0 -9035750000.0 -9035750000.0 -9035750000.0 -9035750000.0 -9035750000.0 -9035750000.0 -9035750000.0 -9035750000.0 -9035750000.0 -9035750000.0 -9035750000.0 -9035750000.0 -9035750000.0 -9035750000.0 -9035750000.0 -9035750000.0 -9035750000.0 -9035750000.0 -9035750000.0 -9035750000.0 -9035750000.0 -9035750000.0 -9035750000.0 -9035750000.0 -9035750000.0 -9035750000.0 -9035750000.0 -9035750000.0 -9035750000.0 -9035750000.0 -9035750000.0 -9035750000.0 -9035750000.0 -9035750000.0 -9035750000.0 -9035750000.0 -9035750000.0 -9035750000.0 -9035750000.0 -9035750000.0 -9035750000.0 -9035750000.0 -9035750000.0 -9035750000.0 -9035750000.0 -9035750000.0 -9035750000.0 -9035750000.0 -9035750000.0 -9035750000.0 -9035750000.0 -9035750000.0 -9035750000.0 -9035750000.0 -9035750000.0 -9035750000.0 -9035750000.0 -9035750000.0 -9035750000.0 -9035750000.0 -9035750000.0 -9035750000.0 -9035750000.0 -9035750000.0 -9035750000.0 -9035750000.0 -9035750000.0 -9035750000.0 -9035750000.0 -9035750000.0 -9035750000.0 -9035750000.0 -9035750000.0 -9035750000.0 -9035750000.0 -9035750000.0 -9035750000.0 -9035750000.0 -9035750000.0 -9035750000.0 -9035750000.0 -9035750000.0 -9035750000.0 -9035750000.0 -9035750000.0 -9035750000.0 -9035750000.0 -9035750000.0 -9035750000.0 -9035750000.0 -9035750000.0 -9035750000.0 -9035750000.0 -9035750000.0 -9035750000.0 -9035750000.0 -9035750000.0 -9035750000.0 -9035750000.0 -9035750000.0 -9035750000.0 -9035750000.0 -9035750000.0 -9035750000.0 -9035750000.0 -9035750000.0 -9035750000.0 -9035750000.0 -9035750000.0 -9035750000.0 -9035750000.0 -9035750000.0 -9035750000.0 -9035750000.0 -9035750000.0 -9035750000.0 -9035750000.0 -9035750000.0 -9035750000.0 -9035750000.0 -9035750000.0 -9035750000.0 -9035750000.0 -9035750000.0 -9035750000.0 -9035750000.0 -9035750000.0 -9035750000.0 -9035750000.0 -9035750000.0 -9035750000.0 -9035750000.0 -9035750000.0 -9035750000.0 -9035750000.0 -9035750000.0 -9035750000.0 -9035750000.0 -9035750000.0 -9035750000.0 -9035750000.0 -9035750000.0 -9035750000.0 -9035750000.0 -9035750000.0 -9035750000.0 -9035750000.0 -9035750000.0 -9035750000.0 -9035750000.0 -9035750000.0 -9035750000.0 -9035750000.0 -9035750000.0 -9035750000.0 -9035750000.0 -9035750000.0 -9035750000.0 -9035750000.0 -9035750000.0 -9035750000.0 -9035750000.0 -9035750000.0 -9035750000.0 -9035750000.0 -9035750000.0 -9035750000.0 -9035750000.0 -9035750000.0 -9035750000.0 -9035750000.0 -9035750000.0 -9035750000.0 -9035750000.0 -9035750000.0 -9035750000.0 -9035750000.0 -9035750000.0 -9035750000.0 -9035750000.0 -9035750000.0 -9035750000.0 -9035750000.0 -9035750000.0 -9035750000.0 -9035750000.0 -9035750000.0 -9035750000.0 -9035750000.0 -9035750000.0 -9035750000.0 -9035750000.0 -9035750000.0 -9035750000.0 -9035750000.0 -9035750000.0 -9035750000.0 -9035750000.0 -9035750000.0 -9035750000.0 -9035750000.0 -9035750000.0 -9035750000.0 -9035750000.0 -9035750000.0 -9035750000.0 -9035750000.0 -9035750000.0 -9035750000.0 -9035750000.0 -9035750000.0 -9035750000.0 -9035750000.0 -9035750000.0 -9035750000.0 -9035750000.0 -9035750000.0 -9035750000.0 -9035750000.0 -9035750000.0 -9035750000.0 -9035750000.0 -9035750000.0 -9035750000.0 -9035750000.0 -9035750000.0 -9035750000.0 -9035750000.0 -9035750000.0 -9035750000.0 -9035750000.0 -9035750000.0 -9035750000.0 -9035750000.0 -9035750000.0 -9035750000.0 -9035750000.0 -9035750000.0 -9035750000.0 -9035750000.0 -9035750000.0 -9035750000.0 -9035750000.0 -9035750000.0 -9035750000.0 -9035750000.0 -9035750000.0 -9035750000.0 -9035750000.0 -9035750000.0 -9035750000.0 -9035750000.0 -9035750000.0 -9035750000.0 -9035750000.0 -9035750000.0 -9035750000.0 -9035750000.0 -9035750000.0 -9035750000.0 -9035750000.0 -9035750000.0 -9035750000.0 -9035750000.0 -9035750000.0 -9035750000.0 -9035750000.0 -9035750000.0 -9035750000.0 -9035750000.0 -9035750000.0 -9035750000.0 -9035750000.0 -9035750000.0 -9035750000.0 -9035750000.0 -9035750000.0 -9035750000.0 -9035750000.0 -9035750000.0 -9035750000.0 -9035750000.0 -9035750000.0 -9035750000.0 -9035750000.0 -9035750000.0 -9035750000.0 -9035750000.0 -9035750000.0 -9035750000.0 -9035750000.0 -9035750000.0 -9035750000.0 -9035750000.0 -9035750000.0 -9035750000.0 -9035750000.0 -9035750000.0 -9035750000.0 -9035750000.0 -9035750000.0 -9035750000.0 -9035750000.0 -9035750000.0 -9035750000.0 -9035750000.0 -9035750000.0 -9035750000.0 -9035750000.0 -9035750000.0 -9035750000.0 -9035750000.0 -9035750000.0 -9035750000.0 -9035750000.0 -9035750000.0 -9035750000.0 -9035750000.0 -9035750000.0 -9035750000.0 -9035750000.0 -9035750000.0 -9035750000.0 -9035750000.0 -9035750000.0 -9035750000.0 -9035750000.0 -9035750000.0 -9035750000.0 -9035750000.0 -9035750000.0 -9035750000.0 -9035750000.0 -9035750000.0 -9035750000.0 -9035750000.0 -9035750000.0 -9035750000.0 -9035750000.0 -9035750000.0 -9035750000.0 -9035750000.0 -9035750000.0 -9035750000.0 -9035750000.0 -9035750000.0 -9035750000.0 -9035750000.0 -9035750000.0 -9035750000.0 -9035750000.0 -9035750000.0 -9035750000.0 -9035750000.0 -9035750000.0 -9035750000.0 -9035750000.0 -9035750000.0 -9035750000.0 -9035750000.0 -9035750000.0 -9035750000.0 -9035750000.0 -9035750000.0 -9035750000.0 -9035750000.0 -9035750000.0 -9035750000.0 -9035750000.0 -9035750000.0 -9035750000.0 -9035750000.0 -9035750000.0 -9035750000.0 -9035750000.0 -9035750000.0 -9035750000.0 -9035750000.0 -9035750000.0 -9035750000.0 -9035750000.0 -9035750000.0 -9035750000.0 -9035750000.0 -9035750000.0 -9035750000.0 -9035750000.0 -9035750000.0 -9035750000.0 -9035750000.0 -9035750000.0 -9035750000.0 -9035750000.0 -9035750000.0 -9035750000.0 -9035750000.0 -9035750000.0 -9035750000.0 -9035750000.0 -9035750000.0 -9035750000.0 -9035750000.0 -9035750000.0 -9035750000.0 -9035750000.0 -9035750000.0 -9035750000.0 -9035750000.0 -9035750000.0 -9035750000.0 -9035750000.0 -9035750000.0 -9035750000.0 -9035750000.0 -9035750000.0 -9035750000.0 -9035750000.0 -9035750000.0 -9035750000.0 -9035750000.0 -9035750000.0 -9035750000.0 -9035750000.0 -9035750000.0 -9035750000.0 -9035750000.0 -9035750000.0 -9035750000.0 -9035750000.0 -9035750000.0 -9035750000.0 -9035750000.0 -9035750000.0 -9035750000.0 -9035750000.0 -9035750000.0 -9035750000.0 -9035750000.0 -9035750000.0 -9035750000.0 -9035750000.0 -9035750000.0 -9035750000.0 -9035750000.0 -9035750000.0 -9035750000.0 -9035750000.0 -9035750000.0 -9035750000.0 -9035750000.0 -9035750000.0 -9035750000.0 -9035750000.0 -9035750000.0 -9035750000.0 -9035750000.0 -9035750000.0 -9035750000.0 -9035750000.0 -9035750000.0 -9035750000.0 -9035750000.0 -9035750000.0 -9035750000.0 -9035750000.0 -9035750000.0 -9035750000.0 -9035750000.0 -9035750000.0 -9035750000.0 -9035750000.0 -9035750000.0 -9035750000.0 -9035750000.0 -9035750000.0 -9035750000.0 -9035750000.0 -9035750000.0 -9035750000.0 -9035750000.0 -9035750000.0 -9035750000.0 -9035750000.0 -9035750000.0 -9035750000.0 -9035750000.0 -9035750000.0 -9035750000.0 -9035750000.0 -9035750000.0 -9035750000.0 -9035750000.0 
SCALARS Shear_Stress float 1
LOOKUP_TABLE default
9035750000.0 9035750000.0 9035750000.0 9035750000.0 9035750000.0 9035750000.0 9035750000.0 9035750000.0 9035750000.0 9035750000.0 9035750000.0 9035750000.0 9035750000.0 9035750000.0 9035750000.0 9035750000.0 9035750000.0 9035750000.0 9035750000.0 9035750000.0 9035750000.0 9035750000.0 9035750000.0 9035750000.0 9035750000.0 9035750000.0 9035750000.0 9035750000.0 9035750000.0 9035750000.0 9035750000.0 9035750000.0 9035750000.0 9035750000.0 9035750000.0 9035750000.0 9035750000.0 9035750000.0 9035750000.0 9035750000.0 9035750000.0 9035750000.0 9035750000.0 9035750000.0 9035750000.0 9035750000.0 9035750000.0 9035750000.0 9035750000.0 9035750000.0 9035750000.0 9035750000.0 9035750000.0 9035750000.0 9035750000.0 9035750000.0 9035750000.0 9035750000.0 9035750000.0 9035750000.0 9035750000.0 9035750000.0 9035750000.0 9035750000.0 9035750000.0 9035750000.0 9035750000.0 9035750000.0 9035750000.0 9035750000.0 9035750000.0 9035750000.0 9035750000.0 9035750000.0 9035750000.0 9035750000.0 9035750000.0 9035750000.0 9035750000.0 9035750000.0 9035750000.0 9035750000.0 9035750000.0 9035750000.0 9035750000.0 9035750000.0 9035750000.0 9035750000.0 9035750000.0 9035750000.0 9035750000.0 9035750000.0 9035750000.0 9035750000.0 9035750000.0 9035750000.0 9035750000.0 9035750000.0 9035750000.0 9035750000.0 9035750000.0 9035750000.0 9035750000.0 9035750000.0 9035750000.0 9035750000.0 9035750000.0 9035750000.0 9035750000.0 9035750000.0 9035750000.0 9035750000.0 9035750000.0 9035750000.0 9035750000.0 9035750000.0 9035750000.0 9035750000.0 9035750000.0 9035750000.0 9035750000.0 9035750000.0 9035750000.0 9035750000.0 9035750000.0 9035750000.0 9035750000.0 9035750000.0 9035750000.0 9035750000.0 9035750000.0 9035750000.0 9035750000.0 9035750000.0 9035750000.0 9035750000.0 9035750000.0 9035750000.0 9035750000.0 9035750000.0 9035750000.0 9035750000.0 9035750000.0 9035750000.0 9035750000.0 9035750000.0 9035750000.0 9035750000.0 9035750000.0 9035750000.0 9035750000.0 9035750000.0 9035750000.0 9035750000.0 9035750000.0 9035750000.0 9035750000.0 9035750000.0 9035750000.0 9035750000.0 9035750000.0 9035750000.0 9035750000.0 9035750000.0 9035750000.0 9035750000.0 9035750000.0 9035750000.0 9035750000.0 9035750000.0 9035750000.0 9035750000.0 9035750000.0 9035750000.0 9035750000.0 9035750000.0 9035750000.0 9035750000.0 9035750000.0 9035750000.0 9035750000.0 9035750000.0 9035750000.0 9035750000.0 9035750000.0 9035750000.0 9035750000.0 9035750000.0 9035750000.0 9035750000.0 9035750000.0 9035750000.0 9035750000.0 9035750000.0 9035750000.0 9035750000.0 9035750000.0 9035750000.0 9035750000.0 9035750000.0 9035750000.0 9035750000.0 9035750000.0 9035750000.0 9035750000.0 9035750000.0 9035750000.0 9035750000.0 9035750000.0 9035750000.0 9035750000.0 9035750000.0 9035750000.0 9035750000.0 9035750000.0 9035750000.0 9035750000.0 9035750000.0 9035750000.0 9035750000.0 9035750000.0 9035750000.0 9035750000.0 9035750000.0 9035750000.0 9035750000.0 9035750000.0 9035750000.0 9035750000.0 9035750000.0 9035750000.0 9035750000.0 9035750000.0 9035750000.0 9035750000.0 9035750000.0 9035750000.0 9035750000.0 9035750000.0 9035750000.0 9035750000.0 9035750000.0 9035750000.0 9035750000.0 9035750000.0 9035750000.0 9035750000.0 9035750000.0 9035750000.0 9035750000.0 9035750000.0 9035750000.0 9035750000.0 9035750000.0 9035750000.0 9035750000.0 9035750000.0 9035750000.0 9035750000.0 9035750000.0 9035750000.0 9035750000.0 9035750000.0 9035750000.0 9035750000.0 9035750000.0 9035750000.0 9035750000.0 9035750000.0 9035750000.0 9035750000.0 9035750000.0 9035750000.0 9035750000.0 9035750000.0 9035750000.0 9035750000.0 9035750000.0 9035750000.0 9035750000.0 9035750000.0 9035750000.0 9035750000.0 9035750000.0 9035750000.0 9035750000.0 9035750000.0 9035750000.0 9035750000.0 9035750000.0 9035750000.0 9035750000.0 9035750000.0 9035750000.0 9035750000.0 9035750000.0 9035750000.0 9035750000.0 9035750000.0 9035750000.0 9035750000.0 9035750000.0 9035750000.0 9035750000.0 9035750000.0 9035750000.0 9035750000.0 9035750000.0 9035750000.0 9035750000.0 9035750000.0 9035750000.0 9035750000.0 9035750000.0 9035750000.0 9035750000.0 9035750000.0 9035750000.0 9035750000.0 9035750000.0 9035750000.0 9035750000.0 9035750000.0 9035750000.0 9035750000.0 9035750000.0 9035750000.0 9035750000.0 9035750000.0 9035750000.0 9035750000.0 9035750000.0 9035750000.0 9035750000.0 9035750000.0 9035750000.0 9035750000.0 9035750000.0 9035750000.0 9035750000.0 9035750000.0 9035750000.0 9035750000.0 9035750000.0 9035750000.0 9035750000.0 9035750000.0 9035750000.0 9035750000.0 9035750000.0 9035750000.0 9035750000.0 9035750000.0 9035750000.0 9035750000.0 9035750000.0 9035750000.0 9035750000.0 9035750000.0 9035750000.0 9035750000.0 9035750000.0 9035750000.0 9035750000.0 9035750000.0 9035750000.0 9035750000.0 9035750000.0 9035750000.0 9035750000.0 9035750000.0 9035750000.0 9035750000.0 9035750000.0 9035750000.0 9035750000.0 9035750000.0 9035750000.0 9035750000.0 9035750000.0 9035750000.0 9035750000.0 9035750000.0 9035750000.0 9035750000.0 9035750000.0 9035750000.0 9035750000.0 9035750000.0 9035750000.0 9035750000.0 9035750000.0 9035750000.0 9035750000.0 9035750000.0 9035750000.0 9035750000.0 9035750000.0 9035750000.0 9035750000.0 9035750000.0 9035750000.0 9035750000.0 9035750000.0 9035750000.0 9035750000.0 9035750000.0 9035750000.0 9035750000.0 9035750000.0 9035750000.0 9035750000.0 9035750000.0 9035750000.0 9035750000.0 9035750000.0 9035750000.0 9035750000.0 9035750000.0 9035750000.0 9035750000.0 9035750000.0 9035750000.0 9035750000.0 9035750000.0 9035750000.0 9035750000.0 9035750000.0 9035750000.0 9035750000.0 9035750000.0 9035750000.0 9035750000.0 9035750000.0 9035750000.0 9035750000.0 9035750000.0 9035750000.0 9035750000.0 9035750000.0 9035750000.0 9035750000.0 9035750000.0 9035750000.0 9035750000.0 9035750000.0 9035750000.0 9035750000.0 9035750000.0 9035750000.0 9035750000.0 9035750000.0 9035750000.0 9035750000.0 9035750000.0 9035750000.0 9035750000.0 9035750000.0 9035750000.0 9035750000.0 9035750000.0 9035750000.0 9035750000.0 9035750000.0 9035750000.0 9035750000.0 9035750000.0 9035750000.0 9035750000.0 9035750000.0 9035750000.0 9035750000.0 9035750000.0 9035750000.0 9035750000.0 9035750000.0 9035750000.0 9035750000.0 9035750000.0 9035750000.0 9035750000.0 9035750000.0 9035750000.0 9035750000.0 9035750000.0 9035750000.0 9035750000.0 9035750000.0 9035750000.0 9035750000.0 9035750000.0 9035750000.0 9035750000.0 9035750000.0 9035750000.0 9035750000.0 9035750000.0 9035750000.0 9035750000.0 9035750000.0 9035750000.0 9035750000.0 9035750000.0 9035750000.0 9035750000.0 9035750000.0 9035750000.0 9035750000.0 9035750000.0 9035750000.0 9035750000.0 9035750000.0 9035750000.0 9035750000.0 9035750000.0 9035750000.0 9035750000.0 9035750000.0 9035750000.0 9035750000.0 9035750000.0 9035750000.0 9035750000.0 9035750000.0 9035750000.0 9035750000.0 9035750000.0 9035750000.0 9035750000.0 9035750000.0 9035750000.0 9035750000.0 9035750000.0 9035750000.0 9035750000.0 9035750000.0 9035750000.0 9035750000.0 9035750000.0 9035750000.0 9035750000.0 9035750000.0 9035750000.0 9035750000.0 9035750000.0 9035750000.0 9035750000.0 9035750000.0 9035750000.0 9035750000.0 9035750000.0 9035750000.0 9035750000.0 9035750000.0 9035750000.0 9035750000.0 9035750000.0 9035750000.0 9035750000.0 9035750000.0 9035750000.0 9035750000.0 9035750000.0 9035750000.0 9035750000.0 9035750000.0 9035750000.0 9035750000.0 9035750000.0 9035750000.0 9035750000.0 9035750000.0 9035750000.0 9035750000.0 9035750000.0 9035750000.0 9035750000.0 9035750000.0 9035750000.0 9035750000.0 9035750000.0 9035750000.0 9035750000.0 9035750000.0 9035750000.0 9035750000.0 9035750000.0 9035750000.0 9035750000.0 9035750000.0 9035750000.0 9035750000.0 9035750000.0 9035750000.0 9035750000.0 9035750000.0 9035750000.0 9035750000.0 9035750000.0 9035750000.0 9035750000.0 9035750000.0 9035750000.0 9035750000.0 9035750000.0 9035750000.0 9035750000.0 9035750000.0 9035750000.0 9035750000.0 9035750000.0 9035750000.0 9035750000.0 9035750000.0 9035750000.0 9035750000.0 9035750000.0 9035750000.0 9035750000.0 9035750000.0 9035750000.0 9035750000.0 9035750000.0 9035750000.0 9035750000.0 9035750000.0 9035750000.0 9035750000.0 9035750000.0 9035750000.0 9035750000.0 9035750000.0 9035750000.0 9035750000.0 9035750000.0 9035750000.0 9035750000.0 9035750000.0 9035750000.0 9035750000.0 9035750000.0 9035750000.0 9035750000.0 9035750000.0 9035750000.0 9035750000.0 9035750000.0 9035750000.0 9035750000.0 9035750000.0 9035750000.0 9035750000.0 9035750000.0 9035750000.0 9035750000.0 9035750000.0 9035750000.0 9035750000.0 9035750000.0 9035750000.0 9035750000.0 9035750000.0 9035750000.0 9035750000.0 9035750000.0 9035750000.0 9035750000.0 9035750000.0 9035750000.0 9035750000.0 9035750000.0 9035750000.0 9035750000.0 9035750000.0 9035750000.0 9035750000.0 9035750000.0 9035750000.0 9035750000.0 9035750000.0 9035750000.0 9035750000.0 9035750000.0 9035750000.0 9035750000.0 9035750000.0 9035750000.0 9035750000.0 9035750000.0 9035750000.0 9035750000.0 9035750000.0 9035750000.0 9035750000.0 9035750000.0 9035750000.0 9035750000.0 9035750000.0 9035750000.0 9035750000.0 9035750000.0 9035750000.0 9035750000.0 9035750000.0 9035750000.0 9035750000.0 9035750000.0 9035750000.0 9035750000.0 9035750000.0 9035750000.0 9035750000.0 9035750000.0 9035750000.0 9035750000.0 9035750000.0 9035750000.0 9035750000.0 9035750000.0 9035750000.0 9035750000.0 9035750000.0 9035750000.0 9035750000.0 9035750000.0 9035750000.0 9035750000.0 9035750000.0 9035750000.0 9035750000.0 9035750000.0 9035750000.0 9035750000.0 9035750000.0 9035750000.0 9035750000.0 9035750000.0 9035750000.0 9035750000.0 9035750000.0 9035750000.0 9035750000.0 9035750000.0 9035750000.0 9035750000.0 9035750000.0 9035750000.0 9035750000.0 9035750000.0 9035750000.0 9035750000.0 9035750000.0 9035750000.0 9035750000.0 9035750000.0 9035750000.0 9035750000.0 9035750000.0 9035750000.0 9035750000.0 9035750000.0 9035750000.0 9035750000.0 9035750000.0 9035750000.0 9035750000.0 9035750000.0 9035750000.0 9035750000.0 9035750000.0 9035750000.0 9035750000.0 9035750000.0 9035750000.0 9035750000.0 9035750000.0 9035750000.0 9035750000.0 9035750000.0 9035750000.0 9035750000.0 9035750000.0 9035750000.0 9035750000.0 9035750000.0 9035750000.0 9035750000.0 9035750000.0 9035750000.0 9035750000.0 9035750000.0 9035750000.0 9035750000.0 9035750000.0 9035750000.0 9035750000.0 9035750000.0 9035750000.0 9035750000.0 9035750000.0 9035750000.0 9035750000.0 9035750000.0 9035750000.0 9035750000.0 9035750000.0 9035750000.0 9035750000.0 9035750000.0 9035750000.0 9035750000.0 9035750000.0 9035750000.0 9035750000.0 9035750000.0 9035750000.0 9035750000.0 9035750000.0 9035750000.0 9035750000.0 9035750000.0 9035750000.0 9035750000.0 9035750000.0 9035750000.0 9035750000.0 9035750000.0 9035750000.0 9035750000.0 9035750000.0 9035750000.0 9035750000.0 9035750000.0 9035750000.0 9035750000.0 9035750000.0 9035750000.0 9035750000.0 9035750000.0 9035750000.0 9035750000.0 9035750000.0 9035750000.0 9035750000.0 9035750000.0 9035750000.0 9035750000.0 9035750000.0 9035750000.0 9035750000.0 9035750000.0 9035750000.0 9035750000.0 9035750000.0 9035750000.0 9035750000.0 9035750000.0 9035750000.0 9035750000.0 9035750000.0 9035750000.0 9035750000.0 9035750000.0 9035750000.0 9035750000.0 9035750000.0 9035750000.0 9035750000.0 9035750000.0 9035750000.0 9035750000.0 9035750000.0 9035750000.0 9035750000.0 9035750000.0 9035750000.0 9035750000.0 9035750000.0 9035750000.0 9035750000.0 9035750000.0 9035750000.0 9035750000.0 9035750000.0 9035750000.0 9035750000.0 9035750000.0 9035750000.0 9035750000.0 9035750000.0 9035750000.0 9035750000.0 9035750000.0 9035750000.0 9035750000.0 9035750000.0 9035750000.0 9035750000.0 9035750000.0 9035750000.0 9035750000.0 9035750000.0 9035750000.0 9035750000.0 9035750000.0 9035750000.0 9035750000.0 9035750000.0 9035750000.0 9035750000.0 9035750000.0 9035750000.0 9035750000.0 9035750000.0 9035750000.0 9035750000.0 9035750000.0 9035750000.0 9035750000.0 9035750000.0 9035750000.0 9035750000.0 9035750000.0 9035750000.0 9035750000.0 9035750000.0 9035750000.0 9035750000.0 9035750000.0 9035750000.0 9035750000.0 9035750000.0 9035750000.0 9035750000.0 9035750000.0 9035750000.0 9035750000.0 9035750000.0 9035750000.0 9035750000.0 9035750000.0 9035750000.0 9035750000.0 9035750000.0 9035750000.0 9035750000.0 9035750000.0 9035750000.0 9035750000.0 9035750000.0 9035750000.0 9035750000.0 9035750000.0 9035750000.0 9035750000.0 9035750000.0 9035750000.0 9035750000.0 9035750000.0 9035750000.0 9035750000.0 9035750000.0 9035750000.0 9035750000.0 9035750000.0 9035750000.0 9035750000.0 9035750000.0 9035750000.0 9035750000.0 9035750000.0 9035750000.0 9035750000.0 9035750000.0 9035750000.0 9035750000.0 9035750000.0 9035750000.0 9035750000.0 9035750000.0 9035750000.0 9035750000.0 9035750000.0 9035750000.0 9035750000.0 9035750000.0 9035750000.0 9035750000.0 9035750000.0 9035750000.0 9035750000.0 9035750000.0 9035750000.0 9035750000.0 9035750000.0 9035750000.0 9035750000.0 9035750000.0 9035750000.0 9035750000.0 9035750000.0 9035750000.0 9035750000.0 9035750000.0 9035750000.0 9035750000.0 9035750000.0 9035750000.0 9035750000.0 9035750000.0 9035750000.0 9035750000.0 9035750000.0 9035750000.0 9035750000.0 9035750000.0 9035750000.0 9035750000.0 9035750000.0 9035750000.0 9035750000.0 9035750000.0 9035750000.0 9035750000.0 9035750000.0 9035750000.0 9035750000.0 9035750000.0 9035750000.0 9035750000.0 9035750000.0 9035750000.0 9035750000.0 9035750000.0 9035750000.0 9035750000.0 9035750000.0 9035750000.0 9035750000.0 9035750000.0 9035750000.0 9035750000.0 9035750000.0 9035750000.0 9035750000.0 9035750000.0 9035750000.0 9035750000.0 9035750000.0 9035750000.0 9035750000.0 9035750000.0 9035750000.0 9035750000.0 9035750000.0 9035750000.0 9035750000.0 9035750000.0 9035750000.0 9035750000.0 9035750000.0 9035750000.0 9035750000.0 9035750000.0 9035750000.0 9035750000.0 9035750000.0 9035750000.0 9035750000.0 9035750000.0 9035750000.0 9035750000.0 9035750000.0 9035750000.0 9035750000.0 9035750000.0 9035750000.0 9035750000.0 9035750000.0 9035750000.0 9035750000.0 9035750000.0 9035750000.0 9035750000.0 9035750000.0 9035750000.0 9035750000.0 9035750000.0 9035750000.0 9035750000.0 9035750000.0 9035750000.0 9035750000.0 9035750000.0 9035750000.0 9035750000.0 9035750000.0 9035750000.0 9035750000.0 9035750000.0 9035750000.0 9035750000.0 9035750000.0 9035750000.0 9035750000.0 9035750000.0 9035750000.0 9035750000.0 9035750000.0 9035750000.0 9035750000.0 9035750000.0 9035750000.0 9035750000.0 9035750000.0 9035750000.0 9035750000.0 9035750000.0 9035750000.0 9035750000.0 9035750000.0 9035750000.0 9035750000.0 9035750000.0 9035750000.0 9035750000.0 9035750000.0 9035750000.0 9035750000.0 9035750000.0 9035750000.0 9035750000.0 9035750000.0 9035750000.0 9035750000.0 9035750000.0 9035750000.0 9035750000.0 9035750000.0 9035750000.0 9035750000.0 9035750000.0 9035750000.0 9035750000.0 9035750000.0 9035750000.0 9035750000.0 9035750000.0 9035750000.0 9035750000.0 9035750000.0 9035750000.0 9035750000.0 9035750000.0 9035750000.0 9035750000.0 9035750000.0 9035750000.0 9035750000.0 9035750000.0 9035750000.0 9035750000.0 9035750000.0 9035750000.0 9035750000.0 9035750000.0 9035750000.0 9035750000.0 9035750000.0 9035750000.0 9035750000.0 9035750000.0 9035750000.0 9035750000.0 9035750000.0 9035750000.0 9035750000.0 9035750000.0 9035750000.0 9035750000.0 9035750000.0 9035750000.0 9035750000.0 9035750000.0 9035750000.0 9035750000.0 9035750000.0 9035750000.0 9035750000.0 9035750000.0 9035750000.0 9035750000.0 9035750000.0 9035750000.0 9035750000.0 9035750000.0 9035750000.0 9035750000.0 9035750000.0 9035750000.0 9035750000.0 9035750000.0 9035750000.0 9035750000.0 9035750000.0 9035750000.0 9035750000.0 9035750000.0 9035750000.0 9035750000.0 9035750000.0 9035750000.0 9035750000.0 9035750000.0 9035750000.0 9035750000.0 9035750000.0 9035750000.0 9035750000.0 9035750000.0 9035750000.0 9035750000.0 9035750000.0 9035750000.0 9035750000.0 9035750000.0 9035750000.0 9035750000.0 9035750000.0 9035750000.0 9035750000.0 9035750000.0 9035750000.0 9035750000.0 9035750000.0 9035750000.0 9035750000.0 9035750000.0 9035750000.0 9035750000.0 9035750000.0 9035750000.0 9035750000.0 9035750000.0 9035750000.0 9035750000.0 9035750000.0 9035750000.0 9035750000.0 9035750000.0 9035750000.0 9035750000.0 9035750000.0 9035750000.0 9035750000.0 9035750000.0 9035750000.0 9035750000.0 9035750000.0 9035750000.0 9035750000.0 9035750000.0 9035750000.0 9035750000.0 9035750000.0 9035750000.0 9035750000.0 9035750000.0 9035750000.0 9035750000.0 9035750000.0 9035750000.0 9035750000.0 9035750000.0 9035750000.0 9035750000.0 9035750000.0 9035750000.0 9035750000.0 9035750000.0 9035750000.0 9035750000.0 9035750000.0 9035750000.0 9035750000.0 9035750000.0 9035750000.0 9035750000.0 9035750000.0 9035750000.0 9035750000.0 9035750000.0 9035750000.0 9035750000.0 9035750000.0 9035750000.0 9035750000.0 9035750000.0 9035750000.0 9035750000.0 9035750000.0 9035750000.0 9035750000.0 9035750000.0 9035750000.0 9035750000.0 9035750000.0 9035750000.0 9035750000.0 9035750000.0 9035750000.0 9035750000.0 9035750000.0 9035750000.0 9035750000.0 9035750000.0 9035750000.0 9035750000.0 9035750000.0 9035750000.0 9035750000.0 9035750000.0 9035750000.0 9035750000.0 9035750000.0 9035750000.0 9035750000.0 9035750000.0 9035750000.0 9035750000.0 9035750000.0 9035750000.0 9035750000.0 9035750000.0 9035750000.0 9035750000.0 9035750000.0 9035750000.0 9035750000.0 9035750000.0 9035750000.0 9035750000.0 9035750000.0 9035750000.0 9035750000.0 9035750000.0 9035750000.0 9035750000.0 9035750000.0 9035750000.0 9035750000.0 9035750000.0 9035750000.0 9035750000.0 9035750000.0 9035750000.0 9035750000.0 9035750000.0 9035750000.0 9035750000.0 9035750000.0 9035750000.0 9035750000.0 9035750000.0 9035750000.0 9035750000.0 9035750000.0 9035750000.0 9035750000.0 9035750000.0 9035750000.0 9035750000.0 9035750000.0 9035750000.0 9035750000.0 9035750000.0 9035750000.0 9035750000.0 9035750000.0 9035750000.0 9035750000.0 9035750000.0 9035750000.0 9035750000.0 9035750000.0 9035750000.0 9035750000.0 9035750000.0 9035750000.0 9035750000.0 9035750000.0 9035750000.0 9035750000.0 9035750000.0 9035750000.0 9035750000.0 9035750000.0 9035750000.0 9035750000.0 9035750000.0 9035750000.0 9035750000.0 9035750000.0 9035750000.0 9035750000.0 9035750000.0 9035750000.0 9035750000.0 9035750000.0 9035750000.0 9035750000.0 9035750000.0 9035750000.0 9035750000.0 9035750000.0 9035750000.0 9035750000.0 9035750000.0 9035750000.0 9035750000.0 9035750000.0 9035750000.0 9035750000.0 9035750000.0 9035750000.0 9035750000.0 9035750000.0 9035750000.0 9035750000.0 9035750000.0 9035750000.0 9035750000.0 9035750000.0 9035750000.0 9035750000.0 9035750000.0 9035750000.0 9035750000.0 9035750000.0 9035750000.0 9035750000.0 9035750000.0 9035750000.0 9035750000.0 9035750000.0 9035750000.0 9035750000.0 9035750000.0 9035750000.0 9035750000.0 9035750000.0 9035750000.0 9035750000.0 9035750000.0 9035750000.0 9035750000.0 9035750000.0 9035750000.0 9035750000.0 9035750000.0 9035750000.0 9035750000.0 9035750000.0 9035750000.0 9035750000.0 9035750000.0 9035750000.0 9035750000.0 9035750000.0 9035750000.0 9035750000.0 9035750000.0 9035750000.0 9035750000.0 9035750000.0 9035750000.0 9035750000.0 9035750000.0 9035750000.0 9035750000.0 9035750000.0 9035750000.0 9035750000.0 9035750000.0 9035750000.0 9035750000.0 9035750000.0 9035750000.0 9035750000.0 9035750000.0 9035750000.0 9035750000.0 9035750000.0 9035750000.0 9035750000.0 9035750000.0 9035750000.0 9035750000.0 9035750000.0 9035750000.0 9035750000.0 9035750000.0 9035750000.0 9035750000.0 9035750000.0 9035750000.0 9035750000.0 9035750000.0 9035750000.0 9035750000.0 9035750000.0 9035750000.0 9035750000.0 9035750000.0 9035750000.0 9035750000.0 9035750000.0 9035750000.0 9035750000.0 9035750000.0 9035750000.0 9035750000.0 9035750000.0 9035750000.0 9035750000.0 9035750000.0 9035750000.0 9035750000.0 9035750000.0 9035750000.0 9035750000.0 9035750000.0 9035750000.0 9035750000.0 9035750000.0 9035750000.0 9035750000.0 9035750000.0 9035750000.0 9035750000.0 9035750000.0 9035750000.0 9035750000.0 9035750000.0 9035750000.0 9035750000.0 9035750000.0 9035750000.0 9035750000.0 9035750000.0 9035750000.0 9035750000.0 9035750000.0 9035750000.0 9035750000.0 9035750000.0 9035750000.0 9035750000.0 9035750000.0 9035750000.0 9035750000.0 9035750000.0 9035750000.0 9035750000.0 9035750000.0 9035750000.0 9035750000.0 9035750000.0 9035750000.0 9035750000.0 9035750000.0 9035750000.0 9035750000.0 9035750000.0 9035750000.0 9035750000.0 9035750000.0 9035750000.0 9035750000.0 9035750000.0 9035750000.0 9035750000.0 9035750000.0 9035750000.0 9035750000.0 9035750000.0 9035750000.0 9035750000.0 9035750000.0 9035750000.0 9035750000.0 9035750000.0 9035750000.0 9035750000.0 9035750000.0 9035750000.0 9035750000.0 9035750000.0 9035750000.0 9035750000.0 9035750000.0 9035750000.0 9035750000.0 9035750000.0 9035750000.0 9035750000.0 9035750000.0 9035750000.0 9035750000.0 9035750000.0 9035750000.0 9035750000.0 9035750000.0 9035750000.0 9035750000.0 9035750000.0 9035750000.0 9035750000.0 9035750000.0 9035750000.0 9035750000.0 9035750000.0 9035750000.0 9035750000.0 9035750000.0 9035750000.0 9035750000.0 9035750000.0 9035750000.0 9035750000.0 9035750000.0 9035750000.0 9035750000.0 9035750000.0 9035750000.0 9035750000.0 9035750000.0 9035750000.0 9035750000.0 9035750000.0 9035750000.0 9035750000.0 9035750000.0 9035750000.0 9035750000.0 9035750000.0 9035750000.0 9035750000.0 9035750000.0 9035750000.0 9035750000.0 9035750000.0 9035750000.0 9035750000.0 9035750000.0 9035750000.0 9035750000.0 9035750000.0 9035750000.0 9035750000.0 9035750000.0 9035750000.0 9035750000.0 9035750000.0 9035750000.0 9035750000.0 9035750000.0 9035750000.0 9035750000.0 9035750000.0 9035750000.0 9035750000.0 9035750000.0 9035750000.0 9035750000.0 9035750000.0 9035750000.0 9035750000.0 9035750000.0 9035750000.0 9035750000.0 9035750000.0 9035750000.0 9035750000.0 9035750000.0 9035750000.0 9035750000.0 9035750000.0 9035750000.0 9035750000.0 9035750000.0 9035750000.0 9035750000.0 9035750000.0 9035750000.0 9035750000.0 9035750000.0 9035750000.0 9035750000.0 9035750000.0 9035750000.0 9035750000.0 9035750000.0 9035750000.0 9035750000.0 9035750000.0 9035750000.0 9035750000.0 9035750000.0 9035750000.0 9035750000.0 9035750000.0 9035750000.0 9035750000.0 9035750000.0 9035750000.0 9035750000.0 9035750000.0 9035750000.0 9035750000.0 9035750000.0 9035750000.0 9035750000.0 9035750000.0 9035750000.0 9035750000.0 9035750000.0 9035750000.0 9035750000.0 9035750000.0 9035750000.0 9035750000.0 9035750000.0 9035750000.0 9035750000.0 9035750000.0 9035750000.0 9035750000.0 9035750000.0 9035750000.0 9035750000.0 9035750000.0 9035750000.0 9035750000.0 9035750000.0 9035750000.0 9035750000.0 9035750000.0 9035750000.0 9035750000.0 9035750000.0 9035750000.0 9035750000.0 9035750000.0 9035750000.0 9035750000.0 9035750000.0 9035750000.0 9035750000.0 9035750000.0 9035750000.0 9035750000.0 9035750000.0 9035750000.0 9035750000.0 9035750000.0 9035750000.0 9035750000.0 9035750000.0 9035750000.0 9035750000.0 9035750000.0 9035750000.0 9035750000.0 9035750000.0 9035750000.0 9035750000.0 9035750000.0 9035750000.0 9035750000.0 9035750000.0 9035750000.0 9035750000.0 9035750000.0 9035750000.0 9035750000.0 9035750000.0 9035750000.0 9035750000.0 9035750000.0 9035750000.0 9035750000.0 9035750000.0 9035750000.0 9035750000.0 9035750000.0 9035750000.0 9035750000.0 9035750000.0 9035750000.0 9035750000.0 9035750000.0 9035750000.0 9035750000.0 9035750000.0 9035750000.0 9035750000.0 9035750000.0 9035750000.0 9035750000.0 9035750000.0 9035750000.0 9035750000.0 9035750000.0 9035750000.0 9035750000.0 9035750000.0 9035750000.0 9035750000.0 9035750000.0 9035750000.0 9035750000.0 9035750000.0 9035750000.0 9035750000.0 9035750000.0 9035750000.0 9035750000.0 9035750000.0 9035750000.0 9035750000.0 9035750000.0 9035750000.0 9035750000.0 9035750000.0 9035750000.0 9035750000.0 9035750000.0 9035750000.0 9035750000.0 9035750000.0 9035750000.0 9035750000.0 9035750000.0 9035750000.0 9035750000.0 9035750000.0 9035750000.0 9035750000.0 9035750000.0 9035750000.0 9035750000.0 9035750000.0 9035750000.0 9035750000.0 9035750000.0 9035750000.0 9035750000.0 9035750000.0 9035750000.0 9035750000.0 9035750000.0 9035750000.0 9035750000.0 9035750000.0 9035750000.0 9035750000.0 9035750000.0 9035750000.0 9035750000.0 9035750000.0 9035750000.0 9035750000.0 9035750000.0 9035750000.0 9035750000.0 9035750000.0 9035750000.0 9035750000.0 9035750000.0 9035750000.0 9035750000.0 9035750000.0 9035750000.0 9035750000.0 9035750000.0 9035750000.0 9035750000.0 9035750000.0 9035750000.0 9035750000.0 9035750000.0 9035750000.0 9035750000.0 9035750000.0 9035750000.0 9035750000.0 9035750000.0 9035750000.0 9035750000.0 9035750000.0 9035750000.0 9035750000.0 9035750000.0 9035750000.0 9035750000.0 9035750000.0 9035750000.0 9035750000.0 9035750000.0 9035750000.0 9035750000.0 9035750000.0 9035750000.0 9035750000.0 9035750000.0 9035750000.0 9035750000.0 9035750000.0 9035750000.0 9035750000.0 9035750000.0 9035750000.0 9035750000.0 9035750000.0 9035750000.0 9035750000.0 9035750000.0 9035750000.0 9035750000.0 9035750000.0 9035750000.0 9035750000.0 9035750000.0 9035750000.0 9035750000.0 9035750000.0 9035750000.0 9035750000.0 9035750000.0 9035750000.0 9035750000.0 9035750000.0 9035750000.0 9035750000.0 9035750000.0 9035750000.0 9035750000.0 9035750000.0 9035750000.0 9035750000.0 9035750000.0 9035750000.0 9035750000.0 9035750000.0 9035750000.0 9035750000.0 9035750000.0 9035750000.0 9035750000.0 9035750000.0 9035750000.0 9035750000.0 9035750000.0 9035750000.0 9035750000.0 9035750000.0 9035750000.0 9035750000.0 9035750000.0 9035750000.0 9035750000.0 9035750000.0 9035750000.0 9035750000.0 9035750000.0 9035750000.0 9035750000.0 9035750000.0 9035750000.0 9035750000.0 9035750000.0 9035750000.0 9035750000.0 9035750000.0 9035750000.0 9035750000.0 9035750000.0 9035750000.0 9035750000.0 9035750000.0 9035750000.0 9035750000.0 9035750000.0 9035750000.0 9035750000.0 9035750000.0 9035750000.0 9035750000.0 9035750000.0 9035750000.0 9035750000.0 9035750000.0 9035750000.0 9035750000.0 9035750000.0 9035750000.0 9035750000.0 9035750000.0 9035750000.0 9035750000.0 9035750000.0 9035750000.0 9035750000.0 9035750000.0 9035750000.0 9035750000.0 9035750000.0 9035750000.0 9035750000.0 9035750000.0 9035750000.0 9035750000.0 9035750000.0 9035750000.0 9035750000.0 9035750000.0 9035750000.0 9035750000.0 9035750000.0 9035750000.0 9035750000.0 9035750000.0 9035750000.0 9035750000.0 9035750000.0 9035750000.0 9035750000.0 9035750000.0 9035750000.0 9035750000.0 9035750000.0 9035750000.0 9035750000.0 9035750000.0 9035750000.0 9035750000.0 9035750000.0 9035750000.0 9035750000.0 9035750000.0 9035750000.0 9035750000.0 9035750000.0 9035750000.0 9035750000.0 9035750000.0 9035750000.0 9035750000.0 9035750000.0 9035750000.0 9035750000.0 9035750000.0 9035750000.0 9035750000.0 9035750000.0 9035750000.0 9035750000.0 9035750000.0 9035750000.0 9035750000.0 9035750000.0 9035750000.0 9035750000.0 9035750000.0 9035750000.0 9035750000.0 9035750000.0 9035750000.0 9035750000.0 9035750000.0 9035750000.0 9035750000.0 9035750000.0 9035750000.0 9035750000.0 9035750000.0 9035750000.0 9035750000.0 9035750000.0 9035750000.0 9035750000.0 9035750000.0 9035750000.0 9035750000.0 9035750000.0 9035750000.0 9035750000.0 9035750000.0 9035750000.0 9035750000.0 9035750000.0 9035750000.0 9035750000.0 9035750000.0 9035750000.0 9035750000.0 9035750000.0 9035750000.0 9035750000.0 9035750000.0 9035750000.0 9035750000.0 9035750000.0 9035750000.0 9035750000.0 9035750000.0 9035750000.0 9035750000.0 9035750000.0 9035750000.0 9035750000.0 9035750000.0 9035750000.0 9035750000.0 9035750000.0 9035750000.0 9035750000.0 9035750000.0 9035750000.0 9035750000.0 9035750000.0 9035750000.0 9035750000.0 9035750000.0 9035750000.0 9035750000.0 9035750000.0 9035750000.0 9035750000.0 9035750000.0 9035750000.0 9035750000.0 9035750000.0 9035750000.0 9035750000.0 9035750000.0 9035750000.0 9035750000.0 9035750000.0 9035750000.0 9035750000.0 9035750000.0 9035750000.0 9035750000.0 9035750000.0 9035750000.0 9035750000.0 9035750000.0 9035750000.0 9035750000.0 9035750000.0 9035750000.0 9035750000.0 9035750000.0 9035750000.0 9035750000.0 9035750000.0 9035750000.0 9035750000.0 9035750000.0 9035750000.0 9035750000.0 9035750000.0 9035750000.0 9035750000.0 9035750000.0 9035750000.0 9035750000.0 9035750000.0 9035750000.0 9035750000.0 9035750000.0 9035750000.0 9035750000.0 9035750000.0 9035750000.0 9035750000.0 9035750000.0 9035750000.0 9035750000.0 9035750000.0 9035750000.0 9035750000.0 9035750000.0 9035750000.0 9035750000.0 9035750000.0 9035750000.0 9035750000.0 9035750000.0 9035750000.0 9035750000.0 9035750000.0 9035750000.0 9035750000.0 9035750000.0 9035750000.0 9035750000.0 9035750000.0 9035750000.0 9035750000.0 9035750000.0 9035750000.0 9035750000.0 9035750000.0 9035750000.0 9035750000.0 9035750000.0 9035750000.0 9035750000.0 9035750000.0 9035750000.0 9035750000.0 9035750000.0 9035750000.0 9035750000.0 9035750000.0 9035750000.0 9035750000.0 9035750000.0 9035750000.0 9035750000.0 9035750000.0 9035750000.0 9035750000.0 9035750000.0 9035750000.0 9035750000.0 9035750000.0 9035750000.0 9035750000.0 9035750000.0 9035750000.0 9035750000.0 9035750000.0 9035750000.0 9035750000.0 9035750000.0 9035750000.0 9035750000.0 9035750000.0 9035750000.0 9035750000.0 9035750000.0 9035750000.0 9035750000.0 9035750000.0 9035750000.0 9035750000.0 9035750000.0 9035750000.0 9035750000.0 9035750000.0 9035750000.0 9035750000.0 9035750000.0 9035750000.0 9035750000.0 9035750000.0 9035750000.0 9035750000.0 9035750000.0 9035750000.0 9035750000.0 9035750000.0 9035750000.0 9035750000.0 9035750000.0 9035750000.0 9035750000.0 9035750000.0 9035750000.0 9035750000.0 9035750000.0 9035750000.0 9035750000.0 9035750000.0 9035750000.0 9035750000.0 9035750000.0 9035750000.0 9035750000.0 9035750000.0 9035750000.0 9035750000.0 9035750000.0 9035750000.0 9035750000.0 9035750000.0 9035750000.0 9035750000.0 9035750000.0 9035750000.0 9035750000.0 9035750000.0 9035750000.0 9035750000.0 9035750000.0 9035750000.0 9035750000.0 9035750000.0 9035750000.0 9035750000.0 9035750000.0 9035750000.0 9035750000.0 9035750000.0 9035750000.0 9035750000.0 9035750000.0 9035750000.0 9035750000.0 9035750000.0 9035750000.0 9035750000.0 9035750000.0 9035750000.0 9035750000.0 9035750000.0 9035750000.0 9035750000.0 9035750000.0 9035750000.0 9035750000.0 9035750000.0 9035750000.0 9035750000.0 9035750000.0 9035750000.0 9035750000.0 9035750000.0 9035750000.0 9035750000.0 9035750000.0 9035750000.0 9035750000.0 9035750000.0 9035750000.0 9035750000.0 9035750000.0 9035750000.0 9035750000.0 9035750000.0 9035750000.0 9035750000.0 9035750000.0 9035750000.0 9035750000.0 9035750000.0 9035750000.0 9035750000.0 9035750000.0 9035750000.0 9035750000.0 9035750000.0 9035750000.0 9035750000.0 9035750000.0 9035750000.0 9035750000.0 9035750000.0 9035750000.0 9035750000.0 9035750000.0 9035750000.0 9035750000.0 9035750000.0 9035750000.0 9035750000.0 9035750000.0 9035750000.0 9035750000.0 9035750000.0 9035750000.0 9035750000.0 9035750000.0 9035750000.0 9035750000.0 9035750000.0 9035750000.0 9035750000.0 9035750000.0 9035750000.0 9035750000.0 9035750000.0 9035750000.0 9035750000.0 9035750000.0 9035750000.0 9035750000.0 9035750000.0 9035750000.0 9035750000.0 9035750000.0 9035750000.0 9035750000.0 9035750000.0 9035750000.0 9035750000.0 9035750000.0 9035750000.0 9035750000.0 9035750000.0 9035750000.0 9035750000.0 9035750000.0 9035750000.0 9035750000.0 9035750000.0 9035750000.0 9035750000.0 9035750000.0 9035750000.0 9035750000.0 9035750000.0 9035750000.0 9035750000.0 9035750000.0 9035750000.0 9035750000.0 9035750000.0 9035750000.0 9035750000.0 9035750000.0 9035750000.0 9035750000.0 9035750000.0 9035750000.0 9035750000.0 9035750000.0 9035750000.0 9035750000.0 9035750000.0 9035750000.0 9035750000.0 9035750000.0 9035750000.0 9035750000.0 9035750000.0 9035750000.0 9035750000.0 9035750000.0 9035750000.0 9035750000.0 9035750000.0 9035750000.0 9035750000.0 9035750000.0 9035750000.0 9035750000.0 9035750000.0 9035750000.0 9035750000.0 9035750000.0 9035750000.0 9035750000.0 9035750000.0 9035750000.0 9035750000.0 9035750000.0 9035750000.0 9035750000.0 9035750000.0 9035750000.0 9035750000.0 9035750000.0 9035750000.0 9035750000.0 9035750000.0 9035750000.0 9035750000.0 9035750000.0 9035750000.0 9035750000.0 9035750000.0 9035750000.0 9035750000.0 9035750000.0 9035750000.0 9035750000.0 9035750000.0 9035750000.0 9035750000.0 9035750000.0 9035750000.0 9035750000.0 9035750000.0 9035750000.0 9035750000.0 9035750000.0 9035750000.0 9035750000.0 9035750000.0 9035750000.0 9035750000.0 9035750000.0 9035750000.0 9035750000.0 9035750000.0 9035750000.0 9035750000.0 9035750000.0 9035750000.0 9035750000.0 9035750000.0 9035750000.0 9035750000.0 9035750000.0 9035750000.0 9035750000.0 9035750000.0 9035750000.0 9035750000.0 9035750000.0 9035750000.0 9035750000.0 9035750000.0 9035750000.0 9035750000.0 9035750000.0 9035750000.0 9035750000.0 9035750000.0 9035750000.0 9035750000.0 9035750000.0 9035750000.0 9035750000.0 9035750000.0 9035750000.0 9035750000.0 9035750000.0 9035750000.0 9035750000.0 9035750000.0 9035750000.0 9035750000.0 9035750000.0 9035750000.0 9035750000.0 9035750000.0 9035750000.0 9035750000.0 9035750000.0 9035750000.0 9035750000.0 9035750000.0 9035750000.0 9035750000.0 9035750000.0 9035750000.0 9035750000.0 9035750000.0 9035750000.0 9035750000.0 9035750000.0 9035750000.0 9035750000.0 9035750000.0 9035750000.0 9035750000.0 9035750000.0 9035750000.0 9035750000.0 9035750000.0 9035750000.0 9035750000.0 9035750000.0 9035750000.0 9035750000.0 9035750000.0 9035750000.0 9035750000.0 9035750000.0 9035750000.0 9035750000.0 9035750000.0 9035750000.0 9035750000.0 9035750000.0 9035750000.0 9035750000.0 9035750000.0 9035750000.0 9035750000.0 9035750000.0 9035750000.0 9035750000.0 9035750000.0 9035750000.0 9035750000.0 9035750000.0 9035750000.0 9035750000.0 9035750000.0 9035750000.0 9035750000.0 9035750000.0 9035750000.0 9035750000.0 9035750000.0 9035750000.0 9035750000.0 9035750000.0 9035750000.0 9035750000.0 9035750000.0 9035750000.0 9035750000.0 9035750000.0 9035750000.0 9035750000.0 9035750000.0 9035750000.0 9035750000.0 9035750000.0 9035750000.0 9035750000.0 9035750000.0 9035750000.0 9035750000.0 9035750000.0 9035750000.0 9035750000.0 9035750000.0 9035750000.0 9035750000.0 9035750000.0 9035750000.0 9035750000.0 9035750000.0 9035750000.0 9035750000.0 9035750000.0 9035750000.0 9035750000.0 9035750000.0 9035750000.0 9035750000.0 9035750000.0 9035750000.0 9035750000.0 9035750000.0 9035750000.0 9035750000.0 9035750000.0 9035750000.0 9035750000.0 9035750000.0 9035750000.0 9035750000.0 9035750000.0 9035750000.0 9035750000.0 9035750000.0 9035750000.0 9035750000.0 9035750000.0 9035750000.0 9035750000.0 9035750000.0 9035750000.0 9035750000.0 9035750000.0 9035750000.0 9035750000.0 9035750000.0 9035750000.0 9035750000.0 9035750000.0 9035750000.0 9035750000.0 9035750000.0 9035750000.0 9035750000.0 9035750000.0 9035750000.0 9035750000.0 9035750000.0 9035750000.0 9035750000.0 9035750000.0 9035750000.0 9035750000.0 9035750000.0 9035750000.0 9035750000.0 9035750000.0 9035750000.0 9035750000.0 9035750000.0 9035750000.0 9035750000.0 9035750000.0 9035750000.0 9035750000.0 9035750000.0 9035750000.0 9035750000.0 9035750000.0 9035750000.0 9035750000.0 9035750000.0 9035750000.0 9035750000.0 9035750000.0 9035750000.0 9035750000.0 9035750000.0 9035750000.0 9035750000.0 9035750000.0 9035750000.0 9035750000.0 9035750000.0 9035750000.0 9035750000.0 9035750000.0 9035750000.0 9035750000.0 9035750000.0 9035750000.0 9035750000.0 9035750000.0 9035750000.0 9035750000.0 9035750000.0 9035750000.0 9035750000.0 9035750000.0 9035750000.0 9035750000.0 9035750000.0 9035750000.0 9035750000.0 9035750000.0 9035750000.0 9035750000.0 9035750000.0 9035750000.0 9035750000.0 9035750000.0 9035750000.0 9035750000.0 9035750000.0 9035750000.0 9035750000.0 9035750000.0 9035750000.0 9035750000.0 9035750000.0 9035750000.0 9035750000.0 9035750000.0 9035750000.0 9035750000.0 9035750000.0 9035750000.0 9035750000.0 9035750000.0 9035750000.0 9035750000.0 9035750000.0 9035750000.0 9035750000.0 9035750000.0 9035750000.0 9035750000.0 9035750000.0 9035750000.0 9035750000.0 9035750000.0 9035750000.0 9035750000.0 9035750000.0 9035750000.0 9035750000.0 9035750000.0 9035750000.0 9035750000.0 9035750000.0 9035750000.0 9035750000.0 9035750000.0 9035750000.0 9035750000.0 9035750000.0 9035750000.0 9035750000.0 9035750000.0 9035750000.0 9035750000.0 9035750000.0 9035750000.0 9035750000.0 9035750000.0 9035750000.0 9035750000.0 9035750000.0 9035750000.0 9035750000.0 9035750000.0 9035750000.0 9035750000.0 9035750000.0 9035750000.0 9035750000.0 9035750000.0 9035750000.0 9035750000.0 9035750000.0 9035750000.0 9035750000.0 9035750000.0 9035750000.0 9035750000.0 9035750000.0 9035750000.0 9035750000.0 9035750000.0 9035750000.0 9035750000.0 9035750000.0 9035750000.0 9035750000.0 9035750000.0 9035750000.0 9035750000.0 9035750000.0 9035750000.0 9035750000.0 9035750000.0 9035750000.0 9035750000.0 9035750000.0 9035750000.0 9035750000.0 9035750000.0 9035750000.0 9035750000.0 9035750000.0 9035750000.0 9035750000.0 9035750000.0 9035750000.0 9035750000.0 9035750000.0 9035750000.0 9035750000.0 9035750000.0 9035750000.0 9035750000.0 9035750000.0 9035750000.0 9035750000.0 9035750000.0 9035750000.0 9035750000.0 9035750000.0 9035750000.0 9035750000.0 9035750000.0 9035750000.0 9035750000.0 9035750000.0 9035750000.0 9035750000.0 9035750000.0 9035750000.0 9035750000.0 9035750000.0 9035750000.0 9035750000.0 9035750000.0 9035750000.0 9035750000.0 9035750000.0 9035750000.0 9035750000.0 9035750000.0 9035750000.0 9035750000.0 9035750000.0 9035750000.0 9035750000.0 9035750000.0 9035750000.0 9035750000.0 9035750000.0 9035750000.0 9035750000.0 9035750000.0 9035750000.0 9035750000.0 9035750000.0 9035750000.0 9035750000.0 9035750000.0 9035750000.0 9035750000.0 9035750000.0 9035750000.0 9035750000.0 9035750000.0 9035750000.0 9035750000.0 9035750000.0 9035750000.0 9035750000.0 9035750000.0 9035750000.0 9035750000.0 9035750000.0 9035750000.0 9035750000.0 9035750000.0 9035750000.0 9035750000.0 9035750000.0 9035750000.0 9035750000.0 9035750000.0 9035750000.0 9035750000.0 9035750000.0 9035750000.0 9035750000.0 9035750000.0 9035750000.0 9035750000.0 9035750000.0 9035750000.0 9035750000.0 9035750000.0 9035750000.0 9035750000.0 9035750000.0 9035750000.0 9035750000.0 9035750000.0 9035750000.0 9035750000.0 9035750000.0 9035750000.0 9035750000.0 9035750000.0 9035750000.0 9035750000.0 9035750000.0 9035750000.0 9035750000.0 9035750000.0 9035750000.0 9035750000.0 9035750000.0 9035750000.0 9035750000.0 9035750000.0 9035750000.0 9035750000.0 9035750000.0 9035750000.0 9035750000.0 9035750000.0 9035750000.0 9035750000.0 9035750000.0 9035750000.0 9035750000.0 9035750000.0 9035750000.0 9035750000.0 9035750000.0 9035750000.0 9035750000.0 9035750000.0 9035750000.0 9035750000.0 9035750000.0 9035750000.0 9035750000.0 9035750000.0 9035750000.0 9035750000.0 9035750000.0 9035750000.0 9035750000.0 9035750000.0 9035750000.0 9035750000.0 9035750000.0 9035750000.0 9035750000.0 9035750000.0 9035750000.0 9035750000.0 9035750000.0 9035750000.0 9035750000.0 9035750000.0 9035750000.0 9035750000.0 9035750000.0 9035750000.0 9035750000.0 9035750000.0 9035750000.0 9035750000.0 9035750000.0 9035750000.0 9035750000.0 9035750000.0 9035750000.0 9035750000.0 9035750000.0 9035750000.0 9035750000.0 9035750000.0 9035750000.0 9035750000.0 9035750000.0 9035750000.0 9035750000.0 9035750000.0 9035750000.0 9035750000.0 9035750000.0 9035750000.0 9035750000.0 9035750000.0 9035750000.0 9035750000.0 9035750000.0 9035750000.0 9035750000.0 9035750000.0 9035750000.0 9035750000.0 9035750000.0 9035750000.0 9035750000.0 9035750000.0 9035750000.0 9035750000.0 9035750000.0 9035750000.0 9035750000.0 9035750000.0 9035750000.0 9035750000.0 9035750000.0 9035750000.0 9035750000.0 9035750000.0 9035750000.0 9035750000.0 9035750000.0 9035750000.0 9035750000.0 9035750000.0 9035750000.0 9035750000.0 9035750000.0 9035750000.0 9035750000.0 9035750000.0 9035750000.0 9035750000.0 9035750000.0 9035750000.0 9035750000.0 9035750000.0 9035750000.0 9035750000.0 9035750000.0 9035750000.0 9035750000.0 9035750000.0 9035750000.0 9035750000.0 9035750000.0 9035750000.0 9035750000.0 9035750000.0 9035750000.0 9035750000.0 9035750000.0 9035750000.0 9035750000.0 9035750000.0 9035750000.0 9035750000.0 9035750000.0 9035750000.0 9035750000.0 9035750000.0 9035750000.0 9035750000.0 9035750000.0 9035750000.0 9035750000.0 9035750000.0 9035750000.0 9035750000.0 9035750000.0 9035750000.0 9035750000.0 9035750000.0 9035750000.0 9035750000.0 9035750000.0 9035750000.0 9035750000.0 9035750000.0 9035750000.0 9035750000.0 9035750000.0 9035750000.0 9035750000.0 9035750000.0 9035750000.0 9035750000.0 9035750000.0 9035750000.0 9035750000.0 9035750000.0 9035750000.0 9035750000.0 9035750000.0 9035750000.0 9035750000.0 9035750000.0 9035750000.0 9035750000.0 9035750000.0 9035750000.0 9035750000.0 9035750000.0 9035750000.0 9035750000.0 9035750000.0 9035750000.0 9035750000.0 9035750000.0 9035750000.0 9035750000.0 9035750000.0 9035750000.0 9035750000.0 9035750000.0 9035750000.0 9035750000.0 9035750000.0 9035750000.0 9035750000.0 9035750000.0 9035750000.0 9035750000.0 9035750000.0 9035750000.0 9035750000.0 9035750000.0 9035750000.0 9035750000.0 9035750000.0 9035750000.0 9035750000.0 9035750000.0 9035750000.0 9035750000.0 9035750000.0 9035750000.0 9035750000.0 9035750000.0 9035750000.0 9035750000.0 9035750000.0 9035750000.0 9035750000.0 9035750000.0 9035750000.0 9035750000.0 9035750000.0 9035750000.0 9035750000.0 9035750000.0 9035750000.0 9035750000.0 9035750000.0 9035750000.0 9035750000.0 9035750000.0 9035750000.0 9035750000.0 9035750000.0 9035750000.0 9035750000.0 9035750000.0 9035750000.0 9035750000.0 9035750000.0 9035750000.0 9035750000.0 9035750000.0 9035750000.0 9035750000.0 9035750000.0 9035750000.0 9035750000.0 9035750000.0 9035750000.0 9035750000.0 9035750000.0 9035750000.0 9035750000.0 9035750000.0 9035750000.0 9035750000.0 9035750000.0 9035750000.0 9035750000.0 9035750000.0 9035750000.0 9035750000.0 9035750000.0 9035750000.0 9035750000.0 9035750000.0 9035750000.0 9035750000.0 9035750000.0 9035750000.0 9035750000.0 9035750000.0 9035750000.0 9035750000.0 9035750000.0 9035750000.0 9035750000.0 9035750000.0 9035750000.0 9035750000.0 9035750000.0 9035750000.0 9035750000.0 9035750000.0 9035750000.0 9035750000.0 9035750000.0 9035750000.0 9035750000.0 9035750000.0 9035750000.0 9035750000.0 9035750000.0 9035750000.0 9035750000.0 9035750000.0 9035750000.0 9035750000.0 9035750000.0 9035750000.0 9035750000.0 9035750000.0 9035750000.0 9035750000.0 9035750000.0 9035750000.0 9035750000.0 9035750000.0 9035750000.0 9035750000.0 9035750000.0 9035750000.0 9035750000.0 9035750000.0 9035750000.0 9035750000.0 9035750000.0 9035750000.0 9035750000.0 9035750000.0 9035750000.0 9035750000.0 9035750000.0 9035750000.0 9035750000.0 9035750000.0 9035750000.0 9035750000.0 9035750000.0 9035750000.0 9035750000.0 9035750000.0 9035750000.0 9035750000.0 9035750000.0 9035750000.0 9035750000.0 9035750000.0 9035750000.0 9035750000.0 9035750000.0 9035750000.0 9035750000.0 9035750000.0 9035750000.0 9035750000.0 9035750000.0 9035750000.0 9035750000.0 9035750000.0 9035750000.0 9035750000.0 9035750000.0 9035750000.0 9035750000.0 9035750000.0 9035750000.0 9035750000.0 9035750000.0 9035750000.0 9035750000.0 9035750000.0 9035750000.0 9035750000.0 9035750000.0 9035750000.0 9035750000.0 9035750000.0 9035750000.0 9035750000.0 9035750000.0 9035750000.0 9035750000.0 9035750000.0 9035750000.0 9035750000.0 9035750000.0 9035750000.0 9035750000.0 9035750000.0 9035750000.0 9035750000.0 9035750000.0 9035750000.0 9035750000.0 9035750000.0 9035750000.0 9035750000.0 9035750000.0 9035750000.0 9035750000.0 9035750000.0 9035750000.0 9035750000.0 9035750000.0 9035750000.0 9035750000.0 9035750000.0 9035750000.0 9035750000.0 9035750000.0 9035750000.0 9035750000.0 9035750000.0 9035750000.0 9035750000.0 9035750000.0 9035750000.0 9035750000.0 9035750000.0 9035750000.0 9035750000.0 9035750000.0 9035750000.0 9035750000.0 9035750000.0 9035750000.0 9035750000.0 9035750000.0 9035750000.0 9035750000.0 9035750000.0 9035750000.0 9035750000.0 9035750000.0 9035750000.0 9035750000.0 9035750000.0 9035750000.0 9035750000.0 9035750000.0 9035750000.0 9035750000.0 9035750000.0 9035750000.0 9035750000.0 9035750000.0 9035750000.0 9035750000.0 9035750000.0 9035750000.0 9035750000.0 9035750000.0 9035750000.0 9035750000.0 9035750000.0 9035750000.0 9035750000.0 9035750000.0 9035750000.0 9035750000.0 9035750000.0 9035750000.0 9035750000.0 9035750000.0 9035750000.0 9035750000.0 9035750000.0 9035750000.0 9035750000.0 9035750000.0 9035750000.0 9035750000.0 9035750000.0 9035750000.0 9035750000.0 9035750000.0 9035750000.0 9035750000.0 9035750000.0 9035750000.0 9035750000.0 9035750000.0 9035750000.0 9035750000.0 9035750000.0 9035750000.0 9035750000.0 9035750000.0 9035750000.0 9035750000.0 9035750000.0 9035750000.0 9035750000.0 9035750000.0 9035750000.0 9035750000.0 9035750000.0 9035750000.0 9035750000.0 9035750000.0 9035750000.0 9035750000.0 9035750000.0 9035750000.0 9035750000.0 9035750000.0 9035750000.0 9035750000.0 9035750000.0 9035750000.0 9035750000.0 9035750000.0 9035750000.0 9035750000.0 9035750000.0 9035750000.0 9035750000.0 9035750000.0 9035750000.0 9035750000.0 9035750000.0 9035750000.0 9035750000.0 9035750000.0 9035750000.0 9035750000.0 9035750000.0 9035750000.0 9035750000.0 9035750000.0 9035750000.0 9035750000.0 9035750000.0 9035750000.0 9035750000.0 9035750000.0 9035750000.0 9035750000.0 9035750000.0 9035750000.0 9035750000.0 9035750000.0 9035750000.0 9035750000.0 9035750000.0 9035750000.0 9035750000.0 9035750000.0 9035750000.0 9035750000.0 9035750000.0 9035750000.0 9035750000.0 9035750000.0 9035750000.0 9035750000.0 9035750000.0 9035750000.0 9035750000.0 9035750000.0 9035750000.0 9035750000.0 9035750000.0 9035750000.0 9035750000.0 9035750000.0 9035750000.0 9035750000.0 9035750000.0 9035750000.0 9035750000.0 9035750000.0 9035750000.0 9035750000.0 9035750000.0 9035750000.0 9035750000.0 9035750000.0 9035750000.0 9035750000.0 9035750000.0 9035750000.0 9035750000.0 9035750000.0 9035750000.0 9035750000.0 9035750000.0 9035750000.0 9035750000.0 9035750000.0 9035750000.0 9035750000.0 9035750000.0 9035750000.0 9035750000.0 9035750000.0 9035750000.0 9035750000.0 9035750000.0 9035750000.0 9035750000.0 9035750000.0 9035750000.0 9035750000.0 9035750000.0 9035750000.0 9035750000.0 9035750000.0 9035750000.0 9035750000.0 9035750000.0 9035750000.0 9035750000.0 9035750000.0 9035750000.0 9035750000.0 9035750000.0 9035750000.0 9035750000.0 9035750000.0 9035750000.0 9035750000.0 9035750000.0 9035750000.0 9035750000.0 9035750000.0 9035750000.0 9035750000.0 9035750000.0 9035750000.0 9035750000.0 9035750000.0 9035750000.0 9035750000.0 9035750000.0 9035750000.0 9035750000.0 9035750000.0 9035750000.0 9035750000.0 9035750000.0 9035750000.0 9035750000.0 9035750000.0 9035750000.0 9035750000.0 9035750000.0 9035750000.0 9035750000.0 9035750000.0 9035750000.0 9035750000.0 9035750000.0 9035750000.0 9035750000.0 9035750000.0 9035750000.0 9035750000.0 9035750000.0 9035750000.0 9035750000.0 9035750000.0 9035750000.0 9035750000.0 9035750000.0 9035750000.0 9035750000.0 9035750000.0 9035750000.0 9035750000.0 9035750000.0 9035750000.0 9035750000.0 9035750000.0 9035750000.0 9035750000.0 9035750000.0 9035750000.0 9035750000.0 9035750000.0 9035750000.0 9035750000.0 9035750000.0 9035750000.0 9035750000.0 9035750000.0 9035750000.0 9035750000.0 9035750000.0 9035750000.0 9035750000.0 9035750000.0 9035750000.0 9035750000.0 9035750000.0 9035750000.0 9035750000.0 9035750000.0 9035750000.0 9035750000.0 9035750000.0 9035750000.0 9035750000.0 9035750000.0 9035750000.0 9035750000.0 9035750000.0 9035750000.0 9035750000.0 9035750000.0 9035750000.0 9035750000.0 9035750000.0 9035750000.0 9035750000.0 9035750000.0 9035750000.0 9035750000.0 9035750000.0 9035750000.0 9035750000.0 9035750000.0 9035750000.0 9035750000.0 9035750000.0 9035750000.0 9035750000.0 9035750000.0 9035750000.0 9035750000.0 9035750000.0 9035750000.0 9035750000.0 9035750000.0 9035750000.0 9035750000.0 9035750000.0 9035750000.0 9035750000.0 9035750000.0 9035750000.0 9035750000.0 9035750000.0 9035750000.0 9035750000.0 9035750000.0 9035750000.0 9035750000.0 9035750000.0 9035750000.0 9035750000.0 9035750000.0 9035750000.0 9035750000.0 9035750000.0 9035750000.0 9035750000.0 9035750000.0 9035750000.0 9035750000.0 9035750000.0 9035750000.0 9035750000.0 9035750000.0 9035750000.0 9035750000.0 9035750000.0 9035750000.0 9035750000.0 9035750000.0 9035750000.0 9035750000.0 9035750000.0 9035750000.0 9035750000.0 9035750000.0 9035750000.0 9035750000.0 9035750000.0 9035750000.0 9035750000.0 9035750000.0 9035750000.0 9035750000.0 9035750000.0 9035750000.0 9035750000.0 9035750000.0 9035750000.0 9035750000.0 9035750000.0 9035750000.0 9035750000.0 9035750000.0 9035750000.0 9035750000.0 9035750000.0 9035750000.0 9035750000.0 9035750000.0 9035750000.0 9035750000.0 9035750000.0 9035750000.0 9035750000.0 9035750000.0 9035750000.0 9035750000.0 9035750000.0 9035750000.0 9035750000.0 9035750000.0 9035750000.0 9035750000.0 9035750000.0 9035750000.0 9035750000.0 9035750000.0 9035750000.0 9035750000.0 9035750000.0 9035750000.0 9035750000.0 9035750000.0 9035750000.0 9035750000.0 9035750000.0 9035750000.0 9035750000.0 9035750000.0 9035750000.0 9035750000.0 9035750000.0 9035750000.0 9035750000.0 9035750000.0 9035750000.0 9035750000.0 9035750000.0 9035750000.0 9035750000.0 9035750000.0 9035750000.0 9035750000.0 9035750000.0 9035750000.0 9035750000.0 9035750000.0 9035750000.0 9035750000.0 9035750000.0 9035750000.0 9035750000.0 9035750000.0 9035750000.0 9035750000.0 9035750000.0 9035750000.0 9035750000.0 9035750000.0 9035750000.0 9035750000.0 9035750000.0 9035750000.0 9035750000.0 9035750000.0 9035750000.0 9035750000.0 9035750000.0 9035750000.0 9035750000.0 9035750000.0 9035750000.0 9035750000.0 9035750000.0 9035750000.0 9035750000.0 9035750000.0 9035750000.0 9035750000.0 9035750000.0 9035750000.0 9035750000.0 9035750000.0 9035750000.0 9035750000.0 9035750000.0 9035750000.0 9035750000.0 9035750000.0 9035750000.0 9035750000.0 9035750000.0 9035750000.0 9035750000.0 9035750000.0 9035750000.0 9035750000.0 9035750000.0 9035750000.0 9035750000.0 9035750000.0 9035750000.0 9035750000.0 9035750000.0 9035750000.0 9035750000.0 9035750000.0 9035750000.0 9035750000.0 9035750000.0 9035750000.0 9035750000.0 9035750000.0 9035750000.0 9035750000.0 9035750000.0 9035750000.0 9035750000.0 9035750000.0 9035750000.0 9035750000.0 9035750000.0 9035750000.0 9035750000.0 9035750000.0 9035750000.0 9035750000.0 9035750000.0 9035750000.0 9035750000.0 9035750000.0 9035750000.0 9035750000.0 9035750000.0 9035750000.0 9035750000.0 9035750000.0 9035750000.0 9035750000.0 9035750000.0 9035750000.0 9035750000.0 9035750000.0 9035750000.0 9035750000.0 9035750000.0 9035750000.0 9035750000.0 9035750000.0 9035750000.0 9035750000.0 9035750000.0 9035750000.0 9035750000.0 9035750000.0 9035750000.0 9035750000.0 9035750000.0 9035750000.0 9035750000.0 9035750000.0 9035750000.0 9035750000.0 9035750000.0 9035750000.0 9035750000.0 9035750000.0 9035750000.0 9035750000.0 9035750000.0 9035750000.0 9035750000.0 9035750000.0 9035750000.0 9035750000.0 9035750000.0 9035750000.0 9035750000.0 9035750000.0 9035750000.0 9035750000.0 9035750000.0 9035750000.0 9035750000.0 9035750000.0 9035750000.0 9035750000.0 9035750000.0 9035750000.0 9035750000.0 9035750000.0 9035750000.0 9035750000.0 9035750000.0 9035750000.0 9035750000.0 9035750000.0 9035750000.0 9035750000.0 9035750000.0 9035750000.0 9035750000.0 9035750000.0 9035750000.0 9035750000.0 9035750000.0 9035750000.0 9035750000.0 9035750000.0 9035750000.0 9035750000.0 9035750000.0 9035750000.0 9035750000.0 9035750000.0 9035750000.0 9035750000.0 9035750000.0 9035750000.0 9035750000.0 9035750000.0 9035750000.0 9035750000.0 9035750000.0 9035750000.0 9035750000.0 9035750000.0 9035750000.0 9035750000.0 9035750000.0 9035750000.0 9035750000.0 9035750000.0 9035750000.0 9035750000.0 9035750000.0 9035750000.0 9035750000.0 9035750000.0 9035750000.0 9035750000.0 9035750000.0 9035750000.0 9035750000.0 9035750000.0 9035750000.0 9035750000.0 9035750000.0 9035750000.0 9035750000.0 9035750000.0 9035750000.0 9035750000.0 9035750000.0 9035750000.0 9035750000.0 9035750000.0 9035750000.0 9035750000.0 9035750000.0 9035750000.0 9035750000.0 9035750000.0 9035750000.0 9035750000.0 9035750000.0 9035750000.0 9035750000.0 9035750000.0 9035750000.0 9035750000.0 9035750000.0 9035750000.0 9035750000.0 9035750000.0 9035750000.0 9035750000.0 9035750000.0 9035750000.0 9035750000.0 9035750000.0 9035750000.0 9035750000.0 9035750000.0 9035750000.0 9035750000.0 9035750000.0 9035750000.0 9035750000.0 9035750000.0 9035750000.0 9035750000.0 9035750000.0 9035750000.0 9035750000.0 9035750000.0 9035750000.0 9035750000.0 9035750000.0 9035750000.0 9035750000.0 9035750000.0 9035750000.0 9035750000.0 9035750000.0 9035750000.0 9035750000.0 9035750000.0 9035750000.0 9035750000.0 9035750000.0 9035750000.0 9035750000.0 9035750000.0 9035750000.0 9035750000.0 9035750000.0 9035750000.0 9035750000.0 9035750000.0 9035750000.0 9035750000.0 9035750000.0 9035750000.0 9035750000.0 9035750000.0 9035750000.0 9035750000.0 9035750000.0 9035750000.0 9035750000.0 9035750000.0 9035750000.0 9035750000.0 9035750000.0 9035750000.0 9035750000.0 9035750000.0 9035750000.0 9035750000.0 9035750000.0 9035750000.0 9035750000.0 9035750000.0 9035750000.0 9035750000.0 9035750000.0 9035750000.0 9035750000.0 9035750000.0 9035750000.0 9035750000.0 9035750000.0 9035750000.0 9035750000.0 9035750000.0 9035750000.0 9035750000.0 9035750000.0 9035750000.0 9035750000.0 9035750000.0 9035750000.0 9035750000.0 9035750000.0 9035750000.0 9035750000.0 9035750000.0 9035750000.0 9035750000.0 9035750000.0 9035750000.0 9035750000.0 9035750000.0 9035750000.0 9035750000.0 9035750000.0 9035750000.0 9035750000.0 9035750000.0 9035750000.0 9035750000.0 9035750000.0 9035750000.0 9035750000.0 9035750000.0 9035750000.0 9035750000.0 9035750000.0 9035750000.0 9035750000.0 9035750000.0 9035750000.0 9035750000.0 9035750000.0 9035750000.0 9035750000.0 9035750000.0 9035750000.0 9035750000.0 9035750000.0 9035750000.0 9035750000.0 9035750000.0 9035750000.0 9035750000.0 9035750000.0 9035750000.0 9035750000.0 9035750000.0 9035750000.0 9035750000.0 9035750000.0 9035750000.0 9035750000.0 9035750000.0 9035750000.0 9035750000.0 9035750000.0 9035750000.0 9035750000.0 9035750000.0 9035750000.0 9035750000.0 9035750000.0 9035750000.0 9035750000.0 9035750000.0 9035750000.0 9035750000.0 9035750000.0 9035750000.0 9035750000.0 9035750000.0 9035750000.0 9035750000.0 9035750000.0 9035750000.0 9035750000.0 9035750000.0 9035750000.0 9035750000.0 9035750000.0 9035750000.0 9035750000.0 9035750000.0 9035750000.0 9035750000.0 9035750000.0 9035750000.0 9035750000.0 9035750000.0 9035750000.0 9035750000.0 9035750000.0 9035750000.0 9035750000.0 9035750000.0 9035750000.0 9035750000.0 9035750000.0 9035750000.0 9035750000.0 9035750000.0 9035750000.0 9035750000.0 9035750000.0 9035750000.0 9035750000.0 9035750000.0 9035750000.0 9035750000.0 9035750000.0 9035750000.0 9035750000.0 9035750000.0 9035750000.0 9035750000.0 9035750000.0 9035750000.0 9035750000.0 9035750000.0 9035750000.0 9035750000.0 9035750000.0 9035750000.0 9035750000.0 9035750000.0 9035750000.0 9035750000.0 9035750000.0 9035750000.0 9035750000.0 9035750000.0 9035750000.0 9035750000.0 9035750000.0 9035750000.0 9035750000.0 9035750000.0 9035750000.0 9035750000.0 9035750000.0 9035750000.0 9035750000.0 9035750000.0 9035750000.0 9035750000.0 9035750000.0 9035750000.0 9035750000.0 9035750000.0 9035750000.0 9035750000.0 9035750000.0 9035750000.0 9035750000.0 9035750000.0 9035750000.0 9035750000.0 9035750000.0 9035750000.0 9035750000.0 9035750000.0 9035750000.0 9035750000.0 9035750000.0 9035750000.0 9035750000.0 9035750000.0 9035750000.0 9035750000.0 9035750000.0 9035750000.0 9035750000.0 9035750000.0 9035750000.0 9035750000.0 9035750000.0 9035750000.0 9035750000.0 9035750000.0 9035750000.0 9035750000.0 9035750000.0 9035750000.0 9035750000.0 9035750000.0 9035750000.0 9035750000.0 9035750000.0 9035750000.0 9035750000.0 9035750000.0 9035750000.0 9035750000.0 9035750000.0 9035750000.0 9035750000.0 9035750000.0 9035750000.0 9035750000.0 9035750000.0 9035750000.0 9035750000.0 9035750000.0 9035750000.0 9035750000.0 9035750000.0 9035750000.0 9035750000.0 9035750000.0 9035750000.0 9035750000.0 9035750000.0 9035750000.0 9035750000.0 9035750000.0 9035750000.0 9035750000.0 9035750000.0 9035750000.0 9035750000.0 9035750000.0 9035750000.0 9035750000.0 9035750000.0 9035750000.0 9035750000.0 9035750000.0 9035750000.0 9035750000.0 9035750000.0 9035750000.0 9035750000.0 9035750000.0 9035750000.0 9035750000.0 9035750000.0 9035750000.0 9035750000.0 9035750000.0 9035750000.0 9035750000.0 9035750000.0 9035750000.0 9035750000.0 9035750000.0 9035750000.0 9035750000.0 9035750000.0 9035750000.0 9035750000.0 9035750000.0 9035750000.0 9035750000.0 9035750000.0 9035750000.0 9035750000.0 9035750000.0 9035750000.0 9035750000.0 9035750000.0 9035750000.0 9035750000.0 9035750000.0 9035750000.0 9035750000.0 9035750000.0 9035750000.0 9035750000.0 9035750000.0 9035750000.0 9035750000.0 9035750000.0 9035750000.0 9035750000.0 9035750000.0 9035750000.0 9035750000.0 9035750000.0 9035750000.0 9035750000.0 9035750000.0 9035750000.0 9035750000.0 9035750000.0 9035750000.0 9035750000.0 9035750000.0 9035750000.0 9035750000.0 9035750000.0 9035750000.0 9035750000.0 9035750000.0 9035750000.0 9035750000.0 9035750000.0 9035750000.0 9035750000.0 9035750000.0 9035750000.0 9035750000.0 9035750000.0 9035750000.0 9035750000.0 9035750000.0 9035750000.0 9035750000.0 9035750000.0 9035750000.0 9035750000.0 9035750000.0 9035750000.0 9035750000.0 9035750000.0 9035750000.0 9035750000.0 9035750000.0 9035750000.0 9035750000.0 9035750000.0 9035750000.0 9035750000.0 9035750000.0 9035750000.0 9035750000.0 9035750000.0 9035750000.0 9035750000.0 9035750000.0 9035750000.0 9035750000.0 9035750000.0 9035750000.0 9035750000.0 9035750000.0 9035750000.0 9035750000.0 9035750000.0 9035750000.0 9035750000.0 9035750000.0 9035750000.0 9035750000.0 9035750000.0 9035750000.0 9035750000.0 9035750000.0 9035750000.0 9035750000.0 9035750000.0 9035750000.0 9035750000.0 9035750000.0 9035750000.0 9035750000.0 9035750000.0 9035750000.0 9035750000.0 9035750000.0 9035750000.0 9035750000.0 9035750000.0 9035750000.0 9035750000.0 9035750000.0 9035750000.0 9035750000.0 9035750000.0 9035750000.0 9035750000.0 9035750000.0 9035750000.0 9035750000.0 9035750000.0 9035750000.0 9035750000.0 9035750000.0 9035750000.0 9035750000.0 9035750000.0 9035750000.0 9035750000.0 9035750000.0 9035750000.0 9035750000.0 9035750000.0 9035750000.0 9035750000.0 9035750000.0 9035750000.0 9035750000.0 9035750000.0 9035750000.0 9035750000.0 9035750000.0 9035750000.0 9035750000.0 9035750000.0 9035750000.0 9035750000.0 9035750000.0 9035750000.0 9035750000.0 9035750000.0 9035750000.0 9035750000.0 9035750000.0 9035750000.0 9035750000.0 9035750000.0 9035750000.0 9035750000.0 9035750000.0 9035750000.0 9035750000.0 9035750000.0 9035750000.0 9035750000.0 9035750000.0 9035750000.0 9035750000.0 9035750000.0 9035750000.0 9035750000.0 9035750000.0 9035750000.0 9035750000.0 9035750000.0 9035750000.0 9035750000.0 9035750000.0 9035750000.0 9035750000.0 9035750000.0 9035750000.0 9035750000.0 9035750000.0 9035750000.0 9035750000.0 9035750000.0 9035750000.0 9035750000.0 9035750000.0 9035750000.0 9035750000.0 9035750000.0 9035750000.0 9035750000.0 9035750000.0 9035750000.0 9035750000.0 9035750000.0 9035750000.0 9035750000.0 9035750000.0 9035750000.0 9035750000.0 9035750000.0 9035750000.0 9035750000.0 9035750000.0 9035750000.0 9035750000.0 9035750000.0 9035750000.0 9035750000.0 9035750000.0 9035750000.0 9035750000.0 9035750000.0 9035750000.0 9035750000.0 9035750000.0 9035750000.0 9035750000.0 9035750000.0 9035750000.0 9035750000.0 9035750000.0 9035750000.0 9035750000.0 9035750000.0 9035750000.0 9035750000.0 9035750000.0 9035750000.0 9035750000.0 9035750000.0 9035750000.0 9035750000.0 9035750000.0 9035750000.0 9035750000.0 9035750000.0 9035750000.0 9035750000.0 9035750000.0 9035750000.0 9035750000.0 9035750000.0 9035750000.0 9035750000.0 9035750000.0 9035750000.0 9035750000.0 9035750000.0 9035750000.0 9035750000.0 9035750000.0 9035750000.0 9035750000.0 9035750000.0 9035750000.0 9035750000.0 9035750000.0 9035750000.0 9035750000.0 9035750000.0 9035750000.0 9035750000.0 9035750000.0 9035750000.0 