# vtk DataFile Version 2.0
Time step 4
ASCII
DATASET UNSTRUCTURED_GRID
POINTS 5000 float
21609.9 489549.0 0
30201.8 484508.0 0
57030.2 487544.0 0
171857.0 486873.0 0
177761.0 486906.0 0
182974.0 486154.0 0
201785.0 487554.0 0
241185.0 487603.0 0
252623.0 487505.0 0
278848.0 486936.0 0
297320.0 486931.0 0
362053.0 487439.0 0
372066.0 485596.0 0
377059.0 487623.0 0
388140.0 487598.0 0
394012.0 486943.0 0
403535.0 486146.0 0
408469.0 487370.0 0
432538.0 486531.0 0
441221.0 487999.0 0
445173.0 486800.0 0
468448.0 486181.0 0
473093.0 488476.0 0
477624.0 489107.0 0
14827.3 493048.0 0
10768.7 495787.0 0
17668.0 490969.0 0
26418.9 488515.0 0
31167.8 492316.0 0
34401.1 487351.0 0
39193.8 488205.0 0
43646.4 488682.0 0
47647.7 488609.0 0
49876.3 492257.0 0
52137.1 488631.0 0
58330.4 492939.0 0
62763.5 488546.0 0
67994.7 488680.0 0
72675.7 487951.0 0
77500.0 488559.0 0
82500.0 488548.0 0
87430.1 487962.0 0
87849.4 492726.0 0
92500.0 488587.0 0
97265.8 488607.0 0
101365.0 488518.0 0
106039.0 488100.0 0
111887.0 488521.0 0
108288.0 492711.0 0
117801.0 488578.0 0
123280.0 488656.0 0
128294.0 488768.0 0
133378.0 488032.0 0
138076.0 488705.0 0
142500.0 488630.0 0
147500.0 488563.0 0
152501.0 488533.0 0
157561.0 488254.0 0
157050.0 492335.0 0
162511.0 488419.0 0
167017.0 488111.0 0
166683.0 492795.0 0
172818.0 492473.0 0
178219.0 492335.0 0
183388.0 491234.0 0
187454.0 487941.0 0
188464.0 492434.0 0
192500.0 488982.0 0
196195.0 488268.0 0
198148.0 492711.0 0
207676.0 488267.0 0
213037.0 487874.0 0
213683.0 492427.0 0
218156.0 488690.0 0
222507.0 488696.0 0
225894.0 488366.0 0
226947.0 492586.0 0
230398.0 488090.0 0
235812.0 488822.0 0
246492.0 489653.0 0
258979.0 488084.0 0
257077.0 492676.0 0
263714.0 489107.0 0
268715.0 488195.0 0
273914.0 488323.0 0
271707.0 492301.0 0
276880.0 492698.0 0
282040.0 490225.0 0
286345.0 488558.0 0
291729.0 489091.0 0
298150.0 492453.0 0
303601.0 487962.0 0
307771.0 490293.0 0
312138.0 488090.0 0
317939.0 488720.0 0
323256.0 488726.0 0
327597.0 488862.0 0
332222.0 488477.0 0
337240.0 488222.0 0
341052.0 489376.0 0
345992.0 487910.0 0
343220.0 492487.0 0
350894.0 489505.0 0
355525.0 488857.0 0
361751.0 492749.0 0
368115.0 489033.0 0
373124.0 492439.0 0
382646.0 488380.0 0
378969.0 492149.0 0
388173.0 492688.0 0
393353.0 492974.0 0
399079.0 488884.0 0
402860.0 492330.0 0
408236.0 491640.0 0
412500.0 488703.0 0
417500.0 488597.0 0
422582.0 487504.0 0
422201.0 492147.0 0
427290.0 488482.0 0
433088.0 491820.0 0
436940.0 488640.0 0
442536.0 492220.0 0
446894.0 491410.0 0
449473.0 487793.0 0
451504.0 492617.0 0
453785.0 488854.0 0
458427.0 487444.0 0
463542.0 489086.0 0
465905.0 492912.0 0
476276.0 493896.0 0
482002.0 492689.0 0
487259.0 494806.0 0
7181.26 498315.0 0
3247.18 500027.0 0
11313.4 500953.0 0
15364.7 497468.0 0
20256.0 494710.0 0
25674.2 494029.0 0
37269.5 493491.0 0
42379.1 494154.0 0
46233.0 493281.0 0
48104.8 497470.0 0
53535.2 494079.0 0
63167.7 493686.0 0
67503.8 493302.0 0
67728.8 498143.0 0
72262.5 493085.0 0
77500.0 493717.0 0
82116.1 493364.0 0
82011.0 498091.0 0
92500.0 493726.0 0
97219.4 493591.0 0
97546.2 498114.0 0
102467.0 493260.0 0
107945.0 497481.0 0
112500.0 493663.0 0
117500.0 493744.0 0
122500.0 493667.0 0
125901.0 497769.0 0
127678.0 493368.0 0
132451.0 493559.0 0
137520.0 493575.0 0
142752.0 493078.0 0
141080.0 497245.0 0
147094.0 493444.0 0
152103.0 493273.0 0
156355.0 496882.0 0
161468.0 493223.0 0
170101.0 497401.0 0
182264.0 496415.0 0
193449.0 493170.0 0
194321.0 498167.0 0
203877.0 493202.0 0
200030.0 497750.0 0
209311.0 493413.0 0
213300.0 497230.0 0
217706.0 493710.0 0
222140.0 493792.0 0
227148.0 497568.0 0
232244.0 493309.0 0
237748.0 494050.0 0
243347.0 494021.0 0
248271.0 493801.0 0
252496.0 494126.0 0
257613.0 497421.0 0
262387.0 493320.0 0
262600.0 498104.0 0
267346.0 493127.0 0
267377.0 497590.0 0
272929.0 497595.0 0
279849.0 496638.0 0
282741.0 493931.0 0
287500.0 493641.0 0
292613.0 493651.0 0
296793.0 497536.0 0
302970.0 493616.0 0
307492.0 493679.0 0
312501.0 493835.0 0
317500.0 493597.0 0
322503.0 493309.0 0
322469.0 497310.0 0
327500.0 493621.0 0
332500.0 493693.0 0
336591.0 497927.0 0
337617.0 493227.0 0
341455.0 496737.0 0
346850.0 497541.0 0
347628.0 493132.0 0
352592.0 493525.0 0
356160.0 497185.0 0
357913.0 493328.0 0
361382.0 497432.0 0
365434.0 492819.0 0
366675.0 496940.0 0
382078.0 493471.0 0
384483.0 496763.0 0
392476.0 497845.0 0
397938.0 493339.0 0
397253.0 497727.0 0
412720.0 492889.0 0
409165.0 497255.0 0
417388.0 493165.0 0
418928.0 497873.0 0
427692.0 493517.0 0
424026.0 496984.0 0
432055.0 497444.0 0
437500.0 493634.0 0
442071.0 497500.0 0
447914.0 496417.0 0
456671.0 493037.0 0
461867.0 494138.0 0
466694.0 496598.0 0
470106.0 498630.0 0
470725.0 493462.0 0
478153.0 498509.0 0
484071.0 498740.0 0
488509.0 502246.0 0
491321.0 498246.0 0
2206.72 503758.0 0
7093.03 504445.0 0
16260.6 502479.0 0
13260.1 505623.0 0
19723.1 499846.0 0
20211.2 503892.0 0
23588.8 498416.0 0
24368.9 502814.0 0
28933.2 498935.0 0
33659.0 498536.0 0
33218.7 503448.0 0
38823.2 498950.0 0
43450.6 498254.0 0
49162.0 502326.0 0
52110.0 499593.0 0
56691.8 498511.0 0
62200.9 498699.0 0
73679.1 498663.0 0
78266.0 498909.0 0
77127.1 502927.0 0
82186.2 503109.0 0
87013.4 498254.0 0
92531.5 498477.0 0
102630.0 499022.0 0
107684.0 502967.0 0
112500.0 498582.0 0
116806.0 498460.0 0
113040.0 502947.0 0
120908.0 498242.0 0
118065.0 502978.0 0
123339.0 502301.0 0
131210.0 499406.0 0
136490.0 499192.0 0
137701.0 503131.0 0
146398.0 498324.0 0
147873.0 503005.0 0
151914.0 499946.0 0
156925.0 502506.0 0
161777.0 498913.0 0
166579.0 500757.0 0
176388.0 498172.0 0
182225.0 501886.0 0
188134.0 498606.0 0
197182.0 502952.0 0
202985.0 502941.0 0
204283.0 498820.0 0
208073.0 498242.0 0
217709.0 498695.0 0
214475.0 502861.0 0
222507.0 498110.0 0
222426.0 502395.0 0
232536.0 498769.0 0
237519.0 498606.0 0
237450.0 501958.0 0
241955.0 499112.0 0
247099.0 498010.0 0
252091.0 499079.0 0
256121.0 502269.0 0
260582.0 502036.0 0
266420.0 502295.0 0
278332.0 502138.0 0
283565.0 498854.0 0
287225.0 498934.0 0
288606.0 502232.0 0
291099.0 498101.0 0
302245.0 498860.0 0
307674.0 498112.0 0
313181.0 499136.0 0
318189.0 498392.0 0
321165.0 502565.0 0
326898.0 498821.0 0
330080.0 502885.0 0
331932.0 498804.0 0
339957.0 502158.0 0
351955.0 498375.0 0
357560.0 501107.0 0
366959.0 501616.0 0
371330.0 498567.0 0
377865.0 498077.0 0
382847.0 502227.0 0
388529.0 499857.0 0
402837.0 498533.0 0
407984.0 502547.0 0
414339.0 499659.0 0
427632.0 499813.0 0
437095.0 498369.0 0
436739.0 502544.0 0
441421.0 503069.0 0
445949.0 501294.0 0
453730.0 498224.0 0
450184.0 501897.0 0
458648.0 498249.0 0
462948.0 498581.0 0
459976.0 502850.0 0
466786.0 500027.0 0
470666.0 503487.0 0
473946.0 500024.0 0
480630.0 502724.0 0
485016.0 504591.0 0
492110.0 502817.0 0
496622.0 501732.0 0
2146.35 507664.0 0
10626.2 508175.0 0
17845.3 508295.0 0
23785.6 508109.0 0
28268.3 505321.0 0
31280.5 508015.0 0
38555.3 504046.0 0
40622.5 508020.0 0
43980.1 503288.0 0
48342.1 507427.0 0
53867.2 503750.0 0
59133.7 503301.0 0
57241.3 507719.0 0
63529.0 503077.0 0
62993.0 507845.0 0
68013.6 503843.0 0
72564.9 503567.0 0
73067.5 507669.0 0
77986.0 508128.0 0
83271.6 508099.0 0
87367.8 503419.0 0
88070.6 508289.0 0
92309.6 503787.0 0
97789.2 503463.0 0
102798.0 504810.0 0
111437.0 507604.0 0
116760.0 508282.0 0
122205.0 507522.0 0
127500.0 503741.0 0
126992.0 508249.0 0
132600.0 504272.0 0
136622.0 507701.0 0
142510.0 503417.0 0
147015.0 507308.0 0
153363.0 504639.0 0
157933.0 508195.0 0
160548.0 503731.0 0
164552.0 504474.0 0
167044.0 507443.0 0
170824.0 503440.0 0
177028.0 504732.0 0
186648.0 504209.0 0
191654.0 503773.0 0
193582.0 507911.0 0
203134.0 508024.0 0
208761.0 504370.0 0
218899.0 503745.0 0
216501.0 507443.0 0
221336.0 507384.0 0
227880.0 503081.0 0
233945.0 503320.0 0
232135.0 508053.0 0
238003.0 506658.0 0
242241.0 503694.0 0
243006.0 508143.0 0
246763.0 503206.0 0
251701.0 504222.0 0
257812.0 507499.0 0
262750.0 505676.0 0
267610.0 508134.0 0
271814.0 503956.0 0
284260.0 503843.0 0
288758.0 507548.0 0
292856.0 503852.0 0
298806.0 503893.0 0
303875.0 503959.0 0
302639.0 508266.0 0
307500.0 503785.0 0
312305.0 503630.0 0
312067.0 508349.0 0
316370.0 503258.0 0
317170.0 507673.0 0
325971.0 504035.0 0
322521.0 508127.0 0
331114.0 508199.0 0
334592.0 504744.0 0
341474.0 507602.0 0
346202.0 503796.0 0
352930.0 503939.0 0
357912.0 507481.0 0
361920.0 503394.0 0
362941.0 508396.0 0
367173.0 506522.0 0
371830.0 504196.0 0
377773.0 505272.0 0
387333.0 503960.0 0
387914.0 508117.0 0
392967.0 504009.0 0
399421.0 503567.0 0
403135.0 507370.0 0
404191.0 503343.0 0
412279.0 504090.0 0
408260.0 507380.0 0
416825.0 503468.0 0
414318.0 507787.0 0
421301.0 504061.0 0
425779.0 503531.0 0
427440.0 507604.0 0
431126.0 503650.0 0
435826.0 507527.0 0
447610.0 506830.0 0
454477.0 504073.0 0
465343.0 504122.0 0
471645.0 508698.0 0
476364.0 505784.0 0
481801.0 507308.0 0
488692.0 506702.0 0
492316.0 506094.0 0
496781.0 508236.0 0
1476.88 511019.0 0
2740.99 514849.0 0
6438.61 510442.0 0
13241.0 511805.0 0
18289.8 513993.0 0
28675.4 511380.0 0
35784.4 508596.0 0
39409.0 512714.0 0
44121.7 510376.0 0
48467.6 513351.0 0
53034.7 509480.0 0
59590.3 512789.0 0
68288.8 509015.0 0
72006.0 511576.0 0
76266.1 513097.0 0
88091.8 513369.0 0
92500.0 508649.0 0
97453.4 508889.0 0
101404.0 508694.0 0
101686.0 513389.0 0
105807.0 508546.0 0
111181.0 512450.0 0
115510.0 512987.0 0
131302.0 508701.0 0
133403.0 513132.0 0
142221.0 509109.0 0
151806.0 509220.0 0
148421.0 513316.0 0
161370.0 512706.0 0
163599.0 508902.0 0
166854.0 512772.0 0
170992.0 509430.0 0
176734.0 510992.0 0
182831.0 508579.0 0
189087.0 508618.0 0
192211.0 513171.0 0
198188.0 508729.0 0
202523.0 512475.0 0
207431.0 509792.0 0
212179.0 508571.0 0
216390.0 513201.0 0
222685.0 513099.0 0
226388.0 509293.0 0
236346.0 511679.0 0
248188.0 508382.0 0
253013.0 508580.0 0
251111.0 512765.0 0
262916.0 511221.0 0
272684.0 509839.0 0
278417.0 508795.0 0
283521.0 508418.0 0
282132.0 512356.0 0
293397.0 508561.0 0
293009.0 512948.0 0
297419.0 509909.0 0
301855.0 512113.0 0
307240.0 508622.0 0
306294.0 513586.0 0
317012.0 512785.0 0
327354.0 509058.0 0
333982.0 512606.0 0
337167.0 508752.0 0
347057.0 509634.0 0
351979.0 509650.0 0
355887.0 511885.0 0
360756.0 513183.0 0
366714.0 513231.0 0
370469.0 509688.0 0
374797.0 509708.0 0
378796.0 513000.0 0
383036.0 508111.0 0
383624.0 512189.0 0
387434.0 512601.0 0
392164.0 510420.0 0
397974.0 509496.0 0
400419.0 513632.0 0
405266.0 512617.0 0
411917.0 512084.0 0
417670.0 508700.0 0
422603.0 508870.0 0
426973.0 511835.0 0
430956.0 509091.0 0
437022.0 512716.0 0
441541.0 508693.0 0
446998.0 513194.0 0
452965.0 509131.0 0
458130.0 508481.0 0
463381.0 509170.0 0
467740.0 509912.0 0
465794.0 513571.0 0
475424.0 511517.0 0
479673.0 510860.0 0
485836.0 509895.0 0
491245.0 510682.0 0
497460.0 513776.0 0
8192.31 515905.0 0
13826.3 517615.0 0
23860.6 513807.0 0
28856.1 516656.0 0
33838.6 513913.0 0
38135.5 517684.0 0
43737.1 514494.0 0
42676.6 518541.0 0
49614.6 518179.0 0
53972.0 514186.0 0
64746.5 513777.0 0
63368.1 517747.0 0
68189.2 513644.0 0
66960.5 518112.0 0
71736.7 516915.0 0
78025.2 518306.0 0
82098.0 513664.0 0
88116.7 518385.0 0
92836.2 513815.0 0
93006.4 518513.0 0
97102.6 513455.0 0
97911.8 517973.0 0
106613.0 513869.0 0
106068.0 518296.0 0
111014.0 517747.0 0
116860.0 517724.0 0
121025.0 513532.0 0
126645.0 518433.0 0
127580.0 513645.0 0
131627.0 517948.0 0
138802.0 513612.0 0
143797.0 513691.0 0
145398.0 518193.0 0
152802.0 513757.0 0
151093.0 518390.0 0
156981.0 513881.0 0
162223.0 517292.0 0
167323.0 517853.0 0
172341.0 515157.0 0
176890.0 515298.0 0
181170.0 515307.0 0
186674.0 513554.0 0
197698.0 514436.0 0
202693.0 517846.0 0
206601.0 514372.0 0
207660.0 518367.0 0
210702.0 513476.0 0
212208.0 517854.0 0
228266.0 514858.0 0
233919.0 515987.0 0
241201.0 514044.0 0
246586.0 514573.0 0
252059.0 517155.0 0
256888.0 513698.0 0
262501.0 518402.0 0
268335.0 513468.0 0
268653.0 518436.0 0
272866.0 514717.0 0
277778.0 514678.0 0
282680.0 517474.0 0
287137.0 513676.0 0
292925.0 518267.0 0
297899.0 515091.0 0
302532.0 518102.0 0
311503.0 514028.0 0
313173.0 518615.0 0
317534.0 518302.0 0
322497.0 514043.0 0
328126.0 513678.0 0
337974.0 515590.0 0
342663.0 513459.0 0
348372.0 514350.0 0
351470.0 518484.0 0
352656.0 514034.0 0
356337.0 516517.0 0
372682.0 514584.0 0
383701.0 516614.0 0
391142.0 515200.0 0
396172.0 515305.0 0
403478.0 518526.0 0
409101.0 517470.0 0
417823.0 513515.0 0
414010.0 518147.0 0
422879.0 514757.0 0
420471.0 518304.0 0
427825.0 518219.0 0
432161.0 513610.0 0
433445.0 517902.0 0
437958.0 517589.0 0
441808.0 514166.0 0
452400.0 514338.0 0
457796.0 514218.0 0
461976.0 513944.0 0
467398.0 518325.0 0
471021.0 514053.0 0
476340.0 516096.0 0
482447.0 515079.0 0
487691.0 514455.0 0
488158.0 519249.0 0
492394.0 515916.0 0
496552.0 518601.0 0
3058.36 520286.0 0
9056.44 521502.0 0
18817.8 520824.0 0
24133.1 519433.0 0
27805.1 523984.0 0
33469.2 519515.0 0
37607.1 523723.0 0
46498.9 522096.0 0
53652.5 519024.0 0
58548.2 518662.0 0
63497.1 522916.0 0
68470.2 521475.0 0
83458.8 519494.0 0
89993.4 522951.0 0
98254.3 522167.0 0
102209.0 518811.0 0
105605.0 522759.0 0
118498.0 523226.0 0
122735.0 519022.0 0
124064.0 523566.0 0
128571.0 521826.0 0
135633.0 519747.0 0
140102.0 519096.0 0
137888.0 522893.0 0
147389.0 523517.0 0
157088.0 519221.0 0
161976.0 522805.0 0
167286.0 522807.0 0
171637.0 520437.0 0
176330.0 519056.0 0
181112.0 520925.0 0
185896.0 518876.0 0
191653.0 519071.0 0
197414.0 519987.0 0
201934.0 523512.0 0
207462.0 523343.0 0
217257.0 519640.0 0
223350.0 519202.0 0
228952.0 520924.0 0
233354.0 520439.0 0
238378.0 519607.0 0
243790.0 519293.0 0
241893.0 523234.0 0
248579.0 518932.0 0
246343.0 523377.0 0
251366.0 522639.0 0
255491.0 519735.0 0
273358.0 519238.0 0
278284.0 520061.0 0
287739.0 519695.0 0
293259.0 523012.0 0
297543.0 520176.0 0
308296.0 518838.0 0
311838.0 522626.0 0
316538.0 522832.0 0
322281.0 519600.0 0
326251.0 523483.0 0
326279.0 518333.0 0
330508.0 518635.0 0
335566.0 518977.0 0
340806.0 519423.0 0
346353.0 520335.0 0
351590.0 523614.0 0
356605.0 521859.0 0
361132.0 519008.0 0
366725.0 518959.0 0
371387.0 519544.0 0
377456.0 520099.0 0
387860.0 519832.0 0
392711.0 519686.0 0
398182.0 520911.0 0
411567.0 522720.0 0
417288.0 518184.0 0
417034.0 521977.0 0
422759.0 523027.0 0
432717.0 522475.0 0
438387.0 523164.0 0
442726.0 518942.0 0
448346.0 519209.0 0
453766.0 519091.0 0
458250.0 519204.0 0
455200.0 523489.0 0
462576.0 518634.0 0
467988.0 523392.0 0
472701.0 519384.0 0
479619.0 519703.0 0
477030.0 523838.0 0
483938.0 519627.0 0
481644.0 523938.0 0
485833.0 523354.0 0
492447.0 520051.0 0
489793.0 523236.0 0
497786.0 523010.0 0
2125.28 525122.0 0
2233.38 529291.0 0
6939.71 527080.0 0
14275.2 524474.0 0
19101.9 525698.0 0
22662.9 523859.0 0
23013.2 528744.0 0
32658.9 523834.0 0
32568.6 527250.0 0
42607.4 525360.0 0
47126.3 528539.0 0
51453.2 524371.0 0
52928.5 529009.0 0
57344.5 524768.0 0
62154.7 528329.0 0
67881.1 528307.0 0
73389.3 524391.0 0
79646.1 523839.0 0
78195.4 528512.0 0
84940.7 524435.0 0
94794.3 524975.0 0
101207.0 525279.0 0
97815.1 528103.0 0
105749.0 528227.0 0
111317.0 524091.0 0
121748.0 528327.0 0
128230.0 527966.0 0
133409.0 523934.0 0
137491.0 527174.0 0
141900.0 524019.0 0
152940.0 523699.0 0
157335.0 524801.0 0
153603.0 528494.0 0
158078.0 528970.0 0
163173.0 528613.0 0
170910.0 524383.0 0
168505.0 527824.0 0
173427.0 527565.0 0
177088.0 524026.0 0
177734.0 528490.0 0
182391.0 525743.0 0
187140.0 523859.0 0
191772.0 524358.0 0
196622.0 525453.0 0
213292.0 523620.0 0
212272.0 528508.0 0
219995.0 524649.0 0
225099.0 524461.0 0
228824.0 525021.0 0
232448.0 524142.0 0
231202.0 528350.0 0
237172.0 524898.0 0
241400.0 528174.0 0
246805.0 528270.0 0
252459.0 528085.0 0
257793.0 524944.0 0
262726.0 524421.0 0
268180.0 524045.0 0
273949.0 524155.0 0
279291.0 525545.0 0
284664.0 523974.0 0
283642.0 528311.0 0
289527.0 524610.0 0
292438.0 528017.0 0
296943.0 525183.0 0
302459.0 524006.0 0
307449.0 524277.0 0
307418.0 528714.0 0
311892.0 527838.0 0
321081.0 524646.0 0
317163.0 527578.0 0
328003.0 528204.0 0
331546.0 523767.0 0
337198.0 524281.0 0
343100.0 524826.0 0
342292.0 528751.0 0
346927.0 524940.0 0
349772.0 527701.0 0
355847.0 528061.0 0
362182.0 525034.0 0
366936.0 528556.0 0
367431.0 523794.0 0
372055.0 524003.0 0
378561.0 526666.0 0
382417.0 524009.0 0
387061.0 524515.0 0
391601.0 524214.0 0
388080.0 528896.0 0
392559.0 528598.0 0
395947.0 525523.0 0
400565.0 525847.0 0
405872.0 524452.0 0
412593.0 527839.0 0
417391.0 527086.0 0
428200.0 524658.0 0
425020.0 528382.0 0
431867.0 528142.0 0
444285.0 523891.0 0
450029.0 525513.0 0
454044.0 528423.0 0
460822.0 524216.0 0
465121.0 526019.0 0
468616.0 528648.0 0
472442.0 524999.0 0
478323.0 528658.0 0
486962.0 527397.0 0
493767.0 525107.0 0
2123.83 533423.0 0
6907.62 532828.0 0
12261.8 530282.0 0
17799.8 529905.0 0
15933.8 533637.0 0
19946.2 534018.0 0
24765.0 533898.0 0
28789.1 530071.0 0
36340.1 529487.0 0
41360.6 529609.0 0
53479.3 533516.0 0
57614.3 530894.0 0
62546.3 533658.0 0
67210.9 533621.0 0
73594.2 531085.0 0
78951.5 533867.0 0
82917.5 529256.0 0
88792.1 528973.0 0
93975.9 529515.0 0
92508.1 533501.0 0
101254.0 529549.0 0
97443.8 532478.0 0
102594.0 533901.0 0
110353.0 529375.0 0
107342.0 532909.0 0
111987.0 533541.0 0
115631.0 528963.0 0
123278.0 533576.0 0
127781.0 533333.0 0
133632.0 528758.0 0
142041.0 529266.0 0
138504.0 533115.0 0
148132.0 530002.0 0
151911.0 533759.0 0
156600.0 533775.0 0
161572.0 533585.0 0
166846.0 532643.0 0
173146.0 533715.0 0
178503.0 533889.0 0
181529.0 530275.0 0
186341.0 529075.0 0
191427.0 528840.0 0
189489.0 533821.0 0
195907.0 530971.0 0
201247.0 529081.0 0
199562.0 533916.0 0
207247.0 529325.0 0
212657.0 533208.0 0
216984.0 529454.0 0
221769.0 529522.0 0
223234.0 533654.0 0
226303.0 528976.0 0
227637.0 533750.0 0
232500.0 533600.0 0
236013.0 529510.0 0
238117.0 533809.0 0
247207.0 533059.0 0
257573.0 530085.0 0
263876.0 529835.0 0
269758.0 529641.0 0
274735.0 529069.0 0
271620.0 533512.0 0
279472.0 530901.0 0
283700.0 532673.0 0
288249.0 529581.0 0
293182.0 532593.0 0
298277.0 530192.0 0
303255.0 529118.0 0
302500.0 533648.0 0
306999.0 533209.0 0
312129.0 533489.0 0
317301.0 532455.0 0
323228.0 529553.0 0
325384.0 533506.0 0
329285.0 532856.0 0
332741.0 528808.0 0
337480.0 529559.0 0
340179.0 533081.0 0
345857.0 528953.0 0
344806.0 533242.0 0
350708.0 533271.0 0
361136.0 530183.0 0
369735.0 533394.0 0
373755.0 529132.0 0
378355.0 531125.0 0
383179.0 529564.0 0
388238.0 533336.0 0
397809.0 529490.0 0
393195.0 533612.0 0
401955.0 534017.0 0
403556.0 529782.0 0
408289.0 529412.0 0
406428.0 533886.0 0
412390.0 533637.0 0
418239.0 532831.0 0
420907.0 529603.0 0
428495.0 531961.0 0
437591.0 529329.0 0
443518.0 529402.0 0
450251.0 531884.0 0
458296.0 529499.0 0
455561.0 533587.0 0
459399.0 533498.0 0
463311.0 529720.0 0
462513.0 533741.0 0
466694.0 533797.0 0
473647.0 529407.0 0
471717.0 533631.0 0
476979.0 533934.0 0
483086.0 529413.0 0
481841.0 534045.0 0
486488.0 533096.0 0
491407.0 530081.0 0
497407.0 528847.0 0
497811.0 533589.0 0
3066.71 538313.0 0
8628.09 537204.0 0
12522.1 535608.0 0
16282.3 537857.0 0
21139.7 538870.0 0
32185.3 534219.0 0
32656.6 538438.0 0
37619.5 535165.0 0
43326.1 534166.0 0
41814.4 539165.0 0
48674.8 534519.0 0
53251.2 538563.0 0
57229.8 535740.0 0
62671.4 538075.0 0
71186.4 535876.0 0
67085.8 538065.0 0
84092.3 533993.0 0
82406.8 537842.0 0
86460.0 537615.0 0
88162.6 533972.0 0
91317.7 538409.0 0
96715.7 537600.0 0
101378.0 538518.0 0
106505.0 538041.0 0
118008.0 534466.0 0
123316.0 538816.0 0
128469.0 537813.0 0
132824.0 533808.0 0
138678.0 538822.0 0
143094.0 534116.0 0
147660.0 535952.0 0
143777.0 538163.0 0
152554.0 538384.0 0
157500.0 538631.0 0
162807.0 537726.0 0
167989.0 538043.0 0
177369.0 538888.0 0
183797.0 534700.0 0
187152.0 538751.0 0
192281.0 538773.0 0
193974.0 534793.0 0
197916.0 538686.0 0
203663.0 534665.0 0
202853.0 538678.0 0
208058.0 534539.0 0
212102.0 538165.0 0
219033.0 534284.0 0
222519.0 538194.0 0
227589.0 538940.0 0
232743.0 538317.0 0
237363.0 538072.0 0
242652.0 534246.0 0
241554.0 539049.0 0
246276.0 538004.0 0
252439.0 534293.0 0
250620.0 539104.0 0
254785.0 538843.0 0
257587.0 534384.0 0
262377.0 535990.0 0
267584.0 534107.0 0
272433.0 537375.0 0
275944.0 533950.0 0
283015.0 538067.0 0
288012.0 534885.0 0
292508.0 538184.0 0
298593.0 534932.0 0
297101.0 538854.0 0
301788.0 538546.0 0
306757.0 537923.0 0
311568.0 538770.0 0
316321.0 537305.0 0
320607.0 538874.0 0
321709.0 534528.0 0
326309.0 538367.0 0
334884.0 534171.0 0
343635.0 538102.0 0
348419.0 538567.0 0
357195.0 534947.0 0
363642.0 534844.0 0
367833.0 538927.0 0
375183.0 534432.0 0
372509.0 538417.0 0
379929.0 535022.0 0
382457.0 537984.0 0
384075.0 534697.0 0
386903.0 537812.0 0
391366.0 538090.0 0
397865.0 533734.0 0
395982.0 537885.0 0
401128.0 538860.0 0
406282.0 538686.0 0
417011.0 537905.0 0
423404.0 533518.0 0
427971.0 538161.0 0
433636.0 534291.0 0
439871.0 535314.0 0
445158.0 534061.0 0
448335.0 536538.0 0
452865.0 538413.0 0
458239.0 537233.0 0
462899.0 537893.0 0
467918.0 538702.0 0
473224.0 538681.0 0
478129.0 538733.0 0
482481.0 538793.0 0
486058.0 537997.0 0
492441.0 535123.0 0
491191.0 539272.0 0
496168.0 538195.0 0
2830.07 544086.0 0
7504.82 541538.0 0
12145.7 540122.0 0
12223.5 543755.0 0
16841.5 543402.0 0
23241.6 544302.0 0
27267.5 539217.0 0
32554.7 542608.0 0
37212.3 540482.0 0
47967.1 539971.0 0
51656.9 543063.0 0
58976.1 539424.0 0
56159.7 542848.0 0
61392.6 543418.0 0
67218.8 543571.0 0
71868.1 539987.0 0
76622.9 539144.0 0
81131.2 542138.0 0
87076.1 543184.0 0
98686.2 542876.0 0
103838.0 543067.0 0
108703.0 543352.0 0
112473.0 539030.0 0
118139.0 539823.0 0
123768.0 543826.0 0
128601.0 542957.0 0
133216.0 539268.0 0
133224.0 543763.0 0
142962.0 542278.0 0
146892.0 540281.0 0
146642.0 544303.0 0
150582.0 542448.0 0
155546.0 542705.0 0
161093.0 542597.0 0
167118.0 544051.0 0
172421.0 539508.0 0
172889.0 543821.0 0
178065.0 544374.0 0
182495.0 539592.0 0
189088.0 543549.0 0
193999.0 543365.0 0
203574.0 542970.0 0
207270.0 539406.0 0
213073.0 543170.0 0
217272.0 539382.0 0
222500.0 543701.0 0
227500.0 543620.0 0
232492.0 542573.0 0
236487.0 542361.0 0
241010.0 543405.0 0
246219.0 543701.0 0
252665.0 543965.0 0
258969.0 539562.0 0
257727.0 543223.0 0
262489.0 542702.0 0
267326.0 539422.0 0
272392.0 542012.0 0
277100.0 539183.0 0
282589.0 543809.0 0
288005.0 539450.0 0
287580.0 543824.0 0
292885.0 543655.0 0
297535.0 542739.0 0
306546.0 542779.0 0
311548.0 543981.0 0
317348.0 543087.0 0
323046.0 543527.0 0
326873.0 543324.0 0
332795.0 540024.0 0
338492.0 539205.0 0
345087.0 542646.0 0
349884.0 543224.0 0
353364.0 539303.0 0
358806.0 540349.0 0
363396.0 540312.0 0
367102.0 544180.0 0
372461.0 543297.0 0
377522.0 539605.0 0
382708.0 542700.0 0
388798.0 542678.0 0
397038.0 542733.0 0
407336.0 543311.0 0
411501.0 539952.0 0
416989.0 543574.0 0
421943.0 539914.0 0
421754.0 544578.0 0
431947.0 543518.0 0
435542.0 539524.0 0
440073.0 540225.0 0
444537.0 539075.0 0
448586.0 539592.0 0
447777.0 542983.0 0
457528.0 542101.0 0
462808.0 543030.0 0
467983.0 543747.0 0
472847.0 543756.0 0
477862.0 543566.0 0
482473.0 543958.0 0
487474.0 543196.0 0
493301.0 543313.0 0
497793.0 542763.0 0
2514.97 549337.0 0
9491.17 545373.0 0
7206.09 548825.0 0
12019.8 549030.0 0
28139.1 544326.0 0
28590.8 548799.0 0
32487.4 547107.0 0
37897.9 546080.0 0
44121.7 544323.0 0
48883.1 546000.0 0
52600.5 548930.0 0
57844.7 547723.0 0
63773.5 549092.0 0
68921.7 549154.0 0
72935.6 544552.0 0
71711.1 548292.0 0
77800.0 545536.0 0
81190.5 549361.0 0
93175.1 544448.0 0
92065.9 548969.0 0
96773.7 548697.0 0
101940.0 547354.0 0
113837.0 544381.0 0
118879.0 545047.0 0
123372.0 548865.0 0
128493.0 548105.0 0
133376.0 548285.0 0
137686.0 544195.0 0
141591.0 546850.0 0
145590.0 549047.0 0
150862.0 548146.0 0
156907.0 547885.0 0
162767.0 548527.0 0
170665.0 548623.0 0
183331.0 544414.0 0
179301.0 549123.0 0
182821.0 548352.0 0
186858.0 548495.0 0
192232.0 548144.0 0
198814.0 544310.0 0
202600.0 547780.0 0
208183.0 544447.0 0
206795.0 549457.0 0
211045.0 548412.0 0
217778.0 544681.0 0
215650.0 549036.0 0
221055.0 549130.0 0
231757.0 546688.0 0
237827.0 548316.0 0
244077.0 548931.0 0
249100.0 548574.0 0
257382.0 546564.0 0
260311.0 548615.0 0
268660.0 544087.0 0
265429.0 547734.0 0
272294.0 548298.0 0
276538.0 544200.0 0
279355.0 548912.0 0
285240.0 548136.0 0
289865.0 547752.0 0
296959.0 547913.0 0
301697.0 544700.0 0
306542.0 548065.0 0
318463.0 548891.0 0
323626.0 548457.0 0
331310.0 544323.0 0
328337.0 546815.0 0
335397.0 545121.0 0
332570.0 549344.0 0
340551.0 544103.0 0
337536.0 549409.0 0
341520.0 548567.0 0
346309.0 547617.0 0
355502.0 545012.0 0
361558.0 544938.0 0
368947.0 548792.0 0
377490.0 545313.0 0
373321.0 548139.0 0
381343.0 548432.0 0
386938.0 548830.0 0
393143.0 544833.0 0
393329.0 549645.0 0
402156.0 544462.0 0
398568.0 548260.0 0
402986.0 549329.0 0
407863.0 548575.0 0
411893.0 545228.0 0
415511.0 549255.0 0
426314.0 544235.0 0
424571.0 548161.0 0
428905.0 548856.0 0
437777.0 544295.0 0
433993.0 548466.0 0
443131.0 544066.0 0
442636.0 548294.0 0
447536.0 548231.0 0
452533.0 544267.0 0
458003.0 547911.0 0
463279.0 547795.0 0
468041.0 549015.0 0
473307.0 548163.0 0
478111.0 548715.0 0
482822.0 548217.0 0
487489.0 548716.0 0
492472.0 548214.0 0
497557.0 547324.0 0
2474.55 554258.0 0
7674.79 553802.0 0
11975.4 553199.0 0
17415.3 549655.0 0
23163.5 550293.0 0
26857.2 554303.0 0
34069.0 552147.0 0
39392.3 551012.0 0
43335.8 549747.0 0
44482.3 554281.0 0
47760.6 549830.0 0
48515.3 553588.0 0
52776.7 554085.0 0
59064.6 552824.0 0
63862.5 554195.0 0
67585.4 553552.0 0
75407.0 550171.0 0
71653.7 553417.0 0
78364.2 553828.0 0
82360.8 554407.0 0
87143.4 549824.0 0
92357.0 553702.0 0
97353.6 553757.0 0
102485.0 553209.0 0
107501.0 549378.0 0
110942.0 553825.0 0
113382.0 549356.0 0
118408.0 550236.0 0
126511.0 553587.0 0
132362.0 553283.0 0
137705.0 549788.0 0
137056.0 554223.0 0
142120.0 553087.0 0
147516.0 552938.0 0
157133.0 552997.0 0
161772.0 554001.0 0
167029.0 552808.0 0
172326.0 553612.0 0
175072.0 550087.0 0
177947.0 554374.0 0
183349.0 552520.0 0
189814.0 553174.0 0
197584.0 549869.0 0
194826.0 554438.0 0
203061.0 553481.0 0
207507.0 553614.0 0
212369.0 553485.0 0
217568.0 553776.0 0
223259.0 553864.0 0
226977.0 549219.0 0
227546.0 554189.0 0
232593.0 553525.0 0
238747.0 554234.0 0
242826.0 553227.0 0
247143.0 553045.0 0
254394.0 549994.0 0
262493.0 552814.0 0
267969.0 552942.0 0
283626.0 552349.0 0
288688.0 552780.0 0
292932.0 550559.0 0
298593.0 553962.0 0
301858.0 549999.0 0
302613.0 553992.0 0
307500.0 553599.0 0
312430.0 550030.0 0
316510.0 553833.0 0
321417.0 553871.0 0
327745.0 552581.0 0
333460.0 554375.0 0
340859.0 552634.0 0
346478.0 554176.0 0
351629.0 549479.0 0
358941.0 549527.0 0
364353.0 549440.0 0
362809.0 553352.0 0
367727.0 554015.0 0
377281.0 550353.0 0
373318.0 553060.0 0
383241.0 554131.0 0
397838.0 552708.0 0
402333.0 553961.0 0
407883.0 554327.0 0
417901.0 553131.0 0
420896.0 550027.0 0
420959.0 554275.0 0
426161.0 554219.0 0
432111.0 553215.0 0
438573.0 549445.0 0
436770.0 553365.0 0
442393.0 553202.0 0
452773.0 549250.0 0
453200.0 553355.0 0
458218.0 554373.0 0
463442.0 552270.0 0
467860.0 554286.0 0
471752.0 551950.0 0
476265.0 553713.0 0
480918.0 552112.0 0
485413.0 553213.0 0
490683.0 553677.0 0
496138.0 552549.0 0
3199.69 559333.0 0
8253.44 558880.0 0
12754.7 558576.0 0
15697.2 554714.0 0
17416.1 559427.0 0
20909.9 555347.0 0
26181.4 559221.0 0
30817.6 557675.0 0
39782.3 555265.0 0
35730.2 557920.0 0
42877.4 558478.0 0
47542.4 557610.0 0
51572.5 558137.0 0
56718.0 558152.0 0
62444.4 558123.0 0
67233.5 558704.0 0
72582.4 558577.0 0
78140.4 557913.0 0
82749.8 558810.0 0
87017.9 555395.0 0
86688.2 559520.0 0
90518.8 558815.0 0
95580.9 558747.0 0
101472.0 558850.0 0
106970.0 555364.0 0
115724.0 554717.0 0
112146.0 558539.0 0
120975.0 554866.0 0
118135.0 559422.0 0
123083.0 559321.0 0
127485.0 558724.0 0
132069.0 558761.0 0
137098.0 558809.0 0
145890.0 557818.0 0
152271.0 553931.0 0
155801.0 557797.0 0
169104.0 559152.0 0
181400.0 559357.0 0
185973.0 556928.0 0
190787.0 558377.0 0
199189.0 555045.0 0
195531.0 559060.0 0
204707.0 557981.0 0
208695.0 559096.0 0
212361.0 558150.0 0
217240.0 559206.0 0
222404.0 558494.0 0
227381.0 558763.0 0
232608.0 557831.0 0
236743.0 559023.0 0
242126.0 557730.0 0
247410.0 558138.0 0
251866.0 554638.0 0
252039.0 558884.0 0
257503.0 554525.0 0
261884.0 558183.0 0
267447.0 557623.0 0
273219.0 555078.0 0
279512.0 555015.0 0
284832.0 557379.0 0
289942.0 557571.0 0
293521.0 555069.0 0
293593.0 559663.0 0
297299.0 558322.0 0
302163.0 557196.0 0
307578.0 557696.0 0
310800.0 559553.0 0
312857.0 555838.0 0
317015.0 558498.0 0
326517.0 557962.0 0
331497.0 559255.0 0
336362.0 559251.0 0
337854.0 555410.0 0
341555.0 558551.0 0
350814.0 558598.0 0
352474.0 554469.0 0
358089.0 555153.0 0
363427.0 558480.0 0
368512.0 559241.0 0
372675.0 558029.0 0
377848.0 555029.0 0
381527.0 558687.0 0
386030.0 559139.0 0
389001.0 554616.0 0
391744.0 559632.0 0
394002.0 554874.0 0
397942.0 558403.0 0
403519.0 558982.0 0
408216.0 559425.0 0
412593.0 559604.0 0
413671.0 554666.0 0
417319.0 558650.0 0
422192.0 558234.0 0
433109.0 559119.0 0
438763.0 557488.0 0
448432.0 554982.0 0
443836.0 558671.0 0
453023.0 558154.0 0
462493.0 559015.0 0
467548.0 558982.0 0
471902.0 557364.0 0
476159.0 558620.0 0
481215.0 557447.0 0
486951.0 558127.0 0
497275.0 558102.0 0
8069.2 563887.0 0
14967.5 563668.0 0
19987.7 564206.0 0
22006.3 559916.0 0
25469.7 564093.0 0
32520.3 564426.0 0
39283.3 561542.0 0
47271.2 562882.0 0
52717.6 562260.0 0
57855.4 564328.0 0
63791.2 563402.0 0
69560.1 563867.0 0
74640.0 564252.0 0
79046.1 562628.0 0
83054.5 563795.0 0
87642.5 563975.0 0
93238.4 564049.0 0
98937.5 564069.0 0
103968.0 564224.0 0
106960.0 560294.0 0
107249.0 564345.0 0
111616.0 564296.0 0
119976.0 564233.0 0
123811.0 563890.0 0
128288.0 563376.0 0
132832.0 563073.0 0
136863.0 563499.0 0
141534.0 560194.0 0
141046.0 564388.0 0
146405.0 563732.0 0
151010.0 560150.0 0
156539.0 563752.0 0
161659.0 560253.0 0
172448.0 563957.0 0
175773.0 560122.0 0
179075.0 563626.0 0
183869.0 564575.0 0
188977.0 562792.0 0
193334.0 563658.0 0
197338.0 563843.0 0
200164.0 560586.0 0
203080.0 564053.0 0
207445.0 562020.0 0
212428.0 563530.0 0
217541.0 563715.0 0
221699.0 563314.0 0
226485.0 563738.0 0
231682.0 562067.0 0
236657.0 563946.0 0
241364.0 562992.0 0
248741.0 563000.0 0
252959.0 562618.0 0
256670.0 559752.0 0
260453.0 562821.0 0
265741.0 562592.0 0
271297.0 560431.0 0
273160.0 564109.0 0
276688.0 559707.0 0
275845.0 563615.0 0
282000.0 562890.0 0
288365.0 562394.0 0
293554.0 564334.0 0
298716.0 562735.0 0
304617.0 561639.0 0
309401.0 563071.0 0
314209.0 561753.0 0
318202.0 563112.0 0
321817.0 559817.0 0
327519.0 562604.0 0
332500.0 563766.0 0
336766.0 563843.0 0
341758.0 564115.0 0
346853.0 564127.0 0
346920.0 559765.0 0
351667.0 563029.0 0
354911.0 559569.0 0
357449.0 563621.0 0
368548.0 563481.0 0
377189.0 560139.0 0
373489.0 564375.0 0
379251.0 564535.0 0
382695.0 562374.0 0
396120.0 563138.0 0
400925.0 563735.0 0
406077.0 563376.0 0
411343.0 564754.0 0
417070.0 564085.0 0
422201.0 563095.0 0
427005.0 560480.0 0
438071.0 562863.0 0
448504.0 560819.0 0
443982.0 564473.0 0
453257.0 563509.0 0
457270.0 560042.0 0
458196.0 564138.0 0
462126.0 564022.0 0
467155.0 563987.0 0
472170.0 562243.0 0
478120.0 563214.0 0
483687.0 562303.0 0
487953.0 562649.0 0
492051.0 559850.0 0
491691.0 564803.0 0
496462.0 563555.0 0
2743.12 564725.0 0
2121.86 569528.0 0
6669.45 568809.0 0
11813.7 566325.0 0
16418.1 568874.0 0
22199.8 569007.0 0
26865.8 568734.0 0
37863.8 569843.0 0
42504.2 566018.0 0
47257.6 568006.0 0
52232.9 567622.0 0
62763.3 568768.0 0
67672.0 569283.0 0
72747.6 568802.0 0
77909.4 568523.0 0
83392.9 568519.0 0
88699.9 568983.0 0
93402.9 568892.0 0
97341.6 568613.0 0
102431.0 569392.0 0
107442.0 567592.0 0
116211.0 567192.0 0
120516.0 569923.0 0
126127.0 568485.0 0
131935.0 567838.0 0
137543.0 568351.0 0
143393.0 569205.0 0
151823.0 565459.0 0
148492.0 568559.0 0
157653.0 568658.0 0
161118.0 565873.0 0
163124.0 568726.0 0
166224.0 565259.0 0
171110.0 567925.0 0
176176.0 567929.0 0
188825.0 568008.0 0
193914.0 568549.0 0
199139.0 568342.0 0
203511.0 569688.0 0
207373.0 566927.0 0
216269.0 569107.0 0
221754.0 567611.0 0
226349.0 569057.0 0
232276.0 568136.0 0
238238.0 568464.0 0
245242.0 567584.0 0
251869.0 567684.0 0
256536.0 564713.0 0
257386.0 569197.0 0
262218.0 567430.0 0
269878.0 566933.0 0
274157.0 569223.0 0
277878.0 566764.0 0
283034.0 569271.0 0
288536.0 567693.0 0
296930.0 567521.0 0
302680.0 568003.0 0
308451.0 568890.0 0
312609.0 566305.0 0
318113.0 568413.0 0
323008.0 565164.0 0
328595.0 567760.0 0
333798.0 569545.0 0
339254.0 568829.0 0
344542.0 568523.0 0
349549.0 568136.0 0
354054.0 567039.0 0
358538.0 569699.0 0
363255.0 564804.0 0
368095.0 568163.0 0
372344.0 568889.0 0
376973.0 568971.0 0
382480.0 568138.0 0
387089.0 564760.0 0
387497.0 569378.0 0
392379.0 565336.0 0
392241.0 569434.0 0
396357.0 568502.0 0
401411.0 569189.0 0
406845.0 568494.0 0
411331.0 569589.0 0
415617.0 569129.0 0
421245.0 568670.0 0
426387.0 566062.0 0
431444.0 564792.0 0
430776.0 569403.0 0
436002.0 568827.0 0
448958.0 565593.0 0
446796.0 568796.0 0
451390.0 569910.0 0
456260.0 567964.0 0
461557.0 569064.0 0
466970.0 569354.0 0
472909.0 567393.0 0
478008.0 568656.0 0
482298.0 566639.0 0
487520.0 567689.0 0
493216.0 568698.0 0
498091.0 567957.0 0
2885.47 574295.0 0
8310.26 573696.0 0
11094.2 570010.0 0
12844.4 573301.0 0
16604.3 573694.0 0
20663.5 573699.0 0
25580.9 574781.0 0
31384.9 572270.0 0
43955.0 570491.0 0
41741.8 574334.0 0
47396.4 574386.0 0
53038.2 573677.0 0
57470.4 570385.0 0
63599.1 573918.0 0
68312.7 573768.0 0
72493.3 573635.0 0
77232.6 573609.0 0
82075.4 573655.0 0
86345.3 572633.0 0
91329.2 573472.0 0
96816.6 573002.0 0
111921.0 570598.0 0
116632.0 573176.0 0
121164.0 574682.0 0
125950.0 574384.0 0
132173.0 573975.0 0
137897.0 574014.0 0
142958.0 574571.0 0
147719.0 573113.0 0
152824.0 574489.0 0
153205.0 569868.0 0
157739.0 573635.0 0
162946.0 573240.0 0
167775.0 570567.0 0
172659.0 572799.0 0
178403.0 573094.0 0
182232.0 570082.0 0
186683.0 572628.0 0
192369.0 573274.0 0
197132.0 573668.0 0
201644.0 573473.0 0
207284.0 573595.0 0
210922.0 570490.0 0
212749.0 573742.0 0
221839.0 572257.0 0
227576.0 573979.0 0
232324.0 573772.0 0
237223.0 573638.0 0
241809.0 572277.0 0
246244.0 572915.0 0
250864.0 573554.0 0
255489.0 573207.0 0
260918.0 573879.0 0
266289.0 571103.0 0
271323.0 572956.0 0
277721.0 572837.0 0
288082.0 572932.0 0
292823.0 569929.0 0
297947.0 572739.0 0
302931.0 573542.0 0
307609.0 573829.0 0
313707.0 573380.0 0
318617.0 573182.0 0
323825.0 570581.0 0
329083.0 573175.0 0
333249.0 573792.0 0
336789.0 573434.0 0
342505.0 573951.0 0
347834.0 573687.0 0
353031.0 572585.0 0
363782.0 570374.0 0
367613.0 573680.0 0
373357.0 573548.0 0
378115.0 573889.0 0
382402.0 573361.0 0
387500.0 573915.0 0
391095.0 573734.0 0
394435.0 573159.0 0
398209.0 573102.0 0
406108.0 574479.0 0
412568.0 574131.0 0
418181.0 573798.0 0
423293.0 573827.0 0
427790.0 569930.0 0
428133.0 573851.0 0
433023.0 573946.0 0
437904.0 574405.0 0
442223.0 570398.0 0
442002.0 575040.0 0
447281.0 573542.0 0
456375.0 573059.0 0
461256.0 574678.0 0
466238.0 574247.0 0
470842.0 572212.0 0
476005.0 573588.0 0
482515.0 572646.0 0
488745.0 573091.0 0
497009.0 572650.0 0
2489.71 578742.0 0
7266.25 578468.0 0
12146.3 577330.0 0
17807.5 577987.0 0
22264.6 578647.0 0
25806.5 579321.0 0
33650.3 577868.0 0
37293.8 575203.0 0
41452.1 579553.0 0
46415.7 579710.0 0
51574.1 579019.0 0
58768.2 575647.0 0
56775.8 579804.0 0
62358.7 579431.0 0
67679.3 578563.0 0
72644.3 578230.0 0
76762.7 579226.0 0
81441.8 578792.0 0
87151.2 577625.0 0
92441.5 578706.0 0
101434.0 575478.0 0
97384.3 578807.0 0
107508.0 575418.0 0
111706.0 579341.0 0
113248.0 575390.0 0
117445.0 578750.0 0
123240.0 578848.0 0
128775.0 579411.0 0
134049.0 579013.0 0
137950.0 578746.0 0
142169.0 578676.0 0
147406.0 578848.0 0
152981.0 579400.0 0
159136.0 578010.0 0
163056.0 578449.0 0
167743.0 575591.0 0
172540.0 577071.0 0
178148.0 578607.0 0
182773.0 575178.0 0
188417.0 577623.0 0
194069.0 578363.0 0
199199.0 578079.0 0
204279.0 578561.0 0
209601.0 578847.0 0
214067.0 577520.0 0
217549.0 575059.0 0
217509.0 579442.0 0
221997.0 577727.0 0
226051.0 578489.0 0
230414.0 578981.0 0
235810.0 578187.0 0
240355.0 575530.0 0
243779.0 576846.0 0
250572.0 578911.0 0
256655.0 579169.0 0
262491.0 579547.0 0
266461.0 576377.0 0
272422.0 578570.0 0
278201.0 578611.0 0
282908.0 575672.0 0
289432.0 578382.0 0
292997.0 574824.0 0
294345.0 579217.0 0
298823.0 578145.0 0
303051.0 577505.0 0
307178.0 578930.0 0
312355.0 579543.0 0
317192.0 577907.0 0
322044.0 576106.0 0
327070.0 577880.0 0
332233.0 577926.0 0
338133.0 578522.0 0
343391.0 579282.0 0
346307.0 577007.0 0
350784.0 578586.0 0
357604.0 575121.0 0
358377.0 579433.0 0
362324.0 575132.0 0
367620.0 579023.0 0
372873.0 579179.0 0
377666.0 578326.0 0
383186.0 578452.0 0
387814.0 578631.0 0
390837.0 578771.0 0
394991.0 577766.0 0
400939.0 577431.0 0
409959.0 579904.0 0
416612.0 579705.0 0
423062.0 579450.0 0
428637.0 578618.0 0
433381.0 578734.0 0
438540.0 579656.0 0
444158.0 578975.0 0
448797.0 579152.0 0
451860.0 575098.0 0
452256.0 579059.0 0
457322.0 579423.0 0
462885.0 579098.0 0
470856.0 577322.0 0
476468.0 579907.0 0
482925.0 579354.0 0
488642.0 578367.0 0
492813.0 575655.0 0
492893.0 579317.0 0
497141.0 578445.0 0
2560.18 583297.0 0
8003.07 582868.0 0
12621.7 581917.0 0
16984.8 582808.0 0
22358.3 582882.0 0
29809.9 580874.0 0
26326.0 583302.0 0
34024.2 583540.0 0
37008.8 580244.0 0
38720.4 583727.0 0
43468.4 584601.0 0
47614.2 583715.0 0
51848.5 584661.0 0
58699.4 584387.0 0
64271.7 584743.0 0
68814.5 583602.0 0
73640.9 582792.0 0
77190.4 583483.0 0
80554.6 583842.0 0
86183.3 583857.0 0
92874.3 583710.0 0
98369.1 584068.0 0
102466.0 580620.0 0
106803.0 580556.0 0
103034.0 584597.0 0
108705.0 583951.0 0
112795.0 583544.0 0
117528.0 584445.0 0
122466.0 583684.0 0
126584.0 584313.0 0
131982.0 583747.0 0
136954.0 583208.0 0
144142.0 583750.0 0
150492.0 583238.0 0
157122.0 583149.0 0
163026.0 582835.0 0
166916.0 580080.0 0
167881.0 584606.0 0
173244.0 582732.0 0
183536.0 579880.0 0
178985.0 584694.0 0
183282.0 584097.0 0
187059.0 583035.0 0
192185.0 583292.0 0
197105.0 582489.0 0
202088.0 583468.0 0
207564.0 583995.0 0
213821.0 581817.0 0
217075.0 584529.0 0
220739.0 582653.0 0
225859.0 582441.0 0
230246.0 584095.0 0
236285.0 583621.0 0
240221.0 580029.0 0
240729.0 585252.0 0
245483.0 582842.0 0
252981.0 584025.0 0
257829.0 584528.0 0
262268.0 584270.0 0
267386.0 581785.0 0
272676.0 584596.0 0
277918.0 583624.0 0
282958.0 581215.0 0
289357.0 583075.0 0
292943.0 582748.0 0
297365.0 583626.0 0
303231.0 582564.0 0
308841.0 584071.0 0
319480.0 582278.0 0
323736.0 580679.0 0
328485.0 583296.0 0
334392.0 582961.0 0
338109.0 584903.0 0
342786.0 584605.0 0
348247.0 583539.0 0
354747.0 582806.0 0
358946.0 583391.0 0
362924.0 579994.0 0
362397.0 584041.0 0
366808.0 584059.0 0
372077.0 584568.0 0
376915.0 581974.0 0
380692.0 582642.0 0
386743.0 583271.0 0
391432.0 582191.0 0
396502.0 583578.0 0
400464.0 581763.0 0
404462.0 580785.0 0
407766.0 585365.0 0
418149.0 584834.0 0
422139.0 584538.0 0
426558.0 583600.0 0
431006.0 582745.0 0
435835.0 584785.0 0
442042.0 584282.0 0
447543.0 583496.0 0
452795.0 583682.0 0
461665.0 583311.0 0
466875.0 580054.0 0
465970.0 584140.0 0
470914.0 583019.0 0
480854.0 583910.0 0
485173.0 584363.0 0
491197.0 584063.0 0
497368.0 583884.0 0
2102.1 587498.0 0
6994.97 587909.0 0
12889.0 587322.0 0
18926.4 587556.0 0
24702.3 587647.0 0
30435.0 587626.0 0
35625.5 589308.0 0
39999.3 587794.0 0
43392.6 590241.0 0
47330.1 587916.0 0
51739.7 589503.0 0
56685.6 589480.0 0
61926.6 589639.0 0
66569.4 589147.0 0
71601.6 587737.0 0
77105.0 587060.0 0
82225.4 588760.0 0
88509.7 590081.0 0
93049.8 587835.0 0
97500.0 588762.0 0
102282.0 588562.0 0
107132.0 588234.0 0
112222.0 587852.0 0
117499.0 589052.0 0
122404.0 587491.0 0
127545.0 589305.0 0
132426.0 588346.0 0
140365.0 585433.0 0
137915.0 588082.0 0
142387.0 588477.0 0
147721.0 588235.0 0
153070.0 587223.0 0
157228.0 589494.0 0
161204.0 587431.0 0
165466.0 588593.0 0
171577.0 588525.0 0
176523.0 589000.0 0
180594.0 589295.0 0
185265.0 588035.0 0
190566.0 587536.0 0
195699.0 588099.0 0
201619.0 588906.0 0
206843.0 589404.0 0
212692.0 587656.0 0
218455.0 589127.0 0
223158.0 587064.0 0
227673.0 589816.0 0
232700.0 588168.0 0
238137.0 589261.0 0
243736.0 589040.0 0
248639.0 587909.0 0
255424.0 588110.0 0
260147.0 588659.0 0
266851.0 588781.0 0
272781.0 589437.0 0
276568.0 588096.0 0
281614.0 587372.0 0
285805.0 584930.0 0
286849.0 589559.0 0
292447.0 587510.0 0
298345.0 589469.0 0
303211.0 587803.0 0
307452.0 588775.0 0
314521.0 584983.0 0
318751.0 588722.0 0
323386.0 585210.0 0
323349.0 589640.0 0
327699.0 588864.0 0
332214.0 587430.0 0
336969.0 588635.0 0
341374.0 589756.0 0
347355.0 588918.0 0
353302.0 588095.0 0
358468.0 587199.0 0
363831.0 588440.0 0
368563.0 588294.0 0
372411.0 588849.0 0
377278.0 586220.0 0
383119.0 587639.0 0
388397.0 589166.0 0
392556.0 586984.0 0
397034.0 588875.0 0
401911.0 586735.0 0
413231.0 585297.0 0
408527.0 590026.0 0
417500.0 588660.0 0
423333.0 588527.0 0
429533.0 587353.0 0
433070.0 588991.0 0
438896.0 588606.0 0
445436.0 587889.0 0
449869.0 588343.0 0
454206.0 588501.0 0
457490.0 585312.0 0
458138.0 589847.0 0
461859.0 587734.0 0
466384.0 588838.0 0
472148.0 588912.0 0
476872.0 585796.0 0
481603.0 588539.0 0
487336.0 589305.0 0
492831.0 589907.0 0
497599.0 588869.0 0
3506.28 593224.0 0
8712.43 594685.0 0
12489.2 592844.0 0
17975.8 593699.0 0
23705.7 592946.0 0
29019.7 593168.0 0
33718.0 593373.0 0
38488.8 593928.0 0
43648.7 594741.0 0
47789.1 592652.0 0
52180.7 594042.0 0
57102.1 594866.0 0
61917.5 594349.0 0
66476.8 593736.0 0
71686.4 593618.0 0
78229.9 594198.0 0
84104.3 593461.0 0
87678.7 595130.0 0
94190.1 591832.0 0
99269.4 593477.0 0
103914.0 594546.0 0
108444.0 593166.0 0
113737.0 592639.0 0
118271.0 593688.0 0
122461.0 591880.0 0
126792.0 594239.0 0
131486.0 593360.0 0
135424.0 591661.0 0
139978.0 592644.0 0
145208.0 593326.0 0
152097.0 593304.0 0
157754.0 594655.0 0
162293.0 592546.0 0
167920.0 592737.0 0
173847.0 593968.0 0
179120.0 593305.0 0
183911.0 593899.0 0
189150.0 591611.0 0
193868.0 593906.0 0
198661.0 592756.0 0
202780.0 594018.0 0
207492.0 594524.0 0
212858.0 594022.0 0
217757.0 593577.0 0
222332.0 592391.0 0
226650.0 594446.0 0
231555.0 593540.0 0
236508.0 593923.0 0
241189.0 593966.0 0
247545.0 592768.0 0
252015.0 590920.0 0
251468.0 594873.0 0
256916.0 593493.0 0
262275.0 593439.0 0
272840.0 594079.0 0
277908.0 593676.0 0
282691.0 592821.0 0
287448.0 594937.0 0
293419.0 594095.0 0
298822.0 594356.0 0
303313.0 592809.0 0
308200.0 593458.0 0
312197.0 590367.0 0
315587.0 594687.0 0
320459.0 593562.0 0
326034.0 594261.0 0
333062.0 593499.0 0
339003.0 594206.0 0
343327.0 593652.0 0
347246.0 593716.0 0
351683.0 593471.0 0
357543.0 592496.0 0
362988.0 593428.0 0
368195.0 593132.0 0
373482.0 592132.0 0
378455.0 591217.0 0
383097.0 593781.0 0
388249.0 594734.0 0
392253.0 591941.0 0
397076.0 593514.0 0
402891.0 593439.0 0
407566.0 593600.0 0
412836.0 590229.0 0
411391.0 594541.0 0
416264.0 593277.0 0
421473.0 593059.0 0
426973.0 592111.0 0
431572.0 594651.0 0
436174.0 592497.0 0
442642.0 592947.0 0
449501.0 593948.0 0
454836.0 593005.0 0
458937.0 593963.0 0
462477.0 591878.0 0
466442.0 593688.0 0
470789.0 593940.0 0
477106.0 590368.0 0
475335.0 594254.0 0
480133.0 594128.0 0
485743.0 594843.0 0
491367.0 594029.0 0
496452.0 594291.0 0
3163.48 599882.0 0
8502.56 598876.0 0
13800.0 598382.0 0
23082.1 598446.0 0
28474.5 598330.0 0
33856.4 598277.0 0
38862.3 598846.0 0
42580.2 598700.0 0
47500.0 598537.0 0
52500.0 598596.0 0
57794.8 600180.0 0
62758.2 598843.0 0
67012.4 598511.0 0
73075.8 599641.0 0
78453.1 599992.0 0
82605.6 598581.0 0
87109.9 599041.0 0
92078.0 597091.0 0
97527.4 598780.0 0
102116.0 598531.0 0
107214.0 598921.0 0
113455.0 598057.0 0
117708.0 599267.0 0
121453.0 597071.0 0
125898.0 599895.0 0
129928.0 597448.0 0
135604.0 597359.0 0
141793.0 597516.0 0
147726.0 599055.0 0
152932.0 598638.0 0
157036.0 599097.0 0
162603.0 598640.0 0
168881.0 598183.0 0
173929.0 599245.0 0
178865.0 598355.0 0
183575.0 599290.0 0
188751.0 597487.0 0
193879.0 598872.0 0
198425.0 597779.0 0
203291.0 598201.0 0
207062.0 598869.0 0
211045.0 598813.0 0
216432.0 598074.0 0
222637.0 598549.0 0
228614.0 598726.0 0
233084.0 597931.0 0
237755.0 598471.0 0
242902.0 598751.0 0
248191.0 598329.0 0
253880.0 598641.0 0
258709.0 598567.0 0
262639.0 598095.0 0
267193.0 596020.0 0
271858.0 598524.0 0
276102.0 598144.0 0
281957.0 598843.0 0
287312.0 599438.0 0
291590.0 599537.0 0
297397.0 598625.0 0
305059.0 598391.0 0
309392.0 599288.0 0
311388.0 595534.0 0
313307.0 599276.0 0
318391.0 598273.0 0
322500.0 598823.0 0
328630.0 598948.0 0
332946.0 599562.0 0
336851.0 597926.0 0
340921.0 598017.0 0
345944.0 598189.0 0
352082.0 599522.0 0
357210.0 597783.0 0
361933.0 598296.0 0
367453.0 599378.0 0
372158.0 596711.0 0
377840.0 596864.0 0
383648.0 599910.0 0
388778.0 599542.0 0
392832.0 597087.0 0
398398.0 598936.0 0
406125.0 597811.0 0
408609.0 600550.0 0
411418.0 598829.0 0
415438.0 598036.0 0
420559.0 598502.0 0
427061.0 598611.0 0
432829.0 598614.0 0
437967.0 598279.0 0
444181.0 599027.0 0
449114.0 599763.0 0
453899.0 597892.0 0
458739.0 598021.0 0
462517.0 596261.0 0
466601.0 598536.0 0
471787.0 598465.0 0
477421.0 598593.0 0
482352.0 598981.0 0
489919.0 598170.0 0
493069.0 600214.0 0
497154.0 600234.0 0
2174.89 605125.0 0
6285.73 604081.0 0
11617.1 604299.0 0
18456.0 600597.0 0
17476.2 604972.0 0
22491.9 604030.0 0
28361.8 603424.0 0
33510.8 603703.0 0
38528.9 603445.0 0
43514.0 603598.0 0
47911.9 603628.0 0
52500.0 603539.0 0
57413.1 604620.0 0
62272.8 603900.0 0
67480.2 602848.0 0
71713.4 605234.0 0
76881.5 603983.0 0
81494.8 603478.0 0
86088.6 603103.0 0
91560.0 603473.0 0
97939.8 604148.0 0
102781.0 602723.0 0
107069.0 604825.0 0
111296.0 602642.0 0
115669.0 602880.0 0
120955.0 602932.0 0
126025.0 604874.0 0
131379.0 602985.0 0
137741.0 603471.0 0
143202.0 603603.0 0
149473.0 604585.0 0
153429.0 602476.0 0
157620.0 603744.0 0
162042.0 604757.0 0
166306.0 602783.0 0
171152.0 603084.0 0
176555.0 603905.0 0
181241.0 602556.0 0
186413.0 604016.0 0
191654.0 602241.0 0
196664.0 603467.0 0
201441.0 601407.0 0
208330.0 603683.0 0
214068.0 602741.0 0
218652.0 602090.0 0
222247.0 604209.0 0
226877.0 603556.0 0
232552.0 602951.0 0
240611.0 602925.0 0
246214.0 604362.0 0
252314.0 603996.0 0
256921.0 602372.0 0
261628.0 604548.0 0
266578.0 601718.0 0
271760.0 602968.0 0
277553.0 602677.0 0
288844.0 604107.0 0
295061.0 603705.0 0
301119.0 603021.0 0
307286.0 603952.0 0
312780.0 604308.0 0
317806.0 602796.0 0
321890.0 604742.0 0
325997.0 602934.0 0
331349.0 604370.0 0
336424.0 602731.0 0
342267.0 603355.0 0
348048.0 603622.0 0
352522.0 605119.0 0
357658.0 603133.0 0
363295.0 603193.0 0
367884.0 604825.0 0
372418.0 602217.0 0
377807.0 602782.0 0
387560.0 604574.0 0
393068.0 602790.0 0
403681.0 603169.0 0
409223.0 604396.0 0
413692.0 602775.0 0
418071.0 604277.0 0
422286.0 603461.0 0
432474.0 602860.0 0
436593.0 603060.0 0
442632.0 604343.0 0
447259.0 603427.0 0
451787.0 603763.0 0
455932.0 602207.0 0
461916.0 603276.0 0
468635.0 604007.0 0
474624.0 603503.0 0
479812.0 602693.0 0
486700.0 603259.0 0
493156.0 604551.0 0
498364.0 604553.0 0
2132.19 609428.0 0
6324.19 608695.0 0
16438.9 609355.0 0
20859.8 608820.0 0
25731.0 608032.0 0
31999.4 608965.0 0
37681.3 608439.0 0
42833.1 608676.0 0
48297.0 608492.0 0
52981.3 608718.0 0
57599.5 608885.0 0
62495.9 608559.0 0
67267.1 608454.0 0
73441.9 609270.0 0
77223.0 608111.0 0
81093.1 608548.0 0
86737.4 608236.0 0
92841.5 609983.0 0
98409.8 609189.0 0
102949.0 607494.0 0
111561.0 607976.0 0
117160.0 607337.0 0
122036.0 609887.0 0
126586.0 608831.0 0
131021.0 609557.0 0
134680.0 606999.0 0
139461.0 609454.0 0
146262.0 608974.0 0
152941.0 609269.0 0
158833.0 608380.0 0
166029.0 607987.0 0
171496.0 608234.0 0
177179.0 610145.0 0
182919.0 608934.0 0
188121.0 609912.0 0
192467.0 607142.0 0
197238.0 610396.0 0
202373.0 606374.0 0
207032.0 610396.0 0
212622.0 608375.0 0
218141.0 606765.0 0
222936.0 609053.0 0
228568.0 608864.0 0
233492.0 608115.0 0
237034.0 605870.0 0
237309.0 609995.0 0
241416.0 608186.0 0
252234.0 609475.0 0
256799.0 607306.0 0
262700.0 610040.0 0
268347.0 608209.0 0
275134.0 606372.0 0
273761.0 610616.0 0
278144.0 609144.0 0
282576.0 605846.0 0
287247.0 608753.0 0
292243.0 609118.0 0
298713.0 609045.0 0
303709.0 607235.0 0
307437.0 609202.0 0
312099.0 609123.0 0
316745.0 607634.0 0
320934.0 609030.0 0
327037.0 609042.0 0
333460.0 609683.0 0
338137.0 606986.0 0
342408.0 609044.0 0
346999.0 608470.0 0
352161.0 609872.0 0
357148.0 608884.0 0
362026.0 607879.0 0
366235.0 608870.0 0
370667.0 608971.0 0
376250.0 608340.0 0
382082.0 606526.0 0
386449.0 609564.0 0
391725.0 608743.0 0
397923.0 605338.0 0
396514.0 609389.0 0
401547.0 609826.0 0
406907.0 608253.0 0
411711.0 608159.0 0
416902.0 608764.0 0
422539.0 608799.0 0
427477.0 605290.0 0
432275.0 609067.0 0
437749.0 607363.0 0
442427.0 609878.0 0
447834.0 607801.0 0
455969.0 607727.0 0
461456.0 609742.0 0
466109.0 608425.0 0
471874.0 609756.0 0
477479.0 608208.0 0
481810.0 606571.0 0
480593.0 610215.0 0
486254.0 610035.0 0
491678.0 609562.0 0
497016.0 609161.0 0
4316.29 613657.0 0
8185.45 615244.0 0
11046.0 611055.0 0
17457.3 613495.0 0
22628.9 613893.0 0
27920.5 612532.0 0
32717.0 614670.0 0
38204.9 613748.0 0
43356.3 613623.0 0
48075.0 613883.0 0
52500.0 613650.0 0
57085.9 613802.0 0
62097.5 612836.0 0
66775.5 613648.0 0
71844.4 613944.0 0
77228.5 612148.0 0
82500.0 613802.0 0
87468.6 613560.0 0
97500.0 613641.0 0
102500.0 613558.0 0
106749.0 610569.0 0
106570.0 614594.0 0
110868.0 613735.0 0
116948.0 612976.0 0
122225.0 615174.0 0
126582.0 613243.0 0
131374.0 615000.0 0
136551.0 614808.0 0
143571.0 613312.0 0
149075.0 614599.0 0
154401.0 614807.0 0
158595.0 613159.0 0
162393.0 611135.0 0
162341.0 615558.0 0
166392.0 613288.0 0
171980.0 614030.0 0
181029.0 613580.0 0
185264.0 614210.0 0
192222.0 613413.0 0
197035.0 615491.0 0
202261.0 611762.0 0
206921.0 615260.0 0
211405.0 613943.0 0
217340.0 612641.0 0
223193.0 614744.0 0
228637.0 614282.0 0
233846.0 612841.0 0
237225.0 615347.0 0
241403.0 613929.0 0
246677.0 610770.0 0
249141.0 615458.0 0
253585.0 614343.0 0
258115.0 612254.0 0
260910.0 615211.0 0
265174.0 614830.0 0
270241.0 613681.0 0
278024.0 614584.0 0
283843.0 612178.0 0
289162.0 613980.0 0
295196.0 614124.0 0
300420.0 614688.0 0
303644.0 611107.0 0
304722.0 614699.0 0
307903.0 613207.0 0
311631.0 613430.0 0
316446.0 612184.0 0
322845.0 613440.0 0
327277.0 615023.0 0
331926.0 614112.0 0
338569.0 611518.0 0
342489.0 614449.0 0
347120.0 613347.0 0
351830.0 614955.0 0
356028.0 613202.0 0
360660.0 612836.0 0
367018.0 613969.0 0
373461.0 613902.0 0
379803.0 613550.0 0
383115.0 610660.0 0
388719.0 613828.0 0
397133.0 613083.0 0
406606.0 613785.0 0
413370.0 614091.0 0
418624.0 615016.0 0
421754.0 613472.0 0
427320.0 610548.0 0
425694.0 614687.0 0
430229.0 613950.0 0
436985.0 613643.0 0
442837.0 614759.0 0
448056.0 613930.0 0
451852.0 610717.0 0
452945.0 614258.0 0
457825.0 613745.0 0
462842.0 613546.0 0
466920.0 613225.0 0
476826.0 612403.0 0
481297.0 614173.0 0
487118.0 615469.0 0
491614.0 614129.0 0
497255.0 614838.0 0
2631.21 618640.0 0
7019.2 618666.0 0
14004.8 615605.0 0
11274.9 619064.0 0
16939.6 618609.0 0
21343.4 618901.0 0
27796.4 618291.0 0
34152.0 619123.0 0
38376.8 618864.0 0
42612.4 618620.0 0
46646.6 618580.0 0
51312.2 618470.0 0
56148.3 618387.0 0
61651.9 618741.0 0
67757.8 618468.0 0
73225.7 618923.0 0
78768.1 617763.0 0
83214.5 618038.0 0
91887.8 615803.0 0
87309.2 618416.0 0
91397.9 620367.0 0
97500.0 618591.0 0
102453.0 618461.0 0
107500.0 618572.0 0
112742.0 618374.0 0
117940.0 618915.0 0
123092.0 619714.0 0
127013.0 617890.0 0
136186.0 619341.0 0
141324.0 617975.0 0
147020.0 620141.0 0
152461.0 619339.0 0
158407.0 619221.0 0
163585.0 619417.0 0
167721.0 618142.0 0
173101.0 620446.0 0
177318.0 616037.0 0
178215.0 620285.0 0
181076.0 618182.0 0
185786.0 619933.0 0
192297.0 619356.0 0
197683.0 620045.0 0
201920.0 616889.0 0
206431.0 619307.0 0
211000.0 619037.0 0
216523.0 618727.0 0
221787.0 620042.0 0
227191.0 619734.0 0
232080.0 617614.0 0
236241.0 618573.0 0
240747.0 619564.0 0
245195.0 617450.0 0
252289.0 619163.0 0
257596.0 617821.0 0
262520.0 618797.0 0
269445.0 618733.0 0
274601.0 619140.0 0
279016.0 620099.0 0
282781.0 616848.0 0
282858.0 620330.0 0
286603.0 618260.0 0
292011.0 619150.0 0
298245.0 619830.0 0
303263.0 618378.0 0
311617.0 618593.0 0
317798.0 617972.0 0
323403.0 618286.0 0
331055.0 618628.0 0
337166.0 617302.0 0
343295.0 620025.0 0
347995.0 617660.0 0
351856.0 619984.0 0
357630.0 617741.0 0
362672.0 617284.0 0
366387.0 619218.0 0
371190.0 619418.0 0
376871.0 618881.0 0
381678.0 619095.0 0
384572.0 616134.0 0
388402.0 619189.0 0
392730.0 619876.0 0
393424.0 615552.0 0
396767.0 619098.0 0
400994.0 615962.0 0
408516.0 619597.0 0
413133.0 620624.0 0
417130.0 619000.0 0
422251.0 618206.0 0
427695.0 619489.0 0
432556.0 617794.0 0
436938.0 619757.0 0
442239.0 619885.0 0
447134.0 620634.0 0
451102.0 618288.0 0
456430.0 619986.0 0
461824.0 617757.0 0
466979.0 619280.0 0
471335.0 616002.0 0
476667.0 617196.0 0
481722.0 619572.0 0
486861.0 620112.0 0
493765.0 617902.0 0
497972.0 619548.0 0
3531.92 624739.0 0
9068.3 623238.0 0
13768.3 623447.0 0
18827.1 623779.0 0
23102.6 622496.0 0
27355.5 624439.0 0
32734.6 623510.0 0
37740.0 623541.0 0
42539.7 623729.0 0
47851.2 623526.0 0
52934.4 623146.0 0
57410.6 622701.0 0
61109.2 625392.0 0
65083.5 623097.0 0
70179.7 623601.0 0
76559.3 624042.0 0
83070.5 622317.0 0
88564.7 623783.0 0
94897.0 621773.0 0
98884.7 623724.0 0
103358.0 622569.0 0
106659.0 624567.0 0
111482.0 623546.0 0
117735.0 625285.0 0
122347.0 623467.0 0
126441.0 623552.0 0
131281.0 620809.0 0
137146.0 623946.0 0
142748.0 624037.0 0
147051.0 624287.0 0
153305.0 624498.0 0
157929.0 624553.0 0
162467.0 623671.0 0
167717.0 623403.0 0
177183.0 624381.0 0
181160.0 622563.0 0
189460.0 624568.0 0
195473.0 624381.0 0
201347.0 623990.0 0
207562.0 624169.0 0
213071.0 623651.0 0
218658.0 624747.0 0
223830.0 624040.0 0
232166.0 622851.0 0
237001.0 622398.0 0
241050.0 625221.0 0
246390.0 622522.0 0
251263.0 623611.0 0
256843.0 624236.0 0
263020.0 623039.0 0
268115.0 623816.0 0
273763.0 624606.0 0
279320.0 624523.0 0
283043.0 625504.0 0
287470.0 623676.0 0
293326.0 624494.0 0
297375.0 624559.0 0
302461.0 623084.0 0
306744.0 621097.0 0
307881.0 625037.0 0
312788.0 623337.0 0
317579.0 624090.0 0
322518.0 624116.0 0
326953.0 622530.0 0
329790.0 625626.0 0
332601.0 623506.0 0
337916.0 623741.0 0
342629.0 625095.0 0
346410.0 624196.0 0
350998.0 625025.0 0
355872.0 622783.0 0
362221.0 623326.0 0
368616.0 624136.0 0
373738.0 624152.0 0
379174.0 624130.0 0
383967.0 622356.0 0
388202.0 623891.0 0
392339.0 623678.0 0
398315.0 623351.0 0
402064.0 625561.0 0
403157.0 620920.0 0
406497.0 624567.0 0
411354.0 624552.0 0
416950.0 624682.0 0
422721.0 623633.0 0
428049.0 625179.0 0
433495.0 623888.0 0
438828.0 624834.0 0
443913.0 624884.0 0
448789.0 624878.0 0
453665.0 624919.0 0
458657.0 624652.0 0
463410.0 623827.0 0
468226.0 623671.0 0
471741.0 621202.0 0
471418.0 625539.0 0
476900.0 623117.0 0
482261.0 624924.0 0
487043.0 625243.0 0
491759.0 622581.0 0
497276.0 624243.0 0
1400.69 629177.0 0
6372.7 629729.0 0
11354.0 628339.0 0
17328.5 628958.0 0
22323.6 628350.0 0
27743.8 630453.0 0
33628.2 628909.0 0
38707.6 628714.0 0
43159.2 628619.0 0
47679.7 628738.0 0
52592.0 627936.0 0
57500.0 628739.0 0
63154.2 629304.0 0
67709.8 628410.0 0
72433.2 628120.0 0
76213.2 630172.0 0
81728.4 628908.0 0
88580.3 628459.0 0
93826.5 626817.0 0
98432.0 627591.0 0
102255.0 628246.0 0
106841.0 628423.0 0
112924.0 629429.0 0
122672.0 628566.0 0
127429.0 628212.0 0
132500.0 626549.0 0
131253.0 629428.0 0
135246.0 628506.0 0
140665.0 629829.0 0
149120.0 628038.0 0
154338.0 628574.0 0
158659.0 629021.0 0
163097.0 628588.0 0
167497.0 628534.0 0
172662.0 626366.0 0
171336.0 630762.0 0
177082.0 629080.0 0
181217.0 629481.0 0
184261.0 626172.0 0
192541.0 628863.0 0
197496.0 628953.0 0
202917.0 630368.0 0
208830.0 629640.0 0
214077.0 628750.0 0
218722.0 630079.0 0
223679.0 629312.0 0
227833.0 626001.0 0
228190.0 630169.0 0
232233.0 628145.0 0
236667.0 627620.0 0
241828.0 629225.0 0
245909.0 628339.0 0
251725.0 628494.0 0
256823.0 629890.0 0
260829.0 628476.0 0
265918.0 628600.0 0
272313.0 629350.0 0
276785.0 628938.0 0
280987.0 628632.0 0
285775.0 629331.0 0
291431.0 628745.0 0
296749.0 629216.0 0
302360.0 628061.0 0
307231.0 629146.0 0
311510.0 627260.0 0
315908.0 629432.0 0
321769.0 628638.0 0
326850.0 627819.0 0
331735.0 628269.0 0
336755.0 629650.0 0
342256.0 629277.0 0
346523.0 628332.0 0
350520.0 629871.0 0
357483.0 627076.0 0
361486.0 629830.0 0
366505.0 628731.0 0
371882.0 629314.0 0
377847.0 629978.0 0
384343.0 628055.0 0
390334.0 628234.0 0
395531.0 627529.0 0
400326.0 629348.0 0
404249.0 629472.0 0
408657.0 628981.0 0
413661.0 629253.0 0
418271.0 629676.0 0
422951.0 628715.0 0
427762.0 630016.0 0
431690.0 628468.0 0
436219.0 629232.0 0
441321.0 629422.0 0
446458.0 628972.0 0
451298.0 629265.0 0
457316.0 629264.0 0
462537.0 629306.0 0
467556.0 628188.0 0
473281.0 629237.0 0
478601.0 628651.0 0
484620.0 629315.0 0
488940.0 629451.0 0
493519.0 628330.0 0
498190.0 628645.0 0
2740.85 633048.0 0
8387.21 634304.0 0
13989.9 633536.0 0
19017.6 633886.0 0
23136.0 633030.0 0
27662.7 635737.0 0
32364.6 633651.0 0
37500.0 633786.0 0
41134.2 633400.0 0
45421.4 633953.0 0
50605.1 633188.0 0
56108.7 634148.0 0
60864.3 633034.0 0
65961.4 633495.0 0
72044.0 633583.0 0
78715.1 634034.0 0
82724.7 634631.0 0
86387.8 632313.0 0
91540.9 632592.0 0
97766.9 632148.0 0
103701.0 634333.0 0
108595.0 632335.0 0
114599.0 634656.0 0
118077.0 631119.0 0
118179.0 634624.0 0
122008.0 632943.0 0
126799.0 633324.0 0
131969.0 634021.0 0
136390.0 633182.0 0
140711.0 635936.0 0
146008.0 633183.0 0
152518.0 632316.0 0
157233.0 633506.0 0
161568.0 633705.0 0
167147.0 634510.0 0
173269.0 634748.0 0
178044.0 633899.0 0
182404.0 633816.0 0
187165.0 631568.0 0
192974.0 633929.0 0
198373.0 633132.0 0
206850.0 634830.0 0
210984.0 633455.0 0
215662.0 634278.0 0
221109.0 634094.0 0
226583.0 635085.0 0
231182.0 632546.0 0
236694.0 633094.0 0
242729.0 632875.0 0
248312.0 633601.0 0
253937.0 633652.0 0
262592.0 633534.0 0
269394.0 634237.0 0
275574.0 633373.0 0
279812.0 632427.0 0
283848.0 634448.0 0
289351.0 633509.0 0
294137.0 633370.0 0
298539.0 634457.0 0
302603.0 632671.0 0
306289.0 633823.0 0
311289.0 633006.0 0
318064.0 633452.0 0
322834.0 633975.0 0
327786.0 632548.0 0
332431.0 632113.0 0
336418.0 635672.0 0
341182.0 632899.0 0
345471.0 633192.0 0
349236.0 633870.0 0
355796.0 632684.0 0
364733.0 633670.0 0
369405.0 633958.0 0
373849.0 633431.0 0
381829.0 632953.0 0
387198.0 633661.0 0
392216.0 633091.0 0
397313.0 632393.0 0
401492.0 633907.0 0
406289.0 633633.0 0
411430.0 633642.0 0
416497.0 634029.0 0
421118.0 632680.0 0
425677.0 634135.0 0
431473.0 633619.0 0
437137.0 634102.0 0
442683.0 634931.0 0
448449.0 633780.0 0
454000.0 633423.0 0
459513.0 633848.0 0
463526.0 633451.0 0
467977.0 633268.0 0
472497.0 633598.0 0
477461.0 633258.0 0
481766.0 632935.0 0
487024.0 633846.0 0
491249.0 632843.0 0
496639.0 632766.0 0
2385.16 638118.0 0
6790.38 638913.0 0
12119.6 639367.0 0
17314.9 638264.0 0
22180.6 637818.0 0
27044.4 640006.0 0
31596.5 638284.0 0
36591.1 638952.0 0
42076.2 638537.0 0
47558.5 638401.0 0
52693.6 638745.0 0
57713.2 638808.0 0
62490.8 637666.0 0
66695.4 637918.0 0
70579.2 640442.0 0
75642.2 638133.0 0
80670.8 639576.0 0
86903.5 638190.0 0
94615.0 637580.0 0
99775.2 638433.0 0
104554.0 638727.0 0
108449.0 636987.0 0
113447.0 639561.0 0
117939.0 638049.0 0
122680.0 637397.0 0
127521.0 638536.0 0
131747.0 638318.0 0
136006.0 638335.0 0
143031.0 640802.0 0
148699.0 638385.0 0
154035.0 637227.0 0
158478.0 638821.0 0
162500.0 638960.0 0
166465.0 640612.0 0
171209.0 638693.0 0
176288.0 638616.0 0
181088.0 638244.0 0
185216.0 636582.0 0
184745.0 640385.0 0
190172.0 639271.0 0
196797.0 638000.0 0
202018.0 636118.0 0
201289.0 641154.0 0
206181.0 640058.0 0
211265.0 638066.0 0
217260.0 639847.0 0
222431.0 638976.0 0
227520.0 639752.0 0
232110.0 637579.0 0
236857.0 638409.0 0
241614.0 638324.0 0
247319.0 639402.0 0
252866.0 638859.0 0
258031.0 636874.0 0
262237.0 639126.0 0
266867.0 639976.0 0
273453.0 639665.0 0
278803.0 637034.0 0
282220.0 638871.0 0
286724.0 639424.0 0
292651.0 638293.0 0
298369.0 640038.0 0
303086.0 637078.0 0
307964.0 637765.0 0
313134.0 638985.0 0
318731.0 638212.0 0
322240.0 641143.0 0
326157.0 638468.0 0
331020.0 636267.0 0
337153.0 640457.0 0
342574.0 637735.0 0
347534.0 639753.0 0
351973.0 637966.0 0
358905.0 638076.0 0
363842.0 638419.0 0
368224.0 638261.0 0
372827.0 637665.0 0
377380.0 640601.0 0
378187.0 636045.0 0
383096.0 636626.0 0
386753.0 638508.0 0
391025.0 637991.0 0
397297.0 637802.0 0
403327.0 638753.0 0
408333.0 637973.0 0
412676.0 638723.0 0
416849.0 638569.0 0
421539.0 637670.0 0
428509.0 638743.0 0
434371.0 638419.0 0
439468.0 639716.0 0
444182.0 639571.0 0
447559.0 638694.0 0
451834.0 638026.0 0
456706.0 637391.0 0
461718.0 638847.0 0
466883.0 637842.0 0
471201.0 638259.0 0
476414.0 638424.0 0
483647.0 637853.0 0
488860.0 637743.0 0
493243.0 636793.0 0
497708.0 637472.0 0
2460.37 642950.0 0
7826.62 643840.0 0
13561.8 644532.0 0
16978.5 642253.0 0
23422.6 643052.0 0
28524.2 644435.0 0
33424.1 643221.0 0
38438.1 643596.0 0
42788.8 643727.0 0
47130.9 643523.0 0
52177.5 644195.0 0
57036.5 643285.0 0
62638.8 642247.0 0
66508.7 643580.0 0
73787.7 643993.0 0
77500.0 643780.0 0
82962.8 643981.0 0
87339.5 644083.0 0
91581.7 642141.0 0
96999.3 643041.0 0
102668.0 642482.0 0
108559.0 642566.0 0
113478.0 645321.0 0
117316.0 642510.0 0
122680.0 643092.0 0
128285.0 643381.0 0
133604.0 642967.0 0
138700.0 642813.0 0
142406.0 645821.0 0
147180.0 643408.0 0
152866.0 643038.0 0
158640.0 643533.0 0
163401.0 644471.0 0
167052.0 644456.0 0
170902.0 643437.0 0
176136.0 643596.0 0
181534.0 643801.0 0
186706.0 644046.0 0
191559.0 645477.0 0
196698.0 643834.0 0
201055.0 645495.0 0
205353.0 644967.0 0
210440.0 643722.0 0
215449.0 644524.0 0
220017.0 644246.0 0
225102.0 643460.0 0
230979.0 643585.0 0
237136.0 643245.0 0
242314.0 645524.0 0
248065.0 645293.0 0
253717.0 644139.0 0
258437.0 641922.0 0
259113.0 646241.0 0
263297.0 644048.0 0
268847.0 644959.0 0
273966.0 645007.0 0
279180.0 642748.0 0
284827.0 644786.0 0
289178.0 643612.0 0
293240.0 643508.0 0
297168.0 644836.0 0
303370.0 643513.0 0
308944.0 642586.0 0
313624.0 644371.0 0
318357.0 643268.0 0
321912.0 644333.0 0
326175.0 644267.0 0
331295.0 641588.0 0
335384.0 643366.0 0
339623.0 644377.0 0
344906.0 643423.0 0
350524.0 643597.0 0
356593.0 643144.0 0
361516.0 642200.0 0
366637.0 643572.0 0
372927.0 643368.0 0
377855.0 644809.0 0
382576.0 641943.0 0
388361.0 643155.0 0
393532.0 642213.0 0
398867.0 643595.0 0
404175.0 644229.0 0
409063.0 642682.0 0
414049.0 643737.0 0
418960.0 642550.0 0
423588.0 642215.0 0
427662.0 643911.0 0
432805.0 643511.0 0
436168.0 642181.0 0
443231.0 643631.0 0
447121.0 642461.0 0
451908.0 643649.0 0
457412.0 642280.0 0
462389.0 644877.0 0
467818.0 642896.0 0
472194.0 641851.0 0
475893.0 644192.0 0
480467.0 642263.0 0
485623.0 643582.0 0
491864.0 641653.0 0
497330.0 642308.0 0
2994.52 648364.0 0
8272.92 650193.0 0
13643.5 649491.0 0
19279.2 647083.0 0
25083.5 647466.0 0
29354.1 649106.0 0
34732.1 648303.0 0
39727.5 648265.0 0
43457.9 648999.0 0
46981.2 648490.0 0
51550.7 649394.0 0
56058.2 648682.0 0
60825.5 646895.0 0
66378.9 648436.0 0
72551.1 649050.0 0
78002.5 648553.0 0
81580.4 647634.0 0
85902.2 648857.0 0
91440.2 647477.0 0
97566.1 648566.0 0
103080.0 648121.0 0
109113.0 648875.0 0
114155.0 649404.0 0
117151.0 647968.0 0
121440.0 648320.0 0
126686.0 648626.0 0
132523.0 649652.0 0
136772.0 646783.0 0
139879.0 650429.0 0
147084.0 648880.0 0
153793.0 649520.0 0
159388.0 648517.0 0
164099.0 648959.0 0
168351.0 647697.0 0
173141.0 648229.0 0
178050.0 648540.0 0
182180.0 648442.0 0
187153.0 649198.0 0
192746.0 650619.0 0
197453.0 648924.0 0
203346.0 649238.0 0
207648.0 648648.0 0
213015.0 648421.0 0
217651.0 648275.0 0
222103.0 648672.0 0
227295.0 648676.0 0
233063.0 649085.0 0
238145.0 648464.0 0
241580.0 650349.0 0
245145.0 649517.0 0
251386.0 649886.0 0
255858.0 648458.0 0
261984.0 648471.0 0
267289.0 650098.0 0
271792.0 648878.0 0
277337.0 648667.0 0
282443.0 648799.0 0
288856.0 647863.0 0
294020.0 648430.0 0
298953.0 648498.0 0
303855.0 649428.0 0
307638.0 646758.0 0
311492.0 649311.0 0
317123.0 648372.0 0
322273.0 647952.0 0
326824.0 649768.0 0
332796.0 647914.0 0
338194.0 648832.0 0
342552.0 649324.0 0
347345.0 647940.0 0
352005.0 648399.0 0
356921.0 649116.0 0
362044.0 647310.0 0
366595.0 648974.0 0
371178.0 648654.0 0
376639.0 649404.0 0
381682.0 647928.0 0
386787.0 647905.0 0
392076.0 647557.0 0
398005.0 649568.0 0
402138.0 647606.0 0
406016.0 649297.0 0
410949.0 647585.0 0
415893.0 648521.0 0
421569.0 647673.0 0
427367.0 649145.0 0
433130.0 650167.0 0
438219.0 646346.0 0
443378.0 649920.0 0
447340.0 646454.0 0
451383.0 649192.0 0
457036.0 648104.0 0
461536.0 650569.0 0
466292.0 649438.0 0
471396.0 647024.0 0
476695.0 650133.0 0
481440.0 646872.0 0
485000.0 650420.0 0
490366.0 647505.0 0
496750.0 648087.0 0
2067.92 653831.0 0
5841.44 653815.0 0
11678.3 654318.0 0
18006.7 653140.0 0
22936.2 651451.0 0
28430.1 653730.0 0
32379.7 652107.0 0
37842.5 652147.0 0
42519.0 653180.0 0
47014.8 653788.0 0
50843.4 654292.0 0
55980.2 653508.0 0
62315.1 653325.0 0
68175.9 653111.0 0
72043.1 654267.0 0
76288.6 653917.0 0
81294.8 652151.0 0
86327.0 654327.0 0
93881.6 652573.0 0
99377.6 653645.0 0
104454.0 653135.0 0
109141.0 654658.0 0
113750.0 653298.0 0
118295.0 651966.0 0
123225.0 652733.0 0
127949.0 653988.0 0
132019.0 654407.0 0
136027.0 653607.0 0
143869.0 652870.0 0
147973.0 654138.0 0
152673.0 655202.0 0
157850.0 654007.0 0
162714.0 653102.0 0
168113.0 653079.0 0
173265.0 652748.0 0
177724.0 653567.0 0
182966.0 652876.0 0
188276.0 654758.0 0
192776.0 655127.0 0
196078.0 653643.0 0
200690.0 653606.0 0
206126.0 653547.0 0
212134.0 654094.0 0
217637.0 652827.0 0
222031.0 654401.0 0
226582.0 653828.0 0
231347.0 654011.0 0
236690.0 653500.0 0
241688.0 654062.0 0
247460.0 654738.0 0
253523.0 654481.0 0
257963.0 652451.0 0
262888.0 652657.0 0
267348.0 655402.0 0
272479.0 653441.0 0
280083.0 653292.0 0
284295.0 653354.0 0
288212.0 652736.0 0
292739.0 653111.0 0
297250.0 652814.0 0
301779.0 653989.0 0
307500.0 653589.0 0
313492.0 654157.0 0
318418.0 653556.0 0
322756.0 652238.0 0
326556.0 655145.0 0
331916.0 654203.0 0
336387.0 652912.0 0
340481.0 653666.0 0
346700.0 653871.0 0
352887.0 652991.0 0
357756.0 654291.0 0
363208.0 653024.0 0
369156.0 653611.0 0
373520.0 652368.0 0
376724.0 654074.0 0
382035.0 654088.0 0
388452.0 652632.0 0
393394.0 652561.0 0
397777.0 654839.0 0
403117.0 654657.0 0
408747.0 653948.0 0
412815.0 652067.0 0
417155.0 653390.0 0
422413.0 653880.0 0
427756.0 654489.0 0
432420.0 656057.0 0
437523.0 654242.0 0
442939.0 655524.0 0
448075.0 653469.0 0
453482.0 653463.0 0
458313.0 654240.0 0
463557.0 654561.0 0
468144.0 654117.0 0
472548.0 654088.0 0
476931.0 655961.0 0
481091.0 653762.0 0
485239.0 655448.0 0
489534.0 653252.0 0
497037.0 654182.0 0
2334.65 658717.0 0
7629.63 657689.0 0
12406.8 659038.0 0
17553.6 658684.0 0
23700.1 657272.0 0
29038.6 658669.0 0
32412.9 656227.0 0
34551.5 660702.0 0
36942.6 656265.0 0
41999.9 658486.0 0
47927.5 658571.0 0
52669.4 658409.0 0
57459.1 658843.0 0
62955.0 659644.0 0
67896.1 657866.0 0
72910.4 658528.0 0
77735.9 658704.0 0
81944.4 657182.0 0
85954.4 659509.0 0
91010.7 657583.0 0
96936.2 658876.0 0
102011.0 657899.0 0
106543.0 658920.0 0
111648.0 659322.0 0
117000.0 657403.0 0
124326.0 658617.0 0
129736.0 659226.0 0
132992.0 657757.0 0
137474.0 658533.0 0
142882.0 657440.0 0
148550.0 659552.0 0
153722.0 659141.0 0
157461.0 659351.0 0
161788.0 657680.0 0
166509.0 659470.0 0
172553.0 658218.0 0
178856.0 658794.0 0
184030.0 657967.0 0
188189.0 659460.0 0
192300.0 659044.0 0
197104.0 658468.0 0
202776.0 658688.0 0
208180.0 658301.0 0
213134.0 660106.0 0
218319.0 658132.0 0
222648.0 658605.0 0
226820.0 658765.0 0
232158.0 659204.0 0
237526.0 658899.0 0
242673.0 658648.0 0
247356.0 661047.0 0
252400.0 659404.0 0
257763.0 657877.0 0
262828.0 657323.0 0
266132.0 661086.0 0
271858.0 659148.0 0
276235.0 656243.0 0
280131.0 658772.0 0
285695.0 657800.0 0
292201.0 658585.0 0
298589.0 658139.0 0
304058.0 658010.0 0
308848.0 659395.0 0
313013.0 658294.0 0
317942.0 659329.0 0
322031.0 656138.0 0
324668.0 659906.0 0
329979.0 659393.0 0
335915.0 658609.0 0
342196.0 658726.0 0
347387.0 659632.0 0
351934.0 658193.0 0
357137.0 659379.0 0
363265.0 659858.0 0
369133.0 658957.0 0
373351.0 656494.0 0
377789.0 658233.0 0
382140.0 660645.0 0
387154.0 658229.0 0
393486.0 658151.0 0
399483.0 659813.0 0
404431.0 659841.0 0
408793.0 658867.0 0
413410.0 656781.0 0
418401.0 658243.0 0
423489.0 659404.0 0
428736.0 659475.0 0
433515.0 660743.0 0
437999.0 659551.0 0
442203.0 660040.0 0
446761.0 658461.0 0
451406.0 657690.0 0
456013.0 658907.0 0
460923.0 659092.0 0
465491.0 658691.0 0
470182.0 658571.0 0
475293.0 661117.0 0
481454.0 659585.0 0
487469.0 659759.0 0
492625.0 657790.0 0
497637.0 659547.0 0
2105.44 663272.0 0
6135.07 662101.0 0
10379.1 663292.0 0
15188.6 663370.0 0
21064.9 663195.0 0
26779.5 662838.0 0
31665.3 665300.0 0
38322.4 664036.0 0
42659.5 663695.0 0
47243.6 663880.0 0
52410.4 663126.0 0
56280.6 664047.0 0
60096.9 664061.0 0
65185.4 664539.0 0
69904.0 662676.0 0
75462.2 663646.0 0
81676.9 662930.0 0
87312.3 664661.0 0
92931.2 663310.0 0
98211.6 663959.0 0
103062.0 662772.0 0
108443.0 663506.0 0
114006.0 664381.0 0
119421.0 662597.0 0
124493.0 665108.0 0
129414.0 663370.0 0
133864.0 663273.0 0
137755.0 663157.0 0
142010.0 662509.0 0
147414.0 665279.0 0
153036.0 663150.0 0
157608.0 663613.0 0
162406.0 662863.0 0
168286.0 663554.0 0
173882.0 663448.0 0
177814.0 663532.0 0
182718.0 663132.0 0
187352.0 663017.0 0
192551.0 663507.0 0
197361.0 662711.0 0
202995.0 664284.0 0
207858.0 662964.0 0
211818.0 664840.0 0
216648.0 664455.0 0
221508.0 662567.0 0
226202.0 663646.0 0
231055.0 664430.0 0
237017.0 664808.0 0
242710.0 663664.0 0
247226.0 665399.0 0
251260.0 664083.0 0
255978.0 663149.0 0
262265.0 663650.0 0
265808.0 665926.0 0
270312.0 664762.0 0
276707.0 663925.0 0
282396.0 662817.0 0
287583.0 663545.0 0
293116.0 664646.0 0
297939.0 665585.0 0
301989.0 662746.0 0
307512.0 664826.0 0
312973.0 662886.0 0
318862.0 666032.0 0
324335.0 664444.0 0
328059.0 663354.0 0
331015.0 663227.0 0
334396.0 663800.0 0
339317.0 663570.0 0
345004.0 664421.0 0
352207.0 664414.0 0
358832.0 664901.0 0
364616.0 666264.0 0
368986.0 663771.0 0
373834.0 661998.0 0
378879.0 664757.0 0
384223.0 664670.0 0
389273.0 664102.0 0
395360.0 664114.0 0
399688.0 666037.0 0
402771.0 663665.0 0
407891.0 664322.0 0
413760.0 662526.0 0
419781.0 663169.0 0
424583.0 664256.0 0
429339.0 664468.0 0
433603.0 664670.0 0
437126.0 664235.0 0
440530.0 664154.0 0
445615.0 663234.0 0
452396.0 663513.0 0
458016.0 662980.0 0
462009.0 664338.0 0
466276.0 663055.0 0
470673.0 663254.0 0
473828.0 666487.0 0
479716.0 664951.0 0
485580.0 665155.0 0
491697.0 663418.0 0
497259.0 664635.0 0
1810.05 667162.0 0
6740.28 667367.0 0
12477.3 667775.0 0
17933.8 668008.0 0
23223.9 669162.0 0
27818.4 668279.0 0
34816.8 670346.0 0
38941.2 668629.0 0
42628.6 667976.0 0
47500.0 669177.0 0
50228.2 666997.0 0
52436.2 670993.0 0
57340.1 668500.0 0
62593.8 668996.0 0
67414.3 668886.0 0
72585.8 668993.0 0
78134.4 668792.0 0
83493.1 668450.0 0
88136.5 670027.0 0
93256.2 669218.0 0
98428.5 668431.0 0
104023.0 667897.0 0
110160.0 668325.0 0
114615.0 669357.0 0
119105.0 667995.0 0
123113.0 669316.0 0
127600.0 668285.0 0
131955.0 667841.0 0
137121.0 667280.0 0
142416.0 667962.0 0
147226.0 670282.0 0
152674.0 668988.0 0
158060.0 668536.0 0
162509.0 668057.0 0
167747.0 668257.0 0
172933.0 667572.0 0
178341.0 668800.0 0
184132.0 668453.0 0
188307.0 666586.0 0
192566.0 668769.0 0
198159.0 667318.0 0
202986.0 670438.0 0
207339.0 667580.0 0
211956.0 669573.0 0
217235.0 669819.0 0
222187.0 667765.0 0
227625.0 668630.0 0
233048.0 669303.0 0
238404.0 670943.0 0
244151.0 669055.0 0
249671.0 668438.0 0
253695.0 670384.0 0
258794.0 668257.0 0
263966.0 669486.0 0
268243.0 669295.0 0
273135.0 669090.0 0
278392.0 670202.0 0
283514.0 667674.0 0
288932.0 669016.0 0
294081.0 669783.0 0
298380.0 670442.0 0
302741.0 668376.0 0
307487.0 669887.0 0
312706.0 668979.0 0
317058.0 670442.0 0
320259.0 671422.0 0
324363.0 669238.0 0
330493.0 668114.0 0
336668.0 667882.0 0
342094.0 670330.0 0
348213.0 669150.0 0
352487.0 670859.0 0
356405.0 669453.0 0
360873.0 669910.0 0
367481.0 670742.0 0
371981.0 667964.0 0
377207.0 669831.0 0
382342.0 668883.0 0
388104.0 670503.0 0
394889.0 670452.0 0
399825.0 671464.0 0
403680.0 668761.0 0
408430.0 670495.0 0
412156.0 667892.0 0
416772.0 666883.0 0
421467.0 668065.0 0
426767.0 669054.0 0
432274.0 668754.0 0
437555.0 668279.0 0
442140.0 668296.0 0
447178.0 668712.0 0
452666.0 669407.0 0
458371.0 668452.0 0
463638.0 668686.0 0
468222.0 667764.0 0
471880.0 670498.0 0
477670.0 668808.0 0
481837.0 668924.0 0
486055.0 670458.0 0
491486.0 669472.0 0
497371.0 669999.0 0
2703.58 671572.0 0
7556.49 674347.0 0
12537.6 672748.0 0
18016.9 674132.0 0
23871.5 674141.0 0
28711.3 672654.0 0
37672.3 674734.0 0
42057.2 672972.0 0
47578.4 673726.0 0
52326.4 676528.0 0
56536.6 673889.0 0
61327.1 673945.0 0
66807.9 674048.0 0
72168.7 674341.0 0
76638.9 673895.0 0
81003.9 672934.0 0
85432.1 673908.0 0
90765.2 674911.0 0
96532.5 673626.0 0
101378.0 672172.0 0
106760.0 672497.0 0
112007.0 672928.0 0
116308.0 676652.0 0
121021.0 672967.0 0
126303.0 672324.0 0
131895.0 673863.0 0
138298.0 672945.0 0
143746.0 672912.0 0
147906.0 675218.0 0
152621.0 674560.0 0
156877.0 672884.0 0
162188.0 673524.0 0
167850.0 673850.0 0
173682.0 673125.0 0
178597.0 676300.0 0
183714.0 674038.0 0
188343.0 671704.0 0
192616.0 674497.0 0
198677.0 674720.0 0
203545.0 674984.0 0
207958.0 673544.0 0
214327.0 674306.0 0
218624.0 673897.0 0
222500.0 673600.0 0
227722.0 673827.0 0
233776.0 674482.0 0
238601.0 675906.0 0
242833.0 674457.0 0
248252.0 673260.0 0
252526.0 674178.0 0
256664.0 674145.0 0
261528.0 673248.0 0
266098.0 673130.0 0
270536.0 673150.0 0
275330.0 674969.0 0
282457.0 673700.0 0
287967.0 674760.0 0
294325.0 674653.0 0
298698.0 674108.0 0
303283.0 674069.0 0
308041.0 673865.0 0
311806.0 674771.0 0
315620.0 673704.0 0
322210.0 675673.0 0
327764.0 674306.0 0
335048.0 673078.0 0
339288.0 674404.0 0
342881.0 676173.0 0
346656.0 673558.0 0
350623.0 674379.0 0
357914.0 674353.0 0
363363.0 673974.0 0
367540.0 675047.0 0
373068.0 674447.0 0
379378.0 675005.0 0
383518.0 673209.0 0
386516.0 675741.0 0
391844.0 676401.0 0
398066.0 674752.0 0
402564.0 674531.0 0
407375.0 674804.0 0
412473.0 673364.0 0
417918.0 672017.0 0
422950.0 674128.0 0
427713.0 673759.0 0
432214.0 674003.0 0
437342.0 673636.0 0
443039.0 673333.0 0
448520.0 673966.0 0
455494.0 673618.0 0
460002.0 674403.0 0
463609.0 672695.0 0
468170.0 672998.0 0
474077.0 673859.0 0
479030.0 673389.0 0
483711.0 673836.0 0
487262.0 674248.0 0
491809.0 675615.0 0
497348.0 675278.0 0
2621.69 676790.0 0
2124.21 681390.0 0
6977.07 680154.0 0
11109.9 677768.0 0
14765.8 678650.0 0
11785.8 681865.0 0
21689.7 679273.0 0
27696.2 677540.0 0
33051.4 676245.0 0
37815.2 679151.0 0
43429.5 677641.0 0
47777.7 678991.0 0
57221.9 678366.0 0
62566.8 678591.0 0
67195.9 679401.0 0
71250.8 678456.0 0
75435.0 678264.0 0
80969.2 678413.0 0
86304.3 678243.0 0
92142.5 681129.0 0
97759.5 678953.0 0
103470.0 677318.0 0
109431.0 677617.0 0
113039.0 680913.0 0
119135.0 680506.0 0
121884.0 677905.0 0
126819.0 677642.0 0
131179.0 678856.0 0
135811.0 678368.0 0
142770.0 678264.0 0
148730.0 680424.0 0
154224.0 678648.0 0
158538.0 676916.0 0
164379.0 677821.0 0
168810.0 679338.0 0
173758.0 678510.0 0
177191.0 680486.0 0
182945.0 679849.0 0
188072.0 677595.0 0
192931.0 679325.0 0
197403.0 679672.0 0
202599.0 679121.0 0
207665.0 678999.0 0
212302.0 678727.0 0
217588.0 678765.0 0
222850.0 678647.0 0
226918.0 677860.0 0
231177.0 679031.0 0
236081.0 679336.0 0
241075.0 679269.0 0
246290.0 678763.0 0
252066.0 678461.0 0
257583.0 679124.0 0
262663.0 678172.0 0
268125.0 677740.0 0
273108.0 679918.0 0
278303.0 679528.0 0
282842.0 678268.0 0
286893.0 680140.0 0
292139.0 679486.0 0
297636.0 678463.0 0
302787.0 679314.0 0
307785.0 678389.0 0
312562.0 679239.0 0
317565.0 678313.0 0
322233.0 680809.0 0
327007.0 680031.0 0
332424.0 678653.0 0
338408.0 678835.0 0
344314.0 679856.0 0
348014.0 678110.0 0
352529.0 677722.0 0
356504.0 679655.0 0
362309.0 679590.0 0
368995.0 680189.0 0
374308.0 679991.0 0
378002.0 679337.0 0
382500.0 678758.0 0
387677.0 679560.0 0
391179.0 681919.0 0
396128.0 678982.0 0
400460.0 679150.0 0
405369.0 679009.0 0
410714.0 679047.0 0
416668.0 677718.0 0
422302.0 679796.0 0
426712.0 677647.0 0
431208.0 679172.0 0
436830.0 679471.0 0
441815.0 678494.0 0
446844.0 678996.0 0
452017.0 677401.0 0
456755.0 679359.0 0
461556.0 678407.0 0
466479.0 679103.0 0
470917.0 676943.0 0
475959.0 678861.0 0
481700.0 678223.0 0
487095.0 678907.0 0
494034.0 680804.0 0
498259.0 679579.0 0
3366.64 686674.0 0
8634.18 685002.0 0
12737.3 685999.0 0
17039.2 682530.0 0
21575.7 684256.0 0
26353.0 682956.0 0
32901.7 682788.0 0
38368.6 685324.0 0
41893.1 682007.0 0
46495.9 683653.0 0
52898.6 683032.0 0
59780.3 682858.0 0
64980.1 683654.0 0
69915.4 683669.0 0
73660.9 685127.0 0
76748.1 682902.0 0
81948.7 684438.0 0
87012.1 682735.0 0
92826.8 685527.0 0
97155.0 684806.0 0
103233.0 683491.0 0
108889.0 682970.0 0
112914.0 684944.0 0
116608.0 682993.0 0
122260.0 682526.0 0
127022.0 682824.0 0
133177.0 683618.0 0
139030.0 682932.0 0
144613.0 684506.0 0
149492.0 685271.0 0
153403.0 683367.0 0
158134.0 681422.0 0
163444.0 682420.0 0
168010.0 684190.0 0
173547.0 684210.0 0
179531.0 684033.0 0
183946.0 684742.0 0
187829.0 682689.0 0
192666.0 683889.0 0
196696.0 683011.0 0
200919.0 684349.0 0
206591.0 684146.0 0
212664.0 684161.0 0
218214.0 683899.0 0
222502.0 684376.0 0
226878.0 682402.0 0
232233.0 684187.0 0
237649.0 684270.0 0
242786.0 683186.0 0
247791.0 684746.0 0
252472.0 683017.0 0
256834.0 684231.0 0
261361.0 682721.0 0
266121.0 682889.0 0
270797.0 683852.0 0
276028.0 684582.0 0
282464.0 683990.0 0
288624.0 685200.0 0
294381.0 684977.0 0
299617.0 683268.0 0
304625.0 683859.0 0
308672.0 682699.0 0
312656.0 684061.0 0
317320.0 683349.0 0
321688.0 685272.0 0
325567.0 684156.0 0
330794.0 684836.0 0
336399.0 683728.0 0
341767.0 683377.0 0
346627.0 682573.0 0
351790.0 682741.0 0
358802.0 683214.0 0
362068.0 685183.0 0
366677.0 685669.0 0
373211.0 683787.0 0
377372.0 683665.0 0
381191.0 683691.0 0
386315.0 684427.0 0
394818.0 685080.0 0
399137.0 683609.0 0
403901.0 683842.0 0
408014.0 682696.0 0
411868.0 684810.0 0
417814.0 683891.0 0
424030.0 684141.0 0
427817.0 683582.0 0
432467.0 684278.0 0
437260.0 683658.0 0
441533.0 683768.0 0
446955.0 684332.0 0
452099.0 682750.0 0
457123.0 684365.0 0
462027.0 683321.0 0
466888.0 684087.0 0
472107.0 683612.0 0
478101.0 684855.0 0
482799.0 682894.0 0
487450.0 684781.0 0
493113.0 686070.0 0
497869.0 683671.0 0
9439.03 690163.0 0
17950.0 688968.0 0
24166.2 687763.0 0
28625.8 690673.0 0
34642.3 689399.0 0
38784.2 688655.0 0
43042.2 687606.0 0
48699.4 687365.0 0
52760.9 690183.0 0
57453.8 687599.0 0
62191.9 687470.0 0
66642.8 689395.0 0
71892.4 689014.0 0
77370.8 688041.0 0
82482.6 690333.0 0
86458.2 687319.0 0
91263.5 689655.0 0
96353.1 689776.0 0
101484.0 689509.0 0
107241.0 688032.0 0
112925.0 690254.0 0
117896.0 687413.0 0
123564.0 687915.0 0
129110.0 687393.0 0
133039.0 688690.0 0
137788.0 688420.0 0
143266.0 690281.0 0
147685.0 688595.0 0
152752.0 689071.0 0
157809.0 686529.0 0
163043.0 688940.0 0
169270.0 689132.0 0
174168.0 689724.0 0
178547.0 688992.0 0
183240.0 688800.0 0
188088.0 687894.0 0
192651.0 688244.0 0
197613.0 688458.0 0
202617.0 688806.0 0
208442.0 688801.0 0
213053.0 689959.0 0
217686.0 688486.0 0
222498.0 688931.0 0
227967.0 688092.0 0
233066.0 688738.0 0
237573.0 689671.0 0
241766.0 687473.0 0
245749.0 689816.0 0
250120.0 689340.0 0
255018.0 689437.0 0
261488.0 688500.0 0
268237.0 688239.0 0
273853.0 689784.0 0
279362.0 689434.0 0
283649.0 688887.0 0
287107.0 690034.0 0
291483.0 689394.0 0
296347.0 690042.0 0
301702.0 688492.0 0
308253.0 688391.0 0
313905.0 688515.0 0
318262.0 687731.0 0
317681.0 692111.0 0
322192.0 689687.0 0
326610.0 688482.0 0
331067.0 690528.0 0
335454.0 688519.0 0
340470.0 688732.0 0
347935.0 687260.0 0
353307.0 688273.0 0
358053.0 687111.0 0
361845.0 689706.0 0
356970.0 691287.0 0
366413.0 690458.0 0
371349.0 688111.0 0
376906.0 688436.0 0
382062.0 688602.0 0
385983.0 689248.0 0
391186.0 689307.0 0
397842.0 688001.0 0
402051.0 688316.0 0
407237.0 687977.0 0
413088.0 690248.0 0
418812.0 689990.0 0
422679.0 687318.0 0
426971.0 688351.0 0
431476.0 689752.0 0
436757.0 688410.0 0
441851.0 689166.0 0
445954.0 689121.0 0
451381.0 688587.0 0
457944.0 689508.0 0
462570.0 688411.0 0
466551.0 688397.0 0
471154.0 689059.0 0
475690.0 689362.0 0
482313.0 688898.0 0
487377.0 690415.0 0
492207.0 690922.0 0
497482.0 688927.0 0
3706.37 693647.0 0
9073.01 696973.0 0
13679.4 694085.0 0
19094.2 696070.0 0
23347.9 692579.0 0
27042.0 695853.0 0
32662.1 695453.0 0
39889.2 692478.0 0
43521.9 696977.0 0
46980.8 692109.0 0
50743.4 696354.0 0
56101.2 695070.0 0
61772.6 692917.0 0
67673.4 694970.0 0
73493.8 694727.0 0
78283.5 693131.0 0
82307.3 696027.0 0
86927.7 693425.0 0
91952.1 695258.0 0
96972.1 694275.0 0
101860.0 694988.0 0
107874.0 694845.0 0
114191.0 695330.0 0
117755.0 693046.0 0
122219.0 695390.0 0
127859.0 692971.0 0
134337.0 693456.0 0
139912.0 694360.0 0
144524.0 696384.0 0
148594.0 693168.0 0
153142.0 694190.0 0
158211.0 693178.0 0
164150.0 695130.0 0
168083.0 693320.0 0
172341.0 694308.0 0
178090.0 694264.0 0
183237.0 693416.0 0
188359.0 693312.0 0
194265.0 693049.0 0
199331.0 693786.0 0
202845.0 694116.0 0
206832.0 693110.0 0
212692.0 694736.0 0
217435.0 693473.0 0
222255.0 693696.0 0
227159.0 693694.0 0
232057.0 693042.0 0
236802.0 694787.0 0
241781.0 692746.0 0
246766.0 694893.0 0
251686.0 693395.0 0
256983.0 695319.0 0
263633.0 695145.0 0
268779.0 693415.0 0
273097.0 694920.0 0
277881.0 694342.0 0
283367.0 693481.0 0
287790.0 693756.0 0
292933.0 693864.0 0
296336.0 694126.0 0
300142.0 694153.0 0
306834.0 694841.0 0
312741.0 693519.0 0
321737.0 694165.0 0
326821.0 693713.0 0
332781.0 695411.0 0
337801.0 693608.0 0
342347.0 693254.0 0
347197.0 692640.0 0
352613.0 693759.0 0
358343.0 696714.0 0
363571.0 694089.0 0
368835.0 693728.0 0
373157.0 693007.0 0
377946.0 693938.0 0
382619.0 694173.0 0
387316.0 693174.0 0
391786.0 695057.0 0
396480.0 692297.0 0
402246.0 693217.0 0
408314.0 693897.0 0
413514.0 694947.0 0
418413.0 695989.0 0
423589.0 693435.0 0
427506.0 693281.0 0
432620.0 693823.0 0
437208.0 694088.0 0
442003.0 693559.0 0
448175.0 693798.0 0
453373.0 693636.0 0
457794.0 694895.0 0
462414.0 693108.0 0
467498.0 692661.0 0
472765.0 694773.0 0
478716.0 693091.0 0
484104.0 694645.0 0
488463.0 694445.0 0
494206.0 694513.0 0
497977.0 693438.0 0
3228.29 700701.0 0
8702.1 702046.0 0
14206.7 700131.0 0
19213.8 701024.0 0
23587.8 699719.0 0
28635.1 700405.0 0
33319.8 700960.0 0
37914.3 698405.0 0
42957.8 702690.0 0
47651.1 699950.0 0
52205.5 701334.0 0
57970.4 699487.0 0
61646.0 698111.0 0
65330.3 699366.0 0
73100.2 699773.0 0
77213.3 698742.0 0
81675.0 701202.0 0
86696.8 698578.0 0
91092.3 699856.0 0
95874.5 699372.0 0
101306.0 700114.0 0
106580.0 700894.0 0
112119.0 699120.0 0
117501.0 697542.0 0
121276.0 700271.0 0
126894.0 699709.0 0
132161.0 698147.0 0
137405.0 699095.0 0
142487.0 701098.0 0
148445.0 699519.0 0
153701.0 698914.0 0
159436.0 699216.0 0
164769.0 700767.0 0
168678.0 698503.0 0
172865.0 699609.0 0
177204.0 698987.0 0
181617.0 698086.0 0
186704.0 698330.0 0
192543.0 699370.0 0
197840.0 697636.0 0
202803.0 698582.0 0
208731.0 698225.0 0
214014.0 698956.0 0
218286.0 698581.0 0
222405.0 698666.0 0
226665.0 698569.0 0
232219.0 698429.0 0
238211.0 698995.0 0
242313.0 697905.0 0
247115.0 699910.0 0
252165.0 698161.0 0
257634.0 700202.0 0
261205.0 699856.0 0
268991.0 698535.0 0
274008.0 699361.0 0
278619.0 699094.0 0
283411.0 698721.0 0
287639.0 698669.0 0
291870.0 698507.0 0
296288.0 697357.0 0
296810.0 701744.0 0
301671.0 699775.0 0
306701.0 700128.0 0
311617.0 699308.0 0
317470.0 697481.0 0
323311.0 698948.0 0
328608.0 698765.0 0
332853.0 699955.0 0
336992.0 698519.0 0
341934.0 697905.0 0
347419.0 698325.0 0
352874.0 699124.0 0
362628.0 699377.0 0
367062.0 698238.0 0
373044.0 698551.0 0
378460.0 698743.0 0
382862.0 699347.0 0
387372.0 698275.0 0
391696.0 699754.0 0
395885.0 698009.0 0
401249.0 698704.0 0
406694.0 699794.0 0
411299.0 698303.0 0
414851.0 698874.0 0
423255.0 699100.0 0
428188.0 697180.0 0
433207.0 698722.0 0
438206.0 698392.0 0
442117.0 697877.0 0
446080.0 698495.0 0
451603.0 698908.0 0
456417.0 698499.0 0
460700.0 698450.0 0
465811.0 697536.0 0
470351.0 699889.0 0
475738.0 700534.0 0
480369.0 697887.0 0
484299.0 699939.0 0
490449.0 699566.0 0
497112.0 698276.0 0
2047.89 705848.0 0
6290.34 705965.0 0
12100.6 705566.0 0
17662.7 705673.0 0
21991.6 703855.0 0
26061.0 704464.0 0
32426.2 705248.0 0
37319.5 704462.0 0
41398.1 707296.0 0
48091.4 704724.0 0
52847.3 706686.0 0
56713.0 703571.0 0
62272.4 703979.0 0
68666.3 703252.0 0
73401.3 704929.0 0
77353.4 703760.0 0
83722.4 705368.0 0
88110.1 703565.0 0
93450.6 704146.0 0
98038.7 703490.0 0
102350.0 705009.0 0
106409.0 705305.0 0
110752.0 704080.0 0
116465.0 702691.0 0
121507.0 704974.0 0
126157.0 705446.0 0
133191.0 703028.0 0
137995.0 704150.0 0
142230.0 705961.0 0
146535.0 704085.0 0
151294.0 703481.0 0
156113.0 704753.0 0
161001.0 704252.0 0
165400.0 705848.0 0
170517.0 704333.0 0
176193.0 703680.0 0
182009.0 703618.0 0
188074.0 703783.0 0
193654.0 705374.0 0
198861.0 702721.0 0
202648.0 705180.0 0
205791.0 702750.0 0
212622.0 703554.0 0
217002.0 703770.0 0
221282.0 703529.0 0
226731.0 703740.0 0
231658.0 703529.0 0
236944.0 703842.0 0
243216.0 703365.0 0
248080.0 703876.0 0
252091.0 702718.0 0
256629.0 704152.0 0
261379.0 704138.0 0
266303.0 703554.0 0
271203.0 703673.0 0
276189.0 703715.0 0
282684.0 703525.0 0
287500.0 703613.0 0
292275.0 703499.0 0
297027.0 706637.0 0
302123.0 705345.0 0
308086.0 703627.0 0
311947.0 704702.0 0
316426.0 703023.0 0
321579.0 704079.0 0
325769.0 703199.0 0
330254.0 703985.0 0
335518.0 703258.0 0
341173.0 703560.0 0
347429.0 704465.0 0
353483.0 704570.0 0
359857.0 703499.0 0
366126.0 704066.0 0
370791.0 705595.0 0
374037.0 703304.0 0
378608.0 704052.0 0
383501.0 703495.0 0
388713.0 703778.0 0
392513.0 707205.0 0
393623.0 703605.0 0
397911.0 702716.0 0
402701.0 703986.0 0
407555.0 703376.0 0
411185.0 703146.0 0
417072.0 702973.0 0
422116.0 703754.0 0
427388.0 703463.0 0
432502.0 703683.0 0
436937.0 703132.0 0
442598.0 702683.0 0
447978.0 703036.0 0
452877.0 704772.0 0
457816.0 702507.0 0
457607.0 707284.0 0
462108.0 704865.0 0
466515.0 702855.0 0
472541.0 704147.0 0
476658.0 705796.0 0
480774.0 703303.0 0
486058.0 704752.0 0
492942.0 705356.0 0
497547.0 703914.0 0
3256.27 710511.0 0
8001.88 709837.0 0
12432.2 710519.0 0
17346.8 711179.0 0
20507.5 709303.0 0
23717.7 708495.0 0
29125.4 709144.0 0
37375.9 710678.0 0
43051.0 711174.0 0
47810.4 709055.0 0
51094.5 710834.0 0
57573.3 708402.0 0
61981.2 709153.0 0
66464.3 708884.0 0
71140.3 708218.0 0
75895.4 708507.0 0
81301.4 709785.0 0
87285.4 709160.0 0
92567.3 709025.0 0
97062.0 707671.0 0
101498.0 709621.0 0
97047.5 712634.0 0
106541.0 709675.0 0
112186.0 709654.0 0
118306.0 709341.0 0
123551.0 709182.0 0
130621.0 708254.0 0
135740.0 707547.0 0
139750.0 710038.0 0
143457.0 709261.0 0
147368.0 709090.0 0
152381.0 708181.0 0
157455.0 709314.0 0
162079.0 709439.0 0
167776.0 709485.0 0
172602.0 709798.0 0
177544.0 708309.0 0
182076.0 708867.0 0
187328.0 709573.0 0
192334.0 710090.0 0
198195.0 708299.0 0
202703.0 708896.0 0
208403.0 708335.0 0
213498.0 710325.0 0
216278.0 707791.0 0
220794.0 708589.0 0
225925.0 709285.0 0
231198.0 708232.0 0
236042.0 709332.0 0
240688.0 709452.0 0
246464.0 708904.0 0
253420.0 709246.0 0
259808.0 709022.0 0
264335.0 709542.0 0
268941.0 708605.0 0
273384.0 708367.0 0
278477.0 708772.0 0
283316.0 708074.0 0
287167.0 708098.0 0
287801.0 712254.0 0
291662.0 708934.0 0
296365.0 712235.0 0
301132.0 710032.0 0
306513.0 707344.0 0
310594.0 709038.0 0
316414.0 709200.0 0
322395.0 709701.0 0
326814.0 708040.0 0
331714.0 709420.0 0
337448.0 708723.0 0
342617.0 708377.0 0
346641.0 710157.0 0
351143.0 709003.0 0
357136.0 709412.0 0
363104.0 708982.0 0
368040.0 708427.0 0
374415.0 708690.0 0
379151.0 708762.0 0
383657.0 708507.0 0
388719.0 709212.0 0
397353.0 708236.0 0
402508.0 707622.0 0
401893.0 710910.0 0
407131.0 707949.0 0
413299.0 708218.0 0
418722.0 708655.0 0
423797.0 707852.0 0
428384.0 709203.0 0
433627.0 708358.0 0
438369.0 707417.0 0
437480.0 710955.0 0
442832.0 708436.0 0
448387.0 708329.0 0
453769.0 710102.0 0
461502.0 709355.0 0
467127.0 708631.0 0
472817.0 708375.0 0
477835.0 709268.0 0
482416.0 708779.0 0
489262.0 709065.0 0
493704.0 709642.0 0
497651.0 708579.0 0
2915.0 716241.0 0
8363.45 714596.0 0
14270.7 714918.0 0
20405.4 714912.0 0
24262.7 712756.0 0
27620.4 713380.0 0
31200.1 714247.0 0
35415.4 715601.0 0
40823.5 715232.0 0
47324.9 713310.0 0
50960.1 715380.0 0
55420.7 713596.0 0
61121.7 713693.0 0
66303.6 714039.0 0
72726.7 714081.0 0
78877.9 714632.0 0
82528.9 713977.0 0
85950.1 714040.0 0
91463.7 714612.0 0
102871.0 715249.0 0
108891.0 714430.0 0
113373.0 714360.0 0
116788.0 716655.0 0
121553.0 714553.0 0
127089.0 712906.0 0
133560.0 714075.0 0
139866.0 715418.0 0
144702.0 713370.0 0
149391.0 714645.0 0
154395.0 713019.0 0
158032.0 717592.0 0
159424.0 713362.0 0
163562.0 713951.0 0
167473.0 713432.0 0
171487.0 714790.0 0
176958.0 714072.0 0
183310.0 714009.0 0
188455.0 714330.0 0
191974.0 713135.0 0
197217.0 714089.0 0
203264.0 713625.0 0
209086.0 715375.0 0
213890.0 713769.0 0
217669.0 713607.0 0
222298.0 713762.0 0
227434.0 714269.0 0
232889.0 713714.0 0
238516.0 714064.0 0
242929.0 713695.0 0
247945.0 714676.0 0
251923.0 714672.0 0
255966.0 714876.0 0
261038.0 714205.0 0
266142.0 713552.0 0
272046.0 714061.0 0
277182.0 713319.0 0
282378.0 713407.0 0
291697.0 715061.0 0
300731.0 714736.0 0
305934.0 712994.0 0
311933.0 713675.0 0
317033.0 715685.0 0
322150.0 714482.0 0
327626.0 713520.0 0
332801.0 714059.0 0
337231.0 714151.0 0
341988.0 712699.0 0
342916.0 717667.0 0
347008.0 715166.0 0
351901.0 713656.0 0
357565.0 715626.0 0
362757.0 714108.0 0
367419.0 712892.0 0
372078.0 712883.0 0
376653.0 713501.0 0
381756.0 713777.0 0
387330.0 714556.0 0
393734.0 713610.0 0
399309.0 714505.0 0
405612.0 714961.0 0
411558.0 713440.0 0
417232.0 714112.0 0
423382.0 713526.0 0
429711.0 714576.0 0
435245.0 714424.0 0
441050.0 713411.0 0
446636.0 713952.0 0
451920.0 714631.0 0
458223.0 713490.0 0
463923.0 713631.0 0
469081.0 714065.0 0
473813.0 713047.0 0
472463.0 717571.0 0
478552.0 713873.0 0
483037.0 713458.0 0
487681.0 713946.0 0
492452.0 713592.0 0
497208.0 713584.0 0
1225.79 720012.0 0
7162.99 719198.0 0
11447.4 718495.0 0
17333.1 718727.0 0
21836.6 718844.0 0
26379.9 717667.0 0
31972.0 719040.0 0
37508.2 720334.0 0
42392.6 719196.0 0
46472.5 718083.0 0
52616.6 719822.0 0
58304.3 718718.0 0
63577.8 718526.0 0
68142.3 718322.0 0
71776.2 720399.0 0
76753.9 719477.0 0
81951.4 718365.0 0
86995.7 718640.0 0
91743.7 720750.0 0
97371.8 719018.0 0
102415.0 720574.0 0
107084.0 719481.0 0
112211.0 718663.0 0
117848.0 721493.0 0
122768.0 719790.0 0
128569.0 719050.0 0
135052.0 720816.0 0
139494.0 719577.0 0
144108.0 718447.0 0
148332.0 719058.0 0
153049.0 718517.0 0
162530.0 718611.0 0
167805.0 718375.0 0
173545.0 717964.0 0
172918.0 722399.0 0
177201.0 719536.0 0
181549.0 718981.0 0
186432.0 718978.0 0
192124.0 717858.0 0
197589.0 719720.0 0
201902.0 718380.0 0
206290.0 720918.0 0
214292.0 718195.0 0
218682.0 718868.0 0
222500.0 718932.0 0
226857.0 719928.0 0
232511.0 718851.0 0
237269.0 719210.0 0
242580.0 718383.0 0
247374.0 719530.0 0
252500.0 718936.0 0
256789.0 719534.0 0
261626.0 719399.0 0
267302.0 719133.0 0
272809.0 719883.0 0
277700.0 717894.0 0
282189.0 720692.0 0
286775.0 717673.0 0
291463.0 720202.0 0
296839.0 718369.0 0
302703.0 719117.0 0
307645.0 718426.0 0
312377.0 718775.0 0
316518.0 720542.0 0
320994.0 719356.0 0
326467.0 719407.0 0
331794.0 718528.0 0
337536.0 719790.0 0
347547.0 720196.0 0
352860.0 719173.0 0
358007.0 721097.0 0
362186.0 718536.0 0
366379.0 717597.0 0
368523.0 721850.0 0
372336.0 717822.0 0
377121.0 717984.0 0
381151.0 718455.0 0
378259.0 722429.0 0
385663.0 720036.0 0
391382.0 719652.0 0
396922.0 718750.0 0
401836.0 719280.0 0
407701.0 720642.0 0
412947.0 718369.0 0
417892.0 719823.0 0
422542.0 718683.0 0
426780.0 719332.0 0
432872.0 718569.0 0
430470.0 721891.0 0
437627.0 719079.0 0
443023.0 718280.0 0
448158.0 719407.0 0
452357.0 718580.0 0
456528.0 718776.0 0
461804.0 718629.0 0
464400.0 722645.0 0
467433.0 719005.0 0
474272.0 722256.0 0
477282.0 718466.0 0
482255.0 718257.0 0
488483.0 719340.0 0
492996.0 718524.0 0
492552.0 722456.0 0
497500.0 718578.0 0
2836.1 723734.0 0
8040.62 724379.0 0
13110.2 723173.0 0
17801.9 723191.0 0
21971.9 724869.0 0
27433.7 723730.0 0
33105.7 724138.0 0
37684.5 726093.0 0
42203.0 723872.0 0
47682.7 723061.0 0
52057.9 725287.0 0
56756.5 724001.0 0
62011.2 723426.0 0
67512.8 723367.0 0
72871.5 725189.0 0
78050.4 724734.0 0
83968.0 723922.0 0
89493.6 725006.0 0
94158.2 725270.0 0
98851.3 724423.0 0
103958.0 725149.0 0
108668.0 723782.0 0
112637.0 723269.0 0
115789.0 725390.0 0
121779.0 724550.0 0
127868.0 726394.0 0
134912.0 726022.0 0
138654.0 724548.0 0
143112.0 723427.0 0
146835.0 725468.0 0
150877.0 723813.0 0
157075.0 723286.0 0
162823.0 723374.0 0
167727.0 724400.0 0
177926.0 724074.0 0
183139.0 723737.0 0
187996.0 723796.0 0
192441.0 723378.0 0
197220.0 724355.0 0
202500.0 723809.0 0
207967.0 725581.0 0
212617.0 723584.0 0
217500.0 723764.0 0
222500.0 723633.0 0
228006.0 725245.0 0
232694.0 723564.0 0
237684.0 724126.0 0
242754.0 722918.0 0
241600.0 727521.0 0
247548.0 723919.0 0
252107.0 723212.0 0
256460.0 723753.0 0
260861.0 724392.0 0
265644.0 724293.0 0
270887.0 724950.0 0
277162.0 724008.0 0
282213.0 725105.0 0
286855.0 723875.0 0
292446.0 725348.0 0
298557.0 724742.0 0
304008.0 723787.0 0
308213.0 722846.0 0
306338.0 727890.0 0
312892.0 724372.0 0
318567.0 725128.0 0
323402.0 723440.0 0
327936.0 724633.0 0
333238.0 724159.0 0
338000.0 725487.0 0
342800.0 723449.0 0
347075.0 726816.0 0
351226.0 724204.0 0
356586.0 726396.0 0
362855.0 724162.0 0
373204.0 725532.0 0
382984.0 724371.0 0
388403.0 724958.0 0
393425.0 725112.0 0
397967.0 723872.0 0
403308.0 724139.0 0
407897.0 725865.0 0
412525.0 723582.0 0
417569.0 724984.0 0
422166.0 723223.0 0
426977.0 724919.0 0
435100.0 724568.0 0
441267.0 723671.0 0
446618.0 726307.0 0
452502.0 723716.0 0
459280.0 724155.0 0
469075.0 724523.0 0
479264.0 723306.0 0
483844.0 722925.0 0
484129.0 727058.0 0
488109.0 724583.0 0
497500.0 723552.0 0
2023.43 728869.0 0
6083.64 729174.0 0
11293.7 728152.0 0
17149.4 728436.0 0
23221.1 729878.0 0
28184.2 729183.0 0
33290.9 729531.0 0
38084.1 730575.0 0
42404.5 729012.0 0
47077.6 728206.0 0
51865.7 730007.0 0
57253.9 729602.0 0
62654.9 728643.0 0
67318.8 728533.0 0
71432.2 730108.0 0
76177.5 729274.0 0
81897.2 730540.0 0
87183.1 728651.0 0
91810.3 729855.0 0
97375.9 729400.0 0
102779.0 730758.0 0
108198.0 729013.0 0
113553.0 729074.0 0
118849.0 728815.0 0
123519.0 731134.0 0
127764.0 732390.0 0
133226.0 730186.0 0
138310.0 729064.0 0
143218.0 728445.0 0
146864.0 729337.0 0
151277.0 729630.0 0
157212.0 729626.0 0
162745.0 728450.0 0
167704.0 729399.0 0
173382.0 728681.0 0
177944.0 729497.0 0
181757.0 729011.0 0
187102.0 728578.0 0
193330.0 729264.0 0
198707.0 728335.0 0
202901.0 728451.0 0
207269.0 729946.0 0
212288.0 728987.0 0
217524.0 728533.0 0
222463.0 728658.0 0
226565.0 729773.0 0
231486.0 728407.0 0
236425.0 728842.0 0
247282.0 729057.0 0
253460.0 728407.0 0
258881.0 728850.0 0
262900.0 728667.0 0
267374.0 728992.0 0
273112.0 729528.0 0
277555.0 729558.0 0
282218.0 728658.0 0
283289.0 732897.0 0
287083.0 729079.0 0
291185.0 729962.0 0
296247.0 730815.0 0
301942.0 728847.0 0
310683.0 728761.0 0
315189.0 729963.0 0
320236.0 730071.0 0
325753.0 730021.0 0
331445.0 729153.0 0
336212.0 729542.0 0
342100.0 730109.0 0
347318.0 731951.0 0
351458.0 729615.0 0
356318.0 732227.0 0
361479.0 730320.0 0
367591.0 728974.0 0
372712.0 732077.0 0
378657.0 729832.0 0
384768.0 729062.0 0
389586.0 730314.0 0
394502.0 729507.0 0
399837.0 729286.0 0
403890.0 728709.0 0
407285.0 730812.0 0
412913.0 729011.0 0
418056.0 729688.0 0
422643.0 728293.0 0
427445.0 730159.0 0
431961.0 728691.0 0
436509.0 729843.0 0
441538.0 729495.0 0
446135.0 731417.0 0
451505.0 730399.0 0
457330.0 730502.0 0
462040.0 729103.0 0
467247.0 730536.0 0
473528.0 729128.0 0
479674.0 728761.0 0
487445.0 730936.0 0
492972.0 727929.0 0
497909.0 729794.0 0
2250.95 733333.0 0
5688.23 735125.0 0
10622.6 734043.0 0
17151.9 734926.0 0
22626.4 734719.0 0
27805.4 734513.0 0
33438.8 734991.0 0
38846.7 735355.0 0
42998.4 737025.0 0
47319.3 733996.0 0
53224.7 734984.0 0
58422.1 735025.0 0
63726.8 733996.0 0
68572.7 733638.0 0
72920.0 734676.0 0
77522.9 734244.0 0
82471.3 735592.0 0
87338.9 733580.0 0
92480.7 735012.0 0
98218.3 734876.0 0
102863.0 735467.0 0
107380.0 734283.0 0
112500.0 733623.0 0
117464.0 733721.0 0
121795.0 735099.0 0
125841.0 735918.0 0
131720.0 735749.0 0
137407.0 734114.0 0
142978.0 733729.0 0
148109.0 733708.0 0
153108.0 735059.0 0
158369.0 734963.0 0
162928.0 733524.0 0
167387.0 733939.0 0
172171.0 734554.0 0
177548.0 733554.0 0
182508.0 733935.0 0
186790.0 733684.0 0
191125.0 734963.0 0
197722.0 734165.0 0
203438.0 733342.0 0
208210.0 734478.0 0
213244.0 734130.0 0
218081.0 733607.0 0
222096.0 733588.0 0
225910.0 734053.0 0
230896.0 733902.0 0
236682.0 734055.0 0
242508.0 733434.0 0
248085.0 734597.0 0
252489.0 734549.0 0
256733.0 733081.0 0
261217.0 735010.0 0
266766.0 734768.0 0
272451.0 734202.0 0
277942.0 734799.0 0
288652.0 734205.0 0
293520.0 735188.0 0
297415.0 736666.0 0
301278.0 733751.0 0
307669.0 733995.0 0
313636.0 734892.0 0
318717.0 734820.0 0
323290.0 734529.0 0
327525.0 735736.0 0
332260.0 734060.0 0
337611.0 734892.0 0
342936.0 736037.0 0
347358.0 735922.0 0
351918.0 735029.0 0
358941.0 736349.0 0
363449.0 735200.0 0
367550.0 734570.0 0
372563.0 736577.0 0
377193.0 735182.0 0
382442.0 733726.0 0
386628.0 734560.0 0
392269.0 734640.0 0
397463.0 734320.0 0
402397.0 733820.0 0
406602.0 735806.0 0
411657.0 734182.0 0
417373.0 735074.0 0
422821.0 733448.0 0
427660.0 735368.0 0
432642.0 733494.0 0
438120.0 734518.0 0
443308.0 735205.0 0
448148.0 735248.0 0
452835.0 736156.0 0
457500.0 735141.0 0
462313.0 734212.0 0
467050.0 735896.0 0
472247.0 735348.0 0
477750.0 733918.0 0
482843.0 733900.0 0
487926.0 736054.0 0
492474.0 734119.0 0
497465.0 733793.0 0
POINT_DATA 5000
SCALARS Radius float 1
LOOKUP_TABLE default
5253.55 5782.6 5379.87 6044.04 5415.48 5120.0 6182.6 5906.14 7513.1 5580.89 6810.52 7613.27 5529.52 5255.32 5096.78 6756.95 6324.23 3843.58 5191.63 4150.99 4216.92 6268.1 4861.06 5320.28 3979.26 4298.67 3471.03 5820.48 7034.11 4862.21 5113.21 3929.19 4107.03 4043.57 4478.15 5681.38 5925.6 4501.51 4792.73 4736.58 4931.38 3485.26 6082.81 4329.05 4151.94 4049.23 5337.48 6124.89 4929.8 5708.81 5252.48 4780.03 5495.39 3996.0 3856.1 4665.12 3383.4 4133.88 4094.62 4834.9 3850.77 5546.39 5325.36 5484.83 5085.53 3863.18 5351.6 2356.98 4998.37 4715.55 5492.18 5258.36 3951.75 5061.3 3642.12 3163.97 5542.27 5812.43 5122.66 5484.19 5254.28 4688.68 4436.4 5733.48 4672.91 4182.53 5903.42 3588.44 5645.7 5176.86 4366.19 5840.26 3672.51 6110.27 5561.06 5073.35 3615.22 5670.04 4380.59 3589.27 6716.79 3997.1 3607.45 5759.91 3038.33 4951.03 7199.21 6037.08 4523.7 5091.39 5293.9 4129.43 6142.94 4727.24 3320.52 4194.5 4270.53 5082.47 5344.25 5445.87 4593.7 4704.72 4177.94 4742.68 4571.7 4344.58 5634.83 5495.84 3784.5 5374.51 6739.08 4797.52 4796.58 4569.12 5873.69 5960.66 6608.73 5011.84 6261.42 4502.5 3771.48 5499.11 4271.69 4138.42 3708.04 5987.17 5513.6 3240.09 4556.36 4901.41 3191.99 4685.34 4382.74 5601.05 4651.28 3586.91 3103.0 3554.9 5481.78 4015.92 5542.21 4487.31 3936.02 5043.05 4044.71 5980.74 5109.54 4927.02 5945.65 5538.89 4730.36 5416.38 5867.73 6059.59 5013.56 5701.86 4499.64 4375.68 4468.59 5054.98 6030.06 5170.02 3557.27 4927.31 4862.64 4402.52 5185.34 4517.56 4432.58 6684.56 3968.64 3955.56 3761.32 4118.05 6166.5 5553.16 2938.66 4940.78 4231.61 4008.92 4003.05 3942.53 3379.84 4805.87 4827.82 5227.21 5697.78 3260.67 5123.52 4091.31 4392.68 6372.62 4333.2 4295.38 2240.39 5923.5 4612.68 3912.37 4973.83 4602.25 6691.39 4790.08 5135.69 4763.45 5344.0 6045.46 3815.26 5908.1 6048.7 5896.46 5022.8 3780.23 4166.08 6481.79 5224.12 7042.12 4819.73 6326.39 4471.58 6098.14 4962.09 4472.17 3999.48 4203.26 4359.62 5188.81 6946.21 2586.12 6057.22 5433.8 4011.77 4527.08 3633.87 5922.5 5198.77 6013.14 2765.2 5011.31 5138.31 5110.37 5664.98 5927.43 6355.42 4384.42 3693.63 4362.19 4516.43 5690.56 4948.92 5637.59 4937.14 3307.12 5816.2 4002.16 5693.81 4174.52 6483.19 3829.13 6759.9 5418.62 7021.47 5740.68 5926.61 2720.68 4955.55 3563.63 5836.15 4238.81 4345.55 5885.03 2837.58 3871.88 5325.02 5200.76 5017.13 5279.39 3673.74 5205.43 7447.37 4688.67 2635.86 4385.06 5292.64 5065.13 5936.02 5305.17 4861.08 5399.73 5390.22 3888.21 4712.33 6038.78 4667.36 4254.17 5090.24 5615.42 7565.34 5530.87 4281.49 6342.25 4187.56 4840.84 4020.32 4245.72 4156.38 5316.75 4541.21 6133.92 4164.68 3719.84 4178.4 5934.22 3095.48 5762.59 4123.6 4850.14 5163.55 3382.7 6817.32 4319.79 3637.61 6222.42 5654.31 4730.41 3745.84 5062.71 4156.2 6125.34 5965.78 5347.48 4850.01 4810.12 3970.25 5643.58 5147.67 3979.82 4292.06 5577.04 5006.58 5264.06 4602.86 4659.59 6327.9 4048.37 5492.26 5244.78 5762.84 3115.91 3937.74 4493.48 6084.86 5924.89 4778.34 4138.16 6894.71 3486.22 4684.5 3091.3 6230.49 6458.82 4601.27 5493.32 3641.64 4277.89 6051.14 3261.21 4195.44 5539.32 6704.06 3653.41 6496.85 5600.93 3856.01 4874.39 5246.2 4390.66 5728.85 4827.23 4911.47 6116.18 4924.6 6257.19 4733.32 7184.19 2899.43 2812.98 2924.37 3867.67 5603.15 4290.3 4695.45 4660.72 6052.7 3921.18 5891.05 5308.1 6902.81 6644.76 5655.21 5629.19 4645.41 4786.6 5740.84 6445.94 4310.18 4218.06 7134.64 5978.9 4716.19 3629.62 4997.27 5514.76 4301.06 3456.98 4877.67 4290.14 3066.13 6562.18 6006.16 7055.53 5669.65 5624.49 4970.88 7092.87 4666.81 3703.1 3954.91 6471.55 2965.01 5499.39 6643.85 5501.93 5463.38 4938.74 5690.26 5607.14 4497.59 5975.63 4374.35 6396.74 5215.05 3821.72 4986.77 5586.81 3688.8 4548.16 3369.23 4551.24 5449.18 4220.88 4515.71 4749.8 5082.6 5478.92 5551.36 5094.44 4467.94 4414.54 4850.81 5789.98 6138.47 7054.71 5489.43 5573.7 5747.75 4727.62 5054.25 4796.33 7325.81 5280.17 5360.19 4794.96 5541.59 4124.71 5083.08 6337.56 5803.39 5863.59 4381.97 4024.3 3255.82 5555.28 5242.73 4737.14 4065.69 4686.65 5556.96 3798.62 6392.01 3666.57 4907.89 4937.02 4073.93 6043.3 5952.75 4433.59 4320.28 6122.55 5542.14 2739.94 4931.53 5480.13 6308.71 3323.28 6695.82 6405.76 3498.2 5105.16 5448.61 4302.5 4827.33 6009.88 5513.57 5013.67 5826.04 5339.78 4143.78 4538.95 4763.66 4636.5 4940.42 5923.4 5085.71 5644.82 6343.14 5945.21 5750.71 5696.88 4831.47 3923.03 4643.85 4004.04 5252.34 4138.46 4274.61 2775.04 2965.79 6898.19 6035.6 6318.18 4481.53 3948.17 5330.45 4621.75 4581.13 5358.59 3610.4 6387.01 5367.52 6519.71 3092.35 6640.13 5210.03 5810.84 4230.54 5351.39 3748.24 6142.37 4655.49 4933.21 5375.47 6038.14 2540.31 6029.66 5527.54 5697.4 6038.2 4270.95 4005.44 4055.8 5206.78 6425.26 5143.58 6186.19 4839.34 2980.99 6834.49 7933.0 5525.39 4455.12 3998.5 5938.34 5380.13 6394.38 5118.27 5169.36 5932.23 5834.74 3369.13 4479.66 5788.23 5581.75 3599.45 6730.19 4907.06 5489.34 3735.44 5163.9 6332.36 6155.31 4223.33 5911.67 5709.62 5835.78 5794.24 4127.74 4678.38 3942.07 7443.72 5050.65 3937.08 5260.34 5206.48 5729.23 5226.0 3365.82 5724.64 5965.15 4780.2 6090.91 4946.42 4963.34 5019.93 5081.78 6116.33 6263.44 5774.97 5462.21 6313.06 5470.77 6470.3 6062.05 4289.17 5564.02 6072.45 4410.55 5137.34 5423.0 3856.59 4219.07 5413.79 6202.55 4322.15 5025.39 4714.54 3629.96 5478.47 3320.11 6022.17 6061.47 6163.38 4566.18 4723.12 5120.49 5201.36 5262.61 6302.8 5409.61 5094.81 5972.06 5555.88 6732.43 5028.96 3866.16 6362.12 4484.76 3778.1 4840.01 5152.36 4511.82 5611.2 5173.87 4894.16 5711.87 3372.79 4941.22 5791.61 4669.66 4808.52 5367.2 5607.24 3043.85 5461.13 4726.76 5839.13 5495.68 4863.72 5002.48 5708.14 5537.72 3920.42 8332.24 4553.56 5329.64 6049.55 5991.09 2476.04 5133.97 6600.94 5371.02 6155.1 4709.35 6586.45 4373.3 4750.78 5029.78 4163.5 4888.6 5078.86 5100.1 4918.77 3561.29 4371.99 4219.78 3295.83 3885.86 4459.28 4260.92 4479.94 6250.23 5960.56 4118.84 4020.95 5862.86 3474.39 3493.7 4200.03 6939.12 5082.74 4735.33 6915.83 5092.37 6444.77 7099.43 5526.14 4287.63 5198.29 5077.33 4746.52 3689.45 5572.95 6338.89 5584.06 7111.16 5893.5 4547.19 5030.91 5119.37 3982.23 4583.31 4503.89 5806.08 3459.9 4997.27 4853.39 4964.09 4093.08 4809.42 5024.9 4306.53 5659.17 5713.22 4312.67 5861.71 4359.04 3183.98 3794.63 5017.78 4524.28 6175.81 4727.24 6677.09 5826.64 4220.65 6820.42 4816.2 6321.41 4896.52 4089.76 4751.02 3192.41 5184.56 5282.64 4715.72 3315.57 5804.71 5046.33 4764.96 4242.52 5053.92 6352.26 3847.38 3057.03 3818.59 4143.08 7500.97 6623.85 5228.18 4262.82 5102.36 5065.11 4342.9 5069.84 4051.44 4050.9 4978.31 4241.89 5054.74 5941.72 4656.78 5126.91 4788.58 5131.24 5196.67 5876.71 6262.72 3664.11 6515.84 2990.77 5882.65 4739.14 5187.7 4188.3 5235.29 4255.31 5453.3 6413.02 4863.27 3492.19 4584.5 5122.63 6049.79 5374.98 4719.7 4406.4 5411.85 4844.57 4027.46 6314.07 5776.37 5315.4 6449.45 3975.31 4044.45 3824.16 5125.78 5344.43 3868.18 4373.47 5045.38 6723.16 5372.61 3686.21 3817.13 5507.24 5023.15 6851.54 3813.22 5570.3 4336.42 5243.29 7589.94 3130.65 4449.22 5543.27 4717.05 5856.11 5287.2 6135.57 4109.88 5998.38 5013.13 5423.8 4270.24 3417.33 4989.15 4926.42 4164.13 5015.69 4642.34 4947.52 4305.57 6959.81 4829.35 5201.67 3791.79 4424.7 4754.05 5526.55 6084.93 5215.15 4987.87 3697.96 4739.42 5538.93 5020.12 5727.3 2631.9 5281.28 5356.51 4277.88 4668.71 4087.15 4758.21 7228.46 3948.23 5978.82 5787.31 3927.99 5868.82 4948.98 4099.77 5227.52 4092.24 4981.9 4537.32 5163.02 7144.24 4906.82 3600.43 5004.23 6496.67 5474.8 6607.87 5117.47 4721.32 3163.78 4925.63 3293.56 5274.14 4434.19 4903.82 5746.28 4623.61 4082.47 5511.6 6261.75 5177.64 4378.3 6134.99 4094.73 4407.9 4440.57 5548.29 4703.08 2315.64 6345.13 5274.19 5226.56 5516.95 5313.22 4413.85 3999.94 4470.98 4864.22 4516.28 3921.08 4190.31 3627.82 5678.96 5262.19 4244.9 6070.58 5350.88 5130.91 5402.24 6480.17 6445.22 4377.07 5101.59 3844.9 3963.86 3848.93 4306.11 5935.47 5903.66 5628.24 5004.67 5365.89 3327.49 5992.26 4234.94 3960.8 4562.29 4980.85 5080.66 5110.45 5208.32 5248.77 4083.97 4520.1 4607.02 5153.74 5874.89 3895.51 4528.09 4293.03 5813.4 4389.21 4128.98 4925.44 6246.22 4951.47 5246.61 4307.28 4100.38 5344.77 4723.48 5097.87 4899.11 4278.07 4745.45 7267.18 6255.18 5269.18 4406.1 6362.14 6719.88 5080.18 5266.5 4454.63 4523.88 3279.1 4066.38 4403.98 4560.84 4414.48 4729.43 5776.57 4562.74 5598.74 5687.83 7493.3 6442.69 6320.71 4648.04 3464.83 6413.11 4305.16 5092.28 4965.89 5659.95 4152.85 2908.7 4453.64 4338.08 4517.73 5469.47 5660.16 4989.56 4718.54 2588.37 6736.03 6235.57 6766.43 5916.16 4390.41 5599.49 4097.57 3905.51 5017.5 5563.79 6171.13 3901.8 5759.46 5083.41 7055.42 6048.86 4285.32 5490.43 6034.41 5452.83 4959.34 4948.5 4519.22 4527.02 4564.34 3695.36 3838.56 4871.44 5076.35 6020.48 6375.99 3402.32 5200.05 5234.29 4528.49 5419.37 4466.03 4511.54 5070.39 4923.9 5714.58 3329.99 3947.47 3296.27 4713.25 4204.84 6243.0 6673.96 4165.81 3556.85 5441.96 6291.51 5174.89 5882.89 5370.52 4188.32 4652.29 5774.81 3746.31 5027.98 5346.27 6475.1 4969.21 2691.29 6256.02 5320.92 4305.43 5450.44 5034.59 4942.77 4263.33 5592.32 5381.16 5912.61 6193.35 6086.96 5233.78 5046.21 5683.26 5894.61 5139.5 3979.54 5944.09 4814.55 3527.05 5698.77 2477.07 4497.31 5529.42 5257.12 5243.43 4537.14 5551.9 3757.34 6415.61 4687.64 4419.71 5037.06 3838.47 4541.8 5175.29 3623.87 5412.31 3087.09 6934.37 6113.95 4050.08 5452.42 5328.22 6853.85 3497.9 5511.88 2395.5 4512.11 5782.48 5486.68 3836.45 5683.61 5100.25 5022.28 5197.52 5178.99 5383.07 4591.87 4531.14 5013.42 4247.15 6552.22 5651.07 6248.81 5273.35 5313.66 4645.58 2651.49 5512.23 5275.32 5409.33 4898.94 5196.0 4178.15 4613.31 4973.78 4733.04 6119.09 5091.68 7531.29 5069.25 5048.89 3161.47 3991.03 3435.9 6390.78 7435.25 4288.3 6826.57 4788.87 4495.87 6022.72 5498.32 5527.33 5402.21 4989.09 2845.98 4880.14 5289.52 4982.31 5314.85 4307.48 3848.54 5941.4 6510.17 5742.65 4402.67 5565.13 4470.61 4384.88 6887.27 3701.27 6008.49 5653.9 4806.34 4287.53 5612.21 4929.14 5945.08 5304.13 3306.14 5490.58 5833.06 4863.79 4923.41 3830.46 6031.67 5384.76 6138.12 4428.78 5409.66 4345.67 4765.72 4642.66 4752.14 5329.59 4888.12 4950.97 5512.16 3197.63 5842.56 5887.15 5203.08 7480.41 3423.15 4890.5 4488.85 3981.07 3731.84 4901.07 5186.3 3436.15 4151.76 5941.61 4020.4 3493.47 4596.75 6248.6 5443.58 4558.46 5805.86 6894.26 4470.4 4986.51 5339.38 6169.11 5615.35 4790.78 4027.09 6422.84 4502.18 4602.85 4962.77 5872.05 4853.02 4091.8 6259.23 5181.4 5670.2 5985.29 4711.62 4247.23 4268.65 4694.83 5509.42 4354.08 5788.66 4256.43 5936.36 4520.62 3903.75 4755.47 5935.03 5475.8 5314.69 4249.46 5965.81 3702.37 5660.85 4643.31 2330.66 4177.19 6917.52 3587.05 6229.37 6718.19 5282.91 4425.84 7256.35 5331.02 4871.96 4863.23 3555.86 6386.78 4631.83 4996.99 6081.14 4220.46 5128.57 6000.7 3169.67 4968.03 3361.92 6710.88 5395.14 4702.06 3967.48 6213.04 4689.15 3685.13 6790.73 4655.16 5251.4 3867.19 5857.79 4039.91 5276.7 5036.58 6119.63 5411.02 4752.9 4287.16 4863.96 5199.44 5191.08 4435.51 5374.07 5163.77 4588.7 3766.55 4579.69 3554.48 6496.52 5005.85 4216.17 6484.17 4721.02 4254.37 4933.65 3374.08 4031.78 6098.1 5708.99 4049.02 5311.03 5346.68 5255.12 5296.29 4611.53 4285.66 4896.11 5172.53 5801.99 5379.09 5210.48 7552.94 5323.3 5088.44 4998.21 4114.24 4662.56 5349.31 2976.22 4649.22 5394.55 5094.52 4946.74 2682.24 5928.32 5229.48 5475.7 4485.99 4016.18 5127.16 5435.74 4244.99 6050.81 5543.46 6185.89 3997.96 4750.17 4439.35 3460.94 3990.25 3691.0 3758.07 4752.51 4236.14 4407.87 5282.51 4460.92 3797.33 5945.89 4105.55 4800.69 6566.1 6065.22 4221.28 4456.39 4896.39 3633.79 5421.53 5480.83 5937.08 4607.85 6070.3 5233.29 4312.56 4612.06 5604.21 5204.04 4750.58 6667.68 5235.11 6622.11 5211.38 4590.55 5920.32 4255.85 5097.69 3988.3 6543.13 5149.72 5464.25 5301.47 4617.55 5424.88 4062.5 5415.85 8659.64 5683.95 6027.62 5010.2 6123.03 5966.61 5711.11 4575.94 4938.72 3546.71 5768.57 5564.23 5950.04 4231.83 5687.85 2435.33 6401.43 5020.71 2681.29 5094.48 3872.61 4238.4 4135.62 4318.48 6132.95 5534.94 4860.33 7644.38 4051.34 6101.92 3627.55 6239.84 4635.6 4256.67 3457.48 5166.79 3931.07 3405.98 5417.15 3688.16 4681.72 4945.39 5996.33 3950.63 5415.19 4612.62 3619.07 5526.75 4275.57 6385.23 5327.45 2983.99 5560.26 2614.4 6363.92 6205.93 4923.24 5830.72 6184.4 3828.81 4373.45 4082.57 5733.62 5169.9 3004.16 4767.78 5235.17 4779.5 4042.28 4421.12 4340.76 5254.49 4303.19 5514.84 5784.3 4256.57 3914.2 4135.08 5620.74 4778.82 6124.08 5467.84 5053.95 5926.11 5767.9 5089.62 6515.8 5869.4 4741.26 3701.16 4186.6 5895.77 4732.09 6136.49 4356.25 4216.95 5776.96 4209.49 5742.74 5486.48 4244.21 4947.24 3645.12 6200.54 5148.58 4199.45 6599.66 5469.13 4233.8 5765.42 4997.83 4893.49 5325.44 5021.88 5956.65 4498.25 4188.87 3735.24 6574.95 4074.48 4558.47 5731.57 5997.88 5839.71 5576.92 6408.83 5266.22 3930.79 5226.97 3685.13 3312.06 6004.68 3361.26 6799.4 5865.39 4427.28 6079.11 3082.32 6430.39 7440.72 3949.6 5703.6 6326.18 5661.62 6631.19 6648.68 4467.04 4713.74 5626.61 5817.25 4084.49 5061.98 6632.99 4537.6 4419.61 7177.44 4563.46 5309.98 6553.94 5255.18 5460.65 5652.0 5463.41 5225.33 4929.75 4435.36 6045.22 6649.96 5134.39 3532.3 5769.98 5442.32 6088.68 2221.99 4643.56 3580.58 4863.01 5356.79 5657.36 3619.79 5029.47 6306.21 5266.01 5253.37 2040.66 7016.27 3685.65 3876.21 5689.26 4916.22 6022.7 4940.84 5750.07 4809.67 4757.74 6045.67 3946.28 3821.94 5439.9 5367.73 3875.05 3540.11 3456.47 4652.01 5421.64 7234.66 4055.54 4886.12 6419.12 4976.12 6098.95 5453.98 3991.42 4388.63 5102.75 4597.29 4200.09 5931.77 5151.21 6333.29 4477.04 3886.68 5703.74 5662.55 5737.92 4360.23 5365.24 5293.51 4004.35 4763.96 5754.18 5180.76 3418.99 4480.95 5278.36 4409.63 5521.25 3661.9 5370.85 5949.46 3658.37 3178.54 5376.71 4448.13 5070.29 4807.28 4867.08 4266.03 5280.69 4220.03 6923.84 5407.78 5449.46 6179.96 6113.54 5147.36 6260.79 3963.76 5528.53 6799.88 3062.43 5726.66 5426.78 2967.38 4159.35 6477.91 4237.98 6439.37 4614.3 5580.92 5973.33 3583.21 5067.46 2511.46 4011.37 2775.69 4785.25 6519.43 5876.64 5424.46 4857.84 2978.76 4908.49 4962.21 4858.44 5884.9 3468.42 4673.35 4992.42 5297.19 4351.38 4833.46 5933.7 7248.4 5280.12 5984.81 3498.16 4409.27 4640.06 5471.74 3548.39 3673.28 4858.51 4207.54 5625.65 4301.61 6107.89 4817.16 4446.84 5660.55 5148.08 4834.87 3672.21 5760.22 5938.17 4795.43 5398.64 5097.95 6817.57 4693.52 3614.96 6853.04 4745.43 5831.96 4747.55 3056.7 3755.95 6234.32 4586.19 4446.06 3450.93 5008.63 5132.68 6595.03 4993.35 6218.95 5222.16 5107.23 5136.08 5558.68 3776.94 4765.02 4010.57 5629.39 2684.03 6157.04 4768.61 2261.36 5075.55 5506.19 6719.94 4950.67 5227.59 6166.29 5453.6 5703.07 5294.77 4662.43 4709.05 4630.82 4043.66 4813.08 5860.67 4540.86 5990.52 4835.83 5604.35 6316.56 4332.87 3091.67 6420.81 4081.97 4715.58 5401.99 5151.52 5369.08 4347.74 5291.9 4009.62 2081.58 6505.78 5461.55 6865.76 6449.64 6464.8 4684.44 4749.59 5799.69 5571.72 3809.69 4771.13 3208.96 7051.9 4184.23 5550.75 6834.41 6226.14 5466.33 4444.97 3000.29 5721.05 4247.69 4514.39 4588.99 4321.21 4344.34 4928.27 3583.49 5052.84 3375.28 4366.74 5297.16 3184.64 5206.33 5530.49 5653.03 3718.69 4514.79 2216.82 4509.89 6752.75 5269.38 5607.3 5108.06 3573.73 2928.82 4222.4 4000.43 4568.41 3420.08 4912.04 4539.07 5464.68 5591.76 4585.31 6625.18 5323.91 4270.74 5097.45 6293.89 4558.15 5737.75 2761.07 4983.39 5366.52 4690.55 5533.72 5533.42 4802.32 3678.08 4599.38 5246.47 4187.31 6191.29 4522.21 3240.51 7422.36 5161.01 4298.15 4628.4 5832.37 6051.83 4642.93 5409.63 4263.16 3077.84 6024.75 6109.49 5567.93 5332.65 3764.1 6451.33 5413.31 3012.99 6400.08 4743.59 5208.14 3317.83 4450.7 3763.05 5092.24 5549.49 3101.75 4518.04 4766.06 4874.18 5435.19 3298.2 4270.15 4953.1 4093.99 3940.49 4406.05 4680.94 5828.35 5876.72 5236.43 5285.07 4608.41 4144.57 4187.94 5980.59 3796.15 4801.8 7216.98 5271.02 4209.31 5718.28 6242.79 5950.45 5713.03 5849.65 5134.67 4165.21 4215.0 4936.96 4481.76 5452.78 5065.26 4304.41 6192.0 4940.28 5885.28 6579.31 3004.34 3022.6 4811.76 4914.45 4698.87 4661.03 3624.7 5262.35 4691.91 2685.81 4475.83 4510.8 5889.35 5010.04 4394.56 4570.98 4275.07 5825.38 4185.61 4047.87 5742.47 3778.02 6552.21 5417.8 5146.37 7132.12 4836.16 5518.57 5151.11 5463.48 5730.33 5545.46 4527.99 4376.7 5190.61 8325.01 3764.06 4440.81 5941.9 3973.12 5434.47 6642.76 5829.22 4497.78 4243.79 5987.42 5433.65 4442.22 4008.15 4887.76 4669.06 4811.32 4286.49 6184.88 5829.32 4396.25 5551.95 3918.87 2275.45 5423.42 6605.86 4383.56 5012.5 3562.79 7093.13 5818.95 4516.53 3604.14 4452.54 5089.1 2711.19 4028.32 4099.92 4884.59 3858.06 4680.14 4511.7 4083.79 5263.27 6300.92 5021.77 5599.29 6038.68 5046.12 4807.4 7013.17 3805.67 4601.74 6506.86 5088.57 5580.34 3852.6 5775.31 4706.5 4603.5 4647.67 5375.12 4356.36 4892.44 5578.94 7610.49 4286.17 3684.56 5323.55 5375.1 4172.6 5313.12 5351.56 3984.88 5160.59 4732.09 4320.42 4255.34 5064.79 5480.3 7509.24 4146.81 5896.26 5388.78 6101.13 4573.72 5099.21 4917.99 5636.4 4367.78 4350.12 5227.02 5670.0 4232.16 5300.96 4344.51 5680.94 3781.77 5581.55 5193.01 4543.1 3474.5 6550.44 3860.83 5732.27 4523.39 5278.56 5146.37 6917.62 4013.38 5631.14 4343.78 5811.18 5263.3 4909.65 6523.86 7693.4 4326.48 4437.07 3449.37 5491.9 6405.0 4659.16 5789.55 4633.05 4901.2 5711.62 4798.17 4990.79 5166.79 6479.39 2895.63 4122.92 4997.91 5079.22 5381.54 5810.77 4714.83 5474.15 7519.2 6355.68 4478.6 3953.55 4304.63 4469.54 4314.56 4173.54 3928.53 5606.51 5740.65 3834.47 6349.67 6329.53 4590.01 6101.86 5993.0 4803.57 5966.42 4110.59 3332.49 5354.66 4214.44 5378.23 4787.97 3746.36 6789.23 3989.7 4777.03 4246.61 6028.09 5452.36 3804.5 6486.37 5498.42 3344.57 5318.53 5220.76 4281.98 7165.9 5344.83 7046.11 3427.63 4863.97 6342.48 5756.75 4587.67 5599.7 4163.74 6969.28 3665.95 5698.96 4095.75 3603.51 4298.45 5222.51 6609.84 5135.96 3834.43 5658.37 4707.06 6074.94 5491.37 4250.88 3783.54 6348.03 3475.67 4792.39 7038.89 3863.67 4814.12 5067.56 6137.8 2735.53 3352.35 5116.6 3747.03 2783.85 4356.49 4526.81 3994.07 4219.94 5907.46 6740.71 4264.91 5399.29 5971.22 4909.31 6522.59 6602.43 3568.28 5425.98 5996.66 4405.42 2995.67 3598.08 4599.81 5698.23 7300.58 3608.06 6633.61 5217.95 4867.7 5484.36 4277.24 4063.9 5291.05 5161.1 4619.2 5166.41 5067.56 2596.96 5701.75 4350.15 4139.3 6541.45 4227.41 4750.49 5078.31 5391.48 4923.43 5131.15 4847.14 3950.27 5116.66 3566.79 5374.67 4981.43 4741.28 4215.2 5069.89 4157.29 6813.72 5327.75 4609.02 4896.65 4638.18 4196.37 6448.66 4453.97 6945.98 5138.2 5783.48 4701.5 4449.98 4504.35 4771.65 4840.44 5093.82 5951.81 3924.14 6918.35 4296.69 6238.32 3319.67 6471.42 5283.8 4076.59 4428.14 5164.1 6464.15 4972.17 6685.4 5699.53 4222.77 6332.01 5268.38 5527.23 4805.33 5980.95 6193.08 6069.3 5887.01 5168.35 5388.39 3728.18 5335.47 5633.61 5048.19 6799.23 4888.27 4592.15 6487.56 4854.11 4998.22 5533.19 5417.21 5583.61 6063.64 7382.3 4022.56 5522.21 3772.3 4855.01 4923.57 3340.09 6061.63 2279.05 4829.35 4075.28 8137.11 5484.32 6650.77 4067.96 7104.73 6162.3 3272.75 4264.54 3516.27 4263.78 4643.9 5228.75 6047.14 5009.83 5210.38 5717.8 3629.44 5003.78 3299.24 6246.56 4061.6 2603.64 5107.0 6212.15 6502.97 4783.07 4946.23 6083.28 5211.6 5806.31 3556.79 5456.71 3503.41 7317.04 6412.67 7001.83 5012.97 5589.37 5439.49 6639.64 5212.43 5454.12 4834.3 6348.54 6804.79 5642.35 6372.13 5369.5 5404.01 6016.19 4124.49 4479.11 3230.13 5714.25 5325.96 4850.06 5016.02 7044.29 4234.18 4920.21 4049.16 7085.01 3936.95 6153.94 6836.82 3862.77 4631.99 4740.98 3185.39 5128.77 7122.87 5797.36 4243.26 4153.84 5119.86 5089.26 5084.17 4901.44 3776.8 5096.43 6156.21 6104.26 4653.83 6171.71 4986.71 3628.89 6589.82 4668.88 5027.43 5522.75 5867.64 6208.9 6059.93 5602.53 5073.02 6545.43 6760.92 4989.2 4711.04 7144.05 4506.18 4824.12 2970.9 6542.5 4383.47 5971.21 5261.19 3104.96 7043.44 4263.65 6106.43 4807.35 5467.63 5666.95 4642.2 4811.22 3683.86 4918.76 5293.75 4208.41 5826.78 5473.72 2856.55 4553.68 3758.22 4757.2 4852.58 3205.68 5561.74 6100.73 4788.08 4745.79 5470.04 4908.75 3971.08 6204.65 4482.9 4593.7 4036.91 4349.13 5110.11 6379.14 3687.65 4887.52 5478.95 3851.85 4066.57 4206.98 5156.76 6357.47 6101.57 4891.38 5535.91 2949.12 5955.86 6176.67 4533.37 4848.46 5412.24 2779.99 5887.38 4581.37 6942.34 5851.61 5478.11 5526.31 5030.15 3858.17 3644.78 3477.1 4078.93 5934.82 4501.78 4922.49 3572.94 5001.58 4820.17 4729.42 5244.98 3886.72 5415.45 6592.93 6350.71 6436.74 2460.79 5096.24 3908.98 6328.42 7307.21 3381.82 3619.72 4438.58 4646.51 4565.93 7107.63 4831.93 5788.97 3472.91 4023.93 5868.89 3274.85 5007.21 4099.26 5206.47 4580.06 4834.39 5493.89 5262.47 3512.94 3831.52 4991.35 4587.7 4258.98 6761.81 3903.91 4568.64 3919.62 4127.53 5210.75 4474.83 6555.44 5658.14 4508.18 6214.73 2205.51 5361.87 5175.89 3894.64 4268.19 4374.74 4532.7 4504.86 5975.23 4473.29 4198.94 4211.82 6556.26 5684.25 5438.92 6550.4 3766.69 4891.67 6818.91 5216.26 3503.65 3634.5 6631.28 6571.31 4392.65 6318.23 4058.87 5174.75 5932.07 4984.46 5948.71 4793.65 3856.53 5460.89 4532.89 5260.85 5742.09 2884.65 5807.46 4648.21 4393.16 3658.05 3311.29 4549.69 6423.81 6192.77 4312.15 6418.11 6015.02 5244.22 5585.14 7039.98 6456.58 4159.81 4960.64 5792.98 4385.81 4034.05 5690.96 5798.38 3862.91 4456.11 5366.11 3419.87 5039.12 4824.81 5769.14 5944.3 3563.14 5135.5 5347.9 5851.63 4504.52 5212.92 5615.84 4464.73 4928.85 6440.38 5556.0 5545.59 5494.28 5610.53 5755.15 4835.97 3926.11 4057.17 7066.96 4467.0 4994.65 5196.92 3787.08 5644.81 5334.36 4728.55 4929.6 5750.35 4489.99 4548.45 4658.11 4551.26 5730.61 7124.45 6358.93 5064.67 3703.49 5232.85 4062.56 3717.47 6200.63 6816.66 3217.67 5079.64 6163.54 5212.37 6003.78 2628.22 5058.51 4244.49 5036.98 5513.8 4521.75 4027.63 5350.88 5420.67 6413.15 6103.11 5048.55 6459.51 4024.31 5844.72 3992.97 5989.05 6040.74 4054.22 7228.94 5393.65 4961.99 6551.93 4595.12 3110.13 6484.43 4625.67 3485.54 4458.64 4583.52 3657.69 3492.83 6280.13 3684.15 5832.29 2606.51 4438.76 6006.89 3814.65 3965.3 5372.82 4983.3 7778.01 5127.82 5124.17 5805.1 4125.9 4064.58 4234.88 4384.28 4456.26 5113.6 4810.98 5091.22 6282.38 5640.72 5657.55 5727.79 5188.82 5043.14 4717.73 5072.5 3904.07 5748.9 3663.0 4954.81 3742.31 6304.49 5134.72 4608.34 6419.64 5464.83 2781.96 4431.23 5917.34 5601.55 4462.87 6545.99 5630.9 4554.68 4368.28 4692.32 4945.0 3127.83 4212.15 5114.07 4385.49 4263.18 7142.95 4383.68 6618.21 2617.39 5144.44 4051.18 5969.37 5034.69 4509.46 996.652 3538.53 4680.69 6500.49 5965.58 3352.34 4901.29 4050.03 4775.04 5188.53 4120.07 4882.66 3429.57 5569.2 5410.33 4642.74 6735.97 5305.59 5416.45 4330.58 5754.6 4955.16 3288.01 4904.51 4147.31 2202.77 5751.15 5950.88 4149.55 4441.22 5853.89 3380.69 4140.4 4386.8 5446.4 4725.01 5966.75 5510.9 4505.28 4883.63 4971.29 5510.45 4730.14 3994.39 6119.99 4618.73 4128.1 4446.58 4402.17 5401.4 5053.15 5910.86 6239.68 7320.78 4834.44 5782.43 4027.33 3873.92 5026.76 5023.41 4092.07 4546.44 4224.3 4184.21 4700.07 5273.37 4732.37 4985.3 5713.36 4749.18 5553.94 4546.96 5424.55 4921.1 3814.16 5695.79 3622.8 5414.58 5577.41 5740.98 4346.07 4013.86 4177.47 4218.16 2918.64 4140.92 4512.07 5984.8 5236.24 4585.04 5678.58 6570.35 4242.63 3269.54 4559.74 5836.26 6666.67 6063.44 4583.94 5046.31 4928.35 1937.5 3844.54 5849.53 4651.99 4420.11 5863.0 6127.39 4972.18 4607.18 4124.76 7200.89 4813.33 4952.52 3840.21 6746.66 4954.76 3908.56 5244.78 3636.15 6114.89 5135.63 6384.7 4355.83 6870.97 5351.86 6056.87 5474.01 6201.86 7554.58 5166.89 3639.44 5491.63 5725.37 3868.62 5138.33 3743.76 3425.69 6711.21 4236.86 5393.76 4941.02 3864.92 6010.59 2955.36 3668.93 4009.24 7541.76 4775.49 4681.29 3220.29 3845.9 4439.71 5667.51 4708.31 4198.9 5431.29 4833.67 5325.91 4213.05 5157.38 6203.03 5235.87 6089.45 5810.17 4966.07 4400.14 3669.32 4704.92 4316.0 4287.25 4392.75 4271.07 4420.6 5287.25 4770.51 4184.47 6511.37 4012.92 5759.79 4598.54 5218.42 4933.49 6139.64 4896.43 5463.06 4639.8 5260.52 3185.09 6102.49 5114.23 5495.0 7407.91 6015.22 4454.74 2904.46 4826.52 5120.92 4337.32 5241.75 4731.53 3763.9 4788.7 5084.5 5640.12 5329.76 3899.7 2403.72 5134.33 4147.49 4802.98 4833.55 4081.34 3646.95 7224.99 6334.53 4844.83 4749.96 5377.37 5652.87 5483.7 5018.69 3152.86 5952.38 3896.27 5807.52 5963.36 5230.02 5307.35 4342.18 5169.48 6016.08 4731.21 3124.7 6064.71 6102.98 6060.17 5153.18 4763.4 5902.67 5454.11 3779.45 5806.61 4983.1 3682.35 7123.04 3756.96 5906.57 4932.29 4990.23 3784.94 5499.59 3125.13 5749.6 4141.21 4174.44 4564.41 6331.74 5951.86 4252.18 4659.88 3791.41 5853.12 5702.4 5069.9 5473.89 3673.6 3306.84 5265.21 4657.24 5866.42 4762.1 3987.69 6502.99 6219.34 4191.01 4475.38 4589.06 4920.88 5890.25 4216.44 3999.5 5034.05 4816.51 5345.73 4770.63 3990.94 4756.8 5477.8 4462.35 3986.41 4241.68 3469.18 2945.34 4489.29 4301.93 5064.23 6061.85 5512.44 6449.06 4924.07 4685.4 6240.42 5146.0 5721.14 4577.73 4987.28 4918.64 6638.25 5078.59 4759.99 2646.13 5419.57 5162.67 5760.98 4705.68 5469.35 5384.86 4019.34 4658.24 5869.67 4311.48 4899.73 5457.66 6394.19 5973.89 5366.22 6193.73 5518.11 5087.14 3742.11 5712.35 5701.52 4743.9 6776.22 5321.17 3719.11 4467.13 3877.8 6273.6 5136.87 5024.32 4708.17 2741.2 5790.42 5784.37 3142.09 5591.77 5182.13 6110.48 6245.52 3954.77 6793.1 6016.87 4506.66 6715.73 5209.55 5426.4 5763.05 5129.68 5357.39 5076.84 5247.01 4208.37 4841.7 5685.74 952.938 4678.7 3450.07 6215.87 5191.26 6060.06 5544.27 3484.81 5308.33 4666.12 6023.07 5674.63 5340.05 5995.4 5322.11 5700.79 6710.14 4426.02 4711.15 5188.22 4841.23 2804.54 4357.11 5005.6 4176.32 6069.78 5532.75 6949.65 4095.83 3372.95 5676.61 5846.95 5268.15 5819.0 6347.72 3460.93 3200.6 4629.02 5914.5 6006.16 4288.45 5407.96 6206.98 6562.03 4815.47 4368.12 4365.58 5214.4 4636.53 3629.49 5766.05 5117.64 3835.81 4869.48 3623.19 4906.11 4387.39 4564.1 5825.55 5509.51 4848.14 3199.4 4316.5 5254.24 4192.21 3597.43 5144.56 4158.91 5311.55 3360.86 4869.25 5545.21 4333.87 5684.05 3667.93 5638.7 5813.79 4644.88 5293.13 7350.26 3768.46 5167.53 5003.3 4168.52 5800.81 5106.46 4068.31 5166.05 5077.29 5515.73 4850.5 5866.91 6405.69 2820.07 5679.74 4825.73 5288.33 6296.54 5797.21 6019.35 6740.35 6028.63 4550.92 5146.1 6485.77 3869.39 5960.5 5393.43 6896.55 4685.65 5377.01 6470.23 6506.63 4140.04 3495.3 4697.49 5735.08 4726.2 4750.81 3825.48 3810.68 4196.62 2809.19 4916.7 5486.89 7208.19 4549.51 3587.93 4975.85 5695.25 5323.95 5716.42 5701.63 4620.95 5368.93 4488.39 5124.86 4927.73 4602.57 3565.32 4608.62 4071.75 4626.72 5131.77 5549.71 4410.82 6443.99 3889.98 5193.58 5399.43 5695.44 3422.21 3916.42 5429.3 5510.96 6653.07 4745.16 4697.91 4584.81 5071.98 5719.79 4371.08 7261.51 4968.14 4914.03 5086.29 5527.13 5139.18 5551.43 3034.16 5049.99 4201.03 5001.87 4493.79 4279.44 4899.19 5058.34 4028.22 5575.11 5487.63 3852.82 4507.36 7145.73 5403.97 4795.08 6562.92 5501.73 3671.06 3612.44 7035.54 5233.76 4683.28 4217.36 6549.8 4851.18 4165.36 4871.77 5811.26 5062.77 4884.93 6075.99 5262.79 5927.2 4419.79 5407.69 5152.78 4117.9 4753.76 4781.9 4638.09 4441.91 5330.26 5939.22 4668.8 5125.17 4859.01 5524.45 7133.44 3953.26 4474.39 5459.92 4658.59 6478.35 5453.77 4104.04 5589.53 5593.79 5025.42 5196.08 4517.29 4495.75 4849.5 6171.01 5796.26 4603.04 4870.94 5271.88 6121.56 7168.2 3763.85 3419.07 5710.33 5344.44 6432.8 3186.07 4369.86 4967.51 5173.82 7212.97 5490.64 5034.34 3769.2 4507.46 5036.14 5603.68 4944.51 5610.95 5532.72 3220.8 5179.17 5579.39 5270.51 5148.1 5490.75 5224.64 5949.73 4312.48 5783.94 6370.33 4278.57 5081.08 6318.25 6864.06 6008.81 4932.56 5192.49 3487.31 6643.4 3918.94 4674.9 5461.72 6599.28 6224.85 4556.19 5368.66 5648.78 6875.73 5226.42 4697.24 4983.43 5117.52 6311.89 6734.39 5942.45 4150.76 5005.72 5368.52 5155.28 5388.73 5205.38 4764.83 4600.71 3957.38 4494.15 5035.71 4710.88 5300.17 4057.4 5534.23 6025.77 6815.96 5339.6 5828.25 4725.11 4215.05 4271.93 4604.1 5076.11 5990.75 5600.21 5467.51 4625.53 4096.47 5114.67 5353.66 2638.82 5030.33 5234.2 4965.24 6379.38 6257.79 5353.23 6229.83 4468.26 5578.18 5293.37 5933.54 5559.79 5879.24 4571.74 4096.86 3622.48 5001.51 5385.86 5115.42 4082.4 5482.76 3745.02 3720.7 4211.36 5698.53 3604.31 4450.49 3468.45 5635.32 4526.34 4316.45 5409.08 5042.75 4598.92 5241.22 6647.08 4979.52 3422.29 4407.79 5214.63 3495.68 3990.96 5352.24 7362.42 4202.77 5836.14 5473.05 4373.2 5537.34 5884.99 5726.42 7025.09 4433.12 3392.26 2549.95 4361.24 5138.93 6406.8 7086.69 6170.9 5833.78 4436.48 6081.3 5615.35 3967.76 6213.24 5987.88 3579.59 4228.53 6123.46 6142.88 5111.26 4574.54 4949.55 3132.34 1969.87 4841.28 5507.38 6889.5 4416.87 4052.43 4896.67 3934.11 5158.44 4466.22 6153.71 5917.08 5483.37 3626.86 6371.96 5322.07 5770.07 5101.6 4282.11 6589.13 2347.41 4542.16 2030.03 3543.37 5628.97 5527.27 5104.39 4612.13 5846.6 5327.05 5438.55 4434.65 5977.66 4523.81 5106.33 5198.94 4028.35 5464.05 2980.31 3148.79 5740.78 4796.12 5997.91 4742.82 6791.86 4209.0 4930.72 5728.58 4887.73 6297.99 5378.24 3856.73 5817.74 5887.71 5661.6 4827.61 5285.75 5385.03 5481.64 5673.75 5360.67 5968.54 6263.3 4501.05 4537.03 6548.29 4114.2 4326.06 5034.46 5757.29 5793.12 5469.17 5061.75 3769.24 6022.78 4087.32 6647.85 2569.12 4161.32 5161.74 7336.37 5099.9 6945.69 5118.86 4183.4 4304.64 4733.79 4823.06 5758.98 5254.49 5288.64 6828.8 6883.86 3350.99 6161.94 4065.28 5057.59 4461.14 5285.6 5615.06 5490.54 5203.54 4047.95 6142.94 5001.69 6581.56 3980.46 5383.9 3798.09 3886.56 4496.51 4511.05 6561.94 5259.21 5418.12 5934.05 4714.66 6771.18 4984.17 4656.01 4037.86 5602.62 5714.51 4938.33 4484.78 5157.73 5847.91 4934.66 4109.44 4903.84 4290.49 6688.53 5209.5 5065.74 5791.25 4873.23 6731.89 5410.6 5453.2 6348.93 6824.53 4332.64 5232.16 4422.23 4820.68 6031.22 5485.84 6424.77 5453.69 5918.95 4538.89 5689.56 6556.86 3242.31 6099.28 5372.25 3234.26 4169.15 4778.37 5134.17 4074.16 4904.35 5592.54 3247.97 5124.34 4904.37 4358.81 4651.64 5729.92 5016.46 6224.13 4761.84 3661.67 5517.65 4009.68 3303.49 4622.73 5256.75 6351.89 5932.28 2960.5 4975.32 4298.7 3902.48 6030.39 4905.53 3799.01 7392.65 5319.1 3757.23 4181.93 6570.43 3820.19 4979.5 4745.37 5939.29 5418.98 5575.11 4052.49 5061.74 5326.03 6189.67 4948.96 5256.82 4013.86 4061.87 5165.31 4288.5 5715.51 3721.69 3456.3 6074.39 5317.83 5092.93 4256.08 5881.93 2803.01 4444.0 4399.52 6182.19 5327.39 5781.62 4981.81 4138.59 4970.55 4621.33 4541.22 4946.08 3539.68 4984.01 6217.33 4557.1 6270.59 5927.1 6175.27 5876.51 4103.76 2932.52 4733.41 5264.83 3901.53 5136.51 6815.51 5313.86 4457.05 3989.26 3618.64 5703.84 4335.79 3530.82 5797.32 5432.04 3921.27 3702.45 5265.63 4898.29 4431.06 5730.2 4830.13 3494.16 5370.9 4529.77 4325.13 6172.27 5390.33 5078.73 5278.54 5729.0 5192.92 5275.57 4179.87 4786.66 5891.25 5370.1 5129.4 5114.51 4655.37 5585.25 5023.61 4672.86 6530.78 5560.23 3043.77 5237.55 3909.94 5088.64 6589.8 6920.92 3729.16 3783.36 3038.91 3922.28 4571.57 3445.92 5236.69 4586.82 6026.04 6200.05 5859.17 4034.41 5522.34 5771.98 4420.35 5717.45 5117.83 5268.27 4645.93 5448.64 4585.37 6417.61 5395.12 5783.69 5350.9 3483.61 6738.9 4460.89 4157.1 4554.24 3939.96 5910.66 7415.84 4637.3 5141.03 4840.44 8123.59 5765.14 4767.54 5121.08 2927.84 4696.03 6177.68 4605.39 2848.44 6045.26 6500.45 4907.55 4094.63 4286.61 4603.66 4969.68 6636.43 5431.14 6298.8 3689.24 5178.07 5189.91 5777.26 4171.02 7012.36 5028.06 4002.99 4886.99 5159.67 3161.1 5764.52 5684.88 6523.78 4645.86 4045.67 5620.88 4941.52 5900.0 4262.74 6241.77 3783.79 5317.19 4248.14 5279.19 4016.6 5821.49 7050.08 5580.44 5998.13 5095.52 4746.15 3720.38 4758.84 4731.37 3976.0 4068.41 6463.71 5059.37 5783.38 4139.39 6264.03 3562.8 4151.74 5192.82 4174.22 3573.84 4067.89 6294.09 5131.07 4121.07 5524.28 3133.28 5731.43 6353.81 3518.14 4150.44 5044.68 2649.69 5899.78 5000.74 5772.57 4813.81 5244.95 4634.25 5901.8 6351.48 3830.7 6210.0 5432.4 4262.52 5992.06 8052.53 4867.12 6044.01 6520.19 1458.87 5734.07 3997.68 6033.28 4819.83 4801.16 5071.38 5616.66 5688.77 5368.28 4698.7 6229.64 4220.43 6263.87 5743.8 6666.34 5084.76 6605.11 4757.87 3557.46 5971.95 5652.73 3979.46 6321.97 5151.19 6509.54 6119.0 3792.06 5128.59 4293.3 5587.3 3572.73 4864.38 3770.22 4390.64 5150.84 4608.01 5087.97 6005.95 4308.49 4930.17 4581.1 4745.44 4085.96 5762.82 7360.12 6223.98 5462.6 5617.29 3035.06 4262.19 4597.88 4878.93 6275.25 6892.33 4505.3 4452.36 4491.26 4511.34 4832.21 5009.21 4742.35 5394.79 5645.54 5264.08 4526.87 4691.01 4227.66 4594.89 5245.95 5821.42 4515.02 3463.53 6126.03 2970.24 4197.87 5105.54 5462.1 6032.45 3414.67 5444.36 4026.03 6908.32 3467.11 4817.75 6153.26 5637.53 3882.37 4095.4 5188.57 3873.79 5357.33 5252.37 4499.54 5037.58 7430.48 5640.67 5545.68 6080.69 4970.12 4967.93 6369.66 5973.57 5922.62 6241.48 5125.45 5957.82 6286.27 6327.54 5507.07 4802.36 5327.71 5466.13 5257.38 5075.23 4975.56 7282.36 3826.01 4645.91 5581.01 6834.92 6379.33 5130.57 5090.48 5402.45 3985.93 6412.84 6071.59 2589.19 6079.55 5485.61 4993.49 5310.33 6583.37 3688.83 3402.44 4848.98 4491.96 5184.98 4467.51 5339.82 4519.03 5460.57 5110.27 5703.34 4612.68 6668.98 6649.52 4232.33 4939.56 4747.68 5770.92 3093.38 4845.91 2002.78 5631.32 6322.0 5793.14 4609.65 5704.61 5410.73 4379.91 4574.03 5290.37 5850.38 7066.26 4730.97 3677.85 5214.71 4677.84 4811.11 4924.52 4866.8 6044.69 5658.05 6593.1 4000.51 6033.93 5011.37 2827.92 4441.44 4232.44 5336.61 5563.09 4848.15 4439.09 5523.81 4718.61 6697.45 5717.67 5515.59 3224.81 3775.38 4046.22 6457.89 4844.2 6572.17 3751.73 5555.89 4766.47 4871.1 5678.08 5872.45 4414.09 5191.29 3784.68 4188.16 3717.22 4654.92 2943.17 5286.55 4880.78 4322.56 5509.09 5625.02 5212.05 4829.77 3928.99 4444.92 6959.88 4125.75 5749.53 5247.73 5034.02 5582.28 5945.25 5181.31 3856.4 4696.06 4137.16 4937.36 5308.4 6581.13 4569.32 5537.61 6084.88 4397.06 4199.44 4053.12 4479.5 6261.67 3435.13 5065.78 4431.46 4521.42 3207.84 3977.98 6043.34 4128.93 4959.72 4712.17 3808.04 4723.71 4461.67 4405.61 6126.5 4034.88 6007.1 6345.2 5488.96 5128.03 3720.92 5087.3 4942.63 6139.74 4975.57 3057.3 6150.31 5873.62 4996.91 3920.44 5379.52 3768.62 5314.67 5563.47 5651.46 4066.36 3162.27 5516.37 5092.44 5432.2 4612.4 3312.3 4746.19 6381.58 3282.57 4798.13 5648.59 4630.5 6296.36 4432.32 4451.76 7885.41 5782.25 4104.97 4575.72 5114.61 6118.13 3374.62 4926.62 3917.09 6009.93 4083.1 5270.1 5130.56 4947.64 6305.9 6649.21 3470.69 4859.95 4132.08 5522.18 5223.1 3873.72 4592.49 3625.98 5479.86 6474.5 4702.32 4763.04 5971.9 3746.62 4532.67 4876.37 4769.62 5260.13 4649.5 4810.74 5985.75 5475.83 6189.29 5984.55 5672.46 5803.3 3228.27 4721.98 5252.82 3543.98 5056.26 5878.55 4014.44 6604.72 6002.77 3794.47 4610.55 4967.02 4614.49 5400.69 4462.5 5573.31 5004.68 4023.88 5348.11 5428.24 5108.84 3511.5 4520.14 5067.92 5357.14 3188.21 5919.27 4793.06 6637.38 6188.33 6111.23 6916.18 5786.06 4137.41 3868.69 5447.74 4450.51 6033.72 3692.99 3851.47 4966.74 4959.94 1635.31 5639.4 6185.73 4083.24 6520.96 3771.91 5217.62 6178.19 4616.81 5715.25 5212.2 4362.94 4611.21 5108.42 3354.94 4404.87 5237.27 5767.65 4750.76 4907.03 5497.27 4081.77 4948.21 4987.01 2181.29 4420.3 6332.64 6492.44 4613.32 3482.73 3996.93 4957.99 4063.26 4997.89 4542.62 5093.28 6131.52 6009.88 4699.77 4850.49 4981.55 5093.41 5144.23 6188.62 6153.07 4414.06 5944.52 4413.56 5050.2 2513.38 5316.05 4908.32 3995.08 5019.84 3900.93 5784.38 4149.17 4329.8 5728.27 3074.49 5202.33 3956.24 7558.99 3393.59 4142.1 5043.14 5333.04 5445.91 4521.99 4812.59 6842.54 7115.67 5675.45 3361.11 6038.56 2807.46 5599.16 4179.8 3488.34 4577.98 5658.35 5886.81 4487.51 4582.12 4295.25 7394.47 4729.45 4850.95 5374.09 6271.22 3421.81 5378.75 3920.64 6186.24 5822.7 3780.07 5466.49 4038.17 5007.41 4907.48 6213.74 2329.93 4369.87 6938.87 5412.07 5512.57 4806.99 4813.55 5856.43 3839.0 3465.03 5349.85 5799.86 5172.1 4469.82 6545.78 4870.14 2932.2 5105.72 5003.49 3964.03 4216.33 5832.72 5617.91 4721.2 4706.31 4202.12 2694.25 4735.99 4203.68 4739.56 5145.39 3352.46 6351.95 5195.09 5345.05 7679.2 4881.51 2626.41 4311.92 6729.99 6842.35 5464.34 3621.63 4777.96 5801.89 5908.57 7296.47 5742.39 4821.41 4924.53 5616.11 4433.23 4499.52 3874.12 4028.13 4457.73 6476.35 6260.58 4067.24 3053.19 6571.26 5580.95 6598.99 3549.92 4032.06 5246.81 5089.1 5888.95 5394.78 3463.34 5122.38 2853.68 5262.85 4998.37 5329.84 6559.82 3879.83 6565.95 5043.34 4246.24 6805.02 5354.48 5640.63 4900.26 6261.13 4167.55 4720.34 5244.47 4865.11 4731.16 5510.89 6470.87 4495.33 5282.67 4159.89 5178.55 5146.69 6203.24 6818.23 4488.41 6679.12 5652.19 5806.74 6578.62 6284.12 4796.04 5229.56 6011.4 4672.34 6052.22 5376.41 5003.63 4695.7 4747.24 4944.08 4082.01 5269.39 4305.35 5210.22 2451.27 3903.9 4444.95 5161.02 3124.49 6265.48 5003.81 6262.18 3818.37 4701.03 6225.05 5434.04 5200.1 3997.52 4444.54 5779.9 4909.74 5310.33 5299.03 6664.54 3922.98 5161.73 5259.48 5254.93 4803.4 6833.5 6608.94 2613.78 4780.16 3834.01 5738.37 4813.24 5759.19 3113.64 5847.27 4490.2 4304.75 5480.86 6139.9 4720.22 4313.38 5827.3 5250.56 3633.58 2468.16 6294.14 4339.97 5203.75 5169.09 4691.15 2459.88 4210.24 5470.67 5901.71 5225.11 5342.9 5252.22 5733.12 4962.35 6436.29 5402.81 4600.81 4919.13 4124.33 5168.97 5783.88 5002.38 6705.93 5449.09 5502.14 4605.61 4465.56 4131.08 5386.95 5747.9 3864.19 4287.93 5332.11 5315.71 6158.93 5081.65 4823.14 5438.5 4621.32 5699.4 3878.8 4698.94 3948.21 4286.84 5669.15 5296.05 5263.86 3330.85 5056.32 5533.52 4060.17 5410.33 5302.53 4380.86 5576.16 5648.02 3308.75 4604.34 4439.17 5677.42 4929.35 5606.22 3943.77 5242.38 6081.35 5459.52 4609.98 5566.5 5663.36 4276.59 5579.04 5125.53 5994.21 5403.81 5082.25 6964.78 4374.05 5036.84 4565.36 5813.68 4025.08 4008.67 3618.53 4770.21 8013.28 3846.55 3796.73 5417.07 3082.16 5656.84 6789.66 4739.41 5312.2 4706.59 5734.84 3982.31 4950.07 4582.24 2832.83 4084.87 6036.99 3010.1 3825.98 4589.22 5087.03 4667.84 3906.41 5584.64 4123.08 4512.6 4260.38 4636.45 4932.27 5638.51 6793.49 3563.33 6060.19 5536.0 6786.37 4333.23 4328.76 5145.13 5561.63 5940.5 4358.06 5093.51 5647.93 4280.92 6201.49 4696.92 5154.74 6437.99 6898.8 6540.57 4893.72 6004.72 4072.4 5373.78 5345.65 4489.18 5863.36 4632.75 5237.76 4994.98 6423.96 6058.13 5894.69 6988.4 6635.51 6051.35 4909.13 4287.61 3999.81 4867.13 4863.27 2701.42 5442.79 5051.39 6673.92 5151.68 4884.94 5362.15 4455.61 4738.72 4752.31 5240.97 5569.85 5405.6 3929.35 4884.93 4759.38 6960.97 4287.15 5282.51 5504.65 5669.41 5732.11 5040.9 5596.68 4868.66 4004.39 5159.9 5283.65 4644.68 2892.36 5981.54 5911.29 5416.41 4694.27 6760.64 2515.5 5177.88 5551.79 6981.47 3916.15 4474.96 4758.76 4790.63 5259.29 3584.05 4916.75 4818.53 5097.85 6189.04 6224.64 4221.03 3799.55 5082.66 4550.77 4337.93 3550.88 5201.3 4345.51 4048.73 6223.33 3860.8 3747.96 5611.29 4521.88 6568.45 5004.22 4601.54 7263.57 3832.09 5705.96 5267.65 5739.69 6632.04 5360.88 7360.62 4977.64 4985.45 4983.56 5699.51 2489.44 5499.37 4883.13 4836.76 4752.94 5551.09 3950.53 4501.1 5581.47 4384.91 6550.61 4987.01 4713.56 6094.34 6779.82 5543.67 6210.48 6377.45 4182.05 4502.12 3255.93 6853.07 6327.61 4633.59 5733.59 5575.8 5268.93 3695.72 6874.6 5106.9 5306.31 5523.96 4223.53 4733.37 4535.94 3037.72 4523.9 5126.08 5604.0 3760.4 4951.02 3919.47 4602.7 3783.35 4037.16 6395.63 4987.48 5943.61 4248.58 5479.17 5020.37 4542.25 4414.23 5233.88 4849.21 4785.55 3793.83 5245.4 6189.81 5367.05 4449.73 5647.11 4088.72 3945.62 3743.85 6236.46 5342.17 6379.3 5015.67 3795.63 5189.4 4576.71 6538.04 4894.15 6157.59 5848.41 4090.28 4246.83 5438.6 7370.52 4726.5 5467.05 3724.23 5103.3 4963.88 5888.94 4727.98 4122.2 5175.88 4516.26 4790.16 3509.34 3647.26 3731.58 3166.37 5369.42 5207.08 5205.53 4714.52 4587.19 5543.05 6028.89 5333.16 4888.17 5755.98 5392.85 5077.2 4274.05 5275.27 4277.54 5529.09 4531.46 5925.82 5448.68 4739.5 4072.95 4491.62 3865.5 
SCALARS Velocity float 1
LOOKUP_TABLE default
0.990174 1.48603 1.19178 1.20183 1.19904 1.21547 1.1965 1.20155 1.19363 1.19512 1.20111 1.21327 1.20493 1.2158 1.20987 1.21148 1.22762 1.25578 1.2157 1.18144 1.35886 1.85953 1.47167 0.890829 1.01508 0.880734 1.0297 1.64697 1.07223 1.07372 1.4235 1.17841 1.20396 1.62651 1.19178 1.24639 1.19178 1.19178 1.20612 1.19178 1.19178 1.20466 1.20514 1.19178 1.19173 1.19142 1.20323 1.19975 1.20441 1.19178 1.19179 1.19124 1.19222 1.19157 1.19178 1.19178 1.19178 1.20302 1.20481 1.19178 1.2119 1.21273 1.20609 1.20074 1.21565 1.20476 1.20678 1.19178 1.20754 1.21383 1.19168 1.21781 1.21823 1.19178 1.19135 1.22907 1.22724 1.21606 1.18826 1.20698 1.19816 1.19168 1.20135 1.21508 1.19841 1.19527 1.19813 1.18961 1.19273 1.20117 1.20163 1.21659 1.19139 1.19205 1.19174 1.1919 1.19079 1.19184 1.19504 1.1939 1.21262 1.20185 1.18301 1.21139 1.21241 1.22261 1.2267 1.21178 1.22433 1.20946 1.20671 1.23834 1.22517 1.25515 1.19178 1.19178 1.2973 1.29752 1.20161 1.23296 1.21631 1.19281 1.1327 1.32304 1.2495 1.29034 1.51347 1.10929 1.08345 0.796274 0.775368 1.07245 1.04827 1.46134 0.723926 0.636754 0.655543 1.36981 1.40953 0.931123 1.58978 1.26466 0.925835 1.18568 1.20289 1.207 1.2079 1.19178 1.19188 1.19203 1.19178 1.19217 1.19232 1.19178 1.20373 1.19178 1.19178 1.19178 1.21552 1.21063 1.1916 1.19178 1.19514 1.19926 1.19574 1.19034 1.20472 1.2145 1.21837 1.2152 1.19709 1.19595 1.20211 1.21159 1.18995 1.21709 1.18744 1.18667 1.22561 1.20027 1.18906 1.19178 1.21479 1.19717 1.18919 1.20617 1.20626 1.22121 1.22002 1.19695 1.19677 1.19134 1.19178 1.20666 1.20375 1.21531 1.20741 1.19178 1.19157 1.22536 1.22463 1.19178 1.19178 1.22625 1.2213 1.20769 1.22204 1.22005 1.1951 1.22763 1.22264 1.20773 1.23448 1.23922 1.26177 1.24189 1.2104 1.19492 1.19798 1.24825 1.25237 1.2141 1.20386 1.20716 1.28854 1.22639 1.19178 1.18644 1.12715 1.32886 0.974892 1.05356 1.20142 1.23386 0.762132 0.350438 0.970402 1.20563 0.654537 1.08196 0.965463 1.02665 0.900808 1.1183 1.16592 1.41081 1.55679 1.31957 1.10255 1.08778 1.23263 1.24732 1.2362 1.27137 1.20453 1.23051 1.19114 1.19086 1.19253 1.20576 1.19178 1.19178 1.20251 1.19178 1.20138 1.19739 1.19799 1.2056 1.20827 1.20504 1.18776 1.18993 1.19516 1.20107 1.19084 1.21908 1.21354 1.21965 1.20804 1.21291 1.20636 1.19709 1.21109 1.21286 1.1914 1.19178 1.21125 1.2307 1.23106 1.19966 1.21693 1.21638 1.19041 1.22558 1.201 1.20009 1.22332 1.21842 1.19612 1.18707 1.18462 1.1977 1.21748 1.21665 1.20747 1.19889 1.20335 1.18979 1.17046 1.23468 1.17487 1.21342 1.19732 1.22018 1.23724 1.22247 1.2244 1.23452 1.23747 1.21987 1.24949 1.18704 1.24623 1.20834 1.25453 1.22726 1.30311 1.1648 1.4607 1.46395 1.02951 1.40352 1.08437 1.23663 1.43634 0.61953 0.605315 1.07364 1.44095 0.643483 1.11144 1.07725 1.21256 0.824517 0.939587 1.09593 1.1167 1.2635 1.23367 1.17426 1.25376 1.21743 1.20764 1.21542 1.19219 1.2197 1.21781 1.19444 1.19256 1.2058 1.20579 1.18812 1.19632 1.18957 1.20642 1.21144 1.21261 1.19178 1.18987 1.20688 1.19287 1.19874 1.20445 1.19121 1.20415 1.21463 1.22428 1.24327 1.2178 1.20636 1.20333 1.20844 1.21176 1.20752 1.15649 1.19484 1.20705 1.19356 1.22427 1.21133 1.22745 1.21101 1.18952 1.17024 1.22539 1.18686 1.20779 1.23155 1.2153 1.2043 1.22306 1.1957 1.17408 1.20601 1.19178 1.19178 1.19178 1.20187 1.19962 1.22465 1.22557 1.19062 1.18985 1.17911 1.21442 1.21393 1.22266 1.19532 1.19563 1.20232 1.19866 1.23479 1.22075 1.18106 1.22781 1.2306 1.17715 1.20063 1.22338 1.23092 1.17726 1.24414 1.18942 1.22946 1.14424 1.24926 1.19801 1.2358 1.18931 1.35506 1.20053 1.04882 1.20436 1.05601 0.835764 1.03442 0.965042 1.1862 0.797484 0.894318 0.953926 1.04797 1.0569 1.27894 1.13612 1.07744 1.03136 1.22227 1.09517 1.18741 1.18991 1.21685 1.20053 1.2017 1.19178 1.21615 1.19204 1.1943 1.21365 1.20538 1.20818 1.21136 1.21108 1.19869 1.19285 1.1782 1.2142 1.2143 1.23345 1.21625 1.20281 1.19033 1.20497 1.2098 1.17417 1.20403 1.17023 1.15204 1.20454 1.16538 1.1811 1.20734 1.23103 1.21973 1.22217 1.22782 1.20378 1.19403 1.22261 1.2245 1.2155 1.217 1.19925 1.17283 1.19165 1.1498 1.22384 1.22515 1.16556 1.21489 1.22125 1.19748 1.20088 1.19133 1.19583 1.20305 1.2065 1.20183 1.23926 1.22265 1.23055 1.15815 1.19208 1.1642 1.19381 1.28206 1.18449 1.15639 1.2024 1.24684 1.17546 1.19577 1.31389 1.0405 1.35744 1.07056 1.14036 0.891077 1.15096 0.701275 1.13232 0.989306 1.06115 0.905488 1.05193 1.19191 1.289 1.15202 1.12521 0.989646 1.04689 1.17967 1.06936 1.1934 1.20907 1.30101 1.17005 1.2164 1.19507 1.19412 1.19789 1.1883 1.22079 1.21941 1.22466 1.21353 1.21341 1.20497 1.20477 1.21193 1.20904 1.2198 1.21483 1.21627 1.19847 1.18718 1.19802 1.21269 1.20065 1.20077 1.23172 1.21157 1.19853 1.18941 1.19738 1.18305 1.2014 1.16828 1.16856 1.20094 1.20186 1.18667 1.18558 1.19744 1.19237 1.23029 1.20782 1.21806 1.20766 1.20666 1.20385 1.17934 1.18841 1.2155 1.21487 1.19524 1.20944 1.19591 1.19178 1.22708 1.18895 1.22841 1.12992 1.20824 1.22041 1.19997 1.19235 1.17986 1.20365 1.21716 1.16378 1.20939 1.1661 1.23539 1.19839 1.17188 1.21988 1.19602 1.2013 1.2503 1.24528 1.17168 1.19631 1.01267 1.18045 1.14849 0.904518 1.16726 1.00223 0.851534 1.09137 1.04854 0.943955 0.989678 0.889672 0.968698 1.16135 1.19366 1.14436 1.11238 1.176 1.18448 1.15885 1.19371 1.2062 1.18382 1.18748 1.20639 1.22598 1.14847 1.21308 1.20055 1.19178 1.18928 1.21002 1.20185 1.20907 1.20289 1.19106 1.19928 1.19459 1.2305 1.21248 1.19951 1.19483 1.1987 1.21013 1.18188 1.20786 1.16735 1.19869 1.1909 1.18834 1.18561 1.17936 1.2023 1.18696 1.20879 1.21137 1.19107 1.20489 1.20381 1.1779 1.21734 1.21488 1.16533 1.19135 1.16427 1.22173 1.18903 1.21799 1.24251 1.20015 1.16539 1.20628 1.15919 1.19551 1.19666 1.18331 1.19528 1.20412 1.19965 1.18355 1.17834 1.22137 1.18455 1.27148 1.27243 1.18438 1.23118 1.17462 1.19497 1.24855 1.03366 1.13263 1.08525 1.22769 0.973286 1.12094 0.963367 1.08202 0.827733 0.904334 1.28885 0.940303 0.96624 0.93777 0.936957 0.976408 1.02509 1.11201 1.16609 1.19203 1.17279 1.10889 1.12 1.19035 1.18495 1.18181 1.18289 1.19208 1.1996 1.20258 1.18353 1.20859 1.21982 1.19578 1.20468 1.19499 1.20493 1.21317 1.20173 1.19763 1.20732 1.19816 1.22563 1.21098 1.21875 1.15647 1.21899 1.15744 1.19501 1.20612 1.18237 1.20312 1.19741 1.19634 1.20035 1.19374 1.20827 1.18441 1.21384 1.21286 1.18911 1.18453 1.1882 1.18424 1.18952 1.18224 1.18822 1.20759 1.18792 1.20145 1.21277 1.20572 1.20036 1.1729 1.24124 1.22208 1.20502 1.21409 1.1684 1.19221 1.18517 1.18822 1.16102 1.18162 1.21698 1.24658 1.20774 1.16997 1.19401 1.19297 1.15465 1.18926 1.19656 1.17553 1.21726 1.19376 1.20381 1.19216 1.20708 1.17487 1.18635 1.16983 1.19525 1.2306 1.1916 1.18779 1.17486 1.27131 1.26636 1.22143 1.21146 1.20358 1.19637 1.18487 1.24846 0.771808 1.01877 1.05985 1.13827 1.34605 1.2029 1.01555 1.05378 1.12246 1.17638 1.19992 1.14503 1.15567 1.12996 1.17188 1.195 1.18394 1.18729 1.20937 1.19461 1.18126 1.17945 1.20744 1.19268 1.19158 1.19178 1.19753 1.20532 1.18433 1.191 1.19582 1.19215 1.20002 1.20339 1.20667 1.2013 1.20814 1.19477 1.17714 1.17145 1.15583 1.19218 1.18387 1.1956 1.19167 1.20081 1.18665 1.20282 1.18166 1.16219 1.20666 1.19158 1.1643 1.22929 1.16892 1.1405 1.19341 1.185 1.18923 1.19178 1.17977 1.17803 1.20474 1.19214 1.20983 1.20623 1.19769 1.20902 1.17215 1.21451 1.19361 1.22659 1.19653 1.20177 1.19178 1.24641 1.15905 1.21487 1.18261 1.20634 1.24707 1.20635 1.16362 1.11866 1.20015 1.23354 1.18585 1.17542 1.20517 1.2047 1.18702 1.16019 1.16467 1.2289 1.19693 1.17304 1.18837 1.19675 1.19186 1.15836 1.23614 1.2425 1.2085 1.17473 1.20455 1.20161 1.19098 1.21305 1.29493 1.23757 1.25028 1.12938 1.10131 1.16152 1.15844 1.24107 1.1106 1.08729 1.11392 1.26455 1.26615 1.05295 1.0683 1.12717 1.19021 1.15873 1.13973 1.19178 1.16819 1.1921 1.18476 1.18268 1.19178 1.18543 1.20949 1.19213 1.19374 1.21087 1.2262 1.18761 1.18989 1.1786 1.20537 1.18338 1.19298 1.19712 1.20365 1.20529 1.20402 1.19144 1.22362 1.17442 1.22186 1.19178 1.19178 1.19257 1.1831 1.16182 1.18922 1.18453 1.15705 1.16083 1.194 1.20922 1.21179 1.17073 1.23025 1.18562 1.24307 1.15301 1.2355 1.17862 1.14169 1.17698 1.20196 1.18602 1.16987 1.18785 1.19209 1.20867 1.21555 1.20632 1.20101 1.20982 1.19602 1.22588 1.18652 1.18832 1.17759 1.24534 1.15593 1.20975 1.18556 1.19198 1.21397 1.18213 1.23653 1.18195 1.16366 1.18245 1.18284 1.2029 1.19354 1.17652 1.18801 1.19275 1.17281 1.21008 1.22876 1.24359 1.17567 1.18577 1.21475 1.23244 1.2054 1.18372 1.17081 1.19559 1.20133 1.20603 1.1918 1.25207 1.17506 1.18975 1.17557 1.17112 1.11148 1.11992 1.14044 1.23609 1.0746 1.07745 1.12792 1.13181 1.19293 1.16477 1.17864 1.18298 1.16388 1.18692 1.19603 1.17363 1.18323 1.16397 1.19175 1.18638 1.20915 1.22974 1.18184 1.19546 1.21832 1.19031 1.19317 1.18835 1.20244 1.20296 1.20424 1.20343 1.21725 1.18311 1.1882 1.21762 1.22565 1.19123 1.18057 1.18867 1.19905 1.16132 1.18644 1.19409 1.16597 1.23539 1.17143 1.20959 1.19483 1.19178 1.19178 1.23567 1.18414 1.17417 1.20105 1.17825 1.20794 1.19283 1.21255 1.21491 1.20474 1.1965 1.20102 1.19489 1.19229 1.22231 1.1903 1.24596 1.15425 1.17967 1.20991 1.19938 1.15606 1.19622 1.24311 1.19088 1.19178 1.16368 1.18044 1.17844 1.19173 1.17148 1.18753 1.18528 1.24644 1.18488 1.14981 1.19754 1.07472 1.05221 1.19977 1.18698 1.17002 1.19048 1.17091 1.17574 1.18712 1.24863 1.17847 1.1896 1.17348 1.14114 1.13532 1.16941 1.19133 1.08886 1.11732 1.16606 1.07699 1.18233 1.17856 1.18193 1.15777 1.1702 1.18066 1.21185 1.19601 1.17431 1.11787 1.19933 1.2072 1.18112 1.15584 1.19198 1.18692 1.20514 1.21029 1.1989 1.1771 1.20072 1.20116 1.20249 1.19176 1.22082 1.16887 1.21622 1.22231 1.18572 1.20727 1.18727 1.16365 1.18985 1.19115 1.2018 1.19597 1.18611 1.17082 1.15202 1.1737 1.19225 1.18738 1.19317 1.22746 1.19082 1.20523 1.17844 1.19472 1.20145 1.21107 1.20283 1.20085 1.19744 1.20347 1.2078 1.20225 1.20298 1.16773 1.23341 1.1786 1.20759 1.15646 1.20371 1.17664 1.19298 1.21277 1.15161 1.20113 1.22575 1.14913 1.17032 1.19322 1.1711 1.19947 1.17737 1.18646 1.18728 1.17878 1.17324 1.20173 1.15826 1.17825 1.14273 1.1745 1.19947 1.18821 1.19371 1.18356 1.20093 1.19213 1.18153 1.17522 1.20582 1.19021 1.25142 1.18217 1.19545 1.17236 1.21954 1.13404 1.2015 1.18724 1.10289 1.16472 1.08515 1.192 1.16203 1.14075 1.17775 1.15326 1.17382 1.18143 1.18813 1.19354 1.21172 1.18823 1.17146 1.20552 1.1935 1.17811 1.24735 1.1668 1.17871 1.19216 1.19845 1.20902 1.18457 1.18714 1.20128 1.16699 1.19718 1.20658 1.20901 1.18512 1.16611 1.17326 1.22403 1.17774 1.21592 1.17061 1.16516 1.16191 1.20172 1.20747 1.19518 1.17304 1.24102 1.15627 1.22385 1.18894 1.20894 1.20688 1.2094 1.20524 1.19853 1.19777 1.17055 1.17754 1.19936 1.1985 1.21053 1.19773 1.16531 1.21893 1.20751 1.19178 1.19178 1.15516 1.1987 1.18281 1.20561 1.19276 1.19658 1.21903 1.18654 1.16174 1.18989 1.20615 1.20406 1.16481 1.18251 1.19767 1.19695 1.1469 1.17182 1.16353 1.15141 1.18743 1.16603 1.19421 1.19023 1.19754 1.17706 1.20938 1.20063 1.17679 1.2442 1.18251 1.23557 1.1911 1.26615 1.18556 1.18604 1.19763 1.12311 1.16847 1.19889 1.18732 1.17973 1.16996 1.18575 1.16644 1.15853 1.18058 1.18832 1.19069 1.21011 1.18985 1.17042 1.19178 1.17673 1.249 1.16191 1.17449 1.18321 1.1918 1.19503 1.2068 1.19174 1.15677 1.17707 1.16435 1.15781 1.16613 1.19743 1.21494 1.18364 1.17394 1.22556 1.19425 1.21413 1.19176 1.21915 1.20129 1.17304 1.16832 1.23029 1.16217 1.22474 1.19219 1.22084 1.20923 1.20419 1.20416 1.197 1.16643 1.19718 1.19717 1.17559 1.19537 1.19792 1.23244 1.20111 1.19942 1.19156 1.17296 1.20127 1.20702 1.22284 1.25958 1.20998 1.16781 1.23222 1.20626 1.17582 1.17395 1.18857 1.1972 1.20928 1.19041 1.16278 1.18442 1.20449 1.20229 1.15992 1.19432 1.18883 1.18014 1.17487 1.17163 1.18933 1.14961 1.1704 1.15998 1.18428 1.22399 1.18264 1.17769 1.19111 1.12801 1.16336 1.15613 1.19258 1.17199 1.24501 1.19483 1.25681 1.22058 1.20588 1.16747 1.18792 1.18398 1.18118 1.18483 1.16553 1.20831 1.19167 1.19874 1.18368 1.16615 1.1757 1.17336 1.24687 1.18131 1.18903 1.18406 1.19783 1.16669 1.17841 1.17857 1.16914 1.1649 1.19276 1.19178 1.21309 1.18319 1.18791 1.18863 1.17545 1.17974 1.19425 1.17721 1.18959 1.15208 1.13723 1.19231 1.19233 1.18716 1.19177 1.16056 1.14168 1.19157 1.19178 1.19444 1.21457 1.18743 1.20399 1.20486 1.20741 1.1757 1.19178 1.18024 1.19509 1.18206 1.24232 1.25357 1.21497 1.20134 1.19672 1.19363 1.19709 1.20273 1.23536 1.18953 1.245 1.20517 1.18355 1.21123 1.19178 1.17026 1.19105 1.20503 1.21226 1.19178 1.19765 1.23502 1.20113 1.1576 1.14916 1.166 1.1649 1.20994 1.17405 1.19477 1.16411 1.18025 1.18079 1.15478 1.18665 1.12693 1.15712 1.21101 1.17138 1.16469 1.18686 1.16545 1.24082 1.17836 1.21535 1.20666 1.1447 1.14417 1.20631 1.1377 1.14508 1.1735 1.17307 1.19392 1.18955 1.19181 1.15683 1.17332 1.19264 1.19831 1.1665 1.18221 1.17749 1.1928 1.18238 1.19062 1.18121 1.18225 1.1597 1.17785 1.1854 1.1471 1.22098 1.21585 1.18024 1.18725 1.1772 1.19346 1.18921 1.17631 1.2068 1.20332 1.2868 1.17659 1.1897 1.1817 1.24126 1.17621 1.18844 1.19139 1.20935 1.19019 1.1984 1.22935 1.2261 1.18049 1.17276 1.16352 1.19356 1.22045 1.15961 1.18341 1.19563 1.19302 1.20106 1.2327 1.23373 1.22638 1.20608 1.19253 1.20896 1.19902 1.17327 1.20545 1.2004 1.21915 1.20148 1.18372 1.19747 1.14557 1.16265 1.18155 1.19308 1.19178 1.08746 1.08936 1.20047 1.16957 1.18886 1.1595 1.1915 1.189 1.14867 1.18075 1.19178 1.19168 1.1895 1.13942 1.14101 1.18835 1.18593 1.16055 1.2346 1.1798 1.1981 1.19781 1.19178 1.20633 1.15284 1.18165 1.17141 1.20102 1.19279 1.19374 1.19001 1.16658 1.17815 1.1942 1.15752 1.16559 1.17793 1.16695 1.19162 1.176 1.19221 1.19764 1.19029 1.18536 1.18169 1.16747 1.14768 1.14917 1.19849 1.19178 1.19178 1.18635 1.18915 1.17502 1.17387 1.18717 1.20567 1.1959 1.21104 1.19277 1.204 1.2027 1.2063 1.19154 1.20196 1.1893 1.15469 1.19178 1.20782 1.17383 1.19248 1.23076 1.18255 1.22662 1.17499 1.14265 1.20958 1.2369 1.19273 1.17086 1.19078 1.19861 1.20444 1.2333 1.22779 1.17987 1.21157 1.19115 1.21261 1.19348 1.19249 1.19336 1.21325 1.19607 1.18353 1.18889 1.16475 1.18065 1.18217 1.19178 1.18745 1.21468 1.15919 1.17179 1.167 1.19856 1.20835 1.18364 1.17543 1.17999 1.18702 1.1625 1.15652 1.19178 1.19528 1.18016 1.19178 1.21116 1.16251 1.2181 1.2018 1.20154 1.15613 1.18324 1.20231 1.19441 1.19483 1.19008 1.16285 1.15629 1.19459 1.19134 1.16261 1.17474 1.16691 1.16712 1.1965 1.17466 1.14611 1.19917 1.18756 1.18298 1.17112 1.18213 1.15996 1.17932 1.16225 1.15299 1.18545 1.19534 1.2033 1.19178 1.19178 1.19098 1.17422 1.20976 1.20073 1.19346 1.21029 1.19091 1.20382 1.20033 1.218 1.17834 1.18798 1.20802 1.1747 1.19088 1.18624 1.21201 1.28745 1.15805 1.21323 1.17977 1.21464 1.1675 1.18816 1.2158 1.22094 1.20247 1.16749 1.15727 1.19402 1.20093 1.19385 1.22229 1.22812 1.22765 1.19089 1.19857 1.18232 1.21 1.20121 1.17137 1.18786 1.24615 1.21993 1.20979 1.21447 1.17595 1.1906 1.16315 1.19371 1.18253 1.193 1.22461 1.21963 1.19212 1.15803 1.19168 1.20545 1.17584 1.17808 1.17449 1.142 1.17728 1.1411 1.13811 1.15991 1.18356 1.20222 1.16217 1.21399 1.19788 1.19069 1.18897 1.19496 1.20567 1.18505 1.20059 1.19407 1.19178 1.16819 1.23027 1.22426 1.16843 1.16916 1.21258 1.19448 1.16225 1.17865 1.18398 1.19601 1.18456 1.20567 1.19319 1.18033 1.1838 1.18161 1.16993 1.16071 1.17124 1.18889 1.18456 1.15226 1.19257 1.19887 1.19149 1.19956 1.1658 1.18209 1.23924 1.19902 1.1923 1.19037 1.20503 1.2062 1.18637 1.19178 1.19912 1.2183 1.18324 1.24114 1.21587 1.19033 1.18563 1.2191 1.29406 1.16234 1.21189 1.21963 1.18707 1.20922 1.22428 1.20153 1.21481 1.20096 1.20442 1.16974 1.15396 1.19091 1.19623 1.18362 1.22336 1.18383 1.20585 1.18732 1.19776 1.19158 1.19307 1.19129 1.18471 1.25064 1.21529 1.17459 1.17634 1.19998 1.16971 1.19492 1.19051 1.21998 1.2231 1.20819 1.18631 1.18843 1.15652 1.19451 1.20345 1.13215 1.23145 1.2163 1.15062 1.18755 1.20709 1.18841 1.22779 1.21134 1.19286 1.22226 1.20441 1.18862 1.18704 1.20568 1.18155 1.20151 1.21013 1.18779 1.19858 1.19553 1.17923 1.15573 1.20459 1.16214 1.19047 1.18625 1.16267 1.20035 1.20281 1.18771 1.18283 1.18219 1.19178 1.1912 1.21229 1.19084 1.15225 1.22118 1.19923 1.21145 1.14114 1.20107 1.14323 1.20643 1.22507 1.18329 1.21619 1.21544 1.19393 1.1767 1.19262 1.19456 1.22215 1.19615 1.24376 1.24172 1.19427 1.20593 1.22795 1.19516 1.21254 1.20995 1.19847 1.21623 1.21355 1.21597 1.18233 1.20691 1.22875 1.19296 1.15034 1.23592 1.19419 1.18089 1.21955 1.19874 1.20178 1.19032 1.17811 1.11193 1.19638 1.19819 1.19515 1.1919 1.18622 1.23315 1.21993 1.18273 1.20812 1.20548 1.19486 1.19505 1.18963 1.2215 1.1866 1.17372 1.16973 1.15158 1.19178 1.19906 1.17824 1.18036 1.23734 1.22882 1.19827 1.25164 1.2124 1.22558 1.30396 1.21017 1.18378 1.16744 1.21994 1.19414 1.18504 1.1789 1.18569 1.19594 1.1976 1.20895 1.18815 1.19668 1.20398 1.17952 1.13788 1.20261 1.16002 1.18684 1.18655 1.16186 1.19958 1.18306 1.18786 1.18435 1.19856 1.18648 1.16738 1.21643 1.19528 1.17705 1.22102 1.20304 1.20086 1.20857 1.21228 1.2048 1.21686 1.16293 1.21617 1.21765 1.19822 1.18632 1.20946 1.20079 1.18417 1.23179 1.18618 1.24078 1.19983 1.20428 1.22743 1.19705 1.20124 1.22335 1.1981 1.17518 1.18796 1.18099 1.20716 1.19178 1.20605 1.17061 1.19561 1.18972 1.19087 1.18743 1.2145 1.19815 1.2286 1.22074 1.16931 1.19538 1.19875 1.19396 1.19118 1.18555 1.22202 1.22806 1.18312 1.20812 1.21397 1.21607 1.19242 1.14075 1.2168 1.18604 1.17245 1.14498 1.17345 1.16578 1.19407 1.19942 1.20245 1.18159 1.20982 1.25828 1.20203 1.23126 1.2054 1.29321 1.21131 1.21092 1.17349 1.19178 1.19045 1.17942 1.18369 1.17802 1.18552 1.19528 1.18548 1.18622 1.19634 1.20289 1.17831 1.19213 1.19178 1.19178 1.19008 1.19001 1.20644 1.20376 1.18329 1.19157 1.18099 1.20264 1.16866 1.22366 1.21366 1.19328 1.19687 1.18924 1.17488 1.21311 1.20469 1.20977 1.2034 1.21789 1.15797 1.21869 1.2126 1.19617 1.18618 1.21866 1.19095 1.16545 1.2312 1.18535 1.23877 1.19178 1.20142 1.21418 1.21453 1.21063 1.23567 1.20334 1.18217 1.183 1.21686 1.04481 1.16496 1.25291 1.18983 1.19073 1.1891 1.18308 1.18759 1.21475 1.15243 1.16238 1.18765 1.24559 1.19178 1.17179 1.19903 1.18337 1.18346 1.19069 1.21103 1.23171 1.18404 1.22126 1.21347 1.22061 1.18963 1.19178 1.21625 1.18957 1.20789 1.15409 1.1657 1.19871 1.20503 1.20275 1.19372 1.22129 1.2437 1.23559 1.22459 1.20177 1.21077 1.20473 1.22243 1.19178 1.18144 1.17512 1.1966 1.17619 1.18459 1.18516 1.18662 1.17661 1.17948 1.20902 1.19594 1.20342 1.17789 1.19157 1.19176 1.19178 1.19259 1.19016 1.20503 1.2081 1.19073 1.20359 1.18877 1.20407 1.16854 1.20947 1.20877 1.19513 1.20545 1.19005 1.15503 1.22198 1.20126 1.19111 1.19427 1.21303 1.15289 1.20192 1.21647 1.19991 1.18764 1.23602 1.19833 1.16707 1.22561 1.22792 1.2444 1.16845 1.232 1.18482 1.22188 1.20775 1.20316 1.19115 1.18117 1.19921 1.2045 1.14351 1.24987 1.18634 1.18776 1.18779 1.19732 1.19519 1.1883 1.25075 1.20944 1.16266 1.18895 1.21651 1.18462 1.20672 1.1997 1.23341 1.1832 1.21956 1.2173 1.21473 1.1964 1.21209 1.22342 1.19158 1.18303 1.20126 1.21873 1.19383 1.22005 1.22079 1.20729 1.23167 1.22319 1.19631 1.18046 1.20585 1.14016 1.18257 1.19607 1.17585 1.1836 1.19579 1.18158 1.20395 1.21238 1.20093 1.18075 1.19178 1.19178 1.19178 1.19158 1.20257 1.20495 1.1945 1.21813 1.20191 1.19004 1.20698 1.1722 1.20843 1.19077 1.20042 1.19742 1.15488 1.18342 1.2243 1.19134 1.189 1.19638 1.19884 1.21443 1.19342 1.18681 1.16482 1.20256 1.19178 1.19022 1.24271 1.16664 1.18484 1.23994 1.18476 1.2089 1.19844 1.18022 1.19178 1.2005 1.17739 1.23908 1.1987 1.29504 1.15929 1.16965 1.16018 1.18892 1.18586 1.19087 1.17334 1.17494 1.19243 1.1805 1.19621 1.18897 1.17105 1.19022 1.20205 1.22011 1.20924 1.1901 1.23688 1.18998 1.22776 1.20232 1.21862 1.19116 1.20093 1.20892 1.20613 1.20068 1.2126 1.22977 1.19727 1.20217 1.21818 1.20407 1.20297 1.2141 1.21645 1.20956 1.21076 1.19384 1.18743 1.19704 1.19608 1.13131 1.15659 1.17682 1.17098 1.21638 1.18653 1.16985 1.18562 1.18995 1.21889 1.22121 1.19983 1.18227 1.19224 1.19157 1.19178 1.19094 1.20183 1.20506 1.18258 1.21819 1.19178 1.19028 1.19178 1.19178 1.18903 1.18945 1.1863 1.19956 1.19765 1.20143 1.18099 1.18192 1.1917 1.19487 1.19744 1.19499 1.21586 1.18448 1.21136 1.1864 1.18256 1.21162 1.19938 1.19425 1.24249 1.15874 1.17022 1.20287 1.18799 1.21066 1.19421 1.12056 1.20176 1.19092 1.181 1.17232 1.24481 1.21016 1.14059 1.25101 1.16438 1.18315 1.18522 1.17916 1.17336 1.18578 1.18398 1.1897 1.17539 1.19351 1.15974 1.16724 1.19178 1.19735 1.1534 1.20613 1.17808 1.24083 1.1982 1.22613 1.20643 1.21102 1.19262 1.17688 1.19796 1.21466 1.19934 1.1567 1.21942 1.20029 1.20119 1.19681 1.21021 1.20762 1.20925 1.17954 1.16401 1.20249 1.1849 1.22019 1.18648 1.18253 1.16094 1.16867 1.21288 1.18861 1.19178 1.20293 1.20497 1.15872 1.23003 1.21971 1.20594 1.19257 1.19249 1.19162 1.19178 1.19278 1.20255 1.20126 1.18623 1.21476 1.21838 1.20598 1.19073 1.20526 1.19178 1.25733 1.19178 1.2073 1.21065 1.21281 1.26135 1.18067 1.18299 1.19981 1.19315 1.17735 1.18743 1.19858 1.17673 1.18546 1.18397 1.19018 1.20902 1.18681 1.18588 1.24627 1.16461 1.17166 1.20843 1.19923 1.19279 1.21077 1.13668 1.19606 1.22652 1.17287 1.21673 1.19178 1.22291 1.12902 1.17096 1.1743 1.17748 1.19228 1.17025 1.17157 1.17897 1.16945 1.18167 1.15841 1.18414 1.19597 1.14858 1.20073 1.16425 1.25256 1.21625 1.22493 1.19651 1.20689 1.14862 1.16402 1.20265 1.19993 1.24707 1.25437 1.20881 1.19824 1.1553 1.17059 1.20907 1.19088 1.17665 1.2091 1.20077 1.05355 1.17846 1.19273 1.1824 1.15585 1.19336 1.17609 1.18414 1.16011 1.19183 1.20779 1.18842 1.20565 1.19776 1.18044 1.23792 1.21704 1.21396 1.196 1.18291 1.21152 1.1899 1.20441 1.16265 1.20661 1.21457 1.20718 1.21912 1.22985 1.24437 1.24262 1.26684 1.20777 1.21801 1.21112 1.22987 1.19307 1.18002 1.18374 1.18678 1.20177 1.19236 1.17521 1.19008 1.18234 1.19873 1.19163 1.19046 1.18321 1.18308 1.17184 1.19124 1.16519 1.21902 1.20407 1.15385 1.19214 1.22478 1.17695 1.22052 1.21909 1.22784 1.14243 1.15581 1.20778 1.18994 1.18063 1.16132 1.22868 1.1357 1.10169 1.16592 1.17968 1.16904 1.17334 1.18841 1.19852 1.19867 1.13951 1.17345 1.14092 1.24225 1.21319 1.18392 1.20326 1.21426 1.20852 1.20332 1.19745 1.26657 1.1729 1.18226 1.19082 1.14046 1.17409 1.20792 1.1936 1.15804 1.19718 1.21603 1.08146 1.11008 1.22373 1.19292 1.16834 1.19539 1.19255 1.16375 1.18623 1.01685 1.2031 1.203 1.20406 1.19281 1.19547 1.18078 1.19196 1.212 1.21794 1.19276 1.19414 1.21153 1.19178 1.19178 1.16478 1.21438 1.21949 1.17712 1.21201 1.22966 1.24603 1.2509 1.19159 1.20797 1.21119 1.24461 1.20072 1.18653 1.13648 1.19024 1.19209 1.19993 1.19945 1.18671 1.20177 1.1835 1.16031 1.16354 1.19955 1.16287 1.16456 1.18826 1.17562 1.18448 1.16803 1.18677 1.16385 1.16233 1.20309 1.19469 1.19313 1.24175 1.19221 1.21388 1.17642 1.22152 1.22213 1.19928 1.14027 1.18389 1.17485 1.18024 1.2241 1.17324 1.22999 1.16002 1.18561 1.19849 1.17426 1.26086 1.24196 1.1948 1.13955 1.20651 1.14041 1.22364 1.21568 1.1782 1.1981 1.21386 1.20751 1.32076 1.23274 1.13598 1.28626 1.21757 1.13306 1.17646 1.21223 1.19017 1.1702 1.25118 1.18241 1.14148 1.16145 1.22421 1.18088 1.16822 1.18228 1.17727 1.09178 1.19862 1.21464 1.20027 1.21205 1.18422 1.18741 1.21917 1.21755 1.20597 1.22568 1.19178 1.19546 1.1829 1.17494 1.18911 1.19642 1.24322 1.22172 1.19178 1.19178 1.2165 1.24382 1.24526 1.13771 1.21014 1.21469 1.21235 1.19175 1.24303 1.1997 1.13423 1.18542 1.19288 1.19952 1.21105 1.20599 1.20858 1.18409 1.13586 1.19854 1.19392 1.16944 1.17965 1.17675 1.1639 1.14725 1.17558 1.16223 1.09806 1.17755 1.23761 1.2054 1.21145 1.17759 1.18965 1.18985 1.18835 1.17098 1.18236 1.1837 1.12276 1.19411 1.23082 1.1884 1.17764 1.21195 1.17478 1.25713 1.22203 1.20185 1.17656 1.26852 1.18201 1.21136 1.2219 1.19986 1.21674 1.20766 1.19006 1.27774 1.18996 1.16505 1.25083 1.16906 1.18393 1.22349 1.16354 1.16874 1.25049 1.16771 1.14418 1.20536 1.22699 1.19384 1.17714 1.18579 1.28062 1.21405 1.21128 1.21542 1.20725 1.21134 1.18291 1.18644 1.20872 1.21835 1.19693 1.22661 1.15709 1.19715 1.20575 1.18516 1.21074 1.21004 1.25649 1.17712 1.21784 1.15093 1.19912 1.24368 1.21965 1.17238 1.20629 1.21145 1.22478 1.23505 1.19005 1.19889 1.25017 1.20405 1.19812 1.20863 1.19178 1.19178 1.1824 1.21156 1.19263 1.18521 1.18007 1.18196 1.16707 1.18844 1.20245 1.17078 1.16736 1.14689 1.16929 1.15176 1.10435 1.18952 1.23609 1.18998 1.19324 1.16681 1.13916 1.09112 1.17324 1.2119 1.19017 1.22801 1.17598 1.169 1.19176 1.23043 1.33281 1.18792 1.20955 1.17215 1.17354 1.24567 1.22106 1.191 1.19763 1.23509 1.22111 1.21458 1.1917 1.2204 1.19178 1.17682 1.21815 1.15965 1.24494 1.18787 1.1564 1.26525 1.14049 1.1846 1.22342 1.14799 1.20708 1.12882 1.18822 1.19559 1.19815 1.21407 1.16467 1.18223 1.24119 1.17071 1.24984 1.20093 1.21746 1.2037 1.21111 1.18331 1.18527 1.20985 1.21907 1.19754 1.23485 1.18519 1.17772 1.21401 1.18012 1.21782 1.20853 1.21342 1.21507 1.19178 1.19607 1.16991 1.2443 1.24106 1.22525 1.20408 1.21331 1.22171 1.22519 1.19401 1.22018 1.19715 1.18625 1.19296 1.20597 1.22245 1.16004 1.18035 1.19281 1.19293 1.18812 1.17888 1.18514 1.18796 1.16575 1.17412 1.14878 1.23607 1.17487 1.15492 1.2009 1.21662 1.18199 1.1605 1.14057 1.12829 1.13869 1.17774 1.17026 1.2143 1.19304 1.16013 1.19542 1.16942 1.18192 1.16848 1.32289 1.17822 1.2065 1.17487 1.18876 1.23623 1.27026 1.16372 1.18916 1.20827 1.23439 1.2392 1.18315 1.21402 1.20141 1.22052 1.20397 1.19936 1.18243 1.15512 1.27137 1.22824 1.20162 1.24405 1.15082 1.21452 1.19157 1.18369 1.21222 1.19189 1.1942 1.20121 1.17935 1.22655 1.16771 1.24121 1.23465 1.215 1.19533 1.21069 1.20144 1.19576 1.21923 1.22236 1.19052 1.23521 1.25396 1.09521 1.23396 1.18494 1.18067 1.19565 1.20768 1.22823 1.24196 1.22075 1.19359 1.23292 1.23736 1.22544 1.20504 1.23679 1.26714 1.2108 1.18749 1.20475 1.20751 1.18483 1.19237 1.21149 1.19628 1.1855 1.21906 1.22359 1.18979 1.19877 1.18782 1.17864 1.19178 1.16725 1.19178 1.19181 1.27326 1.18922 1.20581 1.18399 1.20153 1.1721 1.15939 1.18593 1.15932 1.17396 1.15954 1.19676 1.22172 1.19178 1.19219 1.17527 1.20129 1.18018 1.30703 1.20905 1.19162 1.17805 1.19422 1.24487 1.14892 1.14909 1.16146 1.19941 1.22481 1.16618 1.17972 1.20444 1.19482 1.2121 1.19223 1.18157 1.1782 1.15338 1.15379 1.22469 1.22534 1.20094 1.15026 1.24582 1.23865 1.19158 1.20854 1.19047 1.2441 1.22051 1.1737 1.15125 1.1613 1.2086 1.19339 1.2196 1.18753 1.1907 1.20084 1.20576 1.21973 1.2197 1.18029 1.21947 1.26752 1.22504 1.19466 1.18808 1.18172 1.1941 1.20967 1.22955 1.16004 1.22243 1.19224 1.2385 1.23395 1.22316 1.20286 1.24167 1.23087 1.18651 1.22074 1.21111 1.1773 1.20936 1.18576 1.21787 1.17411 1.21688 1.21785 1.21887 1.18028 1.1914 1.19564 1.14284 1.24397 1.15357 1.18262 1.19455 1.26962 1.05992 1.2176 1.1658 1.17767 1.16668 1.17897 1.1876 1.17016 1.17848 1.15582 1.16322 1.17343 1.20392 1.19327 1.19418 1.23754 1.22144 1.19178 1.19779 1.17306 1.17763 1.19413 1.23568 1.24721 1.16044 1.15205 1.19854 1.21699 1.17122 1.20969 1.20593 1.20092 1.20034 1.18462 1.16777 1.17367 1.14434 1.19632 1.20875 1.22371 1.19498 1.15387 1.13539 1.23671 1.18762 1.17773 1.18023 1.18519 1.21105 1.16351 1.20085 1.15569 1.10405 1.17667 1.21169 1.1793 1.19178 1.21678 1.21198 1.22494 1.21105 1.16265 1.21523 1.23927 1.26415 1.22667 1.16257 1.20703 1.19325 1.19151 1.2054 1.24299 1.16945 1.22539 1.16145 1.23753 1.2628 1.20743 1.21035 1.20171 1.23414 1.18751 1.1989 1.24545 1.20843 1.19415 1.18937 1.23245 1.11886 1.21104 1.1707 1.21747 1.17113 1.18939 1.20707 1.1413 1.19895 1.18533 1.18744 1.19464 1.22999 1.26611 1.19605 1.16659 1.17669 1.16625 1.1718 1.18169 1.18022 1.18218 1.17945 1.14227 1.22415 1.21841 1.19674 1.19147 1.22915 1.20611 1.21797 1.19024 1.1617 1.17947 1.19194 1.1967 1.21099 1.16651 1.13901 1.19174 1.20214 1.12922 1.20954 1.20508 1.19912 1.19358 1.18272 1.16145 1.16423 1.14306 1.19461 1.20995 1.22453 1.17692 1.15517 1.12459 1.24137 1.19149 1.17425 1.16818 1.18406 1.15839 1.23251 1.16564 1.12023 1.19397 1.16484 1.19118 1.20178 1.23567 1.22257 1.2194 1.21291 1.21643 1.18206 1.24671 1.1568 1.22009 1.22006 1.21408 1.12354 1.20877 1.19344 1.25624 1.20456 1.17892 1.22377 1.22823 1.23674 1.21004 1.20197 1.21802 1.24797 1.16985 1.20497 1.19178 1.20663 1.20195 1.18603 1.22641 1.18981 1.20761 1.1833 1.21785 1.16993 1.18195 1.22311 1.13984 1.19788 1.18526 1.18402 1.18824 1.18458 1.2628 1.19039 1.16361 1.17639 1.16328 1.16433 1.17902 1.18035 1.18855 1.18358 1.15128 1.16411 1.23908 1.2084 1.19272 1.15164 1.20889 1.19414 1.18848 1.15462 1.19043 1.20468 1.19647 1.20131 1.24792 1.1933 1.19143 1.185 1.14711 1.2108 1.19607 1.18791 1.20942 1.18509 1.15467 1.13413 1.15223 1.19068 1.20486 1.22139 1.18806 1.16748 1.13034 1.19177 1.18967 1.17624 1.16863 1.17277 1.11686 1.2177 1.15598 1.14053 1.18838 1.16193 1.17293 1.20203 1.2308 1.22402 1.22038 1.19461 1.25247 1.1931 1.2537 1.20074 1.21561 1.19178 1.23021 1.24776 1.16797 1.2204 1.18834 1.1479 1.24637 1.19658 1.18572 1.20767 1.23598 1.22226 1.20309 1.18131 1.2394 1.16275 1.17616 1.2269 1.20661 1.20441 1.1919 1.21962 1.23104 1.21778 1.18052 1.20302 1.16556 1.19574 1.24402 1.20767 1.2023 1.1877 1.18783 1.18603 1.1798 1.25813 1.17446 1.15558 1.18132 1.16951 1.15133 1.20454 1.19188 1.14747 1.20409 1.19772 1.15994 1.23767 1.19359 1.18167 1.15479 1.1971 1.17054 1.18188 1.15544 1.15322 1.18895 1.20086 1.18917 1.14433 1.23037 1.24067 1.17948 1.17633 1.15945 1.20576 1.172 1.20913 1.18226 1.14436 1.15389 1.16102 1.17577 1.19399 1.22446 1.21885 1.19033 1.15305 1.20842 1.21936 1.18683 1.16854 1.17083 1.26337 1.2469 1.1429 1.22737 1.16486 1.16227 1.15766 1.2028 1.22579 1.20451 1.22047 1.18039 1.23955 1.1806 1.21938 1.21758 1.2354 1.19909 1.20997 1.268 1.18932 1.15029 1.25083 1.21116 1.19067 1.18765 1.20417 1.23933 1.21523 1.18241 1.07872 1.18464 1.19506 1.22682 1.20078 1.19588 1.20093 1.21119 1.2303 1.22632 1.17725 1.1984 1.17265 1.19334 1.21549 1.20996 1.1981 1.18942 1.17612 1.1848 1.1794 1.19178 1.17484 1.16906 1.17829 1.16838 1.15534 1.19796 1.1719 1.16442 1.14821 1.21607 1.17845 1.19339 1.17858 1.17805 1.16713 1.20288 1.18922 1.18437 1.16155 1.16297 1.18205 1.17045 1.1076 1.16633 1.20259 1.19966 1.17452 1.18413 1.15463 1.20323 1.16913 1.19371 1.18957 1.15599 1.16007 1.15801 1.15164 1.19066 1.20147 1.17051 1.19159 1.15418 1.19561 1.21477 1.16819 1.16467 1.20833 1.26265 1.23534 1.17478 1.22831 1.15847 1.16425 1.14436 1.20381 1.22501 1.22308 1.19529 1.19178 1.17229 1.16681 1.20747 1.19203 1.2664 1.22895 1.23584 1.23635 1.21928 1.27976 1.18506 1.13704 1.23537 1.20858 1.19187 1.16766 1.19019 1.2265 1.20568 1.13036 1.1332 1.19462 1.20082 1.20658 1.19267 1.19002 1.20978 1.18049 1.23452 1.2207 1.17427 1.19443 1.16788 1.17902 1.19194 1.19178 1.20459 1.19103 1.17335 1.17556 1.17515 1.17662 1.18696 1.21741 1.17606 1.17173 1.15641 1.19871 1.17344 1.16415 1.19712 1.17299 1.17985 1.18718 1.18548 1.16907 1.18642 1.19867 1.18777 1.13114 1.17283 1.16318 1.18993 1.17881 1.2054 1.17857 1.19658 1.1954 1.16504 1.17937 1.16461 1.18807 1.15182 1.19178 1.17694 1.15882 1.16066 1.17646 1.1794 1.19367 1.17715 1.17045 1.19144 1.15787 1.18286 1.2124 1.16007 1.17128 1.1277 1.18369 1.16985 1.2063 1.16405 1.20871 1.15978 1.1494 1.20419 1.22184 1.18953 1.16592 1.17931 1.18829 1.16917 1.24306 1.23367 1.23609 1.23226 1.21013 1.23705 1.14673 1.20065 1.12845 1.21617 1.19936 1.18454 1.17031 1.17718 1.2139 1.19665 1.12232 1.23304 1.20277 1.19166 1.18508 1.17485 1.20069 1.18359 1.1624 1.23831 1.21906 1.17444 1.16693 1.17045 1.1767 1.19113 1.16712 1.19967 1.18665 1.17189 1.17347 1.17975 1.15578 1.18446 1.19222 1.16932 1.19037 1.16147 1.19936 1.17435 1.1644 1.19174 1.18072 1.17746 1.17392 1.20137 1.17189 1.19046 1.18484 1.18291 1.15954 1.16842 1.16245 1.18939 1.17645 1.21246 1.19603 1.18998 1.19606 1.17214 1.06823 1.17197 1.18392 1.19219 1.19649 1.17144 1.19577 1.17195 1.18081 1.19722 1.19198 1.18107 1.19311 1.19856 1.14373 1.18065 1.19177 1.15624 1.16289 1.12819 1.18211 1.16883 1.14736 1.17638 1.19783 1.15481 1.15453 1.12375 1.18814 1.18527 1.16566 1.15155 1.21876 1.19179 1.25148 1.21339 1.19609 1.23442 1.19547 1.14757 1.15286 1.21184 1.1776 1.1833 1.18917 1.17985 1.21205 1.19699 1.1189 1.2309 1.14832 1.15959 1.1824 1.17713 1.19902 1.19164 1.16032 1.23353 1.18818 1.17123 1.15518 1.17351 1.17875 1.18976 1.16744 1.19896 1.19178 1.17537 1.17278 1.17977 1.15419 1.18295 1.19884 1.16708 1.19702 1.17184 1.14542 1.17628 1.16094 1.17937 1.18809 1.17816 1.17014 1.17472 1.18653 1.164 1.18118 1.17775 1.15952 1.16453 1.1641 1.15883 1.1865 1.17501 1.22096 1.19996 1.19393 1.18782 1.17948 1.16464 1.17974 1.16736 1.22554 1.19364 1.20439 1.16818 1.19025 1.20209 1.22688 1.18587 1.19048 1.18139 1.22747 1.19856 1.16221 1.1829 1.18997 1.15831 1.15982 1.12673 1.22951 1.17067 1.15374 1.18093 1.20564 1.15096 1.15236 1.16996 1.21667 1.18283 1.17441 1.1576 1.16378 1.15226 1.20776 1.20583 1.15173 1.22041 1.21147 1.17558 1.1929 1.14433 1.15573 1.20276 1.18418 1.17944 1.18507 1.16786 1.19407 1.15998 1.13355 1.17122 1.11805 1.15128 1.17973 1.18912 1.15014 1.18455 1.15127 1.19728 1.1845 1.17664 1.15931 1.17479 1.17687 1.18991 1.16806 1.18704 1.18025 1.16995 1.17322 1.19183 1.15436 1.18246 1.19661 1.16758 1.19178 1.17204 1.15496 1.18531 1.16876 1.17836 1.1833 1.16495 1.19465 1.19171 1.19248 1.1953 1.17177 1.1794 1.16161 1.1596 1.18228 1.18019 1.19178 1.20343 1.19914 1.18467 1.17506 1.16429 1.18039 1.2429 1.17201 1.10856 1.18072 1.194 1.2037 1.22633 1.19354 1.18884 1.18062 1.19174 1.21541 1.17285 1.21287 1.1901 1.18448 1.17852 1.18926 1.22487 1.18832 1.17463 1.19817 1.148 1.14929 1.1473 1.16651 1.20281 1.17298 1.15382 1.14054 1.145 1.15628 1.19273 1.20905 1.12684 1.14511 1.20988 1.18626 1.18977 1.11994 1.1439 1.19178 1.16321 1.17549 1.18631 1.16013 1.17773 1.15162 1.17744 1.19178 1.11832 1.14006 1.19373 1.21362 1.16665 1.17464 1.15037 1.20787 1.176 1.20314 1.15618 1.17514 1.17548 1.19211 1.16889 1.1948 1.17983 1.15729 1.18698 1.19825 1.19041 1.17677 1.19596 1.16668 1.18171 1.17002 1.233 1.1789 1.18392 1.17461 1.18495 1.15784 1.19466 1.18551 1.19722 1.19555 1.19048 1.15701 1.19682 1.16267 1.16268 1.16405 1.18108 1.17855 1.16776 1.19779 1.19831 1.17954 1.20339 1.17767 1.23859 1.1731 1.15216 1.17333 1.17041 1.18102 1.22311 1.19467 1.18844 1.18079 1.19129 1.21605 1.16873 1.21089 1.18937 1.20068 1.18674 1.19831 1.17329 1.20007 1.18621 1.15891 1.17885 1.16699 1.13887 1.15955 1.20326 1.15235 1.15604 1.14232 1.15326 1.18874 1.19027 1.16459 1.10883 1.15666 1.16626 1.15304 1.17472 1.20164 1.08058 1.17468 1.13597 1.17425 1.16062 1.16296 1.1698 1.14432 1.17485 1.17858 1.16329 1.13621 1.19022 1.2077 1.16136 1.18353 1.16836 1.19004 1.18809 1.16044 1.16225 1.1792 1.17323 1.18802 1.16249 1.19257 1.17157 1.167 1.19675 1.17938 1.19735 1.17383 1.19206 1.16516 1.18274 1.16453 1.23291 1.18097 1.18206 1.19109 1.18945 1.16496 1.19175 1.19178 1.19407 1.18886 1.15523 1.20755 1.15913 1.15848 1.16562 1.1927 1.17566 1.1837 1.18853 1.19514 1.17859 1.181 1.16745 1.17811 1.23713 1.16958 1.21377 1.16918 1.19173 1.18767 1.19195 1.21505 1.19161 1.1859 1.1773 1.19517 1.18047 1.20284 1.20147 1.17621 1.16805 1.18268 1.19226 1.19303 1.17052 1.1933 1.17801 1.16525 1.19792 1.1392 1.14504 1.19647 1.19178 1.14768 1.15382 1.13644 1.19177 1.22708 1.18847 1.16567 0.998739 1.16746 1.17757 1.12723 1.17563 1.23547 1.13603 1.19075 1.15115 1.16904 1.16119 1.15651 1.15943 1.15603 1.13789 1.17041 1.16285 1.13797 1.16614 1.20575 1.1578 1.16224 1.17625 1.17981 1.19697 1.19284 1.16729 1.16467 1.19178 1.17323 1.18727 1.19178 1.18916 1.18729 1.17391 1.1745 1.22545 1.19287 1.17692 1.19474 1.1711 1.20584 1.16946 1.17002 1.17674 1.19161 1.19628 1.19178 1.1839 1.19255 1.19419 1.15725 1.18793 1.18222 1.15873 1.21111 1.1478 1.1577 1.18179 1.17038 1.17345 1.18873 1.18838 1.19071 1.18693 1.17648 1.17424 1.17251 1.20155 1.18039 1.19585 1.16262 1.18756 1.21518 1.21063 1.17767 1.1856 1.18265 1.19797 1.19968 1.20133 1.19714 1.19514 1.1736 1.1836 1.17783 1.16925 1.19043 1.1887 1.16111 1.17092 1.17634 1.14944 1.19578 1.18843 1.14299 1.14291 1.16395 1.25002 1.1943 1.16871 1.15385 1.0812 1.17541 1.12606 1.13311 1.17461 1.23049 1.1405 1.13217 1.16122 1.15156 1.15331 1.15278 1.14992 1.17641 1.13877 1.22453 1.16174 1.15276 1.15402 1.16002 1.17787 1.19068 1.15351 1.15871 1.17805 1.16644 1.16206 1.17692 1.18227 1.18943 1.19178 1.18783 1.18637 1.17286 1.17271 1.1961 1.19328 1.18836 1.19465 1.18269 1.19231 1.17095 1.19852 1.17183 1.17697 1.20278 1.18246 1.18929 1.16925 1.14776 1.18648 1.21116 1.14601 1.16032 1.17808 1.16801 1.17493 1.18224 1.18592 1.18678 1.18642 1.18614 1.16498 1.17351 1.17157 1.22176 1.17509 1.20965 1.14791 1.1465 1.18169 1.16863 1.1862 1.1857 1.19901 1.19805 1.19097 1.17509 1.1849 1.17847 1.17349 1.18452 1.18998 1.18826 1.18844 1.18092 1.20161 1.1855 1.19299 1.19183 1.18776 1.15242 1.13383 1.1678 1.18773 1.19925 1.16816 1.16431 1.15644 1.15013 1.15064 1.17093 1.18162 1.25972 1.1744 1.13618 1.12877 1.14776 1.133 1.17746 1.14751 1.12718 1.20311 1.13145 1.19178 1.15638 1.14722 1.15473 1.17841 1.11596 1.18929 1.19786 1.19304 1.18134 1.18657 1.17665 1.18637 1.17731 1.18085 1.18666 1.19102 1.18213 1.18702 1.19052 1.19178 1.18878 1.19198 1.1864 1.193 1.1703 1.19178 1.17197 1.17657 1.19458 1.17806 1.18845 1.18921 1.17611 1.16055 1.18163 1.18646 1.21249 1.14585 1.1692 1.17203 1.16352 1.17428 1.17576 1.18061 1.16178 1.15873 1.17263 1.19309 1.18531 1.21532 1.16433 1.2163 1.17053 1.16403 1.17621 1.20189 1.17206 1.1743 1.18578 1.18542 1.20009 1.19789 1.18616 1.18711 1.18348 1.1764 1.17995 1.17612 1.17135 1.17908 1.17439 1.19177 1.1892 1.20057 1.19515 1.18248 1.19488 1.19391 1.19178 1.18724 1.15899 1.13145 1.16022 1.10759 1.20411 1.16694 1.124 1.14817 1.14314 1.13962 1.16303 1.18423 1.19022 1.16305 1.14341 1.13298 1.11763 1.15157 1.18746 1.15478 1.14248 1.20647 1.13546 1.16744 1.15088 1.14574 1.16417 1.1795 1.16121 1.19444 1.17238 1.19529 1.17495 1.17727 1.18555 1.19059 1.17931 1.18646 1.19178 1.18697 1.19152 1.19178 1.19178 1.18856 1.19178 1.18691 1.1922 1.19216 1.17086 1.19308 1.17154 1.17619 1.1937 1.1749 1.17963 1.18665 1.19822 1.16585 1.18311 1.18736 1.21268 1.17354 1.17721 1.16514 1.16643 1.16132 1.17344 1.14648 1.15336 1.15493 1.15606 1.15284 1.16903 1.18493 1.14723 1.17416 1.18216 1.20786 1.17889 1.1736 1.18265 1.18244 1.19882 1.16797 1.1852 1.17825 1.18034 1.17262 1.18037 1.1846 1.18668 1.19947 1.19884 1.18134 1.19178 1.19237 1.16642 1.1421 1.16174 1.10987 1.1977 1.16663 1.11794 1.14528 1.14563 1.13545 1.19083 1.1804 1.19828 1.1577 1.15664 1.14488 1.14296 1.17313 1.15053 1.15112 1.14696 1.10909 1.16824 1.15097 1.14995 1.13588 1.16384 1.17859 1.15599 1.19265 1.17336 1.19546 1.1744 1.18689 1.17407 1.18581 1.19274 1.17796 1.18797 1.19418 1.18766 1.19162 1.19178 1.19191 1.18831 1.19079 1.18797 1.17138 1.1936 1.19178 1.19178 1.18733 1.18398 1.18042 1.18654 1.18884 1.19289 1.17295 1.18498 1.16822 1.2017 1.18045 1.16251 1.16018 1.17246 1.14542 1.14965 1.14701 1.15474 1.15127 1.17022 1.17438 1.17435 1.18747 1.17085 1.17229 1.18077 1.19244 1.20107 1.17404 1.19178 1.18043 1.19336 1.16563 1.18455 1.18735 1.1923 1.17883 1.17159 1.19178 1.18057 1.1889 1.18068 1.18969 1.18783 1.19279 1.18923 1.19834 1.17226 1.14008 1.16013 1.11256 1.19217 1.16561 1.11228 1.12828 1.14675 1.12805 1.18295 1.176 1.15355 1.15365 1.13909 1.19178 1.19178 1.1741 1.14515 1.14971 1.15208 1.19178 1.17957 1.17191 1.1771 1.13562 1.16822 1.17908 1.19178 1.18723 1.17075 1.19235 1.17495 1.1883 1.19178 1.18517 1.19283 1.18057 1.17881 1.19423 1.18709 1.19148 1.1935 1.19382 1.18763 1.19045 1.18789 1.1925 1.17197 1.1881 1.19419 1.18619 1.18409 1.18553 1.18698 1.17273 1.17675 1.17465 1.19001 1.17529 1.17703 1.15791 1.15383 1.1655 1.17242 1.14514 1.14837 1.14592 1.15398 1.16607 1.18073 1.19277 1.17429 1.18886 1.19243 1.18405 1.1706 1.19186 1.19217 1.17213 1.18893 1.18003 1.19178 1.16517 1.18505 1.18582 1.17596 1.1825 1.17188 1.19165 1.17865 1.18549 1.18295 1.19303 1.18847 1.18752 1.19178 1.18918 
SCALARS Stress float 1
LOOKUP_TABLE default
-1.74439e+12 -739015000000.0 -12549700000.0 -17577000000.0 -15364400000.0 -20290000000.0 -15280700000.0 -27418800000.0 -18748300000.0 -15222200000.0 -18679800000.0 -54420500000.0 -22235700000.0 -41947600000.0 -69101200000.0 -62834100000.0 -34253000000.0 -23895400000.0 -28381100000.0 -121984000000.0 -145506000000.0 -785375000000.0 -1.31735e+12 -1.58842e+12 -765015000000.0 -470315000000.0 -928876000000.0 -1.7089e+12 -1.63634e+12 -508063000000.0 -298782000000.0 -76648400000.0 -28863400000.0 -211623000000.0 -12549700000.0 -91301300000.0 -12549700000.0 -12549700000.0 -16779300000.0 -12549700000.0 -12549700000.0 -14499200000.0 -22823900000.0 -12549700000.0 -12914300000.0 -13724600000.0 -17763200000.0 -20312300000.0 -31986700000.0 -17063500000.0 -15599400000.0 -14558500000.0 -13634200000.0 -12801600000.0 -12549700000.0 -12549700000.0 -12549700000.0 -14570600000.0 -25246900000.0 -12549700000.0 -16173400000.0 -37113600000.0 -31171800000.0 -25981900000.0 -38843500000.0 -14873800000.0 -29497800000.0 -12549700000.0 -17603800000.0 -30884600000.0 -13028100000.0 -21166700000.0 -36249300000.0 -12931800000.0 -13374500000.0 -17566200000.0 -57743700000.0 -32069900000.0 -27201000000.0 -33595400000.0 -18300200000.0 -18507200000.0 -18871400000.0 -27412500000.0 -20695000000.0 -13417200000.0 -21861000000.0 -14593100000.0 -14248700000.0 -17400800000.0 -26347200000.0 -24198600000.0 -12673500000.0 -13301300000.0 -14132900000.0 -14502000000.0 -14805000000.0 -15606600000.0 -16145800000.0 -17028100000.0 -33065200000.0 -34353500000.0 -31914200000.0 -41816100000.0 -32611700000.0 -69935000000.0 -130374000000.0 -69100900000.0 -71316500000.0 -38011200000.0 -28298300000.0 -62925000000.0 -143840000000.0 -80451300000.0 -12549700000.0 -12549700000.0 -36018600000.0 -111984000000.0 -15944100000.0 -85855500000.0 -104807000000.0 -37196700000.0 -45152300000.0 -222581000000.0 -249294000000.0 -409932000000.0 -448035000000.0 -689031000000.0 -718876000000.0 -1.6682e+12 -1.76933e+12 -1.55564e+12 -1.1352e+12 -1.06556e+12 -2.45185e+12 -3.06473e+12 -3.578e+12 -1.01168e+12 -1.31842e+12 -507219000000.0 -376238000000.0 -201663000000.0 -138182000000.0 -31150900000.0 -14443800000.0 -106877000000.0 -28017700000.0 -12549700000.0 -12574100000.0 -13849100000.0 -12549700000.0 -12649700000.0 -13008700000.0 -12549700000.0 -37688500000.0 -12549700000.0 -12549700000.0 -12549700000.0 -34371400000.0 -18286400000.0 -14219900000.0 -12549700000.0 -13181900000.0 -23125700000.0 -14534000000.0 -17086600000.0 -32532800000.0 -32501600000.0 -105333000000.0 -85636300000.0 -19291900000.0 -64001400000.0 -28406300000.0 -88233500000.0 -17861400000.0 -52894600000.0 -18737900000.0 -19994100000.0 -73336600000.0 -15420500000.0 -14023700000.0 -12748600000.0 -36980200000.0 -23754700000.0 -13156600000.0 -21183000000.0 -34237300000.0 -35558600000.0 -61820200000.0 -37646500000.0 -22474200000.0 -13751300000.0 -12549700000.0 -21744500000.0 -51378900000.0 -45002300000.0 -14216200000.0 -12549700000.0 -12587200000.0 -18167500000.0 -56882200000.0 -12549700000.0 -12549700000.0 -74946600000.0 -20899400000.0 -59736000000.0 -58378600000.0 -16225800000.0 -18658300000.0 -43119100000.0 -40068600000.0 -101435000000.0 -30513100000.0 -89348200000.0 -22739800000.0 -78569400000.0 -54866600000.0 -21762000000.0 -54951500000.0 -72501900000.0 -271070000000.0 -68089900000.0 -188513000000.0 -26137100000.0 -278639000000.0 -144692000000.0 -12549700000.0 -115894000000.0 -226487000000.0 -404280000000.0 -431842000000.0 -61130400000.0 -348612000000.0 -1.2513e+12 -1.12122e+12 -3.73672e+12 -2.47373e+12 -1.77893e+12 -1.54047e+12 -1.6501e+12 -1.74343e+12 -965203000000.0 -435680000000.0 -1.1417e+12 -1.4183e+12 -1.40919e+12 -1.11756e+12 -43302000000.0 -1.00724e+12 -490442000000.0 -135590000000.0 -330722000000.0 -194939000000.0 -176465000000.0 -141515000000.0 -104894000000.0 -12730500000.0 -97340200000.0 -41659600000.0 -34174100000.0 -12549700000.0 -12549700000.0 -53953900000.0 -12549700000.0 -14188500000.0 -20032500000.0 -14253700000.0 -27788000000.0 -46988800000.0 -29036600000.0 -21224900000.0 -13137600000.0 -27249000000.0 -16783600000.0 -32575500000.0 -23772700000.0 -63190200000.0 -90906000000.0 -104613000000.0 -60731400000.0 -98536200000.0 -100760000000.0 -168896000000.0 -25131200000.0 -22638700000.0 -12549700000.0 -136498000000.0 -20266600000.0 -84340900000.0 -20944100000.0 -14581500000.0 -21986600000.0 -15368600000.0 -52601600000.0 -30955200000.0 -47137200000.0 -50047600000.0 -91332900000.0 -79806900000.0 -16011000000.0 -15687800000.0 -67096800000.0 -48912500000.0 -112081000000.0 -68421100000.0 -75014800000.0 -63009300000.0 -26849200000.0 -53957300000.0 -33967200000.0 -56021900000.0 -115041000000.0 -49738400000.0 -89263600000.0 -110433000000.0 -207430000000.0 -229027000000.0 -388747000000.0 -66814500000.0 -312169000000.0 -114295000000.0 -243529000000.0 -279049000000.0 -84117600000.0 -74816600000.0 -184990000000.0 -250901000000.0 -166434000000.0 -344070000000.0 -76315800000.0 -41420000000.0 -664133000000.0 -63195900000.0 -1.27977e+12 -511747000000.0 -2.34662e+12 -2.32444e+12 -1.5254e+12 -1.13797e+12 -1.14266e+12 -925328000000.0 -620101000000.0 -283718000000.0 -713959000000.0 -499842000000.0 -821335000000.0 -374041000000.0 -304369000000.0 -400333000000.0 -38300500000.0 -65688900000.0 -100321000000.0 -55195500000.0 -59062700000.0 -30300000000.0 -21670600000.0 -25441900000.0 -81390600000.0 -22906200000.0 -61900400000.0 -50682900000.0 -26652100000.0 -23661700000.0 -14191700000.0 -22682500000.0 -46464600000.0 -75304900000.0 -12549700000.0 -33890400000.0 -31173000000.0 -36276600000.0 -15852700000.0 -33325300000.0 -31349300000.0 -79878400000.0 -68919500000.0 -84277800000.0 -58465300000.0 -70132000000.0 -125075000000.0 -126386000000.0 -105343000000.0 -53574900000.0 -89721800000.0 -131387000000.0 -102705000000.0 -94140600000.0 -140154000000.0 -178807000000.0 -31541600000.0 -336616000000.0 -69642900000.0 -15471800000.0 -63730700000.0 -71887300000.0 -15057500000.0 -73272900000.0 -127497000000.0 -28972100000.0 -80894100000.0 -86058900000.0 -39580600000.0 -36467400000.0 -143937000000.0 -12549700000.0 -12549700000.0 -12549700000.0 -33856900000.0 -44173500000.0 -20059000000.0 -42438900000.0 -31686200000.0 -36578800000.0 -19413400000.0 -60230200000.0 -195293000000.0 -191407000000.0 -186785000000.0 -139655000000.0 -120234000000.0 -313186000000.0 -269720000000.0 -208650000000.0 -273898000000.0 -364728000000.0 -178300000000.0 -278698000000.0 -412045000000.0 -126895000000.0 -90894000000.0 -240321000000.0 -217575000000.0 -191893000000.0 -33149200000.0 -190924000000.0 -202231000000.0 -13268300000.0 -585032000000.0 -752334000000.0 -699059000000.0 -500555000000.0 -927692000000.0 -1.53443e+12 -2.56814e+12 -1.65161e+12 -497970000000.0 -1.05762e+12 -1.05597e+12 -395375000000.0 -1.18556e+12 -2.48329e+12 -343803000000.0 -596499000000.0 -261234000000.0 -783860000000.0 -487697000000.0 -307883000000.0 -280605000000.0 -126196000000.0 -158370000000.0 -27861500000.0 -45221900000.0 -90067600000.0 -57724900000.0 -12549700000.0 -25393100000.0 -20445100000.0 -20896600000.0 -68542900000.0 -38924000000.0 -54585000000.0 -51597000000.0 -102970000000.0 -48247600000.0 -64029200000.0 -71638100000.0 -125604000000.0 -82413500000.0 -28010000000.0 -129103000000.0 -232213000000.0 -146926000000.0 -108835000000.0 -51319900000.0 -52352000000.0 -44243500000.0 -73073800000.0 -83196300000.0 -42536800000.0 -37102100000.0 -190782000000.0 -288493000000.0 -136513000000.0 -35430300000.0 -343196000000.0 -278056000000.0 -71928900000.0 -27580000000.0 -84008300000.0 -142116000000.0 -33177200000.0 -212668000000.0 -187584000000.0 -100314000000.0 -12960400000.0 -95187500000.0 -161218000000.0 -27690000000.0 -113720000000.0 -99933900000.0 -35359700000.0 -18155900000.0 -85799500000.0 -355934000000.0 -169945000000.0 -162732000000.0 -191126000000.0 -142295000000.0 -58552400000.0 -61133000000.0 -231423000000.0 -46244200000.0 -147956000000.0 -158744000000.0 -423040000000.0 -128060000000.0 -15334200000.0 -22613400000.0 -110587000000.0 -110324000000.0 -255915000000.0 -790154000000.0 -257029000000.0 -846804000000.0 -709133000000.0 -832768000000.0 -1.04727e+12 -470374000000.0 -1.27376e+12 -1.36054e+12 -90138900000.0 -1.07481e+12 -499065000000.0 -1.18565e+12 -927304000000.0 -646034000000.0 -716447000000.0 -108118000000.0 -432457000000.0 -390391000000.0 -422195000000.0 -104028000000.0 -143708000000.0 -49461800000.0 -45418100000.0 -38361700000.0 -31904300000.0 -188341000000.0 -131487000000.0 -14389900000.0 -97143600000.0 -18691300000.0 -73518600000.0 -38960400000.0 -86402600000.0 -91118300000.0 -117692000000.0 -120935000000.0 -192061000000.0 -129435000000.0 -14578900000.0 -101654000000.0 -118330000000.0 -93824400000.0 -98016900000.0 -156975000000.0 -67913100000.0 -177780000000.0 -92859700000.0 -143395000000.0 -118681000000.0 -198915000000.0 -80065300000.0 -21813400000.0 -65793800000.0 -24236200000.0 -99136500000.0 -29688800000.0 -95911400000.0 -14468700000.0 -98028100000.0 -99680000000.0 -104407000000.0 -327685000000.0 -314509000000.0 -19470900000.0 -456868000000.0 -268774000000.0 -197641000000.0 -154997000000.0 -222843000000.0 -173447000000.0 -156321000000.0 -194463000000.0 -125679000000.0 -83738800000.0 -166438000000.0 -187292000000.0 -12549700000.0 -23770400000.0 -167551000000.0 -162706000000.0 -51754000000.0 -212497000000.0 -154221000000.0 -291513000000.0 -83136100000.0 -261732000000.0 -145234000000.0 -483803000000.0 -142315000000.0 -252572000000.0 -234197000000.0 -472491000000.0 -87656200000.0 -64280500000.0 -156201000000.0 -86848000000.0 -211397000000.0 -30040600000.0 -227476000000.0 -502810000000.0 -534967000000.0 -560895000000.0 -232379000000.0 -235480000000.0 -890289000000.0 -819831000000.0 -238422000000.0 -1.00299e+12 -914639000000.0 -327051000000.0 -379125000000.0 -566672000000.0 -930835000000.0 -1.35093e+12 -505771000000.0 -606899000000.0 -168744000000.0 -621428000000.0 -269301000000.0 -493988000000.0 -55098600000.0 -99834700000.0 -217706000000.0 -211585000000.0 -84387200000.0 -159477000000.0 -49619500000.0 -56447900000.0 -102998000000.0 -207115000000.0 -12549700000.0 -138993000000.0 -126894000000.0 -111741000000.0 -147762000000.0 -35855700000.0 -58389700000.0 -205648000000.0 -312522000000.0 -167212000000.0 -227134000000.0 -134241000000.0 -111420000000.0 -112396000000.0 -117356000000.0 -100252000000.0 -22371700000.0 -34436200000.0 -125632000000.0 -132687000000.0 -71540200000.0 -98303900000.0 -158542000000.0 -17885300000.0 -66124800000.0 -141650000000.0 -86556300000.0 -132987000000.0 -111397000000.0 -207884000000.0 -166259000000.0 -145077000000.0 -18372100000.0 -123174000000.0 -191721000000.0 -147798000000.0 -104300000000.0 -76772600000.0 -86620900000.0 -38711800000.0 -114725000000.0 -81671100000.0 -235637000000.0 -165108000000.0 -144990000000.0 -24837500000.0 -235948000000.0 -132435000000.0 -100953000000.0 -488254000000.0 -318851000000.0 -350168000000.0 -394734000000.0 -393589000000.0 -56581900000.0 -159553000000.0 -277440000000.0 -192733000000.0 -528395000000.0 -329747000000.0 -176762000000.0 -393333000000.0 -198646000000.0 -374757000000.0 -251927000000.0 -535733000000.0 -42016300000.0 -545926000000.0 -396621000000.0 -93404100000.0 -161514000000.0 -181971000000.0 -30520800000.0 -407083000000.0 -583137000000.0 -616082000000.0 -673857000000.0 -1.07013e+12 -364912000000.0 -365155000000.0 -249223000000.0 -248505000000.0 -227420000000.0 -187602000000.0 -271074000000.0 -223172000000.0 -371519000000.0 -150609000000.0 -366528000000.0 -157853000000.0 -138624000000.0 -153490000000.0 -147060000000.0 -93628800000.0 -166687000000.0 -115614000000.0 -55657900000.0 -93884400000.0 -93839300000.0 -84478200000.0 -47159900000.0 -50850800000.0 -127139000000.0 -61513800000.0 -85121600000.0 -85095600000.0 -69825000000.0 -135297000000.0 -143378000000.0 -266584000000.0 -285867000000.0 -89076700000.0 -290042000000.0 -55660600000.0 -189048000000.0 -67790500000.0 -39343500000.0 -75120700000.0 -70112700000.0 -69597900000.0 -194072000000.0 -17396800000.0 -27829200000.0 -34648200000.0 -49242700000.0 -205641000000.0 -54258100000.0 -154265000000.0 -206501000000.0 -333118000000.0 -220073000000.0 -322468000000.0 -183387000000.0 -243254000000.0 -223850000000.0 -116176000000.0 -218411000000.0 -23786800000.0 -15357500000.0 -60330300000.0 -14830600000.0 -18756100000.0 -14724400000.0 -77527100000.0 -175853000000.0 -53381700000.0 -69434000000.0 -149336000000.0 -157632000000.0 -17267400000.0 -13714400000.0 -51217300000.0 -120046000000.0 -251252000000.0 -282901000000.0 -46481700000.0 -160022000000.0 -223516000000.0 -192817000000.0 -111097000000.0 -208208000000.0 -89110000000.0 -192472000000.0 -173524000000.0 -99948400000.0 -250338000000.0 -49383900000.0 -349101000000.0 -111252000000.0 -191307000000.0 -381768000000.0 -21727000000.0 -615076000000.0 -394629000000.0 -25605700000.0 -267908000000.0 -231175000000.0 -434166000000.0 -267480000000.0 -310965000000.0 -104673000000.0 -889225000000.0 -558843000000.0 -291015000000.0 -491319000000.0 -361837000000.0 -35570700000.0 -243791000000.0 -263028000000.0 -211441000000.0 -186798000000.0 -122027000000.0 -182768000000.0 -216817000000.0 -17114800000.0 -12964900000.0 -163941000000.0 -30923500000.0 -119706000000.0 -14859400000.0 -12921100000.0 -12549700000.0 -103133000000.0 -57838300000.0 -99609400000.0 -14551800000.0 -110005000000.0 -126689000000.0 -249519000000.0 -88839100000.0 -90264900000.0 -106598000000.0 -180580000000.0 -141062000000.0 -156880000000.0 -20352000000.0 -28144500000.0 -12636200000.0 -277543000000.0 -321841000000.0 -12964200000.0 -242234000000.0 -134831000000.0 -130883000000.0 -21697900000.0 -160985000000.0 -209145000000.0 -32018800000.0 -192844000000.0 -24412300000.0 -167606000000.0 -156440000000.0 -13751400000.0 -166476000000.0 -13199900000.0 -12549700000.0 -228704000000.0 -129037000000.0 -152918000000.0 -13058000000.0 -209274000000.0 -64377300000.0 -106237000000.0 -66462200000.0 -49366200000.0 -178297000000.0 -91855200000.0 -125086000000.0 -81577700000.0 -24466800000.0 -12549700000.0 -29237400000.0 -53155300000.0 -65165400000.0 -126972000000.0 -15909500000.0 -56728400000.0 -138276000000.0 -114554000000.0 -223501000000.0 -25450900000.0 -270201000000.0 -513705000000.0 -145457000000.0 -310067000000.0 -190009000000.0 -90223100000.0 -48713800000.0 -375212000000.0 -37136800000.0 -471612000000.0 -377053000000.0 -210958000000.0 -50475800000.0 -619025000000.0 -800257000000.0 -417040000000.0 -206013000000.0 -302161000000.0 -473660000000.0 -404932000000.0 -361733000000.0 -20702400000.0 -291680000000.0 -196344000000.0 -26331600000.0 -237190000000.0 -392941000000.0 -236979000000.0 -207380000000.0 -194426000000.0 -222293000000.0 -136957000000.0 -388652000000.0 -752096000000.0 -35948400000.0 -77155800000.0 -555997000000.0 -212415000000.0 -254806000000.0 -120835000000.0 -268470000000.0 -43525300000.0 -12549700000.0 -152449000000.0 -161934000000.0 -103128000000.0 -287625000000.0 -12549700000.0 -212374000000.0 -55029900000.0 -96056300000.0 -68432100000.0 -108133000000.0 -54151200000.0 -83569000000.0 -14634600000.0 -44305100000.0 -90019600000.0 -81428900000.0 -120897000000.0 -156782000000.0 -92032300000.0 -124278000000.0 -192993000000.0 -89269600000.0 -22053700000.0 -30569900000.0 -43629900000.0 -12549700000.0 -12549700000.0 -12915200000.0 -289587000000.0 -233992000000.0 -189825000000.0 -248191000000.0 -183282000000.0 -64865900000.0 -136857000000.0 -22388300000.0 -109541000000.0 -19901000000.0 -117743000000.0 -26833300000.0 -102801000000.0 -103964000000.0 -117976000000.0 -162824000000.0 -71717800000.0 -128700000000.0 -140543000000.0 -271251000000.0 -115285000000.0 -347578000000.0 -13500300000.0 -204286000000.0 -73591200000.0 -44469100000.0 -145420000000.0 -289090000000.0 -26369700000.0 -182719000000.0 -37217200000.0 -101497000000.0 -78636400000.0 -108432000000.0 -98535000000.0 -87177300000.0 -208300000000.0 -126248000000.0 -255240000000.0 -219456000000.0 -134544000000.0 -174795000000.0 -344362000000.0 -449653000000.0 -229645000000.0 -398044000000.0 -247124000000.0 -373541000000.0 -44207300000.0 -331773000000.0 -90713900000.0 -208611000000.0 -375314000000.0 -102357000000.0 -102984000000.0 -172586000000.0 -352234000000.0 -317093000000.0 -667081000000.0 -688095000000.0 -222735000000.0 -537340000000.0 -107089000000.0 -209834000000.0 -12550200000.0 -85503200000.0 -177295000000.0 -50850400000.0 -46627000000.0 -26812300000.0 -165591000000.0 -399942000000.0 -247649000000.0 -260865000000.0 -300589000000.0 -294425000000.0 -70075100000.0 -94987600000.0 -121920000000.0 -315865000000.0 -274172000000.0 -274306000000.0 -158852000000.0 -208415000000.0 -144228000000.0 -223856000000.0 -154134000000.0 -267721000000.0 -149975000000.0 -55553400000.0 -27451100000.0 -146569000000.0 -175735000000.0 -198130000000.0 -50770700000.0 -215878000000.0 -137207000000.0 -191052000000.0 -151666000000.0 -178341000000.0 -82257900000.0 -187905000000.0 -45665100000.0 -21578800000.0 -13466000000.0 -32544300000.0 -29588000000.0 -13789500000.0 -325030000000.0 -13708900000.0 -46261900000.0 -131035000000.0 -160546000000.0 -151417000000.0 -100020000000.0 -48414900000.0 -115812000000.0 -30162800000.0 -138301000000.0 -12549700000.0 -12549700000.0 -41263300000.0 -67374400000.0 -61381200000.0 -39259500000.0 -218134000000.0 -287726000000.0 -12775300000.0 -278166000000.0 -194213000000.0 -258924000000.0 -240030000000.0 -202968000000.0 -143376000000.0 -100968000000.0 -141336000000.0 -75579100000.0 -149383000000.0 -171109000000.0 -192976000000.0 -62229400000.0 -13293700000.0 -311092000000.0 -112395000000.0 -150243000000.0 -295672000000.0 -12549700000.0 -64498300000.0 -109906000000.0 -267597000000.0 -217800000000.0 -171244000000.0 -188229000000.0 -356677000000.0 -141253000000.0 -267444000000.0 -109702000000.0 -350673000000.0 -128057000000.0 -170511000000.0 -176620000000.0 -176168000000.0 -34073800000.0 -407311000000.0 -27160100000.0 -73513100000.0 -117879000000.0 -203212000000.0 -228571000000.0 -101709000000.0 -95038600000.0 -77686700000.0 -279739000000.0 -140828000000.0 -259481000000.0 -298258000000.0 -263398000000.0 -231623000000.0 -249716000000.0 -129923000000.0 -109886000000.0 -18785700000.0 -312585000000.0 -276788000000.0 -135348000000.0 -70622100000.0 -69920900000.0 -219605000000.0 -65970400000.0 -173229000000.0 -74272400000.0 -180091000000.0 -169218000000.0 -162337000000.0 -129918000000.0 -195905000000.0 -261659000000.0 -90657500000.0 -232537000000.0 -311880000000.0 -292379000000.0 -305590000000.0 -156133000000.0 -204616000000.0 -207464000000.0 -186821000000.0 -193329000000.0 -288784000000.0 -153440000000.0 -92343000000.0 -167496000000.0 -106796000000.0 -234599000000.0 -33728800000.0 -106079000000.0 -71649800000.0 -68120500000.0 -61754200000.0 -80847000000.0 -86044000000.0 -89322800000.0 -141955000000.0 -113573000000.0 -194469000000.0 -93066300000.0 -132689000000.0 -13099300000.0 -15208300000.0 -115270000000.0 -415350000000.0 -208045000000.0 -202912000000.0 -466327000000.0 -30673300000.0 -193133000000.0 -134882000000.0 -149772000000.0 -60160700000.0 -140729000000.0 -86757000000.0 -14885900000.0 -18157700000.0 -224180000000.0 -170117000000.0 -152720000000.0 -24387600000.0 -67949100000.0 -142484000000.0 -292832000000.0 -288581000000.0 -107033000000.0 -284072000000.0 -54255100000.0 -88886700000.0 -252606000000.0 -160064000000.0 -115308000000.0 -202546000000.0 -27855600000.0 -107725000000.0 -203943000000.0 -234678000000.0 -228753000000.0 -395715000000.0 -48636000000.0 -408136000000.0 -203136000000.0 -316617000000.0 -329099000000.0 -355710000000.0 -96559000000.0 -160502000000.0 -47468500000.0 -161830000000.0 -167414000000.0 -36451100000.0 -17095500000.0 -24207100000.0 -220796000000.0 -168692000000.0 -232033000000.0 -184811000000.0 -102898000000.0 -53804600000.0 -265225000000.0 -397440000000.0 -252177000000.0 -191492000000.0 -96757800000.0 -84141100000.0 -89119700000.0 -70398200000.0 -100088000000.0 -115838000000.0 -74727800000.0 -126426000000.0 -43691800000.0 -121830000000.0 -63463700000.0 -54444200000.0 -42028700000.0 -182420000000.0 -17707500000.0 -124736000000.0 -139397000000.0 -434817000000.0 -181156000000.0 -188362000000.0 -443349000000.0 -110329000000.0 -108132000000.0 -305224000000.0 -113626000000.0 -384756000000.0 -247243000000.0 -117650000000.0 -229218000000.0 -188257000000.0 -24022400000.0 -114297000000.0 -137225000000.0 -41741400000.0 -186652000000.0 -55988000000.0 -78709300000.0 -26439100000.0 -18175100000.0 -20906000000.0 -47482900000.0 -56888600000.0 -125795000000.0 -79430800000.0 -24251900000.0 -137851000000.0 -57566300000.0 -66935000000.0 -126825000000.0 -217320000000.0 -246384000000.0 -191663000000.0 -349093000000.0 -118026000000.0 -78295500000.0 -68325000000.0 -12549700000.0 -12549700000.0 -111186000000.0 -17417800000.0 -108520000000.0 -213406000000.0 -117323000000.0 -71380700000.0 -218402000000.0 -31147400000.0 -108766000000.0 -21665300000.0 -39198600000.0 -161072000000.0 -194957000000.0 -67407500000.0 -103763000000.0 -39011100000.0 -88779200000.0 -161502000000.0 -16337000000.0 -49392400000.0 -13323600000.0 -277899000000.0 -200736000000.0 -404030000000.0 -82904400000.0 -700007000000.0 -188668000000.0 -371667000000.0 -389737000000.0 -331836000000.0 -402594000000.0 -69669800000.0 -86049800000.0 -91136600000.0 -206678000000.0 -22869500000.0 -385908000000.0 -141622000000.0 -79624200000.0 -28019300000.0 -57873800000.0 -67518400000.0 -20140600000.0 -53621800000.0 -340965000000.0 -108224000000.0 -247669000000.0 -19104400000.0 -80390900000.0 -19817500000.0 -200961000000.0 -146012000000.0 -12549700000.0 -39306100000.0 -71523400000.0 -17254300000.0 -59524000000.0 -45561600000.0 -15589400000.0 -126411000000.0 -141281000000.0 -12548800000.0 -360623000000.0 -379190000000.0 -104289000000.0 -49039900000.0 -30814600000.0 -27406800000.0 -33134300000.0 -53069300000.0 -232479000000.0 -257769000000.0 -257226000000.0 -407525000000.0 -109292000000.0 -88825300000.0 -186553000000.0 -26355200000.0 -114082000000.0 -71388900000.0 -68648400000.0 -83851400000.0 -132671000000.0 -137447000000.0 -150591000000.0 -22557400000.0 -220901000000.0 -176786000000.0 -172199000000.0 -13756800000.0 -151077000000.0 -142136000000.0 -213624000000.0 -200758000000.0 -68749800000.0 -300709000000.0 -461708000000.0 -103803000000.0 -52612300000.0 -44024800000.0 -49187800000.0 -38159400000.0 -27876900000.0 -42939400000.0 -41041200000.0 -26846200000.0 -142376000000.0 -83874900000.0 -34509900000.0 -91763300000.0 -91811500000.0 -37250300000.0 -97405600000.0 -160991000000.0 -146747000000.0 -67643200000.0 -19382300000.0 -182945000000.0 -14635600000.0 -169731000000.0 -175900000000.0 -19942700000.0 -188678000000.0 -178742000000.0 -185471000000.0 -286608000000.0 -364454000000.0 -174599000000.0 -225806000000.0 -322663000000.0 -314931000000.0 -416523000000.0 -444721000000.0 -246565000000.0 -69485300000.0 -175026000000.0 -216602000000.0 -322693000000.0 -328413000000.0 -213631000000.0 -364918000000.0 -467836000000.0 -50769700000.0 -40128500000.0 -16551800000.0 -50171800000.0 -14678400000.0 -187205000000.0 -181136000000.0 -165346000000.0 -138818000000.0 -218071000000.0 -220244000000.0 -156467000000.0 -175466000000.0 -190663000000.0 -177047000000.0 -223491000000.0 -280695000000.0 -240417000000.0 -167177000000.0 -128822000000.0 -111144000000.0 -358875000000.0 -22591200000.0 -13182300000.0 -12549700000.0 -30792400000.0 -37960400000.0 -33898100000.0 -26883800000.0 -113734000000.0 -158929000000.0 -168034000000.0 -537714000000.0 -13050600000.0 -322462000000.0 -162040000000.0 -175106000000.0 -150573000000.0 -17356000000.0 -12549600000.0 -106332000000.0 -51367600000.0 -33460100000.0 -12549700000.0 -80437600000.0 -72020900000.0 -43487600000.0 -278769000000.0 -54805600000.0 -39707000000.0 -16202500000.0 -12549700000.0 -256931000000.0 -143615000000.0 -407744000000.0 -81288000000.0 -170837000000.0 -244034000000.0 -234330000000.0 -268882000000.0 -269487000000.0 -92090400000.0 -56227300000.0 -108005000000.0 -51943300000.0 -60725100000.0 -65919400000.0 -116329000000.0 -191326000000.0 -12549700000.0 -19471800000.0 -82707900000.0 -138686000000.0 -135292000000.0 -12549700000.0 -61839800000.0 -106371000000.0 -110204000000.0 -154925000000.0 -91261600000.0 -115641000000.0 -57961600000.0 -149437000000.0 -136158000000.0 -182910000000.0 -261571000000.0 -101423000000.0 -206600000000.0 -143436000000.0 -274160000000.0 -77698000000.0 -202567000000.0 -66870900000.0 -96388600000.0 -68806500000.0 -118795000000.0 -166133000000.0 -104119000000.0 -195707000000.0 -25990000000.0 -214434000000.0 -350844000000.0 -170599000000.0 -296024000000.0 -92224300000.0 -56912100000.0 -25616900000.0 -30320400000.0 -25025100000.0 -13368800000.0 -12655700000.0 -99720800000.0 -259482000000.0 -44240000000.0 -45700900000.0 -80632500000.0 -38733500000.0 -81222500000.0 -25988800000.0 -57111100000.0 -54672300000.0 -103767000000.0 -90376900000.0 -36479400000.0 -14197200000.0 -139536000000.0 -231662000000.0 -227516000000.0 -240018000000.0 -249042000000.0 -300317000000.0 -202490000000.0 -139476000000.0 -69002900000.0 -59910300000.0 -48736500000.0 -236984000000.0 -50127500000.0 -85149100000.0 -184298000000.0 -83166100000.0 -74312300000.0 -36861100000.0 -72788200000.0 -135538000000.0 -77453800000.0 -71957700000.0 -253810000000.0 -122350000000.0 -84408700000.0 -82083400000.0 -141663000000.0 -108935000000.0 -141649000000.0 -516653000000.0 -422508000000.0 -465682000000.0 -456932000000.0 -201218000000.0 -167744000000.0 -223986000000.0 -153819000000.0 -155851000000.0 -258742000000.0 -130192000000.0 -234928000000.0 -194202000000.0 -164227000000.0 -290279000000.0 -214365000000.0 -134182000000.0 -142343000000.0 -184311000000.0 -89915300000.0 -62813800000.0 -191363000000.0 -190780000000.0 -197096000000.0 -12549700000.0 -136560000000.0 -23690800000.0 -26358700000.0 -99584800000.0 -280241000000.0 -143032000000.0 -58238000000.0 -151916000000.0 -146308000000.0 -215188000000.0 -12549700000.0 -429634000000.0 -13266300000.0 -169010000000.0 -180710000000.0 -218165000000.0 -268332000000.0 -249057000000.0 -161450000000.0 -219305000000.0 -228581000000.0 -447447000000.0 -12549700000.0 -221231000000.0 -34255000000.0 -23291000000.0 -20530300000.0 -13816000000.0 -24793800000.0 -14782200000.0 -23516500000.0 -72144700000.0 -185902000000.0 -107929000000.0 -118804000000.0 -54241100000.0 -186796000000.0 -36784400000.0 -28064300000.0 -64059300000.0 -28575300000.0 -33907600000.0 -77431100000.0 -213346000000.0 -130352000000.0 -218915000000.0 -154490000000.0 -18903900000.0 -16126600000.0 -12549700000.0 -12549700000.0 -13737500000.0 -267605000000.0 -165356000000.0 -49841100000.0 -146058000000.0 -130704000000.0 -204871000000.0 -15064000000.0 -70328900000.0 -56521600000.0 -145099000000.0 -24013700000.0 -13489300000.0 -100434000000.0 -83430400000.0 -93012200000.0 -12549700000.0 -102863000000.0 -23894200000.0 -244629000000.0 -151863000000.0 -226857000000.0 -304968000000.0 -322429000000.0 -315759000000.0 -461714000000.0 -534003000000.0 -318267000000.0 -173401000000.0 -703749000000.0 -81535100000.0 -286712000000.0 -238305000000.0 -270027000000.0 -203457000000.0 -73503000000.0 -227215000000.0 -40692300000.0 -77435300000.0 -17319700000.0 -236062000000.0 -88002600000.0 -211520000000.0 -241423000000.0 -144753000000.0 -149702000000.0 -28403400000.0 -96392300000.0 -12549700000.0 -16134200000.0 -23557800000.0 -43757500000.0 -222726000000.0 -156666000000.0 -88831200000.0 -194778000000.0 -28321700000.0 -129900000000.0 -239183000000.0 -155662000000.0 -174390000000.0 -100670000000.0 -12549700000.0 -15836300000.0 -120064000000.0 -12549700000.0 -324860000000.0 -228932000000.0 -106390000000.0 -403832000000.0 -268637000000.0 -16406400000.0 -17196200000.0 -17408600000.0 -30078900000.0 -22395300000.0 -26361100000.0 -68089000000.0 -68363100000.0 -98207800000.0 -13092500000.0 -89249300000.0 -123640000000.0 -82404000000.0 -74882400000.0 -49688500000.0 -71362900000.0 -49073600000.0 -78507400000.0 -186520000000.0 -45232400000.0 -128202000000.0 -24141400000.0 -156713000000.0 -38722600000.0 -17127400000.0 -89639700000.0 -19241600000.0 -18491500000.0 -18152500000.0 -12549700000.0 -12549700000.0 -186076000000.0 -84469200000.0 -53392800000.0 -17631600000.0 -303612000000.0 -162071000000.0 -308541000000.0 -133877000000.0 -120210000000.0 -108311000000.0 -123741000000.0 -60114700000.0 -106164000000.0 -30215700000.0 -61426800000.0 -58458700000.0 -159643000000.0 -88761300000.0 -219169000000.0 -88302300000.0 -12948400000.0 -103495000000.0 -141917000000.0 -128442000000.0 -191548000000.0 -139217000000.0 -335175000000.0 -177595000000.0 -195555000000.0 -261651000000.0 -406457000000.0 -335085000000.0 -153745000000.0 -203877000000.0 -438838000000.0 -425916000000.0 -254075000000.0 -343534000000.0 -277857000000.0 -203268000000.0 -272248000000.0 -54294100000.0 -46856800000.0 -119855000000.0 -99725500000.0 -61283400000.0 -119494000000.0 -82724600000.0 -62642500000.0 -12915200000.0 -106876000000.0 -49867200000.0 -54428600000.0 -90288900000.0 -139127000000.0 -228821000000.0 -18057200000.0 -117804000000.0 -15978500000.0 -184398000000.0 -220680000000.0 -157031000000.0 -112952000000.0 -47856900000.0 -129433000000.0 -158233000000.0 -184881000000.0 -261285000000.0 -293514000000.0 -224430000000.0 -357289000000.0 -201794000000.0 -180949000000.0 -192491000000.0 -15253900000.0 -13808000000.0 -24237400000.0 -29294500000.0 -12549700000.0 -53873200000.0 -34786600000.0 -46441300000.0 -19612900000.0 -40233700000.0 -108241000000.0 -14053400000.0 -25992000000.0 -66662700000.0 -55795100000.0 -15020600000.0 -24938300000.0 -13248000000.0 -39694700000.0 -140020000000.0 -33645300000.0 -17609500000.0 -33283200000.0 -34799100000.0 -13700200000.0 -26540100000.0 -23570000000.0 -42100100000.0 -13129000000.0 -20686700000.0 -13174700000.0 -23192800000.0 -65658400000.0 -144257000000.0 -257960000000.0 -201679000000.0 -200555000000.0 -284536000000.0 -152387000000.0 -145784000000.0 -71346900000.0 -12549700000.0 -213223000000.0 -187055000000.0 -130876000000.0 -125865000000.0 -120080000000.0 -94689900000.0 -68871700000.0 -110999000000.0 -95128200000.0 -198881000000.0 -174927000000.0 -88613200000.0 -13727500000.0 -180580000000.0 -24124300000.0 -97783000000.0 -220816000000.0 -229484000000.0 -275624000000.0 -105951000000.0 -55832000000.0 -350948000000.0 -300279000000.0 -355826000000.0 -445467000000.0 -94052400000.0 -38707300000.0 -17478200000.0 -166015000000.0 -271290000000.0 -66389800000.0 -78309000000.0 -63889400000.0 -133757000000.0 -98656900000.0 -81051800000.0 -116716000000.0 -127206000000.0 -105324000000.0 -13563400000.0 -89435800000.0 -37660800000.0 -70704500000.0 -38786100000.0 -68260700000.0 -14744900000.0 -77559900000.0 -49802300000.0 -103985000000.0 -40817800000.0 -165991000000.0 -92343600000.0 -123505000000.0 -21254600000.0 -35125100000.0 -57698200000.0 -165909000000.0 -57774400000.0 -440875000000.0 -34990900000.0 -79802200000.0 -649341000000.0 -253895000000.0 -81116800000.0 -176759000000.0 -186128000000.0 -203759000000.0 -186161000000.0 -148392000000.0 -116568000000.0 -66058100000.0 -22385600000.0 -92948100000.0 -71538500000.0 -95668700000.0 -52648500000.0 -83340800000.0 -82577200000.0 -75093100000.0 -97475500000.0 -76882900000.0 -28728000000.0 -12549700000.0 -15076600000.0 -34441600000.0 -21354700000.0 -20604200000.0 -17073200000.0 -27708600000.0 -21152000000.0 -18575800000.0 -25181700000.0 -26415300000.0 -37987400000.0 -340082000000.0 -16093300000.0 -33016400000.0 -88129500000.0 -344022000000.0 -95953700000.0 -182280000000.0 -214835000000.0 -86062600000.0 -46584500000.0 -145051000000.0 -143562000000.0 -278918000000.0 -154154000000.0 -228007000000.0 -154023000000.0 -353546000000.0 -234954000000.0 -215807000000.0 -40789600000.0 -130056000000.0 -268927000000.0 -589779000000.0 -417227000000.0 -234921000000.0 -399768000000.0 -265391000000.0 -244407000000.0 -622489000000.0 -88364000000.0 -218093000000.0 -63869300000.0 -309427000000.0 -191062000000.0 -17554200000.0 -80918000000.0 -241057000000.0 -229437000000.0 -47422900000.0 -23970400000.0 -69596000000.0 -139028000000.0 -62490400000.0 -141537000000.0 -16740800000.0 -13428900000.0 -126834000000.0 -68030600000.0 -13547600000.0 -96947900000.0 -14411500000.0 -72447800000.0 -115998000000.0 -38094600000.0 -12549700000.0 -98681000000.0 -135840000000.0 -14267100000.0 -113921000000.0 -144018000000.0 -92204300000.0 -77237000000.0 -62465400000.0 -122620000000.0 -58432800000.0 -86889500000.0 -440893000000.0 -79565100000.0 -112920000000.0 -491197000000.0 -275294000000.0 -182695000000.0 -35320700000.0 -19440000000.0 -16880900000.0 -108929000000.0 -80368600000.0 -51604400000.0 -50187100000.0 -87884100000.0 -54498100000.0 -69316300000.0 -65381200000.0 -106464000000.0 -69533300000.0 -82233300000.0 -97484300000.0 -97307100000.0 -122577000000.0 -133021000000.0 -57618100000.0 -35636600000.0 -29872300000.0 -74125800000.0 -51383400000.0 -48946700000.0 -45855300000.0 -60459700000.0 -17209900000.0 -38814000000.0 -20803300000.0 -40696100000.0 -382021000000.0 -56386700000.0 -105521000000.0 -147948000000.0 -226680000000.0 -133472000000.0 -37753900000.0 -235137000000.0 -240487000000.0 -211336000000.0 -135350000000.0 -237560000000.0 -242009000000.0 -178383000000.0 -134717000000.0 -135516000000.0 -328449000000.0 -18250300000.0 -183183000000.0 -151879000000.0 -144045000000.0 -54870700000.0 -203019000000.0 -12549700000.0 -418838000000.0 -119178000000.0 -383411000000.0 -25500900000.0 -476924000000.0 -232852000000.0 -293838000000.0 -155721000000.0 -187773000000.0 -293132000000.0 -307395000000.0 -412674000000.0 -317663000000.0 -85027400000.0 -63916000000.0 -108664000000.0 -198747000000.0 -127066000000.0 -154884000000.0 -40532000000.0 -19825000000.0 -98355000000.0 -101871000000.0 -47865100000.0 -119950000000.0 -32660700000.0 -58237100000.0 -35038900000.0 -78378700000.0 -50000500000.0 -67263100000.0 -105026000000.0 -226547000000.0 -53814700000.0 -54493900000.0 -299937000000.0 -46113100000.0 -26320300000.0 -134444000000.0 -71894600000.0 -141510000000.0 -303037000000.0 -239804000000.0 -12549700000.0 -181697000000.0 -446527000000.0 -154854000000.0 -143549000000.0 -64757600000.0 -84848800000.0 -127838000000.0 -37036000000.0 -27469800000.0 -31844300000.0 -37723400000.0 -13237100000.0 -12549700000.0 -12549700000.0 -53980700000.0 -14134600000.0 -15043700000.0 -30570100000.0 -14795700000.0 -12586000000.0 -39752300000.0 -151534000000.0 -107559000000.0 -92684100000.0 -130990000000.0 -13453700000.0 -14117200000.0 -29605500000.0 -109350000000.0 -146527000000.0 -233332000000.0 -230043000000.0 -345808000000.0 -208445000000.0 -60780300000.0 -113404000000.0 -157875000000.0 -337149000000.0 -244485000000.0 -293035000000.0 -425179000000.0 -28153300000.0 -65512900000.0 -62186000000.0 -159319000000.0 -12549700000.0 -215876000000.0 -30598400000.0 -107478000000.0 -318055000000.0 -138855000000.0 -332700000000.0 -361528000000.0 -336439000000.0 -182141000000.0 -145293000000.0 -465130000000.0 -136316000000.0 -152461000000.0 -442159000000.0 -174171000000.0 -451533000000.0 -112065000000.0 -148245000000.0 -35819700000.0 -109373000000.0 -241345000000.0 -21786200000.0 -12549700000.0 -294656000000.0 -315110000000.0 -101005000000.0 -111359000000.0 -170440000000.0 -442002000000.0 -290269000000.0 -308893000000.0 -215199000000.0 -119638000000.0 -222651000000.0 -34379300000.0 -12549700000.0 -105630000000.0 -13524400000.0 -27891600000.0 -15971100000.0 -32179500000.0 -46999000000.0 -84179900000.0 -215017000000.0 -22100200000.0 -29330400000.0 -376009000000.0 -176193000000.0 -147265000000.0 -219175000000.0 -19619900000.0 -184861000000.0 -362666000000.0 -12549700000.0 -408346000000.0 -338181000000.0 -196530000000.0 -211340000000.0 -26631800000.0 -25178500000.0 -62755400000.0 -40142500000.0 -20951100000.0 -19563200000.0 -21817100000.0 -41692100000.0 -35341600000.0 -15449600000.0 -13303300000.0 -12549700000.0 -48744300000.0 -13060700000.0 -22821600000.0 -45222200000.0 -14507600000.0 -23799600000.0 -48308900000.0 -82281400000.0 -20077900000.0 -16974300000.0 -44653000000.0 -146791000000.0 -107465000000.0 -165715000000.0 -81697000000.0 -115625000000.0 -16450200000.0 -12902800000.0 -420544000000.0 -291568000000.0 -235889000000.0 -380519000000.0 -363830000000.0 -517526000000.0 -205256000000.0 -180197000000.0 -354932000000.0 -343984000000.0 -359736000000.0 -30051300000.0 -444084000000.0 -205762000000.0 -265776000000.0 -340293000000.0 -355841000000.0 -553013000000.0 -337892000000.0 -358069000000.0 -297212000000.0 -311402000000.0 -423226000000.0 -352672000000.0 -320150000000.0 -302221000000.0 -232574000000.0 -408341000000.0 -126066000000.0 -109817000000.0 -299713000000.0 -98443100000.0 -140394000000.0 -195493000000.0 -73666700000.0 -257495000000.0 -220359000000.0 -265964000000.0 -246434000000.0 -132939000000.0 -210703000000.0 -243398000000.0 -182323000000.0 -299275000000.0 -120933000000.0 -193485000000.0 -112813000000.0 -88019500000.0 -75173400000.0 -67724800000.0 -130613000000.0 -40222600000.0 -54924900000.0 -415005000000.0 -13791200000.0 -185113000000.0 -94860800000.0 -498725000000.0 -196656000000.0 -637472000000.0 -378818000000.0 -388779000000.0 -355298000000.0 -13923800000.0 -20769500000.0 -13922800000.0 -17038600000.0 -19362700000.0 -43916000000.0 -49886300000.0 -23762900000.0 -12549700000.0 -12549700000.0 -12549700000.0 -50770800000.0 -14552100000.0 -38447600000.0 -42984500000.0 -14731300000.0 -36994400000.0 -61168000000.0 -141323000000.0 -61223300000.0 -68978800000.0 -94769000000.0 -85273700000.0 -45777400000.0 -47393800000.0 -55390000000.0 -115172000000.0 -184460000000.0 -430762000000.0 -206654000000.0 -197422000000.0 -189794000000.0 -407097000000.0 -292015000000.0 -201077000000.0 -251184000000.0 -12549700000.0 -192578000000.0 -631125000000.0 -284105000000.0 -496965000000.0 -386607000000.0 -323781000000.0 -303795000000.0 -406318000000.0 -572227000000.0 -12549600000.0 -568897000000.0 -208252000000.0 -111954000000.0 -499709000000.0 -320793000000.0 -411867000000.0 -482038000000.0 -195850000000.0 -211734000000.0 -206585000000.0 -353592000000.0 -239738000000.0 -141156000000.0 -107925000000.0 -264342000000.0 -13000000000.0 -159309000000.0 -194962000000.0 -21700900000.0 -189627000000.0 -36737800000.0 -135530000000.0 -196982000000.0 -76738300000.0 -92340700000.0 -87740100000.0 -174705000000.0 -129105000000.0 -301034000000.0 -292611000000.0 -215100000000.0 -167614000000.0 -209691000000.0 -261666000000.0 -132190000000.0 -155636000000.0 -207276000000.0 -202259000000.0 -299467000000.0 -349839000000.0 -381133000000.0 -178896000000.0 -286082000000.0 -207652000000.0 -322130000000.0 -56822900000.0 -288236000000.0 -263502000000.0 -351897000000.0 -164705000000.0 -243058000000.0 -147270000000.0 -165143000000.0 -19056100000.0 -15367500000.0 -50275200000.0 -14952800000.0 -32470200000.0 -77035100000.0 -43681300000.0 -22221700000.0 -15689900000.0 -13557300000.0 -12549700000.0 -55995500000.0 -24549100000.0 -48052900000.0 -18738700000.0 -70988200000.0 -12549700000.0 -34623200000.0 -12549700000.0 -12549700000.0 -44281100000.0 -13667600000.0 -98337300000.0 -58519900000.0 -33315900000.0 -19456600000.0 -51294000000.0 -73405900000.0 -246541000000.0 -138903000000.0 -126252000000.0 -110783000000.0 -92528300000.0 -240589000000.0 -348605000000.0 -605190000000.0 -26242900000.0 -50442600000.0 -322471000000.0 -17984800000.0 -148441000000.0 -155468000000.0 -186800000000.0 -41101100000.0 -236045000000.0 -167685000000.0 -253567000000.0 -118217000000.0 -329787000000.0 -288276000000.0 -383476000000.0 -437160000000.0 -388182000000.0 -141257000000.0 -289488000000.0 -297983000000.0 -670760000000.0 -333436000000.0 -271395000000.0 -127264000000.0 -192032000000.0 -17598200000.0 -113090000000.0 -116683000000.0 -288260000000.0 -191930000000.0 -28999800000.0 -139462000000.0 -12549700000.0 -227845000000.0 -54861900000.0 -145921000000.0 -241205000000.0 -97561400000.0 -62083300000.0 -159042000000.0 -397116000000.0 -220739000000.0 -135796000000.0 -173327000000.0 -82921400000.0 -221357000000.0 -211244000000.0 -37712600000.0 -39460600000.0 -411792000000.0 -294416000000.0 -125327000000.0 -173233000000.0 -212112000000.0 -162352000000.0 -141802000000.0 -158434000000.0 -188351000000.0 -237010000000.0 -152879000000.0 -152745000000.0 -170281000000.0 -179471000000.0 -118162000000.0 -174127000000.0 -14710700000.0 -12549700000.0 -43199100000.0 -27118600000.0 -32834400000.0 -60820900000.0 -117091000000.0 -35820000000.0 -17963100000.0 -14172800000.0 -15246200000.0 -22462400000.0 -59576800000.0 -28554900000.0 -55606000000.0 -13796800000.0 -103063000000.0 -14334400000.0 -110213000000.0 -36529800000.0 -135343000000.0 -12549700000.0 -26586700000.0 -12549700000.0 -108031000000.0 -105938000000.0 -68564000000.0 -41662000000.0 -211692000000.0 -342664000000.0 -288152000000.0 -234076000000.0 -242278000000.0 -20535600000.0 -18089600000.0 -350179000000.0 -325187000000.0 -145460000000.0 -271823000000.0 -397408000000.0 -427023000000.0 -251393000000.0 -277080000000.0 -316575000000.0 -228146000000.0 -92289200000.0 -331503000000.0 -181316000000.0 -393091000000.0 -171592000000.0 -321342000000.0 -415693000000.0 -277847000000.0 -139019000000.0 -12549700000.0 -449192000000.0 -321652000000.0 -174814000000.0 -84519200000.0 -16836700000.0 -128534000000.0 -286614000000.0 -183692000000.0 -119159000000.0 -244515000000.0 -127873000000.0 -63790400000.0 -214209000000.0 -343584000000.0 -184285000000.0 -194128000000.0 -327547000000.0 -144801000000.0 -158664000000.0 -218685000000.0 -305669000000.0 -300390000000.0 -64535800000.0 -114762000000.0 -49561500000.0 -40966300000.0 -177272000000.0 -229691000000.0 -201521000000.0 -98937300000.0 -94705300000.0 -223138000000.0 -255434000000.0 -196931000000.0 -165441000000.0 -425155000000.0 -429163000000.0 -260378000000.0 -348541000000.0 -523504000000.0 -641322000000.0 -534609000000.0 -361872000000.0 -386810000000.0 -557838000000.0 -440136000000.0 -233103000000.0 -44110000000.0 -68652100000.0 -97045600000.0 -77808400000.0 -86801100000.0 -112868000000.0 -266136000000.0 -111527000000.0 -75994700000.0 -75856800000.0 -83545500000.0 -65048400000.0 -88892800000.0 -85775800000.0 -67344400000.0 -150757000000.0 -159576000000.0 -146487000000.0 -150935000000.0 -77614500000.0 -108112000000.0 -89130300000.0 -102441000000.0 -160689000000.0 -265087000000.0 -160083000000.0 -185552000000.0 -205965000000.0 -37249800000.0 -347710000000.0 -43707600000.0 -114595000000.0 -175735000000.0 -60335200000.0 -82997400000.0 -16535500000.0 -111982000000.0 -315899000000.0 -300973000000.0 -155694000000.0 -370189000000.0 -270441000000.0 -309882000000.0 -93710300000.0 -397167000000.0 -214642000000.0 -457576000000.0 -312702000000.0 -342542000000.0 -197258000000.0 -74502300000.0 -481461000000.0 -299375000000.0 -164654000000.0 -29200600000.0 -226070000000.0 -72902400000.0 -87321200000.0 -21695900000.0 -95441800000.0 -46377200000.0 -205205000000.0 -188748000000.0 -137880000000.0 -164477000000.0 -51517500000.0 -14415900000.0 -148938000000.0 -70506000000.0 -30572000000.0 -135873000000.0 -308365000000.0 -297652000000.0 -119036000000.0 -141413000000.0 -307408000000.0 -39449900000.0 -51795500000.0 -33884100000.0 -256288000000.0 -287800000000.0 -108777000000.0 -273216000000.0 -267255000000.0 -368706000000.0 -366797000000.0 -496742000000.0 -368246000000.0 -120447000000.0 -219955000000.0 -96065400000.0 -276059000000.0 -25073900000.0 -14907700000.0 -124078000000.0 -360459000000.0 -20314700000.0 -496642000000.0 -409673000000.0 -267666000000.0 -774360000000.0 -384239000000.0 -16127100000.0 -36346000000.0 -19428700000.0 -29558500000.0 -12886500000.0 -226922000000.0 -66390200000.0 -34674800000.0 -31828500000.0 -48592800000.0 -12549700000.0 -12549700000.0 -83449600000.0 -105417000000.0 -71463600000.0 -141001000000.0 -295549000000.0 -150334000000.0 -70730300000.0 -89377500000.0 -24010600000.0 -77435700000.0 -269294000000.0 -29495000000.0 -99553400000.0 -12439500000.0 -35133400000.0 -49493800000.0 -338870000000.0 -127563000000.0 -15243700000.0 -139065000000.0 -45103500000.0 -48786500000.0 -183960000000.0 -188690000000.0 -20981700000.0 -17635200000.0 -134772000000.0 -521276000000.0 -267690000000.0 -307195000000.0 -379837000000.0 -181589000000.0 -287153000000.0 -123453000000.0 -206357000000.0 -13014800000.0 -347974000000.0 -220638000000.0 -46663300000.0 -473658000000.0 -320562000000.0 -196788000000.0 -158708000000.0 -525363000000.0 -18420000000.0 -214820000000.0 -267184000000.0 -319432000000.0 -81113000000.0 -102434000000.0 -71655300000.0 -66298500000.0 -210267000000.0 -130190000000.0 -40185200000.0 -32065500000.0 -52038300000.0 -145591000000.0 -41207700000.0 -20426600000.0 -116694000000.0 -429468000000.0 -496928000000.0 -267865000000.0 -313249000000.0 -262447000000.0 -412485000000.0 -279582000000.0 -268875000000.0 -204793000000.0 -77669000000.0 -64002500000.0 -65081000000.0 -63455600000.0 -33077600000.0 -266605000000.0 -118914000000.0 -29212200000.0 -33215500000.0 -214389000000.0 -222445000000.0 -61202700000.0 -38339100000.0 -113711000000.0 -16723300000.0 -325024000000.0 -199091000000.0 -123842000000.0 -270806000000.0 -124551000000.0 -30661100000.0 -29111000000.0 -37063400000.0 -25862600000.0 -18867000000.0 -208615000000.0 -59959500000.0 -12549700000.0 -16808000000.0 -27724500000.0 -73990900000.0 -89973600000.0 -101984000000.0 -177922000000.0 -177264000000.0 -12549700000.0 -12549700000.0 -343604000000.0 -232954000000.0 -252207000000.0 -143921000000.0 -236623000000.0 -129938000000.0 -181628000000.0 -12549100000.0 -177706000000.0 -181505000000.0 -95535800000.0 -112426000000.0 -356309000000.0 -149163000000.0 -35972100000.0 -173420000000.0 -78605400000.0 -150763000000.0 -125778000000.0 -95529200000.0 -104526000000.0 -231032000000.0 -307898000000.0 -29728000000.0 -274030000000.0 -379951000000.0 -580888000000.0 -642615000000.0 -622528000000.0 -435716000000.0 -362053000000.0 -283572000000.0 -669728000000.0 -717045000000.0 -341351000000.0 -560749000000.0 -413545000000.0 -176768000000.0 -154366000000.0 -362342000000.0 -34951000000.0 -57438500000.0 -46007100000.0 -15713100000.0 -173968000000.0 -128293000000.0 -80060400000.0 -91471700000.0 -95957700000.0 -281895000000.0 -30026500000.0 -37784500000.0 -93125200000.0 -727079000000.0 -204751000000.0 -169797000000.0 -22114000000.0 -338661000000.0 -16555000000.0 -221508000000.0 -403771000000.0 -35024400000.0 -113013000000.0 -18796000000.0 -28091200000.0 -71910500000.0 -212972000000.0 -254060000000.0 -188628000000.0 -231807000000.0 -427392000000.0 -106689000000.0 -25055900000.0 -14860900000.0 -88743200000.0 -13567600000.0 -332720000000.0 -145260000000.0 -23915800000.0 -64452000000.0 -298185000000.0 -42233400000.0 -20718000000.0 -19317800000.0 -15814800000.0 -50288400000.0 -286005000000.0 -173859000000.0 -107423000000.0 -108544000000.0 -102130000000.0 -94464700000.0 -137466000000.0 -191993000000.0 -38878400000.0 -128424000000.0 -229660000000.0 -246409000000.0 -414808000000.0 -416481000000.0 -28673600000.0 -28275200000.0 -161772000000.0 -184111000000.0 -25849400000.0 -144461000000.0 -125484000000.0 -47965100000.0 -139997000000.0 -317194000000.0 -126541000000.0 -220592000000.0 -12549700000.0 -12549700000.0 -103572000000.0 -82342200000.0 -18266300000.0 -27751300000.0 -133971000000.0 -87670300000.0 -271604000000.0 -325167000000.0 -123169000000.0 -189023000000.0 -260476000000.0 -296730000000.0 -30966300000.0 -86345300000.0 -20148200000.0 -439013000000.0 -451106000000.0 -264749000000.0 -551712000000.0 -126249000000.0 -621890000000.0 -132384000000.0 -346598000000.0 -42707800000.0 -180918000000.0 -153711000000.0 -250063000000.0 -438908000000.0 -387184000000.0 -123071000000.0 -120076000000.0 -232422000000.0 -165589000000.0 -164340000000.0 -164135000000.0 -335324000000.0 -30780400000.0 -275212000000.0 -259167000000.0 -721079000000.0 -74248400000.0 -173011000000.0 -16231100000.0 -190970000000.0 -12549700000.0 -74574600000.0 -282110000000.0 -179112000000.0 -281160000000.0 -403413000000.0 -113481000000.0 -213603000000.0 -117461000000.0 -140442000000.0 -283940000000.0 -136285000000.0 -172359000000.0 -51181900000.0 -27272700000.0 -13881900000.0 -418187000000.0 -147606000000.0 -167832000000.0 -174354000000.0 -101113000000.0 -382053000000.0 -174133000000.0 -15111800000.0 -85916600000.0 -304372000000.0 -52846900000.0 -16209700000.0 -14071400000.0 -22910600000.0 -285062000000.0 -163804000000.0 -141693000000.0 -80909900000.0 -72177200000.0 -75548300000.0 -85191800000.0 -114524000000.0 -128779000000.0 -111905000000.0 -16880000000.0 -12549700000.0 -89671400000.0 -56962900000.0 -546992000000.0 -513863000000.0 -306423000000.0 -465512000000.0 -203509000000.0 -214696000000.0 -365623000000.0 -361558000000.0 -314191000000.0 -177155000000.0 -35430300000.0 -416935000000.0 -389014000000.0 -186118000000.0 -189157000000.0 -123318000000.0 -227903000000.0 -165993000000.0 -194967000000.0 -323552000000.0 -112920000000.0 -136352000000.0 -168919000000.0 -159277000000.0 -181326000000.0 -85683000000.0 -88759600000.0 -148609000000.0 -306651000000.0 -296052000000.0 -71672100000.0 -615452000000.0 -329493000000.0 -467136000000.0 -121399000000.0 -340198000000.0 -465867000000.0 -350580000000.0 -260071000000.0 -134337000000.0 -136432000000.0 -147213000000.0 -99634000000.0 -272292000000.0 -252119000000.0 -323132000000.0 -59990000000.0 -120834000000.0 -32145700000.0 -212052000000.0 -52753900000.0 -52817900000.0 -80668600000.0 -926376000000.0 -352228000000.0 -257093000000.0 -407503000000.0 -461765000000.0 -435235000000.0 -475857000000.0 -203104000000.0 -579047000000.0 -405776000000.0 -342491000000.0 -364801000000.0 -388923000000.0 -340793000000.0 -295316000000.0 -418261000000.0 -370194000000.0 -12545300000.0 -35034300000.0 -16925700000.0 -410612000000.0 -108494000000.0 -109708000000.0 -89433600000.0 -59990800000.0 -437510000000.0 -83082700000.0 -318565000000.0 -95149500000.0 -321457000000.0 -138044000000.0 -293529000000.0 -301975000000.0 -352325000000.0 -127703000000.0 -62220500000.0 -100518000000.0 -68989500000.0 -49141100000.0 -59006200000.0 -93012000000.0 -90534400000.0 -263401000000.0 -225126000000.0 -179104000000.0 -139635000000.0 -121331000000.0 -182835000000.0 -433274000000.0 -374742000000.0 -78392600000.0 -239610000000.0 -133655000000.0 -24653200000.0 -214161000000.0 -216589000000.0 -125647000000.0 -186479000000.0 -173444000000.0 -280124000000.0 -195986000000.0 -19550900000.0 -60536300000.0 -49446500000.0 -92930100000.0 -22571400000.0 -38825000000.0 -192630000000.0 -54361700000.0 -12549700000.0 -254254000000.0 -12549700000.0 -133713000000.0 -46417100000.0 -23414100000.0 -22971900000.0 -289446000000.0 -381599000000.0 -269779000000.0 -366127000000.0 -208269000000.0 -159813000000.0 -153481000000.0 -156085000000.0 -101221000000.0 -149494000000.0 -12549700000.0 -147640000000.0 -88714500000.0 -110157000000.0 -253583000000.0 -136449000000.0 -108227000000.0 -392097000000.0 -253196000000.0 -276669000000.0 -468110000000.0 -217803000000.0 -257983000000.0 -529375000000.0 -305312000000.0 -212157000000.0 -88964200000.0 -124186000000.0 -101844000000.0 -189165000000.0 -519511000000.0 -260406000000.0 -368639000000.0 -242453000000.0 -106294000000.0 -122248000000.0 -98532000000.0 -292332000000.0 -220175000000.0 -387405000000.0 -202274000000.0 -378723000000.0 -384586000000.0 -78861300000.0 -459236000000.0 -198292000000.0 -145166000000.0 -107709000000.0 -114587000000.0 -464489000000.0 -111378000000.0 -29813500000.0 -462600000000.0 -490001000000.0 -54145000000.0 -151567000000.0 -16323600000.0 -226675000000.0 -212436000000.0 -98890300000.0 -109056000000.0 -46418100000.0 -20522500000.0 -13908600000.0 -53533300000.0 -43779500000.0 -213269000000.0 -135512000000.0 -152750000000.0 -71207200000.0 -177366000000.0 -130053000000.0 -661975000000.0 -553433000000.0 -198438000000.0 -545168000000.0 -395449000000.0 -270684000000.0 -239542000000.0 -23580000000.0 -21879900000.0 -94952100000.0 -201290000000.0 -369937000000.0 -287303000000.0 -100345000000.0 -137868000000.0 -143797000000.0 -112062000000.0 -33922700000.0 -69404900000.0 -236033000000.0 -124587000000.0 -148471000000.0 -205987000000.0 -275220000000.0 -310209000000.0 -167076000000.0 -135830000000.0 -153015000000.0 -310733000000.0 -169666000000.0 -185776000000.0 -368818000000.0 -305468000000.0 -219460000000.0 -323407000000.0 -280566000000.0 -97665400000.0 -247358000000.0 -190580000000.0 -278403000000.0 -266621000000.0 -237792000000.0 -318352000000.0 -12549700000.0 -98613600000.0 -304797000000.0 -75494500000.0 -445678000000.0 -401874000000.0 -50848000000.0 -93032300000.0 -390658000000.0 -399550000000.0 -400972000000.0 -263826000000.0 -187467000000.0 -243761000000.0 -49997000000.0 -452101000000.0 -109448000000.0 -391051000000.0 -187909000000.0 -138330000000.0 -89663100000.0 -98652000000.0 -248755000000.0 -172593000000.0 -320314000000.0 -205389000000.0 -337139000000.0 -388695000000.0 -611155000000.0 -87702300000.0 -72309700000.0 -170023000000.0 -86978800000.0 -279684000000.0 -33334100000.0 -182249000000.0 -234449000000.0 -356165000000.0 -458300000000.0 -12549700000.0 -141090000000.0 -116119000000.0 -310396000000.0 -353583000000.0 -137919000000.0 -144315000000.0 -104682000000.0 -162062000000.0 -186631000000.0 -118189000000.0 -111418000000.0 -112411000000.0 -335087000000.0 -184879000000.0 -260205000000.0 -91894600000.0 -119788000000.0 -293439000000.0 -695568000000.0 -111738000000.0 -478555000000.0 -469930000000.0 -107715000000.0 -325854000000.0 -268835000000.0 -71727500000.0 -52648600000.0 -118090000000.0 -104134000000.0 -264129000000.0 -213122000000.0 -75876300000.0 -104136000000.0 -84291500000.0 -287136000000.0 -76986200000.0 -168756000000.0 -83040000000.0 -46225400000.0 -14414300000.0 -70847400000.0 -190511000000.0 -171110000000.0 -70190500000.0 -72550600000.0 -69684700000.0 -293028000000.0 -235319000000.0 -337371000000.0 -377080000000.0 -208943000000.0 -135512000000.0 -159342000000.0 -157741000000.0 -455931000000.0 -253948000000.0 -188081000000.0 -249994000000.0 -230481000000.0 -176242000000.0 -299590000000.0 -218325000000.0 -129084000000.0 -482370000000.0 -327382000000.0 -21195900000.0 -225534000000.0 -518023000000.0 -575714000000.0 -649656000000.0 -602237000000.0 -734748000000.0 -358397000000.0 -396901000000.0 -268172000000.0 -408725000000.0 -481730000000.0 -737403000000.0 -905058000000.0 -351308000000.0 -279768000000.0 -346326000000.0 -350770000000.0 -190274000000.0 -157278000000.0 -279697000000.0 -147329000000.0 -123514000000.0 -170057000000.0 -325699000000.0 -451546000000.0 -282721000000.0 -236736000000.0 -340391000000.0 -357803000000.0 -261020000000.0 -253307000000.0 -330180000000.0 -727018000000.0 -15399400000.0 -82821600000.0 -171291000000.0 -154635000000.0 -196528000000.0 -498690000000.0 -247614000000.0 -276478000000.0 -35070500000.0 -134860000000.0 -64813600000.0 -58332200000.0 -46504600000.0 -194169000000.0 -185389000000.0 -90504000000.0 -406000000000.0 -268976000000.0 -53162600000.0 -644468000000.0 -109728000000.0 -398606000000.0 -349981000000.0 -186424000000.0 -536168000000.0 -235136000000.0 -49616300000.0 -12549700000.0 -99420300000.0 -102213000000.0 -215975000000.0 -288899000000.0 -16968400000.0 -40340000000.0 -21761700000.0 -218074000000.0 -87313800000.0 -168787000000.0 -95128500000.0 -21708100000.0 -17030800000.0 -167047000000.0 -216757000000.0 -216185000000.0 -49979300000.0 -71066900000.0 -23692900000.0 -204588000000.0 -102251000000.0 -138358000000.0 -261804000000.0 -18092500000.0 -160027000000.0 -13197200000.0 -125529000000.0 -126930000000.0 -266656000000.0 -37532900000.0 -128716000000.0 -154841000000.0 -34055000000.0 -320026000000.0 -38227500000.0 -366018000000.0 -262952000000.0 -95124500000.0 -105096000000.0 -113824000000.0 -246780000000.0 -186422000000.0 -439265000000.0 -12761200000.0 -456215000000.0 -324652000000.0 -287295000000.0 -453335000000.0 -520485000000.0 -53351800000.0 -96586500000.0 -399887000000.0 -127727000000.0 -116010000000.0 -156908000000.0 -19997100000.0 -69377700000.0 -34642700000.0 -139129000000.0 -48611000000.0 -13362300000.0 -22757600000.0 -384805000000.0 -174411000000.0 -96661800000.0 -49935500000.0 -153720000000.0 -89888600000.0 -139405000000.0 -13255500000.0 -81302300000.0 -589966000000.0 -34773500000.0 -138492000000.0 -389233000000.0 -372384000000.0 -624597000000.0 -85342200000.0 -43734000000.0 -277946000000.0 -13717300000.0 -109711000000.0 -12549700000.0 -57404300000.0 -326158000000.0 -238508000000.0 -154518000000.0 -218106000000.0 -230997000000.0 -255193000000.0 -200670000000.0 -102975000000.0 -668488000000.0 -95752200000.0 -382343000000.0 -550325000000.0 -154224000000.0 -365826000000.0 -15445700000.0 -226962000000.0 -232096000000.0 -258890000000.0 -253142000000.0 -559459000000.0 -685643000000.0 -258016000000.0 -255867000000.0 -251665000000.0 -330556000000.0 -137431000000.0 -227989000000.0 -158167000000.0 -265446000000.0 -237263000000.0 -178573000000.0 -132045000000.0 -322074000000.0 -220539000000.0 -235849000000.0 -265675000000.0 -252426000000.0 -297872000000.0 -362315000000.0 -152340000000.0 -139636000000.0 -178739000000.0 -122504000000.0 -18884600000.0 -103671000000.0 -372473000000.0 -216015000000.0 -217804000000.0 -258595000000.0 -201998000000.0 -416850000000.0 -229619000000.0 -395563000000.0 -112426000000.0 -113914000000.0 -57274000000.0 -334150000000.0 -420710000000.0 -414585000000.0 -177146000000.0 -213573000000.0 -282888000000.0 -301581000000.0 -38991300000.0 -21249600000.0 -392989000000.0 -336795000000.0 -309991000000.0 -439721000000.0 -222514000000.0 -247787000000.0 -158291000000.0 -136104000000.0 -106861000000.0 -221698000000.0 -216424000000.0 -207345000000.0 -119144000000.0 -113773000000.0 -469365000000.0 -219405000000.0 -66129100000.0 -44187500000.0 -158767000000.0 -97351000000.0 -102409000000.0 -70756300000.0 -73846100000.0 -570164000000.0 -37289800000.0 -302226000000.0 -368885000000.0 -319651000000.0 -706783000000.0 -134317000000.0 -18126400000.0 -385106000000.0 -304370000000.0 -366177000000.0 -16717500000.0 -122963000000.0 -156629000000.0 -153782000000.0 -132036000000.0 -105301000000.0 -389100000000.0 -171427000000.0 -615884000000.0 -449990000000.0 -364487000000.0 -731318000000.0 -421256000000.0 -456601000000.0 -509736000000.0 -390849000000.0 -488188000000.0 -436577000000.0 -646403000000.0 -209743000000.0 -248231000000.0 -335096000000.0 -281661000000.0 -303650000000.0 -337258000000.0 -371851000000.0 -335614000000.0 -129434000000.0 -235201000000.0 -227726000000.0 -85887800000.0 -201613000000.0 -186113000000.0 -13650600000.0 -12549700000.0 -72411400000.0 -52225000000.0 -171480000000.0 -85246400000.0 -228043000000.0 -128255000000.0 -242071000000.0 -294916000000.0 -180713000000.0 -206460000000.0 -335800000000.0 -74721400000.0 -85256800000.0 -107632000000.0 -87829000000.0 -166215000000.0 -80520400000.0 -15299700000.0 -286710000000.0 -279340000000.0 -372502000000.0 -223594000000.0 -22491600000.0 -296819000000.0 -223338000000.0 -197846000000.0 -229800000000.0 -174599000000.0 -130617000000.0 -495679000000.0 -80435900000.0 -129989000000.0 -171585000000.0 -145083000000.0 -18866700000.0 -160929000000.0 -132130000000.0 -333723000000.0 -220236000000.0 -128599000000.0 -181926000000.0 -204818000000.0 -155136000000.0 -163496000000.0 -453842000000.0 -224450000000.0 -165800000000.0 -121540000000.0 -205472000000.0 -109217000000.0 -139144000000.0 -49497000000.0 -51026500000.0 -843372000000.0 -233221000000.0 -125987000000.0 -240096000000.0 -303121000000.0 -12549700000.0 -114705000000.0 -139509000000.0 -523281000000.0 -180856000000.0 -265500000000.0 -347121000000.0 -32487900000.0 -236825000000.0 -89747500000.0 -188266000000.0 -261219000000.0 -193114000000.0 -219696000000.0 -422142000000.0 -195504000000.0 -506604000000.0 -578913000000.0 -817978000000.0 -360476000000.0 -335286000000.0 -221122000000.0 -264333000000.0 -169635000000.0 -315371000000.0 -52748100000.0 -564840000000.0 -28078500000.0 -134384000000.0 -169947000000.0 -20829900000.0 -72769100000.0 -15809100000.0 -208494000000.0 -66538500000.0 -262734000000.0 -12549700000.0 -49310200000.0 -97540300000.0 -147120000000.0 -124956000000.0 -91889800000.0 -53614700000.0 -91906900000.0 -138199000000.0 -154519000000.0 -71374300000.0 -164466000000.0 -39713600000.0 -120887000000.0 -146171000000.0 -93933300000.0 -178589000000.0 -248808000000.0 -71739300000.0 -204163000000.0 -185073000000.0 -211796000000.0 -272547000000.0 -155192000000.0 -92429500000.0 -446711000000.0 -48906300000.0 -43909500000.0 -499003000000.0 -240453000000.0 -214147000000.0 -168996000000.0 -219457000000.0 -400863000000.0 -223054000000.0 -485877000000.0 -27832000000.0 -23790100000.0 -12549700000.0 -190873000000.0 -92785700000.0 -26895100000.0 -92988700000.0 -28098800000.0 -128683000000.0 -103307000000.0 -180251000000.0 -128445000000.0 -139394000000.0 -58583100000.0 -53569300000.0 -107428000000.0 -454618000000.0 -200678000000.0 -231023000000.0 -257287000000.0 -362590000000.0 -451075000000.0 -451842000000.0 -640491000000.0 -208831000000.0 -37178600000.0 -388921000000.0 -270678000000.0 -300611000000.0 -15344200000.0 -230947000000.0 -547939000000.0 -643479000000.0 -152680000000.0 -314558000000.0 -464142000000.0 -332255000000.0 -345837000000.0 -172357000000.0 -29457600000.0 -24767900000.0 -82799600000.0 -512808000000.0 -240360000000.0 -335923000000.0 -436215000000.0 -658976000000.0 -85732200000.0 -205007000000.0 -245114000000.0 -195132000000.0 -30601300000.0 -609565000000.0 -629964000000.0 -366212000000.0 -220437000000.0 -237169000000.0 -386530000000.0 -221864000000.0 -264019000000.0 -292186000000.0 -189820000000.0 -148713000000.0 -229541000000.0 -111291000000.0 -102775000000.0 -204880000000.0 -206855000000.0 -179572000000.0 -118800000000.0 -98670600000.0 -143470000000.0 -17193400000.0 -116430000000.0 -62997300000.0 -167641000000.0 -81877200000.0 -169303000000.0 -95167200000.0 -12841100000.0 -111974000000.0 -31468400000.0 -348866000000.0 -128392000000.0 -154741000000.0 -254600000000.0 -145250000000.0 -86787900000.0 -82507000000.0 -313594000000.0 -16551500000.0 -14081600000.0 -436277000000.0 -187012000000.0 -328026000000.0 -173497000000.0 -198272000000.0 -266073000000.0 -95415500000.0 -332441000000.0 -22252100000.0 -14504900000.0 -20733100000.0 -142755000000.0 -199159000000.0 -179178000000.0 -170126000000.0 -162547000000.0 -129105000000.0 -119268000000.0 -45019900000.0 -18373000000.0 -73505700000.0 -14505100000.0 -12699700000.0 -67570500000.0 -287937000000.0 -102765000000.0 -65951400000.0 -166164000000.0 -141327000000.0 -76378100000.0 -14498000000.0 -334160000000.0 -149266000000.0 -32827000000.0 -21079500000.0 -700454000000.0 -618610000000.0 -508754000000.0 -887693000000.0 -12550000000.0 -145004000000.0 -345984000000.0 -374567000000.0 -238829000000.0 -482283000000.0 -266299000000.0 -242473000000.0 -409086000000.0 -120612000000.0 -386343000000.0 -768282000000.0 -561313000000.0 -593418000000.0 -361474000000.0 -854671000000.0 -541080000000.0 -612376000000.0 -505948000000.0 -106632000000.0 -274539000000.0 -368647000000.0 -306036000000.0 -273743000000.0 -286971000000.0 -299904000000.0 -424145000000.0 -62840700000.0 -100794000000.0 -100649000000.0 -92889800000.0 -40786300000.0 -126416000000.0 -12549700000.0 -88544400000.0 -128361000000.0 -63642500000.0 -70434000000.0 -101647000000.0 -55207400000.0 -102962000000.0 -135939000000.0 -179226000000.0 -82826200000.0 -159521000000.0 -224315000000.0 -186790000000.0 -85289600000.0 -222058000000.0 -27257100000.0 -24824300000.0 -83268500000.0 -23701600000.0 -317206000000.0 -155210000000.0 -155655000000.0 -351024000000.0 -141599000000.0 -284894000000.0 -319101000000.0 -258953000000.0 -156154000000.0 -290036000000.0 -118200000000.0 -104842000000.0 -185169000000.0 -43609600000.0 -188310000000.0 -272553000000.0 -30640000000.0 -24926500000.0 -40481100000.0 -133008000000.0 -171620000000.0 -13736600000.0 -65636300000.0 -15037500000.0 -114071000000.0 -116685000000.0 -68226600000.0 -49603800000.0 -62784200000.0 -114867000000.0 -107725000000.0 -133252000000.0 -274908000000.0 -40192700000.0 -32584500000.0 -108161000000.0 -43720000000.0 -14500200000.0 -79174400000.0 -310494000000.0 -101888000000.0 -36173000000.0 -547576000000.0 -892282000000.0 -514813000000.0 -152292000000.0 -151573000000.0 -377113000000.0 -283809000000.0 -573503000000.0 -763192000000.0 -362966000000.0 -104932000000.0 -342473000000.0 -353836000000.0 -331749000000.0 -304694000000.0 -424856000000.0 -427679000000.0 -324638000000.0 -366080000000.0 -406308000000.0 -651259000000.0 -578342000000.0 -42494400000.0 -212051000000.0 -261239000000.0 -712229000000.0 -592345000000.0 -514444000000.0 -277587000000.0 -196940000000.0 -146685000000.0 -135263000000.0 -16407100000.0 -14039300000.0 -263660000000.0 -131462000000.0 -138290000000.0 -167269000000.0 -206541000000.0 -48436900000.0 -45028300000.0 -65053100000.0 -86590300000.0 -12875800000.0 -20355700000.0 -43215200000.0 -13847100000.0 -62926300000.0 -12549700000.0 -150571000000.0 -58726400000.0 -70383200000.0 -107437000000.0 -92269900000.0 -98864500000.0 -168573000000.0 -15391700000.0 -12649200000.0 -74333900000.0 -32997800000.0 -261828000000.0 -24990300000.0 -45309400000.0 -268695000000.0 -266193000000.0 -101296000000.0 -12549700000.0 -278771000000.0 -208108000000.0 -215274000000.0 -326646000000.0 -168507000000.0 -234173000000.0 -181529000000.0 -177719000000.0 -166576000000.0 -336120000000.0 -131234000000.0 -54112300000.0 -136895000000.0 -92343300000.0 -49639000000.0 -99125000000.0 -12743500000.0 -14954600000.0 -20364700000.0 -16849600000.0 -24678000000.0 -50324800000.0 -246893000000.0 -133786000000.0 -82717500000.0 -157252000000.0 -136685000000.0 -83250600000.0 -113578000000.0 -172070000000.0 -68754100000.0 -15948700000.0 -34110800000.0 -461748000000.0 -249089000000.0 -251712000000.0 -378852000000.0 -320259000000.0 -438566000000.0 -55954500000.0 -490065000000.0 -253480000000.0 -110560000000.0 -262343000000.0 -185900000000.0 -199416000000.0 -59241000000.0 -12549700000.0 -276636000000.0 -117960000000.0 -497296000000.0 -423838000000.0 -620193000000.0 -355006000000.0 -119038000000.0 -12549700000.0 -242371000000.0 -424475000000.0 -260473000000.0 -311544000000.0 -168281000000.0 -122790000000.0 -114771000000.0 -114168000000.0 -27405200000.0 -15889000000.0 -215803000000.0 -100344000000.0 -152862000000.0 -138977000000.0 -122176000000.0 -16898500000.0 -18564500000.0 -49548300000.0 -72909500000.0 -30278600000.0 -24281000000.0 -38864600000.0 -33852600000.0 -42532400000.0 -31645300000.0 -102151000000.0 -25609100000.0 -44073800000.0 -46894200000.0 -110685000000.0 -15079900000.0 -161299000000.0 -83236800000.0 -79860600000.0 -139128000000.0 -105422000000.0 -98700300000.0 -205506000000.0 -117740000000.0 -130279000000.0 -332391000000.0 -51999900000.0 -187294000000.0 -122336000000.0 -99718800000.0 -335662000000.0 -202430000000.0 -283924000000.0 -89678800000.0 -279723000000.0 -86218600000.0 -57498900000.0 -45744500000.0 -158893000000.0 -21523600000.0 -128772000000.0 -236279000000.0 -179895000000.0 -84708500000.0 -56883100000.0 -80361000000.0 -44963100000.0 -45495100000.0 -61014500000.0 -53868100000.0 -101600000000.0 -203586000000.0 -19035200000.0 -117702000000.0 -144807000000.0 -131357000000.0 -167897000000.0 -99918500000.0 -32647700000.0 -265236000000.0 -119693000000.0 -116077000000.0 -340130000000.0 -296314000000.0 -238794000000.0 -144196000000.0 -159108000000.0 -60135200000.0 -385915000000.0 -432843000000.0 -247680000000.0 -265099000000.0 -380132000000.0 -156535000000.0 -295428000000.0 -117274000000.0 -134915000000.0 -307839000000.0 -486123000000.0 -33210300000.0 -191389000000.0 -295279000000.0 -116695000000.0 -453722000000.0 -368741000000.0 -173618000000.0 -335303000000.0 -428739000000.0 -15282100000.0 -71099500000.0 -128955000000.0 -145194000000.0 -122437000000.0 -153100000000.0 -195841000000.0 -256528000000.0 -68016000000.0 -102487000000.0 -144118000000.0 -131623000000.0 -14137200000.0 -15459800000.0 -24346300000.0 -98445600000.0 -41195900000.0 -46126300000.0 -63411700000.0 -66589800000.0 -65615600000.0 -55222400000.0 -130715000000.0 -87635700000.0 -140185000000.0 -152137000000.0 -178949000000.0 -88072300000.0 -160361000000.0 -12549200000.0 -12549700000.0 -111225000000.0 -78222300000.0 -102848000000.0 -41083200000.0 -33059200000.0 -202720000000.0 -21730900000.0 -13110600000.0 -283618000000.0 -156526000000.0 -490858000000.0 -392337000000.0 -452670000000.0 -343619000000.0 -334345000000.0 -159840000000.0 -93263400000.0 -73968100000.0 -72290200000.0 -187129000000.0 -30997000000.0 -86221400000.0 -195216000000.0 -33875700000.0 -12552500000.0 -163550000000.0 -99341500000.0 -107553000000.0 -90598700000.0 -84459700000.0 -90530300000.0 -76598300000.0 -26881600000.0 -219724000000.0 -113625000000.0 -31625600000.0 -60398600000.0 -101987000000.0 -14537800000.0 -50437200000.0 -84486800000.0 -124209000000.0 -43323200000.0 -16758300000.0 -12549700000.0 -240643000000.0 -222357000000.0 -113880000000.0 -12549600000.0 -42172000000.0 -142397000000.0 -174384000000.0 -323548000000.0 -89610600000.0 -208069000000.0 -178308000000.0 -112701000000.0 -131659000000.0 -269947000000.0 -169956000000.0 -423195000000.0 -471197000000.0 -232401000000.0 -276184000000.0 -406546000000.0 -22132000000.0 -80697500000.0 -318742000000.0 -143420000000.0 -129468000000.0 -616742000000.0 -49145500000.0 -68115900000.0 -14104000000.0 -96190600000.0 -102205000000.0 -13567100000.0 -69533200000.0 -38478100000.0 -122831000000.0 -12549700000.0 -34912800000.0 -64166000000.0 -12549700000.0 -119894000000.0 -99592300000.0 -121412000000.0 -30691400000.0 -26509800000.0 -33135000000.0 -50606200000.0 -57181600000.0 -56525600000.0 -81090500000.0 -160464000000.0 -90031100000.0 -51130700000.0 -12644500000.0 -77632900000.0 -12549700000.0 -114754000000.0 -13562000000.0 -14168900000.0 -94617300000.0 -131739000000.0 -151172000000.0 -27873200000.0 -92027700000.0 -66696600000.0 -290972000000.0 -218129000000.0 -233442000000.0 -180158000000.0 -305408000000.0 -13631800000.0 -122325000000.0 -19946200000.0 -391862000000.0 -119081000000.0 -72180400000.0 -111736000000.0 -43355600000.0 -23664000000.0 -116466000000.0 -166380000000.0 -21190100000.0 -83097000000.0 -28312000000.0 -124706000000.0 -73993600000.0 -98470500000.0 -97955100000.0 -83229200000.0 -62107300000.0 -51533200000.0 -71659500000.0 -104264000000.0 -131380000000.0 -40531900000.0 -90722100000.0 -49230700000.0 -14283300000.0 -21241400000.0 -41620900000.0 -24168800000.0 -15078700000.0 -70940400000.0 -232653000000.0 -202260000000.0 -119521000000.0 -97234100000.0 -110340000000.0 -142847000000.0 -198974000000.0 -81089400000.0 -394984000000.0 -193820000000.0 -292540000000.0 -223393000000.0 -315634000000.0 -371992000000.0 -457945000000.0 -105770000000.0 -291240000000.0 -46115400000.0 -544455000000.0 -233773000000.0 -230847000000.0 -309596000000.0 -234197000000.0 -408388000000.0 -449400000000.0 -253095000000.0 -101046000000.0 -45487100000.0 -97352000000.0 -62290900000.0 -82328300000.0 -26105800000.0 -29109600000.0 -28194700000.0 -98421700000.0 -86960500000.0 -52826700000.0 -12549700000.0 -86506500000.0 -55666800000.0 -64658500000.0 -35876300000.0 -29854400000.0 -29916000000.0 -38128500000.0 -27012200000.0 -32314200000.0 -13269600000.0 -80507800000.0 -32700400000.0 -64215400000.0 -76683000000.0 -65821600000.0 -144562000000.0 -108144000000.0 -157100000000.0 -34869900000.0 -155148000000.0 -166600000000.0 -184765000000.0 -64006500000.0 -124937000000.0 -151357000000.0 -53036900000.0 -217158000000.0 -36855300000.0 -17946000000.0 -95066400000.0 -14741100000.0 -484299000000.0 -242362000000.0 -196499000000.0 -171953000000.0 -178010000000.0 -145839000000.0 -230603000000.0 -149237000000.0 -23020100000.0 -119258000000.0 -135401000000.0 -68314700000.0 -71756400000.0 -93047300000.0 -25996500000.0 -58124600000.0 -89021600000.0 -96903500000.0 -56960400000.0 -129185000000.0 -46986000000.0 -43311700000.0 -22141500000.0 -33154400000.0 -30092100000.0 -38654100000.0 -17810000000.0 -14585700000.0 -32276500000.0 -18303400000.0 -191562000000.0 -193074000000.0 -14206200000.0 -62653900000.0 -42124800000.0 -232151000000.0 -107212000000.0 -210226000000.0 -210830000000.0 -140360000000.0 -152419000000.0 -97009200000.0 -157066000000.0 -189867000000.0 -234114000000.0 -420080000000.0 -371751000000.0 -331508000000.0 -132933000000.0 -92325700000.0 -72109000000.0 -163923000000.0 -12549700000.0 -211930000000.0 -145421000000.0 -14619900000.0 -143564000000.0 -98000500000.0 -145383000000.0 -38411000000.0 -20724800000.0 -17103500000.0 -66018700000.0 -73261600000.0 -56625800000.0 -40613300000.0 -95952300000.0 -18355000000.0 -15704900000.0 -22186800000.0 -19081700000.0 -13674300000.0 -12549700000.0 -20605300000.0 -13083000000.0 -21189900000.0 -14126900000.0 -52329600000.0 -12549700000.0 -25661000000.0 -32862800000.0 -25458800000.0 -92096100000.0 -36656300000.0 -37902200000.0 -79358200000.0 -80646000000.0 -105805000000.0 -84250000000.0 -66238500000.0 -73862900000.0 -65370400000.0 -99280500000.0 -70242400000.0 -16823700000.0 -249593000000.0 -240455000000.0 -290148000000.0 -151750000000.0 -63976200000.0 -13578200000.0 -86596200000.0 -74259500000.0 -81316000000.0 -58022900000.0 -36105500000.0 -137458000000.0 -37743200000.0 -34862900000.0 -55122200000.0 -23193300000.0 -56772200000.0 -36871400000.0 -23748600000.0 -17062700000.0 -92438300000.0 -64711500000.0 -97869400000.0 -125765000000.0 -72621600000.0 -106008000000.0 -57948900000.0 -101170000000.0 -65113700000.0 -12549600000.0 -34800200000.0 -16257800000.0 -14921800000.0 -23180100000.0 -12905800000.0 -16322900000.0 -12549700000.0 -99511400000.0 -183448000000.0 -297003000000.0 -322336000000.0 -280697000000.0 -276488000000.0 -294025000000.0 -185314000000.0 -262237000000.0 -365558000000.0 -195954000000.0 -199905000000.0 -214202000000.0 -179074000000.0 -161449000000.0 -178925000000.0 -302355000000.0 -146385000000.0 -202127000000.0 -107828000000.0 -186196000000.0 -55475600000.0 -51308700000.0 -96954000000.0 -111160000000.0 -211708000000.0 -54576400000.0 -56708400000.0 -69062200000.0 -18166400000.0 -18516500000.0 -88112400000.0 -61802400000.0 -60277800000.0 -15733500000.0 -25725500000.0 -16596600000.0 -54735300000.0 -14823700000.0 -12549700000.0 -15738600000.0 -13495900000.0 -12549700000.0 -12549700000.0 -18335800000.0 -12549700000.0 -17487900000.0 -12622600000.0 -13487000000.0 -42621600000.0 -13293100000.0 -16986100000.0 -17912500000.0 -16215000000.0 -42500400000.0 -46476700000.0 -38954300000.0 -58016100000.0 -91198900000.0 -114480000000.0 -119429000000.0 -75305200000.0 -73117800000.0 -78237900000.0 -115211000000.0 -126003000000.0 -157667000000.0 -202454000000.0 -82629600000.0 -287934000000.0 -71661900000.0 -117048000000.0 -140381000000.0 -152617000000.0 -43783800000.0 -29376000000.0 -94090800000.0 -50999600000.0 -46419700000.0 -57498600000.0 -61320700000.0 -68258000000.0 -51084500000.0 -60600100000.0 -69171400000.0 -52126400000.0 -60811900000.0 -58764500000.0 -126531000000.0 -85068800000.0 -61176200000.0 -20926700000.0 -19746600000.0 -19840900000.0 -16116100000.0 -12549700000.0 -13048700000.0 -21869900000.0 -94442600000.0 -60543300000.0 -82105100000.0 -27591900000.0 -51806000000.0 -82164500000.0 -30714900000.0 -78118200000.0 -88038600000.0 -18469500000.0 -37296500000.0 -17950200000.0 -63047800000.0 -31057500000.0 -102649000000.0 -46967100000.0 -33434400000.0 -98823600000.0 -66474800000.0 -128803000000.0 -96163800000.0 -88863000000.0 -61582800000.0 -56701200000.0 -102316000000.0 -76760000000.0 -67965800000.0 -42232000000.0 -46916600000.0 -60245100000.0 -32562100000.0 -35376100000.0 -30999000000.0 -19431200000.0 -24059600000.0 -16765100000.0 -46543500000.0 -13217700000.0 -13297100000.0 -13410600000.0 -12589200000.0 -12549700000.0 -12611300000.0 -13841500000.0 -15905600000.0 -17036500000.0 -33254400000.0 -14262700000.0 -12549700000.0 -12549700000.0 -23209600000.0 -20452000000.0 -15902200000.0 -19532600000.0 -28969100000.0 -13713600000.0 -36205800000.0 -39988500000.0 -20253400000.0 -48286600000.0 -55820100000.0 -102583000000.0 -128096000000.0 -116749000000.0 -72398000000.0 -180332000000.0 -55425000000.0 -88418100000.0 -50321200000.0 -32443900000.0 -51642900000.0 -37081100000.0 -48153600000.0 -42913800000.0 -43642500000.0 -21409300000.0 -16549500000.0 -14259000000.0 -30408700000.0 -12549700000.0 -25098000000.0 -13755900000.0 -38614500000.0 -24356700000.0 -18217700000.0 -13208000000.0 -30988900000.0 -42899900000.0 -12549700000.0 -35744000000.0 -17748300000.0 -40833500000.0 -22581600000.0 -21073400000.0 -20657200000.0 -15555100000.0 -15224300000.0 -18491400000.0 -51630800000.0 -35583800000.0 -33107000000.0 -14812800000.0 -26620900000.0 -48815300000.0 -30550600000.0 -68402100000.0 -46766200000.0 -39680800000.0 -53184100000.0 -52488100000.0 -40279900000.0 -48577300000.0 -12549700000.0 -12549700000.0 -17621500000.0 -30398900000.0 -18054900000.0 -23309300000.0 -12549700000.0 -15332500000.0 -15055600000.0 -14744200000.0 -45324800000.0 -18897700000.0 -17648300000.0 -12549700000.0 -14307900000.0 -19005700000.0 -13177200000.0 -16087800000.0 -13972200000.0 -12549700000.0 -14476900000.0 -13386300000.0 -17156000000.0 -25554800000.0 -20883800000.0 -19216200000.0 -18901000000.0 -17977000000.0 -17096300000.0 -17354600000.0 -18138100000.0 -17596900000.0 -15296700000.0 -20687000000.0 -15569500000.0 -18489800000.0 -18811700000.0 -24187500000.0 -23253100000.0 -22379200000.0 -31140800000.0 -21698300000.0 -18084100000.0 -38837200000.0 -64573000000.0 -54398400000.0 -57888700000.0 -50293300000.0 -35629600000.0 -52159500000.0 -55367400000.0 -26725400000.0 -23059300000.0 -30490400000.0 -19779100000.0 -17948000000.0 -13294500000.0 -14495800000.0 -12989700000.0 -12865900000.0 -15750600000.0 -22237900000.0 -16539800000.0 -14692100000.0 -17055000000.0 -15647200000.0 -18496000000.0 -12549700000.0 -19379500000.0 -16368300000.0 -18503600000.0 -19802900000.0 -15251800000.0 -21906600000.0 -17392100000.0 -24562200000.0 -18843700000.0 -21693700000.0 -15950900000.0 -15623200000.0 -13265600000.0 -12549700000.0 -12836800000.0 