# vtk DataFile Version 2.0
Time step 109
ASCII
DATASET UNSTRUCTURED_GRID
POINTS 4650 float
208846.0 244057.0 0
215598.0 243825.0 0
219546.0 244291.0 0
247359.0 243235.0 0
284559.0 244925.0 0
294815.0 243217.0 0
205365.0 246023.0 0
212309.0 246049.0 0
223090.0 246092.0 0
233586.0 247505.0 0
236991.0 245413.0 0
240506.0 247316.0 0
243924.0 245269.0 0
247409.0 247221.0 0
250839.0 245190.0 0
254293.0 247165.0 0
257735.0 245157.0 0
261181.0 247157.0 0
274429.0 246791.0 0
281122.0 246937.0 0
287869.0 247138.0 0
291327.0 245159.0 0
294773.0 247198.0 0
298269.0 245270.0 0
201890.0 248001.0 0
205433.0 249999.0 0
208879.0 248038.0 0
212348.0 250029.0 0
215777.0 248021.0 0
219737.0 248271.0 0
223271.0 250065.0 0
226674.0 247811.0 0
230209.0 249633.0 0
237109.0 249392.0 0
243999.0 249253.0 0
250870.0 249181.0 0
257727.0 249150.0 0
265043.0 248102.0 0
271025.0 248854.0 0
277739.0 249004.0 0
284447.0 249132.0 0
291295.0 249143.0 0
298229.0 249256.0 0
201997.0 251976.0 0
208896.0 251997.0 0
215825.0 252007.0 0
219812.0 252246.0 0
226843.0 251785.0 0
233734.0 251484.0 0
240613.0 251297.0 0
247468.0 251203.0 0
254306.0 251156.0 0
261132.0 251139.0 0
267716.0 251031.0 0
274359.0 251031.0 0
281069.0 251152.0 0
287870.0 251131.0 0
294690.0 251163.0 0
205443.0 253954.0 0
212357.0 253986.0 0
223388.0 254017.0 0
230371.0 253604.0 0
237253.0 253358.0 0
240738.0 255267.0 0
244090.0 253229.0 0
247538.0 255180.0 0
250910.0 253166.0 0
254322.0 255145.0 0
257713.0 253144.0 0
261061.0 255178.0 0
264443.0 253209.0 0
267761.0 255231.0 0
271050.0 253136.0 0
274388.0 255199.0 0
277704.0 253159.0 0
281111.0 255144.0 0
284481.0 253134.0 0
287873.0 255123.0 0
291265.0 253133.0 0
294625.0 255157.0 0
298008.0 253218.0 0
201996.0 255925.0 0
205411.0 257886.0 0
208887.0 255940.0 0
215806.0 255974.0 0
219777.0 256200.0 0
226990.0 255732.0 0
230623.0 257528.0 0
233918.0 255434.0 0
237413.0 257318.0 0
244190.0 257201.0 0
250956.0 257148.0 0
257694.0 257151.0 0
264404.0 257202.0 0
271086.0 257228.0 0
277771.0 257163.0 0
284500.0 257123.0 0
291247.0 257122.0 0
298007.0 257166.0 0
201993.0 259867.0 0
208782.0 259858.0 0
212325.0 257930.0 0
215771.0 259912.0 0
219733.0 260141.0 0
223345.0 257950.0 0
227381.0 259632.0 0
234124.0 259384.0 0
240869.0 259232.0 0
247613.0 259155.0 0
254343.0 259135.0 0
261051.0 259168.0 0
267746.0 259212.0 0
274442.0 259188.0 0
281146.0 259131.0 0
287876.0 259105.0 0
294624.0 259119.0 0
205363.0 261828.0 0
212084.0 261839.0 0
224210.0 261749.0 0
230876.0 261469.0 0
237577.0 261277.0 0
244292.0 261169.0 0
247688.0 263125.0 0
251007.0 261127.0 0
254380.0 263114.0 0
257709.0 261138.0 0
261066.0 263144.0 0
264403.0 261180.0 0
271101.0 261194.0 0
277802.0 261145.0 0
281163.0 263102.0 0
284516.0 261100.0 0
287885.0 263066.0 0
291250.0 261086.0 0
294628.0 263062.0 0
298007.0 261104.0 0
201991.0 263813.0 0
208683.0 263810.0 0
215328.0 263790.0 0
221081.0 263812.0 0
224514.0 265688.0 0
227676.0 263573.0 0
231099.0 265422.0 0
234320.0 263339.0 0
237727.0 265235.0 0
240996.0 263194.0 0
244388.0 265131.0 0
251063.0 265096.0 0
257738.0 265110.0 0
264419.0 265143.0 0
267757.0 263175.0 0
271112.0 265148.0 0
274458.0 263154.0 0
277813.0 265104.0 0
284526.0 265055.0 0
291257.0 265028.0 0
298008.0 265030.0 0
201988.0 267758.0 0
205323.0 265781.0 0
208616.0 267776.0 0
211957.0 265799.0 0
215040.0 267987.0 0
218211.0 266102.0 0
221477.0 267884.0 0
227914.0 267525.0 0
234488.0 267295.0 0
241108.0 267151.0 0
247759.0 267085.0 0
254421.0 267080.0 0
261089.0 267106.0 0
267770.0 267126.0 0
274464.0 267102.0 0
281169.0 267049.0 0
287891.0 267004.0 0
294632.0 266986.0 0
205295.0 269734.0 0
211817.0 269860.0 0
218312.0 269975.0 0
224787.0 269667.0 0
231279.0 269377.0 0
237851.0 269189.0 0
244469.0 269084.0 0
251114.0 269053.0 0
257770.0 269068.0 0
264436.0 269094.0 0
271118.0 269090.0 0
277815.0 269044.0 0
284529.0 268987.0 0
287893.0 270918.0 0
291261.0 268948.0 0
294634.0 270889.0 0
298009.0 268939.0 0
201987.0 271693.0 0
208562.0 271755.0 0
215096.0 271903.0 0
221626.0 271805.0 0
228104.0 271486.0 0
231411.0 273329.0 0
234617.0 271247.0 0
237937.0 273133.0 0
241195.0 271099.0 0
244527.0 273023.0 0
247816.0 271033.0 0
251152.0 272994.0 0
254458.0 271031.0 0
257793.0 273012.0 0
261111.0 271055.0 0
264448.0 273034.0 0
267779.0 271067.0 0
271119.0 273021.0 0
274464.0 271036.0 0
277811.0 272965.0 0
281169.0 270974.0 0
284527.0 272895.0 0
291262.0 272845.0 0
298009.0 272828.0 0
201986.0 275606.0 0
205284.0 273676.0 0
208596.0 275676.0 0
211860.0 273791.0 0
215212.0 275791.0 0
218430.0 273854.0 0
221766.0 275719.0 0
224934.0 273605.0 0
228225.0 275426.0 0
234696.0 275191.0 0
241247.0 275030.0 0
247851.0 274962.0 0
254481.0 274966.0 0
261124.0 274992.0 0
267781.0 274997.0 0
274459.0 274954.0 0
281163.0 274878.0 0
287891.0 274808.0 0
294635.0 274770.0 0
205304.0 277573.0 0
211948.0 277671.0 0
218605.0 277741.0 0
225072.0 277526.0 0
231470.0 277272.0 0
237977.0 277060.0 0
244553.0 276940.0 0
251170.0 276917.0 0
257803.0 276941.0 0
264450.0 276962.0 0
271113.0 276940.0 0
277803.0 276867.0 0
281155.0 278759.0 0
284522.0 276779.0 0
287889.0 278672.0 0
291261.0 276717.0 0
294636.0 278626.0 0
298010.0 276695.0 0
201987.0 279477.0 0
208653.0 279542.0 0
215344.0 279639.0 0
222039.0 279655.0 0
228259.0 279377.0 0
231472.0 281194.0 0
234719.0 279115.0 0
237966.0 280964.0 0
241256.0 278939.0 0
244538.0 280828.0 0
247857.0 278869.0 0
251158.0 280817.0 0
254483.0 278883.0 0
257793.0 280853.0 0
261122.0 278914.0 0
264440.0 280878.0 0
267774.0 278917.0 0
271100.0 280847.0 0
274448.0 278858.0 0
277792.0 280749.0 0
284517.0 280638.0 0
291262.0 280563.0 0
298010.0 280540.0 0
201987.0 283304.0 0
205332.0 281420.0 0
208707.0 283358.0 0
212039.0 281501.0 0
215461.0 283442.0 0
218781.0 281576.0 0
222263.0 283478.0 0
225919.0 282358.0 0
234684.0 283016.0 0
241214.0 282820.0 0
247823.0 282747.0 0
254456.0 282778.0 0
261103.0 282821.0 0
267758.0 282824.0 0
274434.0 282745.0 0
281148.0 282617.0 0
287890.0 282510.0 0
294638.0 282459.0 0
205354.0 285220.0 0
212111.0 285286.0 0
218911.0 285362.0 0
226010.0 286243.0 0
229351.0 284328.0 0
232784.0 286286.0 0
237896.0 284840.0 0
244470.0 284676.0 0
247736.0 286590.0 0
251106.0 284691.0 0
257756.0 284743.0 0
264415.0 284780.0 0
271081.0 284740.0 0
277781.0 284610.0 0
281149.0 286446.0 0
284519.0 284469.0 0
287902.0 286320.0 0
291269.0 284384.0 0
294646.0 286268.0 0
298011.0 284363.0 0
201988.0 287092.0 0
205364.0 288982.0 0
208743.0 287130.0 0
212146.0 289034.0 0
215536.0 287206.0 0
218961.0 289129.0 0
222348.0 287292.0 0
229423.0 288205.0 0
236227.0 288224.0 0
241104.0 286671.0 0
244326.0 288464.0 0
251002.0 288533.0 0
254392.0 286647.0 0
257691.0 288605.0 0
261063.0 286706.0 0
264375.0 288664.0 0
267731.0 286720.0 0
271057.0 288620.0 0
274418.0 286614.0 0
277780.0 288444.0 0
284537.0 288271.0 0
291287.0 288181.0 0
298013.0 288167.0 0
201987.0 290849.0 0
208749.0 290868.0 0
215554.0 290942.0 0
222378.0 291074.0 0
226064.0 290117.0 0
232844.0 290139.0 0
239677.0 290162.0 0
247568.0 290392.0 0
254292.0 290480.0 0
260998.0 290567.0 0
267694.0 290603.0 0
274409.0 290458.0 0
281173.0 290241.0 0
287936.0 290104.0 0
294663.0 290060.0 0
205355.0 292716.0 0
212133.0 292753.0 0
218958.0 292869.0 0
226091.0 293990.0 0
229467.0 292066.0 0
232891.0 293970.0 0
236280.0 292053.0 0
240570.0 293849.0 0
244013.0 292130.0 0
247384.0 294120.0 0
250862.0 292328.0 0
254163.0 294277.0 0
257591.0 292435.0 0
260891.0 294397.0 0
264312.0 292528.0 0
271033.0 292481.0 0
274426.0 294266.0 0
277805.0 292243.0 0
281248.0 293995.0 0
284592.0 292039.0 0
288015.0 293863.0 0
291329.0 291959.0 0
294690.0 293841.0 0
298014.0 291959.0 0
201986.0 294587.0 0
205328.0 296439.0 0
208711.0 294581.0 0
212043.0 296444.0 0
215513.0 294648.0 0
218894.0 296574.0 0
222360.0 294815.0 0
229504.0 295909.0 0
237204.0 295703.0 0
243950.0 295882.0 0
250719.0 296087.0 0
257456.0 296237.0 0
264185.0 296361.0 0
267638.0 294474.0 0
271018.0 296314.0 0
277896.0 295995.0 0
284730.0 295772.0 0
291393.0 295730.0 0
298016.0 295746.0 0
201984.0 298318.0 0
208642.0 298294.0 0
215330.0 298305.0 0
222315.0 298506.0 0
226119.0 297865.0 0
230641.0 299499.0 0
233893.0 297591.0 0
237276.0 299518.0 0
240584.0 297665.0 0
247297.0 297876.0 0
254020.0 298053.0 0
260728.0 298207.0 0
267458.0 298316.0 0
274488.0 298008.0 0
281493.0 297683.0 0
284914.0 299524.0 0
288130.0 297624.0 0
291467.0 299510.0 0
294725.0 297623.0 0
298019.0 299534.0 0
201981.0 302049.0 0
205293.0 300165.0 0
208568.0 302021.0 0
211915.0 300152.0 0
215125.0 302024.0 0
218515.0 300181.0 0
221573.0 302031.0 0
227466.0 301440.0 0
234022.0 301409.0 0
240608.0 301480.0 0
243924.0 299664.0 0
247229.0 301653.0 0
250604.0 299855.0 0
253869.0 301835.0 0
257287.0 300028.0 0
260506.0 302021.0 0
263960.0 300188.0 0
267135.0 302150.0 0
270797.0 300092.0 0
275381.0 301525.0 0
278376.0 299620.0 0
281773.0 301443.0 0
288249.0 301406.0 0
294760.0 301412.0 0
205260.0 303898.0 0
211800.0 303889.0 0
218278.0 303913.0 0
224620.0 303684.0 0
230834.0 303336.0 0
237345.0 303344.0 0
243902.0 303464.0 0
250492.0 303640.0 0
257081.0 303827.0 0
263654.0 304047.0 0
272440.0 303311.0 0
278697.0 303379.0 0
285081.0 303317.0 0
291535.0 303303.0 0
298021.0 303323.0 0
201979.0 305779.0 0
208508.0 305760.0 0
214999.0 305772.0 0
221446.0 305753.0 0
227794.0 305390.0 0
231001.0 307223.0 0
234136.0 305249.0 0
237397.0 307179.0 0
240626.0 305302.0 0
243873.0 307276.0 0
247160.0 305450.0 0
253706.0 305634.0 0
260218.0 305854.0 0
266337.0 306487.0 0
269440.0 304936.0 0
272519.0 307067.0 0
275634.0 305280.0 0
278834.0 307168.0 0
281954.0 305245.0 0
285183.0 307125.0 0
288345.0 305207.0 0
291583.0 307102.0 0
294789.0 305205.0 0
298022.0 307110.0 0
201978.0 309506.0 0
205235.0 307632.0 0
208472.0 309495.0 0
211731.0 307632.0 0
214949.0 309505.0 0
218200.0 307644.0 0
221427.0 309464.0 0
224653.0 307479.0 0
227851.0 309235.0 0
234215.0 309104.0 0
240627.0 309129.0 0
247085.0 309261.0 0
250376.0 307444.0 0
253541.0 309457.0 0
256856.0 307655.0 0
259894.0 309761.0 0
263134.0 308055.0 0
269347.0 308723.0 0
275679.0 309034.0 0
282029.0 309046.0 0
288399.0 309010.0 0
294807.0 308996.0 0
205221.0 311358.0 0
211700.0 311361.0 0
218178.0 311356.0 0
224647.0 311236.0 0
231041.0 311063.0 0
237419.0 311017.0 0
243831.0 311096.0 0
250260.0 311263.0 0
256641.0 311518.0 0
262930.0 311935.0 0
266139.0 310316.0 0
269250.0 312470.0 0
272477.0 310799.0 0
278854.0 310938.0 0
285221.0 310923.0 0
291607.0 310894.0 0
298024.0 310889.0 0
201977.0 313221.0 0
205214.0 315070.0 0
208455.0 313215.0 0
211686.0 315070.0 0
214930.0 313218.0 0
218161.0 315059.0 0
221409.0 313175.0 0
224623.0 314975.0 0
227846.0 313029.0 0
231029.0 314865.0 0
234227.0 312934.0 0
237401.0 314837.0 0
240607.0 312954.0 0
243776.0 314913.0 0
247006.0 313079.0 0
250150.0 315086.0 0
253390.0 313294.0 0
259717.0 313628.0 0
266026.0 314106.0 0
272410.0 314521.0 0
275644.0 312769.0 0
278819.0 314686.0 0
282031.0 312822.0 0
285212.0 314697.0 0
288413.0 312798.0 0
291609.0 314669.0 0
294814.0 312776.0 0
298024.0 314653.0 0
201976.0 316923.0 0
208446.0 316918.0 0
214916.0 316917.0 0
221384.0 316882.0 0
227817.0 316792.0 0
234200.0 316736.0 0
240562.0 316766.0 0
246923.0 316894.0 0
253273.0 317119.0 0
256496.0 315361.0 0
259603.0 317451.0 0
262814.0 315759.0 0
265947.0 317875.0 0
269173.0 316210.0 0
275585.0 316495.0 0
281995.0 316576.0 0
288398.0 316562.0 0
294812.0 316535.0 0
205209.0 318764.0 0
211676.0 318764.0 0
218141.0 318753.0 0
224589.0 318701.0 0
230992.0 318639.0 0
237357.0 318636.0 0
243708.0 318719.0 0
250053.0 318897.0 0
256390.0 319173.0 0
262731.0 319547.0 0
269108.0 319947.0 0
272344.0 318244.0 0
275521.0 320218.0 0
278763.0 318419.0 0
281942.0 320310.0 0
285176.0 318446.0 0
288367.0 320300.0 0
291594.0 318419.0 0
294802.0 320267.0 0
298024.0 318394.0 0
201976.0 320608.0 0
205206.0 322442.0 0
208439.0 320605.0 0
211664.0 322444.0 0
214901.0 320604.0 0
218116.0 322440.0 0
221353.0 320583.0 0
224548.0 322415.0 0
227774.0 320535.0 0
230941.0 322391.0 0
234151.0 320514.0 0
237296.0 322413.0 0
240501.0 320561.0 0
243631.0 322508.0 0
246839.0 320693.0 0
249961.0 322686.0 0
253175.0 320919.0 0
256299.0 322955.0 0
259516.0 321240.0 0
265881.0 321627.0 0
272281.0 321968.0 0
278700.0 322144.0 0
285128.0 322173.0 0
291570.0 322141.0 0
298024.0 322108.0 0
201975.0 324277.0 0
208431.0 324276.0 0
214881.0 324281.0 0
221318.0 324275.0 0
227724.0 324260.0 0
234091.0 324270.0 0
240428.0 324335.0 0
246752.0 324473.0 0
253081.0 324692.0 0
259432.0 324998.0 0
262657.0 323307.0 0
265814.0 325363.0 0
269046.0 323678.0 0
272218.0 325693.0 0
275457.0 323940.0 0
281882.0 324029.0 0
288327.0 324012.0 0
294789.0 323970.0 0
201974.0 327931.0 0
205201.0 326104.0 0
208422.0 327933.0 0
211650.0 326111.0 0
214860.0 327946.0 0
218088.0 326117.0 0
221280.0 327957.0 0
224503.0 326116.0 0
227671.0 327971.0 0
230883.0 326125.0 0
234024.0 328008.0 0
237226.0 326171.0 0
240347.0 328091.0 0
243547.0 326276.0 0
246656.0 328231.0 0
249865.0 326452.0 0
256204.0 326707.0 0
262578.0 327040.0 0
268981.0 327402.0 0
275390.0 327662.0 0
278634.0 325862.0 0
281820.0 327735.0 0
285075.0 325878.0 0
288285.0 327698.0 0
291542.0 325833.0 0
294775.0 327643.0 0
298024.0 325794.0 0
205196.0 329752.0 0
211634.0 329765.0 0
218057.0 329785.0 0
224457.0 329806.0 0
230821.0 329842.0 0
237150.0 329911.0 0
243455.0 330025.0 0
249758.0 330195.0 0
252977.0 328439.0 0
256091.0 330431.0 0
259336.0 328725.0 0
262479.0 330744.0 0
265737.0 329078.0 0
272150.0 329416.0 0
278567.0 329575.0 0
285022.0 329563.0 0
291515.0 329496.0 0
298024.0 329450.0 0
201974.0 331568.0 0
205192.0 333385.0 0
208412.0 331577.0 0
211619.0 333409.0 0
214837.0 331601.0 0
218027.0 333442.0 0
221241.0 331629.0 0
224410.0 333483.0 0
227616.0 331667.0 0
233955.0 331730.0 0
240262.0 331829.0 0
246551.0 331971.0 0
252853.0 332164.0 0
259209.0 332423.0 0
265634.0 332765.0 0
268904.0 331112.0 0
272073.0 333136.0 0
275320.0 331384.0 0
278500.0 333283.0 0
281759.0 331427.0 0
284977.0 333225.0 0
288247.0 331357.0 0
291494.0 333131.0 0
294763.0 331286.0 0
298024.0 333077.0 0
201973.0 335190.0 0
208404.0 335209.0 0
214815.0 335246.0 0
221203.0 335290.0 0
227564.0 335350.0 0
230760.0 333544.0 0
233887.0 335437.0 0
237073.0 333635.0 0
240175.0 335553.0 0
243358.0 333760.0 0
246439.0 335700.0 0
249635.0 333923.0 0
252705.0 335876.0 0
255941.0 334130.0 0
259018.0 336090.0 0
262335.0 334413.0 0
268802.0 334799.0 0
275247.0 335108.0 0
281710.0 335103.0 0
288224.0 334989.0 0
294756.0 334901.0 0
205189.0 337003.0 0
211607.0 337041.0 0
217999.0 337090.0 0
224366.0 337149.0 0
230702.0 337232.0 0
236998.0 337345.0 0
243260.0 337483.0 0
249503.0 337644.0 0
255756.0 337824.0 0
262077.0 338035.0 0
265476.0 336409.0 0
268644.0 338438.0 0
271980.0 336849.0 0
278448.0 336983.0 0
284957.0 336864.0 0
288229.0 338598.0 0
291488.0 336739.0 0
294759.0 338493.0 0
298024.0 336680.0 0
302245.0 337269.0 0
201973.0 338795.0 0
205189.0 340604.0 0
208399.0 338826.0 0
211599.0 340663.0 0
214797.0 338882.0 0
217975.0 340728.0 0
221169.0 338941.0 0
224328.0 340801.0 0
227515.0 339020.0 0
230650.0 340906.0 0
233824.0 339130.0 0
236930.0 341043.0 0
240092.0 339266.0 0
243166.0 341199.0 0
246326.0 339422.0 0
252545.0 339589.0 0
258780.0 339762.0 0
265093.0 339960.0 0
271869.0 340536.0 0
275185.0 338830.0 0
278467.0 340665.0 0
281702.0 338757.0 0
284990.0 340481.0 0
291505.0 340329.0 0
298025.0 340264.0 0
201972.0 342378.0 0
208399.0 342430.0 0
214786.0 342510.0 0
221142.0 342580.0 0
227475.0 342675.0 0
233770.0 342809.0 0
240016.0 342970.0 0
246217.0 343142.0 0
249369.0 341366.0 0
252386.0 343312.0 0
255559.0 341531.0 0
258535.0 343467.0 0
261759.0 341688.0 0
264664.0 343608.0 0
267998.0 341867.0 0
270647.0 343781.0 0
275249.0 342528.0 0
281788.0 342393.0 0
288277.0 342194.0 0
291544.0 343913.0 0
294773.0 342070.0 0
298026.0 343836.0 0
201972.0 345937.0 0
205192.0 344185.0 0
208408.0 346016.0 0
211600.0 344275.0 0
214786.0 346133.0 0
217960.0 344359.0 0
221125.0 346208.0 0
224299.0 344440.0 0
227449.0 346315.0 0
230610.0 344566.0 0
233730.0 346475.0 0
236872.0 344729.0 0
243080.0 344909.0 0
249243.0 345091.0 0
255370.0 345258.0 0
261462.0 345403.0 0
267457.0 345556.0 0
273319.0 345418.0 0
278661.0 344344.0 0
281996.0 346047.0 0
285094.0 344095.0 0
288359.0 345799.0 0
294795.0 345643.0 0
302175.0 345353.0 0
205200.0 347741.0 0
211614.0 347876.0 0
217957.0 347983.0 0
224286.0 348064.0 0
230589.0 348210.0 0
236831.0 348405.0 0
239953.0 346665.0 0
243007.0 348615.0 0
246118.0 346860.0 0
249128.0 348819.0 0
252239.0 347044.0 0
255205.0 349001.0 0
258318.0 347206.0 0
264330.0 347352.0 0
270286.0 347439.0 0
273253.0 349067.0 0
276181.0 346786.0 0
279195.0 348225.0 0
285244.0 347742.0 0
291598.0 347503.0 0
294820.0 349215.0 0
298028.0 347400.0 0
201972.0 349464.0 0
205216.0 351263.0 0
208429.0 349581.0 0
211648.0 351467.0 0
214802.0 349755.0 0
217975.0 351603.0 0
221126.0 349823.0 0
224302.0 351669.0 0
227446.0 349938.0 0
233714.0 350129.0 0
239905.0 350354.0 0
246031.0 350578.0 0
252109.0 350782.0 0
258144.0 350959.0 0
261230.0 349158.0 0
264143.0 351096.0 0
267212.0 349277.0 0
270186.0 351077.0 0
276277.0 350513.0 0
282277.0 349817.0 0
285401.0 351436.0 0
288457.0 349424.0 0
291654.0 351104.0 0
298029.0 350960.0 0
201973.0 352952.0 0
208465.0 353114.0 0
214843.0 353386.0 0
221160.0 353422.0 0
227487.0 353540.0 0
230599.0 351838.0 0
233732.0 353773.0 0
236813.0 352073.0 0
239872.0 354042.0 0
242945.0 352320.0 0
249025.0 352548.0 0
255067.0 352747.0 0
261079.0 352906.0 0
267108.0 352965.0 0
273223.0 352689.0 0
276265.0 354187.0 0
279308.0 351990.0 0
282370.0 353534.0 0
288545.0 353068.0 0
294843.0 352788.0 0
298031.0 354510.0 0
197757.0 356896.0 0
201971.0 356395.0 0
205235.0 354739.0 0
208502.0 356598.0 0
211706.0 355039.0 0
214916.0 357043.0 0
218026.0 355218.0 0
221260.0 356988.0 0
224375.0 355248.0 0
230665.0 355453.0 0
236813.0 355743.0 0
242890.0 356025.0 0
245951.0 354296.0 0
248929.0 356274.0 0
251995.0 354519.0 0
254952.0 356483.0 0
258016.0 354703.0 0
260978.0 356632.0 0
264041.0 354812.0 0
267039.0 356640.0 0
270128.0 354713.0 0
273169.0 356321.0 0
279312.0 355680.0 0
285466.0 355104.0 0
288584.0 356698.0 0
291697.0 354712.0 0
294856.0 356351.0 0
205210.0 358157.0 0
211765.0 358571.0 0
218139.0 358809.0 0
224609.0 358781.0 0
227619.0 357119.0 0
230760.0 359084.0 0
233774.0 357423.0 0
236820.0 359425.0 0
239844.0 357735.0 0
245872.0 358013.0 0
251888.0 358247.0 0
257913.0 358428.0 0
263963.0 358509.0 0
270061.0 358361.0 0
276214.0 357837.0 0
279273.0 359322.0 0
282381.0 357195.0 0
285479.0 358733.0 0
291710.0 358316.0 0
294851.0 359887.0 0
298032.0 358043.0 0
201967.0 359806.0 0
205108.0 361571.0 0
208383.0 359993.0 0
211408.0 361926.0 0
215007.0 360750.0 0
218858.0 362156.0 0
221665.0 360450.0 0
227780.0 360735.0 0
233819.0 361095.0 0
239814.0 361440.0 0
242832.0 359736.0 0
245786.0 361732.0 0
248830.0 359996.0 0
251773.0 361963.0 0
254843.0 360203.0 0
260889.0 360336.0 0
266968.0 360317.0 0
269979.0 362025.0 0
273094.0 359961.0 0
276141.0 361465.0 0
282358.0 360810.0 0
285467.0 362327.0 0
288590.0 360307.0 0
291695.0 361920.0 0
298032.0 361561.0 0
201960.0 363216.0 0
208083.0 363420.0 0
216585.0 364200.0 0
222005.0 364094.0 0
224852.0 362393.0 0
227914.0 364405.0 0
230848.0 362750.0 0
236819.0 363125.0 0
242767.0 363455.0 0
248716.0 363714.0 0
254714.0 363903.0 0
257806.0 362130.0 0
260785.0 364021.0 0
263883.0 362197.0 0
266883.0 364005.0 0
273000.0 363602.0 0
279216.0 362923.0 0
282325.0 364382.0 0
288580.0 363903.0 0
294834.0 363376.0 0
298032.0 365064.0 0
201956.0 366634.0 0
204964.0 365069.0 0
210686.0 365502.0 0
213752.0 364264.0 0
216456.0 367887.0 0
219354.0 365992.0 0
225034.0 366087.0 0
230913.0 366447.0 0
233850.0 364790.0 0
236802.0 366842.0 0
239772.0 365159.0 0
242689.0 367188.0 0
245688.0 365459.0 0
251628.0 365669.0 0
257663.0 365807.0 0
263782.0 365873.0 0
269881.0 365707.0 0
272901.0 367239.0 0
276049.0 365066.0 0
279132.0 366476.0 0
285455.0 365889.0 0
288601.0 367505.0 0
291664.0 365557.0 0
294777.0 366745.0 0
204868.0 368726.0 0
207706.0 367033.0 0
210425.0 369053.0 0
213429.0 367580.0 0
219377.0 369672.0 0
222246.0 367863.0 0
225168.0 369819.0 0
228014.0 368112.0 0
233859.0 368508.0 0
239713.0 368893.0 0
245577.0 369199.0 0
248584.0 367440.0 0
251460.0 369387.0 0
254528.0 367585.0 0
257411.0 369448.0 0
260631.0 367673.0 0
263630.0 369514.0 0
266784.0 367707.0 0
269794.0 369413.0 0
275969.0 368639.0 0
279044.0 370009.0 0
282223.0 367896.0 0
285285.0 369371.0 0
291772.0 369311.0 0
295212.0 369822.0 0
298052.0 368494.0 0
201955.0 369972.0 0
207618.0 370716.0 0
213458.0 370757.0 0
216538.0 371576.0 0
222315.0 371553.0 0
228076.0 371844.0 0
230948.0 370170.0 0
233836.0 372247.0 0
236761.0 370577.0 0
242595.0 370933.0 0
248443.0 371183.0 0
254313.0 371291.0 0
260261.0 371246.0 0
266666.0 371413.0 0
272883.0 370864.0 0
276013.0 372217.0 0
282049.0 371411.0 0
288275.0 370942.0 0
294254.0 372521.0 0
298024.0 372134.0 0
201960.0 373033.0 0
204876.0 372450.0 0
207721.0 374336.0 0
210549.0 372556.0 0
213741.0 374018.0 0
216760.0 375269.0 0
219489.0 373341.0 0
222406.0 375246.0 0
225224.0 373528.0 0
230944.0 373914.0 0
236689.0 374328.0 0
239631.0 372641.0 0
242480.0 374688.0 0
245455.0 372952.0 0
248299.0 374943.0 0
251290.0 373133.0 0
254113.0 375044.0 0
257134.0 373143.0 0
259903.0 374935.0 0
263034.0 372965.0 0
265545.0 374700.0 0
269870.0 373118.0 0
273140.0 374478.0 0
279043.0 373609.0 0
281955.0 375045.0 0
284942.0 372862.0 0
287587.0 374473.0 0
290878.0 372886.0 0
296421.0 375444.0 0
299421.0 375936.0 0
196860.0 379239.0 0
199396.0 377666.0 0
201492.0 375747.0 0
204893.0 376146.0 0
207993.0 377803.0 0
210847.0 375944.0 0
213970.0 377423.0 0
219663.0 377050.0 0
225255.0 377261.0 0
228079.0 375582.0 0
230885.0 377675.0 0
233772.0 376004.0 0
239518.0 376398.0 0
245318.0 376713.0 0
251131.0 376904.0 0
256904.0 376910.0 0
262567.0 376716.0 0
268087.0 376095.0 0
270887.0 377065.0 0
276231.0 375885.0 0
279188.0 377328.0 0
284702.0 376581.0 0
289894.0 376387.0 0
293236.0 375610.0 0
298169.0 378319.0 0
301367.0 378141.0 0
194123.0 380941.0 0
200249.0 380397.0 0
202885.0 378862.0 0
205590.0 380019.0 0
211127.0 379345.0 0
214182.0 380904.0 0
216945.0 378935.0 0
219786.0 380782.0 0
222499.0 378993.0 0
228036.0 379348.0 0
233657.0 379776.0 0
236575.0 378091.0 0
239368.0 380161.0 0
242340.0 378448.0 0
245163.0 380472.0 0
248152.0 378711.0 0
253946.0 378833.0 0
259647.0 378740.0 0
265301.0 378388.0 0
268241.0 379685.0 0
273758.0 378331.0 0
276641.0 379713.0 0
282010.0 378839.0 0
284670.0 380485.0 0
287213.0 378326.0 0
289598.0 380245.0 0
292159.0 378537.0 0
295148.0 379090.0 0
300768.0 380897.0 0
304069.0 379818.0 0
306887.0 381573.0 0
188406.0 384514.0 0
191281.0 382716.0 0
194267.0 383836.0 0
197235.0 382095.0 0
200191.0 383313.0 0
203071.0 382483.0 0
208467.0 381364.0 0
211450.0 382827.0 0
217082.0 382605.0 0
222513.0 382787.0 0
225249.0 381050.0 0
227941.0 383158.0 0
230773.0 381460.0 0
236415.0 381863.0 0
242165.0 382204.0 0
247995.0 382474.0 0
250984.0 380686.0 0
253815.0 382638.0 0
256739.0 380729.0 0
259564.0 382535.0 0
262440.0 380476.0 0
265400.0 381989.0 0
271180.0 380822.0 0
274090.0 382132.0 0
279472.0 381181.0 0
282211.0 382757.0 0
287207.0 382272.0 0
292589.0 381728.0 0
295243.0 382953.0 0
297806.0 381553.0 0
300855.0 383880.0 0
303770.0 382717.0 0
306828.0 384476.0 0
309762.0 383368.0 0
185538.0 386311.0 0
191326.0 385695.0 0
194312.0 386795.0 0
197198.0 385114.0 0
200279.0 386002.0 0
205822.0 383651.0 0
208681.0 384799.0 0
214380.0 384465.0 0
219813.0 384553.0 0
225157.0 384881.0 0
230616.0 385273.0 0
233494.0 383564.0 0
236211.0 385645.0 0
239175.0 383924.0 0
244976.0 384219.0 0
250843.0 384458.0 0
256668.0 384541.0 0
262517.0 384149.0 0
265598.0 385562.0 0
268437.0 383274.0 0
271449.0 384526.0 0
274381.0 385915.0 0
276955.0 383553.0 0
279759.0 385071.0 0
284869.0 384445.0 0
290047.0 383829.0 0
292872.0 385277.0 0
295638.0 386602.0 0
298124.0 384876.0 0
301230.0 386977.0 0
303987.0 385692.0 0
309859.0 386375.0 0
312676.0 385187.0 0
315588.0 387012.0 0
182676.0 388100.0 0
185558.0 389450.0 0
188438.0 387583.0 0
191434.0 388697.0 0
197450.0 388113.0 0
200543.0 388835.0 0
203165.0 386025.0 0
205938.0 387189.0 0
208794.0 388089.0 0
211630.0 386284.0 0
214437.0 388070.0 0
217134.0 386327.0 0
219671.0 388385.0 0
222410.0 386628.0 0
227786.0 386995.0 0
233288.0 387372.0 0
238939.0 387690.0 0
241947.0 385951.0 0
244738.0 387946.0 0
247810.0 386213.0 0
250681.0 388191.0 0
253721.0 386423.0 0
256665.0 388319.0 0
259611.0 386268.0 0
262709.0 387752.0 0
268734.0 386867.0 0
271754.0 388246.0 0
277249.0 387392.0 0
282513.0 386682.0 0
285359.0 388258.0 0
287680.0 386032.0 0
290543.0 387510.0 0
293397.0 388901.0 0
298592.0 388145.0 0
304228.0 388784.0 0
307039.0 387448.0 0
309915.0 389475.0 0
312783.0 388248.0 0
318461.0 388811.0 0
176948.0 391680.0 0
179804.0 389896.0 0
182676.0 391255.0 0
188503.0 390647.0 0
191556.0 391624.0 0
194583.0 389688.0 0
197807.0 391188.0 0
203407.0 389679.0 0
206079.0 390696.0 0
208975.0 391198.0 0
211729.0 389741.0 0
216890.0 390119.0 0
222220.0 390470.0 0
224996.0 388732.0 0
227576.0 390852.0 0
230411.0 389108.0 0
235969.0 389439.0 0
241685.0 389695.0 0
247554.0 389911.0 0
253614.0 390152.0 0
259753.0 389921.0 0
263278.0 391195.0 0
265993.0 389091.0 0
269099.0 390530.0 0
274689.0 389707.0 0
277575.0 391219.0 0
280075.0 388940.0 0
282950.0 390480.0 0
288302.0 389761.0 0
291311.0 391203.0 0
296243.0 390169.0 0
299151.0 391425.0 0
301589.0 390257.0 0
304031.0 392164.0 0
306994.0 390555.0 0
310059.0 392542.0 0
312925.0 391298.0 0
315720.0 390161.0 0
318504.0 392086.0 0
321245.0 390550.0 0
324011.0 392270.0 0
173965.0 393535.0 0
176772.0 394720.0 0
179875.0 393070.0 0
182789.0 394485.0 0
185555.0 392600.0 0
188477.0 393674.0 0
191582.0 394479.0 0
194736.0 392478.0 0
197792.0 394338.0 0
200894.0 391940.0 0
204041.0 393471.0 0
207410.0 393973.0 0
210959.0 393407.0 0
214011.0 391804.0 0
216470.0 393810.0 0
219405.0 392178.0 0
224772.0 392588.0 0
230149.0 392963.0 0
233040.0 391199.0 0
235698.0 393244.0 0
238673.0 391465.0 0
241397.0 393450.0 0
244447.0 391664.0 0
247214.0 393599.0 0
250396.0 391851.0 0
256652.0 392044.0 0
260684.0 393180.0 0
266448.0 392736.0 0
272100.0 392004.0 0
275044.0 393509.0 0
280472.0 392730.0 0
285921.0 391953.0 0
289001.0 393365.0 0
294382.0 392542.0 0
297540.0 393731.0 0
301181.0 394034.0 0
307130.0 393494.0 0
310119.0 395644.0 0
313065.0 394346.0 0
315849.0 393379.0 0
321124.0 393769.0 0
326960.0 394114.0 0
167934.0 397303.0 0
170993.0 395389.0 0
173855.0 396578.0 0
179448.0 396121.0 0
182035.0 397359.0 0
185756.0 395854.0 0
189113.0 396703.0 0
194657.0 395224.0 0
200916.0 394751.0 0
205896.0 396622.0 0
209649.0 396517.0 0
213291.0 395310.0 0
219084.0 395875.0 0
221962.0 394282.0 0
224450.0 396453.0 0
227292.0 394728.0 0
232753.0 395035.0 0
238390.0 395250.0 0
244127.0 395405.0 0
249958.0 395507.0 0
253249.0 393765.0 0
255436.0 396159.0 0
258269.0 394985.0 0
261230.0 396876.0 0
263842.0 394868.0 0
266884.0 396492.0 0
269500.0 394269.0 0
272512.0 395792.0 0
277963.0 395013.0 0
280895.0 396455.0 0
283439.0 394172.0 0
286522.0 395518.0 0
292193.0 394731.0 0
295504.0 395952.0 0
299091.0 396652.0 0
302311.0 397535.0 0
304292.0 395296.0 0
307330.0 396458.0 0
312608.0 397411.0 0
315716.0 396682.0 0
318425.0 395564.0 0
321163.0 396953.0 0
324039.0 395153.0 0
327182.0 397045.0 0
329969.0 395996.0 0
164704.0 399318.0 0
167488.0 400082.0 0
170846.0 398288.0 0
173673.0 399702.0 0
176600.0 397945.0 0
179268.0 399489.0 0
184400.0 398608.0 0
187307.0 399104.0 0
190466.0 399895.0 0
192428.0 397532.0 0
196019.0 397664.0 0
199148.0 397429.0 0
202730.0 397021.0 0
207179.0 399471.0 0
210139.0 399626.0 0
212910.0 398434.0 0
216070.0 397290.0 0
221568.0 398079.0 0
226930.0 398613.0 0
229832.0 396824.0 0
232430.0 398867.0 0
235405.0 397050.0 0
238101.0 399043.0 0
241100.0 397226.0 0
246837.0 397340.0 0
252400.0 397601.0 0
258248.0 398467.0 0
264217.0 398657.0 0
269943.0 398034.0 0
275493.0 397320.0 0
278431.0 398813.0 0
283900.0 397762.0 0
287015.0 398930.0 0
289759.0 396795.0 0
293174.0 398029.0 0
296784.0 399009.0 0
300272.0 399951.0 0
305575.0 398660.0 0
309260.0 399006.0 0
315439.0 399674.0 0
318519.0 399084.0 0
321583.0 399981.0 0
324300.0 397915.0 0
327568.0 399879.0 0
330354.0 399029.0 0
332962.0 397866.0 0
335742.0 399630.0 0
161480.0 401333.0 0
164256.0 402161.0 0
170271.0 401043.0 0
172949.0 402607.0 0
176431.0 401222.0 0
179112.0 402960.0 0
181872.0 400841.0 0
185029.0 401700.0 0
188253.0 402231.0 0
193906.0 400310.0 0
197310.0 400467.0 0
200721.0 400056.0 0
204017.0 399864.0 0
212328.0 401990.0 0
215427.0 400756.0 0
218572.0 399527.0 0
224033.0 400308.0 0
229460.0 400672.0 0
235100.0 400837.0 0
240805.0 401026.0 0
243804.0 399190.0 0
246438.0 401189.0 0
249406.0 399353.0 0
251980.0 401412.0 0
254994.0 399756.0 0
257696.0 401785.0 0
261271.0 400478.0 0
267281.0 400244.0 0
270480.0 401740.0 0
273026.0 399583.0 0
276025.0 401169.0 0
281396.0 400163.0 0
284491.0 401307.0 0
290202.0 400015.0 0
293395.0 401022.0 0
296385.0 401877.0 0
299384.0 402714.0 0
303629.0 400883.0 0
307164.0 401529.0 0
310374.0 402361.0 0
312269.0 400150.0 0
317283.0 402314.0 0
320249.0 402529.0 0
324701.0 400642.0 0
330035.0 402167.0 0
333065.0 401158.0 0
338316.0 401221.0 0
341308.0 403078.0 0
155008.0 405378.0 0
158296.0 403328.0 0
161129.0 404248.0 0
163985.0 405112.0 0
167066.0 402948.0 0
169909.0 404012.0 0
175439.0 404088.0 0
182335.0 403916.0 0
185508.0 404697.0 0
188619.0 405127.0 0
191745.0 402864.0 0
195273.0 403181.0 0
198902.0 403060.0 0
202327.0 402899.0 0
205690.0 402716.0 0
208908.0 402625.0 0
214636.0 404239.0 0
217899.0 403082.0 0
221050.0 401819.0 0
223533.0 404138.0 0
226497.0 402509.0 0
229066.0 404479.0 0
232084.0 402680.0 0
237811.0 402837.0 0
243474.0 403032.0 0
249050.0 403220.0 0
254615.0 403454.0 0
260262.0 403624.0 0
262705.0 405234.0 0
264443.0 402377.0 0
267827.0 403856.0 0
273618.0 403396.0 0
278957.0 402637.0 0
282076.0 403792.0 0
287653.0 402354.0 0
290848.0 403357.0 0
294084.0 404305.0 0
297440.0 405101.0 0
302311.0 403468.0 0
305469.0 404137.0 0
308714.0 404835.0 0
314003.0 402687.0 0
323393.0 403133.0 0
326892.0 402980.0 0
329072.0 405253.0 0
332327.0 404374.0 0
335471.0 403279.0 0
338469.0 404058.0 0
344151.0 404869.0 0
151809.0 407381.0 0
157707.0 406162.0 0
160413.0 407001.0 0
163128.0 407806.0 0
166847.0 405915.0 0
169659.0 407042.0 0
172572.0 405931.0 0
174853.0 407708.0 0
177510.0 405791.0 0
180308.0 406371.0 0
183238.0 407222.0 0
191537.0 405760.0 0
194379.0 406065.0 0
197501.0 405941.0 0
200805.0 405859.0 0
204203.0 405772.0 0
207592.0 405671.0 0
211114.0 405151.0 0
217055.0 406525.0 0
220394.0 405454.0 0
226032.0 406437.0 0
231778.0 406480.0 0
234796.0 404579.0 0
237492.0 406649.0 0
240490.0 404849.0 0
243153.0 406880.0 0
246129.0 405063.0 0
248823.0 407100.0 0
251690.0 405253.0 0
254332.0 407268.0 0
257244.0 405445.0 0
259926.0 407306.0 0
265508.0 406238.0 0
271132.0 405396.0 0
276514.0 405117.0 0
279716.0 406333.0 0
285272.0 404815.0 0
288507.0 405777.0 0
291795.0 406670.0 0
295193.0 407422.0 0
300844.0 406189.0 0
303922.0 406921.0 0
307154.0 407460.0 0
312207.0 405189.0 0
315751.0 405331.0 0
318979.0 405414.0 0
322158.0 405723.0 0
325588.0 405674.0 0
331187.0 407536.0 0
334453.0 406602.0 0
337499.0 406508.0 0
341115.0 406122.0 0
343766.0 407964.0 0
346973.0 406638.0 0
148680.0 409341.0 0
151479.0 410414.0 0
154551.0 408321.0 0
157348.0 409161.0 0
160203.0 410045.0 0
165941.0 408581.0 0
168750.0 409627.0 0
172036.0 409533.0 0
177862.0 408959.0 0
180849.0 409715.0 0
186267.0 407842.0 0
189296.0 408320.0 0
192481.0 408919.0 0
195753.0 409029.0 0
199016.0 408860.0 0
202421.0 408701.0 0
206029.0 408667.0 0
209762.0 408211.0 0
213483.0 407416.0 0
216097.0 409754.0 0
219576.0 408928.0 0
222928.0 407894.0 0
228798.0 408177.0 0
234524.0 408270.0 0
240059.0 408668.0 0
245936.0 408912.0 0
251498.0 409150.0 0
257037.0 409202.0 0
262896.0 408783.0 0
265933.0 410010.0 0
268387.0 407617.0 0
271274.0 408837.0 0
274237.0 407709.0 0
277447.0 408913.0 0
282988.0 407349.0 0
286289.0 408277.0 0
289595.0 409143.0 0
292922.0 409881.0 0
296221.0 410498.0 0
298678.0 408127.0 0
302282.0 409753.0 0
305600.0 410216.0 0
310570.0 407825.0 0
314053.0 408031.0 0
317486.0 408248.0 0
320839.0 408433.0 0
324301.0 408437.0 0
327756.0 408128.0 0
329903.0 410573.0 0
333325.0 409806.0 0
336560.0 409361.0 0
339997.0 408697.0 0
344970.0 410606.0 0
347477.0 409423.0 0
350226.0 408651.0 0
353330.0 410599.0 0
142543.0 413187.0 0
145598.0 411272.0 0
148442.0 412445.0 0
151384.0 413495.0 0
154363.0 411362.0 0
157303.0 412247.0 0
160314.0 413126.0 0
163146.0 410879.0 0
166142.0 411762.0 0
169487.0 412354.0 0
172552.0 412815.0 0
175170.0 410918.0 0
178346.0 412161.0 0
183867.0 410494.0 0
186929.0 411011.0 0
190105.0 411376.0 0
193521.0 411876.0 0
196820.0 411960.0 0
200021.0 411773.0 0
203255.0 411556.0 0
206350.0 411624.0 0
209395.0 411236.0 0
212643.0 410494.0 0
218389.0 412272.0 0
221952.0 411472.0 0
225439.0 410373.0 0
228646.0 411316.0 0
231949.0 410371.0 0
236788.0 410545.0 0
242986.0 410628.0 0
248647.0 411009.0 0
254241.0 411131.0 0
257073.0 412987.0 0
259900.0 410899.0 0
262818.0 412288.0 0
269130.0 411464.0 0
272976.0 411518.0 0
276153.0 412038.0 0
280830.0 409948.0 0
284232.0 410841.0 0
287608.0 411702.0 0
290992.0 412468.0 0
294377.0 413122.0 0
299493.0 410954.0 0
304353.0 413103.0 0
308996.0 410551.0 0
312446.0 410775.0 0
315893.0 410970.0 0
319357.0 411146.0 0
322885.0 411152.0 0
326472.0 411040.0 0
332144.0 412883.0 0
335469.0 412371.0 0
338760.0 411716.0 0
341974.0 410955.0 0
347628.0 412669.0 0
350490.0 411655.0 0
356358.0 412502.0 0
139512.0 415086.0 0
142439.0 416404.0 0
145430.0 414433.0 0
148421.0 415573.0 0
154391.0 414447.0 0
157448.0 415342.0 0
163391.0 413970.0 0
166634.0 414675.0 0
169831.0 415305.0 0
175760.0 414158.0 0
178962.0 415477.0 0
181422.0 413044.0 0
184506.0 413743.0 0
187661.0 414084.0 0
190992.0 414253.0 0
194525.0 414874.0 0
197772.0 414953.0 0
201135.0 414668.0 0
204509.0 414572.0 0
208003.0 414408.0 0
211468.0 413813.0 0
214887.0 413036.0 0
220244.0 414972.0 0
223596.0 414379.0 0
226846.0 414061.0 0
230597.0 413950.0 0
234062.0 413342.0 0
237377.0 414036.0 0
239982.0 412229.0 0
242513.0 414420.0 0
245688.0 412781.0 0
248624.0 414861.0 0
251459.0 413048.0 0
254295.0 415007.0 0
259992.0 414606.0 0
265700.0 413443.0 0
268301.0 414790.0 0
271279.0 414618.0 0
274392.0 415092.0 0
279285.0 412818.0 0
282507.0 413541.0 0
285820.0 414341.0 0
289202.0 415093.0 0
297784.0 413608.0 0
301333.0 413410.0 0
307619.0 413393.0 0
310979.0 413595.0 0
314384.0 413757.0 0
317829.0 413881.0 0
321351.0 413886.0 0
324951.0 413751.0 0
328660.0 413635.0 0
332027.0 415822.0 0
335045.0 415352.0 0
338171.0 414755.0 0
341329.0 414060.0 0
344452.0 413570.0 0
347116.0 415740.0 0
350319.0 414789.0 0
353418.0 413720.0 0
356244.0 415740.0 0
359325.0 414359.0 0
362694.0 416442.0 0
133545.0 418827.0 0
136514.0 416967.0 0
139493.0 418368.0 0
145473.0 417606.0 0
151484.0 416608.0 0
154581.0 417560.0 0
160562.0 416203.0 0
163763.0 416963.0 0
166975.0 417648.0 0
170215.0 418273.0 0
173027.0 415971.0 0
176335.0 417384.0 0
182056.0 416397.0 0
185198.0 416935.0 0
188479.0 417011.0 0
191882.0 417016.0 0
199077.0 417723.0 0
202632.0 417515.0 0
206209.0 417326.0 0
209831.0 416977.0 0
213365.0 416383.0 0
216814.0 415669.0 0
225300.0 417471.0 0
228752.0 417122.0 0
232321.0 416885.0 0
235704.0 416896.0 0
239463.0 416776.0 0
245706.0 416483.0 0
251450.0 416968.0 0
257260.0 416826.0 0
262940.0 415964.0 0
265851.0 417227.0 0
277538.0 415704.0 0
280778.0 416383.0 0
284075.0 417072.0 0
287454.0 417771.0 0
292631.0 415756.0 0
296107.0 416271.0 0
299675.0 416401.0 0
303069.0 416386.0 0
306287.0 416353.0 0
309602.0 416517.0 0
312960.0 416640.0 0
316342.0 416730.0 0
319738.0 416746.0 0
323105.0 416663.0 0
326352.0 416519.0 0
329313.0 416628.0 0
337614.0 417882.0 0
340750.0 417190.0 0
343895.0 416577.0 0
349694.0 417903.0 0
352950.0 416834.0 0
357621.0 418439.0 0
360028.0 417174.0 0
365879.0 418440.0 0
130547.0 420697.0 0
136607.0 420322.0 0
139744.0 421679.0 0
142576.0 419638.0 0
145770.0 420794.0 0
148597.0 418717.0 0
151739.0 419756.0 0
154890.0 420705.0 0
157712.0 418445.0 0
160888.0 419256.0 0
164078.0 419984.0 0
167283.0 420626.0 0
173504.0 419002.0 0
176881.0 420603.0 0
179552.0 418911.0 0
182586.0 419753.0 0
185834.0 419985.0 0
188998.0 419859.0 0
192219.0 419670.0 0
195437.0 418043.0 0
200838.0 420471.0 0
204392.0 420271.0 0
207990.0 419999.0 0
211586.0 419604.0 0
215099.0 419059.0 0
218531.0 418440.0 0
221923.0 417882.0 0
230449.0 420214.0 0
233914.0 420124.0 0
237448.0 419995.0 0
240897.0 420310.0 0
242782.0 417811.0 0
248451.0 418766.0 0
254489.0 418844.0 0
257562.0 420734.0 0
260257.0 418415.0 0
263325.0 419737.0 0
269167.0 417951.0 0
272353.0 418138.0 0
275590.0 418650.0 0
278881.0 419235.0 0
282230.0 419863.0 0
285638.0 420492.0 0
290903.0 418416.0 0
294414.0 418952.0 0
297988.0 419255.0 0
301496.0 419406.0 0
304904.0 419467.0 0
308240.0 419511.0 0
311616.0 419595.0 0
315007.0 419658.0 0
318389.0 419692.0 0
321742.0 419665.0 0
325034.0 419589.0 0
328224.0 419616.0 0
331488.0 419204.0 0
334502.0 418501.0 0
340093.0 420377.0 0
343258.0 419687.0 0
346465.0 418857.0 0
351933.0 420206.0 0
354872.0 419215.0 0
360377.0 420505.0 0
363102.0 419453.0 0
366128.0 421549.0 0
368985.0 420387.0 0
127260.0 422734.0 0
130099.0 423750.0 0
133692.0 422165.0 0
136921.0 423702.0 0
143037.0 422874.0 0
148957.0 421919.0 0
152141.0 422957.0 0
158052.0 421566.0 0
161213.0 422348.0 0
164366.0 423034.0 0
170494.0 421214.0 0
173730.0 421872.0 0
180076.0 422560.0 0
183575.0 422891.0 0
187026.0 423025.0 0
190350.0 422624.0 0
193979.0 421697.0 0
197295.0 420702.0 0
202531.0 423280.0 0
206071.0 423038.0 0
209642.0 422730.0 0
213198.0 422337.0 0
216692.0 421847.0 0
220126.0 421329.0 0
223543.0 420883.0 0
226986.0 420509.0 0
245164.0 420338.0 0
248720.0 422441.0 0
251613.0 420803.0 0
254662.0 422647.0 0
260729.0 422255.0 0
266656.0 420662.0 0
270094.0 421223.0 0
273455.0 421594.0 0
276838.0 422108.0 0
280251.0 422668.0 0
289116.0 421101.0 0
292661.0 421639.0 0
296268.0 422041.0 0
299851.0 422314.0 0
303367.0 422481.0 0
306825.0 422562.0 0
310264.0 422587.0 0
313714.0 422619.0 0
317137.0 422658.0 0
320522.0 422667.0 0
323861.0 422627.0 0
327148.0 422595.0 0
330482.0 422305.0 0
333765.0 421777.0 0
336921.0 421078.0 0
339363.0 423591.0 0
342557.0 422881.0 0
345731.0 422079.0 0
348866.0 421179.0 0
351404.0 423505.0 0
354463.0 422537.0 0
357455.0 421659.0 0
360264.0 423749.0 0
363240.0 422660.0 0
369147.0 423541.0 0
372063.0 422315.0 0
375144.0 424244.0 0
120830.0 426761.0 0
124026.0 424759.0 0
126900.0 425876.0 0
132749.0 425077.0 0
135277.0 426402.0 0
140355.0 424915.0 0
143657.0 426191.0 0
146270.0 424065.0 0
149479.0 425193.0 0
152699.0 426218.0 0
155333.0 423899.0 0
158525.0 424753.0 0
161727.0 425515.0 0
167497.0 423627.0 0
170593.0 424151.0 0
173668.0 424692.0 0
176844.0 423711.0 0
181732.0 425807.0 0
185213.0 425966.0 0
188769.0 425944.0 0
192047.0 424934.0 0
195687.0 423983.0 0
199051.0 423486.0 0
207600.0 425846.0 0
211166.0 425528.0 0
214712.0 425151.0 0
218212.0 424719.0 0
221672.0 424286.0 0
225128.0 423903.0 0
228587.0 423591.0 0
232042.0 423398.0 0
235533.0 423278.0 0
238985.0 423332.0 0
242571.0 423258.0 0
245848.0 423697.0 0
251511.0 424844.0 0
258049.0 424663.0 0
264109.0 423313.0 0
267664.0 424009.0 0
271210.0 424531.0 0
274697.0 424982.0 0
278185.0 425491.0 0
283709.0 423243.0 0
287223.0 423803.0 0
290803.0 424325.0 0
294446.0 424762.0 0
298109.0 425132.0 0
301726.0 425409.0 0
305297.0 425565.0 0
308850.0 425599.0 0
312397.0 425586.0 0
315901.0 425620.0 0
319349.0 425659.0 0
322746.0 425652.0 0
326101.0 425603.0 0
329470.0 425370.0 0
332827.0 424929.0 0
336135.0 424314.0 0
341882.0 426085.0 0
345106.0 425312.0 0
348282.0 424444.0 0
354079.0 425793.0 0
357191.0 424840.0 0
363135.0 425859.0 0
366178.0 424728.0 0
369166.0 426721.0 0
372186.0 425491.0 0
378244.0 426183.0 0
117651.0 428752.0 0
123758.0 427959.0 0
126696.0 429160.0 0
129724.0 427070.0 0
132527.0 428510.0 0
138190.0 427233.0 0
141262.0 428414.0 0
146893.0 427413.0 0
150131.0 428528.0 0
155928.0 427151.0 0
159177.0 427982.0 0
162470.0 428701.0 0
164947.0 426178.0 0
168205.0 426750.0 0
171551.0 427228.0 0
175235.0 427073.0 0
178551.0 426222.0 0
193852.0 426947.0 0
197196.0 426690.0 0
200555.0 426358.0 0
204049.0 426117.0 0
212634.0 428372.0 0
216190.0 428024.0 0
219708.0 427648.0 0
223198.0 427281.0 0
226677.0 426963.0 0
230151.0 426725.0 0
233637.0 426564.0 0
237132.0 426516.0 0
240698.0 426468.0 0
244251.0 426611.0 0
248129.0 426323.0 0
252554.0 428813.0 0
254870.0 426084.0 0
261556.0 425988.0 0
265257.0 426721.0 0
268917.0 427333.0 0
272524.0 427849.0 0
281695.0 426017.0 0
285243.0 426534.0 0
288842.0 427022.0 0
292494.0 427462.0 0
296189.0 427846.0 0
299916.0 428222.0 0
303631.0 428481.0 0
307321.0 428585.0 0
311011.0 428542.0 0
325067.0 428627.0 0
328480.0 428439.0 0
331884.0 428054.0 0
335269.0 427488.0 0
338614.0 426797.0 0
344489.0 428533.0 0
347732.0 427696.0 0
350927.0 426768.0 0
356861.0 428031.0 0
360030.0 426955.0 0
362935.0 429049.0 0
366078.0 427909.0 0
372201.0 428680.0 0
375255.0 427435.0 0
378358.0 429384.0 0
381371.0 428139.0 0
114472.0 430741.0 0
117486.0 432018.0 0
120629.0 430001.0 0
123637.0 431237.0 0
129638.0 430475.0 0
132757.0 431800.0 0
135608.0 429708.0 0
138716.0 430696.0 0
144405.0 429656.0 0
147609.0 430832.0 0
153383.0 429533.0 0
156665.0 430434.0 0
160002.0 431206.0 0
165829.0 429305.0 0
169293.0 429766.0 0
172966.0 429859.0 0
176577.0 429626.0 0
179927.0 429145.0 0
183339.0 428921.0 0
186980.0 428906.0 0
190763.0 428718.0 0
194580.0 429606.0 0
198248.0 429471.0 0
201843.0 429202.0 0
205447.0 428955.0 0
209047.0 428681.0 0
217664.0 430947.0 0
221199.0 430624.0 0
224710.0 430317.0 0
228209.0 430062.0 0
231708.0 429871.0 0
235209.0 429759.0 0
238738.0 429689.0 0
242265.0 429697.0 0
245870.0 429579.0 0
249292.0 429555.0 0
256211.0 429196.0 0
259629.0 429065.0 0
263161.0 429548.0 0
266772.0 430136.0 0
270396.0 430681.0 0
276085.0 428328.0 0
279642.0 428819.0 0
283214.0 429304.0 0
286816.0 429761.0 0
290457.0 430183.0 0
294137.0 430559.0 0
297871.0 430895.0 0
301695.0 431255.0 0
314634.0 428559.0 0
318172.0 428627.0 0
321646.0 428660.0 0
330943.0 431183.0 0
334387.0 430645.0 0
337825.0 429954.0 0
341193.0 429273.0 0
347167.0 430940.0 0
350433.0 430025.0 0
353663.0 429034.0 0
356490.0 431233.0 0
359737.0 430149.0 0
365908.0 431092.0 0
369082.0 429902.0 0
372135.0 431867.0 0
375278.0 430630.0 0
381494.0 431354.0 0
384526.0 430113.0 0
387707.0 432104.0 0
108085.0 434738.0 0
111285.0 432735.0 0
114327.0 434030.0 0
120541.0 433284.0 0
123637.0 434544.0 0
126674.0 432502.0 0
129810.0 433786.0 0
135962.0 432990.0 0
139171.0 434100.0 0
141860.0 431897.0 0
145069.0 433115.0 0
150861.0 431907.0 0
154157.0 432873.0 0
157515.0 433705.0 0
163414.0 431842.0 0
166930.0 432324.0 0
170582.0 432557.0 0
174238.0 432575.0 0
177810.0 432392.0 0
181295.0 432080.0 0
184844.0 431894.0 0
188493.0 431790.0 0
192045.0 431946.0 0
195879.0 432333.0 0
199596.0 432242.0 0
203246.0 432031.0 0
206881.0 431801.0 0
210500.0 431544.0 0
214097.0 431259.0 0
226220.0 433391.0 0
229740.0 433185.0 0
233257.0 433039.0 0
236783.0 432942.0 0
240313.0 432902.0 0
243867.0 432839.0 0
247369.0 432815.0 0
250885.0 432630.0 0
254264.0 432321.0 0
257830.0 432466.0 0
261280.0 432628.0 0
264798.0 433061.0 0
268378.0 433559.0 0
274003.0 431179.0 0
277592.0 431651.0 0
281183.0 432114.0 0
284788.0 432554.0 0
288409.0 432961.0 0
292037.0 433337.0 0
295648.0 433667.0 0
299213.0 433978.0 0
305566.0 431487.0 0
309500.0 431450.0 0
313291.0 431449.0 0
316946.0 431554.0 0
320519.0 431637.0 0
324029.0 431651.0 0
327493.0 431516.0 0
333494.0 433812.0 0
337027.0 433071.0 0
340480.0 432427.0 0
343855.0 431740.0 0
349913.0 433283.0 0
353215.0 432277.0 0
359403.0 433340.0 0
362679.0 432233.0 0
365679.0 434274.0 0
368936.0 433084.0 0
375227.0 433827.0 0
378393.0 432588.0 0
381540.0 434575.0 0
384658.0 433355.0 0
390906.0 434106.0 0
104869.0 436750.0 0
111150.0 436045.0 0
114262.0 437344.0 0
117414.0 435315.0 0
120546.0 436588.0 0
126801.0 435806.0 0
130040.0 437066.0 0
133038.0 435058.0 0
136318.0 436270.0 0
142426.0 435327.0 0
145729.0 436557.0 0
148331.0 434264.0 0
151637.0 435305.0 0
155002.0 436203.0 0
160954.0 434383.0 0
164493.0 434899.0 0
168134.0 435225.0 0
171805.0 435380.0 0
175460.0 435376.0 0
179071.0 435222.0 0
182642.0 435002.0 0
186232.0 434856.0 0
189816.0 434879.0 0
193476.0 434983.0 0
197265.0 435143.0 0
200991.0 435063.0 0
204668.0 434886.0 0
208322.0 434678.0 0
211954.0 434445.0 0
215560.0 434189.0 0
219139.0 433916.0 0
222690.0 433642.0 0
238357.0 436147.0 0
241910.0 436094.0 0
245452.0 436066.0 0
249003.0 435983.0 0
252518.0 435823.0 0
255967.0 435726.0 0
259464.0 435883.0 0
262945.0 436142.0 0
271981.0 434050.0 0
275586.0 434518.0 0
279189.0 434966.0 0
282796.0 435396.0 0
286410.0 435798.0 0
290021.0 436175.0 0
293621.0 436531.0 0
302620.0 434379.0 0
305803.0 434637.0 0
308973.0 434484.0 0
312314.0 434369.0 0
315824.0 434465.0 0
319396.0 434578.0 0
322971.0 434643.0 0
326515.0 434597.0 0
330001.0 434328.0 0
336232.0 436136.0 0
339771.0 435542.0 0
343212.0 434929.0 0
346584.0 434182.0 0
349371.0 436562.0 0
352731.0 435529.0 0
356082.0 434442.0 0
359029.0 436531.0 0
362378.0 435417.0 0
368730.0 436266.0 0
372006.0 435057.0 0
375109.0 437030.0 0
378352.0 435794.0 0
384708.0 436605.0 0
387841.0 435381.0 0
391038.0 437426.0 0
394117.0 436116.0 0
101633.0 438775.0 0
107954.0 438068.0 0
111088.0 439378.0 0
117419.0 438633.0 0
120620.0 439902.0 0
123734.0 437847.0 0
126984.0 439094.0 0
133342.0 438317.0 0
136697.0 439544.0 0
139630.0 437454.0 0
142991.0 438715.0 0
149066.0 437702.0 0
152445.0 438695.0 0
158453.0 436934.0 0
162005.0 437492.0 0
165644.0 437883.0 0
169328.0 438129.0 0
173024.0 438238.0 0
176706.0 438218.0 0
180352.0 438097.0 0
183965.0 437949.0 0
187571.0 437889.0 0
191221.0 437906.0 0
194926.0 437959.0 0
198688.0 438010.0 0
202416.0 437929.0 0
206107.0 437777.0 0
209773.0 437593.0 0
213414.0 437386.0 0
217030.0 437161.0 0
220620.0 436927.0 0
224187.0 436699.0 0
227737.0 436496.0 0
231278.0 436334.0 0
234817.0 436216.0 0
266474.0 436538.0 0
270044.0 436980.0 0
273638.0 437425.0 0
277243.0 437860.0 0
280855.0 438279.0 0
297182.0 436868.0 0
300673.0 437264.0 0
304178.0 437611.0 0
307713.0 437625.0 0
311182.0 437473.0 0
314658.0 437448.0 0
318212.0 437528.0 0
321825.0 437605.0 0
325462.0 437624.0 0
329073.0 437505.0 0
332581.0 437021.0 0
339079.0 438606.0 0
342579.0 438098.0 0
345999.0 437433.0 0
352227.0 438811.0 0
355637.0 437658.0 0
362037.0 438607.0 0
365402.0 437465.0 0
368474.0 439457.0 0
371816.0 438254.0 0
378245.0 439002.0 0
381507.0 437798.0 0
384685.0 439858.0 0
387894.0 438669.0 0
394238.0 439480.0 0
397338.0 438133.0 0
400564.0 440153.0 0
98378.7 440811.0 0
101506.0 442152.0 0
104740.0 440104.0 0
107892.0 441425.0 0
114260.0 440681.0 0
117471.0 441968.0 0
123871.0 441149.0 0
127167.0 442378.0 0
130287.0 440336.0 0
133651.0 441572.0 0
140103.0 440774.0 0
143570.0 442073.0 0
146398.0 439998.0 0
149820.0 441144.0 0
155905.0 439495.0 0
159475.0 440099.0 0
163130.0 440544.0 0
166832.0 440854.0 0
170555.0 441043.0 0
174279.0 441120.0 0
177984.0 441100.0 0
181656.0 441017.0 0
185304.0 440937.0 0
188964.0 440901.0 0
192657.0 440905.0 0
196384.0 440923.0 0
200135.0 440920.0 0
203863.0 440839.0 0
207561.0 440707.0 0
211235.0 440546.0 0
214885.0 440365.0 0
218512.0 440172.0 0
222116.0 439975.0 0
225700.0 439789.0 0
229269.0 439627.0 0
232831.0 439500.0 0
236390.0 439412.0 0
239953.0 439352.0 0
243516.0 439317.0 0
247086.0 439271.0 0
250642.0 439189.0 0
254153.0 439113.0 0
257631.0 439140.0 0
261129.0 439334.0 0
264639.0 439621.0 0
268182.0 439990.0 0
271757.0 440392.0 0
275353.0 440800.0 0
278963.0 441202.0 0
284472.0 438678.0 0
288088.0 439056.0 0
291695.0 439418.0 0
295289.0 439765.0 0
298851.0 440130.0 0
302450.0 440439.0 0
306122.0 440582.0 0
309752.0 440550.0 0
313317.0 440496.0 0
316891.0 440512.0 0
320522.0 440564.0 0
324211.0 440597.0 0
327950.0 440571.0 0
331701.0 440361.0 0
335446.0 439107.0 0
338500.0 441596.0 0
342013.0 441235.0 0
345445.0 440697.0 0
348831.0 439885.0 0
355176.0 440889.0 0
358630.0 439721.0 0
361695.0 441805.0 0
365094.0 440673.0 0
371589.0 441464.0 0
374934.0 440246.0 0
378084.0 442208.0 0
381414.0 441021.0 0
387871.0 441971.0 0
391083.0 440766.0 0
397441.0 441541.0 0
403793.0 442175.0 0
91815.5 444918.0 0
95105.3 442860.0 0
98254.0 444214.0 0
104676.0 443485.0 0
107884.0 444811.0 0
111080.0 442740.0 0
114303.0 444043.0 0
120725.0 443228.0 0
124017.0 444462.0 0
130513.0 443594.0 0
133911.0 444808.0 0
137076.0 442802.0 0
140560.0 444054.0 0
147087.0 443450.0 0
150627.0 444585.0 0
153302.0 442054.0 0
156909.0 442717.0 0
160598.0 443206.0 0
164328.0 443571.0 0
168077.0 443823.0 0
171831.0 443973.0 0
175576.0 444033.0 0
179300.0 444022.0 0
183000.0 443975.0 0
186691.0 443928.0 0
190392.0 443905.0 0
194112.0 443899.0 0
197852.0 443895.0 0
201598.0 443867.0 0
205326.0 443791.0 0
209030.0 443676.0 0
212712.0 443537.0 0
216372.0 443382.0 0
220011.0 443219.0 0
223629.0 443057.0 0
227231.0 442908.0 0
230820.0 442782.0 0
234403.0 442685.0 0
237984.0 442617.0 0
241564.0 442574.0 0
245148.0 442540.0 0
248726.0 442497.0 0
252279.0 442457.0 0
255800.0 442461.0 0
259305.0 442565.0 0
262824.0 442784.0 0
266360.0 443077.0 0
269921.0 443423.0 0
273508.0 443792.0 0
282582.0 441591.0 0
286207.0 441965.0 0
289833.0 442324.0 0
293456.0 442668.0 0
297077.0 443007.0 0
300726.0 443288.0 0
304425.0 443457.0 0
308135.0 443530.0 0
311795.0 443531.0 0
315424.0 443529.0 0
319067.0 443551.0 0
322749.0 443574.0 0
326472.0 443577.0 0
330217.0 443565.0 0
334968.0 441931.0 0
344797.0 443972.0 0
348259.0 443285.0 0
351703.0 442150.0 0
354722.0 444119.0 0
358246.0 442903.0 0
364821.0 443912.0 0
368213.0 442656.0 0
374715.0 443483.0 0
381265.0 444240.0 0
384599.0 443117.0 0
391049.0 444126.0 0
394271.0 442874.0 0
397447.0 444987.0 0
400641.0 443606.0 0
407034.0 444204.0 0
88509.1 446988.0 0
94985.8 446290.0 0
98197.3 447645.0 0
101446.0 445559.0 0
104674.0 446897.0 0
111125.0 446130.0 0
114398.0 447431.0 0
117565.0 445325.0 0
120857.0 446580.0 0
124177.0 447798.0 0
127346.0 445670.0 0
130718.0 446856.0 0
137334.0 446038.0 0
140734.0 447275.0 0
144125.0 445386.0 0
147799.0 446918.0 0
154306.0 445327.0 0
158056.0 445868.0 0
161825.0 446284.0 0
165601.0 446593.0 0
169379.0 446802.0 0
214207.0 446564.0 0
217878.0 446433.0 0
221530.0 446299.0 0
225164.0 446169.0 0
228784.0 446053.0 0
232393.0 445957.0 0
235996.0 445886.0 0
239596.0 445838.0 0
243195.0 445805.0 0
246790.0 445780.0 0
250371.0 445763.0 0
253930.0 445772.0 0
257469.0 445839.0 0
261003.0 445991.0 0
264548.0 446224.0 0
268110.0 446513.0 0
277115.0 444168.0 0
280737.0 444540.0 0
284370.0 444902.0 0
288009.0 445251.0 0
291657.0 445584.0 0
295314.0 445899.0 0
298999.0 446168.0 0
302717.0 446353.0 0
306445.0 446463.0 0
310162.0 446525.0 0
313848.0 446550.0 0
317519.0 446568.0 0
321198.0 446587.0 0
324887.0 446602.0 0
328566.0 446640.0 0
333660.0 444446.0 0
337476.0 444572.0 0
341158.0 444315.0 0
347509.0 446744.0 0
351160.0 445564.0 0
358043.0 446036.0 0
361447.0 445009.0 0
367951.0 445877.0 0
371341.0 444701.0 0
374461.0 446766.0 0
377875.0 445412.0 0
384444.0 446382.0 0
387773.0 445290.0 0
390921.0 447511.0 0
394208.0 446299.0 0
400617.0 447095.0 0
403846.0 445661.0 0
407070.0 447714.0 0
410294.0 446243.0 0
85186.2 449068.0 0
91700.7 448378.0 0
94933.8 449748.0 0
101447.0 448994.0 0
104732.0 450336.0 0
107935.0 448227.0 0
111226.0 449547.0 0
117699.0 448714.0 0
121024.0 449966.0 0
127536.0 448978.0 0
130926.0 450139.0 0
134122.0 448056.0 0
137507.0 449334.0 0
144039.0 448547.0 0
146973.0 450162.0 0
151711.0 447922.0 0
155556.0 448529.0 0
159351.0 449004.0 0
163141.0 449364.0 0
173153.0 446925.0 0
176915.0 446978.0 0
180658.0 446980.0 0
184388.0 446955.0 0
188112.0 446929.0 0
191842.0 446912.0 0
195582.0 446902.0 0
199329.0 446887.0 0
203075.0 446851.0 0
206805.0 446780.0 0
210516.0 446682.0 0
233986.0 449152.0 0
237608.0 449103.0 0
241226.0 449071.0 0
244839.0 449053.0 0
248442.0 449049.0 0
252031.0 449065.0 0
255604.0 449119.0 0
271694.0 446838.0 0
275299.0 447180.0 0
278922.0 447527.0 0
282562.0 447870.0 0
286214.0 448204.0 0
289880.0 448523.0 0
293561.0 448819.0 0
297266.0 449074.0 0
300998.0 449270.0 0
304742.0 449407.0 0
308479.0 449498.0 0
332113.0 447053.0 0
335938.0 447314.0 0
339815.0 447291.0 0
343642.0 447054.0 0
351675.0 448903.0 0
354666.0 447282.0 0
357828.0 449218.0 0
361226.0 448253.0 0
364561.0 447240.0 0
367704.0 449103.0 0
371090.0 447975.0 0
377611.0 448607.0 0
381058.0 447453.0 0
384209.0 449655.0 0
387589.0 448627.0 0
394036.0 449758.0 0
397347.0 448473.0 0
400480.0 450620.0 0
403800.0 449178.0 0
410326.0 449767.0 0
413580.0 448299.0 0
416898.0 450375.0 0
81848.3 451157.0 0
85086.9 452595.0 0
88400.8 450480.0 0
91656.9 451865.0 0
98206.3 451105.0 0
101516.0 452457.0 0
108046.0 451672.0 0
111388.0 452997.0 0
114543.0 450854.0 0
117882.0 452142.0 0
124378.0 451162.0 0
127756.0 452313.0 0
134324.0 451346.0 0
140824.0 450610.0 0
144055.0 452002.0 0
150036.0 450924.0 0
166935.0 449625.0 0
170728.0 449799.0 0
174517.0 449904.0 0
178294.0 449954.0 0
182057.0 449965.0 0
185810.0 449956.0 0
189559.0 449943.0 0
193310.0 449933.0 0
197064.0 449923.0 0
200819.0 449904.0 0
204569.0 449866.0 0
208305.0 449804.0 0
212023.0 449721.0 0
215724.0 449623.0 0
219406.0 449517.0 0
223072.0 449410.0 0
226721.0 449309.0 0
230358.0 449221.0 0
259166.0 449231.0 0
262728.0 449411.0 0
266301.0 449650.0 0
269891.0 449931.0 0
273499.0 450236.0 0
277127.0 450554.0 0
280773.0 450873.0 0
284435.0 451187.0 0
288115.0 451487.0 0
291813.0 451768.0 0
295533.0 452013.0 0
312205.0 449559.0 0
315912.0 449596.0 0
319608.0 449622.0 0
323300.0 449649.0 0
326978.0 449701.0 0
330605.0 449921.0 0
334337.0 450097.0 0
338168.0 450164.0 0
341978.0 450100.0 0
345646.0 449950.0 0
348980.0 450092.0 0
354514.0 450759.0 0
357675.0 452398.0 0
360987.0 451492.0 0
364289.0 450704.0 0
367420.0 452233.0 0
370870.0 451303.0 0
374167.0 450147.0 0
377269.0 451762.0 0
380773.0 450658.0 0
387302.0 451986.0 0
390687.0 450930.0 0
397109.0 452000.0 0
403642.0 452721.0 0
407016.0 451247.0 0
410294.0 453296.0 0
413628.0 451838.0 0
420245.0 452469.0 0
75143.8 455355.0 0
78499.7 453253.0 0
81761.1 454723.0 0
88365.9 454000.0 0
91684.1 455379.0 0
94952.0 453232.0 0
98284.7 454593.0 0
104858.0 453806.0 0
108228.0 455146.0 0
114754.0 454315.0 0
118137.0 455610.0 0
121244.0 453384.0 0
124619.0 454563.0 0
131154.0 453449.0 0
134585.0 454659.0 0
137693.0 452735.0 0
140969.0 454047.0 0
147499.0 453691.0 0
153409.0 451348.0 0
157019.0 451801.0 0
160743.0 452172.0 0
164518.0 452464.0 0
168314.0 452676.0 0
172117.0 452820.0 0
175918.0 452910.0 0
179709.0 452958.0 0
183490.0 452977.0 0
187262.0 452980.0 0
191030.0 452977.0 0
194797.0 452973.0 0
198563.0 452964.0 0
202327.0 452946.0 0
206082.0 452912.0 0
209825.0 452860.0 0
213552.0 452792.0 0
217262.0 452714.0 0
220957.0 452631.0 0
224636.0 452549.0 0
228301.0 452474.0 0
231955.0 452412.0 0
235600.0 452365.0 0
239239.0 452336.0 0
242872.0 452322.0 0
246497.0 452324.0 0
250112.0 452345.0 0
253714.0 452394.0 0
257305.0 452485.0 0
260892.0 452628.0 0
264483.0 452824.0 0
268085.0 453063.0 0
271703.0 453332.0 0
275338.0 453618.0 0
278992.0 453911.0 0
282664.0 454202.0 0
286354.0 454483.0 0
299273.0 452212.0 0
303027.0 452365.0 0
306781.0 452479.0 0
310527.0 452563.0 0
314262.0 452623.0 0
317984.0 452667.0 0
321694.0 452705.0 0
325390.0 452760.0 0
329065.0 452888.0 0
332786.0 453011.0 0
336568.0 453074.0 0
340384.0 453083.0 0
344173.0 453065.0 0
347876.0 453167.0 0
351622.0 452835.0 0
355141.0 454201.0 0
359914.0 454737.0 0
363423.0 454322.0 0
366743.0 455150.0 0
370308.0 454594.0 0
373832.0 453744.0 0
377163.0 454745.0 0
380520.0 453847.0 0
383904.0 452943.0 0
390252.0 454389.0 0
393701.0 453263.0 0
396670.0 455572.0 0
400183.0 454174.0 0
406869.0 454786.0 0
413694.0 455369.0 0
416986.0 453934.0 0
423598.0 454568.0 0
71783.4 457459.0 0
78428.5 456861.0 0
85062.2 456153.0 0
88403.1 457546.0 0
95040.2 456743.0 0
98433.3 458105.0 0
101654.0 455948.0 0
105054.0 457300.0 0
111625.0 456481.0 0
115047.0 457812.0 0
121524.0 456853.0 0
124905.0 458010.0 0
128006.0 455679.0 0
131426.0 456762.0 0
134909.0 457918.0 0
137999.0 456274.0 0
141360.0 457471.0 0
144374.0 455232.0 0
151021.0 454351.0 0
154628.0 454712.0 0
158336.0 455047.0 0
162105.0 455337.0 0
165906.0 455567.0 0
169721.0 455740.0 0
173540.0 455862.0 0
177354.0 455943.0 0
181158.0 455991.0 0
184952.0 456015.0 0
188740.0 456027.0 0
192524.0 456032.0 0
196304.0 456034.0 0
200081.0 456029.0 0
203853.0 456014.0 0
207615.0 455987.0 0
211366.0 455946.0 0
215102.0 455894.0 0
218823.0 455834.0 0
222530.0 455772.0 0
226222.0 455713.0 0
229903.0 455662.0 0
233573.0 455623.0 0
237235.0 455598.0 0
240889.0 455587.0 0
244536.0 455593.0 0
248174.0 455617.0 0
251803.0 455664.0 0
255422.0 455743.0 0
259035.0 455862.0 0
262648.0 456024.0 0
266268.0 456226.0 0
269900.0 456461.0 0
273546.0 456716.0 0
277210.0 456982.0 0
290063.0 454747.0 0
293794.0 454983.0 0
297544.0 455182.0 0
301305.0 455344.0 0
305070.0 455473.0 0
308833.0 455575.0 0
312588.0 455654.0 0
316333.0 455715.0 0
320066.0 455767.0 0
323786.0 455823.0 0
327494.0 455910.0 0
331220.0 455997.0 0
334978.0 456052.0 0
338762.0 456070.0 0
342554.0 456081.0 0
346333.0 456145.0 0
350177.0 456121.0 0
353781.0 456835.0 0
357627.0 457103.0 0
372567.0 457291.0 0
376006.0 457508.0 0
379759.0 457130.0 0
383287.0 456300.0 0
386779.0 455394.0 0
389548.0 457875.0 0
393121.0 456800.0 0
399664.0 457744.0 0
403313.0 456257.0 0
407161.0 458239.0 0
410401.0 456790.0 0
417030.0 457529.0 0
420327.0 456070.0 0
423652.0 458218.0 0
426947.0 456665.0 0
68422.4 459564.0 0
75094.0 459006.0 0
78439.9 460507.0 0
81751.1 458325.0 0
85111.4 459739.0 0
91782.6 458918.0 0
95197.9 460279.0 0
101860.0 459462.0 0
108483.0 458646.0 0
111944.0 459993.0 0
118483.0 459130.0 0
121914.0 460395.0 0
128293.0 459066.0 0
131696.0 460047.0 0
135144.0 460960.0 0
138543.0 459941.0 0
144969.0 458238.0 0
148439.0 457208.0 0
152161.0 457685.0 0
155917.0 457980.0 0
159702.0 458251.0 0
163512.0 458485.0 0
167337.0 458674.0 0
171167.0 458820.0 0
174996.0 458927.0 0
178819.0 459001.0 0
182635.0 459049.0 0
186443.0 459079.0 0
190244.0 459098.0 0
194041.0 459110.0 0
197833.0 459117.0 0
201620.0 459117.0 0
205400.0 459109.0 0
209170.0 459090.0 0
212929.0 459061.0 0
216674.0 459024.0 0
220406.0 458982.0 0
224125.0 458941.0 0
227831.0 458903.0 0
231526.0 458873.0 0
235212.0 458855.0 0
238889.0 458849.0 0
242558.0 458858.0 0
246220.0 458884.0 0
249873.0 458930.0 0
253518.0 459002.0 0
257157.0 459104.0 0
260794.0 459242.0 0
264435.0 459415.0 0
280891.0 457250.0 0
284592.0 457511.0 0
288311.0 457759.0 0
292050.0 457984.0 0
295806.0 458181.0 0
299575.0 458347.0 0
303350.0 458486.0 0
307125.0 458600.0 0
310897.0 458694.0 0
314662.0 458770.0 0
318417.0 458834.0 0
322162.0 458895.0 0
325897.0 458965.0 0
329637.0 459032.0 0
333391.0 459080.0 0
337156.0 459103.0 0
340924.0 459115.0 0
344684.0 459150.0 0
348454.0 459180.0 0
352117.0 459513.0 0
355929.0 459933.0 0
361481.0 457657.0 0
365016.0 457844.0 0
368882.0 457813.0 0
378468.0 460192.0 0
382270.0 459626.0 0
385934.0 458808.0 0
392236.0 460366.0 0
395950.0 459167.0 0
400828.0 461000.0 0
403973.0 459646.0 0
410418.0 460392.0 0
413719.0 458960.0 0
420331.0 459721.0 0
426964.0 460369.0 0
430287.0 458758.0 0
433622.0 460846.0 0
65059.2 461671.0 0
68425.7 463311.0 0
71760.0 461159.0 0
75130.4 462700.0 0
81820.1 461964.0 0
85238.5 463354.0 0
88512.1 461118.0 0
91951.8 462480.0 0
98645.0 461640.0 0
102125.0 462999.0 0
105318.0 460816.0 0
108807.0 462168.0 0
115438.0 461346.0 0
118949.0 462712.0 0
125346.0 461522.0 0
128822.0 462501.0 0
132419.0 463344.0 0
142248.0 460757.0 0
146097.0 461106.0 0
149733.0 460665.0 0
153523.0 460956.0 0
157325.0 461208.0 0
161139.0 461436.0 0
164966.0 461632.0 0
168804.0 461793.0 0
172645.0 461920.0 0
176483.0 462016.0 0
180315.0 462085.0 0
184140.0 462133.0 0
187960.0 462168.0 0
191773.0 462193.0 0
195581.0 462212.0 0
199383.0 462224.0 0
203179.0 462231.0 0
206968.0 462230.0 0
210746.0 462220.0 0
214514.0 462204.0 0
218269.0 462182.0 0
222012.0 462157.0 0
225743.0 462134.0 0
229462.0 462116.0 0
233171.0 462106.0 0
236871.0 462107.0 0
240563.0 462120.0 0
244248.0 462148.0 0
268083.0 459619.0 0
271744.0 459845.0 0
275420.0 460084.0 0
279112.0 460328.0 0
282822.0 460570.0 0
286550.0 460801.0 0
290297.0 461016.0 0
294060.0 461208.0 0
297836.0 461375.0 0
301619.0 461520.0 0
305406.0 461642.0 0
309192.0 461746.0 0
312974.0 461834.0 0
316750.0 461909.0 0
320519.0 461976.0 0
324280.0 462041.0 0
328039.0 462100.0 0
331803.0 462145.0 0
335569.0 462171.0 0
339332.0 462185.0 0
343087.0 462204.0 0
346837.0 462231.0 0
350546.0 462397.0 0
354289.0 462667.0 0
359522.0 460585.0 0
363323.0 460848.0 0
367153.0 460787.0 0
371006.0 460588.0 0
374663.0 460482.0 0
380953.0 462819.0 0
384783.0 462179.0 0
388519.0 461344.0 0
397648.0 462206.0 0
403788.0 463277.0 0
407113.0 461842.0 0
413635.0 462619.0 0
416990.0 461181.0 0
420241.0 463424.0 0
423615.0 461922.0 0
430268.0 462513.0 0
436954.0 462934.0 0
58332.3 465884.0 0
61696.4 463777.0 0
65092.4 465462.0 0
71820.7 464903.0 0
78534.8 464195.0 0
81973.0 465646.0 0
88701.1 464713.0 0
95419.6 463841.0 0
98916.4 465201.0 0
105636.0 464353.0 0
109181.0 465702.0 0
112338.0 463523.0 0
115912.0 464901.0 0
122467.0 464007.0 0
126022.0 465050.0 0
129789.0 465838.0 0
136219.0 463796.0 0
139795.0 463476.0 0
143635.0 463900.0 0
147513.0 464047.0 0
151207.0 463993.0 0
154985.0 464212.0 0
158792.0 464427.0 0
162618.0 464621.0 0
166457.0 464789.0 0
170303.0 464929.0 0
174151.0 465041.0 0
247924.0 462194.0 0
251594.0 462261.0 0
255258.0 462352.0 0
258919.0 462473.0 0
262581.0 462623.0 0
266249.0 462800.0 0
269926.0 463000.0 0
273616.0 463215.0 0
277320.0 463437.0 0
281041.0 463659.0 0
284778.0 463874.0 0
288533.0 464077.0 0
292303.0 464263.0 0
296085.0 464429.0 0
299877.0 464575.0 0
303674.0 464703.0 0
307473.0 464814.0 0
311270.0 464909.0 0
357799.0 463778.0 0
361599.0 463836.0 0
365493.0 463838.0 0
369374.0 463693.0 0
373211.0 463559.0 0
377068.0 463267.0 0
387219.0 464844.0 0
390864.0 464021.0 0
394345.0 463174.0 0
396898.0 465858.0 0
400394.0 464640.0 0
406843.0 465488.0 0
410258.0 464053.0 0
413417.0 466314.0 0
416844.0 464884.0 0
423485.0 465676.0 0
426890.0 464124.0 0
433569.0 464649.0 0
440289.0 465022.0 0
54962.4 467994.0 0
61756.5 467610.0 0
68515.8 467104.0 0
75247.0 466434.0 0
78709.2 467921.0 0
85451.9 466989.0 0
88965.1 468334.0 0
92191.6 466069.0 0
95704.7 467429.0 0
102443.0 466561.0 0
105993.0 467910.0 0
112765.0 467055.0 0
116395.0 468446.0 0
119526.0 466337.0 0
123183.0 467663.0 0
127188.0 468377.0 0
133660.0 466447.0 0
137555.0 466732.0 0
141263.0 466781.0 0
145097.0 467033.0 0
148912.0 467185.0 0
152666.0 467275.0 0
177995.0 465128.0 0
181836.0 465193.0 0
185672.0 465243.0 0
189502.0 465281.0 0
193326.0 465312.0 0
197144.0 465337.0 0
200956.0 465356.0 0
204761.0 465369.0 0
208557.0 465376.0 0
212344.0 465377.0 0
216121.0 465373.0 0
219886.0 465366.0 0
223640.0 465358.0 0
227382.0 465352.0 0
231115.0 465352.0 0
234838.0 465360.0 0
238552.0 465379.0 0
242259.0 465410.0 0
245958.0 465456.0 0
249651.0 465520.0 0
253339.0 465605.0 0
257024.0 465713.0 0
260708.0 465845.0 0
264396.0 466002.0 0
268090.0 466179.0 0
271795.0 466371.0 0
275513.0 466572.0 0
279245.0 466776.0 0
282992.0 466976.0 0
286754.0 467167.0 0
290532.0 467344.0 0
294321.0 467507.0 0
315065.0 464992.0 0
318855.0 465065.0 0
322641.0 465132.0 0
326423.0 465190.0 0
330205.0 465235.0 0
333986.0 465265.0 0
337761.0 465281.0 0
341529.0 465292.0 0
345291.0 465303.0 0
349040.0 465367.0 0
352816.0 465498.0 0
356152.0 467071.0 0
359976.0 466977.0 0
363859.0 466910.0 0
367773.0 466796.0 0
371670.0 466636.0 0
375589.0 466375.0 0
379513.0 465980.0 0
383430.0 465492.0 0
389709.0 467613.0 0
393345.0 466815.0 0
399758.0 468211.0 0
403357.0 466891.0 0
406414.0 469119.0 0
409949.0 467728.0 0
416588.0 468620.0 0
420053.0 467173.0 0
426726.0 467930.0 0
430160.0 466319.0 0
433434.0 468499.0 0
436874.0 466777.0 0
440191.0 468899.0 0
443634.0 467116.0 0
51585.7 470108.0 0
58415.4 469758.0 0
65210.1 469298.0 0
68687.2 470945.0 0
71963.3 468694.0 0
75441.3 470206.0 0
82197.4 469374.0 0
85742.7 470643.0 0
92496.5 469689.0 0
96051.0 471047.0 0
99242.7 468791.0 0
102800.0 470150.0 0
109561.0 469249.0 0
113154.0 470585.0 0
120060.0 469995.0 0
124745.0 470990.0 0
131104.0 469056.0 0
135025.0 469553.0 0
138889.0 469857.0 0
142686.0 470020.0 0
156462.0 467461.0 0
160283.0 467645.0 0
164121.0 467813.0 0
167969.0 467960.0 0
171824.0 468083.0 0
175680.0 468182.0 0
179534.0 468262.0 0
183384.0 468325.0 0
187229.0 468377.0 0
191068.0 468420.0 0
194902.0 468456.0 0
198729.0 468486.0 0
202550.0 468512.0 0
206363.0 468533.0 0
210168.0 468549.0 0
213964.0 468560.0 0
217749.0 468568.0 0
221524.0 468575.0 0
225289.0 468582.0 0
229044.0 468593.0 0
232789.0 468610.0 0
236525.0 468635.0 0
240254.0 468670.0 0
243975.0 468718.0 0
247691.0 468781.0 0
251401.0 468860.0 0
255108.0 468959.0 0
258814.0 469079.0 0
262522.0 469219.0 0
266235.0 469377.0 0
269956.0 469550.0 0
273687.0 469732.0 0
277431.0 469919.0 0
298121.0 467653.0 0
301927.0 467783.0 0
305737.0 467898.0 0
309549.0 467999.0 0
313361.0 468088.0 0
317171.0 468166.0 0
320979.0 468235.0 0
324785.0 468295.0 0
328590.0 468342.0 0
332393.0 468376.0 0
336193.0 468395.0 0
339986.0 468402.0 0
343775.0 468399.0 0
347562.0 468400.0 0
351378.0 468407.0 0
358366.0 470205.0 0
362264.0 470054.0 0
366198.0 469923.0 0
370125.0 469757.0 0
374062.0 469506.0 0
378010.0 469152.0 0
381960.0 468704.0 0
385928.0 468275.0 0
396074.0 469478.0 0
399079.0 471738.0 0
402792.0 470462.0 0
409525.0 471398.0 0
413084.0 470028.0 0
419770.0 470957.0 0
423265.0 469477.0 0
429971.0 470174.0 0
436721.0 470662.0 0
443522.0 471030.0 0
446987.0 469216.0 0
450351.0 471321.0 0
48202.7 472227.0 0
55066.0 471908.0 0
58576.1 473671.0 0
61898.5 471485.0 0
65407.7 473179.0 0
72183.8 472536.0 0
78954.4 471684.0 0
82475.0 473155.0 0
89292.7 471986.0 0
92860.7 473337.0 0
99626.8 472412.0 0
103211.0 473790.0 0
106359.0 471502.0 0
109898.0 472831.0 0
116784.0 471959.0 0
121956.0 473222.0 0
128622.0 471702.0 0
132509.0 472308.0 0
136399.0 472759.0 0
146512.0 470234.0 0
150327.0 470399.0 0
154128.0 470537.0 0
157951.0 470704.0 0
161791.0 470867.0 0
165644.0 471015.0 0
169505.0 471144.0 0
173370.0 471252.0 0
177235.0 471343.0 0
181097.0 471418.0 0
184956.0 471481.0 0
188810.0 471535.0 0
192658.0 471582.0 0
196501.0 471623.0 0
200336.0 471660.0 0
204165.0 471693.0 0
207987.0 471721.0 0
211800.0 471746.0 0
215604.0 471768.0 0
219399.0 471788.0 0
223184.0 471808.0 0
226960.0 471830.0 0
230726.0 471856.0 0
234484.0 471888.0 0
238234.0 471929.0 0
241977.0 471980.0 0
245713.0 472042.0 0
249445.0 472120.0 0
253174.0 472212.0 0
256901.0 472322.0 0
260628.0 472449.0 0
264359.0 472592.0 0
281189.0 470104.0 0
284960.0 470283.0 0
288745.0 470453.0 0
292542.0 470610.0 0
296349.0 470753.0 0
300164.0 470883.0 0
303985.0 471000.0 0
307810.0 471104.0 0
311636.0 471197.0 0
315464.0 471279.0 0
319292.0 471351.0 0
323121.0 471413.0 0
326949.0 471463.0 0
330778.0 471499.0 0
334606.0 471521.0 0
338432.0 471528.0 0
342258.0 471516.0 0
346089.0 471481.0 0
349945.0 471403.0 0
354504.0 470397.0 0
368587.0 472925.0 0
372533.0 472686.0 0
376481.0 472358.0 0
380423.0 471946.0 0
384354.0 471478.0 0
388554.0 471106.0 0
392367.0 470406.0 0
402210.0 474007.0 0
405901.0 472725.0 0
412653.0 473746.0 0
416235.0 472379.0 0
422958.0 473317.0 0
426481.0 471783.0 0
433226.0 472396.0 0
440034.0 472811.0 0
446865.0 473162.0 0
453726.0 473434.0 0
51708.2 474063.0 0
55241.8 475861.0 0
62115.8 475400.0 0
68935.8 474838.0 0
75715.5 474006.0 0
79255.8 475491.0 0
86089.9 474324.0 0
89671.5 475667.0 0
96453.9 474692.0 0
100071.0 476068.0 0
106782.0 475164.0 0
110326.0 476516.0 0
113384.0 474129.0 0
116769.0 475406.0 0
126168.0 474391.0 0
130025.0 475086.0 0
140266.0 473059.0 0
144100.0 473269.0 0
147940.0 473472.0 0
151778.0 473641.0 0
155614.0 473792.0 0
159463.0 473948.0 0
163323.0 474094.0 0
167192.0 474225.0 0
171065.0 474340.0 0
174940.0 474439.0 0
178814.0 474523.0 0
182686.0 474596.0 0
186553.0 474660.0 0
190415.0 474717.0 0
194271.0 474768.0 0
198121.0 474815.0 0
201965.0 474858.0 0
205802.0 474897.0 0
209632.0 474934.0 0
213453.0 474968.0 0
217266.0 475001.0 0
221070.0 475032.0 0
224864.0 475065.0 0
228651.0 475101.0 0
232429.0 475140.0 0
236199.0 475187.0 0
268097.0 472749.0 0
271843.0 472915.0 0
275599.0 473086.0 0
279367.0 473258.0 0
283148.0 473426.0 0
286942.0 473586.0 0
290746.0 473737.0 0
294561.0 473877.0 0
298384.0 474006.0 0
302214.0 474122.0 0
306050.0 474227.0 0
309890.0 474322.0 0
313734.0 474406.0 0
317579.0 474479.0 0
321428.0 474543.0 0
325279.0 474595.0 0
329132.0 474635.0 0
332987.0 474659.0 0
336846.0 474665.0 0
340709.0 474648.0 0
344584.0 474598.0 0
348484.0 474483.0 0
352853.0 473740.0 0
356746.0 473485.0 0
360666.0 473257.0 0
364610.0 473069.0 0
374976.0 475614.0 0
378911.0 475230.0 0
382832.0 474779.0 0
386741.0 474247.0 0
391271.0 473919.0 0
395176.0 473147.0 0
398475.0 475242.0 0
405342.0 476331.0 0
409023.0 475064.0 0
415787.0 476153.0 0
419392.0 474770.0 0
426154.0 475680.0 0
429709.0 474079.0 0
432961.0 476343.0 0
436507.0 474583.0 0
439828.0 476740.0 0
443371.0 474988.0 0
450213.0 475294.0 0
58803.0 477621.0 0
65685.0 477102.0 0
69284.2 478794.0 0
72467.6 476441.0 0
76044.4 477844.0 0
82794.0 476991.0 0
86479.9 478034.0 0
93275.2 477009.0 0
96911.4 478359.0 0
103695.0 477487.0 0
107298.0 478891.0 0
113853.0 477817.0 0
117481.0 478939.0 0
120189.0 476256.0 0
123813.0 477092.0 0
127575.0 477914.0 0
133904.0 475624.0 0
137793.0 476022.0 0
141671.0 476312.0 0
145535.0 476534.0 0
149401.0 476729.0 0
153266.0 476897.0 0
157131.0 477049.0 0
161003.0 477194.0 0
164882.0 477327.0 0
168765.0 477446.0 0
172650.0 477551.0 0
176535.0 477643.0 0
180418.0 477724.0 0
184298.0 477797.0 0
188173.0 477862.0 0
192042.0 477922.0 0
195906.0 477978.0 0
239963.0 475241.0 0
243720.0 475306.0 0
247472.0 475382.0 0
251221.0 475471.0 0
254968.0 475574.0 0
258715.0 475692.0 0
262464.0 475823.0 0
266218.0 475966.0 0
269978.0 476118.0 0
273748.0 476275.0 0
277527.0 476435.0 0
281318.0 476592.0 0
285120.0 476744.0 0
288932.0 476889.0 0
292755.0 477025.0 0
296586.0 477150.0 0
300425.0 477265.0 0
304271.0 477370.0 0
308122.0 477464.0 0
311979.0 477549.0 0
315840.0 477623.0 0
319705.0 477687.0 0
323575.0 477741.0 0
327450.0 477782.0 0
331330.0 477808.0 0
335216.0 477815.0 0
339111.0 477797.0 0
343021.0 477741.0 0
346956.0 477621.0 0
351201.0 477089.0 0
355118.0 476808.0 0
359063.0 476508.0 0
363006.0 476273.0 0
366961.0 476064.0 0
371034.0 475920.0 0
381366.0 478130.0 0
385277.0 477624.0 0
389178.0 476991.0 0
393901.0 476730.0 0
397218.0 478592.0 0
401600.0 477566.0 0
408481.0 478740.0 0
412146.0 477473.0 0
418915.0 478608.0 0
422553.0 477191.0 0
429372.0 478027.0 0
436272.0 478540.0 0
62389.6 479348.0 0
65998.2 481050.0 0
79588.9 479346.0 0
83141.4 480872.0 0
90086.3 479372.0 0
93721.0 480697.0 0
100576.0 479746.0 0
104234.0 481241.0 0
110923.0 480252.0 0
114597.0 481464.0 0
121217.0 479784.0 0
131423.0 478511.0 0
135314.0 478970.0 0
139218.0 479322.0 0
143117.0 479595.0 0
147011.0 479813.0 0
150903.0 480001.0 0
154792.0 480165.0 0
158681.0 480312.0 0
162574.0 480448.0 0
166468.0 480571.0 0
199764.0 478030.0 0
203616.0 478079.0 0
207460.0 478126.0 0
211297.0 478171.0 0
215126.0 478214.0 0
218947.0 478257.0 0
222760.0 478300.0 0
226565.0 478344.0 0
230362.0 478392.0 0
234151.0 478445.0 0
237934.0 478504.0 0
241711.0 478571.0 0
245483.0 478648.0 0
249252.0 478735.0 0
253017.0 478834.0 0
256783.0 478944.0 0
260549.0 479066.0 0
264319.0 479199.0 0
268094.0 479339.0 0
271877.0 479485.0 0
275668.0 479634.0 0
279469.0 479781.0 0
283280.0 479925.0 0
287100.0 480064.0 0
290931.0 480194.0 0
294770.0 480316.0 0
298617.0 480429.0 0
302471.0 480532.0 0
349515.0 480423.0 0
353470.0 480170.0 0
357475.0 479788.0 0
361422.0 479527.0 0
365358.0 479288.0 0
369304.0 479043.0 0
373525.0 478925.0 0
377448.0 478560.0 0
387757.0 480468.0 0
391639.0 479769.0 0
397668.0 482127.0 0
401213.0 481124.0 0
404812.0 479947.0 0
411547.0 481225.0 0
415242.0 479946.0 0
422039.0 481100.0 0
425726.0 479610.0 0
439640.0 480686.0 0
76079.2 481741.0 0
79788.2 483244.0 0
86905.1 481785.0 0
90544.9 483100.0 0
97378.3 482032.0 0
101051.0 483413.0 0
107939.0 482632.0 0
111694.0 483999.0 0
118359.0 482431.0 0
122152.0 483226.0 0
125047.0 480758.0 0
128921.0 481429.0 0
132832.0 481933.0 0
136759.0 482328.0 0
140688.0 482643.0 0
144614.0 482896.0 0
148533.0 483105.0 0
170364.0 480681.0 0
174260.0 480779.0 0
178155.0 480867.0 0
182046.0 480947.0 0
185933.0 481020.0 0
189815.0 481087.0 0
193692.0 481151.0 0
197563.0 481211.0 0
201428.0 481269.0 0
205286.0 481325.0 0
209138.0 481379.0 0
212982.0 481432.0 0
216819.0 481484.0 0
220648.0 481536.0 0
224470.0 481590.0 0
228285.0 481645.0 0
232092.0 481704.0 0
235893.0 481769.0 0
239689.0 481839.0 0
243479.0 481917.0 0
247266.0 482004.0 0
251050.0 482100.0 0
254832.0 482206.0 0
258615.0 482322.0 0
262401.0 482446.0 0
266191.0 482577.0 0
269986.0 482714.0 0
273789.0 482853.0 0
277600.0 482992.0 0
306332.0 480626.0 0
310200.0 480710.0 0
314074.0 480784.0 0
317953.0 480848.0 0
321839.0 480901.0 0
325732.0 480943.0 0
329632.0 480970.0 0
333541.0 480980.0 0
337460.0 480964.0 0
341394.0 480910.0 0
345351.0 480797.0 0
355928.0 483073.0 0
359864.0 482815.0 0
363786.0 482571.0 0
367710.0 482310.0 0
371643.0 482010.0 0
376045.0 481943.0 0
379950.0 481528.0 0
383855.0 481045.0 0
394018.0 482650.0 0
400414.0 484776.0 0
404140.0 483656.0 0
407841.0 482455.0 0
414589.0 483760.0 0
418324.0 482466.0 0
76603.6 485654.0 0
83467.8 484786.0 0
87339.5 485599.0 0
94202.3 484411.0 0
97881.9 485727.0 0
101598.0 487063.0 0
104906.0 485029.0 0
108657.0 486362.0 0
115509.0 485090.0 0
119336.0 485941.0 0
126436.0 484383.0 0
130367.0 484923.0 0
134314.0 485350.0 0
138265.0 485695.0 0
152447.0 483285.0 0
156357.0 483443.0 0
160266.0 483584.0 0
164174.0 483711.0 0
168083.0 483826.0 0
171990.0 483930.0 0
175896.0 484025.0 0
179798.0 484111.0 0
183697.0 484190.0 0
187591.0 484265.0 0
191479.0 484335.0 0
195363.0 484402.0 0
199240.0 484468.0 0
203111.0 484531.0 0
206976.0 484593.0 0
210835.0 484655.0 0
214686.0 484716.0 0
218530.0 484776.0 0
222368.0 484838.0 0
226199.0 484901.0 0
230023.0 484967.0 0
233841.0 485036.0 0
237654.0 485111.0 0
241461.0 485192.0 0
245265.0 485279.0 0
249066.0 485374.0 0
252865.0 485477.0 0
256664.0 485588.0 0
281420.0 483128.0 0
285250.0 483260.0 0
289088.0 483386.0 0
292934.0 483504.0 0
296789.0 483614.0 0
300651.0 483715.0 0
304521.0 483807.0 0
308398.0 483890.0 0
312282.0 483963.0 0
316173.0 484026.0 0
320072.0 484079.0 0
323978.0 484121.0 0
327894.0 484149.0 0
331820.0 484160.0 0
335757.0 484148.0 0
339709.0 484102.0 0
343679.0 484003.0 0
347768.0 483746.0 0
351738.0 483540.0 0
366139.0 485637.0 0
370061.0 485332.0 0
373992.0 484962.0 0
378588.0 484978.0 0
382476.0 484515.0 0
386361.0 483977.0 0
390226.0 483356.0 0
396591.0 485637.0 0
403269.0 487364.0 0
407071.0 486210.0 0
410841.0 485004.0 0
417615.0 486349.0 0
80292.8 487177.0 0
91043.2 486856.0 0
94735.7 488148.0 0
98437.3 489433.0 0
112712.0 487770.0 0
123248.0 486553.0 0
127956.0 487971.0 0
142217.0 485978.0 0
146162.0 486211.0 0
150100.0 486410.0 0
154032.0 486581.0 0
157960.0 486732.0 0
161884.0 486867.0 0
165806.0 486988.0 0
169726.0 487098.0 0
173643.0 487198.0 0
177556.0 487290.0 0
181465.0 487375.0 0
185370.0 487456.0 0
189270.0 487532.0 0
193165.0 487605.0 0
197054.0 487677.0 0
200937.0 487747.0 0
204815.0 487817.0 0
208686.0 487885.0 0
212550.0 487954.0 0
216408.0 488022.0 0
220260.0 488091.0 0
224105.0 488161.0 0
227945.0 488233.0 0
260465.0 485706.0 0
264269.0 485831.0 0
268077.0 485959.0 0
271891.0 486091.0 0
275713.0 486222.0 0
279542.0 486352.0 0
283380.0 486479.0 0
287226.0 486600.0 0
291080.0 486714.0 0
294942.0 486821.0 0
298812.0 486920.0 0
302689.0 487010.0 0
306574.0 487091.0 0
310466.0 487163.0 0
314366.0 487225.0 0
318275.0 487276.0 0
322192.0 487317.0 0
326119.0 487345.0 0
330056.0 487358.0 0
334006.0 487351.0 0
337970.0 487316.0 0
341949.0 487237.0 0
345977.0 487066.0 0
349952.0 486908.0 0
354350.0 486333.0 0
358296.0 486121.0 0
362221.0 485893.0 0
372437.0 488326.0 0
376361.0 487918.0 0
381146.0 488028.0 0
385032.0 487516.0 0
388911.0 486927.0 0
392785.0 486288.0 0
406200.0 489981.0 0
410041.0 488804.0 0
413839.0 487598.0 0
86591.2 489440.0 0
91628.7 490641.0 0
95381.3 491914.0 0
102094.0 490748.0 0
105654.0 488835.0 0
109585.0 490065.0 0
116566.0 488760.0 0
120593.0 489365.0 0
124550.0 489837.0 0
131905.0 488406.0 0
135867.0 488769.0 0
139834.0 489071.0 0
143800.0 489325.0 0
147759.0 489541.0 0
151712.0 489728.0 0
155658.0 489891.0 0
159599.0 490035.0 0
163535.0 490164.0 0
167468.0 490281.0 0
171396.0 490387.0 0
175320.0 490485.0 0
179240.0 490576.0 0
183155.0 490662.0 0
187065.0 490743.0 0
190970.0 490822.0 0
194870.0 490899.0 0
198765.0 490975.0 0
231778.0 488308.0 0
235607.0 488387.0 0
239431.0 488471.0 0
243251.0 488560.0 0
247068.0 488656.0 0
250882.0 488757.0 0
254697.0 488866.0 0
258511.0 488980.0 0
262329.0 489099.0 0
266149.0 489221.0 0
269975.0 489347.0 0
273807.0 489472.0 0
277646.0 489596.0 0
281492.0 489718.0 0
285345.0 489834.0 0
289207.0 489945.0 0
293076.0 490049.0 0
296952.0 490146.0 0
300837.0 490234.0 0
304728.0 490313.0 0
308628.0 490383.0 0
312535.0 490444.0 0
316451.0 490495.0 0
320375.0 490534.0 0
324310.0 490562.0 0
328255.0 490577.0 0
332211.0 490574.0 0
336181.0 490549.0 0
340164.0 490493.0 0
344158.0 490384.0 0
348131.0 490268.0 0
352721.0 489576.0 0
356679.0 489421.0 0
360623.0 489229.0 0
364557.0 488999.0 0
368488.0 488705.0 0
378749.0 490890.0 0
383720.0 491086.0 0
387614.0 490528.0 0
391513.0 489859.0 0
395482.0 489220.0 0
399386.0 488376.0 0
409160.0 492621.0 0
413004.0 491459.0 0
88411.8 492957.0 0
92392.4 494470.0 0
99091.7 493216.0 0
105265.0 492662.0 0
108767.0 493780.0 0
113781.0 491548.0 0
118090.0 492284.0 0
122044.0 492783.0 0
126007.0 493127.0 0
129560.0 491529.0 0
133513.0 491885.0 0
137483.0 492192.0 0
141459.0 492456.0 0
145435.0 492686.0 0
149404.0 492886.0 0
153367.0 493061.0 0
157324.0 493216.0 0
161273.0 493355.0 0
165218.0 493479.0 0
169157.0 493592.0 0
202653.0 491050.0 0
206536.0 491125.0 0
210413.0 491201.0 0
214283.0 491276.0 0
218148.0 491351.0 0
222007.0 491428.0 0
225860.0 491506.0 0
229708.0 491586.0 0
233551.0 491669.0 0
237389.0 491756.0 0
241224.0 491848.0 0
245056.0 491944.0 0
248885.0 492046.0 0
252713.0 492153.0 0
256542.0 492265.0 0
260372.0 492380.0 0
264204.0 492499.0 0
268041.0 492619.0 0
271883.0 492740.0 0
275731.0 492859.0 0
279585.0 492976.0 0
283447.0 493089.0 0
287315.0 493197.0 0
291191.0 493298.0 0
295074.0 493393.0 0
298965.0 493479.0 0
351032.0 492818.0 0
355000.0 492714.0 0
358965.0 492565.0 0
362924.0 492372.0 0
366885.0 492118.0 0
370898.0 491705.0 0
374842.0 491335.0 0
390259.0 493500.0 0
394140.0 492749.0 0
398322.0 492002.0 0
402299.0 491052.0 0
89245.5 496856.0 0
96162.7 495733.0 0
102360.0 495227.0 0
106036.0 496507.0 0
112132.0 495074.0 0
115840.0 495389.0 0
119679.0 495834.0 0
131219.0 495066.0 0
135177.0 495358.0 0
139154.0 495618.0 0
143136.0 495852.0 0
147117.0 496060.0 0
173091.0 493696.0 0
177021.0 493793.0 0
180946.0 493883.0 0
184865.0 493969.0 0
188780.0 494053.0 0
192690.0 494134.0 0
196595.0 494215.0 0
200494.0 494296.0 0
204388.0 494376.0 0
208275.0 494457.0 0
212157.0 494539.0 0
216033.0 494620.0 0
219904.0 494702.0 0
223769.0 494786.0 0
227630.0 494870.0 0
231486.0 494958.0 0
235338.0 495048.0 0
239187.0 495143.0 0
243032.0 495241.0 0
246875.0 495344.0 0
250716.0 495451.0 0
254557.0 495562.0 0
258399.0 495675.0 0
262243.0 495791.0 0
266090.0 495908.0 0
269942.0 496024.0 0
302863.0 493557.0 0
306768.0 493626.0 0
310681.0 493685.0 0
314602.0 493735.0 0
318532.0 493774.0 0
322471.0 493802.0 0
326420.0 493817.0 0
330380.0 493819.0 0
334350.0 493802.0 0
338330.0 493765.0 0
342314.0 493699.0 0
346285.0 493622.0 0
349286.0 496072.0 0
353259.0 496007.0 0
357236.0 495897.0 0
361213.0 495745.0 0
365188.0 495543.0 0
369373.0 495085.0 0
373321.0 494752.0 0
377261.0 494376.0 0
381153.0 493874.0 0
386392.0 494193.0 0
392986.0 496406.0 0
396869.0 495540.0 0
401198.0 494738.0 0
405219.0 493727.0 0
93282.5 498324.0 0
99457.2 497856.0 0
103197.0 499110.0 0
123607.0 496195.0 0
127565.0 496451.0 0
132920.0 498586.0 0
151092.0 496246.0 0
155061.0 496412.0 0
159023.0 496560.0 0
162978.0 496693.0 0
166928.0 496814.0 0
170872.0 496924.0 0
174811.0 497026.0 0
178744.0 497122.0 0
182673.0 497212.0 0
186597.0 497299.0 0
190515.0 497385.0 0
194429.0 497469.0 0
198338.0 497554.0 0
202241.0 497639.0 0
206139.0 497725.0 0
210031.0 497812.0 0
213917.0 497899.0 0
217798.0 497987.0 0
221675.0 498075.0 0
225547.0 498164.0 0
229415.0 498255.0 0
233279.0 498349.0 0
237140.0 498446.0 0
240998.0 498547.0 0
244853.0 498651.0 0
273798.0 496140.0 0
277661.0 496254.0 0
281530.0 496364.0 0
285406.0 496469.0 0
289288.0 496568.0 0
293178.0 496660.0 0
297074.0 496745.0 0
300977.0 496822.0 0
304888.0 496890.0 0
308806.0 496949.0 0
312732.0 496998.0 0
316666.0 497037.0 0
320608.0 497065.0 0
324559.0 497082.0 0
328520.0 497086.0 0
332489.0 497077.0 0
336464.0 497053.0 0
340443.0 497015.0 0
344413.0 496970.0 0
367789.0 498440.0 0
371765.0 498182.0 0
375721.0 497832.0 0
379703.0 497440.0 0
383604.0 496832.0 0
389126.0 497222.0 0
399641.0 498314.0 0
404078.0 497473.0 0
408120.0 496436.0 0
90196.0 500744.0 0
96571.0 500542.0 0
100358.0 501757.0 0
109538.0 498128.0 0
113399.0 498688.0 0
117307.0 498983.0 0
121252.0 499323.0 0
125218.0 499605.0 0
129183.0 499800.0 0
136888.0 498825.0 0
140870.0 499050.0 0
144855.0 499259.0 0
148838.0 499451.0 0
152816.0 499625.0 0
156787.0 499782.0 0
160752.0 499924.0 0
164710.0 500052.0 0
168663.0 500170.0 0
172611.0 500277.0 0
176552.0 500378.0 0
180489.0 500472.0 0
184421.0 500563.0 0
188347.0 500651.0 0
192269.0 500739.0 0
196186.0 500827.0 0
200098.0 500916.0 0
204005.0 501006.0 0
207906.0 501098.0 0
211802.0 501190.0 0
215692.0 501282.0 0
248707.0 498759.0 0
252559.0 498870.0 0
256412.0 498983.0 0
260266.0 499097.0 0
264123.0 499211.0 0
267984.0 499326.0 0
271849.0 499439.0 0
275720.0 499550.0 0
279596.0 499657.0 0
283479.0 499760.0 0
287367.0 499857.0 0
291263.0 499948.0 0
295165.0 500032.0 0
299073.0 500108.0 0
302989.0 500176.0 0
306912.0 500234.0 0
310841.0 500284.0 0
314779.0 500323.0 0
318723.0 500351.0 0
322676.0 500369.0 0
326636.0 500377.0 0
330603.0 500373.0 0
334576.0 500359.0 0
338551.0 500337.0 0
342520.0 500314.0 0
347487.0 499347.0 0
351462.0 499309.0 0
355445.0 499230.0 0
359432.0 499117.0 0
363416.0 498966.0 0
374127.0 501324.0 0
378093.0 500906.0 0
382266.0 500469.0 0
386172.0 499734.0 0
391868.0 500132.0 0
395759.0 499250.0 0
402463.0 501073.0 0
406856.0 500298.0 0
93503.3 503056.0 0
97522.5 504480.0 0
106705.0 500934.0 0
110921.0 501827.0 0
114968.0 502202.0 0
118934.0 502499.0 0
122911.0 502790.0 0
126892.0 503019.0 0
130872.0 503170.0 0
134666.0 502089.0 0
138640.0 502291.0 0
142623.0 502490.0 0
146608.0 502680.0 0
150591.0 502859.0 0
154569.0 503024.0 0
158541.0 503173.0 0
162506.0 503309.0 0
166467.0 503433.0 0
170422.0 503547.0 0
174371.0 503652.0 0
178315.0 503751.0 0
182254.0 503845.0 0
186188.0 503936.0 0
190117.0 504026.0 0
219578.0 501375.0 0
223460.0 501468.0 0
227338.0 501562.0 0
231214.0 501659.0 0
235086.0 501758.0 0
238955.0 501861.0 0
242822.0 501968.0 0
246686.0 502078.0 0
250549.0 502190.0 0
254411.0 502303.0 0
258275.0 502417.0 0
262141.0 502530.0 0
266010.0 502643.0 0
269884.0 502754.0 0
273762.0 502863.0 0
277645.0 502968.0 0
281534.0 503070.0 0
285429.0 503166.0 0
289330.0 503256.0 0
293238.0 503339.0 0
297152.0 503415.0 0
301072.0 503483.0 0
304999.0 503542.0 0
308932.0 503591.0 0
312872.0 503631.0 0
316819.0 503661.0 0
320773.0 503681.0 0
324733.0 503690.0 0
328699.0 503691.0 0
332670.0 503683.0 0
336642.0 503671.0 0
340611.0 503661.0 0
345642.0 502647.0 0
349618.0 502626.0 0
353605.0 502571.0 0
357595.0 502488.0 0
361583.0 502381.0 0
366122.0 501785.0 0
370108.0 501587.0 0
380531.0 503936.0 0
384927.0 503433.0 0
388831.0 502615.0 0
394622.0 502993.0 0
398542.0 502096.0 0
103819.0 503757.0 0
108084.0 504640.0 0
112630.0 505397.0 0
116638.0 505720.0 0
120624.0 505997.0 0
124631.0 506256.0 0
136446.0 505582.0 0
140422.0 505758.0 0
144406.0 505939.0 0
148391.0 506117.0 0
152372.0 506287.0 0
156347.0 506444.0 0
160318.0 506587.0 0
194041.0 504116.0 0
197960.0 504208.0 0
201875.0 504301.0 0
205784.0 504397.0 0
209688.0 504493.0 0
213587.0 504590.0 0
217481.0 504687.0 0
221372.0 504784.0 0
225259.0 504882.0 0
229143.0 504980.0 0
233025.0 505081.0 0
236905.0 505186.0 0
240782.0 505295.0 0
244656.0 505408.0 0
248528.0 505522.0 0
252399.0 505636.0 0
256271.0 505751.0 0
260145.0 505864.0 0
264022.0 505976.0 0
267903.0 506086.0 0
271788.0 506194.0 0
275678.0 506298.0 0
279573.0 506398.0 0
283474.0 506494.0 0
343762.0 505976.0 0
347738.0 505963.0 0
351726.0 505925.0 0
355717.0 505865.0 0
359706.0 505789.0 0
364375.0 505132.0 0
368370.0 504995.0 0
372386.0 504763.0 0
376555.0 504438.0 0
387619.0 506367.0 0
391552.0 505486.0 0
397333.0 505881.0 0
401289.0 505418.0 0
405053.0 504069.0 0
95113.6 507630.0 0
100982.0 506766.0 0
105276.0 507475.0 0
109817.0 508200.0 0
128633.0 506438.0 0
132618.0 506572.0 0
138250.0 509070.0 0
164284.0 506716.0 0
168245.0 506835.0 0
172202.0 506945.0 0
176153.0 507049.0 0
180099.0 507147.0 0
184038.0 507240.0 0
187973.0 507331.0 0
191903.0 507423.0 0
195829.0 507516.0 0
199750.0 507611.0 0
203666.0 507710.0 0
207577.0 507810.0 0
211483.0 507912.0 0
215385.0 508013.0 0
219283.0 508114.0 0
223178.0 508214.0 0
227070.0 508314.0 0
230960.0 508416.0 0
234849.0 508522.0 0
238735.0 508633.0 0
242618.0 508748.0 0
246498.0 508866.0 0
250376.0 508983.0 0
287381.0 506583.0 0
291293.0 506667.0 0
295212.0 506742.0 0
299137.0 506810.0 0
303068.0 506870.0 0
307005.0 506920.0 0
310949.0 506962.0 0
314898.0 506993.0 0
318853.0 507015.0 0
322814.0 507027.0 0
326780.0 507030.0 0
330750.0 507027.0 0
334721.0 507020.0 0
338692.0 507017.0 0
357800.0 509197.0 0
362559.0 508492.0 0
366554.0 508398.0 0
370619.0 508214.0 0
374764.0 507881.0 0
379028.0 507520.0 0
383092.0 506894.0 0
394252.0 508411.0 0
98434.5 509951.0 0
102592.0 510431.0 0
107044.0 511052.0 0
114364.0 508957.0 0
118370.0 509239.0 0
122363.0 509497.0 0
126414.0 509718.0 0
130417.0 509878.0 0
134400.0 510008.0 0
142229.0 509231.0 0
146213.0 509402.0 0
150195.0 509573.0 0
154173.0 509736.0 0
158146.0 509886.0 0
162116.0 510021.0 0
166082.0 510144.0 0
170045.0 510258.0 0
174004.0 510365.0 0
177956.0 510468.0 0
181902.0 510565.0 0
185841.0 510658.0 0
189776.0 510749.0 0
193706.0 510842.0 0
197631.0 510938.0 0
201552.0 511039.0 0
205469.0 511143.0 0
209382.0 511248.0 0
213290.0 511353.0 0
217195.0 511458.0 0
221097.0 511561.0 0
224997.0 511664.0 0
254255.0 509099.0 0
258136.0 509213.0 0
262020.0 509325.0 0
265908.0 509434.0 0
269799.0 509541.0 0
273695.0 509645.0 0
277596.0 509745.0 0
281503.0 509840.0 0
285415.0 509930.0 0
289332.0 510013.0 0
293256.0 510089.0 0
297185.0 510158.0 0
301120.0 510219.0 0
305061.0 510270.0 0
309008.0 510313.0 0
312960.0 510347.0 0
316918.0 510371.0 0
320880.0 510386.0 0
324846.0 510392.0 0
328816.0 510391.0 0
332789.0 510387.0 0
336762.0 510385.0 0
341854.0 509335.0 0
345832.0 509323.0 0
349819.0 509295.0 0
353810.0 509251.0 0
360693.0 511875.0 0
364689.0 511808.0 0
368773.0 511651.0 0
372992.0 511358.0 0
377198.0 510975.0 0
381598.0 510527.0 0
385707.0 509835.0 0
390346.0 509264.0 0
397969.0 509875.0 0
402121.0 509325.0 0
100132.0 513579.0 0
111560.0 511765.0 0
116133.0 512505.0 0
120125.0 512771.0 0
124169.0 512991.0 0
128232.0 513193.0 0
132226.0 513345.0 0
136209.0 513470.0 0
140072.0 512559.0 0
144055.0 512714.0 0
148037.0 512884.0 0
152015.0 513052.0 0
155991.0 513209.0 0
159964.0 513351.0 0
163933.0 513476.0 0
167902.0 513591.0 0
171868.0 513701.0 0
175827.0 513808.0 0
179779.0 513910.0 0
183724.0 514006.0 0
187662.0 514097.0 0
191594.0 514189.0 0
195522.0 514285.0 0
199446.0 514386.0 0
228893.0 511766.0 0
232789.0 511871.0 0
236683.0 511982.0 0
240574.0 512100.0 0
244460.0 512222.0 0
248345.0 512343.0 0
252229.0 512461.0 0
256116.0 512577.0 0
260006.0 512689.0 0
263899.0 512799.0 0
267796.0 512906.0 0
271697.0 513009.0 0
275604.0 513109.0 0
279515.0 513204.0 0
283432.0 513294.0 0
287354.0 513378.0 0
291282.0 513455.0 0
295216.0 513525.0 0
299155.0 513587.0 0
303100.0 513641.0 0
307050.0 513686.0 0
311006.0 513721.0 0
314967.0 513748.0 0
318931.0 513766.0 0
322900.0 513775.0 0
326872.0 513776.0 0
330846.0 513772.0 0
334823.0 513769.0 0
339926.0 512722.0 0
343906.0 512709.0 0
347892.0 512685.0 0
351883.0 512651.0 0
355874.0 512610.0 0
379735.0 514006.0 0
384205.0 513510.0 0
388399.0 512732.0 0
393026.0 512207.0 0
400676.0 513049.0 0
104383.0 514017.0 0
108806.0 514636.0 0
113334.0 515325.0 0
117894.0 516066.0 0
121942.0 516292.0 0
126008.0 516495.0 0
130066.0 516690.0 0
141913.0 516052.0 0
145892.0 516217.0 0
149870.0 516390.0 0
153849.0 516552.0 0
157827.0 516702.0 0
161801.0 516835.0 0
165771.0 516947.0 0
203366.0 514491.0 0
207283.0 514599.0 0
211197.0 514708.0 0
215109.0 514817.0 0
219018.0 514923.0 0
222925.0 515029.0 0
226828.0 515132.0 0
230729.0 515235.0 0
234628.0 515343.0 0
238526.0 515462.0 0
242418.0 515590.0 0
246306.0 515717.0 0
250194.0 515839.0 0
254085.0 515956.0 0
257980.0 516070.0 0
261877.0 516180.0 0
265779.0 516287.0 0
269685.0 516391.0 0
273596.0 516491.0 0
277512.0 516586.0 0
281433.0 516677.0 0
285360.0 516762.0 0
289292.0 516840.0 0
293230.0 516912.0 0
337981.0 516136.0 0
341964.0 516120.0 0
345951.0 516098.0 0
349942.0 516068.0 0
353935.0 516034.0 0
358789.0 515283.0 0
362785.0 515231.0 0
366886.0 515093.0 0
371137.0 514819.0 0
375417.0 514479.0 0
386904.0 516426.0 0
391062.0 515679.0 0
396733.0 513679.0 0
101922.0 517160.0 0
106150.0 517612.0 0
110587.0 518214.0 0
115063.0 518918.0 0
134062.0 516837.0 0
138048.0 516951.0 0
143744.0 519564.0 0
169743.0 517055.0 0
173710.0 517166.0 0
177672.0 517273.0 0
181624.0 517375.0 0
185567.0 517469.0 0
189499.0 517559.0 0
193426.0 517652.0 0
197348.0 517752.0 0
201268.0 517857.0 0
205187.0 517967.0 0
209106.0 518079.0 0
213023.0 518191.0 0
216940.0 518300.0 0
220855.0 518408.0 0
224766.0 518516.0 0
228673.0 518619.0 0
232577.0 518722.0 0
236476.0 518836.0 0
240373.0 518968.0 0
244260.0 519107.0 0
248151.0 519233.0 0
252045.0 519352.0 0
255943.0 519467.0 0
297173.0 516975.0 0
301122.0 517031.0 0
305076.0 517078.0 0
309036.0 517116.0 0
313000.0 517145.0 0
316968.0 517166.0 0
320941.0 517178.0 0
324916.0 517183.0 0
328892.0 517179.0 0
332873.0 517172.0 0
336023.0 519573.0 0
340009.0 519553.0 0
343998.0 519532.0 0
347991.0 519505.0 0
351984.0 519473.0 0
356859.0 518717.0 0
360856.0 518672.0 0
364966.0 518545.0 0
369242.0 518287.0 0
373555.0 517966.0 0
377940.0 517538.0 0
382318.0 517017.0 0
395668.0 517530.0 0
399615.0 516904.0 0
118939.0 519907.0 0
122932.0 520143.0 0
126926.0 520362.0 0
131091.0 520524.0 0
135084.0 520676.0 0
139076.0 520779.0 0
147727.0 519748.0 0
151712.0 519916.0 0
155698.0 520072.0 0
159682.0 520215.0 0
163661.0 520340.0 0
167631.0 520429.0 0
171603.0 520541.0 0
175574.0 520652.0 0
179541.0 520761.0 0
183496.0 520862.0 0
187431.0 520959.0 0
191349.0 521047.0 0
195263.0 521143.0 0
199178.0 521246.0 0
203094.0 521353.0 0
207013.0 521465.0 0
210936.0 521582.0 0
214861.0 521692.0 0
218785.0 521802.0 0
222708.0 521912.0 0
226627.0 522021.0 0
230537.0 522121.0 0
259844.0 519578.0 0
263750.0 519686.0 0
267659.0 519790.0 0
271574.0 519890.0 0
275493.0 519986.0 0
279418.0 520078.0 0
283348.0 520164.0 0
287285.0 520243.0 0
291226.0 520316.0 0
295174.0 520382.0 0
299127.0 520440.0 0
303085.0 520489.0 0
307049.0 520530.0 0
311017.0 520562.0 0
314990.0 520586.0 0
318967.0 520601.0 0
322947.0 520609.0 0
326929.0 520609.0 0
330913.0 520598.0 0
354910.0 522177.0 0
358908.0 522135.0 0
363026.0 522013.0 0
367313.0 521764.0 0
371654.0 521459.0 0
376072.0 521054.0 0
380298.0 520742.0 0
384283.0 520478.0 0
388261.0 520170.0 0
392195.0 519499.0 0
142216.0 523233.0 0
169492.0 523933.0 0
173479.0 524045.0 0
177463.0 524156.0 0
181449.0 524265.0 0
185791.0 524580.0 0
196919.0 524743.0 0
200906.0 524813.0 0
234436.0 522229.0 0
238324.0 522353.0 0
242207.0 522512.0 0
246099.0 522643.0 0
249996.0 522765.0 0
253897.0 522882.0 0
257801.0 522994.0 0
261709.0 523102.0 0
265621.0 523207.0 0
269538.0 523308.0 0
273460.0 523404.0 0
277388.0 523497.0 0
281321.0 523584.0 0
285260.0 523665.0 0
289206.0 523740.0 0
293157.0 523807.0 0
297114.0 523867.0 0
301077.0 523919.0 0
305045.0 523963.0 0
309018.0 523998.0 0
312995.0 524025.0 0
316977.0 524043.0 0
320963.0 524053.0 0
324952.0 524056.0 0
328946.0 524050.0 0
334055.0 523033.0 0
338043.0 523010.0 0
342034.0 522988.0 0
346028.0 522963.0 0
350025.0 522933.0 0
192296.0 524902.0 0
204878.0 524893.0 0
208835.0 524985.0 0
212779.0 525099.0 0
216714.0 525210.0 0
220647.0 525321.0 0
224582.0 525432.0 0
228525.0 525540.0 0
232486.0 525682.0 0
236464.0 525856.0 0
POINT_DATA 4650
SCALARS Radius float 1
LOOKUP_TABLE default
4000.0 4000.0 4000.0 4000.0 4000.0 4000.0 4000.0 4000.0 4000.0 4000.0 4000.0 4000.0 4000.0 4000.0 4000.0 4000.0 4000.0 4000.0 4000.0 4000.0 4000.0 4000.0 4000.0 4000.0 4000.0 4000.0 4000.0 4000.0 4000.0 4000.0 4000.0 4000.0 4000.0 4000.0 4000.0 4000.0 4000.0 4000.0 4000.0 4000.0 4000.0 4000.0 4000.0 4000.0 4000.0 4000.0 4000.0 4000.0 4000.0 4000.0 4000.0 4000.0 4000.0 4000.0 4000.0 4000.0 4000.0 4000.0 4000.0 4000.0 4000.0 4000.0 4000.0 4000.0 4000.0 4000.0 4000.0 4000.0 4000.0 4000.0 4000.0 4000.0 4000.0 4000.0 4000.0 4000.0 4000.0 4000.0 4000.0 4000.0 4000.0 4000.0 4000.0 4000.0 4000.0 4000.0 4000.0 4000.0 4000.0 4000.0 4000.0 4000.0 4000.0 4000.0 4000.0 4000.0 4000.0 4000.0 4000.0 4000.0 4000.0 4000.0 4000.0 4000.0 4000.0 4000.0 4000.0 4000.0 4000.0 4000.0 4000.0 4000.0 4000.0 4000.0 4000.0 4000.0 4000.0 4000.0 4000.0 4000.0 4000.0 4000.0 4000.0 4000.0 4000.0 4000.0 4000.0 4000.0 4000.0 4000.0 4000.0 4000.0 4000.0 4000.0 4000.0 4000.0 4000.0 4000.0 4000.0 4000.0 4000.0 4000.0 4000.0 4000.0 4000.0 4000.0 4000.0 4000.0 4000.0 4000.0 4000.0 4000.0 4000.0 4000.0 4000.0 4000.0 4000.0 4000.0 4000.0 4000.0 4000.0 4000.0 4000.0 4000.0 4000.0 4000.0 4000.0 4000.0 4000.0 4000.0 4000.0 4000.0 4000.0 4000.0 4000.0 4000.0 4000.0 4000.0 4000.0 4000.0 4000.0 4000.0 4000.0 4000.0 4000.0 4000.0 4000.0 4000.0 4000.0 4000.0 4000.0 4000.0 4000.0 4000.0 4000.0 4000.0 4000.0 4000.0 4000.0 4000.0 4000.0 4000.0 4000.0 4000.0 4000.0 4000.0 4000.0 4000.0 4000.0 4000.0 4000.0 4000.0 4000.0 4000.0 4000.0 4000.0 4000.0 4000.0 4000.0 4000.0 4000.0 4000.0 4000.0 4000.0 4000.0 4000.0 4000.0 4000.0 4000.0 4000.0 4000.0 4000.0 4000.0 4000.0 4000.0 4000.0 4000.0 4000.0 4000.0 4000.0 4000.0 4000.0 4000.0 4000.0 4000.0 4000.0 4000.0 4000.0 4000.0 4000.0 4000.0 4000.0 4000.0 4000.0 4000.0 4000.0 4000.0 4000.0 4000.0 4000.0 4000.0 4000.0 4000.0 4000.0 4000.0 4000.0 4000.0 4000.0 4000.0 4000.0 4000.0 4000.0 4000.0 4000.0 4000.0 4000.0 4000.0 4000.0 4000.0 4000.0 4000.0 4000.0 4000.0 4000.0 4000.0 4000.0 4000.0 4000.0 4000.0 4000.0 4000.0 4000.0 4000.0 4000.0 4000.0 4000.0 4000.0 4000.0 4000.0 4000.0 4000.0 4000.0 4000.0 4000.0 4000.0 4000.0 4000.0 4000.0 4000.0 4000.0 4000.0 4000.0 4000.0 4000.0 4000.0 4000.0 4000.0 4000.0 4000.0 4000.0 4000.0 4000.0 4000.0 4000.0 4000.0 4000.0 4000.0 4000.0 4000.0 4000.0 4000.0 4000.0 4000.0 4000.0 4000.0 4000.0 4000.0 4000.0 4000.0 4000.0 4000.0 4000.0 4000.0 4000.0 4000.0 4000.0 4000.0 4000.0 4000.0 4000.0 4000.0 4000.0 4000.0 4000.0 4000.0 4000.0 4000.0 4000.0 4000.0 4000.0 4000.0 4000.0 4000.0 4000.0 4000.0 4000.0 4000.0 4000.0 4000.0 4000.0 4000.0 4000.0 4000.0 4000.0 4000.0 4000.0 4000.0 4000.0 4000.0 4000.0 4000.0 4000.0 4000.0 4000.0 4000.0 4000.0 4000.0 4000.0 4000.0 4000.0 4000.0 4000.0 4000.0 4000.0 4000.0 4000.0 4000.0 4000.0 4000.0 4000.0 4000.0 4000.0 4000.0 4000.0 4000.0 4000.0 4000.0 4000.0 4000.0 4000.0 4000.0 4000.0 4000.0 4000.0 4000.0 4000.0 4000.0 4000.0 4000.0 4000.0 4000.0 4000.0 4000.0 4000.0 4000.0 4000.0 4000.0 4000.0 4000.0 4000.0 4000.0 4000.0 4000.0 4000.0 4000.0 4000.0 4000.0 4000.0 4000.0 4000.0 4000.0 4000.0 4000.0 4000.0 4000.0 4000.0 4000.0 4000.0 4000.0 4000.0 4000.0 4000.0 4000.0 4000.0 4000.0 4000.0 4000.0 4000.0 4000.0 4000.0 4000.0 4000.0 4000.0 4000.0 4000.0 4000.0 4000.0 4000.0 4000.0 4000.0 4000.0 4000.0 4000.0 4000.0 4000.0 4000.0 4000.0 4000.0 4000.0 4000.0 4000.0 4000.0 4000.0 4000.0 4000.0 4000.0 4000.0 4000.0 4000.0 4000.0 4000.0 4000.0 4000.0 4000.0 4000.0 4000.0 4000.0 4000.0 4000.0 4000.0 4000.0 4000.0 4000.0 4000.0 4000.0 4000.0 4000.0 4000.0 4000.0 4000.0 4000.0 4000.0 4000.0 4000.0 4000.0 4000.0 4000.0 4000.0 4000.0 4000.0 4000.0 4000.0 4000.0 4000.0 4000.0 4000.0 4000.0 4000.0 4000.0 4000.0 4000.0 4000.0 4000.0 4000.0 4000.0 4000.0 4000.0 4000.0 4000.0 4000.0 4000.0 4000.0 4000.0 4000.0 4000.0 4000.0 4000.0 4000.0 4000.0 4000.0 4000.0 4000.0 4000.0 4000.0 4000.0 4000.0 4000.0 4000.0 4000.0 4000.0 4000.0 4000.0 4000.0 4000.0 4000.0 4000.0 4000.0 4000.0 4000.0 4000.0 4000.0 4000.0 4000.0 4000.0 4000.0 4000.0 4000.0 4000.0 4000.0 4000.0 4000.0 4000.0 4000.0 4000.0 4000.0 4000.0 4000.0 4000.0 4000.0 4000.0 4000.0 4000.0 4000.0 4000.0 4000.0 4000.0 4000.0 4000.0 4000.0 4000.0 4000.0 4000.0 4000.0 4000.0 4000.0 4000.0 4000.0 4000.0 4000.0 4000.0 4000.0 4000.0 4000.0 4000.0 4000.0 4000.0 4000.0 4000.0 4000.0 4000.0 4000.0 4000.0 4000.0 4000.0 4000.0 4000.0 4000.0 4000.0 4000.0 4000.0 4000.0 4000.0 4000.0 4000.0 4000.0 4000.0 4000.0 4000.0 4000.0 4000.0 4000.0 4000.0 4000.0 4000.0 4000.0 4000.0 4000.0 4000.0 4000.0 4000.0 4000.0 4000.0 4000.0 4000.0 4000.0 4000.0 4000.0 4000.0 4000.0 4000.0 4000.0 4000.0 4000.0 4000.0 4000.0 4000.0 4000.0 4000.0 4000.0 4000.0 4000.0 4000.0 4000.0 4000.0 4000.0 4000.0 4000.0 4000.0 4000.0 4000.0 4000.0 4000.0 4000.0 4000.0 4000.0 4000.0 4000.0 4000.0 4000.0 4000.0 4000.0 4000.0 4000.0 4000.0 4000.0 4000.0 4000.0 4000.0 4000.0 4000.0 4000.0 4000.0 4000.0 4000.0 4000.0 4000.0 4000.0 4000.0 4000.0 4000.0 4000.0 4000.0 4000.0 4000.0 4000.0 4000.0 4000.0 4000.0 4000.0 4000.0 4000.0 4000.0 4000.0 4000.0 4000.0 4000.0 4000.0 4000.0 4000.0 4000.0 4000.0 4000.0 4000.0 4000.0 4000.0 4000.0 4000.0 4000.0 4000.0 4000.0 4000.0 4000.0 4000.0 4000.0 4000.0 4000.0 4000.0 4000.0 4000.0 4000.0 4000.0 4000.0 4000.0 4000.0 4000.0 4000.0 4000.0 4000.0 4000.0 4000.0 4000.0 4000.0 4000.0 4000.0 4000.0 4000.0 4000.0 4000.0 4000.0 4000.0 4000.0 4000.0 4000.0 4000.0 4000.0 4000.0 4000.0 4000.0 4000.0 4000.0 4000.0 4000.0 4000.0 4000.0 4000.0 4000.0 4000.0 4000.0 4000.0 4000.0 4000.0 4000.0 4000.0 4000.0 4000.0 4000.0 4000.0 4000.0 4000.0 4000.0 4000.0 4000.0 4000.0 4000.0 4000.0 4000.0 4000.0 4000.0 4000.0 4000.0 4000.0 4000.0 4000.0 4000.0 4000.0 4000.0 4000.0 4000.0 4000.0 4000.0 4000.0 4000.0 4000.0 4000.0 4000.0 4000.0 4000.0 4000.0 4000.0 4000.0 4000.0 4000.0 4000.0 4000.0 4000.0 4000.0 4000.0 4000.0 4000.0 4000.0 4000.0 4000.0 4000.0 4000.0 4000.0 4000.0 4000.0 4000.0 4000.0 4000.0 4000.0 4000.0 4000.0 4000.0 4000.0 4000.0 4000.0 4000.0 4000.0 4000.0 4000.0 4000.0 4000.0 4000.0 4000.0 4000.0 4000.0 4000.0 4000.0 4000.0 4000.0 4000.0 4000.0 4000.0 4000.0 4000.0 4000.0 4000.0 4000.0 4000.0 4000.0 4000.0 4000.0 4000.0 4000.0 4000.0 4000.0 4000.0 4000.0 4000.0 4000.0 4000.0 4000.0 4000.0 4000.0 4000.0 4000.0 4000.0 4000.0 4000.0 4000.0 4000.0 4000.0 4000.0 4000.0 4000.0 4000.0 4000.0 4000.0 4000.0 4000.0 4000.0 4000.0 4000.0 4000.0 4000.0 4000.0 4000.0 4000.0 4000.0 4000.0 4000.0 4000.0 4000.0 4000.0 4000.0 4000.0 4000.0 4000.0 4000.0 4000.0 4000.0 4000.0 4000.0 4000.0 4000.0 4000.0 4000.0 4000.0 4000.0 4000.0 4000.0 4000.0 4000.0 4000.0 4000.0 4000.0 4000.0 4000.0 4000.0 4000.0 4000.0 4000.0 4000.0 4000.0 4000.0 4000.0 4000.0 4000.0 4000.0 4000.0 4000.0 4000.0 4000.0 4000.0 4000.0 4000.0 4000.0 4000.0 4000.0 4000.0 4000.0 4000.0 4000.0 4000.0 4000.0 4000.0 4000.0 4000.0 4000.0 4000.0 4000.0 4000.0 4000.0 4000.0 4000.0 4000.0 4000.0 4000.0 4000.0 4000.0 4000.0 4000.0 4000.0 4000.0 4000.0 4000.0 4000.0 4000.0 4000.0 4000.0 4000.0 4000.0 4000.0 4000.0 4000.0 4000.0 4000.0 4000.0 4000.0 4000.0 4000.0 4000.0 4000.0 4000.0 4000.0 4000.0 4000.0 4000.0 4000.0 4000.0 4000.0 4000.0 4000.0 4000.0 4000.0 4000.0 4000.0 4000.0 4000.0 4000.0 4000.0 4000.0 4000.0 4000.0 4000.0 4000.0 4000.0 4000.0 4000.0 4000.0 4000.0 4000.0 4000.0 4000.0 4000.0 4000.0 4000.0 4000.0 4000.0 4000.0 4000.0 4000.0 4000.0 4000.0 4000.0 4000.0 4000.0 4000.0 4000.0 4000.0 4000.0 4000.0 4000.0 4000.0 4000.0 4000.0 4000.0 4000.0 4000.0 4000.0 4000.0 4000.0 4000.0 4000.0 4000.0 4000.0 4000.0 4000.0 4000.0 4000.0 4000.0 4000.0 4000.0 4000.0 4000.0 4000.0 4000.0 4000.0 4000.0 4000.0 4000.0 4000.0 4000.0 4000.0 4000.0 4000.0 4000.0 4000.0 4000.0 4000.0 4000.0 4000.0 4000.0 4000.0 4000.0 4000.0 4000.0 4000.0 4000.0 4000.0 4000.0 4000.0 4000.0 4000.0 4000.0 4000.0 4000.0 4000.0 4000.0 4000.0 4000.0 4000.0 4000.0 4000.0 4000.0 4000.0 4000.0 4000.0 4000.0 4000.0 4000.0 4000.0 4000.0 4000.0 4000.0 4000.0 4000.0 4000.0 4000.0 4000.0 4000.0 4000.0 4000.0 4000.0 4000.0 4000.0 4000.0 4000.0 4000.0 4000.0 4000.0 4000.0 4000.0 4000.0 4000.0 4000.0 4000.0 4000.0 4000.0 4000.0 4000.0 4000.0 4000.0 4000.0 4000.0 4000.0 4000.0 4000.0 4000.0 4000.0 4000.0 4000.0 4000.0 4000.0 4000.0 4000.0 4000.0 4000.0 4000.0 4000.0 4000.0 4000.0 4000.0 4000.0 4000.0 4000.0 4000.0 4000.0 4000.0 4000.0 4000.0 4000.0 4000.0 4000.0 4000.0 4000.0 4000.0 4000.0 4000.0 4000.0 4000.0 4000.0 4000.0 4000.0 4000.0 4000.0 4000.0 4000.0 4000.0 4000.0 4000.0 4000.0 4000.0 4000.0 4000.0 4000.0 4000.0 4000.0 4000.0 4000.0 4000.0 4000.0 4000.0 4000.0 4000.0 4000.0 4000.0 4000.0 4000.0 4000.0 4000.0 4000.0 4000.0 4000.0 4000.0 4000.0 4000.0 4000.0 4000.0 4000.0 4000.0 4000.0 4000.0 4000.0 4000.0 4000.0 4000.0 4000.0 4000.0 4000.0 4000.0 4000.0 4000.0 4000.0 4000.0 4000.0 4000.0 4000.0 4000.0 4000.0 4000.0 4000.0 4000.0 4000.0 4000.0 4000.0 4000.0 4000.0 4000.0 4000.0 4000.0 4000.0 4000.0 4000.0 4000.0 4000.0 4000.0 4000.0 4000.0 4000.0 4000.0 4000.0 4000.0 4000.0 4000.0 4000.0 4000.0 4000.0 4000.0 4000.0 4000.0 4000.0 4000.0 4000.0 4000.0 4000.0 4000.0 4000.0 4000.0 4000.0 4000.0 4000.0 4000.0 4000.0 4000.0 4000.0 4000.0 4000.0 4000.0 4000.0 4000.0 4000.0 4000.0 4000.0 4000.0 4000.0 4000.0 4000.0 4000.0 4000.0 4000.0 4000.0 4000.0 4000.0 4000.0 4000.0 4000.0 4000.0 4000.0 4000.0 4000.0 4000.0 4000.0 4000.0 4000.0 4000.0 4000.0 4000.0 4000.0 4000.0 4000.0 4000.0 4000.0 4000.0 4000.0 4000.0 4000.0 4000.0 4000.0 4000.0 4000.0 4000.0 4000.0 4000.0 4000.0 4000.0 4000.0 4000.0 4000.0 4000.0 4000.0 4000.0 4000.0 4000.0 4000.0 4000.0 4000.0 4000.0 4000.0 4000.0 4000.0 4000.0 4000.0 4000.0 4000.0 4000.0 4000.0 4000.0 4000.0 4000.0 4000.0 4000.0 4000.0 4000.0 4000.0 4000.0 4000.0 4000.0 4000.0 4000.0 4000.0 4000.0 4000.0 4000.0 4000.0 4000.0 4000.0 4000.0 4000.0 4000.0 4000.0 4000.0 4000.0 4000.0 4000.0 4000.0 4000.0 4000.0 4000.0 4000.0 4000.0 4000.0 4000.0 4000.0 4000.0 4000.0 4000.0 4000.0 4000.0 4000.0 4000.0 4000.0 4000.0 4000.0 4000.0 4000.0 4000.0 4000.0 4000.0 4000.0 4000.0 4000.0 4000.0 4000.0 4000.0 4000.0 4000.0 4000.0 4000.0 4000.0 4000.0 4000.0 4000.0 4000.0 4000.0 4000.0 4000.0 4000.0 4000.0 4000.0 4000.0 4000.0 4000.0 4000.0 4000.0 4000.0 4000.0 4000.0 4000.0 4000.0 4000.0 4000.0 4000.0 4000.0 4000.0 4000.0 4000.0 4000.0 4000.0 4000.0 4000.0 4000.0 4000.0 4000.0 4000.0 4000.0 4000.0 4000.0 4000.0 4000.0 4000.0 4000.0 4000.0 4000.0 4000.0 4000.0 4000.0 4000.0 4000.0 4000.0 4000.0 4000.0 4000.0 4000.0 4000.0 4000.0 4000.0 4000.0 4000.0 4000.0 4000.0 4000.0 4000.0 4000.0 4000.0 4000.0 4000.0 4000.0 4000.0 4000.0 4000.0 4000.0 4000.0 4000.0 4000.0 4000.0 4000.0 4000.0 4000.0 4000.0 4000.0 4000.0 4000.0 4000.0 4000.0 4000.0 4000.0 4000.0 4000.0 4000.0 4000.0 4000.0 4000.0 4000.0 4000.0 4000.0 4000.0 4000.0 4000.0 4000.0 4000.0 4000.0 4000.0 4000.0 4000.0 4000.0 4000.0 4000.0 4000.0 4000.0 4000.0 4000.0 4000.0 4000.0 4000.0 4000.0 4000.0 4000.0 4000.0 4000.0 4000.0 4000.0 4000.0 4000.0 4000.0 4000.0 4000.0 4000.0 4000.0 4000.0 4000.0 4000.0 4000.0 4000.0 4000.0 4000.0 4000.0 4000.0 4000.0 4000.0 4000.0 4000.0 4000.0 4000.0 4000.0 4000.0 4000.0 4000.0 4000.0 4000.0 4000.0 4000.0 4000.0 4000.0 4000.0 4000.0 4000.0 4000.0 4000.0 4000.0 4000.0 4000.0 4000.0 4000.0 4000.0 4000.0 4000.0 4000.0 4000.0 4000.0 4000.0 4000.0 4000.0 4000.0 4000.0 4000.0 4000.0 4000.0 4000.0 4000.0 4000.0 4000.0 4000.0 4000.0 4000.0 4000.0 4000.0 4000.0 4000.0 4000.0 4000.0 4000.0 4000.0 4000.0 4000.0 4000.0 4000.0 4000.0 4000.0 4000.0 4000.0 4000.0 4000.0 4000.0 4000.0 4000.0 4000.0 4000.0 4000.0 4000.0 4000.0 4000.0 4000.0 4000.0 4000.0 4000.0 4000.0 4000.0 4000.0 4000.0 4000.0 4000.0 4000.0 4000.0 4000.0 4000.0 4000.0 4000.0 4000.0 4000.0 4000.0 4000.0 4000.0 4000.0 4000.0 4000.0 4000.0 4000.0 4000.0 4000.0 4000.0 4000.0 4000.0 4000.0 4000.0 4000.0 4000.0 4000.0 4000.0 4000.0 4000.0 4000.0 4000.0 4000.0 4000.0 4000.0 4000.0 4000.0 4000.0 4000.0 4000.0 4000.0 4000.0 4000.0 4000.0 4000.0 4000.0 4000.0 4000.0 4000.0 4000.0 4000.0 4000.0 4000.0 4000.0 4000.0 4000.0 4000.0 4000.0 4000.0 4000.0 4000.0 4000.0 4000.0 4000.0 4000.0 4000.0 4000.0 4000.0 4000.0 4000.0 4000.0 4000.0 4000.0 4000.0 4000.0 4000.0 4000.0 4000.0 4000.0 4000.0 4000.0 4000.0 4000.0 4000.0 4000.0 4000.0 4000.0 4000.0 4000.0 4000.0 4000.0 4000.0 4000.0 4000.0 4000.0 4000.0 4000.0 4000.0 4000.0 4000.0 4000.0 4000.0 4000.0 4000.0 4000.0 4000.0 4000.0 4000.0 4000.0 4000.0 4000.0 4000.0 4000.0 4000.0 4000.0 4000.0 4000.0 4000.0 4000.0 4000.0 4000.0 4000.0 4000.0 4000.0 4000.0 4000.0 4000.0 4000.0 4000.0 4000.0 4000.0 4000.0 4000.0 4000.0 4000.0 4000.0 4000.0 4000.0 4000.0 4000.0 4000.0 4000.0 4000.0 4000.0 4000.0 4000.0 4000.0 4000.0 4000.0 4000.0 4000.0 4000.0 4000.0 4000.0 4000.0 4000.0 4000.0 4000.0 4000.0 4000.0 4000.0 4000.0 4000.0 4000.0 4000.0 4000.0 4000.0 4000.0 4000.0 4000.0 4000.0 4000.0 4000.0 4000.0 4000.0 4000.0 4000.0 4000.0 4000.0 4000.0 4000.0 4000.0 4000.0 4000.0 4000.0 4000.0 4000.0 4000.0 4000.0 4000.0 4000.0 4000.0 4000.0 4000.0 4000.0 4000.0 4000.0 4000.0 4000.0 4000.0 4000.0 4000.0 4000.0 4000.0 4000.0 4000.0 4000.0 4000.0 4000.0 4000.0 4000.0 4000.0 4000.0 4000.0 4000.0 4000.0 4000.0 4000.0 4000.0 4000.0 4000.0 4000.0 4000.0 4000.0 4000.0 4000.0 4000.0 4000.0 4000.0 4000.0 4000.0 4000.0 4000.0 4000.0 4000.0 4000.0 4000.0 4000.0 4000.0 4000.0 4000.0 4000.0 4000.0 4000.0 4000.0 4000.0 4000.0 4000.0 4000.0 4000.0 4000.0 4000.0 4000.0 4000.0 4000.0 4000.0 4000.0 4000.0 4000.0 4000.0 4000.0 4000.0 4000.0 4000.0 4000.0 4000.0 4000.0 4000.0 4000.0 4000.0 4000.0 4000.0 4000.0 4000.0 4000.0 4000.0 4000.0 4000.0 4000.0 4000.0 4000.0 4000.0 4000.0 4000.0 4000.0 4000.0 4000.0 4000.0 4000.0 4000.0 4000.0 4000.0 4000.0 4000.0 4000.0 4000.0 4000.0 4000.0 4000.0 4000.0 4000.0 4000.0 4000.0 4000.0 4000.0 4000.0 4000.0 4000.0 4000.0 4000.0 4000.0 4000.0 4000.0 4000.0 4000.0 4000.0 4000.0 4000.0 4000.0 4000.0 4000.0 4000.0 4000.0 4000.0 4000.0 4000.0 4000.0 4000.0 4000.0 4000.0 4000.0 4000.0 4000.0 4000.0 4000.0 4000.0 4000.0 4000.0 4000.0 4000.0 4000.0 4000.0 4000.0 4000.0 4000.0 4000.0 4000.0 4000.0 4000.0 4000.0 4000.0 4000.0 4000.0 4000.0 4000.0 4000.0 4000.0 4000.0 4000.0 4000.0 4000.0 4000.0 4000.0 4000.0 4000.0 4000.0 4000.0 4000.0 4000.0 4000.0 4000.0 4000.0 4000.0 4000.0 4000.0 4000.0 4000.0 4000.0 4000.0 4000.0 4000.0 4000.0 4000.0 4000.0 4000.0 4000.0 4000.0 4000.0 4000.0 4000.0 4000.0 4000.0 4000.0 4000.0 4000.0 4000.0 4000.0 4000.0 4000.0 4000.0 4000.0 4000.0 4000.0 4000.0 4000.0 4000.0 4000.0 4000.0 4000.0 4000.0 4000.0 4000.0 4000.0 4000.0 4000.0 4000.0 4000.0 4000.0 4000.0 4000.0 4000.0 4000.0 4000.0 4000.0 4000.0 4000.0 4000.0 4000.0 4000.0 4000.0 4000.0 4000.0 4000.0 4000.0 4000.0 4000.0 4000.0 4000.0 4000.0 4000.0 4000.0 4000.0 4000.0 4000.0 4000.0 4000.0 4000.0 4000.0 4000.0 4000.0 4000.0 4000.0 4000.0 4000.0 4000.0 4000.0 4000.0 4000.0 4000.0 4000.0 4000.0 4000.0 4000.0 4000.0 4000.0 4000.0 4000.0 4000.0 4000.0 4000.0 4000.0 4000.0 4000.0 4000.0 4000.0 4000.0 4000.0 4000.0 4000.0 4000.0 4000.0 4000.0 4000.0 4000.0 4000.0 4000.0 4000.0 4000.0 4000.0 4000.0 4000.0 4000.0 4000.0 4000.0 4000.0 4000.0 4000.0 4000.0 4000.0 4000.0 4000.0 4000.0 4000.0 4000.0 4000.0 4000.0 4000.0 4000.0 4000.0 4000.0 4000.0 4000.0 4000.0 4000.0 4000.0 4000.0 4000.0 4000.0 4000.0 4000.0 4000.0 4000.0 4000.0 4000.0 4000.0 4000.0 4000.0 4000.0 4000.0 4000.0 4000.0 4000.0 4000.0 4000.0 4000.0 4000.0 4000.0 4000.0 4000.0 4000.0 4000.0 4000.0 4000.0 4000.0 4000.0 4000.0 4000.0 4000.0 4000.0 4000.0 4000.0 4000.0 4000.0 4000.0 4000.0 4000.0 4000.0 4000.0 4000.0 4000.0 4000.0 4000.0 4000.0 4000.0 4000.0 4000.0 4000.0 4000.0 4000.0 4000.0 4000.0 4000.0 4000.0 4000.0 4000.0 4000.0 4000.0 4000.0 4000.0 4000.0 4000.0 4000.0 4000.0 4000.0 4000.0 4000.0 4000.0 4000.0 4000.0 4000.0 4000.0 4000.0 4000.0 4000.0 4000.0 4000.0 4000.0 4000.0 4000.0 4000.0 4000.0 4000.0 4000.0 4000.0 4000.0 4000.0 4000.0 4000.0 4000.0 4000.0 4000.0 4000.0 4000.0 4000.0 4000.0 4000.0 4000.0 4000.0 4000.0 4000.0 4000.0 4000.0 4000.0 4000.0 4000.0 4000.0 4000.0 4000.0 4000.0 4000.0 4000.0 4000.0 4000.0 4000.0 4000.0 4000.0 4000.0 4000.0 4000.0 4000.0 4000.0 4000.0 4000.0 4000.0 4000.0 4000.0 4000.0 4000.0 4000.0 4000.0 4000.0 4000.0 4000.0 4000.0 4000.0 4000.0 4000.0 4000.0 4000.0 4000.0 4000.0 4000.0 4000.0 4000.0 4000.0 4000.0 4000.0 4000.0 4000.0 4000.0 4000.0 4000.0 4000.0 4000.0 4000.0 4000.0 4000.0 4000.0 4000.0 4000.0 4000.0 4000.0 4000.0 4000.0 4000.0 4000.0 4000.0 4000.0 4000.0 4000.0 4000.0 4000.0 4000.0 4000.0 4000.0 4000.0 4000.0 4000.0 4000.0 4000.0 4000.0 4000.0 4000.0 4000.0 4000.0 4000.0 4000.0 4000.0 4000.0 4000.0 4000.0 4000.0 4000.0 4000.0 4000.0 4000.0 4000.0 4000.0 4000.0 4000.0 4000.0 4000.0 4000.0 4000.0 4000.0 4000.0 4000.0 4000.0 4000.0 4000.0 4000.0 4000.0 4000.0 4000.0 4000.0 4000.0 4000.0 4000.0 4000.0 4000.0 4000.0 4000.0 4000.0 4000.0 4000.0 4000.0 4000.0 4000.0 4000.0 4000.0 4000.0 4000.0 4000.0 4000.0 4000.0 4000.0 4000.0 4000.0 4000.0 4000.0 4000.0 4000.0 4000.0 4000.0 4000.0 4000.0 4000.0 4000.0 4000.0 4000.0 4000.0 4000.0 4000.0 4000.0 4000.0 4000.0 4000.0 4000.0 4000.0 4000.0 4000.0 4000.0 4000.0 4000.0 4000.0 4000.0 4000.0 4000.0 4000.0 4000.0 4000.0 4000.0 4000.0 4000.0 4000.0 4000.0 4000.0 4000.0 4000.0 4000.0 4000.0 4000.0 4000.0 4000.0 4000.0 4000.0 4000.0 4000.0 4000.0 4000.0 4000.0 4000.0 4000.0 4000.0 4000.0 4000.0 4000.0 4000.0 4000.0 4000.0 4000.0 4000.0 4000.0 4000.0 4000.0 4000.0 4000.0 4000.0 4000.0 4000.0 4000.0 4000.0 4000.0 4000.0 4000.0 4000.0 4000.0 4000.0 4000.0 4000.0 4000.0 4000.0 4000.0 4000.0 4000.0 4000.0 4000.0 4000.0 4000.0 4000.0 4000.0 4000.0 4000.0 4000.0 4000.0 4000.0 4000.0 4000.0 4000.0 4000.0 4000.0 4000.0 4000.0 4000.0 4000.0 4000.0 4000.0 4000.0 4000.0 4000.0 4000.0 4000.0 4000.0 4000.0 4000.0 4000.0 4000.0 4000.0 4000.0 4000.0 4000.0 4000.0 4000.0 4000.0 4000.0 4000.0 4000.0 4000.0 4000.0 4000.0 4000.0 4000.0 4000.0 4000.0 4000.0 4000.0 4000.0 4000.0 4000.0 4000.0 4000.0 4000.0 4000.0 4000.0 4000.0 4000.0 4000.0 4000.0 4000.0 4000.0 4000.0 4000.0 4000.0 4000.0 4000.0 4000.0 4000.0 4000.0 4000.0 4000.0 4000.0 4000.0 4000.0 4000.0 4000.0 4000.0 4000.0 4000.0 4000.0 4000.0 4000.0 4000.0 4000.0 4000.0 4000.0 4000.0 4000.0 4000.0 4000.0 4000.0 4000.0 4000.0 4000.0 4000.0 4000.0 4000.0 4000.0 4000.0 4000.0 4000.0 4000.0 4000.0 4000.0 4000.0 4000.0 4000.0 4000.0 4000.0 4000.0 4000.0 4000.0 4000.0 4000.0 4000.0 4000.0 4000.0 4000.0 4000.0 4000.0 4000.0 4000.0 4000.0 4000.0 4000.0 4000.0 4000.0 4000.0 4000.0 4000.0 4000.0 4000.0 4000.0 4000.0 4000.0 4000.0 4000.0 4000.0 4000.0 4000.0 4000.0 4000.0 4000.0 4000.0 4000.0 4000.0 4000.0 4000.0 4000.0 4000.0 4000.0 4000.0 4000.0 4000.0 4000.0 4000.0 4000.0 4000.0 4000.0 4000.0 4000.0 4000.0 4000.0 4000.0 4000.0 4000.0 4000.0 4000.0 4000.0 4000.0 4000.0 4000.0 4000.0 4000.0 4000.0 4000.0 4000.0 4000.0 4000.0 4000.0 4000.0 4000.0 4000.0 4000.0 4000.0 4000.0 4000.0 4000.0 4000.0 4000.0 4000.0 4000.0 4000.0 4000.0 4000.0 4000.0 4000.0 4000.0 4000.0 4000.0 4000.0 4000.0 4000.0 4000.0 4000.0 4000.0 4000.0 4000.0 4000.0 4000.0 4000.0 4000.0 4000.0 4000.0 4000.0 4000.0 4000.0 4000.0 4000.0 4000.0 4000.0 4000.0 4000.0 4000.0 4000.0 4000.0 4000.0 4000.0 4000.0 4000.0 4000.0 4000.0 4000.0 4000.0 4000.0 4000.0 4000.0 4000.0 4000.0 4000.0 4000.0 4000.0 4000.0 4000.0 4000.0 4000.0 4000.0 4000.0 4000.0 4000.0 4000.0 4000.0 4000.0 4000.0 4000.0 4000.0 4000.0 4000.0 4000.0 4000.0 4000.0 4000.0 4000.0 4000.0 4000.0 4000.0 4000.0 4000.0 4000.0 4000.0 4000.0 4000.0 4000.0 4000.0 4000.0 4000.0 4000.0 4000.0 4000.0 4000.0 4000.0 4000.0 4000.0 4000.0 4000.0 4000.0 4000.0 4000.0 4000.0 4000.0 4000.0 4000.0 4000.0 4000.0 4000.0 4000.0 4000.0 4000.0 4000.0 4000.0 4000.0 4000.0 4000.0 4000.0 4000.0 4000.0 4000.0 4000.0 4000.0 4000.0 4000.0 4000.0 4000.0 4000.0 4000.0 4000.0 4000.0 4000.0 4000.0 4000.0 4000.0 4000.0 4000.0 4000.0 4000.0 4000.0 4000.0 4000.0 4000.0 4000.0 4000.0 4000.0 4000.0 4000.0 4000.0 4000.0 4000.0 4000.0 4000.0 4000.0 4000.0 4000.0 4000.0 4000.0 4000.0 4000.0 4000.0 4000.0 4000.0 4000.0 4000.0 4000.0 4000.0 4000.0 4000.0 4000.0 4000.0 4000.0 4000.0 4000.0 4000.0 4000.0 4000.0 4000.0 4000.0 4000.0 4000.0 4000.0 4000.0 4000.0 4000.0 4000.0 4000.0 4000.0 4000.0 4000.0 4000.0 4000.0 4000.0 4000.0 4000.0 4000.0 4000.0 4000.0 4000.0 4000.0 4000.0 4000.0 4000.0 4000.0 4000.0 4000.0 4000.0 4000.0 4000.0 4000.0 4000.0 4000.0 4000.0 4000.0 4000.0 4000.0 4000.0 4000.0 4000.0 4000.0 4000.0 4000.0 4000.0 4000.0 4000.0 4000.0 4000.0 4000.0 4000.0 4000.0 4000.0 4000.0 4000.0 4000.0 4000.0 4000.0 4000.0 4000.0 4000.0 4000.0 4000.0 4000.0 4000.0 4000.0 4000.0 4000.0 4000.0 4000.0 4000.0 4000.0 4000.0 4000.0 4000.0 4000.0 4000.0 4000.0 4000.0 4000.0 4000.0 4000.0 4000.0 4000.0 4000.0 4000.0 4000.0 4000.0 4000.0 4000.0 4000.0 4000.0 4000.0 4000.0 4000.0 4000.0 4000.0 4000.0 4000.0 4000.0 4000.0 4000.0 4000.0 4000.0 4000.0 4000.0 4000.0 4000.0 4000.0 4000.0 4000.0 4000.0 4000.0 4000.0 4000.0 4000.0 4000.0 4000.0 4000.0 4000.0 4000.0 4000.0 4000.0 4000.0 4000.0 4000.0 4000.0 4000.0 4000.0 4000.0 4000.0 4000.0 4000.0 4000.0 4000.0 4000.0 4000.0 4000.0 4000.0 4000.0 4000.0 4000.0 4000.0 4000.0 4000.0 4000.0 4000.0 4000.0 4000.0 4000.0 4000.0 4000.0 4000.0 4000.0 4000.0 4000.0 4000.0 4000.0 4000.0 4000.0 4000.0 4000.0 4000.0 4000.0 4000.0 4000.0 4000.0 4000.0 4000.0 4000.0 4000.0 4000.0 4000.0 4000.0 4000.0 4000.0 4000.0 4000.0 4000.0 4000.0 4000.0 4000.0 4000.0 4000.0 4000.0 4000.0 4000.0 4000.0 4000.0 4000.0 4000.0 4000.0 4000.0 4000.0 4000.0 4000.0 4000.0 4000.0 4000.0 4000.0 4000.0 4000.0 4000.0 4000.0 4000.0 4000.0 4000.0 4000.0 4000.0 4000.0 4000.0 4000.0 4000.0 4000.0 4000.0 4000.0 4000.0 4000.0 4000.0 4000.0 4000.0 4000.0 4000.0 4000.0 4000.0 4000.0 4000.0 4000.0 4000.0 4000.0 4000.0 4000.0 4000.0 4000.0 4000.0 4000.0 4000.0 4000.0 4000.0 4000.0 4000.0 4000.0 4000.0 4000.0 4000.0 4000.0 4000.0 4000.0 4000.0 4000.0 4000.0 4000.0 4000.0 4000.0 4000.0 4000.0 4000.0 4000.0 4000.0 4000.0 4000.0 4000.0 4000.0 4000.0 4000.0 4000.0 4000.0 4000.0 4000.0 4000.0 4000.0 4000.0 4000.0 4000.0 4000.0 4000.0 4000.0 4000.0 4000.0 4000.0 4000.0 4000.0 4000.0 4000.0 4000.0 4000.0 4000.0 4000.0 4000.0 4000.0 4000.0 4000.0 4000.0 4000.0 4000.0 4000.0 4000.0 4000.0 4000.0 4000.0 4000.0 4000.0 4000.0 4000.0 4000.0 4000.0 4000.0 4000.0 4000.0 4000.0 4000.0 4000.0 4000.0 4000.0 4000.0 4000.0 4000.0 4000.0 4000.0 4000.0 4000.0 4000.0 4000.0 4000.0 4000.0 4000.0 4000.0 4000.0 4000.0 4000.0 4000.0 4000.0 4000.0 4000.0 4000.0 4000.0 4000.0 4000.0 4000.0 4000.0 4000.0 4000.0 4000.0 4000.0 4000.0 4000.0 4000.0 4000.0 4000.0 4000.0 4000.0 4000.0 4000.0 4000.0 4000.0 4000.0 4000.0 4000.0 4000.0 4000.0 4000.0 4000.0 4000.0 4000.0 4000.0 4000.0 4000.0 4000.0 4000.0 4000.0 4000.0 4000.0 4000.0 4000.0 4000.0 4000.0 4000.0 4000.0 4000.0 4000.0 4000.0 4000.0 4000.0 4000.0 4000.0 4000.0 4000.0 4000.0 4000.0 4000.0 4000.0 4000.0 4000.0 4000.0 4000.0 4000.0 4000.0 4000.0 4000.0 4000.0 4000.0 4000.0 4000.0 4000.0 4000.0 4000.0 4000.0 4000.0 4000.0 4000.0 4000.0 4000.0 4000.0 4000.0 4000.0 4000.0 4000.0 4000.0 4000.0 4000.0 4000.0 4000.0 4000.0 4000.0 4000.0 4000.0 4000.0 4000.0 4000.0 4000.0 4000.0 4000.0 4000.0 4000.0 4000.0 4000.0 4000.0 4000.0 4000.0 4000.0 4000.0 4000.0 4000.0 4000.0 4000.0 4000.0 4000.0 4000.0 4000.0 4000.0 4000.0 4000.0 4000.0 4000.0 4000.0 4000.0 4000.0 4000.0 4000.0 4000.0 4000.0 4000.0 4000.0 4000.0 4000.0 4000.0 4000.0 4000.0 4000.0 4000.0 4000.0 4000.0 4000.0 4000.0 4000.0 4000.0 4000.0 4000.0 4000.0 4000.0 4000.0 4000.0 4000.0 4000.0 4000.0 4000.0 4000.0 4000.0 4000.0 4000.0 4000.0 4000.0 4000.0 4000.0 4000.0 4000.0 4000.0 4000.0 4000.0 4000.0 4000.0 4000.0 4000.0 4000.0 4000.0 4000.0 4000.0 4000.0 4000.0 4000.0 4000.0 4000.0 4000.0 4000.0 4000.0 4000.0 4000.0 4000.0 4000.0 4000.0 4000.0 4000.0 4000.0 4000.0 4000.0 4000.0 4000.0 4000.0 4000.0 4000.0 4000.0 4000.0 4000.0 4000.0 4000.0 4000.0 4000.0 4000.0 4000.0 4000.0 4000.0 4000.0 4000.0 4000.0 4000.0 4000.0 4000.0 4000.0 4000.0 4000.0 4000.0 4000.0 4000.0 4000.0 4000.0 4000.0 4000.0 4000.0 4000.0 4000.0 4000.0 4000.0 4000.0 4000.0 4000.0 4000.0 4000.0 4000.0 4000.0 4000.0 4000.0 4000.0 4000.0 4000.0 4000.0 4000.0 4000.0 4000.0 4000.0 4000.0 4000.0 4000.0 4000.0 4000.0 4000.0 4000.0 4000.0 4000.0 4000.0 4000.0 4000.0 4000.0 4000.0 4000.0 4000.0 4000.0 4000.0 4000.0 4000.0 4000.0 4000.0 4000.0 4000.0 4000.0 4000.0 4000.0 4000.0 4000.0 4000.0 4000.0 4000.0 4000.0 4000.0 4000.0 4000.0 4000.0 4000.0 4000.0 4000.0 4000.0 4000.0 4000.0 4000.0 4000.0 4000.0 4000.0 4000.0 4000.0 4000.0 4000.0 4000.0 4000.0 4000.0 4000.0 4000.0 4000.0 4000.0 4000.0 4000.0 4000.0 4000.0 4000.0 4000.0 4000.0 4000.0 4000.0 4000.0 4000.0 4000.0 4000.0 4000.0 4000.0 4000.0 4000.0 4000.0 4000.0 4000.0 4000.0 4000.0 4000.0 4000.0 4000.0 4000.0 4000.0 4000.0 4000.0 4000.0 4000.0 4000.0 4000.0 4000.0 4000.0 4000.0 4000.0 4000.0 4000.0 4000.0 4000.0 4000.0 4000.0 4000.0 4000.0 4000.0 4000.0 4000.0 4000.0 4000.0 4000.0 4000.0 4000.0 4000.0 4000.0 4000.0 4000.0 4000.0 4000.0 4000.0 4000.0 4000.0 4000.0 4000.0 4000.0 4000.0 4000.0 4000.0 4000.0 4000.0 4000.0 4000.0 4000.0 4000.0 4000.0 4000.0 4000.0 4000.0 4000.0 4000.0 4000.0 4000.0 4000.0 4000.0 4000.0 4000.0 4000.0 4000.0 4000.0 4000.0 4000.0 4000.0 4000.0 4000.0 4000.0 4000.0 4000.0 4000.0 4000.0 4000.0 4000.0 4000.0 4000.0 4000.0 4000.0 4000.0 4000.0 4000.0 4000.0 4000.0 4000.0 4000.0 4000.0 4000.0 4000.0 4000.0 4000.0 4000.0 4000.0 4000.0 4000.0 4000.0 4000.0 4000.0 4000.0 4000.0 4000.0 4000.0 4000.0 4000.0 4000.0 4000.0 4000.0 4000.0 4000.0 4000.0 4000.0 4000.0 4000.0 4000.0 4000.0 4000.0 4000.0 4000.0 4000.0 4000.0 4000.0 4000.0 4000.0 4000.0 4000.0 4000.0 4000.0 4000.0 4000.0 4000.0 4000.0 4000.0 4000.0 4000.0 4000.0 4000.0 4000.0 4000.0 4000.0 4000.0 4000.0 4000.0 4000.0 4000.0 4000.0 4000.0 4000.0 4000.0 4000.0 4000.0 4000.0 4000.0 4000.0 4000.0 4000.0 4000.0 4000.0 4000.0 4000.0 4000.0 4000.0 4000.0 4000.0 4000.0 4000.0 4000.0 4000.0 4000.0 4000.0 4000.0 4000.0 4000.0 4000.0 4000.0 4000.0 4000.0 4000.0 4000.0 4000.0 4000.0 4000.0 4000.0 4000.0 4000.0 4000.0 4000.0 4000.0 4000.0 4000.0 4000.0 4000.0 4000.0 4000.0 4000.0 4000.0 4000.0 4000.0 4000.0 4000.0 4000.0 4000.0 4000.0 4000.0 4000.0 4000.0 4000.0 4000.0 4000.0 4000.0 4000.0 4000.0 4000.0 4000.0 4000.0 4000.0 4000.0 4000.0 4000.0 4000.0 4000.0 4000.0 4000.0 4000.0 4000.0 4000.0 4000.0 4000.0 4000.0 4000.0 4000.0 4000.0 4000.0 4000.0 4000.0 4000.0 4000.0 4000.0 4000.0 4000.0 4000.0 4000.0 4000.0 4000.0 4000.0 4000.0 4000.0 4000.0 4000.0 4000.0 4000.0 4000.0 4000.0 4000.0 4000.0 4000.0 4000.0 4000.0 4000.0 4000.0 4000.0 4000.0 4000.0 4000.0 4000.0 4000.0 4000.0 4000.0 4000.0 4000.0 4000.0 4000.0 4000.0 4000.0 4000.0 4000.0 4000.0 4000.0 4000.0 4000.0 4000.0 4000.0 4000.0 4000.0 4000.0 4000.0 4000.0 4000.0 4000.0 4000.0 4000.0 4000.0 4000.0 4000.0 4000.0 4000.0 4000.0 4000.0 4000.0 4000.0 4000.0 4000.0 4000.0 4000.0 4000.0 4000.0 4000.0 4000.0 4000.0 4000.0 4000.0 4000.0 4000.0 4000.0 4000.0 4000.0 4000.0 4000.0 4000.0 4000.0 4000.0 4000.0 4000.0 4000.0 4000.0 4000.0 4000.0 4000.0 4000.0 4000.0 4000.0 4000.0 4000.0 4000.0 4000.0 4000.0 4000.0 4000.0 4000.0 4000.0 4000.0 4000.0 4000.0 4000.0 4000.0 4000.0 4000.0 4000.0 4000.0 4000.0 4000.0 4000.0 4000.0 4000.0 4000.0 4000.0 4000.0 4000.0 4000.0 4000.0 4000.0 4000.0 4000.0 4000.0 4000.0 4000.0 4000.0 4000.0 4000.0 4000.0 4000.0 4000.0 4000.0 4000.0 4000.0 4000.0 4000.0 4000.0 4000.0 4000.0 4000.0 4000.0 4000.0 4000.0 4000.0 4000.0 4000.0 4000.0 4000.0 4000.0 4000.0 4000.0 4000.0 4000.0 4000.0 4000.0 4000.0 4000.0 4000.0 4000.0 4000.0 4000.0 4000.0 4000.0 4000.0 4000.0 4000.0 4000.0 4000.0 4000.0 4000.0 4000.0 4000.0 4000.0 4000.0 4000.0 4000.0 4000.0 4000.0 4000.0 4000.0 4000.0 4000.0 4000.0 4000.0 4000.0 4000.0 4000.0 4000.0 4000.0 4000.0 4000.0 4000.0 4000.0 4000.0 4000.0 4000.0 4000.0 4000.0 4000.0 4000.0 4000.0 4000.0 4000.0 4000.0 4000.0 4000.0 4000.0 4000.0 4000.0 4000.0 4000.0 4000.0 4000.0 4000.0 4000.0 4000.0 4000.0 4000.0 4000.0 4000.0 4000.0 4000.0 4000.0 4000.0 4000.0 4000.0 4000.0 4000.0 4000.0 4000.0 4000.0 4000.0 4000.0 4000.0 4000.0 4000.0 4000.0 4000.0 4000.0 4000.0 4000.0 4000.0 4000.0 4000.0 4000.0 4000.0 4000.0 4000.0 4000.0 4000.0 4000.0 4000.0 4000.0 4000.0 4000.0 4000.0 4000.0 4000.0 4000.0 4000.0 4000.0 4000.0 4000.0 4000.0 4000.0 4000.0 4000.0 4000.0 4000.0 4000.0 4000.0 4000.0 4000.0 4000.0 4000.0 4000.0 4000.0 4000.0 4000.0 4000.0 4000.0 4000.0 4000.0 4000.0 4000.0 4000.0 4000.0 4000.0 4000.0 4000.0 4000.0 4000.0 4000.0 4000.0 4000.0 4000.0 4000.0 4000.0 4000.0 4000.0 4000.0 4000.0 4000.0 4000.0 4000.0 4000.0 4000.0 4000.0 4000.0 4000.0 4000.0 4000.0 4000.0 4000.0 4000.0 4000.0 4000.0 4000.0 4000.0 4000.0 4000.0 4000.0 4000.0 4000.0 4000.0 4000.0 4000.0 4000.0 4000.0 4000.0 4000.0 4000.0 4000.0 4000.0 4000.0 4000.0 4000.0 4000.0 4000.0 4000.0 4000.0 4000.0 4000.0 4000.0 4000.0 4000.0 4000.0 4000.0 4000.0 4000.0 4000.0 4000.0 4000.0 4000.0 4000.0 4000.0 4000.0 4000.0 4000.0 4000.0 4000.0 4000.0 4000.0 4000.0 4000.0 4000.0 4000.0 4000.0 4000.0 4000.0 4000.0 4000.0 4000.0 4000.0 4000.0 4000.0 4000.0 4000.0 4000.0 4000.0 4000.0 4000.0 4000.0 4000.0 4000.0 4000.0 4000.0 4000.0 4000.0 4000.0 4000.0 4000.0 4000.0 4000.0 4000.0 4000.0 4000.0 4000.0 4000.0 4000.0 4000.0 4000.0 4000.0 4000.0 4000.0 4000.0 4000.0 4000.0 4000.0 4000.0 4000.0 4000.0 4000.0 4000.0 4000.0 4000.0 4000.0 4000.0 4000.0 4000.0 4000.0 4000.0 4000.0 4000.0 4000.0 4000.0 4000.0 4000.0 4000.0 4000.0 4000.0 4000.0 4000.0 4000.0 4000.0 4000.0 4000.0 4000.0 4000.0 4000.0 4000.0 4000.0 4000.0 4000.0 4000.0 4000.0 4000.0 4000.0 4000.0 4000.0 4000.0 4000.0 4000.0 4000.0 4000.0 4000.0 4000.0 4000.0 4000.0 4000.0 4000.0 4000.0 4000.0 4000.0 4000.0 4000.0 4000.0 4000.0 4000.0 4000.0 4000.0 4000.0 4000.0 4000.0 4000.0 4000.0 4000.0 4000.0 4000.0 4000.0 4000.0 4000.0 4000.0 4000.0 4000.0 4000.0 4000.0 4000.0 4000.0 4000.0 4000.0 4000.0 4000.0 4000.0 4000.0 4000.0 4000.0 4000.0 4000.0 4000.0 4000.0 4000.0 4000.0 4000.0 4000.0 4000.0 4000.0 4000.0 4000.0 4000.0 4000.0 4000.0 4000.0 4000.0 4000.0 4000.0 4000.0 4000.0 4000.0 4000.0 4000.0 4000.0 4000.0 4000.0 4000.0 4000.0 4000.0 4000.0 4000.0 4000.0 4000.0 4000.0 4000.0 4000.0 4000.0 4000.0 4000.0 4000.0 4000.0 4000.0 4000.0 4000.0 4000.0 4000.0 4000.0 4000.0 4000.0 4000.0 4000.0 4000.0 4000.0 4000.0 4000.0 4000.0 4000.0 4000.0 4000.0 4000.0 4000.0 4000.0 4000.0 4000.0 4000.0 4000.0 4000.0 4000.0 4000.0 4000.0 4000.0 4000.0 4000.0 4000.0 4000.0 4000.0 4000.0 4000.0 4000.0 4000.0 4000.0 4000.0 4000.0 4000.0 4000.0 4000.0 4000.0 4000.0 4000.0 4000.0 4000.0 4000.0 4000.0 4000.0 4000.0 4000.0 4000.0 4000.0 4000.0 4000.0 4000.0 4000.0 4000.0 4000.0 4000.0 4000.0 4000.0 4000.0 4000.0 4000.0 4000.0 4000.0 4000.0 4000.0 4000.0 4000.0 4000.0 4000.0 4000.0 4000.0 4000.0 4000.0 4000.0 4000.0 4000.0 4000.0 4000.0 4000.0 4000.0 4000.0 4000.0 4000.0 4000.0 4000.0 4000.0 4000.0 4000.0 4000.0 4000.0 4000.0 4000.0 4000.0 4000.0 4000.0 4000.0 4000.0 4000.0 4000.0 4000.0 4000.0 4000.0 4000.0 4000.0 4000.0 4000.0 4000.0 4000.0 4000.0 4000.0 4000.0 4000.0 4000.0 4000.0 4000.0 4000.0 4000.0 4000.0 4000.0 4000.0 4000.0 4000.0 4000.0 4000.0 4000.0 4000.0 4000.0 4000.0 4000.0 4000.0 4000.0 4000.0 4000.0 4000.0 4000.0 4000.0 4000.0 4000.0 4000.0 4000.0 4000.0 4000.0 4000.0 4000.0 4000.0 4000.0 4000.0 4000.0 4000.0 4000.0 4000.0 4000.0 4000.0 4000.0 4000.0 4000.0 4000.0 4000.0 4000.0 4000.0 4000.0 4000.0 4000.0 4000.0 4000.0 4000.0 4000.0 4000.0 4000.0 4000.0 4000.0 4000.0 4000.0 4000.0 4000.0 4000.0 4000.0 4000.0 4000.0 4000.0 4000.0 4000.0 4000.0 4000.0 4000.0 4000.0 4000.0 4000.0 4000.0 4000.0 4000.0 4000.0 4000.0 4000.0 4000.0 4000.0 4000.0 4000.0 4000.0 4000.0 4000.0 4000.0 4000.0 4000.0 4000.0 4000.0 4000.0 4000.0 4000.0 4000.0 4000.0 4000.0 4000.0 4000.0 4000.0 4000.0 4000.0 4000.0 4000.0 4000.0 4000.0 4000.0 4000.0 4000.0 4000.0 4000.0 4000.0 4000.0 4000.0 4000.0 4000.0 4000.0 4000.0 4000.0 4000.0 4000.0 4000.0 4000.0 4000.0 4000.0 4000.0 4000.0 4000.0 4000.0 4000.0 4000.0 4000.0 4000.0 4000.0 4000.0 4000.0 4000.0 4000.0 4000.0 4000.0 4000.0 4000.0 4000.0 4000.0 4000.0 4000.0 4000.0 4000.0 4000.0 4000.0 4000.0 4000.0 4000.0 4000.0 4000.0 4000.0 4000.0 4000.0 4000.0 4000.0 4000.0 4000.0 4000.0 4000.0 4000.0 4000.0 4000.0 4000.0 4000.0 4000.0 4000.0 4000.0 4000.0 4000.0 4000.0 4000.0 4000.0 4000.0 4000.0 4000.0 4000.0 4000.0 4000.0 4000.0 4000.0 4000.0 4000.0 4000.0 4000.0 4000.0 4000.0 4000.0 4000.0 4000.0 4000.0 4000.0 4000.0 4000.0 4000.0 4000.0 4000.0 4000.0 4000.0 4000.0 4000.0 4000.0 4000.0 4000.0 4000.0 4000.0 SCALARS Mass float 1
LOOKUP_TABLE default
11309700000.0 11309700000.0 11309700000.0 11309700000.0 11309700000.0 11309700000.0 11309700000.0 11309700000.0 11309700000.0 11309700000.0 11309700000.0 11309700000.0 11309700000.0 11309700000.0 11309700000.0 11309700000.0 11309700000.0 11309700000.0 11309700000.0 11309700000.0 11309700000.0 11309700000.0 11309700000.0 11309700000.0 11309700000.0 11309700000.0 11309700000.0 11309700000.0 11309700000.0 11309700000.0 11309700000.0 11309700000.0 11309700000.0 11309700000.0 11309700000.0 11309700000.0 11309700000.0 11309700000.0 11309700000.0 11309700000.0 11309700000.0 11309700000.0 11309700000.0 11309700000.0 11309700000.0 11309700000.0 11309700000.0 11309700000.0 11309700000.0 11309700000.0 11309700000.0 11309700000.0 11309700000.0 11309700000.0 11309700000.0 11309700000.0 11309700000.0 11309700000.0 11309700000.0 11309700000.0 11309700000.0 11309700000.0 11309700000.0 11309700000.0 11309700000.0 11309700000.0 11309700000.0 11309700000.0 11309700000.0 11309700000.0 11309700000.0 11309700000.0 11309700000.0 11309700000.0 11309700000.0 11309700000.0 11309700000.0 11309700000.0 11309700000.0 11309700000.0 11309700000.0 11309700000.0 11309700000.0 11309700000.0 11309700000.0 11309700000.0 11309700000.0 11309700000.0 11309700000.0 11309700000.0 11309700000.0 11309700000.0 11309700000.0 11309700000.0 11309700000.0 11309700000.0 11309700000.0 11309700000.0 11309700000.0 11309700000.0 11309700000.0 11309700000.0 11309700000.0 11309700000.0 11309700000.0 11309700000.0 11309700000.0 11309700000.0 11309700000.0 11309700000.0 11309700000.0 11309700000.0 11309700000.0 11309700000.0 11309700000.0 11309700000.0 11309700000.0 11309700000.0 11309700000.0 11309700000.0 11309700000.0 11309700000.0 11309700000.0 11309700000.0 11309700000.0 11309700000.0 11309700000.0 11309700000.0 11309700000.0 11309700000.0 11309700000.0 11309700000.0 11309700000.0 11309700000.0 11309700000.0 11309700000.0 11309700000.0 11309700000.0 11309700000.0 11309700000.0 11309700000.0 11309700000.0 11309700000.0 11309700000.0 11309700000.0 11309700000.0 11309700000.0 11309700000.0 11309700000.0 11309700000.0 11309700000.0 11309700000.0 11309700000.0 11309700000.0 11309700000.0 11309700000.0 11309700000.0 11309700000.0 11309700000.0 11309700000.0 11309700000.0 11309700000.0 11309700000.0 11309700000.0 11309700000.0 11309700000.0 11309700000.0 11309700000.0 11309700000.0 11309700000.0 11309700000.0 11309700000.0 11309700000.0 11309700000.0 11309700000.0 11309700000.0 11309700000.0 11309700000.0 11309700000.0 11309700000.0 11309700000.0 11309700000.0 11309700000.0 11309700000.0 11309700000.0 11309700000.0 11309700000.0 11309700000.0 11309700000.0 11309700000.0 11309700000.0 11309700000.0 11309700000.0 11309700000.0 11309700000.0 11309700000.0 11309700000.0 11309700000.0 11309700000.0 11309700000.0 11309700000.0 11309700000.0 11309700000.0 11309700000.0 11309700000.0 11309700000.0 11309700000.0 11309700000.0 11309700000.0 11309700000.0 11309700000.0 11309700000.0 11309700000.0 11309700000.0 11309700000.0 11309700000.0 11309700000.0 11309700000.0 11309700000.0 11309700000.0 11309700000.0 11309700000.0 11309700000.0 11309700000.0 11309700000.0 11309700000.0 11309700000.0 11309700000.0 11309700000.0 11309700000.0 11309700000.0 11309700000.0 11309700000.0 11309700000.0 11309700000.0 11309700000.0 11309700000.0 11309700000.0 11309700000.0 11309700000.0 11309700000.0 11309700000.0 11309700000.0 11309700000.0 11309700000.0 11309700000.0 11309700000.0 11309700000.0 11309700000.0 11309700000.0 11309700000.0 11309700000.0 11309700000.0 11309700000.0 11309700000.0 11309700000.0 11309700000.0 11309700000.0 11309700000.0 11309700000.0 11309700000.0 11309700000.0 11309700000.0 11309700000.0 11309700000.0 11309700000.0 11309700000.0 11309700000.0 11309700000.0 11309700000.0 11309700000.0 11309700000.0 11309700000.0 11309700000.0 11309700000.0 11309700000.0 11309700000.0 11309700000.0 11309700000.0 11309700000.0 11309700000.0 11309700000.0 11309700000.0 11309700000.0 11309700000.0 11309700000.0 11309700000.0 11309700000.0 11309700000.0 11309700000.0 11309700000.0 11309700000.0 11309700000.0 11309700000.0 11309700000.0 11309700000.0 11309700000.0 11309700000.0 11309700000.0 11309700000.0 11309700000.0 11309700000.0 11309700000.0 11309700000.0 11309700000.0 11309700000.0 11309700000.0 11309700000.0 11309700000.0 11309700000.0 11309700000.0 11309700000.0 11309700000.0 11309700000.0 11309700000.0 11309700000.0 11309700000.0 11309700000.0 11309700000.0 11309700000.0 11309700000.0 11309700000.0 11309700000.0 11309700000.0 11309700000.0 11309700000.0 11309700000.0 11309700000.0 11309700000.0 11309700000.0 11309700000.0 11309700000.0 11309700000.0 11309700000.0 11309700000.0 11309700000.0 11309700000.0 11309700000.0 11309700000.0 11309700000.0 11309700000.0 11309700000.0 11309700000.0 11309700000.0 11309700000.0 11309700000.0 11309700000.0 11309700000.0 11309700000.0 11309700000.0 11309700000.0 11309700000.0 11309700000.0 11309700000.0 11309700000.0 11309700000.0 11309700000.0 11309700000.0 11309700000.0 11309700000.0 11309700000.0 11309700000.0 11309700000.0 11309700000.0 11309700000.0 11309700000.0 11309700000.0 11309700000.0 11309700000.0 11309700000.0 11309700000.0 11309700000.0 11309700000.0 11309700000.0 11309700000.0 11309700000.0 11309700000.0 11309700000.0 11309700000.0 11309700000.0 11309700000.0 11309700000.0 11309700000.0 11309700000.0 11309700000.0 11309700000.0 11309700000.0 11309700000.0 11309700000.0 11309700000.0 11309700000.0 11309700000.0 11309700000.0 11309700000.0 11309700000.0 11309700000.0 11309700000.0 11309700000.0 11309700000.0 11309700000.0 11309700000.0 11309700000.0 11309700000.0 11309700000.0 11309700000.0 11309700000.0 11309700000.0 11309700000.0 11309700000.0 11309700000.0 11309700000.0 11309700000.0 11309700000.0 11309700000.0 11309700000.0 11309700000.0 11309700000.0 11309700000.0 11309700000.0 11309700000.0 11309700000.0 11309700000.0 11309700000.0 11309700000.0 11309700000.0 11309700000.0 11309700000.0 11309700000.0 11309700000.0 11309700000.0 11309700000.0 11309700000.0 11309700000.0 11309700000.0 11309700000.0 11309700000.0 11309700000.0 11309700000.0 11309700000.0 11309700000.0 11309700000.0 11309700000.0 11309700000.0 11309700000.0 11309700000.0 11309700000.0 11309700000.0 11309700000.0 11309700000.0 11309700000.0 11309700000.0 11309700000.0 11309700000.0 11309700000.0 11309700000.0 11309700000.0 11309700000.0 11309700000.0 11309700000.0 11309700000.0 11309700000.0 11309700000.0 11309700000.0 11309700000.0 11309700000.0 11309700000.0 11309700000.0 11309700000.0 11309700000.0 11309700000.0 11309700000.0 11309700000.0 11309700000.0 11309700000.0 11309700000.0 11309700000.0 11309700000.0 11309700000.0 11309700000.0 11309700000.0 11309700000.0 11309700000.0 11309700000.0 11309700000.0 11309700000.0 11309700000.0 11309700000.0 11309700000.0 11309700000.0 11309700000.0 11309700000.0 11309700000.0 11309700000.0 11309700000.0 11309700000.0 11309700000.0 11309700000.0 11309700000.0 11309700000.0 11309700000.0 11309700000.0 11309700000.0 11309700000.0 11309700000.0 11309700000.0 11309700000.0 11309700000.0 11309700000.0 11309700000.0 11309700000.0 11309700000.0 11309700000.0 11309700000.0 11309700000.0 11309700000.0 11309700000.0 11309700000.0 11309700000.0 11309700000.0 11309700000.0 11309700000.0 11309700000.0 11309700000.0 11309700000.0 11309700000.0 11309700000.0 11309700000.0 11309700000.0 11309700000.0 11309700000.0 11309700000.0 11309700000.0 11309700000.0 11309700000.0 11309700000.0 11309700000.0 11309700000.0 11309700000.0 11309700000.0 11309700000.0 11309700000.0 11309700000.0 11309700000.0 11309700000.0 11309700000.0 11309700000.0 11309700000.0 11309700000.0 11309700000.0 11309700000.0 11309700000.0 11309700000.0 11309700000.0 11309700000.0 11309700000.0 11309700000.0 11309700000.0 11309700000.0 11309700000.0 11309700000.0 11309700000.0 11309700000.0 11309700000.0 11309700000.0 11309700000.0 11309700000.0 11309700000.0 11309700000.0 11309700000.0 11309700000.0 11309700000.0 11309700000.0 11309700000.0 11309700000.0 11309700000.0 11309700000.0 11309700000.0 11309700000.0 11309700000.0 11309700000.0 11309700000.0 11309700000.0 11309700000.0 11309700000.0 11309700000.0 11309700000.0 11309700000.0 11309700000.0 11309700000.0 11309700000.0 11309700000.0 11309700000.0 11309700000.0 11309700000.0 11309700000.0 11309700000.0 11309700000.0 11309700000.0 11309700000.0 11309700000.0 11309700000.0 11309700000.0 11309700000.0 11309700000.0 11309700000.0 11309700000.0 11309700000.0 11309700000.0 11309700000.0 11309700000.0 11309700000.0 11309700000.0 11309700000.0 11309700000.0 11309700000.0 11309700000.0 11309700000.0 11309700000.0 11309700000.0 11309700000.0 11309700000.0 11309700000.0 11309700000.0 11309700000.0 11309700000.0 11309700000.0 11309700000.0 11309700000.0 11309700000.0 11309700000.0 11309700000.0 11309700000.0 11309700000.0 11309700000.0 11309700000.0 11309700000.0 11309700000.0 11309700000.0 11309700000.0 11309700000.0 11309700000.0 11309700000.0 11309700000.0 11309700000.0 11309700000.0 11309700000.0 11309700000.0 11309700000.0 11309700000.0 11309700000.0 11309700000.0 11309700000.0 11309700000.0 11309700000.0 11309700000.0 11309700000.0 11309700000.0 11309700000.0 11309700000.0 11309700000.0 11309700000.0 11309700000.0 11309700000.0 11309700000.0 11309700000.0 11309700000.0 11309700000.0 11309700000.0 11309700000.0 11309700000.0 11309700000.0 11309700000.0 11309700000.0 11309700000.0 11309700000.0 11309700000.0 11309700000.0 11309700000.0 11309700000.0 11309700000.0 11309700000.0 11309700000.0 11309700000.0 11309700000.0 11309700000.0 11309700000.0 11309700000.0 11309700000.0 11309700000.0 11309700000.0 11309700000.0 11309700000.0 11309700000.0 11309700000.0 11309700000.0 11309700000.0 11309700000.0 11309700000.0 11309700000.0 11309700000.0 11309700000.0 11309700000.0 11309700000.0 11309700000.0 11309700000.0 11309700000.0 11309700000.0 11309700000.0 11309700000.0 11309700000.0 11309700000.0 11309700000.0 11309700000.0 11309700000.0 11309700000.0 11309700000.0 11309700000.0 11309700000.0 11309700000.0 11309700000.0 11309700000.0 11309700000.0 11309700000.0 11309700000.0 11309700000.0 11309700000.0 11309700000.0 11309700000.0 11309700000.0 11309700000.0 11309700000.0 11309700000.0 11309700000.0 11309700000.0 11309700000.0 11309700000.0 11309700000.0 11309700000.0 11309700000.0 11309700000.0 11309700000.0 11309700000.0 11309700000.0 11309700000.0 11309700000.0 11309700000.0 11309700000.0 11309700000.0 11309700000.0 11309700000.0 11309700000.0 11309700000.0 11309700000.0 11309700000.0 11309700000.0 11309700000.0 11309700000.0 11309700000.0 11309700000.0 11309700000.0 11309700000.0 11309700000.0 11309700000.0 11309700000.0 11309700000.0 11309700000.0 11309700000.0 11309700000.0 11309700000.0 11309700000.0 11309700000.0 11309700000.0 11309700000.0 11309700000.0 11309700000.0 11309700000.0 11309700000.0 11309700000.0 11309700000.0 11309700000.0 11309700000.0 11309700000.0 11309700000.0 11309700000.0 11309700000.0 11309700000.0 11309700000.0 11309700000.0 11309700000.0 11309700000.0 11309700000.0 11309700000.0 11309700000.0 11309700000.0 11309700000.0 11309700000.0 11309700000.0 11309700000.0 11309700000.0 11309700000.0 11309700000.0 11309700000.0 11309700000.0 11309700000.0 11309700000.0 11309700000.0 11309700000.0 11309700000.0 11309700000.0 11309700000.0 11309700000.0 11309700000.0 11309700000.0 11309700000.0 11309700000.0 11309700000.0 11309700000.0 11309700000.0 11309700000.0 11309700000.0 11309700000.0 11309700000.0 11309700000.0 11309700000.0 11309700000.0 11309700000.0 11309700000.0 11309700000.0 11309700000.0 11309700000.0 11309700000.0 11309700000.0 11309700000.0 11309700000.0 11309700000.0 11309700000.0 11309700000.0 11309700000.0 11309700000.0 11309700000.0 11309700000.0 11309700000.0 11309700000.0 11309700000.0 11309700000.0 11309700000.0 11309700000.0 11309700000.0 11309700000.0 11309700000.0 11309700000.0 11309700000.0 11309700000.0 11309700000.0 11309700000.0 11309700000.0 11309700000.0 11309700000.0 11309700000.0 11309700000.0 11309700000.0 11309700000.0 11309700000.0 11309700000.0 11309700000.0 11309700000.0 11309700000.0 11309700000.0 11309700000.0 11309700000.0 11309700000.0 11309700000.0 11309700000.0 11309700000.0 11309700000.0 11309700000.0 11309700000.0 11309700000.0 11309700000.0 11309700000.0 11309700000.0 11309700000.0 11309700000.0 11309700000.0 11309700000.0 11309700000.0 11309700000.0 11309700000.0 11309700000.0 11309700000.0 11309700000.0 11309700000.0 11309700000.0 11309700000.0 11309700000.0 11309700000.0 11309700000.0 11309700000.0 11309700000.0 11309700000.0 11309700000.0 11309700000.0 11309700000.0 11309700000.0 11309700000.0 11309700000.0 11309700000.0 11309700000.0 11309700000.0 11309700000.0 11309700000.0 11309700000.0 11309700000.0 11309700000.0 11309700000.0 11309700000.0 11309700000.0 11309700000.0 11309700000.0 11309700000.0 11309700000.0 11309700000.0 11309700000.0 11309700000.0 11309700000.0 11309700000.0 11309700000.0 11309700000.0 11309700000.0 11309700000.0 11309700000.0 11309700000.0 11309700000.0 11309700000.0 11309700000.0 11309700000.0 11309700000.0 11309700000.0 11309700000.0 11309700000.0 11309700000.0 11309700000.0 11309700000.0 11309700000.0 11309700000.0 11309700000.0 11309700000.0 11309700000.0 11309700000.0 11309700000.0 11309700000.0 11309700000.0 11309700000.0 11309700000.0 11309700000.0 11309700000.0 11309700000.0 11309700000.0 11309700000.0 11309700000.0 11309700000.0 11309700000.0 11309700000.0 11309700000.0 11309700000.0 11309700000.0 11309700000.0 11309700000.0 11309700000.0 11309700000.0 11309700000.0 11309700000.0 11309700000.0 11309700000.0 11309700000.0 11309700000.0 11309700000.0 11309700000.0 11309700000.0 11309700000.0 11309700000.0 11309700000.0 11309700000.0 11309700000.0 11309700000.0 11309700000.0 11309700000.0 11309700000.0 11309700000.0 11309700000.0 11309700000.0 11309700000.0 11309700000.0 11309700000.0 11309700000.0 11309700000.0 11309700000.0 11309700000.0 11309700000.0 11309700000.0 11309700000.0 11309700000.0 11309700000.0 11309700000.0 11309700000.0 11309700000.0 11309700000.0 11309700000.0 11309700000.0 11309700000.0 11309700000.0 11309700000.0 11309700000.0 11309700000.0 11309700000.0 11309700000.0 11309700000.0 11309700000.0 11309700000.0 11309700000.0 11309700000.0 11309700000.0 11309700000.0 11309700000.0 11309700000.0 11309700000.0 11309700000.0 11309700000.0 11309700000.0 11309700000.0 11309700000.0 11309700000.0 11309700000.0 11309700000.0 11309700000.0 11309700000.0 11309700000.0 11309700000.0 11309700000.0 11309700000.0 11309700000.0 11309700000.0 11309700000.0 11309700000.0 11309700000.0 11309700000.0 11309700000.0 11309700000.0 11309700000.0 11309700000.0 11309700000.0 11309700000.0 11309700000.0 11309700000.0 11309700000.0 11309700000.0 11309700000.0 11309700000.0 11309700000.0 11309700000.0 11309700000.0 11309700000.0 11309700000.0 11309700000.0 11309700000.0 11309700000.0 11309700000.0 11309700000.0 11309700000.0 11309700000.0 11309700000.0 11309700000.0 11309700000.0 11309700000.0 11309700000.0 11309700000.0 11309700000.0 11309700000.0 11309700000.0 11309700000.0 11309700000.0 11309700000.0 11309700000.0 11309700000.0 11309700000.0 11309700000.0 11309700000.0 11309700000.0 11309700000.0 11309700000.0 11309700000.0 11309700000.0 11309700000.0 11309700000.0 11309700000.0 11309700000.0 11309700000.0 11309700000.0 11309700000.0 11309700000.0 11309700000.0 11309700000.0 11309700000.0 11309700000.0 11309700000.0 11309700000.0 11309700000.0 11309700000.0 11309700000.0 11309700000.0 11309700000.0 11309700000.0 11309700000.0 11309700000.0 11309700000.0 11309700000.0 11309700000.0 11309700000.0 11309700000.0 11309700000.0 11309700000.0 11309700000.0 11309700000.0 11309700000.0 11309700000.0 11309700000.0 11309700000.0 11309700000.0 11309700000.0 11309700000.0 11309700000.0 11309700000.0 11309700000.0 11309700000.0 11309700000.0 11309700000.0 11309700000.0 11309700000.0 11309700000.0 11309700000.0 11309700000.0 11309700000.0 11309700000.0 11309700000.0 11309700000.0 11309700000.0 11309700000.0 11309700000.0 11309700000.0 11309700000.0 11309700000.0 11309700000.0 11309700000.0 11309700000.0 11309700000.0 11309700000.0 11309700000.0 11309700000.0 11309700000.0 11309700000.0 11309700000.0 11309700000.0 11309700000.0 11309700000.0 11309700000.0 11309700000.0 11309700000.0 11309700000.0 11309700000.0 11309700000.0 11309700000.0 11309700000.0 11309700000.0 11309700000.0 11309700000.0 11309700000.0 11309700000.0 11309700000.0 11309700000.0 11309700000.0 11309700000.0 11309700000.0 11309700000.0 11309700000.0 11309700000.0 11309700000.0 11309700000.0 11309700000.0 11309700000.0 11309700000.0 11309700000.0 11309700000.0 11309700000.0 11309700000.0 11309700000.0 11309700000.0 11309700000.0 11309700000.0 11309700000.0 11309700000.0 11309700000.0 11309700000.0 11309700000.0 11309700000.0 11309700000.0 11309700000.0 11309700000.0 11309700000.0 11309700000.0 11309700000.0 11309700000.0 11309700000.0 11309700000.0 11309700000.0 11309700000.0 11309700000.0 11309700000.0 11309700000.0 11309700000.0 11309700000.0 11309700000.0 11309700000.0 11309700000.0 11309700000.0 11309700000.0 11309700000.0 11309700000.0 11309700000.0 11309700000.0 11309700000.0 11309700000.0 11309700000.0 11309700000.0 11309700000.0 11309700000.0 11309700000.0 11309700000.0 11309700000.0 11309700000.0 11309700000.0 11309700000.0 11309700000.0 11309700000.0 11309700000.0 11309700000.0 11309700000.0 11309700000.0 11309700000.0 11309700000.0 11309700000.0 11309700000.0 11309700000.0 11309700000.0 11309700000.0 11309700000.0 11309700000.0 11309700000.0 11309700000.0 11309700000.0 11309700000.0 11309700000.0 11309700000.0 11309700000.0 11309700000.0 11309700000.0 11309700000.0 11309700000.0 11309700000.0 11309700000.0 11309700000.0 11309700000.0 11309700000.0 11309700000.0 11309700000.0 11309700000.0 11309700000.0 11309700000.0 11309700000.0 11309700000.0 11309700000.0 11309700000.0 11309700000.0 11309700000.0 11309700000.0 11309700000.0 11309700000.0 11309700000.0 11309700000.0 11309700000.0 11309700000.0 11309700000.0 11309700000.0 11309700000.0 11309700000.0 11309700000.0 11309700000.0 11309700000.0 11309700000.0 11309700000.0 11309700000.0 11309700000.0 11309700000.0 11309700000.0 11309700000.0 11309700000.0 11309700000.0 11309700000.0 11309700000.0 11309700000.0 11309700000.0 11309700000.0 11309700000.0 11309700000.0 11309700000.0 11309700000.0 11309700000.0 11309700000.0 11309700000.0 11309700000.0 11309700000.0 11309700000.0 11309700000.0 11309700000.0 11309700000.0 11309700000.0 11309700000.0 11309700000.0 11309700000.0 11309700000.0 11309700000.0 11309700000.0 11309700000.0 11309700000.0 11309700000.0 11309700000.0 11309700000.0 11309700000.0 11309700000.0 11309700000.0 11309700000.0 11309700000.0 11309700000.0 11309700000.0 11309700000.0 11309700000.0 11309700000.0 11309700000.0 11309700000.0 11309700000.0 11309700000.0 11309700000.0 11309700000.0 11309700000.0 11309700000.0 11309700000.0 11309700000.0 11309700000.0 11309700000.0 11309700000.0 11309700000.0 11309700000.0 11309700000.0 11309700000.0 11309700000.0 11309700000.0 11309700000.0 11309700000.0 11309700000.0 11309700000.0 11309700000.0 11309700000.0 11309700000.0 11309700000.0 11309700000.0 11309700000.0 11309700000.0 11309700000.0 11309700000.0 11309700000.0 11309700000.0 11309700000.0 11309700000.0 11309700000.0 11309700000.0 11309700000.0 11309700000.0 11309700000.0 11309700000.0 11309700000.0 11309700000.0 11309700000.0 11309700000.0 11309700000.0 11309700000.0 11309700000.0 11309700000.0 11309700000.0 11309700000.0 11309700000.0 11309700000.0 11309700000.0 11309700000.0 11309700000.0 11309700000.0 11309700000.0 11309700000.0 11309700000.0 11309700000.0 11309700000.0 11309700000.0 11309700000.0 11309700000.0 11309700000.0 11309700000.0 11309700000.0 11309700000.0 11309700000.0 11309700000.0 11309700000.0 11309700000.0 11309700000.0 11309700000.0 11309700000.0 11309700000.0 11309700000.0 11309700000.0 11309700000.0 11309700000.0 11309700000.0 11309700000.0 11309700000.0 11309700000.0 11309700000.0 11309700000.0 11309700000.0 11309700000.0 11309700000.0 11309700000.0 11309700000.0 11309700000.0 11309700000.0 11309700000.0 11309700000.0 11309700000.0 11309700000.0 11309700000.0 11309700000.0 11309700000.0 11309700000.0 11309700000.0 11309700000.0 11309700000.0 11309700000.0 11309700000.0 11309700000.0 11309700000.0 11309700000.0 11309700000.0 11309700000.0 11309700000.0 11309700000.0 11309700000.0 11309700000.0 11309700000.0 11309700000.0 11309700000.0 11309700000.0 11309700000.0 11309700000.0 11309700000.0 11309700000.0 11309700000.0 11309700000.0 11309700000.0 11309700000.0 11309700000.0 11309700000.0 11309700000.0 11309700000.0 11309700000.0 11309700000.0 11309700000.0 11309700000.0 11309700000.0 11309700000.0 11309700000.0 11309700000.0 11309700000.0 11309700000.0 11309700000.0 11309700000.0 11309700000.0 11309700000.0 11309700000.0 11309700000.0 11309700000.0 11309700000.0 11309700000.0 11309700000.0 11309700000.0 11309700000.0 11309700000.0 11309700000.0 11309700000.0 11309700000.0 11309700000.0 11309700000.0 11309700000.0 11309700000.0 11309700000.0 11309700000.0 11309700000.0 11309700000.0 11309700000.0 11309700000.0 11309700000.0 11309700000.0 11309700000.0 11309700000.0 11309700000.0 11309700000.0 11309700000.0 11309700000.0 11309700000.0 11309700000.0 11309700000.0 11309700000.0 11309700000.0 11309700000.0 11309700000.0 11309700000.0 11309700000.0 11309700000.0 11309700000.0 11309700000.0 11309700000.0 11309700000.0 11309700000.0 11309700000.0 11309700000.0 11309700000.0 11309700000.0 11309700000.0 11309700000.0 11309700000.0 11309700000.0 11309700000.0 11309700000.0 11309700000.0 11309700000.0 11309700000.0 11309700000.0 11309700000.0 11309700000.0 11309700000.0 11309700000.0 11309700000.0 11309700000.0 11309700000.0 11309700000.0 11309700000.0 11309700000.0 11309700000.0 11309700000.0 11309700000.0 11309700000.0 11309700000.0 11309700000.0 11309700000.0 11309700000.0 11309700000.0 11309700000.0 11309700000.0 11309700000.0 11309700000.0 11309700000.0 11309700000.0 11309700000.0 11309700000.0 11309700000.0 11309700000.0 11309700000.0 11309700000.0 11309700000.0 11309700000.0 11309700000.0 11309700000.0 11309700000.0 11309700000.0 11309700000.0 11309700000.0 11309700000.0 11309700000.0 11309700000.0 11309700000.0 11309700000.0 11309700000.0 11309700000.0 11309700000.0 11309700000.0 11309700000.0 11309700000.0 11309700000.0 11309700000.0 11309700000.0 11309700000.0 11309700000.0 11309700000.0 11309700000.0 11309700000.0 11309700000.0 11309700000.0 11309700000.0 11309700000.0 11309700000.0 11309700000.0 11309700000.0 11309700000.0 11309700000.0 11309700000.0 11309700000.0 11309700000.0 11309700000.0 11309700000.0 11309700000.0 11309700000.0 11309700000.0 11309700000.0 11309700000.0 11309700000.0 11309700000.0 11309700000.0 11309700000.0 11309700000.0 11309700000.0 11309700000.0 11309700000.0 11309700000.0 11309700000.0 11309700000.0 11309700000.0 11309700000.0 11309700000.0 11309700000.0 11309700000.0 11309700000.0 11309700000.0 11309700000.0 11309700000.0 11309700000.0 11309700000.0 11309700000.0 11309700000.0 11309700000.0 11309700000.0 11309700000.0 11309700000.0 11309700000.0 11309700000.0 11309700000.0 11309700000.0 11309700000.0 11309700000.0 11309700000.0 11309700000.0 11309700000.0 11309700000.0 11309700000.0 11309700000.0 11309700000.0 11309700000.0 11309700000.0 11309700000.0 11309700000.0 11309700000.0 11309700000.0 11309700000.0 11309700000.0 11309700000.0 11309700000.0 11309700000.0 11309700000.0 11309700000.0 11309700000.0 11309700000.0 11309700000.0 11309700000.0 11309700000.0 11309700000.0 11309700000.0 11309700000.0 11309700000.0 11309700000.0 11309700000.0 11309700000.0 11309700000.0 11309700000.0 11309700000.0 11309700000.0 11309700000.0 11309700000.0 11309700000.0 11309700000.0 11309700000.0 11309700000.0 11309700000.0 11309700000.0 11309700000.0 11309700000.0 11309700000.0 11309700000.0 11309700000.0 11309700000.0 11309700000.0 11309700000.0 11309700000.0 11309700000.0 11309700000.0 11309700000.0 11309700000.0 11309700000.0 11309700000.0 11309700000.0 11309700000.0 11309700000.0 11309700000.0 11309700000.0 11309700000.0 11309700000.0 11309700000.0 11309700000.0 11309700000.0 11309700000.0 11309700000.0 11309700000.0 11309700000.0 11309700000.0 11309700000.0 11309700000.0 11309700000.0 11309700000.0 11309700000.0 11309700000.0 11309700000.0 11309700000.0 11309700000.0 11309700000.0 11309700000.0 11309700000.0 11309700000.0 11309700000.0 11309700000.0 11309700000.0 11309700000.0 11309700000.0 11309700000.0 11309700000.0 11309700000.0 11309700000.0 11309700000.0 11309700000.0 11309700000.0 11309700000.0 11309700000.0 11309700000.0 11309700000.0 11309700000.0 11309700000.0 11309700000.0 11309700000.0 11309700000.0 11309700000.0 11309700000.0 11309700000.0 11309700000.0 11309700000.0 11309700000.0 11309700000.0 11309700000.0 11309700000.0 11309700000.0 11309700000.0 11309700000.0 11309700000.0 11309700000.0 11309700000.0 11309700000.0 11309700000.0 11309700000.0 11309700000.0 11309700000.0 11309700000.0 11309700000.0 11309700000.0 11309700000.0 11309700000.0 11309700000.0 11309700000.0 11309700000.0 11309700000.0 11309700000.0 11309700000.0 11309700000.0 11309700000.0 11309700000.0 11309700000.0 11309700000.0 11309700000.0 11309700000.0 11309700000.0 11309700000.0 11309700000.0 11309700000.0 11309700000.0 11309700000.0 11309700000.0 11309700000.0 11309700000.0 11309700000.0 11309700000.0 11309700000.0 11309700000.0 11309700000.0 11309700000.0 11309700000.0 11309700000.0 11309700000.0 11309700000.0 11309700000.0 11309700000.0 11309700000.0 11309700000.0 11309700000.0 11309700000.0 11309700000.0 11309700000.0 11309700000.0 11309700000.0 11309700000.0 11309700000.0 11309700000.0 11309700000.0 11309700000.0 11309700000.0 11309700000.0 11309700000.0 11309700000.0 11309700000.0 11309700000.0 11309700000.0 11309700000.0 11309700000.0 11309700000.0 11309700000.0 11309700000.0 11309700000.0 11309700000.0 11309700000.0 11309700000.0 11309700000.0 11309700000.0 11309700000.0 11309700000.0 11309700000.0 11309700000.0 11309700000.0 11309700000.0 11309700000.0 11309700000.0 11309700000.0 11309700000.0 11309700000.0 11309700000.0 11309700000.0 11309700000.0 11309700000.0 11309700000.0 11309700000.0 11309700000.0 11309700000.0 11309700000.0 11309700000.0 11309700000.0 11309700000.0 11309700000.0 11309700000.0 11309700000.0 11309700000.0 11309700000.0 11309700000.0 11309700000.0 11309700000.0 11309700000.0 11309700000.0 11309700000.0 11309700000.0 11309700000.0 11309700000.0 11309700000.0 11309700000.0 11309700000.0 11309700000.0 11309700000.0 11309700000.0 11309700000.0 11309700000.0 11309700000.0 11309700000.0 11309700000.0 11309700000.0 11309700000.0 11309700000.0 11309700000.0 11309700000.0 11309700000.0 11309700000.0 11309700000.0 11309700000.0 11309700000.0 11309700000.0 11309700000.0 11309700000.0 11309700000.0 11309700000.0 11309700000.0 11309700000.0 11309700000.0 11309700000.0 11309700000.0 11309700000.0 11309700000.0 11309700000.0 11309700000.0 11309700000.0 11309700000.0 11309700000.0 11309700000.0 11309700000.0 11309700000.0 11309700000.0 11309700000.0 11309700000.0 11309700000.0 11309700000.0 11309700000.0 11309700000.0 11309700000.0 11309700000.0 11309700000.0 11309700000.0 11309700000.0 11309700000.0 11309700000.0 11309700000.0 11309700000.0 11309700000.0 11309700000.0 11309700000.0 11309700000.0 11309700000.0 11309700000.0 11309700000.0 11309700000.0 11309700000.0 11309700000.0 11309700000.0 11309700000.0 11309700000.0 11309700000.0 11309700000.0 11309700000.0 11309700000.0 11309700000.0 11309700000.0 11309700000.0 11309700000.0 11309700000.0 11309700000.0 11309700000.0 11309700000.0 11309700000.0 11309700000.0 11309700000.0 11309700000.0 11309700000.0 11309700000.0 11309700000.0 11309700000.0 11309700000.0 11309700000.0 11309700000.0 11309700000.0 11309700000.0 11309700000.0 11309700000.0 11309700000.0 11309700000.0 11309700000.0 11309700000.0 11309700000.0 11309700000.0 11309700000.0 11309700000.0 11309700000.0 11309700000.0 11309700000.0 11309700000.0 11309700000.0 11309700000.0 11309700000.0 11309700000.0 11309700000.0 11309700000.0 11309700000.0 11309700000.0 11309700000.0 11309700000.0 11309700000.0 11309700000.0 11309700000.0 11309700000.0 11309700000.0 11309700000.0 11309700000.0 11309700000.0 11309700000.0 11309700000.0 11309700000.0 11309700000.0 11309700000.0 11309700000.0 11309700000.0 11309700000.0 11309700000.0 11309700000.0 11309700000.0 11309700000.0 11309700000.0 11309700000.0 11309700000.0 11309700000.0 11309700000.0 11309700000.0 11309700000.0 11309700000.0 11309700000.0 11309700000.0 11309700000.0 11309700000.0 11309700000.0 11309700000.0 11309700000.0 11309700000.0 11309700000.0 11309700000.0 11309700000.0 11309700000.0 11309700000.0 11309700000.0 11309700000.0 11309700000.0 11309700000.0 11309700000.0 11309700000.0 11309700000.0 11309700000.0 11309700000.0 11309700000.0 11309700000.0 11309700000.0 11309700000.0 11309700000.0 11309700000.0 11309700000.0 11309700000.0 11309700000.0 11309700000.0 11309700000.0 11309700000.0 11309700000.0 11309700000.0 11309700000.0 11309700000.0 11309700000.0 11309700000.0 11309700000.0 11309700000.0 11309700000.0 11309700000.0 11309700000.0 11309700000.0 11309700000.0 11309700000.0 11309700000.0 11309700000.0 11309700000.0 11309700000.0 11309700000.0 11309700000.0 11309700000.0 11309700000.0 11309700000.0 11309700000.0 11309700000.0 11309700000.0 11309700000.0 11309700000.0 11309700000.0 11309700000.0 11309700000.0 11309700000.0 11309700000.0 11309700000.0 11309700000.0 11309700000.0 11309700000.0 11309700000.0 11309700000.0 11309700000.0 11309700000.0 11309700000.0 11309700000.0 11309700000.0 11309700000.0 11309700000.0 11309700000.0 11309700000.0 11309700000.0 11309700000.0 11309700000.0 11309700000.0 11309700000.0 11309700000.0 11309700000.0 11309700000.0 11309700000.0 11309700000.0 11309700000.0 11309700000.0 11309700000.0 11309700000.0 11309700000.0 11309700000.0 11309700000.0 11309700000.0 11309700000.0 11309700000.0 11309700000.0 11309700000.0 11309700000.0 11309700000.0 11309700000.0 11309700000.0 11309700000.0 11309700000.0 11309700000.0 11309700000.0 11309700000.0 11309700000.0 11309700000.0 11309700000.0 11309700000.0 11309700000.0 11309700000.0 11309700000.0 11309700000.0 11309700000.0 11309700000.0 11309700000.0 11309700000.0 11309700000.0 11309700000.0 11309700000.0 11309700000.0 11309700000.0 11309700000.0 11309700000.0 11309700000.0 11309700000.0 11309700000.0 11309700000.0 11309700000.0 11309700000.0 11309700000.0 11309700000.0 11309700000.0 11309700000.0 11309700000.0 11309700000.0 11309700000.0 11309700000.0 11309700000.0 11309700000.0 11309700000.0 11309700000.0 11309700000.0 11309700000.0 11309700000.0 11309700000.0 11309700000.0 11309700000.0 11309700000.0 11309700000.0 11309700000.0 11309700000.0 11309700000.0 11309700000.0 11309700000.0 11309700000.0 11309700000.0 11309700000.0 11309700000.0 11309700000.0 11309700000.0 11309700000.0 11309700000.0 11309700000.0 11309700000.0 11309700000.0 11309700000.0 11309700000.0 11309700000.0 11309700000.0 11309700000.0 11309700000.0 11309700000.0 11309700000.0 11309700000.0 11309700000.0 11309700000.0 11309700000.0 11309700000.0 11309700000.0 11309700000.0 11309700000.0 11309700000.0 11309700000.0 11309700000.0 11309700000.0 11309700000.0 11309700000.0 11309700000.0 11309700000.0 11309700000.0 11309700000.0 11309700000.0 11309700000.0 11309700000.0 11309700000.0 11309700000.0 11309700000.0 11309700000.0 11309700000.0 11309700000.0 11309700000.0 11309700000.0 11309700000.0 11309700000.0 11309700000.0 11309700000.0 11309700000.0 11309700000.0 11309700000.0 11309700000.0 11309700000.0 11309700000.0 11309700000.0 11309700000.0 11309700000.0 11309700000.0 11309700000.0 11309700000.0 11309700000.0 11309700000.0 11309700000.0 11309700000.0 11309700000.0 11309700000.0 11309700000.0 11309700000.0 11309700000.0 11309700000.0 11309700000.0 11309700000.0 11309700000.0 11309700000.0 11309700000.0 11309700000.0 11309700000.0 11309700000.0 11309700000.0 11309700000.0 11309700000.0 11309700000.0 11309700000.0 11309700000.0 11309700000.0 11309700000.0 11309700000.0 11309700000.0 11309700000.0 11309700000.0 11309700000.0 11309700000.0 11309700000.0 11309700000.0 11309700000.0 11309700000.0 11309700000.0 11309700000.0 11309700000.0 11309700000.0 11309700000.0 11309700000.0 11309700000.0 11309700000.0 11309700000.0 11309700000.0 11309700000.0 11309700000.0 11309700000.0 11309700000.0 11309700000.0 11309700000.0 11309700000.0 11309700000.0 11309700000.0 11309700000.0 11309700000.0 11309700000.0 11309700000.0 11309700000.0 11309700000.0 11309700000.0 11309700000.0 11309700000.0 11309700000.0 11309700000.0 11309700000.0 11309700000.0 11309700000.0 11309700000.0 11309700000.0 11309700000.0 11309700000.0 11309700000.0 11309700000.0 11309700000.0 11309700000.0 11309700000.0 11309700000.0 11309700000.0 11309700000.0 11309700000.0 11309700000.0 11309700000.0 11309700000.0 11309700000.0 11309700000.0 11309700000.0 11309700000.0 11309700000.0 11309700000.0 11309700000.0 11309700000.0 11309700000.0 11309700000.0 11309700000.0 11309700000.0 11309700000.0 11309700000.0 11309700000.0 11309700000.0 11309700000.0 11309700000.0 11309700000.0 11309700000.0 11309700000.0 11309700000.0 11309700000.0 11309700000.0 11309700000.0 11309700000.0 11309700000.0 11309700000.0 11309700000.0 11309700000.0 11309700000.0 11309700000.0 11309700000.0 11309700000.0 11309700000.0 11309700000.0 11309700000.0 11309700000.0 11309700000.0 11309700000.0 11309700000.0 11309700000.0 11309700000.0 11309700000.0 11309700000.0 11309700000.0 11309700000.0 11309700000.0 11309700000.0 11309700000.0 11309700000.0 11309700000.0 11309700000.0 11309700000.0 11309700000.0 11309700000.0 11309700000.0 11309700000.0 11309700000.0 11309700000.0 11309700000.0 11309700000.0 11309700000.0 11309700000.0 11309700000.0 11309700000.0 11309700000.0 11309700000.0 11309700000.0 11309700000.0 11309700000.0 11309700000.0 11309700000.0 11309700000.0 11309700000.0 11309700000.0 11309700000.0 11309700000.0 11309700000.0 11309700000.0 11309700000.0 11309700000.0 11309700000.0 11309700000.0 11309700000.0 11309700000.0 11309700000.0 11309700000.0 11309700000.0 11309700000.0 11309700000.0 11309700000.0 11309700000.0 11309700000.0 11309700000.0 11309700000.0 11309700000.0 11309700000.0 11309700000.0 11309700000.0 11309700000.0 11309700000.0 11309700000.0 11309700000.0 11309700000.0 11309700000.0 11309700000.0 11309700000.0 11309700000.0 11309700000.0 11309700000.0 11309700000.0 11309700000.0 11309700000.0 11309700000.0 11309700000.0 11309700000.0 11309700000.0 11309700000.0 11309700000.0 11309700000.0 11309700000.0 11309700000.0 11309700000.0 11309700000.0 11309700000.0 11309700000.0 11309700000.0 11309700000.0 11309700000.0 11309700000.0 11309700000.0 11309700000.0 11309700000.0 11309700000.0 11309700000.0 11309700000.0 11309700000.0 11309700000.0 11309700000.0 11309700000.0 11309700000.0 11309700000.0 11309700000.0 11309700000.0 11309700000.0 11309700000.0 11309700000.0 11309700000.0 11309700000.0 11309700000.0 11309700000.0 11309700000.0 11309700000.0 11309700000.0 11309700000.0 11309700000.0 11309700000.0 11309700000.0 11309700000.0 11309700000.0 11309700000.0 11309700000.0 11309700000.0 11309700000.0 11309700000.0 11309700000.0 11309700000.0 11309700000.0 11309700000.0 11309700000.0 11309700000.0 11309700000.0 11309700000.0 11309700000.0 11309700000.0 11309700000.0 11309700000.0 11309700000.0 11309700000.0 11309700000.0 11309700000.0 11309700000.0 11309700000.0 11309700000.0 11309700000.0 11309700000.0 11309700000.0 11309700000.0 11309700000.0 11309700000.0 11309700000.0 11309700000.0 11309700000.0 11309700000.0 11309700000.0 11309700000.0 11309700000.0 11309700000.0 11309700000.0 11309700000.0 11309700000.0 11309700000.0 11309700000.0 11309700000.0 11309700000.0 11309700000.0 11309700000.0 11309700000.0 11309700000.0 11309700000.0 11309700000.0 11309700000.0 11309700000.0 11309700000.0 11309700000.0 11309700000.0 11309700000.0 11309700000.0 11309700000.0 11309700000.0 11309700000.0 11309700000.0 11309700000.0 11309700000.0 11309700000.0 11309700000.0 11309700000.0 11309700000.0 11309700000.0 11309700000.0 11309700000.0 11309700000.0 11309700000.0 11309700000.0 11309700000.0 11309700000.0 11309700000.0 11309700000.0 11309700000.0 11309700000.0 11309700000.0 11309700000.0 11309700000.0 11309700000.0 11309700000.0 11309700000.0 11309700000.0 11309700000.0 11309700000.0 11309700000.0 11309700000.0 11309700000.0 11309700000.0 11309700000.0 11309700000.0 11309700000.0 11309700000.0 11309700000.0 11309700000.0 11309700000.0 11309700000.0 11309700000.0 11309700000.0 11309700000.0 11309700000.0 11309700000.0 11309700000.0 11309700000.0 11309700000.0 11309700000.0 11309700000.0 11309700000.0 11309700000.0 11309700000.0 11309700000.0 11309700000.0 11309700000.0 11309700000.0 11309700000.0 11309700000.0 11309700000.0 11309700000.0 11309700000.0 11309700000.0 11309700000.0 11309700000.0 11309700000.0 11309700000.0 11309700000.0 11309700000.0 11309700000.0 11309700000.0 11309700000.0 11309700000.0 11309700000.0 11309700000.0 11309700000.0 11309700000.0 11309700000.0 11309700000.0 11309700000.0 11309700000.0 11309700000.0 11309700000.0 11309700000.0 11309700000.0 11309700000.0 11309700000.0 11309700000.0 11309700000.0 11309700000.0 11309700000.0 11309700000.0 11309700000.0 11309700000.0 11309700000.0 11309700000.0 11309700000.0 11309700000.0 11309700000.0 11309700000.0 11309700000.0 11309700000.0 11309700000.0 11309700000.0 11309700000.0 11309700000.0 11309700000.0 11309700000.0 11309700000.0 11309700000.0 11309700000.0 11309700000.0 11309700000.0 11309700000.0 11309700000.0 11309700000.0 11309700000.0 11309700000.0 11309700000.0 11309700000.0 11309700000.0 11309700000.0 11309700000.0 11309700000.0 11309700000.0 11309700000.0 11309700000.0 11309700000.0 11309700000.0 11309700000.0 11309700000.0 11309700000.0 11309700000.0 11309700000.0 11309700000.0 11309700000.0 11309700000.0 11309700000.0 11309700000.0 11309700000.0 11309700000.0 11309700000.0 11309700000.0 11309700000.0 11309700000.0 11309700000.0 11309700000.0 11309700000.0 11309700000.0 11309700000.0 11309700000.0 11309700000.0 11309700000.0 11309700000.0 11309700000.0 11309700000.0 11309700000.0 11309700000.0 11309700000.0 11309700000.0 11309700000.0 11309700000.0 11309700000.0 11309700000.0 11309700000.0 11309700000.0 11309700000.0 11309700000.0 11309700000.0 11309700000.0 11309700000.0 11309700000.0 11309700000.0 11309700000.0 11309700000.0 11309700000.0 11309700000.0 11309700000.0 11309700000.0 11309700000.0 11309700000.0 11309700000.0 11309700000.0 11309700000.0 11309700000.0 11309700000.0 11309700000.0 11309700000.0 11309700000.0 11309700000.0 11309700000.0 11309700000.0 11309700000.0 11309700000.0 11309700000.0 11309700000.0 11309700000.0 11309700000.0 11309700000.0 11309700000.0 11309700000.0 11309700000.0 11309700000.0 11309700000.0 11309700000.0 11309700000.0 11309700000.0 11309700000.0 11309700000.0 11309700000.0 11309700000.0 11309700000.0 11309700000.0 11309700000.0 11309700000.0 11309700000.0 11309700000.0 11309700000.0 11309700000.0 11309700000.0 11309700000.0 11309700000.0 11309700000.0 11309700000.0 11309700000.0 11309700000.0 11309700000.0 11309700000.0 11309700000.0 11309700000.0 11309700000.0 11309700000.0 11309700000.0 11309700000.0 11309700000.0 11309700000.0 11309700000.0 11309700000.0 11309700000.0 11309700000.0 11309700000.0 11309700000.0 11309700000.0 11309700000.0 11309700000.0 11309700000.0 11309700000.0 11309700000.0 11309700000.0 11309700000.0 11309700000.0 11309700000.0 11309700000.0 11309700000.0 11309700000.0 11309700000.0 11309700000.0 11309700000.0 11309700000.0 11309700000.0 11309700000.0 11309700000.0 11309700000.0 11309700000.0 11309700000.0 11309700000.0 11309700000.0 11309700000.0 11309700000.0 11309700000.0 11309700000.0 11309700000.0 11309700000.0 11309700000.0 11309700000.0 11309700000.0 11309700000.0 11309700000.0 11309700000.0 11309700000.0 11309700000.0 11309700000.0 11309700000.0 11309700000.0 11309700000.0 11309700000.0 11309700000.0 11309700000.0 11309700000.0 11309700000.0 11309700000.0 11309700000.0 11309700000.0 11309700000.0 11309700000.0 11309700000.0 11309700000.0 11309700000.0 11309700000.0 11309700000.0 11309700000.0 11309700000.0 11309700000.0 11309700000.0 11309700000.0 11309700000.0 11309700000.0 11309700000.0 11309700000.0 11309700000.0 11309700000.0 11309700000.0 11309700000.0 11309700000.0 11309700000.0 11309700000.0 11309700000.0 11309700000.0 11309700000.0 11309700000.0 11309700000.0 11309700000.0 11309700000.0 11309700000.0 11309700000.0 11309700000.0 11309700000.0 11309700000.0 11309700000.0 11309700000.0 11309700000.0 11309700000.0 11309700000.0 11309700000.0 11309700000.0 11309700000.0 11309700000.0 11309700000.0 11309700000.0 11309700000.0 11309700000.0 11309700000.0 11309700000.0 11309700000.0 11309700000.0 11309700000.0 11309700000.0 11309700000.0 11309700000.0 11309700000.0 11309700000.0 11309700000.0 11309700000.0 11309700000.0 11309700000.0 11309700000.0 11309700000.0 11309700000.0 11309700000.0 11309700000.0 11309700000.0 11309700000.0 11309700000.0 11309700000.0 11309700000.0 11309700000.0 11309700000.0 11309700000.0 11309700000.0 11309700000.0 11309700000.0 11309700000.0 11309700000.0 11309700000.0 11309700000.0 11309700000.0 11309700000.0 11309700000.0 11309700000.0 11309700000.0 11309700000.0 11309700000.0 11309700000.0 11309700000.0 11309700000.0 11309700000.0 11309700000.0 11309700000.0 11309700000.0 11309700000.0 11309700000.0 11309700000.0 11309700000.0 11309700000.0 11309700000.0 11309700000.0 11309700000.0 11309700000.0 11309700000.0 11309700000.0 11309700000.0 11309700000.0 11309700000.0 11309700000.0 11309700000.0 11309700000.0 11309700000.0 11309700000.0 11309700000.0 11309700000.0 11309700000.0 11309700000.0 11309700000.0 11309700000.0 11309700000.0 11309700000.0 11309700000.0 11309700000.0 11309700000.0 11309700000.0 11309700000.0 11309700000.0 11309700000.0 11309700000.0 11309700000.0 11309700000.0 11309700000.0 11309700000.0 11309700000.0 11309700000.0 11309700000.0 11309700000.0 11309700000.0 11309700000.0 11309700000.0 11309700000.0 11309700000.0 11309700000.0 11309700000.0 11309700000.0 11309700000.0 11309700000.0 11309700000.0 11309700000.0 11309700000.0 11309700000.0 11309700000.0 11309700000.0 11309700000.0 11309700000.0 11309700000.0 11309700000.0 11309700000.0 11309700000.0 11309700000.0 11309700000.0 11309700000.0 11309700000.0 11309700000.0 11309700000.0 11309700000.0 11309700000.0 11309700000.0 11309700000.0 11309700000.0 11309700000.0 11309700000.0 11309700000.0 11309700000.0 11309700000.0 11309700000.0 11309700000.0 11309700000.0 11309700000.0 11309700000.0 11309700000.0 11309700000.0 11309700000.0 11309700000.0 11309700000.0 11309700000.0 11309700000.0 11309700000.0 11309700000.0 11309700000.0 11309700000.0 11309700000.0 11309700000.0 11309700000.0 11309700000.0 11309700000.0 11309700000.0 11309700000.0 11309700000.0 11309700000.0 11309700000.0 11309700000.0 11309700000.0 11309700000.0 11309700000.0 11309700000.0 11309700000.0 11309700000.0 11309700000.0 11309700000.0 11309700000.0 11309700000.0 11309700000.0 11309700000.0 11309700000.0 11309700000.0 11309700000.0 11309700000.0 11309700000.0 11309700000.0 11309700000.0 11309700000.0 11309700000.0 11309700000.0 11309700000.0 11309700000.0 11309700000.0 11309700000.0 11309700000.0 11309700000.0 11309700000.0 11309700000.0 11309700000.0 11309700000.0 11309700000.0 11309700000.0 11309700000.0 11309700000.0 11309700000.0 11309700000.0 11309700000.0 11309700000.0 11309700000.0 11309700000.0 11309700000.0 11309700000.0 11309700000.0 11309700000.0 11309700000.0 11309700000.0 11309700000.0 11309700000.0 11309700000.0 11309700000.0 11309700000.0 11309700000.0 11309700000.0 11309700000.0 11309700000.0 11309700000.0 11309700000.0 11309700000.0 11309700000.0 11309700000.0 11309700000.0 11309700000.0 11309700000.0 11309700000.0 11309700000.0 11309700000.0 11309700000.0 11309700000.0 11309700000.0 11309700000.0 11309700000.0 11309700000.0 11309700000.0 11309700000.0 11309700000.0 11309700000.0 11309700000.0 11309700000.0 11309700000.0 11309700000.0 11309700000.0 11309700000.0 11309700000.0 11309700000.0 11309700000.0 11309700000.0 11309700000.0 11309700000.0 11309700000.0 11309700000.0 11309700000.0 11309700000.0 11309700000.0 11309700000.0 11309700000.0 11309700000.0 11309700000.0 11309700000.0 11309700000.0 11309700000.0 11309700000.0 11309700000.0 11309700000.0 11309700000.0 11309700000.0 11309700000.0 11309700000.0 11309700000.0 11309700000.0 11309700000.0 11309700000.0 11309700000.0 11309700000.0 11309700000.0 11309700000.0 11309700000.0 11309700000.0 11309700000.0 11309700000.0 11309700000.0 11309700000.0 11309700000.0 11309700000.0 11309700000.0 11309700000.0 11309700000.0 11309700000.0 11309700000.0 11309700000.0 11309700000.0 11309700000.0 11309700000.0 11309700000.0 11309700000.0 11309700000.0 11309700000.0 11309700000.0 11309700000.0 11309700000.0 11309700000.0 11309700000.0 11309700000.0 11309700000.0 11309700000.0 11309700000.0 11309700000.0 11309700000.0 11309700000.0 11309700000.0 11309700000.0 11309700000.0 11309700000.0 11309700000.0 11309700000.0 11309700000.0 11309700000.0 11309700000.0 11309700000.0 11309700000.0 11309700000.0 11309700000.0 11309700000.0 11309700000.0 11309700000.0 11309700000.0 11309700000.0 11309700000.0 11309700000.0 11309700000.0 11309700000.0 11309700000.0 11309700000.0 11309700000.0 11309700000.0 11309700000.0 11309700000.0 11309700000.0 11309700000.0 11309700000.0 11309700000.0 11309700000.0 11309700000.0 11309700000.0 11309700000.0 11309700000.0 11309700000.0 11309700000.0 11309700000.0 11309700000.0 11309700000.0 11309700000.0 11309700000.0 11309700000.0 11309700000.0 11309700000.0 11309700000.0 11309700000.0 11309700000.0 11309700000.0 11309700000.0 11309700000.0 11309700000.0 11309700000.0 11309700000.0 11309700000.0 11309700000.0 11309700000.0 11309700000.0 11309700000.0 11309700000.0 11309700000.0 11309700000.0 11309700000.0 11309700000.0 11309700000.0 11309700000.0 11309700000.0 11309700000.0 11309700000.0 11309700000.0 11309700000.0 11309700000.0 11309700000.0 11309700000.0 11309700000.0 11309700000.0 11309700000.0 11309700000.0 11309700000.0 11309700000.0 11309700000.0 11309700000.0 11309700000.0 11309700000.0 11309700000.0 11309700000.0 11309700000.0 11309700000.0 11309700000.0 11309700000.0 11309700000.0 11309700000.0 11309700000.0 11309700000.0 11309700000.0 11309700000.0 11309700000.0 11309700000.0 11309700000.0 11309700000.0 11309700000.0 11309700000.0 11309700000.0 11309700000.0 11309700000.0 11309700000.0 11309700000.0 11309700000.0 11309700000.0 11309700000.0 11309700000.0 11309700000.0 11309700000.0 11309700000.0 11309700000.0 11309700000.0 11309700000.0 11309700000.0 11309700000.0 11309700000.0 11309700000.0 11309700000.0 11309700000.0 11309700000.0 11309700000.0 11309700000.0 11309700000.0 11309700000.0 11309700000.0 11309700000.0 11309700000.0 11309700000.0 11309700000.0 11309700000.0 11309700000.0 11309700000.0 11309700000.0 11309700000.0 11309700000.0 11309700000.0 11309700000.0 11309700000.0 11309700000.0 11309700000.0 11309700000.0 11309700000.0 11309700000.0 11309700000.0 11309700000.0 11309700000.0 11309700000.0 11309700000.0 11309700000.0 11309700000.0 11309700000.0 11309700000.0 11309700000.0 11309700000.0 11309700000.0 11309700000.0 11309700000.0 11309700000.0 11309700000.0 11309700000.0 11309700000.0 11309700000.0 11309700000.0 11309700000.0 11309700000.0 11309700000.0 11309700000.0 11309700000.0 11309700000.0 11309700000.0 11309700000.0 11309700000.0 11309700000.0 11309700000.0 11309700000.0 11309700000.0 11309700000.0 11309700000.0 11309700000.0 11309700000.0 11309700000.0 11309700000.0 11309700000.0 11309700000.0 11309700000.0 11309700000.0 11309700000.0 11309700000.0 11309700000.0 11309700000.0 11309700000.0 11309700000.0 11309700000.0 11309700000.0 11309700000.0 11309700000.0 11309700000.0 11309700000.0 11309700000.0 11309700000.0 11309700000.0 11309700000.0 11309700000.0 11309700000.0 11309700000.0 11309700000.0 11309700000.0 11309700000.0 11309700000.0 11309700000.0 11309700000.0 11309700000.0 11309700000.0 11309700000.0 11309700000.0 11309700000.0 11309700000.0 11309700000.0 11309700000.0 11309700000.0 11309700000.0 11309700000.0 11309700000.0 11309700000.0 11309700000.0 11309700000.0 11309700000.0 11309700000.0 11309700000.0 11309700000.0 11309700000.0 11309700000.0 11309700000.0 11309700000.0 11309700000.0 11309700000.0 11309700000.0 11309700000.0 11309700000.0 11309700000.0 11309700000.0 11309700000.0 11309700000.0 11309700000.0 11309700000.0 11309700000.0 11309700000.0 11309700000.0 11309700000.0 11309700000.0 11309700000.0 11309700000.0 11309700000.0 11309700000.0 11309700000.0 11309700000.0 11309700000.0 11309700000.0 11309700000.0 11309700000.0 11309700000.0 11309700000.0 11309700000.0 11309700000.0 11309700000.0 11309700000.0 11309700000.0 11309700000.0 11309700000.0 11309700000.0 11309700000.0 11309700000.0 11309700000.0 11309700000.0 11309700000.0 11309700000.0 11309700000.0 11309700000.0 11309700000.0 11309700000.0 11309700000.0 11309700000.0 11309700000.0 11309700000.0 11309700000.0 11309700000.0 11309700000.0 11309700000.0 11309700000.0 11309700000.0 11309700000.0 11309700000.0 11309700000.0 11309700000.0 11309700000.0 11309700000.0 11309700000.0 11309700000.0 11309700000.0 11309700000.0 11309700000.0 11309700000.0 11309700000.0 11309700000.0 11309700000.0 11309700000.0 11309700000.0 11309700000.0 11309700000.0 11309700000.0 11309700000.0 11309700000.0 11309700000.0 11309700000.0 11309700000.0 11309700000.0 11309700000.0 11309700000.0 11309700000.0 11309700000.0 11309700000.0 11309700000.0 11309700000.0 11309700000.0 11309700000.0 11309700000.0 11309700000.0 11309700000.0 11309700000.0 11309700000.0 11309700000.0 11309700000.0 11309700000.0 11309700000.0 11309700000.0 11309700000.0 11309700000.0 11309700000.0 11309700000.0 11309700000.0 11309700000.0 11309700000.0 11309700000.0 11309700000.0 11309700000.0 11309700000.0 11309700000.0 11309700000.0 11309700000.0 11309700000.0 11309700000.0 11309700000.0 11309700000.0 11309700000.0 11309700000.0 11309700000.0 11309700000.0 11309700000.0 11309700000.0 11309700000.0 11309700000.0 11309700000.0 11309700000.0 11309700000.0 11309700000.0 11309700000.0 11309700000.0 11309700000.0 11309700000.0 11309700000.0 11309700000.0 11309700000.0 11309700000.0 11309700000.0 11309700000.0 11309700000.0 11309700000.0 11309700000.0 11309700000.0 11309700000.0 11309700000.0 11309700000.0 11309700000.0 11309700000.0 11309700000.0 11309700000.0 11309700000.0 11309700000.0 11309700000.0 11309700000.0 11309700000.0 11309700000.0 11309700000.0 11309700000.0 11309700000.0 11309700000.0 11309700000.0 11309700000.0 11309700000.0 11309700000.0 11309700000.0 11309700000.0 11309700000.0 11309700000.0 11309700000.0 11309700000.0 11309700000.0 11309700000.0 11309700000.0 11309700000.0 11309700000.0 11309700000.0 11309700000.0 11309700000.0 11309700000.0 11309700000.0 11309700000.0 11309700000.0 11309700000.0 11309700000.0 11309700000.0 11309700000.0 11309700000.0 11309700000.0 11309700000.0 11309700000.0 11309700000.0 11309700000.0 11309700000.0 11309700000.0 11309700000.0 11309700000.0 11309700000.0 11309700000.0 11309700000.0 11309700000.0 11309700000.0 11309700000.0 11309700000.0 11309700000.0 11309700000.0 11309700000.0 11309700000.0 11309700000.0 11309700000.0 11309700000.0 11309700000.0 11309700000.0 11309700000.0 11309700000.0 11309700000.0 11309700000.0 11309700000.0 11309700000.0 11309700000.0 11309700000.0 11309700000.0 11309700000.0 11309700000.0 11309700000.0 11309700000.0 11309700000.0 11309700000.0 11309700000.0 11309700000.0 11309700000.0 11309700000.0 11309700000.0 11309700000.0 11309700000.0 11309700000.0 11309700000.0 11309700000.0 11309700000.0 11309700000.0 11309700000.0 11309700000.0 11309700000.0 11309700000.0 11309700000.0 11309700000.0 11309700000.0 11309700000.0 11309700000.0 11309700000.0 11309700000.0 11309700000.0 11309700000.0 11309700000.0 11309700000.0 11309700000.0 11309700000.0 11309700000.0 11309700000.0 11309700000.0 11309700000.0 11309700000.0 11309700000.0 11309700000.0 11309700000.0 11309700000.0 11309700000.0 11309700000.0 11309700000.0 11309700000.0 11309700000.0 11309700000.0 11309700000.0 11309700000.0 11309700000.0 11309700000.0 11309700000.0 11309700000.0 11309700000.0 11309700000.0 11309700000.0 11309700000.0 11309700000.0 11309700000.0 11309700000.0 11309700000.0 11309700000.0 11309700000.0 11309700000.0 11309700000.0 11309700000.0 11309700000.0 11309700000.0 11309700000.0 11309700000.0 11309700000.0 11309700000.0 11309700000.0 11309700000.0 11309700000.0 11309700000.0 11309700000.0 11309700000.0 11309700000.0 11309700000.0 11309700000.0 11309700000.0 11309700000.0 11309700000.0 11309700000.0 11309700000.0 11309700000.0 11309700000.0 11309700000.0 11309700000.0 11309700000.0 11309700000.0 11309700000.0 11309700000.0 11309700000.0 11309700000.0 11309700000.0 11309700000.0 11309700000.0 11309700000.0 11309700000.0 11309700000.0 11309700000.0 11309700000.0 11309700000.0 11309700000.0 11309700000.0 11309700000.0 11309700000.0 11309700000.0 11309700000.0 11309700000.0 11309700000.0 11309700000.0 11309700000.0 11309700000.0 11309700000.0 11309700000.0 11309700000.0 11309700000.0 11309700000.0 11309700000.0 11309700000.0 11309700000.0 11309700000.0 11309700000.0 11309700000.0 11309700000.0 11309700000.0 11309700000.0 11309700000.0 11309700000.0 11309700000.0 11309700000.0 11309700000.0 11309700000.0 11309700000.0 11309700000.0 11309700000.0 11309700000.0 11309700000.0 11309700000.0 11309700000.0 11309700000.0 11309700000.0 11309700000.0 11309700000.0 11309700000.0 11309700000.0 11309700000.0 11309700000.0 11309700000.0 11309700000.0 11309700000.0 11309700000.0 11309700000.0 11309700000.0 11309700000.0 11309700000.0 11309700000.0 11309700000.0 11309700000.0 11309700000.0 11309700000.0 11309700000.0 11309700000.0 11309700000.0 11309700000.0 11309700000.0 11309700000.0 11309700000.0 11309700000.0 11309700000.0 11309700000.0 11309700000.0 11309700000.0 11309700000.0 11309700000.0 11309700000.0 11309700000.0 11309700000.0 11309700000.0 11309700000.0 11309700000.0 11309700000.0 11309700000.0 11309700000.0 11309700000.0 11309700000.0 11309700000.0 11309700000.0 11309700000.0 11309700000.0 11309700000.0 11309700000.0 11309700000.0 11309700000.0 11309700000.0 11309700000.0 11309700000.0 11309700000.0 11309700000.0 11309700000.0 11309700000.0 11309700000.0 11309700000.0 11309700000.0 11309700000.0 11309700000.0 11309700000.0 11309700000.0 11309700000.0 11309700000.0 11309700000.0 11309700000.0 11309700000.0 11309700000.0 11309700000.0 11309700000.0 11309700000.0 11309700000.0 11309700000.0 11309700000.0 11309700000.0 11309700000.0 11309700000.0 11309700000.0 11309700000.0 11309700000.0 11309700000.0 11309700000.0 11309700000.0 11309700000.0 11309700000.0 11309700000.0 11309700000.0 11309700000.0 11309700000.0 11309700000.0 11309700000.0 11309700000.0 11309700000.0 11309700000.0 11309700000.0 11309700000.0 11309700000.0 11309700000.0 11309700000.0 11309700000.0 11309700000.0 11309700000.0 11309700000.0 11309700000.0 11309700000.0 11309700000.0 11309700000.0 11309700000.0 11309700000.0 11309700000.0 11309700000.0 11309700000.0 11309700000.0 11309700000.0 11309700000.0 11309700000.0 11309700000.0 11309700000.0 11309700000.0 11309700000.0 11309700000.0 11309700000.0 11309700000.0 11309700000.0 11309700000.0 11309700000.0 11309700000.0 11309700000.0 11309700000.0 11309700000.0 11309700000.0 11309700000.0 11309700000.0 11309700000.0 11309700000.0 11309700000.0 11309700000.0 11309700000.0 11309700000.0 11309700000.0 11309700000.0 11309700000.0 11309700000.0 11309700000.0 11309700000.0 11309700000.0 11309700000.0 11309700000.0 11309700000.0 11309700000.0 11309700000.0 11309700000.0 11309700000.0 11309700000.0 11309700000.0 11309700000.0 11309700000.0 11309700000.0 11309700000.0 11309700000.0 11309700000.0 11309700000.0 11309700000.0 11309700000.0 11309700000.0 11309700000.0 11309700000.0 11309700000.0 11309700000.0 11309700000.0 11309700000.0 11309700000.0 11309700000.0 11309700000.0 11309700000.0 11309700000.0 11309700000.0 11309700000.0 11309700000.0 11309700000.0 11309700000.0 11309700000.0 11309700000.0 11309700000.0 11309700000.0 11309700000.0 11309700000.0 11309700000.0 11309700000.0 11309700000.0 11309700000.0 11309700000.0 11309700000.0 11309700000.0 11309700000.0 11309700000.0 11309700000.0 11309700000.0 11309700000.0 11309700000.0 11309700000.0 11309700000.0 11309700000.0 11309700000.0 11309700000.0 11309700000.0 11309700000.0 11309700000.0 11309700000.0 11309700000.0 11309700000.0 11309700000.0 11309700000.0 11309700000.0 11309700000.0 11309700000.0 11309700000.0 11309700000.0 11309700000.0 11309700000.0 11309700000.0 11309700000.0 11309700000.0 11309700000.0 11309700000.0 11309700000.0 11309700000.0 11309700000.0 11309700000.0 11309700000.0 11309700000.0 11309700000.0 11309700000.0 11309700000.0 11309700000.0 11309700000.0 11309700000.0 11309700000.0 11309700000.0 11309700000.0 11309700000.0 11309700000.0 11309700000.0 11309700000.0 11309700000.0 11309700000.0 11309700000.0 11309700000.0 11309700000.0 11309700000.0 11309700000.0 11309700000.0 11309700000.0 11309700000.0 11309700000.0 11309700000.0 11309700000.0 11309700000.0 11309700000.0 11309700000.0 11309700000.0 11309700000.0 11309700000.0 11309700000.0 11309700000.0 11309700000.0 11309700000.0 11309700000.0 11309700000.0 11309700000.0 11309700000.0 11309700000.0 11309700000.0 11309700000.0 11309700000.0 11309700000.0 11309700000.0 11309700000.0 11309700000.0 11309700000.0 11309700000.0 11309700000.0 11309700000.0 11309700000.0 11309700000.0 11309700000.0 11309700000.0 11309700000.0 11309700000.0 11309700000.0 11309700000.0 11309700000.0 11309700000.0 11309700000.0 11309700000.0 11309700000.0 11309700000.0 11309700000.0 11309700000.0 11309700000.0 11309700000.0 11309700000.0 11309700000.0 11309700000.0 11309700000.0 11309700000.0 11309700000.0 11309700000.0 11309700000.0 11309700000.0 11309700000.0 11309700000.0 11309700000.0 11309700000.0 11309700000.0 11309700000.0 11309700000.0 11309700000.0 11309700000.0 11309700000.0 11309700000.0 11309700000.0 11309700000.0 11309700000.0 11309700000.0 11309700000.0 11309700000.0 11309700000.0 11309700000.0 11309700000.0 11309700000.0 11309700000.0 11309700000.0 11309700000.0 11309700000.0 11309700000.0 11309700000.0 11309700000.0 11309700000.0 11309700000.0 11309700000.0 11309700000.0 11309700000.0 11309700000.0 11309700000.0 11309700000.0 11309700000.0 11309700000.0 11309700000.0 11309700000.0 11309700000.0 11309700000.0 11309700000.0 11309700000.0 11309700000.0 11309700000.0 11309700000.0 11309700000.0 11309700000.0 11309700000.0 11309700000.0 11309700000.0 11309700000.0 11309700000.0 11309700000.0 11309700000.0 11309700000.0 11309700000.0 11309700000.0 11309700000.0 11309700000.0 11309700000.0 11309700000.0 11309700000.0 11309700000.0 11309700000.0 11309700000.0 11309700000.0 11309700000.0 11309700000.0 11309700000.0 11309700000.0 11309700000.0 11309700000.0 11309700000.0 11309700000.0 11309700000.0 11309700000.0 11309700000.0 11309700000.0 11309700000.0 11309700000.0 11309700000.0 11309700000.0 11309700000.0 11309700000.0 11309700000.0 11309700000.0 11309700000.0 11309700000.0 11309700000.0 11309700000.0 11309700000.0 11309700000.0 11309700000.0 11309700000.0 11309700000.0 11309700000.0 11309700000.0 11309700000.0 11309700000.0 11309700000.0 11309700000.0 11309700000.0 11309700000.0 11309700000.0 11309700000.0 11309700000.0 11309700000.0 11309700000.0 11309700000.0 11309700000.0 11309700000.0 11309700000.0 11309700000.0 11309700000.0 11309700000.0 11309700000.0 11309700000.0 11309700000.0 11309700000.0 11309700000.0 11309700000.0 11309700000.0 11309700000.0 11309700000.0 11309700000.0 11309700000.0 11309700000.0 11309700000.0 11309700000.0 11309700000.0 11309700000.0 11309700000.0 11309700000.0 11309700000.0 11309700000.0 11309700000.0 11309700000.0 11309700000.0 11309700000.0 11309700000.0 11309700000.0 11309700000.0 11309700000.0 11309700000.0 11309700000.0 11309700000.0 11309700000.0 11309700000.0 11309700000.0 11309700000.0 11309700000.0 11309700000.0 11309700000.0 11309700000.0 11309700000.0 11309700000.0 11309700000.0 11309700000.0 11309700000.0 11309700000.0 11309700000.0 11309700000.0 11309700000.0 11309700000.0 11309700000.0 11309700000.0 11309700000.0 11309700000.0 11309700000.0 11309700000.0 11309700000.0 11309700000.0 11309700000.0 11309700000.0 11309700000.0 11309700000.0 11309700000.0 11309700000.0 11309700000.0 11309700000.0 11309700000.0 11309700000.0 11309700000.0 11309700000.0 11309700000.0 11309700000.0 11309700000.0 11309700000.0 11309700000.0 11309700000.0 11309700000.0 11309700000.0 11309700000.0 11309700000.0 11309700000.0 11309700000.0 11309700000.0 11309700000.0 11309700000.0 11309700000.0 11309700000.0 11309700000.0 11309700000.0 11309700000.0 11309700000.0 11309700000.0 11309700000.0 11309700000.0 11309700000.0 11309700000.0 11309700000.0 11309700000.0 11309700000.0 11309700000.0 11309700000.0 11309700000.0 11309700000.0 11309700000.0 11309700000.0 11309700000.0 11309700000.0 11309700000.0 11309700000.0 11309700000.0 11309700000.0 11309700000.0 11309700000.0 11309700000.0 11309700000.0 11309700000.0 11309700000.0 11309700000.0 11309700000.0 11309700000.0 11309700000.0 11309700000.0 11309700000.0 11309700000.0 11309700000.0 11309700000.0 11309700000.0 11309700000.0 11309700000.0 11309700000.0 11309700000.0 11309700000.0 11309700000.0 11309700000.0 11309700000.0 11309700000.0 11309700000.0 11309700000.0 11309700000.0 11309700000.0 11309700000.0 11309700000.0 11309700000.0 11309700000.0 11309700000.0 11309700000.0 11309700000.0 11309700000.0 11309700000.0 11309700000.0 11309700000.0 11309700000.0 11309700000.0 11309700000.0 11309700000.0 11309700000.0 11309700000.0 11309700000.0 11309700000.0 11309700000.0 11309700000.0 11309700000.0 11309700000.0 11309700000.0 11309700000.0 11309700000.0 11309700000.0 11309700000.0 11309700000.0 11309700000.0 11309700000.0 11309700000.0 11309700000.0 11309700000.0 11309700000.0 11309700000.0 11309700000.0 11309700000.0 11309700000.0 11309700000.0 11309700000.0 11309700000.0 11309700000.0 11309700000.0 11309700000.0 11309700000.0 11309700000.0 11309700000.0 11309700000.0 11309700000.0 11309700000.0 11309700000.0 11309700000.0 11309700000.0 11309700000.0 11309700000.0 11309700000.0 11309700000.0 11309700000.0 11309700000.0 11309700000.0 11309700000.0 11309700000.0 11309700000.0 11309700000.0 11309700000.0 11309700000.0 11309700000.0 11309700000.0 11309700000.0 11309700000.0 11309700000.0 11309700000.0 11309700000.0 11309700000.0 11309700000.0 11309700000.0 11309700000.0 11309700000.0 11309700000.0 11309700000.0 11309700000.0 11309700000.0 11309700000.0 11309700000.0 11309700000.0 11309700000.0 11309700000.0 11309700000.0 11309700000.0 11309700000.0 11309700000.0 11309700000.0 11309700000.0 11309700000.0 11309700000.0 11309700000.0 11309700000.0 11309700000.0 11309700000.0 11309700000.0 11309700000.0 11309700000.0 11309700000.0 11309700000.0 11309700000.0 11309700000.0 11309700000.0 11309700000.0 11309700000.0 11309700000.0 11309700000.0 11309700000.0 11309700000.0 11309700000.0 11309700000.0 11309700000.0 11309700000.0 11309700000.0 11309700000.0 11309700000.0 11309700000.0 11309700000.0 11309700000.0 11309700000.0 11309700000.0 11309700000.0 11309700000.0 11309700000.0 11309700000.0 11309700000.0 11309700000.0 11309700000.0 11309700000.0 11309700000.0 11309700000.0 11309700000.0 11309700000.0 11309700000.0 11309700000.0 11309700000.0 11309700000.0 11309700000.0 11309700000.0 11309700000.0 11309700000.0 11309700000.0 11309700000.0 11309700000.0 11309700000.0 11309700000.0 11309700000.0 11309700000.0 11309700000.0 11309700000.0 11309700000.0 11309700000.0 11309700000.0 11309700000.0 11309700000.0 11309700000.0 11309700000.0 11309700000.0 11309700000.0 11309700000.0 11309700000.0 11309700000.0 11309700000.0 11309700000.0 11309700000.0 11309700000.0 11309700000.0 11309700000.0 11309700000.0 11309700000.0 11309700000.0 11309700000.0 11309700000.0 11309700000.0 11309700000.0 11309700000.0 11309700000.0 11309700000.0 11309700000.0 11309700000.0 11309700000.0 11309700000.0 11309700000.0 11309700000.0 11309700000.0 11309700000.0 11309700000.0 11309700000.0 11309700000.0 11309700000.0 11309700000.0 11309700000.0 11309700000.0 11309700000.0 11309700000.0 11309700000.0 11309700000.0 11309700000.0 11309700000.0 11309700000.0 11309700000.0 11309700000.0 11309700000.0 11309700000.0 11309700000.0 11309700000.0 11309700000.0 11309700000.0 11309700000.0 11309700000.0 11309700000.0 11309700000.0 11309700000.0 11309700000.0 11309700000.0 11309700000.0 11309700000.0 11309700000.0 11309700000.0 11309700000.0 11309700000.0 11309700000.0 11309700000.0 11309700000.0 11309700000.0 11309700000.0 11309700000.0 11309700000.0 11309700000.0 11309700000.0 11309700000.0 11309700000.0 11309700000.0 11309700000.0 11309700000.0 11309700000.0 11309700000.0 11309700000.0 
SCALARS Velocity float 1
LOOKUP_TABLE default
1.07547 1.05898 1.09206 1.07527 1.04083 1.07413 1.08336 1.08896 1.07953 1.0776 1.0768 1.07574 1.07535 1.075 1.075 1.07497 1.0769 1.07834 1.0665 1.0532 1.10029 1.02969 1.06939 1.04495 1.08336 1.08284 1.07841 1.08773 1.09115 1.09041 1.07958 1.08406 1.07863 1.07663 1.07521 1.07467 1.07647 1.06326 1.0746 1.07379 1.07674 1.05733 1.05558 1.08316 1.08168 1.09007 1.09007 1.08358 1.07748 1.07584 1.07472 1.07489 1.07815 1.07011 1.07655 1.09047 1.09125 1.07601 1.0827 1.08652 1.07999 1.07872 1.07689 1.07584 1.07511 1.07452 1.07443 1.07452 1.07631 1.07385 1.07488 1.07615 1.07223 1.08127 1.08711 1.09478 1.10468 1.0928 1.08273 1.07455 1.06884 1.08315 1.0833 1.08313 1.08887 1.08981 1.0829 1.07904 1.07838 1.07689 1.07489 1.0742 1.07332 1.07488 1.07944 1.08814 1.09798 1.08352 1.06753 1.0835 1.08383 1.08598 1.0878 1.08912 1.08023 1.08219 1.07773 1.07552 1.07417 1.07373 1.0739 1.07667 1.08188 1.09181 1.09342 1.06975 1.08374 1.08559 1.08313 1.07905 1.07627 1.07442 1.07357 1.0736 1.07326 1.0734 1.07404 1.0751 1.07875 1.0855 1.08765 1.09355 1.08952 1.08356 1.07218 1.06557 1.0839 1.08449 1.08689 1.08799 1.08325 1.08108 1.07877 1.07728 1.07562 1.07488 1.07372 1.07303 1.07334 1.07512 1.07656 1.07802 1.0806 1.08211 1.08681 1.0834 1.07193 1.08432 1.08429 1.08503 1.08561 1.08623 1.08642 1.0841 1.08093 1.07677 1.07413 1.07289 1.07285 1.074 1.07635 1.07903 1.08243 1.08422 1.07772 1.08471 1.08591 1.08565 1.08279 1.07846 1.07489 1.07294 1.07244 1.07311 1.07502 1.07747 1.0796 1.08164 1.08025 1.08127 1.07839 1.07601 1.08458 1.08527 1.08591 1.08421 1.08049 1.07787 1.07614 1.07403 1.07327 1.07209 1.07216 1.07181 1.07238 1.07274 1.07382 1.07487 1.07619 1.07733 1.07827 1.07867 1.0796 1.07903 1.07865 1.07657 1.08459 1.08487 1.08514 1.08565 1.08552 1.08535 1.08436 1.08264 1.08001 1.07532 1.07233 1.07141 1.07184 1.07351 1.07615 1.07819 1.07856 1.07805 1.0771 1.08471 1.08521 1.08507 1.08273 1.07713 1.07309 1.07121 1.07116 1.07225 1.07467 1.0775 1.07854 1.0782 1.0779 1.07687 1.07692 1.07582 1.07591 1.08431 1.08474 1.08499 1.08452 1.07937 1.07684 1.07457 1.07212 1.07128 1.07033 1.07068 1.07052 1.07123 1.07158 1.07305 1.07436 1.07621 1.078 1.0785 1.07872 1.07721 1.07569 1.07494 1.08372 1.08424 1.0841 1.08464 1.08443 1.0846 1.08477 1.07364 1.07405 1.07013 1.07006 1.07051 1.07234 1.07635 1.07914 1.07794 1.07582 1.0746 1.08349 1.08394 1.08438 1.07366 1.07277 1.07144 1.07121 1.06957 1.06968 1.06993 1.07062 1.07383 1.07898 1.07903 1.07745 1.07636 1.07449 1.0744 1.07322 1.07378 1.08285 1.08246 1.08324 1.08305 1.08385 1.08376 1.08417 1.07251 1.06987 1.06877 1.06913 1.0693 1.06958 1.06917 1.07116 1.0728 1.07652 1.0809 1.08016 1.07931 1.07503 1.07283 1.07248 1.08169 1.08208 1.08294 1.08317 1.07354 1.07086 1.0682 1.0694 1.06828 1.06928 1.07648 1.0815 1.07636 1.07269 1.07171 1.08111 1.08178 1.0829 1.07315 1.07194 1.06991 1.06889 1.07059 1.06833 1.06799 1.06824 1.06705 1.06728 1.06663 1.07078 1.08482 1.08234 1.07916 1.07403 1.07293 1.07049 1.07106 1.07034 1.0712 1.08026 1.07951 1.08052 1.07992 1.08164 1.08199 1.08187 1.07094 1.07205 1.06833 1.06712 1.06615 1.0669 1.07527 1.09316 1.0776 1.06992 1.06962 1.07013 1.0786 1.07879 1.07928 1.08043 1.07224 1.07467 1.07346 1.07119 1.06986 1.0675 1.06618 1.06626 1.06782 1.07865 1.06943 1.0688 1.06904 1.06886 1.06937 1.06929 1.07671 1.07775 1.07701 1.07813 1.07788 1.07936 1.07733 1.07567 1.07244 1.06948 1.06828 1.06739 1.06664 1.06575 1.06552 1.06594 1.06993 1.071 1.10707 1.06675 1.07154 1.0702 1.06872 1.06875 1.0758 1.07649 1.07743 1.07635 1.07353 1.07062 1.06822 1.06661 1.06479 1.07119 1.05191 1.07106 1.06944 1.06853 1.06852 1.07449 1.07504 1.07603 1.07618 1.07445 1.07252 1.07165 1.07007 1.06918 1.06802 1.06733 1.06582 1.06331 1.03887 1.03848 1.05236 1.06551 1.06832 1.0702 1.069 1.06874 1.06799 1.06815 1.0675 1.07182 1.07348 1.07255 1.07437 1.07365 1.07533 1.07412 1.07476 1.07297 1.07083 1.06874 1.06701 1.06646 1.06516 1.06458 1.05716 1.04354 1.04347 1.06126 1.06797 1.06781 1.06709 1.07061 1.07163 1.07271 1.07269 1.07127 1.06938 1.06757 1.06572 1.06121 1.04799 1.04269 1.04673 1.05214 1.06421 1.06691 1.06657 1.06587 1.06857 1.06708 1.06941 1.06819 1.07064 1.06957 1.07152 1.07026 1.07115 1.06976 1.06979 1.06851 1.06811 1.06686 1.0663 1.06444 1.0632 1.05576 1.04726 1.05231 1.05817 1.06064 1.06452 1.06371 1.06558 1.064 1.06514 1.06333 1.0647 1.06554 1.06698 1.06847 1.06906 1.06857 1.06732 1.06536 1.06196 1.05964 1.05617 1.05132 1.05084 1.04972 1.05622 1.06094 1.06227 1.06209 1.06285 1.06402 1.06585 1.06749 1.06806 1.06753 1.06606 1.06351 1.05933 1.0539 1.05221 1.05297 1.05503 1.05774 1.05741 1.05997 1.05814 1.06033 1.05787 1.0597 1.06028 1.05805 1.06095 1.0591 1.06261 1.06148 1.06493 1.06436 1.06674 1.06627 1.06727 1.0666 1.06653 1.06547 1.06464 1.06308 1.06149 1.05968 1.0572 1.05366 1.05378 1.05523 1.05579 1.05563 1.05485 1.05553 1.05574 1.05747 1.06082 1.0642 1.06603 1.06596 1.06432 1.06157 1.0584 1.05605 1.05607 1.05438 1.05467 1.05415 1.05377 1.05322 1.05246 1.05075 1.05289 1.05009 1.05347 1.05153 1.05634 1.05602 1.06078 1.06144 1.06445 1.06499 1.06592 1.06583 1.06528 1.06452 1.06314 1.06032 1.05792 1.05655 1.05333 1.05272 1.04967 1.05105 1.04737 1.04985 1.0457 1.04863 1.04771 1.04726 1.05036 1.05671 1.06267 1.06565 1.06566 1.06366 1.062 1.06101 1.05954 1.05945 1.05831 1.05576 1.04983 1.04547 1.04285 1.0408 1.04652 1.04327 1.04437 1.04089 1.04489 1.04361 1.05047 1.05206 1.05841 1.06422 1.06626 1.06535 1.06271 1.06034 1.06035 1.0591 1.05727 1.05245 1.04615 1.04476 1.03886 1.04042 1.03446 1.03739 1.03108 1.04367 1.03933 1.03788 1.04418 1.05507 1.06086 1.06371 1.06584 1.06734 1.06672 1.06697 1.06486 1.06414 1.06164 1.06036 1.06025 1.06249 1.05136 1.03873 1.03234 1.02732 1.04035 1.03485 1.03629 1.04697 1.05913 1.06658 1.06857 1.06694 1.06316 1.05876 1.06156 1.06713 1.05941 1.04117 1.03132 1.02334 1.02465 1.0153 1.01925 0.893832 1.04298 1.03972 1.0355 1.02944 1.03064 1.02842 1.03733 1.04158 1.05172 1.05763 1.0636 1.06782 1.06911 1.07114 1.06943 1.06664 1.06197 1.0568 1.06191 1.05005 1.03538 1.03189 1.02347 1.01338 1.00487 1.0455 1.03363 1.02297 1.02931 1.04822 1.06374 1.07143 1.07261 1.06992 1.07011 1.06613 1.06572 1.06093 1.06263 1.05952 1.04561 1.052 1.02518 1.01378 0.99958 1.00053 0.986002 1.05103 1.04218 1.03399 1.02507 1.01501 1.01951 1.01945 1.03487 1.04413 1.05613 1.06415 1.06939 1.07426 1.07356 1.07018 1.06645 1.06154 1.02285 1.02898 1.02145 1.0165 1.00195 0.980822 0.893832 1.04636 1.02227 1.01113 1.02652 1.05451 1.07083 1.07402 1.07734 1.07621 1.07742 1.07412 1.07452 1.07057 1.06622 1.04647 1.02425 1.00514 1.01819 1.0072 0.980905 0.955131 0.95942 1.05961 1.05666 1.03847 1.02653 1.00834 1.008 1.00933 1.01413 1.03805 1.06328 1.07576 1.07965 1.07803 1.07447 1.07042 1.06715 1.05979 1.04465 1.01405 1.0101 0.991529 0.984904 0.957343 0.932581 1.07467 1.05568 1.00316 0.995628 1.02415 1.04884 1.0582 1.07018 1.07608 1.07967 1.0808 1.07805 1.07278 1.05889 1.02906 1.01869 1.01299 0.999261 0.964126 0.932269 0.923162 0.893832 1.10643 1.08138 1.09298 1.04477 0.987597 1.01562 0.972465 0.992056 1.03424 1.06736 1.08022 1.08196 1.08272 1.08094 1.08017 1.07711 1.07475 1.06831 1.06111 1.04667 1.03328 1.00812 0.973955 0.952472 0.937578 0.913598 1.13322 1.09022 1.05139 0.920776 0.990019 1.02032 1.05045 1.06487 1.07485 1.08238 1.08196 1.07862 1.07086 1.05044 1.01956 1.00289 0.988084 0.963142 0.920824 0.845058 0.866204 1.1377 1.14777 1.19575 1.35186 0.951413 0.997266 0.837477 0.977785 1.04776 1.07231 1.07897 1.07978 1.08212 1.08026 1.08036 1.07653 1.06521 1.05413 1.03582 1.0175 0.980006 0.961817 0.941729 0.885239 0.707153 1.15375 1.20674 0.516611 0.985943 0.942053 1.00297 1.02262 1.06203 1.07467 1.0782 1.07769 1.07853 1.077 1.07399 1.07095 1.03557 0.996318 0.974548 0.881566 0.781372 0.90865 1.19857 1.08139 1.33636 1.81953 0.333418 0.691785 1.02798 1.02621 1.04603 1.05681 1.0672 1.06636 1.07363 1.07481 1.0754 1.07631 1.0582 1.03288 1.01539 0.993507 0.950554 0.87732 0.852358 0.946263 1.04907 1.00974 1.16825 2.01163 0.79827 0.965331 0.993369 1.01969 1.04203 1.05766 1.06223 1.06984 1.06454 1.07072 1.06652 1.07422 1.0764 1.07967 1.06274 1.01023 0.993935 0.962804 0.892804 0.835479 0.933272 1.27516 1.33573 1.07676 1.94416 0.637038 0.899655 1.01409 1.03009 1.03361 1.04665 1.0536 1.05566 1.0593 1.06197 1.0954 1.02271 1.00301 0.973185 1.05203 0.677904 0.760129 1.54473 1.14718 1.16913 1.41915 1.2309 0.700497 0.811044 0.822213 0.946502 1.01932 1.03299 1.04438 1.03643 1.04583 1.036 1.0486 1.04377 1.05611 1.05573 1.05476 1.06464 1.06412 1.00812 1.00139 0.987113 0.950129 0.973189 0.953159 1.71723 17.1696 0.240447 0.0607566 2.08632 1.40502 1.24453 1.18755 1.07221 0.79854 0.91304 0.989402 0.999116 1.01947 1.02674 1.02427 1.02677 1.04516 1.06348 0.989137 0.933755 1.00178 0.993376 0.989881 0.932282 0.954958 0.957925 0.251636 0.565002 0.501771 1.71636 1.32665 1.15997 1.00602 0.824618 0.830793 0.846958 0.957988 1.00025 1.01604 1.0067 1.01476 0.996687 1.00946 1.02325 1.05675 1.04337 0.976276 0.969351 0.970878 1.00127 1.01921 0.947701 0.924977 1.03597 1.04927 0.693973 1.05757 0.598041 0.545212 0.565466 0.669391 0.89646 1.40282 1.75027 1.15868 1.07515 0.87791 0.86845 0.908852 0.93877 0.976584 0.995627 0.989752 0.974494 0.996067 0.993799 1.03395 1.05371 1.04872 1.00976 0.942888 0.94732 0.979365 0.999418 0.987756 1.0022 0.576565 1.53355 0.989809 0.629566 0.561063 0.342368 0.559464 0.592187 0.628139 0.649227 0.421757 1.08779 1.03869 0.955122 0.857759 0.902548 0.953996 0.980707 0.974572 0.983785 0.964116 0.954237 1.02026 1.02739 0.968736 0.955036 0.923372 0.924421 0.953452 0.965877 1.01663 0.927383 0.873286 0.878296 1.06073 0.647373 0.570105 0.649785 0.608355 0.682301 0.570797 0.571864 0.566341 0.597779 0.258959 0.744311 1.37514 1.04415 0.939801 0.968889 0.919415 0.888722 0.878316 0.881865 0.928274 0.956913 0.959542 0.962338 0.931807 0.932146 0.901703 0.951451 1.01317 1.06718 0.996564 0.909904 0.896633 0.931063 0.983416 0.978093 1.01627 1.00329 0.904081 0.83029 0.638049 0.570517 0.735612 0.698614 0.676682 0.602807 0.598243 0.576936 0.579803 0.64928 0.564177 0.743586 1.19651 0.935905 0.923637 0.926422 0.889172 0.895384 0.905552 0.919951 0.938226 0.950261 0.937262 0.896604 0.887574 1.11914 0.888401 0.896099 0.880527 0.899287 0.912548 0.946086 0.9553 0.985179 1.01008 0.901772 0.860087 0.705059 0.804577 0.78678 0.770312 0.72479 0.684384 0.691756 0.690499 0.678526 0.628067 0.634184 0.620567 0.587888 0.581071 0.624571 0.698575 0.738657 0.744173 0.879048 0.968318 0.901139 0.886827 0.893019 0.89322 0.89656 0.910254 0.921345 0.935257 0.925624 0.934543 0.911626 0.909035 0.883895 0.864498 1.01835 1.07792 0.877276 0.873086 0.876154 0.933401 0.953943 1.00685 0.905726 0.749018 0.797385 0.803861 0.753816 0.714791 0.69746 0.691091 0.639691 0.617513 0.651071 0.662498 0.616599 0.532668 0.6694 0.701795 0.725102 0.809505 0.885775 0.854978 0.88768 0.909452 0.906454 0.908556 0.913182 0.911865 0.907511 0.888063 0.868741 0.851592 0.499449 0.777185 0.960339 0.962107 0.886376 0.86097 0.855733 0.887605 0.879132 0.937302 0.957628 1.14603 1.00707 0.87588 0.912075 0.809184 0.744975 0.720116 0.698349 0.671849 0.658205 0.667489 0.60906 0.587808 0.502411 0.575644 0.629102 0.590597 0.644734 0.595167 0.664677 0.757366 0.764987 0.731461 0.771253 0.842987 0.913104 0.829944 0.838677 0.905 0.902519 0.912858 0.88823 0.897724 0.881374 0.901204 0.883773 0.886593 0.86321 0.703739 0.669676 0.857162 0.855672 0.862951 0.86575 0.810373 0.686193 1.10778 1.58062 1.68391 1.47058 0.762382 0.725025 0.692659 0.651531 0.60941 0.624191 0.561972 0.554867 0.527144 0.485905 0.435914 0.393772 0.562168 0.581385 0.507118 0.570102 0.686607 0.800302 0.928973 0.773597 0.967205 0.863959 0.833128 0.958227 0.920126 0.923458 0.8824 0.857059 0.883074 0.861687 0.859025 0.790739 0.762082 0.65357 0.534605 0.579718 0.902977 0.826721 0.845132 0.851507 0.855667 0.836388 0.767496 0.530004 1.38501 1.11185 0.879006 1.02714 0.810768 0.733398 0.680804 0.637787 0.61454 0.581378 0.528332 0.510093 0.45465 0.437481 0.310787 0.457156 0.533335 0.666793 0.579439 0.624753 0.491657 0.604309 0.684548 0.560358 0.962028 1.24276 0.922849 0.821887 0.763701 0.81146 0.894402 0.880592 0.885822 0.825304 0.835655 0.81149 0.847791 0.860577 0.810142 0.704287 0.580705 0.748957 0.353687 0.764856 0.805222 0.840326 0.834294 0.787055 0.719169 0.983586 0.799436 0.338242 0.222937 0.513276 0.595229 0.664873 0.595478 0.551585 0.529628 0.4979 0.467336 0.442835 0.428432 0.210534 0.398765 0.411664 0.44684 0.847149 0.543597 0.503656 0.503113 0.602477 0.540085 0.649186 0.282595 1.14965 0.673479 0.746743 0.723391 0.710243 1.05841 0.848779 0.84204 0.788664 0.810481 0.878107 0.824062 0.832324 0.779307 0.739921 0.668113 0.635542 0.616919 0.653375 0.590351 0.602092 0.839125 0.860717 0.801379 0.761829 0.838978 0.804782 0.681128 0.212079 0.266224 0.462671 0.648112 0.623609 0.60022 0.588314 0.56518 0.505081 0.464755 0.432415 0.429065 0.420731 0.41384 0.173563 0.199802 0.275443 0.364273 0.305701 0.764911 0.557807 0.40997 0.449961 0.585116 0.582967 0.245586 0.683046 0.936639 0.779766 0.823713 0.934059 1.32394 0.919568 0.694001 0.755573 0.776474 0.769952 0.885008 0.823763 0.712441 0.624156 0.587505 0.459135 0.579009 0.681658 0.720736 0.945853 0.872671 0.771172 0.787822 0.749644 0.692323 0.570446 0.386666 0.262561 0.401336 0.554009 0.602537 0.600158 0.585632 0.566369 0.540819 0.515927 0.477415 0.441288 0.421737 0.421771 0.412274 0.376407 0.329763 0.0795219 0.149743 0.180809 0.23549 0.307968 0.351362 0.402206 0.416182 0.518497 0.541695 0.396262 0.421301 0.56893 0.628261 0.447654 0.577014 0.691473 0.778527 0.609521 0.403753 0.515636 1.36501 0.642623 0.709711 0.722125 0.767677 0.737675 0.745049 0.761155 0.785736 0.637597 0.579911 0.550891 0.54372 0.508846 0.650594 0.728757 0.676009 0.804064 0.806839 0.758546 0.691893 0.647309 0.392486 0.377799 0.483186 0.537163 0.575459 0.58414 0.568718 0.550754 0.490332 0.457638 0.429976 0.416989 0.402932 0.363833 0.304902 0.0780392 0.180951 0.156734 0.237001 0.334459 0.401247 0.430745 0.499262 0.480556 0.523037 0.586737 0.625597 0.566176 0.550218 0.627874 0.64905 0.618823 0.44893 0.145481 0.611011 0.99401 0.682709 0.679843 0.623471 0.714028 0.696957 0.634894 0.72208 0.902892 0.824492 0.694645 0.61108 0.599741 0.556817 0.53403 0.585196 0.633329 0.695641 0.716617 0.647954 0.757596 0.769518 0.738049 0.546856 0.403396 0.437685 0.480602 0.530712 0.568837 0.572763 0.558392 0.552172 0.434147 0.442312 0.428359 0.41207 0.380358 0.389462 0.382682 0.337993 0.358699 0.309104 0.195731 0.0116332 0.10872 0.215653 0.254905 0.316179 0.379849 0.423554 0.466789 0.488402 0.498084 0.48506 0.515875 0.583015 0.594212 0.565963 0.667179 0.495547 0.325404 0.52614 0.647401 0.803641 0.682301 0.663774 0.683823 0.652147 0.667697 0.638905 0.702276 0.606629 0.535555 0.542277 0.603237 0.674283 0.692267 0.743831 0.75082 0.674572 0.599391 0.523384 0.431729 0.420183 0.452715 0.497352 0.546584 0.564826 0.552523 0.528385 0.508347 0.410942 0.415949 0.395951 0.363703 0.354889 0.311295 0.200502 0.199594 0.00849387 0.0843961 0.36997 0.294927 0.297631 0.328325 0.36538 0.38385 0.413846 0.453742 0.479931 0.496243 0.498855 0.502079 0.552223 0.560732 0.549928 0.462989 0.580841 0.532318 0.424259 0.532475 0.548916 0.638007 0.741788 0.66708 0.650663 0.658461 0.65943 0.640984 0.651285 0.898578 0.597135 0.550706 0.487626 0.531105 0.564723 0.654575 0.692858 0.688018 0.682926 0.709164 0.735987 0.74183 0.66431 0.578449 0.496959 0.414572 0.425471 0.47113 0.526925 0.557907 0.553971 0.531983 0.509533 0.475638 0.424015 0.423391 0.418187 0.385618 0.303606 0.300182 0.259527 0.165305 0.149941 0.163361 0.0495127 0.226147 0.271379 0.606537 0.253806 0.394086 0.371711 0.429225 0.466038 0.481793 0.501658 0.502501 0.531492 0.537063 0.509026 0.529384 0.555915 0.484742 0.526335 0.530429 0.575948 0.632438 0.689757 0.653853 0.661357 0.661396 0.811816 0.598961 0.644889 0.520305 0.511213 0.619776 0.65193 0.668019 0.671361 0.680946 0.754955 0.751973 0.696985 0.595394 0.469193 0.427959 0.444595 0.505231 0.559503 0.562018 0.542538 0.516487 0.490076 0.458371 0.422221 0.410817 0.421122 0.413948 0.358814 0.324566 0.337966 0.315697 0.288127 0.246622 0.109081 0.0973407 0.0999592 0.035678 0.0170452 0.129669 0.656297 0.939557 0.233049 0.360252 0.441196 0.386429 0.345825 0.389504 0.444485 0.467184 0.495143 0.50279 0.500387 0.494922 0.530924 0.524072 0.522598 0.524623 0.513409 0.470524 0.561303 0.579199 0.617 0.658399 0.653717 0.653531 0.650399 0.652298 0.643533 0.643774 0.535753 0.802701 0.570773 0.443463 0.581279 0.618553 0.634608 0.642468 0.639211 0.703629 0.715031 0.758122 0.803821 0.795086 0.671605 0.500525 0.471698 0.512409 0.567598 0.581966 0.562901 0.535441 0.507197 0.476312 0.438518 0.414533 0.419287 0.39499 0.327832 0.320194 0.252104 0.182926 0.155829 0.125767 0.0990463 0.0681368 0.0781435 0.0652121 0.280237 0.29853 0.15697 0.378881 0.356921 0.289969 0.419602 0.45696 0.479985 0.487752 0.500963 0.505943 0.514382 0.520883 0.517789 0.505789 0.520278 0.535785 0.581077 0.610685 0.641526 0.646138 0.638784 0.63396 0.627261 0.619687 0.574914 0.646809 0.720266 0.20907 0.574527 0.520283 0.579695 0.59659 0.605707 0.648823 0.668164 0.687925 0.792153 0.845304 0.940297 0.75181 0.594295 0.629165 0.558298 0.525764 0.498217 0.464425 0.428468 0.414768 0.398115 0.348367 0.315678 0.322324 0.29585 0.230061 0.145994 0.13665 0.101016 0.0696426 0.0721545 0.0792188 0.0177274 0.0419283 0.13042 0.180123 0.547051 0.35104 0.403525 0.268102 0.344512 0.445771 0.468855 0.50253 0.518765 0.522931 0.52066 0.527521 0.529985 0.528543 0.520171 0.526153 0.527135 0.542297 0.558821 0.563616 0.607124 0.62979 0.633804 0.623002 0.608597 0.599676 0.583046 0.600137 0.623785 0.817372 0.584705 0.483469 0.531921 0.55587 0.570778 0.607225 0.604889 0.622577 0.622208 0.631507 0.742644 0.724811 1.18026 0.597092 0.613461 0.59119 0.519875 0.487763 0.446355 0.421786 0.400116 0.360883 0.318677 0.318509 0.306911 0.247871 0.200003 0.178625 0.118027 0.0648477 0.0400546 0.029598 0.0527799 0.0682733 0.0774499 0.0763238 0.0897017 0.0986004 0.165205 0.408359 0.358506 0.384831 0.275095 0.280325 0.412732 0.463249 0.497036 0.534286 0.545482 0.539314 0.531746 0.533778 0.528401 0.525015 0.525119 0.533229 0.54463 0.545944 0.550149 0.56171 0.580524 0.62268 0.610375 0.589122 0.565223 0.581483 0.609717 0.713449 0.881671 0.536633 0.557176 0.514475 0.521448 0.539879 0.582776 0.576732 0.569728 0.573837 0.539738 0.565166 0.656395 0.594085 1.14813 0.980393 0.708216 0.674463 0.629905 0.589514 0.553784 0.511041 0.476676 0.43907 0.419586 0.371119 0.317509 0.301934 0.28079 0.244891 0.203929 0.139651 0.0955827 0.0918584 0.0316439 0.00409942 0.0585604 0.0726163 0.0616637 0.065301 0.0912359 0.131163 0.215592 0.262496 0.376735 0.349788 0.303668 0.272032 0.383694 0.449282 0.484908 0.531955 0.561306 0.562582 0.542426 0.534276 0.532084 0.527598 0.524763 0.529152 0.536061 0.53789 0.53544 0.542493 0.558538 0.58136 0.603635 0.61917 0.573677 0.599144 0.667487 0.772609 0.66093 0.499153 0.530598 0.508947 0.555244 0.563193 0.561982 0.576398 0.572938 0.549048 0.640582 1.58238 1.23348 1.03385 0.410204 0.541447 0.586697 0.584959 0.570869 0.544025 0.497581 0.468438 0.438329 0.403377 0.341523 0.309322 0.350042 0.340269 0.322509 0.234087 0.190247 0.175463 0.136409 0.0877393 0.047961 0.0447261 0.047564 0.0779726 0.0671297 0.0398212 0.0680917 0.0874687 0.114897 0.150479 0.267148 0.322244 0.328342 0.33401 0.349685 0.426641 0.499173 0.535866 0.567185 0.580633 0.562133 0.537813 0.526007 0.519858 0.521241 0.515381 0.520988 0.521269 0.521217 0.527952 0.545713 0.563353 0.58348 0.601268 0.610764 0.612192 0.602094 0.58235 0.527499 0.544909 0.555213 0.557356 0.565452 0.697618 1.04901 0.705828 0.493184 0.503054 0.457932 0.517489 0.543343 0.550417 0.560133 0.53348 0.500089 0.464916 0.426889 0.231386 0.342453 0.35061 0.315741 0.261558 0.231537 0.202371 0.134193 0.146996 0.0848172 0.083853 0.110274 0.142267 0.0775061 0.06292 0.0628837 0.0440525 0.0515738 0.0924034 0.126102 0.14027 0.194139 0.239403 0.310991 0.299063 0.309078 0.352506 0.501292 0.536804 0.55925 0.580986 0.573118 0.547945 0.520569 0.504515 0.506368 0.506617 0.505193 0.505802 0.505633 0.520195 0.539266 0.555374 0.568253 0.583206 0.596307 0.603674 0.604879 0.599395 0.589286 0.596784 0.622416 0.671374 0.662994 0.598632 0.514121 0.536574 0.531179 0.542782 0.55489 0.56272 0.571308 0.588169 0.601089 0.648395 0.707761 0.831275 0.54152 0.200571 0.230735 0.344103 0.441841 0.490655 0.509245 0.522254 0.569318 0.508624 0.531802 0.546031 0.443826 0.334758 0.286913 0.322306 0.330586 0.332994 0.227149 0.220815 0.235956 0.201941 0.11289 0.100623 0.116936 0.139331 0.0252146 0.0501012 0.068995 0.058772 0.0592985 0.0555989 0.0936126 0.121786 0.166587 0.202979 0.309645 0.308632 0.293653 0.311176 0.485673 0.493812 0.528651 0.543396 0.563415 0.558431 0.540715 0.519463 0.497201 0.486161 0.488532 0.497587 0.491767 0.497942 0.516451 0.532048 0.545318 0.557826 0.569407 0.581293 0.591909 0.598374 0.600977 0.600001 0.601034 0.61066 0.628765 0.635606 0.628437 0.594067 0.55496 0.552454 0.550467 0.558861 0.567245 0.587918 0.605447 0.649173 0.696548 0.710859 0.565158 0.303852 0.197622 0.216531 0.343898 0.434647 0.469404 0.486956 0.503861 0.534465 0.631305 0.331922 0.210752 0.330673 0.295705 0.338143 0.261364 0.250195 0.249742 0.197702 0.141702 0.0952296 0.0726943 0.150858 0.127382 0.0205876 0.0622457 0.067269 0.0575168 0.067672 0.098471 0.11768 0.137983 0.164608 0.209797 0.217034 0.270434 0.312228 0.293943 0.271777 0.467698 0.57144 0.550688 0.541362 0.548642 0.525822 0.55884 0.569761 0.579952 0.588533 0.594457 0.59821 0.601201 0.60599 0.613676 0.620231 0.622269 0.612833 0.590919 0.570324 0.56344 0.565009 0.574052 0.588743 0.602709 0.628407 0.660545 0.64707 0.544226 0.431767 0.323059 0.291761 0.316872 0.382863 0.43344 0.460564 0.481314 0.41915 0.522981 0.56103 0.866603 0.490979 0.279925 0.359062 0.263331 0.241071 0.287597 0.27903 0.212117 0.16294 0.201517 0.0961078 0.153697 0.16394 0.17324 0.0953017 0.0325747 0.0417107 0.07355 0.0763608 0.0642437 0.0839354 0.114211 0.12708 0.182884 0.247807 0.273291 0.323598 0.310731 0.329369 0.498279 0.593819 0.564244 0.539224 0.553376 0.506103 0.490435 0.477675 0.472641 0.478667 0.48633 0.496772 0.509124 0.524378 0.535017 0.547385 0.595845 0.600189 0.60491 0.609479 0.611808 0.609638 0.600402 0.573531 0.580083 0.588974 0.5992 0.608039 0.622333 0.611273 0.536319 0.450829 0.402512 0.363586 0.448119 0.440928 0.508588 0.612246 0.95771 0.189564 0.215941 0.409702 0.405175 0.260967 0.260007 0.307071 0.270904 0.235605 0.220501 0.164052 0.0493047 0.161156 0.238785 0.141214 0.0902312 0.0715259 0.0474177 0.0385319 0.0368926 0.0541368 0.0540352 0.058223 0.0770692 0.0875264 0.118283 0.121972 0.238485 0.282337 0.331333 0.293375 0.350827 0.76135 0.523767 0.493923 0.480244 0.474248 0.469816 0.468839 0.475326 0.490473 0.504248 0.513947 0.526826 0.537724 0.549435 0.559833 0.56967 0.578731 0.586054 0.591549 0.587761 0.576036 0.571941 0.575649 0.582733 0.590496 0.597408 0.600169 0.599 0.580392 0.536296 0.350764 0.373418 0.411019 0.441632 0.458869 0.444654 0.42514 0.4246 0.470674 0.614656 1.3178 0.776672 0.684343 0.306906 0.531662 0.332194 0.278946 0.316011 0.328145 0.271224 0.310089 0.278098 0.0913661 0.354106 0.28867 0.280576 0.0894453 0.0837623 0.0439357 0.0496393 0.0492758 0.0526227 0.0586323 0.0662603 0.0473347 0.0520643 0.096644 0.0892052 0.154576 0.200897 0.249467 0.326246 0.345172 0.299988 0.289593 0.476341 0.584431 0.520053 0.552715 0.543278 0.506428 0.475449 0.467408 0.46781 0.466988 0.471472 0.480897 0.4932 0.506415 0.517629 0.529088 0.540454 0.551115 0.560436 0.569351 0.577462 0.58396 0.5891 0.593747 0.597694 0.601196 0.603776 0.603692 0.600241 0.594214 0.58632 0.580602 0.5801 0.582899 0.587484 0.592415 0.59384 0.589725 0.477498 0.426363 0.404919 0.394894 0.395714 0.413334 0.435248 0.448338 0.440341 0.423164 0.410533 0.386244 0.40717 0.673078 1.30527 0.935456 0.818125 0.641658 0.290404 0.300106 0.332145 0.303106 0.270485 0.236752 0.40656 0.292849 0.347848 0.394131 0.513017 0.127636 0.077303 0.109516 0.0371337 0.0494106 0.04286 0.0558013 0.0485347 0.0577761 0.044099 0.0899465 0.0821272 0.0957217 0.213927 0.252927 0.323247 0.379883 0.471814 0.242663 0.330905 0.421269 0.67401 0.575795 0.57789 0.563803 0.517296 0.483735 0.467733 0.469735 0.468472 0.468909 0.475385 0.485167 0.496633 0.508869 0.520522 0.531653 0.542551 0.552276 0.560952 0.569026 0.576269 0.582177 0.587127 0.591517 0.594944 0.597423 0.598412 0.597873 0.595181 0.590794 0.587047 0.585203 0.584639 0.585611 0.587487 0.571452 0.534729 0.495927 0.463119 0.43709 0.428063 0.429056 0.433378 0.441125 0.448754 0.446039 0.433175 0.423084 0.414571 0.409325 0.543854 0.79269 0.231727 0.735649 0.273867 0.193933 0.224584 0.206817 0.28945 0.360644 0.452011 0.815849 0.718905 0.641834 0.382685 0.140415 0.115178 0.13881 0.136305 0.0295419 0.052511 0.0451294 0.0425896 0.0471117 0.0757093 0.0931475 0.0646683 0.0957749 0.0640582 0.11705 0.175806 0.270029 0.331948 0.474535 0.214008 0.47064 0.590608 0.629436 0.604609 0.57416 0.534407 0.507227 0.487505 0.477661 0.471534 0.469021 0.472659 0.480668 0.490308 0.500829 0.512189 0.523438 0.534184 0.544394 0.553449 0.561527 0.56891 0.575464 0.580929 0.585609 0.589513 0.59247 0.594231 0.594928 0.594072 0.592147 0.590369 0.588421 0.586371 0.58033 0.566614 0.541391 0.509951 0.48517 0.468734 0.457296 0.453038 0.454452 0.455347 0.456753 0.45561 0.447698 0.435267 0.438759 0.444182 0.500425 0.593835 0.371234 0.328276 0.360815 0.311231 0.222842 0.204765 0.19167 0.249239 0.525688 0.572908 0.838025 0.763265 0.456686 0.269558 0.150245 0.153567 0.163344 0.184449 0.0251077 0.0414076 0.041428 0.0470947 0.0326532 0.0273793 0.0635254 0.0879562 0.0825682 0.0619574 0.101157 0.0872171 0.0635844 0.0729829 0.203307 0.220036 0.338436 0.398582 0.505241 0.604613 0.612531 0.584169 0.562087 0.529929 0.510136 0.492045 0.481293 0.475361 0.474535 0.478873 0.486392 0.49554 0.505611 0.51617 0.526732 0.536867 0.546313 0.554721 0.562272 0.569146 0.575165 0.580279 0.584621 0.5881 0.590631 0.586651 0.585689 0.584731 0.581739 0.574261 0.560471 0.541754 0.52109 0.500378 0.485296 0.477021 0.471473 0.469188 0.469423 0.468765 0.466993 0.463514 0.453875 0.447422 0.453256 0.486463 0.514561 0.444269 0.404752 0.544815 0.321364 0.294836 0.246465 0.244823 0.246521 0.190514 0.229652 0.820109 0.505467 0.571633 0.321204 0.211888 0.168641 0.148879 0.168632 0.202703 0.0050745 0.0163358 0.027696 0.0436127 0.0303029 0.0190858 0.0601391 0.0978887 0.0578759 0.0747898 0.0823126 0.0505693 0.012598 0.174964 0.181611 0.369613 0.560629 0.384435 0.47024 0.529179 0.582508 0.596365 0.572409 0.548021 0.532599 0.521014 0.499537 0.592154 0.592326 0.59187 0.591005 0.589479 0.587915 0.586347 0.583812 0.578984 0.571083 0.5591 0.54283 0.525587 0.510876 0.498429 0.489256 0.48454 0.481845 0.557749 0.443809 0.332433 0.299611 0.25022 0.251186 0.266198 0.4315 0.741314 0.479463 0.307826 0.470354 0.43435 0.320841 0.238795 0.151256 0.153405 0.188495 0.208226 0.000331918 0.0160333 0.0505087 0.0310214 0.0130979 0.0184302 0.0960301 0.0996481 0.0871246 0.0918223 0.114727 0.021273 0.0890679 0.0136015 0.243693 0.420919 0.450062 0.468521 0.441195 0.488052 0.547915 0.570592 0.484197 0.478429 0.479603 0.48491 0.492443 0.501215 0.510652 0.520422 0.530224 0.53961 0.548304 0.556184 0.563328 0.569784 0.575402 0.580157 0.58406 0.587199 0.58939 0.590454 0.590839 0.59034 0.589121 0.587815 0.586071 0.582968 0.577885 0.570184 0.559577 0.546608 0.532342 0.519002 0.480981 0.480869 0.47972 0.476176 0.470637 0.463665 0.461392 0.47219 0.489005 0.462779 0.42171 0.543066 0.489724 0.408745 0.338097 0.303196 0.288703 0.311198 0.294655 0.385742 0.54903 0.0924845 0.306375 0.391289 0.38848 0.237114 0.180368 0.148828 0.169355 0.189198 0.191904 0.210173 0.224131 0.00179115 0.00738056 0.0285728 0.0419748 0.0490175 0.0109568 0.0166761 0.0726173 0.0827085 0.0491558 0.051257 0.128607 0.106048 0.0264493 0.272525 0.522527 0.41153 0.424459 0.461312 0.476996 0.575462 0.562461 0.553938 0.543577 0.517496 0.495181 0.485233 0.483084 0.485469 0.490985 0.498424 0.506741 0.515551 0.524648 0.533693 0.542372 0.550447 0.557898 0.564706 0.570766 0.575955 0.580245 0.583753 0.586436 0.588312 0.589334 0.589289 0.588474 0.587128 0.585024 0.581761 0.576904 0.570137 0.508945 0.501546 0.496084 0.493032 0.491547 0.490791 0.489998 0.487863 0.484217 0.478832 0.474905 0.473879 0.483112 0.473696 0.449595 0.505923 0.446605 0.377028 0.327167 0.319231 0.331005 0.335138 0.244239 0.468846 0.215508 0.289417 0.319445 0.282816 0.186126 0.164893 0.171768 0.213604 0.222611 0.23339 0.229616 0.00914542 0.00332149 0.0160335 0.013428 0.0318142 0.0495007 0.00420004 0.0381426 0.0786143 0.0470885 0.0495033 0.146925 0.154352 0.19295 0.0597698 0.804594 0.366308 0.37688 0.418748 0.516406 0.551576 0.554361 0.565341 0.56119 0.551967 0.532992 0.509093 0.494749 0.488528 0.487812 0.491171 0.497083 0.504219 0.51194 0.520188 0.528701 0.537103 0.545182 0.552759 0.559764 0.566128 0.571749 0.576518 0.580414 0.583452 0.585753 0.587216 0.587767 0.587484 0.586312 0.584118 0.561186 0.550263 0.538721 0.527832 0.518407 0.51154 0.506951 0.503385 0.500708 0.498821 0.497362 0.495878 0.493926 0.491175 0.4882 0.483575 0.484949 0.484244 0.478007 0.542261 0.332584 0.308633 0.315465 0.34847 0.384973 0.390826 0.450757 0.246651 0.321338 0.267673 0.213524 0.175232 0.171313 0.198744 0.209967 0.221162 0.221635 0.00497907 0.0173476 0.0262763 0.04301 0.0193846 0.00667114 0.0734034 0.0564181 0.0664549 0.0670662 0.208033 0.278804 0.303262 0.447991 0.408533 0.385983 0.462764 0.499665 0.523557 0.540047 0.549874 0.56121 0.555693 0.542064 0.521267 0.505043 0.495844 0.49219 0.49316 0.497136 0.502775 0.509406 0.516727 0.524569 0.532621 0.540511 0.54799 0.554968 0.56146 0.567394 0.572615 0.576991 0.580814 0.576263 0.570195 0.5625 0.553468 0.543704 0.53432 0.526327 0.519888 0.515036 0.511535 0.508449 0.505657 0.503212 0.501349 0.499878 0.498502 0.49722 0.494337 0.491284 0.491138 0.495244 0.549031 0.524468 0.481721 0.440778 0.279114 0.280014 0.322523 0.490547 0.55309 0.568901 0.389601 0.29907 0.305452 0.264642 0.193027 0.177804 0.170903 0.183535 0.204526 0.200472 0.202806 0.223901 0.0193533 0.0439316 0.0546186 0.0548157 0.025272 0.0464776 0.0622203 0.0762689 0.151981 0.192868 0.280751 0.359374 0.33106 0.56652 0.52049 0.427222 0.409859 0.437364 0.480364 0.510945 0.5264 0.544059 0.553718 0.557503 0.545465 0.529591 0.514759 0.504427 0.498106 0.496324 0.498256 0.502364 0.507772 0.580489 0.583136 0.584913 0.585861 0.585986 0.585191 0.583355 0.580384 0.576206 0.570753 0.564001 0.556163 0.547818 0.53965 0.532307 0.526298 0.521536 0.517732 0.514579 0.511515 0.508449 0.505827 0.503835 0.502456 0.501847 0.500936 0.4985 0.496937 0.501144 0.545858 0.550674 0.505985 0.485359 0.457538 0.29218 0.302316 0.431683 0.594381 0.521575 0.656378 0.375358 0.367401 0.34092 0.264886 0.196507 0.195537 0.186735 0.0106366 0.0559916 0.0179836 0.0667502 0.054065 0.103042 0.1829 0.315285 0.369164 0.356016 0.481756 0.448182 0.44033 0.477129 0.502094 0.525348 0.540569 0.552724 0.555442 0.5481 0.535067 0.514193 0.521315 0.528786 0.536327 0.543619 0.550504 0.556985 0.563033 0.568536 0.573327 0.577305 0.58041 0.582617 0.583952 0.584399 0.583916 0.582472 0.580009 0.576424 0.571653 0.565767 0.558977 0.551676 0.54445 0.537798 0.532002 0.527202 0.523207 0.539882 0.550625 0.526644 0.514823 0.505374 0.504648 0.260626 0.254913 0.521571 0.531475 0.587442 0.593743 0.461834 0.466675 0.374412 0.277412 0.216658 0.204351 0.296897 0.294453 0.0445503 0.0491835 0.231851 0.379863 0.438745 0.371306 0.369298 0.525407 0.441748 0.456035 0.468679 0.483764 0.506629 0.524243 0.54136 0.522517 0.511654 0.503895 0.500409 0.500505 0.502907 0.506978 0.512353 0.518678 0.525597 0.532623 0.539545 0.546308 0.552807 0.558921 0.564539 0.569567 0.573899 0.577438 0.580123 0.581904 0.582755 0.582655 0.581584 0.579529 0.576478 0.572427 0.567414 0.561592 0.519695 0.51651 0.513337 0.510072 0.507205 0.504947 0.503843 0.503578 0.503605 0.50282 0.504501 0.51408 0.526644 0.52506 0.528939 0.555181 0.261386 0.316464 0.42162 0.686062 0.392261 0.521647 0.480454 0.517577 0.396627 0.356805 0.32596 0.267607 0.121944 0.320759 0.571546 0.634092 0.582983 0.421534 0.390499 0.421922 0.471093 0.494715 0.509919 0.551818 0.55485 0.549779 0.537899 0.526734 0.516871 0.509262 0.504852 0.503484 0.504312 0.506931 0.511159 0.516613 0.522791 0.529326 0.535929 0.542403 0.548762 0.554947 0.560741 0.565947 0.570501 0.574345 0.57741 0.57962 0.580909 0.581244 0.580623 0.555294 0.548931 0.542876 0.53742 0.532652 0.528459 0.524642 0.521019 0.51751 0.513967 0.510529 0.507444 0.505242 0.504408 0.504947 0.507602 0.509294 0.535195 0.549994 0.535904 0.549176 0.600919 0.313026 0.397067 0.498704 0.591526 0.452111 0.530289 0.584274 0.533366 0.611488 0.381749 0.194892 0.295155 0.517251 0.306348 0.587621 0.457105 0.525279 0.540668 0.550754 0.552784 0.547038 0.538528 0.528932 0.52091 0.514065 0.509145 0.50632 0.505749 0.507449 0.510703 0.515176 0.520578 0.526426 0.532528 0.538786 0.545022 0.551109 0.556953 0.56237 0.579034 0.576473 0.573003 0.568729 0.563791 0.558397 0.55282 0.547375 0.542303 0.537668 0.533371 0.529291 0.525359 0.521535 0.517674 0.513783 0.510175 0.507128 0.50533 0.505206 0.507957 0.514839 0.532951 0.545132 0.500115 0.51867 0.525423 0.554218 0.6469 0.395398 0.490732 0.539275 0.583339 0.657816 0.569 0.601471 0.7161 0.442699 0.552374 0.831939 0.906637 0.465999 0.447288 0.491952 0.621108 0.511774 0.520128 0.52791 0.537962 0.547592 0.547352 0.543988 0.538022 0.530766 0.523639 0.517699 0.512634 0.509064 0.507426 0.50781 0.510194 0.514243 0.51901 0.567192 0.571317 0.574682 0.577235 0.578919 0.57969 0.579531 0.578443 0.576443 0.573565 0.569903 0.565653 0.56101 0.556138 0.551236 0.546506 0.542035 0.537786 0.53365 0.529522 0.525409 0.521348 0.5173 0.513413 0.509846 0.507225 0.506328 0.50828 0.514213 0.531835 0.542744 0.49019 0.50791 0.517241 0.523628 0.544163 0.689877 0.444291 0.530133 0.555126 0.461614 0.280098 0.52511 0.533201 0.560458 0.653004 0.787895 0.26829 0.196768 0.528601 0.546526 0.587754 0.632146 0.526551 0.537882 0.532369 0.536876 0.542047 0.545817 0.541784 0.537044 0.53128 0.525616 0.52028 0.524156 0.529653 0.535403 0.541373 0.547445 0.553341 0.55882 0.563808 0.568243 0.571977 0.574891 0.576932 0.578091 0.578369 0.577766 0.576303 0.574022 0.570989 0.567337 0.563267 0.558976 0.554588 0.550183 0.54586 0.54168 0.537605 0.489044 0.500633 0.510466 0.516509 0.521951 0.530716 0.569385 0.538101 0.490665 0.267999 0.378306 0.799688 0.7993 0.283569 0.124186 0.597798 0.590865 0.6026 0.561845 0.532378 0.534844 0.541436 0.545067 0.515186 0.511105 0.509052 0.508723 0.509981 0.513045 0.517351 0.522305 0.527346 0.532558 0.538094 0.543852 0.549694 0.55536 0.56052 0.565105 0.569128 0.572456 0.574925 0.576483 0.577169 0.577018 0.576044 0.574294 0.571842 0.568773 0.533513 0.529326 0.525102 0.52093 0.516945 0.513277 0.510304 0.508753 0.509933 0.514769 0.526182 0.539244 0.492141 0.49972 0.508463 0.516421 0.522793 0.494938 0.527298 0.587862 0.719333 0.469563 0.439085 0.298607 0.297293 0.497517 0.8915 0.3823 0.264923 0.574428 0.635513 0.541134 0.541605 0.536211 0.531443 0.526404 0.521571 0.516372 0.512281 0.510045 0.509253 0.510438 0.512723 0.515862 0.520087 0.524901 0.53001 0.535223 0.540629 0.546198 0.551802 0.557172 0.562025 0.566275 0.569885 0.572744 0.574744 0.565227 0.561402 0.557447 0.553404 0.549302 0.545213 0.541181 0.537168 0.533084 0.528909 0.524725 0.520687 0.516991 0.513882 0.511901 0.512084 0.515483 0.522959 0.532978 0.488143 0.49693 0.545405 0.610934 0.739322 0.47826 0.294724 0.506676 0.301523 1.00329 0.621878 0.485555 1.01114 0.715538 0.569749 0.55522 0.611002 0.577688 0.535819 0.542562 0.544739 0.541861 0.535947 0.530582 0.525516 0.520868 0.516686 0.513171 0.510567 0.509648 0.510458 0.512242 0.515277 0.518778 0.522561 0.527179 0.532314 0.53764 0.542937 0.575862 0.57615 0.575643 0.574372 0.57242 0.569877 0.566836 0.563437 0.559838 0.556131 0.552325 0.548417 0.544448 0.540482 0.536513 0.532486 0.528419 0.524445 0.520779 0.517635 0.515426 0.514741 0.516444 0.52107 0.527846 0.498259 0.5028 0.507224 0.514071 0.525961 0.512002 0.563536 0.653108 0.741852 0.415871 0.335329 0.408601 0.715447 0.792096 0.814537 1.03838 0.815632 0.637526 0.570378 0.573357 0.564512 0.56964 0.540872 0.545092 0.545399 0.541513 0.535636 0.529072 0.524071 0.520252 0.516673 0.513204 0.511508 0.510807 0.510705 0.511617 0.514238 0.548312 0.553738 0.558851 0.563393 0.567289 0.570461 0.572838 0.574362 0.575061 0.575012 0.574222 0.572727 0.57064 0.568064 0.565082 0.561811 0.558382 0.554849 0.551189 0.547384 0.543489 0.539588 0.535703 0.531816 0.527969 0.524348 0.5212 0.518853 0.517634 0.518094 0.520404 0.524597 0.505458 0.507682 0.510233 0.513967 0.52218 0.481592 0.500493 0.59438 0.695608 0.73575 0.433948 0.43339 0.9706 0.846816 0.734938 0.626062 0.566187 0.536716 0.548545 0.546246 0.541487 0.536122 0.529709 0.524197 0.520068 0.517473 0.521074 0.525074 0.529628 0.534577 0.539769 0.544942 0.550189 0.555521 0.560446 0.564655 0.568099 0.570796 0.572705 0.573773 0.574094 0.57375 0.572732 0.571078 0.568911 0.566325 0.563395 0.560224 0.556909 0.512322 0.512586 0.514574 0.51739 0.521254 0.472345 0.49092 0.515976 0.533443 0.716214 0.772508 0.526822 0.973916 0.767973 0.692057 0.894186 0.872197 0.784119 0.568616 0.58852 0.548341 0.516196 0.513797 0.512053 0.511685 0.511531 0.511826 0.513339 0.515796 0.519367 0.523056 0.527387 0.532079 0.536815 0.541723 0.546743 0.551987 0.557234 0.561883 0.565738 0.5687 0.57083 0.572275 0.572963 0.553476 0.549897 0.546165 0.542351 0.538549 0.534805 0.531141 0.527634 0.524461 0.521923 0.52032 0.519917 0.52075 0.522868 0.523636 0.472 0.478119 0.50078 0.535027 0.560127 0.644964 0.810416 0.893887 0.867391 0.809689 0.696943 0.604542 0.553403 0.536513 0.588812 0.593362 0.54395 0.538754 0.532163 0.525674 0.520212 0.516408 0.514177 0.513012 0.512769 0.511923 0.512273 0.513313 0.514741 0.517419 0.52126 0.525201 0.529539 0.534132 0.538817 0.543563 0.548491 0.553758 0.572961 0.57236 0.571155 0.569391 0.567172 0.564579 0.561686 0.558579 0.555331 0.551961 0.548445 0.544795 0.541084 0.537416 0.533865 0.53049 0.527383 0.524728 0.522783 0.521711 0.521588 0.522228 0.517457 0.517062 0.518068 0.52036 0.475589 0.480038 0.481438 0.519917 0.547677 0.622188 0.663135 0.759855 0.885191 0.886434 0.850414 0.744315 0.663521 0.593445 0.576968 0.554486 0.59249 0.594259 0.547049 0.542466 0.535664 0.52791 0.521617 0.517423 0.515187 0.51414 0.513644 0.513261 0.513037 0.513138 0.514084 0.516085 0.51942 0.523432 0.558855 0.563201 0.566562 0.568894 0.570525 0.571536 0.571904 0.571647 0.570822 0.56946 0.567615 0.565358 0.562757 0.559884 0.556819 0.553619 0.550298 0.546849 0.543296 0.53972 0.536226 0.532903 0.529843 0.527148 0.525002 0.523525 0.522729 0.522418 0.521236 0.520515 0.520747 0.522096 0.524937 0.605961 0.651569 0.708297 0.794788 0.876412 0.844264 0.78175 0.701479 0.646408 0.61299 0.594528 0.571012 0.546404 0.538848 0.530574 0.524309 0.51964 0.516373 0.515033 0.527475 0.531664 0.53601 0.540496 0.545171 0.550119 0.555548 0.560516 0.564317 0.566811 0.568619 0.569829 0.570491 0.570587 0.570119 0.569103 0.567606 0.565693 0.563411 0.560807 0.557953 0.55492 0.551757 0.548484 0.52412 0.523092 0.522976 0.523603 0.525132 0.478545 0.481634 0.484383 0.497637 0.528091 0.703979 0.74201 0.878136 0.830847 0.82233 0.771527 0.746635 0.593038 0.592361 0.542326 0.514658 0.514267 0.514181 0.513347 0.513219 0.514879 0.517903 0.52168 0.525659 0.529709 0.533756 0.537815 0.542043 0.54659 0.551679 0.557535 0.562081 0.564607 0.566478 0.567834 0.56876 0.569139 0.568984 0.545114 0.541686 0.538276 0.534986 0.531922 0.52917 0.526857 0.52511 0.52397 0.523175 0.526284 0.52503 0.524539 0.524867 0.525408 0.482534 0.483294 0.481796 0.500219 0.503605 0.587209 0.645862 0.886803 0.882636 0.723266 0.67978 0.652064 0.593226 0.611109 0.610066 0.533343 0.527077 0.522152 0.518291 0.5163 0.515307 0.515167 0.51524 0.514486 0.513683 0.512616 0.516486 0.520388 0.523954 0.527822 0.531849 0.535409 0.539562 0.543702 0.548115 0.553144 0.560112 0.568328 0.56717 0.565565 0.56359 0.561289 0.558697 0.555867 0.552861 0.549737 0.546534 0.543273 0.539998 0.536782 0.533714 0.530898 0.528427 0.526428 0.524991 0.524077 0.48589 0.484785 0.480161 0.495571 0.506704 0.566648 0.721551 0.718384 0.71977 0.723494 0.541839 0.515982 0.515327 0.515695 0.514867 0.680995 0.522463 0.525343 0.562026 0.564104 0.565601 0.566663 0.567301 0.56745 0.567076 0.56625 0.564998 0.563322 0.561286 0.558972 0.556407 0.553616 0.550659 0.547607 0.544507 0.541389 0.538282 0.535252 0.532401 0.529824 0.527618 0.525898 0.524725 0.527705 0.52646 0.525553 0.525457 0.525888 0.57936 0.528649 0.533391 0.537197 0.541292 0.545689 0.550234 0.555961 0.552254 0.55186 
SCALARS Axial_Stress float 1
LOOKUP_TABLE default
-63370900000.0 -120621000000.0 -142921000000.0 -73182400000.0 -81657100000.0 -66235700000.0 -68124200000.0 -210646000000.0 -159317000000.0 -79400400000.0 -63348100000.0 -134807000000.0 -103013000000.0 -218882000000.0 -114994000000.0 -224879000000.0 -86401300000.0 -150079000000.0 -87040100000.0 -150042000000.0 -234586000000.0 -91973300000.0 -163781000000.0 -54591800000.0 -62398400000.0 -292044000000.0 -269120000000.0 -242284000000.0 -179626000000.0 -231695000000.0 -291887000000.0 -153470000000.0 -174331000000.0 -237326000000.0 -290891000000.0 -316071000000.0 -308997000000.0 -130052000000.0 -165384000000.0 -309129000000.0 -319057000000.0 -333267000000.0 -101918000000.0 -284916000000.0 -341027000000.0 -134197000000.0 -183035000000.0 -299101000000.0 -308836000000.0 -375170000000.0 -409980000000.0 -409010000000.0 -417918000000.0 -406961000000.0 -390014000000.0 -498127000000.0 -433470000000.0 -475857000000.0 -459172000000.0 -311974000000.0 -274836000000.0 -334394000000.0 -483400000000.0 -606070000000.0 -502502000000.0 -608708000000.0 -508700000000.0 -599769000000.0 -490345000000.0 -735259000000.0 -738394000000.0 -912041000000.0 -625372000000.0 -804163000000.0 -565374000000.0 -650889000000.0 -549170000000.0 -639800000000.0 -551793000000.0 -756647000000.0 -564007000000.0 -407615000000.0 -699011000000.0 -455956000000.0 -299131000000.0 -316644000000.0 -301397000000.0 -769962000000.0 -596336000000.0 -726394000000.0 -712662000000.0 -703281000000.0 -748148000000.0 -873730000000.0 -1.00094e+12 -792985000000.0 -727355000000.0 -764327000000.0 -551761000000.0 -528673000000.0 -842463000000.0 -403506000000.0 -435804000000.0 -368020000000.0 -398229000000.0 -986499000000.0 -871289000000.0 -828403000000.0 -805905000000.0 -809224000000.0 -877331000000.0 -978459000000.0 -940215000000.0 -833418000000.0 -820025000000.0 -869431000000.0 -950811000000.0 -1.08084e+12 -1.30604e+12 -1.05268e+12 -962899000000.0 -916988000000.0 -997226000000.0 -895759000000.0 -981277000000.0 -913465000000.0 -1.00754e+12 -979041000000.0 -1.01532e+12 -942701000000.0 -983792000000.0 -897364000000.0 -971841000000.0 -910261000000.0 -993516000000.0 -616133000000.0 -648737000000.0 -1.09181e+12 -1.31916e+12 -1.4344e+12 -1.41316e+12 -1.2669e+12 -1.30084e+12 -1.11951e+12 -1.1844e+12 -1.04209e+12 -1.11335e+12 -1.07058e+12 -1.06073e+12 -1.08089e+12 -1.04703e+12 -1.09192e+12 -1.02999e+12 -1.06273e+12 -1.04287e+12 -1.04769e+12 -701581000000.0 -773180000000.0 -1.18011e+12 -1.2614e+12 -1.2044e+12 -2.00199e+12 -2.51636e+12 -1.99848e+12 -1.4796e+12 -1.34462e+12 -1.24444e+12 -1.17702e+12 -1.13717e+12 -1.12945e+12 -1.13753e+12 -1.1292e+12 -1.11268e+12 -1.11033e+12 -1.1219e+12 -1.38786e+12 -1.70485e+12 -2.08341e+12 -1.76306e+12 -1.5166e+12 -1.39075e+12 -1.29922e+12 -1.23319e+12 -1.19593e+12 -1.18597e+12 -1.18402e+12 -1.17513e+12 -1.17362e+12 -1.24127e+12 -1.18115e+12 -1.25211e+12 -799182000000.0 -904014000000.0 -1.57405e+12 -1.86617e+12 -1.91059e+12 -1.72745e+12 -1.73491e+12 -1.5509e+12 -1.5796e+12 -1.434e+12 -1.47651e+12 -1.34693e+12 -1.38571e+12 -1.28146e+12 -1.32187e+12 -1.24606e+12 -1.28854e+12 -1.23372e+12 -1.27833e+12 -1.22956e+12 -1.28277e+12 -1.23185e+12 -1.29734e+12 -1.31203e+12 -903084000000.0 -1.05099e+12 -1.59763e+12 -1.68831e+12 -1.71937e+12 -1.77357e+12 -1.90695e+12 -1.89201e+12 -1.89011e+12 -1.92424e+12 -1.73464e+12 -1.61368e+12 -1.50857e+12 -1.41564e+12 -1.35516e+12 -1.32701e+12 -1.32712e+12 -1.34611e+12 -1.36862e+12 -1.38267e+12 -1.72221e+12 -1.74746e+12 -1.73135e+12 -2.12681e+12 -1.88602e+12 -1.75925e+12 -1.64845e+12 -1.52872e+12 -1.43763e+12 -1.38339e+12 -1.36775e+12 -1.38619e+12 -1.45771e+12 -1.41823e+12 -1.49597e+12 -1.44236e+12 -1.51524e+12 -1.00956e+12 -1.18177e+12 -1.76935e+12 -1.74937e+12 -1.54056e+12 -1.964e+12 -1.98985e+12 -1.9057e+12 -1.92935e+12 -1.78532e+12 -1.82093e+12 -1.66302e+12 -1.66038e+12 -1.53855e+12 -1.54029e+12 -1.45331e+12 -1.46532e+12 -1.41086e+12 -1.44618e+12 -1.41847e+12 -1.48452e+12 -1.53944e+12 -1.5757e+12 -1.11702e+12 -1.30022e+12 -1.81349e+12 -1.84439e+12 -1.78937e+12 -1.7631e+12 -1.6731e+12 -1.39067e+12 -1.05349e+12 -2.00185e+12 -1.94944e+12 -1.809e+12 -1.64614e+12 -1.53639e+12 -1.47832e+12 -1.49944e+12 -1.568e+12 -1.62716e+12 -1.65392e+12 -1.90191e+12 -1.84966e+12 -1.66431e+12 -1.25164e+12 -1.1237e+12 -1.14995e+12 -2.03459e+12 -2.00527e+12 -1.93509e+12 -1.77348e+12 -1.6252e+12 -1.52913e+12 -1.50569e+12 -1.5759e+12 -1.67855e+12 -1.66412e+12 -1.76714e+12 -1.71687e+12 -1.80495e+12 -1.22485e+12 -1.41076e+12 -2.01106e+12 -1.93324e+12 -1.94118e+12 -1.81688e+12 -1.76961e+12 -1.53959e+12 -1.29155e+12 -1.17021e+12 -2.04175e+12 -2.22004e+12 -1.83604e+12 -1.72824e+12 -1.6962e+12 -1.60261e+12 -1.56786e+12 -1.5187e+12 -1.53232e+12 -1.56392e+12 -1.65674e+12 -1.79718e+12 -1.8728e+12 -1.33298e+12 -1.51985e+12 -2.05333e+12 -1.92905e+12 -1.67534e+12 -1.28214e+12 -1.32425e+12 -1.13843e+12 -1.92678e+12 -1.79939e+12 -1.65261e+12 -1.51025e+12 -1.60013e+12 -1.79295e+12 -1.92464e+12 -1.97659e+12 -2.16379e+12 -2.07324e+12 -1.88244e+12 -1.23161e+12 -1.33689e+12 -1.35011e+12 -1.34094e+12 -1.45983e+12 -1.61036e+12 -1.82786e+12 -1.88204e+12 -1.87482e+12 -1.76901e+12 -1.71721e+12 -1.57027e+12 -1.49327e+12 -1.586e+12 -1.71971e+12 -1.9108e+12 -1.9487e+12 -2.13633e+12 -2.05797e+12 -2.16446e+12 -1.4387e+12 -1.62705e+12 -2.3487e+12 -2.23836e+12 -2.3188e+12 -2.05001e+12 -1.88261e+12 -1.78619e+12 -1.28812e+12 -1.64589e+12 -1.83643e+12 -1.92675e+12 -1.86276e+12 -1.60781e+12 -1.383e+12 -1.34769e+12 -1.66838e+12 -2.22271e+12 -2.25848e+12 -1.53828e+12 -1.72882e+12 -2.44583e+12 -2.43153e+12 -1.71416e+12 -1.05018e+12 -1.93577e+12 -1.81305e+12 -2.00179e+12 -1.86418e+12 -1.98762e+12 -1.9769e+12 -1.82023e+12 -1.4351e+12 -1.51849e+12 -2.34144e+12 -2.48777e+12 -2.36042e+12 -2.45348e+12 -2.35494e+12 -1.63033e+12 -1.82368e+12 -2.54041e+12 -2.64395e+12 -2.5606e+12 -2.75143e+12 -2.77193e+12 -3.31713e+12 -1.88781e+12 -2.14199e+12 -2.12999e+12 -2.05122e+12 -2.17265e+12 -2.08098e+12 -2.14451e+12 -1.99302e+12 -1.96412e+12 -1.71891e+12 -1.57335e+12 -1.53278e+12 -3.27543e+12 -2.75288e+12 -2.71923e+12 -2.56628e+12 -2.53485e+12 -2.72032e+12 -2.77544e+12 -3.03522e+12 -3.12491e+12 -2.26117e+12 -2.25411e+12 -2.26009e+12 -2.26278e+12 -2.18844e+12 -1.7215e+12 -3.59603e+12 -3.05464e+12 -2.72276e+12 -2.63057e+12 -1.71728e+12 -1.91376e+12 -2.82084e+12 -2.93959e+12 -3.18859e+12 -2.69867e+12 -2.64795e+12 -2.39177e+12 -2.48298e+12 -2.35834e+12 -2.45965e+12 -2.36286e+12 -2.33857e+12 -2.17927e+12 -3.17133e+12 -3.50842e+12 -3.45266e+12 -3.35841e+12 -3.14296e+12 -2.92782e+12 -2.88759e+12 -2.74674e+12 -2.78674e+12 -2.69744e+12 -1.80337e+12 -2.00143e+12 -2.88058e+12 -2.9661e+12 -2.93402e+12 -3.03318e+12 -3.0672e+12 -3.08349e+12 -2.98481e+12 -2.84573e+12 -2.65917e+12 -2.56682e+12 -2.55062e+12 -2.45138e+12 -2.53959e+12 -2.40961e+12 -2.65539e+12 -2.71331e+12 -3.31476e+12 -3.27928e+12 -3.03716e+12 -2.88978e+12 -2.84066e+12 -3.01731e+12 -3.0468e+12 -3.08923e+12 -3.01043e+12 -2.82553e+12 -2.70213e+12 -2.65029e+12 -2.64003e+12 -2.69216e+12 -2.87763e+12 -3.06432e+12 -3.17722e+12 -3.28409e+12 -3.158e+12 -2.99888e+12 -2.91763e+12 -1.89141e+12 -2.08628e+12 -3.1344e+12 -3.08441e+12 -3.14403e+12 -3.10863e+12 -3.14974e+12 -3.10337e+12 -3.0857e+12 -2.96586e+12 -2.96989e+12 -2.84181e+12 -2.88085e+12 -2.76195e+12 -2.83199e+12 -2.73393e+12 -2.82749e+12 -2.7535e+12 -2.84795e+12 -3.05553e+12 -3.19966e+12 -3.21529e+12 -3.16078e+12 -3.09527e+12 -3.07522e+12 -2.99941e+12 -3.02433e+12 -2.96269e+12 -1.98094e+12 -2.16773e+12 -3.18964e+12 -3.19305e+12 -3.17094e+12 -3.08254e+12 -2.99644e+12 -2.9351e+12 -2.91069e+12 -2.92655e+12 -2.8743e+12 -2.9842e+12 -2.98352e+12 -3.09063e+12 -3.14233e+12 -3.18583e+12 -3.13417e+12 -3.08377e+12 -3.06446e+12 -3.24056e+12 -3.24011e+12 -3.23098e+12 -3.18071e+12 -3.10289e+12 -3.03876e+12 -3.00044e+12 -2.99466e+12 -3.02063e+12 -3.07523e+12 -3.15307e+12 -3.17616e+12 -3.18366e+12 -3.17028e+12 -3.16793e+12 -3.13317e+12 -3.15206e+12 -3.11124e+12 -3.14963e+12 -2.07008e+12 -2.24642e+12 -3.34206e+12 -3.29035e+12 -3.33695e+12 -3.2845e+12 -3.3229e+12 -3.25937e+12 -3.28421e+12 -3.1989e+12 -3.23015e+12 -3.13794e+12 -3.18426e+12 -3.09296e+12 -3.15546e+12 -3.07258e+12 -3.14643e+12 -3.07733e+12 -3.15162e+12 -3.10121e+12 -3.14406e+12 -3.18202e+12 -3.18713e+12 -3.18218e+12 -3.18453e+12 -2.15729e+12 -2.32319e+12 -3.38936e+12 -3.37989e+12 -3.35707e+12 -3.31464e+12 -3.27145e+12 -3.23922e+12 -3.22221e+12 -3.2164e+12 -3.21207e+12 -3.16416e+12 -3.20581e+12 -3.18355e+12 -3.19745e+12 -3.19347e+12 -3.19962e+12 -3.21119e+12 -3.22375e+12 -2.39876e+12 -3.44157e+12 -3.48729e+12 -3.43418e+12 -3.47674e+12 -3.4198e+12 -3.45834e+12 -3.39092e+12 -3.42895e+12 -3.35322e+12 -3.39893e+12 -3.32088e+12 -3.37667e+12 -3.30009e+12 -3.36407e+12 -3.289e+12 -3.27718e+12 -3.25414e+12 -3.21994e+12 -3.20105e+12 -3.20444e+12 -3.22709e+12 -3.22611e+12 -3.26594e+12 -3.25029e+12 -3.29316e+12 -2.24199e+12 -3.53976e+12 -3.53083e+12 -3.51818e+12 -3.49805e+12 -3.47259e+12 -3.45067e+12 -3.43702e+12 -3.42873e+12 -3.35159e+12 -3.40532e+12 -3.32347e+12 -3.34804e+12 -3.27138e+12 -3.20605e+12 -3.21293e+12 -3.2664e+12 -3.31456e+12 -2.32454e+12 -2.47397e+12 -3.63655e+12 -3.5838e+12 -3.62573e+12 -3.57304e+12 -3.61573e+12 -3.56009e+12 -3.60405e+12 -3.54121e+12 -3.5215e+12 -3.50729e+12 -3.50042e+12 -3.49238e+12 -3.44305e+12 -3.33809e+12 -3.25207e+12 -3.18568e+12 -3.18927e+12 -3.19977e+12 -3.24663e+12 -3.30582e+12 -3.32111e+12 -3.38522e+12 -3.36529e+12 -2.40609e+12 -2.55011e+12 -3.67831e+12 -3.66699e+12 -3.66052e+12 -3.65116e+12 -3.58859e+12 -3.64008e+12 -3.57504e+12 -3.63253e+12 -3.56779e+12 -3.63142e+12 -3.56599e+12 -3.63388e+12 -3.55437e+12 -3.61603e+12 -3.44961e+12 -3.26497e+12 -3.1283e+12 -3.25648e+12 -3.38628e+12 -3.4493e+12 -3.73166e+12 -3.71754e+12 -3.71066e+12 -3.70824e+12 -3.70177e+12 -3.69532e+12 -3.6933e+12 -3.69798e+12 -3.70576e+12 -3.6831e+12 -3.38602e+12 -3.12279e+12 -3.08422e+12 -3.14703e+12 -3.35894e+12 -3.478e+12 -3.47317e+12 -3.55376e+12 -2.48819e+12 -9035750000.0 -2.62885e+12 -3.82475e+12 -3.76998e+12 -3.80439e+12 -3.75647e+12 -3.80108e+12 -3.75856e+12 -3.81047e+12 -3.75911e+12 -3.81309e+12 -3.75581e+12 -3.81297e+12 -3.75375e+12 -3.81464e+12 -3.75678e+12 -3.76803e+12 -3.78576e+12 -3.76884e+12 -2.45864e+12 -2.94889e+12 -3.09177e+12 -3.28206e+12 -3.45601e+12 -3.5878e+12 -2.57151e+12 -2.71236e+12 -3.85781e+12 -3.83818e+12 -3.85309e+12 -3.86557e+12 -3.8701e+12 -3.87257e+12 -3.87703e+12 -3.82261e+12 -3.89108e+12 -3.84335e+12 -3.92825e+12 -3.8824e+12 -4.03532e+12 -3.96837e+12 -4.7238e+12 -2.41669e+12 -3.38242e+12 -3.6091e+12 -3.72424e+12 -3.67997e+12 -2.65551e+12 -2.80275e+12 -3.9158e+12 -3.94087e+12 -3.88365e+12 -3.90634e+12 -3.88418e+12 -3.94259e+12 -3.91032e+12 -3.97104e+12 -3.92367e+12 -3.98504e+12 -3.92988e+12 -3.93336e+12 -3.9401e+12 -3.96418e+12 -4.0395e+12 -4.40814e+12 -4.88143e+12 -2.97641e+12 -3.56451e+12 -3.61683e+12 -3.76198e+12 -3.82157e+12 -9035750000.0 -4.00505e+12 -3.9514e+12 -3.95616e+12 -4.00746e+12 -4.03546e+12 -4.04883e+12 -3.99116e+12 -4.05109e+12 -3.99347e+12 -4.05175e+12 -4.00427e+12 -4.07392e+12 -4.05023e+12 -4.23765e+12 -4.72359e+12 -4.60845e+12 -4.37317e+12 -3.97761e+12 -3.79286e+12 -3.87069e+12 -3.96908e+12 -2.73924e+12 -2.90201e+12 -4.0967e+12 -4.01897e+12 -4.00269e+12 -3.94883e+12 -4.01046e+12 -4.02569e+12 -4.10087e+12 -4.07643e+12 -4.1039e+12 -4.11167e+12 -4.10646e+12 -4.11051e+12 -4.16e+12 -4.17409e+12 -4.31116e+12 -4.44694e+12 -4.51715e+12 -4.2721e+12 -3.9955e+12 -4.03845e+12 -3.92205e+12 -4.01494e+12 -2.8264e+12 -3.01383e+12 -4.09796e+12 -3.93467e+12 -4.09654e+12 -4.18301e+12 -4.1515e+12 -4.2364e+12 -4.17396e+12 -4.23042e+12 -4.16665e+12 -4.15847e+12 -4.17507e+12 -4.25411e+12 -4.3943e+12 -4.38759e+12 -4.22444e+12 -4.11433e+12 -4.12447e+12 -4.0922e+12 -4.11807e+12 -2.92159e+12 -9035750000.0 -3.17688e+12 -4.21081e+12 -4.17471e+12 -4.02673e+12 -3.76619e+12 -4.02816e+12 -4.10794e+12 -4.1823e+12 -4.29665e+12 -4.29651e+12 -4.27692e+12 -4.2151e+12 -4.25996e+12 -4.21033e+12 -4.26136e+12 -4.24265e+12 -4.29766e+12 -4.32433e+12 -4.34202e+12 -4.38257e+12 -4.29091e+12 -4.17099e+12 -4.16071e+12 -4.20569e+12 -4.14871e+12 -4.25996e+12 -4.50411e+12 -3.91597e+12 -3.82396e+12 -4.41182e+12 -4.35461e+12 -4.42921e+12 -4.36321e+12 -4.40706e+12 -4.34134e+12 -4.31805e+12 -4.30155e+12 -4.30366e+12 -4.32289e+12 -4.30295e+12 -4.21227e+12 -4.21292e+12 -4.20043e+12 -4.24926e+12 -4.23057e+12 -4.36034e+12 -2.99794e+12 -3.39669e+12 -4.93099e+12 -4.62117e+12 -4.64586e+12 -2.61173e+12 -4.43277e+12 -4.45933e+12 -4.49738e+12 -4.4733e+12 -4.44007e+12 -4.37897e+12 -4.41305e+12 -4.35526e+12 -4.38683e+12 -4.3357e+12 -4.32639e+12 -4.29893e+12 -4.23928e+12 -4.23815e+12 -4.21147e+12 -4.26701e+12 -4.32951e+12 -4.28796e+12 -4.22119e+12 -3.04596e+12 -3.6417e+12 -5.10833e+12 -5.21958e+12 -4.63426e+12 -4.57131e+12 -4.61794e+12 -4.54085e+12 -4.50395e+12 -4.46692e+12 -4.44532e+12 -4.4071e+12 -4.35454e+12 -4.34848e+12 -4.31822e+12 -4.24385e+12 -4.2026e+12 -4.25059e+12 -4.3202e+12 -4.33667e+12 -4.47553e+12 -3.16934e+12 -3.89169e+12 -5.2656e+12 -5.7531e+12 -5.59077e+12 -4.52236e+12 -5.10103e+12 -4.71412e+12 -4.64523e+12 -4.57101e+12 -4.58758e+12 -4.52376e+12 -4.53641e+12 -4.4909e+12 -4.47635e+12 -4.40454e+12 -4.3034e+12 -4.15346e+12 -4.17376e+12 -4.23813e+12 -4.34873e+12 -4.34078e+12 -4.17293e+12 -4.08096e+12 -4.81772e+12 -5.38916e+12 -5.59454e+12 -5.90819e+12 -5.98081e+12 -5.10668e+12 -4.98863e+12 -4.93917e+12 -4.74342e+12 -4.65954e+12 -4.59137e+12 -4.54564e+12 -4.51377e+12 -4.53681e+12 -4.50725e+12 -4.54061e+12 -4.35476e+12 -4.19498e+12 -4.12655e+12 -3.96599e+12 -4.34456e+12 -4.57268e+12 -4.46883e+12 -4.54678e+12 -2.96499e+12 -5.94051e+12 -3.53803e+12 -4.20531e+12 -5.66996e+12 -5.73237e+12 -4.91862e+12 -5.08916e+12 -4.8916e+12 -4.7488e+12 -4.73897e+12 -4.65833e+12 -4.58709e+12 -4.55324e+12 -4.56211e+12 -4.58234e+12 -3.52707e+12 -4.20069e+12 -4.57709e+12 -4.73706e+12 -4.52132e+12 -4.92845e+12 -2.30451e+12 -4.7058e+12 -5.1698e+12 -5.64049e+12 -5.78938e+12 -5.70473e+12 -5.31208e+12 -5.20557e+12 -5.1654e+12 -5.03996e+12 -4.84751e+12 -4.71622e+12 -4.6441e+12 -4.6229e+12 -4.57931e+12 -4.56908e+12 -4.55992e+12 -4.56764e+12 -4.59323e+12 -4.63448e+12 -4.60788e+12 -5.25782e+12 -3.40934e+12 -4.32922e+12 -4.78613e+12 -4.92326e+12 -4.86718e+12 -5.28007e+12 -4.84361e+12 -5.37231e+12 -8.11086e+12 -5.12955e+12 -5.3652e+12 -5.39925e+12 -4.67788e+12 -5.60258e+12 -5.75082e+12 -5.76811e+12 -5.33843e+12 -5.09331e+12 -4.97215e+12 -4.9039e+12 -4.80461e+12 -4.68443e+12 -4.59886e+12 -4.55623e+12 -4.57964e+12 -4.9468e+12 -5.49898e+12 -4.82687e+12 -4.6909e+12 -4.871e+12 -5.10766e+12 -5.91444e+12 -5.64307e+12 -7.32637e+12 -5.80039e+12 -5.06829e+12 -7.20619e+12 -6.34455e+12 -5.70126e+12 -5.83852e+12 -5.85815e+12 -5.53077e+12 -5.43686e+12 -5.24034e+12 -5.00594e+12 -4.84196e+12 -4.76023e+12 -4.71522e+12 -4.64921e+12 -4.61121e+12 -4.57085e+12 -4.54277e+12 -4.71945e+12 -5.34485e+12 -5.21129e+12 -4.84195e+12 -4.90199e+12 -4.99488e+12 -5.22233e+12 -5.49449e+12 -6.28064e+12 -6.89102e+12 -4.7152e+12 -7.04495e+12 -4.94179e+12 -4.88854e+12 -4.84677e+12 -4.93804e+12 -7.58403e+12 -7.4122e+12 -7.03666e+12 -6.2369e+12 -6.12314e+12 -6.15137e+12 -5.66622e+12 -5.2798e+12 -5.12581e+12 -5.01535e+12 -4.92356e+12 -4.78666e+12 -4.67026e+12 -4.56569e+12 -4.53705e+12 -4.50977e+12 -4.57365e+12 -4.70957e+12 -4.98125e+12 -5.10347e+12 -4.93715e+12 -4.95196e+12 -4.96759e+12 -5.10591e+12 -5.78428e+12 -6.48475e+12 -6.07872e+12 -6.38304e+12 -6.84668e+12 -7.27529e+12 -7.46596e+12 -4.85227e+12 -4.77018e+12 -7.51524e+12 -7.5025e+12 -7.51828e+12 -7.11583e+12 -6.06958e+12 -6.38478e+12 -6.03839e+12 -5.47594e+12 -5.12671e+12 -4.9267e+12 -4.85459e+12 -4.79332e+12 -4.73529e+12 -4.62165e+12 -4.50893e+12 -4.49092e+12 -4.86023e+12 -4.94606e+12 -5.04693e+12 -4.98812e+12 -4.98779e+12 -4.97866e+12 -5.07078e+12 -5.47489e+12 -6.18163e+12 -6.5297e+12 -6.58697e+12 -6.72803e+12 -6.94326e+12 -7.30989e+12 -7.48724e+12 -4.81827e+12 -4.77637e+12 -4.73088e+12 -7.29359e+12 -7.39233e+12 -7.2993e+12 -7.23688e+12 -6.84661e+12 -5.63159e+12 -6.1419e+12 -6.641e+12 -6.38375e+12 -6.14863e+12 -5.75752e+12 -5.46207e+12 -5.26741e+12 -5.01137e+12 -4.84678e+12 -4.73957e+12 -4.688e+12 -4.64025e+12 -4.55921e+12 -4.45264e+12 -4.41953e+12 -4.24353e+12 -4.574e+12 -4.67683e+12 -5.03592e+12 -4.97578e+12 -5.04599e+12 -5.32515e+12 -5.61085e+12 -5.82486e+12 -6.09031e+12 -6.40022e+12 -7.00364e+12 -7.34659e+12 -7.46489e+12 -7.27401e+12 -7.47458e+12 -4.84696e+12 -4.60843e+12 -4.72422e+12 -7.31671e+12 -7.15314e+12 -6.93195e+12 -7.14325e+12 -6.66176e+12 -5.92303e+12 -6.28154e+12 -7.15248e+12 -6.58652e+12 -5.71393e+12 -5.29429e+12 -5.12749e+12 -4.99163e+12 -4.90938e+12 -4.77935e+12 -4.69514e+12 -4.57644e+12 -4.20824e+12 -4.12377e+12 -4.9071e+12 -5.00052e+12 -4.95428e+12 -4.99712e+12 -5.11953e+12 -5.22716e+12 -5.47792e+12 -5.83026e+12 -6.00692e+12 -6.67017e+12 -7.01419e+12 -6.78091e+12 -6.9161e+12 -7.19749e+12 -7.11233e+12 -7.33257e+12 -7.43118e+12 -7.41337e+12 -4.99504e+12 -4.94685e+12 -4.63588e+12 -7.4228e+12 -7.1516e+12 -6.81458e+12 -7.1475e+12 -6.98069e+12 -7.16934e+12 -6.94e+12 -6.29308e+12 -6.43078e+12 -5.24231e+12 -6.34876e+12 -6.24299e+12 -6.00971e+12 -5.76482e+12 -5.52146e+12 -5.12742e+12 -4.86894e+12 -4.8155e+12 -4.7534e+12 -4.72513e+12 -4.67966e+12 -4.65073e+12 -4.58893e+12 -4.45692e+12 -3.16741e+12 -4.97407e+12 -4.8746e+12 -4.92437e+12 -4.9964e+12 -5.31766e+12 -5.71879e+12 -5.92166e+12 -6.20463e+12 -6.39329e+12 -5.93465e+12 -7.22497e+12 -7.19734e+12 -7.34943e+12 -7.29328e+12 -7.62911e+12 -4.666e+12 -4.16888e+12 -4.57054e+12 -7.51844e+12 -7.14659e+12 -6.71027e+12 -6.37818e+12 -6.87754e+12 -7.21278e+12 -6.92535e+12 -5.67721e+12 -4.91217e+12 -5.76359e+12 -5.64549e+12 -5.33999e+12 -5.07148e+12 -4.93155e+12 -4.77183e+12 -4.69762e+12 -4.62606e+12 -4.38024e+12 -3.88483e+12 -5.07618e+12 -5.75754e+12 -5.19204e+12 -4.83199e+12 -4.72833e+12 -4.83345e+12 -4.86001e+12 -5.14188e+12 -5.34436e+12 -5.54841e+12 -5.75679e+12 -6.07381e+12 -6.20533e+12 -6.00562e+12 -6.21058e+12 -6.95224e+12 -7.29216e+12 -7.06931e+12 -6.89849e+12 -7.02866e+12 -7.4076e+12 -7.59441e+12 -7.2962e+12 -4.59724e+12 -3.96643e+12 -7.09814e+12 -7.31397e+12 -7.16757e+12 -7.31918e+12 -6.96261e+12 -7.14465e+12 -7.12073e+12 -6.99361e+12 -7.08823e+12 -6.65918e+12 -6.63034e+12 -6.03741e+12 -5.98463e+12 -6.85014e+12 -6.02017e+12 -5.98993e+12 -5.29697e+12 -4.81895e+12 -4.8171e+12 -4.7212e+12 -4.73221e+12 -4.66783e+12 -4.64504e+12 -4.51298e+12 -4.7761e+12 -5.22726e+12 -4.64084e+12 -4.75696e+12 -4.93283e+12 -5.04845e+12 -5.59968e+12 -5.87738e+12 -5.86012e+12 -5.77394e+12 -5.22523e+12 -5.4115e+12 -6.619e+12 -6.56145e+12 -7.17027e+12 -6.30314e+12 -7.31073e+12 -7.44612e+12 -7.4889e+12 -7.43137e+12 -4.79675e+12 -4.67967e+12 -3.99512e+12 -7.08204e+12 -7.26427e+12 -7.16109e+12 -6.87147e+12 -6.39452e+12 -7.00312e+12 -7.02777e+12 -6.61152e+12 -6.72295e+12 -6.68453e+12 -6.28104e+12 -6.36319e+12 -6.284e+12 -5.7857e+12 -5.58148e+12 -4.9635e+12 -4.7612e+12 -4.74581e+12 -4.59775e+12 -4.55934e+12 -4.5494e+12 -4.62733e+12 -4.80301e+12 -5.15644e+12 -5.2654e+12 -4.40529e+12 -4.57674e+12 -4.78229e+12 -4.79299e+12 -4.73353e+12 -5.25928e+12 -5.58584e+12 -6.08849e+12 -6.13549e+12 -6.50349e+12 -6.31142e+12 -5.99224e+12 -6.25371e+12 -6.77751e+12 -7.25475e+12 -6.74209e+12 -6.55834e+12 -7.49109e+12 -7.45958e+12 -7.24732e+12 -4.82154e+12 -4.86429e+12 -3.8634e+12 -3.82295e+12 -6.85348e+12 -6.71885e+12 -7.11725e+12 -7.41577e+12 -6.75684e+12 -6.8319e+12 -6.8503e+12 -6.651e+12 -5.82107e+12 -6.11635e+12 -6.2896e+12 -6.25849e+12 -6.11692e+12 -6.33938e+12 -5.78133e+12 -5.45246e+12 -5.19961e+12 -4.75414e+12 -4.57858e+12 -4.73182e+12 -4.66084e+12 -4.63989e+12 -4.52989e+12 -4.6094e+12 -4.97519e+12 -5.45468e+12 -5.90958e+12 -3.53774e+12 -4.37927e+12 -4.61771e+12 -4.82648e+12 -5.22894e+12 -5.86265e+12 -6.13533e+12 -6.50464e+12 -6.59874e+12 -6.08281e+12 -6.05862e+12 -6.44057e+12 -7.07077e+12 -7.18674e+12 -7.53294e+12 -7.21094e+12 -7.12694e+12 -6.53812e+12 -7.42185e+12 -4.74008e+12 -4.03761e+12 -6.8968e+12 -6.86919e+12 -6.90171e+12 -6.90811e+12 -6.99226e+12 -6.91468e+12 -6.93613e+12 -7.09898e+12 -6.89809e+12 -6.92189e+12 -6.9144e+12 -6.67208e+12 -6.57123e+12 -6.41316e+12 -6.0256e+12 -5.95778e+12 -5.8554e+12 -5.35018e+12 -5.03095e+12 -4.0383e+12 -4.56418e+12 -4.85896e+12 -4.5691e+12 -4.56626e+12 -4.44242e+12 -4.49594e+12 -4.52341e+12 -4.69927e+12 -4.8367e+12 -5.19191e+12 -5.4948e+12 -4.9686e+12 -4.51012e+12 -4.12907e+12 -4.70751e+12 -5.5674e+12 -5.88746e+12 -6.19989e+12 -6.40654e+12 -5.8141e+12 -5.91707e+12 -6.15882e+12 -6.5731e+12 -6.73223e+12 -6.77766e+12 -6.83245e+12 -7.0656e+12 -6.91849e+12 -6.7493e+12 -6.89267e+12 -7.28654e+12 -6.35918e+12 -4.0247e+12 -4.1124e+12 -6.98772e+12 -7.00855e+12 -6.98697e+12 -7.04888e+12 -6.77743e+12 -7.12431e+12 -6.34797e+12 -7.0514e+12 -6.70507e+12 -6.79887e+12 -6.95171e+12 -6.91493e+12 -6.4594e+12 -6.06319e+12 -5.62048e+12 -4.72779e+12 -5.08534e+12 -5.35465e+12 -5.40933e+12 -5.00324e+12 -4.44262e+12 -4.37672e+12 -5.18546e+12 -4.32241e+12 -4.47227e+12 -4.53052e+12 -5.06224e+12 -5.23417e+12 -4.64817e+12 -4.99628e+12 -5.97682e+12 -3.50262e+12 -3.99936e+12 -5.16833e+12 -5.56531e+12 -5.91253e+12 -6.24457e+12 -6.63658e+12 -6.22192e+12 -4.67734e+12 -5.76533e+12 -6.32539e+12 -6.41406e+12 -6.6336e+12 -6.72488e+12 -6.71525e+12 -6.85593e+12 -6.57791e+12 -6.72456e+12 -7.01808e+12 -6.68443e+12 -7.33965e+12 -6.70688e+12 -4.06997e+12 -4.21325e+12 -4.06992e+12 -4.11424e+12 -6.87527e+12 -6.80227e+12 -6.91006e+12 -6.88032e+12 -6.8485e+12 -7.01653e+12 -7.13152e+12 -6.57944e+12 -6.53634e+12 -6.75806e+12 -6.65389e+12 -6.6042e+12 -6.61797e+12 -6.68667e+12 -6.3975e+12 -6.07831e+12 -5.71721e+12 -5.79532e+12 -6.50049e+12 -6.08877e+12 -5.70848e+12 -4.86421e+12 -4.02126e+12 -2.70791e+12 -5.78305e+12 -3.59224e+12 -3.48756e+12 -4.61269e+12 -4.32255e+12 -4.6597e+12 -4.67782e+12 -5.09917e+12 -4.9945e+12 -3.76008e+12 -3.98775e+12 -4.54913e+12 -4.41133e+12 -5.04535e+12 -5.43158e+12 -5.74108e+12 -6.0437e+12 -6.93075e+12 -5.36313e+12 -6.00368e+12 -6.16384e+12 -6.32649e+12 -6.50566e+12 -6.51079e+12 -6.42132e+12 -6.18632e+12 -6.73162e+12 -6.99607e+12 -7.06103e+12 -7.27032e+12 -6.98656e+12 -4.16492e+12 -4.01914e+12 -6.52573e+12 -6.71157e+12 -6.66094e+12 -6.74153e+12 -6.68145e+12 -6.84998e+12 -6.589e+12 -6.58622e+12 -6.56807e+12 -6.29394e+12 -6.42245e+12 -6.31494e+12 -6.29253e+12 -6.35387e+12 -6.00566e+12 -5.5173e+12 -5.78755e+12 -6.16508e+12 -6.21481e+12 -5.7854e+12 -5.323e+12 -4.61739e+12 -4.37713e+12 -4.14074e+12 -4.4566e+12 -2.98936e+12 -5.26768e+12 -4.91255e+12 -3.87989e+12 -4.173e+12 -4.20005e+12 -4.34337e+12 -4.3174e+12 -4.69494e+12 -4.89592e+12 -6.19604e+12 -4.73115e+12 -4.83099e+12 -4.92823e+12 -4.89374e+12 -5.14918e+12 -5.38166e+12 -6.38981e+12 -6.05335e+12 -5.80181e+12 -5.95872e+12 -6.11424e+12 -6.26075e+12 -6.30285e+12 -6.11476e+12 -5.49364e+12 -6.28614e+12 -6.59556e+12 -6.7677e+12 -6.82015e+12 -7.09817e+12 -6.9374e+12 -7.04078e+12 -6.85532e+12 -6.07958e+12 -3.59959e+12 -3.6984e+12 -3.804e+12 -3.92999e+12 -6.29281e+12 -6.49229e+12 -6.62199e+12 -6.56263e+12 -6.64033e+12 -6.48966e+12 -6.43022e+12 -6.39059e+12 -6.49349e+12 -6.32314e+12 -6.07344e+12 -5.79408e+12 -5.79833e+12 -5.95672e+12 -5.55433e+12 -5.81078e+12 -5.82773e+12 -5.66743e+12 -5.35823e+12 -4.98966e+12 -4.47224e+12 -4.17776e+12 -3.97429e+12 -4.16096e+12 -3.34079e+12 -4.27889e+12 -3.89585e+12 -4.22604e+12 -4.6771e+12 -5.30089e+12 -4.88444e+12 -5.00679e+12 -5.05623e+12 -5.18988e+12 -5.60798e+12 -5.84569e+12 -5.83706e+12 -5.83564e+12 -5.5691e+12 -5.76431e+12 -5.91578e+12 -6.09694e+12 -6.27256e+12 -6.43834e+12 -6.50698e+12 -6.99152e+12 -6.64145e+12 -6.6762e+12 -6.84498e+12 -6.74038e+12 -6.63248e+12 -7.05391e+12 -6.46501e+12 -3.98133e+12 -3.40827e+12 -5.95942e+12 -5.96294e+12 -6.2716e+12 -6.32677e+12 -6.4917e+12 -6.46049e+12 -6.41862e+12 -6.50224e+12 -6.4071e+12 -6.33373e+12 -6.26037e+12 -6.30027e+12 -5.90274e+12 -5.72838e+12 -5.49132e+12 -5.741e+12 -6.09355e+12 -6.381e+12 -4.66151e+12 -5.7687e+12 -5.6734e+12 -5.50385e+12 -5.30406e+12 -5.02959e+12 -4.73035e+12 -4.51728e+12 -4.08177e+12 -4.26288e+12 -3.90549e+12 -4.44215e+12 -5.47865e+12 -3.50819e+12 -4.03275e+12 -3.5079e+12 -4.19278e+12 -4.53243e+12 -5.19653e+12 -4.69558e+12 -4.83498e+12 -4.91646e+12 -5.01352e+12 -5.08191e+12 -5.32897e+12 -5.46462e+12 -5.50735e+12 -5.55732e+12 -5.56359e+12 -5.51855e+12 -5.665e+12 -5.81324e+12 -5.96168e+12 -6.10598e+12 -6.23573e+12 -6.63271e+12 -6.79125e+12 -6.5453e+12 -6.53198e+12 -6.65398e+12 -6.72626e+12 -6.82339e+12 -6.84169e+12 -6.94256e+12 -6.76797e+12 -6.77146e+12 -4.02303e+12 -3.41884e+12 -5.97966e+12 -5.30771e+12 -5.1482e+12 -6.10857e+12 -6.33185e+12 -6.30553e+12 -6.37464e+12 -6.35461e+12 -6.35726e+12 -6.2477e+12 -6.38909e+12 -4.03672e+12 -5.40386e+12 -5.70248e+12 -6.08963e+12 -5.37634e+12 -5.67357e+12 -5.58177e+12 -5.37963e+12 -5.19013e+12 -5.00023e+12 -4.77405e+12 -4.56434e+12 -4.43684e+12 -4.27162e+12 -2.94589e+12 -3.79248e+12 -3.57096e+12 -3.43858e+12 -3.67066e+12 -4.71632e+12 -4.75477e+12 -4.64235e+12 -4.76226e+12 -4.86369e+12 -5.15762e+12 -5.21921e+12 -5.22226e+12 -5.25746e+12 -5.28617e+12 -5.32413e+12 -5.38484e+12 -5.52549e+12 -5.65343e+12 -5.78016e+12 -5.90629e+12 -6.17293e+12 -6.37317e+12 -6.50061e+12 -6.46448e+12 -6.3375e+12 -6.45909e+12 -6.57798e+12 -6.70745e+12 -6.53832e+12 -6.65232e+12 -6.92817e+12 -6.65903e+12 -6.74486e+12 -6.63315e+12 -3.96151e+12 -3.84709e+12 -3.44387e+12 -3.46425e+12 -6.07725e+12 -6.26071e+12 -6.49385e+12 -5.70285e+12 -5.8732e+12 -6.15835e+12 -6.14478e+12 -6.11274e+12 -6.27477e+12 -6.26626e+12 -6.28627e+12 -6.41868e+12 -6.60325e+12 -6.94917e+12 -6.15349e+12 -5.02618e+12 -5.38365e+12 -5.3116e+12 -5.24781e+12 -6.03092e+12 -5.73243e+12 -5.04496e+12 -4.89857e+12 -4.7459e+12 -4.57506e+12 -4.42148e+12 -4.2797e+12 -4.16029e+12 -4.17528e+12 -4.11107e+12 -4.3925e+12 -4.10734e+12 -5.52318e+12 -2.2153e+12 -2.28495e+12 -4.00017e+12 -4.34867e+12 -4.50471e+12 -4.5523e+12 -4.6701e+12 -4.9553e+12 -5.01393e+12 -5.04704e+12 -5.03748e+12 -5.00663e+12 -5.00341e+12 -5.01749e+12 -5.07566e+12 -5.20814e+12 -5.34072e+12 -5.45564e+12 -5.58147e+12 -5.78689e+12 -5.98348e+12 -6.14713e+12 -6.28034e+12 -6.18909e+12 -6.29314e+12 -6.41141e+12 -6.36116e+12 -6.55948e+12 -6.47198e+12 -6.57553e+12 -6.38544e+12 -6.44131e+12 -3.71066e+12 -3.37243e+12 -6.0077e+12 -5.97898e+12 -6.15642e+12 -6.41986e+12 -6.0422e+12 -5.92795e+12 -5.9182e+12 -5.90334e+12 -6.09415e+12 -6.09049e+12 -6.10924e+12 -6.35199e+12 -6.46787e+12 -6.56681e+12 -6.05304e+12 -5.15857e+12 -6.23073e+12 -5.77708e+12 -5.39686e+12 -5.21305e+12 -4.6587e+12 -4.54106e+12 -4.4071e+12 -4.27228e+12 -4.16678e+12 -4.12881e+12 -4.08417e+12 -4.16418e+12 -4.0271e+12 -4.25857e+12 -2.88722e+12 -2.63451e+12 -4.4041e+12 -2.65488e+12 -3.70928e+12 -4.12197e+12 -4.33687e+12 -4.7724e+12 -4.85363e+12 -4.89897e+12 -4.90494e+12 -4.86643e+12 -4.76639e+12 -4.66671e+12 -4.64335e+12 -4.84417e+12 -5.41373e+12 -5.60147e+12 -5.77817e+12 -5.94192e+12 -6.09505e+12 -5.996e+12 -6.10919e+12 -6.23453e+12 -6.23548e+12 -6.35487e+12 -6.17252e+12 -6.28981e+12 -6.18567e+12 -6.24519e+12 -6.04714e+12 -3.55743e+12 -3.27673e+12 -5.66021e+12 -5.84775e+12 -5.80386e+12 -6.05284e+12 -5.99439e+12 -6.21123e+12 -5.85291e+12 -5.82268e+12 -5.73232e+12 -5.87613e+12 -5.85662e+12 -5.84291e+12 -6.13594e+12 -6.1059e+12 -5.75508e+12 -5.388e+12 -5.14366e+12 -4.95274e+12 -4.7809e+12 -3.61132e+12 -5.07059e+12 -5.03252e+12 -4.9235e+12 -4.85039e+12 -4.76047e+12 -4.37228e+12 -4.25644e+12 -4.1505e+12 -4.08606e+12 -4.04754e+12 -4.06672e+12 -4.031e+12 -4.18815e+12 -3.92734e+12 -4.39946e+12 -3.85051e+12 -2.87548e+12 -3.38222e+12 -3.81052e+12 -4.07014e+12 -4.45303e+12 -4.57176e+12 -4.67131e+12 -4.74295e+12 -4.77374e+12 -4.75671e+12 -4.61791e+12 -4.24212e+12 -5.00715e+12 -5.121e+12 -5.23702e+12 -5.39109e+12 -5.57401e+12 -5.77766e+12 -5.89714e+12 -5.79294e+12 -5.92728e+12 -6.06806e+12 -5.92413e+12 -6.05165e+12 -5.99647e+12 -6.10491e+12 -5.91401e+12 -5.98705e+12 -5.83252e+12 -3.39283e+12 -3.23363e+12 -3.03973e+12 -3.16441e+12 -5.47103e+12 -5.61e+12 -5.57216e+12 -5.80635e+12 -5.73609e+12 -5.82522e+12 -5.60191e+12 -5.72054e+12 -5.57109e+12 -5.65682e+12 -5.60607e+12 -5.56972e+12 -5.82248e+12 -5.74895e+12 -5.50358e+12 -5.30773e+12 -5.12883e+12 -4.90014e+12 -4.70215e+12 -4.42345e+12 -4.60022e+12 -4.93284e+12 -4.84783e+12 -4.73542e+12 -4.65161e+12 -4.56592e+12 -4.47509e+12 -4.045e+12 -3.99326e+12 -3.98163e+12 -3.96406e+12 -4.01143e+12 -3.94426e+12 -4.10297e+12 -3.85325e+12 -3.11639e+12 -3.51286e+12 -3.32601e+12 -3.57872e+12 -3.82195e+12 -4.24349e+12 -4.36445e+12 -4.47253e+12 -4.56637e+12 -4.64836e+12 -4.73512e+12 -4.83231e+12 -4.94179e+12 -3.50214e+12 -3.86005e+12 -4.42813e+12 -4.69684e+12 -4.85111e+12 -4.99987e+12 -5.20249e+12 -5.15927e+12 -5.4497e+12 -5.56211e+12 -5.67097e+12 -5.59625e+12 -5.75857e+12 -5.75173e+12 -5.87574e+12 -5.70089e+12 -5.82388e+12 -5.71713e+12 -5.78209e+12 -5.56444e+12 -5.60377e+12 -3.08416e+12 -2.90271e+12 -5.27876e+12 -5.21028e+12 -5.41046e+12 -5.34938e+12 -5.49818e+12 -5.4084e+12 -5.6406e+12 -5.49301e+12 -5.43433e+12 -5.22558e+12 -5.43809e+12 -5.34605e+12 -5.28401e+12 -5.52144e+12 -5.43826e+12 -5.26896e+12 -5.12601e+12 -5.00113e+12 -4.83412e+12 -4.64354e+12 -4.48535e+12 -4.59095e+12 -4.56283e+12 -4.6844e+12 -4.62402e+12 -4.54002e+12 -4.46579e+12 -4.39026e+12 -4.30935e+12 -4.21793e+12 -4.12314e+12 -3.88655e+12 -3.85851e+12 -3.89787e+12 -3.80933e+12 -3.59362e+12 -3.34062e+12 -3.49091e+12 -3.48567e+12 -4.00973e+12 -4.15601e+12 -4.27174e+12 -4.37196e+12 -4.4637e+12 -4.55619e+12 -4.66773e+12 -5.14407e+12 -5.78392e+12 -5.40748e+12 -4.77886e+12 -4.62021e+12 -4.61199e+12 -4.64755e+12 -4.73059e+12 -4.97246e+12 -5.10955e+12 -5.21062e+12 -5.30818e+12 -5.44179e+12 -5.21968e+12 -5.42248e+12 -5.61143e+12 -5.45123e+12 -5.57673e+12 -5.53114e+12 -5.63624e+12 -5.44295e+12 -5.51967e+12 -5.33403e+12 -5.36931e+12 -5.13272e+12 -2.94164e+12 -2.75644e+12 -5.08029e+12 -5.00798e+12 -5.13907e+12 -5.057e+12 -5.26832e+12 -5.18061e+12 -5.29648e+12 -5.13408e+12 -5.28431e+12 -5.07051e+12 -5.06397e+12 -4.96438e+12 -5.2197e+12 -5.14232e+12 -5.02852e+12 -4.92326e+12 -4.82801e+12 -4.7189e+12 -4.58848e+12 -4.46387e+12 -4.46156e+12 -4.45347e+12 -4.43254e+12 -4.47163e+12 -4.42548e+12 -4.35969e+12 -4.29449e+12 -4.22822e+12 -4.1554e+12 -4.07629e+12 -4.00046e+12 -3.93838e+12 -3.90274e+12 -3.88193e+12 -3.64168e+12 -3.80445e+12 -3.9478e+12 -4.06954e+12 -4.17263e+12 -4.79016e+12 -5.0206e+12 -5.37618e+12 -5.43824e+12 -5.08929e+12 -4.74421e+12 -4.57806e+12 -4.4714e+12 -4.38514e+12 -4.33323e+12 -4.63449e+12 -4.78734e+12 -4.89694e+12 -5.04493e+12 -5.04813e+12 -5.28706e+12 -5.27199e+12 -5.39682e+12 -5.24176e+12 -5.34639e+12 -5.26697e+12 -5.30388e+12 -5.06735e+12 -5.09329e+12 -4.89364e+12 -2.80275e+12 -2.66897e+12 -2.60585e+12 -4.65619e+12 -4.87176e+12 -4.79916e+12 -4.93694e+12 -4.85724e+12 -4.96837e+12 -4.88499e+12 -5.08215e+12 -4.94332e+12 -4.9137e+12 -4.63706e+12 -4.78262e+12 -4.58515e+12 -4.88187e+12 -4.82767e+12 -4.76496e+12 -4.70363e+12 -4.63867e+12 -4.56775e+12 -4.48639e+12 -4.40033e+12 -4.35141e+12 -4.31785e+12 -4.29412e+12 -4.27633e+12 -4.28019e+12 -4.24247e+12 -4.18876e+12 -4.13326e+12 -4.07385e+12 -4.00902e+12 -3.94232e+12 -3.88037e+12 -3.83164e+12 -3.7976e+12 -3.78277e+12 -3.7617e+12 -3.76354e+12 -3.7216e+12 -3.61954e+12 -3.49275e+12 -3.40649e+12 -3.47583e+12 -3.52909e+12 -3.64361e+12 -3.76385e+12 -3.87714e+12 -3.97993e+12 -4.26426e+12 -4.3548e+12 -4.4549e+12 -4.5769e+12 -4.74671e+12 -4.91878e+12 -5.0175e+12 -4.98194e+12 -4.80071e+12 -4.6015e+12 -4.44074e+12 -4.26275e+12 -3.97309e+12 -3.24371e+12 -4.6921e+12 -4.92215e+12 -4.62798e+12 -4.65551e+12 -4.80216e+12 -4.92736e+12 -5.13451e+12 -4.93816e+12 -5.08495e+12 -5.0824e+12 -5.17503e+12 -5.03379e+12 -5.05593e+12 -4.82625e+12 -4.85347e+12 -4.65136e+12 -2.52476e+12 -2.29889e+12 -2.45321e+12 -4.43388e+12 -4.58613e+12 -4.52488e+12 -4.73369e+12 -4.66496e+12 -4.76906e+12 -4.69263e+12 -4.78792e+12 -4.67034e+12 -4.73558e+12 -4.42763e+12 -4.18015e+12 -3.8729e+12 -4.46824e+12 -4.4625e+12 -4.46996e+12 -4.45917e+12 -4.43205e+12 -4.39142e+12 -4.34451e+12 -4.28893e+12 -4.23811e+12 -4.19115e+12 -4.15611e+12 -4.13058e+12 -4.11299e+12 -4.10311e+12 -4.07041e+12 -4.02625e+12 -3.97767e+12 -3.92447e+12 -3.86793e+12 -3.81146e+12 -3.76046e+12 -3.71815e+12 -3.68864e+12 -3.66473e+12 -3.65093e+12 -3.62283e+12 -3.56635e+12 -3.48968e+12 -3.41977e+12 -3.39826e+12 -3.45451e+12 -3.52112e+12 -3.61116e+12 -3.70477e+12 -4.07136e+12 -4.15653e+12 -4.24567e+12 -4.34652e+12 -4.48237e+12 -4.60193e+12 -4.66095e+12 -4.69407e+12 -4.66144e+12 -4.55359e+12 -4.42662e+12 -4.29425e+12 -4.10616e+12 -3.50918e+12 -5.41678e+12 -4.15994e+12 -4.18707e+12 -4.56668e+12 -4.36678e+12 -4.74726e+12 -4.81467e+12 -5.00718e+12 -4.91834e+12 -4.84332e+12 -4.82542e+12 -4.58726e+12 -4.61036e+12 -4.35839e+12 -4.40228e+12 -2.36148e+12 -2.1372e+12 -4.20605e+12 -4.14968e+12 -4.36911e+12 -4.31136e+12 -4.46919e+12 -4.40106e+12 -4.58428e+12 -4.50751e+12 -4.44684e+12 -4.62118e+12 -4.56003e+12 -4.52253e+12 -4.41831e+12 -3.8546e+12 -2.55673e+12 -4.00277e+12 -4.13717e+12 -4.18926e+12 -4.20812e+12 -4.19784e+12 -3.82564e+12 -3.77848e+12 -3.72928e+12 -3.68127e+12 -3.63757e+12 -3.60092e+12 -3.57098e+12 -3.54861e+12 -3.52337e+12 -3.48604e+12 -3.4376e+12 -3.38737e+12 -3.35628e+12 -3.36585e+12 -3.41833e+12 -3.48155e+12 -3.797e+12 -3.88465e+12 -3.96726e+12 -4.04924e+12 -4.13614e+12 -4.23959e+12 -4.33142e+12 -4.38194e+12 -4.40714e+12 -4.42442e+12 -4.40001e+12 -4.33499e+12 -4.25514e+12 -4.16558e+12 -4.00145e+12 -4.87976e+12 -5.00123e+12 -4.62309e+12 -2.77591e+12 -3.36544e+12 -4.70696e+12 -4.71959e+12 -4.83593e+12 -4.85495e+12 -4.67229e+12 -4.85002e+12 -4.62024e+12 -4.58581e+12 -4.33386e+12 -4.33109e+12 -4.08931e+12 -4.14176e+12 -3.87201e+12 -2.18637e+12 -1.96829e+12 -3.9669e+12 -3.92394e+12 -4.09279e+12 -4.04337e+12 -4.26224e+12 -4.20927e+12 -4.32595e+12 -4.26619e+12 -4.40755e+12 -4.41075e+12 -4.51451e+12 -4.41957e+12 -4.51254e+12 -5.23789e+12 -2.98358e+12 -3.70506e+12 -3.91477e+12 -3.9798e+12 -4.17419e+12 -4.14237e+12 -4.10383e+12 -4.06133e+12 -4.02216e+12 -3.99064e+12 -3.96714e+12 -3.95089e+12 -3.93557e+12 -3.90666e+12 -3.86884e+12 -3.47897e+12 -3.45125e+12 -3.42548e+12 -3.39635e+12 -3.3626e+12 -3.32677e+12 -3.29891e+12 -3.55496e+12 -3.63158e+12 -3.70887e+12 -3.78503e+12 -3.86094e+12 -3.93838e+12 -4.02117e+12 -4.09314e+12 -4.13979e+12 -4.16809e+12 -4.18468e+12 -4.28109e+12 -4.47925e+12 -4.44471e+12 -4.04095e+12 -4.79535e+12 -4.69636e+12 -4.8031e+12 -4.54864e+12 -4.50612e+12 -4.69633e+12 -4.66626e+12 -4.75532e+12 -4.68759e+12 -4.45548e+12 -4.37159e+12 -4.05004e+12 -4.04441e+12 -3.71537e+12 -3.7985e+12 -3.60574e+12 -1.99328e+12 -1.80273e+12 -1.80093e+12 -3.43533e+12 -3.70983e+12 -3.68104e+12 -3.87045e+12 -3.81704e+12 -3.99954e+12 -3.95124e+12 -4.14726e+12 -4.08535e+12 -4.23242e+12 -4.23915e+12 -4.45751e+12 -4.46375e+12 -4.83085e+12 -4.56327e+12 -3.99589e+12 -3.98848e+12 -3.9723e+12 -3.95002e+12 -3.91912e+12 -3.88506e+12 -3.85286e+12 -3.82638e+12 -3.80693e+12 -3.79167e+12 -3.77419e+12 -3.74795e+12 -3.71434e+12 -3.67597e+12 -3.63443e+12 -3.59163e+12 -3.5502e+12 -3.51236e+12 -3.29263e+12 -3.31602e+12 -3.36381e+12 -3.4201e+12 -3.48219e+12 -3.54708e+12 -3.6133e+12 -3.68064e+12 -3.74827e+12 -3.81683e+12 -3.87687e+12 -4.19479e+12 -4.17621e+12 -4.13263e+12 -4.07927e+12 -4.0178e+12 -4.16637e+12 -4.19219e+12 -4.25616e+12 -4.3109e+12 -4.22115e+12 -4.86873e+12 -5.01598e+12 -5.67871e+12 -4.92425e+12 -3.94465e+12 -5.01807e+12 -4.4484e+12 -4.36124e+12 -4.63642e+12 -4.56864e+12 -4.26564e+12 -4.11517e+12 -3.67534e+12 -3.3618e+12 -3.49699e+12 -3.15841e+12 -3.32877e+12 -1.66741e+12 -1.48385e+12 -1.64128e+12 -3.15264e+12 -3.4151e+12 -3.39181e+12 -3.64212e+12 -3.58997e+12 -3.77734e+12 -3.74044e+12 -3.90069e+12 -3.84928e+12 -4.0385e+12 -4.03695e+12 -4.30687e+12 -4.41269e+12 -4.32611e+12 -4.54808e+12 -3.85094e+12 -3.89836e+12 -3.84879e+12 -3.81486e+12 -3.80959e+12 -3.80452e+12 -3.79263e+12 -3.78e+12 -3.76238e+12 -3.73929e+12 -3.71242e+12 -3.68675e+12 -3.666e+12 -3.64954e+12 -3.63454e+12 -3.61668e+12 -3.59229e+12 -3.56216e+12 -3.52814e+12 -3.49154e+12 -3.45414e+12 -3.41803e+12 -3.38449e+12 -3.35443e+12 -3.32739e+12 -3.30121e+12 -3.27452e+12 -3.24749e+12 -3.22427e+12 -3.21288e+12 -3.22086e+12 -3.24944e+12 -3.29293e+12 -3.34296e+12 -3.39675e+12 -3.45257e+12 -3.50996e+12 -3.56768e+12 -3.91879e+12 -3.94811e+12 -3.96921e+12 -3.98109e+12 -3.98475e+12 -3.97041e+12 -3.94484e+12 -3.92292e+12 -3.99635e+12 -4.02416e+12 -3.99832e+12 -3.98737e+12 -3.9131e+12 -3.92896e+12 -2.90999e+12 -4.57126e+12 -5.36487e+12 -3.36512e+12 -5.48082e+12 -4.68669e+12 -3.10232e+12 -5.67838e+12 -4.95235e+12 -4.51567e+12 -3.90051e+12 -3.73785e+12 -3.21502e+12 -3.2571e+12 -2.84887e+12 -3.12284e+12 -3.15692e+12 -1.54195e+12 -1.32333e+12 -2.8701e+12 -3.13063e+12 -3.11965e+12 -3.35572e+12 -3.31052e+12 -3.54366e+12 -3.50852e+12 -3.68583e+12 -3.62668e+12 -3.82182e+12 -3.88324e+12 -4.09903e+12 -4.23625e+12 -4.39872e+12 -3.94144e+12 -4.25123e+12 -4.7324e+12 -3.64778e+12 -3.51275e+12 -3.54967e+12 -3.579e+12 -3.59823e+12 -3.59979e+12 -3.59663e+12 -3.59266e+12 -3.58318e+12 -3.56552e+12 -3.54406e+12 -3.52423e+12 -3.50798e+12 -3.49375e+12 -3.47912e+12 -3.46159e+12 -3.43898e+12 -3.41193e+12 -3.38166e+12 -3.34935e+12 -3.31646e+12 -3.28456e+12 -3.2547e+12 -3.22719e+12 -3.20182e+12 -3.17802e+12 -3.15567e+12 -3.13617e+12 -3.12377e+12 -3.1237e+12 -3.13915e+12 -3.16898e+12 -3.20862e+12 -3.25305e+12 -3.3e+12 -3.62394e+12 -3.67348e+12 -3.71144e+12 -3.73872e+12 -3.75999e+12 -3.77586e+12 -3.78427e+12 -3.78631e+12 -3.78178e+12 -3.77942e+12 -3.82129e+12 -3.85468e+12 -3.85307e+12 -3.83008e+12 -3.80656e+12 -3.78265e+12 -3.15712e+12 -4.18248e+12 -3.22817e+12 -3.75277e+12 -4.74296e+12 -4.94751e+12 -4.50029e+12 -4.14895e+12 -3.62106e+12 -3.35528e+12 -2.37306e+12 -2.6075e+12 -3.53018e+12 -3.21046e+12 -2.90872e+12 -2.93474e+12 -2.66705e+12 -1.41235e+12 -1.16178e+12 -2.57427e+12 -2.5435e+12 -2.83536e+12 -2.82883e+12 -3.10314e+12 -3.07677e+12 -3.26084e+12 -3.4573e+12 -3.37869e+12 -3.55803e+12 -3.51959e+12 -4.07601e+12 -4.49765e+12 -5.17696e+12 -2.67707e+12 -4.65389e+12 -2.66852e+12 -3.11895e+12 -3.24973e+12 -3.33756e+12 -3.38612e+12 -3.40533e+12 -3.41174e+12 -3.41557e+12 -3.41666e+12 -3.40945e+12 -3.39526e+12 -3.37922e+12 -3.36457e+12 -3.35158e+12 -3.33888e+12 -3.325e+12 -3.30826e+12 -3.28748e+12 -3.26312e+12 -3.23615e+12 -3.2075e+12 -3.17837e+12 -3.15005e+12 -3.12328e+12 -3.09846e+12 -3.07579e+12 -3.05542e+12 -3.03808e+12 -3.02584e+12 -3.0218e+12 -3.02888e+12 -3.04796e+12 -3.34834e+12 -3.39681e+12 -3.44305e+12 -3.48328e+12 -3.51537e+12 -3.54028e+12 -3.55983e+12 -3.57586e+12 -3.58829e+12 -3.59589e+12 -3.60187e+12 -3.61016e+12 -3.63729e+12 -3.66887e+12 -3.69086e+12 -3.69908e+12 -3.71314e+12 -3.76789e+12 -3.69422e+12 -3.92849e+12 -3.83739e+12 -3.85278e+12 -4.22546e+12 -4.46793e+12 -4.16971e+12 -4.17192e+12 -3.9218e+12 -2.74992e+12 -2.32718e+12 -4.0585e+12 -3.81782e+12 -3.1211e+12 -2.95175e+12 -2.64257e+12 -2.36531e+12 -1.27e+12 -1.11431e+12 -999394000000.0 -1.9407e+12 -2.26029e+12 -2.2353e+12 -2.50718e+12 -2.53074e+12 -2.83091e+12 -2.83066e+12 -3.02689e+12 -2.9651e+12 -3.21346e+12 -3.14241e+12 -3.28727e+12 -3.13984e+12 -3.63977e+12 -3.91157e+12 -4.41862e+12 -3.79583e+12 -4.01292e+12 -2.5251e+12 -3.01285e+12 -3.12706e+12 -3.18859e+12 -3.21709e+12 -3.22709e+12 -3.23499e+12 -3.24454e+12 -3.24687e+12 -3.23998e+12 -3.22905e+12 -3.21767e+12 -3.2068e+12 -3.19611e+12 -3.18485e+12 -3.17198e+12 -3.15632e+12 -3.1373e+12 -3.11537e+12 -3.09124e+12 -3.06571e+12 -3.03982e+12 -3.01463e+12 -2.99086e+12 -2.96899e+12 -2.94943e+12 -3.07706e+12 -3.11276e+12 -3.1519e+12 -3.19256e+12 -3.23309e+12 -3.27148e+12 -3.30483e+12 -3.33147e+12 -3.3526e+12 -3.3701e+12 -3.38486e+12 -3.39738e+12 -3.40752e+12 -3.41606e+12 -3.42717e+12 -3.44761e+12 -3.47291e+12 -3.50056e+12 -3.52818e+12 -3.56116e+12 -3.6251e+12 -3.68653e+12 -3.90528e+12 -3.96421e+12 -2.86303e+12 -3.73448e+12 -3.7627e+12 -3.84247e+12 -4.1306e+12 -3.60105e+12 -3.54246e+12 -3.28817e+12 -4.00257e+12 -3.55956e+12 -3.35884e+12 -2.73563e+12 -2.65488e+12 -2.33587e+12 -2.34085e+12 -2.04058e+12 -950922000000.0 -666703000000.0 -838557000000.0 -1.61786e+12 -1.90993e+12 -2.20317e+12 -2.14396e+12 -2.56488e+12 -2.80547e+12 -2.7483e+12 -2.9094e+12 -2.83246e+12 -3.03518e+12 -2.87152e+12 -3.00355e+12 -3.08453e+12 -3.61947e+12 -4.36706e+12 -2.87475e+12 -3.42022e+12 -3.27734e+12 -2.8453e+12 -2.97776e+12 -3.01612e+12 -3.03918e+12 -3.05045e+12 -3.05877e+12 -3.07095e+12 -2.93289e+12 -2.92063e+12 -2.91444e+12 -2.91638e+12 -2.92771e+12 -2.94789e+12 -2.97502e+12 -3.00657e+12 -3.04018e+12 -3.0739e+12 -3.10578e+12 -3.13369e+12 -3.15633e+12 -3.17411e+12 -3.18863e+12 -3.20132e+12 -3.21248e+12 -3.2221e+12 -2.48093e+12 -2.98546e+12 -3.3121e+12 -3.40874e+12 -3.67698e+12 -3.66507e+12 -3.1201e+12 -3.13338e+12 -3.54052e+12 -3.27908e+12 -3.59398e+12 -3.02153e+12 -2.87014e+12 -2.44663e+12 -2.37079e+12 -1.99196e+12 -2.01402e+12 -1.7068e+12 -779587000000.0 -482118000000.0 -1.29232e+12 -1.58435e+12 -1.8881e+12 -1.85849e+12 -2.28242e+12 -2.32439e+12 -2.57436e+12 -2.54622e+12 -2.69047e+12 -2.63911e+12 -2.70749e+12 -2.49063e+12 -2.48466e+12 -1.79705e+12 -2.99574e+12 -3.69228e+12 -3.49392e+12 -3.07871e+12 -3.08132e+12 -3.00565e+12 -2.83062e+12 -3.07901e+12 -3.07854e+12 -3.07338e+12 -3.06651e+12 -3.05882e+12 -3.05054e+12 -3.04165e+12 -3.03172e+12 -3.01991e+12 -3.00546e+12 -2.98815e+12 -2.96838e+12 -2.94671e+12 -2.92385e+12 -2.90082e+12 -2.87856e+12 -2.85774e+12 -2.83887e+12 -2.8226e+12 -2.80992e+12 -2.80211e+12 -2.80062e+12 -2.80647e+12 -2.81973e+12 -2.8394e+12 -2.86373e+12 -2.89058e+12 -2.91801e+12 -2.9442e+12 -2.96739e+12 -2.98646e+12 -3.00152e+12 -3.23056e+12 -3.2402e+12 -3.25516e+12 -3.27439e+12 -3.29758e+12 -3.32764e+12 -3.36752e+12 -3.42937e+12 -3.51823e+12 -3.70204e+12 -3.81214e+12 -2.34487e+12 -2.66227e+12 -2.84204e+12 -3.03001e+12 -3.19256e+12 -3.27551e+12 -3.24473e+12 -3.11824e+12 -2.64094e+12 -2.89876e+12 -2.90259e+12 -3.05711e+12 -2.61656e+12 -2.54435e+12 -2.04272e+12 -1.99891e+12 -1.63161e+12 -1.66949e+12 -1.32187e+12 -1.38005e+12 -1.06586e+12 -598800000000.0 -294138000000.0 -956371000000.0 -1.25384e+12 -1.20257e+12 -1.54038e+12 -1.56124e+12 -1.78634e+12 -2.07329e+12 -2.32424e+12 -2.29737e+12 -2.49977e+12 -2.4543e+12 -2.56899e+12 -2.45857e+12 -1.63013e+12 -2.81163e+12 -3.1776e+12 -3.16195e+12 -3.09982e+12 -2.8624e+12 -2.85494e+12 -2.86999e+12 -2.87898e+12 -2.88545e+12 -2.89704e+12 -2.90841e+12 -2.91314e+12 -2.91326e+12 -2.91106e+12 -2.90716e+12 -2.9019e+12 -2.89561e+12 -2.88826e+12 -2.87951e+12 -2.86874e+12 -2.85549e+12 -2.83979e+12 -2.82195e+12 -2.8024e+12 -2.78193e+12 -2.76151e+12 -2.74199e+12 -2.72397e+12 -2.70805e+12 -2.69498e+12 -2.68579e+12 -2.68162e+12 -2.68334e+12 -2.69124e+12 -2.70484e+12 -2.72284e+12 -2.74356e+12 -2.76523e+12 -3.0135e+12 -3.02349e+12 -3.03237e+12 -3.04038e+12 -3.04753e+12 -3.05482e+12 -3.06455e+12 -3.07729e+12 -3.09337e+12 -3.11578e+12 -3.14937e+12 -3.20154e+12 -3.28253e+12 -3.43601e+12 -3.56934e+12 -2.44011e+12 -2.56931e+12 -2.64225e+12 -2.79754e+12 -2.89102e+12 -2.92834e+12 -2.86873e+12 -2.46529e+12 -2.3102e+12 -2.37768e+12 -2.55354e+12 -2.19869e+12 -2.1185e+12 -1.63038e+12 -1.61228e+12 -1.25918e+12 -994251000000.0 -739995000000.0 -425226000000.0 -260610000000.0 -100950000000.0 -611802000000.0 -577359000000.0 -919525000000.0 -872263000000.0 -1.13349e+12 -1.55369e+12 -1.46552e+12 -2.09062e+12 -2.07839e+12 -2.25548e+12 -2.21035e+12 -2.44109e+12 -2.49535e+12 -2.35129e+12 -2.111e+12 -2.87712e+12 -2.8426e+12 -2.81344e+12 -2.83164e+12 -2.77946e+12 -2.69856e+12 -2.70099e+12 -2.70873e+12 -2.71448e+12 -2.72494e+12 -2.73766e+12 -2.74573e+12 -2.74988e+12 -2.75187e+12 -2.75187e+12 -2.75008e+12 -2.74676e+12 -2.74203e+12 -2.73591e+12 -2.72816e+12 -2.71837e+12 -2.70632e+12 -2.69208e+12 -2.6759e+12 -2.65825e+12 -2.63997e+12 -2.62196e+12 -2.60494e+12 -2.58952e+12 -2.57633e+12 -2.56616e+12 -2.55989e+12 -2.55832e+12 -2.56189e+12 -2.57041e+12 -2.78622e+12 -2.80513e+12 -2.82097e+12 -2.83347e+12 -2.84318e+12 -2.85094e+12 -2.85735e+12 -2.86302e+12 -2.86824e+12 -2.87316e+12 -2.87859e+12 -2.88518e+12 -2.89359e+12 -2.90588e+12 -2.92614e+12 -2.96029e+12 -3.01554e+12 -3.11873e+12 -3.23247e+12 -2.19719e+12 -2.36459e+12 -2.52826e+12 -2.62028e+12 -2.68288e+12 -2.76293e+12 -1.94869e+12 -2.11453e+12 -2.19835e+12 -2.23392e+12 -1.78363e+12 -1.69466e+12 -1.19725e+12 -1.20891e+12 -893718000000.0 -696012000000.0 -459108000000.0 -84396900000.0 -259574000000.0 -231699000000.0 -528135000000.0 -795677000000.0 -1.31685e+12 -1.29027e+12 -1.84964e+12 -1.84536e+12 -2.04375e+12 -2.00505e+12 -2.22118e+12 -2.31763e+12 -2.77052e+12 -3.60902e+12 -2.53064e+12 -2.49083e+12 -2.74664e+12 -2.63578e+12 -2.60646e+12 -2.5719e+12 -2.53697e+12 -2.53869e+12 -2.54394e+12 -2.55389e+12 -2.56697e+12 -2.57719e+12 -2.5844e+12 -2.58991e+12 -2.59351e+12 -2.59521e+12 -2.59509e+12 -2.5932e+12 -2.58962e+12 -2.5845e+12 -2.57766e+12 -2.56881e+12 -2.55785e+12 -2.54486e+12 -2.53012e+12 -2.51422e+12 -2.49797e+12 -2.48213e+12 -2.58303e+12 -2.59838e+12 -2.615e+12 -2.63144e+12 -2.64648e+12 -2.6593e+12 -2.66952e+12 -2.67724e+12 -2.683e+12 -2.68738e+12 -2.69072e+12 -2.69348e+12 -2.6959e+12 -2.6979e+12 -2.6995e+12 -2.70113e+12 -2.70405e+12 -2.71087e+12 -2.72537e+12 -2.75116e+12 -2.7966e+12 -2.84085e+12 -2.05806e+12 -2.23505e+12 -2.37144e+12 -2.43965e+12 -2.27527e+12 -2.38062e+12 -2.49456e+12 -2.61103e+12 -1.61999e+12 -1.16516e+12 -2.06099e+12 -1.87876e+12 -1.86082e+12 -1.3583e+12 -1.25116e+12 -735169000000.0 -789052000000.0 -365202000000.0 -592175000000.0 -428438000000.0 -316877000000.0 -157961000000.0 -202008000000.0 -444871000000.0 -210700000000.0 -786232000000.0 -1.11544e+12 -1.16214e+12 -1.59752e+12 -1.81725e+12 -1.78653e+12 -1.91853e+12 -1.89783e+12 -2.65156e+12 -2.82167e+12 -3.17781e+12 -2.30179e+12 -2.18718e+12 -2.48635e+12 -2.48107e+12 -2.45363e+12 -2.40546e+12 -2.38932e+12 -2.37513e+12 -2.3672e+12 -2.37244e+12 -2.38252e+12 -2.3961e+12 -2.40803e+12 -2.41767e+12 -2.42601e+12 -2.43263e+12 -2.43754e+12 -2.44073e+12 -2.44187e+12 -2.46735e+12 -2.45424e+12 -2.44346e+12 -2.43568e+12 -2.43158e+12 -2.43163e+12 -2.43586e+12 -2.44379e+12 -2.45443e+12 -2.46658e+12 -2.47899e+12 -2.49061e+12 -2.50065e+12 -2.5087e+12 -2.51467e+12 -2.51876e+12 -2.52139e+12 -2.52288e+12 -2.52338e+12 -2.52314e+12 -2.52215e+12 -2.51994e+12 -2.51636e+12 -2.51185e+12 -2.50767e+12 -2.50574e+12 -2.50752e+12 -2.51198e+12 -2.49228e+12 -1.91092e+12 -2.00356e+12 -2.20491e+12 -2.30208e+12 -2.38629e+12 -2.08148e+12 -2.13879e+12 -2.23468e+12 -2.22186e+12 -1.43918e+12 -1.90966e+12 -1.78413e+12 -1.65693e+12 -1.49934e+12 -866163000000.0 -749559000000.0 -228233000000.0 -164173000000.0 -166074000000.0 -127913000000.0 -1.03374e+12 -848431000000.0 -1.58804e+12 -1.59031e+12 -1.7703e+12 -1.41609e+12 -1.95684e+12 -2.086e+12 -2.48362e+12 -2.14773e+12 -2.16532e+12 -2.18786e+12 -2.18945e+12 -2.18268e+12 -2.18623e+12 -2.19117e+12 -2.19798e+12 -2.20986e+12 -2.22467e+12 -2.44096e+12 -2.43831e+12 -2.43407e+12 -2.42803e+12 -2.41999e+12 -2.40992e+12 -2.39796e+12 -2.38452e+12 -2.37026e+12 -2.35586e+12 -2.34194e+12 -2.32911e+12 -2.31796e+12 -2.3091e+12 -2.30309e+12 -2.30037e+12 -2.30109e+12 -2.30501e+12 -2.31151e+12 -2.31963e+12 -2.32836e+12 -2.33679e+12 -2.3442e+12 -2.35015e+12 -2.35443e+12 -2.35706e+12 -2.35822e+12 -2.35816e+12 -1.74921e+12 -1.65982e+12 -2.06959e+12 -2.152e+12 -2.24239e+12 -2.34218e+12 -1.83552e+12 -2.03748e+12 -1.91253e+12 -1.82452e+12 -2.89465e+12 -2.48374e+12 -1.87333e+12 -1.22922e+12 -1.04287e+12 -251117000000.0 -211366000000.0 -112033000000.0 -304680000000.0 -294402000000.0 -1.24537e+12 -1.36781e+12 -1.6124e+12 -1.71259e+12 -1.47381e+12 -1.16395e+12 -2.23901e+12 -2.43176e+12 -1.45942e+12 -1.6755e+12 -1.78853e+12 -1.87158e+12 -1.92436e+12 -1.95638e+12 -1.97953e+12 -2.23821e+12 -2.2497e+12 -2.26037e+12 -2.26975e+12 -2.27766e+12 -2.284e+12 -2.28821e+12 -2.29007e+12 -2.28988e+12 -2.28807e+12 -2.28457e+12 -2.27916e+12 -2.27174e+12 -2.26236e+12 -2.2513e+12 -2.23908e+12 -2.22632e+12 -2.21355e+12 -2.20128e+12 -2.19007e+12 -2.18047e+12 -2.173e+12 -2.16809e+12 -2.16595e+12 -2.16654e+12 -2.16946e+12 -2.17402e+12 -2.17938e+12 -2.18478e+12 -2.35695e+12 -2.35458e+12 -2.35104e+12 -2.3459e+12 -2.33849e+12 -2.32855e+12 -2.31615e+12 -2.30157e+12 -2.28534e+12 -2.26548e+12 -2.22248e+12 -2.11221e+12 -2.04903e+12 -2.07291e+12 -2.15458e+12 -2.24818e+12 -1.61352e+12 -1.7996e+12 -1.87799e+12 -1.7665e+12 -1.97847e+12 -1.69778e+12 -1.41156e+12 -736967000000.0 -508199000000.0 -134596000000.0 -303314000000.0 -741493000000.0 -1.37974e+12 -1.46969e+12 -1.52297e+12 -1.059e+12 -1.27907e+12 -1.4994e+12 -1.79616e+12 -1.04277e+12 -1.36753e+12 -1.53072e+12 -1.63499e+12 -1.99981e+12 -2.01843e+12 -2.03473e+12 -2.05137e+12 -2.06671e+12 -2.08025e+12 -2.09323e+12 -2.1053e+12 -2.11601e+12 -2.12524e+12 -2.13242e+12 -2.13709e+12 -2.13943e+12 -2.13997e+12 -2.13885e+12 -2.13586e+12 -2.13086e+12 -2.12387e+12 -2.11507e+12 -2.10487e+12 -2.09381e+12 -2.08236e+12 -2.07095e+12 -2.06001e+12 -2.05005e+12 -2.04154e+12 -2.03491e+12 -2.03043e+12 -2.18961e+12 -2.19344e+12 -2.19602e+12 -2.19722e+12 -2.19706e+12 -2.19568e+12 -2.19313e+12 -2.18925e+12 -2.18384e+12 -2.17656e+12 -2.16661e+12 -2.15305e+12 -2.13511e+12 -2.11168e+12 -2.08128e+12 -2.04259e+12 -1.98736e+12 -1.60297e+12 -1.47627e+12 -1.92174e+12 -2.01055e+12 -2.11763e+12 -1.39697e+12 -1.55848e+12 -1.6334e+12 -1.69108e+12 -1.78179e+12 -1.19839e+12 -1.0412e+12 -905689000000.0 -187013000000.0 -140432000000.0 -1.08284e+12 -1.19261e+12 -1.38971e+12 -849713000000.0 -2.31414e+12 -895235000000.0 -1.70557e+12 -1.75884e+12 -1.79713e+12 -1.82811e+12 -1.85384e+12 -1.87452e+12 -1.89308e+12 -1.90934e+12 -1.92465e+12 -1.9393e+12 -1.95271e+12 -1.9647e+12 -1.97474e+12 -1.98221e+12 -1.98714e+12 -1.99002e+12 -1.99117e+12 -1.99046e+12 -1.9877e+12 -1.98292e+12 -1.97627e+12 -1.96806e+12 -1.95873e+12 -2.0282e+12 -2.02804e+12 -2.02947e+12 -2.03182e+12 -2.03443e+12 -2.03676e+12 -2.03845e+12 -2.03926e+12 -2.03901e+12 -2.03757e+12 -2.03497e+12 -2.03124e+12 -2.02624e+12 -2.01962e+12 -2.01095e+12 -1.99949e+12 -1.98404e+12 -1.96322e+12 -1.93502e+12 -1.89625e+12 -1.84211e+12 -1.76895e+12 -1.48499e+12 -1.34696e+12 -2.04647e+12 -1.95364e+12 -1.89876e+12 -1.87968e+12 -1.9346e+12 -1.15757e+12 -1.27938e+12 -1.35339e+12 -1.36013e+12 -708525000000.0 -575122000000.0 -420297000000.0 -254093000000.0 -691979000000.0 -1.00943e+12 -1.52179e+12 -752967000000.0 -957457000000.0 -909265000000.0 -1.76259e+12 -2.062e+12 -1.18365e+12 -1.3371e+12 -1.44155e+12 -1.52274e+12 -1.5834e+12 -1.62853e+12 -1.66509e+12 -1.69362e+12 -1.71659e+12 -1.73626e+12 -1.75428e+12 -1.77165e+12 -1.78785e+12 -1.80253e+12 -1.81528e+12 -1.82554e+12 -1.83316e+12 -1.83846e+12 -1.9487e+12 -1.93833e+12 -1.92796e+12 -1.918e+12 -1.90886e+12 -1.90094e+12 -1.89458e+12 -1.88997e+12 -1.88711e+12 -1.88574e+12 -1.88539e+12 -1.88545e+12 -1.88544e+12 -1.88502e+12 -1.88401e+12 -1.88223e+12 -1.87953e+12 -1.87575e+12 -1.87088e+12 -1.86487e+12 -1.8574e+12 -1.84793e+12 -1.83579e+12 -1.81985e+12 -1.79847e+12 -1.76942e+12 -1.7291e+12 -1.67135e+12 -1.58462e+12 -1.40396e+12 -1.25712e+12 -1.91191e+12 -1.81511e+12 -1.72115e+12 -1.66385e+12 -1.68731e+12 -1.71462e+12 -911926000000.0 -923077000000.0 -1.11612e+12 -986642000000.0 -1.16956e+12 -323552000000.0 -144125000000.0 -180348000000.0 -559355000000.0 -1.24923e+12 -1.83545e+12 -1.95268e+12 -473550000000.0 -1.17135e+12 -1.59849e+12 -1.78264e+12 -825575000000.0 -1.04857e+12 -1.17685e+12 -1.27871e+12 -1.36003e+12 -1.42132e+12 -1.46959e+12 -1.50712e+12 -1.53653e+12 -1.56067e+12 -1.58196e+12 -1.84183e+12 -1.84329e+12 -1.84263e+12 -1.83988e+12 -1.83524e+12 -1.82898e+12 -1.82143e+12 -1.81291e+12 -1.80374e+12 -1.79418e+12 -1.78452e+12 -1.77509e+12 -1.76628e+12 -1.75843e+12 -1.75183e+12 -1.74663e+12 -1.74275e+12 -1.7399e+12 -1.73761e+12 -1.73542e+12 -1.73299e+12 -1.73012e+12 -1.72672e+12 -1.72266e+12 -1.71773e+12 -1.71178e+12 -1.74064e+12 -1.65294e+12 -1.53981e+12 -1.42541e+12 -1.29291e+12 -1.65361e+12 -1.6945e+12 -810680000000.0 -1.20834e+12 -861738000000.0 -817424000000.0 -134970000000.0 -920616000000.0 -982259000000.0 -1.19318e+12 -1.76786e+12 -1.32938e+12 -1.30385e+12 -758711000000.0 -923200000000.0 -1.03863e+12 -1.13482e+12 -1.21074e+12 -1.6022e+12 -1.62119e+12 -1.63855e+12 -1.65405e+12 -1.66716e+12 -1.6776e+12 -1.68547e+12 -1.69114e+12 -1.6947e+12 -1.69599e+12 -1.69508e+12 -1.69224e+12 -1.68783e+12 -1.68212e+12 -1.67528e+12 -1.66748e+12 -1.65896e+12 -1.64989e+12 -1.64051e+12 -1.6311e+12 -1.62208e+12 -1.61382e+12 -1.60659e+12 -1.60048e+12 -1.59533e+12 -1.59083e+12 -1.70476e+12 -1.6965e+12 -1.68655e+12 -1.67424e+12 -1.65865e+12 -1.6383e+12 -1.61119e+12 -1.57443e+12 -1.52349e+12 -1.45118e+12 -1.33851e+12 -1.1881e+12 -1.55464e+12 -1.48433e+12 -1.37288e+12 -1.24515e+12 -1.07218e+12 -1.57617e+12 -1.48312e+12 -1.42545e+12 -1.46926e+12 -716370000000.0 -770347000000.0 -968488000000.0 -606790000000.0 -557445000000.0 -559353000000.0 -546537000000.0 -773369000000.0 -1.44458e+12 -1.51271e+12 -657497000000.0 -1.27014e+12 -1.31642e+12 -1.35289e+12 -1.38226e+12 -1.40719e+12 -1.4304e+12 -1.45226e+12 -1.47238e+12 -1.49073e+12 -1.50695e+12 -1.52044e+12 -1.53114e+12 -1.53932e+12 -1.54503e+12 -1.54821e+12 -1.54893e+12 -1.54761e+12 -1.54475e+12 -1.54077e+12 -1.53582e+12 -1.52975e+12 -1.52258e+12 -1.51442e+12 -1.50541e+12 -1.49574e+12 -1.58657e+12 -1.5822e+12 -1.57751e+12 -1.57241e+12 -1.56683e+12 -1.56064e+12 -1.55362e+12 -1.54562e+12 -1.53654e+12 -1.52613e+12 -1.51385e+12 -1.49896e+12 -1.48031e+12 -1.45627e+12 -1.42466e+12 -1.38243e+12 -1.32516e+12 -1.24581e+12 -1.12132e+12 -1.44828e+12 -1.24184e+12 -1.19175e+12 -957214000000.0 -1.20454e+12 -564015000000.0 -590306000000.0 -407581000000.0 -154247000000.0 -164603000000.0 -295306000000.0 -417727000000.0 -600282000000.0 -975814000000.0 -871404000000.0 -1.05975e+12 -1.18511e+12 -1.25442e+12 -807972000000.0 -916016000000.0 -1.00265e+12 -1.07115e+12 -1.12443e+12 -1.16655e+12 -1.20089e+12 -1.22965e+12 -1.25597e+12 -1.28069e+12 -1.30354e+12 -1.32487e+12 -1.34443e+12 -1.36141e+12 -1.37544e+12 -1.38651e+12 -1.39454e+12 -1.39958e+12 -1.40181e+12 -1.40175e+12 -1.40006e+12 -1.48577e+12 -1.47604e+12 -1.46701e+12 -1.45891e+12 -1.45167e+12 -1.44509e+12 -1.43884e+12 -1.4326e+12 -1.42612e+12 -1.41929e+12 -1.41207e+12 -1.40443e+12 -1.39621e+12 -1.38721e+12 -1.37728e+12 -1.3663e+12 -1.35396e+12 -1.33974e+12 -1.32287e+12 -1.30215e+12 -1.27601e+12 -1.24252e+12 -1.19925e+12 -1.14327e+12 -1.04676e+12 -1.35672e+12 -1.31104e+12 -1.21505e+12 -1.0952e+12 -921403000000.0 -854005000000.0 -1.0952e+12 -634816000000.0 -880737000000.0 -446818000000.0 -546915000000.0 -293443000000.0 -80726400000.0 -73792700000.0 -210518000000.0 -219929000000.0 -202400000000.0 -670678000000.0 -761369000000.0 -858966000000.0 -952170000000.0 -993069000000.0 -580060000000.0 -712478000000.0 -804906000000.0 -877919000000.0 -934604000000.0 -979553000000.0 -1.01732e+12 -1.04949e+12 -1.07864e+12 -1.10601e+12 -1.13167e+12 -1.156e+12 -1.17906e+12 -1.20006e+12 -1.21816e+12 -1.39743e+12 -1.39428e+12 -1.39038e+12 -1.38516e+12 -1.37842e+12 -1.37018e+12 -1.36054e+12 -1.34982e+12 -1.33868e+12 -1.32793e+12 -1.31801e+12 -1.30888e+12 -1.30036e+12 -1.29221e+12 -1.28413e+12 -1.2759e+12 -1.26735e+12 -1.25844e+12 -1.24917e+12 -1.23953e+12 -1.22936e+12 -1.21851e+12 -1.20684e+12 -1.19422e+12 -1.18037e+12 -1.16487e+12 -1.14707e+12 -1.12593e+12 -1.10024e+12 -1.06879e+12 -1.03054e+12 -959387000000.0 -1.15272e+12 -1.13306e+12 -1.06032e+12 -962544000000.0 -812672000000.0 -1.27439e+12 -1.11429e+12 -850369000000.0 -450162000000.0 -536848000000.0 -396117000000.0 -214397000000.0 -31009200000.0 -207406000000.0 -306478000000.0 -546473000000.0 -636227000000.0 -653685000000.0 -521345000000.0 -624574000000.0 -696843000000.0 -752758000000.0 -795644000000.0 -832664000000.0 -866687000000.0 -1.23286e+12 -1.24373e+12 -1.25061e+12 -1.25408e+12 -1.25492e+12 -1.25404e+12 -1.25224e+12 -1.2504e+12 -1.24876e+12 -1.24637e+12 -1.24202e+12 -1.23528e+12 -1.2261e+12 -1.21474e+12 -1.20208e+12 -1.18941e+12 -1.17773e+12 -1.1669e+12 -1.15662e+12 -1.14667e+12 -1.13682e+12 -1.12683e+12 -1.11655e+12 -1.10592e+12 -954596000000.0 -954011000000.0 -904907000000.0 -833593000000.0 -719741000000.0 -1.07767e+12 -919619000000.0 -854525000000.0 -716198000000.0 -277547000000.0 -289885000000.0 -194431000000.0 -58200200000.0 -86659600000.0 -73637300000.0 -9042910000.0 -76631700000.0 -250477000000.0 -740312000000.0 -763176000000.0 -458104000000.0 -898285000000.0 -928296000000.0 -956530000000.0 -983732000000.0 -1.00995e+12 -1.03539e+12 -1.05866e+12 -1.07821e+12 -1.09301e+12 -1.10235e+12 -1.10674e+12 -1.1078e+12 -1.10694e+12 -1.10533e+12 -1.104e+12 -1.10407e+12 -1.105e+12 -1.10485e+12 -1.10119e+12 -1.09336e+12 -1.08145e+12 -1.06679e+12 -1.05157e+12 -1.09494e+12 -1.08366e+12 -1.07207e+12 -1.06007e+12 -1.04754e+12 -1.03441e+12 -1.02055e+12 -1.00579e+12 -989952000000.0 -972764000000.0 -953488000000.0 -931494000000.0 -906638000000.0 -856512000000.0 -620503000000.0 -871352000000.0 -772008000000.0 -695619000000.0 -703387000000.0 -583567000000.0 -605702000000.0 -105820000000.0 -9036860000.0 -33799700000.0 -116299000000.0 -304173000000.0 -450762000000.0 -469877000000.0 -503363000000.0 -563401000000.0 -573877000000.0 -534404000000.0 -585069000000.0 -619656000000.0 -649714000000.0 -680681000000.0 -714388000000.0 -747405000000.0 -778625000000.0 -808487000000.0 -836503000000.0 -865642000000.0 -895316000000.0 -921994000000.0 -942298000000.0 -955397000000.0 -961198000000.0 -961723000000.0 -959694000000.0 -957010000000.0 -955196000000.0 -955639000000.0 -959249000000.0 -1.038e+12 -1.02559e+12 -1.01379e+12 -1.00223e+12 -990686000000.0 -978969000000.0 -966933000000.0 -954529000000.0 -941771000000.0 -928716000000.0 -915437000000.0 -901967000000.0 -888284000000.0 -874338000000.0 -860086000000.0 -845493000000.0 -830594000000.0 -815608000000.0 -801014000000.0 -786294000000.0 -771432000000.0 -738066000000.0 -766787000000.0 -777724000000.0 -747746000000.0 -700553000000.0 -666238000000.0 -603274000000.0 -557220000000.0 -550102000000.0 -536020000000.0 -416613000000.0 -360335000000.0 -201478000000.0 -20812700000.0 -30303500000.0 -18355200000.0 -220181000000.0 -266798000000.0 -299899000000.0 -316161000000.0 -361406000000.0 -392319000000.0 -415496000000.0 -388497000000.0 -440847000000.0 -458003000000.0 -471865000000.0 -493977000000.0 -521984000000.0 -561956000000.0 -598434000000.0 -632435000000.0 -659304000000.0 -689448000000.0 -724179000000.0 -762202000000.0 -792107000000.0 -810815000000.0 -818646000000.0 -964501000000.0 -967898000000.0 -963845000000.0 -951804000000.0 -934040000000.0 -914455000000.0 -898687000000.0 -884773000000.0 -871688000000.0 -858786000000.0 -845741000000.0 -832387000000.0 -818603000000.0 -804358000000.0 -789709000000.0 -774746000000.0 -759583000000.0 -744338000000.0 -729111000000.0 -713955000000.0 -698890000000.0 -683934000000.0 -669167000000.0 -654894000000.0 -641961000000.0 -632457000000.0 -625231000000.0 -605406000000.0 -589531000000.0 -605281000000.0 -588882000000.0 -560688000000.0 -509906000000.0 -345200000000.0 -227230000000.0 -227163000000.0 -112361000000.0 -36545500000.0 -56526800000.0 -91551400000.0 -156978000000.0 -139535000000.0 -162797000000.0 -178195000000.0 -205638000000.0 -347448000000.0 -321762000000.0 -301501000000.0 -308768000000.0 -326142000000.0 -355015000000.0 -416181000000.0 -818897000000.0 -813763000000.0 -807856000000.0 -803898000000.0 -804056000000.0 -807293000000.0 -817266000000.0 -830574000000.0 -840137000000.0 -829677000000.0 -806920000000.0 -777881000000.0 -759325000000.0 -744074000000.0 -730035000000.0 -716171000000.0 -701939000000.0 -687137000000.0 -671684000000.0 -655572000000.0 -638911000000.0 -621865000000.0 -604605000000.0 -587310000000.0 -421973000000.0 -437236000000.0 -428037000000.0 -412914000000.0 -384618000000.0 -466991000000.0 -435988000000.0 -405315000000.0 -397235000000.0 -397636000000.0 -124367000000.0 -114003000000.0 -57233800000.0 -24499800000.0 -29546400000.0 -39972600000.0 -31904600000.0 -209534000000.0 -290664000000.0 -202739000000.0 -460673000000.0 -481617000000.0 -506578000000.0 -542074000000.0 -590425000000.0 -640047000000.0 -671585000000.0 -681356000000.0 -680834000000.0 -674065000000.0 -659475000000.0 -649027000000.0 -649087000000.0 -651516000000.0 -657814000000.0 -681543000000.0 -713045000000.0 -726980000000.0 -694239000000.0 -640735000000.0 -618745000000.0 -602636000000.0 -588295000000.0 -570168000000.0 -553352000000.0 -536984000000.0 -521141000000.0 -505885000000.0 -491384000000.0 -478203000000.0 -468127000000.0 -467491000000.0 -460257000000.0 -263605000000.0 -274616000000.0 -266871000000.0 -256257000000.0 -244575000000.0 -275990000000.0 -262427000000.0 -250990000000.0 -240643000000.0 -237333000000.0 -227951000000.0 -143744000000.0 -39808900000.0 -18347800000.0 -43652300000.0 -51392000000.0 -55825600000.0 -72934800000.0 -78916000000.0 -119458000000.0 -124901000000.0 -123144000000.0 -128310000000.0 -143019000000.0 -173631000000.0 -321164000000.0 -308379000000.0 -322886000000.0 -343761000000.0 -404056000000.0 -462560000000.0 -533425000000.0 -555208000000.0 -548586000000.0 -540244000000.0 -524045000000.0 -487262000000.0 -488673000000.0 -492366000000.0 -494079000000.0 -501981000000.0 -572826000000.0 -574080000000.0 -559163000000.0 -543246000000.0 -526298000000.0 -508369000000.0 -489613000000.0 -470288000000.0 -450670000000.0 -431018000000.0 -411596000000.0 -392675000000.0 -374498000000.0 -357232000000.0 -340956000000.0 -325672000000.0 -311426000000.0 -298783000000.0 -290788000000.0 -301607000000.0 -96032200000.0 -89316800000.0 -86446800000.0 -83349500000.0 -81516900000.0 -71967800000.0 -61052900000.0 -77126800000.0 -77875500000.0 -70775700000.0 -81275200000.0 -100564000000.0 -130666000000.0 -132814000000.0 -103069000000.0 -53833400000.0 -101264000000.0 -155071000000.0 -619936000000.0 -645415000000.0 -496665000000.0 -473160000000.0 -458276000000.0 -445326000000.0 -431957000000.0 -417208000000.0 -400739000000.0 -382599000000.0 -362969000000.0 -342089000000.0 -320315000000.0 -298047000000.0 -275672000000.0 -253556000000.0 -232065000000.0 -211560000000.0 -192342000000.0 -174577000000.0 -158217000000.0 -142846000000.0 -127450000000.0 -110231000000.0 -89583000000.0 -116142000000.0 -120581000000.0 -108305000000.0 -95325700000.0 -83834300000.0 -65043700000.0 -211161000000.0 -267136000000.0 -308431000000.0 -328059000000.0 -328600000000.0 -307420000000.0 -255746000000.0 -181972000000.0 -106826000000.0 
SCALARS Shear_Stress float 1
LOOKUP_TABLE default
42629900000.0 56600000000.0 33207500000.0 22838000000.0 18080200000.0 42402000000.0 55706000000.0 19671000000.0 2633070000.0 35561500000.0 43550100000.0 7706660000.0 15407400000.0 5036140000.0 13204000000.0 65973100000.0 2445250000.0 19883400000.0 18592900000.0 49395400000.0 68989100000.0 18709100000.0 94131900000.0 30455600000.0 58375000000.0 74598500000.0 60797600000.0 85680600000.0 60234000000.0 13613700000.0 62040500000.0 1215610000.0 4228860000.0 52248300000.0 9464230000.0 67261200000.0 95247500000.0 23266100000.0 50041000000.0 117796000000.0 132027000000.0 67296800000.0 101450000000.0 97908200000.0 140068000000.0 86698700000.0 129657000000.0 72793500000.0 56732800000.0 24940700000.0 62884100000.0 123281000000.0 122114000000.0 111686000000.0 151259000000.0 189707000000.0 146676000000.0 87523700000.0 122476000000.0 156877000000.0 211221000000.0 126921000000.0 8123260000.0 91484300000.0 77532800000.0 138246000000.0 131866000000.0 207890000000.0 198411000000.0 301483000000.0 291721000000.0 346490000000.0 250536000000.0 322261000000.0 242272000000.0 231855000000.0 214106000000.0 213521000000.0 183838000000.0 222922000000.0 4129720000.0 136675000000.0 43939400000.0 196809000000.0 129297000000.0 141881000000.0 247467000000.0 18028300000.0 5868680000.0 102219000000.0 152351000000.0 205748000000.0 300422000000.0 313041000000.0 354942000000.0 306389000000.0 230054000000.0 213409000000.0 84581300000.0 87696200000.0 16575400000.0 226846000000.0 230318000000.0 200260000000.0 295091000000.0 40175700000.0 137393000000.0 173576000000.0 207780000000.0 276493000000.0 300756000000.0 284906000000.0 300586000000.0 257335000000.0 208889000000.0 128011000000.0 137756000000.0 142736000000.0 123948000000.0 194875000000.0 209421000000.0 220758000000.0 256429000000.0 259496000000.0 288086000000.0 298788000000.0 282969000000.0 277696000000.0 233703000000.0 263261000000.0 214974000000.0 213879000000.0 157959000000.0 151385000000.0 78909000000.0 113989000000.0 24921900000.0 267266000000.0 186778000000.0 265026000000.0 393119000000.0 292831000000.0 341006000000.0 266701000000.0 294190000000.0 248649000000.0 268269000000.0 278250000000.0 286969000000.0 249411000000.0 232680000000.0 203132000000.0 225976000000.0 200224000000.0 157788000000.0 92574800000.0 154523000000.0 929059000.0 269908000000.0 398092000000.0 378730000000.0 636834000000.0 555318000000.0 670008000000.0 425583000000.0 356470000000.0 297848000000.0 275880000000.0 282542000000.0 264234000000.0 214574000000.0 183894000000.0 152187000000.0 93500500000.0 31973900000.0 328427000000.0 576075000000.0 254202000000.0 590078000000.0 427976000000.0 345839000000.0 284834000000.0 274534000000.0 269926000000.0 234148000000.0 184920000000.0 146724000000.0 90526200000.0 24437300000.0 30202000000.0 24188000000.0 209482000000.0 31794100000.0 436725000000.0 310121000000.0 421853000000.0 514972000000.0 493832000000.0 411023000000.0 357921000000.0 312237000000.0 267490000000.0 267630000000.0 250719000000.0 264473000000.0 246808000000.0 246942000000.0 219675000000.0 202627000000.0 166574000000.0 150187000000.0 97019800000.0 89681100000.0 21221800000.0 37023800000.0 275376000000.0 134964000000.0 282327000000.0 193221000000.0 268227000000.0 95596900000.0 227776000000.0 464618000000.0 475743000000.0 563828000000.0 420050000000.0 291547000000.0 231621000000.0 232780000000.0 224221000000.0 187894000000.0 116030000000.0 26214600000.0 47732600000.0 86852500000.0 92923000000.0 23134600000.0 30484500000.0 701891000000.0 480821000000.0 334481000000.0 213493000000.0 206310000000.0 211809000000.0 198439000000.0 143600000000.0 44353600000.0 43604300000.0 51721000000.0 122901000000.0 107003000000.0 149682000000.0 345158000000.0 298099000000.0 41699400000.0 128057000000.0 11674300000.0 499069000000.0 382898000000.0 391037000000.0 286762000000.0 241177000000.0 115454000000.0 167065000000.0 139287000000.0 183154000000.0 156494000000.0 188326000000.0 164058000000.0 166111000000.0 112845000000.0 75646700000.0 18117000000.0 131205000000.0 175745000000.0 411373000000.0 460123000000.0 112943000000.0 247323000000.0 198598000000.0 336758000000.0 240347000000.0 220082000000.0 7441190000.0 280807000000.0 176966000000.0 72789600000.0 107521000000.0 129706000000.0 134555000000.0 22500700000.0 126204000000.0 199332000000.0 204201000000.0 287093000000.0 381299000000.0 421753000000.0 37128100000.0 166960000000.0 273124000000.0 169284000000.0 50943300000.0 55368100000.0 43233100000.0 67833000000.0 110567000000.0 69903400000.0 99342900000.0 230041000000.0 219436000000.0 271172000000.0 235394000000.0 236634000000.0 464885000000.0 589253000000.0 399808000000.0 401932000000.0 505483000000.0 481501000000.0 489598000000.0 254827000000.0 124065000000.0 394665000000.0 68782100000.0 366122000000.0 128006000000.0 14305200000.0 54167800000.0 41234900000.0 30127200000.0 90430000000.0 2818240000.0 55917900000.0 214329000000.0 315779000000.0 270500000000.0 493257000000.0 662766000000.0 487962000000.0 571824000000.0 371564000000.0 27317000000.0 253898000000.0 510005000000.0 353676000000.0 161960000000.0 77325300000.0 24790500000.0 191104000000.0 366155000000.0 322023000000.0 224650000000.0 418528000000.0 578384000000.0 586987000000.0 7821820000.0 195960000000.0 440650000000.0 437414000000.0 323742000000.0 748668000000.0 507887000000.0 311982000000.0 266241000000.0 171863000000.0 171758000000.0 97531700000.0 132127000000.0 455452000000.0 388201000000.0 561575000000.0 409558000000.0 273296000000.0 243614000000.0 158170000000.0 488109000000.0 675002000000.0 347662000000.0 454836000000.0 478745000000.0 696823000000.0 863830000000.0 548263000000.0 404600000000.0 319119000000.0 378837000000.0 356217000000.0 221395000000.0 166336000000.0 130057000000.0 395765000000.0 775100000000.0 314453000000.0 143209000000.0 454079000000.0 644590000000.0 322154000000.0 479691000000.0 907455000000.0 165019000000.0 110279000000.0 248695000000.0 39005500000.0 117956000000.0 309499000000.0 254883000000.0 161434000000.0 159595000000.0 882925000000.0 353777000000.0 53366700000.0 115978000000.0 6384600000.0 54948500000.0 408363000000.0 602398000000.0 235332000000.0 172186000000.0 256210000000.0 114954000000.0 384473000000.0 127027000000.0 187157000000.0 62182600000.0 13463300000.0 160039000000.0 123156000000.0 218804000000.0 119790000000.0 163723000000.0 33818000000.0 39655100000.0 169637000000.0 597666000000.0 64356900000.0 279208000000.0 95455100000.0 66521900000.0 49773400000.0 135336000000.0 77836200000.0 11020700000.0 815829000000.0 247181000000.0 120099000000.0 7035020000.0 48469700000.0 12932600000.0 170938000000.0 323206000000.0 207550000000.0 176374000000.0 112472000000.0 371766000000.0 573770000000.0 75008600000.0 50997300.0 10059600000.0 694248000000.0 448719000000.0 249646000000.0 238808000000.0 135377000000.0 137061000000.0 40282900000.0 64592700000.0 240055000000.0 897070000000.0 726608000000.0 230249000000.0 235901000000.0 251441000000.0 265602000000.0 250134000000.0 188779000000.0 176368000000.0 124281000000.0 360135000000.0 570552000000.0 78731500000.0 50937800000.0 28752200000.0 40644900000.0 33026500000.0 79992100000.0 191199000000.0 334941000000.0 342895000000.0 226548000000.0 168885000000.0 114031000000.0 236006000000.0 245778000000.0 599215000000.0 887867000000.0 315016000000.0 150605000000.0 248012000000.0 216484000000.0 151530000000.0 68829100000.0 54670500000.0 89826300000.0 67583400000.0 315833000000.0 293414000000.0 225847000000.0 236693000000.0 423773000000.0 544264000000.0 432133000000.0 148919000000.0 91591100000.0 165183000000.0 218693000000.0 175582000000.0 380885000000.0 591355000000.0 87257400000.0 70212700000.0 88661800000.0 85152600000.0 100859000000.0 76709600000.0 24979400000.0 183905000000.0 220722000000.0 292357000000.0 277073000000.0 271290000000.0 268717000000.0 250977000000.0 296704000000.0 336467000000.0 470059000000.0 273988000000.0 40046900000.0 67597900000.0 87259000000.0 167592000000.0 144726000000.0 176297000000.0 125473000000.0 129674000000.0 433077000000.0 626140000000.0 98944800000.0 105605000000.0 68188200000.0 112661000000.0 236170000000.0 270647000000.0 281300000000.0 323897000000.0 383711000000.0 342248000000.0 357857000000.0 191404000000.0 103485000000.0 30781700000.0 90293400000.0 102162000000.0 69176700000.0 113797000000.0 112260000000.0 100204000000.0 6410080000.0 161765000000.0 244502000000.0 270555000000.0 288722000000.0 303117000000.0 240181000000.0 84619500000.0 35334700000.0 23490800000.0 40641800000.0 30425600000.0 65254900000.0 16584600000.0 46304100000.0 15798000000.0 509385000000.0 665042000000.0 138507000000.0 123661000000.0 127812000000.0 114972000000.0 98021900000.0 62719700000.0 3772250000.0 75248200000.0 124466000000.0 192358000000.0 212070000000.0 249564000000.0 248866000000.0 267758000000.0 249454000000.0 270256000000.0 219030000000.0 236626000000.0 131537000000.0 41449000000.0 15671300000.0 9038970000.0 46449900000.0 600241000000.0 703273000000.0 142685000000.0 119746000000.0 60433200000.0 53083200000.0 159967000000.0 222652000000.0 236344000000.0 207258000000.0 143298000000.0 148775000000.0 71195200000.0 66056100000.0 46167300000.0 27119000000.0 17405700000.0 71477700000.0 112773000000.0 740186000000.0 159366000000.0 157249000000.0 138140000000.0 122286000000.0 96578800000.0 60398400000.0 10985600000.0 37993400000.0 99442800000.0 136247000000.0 184761000000.0 199598000000.0 222475000000.0 208838000000.0 205775000000.0 140604000000.0 59879100000.0 34262400000.0 33056600000.0 425466000.0 63176400000.0 80145400000.0 160205000000.0 143813000000.0 211801000000.0 696467000000.0 177702000000.0 145113000000.0 95791900000.0 17379100000.0 81433500000.0 164612000000.0 204245000000.0 179688000000.0 153506000000.0 77645100000.0 54666300000.0 41962700000.0 8621800000.0 43026300000.0 18037600000.0 153859000000.0 239365000000.0 789434000000.0 777436000000.0 196381000000.0 169445000000.0 149998000000.0 123153000000.0 94927400000.0 61790900000.0 24020900000.0 26058200000.0 119099000000.0 185382000000.0 198744000000.0 134229000000.0 25546100000.0 133812000000.0 30062200000.0 18301900000.0 34089000000.0 51943000000.0 118309000000.0 234000000000.0 247937000000.0 322719000000.0 302322000000.0 869829000000.0 818074000000.0 181789000000.0 121992000000.0 64127000000.0 14983400000.0 67352700000.0 106628000000.0 151772000000.0 180768000000.0 199677000000.0 209446000000.0 184214000000.0 163325000000.0 72234700000.0 6719690000.0 166973000000.0 174937000000.0 9020310000.0 194942000000.0 322994000000.0 369711000000.0 219314000000.0 153684000000.0 93015900000.0 31890200000.0 54977500000.0 144983000000.0 208008000000.0 217803000000.0 141128000000.0 102847000000.0 370874000000.0 647639000000.0 86061900000.0 129586000000.0 304211000000.0 354437000000.0 374321000000.0 397516000000.0 927989000000.0 9035750000.0 866310000000.0 251915000000.0 197427000000.0 156934000000.0 117460000000.0 88765300000.0 67359200000.0 42310000000.0 2921350000.0 42621800000.0 97093400000.0 142814000000.0 184007000000.0 225433000000.0 235997000000.0 229485000000.0 127542000000.0 217314000000.0 794828000000.0 119941000000.0 182185000000.0 264790000000.0 308352000000.0 370655000000.0 958341000000.0 927304000000.0 220924000000.0 106586000000.0 72126600000.0 11981300000.0 89554600000.0 193440000000.0 270565000000.0 267701000000.0 306519000000.0 251801000000.0 295996000000.0 142933000000.0 232870000000.0 331505000000.0 38235200000.0 439033000000.0 216584000000.0 304109000000.0 308815000000.0 379509000000.0 963136000000.0 1.00606e+12 301135000000.0 259088000000.0 160747000000.0 83508300000.0 80880600000.0 81845200000.0 57850200000.0 32147700000.0 29197300000.0 85571400000.0 145553000000.0 249201000000.0 319623000000.0 356368000000.0 377435000000.0 438656000000.0 690328000000.0 51711700000.0 57037000000.0 179091000000.0 181727000000.0 326005000000.0 9035750000.0 375715000000.0 168251000000.0 70192900000.0 83751000000.0 16329100000.0 158889000000.0 210739000000.0 280703000000.0 307726000000.0 363821000000.0 371685000000.0 424853000000.0 420281000000.0 489337000000.0 306642000000.0 281668000000.0 1.14489e+12 947819000000.0 33664900000.0 210165000000.0 260470000000.0 952610000000.0 1.10607e+12 485383000000.0 324415000000.0 191739000000.0 36983800000.0 67038000000.0 106337000000.0 128622000000.0 58320300000.0 94300000000.0 244188000000.0 344820000000.0 412775000000.0 468307000000.0 485243000000.0 455149000000.0 417505000000.0 195942000000.0 500533000000.0 490646000000.0 228723000000.0 36645400000.0 106678000000.0 944640000000.0 1.22516e+12 435184000000.0 54065000000.0 172102000000.0 84075200000.0 14781300000.0 151454000000.0 200824000000.0 298363000000.0 321796000000.0 395517000000.0 446392000000.0 457034000000.0 308892000000.0 184496000000.0 318261000000.0 537010000000.0 341510000000.0 70013300000.0 213182000000.0 957654000000.0 9035750000.0 1.29721e+12 624405000000.0 642718000000.0 276333000000.0 209448000000.0 123763000000.0 380275000000.0 210443000000.0 97190800000.0 275887000000.0 371386000000.0 380519000000.0 414564000000.0 426079000000.0 424924000000.0 442750000000.0 389729000000.0 371307000000.0 274506000000.0 183519000000.0 192047000000.0 312004000000.0 173697000000.0 64177500000.0 24676700000.0 215382000000.0 587833000000.0 672119000000.0 579968000000.0 3967470000.0 43147600000.0 245876000000.0 256098000000.0 367281000000.0 367678000000.0 416137000000.0 416812000000.0 384988000000.0 317761000000.0 225012000000.0 224979000000.0 162189000000.0 187138000000.0 79248200000.0 34666100000.0 308066000000.0 982116000000.0 1.26506e+12 257362000000.0 532152000000.0 576704000000.0 536186000000.0 202717000000.0 48362700000.0 259272000000.0 372769000000.0 442263000000.0 428285000000.0 459192000000.0 428610000000.0 404010000000.0 381806000000.0 321357000000.0 291687000000.0 288903000000.0 206146000000.0 144987000000.0 53234300000.0 18975500000.0 38109200000.0 157989000000.0 1.00659e+12 1.18888e+12 91053200000.0 1.44989e+12 407120000000.0 313804000000.0 436233000000.0 392231000000.0 457292000000.0 488712000000.0 460982000000.0 338933000000.0 314288000000.0 232381000000.0 274032000000.0 331767000000.0 217191000000.0 20864000000.0 110085000000.0 33793700000.0 556010000000.0 1.10975e+12 1.28678e+12 268385000000.0 581337000000.0 966234000000.0 1.10407e+12 787660000000.0 500030000000.0 510379000000.0 478064000000.0 537152000000.0 513082000000.0 546391000000.0 511366000000.0 435671000000.0 229421000000.0 174534000000.0 369042000000.0 212834000000.0 84401400000.0 30066300000.0 235916000000.0 371647000000.0 576224000000.0 904280000000.0 863371000000.0 573355000000.0 366881000000.0 87800500000.0 451112000000.0 645890000000.0 603061000000.0 551365000000.0 567539000000.0 573763000000.0 563677000000.0 515763000000.0 511832000000.0 388898000000.0 327635000000.0 60420700000.0 200375000000.0 338830000000.0 378185000000.0 114046000000.0 169441000000.0 104334000000.0 176866000000.0 406187000000.0 736301000000.0 485399000000.0 1.59859e+12 553380000000.0 467466000000.0 910641000000.0 522928000000.0 641263000000.0 605222000000.0 642033000000.0 603915000000.0 592599000000.0 574926000000.0 514234000000.0 251573000000.0 282435000000.0 206767000000.0 343888000000.0 252577000000.0 345254000000.0 1.03499e+12 507564000000.0 1.67216e+12 1.28625e+12 215894000000.0 287784000.0 352138000000.0 727105000000.0 519081000000.0 613717000000.0 617076000000.0 683140000000.0 655413000000.0 619438000000.0 619238000000.0 601919000000.0 614562000000.0 594347000000.0 637623000000.0 540276000000.0 593091000000.0 119012000000.0 343532000000.0 82914700000.0 390338000000.0 520223000000.0 694713000000.0 334492000000.0 619454000000.0 555973000000.0 1.37668e+12 1.19013e+12 262412000000.0 67700400000.0 1.1994e+12 875987000000.0 102285000000.0 155075000000.0 68136500000.0 642992000000.0 730478000000.0 701751000000.0 743423000000.0 700910000000.0 646272000000.0 614042000000.0 645604000000.0 711857000000.0 752563000000.0 1.02647e+12 1.5491e+12 659441000000.0 838501000000.0 882244000000.0 759865000000.0 5704190000.0 204223000000.0 139824000000.0 301004000000.0 872244000000.0 559593000000.0 1.24088e+12 94202300000.0 139406000000.0 601628000000.0 729503000000.0 763053000000.0 793086000000.0 743287000000.0 689570000000.0 656251000000.0 622610000000.0 593624000000.0 616731000000.0 707319000000.0 794549000000.0 532929000000.0 511691000000.0 1.21328e+12 1.0817e+12 990718000000.0 1.0776e+12 989188000000.0 807260000000.0 289438000000.0 2.09149e+12 555718000000.0 271447000000.0 223709000000.0 443418000000.0 384260000000.0 419804000000.0 308104000000.0 717427000000.0 1.09185e+12 278666000000.0 157515000000.0 625875000000.0 875952000000.0 853893000000.0 869257000000.0 802310000000.0 713679000000.0 606285000000.0 569796000000.0 641914000000.0 701565000000.0 798292000000.0 693678000000.0 630695000000.0 319416000000.0 970299000000.0 1.01019e+12 1.08172e+12 1.0996e+12 947393000000.0 99551400000.0 1.39719e+12 22186500000.0 218678000000.0 392577000000.0 356033000000.0 408850000000.0 460129000000.0 289067000000.0 484297000000.0 42089800000.0 452422000000.0 814263000000.0 8570330000.0 369285000000.0 839883000000.0 906123000000.0 858425000000.0 783598000000.0 738254000000.0 661267000000.0 544748000000.0 561139000000.0 741684000000.0 362152000000.0 179459000000.0 422338000000.0 785205000000.0 917784000000.0 1.04093e+12 1.0538e+12 1.00401e+12 538502000000.0 369548000000.0 771486000000.0 68473000000.0 142032000000.0 199116000000.0 52717200000.0 424146000000.0 511448000000.0 417024000000.0 77038000000.0 214482000000.0 436952000000.0 70418500000.0 413637000000.0 1.27666e+12 700528000000.0 282145000000.0 199769000000.0 645275000000.0 778838000000.0 809063000000.0 890846000000.0 915780000000.0 825355000000.0 673098000000.0 591067000000.0 509943000000.0 473189000000.0 371829000000.0 561183000000.0 563029000000.0 436947000000.0 7175240000.0 457861000000.0 765360000000.0 977160000000.0 965966000000.0 700943000000.0 723715000000.0 668230000000.0 590368000000.0 31614300000.0 142473000000.0 200372000000.0 137856000000.0 220367000000.0 662702000000.0 180285000000.0 445214000000.0 7321640000.0 285379000000.0 628854000000.0 836458000000.0 144021000000.0 1.7099e+12 968688000000.0 33742900000.0 675947000000.0 631431000000.0 857206000000.0 925283000000.0 963417000000.0 901888000000.0 758329000000.0 602429000000.0 410825000000.0 223440000000.0 287683000000.0 82160600000.0 259098000000.0 588427000000.0 892292000000.0 914885000000.0 937205000000.0 724216000000.0 503252000000.0 403579000000.0 721612000000.0 90722800000.0 921148000000.0 311937000000.0 557596000000.0 61671100000.0 248168000000.0 79163100000.0 509958000000.0 507145000000.0 24241100000.0 325650000000.0 50238000000.0 199135000000.0 310059000000.0 74888000000.0 180503000000.0 149683000000.0 1.04511e+12 414776000000.0 1.14946e+12 1.07053e+12 465712000000.0 190728000000.0 348497000000.0 262653000000.0 659411000000.0 958042000000.0 917209000000.0 848650000000.0 758300000000.0 691727000000.0 642853000000.0 538346000000.0 483610000000.0 276167000000.0 394290000000.0 206580000000.0 505924000000.0 804887000000.0 908758000000.0 783295000000.0 459110000000.0 222861000000.0 212851000000.0 231838000000.0 430097000000.0 542814000000.0 657027000000.0 196356000000.0 189735000000.0 11721700000.0 289397000000.0 19007200000.0 93990400000.0 81147500000.0 204903000000.0 23433900000.0 726436000000.0 521104000000.0 439599000000.0 480428000000.0 475873000000.0 1.28833e+12 581265000000.0 637536000000.0 859289000000.0 954381000000.0 993349000000.0 844126000000.0 708215000000.0 629388000000.0 409465000000.0 33005600000.0 1.04471e+12 307964000000.0 477044000000.0 586687000000.0 642774000000.0 676884000000.0 819420000000.0 909784000000.0 759730000000.0 507123000000.0 127021000000.0 83597400000.0 145733000000.0 37594300000.0 287230000000.0 91778400000.0 13939200000.0 872100000000.0 155137000000.0 855721000000.0 195240000000.0 672970000000.0 229342000000.0 464832000000.0 172514000000.0 182310000000.0 505484000000.0 243815000000.0 69077200000.0 383824000000.0 496589000000.0 546646000000.0 147658000000.0 578350000000.0 207482000000.0 227848000000.0 119670000000.0 932409000000.0 295546000000.0 141302000000.0 352233000000.0 777562000000.0 1.03776e+12 889209000000.0 810159000000.0 714080000000.0 718941000000.0 697845000000.0 651107000000.0 1.07445e+12 309331000000.0 722812000000.0 610163000000.0 962585000000.0 959925000000.0 477662000000.0 210664000000.0 336430000000.0 906055000000.0 1.25491e+12 791785000000.0 447287000000.0 203598000000.0 29479600000.0 944283000000.0 105492000000.0 658071000000.0 129078000000.0 142652000000.0 793018000000.0 1.25947e+12 183750000000.0 61698900000.0 385626000000.0 101363000000.0 228858000000.0 171414000000.0 79607100000.0 405097000000.0 641949000000.0 75943800000.0 285827000000.0 138269000000.0 218948000000.0 133547000000.0 242444000000.0 471364000000.0 926410000000.0 778751000000.0 600293000000.0 752149000000.0 741940000000.0 908303000000.0 948026000000.0 881625000000.0 462645000000.0 99280200000.0 439313000000.0 444435000000.0 431176000000.0 835481000000.0 1.14132e+12 697291000000.0 446161000000.0 8244380000.0 271066000000.0 58975100000.0 587794000000.0 463156000000.0 135189000000.0 278114000000.0 261836000000.0 446145000000.0 461040000000.0 157395000000.0 95619900000.0 66571400000.0 335023000000.0 579442000000.0 255477000000.0 70803900000.0 203400000000.0 160778000000.0 194948000000.0 407124000000.0 40303800000.0 284261000000.0 182753000000.0 28921600000.0 966527000000.0 1.02947e+12 580548000000.0 108230000000.0 268915000000.0 87277400000.0 103345000000.0 214671000000.0 600044000000.0 810841000000.0 1.16184e+12 463032000000.0 789115000000.0 770614000000.0 849433000000.0 956659000000.0 654456000000.0 53103600000.0 767392000000.0 142161000000.0 29186900000.0 1.06293e+12 872104000000.0 575238000000.0 258337000000.0 68695400000.0 241236000000.0 539585000000.0 493569000000.0 366335000000.0 179059000000.0 417525000000.0 405753000000.0 327058000000.0 296816000000.0 91951900000.0 998125000000.0 284372000000.0 451494000000.0 281509000000.0 71503800000.0 36398000000.0 116667000000.0 144238000000.0 738755000000.0 516365000000.0 253734000000.0 324942000000.0 901676000000.0 481511000000.0 294899000000.0 569152000000.0 465262000000.0 104200000000.0 157456000000.0 122249000000.0 284834000000.0 284567000000.0 272825000000.0 1.39172e+12 1.06043e+12 427360000000.0 1.11155e+12 798419000000.0 634455000000.0 884739000000.0 1.02136e+12 957294000000.0 879454000000.0 540192000000.0 457003000000.0 1.5908e+12 521369000000.0 903199000000.0 617001000000.0 367094000000.0 181761000000.0 86980800000.0 446341000000.0 683368000000.0 462488000000.0 47778900000.0 282809000000.0 138038000000.0 75492900000.0 160543000000.0 357410000000.0 100771000000.0 456907000000.0 426512000000.0 403881000000.0 1.4099e+12 263955000000.0 288795000000.0 95013900000.0 1135000000.0 31583100000.0 44773900000.0 4107070000.0 266894000000.0 491890000000.0 47962300000.0 452177000000.0 238832000000.0 27393500000.0 107499000000.0 34340100000.0 141342000000.0 682154000000.0 1.3634e+12 1.41146e+12 911671000000.0 132089000000.0 57523300000.0 556470000000.0 758699000000.0 705985000000.0 121024000000.0 948615000000.0 1.0161e+12 784307000000.0 103053000000.0 190109000000.0 1.43841e+12 204831000000.0 1.66165e+12 391024000000.0 395382000000.0 269786000000.0 180687000000.0 156720000000.0 197588000000.0 1.16756e+12 883277000000.0 93205000000.0 203256000000.0 181969000000.0 231517000000.0 317115000000.0 320561000000.0 289396000000.0 147438000000.0 1025970000.0 545765000000.0 954052000000.0 345025000000.0 132242000000.0 351423000000.0 341726000000.0 309089000000.0 292380000000.0 141301000000.0 204122000000.0 125917000000.0 120164000000.0 220189000000.0 134977000000.0 245438000000.0 545847000000.0 103275000000.0 185257000000.0 22118300000.0 313586000000.0 72678800000.0 326590000000.0 167867000000.0 3861440000.0 215495000000.0 322877000000.0 302540000000.0 89353500000.0 8699660000.0 205011000000.0 134477000000.0 1.33098e+12 414234000000.0 483475000000.0 248965000000.0 788406000000.0 927975000000.0 975431000000.0 841599000000.0 500348000000.0 535126000000.0 457037000000.0 263251000000.0 1.01157e+12 171518000000.0 114078000000.0 79302600000.0 22825600000.0 63340300000.0 158227000000.0 809979000000.0 195581000000.0 213279000000.0 261392000000.0 429818000000.0 496267000000.0 325424000000.0 666097000000.0 498032000000.0 130216000000.0 608909000000.0 92053400000.0 168448000000.0 402845000000.0 347681000000.0 160671000000.0 175654000000.0 254094000000.0 220290000000.0 250190000000.0 332045000000.0 528040000000.0 568293000000.0 143562000000.0 257140000000.0 327781000000.0 196652000000.0 180939000000.0 717641000000.0 41985400000.0 104994000000.0 38824800000.0 247557000000.0 427605000000.0 158736000000.0 95605600000.0 508178000000.0 970019000000.0 457910000000.0 132633000000.0 1.35701e+12 174293000000.0 792717000000.0 518389000000.0 547102000000.0 1.04369e+12 1.08519e+12 837972000000.0 790752000000.0 636202000000.0 528125000000.0 1.67679e+12 1.21748e+12 802694000000.0 663410000000.0 297640000000.0 71699800000.0 353793000000.0 455640000000.0 162709000000.0 18306200000.0 161500000000.0 353697000000.0 583921000000.0 957636000000.0 1.18232e+12 222444000000.0 12002900000.0 57291800000.0 64988000000.0 346189000000.0 214845000000.0 192549000000.0 249943000000.0 717925000000.0 288489000000.0 291449000000.0 266227000000.0 399246000000.0 115262000000.0 267812000000.0 255955000000.0 256796000000.0 351886000000.0 487007000000.0 578506000000.0 711322000000.0 402721000000.0 259490000000.0 296776000000.0 44373100000.0 605712000000.0 1.31747e+12 673569000000.0 503996000000.0 517088000000.0 424440000000.0 141769000000.0 137335000000.0 462341000000.0 389065000000.0 622882000000.0 110813000000.0 585180000000.0 954176000000.0 862144000000.0 1.00701e+12 818571000000.0 691079000000.0 975259000000.0 633586000000.0 422362000000.0 144432000000.0 102792000000.0 316043000000.0 67650600000.0 268111000000.0 459051000000.0 164517000000.0 34028900000.0 44014400000.0 14215600000.0 259970000000.0 717718000000.0 438099000000.0 52920400000.0 48897200000.0 262282000000.0 295528000000.0 484751000000.0 539542000000.0 79441200000.0 287231000000.0 284583000000.0 45645500000.0 276070000000.0 243315000000.0 227438000000.0 268447000000.0 239560000000.0 204610000000.0 293698000000.0 381577000000.0 454642000000.0 549840000000.0 922014000000.0 690295000000.0 801995000000.0 342773000000.0 218181000000.0 38448500000.0 686335000000.0 54025400000.0 334798000000.0 380513000000.0 401451000000.0 292806000000.0 11304700000.0 303868000000.0 539460000000.0 572277000000.0 315118000000.0 573494000000.0 571846000000.0 139807000000.0 393828000000.0 622815000000.0 1.09377e+12 919750000000.0 634260000000.0 236899000000.0 1.02771e+12 799098000000.0 593162000000.0 354765000000.0 143080000000.0 72701000000.0 250837000000.0 198132000000.0 13297000000.0 181932000000.0 228120000000.0 57294300000.0 25685200000.0 6292850000.0 99801800000.0 254729000000.0 58654400000.0 177533000000.0 179498000000.0 45671600000.0 137161000000.0 183292000000.0 432288000000.0 821321000000.0 339375000000.0 20711300000.0 130099000000.0 247295000000.0 125568000000.0 142664000000.0 688922000000.0 697319000000.0 193471000000.0 184700000000.0 155752000000.0 186109000000.0 175912000000.0 147515000000.0 679944000000.0 1.04904e+12 778357000000.0 234390000000.0 9924290000.0 632254000000.0 181792000000.0 180731000000.0 195552000000.0 287567000000.0 296828000000.0 180412000000.0 68868500000.0 312368000000.0 401428000000.0 457531000000.0 775407000000.0 869652000000.0 1.1424e+12 438380000000.0 745076000000.0 106815000000.0 117391000000.0 519384000000.0 407785000000.0 262047000000.0 78389100000.0 266750000000.0 289911000000.0 178500000000.0 18622500000.0 48261200000.0 2712570000.0 98114200000.0 86577000000.0 14135100000.0 72036900000.0 108170000000.0 80801300000.0 54958100000.0 76395500000.0 5821300000.0 21288900000.0 50388800000.0 183501000000.0 102888000000.0 191831000000.0 80148600000.0 46497400000.0 40885600000.0 206116000000.0 206578000000.0 163595000000.0 121345000000.0 136342000000.0 121503000000.0 5437530000.0 699225000000.0 391367000000.0 111156000000.0 83300600000.0 66367800000.0 63247000000.0 119074000000.0 91964500000.0 90665800000.0 87464000000.0 22369200000.0 301437000000.0 225683000000.0 617109000000.0 75378000000.0 15689400000.0 306125000000.0 620581000000.0 29829100000.0 299229000000.0 270814000000.0 134017000000.0 83212000000.0 262650000000.0 387219000000.0 501144000000.0 468816000000.0 545588000000.0 267794000000.0 752216000000.0 385028000000.0 1.14788e+12 1.00457e+12 104349000000.0 146697000000.0 16700400000.0 189816000000.0 129885000000.0 73414000000.0 122329000000.0 316161000000.0 426523000000.0 357125000000.0 221880000000.0 161700000000.0 184413000000.0 252491000000.0 233706000000.0 150293000000.0 73916200000.0 151159000000.0 167242000000.0 111666000000.0 29589000000.0 120517000000.0 46498300000.0 28834000000.0 53652000000.0 213686000000.0 229190000000.0 217964000000.0 321469000000.0 269560000000.0 116422000000.0 92791500000.0 179381000000.0 72151800000.0 172345000000.0 88504700000.0 867038000000.0 443124000000.0 11237200000.0 2350200000.0 55681300000.0 91925700000.0 178312000000.0 104603000000.0 185701000000.0 610756000000.0 589966000000.0 649968000000.0 600710000000.0 68564300000.0 40916100000.0 231775000000.0 276194000000.0 114186000000.0 78049200000.0 250657000000.0 380401000000.0 427998000000.0 449112000000.0 260294000000.0 229939000000.0 706240000000.0 441117000000.0 1.32886e+12 616045000000.0 784683000.0 336042000000.0 242732000000.0 93149600000.0 8521200000.0 153269000000.0 317924000000.0 460803000000.0 566326000000.0 544309000000.0 456032000000.0 412384000000.0 513274000000.0 231079000000.0 236837000000.0 218976000000.0 190889000000.0 174742000000.0 177135000000.0 100271000000.0 65323800000.0 313807000000.0 255693000000.0 388523000000.0 361271000000.0 393637000000.0 328071000000.0 379015000000.0 77679100000.0 68681600000.0 297541000000.0 244821000000.0 219761000000.0 8344530000.0 306451000000.0 125129000000.0 252132000000.0 256515000000.0 148733000000.0 10365100000.0 80507200000.0 204714000000.0 325536000000.0 644666000000.0 751809000000.0 377648000000.0 86207900000.0 84194800000.0 724784000000.0 155753000000.0 1.60375e+12 882268000000.0 563081000000.0 471413000000.0 388089000000.0 81583800000.0 93412000000.0 247193000000.0 343221000000.0 398355000000.0 357845000000.0 349349000000.0 126551000000.0 450061000000.0 487661000000.0 207276000000.0 1.18109e+12 491634000000.0 52464200000.0 51008700000.0 9594340000.0 34094700000.0 130897000000.0 257669000000.0 395219000000.0 584993000000.0 902216000000.0 1.30852e+12 461241000000.0 336040000000.0 233537000000.0 301331000000.0 320668000000.0 409565000000.0 292710000000.0 220658000000.0 187953000000.0 208789000000.0 427066000000.0 415974000000.0 495976000000.0 459335000000.0 529400000000.0 456445000000.0 416284000000.0 52528100000.0 38832700000.0 19442600000.0 43745400000.0 335178000000.0 311480000000.0 325020000000.0 180879000000.0 321253000000.0 313500000000.0 73644900000.0 194899000000.0 143671000000.0 65985500000.0 33129200000.0 191221000000.0 385420000000.0 647511000000.0 796782000000.0 739705000000.0 489686000000.0 240514000000.0 313419000000.0 214471000000.0 371816000000.0 1.13463e+12 776778000000.0 568715000000.0 471263000000.0 368910000000.0 240868000000.0 237464000000.0 325094000000.0 352104000000.0 361202000000.0 294505000000.0 394508000000.0 351424000000.0 716620000000.0 1.07809e+12 663918000000.0 900829000000.0 473117000000.0 175115000000.0 43538000000.0 39928200000.0 96049100000.0 168914000000.0 221519000000.0 218988000000.0 135782000000.0 139076000000.0 1.72916e+12 1.67087e+12 1.0993e+12 699487000000.0 486839000000.0 374058000000.0 319911000000.0 400902000000.0 694716000000.0 505850000000.0 326652000000.0 287436000000.0 335259000000.0 565849000000.0 535793000000.0 626215000000.0 595351000000.0 582270000000.0 514257000000.0 549263000000.0 425476000000.0 37000500000.0 6388710000.0 363302000000.0 401862000000.0 363198000000.0 408426000000.0 410436000000.0 529740000000.0 482537000000.0 485839000000.0 68671800000.0 4937910000.0 101557000000.0 21918500000.0 146209000000.0 398326000000.0 636892000000.0 800263000000.0 839685000000.0 763238000000.0 567709000000.0 371594000000.0 257834000000.0 381318000000.0 599593000000.0 926485000000.0 734997000000.0 571600000000.0 457984000000.0 340428000000.0 204145000000.0 49498000000.0 107860000000.0 324983000000.0 348666000000.0 329690000000.0 424437000000.0 738008000000.0 957073000000.0 771092000000.0 712030000000.0 44477900000.0 7822730000.0 43619300000.0 88306900000.0 119884000000.0 121084000000.0 71856800000.0 395456000000.0 383613000000.0 165620000000.0 126474000000.0 417912000000.0 522060000000.0 512515000000.0 416397000000.0 356928000000.0 1.10896e+12 758228000000.0 485431000000.0 327457000000.0 334144000000.0 435623000000.0 559202000000.0 724027000000.0 672208000000.0 728729000000.0 652878000000.0 695607000000.0 651999000000.0 547191000000.0 418945000000.0 381166000000.0 35568800000.0 32526800000.0 383773000000.0 422743000000.0 445348000000.0 510999000000.0 481351000000.0 587553000000.0 645468000000.0 694011000000.0 369888000000.0 352468000000.0 10789100000.0 120278000000.0 379964000000.0 614073000000.0 786284000000.0 872055000000.0 869790000000.0 768125000000.0 584898000000.0 399717000000.0 392568000000.0 508830000000.0 663521000000.0 799541000000.0 680093000000.0 544134000000.0 424827000000.0 300672000000.0 164782000000.0 20599300000.0 116550000000.0 229331000000.0 299948000000.0 337367000000.0 437318000000.0 226942000000.0 98187300000.0 19439300000.0 35665100000.0 56310700000.0 48134200000.0 215951000000.0 219528000000.0 57848700000.0 179797000000.0 416146000000.0 574817000000.0 604088000000.0 451583000000.0 349672000000.0 1.12207e+12 681271000000.0 418036000000.0 468494000000.0 695861000000.0 806616000000.0 738863000000.0 857318000000.0 768749000000.0 789910000000.0 681890000000.0 661217000000.0 510760000000.0 347982000000.0 37424500000.0 43270500000.0 57612400000.0 415510000000.0 400292000000.0 438357000000.0 460123000000.0 512728000000.0 594330000000.0 706642000000.0 715878000000.0 860361000000.0 685471000000.0 704553000000.0 145350000000.0 128561000000.0 357797000000.0 609735000000.0 784480000000.0 878876000000.0 907414000000.0 866283000000.0 751084000000.0 588718000000.0 486286000000.0 496682000000.0 576528000000.0 667446000000.0 711685000000.0 618381000000.0 497844000000.0 381014000000.0 260025000000.0 131085000000.0 390255000.0 121583000000.0 216851000000.0 281261000000.0 307721000000.0 325226000000.0 316380000000.0 352849000000.0 522814000000.0 757461000000.0 847685000000.0 723747000000.0 595699000000.0 397117000000.0 232965000000.0 116203000000.0 33285100000.0 71836900000.0 81786800000.0 73780000000.0 48641900000.0 134742000000.0 381296000000.0 460106000000.0 299420000000.0 214684000000.0 326081000000.0 525250000000.0 712432000000.0 812754000000.0 418017000000.0 1.8369e+12 795459000000.0 619334000000.0 374337000000.0 254752000000.0 887129000000.0 911334000000.0 959572000000.0 817099000000.0 831199000000.0 776600000000.0 930253000000.0 814516000000.0 576212000000.0 446753000000.0 314729000000.0 23488100000.0 98433200000.0 78567700000.0 432624000000.0 450385000000.0 474425000000.0 465058000000.0 503991000000.0 574711000000.0 655777000000.0 859953000000.0 988175000000.0 977246000000.0 1.17088e+12 334567000000.0 433364000000.0 387661000000.0 643804000000.0 804179000000.0 887582000000.0 920819000000.0 908258000000.0 841396000000.0 730112000000.0 619128000000.0 555234000000.0 559714000000.0 604848000000.0 644042000000.0 637232000000.0 555726000000.0 450729000000.0 339841000000.0 223267000000.0 102633000000.0 16151700000.0 121669000000.0 204572000000.0 258350000000.0 291291000000.0 303746000000.0 328681000000.0 420107000000.0 582662000000.0 727318000000.0 745714000000.0 639201000000.0 507286000000.0 350285000000.0 212890000000.0 27246700000.0 68959900000.0 100318000000.0 132901000000.0 236991000000.0 411144000000.0 511610000000.0 464723000000.0 349299000000.0 322364000000.0 404122000000.0 517157000000.0 569971000000.0 14515900000.0 1.30631e+12 518250000000.0 165544000000.0 479219000000.0 1.41929e+12 1.24606e+12 711037000000.0 933142000000.0 793481000000.0 936728000000.0 750137000000.0 482852000000.0 372905000000.0 314730000000.0 297489000000.0 14958300000.0 114565000000.0 443285000000.0 478593000000.0 465538000000.0 489501000000.0 498540000000.0 520933000000.0 544201000000.0 579738000000.0 665456000000.0 774305000000.0 912261000000.0 966819000000.0 957248000000.0 1.58576e+12 1.56266e+12 722674000000.0 861386000000.0 901024000000.0 919331000000.0 916720000000.0 300391000000.0 190131000000.0 78887900000.0 26960800000.0 119302000000.0 190828000000.0 241786000000.0 274570000000.0 306116000000.0 366860000000.0 470999000000.0 591856000000.0 665619000000.0 644611000000.0 546729000000.0 425398000000.0 104009000000.0 19733900000.0 46949400000.0 108060000000.0 176076000000.0 287539000000.0 426190000000.0 503431000000.0 502193000000.0 448573000000.0 379986000000.0 362304000000.0 373736000000.0 327256000000.0 17952400000.0 752071000000.0 994452000000.0 775251000000.0 956044000000.0 1.17421e+12 1.17425e+12 916563000000.0 1.00613e+12 836105000000.0 642749000000.0 1.06784e+12 800740000000.0 610949000000.0 472711000000.0 374964000000.0 317302000000.0 326377000000.0 386282000000.0 73331100000.0 128133000000.0 450107000000.0 492243000000.0 505722000000.0 519022000000.0 501404000000.0 515735000000.0 533912000000.0 563548000000.0 781519000000.0 887648000000.0 973980000000.0 719846000000.0 935486000000.0 470700000000.0 1.21151e+12 939975000000.0 851105000000.0 868652000000.0 882414000000.0 813045000000.0 723618000000.0 642822000000.0 597475000000.0 591203000000.0 603180000000.0 607098000000.0 577610000000.0 502342000000.0 405631000000.0 180722000000.0 229567000000.0 271683000000.0 323516000000.0 396938000000.0 486902000000.0 564346000000.0 294586000000.0 174539000000.0 70129200000.0 19554200000.0 102919000000.0 189150000000.0 295823000000.0 414090000000.0 491089000000.0 503317000000.0 476735000000.0 506238000000.0 1.09181e+12 1.13716e+12 1.18173e+12 874513000000.0 759135000000.0 1.15229e+12 852871000000.0 385875000000.0 1.25649e+12 758791000000.0 1.23007e+12 1.02915e+12 808907000000.0 607424000000.0 328870000000.0 298624000000.0 371043000000.0 394846000000.0 496972000000.0 128728000000.0 163914000000.0 132727000000.0 442035000000.0 450848000000.0 496547000000.0 520661000000.0 545804000000.0 526898000000.0 521070000000.0 508302000000.0 495956000000.0 627512000000.0 731653000000.0 917019000000.0 599763000000.0 743335000000.0 955768000000.0 889591000000.0 885573000000.0 849885000000.0 787093000000.0 714547000000.0 652770000000.0 614570000000.0 596883000000.0 587890000000.0 570726000000.0 527320000000.0 453672000000.0 362985000000.0 263974000000.0 161244000000.0 59701000000.0 34851900000.0 116099000000.0 590258000000.0 547545000000.0 455258000000.0 344706000000.0 229408000000.0 119383000000.0 17002600000.0 81136700000.0 180533000000.0 286853000000.0 388065000000.0 434381000000.0 386321000000.0 352776000000.0 303679000000.0 174930000000.0 434294000000.0 750253000000.0 829807000000.0 487095000000.0 474642000000.0 775145000000.0 191828000000.0 388939000000.0 262572000000.0 408117000000.0 1.36382e+12 632603000000.0 74735300000.0 1.65375e+12 1.12933e+12 439166000000.0 384334000000.0 285064000000.0 576767000000.0 528301000000.0 797699000000.0 574296000000.0 127806000000.0 114003000000.0 128147000000.0 416291000000.0 493462000000.0 539806000000.0 536380000000.0 565544000000.0 550895000000.0 550609000000.0 486838000000.0 417378000000.0 499688000000.0 531672000000.0 884681000000.0 1.06423e+12 297531000000.0 366306000000.0 87322400000.0 553002000000.0 217390000000.0 590873000000.0 762859000000.0 831464000000.0 841749000000.0 814218000000.0 762176000000.0 701666000000.0 649069000000.0 612710000000.0 588601000000.0 565721000000.0 533409000000.0 481875000000.0 409343000000.0 323640000000.0 231022000000.0 136133000000.0 43792600000.0 41004200000.0 114309000000.0 174684000000.0 226045000000.0 277643000000.0 337894000000.0 407490000000.0 474343000000.0 515236000000.0 509416000000.0 454914000000.0 367251000000.0 264723000000.0 157299000000.0 51474400000.0 51714600000.0 154554000000.0 459870000000.0 490345000000.0 482177000000.0 452594000000.0 416099000000.0 372164000000.0 323303000000.0 265079000000.0 398738000000.0 609579000000.0 734683000000.0 725347000000.0 527728000000.0 740963000000.0 344647000000.0 987368000000.0 712727000000.0 832315000000.0 553577000000.0 381178000000.0 421606000000.0 948944000000.0 495981000000.0 466792000000.0 306663000000.0 286140000000.0 317197000000.0 491907000000.0 1.04284e+12 514497000000.0 438515000000.0 86599600000.0 89295200000.0 380707000000.0 470307000000.0 533804000000.0 579571000000.0 612949000000.0 587080000000.0 598186000000.0 533049000000.0 478772000000.0 318968000000.0 311729000000.0 667161000000.0 947296000000.0 1.51134e+12 200308000000.0 492039000000.0 1.28884e+12 62252100000.0 168684000000.0 488587000000.0 680844000000.0 783745000000.0 824207000000.0 817881000000.0 781898000000.0 732577000000.0 681407000000.0 636371000000.0 600427000000.0 570010000000.0 537663000000.0 496050000000.0 439877000000.0 368746000000.0 287568000000.0 201142000000.0 113828000000.0 29862700000.0 47025400000.0 114528000000.0 173338000000.0 227693000000.0 282961000000.0 341511000000.0 398705000000.0 441387000000.0 453968000000.0 427979000000.0 366634000000.0 281347000000.0 184038000000.0 81947400000.0 259085000000.0 355717000000.0 425669000000.0 461856000000.0 470706000000.0 457689000000.0 430315000000.0 395290000000.0 354183000000.0 319056000000.0 379147000000.0 498714000000.0 594731000000.0 627956000000.0 609410000000.0 779065000000.0 302770000000.0 802757000000.0 205159000000.0 408526000000.0 538249000000.0 632209000000.0 358577000000.0 329277000000.0 347951000000.0 273977000000.0 1.11006e+12 1.19183e+12 413375000000.0 525712000000.0 348500000000.0 343684000000.0 268485000000.0 41384900000.0 68349000000.0 335646000000.0 358266000000.0 410364000000.0 491619000000.0 583224000000.0 614997000000.0 634270000000.0 600407000000.0 599254000000.0 322875000000.0 137781000000.0 410175000000.0 570897000000.0 1.09794e+12 202329000000.0 1.2208e+12 3925290000.0 464965000000.0 530595000000.0 644996000000.0 734544000000.0 780776000000.0 792191000000.0 778504000000.0 746402000000.0 703264000000.0 658005000000.0 616303000000.0 579457000000.0 544499000000.0 505975000000.0 458913000000.0 400487000000.0 331138000000.0 254303000000.0 173831000000.0 93524200000.0 16802100000.0 53711500000.0 117083000000.0 174632000000.0 229055000000.0 282311000000.0 332870000000.0 373835000000.0 394912000000.0 387160000000.0 347753000000.0 21192700000.0 123788000000.0 223886000000.0 315186000000.0 386794000000.0 430977000000.0 449543000000.0 449732000000.0 436281000000.0 412176000000.0 382387000000.0 357264000000.0 379753000000.0 440461000000.0 493906000000.0 510039000000.0 493526000000.0 518878000000.0 279718000000.0 548025000000.0 400683000000.0 367140000000.0 335450000000.0 732106000000.0 936090000000.0 723873000000.0 467083000000.0 443236000000.0 744178000000.0 253873000000.0 135465000000.0 225375000000.0 313872000000.0 255763000000.0 197263000000.0 2349600000.0 27432000000.0 45085400000.0 217822000000.0 275462000000.0 304486000000.0 378764000000.0 515437000000.0 568032000000.0 610989000000.0 649449000000.0 679216000000.0 657757000000.0 693091000000.0 540965000000.0 311201000000.0 196586000000.0 433146000000.0 800472000000.0 942321000000.0 994830000000.0 37330200000.0 519032000000.0 587888000000.0 659003000000.0 718866000000.0 752629000000.0 757112000000.0 738070000000.0 706873000000.0 669773000000.0 630173000000.0 591041000000.0 553230000000.0 514820000000.0 472177000000.0 422051000000.0 363042000000.0 295969000000.0 223457000000.0 148650000000.0 74676700000.0 4217210000.0 61049200000.0 120782000000.0 175758000000.0 226946000000.0 281801000000.0 198402000000.0 105413000000.0 7830190000.0 90988000000.0 187393000000.0 274628000000.0 345181000000.0 395349000000.0 424634000000.0 435852000000.0 434021000000.0 422535000000.0 404493000000.0 388232000000.0 394031000000.0 421673000000.0 449033000000.0 456849000000.0 444864000000.0 446261000000.0 374625000000.0 525999000000.0 528073000000.0 106788000000.0 751088000000.0 747561000000.0 393167000000.0 694429000000.0 972005000000.0 718062000000.0 485501000000.0 706532000000.0 109158000000.0 177604000000.0 199359000000.0 232288000000.0 172661000000.0 182001000000.0 130081000000.0 44682500000.0 6363930000.0 24586700000.0 171771000000.0 219453000000.0 333658000000.0 324413000000.0 581760000000.0 636124000000.0 666988000000.0 721601000000.0 799527000000.0 744667000000.0 765066000000.0 98186000000.0 546297000000.0 951497000000.0 896892000000.0 53912100000.0 930323000000.0 668115000000.0 100357000000.0 433994000000.0 558144000000.0 639501000000.0 689407000000.0 711237000000.0 711675000000.0 273797000000.0 312787000000.0 337556000000.0 340793000000.0 317926000000.0 269954000000.0 202078000000.0 120677000000.0 31572800000.0 60331100000.0 150635000000.0 234128000000.0 304650000000.0 358180000000.0 394922000000.0 416816000000.0 425992000000.0 425806000000.0 41138800000.0 587204000000.0 873186000000.0 758346000000.0 921533000000.0 1.02507e+12 227036000000.0 457249000000.0 841089000000.0 72175700000.0 131553000000.0 285879000000.0 201884000000.0 213377000000.0 173452000000.0 107139000000.0 114084000000.0 79901600000.0 44496200000.0 8661920000.0 132415000000.0 147555000000.0 275515000000.0 311358000000.0 523569000000.0 562514000000.0 606844000000.0 632206000000.0 697103000000.0 726592000000.0 924316000000.0 1.08978e+12 525037000000.0 611129000000.0 1.11164e+12 1.19273e+12 884344000000.0 331632000000.0 677117000000.0 521069000000.0 299105000000.0 696841000000.0 670909000000.0 637183000000.0 599751000000.0 561550000000.0 522959000000.0 482336000000.0 437244000000.0 385734000000.0 327283000000.0 262864000000.0 194611000000.0 125147000000.0 56988800000.0 7878480000.0 68273600000.0 123801000000.0 174447000000.0 219662000000.0 257462000000.0 283955000000.0 293848000000.0 282841000000.0 249782000000.0 196794000000.0 128327000000.0 49817300000.0 33545300000.0 116881000000.0 195236000000.0 264179000000.0 320486000000.0 419632000000.0 412472000000.0 414749000000.0 428637000000.0 443575000000.0 448676000000.0 444246000000.0 451299000000.0 459781000000.0 614912000000.0 793323000000.0 82756400000.0 526334000000.0 804927000000.0 895965000000.0 997960000000.0 1.08713e+12 1.07017e+12 796072000000.0 129191000000.0 115762000000.0 683073000000.0 462807000000.0 548666000000.0 328906000000.0 183256000000.0 127830000000.0 37970000000.0 49997500000.0 11689500000.0 54196500000.0 51151700000.0 56127900000.0 28775400000.0 93879800000.0 112462000000.0 62323400000.0 132185000000.0 248517000000.0 234768000000.0 501125000000.0 589211000000.0 619542000000.0 647328000000.0 617298000000.0 814952000000.0 1.03234e+12 522594000000.0 564935000000.0 1.12208e+12 1.07386e+12 818098000000.0 523728000000.0 460323000000.0 556956000000.0 619673000000.0 659845000000.0 678484000000.0 676880000000.0 660914000000.0 634952000000.0 602504000000.0 566727000000.0 529249000000.0 490075000000.0 448059000000.0 401713000000.0 350008000000.0 292904000000.0 231434000000.0 167430000000.0 103074000000.0 40386400000.0 19100900000.0 74374500000.0 124750000000.0 169425000000.0 206945000000.0 234671000000.0 248967000000.0 246418000000.0 225045000000.0 185172000000.0 129556000000.0 62529200000.0 11087700000.0 362876000000.0 392606000000.0 411861000000.0 422451000000.0 427042000000.0 429601000000.0 435570000000.0 446992000000.0 459937000000.0 469396000000.0 475756000000.0 492375000000.0 532799000000.0 689109000000.0 952820000000.0 558862000000.0 807396000000.0 916384000000.0 994702000000.0 1.06486e+12 1.08893e+12 1.10047e+12 694998000000.0 259641000000.0 1.1053e+12 828732000000.0 481338000000.0 294782000000.0 119279000000.0 54067400000.0 22317400000.0 27929600000.0 18514800000.0 63410900000.0 59153500000.0 55257100000.0 48008200000.0 63616400000.0 90557100000.0 54405500000.0 6273640000.0 249316000000.0 108774000000.0 532144000000.0 578260000000.0 607172000000.0 478769000000.0 543474000000.0 439164000000.0 1.42162e+12 483469000000.0 780020000000.0 881688000000.0 882123000000.0 586142000000.0 500345000000.0 428724000000.0 505381000000.0 566768000000.0 613213000000.0 640710000000.0 649144000000.0 642409000000.0 624579000000.0 598470000000.0 566813000000.0 531821000000.0 494613000000.0 455120000000.0 412521000000.0 365901000000.0 314830000000.0 259621000000.0 201363000000.0 141699000000.0 82410900000.0 25087400000.0 28979000000.0 78703400000.0 123031000000.0 160642000000.0 189566000000.0 207229000000.0 210951000000.0 198684000000.0 169922000000.0 86611600000.0 159519000000.0 225691000000.0 282454000000.0 328845000000.0 364963000000.0 391986000000.0 411835000000.0 426500000000.0 438521000000.0 451305000000.0 466670000000.0 483582000000.0 500641000000.0 520179000000.0 552010000000.0 611545000000.0 756934000000.0 1.03739e+12 256160000000.0 985940000000.0 994747000000.0 989718000000.0 939342000000.0 1.00432e+12 617212000000.0 419632000000.0 973797000000.0 740882000000.0 385444000000.0 228877000000.0 32835100000.0 14794700000.0 49865700000.0 80730100000.0 82865200000.0 42922100000.0 12444600000.0 1598070000.0 76587200000.0 73645400000.0 176679000000.0 137306000000.0 459960000000.0 514889000000.0 625950000000.0 605350000000.0 321059000000.0 149059000000.0 327236000000.0 269983000000.0 704834000000.0 652627000000.0 734611000000.0 574520000000.0 565952000000.0 522246000000.0 499142000000.0 539041000000.0 577908000000.0 605929000000.0 619750000000.0 619824000000.0 608323000000.0 587794000000.0 560845000000.0 529520000000.0 495119000000.0 458213000000.0 418682000000.0 376026000000.0 329807000000.0 280019000000.0 227233000000.0 172551000000.0 117372000000.0 63126800000.0 11151100000.0 37308500000.0 126157000000.0 70505700000.0 6946560000.0 60258000000.0 126967000000.0 189629000000.0 245669000000.0 293828000000.0 334162000000.0 367418000000.0 394725000000.0 417658000000.0 438125000000.0 458431000000.0 480190000000.0 503661000000.0 529135000000.0 559713000000.0 604191000000.0 677986000000.0 813742000000.0 1.04765e+12 418819000000.0 592078000000.0 804286000000.0 976588000000.0 888424000000.0 843631000000.0 803226000000.0 801092000000.0 666517000000.0 545333000000.0 1.0734e+12 876532000000.0 589635000000.0 253149000000.0 129081000000.0 21918700000.0 65058100000.0 53255800000.0 24259400000.0 119077000000.0 58073300000.0 5089940000.0 19332500000.0 86489600000.0 8453730000.0 235611000000.0 47169800000.0 15331000000.0 389388000000.0 602637000000.0 695361000000.0 360338000000.0 281188000000.0 178427000000.0 634213000000.0 286057000000.0 406308000000.0 269861000000.0 753286000000.0 766862000000.0 685982000000.0 603251000000.0 579987000000.0 551102000000.0 540545000000.0 560123000000.0 580995000000.0 593793000000.0 595999000000.0 588183000000.0 572168000000.0 549723000000.0 522226000000.0 490912000000.0 456765000000.0 81042400000.0 118726000000.0 148725000000.0 169074000000.0 177648000000.0 172628000000.0 153180000000.0 119910000000.0 74872200000.0 21180500000.0 37545800000.0 97664600000.0 155944000000.0 210028000000.0 258628000000.0 301386000000.0 338701000000.0 371458000000.0 400822000000.0 428279000000.0 455447000000.0 483666000000.0 513765000000.0 546562000000.0 584725000000.0 635216000000.0 711473000000.0 833501000000.0 1.0012e+12 536257000000.0 603043000000.0 808890000000.0 867753000000.0 1.01222e+12 906125000000.0 731408000000.0 721699000000.0 569256000000.0 233609000000.0 1.12404e+12 1.24266e+12 469499000000.0 374496000000.0 143079000000.0 27264000000.0 16809600000.0 26810700000.0 37487000000.0 54450900000.0 44472000000.0 57992400000.0 498361000000.0 585765000000.0 734430000000.0 347910000000.0 157995000000.0 421670000000.0 796379000000.0 542657000000.0 686101000000.0 711554000000.0 671436000000.0 622317000000.0 592679000000.0 569760000000.0 562038000000.0 567925000000.0 573105000000.0 420138000000.0 380840000000.0 338599000000.0 293406000000.0 245566000000.0 195716000000.0 144861000000.0 94220300000.0 45029200000.0 1503580000.0 44154300000.0 81615500000.0 112428000000.0 134940000000.0 147383000000.0 148187000000.0 136440000000.0 112241000000.0 76829600000.0 32462100000.0 17926100000.0 71207100000.0 124534000000.0 175689000000.0 223324000000.0 266941000000.0 306632000000.0 342960000000.0 626353000000.0 616051000000.0 895189000000.0 791752000000.0 808104000000.0 917573000000.0 734412000000.0 744805000000.0 545434000000.0 376324000000.0 186586000000.0 318836000000.0 444951000000.0 316896000000.0 247441000000.0 11029700000.0 15284500000.0 91358900000.0 299067000000.0 236868000000.0 298423000000.0 456840000000.0 687264000000.0 826819000000.0 513010000000.0 296164000000.0 744479000000.0 1.08343e+12 150607000000.0 483533000000.0 627717000000.0 691541000000.0 697228000000.0 666807000000.0 627282000000.0 573633000000.0 567459000000.0 554117000000.0 534568000000.0 510085000000.0 481738000000.0 450453000000.0 416715000000.0 380509000000.0 341716000000.0 300377000000.0 256753000000.0 211328000000.0 164788000000.0 118011000000.0 72021600000.0 27930700000.0 13107300000.0 49879500000.0 81065600000.0 105204000000.0 120760000000.0 126328000000.0 120952000000.0 104429000000.0 77478100000.0 41683700000.0 717080000.0 47156100000.0 376851000000.0 409391000000.0 441827000000.0 475419000000.0 511109000000.0 549722000000.0 593011000000.0 644937000000.0 713803000000.0 812039000000.0 933467000000.0 872227000000.0 694950000000.0 665357000000.0 705189000000.0 779124000000.0 567928000000.0 609786000000.0 612944000000.0 457054000000.0 487952000000.0 314684000000.0 335862000000.0 223178000000.0 132407000000.0 81404900000.0 32913700000.0 241874000000.0 537476000000.0 662177000000.0 846167000000.0 297672000000.0 515675000000.0 500239000000.0 822868000000.0 194436000000.0 519160000000.0 628009000000.0 670983000000.0 597657000000.0 576249000000.0 564474000000.0 560431000000.0 555829000000.0 547540000000.0 534077000000.0 515823000000.0 493623000000.0 468003000000.0 439457000000.0 408414000000.0 375034000000.0 339309000000.0 301316000000.0 261314000000.0 219710000000.0 177097000000.0 134190000000.0 91722100000.0 50517400000.0 11555100000.0 24057500000.0 55121000000.0 80332500000.0 98311600000.0 107752000000.0 107668000000.0 95132000000.0 142611000000.0 188243000000.0 231357000000.0 271860000000.0 310078000000.0 346655000000.0 382483000000.0 418521000000.0 455731000000.0 495101000000.0 537563000000.0 584187000000.0 636565000000.0 697222000000.0 771408000000.0 860050000000.0 628023000000.0 516442000000.0 579111000000.0 635573000000.0 673512000000.0 411159000000.0 444679000000.0 386151000000.0 160332000000.0 503426000000.0 545617000000.0 360550000000.0 306056000000.0 51733300000.0 39702100000.0 420188000000.0 448863000000.0 394960000000.0 165718000000.0 1.14269e+12 144701000000.0 672561000000.0 647705000000.0 616382000000.0 589869000000.0 569212000000.0 553495000000.0 540581000000.0 527298000000.0 512178000000.0 494201000000.0 473244000000.0 449633000000.0 423657000000.0 395309000000.0 364599000000.0 331603000000.0 296459000000.0 259504000000.0 221219000000.0 182102000000.0 142719000000.0 103722000000.0 65730500000.0 97641700000.0 78001300000.0 49839800000.0 14849800000.0 24927900000.0 67396600000.0 110713000000.0 153525000000.0 195070000000.0 235120000000.0 273813000000.0 311531000000.0 348881000000.0 386656000000.0 425694000000.0 466822000000.0 510805000000.0 558314000000.0 609881000000.0 665407000000.0 722173000000.0 781312000000.0 608818000000.0 442779000000.0 824619000000.0 664522000000.0 580606000000.0 673946000000.0 542413000000.0 284504000000.0 328816000000.0 303355000000.0 192900000000.0 412618000000.0 307164000000.0 177989000000.0 197098000000.0 391239000000.0 293698000000.0 39542200000.0 458525000000.0 572336000000.0 470708000000.0 892225000000.0 980794000000.0 462796000000.0 578684000000.0 627055000000.0 633097000000.0 616429000000.0 592968000000.0 567952000000.0 544711000000.0 524543000000.0 506427000000.0 488514000000.0 469436000000.0 448800000000.0 426549000000.0 402556000000.0 376777000000.0 348977000000.0 318757000000.0 29378400000.0 4529920000.0 34969100000.0 60741100000.0 80549800000.0 93123100000.0 97416600000.0 92850900000.0 79478900000.0 58009000000.0 29701500000.0 3822450000.0 40831300000.0 79720200000.0 119195000000.0 158415000000.0 197017000000.0 234987000000.0 272528000000.0 310024000000.0 348031000000.0 387180000000.0 428096000000.0 471329000000.0 517204000000.0 565443000000.0 614517000000.0 659736000000.0 687728000000.0 569514000000.0 384299000000.0 749926000000.0 658968000000.0 569509000000.0 524806000000.0 564805000000.0 382535000000.0 193903000000.0 274699000000.0 489227000000.0 694298000000.0 735529000000.0 215340000000.0 83425800000.0 44131900000.0 161102000000.0 37022800000.0 340125000000.0 676152000000.0 257575000000.0 471579000000.0 711106000000.0 748095000000.0 101178000000.0 393512000000.0 517554000000.0 573266000000.0 585371000000.0 573740000000.0 552029000000.0 527723000000.0 504151000000.0 482150000000.0 461287000000.0 286181000000.0 251767000000.0 216135000000.0 179916000000.0 143713000000.0 108015000000.0 73243000000.0 39816800000.0 8194250000.0 20975400000.0 46728800000.0 67834000000.0 82962900000.0 90933300000.0 90973000000.0 82908900000.0 67194100000.0 44787900000.0 16970300000.0 14839000000.0 49254600000.0 85092500000.0 121492000000.0 157962000000.0 194342000000.0 230692000000.0 656518000000.0 640153000000.0 578594000000.0 534764000000.0 525749000000.0 744085000000.0 562301000000.0 193462000000.0 511978000000.0 586177000000.0 539632000000.0 9506220000.0 8979260000.0 299688000000.0 223620000000.0 649434000000.0 501311000000.0 102128000000.0 81115500000.0 339853000000.0 460755000000.0 512602000000.0 525107000000.0 440718000000.0 419961000000.0 398690000000.0 376315000000.0 352518000000.0 327191000000.0 299914000000.0 270265000000.0 238356000000.0 204949000000.0 170999000000.0 137290000000.0 104440000000.0 72835600000.0 42578600000.0 13697300000.0 13581600000.0 38654500000.0 60477800000.0 77668800000.0 88801300000.0 92803100000.0 89247200000.0 78400700000.0 61053900000.0 38277000000.0 267220000000.0 304263000000.0 342240000000.0 381537000000.0 422407000000.0 464741000000.0 507555000000.0 548008000000.0 579208000000.0 584199000000.0 506738000000.0 334979000000.0 552566000000.0 590593000000.0 557029000000.0 504674000000.0 419875000000.0 713539000000.0 552786000000.0 412490000000.0 226561000000.0 62581800000.0 304261000000.0 411623000000.0 372722000000.0 341197000000.0 17551800000.0 176325000000.0 131666000000.0 499527000000.0 551012000000.0 95037100000.0 516268000000.0 496766000000.0 473713000000.0 450776000000.0 428949000000.0 407482000000.0 386300000000.0 365343000000.0 344179000000.0 322547000000.0 299695000000.0 274881000000.0 247866000000.0 218620000000.0 187564000000.0 155604000000.0 123844000000.0 93223200000.0 64287100000.0 37162600000.0 11528700000.0 13087400000.0 36746700000.0 58734400000.0 77602200000.0 11253300000.0 18843100000.0 50961800000.0 84264300000.0 118175000000.0 152399000000.0 186879000000.0 221684000000.0 256943000000.0 292845000000.0 329586000000.0 367212000000.0 405342000000.0 442703000000.0 476186000000.0 499164000000.0 498177000000.0 445560000000.0 300422000000.0 683294000000.0 536583000000.0 526951000000.0 378044000000.0 160243000000.0 41249300000.0 220808000000.0 209924000000.0 73229100000.0 47906400000.0 82886400000.0 62215200000.0 277289000000.0 113896000000.0 134018000000.0 369761000000.0 481106000000.0 446883000000.0 307538000000.0 404469000000.0 447336000000.0 457110000000.0 448014000000.0 429862000000.0 409201000000.0 388437000000.0 367952000000.0 347311000000.0 326391000000.0 305800000000.0 285783000000.0 265561000000.0 243951000000.0 219816000000.0 192803000000.0 163676000000.0 133525000000.0 103466000000.0 74553100000.0 91562400000.0 99081600000.0 99388700000.0 92608200000.0 79482500000.0 60992600000.0 38181700000.0 12062700000.0 16447300000.0 46574100000.0 77720000000.0 109496000000.0 141719000000.0 174338000000.0 207345000000.0 240732000000.0 274478000000.0 308457000000.0 342232000000.0 374611000000.0 402849000000.0 421528000000.0 420873000000.0 385037000000.0 269940000000.0 449155000000.0 522049000000.0 512261000000.0 463387000000.0 348238000000.0 410518000000.0 496696000000.0 297022000000.0 112527000000.0 134060000000.0 322355000000.0 80871700000.0 4239610000.0 13641300000.0 9272840000.0 26065600000.0 135019000000.0 320777000000.0 300446000000.0 375582000000.0 424242000000.0 362489000000.0 100487000000.0 267350000000.0 344515000000.0 377738000000.0 382037000000.0 370563000000.0 353858000000.0 337190000000.0 320410000000.0 302173000000.0 282486000000.0 261973000000.0 242035000000.0 223447000000.0 205049000000.0 47690500000.0 23289500000.0 1032590000.0 20125800000.0 41277400000.0 62608000000.0 82858200000.0 99657500000.0 110587000000.0 114289000000.0 110816000000.0 101063000000.0 86053700000.0 66775100000.0 44129100000.0 18922000000.0 8151000000.0 36522900000.0 65765300000.0 95594600000.0 125848000000.0 156412000000.0 187154000000.0 217884000000.0 248314000000.0 277956000000.0 305915000000.0 330236000000.0 346973000000.0 349314000000.0 327394000000.0 241932000000.0 354082000000.0 444169000000.0 450693000000.0 411885000000.0 296453000000.0 583962000000.0 539468000000.0 372362000000.0 233988000000.0 65359500000.0 131879000000.0 147277000000.0 19110500000.0 125807000000.0 131761000000.0 276886000000.0 316301000000.0 341191000000.0 92862900000.0 225762000000.0 283062000000.0 301364000000.0 297013000000.0 284975000000.0 273430000000.0 184589000000.0 160915000000.0 134164000000.0 105449000000.0 76510500000.0 48833200000.0 23403000000.0 930882000.0 18422300000.0 35586800000.0 52868800000.0 72217000000.0 93303000000.0 113226000000.0 128010000000.0 135001000000.0 134118000000.0 126834000000.0 114425000000.0 97908900000.0 78117800000.0 55754100000.0 31428100000.0 5655860000.0 269438000000.0 361546000000.0 379224000000.0 352173000000.0 254110000000.0 480313000000.0 449469000000.0 406072000000.0 375464000000.0 145863000000.0 50832700000.0 9770340000.0 16257200000.0 12685100000.0 15612300000.0 9042900000.0 32681100000.0 95251900000.0 359067000000.0 260439000000.0 85996800000.0 262898000000.0 250691000000.0 234168000000.0 213724000000.0 192464000000.0 173717000000.0 157331000000.0 140437000000.0 120542000000.0 97068500000.0 70917700000.0 43670400000.0 17076300000.0 7349530000.0 28804800000.0 46651100000.0 60801100000.0 72963800000.0 87925100000.0 108568000000.0 132169000000.0 152030000000.0 162698000000.0 21143800000.0 48640000000.0 76582200000.0 104771000000.0 132991000000.0 160948000000.0 188236000000.0 214296000000.0 238388000000.0 259549000000.0 275535000000.0 281934000000.0 272341000000.0 214048000000.0 215567000000.0 365409000000.0 367142000000.0 329586000000.0 317740000000.0 290833000000.0 235454000000.0 12531000000.0 9036770000.0 12299900000.0 31520500000.0 125759000000.0 228943000000.0 242247000000.0 261703000000.0 259282000000.0 169841000000.0 184171000000.0 215244000000.0 215398000000.0 206751000000.0 197419000000.0 193300000000.0 191025000000.0 182633000000.0 164048000000.0 139419000000.0 117281000000.0 100515000000.0 86438100000.0 70352500000.0 50703600000.0 28139600000.0 3669200000.0 20917000000.0 43546700000.0 63431400000.0 81138300000.0 95233900000.0 163682000000.0 157882000000.0 147108000000.0 132500000000.0 114853000000.0 94766900000.0 72741300000.0 49223400000.0 24605900000.0 774348000.0 26630200000.0 52703000000.0 78721200000.0 104345000000.0 129112000000.0 152405000000.0 173465000000.0 191615000000.0 206742000000.0 217116000000.0 218549000000.0 184382000000.0 196106000000.0 279208000000.0 303051000000.0 289365000000.0 265328000000.0 283832000000.0 258698000000.0 249692000000.0 228967000000.0 187938000000.0 111116000000.0 89247700000.0 1962640000.0 26507200000.0 10497000000.0 73415000000.0 111243000000.0 154895000000.0 162875000000.0 180070000000.0 158699000000.0 100322000000.0 77855100000.0 136125000000.0 132858000000.0 125087000000.0 119138000000.0 112169000000.0 119145000000.0 126443000000.0 115939000000.0 88734500000.0 60296600000.0 35695300000.0 19520000000.0 6657350000.0 8552490000.0 26483100000.0 104256000000.0 111834000000.0 128410000000.0 155722000000.0 183237000000.0 198996000000.0 200804000000.0 195255000000.0 185072000000.0 171492000000.0 155228000000.0 136772000000.0 116503000000.0 94770000000.0 71916300000.0 48268400000.0 24127800000.0 215068000.0 24463100000.0 48275300000.0 71211000000.0 92680600000.0 111918000000.0 128092000000.0 140983000000.0 153205000000.0 164019000000.0 151341000000.0 133502000000.0 201304000000.0 226031000000.0 224037000000.0 176703000000.0 133894000000.0 80429800000.0 63594500000.0 21221800000.0 5855320000.0 15207700000.0 22582500000.0 50248000000.0 86443000000.0 102219000000.0 112165000000.0 127218000000.0 44024100000.0 56403600000.0 46065900000.0 48426600000.0 41501700000.0 29888600000.0 56677500000.0 44610900000.0 65007200000.0 85191500000.0 101698000000.0 116741000000.0 133901000000.0 145791000000.0 149887000000.0 155345000000.0 182604000000.0 221910000000.0 246297000000.0 246832000000.0 239842000000.0 229091000000.0 215728000000.0 200175000000.0 182708000000.0 163587000000.0 143067000000.0 121431000000.0 98984900000.0 76039000000.0 52900500000.0 79930600000.0 130108000000.0 150934000000.0 156849000000.0 134639000000.0 174830000000.0 201850000000.0 188143000000.0 176276000000.0 172208000000.0 58418800000.0 48144400000.0 13911900000.0 11563600000.0 9750090000.0 11204200000.0 21963700000.0 91074600000.0 55533400000.0 76352000000.0 69126300000.0 44953700000.0 13509600000.0 22859600000.0 57761600000.0 78078000000.0 88139500000.0 100070000000.0 109411000000.0 117061000000.0 131272000000.0 142871000000.0 150453000000.0 165497000000.0 187995000000.0 199404000000.0 203868000000.0 215961000000.0 267127000000.0 308669000000.0 302426000000.0 291751000000.0 279513000000.0 29879800000.0 7310210000.0 14429400000.0 34874800000.0 53413500000.0 69243500000.0 81530900000.0 90692200000.0 106148000000.0 113150000000.0 32663000000.0 64729600000.0 80297800000.0 88697400000.0 86942800000.0 95560100000.0 120202000000.0 117308000000.0 106749000000.0 102535000000.0 94638600000.0 53807800000.0 2398330000.0 5798200000.0 38057500000.0 45187200000.0 49844900000.0 49559400000.0 31074600000.0 47584100000.0 7544000000.0 3827030000.0 7326020000.0 20827600000.0 51061700000.0 3463200000.0 1569100000.0 10436400000.0 50572400000.0 112298000000.0 181409000000.0 191659000000.0 200282000000.0 196368000000.0 190514000000.0 181816000000.0 184165000000.0 180790000000.0 188204000000.0 205123000000.0 238720000000.0 262536000000.0 265835000000.0 250558000000.0 233620000000.0 215091000000.0 195151000000.0 174058000000.0 152126000000.0 129682000000.0 107055000000.0 84580200000.0 62598300000.0 41446800000.0 21463000000.0 2997290000.0 13551700000.0 27633600000.0 38418000000.0 45724000000.0 66815700000.0 25069400000.0 40040000000.0 42353900000.0 37972600000.0 36745700000.0 30520500000.0 6157130000.0 4998320000.0 4218910000.0 5613500000.0 30511400000.0 22331900000.0 8530040000.0 11780100000.0 16259200000.0 36066000000.0 23919700000.0 31343600000.0 297491000000.0 321744000000.0 389457000000.0 363613000000.0 348421000000.0 335471000000.0 322115000000.0 307313000000.0 290718000000.0 272352000000.0 252384000000.0 231072000000.0 208784000000.0 185929000000.0 162897000000.0 140072000000.0 117835000000.0 96554900000.0 76554400000.0 58034200000.0 40980100000.0 25001400000.0 9105050000.0 8502330000.0 29508200000.0 12729200000.0 1338180000.0 11000500000.0 23882500000.0 35284700000.0 57216500000.0 88557100000.0 145337000000.0 189598000000.0 210814000000.0 213249000000.0 194623000000.0 144453000000.0 70338400000.0 5347570000.0 