# vtk DataFile Version 2.0
Time step 40
ASCII
DATASET UNSTRUCTURED_GRID
POINTS 5000 float
202704.0 346094.0 0
206958.0 343075.0 0
208639.0 346352.0 0
213350.0 343983.0 0
282354.0 346073.0 0
287994.0 343021.0 0
297464.0 343340.0 0
202414.0 351065.0 0
206538.0 348614.0 0
211120.0 348985.0 0
216347.0 349160.0 0
221618.0 348413.0 0
226613.0 349985.0 0
230506.0 349008.0 0
234886.0 348483.0 0
240150.0 350954.0 0
266490.0 350034.0 0
271513.0 347586.0 0
273721.0 351488.0 0
278066.0 350440.0 0
288073.0 348843.0 0
292811.0 351720.0 0
297176.0 348633.0 0
203711.0 356080.0 0
207962.0 352743.0 0
213316.0 353521.0 0
218690.0 354281.0 0
223147.0 352620.0 0
224228.0 356721.0 0
228121.0 354530.0 0
231299.0 352261.0 0
235404.0 353995.0 0
240170.0 356362.0 0
244859.0 353977.0 0
248094.0 356958.0 0
251198.0 352683.0 0
257520.0 353082.0 0
262263.0 352705.0 0
262897.0 356952.0 0
266411.0 354874.0 0
270470.0 353800.0 0
274933.0 355607.0 0
279694.0 354989.0 0
283393.0 352090.0 0
285348.0 355754.0 0
287651.0 353579.0 0
290604.0 355658.0 0
296662.0 356127.0 0
201910.0 360319.0 0
206366.0 360891.0 0
209987.0 357376.0 0
212081.0 362067.0 0
215172.0 358168.0 0
220276.0 359770.0 0
223892.0 362165.0 0
227643.0 360492.0 0
231475.0 357293.0 0
232205.0 361488.0 0
235812.0 358889.0 0
240281.0 361705.0 0
244779.0 359245.0 0
254935.0 357221.0 0
251187.0 359463.0 0
259019.0 357587.0 0
256914.0 361622.0 0
261508.0 361091.0 0
266702.0 359794.0 0
270390.0 362155.0 0
271073.0 357913.0 0
274475.0 360711.0 0
278289.0 358552.0 0
282740.0 358560.0 0
287597.0 358858.0 0
291638.0 358923.0 0
294656.0 360726.0 0
202759.0 364575.0 0
208411.0 366205.0 0
216709.0 362849.0 0
221143.0 365389.0 0
226160.0 365348.0 0
230021.0 364475.0 0
233342.0 366190.0 0
235836.0 363360.0 0
238908.0 367203.0 0
243987.0 365400.0 0
248128.0 363029.0 0
252884.0 363850.0 0
258651.0 366185.0 0
264456.0 365359.0 0
269352.0 365757.0 0
272329.0 364338.0 0
275493.0 365027.0 0
279728.0 363047.0 0
285130.0 363444.0 0
290473.0 363045.0 0
287884.0 367091.0 0
291453.0 367021.0 0
296241.0 365604.0 0
202049.0 368756.0 0
202038.0 372319.0 0
206215.0 371032.0 0
211244.0 371631.0 0
214778.0 367641.0 0
219723.0 370234.0 0
224835.0 370409.0 0
229722.0 369098.0 0
234878.0 371058.0 0
242440.0 368927.0 0
242246.0 371923.0 0
246054.0 369812.0 0
250181.0 367561.0 0
254454.0 367574.0 0
252809.0 371655.0 0
257022.0 370671.0 0
261898.0 370502.0 0
268078.0 371226.0 0
272698.0 367775.0 0
273645.0 371775.0 0
278680.0 369234.0 0
284063.0 368390.0 0
282805.0 372234.0 0
286793.0 371860.0 0
290081.0 369932.0 0
293399.0 369875.0 0
297568.0 370895.0 0
200291.0 375329.0 0
205605.0 376160.0 0
211150.0 376422.0 0
216199.0 373552.0 0
219039.0 377246.0 0
222047.0 374765.0 0
226294.0 376789.0 0
228582.0 373747.0 0
231973.0 374413.0 0
239121.0 372910.0 0
236182.0 376759.0 0
241612.0 376447.0 0
245110.0 373984.0 0
248782.0 373130.0 0
251558.0 375871.0 0
259016.0 374661.0 0
263824.0 375541.0 0
271503.0 375539.0 0
274142.0 377362.0 0
276369.0 374683.0 0
279712.0 373550.0 0
279043.0 376181.0 0
281409.0 375129.0 0
284700.0 376204.0 0
288473.0 375766.0 0
291262.0 373535.0 0
294589.0 372678.0 0
295238.0 376616.0 0
297892.0 374687.0 0
301193.0 377476.0 0
198405.0 378242.0 0
195609.0 380438.0 0
198849.0 380745.0 0
202098.0 379083.0 0
205248.0 381673.0 0
208519.0 380117.0 0
212828.0 382216.0 0
215502.0 377763.0 0
218101.0 381225.0 0
222911.0 379928.0 0
227502.0 380930.0 0
230795.0 378140.0 0
234680.0 381536.0 0
239434.0 381083.0 0
243833.0 380295.0 0
247449.0 377571.0 0
247719.0 382481.0 0
251547.0 380294.0 0
255542.0 377597.0 0
260680.0 379749.0 0
264832.0 382042.0 0
267757.0 378371.0 0
272200.0 381112.0 0
277142.0 379541.0 0
280885.0 378296.0 0
283400.0 381073.0 0
287920.0 380071.0 0
291594.0 378100.0 0
294729.0 381388.0 0
291534.0 382587.0 0
297648.0 380100.0 0
299204.0 377728.0 0
300703.0 381320.0 0
303323.0 379514.0 0
305938.0 381839.0 0
188763.0 384970.0 0
192464.0 382823.0 0
191611.0 386491.0 0
196663.0 383038.0 0
197143.0 385525.0 0
194290.0 385684.0 0
200949.0 383336.0 0
200156.0 387551.0 0
204068.0 385601.0 0
208428.0 385208.0 0
216346.0 386016.0 0
221161.0 384636.0 0
225598.0 384705.0 0
230980.0 385361.0 0
237448.0 386060.0 0
243145.0 384876.0 0
248927.0 386469.0 0
251460.0 384077.0 0
256025.0 383551.0 0
261477.0 384919.0 0
268165.0 383057.0 0
265840.0 386895.0 0
271036.0 386973.0 0
275784.0 384543.0 0
279779.0 383118.0 0
282726.0 386070.0 0
285915.0 384137.0 0
289217.0 384796.0 0
290723.0 387547.0 0
294665.0 386494.0 0
298338.0 384585.0 0
303116.0 383690.0 0
301798.0 386466.0 0
305422.0 386051.0 0
309269.0 384864.0 0
313664.0 386495.0 0
177155.0 391543.0 0
180981.0 389875.0 0
185002.0 387827.0 0
184205.0 391920.0 0
187992.0 392792.0 0
188800.0 388962.0 0
192929.0 388841.0 0
191756.0 391975.0 0
196091.0 388678.0 0
195197.0 391560.0 0
198678.0 391132.0 0
203134.0 389911.0 0
205772.0 387865.0 0
207976.0 390856.0 0
212354.0 388633.0 0
216088.0 392234.0 0
219473.0 389080.0 0
223747.0 388565.0 0
221413.0 392402.0 0
227685.0 388867.0 0
225532.0 392275.0 0
233649.0 390042.0 0
237720.0 391307.0 0
241492.0 389593.0 0
245859.0 388710.0 0
249695.0 391163.0 0
253176.0 388230.0 0
258755.0 390112.0 0
264445.0 391325.0 0
268939.0 391830.0 0
275094.0 389365.0 0
279156.0 387760.0 0
278473.0 392758.0 0
282765.0 391031.0 0
286546.0 388537.0 0
289773.0 391665.0 0
293051.0 390028.0 0
296133.0 391890.0 0
299843.0 390074.0 0
304606.0 388715.0 0
304606.0 392613.0 0
308509.0 389254.0 0
311985.0 389274.0 0
314053.0 392608.0 0
317103.0 389101.0 0
320871.0 391842.0 0
168217.0 397491.0 0
171008.0 395585.0 0
174450.0 394128.0 0
177635.0 394872.0 0
175801.0 397472.0 0
179802.0 392993.0 0
178999.0 396660.0 0
182056.0 395809.0 0
185556.0 394998.0 0
189207.0 396191.0 0
193175.0 395405.0 0
197133.0 394216.0 0
200878.0 392912.0 0
200340.0 396932.0 0
204393.0 393513.0 0
204851.0 396647.0 0
207390.0 394537.0 0
207871.0 397842.0 0
211278.0 394321.0 0
215188.0 397396.0 0
219417.0 396429.0 0
223222.0 395582.0 0
226774.0 396884.0 0
230089.0 392887.0 0
235077.0 395580.0 0
239159.0 397198.0 0
244800.0 393172.0 0
240152.0 394137.0 0
242483.0 397154.0 0
246121.0 397481.0 0
249048.0 395245.0 0
253825.0 392910.0 0
252693.0 397207.0 0
257845.0 396691.0 0
262148.0 394682.0 0
266031.0 395722.0 0
269961.0 396699.0 0
273430.0 393622.0 0
273626.0 397623.0 0
277282.0 396956.0 0
282174.0 396587.0 0
286259.0 394216.0 0
290770.0 396673.0 0
293071.0 393792.0 0
296067.0 397048.0 0
299209.0 394750.0 0
302231.0 395450.0 0
309000.0 393650.0 0
306341.0 397506.0 0
311169.0 397221.0 0
315074.0 397367.0 0
317947.0 394431.0 0
320141.0 395830.0 0
325096.0 394241.0 0
322524.0 396512.0 0
328903.0 395729.0 0
331787.0 396734.0 0
162560.0 401032.0 0
159591.0 402692.0 0
165395.0 398956.0 0
166127.0 402297.0 0
172481.0 397997.0 0
170005.0 400681.0 0
174762.0 400361.0 0
176999.0 402156.0 0
178761.0 399381.0 0
181743.0 399094.0 0
180087.0 402448.0 0
183005.0 401626.0 0
185812.0 398282.0 0
187270.0 401906.0 0
191227.0 399599.0 0
195751.0 398762.0 0
194730.0 402467.0 0
198788.0 401658.0 0
203498.0 400795.0 0
207793.0 402205.0 0
211377.0 399462.0 0
214593.0 401425.0 0
218448.0 401383.0 0
223006.0 400279.0 0
227412.0 401703.0 0
230630.0 398509.0 0
233984.0 400726.0 0
237536.0 400524.0 0
240779.0 400162.0 0
244598.0 401612.0 0
249118.0 399625.0 0
254915.0 402137.0 0
259959.0 401825.0 0
262691.0 398763.0 0
266752.0 400962.0 0
271648.0 400638.0 0
275801.0 400865.0 0
280024.0 400817.0 0
284013.0 401110.0 0
287473.0 401764.0 0
286727.0 398440.0 0
290755.0 400736.0 0
293837.0 400268.0 0
297206.0 401525.0 0
301658.0 399368.0 0
305944.0 401610.0 0
309821.0 400375.0 0
314456.0 400704.0 0
318736.0 398873.0 0
318922.0 402498.0 0
322963.0 399419.0 0
323047.0 402502.0 0
326676.0 398530.0 0
330203.0 399089.0 0
326728.0 401814.0 0
329731.0 401728.0 0
333970.0 399682.0 0
333559.0 403060.0 0
337749.0 400745.0 0
151832.0 407805.0 0
157100.0 404595.0 0
154426.0 406157.0 0
162228.0 405095.0 0
158990.0 407225.0 0
165940.0 407129.0 0
173338.0 403597.0 0
169537.0 405298.0 0
172809.0 407740.0 0
177062.0 405698.0 0
180708.0 405361.0 0
183880.0 405124.0 0
187673.0 405517.0 0
191145.0 403528.0 0
189942.0 407137.0 0
193170.0 406340.0 0
196977.0 405396.0 0
201085.0 405052.0 0
205003.0 404962.0 0
207994.0 406997.0 0
211155.0 404050.0 0
215115.0 405282.0 0
219512.0 406345.0 0
224086.0 405210.0 0
228460.0 406026.0 0
231250.0 403103.0 0
232231.0 406420.0 0
235507.0 404531.0 0
238053.0 407569.0 0
240360.0 404310.0 0
244704.0 406313.0 0
249410.0 404469.0 0
253510.0 406740.0 0
258270.0 406649.0 0
262962.0 404734.0 0
267062.0 405967.0 0
270173.0 404074.0 0
274243.0 404860.0 0
270616.0 407896.0 0
278169.0 404029.0 0
278350.0 408145.0 0
281910.0 405047.0 0
284856.0 407522.0 0
286053.0 404636.0 0
290070.0 404669.0 0
288550.0 408048.0 0
294275.0 404332.0 0
300337.0 403166.0 0
298780.0 405880.0 0
303347.0 404952.0 0
309430.0 403690.0 0
307526.0 405653.0 0
312444.0 403267.0 0
315611.0 404201.0 0
311951.0 406655.0 0
316456.0 407869.0 0
319653.0 405838.0 0
323596.0 406392.0 0
330018.0 404704.0 0
327200.0 404900.0 0
330423.0 408105.0 0
333342.0 406567.0 0
340915.0 403132.0 0
338003.0 404414.0 0
341810.0 406667.0 0
343806.0 404745.0 0
346303.0 406863.0 0
146241.0 411146.0 0
143891.0 413103.0 0
149163.0 409896.0 0
151671.0 412179.0 0
156245.0 408428.0 0
154011.0 410138.0 0
156997.0 410733.0 0
162358.0 408597.0 0
160031.0 410723.0 0
167291.0 411206.0 0
164173.0 410924.0 0
169507.0 409241.0 0
171833.0 412515.0 0
176483.0 410158.0 0
180928.0 408906.0 0
182384.0 412631.0 0
185668.0 408954.0 0
186296.0 413178.0 0
190390.0 410668.0 0
195177.0 409740.0 0
197954.0 412906.0 0
199468.0 408696.0 0
203811.0 408656.0 0
201100.0 411253.0 0
203903.0 412260.0 0
207703.0 411390.0 0
211595.0 408313.0 0
212111.0 412608.0 0
215831.0 409798.0 0
219355.0 411528.0 0
222362.0 409823.0 0
226053.0 410079.0 0
230392.0 410027.0 0
234602.0 409017.0 0
233335.0 413183.0 0
238048.0 411919.0 0
241415.0 408802.0 0
242262.0 412634.0 0
245324.0 410062.0 0
250021.0 409989.0 0
254789.0 409719.0 0
253817.0 413122.0 0
257776.0 411503.0 0
261225.0 409633.0 0
264449.0 408292.0 0
264360.0 411732.0 0
267698.0 410438.0 0
274089.0 409359.0 0
276508.0 412870.0 0
280393.0 413236.0 0
282331.0 409942.0 0
286410.0 411332.0 0
290853.0 412152.0 0
292557.0 408503.0 0
295010.0 413042.0 0
296455.0 408514.0 0
298389.0 411580.0 0
301744.0 409781.0 0
305476.0 411168.0 0
305557.0 408439.0 0
309124.0 409578.0 0
307475.0 412874.0 0
313612.0 410834.0 0
320699.0 410076.0 0
317828.0 412853.0 0
324778.0 411182.0 0
327212.0 408387.0 0
328927.0 412715.0 0
336721.0 408618.0 0
332923.0 410698.0 0
340700.0 409406.0 0
337137.0 412839.0 0
344428.0 409272.0 0
343800.0 412121.0 0
349383.0 408861.0 0
347752.0 411349.0 0
352613.0 410861.0 0
356159.0 412674.0 0
136236.0 417381.0 0
138278.0 415865.0 0
141079.0 415194.0 0
147954.0 413565.0 0
145717.0 416337.0 0
150680.0 414821.0 0
148967.0 417428.0 0
155379.0 413518.0 0
153352.0 416507.0 0
156735.0 416902.0 0
161532.0 413555.0 0
158281.0 413471.0 0
159869.0 416163.0 0
164289.0 414057.0 0
167658.0 414512.0 0
163429.0 417016.0 0
170147.0 417042.0 0
173269.0 416582.0 0
175425.0 414162.0 0
176264.0 416695.0 0
178740.0 413647.0 0
179127.0 416776.0 0
182601.0 417047.0 0
186822.0 416562.0 0
189792.0 414724.0 0
190231.0 418140.0 0
193618.0 414544.0 0
197337.0 417277.0 0
201201.0 414879.0 0
205140.0 415355.0 0
209096.0 416382.0 0
213218.0 416163.0 0
216151.0 413927.0 0
216388.0 418295.0 0
219459.0 414927.0 0
223333.0 414033.0 0
221299.0 418242.0 0
228138.0 414319.0 0
231717.0 416178.0 0
236346.0 416418.0 0
239962.0 415223.0 0
243155.0 416438.0 0
246451.0 413723.0 0
250289.0 414454.0 0
253324.0 418078.0 0
256877.0 415021.0 0
261249.0 414549.0 0
266741.0 415527.0 0
271540.0 413290.0 0
270889.0 418310.0 0
274915.0 416788.0 0
278558.0 416229.0 0
281649.0 417408.0 0
283753.0 414663.0 0
288239.0 415630.0 0
292410.0 416621.0 0
296268.0 417373.0 0
299943.0 414863.0 0
299468.0 417830.0 0
304186.0 414555.0 0
310899.0 413505.0 0
308135.0 415941.0 0
311402.0 416965.0 0
314668.0 415183.0 0
319528.0 417346.0 0
322153.0 414138.0 0
325429.0 414806.0 0
324269.0 417810.0 0
333548.0 414566.0 0
340763.0 413308.0 0
337350.0 415804.0 0
340191.0 417733.0 0
343355.0 415693.0 0
346161.0 414029.0 0
345531.0 417485.0 0
350889.0 413466.0 0
349112.0 415469.0 0
351862.0 417356.0 0
354201.0 415256.0 0
359063.0 414572.0 0
357791.0 416666.0 0
362003.0 416084.0 0
364810.0 417853.0 0
126295.0 423278.0 0
130741.0 420401.0 0
128735.0 421845.0 0
134022.0 419457.0 0
132797.0 422773.0 0
137061.0 421678.0 0
138739.0 419191.0 0
141952.0 419180.0 0
139745.0 422910.0 0
142828.0 423032.0 0
145601.0 419836.0 0
146065.0 422712.0 0
148019.0 419811.0 0
151441.0 419294.0 0
149812.0 422300.0 0
154575.0 419759.0 0
157420.0 419686.0 0
153374.0 422406.0 0
156799.0 423134.0 0
160923.0 420391.0 0
166289.0 418469.0 0
164878.0 422457.0 0
169624.0 420474.0 0
177826.0 419567.0 0
173550.0 420458.0 0
176616.0 423184.0 0
181081.0 421526.0 0
186267.0 420918.0 0
193437.0 418607.0 0
191357.0 422444.0 0
195573.0 421012.0 0
198020.0 422291.0 0
201857.0 419841.0 0
206136.0 418415.0 0
207415.0 421457.0 0
211760.0 419860.0 0
218948.0 421654.0 0
214806.0 423415.0 0
222976.0 422733.0 0
225264.0 418453.0 0
229252.0 418894.0 0
227099.0 422737.0 0
233260.0 418712.0 0
231746.0 422848.0 0
236219.0 421354.0 0
239797.0 419002.0 0
243320.0 420330.0 0
247653.0 418474.0 0
245840.0 423340.0 0
250312.0 422688.0 0
254109.0 422855.0 0
256437.0 421225.0 0
258819.0 418800.0 0
263643.0 419190.0 0
261303.0 421850.0 0
267449.0 420416.0 0
274326.0 420702.0 0
278248.0 420220.0 0
282585.0 421310.0 0
285439.0 418593.0 0
286817.0 422917.0 0
289731.0 419917.0 0
293685.0 420645.0 0
298649.0 421876.0 0
303129.0 419257.0 0
306709.0 418515.0 0
306906.0 422628.0 0
309795.0 419843.0 0
315195.0 420152.0 0
319251.0 422370.0 0
322379.0 421106.0 0
326335.0 422545.0 0
329456.0 418435.0 0
335298.0 418740.0 0
333133.0 422096.0 0
336323.0 423301.0 0
338569.0 421097.0 0
343396.0 420315.0 0
348767.0 418577.0 0
347514.0 422453.0 0
355416.0 418428.0 0
352741.0 421010.0 0
356117.0 422639.0 0
357627.0 420168.0 0
360332.0 418874.0 0
360060.0 422475.0 0
363292.0 419936.0 0
366380.0 421522.0 0
367652.0 419610.0 0
370460.0 421685.0 0
120974.0 426901.0 0
124436.0 425580.0 0
129232.0 424171.0 0
131580.0 425541.0 0
128162.0 426277.0 0
127757.0 428183.0 0
131217.0 428061.0 0
135457.0 425183.0 0
138896.0 426293.0 0
142656.0 427065.0 0
146437.0 425834.0 0
149351.0 425432.0 0
150491.0 428276.0 0
152990.0 425423.0 0
156454.0 427299.0 0
160716.0 425428.0 0
164380.0 427556.0 0
169007.0 424885.0 0
173110.0 424309.0 0
175215.0 426859.0 0
177851.0 428409.0 0
179198.0 425075.0 0
180869.0 427499.0 0
183512.0 425028.0 0
186136.0 427287.0 0
187725.0 424652.0 0
190366.0 427516.0 0
195169.0 425432.0 0
200032.0 425545.0 0
204109.0 424254.0 0
207118.0 426374.0 0
210642.0 423880.0 0
211056.0 427907.0 0
218887.0 425393.0 0
215331.0 428436.0 0
222108.0 426906.0 0
225601.0 426736.0 0
229446.0 426725.0 0
234667.0 426909.0 0
240323.0 424831.0 0
244664.0 427307.0 0
248433.0 426682.0 0
253222.0 426961.0 0
258488.0 424815.0 0
264965.0 425132.0 0
271085.0 424041.0 0
274447.0 428418.0 0
276150.0 424546.0 0
279730.0 424140.0 0
279191.0 428359.0 0
283521.0 425793.0 0
288033.0 427741.0 0
291006.0 424305.0 0
295357.0 425393.0 0
299670.0 426399.0 0
303359.0 424904.0 0
304715.0 428457.0 0
307952.0 427468.0 0
311575.0 424377.0 0
316998.0 425933.0 0
322477.0 425911.0 0
330447.0 424310.0 0
327499.0 427266.0 0
331503.0 428253.0 0
334071.0 426010.0 0
340723.0 423500.0 0
338234.0 425992.0 0
344133.0 424043.0 0
342728.0 427253.0 0
351456.0 424889.0 0
346982.0 426846.0 0
354317.0 425611.0 0
357953.0 425926.0 0
361480.0 426323.0 0
363451.0 423540.0 0
366241.0 426208.0 0
368558.0 423747.0 0
371338.0 426473.0 0
373336.0 423984.0 0
376661.0 425996.0 0
374235.0 428324.0 0
379770.0 428395.0 0
111761.0 433398.0 0
115011.0 430815.0 0
118090.0 429073.0 0
121708.0 430186.0 0
118001.0 432318.0 0
120462.0 433160.0 0
124949.0 428844.0 0
123889.0 433100.0 0
126568.0 431507.0 0
129381.0 429966.0 0
131943.0 431753.0 0
134308.0 428826.0 0
137702.0 429676.0 0
135144.0 433121.0 0
140667.0 431023.0 0
147006.0 429242.0 0
144289.0 431561.0 0
149152.0 432434.0 0
152314.0 431296.0 0
153732.0 428979.0 0
155505.0 431418.0 0
159651.0 430674.0 0
167272.0 429404.0 0
163885.0 431878.0 0
167778.0 432913.0 0
171432.0 429129.0 0
175424.0 432253.0 0
183228.0 429093.0 0
179893.0 430794.0 0
182727.0 432957.0 0
186337.0 430765.0 0
190077.0 432833.0 0
194352.0 429898.0 0
198455.0 429742.0 0
197700.0 433672.0 0
201273.0 432927.0 0
203242.0 428899.0 0
204264.0 432213.0 0
207547.0 431294.0 0
211990.0 432137.0 0
216472.0 433179.0 0
219469.0 429539.0 0
223334.0 430375.0 0
220551.0 432996.0 0
227307.0 431254.0 0
231370.0 429930.0 0
234816.0 432580.0 0
238215.0 429874.0 0
242141.0 430688.0 0
246455.0 431061.0 0
250271.0 430232.0 0
253274.0 432462.0 0
257041.0 429970.0 0
261256.0 429322.0 0
261549.0 433670.0 0
265433.0 431466.0 0
269757.0 429069.0 0
272985.0 432104.0 0
277115.0 433077.0 0
281320.0 432346.0 0
283821.0 429934.0 0
286470.0 430988.0 0
288897.0 432024.0 0
293189.0 430272.0 0
298043.0 429263.0 0
298422.0 433429.0 0
301711.0 429484.0 0
302652.0 433452.0 0
305925.0 431422.0 0
309878.0 432083.0 0
312681.0 429151.0 0
316377.0 430154.0 0
318147.0 433157.0 0
320284.0 429786.0 0
324656.0 430543.0 0
329058.0 431335.0 0
336113.0 429377.0 0
332982.0 431686.0 0
339738.0 428932.0 0
337465.0 433125.0 0
340323.0 431656.0 0
343447.0 430804.0 0
346875.0 430533.0 0
346337.0 433562.0 0
351174.0 428791.0 0
350364.0 432490.0 0
355119.0 429386.0 0
357122.0 432527.0 0
353635.0 433022.0 0
358680.0 429711.0 0
361269.0 429399.0 0
359104.0 431630.0 0
361789.0 432361.0 0
364103.0 428609.0 0
365648.0 431831.0 0
369000.0 429181.0 0
369532.0 433299.0 0
376494.0 430469.0 0
372684.0 431275.0 0
381091.0 432323.0 0
383474.0 429292.0 0
385865.0 430998.0 0
384134.0 432622.0 0
388319.0 433390.0 0
104973.0 437673.0 0
108807.0 435977.0 0
115336.0 434509.0 0
112740.0 436846.0 0
116722.0 438102.0 0
120258.0 436287.0 0
124657.0 436466.0 0
129144.0 434498.0 0
132753.0 436421.0 0
136559.0 438510.0 0
138654.0 434204.0 0
142177.0 434559.0 0
140252.0 437233.0 0
146097.0 434828.0 0
143549.0 437918.0 0
153061.0 434380.0 0
149792.0 436074.0 0
152944.0 438677.0 0
156767.0 434973.0 0
160802.0 435412.0 0
164697.0 436031.0 0
171344.0 433769.0 0
168756.0 436855.0 0
172599.0 436839.0 0
176450.0 436938.0 0
179133.0 434189.0 0
181116.0 437340.0 0
185957.0 435878.0 0
190917.0 438185.0 0
194173.0 434021.0 0
195448.0 437462.0 0
199777.0 437630.0 0
204604.0 435587.0 0
209003.0 435985.0 0
213207.0 435671.0 0
216446.0 437978.0 0
219410.0 435945.0 0
223931.0 435059.0 0
228071.0 436377.0 0
230842.0 433821.0 0
232423.0 437781.0 0
235584.0 436248.0 0
239447.0 434849.0 0
244565.0 435370.0 0
241958.0 438614.0 0
248250.0 437690.0 0
249364.0 434123.0 0
252719.0 437153.0 0
257328.0 434679.0 0
261102.0 438333.0 0
265565.0 436785.0 0
269473.0 434183.0 0
269113.0 438042.0 0
273489.0 437106.0 0
277724.0 437817.0 0
280939.0 436050.0 0
285134.0 434440.0 0
283790.0 438308.0 0
289107.0 435476.0 0
291726.0 434405.0 0
292082.0 437767.0 0
294936.0 435479.0 0
297795.0 437604.0 0
301742.0 437909.0 0
306922.0 436602.0 0
314285.0 433696.0 0
311300.0 436039.0 0
314250.0 437850.0 0
318051.0 437284.0 0
321928.0 433711.0 0
322665.0 437817.0 0
326756.0 435091.0 0
331240.0 435116.0 0
334827.0 434992.0 0
334197.0 438723.0 0
338546.0 437619.0 0
340279.0 434750.0 0
343135.0 434225.0 0
342420.0 437907.0 0
345805.0 437266.0 0
348981.0 435344.0 0
352460.0 436679.0 0
356032.0 435689.0 0
359966.0 435529.0 0
364432.0 435467.0 0
362788.0 438627.0 0
367997.0 436286.0 0
372908.0 434905.0 0
377035.0 434307.0 0
375488.0 438123.0 0
379557.0 437488.0 0
382492.0 436167.0 0
385823.0 435696.0 0
391193.0 435343.0 0
394486.0 436156.0 0
396589.0 438554.0 0
96403.9 441673.0 0
99072.5 440529.0 0
101925.0 439259.0 0
100415.0 443263.0 0
103014.0 442392.0 0
106424.0 442047.0 0
109869.0 440161.0 0
111105.0 443815.0 0
113585.0 439689.0 0
114653.0 442819.0 0
121866.0 439827.0 0
118536.0 441706.0 0
122018.0 443456.0 0
124344.0 440785.0 0
125005.0 443265.0 0
128113.0 439711.0 0
128616.0 443796.0 0
132166.0 440634.0 0
135290.0 442612.0 0
140600.0 440171.0 0
138945.0 443049.0 0
147534.0 439314.0 0
143386.0 441493.0 0
146313.0 443241.0 0
150209.0 442597.0 0
157553.0 439020.0 0
154713.0 442576.0 0
161595.0 439357.0 0
158823.0 443174.0 0
162873.0 443247.0 0
165810.0 439827.0 0
167457.0 443381.0 0
170086.0 440343.0 0
173563.0 440131.0 0
177508.0 441588.0 0
182284.0 440985.0 0
186305.0 439987.0 0
195271.0 441804.0 0
200033.0 442640.0 0
203822.0 439930.0 0
207693.0 440583.0 0
210665.0 442385.0 0
212080.0 439312.0 0
214832.0 441810.0 0
218161.0 441248.0 0
221265.0 439167.0 0
225310.0 439168.0 0
228835.0 440690.0 0
232895.0 442451.0 0
237057.0 439779.0 0
240993.0 442596.0 0
245954.0 441979.0 0
250536.0 440736.0 0
254074.0 441820.0 0
256525.0 438931.0 0
258527.0 442939.0 0
263985.0 442806.0 0
266948.0 440168.0 0
270775.0 441770.0 0
276320.0 442318.0 0
280640.0 440239.0 0
284561.0 442385.0 0
288128.0 439326.0 0
292203.0 441274.0 0
295195.0 439691.0 0
298573.0 441293.0 0
302922.0 442643.0 0
307054.0 441265.0 0
311303.0 440161.0 0
313709.0 443811.0 0
315725.0 441290.0 0
320672.0 442426.0 0
325968.0 440043.0 0
325803.0 443568.0 0
330055.0 439047.0 0
329614.0 443079.0 0
333440.0 442565.0 0
337696.0 441981.0 0
341928.0 441719.0 0
345621.0 440882.0 0
349332.0 439120.0 0
349546.0 443291.0 0
355477.0 439035.0 0
353002.0 440922.0 0
356433.0 442935.0 0
358418.0 439001.0 0
360484.0 441939.0 0
366019.0 438927.0 0
364860.0 443483.0 0
371606.0 438802.0 0
368397.0 441355.0 0
370217.0 443865.0 0
373876.0 443048.0 0
377408.0 440735.0 0
381171.0 441032.0 0
384109.0 439649.0 0
385511.0 442758.0 0
388326.0 439177.0 0
392431.0 439142.0 0
389323.0 443475.0 0
393039.0 442517.0 0
396578.0 441906.0 0
399614.0 439010.0 0
401567.0 441193.0 0
399320.0 442215.0 0
404135.0 443756.0 0
89945.4 446011.0 0
87567.4 448632.0 0
94068.6 444911.0 0
92166.0 447660.0 0
96118.9 447888.0 0
97887.5 444154.0 0
99165.9 447071.0 0
102626.0 446338.0 0
106316.0 445999.0 0
109399.0 446001.0 0
113569.0 445945.0 0
117563.0 445347.0 0
121343.0 447073.0 0
125960.0 446821.0 0
131765.0 444861.0 0
129381.0 447691.0 0
135432.0 445934.0 0
138369.0 447531.0 0
142598.0 445357.0 0
147180.0 447611.0 0
151731.0 445867.0 0
155552.0 446614.0 0
159810.0 447848.0 0
164434.0 446883.0 0
172395.0 444654.0 0
168464.0 446640.0 0
176468.0 446390.0 0
180599.0 445233.0 0
184725.0 443954.0 0
189867.0 443980.0 0
193972.0 446505.0 0
196969.0 445700.0 0
200569.0 447432.0 0
204324.0 444104.0 0
207949.0 444824.0 0
205150.0 448948.0 0
209291.0 448390.0 0
212598.0 445635.0 0
214969.0 448416.0 0
218091.0 445336.0 0
224176.0 444227.0 0
220919.0 448508.0 0
229278.0 444534.0 0
228011.0 448820.0 0
232393.0 447389.0 0
237126.0 445775.0 0
242458.0 446828.0 0
246320.0 447194.0 0
250905.0 445517.0 0
255930.0 446782.0 0
260666.0 447197.0 0
264589.0 447400.0 0
268018.0 445417.0 0
273105.0 447372.0 0
277791.0 447242.0 0
280751.0 444705.0 0
284569.0 446689.0 0
289676.0 445346.0 0
295341.0 444181.0 0
293970.0 448286.0 0
299361.0 444997.0 0
302796.0 447609.0 0
310240.0 444277.0 0
306543.0 445608.0 0
309666.0 447937.0 0
312771.0 447686.0 0
316853.0 446385.0 0
320624.0 447627.0 0
323709.0 446240.0 0
328245.0 447778.0 0
332163.0 445585.0 0
336523.0 446190.0 0
340929.0 445471.0 0
345573.0 445445.0 0
343703.0 448603.0 0
350561.0 448317.0 0
353244.0 444564.0 0
355865.0 447507.0 0
359850.0 445717.0 0
363939.0 447768.0 0
368784.0 446531.0 0
372861.0 446943.0 0
376633.0 447472.0 0
378146.0 444361.0 0
382101.0 444767.0 0
380396.0 448113.0 0
386109.0 447020.0 0
390836.0 447078.0 0
396784.0 445295.0 0
393717.0 445701.0 0
400342.0 445755.0 0
399301.0 448938.0 0
407464.0 445140.0 0
403925.0 447931.0 0
410627.0 447070.0 0
413407.0 448618.0 0
78255.1 453636.0 0
81383.1 451817.0 0
83844.3 450017.0 0
86355.1 452479.0 0
90757.6 450286.0 0
90159.3 454005.0 0
94412.9 450619.0 0
94373.2 454004.0 0
97986.8 450807.0 0
100608.0 449820.0 0
103632.0 449697.0 0
106793.0 449944.0 0
102179.0 452620.0 0
105377.0 453900.0 0
111362.0 449419.0 0
109145.0 453420.0 0
116271.0 449143.0 0
113086.0 453174.0 0
116311.0 452526.0 0
119947.0 450886.0 0
118703.0 453715.0 0
124166.0 451074.0 0
128147.0 451220.0 0
133023.0 449926.0 0
134552.0 453801.0 0
142192.0 449633.0 0
137758.0 451535.0 0
141302.0 453918.0 0
145063.0 451757.0 0
151768.0 449825.0 0
148364.0 452279.0 0
152092.0 453692.0 0
155798.0 450936.0 0
159079.0 452769.0 0
162636.0 451244.0 0
165408.0 453859.0 0
166877.0 450284.0 0
170566.0 449070.0 0
169996.0 453717.0 0
174144.0 450264.0 0
177165.0 453294.0 0
179245.0 449622.0 0
181054.0 453285.0 0
184847.0 449172.0 0
184109.0 453562.0 0
187843.0 454078.0 0
190594.0 449755.0 0
191923.0 453519.0 0
196000.0 450780.0 0
201318.0 451998.0 0
208291.0 451824.0 0
212327.0 451253.0 0
217273.0 451210.0 0
220925.0 451681.0 0
224087.0 450030.0 0
222823.0 453662.0 0
226906.0 454008.0 0
231190.0 452024.0 0
235403.0 451091.0 0
239751.0 450113.0 0
241367.0 452909.0 0
244229.0 451205.0 0
248911.0 450742.0 0
253210.0 449914.0 0
257874.0 451983.0 0
263380.0 451703.0 0
268151.0 450295.0 0
272314.0 453049.0 0
277229.0 452075.0 0
281538.0 449483.0 0
283079.0 453634.0 0
286739.0 450762.0 0
290202.0 453965.0 0
291049.0 450364.0 0
294258.0 453074.0 0
298367.0 449602.0 0
303259.0 452592.0 0
306983.0 450191.0 0
311024.0 451456.0 0
315411.0 451139.0 0
319888.0 451251.0 0
323692.0 449503.0 0
323749.0 452846.0 0
326892.0 451898.0 0
330324.0 453230.0 0
332970.0 449600.0 0
340310.0 449408.0 0
337180.0 450723.0 0
339947.0 453482.0 0
346773.0 450570.0 0
343521.0 452434.0 0
349684.0 453971.0 0
353852.0 452063.0 0
360436.0 449662.0 0
357330.0 451499.0 0
360446.0 453499.0 0
367331.0 450111.0 0
364316.0 452596.0 0
368897.0 453804.0 0
371541.0 450626.0 0
375662.0 451029.0 0
379459.0 451533.0 0
383909.0 450617.0 0
389140.0 451092.0 0
392724.0 450632.0 0
395727.0 449292.0 0
393420.0 453323.0 0
397018.0 454015.0 0
402123.0 449879.0 0
399650.0 451776.0 0
402002.0 452604.0 0
407556.0 449599.0 0
404412.0 452098.0 0
407453.0 453637.0 0
411319.0 451515.0 0
416038.0 451335.0 0
419626.0 453720.0 0
75342.4 454948.0 0
72856.2 456938.0 0
76260.6 458154.0 0
79492.1 456391.0 0
82459.7 454176.0 0
84983.3 456138.0 0
88204.5 457402.0 0
91728.5 457253.0 0
94457.2 457251.0 0
98615.4 454289.0 0
98461.3 458729.0 0
102486.0 456577.0 0
105479.0 458304.0 0
107781.0 456578.0 0
111586.0 457119.0 0
115719.0 456028.0 0
114977.0 458676.0 0
122154.0 454569.0 0
118985.0 457749.0 0
125904.0 455014.0 0
123131.0 458513.0 0
127073.0 459131.0 0
130076.0 454929.0 0
133482.0 457085.0 0
137415.0 455864.0 0
140777.0 458871.0 0
145099.0 455619.0 0
149025.0 456130.0 0
152529.0 457057.0 0
155414.0 455201.0 0
158454.0 456371.0 0
160687.0 459172.0 0
161870.0 455120.0 0
165667.0 458061.0 0
169968.0 457937.0 0
173998.0 456148.0 0
178740.0 456926.0 0
183278.0 457012.0 0
187606.0 458590.0 0
190847.0 456327.0 0
194402.0 455879.0 0
198602.0 455120.0 0
202009.0 458338.0 0
205047.0 454278.0 0
206919.0 459102.0 0
209766.0 455360.0 0
214360.0 455601.0 0
219181.0 455838.0 0
223417.0 456849.0 0
229238.0 458687.0 0
230236.0 455159.0 0
233861.0 456300.0 0
238421.0 454284.0 0
242298.0 455824.0 0
246859.0 455430.0 0
252466.0 454968.0 0
257248.0 457459.0 0
261848.0 456255.0 0
267336.0 455838.0 0
272691.0 457648.0 0
280088.0 456134.0 0
277104.0 459098.0 0
283704.0 457522.0 0
286712.0 455820.0 0
290411.0 457798.0 0
294403.0 457700.0 0
299150.0 455623.0 0
303881.0 456546.0 0
307783.0 455115.0 0
309982.0 458476.0 0
312814.0 455628.0 0
316136.0 458792.0 0
317715.0 455130.0 0
322098.0 455666.0 0
324663.0 459011.0 0
326889.0 456044.0 0
331534.0 457966.0 0
335280.0 454549.0 0
338898.0 457048.0 0
343044.0 456752.0 0
346132.0 454546.0 0
347310.0 457902.0 0
350462.0 458389.0 0
353792.0 456549.0 0
357439.0 454992.0 0
358102.0 459095.0 0
362124.0 457074.0 0
366178.0 456511.0 0
370198.0 458167.0 0
373400.0 455158.0 0
376485.0 457913.0 0
377836.0 454938.0 0
379922.0 458955.0 0
382744.0 455661.0 0
386972.0 454146.0 0
391136.0 455483.0 0
387874.0 458120.0 0
394874.0 457514.0 0
398314.0 458338.0 0
401329.0 456265.0 0
404874.0 455221.0 0
406746.0 458056.0 0
410371.0 455167.0 0
410738.0 458807.0 0
414005.0 454501.0 0
417093.0 456490.0 0
414154.0 457960.0 0
421541.0 457351.0 0
423938.0 455145.0 0
426841.0 457834.0 0
65782.7 462627.0 0
69165.4 460335.0 0
70722.6 463757.0 0
72508.2 459799.0 0
74133.7 463051.0 0
77774.9 461702.0 0
81656.5 459264.0 0
84977.9 459429.0 0
82740.9 463370.0 0
90799.6 459650.0 0
87262.4 461746.0 0
91204.1 463256.0 0
94110.5 460957.0 0
96519.7 463856.0 0
100468.0 462809.0 0
102958.0 460188.0 0
105018.0 462191.0 0
108845.0 461178.0 0
112148.0 463588.0 0
113307.0 460738.0 0
116357.0 460263.0 0
115501.0 463261.0 0
119799.0 462071.0 0
123534.0 462096.0 0
126684.0 464095.0 0
131041.0 460623.0 0
130998.0 464250.0 0
136022.0 460171.0 0
133779.0 463012.0 0
137668.0 464160.0 0
142172.0 462764.0 0
145501.0 459738.0 0
146010.0 464138.0 0
150019.0 460086.0 0
151035.0 464020.0 0
155223.0 459881.0 0
158795.0 462422.0 0
163645.0 463441.0 0
168528.0 462134.0 0
172257.0 459885.0 0
172870.0 463667.0 0
175974.0 460291.0 0
180163.0 461177.0 0
184039.0 461129.0 0
187573.0 463728.0 0
192315.0 460530.0 0
197010.0 459459.0 0
195970.0 464114.0 0
199680.0 462785.0 0
204176.0 463066.0 0
208600.0 463634.0 0
211503.0 459803.0 0
216259.0 460137.0 0
220905.0 460157.0 0
223328.0 463058.0 0
225195.0 459829.0 0
227632.0 463575.0 0
232673.0 461291.0 0
238302.0 459283.0 0
236014.0 464187.0 0
244187.0 460990.0 0
239938.0 463299.0 0
249743.0 459626.0 0
248714.0 463901.0 0
253923.0 460031.0 0
252541.0 463974.0 0
260086.0 460623.0 0
256764.0 463213.0 0
264529.0 460614.0 0
269411.0 461359.0 0
274107.0 462367.0 0
278652.0 462828.0 0
281677.0 460254.0 0
286675.0 460812.0 0
292400.0 462352.0 0
297782.0 461127.0 0
301991.0 459657.0 0
306188.0 460039.0 0
309878.0 461810.0 0
313007.0 460421.0 0
316878.0 463364.0 0
320453.0 460150.0 0
324137.0 462361.0 0
328333.0 461362.0 0
335811.0 459511.0 0
333033.0 462514.0 0
337211.0 463293.0 0
340294.0 460488.0 0
344830.0 461114.0 0
349316.0 462412.0 0
353797.0 461309.0 0
357185.0 462426.0 0
359975.0 463188.0 0
362365.0 460955.0 0
366238.0 460868.0 0
370323.0 462714.0 0
374093.0 460457.0 0
377492.0 460828.0 0
377563.0 463737.0 0
380925.0 462511.0 0
384442.0 460548.0 0
383875.0 464063.0 0
386457.0 463716.0 0
392205.0 459932.0 0
389062.0 462025.0 0
393925.0 463221.0 0
396726.0 460930.0 0
399910.0 459726.0 0
400157.0 462256.0 0
403270.0 459897.0 0
405900.0 461611.0 0
408084.0 461056.0 0
403632.0 463697.0 0
412362.0 461134.0 0
410057.0 462510.0 0
415795.0 461164.0 0
413631.0 464202.0 0
418295.0 463812.0 0
418853.0 459279.0 0
421033.0 461743.0 0
423825.0 459832.0 0
423821.0 463856.0 0
426759.0 462385.0 0
430493.0 460396.0 0
430192.0 464176.0 0
434576.0 462726.0 0
55511.0 468840.0 0
58444.5 465884.0 0
59609.7 468572.0 0
61974.3 464632.0 0
63821.3 467674.0 0
67487.6 465870.0 0
71423.2 467245.0 0
75289.0 467029.0 0
78749.4 465449.0 0
80753.0 468094.0 0
84943.1 466418.0 0
88618.1 466140.0 0
91611.2 468604.0 0
93156.3 465312.0 0
95623.1 467799.0 0
99846.2 466774.0 0
103530.0 464569.0 0
103772.0 467588.0 0
107811.0 465992.0 0
112018.0 466424.0 0
113975.0 469341.0 0
115179.0 466304.0 0
118256.0 465316.0 0
117879.0 469008.0 0
121981.0 466140.0 0
124890.0 468148.0 0
129304.0 468309.0 0
133728.0 465862.0 0
138321.0 467836.0 0
141691.0 466420.0 0
144064.0 468422.0 0
147847.0 468215.0 0
151844.0 468126.0 0
155464.0 465080.0 0
157954.0 468031.0 0
159620.0 465499.0 0
161812.0 468520.0 0
166108.0 467483.0 0
169623.0 466340.0 0
176797.0 464363.0 0
174108.0 468772.0 0
179791.0 464666.0 0
179145.0 468380.0 0
183051.0 465270.0 0
187824.0 468276.0 0
192017.0 466060.0 0
198059.0 466750.0 0
200975.0 466179.0 0
205029.0 468189.0 0
210028.0 468098.0 0
213178.0 464327.0 0
218695.0 465306.0 0
214550.0 469090.0 0
223653.0 466755.0 0
227379.0 468669.0 0
231617.0 466011.0 0
240168.0 467279.0 0
245384.0 466970.0 0
250247.0 467748.0 0
255287.0 468446.0 0
262058.0 466643.0 0
267509.0 465455.0 0
271330.0 465763.0 0
276268.0 466556.0 0
282860.0 465110.0 0
288468.0 466183.0 0
292941.0 467180.0 0
297060.0 465801.0 0
302360.0 464540.0 0
305339.0 469369.0 0
307345.0 464985.0 0
309545.0 468844.0 0
312655.0 465617.0 0
317379.0 468496.0 0
321620.0 465875.0 0
325872.0 465251.0 0
330220.0 466542.0 0
334713.0 466415.0 0
338498.0 466671.0 0
340995.0 469062.0 0
341967.0 464872.0 0
346187.0 464895.0 0
345139.0 468289.0 0
349643.0 467583.0 0
352731.0 465247.0 0
354046.0 468703.0 0
356587.0 465561.0 0
361329.0 466855.0 0
364027.0 464447.0 0
364957.0 468395.0 0
367577.0 465803.0 0
368779.0 469386.0 0
371661.0 466689.0 0
374128.0 464363.0 0
376921.0 467793.0 0
381284.0 466729.0 0
385607.0 466687.0 0
390524.0 466185.0 0
397441.0 464430.0 0
395569.0 468100.0 0
400895.0 466556.0 0
406877.0 464344.0 0
405205.0 466979.0 0
410169.0 466489.0 0
416512.0 466517.0 0
413590.0 468836.0 0
420939.0 465494.0 0
418854.0 468902.0 0
422423.0 468246.0 0
425287.0 466887.0 0
428085.0 465438.0 0
432333.0 465058.0 0
429712.0 468104.0 0
431992.0 467135.0 0
436130.0 466203.0 0
434667.0 469169.0 0
438128.0 469271.0 0
438978.0 464703.0 0
442918.0 466139.0 0
440889.0 467643.0 0
445263.0 468593.0 0
48991.1 472548.0 0
51499.6 469448.0 0
52802.4 472291.0 0
57298.6 471673.0 0
59843.5 471991.0 0
62422.5 470184.0 0
64199.0 472806.0 0
67609.4 470301.0 0
70779.6 473501.0 0
71589.0 470301.0 0
74173.4 470986.0 0
77601.3 470031.0 0
80112.4 472154.0 0
84212.1 470212.0 0
83164.0 473712.0 0
86477.1 473236.0 0
87805.3 469785.0 0
89821.3 472377.0 0
94006.7 471811.0 0
97661.3 469686.0 0
101550.0 470641.0 0
97908.2 472537.0 0
106103.0 470237.0 0
103781.0 473810.0 0
110406.0 469980.0 0
108425.0 473122.0 0
113836.0 473075.0 0
121764.0 470375.0 0
118288.0 472585.0 0
125262.0 471705.0 0
129584.0 472994.0 0
134530.0 470131.0 0
132766.0 474386.0 0
140340.0 471489.0 0
145422.0 472002.0 0
150110.0 472613.0 0
154904.0 470198.0 0
157348.0 473096.0 0
158761.0 470410.0 0
160830.0 473143.0 0
164881.0 472135.0 0
169304.0 470614.0 0
172458.0 473485.0 0
176222.0 473374.0 0
180013.0 472457.0 0
183855.0 469929.0 0
187849.0 472458.0 0
190886.0 470096.0 0
192202.0 473717.0 0
195374.0 469713.0 0
199946.0 469976.0 0
203156.0 473381.0 0
207742.0 472512.0 0
211538.0 472267.0 0
214846.0 473382.0 0
218815.0 471304.0 0
223316.0 470884.0 0
227007.0 474269.0 0
230926.0 470566.0 0
232393.0 474443.0 0
235267.0 469506.0 0
238885.0 471697.0 0
236313.0 474006.0 0
242970.0 471583.0 0
247682.0 471431.0 0
251687.0 471470.0 0
255025.0 474196.0 0
258905.0 471631.0 0
263501.0 473312.0 0
268012.0 469965.0 0
272587.0 469526.0 0
271714.0 473639.0 0
280150.0 469646.0 0
276228.0 472013.0 0
285284.0 471088.0 0
291013.0 471254.0 0
295693.0 470118.0 0
299581.0 474110.0 0
300357.0 469696.0 0
303756.0 473824.0 0
309391.0 472283.0 0
313370.0 470824.0 0
317409.0 472885.0 0
321143.0 470064.0 0
321815.0 473425.0 0
325852.0 470102.0 0
330436.0 474360.0 0
332750.0 470408.0 0
335772.0 474258.0 0
337054.0 469931.0 0
340170.0 472966.0 0
343480.0 471456.0 0
347543.0 472170.0 0
351699.0 472120.0 0
355966.0 472247.0 0
358372.0 469517.0 0
359771.0 473605.0 0
362309.0 470371.0 0
363507.0 473580.0 0
366564.0 470484.0 0
364965.0 471021.0 0
367671.0 474361.0 0
370236.0 471746.0 0
373140.0 470140.0 0
372678.0 474175.0 0
377518.0 472986.0 0
380564.0 470484.0 0
383953.0 470279.0 0
387553.0 473683.0 0
388083.0 469633.0 0
392289.0 471477.0 0
396257.0 473610.0 0
399113.0 470739.0 0
401229.0 474244.0 0
403324.0 470042.0 0
408003.0 469779.0 0
405999.0 473711.0 0
411496.0 472173.0 0
416203.0 472074.0 0
420751.0 471903.0 0
423841.0 471550.0 0
427056.0 470308.0 0
428474.0 473853.0 0
431551.0 471342.0 0
435922.0 472263.0 0
438716.0 471952.0 0
441506.0 471061.0 0
444169.0 471407.0 0
448329.0 470556.0 0
446407.0 473056.0 0
451622.0 472265.0 0
38833.5 479188.0 0
41631.0 476381.0 0
45398.3 474720.0 0
44910.1 478515.0 0
49019.7 475935.0 0
48746.2 478915.0 0
51913.1 476323.0 0
56111.5 475014.0 0
60704.9 475208.0 0
58233.1 478534.0 0
64032.8 475886.0 0
62213.1 479106.0 0
67138.0 474612.0 0
66975.2 478487.0 0
76002.6 474737.0 0
71443.7 477220.0 0
80379.4 475674.0 0
78294.2 478374.0 0
81431.9 479013.0 0
84193.3 476361.0 0
87395.7 475674.0 0
91099.4 476292.0 0
95577.2 476065.0 0
100172.0 475453.0 0
97988.1 478986.0 0
101943.0 478523.0 0
105921.0 476502.0 0
110602.0 475764.0 0
108614.0 479227.0 0
117086.0 475894.0 0
113837.0 478602.0 0
121520.0 474945.0 0
118701.0 479115.0 0
123119.0 479179.0 0
126129.0 475850.0 0
130110.0 477050.0 0
136236.0 474758.0 0
133324.0 477364.0 0
136153.0 479047.0 0
139527.0 476477.0 0
142593.0 477406.0 0
143037.0 474738.0 0
146474.0 476011.0 0
148170.0 479591.0 0
150780.0 477148.0 0
154054.0 474698.0 0
154390.0 478391.0 0
158212.0 476798.0 0
162705.0 477275.0 0
168253.0 476394.0 0
173999.0 478082.0 0
178968.0 476713.0 0
183822.0 475299.0 0
188487.0 477124.0 0
192902.0 477642.0 0
197581.0 475235.0 0
202237.0 477477.0 0
206612.0 477178.0 0
211150.0 475962.0 0
209897.0 479246.0 0
217320.0 475857.0 0
221764.0 475223.0 0
224305.0 478838.0 0
229941.0 478718.0 0
235266.0 478929.0 0
240182.0 476055.0 0
245200.0 475696.0 0
250053.0 475849.0 0
259082.0 475374.0 0
258224.0 479183.0 0
261671.0 477816.0 0
267919.0 474549.0 0
265640.0 478358.0 0
270303.0 478171.0 0
276076.0 477476.0 0
280802.0 474499.0 0
280983.0 478813.0 0
284825.0 477051.0 0
288132.0 474813.0 0
291042.0 477058.0 0
295144.0 474676.0 0
298428.0 477478.0 0
301306.0 476901.0 0
304581.0 478555.0 0
307898.0 475665.0 0
308381.0 479586.0 0
312988.0 475914.0 0
318846.0 478306.0 0
325851.0 474534.0 0
323766.0 477393.0 0
327628.0 478068.0 0
330989.0 478974.0 0
334878.0 478802.0 0
340121.0 477840.0 0
344208.0 475056.0 0
345454.0 478970.0 0
348252.0 476285.0 0
354682.0 474630.0 0
352129.0 476666.0 0
357321.0 476916.0 0
362660.0 478124.0 0
367228.0 479401.0 0
371281.0 478044.0 0
375703.0 477418.0 0
382645.0 474496.0 0
379776.0 477104.0 0
382526.0 478850.0 0
386690.0 478543.0 0
391779.0 475921.0 0
395751.0 477538.0 0
398815.0 476540.0 0
401130.0 477306.0 0
405000.0 478673.0 0
410272.0 476130.0 0
414692.0 475615.0 0
413793.0 479400.0 0
416808.0 478494.0 0
419704.0 475622.0 0
423091.0 478691.0 0
424343.0 474948.0 0
426939.0 477705.0 0
433518.0 474577.0 0
430870.0 477409.0 0
437654.0 475074.0 0
435271.0 477722.0 0
438662.0 478393.0 0
441516.0 474787.0 0
442072.0 478119.0 0
444787.0 475241.0 0
444696.0 478511.0 0
447941.0 477588.0 0
449306.0 474498.0 0
451961.0 475899.0 0
451949.0 479376.0 0
454607.0 474553.0 0
458566.0 477003.0 0
455517.0 477548.0 0
462286.0 478859.0 0
32312.1 482378.0 0
35081.8 480463.0 0
36705.9 483644.0 0
40774.8 483905.0 0
41985.8 480499.0 0
44342.1 482739.0 0
46535.9 481558.0 0
46876.9 484437.0 0
49755.1 482338.0 0
53698.0 479704.0 0
53033.9 484176.0 0
58442.2 483760.0 0
63620.7 482698.0 0
70852.3 480996.0 0
67560.8 482989.0 0
74659.4 479663.0 0
72812.4 483840.0 0
77946.7 482314.0 0
86531.3 479633.0 0
82951.7 482625.0 0
90579.0 480731.0 0
87877.8 484353.0 0
94146.6 479897.0 0
92593.2 483837.0 0
96125.1 481943.0 0
99562.4 481961.0 0
104660.0 479999.0 0
102550.0 481714.0 0
105346.0 482849.0 0
110259.0 483207.0 0
115795.0 482715.0 0
120740.0 482998.0 0
127455.0 479758.0 0
124682.0 482266.0 0
128127.0 483582.0 0
131871.0 480835.0 0
135437.0 482551.0 0
139877.0 480757.0 0
144267.0 480197.0 0
143057.0 484295.0 0
146952.0 483101.0 0
151980.0 482779.0 0
157545.0 481050.0 0
162503.0 482887.0 0
166626.0 480920.0 0
167938.0 484506.0 0
170155.0 480988.0 0
173292.0 484093.0 0
178048.0 481459.0 0
182387.0 479907.0 0
182005.0 484592.0 0
186407.0 482125.0 0
190663.0 480757.0 0
195384.0 481764.0 0
199695.0 479917.0 0
203642.0 482024.0 0
209083.0 483805.0 0
214217.0 479866.0 0
219751.0 479619.0 0
222812.0 483315.0 0
226999.0 481806.0 0
231541.0 483839.0 0
239469.0 481687.0 0
236125.0 483795.0 0
243277.0 479698.0 0
248173.0 481540.0 0
253739.0 479675.0 0
256982.0 483320.0 0
261988.0 482562.0 0
267933.0 483861.0 0
273106.0 481905.0 0
278319.0 483824.0 0
284053.0 482131.0 0
289447.0 481610.0 0
295043.0 480503.0 0
300526.0 481012.0 0
297612.0 484474.0 0
305288.0 483291.0 0
310170.0 483276.0 0
311290.0 479703.0 0
314200.0 481178.0 0
317893.0 484038.0 0
322164.0 482872.0 0
325101.0 480831.0 0
328711.0 481770.0 0
332780.0 483163.0 0
338415.0 483431.0 0
342732.0 481819.0 0
346501.0 483141.0 0
350037.0 480716.0 0
354589.0 480359.0 0
356256.0 482899.0 0
358737.0 481073.0 0
362812.0 483872.0 0
367422.0 483626.0 0
371069.0 481955.0 0
374260.0 480879.0 0
374330.0 484515.0 0
378944.0 481678.0 0
383688.0 482641.0 0
387840.0 483815.0 0
391756.0 480715.0 0
396515.0 481284.0 0
394505.0 484008.0 0
399927.0 479708.0 0
403096.0 482517.0 0
407150.0 483782.0 0
409805.0 480940.0 0
413695.0 482624.0 0
416644.0 481719.0 0
419620.0 480112.0 0
422525.0 482053.0 0
419703.0 483623.0 0
426424.0 481296.0 0
430331.0 481084.0 0
433246.0 483530.0 0
433833.0 480000.0 0
437196.0 482077.0 0
441367.0 481043.0 0
444696.0 481644.0 0
448074.0 481425.0 0
448529.0 484604.0 0
452208.0 483325.0 0
455204.0 482398.0 0
455920.0 480373.0 0
457115.0 483843.0 0
459583.0 480954.0 0
463286.0 483386.0 0
465058.0 480841.0 0
468030.0 482504.0 0
470841.0 484276.0 0
22061.6 489019.0 0
25704.6 486763.0 0
29263.4 484918.0 0
29131.0 489105.0 0
33123.7 486417.0 0
35628.0 489757.0 0
37555.2 487069.0 0
40721.7 487864.0 0
44338.5 486472.0 0
49560.2 486912.0 0
46669.9 489019.0 0
53957.2 488448.0 0
60298.9 488837.0 0
63916.7 485926.0 0
64966.2 489464.0 0
68420.0 486604.0 0
76020.2 486005.0 0
72702.5 488537.0 0
79659.3 486117.0 0
77280.8 489486.0 0
83788.3 486322.0 0
86407.9 488954.0 0
90986.1 487982.0 0
96463.7 485940.0 0
101434.0 484848.0 0
105274.0 486870.0 0
109936.0 488368.0 0
113427.0 485456.0 0
115447.0 487875.0 0
117903.0 485381.0 0
120368.0 487930.0 0
124234.0 485718.0 0
124259.0 489785.0 0
132129.0 485425.0 0
128020.0 488175.0 0
131934.0 489673.0 0
135423.0 485820.0 0
138832.0 484981.0 0
141750.0 488557.0 0
147236.0 487678.0 0
152636.0 488168.0 0
156955.0 485774.0 0
160750.0 487908.0 0
164988.0 487531.0 0
170462.0 488098.0 0
177779.0 486093.0 0
180554.0 489539.0 0
186091.0 488171.0 0
190618.0 484999.0 0
191003.0 489164.0 0
194880.0 487326.0 0
199484.0 485286.0 0
204019.0 487981.0 0
208783.0 489055.0 0
212959.0 487674.0 0
217501.0 484768.0 0
221718.0 488869.0 0
226747.0 486433.0 0
230771.0 489034.0 0
238940.0 485578.0 0
235481.0 488254.0 0
243109.0 484713.0 0
240618.0 489610.0 0
247628.0 487710.0 0
252523.0 485027.0 0
256705.0 488007.0 0
261593.0 487873.0 0
270233.0 489022.0 0
265833.0 489162.0 0
273013.0 485847.0 0
275723.0 488235.0 0
282704.0 486736.0 0
287366.0 486859.0 0
293251.0 486477.0 0
297968.0 488232.0 0
301251.0 485636.0 0
304725.0 488046.0 0
301130.0 489195.0 0
307780.0 486407.0 0
311171.0 488045.0 0
313955.0 485029.0 0
316630.0 489494.0 0
321866.0 487478.0 0
326157.0 484947.0 0
325835.0 489232.0 0
330628.0 488153.0 0
335737.0 487421.0 0
339480.0 489786.0 0
343410.0 486923.0 0
348907.0 486452.0 0
353328.0 484982.0 0
352062.0 489628.0 0
356651.0 489413.0 0
358209.0 485401.0 0
361437.0 488911.0 0
366452.0 488901.0 0
370930.0 486140.0 0
370646.0 489390.0 0
374406.0 489492.0 0
377853.0 486413.0 0
381919.0 486271.0 0
385158.0 486211.0 0
391419.0 485568.0 0
388220.0 487888.0 0
391724.0 489365.0 0
395154.0 487278.0 0
399370.0 484803.0 0
398326.0 488813.0 0
402019.0 488720.0 0
404374.0 486045.0 0
405929.0 489170.0 0
411383.0 484968.0 0
408691.0 487522.0 0
412785.0 489269.0 0
415950.0 485627.0 0
420737.0 487199.0 0
424489.0 485286.0 0
424877.0 488977.0 0
427950.0 488439.0 0
428979.0 484853.0 0
432845.0 487977.0 0
437065.0 486310.0 0
441153.0 484843.0 0
440135.0 488780.0 0
443740.0 488084.0 0
445357.0 484987.0 0
447265.0 488176.0 0
451061.0 487658.0 0
455296.0 486745.0 0
459148.0 489350.0 0
460042.0 485335.0 0
463312.0 487461.0 0
466476.0 485149.0 0
469238.0 487244.0 0
465973.0 489539.0 0
473797.0 486377.0 0
472591.0 489619.0 0
477203.0 489211.0 0
15776.1 492563.0 0
19042.3 491170.0 0
25465.6 490174.0 0
20919.1 494120.0 0
23309.6 492227.0 0
26723.7 492988.0 0
29311.1 492765.0 0
32076.4 490810.0 0
31024.6 494433.0 0
34356.1 494014.0 0
39165.1 491632.0 0
43801.4 490938.0 0
41930.8 494573.0 0
45574.7 493427.0 0
49014.7 491562.0 0
53003.5 492872.0 0
56844.5 491636.0 0
56386.6 494865.0 0
59389.9 492964.0 0
63091.4 493037.0 0
68475.4 490773.0 0
66949.3 493744.0 0
70933.0 492015.0 0
70692.1 494800.0 0
74572.8 492343.0 0
81379.6 489834.0 0
79034.9 493635.0 0
84024.0 492841.0 0
88506.7 491948.0 0
94240.2 490539.0 0
96111.9 493876.0 0
100073.0 490144.0 0
102447.0 494560.0 0
105292.0 491045.0 0
106090.0 494352.0 0
108609.0 492436.0 0
112888.0 492300.0 0
117547.0 491893.0 0
121285.0 491802.0 0
124513.0 494471.0 0
128748.0 492348.0 0
136582.0 489829.0 0
132710.0 493786.0 0
140731.0 492326.0 0
144384.0 491956.0 0
145818.0 494781.0 0
150173.0 493208.0 0
156614.0 491431.0 0
162603.0 492484.0 0
167277.0 490726.0 0
170909.0 492542.0 0
174289.0 494363.0 0
175097.0 489849.0 0
178310.0 493922.0 0
183732.0 493960.0 0
189123.0 492797.0 0
193974.0 492108.0 0
198731.0 490168.0 0
202086.0 492656.0 0
206721.0 493400.0 0
211540.0 492094.0 0
216651.0 490660.0 0
220077.0 494565.0 0
226548.0 491913.0 0
233345.0 492828.0 0
237091.0 492180.0 0
244745.0 492037.0 0
248847.0 492608.0 0
252325.0 489960.0 0
259274.0 490856.0 0
256027.0 493326.0 0
262611.0 493126.0 0
268107.0 493724.0 0
274082.0 492889.0 0
279794.0 490251.0 0
278765.0 494614.0 0
284990.0 491429.0 0
290392.0 491656.0 0
295394.0 491687.0 0
299412.0 491839.0 0
303030.0 491959.0 0
307754.0 491818.0 0
312328.0 492429.0 0
318996.0 493590.0 0
322986.0 492858.0 0
327913.0 492887.0 0
332159.0 492767.0 0
335788.0 491743.0 0
339479.0 494641.0 0
343291.0 492060.0 0
347544.0 490363.0 0
347234.0 494833.0 0
350806.0 493039.0 0
354921.0 493519.0 0
360295.0 493625.0 0
365649.0 494169.0 0
370875.0 493001.0 0
375947.0 494729.0 0
379242.0 490449.0 0
381119.0 494345.0 0
384523.0 490322.0 0
388995.0 491933.0 0
392523.0 492985.0 0
395519.0 491285.0 0
399863.0 491899.0 0
404655.0 492659.0 0
409107.0 492080.0 0
412375.0 492675.0 0
417453.0 490228.0 0
415009.0 493470.0 0
422472.0 490960.0 0
426536.0 491585.0 0
424851.0 493788.0 0
430140.0 491910.0 0
437079.0 490438.0 0
434164.0 492217.0 0
437188.0 494195.0 0
442828.0 490998.0 0
440161.0 492532.0 0
443774.0 494014.0 0
446094.0 491258.0 0
450300.0 491701.0 0
454649.0 491459.0 0
458341.0 493741.0 0
462385.0 491736.0 0
465914.0 493112.0 0
469534.0 491980.0 0
474350.0 492423.0 0
471916.0 494643.0 0
478454.0 493371.0 0
481562.0 491550.0 0
483195.0 494614.0 0
485271.0 492949.0 0
9731.69 495892.0 0
7208.01 497918.0 0
13058.5 494937.0 0
10597.4 499140.0 0
14737.4 497861.0 0
17574.2 495719.0 0
18268.5 499774.0 0
24711.8 495343.0 0
21669.2 497866.0 0
28275.1 496052.0 0
25838.0 498634.0 0
29602.4 499402.0 0
31174.5 496873.0 0
34289.9 498572.0 0
37661.2 495185.0 0
39349.3 498080.0 0
44566.5 497366.0 0
47616.0 495188.0 0
50261.4 495126.0 0
49021.6 498571.0 0
53164.7 496785.0 0
59907.9 496325.0 0
56772.6 498544.0 0
63662.2 497163.0 0
67163.6 497337.0 0
70608.8 498153.0 0
74671.2 496100.0 0
78331.4 497961.0 0
86477.7 495666.0 0
82192.2 496425.0 0
84617.7 498925.0 0
91431.0 495065.0 0
88080.0 499360.0 0
91891.4 499764.0 0
95538.1 497901.0 0
98898.4 495390.0 0
99778.7 499090.0 0
104655.0 498532.0 0
110000.0 497008.0 0
115369.0 496353.0 0
119740.0 495555.0 0
118013.0 499616.0 0
122284.0 498905.0 0
128710.0 497400.0 0
137499.0 494920.0 0
133966.0 498690.0 0
138791.0 499422.0 0
142245.0 496323.0 0
146575.0 498163.0 0
151569.0 499264.0 0
154610.0 495709.0 0
158793.0 497099.0 0
163543.0 497549.0 0
167235.0 495144.0 0
171077.0 496866.0 0
175198.0 498206.0 0
180190.0 499196.0 0
184863.0 498586.0 0
187505.0 496672.0 0
192156.0 497372.0 0
198046.0 495812.0 0
202980.0 496477.0 0
206853.0 499727.0 0
210521.0 496075.0 0
214731.0 495168.0 0
217408.0 499080.0 0
224579.0 496678.0 0
229743.0 496511.0 0
234072.0 499609.0 0
236460.0 495495.0 0
238540.0 498699.0 0
240941.0 495011.0 0
246115.0 496950.0 0
251467.0 496158.0 0
259318.0 495799.0 0
256062.0 499523.0 0
262173.0 498564.0 0
267156.0 498716.0 0
271806.0 497960.0 0
276266.0 497571.0 0
279897.0 497705.0 0
282530.0 495348.0 0
287530.0 496448.0 0
293403.0 496675.0 0
298184.0 495222.0 0
300047.0 498739.0 0
304567.0 496448.0 0
310556.0 496966.0 0
315576.0 495207.0 0
315358.0 499730.0 0
320184.0 497555.0 0
326159.0 498216.0 0
330925.0 496202.0 0
335211.0 496194.0 0
337096.0 499765.0 0
341315.0 499159.0 0
343507.0 496111.0 0
346536.0 499828.0 0
351772.0 497666.0 0
357518.0 498046.0 0
363170.0 499089.0 0
369080.0 495919.0 0
368033.0 498614.0 0
371912.0 497480.0 0
375215.0 499965.0 0
380013.0 498765.0 0
386095.0 496187.0 0
390450.0 495019.0 0
390997.0 498650.0 0
396943.0 495241.0 0
393276.0 496006.0 0
395478.0 499461.0 0
401768.0 496004.0 0
399008.0 498931.0 0
402704.0 499857.0 0
407559.0 497565.0 0
411917.0 495613.0 0
412196.0 499409.0 0
415563.0 497747.0 0
419876.0 495121.0 0
428251.0 495169.0 0
424773.0 498250.0 0
432975.0 495999.0 0
429665.0 499420.0 0
437761.0 498144.0 0
440945.0 495814.0 0
441654.0 499294.0 0
447923.0 495031.0 0
444478.0 497418.0 0
448760.0 498938.0 0
453470.0 496187.0 0
458533.0 497472.0 0
462873.0 496318.0 0
468280.0 496802.0 0
465771.0 499869.0 0
472502.0 498659.0 0
475420.0 495943.0 0
476472.0 499849.0 0
480420.0 497737.0 0
484884.0 497587.0 0
487798.0 495764.0 0
491565.0 497999.0 0
495025.0 499875.0 0
3455.58 500005.0 0
3127.59 504454.0 0
7304.37 501856.0 0
14244.0 500861.0 0
10865.0 503269.0 0
15862.5 503910.0 0
19662.6 503322.0 0
22709.6 501235.0 0
26819.4 502839.0 0
31953.7 503352.0 0
36925.4 501934.0 0
39881.2 504667.0 0
41855.7 501229.0 0
45770.9 501005.0 0
48674.3 502676.0 0
53131.4 500724.0 0
51768.5 504497.0 0
55636.8 504083.0 0
57480.3 501430.0 0
60348.3 500015.0 0
60112.5 503914.0 0
64004.7 501106.0 0
63493.4 504887.0 0
67676.8 500343.0 0
67544.9 503974.0 0
70297.6 501441.0 0
73900.9 500073.0 0
72349.2 504269.0 0
81391.6 500530.0 0
77078.2 502241.0 0
84857.9 502407.0 0
88909.5 503433.0 0
92398.3 502211.0 0
94833.5 501518.0 0
96894.8 500724.0 0
98037.1 503326.0 0
102523.0 502632.0 0
108222.0 502790.0 0
113251.0 500483.0 0
112619.0 504280.0 0
116093.0 503143.0 0
120682.0 503201.0 0
125382.0 501904.0 0
130111.0 502519.0 0
134693.0 503361.0 0
138517.0 503168.0 0
142949.0 501572.0 0
147408.0 502050.0 0
151093.0 504915.0 0
156310.0 501705.0 0
161732.0 501960.0 0
167306.0 500422.0 0
170899.0 504301.0 0
172151.0 500539.0 0
175721.0 503281.0 0
180472.0 504775.0 0
184394.0 502431.0 0
187880.0 500327.0 0
187392.0 504402.0 0
191350.0 503040.0 0
196246.0 501297.0 0
201303.0 500699.0 0
199336.0 504948.0 0
212554.0 500319.0 0
216387.0 504171.0 0
221923.0 501361.0 0
226743.0 500302.0 0
229900.0 502843.0 0
234072.0 504741.0 0
237834.0 502599.0 0
242448.0 501303.0 0
249584.0 500334.0 0
246435.0 505049.0 0
252005.0 504456.0 0
260187.0 502959.0 0
256761.0 504971.0 0
264724.0 503387.0 0
270439.0 503209.0 0
275208.0 501452.0 0
278688.0 500305.0 0
278831.0 503751.0 0
283356.0 500907.0 0
289041.0 501341.0 0
286846.0 505094.0 0
292819.0 501356.0 0
296419.0 500813.0 0
299867.0 502596.0 0
303546.0 501578.0 0
307272.0 500243.0 0
310989.0 502773.0 0
306366.0 504907.0 0
315409.0 504091.0 0
319530.0 502711.0 0
323944.0 502553.0 0
328232.0 504757.0 0
332351.0 500814.0 0
336285.0 503867.0 0
339387.0 502694.0 0
343413.0 503485.0 0
347703.0 504782.0 0
350865.0 502386.0 0
354708.0 501642.0 0
359140.0 503109.0 0
364035.0 504540.0 0
367359.0 502042.0 0
370991.0 501480.0 0
374133.0 504452.0 0
378528.0 503449.0 0
382637.0 502912.0 0
383890.0 500192.0 0
387760.0 502310.0 0
393197.0 503237.0 0
399550.0 503852.0 0
405493.0 502773.0 0
410458.0 502942.0 0
415727.0 502579.0 0
419749.0 500239.0 0
421358.0 504751.0 0
423063.0 501638.0 0
426628.0 503209.0 0
431457.0 503750.0 0
434268.0 500301.0 0
435401.0 502767.0 0
438653.0 502173.0 0
442289.0 502218.0 0
445341.0 500497.0 0
445473.0 503665.0 0
448897.0 502776.0 0
452133.0 500692.0 0
456579.0 500794.0 0
461889.0 501107.0 0
459316.0 504276.0 0
465584.0 502680.0 0
469780.0 501916.0 0
479576.0 503028.0 0
474650.0 503140.0 0
484106.0 501650.0 0
488062.0 500216.0 0
487887.0 504491.0 0
490215.0 502132.0 0
492398.0 501993.0 0
494722.0 503197.0 0
497694.0 501629.0 0
2114.39 508047.0 0
7638.79 505762.0 0
5437.75 508724.0 0
8777.21 509167.0 0
12769.3 507454.0 0
18220.4 507113.0 0
16468.8 510169.0 0
22807.9 505945.0 0
24787.5 509363.0 0
27905.5 506756.0 0
31973.5 508483.0 0
36208.1 506268.0 0
40631.9 508376.0 0
44408.9 505191.0 0
44885.4 509783.0 0
48494.5 507027.0 0
52839.9 507841.0 0
57521.1 507540.0 0
61779.3 508335.0 0
65383.7 507246.0 0
68995.7 507668.0 0
75961.7 505545.0 0
73263.1 508248.0 0
80658.5 505250.0 0
77448.6 508316.0 0
85063.7 506909.0 0
89432.4 507776.0 0
93660.4 505518.0 0
97666.0 507819.0 0
100915.0 506084.0 0
104360.0 505835.0 0
107001.0 507539.0 0
110698.0 507136.0 0
112447.0 509856.0 0
114855.0 507172.0 0
117767.0 505503.0 0
119786.0 508492.0 0
123797.0 506138.0 0
127640.0 506565.0 0
129556.0 509552.0 0
131829.0 506745.0 0
136217.0 507301.0 0
138524.0 509105.0 0
140972.0 506753.0 0
145844.0 505910.0 0
155022.0 505313.0 0
154436.0 509286.0 0
158529.0 505861.0 0
158901.0 509572.0 0
162842.0 506872.0 0
166580.0 505347.0 0
166027.0 509874.0 0
169319.0 508029.0 0
173588.0 507943.0 0
177614.0 507770.0 0
184364.0 507054.0 0
189644.0 508690.0 0
195086.0 506395.0 0
200052.0 508937.0 0
204525.0 505704.0 0
208320.0 509998.0 0
210262.0 505168.0 0
212436.0 508809.0 0
216947.0 509754.0 0
220584.0 506220.0 0
225563.0 505819.0 0
229867.0 506851.0 0
232937.0 508901.0 0
238764.0 507847.0 0
242511.0 505372.0 0
244195.0 510041.0 0
249635.0 509763.0 0
255072.0 509166.0 0
260674.0 508112.0 0
267190.0 509277.0 0
272102.0 507642.0 0
275087.0 505609.0 0
275171.0 510158.0 0
278289.0 507501.0 0
282462.0 506641.0 0
286505.0 510153.0 0
291771.0 505781.0 0
297074.0 505595.0 0
299673.0 509122.0 0
302001.0 505960.0 0
307735.0 509998.0 0
313131.0 507825.0 0
317828.0 507341.0 0
320970.0 506376.0 0
323833.0 506247.0 0
326031.0 509018.0 0
321824.0 509883.0 0
330616.0 510142.0 0
333085.0 505809.0 0
334539.0 508782.0 0
337129.0 507464.0 0
340356.0 506123.0 0
340248.0 509667.0 0
344379.0 508308.0 0
349164.0 508591.0 0
354379.0 506891.0 0
360238.0 508053.0 0
365094.0 509023.0 0
369362.0 506103.0 0
374415.0 509983.0 0
381492.0 505837.0 0
378782.0 507607.0 0
382390.0 509121.0 0
385142.0 506101.0 0
386329.0 509731.0 0
390075.0 507691.0 0
395285.0 507895.0 0
398918.0 508634.0 0
402126.0 509319.0 0
406983.0 506065.0 0
403946.0 506347.0 0
406573.0 510011.0 0
410001.0 507184.0 0
413737.0 506831.0 0
417545.0 506737.0 0
420850.0 509156.0 0
426085.0 508391.0 0
431291.0 508014.0 0
436402.0 506226.0 0
442021.0 506687.0 0
439009.0 510057.0 0
447588.0 506635.0 0
445611.0 509848.0 0
453510.0 505801.0 0
459065.0 508401.0 0
463847.0 506308.0 0
468284.0 505345.0 0
468543.0 508591.0 0
472576.0 506666.0 0
477723.0 506671.0 0
476062.0 510024.0 0
483613.0 506765.0 0
488152.0 508584.0 0
492014.0 505963.0 0
496901.0 506035.0 0
2115.76 511075.0 0
2585.85 514553.0 0
6620.57 512375.0 0
12103.0 512764.0 0
17373.3 513401.0 0
20511.2 510423.0 0
24074.6 513052.0 0
20831.0 514266.0 0
28431.0 510997.0 0
32394.3 513362.0 0
36491.5 510913.0 0
41147.7 512629.0 0
45319.7 513781.0 0
49489.8 511343.0 0
54512.6 511252.0 0
52587.7 514187.0 0
58484.2 511179.0 0
56894.7 515079.0 0
65463.5 510570.0 0
61762.8 512850.0 0
65460.4 514646.0 0
69976.7 512373.0 0
75539.0 512107.0 0
80925.7 510785.0 0
78212.3 515263.0 0
82437.5 515070.0 0
86605.6 512239.0 0
92840.5 511011.0 0
97683.4 511779.0 0
102823.0 510406.0 0
108426.0 511252.0 0
109320.0 514700.0 0
115742.0 510858.0 0
112577.0 513633.0 0
119273.0 513689.0 0
125071.0 511377.0 0
129706.0 512769.0 0
133353.0 510676.0 0
133291.0 515288.0 0
137896.0 511581.0 0
141318.0 513424.0 0
143642.0 510340.0 0
145205.0 514012.0 0
148754.0 510333.0 0
152212.0 514807.0 0
157381.0 513122.0 0
162083.0 511243.0 0
165323.0 513681.0 0
170771.0 512934.0 0
176312.0 511783.0 0
180959.0 510588.0 0
179328.0 515123.0 0
185137.0 511024.0 0
187945.0 513534.0 0
183838.0 514846.0 0
194530.0 511014.0 0
198834.0 513751.0 0
203622.0 511315.0 0
206965.0 515029.0 0
212326.0 513365.0 0
217361.0 515280.0 0
222408.0 510223.0 0
222469.0 515040.0 0
227830.0 511180.0 0
233079.0 513701.0 0
237810.0 512961.0 0
242057.0 515040.0 0
247782.0 515224.0 0
253147.0 514027.0 0
258200.0 513256.0 0
262681.0 512878.0 0
271491.0 514142.0 0
276473.0 514575.0 0
280324.0 511402.0 0
289759.0 514831.0 0
291202.0 510370.0 0
295544.0 510451.0 0
299784.0 513328.0 0
302863.0 510421.0 0
304328.0 514285.0 0
312526.0 512224.0 0
317196.0 511920.0 0
326472.0 513103.0 0
321718.0 514831.0 0
336451.0 512883.0 0
342754.0 513620.0 0
347223.0 511791.0 0
352080.0 512302.0 0
356957.0 512410.0 0
361972.0 512691.0 0
365896.0 514354.0 0
369090.0 511895.0 0
372731.0 515051.0 0
376408.0 514983.0 0
379490.0 511827.0 0
384302.0 513359.0 0
389214.0 512467.0 0
393505.0 511827.0 0
395814.0 515253.0 0
398362.0 512220.0 0
403259.0 513553.0 0
411652.0 510951.0 0
408393.0 514914.0 0
416622.0 510926.0 0
413650.0 514862.0 0
422222.0 513087.0 0
426669.0 513575.0 0
430510.0 512081.0 0
435047.0 510788.0 0
434158.0 515147.0 0
438556.0 513640.0 0
442258.0 511782.0 0
446610.0 514354.0 0
450038.0 510414.0 0
452222.0 514519.0 0
454905.0 510964.0 0
458788.0 512049.0 0
456138.0 514381.0 0
464234.0 511833.0 0
469079.0 511945.0 0
472343.0 510407.0 0
472321.0 513632.0 0
474979.0 512854.0 0
478392.0 514050.0 0
481122.0 510638.0 0
483059.0 514664.0 0
486348.0 511839.0 0
492021.0 510469.0 0
490032.0 513847.0 0
494472.0 514354.0 0
497180.0 510212.0 0
498407.0 513173.0 0
3483.59 519277.0 0
8994.69 515771.0 0
6414.44 516011.0 0
8383.84 519228.0 0
12032.4 517968.0 0
15428.3 516240.0 0
18888.9 517224.0 0
15753.6 520192.0 0
23526.3 517594.0 0
27818.5 515330.0 0
27527.1 519473.0 0
31700.1 517979.0 0
36949.0 516245.0 0
40477.3 520252.0 0
41903.9 516405.0 0
45228.0 517672.0 0
49020.2 515756.0 0
49161.1 519703.0 0
52804.9 517646.0 0
56427.4 519406.0 0
60975.1 516820.0 0
64809.8 518669.0 0
68871.2 517054.0 0
71403.1 519878.0 0
73141.6 516063.0 0
75722.2 519522.0 0
80776.8 519647.0 0
85487.1 517599.0 0
90694.2 516734.0 0
95382.0 515329.0 0
96379.7 519273.0 0
99860.4 515569.0 0
101259.0 520271.0 0
105323.0 515916.0 0
110432.0 518530.0 0
115264.0 516577.0 0
119084.0 518555.0 0
123341.0 516505.0 0
125385.0 519016.0 0
128020.0 516669.0 0
131553.0 519775.0 0
135486.0 518853.0 0
138233.0 515863.0 0
142508.0 517276.0 0
147453.0 518069.0 0
151958.0 520287.0 0
156553.0 517956.0 0
161220.0 515729.0 0
165116.0 518038.0 0
167497.0 515767.0 0
169691.0 518702.0 0
175138.0 516356.0 0
178663.0 519803.0 0
187342.0 517143.0 0
183813.0 519887.0 0
192568.0 516336.0 0
197966.0 519277.0 0
202583.0 517368.0 0
206068.0 520104.0 0
210913.0 518793.0 0
215666.0 519695.0 0
220192.0 519425.0 0
227778.0 515834.0 0
225216.0 519203.0 0
230998.0 519280.0 0
236951.0 517738.0 0
252306.0 519149.0 0
257209.0 518138.0 0
262297.0 518679.0 0
266378.0 515407.0 0
272438.0 519249.0 0
279964.0 515552.0 0
277919.0 519792.0 0
284169.0 515484.0 0
287498.0 518970.0 0
295168.0 515845.0 0
291442.0 519737.0 0
300062.0 519046.0 0
305313.0 518952.0 0
309303.0 515821.0 0
314562.0 516243.0 0
318500.0 517569.0 0
317444.0 520277.0 0
326029.0 518070.0 0
331152.0 515914.0 0
329687.0 519955.0 0
335386.0 518041.0 0
338878.0 517199.0 0
342877.0 519214.0 0
348679.0 516817.0 0
354564.0 516630.0 0
359038.0 516595.0 0
363739.0 517482.0 0
368983.0 517496.0 0
374526.0 519815.0 0
380079.0 515831.0 0
379538.0 519653.0 0
383905.0 518149.0 0
392125.0 515384.0 0
388319.0 516487.0 0
391912.0 518856.0 0
396408.0 519362.0 0
399925.0 516440.0 0
404337.0 518104.0 0
408644.0 520099.0 0
412005.0 518111.0 0
418092.0 515516.0 0
415504.0 518748.0 0
419053.0 519943.0 0
421910.0 517496.0 0
425667.0 517588.0 0
429939.0 516675.0 0
433463.0 519853.0 0
437701.0 517804.0 0
441916.0 515960.0 0
441062.0 519878.0 0
445016.0 519284.0 0
449179.0 518498.0 0
452660.0 518116.0 0
456377.0 518243.0 0
460227.0 515620.0 0
461039.0 520099.0 0
464678.0 517270.0 0
469078.0 515934.0 0
467620.0 519664.0 0
471284.0 520026.0 0
474744.0 517098.0 0
479858.0 518389.0 0
484230.0 518140.0 0
487298.0 515949.0 0
491945.0 518252.0 0
498022.0 515720.0 0
497286.0 518993.0 0
1339.1 522406.0 0
2722.53 525172.0 0
6829.5 522977.0 0
11532.6 522859.0 0
17047.7 524682.0 0
20493.9 521182.0 0
25052.8 521723.0 0
22626.1 524798.0 0
29889.1 521976.0 0
34961.3 521821.0 0
31747.1 525215.0 0
38668.6 524120.0 0
45076.7 521723.0 0
41879.8 523923.0 0
49172.6 523562.0 0
52757.2 521528.0 0
60697.1 521186.0 0
56542.4 523666.0 0
65218.6 523377.0 0
67934.2 520452.0 0
69646.3 523353.0 0
73777.1 523758.0 0
77808.7 523252.0 0
81490.6 524830.0 0
84659.9 521541.0 0
86670.3 524994.0 0
87657.2 520483.0 0
92016.5 522731.0 0
97614.8 523822.0 0
102803.0 525186.0 0
106065.0 521102.0 0
108349.0 525004.0 0
111385.0 522421.0 0
114833.0 520744.0 0
118808.0 522982.0 0
122788.0 520717.0 0
122912.0 524874.0 0
127406.0 522347.0 0
134742.0 522916.0 0
139244.0 520754.0 0
140964.0 524952.0 0
143914.0 521719.0 0
148117.0 523210.0 0
155829.0 522735.0 0
161056.0 521551.0 0
166569.0 522354.0 0
170228.0 522662.0 0
172443.0 525450.0 0
173809.0 520865.0 0
177087.0 524571.0 0
181808.0 524469.0 0
185770.0 523952.0 0
188839.0 520934.0 0
193678.0 522250.0 0
198350.0 523762.0 0
201800.0 521625.0 0
208893.0 523096.0 0
204887.0 524518.0 0
213118.0 523552.0 0
217717.0 523275.0 0
222165.0 523628.0 0
227275.0 524194.0 0
232735.0 524756.0 0
237314.0 522879.0 0
241678.0 520548.0 0
244116.0 524941.0 0
240520.0 525113.0 0
247151.0 521048.0 0
251596.0 524426.0 0
259759.0 522597.0 0
255810.0 522451.0 0
263658.0 523103.0 0
267561.0 520449.0 0
271398.0 523489.0 0
279903.0 524116.0 0
275785.0 525222.0 0
283646.0 521029.0 0
282791.0 524955.0 0
288220.0 523082.0 0
295419.0 520574.0 0
293111.0 524400.0 0
297834.0 523753.0 0
303404.0 522624.0 0
309534.0 521179.0 0
313997.0 520840.0 0
317351.0 523707.0 0
321532.0 520988.0 0
327080.0 524232.0 0
333135.0 521918.0 0
338136.0 521439.0 0
342128.0 524389.0 0
347409.0 522685.0 0
352606.0 521249.0 0
355567.0 524284.0 0
361239.0 520639.0 0
357225.0 520598.0 0
360664.0 525462.0 0
365808.0 522234.0 0
370180.0 521427.0 0
369840.0 524858.0 0
378679.0 523929.0 0
382699.0 522347.0 0
387910.0 521653.0 0
393336.0 523279.0 0
400999.0 520964.0 0
397965.0 523690.0 0
405132.0 522686.0 0
409040.0 524001.0 0
413393.0 522588.0 0
418580.0 523943.0 0
423551.0 521896.0 0
428721.0 521072.0 0
432373.0 524366.0 0
437578.0 523003.0 0
442967.0 523886.0 0
447973.0 522733.0 0
452746.0 522029.0 0
457584.0 522743.0 0
461458.0 523823.0 0
464999.0 522129.0 0
468626.0 522603.0 0
471878.0 524058.0 0
475144.0 521728.0 0
479000.0 523000.0 0
483475.0 521996.0 0
487896.0 520773.0 0
486722.0 524823.0 0
494266.0 522700.0 0
490444.0 524272.0 0
498230.0 522452.0 0
2358.85 529161.0 0
7527.84 527180.0 0
12947.7 527932.0 0
17437.5 529424.0 0
20325.5 527599.0 0
23708.3 528274.0 0
27336.3 525607.0 0
26818.8 530454.0 0
30994.7 529011.0 0
35500.9 527325.0 0
40441.1 527322.0 0
45304.5 526525.0 0
49418.5 527300.0 0
52672.5 525552.0 0
52009.8 529806.0 0
60745.8 526054.0 0
56197.5 528309.0 0
59824.6 530169.0 0
64727.1 527795.0 0
68303.8 526613.0 0
71913.1 527746.0 0
76852.0 527595.0 0
81093.2 528783.0 0
83870.6 527693.0 0
86598.9 528899.0 0
90264.4 528104.0 0
94400.7 527122.0 0
98515.1 528856.0 0
105418.0 529355.0 0
110299.0 529965.0 0
114050.0 525770.0 0
119156.0 527427.0 0
122720.0 528572.0 0
126308.0 527484.0 0
131305.0 526584.0 0
136952.0 527523.0 0
141272.0 530222.0 0
144842.0 526927.0 0
148443.0 529283.0 0
152275.0 526348.0 0
158385.0 527410.0 0
163745.0 526103.0 0
168232.0 526186.0 0
165783.0 529763.0 0
170825.0 530529.0 0
175316.0 528506.0 0
179763.0 528775.0 0
184910.0 528354.0 0
189742.0 525988.0 0
194887.0 527089.0 0
199145.0 527463.0 0
203195.0 529206.0 0
208420.0 528019.0 0
214185.0 529110.0 0
219332.0 527281.0 0
223710.0 527958.0 0
227910.0 529240.0 0
232431.0 529812.0 0
237249.0 528012.0 0
242068.0 528558.0 0
247758.0 529327.0 0
253714.0 528922.0 0
257826.0 526428.0 0
262604.0 527307.0 0
267252.0 525568.0 0
271577.0 528058.0 0
280275.0 528356.0 0
275757.0 529914.0 0
285805.0 527277.0 0
290187.0 527948.0 0
295054.0 529212.0 0
301598.0 526671.0 0
305059.0 530143.0 0
306929.0 525565.0 0
309552.0 529939.0 0
312563.0 525632.0 0
314275.0 530608.0 0
317086.0 527606.0 0
321382.0 526377.0 0
329093.0 529973.0 0
332041.0 526179.0 0
333436.0 529345.0 0
336490.0 526100.0 0
346017.0 526820.0 0
342176.0 530070.0 0
351435.0 526439.0 0
348210.0 530588.0 0
355998.0 528413.0 0
362698.0 530209.0 0
366108.0 527596.0 0
370710.0 529195.0 0
374300.0 525676.0 0
380624.0 528210.0 0
384730.0 526168.0 0
389791.0 526937.0 0
396044.0 527549.0 0
400332.0 530363.0 0
401822.0 525746.0 0
406528.0 527090.0 0
411315.0 527412.0 0
415430.0 526630.0 0
422820.0 526915.0 0
418931.0 528694.0 0
427581.0 525573.0 0
426232.0 530368.0 0
430215.0 526497.0 0
431567.0 529869.0 0
436002.0 527308.0 0
441355.0 530295.0 0
439822.0 527212.0 0
442973.0 527931.0 0
446703.0 526879.0 0
451091.0 526210.0 0
455086.0 525663.0 0
454576.0 529584.0 0
459357.0 527271.0 0
463465.0 530440.0 0
464310.0 526123.0 0
468177.0 525588.0 0
467137.0 528689.0 0
471723.0 528770.0 0
475419.0 525773.0 0
478845.0 527164.0 0
476675.0 530333.0 0
482751.0 525922.0 0
485918.0 528195.0 0
489554.0 527909.0 0
493623.0 526910.0 0
497728.0 525659.0 0
497359.0 529647.0 0
2417.92 533266.0 0
5818.04 531102.0 0
10107.7 532176.0 0
15266.9 533255.0 0
21378.1 532622.0 0
26250.2 534543.0 0
30150.9 533287.0 0
34124.1 531880.0 0
38508.3 531169.0 0
36860.9 535035.0 0
43405.4 530670.0 0
41679.2 534415.0 0
45600.2 534036.0 0
47980.0 531066.0 0
48911.2 535333.0 0
51134.0 532999.0 0
54860.3 532853.0 0
52201.4 535465.0 0
59428.2 534277.0 0
63317.5 531455.0 0
68353.8 531167.0 0
73504.1 532119.0 0
78935.4 533187.0 0
83818.3 530927.0 0
83904.9 534959.0 0
88303.3 532585.0 0
93630.2 531556.0 0
101744.0 532672.0 0
106829.0 534395.0 0
111614.0 534467.0 0
115891.0 531406.0 0
120590.0 531047.0 0
119973.0 534747.0 0
124493.0 531947.0 0
129006.0 530970.0 0
133534.0 531298.0 0
137485.0 531929.0 0
135420.0 534923.0 0
138640.0 534854.0 0
142774.0 534955.0 0
147764.0 533608.0 0
152020.0 531444.0 0
156451.0 532666.0 0
161650.0 532121.0 0
159184.0 535507.0 0
166287.0 534197.0 0
176514.0 533827.0 0
182564.0 533128.0 0
187454.0 534169.0 0
191633.0 531203.0 0
196775.0 530719.0 0
195421.0 534365.0 0
199983.0 533283.0 0
205087.0 534149.0 0
209975.0 532916.0 0
219275.0 532303.0 0
214574.0 535138.0 0
223599.0 531885.0 0
227232.0 533933.0 0
232629.0 534826.0 0
237766.0 533391.0 0
242865.0 533075.0 0
247393.0 535637.0 0
252285.0 533744.0 0
257655.0 532476.0 0
262541.0 531944.0 0
267134.0 530748.0 0
272184.0 533697.0 0
278696.0 533394.0 0
284228.0 532527.0 0
290584.0 533229.0 0
299405.0 530907.0 0
296473.0 534985.0 0
302735.0 534057.0 0
307639.0 534419.0 0
311776.0 533748.0 0
319228.0 530740.0 0
317077.0 535396.0 0
323798.0 530991.0 0
327349.0 534911.0 0
333048.0 534430.0 0
336905.0 530774.0 0
339134.0 535434.0 0
344525.0 535153.0 0
349278.0 535274.0 0
352973.0 532036.0 0
358461.0 532973.0 0
363995.0 534531.0 0
367413.0 531749.0 0
371396.0 533127.0 0
368658.0 535689.0 0
376103.0 531300.0 0
381504.0 532931.0 0
386296.0 531101.0 0
388703.0 535189.0 0
392374.0 531640.0 0
396549.0 531160.0 0
397533.0 535386.0 0
402567.0 534869.0 0
405031.0 531145.0 0
406698.0 535057.0 0
409646.0 531866.0 0
412646.0 535680.0 0
415086.0 531449.0 0
421634.0 532799.0 0
427152.0 535425.0 0
432984.0 535299.0 0
437451.0 531747.0 0
442606.0 534539.0 0
445066.0 530928.0 0
447842.0 535478.0 0
449759.0 530832.0 0
453436.0 534969.0 0
458654.0 532424.0 0
463373.0 535490.0 0
467901.0 532601.0 0
473395.0 534398.0 0
478708.0 534364.0 0
481835.0 530720.0 0
483243.0 535625.0 0
487271.0 532374.0 0
492488.0 531194.0 0
496775.0 534633.0 0
2028.67 537174.0 0
4127.01 540122.0 0
6529.92 535824.0 0
8132.45 539627.0 0
11706.9 537189.0 0
14835.2 540460.0 0
18143.5 537314.0 0
23748.8 539027.0 0
29151.5 537759.0 0
33108.0 536173.0 0
32332.2 540279.0 0
36030.7 539037.0 0
39747.1 537596.0 0
45057.5 538765.0 0
50973.2 539269.0 0
55389.2 537279.0 0
59910.9 539124.0 0
65114.5 536296.0 0
70525.8 535794.0 0
69146.8 540375.0 0
73705.5 538870.0 0
77418.0 537712.0 0
81138.4 538263.0 0
87036.6 537371.0 0
91710.8 536387.0 0
89376.3 540546.0 0
97143.0 535787.0 0
102399.0 537831.0 0
106917.0 539254.0 0
111086.0 538777.0 0
115635.0 536654.0 0
119640.0 539549.0 0
124430.0 537114.0 0
130495.0 536234.0 0
135252.0 539108.0 0
139236.0 538257.0 0
142624.0 539542.0 0
146588.0 538415.0 0
152563.0 536741.0 0
157644.0 539093.0 0
162542.0 536904.0 0
166738.0 539246.0 0
170809.0 536006.0 0
171162.0 540241.0 0
174254.0 538496.0 0
177991.0 539258.0 0
182779.0 538582.0 0
187351.0 538336.0 0
191450.0 535914.0 0
190607.0 539954.0 0
194522.0 538600.0 0
198238.0 537123.0 0
204398.0 539474.0 0
209041.0 537522.0 0
212826.0 539716.0 0
217669.0 539497.0 0
222620.0 536215.0 0
226666.0 538658.0 0
231275.0 539755.0 0
237142.0 539276.0 0
242763.0 538021.0 0
247462.0 539983.0 0
251149.0 538823.0 0
255731.0 537622.0 0
260837.0 536869.0 0
264882.0 540735.0 0
265393.0 536008.0 0
270023.0 539029.0 0
276339.0 539035.0 0
281645.0 536944.0 0
286548.0 537982.0 0
292026.0 539149.0 0
300603.0 538694.0 0
306122.0 539572.0 0
311675.0 538192.0 0
322519.0 535923.0 0
325446.0 538588.0 0
322266.0 540533.0 0
328646.0 538586.0 0
331895.0 539570.0 0
336586.0 540118.0 0
342755.0 540110.0 0
354202.0 537075.0 0
359987.0 539031.0 0
365625.0 539429.0 0
370905.0 540279.0 0
373919.0 536388.0 0
378616.0 537086.0 0
384098.0 537589.0 0
389695.0 540277.0 0
392812.0 536526.0 0
395483.0 540770.0 0
400273.0 539872.0 0
404507.0 538956.0 0
409265.0 538514.0 0
414177.0 540217.0 0
417649.0 536499.0 0
422461.0 537880.0 0
426164.0 540680.0 0
430414.0 539418.0 0
434881.0 540033.0 0
438012.0 536816.0 0
441976.0 539019.0 0
446151.0 539640.0 0
450812.0 539476.0 0
458658.0 536573.0 0
455715.0 539506.0 0
460765.0 539971.0 0
465098.0 539579.0 0
468622.0 537258.0 0
472878.0 539610.0 0
477145.0 538230.0 0
481300.0 539487.0 0
486093.0 539443.0 0
490873.0 536461.0 0
497074.0 539815.0 0
2096.93 543505.0 0
6679.54 542921.0 0
10929.3 542282.0 0
14907.9 544968.0 0
19001.1 542559.0 0
23534.8 545066.0 0
28651.9 542771.0 0
35311.6 543576.0 0
40047.1 541640.0 0
40076.7 545882.0 0
43842.7 543783.0 0
47969.8 543120.0 0
56008.9 541397.0 0
52748.5 544123.0 0
56296.4 544683.0 0
59696.0 543843.0 0
64261.2 542043.0 0
67843.2 545212.0 0
72643.0 543677.0 0
78021.9 542400.0 0
84308.0 542131.0 0
90482.6 544797.0 0
94571.6 541104.0 0
99429.3 541467.0 0
100022.0 545616.0 0
104051.0 543034.0 0
109190.0 543319.0 0
114891.0 541368.0 0
113404.0 545769.0 0
118731.0 544908.0 0
123889.0 542503.0 0
126748.0 545454.0 0
129497.0 542268.0 0
134916.0 544082.0 0
139720.0 542477.0 0
144864.0 543611.0 0
150058.0 541762.0 0
155239.0 544293.0 0
161676.0 540954.0 0
160586.0 544942.0 0
164905.0 543853.0 0
169994.0 544516.0 0
174828.0 542521.0 0
180139.0 543934.0 0
186434.0 542639.0 0
193739.0 543527.0 0
199181.0 541655.0 0
208801.0 542232.0 0
204333.0 544948.0 0
213324.0 544404.0 0
218578.0 544772.0 0
222632.0 541426.0 0
227583.0 543675.0 0
233000.0 544487.0 0
238502.0 545491.0 0
244146.0 543360.0 0
249856.0 543075.0 0
254361.0 543032.0 0
259739.0 541796.0 0
264156.0 544619.0 0
268083.0 543345.0 0
272673.0 543966.0 0
277867.0 545288.0 0
282307.0 541797.0 0
287674.0 543399.0 0
292809.0 544310.0 0
296394.0 541260.0 0
300555.0 544272.0 0
305439.0 544374.0 0
310606.0 544143.0 0
316864.0 541910.0 0
321755.0 545267.0 0
327500.0 543312.0 0
333484.0 543860.0 0
339205.0 545455.0 0
345062.0 545132.0 0
349205.0 540974.0 0
355161.0 542773.0 0
362648.0 544472.0 0
367330.0 543690.0 0
371669.0 545710.0 0
376130.0 542240.0 0
380619.0 541085.0 0
380204.0 545576.0 0
384988.0 543583.0 0
395097.0 545245.0 0
399104.0 543840.0 0
403979.0 544116.0 0
409927.0 543519.0 0
415393.0 544899.0 0
419226.0 541704.0 0
423445.0 544076.0 0
428111.0 545082.0 0
432182.0 543328.0 0
436648.0 544265.0 0
433861.0 545911.0 0
438791.0 541039.0 0
442543.0 543506.0 0
448489.0 544469.0 0
453415.0 543215.0 0
458018.0 543808.0 0
461842.0 545917.0 0
463825.0 542827.0 0
468679.0 542234.0 0
473736.0 544333.0 0
478065.0 542273.0 0
482892.0 544536.0 0
488256.0 543724.0 0
492435.0 541383.0 0
497645.0 544507.0 0
1788.34 547035.0 0
6337.77 547459.0 0
10989.2 546762.0 0
14198.4 549794.0 0
18768.6 547700.0 0
23050.6 550482.0 0
27733.0 547838.0 0
31818.8 546413.0 0
31424.5 550773.0 0
36357.5 549114.0 0
43111.9 546621.0 0
42221.2 550215.0 0
46100.8 547399.0 0
49593.4 546614.0 0
48857.8 549072.0 0
52567.2 549392.0 0
57814.1 548249.0 0
63158.7 547105.0 0
71060.6 548031.0 0
66823.3 550883.0 0
75856.9 547889.0 0
81198.5 546872.0 0
86334.7 547367.0 0
90780.3 549328.0 0
95270.0 546991.0 0
99517.1 550204.0 0
103987.0 548037.0 0
109182.0 548711.0 0
114713.0 550107.0 0
119119.0 549740.0 0
123292.0 547620.0 0
128272.0 549163.0 0
131211.0 546272.0 0
134072.0 549937.0 0
140351.0 548100.0 0
145875.0 548477.0 0
149952.0 546541.0 0
154005.0 549640.0 0
158466.0 548901.0 0
163777.0 548937.0 0
169303.0 549810.0 0
174859.0 548019.0 0
179848.0 550880.0 0
184578.0 547906.0 0
189531.0 546417.0 0
193833.0 549096.0 0
199769.0 548784.0 0
204631.0 549378.0 0
209153.0 548158.0 0
215666.0 549132.0 0
223230.0 546765.0 0
220125.0 548779.0 0
229667.0 548331.0 0
234475.0 549296.0 0
238830.0 550490.0 0
242873.0 548717.0 0
248007.0 547759.0 0
252097.0 546186.0 0
255839.0 547923.0 0
260730.0 547431.0 0
265171.0 548605.0 0
269451.0 547549.0 0
274174.0 549425.0 0
282822.0 547115.0 0
287936.0 549138.0 0
293293.0 549168.0 0
296500.0 546633.0 0
299380.0 548960.0 0
303950.0 548805.0 0
308592.0 548939.0 0
314766.0 546001.0 0
313595.0 549197.0 0
317727.0 547543.0 0
321959.0 550333.0 0
327655.0 549977.0 0
334027.0 549038.0 0
338288.0 550108.0 0
346566.0 549229.0 0
342188.0 550612.0 0
349572.0 546397.0 0
350605.0 550227.0 0
353575.0 547540.0 0
358252.0 546897.0 0
362098.0 549655.0 0
366586.0 548041.0 0
376141.0 548185.0 0
380383.0 549913.0 0
385619.0 549720.0 0
390572.0 546038.0 0
398111.0 548728.0 0
403136.0 548991.0 0
407497.0 548160.0 0
412131.0 547773.0 0
416087.0 550341.0 0
419903.0 546973.0 0
424917.0 548711.0 0
431674.0 546939.0 0
430027.0 550521.0 0
435362.0 548846.0 0
439606.0 547157.0 0
444266.0 548588.0 0
449409.0 550097.0 0
453171.0 547457.0 0
458281.0 549104.0 0
463370.0 549583.0 0
465856.0 546187.0 0
467843.0 550345.0 0
469822.0 546508.0 0
472877.0 549421.0 0
477984.0 546649.0 0
476993.0 550339.0 0
481013.0 549608.0 0
487302.0 548871.0 0
492759.0 546495.0 0
497279.0 549082.0 0
2684.39 551153.0 0
2535.4 555724.0 0
7901.26 553062.0 0
12823.6 554312.0 0
18257.0 553695.0 0
27364.0 552450.0 0
34780.9 554549.0 0
39255.0 553351.0 0
43020.0 554860.0 0
47165.8 552271.0 0
51885.9 554324.0 0
55983.3 552547.0 0
58645.8 555486.0 0
61478.3 551732.0 0
64323.7 555364.0 0
68956.4 555794.0 0
71895.1 552251.0 0
76052.1 553960.0 0
79261.0 551031.0 0
81145.0 555623.0 0
83502.7 551179.0 0
87668.8 551939.0 0
89409.8 555616.0 0
94410.3 553173.0 0
100135.0 555319.0 0
105533.0 553168.0 0
111332.0 554066.0 0
117523.0 554751.0 0
122937.0 552563.0 0
129934.0 553893.0 0
134214.0 555027.0 0
138361.0 553595.0 0
144255.0 553677.0 0
149628.0 551261.0 0
155334.0 553809.0 0
160661.0 552568.0 0
166221.0 553038.0 0
170829.0 554947.0 0
175556.0 553319.0 0
178975.0 555227.0 0
184248.0 554217.0 0
188928.0 551328.0 0
192920.0 553713.0 0
196622.0 552819.0 0
197808.0 555992.0 0
203258.0 553444.0 0
208268.0 553508.0 0
212826.0 552978.0 0
218057.0 554081.0 0
222792.0 551785.0 0
226915.0 551376.0 0
226233.0 555863.0 0
230983.0 553159.0 0
235999.0 553717.0 0
240723.0 554180.0 0
245968.0 553252.0 0
252003.0 551437.0 0
252127.0 555950.0 0
257092.0 553007.0 0
262211.0 552274.0 0
268011.0 552682.0 0
273048.0 554601.0 0
278099.0 553261.0 0
282523.0 551666.0 0
286153.0 554246.0 0
291413.0 554049.0 0
296852.0 552693.0 0
301965.0 553547.0 0
306952.0 553193.0 0
310755.0 551729.0 0
312715.0 554994.0 0
317194.0 552693.0 0
321689.0 555394.0 0
326492.0 555338.0 0
331982.0 554550.0 0
337895.0 554141.0 0
342699.0 554583.0 0
347569.0 553510.0 0
356460.0 551637.0 0
352060.0 553797.0 0
361528.0 555166.0 0
365646.0 552171.0 0
371157.0 551902.0 0
377225.0 553035.0 0
381860.0 553484.0 0
387376.0 555890.0 0
392508.0 551821.0 0
397249.0 553442.0 0
401260.0 552951.0 0
405845.0 552451.0 0
410927.0 552211.0 0
415316.0 555971.0 0
421013.0 552212.0 0
426078.0 553128.0 0
429871.0 555517.0 0
434424.0 553605.0 0
439873.0 552102.0 0
445864.0 553423.0 0
450315.0 554945.0 0
453912.0 552024.0 0
457973.0 554055.0 0
461571.0 552965.0 0
465506.0 554503.0 0
470894.0 553184.0 0
474578.0 553490.0 0
479164.0 554225.0 0
484057.0 552455.0 0
482975.0 555870.0 0
487649.0 553937.0 0
492191.0 552156.0 0
497392.0 553829.0 0
2111.56 559926.0 0
6817.85 558635.0 0
10576.8 556968.0 0
15148.4 558134.0 0
11622.6 560296.0 0
19359.8 559063.0 0
23880.0 556383.0 0
22829.0 561224.0 0
29835.8 556216.0 0
27605.7 560930.0 0
34011.9 560619.0 0
39200.4 557465.0 0
43757.6 559287.0 0
48181.6 557191.0 0
54315.1 560070.0 0
61161.7 559338.0 0
66219.0 559462.0 0
72792.0 557481.0 0
74075.0 561036.0 0
76733.3 558541.0 0
82606.1 561002.0 0
87661.8 559664.0 0
92972.8 559387.0 0
98802.2 560685.0 0
104826.0 559215.0 0
110382.0 559201.0 0
114768.0 559149.0 0
121926.0 556533.0 0
118847.0 559900.0 0
125734.0 556371.0 0
123167.0 559988.0 0
129621.0 558769.0 0
134918.0 560155.0 0
140458.0 558285.0 0
145901.0 560000.0 0
150118.0 556215.0 0
150824.0 560551.0 0
154661.0 558557.0 0
159209.0 556627.0 0
164490.0 557295.0 0
168870.0 559339.0 0
175471.0 559121.0 0
181385.0 558719.0 0
185818.0 558817.0 0
189450.0 556360.0 0
194188.0 557985.0 0
201392.0 558574.0 0
207070.0 558588.0 0
213158.0 558368.0 0
218668.0 559187.0 0
222984.0 559391.0 0
232089.0 558121.0 0
237453.0 558571.0 0
243170.0 557656.0 0
248217.0 558987.0 0
255937.0 558324.0 0
260286.0 556515.0 0
264975.0 557231.0 0
269583.0 557540.0 0
275611.0 559299.0 0
281875.0 558168.0 0
288159.0 559002.0 0
293921.0 559307.0 0
298988.0 557457.0 0
304195.0 557942.0 0
308384.0 557355.0 0
312031.0 559498.0 0
316452.0 557763.0 0
320356.0 559643.0 0
324274.0 559081.0 0
329352.0 560132.0 0
335383.0 559117.0 0
340712.0 558830.0 0
345135.0 557220.0 0
350079.0 558455.0 0
355332.0 556794.0 0
358688.0 559168.0 0
362612.0 560854.0 0
367618.0 557810.0 0
372151.0 560761.0 0
372844.0 557012.0 0
376454.0 557357.0 0
376000.0 560840.0 0
379548.0 556222.0 0
379567.0 559701.0 0
382605.0 557267.0 0
391895.0 557580.0 0
389550.0 560822.0 0
395169.0 556327.0 0
394236.0 561030.0 0
399378.0 557449.0 0
404189.0 556543.0 0
407225.0 561132.0 0
403083.0 561173.0 0
409335.0 557404.0 0
420962.0 557590.0 0
425738.0 556948.0 0
424584.0 560653.0 0
428962.0 560450.0 0
434003.0 558926.0 0
438103.0 556564.0 0
442911.0 557349.0 0
448056.0 559336.0 0
452826.0 561073.0 0
454932.0 556976.0 0
457972.0 561113.0 0
460770.0 557149.0 0
465120.0 559384.0 0
469634.0 556718.0 0
475057.0 558499.0 0
480746.0 559439.0 0
486281.0 558266.0 0
491828.0 557927.0 0
497347.0 558441.0 0
3365.89 564789.0 0
8520.74 563118.0 0
12545.4 564380.0 0
18427.4 565133.0 0
24795.0 565041.0 0
30428.3 566090.0 0
39687.5 561976.0 0
40310.2 564946.0 0
43846.5 564518.0 0
48074.4 561738.0 0
50791.6 564868.0 0
59275.9 564058.0 0
63934.9 563412.0 0
70347.1 561734.0 0
67751.9 565997.0 0
77445.7 563509.0 0
86718.5 564100.0 0
91753.0 565547.0 0
95327.1 563127.0 0
97711.9 565554.0 0
102757.0 565031.0 0
108488.0 564057.0 0
113105.0 562736.0 0
117380.0 564181.0 0
122999.0 565331.0 0
128046.0 563079.0 0
131989.0 564288.0 0
139784.0 563826.0 0
145040.0 565829.0 0
149216.0 563877.0 0
154219.0 564185.0 0
159276.0 561648.0 0
164768.0 563405.0 0
171002.0 563820.0 0
175735.0 565125.0 0
179852.0 563486.0 0
184488.0 562709.0 0
189713.0 561517.0 0
194186.0 562265.0 0
198336.0 562846.0 0
203293.0 562937.0 0
208562.0 563345.0 0
213238.0 564150.0 0
218064.0 563736.0 0
222873.0 563934.0 0
227810.0 561474.0 0
232856.0 562648.0 0
237287.0 563919.0 0
241507.0 561731.0 0
245606.0 563781.0 0
249955.0 563805.0 0
254811.0 563697.0 0
261126.0 562197.0 0
267878.0 562326.0 0
273323.0 564371.0 0
279014.0 563800.0 0
283215.0 562997.0 0
286656.0 564008.0 0
290974.0 563555.0 0
295631.0 564427.0 0
300981.0 562671.0 0
307487.0 563059.0 0
313095.0 563890.0 0
317144.0 562254.0 0
320622.0 564958.0 0
324948.0 563466.0 0
329359.0 565715.0 0
333638.0 563642.0 0
338557.0 563755.0 0
345380.0 562028.0 0
350464.0 564047.0 0
354491.0 561410.0 0
354903.0 565712.0 0
358460.0 562815.0 0
363532.0 565477.0 0
368568.0 563788.0 0
374328.0 565039.0 0
379295.0 563891.0 0
382464.0 566176.0 0
384271.0 561792.0 0
388626.0 565958.0 0
398533.0 561932.0 0
402189.0 565758.0 0
398705.0 565305.0 0
406589.0 564988.0 0
411278.0 562708.0 0
416875.0 561799.0 0
421487.0 562241.0 0
420243.0 565319.0 0
424723.0 565243.0 0
432416.0 562616.0 0
429920.0 565326.0 0
435610.0 566081.0 0
439127.0 561291.0 0
440827.0 565474.0 0
444162.0 562609.0 0
449200.0 564961.0 0
454901.0 565495.0 0
462348.0 563214.0 0
459271.0 565721.0 0
466337.0 564627.0 0
470052.0 561479.0 0
471052.0 566296.0 0
477679.0 564125.0 0
484037.0 562397.0 0
488845.0 563254.0 0
494307.0 562611.0 0
498286.0 562248.0 0
497873.0 565701.0 0
9040.67 567918.0 0
14043.6 570242.0 0
23773.7 569441.0 0
28264.3 570952.0 0
36688.5 566534.0 0
41704.7 569715.0 0
47705.2 568712.0 0
55016.8 567049.0 0
62412.9 568471.0 0
72870.6 566434.0 0
77551.0 568678.0 0
81958.6 566401.0 0
86439.9 568961.0 0
91094.7 571134.0 0
95732.4 569475.0 0
100572.0 570018.0 0
106630.0 570259.0 0
113121.0 568044.0 0
118678.0 568837.0 0
123285.0 571169.0 0
128849.0 568654.0 0
135303.0 567952.0 0
140889.0 569168.0 0
145571.0 571018.0 0
150176.0 568421.0 0
154815.0 569203.0 0
159663.0 567342.0 0
165382.0 569718.0 0
169138.0 567697.0 0
173095.0 569372.0 0
178739.0 568629.0 0
183743.0 567264.0 0
188825.0 566806.0 0
194705.0 567230.0 0
198362.0 571356.0 0
199818.0 566875.0 0
203148.0 568056.0 0
207248.0 567737.0 0
212266.0 568819.0 0
217079.0 568509.0 0
221897.0 568589.0 0
227011.0 567085.0 0
231931.0 566940.0 0
236920.0 569049.0 0
241555.0 566542.0 0
246636.0 568857.0 0
251652.0 567771.0 0
257012.0 569483.0 0
263595.0 568685.0 0
269095.0 567394.0 0
273164.0 569505.0 0
277943.0 568808.0 0
283218.0 567615.0 0
288115.0 567384.0 0
292024.0 568068.0 0
295413.0 567854.0 0
295287.0 571355.0 0
299177.0 568263.0 0
304992.0 569163.0 0
310900.0 568391.0 0
316519.0 566770.0 0
320189.0 569436.0 0
325133.0 568691.0 0
332438.0 569804.0 0
337095.0 568348.0 0
341602.0 567507.0 0
346420.0 567286.0 0
351512.0 569386.0 0
359153.0 566917.0 0
362532.0 569971.0 0
366350.0 568332.0 0
370613.0 568963.0 0
375410.0 569945.0 0
379962.0 569371.0 0
384700.0 569579.0 0
391076.0 570794.0 0
394457.0 566544.0 0
399302.0 569453.0 0
405265.0 570435.0 0
410666.0 568115.0 0
416252.0 567693.0 0
421534.0 569230.0 0
427654.0 568766.0 0
425065.0 570677.0 0
431932.0 570142.0 0
440277.0 569741.0 0
444439.0 567312.0 0
448232.0 570528.0 0
453230.0 570113.0 0
457716.0 569636.0 0
462464.0 568837.0 0
467235.0 568806.0 0
474757.0 567970.0 0
478586.0 570064.0 0
482828.0 566641.0 0
487627.0 568571.0 0
492791.0 567375.0 0
497213.0 569900.0 0
3695.49 571435.0 0
9640.16 573570.0 0
14889.6 576294.0 0
19304.4 572017.0 0
24475.4 574557.0 0
29597.7 575458.0 0
33728.9 571866.0 0
38979.3 574746.0 0
45287.8 574086.0 0
52239.8 571789.0 0
54187.8 576403.0 0
57706.2 572179.0 0
60225.2 576138.0 0
63031.2 573492.0 0
65975.2 575952.0 0
67858.2 571466.0 0
73646.7 571834.0 0
76412.4 576039.0 0
77765.3 572524.0 0
81719.0 571538.0 0
86895.3 573898.0 0
91038.3 575674.0 0
95757.3 574618.0 0
101234.0 575117.0 0
106403.0 576367.0 0
111356.0 573818.0 0
115404.0 572653.0 0
119113.0 573060.0 0
122099.0 575938.0 0
127763.0 575372.0 0
132694.0 572545.0 0
137725.0 573447.0 0
142826.0 575300.0 0
149751.0 573594.0 0
154971.0 573894.0 0
160653.0 573370.0 0
165819.0 575363.0 0
169389.0 572632.0 0
174041.0 574532.0 0
178270.0 573408.0 0
182569.0 572073.0 0
187616.0 571900.0 0
193262.0 573599.0 0
198691.0 576503.0 0
203214.0 572608.0 0
208978.0 572899.0 0
214205.0 572809.0 0
218484.0 572978.0 0
216765.0 576462.0 0
222588.0 572779.0 0
226754.0 571979.0 0
232091.0 572313.0 0
238148.0 573291.0 0
242013.0 571576.0 0
247156.0 573872.0 0
252170.0 572270.0 0
257727.0 574358.0 0
261187.0 573409.0 0
268586.0 572495.0 0
273408.0 573988.0 0
277903.0 573618.0 0
282612.0 572794.0 0
286788.0 573290.0 0
290946.0 572661.0 0
294817.0 575736.0 0
299799.0 574081.0 0
304834.0 574306.0 0
309827.0 574132.0 0
315597.0 572106.0 0
322894.0 573764.0 0
328224.0 573059.0 0
332424.0 574335.0 0
336533.0 573002.0 0
341328.0 572139.0 0
346676.0 572886.0 0
351780.0 574715.0 0
357184.0 572287.0 0
362155.0 573817.0 0
366708.0 573191.0 0
372486.0 574125.0 0
378076.0 573875.0 0
382469.0 573335.0 0
387095.0 573920.0 0
391438.0 575098.0 0
395486.0 573187.0 0
401021.0 574512.0 0
406184.0 576378.0 0
409760.0 573220.0 0
413395.0 571768.0 0
417985.0 573239.0 0
413913.0 575272.0 0
423405.0 574326.0 0
428303.0 572955.0 0
432959.0 575005.0 0
436026.0 571529.0 0
439830.0 574509.0 0
444017.0 571663.0 0
446110.0 575019.0 0
451641.0 575232.0 0
455982.0 573053.0 0
460327.0 573446.0 0
465533.0 573442.0 0
471714.0 572037.0 0
483556.0 571940.0 0
479606.0 574901.0 0
487607.0 572689.0 0
491171.0 571716.0 0
494314.0 574022.0 0
497997.0 573965.0 0
3224.39 577930.0 0
9218.01 578676.0 0
20023.2 576675.0 0
18654.2 581284.0 0
22708.8 578853.0 0
26761.3 579149.0 0
33944.6 577285.0 0
33391.4 581522.0 0
38175.1 580461.0 0
43919.6 579564.0 0
49556.4 576650.0 0
49055.3 581384.0 0
57827.6 579606.0 0
63320.7 579957.0 0
70881.0 577114.0 0
75003.0 579893.0 0
79111.9 579902.0 0
82736.2 576569.0 0
83407.5 581114.0 0
87585.3 578948.0 0
93575.0 579459.0 0
98111.3 578612.0 0
102919.0 579857.0 0
106908.0 580678.0 0
111024.0 578866.0 0
116759.0 577595.0 0
121527.0 580371.0 0
126192.0 580904.0 0
133745.0 577527.0 0
138562.0 578120.0 0
142733.0 580138.0 0
146981.0 578132.0 0
151775.0 577954.0 0
156648.0 578969.0 0
161528.0 578545.0 0
165785.0 580445.0 0
170783.0 578645.0 0
176558.0 578862.0 0
182234.0 577585.0 0
188312.0 577453.0 0
193684.0 579686.0 0
202309.0 579143.0 0
205744.0 577192.0 0
212483.0 577316.0 0
215957.0 580524.0 0
220995.0 577033.0 0
226425.0 577299.0 0
231338.0 577375.0 0
236575.0 578018.0 0
242777.0 577031.0 0
247559.0 577946.0 0
251544.0 576759.0 0
256100.0 578098.0 0
260825.0 577682.0 0
265778.0 577449.0 0
270682.0 577284.0 0
275561.0 578289.0 0
281192.0 577435.0 0
285684.0 577038.0 0
283392.0 581479.0 0
290331.0 577592.0 0
287077.0 580536.0 0
296484.0 580342.0 0
301653.0 579364.0 0
305982.0 581506.0 0
306624.0 577582.0 0
310463.0 579336.0 0
314949.0 577681.0 0
320528.0 578618.0 0
325403.0 577297.0 0
329838.0 578308.0 0
335125.0 577672.0 0
341225.0 577862.0 0
347567.0 578921.0 0
353640.0 579780.0 0
360275.0 578408.0 0
366503.0 579056.0 0
371214.0 580262.0 0
374619.0 578294.0 0
379103.0 578922.0 0
383647.0 577317.0 0
388388.0 579344.0 0
393116.0 578477.0 0
397331.0 577916.0 0
402018.0 579529.0 0
407772.0 579548.0 0
411227.0 578686.0 0
417002.0 578974.0 0
422011.0 578730.0 0
427715.0 578468.0 0
432668.0 579467.0 0
436977.0 578393.0 0
442620.0 579017.0 0
447980.0 579199.0 0
453118.0 580868.0 0
457036.0 577122.0 0
460542.0 580411.0 0
464824.0 578513.0 0
469403.0 577073.0 0
471253.0 580565.0 0
474870.0 577392.0 0
483813.0 576774.0 0
480070.0 579597.0 0
489792.0 577569.0 0
496424.0 578227.0 0
2043.56 582860.0 0
6293.57 582275.0 0
8541.41 585721.0 0
13071.1 581756.0 0
12762.2 586699.0 0
17612.1 586575.0 0
23713.4 582577.0 0
21121.5 584616.0 0
29086.8 584074.0 0
35684.3 586126.0 0
41729.2 583897.0 0
45510.1 583936.0 0
50636.3 585674.0 0
53984.3 582698.0 0
58682.7 584312.0 0
63047.1 584972.0 0
67391.2 583717.0 0
71891.1 582502.0 0
76366.3 583910.0 0
81522.0 585699.0 0
87436.8 584577.0 0
92696.7 584236.0 0
97151.2 582780.0 0
101601.0 584400.0 0
106505.0 584953.0 0
112081.0 584487.0 0
118171.0 584581.0 0
123402.0 584430.0 0
131136.0 582769.0 0
136257.0 582030.0 0
140393.0 584278.0 0
144087.0 583382.0 0
147990.0 583109.0 0
153054.0 582544.0 0
157521.0 583461.0 0
161995.0 583497.0 0
168793.0 583565.0 0
173618.0 583760.0 0
178540.0 583188.0 0
182724.0 582788.0 0
187704.0 583235.0 0
192070.0 583740.0 0
198591.0 581987.0 0
203111.0 582613.0 0
208848.0 582557.0 0
214170.0 583840.0 0
217529.0 586571.0 0
220296.0 582026.0 0
225421.0 582815.0 0
230753.0 582057.0 0
235532.0 583455.0 0
240090.0 582504.0 0
245882.0 582958.0 0
252848.0 583164.0 0
259311.0 582595.0 0
264175.0 582668.0 0
268923.0 582202.0 0
273327.0 581827.0 0
278717.0 582810.0 0
287343.0 586643.0 0
290906.0 583016.0 0
295825.0 585946.0 0
300653.0 584051.0 0
309839.0 583684.0 0
315663.0 583793.0 0
326142.0 582104.0 0
321664.0 583609.0 0
331348.0 583720.0 0
337084.0 582795.0 0
341906.0 582803.0 0
345953.0 584438.0 0
350511.0 583659.0 0
357631.0 584292.0 0
363592.0 584021.0 0
368694.0 583275.0 0
372312.0 586605.0 0
375202.0 582821.0 0
379822.0 583503.0 0
384267.0 582955.0 0
392400.0 582161.0 0
388907.0 584649.0 0
397204.0 583338.0 0
401420.0 582954.0 0
401634.0 586140.0 0
406638.0 583572.0 0
413728.0 583587.0 0
419194.0 584231.0 0
423993.0 582534.0 0
428538.0 583969.0 0
433839.0 583989.0 0
438084.0 585783.0 0
438997.0 582358.0 0
442960.0 584667.0 0
448513.0 584232.0 0
453603.0 586152.0 0
457383.0 583429.0 0
461514.0 584804.0 0
466826.0 583769.0 0
472312.0 584515.0 0
476250.0 582397.0 0
476544.0 586021.0 0
480288.0 584625.0 0
484910.0 582053.0 0
488982.0 585452.0 0
492933.0 582817.0 0
497559.0 583074.0 0
3993.11 587019.0 0
8270.25 590462.0 0
15204.5 590750.0 0
23817.9 586793.0 0
20835.4 589997.0 0
26999.9 587962.0 0
30407.4 589349.0 0
34319.6 591249.0 0
38652.7 590862.0 0
42144.8 588066.0 0
46854.6 588017.0 0
50429.4 590160.0 0
54920.7 588453.0 0
60636.1 588875.0 0
65823.8 588570.0 0
72202.6 588583.0 0
78253.4 590037.0 0
85318.6 589165.0 0
81983.0 589979.0 0
91464.7 589705.0 0
97542.6 587651.0 0
102996.0 590047.0 0
109099.0 589473.0 0
113591.0 589090.0 0
117138.0 591217.0 0
121969.0 589229.0 0
127524.0 587420.0 0
133979.0 588656.0 0
140346.0 589646.0 0
144995.0 587174.0 0
149700.0 588429.0 0
154867.0 587411.0 0
159892.0 587743.0 0
162992.0 591652.0 0
167987.0 587435.0 0
164052.0 587440.0 0
172047.0 588623.0 0
177617.0 588377.0 0
174207.0 591715.0 0
183948.0 587914.0 0
192470.0 586772.0 0
189091.0 587891.0 0
192554.0 591579.0 0
197633.0 587778.0 0
203687.0 587316.0 0
213816.0 587291.0 0
209314.0 589612.0 0
214871.0 591647.0 0
222141.0 586984.0 0
227250.0 587697.0 0
232727.0 587810.0 0
238511.0 587410.0 0
242929.0 587173.0 0
242228.0 591610.0 0
247720.0 588634.0 0
251649.0 587998.0 0
255643.0 588679.0 0
260679.0 587751.0 0
265762.0 586906.0 0
271628.0 587861.0 0
276782.0 587115.0 0
277350.0 591681.0 0
281939.0 587913.0 0
286708.0 591744.0 0
291433.0 589176.0 0
300196.0 588392.0 0
305497.0 587117.0 0
311377.0 588453.0 0
316562.0 590221.0 0
321493.0 588407.0 0
326991.0 587558.0 0
332112.0 588416.0 0
336527.0 588223.0 0
341357.0 587075.0 0
347460.0 589233.0 0
352413.0 587957.0 0
357847.0 590458.0 0
363134.0 589143.0 0
367754.0 587662.0 0
371682.0 591504.0 0
376804.0 587831.0 0
381917.0 587454.0 0
386975.0 589756.0 0
393306.0 588409.0 0
398841.0 589454.0 0
405184.0 590193.0 0
410888.0 588191.0 0
416490.0 589077.0 0
423807.0 588038.0 0
430051.0 589211.0 0
435518.0 588962.0 0
440486.0 589300.0 0
445988.0 589409.0 0
451138.0 590213.0 0
458383.0 588954.0 0
464089.0 588979.0 0
469275.0 588921.0 0
474066.0 588877.0 0
478777.0 589257.0 0
483101.0 588096.0 0
487164.0 590132.0 0
493852.0 587014.0 0
491882.0 590602.0 0
497899.0 587300.0 0
496532.0 591491.0 0
2915.65 592447.0 0
1221.99 596122.0 0
7026.75 595020.0 0
11878.6 593833.0 0
18565.0 594250.0 0
22491.8 595523.0 0
25753.0 592169.0 0
30952.6 594292.0 0
36652.2 595871.0 0
45668.8 592767.0 0
41589.2 593940.0 0
52341.9 594489.0 0
58052.4 593422.0 0
63443.1 593186.0 0
67984.0 592597.0 0
71628.5 594585.0 0
76671.3 595065.0 0
81787.9 593666.0 0
86884.2 593570.0 0
91669.7 595657.0 0
97178.0 593456.0 0
102109.0 595309.0 0
107113.0 594369.0 0
112652.0 593419.0 0
118485.0 596007.0 0
123214.0 594333.0 0
128961.0 593581.0 0
135537.0 595398.0 0
139857.0 593791.0 0
144997.0 591969.0 0
143803.0 596921.0 0
148755.0 593948.0 0
153363.0 592797.0 0
158369.0 591925.0 0
163148.0 596421.0 0
168306.0 592313.0 0
172958.0 595989.0 0
177649.0 593837.0 0
181913.0 592780.0 0
186914.0 592966.0 0
197640.0 593424.0 0
201872.0 591899.0 0
205983.0 594847.0 0
212871.0 596923.0 0
219272.0 592213.0 0
222318.0 592208.0 0
222500.0 596936.0 0
226544.0 593344.0 0
231831.0 592831.0 0
237122.0 592521.0 0
242755.0 596218.0 0
246802.0 593444.0 0
252500.0 592238.0 0
252195.0 596418.0 0
256609.0 593310.0 0
261432.0 592929.0 0
267084.0 592354.0 0
272479.0 593673.0 0
281902.0 594372.0 0
291277.0 594463.0 0
296448.0 592142.0 0
302524.0 592597.0 0
307519.0 592424.0 0
308367.0 596796.0 0
312143.0 593507.0 0
320917.0 593404.0 0
316371.0 595077.0 0
326386.0 593522.0 0
331738.0 592974.0 0
337519.0 593811.0 0
342950.0 591852.0 0
347466.0 594304.0 0
352850.0 593630.0 0
358102.0 595903.0 0
362321.0 593535.0 0
366351.0 592115.0 0
368301.0 596427.0 0
376402.0 592290.0 0
380458.0 591897.0 0
378578.0 596292.0 0
384283.0 594792.0 0
390912.0 594389.0 0
396348.0 593457.0 0
401164.0 594188.0 0
408047.0 595442.0 0
412452.0 593046.0 0
417314.0 594689.0 0
421507.0 592599.0 0
425707.0 593278.0 0
432757.0 593465.0 0
429387.0 595723.0 0
437470.0 593728.0 0
442860.0 593994.0 0
448043.0 594611.0 0
452234.0 593912.0 0
456338.0 594083.0 0
461560.0 593740.0 0
466964.0 593526.0 0
471988.0 593052.0 0
477419.0 593611.0 0
482513.0 592870.0 0
489098.0 595088.0 0
493351.0 594100.0 0
497783.0 595985.0 0
2872.38 599740.0 0
8142.99 599264.0 0
13342.8 598547.0 0
18043.0 598644.0 0
22052.8 600705.0 0
26987.5 598106.0 0
32431.0 599831.0 0
37469.5 601200.0 0
41847.1 598613.0 0
47338.0 597649.0 0
51750.8 599864.0 0
56490.2 598644.0 0
61761.6 597970.0 0
67298.0 597497.0 0
73026.5 599263.0 0
78365.8 600195.0 0
84252.9 599013.0 0
89804.8 600078.0 0
94775.8 599696.0 0
99431.6 598588.0 0
104535.0 599479.0 0
109309.0 598367.0 0
113274.0 597973.0 0
116495.0 599939.0 0
122469.0 599032.0 0
128554.0 600945.0 0
134938.0 600573.0 0
139555.0 598691.0 0
147086.0 599617.0 0
143522.0 601942.0 0
151147.0 598009.0 0
157494.0 597460.0 0
162834.0 601723.0 0
167841.0 598172.0 0
178187.0 598392.0 0
183499.0 597538.0 0
188356.0 597465.0 0
192803.0 597095.0 0
197467.0 598064.0 0
202330.0 597171.0 0
203030.0 601737.0 0
208351.0 599192.0 0
217500.0 597067.0 0
217524.0 601836.0 0
222435.0 601957.0 0
227974.0 598598.0 0
233043.0 597375.0 0
231248.0 601984.0 0
237917.0 597389.0 0
241646.0 600899.0 0
248062.0 597660.0 0
253354.0 601774.0 0
256435.0 597537.0 0
260861.0 597950.0 0
262558.0 601871.0 0
265627.0 597568.0 0
270764.0 598804.0 0
276907.0 597730.0 0
282101.0 598768.0 0
286775.0 597631.0 0
292590.0 599526.0 0
298635.0 598370.0 0
304062.0 597201.0 0
306092.0 601469.0 0
312932.0 598674.0 0
318602.0 599561.0 0
323302.0 597523.0 0
327850.0 598751.0 0
333166.0 598159.0 0
337895.0 599638.0 0
342709.0 597596.0 0
346841.0 601132.0 0
351077.0 598632.0 0
356417.0 601098.0 0
362807.0 599159.0 0
373500.0 599304.0 0
382473.0 599529.0 0
387871.0 599532.0 0
393470.0 598800.0 0
398164.0 598298.0 0
403654.0 598554.0 0
412891.0 598276.0 0
408198.0 600375.0 0
418107.0 599741.0 0
422235.0 597053.0 0
422577.0 602025.0 0
426717.0 599459.0 0
433904.0 598513.0 0
440113.0 598891.0 0
445967.0 600055.0 0
452302.0 598957.0 0
459056.0 599226.0 0
464157.0 597732.0 0
469044.0 598815.0 0
474502.0 597380.0 0
479989.0 597456.0 0
484667.0 597251.0 0
484049.0 601303.0 0
488291.0 600171.0 0
493573.0 597988.0 0
497571.0 600510.0 0
1350.57 603634.0 0
6036.29 604251.0 0
11144.9 603329.0 0
16960.7 603765.0 0
23934.6 605500.0 0
28458.9 603340.0 0
33240.3 605138.0 0
38106.1 605657.0 0
42264.6 603731.0 0
46910.4 602827.0 0
51569.3 604601.0 0
56938.4 604155.0 0
62315.2 603149.0 0
66907.3 602422.0 0
71019.3 603955.0 0
75812.1 604382.0 0
81584.0 605372.0 0
87393.8 603658.0 0
92284.3 604200.0 0
98201.8 603638.0 0
103561.0 605119.0 0
108921.0 603211.0 0
114274.0 603636.0 0
119577.0 603313.0 0
124212.0 605687.0 0
128457.0 606944.0 0
133790.0 604914.0 0
138706.0 603148.0 0
147087.0 603163.0 0
151562.0 603773.0 0
157505.0 603791.0 0
162946.0 606787.0 0
167715.0 603167.0 0
173370.0 602263.0 0
177911.0 603195.0 0
177548.0 606859.0 0
181722.0 602695.0 0
187045.0 602043.0 0
186752.0 606941.0 0
193306.0 603021.0 0
198849.0 602079.0 0
203487.0 606711.0 0
207401.0 603504.0 0
212269.0 602328.0 0
218059.0 606880.0 0
222074.0 606845.0 0
226519.0 603132.0 0
236422.0 602166.0 0
242479.0 606849.0 0
247231.0 602744.0 0
258561.0 602099.0 0
256680.0 606411.0 0
266941.0 602544.0 0
273468.0 603114.0 0
277908.0 603204.0 0
281744.0 602300.0 0
283160.0 606434.0 0
286845.0 602829.0 0
290878.0 603991.0 0
296003.0 604316.0 0
301758.0 602674.0 0
310391.0 602569.0 0
314856.0 603944.0 0
319875.0 604620.0 0
325378.0 604020.0 0
331073.0 603047.0 0
335842.0 603572.0 0
341733.0 604236.0 0
346902.0 606229.0 0
351136.0 604056.0 0
355977.0 606910.0 0
361220.0 605257.0 0
368199.0 603185.0 0
372827.0 606963.0 0
378493.0 604126.0 0
384650.0 603944.0 0
390185.0 604473.0 0
394964.0 603064.0 0
400332.0 603344.0 0
404296.0 602390.0 0
407089.0 605206.0 0
413477.0 603584.0 0
418253.0 604432.0 0
427009.0 604688.0 0
431414.0 602998.0 0
436268.0 603420.0 0
441178.0 604536.0 0
446060.0 605397.0 0
451500.0 605592.0 0
457175.0 604694.0 0
461966.0 604048.0 0
467299.0 604621.0 0
473558.0 603302.0 0
479654.0 602993.0 0
486935.0 605490.0 0
492840.0 603400.0 0
497909.0 604971.0 0
2249.25 607418.0 0
5594.64 609357.0 0
10637.6 609229.0 0
17147.6 610224.0 0
22623.3 610197.0 0
28367.4 608629.0 0
33669.2 610569.0 0
39082.5 610397.0 0
43176.3 612202.0 0
47066.6 608636.0 0
52983.5 609569.0 0
58183.1 609427.0 0
63497.7 608454.0 0
68267.9 607559.0 0
72643.7 608466.0 0
77221.3 609078.0 0
82957.4 610172.0 0
87396.8 608049.0 0
92718.5 609374.0 0
98320.4 609176.0 0
102962.0 609789.0 0
107715.0 608409.0 0
112056.0 607523.0 0
116925.0 607658.0 0
121250.0 608837.0 0
125705.0 609875.0 0
132258.0 610478.0 0
137573.0 608276.0 0
142923.0 607200.0 0
148006.0 607436.0 0
153516.0 609144.0 0
158764.0 609103.0 0
167329.0 607701.0 0
172133.0 608126.0 0
182516.0 607612.0 0
190936.0 608651.0 0
197818.0 607810.0 0
208213.0 608034.0 0
213227.0 607458.0 0
225874.0 607420.0 0
230861.0 607494.0 0
236647.0 607394.0 0
248054.0 608284.0 0
252442.0 607899.0 0
261144.0 608388.0 0
266700.0 608344.0 0
272379.0 607706.0 0
277853.0 608450.0 0
288374.0 608251.0 0
293320.0 608719.0 0
297205.0 610226.0 0
301034.0 607263.0 0
307428.0 607576.0 0
313330.0 608878.0 0
318397.0 609381.0 0
322911.0 608533.0 0
327200.0 609563.0 0
331962.0 607946.0 0
337266.0 609054.0 0
342447.0 610186.0 0
346864.0 610202.0 0
351448.0 609484.0 0
359570.0 610222.0 0
364334.0 609495.0 0
368292.0 608251.0 0
372181.0 611413.0 0
376688.0 609363.0 0
382579.0 607442.0 0
386991.0 608544.0 0
392539.0 608968.0 0
397659.0 608078.0 0
402777.0 607927.0 0
406820.0 610226.0 0
411552.0 608415.0 0
417169.0 609739.0 0
422342.0 607425.0 0
427402.0 609879.0 0
432273.0 607747.0 0
437739.0 608781.0 0
443157.0 609456.0 0
447819.0 609532.0 0
452554.0 611382.0 0
456849.0 609303.0 0
461744.0 609146.0 0
466710.0 609894.0 0
471907.0 609415.0 0
477411.0 608010.0 0
482447.0 608563.0 0
488260.0 610443.0 0
492193.0 608764.0 0
496834.0 608827.0 0
POINT_DATA 5000
SCALARS Radius float 1
LOOKUP_TABLE default
5415.48 5120.0 2356.98 6182.6 6810.52 5840.26 5073.35 4834.9 3863.18 4998.37 5492.18 5258.36 5061.3 3163.97 5812.43 5906.14 5733.48 5580.89 3588.44 5645.7 6110.27 5561.06 5670.04 6044.04 5085.53 5351.6 5867.73 3951.75 5013.56 4499.64 3642.12 5542.27 5122.66 5484.19 3557.27 7513.1 5254.28 4436.4 4517.56 4182.53 4672.91 5176.86 4366.19 5553.16 2938.66 3672.51 4008.92 6716.79 3850.77 5325.36 5484.83 5538.89 4715.55 6059.59 2720.68 5701.86 4375.68 4238.81 5054.98 6030.06 5170.02 4688.68 4927.31 4402.52 5185.34 4432.58 5903.42 3955.56 3761.32 5292.64 4118.05 5065.13 4940.78 3615.22 4380.59 5546.39 6759.9 4730.36 5926.61 4955.55 3563.63 4345.55 4468.59 5885.03 5325.02 5200.76 4862.64 5205.43 6684.56 3968.64 2635.86 4385.06 6166.5 5936.02 5305.17 4231.61 3379.84 7613.27 4133.88 4094.62 5945.65 5418.62 7021.47 5416.38 6051.14 5836.15 6704.06 2837.58 3871.88 5246.2 5017.13 3673.74 5279.39 4827.23 6116.18 7447.37 4688.67 4924.6 7184.19 4290.3 3867.67 4861.08 3942.53 3607.45 4951.03 4665.12 6483.19 6230.49 5493.32 3641.64 5740.68 4277.89 4195.44 3261.21 3653.41 6496.85 5600.93 3856.01 4390.66 4124.71 4911.47 5803.39 4381.97 3255.82 4733.32 2899.43 2812.98 2924.37 5399.73 4003.05 4827.82 3589.27 5759.91 4333.2 3038.33 3936.02 4780.03 3383.4 4927.02 5109.54 4174.52 7054.71 4601.27 5489.43 5747.75 4796.33 5539.32 5360.19 4794.96 4874.39 5541.59 4839.34 5083.08 5728.85 6337.56 3998.5 5863.59 6257.19 5242.73 4065.69 5603.15 5390.22 4805.87 5227.21 4712.33 3997.1 3260.67 5123.52 4295.38 5529.52 5252.48 5495.39 3554.9 3856.1 4044.71 3996.0 5980.74 5816.2 3829.13 6458.82 5527.54 5573.7 5054.25 7325.81 6425.26 6186.19 4840.01 2980.99 6834.49 5525.39 4024.3 5938.34 6394.38 5555.28 4737.14 4686.65 4695.45 4660.72 3888.21 6038.78 5697.78 4392.68 4667.36 4091.31 7199.21 5255.32 4049.23 5337.48 6124.89 5481.78 5542.21 5708.81 4015.92 5043.05 4487.31 4002.16 4138.16 5693.81 3091.3 5789.98 6138.47 6302.8 5697.4 4727.62 4270.95 4055.8 5206.78 5280.17 5028.96 5143.58 4484.76 5152.36 5611.2 7933.0 5173.87 5380.13 5118.27 5169.36 5932.23 5834.74 5556.96 6052.7 3921.18 5891.05 6902.81 4254.17 6644.76 5615.42 4523.7 7565.34 6037.08 6756.95 4651.28 4382.74 5601.05 3586.91 4516.43 4929.8 3103.0 5637.59 3307.12 4937.14 5924.89 4778.34 3486.22 6894.71 4684.5 4414.54 2540.31 5120.49 6029.66 5409.61 6038.2 4005.44 5713.22 5555.88 6732.43 3183.98 6362.12 3866.16 4524.28 3778.1 4511.82 4220.65 5826.64 6820.42 4455.12 4894.16 4896.52 5711.87 3372.79 4941.22 5791.61 5788.23 5581.75 3798.62 6392.01 3666.57 5308.1 6372.62 4937.02 5629.19 5090.24 5091.39 2240.39 6324.23 5096.78 4727.24 3320.52 4685.34 4329.05 4151.94 5927.43 4384.42 6355.42 4362.19 3693.63 4948.92 3115.91 4493.48 4749.8 6084.86 5810.84 5478.92 5551.36 4467.94 4850.81 6038.14 5201.36 5262.61 4306.53 5094.81 5972.06 4312.67 5861.71 4359.04 5017.78 3794.63 6175.81 4727.24 6959.81 4829.35 4816.2 6321.41 4751.02 5184.56 5282.64 4715.72 3369.13 4479.66 5367.2 3043.85 5461.13 6730.19 4907.89 5655.21 4786.6 5923.5 5740.84 4612.68 5530.87 5293.9 4129.43 4973.83 3912.37 6142.94 6342.25 3843.58 4792.73 4931.38 4736.58 6082.81 5110.37 6327.9 5690.56 5492.26 5244.78 5762.84 3937.74 5082.6 4230.54 5094.44 3748.24 4655.49 4933.21 5375.47 4723.12 4809.42 5024.9 5659.17 6135.57 5998.38 5423.8 4270.24 3417.33 4989.15 4164.13 5015.69 4947.52 6677.09 4305.57 5813.4 5201.67 4424.7 4089.76 5526.55 4754.05 3192.41 6084.93 4987.87 3315.57 4669.66 4808.52 4764.96 5607.24 3599.45 4726.76 5839.13 3735.44 4907.06 4073.93 4645.41 5163.9 6043.3 4433.59 6445.94 4281.49 4310.18 5542.14 4218.06 4602.25 6691.39 4270.53 4194.5 5191.63 4501.51 5379.87 5513.6 4901.41 3485.26 4556.36 3240.09 3191.99 5664.98 4048.37 4659.59 4220.88 6519.71 6640.13 5478.47 5351.39 6142.37 5119.37 6061.47 6163.38 4997.27 4566.18 4964.09 3459.9 4093.08 5543.27 4717.05 5856.11 5287.2 4234.94 4562.29 5013.13 5080.66 4926.42 5110.45 5248.77 4642.34 4083.97 4520.1 5874.89 4293.03 4528.09 4165.81 4389.21 3791.79 4128.98 4925.44 4951.47 5246.61 4307.28 5215.15 5804.71 5020.12 5046.33 5727.3 5053.92 4242.52 6352.26 3057.03 3847.38 5495.68 3818.59 5489.34 5952.75 5708.14 5537.72 4320.28 6332.36 7134.64 4931.53 4790.08 5480.13 5082.47 4187.56 5344.25 4840.84 5344.0 4593.7 4478.15 4043.57 5925.6 3708.04 6013.14 5138.31 4602.86 5264.06 4621.75 4551.24 3688.8 3369.23 5358.59 4548.16 5449.18 4515.71 4322.15 4714.54 3092.35 3629.96 5210.03 3320.11 6022.17 4583.31 3982.23 4503.89 5806.08 5243.29 4853.39 4449.22 5628.24 3327.49 4109.88 5992.26 3960.8 4980.85 5070.39 5714.58 3329.99 5208.32 3296.27 4607.02 5153.74 3895.51 6673.96 3556.85 6291.51 5882.89 6246.22 5370.52 4188.32 4100.38 3697.96 4739.42 5538.93 4899.11 4745.45 5281.28 2631.9 5356.51 4863.72 4087.15 4143.08 5002.48 6623.85 4262.82 3920.42 5102.36 6122.55 5978.9 2739.94 6308.71 3629.62 4997.27 4716.19 5135.69 4301.06 3456.98 6045.46 4763.45 3815.26 4150.99 4216.92 3929.19 3771.48 4107.03 5681.38 5198.77 5147.67 4138.42 5987.17 4292.06 5011.31 3979.82 5006.58 2765.2 4581.13 5586.81 4219.07 3610.4 3856.59 5413.79 6387.01 5367.52 6202.55 5025.39 5030.91 5893.5 4547.19 5507.24 6851.54 4336.42 5570.3 4306.11 3402.32 7589.94 3130.65 5004.67 5365.89 4511.54 5409.33 5196.0 4923.9 4973.78 4613.31 3947.47 6119.09 5091.68 4713.25 4204.84 6243.0 5069.25 5048.89 3991.03 3161.47 5441.96 5174.89 3435.9 4288.3 4652.29 5774.81 5344.77 4723.48 5027.98 5097.87 4278.07 7267.18 6255.18 4277.88 4668.71 4758.21 7500.97 3948.23 5228.18 5787.31 8332.24 6155.31 4342.9 4553.56 4223.33 5911.67 5514.76 6695.82 4290.14 6405.76 4877.67 4020.32 5445.87 4245.72 4704.72 4571.7 4177.94 4742.68 4502.5 5922.5 4271.69 3970.25 3633.87 2775.04 4850.01 5643.58 5577.04 6318.18 4481.53 3948.17 5077.33 4746.52 5572.95 6338.89 5584.06 7111.16 3817.13 5023.15 3844.9 4377.07 3695.36 5101.59 3848.93 3813.22 6020.48 5935.47 5903.66 4528.49 5419.37 4466.03 5275.32 4898.94 5985.29 4178.15 4694.83 4733.04 5788.66 7531.29 3903.75 4755.47 5935.03 6390.78 7435.25 6826.57 4788.87 4495.87 3746.31 6022.72 5498.32 5527.33 5346.27 6475.1 2691.29 6256.02 2845.98 5320.92 7228.46 6362.14 6719.88 5065.11 5978.82 3927.99 5069.84 5329.64 4051.44 3323.28 6049.55 5835.78 5709.62 3498.2 6562.18 4541.21 5908.1 6048.7 4344.58 5896.46 5634.83 5495.84 4164.68 6268.1 5782.6 4862.21 5113.21 5499.11 4011.77 4527.08 5347.48 4374.35 4810.12 4138.46 3821.72 5215.05 4986.77 6035.6 5137.34 5330.45 5423.0 5125.78 3824.16 3689.45 3868.18 6723.16 3686.21 5372.61 5402.24 6480.17 6445.22 3963.86 4564.34 4871.44 5076.35 6375.99 5200.05 5234.29 4091.8 4645.58 5313.66 2651.49 5512.23 4711.62 5349.31 4247.23 4268.65 4649.22 5509.42 4354.08 5936.36 4520.62 5229.48 5475.7 4485.99 5127.16 5475.8 5314.69 4244.99 6050.81 5543.46 4249.46 5965.81 3702.37 4643.31 2330.66 4177.19 6917.52 4969.21 5402.21 4880.14 4989.09 4982.31 5289.52 5269.18 4406.1 4305.43 5034.59 4942.77 5080.18 5868.82 5266.5 4050.9 4523.88 4066.38 4241.89 5054.74 4099.77 5941.72 4981.9 5794.24 4127.74 4537.32 3066.13 4302.5 2476.04 5105.16 4156.38 6006.16 6009.88 5050.65 5022.8 5316.75 6133.92 3784.5 4178.4 3719.84 5669.65 5820.48 7034.11 6261.42 2586.12 6125.34 5965.78 6396.74 6898.19 5526.14 6449.45 5198.29 3975.31 4044.45 5344.43 5262.19 5045.38 4373.47 6034.41 5350.88 5130.91 4948.5 4519.22 4527.02 4531.14 5013.42 3838.56 5651.07 6248.81 5872.05 5273.35 4853.02 6259.23 5181.4 5670.2 4114.24 5166.79 2976.22 5394.55 5094.52 4256.43 4946.74 2682.24 5928.32 5415.19 3950.63 4612.62 4016.18 5526.75 5435.74 6385.23 5327.45 5560.26 2983.99 6185.89 3997.96 4750.17 5660.85 3460.94 3990.25 3691.0 3758.07 4752.51 3587.05 6229.37 6718.19 5314.85 4307.48 3848.54 5941.4 5450.44 5331.02 6510.17 4263.33 4454.63 5592.32 5912.61 3279.1 4978.31 4403.98 4948.98 4414.48 5163.02 4656.78 5991.09 4678.38 5126.91 5448.61 4827.33 7055.53 3937.08 5513.57 5013.67 5729.23 5934.22 3780.23 5624.49 3471.03 4359.62 5253.55 3745.84 5011.84 6057.22 6946.21 5062.71 5433.8 4497.59 5252.34 5975.63 4274.61 2965.79 4410.55 7099.43 4287.63 5315.4 4516.28 3627.82 5678.96 6070.58 4244.9 4285.32 5490.43 5452.83 5022.28 4959.34 5197.52 5178.99 5383.07 4790.78 4591.87 4247.15 6552.22 4602.85 4962.77 6101.92 5323.3 5088.44 4998.21 3457.48 4662.56 3931.07 3405.98 5417.15 3688.16 4681.72 4945.39 5996.33 5661.62 6631.19 3619.07 4467.04 4275.57 5626.61 5817.25 2614.4 6363.92 6205.93 4439.35 5830.72 6184.4 3828.81 4373.45 4236.14 5733.62 4407.87 5282.91 3797.33 4425.84 7256.35 4871.96 4800.69 5742.65 4863.23 4402.67 5381.16 5565.13 4560.84 5227.52 6086.96 4092.24 4729.43 5233.78 4562.74 5776.57 3942.07 7144.24 7443.72 5133.97 3600.43 6600.94 5371.02 5260.34 5206.48 4709.35 6586.45 5826.04 5876.71 5226.0 5339.78 3095.48 4861.06 4166.08 6481.79 3979.26 5960.66 6608.73 3999.48 4203.26 5188.81 4730.41 5696.88 5690.26 4156.2 4289.17 5564.02 6444.77 6314.07 5776.37 3921.08 4190.31 5486.68 6048.86 6894.26 4986.51 5339.38 6169.11 5615.35 6422.84 4027.09 4502.18 5379.09 5210.48 7552.94 4051.34 3627.55 6239.84 4635.6 4256.67 5865.39 4427.28 6079.11 3082.32 6430.39 7440.72 3658.37 3949.6 5376.71 5703.6 6326.18 4867.08 4266.03 6648.68 4713.74 5407.78 4084.49 5061.98 6632.99 4537.6 4923.24 4419.61 7177.44 5309.98 4563.46 4082.57 5255.18 5282.51 5169.9 3004.16 4460.92 5945.89 4042.28 4105.55 6566.1 3555.86 6386.78 4470.61 6193.35 4631.83 6887.27 3701.27 6008.49 4806.34 5683.26 5598.74 4906.82 5131.24 4788.58 6155.1 5196.67 6496.67 5474.8 4750.78 4373.3 5762.59 5029.78 5320.28 5374.51 5224.12 4850.14 4569.12 4796.58 4298.67 5873.69 4962.09 6222.42 5654.31 5470.77 4643.85 3923.03 4004.04 5607.14 5082.74 5411.85 6915.83 4844.57 6072.45 5092.37 4027.46 4470.98 3901.8 5759.46 5083.41 7055.42 3836.45 5100.25 5683.61 5805.86 4049.02 5311.03 4470.4 4611.53 5255.12 4285.66 4896.11 4318.48 5172.53 4135.62 6132.95 5801.99 4860.33 5534.94 3685.13 7644.38 3312.06 5180.76 6004.68 3361.26 6799.4 4409.63 3661.9 5370.85 5949.46 3178.54 4765.02 3776.94 5629.39 4448.13 5070.29 4807.28 2261.36 5075.55 5280.69 4220.03 6923.84 5449.46 6179.96 5703.07 6113.54 5147.36 4662.43 6260.79 4043.66 3963.76 5528.53 6553.94 5726.66 5460.65 4767.78 5235.17 4779.5 4340.76 4421.12 4435.36 5254.49 6065.22 4996.99 4221.28 4456.39 4384.88 4896.39 6081.14 5480.83 5653.9 4220.46 4287.53 5046.21 5612.21 4929.14 5894.61 5687.83 5004.23 6442.69 6320.71 4648.04 6262.72 3527.05 6607.87 3365.82 3664.11 4163.5 7092.87 4123.6 4538.95 4970.88 6739.08 7042.12 3637.61 4471.58 5463.38 6098.14 4472.17 5750.71 4938.74 3474.39 4831.47 6062.05 6939.12 4735.33 4413.85 3999.94 6171.13 4864.22 2395.5 5511.88 5941.61 4512.11 4933.65 6098.1 6248.6 5443.58 4558.46 6401.43 5346.68 5296.29 2681.29 5094.48 3872.61 5576.92 4238.4 6408.83 3930.79 5266.22 5226.97 5754.18 5132.68 3418.99 4480.95 5278.36 6218.95 5521.25 5222.16 5107.23 5136.08 5558.68 4010.57 5246.47 2684.03 6157.04 4768.61 4522.21 5506.19 6719.94 4950.67 5227.59 6166.29 5453.6 5294.77 5409.63 3077.84 4709.05 4630.82 4813.08 6799.88 3062.43 5426.78 2967.38 5652.0 4159.35 5463.41 5225.33 4237.98 4929.75 6045.22 6649.96 4303.19 5514.84 3633.79 4256.57 3914.2 5421.53 4607.85 5937.08 6070.3 5128.57 6000.7 5945.08 3979.54 5139.5 4968.03 7493.3 4814.55 5833.06 5944.09 5698.77 3464.83 6515.84 4143.78 5724.64 5965.15 4925.63 4763.66 4666.81 4888.6 4780.2 4797.52 6326.39 6643.85 6343.14 4020.95 5501.93 5462.21 6313.06 5945.21 3493.7 6345.13 4200.03 6470.3 4719.7 5516.95 5313.22 5563.79 4406.4 3905.51 6853.85 3493.47 4020.4 3497.9 4596.75 5782.48 4031.78 5950.04 5708.99 4231.83 5687.85 2435.33 6333.29 4558.47 5020.71 5731.57 5997.88 5662.55 5839.71 4360.23 6234.32 5365.24 4004.35 5293.51 4763.96 5008.63 4270.74 6293.89 6595.03 4993.35 4558.15 4983.39 5366.52 4690.55 5533.72 5533.42 4802.32 3678.08 4599.38 5518.57 4187.31 6191.29 5463.48 7422.36 3240.51 5161.01 4527.99 4298.15 4376.7 4628.4 5190.61 5832.37 6051.83 4642.93 3973.12 4263.16 6024.75 6109.49 5860.67 4540.86 5990.52 3764.1 4835.83 5604.35 6477.91 3091.67 6439.37 4614.3 4081.97 5401.99 5134.39 5784.3 5769.98 6088.68 2221.99 4643.56 4135.08 5620.74 5233.29 5604.21 3169.67 4612.06 5204.04 5304.13 3361.92 3306.14 4863.79 5490.58 5395.14 4702.06 2477.07 4923.41 5117.47 2990.77 3163.78 4497.31 3293.56 4305.16 5882.65 5092.28 4739.14 5078.86 4918.77 5163.55 4636.5 4819.73 6817.32 3382.7 6471.55 6263.44 4319.79 4863.27 5960.56 5122.63 5774.97 5862.86 6049.79 5374.98 5226.56 5274.19 5599.49 5452.42 4097.57 5017.5 5328.22 4151.76 4216.17 6484.17 4721.02 3546.71 4254.37 3374.08 5768.57 5564.23 3735.24 6574.95 4074.48 3614.96 4477.04 3886.68 5703.74 4747.55 5737.92 3056.7 3755.95 5591.76 4585.31 4586.19 4446.06 6625.18 3450.93 5323.91 5097.45 4185.61 5737.75 2761.07 3778.02 6552.21 5417.8 5146.37 7132.12 5227.02 4836.16 5300.96 5151.11 5730.33 5545.46 4543.1 6550.44 8325.01 3764.06 4440.81 5941.9 6642.76 5829.22 4497.78 5567.93 5987.42 5433.65 5332.65 4442.22 6451.33 5413.31 6316.56 4332.87 6420.81 4715.58 3317.83 4450.7 5580.92 3532.3 5151.52 5973.33 3583.21 4347.74 5442.32 5067.46 4863.01 3580.58 5356.79 4011.37 4778.82 4312.56 6124.08 5467.84 4750.58 6710.88 3967.48 6667.68 6213.04 4721.32 3830.46 6413.11 5274.14 5529.42 4434.19 5257.12 4903.82 5100.1 4940.42 3954.91 4371.99 3703.1 4946.42 6090.91 3561.29 5085.71 3295.83 5923.4 4963.34 5644.82 2965.01 6413.02 3492.19 4584.5 4118.84 5548.29 6766.43 5916.16 2315.64 4703.08 4390.41 4890.5 6113.95 3731.84 3981.07 4050.08 4901.07 5186.3 3436.15 5711.11 5005.85 4575.94 5325.44 4938.72 5021.88 5956.65 4188.87 4498.25 5151.21 5398.64 6817.57 3573.73 6853.04 4745.43 5831.96 5464.68 4475.83 2685.81 4510.8 5889.35 5010.04 4394.56 4570.98 4275.07 5825.38 4573.72 4047.87 5099.21 5742.47 4917.99 5636.4 4367.78 4350.12 3603.51 5670.0 4232.16 6609.84 4344.51 5135.96 5680.94 3781.77 3834.43 5581.55 5193.01 3474.5 5491.37 3860.83 6348.03 5732.27 4523.39 4792.39 5434.47 5278.56 6917.62 5631.14 4243.79 4343.78 5811.18 5263.3 4008.15 4887.76 4669.06 3012.99 4811.32 6400.08 6184.88 4743.59 5829.32 5208.14 4396.25 3763.05 5092.24 5369.08 4518.04 5291.9 4766.06 4009.62 4874.18 2511.46 2081.58 6505.78 2775.69 5657.36 4785.25 6519.43 3619.79 5029.47 6306.21 5053.95 5926.11 5253.37 5235.11 5767.9 5211.38 6031.67 6515.8 5384.76 6138.12 4428.78 4965.89 5746.28 5659.95 5187.7 4152.85 4082.47 4623.61 4219.78 5081.78 4188.3 4459.28 6116.33 4260.92 5499.39 6250.23 4407.9 4718.54 4440.57 6235.57 5412.31 5203.08 3087.09 5374.07 3623.87 7480.41 6934.37 5163.77 4488.85 3423.15 5010.2 4579.69 3554.48 6496.52 5966.61 4893.49 4388.63 4834.87 5102.75 4597.29 5760.22 4200.09 5938.17 5931.77 4795.43 5097.95 5108.06 4222.4 4693.52 4000.43 4661.03 4568.41 3624.7 3420.08 4912.04 4320.42 4691.91 4539.07 4255.34 5064.79 5480.3 7509.24 5896.26 5388.78 6101.13 5599.7 4163.74 6969.28 3665.95 5698.96 4095.75 3319.67 4298.45 5222.51 4076.59 5164.1 6464.15 5658.37 4707.06 6074.94 4250.88 4222.77 3783.54 3475.67 5268.38 5527.23 7038.89 5146.37 3863.67 4814.12 4013.38 5067.56 6137.8 3352.35 2735.53 5116.6 4909.65 3747.03 6523.86 7693.4 4286.49 4326.48 4437.07 3449.37 5491.9 6405.0 5551.95 4659.16 3918.87 3101.75 5549.49 5423.42 6605.86 5012.5 5435.19 5461.55 5876.64 4270.15 3298.2 6865.76 5424.46 5266.01 2978.76 2040.66 7016.27 6622.11 4689.15 5089.62 3685.13 6790.73 4655.16 5243.43 4741.26 5409.66 5920.32 4537.14 4186.6 5251.4 5551.9 3867.19 4453.64 4345.67 5511.6 5019.93 3885.86 6261.75 5235.29 5177.64 4517.73 4338.08 4541.8 4255.31 6134.99 5453.3 4479.94 3838.47 2588.37 4062.5 5887.15 6736.03 4435.51 8659.64 4588.7 3766.55 5683.95 6027.62 5469.13 5765.42 6123.03 6098.95 4997.83 5453.98 3991.42 5148.08 3718.69 4514.79 3672.21 2216.82 4509.89 6752.75 5269.38 5607.3 4914.45 2928.82 5313.12 4698.87 3984.88 5160.59 5262.35 4732.09 4281.98 7165.9 5344.83 7046.11 3427.63 4863.97 4146.81 6342.48 5756.75 4587.67 5093.82 5951.81 3924.14 6918.35 4296.69 6238.32 6804.79 6471.42 5283.8 5369.5 4428.14 6016.19 4479.11 4124.49 4972.17 6685.4 5699.53 4850.06 6332.01 7044.29 4805.33 7085.01 5980.95 6193.08 6069.3 5887.01 3862.77 5168.35 5388.39 2783.85 4356.49 5335.47 4526.81 3994.07 4219.94 5907.46 6740.71 4264.91 5399.29 5789.55 4633.05 2275.45 4901.2 6522.59 5711.62 4383.56 3562.79 4990.79 7093.13 4953.1 5818.95 6449.64 4857.84 3940.49 4908.49 4962.21 4749.59 5884.9 3468.42 3685.65 4590.55 3876.21 4673.35 5869.4 4916.22 5297.19 3701.16 6022.7 4255.85 5097.69 4765.72 3988.3 5857.79 2908.7 3757.34 4039.91 6415.61 5276.7 4752.14 4378.3 4419.71 4950.97 5037.06 5660.16 5175.29 5842.56 5199.44 4094.73 5191.08 5424.88 5415.85 4199.45 7234.66 6599.66 4055.54 4886.12 6419.12 4233.8 6107.89 4976.12 4446.84 4817.16 5660.55 5653.03 6192.0 4940.28 5885.28 6579.31 3004.34 5323.55 3022.6 5375.1 4811.76 4172.6 5351.56 5498.42 4196.37 3344.57 5318.53 5220.76 6945.98 5138.2 5783.48 4701.5 4449.98 4771.65 4840.44 5439.49 6639.64 5212.43 3687.65 5454.12 4834.3 6348.54 4066.57 5642.35 6372.13 6357.47 5404.01 4891.38 3230.13 5535.91 5714.25 5955.86 6176.67 5325.96 5412.24 5016.02 4920.21 4581.37 4234.18 4049.16 3936.95 6153.94 6836.82 3858.17 4631.99 4740.98 3477.1 3185.39 5128.77 3728.18 7122.87 5633.61 5048.19 4243.26 6799.23 4888.27 4592.15 6487.56 4854.11 5971.22 4998.22 5533.19 4909.31 5417.21 6602.43 4798.17 3568.28 5425.98 5166.79 4516.53 2895.63 4093.99 4122.92 4997.91 5079.22 6464.8 3604.14 4452.54 4684.44 4406.05 4858.44 4680.94 5828.35 5799.69 5571.72 5689.26 3809.69 4771.13 4992.42 7051.9 4940.84 5895.77 4608.41 4184.23 4732.09 4833.46 5750.07 6136.49 6543.13 4642.66 5149.72 4687.64 5469.47 5036.58 4888.12 5329.59 6119.63 4244.21 5411.02 4989.56 5512.16 3197.63 4287.16 3645.12 4863.96 3456.47 5471.74 6200.54 5148.58 4652.01 3548.39 5421.64 4858.51 4207.54 4366.74 3375.28 5625.65 4301.61 4936.96 3184.64 4481.76 5206.33 5530.49 5452.78 5065.26 4304.41 5578.94 3989.7 7610.49 4777.03 4286.17 4246.61 3684.56 6028.09 5452.36 3804.5 6486.37 4638.18 6448.66 5211.6 3556.79 4453.97 3503.41 7317.04 6412.67 7001.83 4504.35 5012.97 4036.91 5589.37 5110.11 6379.14 5216.26 4887.52 5478.95 3851.85 6318.23 4206.98 5156.76 5932.07 6101.57 4793.65 2949.12 4532.89 4533.37 4848.46 2779.99 5742.09 5887.38 5807.46 6942.34 5851.61 3658.05 5478.11 5526.31 5030.15 3644.78 4078.93 5934.82 4501.78 3572.94 5797.36 5001.58 4153.84 5119.86 5089.26 5084.17 4901.44 5415.45 3776.8 5096.43 6156.21 6104.26 5583.61 6063.64 5996.66 4986.71 6479.39 4405.42 3598.08 4599.81 5381.54 5810.77 5089.1 2711.19 5876.72 4028.32 5236.43 3208.96 4099.92 5285.07 4680.14 3858.06 4478.6 4144.57 4083.79 4187.94 4351.38 5550.75 5933.7 4809.67 4757.74 4356.25 5776.96 4209.49 4216.95 5742.74 5464.25 3946.28 3821.94 3498.16 4209.31 5439.9 5486.48 4409.27 4752.9 5301.47 4617.55 4947.24 3875.05 4588.99 4321.21 3540.11 5950.45 4344.34 5713.03 5849.65 3583.49 3673.28 4928.27 5052.84 5297.16 4165.21 4603.5 4647.67 4214.44 5375.12 4787.97 4892.44 4356.36 3746.36 6789.23 4741.28 4215.2 5069.89 4157.29 5107.0 6212.15 6813.72 5327.75 4609.02 4946.23 4896.65 6083.28 5806.31 6100.73 4745.79 5456.71 4908.75 6556.26 3971.08 6204.65 4482.9 4593.7 4349.13 4891.67 6818.91 3503.65 3634.5 6631.28 6571.31 4392.65 6413.15 4058.87 5174.75 5048.55 4984.46 5948.71 5844.72 3856.53 3992.97 5460.89 6040.74 5260.85 2884.65 7228.94 5393.65 4961.99 4648.21 4393.16 3311.29 4549.69 6423.81 6192.77 4312.15 4583.52 6418.11 6015.02 4922.49 5244.22 5585.14 7039.98 4820.17 4729.42 4159.81 5244.98 3886.72 5792.98 6592.93 6350.71 6436.74 2460.79 4456.11 4653.83 5096.24 6171.71 7382.3 2995.67 4668.88 5522.21 4022.56 5027.43 5698.23 3772.3 4855.01 7300.58 4714.83 3608.06 5474.15 7519.2 4884.59 6633.61 6355.68 5217.95 5484.36 4511.7 3953.55 5980.59 4304.63 5263.27 6834.41 5021.77 7248.4 6045.67 3796.15 5466.33 5280.12 4801.8 7216.98 4444.97 5984.81 5721.05 5271.02 7013.17 6329.53 3805.67 4247.69 5718.28 5367.73 4514.39 4640.06 6242.79 6506.86 5088.57 4803.57 5580.34 3852.6 5134.67 5775.31 4110.59 4847.14 3332.49 4215.0 4706.5 5354.66 3950.27 3566.79 5116.66 3629.44 5378.23 5003.78 4981.43 5374.67 4061.6 5473.72 2603.64 2856.55 2205.51 4553.68 5361.87 6502.97 4783.07 3758.22 4757.2 4852.58 5561.74 5975.23 4788.08 4198.94 5470.04 4211.82 6003.78 5684.25 5438.92 6550.4 5036.98 3766.69 5513.8 5188.53 4521.75 4027.63 3429.57 5569.2 5350.88 5420.67 4642.74 6103.11 5416.45 6459.51 4024.31 4955.16 4904.51 4147.31 5989.05 4054.22 5751.15 5950.88 4441.22 4149.55 5853.89 6551.93 4595.12 3110.13 4386.8 6484.43 4625.67 4725.01 3485.54 4458.64 3657.69 4883.63 3492.83 6280.13 4971.29 3684.15 5832.29 4438.76 6006.89 6456.58 3814.65 3965.3 4960.64 4983.3 4385.81 4034.05 5690.96 5798.38 3862.91 4125.9 5366.11 5039.12 3908.98 3628.89 6589.82 6328.42 7307.21 5522.75 5867.64 6208.9 4923.57 6059.93 3340.09 5602.53 6061.63 4867.7 2279.05 4829.35 4075.28 4063.9 4277.24 4469.54 4314.56 6300.92 5161.1 5291.05 3928.53 6226.14 5740.65 5599.29 6038.68 5046.12 5067.56 3000.29 3834.47 2596.96 4807.4 4350.15 4590.01 4139.3 3516.27 6541.45 4601.74 4263.78 6101.86 5078.31 4227.41 5993.0 5391.48 4923.43 5966.42 5009.83 5131.15 5210.38 5717.8 4811.22 3683.86 4918.76 3299.24 5293.75 6246.56 4208.41 5826.78 4508.18 6214.73 5175.89 3894.64 3703.49 4268.19 4374.74 3717.47 4062.56 3205.68 6200.63 4532.7 4504.86 3217.67 4473.29 5079.64 996.652 6163.54 5212.37 2628.22 5965.58 5058.51 3352.34 4901.29 4244.49 4124.76 4050.03 4775.04 4120.07 4882.66 6746.66 5410.33 3908.56 6735.97 5244.78 5305.59 3636.15 6114.89 4330.58 5754.6 3288.01 4355.83 6870.97 2202.77 5351.86 6056.87 5474.01 6201.86 7554.58 3380.69 4140.4 5166.89 3639.44 5446.4 5725.37 5966.75 5510.9 3743.76 4505.28 6711.21 5510.45 4730.14 2606.51 3994.39 3864.92 4941.02 6119.99 4618.73 2955.36 3668.93 4128.1 4009.24 5372.82 4402.17 7778.01 5127.82 5124.17 5805.1 7320.78 3419.87 4064.58 4234.88 4824.81 4384.28 5769.14 5944.3 3563.14 5135.5 3619.72 3381.82 5347.9 4646.51 4438.58 4565.93 4504.52 7107.63 5073.02 6545.43 6760.92 3472.91 4989.2 4023.93 8137.11 5484.32 6650.77 4173.54 4619.2 5606.51 5166.41 4824.12 7104.73 4383.47 6162.3 6349.67 4264.54 5262.47 5261.19 7043.44 4263.65 4750.49 4643.9 4258.98 5228.75 4807.35 6047.14 5467.63 4568.64 5666.95 4642.2 3919.62 4127.53 5750.35 4474.83 5210.75 4548.45 6555.44 5658.14 5730.61 5114.07 4385.49 7124.45 6358.93 5064.67 6618.21 5232.85 2617.39 4051.18 5144.44 5969.37 6816.66 3844.54 5034.69 5849.53 4509.46 3538.53 4680.69 4420.11 6500.49 6127.39 4972.18 4607.18 3899.7 7200.89 4813.33 4952.52 4802.98 3840.21 4081.34 4833.55 4954.76 6334.53 4844.83 5377.37 5652.87 5483.7 5135.63 5018.69 6384.7 5952.38 3896.27 5807.52 5963.36 5230.02 5307.35 4342.18 6016.08 4731.21 5491.63 6102.98 3868.62 5138.33 5153.18 3425.69 4763.4 4236.86 5393.76 4983.1 5806.61 7123.04 5906.57 4446.58 5401.4 5053.15 5910.86 3220.29 6239.68 3845.9 4141.21 4834.44 5782.43 4456.26 5113.6 3873.92 4810.98 5091.22 5640.72 6282.38 5851.63 4546.44 5727.79 5212.92 4831.93 5788.97 5615.84 4464.73 4928.85 6440.38 5868.89 5556.0 4711.04 5007.21 3274.85 7144.05 4506.18 4067.96 4099.26 2970.9 5206.47 6542.5 4580.06 4834.39 5971.21 3926.11 5493.89 5701.75 3272.75 7066.96 3104.96 3512.94 4467.0 4991.35 3831.52 4587.7 4994.65 5196.92 6106.43 3787.08 5644.81 6761.81 5334.36 3903.91 4728.55 4929.6 4554.68 4368.28 4692.32 4489.99 4945.0 4658.11 4212.15 4551.26 5678.58 6570.35 4263.18 7142.95 4383.68 4559.74 5836.26 6015.22 6666.67 6063.44 4583.94 5046.31 4928.35 1937.5 5241.75 4731.53 3763.9 4651.99 4788.7 5863.0 5084.5 5640.12 5329.76 5078.59 2403.72 5134.33 4147.49 5162.67 3646.95 5760.98 7224.99 5384.86 4749.96 4658.24 5869.67 4311.48 4899.73 3152.86 5457.66 6394.19 5973.89 5518.11 5087.14 5712.35 5169.48 4743.9 3124.7 6776.22 6064.71 3719.11 6060.17 4467.13 6273.6 5136.87 5902.67 5454.11 3779.45 2741.2 5784.37 6010.59 3142.09 3682.35 3756.96 6110.48 7541.76 4775.49 4681.29 5499.59 5749.6 6715.73 4439.71 4174.44 5667.51 4027.33 4708.31 4198.9 5431.29 5026.76 5023.41 5325.91 4092.07 5657.55 4213.05 4224.3 4184.21 4700.07 5188.82 5273.37 5043.14 4717.73 4732.37 4985.3 5072.5 3904.07 5748.9 5545.59 5553.94 5494.28 5610.53 3663.0 4954.81 6304.49 5755.15 4608.34 4835.97 6419.64 4057.17 5464.83 2781.96 5414.58 4431.23 5917.34 5740.98 5601.55 4462.87 4346.07 4013.86 6545.99 4177.47 4218.16 5630.9 2918.64 4140.92 4512.07 5984.8 4896.43 5236.24 3127.83 4585.04 5260.52 3185.09 5114.23 4242.63 5495.0 3269.54 7407.91 5064.23 6061.85 4454.74 5512.44 2904.46 4826.52 5120.92 4337.32 4685.4 6240.42 5146.0 5721.14 4288.45 4577.73 4987.28 4918.64 6638.25 4759.99 2646.13 4365.58 5419.57 5214.4 4636.53 3629.49 4705.68 5469.35 3835.81 4019.34 3623.19 4869.48 4906.11 4387.39 4564.1 5825.55 5509.51 4848.14 5366.22 4316.5 3199.4 6193.73 5254.24 3742.11 4192.21 3597.43 5701.52 4158.91 3360.86 5311.55 5321.17 3034.16 4869.25 3877.8 5545.21 4333.87 3667.93 5024.32 4708.17 4644.88 5790.42 7350.26 5591.77 5182.13 5003.3 6245.52 4932.29 3954.77 3784.94 4990.23 6793.1 6016.87 3125.13 4506.66 5209.55 4564.41 6331.74 5951.86 4833.67 4252.18 4659.88 3791.41 5853.12 5157.38 6203.03 5235.87 5473.89 6089.45 5810.17 4966.07 5713.36 4749.18 3669.32 4704.92 3742.31 4316.0 4546.96 5424.55 5134.72 5695.79 3814.16 5287.25 4420.6 3622.8 4770.51 5577.41 6511.37 4216.44 3999.5 4012.92 5759.79 5034.05 4598.54 5218.42 4933.49 6139.64 3990.94 4756.8 4357.11 5463.06 5477.8 4176.32 4639.8 3986.41 4241.68 6102.49 3469.18 2945.34 3372.95 4489.29 4301.93 5846.95 5268.15 5819.0 6449.06 4924.07 3200.6 4629.02 5914.5 6006.16 4608.62 5407.96 4071.75 6206.98 6562.03 4815.47 4368.12 4410.82 6443.99 3889.98 5193.58 5399.43 5766.05 5117.64 3916.42 5429.3 5510.96 6653.07 4745.16 4697.91 4584.81 5071.98 5719.79 4371.08 7261.51 4968.14 4914.03 5086.29 5144.56 5139.18 5551.43 4278.57 5049.99 4201.03 5001.87 5684.05 4279.44 5638.7 4899.19 5813.79 5058.34 4028.22 5293.13 5487.63 3768.46 3852.82 5167.53 4168.52 7145.73 5800.81 5403.97 5106.46 4068.31 5166.05 5077.29 5515.73 4850.5 5426.4 5763.05 5129.68 5679.74 5357.39 5076.84 5247.01 4208.37 5702.4 4841.7 5069.9 5685.74 952.938 6740.35 4678.7 3450.07 3673.6 3306.84 5265.21 4657.24 4400.14 5191.26 5866.42 5544.27 4762.1 3987.69 3484.81 6502.99 4287.25 4392.75 4666.12 4921.1 4271.07 4191.01 4475.38 4589.06 5340.05 4920.88 4184.47 5890.25 5700.79 6710.14 4726.2 4426.02 4816.51 5345.73 3825.48 4770.63 5188.22 3810.68 4841.23 4196.62 2804.54 5005.6 2809.19 5486.89 4462.35 6069.78 5532.75 6949.65 4095.83 4975.85 5695.25 5676.61 5716.42 5701.63 4620.95 6347.72 3460.93 4488.39 5124.86 4927.73 4602.57 3565.32 3763.85 3419.07 5710.33 5344.44 4626.72 5131.77 5549.71 3186.07 4967.51 7212.97 5490.64 5034.34 5695.44 3422.21 4507.46 5036.14 5603.68 4944.51 5532.72 5610.95 3220.8 5179.17 5579.39 5270.51 5148.1 5490.75 5224.64 5949.73 4312.48 5527.13 6370.33 5081.08 6318.25 6864.06 4493.79 6008.81 4932.56 5192.49 3487.31 3918.94 6643.4 5575.11 5461.72 6599.28 4507.36 6224.85 4556.19 5368.66 4795.08 6562.92 5501.73 3671.06 3612.44 4697.24 7035.54 5233.76 5866.91 4683.28 6405.69 2820.07 6549.8 4851.18 4825.73 4165.36 5288.33 4871.77 6296.54 5797.21 6019.35 6075.99 6028.63 5927.2 4550.92 5146.1 6215.87 6485.77 6060.06 5960.5 5308.33 6896.55 4685.65 6219.34 5377.01 6023.07 5674.63 6506.63 4140.04 4668.8 5995.4 3495.3 5322.11 4697.49 5735.08 7133.44 4750.81 4711.15 3953.26 4474.39 4658.59 6478.35 5453.77 4916.7 5589.53 7208.19 4549.51 5025.42 5196.08 3587.93 4517.29 4495.75 5323.95 4849.5 6171.01 5796.26 4603.04 4870.94 5368.93 5271.88 6121.56 7168.2 4571.74 4096.86 3622.48 5001.51 6432.8 5115.42 4369.86 5482.76 5173.82 3745.02 3720.7 4211.36 5698.53 3604.31 3769.2 3856.73 4450.49 3468.45 5635.32 4526.34 4316.45 5409.08 5042.75 4598.92 5241.22 6647.08 4979.52 3422.29 4407.79 5214.63 3495.68 3990.96 5783.94 5352.24 7362.42 4202.77 5836.14 5473.05 5537.34 5884.99 5726.42 4674.9 3392.26 4433.12 2549.95 4361.24 5138.93 6406.8 5648.78 6875.73 5226.42 6081.3 4983.43 5117.52 6311.89 6734.39 4217.36 5942.45 4150.76 5005.72 5368.52 5155.28 5811.26 5062.77 5205.38 4884.93 4600.71 5262.79 4494.15 5035.71 4419.79 3869.39 5407.69 5152.78 4117.9 5393.43 4753.76 4638.09 4441.91 5330.26 6470.23 5939.22 4215.05 4271.93 5125.17 4859.01 5524.45 5990.75 5600.21 5467.51 5459.92 4625.53 4096.47 5114.67 4104.04 5353.66 2638.82 5030.33 5593.79 5234.2 4965.24 6379.38 6257.79 5353.23 6229.83 4468.26 4523.81 5578.18 5106.33 5293.37 5198.94 5933.54 5559.79 2980.31 5879.24 5740.78 4796.12 5997.91 5385.86 6791.86 4082.4 4209.0 4930.72 5728.58 4887.73 6297.99 5378.24 5817.74 5887.71 4827.61 5661.6 5285.75 5385.03 5481.64 5673.75 5360.67 5968.54 6263.3 4501.05 4537.03 6548.29 4114.2 4326.06 5034.46 5757.29 5793.12 5469.17 5061.75 4373.2 6022.78 4087.32 6647.85 7025.09 5161.74 7336.37 5099.9 6945.69 5118.86 7086.69 6170.9 5833.78 4436.48 5758.98 5615.35 3967.76 5288.64 6213.24 3579.59 4228.53 6123.46 6142.88 5111.26 5388.73 4574.54 4949.55 4764.83 4841.28 1969.87 3957.38 5507.38 6889.5 4710.88 5300.17 4052.43 4057.4 5534.23 6025.77 4781.9 6815.96 5339.6 5828.25 4725.11 3626.86 6371.96 4604.1 5322.07 5076.11 5770.07 5101.6 4282.11 4656.01 6589.13 2347.41 5602.62 4542.16 3543.37 2030.03 5628.97 5527.27 5104.39 4612.13 5847.91 5846.6 5327.05 5438.55 4434.65 5977.66 5209.5 5065.74 5791.25 4873.23 4028.35 5464.05 5453.2 3148.79 6348.93 6824.53 4332.64 4742.82 4422.23 4820.68 6031.22 5485.84 6424.77 5453.69 5918.95 4538.89 5689.56 6556.86 3242.31 6099.28 5372.25 4169.15 3234.26 4778.37 5134.17 4074.16 4904.35 5592.54 3247.97 5124.34 4904.37 4358.81 4651.64 5729.92 5016.46 6224.13 4761.84 3769.24 3661.67 5517.65 4009.68 2569.12 4622.73 4161.32 5256.75 6351.89 5932.28 2960.5 4298.7 4975.32 4183.4 3902.48 4304.64 4733.79 4905.53 4823.06 5254.49 3757.23 6828.8 5987.88 6161.94 4065.28 5057.59 4461.14 5418.98 5285.6 5615.06 3132.34 5490.54 5203.54 4047.95 6142.94 5001.69 4416.87 6581.56 3980.46 4896.67 5383.9 3934.11 5158.44 4466.22 3886.56 4496.51 6153.71 5917.08 5483.37 5418.12 5092.93 5934.05 4714.66 6771.18 4984.17 5781.62 4037.86 4138.59 5714.51 4938.33 4484.78 4621.33 5157.73 4541.22 4946.08 4934.66 4984.01 4109.44 6217.33 4903.84 4290.49 4557.1 6688.53 5927.1 6175.27 5876.51 6731.89 5410.6 5264.83 3901.53 5136.51 6815.51 5232.16 4457.05 3989.26 3618.64 5703.84 4335.79 3530.82 5797.32 5432.04 3921.27 3702.45 3161.1 5265.63 4898.29 4431.06 5730.2 4830.13 3494.16 5620.88 5370.9 4529.77 4325.13 6172.27 5390.33 3783.79 5078.73 5278.54 5729.0 5192.92 5275.57 4179.87 4786.66 5891.25 5370.1 5129.4 5114.51 3303.49 4655.37 5585.25 5023.61 4672.86 6530.78 5560.23 3043.77 5237.55 6030.39 3909.94 6589.8 3799.01 7392.65 5319.1 4181.93 6570.43 6883.86 3350.99 4979.5 4745.37 5939.29 6200.05 5575.11 4052.49 5061.74 5326.03 6189.67 4948.96 5117.83 5256.82 4013.86 4061.87 5165.31 3798.09 4288.5 5715.51 4511.05 3721.69 3456.3 6561.94 5259.21 4256.08 5881.93 2803.01 4444.0 4399.52 4554.24 6182.19 3939.96 5327.39 5910.66 7415.84 4981.81 5141.03 4970.55 8123.59 5765.14 4767.54 3539.68 2927.84 4696.03 6177.68 4605.39 6270.59 6045.26 6500.45 4907.55 4103.76 2932.52 4286.61 4733.41 4603.66 4969.68 6636.43 5431.14 6298.8 5313.86 3689.24 5178.07 5189.91 5777.26 4171.02 7012.36 5028.06 4002.99 4886.99 5159.67 5764.52 5684.88 6523.78 4645.86 4045.67 4941.52 5900.0 4262.74 6241.77 5317.19 4248.14 5279.19 4016.6 5821.49 7050.08 5580.44 5998.13 5095.52 4746.15 3720.38 4758.84 4731.37 3976.0 4068.41 6463.71 5059.37 5783.38 4139.39 6264.03 5088.64 3562.8 5192.82 6920.92 4174.22 3729.16 3783.36 3573.84 3038.91 4067.89 3922.28 3445.92 4571.57 3820.19 5131.07 5236.69 4586.82 3133.28 5524.28 6026.04 5859.17 4034.41 4150.44 5522.34 5771.98 4420.35 5717.45 5772.57 4813.81 5268.27 5244.95 4645.93 5448.64 4585.37 6417.61 5395.12 5783.69 6074.39 5317.83 6738.9 4460.89 4157.1 8052.53 4867.12 6044.01 4637.3 1458.87 5734.07 4840.44 3997.68 4819.83 4801.16 5121.08 5071.38 5688.77 4698.7 6229.64 2848.44 4220.43 6263.87 5743.8 4094.63 5084.76 6605.11 4757.87 3557.46 5971.95 5652.73 3979.46 6321.97 5151.19 6509.54 6119.0 3792.06 5128.59 4293.3 5587.3 3572.73 4864.38 3770.22 4390.64 5150.84 4608.01 5087.97 6005.95 4308.49 4930.17 4581.1 4745.44 4085.96 5762.82 7360.12 6223.98 5462.6 5617.29 3035.06 4262.19 4597.88 4878.93 6275.25 6892.33 4505.3 4452.36 4511.34 4832.21 5009.21 4742.35 5394.79 5645.54 5264.08 4526.87 4227.66 4151.74 4594.89 5245.95 5821.42 4515.02 3463.53 6294.09 6126.03 4121.07 4197.87 2970.24 5105.54 5731.43 6353.81 3518.14 3414.67 5444.36 2649.69 5044.68 6908.32 5899.78 3467.11 5000.74 6153.26 5637.53 4634.25 3882.37 4095.4 5901.8 5188.57 6351.48 3830.7 6210.0 5350.9 3483.61 4262.52 5992.06 5545.68 4970.12 4967.93 6520.19 5973.57 6241.48 6033.28 6286.27 5616.66 4802.36 5368.28 5466.13 5257.38 5075.23 4975.56 7282.36 6666.34 4645.91 5581.01 6834.92 6379.33 5130.57 5090.48 5402.45 3985.93 6412.84 6071.59 2589.19 6079.55 5485.61 4993.49 5310.33 6583.37 4569.32 3688.83 3402.44 4848.98 4491.96 5184.98 4467.51 5339.82 4519.03 5460.57 5110.27 5703.34 4612.68 6668.98 6649.52 4232.33 4939.56 4747.68 5770.92 3093.38 4845.91 2002.78 4461.67 5631.32 6322.0 5793.14 4491.26 4609.65 5704.61 5410.73 4379.91 4574.03 5290.37 5850.38 4691.01 4730.97 3677.85 5214.71 4677.84 4811.11 4924.52 4866.8 6044.69 5658.05 6593.1 5462.1 6032.45 5011.37 4026.03 2827.92 4441.44 5336.61 4817.75 5563.09 4848.15 4439.09 5523.81 4718.61 3873.79 5717.67 5357.33 5252.37 5432.4 5037.58 7430.48 5640.67 6572.17 6080.69 5555.89 4766.47 6369.66 5678.08 5922.62 5125.45 5191.29 5957.82 3784.68 4188.16 3717.22 6327.54 5507.07 4654.92 2943.17 5327.71 4880.78 4322.56 5509.09 5625.02 5212.05 4829.77 3826.01 3928.99 4444.92 6959.88 4125.75 5749.53 5247.73 5034.02 5582.28 5945.25 5181.31 3856.4 4696.06 4137.16 4937.36 5308.4 6581.13 5803.3 5537.61 6084.88 4397.06 4199.44 3543.98 4053.12 4479.5 6261.67 3435.13 5065.78 4431.46 4521.42 3207.84 3977.98 6043.34 4128.93 4959.72 4712.17 3808.04 4723.71 4405.61 6126.5 4034.88 6007.1 6345.2 5488.96 5128.03 3720.92 5087.3 4942.63 6139.74 4975.57 7066.26 3057.3 6150.31 5873.62 4996.91 3920.44 5379.52 3768.62 5314.67 5563.47 5651.46 4066.36 4000.51 6033.93 3162.27 5516.37 5092.44 5432.2 4232.44 4612.4 3312.3 4746.19 6381.58 3282.57 4798.13 5648.59 6697.45 5515.59 4432.32 3224.81 4499.54 3775.38 4046.22 6457.89 4844.2 3751.73 6118.13 3374.62 4926.62 4871.1 3917.09 6009.93 5872.45 4414.09 5270.1 4947.64 6305.9 6649.21 3470.69 4859.95 5286.55 4132.08 5522.18 5223.1 3873.72 4592.49 3625.98 5479.86 6474.5 4702.32 4763.04 5971.9 3746.62 4532.67 4876.37 4769.62 5260.13 4649.5 4810.74 5985.75 5475.83 6189.29 5984.55 5672.46 3228.27 4721.98 5252.82 4142.1 5056.26 5878.55 4014.44 6604.72 6002.77 3794.47 4610.55 4967.02 4614.49 5400.69 4462.5 5573.31 5004.68 4023.88 4179.8 5348.11 3488.34 5428.24 5108.84 4582.12 3511.5 4520.14 5067.92 5357.14 3188.21 5919.27 4793.06 6637.38 6188.33 6111.23 6916.18 5786.06 4137.41 3868.69 5447.74 4450.51 6033.72 3851.47 4966.74 4959.94 1635.31 5639.4 6185.73 4083.24 6520.96 3771.91 5217.62 6178.19 4616.81 5715.25 5212.2 4611.21 5108.42 4630.5 3354.94 6296.36 4451.76 5237.27 7885.41 5782.25 4104.97 4575.72 4081.77 5114.61 4948.21 4987.01 4420.3 2181.29 6332.64 6492.44 4083.1 3482.73 3996.93 5130.56 4957.99 4063.26 4997.89 4542.62 5093.28 6131.52 6009.88 4699.77 4850.49 4981.55 5144.23 6188.62 6153.07 4414.06 5944.52 4413.56 5050.2 2513.38 5316.05 4908.32 3995.08 5019.84 3900.93 5784.38 4149.17 4329.8 5728.27 3074.49 5202.33 3956.24 7558.99 3393.59 4032.06 5043.14 5333.04 5445.91 4521.99 4812.59 6842.54 7115.67 5675.45 3361.11 6038.56 2807.46 5599.16 4577.98 5658.35 5886.81 4487.51 4295.25 7394.47 4850.95 4729.45 5374.09 6271.22 3421.81 5378.75 3920.64 6186.24 5822.7 3780.07 4159.89 5466.49 4038.17 5007.41 3692.99 4907.48 6213.74 2329.93 4369.87 6938.87 5412.07 5512.57 4806.99 4813.55 5856.43 3465.03 3839.0 5349.85 5799.86 5172.1 4362.94 4469.82 6545.78 4870.14 4404.87 2932.2 5105.72 5767.65 5003.49 4750.76 4907.03 5497.27 5617.91 4721.2 4202.12 4706.31 2694.25 4735.99 4203.68 4739.56 4613.32 5145.39 3352.46 6351.95 5195.09 5345.05 7679.2 4881.51 4311.92 2626.41 6729.99 5093.41 6842.35 5464.34 3621.63 4777.96 5801.89 5908.57 7296.47 5742.39 4821.41 4924.53 5616.11 4499.52 4813.24 4028.13 3874.12 4457.73 6476.35 3113.64 6260.58 3053.19 4067.24 6139.9 6571.26 5580.95 3549.92 6598.99 5250.56 5246.81 5089.1 5888.95 5394.78 3463.34 5169.09 5122.38 2853.68 5262.85 4998.37 5329.84 6559.82 3879.83 5342.9 6565.95 5733.12 5043.34 4246.24 6805.02 5354.48 5640.63 4900.26 6261.13 4167.55 4720.34 5244.47 4731.16 5510.89 6470.87 4495.33 5282.67 5747.9 5178.55 5146.69 6203.24 6818.23 4488.41 6679.12 5652.19 5806.74 6578.62 6284.12 4796.04 5229.56 6011.4 4672.34 6052.22 5376.41 5003.63 4695.7 4944.08 4082.01 5269.39 3964.03 4305.35 4216.33 5210.22 5832.72 2451.27 3903.9 4444.95 5161.02 3124.49 6265.48 5003.81 6262.18 4701.03 3818.37 6225.05 5434.04 5200.1 3997.52 4444.54 5779.9 4909.74 5310.33 5299.03 6664.54 3922.98 5161.73 5259.48 5254.93 4803.4 6833.5 6608.94 2613.78 4780.16 5417.07 3834.01 5738.37 4433.23 4739.41 5759.19 5847.27 4490.2 4304.75 5480.86 4720.22 4313.38 5827.3 6036.99 3633.58 2468.16 3825.98 6294.14 4339.97 5203.75 3906.41 4691.15 2459.88 4512.6 4210.24 5470.67 5901.71 5225.11 5252.22 4962.35 6436.29 5402.81 4600.81 4328.76 4919.13 5168.97 4124.33 5783.88 5002.38 6705.93 4865.11 5449.09 5502.14 4605.61 4465.56 4131.08 5386.95 3864.19 4287.93 5332.11 5315.71 6158.93 5081.65 4823.14 5438.5 4621.32 5699.4 3878.8 4698.94 3948.21 4286.84 5669.15 5296.05 5263.86 3330.85 5056.32 5533.52 5410.33 4747.24 4380.86 5576.16 5648.02 3308.75 4439.17 5677.42 4929.35 5606.22 3943.77 5242.38 6081.35 5459.52 4609.98 5566.5 5663.36 4276.59 5579.04 5125.53 5994.21 5403.81 5082.25 6964.78 4374.05 5036.84 4565.36 5813.68 4025.08 4008.67 3618.53 4770.21 8013.28 3846.55 3796.73 3082.16 4644.68 5656.84 6789.66 5416.41 5312.2 4706.59 5734.84 3982.31 4950.07 4582.24 2832.83 4474.96 4084.87 3010.1 5259.29 3584.05 4589.22 5087.03 4818.53 4667.84 5584.64 4123.08 6224.64 4260.38 4636.45 3799.55 4932.27 5638.51 6793.49 3563.33 6060.19 5536.0 6786.37 4333.23 5145.13 5561.63 5940.5 4358.06 5093.51 5647.93 4280.92 6201.49 4696.92 5154.74 6437.99 6898.8 6540.57 4893.72 6004.72 4072.4 5373.78 5345.65 5863.36 4489.18 4632.75 5237.76 4752.94 4994.98 6423.96 6058.13 5894.69 6988.4 6635.51 4060.17 6051.35 5302.53 4909.13 4287.61 3999.81 4867.13 4604.34 4863.27 2701.42 5442.79 5051.39 6673.92 5151.68 4884.94 5362.15 4455.61 4738.72 4752.31 5240.97 5569.85 5405.6 3929.35 4884.93 4759.38 6960.97 4287.15 5282.51 5504.65 5669.41 5732.11 5040.9 5596.68 4868.66 4004.39 5159.9 5283.65 2892.36 5981.54 5911.29 4542.25 4694.27 6760.64 2515.5 4849.21 5177.88 5551.79 3793.83 6981.47 3916.15 5367.05 4758.76 4790.63 4088.72 3945.62 4916.75 5097.85 6379.3 6189.04 4221.03 5189.4 5082.66 4550.77 4337.93 3550.88 5201.3 4345.51 4048.73 6223.33 3860.8 3747.96 5611.29 4521.88 6568.45 5004.22 4601.54 7263.57 3832.09 5705.96 5267.65 5739.69 6632.04 5360.88 7360.62 4977.64 4985.45 4983.56 5699.51 2489.44 5499.37 4883.13 4836.76 5551.09 3950.53 4501.1 5581.47 4384.91 6550.61 4987.01 4713.56 6094.34 6779.82 5543.67 6210.48 6377.45 4182.05 4502.12 3255.93 6853.07 6327.61 4633.59 5733.59 5575.8 5268.93 3695.72 6874.6 5106.9 5306.31 5523.96 4223.53 4733.37 4535.94 3037.72 4523.9 5126.08 5604.0 3760.4 4951.02 3919.47 4602.7 3783.35 4037.16 6395.63 4987.48 5943.61 4248.58 5479.17 5020.37 4414.23 5233.88 4785.55 5245.4 6189.81 4449.73 5647.11 3743.85 6236.46 5342.17 5015.67 3795.63 4576.71 6538.04 4894.15 6157.59 5848.41 4090.28 4246.83 5438.6 7370.52 4726.5 5467.05 3724.23 5103.3 4963.88 5888.94 4727.98 4122.2 5175.88 4516.26 4790.16 3509.34 3647.26 3731.58 3166.37 5369.42 5207.08 5205.53 4714.52 4587.19 5543.05 6028.89 5333.16 4888.17 5755.98 5392.85 5077.2 4274.05 5275.27 4277.54 5529.09 4531.46 5925.82 5448.68 4739.5 4072.95 4491.62 3865.5 
SCALARS Velocity float 1
LOOKUP_TABLE default
1.65046 1.48612 1.42624 1.47249 1.59727 1.6134 1.46418 1.61818 1.55311 1.49867 1.59506 1.62371 1.46209 1.78157 1.66143 1.6932 1.57741 1.55518 1.51457 1.58235 1.61611 1.63681 1.45682 1.54397 1.58456 1.49603 1.61676 1.6334 1.7711 1.6818 1.83069 1.64876 1.64835 1.52336 1.6966 1.79542 1.67745 1.8302 1.82421 1.59083 1.53731 1.55178 1.56717 1.55854 1.56741 1.59167 1.55233 1.73571 1.47768 1.52161 1.61802 1.65768 1.50772 1.71568 1.23187 1.54166 1.46619 1.47366 1.57914 1.64026 1.49451 1.68513 1.46056 1.70885 1.72474 1.76832 1.60637 1.72292 1.52205 1.66178 1.53288 1.56749 1.54112 1.51913 1.73673 1.52849 1.56049 2.08758 1.54695 1.66377 1.68199 1.69386 1.61402 1.55748 1.52972 1.2866 1.53569 1.65803 1.61583 1.60888 1.25226 1.80384 1.49755 1.56259 1.48537 1.47095 1.42961 1.86598 1.75934 1.71182 1.74074 2.15104 1.78321 1.15632 1.61337 1.74699 1.60915 1.53356 1.56475 1.5952 1.36493 1.40345 1.19129 1.63306 1.67051 1.68905 1.25106 1.13475 1.62509 1.60892 1.65539 1.50247 1.4817 1.81158 2.58018 3.19903 1.75299 1.90966 1.65934 1.60097 1.51149 1.59887 1.72178 1.51044 1.65311 1.63591 1.55636 1.59871 1.4685 1.3079 1.60055 1.77416 1.34817 1.64504 1.4632 1.63427 1.55494 1.69403 1.53082 1.52559 1.76207 1.83072 2.30606 3.66297 1.713 0.60297 0.85077 1.15856 2.4265 1.71496 1.94189 1.48337 1.30091 1.44137 1.54055 1.50838 1.5254 1.65653 1.50587 1.4067 1.46987 1.46059 1.36115 1.44475 1.59132 1.17012 1.38744 1.67575 1.43324 1.69749 1.48636 1.53462 1.762 1.15794 1.75922 1.89592 3.01354 2.23642 0.767746 0.44311 1.1593 1.11262 1.21517 1.2951 1.41887 1.29827 1.72826 1.31848 1.45995 1.66193 1.54227 1.46683 1.27504 1.73457 1.48447 1.37367 1.42783 1.28876 1.49928 1.5439 1.38892 1.42425 1.57713 1.48847 1.3166 1.42666 1.46312 1.28597 1.2116 1.63991 1.62759 1.89082 1.57891 1.44293 0.784539 0.932534 0.98309 1.0957 1.14293 1.12394 1.18396 1.15873 1.18934 1.16652 1.21121 1.17375 1.25412 1.40206 1.53141 1.45862 1.42205 1.3023 1.58853 1.25489 1.16885 1.22369 1.16006 1.33781 1.70685 1.41725 1.20344 1.32914 1.59206 1.47476 1.25686 1.24234 1.42267 1.42541 1.38396 1.44419 1.42474 1.11851 1.26727 1.40477 1.56278 1.51519 1.26587 1.30599 1.13989 1.13202 1.05432 1.06957 1.08659 1.1016 1.10611 0.993966 1.03798 0.958727 1.29445 1.28078 1.21826 1.05714 1.07468 1.13038 1.26563 1.07076 1.26351 1.08632 1.29205 1.24407 1.32093 1.07683 0.866907 1.29209 0.896512 0.527299 1.5528 0.802555 1.23994 1.07122 1.27551 1.29405 1.24987 1.66998 1.87655 1.41192 1.41385 1.275 1.17484 1.07921 1.13113 1.20621 1.33985 1.38592 1.20297 1.12891 1.12827 1.52724 1.54943 0.995115 1.28164 0.935028 1.02274 1.06055 1.06072 1.08404 1.06808 1.06301 1.06797 1.10093 1.13434 1.09153 1.04601 1.07518 1.05519 0.956819 1.03608 0.989994 1.06633 1.06971 1.08504 0.992581 1.00218 0.997262 1.01818 0.996561 1.02119 1.07386 1.18404 1.16783 1.07468 0.944142 0.981591 1.319 1.81336 1.42625 0.96875 0.99868 1.60631 1.13728 1.58552 1.44252 1.37417 1.25902 1.18201 1.20774 1.21337 1.29783 1.23168 1.27853 1.1314 0.91289 0.977931 1.20872 1.14404 1.27927 1.06894 1.03699 1.01674 1.08969 1.07092 1.05199 1.02746 1.07272 0.99058 1.03425 1.03746 1.04845 1.15248 1.13989 1.15297 1.08526 1.08386 0.999752 0.968136 0.98898 0.953496 1.01596 1.0032 1.03939 0.993351 0.98454 0.989899 0.984557 0.980997 1.01609 1.09864 1.15189 1.13808 1.05313 1.06476 1.18109 1.24702 1.46489 1.3214 1.24655 1.17659 1.09881 1.8122 0.715937 1.29962 1.3595 1.35051 1.20503 1.20602 1.22511 1.17607 1.24704 1.19326 1.24559 1.17278 1.29338 1.20766 1.20447 1.05972 1.03479 1.06817 1.05759 1.0405 1.03784 1.19722 1.03634 1.0005 0.895366 0.945138 1.01754 1.02856 1.12149 0.857645 0.92472 0.958925 1.02709 0.957158 0.928717 0.914109 0.981165 0.916288 1.05791 0.956344 1.06742 1.01293 0.957828 1.04872 1.05484 0.916176 0.969012 0.959929 0.958421 1.012 1.01113 0.989601 1.00144 0.994238 0.960997 0.968113 0.928486 0.973033 1.06393 1.00141 1.0564 1.13724 1.13828 1.16551 1.12353 1.07508 1.17868 1.13727 1.21112 1.21479 1.18765 1.00308 0.625281 1.06717 1.56429 0.841939 1.1954 1.01728 1.10804 1.09074 1.24708 1.16829 1.16931 1.24936 1.19672 1.42926 1.17709 1.04471 1.09788 1.18664 1.11106 1.1342 1.12886 1.08213 1.04535 1.02541 1.02051 1.03438 1.00214 0.840154 0.958915 0.934529 1.08688 0.977344 0.921694 0.87166 0.942569 0.899315 0.92912 0.912892 0.93201 0.902323 0.967487 1.07748 0.806421 0.840245 0.897651 0.98551 1.00968 0.993846 0.942073 1.04321 0.985442 1.01904 1.02789 1.04557 0.980776 0.915303 0.901039 0.898766 0.957584 1.00212 1.02136 0.998235 0.99559 0.930708 0.954549 0.953808 0.957766 0.908435 0.976754 0.854994 1.00206 1.10603 1.1753 1.11231 1.09687 1.03609 0.98059 1.10717 1.06098 1.1007 1.12953 1.03993 1.09889 1.02827 1.13113 0.927714 0.994186 1.02238 0.994514 1.09844 1.18944 1.1599 1.15237 1.15848 0.76933 1.08396 1.02113 1.03826 1.0463 1.09273 1.03019 1.03082 1.00659 1.03384 1.01115 0.993627 0.966929 0.948535 0.998814 0.953025 0.942536 0.921875 0.929228 0.921057 0.921972 0.876516 0.89127 0.899975 0.804588 0.77167 0.842388 1.11925 0.588735 1.06286 1.00717 0.81736 0.811022 0.856256 0.789712 0.844187 0.867458 0.841513 0.923267 0.884721 0.887987 0.955935 0.841953 0.900235 0.893778 0.838073 0.873127 0.9551 0.862983 0.946355 0.90221 0.935865 0.927243 0.910348 0.916847 0.948351 0.893564 0.936391 0.905886 0.967658 0.880004 0.752818 1.24876 1.13833 1.157 1.02987 1.06482 1.0638 1.06557 1.07972 1.11047 1.1123 1.09389 0.9572 1.00488 1.03486 1.07696 1.02547 1.03807 1.04306 1.01362 0.975743 0.992301 0.942608 1.02398 0.961261 1.08559 1.14016 1.1105 0.845734 0.894282 0.907126 0.935946 1.01193 1.02992 0.99523 0.974526 0.99284 0.977224 0.986009 0.983302 0.962048 0.956858 0.988694 0.951059 0.982355 0.978581 0.950466 0.948775 0.878221 0.94859 0.651405 0.985304 1.03967 0.66397 0.978397 0.811679 1.02754 0.972739 0.989349 0.973321 0.816159 0.814036 0.807004 0.834731 0.82833 0.862691 0.882608 0.888455 0.881018 0.86663 0.80526 0.824943 1.01461 0.911529 0.948064 0.934074 0.922015 0.875374 0.907461 0.928436 0.951969 0.953651 0.926339 0.928844 0.990485 0.907225 1.00105 0.963623 1.18023 1.02302 1.04071 1.04191 0.998271 1.06722 1.05988 1.07433 1.07318 1.03218 0.999494 1.03262 1.06274 1.04347 0.938702 0.966606 1.08002 1.09324 1.04122 1.06945 1.01298 0.98367 0.914256 0.940729 0.927703 1.07597 1.00801 0.960322 0.991986 0.990053 0.985184 0.984771 0.973138 0.973068 0.970876 0.977265 0.966268 0.957808 0.969537 0.958132 0.97169 1.07009 0.94828 1.02399 0.979624 0.884268 0.958485 1.00523 0.93363 0.905499 0.975139 0.959787 0.859753 1.05107 0.733746 0.801943 0.823665 0.856207 0.849918 0.834084 0.866622 0.878211 0.895797 0.900259 0.834949 0.877445 0.903026 1.04598 0.706368 0.946366 0.956418 0.941173 0.917918 0.932382 0.927866 0.941522 0.910886 0.929059 0.93797 0.938741 0.953108 0.950894 0.933209 0.946454 1.0001 1.02224 0.949325 1.24568 1.14483 0.960357 1.0516 0.956146 0.999745 1.03997 1.04465 1.07185 1.07609 1.09409 1.03917 1.02038 1.00399 1.00249 1.04104 1.11101 0.965231 0.931385 0.839584 1.12362 1.1292 1.11572 1.08409 1.04434 0.99312 0.957442 0.926421 0.930422 0.945862 1.01925 1.16677 1.0951 0.937741 0.859004 0.957894 0.943192 0.989201 0.984335 0.964685 0.969027 0.960668 0.950124 0.972433 0.959892 0.940015 0.970119 0.895477 0.924075 0.826246 0.790143 0.964797 0.861764 0.971096 0.815048 0.805042 0.997404 0.951517 0.965322 0.981484 0.902538 0.978498 1.01256 1.05895 0.954384 1.01584 0.997784 1.02556 0.999177 0.995302 1.00209 0.80532 0.765781 0.85381 0.845482 0.933927 0.864983 0.839207 0.832937 1.09527 0.866091 0.780639 0.91478 0.888436 1.0224 1.00479 0.962289 0.936556 0.951805 0.951744 0.956138 0.954843 0.954805 0.953704 0.964694 0.965182 0.925014 0.963649 1.07774 0.819309 0.585893 0.934835 1.08479 0.972853 1.07572 1.025 1.01979 1.08672 1.05951 1.02659 1.01649 1.00812 1.01849 0.990805 1.12234 1.06179 0.856997 0.94474 0.933194 0.873597 0.987506 1.24438 1.1055 1.11911 1.02772 1.00046 0.974768 0.943372 0.97393 0.961519 0.971811 0.989766 1.04161 1.08552 1.03782 0.883071 0.966877 0.931494 0.955183 0.949016 0.951279 0.942212 0.941286 0.930452 0.959861 0.977728 0.951741 0.889724 0.882205 0.91338 0.837936 0.87761 0.833639 0.825317 0.768953 0.836949 0.845705 0.815093 1.00092 0.854805 0.980692 0.806502 0.901638 0.965536 0.971949 0.921185 0.817292 0.858605 0.835207 0.826956 0.769368 0.800273 0.887895 0.900253 0.925234 0.929339 0.952901 0.88946 0.900569 0.860702 0.852287 0.861221 0.875435 0.928041 0.992153 0.856087 0.903107 0.879918 0.97953 0.96205 0.968316 0.950597 0.928862 0.915927 0.940568 0.91582 0.926351 0.937162 0.908269 0.919879 0.921226 0.873191 0.688603 0.900319 0.954931 1.02586 0.947867 1.10765 1.03087 1.00507 1.04229 0.999635 1.09144 1.03671 1.01379 1.01229 1.02227 1.06187 0.832701 0.904073 0.926861 0.907139 0.955013 0.949665 1.26537 1.09201 1.03588 1.00065 1.00357 0.978063 1.0007 1.02369 1.02934 1.02296 0.867283 0.895055 0.880357 0.945324 0.944888 0.948009 0.951881 0.952864 0.956672 0.989364 0.974442 0.932972 0.882461 0.922305 0.941069 0.875965 0.862974 0.866382 0.931095 0.986166 0.842153 0.84489 0.905555 0.844629 0.850517 0.889859 0.988655 0.815637 0.782343 0.821818 0.834969 0.767791 0.889337 0.811069 0.765126 0.790693 0.726339 0.792749 0.704764 0.801726 0.818911 0.796731 0.815548 0.791718 0.715405 0.867676 0.892128 0.921346 0.910463 0.896034 0.872017 0.862302 0.869076 0.995459 0.985263 0.886384 0.925891 0.958735 0.911596 0.889425 0.894561 0.90007 0.899911 0.887996 0.891784 0.856594 0.811743 0.887429 0.946322 0.968528 0.977219 1.03267 0.990879 1.05145 1.01714 1.03371 1.04235 0.965796 0.934314 1.02881 0.998691 1.02472 1.03721 1.02695 1.01273 1.04241 0.895612 0.919627 0.943906 0.943012 0.934402 0.880817 1.00701 0.995481 1.02712 1.0137 1.02458 1.01225 1.043 1.04005 1.02615 0.881648 0.947963 0.931845 0.910076 0.872946 0.926929 0.950185 0.954302 0.978156 1.02029 0.950787 0.84321 0.8448 0.962747 0.898438 0.938097 0.89693 0.720976 0.790491 0.850623 0.899639 0.947617 0.848856 0.906121 0.877227 0.954283 0.827166 0.82874 0.755726 0.846412 0.716692 0.678007 0.777175 0.76292 0.848258 0.834474 0.819613 0.829957 0.818739 0.808055 0.765019 0.83843 0.813287 0.843519 0.888042 0.886532 0.892974 0.818702 0.866551 0.785223 0.83194 0.700771 0.707595 0.784574 0.76857 0.793657 0.891354 0.886897 0.859805 0.925683 0.89317 0.907162 0.899603 0.890478 0.897697 0.884301 0.893735 0.893571 0.892507 0.893915 0.899386 0.900892 0.893773 0.859638 0.914153 0.876284 0.924374 0.918505 0.93525 0.970954 0.97275 0.986808 0.98914 1.05402 0.992508 0.992641 0.973761 1.01859 1.02442 1.00941 1.03705 1.04054 1.02816 1.01261 0.978926 0.973155 0.930207 0.940137 0.927323 0.931093 0.924434 0.994589 0.965488 1.02393 1.07356 1.01974 0.999294 1.0149 1.04118 1.06862 1.0381 0.979181 0.945301 0.924018 0.953176 0.941465 0.952826 0.946978 0.956157 0.973242 1.10441 1.01209 1.06208 0.763427 1.2816 0.665923 0.894679 0.959142 0.858498 0.884221 0.686078 0.839913 0.795892 0.72774 0.79804 0.764242 0.845862 0.833594 0.934916 0.837036 0.902405 0.899753 0.747827 0.867288 0.837101 0.712181 0.613183 0.646214 0.797069 0.764206 0.702678 0.878644 0.899877 0.816498 0.833165 0.814553 0.826201 0.794769 0.787234 0.772752 0.883892 0.822213 0.850412 0.787954 0.753065 0.72148 0.745714 0.754284 0.758254 0.822883 0.816715 0.827492 0.845238 0.847674 0.859612 0.890699 0.91284 0.892236 0.890213 0.885048 0.888707 0.89184 0.890272 0.889841 0.897692 0.926851 0.9509 0.922036 0.942663 0.996809 0.997329 1.01096 1.02206 0.920746 0.969746 0.982857 0.990063 0.993445 0.988856 1.01429 1.03745 1.03932 1.04955 1.00412 0.962618 0.965879 0.95201 0.92307 0.928101 0.940942 1.00615 1.03163 1.25391 0.915618 1.00242 1.00492 1.04853 1.05698 1.03665 1.00579 1.0004 0.951077 0.944256 0.934078 0.936996 0.925453 0.942625 0.935208 0.96223 0.907457 0.971974 1.50857 1.17372 0.877255 0.811166 0.876158 0.873752 0.868503 0.849582 0.828317 0.831106 0.830048 0.83012 0.836486 0.827358 0.907915 0.905066 0.863022 0.935557 0.923628 1.0124 0.932279 0.70339 0.618219 0.888842 0.590823 0.692239 0.668169 0.720927 0.733683 0.749153 0.746453 0.712084 0.822648 0.779662 0.841229 0.754116 0.765981 0.807092 0.800284 0.774554 0.777711 0.775728 0.784306 0.736018 0.763586 0.757517 0.784221 0.774422 0.80957 0.775107 0.861771 0.912583 0.831468 0.825507 0.852904 0.853356 0.859718 0.901762 0.8782 0.94838 0.900096 0.892978 0.880838 0.885227 0.875434 0.889272 0.893304 0.905845 0.943105 0.951944 0.952595 0.949004 0.935567 0.952134 1.03783 1.00536 0.984912 0.956863 0.927788 0.94023 1.01065 1.00373 1.00182 1.00556 1.01697 1.00784 1.03585 1.0546 0.980425 0.968702 0.975681 0.985704 0.979055 0.999873 0.988209 1.02138 0.954257 1.03615 0.921474 0.954459 1.00765 1.21204 1.00391 0.95795 1.0155 1.0522 1.0422 1.03619 1.03969 0.9764 0.969133 0.927699 0.93039 0.922695 0.937376 0.932404 0.956817 0.957203 0.97806 1.00853 0.910819 0.91501 0.909878 0.864621 0.855591 0.840106 0.849634 0.835994 0.814928 0.823163 0.855622 0.849127 0.871313 0.859 0.893979 0.85622 0.858473 0.86495 0.867405 0.988801 0.906023 1.03015 0.962407 0.754816 1.04596 0.58521 0.935778 0.57789 0.646418 0.65036 0.702162 0.733731 0.785394 0.802037 0.833447 0.783037 0.680417 0.715168 0.686235 0.726186 0.758088 0.766496 0.777572 0.816056 0.841506 0.719019 0.657072 0.727415 0.732946 0.720411 0.722032 0.782702 0.794724 0.797526 0.754014 0.669913 0.814652 0.813767 0.797387 0.820821 0.824307 0.847932 0.862236 0.893802 0.857066 0.864362 0.904772 0.892409 0.894835 0.892378 0.889946 0.89772 0.895747 0.919535 0.959055 0.963256 0.961681 0.96278 0.965218 0.951227 0.988822 0.971915 0.986678 0.955163 0.930514 1.03457 1.0143 1.00715 1.01739 1.0326 1.01553 0.98012 0.994696 0.99647 1.02388 1.04513 0.980977 0.974638 1.0186 0.945927 1.03107 0.990481 1.04014 1.04925 1.07678 1.26627 1.05501 0.972133 0.994406 1.02147 0.931644 0.935654 0.916424 0.945516 0.954517 0.961086 0.974023 0.974998 0.979142 0.978517 0.975554 0.978621 0.952174 0.95337 0.873518 0.890419 0.82976 0.810732 0.816624 0.831232 0.810255 0.807318 0.847727 0.887178 0.850254 0.861046 0.865407 0.698167 0.94603 0.792241 1.11564 0.821745 0.730201 1.05366 0.662346 0.729726 0.755887 0.852204 0.716449 0.789693 0.915734 0.805642 0.980968 0.614549 0.125032 0.948441 0.335368 0.615754 0.647229 0.657954 0.675719 0.726975 0.750991 0.78389 0.742175 0.767923 0.761213 0.802302 0.768998 0.699196 0.676134 0.695979 0.732054 0.731089 0.746089 0.755068 0.795994 0.783719 0.762652 0.764633 0.75676 0.743597 0.763417 0.806559 0.824452 0.82293 0.843431 0.8292 0.815357 0.835455 0.911044 0.914278 0.909364 0.900074 0.890558 0.887057 0.884181 0.928564 0.986193 0.970791 0.898581 0.916061 0.881675 0.979177 0.993414 1.01602 1.00238 0.968981 0.95911 0.900254 1.04484 1.00596 1.01023 1.02931 1.02171 0.997937 1.01639 0.973053 0.994295 0.995145 0.995307 1.01769 1.04801 1.05499 1.0145 0.990718 0.988002 1.01603 1.00887 0.862774 0.974156 0.957489 0.923157 1.11348 0.94048 1.00668 1.06162 0.935958 1.00758 1.00884 0.958343 0.904799 0.961487 0.996769 0.931993 0.91545 0.927897 0.93233 0.964408 0.999621 0.956958 1.01368 1.0016 1.04764 0.996268 1.04848 0.834721 0.919297 0.821483 0.817507 0.807731 0.820032 0.812122 0.793863 0.811358 0.832167 0.859744 0.852754 0.799477 0.84983 0.772091 0.86536 1.11506 0.811347 0.921787 0.762026 0.890947 0.647096 0.688844 0.686426 0.657912 0.770966 0.875128 1.05999 0.874619 0.544868 0.893222 0.650795 0.697495 0.689889 0.637773 0.737174 0.67031 0.692149 0.682018 0.689647 0.762419 0.826782 0.741491 0.726678 0.750228 0.654083 0.717904 0.684756 0.728824 0.735065 0.752653 0.730081 0.717445 0.747275 0.752508 0.765305 0.770769 0.776751 0.788342 0.821516 0.831298 0.823139 0.819872 0.831167 0.828722 0.831279 0.835878 0.839546 0.878436 0.85349 0.92086 0.930946 0.941931 0.931523 0.931915 0.940431 0.926027 0.915749 0.925771 0.896253 0.920878 1.04063 0.882491 0.918291 0.905467 1.01583 1.00798 0.994975 0.972503 0.921762 1.04529 1.04437 1.02513 1.01995 1.02854 1.01506 1.01548 0.9979 1.01214 1.03686 0.992638 0.990076 0.992672 0.984327 0.998939 1.00216 1.00482 0.921663 0.919217 0.965693 0.906463 1.14153 1.06582 1.00519 1.05622 1.10759 0.545394 0.784055 0.976328 0.965952 0.919199 0.888378 0.920832 0.954674 0.853532 0.9081 0.935542 0.936122 0.954065 0.99431 0.904343 1.00475 1.13227 0.83209 0.906564 0.868003 0.800171 0.853459 0.828866 0.800223 0.808075 0.7457 0.74588 0.737498 0.752285 0.717946 0.846021 0.733346 0.789758 0.772378 0.695837 0.771047 0.746687 0.657687 0.727913 0.773457 0.731109 0.832743 0.75269 0.785734 0.627422 0.722272 0.763239 0.706983 0.698139 0.698894 0.776986 0.710252 0.754684 0.709352 0.549268 0.7234 0.415827 0.587464 0.785097 0.625267 0.611786 0.614398 0.666003 0.750494 0.739534 0.789204 0.618423 0.739266 0.731299 0.735716 0.736591 0.765917 0.727083 0.756669 0.754929 0.741194 0.744061 0.716814 0.772874 0.790932 0.80757 0.800881 0.825903 0.836359 0.830663 0.835926 0.849256 0.841905 0.888271 0.861474 0.956138 0.940955 0.936227 0.941264 0.948815 0.914309 0.857782 0.844594 1.05033 1.02392 0.931739 0.821316 0.901885 0.918709 0.982707 1.0268 1.00136 0.996223 0.988016 0.973253 1.05278 1.04936 1.03293 1.0379 1.01152 1.01197 1.05365 1.03654 1.03167 1.04868 1.04589 1.01975 0.990993 0.982756 1.01716 1.01639 0.986375 1.12755 1.06078 1.01812 1.03661 1.05635 0.844028 1.15333 1.03068 0.983893 0.990998 0.915432 0.924593 0.925096 0.843534 0.942195 0.962932 0.895853 0.926937 0.942255 0.958821 1.06626 0.488989 0.825657 0.868978 0.842898 0.846152 0.82717 0.810496 0.763257 0.713232 0.735636 0.71808 0.714396 0.729754 0.708238 0.721019 0.73689 0.735161 0.660395 0.723473 0.702129 0.732334 0.723394 0.719984 0.695948 0.807274 0.738351 0.665481 0.612696 0.463426 0.787178 0.783717 0.962695 0.70733 0.709024 0.717556 0.676894 0.64001 0.946041 0.355962 0.494958 0.660803 0.469069 0.790208 0.646601 0.507477 0.624785 0.688438 0.810465 0.790273 0.801735 0.62207 0.745029 0.597857 0.87536 1.02863 0.780668 0.795372 0.759686 0.747457 0.692491 0.809276 0.816387 0.835394 0.842652 0.834851 0.841141 0.834334 0.843635 0.842776 0.837769 0.87108 0.91923 0.794063 1.05397 0.959215 0.90579 0.933247 0.890123 0.858216 0.857165 0.902831 0.884491 0.970525 0.995888 1.01045 1.00548 1.01285 1.00809 0.997667 1.02202 1.05289 1.06184 1.04399 1.05977 1.02533 1.02071 1.04416 1.04254 1.05004 1.05896 1.05023 1.04035 1.0384 1.00895 1.00418 0.979804 1.03166 0.990854 1.01001 1.0545 1.08817 1.05467 1.06201 1.02216 1.10307 0.993774 0.911459 0.917233 0.9346 0.992188 0.97125 0.973715 1.02023 0.901076 0.970281 0.910395 0.981011 0.912454 0.953882 0.97402 0.982791 1.09409 0.832828 0.680475 0.830638 0.798417 0.827905 0.839193 0.825512 0.792355 0.821831 0.821401 0.729846 0.705024 0.724274 0.723956 0.715526 0.729405 0.718943 0.727417 0.731202 0.728365 0.725247 0.667325 0.665905 0.672805 0.697625 0.683897 0.668805 0.616823 0.645913 0.649132 0.575159 0.609211 0.565383 0.391112 0.396841 0.78359 0.644799 0.69916 0.764242 0.616065 0.701125 0.778187 0.644826 0.738672 0.890189 1.29753 0.428391 0.546957 0.556778 0.892886 0.760883 0.782726 0.168063 0.457542 0.653204 0.570666 0.624664 0.675201 0.68645 0.702904 0.528396 0.411864 0.430957 1.395 0.764138 1.33542 0.825595 0.820565 0.742703 0.706963 0.713143 0.691633 0.882801 0.825123 0.840974 0.807009 0.833247 0.828268 0.840488 0.841522 0.835637 0.839931 0.750306 0.827532 0.933828 0.858883 0.932756 0.931276 0.880928 0.899969 0.886496 0.837096 0.799471 0.922486 1.00572 1.0347 1.05771 1.02511 1.01909 1.02243 1.02155 1.03669 1.05113 1.06814 1.06835 1.08527 1.02312 1.04796 1.03395 1.05518 1.06141 1.05265 1.03176 1.04479 1.0126 0.996416 0.983771 1.01468 1.00282 1.03135 1.06613 1.1063 1.27508 1.04559 0.966478 0.938096 0.959266 0.99013 0.977176 1.06846 0.84969 0.921085 0.943313 0.957394 0.965308 0.959213 0.972509 1.00715 0.845299 0.83725 0.825666 0.822341 0.810961 0.830127 0.843815 0.888372 0.729481 0.739867 0.730465 0.735606 0.737013 0.751987 0.756044 0.753204 0.69217 0.775846 0.676233 0.676085 0.673739 0.674286 0.650365 0.667562 0.67902 0.637394 0.591818 0.541127 0.602045 0.493603 0.457872 0.498529 0.690866 0.493343 0.601602 0.744185 0.815208 0.89755 0.36822 0.22603 0.546065 0.49174 0.42189 0.475065 0.152297 0.18426 0.148261 0.267369 0.284817 0.407604 0.649038 0.460134 0.518394 0.661508 0.658987 0.682316 0.692567 0.691917 0.638361 0.225511 0.484382 0.534499 0.889331 0.74163 0.679084 0.732942 0.742283 0.720182 0.746047 0.880048 0.860569 0.850391 0.8321 0.828859 0.840094 0.826341 0.838864 0.824237 0.807094 0.826789 0.797817 0.852244 0.952626 0.921693 0.973707 0.933874 0.921293 0.927282 0.942089 0.845061 0.848762 0.846024 0.942609 0.977539 1.04351 1.03718 1.02528 1.03296 1.04207 1.05568 1.06377 1.07045 1.07773 1.09426 1.02346 1.04755 1.02011 1.02867 1.04286 1.06606 1.07374 1.05728 1.02743 1.05034 1.03193 1.01223 1.00275 1.00775 1.00148 0.991788 1.04823 1.09662 1.18689 1.05772 1.03248 0.962653 0.95684 0.978174 0.992122 0.991888 1.01224 0.860134 0.844163 0.950527 0.937211 0.966955 0.980684 0.994455 0.957094 0.854729 0.900609 0.864291 0.865994 0.796025 0.812266 0.813452 0.823741 0.706602 0.857769 0.81564 0.725002 0.752003 0.745488 0.731422 0.745591 0.743993 0.778794 0.780251 0.702383 0.822299 0.664336 0.702984 0.690934 0.681012 0.702168 0.691814 0.687743 0.689618 0.655692 0.653757 0.576617 0.476333 0.569299 0.262053 0.589206 0.336098 0.572259 0.701731 0.946162 1.01569 1.56329 3.30089 0.284948 0.394589 0.229874 0.369532 0.246008 0.26498 0.284017 0.377984 0.555589 0.642363 0.675965 0.688749 0.700504 0.70588 0.655426 0.680825 0.697611 0.630439 0.512816 0.598625 0.75276 0.939914 0.831078 0.821544 0.753421 0.726585 0.754458 0.760671 0.752439 0.747286 0.828731 0.830452 0.835278 0.842235 0.850888 0.842431 0.839075 0.828468 0.829388 0.834921 0.842252 0.782521 0.952581 0.896111 0.987873 0.939701 0.923269 0.919919 0.839023 0.889625 0.925778 0.960932 0.948248 0.971935 1.04694 1.05716 1.03189 1.07871 1.04385 1.0506 1.07285 1.07867 1.08791 1.09656 1.03061 1.04308 1.01465 1.03742 1.02895 1.07507 1.06078 1.00404 1.05888 1.06188 1.06219 1.02017 1.02582 1.02952 1.01399 1.03494 1.01087 1.05863 0.931569 1.24215 0.933883 1.01319 1.05139 0.99553 0.932985 0.981836 0.990982 1.03458 0.934245 0.945923 1.01538 1.13949 0.899501 0.961951 0.95629 0.994708 0.991865 0.971045 0.966738 0.947085 0.94068 0.990594 0.807018 0.80318 0.792877 0.819583 0.820551 0.805241 0.756183 0.726611 0.764043 0.830265 0.831809 0.91607 0.887117 0.705614 0.67043 0.70983 0.717163 0.715605 0.700858 0.704581 0.682173 0.669068 0.655038 0.636664 0.656213 0.60897 0.530267 0.388865 0.37552 0.506657 0.884483 0.222892 1.12487 0.750272 0.910282 1.98834 0.355194 0.476816 0.415904 0.511736 0.39469 0.427903 0.508188 0.43228 0.623544 0.557424 0.637577 0.637576 0.65217 0.716686 0.700647 0.684177 0.618922 0.571469 0.944688 0.754216 0.747085 0.73862 0.714919 0.76128 0.734632 0.801404 0.841636 0.840266 0.871486 0.859211 0.850625 0.852989 0.831861 0.827758 0.825643 0.879973 0.806613 0.784145 0.972613 0.957335 0.919231 0.879923 0.898555 0.943286 0.921654 0.866857 0.892789 0.87319 0.876922 0.951051 0.948571 0.959547 0.957649 0.978588 1.10801 1.07893 1.05427 1.04539 1.05046 1.09403 1.1051 1.11182 1.10554 1.08841 1.0481 1.02633 1.0118 1.03618 1.01128 1.07962 0.982985 1.0544 1.07359 1.07914 1.04034 1.03595 1.03513 1.03273 1.03237 1.03912 0.997956 1.12997 0.918143 0.941873 1.03278 0.950451 0.931398 1.02575 1.04376 0.941564 0.944457 1.02102 0.96914 0.964484 0.941968 1.13507 0.95358 1.02976 0.986367 0.969971 0.997635 0.946868 0.978365 0.965761 1.00478 0.804109 0.77334 0.778368 0.803927 0.767345 0.820524 0.833401 0.823571 0.79063 0.752295 0.818722 0.743225 0.726903 0.709429 0.776792 0.918323 0.76393 0.549419 0.69254 0.711211 0.702355 0.69155 0.709827 0.668293 0.653227 0.657398 0.6255 0.666704 0.620056 0.472559 0.697021 0.212211 0.100858 0.500998 1.2026 0.426654 0.498661 0.484692 0.533707 0.542517 0.522941 0.632747 0.564644 0.605391 0.623946 0.66491 0.641076 0.7622 0.685012 0.599461 0.7253 0.719666 0.751219 0.769364 1.08787 0.614847 0.688569 0.726269 0.807516 0.870189 0.853652 0.835624 0.84686 0.88183 0.858987 0.848093 0.829884 0.771081 0.810977 0.86798 0.893778 0.965644 0.943013 0.981733 0.880373 0.927459 0.9255 0.922184 0.916955 0.905642 0.909624 0.976481 0.980175 0.973782 1.07765 1.13193 1.11866 1.06871 1.06556 1.0752 1.05047 1.05973 1.12339 1.12053 1.10335 1.0938 1.04376 1.05944 1.02775 1.02295 1.02073 0.981256 1.06898 1.07243 1.08678 1.06836 1.03748 1.03826 1.03809 1.08564 1.12058 0.948258 0.914432 0.862335 0.895229 0.953096 1.03655 0.960889 1.03148 0.937062 1.03723 1.00438 0.981626 0.987734 0.932651 0.905719 0.984827 1.02574 1.04421 0.82303 0.764851 0.80554 0.855945 0.894511 0.874969 0.803647 0.708984 0.778577 0.67056 0.717264 1.05389 0.824078 0.711158 0.643576 0.718951 0.698453 0.709062 0.702893 0.690814 0.691474 0.671771 0.647682 0.662937 0.655585 0.618262 0.73932 0.582472 0.396058 0.532493 0.698287 0.595352 0.65135 0.725642 0.873528 0.602325 0.882448 0.807639 0.539464 0.555556 0.519627 0.589584 0.590926 0.601847 0.575739 0.623504 0.617758 0.632997 0.664796 0.681969 0.653672 0.608118 0.535756 0.826938 0.755402 0.719766 0.71331 0.579767 1.42285 0.763473 0.743402 0.767352 0.758761 0.893691 0.867907 0.854062 0.849958 0.887809 0.857596 0.864291 0.866443 0.853486 0.847307 0.899263 0.893962 0.905249 0.947637 0.982745 1.0113 0.960033 0.917462 0.917134 0.920412 0.912016 0.954332 0.985832 0.995736 0.994397 0.984899 1.01226 1.11766 1.05499 1.07093 1.05961 1.07453 1.07177 1.05689 1.11585 1.10573 1.07363 1.03862 1.0597 1.01979 1.03339 1.09082 1.10123 1.05363 1.05967 1.05906 1.06715 1.05284 0.988871 1.04168 1.02205 1.09176 1.23751 0.876229 0.936888 0.991155 0.989485 1.02834 0.970394 0.960392 0.929397 0.929333 0.974588 1.07566 1.04736 0.974608 0.981213 0.942552 0.935417 1.01901 0.818828 0.711848 0.745119 0.82517 0.798108 0.828555 0.941867 0.904956 0.867943 0.835444 0.767117 0.666392 0.659356 0.758759 0.837025 0.593821 0.755609 0.746587 0.738336 0.718425 0.746227 0.716699 0.702124 0.686734 0.674554 0.650164 0.672037 0.662395 0.590017 0.621255 0.586758 0.505226 0.519617 0.650461 0.575541 0.746971 0.737648 0.685428 0.516188 0.55829 0.614064 0.594191 0.69936 0.61769 0.732584 0.741362 0.712826 0.689591 0.709119 0.688105 0.78378 0.711166 0.739904 0.660118 1.02792 0.725027 0.731229 0.735836 0.667252 0.895035 0.884471 0.852013 0.847862 0.820749 0.862988 0.815544 0.86998 0.895701 0.876712 0.918574 0.893946 0.911105 0.921161 0.928853 0.942578 0.964779 0.98171 0.898022 0.92766 0.925189 0.927579 1.00027 0.996049 1.00158 0.967654 1.0275 1.01959 1.09311 1.07439 1.09455 1.05258 1.06529 1.05196 1.07027 1.0643 1.0661 1.12019 1.09101 1.08005 1.06651 1.00149 1.05185 0.975225 1.11851 1.10709 1.08842 1.10297 1.05264 1.09876 1.0656 1.08215 1.07363 1.06651 1.06162 1.00071 1.03114 1.05418 1.07476 1.08714 1.17552 1.01439 0.96376 1.02678 1.03492 0.9736 0.98262 0.866273 0.963965 1.04448 1.1241 1.05239 0.995331 0.903083 0.965214 0.915446 0.968649 0.92874 0.980338 0.901989 0.635577 0.775941 0.820427 0.946493 1.00107 0.912321 0.859546 0.809559 0.837386 0.715766 0.701983 0.761233 0.766685 0.761038 0.725718 0.689812 0.69115 0.6825 0.691761 0.615745 0.625136 0.547226 0.581886 0.657281 0.685924 0.713317 0.729368 0.768698 0.688679 0.605112 0.68454 0.658889 0.744142 0.810979 0.734759 0.74467 0.750455 0.732705 0.719056 0.73368 0.807918 0.82816 0.750628 0.819327 1.00183 0.724165 1.11968 0.665349 0.655856 0.8486 0.844746 0.886418 0.841329 0.825677 0.816096 0.832841 0.898431 0.914305 0.943669 0.922894 0.9372 0.935865 0.944741 0.953864 1.04366 1.02575 0.926824 1.10407 1.06327 0.982261 1.00533 1.02612 1.02045 1.04073 1.08875 1.08037 1.08381 1.0676 1.0824 1.1597 1.03909 1.19459 1.14802 1.12072 1.04334 1.09476 1.00926 1.06299 1.11847 1.12211 1.10504 1.08271 1.09451 1.09438 1.08208 1.07366 1.06685 1.08019 1.15328 1.00242 0.908912 1.05453 1.06226 1.03731 1.01388 1.01149 1.07663 0.978318 1.02774 0.880567 0.933244 1.03015 1.02634 1.13136 1.10366 0.934865 1.02234 0.925585 0.988483 0.932475 1.12332 0.971887 0.654381 0.754425 0.846511 0.797761 0.985476 0.964218 0.849365 0.889642 0.697769 0.933263 0.752296 0.7718 0.76539 0.770825 0.805593 0.798232 0.768392 0.806729 0.766341 0.697924 0.701047 0.725284 0.712699 0.74907 0.710115 0.625283 0.705982 0.667858 0.580729 0.624654 0.633602 0.671419 0.739391 0.771312 0.725911 0.694495 0.709585 0.651549 0.711494 0.701284 0.727626 0.775051 0.77745 0.763784 0.759996 0.736617 0.803283 0.838258 0.873006 0.905785 0.885545 0.898643 0.85828 0.740638 0.847007 0.907718 0.692549 0.777402 0.80178 0.94454 0.834239 0.788388 0.825498 0.834808 0.901274 0.959156 0.955658 0.941644 0.936147 0.940761 0.941593 0.964483 0.997861 1.08279 1.03292 1.1704 1.11163 1.11347 1.06307 0.964014 1.00191 1.0011 1.02746 1.08596 1.08847 1.08604 1.08472 1.09269 1.09666 1.04063 1.0478 1.18392 1.14454 1.14585 1.03261 1.09757 1.02626 1.06409 1.12598 1.13134 1.12308 1.10401 1.11208 1.10379 1.08297 1.07979 1.0976 1.16102 1.02096 0.770535 1.17673 1.04448 1.02597 1.1914 1.1475 1.06014 1.0547 0.974131 1.03244 1.0506 1.12663 0.952866 0.898563 1.03592 0.941859 1.01513 0.883649 1.03242 1.1232 1.00005 0.683344 0.81074 0.841751 0.843907 0.83236 0.794442 0.766344 0.802248 0.690234 0.79433 0.870249 0.990965 0.830251 0.819413 0.842026 0.832618 0.834362 0.622372 0.700676 0.751605 0.730862 0.779681 0.744239 0.751502 0.605642 0.679568 0.789038 0.797922 0.708515 0.72507 0.670783 0.762543 0.740762 0.783938 0.750675 0.752718 0.751715 0.796621 0.795148 0.759047 0.763559 0.837261 0.950278 0.89513 0.906582 0.766542 0.860309 0.741569 0.79197 0.788155 0.83462 0.9922 0.909488 0.851059 0.82583 0.816311 0.796809 0.978908 0.962174 0.965881 0.957461 0.93299 0.945843 1.01016 0.953744 1.15738 1.11483 1.09326 1.03228 1.05072 1.00706 1.03665 1.05635 1.04673 1.10513 1.03686 1.06152 1.06622 1.08303 1.33088 1.11383 1.04811 1.08021 1.22299 1.2043 1.01241 1.15923 1.1014 1.05212 1.06622 1.12997 1.14154 1.13218 1.11772 1.18773 1.11972 1.11261 1.09142 1.09376 1.09386 1.11972 1.16697 1.06959 0.967364 1.00798 1.0638 1.06386 1.05704 1.0551 1.03082 1.09291 1.0201 0.986613 1.01148 0.93676 1.08563 0.970926 0.92634 1.01042 0.842131 0.824573 0.837667 0.83337 0.819781 0.912481 0.86098 0.905093 0.957014 0.883503 0.833948 0.854772 0.853637 0.889547 0.661837 0.800316 0.700551 0.791255 0.67015 0.852066 0.797878 0.818063 0.751644 0.971307 0.753502 0.692102 0.773449 0.841478 0.813695 0.762817 0.749229 0.749096 0.801625 0.869454 0.87977 0.971231 0.95838 0.888534 0.866925 0.790563 0.99292 0.739851 0.831337 0.791191 0.796386 0.869829 0.970474 1.04642 0.836346 0.802782 1.05361 0.99877 0.945777 0.989277 0.965837 0.97453 0.881939 0.950265 1.00744 1.02471 0.964873 1.14447 1.09472 1.04225 1.04891 1.01178 0.998458 1.09071 1.06353 1.0714 1.0428 1.07031 1.13571 0.996257 1.21857 1.1129 1.20649 1.05067 1.16573 1.09683 1.06007 1.12416 1.13075 1.14708 1.20692 1.15619 1.13591 1.0933 1.08867 1.11409 1.10816 1.1278 1.16648 1.18355 1.08116 1.01126 1.04595 1.14311 1.0744 1.05412 1.05043 1.08945 0.991907 0.967004 1.01953 1.0592 0.967283 1.07598 1.21987 1.00406 1.07277 0.965276 0.864515 0.850903 0.913196 0.964969 0.886325 0.935823 0.932093 0.877991 0.874586 0.893142 0.901262 0.843438 0.901933 0.765645 0.839874 0.773093 0.867091 0.797158 0.775086 0.871896 0.825247 0.925863 0.766305 0.725628 0.775983 0.855639 0.870703 0.775401 0.793137 0.727355 0.851498 0.920486 0.984072 0.989225 0.911043 0.910044 0.9368 0.879511 0.889058 0.872948 1.0238 0.814917 0.839666 0.884667 0.922081 0.975786 1.06816 1.03286 0.810856 0.815267 0.97623 0.967524 1.02789 1.05396 0.88571 1.00685 0.973531 1.00503 1.00026 1.1226 1.08622 1.05949 1.09111 0.993163 1.10044 1.05015 1.07272 1.09326 1.06632 1.08796 1.14525 1.18137 1.09956 1.11129 1.13781 1.19328 1.07606 1.13388 1.09792 1.12599 1.1326 1.14449 1.18571 1.20222 1.15499 1.14079 1.0951 1.1334 1.11592 1.12861 1.1439 1.09351 1.08681 1.05923 1.06989 1.09739 1.11211 0.998473 1.07471 1.07762 1.04163 1.08327 1.03294 1.12309 1.02051 1.03946 1.00044 1.08801 1.05013 1.02411 0.943438 1.05959 0.991724 0.851133 0.880601 0.941246 0.963624 1.00608 1.11115 0.977292 0.933477 0.890469 0.961842 0.930413 0.938384 0.849953 0.83719 0.834953 0.818451 0.783562 0.674733 0.689203 0.781272 0.872548 0.92986 0.953075 1.0209 0.790523 0.731297 0.782052 0.867497 0.911902 0.920998 0.78453 0.935003 0.95643 0.93135 0.93213 0.929285 0.914327 1.01244 0.877243 0.968746 0.85446 0.920591 0.891831 0.879429 1.05252 1.05477 1.10385 1.10817 0.961941 1.05971 0.87229 1.03047 1.0066 1.07906 0.854626 1.02456 0.993264 1.00688 1.11463 1.0803 1.0745 1.07147 1.04945 1.07113 1.05846 1.08129 1.09299 1.12696 1.11133 1.14168 1.17439 1.17311 1.12157 1.12132 1.13079 1.15069 1.20173 1.16491 1.16817 1.129 1.11936 1.12055 1.14117 1.16933 1.17437 1.18821 1.15437 1.16518 1.14162 1.12757 1.12508 1.128 1.13622 1.11723 1.10026 1.07468 1.078 1.13713 1.18542 1.08846 1.10974 1.03138 1.09636 1.12714 1.04285 1.05798 1.06696 1.03128 1.04144 1.06159 0.975304 1.04652 0.992378 0.847084 0.909371 0.930716 0.966334 0.985054 1.08468 1.01967 0.95231 0.964916 0.985458 0.932357 0.85707 0.859472 0.856741 0.808223 0.842125 0.811947 0.817924 0.960213 0.983807 0.906404 0.791105 1.10669 0.798924 0.803657 0.932435 0.935815 1.00013 0.841777 1.0231 1.00895 0.97404 0.991201 0.906057 0.928615 0.943006 0.951845 0.957573 0.943851 1.01325 0.997684 0.916008 1.09219 1.23157 1.08288 1.03728 1.15126 0.883414 1.06737 1.00974 1.04778 0.821807 0.977991 0.953625 1.18545 1.07185 1.00816 0.96708 1.09698 1.0488 1.07302 1.08548 1.08656 1.12003 1.09894 1.11401 1.07985 1.11022 1.13754 1.1372 1.1428 1.11968 1.12089 1.14003 1.14221 1.15036 1.14255 1.13467 1.13967 1.13846 1.1469 1.15979 1.18747 1.16465 1.13918 1.14823 1.12443 1.1415 1.1135 1.1537 1.10855 1.13172 1.17515 1.0767 1.10747 1.06913 1.01825 1.0986 1.05491 1.06581 1.07819 1.04178 1.05529 1.0116 1.02708 1.05615 0.968441 0.976596 1.0063 1.0054 1.05583 1.15841 1.05134 0.872909 1.23522 0.952871 0.947423 1.00114 0.95508 0.963571 1.0239 0.970133 1.01806 0.95207 0.977165 0.994218 1.07142 1.04494 1.05489 0.873869 0.900996 0.823666 0.72748 0.961813 1.00344 0.898601 1.00715 0.849696 0.812044 0.96357 0.993939 1.004 1.05202 0.975553 0.94382 0.958942 0.961383 0.968499 0.965979 0.991494 1.00997 0.987482 1.04147 1.07935 1.02807 1.12179 1.11101 0.992652 1.03486 1.06604 1.0141 0.946717 1.00785 1.04065 1.082 1.05392 1.11207 1.04363 1.09403 1.11058 1.11372 1.09838 1.15079 1.15184 1.13128 1.16707 1.15168 1.15848 1.05234 1.13428 1.12088 1.14596 1.13741 1.15322 1.17895 1.14605 1.14343 1.1412 1.14535 1.13322 1.14284 1.16703 1.15546 1.1328 1.1438 1.15062 1.17812 1.14284 1.14742 1.13766 1.16799 1.12321 1.16062 1.14465 1.10549 1.08627 1.0349 1.13168 1.06781 1.07473 1.08502 1.08878 1.0429 1.08568 1.01157 1.00838 1.02538 1.09253 1.08529 1.06921 0.985702 0.927344 1.01835 1.01148 0.964127 1.0684 1.03368 1.05813 1.05217 0.9703 0.953773 0.993578 1.00641 1.02216 0.967591 1.05139 1.04732 0.822811 0.929073 1.19241 0.989507 0.986492 0.943344 1.03162 0.933624 0.837965 0.80731 0.807261 1.02034 1.08336 1.0186 1.0174 0.959536 0.979515 0.979628 1.00334 1.01578 0.991091 1.03078 1.05476 1.10792 1.10882 1.09017 1.10759 1.0284 0.973785 1.01972 1.06426 1.10998 1.18574 1.10421 1.04553 1.1098 1.11219 1.10733 1.118 1.16248 1.13145 1.13506 1.1758 1.17213 1.1461 1.16468 1.2295 1.14339 1.13571 1.15224 1.13434 1.15367 1.1749 1.1485 1.15053 1.14198 1.15012 1.13656 1.15165 1.18007 1.17043 1.13864 1.12589 1.16215 1.19794 1.15501 1.14737 1.15308 1.1527 1.17862 1.13741 1.12155 1.13868 1.10737 1.153 1.10604 1.16289 1.07736 1.07943 1.05881 1.09244 1.12777 1.00788 1.019 1.11186 1.11362 1.12012 1.21683 1.04004 1.07646 0.964028 1.05392 1.07646 1.02734 0.993824 0.994044 1.02502 0.958034 1.0372 0.994959 1.10475 1.09372 1.18952 0.817775 1.00928 1.04038 0.961108 0.920967 0.839082 0.984209 1.03184 1.04636 1.06016 1.02294 1.03765 1.05244 1.0626 0.984785 0.990149 1.00112 1.01368 1.05664 1.04766 1.07211 1.07555 1.02244 1.03013 1.03248 1.05737 1.09341 1.11596 1.08858 1.12625 1.0389 1.09279 1.04716 1.03703 1.07077 1.1089 1.15116 1.1618 1.09422 1.12135 1.11307 1.11076 1.08892 1.10208 1.13827 1.13243 1.17038 1.16898 1.14686 1.16737 1.16026 1.15126 1.15836 1.1327 1.27954 1.15275 1.17639 1.15117 1.1569 1.1445 1.15418 1.13947 1.15363 1.18251 1.17313 1.14585 1.12793 1.16124 1.13758 1.15961 1.15491 1.15207 1.17883 1.13553 1.13276 1.11608 1.14257 1.15526 1.11971 1.16268 1.08981 1.08453 1.05669 1.10095 1.13679 1.01643 1.0695 1.12301 1.15908 1.09018 0.984409 1.04787 1.09521 1.1419 1.00201 1.05814 1.00269 0.9712 1.04243 1.01681 0.990106 1.04509 1.10968 1.08356 1.0203 1.08451 1.09132 1.12635 0.993015 1.00637 1.03029 0.966056 0.944739 0.961568 0.868738 1.00759 1.0288 1.07898 1.08783 1.08417 1.05567 1.05536 1.05972 1.06525 1.02628 1.04431 1.05125 1.06564 1.0686 1.05508 1.08399 1.04164 1.06153 1.07334 1.09321 1.09998 1.10689 1.13414 1.05038 1.0885 1.06131 1.08413 1.12932 1.10906 1.17952 1.10288 1.19075 1.12169 1.10246 1.10619 1.14074 1.15563 1.11224 1.17509 1.16755 1.14861 1.16334 1.13619 1.15677 1.20477 1.16015 1.18864 1.15602 1.16895 1.143 1.15535 1.14398 1.16321 1.18495 1.17512 1.16772 1.13761 1.16847 1.14326 1.19207 1.16315 1.14171 1.17732 1.17231 1.14209 1.16243 1.13802 1.14224 1.10878 1.15596 1.14996 1.1294 1.15652 1.11033 1.12458 1.09131 1.13934 1.17797 1.10542 1.08438 1.15343 1.13504 1.11147 1.01175 1.05687 1.09035 1.0498 1.06956 0.994017 1.04359 1.01274 1.04046 1.07449 1.07614 1.04435 1.10399 1.08196 1.12634 0.876326 0.948885 1.07349 1.01109 1.05348 0.97808 0.924966 1.02369 1.01843 1.04634 1.03939 1.03292 1.11005 1.07652 1.07754 1.06623 1.0747 1.01726 1.06011 1.09849 1.14303 1.06137 1.07107 1.04098 1.0678 1.06682 1.09471 1.08774 1.09664 1.11791 1.14225 1.05879 1.08956 1.08045 1.10624 1.15281 1.07824 1.13259 1.0731 1.18125 1.11888 1.10489 1.13977 1.16387 1.16939 1.13111 1.18331 1.16725 1.13434 1.16797 1.16279 1.16675 1.195 1.20847 1.16022 1.18795 1.15753 1.17003 1.17278 1.16089 1.17397 1.18612 1.19178 1.17321 1.12093 1.1534 1.16917 1.16697 1.18056 1.17396 1.13091 1.15008 1.16251 1.16346 1.15873 1.15632 1.15472 1.12566 1.14544 1.10876 1.1608 1.15625 1.0958 1.10066 1.08645 1.1239 1.10586 1.12549 1.04262 1.06468 1.07006 1.08015 1.06017 1.08613 1.05535 1.04923 1.03731 1.0521 1.05145 1.0783 1.08837 1.044 0.992175 1.12517 1.14607 0.93856 1.06034 1.04669 1.06913 1.04244 1.11944 1.03262 0.954404 1.05802 1.04729 1.08119 1.08324 1.09462 1.07298 1.06911 1.08815 1.08016 1.00831 1.15592 1.1339 1.063 1.06729 1.06528 1.07399 1.10993 1.08895 1.09465 1.11656 1.114 1.13576 1.07257 1.10382 1.14797 1.10202 1.14042 1.16736 1.13651 1.18561 1.18471 1.12323 1.15137 1.20956 1.17474 1.20652 1.18365 1.13608 1.16954 1.17556 1.13206 1.15982 1.16767 1.16722 1.16655 1.19652 1.16836 1.1914 1.19389 1.18745 1.16813 1.18454 1.1462 1.19443 1.16612 1.17163 1.1811 1.18742 1.18057 1.17219 1.15745 1.16543 1.15607 1.1678 1.18082 1.1736 1.14041 1.14599 1.15347 1.16436 1.17031 1.15485 1.16446 1.15713 1.143 1.15915 1.12128 1.15996 1.16694 1.10938 1.10412 1.11453 1.11683 1.09262 1.0925 1.08023 1.07294 1.10572 1.07661 1.05981 1.05331 1.0699 1.08233 1.04027 1.14018 1.13464 1.12313 0.976054 1.07061 1.11378 1.11398 1.02848 1.03405 0.965923 0.984135 1.06877 1.07213 1.05404 1.13144 1.0563 0.997062 1.08111 1.09155 1.09161 1.19053 1.12023 1.13354 1.06852 1.06267 1.08543 1.07177 1.12314 1.09654 1.0758 1.11909 1.11419 1.13071 1.09537 1.10444 1.15315 1.10418 1.14968 1.16245 1.13714 1.1866 1.19196 1.1224 1.1317 1.15724 1.21031 1.17538 1.16782 1.13551 1.1819 1.17592 1.16589 1.16926 1.16918 1.19199 1.18704 1.20561 1.19178 1.18667 1.1702 1.19027 1.19178 1.1706 1.19178 1.19675 1.18141 1.1873 1.1831 1.17161 1.18234 1.15578 1.17618 1.18445 1.14776 1.14895 1.14975 1.16435 1.15393 1.16996 1.15308 1.17337 1.16579 1.14673 1.15319 1.12722 1.15325 1.16363 1.1532 1.1076 1.13898 1.12871 1.13297 1.10019 1.09453 1.11356 1.10391 1.09164 1.1041 1.11256 1.0586 1.09703 1.1212 1.07557 1.07156 1.08221 1.05713 1.14032 1.13283 1.124 1.03025 1.06497 1.10705 1.08811 1.0204 0.99718 1.07419 1.05749 1.11381 1.07158 1.08506 1.08893 1.08947 1.10159 1.11996 1.1865 1.16129 1.09346 1.08075 1.10461 1.09019 1.11663 1.08676 1.12863 1.13035 1.12125 1.13627 1.13314 1.10345 1.14279 1.11231 1.15241 1.16408 1.1709 1.1696 1.19213 1.12982 1.15294 1.19178 1.17209 1.13536 1.18458 1.17419 1.16925 1.16664 1.19111 1.19205 1.17701 1.19178 1.19178 1.19289 1.19178 1.17559 1.1817 1.19425 1.18408 1.18082 1.18826 1.18185 1.18562 1.2028 1.18005 1.16755 1.17936 1.18376 1.16672 1.16064 1.1844 1.18537 1.18217 1.15115 1.15735 1.16793 1.17092 1.18003 1.16884 1.16551 1.1636 1.15414 1.12565 1.15045 1.16363 1.11837 1.08679 1.1526 1.11812 1.11652 1.10238 1.10899 1.10943 1.12049 1.12169 1.12244 1.10279 1.08064 1.18101 1.06593 1.13257 1.13103 1.13867 1.09251 1.08168 1.083 1.08134 1.06923 1.02729 1.0034 1.0735 1.0841 1.1184 1.07478 1.10403 1.10472 1.09914 1.1106 1.12449 1.18162 1.16039 1.09881 1.08106 1.10923 1.12467 1.12291 1.09727 1.11085 1.13825 1.13948 1.13685 1.13324 1.16085 1.10663 1.1446 1.15222 1.15829 1.1738 1.19161 1.13324 1.15332 1.1955 1.17228 1.16874 1.18789 1.1891 1.18718 1.17638 1.19363 1.16989 1.16683 1.18786 1.18115 1.19191 1.19285 1.19385 1.18967 1.19178 1.18399 1.1835 1.19155 1.19044 1.17641 1.17603 1.1857 1.18223 1.17949 1.16654 1.16577 1.18721 1.18003 1.16172 1.17003 1.15426 1.17711 1.18436 1.17311 1.16983 1.16071 1.15469 1.12748 1.15117 1.1583 1.12749 1.14268 1.10753 1.12568 1.15346 1.12777 1.12673 1.10538 1.10554 1.11212 1.12238 1.11015 1.12275 1.08975 1.17091 1.06661 1.1309 1.12968 1.14325 1.11601 1.11993 1.07201 1.03789 1.00539 1.09853 1.12486 1.12066 1.07755 1.11145 1.10524 1.10088 1.11502 1.12321 1.1776 1.15718 1.09905 1.07956 1.12824 1.12644 1.09422 1.1177 1.11053 1.13712 1.13918 1.1423 1.13255 1.16851 1.12813 1.18405 1.14838 1.15645 1.14813 1.19177 1.14407 1.13989 1.15683 1.1725 1.16943 1.18681 1.17364 1.17746 1.17989 1.19153 1.18983 1.18147 1.19087 1.18393 1.19031 1.18971 1.17629 1.17965 1.18595 1.16735 1.18857 1.18234 1.1808 1.18153 1.17077 1.15519 1.17834 1.17666 1.18375 1.17408 1.17017 1.16109 1.15512 1.1739 1.17123 1.15962 1.12579 1.13772 1.12001 1.14424 1.10388 1.13878 1.11316 1.10713 1.10609 1.11341 1.11047 1.12222 1.11549 1.11085 1.08382 1.09419 1.06783 1.13093 1.13011 1.14428 1.1263 1.1203 1.07239 1.07285 1.0405 1.03572 
SCALARS Stress float 1
LOOKUP_TABLE default
-331463000000.0 -137373000000.0 -140336000000.0 -174705000000.0 -469565000000.0 -245263000000.0 -112234000000.0 -539631000000.0 -214288000000.0 -582615000000.0 -325238000000.0 -235595000000.0 -283850000000.0 -258433000000.0 -369939000000.0 -496248000000.0 -367600000000.0 -231451000000.0 -533873000000.0 -594307000000.0 -1.17491e+12 -1.5155e+12 -472099000000.0 -1.2298e+12 -808200000000.0 -1.0349e+12 -941043000000.0 -772046000000.0 -1.63193e+12 -610722000000.0 -389505000000.0 -985263000000.0 -612844000000.0 -473698000000.0 -1.0917e+12 -813131000000.0 -414634000000.0 -436396000000.0 -1.68626e+12 -819760000000.0 -596820000000.0 -592574000000.0 -958049000000.0 -879401000000.0 -493209000000.0 -617214000000.0 -957840000000.0 -1.11326e+12 -910673000000.0 -1.69961e+12 -1.66e+12 -2.20423e+12 -360531000000.0 -2.41225e+12 -269305000000.0 -1.20059e+12 -340102000000.0 -1.10654e+12 -1.56354e+12 -2.87695e+12 -1.20858e+12 -1.53598e+12 -1.41397e+12 -1.50342e+12 -1.5144e+12 -968899000000.0 -1.84056e+12 -1.41925e+12 -305161000000.0 -1.41828e+12 -1.62751e+12 -906322000000.0 -976031000000.0 -1.20338e+12 -2.30123e+12 -1.80372e+12 -3.75573e+12 -2.55603e+12 -2.14719e+12 -1.81594e+12 -788543000000.0 -1.8826e+12 -2.13704e+12 -2.46281e+12 -2.20247e+12 -1.61016e+12 -1.60461e+12 -1.18705e+12 -2.81133e+12 -1.27717e+12 -690171000000.0 -2.67372e+12 -2.99485e+12 -2.27489e+12 -1.17526e+12 -1.48901e+12 -1.50099e+12 -3.74992e+12 -1.50123e+12 -2.07113e+12 -4.61257e+12 -3.43497e+12 -4.01804e+12 -3.83927e+12 -3.35593e+12 -3.34524e+12 -4.94013e+12 -1.22925e+12 -1.39674e+12 -2.41014e+12 -1.51034e+12 -656754000000.0 -2.14795e+12 -2.50811e+12 -4.24581e+12 -3.99881e+12 -2.35721e+12 -3.3289e+12 -3.5682e+12 -922049000000.0 -1.3834e+12 -1.7689e+12 -2.32508e+12 -1.47883e+12 -2.67536e+12 -2.51354e+12 -5.01266e+12 -5.1242e+12 -2.1378e+12 -1.77229e+12 -3.37245e+12 -1.73605e+12 -1.07762e+12 -1.41243e+12 -1.66511e+12 -4.41386e+12 -2.82974e+12 -1.87388e+12 -2.22984e+12 -1.96185e+12 -2.86736e+12 -4.49155e+12 -1.91579e+12 -2.02465e+12 -2.24484e+12 -1.40559e+12 -1.44777e+12 -1.53161e+12 -3.56858e+12 -2.70306e+12 -2.69874e+12 -2.58192e+12 -5.75082e+12 -2.85658e+12 -1.32866e+12 -2.75654e+12 -3.62795e+12 -3.33709e+12 -5.19314e+12 -4.96124e+12 -3.49166e+12 -7.57406e+12 -3.91524e+12 -4.89752e+12 -3.41483e+12 -3.19331e+12 -2.67505e+12 -4.05225e+12 -1.78549e+12 -3.56232e+12 -2.86534e+12 -2.55872e+12 -2.83057e+12 -3.34201e+12 -4.38997e+12 -1.64625e+12 -3.37183e+12 -4.85152e+12 -3.08423e+12 -2.83342e+12 -4.98074e+12 -4.27951e+12 -3.93108e+12 -5.28955e+12 -4.02375e+12 -3.80358e+12 -2.3125e+12 -5.43634e+12 -3.15696e+12 -5.36385e+12 -4.75817e+12 -4.71436e+12 -3.92721e+12 -3.82504e+12 -4.39176e+12 -4.14775e+12 -7.47107e+12 -7.32426e+12 -3.56989e+12 -7.30589e+12 -5.27305e+12 -5.1319e+12 -3.41712e+12 -5.92139e+12 -4.10753e+12 -4.04309e+12 -2.91525e+12 -979215000000.0 -4.58668e+12 -4.49911e+12 -2.48266e+12 -4.03278e+12 -5.11081e+12 -4.6706e+12 -3.51281e+12 -3.59862e+12 -4.5288e+12 -3.94243e+12 -3.48219e+12 -5.7094e+12 -6.64168e+12 -4.82434e+12 -5.53552e+12 -5.1105e+12 -8.59447e+12 -5.01709e+12 -3.05784e+12 -4.94667e+12 -6.21899e+12 -7.86262e+12 -7.1149e+12 -8.09328e+12 -4.25555e+12 -6.2465e+12 -4.88412e+12 -4.34068e+12 -4.14797e+12 -6.57501e+12 -2.97428e+12 -6.25159e+12 -6.02172e+12 -6.05221e+12 -6.08038e+12 -3.4897e+12 -2.93256e+12 -2.25361e+12 -4.42458e+12 -4.06974e+12 -4.31768e+12 -3.85522e+12 -3.24398e+12 -3.11291e+12 -4.23362e+12 -6.66674e+12 -4.17578e+12 -3.05683e+12 -4.51133e+12 -4.3722e+12 -5.77811e+12 -5.52807e+12 -5.27093e+12 -7.084e+12 -3.98256e+12 -7.04863e+12 -8.85777e+12 -5.02967e+12 -9.78007e+12 -8.18183e+12 -6.09705e+12 -1.35883e+13 -6.40095e+12 -8.21849e+12 -3.93335e+12 -3.47226e+12 -5.29554e+12 -3.88294e+12 -5.46314e+12 -6.13728e+12 -3.1314e+12 -7.55955e+12 -4.03092e+12 -5.98314e+12 -7.8285e+12 -5.42093e+12 -3.2727e+12 -9.34903e+12 -4.74678e+12 -4.70759e+12 -1.71094e+12 -5.03657e+12 -5.78035e+12 -5.26473e+12 -6.0692e+12 -3.48142e+12 -5.25756e+12 -3.35996e+12 -4.99054e+12 -1.78024e+12 -5.53452e+12 -1.75554e+12 -3.35742e+12 -2.68472e+12 -3.32801e+12 -1.70238e+12 -5.59447e+12 -5.9711e+12 -3.73884e+12 -3.09026e+12 -3.12092e+12 -4.34305e+12 -2.07036e+12 -3.82095e+12 -4.53188e+12 -5.91366e+12 -5.56276e+12 -3.86823e+12 -7.08903e+12 -3.47632e+12 -6.17346e+12 -9.5706e+12 -5.78554e+12 -7.84242e+12 -7.05698e+12 -7.29655e+12 -2.50179e+12 -6.89289e+12 -7.23485e+12 -4.24532e+12 -2.35491e+12 -4.51798e+12 -3.7519e+12 -3.56932e+12 -9.2689e+12 -5.43611e+12 -9.8985e+12 -5.36108e+12 -4.25529e+12 -5.87571e+12 -2.98316e+12 -5.0525e+12 -5.45714e+12 -8.11504e+12 -7.77382e+12 -6.88921e+12 -6.90635e+12 -4.48217e+12 -5.31135e+12 -7.26844e+12 -5.43017e+12 -5.42929e+12 -4.01209e+12 -3.60036e+12 -5.06373e+12 -2.48668e+12 -5.30798e+12 -3.71029e+12 -3.72582e+12 -2.80782e+12 -5.61204e+12 -3.49864e+12 -6.8239e+12 -3.33747e+12 -3.48904e+12 -4.34349e+12 -3.47761e+12 -4.58696e+12 -4.53805e+12 -3.74259e+12 -2.55301e+12 -3.43338e+12 -5.091e+12 -2.47294e+12 -6.44217e+12 -8.23469e+12 -5.34374e+12 -6.76821e+12 -5.75229e+12 -8.45782e+12 -7.03863e+12 -5.59648e+12 -7.12272e+12 -7.23764e+12 -4.75734e+12 -6.22597e+12 -4.53441e+12 -6.39587e+12 -9.57876e+12 -3.14079e+12 -4.50317e+12 -4.70466e+12 -4.45078e+12 -9.45557e+12 -6.73484e+12 -9.90734e+12 -8.22082e+12 -8.41157e+12 -7.52515e+12 -8.05546e+12 -4.10239e+12 -6.16884e+12 -4.77272e+12 -6.1002e+12 -3.70849e+12 -4.93387e+12 -5.25548e+12 -5.93271e+12 -5.1631e+12 -4.12115e+12 -4.74583e+12 -5.84086e+12 -5.64038e+12 -5.35553e+12 -4.78844e+12 -2.65937e+12 -2.12146e+12 -2.95244e+12 -3.08963e+12 -2.57676e+12 -3.81326e+12 -6.35491e+12 -3.53969e+12 -3.83097e+12 -3.18711e+12 -2.8568e+12 -3.12184e+12 -4.45237e+12 -3.59869e+12 -1.826e+12 -5.58849e+12 -3.41803e+12 -2.40005e+12 -3.91125e+12 -4.47268e+12 -4.25663e+12 -5.49218e+12 -3.91418e+12 -4.55468e+12 -6.88772e+12 -3.69103e+12 -5.32144e+12 -4.45636e+12 -5.43279e+12 -6.00042e+12 -8.03136e+12 -5.62196e+12 -9.53669e+12 -5.21398e+12 -5.0368e+12 -7.21936e+12 -5.83464e+12 -3.84495e+12 -1.03575e+13 -5.58763e+12 -3.16013e+12 -4.84317e+12 -3.7984e+12 -5.63536e+12 -5.66055e+12 -6.46876e+12 -3.71604e+12 -5.96688e+12 -3.48662e+12 -4.05578e+12 -7.24388e+12 -4.79758e+12 -5.73889e+12 -5.30896e+12 -9.56858e+12 -9.65782e+12 -6.87212e+12 -6.51569e+12 -8.1061e+12 -5.89002e+12 -7.35492e+12 -7.62048e+12 -5.1296e+12 -4.21886e+12 -4.42647e+12 -2.8554e+12 -3.78365e+12 -4.69536e+12 -3.98319e+12 -6.08698e+12 -4.9125e+12 -2.40763e+12 -3.71533e+12 -3.70625e+12 -4.11847e+12 -3.88418e+12 -3.5794e+12 -3.18551e+12 -3.00544e+12 -2.10031e+12 -3.24959e+12 -3.6037e+12 -3.13828e+12 -2.7843e+12 -2.13173e+12 -2.80841e+12 -2.58673e+12 -3.41698e+12 -3.68039e+12 -5.02979e+12 -4.6997e+12 -3.17416e+12 -4.56417e+12 -6.35455e+12 -4.72442e+12 -4.65012e+12 -5.58027e+12 -5.11326e+12 -4.58233e+12 -6.87435e+12 -2.57795e+12 -4.00069e+12 -6.27998e+12 -3.65034e+12 -6.85941e+12 -8.42999e+12 -7.40816e+12 -7.62214e+12 -5.31621e+12 -9.98245e+12 -1.1935e+13 -7.19571e+12 -6.38048e+12 -7.72911e+12 -6.39113e+12 -5.07433e+12 -5.2948e+12 -6.49799e+12 -5.55682e+12 -3.72519e+12 -4.07035e+12 -3.31216e+12 -7.20541e+12 -4.76091e+12 -9.64783e+12 -6.83522e+12 -5.51158e+12 -7.07148e+12 -5.7144e+12 -5.3612e+12 -4.01188e+12 -3.65178e+12 -6.80127e+12 -4.92922e+12 -6.7322e+12 -5.23214e+12 -5.12071e+12 -5.28434e+12 -3.27045e+12 -3.28198e+12 -6.05838e+12 -3.19924e+12 -7.33045e+12 -5.23421e+12 -4.04581e+12 -4.32288e+12 -6.55245e+12 -5.34352e+12 -4.99582e+12 -3.86834e+12 -4.90043e+12 -2.38086e+12 -2.80585e+12 -5.30234e+12 -2.75723e+12 -2.43705e+12 -3.96404e+12 -3.79838e+12 -2.14134e+12 -3.42082e+12 -1.73086e+12 -3.10444e+12 -3.97043e+12 -2.46206e+12 -5.38355e+12 -1.96229e+12 -5.43999e+12 -4.4672e+12 -5.42393e+12 -4.44393e+12 -2.58765e+12 -3.19235e+12 -2.25537e+12 -3.716e+12 -5.77651e+12 -4.32313e+12 -4.21978e+12 -4.86839e+12 -2.44571e+12 -5.04832e+12 -5.43908e+12 -3.63625e+12 -4.29964e+12 -6.12373e+12 -9.15239e+12 -4.77636e+12 -4.66484e+12 -6.43457e+12 -9.45333e+12 -8.70783e+12 -3.13567e+12 -9.4245e+12 -4.5315e+12 -6.19014e+12 -6.27003e+12 -7.012e+12 -5.10248e+12 -4.22464e+12 -9.54316e+12 -4.44026e+12 -4.39979e+12 -3.30863e+12 -3.33331e+12 -3.31229e+12 -3.08934e+12 -3.33739e+12 -6.13358e+12 -7.79182e+12 -7.50472e+12 -5.31458e+12 -8.79428e+12 -5.43632e+12 -6.53568e+12 -4.66453e+12 -6.13318e+12 -2.90695e+12 -5.65384e+12 -7.1744e+12 -4.88974e+12 -4.00283e+12 -4.31962e+12 -7.43625e+12 -9.40324e+12 -6.73415e+12 -9.00163e+12 -6.22701e+12 -5.41166e+12 -6.91957e+12 -4.70621e+12 -6.23058e+12 -8.99077e+12 -4.20494e+12 -5.41539e+12 -3.61062e+12 -3.08662e+12 -9.02968e+12 -2.77131e+12 -3.55301e+12 -4.81597e+12 -3.89923e+12 -4.11445e+12 -3.03467e+12 -2.8608e+12 -4.03832e+12 -2.66716e+12 -2.90057e+12 -5.82684e+12 -3.78648e+12 -3.09215e+12 -3.08286e+12 -5.03246e+12 -3.83865e+12 -3.57159e+12 -3.08027e+12 -2.50361e+12 -4.00725e+12 -3.86122e+12 -2.66079e+12 -2.97748e+12 -4.18147e+12 -4.99299e+12 -5.04798e+12 -3.73638e+12 -4.26062e+12 -4.49757e+12 -3.01369e+12 -9.39758e+12 -7.0349e+12 -3.87556e+12 -4.15188e+12 -5.17045e+12 -1.11828e+13 -4.26855e+12 -6.52394e+12 -7.94034e+12 -1.45224e+13 -9.40424e+12 -5.38696e+12 -5.21799e+12 -5.04815e+12 -8.33887e+12 -7.51413e+12 -1.10596e+13 -5.26294e+12 -1.03768e+13 -6.54627e+12 -4.70343e+12 -7.32202e+12 -5.78355e+12 -6.10861e+12 -6.47567e+12 -2.86647e+12 -4.59494e+12 -4.41265e+12 -6.45639e+12 -4.968e+12 -4.82676e+12 -3.99223e+12 -2.76793e+12 -5.72107e+12 -8.0282e+12 -7.93566e+12 -9.54479e+12 -5.3059e+12 -4.37419e+12 -6.17045e+12 -5.90399e+12 -7.50569e+12 -9.58541e+12 -7.11557e+12 -1.00098e+13 -3.76201e+12 -5.11498e+12 -3.52702e+12 -4.03745e+12 -3.29916e+12 -5.13785e+12 -3.4717e+12 -3.61846e+12 -6.29221e+12 -5.96545e+12 -6.56482e+12 -4.27604e+12 -4.91878e+12 -3.78078e+12 -4.79678e+12 -3.98883e+12 -5.45183e+12 -3.1092e+12 -2.80547e+12 -2.87382e+12 -3.75393e+12 -6.11696e+12 -2.67491e+12 -3.40842e+12 -4.51331e+12 -4.87805e+12 -5.95914e+12 -6.1648e+12 -2.69855e+12 -2.83879e+12 -2.77489e+12 -4.85539e+12 -5.05008e+12 -4.04224e+12 -4.53417e+12 -7.68829e+12 -1.59018e+12 -6.55085e+12 -2.42703e+12 -4.66271e+12 -1.01605e+13 -7.9809e+12 -8.95777e+12 -6.13625e+12 -7.49706e+12 -3.76114e+12 -5.74457e+12 -6.71884e+12 -4.30714e+12 -4.28272e+12 -7.90434e+12 -8.51957e+12 -8.24941e+12 -4.29963e+12 -1.02101e+13 -6.05218e+12 -8.4526e+12 -1.01068e+13 -5.29618e+12 -9.64945e+12 -5.84384e+12 -6.13778e+12 -5.45065e+12 -7.1734e+12 -6.32869e+12 -5.13387e+12 -4.98894e+12 -8.26223e+12 -5.52094e+12 -5.46192e+12 -7.64689e+12 -6.08168e+12 -6.34776e+12 -4.85244e+12 -4.59482e+12 -7.04134e+12 -6.68574e+12 -8.88075e+12 -6.78395e+12 -6.98931e+12 -7.29966e+12 -6.55803e+12 -3.98571e+12 -3.85183e+12 -4.14753e+12 -9.36682e+12 -3.90607e+12 -6.40839e+12 -6.12861e+12 -8.48458e+12 -7.3399e+12 -3.45509e+12 -4.52619e+12 -4.86421e+12 -5.24683e+12 -7.64874e+12 -5.36412e+12 -4.49026e+12 -3.19491e+12 -3.72203e+12 -4.32294e+12 -1.91439e+12 -4.14905e+12 -3.35887e+12 -3.81929e+12 -2.90492e+12 -2.59052e+12 -3.86665e+12 -3.20122e+12 -3.37451e+12 -4.60198e+12 -3.34302e+12 -3.56912e+12 -4.51438e+12 -3.81979e+12 -3.75059e+12 -4.77033e+12 -4.671e+12 -2.51495e+12 -5.2384e+12 -4.36686e+12 -3.0717e+12 -4.37857e+12 -2.43433e+12 -3.50028e+12 -1.43199e+12 -3.25639e+12 -6.3379e+12 -5.06306e+12 -3.82633e+12 -3.85345e+12 -4.92456e+12 -4.6855e+12 -4.91418e+12 -5.36067e+12 -4.47258e+12 -4.36822e+12 -5.51656e+12 -5.31067e+12 -5.52759e+12 -6.90995e+12 -5.77716e+12 -4.09638e+12 -4.53956e+12 -3.89867e+12 -4.3529e+12 -6.12748e+12 -4.34556e+12 -8.48861e+12 -5.86232e+12 -7.69984e+12 -4.61954e+12 -5.43046e+12 -3.1002e+12 -5.1204e+12 -2.17553e+12 -6.40721e+12 -5.00899e+12 -9.28048e+12 -9.11842e+12 -7.4629e+12 -7.85802e+12 -8.52737e+12 -1.02797e+13 -3.30181e+12 -3.54405e+12 -4.65982e+12 -6.22761e+12 -7.30299e+12 -8.77694e+12 -1.01758e+13 -3.52408e+12 -9.09514e+12 -9.79829e+12 -1.0668e+13 -1.17097e+13 -7.8355e+12 -9.70677e+12 -6.83918e+12 -4.7684e+12 -4.66084e+12 -6.99072e+12 -6.54633e+12 -6.02093e+12 -5.25957e+12 -7.60429e+12 -6.27674e+12 -5.78534e+12 -5.21377e+12 -4.92027e+12 -4.27723e+12 -3.78362e+12 -4.89528e+12 -3.67887e+12 -5.5178e+12 -6.99506e+12 -5.28614e+12 -5.47847e+12 -4.79941e+12 -5.60661e+12 -3.87061e+12 -4.44133e+12 -3.20431e+12 -3.4096e+12 -1.52635e+12 -3.47759e+12 -3.52265e+12 -3.12631e+12 -2.20453e+12 -1.49273e+12 -3.91752e+12 -2.88751e+12 -1.83412e+12 -3.1173e+12 -1.98139e+12 -3.26789e+12 -3.94492e+12 -5.77153e+12 -3.37806e+12 -4.93091e+12 -1.49139e+12 -4.8189e+12 -2.61712e+12 -3.38776e+12 -3.9685e+12 -2.07108e+12 -3.22228e+12 -2.94901e+12 -2.34451e+12 -3.68195e+12 -2.45116e+12 -6.03595e+12 -6.58166e+12 -4.91084e+12 -4.03685e+12 -3.13365e+12 -6.1426e+12 -6.16296e+12 -6.37629e+12 -7.99248e+12 -4.15607e+12 -4.62219e+12 -6.38127e+12 -7.01272e+12 -2.9416e+12 -5.43094e+12 -4.43108e+12 -5.75176e+12 -4.93371e+12 -6.23194e+12 -5.64009e+12 -8.10126e+12 -6.20967e+12 -6.74297e+12 -7.46028e+12 -6.67492e+12 -1.21285e+13 -5.29949e+12 -8.48639e+12 -7.03608e+12 -9.05373e+12 -7.52334e+12 -3.52442e+12 -6.10824e+12 -2.82664e+12 -4.09196e+12 -5.34678e+12 -4.44294e+12 -7.1276e+12 -9.39416e+12 -1.17616e+13 -7.41472e+12 -8.23125e+12 -6.17489e+12 -7.53522e+12 -9.15941e+12 -5.09479e+12 -3.231e+12 -5.53712e+12 -1.17768e+13 -5.16262e+12 -7.16666e+12 -5.57532e+12 -3.83304e+12 -7.23025e+12 -8.07208e+12 -4.48693e+12 -4.97651e+12 -6.55275e+12 -6.16536e+12 -5.67899e+12 -5.07231e+12 -5.34632e+12 -5.11456e+12 -5.74674e+12 -4.45214e+12 -4.02677e+12 -4.02648e+12 -7.08239e+12 -4.33231e+12 -4.85772e+12 -5.17408e+12 -4.50013e+12 -4.41774e+12 -3.12519e+12 -2.3575e+12 -3.08865e+12 -2.29526e+12 -2.2817e+12 -3.49146e+12 -2.02833e+12 -2.29314e+12 -2.46038e+12 -3.7917e+12 -5.48221e+12 -4.02734e+12 -1.86703e+12 -2.40451e+12 -3.21834e+12 -3.89154e+12 -2.92992e+12 -902063000000.0 -5.10437e+12 -4.09618e+12 -2.68171e+12 -5.58712e+12 -5.37895e+12 -2.58072e+12 -2.80886e+12 -2.68282e+12 -4.86281e+12 -3.29296e+12 -4.08316e+12 -2.77566e+12 -3.02948e+12 -8.2356e+12 -4.79962e+12 -5.0177e+12 -6.41103e+12 -4.68529e+12 -4.01674e+12 -5.99026e+12 -6.15336e+12 -4.92779e+12 -6.5622e+12 -8.19227e+12 -4.28471e+12 -5.43079e+12 -6.2248e+12 -5.4297e+12 -7.75615e+12 -4.78777e+12 -1.09555e+13 -1.28056e+13 -6.95707e+12 -4.00424e+12 -1.00567e+13 -7.69897e+12 -7.39403e+12 -7.81489e+12 -7.1661e+12 -1.16144e+13 -9.94929e+12 -9.37076e+12 -7.28966e+12 -7.28148e+12 -2.12472e+12 -4.66057e+12 -5.33514e+12 -8.08694e+12 -3.34381e+12 -6.51536e+12 -8.13317e+12 -5.11128e+12 -5.58867e+12 -7.39966e+12 -6.056e+12 -8.26075e+12 -8.17503e+12 -4.70473e+12 -5.58105e+12 -7.7519e+12 -9.88849e+12 -9.01606e+12 -7.74852e+12 -4.61843e+12 -4.78373e+12 -6.83854e+12 -8.13541e+12 -8.90911e+12 -5.81698e+12 -5.91273e+12 -6.5031e+12 -6.16794e+12 -5.95915e+12 -3.87106e+12 -4.12774e+12 -5.6883e+12 -6.12224e+12 -8.7427e+12 -3.22768e+12 -2.38215e+12 -6.12967e+12 -2.8405e+12 -2.4259e+12 -4.3249e+12 -3.72334e+12 -5.15506e+12 -2.41093e+12 -5.14344e+12 -4.88083e+12 -2.19156e+12 -2.32393e+12 -3.63851e+12 -4.51033e+12 -4.10551e+12 -2.6883e+12 -2.24812e+12 -4.54823e+12 -2.33702e+12 -3.30824e+12 -2.73849e+12 -4.12532e+12 -4.64967e+12 -3.24997e+12 -3.38067e+12 -3.49143e+12 -6.01568e+12 -3.12251e+12 -3.55424e+12 -2.75034e+12 -4.48889e+12 -4.86307e+12 -4.66885e+12 -1.82637e+12 -3.3004e+12 -5.11561e+12 -3.38651e+12 -3.91007e+12 -6.96832e+12 -3.15047e+12 -7.45217e+12 -4.31493e+12 -7.19499e+12 -4.82284e+12 -9.05643e+12 -3.96383e+12 -7.51258e+12 -5.89294e+12 -7.7298e+12 -7.55858e+12 -6.16125e+12 -6.33086e+12 -6.70761e+12 -9.05162e+12 -6.81726e+12 -1.06652e+13 -8.35825e+12 -6.81683e+12 -5.38682e+12 -9.0936e+12 -7.00605e+12 -6.41973e+12 -8.73099e+12 -5.7748e+12 -4.63706e+12 -3.83534e+12 -4.45108e+12 -3.67864e+12 -9.33217e+12 -6.80758e+12 -9.79119e+12 -8.82572e+12 -7.34037e+12 -6.25584e+12 -4.65101e+12 -4.72994e+12 -7.72452e+12 -6.53661e+12 -7.04457e+12 -1.12322e+13 -6.88468e+12 -9.0717e+12 -7.11373e+12 -4.37678e+12 -5.44544e+12 -4.20042e+12 -8.00296e+12 -6.39257e+12 -1.01561e+13 -4.26428e+12 -5.98236e+12 -7.19352e+12 -7.17672e+12 -4.06671e+12 -5.84821e+12 -4.32886e+12 -4.29911e+12 -5.29826e+12 -3.23574e+12 -4.68293e+12 -4.05048e+12 -5.41152e+12 -3.70684e+12 -5.47061e+12 -4.77128e+12 -4.46433e+12 -5.41315e+12 -1.90993e+12 -8.37378e+12 -2.80325e+12 -3.46029e+12 -5.84456e+12 -1.77824e+12 -5.3774e+12 -2.69231e+12 -2.47577e+12 -3.60444e+12 -4.49626e+12 -1.88043e+12 -3.20928e+12 -2.52107e+12 -2.85401e+12 -2.22447e+12 -2.73724e+12 -2.87022e+12 -1.00402e+12 -2.08155e+12 -2.92413e+12 -2.39123e+12 -4.70466e+12 -3.29879e+12 -5.50422e+12 -4.38298e+12 -3.55095e+12 -3.19564e+12 -3.00437e+12 -5.01411e+12 -2.35755e+12 -2.79955e+12 -3.94972e+12 -5.50037e+12 -4.87187e+12 -4.79119e+12 -3.20325e+12 -3.76905e+12 -2.92448e+12 -3.68704e+12 -3.74393e+12 -4.22771e+12 -5.2111e+12 -7.3184e+12 -5.08208e+12 -4.38756e+12 -4.04289e+12 -3.86133e+12 -4.91408e+12 -6.77503e+12 -6.55334e+12 -7.12808e+12 -4.60422e+12 -4.70344e+12 -6.36414e+12 -7.0942e+12 -5.98228e+12 -8.04305e+12 -7.53504e+12 -6.834e+12 -1.05318e+13 -9.88259e+12 -5.82492e+12 -9.79331e+12 -4.0127e+12 -1.0463e+13 -3.59591e+12 -4.44478e+12 -4.71524e+12 -1.21956e+13 -5.39492e+12 -6.305e+12 -7.95558e+12 -8.47762e+12 -9.12732e+12 -2.95972e+12 -3.92952e+12 -8.0813e+12 -9.9258e+12 -5.68002e+12 -8.80383e+12 -6.81785e+12 -3.90687e+12 -6.37895e+12 -9.07829e+12 -1.10455e+13 -6.33534e+12 -5.05802e+12 -4.82861e+12 -8.7907e+12 -5.94841e+12 -1.99188e+12 -7.12674e+12 -7.79973e+12 -5.14031e+12 -5.66278e+12 -7.50978e+12 -7.9634e+12 -6.70982e+12 -5.0265e+12 -7.33833e+12 -5.62323e+12 -5.39841e+12 -1.692e+12 -4.6898e+12 -2.89736e+12 -5.22473e+12 -3.39412e+12 -6.08429e+12 -2.96266e+12 -3.80547e+12 -4.25223e+12 -4.4897e+12 -4.086e+12 -2.07576e+12 -2.7156e+12 -4.46888e+12 -5.31593e+12 -3.51562e+12 -3.31784e+12 -3.39246e+12 -2.97621e+12 -3.55975e+12 -2.35204e+12 -2.70841e+12 -1.66774e+12 -3.57335e+12 -2.93726e+12 -1.99896e+12 -2.70106e+12 -4.46055e+12 -2.60428e+12 -2.45003e+12 -2.69181e+12 -3.3975e+12 -3.88912e+12 -3.58973e+12 -1.0477e+12 -2.78272e+12 -2.84313e+12 -3.3075e+12 -6.08578e+12 -1.13173e+12 -2.9187e+12 -1.16951e+12 -3.68503e+12 -3.23415e+12 -4.59691e+12 -4.53874e+12 -3.75068e+12 -3.45888e+12 -6.1933e+12 -8.05227e+12 -4.02898e+12 -5.42251e+12 -2.99807e+12 -3.32076e+12 -3.4353e+12 -6.06903e+12 -4.67642e+12 -6.99366e+12 -7.32088e+12 -6.24383e+12 -7.98569e+12 -7.81186e+12 -4.22114e+12 -6.83914e+12 -5.91211e+12 -1.22579e+13 -7.06502e+12 -8.44598e+12 -8.57131e+12 -7.62746e+12 -3.98481e+12 -9.88762e+12 -4.84897e+12 -8.37819e+12 -9.09526e+12 -6.34005e+12 -6.73118e+12 -6.76999e+12 -6.62268e+12 -6.7929e+12 -4.7471e+12 -7.33971e+12 -7.91587e+12 -7.17655e+12 -5.45865e+12 -7.65158e+12 -8.02025e+12 -1.07641e+13 -9.05681e+12 -4.49172e+12 -1.01167e+13 -5.11714e+12 -1.01558e+13 -5.87812e+12 -7.49915e+12 -6.89886e+12 -7.33745e+12 -5.12142e+12 -4.15964e+12 -9.88474e+12 -3.14463e+12 -4.38176e+12 -3.40966e+12 -4.43825e+12 -6.94996e+12 -4.08805e+12 -6.54991e+12 -6.28419e+12 -4.16384e+12 -6.72442e+12 -1.64748e+12 -6.4358e+12 -4.43917e+12 -4.80723e+12 -5.00441e+12 -6.06666e+12 -5.56248e+12 -4.11934e+12 -3.88555e+12 -5.15077e+12 -4.19383e+12 -3.00507e+12 -4.71191e+12 -3.41757e+12 -3.13455e+12 -3.40229e+12 -5.8943e+12 -5.83838e+12 -3.51886e+12 -2.48392e+12 -3.7602e+12 -3.85043e+12 -1.92129e+12 -3.74749e+12 -3.55877e+12 -2.86649e+12 -1.94572e+12 -2.95987e+12 -2.53669e+12 -946854000000.0 -3.82038e+12 -2.81092e+12 -4.95394e+12 -1.84787e+12 -2.91587e+12 -2.87956e+12 -2.00003e+12 -1.63262e+12 -2.67212e+12 -3.08141e+12 -4.20197e+12 -4.17595e+12 -2.32071e+12 -2.03069e+12 -1.63821e+12 -2.80774e+12 -3.11648e+12 -4.51473e+12 -3.45034e+12 -4.20908e+12 -2.54809e+12 -3.42622e+12 -4.95151e+12 -6.45317e+12 -1.9522e+12 -6.31695e+12 -3.77667e+12 -2.20849e+12 -4.99669e+12 -5.00235e+12 -6.16438e+12 -5.4169e+12 -6.91548e+12 -1.97278e+12 -4.6046e+12 -4.13259e+12 -6.27978e+12 -6.1053e+12 -6.54626e+12 -3.04098e+12 -4.76673e+12 -6.02153e+12 -6.59845e+12 -3.32486e+12 -3.02537e+12 -6.05063e+12 -7.0754e+12 -6.9309e+12 -5.42917e+12 -2.4243e+12 -5.92182e+12 -6.3365e+12 -3.0346e+12 -3.08947e+12 -5.29041e+12 -3.77723e+12 -5.2255e+12 -8.38299e+12 -7.20407e+12 -5.95737e+12 -7.03811e+12 -6.64172e+12 -7.12198e+12 -5.92545e+12 -6.88075e+12 -8.43927e+12 -3.7246e+12 -7.20687e+12 -6.81786e+12 -3.70133e+12 -6.81701e+12 -6.46977e+12 -7.57286e+12 -9.18892e+12 -9.08333e+12 -8.70985e+12 -7.37486e+12 -7.06393e+12 -7.26868e+12 -7.40308e+12 -6.93318e+12 -4.6919e+12 -5.97618e+12 -6.61851e+12 -4.29914e+12 -4.6251e+12 -8.43445e+12 -4.8529e+12 -3.30039e+12 -4.22197e+12 -3.25413e+12 -5.94216e+12 -5.64717e+12 -3.15558e+12 -7.77649e+12 -3.58978e+12 -3.49633e+12 -3.69522e+12 -3.04351e+12 -5.95972e+12 -4.78566e+12 -5.21133e+12 -1.94319e+12 -2.99644e+12 -4.80198e+12 -3.24484e+12 -3.47707e+12 -2.91892e+12 -5.40802e+12 -2.72425e+12 -3.71918e+12 -3.54816e+12 -2.509e+12 -4.90736e+12 -827948000000.0 -2.16001e+12 -4.67286e+12 -3.42515e+12 -2.63475e+12 -4.9379e+12 -3.23576e+12 -3.0061e+12 -3.05212e+12 -2.33544e+12 -2.86604e+12 -2.763e+12 -1.64061e+12 -3.43124e+12 -4.78055e+12 -1.59577e+12 -1.7159e+12 -3.21894e+12 -4.32376e+12 -3.30626e+12 -2.93962e+12 -3.6076e+12 -2.71371e+12 -3.00375e+12 -3.96327e+12 -3.38402e+12 -5.43466e+12 -3.56372e+12 -5.26401e+12 -3.88034e+12 -6.0513e+12 -3.73645e+12 -2.413e+12 -3.56188e+12 -4.99571e+12 -2.77378e+12 -4.71295e+12 -5.50929e+12 -2.79174e+12 -3.4242e+12 -5.33746e+12 -4.95291e+12 -4.87967e+12 -2.0851e+12 -5.4351e+12 -2.87942e+12 -4.68396e+12 -4.38822e+12 -7.17029e+12 -6.03667e+12 -5.21046e+12 -9.41009e+12 -4.70636e+12 -9.49165e+12 -8.63463e+12 -5.4398e+12 -4.0956e+12 -9.04543e+12 -6.77042e+12 -7.8057e+12 -5.66042e+12 -6.71681e+12 -6.34036e+12 -6.55376e+12 -6.40935e+12 -4.93681e+12 -5.05854e+12 -3.62126e+12 -6.77923e+12 -8.61611e+12 -4.08994e+12 -4.352e+12 -1.94004e+12 -7.8388e+12 -4.48555e+12 -5.57951e+12 -2.10622e+12 -9.67548e+12 -4.16664e+12 -5.91833e+12 -4.86887e+12 -7.85848e+12 -1.12496e+13 -8.56162e+12 -2.5822e+12 -6.34941e+12 -5.42493e+12 -6.25111e+12 -8.18609e+12 -3.88068e+12 -3.93022e+12 -4.65076e+12 -5.51209e+12 -6.08418e+12 -3.31815e+12 -6.96671e+12 -5.87315e+12 -4.74586e+12 -5.58031e+12 -5.21381e+12 -4.94822e+12 -5.57817e+12 -3.33876e+12 -4.39858e+12 -4.96167e+12 -5.42871e+12 -7.23399e+12 -2.82857e+12 -6.98652e+12 -3.95737e+12 -4.71534e+12 -4.56118e+12 -4.11326e+12 -1.49169e+12 -3.33543e+12 -5.54332e+12 -3.7201e+12 -3.22657e+12 -2.61343e+12 -2.70318e+12 -4.27084e+12 -2.51425e+12 -2.818e+12 -3.10099e+12 -3.53381e+12 -2.79238e+12 -3.67907e+12 -1.65931e+12 -2.38174e+12 -1.12521e+12 -2.94102e+12 -1.71507e+12 -3.3452e+12 -2.31587e+12 -2.71419e+12 -2.46713e+12 -1.82648e+12 -1.55462e+12 -3.54654e+12 -2.79437e+12 -1.02772e+12 -2.00168e+12 -1.33184e+12 -3.31892e+12 -1.89338e+12 -2.74319e+12 -1.70301e+12 -4.39858e+12 -2.88824e+12 -4.68179e+12 -2.61514e+12 -2.02304e+12 -2.64931e+12 -3.37759e+12 -2.80285e+12 -1.80441e+12 -2.79937e+12 -2.45689e+12 -1.03506e+12 -2.56289e+12 -3.84784e+12 -3.67937e+12 -3.62136e+12 -4.99445e+12 -4.53527e+12 -3.06694e+12 -2.98009e+12 -4.0373e+12 -4.79067e+12 -3.77373e+12 -5.32137e+12 -4.11659e+12 -3.22051e+12 -5.11632e+12 -1.50155e+12 -1.00426e+12 -6.31031e+12 -2.36533e+12 -6.48891e+12 -4.89027e+12 -7.90991e+12 -3.24051e+12 -5.54536e+12 -8.40305e+12 -6.33195e+12 -7.66915e+12 -5.51171e+12 -6.70697e+12 -6.96108e+12 -6.94226e+12 -8.0925e+12 -9.70958e+12 -7.06439e+12 -8.9788e+12 -5.70609e+12 -5.99116e+12 -8.2726e+12 -7.94575e+12 -7.04766e+12 -4.83442e+12 -4.79771e+12 -5.64226e+12 -4.94968e+12 -4.84726e+12 -4.43853e+12 -3.70943e+12 -6.48326e+12 -3.56213e+12 -5.27309e+12 -8.81998e+12 -5.53349e+12 -5.86743e+12 -5.9817e+12 -9.85244e+12 -7.31688e+12 -7.87003e+12 -3.50359e+12 -7.61106e+12 -4.45496e+12 -1.21821e+13 -1.04826e+13 -6.91622e+12 -5.20612e+12 -3.69674e+12 -5.69424e+12 -4.88347e+12 -3.53779e+12 -8.41757e+12 -7.62106e+12 -5.26873e+12 -4.09546e+12 -4.03285e+12 -5.28508e+12 -4.67126e+12 -6.60247e+12 -3.8658e+12 -5.80998e+12 -5.60767e+12 -3.75529e+12 -4.52781e+12 -4.91232e+12 -3.14412e+12 -3.97222e+12 -3.12791e+12 -3.21988e+12 -3.4885e+12 -2.47778e+12 -2.47152e+12 -3.27199e+12 -3.82664e+12 -3.41587e+12 -3.41617e+12 -3.3861e+12 -3.7805e+12 -3.66461e+12 -7.52493e+12 -3.17621e+12 -3.96432e+12 -4.37575e+12 -3.42481e+12 -2.61391e+12 -3.44727e+12 -1.63631e+12 -2.54569e+12 -1.28082e+12 -1.86678e+12 -1.6878e+12 -2.65705e+12 -628356000000.0 -2.53888e+12 -3.06613e+12 -2.42234e+12 -1.85634e+12 -3.60988e+12 -2.22736e+12 -1.625e+12 -1.81738e+12 -808351000000.0 -2.4455e+12 -2.9813e+12 -4.30517e+12 -2.23039e+12 -1.24757e+12 -1.13754e+12 -2.4107e+12 -3.17969e+12 -4.13608e+12 -1.52461e+12 -735419000000.0 -3.19934e+12 -3.17272e+12 -1.60174e+12 -3.88986e+12 -6.52521e+12 -3.22042e+12 -2.99482e+12 -2.9268e+12 -1.51709e+12 -4.05011e+12 -5.28752e+12 -5.24217e+12 -3.22947e+12 -2.19722e+12 -2.62237e+12 -5.07579e+12 -4.47531e+12 -6.39865e+12 -4.46705e+12 -5.56232e+12 -6.0545e+12 -6.27867e+12 -4.41154e+12 -2.51296e+12 -8.42809e+12 -6.12756e+12 -5.74317e+12 -2.35351e+12 -1.6565e+12 -9.66597e+12 -9.70245e+12 -5.68452e+12 -6.01396e+12 -3.8041e+12 -9.9576e+12 -5.6707e+12 -6.69614e+12 -5.89886e+12 -7.15637e+12 -7.86629e+12 -5.62499e+12 -4.84345e+12 -6.80227e+12 -7.38437e+12 -4.15675e+12 -5.27388e+12 -4.73823e+12 -7.4257e+12 -6.33293e+12 -4.78514e+12 -9.29568e+12 -4.54735e+12 -4.5719e+12 -5.51817e+12 -3.46892e+12 -3.97475e+12 -3.53453e+12 -8.59442e+12 -7.4771e+12 -5.4359e+12 -4.38768e+12 -2.54414e+12 -4.46209e+12 -7.98318e+12 -1.10252e+13 -6.20694e+12 -1.53957e+13 -5.77741e+12 -4.49993e+12 -7.06981e+12 -8.15656e+12 -6.25781e+12 -6.73003e+12 -7.80947e+12 -7.63636e+12 -5.69492e+12 -5.75282e+12 -3.6037e+12 -5.17046e+12 -3.16877e+12 -3.79269e+12 -3.22272e+12 -1.1302e+12 -3.8457e+12 -7.45669e+12 -4.16152e+12 -4.82522e+12 -4.00904e+12 -1.65417e+12 -4.6662e+12 -2.49307e+12 -2.18955e+12 -3.59826e+12 -4.67708e+12 -3.44402e+12 -3.84428e+12 -5.94072e+12 -4.45057e+12 -4.90646e+12 -2.10478e+12 -2.32315e+12 -2.81918e+12 -3.8033e+12 -4.35139e+12 -2.58669e+12 -2.52623e+12 -3.38045e+12 -2.35164e+12 -4.69001e+12 -3.01141e+12 -3.48536e+12 -3.19696e+12 -2.89408e+12 -2.32919e+12 -2.39338e+12 -1.95047e+12 -1.91118e+12 -1.80444e+12 -2.00087e+12 -2.74395e+12 -3.14441e+12 -2.26926e+12 -2.2816e+12 -3.01752e+12 -2.82832e+12 -3.03069e+12 -2.83305e+12 -3.14477e+12 -3.76418e+12 -2.86126e+12 -3.61754e+12 -1.83539e+12 -1.89948e+12 -2.87914e+12 -1.36175e+12 -1.83698e+12 -3.45237e+12 -2.69299e+12 -2.1348e+12 -2.40813e+12 -4.49663e+12 -5.48964e+12 -3.36556e+12 -5.37989e+12 -4.5588e+12 -3.6801e+12 -1.52325e+12 -4.4137e+12 -6.43696e+12 -6.04849e+12 -3.60874e+12 -2.89555e+12 -4.42226e+12 -8.1262e+12 -4.56926e+12 -6.4136e+12 -7.83692e+12 -5.41507e+12 -3.63484e+12 -5.00846e+12 -5.68606e+12 -4.65287e+12 -7.51137e+12 -3.24014e+12 -3.33373e+12 -5.1622e+12 -4.06429e+12 -4.84361e+12 -7.60154e+12 -5.86137e+12 -6.72565e+12 -4.01946e+12 -8.08704e+12 -5.04366e+12 -6.03897e+12 -6.00887e+12 -4.35519e+12 -8.10274e+12 -2.67284e+12 -4.25292e+12 -4.52853e+12 -9.28925e+12 -6.7473e+12 -3.80246e+12 -3.05145e+12 -3.26803e+12 -3.91822e+12 -4.45855e+12 -5.42265e+12 -6.57095e+12 -8.1616e+12 -6.43682e+12 -4.85031e+12 -6.40445e+12 -6.88845e+12 -6.92502e+12 -4.50373e+12 -1.07678e+13 -9.13359e+12 -4.08523e+12 -5.50679e+12 -8.31922e+12 -4.33532e+12 -7.60487e+12 -5.59908e+12 -4.18303e+12 -5.441e+12 -6.19523e+12 -5.1275e+12 -6.3338e+12 -4.56132e+12 -6.06869e+12 -7.14699e+12 -2.51458e+12 -4.34837e+12 -2.37368e+12 -4.27172e+12 -3.76899e+12 -2.80045e+12 -3.83524e+12 -4.58831e+12 -2.83875e+12 -2.66278e+12 -4.4634e+12 -3.80455e+12 -5.86391e+12 -4.15206e+12 -4.40662e+12 -3.3518e+12 -2.28985e+12 -2.55748e+12 -3.62927e+12 -2.55328e+12 -3.13861e+12 -2.82124e+12 -1.25917e+12 -3.04913e+12 -1.79967e+12 -2.07373e+12 -1.63515e+12 -3.46555e+12 -3.11392e+12 -2.99359e+12 -2.35334e+12 -2.01466e+12 -782559000000.0 -1.6336e+12 -2.58704e+12 -2.34608e+12 -2.30838e+12 -1.74084e+12 -2.15778e+12 -1.52238e+12 -2.14859e+12 -1.24118e+12 -1.68509e+12 -2.21639e+12 -1.34854e+12 -3.60012e+12 -3.62276e+12 -995398000000.0 -2.35214e+12 -2.19992e+12 -1.74326e+12 -1.33583e+12 -2.73334e+12 -1.68655e+12 -4.75493e+12 -3.32128e+12 -2.58987e+12 -2.69163e+12 -4.81948e+12 -3.45924e+12 -2.32951e+12 -4.67575e+12 -3.42285e+12 -4.40103e+12 -3.4633e+12 -4.19967e+12 -4.10379e+12 -4.63528e+12 -5.81585e+12 -4.17157e+12 -3.22622e+12 -4.11357e+12 -5.59468e+12 -3.51583e+12 -1.69364e+12 -3.30037e+12 -2.9153e+12 -4.47802e+12 -5.12478e+12 -7.21166e+12 -3.19514e+12 -4.05406e+12 -4.51648e+12 -4.24436e+12 -5.03525e+12 -4.11525e+12 -6.20073e+12 -6.68194e+12 -6.53664e+12 -6.62029e+12 -3.5078e+12 -5.26946e+12 -6.17817e+12 -1.00743e+13 -6.13902e+12 -7.90261e+12 -5.04226e+12 -4.46315e+12 -5.51741e+12 -5.54554e+12 -7.90584e+12 -8.98637e+12 -9.51209e+12 -6.25696e+12 -6.65306e+12 -5.53651e+12 -7.01686e+12 -6.10621e+12 -4.17513e+12 -6.86444e+12 -6.15968e+12 -3.03783e+12 -4.58549e+12 -5.85065e+12 -6.46224e+12 -3.00548e+12 -4.09435e+12 -3.27712e+12 -5.86949e+12 -3.0155e+12 -6.55122e+12 -8.27514e+12 -5.85448e+12 -4.95725e+12 -3.04782e+12 -5.66618e+12 -5.54229e+12 -4.5944e+12 -4.1896e+12 -3.28196e+12 -6.65359e+12 -4.30757e+12 -4.53925e+12 -2.64253e+12 -3.66545e+12 -5.40075e+12 -6.13066e+12 -4.74751e+12 -4.45409e+12 -3.44317e+12 -5.68068e+12 -3.27326e+12 -8.52456e+12 -4.11176e+12 -3.01153e+12 -4.00672e+12 -3.07986e+12 -6.63116e+12 -5.0597e+12 -2.95279e+12 -5.92918e+12 -3.26926e+12 -4.77933e+12 -3.5238e+12 -1.78701e+12 -2.3649e+12 -2.76583e+12 -5.26648e+12 -3.76654e+12 -5.64653e+12 -2.86903e+12 -2.97182e+12 -2.09368e+12 -1.91874e+12 -2.13391e+12 -2.943e+12 -2.33815e+12 -1.30549e+12 -2.41707e+12 -1.33397e+12 -2.99337e+12 -1.02099e+12 -2.0772e+12 -1.94401e+12 -2.70877e+12 -1.03161e+12 -196309000000.0 -1.60385e+12 -1.88869e+12 -1.70842e+12 -855739000000.0 -1.67617e+12 -1.45071e+12 -1.73618e+12 -3.39271e+12 -1.76753e+12 -1.26504e+12 -2.34949e+12 -1.67396e+12 -1.75364e+12 -1.21476e+12 -1.66932e+12 -3.14912e+12 -2.7498e+12 -2.27036e+12 -2.60491e+12 -3.04508e+12 -2.68865e+12 -3.24105e+12 -2.03288e+12 -3.26652e+12 -2.98298e+12 -4.16711e+12 -2.26276e+12 -3.35912e+12 -4.40886e+12 -4.79483e+12 -4.00964e+12 -3.8315e+12 -6.10861e+12 -4.64755e+12 -6.33956e+12 -3.36979e+12 -2.24052e+12 -3.8689e+12 -5.77659e+12 -6.43805e+12 -4.49116e+12 -2.17972e+12 -7.12107e+12 -3.40472e+12 -5.84155e+12 -2.16025e+12 -4.1275e+12 -6.01792e+12 -5.02097e+12 -4.0342e+12 -4.37976e+12 -4.01392e+12 -3.71932e+12 -3.99615e+12 -4.56314e+12 -7.15846e+12 -8.37201e+12 -5.45172e+12 -5.6399e+12 -5.36529e+12 -7.67867e+12 -4.87534e+12 -4.72517e+12 -7.88403e+12 -4.6747e+12 -4.28254e+12 -2.55342e+12 -2.32363e+12 -3.1037e+12 -4.60733e+12 -6.22165e+12 -4.71094e+12 -5.17217e+12 -5.6552e+12 -4.89908e+12 -5.30044e+12 -3.33521e+12 -4.47487e+12 -4.0822e+12 -3.18623e+12 -6.75618e+12 -4.64014e+12 -6.53771e+12 -6.63146e+12 -3.28906e+12 -3.45496e+12 -4.66405e+12 -5.36239e+12 -5.66311e+12 -3.63922e+12 -4.1177e+12 -3.99638e+12 -3.56347e+12 -5.34739e+12 -4.04266e+12 -4.2312e+12 -3.15608e+12 -2.73586e+12 -6.77013e+12 -3.49888e+12 -2.90831e+12 -4.05431e+12 -3.38169e+12 -3.88492e+12 -6.69017e+12 -7.13809e+12 -4.57828e+12 -3.33037e+12 -3.3815e+12 -3.44618e+12 -4.42585e+12 -5.07599e+12 -5.02853e+12 -3.07078e+12 -3.10478e+12 -2.84744e+12 -4.99015e+12 -2.6949e+12 -3.85566e+12 -2.75299e+12 -1.90882e+12 -1.66554e+12 -2.40182e+12 -3.69959e+12 -1.38236e+12 -1.56525e+12 -3.31568e+12 -2.76465e+12 -2.30276e+12 -1.99341e+12 -1.51581e+12 -1.69622e+12 -2.41328e+12 -2.25334e+12 -2.22188e+12 -1.99248e+12 -645696000000.0 -1.33012e+12 -1.45751e+12 -1.78809e+12 -1.91927e+12 -665024000000.0 -2.79001e+12 -1.20262e+12 -1.19888e+12 -736879000000.0 -1.6186e+12 -1.18058e+12 -1.53339e+12 -3.16545e+12 -1.70175e+12 -1.32694e+12 -1.88988e+12 -3.13679e+12 -1.88195e+12 -2.15842e+12 -2.14328e+12 -2.14958e+12 -3.42863e+12 -3.73737e+12 -2.06415e+12 -1.74979e+12 -2.86367e+12 -2.1728e+12 -2.99168e+12 -5.30916e+12 -5.62237e+12 -4.24149e+12 -1.60451e+12 -2.67827e+12 -3.0272e+12 -3.17277e+12 -4.66666e+12 -7.30654e+12 -1.83721e+12 -3.40534e+12 -5.22192e+12 -3.08049e+12 -4.0867e+12 -6.28259e+12 -3.11424e+12 -5.16136e+12 -7.54304e+12 -4.29426e+12 -2.64181e+12 -5.5769e+12 -1.02405e+13 -4.99405e+12 -8.00062e+12 -7.49503e+12 -5.20078e+12 -5.74829e+12 -4.18777e+12 -3.03839e+12 -7.27533e+12 -3.87046e+12 -5.48553e+12 -8.52337e+12 -5.79149e+12 -1.03837e+13 -8.00532e+12 -3.74872e+12 -6.92243e+12 -7.08624e+12 -6.02106e+12 -1.12385e+13 -5.50281e+12 -5.64747e+12 -5.16627e+12 -4.52352e+12 -5.19106e+12 -5.50456e+12 -3.03325e+12 -4.48702e+12 -6.76624e+12 -5.98886e+12 -4.66516e+12 -4.74915e+12 -7.42306e+12 -7.08725e+12 -5.41098e+12 -5.20248e+12 -6.49683e+12 -3.61015e+12 -5.13362e+12 -6.04107e+12 -3.94561e+12 -4.50577e+12 -2.26054e+12 -3.24779e+12 -3.11293e+12 -4.55832e+12 -3.0247e+12 -2.87033e+12 -4.21824e+12 -2.98944e+12 -5.40196e+12 -3.49713e+12 -4.28194e+12 -4.9151e+12 -2.14897e+12 -4.19239e+12 -1.78606e+12 -1.06756e+12 -1.2452e+12 -2.41276e+12 -4.5571e+12 -4.45363e+12 -3.16433e+12 -2.29851e+12 -3.48926e+12 -2.41631e+12 -3.4959e+12 -5.16848e+12 -3.3002e+12 -2.37236e+12 -2.07776e+12 -2.54333e+12 -3.282e+12 -3.25739e+12 -1.34886e+12 -3.54344e+12 -2.68655e+12 -1.66796e+12 -1.37316e+12 -2.50614e+12 -1.60244e+12 -1.21105e+12 -1.11432e+12 -2.61652e+12 -1.90937e+12 -1.97233e+12 -2.08623e+12 -2.88035e+12 -960183000000.0 -2.6757e+12 -1.3137e+12 -1.24703e+12 -1.64106e+12 -1.1267e+12 -1.71961e+12 -606933000000.0 -1.34739e+12 -1.67653e+12 -1.93111e+12 -1.44412e+12 -2.29903e+12 -2.54994e+12 -1.71224e+12 -884120000000.0 -1.22409e+12 -1.42879e+12 -1.25463e+12 -1.74041e+12 -924536000000.0 -1.29244e+12 -1.45945e+12 -2.1489e+12 -1.1516e+12 -3.168e+12 -2.33216e+12 -1.39731e+12 -3.14858e+12 -2.8251e+12 -2.51539e+12 -3.37207e+12 -1.16808e+12 -2.18442e+12 -2.78013e+12 -2.67696e+12 -2.4339e+12 -2.55062e+12 -3.95158e+12 -4.06253e+12 -1.96028e+12 -1.44528e+12 -3.74943e+12 -3.09655e+12 -1.93491e+12 -3.21562e+12 -5.85543e+12 -6.06637e+12 -5.99734e+12 -5.18062e+12 -4.64645e+12 -5.3263e+12 -4.70428e+12 -5.43455e+12 -3.20058e+12 -5.4702e+12 -5.99631e+12 -4.58618e+12 -1.63058e+12 -3.80061e+12 -3.65334e+12 -3.10372e+12 -4.09737e+12 -4.04781e+12 -4.68561e+12 -8.14248e+12 -4.93118e+12 -6.29598e+12 -3.65416e+12 -7.25814e+12 -7.36714e+12 -6.45682e+12 -8.41343e+12 -6.16618e+12 -5.89991e+12 -2.48508e+12 -3.78208e+12 -2.47833e+12 -3.02892e+12 -3.19245e+12 -3.52585e+12 -3.15661e+12 -2.52057e+12 -7.20878e+12 -3.84963e+12 -3.69138e+12 -6.26277e+12 -4.97687e+12 -3.14529e+12 -6.4267e+12 -5.69193e+12 -4.24705e+12 -6.32229e+12 -4.1426e+12 -5.05289e+12 -4.93849e+12 -5.6548e+12 -3.06747e+12 -2.76027e+12 -3.99598e+12 -2.06507e+12 -4.97441e+12 -5.57228e+12 -3.43257e+12 -4.90179e+12 -3.72359e+12 -5.54892e+12 -3.76784e+12 -2.73495e+12 -2.37677e+12 -3.06579e+12 -2.4915e+12 -2.14617e+12 -1.28332e+12 -2.3077e+12 -4.45312e+12 -2.88384e+12 -2.0982e+12 -1.12343e+12 -2.45977e+12 -3.15048e+12 -371533000000.0 -4.43145e+12 -2.75809e+12 -1.223e+12 -2.95609e+12 -2.58525e+12 -1.29408e+12 -1.82764e+12 -1.58958e+12 -812791000000.0 -1.90925e+12 -1.50302e+12 -1.40192e+12 -1.55529e+12 -2.56732e+12 -2.27072e+12 -523123000000.0 -1.93647e+12 -1.25684e+12 -1.17494e+12 -828621000000.0 -1.31024e+12 -1.31319e+12 -1.2057e+12 -410723000000.0 -894786000000.0 -1.27487e+12 -127280000000.0 -1.0324e+12 -1.85356e+12 -1.54051e+12 -1.2171e+12 -2.62327e+12 -1.09689e+12 -875297000000.0 -1.40639e+12 -1.17806e+12 -2.00822e+12 -1.0421e+12 -1.70096e+12 -1.9211e+12 -958566000000.0 -719003000000.0 -2.43212e+12 -2.18946e+12 -2.0052e+12 -1.05917e+12 -1.88647e+12 -1.28252e+12 -1.38154e+12 -2.71654e+12 -2.37008e+12 -1.68041e+12 -722345000000.0 -1.96452e+12 -1.92288e+12 -1.98035e+12 -2.42932e+12 -5.46504e+12 -2.4547e+12 -3.36828e+12 -2.4679e+12 -5.62024e+12 -2.01196e+12 -2.1279e+12 -2.35405e+12 -3.36342e+12 -3.34838e+12 -3.56227e+12 -5.63224e+12 -3.09652e+12 -3.72074e+12 -2.54625e+12 -1.93224e+12 -3.60372e+12 -4.21354e+12 -2.88492e+12 -4.15412e+12 -3.75268e+12 -6.2781e+12 -4.78915e+12 -7.09772e+12 -6.56833e+12 -2.5236e+12 -4.60526e+12 -3.26223e+12 -1.04913e+13 -5.32526e+12 -7.52752e+12 -3.97738e+12 -3.97983e+12 -5.05741e+12 -4.88299e+12 -4.11896e+12 -8.86877e+12 -4.15599e+12 -7.35858e+12 -5.64384e+12 -2.29145e+12 -3.8068e+12 -3.81929e+12 -7.1082e+12 -2.8831e+12 -3.29422e+12 -3.82028e+12 -3.36442e+12 -5.04537e+12 -3.63877e+12 -6.32497e+12 -4.94605e+12 -3.18802e+12 -4.45868e+12 -3.58031e+12 -2.88126e+12 -3.30724e+12 -4.1803e+12 -2.91363e+12 -3.79136e+12 -2.99484e+12 -5.95178e+12 -4.65187e+12 -3.39186e+12 -3.63321e+12 -3.14338e+12 -6.24597e+12 -4.92147e+12 -4.54147e+12 -4.06611e+12 -2.78975e+12 -1.55391e+12 -2.10934e+12 -3.12141e+12 -3.72795e+12 -3.06731e+12 -1.9225e+12 -2.80322e+12 -3.17536e+12 -962503000000.0 -721638000000.0 -2.47928e+12 -2.03471e+12 -3.91465e+12 -2.42134e+12 -2.30101e+12 -1.56562e+12 -692787000000.0 -2.74194e+12 -1.31215e+12 -578463000000.0 -1.18559e+12 -1.29876e+12 -1.23284e+12 -1.18591e+12 -2.50876e+12 -1.99828e+12 -894983000000.0 -635783000000.0 -877613000000.0 -1.202e+12 -1.27583e+12 -833718000000.0 -1.42009e+12 -1.94012e+12 -653243000000.0 -832296000000.0 -1.0457e+12 -913902000000.0 -1.2255e+12 -1.07606e+12 -1.84679e+12 -1.75817e+12 -1.09536e+12 -2.46019e+12 -984269000000.0 -879280000000.0 -1.17028e+12 -402584000000.0 -1.10925e+12 -1.57404e+12 -1.57328e+12 -1.88647e+12 -2.40364e+12 -3.36261e+12 -1.7169e+12 -2.57621e+12 -3.02318e+12 -1.80669e+12 -3.72253e+12 -1.65707e+12 -4.38041e+12 -1.49755e+12 -1.66178e+12 -2.67446e+12 -3.43659e+12 -2.00778e+12 -3.09473e+12 -1.70164e+12 -1.82757e+12 -2.91301e+12 -4.77757e+12 -4.41132e+12 -4.26105e+12 -2.6944e+12 -4.30037e+12 -4.91048e+12 -3.75975e+12 -5.953e+12 -5.24181e+12 -3.09387e+12 -4.05145e+12 -5.7953e+12 -6.29162e+12 -4.50657e+12 -4.09878e+12 -5.05328e+12 -2.12525e+12 -7.12595e+12 -4.45047e+12 -3.12889e+12 -3.71893e+12 -2.02726e+12 -4.93802e+12 -7.43119e+12 -3.3174e+12 -2.80863e+12 -5.88543e+12 -2.72616e+12 -5.18531e+12 -4.62825e+12 -2.0166e+12 -6.14628e+12 -1.84112e+12 -2.63864e+12 -3.21032e+12 -4.12691e+12 -2.84608e+12 -3.32813e+12 -3.61329e+12 -3.49765e+12 -6.27116e+12 -2.26959e+12 -5.09843e+12 -6.17041e+12 -3.29724e+12 -2.47575e+12 -3.41238e+12 -3.89708e+12 -2.90156e+12 -2.65137e+12 -3.23088e+12 -3.02252e+12 -3.25107e+12 -3.05624e+12 -2.31594e+12 -2.70211e+12 -4.56442e+12 -5.64271e+12 -1.95347e+12 -6.4135e+12 -3.15578e+12 -1.6411e+12 -4.758e+12 -4.36519e+12 -4.83108e+12 -3.10549e+12 -2.5359e+12 -2.98136e+12 -2.59732e+12 -432877000000.0 -1.35327e+12 -2.38479e+12 -1.91196e+12 -1.45116e+12 -1.78238e+12 -2.36846e+12 -1.74368e+12 -2.95727e+12 -2.49483e+12 -2.91397e+12 -1.09109e+12 -2.00042e+12 -398878000000.0 -1.32388e+12 -809164000000.0 -1.5769e+12 -1.9401e+12 -1.33968e+12 -1.01666e+12 -868300000000.0 -1.25499e+12 -826552000000.0 -697890000000.0 -286778000000.0 -1.1229e+12 -959791000000.0 -1.41278e+12 -1.24803e+12 -1.13269e+12 -958060000000.0 -1.63292e+12 -944908000000.0 -1.12786e+12 -2.05582e+12 -1.66552e+12 -692882000000.0 -2.2651e+12 -417221000000.0 -1.51972e+12 -2.02552e+12 -2.11388e+12 -2.3807e+12 -1.59094e+12 -813418000000.0 -2.94264e+12 -2.05262e+12 -1.3576e+12 -669061000000.0 -1.41532e+12 -3.59375e+12 -5.22382e+12 -1.01599e+12 -1.87367e+12 -3.53503e+12 -2.43744e+12 -2.31127e+12 -2.44099e+12 -1.91031e+12 -4.3808e+12 -2.04348e+12 -2.2351e+12 -2.0139e+12 -3.10105e+12 -2.81763e+12 -2.76774e+12 -3.71151e+12 -2.70967e+12 -4.85121e+12 -2.5935e+12 -2.37815e+12 -2.90869e+12 -3.29356e+12 -4.20112e+12 -3.86196e+12 -3.79183e+12 -3.33864e+12 -4.28825e+12 -3.68678e+12 -4.31022e+12 -3.77467e+12 -5.02558e+12 -5.87279e+12 -5.4257e+12 -5.27547e+12 -4.70677e+12 -2.94858e+12 -4.29001e+12 -6.02663e+12 -4.70897e+12 -4.27533e+12 -3.7272e+12 -5.87142e+12 -2.81016e+12 -3.56798e+12 -1.85269e+12 -2.99535e+12 -3.00251e+12 -3.53606e+12 -3.73958e+12 -4.51192e+12 -2.79504e+12 -2.61081e+12 -1.97894e+12 -5.37849e+12 -2.66622e+12 -3.01637e+12 -4.66882e+12 -1.32498e+12 -2.18368e+12 -2.64618e+12 -5.0579e+12 -3.28481e+12 -2.78038e+12 -1.46046e+12 -2.91206e+12 -3.45031e+12 -943995000000.0 -2.11651e+12 -2.86442e+12 -3.09663e+12 -1.59971e+12 -6.04873e+12 -2.24598e+12 -3.13874e+12 -1.67045e+12 -2.04832e+12 -1.16234e+12 -2.57254e+12 -2.80297e+12 -1.89158e+12 -2.126e+12 -2.55307e+12 -2.63801e+12 -2.91841e+12 -1.59505e+12 -1.08395e+12 -1.73971e+12 -2.7673e+12 -3.02258e+12 -1.31622e+12 -63106700000.0 -411193000000.0 -1.84808e+12 -1.52126e+12 -868286000000.0 -649514000000.0 -528842000000.0 -1.51006e+12 -217819000000.0 -528048000000.0 -51467900000.0 -932060000000.0 -429713000000.0 -644737000000.0 -272233000000.0 -903463000000.0 -1.18939e+12 -1.12977e+12 -922280000000.0 -865817000000.0 -371317000000.0 -1.81068e+12 -596313000000.0 -133809000000.0 -380207000000.0 -62119200000.0 -1.22725e+12 -270815000000.0 -811780000000.0 -725097000000.0 -887641000000.0 -603879000000.0 -588986000000.0 -1.01104e+12 -1.15903e+12 -748995000000.0 -715948000000.0 -1.28662e+12 -1.78411e+12 -1.48147e+12 -1.66772e+12 -2.20184e+12 -1.36527e+12 -1.69059e+12 -1.26124e+12 -4.02039e+12 -1.36694e+12 -1.49427e+12 -1.59958e+12 -1.77548e+12 -2.34974e+12 -2.56649e+12 -1.1315e+12 -2.05661e+12 -2.30019e+12 -2.63169e+12 -3.84681e+12 -4.18241e+12 -2.31717e+12 -2.17394e+12 -2.17613e+12 -1.89682e+12 -2.79445e+12 -2.44464e+12 -4.15785e+12 -3.33407e+12 -3.70545e+12 -4.23921e+12 -3.98021e+12 -3.12903e+12 -4.59017e+12 -3.4128e+12 -2.50208e+12 -3.03113e+12 -2.63587e+12 -2.73838e+12 -3.19681e+12 -4.43211e+12 -4.32093e+12 -5.06062e+12 -1.84204e+12 -4.08978e+12 -2.72607e+12 -2.04104e+12 -2.35755e+12 -2.75489e+12 -5.78411e+12 -2.70929e+12 -2.38708e+12 -2.62337e+12 -3.40544e+12 -2.95792e+12 -1.94828e+12 -2.23321e+12 -3.30012e+12 -4.85411e+12 -2.75483e+12 -3.22231e+12 -2.46535e+12 -3.54872e+12 -3.72703e+12 -2.69494e+12 -2.94908e+12 -2.19796e+12 -1.53055e+12 -3.25026e+12 -1.55742e+12 -1.14325e+12 -1.55466e+12 -1.59401e+12 -2.55017e+12 -2.79179e+12 -2.87918e+12 -3.19102e+12 -3.67131e+12 -2.5799e+12 -1.06976e+12 -1.52786e+12 -2.32243e+12 -2.32593e+12 -704312000000.0 -1.50242e+12 -1.3963e+12 -2.20354e+12 -2.14775e+12 -1.49857e+12 -1.12716e+12 -1.44603e+12 -2.13177e+12 -792925000000.0 -1.23819e+12 -710666000000.0 -1.42403e+12 -1.28162e+12 -648293000000.0 -1.0075e+12 -862580000000.0 -1.26058e+12 -1.10609e+12 -775369000000.0 -913354000000.0 -1.31402e+12 -1.05232e+12 -755973000000.0 -662407000000.0 -848515000000.0 -486215000000.0 -453349000000.0 -995289000000.0 -930534000000.0 -771438000000.0 -747914000000.0 -871025000000.0 -855103000000.0 -209144000000.0 -1.34487e+12 -288321000000.0 -1.03073e+12 -921649000000.0 -957322000000.0 -1.61134e+12 -1.25576e+12 -1.23733e+12 -1.45362e+12 -947325000000.0 -1.24373e+12 -572258000000.0 -2.18228e+12 -3.5165e+12 -2.09565e+12 -2.10723e+12 -2.71086e+12 -1.32697e+12 -1.45836e+12 -2.00963e+12 -2.56565e+12 -1.95514e+12 -3.07079e+12 -3.67991e+12 -2.05575e+12 -2.94036e+12 -2.54838e+12 -2.25669e+12 -2.77599e+12 -2.67978e+12 -4.0732e+12 -3.30998e+12 -2.5075e+12 -4.28074e+12 -489626000000.0 -4.3609e+12 -3.28589e+12 -1.5868e+12 -977318000000.0 -1.74892e+12 -4.24622e+12 -2.86674e+12 -3.48378e+12 -3.39488e+12 -4.17654e+12 -4.22955e+12 -3.07284e+12 -2.20273e+12 -2.00731e+12 -5.01455e+12 -2.45328e+12 -3.36985e+12 -2.43002e+12 -3.87996e+12 -3.07927e+12 -1.91009e+12 -2.43457e+12 -2.35747e+12 -2.92427e+12 -2.62661e+12 -2.7373e+12 -4.44685e+12 -3.03446e+12 -2.96217e+12 -3.36316e+12 -1.93887e+12 -2.48068e+12 -3.49936e+12 -1.3335e+12 -3.02166e+12 -3.8343e+12 -2.18272e+12 -2.10383e+12 -1.61937e+12 -812809000000.0 -2.57918e+12 -740505000000.0 -2.98789e+12 -2.52653e+12 -3.45252e+12 -2.62615e+12 -4.15812e+12 -1.59786e+12 -3.08542e+12 -2.33848e+12 -2.45347e+12 -3.37442e+12 -1.98515e+12 -2.29003e+12 -3.28143e+12 -1.07489e+12 -1.03771e+12 -1.76076e+12 -2.51482e+12 -903804000000.0 -776942000000.0 -903162000000.0 -1.28944e+12 -1.59094e+12 -1.59153e+12 -1.43821e+12 -1.25093e+12 -1.41495e+12 -781478000000.0 -985399000000.0 -1.86504e+12 -1.30394e+12 -849733000000.0 -1.01117e+12 -391775000000.0 -594747000000.0 -510138000000.0 -1.12074e+12 -856522000000.0 -612773000000.0 -776408000000.0 -105654000000.0 -363469000000.0 -898818000000.0 -445310000000.0 -696805000000.0 -582748000000.0 -380199000000.0 -694688000000.0 -658425000000.0 -905189000000.0 -761285000000.0 -538572000000.0 -1.41674e+12 -1.37958e+12 -916908000000.0 -1.0488e+12 -568290000000.0 -780650000000.0 -605921000000.0 -570894000000.0 -1.56205e+12 -1.02752e+12 -1.63658e+12 -1.71349e+12 -1.83506e+12 -2.50549e+12 -897691000000.0 -2.25876e+12 -837329000000.0 -2.76434e+12 -1.77959e+12 -544115000000.0 -1.26703e+12 -1.32987e+12 -3.27871e+12 -2.26604e+12 -2.3511e+12 -2.41196e+12 -3.04756e+12 -1.4823e+12 -3.33687e+12 -2.36985e+12 -2.39357e+12 -1.68779e+12 -2.21361e+12 -2.53075e+12 -3.7147e+12 -2.07056e+12 -2.29697e+12 -3.53967e+12 -3.08137e+12 -3.08127e+12 -2.82743e+12 -2.0673e+12 -5.35382e+12 -3.96489e+12 -4.65204e+12 -3.21509e+12 -3.26038e+12 -5.1723e+12 -2.49549e+12 -4.78013e+12 -3.28626e+12 -4.00934e+12 -4.06676e+12 -3.77299e+12 -1.73999e+12 -2.40055e+12 -4.17127e+12 -1.47093e+12 -1.86721e+12 -2.76797e+12 -3.67796e+12 -4.26762e+12 -1.96969e+12 -2.35643e+12 -1.43329e+12 -2.11347e+12 -3.27058e+12 -2.53083e+12 -1.81451e+12 -2.18386e+12 -3.50366e+12 -4.92637e+12 -1.72966e+12 -1.49286e+12 -1.85381e+12 -1.6684e+12 -1.86179e+12 -1.83674e+12 -2.19588e+12 -2.61406e+12 -2.43335e+12 -2.78992e+12 -2.11956e+12 -1.77214e+12 -2.76411e+12 -1.77863e+12 -2.72337e+12 -3.24742e+12 -920459000000.0 -1.04271e+12 -784901000000.0 -1.23399e+12 -1.38211e+12 -992992000000.0 -540544000000.0 -914261000000.0 -1.43474e+12 -821892000000.0 -1.13055e+12 -563131000000.0 -577990000000.0 -437041000000.0 -106450000000.0 -215946000000.0 -396349000000.0 -147936000000.0 -837334000000.0 -160629000000.0 -262655000000.0 -466490000000.0 -371040000000.0 -720689000000.0 -1.12315e+12 -232747000000.0 -414840000000.0 -359569000000.0 -188723000000.0 -397995000000.0 -15543100000.0 -321823000000.0 -490190000000.0 -413985000000.0 -811231000000.0 -470847000000.0 -819641000000.0 -352530000000.0 -969792000000.0 -686906000000.0 -677086000000.0 -549503000000.0 -827663000000.0 -439744000000.0 -264260000000.0 -660600000000.0 -967656000000.0 -2.02126e+12 -1.16232e+12 -2.88139e+12 -1.69529e+12 -2.8912e+12 -1.95144e+12 -878680000000.0 -2.33249e+12 -4.4902e+12 -2.09678e+12 -2.47085e+12 -661729000000.0 -1.83386e+12 -2.74687e+12 -1.58842e+12 -2.66688e+12 -2.07926e+12 -2.51363e+12 -2.66107e+12 -1.92024e+12 -3.07528e+12 -2.71629e+12 -2.12576e+12 -618379000000.0 -1.95846e+12 -3.22725e+12 -2.61143e+12 -2.48086e+12 -3.18409e+12 -2.2135e+12 -2.09886e+12 -1.77716e+12 -1.92453e+12 -3.99432e+12 -3.26864e+12 -830571000000.0 -2.21542e+12 -2.27357e+12 -2.05945e+12 -3.02381e+12 -3.16948e+12 -1.51526e+12 -2.15312e+12 -3.27102e+12 -2.36928e+12 -1.39553e+12 -2.7429e+12 -1.46589e+12 -2.33235e+12 -920341000000.0 -2.59677e+12 -2.98563e+12 -1.82586e+12 -1.024e+12 -2.01439e+12 -1.35911e+12 -2.72889e+12 -2.43907e+12 -1.59907e+12 -1.48471e+12 -1.87355e+12 -988211000000.0 -2.6848e+12 -2.29589e+12 -1.73246e+12 -1.75133e+12 -762296000000.0 -1.32575e+12 -959693000000.0 -948541000000.0 -968769000000.0 -1.92813e+12 -1.40047e+12 -465207000000.0 -339130000000.0 -1.23768e+12 -1.18579e+12 -712744000000.0 -557577000000.0 -396527000000.0 -787005000000.0 -357891000000.0 -129123000000.0 -633084000000.0 -436528000000.0 -585310000000.0 -841856000000.0 -559112000000.0 -770705000000.0 -270683000000.0 -630074000000.0 -141216000000.0 -71926700000.0 -330582000000.0 -534852000000.0 -391458000000.0 -226715000000.0 -850122000000.0 -598664000000.0 -431987000000.0 -246689000000.0 -222016000000.0 -980677000000.0 -783850000000.0 -1.01889e+12 -1.52974e+12 -782778000000.0 -1.37506e+12 -1.34301e+12 -1.41909e+12 -1.29629e+12 -2.44025e+12 -2.12072e+12 -1.47369e+12 -1.75015e+12 -2.09995e+12 -862774000000.0 -729412000000.0 -1.8576e+12 -2.70556e+12 -832365000000.0 -1.07971e+12 -1.57819e+12 -2.57639e+12 -1.45683e+12 -1.03788e+12 -1.45322e+12 -1.35967e+12 -2.27021e+12 -1.7152e+12 -684972000000.0 -1.79926e+12 -1.80647e+12 -3.57957e+12 -2.44519e+12 -2.7899e+12 -1.83665e+12 -1.85953e+12 -2.45439e+12 -3.47537e+12 -2.5806e+12 -3.24321e+12 -3.60693e+12 -4.39574e+12 -1.37273e+12 -1.15746e+12 -3.69549e+12 -2.41795e+12 -2.02223e+12 -1.22353e+12 -2.59118e+12 -2.06133e+12 -1.26761e+12 -1.52418e+12 -3.3155e+12 -1.03118e+12 -2.25983e+12 -1.50038e+12 -1.9779e+12 -525986000000.0 -2.05495e+12 -1.82323e+12 -1.27653e+12 -2.0586e+12 -885489000000.0 -1.58336e+12 -1.608e+12 -1.97157e+12 -1.35186e+12 -1.84999e+12 -1.46352e+12 -1.39059e+12 -1.19733e+12 -1.34285e+12 -437502000000.0 -2.13365e+12 -1.22353e+12 -632765000000.0 -768576000000.0 -649978000000.0 -639981000000.0 -713101000000.0 -543729000000.0 -694970000000.0 -1.0886e+12 -1.18457e+12 -838752000000.0 -627012000000.0 -731160000000.0 -372008000000.0 -992045000000.0 -645746000000.0 -26131500000.0 -356302000000.0 -478358000000.0 -12871700000.0 -39568900000.0 -355708000000.0 -705199000000.0 -271841000000.0 -304297000000.0 -326451000000.0 -164798000000.0 -269262000000.0 -302946000000.0 -504660000000.0 -359657000000.0 -661748000000.0 -441552000000.0 -694024000000.0 -606604000000.0 -502446000000.0 -63016800000.0 -704531000000.0 -429113000000.0 -485814000000.0 -433600000000.0 -71744100000.0 -553181000000.0 -710888000000.0 -1.21235e+12 -564580000000.0 -960527000000.0 -109090000000.0 -554942000000.0 -343576000000.0 -658000000000.0 -1.22807e+12 -721240000000.0 -643061000000.0 -1.60815e+12 -488398000000.0 -1.69028e+12 -1.88225e+12 -1.26853e+12 -595946000000.0 -1.65416e+12 -2.18025e+12 -1.35192e+12 -1.36328e+12 -1.96494e+12 -767834000000.0 -993063000000.0 -1.33167e+12 -974103000000.0 -3.423e+12 -1.34678e+12 -1.02578e+12 -3.49436e+12 -854886000000.0 -2.72165e+12 -2.39069e+12 -2.05775e+12 -2.01051e+12 -1.77115e+12 -1.28392e+12 -1.22918e+12 -2.55441e+12 -3.02504e+12 -2.0924e+12 -2.18774e+12 -1.66341e+12 -1.30279e+12 -1.40366e+12 -2.57762e+12 -2.87675e+12 -2.57163e+12 -1.54346e+12 -443250000000.0 -1.49687e+12 -1.66588e+12 -1.72586e+12 -1.59621e+12 -1.23857e+12 -718298000000.0 -932995000000.0 -1.60546e+12 -1.31902e+12 -1.30467e+12 -2.34124e+12 -2.12205e+12 -1.18058e+12 -933252000000.0 -1.11134e+12 -1.99872e+12 -1.64013e+12 -893296000000.0 -1.78069e+12 -1.43035e+12 -1.16192e+12 -487946000000.0 -811154000000.0 -786125000000.0 -1.18941e+12 -144826000000.0 -719854000000.0 -287401000000.0 -685033000000.0 -98443300000.0 -176081000000.0 -461784000000.0 -799822000000.0 -299506000000.0 -120125000000.0 -128988000000.0 -308179000000.0 -386073000000.0 -346657000000.0 -169854000000.0 -69242700000.0 -85995200000.0 -119639000000.0 -291321000000.0 -389923000000.0 -111768000000.0 -183008000000.0 -247655000000.0 -238596000000.0 -21866300000.0 -301240000000.0 -248104000000.0 -612390000000.0 -70883800000.0 -116537000000.0 -467741000000.0 -504168000000.0 -226594000000.0 -737834000000.0 -319971000000.0 -571854000000.0 -502538000000.0 -488404000000.0 -334932000000.0 -199488000000.0 -1.65646e+12 -671730000000.0 -18177300000.0 -1.17333e+12 -1.26711e+12 -326675000000.0 -1.1801e+12 -330744000000.0 -2.02209e+12 -1.31149e+12 -681118000000.0 -1.56899e+12 -1.29845e+12 -292558000000.0 -1.42966e+12 -1.26065e+12 -2.70624e+12 -1.20763e+12 -1.32556e+12 -641429000000.0 -1.37045e+12 -1.48688e+12 -1.91339e+12 -1.62541e+12 -2.00666e+12 -2.416e+12 -1.40584e+12 -1.27651e+12 -1.74421e+12 -1.41859e+12 -1.609e+12 -1.91881e+12 -1.5321e+12 -2.12545e+12 -355694000000.0 -3.13818e+12 -2.136e+12 -1.31118e+12 -1.7264e+12 -587894000000.0 -876894000000.0 -820220000000.0 -1.02103e+12 -1.37517e+12 -750638000000.0 -2.16575e+12 -1.99947e+12 -3.15576e+12 -1.21944e+12 -879210000000.0 -1.32746e+12 -1.15054e+12 -1.85331e+12 -1.27484e+12 -103164000000.0 -517688000000.0 -879582000000.0 -2.19972e+12 -704320000000.0 -1.05233e+12 -1.83182e+12 -1.28447e+12 -758309000000.0 -624811000000.0 -291381000000.0 -628811000000.0 -1.17458e+12 -837242000000.0 -1.37985e+12 -1.20691e+12 -1.0911e+12 -695985000000.0 -868467000000.0 -467838000000.0 -774646000000.0 -1.05121e+12 -554609000000.0 -561922000000.0 -503200000000.0 -469207000000.0 -317644000000.0 -360549000000.0 -244191000000.0 -295390000000.0 -256502000000.0 -234205000000.0 -160610000000.0 -108117000000.0 -244116000000.0 -464485000000.0 -121863000000.0 -303228000000.0 -235460000000.0 -331579000000.0 -174276000000.0 -165642000000.0 -549058000000.0 -355272000000.0 -66949000000.0 -639165000000.0 -619918000000.0 -26243600000.0 -42933000000.0 -397801000000.0 -182469000000.0 -225691000000.0 -264216000000.0 -1.09207e+12 -327744000000.0 -1.06435e+12 -817023000000.0 -1.10461e+12 -1.0367e+12 -737700000000.0 -864816000000.0 -1.24142e+12 -612106000000.0 -553883000000.0 -571042000000.0 -449402000000.0 -626890000000.0 -412651000000.0 -1.19371e+12 -477152000000.0 -707857000000.0 -488175000000.0 -679712000000.0 -799031000000.0 -945429000000.0 -816534000000.0 -1.3569e+12 -1.51427e+12 -1.51922e+12 -780006000000.0 -1.56507e+12 -1.77384e+12 -1.7695e+12 -1.85769e+12 -1.55454e+12 -1.92768e+12 -1.4245e+12 -1.56217e+12 -502501000000.0 -576618000000.0 -1.49436e+12 -1.19887e+12 -1.58375e+12 -1.31304e+12 -1.96939e+12 -2.11327e+12 -1.69252e+12 -1.56585e+12 -1.52977e+12 -577149000000.0 -1.15687e+12 -1.23556e+12 -714407000000.0 -1.16655e+12 -83954300000.0 -1.71326e+12 -1.05575e+12 -996862000000.0 -1.0476e+12 -1.54431e+12 -679731000000.0 -1.09703e+12 -1.26729e+12 -1.07176e+12 -798034000000.0 -728206000000.0 -797376000000.0 -1.90811e+12 -857312000000.0 -517995000000.0 -651855000000.0 -1.17499e+12 -805933000000.0 -118563000000.0 -1.02071e+12 -922491000000.0 -652584000000.0 -736668000000.0 -510205000000.0 -272205000000.0 -830806000000.0 -128434000000.0 -204339000000.0 -91863800000.0 -338788000000.0 -292289000000.0 -164811000000.0 -21407100000.0 -148272000000.0 -227143000000.0 -167449000000.0 -162906000000.0 -113476000000.0 -87743500000.0 -191856000000.0 -298993000000.0 -312164000000.0 -257911000000.0 -358465000000.0 -445598000000.0 -187666000000.0 -242827000000.0 -301366000000.0 -158489000000.0 -205751000000.0 -376992000000.0 -114370000000.0 -378851000000.0 -277069000000.0 -507743000000.0 -349259000000.0 -292417000000.0 -359203000000.0 -728721000000.0 -485524000000.0 -746114000000.0 -404311000000.0 -618832000000.0 -554168000000.0 -170694000000.0 -695196000000.0 -453912000000.0 -77234100000.0 -973476000000.0 -281116000000.0 -458903000000.0 -930065000000.0 -1.13523e+12 -784871000000.0 -776905000000.0 -434125000000.0 -1.38947e+12 -1.42956e+12 -2.01887e+12 -873188000000.0 -337650000000.0 -710366000000.0 -440472000000.0 -1.37693e+12 -1.81204e+12 -2.33866e+12 -396690000000.0 -965566000000.0 -1.34472e+12 -1.65614e+12 -906721000000.0 -984717000000.0 -453182000000.0 -2.40178e+12 -1.92752e+12 -1.22417e+12 -707880000000.0 -1.70396e+12 -2.1793e+12 -1.24087e+12 -877439000000.0 -1.64387e+12 -935557000000.0 -1.33674e+12 -944035000000.0 -1.97635e+12 -1.39479e+12 -1.24675e+12 -1.13201e+12 -1.10459e+12 -791816000000.0 -487086000000.0 -1.44029e+12 -1.18121e+12 -1.09763e+12 -1.0545e+12 -741515000000.0 -1.2171e+12 -816845000000.0 -237273000000.0 -1.04857e+12 -755846000000.0 -504826000000.0 -535344000000.0 -599799000000.0 -109270000000.0 -253621000000.0 -450509000000.0 -218314000000.0 -177118000000.0 -651357000000.0 -382074000000.0 -192952000000.0 -363381000000.0 -425007000000.0 -195029000000.0 -38055000000.0 -36049900000.0 -95916500000.0 -165144000000.0 -76208100000.0 -60532400000.0 -56020000000.0 -65969600000.0 -183516000000.0 -161180000000.0 -162923000000.0 -188439000000.0 -142040000000.0 -288247000000.0 -50448100000.0 -196334000000.0 -160490000000.0 -113997000000.0 -15105300000.0 -244583000000.0 -70253100000.0 -260251000000.0 -466700000000.0 -360875000000.0 -562911000000.0 -76401500000.0 -513942000000.0 -661018000000.0 -257784000000.0 -164944000000.0 -464159000000.0 -649597000000.0 -582645000000.0 -771909000000.0 -660834000000.0 -386042000000.0 -444592000000.0 -861895000000.0 -445801000000.0 -829993000000.0 -316752000000.0 -845675000000.0 -1.38086e+12 -1.19827e+12 -1.0237e+12 -1.10317e+12 -617988000000.0 -1.11955e+12 -440865000000.0 -494628000000.0 -1.25811e+12 -1.14698e+12 -1.36125e+12 -1.18312e+12 -427979000000.0 -1.07322e+12 -1.5691e+12 -1.55296e+12 -1.20568e+12 -794239000000.0 -1.02942e+12 -1.28405e+12 -1.02896e+12 -2.27554e+12 -1.08241e+12 -861065000000.0 -1.66361e+12 -404263000000.0 -680394000000.0 -1.16508e+12 -317147000000.0 -1.2955e+12 -677297000000.0 -762616000000.0 -899139000000.0 -661876000000.0 -502185000000.0 -739765000000.0 -991432000000.0 -779767000000.0 -177694000000.0 -172526000000.0 -597079000000.0 -743658000000.0 -939262000000.0 -530860000000.0 -613320000000.0 -554802000000.0 -460309000000.0 -434050000000.0 -548676000000.0 -302753000000.0 -710940000000.0 -24753500000.0 -585261000000.0 -316947000000.0 -453109000000.0 -416829000000.0 -351775000000.0 -74622200000.0 -88753800000.0 -461802000000.0 -107129000000.0 -298231000000.0 -341245000000.0 -280160000000.0 -170325000000.0 -123003000000.0 -261371000000.0 -55927000000.0 -55678700000.0 -83890100000.0 -84336100000.0 -79746900000.0 -136024000000.0 -117653000000.0 -142511000000.0 -63316800000.0 -105225000000.0 -39329500000.0 -39728600000.0 -285621000000.0 -217631000000.0 -221795000000.0 -176904000000.0 -141227000000.0 -304870000000.0 -114267000000.0 -181489000000.0 -175292000000.0 -310844000000.0 -578826000000.0 -120267000000.0 -181681000000.0 -276143000000.0 -475198000000.0 -608105000000.0 -672915000000.0 -639448000000.0 -853991000000.0 -81680000000.0 -670359000000.0 -757566000000.0 -270688000000.0 -140239000000.0 -685917000000.0 -201434000000.0 -451853000000.0 -1.30688e+12 -771887000000.0 -288869000000.0 -642612000000.0 -1.61634e+12 -158891000000.0 -1.06057e+12 -1.41449e+12 -695630000000.0 -598968000000.0 -471340000000.0 -288574000000.0 -678934000000.0 -1.20184e+12 -122821000000.0 -224207000000.0 -739220000000.0 -1.3711e+12 -1.13918e+12 -372904000000.0 -823774000000.0 -1.21366e+12 -657629000000.0 -1.05271e+12 -1.24366e+12 -303968000000.0 -511189000000.0 -633139000000.0 -251542000000.0 -813263000000.0 -727838000000.0 -446053000000.0 -800099000000.0 -895646000000.0 -533163000000.0 -480612000000.0 -937954000000.0 -942403000000.0 -786322000000.0 -220907000000.0 -485003000000.0 -728531000000.0 -537383000000.0 -675287000000.0 -648913000000.0 -239512000000.0 -214993000000.0 -292356000000.0 -631852000000.0 -409578000000.0 -425042000000.0 -409559000000.0 -616239000000.0 -20034000000.0 -129023000000.0 -114541000000.0 -302562000000.0 -306718000000.0 -225623000000.0 -288950000000.0 -302486000000.0 -192939000000.0 -145583000000.0 -186506000000.0 -100767000000.0 -105050000000.0 -74585100000.0 -134584000000.0 -16095100000.0 -111020000000.0 -94775000000.0 -135581000000.0 -192049000000.0 -119858000000.0 -157973000000.0 -143353000000.0 -157375000000.0 -142872000000.0 -173670000000.0 -177298000000.0 -266118000000.0 -23557500000.0 -32248100000.0 -76404000000.0 -228449000000.0 -86258800000.0 -66227300000.0 -73398100000.0 -198315000000.0 -180030000000.0 -70189400000.0 -277321000000.0 -43201100000.0 -23224800000.0 -351410000000.0 -193527000000.0 -181240000000.0 -182853000000.0 -462909000000.0 -574527000000.0 -523239000000.0 -305824000000.0 -565351000000.0 -529925000000.0 -405168000000.0 -710871000000.0 -393198000000.0 -799251000000.0 -457693000000.0 -277275000000.0 -498901000000.0 -1.19299e+12 -533632000000.0 -908381000000.0 -499566000000.0 -391160000000.0 -661732000000.0 -495540000000.0 -732449000000.0 -443089000000.0 -517438000000.0 -916756000000.0 -301665000000.0 -89425900000.0 -855827000000.0 -571597000000.0 -873257000000.0 -1.80083e+12 -1.25497e+12 -570366000000.0 -630009000000.0 -618560000000.0 -308736000000.0 -568347000000.0 -579819000000.0 -311361000000.0 -16708300000.0 -653318000000.0 -285053000000.0 -453244000000.0 -69819800000.0 -398792000000.0 -458895000000.0 -639948000000.0 -559548000000.0 -391919000000.0 -474989000000.0 -755299000000.0 -799941000000.0 -523699000000.0 -504271000000.0 -714308000000.0 -588816000000.0 -486585000000.0 -493432000000.0 -256329000000.0 -490427000000.0 -451168000000.0 -92541800000.0 -120598000000.0 -19037300000.0 -82535300000.0 -228247000000.0 -164021000000.0 -133588000000.0 -63332300000.0 -143933000000.0 -183516000000.0 -164244000000.0 -165369000000.0 -33638600000.0 -103371000000.0 -122912000000.0 -101647000000.0 -18487500000.0 -31717200000.0 -25719600000.0 -21820400000.0 -37636700000.0 -109762000000.0 -64468600000.0 -131059000000.0 -75761600000.0 -21647900000.0 -12549700000.0 -146764000000.0 -20437700000.0 -240978000000.0 -102637000000.0 -201924000000.0 -190792000000.0 -21068400000.0 -87995400000.0 -360707000000.0 -254785000000.0 -194079000000.0 -100382000000.0 -200080000000.0 -158735000000.0 -183386000000.0 -99892500000.0 -663351000000.0 -191614000000.0 -126602000000.0 -153042000000.0 -443820000000.0 -414266000000.0 -140819000000.0 -50196600000.0 -471657000000.0 -541721000000.0 -322162000000.0 -529602000000.0 -243248000000.0 -410047000000.0 -566695000000.0 -782927000000.0 -381068000000.0 -383315000000.0 -305435000000.0 -300831000000.0 -299603000000.0 -554062000000.0 -684728000000.0 -412712000000.0 -359325000000.0 -876395000000.0 -550478000000.0 -696824000000.0 -99778200000.0 -895079000000.0 -741048000000.0 -416489000000.0 -763954000000.0 -1.03307e+12 -591561000000.0 -400094000000.0 -337334000000.0 -243142000000.0 -549527000000.0 -305607000000.0 -386306000000.0 -481400000000.0 -577468000000.0 -601236000000.0 -483397000000.0 -219357000000.0 -327059000000.0 -533707000000.0 -808414000000.0 -615800000000.0 -303334000000.0 -440905000000.0 -213254000000.0 -290936000000.0 -222187000000.0 -330614000000.0 -337866000000.0 -201678000000.0 -240769000000.0 -304237000000.0 -295825000000.0 -438472000000.0 -280360000000.0 -71032600000.0 -20907600000.0 -306934000000.0 -98625200000.0 -19543800000.0 -58991500000.0 -46381600000.0 -53302000000.0 -194325000000.0 -84594300000.0 -133557000000.0 -15568300000.0 -141925000000.0 -150477000000.0 -61511700000.0 -95051700000.0 -35360200000.0 -82765200000.0 -30678100000.0 -35484700000.0 -38971700000.0 -77132700000.0 -29964800000.0 -24546000000.0 -14742200000.0 -55434000000.0 -31526600000.0 -49570800000.0 -45153900000.0 -65844600000.0 -98477500000.0 -69027200000.0 -94529100000.0 -192324000000.0 -171256000000.0 -44152600000.0 -260659000000.0 -328992000000.0 -212510000000.0 -146833000000.0 -80543300000.0 -171651000000.0 -96576500000.0 -169548000000.0 -101717000000.0 -80486700000.0 -51436600000.0 -589367000000.0 -141852000000.0 -261238000000.0 -81341500000.0 -204049000000.0 -405098000000.0 -589025000000.0 -559496000000.0 -224164000000.0 -664933000000.0 -516756000000.0 -361547000000.0 -731193000000.0 -446967000000.0 -397409000000.0 -483348000000.0 -831634000000.0 -520077000000.0 -317367000000.0 -267312000000.0 -257462000000.0 -382801000000.0 -550889000000.0 -363274000000.0 -579077000000.0 -150721000000.0 -145812000000.0 -718227000000.0 -707610000000.0 -330258000000.0 -194426000000.0 -105753000000.0 -291431000000.0 -409345000000.0 -43013900000.0 -549652000000.0 -166395000000.0 -452558000000.0 -90356200000.0 -68044000000.0 -190684000000.0 -254595000000.0 -320059000000.0 -303409000000.0 -243322000000.0 -285526000000.0 -224182000000.0 -474025000000.0 -420734000000.0 -242297000000.0 -172989000000.0 -135010000000.0 -161993000000.0 -124038000000.0 -157659000000.0 -263583000000.0 -103827000000.0 -17098100000.0 -170354000000.0 -28921100000.0 -155953000000.0 -279114000000.0 -44724000000.0 -62113500000.0 -18312500000.0 -100700000000.0 -71068300000.0 -33784500000.0 -41521400000.0 -68540400000.0 -70201700000.0 -48864600000.0 -19405800000.0 -21444400000.0 -21490700000.0 -12549700000.0 -25155700000.0 -49971300000.0 -21286500000.0 -12549700000.0 -34046100000.0 -12549700000.0 -16348300000.0 -27751900000.0 -25052700000.0 -50743800000.0 -114814000000.0 -61117800000.0 -128758000000.0 -126417000000.0 -56654800000.0 -75103100000.0 -42506300000.0 -87344700000.0 -44834000000.0 -82223500000.0 -117202000000.0 -61522000000.0 -186801000000.0 -77008300000.0 -185032000000.0 -207129000000.0 -255794000000.0 -158101000000.0 -114450000000.0 -85946000000.0 -135105000000.0 -100628000000.0 -204031000000.0 -130371000000.0 -565012000000.0 -493452000000.0 -313926000000.0 -250894000000.0 -112702000000.0 -485524000000.0 -374515000000.0 -220091000000.0 -283249000000.0 -273571000000.0 -668320000000.0 -438124000000.0 -263088000000.0 -431710000000.0 -267022000000.0 -455803000000.0 -295505000000.0 -143425000000.0 -239710000000.0 -222249000000.0 -505369000000.0 -353590000000.0 -333421000000.0 -190218000000.0 -79793400000.0 -318948000000.0 -431509000000.0 -309264000000.0 -498973000000.0 -258511000000.0 -109675000000.0 -167830000000.0 -191166000000.0 -115087000000.0 -285927000000.0 -256368000000.0 -103142000000.0 -158981000000.0 -97688600000.0 -415129000000.0 -117427000000.0 -200946000000.0 -66528200000.0 -143542000000.0 -125248000000.0 -123903000000.0 -143475000000.0 -102245000000.0 -181474000000.0 -51752200000.0 -30773100000.0 -16064800000.0 -17472500000.0 -156796000000.0 -129085000000.0 -12549700000.0 -64524100000.0 -24237800000.0 -22677700000.0 -31493600000.0 -79799700000.0 -27621800000.0 -12630500000.0 -13174500000.0 -32672700000.0 -12549700000.0 -12549700000.0 -13066600000.0 -12549700000.0 -37255900000.0 -27029800000.0 -28164800000.0 -25644800000.0 -28668300000.0 -37264000000.0 -27395900000.0 -20512400000.0 -27416100000.0 -23293800000.0 -69629700000.0 -29728200000.0 -29580400000.0 -42998700000.0 -59541300000.0 -63827900000.0 -63686400000.0 -52233200000.0 -62853100000.0 -126826000000.0 -92960000000.0 -86339900000.0 -102115000000.0 -43677900000.0 -182404000000.0 -46763900000.0 -57805600000.0 -156529000000.0 -207879000000.0 -136557000000.0 -271004000000.0 -333663000000.0 -47760000000.0 -162875000000.0 -149938000000.0 -278329000000.0 -166645000000.0 -137779000000.0 -138795000000.0 -30613000000.0 -155315000000.0 -329583000000.0 -341901000000.0 -43126200000.0 -466181000000.0 -369753000000.0 -159455000000.0 -286511000000.0 -238647000000.0 -43820500000.0 -162880000000.0 -202874000000.0 -328557000000.0 -118866000000.0 -314863000000.0 -18665000000.0 -195620000000.0 -260105000000.0 -242140000000.0 -118282000000.0 -123819000000.0 -134683000000.0 -107557000000.0 -64353400000.0 -61911600000.0 -100358000000.0 -149899000000.0 -169282000000.0 -78515500000.0 -136630000000.0 -49069500000.0 -173095000000.0 -69308000000.0 -65437700000.0 -132802000000.0 -112489000000.0 -100410000000.0 -70871700000.0 -127762000000.0 -83612900000.0 -49093300000.0 -79579100000.0 -18287300000.0 -12574500000.0 -109047000000.0 -58042600000.0 -14873500000.0 -25339700000.0 -49022600000.0 -19164900000.0 -12974000000.0 -22170700000.0 -20212700000.0 -13512800000.0 -56516900000.0 -16490400000.0 -22290100000.0 -24891900000.0 -12590100000.0 -16106200000.0 -16104300000.0 -14742100000.0 -12549700000.0 -24407900000.0 -47503600000.0 -27895100000.0 -15868000000.0 -44620100000.0 -29010300000.0 -23033200000.0 -27640300000.0 -26841800000.0 -18134300000.0 -35062000000.0 -19284900000.0 -29280200000.0 -35729800000.0 -43602900000.0 -58641200000.0 -59558600000.0 -49376400000.0 -30097400000.0 -85266200000.0 -38332000000.0 -74143200000.0 -77881400000.0 -56057000000.0 -137283000000.0 -91718300000.0 -161307000000.0 -102937000000.0 -98375600000.0 -25069200000.0 -127915000000.0 -84107300000.0 -149345000000.0 -83318700000.0 -114398000000.0 -157817000000.0 -155898000000.0 -40289200000.0 -226704000000.0 -77211500000.0 -290662000000.0 -118216000000.0 -167746000000.0 -155636000000.0 -390563000000.0 -174564000000.0 -217437000000.0 -304475000000.0 -83945200000.0 -66479900000.0 -35541700000.0 -76981700000.0 -87888400000.0 -36822300000.0 -71014700000.0 -61918100000.0 -56849200000.0 -30241200000.0 -45753100000.0 -29952200000.0 -63122500000.0 -90759000000.0 -69138700000.0 -57764300000.0 -63545200000.0 -18999900000.0 -27004200000.0 -28076400000.0 -32862300000.0 -19675500000.0 -37989400000.0 -22747600000.0 -27872200000.0 -13758300000.0 -19438900000.0 -34013200000.0 -38167100000.0 -35232100000.0 -33949700000.0 -35272900000.0 -26085000000.0 -17745700000.0 -21402200000.0 -14039500000.0 -19972800000.0 -27022700000.0 -16935800000.0 -15935700000.0 -16928500000.0 -23452200000.0 -20529300000.0 -15434700000.0 -13873800000.0 -15358400000.0 -24701800000.0 -20180200000.0 -18698800000.0 -28109000000.0 -16073000000.0 -15778500000.0 -23244400000.0 -32764800000.0 -30421400000.0 -32831900000.0 -22957900000.0 -23292100000.0 -34679300000.0 -41166100000.0 -32582800000.0 -34078800000.0 -44482300000.0 -18275800000.0 -19740300000.0 -18207400000.0 -20077400000.0 -21634100000.0 -19497300000.0 -29858400000.0 -50390200000.0 -45537400000.0 -37646100000.0 -30743700000.0 -84212900000.0 -75110900000.0 -95009300000.0 -33753800000.0 -65851600000.0 -60457400000.0 -60269300000.0 -53806100000.0 -57534000000.0 -37648000000.0 -51436500000.0 -43025300000.0 -66094400000.0 -103230000000.0 -94376800000.0 -35283300000.0 -58076500000.0 -30591800000.0 