# vtk DataFile Version 2.0
Time step 34
ASCII
DATASET UNSTRUCTURED_GRID
POINTS 5000 float
201518.0 375113.0 0
203711.0 370522.0 0
208670.0 373221.0 0
297410.0 371981.0 0
191290.0 382637.0 0
198444.0 378739.0 0
204832.0 378329.0 0
201548.0 380383.0 0
205251.0 375435.0 0
208806.0 378960.0 0
213369.0 376507.0 0
218653.0 376953.0 0
223757.0 377067.0 0
228154.0 378544.0 0
232632.0 378457.0 0
240058.0 379209.0 0
267370.0 378611.0 0
274908.0 375939.0 0
280234.0 377167.0 0
286266.0 376661.0 0
290686.0 372252.0 0
294124.0 376696.0 0
294402.0 381426.0 0
299205.0 377758.0 0
303845.0 381272.0 0
181915.0 388538.0 0
188434.0 384601.0 0
185483.0 386731.0 0
188868.0 388265.0 0
192187.0 386233.0 0
195202.0 381606.0 0
199945.0 384622.0 0
204989.0 382960.0 0
208727.0 384837.0 0
212873.0 382039.0 0
217613.0 381301.0 0
225730.0 380885.0 0
221752.0 381478.0 0
229712.0 383109.0 0
235922.0 382768.0 0
245395.0 381010.0 0
247898.0 384769.0 0
251785.0 380861.0 0
257921.0 379709.0 0
255992.0 385297.0 0
262626.0 380152.0 0
260255.0 383866.0 0
264610.0 384063.0 0
268786.0 383971.0 0
272226.0 380168.0 0
273489.0 385135.0 0
276713.0 381451.0 0
278309.0 384678.0 0
281729.0 382198.0 0
286140.0 382143.0 0
290390.0 380785.0 0
295090.0 385480.0 0
298363.0 382140.0 0
298887.0 386224.0 0
301613.0 384939.0 0
304444.0 386696.0 0
301447.0 388202.0 0
308953.0 384928.0 0
314278.0 386750.0 0
318166.0 388818.0 0
178878.0 390906.0 0
175474.0 393455.0 0
179532.0 394026.0 0
181828.0 391644.0 0
184969.0 390177.0 0
188585.0 392492.0 0
193250.0 391093.0 0
196304.0 386884.0 0
203364.0 387890.0 0
207587.0 389295.0 0
212191.0 388062.0 0
216575.0 385472.0 0
216113.0 389110.0 0
221246.0 386531.0 0
225438.0 384801.0 0
224820.0 389211.0 0
228373.0 387825.0 0
233031.0 386883.0 0
231185.0 390991.0 0
238240.0 387758.0 0
243297.0 385789.0 0
247136.0 389023.0 0
251537.0 386952.0 0
255155.0 389981.0 0
259680.0 388531.0 0
264183.0 388375.0 0
269183.0 389822.0 0
277007.0 388052.0 0
274170.0 390160.0 0
281107.0 388195.0 0
284514.0 385804.0 0
286091.0 390652.0 0
288653.0 385865.0 0
291917.0 384377.0 0
292168.0 389292.0 0
297496.0 389728.0 0
301188.0 391368.0 0
304294.0 390328.0 0
307833.0 389660.0 0
307180.0 393250.0 0
311314.0 389142.0 0
310796.0 392326.0 0
314535.0 391009.0 0
318243.0 391669.0 0
321847.0 391783.0 0
167885.0 398545.0 0
171537.0 395763.0 0
174463.0 397112.0 0
177340.0 396682.0 0
183796.0 394757.0 0
180348.0 396931.0 0
187346.0 397409.0 0
191014.0 395893.0 0
194918.0 396219.0 0
198769.0 391394.0 0
204168.0 393683.0 0
209642.0 393588.0 0
214469.0 392981.0 0
219007.0 391023.0 0
223096.0 393460.0 0
227432.0 392087.0 0
235504.0 392919.0 0
239454.0 392929.0 0
240832.0 395767.0 0
242624.0 390985.0 0
245952.0 394747.0 0
250937.0 391941.0 0
254707.0 395326.0 0
258239.0 392637.0 0
262565.0 392814.0 0
273144.0 395527.0 0
277993.0 392080.0 0
281486.0 391737.0 0
282773.0 394500.0 0
290686.0 394909.0 0
295312.0 392875.0 0
299214.0 394470.0 0
303562.0 393961.0 0
306552.0 397101.0 0
310501.0 396108.0 0
313929.0 395023.0 0
319548.0 394425.0 0
316661.0 393885.0 0
317453.0 397305.0 0
325961.0 395298.0 0
321901.0 396449.0 0
330830.0 397249.0 0
160287.0 402115.0 0
163853.0 400608.0 0
163653.0 404203.0 0
167655.0 402912.0 0
171985.0 400269.0 0
171446.0 404387.0 0
175626.0 399779.0 0
178636.0 400055.0 0
175686.0 403420.0 0
182909.0 399780.0 0
179601.0 402997.0 0
182566.0 403919.0 0
186801.0 401737.0 0
190659.0 399387.0 0
190327.0 402642.0 0
194314.0 401739.0 0
199451.0 397037.0 0
203234.0 398878.0 0
207605.0 398315.0 0
212621.0 398119.0 0
216256.0 400837.0 0
218296.0 396606.0 0
225924.0 396816.0 0
222699.0 398050.0 0
230556.0 396539.0 0
233653.0 402109.0 0
235554.0 397512.0 0
239173.0 400139.0 0
243437.0 398434.0 0
247596.0 400186.0 0
250208.0 396279.0 0
252312.0 399607.0 0
259308.0 396530.0 0
262531.0 399509.0 0
266773.0 396278.0 0
276448.0 400060.0 0
279022.0 396616.0 0
282562.0 398209.0 0
285965.0 396968.0 0
291613.0 399422.0 0
288883.0 399199.0 0
294055.0 398504.0 0
295690.0 396227.0 0
298303.0 399163.0 0
302487.0 397674.0 0
305548.0 400631.0 0
302444.0 402018.0 0
309543.0 401118.0 0
313889.0 399348.0 0
317924.0 401475.0 0
324768.0 400041.0 0
320695.0 399192.0 0
321606.0 402292.0 0
328429.0 399744.0 0
330624.0 403416.0 0
334377.0 399920.0 0
338424.0 402825.0 0
150789.0 408103.0 0
147947.0 410177.0 0
153939.0 406262.0 0
157317.0 404865.0 0
154047.0 409176.0 0
157251.0 408823.0 0
160778.0 405076.0 0
160404.0 408014.0 0
163214.0 407086.0 0
166930.0 407111.0 0
170411.0 407565.0 0
173963.0 407601.0 0
178527.0 406884.0 0
182653.0 407705.0 0
185068.0 405600.0 0
188033.0 405557.0 0
191605.0 406501.0 0
199591.0 402712.0 0
204959.0 402925.0 0
207916.0 406644.0 0
208808.0 402189.0 0
212424.0 403580.0 0
217168.0 404899.0 0
220492.0 401523.0 0
225754.0 401170.0 0
228839.0 405023.0 0
237395.0 405992.0 0
243428.0 402837.0 0
251146.0 403825.0 0
256690.0 401019.0 0
261042.0 404665.0 0
266743.0 402157.0 0
272220.0 402006.0 0
269728.0 405894.0 0
276498.0 404133.0 0
280779.0 402227.0 0
285937.0 401512.0 0
284399.0 406383.0 0
290215.0 402139.0 0
288553.0 405463.0 0
292507.0 406413.0 0
294469.0 402279.0 0
297003.0 406912.0 0
298944.0 403304.0 0
302315.0 406807.0 0
305898.0 404144.0 0
309727.0 406132.0 0
314535.0 404713.0 0
313114.0 409153.0 0
320034.0 406092.0 0
325528.0 404550.0 0
324766.0 408939.0 0
329170.0 408186.0 0
334807.0 405016.0 0
336158.0 407608.0 0
333196.0 409140.0 0
338964.0 406963.0 0
343103.0 405514.0 0
345242.0 409770.0 0
347027.0 407068.0 0
350147.0 408211.0 0
142049.0 414010.0 0
144765.0 411967.0 0
147440.0 414446.0 0
151378.0 412204.0 0
155858.0 413162.0 0
159862.0 411469.0 0
163555.0 410181.0 0
166824.0 410539.0 0
162659.0 413401.0 0
165994.0 413339.0 0
170440.0 411141.0 0
175928.0 411120.0 0
180818.0 411409.0 0
186751.0 410343.0 0
192226.0 410627.0 0
196327.0 407490.0 0
195052.0 411590.0 0
198934.0 411660.0 0
202514.0 407489.0 0
209568.0 411174.0 0
213320.0 408144.0 0
214998.0 411928.0 0
217421.0 408806.0 0
222668.0 406869.0 0
227660.0 409836.0 0
232909.0 408966.0 0
237850.0 411068.0 0
242149.0 407924.0 0
247021.0 406076.0 0
246457.0 410617.0 0
250469.0 407745.0 0
255312.0 407489.0 0
265701.0 407498.0 0
269590.0 410421.0 0
273902.0 407850.0 0
279574.0 408287.0 0
285266.0 411160.0 0
289531.0 409812.0 0
294472.0 411039.0 0
299742.0 411284.0 0
306281.0 407951.0 0
304637.0 411777.0 0
309705.0 411357.0 0
316660.0 409922.0 0
320865.0 410623.0 0
324325.0 413460.0 0
328328.0 411744.0 0
332151.0 413359.0 0
336370.0 413378.0 0
337583.0 410123.0 0
340490.0 413155.0 0
341823.0 409736.0 0
344132.0 412721.0 0
348699.0 411349.0 0
352586.0 410012.0 0
355820.0 412235.0 0
352867.0 412540.0 0
359231.0 414931.0 0
135858.0 417788.0 0
132668.0 419611.0 0
138989.0 415811.0 0
141589.0 417689.0 0
139009.0 419345.0 0
142061.0 420014.0 0
144331.0 416569.0 0
148009.0 417955.0 0
151700.0 417011.0 0
155740.0 417951.0 0
159697.0 415660.0 0
163872.0 417213.0 0
168407.0 415650.0 0
170705.0 418842.0 0
172873.0 414668.0 0
177718.0 415165.0 0
174649.0 417927.0 0
180023.0 418432.0 0
182050.0 415004.0 0
185763.0 415169.0 0
183538.0 418922.0 0
190530.0 414634.0 0
195377.0 415210.0 0
200225.0 416483.0 0
204105.0 412435.0 0
207318.0 415931.0 0
212235.0 415559.0 0
216623.0 415776.0 0
219343.0 412333.0 0
223926.0 413131.0 0
229012.0 415310.0 0
234302.0 414369.0 0
238156.0 415521.0 0
242465.0 413968.0 0
247557.0 415231.0 0
250685.0 411527.0 0
255035.0 413523.0 0
261088.0 411652.0 0
266552.0 413655.0 0
268830.0 417323.0 0
272057.0 414328.0 0
276320.0 412694.0 0
281372.0 413839.0 0
286291.0 415781.0 0
282953.0 417590.0 0
291006.0 414646.0 0
297296.0 414941.0 0
301909.0 415989.0 0
305696.0 415420.0 0
309358.0 416116.0 0
314783.0 414521.0 0
312724.0 418095.0 0
319466.0 414048.0 0
319262.0 418217.0 0
322270.0 416547.0 0
325660.0 417254.0 0
328450.0 415601.0 0
331738.0 417330.0 0
336073.0 417712.0 0
339770.0 416583.0 0
342964.0 416032.0 0
347017.0 415254.0 0
344658.0 418944.0 0
351979.0 416182.0 0
356137.0 415012.0 0
355707.0 418333.0 0
359107.0 418403.0 0
362885.0 417316.0 0
366234.0 419396.0 0
125880.0 423601.0 0
123438.0 425378.0 0
129601.0 422012.0 0
132541.0 422842.0 0
135793.0 421625.0 0
139832.0 422665.0 0
145464.0 420094.0 0
143286.0 423357.0 0
146854.0 423778.0 0
152674.0 421211.0 0
149285.0 420924.0 0
150084.0 424211.0 0
153900.0 424969.0 0
155931.0 421517.0 0
159665.0 419981.0 0
166987.0 419202.0 0
163504.0 422434.0 0
168478.0 422748.0 0
177083.0 419517.0 0
173713.0 422275.0 0
179260.0 423207.0 0
184443.0 423280.0 0
187899.0 419061.0 0
189314.0 422863.0 0
192346.0 418917.0 0
193486.0 422939.0 0
196695.0 419661.0 0
200907.0 421352.0 0
204029.0 418444.0 0
205427.0 422837.0 0
209353.0 419923.0 0
214509.0 420328.0 0
220696.0 417341.0 0
218963.0 421528.0 0
225159.0 420114.0 0
229823.0 420440.0 0
232877.0 418061.0 0
236303.0 418519.0 0
240402.0 418936.0 0
244362.0 418437.0 0
247250.0 421144.0 0
250366.0 418464.0 0
254761.0 418745.0 0
258871.0 416949.0 0
263775.0 418415.0 0
273327.0 419538.0 0
277881.0 417289.0 0
280845.0 420508.0 0
285629.0 420528.0 0
289986.0 419606.0 0
294661.0 418462.0 0
298692.0 418368.0 0
301494.0 420607.0 0
297541.0 422132.0 0
305970.0 419408.0 0
310666.0 420593.0 0
315880.0 420424.0 0
320819.0 422883.0 0
323599.0 420049.0 0
326066.0 423873.0 0
328704.0 420394.0 0
333328.0 421543.0 0
337962.0 421681.0 0
341270.0 420168.0 0
345059.0 422806.0 0
348957.0 420238.0 0
353745.0 421623.0 0
356995.0 424075.0 0
361853.0 420934.0 0
357923.0 421491.0 0
360585.0 423965.0 0
365090.0 422342.0 0
369676.0 421135.0 0
368355.0 424424.0 0
372854.0 423215.0 0
376134.0 424909.0 0
113946.0 431090.0 0
120648.0 427811.0 0
116719.0 429152.0 0
124945.0 427528.0 0
128593.0 425561.0 0
127828.0 429792.0 0
131175.0 428958.0 0
133149.0 426005.0 0
135110.0 428675.0 0
137114.0 425312.0 0
137605.0 428617.0 0
140909.0 426506.0 0
144454.0 426074.0 0
143520.0 429034.0 0
147368.0 427439.0 0
151216.0 427814.0 0
158517.0 424971.0 0
158463.0 428861.0 0
162195.0 426492.0 0
165723.0 426740.0 0
170489.0 426340.0 0
175083.0 426419.0 0
178972.0 427546.0 0
182832.0 428294.0 0
191072.0 425843.0 0
187437.0 426893.0 0
194199.0 426937.0 0
197583.0 424252.0 0
201762.0 425977.0 0
206061.0 427898.0 0
210509.0 424765.0 0
216178.0 425595.0 0
221995.0 424562.0 0
226352.0 424908.0 0
230547.0 424861.0 0
233817.0 421765.0 0
234903.0 426023.0 0
238052.0 422820.0 0
243079.0 423667.0 0
247252.0 426958.0 0
251848.0 423847.0 0
255717.0 427097.0 0
258853.0 422777.0 0
264218.0 423993.0 0
268514.0 422159.0 0
272484.0 424722.0 0
276270.0 423097.0 0
276155.0 427386.0 0
280071.0 424958.0 0
283563.0 423355.0 0
284818.0 427446.0 0
288910.0 424232.0 0
292390.0 426621.0 0
293307.0 423102.0 0
296574.0 426965.0 0
300653.0 425048.0 0
304360.0 423884.0 0
310258.0 427564.0 0
308378.0 423939.0 0
313412.0 424744.0 0
316907.0 427417.0 0
317593.0 424522.0 0
319894.0 427051.0 0
323395.0 426871.0 0
327398.0 428133.0 0
331024.0 425521.0 0
336194.0 425008.0 0
334983.0 428318.0 0
338591.0 428288.0 0
341281.0 425190.0 0
346317.0 427087.0 0
349701.0 424665.0 0
350333.0 427958.0 0
352812.0 429941.0 0
353951.0 426328.0 0
358609.0 426879.0 0
362148.0 428306.0 0
363761.0 425198.0 0
365890.0 427166.0 0
371584.0 425985.0 0
369064.0 428122.0 0
371940.0 429318.0 0
374494.0 427426.0 0
377247.0 429002.0 0
379095.0 426804.0 0
382031.0 428602.0 0
380565.0 430562.0 0
384980.0 430773.0 0
111133.0 432743.0 0
108495.0 434722.0 0
116200.0 432417.0 0
113022.0 435248.0 0
119142.0 431072.0 0
120827.0 434158.0 0
116947.0 434876.0 0
123505.0 430920.0 0
124459.0 435786.0 0
126478.0 433173.0 0
130385.0 433062.0 0
133398.0 430959.0 0
133648.0 434853.0 0
136725.0 432440.0 0
140359.0 430301.0 0
139634.0 433969.0 0
142392.0 432774.0 0
145605.0 431033.0 0
149529.0 431739.0 0
154698.0 429481.0 0
161799.0 429513.0 0
158171.0 432461.0 0
164940.0 430345.0 0
162368.0 433968.0 0
167999.0 429370.0 0
167143.0 432841.0 0
171780.0 430673.0 0
176350.0 429968.0 0
179672.0 431689.0 0
186771.0 431480.0 0
183138.0 432957.0 0
190786.0 429470.0 0
194332.0 430930.0 0
197996.0 428771.0 0
202079.0 431162.0 0
206157.0 432147.0 0
209222.0 430739.0 0
212454.0 428809.0 0
215823.0 430693.0 0
219945.0 428852.0 0
224481.0 429159.0 0
228179.0 428144.0 0
231814.0 429259.0 0
239366.0 427194.0 0
236213.0 430278.0 0
240269.0 431731.0 0
243299.0 428978.0 0
251360.0 430020.0 0
256147.0 430924.0 0
260402.0 428637.0 0
265240.0 428009.0 0
268915.0 426540.0 0
268314.0 430410.0 0
272226.0 429253.0 0
280363.0 429684.0 0
286541.0 432112.0 0
289492.0 428964.0 0
293452.0 430627.0 0
297861.0 432036.0 0
301414.0 429329.0 0
305868.0 428406.0 0
309921.0 431289.0 0
314302.0 429903.0 0
317155.0 433220.0 0
318672.0 430156.0 0
320880.0 433805.0 0
322196.0 430186.0 0
326386.0 433142.0 0
331844.0 430838.0 0
337385.0 431690.0 0
342943.0 431549.0 0
349238.0 431368.0 0
357171.0 430328.0 0
354227.0 433372.0 0
357744.0 434381.0 0
361280.0 432657.0 0
366134.0 430987.0 0
370248.0 431796.0 0
372072.0 435378.0 0
368180.0 434556.0 0
374239.0 431574.0 0
377849.0 432734.0 0
382867.0 432593.0 0
380833.0 435686.0 0
388019.0 433190.0 0
385320.0 435681.0 0
391536.0 435286.0 0
105334.0 437031.0 0
101499.0 439800.0 0
105171.0 440131.0 0
109260.0 437947.0 0
115589.0 437759.0 0
112600.0 439565.0 0
116161.0 439926.0 0
118658.0 437463.0 0
121929.0 438860.0 0
125425.0 440090.0 0
129045.0 436888.0 0
133340.0 438151.0 0
137004.0 436335.0 0
137229.0 439886.0 0
140646.0 436754.0 0
145022.0 434570.0 0
144079.0 438647.0 0
148894.0 437008.0 0
153561.0 434239.0 0
157429.0 437545.0 0
161902.0 438104.0 0
165684.0 436812.0 0
170159.0 435633.0 0
175436.0 434650.0 0
176720.0 438606.0 0
180681.0 436378.0 0
185573.0 435935.0 0
191043.0 435215.0 0
195319.0 437444.0 0
197444.0 434050.0 0
199922.0 437991.0 0
203950.0 435723.0 0
208967.0 435611.0 0
212414.0 432637.0 0
215193.0 435663.0 0
219149.0 433230.0 0
223710.0 434386.0 0
228306.0 432403.0 0
233048.0 433998.0 0
237143.0 434013.0 0
238352.0 437295.0 0
242482.0 435103.0 0
246444.0 432402.0 0
250132.0 434692.0 0
254010.0 434323.0 0
259104.0 433421.0 0
256903.0 436680.0 0
264166.0 432972.0 0
266899.0 437516.0 0
270971.0 434335.0 0
276441.0 432699.0 0
279289.0 436846.0 0
282511.0 433916.0 0
286533.0 435995.0 0
290282.0 433067.0 0
290720.0 437139.0 0
294441.0 434948.0 0
302183.0 434000.0 0
298734.0 436827.0 0
306013.0 433276.0 0
309208.0 434445.0 0
313277.0 435136.0 0
318014.0 437141.0 0
323301.0 438550.0 0
331329.0 435313.0 0
335194.0 434673.0 0
339720.0 436467.0 0
347478.0 434866.0 0
344583.0 437137.0 0
351434.0 435435.0 0
349055.0 438273.0 0
352629.0 438918.0 0
356021.0 437645.0 0
360587.0 437415.0 0
364967.0 435916.0 0
371926.0 439567.0 0
368607.0 438574.0 0
375800.0 435350.0 0
374763.0 438771.0 0
377978.0 437636.0 0
382516.0 439609.0 0
386607.0 439968.0 0
388622.0 437443.0 0
391487.0 438904.0 0
395398.0 438149.0 0
399141.0 439087.0 0
401966.0 441065.0 0
92715.9 445323.0 0
97226.6 443188.0 0
101545.0 443801.0 0
105355.0 443116.0 0
108348.0 441355.0 0
114863.0 442470.0 0
111086.0 442787.0 0
118498.0 440767.0 0
118430.0 444909.0 0
121579.0 442029.0 0
124443.0 444072.0 0
129056.0 441082.0 0
128538.0 444701.0 0
132813.0 441761.0 0
136128.0 443968.0 0
140481.0 440277.0 0
139490.0 443302.0 0
142727.0 442258.0 0
147212.0 442402.0 0
151421.0 444180.0 0
152435.0 439651.0 0
155085.0 442302.0 0
159251.0 442446.0 0
164125.0 440640.0 0
166999.0 442852.0 0
168319.0 439568.0 0
170097.0 442705.0 0
172536.0 439383.0 0
172927.0 443576.0 0
175426.0 441641.0 0
179535.0 441508.0 0
184102.0 440222.0 0
188033.0 439330.0 0
187172.0 443555.0 0
191863.0 441170.0 0
196423.0 440461.0 0
200159.0 442822.0 0
203838.0 440173.0 0
208168.0 441190.0 0
212138.0 438986.0 0
216107.0 440498.0 0
219678.0 437673.0 0
220160.0 442371.0 0
223731.0 439638.0 0
226735.0 437211.0 0
229901.0 436717.0 0
228591.0 441384.0 0
233637.0 438932.0 0
242054.0 439277.0 0
246777.0 438162.0 0
252780.0 439553.0 0
257621.0 439877.0 0
261016.0 437509.0 0
264095.0 440020.0 0
270833.0 439279.0 0
275062.0 437957.0 0
278715.0 441128.0 0
283266.0 439271.0 0
287526.0 439746.0 0
291259.0 442006.0 0
295158.0 439542.0 0
299582.0 441570.0 0
302842.0 438281.0 0
304686.0 443086.0 0
308173.0 438503.0 0
310483.0 442493.0 0
314169.0 440433.0 0
316341.0 444288.0 0
319040.0 441632.0 0
323599.0 443839.0 0
327522.0 443053.0 0
328987.0 438759.0 0
331504.0 443049.0 0
334629.0 439210.0 0
339231.0 441475.0 0
342858.0 439981.0 0
343567.0 443975.0 0
347053.0 441544.0 0
351632.0 441733.0 0
355200.0 441807.0 0
357668.0 444535.0 0
359211.0 441328.0 0
362082.0 444183.0 0
364177.0 440590.0 0
366029.0 444691.0 0
374010.0 442148.0 0
368215.0 442290.0 0
370843.0 441521.0 0
378358.0 441160.0 0
375612.0 445283.0 0
379162.0 445123.0 0
382911.0 443332.0 0
386308.0 443524.0 0
390721.0 442589.0 0
395558.0 442168.0 0
397926.0 445538.0 0
399051.0 441528.0 0
401495.0 444527.0 0
405135.0 444030.0 0
408971.0 445222.0 0
85213.2 448696.0 0
88725.1 447498.0 0
87421.8 450560.0 0
91610.5 449165.0 0
96566.0 448099.0 0
100074.0 446725.0 0
100783.0 449832.0 0
104019.0 447155.0 0
105793.0 450751.0 0
108175.0 445681.0 0
109690.0 449664.0 0
113064.0 446471.0 0
112568.0 450579.0 0
116593.0 450214.0 0
121670.0 447768.0 0
126141.0 449089.0 0
130277.0 447885.0 0
132090.0 445079.0 0
134332.0 447809.0 0
138495.0 447043.0 0
142313.0 445557.0 0
146008.0 447052.0 0
150177.0 448287.0 0
155027.0 446386.0 0
158908.0 447120.0 0
163474.0 445587.0 0
168419.0 446109.0 0
172565.0 447165.0 0
176673.0 445356.0 0
182149.0 446048.0 0
190899.0 446057.0 0
186592.0 448403.0 0
195672.0 444898.0 0
196769.0 448246.0 0
200307.0 447809.0 0
204568.0 444764.0 0
209068.0 447270.0 0
212461.0 443481.0 0
213868.0 447606.0 0
216632.0 444848.0 0
220245.0 446777.0 0
224162.0 444320.0 0
227917.0 446534.0 0
232430.0 445181.0 0
238015.0 443073.0 0
243976.0 443262.0 0
241692.0 446964.0 0
248562.0 443401.0 0
252973.0 445835.0 0
256397.0 443053.0 0
260993.0 443227.0 0
267429.0 443772.0 0
273840.0 443600.0 0
278492.0 445775.0 0
282074.0 443985.0 0
286651.0 444332.0 0
291102.0 446577.0 0
295625.0 444664.0 0
300957.0 447303.0 0
308814.0 445585.0 0
312981.0 445064.0 0
315919.0 448136.0 0
319611.0 446102.0 0
323503.0 448443.0 0
327191.0 446697.0 0
331259.0 447256.0 0
336303.0 449215.0 0
335498.0 444486.0 0
341078.0 449522.0 0
339957.0 445969.0 0
344288.0 447967.0 0
347427.0 446133.0 0
350246.0 444382.0 0
350951.0 447294.0 0
353865.0 445354.0 0
356607.0 448361.0 0
360214.0 450607.0 0
360149.0 446885.0 0
364043.0 448249.0 0
370943.0 445224.0 0
367900.0 447849.0 0
374296.0 448510.0 0
377903.0 448596.0 0
382956.0 448117.0 0
386949.0 446392.0 0
387408.0 450304.0 0
390234.0 446857.0 0
394073.0 446399.0 0
391241.0 450663.0 0
394634.0 449678.0 0
398806.0 449669.0 0
402523.0 448733.0 0
406167.0 447642.0 0
409152.0 447914.0 0
407220.0 451272.0 0
411755.0 447579.0 0
410154.0 450621.0 0
414671.0 450329.0 0
75718.3 456023.0 0
78462.0 453191.0 0
80379.7 454983.0 0
82847.7 451940.0 0
83209.8 456079.0 0
90009.5 451953.0 0
86402.1 453814.0 0
89812.5 455410.0 0
94105.6 452171.0 0
93876.9 455983.0 0
98210.3 452941.0 0
97429.4 456029.0 0
102232.0 453096.0 0
105654.0 454939.0 0
109312.0 453357.0 0
112473.0 453341.0 0
118309.0 453969.0 0
121679.0 451796.0 0
124750.0 453850.0 0
127909.0 452365.0 0
131276.0 451203.0 0
132834.0 454268.0 0
136498.0 451464.0 0
141545.0 450101.0 0
143288.0 454156.0 0
146533.0 451268.0 0
150324.0 453177.0 0
153418.0 450522.0 0
157108.0 450633.0 0
159321.0 453661.0 0
161174.0 450048.0 0
163001.0 453314.0 0
165371.0 449699.0 0
169127.0 449459.0 0
167555.0 454008.0 0
172429.0 451530.0 0
175419.0 454289.0 0
177604.0 449855.0 0
182832.0 451867.0 0
190074.0 450320.0 0
187272.0 453231.0 0
193705.0 449233.0 0
197064.0 451797.0 0
201452.0 453161.0 0
204598.0 449496.0 0
207603.0 452052.0 0
212068.0 451736.0 0
217235.0 449702.0 0
224150.0 449267.0 0
228441.0 450728.0 0
233200.0 450501.0 0
237974.0 448886.0 0
242079.0 451178.0 0
245774.0 447755.0 0
249783.0 449587.0 0
254160.0 450903.0 0
258152.0 447993.0 0
263376.0 448394.0 0
268990.0 449988.0 0
264736.0 452653.0 0
274515.0 449391.0 0
279030.0 449644.0 0
283578.0 449106.0 0
288108.0 448885.0 0
287277.0 452783.0 0
291909.0 451440.0 0
293720.0 448007.0 0
296204.0 449157.0 0
296072.0 452736.0 0
299007.0 451548.0 0
302463.0 452614.0 0
306366.0 449575.0 0
305668.0 453739.0 0
311438.0 449340.0 0
315623.0 453196.0 0
319772.0 450503.0 0
323288.0 452358.0 0
327451.0 451418.0 0
332010.0 451713.0 0
335381.0 454232.0 0
339786.0 453440.0 0
344403.0 452243.0 0
348716.0 450320.0 0
353219.0 449737.0 0
356462.0 452486.0 0
364086.0 452253.0 0
360661.0 455021.0 0
367424.0 451171.0 0
366678.0 455208.0 0
371043.0 449891.0 0
370832.0 453765.0 0
375816.0 453028.0 0
380104.0 451666.0 0
380521.0 455027.0 0
384549.0 453782.0 0
389057.0 454284.0 0
393251.0 454477.0 0
396796.0 453149.0 0
403913.0 452342.0 0
400818.0 454226.0 0
405296.0 455538.0 0
408254.0 454575.0 0
411989.0 453689.0 0
418548.0 452090.0 0
415864.0 454933.0 0
421919.0 454142.0 0
425046.0 455886.0 0
68976.8 459583.0 0
71676.3 457616.0 0
74116.8 459881.0 0
78898.4 457501.0 0
77680.7 461407.0 0
82167.0 459265.0 0
86214.8 457672.0 0
85102.1 461316.0 0
88494.8 459588.0 0
91027.1 458993.0 0
94856.2 459824.0 0
99079.5 460014.0 0
100960.0 455859.0 0
104085.0 458519.0 0
109768.0 457626.0 0
115090.0 456272.0 0
113624.0 460819.0 0
120878.0 456481.0 0
117837.0 459396.0 0
124953.0 457395.0 0
128729.0 455721.0 0
132261.0 458598.0 0
135675.0 456016.0 0
139365.0 455168.0 0
142416.0 458351.0 0
146765.0 456028.0 0
150773.0 457612.0 0
154690.0 454809.0 0
158282.0 457091.0 0
163235.0 458034.0 0
167858.0 458941.0 0
171787.0 456644.0 0
176063.0 458521.0 0
179186.0 454721.0 0
181987.0 459104.0 0
188093.0 458027.0 0
192435.0 454295.0 0
197274.0 456516.0 0
205238.0 455625.0 0
201557.0 458267.0 0
209448.0 455992.0 0
213158.0 455689.0 0
216178.0 453749.0 0
220647.0 452955.0 0
225440.0 454192.0 0
230061.0 454885.0 0
233617.0 454499.0 0
237651.0 454028.0 0
242632.0 456400.0 0
246614.0 453001.0 0
248485.0 457417.0 0
250968.0 453989.0 0
255187.0 455619.0 0
259956.0 453010.0 0
263579.0 457563.0 0
268483.0 455416.0 0
273372.0 454515.0 0
278719.0 454184.0 0
283488.0 454032.0 0
286759.0 457142.0 0
290133.0 455541.0 0
294533.0 456689.0 0
299043.0 454960.0 0
302300.0 456922.0 0
306039.0 457205.0 0
309879.0 454068.0 0
313635.0 457446.0 0
317977.0 458720.0 0
320592.0 454881.0 0
322254.0 458461.0 0
325039.0 455829.0 0
330202.0 456865.0 0
335591.0 457977.0 0
339577.0 457592.0 0
342291.0 459807.0 0
343555.0 456422.0 0
347991.0 455194.0 0
351368.0 458194.0 0
352421.0 453891.0 0
356226.0 457289.0 0
361260.0 460501.0 0
364065.0 457135.0 0
369984.0 457963.0 0
374043.0 457819.0 0
378598.0 457764.0 0
383250.0 457786.0 0
387616.0 457835.0 0
385973.0 461577.0 0
391706.0 458035.0 0
397345.0 457508.0 0
402550.0 458092.0 0
406808.0 459408.0 0
410469.0 457515.0 0
413527.0 457309.0 0
413209.0 460356.0 0
410707.0 460883.0 0
415899.0 458863.0 0
419614.0 457321.0 0
416328.0 461679.0 0
423306.0 459002.0 0
419367.0 461269.0 0
427966.0 458793.0 0
426076.0 462150.0 0
60367.5 464778.0 0
65801.4 461433.0 0
62897.9 462757.0 0
67725.3 464086.0 0
70844.6 461876.0 0
73317.1 464455.0 0
76946.7 465248.0 0
81226.5 463386.0 0
80051.0 466479.0 0
84132.4 465162.0 0
88347.8 463284.0 0
91969.8 462385.0 0
95575.2 464435.0 0
103069.0 462783.0 0
99485.5 464521.0 0
106079.0 464590.0 0
106868.0 461039.0 0
109757.0 462406.0 0
108890.0 465815.0 0
112640.0 465475.0 0
117112.0 463133.0 0
122210.0 461368.0 0
124056.0 465191.0 0
127605.0 460464.0 0
127497.0 464830.0 0
131957.0 462707.0 0
137437.0 460520.0 0
142288.0 462735.0 0
146327.0 460295.0 0
150389.0 462489.0 0
154836.0 460070.0 0
159276.0 460394.0 0
157883.0 463779.0 0
162008.0 462605.0 0
166243.0 463306.0 0
171406.0 461398.0 0
176515.0 464033.0 0
186111.0 462354.0 0
189746.0 462216.0 0
193252.0 459558.0 0
197703.0 461086.0 0
201775.0 462426.0 0
205467.0 459502.0 0
208984.0 460283.0 0
212110.0 458756.0 0
216089.0 458373.0 0
220249.0 457302.0 0
223999.0 458545.0 0
225296.0 462406.0 0
228586.0 459501.0 0
233860.0 458548.0 0
238676.0 458618.0 0
245183.0 461616.0 0
252134.0 458715.0 0
258870.0 457926.0 0
255635.0 460483.0 0
260501.0 462387.0 0
268210.0 460899.0 0
271488.0 458092.0 0
272148.0 460572.0 0
276268.0 459698.0 0
282123.0 458805.0 0
286279.0 462051.0 0
290560.0 460227.0 0
298843.0 458469.0 0
296110.0 462814.0 0
301837.0 461496.0 0
305837.0 461095.0 0
309790.0 459669.0 0
314324.0 461641.0 0
317846.0 462790.0 0
321226.0 462031.0 0
325876.0 460863.0 0
330047.0 462263.0 0
333346.0 460804.0 0
333368.0 464200.0 0
338086.0 462367.0 0
343444.0 463750.0 0
346903.0 459866.0 0
347649.0 464705.0 0
353988.0 461054.0 0
350915.0 462777.0 0
354717.0 465463.0 0
357164.0 462250.0 0
364539.0 464868.0 0
366746.0 460408.0 0
368460.0 464277.0 0
371936.0 462097.0 0
376413.0 461662.0 0
379193.0 464704.0 0
381344.0 461443.0 0
388623.0 465396.0 0
390249.0 461716.0 0
394947.0 461282.0 0
398267.0 464912.0 0
404387.0 462615.0 0
400472.0 461680.0 0
405605.0 465774.0 0
408974.0 464172.0 0
413670.0 464661.0 0
418257.0 465192.0 0
422608.0 463007.0 0
428375.0 464223.0 0
431703.0 461307.0 0
435852.0 462605.0 0
432583.0 465066.0 0
438933.0 465408.0 0
435404.0 466657.0 0
48847.8 471891.0 0
53268.0 470458.0 0
57183.6 467842.0 0
59467.7 471165.0 0
61547.1 468071.0 0
63106.1 471686.0 0
64471.3 465911.0 0
66644.1 469864.0 0
70001.7 467191.0 0
73810.2 467832.0 0
77081.5 469260.0 0
82132.6 467976.0 0
87347.6 468112.0 0
91848.2 466392.0 0
94722.9 468578.0 0
91279.3 470168.0 0
97964.8 467656.0 0
102402.0 467647.0 0
106264.0 467524.0 0
105600.0 470070.0 0
109178.0 469524.0 0
115964.0 467072.0 0
120191.0 466749.0 0
124215.0 469018.0 0
128158.0 469305.0 0
131687.0 467070.0 0
135333.0 464692.0 0
135732.0 468798.0 0
138904.0 465443.0 0
139745.0 469636.0 0
142784.0 466940.0 0
146408.0 465145.0 0
146366.0 469804.0 0
150105.0 467312.0 0
153818.0 465183.0 0
153533.0 469318.0 0
156947.0 467684.0 0
161653.0 467086.0 0
166352.0 468463.0 0
170447.0 465940.0 0
173410.0 468283.0 0
176516.0 468742.0 0
182359.0 465460.0 0
187851.0 466922.0 0
193455.0 464863.0 0
198744.0 465918.0 0
202994.0 467823.0 0
206198.0 464030.0 0
209684.0 466267.0 0
213084.0 463297.0 0
219905.0 462823.0 0
216432.0 466862.0 0
224520.0 466947.0 0
229114.0 464711.0 0
234407.0 464273.0 0
239674.0 463006.0 0
238141.0 467985.0 0
242620.0 467008.0 0
246866.0 466599.0 0
251192.0 463590.0 0
256415.0 464776.0 0
264776.0 465240.0 0
269205.0 465437.0 0
272938.0 464062.0 0
277900.0 465957.0 0
282482.0 463841.0 0
287743.0 466670.0 0
291541.0 465086.0 0
297150.0 468031.0 0
300477.0 465765.0 0
305575.0 466067.0 0
310620.0 464627.0 0
315381.0 466197.0 0
319731.0 465907.0 0
324188.0 465645.0 0
328784.0 466030.0 0
332723.0 467542.0 0
336468.0 466992.0 0
340519.0 467270.0 0
345723.0 469078.0 0
350652.0 466960.0 0
354012.0 469922.0 0
357286.0 468819.0 0
359811.0 465946.0 0
360096.0 470527.0 0
363729.0 469444.0 0
367855.0 468043.0 0
371244.0 466290.0 0
375212.0 466118.0 0
380146.0 468659.0 0
384001.0 465892.0 0
387824.0 471699.0 0
387151.0 468675.0 0
393628.0 466307.0 0
390613.0 469683.0 0
398563.0 469173.0 0
402416.0 466650.0 0
403109.0 470876.0 0
407201.0 469118.0 0
413732.0 468977.0 0
410597.0 467932.0 0
410807.0 470343.0 0
416573.0 468112.0 0
418898.0 468805.0 0
421702.0 467098.0 0
425382.0 466325.0 0
421011.0 470805.0 0
423671.0 469441.0 0
429750.0 467172.0 0
427229.0 469947.0 0
432491.0 469193.0 0
438947.0 469762.0 0
436053.0 470141.0 0
442707.0 468048.0 0
442159.0 471782.0 0
446505.0 470226.0 0
450167.0 471723.0 0
41874.5 475486.0 0
45923.0 474843.0 0
51275.3 474437.0 0
56533.6 473093.0 0
54788.1 476370.0 0
60125.8 475221.0 0
64476.7 475631.0 0
68018.8 473813.0 0
72012.3 471406.0 0
71477.0 475938.0 0
75810.4 473640.0 0
80049.8 471211.0 0
83628.7 471258.0 0
79791.4 474884.0 0
84057.3 474742.0 0
87589.4 472953.0 0
94221.6 471958.0 0
91129.1 474160.0 0
98456.6 471933.0 0
94825.7 475420.0 0
102942.0 471648.0 0
102280.0 474445.0 0
105956.0 473508.0 0
113429.0 470152.0 0
110416.0 473862.0 0
114504.0 474047.0 0
117804.0 471241.0 0
121942.0 472976.0 0
126604.0 473335.0 0
131878.0 472366.0 0
137023.0 473273.0 0
143203.0 470116.0 0
142115.0 473711.0 0
147590.0 474596.0 0
150110.0 470893.0 0
153137.0 473618.0 0
158063.0 471983.0 0
162985.0 471348.0 0
166189.0 472917.0 0
170224.0 470748.0 0
175048.0 472387.0 0
179872.0 470148.0 0
183875.0 469685.0 0
182805.0 472747.0 0
186620.0 472217.0 0
191213.0 471005.0 0
195311.0 469486.0 0
199505.0 471173.0 0
203612.0 471628.0 0
207238.0 469546.0 0
212501.0 469300.0 0
216574.0 470140.0 0
220125.0 468672.0 0
218789.0 472310.0 0
224417.0 472234.0 0
228540.0 469621.0 0
233119.0 469579.0 0
240930.0 470121.0 0
236982.0 472357.0 0
245297.0 470927.0 0
250362.0 469404.0 0
254705.0 468497.0 0
260095.0 469015.0 0
264470.0 472830.0 0
267910.0 469469.0 0
273428.0 470050.0 0
278846.0 472025.0 0
283203.0 468822.0 0
287620.0 471459.0 0
292636.0 470078.0 0
297200.0 471727.0 0
301409.0 470093.0 0
306637.0 472406.0 0
311541.0 469599.0 0
316528.0 471047.0 0
321368.0 470201.0 0
319483.0 473806.0 0
323076.0 474496.0 0
326060.0 470155.0 0
330542.0 470578.0 0
332680.0 474101.0 0
335357.0 470980.0 0
340175.0 471843.0 0
344191.0 473619.0 0
348551.0 474076.0 0
350233.0 470773.0 0
353237.0 474742.0 0
357487.0 472601.0 0
362261.0 474528.0 0
367391.0 472604.0 0
371669.0 474554.0 0
372062.0 470484.0 0
376365.0 470555.0 0
375936.0 474942.0 0
380065.0 473311.0 0
384241.0 471167.0 0
387133.0 474888.0 0
394935.0 471775.0 0
390920.0 473535.0 0
393752.0 475315.0 0
396680.0 475153.0 0
399705.0 473377.0 0
403990.0 475359.0 0
406577.0 472981.0 0
410039.0 473082.0 0
413564.0 472398.0 0
417233.0 471391.0 0
416226.0 474683.0 0
420445.0 474884.0 0
424472.0 472801.0 0
428535.0 474754.0 0
430420.0 471951.0 0
433553.0 472729.0 0
432670.0 475893.0 0
436624.0 473915.0 0
439770.0 473072.0 0
440072.0 476566.0 0
444115.0 473142.0 0
442570.0 475192.0 0
450925.0 475520.0 0
447149.0 474615.0 0
453320.0 472685.0 0
455453.0 474971.0 0
458426.0 476891.0 0
39408.8 478553.0 0
35576.1 480872.0 0
43445.6 478630.0 0
39289.2 481994.0 0
42392.2 482569.0 0
48914.4 477438.0 0
46927.4 479462.0 0
52283.0 478581.0 0
49949.5 481033.0 0
57918.3 479000.0 0
54174.0 481508.0 0
61801.2 478367.0 0
64367.1 479503.0 0
68000.1 478058.0 0
70977.3 480120.0 0
75199.6 477906.0 0
78860.1 478668.0 0
82787.5 478057.0 0
87100.3 477230.0 0
88480.7 480599.0 0
91190.7 478078.0 0
94705.9 479067.0 0
98785.9 477335.0 0
103493.0 477288.0 0
101411.0 481115.0 0
106919.0 476989.0 0
105087.0 480265.0 0
108919.0 480820.0 0
109952.0 477335.0 0
113418.0 478172.0 0
118087.0 476570.0 0
122626.0 476934.0 0
125222.0 479426.0 0
125397.0 476571.0 0
129312.0 477566.0 0
134015.0 476357.0 0
138102.0 477864.0 0
143382.0 478142.0 0
151592.0 477149.0 0
156729.0 478027.0 0
161680.0 475357.0 0
165783.0 477410.0 0
169599.0 475038.0 0
169784.0 479412.0 0
173442.0 476698.0 0
179285.0 475133.0 0
176822.0 478901.0 0
184420.0 477075.0 0
189822.0 475490.0 0
195167.0 474702.0 0
200501.0 476060.0 0
205213.0 475243.0 0
209779.0 473932.0 0
214877.0 474237.0 0
218026.0 478036.0 0
220768.0 474902.0 0
222726.0 478092.0 0
228454.0 473103.0 0
227151.0 476778.0 0
232378.0 475026.0 0
237889.0 477525.0 0
241347.0 473457.0 0
244486.0 478407.0 0
249016.0 474312.0 0
254841.0 473708.0 0
260229.0 474990.0 0
265078.0 477991.0 0
269730.0 474737.0 0
275148.0 475576.0 0
279989.0 478003.0 0
283719.0 474254.0 0
290434.0 474951.0 0
295031.0 475104.0 0
300124.0 474597.0 0
304053.0 477607.0 0
311240.0 473686.0 0
309776.0 476971.0 0
314873.0 475925.0 0
319868.0 477380.0 0
324514.0 479084.0 0
328088.0 475280.0 0
332289.0 477388.0 0
336764.0 476153.0 0
341424.0 476563.0 0
345796.0 477384.0 0
350178.0 478980.0 0
354307.0 479010.0 0
357805.0 476850.0 0
361249.0 479129.0 0
365162.0 479159.0 0
365803.0 475848.0 0
368807.0 476879.0 0
372871.0 478228.0 0
376913.0 479575.0 0
383534.0 475261.0 0
380487.0 477494.0 0
385451.0 479194.0 0
390477.0 477855.0 0
395109.0 478063.0 0
400156.0 478312.0 0
408161.0 476445.0 0
405410.0 480156.0 0
409986.0 480143.0 0
412719.0 476774.0 0
417469.0 478765.0 0
425265.0 476806.0 0
422203.0 479468.0 0
430062.0 478568.0 0
433591.0 480129.0 0
436625.0 477741.0 0
445109.0 477648.0 0
441485.0 479475.0 0
445400.0 481212.0 0
448668.0 478252.0 0
448299.0 481055.0 0
453966.0 477749.0 0
455914.0 479457.0 0
451552.0 479839.0 0
459200.0 480566.0 0
461914.0 478702.0 0
461817.0 482304.0 0
464871.0 481006.0 0
468371.0 483165.0 0
24935.3 486825.0 0
28965.4 485349.0 0
31986.5 482437.0 0
32513.3 486304.0 0
35820.9 485068.0 0
39796.2 485358.0 0
43379.7 487338.0 0
46385.7 483196.0 0
51173.3 484649.0 0
57354.4 483364.0 0
54597.0 484894.0 0
61181.8 482115.0 0
62478.3 485649.0 0
67000.0 482950.0 0
73841.7 481816.0 0
69459.0 487041.0 0
71350.4 484227.0 0
76960.6 481754.0 0
74995.8 484957.0 0
78262.0 484606.0 0
80545.8 481667.0 0
82287.6 485666.0 0
84965.3 481374.0 0
87655.9 484186.0 0
91971.3 482511.0 0
96832.0 481868.0 0
94688.2 485719.0 0
99479.9 484666.0 0
104786.0 484483.0 0
109476.0 484593.0 0
113042.0 482562.0 0
116276.0 480753.0 0
120786.0 481253.0 0
126237.0 483911.0 0
130115.0 481501.0 0
133516.0 480121.0 0
136073.0 482198.0 0
140050.0 482236.0 0
144258.0 482508.0 0
148116.0 479893.0 0
150641.0 482907.0 0
152500.0 480276.0 0
154604.0 483461.0 0
159079.0 482793.0 0
161689.0 479759.0 0
165788.0 482976.0 0
171028.0 483852.0 0
173321.0 480399.0 0
175691.0 483323.0 0
180620.0 481693.0 0
186025.0 483062.0 0
188758.0 479671.0 0
190698.0 482677.0 0
192779.0 479471.0 0
194177.0 483498.0 0
197365.0 479900.0 0
202141.0 480515.0 0
206802.0 479850.0 0
211876.0 478633.0 0
220573.0 481266.0 0
215696.0 483249.0 0
225072.0 482192.0 0
230519.0 479766.0 0
234541.0 482104.0 0
240321.0 481389.0 0
248768.0 482338.0 0
251657.0 478651.0 0
253172.0 483050.0 0
256217.0 478938.0 0
260475.0 479579.0 0
270181.0 480669.0 0
275373.0 480253.0 0
282762.0 481827.0 0
284896.0 478532.0 0
288452.0 478160.0 0
287804.0 482905.0 0
292706.0 479624.0 0
298362.0 479274.0 0
302623.0 482777.0 0
307855.0 481617.0 0
312794.0 480791.0 0
316865.0 480146.0 0
320738.0 482748.0 0
325944.0 484344.0 0
329819.0 481026.0 0
334308.0 480281.0 0
338892.0 481531.0 0
343060.0 480228.0 0
344023.0 484471.0 0
346503.0 481192.0 0
348591.0 483564.0 0
352993.0 482761.0 0
357740.0 481932.0 0
362555.0 482645.0 0
366862.0 483684.0 0
369847.0 480913.0 0
371155.0 484807.0 0
373542.0 482036.0 0
374246.0 484550.0 0
376826.0 483297.0 0
379361.0 484782.0 0
381258.0 481992.0 0
385974.0 484661.0 0
389156.0 481549.0 0
391240.0 485329.0 0
393024.0 481459.0 0
397258.0 481573.0 0
396277.0 485695.0 0
401415.0 484000.0 0
406314.0 484644.0 0
414314.0 481625.0 0
410641.0 484437.0 0
416170.0 485967.0 0
419840.0 483561.0 0
424040.0 483485.0 0
427052.0 480988.0 0
431087.0 482914.0 0
434791.0 483957.0 0
438130.0 481800.0 0
439741.0 486217.0 0
442613.0 483371.0 0
446390.0 484438.0 0
450315.0 483877.0 0
453988.0 481965.0 0
453575.0 485458.0 0
457349.0 483528.0 0
460966.0 485819.0 0
456219.0 487191.0 0
464786.0 484604.0 0
471733.0 484774.0 0
467900.0 487574.0 0
472061.0 487785.0 0
475183.0 486952.0 0
17873.2 491700.0 0
21538.3 489742.0 0
24807.1 490200.0 0
28756.8 489488.0 0
30317.5 493130.0 0
33106.6 490034.0 0
36509.3 488788.0 0
36090.3 492187.0 0
38962.8 487912.0 0
39733.6 491205.0 0
48167.2 487278.0 0
44092.4 491335.0 0
52900.7 488424.0 0
57762.9 487566.0 0
61993.4 489389.0 0
65917.6 488077.0 0
72548.8 488124.0 0
77427.6 488721.0 0
81596.8 490568.0 0
86079.0 488338.0 0
90559.5 487195.0 0
92913.3 490363.0 0
97222.8 488452.0 0
101776.0 487713.0 0
107878.0 487787.0 0
112683.0 487216.0 0
114222.0 491393.0 0
116717.0 484600.0 0
117688.0 489065.0 0
121195.0 486297.0 0
124527.0 488229.0 0
128227.0 488852.0 0
132214.0 485410.0 0
134873.0 488965.0 0
137351.0 485975.0 0
138396.0 490048.0 0
142228.0 486942.0 0
147314.0 485144.0 0
149565.0 488359.0 0
151193.0 485407.0 0
153122.0 488114.0 0
157422.0 487637.0 0
161836.0 486264.0 0
169565.0 488186.0 0
165407.0 488366.0 0
173724.0 487487.0 0
178403.0 487359.0 0
182557.0 486094.0 0
185710.0 487673.0 0
190055.0 486778.0 0
194675.0 487712.0 0
199345.0 485071.0 0
205113.0 484912.0 0
209989.0 483652.0 0
220955.0 485229.0 0
225105.0 487468.0 0
229747.0 484250.0 0
233819.0 487542.0 0
238906.0 485372.0 0
244474.0 484843.0 0
250361.0 486367.0 0
257833.0 483304.0 0
255367.0 488221.0 0
264308.0 484744.0 0
273735.0 484368.0 0
270064.0 485448.0 0
274450.0 488668.0 0
278623.0 484027.0 0
283388.0 486542.0 0
293349.0 485383.0 0
298144.0 484396.0 0
301443.0 487177.0 0
306247.0 486910.0 0
311410.0 485884.0 0
315855.0 484238.0 0
319087.0 487420.0 0
315101.0 488271.0 0
323438.0 488139.0 0
328116.0 488756.0 0
329855.0 485513.0 0
334305.0 485321.0 0
339630.0 486239.0 0
343108.0 489499.0 0
347371.0 487530.0 0
351062.0 486110.0 0
355210.0 486901.0 0
359995.0 486085.0 0
362208.0 489464.0 0
364224.0 486666.0 0
368519.0 487837.0 0
372413.0 489030.0 0
373386.0 486193.0 0
376953.0 487879.0 0
381782.0 486990.0 0
385122.0 489963.0 0
389035.0 488607.0 0
399692.0 488991.0 0
404061.0 488178.0 0
407946.0 487633.0 0
408718.0 489416.0 0
412356.0 489302.0 0
417621.0 490912.0 0
423710.0 486690.0 0
421268.0 488652.0 0
425866.0 489739.0 0
428118.0 486214.0 0
429935.0 490552.0 0
432120.0 487119.0 0
434059.0 490912.0 0
436029.0 487328.0 0
438511.0 490522.0 0
444091.0 487146.0 0
442055.0 489511.0 0
445884.0 491129.0 0
448173.0 487689.0 0
450383.0 491032.0 0
451611.0 487789.0 0
454063.0 490040.0 0
462479.0 489774.0 0
459046.0 489808.0 0
464162.0 488087.0 0
468079.0 491808.0 0
464919.0 491211.0 0
471679.0 491316.0 0
475323.0 490350.0 0
478475.0 489042.0 0
481748.0 491359.0 0
478326.0 493035.0 0
10783.4 496330.0 0
7139.96 497956.0 0
14197.2 493948.0 0
13910.4 498622.0 0
17595.8 495487.0 0
17391.8 498641.0 0
20661.4 497334.0 0
21832.0 493888.0 0
26177.4 493738.0 0
24766.8 497483.0 0
33425.9 494707.0 0
29276.9 496816.0 0
37710.9 495779.0 0
42494.2 494665.0 0
48924.0 492344.0 0
52704.1 497010.0 0
54749.8 492272.0 0
56832.1 495351.0 0
59212.3 492399.0 0
63953.8 492461.0 0
68890.5 491431.0 0
66300.5 495209.0 0
73570.1 492421.0 0
70082.8 495901.0 0
78059.2 493798.0 0
82342.6 494779.0 0
88868.8 491320.0 0
85160.0 492208.0 0
86731.3 494750.0 0
90690.1 494158.0 0
93732.8 493824.0 0
95718.7 492057.0 0
96684.5 495192.0 0
99801.1 491631.0 0
104868.0 490878.0 0
107062.0 495187.0 0
109690.0 491238.0 0
111913.0 495256.0 0
115745.0 494215.0 0
118981.0 493434.0 0
121791.0 490611.0 0
123562.0 494489.0 0
125391.0 491324.0 0
128337.0 493611.0 0
131651.0 490869.0 0
135070.0 492066.0 0
138024.0 494642.0 0
142123.0 491855.0 0
145858.0 489807.0 0
145768.0 493894.0 0
149713.0 492250.0 0
154705.0 492433.0 0
161023.0 492340.0 0
167439.0 492691.0 0
172629.0 491943.0 0
177977.0 492732.0 0
182553.0 490322.0 0
187228.0 491433.0 0
192839.0 493224.0 0
198413.0 490825.0 0
202842.0 489030.0 0
206697.0 490500.0 0
210845.0 488524.0 0
210581.0 492822.0 0
216034.0 489312.0 0
218926.0 493607.0 0
220900.0 489528.0 0
224647.0 493293.0 0
229298.0 488879.0 0
230391.0 493182.0 0
234649.0 492210.0 0
237586.0 489905.0 0
242019.0 489784.0 0
247046.0 489564.0 0
251144.0 490520.0 0
259159.0 492843.0 0
260255.0 489019.0 0
264221.0 491958.0 0
269717.0 489955.0 0
273771.0 493267.0 0
279031.0 489457.0 0
283531.0 491656.0 0
288682.0 489413.0 0
293380.0 491170.0 0
297394.0 489259.0 0
303401.0 490767.0 0
307841.0 491914.0 0
312595.0 491595.0 0
318102.0 492425.0 0
324748.0 493752.0 0
329993.0 492774.0 0
332443.0 489780.0 0
333802.0 493808.0 0
337443.0 490574.0 0
341569.0 494432.0 0
347168.0 493382.0 0
351159.0 489962.0 0
354902.0 491383.0 0
352460.0 494467.0 0
358677.0 490432.0 0
361878.0 493671.0 0
365546.0 490970.0 0
370374.0 493370.0 0
375673.0 492684.0 0
380541.0 491606.0 0
381721.0 495064.0 0
386137.0 495172.0 0
389074.0 491564.0 0
393885.0 490556.0 0
391112.0 494507.0 0
398676.0 493789.0 0
403059.0 492555.0 0
406876.0 491257.0 0
406698.0 496186.0 0
410479.0 493398.0 0
414788.0 494141.0 0
419188.0 495251.0 0
421283.0 492506.0 0
423922.0 491870.0 0
423953.0 495829.0 0
427710.0 493232.0 0
432321.0 494646.0 0
437293.0 494473.0 0
441504.0 493192.0 0
445327.0 495265.0 0
449666.0 494907.0 0
453558.0 493760.0 0
456870.0 492563.0 0
457773.0 496057.0 0
461637.0 493561.0 0
466227.0 495802.0 0
470618.0 495250.0 0
474538.0 494333.0 0
473441.0 498003.0 0
481573.0 495790.0 0
477508.0 497628.0 0
485229.0 494241.0 0
489304.0 496411.0 0
493106.0 497876.0 0
4109.03 499998.0 0
1683.62 501672.0 0
9475.99 500252.0 0
11456.9 503181.0 0
19047.8 500921.0 0
22115.9 499886.0 0
22025.6 502954.0 0
24593.8 500849.0 0
28143.7 500826.0 0
33316.6 499172.0 0
35211.3 503436.0 0
37828.3 500070.0 0
41163.8 498028.0 0
42193.4 501631.0 0
46406.3 497950.0 0
50566.9 500907.0 0
57123.0 498987.0 0
61426.9 496837.0 0
61810.6 501167.0 0
66136.8 499342.0 0
70676.1 499674.0 0
74309.4 496818.0 0
74290.5 500951.0 0
78747.6 498533.0 0
83928.4 498494.0 0
88594.9 498476.0 0
93171.3 497260.0 0
96989.3 499734.0 0
101683.0 496000.0 0
105185.0 498378.0 0
109379.0 497956.0 0
112523.0 500139.0 0
116115.0 497327.0 0
120345.0 497700.0 0
125081.0 498809.0 0
128972.0 497372.0 0
132835.0 495287.0 0
136300.0 498623.0 0
142090.0 495759.0 0
145840.0 499109.0 0
151090.0 496384.0 0
156592.0 497927.0 0
161313.0 497695.0 0
164472.0 496370.0 0
168736.0 498338.0 0
174110.0 497122.0 0
178796.0 497446.0 0
183231.0 495138.0 0
187992.0 495586.0 0
186095.0 498810.0 0
198382.0 495184.0 0
195894.0 497895.0 0
202751.0 493953.0 0
205251.0 497538.0 0
207295.0 494518.0 0
214266.0 493860.0 0
210898.0 497952.0 0
216567.0 497995.0 0
221285.0 497429.0 0
228264.0 497720.0 0
233894.0 497530.0 0
238837.0 494310.0 0
243932.0 494368.0 0
241801.0 498539.0 0
249089.0 494688.0 0
254627.0 493941.0 0
257663.0 497654.0 0
261363.0 496145.0 0
268498.0 494188.0 0
265685.0 497386.0 0
271006.0 497716.0 0
279224.0 495459.0 0
285537.0 495477.0 0
289823.0 495102.0 0
294753.0 495166.0 0
300043.0 494250.0 0
304532.0 494395.0 0
306858.0 496061.0 0
314463.0 495389.0 0
310510.0 496075.0 0
317043.0 497100.0 0
320361.0 496967.0 0
327583.0 498824.0 0
330894.0 496633.0 0
334662.0 497741.0 0
337300.0 495103.0 0
339096.0 499075.0 0
345125.0 499120.0 0
349893.0 497643.0 0
354141.0 498819.0 0
357462.0 495272.0 0
361584.0 496943.0 0
364057.0 499470.0 0
365615.0 495531.0 0
369204.0 499293.0 0
374379.0 497380.0 0
378600.0 495917.0 0
382304.0 498735.0 0
386687.0 500723.0 0
390327.0 498504.0 0
393332.0 499773.0 0
394946.0 496700.0 0
399124.0 498673.0 0
402171.0 496580.0 0
406599.0 500080.0 0
409967.0 500312.0 0
411918.0 496974.0 0
413655.0 500350.0 0
416309.0 497897.0 0
420731.0 499701.0 0
425784.0 500684.0 0
428814.0 497490.0 0
432681.0 498660.0 0
436132.0 497959.0 0
434583.0 501070.0 0
441602.0 498207.0 0
447030.0 498644.0 0
450831.0 498717.0 0
454068.0 497526.0 0
453787.0 501173.0 0
457848.0 500656.0 0
461977.0 498570.0 0
466140.0 500341.0 0
470130.0 499190.0 0
474714.0 501897.0 0
479079.0 501216.0 0
481689.0 499206.0 0
485803.0 498999.0 0
483223.0 502608.0 0
490295.0 499659.0 0
493187.0 501395.0 0
497003.0 500054.0 0
497174.0 504194.0 0
2066.92 504447.0 0
6144.57 503052.0 0
7853.84 505864.0 0
11420.9 507329.0 0
15577.6 502105.0 0
15386.9 505756.0 0
19090.5 504721.0 0
24951.9 503471.0 0
22897.5 506263.0 0
31257.7 503153.0 0
27590.1 505949.0 0
32720.9 506981.0 0
38631.5 503534.0 0
40813.0 505317.0 0
43751.3 505017.0 0
46795.0 506556.0 0
46659.6 502553.0 0
50152.7 504214.0 0
53935.0 501284.0 0
57754.0 502804.0 0
53865.3 505109.0 0
61480.7 504990.0 0
65139.6 506466.0 0
64688.3 503133.0 0
68637.2 503432.0 0
73044.7 505333.0 0
77621.0 503547.0 0
81498.1 501889.0 0
81111.1 505713.0 0
85787.4 503253.0 0
91886.8 503125.0 0
97466.1 504233.0 0
101942.0 501512.0 0
107555.0 500877.0 0
105448.0 505409.0 0
110475.0 504732.0 0
114296.0 503649.0 0
117062.0 501191.0 0
121372.0 502135.0 0
128324.0 500926.0 0
125777.0 503433.0 0
132155.0 500009.0 0
135880.0 503223.0 0
140289.0 499262.0 0
141599.0 504317.0 0
147306.0 504452.0 0
151422.0 501430.0 0
155649.0 503414.0 0
159820.0 502382.0 0
163881.0 500615.0 0
163150.0 504990.0 0
167443.0 503567.0 0
172199.0 502214.0 0
176842.0 501773.0 0
181986.0 500693.0 0
186496.0 503262.0 0
191140.0 499832.0 0
195895.0 502984.0 0
200650.0 499463.0 0
206183.0 502351.0 0
214301.0 503239.0 0
219892.0 501882.0 0
224382.0 500181.0 0
229315.0 503070.0 0
234217.0 502735.0 0
237922.0 500912.0 0
247080.0 500575.0 0
252912.0 499024.0 0
256387.0 502700.0 0
261501.0 501176.0 0
267731.0 503028.0 0
273131.0 503192.0 0
275546.0 499691.0 0
280728.0 502244.0 0
286603.0 500096.0 0
292340.0 499918.0 0
298085.0 499559.0 0
303836.0 498914.0 0
301281.0 503053.0 0
308964.0 500714.0 0
314120.0 499761.0 0
312283.0 503359.0 0
318577.0 500096.0 0
317222.0 503926.0 0
323079.0 500603.0 0
327498.0 503567.0 0
331858.0 500974.0 0
336572.0 504456.0 0
341923.0 503126.0 0
350230.0 502774.0 0
355469.0 503090.0 0
359462.0 500328.0 0
363810.0 504277.0 0
368877.0 504514.0 0
374103.0 503001.0 0
378420.0 500150.0 0
378695.0 503853.0 0
382484.0 503251.0 0
391775.0 503295.0 0
396135.0 501153.0 0
396273.0 505321.0 0
399566.0 502789.0 0
403104.0 500406.0 0
403175.0 504899.0 0
407196.0 503544.0 0
412561.0 504441.0 0
417098.0 502380.0 0
419872.0 504424.0 0
422560.0 503625.0 0
430991.0 502052.0 0
427240.0 506009.0 0
432387.0 506121.0 0
435378.0 504444.0 0
438362.0 501745.0 0
442526.0 502753.0 0
445216.0 505617.0 0
445881.0 501922.0 0
449762.0 501568.0 0
448908.0 504686.0 0
452438.0 503971.0 0
456883.0 505047.0 0
462660.0 503758.0 0
469481.0 503805.0 0
470289.0 508084.0 0
474810.0 506884.0 0
479279.0 504816.0 0
483687.0 506421.0 0
488575.0 503715.0 0
493339.0 504196.0 0
492812.0 507267.0 0
497416.0 508106.0 0
3446.24 508495.0 0
7970.61 509365.0 0
14666.2 509344.0 0
15601.5 512613.0 0
19189.5 509139.0 0
24357.8 510671.0 0
29549.5 510013.0 0
34119.2 511673.0 0
37530.4 507591.0 0
38466.0 511375.0 0
42077.8 512678.0 0
42375.5 508544.0 0
46743.8 510601.0 0
50629.3 507867.0 0
50968.4 510849.0 0
54201.7 509277.0 0
57695.5 507287.0 0
61514.7 508883.0 0
64978.4 510394.0 0
68973.3 507911.0 0
73033.4 509892.0 0
76780.0 507776.0 0
79922.4 509335.0 0
84982.2 508568.0 0
89863.6 507853.0 0
92552.6 510449.0 0
94717.2 507541.0 0
98476.9 507916.0 0
100962.0 505797.0 0
102832.0 510320.0 0
108427.0 509325.0 0
113023.0 508425.0 0
117622.0 506307.0 0
122664.0 506166.0 0
126248.0 508179.0 0
130534.0 504981.0 0
133970.0 507893.0 0
137442.0 507352.0 0
140421.0 509411.0 0
145545.0 509835.0 0
151866.0 507262.0 0
158473.0 507914.0 0
166057.0 508307.0 0
170958.0 506988.0 0
176103.0 506889.0 0
181773.0 506501.0 0
186751.0 507515.0 0
190887.0 505772.0 0
195429.0 508113.0 0
200632.0 505688.0 0
205278.0 507638.0 0
209878.0 506948.0 0
218852.0 507556.0 0
224092.0 504965.0 0
229142.0 508452.0 0
234153.0 507433.0 0
237541.0 504721.0 0
241885.0 503790.0 0
246757.0 506849.0 0
251726.0 504312.0 0
257866.0 507434.0 0
262939.0 506628.0 0
267201.0 508673.0 0
271731.0 507421.0 0
276397.0 505470.0 0
282317.0 508397.0 0
285528.0 504852.0 0
290433.0 505453.0 0
296814.0 505612.0 0
302048.0 506840.0 0
305089.0 503905.0 0
309089.0 505416.0 0
305827.0 507834.0 0
313553.0 507619.0 0
322468.0 506644.0 0
328617.0 509076.0 0
331657.0 505491.0 0
341570.0 507455.0 0
345782.0 505387.0 0
349634.0 508144.0 0
353995.0 506989.0 0
357371.0 509053.0 0
359158.0 505476.0 0
361735.0 509332.0 0
366789.0 509119.0 0
372490.0 508645.0 0
377548.0 507607.0 0
382636.0 508475.0 0
387206.0 505647.0 0
387397.0 510280.0 0
392620.0 509505.0 0
397298.0 508607.0 0
400071.0 509836.0 0
399820.0 506627.0 0
404163.0 509137.0 0
408619.0 507646.0 0
413621.0 510183.0 0
417283.0 506564.0 0
418421.0 510367.0 0
421772.0 507810.0 0
426129.0 510988.0 0
431671.0 510598.0 0
436198.0 508796.0 0
440408.0 506308.0 0
440264.0 511072.0 0
444614.0 509777.0 0
448664.0 508002.0 0
451763.0 510606.0 0
452344.0 507086.0 0
455769.0 509405.0 0
461086.0 508852.0 0
466216.0 507495.0 0
465367.0 511319.0 0
469009.0 510896.0 0
472673.0 510332.0 0
479538.0 509181.0 0
483468.0 510611.0 0
487994.0 508792.0 0
494433.0 510518.0 0
497649.0 512081.0 0
3124.21 514024.0 0
6846.69 512351.0 0
8135.27 515707.0 0
11039.6 512145.0 0
13355.6 516660.0 0
19321.0 514525.0 0
23876.1 515054.0 0
28823.4 514233.0 0
33437.2 515835.0 0
38041.8 515625.0 0
45571.7 514536.0 0
49537.1 514163.0 0
53614.0 513086.0 0
56382.5 515368.0 0
57999.9 511627.0 0
62111.4 512390.0 0
68389.9 512227.0 0
64582.4 514461.0 0
72384.5 514254.0 0
76869.5 512253.0 0
81430.2 512621.0 0
79374.8 515684.0 0
85118.8 513554.0 0
86611.6 516000.0 0
88859.8 511972.0 0
92696.9 514543.0 0
97114.0 512255.0 0
106858.0 513788.0 0
111412.0 512596.0 0
116139.0 511569.0 0
114349.0 515619.0 0
121169.0 510730.0 0
125755.0 513394.0 0
130665.0 510765.0 0
132471.0 515148.0 0
136026.0 511660.0 0
140703.0 513452.0 0
149452.0 513390.0 0
154010.0 512633.0 0
158856.0 513323.0 0
162766.0 511501.0 0
169294.0 511194.0 0
166366.0 513757.0 0
173662.0 511489.0 0
179114.0 512136.0 0
184703.0 511288.0 0
189556.0 510602.0 0
198391.0 511426.0 0
203164.0 512198.0 0
208267.0 511432.0 0
213855.0 510100.0 0
217379.0 514091.0 0
224180.0 510482.0 0
232182.0 512181.0 0
235877.0 511201.0 0
239647.0 509029.0 0
244260.0 511412.0 0
248728.0 511631.0 0
252709.0 509224.0 0
256593.0 512722.0 0
260324.0 510678.0 0
264098.0 512754.0 0
270469.0 512563.0 0
276520.0 510788.0 0
281333.0 512964.0 0
287571.0 510222.0 0
293377.0 510421.0 0
299768.0 510632.0 0
304070.0 510834.0 0
309127.0 509548.0 0
314455.0 513332.0 0
317938.0 509701.0 0
321336.0 512516.0 0
324938.0 511089.0 0
333728.0 509492.0 0
337953.0 509590.0 0
337372.0 513726.0 0
341532.0 512058.0 0
345507.0 510064.0 0
348964.0 512401.0 0
353236.0 511738.0 0
358370.0 513615.0 0
364429.0 514357.0 0
370461.0 513844.0 0
375888.0 511048.0 0
379290.0 511958.0 0
384536.0 513910.0 0
389247.0 513765.0 0
397244.0 512454.0 0
401770.0 513405.0 0
405237.0 513156.0 0
408391.0 512177.0 0
411495.0 515397.0 0
417056.0 514878.0 0
421916.0 512922.0 0
426382.0 516179.0 0
428845.0 513381.0 0
431817.0 516134.0 0
436491.0 514024.0 0
440374.0 514135.0 0
443663.0 514051.0 0
448445.0 511385.0 0
447347.0 514237.0 0
450838.0 514292.0 0
454418.0 513359.0 0
458523.0 512304.0 0
462583.0 514261.0 0
471740.0 513562.0 0
467877.0 515754.0 0
476471.0 512244.0 0
474528.0 515345.0 0
477392.0 517364.0 0
480647.0 514401.0 0
491119.0 511739.0 0
486303.0 514619.0 0
494311.0 513274.0 0
491721.0 516375.0 0
496877.0 516353.0 0
2125.64 517934.0 0
2125.91 521161.0 0
5592.81 518535.0 0
9158.8 519082.0 0
17291.3 519237.0 0
21213.7 518375.0 0
25999.4 518121.0 0
23282.2 521191.0 0
30676.0 518906.0 0
27682.7 522345.0 0
35477.5 519791.0 0
39827.8 520518.0 0
42716.2 517283.0 0
47331.1 518082.0 0
52334.0 517701.0 0
56725.0 518891.0 0
60510.2 515773.0 0
60256.1 519575.0 0
64137.1 518662.0 0
68008.3 516489.0 0
68369.9 520925.0 0
71344.1 518244.0 0
75679.3 517691.0 0
79525.7 521158.0 0
83093.7 517445.0 0
88921.0 515437.0 0
90491.8 516917.0 0
92886.4 518762.0 0
96788.4 517550.0 0
101787.0 516029.0 0
106028.0 517654.0 0
107703.0 520786.0 0
109936.0 516980.0 0
112817.0 519100.0 0
116242.0 519219.0 0
119301.0 515692.0 0
123855.0 518639.0 0
128726.0 517221.0 0
132209.0 519497.0 0
136748.0 516651.0 0
140820.0 517974.0 0
145439.0 516299.0 0
151186.0 517770.0 0
156500.0 517540.0 0
162322.0 517015.0 0
167179.0 517642.0 0
170579.0 515298.0 0
175707.0 517488.0 0
182980.0 515149.0 0
180588.0 517395.0 0
187830.0 516027.0 0
193961.0 513899.0 0
199050.0 515448.0 0
207095.0 515318.0 0
211587.0 514637.0 0
214532.0 518671.0 0
222457.0 515497.0 0
224864.0 519171.0 0
227788.0 515153.0 0
232692.0 518118.0 0
235827.0 514480.0 0
237478.0 517937.0 0
240615.0 514613.0 0
246252.0 516252.0 0
251765.0 515240.0 0
260270.0 514811.0 0
262603.0 518147.0 0
267520.0 516936.0 0
274268.0 516026.0 0
278679.0 515888.0 0
282233.0 516872.0 0
285110.0 514415.0 0
290428.0 515320.0 0
296653.0 515231.0 0
302412.0 514406.0 0
300425.0 518835.0 0
304810.0 518076.0 0
308461.0 514373.0 0
314689.0 519217.0 0
319651.0 516937.0 0
325754.0 515267.0 0
331914.0 515025.0 0
337275.0 519066.0 0
341173.0 516047.0 0
345550.0 515075.0 0
346801.0 519821.0 0
350847.0 516583.0 0
355642.0 517882.0 0
360707.0 517738.0 0
369662.0 519414.0 0
373494.0 517550.0 0
375714.0 514272.0 0
380096.0 516159.0 0
376766.0 518219.0 0
384177.0 518817.0 0
388265.0 517264.0 0
393338.0 516060.0 0
399214.0 517212.0 0
405967.0 517959.0 0
410979.0 519281.0 0
414215.0 518175.0 0
417713.0 519566.0 0
421440.0 517532.0 0
425022.0 520010.0 0
430220.0 521446.0 0
435674.0 519163.0 0
440818.0 518013.0 0
446855.0 518604.0 0
452171.0 517920.0 0
457966.0 517352.0 0
463768.0 519198.0 0
469356.0 521385.0 0
472772.0 517970.0 0
478246.0 520495.0 0
482398.0 519502.0 0
487617.0 519083.0 0
491730.0 521295.0 0
497175.0 521002.0 0
2612.19 524866.0 0
6869.73 522484.0 0
9439.92 525655.0 0
6706.33 526474.0 0
12721.6 522259.0 0
19382.4 522443.0 0
16457.7 524969.0 0
23844.6 525297.0 0
28868.1 526725.0 0
32545.3 523516.0 0
37553.3 524408.0 0
44414.2 521978.0 0
47451.9 524770.0 0
49537.4 521621.0 0
51610.8 525866.0 0
53661.0 521919.0 0
57672.4 523019.0 0
61940.4 522473.0 0
65405.4 525352.0 0
70793.4 525285.0 0
72908.5 521399.0 0
75945.1 525001.0 0
84099.1 522148.0 0
87961.8 519698.0 0
92117.9 522596.0 0
96284.4 521907.0 0
99737.6 520535.0 0
103485.0 520634.0 0
105328.0 524433.0 0
111233.0 521856.0 0
109353.0 524873.0 0
115358.0 523946.0 0
119740.0 520979.0 0
127979.0 521444.0 0
124696.0 522879.0 0
131473.0 523955.0 0
136392.0 522021.0 0
134344.0 524954.0 0
141819.0 522225.0 0
147156.0 521825.0 0
151320.0 521834.0 0
159293.0 521121.0 0
154959.0 522431.0 0
165485.0 521589.0 0
170616.0 520477.0 0
175642.0 523332.0 0
179936.0 521215.0 0
183713.0 519324.0 0
187583.0 522016.0 0
192376.0 519496.0 0
197556.0 520032.0 0
203201.0 518735.0 0
209239.0 519752.0 0
219842.0 520367.0 0
214492.0 523838.0 0
228532.0 521501.0 0
232962.0 523412.0 0
237109.0 521844.0 0
241832.0 520202.0 0
246455.0 523674.0 0
250043.0 519535.0 0
252209.0 524001.0 0
256456.0 519111.0 0
260876.0 522688.0 0
265891.0 522643.0 0
271657.0 520806.0 0
277052.0 519943.0 0
279910.0 523267.0 0
281222.0 519837.0 0
286014.0 519831.0 0
291511.0 520541.0 0
296660.0 520074.0 0
299567.0 523713.0 0
303291.0 521638.0 0
309928.0 518973.0 0
307325.0 522086.0 0
311775.0 523604.0 0
319129.0 521345.0 0
323729.0 520381.0 0
324808.0 524410.0 0
328509.0 519287.0 0
327639.0 523288.0 0
332350.0 522485.0 0
337132.0 524221.0 0
342574.0 519574.0 0
340832.0 522772.0 0
349028.0 524133.0 0
352898.0 521330.0 0
358816.0 522900.0 0
364575.0 520008.0 0
369615.0 524323.0 0
374621.0 522211.0 0
380027.0 521029.0 0
384356.0 523152.0 0
387227.0 520805.0 0
388352.0 524121.0 0
390915.0 520612.0 0
392507.0 524592.0 0
395877.0 521555.0 0
401420.0 522019.0 0
405606.0 523267.0 0
409490.0 522813.0 0
413999.0 522068.0 0
421341.0 522225.0 0
417736.0 525144.0 0
425504.0 523902.0 0
432687.0 526767.0 0
435260.0 523507.0 0
439628.0 523050.0 0
443663.0 521932.0 0
447137.0 523867.0 0
450585.0 521706.0 0
451715.0 526388.0 0
454987.0 522162.0 0
457353.0 526474.0 0
460132.0 522512.0 0
461171.0 525901.0 0
464419.0 523791.0 0
468469.0 526686.0 0
475076.0 520994.0 0
473565.0 525099.0 0
478524.0 523901.0 0
482762.0 524516.0 0
486790.0 522667.0 0
490064.0 525426.0 0
498399.0 524548.0 0
494507.0 525258.0 0
3508.84 529828.0 0
8992.17 530170.0 0
12619.6 527641.0 0
19692.6 526359.0 0
16918.2 528792.0 0
22127.0 530023.0 0
25759.2 529041.0 0
33849.1 528950.0 0
38791.5 528449.0 0
41924.5 525901.0 0
42156.3 530355.0 0
45799.5 528046.0 0
49554.1 530015.0 0
56222.0 526932.0 0
53744.1 530067.0 0
60354.8 526569.0 0
58480.5 530797.0 0
63011.1 529796.0 0
68321.9 529436.0 0
73068.0 529462.0 0
77441.8 529533.0 0
81794.1 526796.0 0
88034.1 525661.0 0
91408.5 529573.0 0
94334.8 526052.0 0
99851.3 525383.0 0
103888.0 527556.0 0
107496.0 528860.0 0
111750.0 527440.0 0
116008.0 529415.0 0
121220.0 525988.0 0
127053.0 526086.0 0
124588.0 529731.0 0
133083.0 527999.0 0
139094.0 526215.0 0
136616.0 529318.0 0
144440.0 527184.0 0
150873.0 526053.0 0
155416.0 526511.0 0
158213.0 529157.0 0
160352.0 525124.0 0
162387.0 528885.0 0
168829.0 525032.0 0
164695.0 525864.0 0
172728.0 526694.0 0
179974.0 525780.0 0
183954.0 524657.0 0
182601.0 529153.0 0
187755.0 528028.0 0
192693.0 524619.0 0
197645.0 524959.0 0
199148.0 528860.0 0
203290.0 525280.0 0
209270.0 525274.0 0
211277.0 529107.0 0
219349.0 525529.0 0
224306.0 524763.0 0
228731.0 525593.0 0
231824.0 527792.0 0
237389.0 527221.0 0
240882.0 524183.0 0
243366.0 528246.0 0
248991.0 529004.0 0
254916.0 528964.0 0
257171.0 524750.0 0
261419.0 527864.0 0
268171.0 528862.0 0
272408.0 525588.0 0
275144.0 528749.0 0
275813.0 524129.0 0
279201.0 527157.0 0
284181.0 525381.0 0
289067.0 524473.0 0
294261.0 524879.0 0
292550.0 529299.0 0
304274.0 525527.0 0
301040.0 527994.0 0
309161.0 528434.0 0
314479.0 529449.0 0
316557.0 525131.0 0
320248.0 529551.0 0
321404.0 524848.0 0
325119.0 528065.0 0
329252.0 526797.0 0
333913.0 528249.0 0
338291.0 527419.0 0
344458.0 524075.0 0
341397.0 526385.0 0
344795.0 528117.0 0
348983.0 528592.0 0
353540.0 525916.0 0
357419.0 528812.0 0
364807.0 524964.0 0
362507.0 529040.0 0
367901.0 529356.0 0
373613.0 527713.0 0
379910.0 526551.0 0
385496.0 527305.0 0
390172.0 528515.0 0
394867.0 528051.0 0
398529.0 526112.0 0
400869.0 529690.0 0
403220.0 526472.0 0
407681.0 526942.0 0
412959.0 527331.0 0
418032.0 529626.0 0
422508.0 527526.0 0
427983.0 527282.0 0
434012.0 530976.0 0
437875.0 527870.0 0
442499.0 529626.0 0
443374.0 525642.0 0
446944.0 528290.0 0
454865.0 530063.0 0
459299.0 531060.0 0
463929.0 528490.0 0
467802.0 530847.0 0
471908.0 529660.0 0
477154.0 528945.0 0
482324.0 529245.0 0
486419.0 526606.0 0
487113.0 530263.0 0
492245.0 529746.0 0
497997.0 527608.0 0
1353.18 533237.0 0
2676.65 536266.0 0
6484.77 533806.0 0
14128.5 531912.0 0
10716.4 534948.0 0
18948.3 532955.0 0
23955.9 534176.0 0
28565.1 531554.0 0
27702.9 535657.0 0
32813.4 534958.0 0
37982.1 532735.0 0
42427.8 535085.0 0
46131.6 532450.0 0
49958.1 534023.0 0
54630.8 534460.0 0
62301.3 533148.0 0
59468.1 535618.0 0
65813.0 532765.0 0
70285.9 533638.0 0
75869.0 534255.0 0
80763.8 532110.0 0
86327.1 531660.0 0
92492.1 533793.0 0
96212.0 530296.0 0
101987.0 531257.0 0
107065.0 534217.0 0
111449.0 531603.0 0
116570.0 534433.0 0
120603.0 531526.0 0
121208.0 534677.0 0
124611.0 534107.0 0
129075.0 530997.0 0
134007.0 532294.0 0
138145.0 534216.0 0
140221.0 530329.0 0
143358.0 533989.0 0
148516.0 531489.0 0
153776.0 530440.0 0
157400.0 533864.0 0
161653.0 532465.0 0
164265.0 534116.0 0
167551.0 530706.0 0
173467.0 530863.0 0
178249.0 530281.0 0
180894.0 534337.0 0
184806.0 532369.0 0
193334.0 529582.0 0
197133.0 533526.0 0
202355.0 531742.0 0
206993.0 529984.0 0
211334.0 533650.0 0
216014.0 529358.0 0
221601.0 529574.0 0
227212.0 530447.0 0
232893.0 532745.0 0
237778.0 532478.0 0
242403.0 533727.0 0
258641.0 532818.0 0
263418.0 532704.0 0
272783.0 533786.0 0
277923.0 532767.0 0
282356.0 530388.0 0
287836.0 529517.0 0
291568.0 534038.0 0
296986.0 529700.0 0
304309.0 529404.0 0
301369.0 532336.0 0
306124.0 533054.0 0
311432.0 534225.0 0
316909.0 533557.0 0
324468.0 533340.0 0
329348.0 531216.0 0
334487.0 534107.0 0
340343.0 531582.0 0
346435.0 532760.0 0
352873.0 532832.0 0
360001.0 532923.0 0
364668.0 533312.0 0
371789.0 531540.0 0
374894.0 534502.0 0
377150.0 530810.0 0
379843.0 533303.0 0
383267.0 531061.0 0
387722.0 532996.0 0
393543.0 532087.0 0
397596.0 531113.0 0
401387.0 534091.0 0
396783.0 534943.0 0
404938.0 530716.0 0
406810.0 534812.0 0
409708.0 531227.0 0
411763.0 535430.0 0
414591.0 531999.0 0
418313.0 533450.0 0
421789.0 531968.0 0
425546.0 531098.0 0
429860.0 531511.0 0
437793.0 533150.0 0
442146.0 533752.0 0
446441.0 532589.0 0
450856.0 531347.0 0
450050.0 535799.0 0
455000.0 534517.0 0
460062.0 535761.0 0
464155.0 533162.0 0
470340.0 533154.0 0
472079.0 536349.0 0
474537.0 533049.0 0
479429.0 533957.0 0
484336.0 533721.0 0
489325.0 534035.0 0
497289.0 531469.0 0
498218.0 535206.0 0
2371.83 540888.0 0
6772.02 538630.0 0
11715.5 540626.0 0
15880.9 536828.0 0
20611.4 540761.0 0
20734.2 536981.0 0
24905.8 539127.0 0
29711.6 538777.0 0
33848.1 540408.0 0
37148.2 537198.0 0
40121.5 538166.0 0
46957.6 536676.0 0
43732.2 540263.0 0
51128.4 538282.0 0
55947.9 539451.0 0
60718.0 540038.0 0
63978.0 536417.0 0
64594.7 540294.0 0
68359.3 538131.0 0
72402.6 537351.0 0
77456.7 539497.0 0
80425.0 536066.0 0
82671.3 539951.0 0
83837.8 535870.0 0
88482.6 537997.0 0
97457.0 535367.0 0
94154.5 539274.0 0
102417.0 536405.0 0
105140.0 540166.0 0
108614.0 537955.0 0
111987.0 536161.0 0
115728.0 539137.0 0
120065.0 537325.0 0
124738.0 539652.0 0
128806.0 536150.0 0
132790.0 536084.0 0
136290.0 538890.0 0
141259.0 538583.0 0
146931.0 537917.0 0
152337.0 535510.0 0
156740.0 539620.0 0
161622.0 536685.0 0
166871.0 536756.0 0
171421.0 534734.0 0
171355.0 539377.0 0
176147.0 534652.0 0
184942.0 536093.0 0
190166.0 534700.0 0
196765.0 539248.0 0
201344.0 537045.0 0
206054.0 535198.0 0
209987.0 539167.0 0
216708.0 534986.0 0
221915.0 534572.0 0
219819.0 539058.0 0
227301.0 535205.0 0
224922.0 538787.0 0
230758.0 538490.0 0
236748.0 537214.0 0
248108.0 534916.0 0
253586.0 534100.0 0
257775.0 537884.0 0
263056.0 538142.0 0
267456.0 535082.0 0
273203.0 539105.0 0
278824.0 538621.0 0
281324.0 534490.0 0
285735.0 535012.0 0
289176.0 538419.0 0
293189.0 538986.0 0
297232.0 535726.0 0
307285.0 537656.0 0
320645.0 536087.0 0
316462.0 538504.0 0
324235.0 539171.0 0
329255.0 536566.0 0
333285.0 538363.0 0
338685.0 536581.0 0
343111.0 536030.0 0
347300.0 538494.0 0
353092.0 539549.0 0
357434.0 536725.0 0
362016.0 537156.0 0
366141.0 537249.0 0
369484.0 534731.0 0
374675.0 538597.0 0
379438.0 538460.0 0
383444.0 535147.0 0
386769.0 537600.0 0
392105.0 536895.0 0
399297.0 539066.0 0
404059.0 538015.0 0
408389.0 538915.0 0
412880.0 539383.0 0
416800.0 537469.0 0
421892.0 536360.0 0
425220.0 540255.0 0
427326.0 535506.0 0
430321.0 539963.0 0
432903.0 535635.0 0
439648.0 538029.0 0
445086.0 537368.0 0
448669.0 540305.0 0
453097.0 539308.0 0
457103.0 538611.0 0
463862.0 537204.0 0
467735.0 536008.0 0
466221.0 540270.0 0
469981.0 539254.0 0
475887.0 536684.0 0
478745.0 539078.0 0
482635.0 537853.0 0
486610.0 537306.0 0
485884.0 540832.0 0
490377.0 538149.0 0
494139.0 535433.0 0
493759.0 540176.0 0
497720.0 538658.0 0
2432.88 545264.0 0
6181.75 543146.0 0
14558.8 544386.0 0
16825.0 541213.0 0
19544.9 545560.0 0
24709.6 544302.0 0
28533.6 542457.0 0
31947.2 544655.0 0
36459.5 545785.0 0
38467.8 541372.0 0
41381.5 544828.0 0
45488.1 544491.0 0
48598.2 541823.0 0
53066.7 543739.0 0
58124.1 543498.0 0
62990.7 544786.0 0
67570.7 542519.0 0
72470.9 541751.0 0
76735.5 543524.0 0
79654.5 542687.0 0
82343.7 544011.0 0
86189.1 543416.0 0
90499.6 543026.0 0
95116.4 544276.0 0
99512.8 540536.0 0
110678.0 541687.0 0
115580.0 543944.0 0
119737.0 541567.0 0
119173.0 545208.0 0
122973.0 544706.0 0
128135.0 544502.0 0
131250.0 540230.0 0
138358.0 543091.0 0
144233.0 542139.0 0
151132.0 540443.0 0
163930.0 540646.0 0
160458.0 543909.0 0
167592.0 540716.0 0
165238.0 544686.0 0
169363.0 543736.0 0
176532.0 539468.0 0
174059.0 543889.0 0
178905.0 543719.0 0
181829.0 539494.0 0
182964.0 543997.0 0
186931.0 539679.0 0
191724.0 540885.0 0
197673.0 543749.0 0
200814.0 541398.0 0
204889.0 540068.0 0
207749.0 543341.0 0
212926.0 543589.0 0
215016.0 539504.0 0
217498.0 543008.0 0
221836.0 543985.0 0
227004.0 543981.0 0
232628.0 544098.0 0
237497.0 542506.0 0
241746.0 539713.0 0
247303.0 540905.0 0
252815.0 539376.0 0
260000.0 541727.0 0
256199.0 542823.0 0
263404.0 543095.0 0
268241.0 540356.0 0
272110.0 543394.0 0
276756.0 544269.0 0
284482.0 540523.0 0
281576.0 543739.0 0
288999.0 542684.0 0
293985.0 543817.0 0
297174.0 540575.0 0
299292.0 544070.0 0
302026.0 539531.0 0
306396.0 541779.0 0
311816.0 539681.0 0
315450.0 543607.0 0
320032.0 539221.0 0
320509.0 542804.0 0
330930.0 542908.0 0
336864.0 540712.0 0
342010.0 540098.0 0
345533.0 543596.0 0
350022.0 543549.0 0
359323.0 540656.0 0
359982.0 545048.0 0
364764.0 542049.0 0
370652.0 540210.0 0
375473.0 542079.0 0
379893.0 544422.0 0
384177.0 541444.0 0
389224.0 541522.0 0
394631.0 542166.0 0
400173.0 544198.0 0
405102.0 542476.0 0
410968.0 542650.0 0
416050.0 542510.0 0
420397.0 540778.0 0
423178.0 544230.0 0
432500.0 542092.0 0
428416.0 544733.0 0
435108.0 540214.0 0
439255.0 543120.0 0
442957.0 544644.0 0
445763.0 542993.0 0
442914.0 541307.0 0
451083.0 544546.0 0
456287.0 542935.0 0
461281.0 540707.0 0
466174.0 544952.0 0
469570.0 542565.0 0
474222.0 541428.0 0
477341.0 545367.0 0
481661.0 543030.0 0
489555.0 541692.0 0
486847.0 545697.0 0
492472.0 544807.0 0
497356.0 543072.0 0
5236.16 549186.0 0
9894.45 546128.0 0
14617.6 548810.0 0
24063.3 548911.0 0
28287.3 547287.0 0
32613.3 548915.0 0
40033.8 549075.0 0
44945.5 548430.0 0
48940.7 546196.0 0
48605.4 549618.0 0
52415.8 548877.0 0
56340.6 546956.0 0
68342.7 546834.0 0
74189.1 547791.0 0
79359.3 546107.0 0
83850.0 547873.0 0
89470.6 547601.0 0
96551.0 549363.0 0
100445.0 545649.0 0
105900.0 545569.0 0
111499.0 547754.0 0
116345.0 547884.0 0
120404.0 548815.0 0
125179.0 548795.0 0
129760.0 549421.0 0
133885.0 545445.0 0
137474.0 549297.0 0
141414.0 546439.0 0
145197.0 548708.0 0
148772.0 545209.0 0
155071.0 545737.0 0
162909.0 548135.0 0
168258.0 548986.0 0
173280.0 548227.0 0
177775.0 548443.0 0
183294.0 548466.0 0
187515.0 544837.0 0
192754.0 546009.0 0
196900.0 547534.0 0
203718.0 544650.0 0
201193.0 549109.0 0
206605.0 548862.0 0
212602.0 549282.0 0
217936.0 547473.0 0
222460.0 548571.0 0
227002.0 549153.0 0
231768.0 549274.0 0
236888.0 547741.0 0
244140.0 544995.0 0
240459.0 545142.0 0
241832.0 548654.0 0
251641.0 544613.0 0
253614.0 549299.0 0
257949.0 547002.0 0
262827.0 547893.0 0
267326.0 545562.0 0
271821.0 548008.0 0
280554.0 548141.0 0
284122.0 545766.0 0
287786.0 547455.0 0
292321.0 548232.0 0
296916.0 548083.0 0
304031.0 545643.0 0
309899.0 544655.0 0
307447.0 549240.0 0
312012.0 549390.0 0
316886.0 548761.0 0
325011.0 544590.0 0
321102.0 547085.0 0
330322.0 549204.0 0
334788.0 548648.0 0
335987.0 545179.0 0
340399.0 544850.0 0
338773.0 549311.0 0
344515.0 549346.0 0
350408.0 548213.0 0
354782.0 545048.0 0
364297.0 547210.0 0
369403.0 545556.0 0
371784.0 549041.0 0
375125.0 546455.0 0
384873.0 546137.0 0
390219.0 546448.0 0
395911.0 547843.0 0
400160.0 548132.0 0
404040.0 547647.0 0
408513.0 546207.0 0
410345.0 549921.0 0
413483.0 546825.0 0
419044.0 547097.0 0
424698.0 548843.0 0
430143.0 550159.0 0
434409.0 545762.0 0
440255.0 548220.0 0
446258.0 546656.0 0
449846.0 549718.0 0
455383.0 548507.0 0
460722.0 545967.0 0
460016.0 550534.0 0
464693.0 549960.0 0
471313.0 546322.0 0
475677.0 550251.0 0
480985.0 548106.0 0
485087.0 550728.0 0
490947.0 550193.0 0
496778.0 548420.0 0
2056.83 552771.0 0
10163.3 551617.0 0
6283.78 553436.0 0
14707.0 553483.0 0
19436.8 551291.0 0
24552.3 554589.0 0
29314.6 551709.0 0
36063.5 550746.0 0
34343.9 554448.0 0
38941.5 553549.0 0
42834.8 551954.0 0
46624.2 552375.0 0
50046.5 551967.0 0
53534.1 553430.0 0
57967.3 551035.0 0
64015.4 551051.0 0
69844.6 551452.0 0
67780.5 555672.0 0
75695.8 552503.0 0
79354.5 550526.0 0
78307.3 555287.0 0
82415.2 553941.0 0
86674.5 552162.0 0
92018.9 552797.0 0
101952.0 550536.0 0
97526.5 554710.0 0
106878.0 550560.0 0
102427.0 555329.0 0
110692.0 553414.0 0
115209.0 551554.0 0
119789.0 554054.0 0
126270.0 554500.0 0
131511.0 553178.0 0
133621.0 550208.0 0
135043.0 553339.0 0
139499.0 553961.0 0
144893.0 553242.0 0
148944.0 550471.0 0
153554.0 551176.0 0
156328.0 554054.0 0
158733.0 550505.0 0
163481.0 552700.0 0
168121.0 554661.0 0
174149.0 553589.0 0
180401.0 553035.0 0
185540.0 553861.0 0
189424.0 550224.0 0
193424.0 553879.0 0
194204.0 550009.0 0
198165.0 553373.0 0
203500.0 554058.0 0
208734.0 553570.0 0
218567.0 552537.0 0
222940.0 552493.0 0
226855.0 553999.0 0
237435.0 553193.0 0
242620.0 553323.0 0
247561.0 549599.0 0
252287.0 554215.0 0
257689.0 552861.0 0
262751.0 552566.0 0
267307.0 550807.0 0
272356.0 553891.0 0
276028.0 550029.0 0
279259.0 553361.0 0
284818.0 552261.0 0
291263.0 553515.0 0
297629.0 553497.0 0
301281.0 549786.0 0
303048.0 554065.0 0
308008.0 554323.0 0
312185.0 553501.0 0
320643.0 551014.0 0
325023.0 549889.0 0
328278.0 554242.0 0
334215.0 553760.0 0
340477.0 554298.0 0
351110.0 553460.0 0
354955.0 550236.0 0
360469.0 550662.0 0
367508.0 550547.0 0
371883.0 553027.0 0
375075.0 550481.0 0
376465.0 554235.0 0
380920.0 550466.0 0
386937.0 550497.0 0
391757.0 551243.0 0
395888.0 552951.0 0
401071.0 552630.0 0
406606.0 552003.0 0
411790.0 554022.0 0
415716.0 551148.0 0
420780.0 552681.0 0
426194.0 553755.0 0
431852.0 555210.0 0
435658.0 551711.0 0
440455.0 553847.0 0
445014.0 551498.0 0
452698.0 553087.0 0
457145.0 553769.0 0
461938.0 554446.0 0
466403.0 554350.0 0
469843.0 551232.0 0
472910.0 554953.0 0
477449.0 555620.0 0
480654.0 552522.0 0
483747.0 555404.0 0
488245.0 554646.0 0
497050.0 553991.0 0
4013.47 556491.0 0
2098.34 560179.0 0
8965.82 556534.0 0
6263.61 560205.0 0
13660.2 557760.0 0
18558.4 556476.0 0
22240.8 560412.0 0
30417.3 555850.0 0
27793.9 559778.0 0
37700.3 558094.0 0
43400.8 556582.0 0
49246.0 556032.0 0
53429.9 557784.0 0
56027.9 559999.0 0
57740.1 556295.0 0
62924.4 557059.0 0
70215.5 559911.0 0
72629.9 555302.0 0
75737.5 559906.0 0
86985.6 556998.0 0
81934.3 559168.0 0
93152.4 558641.0 0
98206.3 559594.0 0
106755.0 556470.0 0
102996.0 560125.0 0
110697.0 559399.0 0
114832.0 556309.0 0
122012.0 559198.0 0
131291.0 557319.0 0
135546.0 557025.0 0
143227.0 557970.0 0
139024.0 558536.0 0
150182.0 555704.0 0
155421.0 557961.0 0
159726.0 555450.0 0
159599.0 559725.0 0
163932.0 557840.0 0
168312.0 559028.0 0
171959.0 558535.0 0
177065.0 558449.0 0
181977.0 558345.0 0
186586.0 558015.0 0
189619.0 555484.0 0
192916.0 558320.0 0
197094.0 557489.0 0
208780.0 558249.0 0
213715.0 555240.0 0
217523.0 559167.0 0
222015.0 556516.0 0
226223.0 558818.0 0
232201.0 554529.0 0
236908.0 559330.0 0
242616.0 558365.0 0
247235.0 555940.0 0
251102.0 559015.0 0
255800.0 558086.0 0
261887.0 558170.0 0
266118.0 556271.0 0
276825.0 559062.0 0
282287.0 556866.0 0
287125.0 558178.0 0
292611.0 559494.0 0
300402.0 558494.0 0
311947.0 558062.0 0
317031.0 554625.0 0
323147.0 554631.0 0
323246.0 559168.0 0
330087.0 557843.0 0
327012.0 558380.0 0
333352.0 559083.0 0
338099.0 559225.0 0
346427.0 554783.0 0
343846.0 559482.0 0
356269.0 555194.0 0
362211.0 556904.0 0
367964.0 555836.0 0
373010.0 558149.0 0
380625.0 556489.0 0
386012.0 555764.0 0
383404.0 559926.0 0
392178.0 556619.0 0
398209.0 557937.0 0
403195.0 557416.0 0
407574.0 556592.0 0
412516.0 559404.0 0
416606.0 555825.0 0
418640.0 560224.0 0
422942.0 557577.0 0
428154.0 558238.0 0
433152.0 559735.0 0
436635.0 556839.0 0
440610.0 558172.0 0
444423.0 556615.0 0
448793.0 555125.0 0
453978.0 557306.0 0
458785.0 558525.0 0
464403.0 557865.0 0
469112.0 557884.0 0
474414.0 559887.0 0
480917.0 559964.0 0
486766.0 559182.0 0
492753.0 557209.0 0
497644.0 559015.0 0
1810.61 563866.0 0
7585.7 565157.0 0
10622.8 560975.0 0
13392.0 565025.0 0
16835.2 561319.0 0
20011.3 565474.0 0
25308.0 564780.0 0
29819.8 564120.0 0
33044.0 560474.0 0
38743.3 562813.0 0
42731.3 561494.0 0
41745.0 564368.0 0
45046.5 565000.0 0
47156.4 560632.0 0
48882.8 564163.0 0
52677.2 562127.0 0
59701.5 561078.0 0
56935.8 565371.0 0
65490.3 561512.0 0
78993.8 564469.0 0
84231.7 564401.0 0
88572.5 561644.0 0
93566.0 564639.0 0
98853.2 563850.0 0
106724.0 563489.0 0
111600.0 564423.0 0
116144.0 561484.0 0
120801.0 564403.0 0
127399.0 560796.0 0
124940.0 564379.0 0
132919.0 562151.0 0
129424.0 564798.0 0
138004.0 562519.0 0
143215.0 563351.0 0
148244.0 561034.0 0
153738.0 563542.0 0
159542.0 563838.0 0
164022.0 562955.0 0
169304.0 563555.0 0
174352.0 562053.0 0
179607.0 563837.0 0
185332.0 562700.0 0
189353.0 560445.0 0
193077.0 563461.0 0
198670.0 561895.0 0
203921.0 559616.0 0
208033.0 562839.0 0
212769.0 560066.0 0
222225.0 561818.0 0
227386.0 563820.0 0
231003.0 559749.0 0
244041.0 563778.0 0
247447.0 560372.0 0
249788.0 563560.0 0
259287.0 562796.0 0
265538.0 561061.0 0
268459.0 563996.0 0
270519.0 559626.0 0
273133.0 564099.0 0
282740.0 561838.0 0
287987.0 563752.0 0
296863.0 561913.0 0
301552.0 564079.0 0
306366.0 559624.0 0
311837.0 564174.0 0
317993.0 561290.0 0
323175.0 564435.0 0
329234.0 563168.0 0
335359.0 563314.0 0
350798.0 559619.0 0
346856.0 564228.0 0
357236.0 560947.0 0
364059.0 562840.0 0
368527.0 560611.0 0
372505.0 563784.0 0
378006.0 561015.0 0
382423.0 564168.0 0
388216.0 561508.0 0
394289.0 562299.0 0
401858.0 561273.0 0
398806.0 563653.0 0
406935.0 561815.0 0
411689.0 564557.0 0
416281.0 564143.0 0
421168.0 564588.0 0
425072.0 561802.0 0
429653.0 562843.0 0
435412.0 562125.0 0
433515.0 563684.0 0
438677.0 561852.0 0
443744.0 561501.0 0
449701.0 560760.0 0
455137.0 561579.0 0
461632.0 561851.0 0
463417.0 565307.0 0
465893.0 561733.0 0
470170.0 562234.0 0
472987.0 565537.0 0
477333.0 563858.0 0
485541.0 564372.0 0
491187.0 562401.0 0
496625.0 563749.0 0
2700.21 568092.0 0
12417.3 569825.0 0
23540.4 569467.0 0
28422.6 568357.0 0
34620.5 566199.0 0
40825.2 568024.0 0
47969.4 566635.0 0
46166.4 569888.0 0
51706.3 567361.0 0
55689.9 570056.0 0
60451.4 570040.0 0
62245.6 565370.0 0
65866.5 569528.0 0
68530.3 565163.0 0
73584.7 565525.0 0
77233.1 568806.0 0
81676.8 568656.0 0
86070.9 569778.0 0
88668.6 566358.0 0
97632.4 568429.0 0
102576.0 566755.0 0
107598.0 568683.0 0
116439.0 566433.0 0
112850.0 569056.0 0
121652.0 569536.0 0
126769.0 568098.0 0
132591.0 568357.0 0
139109.0 568144.0 0
144672.0 568203.0 0
148560.0 565963.0 0
153086.0 569082.0 0
157513.0 567848.0 0
162887.0 568240.0 0
168553.0 569025.0 0
174317.0 567668.0 0
188740.0 566265.0 0
183882.0 568148.0 0
192904.0 569187.0 0
198960.0 569348.0 0
203389.0 565211.0 0
208299.0 568421.0 0
212662.0 564806.0 0
217967.0 565123.0 0
219256.0 569234.0 0
214967.0 569556.0 0
222739.0 567985.0 0
229381.0 568632.0 0
232813.0 564675.0 0
234212.0 569685.0 0
238322.0 565866.0 0
242772.0 569207.0 0
247906.0 568241.0 0
254128.0 564802.0 0
252283.0 568221.0 0
256328.0 569123.0 0
264200.0 564833.0 0
261214.0 568180.0 0
265789.0 568727.0 0
270228.0 568101.0 0
278346.0 565428.0 0
283182.0 568047.0 0
288598.0 569553.0 0
293114.0 564722.0 0
294134.0 569499.0 0
297212.0 566308.0 0
299833.0 568925.0 0
304410.0 569010.0 0
306535.0 564711.0 0
309099.0 568664.0 0
314875.0 568912.0 0
316161.0 565636.0 0
319243.0 566880.0 0
327576.0 569724.0 0
334687.0 568605.0 0
340971.0 565405.0 0
346638.0 568836.0 0
351201.0 565584.0 0
350668.0 569569.0 0
355338.0 565749.0 0
359800.0 565680.0 0
363181.0 569072.0 0
367929.0 566398.0 0
372702.0 570136.0 0
377653.0 566319.0 0
382067.0 568443.0 0
387277.0 567757.0 0
394020.0 568448.0 0
399035.0 568784.0 0
402890.0 566215.0 0
407875.0 566713.0 0
412460.0 569680.0 0
417947.0 568646.0 0
426161.0 566533.0 0
431601.0 567499.0 0
436723.0 566269.0 0
441235.0 565469.0 0
442532.0 570360.0 0
446900.0 566265.0 0
452485.0 565940.0 0
458286.0 565824.0 0
462412.0 569077.0 0
467866.0 566102.0 0
470743.0 569341.0 0
476784.0 567682.0 0
480750.0 566477.0 0
484177.0 569193.0 0
490506.0 568170.0 0
497372.0 568833.0 0
2540.42 573136.0 0
7466.71 571027.0 0
11157.0 573359.0 0
14425.4 575080.0 0
17845.0 570906.0 0
27034.9 573205.0 0
32271.9 571714.0 0
37017.0 570805.0 0
38382.0 574957.0 0
42179.0 572596.0 0
47463.2 574918.0 0
51645.5 572424.0 0
57586.5 573884.0 0
63277.3 573966.0 0
71179.1 570319.0 0
68255.0 574333.0 0
75403.0 572894.0 0
80899.9 573903.0 0
87301.4 573975.0 0
91858.0 570699.0 0
97205.9 573854.0 0
102977.0 572344.0 0
110292.0 573702.0 0
116849.0 572960.0 0
123699.0 574027.0 0
128506.0 573091.0 0
132951.0 573465.0 0
137343.0 573753.0 0
143275.0 573503.0 0
148631.0 570840.0 0
154947.0 573100.0 0
159393.0 571764.0 0
165442.0 572304.0 0
169785.0 574426.0 0
174613.0 573107.0 0
179083.0 571143.0 0
183330.0 574793.0 0
188103.0 571888.0 0
192919.0 573989.0 0
196729.0 573963.0 0
203834.0 569764.0 0
202636.0 573940.0 0
207694.0 573870.0 0
212332.0 573650.0 0
217833.0 574267.0 0
222972.0 573127.0 0
226954.0 571968.0 0
230980.0 573802.0 0
238632.0 570869.0 0
235909.0 574185.0 0
240743.0 574480.0 0
245942.0 573774.0 0
251655.0 572511.0 0
257658.0 574032.0 0
262754.0 573020.0 0
268249.0 573095.0 0
275021.0 569998.0 0
278465.0 574274.0 0
282904.0 572636.0 0
286848.0 574767.0 0
292172.0 574437.0 0
297817.0 572958.0 0
302956.0 574063.0 0
307950.0 573059.0 0
311691.0 571181.0 0
317236.0 573385.0 0
321913.0 570723.0 0
332196.0 574140.0 0
338909.0 569828.0 0
338197.0 573958.0 0
342631.0 571103.0 0
348065.0 573312.0 0
352618.0 572939.0 0
357480.0 570386.0 0
367164.0 570758.0 0
362100.0 574701.0 0
378833.0 571403.0 0
381485.0 574576.0 0
383772.0 571872.0 0
390135.0 573745.0 0
395080.0 574491.0 0
397780.0 572084.0 0
402121.0 571559.0 0
407269.0 570891.0 0
405325.0 574981.0 0
410556.0 575101.0 0
416502.0 574103.0 0
422886.0 570834.0 0
428084.0 570709.0 0
426317.0 574189.0 0
432047.0 572574.0 0
436960.0 571359.0 0
440119.0 574940.0 0
447937.0 571471.0 0
451856.0 574286.0 0
454884.0 570397.0 0
459310.0 571470.0 0
461683.0 575034.0 0
466494.0 570933.0 0
470647.0 573375.0 0
474365.0 570748.0 0
479385.0 571378.0 0
483603.0 572960.0 0
487137.0 571740.0 0
491840.0 573973.0 0
497348.0 573935.0 0
2118.16 577558.0 0
6973.17 576658.0 0
11766.1 578365.0 0
17380.5 578477.0 0
21901.9 575583.0 0
26733.6 579045.0 0
33125.7 578059.0 0
38854.2 579662.0 0
42927.8 577084.0 0
47087.7 579665.0 0
53403.7 578548.0 0
60217.7 578052.0 0
65367.6 578209.0 0
70061.0 579411.0 0
72248.9 575698.0 0
73971.3 579867.0 0
76871.3 577487.0 0
81764.5 579850.0 0
86908.1 578507.0 0
92088.1 577093.0 0
97846.3 579654.0 0
103961.0 578569.0 0
109589.0 578931.0 0
113723.0 577241.0 0
120482.0 576025.0 0
117754.0 578335.0 0
123169.0 578575.0 0
127905.0 578144.0 0
133662.0 578679.0 0
139670.0 578385.0 0
145342.0 579662.0 0
149707.0 575897.0 0
154239.0 578431.0 0
158870.0 576242.0 0
164274.0 576817.0 0
168601.0 579178.0 0
178023.0 575489.0 0
174178.0 579075.0 0
180181.0 579174.0 0
188350.0 577011.0 0
184672.0 579491.0 0
193082.0 578675.0 0
197031.0 577378.0 0
201094.0 579214.0 0
206804.0 579072.0 0
212903.0 579073.0 0
218474.0 579388.0 0
226508.0 576972.0 0
231920.0 578865.0 0
237331.0 579172.0 0
243030.0 578099.0 0
248053.0 579608.0 0
252352.0 577041.0 0
256416.0 579073.0 0
260880.0 577388.0 0
265600.0 577911.0 0
270204.0 578456.0 0
273297.0 575100.0 0
276214.0 579705.0 0
282571.0 578849.0 0
288775.0 579869.0 0
294534.0 579878.0 0
299634.0 577851.0 0
304568.0 578720.0 0
308585.0 577415.0 0
312409.0 575045.0 0
312141.0 579697.0 0
316708.0 578468.0 0
321919.0 575855.0 0
325027.0 579171.0 0
326703.0 575148.0 0
335888.0 578734.0 0
341307.0 578623.0 0
343673.0 574923.0 0
346090.0 577527.0 0
351200.0 578086.0 0
356199.0 575642.0 0
359061.0 578732.0 0
368728.0 575876.0 0
374026.0 575461.0 0
373484.0 579320.0 0
377735.0 575684.0 0
380871.0 578002.0 0
377324.0 579236.0 0
385256.0 575488.0 0
390572.0 579193.0 0
399789.0 576003.0 0
399097.0 580506.0 0
407792.0 578606.0 0
403726.0 579586.0 0
417460.0 580192.0 0
422001.0 576332.0 0
425761.0 579493.0 0
429884.0 577253.0 0
435380.0 576620.0 0
439919.0 579962.0 0
445032.0 575803.0 0
449776.0 578996.0 0
456804.0 575306.0 0
459747.0 579568.0 0
466516.0 576014.0 0
464525.0 580432.0 0
470705.0 579618.0 0
475391.0 575822.0 0
481091.0 576609.0 0
483046.0 580677.0 0
486585.0 576216.0 0
494043.0 578993.0 0
498265.0 578092.0 0
3365.37 582668.0 0
8671.96 581363.0 0
12757.7 582468.0 0
18282.0 584812.0 0
22117.8 580458.0 0
24660.2 583967.0 0
35866.1 584308.0 0
39409.6 582625.0 0
42937.3 582761.0 0
49638.3 583098.0 0
58179.1 582893.0 0
62930.4 582325.0 0
66816.1 585058.0 0
76866.1 582976.0 0
86063.2 583071.0 0
91158.6 584842.0 0
93788.6 581261.0 0
96332.0 584497.0 0
101550.0 584477.0 0
107430.0 583693.0 0
113394.0 581221.0 0
117584.0 582950.0 0
123243.0 584068.0 0
129301.0 582786.0 0
133340.0 583760.0 0
138530.0 583864.0 0
150278.0 580332.0 0
148486.0 583671.0 0
153549.0 584254.0 0
158457.0 581359.0 0
163707.0 583762.0 0
169965.0 584081.0 0
174817.0 584994.0 0
183843.0 583544.0 0
179178.0 584133.0 0
188597.0 582222.0 0
193089.0 583039.0 0
197293.0 582895.0 0
202926.0 583613.0 0
208445.0 583826.0 0
213091.0 584888.0 0
217873.0 583956.0 0
222764.0 580008.0 0
222675.0 584567.0 0
227863.0 582622.0 0
232958.0 583367.0 0
237408.0 584570.0 0
241554.0 582258.0 0
245609.0 584527.0 0
250003.0 584382.0 0
254908.0 584390.0 0
261331.0 583164.0 0
268101.0 583088.0 0
273701.0 584736.0 0
279404.0 584412.0 0
283664.0 583763.0 0
287140.0 584801.0 0
291497.0 584179.0 0
301393.0 583213.0 0
307930.0 583690.0 0
313603.0 584051.0 0
317872.0 582866.0 0
321179.0 580284.0 0
325844.0 583632.0 0
330187.0 580145.0 0
334627.0 583501.0 0
339627.0 583870.0 0
347024.0 582290.0 0
352390.0 583679.0 0
361332.0 581711.0 0
357043.0 582218.0 0
365848.0 581032.0 0
370630.0 583003.0 0
376113.0 583649.0 0
381217.0 583901.0 0
385337.0 580453.0 0
384929.0 585234.0 0
389948.0 584471.0 0
394713.0 581578.0 0
398081.0 583822.0 0
401629.0 583770.0 0
407062.0 583663.0 0
411577.0 580746.0 0
422291.0 580965.0 0
421735.0 584317.0 0
426112.0 584189.0 0
430989.0 582331.0 0
434438.0 580676.0 0
436261.0 585059.0 0
442027.0 584049.0 0
445043.0 581098.0 0
451380.0 584570.0 0
454839.0 580327.0 0
457243.0 584962.0 0
461773.0 583602.0 0
466011.0 584397.0 0
471531.0 584943.0 0
477930.0 581496.0 0
482371.0 585157.0 0
487922.0 581645.0 0
492986.0 584104.0 0
497870.0 581841.0 0
3708.13 589534.0 0
9515.59 586355.0 0
13923.9 589875.0 0
23896.7 588755.0 0
29783.3 585661.0 0
40722.2 588133.0 0
46880.0 587190.0 0
53695.3 585863.0 0
61521.4 587609.0 0
71995.2 585567.0 0
77374.2 588186.0 0
81696.9 585539.0 0
86380.7 588143.0 0
96078.4 589090.0 0
100975.0 590014.0 0
107058.0 590148.0 0
112933.0 586481.0 0
118444.0 587708.0 0
128173.0 588465.0 0
134651.0 588547.0 0
140289.0 589224.0 0
144084.0 585471.0 0
149263.0 588260.0 0
153795.0 589396.0 0
158754.0 587892.0 0
164624.0 589979.0 0
168549.0 588187.0 0
172674.0 589479.0 0
178424.0 589372.0 0
183507.0 588167.0 0
188619.0 587649.0 0
194543.0 587899.0 0
199666.0 588221.0 0
203164.0 588791.0 0
207256.0 588286.0 0
212241.0 589614.0 0
216999.0 588761.0 0
221953.0 589283.0 0
227080.0 588242.0 0
231975.0 587668.0 0
236857.0 589718.0 0
241581.0 587353.0 0
246641.0 589644.0 0
251642.0 588407.0 0
263623.0 589776.0 0
268840.0 588238.0 0
273111.0 589891.0 0
277918.0 589357.0 0
283557.0 588295.0 0
288043.0 588366.0 0
292725.0 588718.0 0
296144.0 585071.0 0
296131.0 588510.0 0
299911.0 588941.0 0
305781.0 589932.0 0
311701.0 588784.0 0
316812.0 587205.0 0
321005.0 589800.0 0
321554.0 585321.0 0
326029.0 588878.0 0
330361.0 585809.0 0
337470.0 588250.0 0
341966.0 588183.0 0
346830.0 587701.0 0
356372.0 586528.0 0
352149.0 589195.0 0
360759.0 586011.0 0
365718.0 585833.0 0
363412.0 589822.0 0
368387.0 588928.0 0
372633.0 587798.0 0
377620.0 588658.0 0
386760.0 588903.0 0
395279.0 587240.0 0
400907.0 588473.0 0
406884.0 589469.0 0
411832.0 586203.0 0
417504.0 586250.0 0
422947.0 588320.0 0
426953.0 588223.0 0
430034.0 586726.0 0
433027.0 589615.0 0
437187.0 590517.0 0
441395.0 588346.0 0
445735.0 585797.0 0
448804.0 589773.0 0
453928.0 589334.0 0
458414.0 589864.0 0
462946.0 588080.0 0
467978.0 588216.0 0
475808.0 586057.0 0
479011.0 589475.0 0
487209.0 587047.0 0
491654.0 588755.0 0
497488.0 586378.0 0
497982.0 590744.0 0
9258.53 592782.0 0
19326.7 591738.0 0
24397.7 594472.0 0
28295.7 590953.0 0
33880.9 590310.0 0
38883.1 593641.0 0
44546.3 592621.0 0
50865.2 591229.0 0
56512.7 591073.0 0
58602.0 595437.0 0
61537.9 592799.0 0
64773.1 595015.0 0
67175.9 590670.0 0
73059.1 590967.0 0
77390.2 593110.0 0
81696.0 590815.0 0
86171.0 593283.0 0
91155.1 590528.0 0
90351.9 595182.0 0
95167.7 594280.0 0
100643.0 595251.0 0
111665.0 594039.0 0
114919.0 591252.0 0
122477.0 590817.0 0
118296.0 593012.0 0
127077.0 595227.0 0
132174.0 593127.0 0
137502.0 593870.0 0
144948.0 591197.0 0
149067.0 594077.0 0
154359.0 594134.0 0
160100.0 593915.0 0
169023.0 592839.0 0
173457.0 594767.0 0
177820.0 594144.0 0
182188.0 592948.0 0
187288.0 592769.0 0
193020.0 594299.0 0
198148.0 592134.0 0
203032.0 593359.0 0
208821.0 593627.0 0
214157.0 593617.0 0
218433.0 593224.0 0
222544.0 593498.0 0
226788.0 593143.0 0
232150.0 593194.0 0
238088.0 593982.0 0
242033.0 592416.0 0
247106.0 594690.0 0
252087.0 592942.0 0
256985.0 590243.0 0
257602.0 595140.0 0
261131.0 594466.0 0
268854.0 593355.0 0
273831.0 594358.0 0
278363.0 594176.0 0
283133.0 593509.0 0
287367.0 593726.0 0
291594.0 593349.0 0
295980.0 592067.0 0
300521.0 594773.0 0
305575.0 595098.0 0
310553.0 594550.0 0
316382.0 592605.0 0
323219.0 594322.0 0
328481.0 593672.0 0
332641.0 590439.0 0
332691.0 594982.0 0
341744.0 592868.0 0
336828.0 593560.0 0
347210.0 593373.0 0
352589.0 594539.0 0
357977.0 591957.0 0
367160.0 593636.0 0
362589.0 594184.0 0
373091.0 593245.0 0
382102.0 590171.0 0
378459.0 593418.0 0
387263.0 593939.0 0
382708.0 594589.0 0
391238.0 590773.0 0
391698.0 595038.0 0
395864.0 592880.0 0
401195.0 593922.0 0
406487.0 595505.0 0
410744.0 593214.0 0
413686.0 590500.0 0
418398.0 592087.0 0
414254.0 594070.0 0
423923.0 593462.0 0
428835.0 591696.0 0
433288.0 594489.0 0
443185.0 592219.0 0
439714.0 594057.0 0
446554.0 594314.0 0
452146.0 594601.0 0
456796.0 593357.0 0
460802.0 593762.0 0
465856.0 592804.0 0
473007.0 590668.0 0
484196.0 591325.0 0
480268.0 594335.0 0
488512.0 590936.0 0
494276.0 591755.0 0
497113.0 595471.0 0
3228.95 596319.0 0
8638.57 597906.0 0
14526.7 595835.0 0
19627.8 596574.0 0
22158.0 599032.0 0
29378.8 595674.0 0
26267.0 599353.0 0
34136.4 595838.0 0
32607.9 599903.0 0
37556.7 599988.0 0
43199.7 598228.0 0
48688.1 595626.0 0
48287.2 600433.0 0
53449.2 595690.0 0
56870.1 599388.0 0
62452.3 599396.0 0
69285.3 597514.0 0
74647.4 595738.0 0
73844.1 599698.0 0
77954.1 599124.0 0
81923.5 596050.0 0
86732.0 598444.0 0
92754.2 599264.0 0
97215.9 598486.0 0
105942.0 596255.0 0
102182.0 600104.0 0
110495.0 599018.0 0
116347.0 597822.0 0
121430.0 595715.0 0
121519.0 600258.0 0
133389.0 598000.0 0
142624.0 595800.0 0
138218.0 598559.0 0
146611.0 598885.0 0
151391.0 598367.0 0
156311.0 599245.0 0
161247.0 599075.0 0
165412.0 595548.0 0
170589.0 599238.0 0
176313.0 598954.0 0
182120.0 598497.0 0
188199.0 598327.0 0
198511.0 597305.0 0
202127.0 600008.0 0
205476.0 597868.0 0
212320.0 598073.0 0
216706.0 597977.0 0
220989.0 597775.0 0
226414.0 598371.0 0
231349.0 598266.0 0
236624.0 598772.0 0
242855.0 597884.0 0
247664.0 598764.0 0
251651.0 597478.0 0
256187.0 598973.0 0
260958.0 598758.0 0
265923.0 598253.0 0
270849.0 598203.0 0
275822.0 598772.0 0
281861.0 598195.0 0
286371.0 598029.0 0
295547.0 596478.0 0
291043.0 598335.0 0
301735.0 600246.0 0
307615.0 598259.0 0
315660.0 598229.0 0
311220.0 600026.0 0
320991.0 599261.0 0
325580.0 597957.0 0
330021.0 598956.0 0
335378.0 598274.0 0
341293.0 598588.0 0
347628.0 599506.0 0
353749.0 599883.0 0
360177.0 598591.0 0
366464.0 599462.0 0
374178.0 597941.0 0
378637.0 599120.0 0
383518.0 598678.0 0
388662.0 599378.0 0
393442.0 598401.0 0
397724.0 597736.0 0
402523.0 598978.0 0
407929.0 598821.0 0
411458.0 598010.0 0
417296.0 598007.0 0
422390.0 597964.0 0
427675.0 598128.0 0
432710.0 599020.0 0
437103.0 598178.0 0
442910.0 598348.0 0
448294.0 598571.0 0
453056.0 600465.0 0
457597.0 597526.0 0
461677.0 600243.0 0
466009.0 598091.0 0
470142.0 595546.0 0
471447.0 599314.0 0
475445.0 596618.0 0
484288.0 596181.0 0
480580.0 599125.0 0
490365.0 596018.0 0
497551.0 600655.0 0
2048.13 601363.0 0
6302.16 601933.0 0
12320.1 601201.0 0
17926.3 601159.0 0
20318.0 604548.0 0
23113.7 602796.0 0
29508.2 603918.0 0
41655.4 602868.0 0
46054.8 604193.0 0
53016.2 602537.0 0
57771.4 604234.0 0
62257.1 604562.0 0
71271.9 602736.0 0
66567.5 603229.0 0
75978.0 603655.0 0
82478.4 600706.0 0
87061.6 604157.0 0
96922.0 602807.0 0
92385.7 604187.0 0
101376.0 604810.0 0
106249.0 600642.0 0
106413.0 605005.0 0
112047.0 604600.0 0
118184.0 604509.0 0
126181.0 600979.0 0
123451.0 604633.0 0
130934.0 603380.0 0
136030.0 602466.0 0
142261.0 600672.0 0
140068.0 604926.0 0
147806.0 603829.0 0
143703.0 603885.0 0
152838.0 602965.0 0
157208.0 603783.0 0
161696.0 604108.0 0
165526.0 601045.0 0
168210.0 604466.0 0
173047.0 604571.0 0
177891.0 603494.0 0
182119.0 603746.0 0
187524.0 604136.0 0
193641.0 600389.0 0
192264.0 604538.0 0
198457.0 602890.0 0
202986.0 603495.0 0
208733.0 603365.0 0
213975.0 604947.0 0
215961.0 601747.0 0
220375.0 603012.0 0
225486.0 603898.0 0
230793.0 602961.0 0
235611.0 604234.0 0
240245.0 603707.0 0
246067.0 603831.0 0
253037.0 604121.0 0
259417.0 603664.0 0
264175.0 603784.0 0
268954.0 603092.0 0
273415.0 602785.0 0
278518.0 603641.0 0
283284.0 602561.0 0
287024.0 601727.0 0
291088.0 603820.0 0
296572.0 601285.0 0
300723.0 604930.0 0
306232.0 602031.0 0
310059.0 604277.0 0
315901.0 604426.0 0
326456.0 602960.0 0
321946.0 604524.0 0
331419.0 604405.0 0
337156.0 603502.0 0
342180.0 603519.0 0
346273.0 605118.0 0
350746.0 603883.0 0
357580.0 604607.0 0
363542.0 604391.0 0
371265.0 600623.0 0
368749.0 603642.0 0
375205.0 603348.0 0
379944.0 603673.0 0
384470.0 603306.0 0
392696.0 602091.0 0
389296.0 604724.0 0
397507.0 603265.0 0
401690.0 602481.0 0
407087.0 602996.0 0
413364.0 603165.0 0
418797.0 603600.0 0
423714.0 602168.0 0
428204.0 603764.0 0
433503.0 603731.0 0
438568.0 602429.0 0
442836.0 604085.0 0
448380.0 603729.0 0
457705.0 602308.0 0
454156.0 605702.0 0
461337.0 604765.0 0
466717.0 603798.0 0
472342.0 603330.0 0
476651.0 601794.0 0
477415.0 605339.0 0
481263.0 604185.0 0
485729.0 601025.0 0
489402.0 604901.0 0
492934.0 601663.0 0
493901.0 605861.0 0
497894.0 605112.0 0
3235.7 605931.0 0
8004.75 605858.0 0
8554.97 610637.0 0
12474.3 606181.0 0
14516.1 610518.0 0
17404.9 606640.0 0
23964.5 607008.0 0
20766.6 610090.0 0
27304.2 607812.0 0
30701.2 609302.0 0
36219.1 606071.0 0
41859.6 607118.0 0
50280.7 606132.0 0
46463.3 608560.0 0
54628.4 608912.0 0
60440.8 608801.0 0
65687.6 608309.0 0
72178.2 608763.0 0
81198.8 605654.0 0
78255.1 610291.0 0
85294.5 608975.0 0
81981.6 609950.0 0
91626.9 609824.0 0
97204.4 607767.0 0
102993.0 610473.0 0
109062.0 609585.0 0
113584.0 609243.0 0
121627.0 609388.0 0
127313.0 608048.0 0
133789.0 609311.0 0
140211.0 610317.0 0
144951.0 608006.0 0
149632.0 609350.0 0
154690.0 607876.0 0
159710.0 608427.0 0
167825.0 608407.0 0
163886.0 608632.0 0
171904.0 609559.0 0
177373.0 608903.0 0
183736.0 608777.0 0
192235.0 607601.0 0
188895.0 608833.0 0
197469.0 608690.0 0
203528.0 608231.0 0
213868.0 608417.0 0
209209.0 610423.0 0
217610.0 607820.0 0
222237.0 608125.0 0
227363.0 608759.0 0
232848.0 608634.0 0
238567.0 608534.0 0
242979.0 608112.0 0
247794.0 609555.0 0
251730.0 608931.0 0
255713.0 609700.0 0
260766.0 608827.0 0
265830.0 607837.0 0
271702.0 608749.0 0
276872.0 608081.0 0
282067.0 608564.0 0
287524.0 607476.0 0
291543.0 610160.0 0
295939.0 606921.0 0
300399.0 609294.0 0
305657.0 607668.0 0
311553.0 609064.0 0
321758.0 609330.0 0
327257.0 608447.0 0
332429.0 609059.0 0
341701.0 607812.0 0
336862.0 608967.0 0
352092.0 608397.0 0
347252.0 610069.0 0
363073.0 609487.0 0
367734.0 608024.0 0
372385.0 607243.0 0
376910.0 608381.0 0
382029.0 607758.0 0
387294.0 609852.0 0
393719.0 608508.0 0
402158.0 605759.0 0
399331.0 609155.0 0
405554.0 610071.0 0
411437.0 608325.0 0
417114.0 608951.0 0
423203.0 607828.0 0
429496.0 609142.0 0
437567.0 605918.0 0
435031.0 609171.0 0
440664.0 608895.0 0
446253.0 609168.0 0
451529.0 609811.0 0
458503.0 609161.0 0
464199.0 609154.0 0
469372.0 608908.0 0
474068.0 607776.0 0
478699.0 609023.0 0
483110.0 608333.0 0
487531.0 609600.0 0
492286.0 609623.0 0
497031.0 609678.0 0
2916.11 611529.0 0
1224.1 615264.0 0
6429.6 614893.0 0
11960.7 614294.0 0
17897.9 614082.0 0
21996.4 614655.0 0
25879.1 612022.0 0
34732.5 611203.0 0
31199.2 614138.0 0
39169.5 610843.0 0
41850.4 614173.0 0
50122.5 610685.0 0
46040.7 613440.0 0
52492.8 614833.0 0
58176.1 613596.0 0
63442.1 613065.0 0
68012.2 612828.0 0
71633.6 614971.0 0
76713.7 615380.0 0
81777.3 613700.0 0
86876.4 613498.0 0
97077.4 613696.0 0
107220.0 614727.0 0
116923.0 611764.0 0
112347.0 613802.0 0
122923.0 614524.0 0
128740.0 614244.0 0
139617.0 614451.0 0
144689.0 613053.0 0
148713.0 614555.0 0
153345.0 613380.0 0
158381.0 612686.0 0
162999.0 612883.0 0
168270.0 613278.0 0
174156.0 612596.0 0
177508.0 614382.0 0
181849.0 613704.0 0
186741.0 613815.0 0
192406.0 612528.0 0
197523.0 614336.0 0
201790.0 612860.0 0
214658.0 612745.0 0
219064.0 613314.0 0
222493.0 613350.0 0
226742.0 614416.0 0
232006.0 613674.0 0
237204.0 613660.0 0
242311.0 612756.0 0
246962.0 614388.0 0
252500.0 613354.0 0
256685.0 614334.0 0
261514.0 614007.0 0
267176.0 613490.0 0
272634.0 614559.0 0
277556.0 612638.0 0
282051.0 615437.0 0
286724.0 612563.0 0
291369.0 615192.0 0
296652.0 613081.0 0
302565.0 613601.0 0
307535.0 613043.0 0
312159.0 614154.0 0
316732.0 610881.0 0
320923.0 614293.0 0
326408.0 614394.0 0
331739.0 613586.0 0
337521.0 614621.0 0
342971.0 612694.0 0
347498.0 615148.0 0
352887.0 614295.0 0
357775.0 610886.0 0
366392.0 612509.0 0
362328.0 613871.0 0
371929.0 612174.0 0
376680.0 612890.0 0
380891.0 612714.0 0
385043.0 615123.0 0
391343.0 614513.0 0
396871.0 613523.0 0
401737.0 614347.0 0
407962.0 615618.0 0
412721.0 613289.0 0
417697.0 614639.0 0
422176.0 612952.0 0
426399.0 613672.0 0
432657.0 613150.0 0
437404.0 613830.0 0
442866.0 613642.0 0
448054.0 614494.0 0
452267.0 613709.0 0
456403.0 614276.0 0
461688.0 613962.0 0
467247.0 613654.0 0
472834.0 612333.0 0
477298.0 613432.0 0
482258.0 613071.0 0
488686.0 614854.0 0
493385.0 613244.0 0
497781.0 614407.0 0
2839.31 618953.0 0
8131.5 619206.0 0
13392.7 619070.0 0
18124.4 618602.0 0
22238.3 620587.0 0
27247.0 618012.0 0
32729.6 619714.0 0
37107.7 615875.0 0
42126.6 618992.0 0
47695.9 618330.0 0
52135.3 620541.0 0
56769.9 618899.0 0
62044.4 618025.0 0
67595.6 618270.0 0
73080.6 619833.0 0
78480.0 620505.0 0
84322.3 619058.0 0
91556.5 615969.0 0
89810.4 620474.0 0
94511.5 620203.0 0
101953.0 615746.0 0
99136.4 618918.0 0
104210.0 620050.0 0
109002.0 618957.0 0
112972.0 618384.0 0
116103.0 620545.0 0
118152.0 616616.0 0
122317.0 619396.0 0
135302.0 616078.0 0
139215.0 619501.0 0
143577.0 618027.0 0
147125.0 620365.0 0
151134.0 618629.0 0
157341.0 618197.0 0
163077.0 617658.0 0
167883.0 619117.0 0
173011.0 616926.0 0
178055.0 618946.0 0
183335.0 618494.0 0
188189.0 618318.0 0
192647.0 618065.0 0
197323.0 618981.0 0
202453.0 618245.0 0
205972.0 615723.0 0
208142.0 620177.0 0
212734.0 618051.0 0
217500.0 618183.0 0
222500.0 618052.0 0
227993.0 619711.0 0
232938.0 618291.0 0
237808.0 618558.0 0
242755.0 617334.0 0
247965.0 618678.0 0
252139.0 617575.0 0
256413.0 618559.0 0
260837.0 619015.0 0
265610.0 618690.0 0
270803.0 619669.0 0
276989.0 618694.0 0
282320.0 619835.0 0
286928.0 618452.0 0
292533.0 620305.0 0
298623.0 619388.0 0
304058.0 618232.0 0
308312.0 617434.0 0
312870.0 619341.0 0
316387.0 615742.0 0
318538.0 620280.0 0
323323.0 618408.0 0
327883.0 619622.0 0
333210.0 619023.0 0
337924.0 620570.0 0
342710.0 618441.0 0
351129.0 619316.0 0
358052.0 616403.0 0
362909.0 619481.0 0
368430.0 616792.0 0
373312.0 620197.0 0
378401.0 617147.0 0
382822.0 619704.0 0
388297.0 619749.0 0
393418.0 619638.0 0
398027.0 618607.0 0
403369.0 619149.0 0
408064.0 620605.0 0
412803.0 618525.0 0
417898.0 619781.0 0
422313.0 617558.0 0
426928.0 619751.0 0
430028.0 616309.0 0
434551.0 619157.0 0
440764.0 618868.0 0
452340.0 618843.0 0
459097.0 619442.0 0
464227.0 618004.0 0
469122.0 619125.0 0
474484.0 617334.0 0
479569.0 617774.0 0
484341.0 617533.0 0
488175.0 620031.0 0
493232.0 617179.0 0
497569.0 619036.0 0
1350.85 623237.0 0
5398.63 623865.0 0
10624.7 623595.0 0
17250.2 623830.0 0
23678.6 625566.0 0
28267.0 623411.0 0
33167.8 625085.0 0
37558.2 621273.0 0
38027.6 625768.0 0
42324.9 624139.0 0
47022.6 623482.0 0
51686.6 625272.0 0
57028.4 624458.0 0
62385.3 623273.0 0
67050.4 623200.0 0
71159.5 624788.0 0
75979.0 624737.0 0
81787.8 625533.0 0
87171.5 623905.0 0
92061.1 624743.0 0
97792.5 624324.0 0
103206.0 625699.0 0
108586.0 623815.0 0
113950.0 624298.0 0
119432.0 623718.0 0
128296.0 621644.0 0
134932.0 621283.0 0
133579.0 625571.0 0
138601.0 623997.0 0
143474.0 623056.0 0
147046.0 624255.0 0
151478.0 624434.0 0
157423.0 624544.0 0
162834.0 622839.0 0
167728.0 624117.0 0
173384.0 623217.0 0
177916.0 624202.0 0
181730.0 623707.0 0
187123.0 622993.0 0
193324.0 623989.0 0
198776.0 622974.0 0
202970.0 622855.0 0
207348.0 624525.0 0
212269.0 623445.0 0
217524.0 622952.0 0
222451.0 623075.0 0
226540.0 624237.0 0
231369.0 622987.0 0
236422.0 623282.0 0
241644.0 621958.0 0
247260.0 623784.0 0
253395.0 622845.0 0
258672.0 623229.0 0
262678.0 623053.0 0
267092.0 623534.0 0
273341.0 624085.0 0
277783.0 624201.0 0
281721.0 623340.0 0
286913.0 623654.0 0
290944.0 624822.0 0
296052.0 625361.0 0
301797.0 623659.0 0
306143.0 622485.0 0
310503.0 623347.0 0
314949.0 624800.0 0
319998.0 625297.0 0
325529.0 624949.0 0
331228.0 623961.0 0
335993.0 624568.0 0
341900.0 625116.0 0
346930.0 621885.0 0
351299.0 624739.0 0
356557.0 621709.0 0
361307.0 625575.0 0
367931.0 623990.0 0
378854.0 624376.0 0
385004.0 624126.0 0
389903.0 624999.0 0
394772.0 623958.0 0
400104.0 623730.0 0
404123.0 622984.0 0
407193.0 625524.0 0
413111.0 623886.0 0
418179.0 624493.0 0
422603.0 622646.0 0
427179.0 625012.0 0
431655.0 623444.0 0
436308.0 624348.0 0
441347.0 624637.0 0
446309.0 621078.0 0
451487.0 625539.0 0
457226.0 624932.0 0
462039.0 624265.0 0
467333.0 625279.0 0
473565.0 623731.0 0
484090.0 621667.0 0
479693.0 623436.0 0
487506.0 625508.0 0
493112.0 622654.0 0
497910.0 624779.0 0
2250.61 627701.0 0
5507.42 629801.0 0
10551.8 629534.0 0
17093.1 630318.0 0
22572.4 630328.0 0
27878.3 629019.0 0
33321.9 630541.0 0
38742.2 630569.0 0
47153.6 629287.0 0
53066.5 630256.0 0
58248.0 629752.0 0
63540.0 628612.0 0
68407.5 628416.0 0
72791.2 629322.0 0
77423.2 629268.0 0
82602.6 630463.0 0
87364.6 628304.0 0
92609.9 629917.0 0
98308.3 629854.0 0
102958.0 630406.0 0
107355.0 629012.0 0
112232.0 628434.0 0
117308.0 628354.0 0
121383.0 629873.0 0
123932.0 626379.0 0
125454.0 630604.0 0
128180.0 627648.0 0
137340.0 628974.0 0
142927.0 628321.0 0
148021.0 628202.0 0
153322.0 629857.0 0
162933.0 627927.0 0
158571.0 629886.0 0
167351.0 628655.0 0
172156.0 629087.0 0
177548.0 627973.0 0
182511.0 628626.0 0
186765.0 628072.0 0
191003.0 629644.0 0
197793.0 628826.0 0
203476.0 627786.0 0
208222.0 629045.0 0
213248.0 628571.0 0
218083.0 628004.0 0
222100.0 627977.0 0
225905.0 628521.0 0
230895.0 628493.0 0
236684.0 628502.0 0
242513.0 627901.0 0
248073.0 629326.0 0
252466.0 629002.0 0
256701.0 627502.0 0
261166.0 629478.0 0
266721.0 629331.0 0
272403.0 628714.0 0
277880.0 629446.0 0
283200.0 627458.0 0
288472.0 629107.0 0
293396.0 629781.0 0
301112.0 628257.0 0
307508.0 628592.0 0
313444.0 629743.0 0
318530.0 630066.0 0
323087.0 629478.0 0
327391.0 630479.0 0
332154.0 628855.0 0
337464.0 629966.0 0
347110.0 627016.0 0
351665.0 630167.0 0
356176.0 627546.0 0
363933.0 630132.0 0
367941.0 629059.0 0
373085.0 627039.0 0
377159.0 629656.0 0
382452.0 628217.0 0
386647.0 629024.0 0
392441.0 629413.0 0
397601.0 628732.0 0
402545.0 628324.0 0
406634.0 630536.0 0
411575.0 628867.0 0
417271.0 629843.0 0
422635.0 627991.0 0
427623.0 630210.0 0
432552.0 628207.0 0
438063.0 629021.0 0
443210.0 629980.0 0
446066.0 626210.0 0
448288.0 629922.0 0
457315.0 629558.0 0
462211.0 629371.0 0
467086.0 630585.0 0
472270.0 629947.0 0
477784.0 628584.0 0
482870.0 628407.0 0
487953.0 630625.0 0
492474.0 628537.0 0
497326.0 628754.0 0
42851.4 632352.0 0
132035.0 631135.0 0
297300.0 631242.0 0
342670.0 631060.0 0
347093.0 630993.0 0
359380.0 631242.0 0
372484.0 631500.0 0
452864.0 631281.0 0
POINT_DATA 5000
SCALARS Radius float 1
LOOKUP_TABLE default
5415.48 5120.0 6182.6 5073.35 3850.77 4834.9 3863.18 5085.53 2356.98 4998.37 5492.18 5258.36 5061.3 3163.97 5812.43 5906.14 5733.48 5580.89 5645.7 6810.52 5840.26 6110.27 3672.51 5670.04 6716.79 3936.02 4133.88 4665.12 4094.62 5546.39 6044.04 5484.83 5351.6 4715.55 5867.73 3951.75 3642.12 4499.64 5542.27 5122.66 5484.19 3557.27 7513.1 5254.28 4688.68 4436.4 4402.52 4517.56 4182.53 4672.91 5903.42 3588.44 3761.32 5176.86 4366.19 5553.16 4940.78 5561.06 4008.92 3615.22 4380.59 3379.84 7613.27 4951.03 4333.2 4780.03 5495.39 3856.1 3383.4 4927.02 6483.19 5945.65 5325.36 5538.89 4730.36 6059.59 5013.56 2720.68 5701.86 4375.68 3563.63 4238.81 5054.98 4468.59 6030.06 5170.02 5200.76 4927.31 4862.64 5185.34 4432.58 6684.56 3955.56 3968.64 5292.64 4118.05 6166.5 5065.13 2938.66 5936.02 5305.17 4231.61 3942.53 4827.82 4805.87 3607.45 3589.27 5759.91 3038.33 5529.52 6124.89 5252.48 3554.9 3996.0 5980.74 4044.71 5109.54 4174.52 6230.49 6759.9 7021.47 5416.38 5926.61 4955.55 5836.15 4345.55 5885.03 2837.58 3871.88 5325.02 5246.2 5017.13 5279.39 3673.74 5205.43 7447.37 4688.67 2635.86 4385.06 7184.19 4290.3 4861.08 4003.05 4712.33 5227.21 3997.1 4295.38 3260.67 5123.52 7199.21 4392.68 5255.32 4049.23 5337.48 4929.8 5481.78 5708.81 5542.21 4015.92 4487.31 5043.05 5816.2 4002.16 4138.16 5693.81 3829.13 3091.3 6458.82 5418.62 4601.27 5493.32 5740.68 4277.89 6051.14 3261.21 4195.44 6704.06 6496.85 3653.41 5600.93 3856.01 5541.59 4390.66 4124.71 4827.23 4911.47 6116.18 4381.97 4924.6 3255.82 4733.32 2899.43 2812.98 2924.37 3867.67 5399.73 5390.22 3888.21 4660.72 6038.78 5697.78 4667.36 5615.42 4091.31 4254.17 4523.7 7565.34 6037.08 6756.95 4151.94 4685.34 4382.74 5601.05 4651.28 4384.42 3586.91 4516.43 3103.0 5637.59 3307.12 4937.14 5924.89 4778.34 3486.22 4684.5 5789.98 7054.71 5489.43 5573.7 3641.64 5747.75 5054.25 4796.33 5539.32 5360.19 4794.96 4874.39 5083.08 5728.85 6337.56 5803.39 5863.59 3998.5 4024.3 6257.19 5242.73 5555.28 4065.69 4737.14 4686.65 5603.15 5556.96 4695.45 6052.7 3921.18 5891.05 6902.81 3666.57 6644.76 6372.62 5629.19 5090.24 5091.39 2240.39 5923.5 5096.78 6324.23 4129.43 4727.24 3320.52 4931.38 4329.05 6082.81 5927.43 6355.42 4362.19 4948.92 3115.91 3693.63 4493.48 6084.86 5478.92 5551.36 6894.71 4414.54 6138.47 2540.31 6029.66 5527.54 5697.4 4727.62 4270.95 4055.8 7325.81 5280.17 6425.26 5143.58 6186.19 4839.34 4484.76 2980.99 6834.49 5525.39 5173.87 5938.34 6394.38 5118.27 5169.36 5834.74 5788.23 3798.62 5581.75 6392.01 5308.1 4937.02 5655.21 4786.6 5740.84 5530.87 4612.68 4973.83 5293.9 3912.37 6142.94 3843.58 4194.5 4602.25 5191.63 4792.73 4501.51 4736.58 3485.26 4556.36 3240.09 5110.37 3191.99 6327.9 5492.26 5690.56 5762.84 4749.8 5082.6 5810.84 5094.44 4230.54 4655.49 4467.94 4850.81 4933.21 6038.14 5120.49 5262.61 6302.8 5409.61 6038.2 4005.44 5206.78 5555.88 6732.43 5028.96 3866.16 6362.12 5152.36 4840.01 5611.2 7933.0 4455.12 4816.2 4894.16 5380.13 5711.87 4941.22 3372.79 5932.23 4479.66 5367.2 3043.85 5461.13 6730.19 3599.45 4907.89 4907.06 3735.44 4073.93 4645.41 4433.59 6445.94 4310.18 4281.49 6342.25 4218.06 6691.39 4270.53 4790.08 5082.47 5344.25 5344.0 4043.57 4478.15 5379.87 3708.04 5513.6 4901.41 5664.98 5264.06 3688.8 4048.37 4659.59 4548.16 5449.18 4220.88 5244.78 3937.74 6640.13 5478.47 3748.24 6142.37 6061.47 6163.38 5375.47 4566.18 4723.12 4964.09 5201.36 5024.9 4306.53 5659.17 5094.81 5972.06 5713.22 4312.67 5861.71 4359.04 3183.98 3794.63 4524.28 3778.1 4727.24 4511.82 5826.64 4220.65 6820.42 6321.41 4896.52 4751.02 5184.56 5282.64 5791.61 3369.13 4808.52 4669.66 5607.24 4726.76 5839.13 5495.68 5163.9 5489.34 6043.3 5952.75 4320.28 5542.14 4931.53 7134.64 5978.9 3629.62 4840.84 4187.56 4997.27 5135.69 4593.7 6045.46 4763.45 4150.99 4107.03 5681.38 3771.48 4138.42 5925.6 5987.17 3979.82 6013.14 2765.2 5138.31 4602.86 4621.75 3369.23 4551.24 5358.59 4515.71 6519.71 4322.15 3092.35 5210.03 5351.39 5119.37 3982.23 5806.08 3459.9 4997.27 4093.08 4809.42 4717.05 5287.2 6135.57 5998.38 5423.8 4270.24 4989.15 5017.78 4164.13 5015.69 6175.81 4947.52 6677.09 4305.57 6959.81 4829.35 5201.67 4424.7 4089.76 4754.05 5526.55 3192.41 6084.93 4987.87 3315.57 4715.72 5804.71 4764.96 5046.33 4242.52 5053.92 6352.26 3057.03 3847.38 3818.59 4863.72 5002.48 5708.14 5537.72 4262.82 3920.42 6332.36 6122.55 5480.13 2739.94 4223.33 6308.71 4716.19 5514.76 4301.06 3456.98 3815.26 4290.14 4020.32 5445.87 4704.72 4216.92 4177.94 4571.7 4742.68 3929.19 4502.5 4271.69 5922.5 5198.77 5643.58 3970.25 5147.67 5577.04 4292.06 5011.31 5006.58 4481.53 5586.81 4581.13 3856.59 4219.07 3610.4 6387.01 5367.52 4714.54 5025.39 3629.96 5893.5 3320.11 5030.91 6022.17 4583.31 4503.89 5243.29 4336.42 4853.39 4449.22 5543.27 5856.11 3327.49 4109.88 4234.94 4562.29 5013.13 5080.66 3417.33 4926.42 4642.34 5248.77 4083.97 4520.1 5874.89 4293.03 5813.4 4389.21 3791.79 4128.98 4925.44 4951.47 4307.28 5215.15 4739.42 5538.93 5020.12 5727.3 5281.28 5356.51 4277.88 4087.15 4758.21 4143.08 7500.97 6623.85 5102.36 8332.24 6155.31 5911.67 5329.64 3323.28 6695.82 6405.76 4877.67 6562.18 3498.2 4245.72 5908.1 4344.58 6048.7 5634.83 5896.46 5495.84 5113.21 5782.6 4862.21 5499.11 3633.87 5347.48 2775.04 4850.01 5215.05 4986.77 6318.18 5330.45 3948.17 5077.33 4746.52 5413.79 5572.95 6338.89 6202.55 7111.16 3817.13 4547.19 5507.24 6851.54 3813.22 5570.3 4306.11 7589.94 3130.65 5628.24 5004.67 5365.89 5992.26 3960.8 5070.39 4980.85 5714.58 5110.45 5208.32 3296.27 4713.25 4607.02 5153.74 3895.51 4528.09 4165.81 3556.85 6291.51 5174.89 5882.89 6246.22 4188.32 5246.61 4100.38 3697.96 5344.77 4723.48 4899.11 5097.87 4745.45 2631.9 6255.18 4668.71 7228.46 3948.23 5228.18 5787.31 4342.9 5065.11 4553.56 5069.84 4051.44 6049.55 5709.62 5835.78 3066.13 5794.24 4541.21 4302.5 4156.38 6009.88 5316.75 4164.68 5022.8 6268.1 3784.5 4178.4 5820.48 7034.11 6261.42 4011.77 4527.08 4810.12 4374.35 4138.46 6898.19 3821.72 6035.6 5137.34 5198.29 5423.0 5125.78 3689.45 3824.16 3868.18 6723.16 5372.61 5584.06 3686.21 6480.17 5023.15 3844.9 4377.07 3695.36 5101.59 3963.86 3848.93 6020.48 5935.47 3402.32 5200.05 5903.66 4528.49 5419.37 4466.03 5409.33 4511.54 5196.0 4923.9 4613.31 4973.78 3329.99 3947.47 6119.09 5091.68 4204.84 6243.0 6673.96 3161.47 5441.96 3435.9 4288.3 5370.52 4652.29 5774.81 3746.31 5498.32 5027.98 5346.27 4278.07 6475.1 7267.18 2691.29 6256.02 2845.98 5320.92 5269.18 4406.1 6362.14 5034.59 6719.88 5978.82 3927.99 5266.5 5868.82 4050.9 4241.89 4099.77 5054.74 4981.9 5941.72 4537.32 5105.16 4127.74 2476.04 6006.16 4678.38 5448.61 5050.65 4827.33 7055.53 6133.92 5729.23 3719.84 5669.65 5934.22 3780.23 3471.03 5253.55 4359.62 5011.84 6946.21 2586.12 5433.8 6125.34 5975.63 5965.78 5252.34 6396.74 2965.79 7099.43 5526.14 6449.45 4044.45 3975.31 5344.43 4373.47 5045.38 5350.88 5130.91 5402.24 4519.22 6445.22 4564.34 4871.44 5076.35 6375.99 5234.29 5273.35 5313.66 2651.49 5512.23 5275.32 5985.29 4898.94 4247.23 4178.15 4694.83 4733.04 4354.08 5788.66 7531.29 5069.25 3903.75 5048.89 5935.03 3991.03 6390.78 7435.25 6826.57 4788.87 4495.87 6022.72 4643.31 5527.33 6917.52 4969.21 4880.14 4982.31 5289.52 5314.85 4305.43 5450.44 6510.17 4942.77 4263.33 5080.18 4454.63 4523.88 4066.38 3279.1 4978.31 4948.98 5227.52 4414.48 5163.02 5991.09 4656.78 5126.91 3942.07 7443.72 3937.08 5371.02 5513.57 5013.67 5260.34 5206.48 6586.45 5826.04 5624.49 3095.48 5339.78 4861.06 4166.08 6481.79 5960.66 3979.26 3999.48 6608.73 4203.26 3745.84 5188.81 5696.88 6057.22 5690.26 5062.71 4156.2 4497.59 5564.02 4274.61 4410.55 4287.63 5315.4 4516.28 3627.82 5262.19 4244.9 6070.58 6034.41 5022.28 5452.83 4959.34 4948.5 4527.02 4591.87 4531.14 4247.15 5013.42 3838.56 6552.22 5651.07 4602.85 6248.81 5872.05 4091.8 4853.02 4645.58 5181.4 5670.2 4711.62 4114.24 5349.31 4268.65 5509.42 4256.43 5936.36 4520.62 5229.48 4755.47 4485.99 5127.16 5475.8 5314.69 6050.81 4244.99 5543.46 4249.46 5965.81 3702.37 4750.17 5660.85 2330.66 4177.19 3990.25 3691.0 4752.51 5402.21 3587.05 4989.09 6718.19 4307.48 3848.54 5941.4 5331.02 4871.96 5742.65 5592.32 5912.61 4403.98 4560.84 4729.43 6086.96 4092.24 5233.78 4562.74 5776.57 7144.24 5133.97 3600.43 6600.94 4788.58 6155.1 4709.35 5226.0 5876.71 4373.3 4750.78 5762.59 5320.28 5374.51 5224.12 4850.14 4796.58 4298.67 5873.69 4962.09 6222.42 5654.31 4730.41 4643.85 3923.03 4004.04 5607.14 6915.83 4289.17 6072.45 6444.77 6314.07 5759.46 5776.37 3921.08 4190.31 5678.96 6048.86 4285.32 5490.43 4986.51 5197.52 5178.99 5383.07 4790.78 6422.84 4502.18 5379.09 5210.48 4962.77 7552.94 6101.92 6259.23 5088.44 4662.56 4998.21 5166.79 2976.22 4649.22 5394.55 5094.52 4946.74 2682.24 5928.32 5415.19 5475.7 4612.62 4016.18 5526.75 5435.74 6385.23 5327.45 5560.26 6185.89 3997.96 4439.35 3460.94 6184.4 3758.07 4373.45 4236.14 6229.37 4407.87 5282.51 5282.91 3797.33 4425.84 7256.35 4800.69 4863.23 3555.86 4402.67 5381.16 4470.61 5565.13 6193.35 6887.27 3701.27 4806.34 5683.26 5598.74 4906.82 5131.24 5687.83 5196.67 6496.67 5474.8 6262.72 5029.78 3365.82 4163.5 3664.11 4123.6 7092.87 4143.78 4970.88 4538.95 6739.08 4763.66 4471.58 4569.12 3637.61 6098.14 4472.17 5750.71 4938.74 5470.77 3474.39 4831.47 6062.05 5082.74 5411.85 5092.37 4844.57 4864.22 4027.46 4470.98 3901.8 5511.88 5083.41 7055.42 3836.45 5486.68 5683.61 5100.25 6894.26 5311.03 5339.38 6169.11 5615.35 4027.09 5172.53 4135.62 5801.99 5534.94 7644.38 4051.34 3627.55 5323.3 4635.6 4256.67 3457.48 3931.07 3405.98 5417.15 3688.16 4681.72 3949.6 4945.39 5996.33 3950.63 6631.19 3619.07 4275.57 4467.04 5626.61 5817.25 2983.99 2614.4 6363.92 6205.93 4923.24 5830.72 3828.81 7177.44 5309.98 4082.57 5733.62 5169.9 3004.16 4460.92 5945.89 4042.28 4105.55 4340.76 6566.1 6065.22 6386.78 4221.28 4631.83 4996.99 4896.39 4384.88 5480.83 6008.49 4220.46 5653.9 5046.21 4929.14 5894.61 5139.5 5004.23 6442.69 4814.55 4648.04 6320.71 3527.05 6607.87 6515.84 5724.64 5965.15 4666.81 7042.12 4797.52 4780.2 6326.39 5163.55 4319.79 6643.85 6343.14 4020.95 5501.93 5462.21 5463.38 6313.06 5945.21 3493.7 6470.3 4200.03 6939.12 4735.33 4413.85 4406.4 3999.94 6171.13 2395.5 3497.9 5941.61 4512.11 6248.6 5443.58 4558.46 5805.86 4049.02 5346.68 4470.4 5296.29 4611.53 5255.12 5094.48 4285.66 4896.11 4238.4 4318.48 6132.95 5266.22 4860.33 3685.13 3312.06 6004.68 6799.4 6239.84 5865.39 4427.28 6079.11 3082.32 6430.39 7440.72 3658.37 5376.71 5703.6 6326.18 5661.62 4807.28 4867.08 4266.03 6648.68 4713.74 5407.78 4084.49 5061.98 6632.99 4537.6 5147.36 4419.61 3963.76 4563.46 6553.94 5255.18 5460.65 4767.78 5235.17 4779.5 4421.12 4435.36 5254.49 6649.96 4456.39 5514.84 3633.79 6081.14 3914.2 5421.53 4607.85 4287.53 5612.21 6000.7 5945.08 3169.67 3979.54 7493.3 4968.03 5944.09 5833.06 4863.79 5698.77 5117.47 3464.83 2477.07 2990.77 3163.78 4925.63 4888.6 4305.16 3293.56 5078.86 5882.65 4918.77 4819.73 4636.5 6817.32 3382.7 6471.55 5085.71 2965.01 6263.44 5960.56 5774.97 5122.63 5862.86 6049.79 5374.98 6345.13 5226.56 5274.19 4719.7 5516.95 5599.49 4097.57 5313.22 3905.51 5563.79 6853.85 4151.76 4020.4 3493.47 4596.75 4933.65 5782.48 4031.78 6098.1 5708.99 5687.85 6401.43 5020.71 2681.29 5997.88 5839.71 3872.61 5576.92 6408.83 3930.79 4004.35 5226.97 5754.18 5180.76 3361.26 3418.99 4480.95 5278.36 4409.63 5521.25 3661.9 5370.85 5949.46 3178.54 4765.02 3776.94 5629.39 4448.13 5070.29 2261.36 4768.61 5075.55 5280.69 4220.03 6923.84 5227.59 5449.46 6179.96 5703.07 6113.54 4662.43 6260.79 4043.66 5528.53 6799.88 5726.66 5426.78 5652.0 2967.38 4159.35 5463.41 5225.33 4237.98 4929.75 6045.22 4614.3 5134.39 4303.19 5784.3 4256.57 6088.68 5937.08 4135.08 6070.3 5128.57 5620.74 5233.29 5604.21 4612.06 5304.13 5204.04 3361.92 3306.14 5490.58 5395.14 4702.06 4923.41 4497.31 4721.32 3830.46 6413.11 5092.28 5274.14 4739.14 4434.19 4903.82 5100.1 4940.42 4371.99 3954.91 3703.1 5923.4 4946.42 3295.83 4963.34 5081.78 5644.82 5499.39 6413.02 4407.9 4440.57 4863.27 3492.19 4118.84 4584.5 6766.43 5548.29 2315.64 4703.08 4390.41 4890.5 6113.95 4050.08 5452.42 5017.5 3436.15 5328.22 4216.17 6484.17 4721.02 4938.72 4254.37 3546.71 5768.57 3374.08 5564.23 5950.04 4231.83 4074.48 2435.33 6333.29 4558.47 5731.57 5662.55 4360.23 6234.32 5365.24 5293.51 4763.96 4446.06 5008.63 5132.68 4270.74 6595.03 4993.35 6218.95 5222.16 5107.23 5136.08 5558.68 4802.32 4010.57 4599.38 2684.03 5246.47 6157.04 6191.29 4522.21 7422.36 5506.19 6719.94 4950.67 5832.37 6166.29 5453.6 5409.63 5294.77 4709.05 4630.82 4813.08 5860.67 3062.43 4540.86 5990.52 4835.83 5604.35 6477.91 3091.67 6439.37 4081.97 5401.99 5580.92 3532.3 5769.98 3583.21 5442.32 2221.99 4643.56 4863.01 5356.79 4312.56 4778.82 6124.08 5467.84 4750.58 6710.88 3967.48 6667.68 5235.11 6213.04 6031.67 5529.42 5384.76 5257.12 4965.89 5746.28 6090.91 5187.7 4152.85 3561.29 4082.47 4219.78 4188.3 4623.61 5019.93 4459.28 3885.86 5235.29 5177.64 4255.31 6116.33 4260.92 4479.94 6250.23 4718.54 6736.03 6235.57 5412.31 3623.87 3087.09 5916.16 5163.77 6934.37 3731.84 3423.15 4488.85 3981.07 4579.69 3554.48 4901.07 6496.52 5186.3 5005.85 5711.11 4575.94 5325.44 5021.88 5956.65 4498.25 4188.87 3735.24 6574.95 6817.57 3614.96 4477.04 3886.68 5703.74 4747.55 5737.92 3056.7 3755.95 5591.76 4585.31 4586.19 6625.18 5323.91 3450.93 5097.45 6293.89 5737.75 4558.15 2761.07 4983.39 3778.02 5366.52 4690.55 5533.72 5533.42 3678.08 7132.12 5518.57 4187.31 5463.48 3240.51 4527.99 5161.01 4376.7 4298.15 4628.4 6051.83 4642.93 3973.12 4263.16 3077.84 6642.76 6024.75 6109.49 5567.93 5987.42 5332.65 3764.1 6451.33 5413.31 6316.56 4332.87 6420.81 4715.58 5208.14 3317.83 4450.7 5151.52 5973.33 4347.74 5291.9 5067.46 4009.62 3580.58 2511.46 4011.37 2775.69 5657.36 6519.43 3619.79 5876.64 5029.47 5053.95 6306.21 5926.11 5253.37 5211.38 5767.9 6515.8 6622.11 4689.15 6138.12 4428.78 5243.43 5659.95 5920.32 5409.66 4537.14 5551.9 4453.64 4345.67 5511.6 6261.75 4765.72 4517.73 4338.08 6415.61 4752.14 4378.3 5037.06 5660.16 4541.8 6134.99 4094.73 5453.3 3838.47 4062.5 2588.37 5887.15 5203.08 4435.51 5374.07 7480.41 3766.55 6027.62 5010.2 6123.03 4997.83 5966.61 4893.49 4834.87 5102.75 4597.29 4200.09 5931.77 5097.95 5151.21 5108.06 5398.64 3573.73 4693.52 6853.04 3420.08 4745.43 4912.04 5831.96 5464.68 4475.83 2685.81 4510.8 5889.35 5010.04 4570.98 4394.56 4275.07 5825.38 4185.61 4047.87 5742.47 4917.99 6552.21 5417.8 5146.37 4836.16 5300.96 5151.11 5680.94 5730.33 5545.46 4543.1 5190.61 6550.44 8325.01 4440.81 3764.06 4523.39 5941.9 5434.47 5829.22 4497.78 4243.79 5811.18 5433.65 4442.22 4887.76 4008.15 4669.06 4811.32 3012.99 6400.08 4743.59 5829.32 4396.25 3763.05 5092.24 5369.08 3101.75 4518.04 4766.06 4874.18 2081.58 6505.78 4785.25 5461.55 4270.15 5424.46 5266.01 2978.76 2040.66 7016.27 5884.9 3685.13 5089.62 4590.55 6790.73 3876.21 4655.16 5869.4 4741.26 4916.22 4186.6 3701.16 6022.7 5251.4 4255.85 3867.19 5097.69 2908.7 5857.79 3757.34 4642.66 4039.91 5276.7 4687.64 4419.71 4888.12 5469.47 5411.02 4244.21 4950.97 5512.16 4989.56 3197.63 4287.16 5175.29 5842.56 4863.96 5191.08 5199.44 5424.88 5415.85 8659.64 6599.66 4588.7 4055.54 5683.95 5469.13 5765.42 4233.8 6098.95 4976.12 5453.98 5148.08 4388.63 3991.42 3718.69 4514.79 2216.82 3672.21 4509.89 5760.22 5938.17 5269.38 4795.43 5607.3 2928.82 4914.45 4222.4 4698.87 4000.43 4661.03 4568.41 3624.7 5262.35 4691.91 4539.07 4255.34 5064.79 5480.3 7509.24 5896.26 5388.78 6101.13 4573.72 5099.21 6969.28 5636.4 4367.78 4350.12 5227.02 3603.51 5670.0 5222.51 4232.16 6609.84 4344.51 5135.96 3834.43 3781.77 5581.55 5193.01 3474.5 4250.88 3860.83 6348.03 5732.27 4792.39 5278.56 5146.37 6917.62 4013.38 5631.14 4343.78 5263.3 4909.65 6523.86 7693.4 4326.48 4286.49 4437.07 6184.88 5491.9 6405.0 5551.95 3918.87 4659.16 5549.49 4633.05 5423.42 6605.86 5012.5 5435.19 3562.79 7093.13 3298.2 6865.76 4953.1 6449.64 4857.84 4908.49 6464.8 4962.21 4749.59 4858.44 3468.42 3685.65 5799.69 4673.35 5689.26 4992.42 5297.19 4940.84 5895.77 4732.09 3988.3 5750.07 6136.49 6543.13 5149.72 5036.58 4356.25 5329.59 5776.96 6119.63 5464.25 3821.94 5439.9 3498.16 4752.9 5301.47 4617.55 3645.12 3875.05 3456.47 5471.74 6200.54 4652.01 5148.58 4199.45 5421.64 7234.66 4207.54 4886.12 6419.12 4301.61 6107.89 4446.84 4817.16 5530.49 5660.55 5653.03 6192.0 4940.28 5885.28 6752.75 3004.34 3022.6 5375.1 4811.76 5313.12 5351.56 3984.88 5160.59 4732.09 4320.42 7165.9 5344.83 7046.11 3427.63 4146.81 6342.48 5756.75 4587.67 5599.7 4163.74 3924.14 3665.95 4296.69 5698.96 3319.67 4095.75 4298.45 6471.42 5283.8 4076.59 5164.1 6464.15 5658.37 4707.06 4972.17 6074.94 5491.37 4222.77 3783.54 3475.67 5268.38 5527.23 7038.89 3863.67 4814.12 5067.56 6137.8 3352.35 2735.53 3747.03 5116.6 2783.85 4356.49 4526.81 3994.07 4219.94 3449.37 5907.46 6740.71 4264.91 5399.29 5789.55 2275.45 4909.31 4901.2 6522.59 5711.62 4383.56 4990.79 5166.79 4516.53 2895.63 5818.95 4093.99 3940.49 3604.14 4452.54 4684.44 4406.05 4680.94 5828.35 5876.72 5571.72 3809.69 4771.13 3208.96 7051.9 4608.41 4184.23 4833.46 4351.38 5550.75 5933.7 4809.67 4757.74 6045.67 4216.95 4209.49 5742.74 5280.12 3946.28 4444.97 5984.81 5721.05 4209.31 5486.48 4409.27 5367.73 4947.24 4640.06 4588.99 3540.11 4321.21 4344.34 5950.45 5713.03 3548.39 3583.49 3673.28 5052.84 4858.51 4366.74 3375.28 5625.65 5297.16 4936.96 4481.76 3184.64 5206.33 5452.78 5065.26 4304.41 4892.44 5578.94 7610.49 4286.17 6579.31 5323.55 6028.09 5452.36 3804.5 4172.6 5498.42 3344.57 4196.37 5318.53 5220.76 4281.98 6945.98 5138.2 5783.48 4701.5 4449.98 4863.97 4504.35 4771.65 4840.44 5093.82 5951.81 5212.43 6918.35 4834.3 6238.32 6804.79 6372.13 5369.5 4428.14 6016.19 4124.49 4479.11 6685.4 5699.53 4850.06 6332.01 7044.29 4234.18 4805.33 7085.01 5980.95 6193.08 6069.3 5887.01 3862.77 5168.35 5388.39 3185.39 3728.18 5128.77 5335.47 5633.61 5048.19 6799.23 4888.27 6487.56 4854.11 5971.22 5533.19 5417.21 6602.43 4798.17 3568.28 5425.98 6479.39 4122.92 4405.42 4997.91 5079.22 4599.81 5381.54 5810.77 5089.1 2711.19 4028.32 5236.43 7519.2 4099.92 4884.59 5285.07 3858.06 4478.6 4680.14 4144.57 4083.79 4187.94 5980.59 6834.41 7248.4 3796.15 6226.14 5466.33 4801.8 7216.98 3000.29 5046.12 5271.02 7013.17 4247.69 4514.39 4601.74 6242.79 6506.86 5088.57 5580.34 5849.65 3852.6 5134.67 4928.27 5775.31 4165.21 3332.49 4215.0 4603.5 4647.67 4214.44 5375.12 4787.97 4356.36 3746.36 6789.23 3989.7 4157.29 4777.03 4246.61 3684.56 6813.72 5327.75 4609.02 6486.37 4638.18 5211.6 6448.66 3556.79 4453.97 3503.41 7317.04 6412.67 7001.83 5012.97 5589.37 5439.49 6639.64 3687.65 5454.12 5478.95 6348.54 4066.57 5642.35 6357.47 5404.01 4891.38 5535.91 3230.13 5714.25 6176.67 5325.96 5412.24 5016.02 4581.37 4920.21 4049.16 5851.61 3936.95 6153.94 6836.82 3858.17 4631.99 4740.98 3477.1 5934.82 7122.87 5797.36 4243.26 5119.86 4592.15 5084.17 4901.44 3776.8 4998.22 5096.43 6156.21 6104.26 5583.61 6063.64 5996.66 4986.71 7382.3 2995.67 4022.56 3598.08 5522.21 5698.23 7300.58 4714.83 3608.06 5474.15 4923.57 6633.61 5217.95 6355.68 4867.7 5484.36 4511.7 4063.9 4304.63 5263.27 6300.92 5021.77 5161.1 3928.53 4173.54 5599.29 5740.65 6038.68 3834.47 4807.4 6329.53 3805.67 4590.01 5718.28 6541.45 6101.86 4227.41 5993.0 4803.57 5966.42 4110.59 4847.14 4706.5 3950.27 5354.66 3566.79 5378.23 3629.44 5374.67 4981.43 4741.28 4061.6 4215.2 2603.64 5069.89 5107.0 6212.15 4783.07 4946.23 4896.65 4852.58 6083.28 6100.73 5806.31 4745.79 5456.71 4908.75 3971.08 6204.65 4482.9 4593.7 4036.91 4349.13 5110.11 6379.14 5216.26 4887.52 3851.85 6318.23 4206.98 5156.76 5932.07 6101.57 4793.65 2949.12 5955.86 4532.89 4533.37 4848.46 5742.09 2779.99 5887.38 5807.46 6942.34 3658.05 5478.11 5526.31 5030.15 3644.78 4078.93 6015.02 4501.78 4922.49 3572.94 5001.58 4153.84 4820.17 4729.42 5089.26 3886.72 5415.45 6592.93 6350.71 6436.74 2460.79 4653.83 6171.71 3628.89 4668.88 5027.43 3772.3 4855.01 5522.75 5867.64 6208.9 6059.93 3340.09 5602.53 6061.63 2279.05 4829.35 3953.55 4075.28 4277.24 4469.54 4314.56 5291.05 4619.2 6650.77 5606.51 4067.96 4824.12 5166.41 5067.56 7104.73 2596.96 6162.3 6349.67 4350.15 4264.54 4139.3 3516.27 4263.78 4750.49 5078.31 4643.9 5391.48 5228.75 4923.43 5009.83 5131.15 5210.38 5717.8 4811.22 5116.66 3683.86 4918.76 5003.78 5293.75 3299.24 6246.56 5826.78 5473.72 2856.55 2205.51 4553.68 5361.87 6502.97 3758.22 4374.74 4757.2 3205.68 4532.7 5561.74 5975.23 4788.08 4198.94 5470.04 4211.82 6556.26 5684.25 5438.92 6550.4 3766.69 4891.67 6818.91 3634.5 3503.65 6631.28 6571.31 4392.65 4058.87 5174.75 5048.55 4984.46 4024.31 5948.71 5844.72 3856.53 3992.97 5460.89 6040.74 5260.85 2884.65 5393.65 4961.99 4648.21 4393.16 3311.29 4549.69 6423.81 6192.77 4312.15 4458.64 4583.52 6418.11 6280.13 5244.22 5585.14 7039.98 6456.58 4159.81 5244.98 4960.64 5792.98 4385.81 4034.05 5798.38 3862.91 4456.11 5096.24 4125.9 5039.12 3908.98 6589.82 6328.42 7307.21 3381.82 3619.72 4646.51 4438.58 4565.93 7107.63 5073.02 6545.43 6760.92 4989.2 8137.11 5484.32 7144.05 4506.18 2970.9 6542.5 4383.47 5971.21 5701.75 5262.47 5261.19 3104.96 3512.94 7043.44 4263.65 3831.52 6106.43 4807.35 6047.14 5467.63 5666.95 3919.62 4642.2 5750.35 4127.53 5210.75 4474.83 6555.44 5658.14 4208.41 5730.61 4508.18 6214.73 5175.89 3894.64 3703.49 4268.19 5232.85 4062.56 3717.47 6200.63 4504.86 4473.29 3217.67 5079.64 6163.54 996.652 5212.37 6003.78 2628.22 4244.49 5058.51 5036.98 5513.8 5188.53 4521.75 4027.63 5569.2 5350.88 5420.67 6413.15 6103.11 6459.51 5416.45 4955.16 4904.51 4147.31 5989.05 5751.15 4054.22 5950.88 7228.94 4441.22 5853.89 6551.93 4595.12 4386.8 3110.13 6484.43 4625.67 3485.54 5510.9 3657.69 3492.83 4883.63 4971.29 3684.15 5832.29 2606.51 4438.76 3994.39 6006.89 4618.73 3965.3 3814.65 5372.82 4983.3 7778.01 5690.96 5124.17 5805.1 5366.11 4064.58 3419.87 4234.88 4824.81 4384.28 5769.14 5944.3 3563.14 5135.5 5347.9 5851.63 5640.72 4504.52 5212.92 4831.93 5788.97 3472.91 4928.85 4023.93 6440.38 5868.89 5556.0 4711.04 3274.85 5007.21 5494.28 4099.26 5610.53 5206.47 4580.06 4834.39 3926.11 3272.75 5493.89 7066.96 4467.0 4991.35 4258.98 4587.7 5196.92 3787.08 6761.81 3903.91 4568.64 4728.55 4929.6 4368.28 4489.99 4692.32 4548.45 4945.0 4658.11 4551.26 5114.07 4385.49 7124.45 6358.93 4383.68 5064.67 6618.21 2617.39 5144.44 4051.18 5969.37 6816.66 5034.69 3844.54 4509.46 4680.69 3538.53 6500.49 5965.58 3352.34 4607.18 4901.29 4124.76 4775.04 4050.03 4120.07 4882.66 3429.57 3840.21 6746.66 5410.33 4642.74 3908.56 6735.97 5305.59 3636.15 4330.58 5754.6 3288.01 4355.83 6870.97 2202.77 5351.86 6056.87 5474.01 4149.55 6201.86 7554.58 3380.69 5166.89 4140.4 3639.44 5446.4 4725.01 5966.75 3868.62 4505.28 3743.76 6711.21 4236.86 5510.45 5393.76 4730.14 4941.02 3864.92 6119.99 2955.36 4128.1 3668.93 4009.24 4446.58 4402.17 5401.4 5127.82 5053.15 5910.86 6239.68 7320.78 4834.44 5782.43 4456.26 5113.6 3873.92 4810.98 5091.22 6282.38 4546.44 5657.55 5727.79 5188.82 5615.84 5043.14 4464.73 4717.73 3904.07 5748.9 5545.59 3663.0 4954.81 6304.49 5755.15 4835.97 4608.34 6419.64 4057.17 2781.96 5414.58 4431.23 4994.65 5917.34 5601.55 4462.87 5644.81 4013.86 6545.99 5334.36 5630.9 4554.68 4512.07 5984.8 3127.83 5236.24 4212.15 5678.58 6570.35 4263.18 7142.95 4559.74 5836.26 6666.67 6063.44 4583.94 5046.31 4928.35 1937.5 5241.75 5849.53 4651.99 4788.7 4420.11 5863.0 6127.39 4972.18 5329.76 3899.7 2403.72 7200.89 4813.33 4952.52 4833.55 4081.34 4954.76 6334.53 4844.83 5244.78 5652.87 6114.89 5135.63 6384.7 5952.38 3896.27 5807.52 5307.35 4342.18 6016.08 4731.21 5491.63 5725.37 6102.98 5138.33 3425.69 5153.18 4763.4 5902.67 5454.11 5806.61 4983.1 6010.59 7123.04 5906.57 7541.76 4775.49 4681.29 3220.29 5749.6 3845.9 4141.21 4439.71 5667.51 4708.31 4027.33 5431.29 4198.9 5026.76 4833.67 5023.41 5325.91 4092.07 4213.05 4224.3 4184.21 4700.07 5273.37 4732.37 4985.3 5072.5 4966.07 5713.36 4749.18 5553.94 3742.31 4316.0 4546.96 5424.55 5134.72 5695.79 5464.83 3622.8 4770.51 5577.41 6511.37 5740.98 4012.92 4346.07 5759.79 4177.47 5218.42 4218.16 2918.64 4140.92 6139.64 4896.43 5463.06 4639.8 4585.04 3986.41 5260.52 3185.09 5114.23 4242.63 5495.0 3269.54 7407.91 6015.22 5064.23 4454.74 5512.44 2904.46 4826.52 5120.92 4337.32 6240.42 4731.53 3763.9 5721.14 4577.73 5084.5 5640.12 6638.25 5078.59 5134.33 4147.49 5419.57 4802.98 3646.95 7224.99 5384.86 4749.96 5377.37 5869.67 5483.7 5018.69 4899.73 3152.86 5457.66 6394.19 5973.89 5963.36 5230.02 5087.14 5712.35 5169.48 4743.9 6776.22 3124.7 6064.71 3719.11 4467.13 6060.17 5136.87 3779.45 4708.17 5790.42 5784.37 3142.09 3682.35 3756.96 6110.48 6245.52 4932.29 4990.23 3784.94 5499.59 3125.13 6715.73 4174.44 4564.41 6331.74 5951.86 4252.18 4659.88 3791.41 5853.12 5157.38 5702.4 6203.03 5069.9 5235.87 6089.45 5810.17 5265.21 4657.24 4400.14 3669.32 4704.92 4762.1 3987.69 4287.25 4392.75 4921.1 3814.16 4271.07 4420.6 5287.25 4475.38 4589.06 4920.88 4184.47 4216.44 3999.5 6710.14 5034.05 4598.54 4816.51 5345.73 4933.49 4770.63 3990.94 4756.8 5477.8 4462.35 6069.78 4241.68 6102.49 3469.18 2945.34 3372.95 4489.29 4301.93 5846.95 6061.85 6449.06 4924.07 4685.4 3200.6 4629.02 5914.5 5146.0 4288.45 4987.28 4918.64 4759.99 4815.47 2646.13 4368.12 4365.58 5162.67 5214.4 4636.53 5760.98 3629.49 4705.68 5469.35 3835.81 4019.34 4658.24 3623.19 4906.11 4311.48 4387.39 4564.1 5825.55 5509.51 4848.14 5366.22 6193.73 5518.11 3742.11 4192.21 3597.43 5701.52 4158.91 5311.55 5321.17 3360.86 4869.25 5545.21 3877.8 4333.87 6273.6 3667.93 5024.32 5813.79 2741.2 4644.88 7350.26 5591.77 5182.13 5003.3 4168.52 3954.77 5106.46 6793.1 6016.87 4506.66 5515.73 5209.55 5426.4 5763.05 5129.68 5357.39 5076.84 5247.01 4208.37 4841.7 952.938 5685.74 5473.89 4678.7 3450.07 3306.84 3673.6 6215.87 5191.26 5866.42 5544.27 3484.81 6502.99 4666.12 6219.34 4191.01 6023.07 5674.63 5340.05 5995.4 5890.25 5700.79 4726.2 4426.02 4711.15 5188.22 4841.23 4357.11 2804.54 5005.6 4176.32 5532.75 6949.65 4095.83 5695.25 5676.61 5716.42 5268.15 5819.0 6347.72 3460.93 5124.86 4927.73 4602.57 6006.16 4608.62 5407.96 4071.75 6206.98 6562.03 4410.82 6443.99 3889.98 5193.58 5399.43 5766.05 5117.64 3916.42 4869.48 5429.3 5510.96 6653.07 4745.16 4697.91 4584.81 5071.98 5719.79 4316.5 3199.4 4371.08 5254.24 4968.14 4914.03 5086.29 5144.56 5139.18 5551.43 3034.16 5049.99 4201.03 5001.87 5684.05 5638.7 4279.44 4899.19 5058.34 5293.13 4028.22 5487.63 3852.82 3768.46 5167.53 4507.36 7145.73 5403.97 5800.81 4068.31 5166.05 3671.06 5077.29 4850.5 5866.91 6405.69 2820.07 5679.74 4825.73 4165.36 5288.33 6296.54 5797.21 6019.35 6740.35 6028.63 4550.92 5146.1 6485.77 6060.06 3869.39 5960.5 5308.33 6896.55 4685.65 5377.01 6470.23 6506.63 4140.04 5322.11 3495.3 4697.49 5735.08 7133.44 4750.81 3825.48 4474.39 4658.59 3810.68 4196.62 2809.19 4916.7 5486.89 7208.19 4549.51 5025.42 3587.93 4975.85 4517.29 4495.75 5323.95 6171.01 5701.63 5796.26 4620.95 4603.04 5368.93 4488.39 6121.56 7168.2 3763.85 3565.32 3419.07 5710.33 5344.44 4626.72 5131.77 3186.07 5549.71 4967.51 5173.82 7212.97 5490.64 5034.34 5695.44 4507.46 3422.21 5036.14 5603.68 4944.51 5532.72 3220.8 5179.17 5270.51 5148.1 7261.51 5224.64 5949.73 4312.48 5527.13 6370.33 4278.57 5081.08 6318.25 6864.06 6008.81 4493.79 4932.56 5192.49 3487.31 3918.94 5575.11 5461.72 6599.28 6224.85 5368.66 4795.08 6562.92 5501.73 4697.24 3612.44 4983.43 7035.54 5233.76 4683.28 4217.36 6549.8 4851.18 5368.52 4871.77 5811.26 5062.77 4884.93 6075.99 5262.79 5927.2 4419.79 5407.69 5152.78 4117.9 5393.43 4753.76 4781.9 4638.09 4441.91 5330.26 5939.22 4668.8 4215.05 5125.17 4271.93 4859.01 5524.45 5990.75 3953.26 5600.21 5459.92 6478.35 5453.77 4104.04 2638.82 5589.53 5593.79 4965.24 5196.08 6379.38 4849.5 6257.79 6229.83 4468.26 4870.94 5578.18 5293.37 5271.88 5559.79 4571.74 4096.86 5001.51 3622.48 6432.8 5115.42 4369.86 4082.4 5482.76 3745.02 3720.7 4211.36 5698.53 3604.31 3769.2 4450.49 3468.45 4526.34 5610.95 5409.08 5042.75 4598.92 5579.39 6647.08 4979.52 5490.75 4407.79 5214.63 3495.68 5783.94 7362.42 4202.77 5836.14 5473.05 5537.34 5726.42 6643.4 4674.9 4433.12 2549.95 3392.26 4361.24 5138.93 4556.19 6406.8 5648.78 6875.73 5226.42 6081.3 5117.52 6311.89 3967.76 6734.39 5942.45 4150.76 5005.72 6142.88 5155.28 5111.26 5388.73 5205.38 4764.83 4600.71 3957.38 4494.15 5035.71 4710.88 5300.17 4057.4 5534.23 6025.77 6815.96 5339.6 5828.25 4725.11 3626.86 6371.96 4604.1 5322.07 5076.11 5770.07 5101.6 4282.11 5467.51 4625.53 4096.47 2347.41 4542.16 5114.67 3543.37 5353.66 5030.33 5527.27 5234.2 5327.05 5438.55 5353.23 5977.66 4523.81 5106.33 5198.94 5933.54 5464.05 5879.24 2980.31 5740.78 3148.79 4796.12 5997.91 5385.86 6791.86 4209.0 4930.72 5728.58 4887.73 6297.99 5378.24 3856.73 5817.74 5887.71 5635.32 4827.61 4316.45 5481.64 5673.75 5241.22 6263.3 3422.29 4501.05 6548.29 3990.96 4326.06 5352.24 5034.46 5793.12 5469.17 4373.2 6022.78 5884.99 6647.85 7025.09 5161.74 7336.37 5099.9 7086.69 5118.86 6170.9 5833.78 4436.48 5758.98 5615.35 5288.64 6213.24 5987.88 4228.53 3579.59 6123.46 5057.59 4461.14 5285.6 4574.54 4949.55 1969.87 3132.34 4841.28 5507.38 6889.5 4416.87 4052.43 3980.46 4896.67 3934.11 5158.44 4466.22 6153.71 5917.08 5483.37 5418.12 4714.66 4984.17 4656.01 6589.13 5602.62 2030.03 5714.51 5628.97 4484.78 5157.73 5104.39 5847.91 4612.13 5846.6 4109.44 4903.84 4290.49 4434.65 5209.5 5065.74 5791.25 4028.35 4873.23 5410.6 5453.2 6348.93 6824.53 4332.64 4742.82 4422.23 4820.68 6031.22 5485.84 6424.77 4538.89 5918.95 5689.56 6556.86 5661.6 6099.28 5285.75 5385.03 3234.26 5372.25 4169.15 4778.37 5360.67 5134.17 5968.54 4904.35 5592.54 4537.03 3247.97 5124.34 4114.2 4904.37 4358.81 4651.64 5757.29 5016.46 6224.13 5061.75 4761.84 3769.24 3661.67 5517.65 4087.32 4009.68 4622.73 2569.12 4161.32 6351.89 5932.28 6945.69 4298.7 4183.4 3902.48 4304.64 4733.79 4905.53 4823.06 7392.65 5254.49 3757.23 6828.8 6883.86 3350.99 6161.94 4065.28 5939.29 5418.98 5615.06 5490.54 5203.54 4047.95 6189.67 6142.94 5001.69 6581.56 4061.87 5383.9 3798.09 3886.56 4496.51 4511.05 6561.94 5259.21 5092.93 5934.05 2803.01 4444.0 6771.18 5327.39 5781.62 4037.86 4981.81 4138.59 4970.55 4938.33 4621.33 4541.22 4934.66 4946.08 4984.01 6217.33 4557.1 6688.53 5927.1 6175.27 5876.51 6731.89 4733.41 5264.83 3901.53 5136.51 6815.51 5232.16 4457.05 3989.26 3618.64 5703.84 4335.79 5453.69 5797.32 5432.04 3921.27 3702.45 3242.31 5265.63 4898.29 4431.06 5730.2 4830.13 3494.16 5370.9 4074.16 4529.77 4325.13 6172.27 5390.33 5078.73 5278.54 5729.0 5729.92 5275.57 4179.87 4786.66 5891.25 5370.1 5129.4 5114.51 3303.49 5585.25 5256.75 6530.78 2960.5 5560.23 4975.32 5237.55 3909.94 6030.39 3799.01 6589.8 5319.1 3038.91 4181.93 6570.43 3445.92 3820.19 4979.5 4745.37 4586.82 6026.04 6200.05 5575.11 4052.49 4034.41 5061.74 5326.03 4420.35 4948.96 5117.83 5256.82 4013.86 4645.93 5165.31 4585.37 4288.5 5715.51 3721.69 3456.3 6074.39 5317.83 4256.08 5881.93 4399.52 4554.24 6182.19 5910.66 7415.84 4637.3 5141.03 4840.44 8123.59 5765.14 4767.54 5121.08 3539.68 2927.84 4696.03 6177.68 4605.39 6270.59 6045.26 6500.45 4907.55 4103.76 2932.52 4286.61 4603.66 4969.68 6636.43 5431.14 6298.8 5313.86 5178.07 5189.91 5777.26 4171.02 3530.82 7012.36 5028.06 4886.99 4002.99 5159.67 3161.1 5764.52 5684.88 6523.78 4645.86 5620.88 4941.52 5900.0 4262.74 6241.77 3783.79 5317.19 4248.14 5279.19 4016.6 5192.92 5821.49 7050.08 5580.44 5998.13 5095.52 4746.15 3720.38 4655.37 4758.84 4731.37 5023.61 4068.41 4672.86 5059.37 5783.38 3043.77 4139.39 6264.03 5088.64 3562.8 6920.92 3729.16 4174.22 3783.36 4067.89 3573.84 3922.28 4571.57 5236.69 4121.07 3133.28 5524.28 6353.81 5859.17 4150.44 5522.34 5771.98 5899.78 5717.45 5772.57 5268.27 5244.95 5448.64 4634.25 5901.8 6417.61 5395.12 3830.7 5783.69 5350.9 3483.61 6738.9 4460.89 4157.1 8052.53 3939.96 4867.12 6520.19 1458.87 5734.07 3997.68 4819.83 4801.16 5071.38 5688.77 4698.7 6229.64 2848.44 4220.43 6263.87 5743.8 4094.63 5084.76 6605.11 4757.87 3557.46 5971.95 3689.24 3979.46 6321.97 5151.19 6509.54 6119.0 3792.06 4293.3 5128.59 5587.3 3572.73 4864.38 3770.22 4390.64 5150.84 4608.01 4045.67 5087.97 6005.95 4308.49 4930.17 4581.1 4745.44 4085.96 5762.82 7360.12 6223.98 5462.6 5617.29 3035.06 4262.19 4597.88 6275.25 6892.33 4505.3 4452.36 3976.0 4832.21 6463.71 4742.35 5394.79 5645.54 5264.08 4151.74 4526.87 5192.82 5245.95 5821.42 4515.02 6294.09 3463.53 6126.03 5131.07 2970.24 4197.87 5105.54 5731.43 3518.14 3414.67 5444.36 5044.68 2649.69 6908.32 3467.11 5000.74 6153.26 4813.81 5637.53 3882.37 4095.4 5188.57 6351.48 5357.33 6210.0 5432.4 4262.52 7430.48 5992.06 5545.68 4970.12 6044.01 5973.57 6241.48 6033.28 6286.27 5616.66 4802.36 5368.28 5466.13 5075.23 4975.56 7282.36 6666.34 4645.91 6834.92 6379.33 5130.57 5652.73 5402.45 3985.93 6412.84 6071.59 2589.19 6079.55 5485.61 4993.49 5310.33 6583.37 3688.83 3402.44 4848.98 4491.96 5184.98 4467.51 5339.82 4519.03 5460.57 5110.27 5703.34 4612.68 6649.52 4232.33 4939.56 4747.68 5770.92 3093.38 4845.91 4878.93 2002.78 5631.32 6322.0 5793.14 4491.26 4609.65 4511.34 5704.61 5009.21 4379.91 4574.03 5290.37 4227.66 5850.38 4691.01 4594.89 4730.97 3677.85 5214.71 4677.84 4924.52 6044.69 5658.05 6593.1 5462.1 6032.45 5011.37 2827.92 4026.03 4441.44 4232.44 5336.61 4817.75 5563.09 4848.15 4439.09 5523.81 4718.61 3873.79 5717.67 5252.37 4499.54 5037.58 4046.22 5640.67 6080.69 5555.89 4967.93 6369.66 5678.08 5922.62 5125.45 5957.82 3784.68 4188.16 3717.22 6327.54 5507.07 2943.17 5327.71 4880.78 5257.38 4322.56 5509.09 5625.02 4829.77 3826.01 5581.01 3928.99 6959.88 4125.75 5749.53 5090.48 5034.02 5582.28 5945.25 3856.4 4696.06 4137.16 4937.36 5308.4 6581.13 4569.32 5537.61 6084.88 4397.06 4199.44 4053.12 4479.5 6261.67 3435.13 5065.78 4431.46 4521.42 6668.98 3207.84 3977.98 6043.34 4128.93 4959.72 4712.17 3808.04 4723.71 4461.67 6126.5 4034.88 6007.1 6345.2 5488.96 5128.03 5410.73 3720.92 4942.63 5087.3 6139.74 4975.57 7066.26 6150.31 3057.3 5873.62 4811.11 4996.91 5379.52 3920.44 4866.8 3768.62 5314.67 5563.47 5651.46 4066.36 4000.51 6033.93 3162.27 5516.37 5092.44 5432.2 3312.3 4612.4 4746.19 6381.58 3282.57 4798.13 5648.59 6697.45 5515.59 4432.32 3224.81 3775.38 5782.25 6457.89 4844.2 6572.17 3751.73 3374.62 4766.47 4926.62 4871.1 3917.09 6009.93 5872.45 4414.09 5270.1 5191.29 4947.64 6305.9 6649.21 4654.92 3470.69 4859.95 5286.55 5522.18 5223.1 3873.72 5212.05 4592.49 5479.86 6474.5 4444.92 4702.32 5971.9 5247.73 3746.62 4876.37 4769.62 5260.13 4649.5 5181.31 5985.75 5475.83 6189.29 5984.55 5803.3 3228.27 4721.98 5252.82 3543.98 5056.26 5878.55 4014.44 6604.72 6002.77 3794.47 4610.55 4967.02 4614.49 5400.69 4462.5 5573.31 5004.68 4023.88 4405.61 5348.11 5108.84 3511.5 5067.92 4520.14 5357.14 3188.21 5919.27 4793.06 6637.38 6188.33 6111.23 6916.18 5786.06 3868.69 5447.74 4450.51 6033.72 3851.47 4966.74 4959.94 1635.31 5639.4 6185.73 4083.24 6520.96 3771.91 5217.62 6178.19 4616.81 5715.25 5212.2 4611.21 5108.42 4630.5 3354.94 6296.36 4451.76 5237.27 7885.41 4907.03 4104.97 4575.72 5114.61 6118.13 2181.29 4420.3 6332.64 4083.1 3482.73 5130.56 4957.99 4063.26 4542.62 4997.89 5093.28 4132.08 6009.88 4850.49 4699.77 4981.55 3625.98 5144.23 6188.62 6153.07 4763.04 4414.06 5944.52 4413.56 4532.67 5050.2 5316.05 2513.38 4908.32 3995.08 5019.84 4810.74 3900.93 5784.38 4149.17 4329.8 5728.27 5672.46 3074.49 5202.33 3956.24 7558.99 3393.59 4142.1 5043.14 5333.04 5445.91 4521.99 4812.59 6842.54 7115.67 5675.45 3361.11 6038.56 2807.46 5599.16 4179.8 3488.34 5658.35 5428.24 4487.51 4582.12 4295.25 7394.47 4850.95 4729.45 5374.09 6271.22 3421.81 5378.75 3920.64 6186.24 5822.7 4137.41 3780.07 5466.49 4038.17 5007.41 3692.99 4907.48 6213.74 2329.93 6938.87 5412.07 5512.57 4806.99 4813.55 5856.43 3839.0 5349.85 5799.86 4362.94 5172.1 4469.82 6545.78 4870.14 4404.87 2932.2 5105.72 5767.65 5003.49 4750.76 3964.03 4216.33 5497.27 4081.77 5617.91 4948.21 4721.2 4987.01 4202.12 4706.31 2694.25 4735.99 6492.44 4613.32 3996.93 5145.39 6351.95 5195.09 5345.05 7679.2 6131.52 4881.51 4311.92 2626.41 6729.99 5093.41 6842.35 5464.34 3621.63 5801.89 5908.57 7296.47 5742.39 4821.41 4924.53 5616.11 4499.52 4028.13 3874.12 4457.73 6476.35 6260.58 3053.19 4067.24 6571.26 5580.95 3549.92 6598.99 4032.06 5246.81 5089.1 5888.95 5394.78 3463.34 5122.38 2853.68 5262.85 4998.37 5329.84 6559.82 3879.83 6565.95 4577.98 5043.34 5886.81 4246.24 6805.02 5354.48 4900.26 6261.13 4167.55 5244.47 4720.34 5510.89 4731.16 4495.33 5282.67 4159.89 5178.55 5146.69 6203.24 6818.23 4369.87 4488.41 6679.12 5652.19 5806.74 6578.62 6284.12 3465.03 4796.04 5229.56 6011.4 4672.34 6052.22 5376.41 5003.63 4695.7 4944.08 4082.01 5269.39 4305.35 5210.22 5832.72 2451.27 3903.9 4444.95 5161.02 3124.49 6265.48 4203.68 5003.81 4739.56 3818.37 3352.46 4701.03 6225.05 5434.04 5200.1 3997.52 4444.54 5779.9 4909.74 5310.33 6664.54 5161.73 4777.96 5259.48 4803.4 6833.5 2613.78 4780.16 3834.01 5738.37 4433.23 4813.24 5759.19 3113.64 4490.2 4304.75 5480.86 6139.9 4720.22 4313.38 5250.56 3633.58 2468.16 6294.14 4339.97 5203.75 5169.09 4691.15 2459.88 4210.24 5470.67 5901.71 5225.11 5342.9 5252.22 5733.12 4962.35 6436.29 5402.81 4600.81 4919.13 5640.63 5168.97 5783.88 5002.38 6705.93 4865.11 5449.09 5502.14 6470.87 4131.08 4465.56 5747.9 3864.19 4287.93 5315.71 6158.93 5081.65 4823.14 5438.5 4621.32 5699.4 3878.8 4698.94 3948.21 5669.15 5296.05 5263.86 3330.85 5056.32 5533.52 5410.33 4747.24 4380.86 5576.16 5648.02 3308.75 4439.17 5677.42 4929.35 5606.22 3943.77 5242.38 6081.35 5459.52 6262.18 5566.5 5663.36 4276.59 5579.04 5125.53 5994.21 5403.81 5082.25 6964.78 5299.03 4374.05 5036.84 3922.98 4565.36 5813.68 4025.08 4008.67 3618.53 5254.93 4770.21 6608.94 3796.73 5417.07 3082.16 5656.84 6789.66 4739.41 5312.2 5847.27 4706.59 5734.84 3982.31 4950.07 4582.24 2832.83 5827.3 4084.87 6036.99 3010.1 3825.98 4589.22 5087.03 4667.84 3906.41 4123.08 4512.6 4260.38 4636.45 4932.27 5638.51 6793.49 3563.33 6060.19 5536.0 6786.37 4333.23 4328.76 5561.63 4124.33 5940.5 4358.06 5093.51 5647.93 4280.92 6201.49 5154.74 4605.61 6898.8 5386.95 6540.57 5332.11 4893.72 6004.72 4072.4 5373.78 5345.65 4489.18 5863.36 4632.75 5237.76 4994.98 4286.84 6423.96 6058.13 6988.4 6635.51 4060.17 6051.35 5302.53 4909.13 4287.61 4867.13 4604.34 4863.27 2701.42 5442.79 5051.39 6673.92 5151.68 4884.94 5362.15 4609.98 4455.61 4738.72 4752.31 5240.97 5569.85 5405.6 3929.35 4884.93 4759.38 6960.97 4287.15 5282.51 5504.65 5669.41 5732.11 5040.9 5596.68 8013.28 3846.55 5159.9 5283.65 4644.68 2892.36 5981.54 5911.29 5416.41 4694.27 6760.64 2515.5 5177.88 5551.79 6981.47 3916.15 4474.96 4758.76 4790.63 5259.29 3584.05 4916.75 4818.53 5097.85 5584.64 6189.04 6224.64 4221.03 3799.55 5082.66 4550.77 4337.93 3550.88 4345.51 4048.73 6223.33 3860.8 5145.13 3747.96 5611.29 4521.88 6568.45 5004.22 4601.54 7263.57 4696.92 5705.96 6437.99 5739.69 6632.04 7360.62 4977.64 4985.45 4983.56 5699.51 2489.44 5499.37 4883.13 4836.76 4752.94 5551.09 3950.53 4501.1 5581.47 5894.69 6550.61 4987.01 4713.56 6094.34 6779.82 3999.81 5543.67 6210.48 6377.45 4182.05 4502.12 3255.93 6853.07 6327.61 4633.59 5733.59 5575.8 5268.93 6874.6 5106.9 5306.31 5523.96 4223.53 4733.37 4535.94 3037.72 4523.9 5126.08 5604.0 3760.4 4951.02 3919.47 4602.7 3783.35 4868.66 4037.16 4004.39 4987.48 5943.61 4248.58 5479.17 4542.25 5020.37 4414.23 5233.88 4849.21 4785.55 3793.83 5245.4 6189.81 5367.05 4449.73 5647.11 4088.72 3945.62 3743.85 6236.46 5342.17 6379.3 5015.67 3795.63 5189.4 4576.71 6538.04 4894.15 6157.59 5201.3 5848.41 4090.28 5438.6 7370.52 4726.5 5467.05 3724.23 5103.3 4963.88 5888.94 3832.09 5175.88 5267.65 4790.16 3509.34 5360.88 3731.58 3166.37 5369.42 5207.08 5205.53 4714.52 4587.19 5543.05 6028.89 5333.16 4888.17 5755.98 5392.85 5077.2 4384.91 4274.05 4277.54 5529.09 4531.46 5925.82 5448.68 4739.5 4072.95 4491.62 3865.5 3695.72 6395.63 4246.83 4727.98 4122.2 4516.26 3647.26 5275.27 
SCALARS Velocity float 1
LOOKUP_TABLE default
1.6916 1.81084 1.62037 1.19178 0.600059 1.02664 2.17094 2.24643 2.07694 1.68159 1.53324 1.62796 1.38719 1.45678 1.73059 1.3647 1.38508 1.62856 1.55815 1.80595 2.06676 1.91759 1.68478 1.35458 1.24059 1.13928 0.831398 1.05262 1.20493 1.27302 1.42617 2.07748 1.70541 1.37121 1.48408 1.63913 1.46449 1.2755 1.70959 1.36147 1.45813 1.46349 1.40037 1.50991 1.37414 1.45273 1.45772 1.4441 1.47886 1.31314 1.28159 1.72174 1.7004 1.62125 2.01886 1.60493 1.57698 1.188 1.36415 1.24578 1.21436 1.31789 1.27644 1.27569 1.28497 1.14185 1.13398 1.13315 1.19048 1.22 1.10331 1.33077 1.63043 1.48939 1.41795 1.53153 1.64953 1.65112 1.36819 1.48312 1.49626 1.59341 1.29225 1.21959 1.38774 1.46491 1.488 1.42246 1.3502 1.41669 1.48133 1.26298 1.16344 1.0956 1.67792 1.65205 1.57976 1.96985 1.73981 1.73438 1.51971 1.38769 1.22956 1.28195 1.22084 1.30664 1.32151 1.28898 1.2826 1.24448 1.15061 1.14894 1.12626 1.106 1.1009 1.10018 1.02408 0.986998 1.33825 1.30078 1.48843 1.44282 1.60139 1.43789 1.37129 1.44547 1.19282 1.13079 1.03001 1.55308 1.14394 1.36142 1.37325 1.40841 1.4544 1.26967 1.20596 1.62892 1.36504 1.21224 1.70312 1.37876 1.25938 1.20912 1.23338 1.17117 1.28646 1.26578 1.24981 1.15853 1.30144 1.15683 1.14253 1.1634 1.1531 1.14727 1.13571 1.13489 1.1019 1.09239 1.07801 1.06707 1.04366 1.07375 1.06264 0.921153 1.07247 1.16855 1.52108 1.49608 1.44058 1.63356 1.31248 1.25372 1.19155 1.34089 1.36334 1.14325 1.12979 1.11496 0.820204 1.21019 1.41568 1.52653 1.45449 1.28744 1.25577 1.27366 1.26044 1.32669 1.16992 1.17363 1.22756 0.982673 1.64545 1.53441 1.30707 1.20912 1.28444 1.15204 1.1871 1.20843 1.43823 1.34259 1.28243 1.2955 1.02212 1.04968 1.10974 1.03827 1.04815 1.09876 1.12421 0.906151 0.956879 1.12573 0.991366 1.0505 1.06716 1.1171 1.07337 1.07354 1.128 1.15508 1.20605 1.2369 1.48429 1.29119 1.25924 1.19246 1.4826 1.2858 1.31397 1.20063 1.01183 1.51458 1.3673 1.45263 1.36998 1.21751 1.27816 1.34586 1.28 1.31185 1.25167 1.21459 1.20496 1.37708 1.23478 0.859032 1.02426 0.979832 1.22683 1.13388 1.151 1.03494 1.06465 0.936651 1.05893 1.28938 1.07163 1.43854 1.00371 1.12094 1.20039 1.10829 1.11382 1.08555 1.13132 1.1531 1.00658 1.05266 0.979259 0.937574 0.984591 1.01524 1.08849 1.12014 1.08071 1.118 1.17805 1.19649 1.23418 1.34602 1.27633 1.44471 1.39295 1.19062 1.28631 1.19333 1.35752 1.21745 1.173 1.11225 1.05887 1.47054 1.21658 1.29967 1.5509 1.48517 1.51484 1.14871 1.24858 1.22421 1.25131 1.31266 1.23298 1.19712 0.94029 1.0705 1.11908 1.14081 1.10002 1.02423 0.996204 1.02207 1.03329 0.703224 0.938082 1.13977 1.01519 1.10032 1.03175 1.06575 1.14313 1.00658 1.03623 0.908539 0.977869 0.950061 1.01642 0.984437 0.972628 0.908152 0.984065 0.971257 0.962508 0.988221 1.02987 1.15988 1.20859 1.20478 1.18466 0.973832 1.10987 0.810955 0.468854 1.24987 1.37795 1.10495 1.22247 1.22477 1.35667 1.18113 0.987755 1.10232 1.13097 1.35914 0.911653 1.3525 1.24345 1.31396 1.58474 1.61246 1.17888 1.2071 1.048 1.04484 1.18798 1.2467 1.36074 1.4372 1.39989 1.36304 1.0099 1.04539 1.06652 0.982845 1.11151 1.02673 1.03371 1.10232 1.09535 1.04559 1.10747 0.96125 0.907714 0.941883 0.987506 0.984777 0.979509 1.03073 0.922536 1.03331 0.914537 0.924488 0.913757 0.880221 0.846289 0.932153 0.963449 0.969878 0.940861 0.995596 1.05188 1.04739 1.02884 0.959603 1.11391 1.16744 1.0662 1.03176 1.27566 1.31725 1.17148 0.860236 0.996162 0.714872 1.28256 1.27722 1.15868 1.20862 1.15348 1.20779 1.13935 1.06968 1.05332 1.11088 1.10063 1.30732 1.3078 0.886198 1.00045 1.32561 1.18631 1.33197 1.38783 0.943087 1.08136 1.28852 1.32983 1.16873 1.16155 1.27866 1.02167 1.31292 1.15338 1.29816 1.10678 1.1111 1.23442 1.0654 1.04534 1.07922 1.10015 1.10957 1.08909 1.07302 0.997152 0.969434 0.946702 0.976912 1.00001 1.02259 1.03975 0.85449 1.01968 1.10404 0.826156 0.884233 0.899586 0.890689 0.941383 0.88709 0.857196 0.839952 0.914808 0.909728 0.948265 0.914268 0.857467 0.848136 0.85172 0.908306 0.940982 0.924991 0.953342 1.00639 0.978198 1.22415 0.492819 1.56733 1.1573 0.988492 0.824842 0.647212 1.37245 1.12553 1.15934 1.1117 1.15301 1.18069 1.22176 1.26239 1.19434 0.86414 1.03859 1.11523 1.26537 1.30705 1.38778 1.19575 1.21446 1.16033 0.98008 1.16204 1.20914 1.13077 1.16543 1.10385 1.08318 0.849367 1.00155 0.987254 1.21342 1.2897 1.22576 1.21062 1.26838 1.05388 1.08027 1.08571 1.08149 1.08434 1.09052 1.09613 1.11332 1.10463 1.05896 1.0195 1.03986 1.02337 0.987412 1.00607 1.01949 1.01863 0.99765 1.01096 0.984909 0.999084 1.18979 1.14265 0.892783 1.0254 1.08052 0.856377 0.871122 0.932505 0.941807 0.901127 0.922196 0.894151 0.906009 0.822225 0.891978 0.827344 0.991657 0.916765 0.922519 0.876552 0.842392 0.823584 0.830621 0.925339 0.9438 0.960944 0.99967 0.986167 0.985625 0.910417 0.785933 1.20615 0.89914 0.987591 1.08399 0.87016 0.902493 0.734652 0.495134 1.3394 1.08991 1.20128 1.07046 1.12032 1.19995 1.35033 1.09512 1.03354 1.14679 1.10911 0.886772 1.12977 1.09947 1.12037 1.3451 1.38125 1.18849 1.21206 1.15017 1.03981 1.16266 1.23033 1.1904 1.23768 1.14328 0.956559 1.05508 1.09856 1.08507 1.17229 1.28081 1.00849 1.05222 1.06764 1.05343 1.07341 1.05778 1.09066 1.12444 1.08163 1.04758 1.02315 1.0205 1.00926 0.996874 0.998783 1.00319 0.994923 0.920393 0.919869 0.979522 0.969174 0.993244 0.943845 0.955071 0.917742 0.936863 0.925635 0.905436 0.790199 0.801619 0.86397 0.969657 0.920737 0.885463 1.02503 0.93711 0.881585 0.874872 0.950759 0.973009 0.976786 0.975801 0.949684 0.979735 0.938358 0.941667 0.994191 1.06616 0.997002 0.95613 0.938674 1.01458 1.24204 1.15232 1.12203 1.56203 1.38731 0.911811 1.09637 0.976641 1.05646 0.958542 0.888996 1.20697 1.06216 1.2542 1.88595 1.12125 1.12296 1.12619 1.16035 1.12494 1.10316 1.1693 1.18579 1.10048 1.17898 1.09052 1.0736 1.02123 1.07583 1.10362 1.1214 1.10253 1.27285 1.1627 0.98663 1.05413 1.02988 1.04551 1.04168 1.11127 1.02855 1.06567 1.04119 1.06294 1.04848 1.05552 1.06413 1.0129 1.00727 1.01433 0.981174 1.01024 0.924236 0.924245 0.930748 0.950252 0.908073 0.954837 0.954267 0.918773 0.923955 0.92253 0.87545 0.857384 0.814943 0.845517 0.839754 0.841599 0.88975 0.880775 0.835961 0.822923 0.827194 0.922364 0.876739 0.964727 0.958465 0.991563 0.982655 1.00017 0.958701 1.14798 1.02355 1.0793 1.05076 1.01526 1.00655 1.02535 1.17989 0.989662 0.704327 0.928998 1.19759 1.11168 1.12967 1.0092 0.902574 0.870945 1.05188 1.1209 0.997496 0.999905 1.0625 1.07594 1.14331 1.19232 1.18318 1.55671 1.33971 0.889093 1.17285 1.1795 1.17196 1.16711 1.11228 0.967754 1.16201 1.14344 1.09075 1.03158 1.1194 1.14566 1.13824 1.19897 1.22958 1.22362 1.06041 1.08678 1.05563 1.07444 1.08175 1.10049 1.6499 1.19539 1.21321 1.06629 1.0806 1.09929 1.08513 1.1134 1.09884 1.06796 1.06279 1.02041 0.995642 1.01442 1.01442 0.985206 1.00374 1.02235 0.941385 0.946206 0.870902 0.962176 0.855687 0.934893 0.945568 0.876917 0.932682 0.877306 0.877114 0.794613 0.912352 0.937984 0.911586 0.915389 0.802261 0.821234 0.921902 0.898796 0.929984 0.902807 0.915118 0.868526 0.846652 0.848203 0.816038 0.889249 0.937964 0.935183 0.986256 0.97151 0.958635 0.895321 1.08762 1.05414 1.07093 1.09964 1.3101 1.13862 1.25425 1.05746 0.978154 1.02161 0.959871 0.942609 1.04651 1.06783 1.10414 1.06606 1.09693 1.09521 1.19796 1.24498 1.20849 1.02778 1.14976 1.16625 1.16783 1.17986 1.15119 1.19032 1.07749 1.03458 1.16719 1.10048 1.0496 1.15332 1.13025 1.16923 1.24046 0.970394 1.1034 1.09582 1.04 1.02086 1.19855 0.833851 0.893588 1.09225 0.923727 1.02361 1.02035 1.08103 1.11128 1.10165 1.08399 1.04938 0.979718 1.02598 0.944314 1.00021 1.02343 0.971967 0.917211 0.848249 0.765899 0.787927 0.823456 0.863566 0.793101 0.853964 0.876423 0.871929 0.877364 0.68725 0.892711 0.834964 0.655902 0.857543 0.907844 0.899025 0.943922 0.892077 0.943045 0.926387 0.86817 0.902429 0.838971 0.79836 0.966142 0.872666 1.00825 0.929612 0.968153 0.931266 0.920795 0.848028 0.918583 0.992135 1.01188 1.03865 1.01304 0.960914 1.02051 1.02344 1.08146 1.07578 1.0332 1.02768 1.07393 1.13552 1.16962 1.0897 0.929575 0.669509 0.940193 0.986062 1.07767 0.973843 0.981019 0.969816 0.996996 1.07203 1.08755 1.0965 1.1326 1.1897 1.18505 1.16452 1.06627 1.14893 1.17688 1.12533 1.17794 1.10881 1.10124 1.04967 1.05848 1.08361 1.16266 1.05219 1.00658 1.14152 1.11384 1.12688 1.15013 1.15484 1.19192 1.22444 1.31894 0.738866 0.751291 0.962096 1.07088 1.04977 1.0527 1.04987 0.909725 0.939203 0.870119 0.950185 1.03014 1.06955 1.05828 0.816061 1.0741 0.95359 0.767475 0.994059 0.88547 0.910253 0.854033 0.859642 0.81561 0.79798 0.829073 0.923841 0.863269 0.913342 0.8937 0.875563 0.654166 0.960296 0.754995 0.913352 0.884738 0.949304 0.917288 0.871755 0.913217 0.887046 0.907371 0.994594 0.837336 0.874752 0.944598 0.755536 0.992397 0.95837 0.912406 0.954067 0.918558 0.952612 0.846934 0.944788 0.918491 1.0576 1.11582 1.0667 1.01421 1.01865 1.04067 1.05539 1.06191 0.948645 1.00445 0.902354 0.81721 0.990077 1.06271 0.962305 1.00761 1.00004 1.03546 1.06679 1.06617 1.14152 1.17534 1.16819 1.1599 1.16748 1.1089 1.07106 1.11974 1.17283 1.25693 1.2273 1.20606 1.07606 1.10105 1.13828 1.07279 1.13798 1.02809 0.937359 1.16477 1.06576 1.13411 1.21994 1.36397 0.420471 0.942266 1.02755 1.0134 1.05344 1.02486 1.02899 0.983221 0.937327 0.829888 0.875534 0.88933 0.941159 0.92074 0.99642 0.960729 0.932766 1.18953 0.811874 0.879656 0.9023 0.833954 0.787717 0.83267 0.763082 0.85685 0.91144 0.942922 0.807069 0.587507 0.762229 0.880884 0.784695 0.887911 0.772805 0.877238 0.837502 0.914646 0.897874 0.811376 0.961861 0.913385 0.707353 0.747148 0.808648 0.77398 0.82834 0.753164 0.718432 0.586773 0.751142 0.649696 0.887049 0.867095 1.02685 0.940657 0.936267 0.818771 0.819791 0.941859 0.942944 0.409992 1.24965 1.10169 1.0221 1.01985 1.00031 1.03042 1.0164 0.991359 0.994573 1.00378 1.01105 0.941781 0.837638 0.936339 0.990542 1.01972 1.03591 1.0468 1.0735 1.0573 1.13561 1.09503 1.13287 1.16286 1.18427 1.18403 1.14113 1.08792 1.15277 1.12949 1.00951 1.19976 1.08173 1.19906 1.10719 1.07237 1.04866 1.12009 0.962366 0.93128 1.20165 1.15921 1.17477 1.20749 0.334904 0.962593 0.989767 1.00352 1.01244 0.99975 0.987975 0.998178 1.00906 0.93485 0.924119 0.89745 0.918094 0.872176 0.902064 0.890868 0.906325 0.92331 0.998315 0.970988 0.908523 0.92394 0.948374 0.91561 0.841902 0.766076 0.756492 0.763408 0.903012 0.861405 0.811852 0.994802 0.825996 0.803038 0.991111 0.799227 0.920366 0.842595 0.735915 0.848018 0.710965 0.56569 0.683094 0.78479 0.953314 0.725987 0.811241 0.736198 0.810153 0.86182 0.745497 0.735818 0.747689 0.722547 0.805621 0.805868 0.840442 0.798874 1.115 0.83041 0.742223 0.75349 0.763821 0.524713 1.04497 1.12066 1.04915 1.00794 0.979949 0.986779 0.970737 0.964273 1.01476 1.02546 1.01037 0.999166 0.993542 1.00361 0.992744 0.946799 0.886292 0.924725 0.948277 0.977407 1.00601 1.07315 1.06833 1.12296 1.10913 1.07834 1.1101 1.17459 1.15728 1.19829 1.14648 1.07593 1.13482 1.09629 1.16889 1.11781 0.996438 1.07583 1.09661 1.13106 1.04637 1.13948 1.00974 0.909586 1.23262 1.19617 1.18536 0.78716 1.10728 1.06857 1.01627 1.00543 1.03182 1.05279 0.998649 0.946318 0.964974 0.919508 0.911414 0.884985 0.913291 0.908383 0.916679 0.949147 0.948102 0.938666 0.95902 0.933688 0.928408 0.92889 0.76124 0.910128 0.759631 0.839661 0.80024 0.796712 0.674677 0.863292 0.794387 0.750045 0.715195 0.780229 0.849907 0.710575 0.786421 0.79935 0.869381 0.790417 0.731851 0.736279 0.805638 0.734866 0.79555 0.76828 0.591535 0.586783 0.794024 0.975338 0.901246 0.715418 0.711385 0.750564 0.735353 0.700302 0.721731 0.777728 0.761605 0.772659 0.767384 0.76194 0.839285 0.843374 0.800665 0.812459 1.0841 0.998576 0.826343 0.677084 0.65776 0.58242 0.472879 1.08845 0.861014 0.998716 0.962919 0.928597 0.90177 0.971147 0.986066 0.969019 0.980013 0.972698 0.942248 0.911583 0.968047 0.981813 0.988116 0.981923 0.982411 0.977579 1.07663 1.09057 1.13456 1.09941 1.11818 1.16501 1.20277 1.24219 1.18949 1.12927 1.10602 1.12759 1.11442 1.13488 1.01474 1.17425 0.982001 1.05805 1.12287 1.16495 1.16346 1.0597 0.962109 1.23239 1.19929 1.1128 0.932494 1.17216 1.15249 1.01443 1.14275 1.00787 1.00871 1.05266 1.05639 1.06298 0.972762 1.02238 1.0241 0.955459 0.934392 0.881894 0.904894 0.93193 0.929157 0.955987 0.939447 0.925035 0.91956 0.945611 0.912879 0.86329 0.917294 0.900008 0.918023 0.843068 0.95961 0.65104 0.699869 0.63086 0.673382 0.736591 0.757432 0.726198 0.702848 0.913321 0.894809 0.748241 0.799125 0.76309 0.81104 0.719621 0.868294 0.642728 0.684435 0.649285 0.608582 0.549926 0.642179 0.613766 0.655789 0.598155 0.518703 0.840322 0.819209 0.876195 0.794746 0.631342 0.72363 0.682641 0.716764 0.745844 0.671917 0.691599 0.80865 0.782037 0.790109 0.81518 0.827883 0.933842 0.974371 0.603614 0.548586 0.591223 0.570712 0.780368 0.727249 0.808209 0.872312 1.12404 0.943205 0.904277 1.00767 0.966678 0.920555 0.937187 0.969581 0.966388 0.970116 0.91169 0.882294 0.911913 0.963761 0.984685 1.04371 0.990812 0.981765 1.13155 1.07869 1.19626 1.14957 1.14018 1.01532 1.07573 1.06329 1.13915 1.15589 1.11988 1.13477 1.09719 1.03893 1.03831 1.16438 1.07982 1.07457 1.1335 1.13148 1.00074 1.0867 1.08466 1.0271 1.10812 1.01652 1.06168 1.02219 1.01177 1.00502 0.969591 0.987635 1.00834 1.10755 0.887937 1.00827 0.999351 0.924666 0.865596 0.89424 0.926696 0.932974 0.927715 0.919304 0.910537 0.903681 0.866484 0.874064 0.902485 0.910959 0.938653 0.695626 1.22796 0.829761 0.750526 0.758792 0.801613 0.850306 0.714969 0.728168 0.759202 0.883667 0.747562 0.716691 0.835606 0.706372 0.618964 0.605518 0.691114 0.492804 0.471138 0.447567 0.458412 0.514044 0.502912 0.523131 0.53457 0.483295 0.504934 0.4298 0.589255 0.694857 0.665916 0.751363 0.731494 0.769673 0.668425 0.654104 0.720495 0.771423 0.78833 0.795218 0.823087 0.826749 0.797823 0.818419 0.782779 0.8576 0.862261 0.851548 0.782733 0.651932 0.601071 0.892497 0.892242 0.940139 1.03272 0.859415 0.911901 0.910591 0.915724 0.930241 0.950306 0.971796 0.978736 0.974414 0.974348 0.957256 0.949747 0.912181 0.961571 0.980349 1.02559 1.10562 1.04307 0.890559 1.20043 1.18768 1.18428 1.10548 0.984593 1.14494 1.13964 0.995579 1.05649 1.08444 1.117 1.12826 1.12413 1.10279 1.10056 1.08459 1.17456 1.08972 1.13197 1.12391 1.17234 1.12254 1.11424 1.11919 1.08181 0.998643 0.980308 1.05379 1.03515 1.0058 1.02278 0.936036 0.957707 1.00824 1.16587 0.794533 0.790294 0.908824 0.883196 0.995996 0.809632 0.890281 0.908765 0.923774 0.917833 0.918444 0.916174 0.911333 0.900473 0.886287 0.856864 0.869339 0.852725 0.871555 0.862774 0.817361 0.82002 1.27678 0.69564 0.252176 0.534903 0.757526 0.8857 0.910244 0.806109 0.772381 0.744036 0.769287 0.788988 0.770082 0.697174 0.616074 0.671055 0.580202 0.439449 0.647631 0.423258 0.472159 0.423545 0.467861 0.246427 0.374932 0.448488 0.463087 0.466488 0.461408 0.473776 0.532832 0.592229 0.501405 0.586909 0.612129 0.657047 0.671443 0.642394 0.720958 0.713664 0.797571 0.822257 0.79762 0.876735 0.80308 0.693572 0.671542 0.713426 0.993888 0.950193 0.921507 1.02687 1.04683 0.981269 0.847766 0.815877 0.916977 0.959748 0.931309 0.932406 0.956729 0.985317 1.01306 0.990939 0.966867 0.958984 0.926502 0.964279 0.918578 0.990131 1.03437 1.07596 1.01961 0.979083 1.12003 1.04013 1.11764 1.10991 1.00654 1.0949 1.10143 1.13376 1.11667 1.05749 1.08612 1.14511 1.15437 1.08431 1.13528 1.13596 1.13633 1.07438 1.08115 1.11051 1.01739 0.986973 1.01802 1.03867 1.05574 1.06232 1.04111 0.866182 0.966972 0.935462 1.04115 1.10681 0.988609 0.812569 0.881173 0.988725 0.808326 0.788965 0.825621 0.878057 0.907926 0.927329 0.924613 0.890096 0.855228 0.838944 0.786366 0.811775 1.46994 2.47511 0.519198 0.581214 0.829602 0.68453 0.760585 0.870326 0.744052 0.699461 0.674584 0.674107 0.684426 0.79521 0.753843 0.755361 0.732214 0.728624 0.674864 0.658916 0.471843 0.644914 0.382629 0.491838 0.446493 0.5579 0.292541 0.14538 0.0418972 0.233351 0.524221 1.10199 0.565476 0.498991 0.375323 0.378938 0.168168 0.343513 0.468335 0.497728 0.55252 0.471897 0.639309 0.691195 0.709068 0.745875 0.691902 0.742121 0.724408 0.862218 0.880026 0.882643 0.808616 0.826513 0.797974 0.778402 0.766169 0.88578 0.738016 0.712553 0.856333 0.792901 0.866458 0.834417 1.09087 1.03525 0.953634 0.780983 0.558208 0.882381 0.880117 0.879439 0.807211 1.09862 1.00885 0.940265 0.915048 0.987297 0.991683 1.02655 1.05972 0.977576 0.941734 0.927231 1.0022 1.02546 1.05759 0.992205 1.13541 1.06738 1.07072 1.15702 1.14362 1.15497 1.07375 1.06961 1.05536 1.0951 1.09219 1.09905 1.13235 1.11824 1.10573 1.06734 1.0846 1.10361 1.0947 1.0827 1.15704 1.13532 1.0776 1.07091 1.12742 1.06223 1.07973 1.06592 1.02436 1.01649 1.04151 0.830869 1.02293 1.06793 1.04476 1.05466 1.01902 1.0658 0.867972 0.940703 0.951265 0.949156 0.946476 0.81155 0.937219 0.930798 0.940267 0.92852 0.84757 0.850652 0.824346 0.849645 0.848078 0.84271 0.599654 0.774636 0.26133 0.443027 0.62038 0.658308 0.733689 0.70062 0.702657 0.707307 0.698645 0.707569 0.729501 0.749213 0.663219 0.6562 0.683022 0.565054 0.485292 0.574143 0.416572 0.530682 0.172494 0.384382 0.0253739 0.0314639 0.0252341 1.88647 2.02089 0.606678 0.72162 1.12772 0.917869 0.671253 0.613822 0.518166 0.565325 0.653304 0.680993 0.712163 0.693973 0.757193 0.671484 0.99558 0.968951 0.791794 0.787698 0.791635 0.790489 0.722062 0.754585 0.625789 0.784431 0.896173 0.964529 0.966893 1.0251 0.823421 0.805173 0.719088 0.941615 0.984606 1.0132 0.952945 0.883067 1.05957 0.975751 0.993002 0.968972 0.937376 0.929587 0.889085 0.999296 1.04308 1.08297 1.0457 1.07557 1.09694 1.17346 1.06249 1.13765 1.16278 1.08776 1.10435 1.09063 1.08527 1.10263 1.09685 1.11072 1.12904 1.12766 1.0917 1.16618 1.21235 1.15265 1.12511 1.11191 1.11473 1.08542 1.22977 1.20006 1.09543 1.11582 1.17659 1.2199 1.02525 1.0234 0.996603 0.993299 0.875436 1.04048 1.02949 1.03653 1.02831 1.06294 1.02909 1.00687 0.946952 0.794089 0.299056 0.843018 0.957581 0.939531 0.923235 0.913408 0.886439 0.86453 0.887026 0.863406 0.880493 0.892227 0.754918 0.769919 0.551003 0.73481 0.607202 0.677262 0.740308 0.7363 0.733998 0.726263 0.753979 0.712806 0.743124 0.763341 0.679125 0.674804 0.643585 0.613992 0.591814 0.568027 0.548653 0.498296 0.232418 0.152593 0.354028 0.045846 0.251525 1.07968 0.0936544 1.32031 0.785837 0.949993 0.59102 0.928457 0.729031 0.504845 0.535296 0.436056 0.545503 0.452211 0.551448 0.742508 0.586073 0.532756 0.46907 0.603773 0.365237 1.03504 0.637434 0.853963 0.821716 0.796941 0.81936 0.816984 0.76538 0.805411 0.649244 0.488693 0.802766 0.981121 1.00538 0.992851 0.8048 0.898143 0.819654 0.846584 0.77332 0.948216 1.01884 1.0232 0.96421 0.873394 1.08138 1.02638 0.976615 0.987462 0.983767 0.966756 0.927505 0.925169 0.885923 0.966249 1.02167 1.09772 1.09577 1.09943 1.10987 1.05652 1.09746 1.11251 1.09464 1.07163 1.12203 1.10997 1.13746 1.1114 1.13915 1.11963 1.14826 1.11141 1.07192 1.04212 1.08587 1.15831 1.07498 1.11991 1.2576 1.19174 1.10698 1.00136 0.964002 0.820312 0.950907 1.07256 0.934616 1.03286 1.04992 1.02053 1.03281 1.14889 1.00221 0.768619 1.09111 0.960645 0.942947 0.991875 0.908423 0.887363 0.884532 0.876571 0.927884 0.855019 0.932025 0.76504 0.810361 0.762674 0.836414 0.747714 0.760141 0.756605 0.799177 0.763137 0.755322 0.738271 0.717604 0.727562 0.74803 0.786599 0.70246 0.663255 0.608411 0.629863 0.492502 0.688346 0.66743 0.50355 0.288717 0.384093 0.425221 0.0526706 0.750964 0.421153 0.562881 0.431798 0.43872 0.458273 0.519564 0.871895 0.724797 1.03273 0.62444 0.412955 0.660484 0.642149 0.735342 0.848852 0.770451 0.823417 0.752642 0.796865 0.846345 0.848196 0.658054 0.837035 1.05205 1.026 1.03122 1.02375 0.998151 0.960947 0.853616 0.789258 0.826603 1.03925 0.88455 0.981869 1.12452 0.963667 0.989598 0.98738 0.990075 0.980316 1.00042 0.984232 0.994312 1.11798 1.10374 1.10257 1.1049 1.06491 1.09614 1.11734 1.10733 1.08127 1.12805 1.12068 1.14031 1.12091 1.1194 1.13902 1.11188 1.13546 1.12042 1.09298 1.09377 1.09747 1.12534 1.08172 1.06765 1.22219 1.33888 1.12351 1.38714 0.986287 1.11334 0.924402 1.01348 1.01864 0.969771 0.991905 1.06885 0.900261 1.10174 1.06298 0.887042 1.03851 0.978027 0.888466 0.902703 0.891286 0.898317 0.799436 0.934462 0.96186 0.90871 0.687531 0.792558 0.827438 0.832 0.842274 0.728762 0.779012 0.801627 0.741729 0.862183 0.593816 0.826055 0.517746 0.663845 0.629874 0.722875 0.503982 0.836219 0.139864 0.590579 0.754475 0.706421 0.593641 0.460039 0.259576 0.761159 0.564612 0.55632 0.497067 0.549323 0.421157 0.397911 0.376809 0.734744 0.756035 0.676193 0.762994 0.847066 0.836746 0.8353 0.824729 0.839522 0.895573 0.811943 0.790259 0.725005 0.550697 1.14392 0.75308 1.14218 0.800785 1.02311 0.847903 0.803087 0.853225 0.772855 1.0923 1.02066 1.1239 0.990036 0.97208 0.96443 0.96744 0.989743 1.00852 1.04025 1.01947 1.06297 0.981812 1.13762 1.11321 1.10784 1.11297 1.11328 1.12172 1.10769 1.0905 1.08626 1.12888 1.1177 1.13376 1.13864 1.11294 1.14662 1.1205 1.11967 1.12359 1.11221 1.10778 1.10204 1.08793 1.10642 1.14561 0.820013 1.28481 0.955649 1.23711 1.15454 1.09636 1.06205 1.05147 1.08565 1.02848 0.967204 0.971365 1.03607 0.941317 1.00353 0.992796 1.02189 1.00117 0.893053 0.869326 0.968015 0.961251 0.969791 0.685809 0.809018 0.831278 0.83172 0.784855 0.731389 0.749885 0.785222 0.919324 1.01898 0.947532 1.88293 1.13475 0.757651 0.85883 0.883132 0.862107 1.09769 0.741196 1.21506 0.528544 0.627783 0.554798 0.694783 0.429362 0.67829 0.26839 0.756455 0.716544 0.617026 0.5943 0.623374 0.404564 0.4864 0.484436 0.639748 0.562224 0.713824 0.620055 0.57294 0.701752 0.846804 0.847891 0.851196 0.804763 0.858178 0.80573 0.760424 0.749148 0.641208 0.889468 1.09108 0.851649 0.809772 0.776 1.06148 0.948551 0.834442 0.794104 0.710792 0.833055 1.06458 1.09831 1.03217 0.619722 1.07041 0.943657 0.962953 0.978621 0.994083 1.01165 1.05651 1.06454 1.03519 1.16834 1.11334 1.12898 1.10789 1.11177 1.11522 1.12704 1.1117 1.08948 1.09791 1.11072 1.10742 1.09801 1.1156 1.12114 1.12817 1.13538 1.08836 1.12998 1.14165 1.11265 1.11929 1.11325 1.13347 1.10726 1.09005 1.17856 0.975195 1.09062 1.04323 1.02138 0.991411 0.954876 1.07964 1.18859 1.13283 1.05182 0.958143 0.977656 0.974239 0.883809 0.965177 1.04495 1.01843 1.00583 1.00042 1.03335 0.966317 0.882393 0.911227 0.926138 0.9273 0.872662 0.840467 0.852506 0.847195 0.83273 0.782311 0.742983 0.675946 1.05025 0.774998 0.510605 0.593394 0.763837 1.54455 0.496773 0.603683 0.649501 0.634285 0.363949 0.686452 0.592296 0.525962 0.617641 0.614764 0.891575 0.88996 0.474059 0.412699 0.579683 0.711129 0.61031 0.858744 0.80008 1.03459 0.930034 0.752621 0.828649 0.774613 0.756283 0.728703 0.829828 0.9953 0.849792 0.686174 1.00409 0.944919 0.857211 0.889026 0.923423 0.92948 0.984294 0.819326 0.615185 0.940803 1.00111 0.937488 0.969751 0.989543 1.01975 1.00519 1.06275 1.00509 1.09556 1.07376 1.17799 1.13402 1.11002 1.11569 1.12721 1.11408 1.13505 1.12297 1.09758 1.09134 1.07287 1.11383 1.11856 1.11798 1.12646 1.09699 1.12604 1.13215 1.15428 1.15146 1.11846 1.11769 1.13563 1.14517 1.1144 1.10024 1.17012 1.08916 1.07691 1.0655 1.28635 1.21774 0.992021 0.930525 0.891838 1.08472 1.06414 0.959411 1.11453 1.08356 1.1596 1.00225 0.937325 0.882627 1.02876 0.977268 1.05063 1.02049 0.988448 1.07521 1.03843 0.947716 0.997724 0.902933 0.924002 0.92622 0.904422 0.879461 0.887113 0.915283 0.895412 0.759518 0.749421 0.704738 0.8911 0.923005 0.850354 0.805185 0.693078 0.757438 0.472149 0.365632 0.54936 0.655129 1.07011 1.05751 0.685344 0.746413 0.681127 0.618399 0.45997 0.511076 0.688149 0.802071 0.696677 1.14105 0.821607 1.02521 0.232574 0.672978 0.748631 0.845467 0.832642 0.987589 1.13592 0.70151 0.685228 0.783366 0.731561 0.785273 0.761971 0.810649 0.8201 0.846939 0.875327 1.10474 1.04998 1.05758 0.952491 0.935506 0.970656 0.93359 0.783194 1.02203 0.968496 1.01371 0.952101 0.926332 1.03118 1.00628 0.996268 1.04146 1.05872 1.12934 1.08953 1.11913 1.14963 1.13001 1.23336 1.03055 1.09853 1.11515 1.0952 1.12559 1.12122 1.13126 1.14923 1.12081 1.18461 1.06339 1.13924 1.11558 1.12942 1.12377 1.12963 1.1395 1.1395 1.16734 1.14573 1.1212 1.15061 1.11158 1.13921 1.11133 1.11429 1.09471 1.08475 1.09943 1.11618 1.15077 1.0388 1.10441 0.889084 0.97393 1.00508 1.20191 0.982672 1.16137 1.27573 1.13743 1.24719 1.02291 0.928473 0.927461 1.01006 1.02035 1.01724 0.974818 0.93436 1.02384 1.02858 1.03717 0.895853 0.900566 0.924921 0.921054 0.884187 0.950207 0.901016 0.948671 0.761711 0.798466 0.847782 0.856927 0.869734 0.771163 0.842359 0.567214 0.41412 0.986924 0.792324 0.829687 0.771903 0.802411 0.559291 0.596843 0.725926 0.763145 0.756608 0.770027 0.798285 0.610494 0.979728 0.662833 0.71173 0.681624 0.747901 0.918847 0.973947 1.08506 0.782605 0.803184 0.742956 0.754524 0.830126 0.835924 0.844558 0.91056 1.0532 1.00334 1.00053 0.95158 0.960871 0.951775 0.855224 0.911403 1.03244 1.04446 0.968752 1.02908 1.00305 0.940238 0.995437 1.03191 1.054 1.15584 1.21914 1.11401 1.13313 1.12817 1.10926 1.08592 1.13441 1.13472 1.1108 1.14025 1.15206 1.11542 1.14335 1.16163 1.14508 1.12402 1.12935 1.11353 1.21252 1.16826 1.1318 1.11623 1.11151 1.09828 1.11722 1.10636 1.10634 1.11986 1.15696 1.08065 1.12196 1.20354 1.01033 1.16229 1.1685 0.95313 0.965724 1.0057 1.0161 1.01098 0.959703 1.05178 0.978838 0.946562 1.01449 1.09108 0.906353 1.06839 0.933957 0.930403 0.913045 0.933772 0.870327 0.939584 0.882232 0.929117 1.02173 0.809673 0.823187 0.832809 0.777419 0.79601 0.804626 0.834893 0.750488 0.939532 0.22047 0.781536 0.928487 0.826943 0.755777 0.736329 0.803458 0.785696 0.772156 0.815196 0.720088 0.846957 0.854648 0.859337 0.690482 0.741681 0.787062 0.94705 0.9921 0.96134 0.960655 0.767717 0.773404 0.825218 0.869747 0.871863 0.842936 0.86085 0.850836 0.905296 0.927544 0.946684 0.99586 0.97469 1.00665 1.02056 0.968814 0.972451 0.95708 0.971005 1.01185 0.976991 1.00491 1.06907 1.02037 1.01021 1.00755 1.1019 1.18559 1.09068 1.10881 1.08591 1.12003 1.10528 1.13033 1.14013 1.1576 1.14611 1.15148 1.13278 1.14815 1.1422 1.15968 1.15286 1.15216 1.13888 1.14061 1.15985 1.12495 1.15017 1.14091 1.17131 1.09159 1.11829 1.11798 1.16098 1.10617 1.12664 1.12761 1.1131 1.08291 1.14088 1.17121 1.10313 1.07 1.1449 1.16998 1.02414 0.979138 0.947035 1.0014 1.04599 1.01094 1.07123 1.00069 1.00133 0.921431 1.02261 0.894543 0.948454 0.948941 0.98301 0.939647 0.981308 0.980441 0.960897 0.872916 0.848665 0.819919 0.820604 0.785563 0.835591 0.854686 0.992792 0.852258 0.835725 0.905285 0.560439 0.857676 0.798686 0.853256 0.819156 0.877199 0.901943 0.879069 0.807164 0.780965 0.838863 0.79843 0.842133 0.873349 0.736355 0.832764 0.9506 0.902604 0.916311 0.986493 0.993452 0.921787 0.751895 0.89176 0.904532 0.864478 0.884981 0.897553 0.923051 0.922511 1.01338 1.00075 1.00595 0.941434 0.969074 0.987039 0.994774 1.01438 1.0235 0.982553 1.11642 1.09339 1.02403 1.05314 0.918709 1.03109 1.08718 1.05682 1.11695 1.11231 1.12293 1.11922 1.13698 1.12286 1.15997 1.14264 1.15248 1.15885 1.13728 1.14643 1.14066 1.14573 1.17518 1.16116 1.16204 1.15134 1.1758 1.151 1.17585 1.1202 1.19339 1.18864 1.14777 1.16456 1.09369 1.10566 1.14125 1.16202 1.11681 1.12622 1.12604 1.14622 1.14482 1.12918 1.09863 1.12061 1.14315 1.14207 1.16742 1.12798 1.15552 1.03851 0.963065 0.952512 0.961236 1.07452 1.03092 1.06526 1.07319 0.991896 0.911387 0.997138 0.912559 0.955151 0.973027 0.9617 1.00966 1.03273 0.982994 0.895287 0.864981 0.827792 0.978832 0.868934 0.939513 0.844442 0.887818 0.76288 0.78811 1.05512 1.01183 0.769869 0.873355 0.859608 0.93176 0.91038 0.907132 0.865112 0.853349 0.88013 0.894504 0.874162 0.956123 0.994888 0.959328 0.953149 0.935644 0.870686 0.945175 0.89512 0.90719 0.930676 1.05297 1.03938 1.0187 1.03147 0.959717 0.97735 1.00789 1.03035 1.02944 1.14069 1.10722 1.0917 1.10478 1.09913 1.12238 1.12535 1.06097 1.12994 1.13921 1.14295 1.1371 1.17055 1.14293 1.16331 1.16821 1.16689 1.15022 1.15518 1.17544 1.16267 1.16586 1.15409 1.15504 1.1532 1.15751 1.16978 1.17915 1.20472 1.17104 1.14721 1.16107 1.19005 1.27301 1.17385 1.14051 1.11616 1.1311 1.14489 1.10784 1.16082 1.1007 1.14646 1.1543 1.13731 1.1508 1.17066 1.12522 1.10343 1.157 1.07089 1.08783 0.980988 1.04799 1.0185 1.03102 1.07335 1.01602 0.934201 0.994454 0.96457 0.936289 0.954104 0.956178 1.00372 1.03138 0.971045 0.920987 0.914158 1.02288 0.948938 0.871092 0.854247 0.841601 0.801483 0.868804 0.897412 0.887121 0.921722 0.908726 0.948359 0.986402 0.904783 0.919812 0.857281 0.866164 0.922602 0.908941 0.954089 0.97208 0.96898 0.986656 0.990586 0.881567 1.0123 0.966681 0.959109 0.940738 0.924946 0.915964 0.899416 1.01784 0.965895 1.01337 1.11673 0.983759 1.03332 1.00501 0.965051 0.952268 0.983689 1.01825 1.05766 1.08023 1.12886 1.15134 1.11716 1.10739 1.10615 1.13216 1.10546 1.08796 1.13404 1.07401 1.14387 1.1655 1.19166 1.15003 1.16187 1.15767 1.18545 1.16428 1.15989 1.1575 1.17354 1.16479 1.15588 1.16767 1.17037 1.18176 1.17601 1.17262 1.15312 1.21226 1.22072 1.17257 1.14281 1.14266 1.11872 1.13707 1.15003 1.18642 1.16415 1.15004 1.14659 1.14645 1.14663 1.112 1.09969 1.12095 0.948673 1.04982 1.03931 1.03725 1.05537 1.09031 1.06343 0.990429 0.972781 1.00284 0.970016 0.980799 0.982871 1.0089 1.0287 0.983753 0.934716 1.03906 1.07434 0.924819 0.866607 0.797909 0.85566 0.873422 0.90884 0.902521 0.898036 0.913819 0.946424 0.976986 0.988326 0.97993 0.952529 0.999439 0.866014 0.906069 0.960584 0.919839 0.93995 0.989584 1.00469 1.03854 1.00136 0.949381 0.958536 1.00759 0.906621 0.980938 1.03852 1.01076 0.96854 1.10438 1.04069 0.942249 0.93343 1.05463 1.02791 1.03568 1.08566 1.15753 1.09785 1.12567 1.11739 1.10422 1.16727 1.09431 1.12558 1.07701 1.16127 1.14327 1.17304 1.18976 1.1318 1.16132 1.19124 1.1605 1.15336 1.16768 1.17081 1.16675 1.16992 1.18638 1.17371 1.17198 1.16908 1.17636 1.18492 1.16196 1.16936 1.15722 1.16684 1.14709 1.13686 1.16766 1.14741 1.16065 1.16013 1.19178 1.14642 1.13618 1.08025 1.17962 1.15011 1.14435 0.973988 1.05112 1.05821 1.09942 1.06403 1.09989 0.98934 0.99034 1.03737 1.00352 0.989915 0.995365 0.975536 0.990085 1.04006 1.00782 0.967162 1.05868 1.06248 1.10532 0.926623 0.833189 0.862964 0.923801 0.926571 0.897772 0.944984 1.01251 0.994851 0.98791 0.990406 0.982011 1.07447 0.943302 0.991105 0.996818 0.974158 1.01923 1.01348 1.02789 1.02999 1.03892 1.03227 1.02874 1.00386 0.989539 1.01779 1.01095 1.0556 1.02398 1.03664 1.10737 1.07647 1.19447 1.07391 1.06153 1.03619 1.08419 1.15415 1.07311 1.06957 1.13764 1.09284 1.14002 1.12267 1.10048 1.1277 1.09414 1.16646 1.18146 1.17046 1.17163 1.16353 1.19508 1.17128 1.16138 1.15587 1.16655 1.17214 1.17266 1.1777 1.17403 1.17516 1.18906 1.17 1.1817 1.17101 1.16122 1.15762 1.17346 1.16024 1.13608 1.18362 1.1693 1.1564 1.13867 1.15492 1.12507 1.15017 1.11307 1.12165 1.00337 1.05334 1.06761 1.08851 1.10283 1.03632 1.00403 1.04235 1.07079 1.03552 1.01832 0.971042 1.00462 1.01477 1.05576 1.00988 1.07012 1.08196 1.04514 1.1179 0.904658 1.00018 0.965544 0.925991 0.924743 0.886468 0.941634 0.94501 1.00797 0.999213 0.99416 1.12146 1.01799 0.99103 1.03683 1.05088 1.04142 1.03883 1.00884 1.04049 1.02211 0.982091 1.1466 1.0791 1.04268 1.04791 1.06683 1.05566 1.04928 1.10125 1.14913 1.14037 1.05284 1.06861 1.03902 1.14562 1.19028 1.12078 1.0977 1.12945 1.12513 1.12492 1.13653 1.10945 1.16615 1.16688 1.17714 1.16329 1.17287 1.17665 1.17481 1.16052 1.1741 1.17744 1.16886 1.19478 1.17358 1.17571 1.17708 1.17014 1.18034 1.17765 1.20669 1.21801 1.18565 1.15467 1.17638 1.14663 1.18536 1.16815 1.19238 1.18022 1.15418 1.16602 1.1376 1.18205 1.16234 1.18038 1.1567 1.1706 1.16652 1.14499 1.14505 1.12881 1.1713 1.12343 1.17337 1.16139 1.06871 1.14633 1.21424 1.03737 1.07648 1.08599 1.12926 1.03114 1.019 1.06082 1.05633 1.04665 1.03496 1.00039 1.03422 1.05917 1.08431 1.06529 1.08198 1.0685 1.19825 1.02704 0.979232 0.957873 0.911205 0.964042 0.999814 0.973675 1.01806 1.00174 1.0135 0.990806 1.08817 1.11866 1.0535 1.13781 1.0558 1.0281 1.04551 1.04698 1.0525 1.01116 1.04782 1.0833 1.09672 1.18709 1.09059 1.11337 1.07256 1.09296 1.11738 1.14952 1.10806 1.07826 1.04208 1.15149 1.18943 1.12586 1.11181 1.12058 1.13567 1.133 1.1241 1.12881 1.18599 1.19266 1.18108 1.17458 1.16326 1.18759 1.1613 1.17589 1.17482 1.17847 1.16088 1.19685 1.18063 1.18288 1.17084 1.17577 1.16854 1.18016 1.20724 1.18766 1.18189 1.16098 1.175 1.19647 1.19284 1.18615 1.17537 1.17733 1.16815 1.15928 1.15453 1.1796 1.16969 1.12858 1.16245 1.16512 1.17534 1.1482 1.17016 1.0987 1.14794 1.21864 1.08229 1.01961 1.0987 1.0389 1.08181 1.05463 1.0685 1.05863 1.08309 1.05218 1.02469 1.04421 1.03938 1.03911 1.06565 1.08374 1.09089 1.07585 1.0767 1.14478 1.17717 1.19434 1.00592 0.910931 1.01483 0.99587 0.995634 1.04674 0.999841 1.01055 1.03479 1.00487 1.01076 1.19018 1.14318 1.14068 1.06506 1.07333 1.0447 1.06445 1.01477 1.10283 1.20487 1.04936 1.0389 1.12873 1.0928 1.14072 1.08011 1.10034 1.13911 1.144 1.12637 1.09605 1.0712 1.08379 1.05313 1.15436 1.1819 1.12462 1.11203 1.11805 1.11818 1.14217 1.12747 1.14907 1.19161 1.20931 1.18263 1.17944 1.1806 1.1864 1.19046 1.17894 1.17591 1.17957 1.16296 1.19348 1.18245 1.17735 1.17434 1.18518 1.20717 1.18832 1.18844 1.17117 1.1843 1.16758 1.16936 1.19183 1.17584 1.17718 1.17038 1.1695 1.16095 1.15944 1.16224 1.17955 1.1706 1.15861 1.15017 1.17088 1.16345 1.17165 1.17767 1.12551 1.10395 1.15333 1.13362 1.07367 1.10049 1.10333 1.0182 1.13762 1.10358 1.05941 1.0683 1.07264 1.01882 1.09358 1.04546 1.06791 1.09077 1.0612 1.07681 1.09931 1.08016 1.08494 1.12806 1.15034 1.05549 1.06133 1.11713 1.01824 0.999377 1.04846 1.04374 1.01666 1.01676 1.05578 1.02057 1.01922 1.12482 1.14007 1.14381 1.0877 1.07792 1.12229 1.04648 1.07963 1.16156 1.1188 1.17133 1.0964 1.1306 1.09595 1.15564 1.14619 1.14049 1.09479 1.09098 1.0605 1.15417 1.17819 1.12594 1.12261 1.12428 1.16407 1.14286 1.17513 1.1731 1.14605 1.17948 1.17897 1.18492 1.18664 1.17582 1.17867 1.17324 1.18044 1.16458 1.17459 1.175 1.19473 1.18283 1.17869 1.17794 1.18813 1.183 1.18491 1.19013 1.17891 1.17111 1.17479 1.19374 1.18342 1.18007 1.17349 1.17398 1.16056 1.17506 1.17518 1.15669 1.14475 1.16136 1.16709 1.17197 1.1318 1.07194 1.21364 1.16269 1.09327 1.13562 1.14986 1.09248 1.09192 1.08591 1.04638 1.07554 1.09104 1.10519 1.06612 1.08027 1.10517 1.08763 1.05615 1.09048 1.11154 1.09919 1.08265 1.10441 1.13505 1.14369 1.12686 1.12923 1.12709 1.0103 1.06197 1.07538 1.02296 1.02082 1.07004 1.036 1.12422 1.15005 1.14979 1.12165 1.09615 1.12216 1.17339 1.12086 1.16283 1.14572 1.15627 1.16845 1.16174 1.15072 1.09309 1.09262 1.15165 1.17075 1.15699 1.10836 1.1308 1.16626 1.1899 1.16899 1.1832 1.16056 1.18096 1.18207 1.1863 1.18354 1.19322 1.18657 1.17238 1.18205 1.16592 1.17906 1.19338 1.1825 1.17886 1.18743 1.1879 1.18397 1.19072 1.18071 1.17194 1.1767 1.17557 1.18722 1.17906 1.17715 1.17754 1.17872 1.1767 1.1676 1.16997 1.15481 1.15678 1.15702 1.14969 1.16424 1.16918 1.16898 1.2097 1.13983 1.07394 1.16553 1.12228 1.16023 1.11297 1.14472 1.10384 1.13555 1.11295 1.11002 1.07187 1.06501 1.11499 1.08247 1.06156 1.12605 1.10507 1.11601 1.09639 1.10168 1.11982 1.16439 1.15876 1.10374 1.03312 1.09874 1.08098 1.03364 1.02633 1.03724 1.13875 1.12633 1.14888 1.15637 1.12387 1.13774 1.09577 1.17255 1.11871 1.12291 1.17217 1.13249 1.12141 1.11791 1.19756 1.15529 1.15587 1.13618 1.14161 1.1658 1.16655 1.16658 1.1061 1.14896 1.15395 1.15518 1.17707 1.16894 1.18002 1.1891 1.1628 1.18501 1.1849 1.16501 1.18023 1.18252 1.18707 1.18238 1.18644 1.18274 1.18191 1.18256 1.16599 1.18191 1.19319 1.1857 1.17891 1.1876 1.18785 1.1844 1.18471 1.18523 1.18912 1.18202 1.17083 1.17678 1.17752 1.16887 1.17973 1.18209 1.17924 1.17728 1.16901 1.17122 1.16706 1.1721 1.16818 1.17036 1.16942 1.16644 1.17105 1.14887 1.18449 1.1348 1.19106 1.1227 1.19803 1.15305 1.11215 1.16897 1.11077 1.11049 1.15703 1.1258 1.10655 1.15855 1.10343 1.08996 1.1738 1.14588 1.12695 1.13645 1.16531 1.14566 1.11511 1.11421 1.16889 1.1441 1.13032 1.12475 1.10812 1.11013 1.06732 1.04683 1.04416 1.08494 1.13878 1.12619 1.13742 1.16897 1.15609 1.15462 1.14016 1.1513 1.14737 1.10541 1.12769 1.13024 1.16116 1.15648 1.15468 1.18621 1.13851 1.1447 1.11627 1.16201 1.15437 1.15205 1.17027 1.14474 1.17314 1.15893 1.16542 1.14856 1.14803 1.17648 1.18401 1.16987 1.17498 1.17836 1.18367 1.18167 1.16455 1.17835 1.15763 1.18383 1.1871 1.18614 1.1894 1.18206 1.18247 1.19371 1.18316 1.19006 1.18622 1.18134 1.1874 1.18691 1.18528 1.18709 1.18938 1.18051 1.18503 1.17395 1.17988 1.19737 1.18302 1.18149 1.18276 1.1756 1.17224 1.18736 1.17508 1.16483 1.17222 1.16901 1.17161 1.17083 1.15661 1.18831 1.14386 1.12846 1.18556 1.1775 1.12872 1.11817 1.14593 1.12725 1.12353 1.16508 1.1004 1.15628 1.17072 1.14146 1.16054 1.10617 1.12933 1.11983 1.15916 1.16691 1.13796 1.13506 1.1301 1.11881 1.10969 1.12339 1.07223 1.05223 1.09767 1.15092 1.13092 1.13041 1.12476 1.17568 1.15589 1.12281 1.1616 1.13889 1.16092 1.15552 1.16716 1.17826 1.13985 1.16291 1.15808 1.17448 1.15667 1.17742 1.14775 1.14959 1.1598 1.15382 1.15942 1.16902 1.17461 1.18218 1.18456 1.1818 1.17587 1.18658 1.18099 1.18362 1.18211 1.18058 1.18408 1.18298 1.16134 1.18487 1.18821 1.18194 1.18557 1.18802 1.19101 1.18248 1.18984 1.19405 1.19173 1.1905 1.18637 1.18201 1.19435 1.1871 1.18704 1.18913 1.19178 1.18416 1.19178 1.18336 1.18906 1.20182 1.18243 1.18642 1.18074 1.17208 1.18291 1.17457 1.18263 1.18513 1.17277 1.17197 1.16962 1.17365 1.16579 1.17494 1.13674 1.14671 1.14702 1.18287 1.18729 1.179 1.11796 1.13517 1.14779 1.13126 1.13185 1.17206 1.11874 1.17032 1.17604 1.14462 1.16314 1.10241 1.13282 1.15494 1.12169 1.1612 1.1441 1.17675 1.12116 1.10658 1.12413 1.10046 1.11053 1.07981 1.07953 1.05745 1.1169 1.16344 1.16148 1.13484 1.13388 1.13172 1.1826 1.15245 1.17312 1.1504 1.15938 1.13099 1.16219 1.16008 1.17484 1.17168 1.1843 1.16097 1.16219 1.17461 1.16912 1.16283 1.16271 1.17579 1.18012 1.15551 1.16338 1.16453 1.18111 1.17387 1.18177 1.17894 1.18621 1.18269 1.18262 1.18421 1.19262 1.18442 1.18228 1.18308 1.18545 1.19064 1.18811 1.19125 1.19007 1.18273 1.19458 1.19246 1.18997 1.18342 1.19178 1.19178 1.18729 1.187 1.18741 1.18937 1.18557 1.18446 1.18781 1.175 1.18382 1.18708 1.18998 1.18722 1.17307 1.17388 1.18538 1.18308 1.17068 1.1694 1.17499 1.1743 1.17854 1.13993 1.14346 1.18628 1.17995 1.18356 1.13476 1.15792 1.13683 1.14514 1.16007 1.18534 1.14322 1.17799 1.17571 1.16644 1.18542 1.11733 1.15464 1.14929 1.15302 1.14073 1.15243 1.18266 1.13218 1.16262 1.12466 1.09728 1.07126 1.12595 1.13175 1.14831 1.15322 1.1563 1.15833 1.16331 1.16056 1.15255 1.15902 1.16466 1.17081 1.16441 1.1678 1.17036 1.18373 1.15958 1.18216 1.17071 1.16695 1.17291 1.17531 1.19023 1.17636 1.16583 1.16591 1.18049 1.18139 1.19068 1.18398 1.18402 1.184 1.19293 1.18379 1.18788 1.18237 1.18452 1.18238 1.1886 1.18808 1.19219 1.1913 1.19149 1.19243 1.19024 1.18383 1.19193 1.19273 1.18735 1.19178 1.1885 1.19001 1.19254 1.18564 1.18823 1.18764 1.18289 1.18115 1.18652 1.18944 1.17484 1.175 1.1757 1.18385 1.18189 1.1687 1.17821 1.17268 1.17793 1.17831 1.17723 1.15699 1.14859 1.18735 1.18161 1.19739 1.14998 1.15353 1.16969 1.17313 1.16135 1.17962 1.1488 1.18395 1.19241 1.18371 1.18396 1.13204 1.16843 1.15939 1.15927 1.14836 1.16705 1.17477 1.12766 1.16119 1.1464 1.15969 1.07963 1.13783 1.1901 1.16194 1.15887 1.16442 1.1577 1.14772 1.15815 1.18376 1.17231 1.17985 1.17074 1.18168 1.18561 1.19178 1.17164 1.17298 1.18461 1.18336 1.18799 1.18004 1.17731 1.18104 1.18693 1.16523 1.17765 1.17806 1.18366 1.17619 1.18179 1.19044 1.1842 1.18425 1.18452 1.19293 1.18845 1.1901 1.18212 1.18476 1.1822 1.18896 1.18816 1.18962 1.18521 1.18888 1.19181 1.19178 1.19178 1.19146 1.18581 1.19274 1.19178 1.18906 1.1929 1.18862 1.18979 1.19238 1.18551 1.18601 1.18759 1.18291 1.18238 1.18852 1.19063 1.17591 1.17595 1.17608 1.17884 1.18361 1.18114 1.18054 1.18416 1.18231 1.1799 1.17712 1.15402 1.16483 1.18842 1.18886 1.1423 1.16868 1.19311 1.1715 1.1783 1.18838 1.1781 1.15449 1.18694 1.18003 1.20244 1.19489 1.1451 1.16126 1.1561 1.14435 1.18081 1.12414 1.19092 1.17348 1.15174 1.15332 1.08024 1.19179 1.14783 1.16049 1.16037 1.16919 1.19178 1.15004 1.16083 1.16153 1.18394 1.17324 1.18016 1.1717 1.18183 1.18554 1.19111 1.17129 1.1737 1.17862 1.18653 1.18842 1.18128 1.1866 1.1843 1.18296 1.18072 1.17728 1.17671 1.18299 1.19053 1.18909 1.18438 1.18489 1.19178 1.1886 1.19004 1.18834 1.18695 1.19178 1.1887 1.18724 1.1918 1.18954 1.1918 1.19178 1.19179 1.19137 1.18843 1.19178 1.19066 1.18955 1.18992 1.19302 1.19254 1.18948 1.18899 1.18728 1.18802 1.18297 1.18344 1.1889 1.18792 1.19029 1.17949 1.18304 1.17745 1.18283 1.18221 1.18569 1.18345 1.18011 1.18006 1.17914 1.15563 1.17732 1.18606 1.15807 1.17454 1.19439 1.17315 1.17725 1.18726 1.17638 1.15801 1.19326 1.18031 1.17612 1.19178 1.15023 1.1799 1.16012 1.16732 1.15493 1.17598 1.17794 1.17641 1.17407 1.15502 1.15215 1.14575 1.16184 1.16882 1.16247 1.16155 1.17023 1.18215 1.15077 1.16239 1.17428 1.18126 1.17267 1.18233 1.19142 1.18959 1.18045 1.17443 1.17889 1.18643 1.1884 1.18144 1.18591 1.18542 1.18935 1.18856 1.17882 1.1908 1.18093 1.18211 1.191 1.18821 1.18501 1.19212 1.1854 1.18856 1.18986 1.19178 1.18737 1.19214 1.18918 1.18962 1.19068 1.18929 1.19172 1.1919 1.19203 1.19149 1.18826 1.1916 1.19044 1.18954 1.19144 1.19127 1.19152 1.18928 1.1901 1.18729 1.19018 1.18461 1.18985 1.18804 1.19052 1.18299 1.17725 1.18209 1.18367 1.18297 1.18221 1.18488 1.17929 1.17989 1.16944 1.17757 1.17227 1.1874 1.18916 1.16505 1.17784 1.19222 1.17631 1.1868 1.17647 1.1627 1.18198 1.18019 1.17527 1.16088 1.18814 1.17845 1.17808 1.1688 1.155 1.1754 1.17896 1.17544 1.1737 1.1561 1.19178 1.14808 1.16901 1.17655 1.18955 1.18248 1.18497 1.19177 1.17423 1.1574 
SCALARS Stress float 1
LOOKUP_TABLE default
-851192000000.0 -265275000000.0 -380101000000.0 -12549700000.0 -2.29118e+12 -2.92496e+12 -1.19413e+12 -3.73934e+12 -504577000000.0 -940270000000.0 -522627000000.0 -339064000000.0 -144621000000.0 -56825300000.0 -351800000000.0 -183121000000.0 -270618000000.0 -373947000000.0 -701144000000.0 -1.0739e+12 -667301000000.0 -2.02899e+12 -1.5609e+12 -2.75273e+12 -3.82261e+12 -2.06657e+12 -2.30988e+12 -2.76155e+12 -3.22096e+12 -5.25879e+12 -3.10689e+12 -3.35965e+12 -2.37658e+12 -2.1819e+12 -1.61048e+12 -593273000000.0 -270654000000.0 -176993000000.0 -1.07557e+12 -332386000000.0 -425165000000.0 -118697000000.0 -629417000000.0 -452277000000.0 -197607000000.0 -393913000000.0 -379273000000.0 -562916000000.0 -439452000000.0 -504519000000.0 -872730000000.0 -94035700000.0 -606940000000.0 -997357000000.0 -1.62082e+12 -2.38823e+12 -3.02411e+12 -4.39069e+12 -3.09827e+12 -2.61562e+12 -3.12401e+12 -1.72411e+12 -6.31199e+12 -2.80602e+12 -1.96743e+12 -3.13203e+12 -4.11166e+12 -3.52051e+12 -3.00737e+12 -5.14572e+12 -7.63565e+12 -5.2564e+12 -4.66404e+12 -3.20312e+12 -2.47597e+12 -3.222e+12 -2.14747e+12 -987118000000.0 -1.87004e+12 -1.1851e+12 -487335000000.0 -329789000000.0 -1.06607e+12 -1.44824e+12 -1.1867e+12 -612641000000.0 -1.33366e+12 -723705000000.0 -1.10597e+12 -959246000000.0 -1.08612e+12 -1.09236e+12 -1.73653e+12 -1.18664e+12 -1.77528e+12 -1.45522e+12 -1.46511e+12 -2.10594e+12 -1.22057e+12 -3.38634e+12 -3.34265e+12 -3.24436e+12 -2.47968e+12 -4.38699e+12 -3.98052e+12 -3.21368e+12 -2.25861e+12 -5.88998e+12 -2.57661e+12 -3.73359e+12 -5.82992e+12 -4.22538e+12 -3.54371e+12 -3.74066e+12 -6.87242e+12 -4.10425e+12 -5.09748e+12 -3.56623e+12 -5.21315e+12 -5.42974e+12 -5.64652e+12 -2.99813e+12 -3.97453e+12 -2.09976e+12 -2.46138e+12 -1.30652e+12 -1.57055e+12 -912627000000.0 -363291000000.0 -1.43784e+12 -773473000000.0 -1.17105e+12 -786300000000.0 -680085000000.0 -668275000000.0 -2.24392e+12 -755714000000.0 -867834000000.0 -1.61722e+12 -5.16474e+12 -3.2033e+12 -2.76798e+12 -2.33831e+12 -3.79649e+12 -4.70578e+12 -3.1972e+12 -4.32135e+12 -2.85014e+12 -5.14782e+12 -7.09314e+12 -4.64429e+12 -4.24328e+12 -2.73024e+12 -4.61975e+12 -5.69911e+12 -7.21417e+12 -7.25219e+12 -6.53875e+12 -3.88845e+12 -4.27771e+12 -5.02483e+12 -6.27411e+12 -3.50206e+12 -3.05883e+12 -5.36375e+12 -2.32315e+12 -2.09864e+12 -5.74381e+12 -4.26548e+12 -3.69805e+12 -3.32782e+12 -2.44215e+12 -2.2386e+12 -2.45354e+12 -869090000000.0 -2.22876e+12 -1.25846e+12 -1.54036e+12 -622723000000.0 -938393000000.0 -597315000000.0 -1.25326e+12 -1.58632e+12 -1.05746e+12 -1.31259e+12 -1.60559e+12 -1.24818e+12 -2.07718e+12 -1.46242e+12 -1.04873e+12 -2.51523e+12 -1.33066e+12 -1.02188e+12 -1.22161e+12 -2.59979e+12 -3.78005e+12 -4.62116e+12 -3.01709e+12 -3.2993e+12 -5.43983e+12 -6.12194e+12 -4.83498e+12 -6.99206e+12 -3.94101e+12 -4.71274e+12 -5.40901e+12 -1.11725e+13 -5.82966e+12 -6.93883e+12 -3.12776e+12 -4.06488e+12 -3.16974e+12 -4.73458e+12 -5.54702e+12 -4.78978e+12 -3.49715e+12 -4.82542e+12 -2.90643e+12 -6.58789e+12 -3.26724e+12 -4.99625e+12 -5.99566e+12 -4.83364e+12 -2.762e+12 -4.64731e+12 -5.28526e+12 -6.74068e+12 -4.15608e+12 -2.39388e+12 -2.03075e+12 -3.10561e+12 -2.48175e+12 -1.36254e+12 -1.23981e+12 -1.83812e+12 -1.12821e+12 -997462000000.0 -1.48938e+12 -1.00383e+12 -2.09252e+12 -1.53858e+12 -1.78869e+12 -1.45701e+12 -1.43913e+12 -2.99776e+12 -2.51574e+12 -3.48292e+12 -2.12346e+12 -3.10387e+12 -2.748e+12 -3.65908e+12 -4.48422e+12 -4.1138e+12 -4.8054e+12 -2.12147e+12 -5.964e+12 -7.69958e+12 -2.7703e+12 -8.15571e+12 -8.43222e+12 -6.68763e+12 -6.02761e+12 -6.76253e+12 -2.13188e+12 -7.03678e+12 -6.85894e+12 -6.47773e+12 -4.58343e+12 -3.89779e+12 -2.11344e+12 -4.15629e+12 -3.37134e+12 -8.61668e+12 -8.55048e+12 -9.0194e+12 -4.67637e+12 -5.30873e+12 -2.93654e+12 -3.62225e+12 -4.2803e+12 -6.38209e+12 -5.34899e+12 -4.67348e+12 -5.42249e+12 -2.68596e+12 -4.50661e+12 -1.00136e+12 -4.9557e+12 -2.84572e+12 -3.34144e+12 -1.78844e+12 -1.67838e+12 -1.8471e+12 -1.87717e+12 -2.95401e+12 -2.11726e+12 -1.77033e+12 -2.35519e+12 -920755000000.0 -1.17256e+12 -335071000000.0 -1.71221e+12 -2.83087e+12 -2.23413e+12 -2.61898e+12 -2.87474e+12 -2.51247e+12 -2.92826e+12 -4.07879e+12 -4.6199e+12 -2.65779e+12 -4.16474e+12 -5.8993e+12 -4.94672e+12 -5.43706e+12 -5.93881e+12 -4.8709e+12 -6.64268e+12 -6.69973e+12 -5.22946e+12 -5.63508e+12 -6.72957e+12 -4.24662e+12 -8.64346e+12 -2.49759e+12 -2.54289e+12 -5.38826e+12 -4.19234e+12 -4.16601e+12 -3.82357e+12 -3.83823e+12 -3.52168e+12 -5.54243e+12 -3.28407e+12 -6.0272e+12 -3.57072e+12 -8.78129e+12 -6.88515e+12 -7.25532e+12 -6.4155e+12 -4.48707e+12 -5.27014e+12 -6.52658e+12 -4.15866e+12 -4.00004e+12 -4.03253e+12 -3.62083e+12 -4.15741e+12 -4.31792e+12 -5.22576e+12 -2.7194e+12 -2.68955e+12 -4.28891e+12 -4.29506e+12 -4.68745e+12 -1.48174e+12 -2.4781e+12 -2.77542e+12 -2.97751e+12 -1.77031e+12 -1.47842e+12 -2.66774e+12 -1.55028e+12 -1.20852e+12 -2.14531e+12 -3.44776e+12 -1.49117e+12 -2.58193e+12 -1.96987e+12 -2.37805e+12 -2.63709e+12 -1.79672e+12 -1.55805e+12 -3.90905e+12 -2.47219e+12 -2.81228e+12 -1.67954e+12 -4.56794e+12 -5.62628e+12 -3.22417e+12 -4.36697e+12 -3.63168e+12 -3.25529e+12 -3.88843e+12 -4.68438e+12 -4.8272e+12 -7.9719e+12 -4.62182e+12 -4.62714e+12 -9.28298e+12 -4.89165e+12 -1.05083e+13 -5.05717e+12 -6.0603e+12 -6.45004e+12 -4.88688e+12 -4.94927e+12 -3.0423e+12 -3.37903e+12 -5.12258e+12 -4.18635e+12 -7.82285e+12 -6.0408e+12 -6.85874e+12 -6.29422e+12 -3.56712e+12 -3.91908e+12 -5.06407e+12 -4.64211e+12 -6.28e+12 -4.53454e+12 -6.14392e+12 -3.76666e+12 -8.16617e+12 -5.72519e+12 -2.96323e+12 -6.17451e+12 -4.33105e+12 -5.43866e+12 -4.36796e+12 -2.99016e+12 -2.98724e+12 -3.40613e+12 -3.39774e+12 -2.81755e+12 -2.15039e+12 -3.27161e+12 -3.17213e+12 -2.79637e+12 -2.59068e+12 -2.07249e+12 -1.83734e+12 -1.69739e+12 -712031000000.0 -676311000000.0 -673171000000.0 -728312000000.0 -2.01826e+12 -1.98036e+12 -3.58539e+12 -1.61441e+12 -2.55419e+12 -2.93401e+12 -2.01004e+12 -1.87164e+12 -2.50128e+12 -3.11153e+12 -4.18037e+12 -1.66977e+12 -3.10615e+12 -2.52795e+12 -3.52387e+12 -3.28799e+12 -4.69423e+12 -3.99746e+12 -4.90486e+12 -5.15315e+12 -6.38329e+12 -7.40769e+12 -4.5422e+12 -6.05815e+12 -5.73328e+12 -1.11387e+13 -8.56169e+12 -4.07936e+12 -6.09403e+12 -4.86875e+12 -6.1794e+12 -6.31233e+12 -3.63319e+12 -8.54119e+12 -4.02634e+12 -2.84617e+12 -2.92594e+12 -5.44536e+12 -2.74201e+12 -4.89832e+12 -8.29751e+12 -8.38365e+12 -4.7982e+12 -8.82207e+12 -2.49294e+12 -6.31993e+12 -5.13837e+12 -5.31559e+12 -3.15019e+12 -4.6764e+12 -6.08369e+12 -5.10688e+12 -7.46233e+12 -4.38293e+12 -2.68094e+12 -4.60553e+12 -5.12385e+12 -4.32337e+12 -2.86857e+12 -4.2606e+12 -2.17688e+12 -3.85761e+12 -2.15804e+12 -2.72291e+12 -1.90085e+12 -2.28345e+12 -3.18849e+12 -2.52416e+12 -1.98505e+12 -1.29689e+12 -1.91709e+12 -2.60175e+12 -781490000000.0 -2.03404e+12 -2.08892e+12 -1.4002e+12 -2.11918e+12 -1.54361e+12 -2.88535e+12 -1.75968e+12 -1.20697e+12 -734607000000.0 -1.58066e+12 -1.66606e+12 -3.6227e+12 -1.52598e+12 -3.26946e+12 -1.8274e+12 -1.24155e+12 -2.06632e+12 -3.06864e+12 -3.25698e+12 -4.07855e+12 -3.3955e+12 -3.84179e+12 -6.10336e+12 -1.82373e+12 -3.07285e+12 -2.43606e+12 -4.05508e+12 -4.89764e+12 -5.03634e+12 -6.02494e+12 -3.8132e+12 -3.92205e+12 -7.56835e+12 -7.89453e+12 -7.01101e+12 -2.54519e+12 -4.68727e+12 -8.50123e+12 -5.61956e+12 -7.48113e+12 -4.84684e+12 -3.78262e+12 -4.37344e+12 -5.20004e+12 -4.35057e+12 -6.81863e+12 -5.69939e+12 -2.96711e+12 -2.75598e+12 -5.52952e+12 -3.98365e+12 -2.78249e+12 -3.782e+12 -4.74764e+12 -8.56828e+12 -6.72367e+12 -7.42833e+12 -4.55923e+12 -6.93438e+12 -7.29688e+12 -5.25868e+12 -6.27382e+12 -6.10151e+12 -5.16341e+12 -6.77893e+12 -5.15433e+12 -3.72647e+12 -3.89731e+12 -3.42896e+12 -7.89285e+12 -5.16379e+12 -3.7157e+12 -5.04494e+12 -2.8321e+12 -5.34067e+12 -2.51792e+12 -4.36217e+12 -5.66029e+12 -4.32365e+12 -3.02887e+12 -3.86991e+12 -3.23873e+12 -3.54376e+12 -3.38997e+12 -4.19297e+12 -3.46341e+12 -1.15244e+12 -1.66939e+12 -2.19814e+12 -2.00145e+12 -2.69794e+12 -1.2987e+12 -1.03879e+12 -2.09465e+12 -1.55741e+12 -2.74881e+12 -925724000000.0 -1.09799e+12 -1.09126e+12 -1.71351e+12 -1.69153e+12 -1.58174e+12 -480124000000.0 -1.58589e+12 -1.65291e+12 -2.56378e+12 -1.61567e+12 -3.31999e+12 -2.43631e+12 -3.91142e+12 -2.75474e+12 -3.70757e+12 -4.57618e+12 -3.83698e+12 -3.32794e+12 -2.4981e+12 -3.50355e+12 -2.94961e+12 -8.21279e+12 -7.27439e+12 -4.87882e+12 -1.15921e+13 -7.44776e+12 -7.81884e+12 -6.06625e+12 -3.50461e+12 -9.93355e+12 -9.26971e+12 -6.2215e+12 -9.15613e+12 -4.19329e+12 -5.19077e+12 -7.94182e+12 -5.16196e+12 -8.80289e+12 -5.35041e+12 -9.07724e+12 -5.38166e+12 -4.47627e+12 -5.68617e+12 -6.30486e+12 -7.46951e+12 -3.86877e+12 -7.12336e+12 -2.51778e+12 -5.75578e+12 -6.54178e+12 -6.02119e+12 -8.55111e+12 -6.03652e+12 -3.70976e+12 -4.92134e+12 -4.1502e+12 -5.99596e+12 -6.7416e+12 -8.09575e+12 -7.41615e+12 -8.32454e+12 -2.95616e+12 -3.46994e+12 -5.07184e+12 -7.04254e+12 -2.93173e+12 -3.72286e+12 -1.948e+12 -5.59743e+12 -1.54125e+12 -2.77827e+12 -2.68221e+12 -2.99875e+12 -2.56187e+12 -1.79697e+12 -1.54376e+12 -2.96438e+12 -2.09953e+12 -1.18096e+12 -1.65882e+12 -1.04319e+12 -1.21185e+12 -848788000000.0 -602284000000.0 -878090000000.0 -1.49978e+12 -913505000000.0 -802323000000.0 -2.43232e+12 -2.05786e+12 -1.91867e+12 -2.49579e+12 -1.57136e+12 -1.52536e+12 -1.30196e+12 -1.09168e+12 -2.88926e+12 -2.35947e+12 -2.6215e+12 -2.91171e+12 -2.78266e+12 -1.9608e+12 -5.41398e+12 -2.83357e+12 -7.4898e+12 -3.30822e+12 -5.46309e+12 -5.24835e+12 -4.61111e+12 -4.87979e+12 -4.44778e+12 -5.12832e+12 -3.78261e+12 -6.99144e+12 -7.39301e+12 -8.18484e+12 -2.9781e+12 -7.42195e+12 -5.61448e+12 -5.17978e+12 -4.75588e+12 -8.42574e+12 -7.47745e+12 -5.35365e+12 -7.08595e+12 -6.63849e+12 -2.66914e+12 -3.23067e+12 -6.28655e+12 -8.42163e+12 -9.35983e+12 -4.99128e+12 -5.52305e+12 -6.17263e+12 -5.32804e+12 -4.75744e+12 -1.03213e+13 -4.11901e+12 -7.5351e+12 -5.79187e+12 -5.9106e+12 -6.07433e+12 -5.39272e+12 -3.24195e+12 -3.06598e+12 -3.6551e+12 -7.31887e+12 -5.35245e+12 -5.64819e+12 -2.81476e+12 -6.57878e+12 -4.34889e+12 -3.10608e+12 -3.12042e+12 -2.16517e+12 -3.68483e+12 -2.69253e+12 -3.15509e+12 -6.07161e+12 -4.75659e+12 -1.59077e+12 -3.0669e+12 -3.72038e+12 -2.80108e+12 -3.2942e+12 -2.07603e+12 -1.81437e+12 -2.38523e+12 -2.7135e+12 -1.92924e+12 -1.50137e+12 -1.92017e+12 -1.21689e+12 -1.22163e+12 -1.86811e+12 -852839000000.0 -1.64246e+12 -1.5668e+12 -1.59264e+12 -502176000000.0 -2.04569e+12 -2.00995e+12 -1.78176e+12 -2.30738e+12 -1.33085e+12 -2.0917e+12 -1.53112e+12 -3.54084e+12 -2.40674e+12 -2.74686e+12 -1.74148e+12 -5.27635e+12 -5.63086e+12 -1.15873e+12 -4.74656e+12 -1.13647e+12 -4.23336e+12 -4.21062e+12 -3.19392e+12 -6.87003e+12 -4.66908e+12 -7.18944e+12 -6.33867e+12 -3.18778e+12 -5.15248e+12 -5.83023e+12 -3.09432e+12 -3.59904e+12 -3.39137e+12 -5.21875e+12 -5.01831e+12 -7.32769e+12 -4.53587e+12 -5.91274e+12 -4.1905e+12 -2.04214e+12 -8.06222e+12 -5.33365e+12 -7.06152e+12 -6.71565e+12 -5.99363e+12 -1.14269e+13 -9.36618e+12 -8.23537e+12 -4.16893e+12 -7.90622e+12 -6.1554e+12 -2.88703e+12 -2.38147e+12 -4.46959e+12 -5.10244e+12 -6.9026e+12 -1.16789e+13 -3.23369e+12 -7.42855e+12 -8.87512e+12 -8.44302e+12 -8.49062e+12 -6.44953e+12 -9.59417e+12 -3.03046e+12 -1.02368e+13 -7.29143e+12 -8.00399e+12 -4.15602e+12 -3.95454e+12 -5.75896e+12 -3.76766e+12 -4.6819e+12 -5.28057e+12 -4.04528e+12 -4.11181e+12 -4.09302e+12 -6.69206e+12 -2.80192e+12 -2.9625e+12 -3.89257e+12 -3.77922e+12 -3.52328e+12 -3.39217e+12 -2.48626e+12 -1.53344e+12 -2.27491e+12 -2.37702e+12 -2.33646e+12 -1.83293e+12 -1.5317e+12 -1.25103e+12 -1.58237e+12 -1.10894e+12 -1.09952e+12 -2.86628e+12 -3.70479e+12 -1.52634e+12 -1.20725e+12 -1.49474e+12 -2.13099e+12 -1.82417e+12 -3.00146e+12 -3.65902e+12 -3.77061e+12 -2.19104e+12 -1.92998e+12 -2.78594e+12 -2.24921e+12 -2.27934e+12 -4.44138e+12 -3.17592e+12 -3.41562e+12 -3.27621e+12 -4.27973e+12 -4.48729e+12 -2.88034e+12 -3.88134e+12 -6.54875e+12 -3.8938e+12 -3.89871e+12 -4.56128e+12 -3.31574e+12 -3.89454e+12 -3.59619e+12 -2.45241e+12 -4.16973e+12 -4.7509e+12 -5.60502e+12 -4.38584e+12 -5.01762e+12 -7.0704e+12 -4.83312e+12 -5.88199e+12 -4.34216e+12 -1.20301e+13 -4.58319e+12 -7.51389e+12 -7.38544e+12 -6.77678e+12 -6.71519e+12 -6.94486e+12 -1.00596e+13 -8.63897e+12 -7.60893e+12 -3.28232e+12 -7.00707e+12 -4.09939e+12 -5.00146e+12 -7.67738e+12 -6.16325e+12 -2.90158e+12 -4.67022e+12 -7.26224e+12 -5.15784e+12 -4.08521e+12 -6.87658e+12 -7.48079e+12 -8.58718e+12 -7.32096e+12 -6.48707e+12 -4.64382e+12 -5.19091e+12 -7.08127e+12 -4.80966e+12 -4.4516e+12 -5.03778e+12 -6.31201e+12 -4.31811e+12 -3.56239e+12 -5.15668e+12 -4.05493e+12 -6.20922e+12 -5.86878e+12 -5.34699e+12 -5.37451e+12 -3.97885e+12 -4.54817e+12 -3.16852e+12 -3.19483e+12 -3.49857e+12 -3.25049e+12 -4.16107e+12 -2.81392e+12 -6.20003e+12 -4.90883e+12 -4.00659e+12 -4.36065e+12 -3.37332e+12 -2.68335e+12 -2.62707e+12 -2.93699e+12 -3.36015e+12 -2.61268e+12 -2.23734e+12 -1.2453e+12 -1.887e+12 -1.02769e+12 -2.22538e+12 -1.14976e+12 -2.01586e+12 -882314000000.0 -1.6431e+12 -512450000000.0 -1.24506e+12 -1.9021e+12 -1.49377e+12 -1.13997e+12 -1.36354e+12 -1.06659e+12 -1.68245e+12 -2.39542e+12 -1.65345e+12 -1.17451e+12 -1.63973e+12 -1.73138e+12 -930970000000.0 -2.04534e+12 -2.55117e+12 -2.33005e+12 -2.19898e+12 -1.78682e+12 -2.04264e+12 -2.47522e+12 -4.9084e+12 -2.35071e+12 -2.47762e+12 -4.24489e+12 -5.4733e+12 -4.01816e+12 -5.31376e+12 -5.52829e+12 -5.48956e+12 -3.39976e+12 -3.67174e+12 -4.68887e+12 -6.65867e+12 -3.56955e+12 -5.13676e+12 -4.60663e+12 -6.76568e+12 -9.47298e+12 -6.53842e+12 -3.51344e+12 -9.37998e+12 -5.86879e+12 -8.57445e+12 -6.59497e+12 -6.68425e+12 -8.37242e+12 -5.33325e+12 -5.77226e+12 -8.30202e+12 -5.62896e+12 -7.98542e+12 -4.86486e+12 -4.72881e+12 -4.32645e+12 -3.37985e+12 -8.37427e+12 -6.17645e+12 -9.69443e+12 -7.95869e+12 -5.75383e+12 -5.67039e+12 -4.06294e+12 -4.39983e+12 -7.45015e+12 -9.98768e+12 -4.77624e+12 -7.89449e+12 -7.92355e+12 -7.55494e+12 -6.63356e+12 -6.37517e+12 -3.60231e+12 -4.14532e+12 -6.02864e+12 -7.05366e+12 -4.32612e+12 -5.52697e+12 -4.2906e+12 -4.60943e+12 -4.00941e+12 -3.548e+12 -4.16254e+12 -4.60631e+12 -3.39418e+12 -4.40153e+12 -3.49327e+12 -4.06598e+12 -4.80234e+12 -3.60774e+12 -3.66876e+12 -1.98694e+12 -2.09251e+12 -1.78278e+12 -2.38691e+12 -822019000000.0 -2.00507e+12 -1.71924e+12 -1.50468e+12 -1.23018e+12 -1.04841e+12 -1.70787e+12 -1.07607e+12 -1.84399e+12 -1.00654e+12 -840417000000.0 -1.94163e+12 -427712000000.0 -2.84356e+12 -1.99118e+12 -1.95564e+12 -2.86023e+12 -1.01191e+12 -1.22084e+12 -761399000000.0 -3.34897e+12 -1.20904e+12 -1.63637e+12 -2.04716e+12 -3.84939e+12 -3.00041e+12 -2.36943e+12 -3.8584e+12 -2.09029e+12 -1.9285e+12 -5.94459e+12 -4.13861e+12 -4.03816e+12 -2.26085e+12 -2.9856e+12 -4.95668e+12 -3.19061e+12 -5.04008e+12 -5.892e+12 -8.01899e+12 -3.55213e+12 -5.17974e+12 -6.86549e+12 -6.47839e+12 -5.45488e+12 -5.68281e+12 -6.73895e+12 -6.10386e+12 -9.61578e+12 -7.22015e+12 -8.78672e+12 -6.33445e+12 -3.53726e+12 -4.61208e+12 -4.18505e+12 -4.90111e+12 -1.16597e+13 -5.02671e+12 -7.02046e+12 -5.70026e+12 -7.9877e+12 -6.32791e+12 -3.81613e+12 -3.74945e+12 -2.29999e+12 -8.92286e+12 -5.35042e+12 -8.2897e+12 -6.35412e+12 -7.21919e+12 -3.42727e+12 -5.79363e+12 -8.1291e+12 -6.14523e+12 -6.38166e+12 -6.26746e+12 -5.84507e+12 -4.84519e+12 -4.04454e+12 -4.46249e+12 -3.61943e+12 -5.39316e+12 -4.98852e+12 -8.16499e+12 -4.08711e+12 -5.52382e+12 -5.28044e+12 -4.52302e+12 -6.4433e+12 -4.56776e+12 -4.58376e+12 -6.19149e+12 -4.05594e+12 -3.31557e+12 -4.29391e+12 -2.98919e+12 -2.57891e+12 -3.66365e+12 -5.5371e+12 -2.14184e+12 -1.29117e+12 -2.31155e+12 -1.24515e+12 -1.71277e+12 -601542000000.0 -1.01887e+12 -1.33788e+12 -2.44948e+12 -756617000000.0 -1.19392e+12 -1.18687e+12 -612146000000.0 -1.5747e+12 -991048000000.0 -2.10728e+12 -817188000000.0 -1.82811e+12 -954733000000.0 -1.65923e+12 -1.49888e+12 -614941000000.0 -944629000000.0 -1.5966e+12 -2.65155e+12 -2.02197e+12 -2.85345e+12 -1.76041e+12 -4.18222e+12 -2.39413e+12 -2.10243e+12 -3.75359e+12 -3.49065e+12 -918035000000.0 -2.0697e+12 -3.53409e+12 -2.18702e+12 -3.13019e+12 -2.59792e+12 -5.21207e+12 -6.0938e+12 -5.9662e+12 -3.50955e+12 -4.20272e+12 -3.87789e+12 -2.95416e+12 -3.96205e+12 -5.41196e+12 -6.30394e+12 -3.95022e+12 -5.49988e+12 -5.25505e+12 -5.49631e+12 -7.07873e+12 -5.80727e+12 -5.74202e+12 -9.17891e+12 -6.19393e+12 -5.52327e+12 -8.62122e+12 -3.82268e+12 -9.41231e+12 -9.14475e+12 -7.84153e+12 -8.34203e+12 -5.99635e+12 -8.26762e+12 -4.80442e+12 -6.54343e+12 -6.92471e+12 -6.87225e+12 -3.58e+12 -7.24833e+12 -7.06958e+12 -5.18375e+12 -7.84745e+12 -7.34334e+12 -7.2508e+12 -9.40005e+12 -8.32245e+12 -4.19857e+12 -8.60318e+12 -4.2608e+12 -9.86004e+12 -5.47192e+12 -4.29283e+12 -4.55606e+12 -4.15082e+12 -7.11143e+12 -1.69849e+12 -3.05982e+12 -6.14646e+12 -4.73205e+12 -7.3098e+12 -5.49323e+12 -4.43701e+12 -6.40784e+12 -3.36056e+12 -4.91216e+12 -3.25086e+12 -5.04778e+12 -3.64063e+12 -4.28686e+12 -2.91603e+12 -2.29512e+12 -3.50296e+12 -2.19799e+12 -3.40658e+12 -4.04673e+12 -3.00408e+12 -2.16084e+12 -2.04891e+12 -2.34096e+12 -3.68943e+12 -4.24246e+12 -3.20269e+12 -3.09316e+12 -1.65132e+12 -2.12435e+12 -1.26518e+12 -1.53873e+12 -2.65511e+12 -916448000000.0 -1.76591e+12 -2.18438e+12 -3.03755e+12 -2.19475e+12 -1.04792e+12 -1.27578e+12 -1.22987e+12 -1.71774e+12 -1.87974e+12 -1.39659e+12 -1.86913e+12 -1.85161e+12 -2.53492e+12 -2.02298e+12 -1.82367e+12 -2.09133e+12 -1.08105e+12 -2.81463e+12 -2.66739e+12 -2.984e+12 -3.20631e+12 -2.83656e+12 -2.61122e+12 -1.67518e+12 -3.23828e+12 -2.93751e+12 -4.47111e+12 -4.71545e+12 -2.83035e+12 -4.80641e+12 -2.55159e+12 -5.70057e+12 -2.84744e+12 -4.77454e+12 -3.78561e+12 -4.01789e+12 -5.35889e+12 -6.97429e+12 -6.78056e+12 -2.64948e+12 -3.74424e+12 -1.07016e+13 -5.22654e+12 -7.55313e+12 -7.0315e+12 -5.11835e+12 -6.40434e+12 -5.59597e+12 -3.5682e+12 -1.71485e+12 -2.73956e+12 -3.0018e+12 -5.9885e+12 -6.34142e+12 -4.64556e+12 -3.42149e+12 -6.23208e+12 -7.68244e+12 -6.46148e+12 -6.50741e+12 -5.44415e+12 -7.9611e+12 -3.74669e+12 -7.42002e+12 -4.99938e+12 -1.92665e+12 -6.52641e+12 -8.97206e+12 -8.58907e+12 -6.37261e+12 -8.14366e+12 -7.94446e+12 -6.88598e+12 -9.26338e+12 -6.26017e+12 -6.41695e+12 -5.28132e+12 -6.86143e+12 -6.33873e+12 -4.20448e+12 -6.27355e+12 -3.80807e+12 -6.18619e+12 -8.23152e+12 -3.74346e+12 -3.96775e+12 -2.86767e+12 -3.32376e+12 -4.80291e+12 -5.73011e+12 -3.31185e+12 -6.67172e+12 -5.64447e+12 -5.52894e+12 -6.14208e+12 -3.76142e+12 -1.90845e+12 -4.21721e+12 -3.07897e+12 -2.38161e+12 -3.84103e+12 -4.08841e+12 -1.89149e+12 -1.12594e+12 -2.81768e+12 -3.03189e+12 -1.92823e+12 -1.0515e+12 -1.06846e+12 -1.16401e+12 -2.64143e+12 -1.81317e+12 -2.53083e+12 -1.44483e+12 -1.77155e+12 -2.38675e+12 -961722000000.0 -1.39991e+12 -1.53907e+12 -1.03513e+12 -747702000000.0 -894684000000.0 -75388500000.0 -1.15791e+12 -812052000000.0 -1.20471e+12 -1.28807e+12 -1.13202e+12 -2.00762e+12 -2.1249e+12 -1.4998e+12 -1.74692e+12 -2.98794e+12 -1.2363e+12 -1.3836e+12 -1.63038e+12 -2.58875e+12 -3.03617e+12 -2.82253e+12 -2.72539e+12 -3.18633e+12 -688684000000.0 -934979000000.0 -3.39345e+12 -3.77858e+12 -3.02755e+12 -2.88523e+12 -4.46126e+12 -3.83197e+12 -3.8424e+12 -3.345e+12 -4.01418e+12 -2.47413e+12 -3.94774e+12 -5.36825e+12 -3.33267e+12 -5.72097e+12 -5.43373e+12 -4.53846e+12 -5.36117e+12 -5.62328e+12 -4.13884e+12 -5.24624e+12 -5.42416e+12 -2.68602e+12 -2.52332e+12 -6.00648e+12 -6.00198e+12 -5.01666e+12 -5.03643e+12 -4.57591e+12 -4.92467e+12 -3.91153e+12 -8.44454e+12 -6.24822e+12 -6.41818e+12 -5.54325e+12 -5.20587e+12 -5.91515e+12 -6.48859e+12 -5.65543e+12 -4.92159e+12 -4.56446e+12 -3.70073e+12 -8.21122e+12 -6.71695e+12 -2.35807e+12 -4.31514e+12 -4.41853e+12 -5.01378e+12 -4.96954e+12 -9.05621e+12 -5.28596e+12 -5.34495e+12 -5.87297e+12 -3.93161e+12 -4.72488e+12 -5.56927e+12 -9.72532e+12 -6.95234e+12 -2.20362e+12 -5.40757e+12 -4.81772e+12 -5.3528e+12 -7.33233e+12 -4.1824e+12 -6.38393e+12 -4.84543e+12 -2.89714e+12 -5.60786e+12 -3.93107e+12 -7.31461e+12 -4.06416e+12 -4.13079e+12 -3.4871e+12 -2.53546e+12 -5.23485e+12 -3.18343e+12 -4.81487e+12 -5.43458e+12 -3.28775e+12 -3.19426e+12 -1.53925e+12 -5.4948e+12 -3.86521e+12 -3.46001e+12 -4.49236e+12 -2.95241e+12 -1.57379e+12 -3.3533e+12 -2.86487e+12 -2.67496e+12 -1.70746e+12 -2.93353e+12 -1.44298e+12 -1.70153e+12 -2.82761e+12 -1.74734e+12 -2.12148e+12 -1.91091e+12 -1.88137e+12 -1.46303e+12 -1.6309e+12 -1.06464e+12 -1.64282e+12 -1.57886e+12 -232180000000.0 -1.11063e+12 -962874000000.0 -1.16865e+12 -509671000000.0 -1.54962e+12 -1.97056e+12 -1.36173e+12 -1.03682e+12 -2.07655e+12 -1.92805e+12 -1.53039e+12 -114153000000.0 -1.21413e+12 -836377000000.0 -769242000000.0 -1.9795e+12 -2.34912e+12 -957061000000.0 -835940000000.0 -2.09369e+12 -1.59486e+12 -3.03109e+12 -4.17691e+12 -1.04468e+12 -4.80547e+12 -1.93426e+12 -4.84337e+12 -3.39899e+12 -1.92957e+12 -5.00688e+12 -1.83036e+12 -3.74161e+12 -1.37566e+12 -3.7659e+12 -4.14498e+12 -4.6365e+12 -4.04201e+12 -3.55211e+12 -5.57168e+12 -4.85456e+12 -4.47805e+12 -8.05233e+12 -3.36868e+12 -7.86602e+12 -5.57377e+12 -7.23359e+12 -7.45456e+12 -7.00548e+12 -6.80163e+12 -6.21167e+12 -5.86935e+12 -7.19768e+12 -8.06134e+12 -6.32823e+12 -4.60781e+12 -3.83579e+12 -4.4252e+12 -4.64156e+12 -4.56689e+12 -5.39737e+12 -6.1098e+12 -3.56151e+12 -4.38818e+12 -4.33625e+12 -4.54864e+12 -2.98765e+12 -5.54765e+12 -3.14808e+12 -5.1644e+12 -8.03639e+12 -5.53607e+12 -9.24383e+12 -9.03521e+12 -6.69358e+12 -4.0228e+12 -3.1265e+12 -7.24347e+12 -6.38656e+12 -8.98422e+12 -3.44272e+12 -2.88131e+12 -4.40488e+12 -3.55155e+12 -4.34331e+12 -3.18491e+12 -5.25678e+12 -7.25708e+12 -5.34146e+12 -4.73717e+12 -5.38685e+12 -3.45301e+12 -4.62861e+12 -4.10044e+12 -4.28005e+12 -3.94544e+12 -2.52196e+12 -2.59171e+12 -6.24604e+12 -5.66992e+12 -2.94021e+12 -2.66182e+12 -2.34629e+12 -4.99452e+12 -4.17064e+12 -4.04002e+12 -1.38969e+12 -2.25479e+12 -3.20018e+12 -1.91331e+12 -2.20353e+12 -3.20463e+12 -2.7984e+12 -1.53158e+12 -2.71008e+12 -3.16044e+12 -2.56315e+12 -2.84931e+12 -237839000000.0 -1.98455e+12 -249284000000.0 -2.13695e+12 -1.35799e+12 -2.09943e+12 -1.47276e+12 -896296000000.0 -2.68231e+12 -957084000000.0 -691320000000.0 -820515000000.0 -724534000000.0 -736716000000.0 -929491000000.0 -402432000000.0 -605633000000.0 -1.30507e+12 -1.0599e+12 -1.13358e+12 -712684000000.0 -929535000000.0 -355869000000.0 -2.24854e+12 -2.00307e+12 -1.95181e+12 -2.47e+12 -2.96083e+12 -2.29743e+12 -1.43058e+12 -3.79529e+12 -2.65848e+12 -3.66194e+12 -2.90578e+12 -4.65755e+12 -3.85973e+12 -2.13617e+12 -1.77387e+12 -2.12553e+12 -3.47411e+12 -3.97767e+12 -2.28304e+12 -3.98852e+12 -3.98742e+12 -1.62295e+12 -1.75941e+12 -1.13551e+12 -2.78434e+12 -2.16931e+12 -4.60024e+12 -6.28272e+12 -2.74012e+12 -6.09806e+12 -4.83044e+12 -5.67005e+12 -7.14984e+12 -5.66363e+12 -5.39972e+12 -5.40787e+12 -5.90677e+12 -7.8826e+12 -7.80138e+12 -5.48694e+12 -7.99045e+12 -4.7062e+12 -5.80688e+12 -7.11606e+12 -7.04163e+12 -6.72579e+12 -5.15502e+12 -6.98119e+12 -4.95146e+12 -4.75158e+12 -7.08601e+12 -8.51295e+12 -5.68325e+12 -5.68624e+12 -3.14217e+12 -8.91359e+12 -5.59486e+12 -2.81192e+12 -3.79228e+12 -4.57551e+12 -5.14733e+12 -8.43336e+12 -4.38703e+12 -6.24142e+12 -3.80748e+12 -4.24984e+12 -2.19505e+12 -7.07128e+12 -6.96469e+12 -5.5517e+12 -6.70861e+12 -1.01534e+13 -4.14531e+12 -7.54941e+12 -4.87524e+12 -6.29474e+12 -4.66181e+12 -6.65479e+12 -4.14586e+12 -2.92223e+12 -4.5236e+12 -3.97813e+12 -3.00328e+12 -4.60201e+12 -4.23211e+12 -3.9406e+12 -3.56702e+12 -4.48642e+12 -2.32162e+12 -2.80416e+12 -5.22426e+12 -1.97585e+12 -3.10088e+12 -3.25047e+12 -3.62112e+12 -3.41796e+12 -3.4158e+12 -1.00233e+12 -2.6688e+12 -4.33196e+12 -3.0143e+12 -1.45871e+12 -1.55313e+12 -1.34065e+12 -2.79088e+12 -2.33905e+12 -2.07422e+12 -1.70272e+12 -2.04159e+12 -2.39029e+12 -1.03992e+12 -1.68383e+12 -1.54376e+12 -1.30649e+12 -857886000000.0 -1.29508e+12 -1.17173e+12 -293785000000.0 -933015000000.0 -1.35666e+12 -1.72137e+12 -1.71428e+12 -1.04066e+12 -1.04081e+12 -723801000000.0 -1.70245e+12 -1.47196e+12 -1.27467e+12 -1.12462e+12 -1.37596e+12 -2.23068e+12 -1.43125e+12 -1.27033e+12 -2.5968e+12 -1.36076e+12 -1.6012e+12 -1.0924e+12 -836665000000.0 -2.72441e+12 -2.85312e+12 -3.32581e+12 -1.738e+12 -2.1886e+12 -1.96736e+12 -4.14968e+12 -1.67227e+12 -2.7816e+12 -2.81419e+12 -3.53416e+12 -1.19027e+12 -6.15211e+12 -3.71907e+12 -4.43684e+12 -3.42224e+12 -4.61033e+12 -4.7232e+12 -1.78556e+12 -1.70499e+12 -8.70112e+12 -6.58889e+12 -3.25428e+12 -3.85217e+12 -3.76055e+12 -8.70752e+12 -2.53226e+12 -4.76826e+12 -6.56051e+12 -5.47499e+12 -5.40298e+12 -4.21619e+12 -3.4674e+12 -6.9912e+12 -6.11345e+12 -4.25216e+12 -3.85566e+12 -5.5592e+12 -2.83385e+12 -7.51965e+12 -3.95417e+12 -5.45128e+12 -4.20691e+12 -6.54933e+12 -5.54309e+12 -3.0532e+12 -3.80917e+12 -6.89222e+12 -4.41365e+12 -2.93273e+12 -3.59922e+12 -5.5389e+12 -5.12298e+12 -2.61882e+12 -3.88165e+12 -5.43554e+12 -7.28512e+12 -4.57765e+12 -5.6243e+12 -5.62476e+12 -5.36361e+12 -6.09874e+12 -1.34507e+13 -7.61293e+12 -4.42329e+12 -3.80967e+12 -6.70099e+12 -5.98533e+12 -5.77854e+12 -3.64725e+12 -6.79413e+12 -4.22081e+12 -4.96169e+12 -4.26517e+12 -3.08109e+12 -3.29079e+12 -1.65978e+12 -2.98074e+12 -604097000000.0 -2.75799e+12 -3.35127e+12 -6.06135e+12 -4.73218e+12 -3.6542e+12 -3.18334e+12 -4.554e+12 -2.0152e+12 -2.47043e+12 -2.25219e+12 -2.00851e+12 -2.61588e+12 -1.52703e+12 -2.30031e+12 -2.10327e+12 -2.41916e+12 -2.42259e+12 -2.29072e+12 -1.86346e+12 -2.81627e+12 -2.0618e+12 -3.22737e+12 -2.5487e+12 -1.67972e+12 -2.34226e+12 -1.01617e+12 -1.21546e+12 -1.28729e+12 -2.26751e+12 -1.11014e+12 -638330000000.0 -911180000000.0 -387178000000.0 -1.34496e+12 -1.46988e+12 -824073000000.0 -1.0312e+12 -1.25047e+12 -1.13254e+12 -300245000000.0 -873595000000.0 -1.48308e+12 -1.05361e+12 -536125000000.0 -584715000000.0 -907278000000.0 -1.29286e+12 -1.07674e+12 -114848000000.0 -1.16402e+12 -1.77274e+12 -2.14866e+12 -1.32422e+12 -1.55352e+12 -1.34214e+12 -1.50024e+12 -1.10014e+12 -2.71337e+12 -3.64308e+12 -2.10648e+12 -1.50087e+12 -1.76035e+12 -2.71111e+12 -2.35517e+12 -3.2785e+12 -3.79451e+12 -2.15336e+12 -2.03137e+12 -4.39578e+12 -2.52005e+12 -3.98395e+12 -4.78142e+12 -2.92679e+12 -3.42463e+12 -2.90187e+12 -6.62237e+12 -2.06729e+12 -5.92956e+12 -4.80466e+12 -6.71182e+12 -4.00509e+12 -4.45901e+12 -5.61815e+12 -5.10685e+12 -3.92261e+12 -4.01507e+12 -2.69006e+12 -2.65162e+12 -5.10025e+12 -3.5143e+12 -4.8642e+12 -4.43607e+12 -5.92486e+12 -5.78681e+12 -6.51558e+12 -4.89128e+12 -4.07871e+12 -6.88153e+12 -7.95173e+12 -8.46686e+12 -6.24516e+12 -6.08516e+12 -4.67785e+12 -6.37873e+12 -7.09161e+12 -5.57532e+12 -4.40734e+12 -2.07099e+12 -3.88278e+12 -1.89452e+12 -4.61985e+12 -4.60587e+12 -4.37497e+12 -3.21416e+12 -3.21304e+12 -2.92328e+12 -5.16049e+12 -6.49263e+12 -4.18624e+12 -5.18781e+12 -4.157e+12 -5.21254e+12 -9.29236e+12 -3.3035e+12 -4.40203e+12 -6.5743e+12 -3.32315e+12 -5.7697e+12 -3.39211e+12 -3.7831e+12 -5.05371e+12 -4.03663e+12 -4.95613e+12 -6.13446e+12 -3.87615e+12 -5.06887e+12 -6.50848e+12 -2.03278e+12 -2.03879e+12 -3.34204e+12 -3.2151e+12 -3.64862e+12 -2.75459e+12 -1.8178e+12 -1.86057e+12 -2.4838e+12 -2.62871e+12 -4.35808e+12 -2.84038e+12 -3.25106e+12 -1.31205e+12 -2.23977e+12 -2.92918e+12 -1.72007e+12 -2.28226e+12 -860714000000.0 -1.41508e+12 -1.34979e+12 -901982000000.0 -1.29542e+12 -1.35704e+12 -414480000000.0 -1.11757e+12 -546863000000.0 -1.31745e+12 -1.14841e+12 -385308000000.0 -1.09948e+12 -1.18771e+12 -910007000000.0 -814331000000.0 -953048000000.0 -1.28505e+12 -1.27337e+12 -204305000000.0 -130320000000.0 -644498000000.0 -964544000000.0 -623668000000.0 -1.43226e+12 -472913000000.0 -252163000000.0 -1.14901e+12 -2.05777e+12 -705071000000.0 -555496000000.0 -1.38499e+12 -1.50172e+12 -478009000000.0 -2.22234e+12 -1.24003e+12 -914674000000.0 -1.46777e+12 -1.14006e+12 -3.05601e+12 -3.57351e+12 -2.15149e+12 -3.26882e+12 -3.38573e+12 -322349000000.0 -2.87529e+12 -3.37335e+12 -4.63397e+12 -3.95679e+12 -2.24658e+12 -3.50726e+12 -3.14839e+12 -3.13734e+12 -2.24391e+12 -4.73661e+12 -2.04727e+12 -2.70691e+12 -3.25385e+12 -3.18759e+12 -3.62469e+12 -3.91277e+12 -3.52481e+12 -4.92135e+12 -5.70763e+12 -5.31719e+12 -3.09643e+12 -3.75954e+12 -2.14843e+12 -7.39146e+12 -4.20028e+12 -3.79544e+12 -4.66597e+12 -3.5105e+12 -5.82539e+12 -7.66747e+12 -5.52324e+12 -4.84055e+12 -6.44576e+12 -4.1303e+12 -4.3261e+12 -6.82774e+12 -5.73723e+12 -3.90734e+12 -4.18078e+12 -3.45441e+12 -4.14219e+12 -2.75925e+12 -4.8007e+12 -4.23925e+12 -5.74893e+12 -4.896e+12 -4.17774e+12 -4.07883e+12 -2.90757e+12 -3.43409e+12 -3.9811e+12 -5.5093e+12 -5.82058e+12 -2.78876e+12 -2.90987e+12 -2.99769e+12 -4.51956e+12 -4.73504e+12 -3.64963e+12 -2.03707e+12 -5.19829e+12 -4.23479e+12 -4.13047e+12 -2.89021e+12 -1.78349e+12 -3.64299e+12 -3.98081e+12 -3.67196e+12 -3.25547e+12 -3.34468e+12 -3.46655e+12 -6.29629e+12 -2.09188e+12 -6.06975e+12 -3.60587e+12 -5.61421e+12 -3.72018e+12 -2.5166e+12 -1.61851e+12 -3.71193e+12 -1.40085e+12 -1.27743e+12 -3.48992e+12 -1.98797e+12 -1.58865e+12 -3.24804e+12 -3.14403e+12 -3.05046e+12 -2.33657e+12 -1.20714e+12 -1.56421e+12 -1.3852e+12 -926098000000.0 -1.22075e+12 -992256000000.0 -2.98075e+12 -1.88515e+12 -2.5363e+12 -451598000000.0 -1.11555e+12 -1.68735e+12 -1.0389e+12 -1.00053e+12 -618158000000.0 -698504000000.0 -639211000000.0 -940432000000.0 -1.17319e+12 -1.13282e+12 -1.03015e+12 -1.04654e+12 -1.25718e+12 -909281000000.0 -1.24419e+12 -1.35364e+12 -1.26003e+12 -2.01079e+12 -2.22127e+12 -791864000000.0 -894275000000.0 -786634000000.0 -939021000000.0 -541222000000.0 -873914000000.0 -1.21065e+12 -924114000000.0 -2.21522e+12 -1.04695e+12 -2.36277e+12 -2.92499e+12 -2.99023e+12 -3.2988e+12 -2.94775e+12 -1.78813e+12 -3.5597e+12 -4.53566e+12 -2.72234e+12 -2.20172e+12 -3.12995e+12 -5.22132e+12 -2.29999e+12 -2.20434e+12 -3.62344e+12 -3.19067e+12 -2.91555e+12 -3.97033e+12 -4.05039e+12 -3.92034e+12 -1.29434e+12 -2.90103e+12 -3.5725e+12 -8.03104e+12 -3.10866e+12 -3.59805e+12 -5.13664e+12 -3.19896e+12 -3.27926e+12 -3.57312e+12 -3.16488e+12 -2.75163e+12 -3.36611e+12 -5.1328e+12 -7.06774e+12 -8.56355e+12 -3.1418e+12 -6.30749e+12 -5.46243e+12 -4.28214e+12 -8.35444e+12 -2.23946e+12 -3.84538e+12 -3.84573e+12 -5.53034e+12 -4.24461e+12 -4.47198e+12 -4.49267e+12 -6.12268e+12 -5.5093e+12 -4.9112e+12 -3.72933e+12 -4.97571e+12 -2.6384e+12 -3.90461e+12 -3.37289e+12 -4.81152e+12 -2.77084e+12 -1.98061e+12 -2.4343e+12 -3.26894e+12 -3.32062e+12 -2.37908e+12 -4.32736e+12 -2.74149e+12 -1.90898e+12 -1.8726e+12 -5.22681e+12 -2.03789e+12 -2.5945e+12 -3.22913e+12 -3.16635e+12 -2.37018e+12 -5.47815e+12 -3.44571e+12 -2.26705e+12 -4.16955e+12 -3.33832e+12 -2.53609e+12 -3.58004e+12 -1.56807e+12 -2.41938e+12 -834613000000.0 -3.15568e+12 -2.09187e+12 -2.10344e+12 -1.13325e+12 -1.91319e+12 -1.20148e+12 -2.48771e+12 -702439000000.0 -1.4675e+12 -1.05304e+12 -925394000000.0 -764512000000.0 -1.66855e+12 -782673000000.0 -977637000000.0 -451276000000.0 -509905000000.0 -116787000000.0 -1.01925e+12 -1.19551e+12 -729843000000.0 -537413000000.0 -299282000000.0 -641810000000.0 -472665000000.0 -628639000000.0 -761943000000.0 -438888000000.0 -1.23226e+12 -1.42184e+12 -54563900000.0 -1.01436e+12 -1.68517e+12 -251008000000.0 -1.94235e+12 -2.15248e+12 -1.37771e+12 -1.69075e+12 -2.38705e+12 -1.29218e+12 -2.19304e+12 -2.15031e+12 -1.44454e+12 -2.4359e+12 -1.84476e+12 -3.65757e+12 -3.64503e+12 -3.56869e+12 -4.12814e+12 -4.69303e+12 -4.20697e+12 -4.77329e+12 -1.16768e+12 -2.52909e+12 -1.50755e+12 -3.46756e+12 -5.31979e+12 -7.07495e+12 -2.96493e+12 -1.97791e+12 -3.57959e+12 -3.66839e+12 -6.11258e+12 -4.05215e+12 -5.79571e+12 -3.75232e+12 -4.25702e+12 -3.30901e+12 -2.58343e+12 -2.89762e+12 -4.53118e+12 -5.69011e+12 -4.48666e+12 -5.15852e+12 -2.61418e+12 -3.60856e+12 -5.40024e+12 -6.64076e+12 -6.52801e+12 -3.21547e+12 -3.20184e+12 -4.24486e+12 -3.15465e+12 -2.75759e+12 -5.5766e+12 -5.45064e+12 -4.22972e+12 -2.94777e+12 -4.57716e+12 -4.01233e+12 -4.3277e+12 -3.36203e+12 -3.87802e+12 -3.3043e+12 -2.59153e+12 -3.47236e+12 -1.99501e+12 -4.09187e+12 -895125000000.0 -3.8864e+12 -1.80745e+12 -2.70999e+12 -2.61905e+12 -2.77534e+12 -1.29334e+12 -3.49324e+12 -3.22427e+12 -4.13592e+12 -2.04084e+12 -2.40132e+12 -1.81125e+12 -2.6018e+12 -3.78636e+12 -3.50221e+12 -2.77396e+12 -2.09104e+12 -1.88148e+12 -946996000000.0 -1.54374e+12 -2.5913e+12 -1.96502e+12 -1.07818e+12 -1.22493e+12 -1.11231e+12 -912293000000.0 -1.53159e+12 -1.57002e+12 -925538000000.0 -780811000000.0 -1.0155e+12 -495794000000.0 -1.04543e+12 -685302000000.0 -1.24575e+12 -230934000000.0 -372300000000.0 -479943000000.0 -592105000000.0 -631958000000.0 -244656000000.0 -612919000000.0 -72860900000.0 -311053000000.0 -613302000000.0 -1.00165e+12 -266581000000.0 -847647000000.0 -929178000000.0 -377046000000.0 -152273000000.0 -1.0313e+12 -1.15203e+12 -1.54567e+12 -1.24715e+12 -1.56342e+12 -1.31798e+12 -1.47893e+12 -1.54923e+12 -1.76428e+12 -2.28682e+12 -1.42121e+12 -1.99798e+12 -3.66501e+12 -2.57146e+12 -3.30518e+12 -544203000000.0 -2.13751e+12 -3.54317e+12 -1.29575e+12 -2.34836e+12 -3.35348e+12 -2.97993e+12 -3.15152e+12 -3.73804e+12 -3.4329e+12 -5.32562e+12 -4.21032e+12 -2.81249e+12 -4.32731e+12 -4.25275e+12 -1.38839e+12 -3.46831e+12 -2.88162e+12 -3.18982e+12 -2.65563e+12 -3.21668e+12 -3.83304e+12 -4.43702e+12 -3.78098e+12 -6.17822e+12 -4.6338e+12 -3.66275e+12 -2.52667e+12 -3.68066e+12 -4.51568e+12 -7.46335e+12 -1.52272e+12 -6.04722e+12 -4.81971e+12 -2.83124e+12 -1.83536e+12 -2.06447e+12 -1.78769e+12 -2.04191e+12 -3.20883e+12 -3.93963e+12 -3.91563e+12 -4.54073e+12 -4.32926e+12 -3.13952e+12 -3.23276e+12 -3.82176e+12 -3.9111e+12 -3.93794e+12 -3.21825e+12 -2.61701e+12 -2.22822e+12 -2.0885e+12 -3.36967e+12 -3.05876e+12 -1.52187e+12 -4.55989e+12 -3.62933e+12 -2.9221e+12 -1.13092e+12 -1.23705e+12 -3.20524e+12 -3.28078e+12 -4.2801e+12 -1.82932e+12 -1.71862e+12 -1.67378e+12 -1.32334e+12 -2.72773e+12 -1.96628e+12 -2.69863e+12 -2.35392e+12 -980204000000.0 -2.50467e+12 -1.60476e+12 -3.00858e+12 -1.14124e+12 -1.64351e+12 -2.20974e+12 -944632000000.0 -1.08589e+12 -1.81349e+12 -835597000000.0 -807282000000.0 -1.50856e+12 -1.18812e+12 -668263000000.0 -645301000000.0 -461324000000.0 -857593000000.0 -1.13565e+12 -414185000000.0 -705166000000.0 -611345000000.0 -276317000000.0 -680457000000.0 -432913000000.0 -373333000000.0 -646476000000.0 -213474000000.0 -572074000000.0 -459099000000.0 -583474000000.0 -672745000000.0 -479729000000.0 -553571000000.0 -1.26837e+12 -419321000000.0 -190831000000.0 -329321000000.0 -789904000000.0 -1.21541e+12 -1.48704e+12 -1.13352e+12 -1.10061e+12 -1.42345e+12 -1.77767e+12 -1.45447e+12 -952157000000.0 -1.12232e+12 -1.27227e+12 -1.21689e+12 -1.88013e+12 -2.93684e+12 -1.83988e+12 -1.15636e+12 -2.83151e+12 -2.41354e+12 -2.55803e+12 -420208000000.0 -3.21342e+12 -4.35837e+12 -2.87131e+12 -1.47802e+12 -2.08202e+12 -2.71258e+12 -2.00636e+12 -3.61501e+12 -4.15377e+12 -2.62352e+12 -5.18847e+12 -5.03707e+12 -3.35724e+12 -9.58952e+12 -3.83566e+12 -6.38462e+12 -2.91262e+12 -1.88625e+12 -3.72274e+12 -3.45557e+12 -4.515e+12 -3.52859e+12 -2.84555e+12 -2.26632e+12 -1.12637e+12 -1.48082e+12 -5.12972e+12 -1.346e+12 -1.93964e+12 -5.10765e+12 -2.84499e+12 -5.26774e+12 -3.16862e+12 -3.099e+12 -2.43841e+12 -2.54928e+12 -3.2418e+12 -2.07033e+12 -3.27424e+12 -2.79301e+12 -4.74511e+12 -3.91296e+12 -1.98271e+12 -2.6559e+12 -2.72229e+12 -4.36582e+12 -3.94828e+12 -1.02471e+12 -1.22709e+12 -1.57277e+12 -2.7354e+12 -1.74279e+12 -1.09932e+12 -2.73708e+12 -1.84649e+12 -1.43529e+12 -1.09725e+12 -1.76362e+12 -2.28953e+12 -9966710000.0 -1.56374e+12 -2.27145e+12 -459205000000.0 -1.3157e+12 -620385000000.0 -823259000000.0 -976461000000.0 -629408000000.0 -482732000000.0 -320541000000.0 -557348000000.0 -1.22066e+12 -654941000000.0 -662813000000.0 -909316000000.0 -903635000000.0 -151382000000.0 -392562000000.0 -526035000000.0 -508124000000.0 -465912000000.0 -313990000000.0 -133477000000.0 -576565000000.0 -950711000000.0 -671984000000.0 -615847000000.0 -915916000000.0 -418096000000.0 -517320000000.0 -148564000000.0 -657164000000.0 -544279000000.0 -21286700000.0 -921163000000.0 -927587000000.0 -437936000000.0 -737372000000.0 -1.50756e+12 -232807000000.0 -1.32512e+12 -551031000000.0 -1.25753e+12 -709868000000.0 -1.33102e+12 -1.63136e+12 -732901000000.0 -671644000000.0 -1.6185e+12 -1.53958e+12 -2.63147e+12 -2.77282e+12 -1.9077e+12 -1.41743e+12 -2.71571e+12 -599401000000.0 -1.25922e+12 -1.24336e+12 -2.07066e+12 -1.93181e+12 -2.53783e+12 -4.1042e+12 -1.31365e+12 -2.64789e+12 -3.58332e+12 -4.86273e+12 -4.10962e+12 -3.44737e+12 -3.22858e+12 -3.44576e+12 -4.14644e+12 -1.70937e+12 -2.99626e+12 -2.56518e+12 -4.57569e+12 -5.14437e+12 -3.61268e+12 -2.73573e+12 -1.78685e+12 -3.19012e+12 -3.82903e+12 -1.60131e+12 -3.72455e+12 -2.49382e+12 -2.65259e+12 -2.86528e+12 -1.88385e+12 -1.56144e+12 -4.28864e+12 -4.42307e+12 -899055000000.0 -2.38037e+12 -2.80007e+12 -2.57659e+12 -3.33474e+12 -2.76741e+12 -4.3506e+12 -1.85858e+12 -1.77909e+12 -2.16921e+12 -2.40553e+12 -1.98704e+12 -2.41757e+12 -2.54747e+12 -2.04615e+12 -1.04323e+12 -2.10013e+12 -1.884e+12 -2.29817e+12 -2.29566e+12 -4.50793e+12 -3.24147e+12 -1.24564e+12 -2.5525e+12 -2.46148e+12 -1.00896e+12 -904036000000.0 -1.11268e+12 -2.76878e+12 -2.62189e+12 -713759000000.0 -838702000000.0 -1.15225e+12 -1.34181e+12 -740026000000.0 -1.76714e+12 -1.19499e+12 -341475000000.0 -968148000000.0 -1.00338e+12 -1.31092e+12 -1.12397e+12 -785771000000.0 -707945000000.0 -473500000000.0 -57154400000.0 -185480000000.0 -683950000000.0 -748148000000.0 -365920000000.0 -230113000000.0 -175664000000.0 -537755000000.0 -513674000000.0 -620332000000.0 -88989900000.0 -82080400000.0 -357297000000.0 -493702000000.0 -14275600000.0 -190159000000.0 -185014000000.0 -237618000000.0 -156824000000.0 -408418000000.0 -608025000000.0 -464886000000.0 -274638000000.0 -180954000000.0 -176186000000.0 -788757000000.0 -496485000000.0 -1.03918e+12 -546192000000.0 -334558000000.0 -352565000000.0 -1.14495e+12 -275666000000.0 -731992000000.0 -638869000000.0 -1.1382e+12 -365374000000.0 -302987000000.0 -1.05549e+12 -924391000000.0 -407310000000.0 -329277000000.0 -105093000000.0 -1.22536e+12 -217222000000.0 -1.93022e+12 -1.75943e+12 -1.20122e+12 -1.27587e+12 -2.90513e+12 -3.50826e+12 -1.9317e+12 -3.15104e+12 -1.89056e+12 -2.07913e+12 -1.4476e+12 -2.45818e+12 -2.68156e+12 -3.11541e+12 -1.54678e+12 -2.57093e+12 -3.56711e+12 -3.67567e+12 -2.30399e+12 -2.32255e+12 -2.29734e+12 -2.02164e+12 -1.80999e+12 -2.97808e+12 -3.58926e+12 -1.04931e+12 -2.77531e+12 -4.33424e+12 -3.21255e+12 -3.36921e+12 -3.08086e+12 -3.97726e+12 -1.86689e+12 -1.55855e+12 -2.54194e+12 -2.52664e+12 -2.82472e+12 -3.61021e+12 -3.68265e+12 -780518000000.0 -3.38032e+12 -1.87664e+12 -3.95971e+12 -2.45955e+12 -2.96505e+12 -1.88565e+12 -2.126e+12 -3.66768e+12 -1.0918e+12 -2.36655e+12 -1.46886e+12 -3.06756e+12 -3.22715e+12 -1.05917e+12 -3.5151e+12 -609812000000.0 -3.04705e+12 -3.27177e+12 -2.11374e+12 -911897000000.0 -1.19559e+12 -1.51682e+12 -490306000000.0 -1.47806e+12 -1.12053e+12 -950074000000.0 -832830000000.0 -1.39781e+12 -1.34403e+12 -1.85477e+12 -984329000000.0 -1.25048e+12 -823963000000.0 -245478000000.0 -977599000000.0 -774071000000.0 -302824000000.0 -304949000000.0 -501465000000.0 -658248000000.0 -644677000000.0 -346960000000.0 -270781000000.0 -302746000000.0 -638853000000.0 -381133000000.0 -267201000000.0 -382375000000.0 -379486000000.0 -189784000000.0 -359135000000.0 -197164000000.0 -499635000000.0 -475410000000.0 -594307000000.0 -414706000000.0 -870893000000.0 -172936000000.0 -427469000000.0 -820666000000.0 -738564000000.0 -553316000000.0 -850212000000.0 -319912000000.0 -304119000000.0 -913700000000.0 -1.82239e+12 -1.85004e+12 -2.07469e+12 -1.21799e+12 -708971000000.0 -1.27185e+12 -1.66552e+12 -1.85989e+12 -953524000000.0 -1.32861e+12 -1.87675e+12 -1.758e+12 -896294000000.0 -1.32175e+12 -1.051e+12 -2.27986e+12 -1.68856e+12 -2.33792e+12 -1.83736e+12 -900337000000.0 -1.97987e+12 -1.58053e+12 -1.74015e+12 -2.45237e+12 -2.44065e+12 -3.18137e+12 -2.3483e+12 -2.50483e+12 -1.93323e+12 -1.7992e+12 -1.87463e+12 -3.38128e+12 -1.44212e+12 -1.81621e+12 -2.04125e+12 -1.63984e+12 -2.98994e+12 -4.50149e+12 -2.70281e+12 -1.58866e+12 -1.38816e+12 -3.19833e+12 -3.79136e+12 -2.9078e+12 -1.44814e+12 -1.8031e+12 -2.11011e+12 -1.87177e+12 -1.72463e+12 -1.58048e+12 -1.41974e+12 -914037000000.0 -3.09795e+12 -1.50255e+12 -2.30347e+12 -1.47652e+12 -1.48002e+12 -1.7592e+12 -1.99173e+12 -817850000000.0 -1.30178e+12 -1.78076e+12 -1.7497e+12 -1.12108e+12 -3.31855e+12 -2.78982e+12 -1.70427e+12 -1.54639e+12 -1.3336e+12 -1.02695e+12 -666210000000.0 -1.32563e+12 -764047000000.0 -1.01209e+12 -1.18952e+12 -820136000000.0 -1.45644e+12 -606363000000.0 -380798000000.0 -1.168e+12 -1.32935e+12 -1.12332e+12 -380563000000.0 -408346000000.0 -660697000000.0 -494729000000.0 -364153000000.0 -198908000000.0 -515534000000.0 -144906000000.0 -178719000000.0 -470779000000.0 -447235000000.0 -222129000000.0 -266129000000.0 -35219700000.0 -368010000000.0 -357922000000.0 -504526000000.0 -278216000000.0 -279326000000.0 -393768000000.0 -387446000000.0 -649114000000.0 -400438000000.0 -488490000000.0 -520853000000.0 -641037000000.0 -139690000000.0 -378849000000.0 -916237000000.0 -951142000000.0 -344194000000.0 -393131000000.0 -433734000000.0 -514709000000.0 -492707000000.0 -326922000000.0 -829656000000.0 -1.20974e+12 -1.85489e+12 -1.70729e+12 -1.56783e+12 -1.15634e+12 -1.63761e+12 -1.01292e+12 -2.19347e+12 -1.06952e+12 -1.54612e+12 -2.04967e+12 -1.77267e+12 -1.02548e+12 -1.17313e+12 -1.66043e+12 -2.65102e+12 -1.46214e+12 -3.02617e+12 -3.16926e+12 -1.74425e+12 -1.19779e+12 -3.4069e+12 -3.45805e+12 -3.38188e+12 -1.29768e+12 -2.44912e+12 -1.64365e+12 -1.92568e+12 -2.1042e+12 -2.28047e+12 -2.45096e+12 -2.09482e+12 -2.34443e+12 -1.78741e+12 -1.85507e+12 -2.47015e+12 -1.91681e+12 -1.61577e+12 -1.58875e+12 -1.55237e+12 -1.02504e+12 -2.09534e+12 -1.25923e+12 -3.30166e+12 -1.97955e+12 -2.08673e+12 -2.2018e+12 -1.49851e+12 -1.87057e+12 -1.7e+12 -1.86536e+12 -1.73649e+12 -1.20187e+12 -1.38142e+12 -1.347e+12 -1.57586e+12 -1.5827e+12 -926371000000.0 -634387000000.0 -1.01795e+12 -355642000000.0 -1.37343e+12 -1.8124e+12 -2.09286e+12 -1.78288e+12 -1.16891e+12 -1.1025e+12 -901292000000.0 -692479000000.0 -1.26569e+12 -867009000000.0 -862575000000.0 -444362000000.0 -867914000000.0 -880225000000.0 -106345000000.0 -88776800000.0 -925688000000.0 -436998000000.0 -752109000000.0 -601066000000.0 -354383000000.0 -710982000000.0 -255272000000.0 -530103000000.0 -446688000000.0 -49292600000.0 -297236000000.0 -287211000000.0 -32207900000.0 -292039000000.0 -244749000000.0 -308367000000.0 -83620500000.0 -213832000000.0 -272149000000.0 -277311000000.0 -292293000000.0 -530725000000.0 -477585000000.0 -42882800000.0 -79411300000.0 -13432900000.0 -575677000000.0 -92555500000.0 -73332800000.0 -305838000000.0 -19311800000.0 -313682000000.0 -762105000000.0 -500689000000.0 -62392800000.0 -466961000000.0 -577138000000.0 -339998000000.0 -541412000000.0 -276165000000.0 -404535000000.0 -843556000000.0 -881105000000.0 -1.06439e+12 -835562000000.0 -449651000000.0 -260103000000.0 -1.14816e+12 -2.12539e+12 -1.10587e+12 -1.12212e+12 -782578000000.0 -1.67865e+12 -2.34355e+12 -1.24843e+12 -1.02726e+12 -852565000000.0 -2.15053e+12 -1.52834e+12 -489782000000.0 -2.24834e+12 -9423560000.0 -1.28959e+12 -2.59822e+12 -999243000000.0 -773077000000.0 -795650000000.0 -1.00534e+12 -2.78028e+12 -1.59871e+12 -2.68252e+12 -2.12555e+12 -1.29025e+12 -2.74073e+12 -2.30117e+12 -2.96363e+12 -2.08718e+12 -1.94943e+12 -3.00455e+12 -2.08701e+12 -2.2516e+12 -2.17629e+12 -2.88091e+12 -822989000000.0 -329750000000.0 -1.37551e+12 -2.22917e+12 -1.01987e+12 -1.11278e+12 -278314000000.0 -1.0061e+12 -1.42085e+12 -1.85151e+12 -1.94522e+12 -584361000000.0 -1.28233e+12 -842995000000.0 -1.8697e+12 -1.43598e+12 -694335000000.0 -1.13304e+12 -518825000000.0 -1.27408e+12 -1.24619e+12 -455179000000.0 -397799000000.0 -460718000000.0 -973455000000.0 -945600000000.0 -967763000000.0 -870894000000.0 -580125000000.0 -579679000000.0 -492214000000.0 -196832000000.0 -122338000000.0 -294674000000.0 -371871000000.0 -257421000000.0 -292476000000.0 -310871000000.0 -374993000000.0 -463429000000.0 -317311000000.0 -171442000000.0 -239850000000.0 -279962000000.0 -201905000000.0 -283828000000.0 -198733000000.0 -109206000000.0 -96079000000.0 -240501000000.0 -132581000000.0 -154370000000.0 -404371000000.0 -150537000000.0 -51025200000.0 -29216600000.0 -143695000000.0 -421869000000.0 -281479000000.0 -366019000000.0 -367607000000.0 -61123300000.0 -306471000000.0 -329519000000.0 -719829000000.0 -78602700000.0 -730599000000.0 -578625000000.0 -356380000000.0 -457466000000.0 -505875000000.0 -1.57946e+12 -1.09425e+12 -1.14213e+12 -715792000000.0 -595456000000.0 -677115000000.0 -1.07504e+12 -737691000000.0 -1.94155e+12 -1.89403e+12 -867847000000.0 -2.31831e+12 -1.81195e+12 -1.42614e+12 -1.67951e+12 -2.34227e+12 -2.28568e+12 -1.93505e+12 -2.14765e+12 -1.27977e+12 -963901000000.0 -1.76174e+12 -2.65461e+12 -3.05612e+12 -1.29955e+12 -2.73591e+12 -1.34527e+12 -2.74967e+12 -1.11612e+12 -1.48607e+12 -2.47841e+12 -2.90074e+12 -551302000000.0 -1.16905e+12 -1.02394e+12 -1.44174e+12 -2.17049e+12 -2.30575e+12 -1.09849e+12 -870723000000.0 -137962000000.0 -1.274e+12 -1.48922e+12 -992874000000.0 -180204000000.0 -1.20143e+12 -1.50841e+12 -2.15308e+12 -630302000000.0 -1.10439e+12 -1.0075e+12 -758213000000.0 -748520000000.0 -885692000000.0 -1.81309e+12 -1.65856e+12 -1.42916e+12 -1.43345e+12 -849049000000.0 -1.34162e+12 -1.04686e+12 -577745000000.0 -1.49748e+12 -1.08431e+12 -222015000000.0 -363217000000.0 -215864000000.0 -373373000000.0 -687997000000.0 -975948000000.0 -1.05509e+12 -495790000000.0 -568906000000.0 -293020000000.0 -535139000000.0 -540423000000.0 -400982000000.0 -195776000000.0 -138601000000.0 -52168900000.0 -53742600000.0 -19967600000.0 -173835000000.0 -246528000000.0 -115425000000.0 -33236900000.0 -102729000000.0 -93977800000.0 -143611000000.0 -254032000000.0 -69075200000.0 -213730000000.0 -214382000000.0 -339252000000.0 -115661000000.0 -119953000000.0 -150456000000.0 -165978000000.0 -600761000000.0 -355980000000.0 -384492000000.0 -355119000000.0 -258230000000.0 -337761000000.0 -623026000000.0 -840825000000.0 -395356000000.0 -621739000000.0 -1.3032e+12 -514753000000.0 -707247000000.0 -1.08851e+12 -410603000000.0 -847018000000.0 -742926000000.0 -1.46341e+12 -853399000000.0 -1.56072e+12 -1.07248e+12 -853601000000.0 -1.48039e+12 -978406000000.0 -1.67431e+12 -1.39463e+12 -1.4833e+12 -1.21099e+12 -1.02435e+12 -2.47369e+12 -1.6285e+12 -2.08929e+12 -1.60092e+12 -2.67068e+12 -1.77957e+12 -1.17256e+12 -1.5624e+12 -1.73384e+12 -1.30914e+12 -1.55119e+12 -1.18029e+12 -2.86596e+12 -1.94559e+12 -918362000000.0 -593042000000.0 -909162000000.0 -652996000000.0 -1.32939e+12 -1.71289e+12 -2.09105e+12 -188344000000.0 -1.23414e+12 -1.09814e+12 -1.88783e+12 -1.29634e+12 -1.13433e+12 -74315300000.0 -1.57822e+12 -1.8062e+12 -483553000000.0 -1.02693e+12 -1.36866e+12 -612338000000.0 -666179000000.0 -1.40707e+12 -973763000000.0 -679171000000.0 -971726000000.0 -556313000000.0 -1.32946e+12 -744094000000.0 -349377000000.0 -184895000000.0 -446186000000.0 -327800000000.0 -925429000000.0 -504183000000.0 -232722000000.0 -184045000000.0 -564045000000.0 -359315000000.0 -190798000000.0 -168803000000.0 -258565000000.0 -130560000000.0 -32896600000.0 -27100900000.0 -12598400000.0 -191708000000.0 -287472000000.0 -174391000000.0 -88299900000.0 -189328000000.0 -195327000000.0 -83618000000.0 -131534000000.0 -155430000000.0 -64621300000.0 -105286000000.0 -14653200000.0 -278613000000.0 -239884000000.0 -47191400000.0 -384563000000.0 -148264000000.0 -346178000000.0 -298061000000.0 -587710000000.0 -62278800000.0 -183481000000.0 -12549700000.0 -294870000000.0 -256749000000.0 -572555000000.0 -416029000000.0 -761715000000.0 -453306000000.0 -1.20424e+12 -715167000000.0 -1.4319e+12 -1.15218e+12 -1.87116e+12 -757955000000.0 -2.23207e+12 -953554000000.0 -447663000000.0 -1.13115e+12 -1.31912e+12 -1.43747e+12 -1.04366e+12 -1.20427e+12 -1.17264e+12 -590865000000.0 -524207000000.0 -951363000000.0 -499587000000.0 -1.22002e+12 -1.17363e+12 -1.00617e+12 -907538000000.0 -1.63662e+12 -1.23343e+12 -1.57009e+12 -1.77757e+12 -1.902e+12 -753440000000.0 -434031000000.0 -1.42199e+12 -993240000000.0 -461147000000.0 -952076000000.0 -1.55056e+12 -765828000000.0 -623983000000.0 -774858000000.0 -884141000000.0 -959722000000.0 -501375000000.0 -460363000000.0 -1.18091e+12 -1.10898e+12 -882063000000.0 -719883000000.0 -544876000000.0 -866651000000.0 -870339000000.0 -1.07879e+12 -1.21308e+12 -275348000000.0 -452607000000.0 -887085000000.0 -917821000000.0 -878243000000.0 -903246000000.0 -667633000000.0 -263265000000.0 -545948000000.0 -178258000000.0 -598786000000.0 -827304000000.0 -792931000000.0 -495474000000.0 -72037500000.0 -252700000000.0 -321341000000.0 -280570000000.0 -156982000000.0 -128902000000.0 -124769000000.0 -184030000000.0 -141384000000.0 -218908000000.0 -123943000000.0 -210704000000.0 -243364000000.0 -141536000000.0 -269735000000.0 -165764000000.0 -87636900000.0 -25003300000.0 -82558400000.0 -156119000000.0 -66693700000.0 -126189000000.0 -55370000000.0 -443776000000.0 -175887000000.0 -172974000000.0 -326860000000.0 -27855800000.0 -392088000000.0 -480197000000.0 -186738000000.0 -565102000000.0 -744963000000.0 -253859000000.0 -537645000000.0 -583640000000.0 -705417000000.0 -411514000000.0 -772040000000.0 -511015000000.0 -677726000000.0 -815748000000.0 -1.12485e+12 -602015000000.0 -183183000000.0 -1.10088e+12 -1.42751e+12 -589164000000.0 -708900000000.0 -1.04222e+12 -1.138e+12 -237593000000.0 -252732000000.0 -738069000000.0 -945647000000.0 -1.91897e+12 -775166000000.0 -844399000000.0 -690615000000.0 -1.45794e+12 -970905000000.0 -804813000000.0 -1.53106e+12 -1.48732e+12 -1.68103e+12 -762084000000.0 -881258000000.0 -746094000000.0 -169051000000.0 -320875000000.0 -1.21901e+12 -450813000000.0 -273362000000.0 -616367000000.0 -1.17197e+12 -899554000000.0 -456347000000.0 -436790000000.0 -387676000000.0 -569222000000.0 -585625000000.0 -283473000000.0 -922753000000.0 -207848000000.0 -655581000000.0 -381675000000.0 -186495000000.0 -730650000000.0 -43913800000.0 -781968000000.0 -892195000000.0 -515295000000.0 -231913000000.0 -609653000000.0 -372618000000.0 -429815000000.0 -137896000000.0 -295223000000.0 -307495000000.0 -347279000000.0 -179822000000.0 -121896000000.0 -201110000000.0 -255796000000.0 -243648000000.0 -195342000000.0 -102468000000.0 -247500000000.0 -133698000000.0 -16996200000.0 -206455000000.0 -13905800000.0 -60448300000.0 -214319000000.0 -170160000000.0 -105476000000.0 -87667800000.0 -145080000000.0 -34588500000.0 -110854000000.0 -123651000000.0 -138633000000.0 -142861000000.0 -135159000000.0 -104308000000.0 -330154000000.0 -12719900000.0 -48423600000.0 -189049000000.0 -79875000000.0 -65831900000.0 -44903200000.0 -294085000000.0 -112164000000.0 -237837000000.0 -198933000000.0 -259287000000.0 -116154000000.0 -333067000000.0 -556758000000.0 -388742000000.0 -245615000000.0 -255213000000.0 -62434800000.0 -352601000000.0 -593805000000.0 -101684000000.0 -201318000000.0 -1.13168e+12 -420499000000.0 -613445000000.0 -784792000000.0 -1.10633e+12 -332083000000.0 -1.00839e+12 -663806000000.0 -1.0293e+12 -892869000000.0 -1.24658e+12 -661182000000.0 -662602000000.0 -247437000000.0 -726075000000.0 -1.27523e+12 -194061000000.0 -1.01279e+12 -476777000000.0 -1.53552e+12 -666249000000.0 -1.0304e+12 -532028000000.0 -921779000000.0 -1.4655e+12 -545403000000.0 -739409000000.0 -1.39708e+12 -20519800000.0 -502923000000.0 -1.64861e+12 -348506000000.0 -996626000000.0 -536752000000.0 -556570000000.0 -461894000000.0 -513227000000.0 -674898000000.0 -918184000000.0 -159574000000.0 -88698000000.0 -106110000000.0 -183531000000.0 -737140000000.0 -116662000000.0 -601921000000.0 -748637000000.0 -348023000000.0 -530412000000.0 -891956000000.0 -449750000000.0 -405172000000.0 -293324000000.0 -474267000000.0 -494746000000.0 -418210000000.0 -23740300000.0 -227872000000.0 -118634000000.0 -154541000000.0 -45887400000.0 -185386000000.0 -127094000000.0 -212359000000.0 -17806100000.0 -21752100000.0 -31664600000.0 -113011000000.0 -106541000000.0 -111060000000.0 -119045000000.0 -51868300000.0 -48298500000.0 -83287600000.0 -115298000000.0 -97106600000.0 -45505700000.0 -41535700000.0 -17665300000.0 -52923100000.0 -51474200000.0 -112306000000.0 -308552000000.0 -55303000000.0 -13434200000.0 -36231400000.0 -62583900000.0 -55048900000.0 -239812000000.0 -114267000000.0 -174781000000.0 -219567000000.0 -188104000000.0 -684380000000.0 -262816000000.0 -245760000000.0 -171282000000.0 -207713000000.0 -44596700000.0 -466596000000.0 -84263800000.0 -111804000000.0 -605817000000.0 -179657000000.0 -480775000000.0 -614077000000.0 -33192000000.0 -398648000000.0 -511628000000.0 -434976000000.0 -594913000000.0 -964989000000.0 -802016000000.0 -606122000000.0 -624233000000.0 -396054000000.0 -1.00891e+12 -725207000000.0 -649016000000.0 -800257000000.0 -1.13859e+12 -820263000000.0 -341468000000.0 -312377000000.0 -827539000000.0 -593742000000.0 -568491000000.0 -800781000000.0 -1.05496e+12 -333469000000.0 -1.43287e+12 -657750000000.0 -741913000000.0 -810550000000.0 -474071000000.0 -12516100000.0 -964119000000.0 -662300000000.0 -1.14865e+12 -481950000000.0 -402282000000.0 -699822000000.0 -984198000000.0 -1.0696e+12 -310294000000.0 -238829000000.0 -98995600000.0 -218057000000.0 -179432000000.0 -784450000000.0 -251770000000.0 -362386000000.0 -606028000000.0 -258407000000.0 -492522000000.0 -408886000000.0 -238725000000.0 -218363000000.0 -361680000000.0 -136764000000.0 -87678000000.0 -470721000000.0 -361901000000.0 -306645000000.0 -242795000000.0 -295518000000.0 -175852000000.0 -207282000000.0 -61652700000.0 -112661000000.0 -108955000000.0 -97175600000.0 -82315000000.0 -28353700000.0 -24666500000.0 -95635800000.0 -67582700000.0 -90070800000.0 -88335000000.0 -55074900000.0 -27542300000.0 -86563100000.0 -50389600000.0 -44095500000.0 -33014000000.0 -59223800000.0 -83526500000.0 -57059900000.0 -115396000000.0 -278781000000.0 -195018000000.0 -134609000000.0 -99207600000.0 -200507000000.0 -262684000000.0 -46486500000.0 -53679000000.0 -137884000000.0 -178341000000.0 -139234000000.0 -63893600000.0 -62909200000.0 -89316200000.0 -20731100000.0 -305382000000.0 -119864000000.0 -280030000000.0 -412180000000.0 -503355000000.0 -287951000000.0 -606805000000.0 -216891000000.0 -154619000000.0 -311394000000.0 -270822000000.0 -335365000000.0 -413298000000.0 -351330000000.0 -476363000000.0 -496342000000.0 -382976000000.0 -856219000000.0 -858587000000.0 -899789000000.0 -458399000000.0 -718143000000.0 -890322000000.0 -1.0271e+12 -386858000000.0 -1.0106e+12 -443759000000.0 -367059000000.0 -1.02309e+12 -549128000000.0 -622855000000.0 -1.2689e+12 -745428000000.0 -255553000000.0 -1.49258e+12 -700887000000.0 -368041000000.0 -867610000000.0 -824350000000.0 -322508000000.0 -796170000000.0 -708428000000.0 -359852000000.0 -771980000000.0 -159563000000.0 -436328000000.0 -747702000000.0 -182593000000.0 -646734000000.0 -520626000000.0 -537686000000.0 -229521000000.0 -405374000000.0 -272349000000.0 -223825000000.0 -337144000000.0 -378127000000.0 -379138000000.0 -353674000000.0 -461654000000.0 -44927700000.0 -30021500000.0 -347865000000.0 -146420000000.0 -293157000000.0 -170356000000.0 -234247000000.0 -198348000000.0 -319941000000.0 -50252700000.0 -52114000000.0 -83236600000.0 -109005000000.0 -50805500000.0 -75347000000.0 -14450600000.0 -33539700000.0 -78084300000.0 -67282900000.0 -47184500000.0 -46105400000.0 -36242600000.0 -40649200000.0 -85473100000.0 -65734100000.0 -66521300000.0 -70362500000.0 -114145000000.0 -112747000000.0 -135529000000.0 -62812000000.0 -115711000000.0 -60841600000.0 -78132700000.0 -118472000000.0 -198815000000.0 -130655000000.0 -192750000000.0 -202284000000.0 -58857100000.0 -218058000000.0 -552250000000.0 -162914000000.0 -292834000000.0 -175192000000.0 -148650000000.0 -345878000000.0 -91440500000.0 -524564000000.0 -192786000000.0 -406865000000.0 -173075000000.0 -645530000000.0 -246846000000.0 -480883000000.0 -302737000000.0 -210052000000.0 -485484000000.0 -189385000000.0 -743451000000.0 -237543000000.0 -240136000000.0 -322974000000.0 -278598000000.0 -118566000000.0 -524385000000.0 -230490000000.0 -833558000000.0 -496241000000.0 -184873000000.0 -82878500000.0 -250812000000.0 -289302000000.0 -537334000000.0 -593738000000.0 -458844000000.0 -1.29402e+12 -899100000000.0 -259319000000.0 -930729000000.0 -563472000000.0 -764732000000.0 -252780000000.0 -198613000000.0 -278499000000.0 -590967000000.0 -313094000000.0 -224130000000.0 -460624000000.0 -82906900000.0 -428949000000.0 -225583000000.0 -198548000000.0 -275925000000.0 -339561000000.0 -450441000000.0 -88344100000.0 -569275000000.0 -578545000000.0 -289311000000.0 -247438000000.0 -114218000000.0 -82977600000.0 -111756000000.0 -78481200000.0 -53952100000.0 -224136000000.0 -123039000000.0 -66536900000.0 -111975000000.0 -94204800000.0 -17657700000.0 -16203800000.0 -19243000000.0 -68954700000.0 -38108400000.0 -24496300000.0 -13535800000.0 -14742800000.0 -64690000000.0 -36799100000.0 -36054600000.0 -50659500000.0 -50854900000.0 -83000000000.0 -58274900000.0 -62000900000.0 -53321000000.0 -12837400000.0 -66762200000.0 -37161300000.0 -36521900000.0 -165691000000.0 -108687000000.0 -193521000000.0 -19338400000.0 -242055000000.0 -199105000000.0 -207394000000.0 -268661000000.0 -18474500000.0 -241925000000.0 -244427000000.0 -131809000000.0 -262068000000.0 -225543000000.0 -235879000000.0 -364658000000.0 -180028000000.0 -358852000000.0 -58191300000.0 -411833000000.0 -485814000000.0 -652232000000.0 -424954000000.0 -506528000000.0 -595611000000.0 -113083000000.0 -37461200000.0 -205299000000.0 -466997000000.0 -281836000000.0 -290723000000.0 -509747000000.0 -636154000000.0 -442518000000.0 -355700000000.0 -417272000000.0 -707176000000.0 -366326000000.0 -587405000000.0 -1.01395e+12 -487728000000.0 -523616000000.0 -369625000000.0 -443096000000.0 -545865000000.0 -173635000000.0 -194202000000.0 -427312000000.0 -184432000000.0 -661515000000.0 -29150200000.0 -253830000000.0 -146607000000.0 -143084000000.0 -211741000000.0 -227846000000.0 -223412000000.0 -13280700000.0 -206845000000.0 -91291700000.0 -254104000000.0 -224556000000.0 -87566400000.0 -190373000000.0 -148217000000.0 -224625000000.0 -152054000000.0 -181588000000.0 -240445000000.0 -147338000000.0 -168005000000.0 -173362000000.0 -106667000000.0 -82724100000.0 -90185100000.0 -25543600000.0 -140098000000.0 -34135500000.0 -98008300000.0 -99363200000.0 -56700200000.0 -71449400000.0 -59795100000.0 -74163400000.0 -30426900000.0 -29272300000.0 -35690700000.0 -31479600000.0 -41801700000.0 -43999800000.0 -40112000000.0 -13949200000.0 -37233200000.0 -35439700000.0 -17164200000.0 -17466700000.0 -102105000000.0 -55250400000.0 -82804400000.0 -74476600000.0 -57890600000.0 -107801000000.0 -80967300000.0 -91192700000.0 -70819200000.0 -138792000000.0 -246537000000.0 -49138200000.0 -106505000000.0 -136083000000.0 -132519000000.0 -301663000000.0 -151905000000.0 -226471000000.0 -326380000000.0 -185584000000.0 -445382000000.0 -13230000000.0 -366040000000.0 -108275000000.0 -189913000000.0 -369168000000.0 -142976000000.0 -272672000000.0 -67541100000.0 -43575800000.0 -531535000000.0 -449013000000.0 -78022800000.0 -157279000000.0 -507921000000.0 -17172000000.0 -377229000000.0 -241087000000.0 -149774000000.0 -168690000000.0 -229794000000.0 -313207000000.0 -426244000000.0 -61366400000.0 -258185000000.0 -513256000000.0 -463337000000.0 -588420000000.0 -212010000000.0 -422568000000.0 -415568000000.0 -553994000000.0 -402191000000.0 -245722000000.0 -278627000000.0 -192178000000.0 -99353700000.0 -190182000000.0 -143416000000.0 -397968000000.0 -150643000000.0 -238784000000.0 -388042000000.0 -147973000000.0 -105800000000.0 -151153000000.0 -277510000000.0 -200212000000.0 -69116900000.0 -133797000000.0 -82247600000.0 -164053000000.0 -252426000000.0 -203040000000.0 -106703000000.0 -126249000000.0 -155819000000.0 -56055700000.0 -163141000000.0 -33226000000.0 -147793000000.0 -97393000000.0 -164388000000.0 -94849200000.0 -16761300000.0 -72461600000.0 -110002000000.0 -54432900000.0 -68969000000.0 -28301100000.0 -99457000000.0 -52018800000.0 -66455900000.0 -67860900000.0 -16853600000.0 -15559800000.0 -17239800000.0 -66616100000.0 -38440000000.0 -43648800000.0 -40905900000.0 -45934700000.0 -66432800000.0 -46074200000.0 -46910600000.0 -51831300000.0 -56391200000.0 -55246500000.0 -72869700000.0 -57497700000.0 -87009500000.0 -18898500000.0 -19419700000.0 -32097600000.0 -72800000000.0 -47018400000.0 -85632400000.0 -115083000000.0 -19358400000.0 -18665200000.0 -18076700000.0 -142703000000.0 -44137900000.0 -178971000000.0 -98916900000.0 -257490000000.0 -21201500000.0 -321223000000.0 -168881000000.0 -146350000000.0 -160354000000.0 -402345000000.0 -198836000000.0 -319476000000.0 -150278000000.0 -81157500000.0 -291294000000.0 -387727000000.0 -175874000000.0 -136874000000.0 -160189000000.0 -139439000000.0 -155252000000.0 -234051000000.0 -555207000000.0 -181991000000.0 -70825100000.0 -284577000000.0 -182188000000.0 -19259800000.0 -354640000000.0 -522315000000.0 -446157000000.0 -700067000000.0 -417864000000.0 -289172000000.0 -180995000000.0 -192897000000.0 -202817000000.0 -14875400000.0 -48296700000.0 -192826000000.0 -263642000000.0 -16220200000.0 -173203000000.0 -83269300000.0 -86842800000.0 -151070000000.0 -140236000000.0 -143704000000.0 -74534100000.0 -181753000000.0 -130107000000.0 -161932000000.0 -128308000000.0 -70733100000.0 -102063000000.0 -185622000000.0 -125105000000.0 -158557000000.0 -91600200000.0 -206487000000.0 -24285900000.0 -26951700000.0 -27635100000.0 -44981400000.0 -12731500000.0 -68731100000.0 -30734000000.0 -41474300000.0 -88133600000.0 -31607600000.0 -60179900000.0 -28847700000.0 -45682100000.0 -36797900000.0 -50671300000.0 -14372100000.0 -42007400000.0 -40332600000.0 -57013200000.0 -15031800000.0 -14493200000.0 -14054000000.0 -16465400000.0 -16105400000.0 -41615000000.0 -23688000000.0 -36603500000.0 -30662700000.0 -16436800000.0 -12549700000.0 -56066700000.0 -12549700000.0 -70995800000.0 -18234100000.0 -18295300000.0 -78602500000.0 -16234700000.0 -31839400000.0 -89948900000.0 -16396700000.0 -125820000000.0 -80407400000.0 -62268300000.0 -96901500000.0 -127162000000.0 -58527100000.0 -61701800000.0 -45619500000.0 -244145000000.0 -236034000000.0 -124277000000.0 -100084000000.0 -59907800000.0 -29040100000.0 -17096300000.0 -22333500000.0 -258446000000.0 -203540000000.0 -100074000000.0 -46273100000.0 -101909000000.0 -231514000000.0 -177704000000.0 -147647000000.0 -156905000000.0 -87472500000.0 -109627000000.0 -277037000000.0 -111987000000.0 -269873000000.0 -151236000000.0 -356754000000.0 -189554000000.0 -252520000000.0 -85441500000.0 -155806000000.0 -167281000000.0 -274712000000.0 -467545000000.0 -133655000000.0 -216905000000.0 -211856000000.0 -174605000000.0 -129067000000.0 -179269000000.0 -144608000000.0 -153168000000.0 -52826700000.0 -111830000000.0 -111751000000.0 -68568000000.0 -61040100000.0 -270160000000.0 -135507000000.0 -180434000000.0 -94712900000.0 -48806000000.0 -59891600000.0 -125422000000.0 -131483000000.0 -81931500000.0 -86727500000.0 -61777600000.0 -92239700000.0 -16978400000.0 -122259000000.0 -113178000000.0 -54927800000.0 -94469300000.0 -93719500000.0 -154063000000.0 -78873800000.0 -37846700000.0 -18009800000.0 -58667100000.0 -40267400000.0 -30626800000.0 -24968000000.0 -27245100000.0 -35722400000.0 -59279300000.0 -13329300000.0 -31971000000.0 -20308100000.0 -19275400000.0 -17346900000.0 -31221700000.0 -16674600000.0 -18128200000.0 -22202100000.0 -34605100000.0 -12549700000.0 -12549700000.0 -23434300000.0 -17925800000.0 -23899700000.0 -24000800000.0 -26116100000.0 -53062300000.0 -36792500000.0 -66763700000.0 -46531000000.0 -23814200000.0 -64849400000.0 -83235900000.0 -131971000000.0 -95669800000.0 -50917300000.0 -97096200000.0 -46344200000.0 -56457500000.0 -93264800000.0 -18474000000.0 -28412000000.0 -111249000000.0 -97352200000.0 -30682700000.0 -41988000000.0 -40085500000.0 -142777000000.0 -244865000000.0 -127614000000.0 -29989200000.0 -150944000000.0 -128347000000.0 -159471000000.0 -35907500000.0 -69226800000.0 -146270000000.0 -29800100000.0 -154148000000.0 -257528000000.0 -136817000000.0 -234957000000.0 -159010000000.0 -89114600000.0 -80464200000.0 -172316000000.0 -232748000000.0 -344021000000.0 -127979000000.0 -146371000000.0 -163883000000.0 -91918300000.0 -20870500000.0 -130451000000.0 -103085000000.0 -21033500000.0 -128362000000.0 -66956500000.0 -45058000000.0 -225566000000.0 -24604300000.0 -56710600000.0 -74447000000.0 -56988700000.0 -131862000000.0 -101205000000.0 -76878700000.0 -52825600000.0 -77059000000.0 -54012700000.0 -112141000000.0 -84625500000.0 -25490600000.0 -81147600000.0 -58487400000.0 -19390600000.0 -62279300000.0 -13496900000.0 -45946500000.0 -41611500000.0 -50683300000.0 -25169600000.0 -16234100000.0 -15790700000.0 -22713500000.0 -28500800000.0 -31163800000.0 -21850600000.0 -34193500000.0 -21060600000.0 -20505700000.0 -14528700000.0 -12848300000.0 -12693800000.0 -15371700000.0 -23889800000.0 -12988700000.0 -13597200000.0 -18897000000.0 -12549700000.0 -16492000000.0 -15474900000.0 -14885700000.0 -38449400000.0 -19842600000.0 -31020700000.0 -69518800000.0 -50968100000.0 -52082800000.0 -20904600000.0 -38119500000.0 -42573800000.0 -65084200000.0 -16372500000.0 -56496900000.0 -19824800000.0 -89684600000.0 -42406100000.0 -76273500000.0 -90871600000.0 -181329000000.0 -73418900000.0 -154398000000.0 -16461400000.0 -28958800000.0 -14854900000.0 -76997200000.0 -114651000000.0 -97780400000.0 -76501400000.0 -34463700000.0 -37382600000.0 -107785000000.0 -25714000000.0 -31721200000.0 -50434800000.0 -62345800000.0 -223671000000.0 -106808000000.0 -111134000000.0 -93965500000.0 -160981000000.0 -21375100000.0 -18134800000.0 -98016100000.0 -46877200000.0 -216044000000.0 -51691700000.0 -74211500000.0 -85383300000.0 -25619000000.0 -144255000000.0 -105752000000.0 -113997000000.0 -153084000000.0 -138763000000.0 -190236000000.0 -33243900000.0 -86632400000.0 -46684000000.0 -74706700000.0 -44568100000.0 -26140100000.0 -12549700000.0 -44934600000.0 -80120500000.0 -57331400000.0 -25365300000.0 -24184300000.0 -40637300000.0 -17821800000.0 -34312500000.0 -31117100000.0 -38209200000.0 -39385700000.0 -40077900000.0 -26011800000.0 -63163700000.0 -22966700000.0 -20870200000.0 -13853300000.0 -32760600000.0 -37093900000.0 -22462300000.0 -21901100000.0 -23670000000.0 -14614100000.0 -22586500000.0 -17045400000.0 -23645000000.0 -15418100000.0 -12802500000.0 -21812300000.0 -16772600000.0 -13789300000.0 -12549700000.0 -12549700000.0 -13278900000.0 -19713300000.0 -14251900000.0 -12549700000.0 -17657900000.0 -13498400000.0 -16099000000.0 -14327100000.0 -13932700000.0 -22997600000.0 -26867500000.0 -15874800000.0 -23048800000.0 -27594100000.0 -32306600000.0 -26294700000.0 -26448100000.0 -34807800000.0 -42064600000.0 -62237900000.0 -45098300000.0 -52102300000.0 -60475000000.0 -22314500000.0 -72588500000.0 -34030600000.0 -48627100000.0 -133194000000.0 -50518200000.0 -56417700000.0 -32702000000.0 -42855200000.0 -82140400000.0 -13224900000.0 -43445800000.0 -39973400000.0 -14858800000.0 -32413300000.0 -55705300000.0 -31395500000.0 -39615500000.0 -53143500000.0 -82457800000.0 -148710000000.0 -173080000000.0 -203045000000.0 -109887000000.0 -113169000000.0 -83924800000.0 -15652000000.0 -25005600000.0 -194394000000.0 -92880700000.0 -48282100000.0 -12549900000.0 -71480300000.0 -81882200000.0 -73551700000.0 -42880900000.0 -12549700000.0 -57787300000.0 -53087700000.0 -40915200000.0 -18922100000.0 -42380400000.0 -30933900000.0 -37483800000.0 -28048700000.0 -18523300000.0 -18325800000.0 -21031000000.0 -40395800000.0 -22109300000.0 -17787800000.0 -19919700000.0 -23931000000.0 -18959600000.0 -17771200000.0 -29112500000.0 -51772000000.0 -34882900000.0 -33287600000.0 -19516200000.0 -15817200000.0 -13853600000.0 -24777700000.0 -20921000000.0 -12549700000.0 -14781600000.0 -16202800000.0 -13750000000.0 -17303400000.0 -12549700000.0 -18977700000.0 -13304000000.0 -12681500000.0 -15215400000.0 -12558200000.0 -12549700000.0 -12555900000.0 -12657000000.0 -16825800000.0 -12549700000.0 -13140400000.0 -17424000000.0 -14278800000.0 -13325700000.0 -13861400000.0 -17391900000.0 -14479800000.0 -17631500000.0 -14337900000.0 -14591400000.0 -20032900000.0 -16220000000.0 -17879300000.0 -20930700000.0 -19552000000.0 -23264300000.0 -30633100000.0 -34440600000.0 -26283900000.0 -13906000000.0 -39205900000.0 -20700300000.0 -25146100000.0 -33995100000.0 -56569700000.0 -57764100000.0 -63226400000.0 -75130000000.0 -38640400000.0 -25986500000.0 -43563700000.0 -37947500000.0 -35110500000.0 -17097500000.0 -37142600000.0 -13486200000.0 -45948900000.0 -47893000000.0 -12549700000.0 -66965900000.0 -42442800000.0 -65067600000.0 -34253600000.0 -81075000000.0 -56278400000.0 -108568000000.0 -88355700000.0 -100467000000.0 -62410700000.0 -122654000000.0 -60093800000.0 -27955000000.0 -19711500000.0 -38498300000.0 -34591200000.0 -19188700000.0 -23259800000.0 -32508700000.0 -28439400000.0 -30649600000.0 -16443300000.0 -21579800000.0 -21352300000.0 -18551400000.0 -17493200000.0 -19755800000.0 -14076100000.0 -14960600000.0 -14124000000.0 -13882200000.0 -13966600000.0 -14581300000.0 -13513600000.0 -13160500000.0 -13045300000.0 -25478000000.0 -12725600000.0 -22964800000.0 -15856700000.0 -13307200000.0 -13969900000.0 -15452000000.0 -12800200000.0 -14788300000.0 -13312200000.0 -13323000000.0 -12549700000.0 -13706100000.0 -12774200000.0 -13637000000.0 -14731200000.0 -14016100000.0 -13148600000.0 -12902300000.0 -12976900000.0 -13010700000.0 -13160800000.0 -15063900000.0 -13696600000.0 -14500600000.0 -13337300000.0 -12849000000.0 -13144200000.0 -12867500000.0 -14270800000.0 -13295300000.0 -14851500000.0 -14772400000.0 -16502700000.0 -13332400000.0 -15866500000.0 -16801500000.0 -17872400000.0 -19117800000.0 -14694900000.0 -16113300000.0 -19612800000.0 -20771700000.0 -17499400000.0 -23878300000.0 -33356900000.0 -19731300000.0 -15455800000.0 -38390200000.0 -13314400000.0 -12691800000.0 -21725400000.0 -18287900000.0 -13755400000.0 -19682800000.0 -14495000000.0 -34113100000.0 -39417600000.0 -32453000000.0 -16910400000.0 -27466000000.0 -30553800000.0 -13684800000.0 -38874800000.0 -17302300000.0 -27027300000.0 -38864200000.0 -28611200000.0 -34960900000.0 -36989800000.0 -29031400000.0 -18779200000.0 -12549700000.0 -17614500000.0 -19164000000.0 -21486300000.0 -13279700000.0 -17114500000.0 -18283000000.0 -12549600000.0 -14612600000.0 -28271000000.0 