# vtk DataFile Version 2.0
Time step 61
ASCII
DATASET UNSTRUCTURED_GRID
POINTS 5000 float
202706.0 250401.0 0
207589.0 248481.0 0
214194.0 250012.0 0
232795.0 249962.0 0
277741.0 250134.0 0
297484.0 248835.0 0
202416.0 255427.0 0
206621.0 252833.0 0
209485.0 251644.0 0
211353.0 254733.0 0
217458.0 254770.0 0
222136.0 252134.0 0
229071.0 251697.0 0
226357.0 255225.0 0
233093.0 253320.0 0
237723.0 252527.0 0
243281.0 254130.0 0
249913.0 255056.0 0
256106.0 253674.0 0
261221.0 255452.0 0
266172.0 254368.0 0
271066.0 251587.0 0
274924.0 255596.0 0
280380.0 255615.0 0
285599.0 253175.0 0
291107.0 250911.0 0
297166.0 254117.0 0
203017.0 260661.0 0
207086.0 257181.0 0
214124.0 258891.0 0
222236.0 257606.0 0
227275.0 259649.0 0
230353.0 256257.0 0
235038.0 257420.0 0
240048.0 258772.0 0
245157.0 259344.0 0
249670.0 260502.0 0
253693.0 259765.0 0
257761.0 258105.0 0
263988.0 258692.0 0
268288.0 259401.0 0
270458.0 256073.0 0
273023.0 260489.0 0
277675.0 259699.0 0
284057.0 258110.0 0
281281.0 259676.0 0
287654.0 257680.0 0
292070.0 256428.0 0
296672.0 260119.0 0
201899.0 265098.0 0
206120.0 265322.0 0
209656.0 261654.0 0
218440.0 261133.0 0
214396.0 264157.0 0
218947.0 265694.0 0
223278.0 263201.0 0
228535.0 264763.0 0
231936.0 261220.0 0
233246.0 265466.0 0
236467.0 262302.0 0
241574.0 264063.0 0
247118.0 263906.0 0
251920.0 264037.0 0
256657.0 263755.0 0
260649.0 261251.0 0
260855.0 265563.0 0
265203.0 263479.0 0
269807.0 263259.0 0
276256.0 263580.0 0
280455.0 263412.0 0
285083.0 262175.0 0
289046.0 261022.0 0
288862.0 265415.0 0
292368.0 262760.0 0
202761.0 269310.0 0
210700.0 268598.0 0
216866.0 270728.0 0
222942.0 268931.0 0
227140.0 268625.0 0
230848.0 269225.0 0
237186.0 266799.0 0
234887.0 269887.0 0
240654.0 270163.0 0
249687.0 268250.0 0
245017.0 268247.0 0
254399.0 268184.0 0
258894.0 269517.0 0
264471.0 269598.0 0
268574.0 266771.0 0
272924.0 266296.0 0
270552.0 269125.0 0
273373.0 270959.0 0
278014.0 268364.0 0
283748.0 267351.0 0
287788.0 269587.0 0
291338.0 268954.0 0
296212.0 267069.0 0
202048.0 273657.0 0
206731.0 272966.0 0
211994.0 274306.0 0
221743.0 274203.0 0
227032.0 272910.0 0
232672.0 273947.0 0
237161.0 272915.0 0
243751.0 274729.0 0
240687.0 274664.0 0
247051.0 272714.0 0
251803.0 272349.0 0
254363.0 275994.0 0
255775.0 272174.0 0
259635.0 274800.0 0
269278.0 271778.0 0
265880.0 275931.0 0
271822.0 275068.0 0
277514.0 274626.0 0
281977.0 271820.0 0
282704.0 275927.0 0
290200.0 272299.0 0
286010.0 273253.0 0
290552.0 276139.0 0
293635.0 271917.0 0
294425.0 275374.0 0
297550.0 272851.0 0
202031.0 277240.0 0
202299.0 281101.0 0
206842.0 278595.0 0
212548.0 279649.0 0
216862.0 276500.0 0
220883.0 278593.0 0
229483.0 277017.0 0
225396.0 278408.0 0
232477.0 278509.0 0
229698.0 280875.0 0
237051.0 277970.0 0
242578.0 278699.0 0
246309.0 276793.0 0
248051.0 279892.0 0
250118.0 276563.0 0
252509.0 280681.0 0
256952.0 279200.0 0
261528.0 280260.0 0
270194.0 279210.0 0
274443.0 278943.0 0
280390.0 278398.0 0
277896.0 279503.0 0
283609.0 280330.0 0
286390.0 277113.0 0
288994.0 280135.0 0
294046.0 279876.0 0
297853.0 277170.0 0
298375.0 280734.0 0
201937.0 284960.0 0
205542.0 283873.0 0
209385.0 282936.0 0
213014.0 285109.0 0
217718.0 282596.0 0
222600.0 281975.0 0
221968.0 286327.0 0
226330.0 283773.0 0
233872.0 282490.0 0
230459.0 285747.0 0
239470.0 283640.0 0
244912.0 283171.0 0
249142.0 283332.0 0
252354.0 286148.0 0
257169.0 284130.0 0
262888.0 285407.0 0
266013.0 281548.0 0
269312.0 282393.0 0
268133.0 286121.0 0
273021.0 283189.0 0
276545.0 281965.0 0
279677.0 282120.0 0
277344.0 286062.0 0
282433.0 285492.0 0
286581.0 283509.0 0
291130.0 284174.0 0
295353.0 284222.0 0
298499.0 283636.0 0
201649.0 287937.0 0
202340.0 291251.0 0
208647.0 287524.0 0
204610.0 288026.0 0
212716.0 289202.0 0
217044.0 288822.0 0
221695.0 291303.0 0
226129.0 288746.0 0
231191.0 291101.0 0
235088.0 287221.0 0
239150.0 288723.0 0
243267.0 287763.0 0
247562.0 287354.0 0
245762.0 290758.0 0
259545.0 287906.0 0
255885.0 289900.0 0
265017.0 289601.0 0
269798.0 290856.0 0
272848.0 287388.0 0
274772.0 290699.0 0
279091.0 290448.0 0
283033.0 289874.0 0
287476.0 287945.0 0
293426.0 288162.0 0
297869.0 287026.0 0
297839.0 290846.0 0
202724.0 295497.0 0
205800.0 292033.0 0
207166.0 295972.0 0
209820.0 292231.0 0
213848.0 292226.0 0
211915.0 296139.0 0
217092.0 294395.0 0
221792.0 296454.0 0
226020.0 293665.0 0
229827.0 296052.0 0
233631.0 295647.0 0
236480.0 292098.0 0
241730.0 292716.0 0
246164.0 294494.0 0
250593.0 291715.0 0
256077.0 296195.0 0
260923.0 291766.0 0
261719.0 296488.0 0
266013.0 294243.0 0
272172.0 294632.0 0
276894.0 294683.0 0
282049.0 294477.0 0
285745.0 292431.0 0
289864.0 292116.0 0
286835.0 295765.0 0
294303.0 292250.0 0
297298.0 295458.0 0
201742.0 299076.0 0
205227.0 299209.0 0
208940.0 299512.0 0
212830.0 300169.0 0
214868.0 297584.0 0
217387.0 299931.0 0
222138.0 301602.0 0
226640.0 298955.0 0
231823.0 299648.0 0
237715.0 296954.0 0
235606.0 301619.0 0
239801.0 301711.0 0
242583.0 297783.0 0
246492.0 298557.0 0
250332.0 297157.0 0
252933.0 300758.0 0
260270.0 300200.0 0
264744.0 299864.0 0
269095.0 297727.0 0
273765.0 299442.0 0
278818.0 298904.0 0
283652.0 299328.0 0
288312.0 300115.0 0
292002.0 296896.0 0
296478.0 301014.0 0
202590.0 302542.0 0
206636.0 302528.0 0
207916.0 306657.0 0
210526.0 303136.0 0
214659.0 303751.0 0
218619.0 304945.0 0
222850.0 306502.0 0
229021.0 302591.0 0
225926.0 303486.0 0
232173.0 304743.0 0
237026.0 306779.0 0
244499.0 302702.0 0
241105.0 305377.0 0
249189.0 301924.0 0
247871.0 306241.0 0
252025.0 305537.0 0
256755.0 303375.0 0
261832.0 303980.0 0
269221.0 302073.0 0
265512.0 304348.0 0
268594.0 306912.0 0
272779.0 304966.0 0
280603.0 302589.0 0
276836.0 303629.0 0
282960.0 304111.0 0
285783.0 303447.0 0
289471.0 305156.0 0
292099.0 302155.0 0
293563.0 305919.0 0
297448.0 305981.0 0
203006.0 307020.0 0
202578.0 311778.0 0
206283.0 311197.0 0
212587.0 307193.0 0
210624.0 311267.0 0
216229.0 307419.0 0
215710.0 311858.0 0
219596.0 309177.0 0
223760.0 310665.0 0
227723.0 307352.0 0
232029.0 309597.0 0
241192.0 308484.0 0
244128.0 307362.0 0
239955.0 311499.0 0
243507.0 310921.0 0
246641.0 309590.0 0
250167.0 309970.0 0
259610.0 307568.0 0
255211.0 309829.0 0
259891.0 311873.0 0
264013.0 309005.0 0
268123.0 310350.0 0
271990.0 309629.0 0
275715.0 308529.0 0
280027.0 307349.0 0
277878.0 311112.0 0
285339.0 308256.0 0
290667.0 310039.0 0
296287.0 310978.0 0
202772.0 315975.0 0
207707.0 315442.0 0
212239.0 315605.0 0
217016.0 316987.0 0
220453.0 313576.0 0
227928.0 312221.0 0
224660.0 314536.0 0
231698.0 314746.0 0
235927.0 312135.0 0
235457.0 316362.0 0
238831.0 315677.0 0
242381.0 314894.0 0
246832.0 313675.0 0
251878.0 314897.0 0
256862.0 315230.0 0
263007.0 313562.0 0
260674.0 316642.0 0
266483.0 313375.0 0
270434.0 313329.0 0
268526.0 316420.0 0
274830.0 313032.0 0
272188.0 316684.0 0
278762.0 314726.0 0
281810.0 311995.0 0
282396.0 315735.0 0
286503.0 313843.0 0
292026.0 314597.0 0
297036.0 316241.0 0
201520.0 319447.0 0
205813.0 319749.0 0
209827.0 318591.0 0
213187.0 318986.0 0
215623.0 321621.0 0
219217.0 320857.0 0
222243.0 317959.0 0
227939.0 317474.0 0
225492.0 321041.0 0
233061.0 319939.0 0
237232.0 319252.0 0
244667.0 318140.0 0
240699.0 319344.0 0
243472.0 321793.0 0
248413.0 318016.0 0
246848.0 321664.0 0
254682.0 318773.0 0
251310.0 320914.0 0
257794.0 319712.0 0
264956.0 317411.0 0
261099.0 320592.0 0
264665.0 321426.0 0
269174.0 320450.0 0
273489.0 319706.0 0
276003.0 317443.0 0
280108.0 318612.0 0
276931.0 321836.0 0
284340.0 318860.0 0
288675.0 317574.0 0
288427.0 321728.0 0
292573.0 318798.0 0
296727.0 321324.0 0
201972.0 322336.0 0
202708.0 326423.0 0
204846.0 323495.0 0
207679.0 322917.0 0
207301.0 325980.0 0
210854.0 322274.0 0
211080.0 326958.0 0
214672.0 325172.0 0
219072.0 325095.0 0
222496.0 323076.0 0
222919.0 327157.0 0
229568.0 322459.0 0
226114.0 325063.0 0
233685.0 324547.0 0
230225.0 326669.0 0
237395.0 323092.0 0
240968.0 323210.0 0
240349.0 326682.0 0
244286.0 325325.0 0
248722.0 324897.0 0
252733.0 324992.0 0
255329.0 322428.0 0
258554.0 323533.0 0
256138.0 326195.0 0
261958.0 324755.0 0
266265.0 324785.0 0
270285.0 325386.0 0
273018.0 322740.0 0
274459.0 326350.0 0
278324.0 326036.0 0
281097.0 322458.0 0
284390.0 322510.0 0
282646.0 326540.0 0
286369.0 325350.0 0
290163.0 326867.0 0
292502.0 323349.0 0
293481.0 326344.0 0
296930.0 326268.0 0
197272.0 329940.0 0
202121.0 330644.0 0
205384.0 329202.0 0
208660.0 330267.0 0
214220.0 329218.0 0
212149.0 331254.0 0
217142.0 328316.0 0
220347.0 329635.0 0
223727.0 331482.0 0
227002.0 329307.0 0
233306.0 328494.0 0
230872.0 330858.0 0
236599.0 327641.0 0
234714.0 331905.0 0
238940.0 331490.0 0
242877.0 329751.0 0
246674.0 328698.0 0
249189.0 331478.0 0
250660.0 328192.0 0
253619.0 328247.0 0
252174.0 331379.0 0
259332.0 327586.0 0
256394.0 330933.0 0
260555.0 332240.0 0
263524.0 328974.0 0
267698.0 328297.0 0
267131.0 331454.0 0
271281.0 329957.0 0
275789.0 330099.0 0
279936.0 330640.0 0
284033.0 330269.0 0
286678.0 329072.0 0
290099.0 331041.0 0
293819.0 329584.0 0
297698.0 330655.0 0
202263.0 334312.0 0
205409.0 332614.0 0
209132.0 333691.0 0
206308.0 335721.0 0
212956.0 334541.0 0
209932.0 336724.0 0
216854.0 332655.0 0
220853.0 333016.0 0
223862.0 334903.0 0
220387.0 336176.0 0
227868.0 333768.0 0
231576.0 333719.0 0
233903.0 335514.0 0
237074.0 335626.0 0
242393.0 333330.0 0
240617.0 335952.0 0
244154.0 336277.0 0
245745.0 333078.0 0
249470.0 334762.0 0
247120.0 336582.0 0
253523.0 335408.0 0
257752.0 336031.0 0
264632.0 333554.0 0
261840.0 336479.0 0
268925.0 334514.0 0
265721.0 337119.0 0
273432.0 333871.0 0
280383.0 334896.0 0
277300.0 334114.0 0
275662.0 337484.0 0
283509.0 333764.0 0
282829.0 336722.0 0
286896.0 332653.0 0
289898.0 334808.0 0
286533.0 336794.0 0
293736.0 333663.0 0
295009.0 337486.0 0
297754.0 334130.0 0
298395.0 336971.0 0
203088.0 338434.0 0
202003.0 342170.0 0
207771.0 339443.0 0
212874.0 337827.0 0
211625.0 340719.0 0
216741.0 337586.0 0
215603.0 341861.0 0
222807.0 338484.0 0
220210.0 341309.0 0
226468.0 337954.0 0
224551.0 341850.0 0
228630.0 341822.0 0
230886.0 337704.0 0
232398.0 341905.0 0
235040.0 339398.0 0
238518.0 339572.0 0
242295.0 339570.0 0
246051.0 339514.0 0
250263.0 339513.0 0
254892.0 340046.0 0
258923.0 339528.0 0
262841.0 340627.0 0
268604.0 338564.0 0
266541.0 341499.0 0
271687.0 337779.0 0
270349.0 341700.0 0
273776.0 340577.0 0
279339.0 338089.0 0
276887.0 340990.0 0
280174.0 342251.0 0
283246.0 339955.0 0
287229.0 341136.0 0
291155.0 338290.0 0
294878.0 340990.0 0
297911.0 339782.0 0
202877.0 345847.0 0
205862.0 342781.0 0
207280.0 346973.0 0
210156.0 344202.0 0
214113.0 345322.0 0
218338.0 344816.0 0
222547.0 345211.0 0
220020.0 347452.0 0
226185.0 344437.0 0
229614.0 345468.0 0
233358.0 345436.0 0
236493.0 343561.0 0
238694.0 347402.0 0
244459.0 342705.0 0
240385.0 343648.0 0
243886.0 347436.0 0
247842.0 343365.0 0
249084.0 347326.0 0
251983.0 343824.0 0
254297.0 346251.0 0
257725.0 342278.0 0
255477.0 343777.0 0
258376.0 347048.0 0
260339.0 343391.0 0
263347.0 345066.0 0
266889.0 345012.0 0
274171.0 344034.0 0
270583.0 345359.0 0
277396.0 343502.0 0
279644.0 345415.0 0
276752.0 346221.0 0
283815.0 344591.0 0
287890.0 346037.0 0
291527.0 342889.0 0
295175.0 344588.0 0
292579.0 347478.0 0
297993.0 342730.0 0
297921.0 345873.0 0
302750.0 343673.0 0
202252.0 349504.0 0
205489.0 349652.0 0
208144.0 352442.0 0
211575.0 349207.0 0
216426.0 348215.0 0
219284.0 350938.0 0
215563.0 352101.0 0
222083.0 349291.0 0
222915.0 352233.0 0
226306.0 348729.0 0
231780.0 348838.0 0
230019.0 351959.0 0
234219.0 352553.0 0
235745.0 348352.0 0
237709.0 351449.0 0
240522.0 350522.0 0
247273.0 351010.0 0
252634.0 349253.0 0
250006.0 352516.0 0
256997.0 351881.0 0
262095.0 348742.0 0
265012.0 348144.0 0
261529.0 352543.0 0
268303.0 348899.0 0
265279.0 352067.0 0
273309.0 349454.0 0
278138.0 349131.0 0
281747.0 347943.0 0
285150.0 349702.0 0
288958.0 349680.0 0
292119.0 351464.0 0
296901.0 349316.0 0
298163.0 352827.0 0
304194.0 349443.0 0
203067.0 353323.0 0
202957.0 357405.0 0
207057.0 356550.0 0
212310.0 352961.0 0
213894.0 355105.0 0
210969.0 355709.0 0
216805.0 355134.0 0
220022.0 354620.0 0
223635.0 356310.0 0
226250.0 354194.0 0
230455.0 355454.0 0
233333.0 356877.0 0
237056.0 355379.0 0
239881.0 354444.0 0
243853.0 353079.0 0
242235.0 356823.0 0
247554.0 354629.0 0
245474.0 356978.0 0
252936.0 354400.0 0
249906.0 357190.0 0
254585.0 357601.0 0
258210.0 356597.0 0
262435.0 356738.0 0
269713.0 353244.0 0
266206.0 356374.0 0
272683.0 354534.0 0
270354.0 357370.0 0
274242.0 357836.0 0
275938.0 353440.0 0
278261.0 357150.0 0
280767.0 352986.0 0
285059.0 353668.0 0
283038.0 357446.0 0
288412.0 353907.0 0
294882.0 352986.0 0
292290.0 355847.0 0
296749.0 356453.0 0
197681.0 361604.0 0
201531.0 360278.0 0
202483.0 362893.0 0
208267.0 359662.0 0
204952.0 360538.0 0
211892.0 358804.0 0
209700.0 362689.0 0
212832.0 361883.0 0
215466.0 358031.0 0
215883.0 361872.0 0
219859.0 359098.0 0
224803.0 359888.0 0
228122.0 358013.0 0
228012.0 361381.0 0
231272.0 360189.0 0
234591.0 361996.0 0
236007.0 358801.0 0
239370.0 359069.0 0
237966.0 363042.0 0
243331.0 360833.0 0
247469.0 360018.0 0
249886.0 362278.0 0
252376.0 360430.0 0
259607.0 360200.0 0
256299.0 360696.0 0
263329.0 360440.0 0
267265.0 360915.0 0
271583.0 361556.0 0
274345.0 362697.0 0
276176.0 360844.0 0
280092.0 361143.0 0
283925.0 362990.0 0
287634.0 359119.0 0
292958.0 360508.0 0
297790.0 359976.0 0
202375.0 366006.0 0
206532.0 364054.0 0
205500.0 366707.0 0
207899.0 368319.0 0
209413.0 366640.0 0
212219.0 365199.0 0
215783.0 364956.0 0
219075.0 363039.0 0
218372.0 365490.0 0
222516.0 363430.0 0
221644.0 366989.0 0
226338.0 364131.0 0
225595.0 367733.0 0
229334.0 366967.0 0
229959.0 363626.0 0
232753.0 364619.0 0
232644.0 368048.0 0
235272.0 365654.0 0
237822.0 366874.0 0
241017.0 363466.0 0
240324.0 366075.0 0
243701.0 366130.0 0
246565.0 364044.0 0
246459.0 368361.0 0
249774.0 366039.0 0
253479.0 364033.0 0
253014.0 367732.0 0
257359.0 363831.0 0
256363.0 367683.0 0
261494.0 363648.0 0
264420.0 363688.0 0
260541.0 367706.0 0
264178.0 366687.0 0
266324.0 364996.0 0
269601.0 364644.0 0
267793.0 367126.0 0
272842.0 365426.0 0
276555.0 365017.0 0
280009.0 365469.0 0
282870.0 366229.0 0
287776.0 364159.0 0
286113.0 368113.0 0
289765.0 367690.0 0
292103.0 364555.0 0
294664.0 367222.0 0
297964.0 366528.0 0
297328.0 363202.0 0
202288.0 368941.0 0
202292.0 371631.0 0
206156.0 372161.0 0
205510.0 369220.0 0
208748.0 370433.0 0
210698.0 372180.0 0
211090.0 369109.0 0
214408.0 368236.0 0
213646.0 371367.0 0
218081.0 368155.0 0
216913.0 371094.0 0
219644.0 370844.0 0
222683.0 370596.0 0
228415.0 369934.0 0
226217.0 372149.0 0
231088.0 371523.0 0
233931.0 373002.0 0
235636.0 369682.0 0
239028.0 371232.0 0
236584.0 373347.0 0
241420.0 369129.0 0
244411.0 371380.0 0
249136.0 369555.0 0
248078.0 373373.0 0
251860.0 370011.0 0
251832.0 372916.0 0
258806.0 370466.0 0
255588.0 371764.0 0
262309.0 370743.0 0
259650.0 372737.0 0
262984.0 373382.0 0
265700.0 369877.0 0
268727.0 370509.0 0
269367.0 373259.0 0
270579.0 368090.0 0
274124.0 368962.0 0
271440.0 371216.0 0
273742.0 372755.0 0
277847.0 369037.0 0
276663.0 373174.0 0
281657.0 370327.0 0
284111.0 373297.0 0
287413.0 371751.0 0
291924.0 368779.0 0
294528.0 370922.0 0
290880.0 371993.0 0
297992.0 369606.0 0
297570.0 372786.0 0
199942.0 377556.0 0
197798.0 379375.0 0
200250.0 380784.0 0
202663.0 374732.0 0
204589.0 375550.0 0
202664.0 378979.0 0
205610.0 378296.0 0
208411.0 374603.0 0
208767.0 378565.0 0
213470.0 374815.0 0
212648.0 378288.0 0
216859.0 374211.0 0
219862.0 373701.0 0
218342.0 376939.0 0
216721.0 379015.0 0
222986.0 374621.0 0
229039.0 374970.0 0
225917.0 377046.0 0
229988.0 378912.0 0
232394.0 375494.0 0
232622.0 378322.0 0
239191.0 374503.0 0
236365.0 377621.0 0
242083.0 374116.0 0
240463.0 377248.0 0
242707.0 378635.0 0
245121.0 376483.0 0
247323.0 378794.0 0
250691.0 376987.0 0
257924.0 374622.0 0
254600.0 375970.0 0
258688.0 378126.0 0
261000.0 375143.0 0
263755.0 377976.0 0
266041.0 374344.0 0
268412.0 376976.0 0
271747.0 376065.0 0
275070.0 377371.0 0
278231.0 376978.0 0
279878.0 373764.0 0
282185.0 376123.0 0
286661.0 375695.0 0
288634.0 376552.0 0
284496.0 378114.0 0
291825.0 375327.0 0
298738.0 376917.0 0
294976.0 374511.0 0
296274.0 376988.0 0
294443.0 378597.0 0
300781.0 378487.0 0
302986.0 379862.0 0
305410.0 380940.0 0
188191.0 384639.0 0
186220.0 385930.0 0
190790.0 384146.0 0
195717.0 381059.0 0
193140.0 382599.0 0
195251.0 385129.0 0
197794.0 383655.0 0
200347.0 383109.0 0
198279.0 385621.0 0
201171.0 385354.0 0
203146.0 381884.0 0
203733.0 384620.0 0
205403.0 381601.0 0
208132.0 382616.0 0
210851.0 384153.0 0
213987.0 382101.0 0
218907.0 381034.0 0
216775.0 384300.0 0
221662.0 378498.0 0
223653.0 381712.0 0
220863.0 383639.0 0
226870.0 380126.0 0
228369.0 383123.0 0
231556.0 382578.0 0
235075.0 382403.0 0
239354.0 381410.0 0
243203.0 381881.0 0
246851.0 382380.0 0
251610.0 381079.0 0
255217.0 380133.0 0
256794.0 383390.0 0
264543.0 382690.0 0
260706.0 382014.0 0
267280.0 380048.0 0
270963.0 380359.0 0
274527.0 381518.0 0
277981.0 380785.0 0
279234.0 383044.0 0
280491.0 379306.0 0
282575.0 381282.0 0
285247.0 383076.0 0
286472.0 379711.0 0
288979.0 379991.0 0
287981.0 383604.0 0
291793.0 378788.0 0
292015.0 382083.0 0
296446.0 380758.0 0
295706.0 383651.0 0
293915.0 381493.0 0
300975.0 382589.0 0
298656.0 381257.0 0
303404.0 383238.0 0
307393.0 383039.0 0
304993.0 384895.0 0
309807.0 383770.0 0
312163.0 384901.0 0
179929.0 389614.0 0
184319.0 387305.0 0
182608.0 389046.0 0
188288.0 388035.0 0
186256.0 389816.0 0
189188.0 390815.0 0
191598.0 387304.0 0
191890.0 390390.0 0
194952.0 387551.0 0
197805.0 388030.0 0
196366.0 390886.0 0
200688.0 388004.0 0
205634.0 386147.0 0
203219.0 389730.0 0
208261.0 387593.0 0
210398.0 389354.0 0
212342.0 386682.0 0
214766.0 387365.0 0
219073.0 387612.0 0
222535.0 387403.0 0
225558.0 384829.0 0
228511.0 386689.0 0
231317.0 386284.0 0
233845.0 386268.0 0
234371.0 388673.0 0
236715.0 385828.0 0
239426.0 384816.0 0
242501.0 385487.0 0
241001.0 388982.0 0
245676.0 386324.0 0
249782.0 384722.0 0
248705.0 387598.0 0
253503.0 384611.0 0
251815.0 387468.0 0
254953.0 387418.0 0
258121.0 387077.0 0
261819.0 385826.0 0
264670.0 386207.0 0
268717.0 384849.0 0
268486.0 389332.0 0
272496.0 384588.0 0
272097.0 388424.0 0
274305.0 386664.0 0
276633.0 384697.0 0
278690.0 387342.0 0
281537.0 385348.0 0
284242.0 387830.0 0
287327.0 386973.0 0
290963.0 384686.0 0
290133.0 387812.0 0
293107.0 388696.0 0
293409.0 385732.0 0
297292.0 386327.0 0
296213.0 389317.0 0
300279.0 385402.0 0
303170.0 387499.0 0
301296.0 390102.0 0
308150.0 386931.0 0
306251.0 389080.0 0
310342.0 386857.0 0
312274.0 388347.0 0
309309.0 389811.0 0
311131.0 390230.0 0
314277.0 386959.0 0
316614.0 387737.0 0
318589.0 389167.0 0
314923.0 390535.0 0
320880.0 390338.0 0
169602.0 396171.0 0
175555.0 392548.0 0
171799.0 394989.0 0
173528.0 393762.0 0
178086.0 391583.0 0
179794.0 393521.0 0
176128.0 395083.0 0
180644.0 395882.0 0
182855.0 391806.0 0
185235.0 393191.0 0
183593.0 395997.0 0
188307.0 393951.0 0
194193.0 390901.0 0
191604.0 394329.0 0
194402.0 393986.0 0
198743.0 390791.0 0
198990.0 392900.0 0
196850.0 394492.0 0
201871.0 392999.0 0
206212.0 391096.0 0
204927.0 394724.0 0
208836.0 392311.0 0
207609.0 395102.0 0
212577.0 390673.0 0
211205.0 394051.0 0
213781.0 393713.0 0
215574.0 390351.0 0
219235.0 392197.0 0
223023.0 392085.0 0
225326.0 389626.0 0
224943.0 394038.0 0
228848.0 390747.0 0
228010.0 394231.0 0
232020.0 389910.0 0
235790.0 391413.0 0
233495.0 393438.0 0
230791.0 394940.0 0
236994.0 393917.0 0
237477.0 389235.0 0
238396.0 392291.0 0
244416.0 389757.0 0
241345.0 392803.0 0
246769.0 389395.0 0
249257.0 391209.0 0
246003.0 392295.0 0
253287.0 391258.0 0
257081.0 391412.0 0
261269.0 389654.0 0
260603.0 393820.0 0
264558.0 393686.0 0
264767.0 389535.0 0
267661.0 393231.0 0
270957.0 391862.0 0
274041.0 391948.0 0
270278.0 394560.0 0
276176.0 389242.0 0
278028.0 392639.0 0
280311.0 390087.0 0
282877.0 391757.0 0
280652.0 393939.0 0
285622.0 394536.0 0
287048.0 390668.0 0
289667.0 394486.0 0
292926.0 392019.0 0
290169.0 390888.0 0
298762.0 391316.0 0
295603.0 392177.0 0
298556.0 394164.0 0
296271.0 395540.0 0
302998.0 392625.0 0
300978.0 394519.0 0
306579.0 392347.0 0
304905.0 395467.0 0
312769.0 393128.0 0
309361.0 393681.0 0
312782.0 396221.0 0
317978.0 392138.0 0
315778.0 394479.0 0
322924.0 391690.0 0
320134.0 394232.0 0
323427.0 394257.0 0
326104.0 393928.0 0
328253.0 395788.0 0
163394.0 400939.0 0
165278.0 399195.0 0
168103.0 398253.0 0
168469.0 401010.0 0
172423.0 396953.0 0
174197.0 396698.0 0
175124.0 398585.0 0
171556.0 399219.0 0
173630.0 401468.0 0
177094.0 397174.0 0
179386.0 399108.0 0
184817.0 398127.0 0
181867.0 400072.0 0
185670.0 400430.0 0
188071.0 397164.0 0
189810.0 399398.0 0
192699.0 397275.0 0
195030.0 399379.0 0
197728.0 397469.0 0
199859.0 400067.0 0
200943.0 395761.0 0
202183.0 398476.0 0
204806.0 397761.0 0
207005.0 400232.0 0
209937.0 397517.0 0
213266.0 398292.0 0
216693.0 396345.0 0
219291.0 399389.0 0
221633.0 395225.0 0
223530.0 397932.0 0
227652.0 397920.0 0
230916.0 398237.0 0
234198.0 397158.0 0
237350.0 397536.0 0
239529.0 395247.0 0
244275.0 395175.0 0
241666.0 397342.0 0
249229.0 395014.0 0
246893.0 398862.0 0
253248.0 396105.0 0
257002.0 395481.0 0
258225.0 398843.0 0
261359.0 397755.0 0
268176.0 396952.0 0
264864.0 397631.0 0
270854.0 398859.0 0
273655.0 396066.0 0
277148.0 396242.0 0
278035.0 400118.0 0
279644.0 396317.0 0
281163.0 399566.0 0
282155.0 396547.0 0
286234.0 398178.0 0
288912.0 399711.0 0
293257.0 395342.0 0
290140.0 397356.0 0
292666.0 398893.0 0
295332.0 399643.0 0
297939.0 399000.0 0
302622.0 397126.0 0
300328.0 397871.0 0
306850.0 397258.0 0
303934.0 399776.0 0
306602.0 400041.0 0
309273.0 396671.0 0
311106.0 398734.0 0
313671.0 399615.0 0
314726.0 397462.0 0
316699.0 396844.0 0
319184.0 396769.0 0
316062.0 399319.0 0
318390.0 399998.0 0
321473.0 399549.0 0
323575.0 398049.0 0
326294.0 397781.0 0
326132.0 401060.0 0
328684.0 400326.0 0
330613.0 397215.0 0
332792.0 398996.0 0
335754.0 399429.0 0
159024.0 403333.0 0
156912.0 405434.0 0
161051.0 402209.0 0
165096.0 402966.0 0
162924.0 404699.0 0
166369.0 406239.0 0
167955.0 404107.0 0
171906.0 404757.0 0
175531.0 406147.0 0
177178.0 401657.0 0
178608.0 404950.0 0
183171.0 402160.0 0
184540.0 404276.0 0
180804.0 403183.0 0
182374.0 405865.0 0
187789.0 402277.0 0
186197.0 406489.0 0
189311.0 404861.0 0
192201.0 401244.0 0
192209.0 403925.0 0
194662.0 405613.0 0
196236.0 402498.0 0
199508.0 402867.0 0
199827.0 405729.0 0
203255.0 401354.0 0
203099.0 404056.0 0
206109.0 404098.0 0
209117.0 404949.0 0
210400.0 401989.0 0
213298.0 402060.0 0
211689.0 405435.0 0
213900.0 405298.0 0
215444.0 405800.0 0
216171.0 401933.0 0
217992.0 403707.0 0
220809.0 402910.0 0
224247.0 402020.0 0
227780.0 401822.0 0
230660.0 402591.0 0
233761.0 401228.0 0
234472.0 404414.0 0
236924.0 401290.0 0
240252.0 399847.0 0
237495.0 405160.0 0
240699.0 403144.0 0
243119.0 399922.0 0
244183.0 403395.0 0
247721.0 403109.0 0
250923.0 399696.0 0
253459.0 401381.0 0
250534.0 403340.0 0
253484.0 404840.0 0
255644.0 399945.0 0
256939.0 404059.0 0
260331.0 402367.0 0
263909.0 401540.0 0
266698.0 403203.0 0
266907.0 399934.0 0
269081.0 401346.0 0
271803.0 403647.0 0
274575.0 401302.0 0
279068.0 403967.0 0
281202.0 402686.0 0
283678.0 404260.0 0
284132.0 400658.0 0
287319.0 402709.0 0
290266.0 405857.0 0
291348.0 402519.0 0
294049.0 405232.0 0
294956.0 402013.0 0
297183.0 404537.0 0
302266.0 401935.0 0
299442.0 402535.0 0
302497.0 406079.0 0
304687.0 403893.0 0
307521.0 404570.0 0
309388.0 401671.0 0
312185.0 403236.0 0
312904.0 405770.0 0
314469.0 401778.0 0
317293.0 402977.0 0
315879.0 405497.0 0
322279.0 402552.0 0
320154.0 404277.0 0
323789.0 405801.0 0
325243.0 403674.0 0
328730.0 406166.0 0
330031.0 403180.0 0
332721.0 401896.0 0
332841.0 405535.0 0
335686.0 404254.0 0
337633.0 401939.0 0
339764.0 405568.0 0
340486.0 402365.0 0
342324.0 403753.0 0
344341.0 405859.0 0
146838.0 411162.0 0
149240.0 409960.0 0
152073.0 408947.0 0
154174.0 406876.0 0
159261.0 407588.0 0
155949.0 409452.0 0
158813.0 410688.0 0
162577.0 407033.0 0
161271.0 411813.0 0
163873.0 409296.0 0
166601.0 408502.0 0
168488.0 409104.0 0
165356.0 411347.0 0
167776.0 411519.0 0
170864.0 408064.0 0
171437.0 410955.0 0
174862.0 408744.0 0
174616.0 411226.0 0
179104.0 408660.0 0
178003.0 411468.0 0
182449.0 409116.0 0
189781.0 407876.0 0
185968.0 409822.0 0
192450.0 408872.0 0
195137.0 410175.0 0
197070.0 407452.0 0
198786.0 409847.0 0
202144.0 407986.0 0
205369.0 407962.0 0
208549.0 408510.0 0
211967.0 408656.0 0
214646.0 409395.0 0
217678.0 406160.0 0
218077.0 409819.0 0
220936.0 406230.0 0
223387.0 408364.0 0
224793.0 405332.0 0
226269.0 409994.0 0
227772.0 406210.0 0
231643.0 407128.0 0
235555.0 408221.0 0
238889.0 409666.0 0
241318.0 407400.0 0
245313.0 407357.0 0
248243.0 406254.0 0
251083.0 408261.0 0
255660.0 410159.0 0
259042.0 406876.0 0
261656.0 405800.0 0
260071.0 410061.0 0
263128.0 409110.0 0
269053.0 405792.0 0
264560.0 405195.0 0
266967.0 408964.0 0
273079.0 407908.0 0
276129.0 405540.0 0
278628.0 409083.0 0
281472.0 407048.0 0
284418.0 408202.0 0
286907.0 406316.0 0
287894.0 409621.0 0
290974.0 409152.0 0
293243.0 407600.0 0
295387.0 409554.0 0
297725.0 408030.0 0
300634.0 407240.0 0
300146.0 410999.0 0
304468.0 408247.0 0
306977.0 407602.0 0
308695.0 409707.0 0
310052.0 406347.0 0
312151.0 409659.0 0
318169.0 407911.0 0
315739.0 409423.0 0
320986.0 407198.0 0
323127.0 410357.0 0
325937.0 408552.0 0
328111.0 410795.0 0
331166.0 408973.0 0
334056.0 409545.0 0
336571.0 407490.0 0
338410.0 409790.0 0
341563.0 407605.0 0
342907.0 410583.0 0
346849.0 407571.0 0
346302.0 410674.0 0
349926.0 408297.0 0
351592.0 410508.0 0
353946.0 411876.0 0
137765.0 415961.0 0
142697.0 413270.0 0
140659.0 413981.0 0
144570.0 412446.0 0
142383.0 416939.0 0
139665.0 415891.0 0
145462.0 416896.0 0
147341.0 414836.0 0
150138.0 414247.0 0
153278.0 412842.0 0
153437.0 416045.0 0
156587.0 412687.0 0
158143.0 415414.0 0
160995.0 416374.0 0
163561.0 414017.0 0
166363.0 415384.0 0
169951.0 414254.0 0
173845.0 414627.0 0
177403.0 414843.0 0
181328.0 412363.0 0
184221.0 413082.0 0
180707.0 415150.0 0
184549.0 415657.0 0
188361.0 412097.0 0
187637.0 415221.0 0
190639.0 416020.0 0
191254.0 412184.0 0
193662.0 413054.0 0
193961.0 416293.0 0
196487.0 412184.0 0
197535.0 415414.0 0
199780.0 411954.0 0
202459.0 411389.0 0
201280.0 414795.0 0
205149.0 411847.0 0
204416.0 415318.0 0
208060.0 411981.0 0
207477.0 415415.0 0
209899.0 414985.0 0
211032.0 412109.0 0
213763.0 414009.0 0
217361.0 413889.0 0
220703.0 415777.0 0
220665.0 413798.0 0
221546.0 410929.0 0
224525.0 413902.0 0
227999.0 414421.0 0
229329.0 410946.0 0
230460.0 414917.0 0
232529.0 412550.0 0
235183.0 411166.0 0
237588.0 413393.0 0
241119.0 412315.0 0
242960.0 415001.0 0
243942.0 411063.0 0
240013.0 415365.0 0
245915.0 414361.0 0
247951.0 410978.0 0
249563.0 415275.0 0
251094.0 412315.0 0
253018.0 414339.0 0
260340.0 414106.0 0
263320.0 412665.0 0
266572.0 413568.0 0
270567.0 411046.0 0
270131.0 415877.0 0
273479.0 413077.0 0
275924.0 411129.0 0
277940.0 414921.0 0
280737.0 412703.0 0
282769.0 410513.0 0
283628.0 415467.0 0
285267.0 411198.0 0
287075.0 414699.0 0
289251.0 412827.0 0
292352.0 412137.0 0
292334.0 416045.0 0
295467.0 412523.0 0
298215.0 414107.0 0
303632.0 411395.0 0
301032.0 415785.0 0
303510.0 414906.0 0
307040.0 412009.0 0
309223.0 413462.0 0
306395.0 415318.0 0
312220.0 413509.0 0
317424.0 412355.0 0
315390.0 414673.0 0
318499.0 416273.0 0
320287.0 412163.0 0
320938.0 415351.0 0
323219.0 415507.0 0
325373.0 413519.0 0
328163.0 413614.0 0
331540.0 412574.0 0
329829.0 416056.0 0
332887.0 416480.0 0
335016.0 414274.0 0
335813.0 412114.0 0
340004.0 412319.0 0
337090.0 416943.0 0
343801.0 413756.0 0
339648.0 414906.0 0
344921.0 416046.0 0
348588.0 412744.0 0
349935.0 415194.0 0
353094.0 415102.0 0
354905.0 417316.0 0
356421.0 413233.0 0
359249.0 413728.0 0
357368.0 415635.0 0
360660.0 415219.0 0
131448.0 420028.0 0
129447.0 422432.0 0
136011.0 417900.0 0
134405.0 419744.0 0
136443.0 421998.0 0
138800.0 419077.0 0
142085.0 419515.0 0
139551.0 420552.0 0
143753.0 421747.0 0
146566.0 420110.0 0
150136.0 417108.0 0
153726.0 419300.0 0
150020.0 420188.0 0
156071.0 417455.0 0
158354.0 419437.0 0
154922.0 421837.0 0
158329.0 421625.0 0
162888.0 419176.0 0
161888.0 421599.0 0
170031.0 418087.0 0
166364.0 419079.0 0
173736.0 417377.0 0
171813.0 420588.0 0
177211.0 417921.0 0
175400.0 420557.0 0
180461.0 418581.0 0
183849.0 418855.0 0
187676.0 417563.0 0
187044.0 420325.0 0
190382.0 419003.0 0
193833.0 420296.0 0
197456.0 419081.0 0
200877.0 418365.0 0
204352.0 419539.0 0
208110.0 418847.0 0
211487.0 417449.0 0
211768.0 420446.0 0
214834.0 417993.0 0
218141.0 417788.0 0
222245.0 417789.0 0
225555.0 417875.0 0
228158.0 417665.0 0
228294.0 420827.0 0
231330.0 417771.0 0
235015.0 416481.0 0
238504.0 418369.0 0
242286.0 418433.0 0
246161.0 418385.0 0
252821.0 417533.0 0
250116.0 419825.0 0
256664.0 415768.0 0
257870.0 419663.0 0
255169.0 419391.0 0
260603.0 418309.0 0
264089.0 416583.0 0
267368.0 418650.0 0
270463.0 420820.0 0
273830.0 418998.0 0
274838.0 415784.0 0
277838.0 419611.0 0
281219.0 418032.0 0
283377.0 420777.0 0
285955.0 419435.0 0
288885.0 417778.0 0
289896.0 421057.0 0
291875.0 419701.0 0
295494.0 415903.0 0
295295.0 419919.0 0
297953.0 417901.0 0
304384.0 418478.0 0
301190.0 419619.0 0
308614.0 416848.0 0
307878.0 419754.0 0
311477.0 416860.0 0
313147.0 419406.0 0
315175.0 417436.0 0
318661.0 419336.0 0
321985.0 419673.0 0
324960.0 418143.0 0
327708.0 418560.0 0
329777.0 420556.0 0
326128.0 422170.0 0
332744.0 419486.0 0
334751.0 421813.0 0
337659.0 419689.0 0
341622.0 417441.0 0
341248.0 420324.0 0
346290.0 419043.0 0
349949.0 418496.0 0
352705.0 419030.0 0
353762.0 421184.0 0
359340.0 418175.0 0
356917.0 419976.0 0
362269.0 417174.0 0
364782.0 418193.0 0
360843.0 421149.0 0
362501.0 420296.0 0
366986.0 420489.0 0
370075.0 421771.0 0
120174.0 427450.0 0
122546.0 426085.0 0
124594.0 424529.0 0
127219.0 423795.0 0
128875.0 427187.0 0
132416.0 423229.0 0
134095.0 425095.0 0
131386.0 427537.0 0
138285.0 423341.0 0
136628.0 426475.0 0
140941.0 423184.0 0
141431.0 425934.0 0
144015.0 426352.0 0
147794.0 423821.0 0
144990.0 424107.0 0
148863.0 426440.0 0
151578.0 422872.0 0
152228.0 425404.0 0
154805.0 424648.0 0
158181.0 424829.0 0
161418.0 424840.0 0
164369.0 424700.0 0
166747.0 422428.0 0
167003.0 425999.0 0
170111.0 423498.0 0
169056.0 426620.0 0
172902.0 425324.0 0
175160.0 423917.0 0
179107.0 422056.0 0
177808.0 425948.0 0
182230.0 422847.0 0
181512.0 426258.0 0
189637.0 421868.0 0
185582.0 423760.0 0
188112.0 426261.0 0
188414.0 424337.0 0
191483.0 423931.0 0
199083.0 421646.0 0
195999.0 423710.0 0
199427.0 425325.0 0
201931.0 422382.0 0
202991.0 425355.0 0
205890.0 422900.0 0
209367.0 422839.0 0
214488.0 421337.0 0
212805.0 424324.0 0
215896.0 425267.0 0
218400.0 422173.0 0
220632.0 426172.0 0
222450.0 421092.0 0
224524.0 424559.0 0
225889.0 420736.0 0
228621.0 424093.0 0
231251.0 420912.0 0
234721.0 421044.0 0
232354.0 423849.0 0
235283.0 426190.0 0
238476.0 422525.0 0
242817.0 422104.0 0
241938.0 425386.0 0
246753.0 423417.0 0
253190.0 421514.0 0
251172.0 424125.0 0
256165.0 422977.0 0
264110.0 421457.0 0
259811.0 422690.0 0
263105.0 425650.0 0
267952.0 422683.0 0
271613.0 424714.0 0
274070.0 422389.0 0
276906.0 423534.0 0
279467.0 425089.0 0
280686.0 422447.0 0
281629.0 425305.0 0
284307.0 424049.0 0
287659.0 422628.0 0
291094.0 426010.0 0
292432.0 422812.0 0
295895.0 424003.0 0
299586.0 422854.0 0
303137.0 424638.0 0
304861.0 422158.0 0
307995.0 422773.0 0
307092.0 425206.0 0
310921.0 421670.0 0
310512.0 425300.0 0
313648.0 423271.0 0
313694.0 425931.0 0
316550.0 421755.0 0
317129.0 425924.0 0
320358.0 422360.0 0
319663.0 423807.0 0
323417.0 422565.0 0
322614.0 425116.0 0
327468.0 424721.0 0
329217.0 426859.0 0
329975.0 423218.0 0
332782.0 424603.0 0
337764.0 424025.0 0
340192.0 423144.0 0
336641.0 426493.0 0
340266.0 426378.0 0
342445.0 425209.0 0
344970.0 422493.0 0
349748.0 422041.0 0
347136.0 425449.0 0
349996.0 426536.0 0
352125.0 423625.0 0
355123.0 424994.0 0
357923.0 423221.0 0
362403.0 423269.0 0
364903.0 422582.0 0
360349.0 425912.0 0
364904.0 425244.0 0
367917.0 424261.0 0
367860.0 426515.0 0
372405.0 424184.0 0
375488.0 425121.0 0
370870.0 426797.0 0
377918.0 426387.0 0
113532.0 432108.0 0
115381.0 429897.0 0
118359.0 429433.0 0
118885.0 432412.0 0
123605.0 429076.0 0
121993.0 430852.0 0
126062.0 427712.0 0
125689.0 431529.0 0
128138.0 430747.0 0
133820.0 429382.0 0
130453.0 430836.0 0
133979.0 432016.0 0
139033.0 428590.0 0
137766.0 431729.0 0
142107.0 429996.0 0
145680.0 429085.0 0
148581.0 430748.0 0
150567.0 428992.0 0
152965.0 427661.0 0
152319.0 430218.0 0
154591.0 429545.0 0
155186.0 427685.0 0
158282.0 428206.0 0
155459.0 431832.0 0
158307.0 431404.0 0
161373.0 428430.0 0
164279.0 428591.0 0
161132.0 431558.0 0
167597.0 428564.0 0
168773.0 431905.0 0
171276.0 427692.0 0
174657.0 427491.0 0
172376.0 430789.0 0
176376.0 429975.0 0
180105.0 429579.0 0
185085.0 427208.0 0
183310.0 430042.0 0
190012.0 427390.0 0
187658.0 429414.0 0
190816.0 431327.0 0
194230.0 428040.0 0
198516.0 428513.0 0
201999.0 428729.0 0
204808.0 430466.0 0
206774.0 426844.0 0
208432.0 430977.0 0
210534.0 427514.0 0
214104.0 427724.0 0
217601.0 427293.0 0
216680.0 430748.0 0
221424.0 430422.0 0
226047.0 428556.0 0
230732.0 427440.0 0
233921.0 430377.0 0
239017.0 426828.0 0
238101.0 430479.0 0
241242.0 428527.0 0
244764.0 427690.0 0
249207.0 427573.0 0
252037.0 430274.0 0
254304.0 426562.0 0
255906.0 431169.0 0
259157.0 427685.0 0
263128.0 429310.0 0
267297.0 426913.0 0
265831.0 430996.0 0
271452.0 428609.0 0
275373.0 427166.0 0
279337.0 428514.0 0
283397.0 428405.0 0
287227.0 426580.0 0
287012.0 430381.0 0
290145.0 429417.0 0
292142.0 430474.0 0
299375.0 426621.0 0
295621.0 428312.0 0
300042.0 430717.0 0
302512.0 428197.0 0
303738.0 431413.0 0
306657.0 428281.0 0
310203.0 428600.0 0
312975.0 428393.0 0
314323.0 431040.0 0
317052.0 429355.0 0
320580.0 427111.0 0
320927.0 430001.0 0
323953.0 429549.0 0
325240.0 426909.0 0
326697.0 431462.0 0
327862.0 429017.0 0
332010.0 427594.0 0
334945.0 428611.0 0
330835.0 430290.0 0
334055.0 430297.0 0
333067.0 431256.0 0
339081.0 428596.0 0
335027.0 431709.0 0
337274.0 430675.0 0
343752.0 428007.0 0
341351.0 429606.0 0
346553.0 428508.0 0
345369.0 431392.0 0
348521.0 429404.0 0
348814.0 431948.0 0
352000.0 428687.0 0
355017.0 427762.0 0
351999.0 431349.0 0
358743.0 428499.0 0
356553.0 430252.0 0
359603.0 431825.0 0
363275.0 427667.0 0
360529.0 430304.0 0
362635.0 431002.0 0
366415.0 428705.0 0
365290.0 431090.0 0
368899.0 430651.0 0
371824.0 429868.0 0
374680.0 428447.0 0
373445.0 432311.0 0
376754.0 429953.0 0
380026.0 428797.0 0
382386.0 430474.0 0
385673.0 431202.0 0
106254.0 437117.0 0
110948.0 433138.0 0
108731.0 435110.0 0
111703.0 436493.0 0
115681.0 434257.0 0
116065.0 436992.0 0
121181.0 434611.0 0
120322.0 437522.0 0
124716.0 434443.0 0
128564.0 434191.0 0
125099.0 437659.0 0
128787.0 436749.0 0
131307.0 433478.0 0
131948.0 435853.0 0
135866.0 434658.0 0
139785.0 433519.0 0
142106.0 432597.0 0
140188.0 435809.0 0
143731.0 435997.0 0
145210.0 432548.0 0
147539.0 433786.0 0
149360.0 432770.0 0
147207.0 436673.0 0
152150.0 433350.0 0
150563.0 436830.0 0
155179.0 434864.0 0
158405.0 434828.0 0
164362.0 432690.0 0
161538.0 435399.0 0
166004.0 436189.0 0
169099.0 435362.0 0
172375.0 434869.0 0
174626.0 433590.0 0
177375.0 432910.0 0
176759.0 435884.0 0
180444.0 433488.0 0
183130.0 433394.0 0
184275.0 436619.0 0
185963.0 431965.0 0
188277.0 434990.0 0
191948.0 436235.0 0
192967.0 433182.0 0
195447.0 432003.0 0
199221.0 432201.0 0
195790.0 435879.0 0
199607.0 436188.0 0
202610.0 433412.0 0
206781.0 434217.0 0
209961.0 435863.0 0
212147.0 432025.0 0
214510.0 435607.0 0
218162.0 435072.0 0
221852.0 435174.0 0
224934.0 433369.0 0
227410.0 436158.0 0
229462.0 431800.0 0
232267.0 435130.0 0
236004.0 434068.0 0
239125.0 434980.0 0
242330.0 431944.0 0
244910.0 435521.0 0
242001.0 435532.0 0
247064.0 431619.0 0
248285.0 435874.0 0
250924.0 433643.0 0
253134.0 436760.0 0
254118.0 433418.0 0
257291.0 435645.0 0
259407.0 432377.0 0
262403.0 432544.0 0
265905.0 435399.0 0
269613.0 431826.0 0
270083.0 435648.0 0
273161.0 435394.0 0
274322.0 431513.0 0
278614.0 432967.0 0
282686.0 431782.0 0
282300.0 434902.0 0
284584.0 436181.0 0
285412.0 433154.0 0
287759.0 435889.0 0
290866.0 436440.0 0
290020.0 433024.0 0
293988.0 432688.0 0
292972.0 435249.0 0
297360.0 432553.0 0
296575.0 435990.0 0
300136.0 434403.0 0
302596.0 433212.0 0
303595.0 436609.0 0
306955.0 431701.0 0
305788.0 434519.0 0
308947.0 436481.0 0
310800.0 432687.0 0
313648.0 435331.0 0
318495.0 432309.0 0
316301.0 434027.0 0
319109.0 436354.0 0
324036.0 432258.0 0
321648.0 433880.0 0
325618.0 435193.0 0
329819.0 433839.0 0
334039.0 434748.0 0
338446.0 433520.0 0
340061.0 437646.0 0
341839.0 432964.0 0
343476.0 436538.0 0
346080.0 434367.0 0
349409.0 435102.0 0
355324.0 433269.0 0
352498.0 435384.0 0
358816.0 433345.0 0
360696.0 436170.0 0
363130.0 434174.0 0
365926.0 434305.0 0
367050.0 432423.0 0
369878.0 433384.0 0
369032.0 435316.0 0
372317.0 434405.0 0
375479.0 436320.0 0
376451.0 433232.0 0
379165.0 433513.0 0
378609.0 437485.0 0
382913.0 434012.0 0
385389.0 435486.0 0
380938.0 436082.0 0
387964.0 433510.0 0
390531.0 435414.0 0
393189.0 436910.0 0
97732.9 441317.0 0
100669.0 440426.0 0
103652.0 438973.0 0
108663.0 438971.0 0
105868.0 442285.0 0
112521.0 439103.0 0
109304.0 441595.0 0
117884.0 439331.0 0
114075.0 441131.0 0
117506.0 442208.0 0
121789.0 439671.0 0
122685.0 441929.0 0
125995.0 440116.0 0
129609.0 439192.0 0
132480.0 438342.0 0
133205.0 441521.0 0
135585.0 437291.0 0
138907.0 437619.0 0
136385.0 440936.0 0
139878.0 440233.0 0
143057.0 439263.0 0
146602.0 439826.0 0
154061.0 438102.0 0
149820.0 439913.0 0
153341.0 441262.0 0
157488.0 438355.0 0
157331.0 441531.0 0
160338.0 438577.0 0
163655.0 437644.0 0
162652.0 439859.0 0
160392.0 442056.0 0
164594.0 441244.0 0
166639.0 439049.0 0
169219.0 441307.0 0
170346.0 437844.0 0
174120.0 437352.0 0
172859.0 440674.0 0
180156.0 437780.0 0
176571.0 439865.0 0
182012.0 441525.0 0
185421.0 439937.0 0
188387.0 439013.0 0
191780.0 439494.0 0
195397.0 439933.0 0
199430.0 439853.0 0
203710.0 437726.0 0
205381.0 441631.0 0
207490.0 438135.0 0
209145.0 440639.0 0
212536.0 438822.0 0
215919.0 439152.0 0
219826.0 439431.0 0
222703.0 441332.0 0
223685.0 437597.0 0
226072.0 440128.0 0
230356.0 439070.0 0
232694.0 442098.0 0
235553.0 438724.0 0
238869.0 438335.0 0
242045.0 438733.0 0
246095.0 439856.0 0
250087.0 439082.0 0
255864.0 438933.0 0
258507.0 440743.0 0
261280.0 436980.0 0
262448.0 441285.0 0
265280.0 439627.0 0
269379.0 438521.0 0
272156.0 438435.0 0
274169.0 440464.0 0
276309.0 437146.0 0
280324.0 437695.0 0
283239.0 438317.0 0
286141.0 438901.0 0
290030.0 439744.0 0
293955.0 438498.0 0
297357.0 441727.0 0
300002.0 438246.0 0
302710.0 440452.0 0
306642.0 439817.0 0
311069.0 440928.0 0
312034.0 438095.0 0
316081.0 439007.0 0
322825.0 438271.0 0
319738.0 441554.0 0
323908.0 441996.0 0
326740.0 438429.0 0
329859.0 437438.0 0
329674.0 439868.0 0
327380.0 441861.0 0
331524.0 442011.0 0
333594.0 439154.0 0
337337.0 437239.0 0
336848.0 441667.0 0
340265.0 441005.0 0
344022.0 440347.0 0
347277.0 437442.0 0
348091.0 441156.0 0
350528.0 438308.0 0
354054.0 438842.0 0
357288.0 437524.0 0
359195.0 440968.0 0
365226.0 438283.0 0
362358.0 439669.0 0
367531.0 437156.0 0
367526.0 441963.0 0
370088.0 439607.0 0
372620.0 437605.0 0
375164.0 441110.0 0
377809.0 439727.0 0
379989.0 442098.0 0
382448.0 438303.0 0
385430.0 437938.0 0
382068.0 440476.0 0
384691.0 442320.0 0
386500.0 440429.0 0
388600.0 437926.0 0
389195.0 440812.0 0
391449.0 439870.0 0
395949.0 437817.0 0
392704.0 442675.0 0
394101.0 440750.0 0
398370.0 439807.0 0
396713.0 442100.0 0
401183.0 440835.0 0
403602.0 442017.0 0
88047.2 447894.0 0
89716.3 445555.0 0
92931.8 445437.0 0
95633.5 443740.0 0
98309.0 445257.0 0
95520.9 447645.0 0
100918.0 443718.0 0
98864.5 447721.0 0
101554.0 447826.0 0
103815.0 445166.0 0
107849.0 444624.0 0
106089.0 447623.0 0
110803.0 443943.0 0
113859.0 443897.0 0
109925.0 447497.0 0
117371.0 445165.0 0
114310.0 446263.0 0
118941.0 447100.0 0
120168.0 443008.0 0
120707.0 445482.0 0
127037.0 443030.0 0
124097.0 445310.0 0
127202.0 446730.0 0
130245.0 443109.0 0
129970.0 446340.0 0
133818.0 444733.0 0
133322.0 447264.0 0
136869.0 443962.0 0
136133.0 446374.0 0
138961.0 446169.0 0
139761.0 443226.0 0
142905.0 443138.0 0
142503.0 447229.0 0
146462.0 442975.0 0
146849.0 446531.0 0
149999.0 442763.0 0
153166.0 444001.0 0
150891.0 445933.0 0
154399.0 447206.0 0
156090.0 444411.0 0
159141.0 445889.0 0
162883.0 444256.0 0
166628.0 442662.0 0
166172.0 446040.0 0
170143.0 444753.0 0
174343.0 444016.0 0
178363.0 442929.0 0
179383.0 447034.0 0
183596.0 445287.0 0
186879.0 442857.0 0
187583.0 446647.0 0
189859.0 442480.0 0
190307.0 445589.0 0
193175.0 442975.0 0
193563.0 446183.0 0
196839.0 443609.0 0
201377.0 443307.0 0
204600.0 445394.0 0
208436.0 445195.0 0
213155.0 443300.0 0
216863.0 442429.0 0
219750.0 445174.0 0
224424.0 444618.0 0
228569.0 443289.0 0
231750.0 446375.0 0
235610.0 443198.0 0
239114.0 442630.0 0
242886.0 442460.0 0
242494.0 445696.0 0
246188.0 444832.0 0
249298.0 442907.0 0
253579.0 442490.0 0
257192.0 444957.0 0
260812.0 445159.0 0
265728.0 444905.0 0
268079.0 441304.0 0
271363.0 441183.0 0
270147.0 443929.0 0
273961.0 444939.0 0
278323.0 441641.0 0
277896.0 446112.0 0
283112.0 442094.0 0
280739.0 445184.0 0
283397.0 446622.0 0
287153.0 442104.0 0
286467.0 445370.0 0
293211.0 442384.0 0
290585.0 445086.0 0
295436.0 446505.0 0
300075.0 445595.0 0
301433.0 442681.0 0
304734.0 444294.0 0
309091.0 443467.0 0
312242.0 445222.0 0
313992.0 442424.0 0
315067.0 447089.0 0
316766.0 444317.0 0
320593.0 445451.0 0
323900.0 445318.0 0
327611.0 445473.0 0
331100.0 445534.0 0
334613.0 444755.0 0
338756.0 446293.0 0
341239.0 444116.0 0
343783.0 443290.0 0
344035.0 446320.0 0
346882.0 444636.0 0
352224.0 442588.0 0
351020.0 445842.0 0
354389.0 445826.0 0
356275.0 442690.0 0
357803.0 446122.0 0
360944.0 444043.0 0
364273.0 442979.0 0
363046.0 446755.0 0
365897.0 445856.0 0
367218.0 445522.0 0
370857.0 445564.0 0
372768.0 442738.0 0
375286.0 447197.0 0
377347.0 444571.0 0
380340.0 445977.0 0
382690.0 444357.0 0
384961.0 447391.0 0
387156.0 444756.0 0
390038.0 444167.0 0
395415.0 444691.0 0
393349.0 446788.0 0
400453.0 443998.0 0
398743.0 446182.0 0
403044.0 444383.0 0
405663.0 442864.0 0
401804.0 447677.0 0
403810.0 447736.0 0
404982.0 445638.0 0
407432.0 445261.0 0
409850.0 446002.0 0
411933.0 447726.0 0
82680.0 451497.0 0
85688.6 450030.0 0
87436.3 452251.0 0
91250.6 448522.0 0
91149.6 452313.0 0
97925.3 450397.0 0
94634.1 450351.0 0
102229.0 449955.0 0
100114.0 453151.0 0
105037.0 450626.0 0
112814.0 449201.0 0
109016.0 451672.0 0
112627.0 452334.0 0
115700.0 448355.0 0
116376.0 451679.0 0
120123.0 450131.0 0
123226.0 448430.0 0
127276.0 448913.0 0
125147.0 450833.0 0
130608.0 450061.0 0
136672.0 449264.0 0
140449.0 450940.0 0
144740.0 449868.0 0
146667.0 449380.0 0
147212.0 451629.0 0
150033.0 449404.0 0
153247.0 449799.0 0
157193.0 448976.0 0
161426.0 447928.0 0
159717.0 450896.0 0
164296.0 449535.0 0
168623.0 448766.0 0
167673.0 451653.0 0
170931.0 448050.0 0
171056.0 451194.0 0
174842.0 448873.0 0
177587.0 451810.0 0
181072.0 451218.0 0
184088.0 449307.0 0
187341.0 450793.0 0
190779.0 448683.0 0
193982.0 450271.0 0
197926.0 447873.0 0
201847.0 447095.0 0
201146.0 450492.0 0
204190.0 448132.0 0
203870.0 451121.0 0
207278.0 449671.0 0
211864.0 448354.0 0
214018.0 451670.0 0
215734.0 447123.0 0
218200.0 451074.0 0
222570.0 449011.0 0
227108.0 447745.0 0
229734.0 450441.0 0
233724.0 450889.0 0
236023.0 446635.0 0
237356.0 449783.0 0
239585.0 447187.0 0
242508.0 448218.0 0
245616.0 449345.0 0
250330.0 447244.0 0
254370.0 447147.0 0
253518.0 451044.0 0
257901.0 449501.0 0
263232.0 450120.0 0
267424.0 448920.0 0
269794.0 447198.0 0
269539.0 450581.0 0
272863.0 449610.0 0
276599.0 449562.0 0
280604.0 449431.0 0
284283.0 451182.0 0
286141.0 448509.0 0
289078.0 449041.0 0
292380.0 448918.0 0
295175.0 451690.0 0
299005.0 449274.0 0
303291.0 448136.0 0
308485.0 447984.0 0
306040.0 451422.0 0
312933.0 450284.0 0
318291.0 448199.0 0
316823.0 451061.0 0
321928.0 448649.0 0
320755.0 451562.0 0
325075.0 448875.0 0
328200.0 448778.0 0
331393.0 448864.0 0
335346.0 449176.0 0
339645.0 450960.0 0
342126.0 448299.0 0
343391.0 452140.0 0
348543.0 447758.0 0
345724.0 449439.0 0
353133.0 448186.0 0
351021.0 450872.0 0
356323.0 449488.0 0
359591.0 450844.0 0
360688.0 448325.0 0
365475.0 449349.0 0
362702.0 451320.0 0
368684.0 448211.0 0
367270.0 452344.0 0
370359.0 451249.0 0
372768.0 449939.0 0
374787.0 452414.0 0
380898.0 448643.0 0
377812.0 450137.0 0
382258.0 450884.0 0
381619.0 452653.0 0
384615.0 450955.0 0
387970.0 449086.0 0
390541.0 447994.0 0
387777.0 451880.0 0
394923.0 449400.0 0
391272.0 450728.0 0
393720.0 451770.0 0
398045.0 449380.0 0
401203.0 450205.0 0
398146.0 452490.0 0
405589.0 450139.0 0
403413.0 452323.0 0
407586.0 448461.0 0
409910.0 449265.0 0
407792.0 452283.0 0
410077.0 451640.0 0
414405.0 449340.0 0
413245.0 451754.0 0
415895.0 452962.0 0
417376.0 450844.0 0
419760.0 452767.0 0
76904.6 454302.0 0
74405.9 456913.0 0
77539.6 457302.0 0
79761.5 453241.0 0
81035.7 456769.0 0
83894.2 454466.0 0
86264.5 455191.0 0
84452.4 457999.0 0
90411.5 456810.0 0
95333.1 452967.0 0
97235.4 455293.0 0
94645.1 455012.0 0
102170.0 455992.0 0
104592.0 453127.0 0
107557.0 454737.0 0
105355.0 457425.0 0
112634.0 455263.0 0
110043.0 456306.0 0
117220.0 454608.0 0
114622.0 457244.0 0
121472.0 453126.0 0
119925.0 456685.0 0
127842.0 452930.0 0
124233.0 455026.0 0
127528.0 456412.0 0
133925.0 452703.0 0
130652.0 455360.0 0
137748.0 454002.0 0
134588.0 456787.0 0
137228.0 456708.0 0
141269.0 455536.0 0
144390.0 452851.0 0
146731.0 455692.0 0
150427.0 453579.0 0
151759.0 457270.0 0
155058.0 452551.0 0
155493.0 456698.0 0
159544.0 454653.0 0
163250.0 452887.0 0
162812.0 456581.0 0
166115.0 455307.0 0
170213.0 454550.0 0
174112.0 454267.0 0
179002.0 455413.0 0
183862.0 454232.0 0
187703.0 455003.0 0
188659.0 457866.0 0
190972.0 452659.0 0
191519.0 456146.0 0
194487.0 454205.0 0
197561.0 452911.0 0
198700.0 456412.0 0
201190.0 454075.0 0
205287.0 454722.0 0
209052.0 456541.0 0
210033.0 452388.0 0
212308.0 455126.0 0
215238.0 455577.0 0
218860.0 456085.0 0
221716.0 452898.0 0
222681.0 456358.0 0
225726.0 452245.0 0
230164.0 454093.0 0
233969.0 456286.0 0
236952.0 452995.0 0
241187.0 451932.0 0
242340.0 456658.0 0
245313.0 454423.0 0
249260.0 452242.0 0
252617.0 455622.0 0
256601.0 454323.0 0
260203.0 453626.0 0
263769.0 456216.0 0
267164.0 452977.0 0
271449.0 454035.0 0
275770.0 453597.0 0
279264.0 452862.0 0
282477.0 454512.0 0
287485.0 452352.0 0
285919.0 455343.0 0
288958.0 455154.0 0
291169.0 452481.0 0
297299.0 456041.0 0
298989.0 452940.0 0
302451.0 452418.0 0
301003.0 456213.0 0
303631.0 456058.0 0
305735.0 454955.0 0
309356.0 453652.0 0
313213.0 454614.0 0
315384.0 456564.0 0
316080.0 453866.0 0
318091.0 456513.0 0
318881.0 453970.0 0
324601.0 452725.0 0
321831.0 455911.0 0
328995.0 452760.0 0
325464.0 456801.0 0
328679.0 456984.0 0
333931.0 453028.0 0
331778.0 456134.0 0
338283.0 454644.0 0
341755.0 454620.0 0
342346.0 457174.0 0
344877.0 455679.0 0
347915.0 453132.0 0
355016.0 453242.0 0
351521.0 455259.0 0
358886.0 453261.0 0
360092.0 456011.0 0
362542.0 454225.0 0
365426.0 454072.0 0
363801.0 456991.0 0
366551.0 456530.0 0
369618.0 454936.0 0
372691.0 454203.0 0
374469.0 457407.0 0
376872.0 455089.0 0
378992.0 453031.0 0
379451.0 457361.0 0
385066.0 454182.0 0
382044.0 455954.0 0
390251.0 453741.0 0
387422.0 456752.0 0
395559.0 454505.0 0
392631.0 456346.0 0
400707.0 454053.0 0
397582.0 457003.0 0
401412.0 457817.0 0
404988.0 455916.0 0
407292.0 454450.0 0
409747.0 456279.0 0
411969.0 454484.0 0
415343.0 456408.0 0
418236.0 455124.0 0
420285.0 456611.0 0
422531.0 454480.0 0
424900.0 456688.0 0
427892.0 457359.0 0
65350.2 461678.0 0
71108.1 458604.0 0
68029.5 459854.0 0
71701.6 461512.0 0
74841.7 459946.0 0
77691.4 459611.0 0
76267.7 461377.0 0
80718.3 460322.0 0
78381.8 462779.0 0
83100.1 462077.0 0
87113.6 460712.0 0
90454.0 462586.0 0
93612.5 459655.0 0
96803.2 458235.0 0
99817.4 459421.0 0
103094.0 460307.0 0
98340.4 462642.0 0
107491.0 460012.0 0
104456.0 461908.0 0
110112.0 458835.0 0
112598.0 460055.0 0
116831.0 458744.0 0
114541.0 461884.0 0
117497.0 461291.0 0
121494.0 460411.0 0
124235.0 458117.0 0
127149.0 459326.0 0
124652.0 462398.0 0
131326.0 458949.0 0
135670.0 460988.0 0
139412.0 458928.0 0
143922.0 457693.0 0
141945.0 461006.0 0
148320.0 458701.0 0
145493.0 460652.0 0
149921.0 461462.0 0
153009.0 460733.0 0
159168.0 458646.0 0
156075.0 460621.0 0
162634.0 460206.0 0
166574.0 459004.0 0
169836.0 457560.0 0
169522.0 461965.0 0
173216.0 459019.0 0
176355.0 457399.0 0
175307.0 461902.0 0
177919.0 459950.0 0
181670.0 458012.0 0
180482.0 462128.0 0
183448.0 460724.0 0
185297.0 457710.0 0
187461.0 461971.0 0
191980.0 459775.0 0
195399.0 457473.0 0
194999.0 461819.0 0
198442.0 459873.0 0
201311.0 461168.0 0
201766.0 457878.0 0
205807.0 460585.0 0
211737.0 459599.0 0
216167.0 459862.0 0
220371.0 460891.0 0
224348.0 459989.0 0
226888.0 456838.0 0
227408.0 461694.0 0
230078.0 458797.0 0
232592.0 460293.0 0
238649.0 456933.0 0
235901.0 461668.0 0
240729.0 461199.0 0
244756.0 459609.0 0
248700.0 457514.0 0
251982.0 460595.0 0
255570.0 458680.0 0
258608.0 461691.0 0
259770.0 457606.0 0
262885.0 461651.0 0
268197.0 456846.0 0
266286.0 459956.0 0
270920.0 457768.0 0
274436.0 458206.0 0
279244.0 457362.0 0
277580.0 461003.0 0
283921.0 459133.0 0
288224.0 458457.0 0
292870.0 457050.0 0
291033.0 461609.0 0
297327.0 459623.0 0
301020.0 459866.0 0
304914.0 458750.0 0
307941.0 457409.0 0
308351.0 461258.0 0
311712.0 458431.0 0
320533.0 458750.0 0
316503.0 460459.0 0
320936.0 462086.0 0
323900.0 460359.0 0
327510.0 460408.0 0
335482.0 457816.0 0
331960.0 460809.0 0
336897.0 462310.0 0
339597.0 459390.0 0
343247.0 460610.0 0
345428.0 459263.0 0
348211.0 457421.0 0
348443.0 461554.0 0
352212.0 459071.0 0
354956.0 462152.0 0
356598.0 457800.0 0
360469.0 460389.0 0
357781.0 461917.0 0
361606.0 457938.0 0
363791.0 459667.0 0
365923.0 462673.0 0
367371.0 459583.0 0
370078.0 462015.0 0
371015.0 458507.0 0
373393.0 461722.0 0
377828.0 460776.0 0
384204.0 458113.0 0
385928.0 459850.0 0
382469.0 460315.0 0
390053.0 458851.0 0
394205.0 458885.0 0
392970.0 461018.0 0
395509.0 462106.0 0
396667.0 459892.0 0
399482.0 461570.0 0
403832.0 460179.0 0
402311.0 462941.0 0
407456.0 458817.0 0
410401.0 460947.0 0
406421.0 462066.0 0
412238.0 458666.0 0
413124.0 463091.0 0
414244.0 460868.0 0
416944.0 459605.0 0
419294.0 458489.0 0
421728.0 458654.0 0
418538.0 462562.0 0
425309.0 460388.0 0
422106.0 461597.0 0
430120.0 459293.0 0
428077.0 462094.0 0
433022.0 461029.0 0
435558.0 462395.0 0
56559.7 467413.0 0
59589.3 465598.0 0
62596.3 464052.0 0
65048.0 466007.0 0
67254.5 468081.0 0
68293.0 463514.0 0
70781.6 466661.0 0
73526.5 463783.0 0
75973.3 465135.0 0
74200.5 468280.0 0
77866.5 466562.0 0
79940.7 464432.0 0
83113.6 465295.0 0
80188.4 466862.0 0
86811.9 464744.0 0
86720.7 467832.0 0
89357.6 465452.0 0
92078.9 464626.0 0
92866.5 467652.0 0
95137.3 462951.0 0
96018.4 466355.0 0
99019.0 465792.0 0
101653.0 463339.0 0
102992.0 465689.0 0
106445.0 463681.0 0
106803.0 467045.0 0
110122.0 463198.0 0
112979.0 464284.0 0
109962.0 466956.0 0
117332.0 464142.0 0
115075.0 466365.0 0
118917.0 466296.0 0
120609.0 464139.0 0
120552.0 467161.0 0
123003.0 465768.0 0
125596.0 464802.0 0
128445.0 462728.0 0
125381.0 467340.0 0
127447.0 465733.0 0
132122.0 464058.0 0
129416.0 467259.0 0
133168.0 467638.0 0
138800.0 463446.0 0
135964.0 465476.0 0
139025.0 467055.0 0
142716.0 464983.0 0
147353.0 464364.0 0
151976.0 463621.0 0
151151.0 465882.0 0
158851.0 462715.0 0
154949.0 464313.0 0
157710.0 466563.0 0
161683.0 463129.0 0
161125.0 465413.0 0
165186.0 464017.0 0
168700.0 467108.0 0
172757.0 464047.0 0
176980.0 464754.0 0
183273.0 463370.0 0
180947.0 465731.0 0
185001.0 466062.0 0
189213.0 466958.0 0
191635.0 463545.0 0
193936.0 466138.0 0
198323.0 464327.0 0
202350.0 464334.0 0
205596.0 466395.0 0
209327.0 464164.0 0
213483.0 463661.0 0
217190.0 464132.0 0
220556.0 465721.0 0
223849.0 463555.0 0
227056.0 465655.0 0
231082.0 463600.0 0
234573.0 466681.0 0
238767.0 465465.0 0
243434.0 464865.0 0
247805.0 463166.0 0
251895.0 465264.0 0
258230.0 465314.0 0
255139.0 463195.0 0
261116.0 465139.0 0
264045.0 466912.0 0
266278.0 464051.0 0
270236.0 461941.0 0
272533.0 466060.0 0
274631.0 463069.0 0
275173.0 466651.0 0
278116.0 464825.0 0
280625.0 462027.0 0
281583.0 466869.0 0
283453.0 463453.0 0
285232.0 466699.0 0
287487.0 463277.0 0
294688.0 462208.0 0
291585.0 466231.0 0
295685.0 466221.0 0
299237.0 463633.0 0
304402.0 463075.0 0
301978.0 465925.0 0
308794.0 465769.0 0
312558.0 463536.0 0
316159.0 465020.0 0
319063.0 464147.0 0
319178.0 467395.0 0
323279.0 465363.0 0
326593.0 463636.0 0
329895.0 464845.0 0
334337.0 465472.0 0
338481.0 466385.0 0
341182.0 463362.0 0
345478.0 463845.0 0
343206.0 467715.0 0
349329.0 467346.0 0
351812.0 463385.0 0
355619.0 464463.0 0
353856.0 466193.0 0
357139.0 467438.0 0
358543.0 464596.0 0
362367.0 463940.0 0
368460.0 465216.0 0
373222.0 465880.0 0
377334.0 464849.0 0
380726.0 466559.0 0
381336.0 463316.0 0
384761.0 463259.0 0
384374.0 467372.0 0
389233.0 462981.0 0
388221.0 466877.0 0
391191.0 467788.0 0
393592.0 465204.0 0
397753.0 464399.0 0
400857.0 465932.0 0
404890.0 464044.0 0
404530.0 467350.0 0
407960.0 465684.0 0
409084.0 463425.0 0
409860.0 467515.0 0
411718.0 465087.0 0
415804.0 464157.0 0
413251.0 467417.0 0
415652.0 466454.0 0
419813.0 466563.0 0
426573.0 465236.0 0
423123.0 464929.0 0
431390.0 463934.0 0
429635.0 467113.0 0
433663.0 465602.0 0
436275.0 465975.0 0
438264.0 463869.0 0
440712.0 466005.0 0
439157.0 468317.0 0
443565.0 467205.0 0
47335.5 472794.0 0
50763.1 471360.0 0
53782.1 469423.0 0
54700.5 472030.0 0
56991.3 472840.0 0
57950.4 470220.0 0
60709.3 468610.0 0
60500.7 472028.0 0
63264.1 469078.0 0
65886.3 471126.0 0
62902.8 473269.0 0
69880.4 470560.0 0
77054.4 469543.0 0
73101.2 471876.0 0
76931.8 472928.0 0
80455.2 469968.0 0
81795.9 472778.0 0
83861.6 468556.0 0
84854.9 471457.0 0
87592.2 471120.0 0
89718.4 468688.0 0
91140.5 471738.0 0
96856.1 468841.0 0
94183.4 470759.0 0
98149.5 471609.0 0
99425.3 468403.0 0
102352.0 468810.0 0
100897.0 471384.0 0
105663.0 470634.0 0
112674.0 468244.0 0
109843.0 471029.0 0
113778.0 471088.0 0
117455.0 469397.0 0
122085.0 469674.0 0
118766.0 472776.0 0
126447.0 470727.0 0
130744.0 470442.0 0
136197.0 468528.0 0
138200.0 470418.0 0
134214.0 470650.0 0
136345.0 472264.0 0
141728.0 470057.0 0
145405.0 468520.0 0
145795.0 471898.0 0
148130.0 472109.0 0
153637.0 468452.0 0
149131.0 469028.0 0
150717.0 472240.0 0
154001.0 472077.0 0
157399.0 470030.0 0
160466.0 468578.0 0
163620.0 468053.0 0
160989.0 471689.0 0
165499.0 470919.0 0
173291.0 467971.0 0
169778.0 471529.0 0
173589.0 472050.0 0
177990.0 469696.0 0
182716.0 469272.0 0
184743.0 471973.0 0
186134.0 469063.0 0
187855.0 471355.0 0
191331.0 470236.0 0
197492.0 467940.0 0
194938.0 469826.0 0
197972.0 472065.0 0
201230.0 468703.0 0
204980.0 470902.0 0
208500.0 468624.0 0
208176.0 471998.0 0
211350.0 467128.0 0
211769.0 471100.0 0
214773.0 467409.0 0
216015.0 471446.0 0
218136.0 467980.0 0
223736.0 467428.0 0
221061.0 471381.0 0
226142.0 470064.0 0
230163.0 468313.0 0
233203.0 471469.0 0
237431.0 470289.0 0
240634.0 467758.0 0
243457.0 468734.0 0
241045.0 471015.0 0
247823.0 469062.0 0
252546.0 469486.0 0
255781.0 467282.0 0
259867.0 468853.0 0
263211.0 471870.0 0
269174.0 467042.0 0
266714.0 470139.0 0
269962.0 471575.0 0
273362.0 469922.0 0
277676.0 469042.0 0
281110.0 470944.0 0
285125.0 470416.0 0
288162.0 467710.0 0
290123.0 470853.0 0
294892.0 470248.0 0
299027.0 468150.0 0
301956.0 468408.0 0
302554.0 471114.0 0
305601.0 467908.0 0
306150.0 472077.0 0
311934.0 467347.0 0
315105.0 468485.0 0
310792.0 471659.0 0
318533.0 471680.0 0
322552.0 470288.0 0
327741.0 469161.0 0
332334.0 468457.0 0
332962.0 472189.0 0
335842.0 469554.0 0
339796.0 470769.0 0
342652.0 472136.0 0
346154.0 470887.0 0
349072.0 472709.0 0
351729.0 471478.0 0
354222.0 469395.0 0
360806.0 467804.0 0
358553.0 470907.0 0
365072.0 467865.0 0
362698.0 470795.0 0
369929.0 469527.0 0
366796.0 471875.0 0
375783.0 468890.0 0
373767.0 471074.0 0
377873.0 468479.0 0
380316.0 470033.0 0
377717.0 471924.0 0
382856.0 471625.0 0
386351.0 470911.0 0
388935.0 470063.0 0
395661.0 468585.0 0
392255.0 470428.0 0
395036.0 472340.0 0
399066.0 468951.0 0
402782.0 471064.0 0
407427.0 470028.0 0
411379.0 470464.0 0
407666.0 473127.0 0
414466.0 469928.0 0
415306.0 472146.0 0
417085.0 468742.0 0
421465.0 469665.0 0
418178.0 471099.0 0
421764.0 472831.0 0
425463.0 469323.0 0
424562.0 473223.0 0
428726.0 472377.0 0
432133.0 469717.0 0
436126.0 469051.0 0
437110.0 471620.0 0
434157.0 472858.0 0
440600.0 471247.0 0
443653.0 470256.0 0
446615.0 469363.0 0
445211.0 472992.0 0
449111.0 471659.0 0
452378.0 473311.0 0
41484.9 476024.0 0
39212.8 478593.0 0
44783.0 475068.0 0
47029.8 477040.0 0
43000.7 478275.0 0
49569.2 474735.0 0
50450.3 477655.0 0
52868.2 474003.0 0
55790.6 475036.0 0
57281.2 476709.0 0
53438.7 476878.0 0
58979.3 474147.0 0
60678.9 476755.0 0
65142.3 475367.0 0
64175.5 478321.0 0
68149.1 474310.0 0
71171.6 474799.0 0
71806.9 477745.0 0
74790.6 475675.0 0
76726.4 478071.0 0
79085.0 474463.0 0
80091.0 477539.0 0
85525.5 473828.0 0
83126.9 475432.0 0
86187.1 477172.0 0
88497.8 473987.0 0
91781.2 474281.0 0
90083.6 477050.0 0
94956.6 473937.0 0
94179.3 477814.0 0
98793.0 475119.0 0
102214.0 473342.0 0
102196.0 476878.0 0
105817.0 474673.0 0
110335.0 475444.0 0
115127.0 474647.0 0
122218.0 473929.0 0
118905.0 476666.0 0
126613.0 475590.0 0
129642.0 473458.0 0
130373.0 477457.0 0
132711.0 473860.0 0
139443.0 473581.0 0
136176.0 475620.0 0
139391.0 477469.0 0
142978.0 474303.0 0
143131.0 477827.0 0
147459.0 475780.0 0
152263.0 475558.0 0
156947.0 473873.0 0
159913.0 475853.0 0
163098.0 474542.0 0
166793.0 475028.0 0
171072.0 476099.0 0
176675.0 475198.0 0
181281.0 473188.0 0
181175.0 476702.0 0
185823.0 476144.0 0
189753.0 474097.0 0
193579.0 473831.0 0
196889.0 476522.0 0
201726.0 474097.0 0
206217.0 475118.0 0
209723.0 474538.0 0
213362.0 475760.0 0
217757.0 475243.0 0
224920.0 474319.0 0
229033.0 472691.0 0
228187.0 476120.0 0
231753.0 475649.0 0
236161.0 475160.0 0
240349.0 474847.0 0
244276.0 473019.0 0
247631.0 475188.0 0
251370.0 473577.0 0
254225.0 476759.0 0
256043.0 472094.0 0
257955.0 475905.0 0
259788.0 473181.0 0
262021.0 476923.0 0
267123.0 475323.0 0
272314.0 474715.0 0
277171.0 473769.0 0
282672.0 475262.0 0
287182.0 473780.0 0
290508.0 475853.0 0
293315.0 473775.0 0
299326.0 472432.0 0
296699.0 475154.0 0
300778.0 476892.0 0
303567.0 474832.0 0
307236.0 475394.0 0
315322.0 472585.0 0
314765.0 476162.0 0
318111.0 475137.0 0
325185.0 473721.0 0
321499.0 474907.0 0
329646.0 474622.0 0
334332.0 476777.0 0
336952.0 473489.0 0
338466.0 476868.0 0
340727.0 474599.0 0
344957.0 475052.0 0
348428.0 475422.0 0
355340.0 472845.0 0
352273.0 475912.0 0
356833.0 475841.0 0
360056.0 474596.0 0
363632.0 474005.0 0
363907.0 477541.0 0
370524.0 472926.0 0
366765.0 475262.0 0
369846.0 475332.0 0
373941.0 474581.0 0
380936.0 474273.0 0
377418.0 475831.0 0
386517.0 474778.0 0
383349.0 476988.0 0
390518.0 473619.0 0
390408.0 477657.0 0
394015.0 475902.0 0
398992.0 473827.0 0
397777.0 478425.0 0
404555.0 474268.0 0
402186.0 477131.0 0
405985.0 477811.0 0
407627.0 475623.0 0
411602.0 474089.0 0
409970.0 477773.0 0
415953.0 476091.0 0
418972.0 473994.0 0
421236.0 476167.0 0
424475.0 476620.0 0
429100.0 476932.0 0
433175.0 475696.0 0
437147.0 474414.0 0
436268.0 478199.0 0
440429.0 474709.0 0
443657.0 474770.0 0
444904.0 477686.0 0
448152.0 475378.0 0
452420.0 475989.0 0
450059.0 478529.0 0
455435.0 474297.0 0
457721.0 476956.0 0
35927.1 479909.0 0
33300.7 483165.0 0
37209.0 482737.0 0
40062.4 481873.0 0
43197.9 481458.0 0
46211.3 480032.0 0
47094.3 483254.0 0
50568.3 480988.0 0
55421.5 479885.0 0
59460.0 480281.0 0
63171.4 481349.0 0
66528.2 482273.0 0
68189.3 478551.0 0
70084.4 481956.0 0
73499.6 480728.0 0
77201.3 481643.0 0
80258.2 481047.0 0
83344.0 479300.0 0
87660.2 479908.0 0
84466.1 481952.0 0
90978.2 480663.0 0
87950.7 482984.0 0
98072.8 479264.0 0
94453.1 482137.0 0
102175.0 481053.0 0
105928.0 478237.0 0
106463.0 481262.0 0
109278.0 479435.0 0
111082.0 481451.0 0
114581.0 479605.0 0
117970.0 483169.0 0
119306.0 479950.0 0
122929.0 478614.0 0
126594.0 480449.0 0
133703.0 477181.0 0
130578.0 481430.0 0
135438.0 480380.0 0
140771.0 481101.0 0
145395.0 480100.0 0
150083.0 479703.0 0
153601.0 481390.0 0
155436.0 478200.0 0
156809.0 482022.0 0
163267.0 478472.0 0
159247.0 479287.0 0
167207.0 478551.0 0
165297.0 482171.0 0
169612.0 480899.0 0
173624.0 479541.0 0
178109.0 479788.0 0
182542.0 480159.0 0
186662.0 481083.0 0
191439.0 478641.0 0
196444.0 481382.0 0
203763.0 477529.0 0
200394.0 478665.0 0
203629.0 481260.0 0
209202.0 478081.0 0
206133.0 479030.0 0
212518.0 480690.0 0
216555.0 479106.0 0
219078.0 481623.0 0
221147.0 477490.0 0
225579.0 478718.0 0
229694.0 479235.0 0
234190.0 479435.0 0
239386.0 479885.0 0
243881.0 477695.0 0
247229.0 479223.0 0
249290.0 482107.0 0
250480.0 478184.0 0
252930.0 481203.0 0
257568.0 480243.0 0
261611.0 481416.0 0
265376.0 480393.0 0
270678.0 480019.0 0
275070.0 477811.0 0
279133.0 479052.0 0
283400.0 481150.0 0
286996.0 478448.0 0
291084.0 480809.0 0
294181.0 478045.0 0
297809.0 478847.0 0
301059.0 481397.0 0
305587.0 479291.0 0
309964.0 481800.0 0
310586.0 477449.0 0
314475.0 480553.0 0
319606.0 479367.0 0
325358.0 478484.0 0
330306.0 478761.0 0
328933.0 482096.0 0
333521.0 480998.0 0
337839.0 480594.0 0
342489.0 478999.0 0
347868.0 478877.0 0
346186.0 481968.0 0
349671.0 482662.0 0
351552.0 480133.0 0
353984.0 482834.0 0
356030.0 479430.0 0
360276.0 478605.0 0
363848.0 481303.0 0
368148.0 479058.0 0
372903.0 478437.0 0
372363.0 482795.0 0
376200.0 482408.0 0
376787.0 479191.0 0
380231.0 478533.0 0
380348.0 482126.0 0
383971.0 480790.0 0
387137.0 479270.0 0
387503.0 482919.0 0
390218.0 481149.0 0
393892.0 480295.0 0
401119.0 480403.0 0
398172.0 482137.0 0
404583.0 480854.0 0
408497.0 481400.0 0
413423.0 478442.0 0
416505.0 480355.0 0
412770.0 481514.0 0
419569.0 478688.0 0
419357.0 482729.0 0
423068.0 480728.0 0
427061.0 481293.0 0
432368.0 480528.0 0
430053.0 483134.0 0
436490.0 482033.0 0
440860.0 478805.0 0
440534.0 483333.0 0
444213.0 481744.0 0
447167.0 480467.0 0
448541.0 483683.0 0
451671.0 482249.0 0
454654.0 479159.0 0
456774.0 482784.0 0
459857.0 481441.0 0
460987.0 478829.0 0
462961.0 483468.0 0
464449.0 480745.0 0
467641.0 482487.0 0
20604.2 489537.0 0
25893.8 486279.0 0
29348.8 485260.0 0
37177.1 485878.0 0
33432.7 488283.0 0
40700.9 485483.0 0
37599.4 489024.0 0
40559.3 488858.0 0
44170.3 484310.0 0
44923.2 487964.0 0
48437.2 486137.0 0
51186.1 484321.0 0
55063.5 483762.0 0
52296.1 487345.0 0
56966.1 487877.0 0
59734.0 484213.0 0
61417.3 488376.0 0
63506.9 485420.0 0
67304.4 485658.0 0
70556.7 484983.0 0
69532.3 488638.0 0
73735.5 483943.0 0
76996.1 485206.0 0
73127.0 487234.0 0
81279.3 484431.0 0
85425.8 484770.0 0
83881.6 487546.0 0
91310.1 484445.0 0
87991.4 486298.0 0
97781.4 483773.0 0
94422.8 486934.0 0
101036.0 484877.0 0
98990.1 487146.0 0
101677.0 486848.0 0
104626.0 484736.0 0
104093.0 487648.0 0
107794.0 487426.0 0
108785.0 483882.0 0
113312.0 485576.0 0
122640.0 483306.0 0
118700.0 487040.0 0
123126.0 487944.0 0
127028.0 484314.0 0
131934.0 485166.0 0
137132.0 484409.0 0
143531.0 482851.0 0
141034.0 484547.0 0
143661.0 486382.0 0
146998.0 483295.0 0
151023.0 483917.0 0
153396.0 487114.0 0
154501.0 483947.0 0
157099.0 485416.0 0
160623.0 482960.0 0
159728.0 487060.0 0
163306.0 486308.0 0
168338.0 485690.0 0
171960.0 482979.0 0
172477.0 486477.0 0
175179.0 482977.0 0
176184.0 486058.0 0
179576.0 483947.0 0
183609.0 483538.0 0
182444.0 487481.0 0
189462.0 483381.0 0
186517.0 485714.0 0
192607.0 483429.0 0
195416.0 486146.0 0
198947.0 485032.0 0
200418.0 482432.0 0
203066.0 485850.0 0
207607.0 483046.0 0
211704.0 485345.0 0
216001.0 483646.0 0
222696.0 482287.0 0
219874.0 486200.0 0
224322.0 486903.0 0
227031.0 483014.0 0
228651.0 487002.0 0
231383.0 483247.0 0
235890.0 483852.0 0
240485.0 485377.0 0
244675.0 482746.0 0
248316.0 486564.0 0
251673.0 484745.0 0
255165.0 484829.0 0
259380.0 484528.0 0
263327.0 484370.0 0
267477.0 484570.0 0
272243.0 485700.0 0
275764.0 482422.0 0
276761.0 487364.0 0
280084.0 484364.0 0
284343.0 485791.0 0
287462.0 483125.0 0
287766.0 486797.0 0
291631.0 485589.0 0
295979.0 482521.0 0
295589.0 486904.0 0
300204.0 486198.0 0
305856.0 485218.0 0
312886.0 483831.0 0
310567.0 485841.0 0
315341.0 483945.0 0
318069.0 483469.0 0
320263.0 486440.0 0
323925.0 483545.0 0
328825.0 486538.0 0
332839.0 484727.0 0
336971.0 484520.0 0
342057.0 484204.0 0
347174.0 485625.0 0
351637.0 485794.0 0
355419.0 485731.0 0
359640.0 483400.0 0
358483.0 487623.0 0
364935.0 485537.0 0
367802.0 483065.0 0
370217.0 486635.0 0
375375.0 487439.0 0
377987.0 484760.0 0
380689.0 486508.0 0
384421.0 484333.0 0
391461.0 484634.0 0
388047.0 486762.0 0
395314.0 483589.0 0
394758.0 487052.0 0
398104.0 485990.0 0
402089.0 484310.0 0
406685.0 484527.0 0
404693.0 488324.0 0
411284.0 484948.0 0
409133.0 487826.0 0
411841.0 487756.0 0
415879.0 483973.0 0
414738.0 487491.0 0
419409.0 486953.0 0
422939.0 484695.0 0
426441.0 485021.0 0
427868.0 488365.0 0
430734.0 486326.0 0
433563.0 483908.0 0
436198.0 484970.0 0
434208.0 487769.0 0
438525.0 487591.0 0
445138.0 484929.0 0
442794.0 487840.0 0
447119.0 487761.0 0
450439.0 487012.0 0
453714.0 485306.0 0
455896.0 488752.0 0
459929.0 486266.0 0
465659.0 484530.0 0
464280.0 487411.0 0
467206.0 485637.0 0
467235.0 487948.0 0
470649.0 485253.0 0
474537.0 487298.0 0
478013.0 488112.0 0
11168.1 494586.0 0
18091.4 491671.0 0
23433.1 488360.0 0
21471.0 492315.0 0
25284.5 492419.0 0
27274.2 488944.0 0
29743.3 489671.0 0
29226.3 492640.0 0
35964.0 492001.0 0
32256.0 492252.0 0
39450.5 492388.0 0
43583.5 491775.0 0
49096.5 489920.0 0
47421.8 493127.0 0
53398.1 491457.0 0
58929.6 491368.0 0
62131.3 491068.0 0
65338.2 489350.0 0
72419.6 490591.0 0
68572.6 491752.0 0
71583.7 493719.0 0
75971.0 489129.0 0
75950.0 492520.0 0
79713.8 488966.0 0
79988.1 492333.0 0
87000.7 489264.0 0
83532.1 491157.0 0
87606.3 492757.0 0
90448.9 488659.0 0
92017.0 491918.0 0
96797.0 490802.0 0
101356.0 489453.0 0
101026.0 492986.0 0
105382.0 490647.0 0
110742.0 490025.0 0
115411.0 489869.0 0
119419.0 491544.0 0
127453.0 488349.0 0
124393.0 491955.0 0
128603.0 492480.0 0
131221.0 489191.0 0
133052.0 492504.0 0
135329.0 488534.0 0
137747.0 491853.0 0
139730.0 487988.0 0
142794.0 491068.0 0
148246.0 487996.0 0
152271.0 491354.0 0
156651.0 489238.0 0
161100.0 490892.0 0
165663.0 489759.0 0
170203.0 491739.0 0
174423.0 489406.0 0
178233.0 488788.0 0
180752.0 492167.0 0
185883.0 491083.0 0
190572.0 487811.0 0
194836.0 490929.0 0
198968.0 488649.0 0
202513.0 490910.0 0
207523.0 489096.0 0
211692.0 489009.0 0
212067.0 492249.0 0
215711.0 488608.0 0
219899.0 491379.0 0
223282.0 490439.0 0
226777.0 490717.0 0
232645.0 487313.0 0
230177.0 490113.0 0
233645.0 491581.0 0
236815.0 488373.0 0
240600.0 489853.0 0
244227.0 488301.0 0
247740.0 491936.0 0
252458.0 488960.0 0
257298.0 488339.0 0
255805.0 492283.0 0
264719.0 488051.0 0
261139.0 487610.0 0
260645.0 491738.0 0
265405.0 492502.0 0
268996.0 489183.0 0
273491.0 490649.0 0
277403.0 491438.0 0
281485.0 489650.0 0
286124.0 490164.0 0
289696.0 489419.0 0
293456.0 490634.0 0
297641.0 489678.0 0
301370.0 491104.0 0
303458.0 488760.0 0
305535.0 490698.0 0
309302.0 489667.0 0
315100.0 488271.0 0
319661.0 490851.0 0
324537.0 489465.0 0
329404.0 491450.0 0
334495.0 489582.0 0
339414.0 488222.0 0
344449.0 489956.0 0
349823.0 489358.0 0
352645.0 492887.0 0
354672.0 489677.0 0
359484.0 491641.0 0
362507.0 488251.0 0
363694.0 491772.0 0
367373.0 490073.0 0
371968.0 490630.0 0
375772.0 491874.0 0
380035.0 491057.0 0
384487.0 488361.0 0
384556.0 491901.0 0
388025.0 490500.0 0
391903.0 489301.0 0
400553.0 488840.0 0
396684.0 490905.0 0
402429.0 492466.0 0
407593.0 491712.0 0
412495.0 491277.0 0
420868.0 490835.0 0
417498.0 490745.0 0
423821.0 488808.0 0
423744.0 492432.0 0
427198.0 492166.0 0
430931.0 490546.0 0
434895.0 491005.0 0
438416.0 491039.0 0
441826.0 491888.0 0
445868.0 491006.0 0
449285.0 490912.0 0
452158.0 490204.0 0
448591.0 493829.0 0
455086.0 492595.0 0
460490.0 490441.0 0
458036.0 492185.0 0
464079.0 490727.0 0
467034.0 491200.0 0
470499.0 489924.0 0
472571.0 493961.0 0
474705.0 491319.0 0
478136.0 491404.0 0
480716.0 490220.0 0
483267.0 492650.0 0
486589.0 493653.0 0
9202.74 496618.0 0
6812.71 498453.0 0
11855.5 498047.0 0
15093.8 494614.0 0
15893.5 498809.0 0
19601.7 495092.0 0
19598.6 498262.0 0
22180.6 495059.0 0
23476.2 497637.0 0
27052.4 496096.0 0
30617.8 496030.0 0
34299.1 494881.0 0
34405.3 498162.0 0
37906.4 495838.0 0
41438.4 498506.0 0
41703.2 495008.0 0
44888.4 495853.0 0
45341.5 498936.0 0
50696.5 494205.0 0
48725.9 497203.0 0
53282.2 496610.0 0
56375.9 494029.0 0
60487.5 494461.0 0
57580.6 497378.0 0
61929.7 497889.0 0
64568.0 493821.0 0
65871.1 498109.0 0
68211.4 494992.0 0
69935.6 497451.0 0
74038.6 496451.0 0
78655.8 495594.0 0
83035.8 494532.0 0
86254.5 496542.0 0
90504.9 496547.0 0
93945.0 494900.0 0
97297.0 495076.0 0
100570.0 497720.0 0
104203.0 494479.0 0
105458.0 497549.0 0
108383.0 493671.0 0
110363.0 497318.0 0
113901.0 493646.0 0
117616.0 495430.0 0
121865.0 495362.0 0
126397.0 495851.0 0
130675.0 496378.0 0
135290.0 496276.0 0
140293.0 495317.0 0
147102.0 493046.0 0
143880.0 495295.0 0
146023.0 496811.0 0
150529.0 496254.0 0
156474.0 494245.0 0
161213.0 495228.0 0
164045.0 497932.0 0
165212.0 493882.0 0
168312.0 496647.0 0
172364.0 496581.0 0
175753.0 493246.0 0
176048.0 497679.0 0
178894.0 495839.0 0
182918.0 496187.0 0
187159.0 495607.0 0
190555.0 493152.0 0
190064.0 497343.0 0
194259.0 496317.0 0
198631.0 493493.0 0
202254.0 495561.0 0
205176.0 493530.0 0
205192.0 496632.0 0
208632.0 494592.0 0
213029.0 497060.0 0
215880.0 493301.0 0
218811.0 496951.0 0
224040.0 494531.0 0
229678.0 494426.0 0
234764.0 495635.0 0
237998.0 492520.0 0
239935.0 496392.0 0
242872.0 492577.0 0
244824.0 495895.0 0
251921.0 493386.0 0
254530.0 496707.0 0
258592.0 495376.0 0
262747.0 496394.0 0
266886.0 496622.0 0
270172.0 493981.0 0
275385.0 496068.0 0
280229.0 494261.0 0
284788.0 494762.0 0
289492.0 493417.0 0
293769.0 495602.0 0
297380.0 493204.0 0
298001.0 497355.0 0
300555.0 494571.0 0
301698.0 497281.0 0
303966.0 494255.0 0
308223.0 494603.0 0
312468.0 492722.0 0
312595.0 497060.0 0
317043.0 494786.0 0
322862.0 494535.0 0
326626.0 493763.0 0
329395.0 495944.0 0
332562.0 493970.0 0
339815.0 493138.0 0
335937.0 494568.0 0
337782.0 497602.0 0
341390.0 497131.0 0
344530.0 495293.0 0
348534.0 493630.0 0
348343.0 497959.0 0
352534.0 496489.0 0
356776.0 495011.0 0
362290.0 495093.0 0
367127.0 495012.0 0
372633.0 494978.0 0
378347.0 495728.0 0
383002.0 495022.0 0
381942.0 498109.0 0
387363.0 494423.0 0
391248.0 493104.0 0
391138.0 498056.0 0
394601.0 494781.0 0
398958.0 495321.0 0
406357.0 495110.0 0
403226.0 497250.0 0
410948.0 496050.0 0
416137.0 494721.0 0
414501.0 498554.0 0
420705.0 494476.0 0
418573.0 498658.0 0
422494.0 498422.0 0
424748.0 495113.0 0
426679.0 498574.0 0
428409.0 495223.0 0
431316.0 498380.0 0
432412.0 494297.0 0
436966.0 494262.0 0
440810.0 495766.0 0
444175.0 497481.0 0
445288.0 494712.0 0
452080.0 494380.0 0
451482.0 497777.0 0
448263.0 497141.0 0
457036.0 495046.0 0
454979.0 497495.0 0
461607.0 494417.0 0
459321.0 497759.0 0
465998.0 494389.0 0
464171.0 497866.0 0
469540.0 494077.0 0
468625.0 497935.0 0
472819.0 497119.0 0
476194.0 495539.0 0
478590.0 498414.0 0
480159.0 494952.0 0
481699.0 498539.0 0
485114.0 497097.0 0
489081.0 495795.0 0
491832.0 497925.0 0
496285.0 500019.0 0
3616.56 500025.0 0
1995.55 502328.0 0
8375.89 501583.0 0
12665.9 501748.0 0
17560.9 502266.0 0
22357.0 502239.0 0
27027.7 500012.0 0
31168.8 499688.0 0
29762.1 502662.0 0
34498.4 502815.0 0
37448.5 499502.0 0
39799.4 502265.0 0
43821.3 502274.0 0
47854.4 501185.0 0
51179.3 499581.0 0
50934.0 502862.0 0
54595.7 500385.0 0
58891.5 501076.0 0
62848.2 500948.0 0
65846.9 501728.0 0
68448.6 500026.0 0
71958.6 500482.0 0
68984.8 502158.0 0
76694.2 499744.0 0
74720.4 502913.0 0
82049.2 499236.0 0
87232.4 500145.0 0
84345.4 503518.0 0
90955.4 500778.0 0
95097.6 498964.0 0
98236.8 502514.0 0
102685.0 501656.0 0
106932.0 501069.0 0
111896.0 501714.0 0
114997.0 498375.0 0
116032.0 502806.0 0
118982.0 499092.0 0
123866.0 499541.0 0
128584.0 499954.0 0
132780.0 499958.0 0
138101.0 499501.0 0
135638.0 503056.0 0
142795.0 499179.0 0
147148.0 500154.0 0
150966.0 500836.0 0
154256.0 498826.0 0
158948.0 499817.0 0
163098.0 502570.0 0
166988.0 500528.0 0
170845.0 500567.0 0
175507.0 501752.0 0
179497.0 499124.0 0
186054.0 500517.0 0
191566.0 500765.0 0
198879.0 497971.0 0
195518.0 500366.0 0
198876.0 502717.0 0
202966.0 499836.0 0
208050.0 499399.0 0
211823.0 501265.0 0
215510.0 500985.0 0
219476.0 502294.0 0
223252.0 499255.0 0
227049.0 497727.0 0
227180.0 501654.0 0
231571.0 499471.0 0
236160.0 499329.0 0
239343.0 501494.0 0
243202.0 499514.0 0
249365.0 497535.0 0
246393.0 501605.0 0
249625.0 502606.0 0
253574.0 501509.0 0
259162.0 500588.0 0
265535.0 501148.0 0
270549.0 498962.0 0
274704.0 502171.0 0
277590.0 499830.0 0
281041.0 498724.0 0
285817.0 500102.0 0
290088.0 497968.0 0
289993.0 502444.0 0
294753.0 500830.0 0
300753.0 501895.0 0
305079.0 498408.0 0
308974.0 499313.0 0
306108.0 502521.0 0
312610.0 500879.0 0
316062.0 500073.0 0
320683.0 499071.0 0
324032.0 502749.0 0
326123.0 498585.0 0
330046.0 499519.0 0
333613.0 498037.0 0
332352.0 501893.0 0
336742.0 502254.0 0
340355.0 500160.0 0
344784.0 500351.0 0
351570.0 499634.0 0
356131.0 500898.0 0
360450.0 498255.0 0
364657.0 498614.0 0
362159.0 502068.0 0
366016.0 501780.0 0
369763.0 499795.0 0
375512.0 499669.0 0
379654.0 500070.0 0
386344.0 498440.0 0
383846.0 502237.0 0
389159.0 502162.0 0
395761.0 498716.0 0
393255.0 502456.0 0
399977.0 499866.0 0
397119.0 502484.0 0
404223.0 501493.0 0
407765.0 498988.0 0
408271.0 502740.0 0
411792.0 501201.0 0
413712.0 504005.0 0
416399.0 501785.0 0
420645.0 501819.0 0
424453.0 502142.0 0
429171.0 501975.0 0
436287.0 498564.0 0
433333.0 501571.0 0
437094.0 503167.0 0
441101.0 500476.0 0
445992.0 500210.0 0
444348.0 503681.0 0
450085.0 500405.0 0
453070.0 500210.0 0
448470.0 503758.0 0
452971.0 503718.0 0
457318.0 501316.0 0
461712.0 500253.0 0
465774.0 501413.0 0
472444.0 500718.0 0
469178.0 502014.0 0
476094.0 499424.0 0
475981.0 503446.0 0
480441.0 502117.0 0
488407.0 499901.0 0
484854.0 501804.0 0
491883.0 501671.0 0
497114.0 503698.0 0
2072.43 505418.0 0
1772.67 508082.0 0
5412.34 503962.0 0
9435.12 504890.0 0
6384.69 508101.0 0
13734.6 505381.0 0
10720.4 507648.0 0
14868.8 509331.0 0
18400.2 506444.0 0
22738.2 506900.0 0
26422.1 504103.0 0
30290.2 506224.0 0
26509.1 507739.0 0
34611.2 508657.0 0
38427.8 505562.0 0
40020.7 508797.0 0
42235.0 505296.0 0
43685.7 508067.0 0
46758.7 505032.0 0
51046.7 506495.0 0
54676.8 504119.0 0
54373.4 507253.0 0
58095.6 504541.0 0
62070.4 505154.0 0
57465.1 507839.0 0
67105.8 505218.0 0
64745.8 508950.0 0
71191.1 504690.0 0
72197.7 507698.0 0
75127.6 506340.0 0
79048.9 503775.0 0
81701.0 506907.0 0
85824.0 507949.0 0
88665.5 504181.0 0
90488.9 507794.0 0
93588.2 504306.0 0
97355.2 506515.0 0
101085.0 506025.0 0
104712.0 505101.0 0
107231.0 507549.0 0
108470.0 504341.0 0
112240.0 507099.0 0
117322.0 507648.0 0
120604.0 503395.0 0
122649.0 508186.0 0
125830.0 503969.0 0
130878.0 504523.0 0
134785.0 507228.0 0
137861.0 506203.0 0
140051.0 503216.0 0
141067.0 506986.0 0
144069.0 503604.0 0
144823.0 507228.0 0
148965.0 504984.0 0
154243.0 503302.0 0
158538.0 505764.0 0
163066.0 506247.0 0
167200.0 504738.0 0
171545.0 505099.0 0
176126.0 507244.0 0
180726.0 503263.0 0
185017.0 505252.0 0
189278.0 504813.0 0
192465.0 507720.0 0
194333.0 504000.0 0
197236.0 507514.0 0
202585.0 506443.0 0
205400.0 502870.0 0
207114.0 507656.0 0
208933.0 504144.0 0
210402.0 507537.0 0
213420.0 504786.0 0
217497.0 506213.0 0
221869.0 507253.0 0
223425.0 503353.0 0
226482.0 506002.0 0
230790.0 504689.0 0
235083.0 503259.0 0
238744.0 506144.0 0
243010.0 504154.0 0
247260.0 506716.0 0
251665.0 505859.0 0
256508.0 506712.0 0
262217.0 505967.0 0
266883.0 506057.0 0
270384.0 503980.0 0
274380.0 507005.0 0
278895.0 502779.0 0
279157.0 507193.0 0
283188.0 507086.0 0
282552.0 503527.0 0
286474.0 505241.0 0
289653.0 505544.0 0
293243.0 505864.0 0
298180.0 507381.0 0
303740.0 506671.0 0
310232.0 503281.0 0
308002.0 506333.0 0
314362.0 504026.0 0
311826.0 506977.0 0
319102.0 504490.0 0
323785.0 506824.0 0
328575.0 503334.0 0
328345.0 508056.0 0
333340.0 506322.0 0
338538.0 507280.0 0
341566.0 503925.0 0
343139.0 507780.0 0
345385.0 504693.0 0
349828.0 503304.0 0
347054.0 507667.0 0
350973.0 507955.0 0
355679.0 506633.0 0
359783.0 504859.0 0
365411.0 504528.0 0
363050.0 505982.0 0
368630.0 504575.0 0
366608.0 507331.0 0
373271.0 504380.0 0
378903.0 504498.0 0
383397.0 506134.0 0
387386.0 505389.0 0
391568.0 505857.0 0
396643.0 506672.0 0
400956.0 504316.0 0
405685.0 505953.0 0
410604.0 506089.0 0
415752.0 504586.0 0
415184.0 507699.0 0
418745.0 504762.0 0
422570.0 505042.0 0
420041.0 508426.0 0
427071.0 505262.0 0
432699.0 505755.0 0
437479.0 507356.0 0
441031.0 504893.0 0
441550.0 508521.0 0
445444.0 507494.0 0
450185.0 507549.0 0
457482.0 505787.0 0
453941.0 507399.0 0
462532.0 504420.0 0
461017.0 508952.0 0
467562.0 505164.0 0
465633.0 508387.0 0
471774.0 504670.0 0
470700.0 508497.0 0
475049.0 507429.0 0
479751.0 506460.0 0
484144.0 506138.0 0
488708.0 504845.0 0
493594.0 504615.0 0
493012.0 508023.0 0
497684.0 507156.0 0
2666.29 511258.0 0
7353.44 513319.0 0
10909.2 510803.0 0
12435.6 514044.0 0
16538.2 512544.0 0
19916.4 510309.0 0
24379.6 511318.0 0
29037.5 510960.0 0
32644.1 513559.0 0
37957.3 512700.0 0
42606.8 511782.0 0
47653.3 509870.0 0
50410.0 513367.0 0
53086.0 510211.0 0
57320.4 511873.0 0
60814.1 509492.0 0
61394.7 513360.0 0
62978.3 511131.0 0
66209.5 513167.0 0
69243.8 509200.0 0
70499.3 513307.0 0
73805.1 510847.0 0
78087.0 508802.0 0
81657.4 510997.0 0
77725.4 513432.0 0
84982.8 512566.0 0
88203.1 510918.0 0
91194.9 511986.0 0
94557.3 509044.0 0
99504.3 510685.0 0
103825.0 509334.0 0
103735.0 513746.0 0
108240.0 511552.0 0
114056.0 512198.0 0
119194.0 512692.0 0
127685.0 508549.0 0
124654.0 512696.0 0
129109.0 511993.0 0
131896.0 509489.0 0
137496.0 510851.0 0
142906.0 510412.0 0
147889.0 510545.0 0
153296.0 508305.0 0
152368.0 513247.0 0
157287.0 511312.0 0
161154.0 509316.0 0
165655.0 509537.0 0
170988.0 510423.0 0
178186.0 510506.0 0
181734.0 508424.0 0
179891.0 512514.0 0
183561.0 512980.0 0
186839.0 509093.0 0
190557.0 511664.0 0
194881.0 511813.0 0
200093.0 512485.0 0
204729.0 510842.0 0
208903.0 511612.0 0
214023.0 509731.0 0
218771.0 510340.0 0
222668.0 511670.0 0
225514.0 509512.0 0
229385.0 509145.0 0
234333.0 508542.0 0
231546.0 512546.0 0
238923.0 510391.0 0
242671.0 508873.0 0
246240.0 511369.0 0
251990.0 509891.0 0
255554.0 510934.0 0
260581.0 510539.0 0
265492.0 510666.0 0
269748.0 512600.0 0
270290.0 508652.0 0
273905.0 511688.0 0
278314.0 511807.0 0
281996.0 510846.0 0
285598.0 509645.0 0
289503.0 508460.0 0
288779.0 512469.0 0
293556.0 511264.0 0
297852.0 512279.0 0
302206.0 511514.0 0
307680.0 511196.0 0
312576.0 510828.0 0
315879.0 508174.0 0
316605.0 513158.0 0
320190.0 509771.0 0
324674.0 511122.0 0
328726.0 512790.0 0
331875.0 510525.0 0
336052.0 511003.0 0
341182.0 512006.0 0
345523.0 511055.0 0
349510.0 511548.0 0
353815.0 511347.0 0
360630.0 508410.0 0
358221.0 511508.0 0
364002.0 509022.0 0
362964.0 512812.0 0
370879.0 509012.0 0
367041.0 511292.0 0
370144.0 513426.0 0
375659.0 508918.0 0
378785.0 508786.0 0
381658.0 508729.0 0
379230.0 512236.0 0
385514.0 509100.0 0
383155.0 512019.0 0
389417.0 509440.0 0
387375.0 513557.0 0
391064.0 513288.0 0
393554.0 510260.0 0
401961.0 508991.0 0
398272.0 512019.0 0
411412.0 509952.0 0
407409.0 510544.0 0
411081.0 513430.0 0
413910.0 511733.0 0
417573.0 511676.0 0
422189.0 512802.0 0
424631.0 509067.0 0
426714.0 513495.0 0
429570.0 509785.0 0
434608.0 510472.0 0
439069.0 511423.0 0
443584.0 511907.0 0
448451.0 511838.0 0
452846.0 510592.0 0
452433.0 514364.0 0
456590.0 509495.0 0
455259.0 512488.0 0
458981.0 512384.0 0
467773.0 511286.0 0
464016.0 512444.0 0
471471.0 512917.0 0
478181.0 509709.0 0
474883.0 511185.0 0
478794.0 513206.0 0
483149.0 510794.0 0
488152.0 509508.0 0
487471.0 514457.0 0
492446.0 512262.0 0
497300.0 510648.0 0
497404.0 514457.0 0
2514.65 515047.0 0
2070.71 518553.0 0
10038.5 516244.0 0
6387.09 518168.0 0
13223.1 517777.0 0
16298.1 516018.0 0
21393.4 515134.0 0
23932.2 519467.0 0
27043.1 515482.0 0
36040.5 516892.0 0
31430.2 517504.0 0
41028.8 515963.0 0
45946.3 514573.0 0
50003.5 516963.0 0
53817.5 514550.0 0
54033.3 518398.0 0
57915.8 516261.0 0
63622.8 518448.0 0
69420.7 517026.0 0
73788.2 515607.0 0
81582.5 515377.0 0
77839.3 518002.0 0
85724.5 516649.0 0
88205.3 513820.0 0
90582.7 516722.0 0
95160.7 513763.0 0
95409.1 518524.0 0
99714.1 515918.0 0
107862.0 516934.0 0
110848.0 514230.0 0
112483.0 516563.0 0
116189.0 517044.0 0
121578.0 517959.0 0
127955.0 516633.0 0
132755.0 513574.0 0
132331.0 518138.0 0
136487.0 516474.0 0
141913.0 515126.0 0
147588.0 515719.0 0
151767.0 517934.0 0
156235.0 515902.0 0
161880.0 513473.0 0
160240.0 517985.0 0
167195.0 513661.0 0
165019.0 517276.0 0
170667.0 516501.0 0
175463.0 513467.0 0
180051.0 516756.0 0
185030.0 517664.0 0
187102.0 513628.0 0
190485.0 516697.0 0
195754.0 516821.0 0
205066.0 515712.0 0
209120.0 515974.0 0
212199.0 514518.0 0
216350.0 514358.0 0
218848.0 517721.0 0
219972.0 513852.0 0
222948.0 516021.0 0
227225.0 513678.0 0
231281.0 517194.0 0
236112.0 514179.0 0
242084.0 513987.0 0
246478.0 515507.0 0
249630.0 513342.0 0
253768.0 514119.0 0
258074.0 513488.0 0
262390.0 514792.0 0
267012.0 515465.0 0
271745.0 516414.0 0
276553.0 515792.0 0
280619.0 515306.0 0
284759.0 514290.0 0
291268.0 516140.0 0
296030.0 516181.0 0
299801.0 515170.0 0
303431.0 516022.0 0
307370.0 516587.0 0
311683.0 515218.0 0
318638.0 516666.0 0
321547.0 514584.0 0
325645.0 515079.0 0
329063.0 517091.0 0
332812.0 514664.0 0
337593.0 516004.0 0
342231.0 517096.0 0
347191.0 515951.0 0
352352.0 515014.0 0
351340.0 518181.0 0
355954.0 514568.0 0
359692.0 516124.0 0
363942.0 517617.0 0
367279.0 515502.0 0
371294.0 517337.0 0
374358.0 513534.0 0
378145.0 516379.0 0
382957.0 516278.0 0
386998.0 517407.0 0
390663.0 516633.0 0
394486.0 515019.0 0
398970.0 516924.0 0
403497.0 514244.0 0
406903.0 518264.0 0
408309.0 514520.0 0
411615.0 517560.0 0
414631.0 514960.0 0
415701.0 518707.0 0
418768.0 515750.0 0
423932.0 517183.0 0
431567.0 513988.0 0
428851.0 517685.0 0
436396.0 514777.0 0
433592.0 518445.0 0
441129.0 515482.0 0
445501.0 516116.0 0
449402.0 516289.0 0
452323.0 518255.0 0
456331.0 516010.0 0
461051.0 515146.0 0
460016.0 518679.0 0
467773.0 514405.0 0
465128.0 517401.0 0
471156.0 517429.0 0
475380.0 514853.0 0
479134.0 516364.0 0
476349.0 518947.0 0
482594.0 515396.0 0
485003.0 517952.0 0
492673.0 516943.0 0
497386.0 518536.0 0
3313.53 522721.0 0
10119.1 519397.0 0
8646.09 523591.0 0
12914.9 521533.0 0
18302.8 520711.0 0
22995.9 523443.0 0
28283.1 520702.0 0
33702.0 520918.0 0
38883.6 520351.0 0
45035.3 519959.0 0
50173.3 521102.0 0
50987.1 524001.0 0
54046.3 522902.0 0
58090.8 520522.0 0
61276.0 522919.0 0
68559.0 521928.0 0
73419.5 520216.0 0
82081.2 519680.0 0
78075.0 523228.0 0
87039.8 520882.0 0
89882.7 523595.0 0
91752.1 521097.0 0
95507.3 523308.0 0
99374.4 520665.0 0
103442.0 518616.0 0
107296.0 521811.0 0
112171.0 520673.0 0
117059.0 521671.0 0
125703.0 521183.0 0
129711.0 521233.0 0
134497.0 521219.0 0
139620.0 521124.0 0
144600.0 519154.0 0
148151.0 520234.0 0
151321.0 522467.0 0
155404.0 520369.0 0
159210.0 522145.0 0
163699.0 522328.0 0
167857.0 520578.0 0
171707.0 521761.0 0
175358.0 518791.0 0
175399.0 523020.0 0
179678.0 522010.0 0
184377.0 522257.0 0
188167.0 520843.0 0
192873.0 521812.0 0
196997.0 520923.0 0
200506.0 518442.0 0
204545.0 521165.0 0
208271.0 519193.0 0
213625.0 519989.0 0
218497.0 521368.0 0
222082.0 520402.0 0
226704.0 519114.0 0
239303.0 518163.0 0
235242.0 519545.0 0
238862.0 522853.0 0
244191.0 520029.0 0
247984.0 522558.0 0
250723.0 518857.0 0
256702.0 518131.0 0
259941.0 522469.0 0
255157.0 522870.0 0
260661.0 518392.0 0
264670.0 519812.0 0
268597.0 518586.0 0
269740.0 522899.0 0
275009.0 520385.0 0
279523.0 519242.0 0
282889.0 518069.0 0
283377.0 521923.0 0
287105.0 518927.0 0
292067.0 521359.0 0
296814.0 520526.0 0
300516.0 518789.0 0
304684.0 520147.0 0
310185.0 521627.0 0
315164.0 518346.0 0
315714.0 523057.0 0
319401.0 520132.0 0
324197.0 519265.0 0
328845.0 521354.0 0
333834.0 520155.0 0
339670.0 521607.0 0
345393.0 521394.0 0
355721.0 518997.0 0
351333.0 522520.0 0
361026.0 521048.0 0
364949.0 523369.0 0
367554.0 520181.0 0
371547.0 521351.0 0
375465.0 519846.0 0
379958.0 519686.0 0
383976.0 521163.0 0
389110.0 520580.0 0
394726.0 520133.0 0
399662.0 521339.0 0
402543.0 519129.0 0
405148.0 523026.0 0
410112.0 522170.0 0
413616.0 521073.0 0
417123.0 522652.0 0
419895.0 519685.0 0
421452.0 523570.0 0
423028.0 520820.0 0
426784.0 522599.0 0
431410.0 521262.0 0
435224.0 522656.0 0
438413.0 519394.0 0
443163.0 520023.0 0
448118.0 520226.0 0
451985.0 522073.0 0
448787.0 524419.0 0
455663.0 520128.0 0
455786.0 524245.0 0
459105.0 522353.0 0
463086.0 522032.0 0
468135.0 521641.0 0
473214.0 522394.0 0
478067.0 523362.0 0
481613.0 519892.0 0
481892.0 524144.0 0
488534.0 519903.0 0
484982.0 522614.0 0
493863.0 521923.0 0
498279.0 521719.0 0
497886.0 524569.0 0
3701.82 528403.0 0
9905.35 528322.0 0
13953.3 525343.0 0
19203.6 526485.0 0
23724.2 528604.0 0
26503.0 524986.0 0
28604.8 528747.0 0
31107.2 524679.0 0
33408.4 529073.0 0
36342.3 524853.0 0
41872.3 524971.0 0
47912.4 525379.0 0
53176.3 527816.0 0
58235.5 525708.0 0
61680.0 528497.0 0
64498.2 525005.0 0
69345.4 526929.0 0
73418.8 524983.0 0
72945.4 528919.0 0
75988.1 527534.0 0
80472.5 528808.0 0
83314.6 524236.0 0
87502.8 525667.0 0
85040.5 528272.0 0
92041.3 526525.0 0
96686.6 528177.0 0
99373.1 524951.0 0
101970.0 528587.0 0
103125.0 523525.0 0
106450.0 526596.0 0
110038.0 524555.0 0
110552.0 528470.0 0
113839.0 525070.0 0
117630.0 525712.0 0
121632.0 523829.0 0
127067.0 525747.0 0
131753.0 523933.0 0
131808.0 527831.0 0
135630.0 525321.0 0
140317.0 526963.0 0
144947.0 523563.0 0
144812.0 528402.0 0
148776.0 526414.0 0
152028.0 525538.0 0
155464.0 525054.0 0
160095.0 526320.0 0
164091.0 526639.0 0
168076.0 524987.0 0
172994.0 525829.0 0
177176.0 526412.0 0
182342.0 527024.0 0
188241.0 525556.0 0
192870.0 526544.0 0
195645.0 524949.0 0
199970.0 524360.0 0
204728.0 526274.0 0
208681.0 523850.0 0
213381.0 526902.0 0
217070.0 524201.0 0
220516.0 524417.0 0
224752.0 524037.0 0
222471.0 527084.0 0
229323.0 523148.0 0
233954.0 524228.0 0
237170.0 528371.0 0
242340.0 524668.0 0
246081.0 525672.0 0
249041.0 527995.0 0
250957.0 524944.0 0
254797.0 527309.0 0
259393.0 527666.0 0
264420.0 525492.0 0
274151.0 524622.0 0
278983.0 524560.0 0
283930.0 527719.0 0
287506.0 524034.0 0
291954.0 527232.0 0
295934.0 524437.0 0
301069.0 523999.0 0
306275.0 526089.0 0
311236.0 527966.0 0
316195.0 527602.0 0
320537.0 524928.0 0
323640.0 528455.0 0
325785.0 524412.0 0
331598.0 525743.0 0
336074.0 524544.0 0
339526.0 526998.0 0
343207.0 525290.0 0
347746.0 526758.0 0
353145.0 528361.0 0
356958.0 524506.0 0
361481.0 525502.0 0
365196.0 527700.0 0
369279.0 524897.0 0
374109.0 524349.0 0
372496.0 527939.0 0
376514.0 528359.0 0
379028.0 523869.0 0
381143.0 528668.0 0
383259.0 525229.0 0
385072.0 528133.0 0
387234.0 524746.0 0
392251.0 524853.0 0
397467.0 525316.0 0
401241.0 524278.0 0
400037.0 527587.0 0
403496.0 527748.0 0
409043.0 527445.0 0
413702.0 525114.0 0
418907.0 527839.0 0
423917.0 526413.0 0
431697.0 525074.0 0
428107.0 527810.0 0
436060.0 526163.0 0
439949.0 524403.0 0
438478.0 529043.0 0
444917.0 523976.0 0
447980.0 527895.0 0
443534.0 528649.0 0
452121.0 526171.0 0
456495.0 528865.0 0
460366.0 525928.0 0
465566.0 526518.0 0
470514.0 525528.0 0
474906.0 526947.0 0
479838.0 528031.0 0
484494.0 526922.0 0
489069.0 524879.0 0
487411.0 529272.0 0
493928.0 526415.0 0
490900.0 529160.0 0
497529.0 528515.0 0
3217.38 534335.0 0
8228.77 532297.0 0
14995.9 530614.0 0
19822.4 530807.0 0
22418.9 532566.0 0
26408.6 532505.0 0
30981.9 533194.0 0
35158.9 533307.0 0
38823.9 530050.0 0
44292.5 529307.0 0
42366.7 533011.0 0
45886.2 533241.0 0
49104.5 530684.0 0
53436.2 533093.0 0
57601.7 530784.0 0
65688.8 529750.0 0
61827.4 532690.0 0
65943.7 533592.0 0
70150.4 532160.0 0
75718.0 532460.0 0
80824.7 533830.0 0
84948.4 532288.0 0
88732.4 529771.0 0
92817.3 530894.0 0
97017.5 533001.0 0
102047.0 533207.0 0
106329.0 531218.0 0
115276.0 529246.0 0
117394.0 533613.0 0
120736.0 529019.0 0
121674.0 533393.0 0
126087.0 531315.0 0
131282.0 531951.0 0
136011.0 530485.0 0
141808.0 533075.0 0
148146.0 531639.0 0
152481.0 528879.0 0
153131.0 533122.0 0
156924.0 529753.0 0
161907.0 530880.0 0
166641.0 529465.0 0
170378.0 528421.0 0
169873.0 532557.0 0
174411.0 530399.0 0
178683.0 529816.0 0
182830.0 532310.0 0
186357.0 530119.0 0
190949.0 530660.0 0
196568.0 529668.0 0
201755.0 529468.0 0
204624.0 531541.0 0
208242.0 529686.0 0
218909.0 528465.0 0
215267.0 532526.0 0
220426.0 532243.0 0
222903.0 530097.0 0
227468.0 528513.0 0
225242.0 532961.0 0
232482.0 528808.0 0
229843.0 533110.0 0
234585.0 532713.0 0
239362.0 532743.0 0
242076.0 528740.0 0
243560.0 532912.0 0
246579.0 530238.0 0
251652.0 530173.0 0
255865.0 531271.0 0
260037.0 532484.0 0
264213.0 530614.0 0
268862.0 528647.0 0
274023.0 528683.0 0
278954.0 530270.0 0
288106.0 530894.0 0
297634.0 528798.0 0
302528.0 529249.0 0
306929.0 530868.0 0
310688.0 532777.0 0
314878.0 532075.0 0
320033.0 531248.0 0
325234.0 532491.0 0
327581.0 528591.0 0
335553.0 529318.0 0
330949.0 532416.0 0
339745.0 531921.0 0
343838.0 529876.0 0
349074.0 532588.0 0
354338.0 533111.0 0
357584.0 528941.0 0
358992.0 532957.0 0
361245.0 529358.0 0
364429.0 533065.0 0
369069.0 530249.0 0
373489.0 532299.0 0
378756.0 533247.0 0
384839.0 533022.0 0
389490.0 529268.0 0
394706.0 529277.0 0
392455.0 531814.0 0
394643.0 533852.0 0
399647.0 531732.0 0
406180.0 532087.0 0
411481.0 532526.0 0
414087.0 529216.0 0
416491.0 532626.0 0
420604.0 532416.0 0
424171.0 530291.0 0
428797.0 532313.0 0
432731.0 534112.0 0
433299.0 529600.0 0
436974.0 533424.0 0
441728.0 533433.0 0
446887.0 532895.0 0
451237.0 530104.0 0
451340.0 534227.0 0
454993.0 532767.0 0
458862.0 534079.0 0
461341.0 530246.0 0
466019.0 531008.0 0
468592.0 533724.0 0
470732.0 529932.0 0
472360.0 534434.0 0
475608.0 531476.0 0
480022.0 532681.0 0
484322.0 531362.0 0
494279.0 530968.0 0
489501.0 534150.0 0
498011.0 532135.0 0
2016.65 538634.0 0
5902.14 539125.0 0
8048.21 536015.0 0
12326.9 535078.0 0
10477.8 539378.0 0
15139.7 539185.0 0
18575.7 535224.0 0
23627.7 535784.0 0
21601.4 537836.0 0
28369.4 537304.0 0
33617.1 537164.0 0
38881.2 536089.0 0
44328.1 536385.0 0
49081.9 535795.0 0
53058.3 537254.0 0
57874.5 536295.0 0
63284.3 537084.0 0
68236.4 536838.0 0
72768.1 536749.0 0
78308.1 538671.0 0
84212.7 536953.0 0
89733.6 534737.0 0
91471.3 538634.0 0
94242.5 536880.0 0
99470.0 538148.0 0
105890.0 536965.0 0
111498.0 533740.0 0
115032.0 538189.0 0
119932.0 537967.0 0
124162.0 536144.0 0
129001.0 536017.0 0
135021.0 536506.0 0
146067.0 535260.0 0
149687.0 536605.0 0
154035.0 537093.0 0
157930.0 534670.0 0
162869.0 537926.0 0
165737.0 533590.0 0
168491.0 537087.0 0
173296.0 535857.0 0
178335.0 534156.0 0
182575.0 536826.0 0
187204.0 534761.0 0
193320.0 534470.0 0
197551.0 535031.0 0
202065.0 533982.0 0
200818.0 537879.0 0
206510.0 534505.0 0
210609.0 533960.0 0
214580.0 537714.0 0
219274.0 536155.0 0
223516.0 536160.0 0
227497.0 537160.0 0
232244.0 536991.0 0
237008.0 536981.0 0
242070.0 537153.0 0
248986.0 533479.0 0
247679.0 538276.0 0
253330.0 535785.0 0
258309.0 536297.0 0
263444.0 534898.0 0
268036.0 533957.0 0
274019.0 534316.0 0
278977.0 534612.0 0
277426.0 538439.0 0
283473.0 533428.0 0
281035.0 537390.0 0
288481.0 535994.0 0
293741.0 533233.0 0
299191.0 533329.0 0
297245.0 537021.0 0
303387.0 533402.0 0
301511.0 537432.0 0
307409.0 536067.0 0
313012.0 537172.0 0
317785.0 535647.0 0
322322.0 536179.0 0
327518.0 537121.0 0
333232.0 538297.0 0
336074.0 534062.0 0
339216.0 537755.0 0
343732.0 535018.0 0
347897.0 537618.0 0
352301.0 537002.0 0
356524.0 536653.0 0
361155.0 537424.0 0
368910.0 534316.0 0
371917.0 536561.0 0
376280.0 537967.0 0
381923.0 538441.0 0
390261.0 534132.0 0
387722.0 537841.0 0
392553.0 537796.0 0
397908.0 537949.0 0
403358.0 536416.0 0
408710.0 536816.0 0
414514.0 537661.0 0
419510.0 536132.0 0
424529.0 535181.0 0
430100.0 536169.0 0
427749.0 539030.0 0
433818.0 538159.0 0
439149.0 538007.0 0
444442.0 537581.0 0
449413.0 537737.0 0
454968.0 537485.0 0
463949.0 534932.0 0
460171.0 538696.0 0
468932.0 537326.0 0
472604.0 537832.0 0
476583.0 535748.0 0
483463.0 536265.0 0
479617.0 538938.0 0
487494.0 539513.0 0
492894.0 539274.0 0
495647.0 535262.0 0
2721.94 542717.0 0
7847.64 543563.0 0
12737.3 543192.0 0
19746.3 540247.0 0
17141.5 543489.0 0
23964.4 539848.0 0
22587.4 544162.0 0
28024.7 542765.0 0
31675.9 540226.0 0
33552.4 543464.0 0
36551.7 540433.0 0
42250.9 539991.0 0
44717.6 543156.0 0
50605.5 539693.0 0
46821.7 539812.0 0
49430.4 543945.0 0
54846.8 541581.0 0
60614.1 541274.0 0
65865.3 541229.0 0
70533.8 540496.0 0
73991.4 542575.0 0
83691.6 542182.0 0
88071.2 539629.0 0
94020.7 541487.0 0
98682.8 543713.0 0
103432.0 542068.0 0
110637.0 538870.0 0
108024.0 542113.0 0
112981.0 542948.0 0
117661.0 541926.0 0
121588.0 541990.0 0
125812.0 540457.0 0
130639.0 540441.0 0
135296.0 543969.0 0
140763.0 539536.0 0
145747.0 538685.0 0
145162.0 543193.0 0
149403.0 541275.0 0
152552.0 543114.0 0
152980.0 540228.0 0
157263.0 540244.0 0
166983.0 542173.0 0
171652.0 540445.0 0
177342.0 540212.0 0
181958.0 540260.0 0
186005.0 540206.0 0
191025.0 538479.0 0
189628.0 542799.0 0
196533.0 540901.0 0
205097.0 539087.0 0
208413.0 542613.0 0
209956.0 538273.0 0
213424.0 542704.0 0
217898.0 540598.0 0
221825.0 539868.0 0
225439.0 540929.0 0
230252.0 542019.0 0
236307.0 542059.0 0
243266.0 542889.0 0
252012.0 540596.0 0
256429.0 540557.0 0
261114.0 539417.0 0
270457.0 538486.0 0
265743.0 538694.0 0
268828.0 542834.0 0
274279.0 542463.0 0
284541.0 538779.0 0
280800.0 541707.0 0
288156.0 540691.0 0
293023.0 539564.0 0
298368.0 541530.0 0
304931.0 539874.0 0
309173.0 541327.0 0
313999.0 542282.0 0
319166.0 540813.0 0
324804.0 541380.0 0
329378.0 541625.0 0
339715.0 542590.0 0
343889.0 540178.0 0
349061.0 542692.0 0
355489.0 541781.0 0
361981.0 543064.0 0
366829.0 538756.0 0
372139.0 541156.0 0
376953.0 542765.0 0
385910.0 541645.0 0
390526.0 542116.0 0
395755.0 543188.0 0
401314.0 542629.0 0
405689.0 540641.0 0
410526.0 541988.0 0
415099.0 542704.0 0
422512.0 540290.0 0
419021.0 543888.0 0
426597.0 542968.0 0
431188.0 542644.0 0
436509.0 542582.0 0
442348.0 542408.0 0
447151.0 541817.0 0
452000.0 541674.0 0
457019.0 542571.0 0
462098.0 543614.0 0
465031.0 539776.0 0
467106.0 543423.0 0
470977.0 541209.0 0
475490.0 540036.0 0
474157.0 543985.0 0
478828.0 543742.0 0
483234.0 541558.0 0
487054.0 543937.0 0
490437.0 542306.0 0
497566.0 539462.0 0
497925.0 543440.0 0
3961.98 547593.0 0
1207.68 550240.0 0
10407.9 547088.0 0
14754.2 547620.0 0
19293.5 547114.0 0
23120.7 549292.0 0
26088.3 546744.0 0
30481.9 547782.0 0
39853.9 544312.0 0
35870.2 548115.0 0
45110.3 547434.0 0
49951.1 549036.0 0
53527.9 546476.0 0
58317.9 545923.0 0
63528.0 545594.0 0
69488.8 545116.0 0
74443.1 547075.0 0
78820.0 544755.0 0
83137.2 547435.0 0
89214.1 545162.0 0
94714.2 546206.0 0
99351.8 548659.0 0
104377.0 547005.0 0
109790.0 547463.0 0
115450.0 547938.0 0
120415.0 546187.0 0
124312.0 544458.0 0
125425.0 548752.0 0
128448.0 544558.0 0
130826.0 548583.0 0
141036.0 544700.0 0
139545.0 548860.0 0
144527.0 548203.0 0
149676.0 546439.0 0
155919.0 545795.0 0
161541.0 543938.0 0
165269.0 547796.0 0
173709.0 544381.0 0
169730.0 546243.0 0
177786.0 546790.0 0
181788.0 543839.0 0
186275.0 545330.0 0
192939.0 545781.0 0
202249.0 544019.0 0
248897.0 543680.0 0
263397.0 544353.0 0
285396.0 544675.0 0
290464.0 544004.0 0
294595.0 544520.0 0
303549.0 545118.0 0
309369.0 546428.0 0
314304.0 547227.0 0
318556.0 545832.0 0
322860.0 545854.0 0
328455.0 545857.0 0
334254.0 544661.0 0
339345.0 546763.0 0
343882.0 545528.0 0
352650.0 547111.0 0
358013.0 547556.0 0
364293.0 547501.0 0
367565.0 544533.0 0
373006.0 547267.0 0
378840.0 548504.0 0
381980.0 544295.0 0
387138.0 545911.0 0
392235.0 547146.0 0
398768.0 545564.0 0
401639.0 547457.0 0
406127.0 545536.0 0
410970.0 546891.0 0
415620.0 547175.0 0
420387.0 548383.0 0
423379.0 545237.0 0
427985.0 547716.0 0
433999.0 547500.0 0
439689.0 546976.0 0
445851.0 547361.0 0
449675.0 544649.0 0
453675.0 547059.0 0
458898.0 546887.0 0
465221.0 548112.0 0
470495.0 546536.0 0
475201.0 548107.0 0
479569.0 548351.0 0
484210.0 547486.0 0
493987.0 544433.0 0
490196.0 545754.0 0
493725.0 549113.0 0
497786.0 547435.0 0
3564.67 553258.0 0
8018.38 550506.0 0
12481.9 552168.0 0
18205.0 552413.0 0
23416.5 554145.0 0
27466.2 551991.0 0
32383.9 552694.0 0
40625.2 549496.0 0
37395.2 553145.0 0
42225.1 553617.0 0
46473.4 552177.0 0
55835.0 550482.0 0
61196.7 550387.0 0
66497.0 549791.0 0
71023.5 549648.0 0
69797.8 554100.0 0
74462.5 551573.0 0
78457.5 549649.0 0
81686.2 552837.0 0
87188.5 551658.0 0
92400.7 549747.0 0
96158.0 552524.0 0
103226.0 552366.0 0
107830.0 551694.0 0
112216.0 552130.0 0
116879.0 552486.0 0
120829.0 550925.0 0
128497.0 552216.0 0
132347.0 552736.0 0
135046.0 549809.0 0
153181.0 550074.0 0
160282.0 549420.0 0
325834.0 549811.0 0
331193.0 550329.0 0
336729.0 550081.0 0
341758.0 549902.0 0
347893.0 549116.0 0
354764.0 551476.0 0
362008.0 550922.0 0
367498.0 549020.0 0
369897.0 551795.0 0
376058.0 551463.0 0
379765.0 553480.0 0
383670.0 549428.0 0
388497.0 550792.0 0
393210.0 552224.0 0
397221.0 549179.0 0
398489.0 553987.0 0
403157.0 552129.0 0
407979.0 550450.0 0
412706.0 551162.0 0
417292.0 551913.0 0
423916.0 551964.0 0
428444.0 552786.0 0
432522.0 552422.0 0
437421.0 552060.0 0
442198.0 551395.0 0
445383.0 554222.0 0
450321.0 552315.0 0
456106.0 552030.0 0
460701.0 550751.0 0
465092.0 553855.0 0
471261.0 552257.0 0
477364.0 552609.0 0
481914.0 551586.0 0
489076.0 549361.0 0
486300.0 553868.0 0
492524.0 554271.0 0
497569.0 551882.0 0
1345.1 556712.0 0
4508.99 558256.0 0
8520.22 555473.0 0
8144.61 559756.0 0
14057.3 557769.0 0
20464.9 558512.0 0
28554.6 557182.0 0
34187.3 557501.0 0
39833.7 557784.0 0
45360.0 556192.0 0
51606.2 554573.0 0
58419.6 554876.0 0
64427.0 554662.0 0
77514.1 554725.0 0
91957.9 554666.0 0
88619.6 556413.0 0
137599.0 554225.0 0
384898.0 554368.0 0
409703.0 555564.0 0
420256.0 555900.0 0
425253.0 556930.0 0
430533.0 557080.0 0
436048.0 557247.0 0
441070.0 555906.0 0
448857.0 557924.0 0
454112.0 556132.0 0
459672.0 555723.0 0
463581.0 558857.0 0
469157.0 558150.0 0
474727.0 557260.0 0
481241.0 555846.0 0
484597.0 558656.0 0
489054.0 558395.0 0
494802.0 558818.0 0
497910.0 556306.0 0
POINT_DATA 5000
SCALARS Radius float 1
LOOKUP_TABLE default
5415.48 5120.0 6182.6 3163.97 6810.52 5073.35 4834.9 3863.18 2356.98 4998.37 5492.18 5258.36 5061.3 3951.75 3642.12 5812.43 5906.14 7513.1 5254.28 4436.4 5733.48 5580.89 5645.7 5553.16 6110.27 5840.26 5670.04 6044.04 5085.53 5351.6 5867.73 5013.56 4499.64 5542.27 5122.66 5484.19 3557.27 4688.68 4402.52 4182.53 4672.91 3588.44 5176.86 4366.19 3672.51 2938.66 4008.92 5561.06 6716.79 3850.77 5325.36 5484.83 4715.55 5538.89 4730.36 6059.59 5701.86 4375.68 4238.81 5054.98 6030.06 5170.02 4927.31 5185.34 4517.56 4432.58 5903.42 3761.32 4118.05 5065.13 4940.78 3615.22 5305.17 4380.59 5546.39 6759.9 7021.47 5926.61 2720.68 4955.55 4468.59 3563.63 5885.03 5200.76 5325.02 4862.64 5205.43 6684.56 3955.56 5292.64 2635.86 4385.06 6166.5 5936.02 4231.61 3379.84 7613.27 4133.88 5945.65 5418.62 5416.38 6051.14 5836.15 4345.55 2837.58 3653.41 5246.2 5017.13 4827.23 3673.74 6116.18 3968.64 7447.37 4688.67 7184.19 4290.3 3867.67 3942.53 4861.08 4827.82 3607.45 3589.27 4951.03 4094.62 4665.12 6483.19 6230.49 5493.32 4601.27 4195.44 5740.68 3261.21 4277.89 6704.06 5600.93 3871.88 3856.01 4390.66 5279.39 4911.47 5803.39 4924.6 4733.32 2924.37 2899.43 5399.73 4003.05 4805.87 5759.91 4333.2 3260.67 3936.02 4927.02 4174.52 5109.54 7054.71 3641.64 5489.43 5747.75 5539.32 4796.33 6496.85 5541.59 4124.71 5728.85 6337.56 5863.59 4381.97 3255.82 6257.19 5242.73 2812.98 4065.69 5603.15 5390.22 4712.33 5227.21 3997.1 3038.33 3383.4 4780.03 5980.74 3856.1 3829.13 6458.82 5527.54 5054.25 7325.81 5360.19 4874.39 4839.34 5083.08 2980.99 3998.5 5525.39 4024.3 5555.28 4737.14 4686.65 4695.45 4660.72 6038.78 5123.52 4295.38 4392.68 5495.39 4044.71 4487.31 5816.2 3091.3 5693.81 5789.98 6138.47 5573.7 4727.62 4055.8 4794.96 6186.19 4840.01 6834.49 7933.0 5938.34 5173.87 6394.38 5169.36 5834.74 5556.96 3888.21 5697.78 3921.18 4667.36 5529.52 3554.9 3996.0 4002.16 4138.16 2540.31 6029.66 6302.8 5697.4 5206.78 6425.26 5280.17 5028.96 5143.58 4484.76 5611.2 4220.65 4455.12 5380.13 5118.27 5932.23 5788.23 6052.7 5891.05 6902.81 7199.21 5252.48 4015.92 5708.81 4778.34 4684.5 5120.49 5409.61 4005.44 4270.95 5555.88 6732.43 6362.12 3866.16 5152.36 4511.82 5826.64 6820.42 4894.16 5711.87 4896.52 4941.22 5791.61 3798.62 5581.75 3666.57 4254.17 5615.42 4091.31 4523.7 5255.32 6124.89 5337.48 5542.21 5043.05 5924.89 3486.22 6894.71 4414.54 5262.61 6038.2 5713.22 3183.98 4524.28 5017.78 3794.63 3778.1 4727.24 4816.2 6959.81 4829.35 6321.41 3372.79 5282.64 4479.66 6392.01 3369.13 6644.76 6372.62 7565.34 5637.59 5481.78 4937.14 5551.36 5201.36 5094.81 4306.53 5972.06 5861.71 4312.67 4359.04 5015.69 6175.81 6677.09 5813.4 4089.76 5201.67 4751.02 5184.56 3192.41 4715.72 4987.87 5367.2 5308.1 3043.85 6730.19 4937.02 6037.08 3103.0 6084.86 3307.12 4467.94 4933.21 4850.81 6038.14 6135.57 5024.9 5998.38 4270.24 4947.52 4989.15 4164.13 4520.1 4642.34 4305.57 5874.89 3791.79 5526.55 4754.05 4951.47 6084.93 3315.57 4669.66 4808.52 5607.24 5461.13 4907.89 5655.21 5629.19 6756.95 4049.23 5601.05 3586.91 3115.91 4948.92 5478.92 5810.84 5094.44 5375.47 4723.12 4809.42 5659.17 4717.05 4562.29 5287.2 5423.8 3417.33 5080.66 4926.42 5153.74 4165.81 4293.03 4424.7 4389.21 4925.44 5246.61 5215.15 4764.96 5046.33 5053.92 4726.76 3599.45 5839.13 5090.24 5923.5 5091.39 2240.39 6324.23 4929.8 4382.74 4516.43 4749.8 3748.24 4230.54 4655.49 4566.18 4964.09 5856.11 4234.94 4109.88 5013.13 4980.85 5714.58 5110.45 5248.77 4083.97 4528.09 3556.85 3895.51 4128.98 6291.51 5882.89 6246.22 4307.28 4100.38 5804.71 5020.12 6352.26 3735.44 4073.93 4645.41 5096.78 4727.24 4651.28 4384.42 4493.48 4362.19 5082.6 3693.63 6163.38 3459.9 4093.08 4997.27 5543.27 3327.49 3960.8 4923.9 3329.99 4973.78 3947.47 5208.32 4607.02 3296.27 6673.96 5174.89 4188.32 5370.52 5538.93 4739.42 5727.3 3847.38 4242.52 4745.45 4907.06 3057.03 4786.6 4433.59 5163.9 5740.84 4973.83 4612.68 3320.52 6355.42 4151.94 5690.56 3937.74 5478.47 6061.47 6142.37 4449.22 5806.08 5628.24 4853.39 5365.89 5992.26 4511.54 5070.39 4613.31 5091.68 4713.25 6243.0 5441.96 4288.3 5774.81 3697.96 5344.77 4899.11 4723.48 4278.07 5356.51 3818.59 4863.72 5495.68 6043.3 5530.87 3912.37 4310.18 5927.43 5244.78 5492.26 5762.84 5119.37 3982.23 5243.29 4336.42 3130.65 5004.67 5409.33 5196.0 4178.15 4204.84 6119.09 7531.29 5069.25 5935.03 5048.89 3161.47 3435.9 3991.03 6826.57 4652.29 4495.87 5027.98 5281.28 5097.87 2631.9 4087.15 4143.08 5489.34 5952.75 6445.94 4281.49 5537.72 4129.43 4320.28 5293.9 4685.34 4220.88 6519.71 6640.13 5351.39 4583.31 5210.03 3402.32 4306.11 7589.94 4466.03 5419.37 5985.29 4898.94 4247.23 4733.04 4755.47 6390.78 4485.99 7435.25 4788.87 3746.31 5543.46 5346.27 5498.32 7267.18 4758.21 5002.48 5708.14 4262.82 5542.14 6342.25 3843.58 6142.94 6327.9 6082.81 5449.18 3092.35 3629.96 4714.54 3320.11 6022.17 4503.89 5903.66 4528.49 5275.32 4268.65 4694.83 5788.66 4354.08 3903.75 4520.62 5475.8 5475.7 5314.69 6050.81 6022.72 6475.1 5527.33 2691.29 4969.21 6256.02 6255.18 4277.88 7500.97 3920.42 6623.85 6332.36 4218.06 4931.53 6691.39 4329.05 3191.99 5110.37 5367.52 4048.37 5030.91 4659.59 4322.15 5507.24 5101.59 6851.54 5935.47 5313.66 2651.49 5512.23 5349.31 4649.22 5509.42 5394.55 5936.36 5229.48 4016.18 5127.16 4249.46 4244.99 4643.31 6917.52 5402.21 2845.98 4668.71 7228.46 5102.36 8332.24 7134.64 4602.25 4931.38 5664.98 3485.26 3240.09 4548.16 5025.39 4377.07 3813.22 3848.93 5570.3 6020.48 5234.29 5200.05 4645.58 4711.62 4114.24 5670.2 2976.22 5094.52 4256.43 2682.24 5928.32 5415.19 3950.63 5526.75 5435.74 4275.57 5560.26 5327.45 5965.81 2330.66 6185.89 3702.37 4177.19 3691.0 3990.25 4880.14 5320.92 3948.23 5228.18 5787.31 5978.82 4342.9 6122.55 5978.9 4270.53 5480.13 4736.58 4792.73 5264.06 4556.36 3369.23 4515.71 3688.8 5893.5 3817.13 3695.36 4547.19 3963.86 5076.35 4091.8 5273.35 5181.4 4662.56 5166.79 5417.15 3405.98 4946.74 5996.33 4612.62 6631.19 3619.07 4467.04 2983.99 6385.23 4750.17 3997.96 3460.94 5660.85 3758.07 4373.45 4752.51 4989.09 3587.05 4982.31 6362.14 5269.18 6719.88 5065.11 6155.31 2739.94 4790.08 6308.71 4194.5 5082.47 4501.51 5379.87 3708.04 5513.6 4901.41 5138.31 4551.24 5358.59 6387.01 6202.55 7111.16 5023.15 3844.9 4871.44 4564.34 6375.99 6259.23 4853.02 4998.21 3457.48 3931.07 3688.16 7440.72 4681.72 3949.6 4945.39 5661.62 4867.08 5626.61 2614.4 5817.25 6363.92 4439.35 6205.93 6184.4 3828.81 6229.37 5289.52 5314.85 4406.1 5034.59 4553.56 4223.33 4942.77 5911.67 5191.63 4187.56 4840.84 3629.62 5344.25 5344.0 4593.7 4043.57 4138.42 5987.17 6013.14 5925.6 3979.82 4602.86 4581.13 2765.2 3856.59 4621.75 4219.07 3610.4 6338.89 5584.06 6480.17 3838.56 6445.22 6248.81 5872.05 4962.77 5088.44 4256.67 6079.11 6430.39 5376.71 5703.6 6326.18 6648.68 5407.78 5061.98 4923.24 6632.99 5830.72 5309.98 6718.19 4307.48 3848.54 4305.43 5450.44 5080.18 3927.99 5069.84 5266.5 5329.64 4051.44 4997.27 4716.19 3323.28 5135.69 4301.06 3456.98 6045.46 4290.14 4763.45 4150.99 3771.48 4478.15 5681.38 5011.31 4292.06 4481.53 5006.58 5077.33 5586.81 4746.52 3948.17 5572.95 5413.79 6723.16 5372.61 5402.24 3686.21 5013.42 5651.07 6101.92 5323.3 4635.6 4427.28 3082.32 3658.37 4765.02 4448.13 5070.29 6157.04 4807.28 4266.03 5075.55 4713.74 4220.03 4084.49 6179.96 4537.6 4419.61 7177.44 6260.79 4082.57 4563.46 4236.14 4407.87 5282.91 5941.4 6510.17 4263.33 5868.82 4454.63 4066.38 4050.9 6695.82 6049.55 5514.76 6405.76 5709.62 4877.67 5835.78 4020.32 3815.26 3498.2 4245.72 5445.87 4216.92 4571.7 4704.72 4177.94 3929.19 4107.03 4271.69 3970.25 5198.77 5643.58 4850.01 5215.05 5147.67 5577.04 4986.77 6318.18 3824.16 5330.45 5045.38 3689.45 3868.18 5350.88 5130.91 4948.5 5383.07 4527.02 4247.15 4519.22 4531.14 4602.85 5210.48 7552.94 3627.55 6239.84 4409.63 5865.39 5521.25 5370.85 3178.54 5949.46 3661.9 3776.94 5629.39 2684.03 4768.61 5246.47 2261.36 5280.69 4522.21 6923.84 5449.46 5703.07 6166.29 6113.54 5147.36 4662.43 3963.76 5733.62 4043.66 5169.9 5282.51 4425.84 5331.02 3797.33 7256.35 4871.96 4800.69 4523.88 5742.65 4241.89 3279.1 4978.31 5912.61 5054.74 4099.77 5941.72 4981.9 6562.18 5794.24 4127.74 5908.1 4541.21 4344.58 6048.7 5896.46 4742.68 5634.83 5499.11 4502.5 5922.5 5347.48 3633.87 2775.04 3821.72 4810.12 6898.19 4138.46 6035.6 5137.34 5198.29 3975.31 5423.0 5344.43 5125.78 6034.41 5452.83 5178.99 4959.34 4790.78 4591.87 6422.84 6552.22 5379.09 7644.38 6004.68 4051.34 6799.4 5278.36 5107.23 5136.08 5558.68 4010.57 6191.29 4187.31 5506.19 7422.36 6719.94 4950.67 5227.59 5453.6 4709.05 5294.77 5528.53 6553.94 5255.18 5726.66 3004.16 5460.65 4460.92 5945.89 4042.28 5592.32 4105.55 4863.23 4402.67 5381.16 4948.98 4403.98 4414.48 4560.84 5227.52 4537.32 5163.02 4656.78 3066.13 4302.5 4156.38 2476.04 5105.16 6006.16 6009.88 4164.68 5050.65 5316.75 5495.84 6268.1 3784.5 4862.21 6261.42 5113.21 4374.35 4011.77 4527.08 6396.74 7099.43 5315.4 5526.14 6449.45 4044.45 5262.19 3627.82 4244.9 6070.58 4285.32 5490.43 4373.47 5022.28 6169.11 5197.52 5615.35 5172.53 4027.09 4135.62 5801.99 4860.33 4502.18 5534.94 3685.13 3312.06 3418.99 5180.76 3361.26 4993.35 6218.95 5222.16 5533.72 5533.42 3678.08 4802.32 4599.38 5518.57 5463.48 3240.51 5730.33 4527.99 5161.01 4298.15 4376.7 5190.61 4628.4 5832.37 6051.83 5409.63 4263.16 3077.84 4630.82 4813.08 6799.88 4540.86 3062.43 5426.78 4767.78 5235.17 4340.76 6566.1 4435.36 3555.86 6065.22 5565.13 6386.78 4996.99 4470.61 6193.35 6086.96 4729.43 5233.78 4092.24 5991.09 4562.74 4678.38 5126.91 3942.07 5448.61 7443.72 4827.33 5022.8 3937.08 7055.53 6133.92 5013.67 3719.84 4178.4 5669.65 5253.55 5820.48 7034.11 5782.6 6125.34 2586.12 5975.63 5965.78 4274.61 5252.34 2965.79 4287.63 4410.55 3921.08 5776.37 4190.31 4516.28 5486.68 5678.96 5100.25 6048.86 4986.51 6894.26 5339.38 4285.66 4896.11 4318.48 6132.95 5266.22 5226.97 5754.18 5132.68 4480.95 6595.03 4983.39 5366.52 4690.55 5417.8 5146.37 7132.12 4836.16 5151.11 5680.94 5545.46 4543.1 6550.44 8325.01 3764.06 4642.93 4440.81 5941.9 6024.75 3973.12 6642.76 6109.49 5860.67 5987.42 5990.52 2967.38 5652.0 5463.41 4779.5 4421.12 4929.75 5254.49 4221.28 6045.22 4456.39 4631.83 4384.88 3701.27 6887.27 4806.34 6008.49 5776.57 7144.24 5133.97 3600.43 6600.94 5371.02 5513.57 5260.34 5729.23 5206.48 5934.22 6586.45 3780.23 5826.04 5624.49 3745.84 4359.62 3471.03 5011.84 5696.88 4730.41 5690.26 6057.22 5062.71 6946.21 4289.17 5433.8 5564.02 6444.77 6314.07 5083.41 7055.42 5683.61 5805.86 4049.02 4470.4 5346.68 5296.29 5311.03 4611.53 5094.48 5255.12 3872.61 5576.92 4238.4 6408.83 3930.79 4004.35 5365.24 4763.96 5293.51 5008.63 4446.06 3450.93 4270.74 6293.89 5737.75 2761.07 3778.02 4558.15 6552.21 4350.12 5227.02 3603.51 5670.0 4232.16 5300.96 4344.51 3781.77 5581.55 3834.43 4707.06 5193.01 5491.37 3474.5 3860.83 5732.27 4523.39 5434.47 5829.22 6917.62 4497.78 5567.93 5811.18 5332.65 3764.1 6451.33 4835.83 5604.35 4159.35 5225.33 6477.91 4237.98 6439.37 6649.96 4081.97 4614.3 4896.39 3633.79 4303.19 6081.14 5480.83 5421.53 4607.85 5653.9 4220.46 4287.53 5683.26 5598.74 4906.82 5046.21 5894.61 5131.24 4788.58 6155.1 5687.83 4709.35 5196.67 6496.67 5876.71 5474.8 5226.0 4373.3 5339.78 3095.48 4750.78 4166.08 3979.26 5960.66 5188.81 6608.73 3999.48 4203.26 4004.04 3923.03 5411.85 5607.14 4156.2 6072.45 6915.83 4497.59 4470.98 3901.8 5511.88 5759.46 4512.11 5443.58 6248.6 3836.45 5687.85 4558.46 6401.43 5020.71 5997.88 2681.29 5839.71 4360.23 6234.32 4585.31 4586.19 6625.18 5323.91 5097.45 4047.87 4185.61 5742.47 4917.99 4367.78 4095.75 4298.45 5222.51 6609.84 5135.96 5658.37 6074.94 4250.88 5699.53 6348.03 3475.67 3783.54 4792.39 5278.56 5146.37 4814.12 5631.14 4243.79 6137.8 5433.65 4442.22 4887.76 5413.31 4008.15 3012.99 3091.67 6316.56 4332.87 5401.99 6420.81 5514.84 5134.39 4256.57 5784.3 3914.2 6088.68 5937.08 6070.3 5612.21 5128.57 4135.08 4929.14 6000.7 5945.08 5004.23 5139.5 6442.69 6320.71 4648.04 3527.05 5029.78 6262.72 5762.59 4861.06 3664.11 3365.82 6481.79 5320.28 4569.12 4796.58 4298.67 5873.69 6222.42 4962.09 5654.31 5470.77 4643.85 6062.05 5082.74 4735.33 4413.85 4844.57 3999.94 6171.13 4027.46 5092.37 4864.22 5941.61 4933.65 6098.1 5708.99 2435.33 6333.29 4074.48 4477.04 4558.47 5731.57 5703.74 5662.55 4747.55 3755.95 5737.92 2685.81 3056.7 5591.76 5010.04 5889.35 4394.56 4570.98 5388.78 4275.07 5825.38 5099.21 4573.72 4163.74 6969.28 5698.96 5636.4 6471.42 3319.67 5283.8 4076.59 5164.1 4428.14 6016.19 6464.15 4972.17 4479.11 6685.4 4222.77 4850.06 5268.38 7038.89 5527.23 4805.33 3863.67 5980.95 4013.38 5067.56 3352.35 4343.78 2735.53 5263.3 4909.65 6523.86 4669.06 4811.32 6400.08 4743.59 4715.58 3317.83 5208.14 5580.92 4450.7 3532.3 5151.52 5769.98 5973.33 2221.99 3583.21 4643.56 5442.32 5067.46 3580.58 4863.01 5620.74 5604.21 3979.54 5233.29 3169.67 4968.03 7493.3 4814.55 5304.13 5944.09 5833.06 5698.77 6607.87 4163.5 5374.51 6515.84 4143.78 4123.6 4538.95 7092.87 5224.12 4970.88 4850.14 5463.38 3637.61 6098.14 5945.21 5750.71 3493.7 4472.17 4938.74 4200.03 4831.47 3474.39 5516.95 6939.12 5563.79 4406.4 6853.85 3493.47 4020.4 2395.5 4596.75 3374.08 3497.9 5782.48 4188.87 5564.23 4031.78 5950.04 3735.24 4231.83 6817.57 3614.96 3886.68 6853.04 4745.43 5831.96 5464.68 4539.07 4510.8 4475.83 5480.3 7509.24 5896.26 4587.67 5951.81 6101.13 3924.14 5599.7 4296.69 3665.95 6238.32 6804.79 6372.13 5369.5 5404.01 4124.49 5535.91 3230.13 5714.25 5325.96 5412.24 6332.01 5016.02 7044.29 4234.18 7085.01 4049.16 3936.95 6193.08 6069.3 5887.01 5116.6 5168.35 3747.03 2783.85 4286.49 7693.4 4437.07 6184.88 3449.37 5829.32 4396.25 3763.05 5551.95 5092.24 4347.74 5369.08 4518.04 5291.9 4766.06 4009.62 5356.79 4011.37 4874.18 2081.58 2511.46 4312.56 2775.69 4778.82 5204.04 4612.06 3361.92 5467.84 3306.14 5029.47 5490.58 4863.79 4750.58 4702.06 5395.14 2477.07 5117.47 3464.83 4923.41 5724.64 2990.77 4925.63 5965.15 4763.66 4888.6 4666.81 6739.08 7042.12 4797.52 6343.14 4471.58 5501.93 5462.21 6313.06 5374.98 6345.13 5274.19 6470.3 4719.7 5599.49 4097.57 5313.22 3436.15 5328.22 4151.76 3905.51 4216.17 6484.17 4721.02 3546.71 4254.37 4938.72 5768.57 5956.65 4498.25 5151.21 6574.95 5398.64 4693.52 4568.41 3624.7 3420.08 4912.04 4320.42 4691.91 4255.34 5344.83 5064.79 7046.11 4863.97 3427.63 4146.81 5756.75 6342.48 4840.44 5093.82 5212.43 5454.12 6918.35 4834.3 6348.54 4066.57 5642.35 5156.76 6357.47 6101.57 4891.38 4793.65 5955.86 4532.89 2949.12 6176.67 4533.37 4848.46 5742.09 2779.99 5887.38 4581.37 4920.21 6942.34 5851.61 3658.05 5478.11 6153.94 6836.82 3862.77 3858.17 3477.1 4631.99 4740.98 3185.39 5388.39 4356.49 3728.18 4326.48 5335.47 4526.81 3994.07 5048.19 5491.9 4219.94 5907.46 6405.0 4264.91 3918.87 4659.16 5399.29 3101.75 5549.49 5423.42 6605.86 6505.78 5657.36 4785.25 6124.08 6519.43 3619.79 5876.64 6710.88 5053.95 3967.48 6667.68 6213.04 4497.31 3163.78 4305.16 4721.32 3293.56 5092.28 5882.65 5078.86 4739.14 4780.2 5163.55 4918.77 6326.39 6817.32 6471.55 4319.79 5960.56 6643.85 4020.95 5774.97 6049.79 5862.86 5226.56 4390.41 6113.95 4050.08 4901.07 5452.42 5017.5 5005.85 4893.49 5711.11 4575.94 5325.44 5102.75 5021.88 4597.29 5931.77 4200.09 5097.95 5108.06 4914.45 4222.4 3573.73 4000.43 4698.87 3984.88 4661.03 5318.53 5160.59 5262.35 4732.09 7165.9 4281.98 5783.48 4701.5 4449.98 4771.65 5589.37 5439.49 6639.64 5216.26 3687.65 4887.52 5478.95 3851.85 6318.23 4058.87 4206.98 5174.75 5932.07 4984.46 5948.71 3856.53 5460.89 6040.74 5260.85 2884.65 5393.65 5807.46 4961.99 4648.21 4393.16 3311.29 4549.69 5526.31 5030.15 3644.78 4078.93 5934.82 5128.77 7122.87 5633.61 4243.26 6799.23 4153.84 4888.27 6740.71 5789.55 6487.56 4854.11 4633.05 4901.2 2275.45 5971.22 4909.31 6522.59 5012.5 5711.62 5435.19 5461.55 4270.15 7093.13 3298.2 6306.21 5926.11 5253.37 5211.38 5235.11 3830.46 6515.8 6031.67 6413.11 5529.42 5274.14 5257.12 4636.5 4819.73 4434.19 4903.82 5100.1 3382.7 4940.42 3954.91 5085.71 4371.99 3703.1 5923.4 4946.42 4623.61 4082.47 5203.08 2965.01 6235.57 6263.44 4863.27 3492.19 5122.63 4584.5 4118.84 6766.43 2315.64 5916.16 4703.08 4890.5 6934.37 3731.84 4488.85 4579.69 3981.07 3554.48 5186.3 6496.52 3991.42 5966.61 4388.63 4514.79 4940.28 4834.87 2216.82 4509.89 3672.21 5760.22 6752.75 5938.17 5269.38 4795.43 2928.82 5607.3 4811.76 5313.12 5498.42 5351.56 3344.57 6448.66 5220.76 6945.98 5138.2 6412.67 7001.83 4504.35 4593.7 5012.97 4349.13 4036.91 4891.67 5110.11 6379.14 3634.5 6631.28 6571.31 4392.65 6413.15 6103.11 5048.55 6459.51 4024.31 5844.72 3992.97 4147.31 5989.05 4054.22 7228.94 4441.22 5853.89 6551.93 4595.12 3110.13 4386.8 6484.43 6423.81 4625.67 6192.77 3485.54 4458.64 4312.15 4583.52 4501.78 6418.11 6015.02 4922.49 3572.94 5797.36 5001.58 4820.17 5119.86 4729.42 4592.15 5084.17 4901.44 4998.22 5533.19 5417.21 6602.43 4383.56 3562.79 4798.17 4990.79 6865.76 4953.1 2895.63 5424.46 6449.64 5266.01 5767.9 4857.84 2978.76 2040.66 7016.27 5384.76 6622.11 6138.12 4689.15 4428.78 6790.73 4965.89 5746.28 5187.7 5659.95 5409.66 6090.91 3561.29 3295.83 4186.6 4537.14 4152.85 5551.9 4219.78 4963.34 5644.82 6413.02 4440.57 5412.31 6736.03 5548.29 5374.07 3623.87 7480.41 5163.77 3423.15 6027.62 5765.42 5010.2 6098.95 6123.03 4997.83 3718.69 5148.08 6192.0 5885.28 6579.31 3004.34 3022.6 3804.5 5375.1 4172.6 4638.18 4196.37 5211.6 5806.31 3556.79 5456.71 4453.97 3503.41 7317.04 3971.08 6204.65 4482.9 6550.4 3766.69 5513.8 6818.91 3503.65 4521.75 4027.63 3429.57 5569.2 5350.88 4642.74 5420.67 6735.97 5305.59 5416.45 4330.58 5754.6 4955.16 3288.01 4904.51 2202.77 5751.15 5950.88 4149.55 5474.01 6201.86 7554.58 3380.69 4140.4 3639.44 5446.4 4725.01 5966.75 5510.9 3657.69 4883.63 3492.83 6280.13 5244.22 5585.14 7039.98 4438.76 6456.58 5089.26 4159.81 3886.72 5244.98 5415.45 3776.8 5096.43 6156.21 6104.26 3568.28 5583.61 5166.79 5425.98 4516.53 5996.66 5818.95 4093.99 3940.49 6464.8 5079.22 4908.49 4452.54 4684.44 4962.21 4749.59 5089.62 5884.9 3685.65 3468.42 3685.13 4590.55 5243.43 4673.35 4741.26 3876.21 4655.16 5920.32 3701.16 4916.22 5251.4 6022.7 3867.19 4188.3 4345.67 4453.64 5081.78 5019.93 3885.86 4459.28 5235.29 4260.92 6116.33 4479.94 5499.39 6250.23 4407.9 4718.54 4435.51 8659.64 3087.09 4588.7 4055.54 5683.95 3766.55 5469.13 6107.89 4976.12 4233.8 4817.16 5530.49 5453.98 5660.55 5578.94 5653.03 4157.29 7610.49 4777.03 4286.17 4246.61 3684.56 6028.09 5323.55 5452.36 6486.37 5561.74 6083.28 5975.23 6100.73 4745.79 4198.94 5470.04 4908.75 6556.26 5684.25 5438.92 4244.49 4050.03 5036.98 4775.04 4120.07 5188.53 3840.21 4882.66 6746.66 4954.76 5410.33 3908.56 4844.83 5244.78 3636.15 5652.87 6114.89 5135.63 6384.7 4355.83 6870.97 3896.27 5351.86 6056.87 5230.02 5307.35 4342.18 6016.08 5166.89 5491.63 5725.37 3868.62 5138.33 4505.28 3743.76 3425.69 4971.29 5510.45 3684.15 5832.29 4730.14 2606.51 3994.39 6006.89 4618.73 2955.36 3814.65 3668.93 3965.3 5792.98 4960.64 6592.93 4983.3 4385.81 6350.71 4034.05 6436.74 2460.79 4456.11 4653.83 6063.64 6479.39 4986.71 4122.92 4405.42 4997.91 3604.14 3598.08 4599.81 5381.54 4406.05 5810.77 4680.94 4858.44 5089.1 5799.69 5828.35 5571.72 5876.72 5869.4 5689.26 5297.19 4992.42 7051.9 4940.84 4255.85 5097.69 5511.6 6261.75 4517.73 3757.34 5177.64 6415.61 4338.08 4541.8 5453.3 4255.31 5191.08 3838.47 2588.37 4062.5 5887.15 4199.45 5415.85 7234.66 4207.54 6599.66 4886.12 6419.12 4301.61 4936.96 5206.33 3184.64 4446.84 5065.26 4304.41 3746.36 4892.44 6789.23 3989.7 5107.0 5069.89 6212.15 6813.72 5327.75 4609.02 4946.23 4896.65 4852.58 4532.7 4504.86 4788.08 4473.29 6163.54 5212.37 4211.82 5965.58 6003.78 2628.22 3352.34 5058.51 4901.29 4607.18 3899.7 4124.76 7200.89 4813.33 4952.52 4802.98 4833.55 3646.95 4081.34 7224.99 6334.53 5377.37 5869.67 4311.48 5483.7 4899.73 5018.69 3152.86 5952.38 6394.19 5973.89 5807.52 5963.36 5518.11 5087.14 5712.35 5169.48 5701.52 4731.21 4743.9 3124.7 6064.71 6102.98 3719.11 6060.17 5153.18 6711.21 4763.4 4236.86 5393.76 4941.02 3864.92 4983.1 6119.99 4128.1 7123.04 4009.24 5372.82 4402.17 5690.96 7778.01 5127.82 5798.38 3862.91 4125.9 5096.24 5366.11 6171.71 3908.98 7382.3 4668.88 3628.89 2995.67 4022.56 5027.43 5522.21 3772.3 5698.23 4855.01 7300.58 2711.19 4028.32 4714.83 5236.43 3809.69 4099.92 3208.96 4771.13 5285.07 4680.14 3858.06 5895.77 4732.09 4608.41 4765.72 4833.46 3988.3 5857.79 2908.7 4039.91 5750.07 4642.66 6136.49 5276.7 6543.13 5149.72 4752.14 4950.97 5037.06 5660.16 5842.56 4094.73 6134.99 6200.54 5424.88 5148.58 4652.01 3583.49 3548.39 5421.64 3673.28 4858.51 4366.74 3375.28 4603.5 5354.66 5625.65 4647.67 4214.44 4481.76 5378.23 5375.12 4787.97 5452.78 4356.36 4981.43 4741.28 5473.72 2603.64 4215.2 2856.55 4553.68 2205.51 5361.87 3894.64 3703.49 6502.97 4268.19 4374.74 4783.07 3758.22 4757.2 6200.63 6816.66 3217.67 3844.54 5079.64 5034.69 4509.46 996.652 4680.69 6500.49 6127.39 4972.18 5329.76 2403.72 5078.59 5134.33 5419.57 4147.49 5162.67 5760.98 4705.68 5469.35 5384.86 4749.96 4658.24 4906.11 4387.39 4564.1 5457.66 5509.51 4848.14 5366.22 6193.73 5254.24 3742.11 4192.21 3597.43 5144.56 4158.91 6776.22 3360.86 5321.17 3034.16 4869.25 4467.13 5545.21 3877.8 4333.87 6273.6 5902.67 5136.87 5024.32 5454.11 5806.61 3779.45 5784.37 6010.59 3682.35 3756.96 5182.13 5906.57 4446.58 5401.4 5053.15 5910.86 5124.17 5805.1 6239.68 7320.78 5039.12 3419.87 4064.58 4234.88 4824.81 6589.82 6328.42 7307.21 5522.75 5867.64 3608.06 5474.15 6208.9 7519.2 4923.57 3340.09 6633.61 4884.59 5217.95 4478.6 6355.68 4083.79 4184.23 4511.7 4144.57 4351.38 4304.63 4187.94 5980.59 5933.7 5550.75 4809.67 5021.77 4757.74 4687.64 4378.3 5469.47 5036.58 4419.71 4244.21 5512.16 5411.02 3197.63 4287.16 4989.56 5175.29 3645.12 4863.96 5199.44 5471.74 5713.03 4928.27 5849.65 5134.67 5775.31 4847.14 5052.84 4165.21 4215.0 5297.16 3950.27 3566.79 5116.66 5003.78 3629.44 5374.67 3299.24 6246.56 4061.6 5826.78 4508.18 6214.73 5175.89 5064.67 6618.21 5232.85 4062.56 3205.68 3717.47 4051.18 5969.37 4928.35 4337.32 1937.5 5849.53 5241.75 4731.53 3763.9 4651.99 3538.53 4420.11 4788.7 5863.0 5640.12 5084.5 4918.64 6638.25 4759.99 4368.12 2646.13 4365.58 5214.4 3629.49 4636.53 5399.43 5766.05 5117.64 3835.81 3916.42 4019.34 5429.3 4869.48 5510.96 3623.19 4745.16 6653.07 4697.91 5825.55 5071.98 5719.79 3199.4 4316.5 4371.08 7261.51 4968.14 4914.03 5086.29 5527.13 5311.55 5139.18 4278.57 5551.43 5049.99 4201.03 5001.87 3667.93 5684.05 5638.7 4708.17 2741.2 4644.88 5790.42 5293.13 3142.09 5591.77 7350.26 5167.53 6110.48 7541.76 4775.49 4932.29 4681.29 5499.59 3220.29 5749.6 3845.9 4141.21 4834.44 4384.28 5782.43 5769.14 4456.26 5944.3 5113.6 3563.14 4810.98 3381.82 3619.72 5135.5 5347.9 4646.51 4438.58 6059.93 4565.93 4504.52 5602.53 6061.63 5484.36 4829.35 4867.7 3953.55 4075.28 4063.9 5263.27 4277.24 4469.54 6834.41 4314.56 6300.92 7248.4 4356.25 3796.15 5161.1 5776.96 5329.59 4888.12 4209.49 6119.63 5464.25 3498.16 5486.48 5439.9 4752.9 4409.27 4588.99 4947.24 4617.55 3875.05 3540.11 4321.21 3456.47 5950.45 4344.34 5088.57 5580.34 3852.6 5009.83 5131.15 5210.38 4110.59 5717.8 3332.49 4706.5 5210.75 4811.22 3683.86 4474.83 4918.76 6555.44 5293.75 4208.41 5114.07 5730.61 7124.45 6358.93 5836.26 4383.68 6666.67 2617.39 6063.44 5144.44 4583.94 4826.52 5120.92 5046.31 4685.4 6240.42 5146.0 5721.14 4288.45 4577.73 4987.28 6206.98 6562.03 4815.47 4410.82 6443.99 3889.98 5193.58 5490.64 5695.44 4507.46 3422.21 5603.68 4944.51 5532.72 4584.81 3220.8 5179.17 5579.39 5270.51 5148.1 5490.75 5224.64 5214.63 5949.73 3495.68 4312.48 5783.94 6370.33 5081.08 6318.25 6864.06 4493.79 4932.56 4279.44 5813.79 4899.19 5058.34 4028.22 3918.94 3768.46 5487.63 3852.82 5003.3 4507.36 6245.52 5800.81 4990.23 3954.77 3784.94 6016.87 3125.13 4439.71 6715.73 4174.44 5667.51 4708.31 4564.41 3873.92 4027.33 4198.9 5431.29 5091.22 5026.76 6282.38 5023.41 5640.72 4546.44 5851.63 7107.63 5727.79 5073.02 5212.92 4831.93 2279.05 6545.43 5788.97 6760.92 4989.2 4023.93 5868.89 8137.11 5291.05 3928.53 6650.77 6045.67 4216.95 5466.33 5742.74 3946.28 5280.12 3821.94 5984.81 4209.31 7013.17 3805.67 5718.28 4247.69 5301.47 4640.06 6242.79 6506.86 5391.48 4803.57 4923.43 5966.42 4568.64 5666.95 4642.2 4127.53 4489.99 4548.45 4945.0 4658.11 4212.15 5658.14 4551.26 6570.35 4385.49 4242.63 4263.18 3269.54 7142.95 5064.23 4559.74 6015.22 4454.74 2904.46 5512.44 6449.06 4924.07 4629.02 5914.5 3565.32 6006.16 3419.07 5407.96 4608.62 4071.75 5344.44 4626.72 5131.77 5549.71 4967.51 5173.82 7212.97 5698.53 3769.2 5034.34 4450.49 5036.14 3468.45 5635.32 4526.34 4316.45 5610.95 5042.75 4598.92 5241.22 6647.08 4979.52 3422.29 4501.05 4407.79 4537.03 6548.29 3990.96 5352.24 7362.42 4202.77 5836.14 5473.05 6008.81 5537.34 5192.49 3487.31 5726.42 6643.4 4674.9 5575.11 5461.72 6599.28 7145.73 4168.52 4556.19 5403.97 5106.46 6793.1 5166.05 4068.31 3671.06 4506.66 5077.29 5515.73 5209.55 4850.5 6331.74 5951.86 5763.05 5129.68 4252.18 4833.67 5357.39 4659.88 5325.91 3791.41 4092.07 5657.55 4184.21 4224.3 4700.07 5188.82 3472.91 4464.73 5615.84 4928.85 4717.73 6440.38 5556.0 5484.32 4711.04 5007.21 6226.14 7144.05 4173.54 5599.29 5606.51 4801.8 7216.98 6038.68 4444.97 5721.05 5046.12 5271.02 4807.4 4264.54 4350.15 6329.53 4590.01 6541.45 5367.73 4263.78 4601.74 4514.39 6101.86 5078.31 4227.41 5993.0 4807.35 6761.81 6047.14 3903.91 5467.63 4728.55 4929.6 4554.68 3919.62 5750.35 4368.28 5984.8 3127.83 5236.24 5260.52 4585.04 5678.58 6102.49 3185.09 3469.18 2945.34 5114.23 3372.95 4489.29 5495.0 7407.91 6061.85 5846.95 5716.42 5268.15 5819.0 6347.72 3200.6 3460.93 5124.86 4927.73 4602.57 4571.74 3763.85 4096.86 5710.33 3622.48 5001.51 6432.8 3186.07 5115.42 4369.86 4082.4 5482.76 3745.02 5728.58 3720.7 4887.73 4211.36 5378.24 3604.31 3856.73 5817.74 5887.71 5661.6 4827.61 5409.08 5285.75 5385.03 5481.64 4169.15 5673.75 5360.67 5968.54 6263.3 5592.54 3247.97 5124.34 4114.2 4326.06 5034.46 5757.29 5793.12 5016.46 5469.17 5061.75 4373.2 3769.24 6022.78 5884.99 4087.32 6647.85 7025.09 3392.26 4433.12 2549.95 4361.24 5138.93 6224.85 6406.8 5368.66 4795.08 6562.92 5501.73 4697.24 3612.44 7035.54 4983.43 5233.76 5426.4 5866.91 6405.69 2820.07 5679.74 5076.84 5853.12 5247.01 4213.05 4208.37 5157.38 6203.03 5235.87 5702.4 5273.37 5069.9 952.938 5043.14 5473.89 6089.45 4732.37 4985.3 4966.07 5072.5 3904.07 3274.85 5713.36 5748.9 4619.2 5545.59 4506.18 5166.41 5740.65 6542.5 7104.73 3000.29 5067.56 2596.96 3834.47 6349.67 5701.75 3272.75 2781.96 5262.47 5261.19 3512.94 7043.44 3516.27 4139.3 3831.52 4750.49 4263.65 4643.9 6106.43 5228.75 5644.81 6545.99 5334.36 2918.64 5630.9 4512.07 4140.92 4756.8 4692.32 4896.43 5463.06 4176.32 3986.41 4639.8 6069.78 4241.68 5532.75 6949.65 4095.83 4975.85 5695.25 5676.61 4301.93 5796.26 5701.63 4603.04 4870.94 4620.95 5293.37 5368.93 5271.88 4488.39 6121.56 7168.2 5740.78 4796.12 5997.91 5385.86 6791.86 4209.0 4930.72 5485.84 6424.77 6297.99 5918.95 4538.89 5689.56 6556.86 3242.31 4898.29 6099.28 5372.25 3234.26 4830.13 4778.37 3494.16 5370.9 5134.17 4074.16 4904.35 6172.27 5390.33 4904.37 5078.73 4651.64 4358.81 5278.54 5729.0 5729.92 5275.57 4179.87 6224.13 4761.84 3661.67 5517.65 4009.68 4622.73 2569.12 4161.32 5161.74 7336.37 5099.9 6945.69 5118.86 7086.69 5648.78 6875.73 5226.42 4436.48 6081.3 5615.35 5117.52 3967.76 6311.89 4683.28 4217.36 6549.8 4825.73 4851.18 4165.36 5288.33 4841.7 6296.54 5797.21 5685.74 6740.35 3673.6 4678.7 5810.17 3306.84 5265.21 4657.24 4400.14 4749.18 5553.94 5494.28 4067.96 4824.12 3663.0 4099.26 5206.47 2970.9 4834.39 4383.47 6162.3 3926.11 5971.21 5493.89 4057.17 5464.83 3622.8 4184.47 4770.51 5414.58 7066.96 4431.23 4467.0 4991.35 3104.96 4994.65 4587.7 5601.55 4258.98 4462.87 5196.92 5759.79 3787.08 4013.86 4598.54 4177.47 4816.51 5218.42 4218.16 4933.49 5345.73 4770.63 6139.64 4841.23 3990.94 4357.11 5477.8 5486.89 4462.35 4549.51 5196.08 3587.93 4517.29 6257.79 4495.75 4849.5 5323.95 6229.83 6171.01 4468.26 5578.18 5106.33 5198.94 5933.54 5559.79 5879.24 2980.31 3148.79 6348.93 6824.53 4332.64 5232.16 4742.82 4422.23 4820.68 6031.22 3989.26 3618.64 5703.84 4335.79 5453.69 3530.82 5797.32 5432.04 3921.27 3702.45 3161.1 5265.63 5684.88 4431.06 6523.78 5730.2 5620.88 4941.52 4529.77 5900.0 4325.13 4262.74 3783.79 5317.19 4248.14 5279.19 4016.6 5192.92 7050.08 4786.66 5891.25 5370.1 5129.4 5114.51 4746.15 3303.49 3720.38 4655.37 5585.25 5256.75 5023.61 6351.89 5932.28 2960.5 4975.32 4298.7 6170.9 4183.4 3902.48 4304.64 4733.79 5833.78 4905.53 4823.06 5758.98 5288.64 6213.24 6734.39 5942.45 4150.76 4228.53 5005.72 5368.52 6142.88 4871.77 5811.26 5062.77 5388.73 6019.35 6075.99 4884.93 6028.63 4600.71 5262.79 3450.07 5927.2 4550.92 5146.1 6215.87 5191.26 5866.42 3669.32 4704.92 5610.53 3742.31 4762.1 4954.81 4316.0 6304.49 4546.96 4580.06 5424.55 4608.34 5755.15 5134.72 4835.97 3814.16 5695.79 4191.01 6419.64 4589.06 5340.05 6506.63 4920.88 4140.04 5995.4 5577.41 5917.34 6511.37 5740.98 4346.07 3999.5 6710.14 4012.92 5034.05 4426.02 4711.15 3825.48 4474.39 4658.59 5188.22 3810.68 4196.62 2804.54 5005.6 2809.19 5589.53 4104.04 7208.19 5025.42 5234.2 4965.24 6379.38 5327.05 5438.55 5353.23 5977.66 4523.81 5209.5 5065.74 5791.25 4873.23 4028.35 5464.05 5410.6 5453.2 5264.83 3901.53 5136.51 6815.51 5313.86 4457.05 5189.91 5777.26 4171.02 7012.36 5028.06 4886.99 4002.99 5587.3 5159.67 5764.52 3770.22 4390.64 5150.84 4645.86 4045.67 5087.97 6005.95 4308.49 4930.17 4581.1 6241.77 4745.44 4085.96 5762.82 7360.12 6223.98 5821.49 5617.29 3035.06 5580.44 5998.13 5095.52 4878.93 6275.25 6892.33 4758.84 4731.37 4505.3 3976.0 4672.86 6530.78 5059.37 5560.23 3043.77 5237.55 4139.39 6264.03 3909.94 6030.39 3799.01 7392.65 5254.49 3757.23 5319.1 4181.93 6828.8 5987.88 3579.59 6123.46 6161.94 4065.28 5155.28 5057.59 5111.26 4461.14 5285.6 5205.38 4574.54 4949.55 3132.34 4764.83 3957.38 4494.15 5035.71 6485.77 4419.79 4710.88 6060.06 5544.27 3869.39 3484.81 3987.69 5960.5 5308.33 6502.99 4287.25 4666.12 4921.1 4392.75 4271.07 6219.34 6023.07 4420.6 5674.63 5287.25 5939.22 4215.05 3626.86 4668.8 3495.3 6371.96 5890.25 4271.93 5125.17 5322.11 5700.79 4216.44 5735.08 4697.49 7133.44 4726.2 4750.81 3953.26 4282.11 5467.51 4625.53 5459.92 2347.41 4096.47 6478.35 4542.16 5453.77 5114.67 4916.7 2638.82 5030.33 5593.79 5104.39 5847.91 4612.13 4934.66 5846.6 4109.44 4903.84 4290.49 4557.1 4434.65 6688.53 5927.1 6175.27 6500.45 5876.51 6731.89 4286.61 2932.52 4733.41 4603.66 4969.68 3557.46 6636.43 5431.14 6298.8 3689.24 5178.07 5151.19 6509.54 6119.0 3792.06 5128.59 4993.49 4293.3 5310.33 6583.37 3572.73 3688.83 4864.38 3402.44 4848.98 4491.96 5184.98 4608.01 4467.51 5339.82 4519.03 5460.57 5110.27 5703.34 4612.68 6668.98 6649.52 4232.33 5462.6 4747.68 4262.19 5770.92 3093.38 4597.88 4845.91 2002.78 5631.32 6322.0 5793.14 4452.36 4491.26 4068.41 4511.34 6463.71 4742.35 5783.38 5394.79 5645.54 5264.08 5088.64 4526.87 3562.8 6589.8 4151.74 5192.82 6920.92 3729.16 3038.91 3783.36 3922.28 4067.89 6570.43 6883.86 3350.99 4979.5 4745.37 5939.29 5418.98 5575.11 5615.06 1969.87 5490.54 4841.28 4047.95 5203.54 5507.38 6889.5 5001.69 5407.69 4416.87 5300.17 5152.78 5393.43 4117.9 6896.55 5534.23 4638.09 4753.76 4685.65 6025.77 4441.91 5377.01 5330.26 6470.23 4475.38 5828.25 4725.11 5418.12 5934.05 4604.1 4714.66 5322.07 4859.01 5076.11 5524.45 5990.75 5600.21 4656.01 6589.13 4037.86 5602.62 5714.51 3543.37 4938.33 2030.03 5628.97 5353.66 4484.78 5527.27 5157.73 4541.22 5765.14 4946.08 3539.68 4696.03 4984.01 6217.33 4605.39 4698.7 6270.59 6045.26 6263.87 4907.55 5743.8 4094.63 4103.76 6605.11 4757.87 6379.33 5971.95 5130.57 5652.73 3979.46 6321.97 6412.84 2589.19 6079.55 3856.4 4696.06 5485.61 4937.36 5308.4 6581.13 4569.32 5537.61 6084.88 4397.06 4199.44 4053.12 4479.5 6261.67 4014.44 3435.13 5065.78 4431.46 4521.42 3207.84 3977.98 6043.34 4128.93 4939.56 4959.72 4712.17 3808.04 4723.71 4461.67 4405.61 6126.5 4034.88 6007.1 6345.2 4609.65 4832.21 5704.61 5009.21 5410.73 4379.91 4574.03 5290.37 5850.38 4227.66 4691.01 4594.89 4174.22 5245.95 3573.84 5821.42 6294.09 4515.02 3463.53 4571.57 3445.92 3820.19 5131.07 5236.69 4121.07 4586.82 5524.28 3133.28 6026.04 6200.05 5731.43 4052.49 5859.17 3518.14 4034.41 5061.74 5326.03 6189.67 4420.35 6142.94 4948.96 5117.83 5256.82 6581.56 4052.43 4061.87 4057.4 3980.46 4896.67 3934.11 5383.9 5158.44 4781.9 4466.22 4496.51 6815.96 5339.6 6153.71 5917.08 5483.37 5259.21 5092.93 4256.08 2803.01 5881.93 4399.52 4444.0 6771.18 4554.24 5770.07 5101.6 4984.17 5327.39 5781.62 4981.81 4138.59 5141.03 4970.55 8123.59 4819.83 4621.33 4767.54 4801.16 5121.08 2927.84 5688.77 6177.68 5368.28 5466.13 6229.64 2848.44 4220.43 4975.56 7282.36 6666.34 5084.76 4645.91 5581.01 6834.92 5749.53 5247.73 5090.48 5402.45 5034.02 3985.93 5582.28 5945.25 6071.59 5985.75 5475.83 4137.16 6189.29 5984.55 5803.3 3228.27 4721.98 5252.82 4142.1 3543.98 5056.26 5878.55 5445.91 6604.72 6002.77 3794.47 4610.55 4967.02 4614.49 5400.69 4462.5 5573.31 5004.68 4023.88 5348.11 5428.24 5108.84 3511.5 4520.14 5067.92 5488.96 3188.21 5128.03 3720.92 5087.3 4942.63 6139.74 4975.57 7066.26 4730.97 3057.3 3677.85 5214.71 4677.84 4811.11 4924.52 6126.03 4866.8 6044.69 2970.24 4197.87 5105.54 5462.1 6353.81 6032.45 3414.67 5444.36 4150.44 4026.03 5522.34 5771.98 5717.45 5899.78 5772.57 5000.74 4813.81 5268.27 4013.86 4645.93 5165.31 4585.37 5448.64 3798.09 5901.8 6417.61 4288.5 3886.56 5715.51 4511.05 3456.3 6561.94 5317.83 6738.9 4460.89 5992.06 4157.1 8052.53 3939.96 6182.19 4867.12 5910.66 7415.84 4637.3 1458.87 5734.07 4840.44 3997.68 6033.28 6286.27 5071.38 6327.54 5616.66 2943.17 4802.36 5327.71 4880.78 5257.38 5075.23 5625.02 5212.05 4829.77 3826.01 4444.92 6959.88 4125.75 3746.62 4532.67 4876.37 4769.62 5260.13 4649.5 4810.74 5181.31 3900.93 5784.38 4149.17 4329.8 5728.27 3074.49 5672.46 5202.33 3956.24 7558.99 3393.59 5043.14 5333.04 4812.59 4521.99 5394.78 6842.54 2853.68 7115.67 5675.45 5329.84 4998.37 3361.11 6038.56 2807.46 6559.82 5599.16 4179.8 3488.34 4577.98 5658.35 5886.81 4487.51 4582.12 4295.25 7394.47 5357.14 4729.45 4850.95 5919.27 4793.06 6637.38 6188.33 6111.23 6150.31 6916.18 5873.62 3868.69 4996.91 3920.44 5379.52 3768.62 5314.67 5658.05 6593.1 4066.36 4000.51 6033.93 5011.37 2827.92 5092.44 5044.68 4441.44 2649.69 6908.32 3467.11 4817.75 6153.26 5637.53 5244.95 3882.37 4439.09 4634.25 5523.81 4095.4 5188.57 6351.48 5395.12 5357.33 5783.69 3721.69 6074.39 3830.7 5350.9 3483.61 4262.52 7430.48 5640.67 5545.68 6080.69 5555.89 4970.12 4766.47 4967.93 6369.66 6044.01 6520.19 5973.57 5922.62 6241.48 4414.09 5125.45 5957.82 4188.16 3784.68 3717.22 6649.21 5507.07 4654.92 3470.69 5286.55 5522.18 4322.56 5223.1 5509.09 4850.49 3873.72 4981.55 4592.49 3625.98 5479.86 6474.5 3928.99 4702.32 4763.04 5944.52 5971.9 4413.56 5050.2 2513.38 5316.05 4908.32 3995.08 5019.84 4028.13 4457.73 6476.35 6260.58 4067.24 3053.19 6571.26 4313.38 5580.95 6598.99 3549.92 4032.06 5246.81 2468.16 5089.1 5888.95 5203.75 3463.34 5122.38 2459.88 5262.85 4210.24 5470.67 5901.71 3879.83 6565.95 5733.12 5043.34 6436.29 4246.24 6805.02 5354.48 5640.63 4900.26 6261.13 4167.55 5374.09 6271.22 3421.81 5378.75 3920.64 6186.24 5822.7 5786.06 4137.41 5466.49 5447.74 4450.51 4038.17 5007.41 6033.72 4907.48 3851.47 3692.99 4966.74 5563.47 5651.46 3162.27 1635.31 5639.4 6185.73 5516.37 6520.96 4232.44 5336.61 4612.4 3312.3 5563.09 4746.19 4848.15 3282.57 6381.58 4798.13 5648.59 4718.61 6697.45 3873.79 5717.67 5515.59 5252.37 6210.0 3224.81 5432.4 4499.54 5037.58 6457.89 4844.2 6572.17 3751.73 3374.62 4926.62 4871.1 3917.09 6009.93 5678.08 4083.1 3482.73 5872.45 5270.1 5130.56 5191.29 4957.99 4063.26 4947.64 6305.9 4542.62 5093.28 4859.95 4132.08 6009.88 4699.77 5093.41 5144.23 5464.34 6188.62 3621.63 6153.07 4414.06 5908.57 7296.47 5742.39 4821.41 4780.16 4924.53 5616.11 4499.52 3874.12 4813.24 5759.19 3113.64 4490.2 4304.75 5480.86 6139.9 4720.22 2832.83 5827.3 5250.56 6036.99 3010.1 3633.58 6294.14 3825.98 4339.97 4589.22 5087.03 4667.84 5169.09 3906.41 4691.15 4512.6 4260.38 4636.45 4932.27 5225.11 5342.9 5252.22 4962.35 5402.81 4600.81 4919.13 4124.33 5168.97 5783.88 5002.38 4720.34 5244.47 6705.93 4731.16 5510.89 6470.87 4495.33 3780.07 5282.67 4159.89 5747.9 5178.55 5146.69 6203.24 6818.23 6213.74 4959.94 2329.93 4369.87 6938.87 5412.07 5512.57 4083.24 4806.99 3771.91 5432.2 5217.62 3839.0 6178.19 5349.85 4616.81 5715.25 5212.2 4362.94 4611.21 4469.82 5108.42 4630.5 3354.94 6296.36 4404.87 4432.32 5237.27 4451.76 3775.38 7885.41 4046.22 4104.97 4575.72 4081.77 5114.61 4948.21 4987.01 6118.13 4420.3 2181.29 6332.64 4735.99 6492.44 4613.32 5145.39 3996.93 6351.95 5195.09 5345.05 4997.89 7679.2 4881.51 6131.52 2626.41 4311.92 6729.99 6664.54 6842.35 5161.73 5259.48 4777.96 5801.89 6833.5 2613.78 5417.07 3834.01 5738.37 6789.66 4433.23 4739.41 5312.2 5847.27 4706.59 5734.84 3982.31 4950.07 4582.24 3916.15 4474.96 4084.87 4790.63 5259.29 3584.05 4916.75 4818.53 5097.85 5584.64 4123.08 6189.04 6224.64 4221.03 3799.55 5638.51 6793.49 3563.33 4337.93 6060.19 3550.88 5536.0 6786.37 4333.23 3860.8 4328.76 5145.13 5561.63 5940.5 4358.06 5093.51 5647.93 6201.49 4865.11 5449.09 5502.14 4605.61 4465.56 4131.08 5386.95 3864.19 4287.93 5315.71 6158.93 4488.41 5081.65 4823.14 6679.12 5652.19 5806.74 6578.62 4813.55 5856.43 3465.03 4796.04 5229.56 6011.4 5799.86 5172.1 6052.22 6545.78 5376.41 4870.14 2932.2 5105.72 5767.65 4082.01 5003.49 4750.76 5782.25 5497.27 5617.91 4444.95 4706.31 4721.2 4202.12 5161.02 6265.48 2694.25 5003.81 4203.68 4739.56 3818.37 3352.46 4701.03 5663.36 6225.05 5434.04 5200.1 3997.52 4444.54 5779.9 4909.74 5310.33 5299.03 5036.84 3922.98 4565.36 5813.68 4025.08 4008.67 5254.93 4803.4 8013.28 6608.94 3796.73 5283.65 4644.68 2892.36 3082.16 5656.84 5416.41 4694.27 6760.64 2515.5 5177.88 5551.79 3793.83 6981.47 5367.05 4449.73 4758.76 5647.11 4088.72 3945.62 3743.85 6236.46 5342.17 6379.3 3795.63 5189.4 4576.71 4550.77 5082.66 4894.15 6157.59 4345.51 5201.3 4048.73 6223.33 5438.6 3747.96 5611.29 4521.88 6568.45 5004.22 4280.92 4696.92 5154.74 6437.99 6898.8 6632.04 6540.57 5332.11 4893.72 4072.4 5373.78 5345.65 5438.5 4621.32 5699.4 3878.8 6284.12 4698.94 3948.21 5669.15 5296.05 5263.86 4672.34 5056.32 5533.52 5410.33 5003.63 4747.24 4695.7 4944.08 4380.86 5576.16 5269.39 4305.35 3964.03 4907.03 4216.33 5832.72 2451.27 3903.9 5606.22 3943.77 5242.38 3124.49 6081.35 6262.18 5459.52 5566.5 4752.31 4276.59 5579.04 5125.53 5994.21 4884.93 5403.81 5082.25 6964.78 4374.05 5282.51 5504.65 5669.41 5732.11 5040.9 3618.53 5596.68 4770.21 4868.66 3846.55 5159.9 4987.48 5943.61 5981.54 5911.29 5020.37 4414.23 4542.25 5233.88 4849.21 4785.55 5245.4 6189.81 5015.67 6538.04 5848.41 4090.28 4246.83 7370.52 4726.5 5467.05 3724.23 5103.3 4601.54 7263.57 3832.09 5705.96 5267.65 5739.69 3509.34 5360.88 7360.62 4977.64 6004.72 4983.56 5699.51 2489.44 4489.18 5863.36 4632.75 5237.76 4994.98 4286.84 6423.96 6058.13 5894.69 6988.4 3330.85 6635.51 4060.17 6051.35 5302.53 4909.13 4287.61 5648.02 5210.22 3308.75 4604.34 4439.17 5677.42 4929.35 5051.39 6673.92 4633.59 5151.68 4884.94 4609.98 5362.15 4455.61 4738.72 5240.97 5569.85 5405.6 3929.35 5523.96 4223.53 4759.38 4535.94 6960.97 4287.15 5126.08 5604.0 3760.4 4951.02 3919.47 4602.7 3783.35 4037.16 4004.39 4248.58 5479.17 4963.88 5888.94 4727.98 4122.2 5175.88 4516.26 4790.16 3647.26 3731.58 3166.37 5369.42 4985.45 5205.53 4714.52 5499.37 4587.19 5543.05 4883.13 4836.76 4752.94 5551.09 3950.53 4501.1 5581.47 4384.91 4274.05 6550.61 4987.01 4713.56 6094.34 6779.82 5543.67 3999.81 4867.13 6210.48 6377.45 4863.27 2701.42 4502.12 5442.79 3255.93 6853.07 6327.61 5733.59 5575.8 5268.93 3695.72 6874.6 5106.9 5306.31 4733.37 4523.9 3037.72 6395.63 5207.08 6028.89 5333.16 4888.17 5755.98 5392.85 5077.2 5275.27 4277.54 5529.09 4531.46 5925.82 5448.68 4739.5 4072.95 4491.62 3865.5 4182.05 
SCALARS Velocity float 1
LOOKUP_TABLE default
1.52077 1.50766 1.50931 1.52368 1.53092 1.49526 1.52113 1.50832 1.50253 1.51267 1.51254 1.51813 1.53138 1.53905 1.52276 1.50903 1.54118 1.51183 1.54364 1.53416 1.51822 1.52405 1.52749 1.53553 1.50745 1.49826 1.4961 1.52162 1.50832 1.5164 1.51733 1.50985 1.52856 1.51736 1.52358 1.5311 1.51424 1.49681 1.53295 1.52297 1.52754 1.52205 1.52786 1.53311 1.53656 1.53794 1.50399 1.49621 1.4947 1.52105 1.52215 1.50949 1.52127 1.51735 1.52011 1.51669 1.504 1.52087 1.49977 1.51449 1.5303 1.52348 1.50522 1.50286 1.51718 1.51522 1.52405 1.52935 1.53538 1.5386 1.53678 1.51427 1.51773 1.49008 1.52062 1.52827 1.52449 1.51302 1.50177 1.49933 1.50736 1.49843 1.48761 1.50995 1.5308 1.50199 1.51094 1.52184 1.52647 1.53813 1.53178 1.53898 1.53939 1.53566 1.51387 1.52285 1.49022 1.51916 1.52493 1.52962 1.51311 1.4999 1.49393 1.49289 1.48441 1.48881 1.52134 1.50049 1.50418 1.5058 1.50933 1.5316 1.52244 1.54351 1.54052 1.52058 1.52058 1.51918 1.50001 1.50904 1.48735 1.48838 1.49022 1.5172 1.51365 1.52112 1.52627 1.52374 1.51674 1.48727 1.4992 1.49975 1.47607 1.4982 1.47912 1.50792 1.48943 1.48983 1.49501 1.50606 1.50674 1.55271 1.5414 1.53073 1.53825 1.51987 1.5037 1.50205 1.48949 1.48952 1.49191 1.50824 1.51778 1.51839 1.51568 1.52379 1.51357 1.51672 1.49496 1.52321 1.62729 1.47325 1.4677 1.48565 1.49266 1.50449 1.48655 1.52498 1.57308 1.57032 1.53972 1.53602 1.53614 1.53419 1.52872 1.51219 1.48069 1.49325 1.49375 1.50396 1.50221 1.51092 1.51754 1.50672 1.50706 1.49131 1.50949 1.63085 1.49503 1.44748 1.4609 1.47361 1.47731 1.50655 1.49991 1.49931 1.57382 1.5242 1.45196 1.48575 1.5114 1.49596 1.49295 1.49631 1.49689 1.48892 1.48167 1.48692 1.50115 1.50043 1.49544 1.49089 1.48874 1.49848 1.56202 1.74596 1.4438 1.45332 1.49405 1.49443 1.5165 1.52482 1.51546 1.46971 1.4878 1.47095 1.50902 1.50066 1.51371 1.50855 1.49755 1.50124 1.48227 1.48695 1.49063 1.49175 1.4842 1.49113 1.50721 1.53033 1.619 1.40952 1.38978 1.45362 1.47659 1.49695 1.50508 1.51439 1.50921 1.47152 1.40199 1.46967 1.48562 1.51282 1.50665 1.5078 1.5031 1.47611 1.49473 1.49945 1.49296 1.49237 1.50537 1.51742 1.58139 1.52976 1.51695 1.44062 1.48326 1.46316 1.50322 1.49098 1.50416 1.50664 1.49056 1.43047 1.46651 1.45323 1.4588 1.49396 1.47847 1.50027 1.5064 1.50574 1.50801 1.50323 1.49947 1.46655 1.4445 1.5051 1.49081 1.48792 1.49974 1.49476 1.5043 1.50963 1.52826 1.49462 1.4637 1.48052 1.4594 1.47534 1.48488 1.49335 1.49554 1.49974 1.49203 1.47971 1.46433 1.46166 1.46798 1.48606 1.47296 1.49725 1.4986 1.4958 1.44589 1.48938 1.4894 1.48833 1.49762 1.50552 1.4988 1.48612 1.45878 1.46697 1.46564 1.47159 1.48422 1.49351 1.4956 1.48522 1.49233 1.47736 1.46664 1.47461 1.46721 1.47144 1.4693 1.48218 1.47343 1.48575 1.48755 1.48592 1.44895 1.46237 1.48846 1.48349 1.48196 1.48282 1.48905 1.48988 1.48319 1.47846 1.47008 1.47902 1.47229 1.47643 1.48822 1.48609 1.49386 1.49398 1.49611 1.485 1.49318 1.48907 1.47847 1.46857 1.46423 1.46294 1.45726 1.46916 1.47872 1.46882 1.47728 1.47568 1.4533 1.45121 1.46139 1.4507 1.45672 1.47639 1.47205 1.47572 1.47723 1.48221 1.47767 1.48055 1.47825 1.47723 1.47676 1.4754 1.47598 1.48013 1.478 1.49242 1.503 1.49743 1.49887 1.50516 1.49227 1.48796 1.47139 1.46964 1.45886 1.44859 1.45546 1.46156 1.44773 1.46583 1.4547 1.46361 1.45591 1.46429 1.19178 1.44507 1.44854 1.45982 1.47272 1.46591 1.47078 1.47385 1.47793 1.47624 1.47282 1.47136 1.47528 1.46962 1.47993 1.49062 1.47625 1.46796 1.50352 1.52283 1.54598 1.49975 1.50773 1.49308 1.48638 1.48486 1.47911 1.4576 1.44915 1.43912 1.435 1.45242 1.44566 1.45128 1.45725 1.44006 1.44697 1.45529 1.43951 1.45968 1.44785 1.46631 1.47425 1.47774 1.46672 1.47196 1.46483 1.46835 1.46819 1.49149 1.48815 1.50113 1.50563 1.46788 1.49211 1.53643 1.50697 1.47098 1.48678 1.44802 1.43191 1.44995 1.42215 1.44224 1.4482 1.42645 1.41811 1.4399 1.43654 1.43313 1.44687 1.45506 1.45829 1.45759 1.4328 1.42681 1.43232 1.45798 1.45374 1.45653 1.44925 1.46888 1.45791 1.48649 1.46975 1.48967 1.45595 1.43399 1.46531 1.46935 1.49436 1.49809 1.51752 1.53072 1.49601 1.44733 1.42882 1.42844 1.45351 1.43598 1.47133 1.41987 1.43701 1.40118 1.41207 1.44984 1.43617 1.4551 1.45686 1.41906 1.42638 1.42686 1.44471 1.45046 1.44777 1.45905 1.44795 1.47663 1.48758 1.39964 1.46868 1.48127 1.49438 1.46493 1.46979 1.51832 1.57203 1.56146 1.5772 1.53313 1.53453 1.4844 1.39092 1.43082 1.41623 1.47625 1.42866 1.42117 1.37776 1.45263 1.42154 1.44529 1.42221 1.4814 1.47686 1.46567 1.45823 1.19178 1.40951 1.41586 1.44847 1.44383 1.44771 1.45118 1.43591 1.45829 1.47291 1.48644 1.44208 1.4488 1.42032 1.41428 1.43303 1.50531 1.54367 1.40521 1.42056 1.37481 1.50565 1.41104 1.46819 1.43788 1.45391 1.44553 1.43088 1.40411 1.37362 1.5058 1.4435 1.45709 1.44385 1.19178 1.40229 1.36583 1.46687 1.43291 1.44986 1.42233 1.47236 1.4696 1.4334 1.45841 1.44737 1.40045 1.42085 1.47054 1.50691 1.49018 1.52501 1.46126 1.40616 1.56845 1.36987 1.39871 1.45025 1.4406 1.44223 1.23731 1.38194 1.28799 1.39928 1.43445 1.44439 1.3435 1.3763 1.47822 1.42958 1.47636 1.40845 1.19178 1.38436 1.38688 1.50351 1.35151 1.44077 1.52865 1.48247 1.49949 1.46518 1.45084 1.42645 1.44623 1.38454 1.36429 1.42679 1.44357 1.44362 1.44978 1.49322 1.50287 1.205 1.53294 1.40774 1.37258 1.45751 1.41007 1.39185 1.61699 1.41009 1.40453 1.321 1.411 1.47629 1.18358 1.51788 1.44893 1.55984 1.2245 1.37874 1.48353 1.44956 1.43414 1.43521 1.40371 1.39867 1.39129 1.44693 1.3358 1.31517 1.39491 1.38458 1.40522 1.41529 1.51105 1.65552 1.34424 1.54851 1.40876 1.25266 1.47631 1.48997 1.34987 1.3817 1.45069 1.4378 1.43097 1.44539 1.4064 1.39262 1.36916 1.45362 1.49182 1.45393 1.34826 1.40004 1.49578 1.44341 1.5081 1.4911 0.739452 0.891081 1.85226 1.87428 2.8664 1.70088 1.65057 1.44099 1.40584 1.47647 1.47347 1.41022 1.38637 1.50642 1.48492 1.35356 1.33536 1.38271 1.4405 1.41268 1.04211 1.12727 1.53064 1.54447 1.18979 1.36392 1.29622 1.17016 1.45449 1.37261 1.33373 1.35575 1.34163 1.38038 1.38048 1.36819 1.46461 1.42259 1.40943 1.40806 1.51899 1.4423 1.49329 1.46531 1.52725 1.64692 1.25524 1.82698 1.08048 1.14988 2.7525 1.38488 0.902447 2.34026 3.27352 0.392256 1.31237 1.63118 1.48191 1.39555 1.32887 1.42624 1.58344 1.56793 1.45953 1.4258 1.33221 1.38569 1.24959 1.35961 1.29022 1.22392 1.25946 1.29259 1.25813 1.21379 1.40702 1.21778 1.19307 1.29154 1.33035 1.3026 1.35849 1.34538 1.36065 1.35521 1.38703 1.39669 1.42592 1.5374 1.49913 1.50612 1.76543 1.43911 1.53593 4.53205 1.91005 2.24645 1.21662 1.32679 1.03749 0.963852 1.08885 1.07359 1.14403 1.19529 1.24477 0.993405 1.00487 0.852027 1.06983 1.20531 1.07942 1.40403 1.37407 1.30853 1.17132 1.24077 1.57672 1.49566 1.41908 1.46804 1.27572 1.38559 1.26257 1.07551 1.33474 1.21503 1.28424 1.16925 1.24182 1.29469 1.23641 1.25421 1.3029 1.34172 1.37013 1.41035 1.31413 1.25424 1.38289 1.44604 1.42386 1.55024 1.35081 1.58581 1.52419 1.27705 1.69332 0.817333 0.988119 1.32348 1.18983 1.07604 0.848639 1.13559 0.737114 0.79847 1.0395 1.0531 1.04619 1.08089 1.03776 1.01436 1.04868 0.994079 1.051 1.01971 0.977948 1.31513 1.51037 1.32163 1.32326 1.42316 1.36649 1.57871 0.915493 1.6289 1.47442 1.07958 1.15613 1.27492 1.36899 1.56127 1.30015 1.27463 1.28453 1.22589 1.10992 1.13307 1.23906 1.0516 1.17631 1.22276 1.28254 1.29517 1.26561 1.26452 1.40636 1.23974 1.50408 1.33674 1.32528 1.16163 1.068 1.54247 1.65585 1.81821 1.563 1.19816 1.02454 1.11374 1.03637 1.07659 1.07498 0.965677 1.05322 0.820226 0.787966 0.922779 0.916475 0.937924 0.962541 0.991974 0.877861 1.14595 0.846426 0.991367 0.856667 0.889352 1.01957 0.995244 0.917845 0.935474 1.01746 0.987959 0.964279 0.929782 1.09143 0.967129 0.830616 1.25071 1.17507 1.03986 1.21485 1.43365 1.17922 1.20707 1.22269 1.12264 1.1364 0.969595 0.985002 1.10597 1.46321 1.19037 1.19604 1.03569 1.0376 1.29059 1.25979 1.12026 1.01515 1.20732 1.3856 1.36738 1.19908 1.28136 1.22487 1.12639 1.21155 1.05866 1.15248 1.17256 0.97457 1.37359 1.3304 1.17879 1.2581 1.12399 1.21051 1.40479 1.24623 1.29144 1.1997 1.27683 1.13607 1.10862 1.29121 1.01546 1.28158 1.04358 0.706656 0.820829 1.00503 0.990803 0.992081 1.04423 0.974883 0.938757 1.04162 0.934057 0.933909 0.893705 1.15959 0.85818 1.09663 0.697027 0.718159 0.864357 0.871224 0.858524 0.918947 0.870196 0.880683 0.918501 0.893847 0.908166 0.940444 0.908233 0.915809 1.00655 0.789998 0.906436 0.775955 0.885852 0.912961 0.748074 1.11906 0.915314 1.18774 1.1796 1.25411 1.11607 1.04688 1.16356 1.0093 1.19854 1.01018 1.14646 1.07534 1.17789 1.0392 1.32541 1.15697 1.28862 1.13754 1.09052 1.09184 1.07227 0.978886 0.942275 1.11623 1.57466 0.974324 1.1444 1.07442 1.14018 1.23535 1.1365 1.20256 1.12119 1.08787 1.16378 1.10876 1.02154 1.04798 0.975668 1.03879 0.981415 0.975386 1.02623 0.987277 0.997594 0.959614 0.916608 0.893889 0.909815 0.871892 0.885844 0.914566 0.756032 1.12518 0.949328 0.878338 0.899697 0.786434 0.751516 0.737273 0.86732 0.855338 0.863611 0.931595 0.918949 0.887073 0.902246 0.899386 0.946772 0.91265 0.924721 0.765202 0.663381 0.905115 0.718935 0.710087 0.786679 0.890929 0.899833 0.883051 0.864591 0.859385 1.05011 0.990368 1.32433 1.07232 1.0446 1.05048 1.01069 1.04104 0.97164 1.0854 0.946957 1.04333 0.948946 1.01269 1.04444 1.16738 0.9616 1.07077 1.06487 1.08979 1.06759 1.0825 1.07104 1.27553 1.14379 1.11099 1.1445 1.02363 1.10165 0.884034 1.12641 1.07535 0.900774 1.25757 0.869485 1.20108 1.18256 1.09277 0.997873 1.10088 1.14727 1.11615 1.1772 1.04111 0.968625 1.06592 0.978065 1.0243 0.965222 0.972987 0.998612 0.938555 0.968025 0.971795 0.934084 0.924612 0.949122 0.912605 0.914447 0.941392 0.886759 0.943613 0.9157 0.793605 0.908408 0.838915 0.790719 0.850009 0.756485 0.731034 0.749814 0.723224 0.749469 0.788995 0.972697 0.906455 0.878376 0.856597 0.890239 0.832618 0.813828 0.884514 0.824904 0.843809 0.85007 0.843766 0.824484 0.817825 0.85521 0.793488 0.866151 0.771636 0.764382 0.766565 0.770103 0.885462 0.881952 0.936749 1.06117 1.13369 0.997785 1.02588 1.07341 1.00595 0.966073 0.99494 0.989331 0.933029 1.02885 1.05665 1.09544 1.03028 1.04042 1.02458 1.11673 0.837605 0.947472 1.23142 1.09988 0.970852 0.921105 1.02641 1.0125 0.983973 1.04334 0.944299 1.22685 1.1303 0.974835 1.06343 1.03608 1.15533 1.05898 0.919362 0.929363 0.853294 1.10545 1.10708 0.861674 1.0017 0.881756 0.978906 0.924428 0.908809 0.935615 0.874891 0.931612 0.975423 0.916687 0.779463 0.869967 0.88346 0.957125 0.945616 0.779265 0.782063 0.809687 0.856693 0.78985 0.636487 0.751263 0.853166 0.979811 0.126683 1.10894 1.26968 1.03165 0.580621 2.16109 0.705041 0.712917 0.756051 0.759816 0.751454 0.813521 0.795846 0.78751 0.801276 0.779 0.780858 0.776543 0.843362 0.843703 0.905817 0.884527 0.918979 0.925552 0.9599 1.05738 1.02786 1.01914 0.960515 0.906139 0.919946 1.02917 1.03269 1.05667 1.01494 0.983075 0.992412 0.976437 0.955278 0.966096 0.960414 0.947836 0.953465 0.935959 1.002 1.04033 1.01744 1.02405 0.992755 0.959983 0.995553 1.0178 0.865891 0.944994 1.1805 0.743575 1.05024 1.05684 1.10134 0.956689 0.955435 0.923653 1.01017 1.00576 0.972424 0.948763 0.987294 1.01528 1.04032 1.04068 1.09501 1.04242 0.925745 0.852495 0.802876 0.797853 0.739435 1.08158 0.99993 0.881357 0.85922 0.854683 0.979172 1.10132 0.924954 0.868077 0.962368 0.975608 0.971712 1.01129 1.04834 1.13546 0.779983 0.786218 0.921832 0.787113 0.761813 1.04486 0.918412 0.853319 0.893922 1.37455 1.02216 0.882526 0.897597 0.51017 0.504675 0.584809 0.891468 0.910782 0.947767 0.939077 0.52589 0.570827 0.388893 0.475835 0.739836 1.13165 1.04324 0.35126 0.727883 0.631668 0.71089 0.726194 0.68636 0.777885 0.756767 0.73548 0.760319 0.763426 0.779286 0.774484 0.764402 0.814469 0.800417 0.894057 0.855314 0.900584 0.906224 0.885513 0.819133 0.979162 0.928686 0.898687 0.988074 1.00007 0.949235 0.960925 0.915365 0.942792 0.944832 0.919065 1.10532 1.00459 0.969888 1.03115 0.996293 0.624081 0.975765 1.02541 1.05919 1.00043 0.911124 0.834418 1.00898 0.90288 0.922246 0.857686 0.880139 1.00973 1.00095 1.03602 1.04187 1.05287 0.966184 0.94232 0.876646 0.860979 1.0749 0.968424 1.05128 0.737528 1.0295 0.97576 0.848897 0.693756 0.783361 0.781619 0.820552 0.847137 0.919023 0.796915 0.846829 0.920199 0.813482 0.81172 0.74319 0.829668 0.850604 0.923622 0.840652 0.851383 0.88021 0.76454 0.276064 0.839265 0.780798 0.54004 0.715834 0.783886 0.745792 0.668676 0.656367 0.663482 0.633002 0.678275 0.624447 0.716049 0.716662 0.807547 0.833597 0.906732 0.789057 0.817252 0.781387 0.832482 0.752431 0.758552 0.755856 0.747351 0.788852 0.847432 0.794128 0.77909 0.812296 0.817827 0.842599 0.85784 0.871995 0.881253 0.890536 0.890714 0.893112 1.00467 0.883553 0.846224 0.915072 0.879843 0.898845 0.869331 0.889107 1.02412 0.938248 0.947848 0.879168 0.930836 0.883833 0.905202 0.920472 0.930717 0.925125 0.951869 1.0738 0.971779 0.98348 0.90331 0.967577 0.777675 0.679467 1.03866 0.875099 1.0563 0.999835 1.00905 0.919978 0.93147 0.838441 0.826632 0.896318 0.967722 0.956432 0.900917 0.859165 1.02131 0.985013 1.01373 0.990817 0.880368 0.80121 0.923468 0.909823 0.947468 0.848389 0.896757 0.91606 0.88365 0.924557 0.828134 1.02081 0.732194 0.76656 0.696573 1.0403 0.957139 0.932934 0.96217 0.848487 0.818307 0.807214 0.754716 0.735359 0.749357 0.737052 0.747652 0.89472 0.6855 0.864056 0.862688 0.742975 0.857356 0.653866 0.686176 0.629181 0.776944 0.733343 0.694926 0.724218 0.748205 0.741905 0.745142 0.747135 0.662319 0.67146 0.670997 0.678692 0.686365 0.685733 0.682131 0.679104 0.685593 0.781495 0.732515 0.767061 0.805012 0.808193 0.800574 0.79138 0.765067 0.777727 0.766447 0.726531 0.752717 0.790365 0.878086 0.853394 0.802767 0.82241 0.805282 0.786113 0.841161 0.868369 0.868523 0.894801 0.85567 0.833736 0.858287 0.834394 0.820738 0.846015 0.820962 0.834659 0.894203 0.88176 0.923976 0.944237 0.90327 0.847934 0.806006 0.886617 0.90322 0.889092 0.911316 0.898333 0.92981 0.816378 0.723527 0.752681 0.837184 0.880546 1.02992 0.840062 0.866544 0.867068 0.88308 0.805306 0.874797 0.897447 0.937798 0.987839 0.873683 0.9945 1.02366 1.11952 0.914926 0.933066 0.890404 0.954789 0.879929 0.890966 0.858822 1.00135 0.938982 0.861239 0.948052 0.699371 0.791988 0.650491 0.828084 0.949966 0.858656 0.877013 0.736663 0.75324 0.832777 0.747376 0.808142 0.739715 0.763647 0.795779 0.744863 0.725969 0.894285 0.795957 0.919604 0.881026 0.897265 0.82619 0.891055 0.803316 0.86071 0.801235 0.786384 0.828642 0.798054 0.779806 0.750788 0.78585 0.769864 0.791518 0.77019 0.809481 0.751914 0.760771 0.757532 0.630738 0.651374 0.626377 0.657077 0.681745 0.669164 0.681837 0.680836 0.681643 0.71205 0.702619 0.729142 0.753697 0.766693 0.776538 0.77267 0.784248 0.794162 0.804048 0.786282 0.778544 0.767293 0.78943 0.767135 0.777211 0.808655 0.800533 0.855974 0.826875 0.847132 0.8604 0.853076 0.839771 0.868007 0.834666 0.83524 0.817034 0.804723 0.801082 0.823891 0.866613 0.870922 0.894872 0.878755 0.930135 0.819763 0.886971 0.873633 0.921564 0.863986 0.701236 0.896956 0.841091 0.804027 0.826576 0.920937 0.894681 0.75152 0.791268 0.858324 0.835332 0.891562 0.850884 0.828963 0.726449 0.715801 0.791869 0.88928 0.966793 0.726214 0.847539 0.944065 0.857197 1.115 0.970998 0.798007 0.882484 0.841052 0.737165 0.72786 0.669911 0.820564 0.921298 0.952847 0.859735 1.01196 0.942286 1.0063 0.788635 0.916303 0.986796 0.816337 0.832491 1.01118 0.998928 0.799804 0.846971 0.822905 0.710123 0.770544 0.776689 0.892197 0.889336 0.838213 0.642939 0.779868 0.780836 0.795636 0.830793 0.848971 0.855907 0.844627 0.800305 0.849518 0.77175 0.727671 0.756567 0.701908 0.709023 0.707731 0.775055 0.751194 0.762145 0.749772 0.758551 0.77071 0.742736 0.73399 0.733389 0.654755 0.651136 0.643762 0.660809 0.659528 0.686102 0.681552 0.691289 0.678815 0.692308 0.700924 0.697777 0.718743 0.762254 0.782184 0.788539 0.786116 0.796728 0.791655 0.801482 0.808875 0.778212 0.792773 0.779057 0.800814 0.820988 0.88087 0.851037 0.83188 0.811798 0.822631 0.783069 0.812455 0.751087 0.806341 0.798519 0.784596 0.837901 0.845729 0.846743 0.818848 0.86613 0.969522 1.03701 0.93102 0.927009 0.771525 0.878944 0.710343 0.748158 0.779662 0.864035 0.84663 0.816239 0.833215 0.808925 0.707808 0.809022 0.772346 0.862932 0.818638 0.80174 0.831717 0.79296 0.822076 0.818782 0.932081 0.885283 0.925745 0.590405 0.778817 0.875899 0.795711 0.723852 0.743242 0.78089 0.778046 1.02285 0.99551 0.845618 0.846843 0.914235 0.887383 0.836242 0.88579 0.905715 0.812279 0.805185 0.794149 0.831564 0.85531 0.815528 0.878574 0.872866 0.673888 0.695546 0.804895 0.75133 0.806238 0.815072 0.792253 0.770311 0.788679 0.778888 0.711172 0.782536 0.755545 0.67495 0.730353 0.650529 0.698159 0.756007 0.754237 0.739534 0.762473 0.739664 0.741999 0.727795 0.732553 0.734179 0.739775 0.740793 0.733706 0.739763 0.710156 0.686577 0.651097 0.654017 0.660383 0.661788 0.655087 0.694672 0.649029 0.654778 0.649518 0.643257 0.679639 0.686046 0.684505 0.673594 0.689799 0.691121 0.708132 0.681598 0.687838 0.683395 0.744257 0.699644 0.773907 0.789238 0.779176 0.788523 0.782896 0.779472 0.763761 0.737005 0.754343 0.756597 0.743148 0.749388 0.755282 0.755658 0.749086 0.764734 0.82406 0.833874 0.801169 0.760143 0.771373 0.758075 0.777907 0.874402 0.820055 0.781816 0.742142 0.69878 0.68047 0.995012 1.00548 0.909472 0.817322 0.802474 0.716016 0.752908 0.795629 0.800836 0.828072 0.838321 0.838065 0.799818 0.748809 0.815776 0.815985 0.846155 0.827451 0.826001 0.802726 0.801192 0.789301 0.81872 0.872827 0.980639 0.96333 1.00377 0.788344 0.816735 0.816412 0.76776 0.782511 0.800285 0.732599 0.775958 0.759738 0.711037 0.749689 0.810712 0.753908 0.834863 0.894686 0.848227 0.851601 0.843597 0.86033 0.812387 0.90312 0.746159 0.776985 0.858421 0.926832 0.607475 0.694419 0.684009 0.708732 0.747682 0.733218 0.725218 0.743666 0.725898 0.765165 0.767047 0.754882 0.729835 0.744652 0.695761 0.819821 0.739051 0.850249 0.835905 0.71458 0.759878 0.797665 0.724929 0.711796 0.659858 0.735064 0.666782 0.674566 0.678172 0.682166 0.64704 0.670395 0.664523 0.663873 0.665309 0.64576 0.650108 0.642239 0.658586 0.67827 0.67699 0.746501 0.667402 0.603037 0.701622 0.675222 0.657747 0.656421 0.671254 0.686656 0.70919 0.722949 0.778139 0.758133 0.782988 0.732794 0.709556 0.75857 0.764468 0.737469 0.777854 0.829989 0.815786 0.732082 0.718253 0.761361 0.778667 0.77886 0.789109 0.806305 0.881142 0.759038 0.723949 0.714133 0.681365 0.889315 0.81844 0.780841 0.719716 0.751655 0.773954 0.789996 0.81186 0.779614 0.76918 0.79839 0.803121 0.819935 0.800818 0.774633 0.784343 0.820614 0.81791 0.815696 0.83184 0.823827 0.810801 0.80228 0.806901 0.812689 0.861322 0.875912 0.905002 0.880209 0.818155 0.785113 0.792449 0.799873 0.798364 0.745211 0.750294 0.77974 0.784411 0.769425 0.825391 0.782367 0.76811 0.796185 0.793004 0.706774 0.889311 0.866741 0.666658 0.799191 0.765581 0.777465 1.02909 0.918931 0.73988 0.780911 0.737019 0.766238 0.739852 0.749679 0.753713 0.775231 0.77062 0.746051 0.782868 0.758947 0.700207 0.716651 0.776388 0.739975 0.752633 0.768218 0.759263 0.814085 0.735628 0.725224 0.694886 0.775392 0.733165 0.691881 0.681527 0.717401 0.667847 0.686431 0.663827 0.663622 0.676202 0.672056 0.666056 0.670532 0.670287 0.666173 0.658016 0.635416 0.638391 0.630022 0.635708 0.652398 0.645554 0.665853 0.686017 0.724288 0.692612 0.55511 0.765057 0.612917 0.625996 0.640367 0.715793 0.692645 0.687524 0.658436 0.612697 0.685328 0.706114 0.800676 0.771581 0.764773 0.740215 0.729275 0.74735 0.716801 0.695386 0.655505 0.716578 0.815458 0.78769 0.793285 0.782439 0.82115 0.753481 0.758116 0.677429 0.746987 0.735165 0.778675 0.736889 0.698191 0.718953 0.682578 0.854234 0.781572 0.770818 0.785048 0.77325 0.760275 0.79664 0.778373 0.783934 0.772996 0.785324 0.808105 0.805128 0.799496 0.80332 0.791861 0.796036 0.806449 0.827533 0.828958 0.823398 0.815366 0.817268 0.81542 0.846789 0.869819 0.870311 0.842847 0.801527 0.780189 0.778519 0.764464 0.766085 0.772802 0.764211 0.806987 0.807491 0.729129 0.789782 0.675209 0.771022 0.747432 0.752254 0.724249 0.71275 0.714801 0.720285 1.02731 0.800882 0.742069 0.914276 0.726607 0.730281 0.669556 0.748057 0.775259 0.730696 0.858464 0.786811 0.742329 0.779242 0.765524 0.802058 0.752466 0.751308 0.783243 0.76325 0.733549 0.660682 0.666861 0.689708 0.794993 0.699034 0.740864 0.779066 0.672801 0.734234 0.68953 0.681143 0.691519 0.677457 0.628731 0.673888 0.675441 0.677019 0.676329 0.675206 0.6702 0.665725 0.648565 0.647489 0.637313 0.649921 0.638213 0.642067 0.656099 0.630845 0.655069 0.665215 0.692503 0.69585 0.695041 0.709763 0.722231 0.766807 0.711658 0.676074 0.860963 0.601624 0.667359 0.661474 0.675559 0.64474 0.712314 0.797948 0.768263 0.793424 0.773103 0.80726 0.81513 0.710305 0.612607 0.660541 0.852849 0.943757 0.846619 0.845531 0.64996 0.695587 0.681494 0.728 0.635367 0.70348 0.713859 0.699639 0.712887 0.729853 0.709071 0.728145 0.707909 0.696021 0.693139 0.700003 0.685223 0.747679 0.744125 0.756374 0.772853 0.773721 0.777889 0.788979 0.780444 0.799632 0.808094 0.808411 0.811341 0.805895 0.80176 0.800398 0.817934 0.817568 0.825408 0.828721 0.818538 0.824835 0.824856 0.835216 0.837908 0.847698 0.868042 0.871398 0.833604 0.823827 0.791872 0.813308 0.778586 0.772969 0.778125 0.77416 0.802389 0.782638 0.722282 0.739053 0.720097 0.736019 0.737919 0.703705 0.703073 0.767924 0.905044 0.692866 0.668832 0.730108 0.72674 0.636602 0.79867 0.783703 0.788781 0.743366 0.714028 0.746674 0.806322 0.712145 0.773483 0.77765 0.666835 0.777584 0.660652 0.755945 0.646982 0.648065 0.790035 0.755879 0.711762 0.701053 0.653103 0.736617 0.590408 0.670374 0.685068 0.64527 0.807369 0.663588 0.721402 0.73066 0.68401 0.758873 0.689929 0.685589 0.68257 0.673553 0.675957 0.645372 0.664724 0.632973 0.639989 0.619924 0.612163 0.670212 0.660509 0.652079 0.676026 0.61561 0.643052 0.676446 0.636516 0.686148 0.682679 0.666234 0.697008 0.722937 0.705885 0.725804 0.711702 0.718318 0.693879 0.719833 0.649337 0.653358 0.731378 0.806396 0.480238 0.583953 0.669354 0.656588 0.768192 0.712497 0.762658 0.793406 0.790409 0.803355 0.862158 0.808715 0.745663 0.73299 0.618073 0.635594 0.620915 0.651999 0.683141 0.811593 0.724821 0.765612 0.816455 0.706822 0.737959 0.727887 0.673419 0.777756 0.623894 0.590872 0.628821 0.642109 0.723035 0.734323 0.703314 0.697513 0.706001 0.697841 0.727841 0.752167 0.754179 0.770777 0.782026 0.789494 0.789044 0.792494 0.806728 0.81138 0.809227 0.810687 0.806463 0.823594 0.828217 0.833261 0.827821 0.836832 0.836363 0.830899 0.840866 0.823374 0.841909 0.833944 0.824925 0.82567 0.819804 0.812506 0.798553 0.805232 0.791455 0.797236 0.789767 0.80724 0.801476 0.809327 0.789652 0.742729 0.757322 0.719731 0.735266 0.713823 0.692891 0.718657 0.718404 0.747998 0.564131 0.682377 0.760894 0.758073 0.640177 0.858545 0.681786 0.756265 0.719615 0.706332 0.732975 0.686585 0.788177 0.683232 0.611154 0.659085 0.59565 0.716556 0.708885 0.56271 0.811173 0.704008 0.659762 0.924244 0.526145 0.783464 0.855148 0.714353 0.727719 0.767157 0.699485 0.723388 0.731853 0.698474 0.726999 0.704738 0.655313 0.666593 0.634768 0.650647 0.611392 0.612195 0.58546 0.580346 0.555485 0.561244 0.607877 0.662491 0.668059 0.666216 0.655629 0.656649 0.650736 0.658153 0.64827 0.532879 0.585225 0.673412 0.709884 0.664069 0.639029 0.727715 0.691066 0.713638 0.680768 0.674387 0.72708 0.702259 0.804666 0.692206 0.763465 0.952017 0.752321 0.59574 0.804368 0.806111 0.805058 0.838716 0.809208 0.613843 0.40175 0.606448 0.656992 0.729046 0.758109 0.672763 0.741805 0.823636 0.79083 0.735973 0.673786 0.817891 0.728315 0.642302 0.743609 0.560019 0.637743 0.678409 0.631894 0.716544 0.751868 0.769034 0.740326 0.716798 0.712551 0.729324 0.72458 0.734484 0.741068 0.77375 0.766093 0.778252 0.782447 0.790631 0.790871 0.794044 0.793123 0.800037 0.803733 0.808547 0.809568 0.808965 0.811205 0.815036 0.817464 0.828731 0.833608 0.833219 0.842741 0.840117 0.840868 0.846521 0.839131 0.830517 0.808859 0.825165 0.815768 0.804166 0.8191 0.810335 0.813363 0.810035 0.802227 0.81119 0.806349 0.792217 0.74813 0.753571 0.767284 0.776552 0.73775 0.719564 0.748986 0.721346 0.725445 0.683161 0.598414 0.641643 0.647419 0.676706 0.672016 0.986907 0.685527 0.78167 0.743351 0.784782 0.745448 0.793304 0.76438 0.792944 0.794291 0.530236 0.864407 0.634562 0.631235 0.649656 0.562157 0.556076 0.607512 1.0068 0.58629 0.904874 0.560055 0.409128 0.584657 0.639444 0.475353 0.670957 0.654807 0.708437 0.699994 0.707102 0.739637 0.623969 0.66414 0.660699 0.614835 0.590406 0.597032 0.644728 0.533401 0.553702 0.547006 0.523812 0.541534 0.526394 0.596345 0.584109 0.585427 0.518884 0.532276 0.633615 0.622163 0.663545 0.63683 0.554779 0.601008 0.626337 0.547573 0.57445 0.49337 0.706907 0.656694 0.622512 0.65966 0.559437 0.712652 0.605453 0.659792 0.65351 0.694618 0.692581 0.677167 0.616576 0.583679 0.495283 0.631984 0.605627 0.514795 0.537793 0.606105 0.505284 0.622325 0.543595 0.555973 0.60948 0.676096 0.705787 0.768314 0.777991 0.694522 0.723048 0.67276 0.650955 0.654071 0.642267 0.866787 0.783205 0.824519 0.739909 0.741445 0.733354 0.738038 0.739132 0.745733 0.760998 0.780876 0.78921 0.795797 0.79941 0.805063 0.812216 0.815996 0.821083 0.823918 0.831926 0.841628 0.84578 0.845899 0.845532 0.851965 0.849738 0.842451 0.833708 0.820621 0.807623 0.7967 0.806661 0.819068 0.823526 0.819034 0.819266 0.810478 0.802387 0.80622 0.803764 0.774102 0.769164 0.72747 0.737388 0.721442 0.694924 0.718377 0.694014 0.676072 0.655602 0.676522 0.677386 0.677259 0.252739 0.802435 0.642682 0.752649 0.739661 0.699692 0.711491 0.876627 0.723821 0.61897 0.909731 0.684922 0.636931 0.590592 0.806817 0.640535 0.656211 0.785776 0.48808 0.47972 0.480063 0.540672 0.496963 0.492235 0.543883 0.496156 0.524487 0.703013 0.689218 0.522728 0.594744 0.571481 0.679098 0.557231 0.534866 0.540919 0.506465 0.487827 0.503256 0.491938 0.522422 0.513606 0.639996 0.659542 0.636121 0.650783 0.647315 0.552767 0.663969 0.61689 0.502473 0.532606 0.470995 0.607342 0.653716 0.591608 0.596355 0.584342 0.709372 0.72441 0.523793 0.589542 0.496147 0.485354 0.601224 0.527029 0.556736 0.524137 0.604773 0.631947 0.565528 0.562849 0.593336 0.568574 0.60932 0.6291 0.794264 0.63168 0.697285 0.693376 0.692221 0.670793 0.729691 0.721709 0.805534 0.771182 0.894317 0.728863 0.713016 0.728921 0.692947 0.735424 0.740848 0.757565 0.765307 0.786489 0.795115 0.792499 0.794902 0.800193 0.794489 0.804876 0.809313 0.810072 0.812932 0.820752 0.831129 0.841168 0.853946 0.849484 0.848299 0.845966 0.846886 0.842316 0.834125 0.809003 0.797155 0.795543 0.811928 0.823396 0.827638 0.828795 0.826197 0.813482 0.812349 0.806947 0.774686 0.764592 0.757693 0.74068 0.727481 0.698234 0.690567 0.703811 0.691045 0.69961 0.702284 0.494944 0.585792 0.592735 0.716243 0.725089 0.688312 0.716277 0.730474 0.678423 0.62372 0.708874 0.541618 0.438489 0.592079 0.583729 0.764006 0.678108 0.736512 0.732642 0.708814 0.498828 0.46114 0.506059 0.497931 0.535935 0.523885 0.493028 0.628378 0.612149 0.639935 0.559404 0.567459 0.616874 0.576896 0.392195 0.521867 0.434174 0.535343 0.487937 0.514926 0.51217 0.523728 0.510636 0.506662 0.502782 0.503103 0.487628 0.327446 0.616991 0.705156 0.56822 0.625461 0.615148 0.560804 0.783973 0.625885 0.734307 0.785082 0.868397 0.61429 0.574571 0.450518 0.50768 0.523046 0.57219 0.588011 0.587071 0.514884 0.574308 0.465257 0.50169 0.502431 0.539137 0.512462 0.505549 0.494443 0.608799 0.571841 0.55815 0.575312 0.571832 0.577972 0.576314 0.575793 0.578757 0.598396 0.626343 0.616004 0.632959 0.631061 0.693734 0.719533 0.71999 0.714539 0.738234 0.715292 0.726237 0.763436 0.802225 0.759755 0.792546 0.76396 0.745521 0.724528 0.714267 0.722636 0.709174 0.727652 0.745293 0.757193 0.768141 0.771818 0.772734 0.778162 0.790166 0.791955 0.793441 0.796556 0.798786 0.803594 0.806675 0.818985 0.810271 0.829625 0.828377 0.830624 0.836242 0.84691 0.866302 0.853757 0.846412 0.839293 0.832852 0.830858 0.804841 0.793065 0.806396 0.812062 0.815508 0.822061 0.830723 0.831645 0.834893 0.833986 0.820103 0.827077 0.813365 0.787168 0.749604 0.76705 0.74545 0.721844 0.714036 0.716882 0.713607 0.70581 0.709399 0.70462 0.634209 0.644614 0.712399 0.733048 0.723782 0.781787 0.642462 0.634402 0.60869 0.536677 0.579071 0.736519 0.790955 0.82661 0.656772 0.668205 0.514134 0.527314 0.570017 0.6339 0.579221 0.612974 0.604017 0.540427 0.608335 0.611418 0.644635 0.657798 0.640996 0.694936 0.613016 0.657389 0.721079 0.705294 0.486104 0.576301 0.518655 0.494575 0.505213 0.500846 0.518702 0.511528 0.486999 0.507414 0.471747 0.464298 0.411397 0.401253 0.466089 0.383913 0.546399 0.393161 0.701361 0.685295 0.653237 0.311912 0.141135 0.248233 0.40044 0.33143 0.601827 0.254175 0.608083 0.569341 0.508467 0.513048 0.48454 0.48391 0.475907 0.475383 0.475436 0.500472 0.512089 0.531447 0.529033 0.553691 0.553679 0.575223 0.568337 0.572659 0.580517 0.58751 0.602315 0.614509 0.634306 0.662442 0.663575 0.697297 0.708884 0.730555 0.724141 0.743067 0.736125 0.751697 0.742898 0.754907 0.750974 0.736275 0.735942 0.732306 0.735459 0.758824 0.780522 0.791378 0.784063 0.793646 0.7948 0.796515 0.799287 0.8034 0.801861 0.808759 0.809498 0.837278 0.830739 0.838429 0.833626 0.840325 0.848804 0.882332 0.853209 0.843334 0.831817 0.826679 0.829347 0.790223 0.837205 0.834897 0.801672 0.810077 0.815033 0.819552 0.823996 0.83362 0.840496 0.837244 0.822701 0.811652 0.79744 0.791808 0.775585 0.753071 0.735103 0.713205 0.713078 0.711533 0.700202 0.698058 0.669261 0.674765 0.672126 0.674371 0.765043 0.700928 0.914186 0.651699 0.653944 0.6112 0.604387 0.571808 0.596003 1.07664 0.663762 0.821711 0.641171 0.61511 0.587704 0.605618 0.603919 0.64142 0.61093 0.617474 0.605163 0.572321 0.584204 0.519549 0.538885 0.506228 0.487955 0.464471 0.465726 0.475962 0.481401 0.430459 0.467402 0.411218 0.455504 0.345349 0.402095 0.345736 0.34526 0.361338 0.562673 0.645156 0.536942 0.402511 0.486196 0.489316 0.262459 0.724321 0.14397 0.775056 0.206942 0.318978 0.413879 0.41839 0.381962 0.261215 0.270841 0.407585 0.470004 0.420819 0.499637 0.506018 0.425179 0.371999 0.395426 0.46119 0.445839 0.471254 0.468195 0.482891 0.519262 0.540509 0.557372 0.56975 0.569584 0.571635 0.595758 0.59913 0.61205 0.609175 0.625699 0.621865 0.651958 0.67201 0.700535 0.729168 0.749073 0.758338 0.75331 0.75733 0.758578 0.757687 0.746237 0.732294 0.703468 0.722792 0.704915 0.813718 0.773851 0.7814 0.776537 0.812796 0.793515 0.792732 0.792535 0.794828 0.794365 0.796689 0.797757 0.79932 0.800995 0.800656 0.80694 0.809641 0.83291 0.839475 0.844623 0.848917 0.824591 0.856627 0.867562 0.829323 0.835338 0.833991 0.82383 0.810687 0.812134 0.820721 0.828901 0.828473 0.846533 0.841772 0.826478 0.829175 0.816406 0.811353 0.804505 0.780327 0.763699 0.76057 0.749045 0.738878 0.703736 0.713825 0.71253 0.708643 0.712373 0.713797 0.715754 0.706921 0.697997 0.707428 0.696678 0.67308 0.663037 0.76877 0.446831 0.579166 0.626279 0.620068 0.723144 0.88577 0.646212 0.186835 0.531677 0.60312 0.547748 0.574721 0.572117 0.571045 0.5629 0.555614 0.544596 0.57759 0.595479 0.607982 0.592384 0.572848 0.598924 0.43394 0.413386 0.448865 0.444926 0.402154 0.421562 0.462954 0.412944 0.474304 0.433226 0.461233 0.442199 0.47798 0.42433 0.425842 0.384661 0.336297 0.391604 0.382395 0.317782 0.36275 0.373941 1.59608 1.8465 0.700282 0.613927 0.552174 0.455262 0.273146 0.527509 0.586105 0.290464 0.419877 0.390644 0.44722 0.476233 0.494456 0.46252 0.480235 0.51349 0.444969 0.431525 0.462471 0.473825 0.493646 0.480357 0.525702 0.529031 0.549637 0.574484 0.57769 0.579557 0.582275 0.601762 0.61488 0.629218 0.65388 0.651368 0.683467 0.681503 0.705576 0.729682 0.748031 0.76094 0.76669 0.757447 0.759041 0.758262 0.756464 0.750627 0.700335 0.625962 0.878766 0.810026 0.801708 0.789094 0.806016 0.794121 0.787442 0.79656 0.799505 0.802191 0.803064 0.797235 0.816834 0.834972 0.839809 0.841119 0.841437 0.831748 0.846718 0.843672 0.827008 0.789651 0.820448 0.839376 0.83121 0.824871 0.813147 0.808263 0.830861 0.835886 0.833577 0.857136 0.84569 0.857689 0.81752 0.8028 0.776465 0.811115 0.758327 0.744675 0.755563 0.769527 0.747706 0.721782 0.712481 0.72233 0.720767 0.720179 0.717344 0.704659 0.700914 0.703238 0.727671 0.720269 0.705702 0.672015 0.545901 0.54959 0.805485 0.57467 0.731053 0.33799 0.645221 0.548168 0.499734 0.564669 0.57209 0.574518 0.558822 0.55265 0.568241 0.555644 0.569108 0.57206 0.601909 0.570991 0.550645 0.463011 0.407086 0.414575 0.407548 0.392078 0.393709 0.378675 0.387633 0.419601 0.418173 0.396778 0.405527 0.400049 0.374179 0.332574 0.278991 0.319556 0.257459 0.113922 0.628101 0.523024 0.333125 0.288324 0.315885 0.350607 0.356931 0.678565 0.215461 0.348296 0.370317 0.339008 0.441186 0.399721 0.475327 0.451347 0.498397 0.494167 0.516388 0.511415 0.531967 0.529124 0.457174 0.448032 0.468723 0.463609 0.428219 0.497418 0.510799 0.541894 0.553869 0.592249 0.59495 0.584263 0.58994 0.589223 0.606314 0.62193 0.634805 0.664394 0.65196 0.682746 0.715139 0.711348 0.736602 0.730263 0.744615 0.773654 0.759855 0.756385 0.745472 0.750265 0.739044 0.749722 0.756633 0.750888 0.643049 0.491046 0.879329 0.787008 0.7672 0.787583 0.816844 0.769755 0.782643 0.810466 0.806483 0.806512 0.792632 0.797343 0.798021 0.804996 0.835657 0.85689 0.845743 0.842195 0.833036 0.838012 0.862206 0.818949 0.790641 0.844945 0.820395 0.837996 0.823647 0.820235 0.815567 0.843819 0.857504 0.836325 0.831889 0.841558 0.846782 0.84921 0.808151 0.811859 0.766438 0.824841 0.741052 0.730367 0.749292 0.757451 0.732865 0.724171 0.726929 0.721678 0.725185 0.729131 0.724089 0.717821 0.727846 0.725452 0.712923 0.711797 0.699953 0.711392 0.689754 0.697998 0.663622 0.603569 0.601088 0.492607 0.60124 0.600413 0.577714 0.586932 0.572472 0.559059 0.564057 0.556391 0.561881 0.561552 0.562984 0.55644 0.523022 0.46303 0.460903 0.40436 0.37775 0.371307 0.372799 0.396195 0.379854 0.402168 0.406293 0.388883 0.402197 0.364103 0.330279 0.293082 0.257554 0.264132 0.222915 0.121448 0.337714 0.235443 0.694682 0.91329 0.895549 0.588843 0.419017 0.351009 0.500723 0.481356 0.496798 0.519204 0.518847 0.513216 0.475852 0.425933 0.400213 0.405689 0.392391 0.467225 0.530448 0.571446 0.586765 0.606386 0.615782 0.610675 0.596828 0.585527 0.596491 0.628998 0.649812 0.67319 0.68954 0.718717 0.737974 0.744982 0.73929 0.742352 0.755269 0.748151 0.731124 0.727055 0.74975 0.710079 0.751596 0.658956 0.467553 0.862671 0.792742 0.784297 0.78636 0.793577 0.800892 0.752045 0.825455 0.813337 0.79911 0.790488 0.812949 0.848043 0.855995 0.852372 0.839325 0.819914 0.834002 0.864035 0.809561 0.812054 0.851004 0.851204 0.851093 0.828819 0.820616 0.818777 0.820144 0.845538 0.887314 0.8592 0.851151 0.856972 0.844286 0.825724 0.80601 0.81847 0.710979 0.748316 0.730046 0.757968 0.752907 0.731092 0.720937 0.722256 0.717421 0.741122 0.736515 0.724564 0.708193 0.714124 0.703468 0.699563 0.692941 0.695478 0.690588 0.687982 0.642644 0.617799 0.662603 0.561333 0.621714 0.501286 0.550266 0.652794 0.602469 0.60971 0.600805 0.573308 0.605795 0.605511 0.561755 0.571265 0.563945 0.566078 0.558464 0.555703 0.541391 0.504447 0.429691 0.365071 0.353433 0.361108 0.364988 0.357024 0.363034 0.411083 0.400651 0.416564 0.318052 0.381413 0.345038 0.283837 0.242203 0.266466 0.238581 0.162123 0.205567 0.299752 0.258083 0.689684 0.392826 0.619783 0.344972 0.435465 0.280528 0.332198 0.526377 0.571418 0.509076 0.51588 0.512531 0.510512 0.507057 0.463087 0.334411 0.532146 0.624546 0.625838 0.655743 0.606411 0.593527 0.58068 0.606257 0.606987 0.647598 0.713794 0.717179 0.7232 0.746443 0.733469 0.731653 0.740742 0.774739 0.7672 0.731232 0.721168 0.742286 0.763597 0.576286 0.57426 0.79662 0.864216 0.803439 0.806835 0.794946 0.786561 0.787731 0.756423 0.821443 0.795944 0.781647 0.81161 0.818787 0.80452 0.869862 0.839137 0.844896 0.828366 0.791457 0.805592 0.811634 0.825711 0.845293 0.869338 0.837876 0.835061 0.818532 0.827432 0.849262 0.884929 0.863134 0.838114 0.834889 0.817899 0.849682 0.735495 0.715 0.75825 0.744528 0.731875 0.724562 0.725299 0.722346 0.753427 0.736782 0.743637 0.730295 0.712975 0.69153 0.69129 0.677203 0.708508 0.681751 0.684209 0.634666 0.606295 0.621711 0.607487 0.612722 0.61288 0.62602 0.586508 0.543552 0.566671 0.556366 0.550879 0.553546 0.555701 0.534423 0.572102 0.490988 0.39082 0.343651 0.352556 0.363835 0.387584 0.391744 0.408117 0.411995 0.420918 0.404465 0.379336 0.416192 0.300345 0.243424 0.279972 0.234254 0.301855 0.643703 0.560249 0.546905 0.316001 0.157768 0.617635 0.52959 0.507292 0.502653 0.500948 0.477561 0.502135 0.437454 0.186053 0.722769 0.738546 0.598208 0.588699 0.597869 0.568969 0.553133 0.652259 0.67554 0.700273 0.714833 0.719834 0.733537 0.727715 0.779759 0.625547 0.701219 0.71182 0.730399 0.725266 0.725986 0.602202 0.843276 0.811562 0.780756 0.789703 0.782138 0.787492 0.792868 0.776613 0.779541 0.847836 0.824213 0.78004 0.778712 0.806199 0.80641 0.822252 0.850311 0.793432 0.762622 0.79837 0.806548 0.832725 0.836954 0.854062 0.833578 0.840436 0.826221 0.834678 0.840507 0.848654 0.823768 0.817099 0.89095 0.915577 0.890189 0.872318 0.847391 0.840678 0.83153 0.845139 0.747464 0.751654 0.714676 0.754131 0.736534 0.724513 0.722399 0.733407 0.745728 0.743436 0.715728 0.759185 0.693191 0.6689 0.643336 0.645286 0.649962 0.629473 0.607797 0.595655 0.615874 0.628639 0.613227 0.588497 0.569712 0.561449 0.561905 0.559886 0.538863 0.563334 0.589636 0.550319 0.50464 0.349525 0.397696 0.33321 0.367122 0.405427 0.397687 0.411757 0.420177 0.414956 0.406247 0.374378 0.389619 0.3083 0.388592 0.296407 0.248453 0.245022 0.292867 0.476227 0.430371 0.353285 0.654757 0.649513 0.557657 0.497277 0.476882 0.476155 0.485086 0.477659 0.457694 0.422781 0.741443 0.787242 0.450106 0.607571 0.587213 0.620287 0.592197 0.584966 0.574528 0.566403 0.683246 0.639061 0.674259 0.713698 0.710029 0.717947 0.723459 0.714001 0.725862 0.72837 0.726786 0.650114 0.624991 0.652038 0.672765 0.705708 0.719329 0.711573 0.71212 0.705629 0.683278 0.651969 0.795065 0.790165 0.781144 0.783943 0.789975 0.787256 0.771443 0.69946 0.829026 0.885341 0.785734 0.800905 0.815402 0.81163 0.847214 0.785388 0.916821 0.713492 0.741503 0.779122 0.819472 0.851701 0.858612 0.829963 0.838248 0.830469 0.83724 0.795185 0.792823 0.906523 0.88515 0.857549 0.849377 0.849026 0.838569 0.748691 0.733601 0.744279 0.75302 0.733032 0.720556 0.723541 0.72697 0.725715 0.725246 0.769455 0.752097 0.83248 0.667638 0.662372 0.671109 0.629415 0.63412 0.637536 0.646394 0.655703 0.655043 0.645291 0.622352 0.590385 0.685648 0.598725 0.626757 0.595442 0.569711 0.552679 0.549107 0.507207 0.614859 0.567576 0.610381 0.534688 0.227376 0.577562 0.418648 0.417479 0.422805 0.419797 0.415957 0.404142 0.421243 0.386081 0.3245 0.35597 0.307919 0.318166 0.244361 0.312243 0.383392 0.376533 0.42168 0.573727 0.586016 0.522152 0.491946 0.473415 0.470943 0.475026 0.47539 0.464818 0.509537 0.527121 0.587295 0.630395 0.571259 0.504864 0.638143 0.586091 0.565606 0.630859 0.690746 0.538151 0.672205 0.691631 0.727114 0.728555 0.714768 0.693429 0.673013 0.655721 0.683648 0.70776 0.705945 0.701095 0.719239 0.677938 0.739268 0.781647 0.786552 0.784878 0.787198 0.784564 0.791767 0.788039 0.783941 0.813925 0.854422 0.84083 0.887595 0.799828 0.81367 0.775225 0.768975 0.889751 0.868787 0.716878 0.81884 0.743144 0.737364 0.766612 0.791609 0.834028 0.774762 0.847741 0.843692 0.828317 0.850364 0.843872 0.787335 0.751072 0.863274 0.867978 0.849739 0.831541 0.765928 0.742337 0.745659 0.751358 0.736439 0.756656 0.726416 0.723524 0.724044 0.726578 0.739056 0.720348 0.675309 0.703414 0.990192 0.722799 0.66565 0.660584 0.664157 0.674942 0.666355 0.675941 0.728234 0.630823 0.62321 0.590009 0.586898 0.585579 0.568103 0.489329 0.565197 0.559843 0.531726 0.533269 0.633979 0.425117 0.475144 0.402862 0.410597 0.419926 0.424865 0.42255 0.414987 0.396623 0.399755 0.446497 0.381368 0.338612 0.354488 0.225537 0.308948 0.318713 0.348454 0.34271 0.339032 0.450855 0.476818 0.556087 0.522327 0.545339 0.523524 0.485206 0.493872 0.492683 0.519748 0.551338 0.578558 0.485475 0.738679 0.574216 0.542049 0.667047 0.552854 0.526722 0.639069 0.704435 0.721457 0.733875 0.735891 0.686368 0.654962 0.675579 0.70183 0.716802 0.718047 0.720836 0.739709 0.763585 0.780775 0.779767 0.787957 0.792017 0.790125 0.764614 0.810269 0.843436 0.839326 0.865934 0.912388 0.816452 0.76636 0.935567 0.812887 0.784311 0.732721 0.807959 0.768182 0.764711 0.838324 0.856131 0.817153 0.85059 0.848557 0.775115 0.784276 0.799886 0.770664 0.758658 0.871149 0.868324 0.888916 0.892154 0.893405 0.849286 0.816594 0.755167 0.741022 0.756796 0.756309 0.735953 0.727091 0.72544 0.727582 0.725574 0.750596 0.76222 0.954544 0.610831 0.606179 0.665662 0.666001 0.66254 0.663356 0.698973 0.712195 0.652311 0.634867 0.567346 0.605962 0.444291 0.661494 0.60367 0.533826 0.579639 0.505197 0.444866 0.429396 0.43874 0.430336 0.421721 0.385308 0.410682 0.312932 0.443333 0.329935 0.463984 0.328628 0.284851 0.415273 0.503319 0.509562 0.541626 0.53273 0.514284 0.536543 0.546183 0.527922 0.523616 0.498006 0.510487 0.494855 0.514795 0.534786 0.547616 0.528086 0.658806 0.502496 0.561819 0.66592 0.598996 0.624112 0.682524 0.731365 0.731589 0.743226 0.734402 0.741454 0.669197 0.618618 0.705815 0.704594 0.77674 0.754453 0.72474 0.70696 0.714221 0.729691 0.722543 0.776829 0.792032 0.799797 0.761664 0.766795 0.772417 0.80456 0.869326 0.893369 0.914399 0.814426 0.774185 0.729414 0.805298 0.781576 0.770473 0.820009 0.826727 0.852153 0.894176 0.788316 0.83519 0.904788 0.847536 0.715574 0.762883 0.753428 0.818521 0.875832 0.835445 0.838905 0.822469 0.759186 0.798967 0.749695 0.72447 0.716494 0.715528 0.715103 0.774615 1.02674 0.607723 0.601624 0.675843 0.67732 0.709701 0.697951 0.696573 0.661861 0.651155 0.540542 0.652875 0.598975 0.696964 0.611705 0.558575 0.543328 0.498546 0.464576 0.458971 0.432013 0.429072 0.428357 0.443363 0.422992 0.460168 0.320419 0.337312 0.512922 0.572904 0.589515 0.317947 0.204086 0.35118 0.501935 0.552277 0.52414 0.471996 0.527243 0.570898 0.57541 0.511302 0.516394 0.530677 0.53636 0.536819 0.590917 0.505308 0.564377 0.57456 0.696581 0.594436 0.516848 0.600832 0.827311 0.629649 0.771292 0.652437 0.646715 0.630488 0.716835 0.709906 0.700224 0.75385 0.715929 0.733666 0.738189 0.735981 0.786363 0.737477 0.801925 0.805865 0.732232 0.794972 0.846056 0.789519 0.810626 0.758053 0.780855 0.823497 0.792441 0.811607 0.796385 0.694842 0.703148 0.722992 0.763037 0.737744 0.72384 0.768555 0.711008 0.896892 1.05886 0.542711 0.630253 0.653877 0.671585 0.679921 0.697048 0.699133 0.695814 0.666033 0.663468 0.670825 0.482837 0.617184 0.659523 0.59912 0.550038 0.523911 0.50365 0.472724 0.46215 0.427273 0.425258 0.43251 0.350741 0.739726 0.467409 0.700059 0.617222 0.276349 0.418877 0.58261 0.424197 0.544461 0.575441 0.48511 0.586853 0.587114 0.592568 0.512131 0.532029 0.536441 0.563523 0.549887 0.553812 0.517014 0.54672 0.667349 0.675866 0.644479 0.547985 0.620139 0.795515 0.744421 0.645514 0.773256 0.728675 0.699581 0.693714 0.739643 0.736887 0.68021 0.729477 0.763526 0.738464 0.913554 0.793108 0.88981 1.07619 0.630304 0.557353 0.610662 0.641587 0.675589 0.672961 0.67209 0.688483 0.708931 0.697235 0.659059 0.593362 0.778404 0.633467 0.730648 0.614501 0.603774 0.648189 0.527745 0.487922 0.480021 0.482116 0.457133 0.427788 0.454122 0.504476 0.595967 0.717434 0.630794 0.298525 0.515704 0.467416 0.484866 0.7281 0.512337 0.621899 0.545996 0.591508 0.525045 0.520123 0.532887 0.551256 0.658819 0.418855 0.585892 0.699223 0.619722 0.712121 0.670591 0.800578 0.649158 0.546893 0.615893 0.677809 0.493378 0.488516 0.493746 0.484594 0.466379 0.408075 0.526568 0.656773 0.721728 0.641694 
SCALARS Stress float 1
LOOKUP_TABLE default
-197822000000.0 -132730000000.0 -227879000000.0 -52634500000.0 -297844000000.0 -125189000000.0 -360446000000.0 -211506000000.0 -135350000000.0 -564903000000.0 -456255000000.0 -150643000000.0 -155797000000.0 -363238000000.0 -214924000000.0 -296884000000.0 -364037000000.0 -463172000000.0 -199305000000.0 -159040000000.0 -276294000000.0 -193795000000.0 -846498000000.0 -820596000000.0 -285946000000.0 -190557000000.0 -411392000000.0 -1.07221e+12 -726477000000.0 -1.05463e+12 -1.02821e+12 -598205000000.0 -665037000000.0 -969663000000.0 -586983000000.0 -1.0428e+12 -338849000000.0 -526262000000.0 -570882000000.0 -566524000000.0 -630603000000.0 -439290000000.0 -808502000000.0 -484210000000.0 -619657000000.0 -414710000000.0 -748187000000.0 -765547000000.0 -1.60986e+12 -1.25624e+12 -1.785e+12 -997127000000.0 -787134000000.0 -1.48351e+12 -1.89233e+12 -2.22956e+12 -1.57527e+12 -309831000000.0 -772724000000.0 -1.00664e+12 -831975000000.0 -1.64129e+12 -1.3782e+12 -889119000000.0 -886325000000.0 -1.51873e+12 -1.68487e+12 -905557000000.0 -1.23266e+12 -1.54259e+12 -855695000000.0 -651718000000.0 -1.48992e+12 -1.693e+12 -1.68815e+12 -2.74627e+12 -2.73215e+12 -1.72434e+12 -431604000000.0 -1.48803e+12 -1.13608e+12 -596490000000.0 -2.48152e+12 -2.23942e+12 -3.03928e+12 -1.03296e+12 -2.16968e+12 -2.34712e+12 -1.26551e+12 -1.67654e+12 -830007000000.0 -835743000000.0 -1.48363e+12 -2.06289e+12 -2.13161e+12 -693264000000.0 -1.72257e+12 -1.33769e+12 -2.68235e+12 -1.73752e+12 -1.80853e+12 -2.12024e+12 -2.52063e+12 -2.13508e+12 -466002000000.0 -1.03795e+12 -1.56753e+12 -2.14337e+12 -1.94919e+12 -1.23382e+12 -2.22549e+12 -984972000000.0 -4.40407e+12 -1.21177e+12 -3.58741e+12 -1.31786e+12 -600542000000.0 -1.44696e+12 -1.58518e+12 -1.73059e+12 -762257000000.0 -844324000000.0 -1.38479e+12 -1.35342e+12 -1.99082e+12 -3.25304e+12 -4.14833e+12 -2.41913e+12 -3.17632e+12 -2.46161e+12 -2.34915e+12 -1.07531e+12 -1.66862e+12 -4.15194e+12 -2.64296e+12 -1.65192e+12 -1.06474e+12 -1.14348e+12 -1.16086e+12 -3.36589e+12 -3.33315e+12 -2.96311e+12 -2.47666e+12 -906621000000.0 -892524000000.0 -2.38192e+12 -1.66023e+12 -2.42635e+12 -2.02927e+12 -1.06258e+12 -480533000000.0 -1.55883e+12 -3.10307e+12 -2.65003e+12 -3.19906e+12 -5.32561e+12 -1.79509e+12 -3.62184e+12 -3.66848e+12 -3.17238e+12 -2.50534e+12 -3.41732e+12 -3.08832e+12 -2.44992e+12 -3.65853e+12 -3.47113e+12 -3.33607e+12 -1.83426e+12 -2.2838e+12 -4.70102e+12 -2.74947e+12 -690493000000.0 -1.65265e+12 -2.20056e+12 -2.37826e+12 -3.33071e+12 -2.91931e+12 -1.61867e+12 -639780000000.0 -1.59612e+12 -2.67792e+12 -4.69454e+12 -1.88503e+12 -2.66732e+12 -4.54919e+12 -3.64582e+12 -2.65147e+12 -6.64015e+12 -3.37707e+12 -3.78409e+12 -2.28674e+12 -3.07703e+12 -463051000000.0 -3.10835e+12 -3.26095e+12 -1.80453e+12 -4.06667e+12 -3.61808e+12 -2.53141e+12 -2.36033e+12 -2.97249e+12 -3.70748e+12 -1.87717e+12 -1.20578e+12 -1.57871e+12 -2.75261e+12 -1.95853e+12 -2.48123e+12 -5.40531e+12 -1.31511e+12 -4.1833e+12 -3.69458e+12 -5.62854e+12 -4.40058e+12 -4.29513e+12 -2.53917e+12 -2.52996e+12 -3.98591e+12 -2.93765e+12 -4.72991e+12 -6.11232e+12 -4.04289e+12 -5.02336e+12 -5.02163e+12 -3.65952e+12 -4.69197e+12 -3.02308e+12 -2.27349e+12 -4.39329e+12 -1.21819e+12 -3.83665e+12 -3.217e+12 -1.77138e+12 -2.02707e+12 -1.7072e+12 -2.63537e+12 -1.73386e+12 -5.23983e+12 -7.10521e+12 -4.34621e+12 -3.40191e+12 -5.14832e+12 -4.78174e+12 -3.80765e+12 -3.67774e+12 -3.91686e+12 -4.89585e+12 -3.26099e+12 -3.56884e+12 -3.49389e+12 -4.48407e+12 -4.40629e+12 -5.36179e+12 -5.07345e+12 -6.11063e+12 -6.97483e+12 -5.51008e+12 -3.09586e+12 -2.21412e+12 -5.15624e+12 -3.49083e+12 -3.50457e+12 -4.44209e+12 -5.40939e+12 -2.88744e+12 -3.8545e+12 -5.12001e+12 -6.05487e+12 -6.28176e+12 -3.32632e+12 -4.48264e+12 -3.43115e+12 -5.67504e+12 -6.19178e+12 -3.64288e+12 -5.5368e+12 -4.62044e+12 -4.51717e+12 -5.63832e+12 -3.02612e+12 -5.08207e+12 -2.64345e+12 -3.94958e+12 -5.92083e+12 -3.47502e+12 -3.38114e+12 -4.1133e+12 -4.41828e+12 -4.09295e+12 -5.93533e+12 -4.21879e+12 -6.60222e+12 -2.36958e+12 -7.60449e+12 -3.28966e+12 -4.77894e+12 -5.57058e+12 -5.75306e+12 -2.20886e+12 -3.75523e+12 -4.53585e+12 -2.67694e+12 -3.05843e+12 -3.69673e+12 -4.43408e+12 -7.20332e+12 -4.20455e+12 -5.44669e+12 -2.58197e+12 -5.01234e+12 -3.1476e+12 -6.7125e+12 -2.38945e+12 -7.70704e+12 -7.16754e+12 -6.7983e+12 -3.96485e+12 -5.29473e+12 -4.40034e+12 -4.93823e+12 -4.72826e+12 -4.63124e+12 -3.92465e+12 -6.74555e+12 -6.5318e+12 -4.42776e+12 -3.70694e+12 -4.56642e+12 -6.54686e+12 -7.24825e+12 -6.18666e+12 -3.56467e+12 -4.86394e+12 -4.19084e+12 -5.06144e+12 -2.36252e+12 -3e+12 -4.50367e+12 -5.23136e+12 -5.36451e+12 -1.9668e+12 -7.19211e+12 -4.25686e+12 -4.82406e+12 -1.43499e+12 -5.86281e+12 -2.3712e+12 -4.18437e+12 -4.64339e+12 -5.03084e+12 -6.08322e+12 -6.31774e+12 -5.61152e+12 -6.10654e+12 -4.10238e+12 -4.90046e+12 -4.13622e+12 -3.87214e+12 -4.60986e+12 -4.4338e+12 -4.09037e+12 -5.93528e+12 -2.50722e+12 -5.3342e+12 -4.31904e+12 -5.35138e+12 -6.02375e+12 -2.7582e+12 -3.9341e+12 -4.26536e+12 -5.34955e+12 -4.91905e+12 -5.25619e+12 -5.972e+12 -6.47886e+12 -6.71968e+12 -2.25574e+12 -4.29372e+12 -3.39949e+12 -2.78753e+12 -5.04816e+12 -4.85711e+12 -6.77289e+12 -5.43608e+12 -5.5248e+12 -4.66249e+12 -4.75591e+12 -6.41585e+12 -4.95975e+12 -4.20643e+12 -5.84668e+12 -4.8717e+12 -2.62085e+12 -4.96699e+12 -4.3836e+12 -5.23864e+12 -3.47842e+12 -3.56489e+12 -3.55777e+12 -3.79058e+12 -5.00006e+12 -5.76556e+12 -5.8024e+12 -5.11919e+12 -5.07646e+12 -5.06273e+12 -4.24574e+12 -3.19317e+12 -6.57988e+12 -5.80401e+12 -7.07513e+12 -5.76952e+12 -2.08402e+12 -5.75793e+12 -12549700000.0 -2.88789e+12 -4.79471e+12 -4.99745e+12 -3.59651e+12 -4.14631e+12 -5.09948e+12 -4.55912e+12 -5.23028e+12 -6.95614e+12 -4.05279e+12 -3.8181e+12 -4.81758e+12 -4.78136e+12 -6.00434e+12 -5.37077e+12 -5.75478e+12 -3.93365e+12 -4.4162e+12 -3.08639e+12 -3.61513e+12 -3.42046e+12 -7.53243e+12 -7.04838e+12 -7.41557e+12 -4.79595e+12 -4.13214e+12 -6.5854e+12 -5.3504e+12 -7.9506e+12 -3.69976e+12 -3.83402e+12 -4.99088e+12 -5.89726e+12 -3.467e+12 -3.24158e+12 -4.29959e+12 -4.47013e+12 -4.49122e+12 -5.83465e+12 -3.49045e+12 -7.4584e+12 -3.13e+12 -3.97983e+12 -5.44242e+12 -6.27459e+12 -2.88248e+12 -3.89567e+12 -5.10961e+12 -2.88419e+12 -5.21117e+12 -3.61872e+12 -5.4654e+12 -4.75933e+12 -2.88139e+12 -9.08166e+12 -5.9684e+12 -4.07936e+12 -6.42129e+12 -6.19615e+12 -5.11961e+12 -6.96048e+12 -3.80552e+12 -4.23727e+12 -5.17043e+12 -5.3051e+12 -2.67491e+12 -5.12459e+12 -4.72652e+12 -5.72094e+12 -6.51607e+12 -5.45766e+12 -3.46545e+12 -2.09142e+12 -6.2238e+12 -3.30732e+12 -7.2236e+12 -4.07714e+12 -6.6169e+12 -7.94544e+12 -8.19067e+12 -4.96601e+12 -7.28745e+12 -7.09191e+12 -5.72936e+12 -6.4369e+12 -7.54424e+12 -4.98471e+12 -5.4555e+12 -4.92283e+12 -5.89114e+12 -5.14177e+12 -7.99026e+12 -6.36254e+12 -4.43046e+12 -7.0074e+12 -3.66866e+12 -5.96448e+12 -5.50431e+12 -5.06918e+12 -4.43386e+12 -5.94939e+12 -3.6358e+12 -5.41498e+12 -6.83581e+12 -8.42497e+12 -6.40381e+12 -3.79362e+12 -3.20394e+12 -5.94024e+12 -6.73036e+12 -7.46543e+12 -7.73669e+12 -6.39731e+12 -4.25052e+12 -6.12792e+12 -4.65578e+12 -3.34581e+12 -6.07175e+12 -6.50315e+12 -5.53358e+12 -4.15273e+12 -4.97823e+12 -8.20226e+12 -1.19463e+13 -6.20557e+12 -7.91022e+12 -5.63032e+12 -3.24858e+12 -3.33715e+12 -4.19425e+12 -9.57643e+12 -5.2447e+12 -4.67112e+12 -5.67573e+12 -6.2864e+12 -6.33619e+12 -2.25333e+12 -4.18668e+12 -4.54081e+12 -6.78477e+12 -8.20947e+12 -9.2712e+12 -4.81448e+12 -7.24835e+12 -2.91016e+12 -3.39273e+12 -12549700000.0 -4.04417e+12 -5.27214e+12 -9.84824e+12 -9.9542e+12 -6.85209e+12 -5.42314e+12 -6.46301e+12 -3.53546e+12 -5.29884e+12 -1.17943e+13 -5.39213e+12 -7.4135e+12 -7.91844e+12 -5.28355e+12 -4.34861e+12 -5.54952e+12 -5.87428e+12 -8.99039e+12 -4.9333e+12 -1.18952e+13 -5.55463e+12 -3.85854e+12 -7.45153e+12 -7.43036e+12 -7.32849e+12 -1.13494e+13 -6.38216e+12 -6.2556e+12 -7.76312e+12 -5.34508e+12 -7.57858e+12 -6.7206e+12 -3.23942e+12 -12549700000.0 -7.31932e+12 -6.35656e+12 -7.56359e+12 -3.42314e+12 -3.78898e+12 -5.72473e+12 -3.46756e+12 -8.1493e+12 -5.76645e+12 -8.32829e+12 -5.68192e+12 -6.3613e+12 -4.66395e+12 -5.18949e+12 -7.77032e+12 -5.18735e+12 -4.16396e+12 -5.46453e+12 -7.41163e+12 -7.03427e+12 -7.08093e+12 -8.76736e+12 -8.14433e+12 -9.75155e+12 -7.64495e+12 -2.89284e+12 -6.84389e+12 -8.61924e+12 -9.55341e+12 -5.99024e+12 -1.24681e+13 -5.02832e+12 -1.06259e+13 -9.38927e+12 -5.31747e+12 -7.42035e+12 -8.02866e+12 -12549700000.0 -2.27782e+12 -4.80685e+12 -6.84935e+12 -4.7606e+12 -5.96402e+12 -6.11619e+12 -4.95727e+12 -7.22893e+12 -6.49477e+12 -1.11993e+13 -8.41304e+12 -6.61358e+12 -2.83998e+12 -7.00109e+12 -6.35305e+12 -5.52154e+12 -6.76315e+12 -6.64675e+12 -8.38604e+12 -6.73011e+12 -4.8127e+12 -6.35453e+12 -5.25997e+12 -5.15097e+12 -5.60781e+12 -1.0342e+13 -7.50349e+12 -2.9086e+12 -5.97814e+12 -1.15066e+13 -7.14094e+12 -1.51485e+13 -1.2039e+13 -4.50167e+12 -4.79901e+12 -7.87214e+12 -3.64049e+12 -2.90092e+12 -5.11026e+12 -6.59667e+12 -5.14069e+12 -4.63215e+12 -3.98488e+12 -7.77979e+12 -8.62003e+12 -6.92201e+12 -7.10937e+12 -5.71731e+12 -5.39482e+12 -4.53422e+12 -7.13768e+12 -2.95965e+12 -6.20433e+12 -4.74166e+12 -2.80675e+12 -8.43774e+12 -7.30397e+12 -4.57529e+12 -7.16847e+12 -7.48852e+12 -5.13844e+12 -7.79311e+12 -7.37474e+12 -8.17498e+12 -2.16197e+12 -9.08621e+12 -3.94159e+12 -4.37499e+12 -4.29885e+12 -4.31366e+12 -6.01655e+12 -7.50528e+12 -4.87795e+12 -7.2025e+12 -8.90895e+12 -8.66772e+12 -6.3052e+12 -8.90825e+12 -8.66788e+12 -3.63117e+12 -5.86505e+12 -4.15468e+12 -5.11321e+12 -8.01847e+12 -5.78158e+12 -3.70349e+12 -5.71098e+12 -4.10327e+12 -7.94856e+12 -4.69748e+12 -4.23086e+12 -5.84443e+12 -4.48212e+12 -7.15349e+12 -4.77752e+12 -7.51002e+12 -6.73597e+12 -5.6278e+12 -6.51886e+12 -7.20964e+12 -4.06555e+12 -6.08506e+12 -9.13766e+12 -5.6402e+12 -9.90666e+12 -3.75321e+12 -6.14626e+12 -3.52818e+12 -9.60146e+12 -5.71769e+12 -4.3649e+12 -3.74086e+12 -7.21873e+12 -4.33186e+12 -5.31122e+12 -5.59462e+12 -6.7195e+12 -3.95186e+12 -6.3581e+12 -9.28299e+12 -7.3084e+12 -1.1131e+13 -7.02822e+12 -9.8778e+12 -3.16756e+12 -6.53714e+12 -9.16686e+12 -3.79218e+12 -5.08949e+12 -4.66879e+12 -6.48868e+12 -5.58354e+12 -7.08354e+12 -7.52192e+12 -8.5806e+12 -6.81809e+12 -8.40801e+12 -1.06458e+13 -9.5576e+12 -1.25309e+13 -6.24758e+12 -4.56556e+12 -6.54758e+12 -6.43508e+12 -1.01177e+13 -9.13736e+12 -6.94741e+12 -6.44789e+12 -3.95255e+12 -5.00891e+12 -4.50648e+12 -1.25905e+13 -5.65313e+12 -4.61262e+12 -6.12428e+12 -7.64945e+12 -6.79749e+12 -7.91718e+12 -2.93121e+12 -8.89281e+12 -9.96274e+12 -5.36095e+12 -1.00912e+13 -9.40978e+12 -4.85301e+12 -9.13947e+12 -7.47792e+12 -7.63433e+12 -6.05625e+12 -6.67078e+12 -5.55892e+12 -5.48415e+12 -6.32709e+12 -9.25335e+12 -5.90596e+12 -5.44491e+12 -7.07595e+12 -4.3275e+12 -6.60448e+12 -6.54125e+12 -4.66411e+12 -3.77569e+12 -4.05896e+12 -8.11053e+12 -7.75825e+12 -7.67789e+12 -6.16451e+12 -7.56887e+12 -6.78416e+12 -3.49663e+12 -5.01754e+12 -6.78094e+12 -5.91775e+12 -4.68554e+12 -1.19862e+13 -8.0201e+12 -1.09334e+13 -4.75062e+12 -9.82e+12 -9.93585e+12 -8.11325e+12 -7.65801e+12 -6.8346e+12 -5.02889e+12 -8.59185e+12 -1.00676e+13 -7.83301e+12 -7.76551e+12 -9.5751e+12 -1.10087e+13 -7.62039e+12 -6.695e+12 -7.48151e+12 -1.05936e+13 -8.67693e+12 -7.79644e+12 -1.10711e+13 -5.56959e+12 -4.74146e+12 -5.29822e+12 -7.78386e+12 -7.11594e+12 -4.70731e+12 -7.0334e+12 -7.37961e+12 -7.97323e+12 -5.21139e+12 -7.56011e+12 -7.11566e+12 -4.13472e+12 -8.87045e+12 -6.1497e+12 -5.74514e+12 -8.17515e+12 -6.53977e+12 -5.12996e+12 -3.99734e+12 -4.0898e+12 -4.54169e+12 -7.86466e+12 -8.71312e+12 -7.58364e+12 -7.1641e+12 -7.96333e+12 -8.95549e+12 -9.87704e+12 -6.8578e+12 -5.93773e+12 -8.24522e+12 -7.56989e+12 -1.20608e+13 -8.47579e+12 -7.60541e+12 -4.2131e+12 -7.87193e+12 -9.66817e+12 -9.54144e+12 -7.9914e+12 -6.2875e+12 -4.80887e+12 -3.21459e+12 -3.88503e+12 -5.86888e+12 -5.92917e+12 -6.78245e+12 -8.81866e+12 -5.98116e+12 -5.65714e+12 -6.43315e+12 -6.14062e+12 -5.43706e+12 -5.1503e+12 -9.6255e+12 -6.12317e+12 -5.79086e+12 -1.25282e+13 -9.77288e+12 -5.09459e+12 -6.76335e+12 -5.05825e+12 -5.58393e+12 -7.1476e+12 -9.0164e+12 -1.06897e+13 -6.06846e+12 -9.10339e+12 -6.09142e+12 -6.32607e+12 -5.83028e+12 -1.26507e+13 -9.84303e+12 -9.00663e+12 -1.25796e+13 -1.05684e+13 -8.18294e+12 -1.05665e+13 -6.49735e+12 -5.16732e+12 -5.72374e+12 -6.60462e+12 -6.80703e+12 -4.15627e+12 -4.9623e+12 -8.44603e+12 -5.23284e+12 -3.82463e+12 -4.10882e+12 -4.245e+12 -3.7768e+12 -6.44283e+12 -1.02652e+13 -8.49944e+12 -9.08067e+12 -8.85793e+12 -9.83538e+12 -9.0239e+12 -1.1377e+13 -4.74128e+12 -8.69952e+12 -7.84967e+12 -5.3784e+12 -4.68488e+12 -8.18614e+12 -7.57578e+12 -7.53836e+12 -9.10753e+12 -6.27808e+12 -5.90897e+12 -6.14658e+12 -6.29967e+12 -6.80508e+12 -7.99378e+12 -1.41116e+13 -4.45314e+12 -1.03992e+13 -5.64708e+12 -8.1775e+12 -8.12023e+12 -6.69906e+12 -3.38678e+12 -8.35769e+12 -4.12019e+12 -4.14177e+12 -7.15547e+12 -2.58484e+12 -5.91718e+12 -6.98726e+12 -2.41659e+12 -7.04461e+12 -5.55351e+12 -1.15113e+13 -8.07202e+12 -8.9798e+12 -9.22063e+12 -1.00336e+13 -6.70868e+12 -6.07217e+12 -5.19079e+12 -8.3951e+12 -5.1715e+12 -7.49786e+12 -7.75043e+12 -6.21621e+12 -8.07717e+12 -4.93133e+12 -1.30529e+13 -7.78509e+12 -7.26473e+12 -6.79494e+12 -9.014e+12 -5.7924e+12 -4.48823e+12 -6.95588e+12 -9.66962e+12 -8.8067e+12 -5.89614e+12 -9.73767e+12 -8.08181e+12 -1.24296e+13 -1.07867e+13 -6.94345e+12 -1.11385e+13 -7.79657e+12 -4.93682e+12 -1.24032e+13 -1.0176e+13 -5.30604e+12 -8.37377e+12 -7.38628e+12 -5.00934e+12 -8.13295e+12 -1.06794e+13 -5.22656e+12 -3.33267e+12 -6.58945e+12 -8.49511e+12 -1.44859e+13 -5.79934e+12 -1.09284e+13 -8.44849e+12 -8.88315e+12 -6.00496e+12 -1.01339e+13 -8.08366e+12 -8.73398e+12 -1.0099e+13 -8.45179e+12 -8.36602e+12 -8.39535e+12 -7.14874e+12 -6.5987e+12 -1.0763e+13 -1.16384e+13 -8.06674e+12 -1.44458e+13 -9.35376e+12 -5.90278e+12 -1.1407e+13 -7.28211e+12 -7.22981e+12 -6.66024e+12 -7.837e+12 -4.63482e+12 -9.24105e+12 -5.29348e+12 -9.09453e+12 -1.2844e+13 -1.04467e+13 -6.95836e+12 -6.92338e+12 -8.47197e+12 -6.21066e+12 -6.96553e+12 -8.08621e+12 -1.07472e+13 -7.38025e+12 -7.85783e+12 -3.27474e+12 -7.44905e+12 -5.90242e+12 -9.88986e+12 -5.54096e+12 -8.50951e+12 -5.80823e+12 -7.17091e+12 -6.15877e+12 -7.94707e+12 -7.22111e+12 -6.45727e+12 -6.75229e+12 -6.44077e+12 -9.18715e+12 -7.18623e+12 -7.90605e+12 -7.57004e+12 -3.58313e+12 -6.53199e+12 -6.37704e+12 -2.96175e+12 -8.06732e+12 -1.09448e+13 -1.15289e+13 -6.90952e+12 -8.87695e+12 -1.10136e+13 -6.37421e+12 -1.02315e+13 -4.15579e+12 -5.71619e+12 -9.54274e+12 -6.27085e+12 -7.77748e+12 -6.01199e+12 -7.49079e+12 -1.23398e+13 -1.44528e+13 -1.01634e+13 -1.00548e+13 -1.20187e+13 -5.53972e+12 -9.04046e+12 -5.67933e+12 -6.72718e+12 -1.18001e+13 -7.055e+12 -8.98312e+12 -7.08046e+12 -7.88694e+12 -1.05512e+13 -8.50884e+12 -8.18521e+12 -7.73154e+12 -6.25902e+12 -5.65598e+12 -9.46659e+12 -7.0873e+12 -6.57751e+12 -7.54578e+12 -4.26641e+12 -3.26601e+12 -3.16932e+12 -7.66354e+12 -3.47488e+12 -6.91819e+12 -9.84625e+12 -7.15296e+12 -7.84344e+12 -7.76104e+12 -4.68049e+12 -6.38067e+12 -5.51623e+12 -7.80626e+12 -7.54483e+12 -3.80893e+12 -8.47247e+12 -5.79986e+12 -7.15505e+12 -5.37236e+12 -5.62716e+12 -7.30125e+12 -5.42184e+12 -8.44256e+12 -8.59825e+12 -7.39507e+12 -5.00902e+12 -3.46908e+12 -5.97464e+12 -6.907e+12 -1.15145e+13 -6.17972e+12 -3.48813e+12 -7.98035e+12 -6.11957e+12 -8.69825e+12 -6.42904e+12 -1.12038e+13 -5.96436e+12 -5.09293e+12 -9.08933e+12 -8.80976e+12 -1.04715e+13 -7.45282e+12 -5.89608e+12 -1.07312e+13 -9.94061e+12 -7.41417e+12 -8.90642e+12 -5.30428e+12 -1.07945e+13 -6.9464e+12 -8.08439e+12 -8.68538e+12 -6.87067e+12 -8.96339e+12 -1.6479e+13 -7.8505e+12 -9.27732e+12 -7.2806e+12 -1.47726e+13 -9.0214e+12 -1.02298e+13 -3.61096e+12 -4.72864e+12 -8.24531e+12 -6.93577e+12 -8.50857e+12 -1.17483e+13 -7.19802e+12 -1.18918e+13 -4.52154e+12 -1.1682e+13 -1.03791e+13 -6.59733e+12 -9.23824e+12 -3.55985e+12 -6.51462e+12 -6.49474e+12 -5.31445e+12 -1.0685e+13 -6.49943e+12 -7.28935e+12 -1.02761e+13 -1.00394e+13 -8.44662e+12 -1.13033e+13 -7.97353e+12 -1.24417e+13 -7.83337e+12 -5.96983e+12 -6.60473e+12 -5.71873e+12 -1.02287e+13 -7.33426e+12 -7.46774e+12 -8.44366e+12 -6.59926e+12 -5.8393e+12 -1.11028e+13 -7.0564e+12 -7.6694e+12 -6.26634e+12 -7.33104e+12 -7.48252e+12 -1.17226e+13 -6.06416e+12 -6.93973e+12 -8.3691e+12 -7.76965e+12 -5.45168e+12 -1.03466e+13 -1.58122e+13 -4.79428e+12 -5.53766e+12 -5.78516e+12 -8.24912e+12 -9.40147e+12 -5.07696e+12 -1.02766e+13 -9.48218e+12 -8.8681e+12 -8.74543e+12 -8.71159e+12 -3.58286e+12 -8.68774e+12 -7.86922e+12 -6.45808e+12 -5.59535e+12 -7.13474e+12 -7.25777e+12 -6.05576e+12 -9.50532e+12 -5.89542e+12 -6.69252e+12 -5.30254e+12 -5.62387e+12 -1.24621e+13 -7.93729e+12 -1.13207e+13 -1.0011e+13 -1.45658e+13 -8.82012e+12 -6.19137e+12 -1.28423e+13 -9.87589e+12 -1.02216e+13 -9.3486e+12 -1.1629e+13 -9.41791e+12 -8.40102e+12 -1.44421e+13 -3.88886e+12 -8.79493e+12 -6.68954e+12 -3.12794e+12 -5.17856e+12 -3.13449e+12 -6.29823e+12 -1.07809e+13 -6.20967e+12 -9.91398e+12 -1.27166e+13 -8.78599e+12 -1.52641e+13 -6.88757e+12 -8.31676e+12 -9.74343e+12 -1.17014e+13 -1.27053e+13 -8.59687e+12 -1.45965e+13 -9.39943e+12 -9.92364e+12 -5.86883e+12 -7.31211e+12 -9.2288e+12 -7.42161e+12 -7.92723e+12 -6.05773e+12 -7.49804e+12 -8.18909e+12 -5.20738e+12 -8.83655e+12 -5.1389e+12 -1.06536e+13 -5.25078e+12 -4.98481e+12 -7.80196e+12 -6.54846e+12 -7.36306e+12 -6.74866e+12 -5.75161e+12 -4.14838e+12 -5.36929e+12 -1.01736e+13 -8.07439e+12 -3.10334e+12 -4.60896e+12 -5.76235e+12 -1.03176e+13 -4.91514e+12 -7.18359e+12 -4.05119e+12 -8.00676e+12 -5.10511e+12 -7.26502e+12 -5.06784e+12 -4.22615e+12 -7.74451e+12 -4.39959e+12 -5.79999e+12 -6.97116e+12 -7.48368e+12 -4.40681e+12 -4.8685e+12 -8.37776e+12 -6.09529e+12 -7.80512e+12 -9.56094e+12 -1.13583e+13 -5.96102e+12 -7.94234e+12 -8.52266e+12 -7.29857e+12 -4.38904e+12 -9.83527e+12 -6.51097e+12 -8.4378e+12 -5.39568e+12 -7.37511e+12 -1.09934e+13 -5.44739e+12 -1.05235e+13 -1.20209e+13 -5.60854e+12 -6.36398e+12 -6.79625e+12 -4.71171e+12 -6.05305e+12 -1.02877e+13 -9.14692e+12 -8.36121e+12 -7.12846e+12 -9.89785e+12 -6.10369e+12 -6.37898e+12 -9.80397e+12 -9.36431e+12 -9.09416e+12 -8.19403e+12 -1.0306e+13 -7.70855e+12 -7.71384e+12 -1.14526e+13 -1.00981e+13 -8.1907e+12 -7.97786e+12 -1.37478e+13 -1.05859e+13 -9.92282e+12 -1.07272e+13 -6.49821e+12 -6.52346e+12 -2.61708e+12 -8.16795e+12 -4.48813e+12 -4.11022e+12 -8.85789e+12 -6.04405e+12 -1.10156e+13 -5.97382e+12 -6.81003e+12 -5.92336e+12 -5.16199e+12 -9.08565e+12 -9.7795e+12 -6.98445e+12 -1.08813e+13 -1.36093e+13 -6.92013e+12 -6.82228e+12 -5.03615e+12 -9.29685e+12 -1.00061e+13 -6.96992e+12 -9.18165e+12 -1.21363e+13 -6.19661e+12 -8.91044e+12 -6.97873e+12 -1.04983e+13 -8.14169e+12 -9.92951e+12 -3.19016e+12 -8.8712e+12 -5.84584e+12 -1.0252e+13 -6.63883e+12 -6.88589e+12 -1.05777e+13 -7.45014e+12 -6.80943e+12 -4.89531e+12 -5.13263e+12 -8.50872e+12 -6.43044e+12 -5.29267e+12 -4.21328e+12 -4.71717e+12 -6.64948e+12 -9.65714e+12 -6.87124e+12 -7.56682e+12 -9.05801e+12 -4.99725e+12 -7.97825e+12 -9.66828e+12 -3.71913e+12 -4.06601e+12 -6.29369e+12 -7.46484e+12 -7.06129e+12 -6.38233e+12 -7.46456e+12 -5.37833e+12 -8.956e+12 -7.37375e+12 -4.9423e+12 -6.32549e+12 -7.40542e+12 -4.33264e+12 -3.83338e+12 -3.8776e+12 -1.03935e+13 -5.80915e+12 -8.61492e+12 -1.0395e+13 -8.79878e+12 -7.08786e+12 -5.34736e+12 -9.24248e+12 -5.19585e+12 -9.3935e+12 -9.48855e+12 -1.04623e+13 -7.95346e+12 -8.28849e+12 -5.87199e+12 -7.34166e+12 -1.08133e+13 -1.06991e+13 -9.13502e+12 -8.12884e+12 -1.19402e+13 -1.32034e+13 -7.93841e+12 -5.02664e+12 -8.39775e+12 -1.17654e+13 -7.397e+12 -5.33079e+12 -5.84871e+12 -5.00138e+12 -9.23214e+12 -5.92873e+12 -4.74183e+12 -5.2948e+12 -4.36654e+12 -7.54736e+12 -1.19448e+13 -8.34961e+12 -1.07246e+13 -8.94305e+12 -7.71527e+12 -1.07161e+13 -7.79183e+12 -7.93604e+12 -6.25347e+12 -7.87668e+12 -6.0297e+12 -1.08256e+13 -6.35443e+12 -7.45977e+12 -7.08865e+12 -9.35536e+12 -8.24217e+12 -1.00728e+13 -8.80809e+12 -3.27965e+12 -1.16338e+13 -4.82605e+12 -5.76866e+12 -6.87871e+12 -9.47653e+12 -9.06723e+12 -9.17541e+12 -7.24198e+12 -4.8127e+12 -9.10192e+12 -2.87819e+12 -3.45815e+12 -8.61257e+12 -6.71227e+12 -9.78719e+12 -5.88579e+12 -6.01662e+12 -7.22211e+12 -5.77025e+12 -8.49872e+12 -6.83971e+12 -5.66109e+12 -4.85589e+12 -1.06938e+13 -7.92003e+12 -8.07763e+12 -9.32245e+12 -3.2782e+12 -6.89332e+12 -4.54362e+12 -7.03297e+12 -5.28398e+12 -8.22542e+12 -9.45854e+12 -6.50195e+12 -5.41596e+12 -1.00948e+13 -4.66593e+12 -6.13254e+12 -6.71765e+12 -1.12815e+13 -7.61256e+12 -6.70867e+12 -4.86976e+12 -8.51153e+12 -4.8388e+12 -6.23154e+12 -3.38096e+12 -5.37481e+12 -2.76613e+12 -6.9132e+12 -5.9986e+12 -9.6896e+12 -5.80564e+12 -7.06107e+12 -1.01171e+13 -6.36371e+12 -6.90121e+12 -3.97334e+12 -7.0416e+12 -7.98532e+12 -5.63802e+12 -4.74586e+12 -7.36898e+12 -8.75199e+12 -8.80227e+12 -2.5159e+12 -4.59846e+12 -6.22087e+12 -7.99207e+12 -6.87912e+12 -4.75873e+12 -6.95286e+12 -8.88243e+12 -9.47929e+12 -5.78301e+12 -8.29504e+12 -4.1152e+12 -7.34688e+12 -1.61882e+13 -8.80049e+12 -8.29424e+12 -1.04017e+13 -1.06552e+13 -1.05165e+13 -1.27417e+13 -6.47339e+12 -8.64695e+12 -1.22104e+13 -7.17416e+12 -7.77839e+12 -6.67678e+12 -1.21121e+13 -5.72109e+12 -8.35502e+12 -5.58055e+12 -6.55717e+12 -3.77999e+12 -9.09898e+12 -1.00255e+13 -1.06201e+13 -5.4565e+12 -7.4585e+12 -7.68872e+12 -6.52273e+12 -8.14276e+12 -5.17592e+12 -8.50796e+12 -1.32918e+13 -9.40874e+12 -6.49201e+12 -1.33073e+13 -4.75942e+12 -5.50772e+12 -2.44434e+12 -6.39982e+12 -3.77304e+12 -4.50399e+12 -9.44922e+12 -6.16916e+12 -8.12223e+12 -5.5446e+12 -1.02184e+13 -5.19309e+12 -5.60562e+12 -1.22511e+13 -4.80392e+12 -5.30954e+12 -1.16858e+13 -6.60162e+12 -8.97916e+12 -7.8239e+12 -5.84207e+12 -6.26817e+12 -5.56908e+12 -8.20159e+12 -1.31966e+13 -8.87287e+12 -5.9099e+12 -8.22576e+12 -9.08931e+12 -4.87243e+12 -7.87353e+12 -5.59394e+12 -4.19185e+12 -9.07782e+12 -1.05095e+13 -9.88038e+12 -7.36538e+12 -7.20455e+12 -4.72504e+12 -6.96862e+12 -3.44071e+12 -7.77671e+12 -7.32663e+12 -6.85998e+12 -9.10782e+12 -6.36662e+12 -1.06239e+13 -5.0706e+12 -1.11305e+13 -5.02831e+12 -5.19855e+12 -8.72784e+12 -8.49526e+12 -8.01424e+12 -7.16361e+12 -6.33399e+12 -4.37611e+12 -2.95689e+12 -5.63975e+12 -1.30592e+13 -5.49641e+12 -8.92183e+12 -3.6994e+12 -8.1986e+12 -5.90041e+12 -4.14665e+12 -7.85873e+12 -7.15636e+12 -5.74439e+12 -7.57064e+12 -5.88016e+12 -7.14865e+12 -6.79193e+12 -5.016e+12 -7.52469e+12 -4.63629e+12 -6.69389e+12 -1.8107e+12 -2.7627e+12 -4.90529e+12 -3.15389e+12 -7.18432e+12 -8.43135e+12 -6.60443e+12 -4.38502e+12 -9.31825e+12 -4.3301e+12 -7.20817e+12 -9.88452e+12 -7.61461e+12 -7.31801e+12 -6.76318e+12 -8.78254e+12 -2.48967e+12 -7.61661e+12 -4.57983e+12 -7.5172e+12 -1.02796e+13 -4.02757e+12 -7.46872e+12 -1.08458e+13 -9.04935e+12 -7.96205e+12 -7.99547e+12 -9.85578e+12 -1.04035e+13 -5.60639e+12 -9.08248e+12 -4.97886e+12 -6.72828e+12 -1.00856e+13 -1.25085e+13 -9.20785e+12 -1.1627e+13 -8.69365e+12 -1.1929e+13 -7.00395e+12 -9.51276e+12 -6.12875e+12 -8.08639e+12 -4.17491e+12 -8.35217e+12 -5.87726e+12 -5.8288e+12 -5.24569e+12 -1.16218e+13 -7.11808e+12 -4.53828e+12 -5.96435e+12 -6.87066e+12 -9.35105e+12 -9.74037e+12 -6.63301e+12 -7.28883e+12 -1.05345e+13 -8.09863e+12 -6.82455e+12 -5.67869e+12 -4.87194e+12 -4.10437e+12 -7.16619e+12 -5.35885e+12 -5.93896e+12 -5.5487e+12 -7.43718e+12 -7.17495e+12 -1.12786e+13 -6.26228e+12 -4.06508e+12 -5.48044e+12 -8.31216e+12 -9.75047e+12 -6.72196e+12 -6.92019e+12 -7.13627e+12 -7.12682e+12 -1.05584e+13 -6.22266e+12 -8.86429e+12 -4.74195e+12 -7.92158e+12 -6.68273e+12 -9.48153e+12 -8.54384e+12 -5.79275e+12 -5.18687e+12 -7.78648e+12 -5.1336e+12 -2.87085e+12 -8.61358e+12 -5.28721e+12 -5.63144e+12 -7.35151e+12 -2.65923e+12 -7.24552e+12 -5.22898e+12 -5.74482e+12 -1.01844e+13 -8.34741e+12 -3.9849e+12 -6.71905e+12 -8.81152e+12 -9.93067e+12 -4.22178e+12 -4.1523e+12 -3.30338e+12 -5.16473e+12 -5.45355e+12 -3.34021e+12 -6.8948e+12 -5.3563e+12 -3.97927e+12 -5.4379e+12 -7.14131e+12 -5.59049e+12 -4.14908e+12 -6.68583e+12 -7.85115e+12 -4.7138e+12 -8.56279e+12 -9.33295e+12 -5.74806e+12 -5.19136e+12 -5.85133e+12 -8.01456e+12 -3.74277e+12 -8.11105e+12 -8.4017e+12 -1.05059e+13 -1.18486e+13 -8.77561e+12 -6.75914e+12 -9.98999e+12 -1.14203e+13 -5.30507e+12 -9.35656e+12 -1.29648e+13 -7.45224e+12 -6.22637e+12 -1.24173e+13 -1.00861e+13 -6.1705e+12 -4.33116e+12 -6.52922e+12 -7.19461e+12 -4.45859e+12 -8.43345e+12 -1.01005e+13 -9.61744e+12 -7.01524e+12 -8.13053e+12 -9.08887e+12 -7.25669e+12 -9.03974e+12 -9.67394e+12 -8.56875e+12 -4.60246e+12 -7.52775e+12 -9.11609e+12 -6.96406e+12 -1.07335e+13 -1.09992e+13 -1.0251e+13 -7.78744e+12 -6.09966e+12 -1.04219e+13 -5.306e+12 -7.33432e+12 -8.83612e+12 -7.784e+12 -7.44658e+12 -7.58181e+12 -8.53267e+12 -6.83038e+12 -8.39416e+12 -7.51136e+12 -7.21343e+12 -6.75207e+12 -9.64434e+12 -6.00958e+12 -7.34075e+12 -7.12554e+12 -7.09982e+12 -5.57728e+12 -4.06439e+12 -4.3865e+12 -6.03825e+12 -4.09555e+12 -6.09921e+12 -7.44886e+12 -7.37149e+12 -6.90292e+12 -6.37741e+12 -1.24028e+13 -5.82796e+12 -8.01312e+12 -5.81963e+12 -5.48829e+12 -5.99804e+12 -7.41314e+12 -7.76969e+12 -9.82312e+12 -6.8779e+12 -4.12713e+12 -6.20387e+12 -6.886e+12 -4.13583e+12 -8.31191e+12 -4.44274e+12 -4.46953e+12 -6.38533e+12 -8.06379e+12 -6.04682e+12 -7.32667e+12 -3.87518e+12 -6.60306e+12 -7.87209e+12 -6.73615e+12 -3.06928e+12 -6.3241e+12 -7.36007e+12 -5.80839e+12 -5.20112e+12 -4.48407e+12 -2.81088e+12 -4.94508e+12 -7.08384e+12 -6.23922e+12 -3.60064e+12 -4.55667e+12 -7.93739e+12 -6.73993e+12 -1.10342e+13 -7.44368e+12 -5.33979e+12 -1.04151e+13 -4.66851e+12 -6.34538e+12 -1.07455e+13 -8.88874e+12 -1.01344e+13 -6.3635e+12 -5.94473e+12 -7.37276e+12 -2.6354e+12 -9.04176e+12 -6.41218e+12 -1.0475e+13 -7.76788e+12 -8.16842e+12 -8.42477e+12 -8.29638e+12 -6.18873e+12 -1.30743e+13 -4.95279e+12 -1.13959e+13 -9.76371e+12 -8.59325e+12 -9.54253e+12 -8.2161e+12 -4.80392e+12 -1.15016e+13 -1.09293e+13 -1.15769e+13 -9.33818e+12 -8.50918e+12 -8.91752e+12 -7.13796e+12 -7.14114e+12 -5.9646e+12 -7.58403e+12 -7.31211e+12 -5.09983e+12 -7.55289e+12 -5.82905e+12 -5.51356e+12 -6.72611e+12 -5.44566e+12 -7.43462e+12 -8.06527e+12 -4.51318e+12 -3.96974e+12 -6.20849e+12 -2.69393e+12 -8.18532e+12 -8.02443e+12 -6.99475e+12 -5.26237e+12 -8.61977e+12 -6.30421e+12 -6.14161e+12 -1.28335e+13 -3.72051e+12 -1.01486e+13 -6.42537e+12 -7.91891e+12 -1.42662e+13 -4.9545e+12 -5.93152e+12 -5.789e+12 -5.18423e+12 -4.4397e+12 -7.99958e+12 -1.1064e+13 -5.14188e+12 -9.63103e+12 -6.01317e+12 -6.11e+12 -7.50199e+12 -6.41494e+12 -2.66874e+12 -6.38145e+12 -4.88896e+12 -9.11992e+12 -1.13971e+13 -9.66118e+12 -7.74001e+12 -6.31051e+12 -3.46257e+12 -8.17201e+12 -6.19469e+12 -7.17718e+12 -8.07866e+12 -7.40376e+12 -3.86857e+12 -9.81191e+12 -6.84767e+12 -1.19226e+13 -7.56796e+12 -1.01071e+13 -1.11008e+13 -5.3174e+12 -5.54407e+12 -5.68376e+12 -4.51178e+12 -4.68262e+12 -6.00374e+12 -6.94517e+12 -9.01666e+12 -3.93043e+12 -9.41176e+12 -9.17927e+12 -4.91666e+12 -8.26423e+12 -8.26222e+12 -6.34458e+12 -8.52434e+12 -4.08298e+12 -6.49184e+12 -4.46498e+12 -3.98477e+12 -7.60706e+12 -4.72578e+12 -1.03998e+13 -5.01389e+12 -7.70499e+12 -8.77583e+12 -5.00279e+12 -2.58143e+12 -4.86777e+12 -8.18916e+12 -9.02638e+12 -5.44658e+12 -8.07504e+12 -3.65969e+12 -4.85698e+12 -5.09266e+12 -5.18622e+12 -5.93723e+12 -8.76257e+12 -8.18343e+12 -6.25825e+12 -3.84039e+12 -8.26462e+12 -6.73022e+12 -6.03471e+12 -6.20751e+12 -5.56203e+12 -5.98153e+12 -6.48147e+12 -6.4354e+12 -6.27594e+12 -7.74238e+12 -8.09306e+12 -1.14667e+13 -5.24542e+12 -4.5939e+12 -6.32546e+12 -7.04198e+12 -1.15312e+13 -7.30304e+12 -3.87037e+12 -8.99197e+12 -1.07954e+13 -8.33935e+12 -8.83635e+12 -7.35185e+12 -3.89249e+12 -2.21336e+12 -1.29944e+13 -9.86853e+12 -1.16436e+13 -1.08923e+13 -7.68853e+12 -6.26569e+12 -1.35439e+13 -7.58292e+12 -9.27676e+12 -7.57442e+12 -9.48191e+12 -9.00083e+12 -1.02468e+13 -4.47163e+12 -2.8173e+12 -6.49614e+12 -6.6348e+12 -5.10599e+12 -6.65481e+12 -4.12281e+12 -5.47874e+12 -6.45858e+12 -8.59291e+12 -7.20238e+12 -8.37728e+12 -1.31617e+13 -8.33658e+12 -8.76155e+12 -4.48467e+12 -1.48866e+13 -8.46733e+12 -4.80628e+12 -1.06164e+13 -9.56695e+12 -7.74654e+12 -9.45328e+12 -9.76297e+12 -6.82137e+12 -4.85609e+12 -7.77521e+12 -9.88493e+12 -8.91359e+12 -1.14116e+13 -3.48813e+12 -3.03212e+12 -4.8125e+12 -7.73756e+12 -5.44454e+12 -5.87551e+12 -5.02314e+12 -7.34909e+12 -8.09061e+12 -3.80459e+12 -7.34256e+12 -5.77126e+12 -4.1256e+12 -1.19912e+13 -5.12213e+12 -8.80242e+12 -5.52554e+12 -9.02349e+12 -4.15836e+12 -7.09518e+12 -1.00864e+13 -3.75248e+12 -4.86183e+12 -3.83937e+12 -3.45603e+12 -6.99166e+12 -6.77601e+12 -4.85216e+12 -6.52639e+12 -8.30277e+12 -6.46265e+12 -6.71317e+12 -4.93304e+12 -6.64955e+12 -5.2762e+12 -3.09829e+12 -5.16585e+12 -1.91067e+12 -6.68941e+12 -7.20292e+12 -4.62091e+12 -6.42903e+12 -7.87921e+12 -1.10791e+13 -3.24898e+12 -4.1778e+12 -3.39492e+12 -6.23113e+12 -5.09086e+12 -7.19376e+12 -6.16907e+12 -3.42378e+12 -5.29733e+12 -3.71378e+12 -8.36225e+12 -6.69429e+12 -7.60032e+12 -1.10358e+13 -5.52185e+12 -9.26474e+12 -6.28899e+12 -4.54283e+12 -4.44715e+12 -6.59716e+12 -7.33136e+12 -4.48203e+12 -6.82514e+12 -9.66221e+12 -9.18708e+12 -4.44414e+12 -8.00049e+12 -6.9653e+12 -7.65073e+12 -5.91098e+12 -9.76455e+12 -8.84866e+12 -4.76856e+12 -5.34119e+12 -1.01662e+13 -6.85719e+12 -6.75157e+12 -5.70627e+12 -6.37501e+12 -7.61074e+12 -6.8353e+12 -7.14949e+12 -9.60554e+12 -4.76219e+12 -4.16852e+12 -4.61969e+12 -5.90091e+12 -7.87164e+12 -6.90107e+12 -6.99611e+12 -5.33503e+12 -6.70358e+12 -9.80895e+12 -5.37452e+12 -7.05011e+12 -7.37064e+12 -1.08e+13 -4.93593e+12 -5.86764e+12 -5.97951e+12 -6.15368e+12 -5.03177e+12 -8.13587e+12 -6.07948e+12 -4.26836e+12 -5.71174e+12 -4.35578e+12 -7.34678e+12 -6.671e+12 -6.34892e+12 -1.02999e+13 -6.73064e+12 -7.12399e+12 -7.50892e+12 -1.88407e+13 -4.34623e+12 -6.36846e+12 -6.3048e+12 -8.571e+12 -5.37419e+12 -7.52311e+12 -9.58678e+12 -6.85294e+12 -5.62703e+12 -6.59295e+12 -7.78025e+12 -8.19515e+12 -8.53624e+12 -8.99796e+12 -8.78371e+12 -5.64591e+12 -1.45536e+13 -6.68144e+12 -5.75572e+12 -5.7097e+12 -4.8747e+12 -9.21464e+12 -7.22386e+12 -7.56172e+12 -1.01928e+13 -7.53422e+12 -8.98147e+12 -9.05847e+12 -8.97425e+12 -6.39959e+12 -5.12141e+12 -7.00776e+12 -6.03372e+12 -9.48408e+12 -7.47625e+12 -6.59097e+12 -4.65543e+12 -4.3779e+12 -6.09393e+12 -5.26174e+12 -4.42675e+12 -5.84757e+12 -3.61461e+12 -5.48951e+12 -9.11994e+12 -6.28445e+12 -6.61481e+12 -3.90738e+12 -4.66636e+12 -5.61375e+12 -3.65026e+12 -6.73601e+12 -7.55273e+12 -5.79203e+12 -7.90804e+12 -4.95661e+12 -8.6395e+12 -3.74059e+12 -6.04451e+12 -7.41703e+12 -5.75609e+12 -5.72348e+12 -4.84079e+12 -6.8448e+12 -5.92028e+12 -6.16922e+12 -6.74683e+12 -3.64619e+12 -5.5773e+12 -4.55001e+12 -3.23798e+12 -3.23265e+12 -5.70836e+12 -6.62383e+12 -4.10046e+12 -7.31086e+12 -5.0739e+12 -2.20068e+12 -4.13664e+12 -8.32289e+12 -5.4972e+12 -2.89538e+12 -3.68455e+12 -3.72902e+12 -3.98691e+12 -7.65828e+12 -5.82674e+12 -1.00531e+13 -5.99749e+12 -5.3267e+12 -9.97213e+12 -5.41117e+12 -9.97776e+12 -2.45855e+12 -5.00728e+12 -5.75859e+12 -9.48098e+12 -9.94848e+12 -7.75412e+12 -5.73471e+12 -5.23089e+12 -6.0185e+12 -4.18631e+12 -3.71558e+12 -5.65343e+12 -7.58066e+12 -5.92253e+12 -9.10651e+12 -6.23369e+12 -7.12844e+12 -7.3533e+12 -8.89849e+12 -8.89561e+12 -8.89813e+12 -9.6558e+12 -8.94328e+12 -8.81982e+12 -8.67836e+12 -7.80963e+12 -1.32548e+13 -7.62711e+12 -6.005e+12 -7.1382e+12 -8.72424e+12 -1.05762e+13 -6.49935e+12 -5.17878e+12 -5.65317e+12 -8.6964e+12 -4.4825e+12 -4.81992e+12 -5.81195e+12 -4.31195e+12 -7.86635e+12 -5.18984e+12 -2.69668e+12 -5.2108e+12 -9.66956e+12 -4.66306e+12 -8.07393e+12 -1.33999e+13 -6.24429e+12 -1.14436e+13 -6.95501e+12 -1.17846e+13 -5.93783e+12 -6.74762e+12 -7.2838e+12 -3.34759e+12 -5.73296e+12 -6.59624e+12 -5.55019e+12 -3.83024e+12 -6.22304e+12 -1.09473e+13 -4.96954e+12 -6.96763e+12 -6.7394e+12 -1.02831e+13 -1.10674e+13 -7.19005e+12 -5.77434e+12 -6.02907e+12 -6.01069e+12 -6.09192e+12 -5.44929e+12 -5.32022e+12 -6.37569e+12 -5.21598e+12 -8.23877e+12 -6.72931e+12 -4.77332e+12 -8.08216e+12 -7.77173e+12 -2.74708e+12 -3.31468e+12 -5.51973e+12 -5.37561e+12 -4.63077e+12 -3.90843e+12 -4.3506e+12 -9.95013e+12 -5.35532e+12 -4.92118e+12 -4.89315e+12 -4.9568e+12 -3.42727e+12 -3.87785e+12 -9.42488e+12 -7.50743e+12 -5.72412e+12 -6.26067e+12 -4.52409e+12 -6.4298e+12 -4.80733e+12 -5.35247e+12 -3.09253e+12 -7.29824e+12 -7.57747e+12 -7.00618e+12 -6.51308e+12 -7.01857e+12 -5.89433e+12 -5.21057e+12 -6.51483e+12 -5.517e+12 -5.36763e+12 -4.94714e+12 -5.17804e+12 -2.96403e+12 -7.40017e+12 -7.21427e+12 -3.58859e+12 -6.89325e+12 -5.79619e+12 -8.59663e+12 -5.21288e+12 -4.33409e+12 -6.01141e+12 -5.2612e+12 -3.94883e+12 -5.52133e+12 -8.04744e+12 -4.51317e+12 -1.03983e+13 -4.37755e+12 -6.22667e+12 -5.13668e+12 -8.73238e+12 -1.26207e+13 -7.05182e+12 -8.04671e+12 -4.19955e+12 -4.55335e+12 -7.10966e+12 -7.20265e+12 -9.33199e+12 -4.47862e+12 -1.28534e+13 -5.89404e+12 -4.07077e+12 -2.96374e+12 -4.95439e+12 -6.54199e+12 -7.60753e+12 -4.95341e+12 -8.39563e+12 -7.03133e+12 -1.28276e+13 -3.06651e+12 -5.47537e+12 -6.70606e+12 -7.91687e+12 -4.54645e+12 -6.15364e+12 -3.65589e+12 -6.58002e+12 -7.80899e+12 -6.9908e+12 -4.54357e+12 -9.92288e+12 -6.55252e+12 -6.0509e+12 -7.84924e+12 -6.41289e+12 -5.56895e+12 -9.90997e+12 -3.27392e+12 -5.30685e+12 -8.64305e+12 -6.58972e+12 -1.09858e+13 -5.36816e+12 -1.20637e+13 -5.80011e+12 -4.94645e+12 -5.04025e+12 -4.613e+12 -6.13987e+12 -9.3519e+12 -5.89287e+12 -1.04707e+13 -1.05592e+13 -8.16179e+12 -7.22374e+12 -6.4179e+12 -3.85147e+12 -4.4667e+12 -8.06207e+12 -4.24721e+12 -6.83613e+12 -5.58068e+12 -3.82049e+12 -6.02055e+12 -7.18041e+12 -8.05296e+12 -5.9059e+12 -5.09226e+12 -6.07693e+12 -7.02316e+12 -7.58005e+12 -6.27384e+12 -7.55211e+12 -5.29983e+12 -6.42621e+12 -5.92843e+12 -6.73355e+12 -2.56671e+12 -5.13217e+12 -2.89896e+12 -5.10753e+12 -2.11662e+12 -7.52329e+12 -4.1371e+12 -3.54151e+12 -9.89585e+12 -5.08499e+12 -5.1242e+12 -6.33812e+12 -4.45421e+12 -5.82789e+12 -9.27914e+12 -1.02221e+13 -3.16769e+12 -4.17647e+12 -6.21939e+12 -5.89464e+12 -5.00998e+12 -926447000000.0 -5.31021e+12 -9.22764e+12 -7.62303e+12 -5.66773e+12 -5.85309e+12 -1.91745e+12 -5.73518e+12 -5.76538e+12 -5.62254e+12 -4.32729e+12 -4.91584e+12 -6.14214e+12 -5.03838e+12 -5.7422e+12 -5.69814e+12 -4.70693e+12 -4.28461e+12 -4.38174e+12 -4.10883e+12 -4.03936e+12 -5.57412e+12 -5.53501e+12 -4.36997e+12 -4.81709e+12 -7.02203e+12 -5.60856e+12 -3.19644e+12 -3.49228e+12 -2.93435e+12 -3.89125e+12 -3.80031e+12 -8.05516e+12 -2.61356e+12 -5.84679e+12 -2.28376e+12 -4.82006e+12 -3.92318e+12 -5.29497e+12 -3.69582e+12 -4.37013e+12 -7.20406e+12 -6.94917e+12 -4.28852e+12 -5.54382e+12 -5.90711e+12 -6.74118e+12 -3.58573e+12 -6.70264e+12 -7.57358e+12 -3.88643e+12 -3.83417e+12 -6.15131e+12 -7.18064e+12 -4.75756e+12 -7.18427e+12 -6.48257e+12 -7.98694e+12 -6.73942e+12 -7.77659e+12 -8.7946e+12 -1.09896e+13 -6.5881e+12 -3.2528e+12 -4.46927e+12 -4.70438e+12 -5.56644e+12 -9.75913e+12 -9.9207e+12 -1.28371e+13 -7.92851e+12 -8.18767e+12 -4.42719e+12 -8.13035e+12 -9.00006e+12 -1.36615e+13 -6.63588e+12 -3.91493e+12 -1.0797e+13 -6.87702e+12 -7.30854e+12 -5.78618e+12 -9.76179e+12 -5.29921e+12 -4.98513e+12 -5.69278e+12 -4.50124e+12 -5.65317e+12 -5.34355e+12 -4.96958e+12 -9.75243e+12 -9.56347e+12 -9.13569e+12 -7.13405e+12 -8.31946e+12 -6.84891e+12 -6.9647e+12 -3.88402e+12 -6.02039e+12 -7.03314e+12 -3.99785e+12 -3.63488e+12 -5.86549e+12 -5.85659e+12 -3.66174e+12 -4.69582e+12 -6.83322e+12 -7.64214e+12 -4.26898e+12 -6.43913e+12 -7.85654e+12 -7.83291e+12 -8.88211e+12 -6.91449e+12 -9.1245e+12 -6.81474e+12 -8.58168e+12 -6.00016e+12 -6.5583e+12 -4.68298e+12 -4.97901e+12 -7.04404e+12 -4.41181e+12 -3.88234e+12 -6.58437e+12 -6.46148e+12 -3.69307e+12 -6.98561e+12 -2.93348e+12 -8.66325e+12 -4.86984e+12 -8.56773e+12 -5.51848e+12 -9.1721e+12 -6.94186e+12 -6.59772e+12 -9.75079e+12 -6.55506e+12 -4.08551e+12 -3.06707e+12 -3.86662e+12 -4.10426e+12 -8.00471e+12 -6.47346e+12 -4.75301e+12 -1.56722e+12 -7.11161e+12 -6.40395e+12 -5.12136e+12 -3.75685e+12 -5.02051e+12 -3.24835e+12 -4.42367e+12 -4.56745e+12 -6.99566e+12 -6.56444e+12 -5.57937e+12 -5.7309e+12 -8.29924e+12 -4.96328e+12 -4.20995e+12 -1.75893e+12 -3.70876e+12 -5.42105e+12 -3.30749e+12 -4.8724e+12 -5.62611e+12 -5.84327e+12 -4.72627e+12 -2.82338e+12 -3.28066e+12 -3.49081e+12 -5.0845e+12 -4.61271e+12 -5.85447e+12 -2.92714e+12 -4.74455e+12 -6.29756e+12 -4.17789e+12 -6.18081e+12 -4.67065e+12 -5.14928e+12 -2.42577e+12 -4.31902e+12 -4.33239e+12 -8.01067e+12 -5.62389e+12 -4.56512e+12 -4.12813e+12 -5.39439e+12 -4.46863e+12 -5.40298e+12 -3.80253e+12 -4.73404e+12 -4.97631e+12 -3.62159e+12 -3.92826e+12 -3.0481e+12 -5.07249e+12 -5.23335e+12 -4.43358e+12 -2.24222e+12 -4.74636e+12 -6.65714e+12 -6.31394e+12 -3.24441e+12 -6.22147e+12 -8.40299e+12 -5.53964e+12 -8.11563e+12 -1.07958e+13 -5.71992e+12 -5.21309e+12 -5.37322e+12 -6.68416e+12 -3.09962e+12 -7.48473e+12 -3.80842e+12 -4.41723e+12 -5.66511e+12 -5.46208e+12 -7.22863e+12 -7.98014e+12 -5.17469e+12 -8.95812e+12 -6.04012e+12 -3.99307e+12 -6.20698e+12 -3.61468e+12 -3.72913e+12 -6.40751e+12 -6.87314e+12 -6.04397e+12 -5.15257e+12 -8.91656e+12 -5.75004e+12 -5.86657e+12 -8.20072e+12 -9.42965e+12 -8.17524e+12 -6.54943e+12 -6.04914e+12 -4.54641e+12 -5.28222e+12 -4.69772e+12 -7.24571e+12 -5.21849e+12 -6.16457e+12 -1.2669e+13 -5.86553e+12 -1.04143e+13 -1.27739e+13 -5.97682e+12 -5.01499e+12 -7.36183e+12 -8.24066e+12 -7.43729e+12 -4.84867e+12 -5.50551e+12 -6.95244e+12 -5.61937e+12 -2.64386e+12 -5.08598e+12 -5.35957e+12 -6.23252e+12 -5.96001e+12 -6.10129e+12 -6.72787e+12 -6.31794e+12 -4.49512e+12 -3.94039e+12 -5.23968e+12 -3.97542e+12 -8.43825e+12 -5.95667e+12 -6.51413e+12 -8.18139e+12 -4.76388e+12 -6.50714e+12 -6.87344e+12 -6.56107e+12 -4.79896e+12 -7.53807e+12 -3.68553e+12 -5.90459e+12 -6.5143e+12 -5.67227e+12 -4.18308e+12 -5.53521e+12 -6.2047e+12 -9.61979e+12 -6.80931e+12 -5.19005e+12 -6.81935e+12 -8.22332e+12 -1.11121e+13 -9.64051e+12 -8.30718e+12 -5.32534e+12 -9.85919e+12 -2.76848e+12 -7.84624e+12 -6.21043e+12 -5.20582e+12 -5.65097e+12 -5.72811e+12 -5.83441e+12 -5.00611e+12 -7.61253e+12 -5.83775e+12 -6.46854e+12 -3.97533e+12 -4.83833e+12 -5.2053e+12 -6.95975e+12 -7.74146e+12 -4.6913e+12 -4.31085e+12 -6.14728e+12 -3.40949e+12 -5.47854e+12 -5.17901e+12 -5.0383e+12 -3.1563e+12 -2.54055e+12 -4.88753e+12 -4.88026e+12 -5.30685e+12 -3.91922e+12 -2.2824e+12 -4.81429e+12 -5.20846e+12 -4.98832e+12 -5.21175e+12 -5.08438e+12 -4.92376e+12 -4.60434e+12 -5.82155e+12 -2.70589e+12 -4.0181e+12 -4.973e+12 -6.1452e+12 -4.2784e+12 -5.94041e+12 -7.43362e+12 -4.33467e+12 -4.47586e+12 -4.0115e+12 -5.95345e+12 -4.49153e+12 -4.68694e+12 -3.07967e+12 -3.75063e+12 -3.56089e+12 -5.35533e+12 -3.44758e+12 -6.33576e+12 -4.30028e+12 -7.86246e+12 -6.1402e+12 -5.26851e+12 -3.66382e+12 -3.3071e+12 -7.36248e+12 -3.0061e+12 -4.78742e+12 -8.80148e+12 -4.46151e+12 -6.70685e+12 -5.30547e+12 -4.87625e+12 -4.207e+12 -4.37417e+12 -4.47143e+12 -6.79377e+12 -6.06769e+12 -6.13125e+12 -8.66342e+12 -6.07363e+12 -7.68784e+12 -5.6486e+12 -8.58633e+12 -1.22251e+13 -8.10057e+12 -6.7069e+12 -6.92022e+12 -5.9615e+12 -2.34259e+12 -1.01417e+13 -8.15627e+12 -1.03835e+13 -6.48187e+12 -4.81364e+12 -8.83004e+12 -1.47244e+13 -7.96558e+12 -5.14727e+12 -1.11399e+13 -9.64354e+12 -5.52168e+12 -8.00632e+12 -9.20038e+12 -4.94744e+12 -7.54204e+12 -3.47694e+12 -6.32426e+12 -3.7972e+12 -8.79578e+12 -4.52394e+12 -7.96903e+12 -4.83143e+12 -7.40004e+12 -5.80353e+12 -9.81799e+12 -1.00239e+13 -7.2584e+12 -6.13158e+12 -6.28857e+12 -8.59992e+12 -5.41523e+12 -7.40043e+12 -5.70377e+12 -4.56113e+12 -5.33217e+12 -5.19363e+12 -5.56813e+12 -5.70346e+12 -4.77569e+12 -7.79683e+12 -5.58676e+12 -9.3837e+12 -5.36414e+12 -4.83762e+12 -4.75164e+12 -3.58579e+12 -1.0994e+13 -6.45161e+12 -5.5029e+12 -8.2134e+12 -4.86189e+12 -3.07536e+12 -6.57463e+12 -7.78865e+12 -4.51663e+12 -4.22801e+12 -6.46643e+12 -3.09614e+12 -6.64966e+12 -2.53457e+12 -5.4019e+12 -4.63317e+12 -3.76644e+12 -5.4413e+12 -3.87768e+12 -5.0849e+12 -5.94388e+12 -4.59696e+12 -4.74869e+12 -7.45086e+12 -5.03578e+12 -3.01936e+12 -4.60638e+12 -3.58177e+12 -4.17759e+12 -2.42075e+12 -5.0388e+12 -3.14517e+12 -3.25215e+12 -4.1309e+12 -4.44647e+12 -3.67839e+12 -4.57943e+12 -6.19971e+12 -4.07023e+12 -2.22524e+12 -3.13829e+12 -3.16093e+12 -3.26978e+12 -6.56599e+12 -3.14485e+12 -4.7189e+12 -8.02955e+12 -3.59853e+12 -5.62221e+12 -4.8961e+12 -6.53599e+12 -5.36628e+12 -5.12175e+12 -2.63679e+12 -5.72982e+12 -6.93605e+12 -3.61359e+12 -5.56142e+12 -4.80546e+12 -6.3838e+12 -8.89237e+12 -4.02729e+12 -3.65423e+12 -5.28234e+12 -4.65881e+12 -8.42046e+12 -5.27555e+12 -3.73933e+12 -2.46134e+12 -4.67809e+12 -4.90842e+12 -6.52288e+12 -6.07803e+12 -5.47929e+12 -8.37834e+12 -7.686e+12 -7.21927e+12 -5.92239e+12 -4.46694e+12 -5.6335e+12 -6.20628e+12 -5.04178e+12 -6.5609e+12 -3.54675e+12 -4.50113e+12 -7.3353e+12 -4.80009e+12 -4.60196e+12 -5.62825e+12 -6.67459e+12 -4.17306e+12 -5.69191e+12 -7.56387e+12 -6.51556e+12 -6.03569e+12 -9.67191e+12 -7.97108e+12 -8.25716e+12 -5.8224e+12 -6.77259e+12 -9.79385e+12 -1.19861e+13 -5.61842e+12 -7.95484e+12 -7.60495e+12 -6.70725e+12 -1.22327e+13 -9.30407e+12 -6.04879e+12 -5.86158e+12 -6.92491e+12 -4.80433e+12 -4.14389e+12 -3.43991e+12 -3.54299e+12 -7.37372e+12 -5.97234e+12 -1.03011e+13 -6.91959e+12 -4.98366e+12 -5.6129e+12 -5.60149e+12 -8.85297e+12 -6.54379e+12 -5.11769e+12 -9.32195e+12 -6.66429e+12 -1.04699e+13 -9.03433e+12 -4.34656e+12 -7.27322e+12 -5.58089e+12 -5.64776e+12 -5.03051e+12 -4.22552e+12 -7.3711e+12 -4.87421e+12 -7.99505e+12 -3.09729e+12 -6.20208e+12 -6.30927e+12 -5.03983e+12 -7.05838e+12 -7.60286e+12 -2.96557e+12 -3.08614e+12 -2.2014e+12 -5.91645e+12 -2.96067e+12 -4.48273e+12 -6.80686e+12 -1.05429e+13 -7.21815e+12 -7.33207e+12 -6.32188e+12 -5.55973e+12 -6.26848e+12 -7.79763e+12 -2.43316e+12 -2.99561e+12 -5.15789e+12 -5.08045e+12 -4.54146e+12 -4.01573e+12 -3.09316e+12 -3.09218e+12 -5.52155e+12 -2.8527e+12 -4.82066e+12 -6.65273e+12 -2.24847e+12 -4.6814e+12 -3.68927e+12 -3.67574e+12 -4.98442e+12 -3.08681e+12 -5.96988e+12 -2.84201e+12 -4.07547e+12 -3.65287e+12 -4.99526e+12 -2.48888e+12 -3.06892e+12 -4.41711e+12 -4.27896e+12 -5.41539e+12 -3.51807e+12 -4.81631e+12 -3.4921e+12 -4.08752e+12 -5.1781e+12 -2.51203e+12 -5.49979e+12 -4.84069e+12 -5.82711e+12 -5.01714e+12 -4.38107e+12 -1.62864e+12 -3.81306e+12 -2.48322e+12 -2.82863e+12 -3.73363e+12 -5.14275e+12 -5.66209e+12 -3.57843e+12 -4.63852e+12 -4.12379e+12 -3.16378e+12 -2.83576e+12 -5.3556e+12 -5.34841e+12 -3.4471e+12 -7.248e+12 -6.48175e+12 -2.60448e+12 -4.01837e+12 -1.89843e+12 -3.27386e+12 -5.00212e+12 -5.66537e+12 -7.05321e+12 -5.83276e+12 -4.17023e+12 -7.04739e+12 -5.57404e+12 -4.09049e+12 -3.32134e+12 -8.38694e+12 -5.91458e+12 -5.21538e+12 -6.82072e+12 -7.21756e+12 -7.33264e+12 -2.88994e+12 -6.91458e+12 -5.66684e+12 -7.2755e+12 -5.7935e+12 -4.60463e+12 -4.64231e+12 -6.1763e+12 -8.30095e+12 -6.58613e+12 -7.43097e+12 -6.4433e+12 -6.28543e+12 -845688000000.0 -6.52136e+12 -6.83958e+12 -8.25068e+12 -5.83929e+12 -6.46372e+12 -6.08327e+12 -6.1848e+12 -4.61024e+12 -3.87127e+12 -7.2486e+12 -7.90281e+12 -5.94217e+12 -7.7902e+12 -5.49804e+12 -6.39689e+12 -8.24547e+12 -1.01101e+13 -1.1871e+13 -2.82781e+12 -6.5757e+12 -2.5915e+12 -4.37605e+12 -6.84944e+12 -5.96853e+12 -1.93713e+12 -1.94775e+12 -5.13936e+12 -4.955e+12 -3.79747e+12 -1.01874e+13 -4.01087e+12 -4.81595e+12 -4.05469e+12 -5.71476e+12 -4.95415e+12 -5.47197e+12 -8.34547e+12 -6.71665e+12 -6.99015e+12 -9.42045e+12 -6.50312e+12 -2.68072e+12 -6.95872e+12 -4.63715e+12 -4.1982e+12 -4.74282e+12 -5.30302e+12 -4.73277e+12 -6.46024e+12 -4.0285e+12 -4.05193e+12 -4.93358e+12 -6.83834e+12 -4.14922e+12 -6.1501e+12 -9.13039e+12 -3.87962e+12 -5.39686e+12 -6.13793e+12 -6.30294e+12 -4.41376e+12 -5.55983e+12 -6.12147e+12 -3.70881e+12 -4.52436e+12 -4.96317e+12 -5.46631e+12 -6.02636e+12 -5.116e+12 -4.14537e+12 -6.24743e+12 -8.95984e+12 -6.03881e+12 -4.03517e+12 -5.47722e+12 -5.85278e+12 -5.52409e+12 -3.93061e+12 -4.39817e+12 -5.21017e+12 -5.65882e+12 -5.83795e+12 -5.5869e+12 -3.06545e+12 -4.97968e+12 -4.54492e+12 -2.78539e+12 -3.5193e+12 -5.25148e+12 -3.12588e+12 -2.07162e+12 -3.37645e+12 -3.7285e+12 -2.17325e+12 -4.53024e+12 -4.35064e+12 -2.81653e+12 -3.02471e+12 -3.49459e+12 -2.64218e+12 -3.34975e+12 -3.41085e+12 -3.42665e+12 -3.24233e+12 -3.10499e+12 -4.68761e+12 -5.24669e+12 -4.00561e+12 -3.26051e+12 -4.68362e+12 -3.2877e+12 -2.62866e+12 -4.11977e+12 -3.34565e+12 -2.98279e+12 -1.77552e+12 -2.13853e+12 -3.89354e+12 -6.68558e+12 -5.19462e+12 -7.83364e+12 -4.6362e+12 -6.90038e+12 -6.50173e+12 -7.32922e+12 -5.24646e+12 -4.19569e+12 -6.17288e+12 -6.18634e+12 -5.39833e+12 -3.84343e+12 -7.03435e+12 -4.91655e+12 -4.22603e+12 -7.70831e+12 -5.27373e+12 -5.10867e+12 -3.92539e+12 -5.8478e+12 -5.7613e+12 -6.83682e+12 -6.49608e+12 -6.99871e+12 -9.32788e+12 -3.74668e+12 -5.37409e+12 -7.57734e+12 -3.01618e+12 -5.74338e+12 -5.48248e+12 -5.15093e+12 -5.20098e+12 -7.0785e+12 -7.05573e+12 -4.34753e+12 -5.93577e+12 -3.66082e+12 -4.70899e+12 -7.35964e+12 -3.10296e+12 -5.8223e+12 -5.00633e+12 -9.3627e+12 -4.33258e+12 -7.98334e+12 -6.92306e+12 -2.80269e+12 -5.29846e+12 -2.79924e+12 -2.98673e+12 -3.94065e+12 -7.06389e+12 -8.15168e+12 -5.30085e+12 -5.11433e+12 -5.7069e+12 -2.97708e+12 -5.92958e+12 -5.36303e+12 -6.5399e+12 -4.60512e+12 -4.87486e+12 -5.98595e+12 -6.91915e+12 -3.98148e+12 -4.22438e+12 -4.8746e+12 -4.70971e+12 -5.00706e+12 -5.89228e+12 -4.66791e+12 -5.60901e+12 -6.01201e+12 -4.89026e+12 -7.52991e+12 -4.46952e+12 -3.92017e+12 -3.99287e+12 -6.05456e+12 -6.52038e+12 -4.3849e+12 -4.72383e+12 -4.79963e+12 -3.18116e+12 -4.96747e+12 -6.84447e+12 -4.60395e+12 -4.44818e+12 -5.56765e+12 -7.1942e+12 -6.20607e+12 -4.35399e+12 -5.85958e+12 -4.77556e+12 -4.89437e+12 -6.06912e+12 -5.74097e+12 -6.48863e+12 -1.78628e+12 -2.01242e+12 -6.30354e+12 -7.12824e+12 -3.56491e+12 -4.42172e+12 -3.37003e+12 -2.40554e+12 -3.37647e+12 -5.52924e+12 -2.64049e+12 -2.66444e+12 -4.67333e+12 -3.60464e+12 -4.76291e+12 -1.83961e+12 -3.93631e+12 -4.28103e+12 -1.74303e+12 -2.30967e+12 -1.53376e+12 -3.75177e+12 -3.04002e+12 -3.20616e+12 -3.96861e+12 -3.08128e+12 -2.93889e+12 -2.87571e+12 -2.89028e+12 -3.33844e+12 -1.93089e+12 -1.97218e+12 -1.67528e+12 -3.53136e+12 -2.93649e+12 -3.6325e+12 -2.5684e+12 -3.61945e+12 -5.27268e+12 -3.92552e+12 -3.49078e+12 -3.87512e+12 -3.55003e+12 -4.32472e+12 -3.48562e+12 -2.14048e+12 -2.60893e+12 -3.28279e+12 -3.49447e+12 -5.10821e+12 -3.69727e+12 -4.90917e+12 -5.51014e+12 -1.56702e+12 -3.78828e+12 -3.89332e+12 -5.44889e+12 -3.35263e+12 -2.05159e+12 -3.54061e+12 -3.40088e+12 -6.03425e+12 -3.98404e+12 -4.23592e+12 -4.89041e+12 -4.93231e+12 -6.62912e+12 -7.59984e+12 -5.77369e+12 -3.15497e+12 -3.84288e+12 -4.91507e+12 -5.46102e+12 -6.55281e+12 -5.44994e+12 -6.83228e+12 -5.81649e+12 -6.05582e+12 -7.07859e+12 -7.78917e+12 -5.33257e+12 -7.05941e+12 -4.52282e+12 -5.66274e+12 -2.91802e+12 -7.00847e+12 -4.93536e+12 -6.12072e+12 -7.79041e+12 -6.54519e+12 -7.49594e+12 -3.65472e+12 -5.20212e+12 -6.40337e+12 -3.484e+12 -4.70139e+12 -5.54172e+12 -4.18222e+12 -8.7849e+12 -5.0178e+12 -5.50573e+12 -6.51346e+12 -5.35795e+12 -7.0682e+12 -5.92548e+12 -5.77296e+12 -3.86063e+12 -7.40384e+12 -4.88176e+12 -9.06285e+12 -3.7114e+12 -4.90998e+12 -5.19259e+12 -3.44968e+12 -2.63477e+12 -7.37312e+12 -6.81244e+12 -7.72348e+12 -8.11344e+12 -6.84825e+12 -4.6683e+12 -4.03615e+12 -8.4382e+12 -4.23742e+12 -5.33563e+12 -4.19175e+12 -4.76675e+12 -3.45926e+12 -3.97208e+12 -4.41617e+12 -5.09748e+12 -3.22673e+12 -3.42658e+12 -1.90646e+12 -4.63347e+12 -1.9327e+12 -6.56129e+12 -3.84271e+12 -9.50412e+12 -4.90198e+12 -5.12597e+12 -5.14193e+12 -7.06781e+12 -4.96484e+12 -5.40258e+12 -5.55061e+12 -6.93618e+12 -3.79417e+12 -4.5021e+12 -4.59915e+12 -6.03785e+12 -3.79588e+12 -2.40528e+12 -5.49133e+12 -4.75757e+12 -4.37391e+12 -4.71186e+12 -3.27343e+12 -5.47145e+12 -6.53816e+12 -4.32723e+12 -3.36001e+12 -3.36957e+12 -3.75581e+12 -2.39866e+12 -5.52625e+12 -2.95158e+12 -3.06832e+12 -2.59779e+12 -3.59199e+12 -2.46224e+12 -3.57404e+12 -2.0042e+12 -2.06258e+12 -2.57952e+12 -2.37452e+12 -2.30214e+12 -3.47337e+12 -3.48673e+12 -2.79385e+12 -2.83801e+12 -2.76984e+12 -2.9473e+12 -3.04538e+12 -2.50606e+12 -4.10304e+12 -6.02822e+12 -3.54552e+12 -4.54631e+12 -3.64225e+12 -2.27823e+12 -3.31747e+12 -4.39481e+12 -3.33386e+12 -3.34618e+12 -4.05707e+12 -4.75093e+12 -2.87328e+12 -3.04604e+12 -2.17662e+12 -2.82126e+12 -2.55193e+12 -6.71771e+12 -4.27873e+12 -4.09638e+12 -1.45161e+12 -3.58908e+12 -3.08746e+12 -5.02927e+12 -3.06688e+12 -4.87362e+12 -3.66601e+12 -7.1767e+12 -5.27337e+12 -2.08882e+12 -4.06775e+12 -3.42619e+12 -7.35813e+12 -6.29694e+12 -2.58899e+12 -6.65129e+12 -6.01504e+12 -2.3664e+12 -5.35379e+12 -4.06095e+12 -5.32662e+12 -4.32244e+12 -5.50966e+12 -5.5429e+12 -4.6806e+12 -3.96635e+12 -2.10392e+12 -3.93157e+12 -2.71859e+12 -3.854e+12 -5.26734e+12 -8.45195e+12 -4.82416e+12 -4.64039e+12 -7.19433e+12 -6.27212e+12 -3.69963e+12 -2.75355e+12 -3.88522e+12 -7.00707e+12 -5.37375e+12 -8.21754e+12 -4.73893e+12 -5.13777e+12 -5.73376e+12 -4.54776e+12 -4.2292e+12 -7.78362e+12 -7.09857e+12 -5.02201e+12 -7.26466e+12 -6.62264e+12 -5.34407e+12 -2.67386e+12 -2.28907e+12 -4.62155e+12 -2.73241e+12 -6.32709e+12 -7.08909e+12 -4.18209e+12 -4.57139e+12 -5.61905e+12 -6.34266e+12 -4.05084e+12 -6.74338e+12 -4.9934e+12 -8.97975e+12 -5.04635e+12 -4.26989e+12 -2.94622e+12 -3.85924e+12 -5.07781e+12 -4.15592e+12 -5.32431e+12 -1.49942e+12 -4.19649e+12 -6.66942e+12 -3.19618e+12 -5.74783e+12 -5.02696e+12 -4.31369e+12 -2.02048e+12 -4.82063e+12 -5.35402e+12 -5.33759e+12 -5.47978e+12 -3.59848e+12 -4.12938e+12 -5.22976e+12 -3.29204e+12 -4.05763e+12 -3.36125e+12 -4.49368e+12 -4.57392e+12 -6.92925e+12 -5.79663e+12 -6.99941e+12 -7.11253e+12 -6.13875e+12 -6.55639e+12 -3.35592e+12 -1.23909e+12 -3.62326e+12 -2.95434e+12 -3.82591e+12 -2.19733e+12 -6.18993e+12 -4.47361e+12 -4.5225e+12 -2.35379e+12 -3.14751e+12 -3.46429e+12 -4.34317e+12 -4.17734e+12 -1.96845e+12 -2.90657e+12 -2.87249e+12 -1.78416e+12 -2.68774e+12 -3.80278e+12 -1.8352e+12 -1.50252e+12 -2.36054e+12 -1.34061e+12 -2.1345e+12 -1.80582e+12 -2.21895e+12 -3.3321e+12 -2.19592e+12 -3.0444e+12 -1.52092e+12 -3.50234e+12 -3.18087e+12 -2.30295e+12 -3.18388e+12 -3.87987e+12 -5.77315e+12 -2.58936e+12 -3.63336e+12 -1.75424e+12 -2.7849e+12 -2.70793e+12 -1.15174e+12 -2.3094e+12 -2.16667e+12 -862508000000.0 -3.99493e+12 -3.69759e+12 -4.15368e+12 -2.6368e+12 -3.11054e+12 -1.5482e+12 -2.55297e+12 -4.65092e+12 -2.75015e+12 -3.81016e+12 -3.37135e+12 -2.74197e+12 -2.9378e+12 -4.00472e+12 -2.56425e+12 -1.96419e+12 -4.63284e+12 -2.22797e+12 -5.03023e+12 -6.50173e+12 -2.51381e+12 -1.70603e+12 -2.22565e+12 -2.35696e+12 -2.53651e+12 -7.12072e+12 -6.69871e+12 -2.28276e+12 -3.83082e+12 -3.18015e+12 -4.57154e+12 -5.44308e+12 -5.59111e+12 -4.84649e+12 -1.33742e+12 -4.51693e+12 -4.37545e+12 -2.92736e+12 -4.84524e+12 -5.71786e+12 -8.20033e+12 -4.82002e+12 -5.6434e+12 -4.26631e+12 -4.76552e+12 -5.43713e+12 -5.88969e+12 -3.72672e+12 -8.66515e+12 -5.72567e+12 -4.44116e+12 -4.29313e+12 -4.85771e+12 -6.01697e+12 -3.91517e+12 -5.91936e+12 -5.61578e+12 -8.16747e+12 -5.08044e+12 -6.29033e+12 -3.62223e+12 -4.34951e+12 -5.14167e+12 -3.9362e+12 -3.30704e+12 -5.18807e+12 -4.3941e+12 -4.63084e+12 -5.44964e+12 -6.04684e+12 -5.28076e+12 -3.61974e+12 -7.15178e+12 -3.23674e+12 -5.0216e+12 -5.44452e+12 -1.99987e+12 -4.30552e+12 -1.10994e+12 -4.74535e+12 -4.66867e+12 -3.70222e+12 -4.99644e+12 -4.94872e+12 -3.3747e+12 -5.29622e+12 -4.19666e+12 -2.75659e+12 -3.71551e+12 -4.08371e+12 -5.11397e+12 -3.21594e+12 -2.20129e+12 -5.64449e+12 -5.03705e+12 -5.86227e+12 -3.43372e+12 -4.92125e+12 -2.84565e+12 -1.90534e+12 -3.90526e+12 -3.43496e+12 -4.73771e+12 -4.5362e+12 -2.60618e+12 -3.43188e+12 -2.73088e+12 -5.16126e+12 -4.04087e+12 -1.59672e+12 -4.51371e+12 -2.67713e+12 -2.32649e+12 -2.79707e+12 -3.51273e+12 -3.46076e+12 -2.9527e+12 -3.02791e+12 -2.68572e+12 -3.59869e+12 -1.72409e+12 -1.631e+12 -2.30815e+12 -1.75842e+12 -3.44344e+12 -1.7216e+12 -782295000000.0 -2.53538e+12 -1.75752e+12 -1.35603e+12 -1.49523e+12 -1.17321e+12 -3.25615e+12 -2.25934e+12 -2.61687e+12 -1.43658e+12 -2.287e+12 -1.25213e+12 -2.35228e+12 -2.39427e+12 -2.16672e+12 -3.20942e+12 -2.27061e+12 -4.3395e+12 -3.17794e+12 -3.06183e+12 -2.6103e+12 -2.69913e+12 -2.32929e+12 -3.88355e+12 -2.15371e+12 -3.35801e+12 -3.10281e+12 -3.04213e+12 -2.49304e+12 -3.21626e+12 -3.2841e+12 -2.3024e+12 -3.98997e+12 -2.32796e+12 -4.14535e+12 -5.43785e+12 -3.16705e+12 -1.92658e+12 -3.03727e+12 -2.88144e+12 -2.47398e+12 -3.24522e+12 -4.72513e+12 -3.12334e+12 -3.44656e+12 -3.69397e+12 -1.75517e+12 -5.8767e+12 -5.96034e+12 -4.85377e+12 -3.21552e+12 -4.34869e+12 -1.36546e+12 -3.16704e+12 -4.4787e+12 -4.79493e+12 -6.8247e+12 -2.86552e+12 -6.89766e+12 -4.57555e+12 -4.64863e+12 -4.97182e+12 -6.94876e+12 -3.14646e+12 -2.75371e+12 -3.28234e+12 -3.35575e+12 -4.4205e+12 -3.4229e+12 -4.66546e+12 -5.00878e+12 -4.82887e+12 -3.56259e+12 -3.40409e+12 -7.65332e+12 -4.97466e+12 -5.56696e+12 -5.98348e+12 -4.42186e+12 -3.7025e+12 -3.51701e+12 -3.0541e+12 -1.46738e+12 -5.28484e+12 -3.36995e+12 -4.28577e+12 -6.90793e+12 -2.83764e+12 -3.94299e+12 -3.96089e+12 -4.59721e+12 -4.33818e+12 -5.6657e+12 -3.75891e+12 -2.46027e+12 -4.01801e+12 -3.66038e+12 -7.94357e+12 -3.0289e+12 -2.81298e+12 -3.35719e+12 -2.67121e+12 -3.9525e+12 -1.69328e+12 -3.89786e+12 -6.17386e+12 -4.2275e+12 -4.21986e+12 -5.10605e+12 -2.38998e+12 -3.37638e+12 -2.89355e+12 -6.13733e+12 -5.54202e+12 -2.87097e+12 -3.14796e+12 -3.76883e+12 -5.29949e+12 -3.63386e+12 -3.13959e+12 -2.71488e+12 -2.82278e+12 -2.35855e+12 -2.23153e+12 -3.04982e+12 -2.14578e+12 -3.39589e+12 -3.76374e+12 -2.47022e+12 -2.59133e+12 -3.88028e+12 -3.43402e+12 -2.07956e+12 -1.18628e+12 -3.21012e+12 -3.1069e+12 -1.44687e+12 -1.84294e+12 -2.81887e+12 -2.64717e+12 -1.92152e+12 -3.59832e+12 -2.1866e+12 -1.03988e+12 -2.30561e+12 -2.68384e+12 -2.1154e+12 -2.34344e+12 -1.65102e+12 -2.37321e+12 -2.23511e+12 -1.2505e+12 -2.13201e+12 -2.83811e+12 -1.87047e+12 -1.669e+12 -2.41512e+12 -2.99313e+12 -3.05757e+12 -1.73879e+12 -2.16506e+12 -1.88203e+12 -2.72498e+12 -2.6283e+12 -4.51572e+12 -3.2036e+12 -5.42391e+12 -3.10933e+12 -1.75974e+12 -2.3422e+12 -3.89608e+12 -3.03101e+12 -2.83691e+12 -2.46465e+12 -4.4199e+12 -3.76991e+12 -4.15084e+12 -1.17558e+12 -1.94866e+12 -3.81124e+12 -3.98047e+12 -4.98534e+12 -5.5465e+12 -1.73885e+12 -3.38091e+12 -2.52548e+12 -2.10368e+12 -4.94783e+12 -4.57496e+12 -5.5265e+12 -5.56447e+12 -5.75992e+12 -4.09291e+12 -3.69808e+12 -4.58407e+12 -3.18789e+12 -3.05929e+12 -3.9026e+12 -4.09213e+12 -4.95848e+12 -2.9493e+12 -4.80244e+12 -5.93668e+12 -2.97014e+12 -2.91079e+12 -5.20329e+12 -3.36194e+12 -2.41249e+12 -7.26645e+12 -3.88609e+12 -5.64976e+12 -3.97782e+12 -4.0395e+12 -3.35945e+12 -8.57116e+12 -1.71302e+12 -5.08327e+12 -2.84496e+12 -5.07515e+12 -7.31135e+12 -3.47412e+12 -602732000000.0 -5.24609e+12 -3.59053e+12 -3.4274e+12 -5.22772e+12 -5.18033e+12 -2.93635e+12 -4.00182e+12 -3.61416e+12 -1.87472e+12 -3.43879e+12 -3.79974e+12 -3.17421e+12 -3.5575e+12 -3.13321e+12 -2.94432e+12 -2.54536e+12 -3.67198e+12 -1.32315e+12 -2.16461e+12 -4.52227e+12 -2.366e+12 -1.19459e+12 -1.22468e+12 -2.51886e+12 -2.86945e+12 -1.70058e+12 -2.93477e+12 -1.75331e+12 -2.25306e+12 -1.8514e+12 -2.46035e+12 -1.03694e+12 -2.24995e+12 -1.512e+12 -857318000000.0 -2.85363e+12 -2.10953e+12 -1.35751e+12 -3.04064e+12 -1.38289e+12 -2.9684e+12 -2.08367e+12 -2.9131e+12 -1.50871e+12 -1.8587e+12 -2.41682e+12 -1.31759e+12 -2.81665e+12 -2.4776e+12 -1.64317e+12 -1.6863e+12 -1.62673e+12 -2.76333e+12 -1.03816e+12 -2.29287e+12 -2.66462e+12 -615606000000.0 -1.05753e+12 -1.32689e+12 -2.40009e+12 -2.10043e+12 -1.89707e+12 -1.98277e+12 -984223000000.0 -2.79812e+12 -3.02411e+12 -1.65482e+12 -2.49868e+12 -2.16856e+12 -3.07706e+12 -3.79613e+12 -2.71883e+12 -3.86068e+12 -4.1406e+12 -5.03952e+12 -3.50352e+12 -1.12032e+12 -1.90544e+12 -1.93036e+12 -2.42225e+12 -1.96228e+12 -2.43483e+12 -3.5712e+12 -4.3072e+12 -1.60533e+12 -2.19798e+12 -4.09357e+12 -2.90481e+12 -782365000000.0 -3.48682e+12 -4.2857e+12 -2.78467e+12 -1.81164e+12 -5.533e+12 -1.99878e+12 -3.04554e+12 -6.02749e+12 -4.47766e+12 -2.99475e+12 -1.60938e+12 -2.61826e+12 -3.41976e+12 -4.70918e+12 -3.38436e+12 -4.31925e+12 -6.63475e+12 -4.60021e+12 -4.31154e+12 -4.22257e+12 -2.31999e+12 -5.07086e+12 -1.96901e+12 -2.85718e+12 -1.62182e+12 -1.92247e+12 -4.21737e+12 -4.08739e+12 -4.07581e+12 -4.82559e+12 -3.27179e+12 -3.49938e+12 -2.4989e+12 -2.99833e+12 -5.74926e+12 -5.04099e+12 -5.7689e+12 -3.52872e+12 -3.90392e+12 -5.22247e+12 -2.57382e+12 -2.39975e+12 -4.33395e+12 -1.86748e+12 -1.85384e+12 -1.63298e+12 -4.42114e+12 -3.90801e+12 -2.97152e+12 -1.51665e+12 -2.92e+12 -3.20671e+12 -3.00405e+12 -1.31259e+12 -3.8938e+12 -2.13811e+12 -2.03187e+12 -2.08053e+12 -1.94256e+12 -1.31428e+12 -2.68184e+12 -3.0557e+12 -1.60026e+12 -1.96059e+12 -1.57966e+12 -3.19801e+12 -3.475e+12 -2.21882e+12 -2.39013e+12 -1.28045e+12 -2.15844e+12 -2.15049e+12 -1.4422e+12 -1.16243e+12 -813647000000.0 -1.14921e+12 -2.46097e+12 -2.4169e+12 -1.58044e+12 -993761000000.0 -2.30621e+12 -1.14751e+12 -2.18725e+12 -2.91059e+12 -1.26474e+12 -1.31596e+12 -2.47701e+12 -96724100000.0 -1.97886e+12 -2.75406e+12 -974631000000.0 -1.3462e+12 -1.60591e+12 -543319000000.0 -1.72495e+12 -945922000000.0 -1.01984e+12 -1.9747e+12 -2.05894e+12 -2.24105e+12 -1.11918e+12 -1.41886e+12 -2.4722e+12 -1.74721e+12 -2.94664e+12 -2.04783e+12 -941809000000.0 -1.76586e+12 -3.13208e+12 -2.06552e+12 -2.68077e+12 -2.63334e+12 -739092000000.0 -2.61827e+12 -1.65534e+12 -4.26203e+12 -2.52614e+12 -2.9319e+12 -1.77854e+12 -3.12792e+12 -1.91309e+12 -1.33452e+12 -1.76985e+12 -1.84517e+12 -2.86188e+12 -2.06735e+12 -2.07601e+12 -1.83626e+12 -2.92019e+12 -3.34682e+12 -2.4712e+12 -1.49693e+12 -467512000000.0 -3.54426e+12 -2.72166e+12 -3.74928e+12 -2.84453e+12 -2.63974e+12 -3.93465e+12 -1.88321e+12 -1.22209e+12 -2.61349e+12 -2.04139e+12 -3.04405e+12 -932171000000.0 -3.82798e+12 -3.19958e+12 -3.02988e+12 -2.67378e+12 -5.51576e+12 -2.40486e+12 -4.36646e+12 -3.07116e+12 -3.40521e+12 -4.70583e+12 -1.24283e+12 -4.51071e+12 -3.63706e+12 -2.94546e+12 -2.95095e+12 -2.29906e+12 -4.26618e+12 -1.92722e+12 -1.28482e+12 -2.5945e+12 -2.48371e+12 -1.773e+12 -3.1766e+12 -4.56094e+12 -2.63593e+12 -1.86808e+12 -4.62117e+12 -2.74491e+12 -2.41213e+12 -3.08204e+12 -2.49875e+12 -2.12037e+12 -562743000000.0 -2.71453e+12 -2.36054e+12 -2.13347e+12 -2.50758e+12 -1.38646e+12 -3.38831e+12 -1.6181e+12 -1.17498e+12 -1.98227e+12 -2.02763e+12 -2.64376e+12 -1.22923e+12 -2.48492e+12 -1.26945e+12 -2.20257e+12 -2.2428e+12 -1.47375e+12 -2.17879e+12 -1.3861e+12 -1.52361e+12 -1.47431e+12 -1.39582e+12 -1.42134e+12 -1.52095e+12 -1.77661e+12 -557005000000.0 -1.07613e+12 -1.7601e+12 -1.2118e+12 -989780000000.0 -1.15505e+12 -759514000000.0 -1.15082e+12 -1.06778e+12 -1.6271e+12 -160199000000.0 -373804000000.0 -1.70947e+12 -206893000000.0 -1.12111e+12 -690669000000.0 -964904000000.0 -412777000000.0 -1.13991e+12 -766114000000.0 -1.43127e+12 -304737000000.0 -374995000000.0 -889390000000.0 -933433000000.0 -551051000000.0 -1.48566e+12 -710581000000.0 -1.13033e+12 -997565000000.0 -871994000000.0 -1.21984e+12 -1.10679e+12 -1.54953e+12 -1.09968e+12 -1.50079e+12 -2.90774e+12 -2.38355e+12 -2.86563e+12 -1.5191e+12 -2.73378e+12 -1.98447e+12 -1.10663e+12 -1.26478e+12 -1.92949e+12 -1.69395e+12 -829326000000.0 -2.1564e+12 -1.26047e+12 -2.61378e+12 -3.26053e+12 -4.18336e+12 -2.23225e+12 -1.01612e+12 -1.2383e+12 -3.11314e+12 -2.00442e+12 -2.12399e+12 -1.96645e+12 -1.65127e+12 -1.39109e+12 -3.32239e+12 -2.34429e+12 -1.68595e+12 -3.56715e+12 -2.45621e+12 -1.16175e+12 -2.32632e+12 -2.74781e+12 -2.85188e+12 -3.07959e+12 -1.43583e+12 -2.37849e+12 -3.72789e+12 -1.42344e+12 -4.60773e+12 -1.50861e+12 -1.63204e+12 -2.84207e+12 -1.53287e+12 -1.11067e+12 -5.08568e+12 -1.78748e+12 -2.0105e+12 -1.76814e+12 -2.02728e+12 -1.60971e+12 -2.06108e+12 -1.16875e+12 -2.34872e+12 -2.06982e+12 -829404000000.0 -3.81219e+12 -1.0915e+12 -3.27918e+12 -2.12973e+12 -1.7366e+12 -1.84601e+12 -2.52416e+12 -2.40382e+12 -2.68649e+12 -2.15222e+12 -3.73892e+12 -970466000000.0 -1.98129e+12 -613485000000.0 -1.3311e+12 -2.60771e+12 -1.86926e+12 -2.76919e+12 -1.57291e+12 -1.65632e+12 -2.28516e+12 -2.87836e+12 -1.20638e+12 -356957000000.0 -1.74611e+12 -1.13371e+12 -1.78319e+12 -1.98681e+12 -1.72483e+12 -521688000000.0 -1.09549e+12 -1.95986e+12 -874963000000.0 -1.16688e+12 -660896000000.0 -615284000000.0 -672461000000.0 -761262000000.0 -530447000000.0 -537427000000.0 -647417000000.0 -813884000000.0 -411343000000.0 -419130000000.0 -791189000000.0 -976071000000.0 -1.05414e+12 -996529000000.0 -700882000000.0 -776180000000.0 -803132000000.0 -105112000000.0 -845445000000.0 -1.76364e+12 -614110000000.0 -733926000000.0 -1.35769e+12 -669019000000.0 -1.13239e+12 -1.73827e+12 -418534000000.0 -593000000000.0 -1.14886e+12 -1.01592e+12 -644772000000.0 -687701000000.0 -857725000000.0 -1.03098e+12 -1.44206e+12 -1.57338e+12 -2.3921e+12 -943659000000.0 -1.37893e+12 -1.32103e+12 -266484000000.0 -964524000000.0 -1.33736e+12 -1.31606e+12 -994792000000.0 -1.37263e+12 -1.10871e+12 -1.59705e+12 -1.47669e+12 -1.57771e+12 -3.07453e+12 -2.52747e+12 -2.79065e+12 -2.17192e+12 -2.06443e+12 -2.90233e+12 -1.07177e+12 -1.5716e+12 -1.31972e+12 -2.78911e+12 -2.98219e+12 -2.24995e+12 -2.77427e+12 -4.62714e+12 -2.46869e+12 -1.86065e+12 -745076000000.0 -2.31639e+12 -2.36096e+12 -986964000000.0 -2.4507e+12 -1.37838e+12 -3.5286e+12 -2.23684e+12 -1.97032e+12 -882438000000.0 -1.70068e+12 -1.4847e+12 -1.23581e+12 -632344000000.0 -2.80924e+12 -330763000000.0 -921888000000.0 -1.14147e+12 -2.25739e+12 -1.05147e+12 -759318000000.0 -1.86806e+12 -905782000000.0 -1.80806e+12 -1.40096e+12 -1.46304e+12 -1.02585e+12 -766795000000.0 -1.40137e+12 -1.65124e+12 -766269000000.0 -1.46503e+12 -1.4258e+12 -849880000000.0 -589407000000.0 -1.53193e+12 -363456000000.0 -863747000000.0 -1.29063e+12 -1.90808e+12 -1.95899e+12 -2.10535e+12 -359008000000.0 -1.05876e+12 -1.17452e+12 -333295000000.0 -399573000000.0 -1.056e+12 -466188000000.0 -552295000000.0 -646887000000.0 -226184000000.0 -265405000000.0 -1.19243e+12 -354086000000.0 -865483000000.0 -742084000000.0 -134334000000.0 -376736000000.0 -175116000000.0 -101406000000.0 -211320000000.0 -185623000000.0 -233611000000.0 -125013000000.0 -200548000000.0 -235014000000.0 -244638000000.0 -626109000000.0 -471221000000.0 -422527000000.0 -292307000000.0 -268892000000.0 -448039000000.0 -247829000000.0 -544076000000.0 -960392000000.0 -563118000000.0 -793337000000.0 -709446000000.0 -504360000000.0 -991883000000.0 -809570000000.0 -538435000000.0 -803648000000.0 -716511000000.0 -1.24235e+12 -998600000000.0 -1.54886e+12 -1.08109e+12 -845622000000.0 -830321000000.0 -937375000000.0 -1.07979e+12 -902656000000.0 -931738000000.0 -1.64068e+12 -1.59356e+12 -643369000000.0 -2.7532e+12 -1.25818e+12 -1.27363e+12 -1.51239e+12 -1.26766e+12 -1.26029e+12 -1.1267e+12 -1.96889e+12 -2.40982e+12 -1.58926e+12 -2.81886e+12 -2.01408e+12 -1.30603e+12 -2.24068e+12 -2.04441e+12 -1.62238e+12 -1.95668e+12 -1.55972e+12 -1.85395e+12 -1.58945e+12 -1.56171e+12 -1.87448e+12 -533191000000.0 -1.10969e+12 -1.97025e+12 -714498000000.0 -925977000000.0 -666581000000.0 -2.60015e+12 -1.66362e+12 -1.34352e+12 -1.04621e+12 -442092000000.0 -829016000000.0 -1.82718e+12 -708730000000.0 -1.31726e+12 -810872000000.0 -1.43788e+12 -653143000000.0 -1.12275e+12 -471676000000.0 -860302000000.0 -754075000000.0 -667080000000.0 -611782000000.0 -496949000000.0 -624959000000.0 -300015000000.0 -559258000000.0 -291180000000.0 -566859000000.0 -433340000000.0 -204585000000.0 -350680000000.0 -466779000000.0 -760465000000.0 -215082000000.0 -409650000000.0 -250318000000.0 -196661000000.0 -382501000000.0 -203342000000.0 -157997000000.0 -245210000000.0 -132480000000.0 -275935000000.0 -201813000000.0 -83239700000.0 -91917000000.0 -474016000000.0 -333744000000.0 -311821000000.0 -371700000000.0 -439381000000.0 -187943000000.0 -1.05597e+12 -292135000000.0 -710200000000.0 -592476000000.0 -584383000000.0 -176031000000.0 -968294000000.0 -1.37128e+12 -855958000000.0 -1.50491e+12 -557526000000.0 -1.3642e+12 -262756000000.0 -984793000000.0 -1.42457e+12 -1.16932e+12 -1.03827e+12 -1.26719e+12 -998545000000.0 -1.14676e+12 -1.63417e+12 -1.72262e+12 -1.74443e+12 -1.51267e+12 -2.44278e+12 -578544000000.0 -1.68941e+12 -1.71679e+12 -1.30734e+12 -1.13765e+12 -982657000000.0 -1.63406e+12 -857574000000.0 -753397000000.0 -694813000000.0 -693540000000.0 -1.34466e+12 -1.08596e+12 -957784000000.0 -943271000000.0 -1.27157e+12 -588190000000.0 -809919000000.0 -705852000000.0 -409432000000.0 -720208000000.0 -854899000000.0 -823964000000.0 -866051000000.0 -766844000000.0 -199774000000.0 -362470000000.0 -468149000000.0 -362673000000.0 -979009000000.0 -310328000000.0 -410936000000.0 -242950000000.0 -101204000000.0 -134459000000.0 -88700100000.0 -118891000000.0 -110980000000.0 -101515000000.0 -455174000000.0 -109447000000.0 -192493000000.0 -209696000000.0 -279125000000.0 -117768000000.0 -84552400000.0 -164713000000.0 -104204000000.0 -95795600000.0 -76044100000.0 -96222300000.0 -161479000000.0 -299601000000.0 -367884000000.0 -649663000000.0 -181000000000.0 -831244000000.0 -144129000000.0 -321045000000.0 -601707000000.0 -672489000000.0 -477323000000.0 -828179000000.0 -524406000000.0 -558879000000.0 -961091000000.0 -771979000000.0 -289719000000.0 -1.09373e+12 -722970000000.0 -514198000000.0 -982434000000.0 -935579000000.0 -948587000000.0 -682390000000.0 -768874000000.0 -820791000000.0 -512320000000.0 -373500000000.0 -158099000000.0 -187801000000.0 -931303000000.0 -55707800000.0 -655249000000.0 -504122000000.0 -205531000000.0 -224352000000.0 -171038000000.0 -75504300000.0 -511284000000.0 -179130000000.0 -213558000000.0 -167147000000.0 -289404000000.0 -56941900000.0 -232206000000.0 -281629000000.0 -222517000000.0 -199714000000.0 -168454000000.0 -309358000000.0 -291078000000.0 -235211000000.0 -171724000000.0 -129736000000.0 -356492000000.0 -143593000000.0 -362301000000.0 -310893000000.0 -266770000000.0 -111400000000.0 -134024000000.0 -78176800000.0 -126302000000.0 