# vtk DataFile Version 2.0
Time step 44
ASCII
DATASET UNSTRUCTURED_GRID
POINTS 5000 float
202703.0 327362.0 0
207617.0 325600.0 0
213176.0 326543.0 0
280866.0 327584.0 0
288946.0 325162.0 0
297464.0 325587.0 0
202416.0 332394.0 0
209377.0 328821.0 0
206498.0 329938.0 0
211417.0 331774.0 0
216957.0 330918.0 0
221914.0 328994.0 0
228152.0 330788.0 0
231568.0 328524.0 0
232322.0 331801.0 0
236677.0 330043.0 0
242051.0 332307.0 0
266947.0 330971.0 0
272135.0 328814.0 0
276602.0 332172.0 0
286870.0 330688.0 0
297176.0 330851.0 0
203011.0 337635.0 0
207157.0 334254.0 0
214558.0 335631.0 0
220276.0 335456.0 0
224277.0 332846.0 0
225780.0 336941.0 0
230043.0 335113.0 0
235025.0 335385.0 0
239864.0 337264.0 0
244979.0 337122.0 0
250035.0 333174.0 0
256404.0 333425.0 0
261270.0 333018.0 0
261363.0 337438.0 0
264887.0 335313.0 0
269126.0 335794.0 0
272239.0 333310.0 0
273776.0 337341.0 0
278480.0 336751.0 0
281927.0 333486.0 0
283348.0 337248.0 0
285970.0 335452.0 0
289451.0 336441.0 0
292163.0 332814.0 0
296658.0 336881.0 0
201909.0 342195.0 0
206341.0 341964.0 0
210112.0 338437.0 0
213332.0 342626.0 0
217199.0 339501.0 0
222276.0 340977.0 0
227949.0 341712.0 0
231834.0 339003.0 0
232585.0 343168.0 0
236095.0 340438.0 0
240903.0 342582.0 0
249071.0 338711.0 0
246323.0 342137.0 0
253089.0 338224.0 0
251090.0 342323.0 0
257365.0 337990.0 0
255911.0 342200.0 0
260563.0 341808.0 0
265430.0 340224.0 0
270044.0 339743.0 0
273315.0 342464.0 0
277097.0 340467.0 0
281395.0 340453.0 0
286194.0 339750.0 0
290134.0 339828.0 0
293528.0 340886.0 0
203359.0 346321.0 0
209359.0 346771.0 0
218058.0 343712.0 0
221731.0 346975.0 0
224819.0 344275.0 0
227440.0 346742.0 0
231456.0 346602.0 0
236468.0 345020.0 0
244157.0 346680.0 0
249010.0 346626.0 0
253586.0 346310.0 0
258518.0 346336.0 0
263954.0 346047.0 0
268889.0 343405.0 0
268809.0 347194.0 0
271252.0 345550.0 0
274218.0 346884.0 0
278679.0 345159.0 0
284510.0 344737.0 0
290037.0 343994.0 0
291493.0 347915.0 0
296214.0 345623.0 0
202013.0 350451.0 0
206021.0 351332.0 0
211172.0 352462.0 0
215597.0 348424.0 0
220170.0 352318.0 0
225127.0 351237.0 0
234584.0 348637.0 0
230475.0 351003.0 0
239383.0 349214.0 0
243301.0 350171.0 0
247019.0 350996.0 0
251877.0 350844.0 0
255856.0 349303.0 0
256130.0 352772.0 0
260641.0 351451.0 0
266642.0 352086.0 0
271727.0 350069.0 0
276995.0 351607.0 0
281797.0 348862.0 0
282014.0 352715.0 0
287973.0 347809.0 0
285460.0 350917.0 0
289786.0 351021.0 0
293442.0 350469.0 0
297555.0 351061.0 0
202042.0 354231.0 0
202309.0 358147.0 0
207381.0 356540.0 0
213381.0 358313.0 0
215807.0 354064.0 0
223495.0 356437.0 0
227804.0 354968.0 0
231159.0 355344.0 0
235522.0 353809.0 0
240005.0 354085.0 0
243154.0 352991.0 0
242726.0 357304.0 0
246130.0 355036.0 0
249664.0 354811.0 0
253792.0 356027.0 0
251077.0 358604.0 0
258323.0 356722.0 0
263155.0 356770.0 0
267997.0 357572.0 0
271451.0 354623.0 0
274716.0 356796.0 0
277985.0 356325.0 0
277265.0 359031.0 0
280315.0 355251.0 0
284039.0 356534.0 0
287463.0 354140.0 0
291205.0 354606.0 0
294679.0 353525.0 0
294297.0 357859.0 0
297872.0 355206.0 0
201927.0 362115.0 0
205378.0 361263.0 0
209592.0 360644.0 0
217778.0 362737.0 0
218797.0 357514.0 0
221803.0 360223.0 0
223012.0 364375.0 0
229190.0 358365.0 0
226143.0 361071.0 0
230654.0 362834.0 0
233225.0 358950.0 0
238332.0 359471.0 0
235136.0 363644.0 0
242892.0 362170.0 0
247018.0 359364.0 0
250793.0 362485.0 0
255201.0 361008.0 0
260223.0 361519.0 0
265492.0 361629.0 0
271269.0 358631.0 0
270059.0 363205.0 0
274225.0 361122.0 0
280162.0 358558.0 0
283042.0 361410.0 0
288554.0 358072.0 0
291478.0 361564.0 0
295568.0 361795.0 0
298512.0 361270.0 0
298389.0 358592.0 0
202328.0 368640.0 0
201654.0 365163.0 0
204604.0 365783.0 0
208306.0 364671.0 0
212799.0 363583.0 0
211553.0 367448.0 0
220103.0 368178.0 0
224415.0 368971.0 0
227729.0 365972.0 0
232743.0 368427.0 0
239349.0 364770.0 0
243516.0 367391.0 0
246751.0 364085.0 0
249665.0 365727.0 0
253732.0 366964.0 0
258744.0 366524.0 0
263027.0 365274.0 0
266420.0 366505.0 0
270597.0 368362.0 0
278277.0 362881.0 0
274479.0 365828.0 0
278030.0 367975.0 0
281302.0 365668.0 0
287087.0 361932.0 0
285009.0 365711.0 0
289484.0 365910.0 0
294128.0 365609.0 0
297905.0 364471.0 0
297840.0 368141.0 0
200013.0 377932.0 0
202647.0 373316.0 0
204868.0 370681.0 0
205439.0 375686.0 0
208182.0 369407.0 0
215467.0 368366.0 0
211893.0 370718.0 0
219514.0 373106.0 0
224413.0 373463.0 0
228333.0 370801.0 0
231554.0 373370.0 0
235194.0 374136.0 0
238303.0 369803.0 0
242722.0 372028.0 0
248295.0 368570.0 0
246887.0 372310.0 0
251452.0 372035.0 0
257279.0 372892.0 0
262476.0 369544.0 0
266869.0 371436.0 0
270999.0 373647.0 0
274491.0 370596.0 0
282420.0 369878.0 0
286100.0 369266.0 0
286495.0 372742.0 0
289805.0 370140.0 0
297279.0 372389.0 0
294068.0 369661.0 0
294919.0 375827.0 0
298248.0 377997.0 0
192765.0 382519.0 0
189563.0 384315.0 0
196603.0 380577.0 0
202925.0 376967.0 0
201623.0 380900.0 0
204910.0 382293.0 0
205282.0 378876.0 0
207315.0 373380.0 0
207957.0 377263.0 0
210290.0 378805.0 0
210910.0 374461.0 0
213039.0 379093.0 0
215116.0 373417.0 0
213987.0 376528.0 0
217262.0 378581.0 0
221857.0 377853.0 0
225789.0 377904.0 0
228503.0 375268.0 0
228527.0 379569.0 0
232061.0 378061.0 0
239381.0 375126.0 0
236490.0 379713.0 0
244262.0 376477.0 0
240930.0 378903.0 0
249253.0 376063.0 0
247164.0 379630.0 0
253129.0 376393.0 0
262902.0 374675.0 0
260091.0 377590.0 0
263590.0 379408.0 0
267032.0 376576.0 0
270883.0 378736.0 0
275000.0 375818.0 0
278600.0 372852.0 0
279572.0 378434.0 0
282970.0 374882.0 0
287105.0 377261.0 0
283517.0 379332.0 0
291379.0 374229.0 0
292025.0 378365.0 0
294716.0 380604.0 0
298994.0 381908.0 0
302497.0 379517.0 0
306027.0 382152.0 0
180837.0 389430.0 0
186396.0 385764.0 0
183992.0 388163.0 0
188242.0 387200.0 0
189945.0 388245.0 0
192630.0 386843.0 0
195959.0 384774.0 0
196977.0 387548.0 0
199716.0 384165.0 0
199856.0 387947.0 0
203646.0 385886.0 0
208210.0 381331.0 0
208302.0 386181.0 0
211166.0 382266.0 0
212309.0 385409.0 0
214679.0 382620.0 0
220832.0 382396.0 0
217891.0 384379.0 0
225231.0 382490.0 0
230243.0 383186.0 0
234096.0 384860.0 0
238575.0 384524.0 0
240520.0 381774.0 0
243778.0 381595.0 0
241908.0 384650.0 0
247158.0 382862.0 0
249658.0 385208.0 0
251168.0 380803.0 0
256143.0 380085.0 0
260323.0 381855.0 0
267060.0 381355.0 0
269190.0 383544.0 0
272221.0 382994.0 0
275497.0 380722.0 0
281947.0 383127.0 0
278346.0 383235.0 0
286397.0 382744.0 0
289595.0 379878.0 0
288598.0 387298.0 0
291487.0 383569.0 0
296832.0 385104.0 0
302462.0 384487.0 0
301616.0 388297.0 0
309473.0 384737.0 0
306555.0 387184.0 0
309338.0 388397.0 0
313097.0 386763.0 0
316385.0 387931.0 0
172625.0 394720.0 0
175553.0 392589.0 0
178296.0 391186.0 0
182659.0 391749.0 0
180059.0 394256.0 0
186355.0 389791.0 0
185045.0 392922.0 0
188640.0 391017.0 0
191338.0 390332.0 0
189246.0 393897.0 0
192270.0 393264.0 0
194910.0 390188.0 0
196104.0 394619.0 0
199024.0 391213.0 0
203753.0 389773.0 0
207210.0 390905.0 0
211430.0 390175.0 0
215058.0 387596.0 0
215876.0 391754.0 0
218637.0 388208.0 0
222174.0 386769.0 0
226893.0 387127.0 0
230980.0 388115.0 0
234096.0 389712.0 0
237073.0 387885.0 0
237963.0 391451.0 0
241027.0 388676.0 0
245269.0 386605.0 0
249432.0 390163.0 0
254186.0 385963.0 0
259072.0 385808.0 0
263654.0 384851.0 0
261869.0 389715.0 0
267567.0 386353.0 0
265514.0 389331.0 0
271297.0 386937.0 0
269483.0 390729.0 0
275302.0 386084.0 0
273412.0 389560.0 0
276658.0 390536.0 0
278923.0 387118.0 0
281716.0 386758.0 0
281018.0 390349.0 0
284628.0 387636.0 0
286862.0 390468.0 0
290186.0 391419.0 0
293494.0 388487.0 0
293218.0 393044.0 0
298296.0 389215.0 0
296483.0 392052.0 0
301515.0 392345.0 0
305114.0 390081.0 0
305256.0 393889.0 0
308670.0 391541.0 0
311985.0 389878.0 0
313776.0 391915.0 0
316935.0 391134.0 0
319125.0 388807.0 0
320672.0 390305.0 0
322509.0 392539.0 0
326572.0 393719.0 0
167371.0 398160.0 0
164569.0 399785.0 0
169849.0 396277.0 0
172618.0 398713.0 0
175896.0 395684.0 0
183059.0 396453.0 0
178703.0 398370.0 0
186806.0 394627.0 0
186185.0 397888.0 0
189719.0 396699.0 0
192707.0 396823.0 0
196833.0 398044.0 0
200010.0 395294.0 0
199703.0 398450.0 0
203199.0 396896.0 0
202515.0 392880.0 0
205521.0 394396.0 0
209200.0 394615.0 0
210999.0 398056.0 0
212992.0 394148.0 0
214961.0 396792.0 0
219991.0 391589.0 0
218118.0 395224.0 0
223950.0 391387.0 0
228416.0 392110.0 0
231919.0 393146.0 0
235131.0 393231.0 0
237538.0 395610.0 0
241032.0 393550.0 0
244375.0 391395.0 0
244085.0 395551.0 0
247466.0 394355.0 0
253656.0 391245.0 0
257552.0 390206.0 0
255903.0 394315.0 0
258487.0 396642.0 0
262588.0 393841.0 0
259558.0 393516.0 0
265987.0 392966.0 0
269252.0 395506.0 0
273252.0 393569.0 0
276997.0 395636.0 0
278831.0 392768.0 0
281234.0 394727.0 0
284198.0 392072.0 0
284548.0 396466.0 0
287702.0 394366.0 0
291372.0 395932.0 0
295552.0 396037.0 0
298971.0 394064.0 0
299825.0 397081.0 0
302674.0 395892.0 0
306926.0 396431.0 0
304287.0 398697.0 0
310234.0 394745.0 0
310506.0 398198.0 0
314009.0 395315.0 0
314194.0 399194.0 0
317356.0 394492.0 0
319833.0 394219.0 0
320864.0 397189.0 0
317911.0 397626.0 0
324207.0 395802.0 0
324384.0 399147.0 0
328913.0 396847.0 0
332512.0 397891.0 0
335236.0 399396.0 0
156154.0 404944.0 0
161829.0 401551.0 0
159127.0 403645.0 0
166056.0 401776.0 0
163812.0 403602.0 0
166772.0 403859.0 0
169079.0 400524.0 0
172330.0 401954.0 0
169748.0 403713.0 0
176113.0 401020.0 0
176832.0 404972.0 0
173725.0 404256.0 0
181706.0 400264.0 0
179388.0 402708.0 0
184934.0 402381.0 0
189279.0 400295.0 0
190599.0 403586.0 0
193782.0 400350.0 0
198116.0 402099.0 0
202814.0 400637.0 0
205978.0 402647.0 0
206802.0 398208.0 0
208488.0 400624.0 0
210974.0 401863.0 0
214347.0 400933.0 0
218563.0 399657.0 0
222439.0 400106.0 0
222083.0 396174.0 0
225489.0 399197.0 0
225933.0 395666.0 0
229347.0 397475.0 0
227765.0 401976.0 0
233471.0 397013.0 0
232000.0 401598.0 0
236453.0 399827.0 0
240612.0 398129.0 0
244423.0 398915.0 0
248101.0 398374.0 0
251812.0 395403.0 0
252011.0 400064.0 0
249178.0 402207.0 0
255232.0 398224.0 0
261766.0 397450.0 0
259016.0 401088.0 0
265297.0 397048.0 0
268693.0 400199.0 0
272857.0 398362.0 0
276416.0 399454.0 0
280359.0 399052.0 0
284339.0 400067.0 0
286609.0 403031.0 0
288514.0 398779.0 0
290066.0 402505.0 0
293282.0 400130.0 0
297565.0 401472.0 0
297421.0 399313.0 0
301237.0 400720.0 0
305215.0 403166.0 0
308164.0 400595.0 0
311747.0 402880.0 0
316619.0 402720.0 0
321660.0 400775.0 0
318718.0 400336.0 0
324392.0 403105.0 0
328064.0 400788.0 0
332366.0 400775.0 0
333095.0 403045.0 0
335814.0 403859.0 0
337425.0 401308.0 0
340367.0 403219.0 0
343284.0 405031.0 0
147724.0 409932.0 0
150623.0 409210.0 0
153563.0 407030.0 0
157464.0 407411.0 0
155171.0 409993.0 0
160736.0 406002.0 0
160174.0 408819.0 0
164144.0 406382.0 0
165044.0 409167.0 0
167209.0 406214.0 0
170426.0 406509.0 0
168555.0 408940.0 0
173211.0 407079.0 0
176539.0 408092.0 0
181055.0 405718.0 0
179161.0 409890.0 0
182347.0 409488.0 0
184451.0 406651.0 0
185359.0 408820.0 0
187384.0 405598.0 0
191326.0 407694.0 0
194663.0 404709.0 0
195767.0 408194.0 0
198256.0 406255.0 0
201607.0 405150.0 0
205345.0 406708.0 0
209098.0 404508.0 0
212831.0 405067.0 0
216899.0 404577.0 0
213899.0 407789.0 0
220635.0 402795.0 0
221188.0 406466.0 0
223952.0 402883.0 0
225977.0 406031.0 0
229734.0 405981.0 0
235552.0 403237.0 0
233565.0 406159.0 0
239342.0 402904.0 0
237049.0 405970.0 0
242475.0 401343.0 0
245792.0 402135.0 0
242956.0 404856.0 0
247310.0 406497.0 0
252395.0 405220.0 0
255036.0 401761.0 0
257150.0 405559.0 0
263874.0 401626.0 0
261616.0 405677.0 0
267335.0 404934.0 0
271409.0 403262.0 0
274263.0 402131.0 0
278714.0 406401.0 0
277897.0 402894.0 0
281833.0 403864.0 0
281183.0 408364.0 0
284938.0 406804.0 0
288782.0 406613.0 0
292377.0 405239.0 0
295616.0 407106.0 0
295873.0 404058.0 0
299309.0 403655.0 0
298578.0 406757.0 0
302090.0 405047.0 0
301420.0 408309.0 0
305213.0 407495.0 0
308927.0 405769.0 0
312645.0 408869.0 0
314072.0 405530.0 0
316932.0 406348.0 0
320423.0 404972.0 0
325481.0 406515.0 0
329034.0 404228.0 0
331437.0 406581.0 0
328578.0 407866.0 0
334919.0 406778.0 0
334673.0 409359.0 0
338847.0 405835.0 0
337969.0 408280.0 0
342301.0 407749.0 0
340955.0 410026.0 0
346517.0 406607.0 0
346075.0 409347.0 0
349808.0 408778.0 0
352807.0 410323.0 0
140792.0 414128.0 0
145815.0 411398.0 0
143571.0 413468.0 0
147926.0 413427.0 0
150919.0 412744.0 0
154258.0 413272.0 0
156659.0 413573.0 0
158033.0 411292.0 0
162255.0 410475.0 0
160078.0 413399.0 0
163482.0 413081.0 0
165699.0 411865.0 0
171881.0 409856.0 0
168702.0 413088.0 0
174801.0 411330.0 0
177802.0 413062.0 0
181638.0 413461.0 0
187747.0 408971.0 0
185363.0 412037.0 0
189229.0 411923.0 0
193844.0 411833.0 0
198906.0 409622.0 0
202056.0 408920.0 0
197938.0 413422.0 0
201934.0 412133.0 0
204837.0 410403.0 0
209453.0 409340.0 0
213593.0 411674.0 0
216871.0 409072.0 0
220207.0 411353.0 0
224201.0 409337.0 0
228078.0 410438.0 0
231731.0 409737.0 0
236215.0 410421.0 0
240095.0 407762.0 0
243644.0 408785.0 0
246400.0 411509.0 0
250450.0 410122.0 0
254365.0 409309.0 0
257191.0 408961.0 0
259881.0 408792.0 0
264603.0 407602.0 0
268527.0 410417.0 0
271095.0 406800.0 0
273324.0 410377.0 0
275004.0 406292.0 0
277526.0 410389.0 0
281358.0 412662.0 0
284537.0 410453.0 0
287814.0 410146.0 0
292622.0 410047.0 0
297357.0 410506.0 0
300765.0 411720.0 0
300857.0 414717.0 0
303754.0 411032.0 0
308613.0 411286.0 0
312338.0 413724.0 0
316979.0 409284.0 0
315423.0 412629.0 0
319130.0 414094.0 0
321604.0 409969.0 0
327176.0 410828.0 0
324479.0 413807.0 0
331582.0 410652.0 0
329801.0 413959.0 0
336951.0 411123.0 0
334528.0 413671.0 0
339920.0 412910.0 0
343532.0 411221.0 0
346846.0 412594.0 0
343703.0 414556.0 0
349493.0 411388.0 0
348654.0 414823.0 0
351363.0 413378.0 0
355533.0 412038.0 0
354140.0 414175.0 0
358407.0 413815.0 0
134011.0 418439.0 0
131947.0 420862.0 0
136383.0 417152.0 0
135581.0 420433.0 0
138565.0 415701.0 0
140750.0 417505.0 0
137667.0 419324.0 0
144857.0 415819.0 0
143806.0 418962.0 0
147797.0 416375.0 0
151007.0 416371.0 0
147274.0 419963.0 0
154319.0 416233.0 0
154235.0 419550.0 0
156974.0 419054.0 0
157896.0 416143.0 0
161898.0 415726.0 0
160788.0 418408.0 0
165167.0 416015.0 0
163762.0 419717.0 0
172471.0 414523.0 0
168641.0 418107.0 0
176269.0 417062.0 0
180149.0 416587.0 0
183991.0 416326.0 0
181769.0 419209.0 0
184795.0 419622.0 0
186818.0 415184.0 0
187242.0 418138.0 0
190358.0 415876.0 0
192519.0 418199.0 0
194147.0 415608.0 0
196605.0 418247.0 0
201188.0 416176.0 0
205708.0 414097.0 0
209849.0 414080.0 0
208588.0 418049.0 0
212932.0 416055.0 0
216699.0 413673.0 0
216370.0 418017.0 0
220288.0 416236.0 0
223924.0 412824.0 0
227198.0 414150.0 0
224269.0 416334.0 0
229961.0 415650.0 0
232584.0 413440.0 0
236456.0 415706.0 0
241368.0 413402.0 0
245677.0 415639.0 0
248997.0 414531.0 0
253252.0 413628.0 0
257673.0 412873.0 0
263031.0 412315.0 0
259829.0 417263.0 0
267646.0 415613.0 0
271824.0 414204.0 0
275186.0 413438.0 0
274945.0 417856.0 0
278582.0 415231.0 0
282767.0 417417.0 0
285464.0 414310.0 0
289722.0 414244.0 0
292851.0 417436.0 0
293667.0 414111.0 0
296951.0 415229.0 0
298643.0 418616.0 0
301552.0 418730.0 0
305281.0 415541.0 0
310203.0 417117.0 0
315249.0 417317.0 0
322648.0 416191.0 0
319845.0 418802.0 0
325438.0 418296.0 0
327188.0 415252.0 0
331989.0 416274.0 0
328980.0 417677.0 0
334558.0 418040.0 0
337775.0 416371.0 0
341805.0 417809.0 0
346818.0 416794.0 0
344942.0 418987.0 0
351065.0 416885.0 0
348975.0 419907.0 0
357094.0 415528.0 0
354345.0 417838.0 0
357037.0 420060.0 0
361147.0 415854.0 0
359351.0 417799.0 0
362254.0 420523.0 0
363978.0 418119.0 0
367246.0 420104.0 0
123068.0 425771.0 0
125989.0 424131.0 0
128726.0 422067.0 0
129722.0 425237.0 0
136008.0 422134.0 0
133273.0 423674.0 0
135741.0 425440.0 0
139515.0 421093.0 0
137937.0 423253.0 0
139799.0 424973.0 0
142376.0 422062.0 0
146314.0 423083.0 0
150760.0 420189.0 0
148846.0 424881.0 0
155577.0 422779.0 0
152109.0 423846.0 0
158848.0 421288.0 0
159656.0 424200.0 0
161865.0 422341.0 0
163442.0 424278.0 0
166893.0 422489.0 0
172152.0 419424.0 0
171181.0 423208.0 0
174588.0 421644.0 0
178335.0 421339.0 0
182647.0 423910.0 0
186578.0 421783.0 0
189476.0 419746.0 0
189332.0 423672.0 0
192622.0 421327.0 0
196358.0 423404.0 0
200261.0 420601.0 0
204488.0 418747.0 0
203003.0 422488.0 0
206512.0 422068.0 0
209175.0 421756.0 0
212009.0 420662.0 0
215677.0 421750.0 0
219782.0 421365.0 0
223299.0 419847.0 0
226864.0 418068.0 0
230008.0 420145.0 0
233109.0 417831.0 0
232732.0 422596.0 0
236200.0 421039.0 0
239746.0 418659.0 0
243498.0 418913.0 0
248028.0 419119.0 0
245347.0 423105.0 0
249199.0 423162.0 0
251699.0 417483.0 0
252446.0 421301.0 0
255875.0 418222.0 0
260295.0 421519.0 0
263878.0 418411.0 0
268063.0 420726.0 0
270911.0 418049.0 0
272809.0 422326.0 0
276846.0 421961.0 0
279090.0 419582.0 0
281619.0 420705.0 0
284035.0 421506.0 0
287955.0 419306.0 0
292371.0 421725.0 0
296015.0 419863.0 0
296081.0 424020.0 0
299359.0 422245.0 0
303174.0 423043.0 0
305942.0 420244.0 0
309497.0 421151.0 0
313119.0 421170.0 0
317102.0 421934.0 0
321106.0 422838.0 0
323467.0 420344.0 0
325132.0 423351.0 0
328213.0 421355.0 0
331461.0 419627.0 0
331387.0 423332.0 0
334261.0 421348.0 0
335291.0 424664.0 0
338039.0 420710.0 0
338565.0 424398.0 0
342338.0 421708.0 0
346180.0 422514.0 0
352402.0 420798.0 0
348586.0 425118.0 0
350166.0 423354.0 0
352547.0 423847.0 0
355280.0 422663.0 0
357850.0 425506.0 0
360109.0 422720.0 0
365031.0 422466.0 0
366822.0 424882.0 0
363386.0 425434.0 0
369973.0 422251.0 0
374057.0 423363.0 0
376856.0 425351.0 0
119945.0 428282.0 0
117194.0 430730.0 0
126086.0 427351.0 0
123479.0 429338.0 0
128521.0 427940.0 0
129159.0 430818.0 0
132431.0 427128.0 0
133209.0 430143.0 0
137665.0 428400.0 0
141436.0 428766.0 0
143321.0 425486.0 0
146403.0 427651.0 0
150070.0 427851.0 0
153425.0 427269.0 0
156809.0 425921.0 0
161138.0 426599.0 0
157872.0 428856.0 0
164939.0 427576.0 0
168594.0 426542.0 0
175088.0 425010.0 0
172193.0 427305.0 0
176072.0 428729.0 0
178669.0 425786.0 0
180178.0 428467.0 0
183751.0 428277.0 0
186344.0 425406.0 0
188206.0 428455.0 0
192488.0 426208.0 0
196330.0 429027.0 0
199941.0 425253.0 0
204473.0 426278.0 0
209237.0 425195.0 0
213175.0 425336.0 0
217395.0 424626.0 0
220720.0 426171.0 0
216803.0 428024.0 0
222786.0 423375.0 0
224877.0 426702.0 0
226215.0 422455.0 0
229664.0 425023.0 0
228015.0 428282.0 0
234105.0 426117.0 0
237041.0 424558.0 0
240790.0 423386.0 0
243733.0 426924.0 0
247753.0 426665.0 0
252300.0 425860.0 0
256557.0 423047.0 0
256112.0 427373.0 0
260409.0 426636.0 0
264145.0 423290.0 0
263656.0 428718.0 0
264864.0 426726.0 0
268888.0 425625.0 0
273285.0 426603.0 0
276523.0 425508.0 0
280559.0 424028.0 0
279348.0 427716.0 0
284483.0 424938.0 0
286860.0 423518.0 0
287390.0 426998.0 0
289728.0 424663.0 0
292727.0 425650.0 0
295490.0 428334.0 0
300342.0 427376.0 0
307506.0 424520.0 0
304569.0 426690.0 0
307810.0 428176.0 0
311052.0 424395.0 0
311357.0 428408.0 0
314758.0 425083.0 0
315682.0 429320.0 0
319246.0 426452.0 0
323242.0 426372.0 0
326446.0 426950.0 0
329022.0 425448.0 0
331175.0 428606.0 0
332571.0 425467.0 0
335132.0 427820.0 0
338284.0 427412.0 0
342012.0 425311.0 0
341239.0 428209.0 0
345126.0 426034.0 0
344776.0 429264.0 0
350874.0 425732.0 0
348451.0 427944.0 0
351951.0 428840.0 0
354272.0 426387.0 0
357004.0 429074.0 0
361119.0 427494.0 0
360075.0 430524.0 0
364747.0 428863.0 0
371748.0 425508.0 0
368698.0 428276.0 0
375060.0 426061.0 0
374151.0 428937.0 0
376924.0 429886.0 0
379220.0 427703.0 0
382109.0 429671.0 0
385190.0 430352.0 0
108171.0 434850.0 0
110970.0 433594.0 0
113672.0 432244.0 0
121418.0 431728.0 0
118926.0 434417.0 0
125475.0 432160.0 0
122731.0 434814.0 0
130443.0 434043.0 0
127177.0 436045.0 0
133557.0 434010.0 0
137141.0 433128.0 0
141068.0 433133.0 0
144545.0 431320.0 0
148280.0 430587.0 0
151530.0 431043.0 0
148924.0 433305.0 0
155283.0 431211.0 0
151802.0 434468.0 0
161185.0 430591.0 0
158280.0 433679.0 0
165057.0 431914.0 0
161849.0 435063.0 0
168502.0 430115.0 0
168958.0 433979.0 0
172255.0 430827.0 0
175364.0 432591.0 0
178198.0 431335.0 0
181735.0 432947.0 0
185807.0 431580.0 0
191750.0 430488.0 0
200658.0 429007.0 0
199286.0 433205.0 0
203820.0 431490.0 0
207426.0 429258.0 0
210909.0 429820.0 0
207651.0 433244.0 0
213875.0 428964.0 0
211016.0 433771.0 0
215239.0 432611.0 0
219261.0 429969.0 0
222294.0 429723.0 0
226073.0 432501.0 0
231078.0 429100.0 0
234712.0 430684.0 0
231020.0 432616.0 0
238491.0 428004.0 0
242020.0 430638.0 0
246568.0 431248.0 0
250371.0 429376.0 0
253556.0 430155.0 0
257351.0 431630.0 0
262016.0 431999.0 0
267201.0 430314.0 0
272303.0 430496.0 0
276313.0 429484.0 0
279859.0 431726.0 0
283518.0 428727.0 0
287717.0 430154.0 0
290810.0 428656.0 0
290395.0 433083.0 0
293567.0 431598.0 0
297940.0 432647.0 0
301940.0 431839.0 0
305160.0 430375.0 0
309077.0 431806.0 0
313976.0 433607.0 0
319259.0 430978.0 0
323206.0 430167.0 0
323150.0 433840.0 0
327400.0 430353.0 0
326771.0 433745.0 0
331077.0 432966.0 0
334651.0 431197.0 0
335076.0 434709.0 0
338132.0 430736.0 0
338721.0 433957.0 0
341998.0 431703.0 0
347794.0 430928.0 0
345931.0 433215.0 0
350487.0 432087.0 0
354994.0 431252.0 0
353701.0 434324.0 0
357899.0 432944.0 0
360488.0 435296.0 0
367502.0 431916.0 0
363605.0 432770.0 0
371731.0 431061.0 0
369614.0 434182.0 0
373824.0 433756.0 0
377331.0 432831.0 0
381395.0 433233.0 0
387352.0 432762.0 0
384942.0 434445.0 0
390172.0 433079.0 0
394179.0 436578.0 0
98450.4 440696.0 0
106053.0 435657.0 0
102137.0 439884.0 0
104386.0 437705.0 0
107441.0 438002.0 0
110505.0 440096.0 0
110733.0 436821.0 0
114795.0 436418.0 0
114136.0 440048.0 0
118906.0 438114.0 0
117321.0 440497.0 0
122977.0 437785.0 0
121023.0 440091.0 0
125675.0 439698.0 0
129886.0 438230.0 0
132305.0 436481.0 0
135302.0 436843.0 0
133693.0 440329.0 0
138983.0 437506.0 0
137233.0 440239.0 0
142466.0 436259.0 0
146021.0 434842.0 0
141432.0 439929.0 0
145116.0 438956.0 0
149509.0 437329.0 0
154428.0 435316.0 0
153312.0 439612.0 0
157490.0 437283.0 0
165389.0 436053.0 0
160950.0 438579.0 0
164856.0 440237.0 0
169270.0 438230.0 0
172554.0 435000.0 0
173360.0 438018.0 0
177403.0 436276.0 0
181389.0 437677.0 0
185276.0 435969.0 0
188879.0 433633.0 0
193935.0 434629.0 0
197511.0 437463.0 0
200339.0 437063.0 0
203931.0 436262.0 0
208552.0 437755.0 0
212953.0 436701.0 0
216502.0 436379.0 0
220189.0 433921.0 0
223002.0 436763.0 0
229725.0 436691.0 0
233955.0 435360.0 0
238514.0 433987.0 0
243264.0 435297.0 0
246898.0 436165.0 0
251272.0 434271.0 0
255554.0 435915.0 0
259490.0 436296.0 0
263032.0 436578.0 0
265981.0 434534.0 0
270775.0 435421.0 0
274160.0 438255.0 0
275920.0 434118.0 0
277884.0 438337.0 0
280280.0 435590.0 0
285301.0 434274.0 0
290010.0 437050.0 0
294281.0 434924.0 0
298214.0 437210.0 0
294080.0 439118.0 0
301978.0 435618.0 0
305857.0 434508.0 0
304900.0 438003.0 0
307746.0 438393.0 0
309461.0 435161.0 0
311813.0 438446.0 0
315355.0 438790.0 0
317473.0 436849.0 0
319213.0 434063.0 0
321735.0 438050.0 0
325697.0 436555.0 0
329915.0 436965.0 0
333992.0 437931.0 0
342793.0 435664.0 0
338844.0 438056.0 0
346285.0 436881.0 0
349001.0 435122.0 0
348653.0 439828.0 0
351857.0 437471.0 0
357124.0 437308.0 0
362450.0 437674.0 0
361173.0 440251.0 0
366051.0 436652.0 0
365170.0 440505.0 0
370600.0 437277.0 0
377768.0 436031.0 0
374179.0 437330.0 0
377623.0 440304.0 0
381223.0 437573.0 0
385377.0 437634.0 0
389420.0 436339.0 0
388763.0 439249.0 0
385046.0 440478.0 0
391983.0 434836.0 0
392666.0 439440.0 0
396906.0 439230.0 0
400381.0 440696.0 0
90804.2 445923.0 0
93210.9 444157.0 0
96355.8 443145.0 0
100958.0 442618.0 0
99028.6 444991.0 0
104797.0 442046.0 0
102368.0 445485.0 0
105572.0 444868.0 0
107361.0 440879.0 0
108139.0 443810.0 0
110851.0 443402.0 0
114146.0 443756.0 0
118530.0 444034.0 0
123212.0 442726.0 0
129178.0 441806.0 0
126404.0 444434.0 0
131371.0 445149.0 0
135026.0 444077.0 0
139239.0 443589.0 0
144267.0 442823.0 0
148511.0 441490.0 0
151048.0 443702.0 0
154154.0 444044.0 0
157517.0 441490.0 0
161201.0 442987.0 0
164452.0 444743.0 0
167947.0 442785.0 0
171809.0 441432.0 0
175464.0 440347.0 0
174964.0 444712.0 0
179042.0 441453.0 0
182189.0 443848.0 0
184153.0 440394.0 0
186038.0 443759.0 0
189399.0 439370.0 0
188903.0 443821.0 0
194756.0 440504.0 0
196343.0 444042.0 0
200160.0 441333.0 0
204850.0 440604.0 0
208021.0 443058.0 0
211227.0 440228.0 0
215069.0 439845.0 0
219442.0 439259.0 0
222981.0 439903.0 0
224898.0 441788.0 0
225922.0 438062.0 0
228639.0 441572.0 0
232689.0 439769.0 0
231631.0 442790.0 0
236641.0 439088.0 0
239188.0 442544.0 0
240681.0 438498.0 0
242051.0 441474.0 0
244689.0 439835.0 0
249073.0 439559.0 0
252979.0 438849.0 0
257195.0 441177.0 0
262238.0 440775.0 0
266635.0 439219.0 0
270711.0 441237.0 0
275290.0 442895.0 0
279618.0 442011.0 0
283096.0 439357.0 0
286449.0 442875.0 0
287205.0 439129.0 0
290070.0 441888.0 0
298727.0 442119.0 0
302279.0 440026.0 0
305980.0 441765.0 0
310102.0 442303.0 0
314657.0 442414.0 0
318159.0 440487.0 0
318626.0 443698.0 0
321676.0 442454.0 0
324709.0 444606.0 0
325954.0 440492.0 0
332958.0 441400.0 0
329752.0 441031.0 0
333871.0 444853.0 0
336388.0 440728.0 0
337040.0 443957.0 0
340077.0 442445.0 0
343760.0 440521.0 0
347584.0 444008.0 0
353536.0 440756.0 0
351200.0 443212.0 0
357266.0 442237.0 0
358254.0 446066.0 0
361558.0 443676.0 0
365292.0 444073.0 0
369091.0 443840.0 0
369105.0 440275.0 0
372938.0 440948.0 0
372851.0 444223.0 0
377009.0 444117.0 0
381922.0 441365.0 0
381157.0 445339.0 0
384817.0 444061.0 0
388152.0 442788.0 0
391996.0 442303.0 0
392029.0 445133.0 0
396810.0 442730.0 0
394516.0 443487.0 0
403365.0 442529.0 0
400297.0 445158.0 0
406101.0 444044.0 0
408660.0 446714.0 0
85559.0 448562.0 0
83814.4 450717.0 0
88182.0 447449.0 0
88701.3 450658.0 0
95428.8 447399.0 0
92130.5 448043.0 0
92937.0 451081.0 0
98322.6 449116.0 0
102432.0 448720.0 0
109848.0 446668.0 0
106625.0 448271.0 0
111027.0 450362.0 0
113278.0 447180.0 0
114263.0 450680.0 0
116663.0 447735.0 0
120431.0 448365.0 0
117628.0 451587.0 0
122600.0 446019.0 0
124723.0 447294.0 0
123240.0 450114.0 0
128199.0 447508.0 0
126838.0 451128.0 0
131849.0 448914.0 0
135684.0 448341.0 0
139792.0 448305.0 0
142702.0 445946.0 0
144306.0 448066.0 0
147312.0 445704.0 0
150945.0 447411.0 0
154676.0 447767.0 0
157590.0 445358.0 0
158040.0 448650.0 0
160750.0 447015.0 0
163697.0 447973.0 0
170678.0 445124.0 0
167235.0 446514.0 0
170947.0 449153.0 0
175082.0 448708.0 0
178962.0 446689.0 0
183653.0 447113.0 0
188167.0 447410.0 0
192396.0 444495.0 0
192373.0 448780.0 0
195533.0 446714.0 0
199072.0 445998.0 0
203586.0 444844.0 0
206478.0 448716.0 0
210319.0 446826.0 0
212799.0 443478.0 0
214590.0 447736.0 0
217263.0 443856.0 0
219029.0 448334.0 0
221701.0 443924.0 0
223190.0 448168.0 0
225967.0 444958.0 0
227106.0 448169.0 0
230396.0 446153.0 0
234899.0 444032.0 0
238472.0 447596.0 0
242521.0 444464.0 0
246766.0 444126.0 0
249330.0 448334.0 0
252072.0 443833.0 0
256630.0 446542.0 0
261054.0 445287.0 0
266154.0 444634.0 0
271140.0 446022.0 0
279238.0 446108.0 0
275186.0 448058.0 0
282531.0 447311.0 0
283106.0 444074.0 0
286054.0 446837.0 0
289835.0 446405.0 0
294606.0 444773.0 0
297381.0 448753.0 0
299188.0 445972.0 0
302901.0 444985.0 0
304946.0 448538.0 0
307615.0 446126.0 0
312496.0 446019.0 0
316727.0 446474.0 0
321357.0 446759.0 0
325997.0 448891.0 0
329440.0 445229.0 0
332901.0 448106.0 0
336974.0 448037.0 0
343388.0 445625.0 0
339859.0 445946.0 0
341058.0 449204.0 0
344094.0 449852.0 0
347352.0 448113.0 0
351137.0 446469.0 0
354261.0 444957.0 0
355105.0 449049.0 0
362252.0 447354.0 0
359392.0 450139.0 0
366652.0 448212.0 0
370610.0 447652.0 0
374946.0 448740.0 0
379103.0 448642.0 0
383554.0 448822.0 0
385739.0 446584.0 0
386866.0 450748.0 0
389265.0 447187.0 0
393111.0 449708.0 0
394310.0 446223.0 0
396840.0 446494.0 0
396767.0 449263.0 0
400088.0 448986.0 0
404040.0 446858.0 0
403569.0 450215.0 0
406970.0 450064.0 0
412202.0 449072.0 0
416339.0 450391.0 0
75580.0 456320.0 0
78478.1 454057.0 0
80806.4 452006.0 0
80943.1 456510.0 0
84194.8 454516.0 0
88022.5 453855.0 0
91753.5 453801.0 0
94316.7 456256.0 0
96057.7 452519.0 0
99991.0 451886.0 0
98835.2 453976.0 0
102955.0 451911.0 0
102142.0 455291.0 0
107362.0 452101.0 0
110339.0 454656.0 0
112796.0 453289.0 0
115712.0 455821.0 0
120284.0 454126.0 0
121043.0 451701.0 0
123095.0 453124.0 0
130533.0 451867.0 0
126389.0 455039.0 0
129874.0 454945.0 0
134355.0 452935.0 0
138569.0 452775.0 0
139963.0 455715.0 0
142515.0 451436.0 0
147378.0 451031.0 0
148327.0 455114.0 0
151560.0 451520.0 0
155806.0 451617.0 0
160650.0 451476.0 0
164089.0 453480.0 0
165981.0 450272.0 0
168797.0 454098.0 0
173836.0 452896.0 0
177273.0 450488.0 0
178381.0 454091.0 0
180852.0 450491.0 0
184767.0 450967.0 0
188437.0 451614.0 0
192271.0 453302.0 0
197324.0 450686.0 0
200030.0 454759.0 0
201723.0 448895.0 0
203237.0 452680.0 0
207737.0 453475.0 0
211309.0 450919.0 0
215809.0 452088.0 0
225446.0 450993.0 0
230003.0 451202.0 0
233755.0 448770.0 0
236048.0 452414.0 0
243965.0 449577.0 0
239778.0 451613.0 0
248300.0 452410.0 0
253265.0 448638.0 0
251922.0 452319.0 0
259514.0 449430.0 0
256054.0 451533.0 0
263787.0 449580.0 0
268445.0 449924.0 0
272487.0 451443.0 0
276271.0 451968.0 0
279226.0 450007.0 0
283555.0 450833.0 0
288526.0 451235.0 0
293334.0 449854.0 0
297738.0 453498.0 0
301361.0 449633.0 0
304667.0 451754.0 0
307778.0 450748.0 0
310860.0 449305.0 0
311559.0 453621.0 0
315138.0 450949.0 0
318693.0 452997.0 0
319153.0 449667.0 0
322693.0 451804.0 0
327487.0 453044.0 0
330067.0 450202.0 0
331335.0 454012.0 0
334346.0 451471.0 0
338718.0 452252.0 0
342992.0 453629.0 0
347331.0 452736.0 0
351262.0 450500.0 0
350987.0 453757.0 0
353843.0 453871.0 0
356829.0 452783.0 0
363691.0 451249.0 0
360635.0 454237.0 0
364413.0 456009.0 0
367424.0 453280.0 0
369742.0 450885.0 0
372488.0 452210.0 0
370446.0 454322.0 0
374697.0 455071.0 0
377335.0 452699.0 0
381206.0 451930.0 0
381688.0 456311.0 0
384664.0 453685.0 0
389244.0 453932.0 0
390306.0 451477.0 0
391984.0 453261.0 0
392107.0 456051.0 0
398461.0 452232.0 0
394935.0 453264.0 0
397928.0 455196.0 0
401866.0 453117.0 0
399912.0 455870.0 0
402341.0 456171.0 0
405987.0 453493.0 0
404627.0 455677.0 0
408797.0 455837.0 0
409565.0 451928.0 0
414010.0 452652.0 0
411885.0 454642.0 0
419076.0 452972.0 0
416493.0 455156.0 0
422297.0 455283.0 0
65648.4 461383.0 0
69142.1 460148.0 0
72510.7 458459.0 0
74577.0 461715.0 0
77782.2 458465.0 0
78440.7 461443.0 0
82112.2 459909.0 0
89717.2 457287.0 0
85607.5 458364.0 0
87173.7 461403.0 0
91152.2 461011.0 0
98142.2 456723.0 0
94560.9 459962.0 0
98164.1 459702.0 0
101688.0 458830.0 0
105809.0 455708.0 0
105514.0 459306.0 0
108876.0 457436.0 0
109824.0 460165.0 0
111935.0 457247.0 0
113722.0 460872.0 0
119442.0 456838.0 0
118004.0 459857.0 0
122666.0 456209.0 0
121420.0 459138.0 0
124816.0 458303.0 0
128432.0 458991.0 0
132732.0 456958.0 0
131358.0 460848.0 0
137128.0 456478.0 0
139979.0 458299.0 0
143616.0 455425.0 0
143145.0 459283.0 0
146685.0 458246.0 0
149665.0 459195.0 0
151999.0 455556.0 0
153714.0 459476.0 0
156825.0 455507.0 0
157839.0 459601.0 0
161076.0 456565.0 0
163634.0 459286.0 0
164914.0 456410.0 0
167258.0 458913.0 0
171824.0 457034.0 0
175467.0 456706.0 0
179765.0 459114.0 0
182233.0 454391.0 0
185658.0 454126.0 0
184346.0 457858.0 0
188461.0 455906.0 0
191775.0 458110.0 0
195943.0 456013.0 0
199117.0 459562.0 0
202016.0 457011.0 0
204598.0 456184.0 0
208466.0 458580.0 0
212299.0 455164.0 0
216617.0 456654.0 0
221161.0 453557.0 0
226249.0 454119.0 0
228580.0 456995.0 0
232353.0 454780.0 0
235828.0 457826.0 0
240232.0 455430.0 0
245135.0 455331.0 0
249782.0 456069.0 0
254525.0 456674.0 0
260941.0 455268.0 0
266065.0 453723.0 0
266464.0 458380.0 0
269579.0 454583.0 0
274223.0 455762.0 0
270705.0 458418.0 0
277748.0 459248.0 0
279947.0 454862.0 0
285227.0 455798.0 0
289177.0 456013.0 0
292907.0 454410.0 0
291704.0 458663.0 0
295835.0 458365.0 0
300156.0 458649.0 0
302321.0 454833.0 0
304247.0 459289.0 0
307084.0 455723.0 0
311716.0 458048.0 0
316471.0 456592.0 0
320486.0 455720.0 0
324888.0 456467.0 0
329086.0 457055.0 0
332627.0 457457.0 0
334849.0 460055.0 0
335828.0 455775.0 0
338670.0 459089.0 0
339935.0 455941.0 0
343253.0 458567.0 0
346293.0 456488.0 0
347537.0 459750.0 0
350067.0 456528.0 0
354325.0 457509.0 0
357590.0 456367.0 0
357741.0 459688.0 0
361325.0 458781.0 0
365877.0 459408.0 0
368398.0 457052.0 0
371846.0 456713.0 0
370943.0 460528.0 0
377327.0 456918.0 0
375157.0 459587.0 0
379285.0 459214.0 0
378815.0 455362.0 0
384622.0 459341.0 0
386966.0 456114.0 0
389619.0 457918.0 0
393491.0 459980.0 0
395786.0 456707.0 0
398786.0 458315.0 0
396884.0 460394.0 0
402700.0 459871.0 0
406260.0 458294.0 0
408247.0 460985.0 0
411017.0 458898.0 0
413913.0 457230.0 0
413032.0 461275.0 0
415810.0 459684.0 0
418512.0 457854.0 0
421798.0 458657.0 0
420396.0 460789.0 0
423940.0 460172.0 0
426006.0 457385.0 0
427571.0 461187.0 0
429886.0 459026.0 0
432739.0 461290.0 0
58482.1 465060.0 0
62598.3 464392.0 0
66421.3 464257.0 0
66952.0 467097.0 0
69796.7 463349.0 0
69887.3 466664.0 0
73629.0 465208.0 0
77481.5 464176.0 0
80774.1 464204.0 0
83974.6 462836.0 0
85115.3 465582.0 0
88773.7 464856.0 0
92648.1 464067.0 0
96065.5 463037.0 0
99127.8 465677.0 0
100284.0 462383.0 0
103416.0 462030.0 0
103504.0 465150.0 0
107140.0 462625.0 0
110754.0 463981.0 0
120476.0 462064.0 0
117189.0 463593.0 0
124327.0 461536.0 0
120917.0 465654.0 0
124973.0 464997.0 0
128198.0 462935.0 0
131544.0 464069.0 0
135679.0 460564.0 0
135574.0 465223.0 0
140387.0 462714.0 0
145951.0 462659.0 0
151124.0 462679.0 0
155978.0 463666.0 0
161001.0 461745.0 0
163827.0 464722.0 0
164674.0 461600.0 0
167272.0 463465.0 0
170789.0 461085.0 0
174913.0 460461.0 0
176929.0 463562.0 0
180314.0 463783.0 0
183882.0 462272.0 0
187962.0 460536.0 0
191729.0 462275.0 0
194666.0 459853.0 0
195918.0 463309.0 0
203592.0 460051.0 0
206493.0 463544.0 0
210847.0 462673.0 0
213309.0 459523.0 0
214787.0 463079.0 0
216756.0 460570.0 0
220561.0 459422.0 0
224466.0 457965.0 0
222808.0 463438.0 0
227508.0 462088.0 0
231791.0 459132.0 0
232745.0 462795.0 0
239084.0 460028.0 0
236550.0 462223.0 0
242805.0 459760.0 0
247342.0 459623.0 0
251063.0 459720.0 0
254153.0 462227.0 0
257903.0 460033.0 0
257901.0 463758.0 0
262244.0 461847.0 0
266191.0 463406.0 0
269639.0 462420.0 0
273964.0 461125.0 0
278407.0 463807.0 0
282724.0 460707.0 0
288046.0 460559.0 0
293182.0 462942.0 0
297714.0 462578.0 0
301737.0 463143.0 0
305646.0 462663.0 0
308502.0 460637.0 0
312670.0 462363.0 0
314697.0 459960.0 0
316956.0 462038.0 0
321332.0 460304.0 0
326794.0 460632.0 0
329938.0 464564.0 0
331103.0 460605.0 0
334185.0 463950.0 0
337211.0 462529.0 0
340953.0 462593.0 0
345311.0 463046.0 0
349566.0 463224.0 0
351603.0 460443.0 0
353629.0 464231.0 0
355311.0 461100.0 0
357808.0 463571.0 0
359452.0 461233.0 0
363264.0 461812.0 0
360785.0 462440.0 0
364591.0 464169.0 0
367436.0 462868.0 0
371463.0 465642.0 0
374416.0 463266.0 0
377672.0 462910.0 0
381506.0 462070.0 0
388956.0 461622.0 0
385308.0 464574.0 0
392306.0 464563.0 0
395826.0 463986.0 0
399767.0 462736.0 0
402304.0 465752.0 0
405214.0 463247.0 0
407786.0 466453.0 0
410363.0 463441.0 0
412111.0 466280.0 0
414589.0 464033.0 0
417548.0 462281.0 0
419367.0 465458.0 0
422075.0 463620.0 0
424239.0 462351.0 0
424263.0 466430.0 0
427152.0 464579.0 0
430423.0 463057.0 0
431008.0 465650.0 0
433587.0 464864.0 0
436021.0 462629.0 0
438749.0 463562.0 0
440731.0 465746.0 0
437137.0 465689.0 0
443581.0 467593.0 0
48714.4 471933.0 0
52259.9 470426.0 0
55772.8 468299.0 0
56080.8 471575.0 0
58949.1 471480.0 0
59498.7 467436.0 0
64145.2 467426.0 0
62757.2 470434.0 0
67229.2 470175.0 0
70979.6 469829.0 0
77733.4 467166.0 0
74120.1 468980.0 0
76872.6 470768.0 0
82085.5 468099.0 0
89542.6 468480.0 0
86633.9 468898.0 0
92084.5 467097.0 0
90565.3 471057.0 0
92906.4 469568.0 0
95317.1 466646.0 0
96612.8 470366.0 0
101112.0 468759.0 0
107479.0 466591.0 0
105048.0 469114.0 0
113849.0 465782.0 0
110624.0 468193.0 0
114346.0 470352.0 0
117165.0 467519.0 0
119771.0 470662.0 0
123619.0 468435.0 0
127779.0 467376.0 0
132016.0 468053.0 0
138567.0 466949.0 0
135702.0 469156.0 0
139012.0 469832.0 0
141964.0 466839.0 0
145377.0 467223.0 0
148488.0 467720.0 0
148981.0 465300.0 0
152298.0 466574.0 0
156373.0 467972.0 0
159929.0 465795.0 0
159430.0 469552.0 0
163177.0 468594.0 0
167406.0 467628.0 0
172463.0 465911.0 0
177866.0 468100.0 0
182829.0 466616.0 0
187607.0 465560.0 0
192217.0 466582.0 0
196350.0 467143.0 0
200970.0 464945.0 0
205307.0 467332.0 0
202584.0 469599.0 0
209660.0 467453.0 0
212583.0 465207.0 0
218513.0 463779.0 0
215572.0 467948.0 0
220959.0 467530.0 0
225532.0 466837.0 0
230132.0 466720.0 0
235463.0 466988.0 0
240261.0 464368.0 0
243810.0 467679.0 0
244896.0 463658.0 0
249366.0 464096.0 0
253170.0 467364.0 0
257291.0 467448.0 0
260449.0 466207.0 0
264056.0 467080.0 0
268414.0 466958.0 0
273872.0 466340.0 0
278575.0 467900.0 0
282314.0 466237.0 0
285653.0 464546.0 0
289260.0 465158.0 0
292600.0 468684.0 0
296123.0 465891.0 0
298823.0 465615.0 0
301539.0 467827.0 0
305181.0 466333.0 0
307663.0 469294.0 0
309549.0 465693.0 0
315113.0 467456.0 0
319843.0 464725.0 0
319497.0 468855.0 0
322249.0 467333.0 0
324897.0 464459.0 0
324851.0 469016.0 0
328344.0 468732.0 0
333569.0 468719.0 0
338137.0 466260.0 0
341542.0 469212.0 0
342395.0 465863.0 0
348076.0 465548.0 0
345869.0 467845.0 0
351111.0 467379.0 0
356537.0 468086.0 0
361768.0 466267.0 0
366566.0 466860.0 0
369547.0 469808.0 0
373647.0 469523.0 0
376526.0 467113.0 0
380996.0 466385.0 0
389103.0 466674.0 0
385189.0 468977.0 0
389326.0 470372.0 0
393647.0 468434.0 0
392466.0 471509.0 0
398205.0 467615.0 0
396343.0 470663.0 0
404479.0 469157.0 0
409757.0 469573.0 0
413772.0 469753.0 0
416426.0 466873.0 0
418158.0 470529.0 0
421332.0 468466.0 0
425182.0 470751.0 0
428343.0 468368.0 0
431695.0 468593.0 0
434986.0 467847.0 0
439497.0 468163.0 0
437880.0 469849.0 0
446348.0 468977.0 0
442241.0 470272.0 0
445111.0 471648.0 0
448722.0 470914.0 0
41932.5 476179.0 0
45713.0 474864.0 0
52461.9 474140.0 0
49185.9 475184.0 0
51323.0 477525.0 0
56242.7 474761.0 0
60206.4 475057.0 0
65278.9 473337.0 0
68863.5 472787.0 0
68713.0 475758.0 0
73243.3 473738.0 0
77642.8 474363.0 0
84397.1 471440.0 0
80665.8 472277.0 0
84311.6 475196.0 0
87364.7 472125.0 0
89297.9 475619.0 0
93441.3 473901.0 0
97561.4 475112.0 0
103301.0 472318.0 0
100023.0 472584.0 0
101291.0 475102.0 0
107627.0 471404.0 0
105342.0 474363.0 0
108524.0 474094.0 0
110718.0 471625.0 0
111304.0 474297.0 0
115978.0 474514.0 0
124476.0 471488.0 0
121454.0 474707.0 0
128558.0 471453.0 0
126184.0 475329.0 0
129812.0 474553.0 0
132474.0 471801.0 0
132949.0 475662.0 0
136355.0 472727.0 0
139778.0 473180.0 0
142353.0 470574.0 0
143689.0 474848.0 0
146030.0 471078.0 0
150023.0 470582.0 0
148105.0 474672.0 0
153734.0 470216.0 0
151989.0 473670.0 0
156810.0 473775.0 0
161859.0 472829.0 0
166771.0 472867.0 0
170593.0 470341.0 0
171971.0 473812.0 0
174048.0 470529.0 0
176880.0 473936.0 0
181496.0 471301.0 0
185380.0 474218.0 0
185631.0 469837.0 0
189634.0 471293.0 0
193876.0 470180.0 0
193600.0 474279.0 0
198358.0 471202.0 0
206294.0 471661.0 0
211746.0 472686.0 0
218736.0 472496.0 0
223903.0 471133.0 0
227882.0 470000.0 0
232253.0 471779.0 0
239947.0 469233.0 0
236872.0 471462.0 0
239438.0 473494.0 0
243199.0 472617.0 0
248290.0 469948.0 0
251973.0 473754.0 0
255575.0 471285.0 0
260421.0 471051.0 0
266176.0 472618.0 0
271144.0 470557.0 0
276268.0 472557.0 0
281717.0 470936.0 0
286824.0 469336.0 0
297747.0 469701.0 0
294927.0 472820.0 0
302198.0 472650.0 0
304856.0 469901.0 0
307086.0 472992.0 0
310738.0 470701.0 0
314409.0 473323.0 0
318491.0 472342.0 0
322293.0 471016.0 0
322134.0 474582.0 0
325755.0 472230.0 0
330326.0 473098.0 0
335386.0 474551.0 0
337834.0 470432.0 0
340714.0 473388.0 0
345028.0 472310.0 0
349102.0 470852.0 0
351052.0 473004.0 0
353335.0 471189.0 0
357616.0 473872.0 0
360864.0 470621.0 0
362397.0 474892.0 0
365079.0 470635.0 0
366091.0 474489.0 0
368688.0 473053.0 0
373260.0 473815.0 0
376659.0 471065.0 0
377868.0 474795.0 0
380757.0 471340.0 0
385890.0 473632.0 0
390817.0 474024.0 0
395065.0 472941.0 0
400360.0 471666.0 0
398275.0 474992.0 0
404273.0 474428.0 0
407782.0 472258.0 0
407725.0 475861.0 0
410196.0 475071.0 0
411286.0 472899.0 0
414617.0 473644.0 0
417713.0 473781.0 0
420884.0 475952.0 0
421611.0 472378.0 0
424893.0 474734.0 0
428983.0 471708.0 0
427996.0 473985.0 0
431898.0 472162.0 0
434482.0 471107.0 0
431265.0 476102.0 0
434724.0 474762.0 0
436743.0 472479.0 0
438347.0 475590.0 0
440713.0 472739.0 0
444894.0 474946.0 0
441804.0 476713.0 0
448241.0 474204.0 0
450737.0 476093.0 0
451648.0 472694.0 0
454388.0 475140.0 0
457710.0 476020.0 0
460460.0 477965.0 0
35559.2 480966.0 0
38816.9 478280.0 0
42345.8 479830.0 0
38813.9 482405.0 0
45819.2 478420.0 0
49315.3 478077.0 0
51355.1 480419.0 0
47831.3 481470.0 0
54343.8 478401.0 0
57831.4 478352.0 0
64094.7 478165.0 0
71441.3 478099.0 0
68736.1 479860.0 0
73429.0 481299.0 0
76034.6 477734.0 0
80290.9 476833.0 0
78803.5 481385.0 0
82633.2 479423.0 0
85978.5 478838.0 0
94006.7 478235.0 0
89919.7 479340.0 0
98526.8 478484.0 0
103004.0 478075.0 0
107611.0 476938.0 0
111212.0 478198.0 0
115635.0 479727.0 0
119025.0 477068.0 0
120834.0 479741.0 0
123327.0 477485.0 0
125597.0 480161.0 0
129410.0 478131.0 0
133311.0 480092.0 0
137054.0 476898.0 0
140342.0 475889.0 0
141464.0 479762.0 0
146313.0 478555.0 0
151784.0 478149.0 0
156969.0 478807.0 0
161755.0 477409.0 0
166077.0 477672.0 0
169818.0 477062.0 0
173861.0 477827.0 0
178414.0 479406.0 0
181225.0 475787.0 0
183820.0 479029.0 0
189250.0 477407.0 0
194013.0 478354.0 0
197752.0 476552.0 0
202237.0 474575.0 0
201583.0 479240.0 0
206754.0 477081.0 0
211402.0 477792.0 0
215379.0 476285.0 0
218619.0 479124.0 0
222895.0 476438.0 0
227762.0 474424.0 0
231666.0 477043.0 0
236078.0 475637.0 0
240876.0 477673.0 0
247214.0 475988.0 0
252171.0 478360.0 0
256516.0 475842.0 0
259028.0 478595.0 0
261423.0 476035.0 0
269202.0 477595.0 0
265122.0 477977.0 0
271187.0 474223.0 0
273573.0 476812.0 0
277847.0 478546.0 0
280729.0 475441.0 0
285187.0 474899.0 0
290628.0 474239.0 0
295125.0 476480.0 0
298352.0 474374.0 0
298141.0 477892.0 0
301633.0 477203.0 0
304649.0 475884.0 0
307995.0 477564.0 0
310738.0 474574.0 0
313287.0 478961.0 0
318124.0 476905.0 0
322070.0 478656.0 0
326604.0 476915.0 0
331699.0 477946.0 0
335550.0 480082.0 0
339732.0 477998.0 0
344344.0 476757.0 0
348774.0 475610.0 0
347764.0 479919.0 0
352218.0 479653.0 0
353194.0 475339.0 0
356329.0 478534.0 0
360815.0 479548.0 0
369010.0 476755.0 0
365555.0 478473.0 0
372498.0 478512.0 0
376307.0 478326.0 0
379115.0 478125.0 0
382085.0 476668.0 0
383485.0 480397.0 0
388951.0 476680.0 0
386100.0 478104.0 0
390030.0 479865.0 0
393757.0 477295.0 0
398030.0 478204.0 0
401778.0 477283.0 0
403576.0 481273.0 0
405743.0 478468.0 0
410195.0 478854.0 0
413258.0 476249.0 0
414940.0 479773.0 0
416843.0 476810.0 0
419529.0 479844.0 0
423896.0 478691.0 0
427648.0 477497.0 0
428138.0 481684.0 0
432019.0 480033.0 0
435692.0 478531.0 0
439671.0 479340.0 0
443091.0 479625.0 0
446453.0 478735.0 0
448840.0 477171.0 0
449753.0 481464.0 0
451391.0 478650.0 0
454419.0 479073.0 0
457662.0 479568.0 0
461300.0 481791.0 0
463210.0 479480.0 0
465662.0 481049.0 0
468229.0 482903.0 0
25719.2 486979.0 0
28787.5 484805.0 0
31987.0 482839.0 0
30866.8 487194.0 0
34226.3 485242.0 0
37317.0 485786.0 0
40351.2 487602.0 0
41368.6 484369.0 0
44524.5 483231.0 0
44388.1 487406.0 0
51290.7 483339.0 0
48436.5 485325.0 0
55116.9 482335.0 0
53469.4 485973.0 0
57544.1 486266.0 0
59592.1 481956.0 0
61466.3 485728.0 0
65259.1 483363.0 0
69609.1 482906.0 0
72111.5 485932.0 0
75628.1 484333.0 0
77862.5 485571.0 0
83409.3 482463.0 0
81014.7 485029.0 0
86924.2 482703.0 0
88613.3 486183.0 0
91595.0 482580.0 0
92773.3 485939.0 0
95961.2 482221.0 0
100526.0 482389.0 0
100980.0 485678.0 0
106249.0 482200.0 0
111217.0 482107.0 0
110547.0 485523.0 0
113713.0 483919.0 0
117833.0 483874.0 0
122470.0 483805.0 0
129331.0 482122.0 0
126221.0 483957.0 0
132701.0 483964.0 0
137204.0 481044.0 0
136880.0 484698.0 0
145116.0 482320.0 0
141511.0 484673.0 0
148687.0 481920.0 0
149928.0 484777.0 0
154207.0 483681.0 0
160190.0 482365.0 0
165745.0 482375.0 0
170417.0 480620.0 0
174180.0 482067.0 0
177555.0 483747.0 0
181530.0 483298.0 0
186904.0 483146.0 0
192179.0 481898.0 0
196950.0 481176.0 0
204945.0 481580.0 0
209545.0 482090.0 0
214252.0 480580.0 0
213361.0 484373.0 0
217500.0 483467.0 0
222546.0 482180.0 0
227549.0 479758.0 0
235003.0 480048.0 0
238247.0 480978.0 0
236486.0 483861.0 0
244568.0 480327.0 0
241114.0 483408.0 0
248522.0 480495.0 0
251532.0 483364.0 0
256141.0 481171.0 0
258725.0 484101.0 0
261782.0 481409.0 0
267128.0 482372.0 0
272794.0 481495.0 0
277564.0 482855.0 0
282933.0 479613.0 0
281270.0 483711.0 0
288007.0 479464.0 0
292519.0 479454.0 0
296174.0 480072.0 0
297012.0 483401.0 0
299863.0 480879.0 0
304565.0 481033.0 0
309069.0 481886.0 0
312313.0 484606.0 0
315606.0 483019.0 0
319452.0 482125.0 0
324502.0 481853.0 0
328634.0 480895.0 0
327917.0 484635.0 0
332196.0 482317.0 0
339310.0 482653.0 0
343659.0 480913.0 0
343415.0 485085.0 0
346986.0 483287.0 0
351031.0 483565.0 0
356414.0 483449.0 0
364882.0 481712.0 0
361803.0 484768.0 0
369227.0 481366.0 0
366978.0 484794.0 0
374274.0 482369.0 0
379598.0 482063.0 0
384022.0 484064.0 0
386943.0 481724.0 0
387405.0 485063.0 0
390632.0 483965.0 0
393140.0 481447.0 0
395174.0 484301.0 0
396697.0 481238.0 0
400135.0 484562.0 0
400358.0 480701.0 0
404373.0 485226.0 0
407774.0 482462.0 0
407702.0 485716.0 0
410340.0 486372.0 0
412361.0 483190.0 0
420526.0 483562.0 0
417132.0 483432.0 0
423364.0 482177.0 0
422557.0 485487.0 0
425856.0 485526.0 0
429622.0 485873.0 0
435219.0 482461.0 0
432341.0 484045.0 0
435447.0 485955.0 0
438381.0 482030.0 0
438270.0 484810.0 0
441475.0 485811.0 0
441792.0 482695.0 0
445534.0 482989.0 0
445103.0 486694.0 0
449518.0 486085.0 0
453757.0 483240.0 0
457884.0 482977.0 0
460343.0 485723.0 0
456616.0 486736.0 0
463914.0 484187.0 0
467367.0 486505.0 0
471307.0 485532.0 0
474692.0 487283.0 0
15151.9 492497.0 0
21882.5 488719.0 0
18756.8 491344.0 0
22333.1 492417.0 0
25353.2 490491.0 0
28623.3 488774.0 0
31963.8 490240.0 0
29046.5 491690.0 0
34253.0 488425.0 0
34405.5 491833.0 0
36892.9 489923.0 0
40880.5 490972.0 0
47535.5 489349.0 0
44014.1 492071.0 0
50405.1 487695.0 0
49575.5 491994.0 0
52236.9 489522.0 0
55010.8 489030.0 0
57862.0 490254.0 0
60862.0 488606.0 0
64109.2 487141.0 0
68034.3 486966.0 0
64341.4 490236.0 0
67897.1 490655.0 0
71607.0 489611.0 0
75358.4 487764.0 0
75204.5 490769.0 0
79368.7 488709.0 0
82771.1 490755.0 0
84361.8 486935.0 0
87036.8 489918.0 0
90991.8 489019.0 0
93734.1 490995.0 0
96688.8 486995.0 0
100729.0 489538.0 0
103653.0 486721.0 0
107061.0 487033.0 0
104678.0 490684.0 0
109673.0 490174.0 0
114446.0 488325.0 0
119702.0 487927.0 0
124154.0 487492.0 0
128890.0 487026.0 0
126099.0 491149.0 0
133726.0 488421.0 0
138852.0 489430.0 0
143374.0 488662.0 0
146518.0 486002.0 0
150781.0 488149.0 0
155802.0 489845.0 0
158369.0 486402.0 0
162437.0 487596.0 0
167067.0 487191.0 0
170575.0 484745.0 0
174433.0 486252.0 0
178508.0 487434.0 0
183378.0 488360.0 0
188027.0 487566.0 0
190668.0 485712.0 0
195274.0 486273.0 0
191030.0 489256.0 0
201060.0 484688.0 0
204485.0 489357.0 0
205975.0 485227.0 0
210015.0 488168.0 0
215665.0 488199.0 0
220748.0 486823.0 0
226641.0 484793.0 0
229580.0 487574.0 0
231669.0 483389.0 0
234254.0 488140.0 0
238521.0 486925.0 0
242681.0 488789.0 0
246397.0 484910.0 0
249997.0 487703.0 0
255342.0 487401.0 0
261428.0 486712.0 0
266144.0 487064.0 0
270625.0 486311.0 0
275031.0 485800.0 0
278512.0 485849.0 0
277275.0 488431.0 0
281771.0 488961.0 0
286284.0 484483.0 0
292319.0 484487.0 0
289876.0 488160.0 0
296828.0 487334.0 0
301585.0 485500.0 0
304148.0 489450.0 0
307364.0 486285.0 0
312095.0 488996.0 0
316967.0 486874.0 0
322985.0 486977.0 0
328575.0 489687.0 0
331759.0 486259.0 0
333792.0 489337.0 0
335835.0 485216.0 0
337830.0 489518.0 0
339833.0 486492.0 0
342927.0 489924.0 0
347990.0 487620.0 0
353629.0 487826.0 0
358909.0 489012.0 0
364750.0 487183.0 0
363549.0 489570.0 0
367569.0 488914.0 0
371676.0 486444.0 0
376657.0 486100.0 0
375635.0 490528.0 0
381481.0 487987.0 0
385802.0 487083.0 0
386578.0 490327.0 0
388941.0 487682.0 0
392733.0 487540.0 0
397576.0 488042.0 0
402931.0 490004.0 0
407343.0 488492.0 0
411026.0 490331.0 0
415285.0 487796.0 0
419979.0 486594.0 0
420082.0 490920.0 0
423613.0 488657.0 0
428202.0 489600.0 0
432379.0 487700.0 0
432608.0 491690.0 0
435660.0 489215.0 0
438779.0 487763.0 0
438633.0 490970.0 0
442531.0 489968.0 0
448081.0 490695.0 0
452931.0 487775.0 0
452858.0 491224.0 0
460588.0 488777.0 0
457291.0 490989.0 0
464307.0 488592.0 0
463116.0 492451.0 0
470296.0 489207.0 0
467722.0 490517.0 0
473288.0 490900.0 0
476974.0 490617.0 0
478108.0 488454.0 0
480813.0 491404.0 0
12248.5 494712.0 0
8718.13 498523.0 0
12352.0 497573.0 0
15904.0 495456.0 0
19419.1 494795.0 0
22742.5 496364.0 0
19103.8 498055.0 0
26056.1 494317.0 0
31953.9 493465.0 0
29349.5 495507.0 0
33075.9 496359.0 0
35087.8 494225.0 0
38525.1 493951.0 0
41684.8 496002.0 0
46386.5 495070.0 0
50573.3 495215.0 0
53952.9 492453.0 0
53488.6 496187.0 0
57934.4 494208.0 0
61437.4 492170.0 0
62049.2 494807.0 0
65181.2 493847.0 0
69233.8 493665.0 0
72621.3 492605.0 0
72268.0 496326.0 0
75030.6 494132.0 0
78367.1 492570.0 0
81269.0 494970.0 0
85587.3 493269.0 0
88374.9 495135.0 0
89706.5 492220.0 0
92504.6 495074.0 0
97504.5 491688.0 0
95489.2 493569.0 0
100006.0 493148.0 0
101954.0 492280.0 0
102692.0 494882.0 0
107075.0 494125.0 0
112585.0 494431.0 0
117217.0 491956.0 0
116652.0 495937.0 0
121842.0 491130.0 0
119826.0 494555.0 0
124110.0 494659.0 0
130135.0 492441.0 0
134980.0 493176.0 0
139534.0 494383.0 0
142670.0 492208.0 0
147026.0 491115.0 0
151325.0 491847.0 0
154375.0 495081.0 0
160592.0 492522.0 0
165752.0 491689.0 0
169712.0 494607.0 0
170875.0 489817.0 0
174171.0 493561.0 0
175551.0 489823.0 0
178957.0 492412.0 0
183675.0 493895.0 0
187527.0 491237.0 0
190713.0 492897.0 0
194605.0 491688.0 0
199522.0 490015.0 0
202753.0 493675.0 0
208086.0 493907.0 0
213753.0 492961.0 0
219349.0 491504.0 0
224979.0 489757.0 0
226902.0 494838.0 0
230340.0 491500.0 0
234578.0 493180.0 0
238274.0 490832.0 0
241820.0 492529.0 0
245593.0 493395.0 0
251141.0 492212.0 0
259302.0 490858.0 0
255917.0 492735.0 0
263725.0 491534.0 0
269296.0 491393.0 0
273829.0 489518.0 0
273793.0 493668.0 0
277321.0 491763.0 0
286584.0 489419.0 0
285079.0 493432.0 0
293308.0 489495.0 0
289803.0 492845.0 0
294457.0 494196.0 0
296804.0 491015.0 0
300465.0 490391.0 0
303103.0 494183.0 0
307727.0 492101.0 0
312182.0 493198.0 0
316291.0 491862.0 0
320515.0 491046.0 0
324663.0 493487.0 0
329432.0 494608.0 0
332328.0 492496.0 0
335605.0 492830.0 0
339829.0 493502.0 0
344298.0 494593.0 0
347232.0 492143.0 0
350969.0 491373.0 0
355180.0 492967.0 0
359902.0 494345.0 0
363408.0 492817.0 0
366710.0 492343.0 0
369637.0 495186.0 0
371019.0 491268.0 0
374030.0 495162.0 0
378171.0 494536.0 0
379450.0 491980.0 0
383331.0 493846.0 0
388678.0 494818.0 0
390979.0 491308.0 0
394623.0 490931.0 0
395039.0 495660.0 0
398155.0 491923.0 0
400879.0 494925.0 0
405894.0 495149.0 0
407631.0 491929.0 0
411154.0 494917.0 0
415079.0 492796.0 0
418300.0 494038.0 0
424861.0 492797.0 0
421707.0 495954.0 0
429246.0 493921.0 0
430334.0 496285.0 0
433586.0 495633.0 0
436195.0 492858.0 0
437397.0 495566.0 0
439976.0 493618.0 0
443856.0 493826.0 0
444724.0 497561.0 0
447415.0 495194.0 0
451584.0 494977.0 0
456164.0 495259.0 0
460259.0 494094.0 0
459696.0 496312.0 0
463806.0 497515.0 0
466863.0 493796.0 0
470755.0 493522.0 0
472444.0 496915.0 0
476506.0 494715.0 0
481211.0 495447.0 0
484580.0 493613.0 0
484334.0 497985.0 0
487835.0 498309.0 0
488013.0 495500.0 0
491362.0 497318.0 0
3320.14 500046.0 0
10776.2 501846.0 0
14948.8 499551.0 0
18973.7 501486.0 0
22611.3 499944.0 0
26349.7 498153.0 0
26160.7 502342.0 0
30642.8 499548.0 0
36590.1 498576.0 0
33474.3 502163.0 0
40916.9 500206.0 0
44587.0 498659.0 0
49001.2 498772.0 0
53116.4 500235.0 0
56456.2 497872.0 0
57515.8 501123.0 0
60224.1 497678.0 0
62177.6 501364.0 0
64157.9 497260.0 0
67756.1 496684.0 0
66516.0 500140.0 0
69878.1 498982.0 0
76962.9 496965.0 0
73467.6 499916.0 0
77525.8 501094.0 0
80290.9 498652.0 0
81527.9 501803.0 0
84456.2 497971.0 0
89375.2 498865.0 0
93774.1 499045.0 0
97778.4 496456.0 0
101720.0 498961.0 0
105245.0 497546.0 0
108629.0 497332.0 0
111092.0 499057.0 0
114725.0 498934.0 0
118545.0 498847.0 0
120975.0 497062.0 0
123724.0 499233.0 0
127796.0 496273.0 0
131840.0 496744.0 0
133536.0 499658.0 0
136133.0 497182.0 0
140518.0 498412.0 0
143282.0 499384.0 0
144624.0 496087.0 0
149296.0 495353.0 0
145647.0 500753.0 0
150906.0 500005.0 0
158324.0 495594.0 0
156782.0 499359.0 0
161563.0 497169.0 0
161763.0 500764.0 0
165880.0 496090.0 0
169237.0 498724.0 0
172532.0 497136.0 0
176715.0 497068.0 0
180556.0 496639.0 0
183979.0 498897.0 0
187769.0 495471.0 0
188128.0 499119.0 0
192925.0 497245.0 0
198258.0 494805.0 0
197879.0 499376.0 0
201657.0 497530.0 0
205505.0 498699.0 0
210088.0 499148.0 0
213437.0 497000.0 0
217988.0 496724.0 0
222409.0 494309.0 0
223226.0 498497.0 0
231188.0 495429.0 0
234149.0 497474.0 0
239348.0 496003.0 0
244294.0 498656.0 0
249353.0 497554.0 0
254483.0 496810.0 0
259905.0 495873.0 0
266244.0 497255.0 0
270992.0 495723.0 0
273879.0 498219.0 0
276824.0 495523.0 0
280768.0 494494.0 0
284205.0 498300.0 0
288436.0 497188.0 0
292413.0 498456.0 0
296730.0 497856.0 0
298826.0 494428.0 0
300544.0 497566.0 0
304991.0 499268.0 0
310171.0 496964.0 0
314715.0 496274.0 0
317730.0 495476.0 0
318802.0 498777.0 0
320369.0 494827.0 0
322699.0 497649.0 0
327170.0 498847.0 0
331046.0 497451.0 0
333373.0 495809.0 0
336818.0 496086.0 0
337207.0 499277.0 0
341059.0 497917.0 0
345643.0 498318.0 0
350562.0 496496.0 0
356271.0 497922.0 0
360933.0 498713.0 0
365122.0 496689.0 0
370220.0 500358.0 0
374801.0 499101.0 0
377226.0 497308.0 0
378224.0 500564.0 0
380786.0 497549.0 0
385536.0 499102.0 0
390690.0 499273.0 0
394420.0 500110.0 0
399392.0 498367.0 0
402479.0 497997.0 0
405571.0 499218.0 0
409251.0 498912.0 0
413013.0 498824.0 0
416831.0 497154.0 0
416379.0 501132.0 0
421668.0 501142.0 0
426428.0 497235.0 0
426761.0 501472.0 0
431552.0 499543.0 0
440881.0 496650.0 0
437102.0 499742.0 0
442213.0 499932.0 0
449050.0 500335.0 0
454243.0 498781.0 0
458853.0 499992.0 0
463130.0 501411.0 0
467569.0 501668.0 0
468577.0 497691.0 0
471856.0 501039.0 0
475756.0 499687.0 0
479975.0 499050.0 0
486522.0 501184.0 0
489624.0 500202.0 0
492270.0 499773.0 0
491765.0 503276.0 0
495685.0 499998.0 0
2135.58 503395.0 0
2073.26 506297.0 0
6596.66 502554.0 0
9196.63 504418.0 0
5808.49 505991.0 0
14238.7 503949.0 0
11405.5 508003.0 0
22307.0 503850.0 0
18441.8 504955.0 0
20869.8 507129.0 0
25185.2 506738.0 0
29762.1 504251.0 0
37239.3 503758.0 0
33338.6 506158.0 0
36878.3 508370.0 0
41611.8 504631.0 0
45383.0 502222.0 0
46021.5 506536.0 0
49421.9 502916.0 0
50123.0 506274.0 0
54099.3 504245.0 0
58854.8 504591.0 0
62506.9 505381.0 0
66041.7 504107.0 0
69762.8 502367.0 0
73472.7 504562.0 0
78666.8 505386.0 0
85747.6 502555.0 0
91166.0 503720.0 0
97048.2 502071.0 0
101759.0 502841.0 0
106783.0 501738.0 0
112221.0 502783.0 0
112541.0 506094.0 0
116368.0 501915.0 0
115930.0 505789.0 0
119736.0 502095.0 0
123794.0 503927.0 0
129119.0 501314.0 0
133544.0 502833.0 0
137107.0 500896.0 0
137127.0 505161.0 0
141426.0 502419.0 0
144618.0 504235.0 0
148273.0 504206.0 0
154168.0 504624.0 0
159093.0 503045.0 0
163519.0 504478.0 0
165281.0 500202.0 0
168480.0 502342.0 0
173905.0 501957.0 0
170364.0 504478.0 0
179488.0 500685.0 0
182463.0 503889.0 0
186592.0 502718.0 0
190552.0 501627.0 0
194979.0 504089.0 0
201941.0 502442.0 0
207586.0 503361.0 0
214621.0 501321.0 0
219683.0 502029.0 0
224585.0 502943.0 0
228796.0 499653.0 0
229046.0 504158.0 0
233653.0 502132.0 0
238295.0 501034.0 0
242342.0 503462.0 0
247806.0 503003.0 0
252882.0 501702.0 0
257605.0 500854.0 0
261835.0 500695.0 0
265405.0 503150.0 0
270332.0 502133.0 0
275163.0 502594.0 0
278932.0 499296.0 0
278645.0 503169.0 0
282718.0 503555.0 0
288368.0 502053.0 0
293960.0 503311.0 0
298920.0 501283.0 0
302550.0 503954.0 0
309770.0 501301.0 0
307173.0 505123.0 0
314224.0 500580.0 0
318497.0 503678.0 0
323101.0 501760.0 0
327869.0 504483.0 0
333044.0 501388.0 0
339348.0 502967.0 0
343772.0 501375.0 0
348600.0 501828.0 0
353424.0 501780.0 0
358552.0 502513.0 0
361906.0 504977.0 0
364625.0 502151.0 0
368422.0 505185.0 0
372029.0 505204.0 0
375252.0 503029.0 0
379827.0 504818.0 0
381943.0 501216.0 0
384668.0 503845.0 0
388795.0 503028.0 0
393553.0 503407.0 0
397540.0 501184.0 0
399235.0 504983.0 0
402182.0 501684.0 0
407368.0 502841.0 0
412228.0 502876.0 0
417508.0 504843.0 0
421767.0 506622.0 0
425711.0 505294.0 0
430399.0 504064.0 0
434282.0 503152.0 0
434001.0 506664.0 0
440446.0 503061.0 0
437477.0 504812.0 0
444716.0 503204.0 0
451311.0 504966.0 0
454804.0 502916.0 0
454888.0 507102.0 0
459864.0 505303.0 0
464825.0 504222.0 0
464284.0 507400.0 0
468148.0 505816.0 0
471494.0 504779.0 0
473612.0 507339.0 0
476441.0 504040.0 0
482011.0 503044.0 0
487221.0 504221.0 0
484703.0 506815.0 0
487034.0 509406.0 0
489713.0 507190.0 0
497216.0 503301.0 0
498417.0 506058.0 0
2559.71 509617.0 0
7645.41 508735.0 0
5725.73 510082.0 0
12085.8 512812.0 0
16611.3 507801.0 0
15188.6 510696.0 0
18957.0 510434.0 0
22846.2 509721.0 0
25861.5 511523.0 0
29053.7 508608.0 0
33154.8 510745.0 0
41208.7 509381.0 0
45566.6 510553.0 0
49051.7 509888.0 0
56654.7 507290.0 0
53040.6 508555.0 0
56049.4 510642.0 0
60482.2 508729.0 0
65059.9 508155.0 0
68983.1 506566.0 0
68077.6 510716.0 0
71796.4 509230.0 0
75629.1 508498.0 0
82672.7 505970.0 0
79203.4 510476.0 0
86878.2 506609.0 0
84209.7 510515.0 0
89553.7 508860.0 0
94739.6 508004.0 0
99202.0 506311.0 0
99759.3 510366.0 0
103398.0 506744.0 0
108585.0 507232.0 0
113213.0 509902.0 0
119708.0 505950.0 0
122904.0 508573.0 0
127266.0 506599.0 0
129156.0 508989.0 0
131585.0 506420.0 0
134726.0 509013.0 0
138679.0 508964.0 0
141640.0 506519.0 0
145609.0 507865.0 0
150215.0 508404.0 0
154759.0 510036.0 0
159012.0 507316.0 0
167674.0 506455.0 0
172213.0 507432.0 0
178322.0 504948.0 0
176353.0 509150.0 0
181199.0 508370.0 0
189832.0 505104.0 0
186101.0 507599.0 0
190918.0 508782.0 0
199816.0 507439.0 0
204483.0 506991.0 0
202844.0 510814.0 0
208395.0 508626.0 0
212341.0 506143.0 0
217099.0 505977.0 0
221488.0 506578.0 0
226322.0 507301.0 0
231917.0 507755.0 0
237432.0 505785.0 0
241644.0 508809.0 0
247043.0 508690.0 0
252097.0 506713.0 0
256830.0 505618.0 0
261737.0 506438.0 0
267144.0 507879.0 0
272014.0 506871.0 0
277312.0 507470.0 0
282741.0 508893.0 0
286361.0 506365.0 0
290203.0 506851.0 0
294017.0 508021.0 0
298449.0 506846.0 0
303305.0 508655.0 0
312324.0 505038.0 0
311763.0 509645.0 0
315871.0 506867.0 0
315054.0 509514.0 0
318981.0 509938.0 0
322956.0 506739.0 0
326548.0 508529.0 0
332090.0 506419.0 0
334710.0 509742.0 0
335588.0 505658.0 0
339460.0 508131.0 0
345228.0 506214.0 0
350987.0 505952.0 0
355251.0 505794.0 0
353762.0 509706.0 0
359459.0 507647.0 0
365000.0 507694.0 0
370698.0 509768.0 0
375497.0 507106.0 0
379694.0 509455.0 0
383944.0 507743.0 0
387669.0 506535.0 0
387618.0 509806.0 0
391248.0 506181.0 0
392069.0 509846.0 0
395586.0 507102.0 0
399970.0 509142.0 0
404238.0 506409.0 0
409441.0 506735.0 0
407691.0 509712.0 0
413777.0 507380.0 0
411198.0 510701.0 0
414996.0 511180.0 0
418109.0 509069.0 0
421636.0 510802.0 0
425506.0 509673.0 0
429650.0 508165.0 0
433499.0 510619.0 0
437612.0 508714.0 0
442138.0 507255.0 0
445850.0 510745.0 0
447646.0 506703.0 0
451554.0 508190.0 0
449634.0 510198.0 0
453722.0 511590.0 0
458011.0 510080.0 0
462209.0 510751.0 0
467289.0 509555.0 0
470930.0 508594.0 0
476914.0 508360.0 0
474075.0 511676.0 0
480577.0 507464.0 0
479568.0 512001.0 0
483335.0 510274.0 0
486866.0 512364.0 0
491819.0 511368.0 0
494549.0 507230.0 0
498028.0 508457.0 0
497280.0 511585.0 0
3476.92 514292.0 0
8189.16 512098.0 0
8654.34 515660.0 0
13270.9 516688.0 0
16801.2 513832.0 0
21576.6 513718.0 0
29406.9 513146.0 0
26099.3 515381.0 0
32600.8 514480.0 0
37407.0 513673.0 0
43069.6 513742.0 0
44634.0 516651.0 0
52165.4 512359.0 0
47859.5 514046.0 0
51838.6 515983.0 0
55461.5 514287.0 0
59125.0 512571.0 0
59527.2 516109.0 0
63742.1 512634.0 0
68296.2 515104.0 0
71196.9 512602.0 0
72963.3 515423.0 0
74559.8 511904.0 0
77143.6 514854.0 0
81154.3 514046.0 0
84751.8 515505.0 0
88036.2 512338.0 0
91256.8 511651.0 0
95357.9 513823.0 0
100701.0 514968.0 0
104365.0 511442.0 0
105554.0 516386.0 0
108886.0 512507.0 0
112525.0 514961.0 0
115752.0 512514.0 0
118396.0 510064.0 0
122393.0 512725.0 0
126501.0 510662.0 0
126461.0 514679.0 0
131050.0 512170.0 0
136885.0 512440.0 0
142062.0 511314.0 0
144247.0 515130.0 0
146899.0 512089.0 0
151077.0 513368.0 0
159063.0 511784.0 0
155883.0 515262.0 0
163929.0 510190.0 0
169254.0 510827.0 0
166681.0 514584.0 0
172877.0 511186.0 0
171027.0 514553.0 0
175089.0 513781.0 0
179498.0 512848.0 0
184095.0 512237.0 0
187959.0 511625.0 0
191788.0 513727.0 0
195456.0 510040.0 0
199379.0 511740.0 0
206498.0 512566.0 0
210547.0 512042.0 0
214423.0 510954.0 0
218675.0 509899.0 0
223003.0 510892.0 0
227848.0 512183.0 0
232950.0 513195.0 0
237157.0 510855.0 0
244125.0 512591.0 0
240476.0 512836.0 0
251582.0 511830.0 0
259620.0 510411.0 0
255750.0 509959.0 0
257630.0 514028.0 0
263216.0 510704.0 0
266826.0 512913.0 0
270928.0 510970.0 0
279274.0 511668.0 0
275202.0 512789.0 0
282007.0 512643.0 0
287152.0 510364.0 0
291631.0 511487.0 0
296284.0 511442.0 0
300174.0 511375.0 0
304046.0 513851.0 0
307545.0 510275.0 0
314870.0 512804.0 0
310299.0 514544.0 0
324416.0 513003.0 0
329998.0 510289.0 0
329550.0 514604.0 0
333862.0 514487.0 0
338343.0 512913.0 0
343655.0 511934.0 0
349245.0 510337.0 0
352495.0 513453.0 0
357391.0 511057.0 0
357123.0 515687.0 0
361981.0 512065.0 0
366427.0 511455.0 0
365972.0 514766.0 0
369975.0 515313.0 0
374328.0 514412.0 0
375681.0 510814.0 0
378865.0 513714.0 0
383951.0 512810.0 0
389425.0 513861.0 0
393707.0 513924.0 0
396581.0 511496.0 0
400431.0 513529.0 0
404076.0 511306.0 0
404154.0 515129.0 0
408370.0 514102.0 0
413194.0 514735.0 0
418485.0 513843.0 0
424466.0 514189.0 0
429261.0 512607.0 0
434311.0 515326.0 0
437444.0 512292.0 0
441406.0 511686.0 0
439799.0 516066.0 0
444624.0 514599.0 0
449589.0 514118.0 0
454071.0 515897.0 0
458241.0 514501.0 0
460390.0 517831.0 0
462614.0 514772.0 0
465664.0 512804.0 0
466417.0 515586.0 0
469657.0 512910.0 0
473006.0 516030.0 0
477465.0 515705.0 0
483478.0 514475.0 0
488847.0 515664.0 0
494092.0 515242.0 0
491143.0 518558.0 0
498229.0 514660.0 0
1369.58 518207.0 0
5317.98 518745.0 0
2333.7 521456.0 0
9545.42 519892.0 0
14878.9 521344.0 0
18605.3 517955.0 0
19225.0 523232.0 0
23032.7 517313.0 0
21799.9 520459.0 0
25657.9 519448.0 0
29742.0 517413.0 0
34373.3 517284.0 0
33000.3 520628.0 0
40689.5 516661.0 0
37771.8 519345.0 0
42763.3 519529.0 0
47841.4 518803.0 0
52088.5 519298.0 0
55614.8 517901.0 0
54678.0 521610.0 0
59349.3 520513.0 0
63667.5 517243.0 0
63409.5 521118.0 0
67400.8 519298.0 0
71161.9 518223.0 0
75065.6 519084.0 0
79986.0 518201.0 0
84301.1 519211.0 0
87056.3 518328.0 0
89882.9 515720.0 0
89618.7 519566.0 0
93220.5 518864.0 0
97400.9 518126.0 0
101206.0 520118.0 0
109682.0 518834.0 0
114364.0 519745.0 0
118088.0 515559.0 0
122953.0 517236.0 0
126348.0 518572.0 0
129576.0 517218.0 0
134274.0 516524.0 0
139673.0 516367.0 0
143571.0 519146.0 0
147904.0 517354.0 0
152044.0 517545.0 0
155281.0 520093.0 0
161668.0 516286.0 0
168605.0 518156.0 0
173583.0 518828.0 0
177914.0 516767.0 0
182275.0 516721.0 0
187240.0 516012.0 0
193405.0 518900.0 0
196676.0 515025.0 0
199256.0 518260.0 0
200793.0 514968.0 0
204378.0 516883.0 0
209599.0 516410.0 0
215297.0 516539.0 0
219895.0 514020.0 0
224082.0 515434.0 0
220732.0 518980.0 0
228164.0 517072.0 0
232608.0 518007.0 0
237456.0 516027.0 0
242175.0 516083.0 0
247829.0 516618.0 0
253583.0 516238.0 0
262319.0 514904.0 0
262207.0 519509.0 0
266573.0 517970.0 0
271023.0 515493.0 0
275081.0 517446.0 0
279567.0 515863.0 0
285035.0 514599.0 0
289207.0 515419.0 0
293586.0 515834.0 0
298741.0 515580.0 0
295743.0 519467.0 0
302532.0 518283.0 0
306871.0 518223.0 0
311478.0 519629.0 0
314630.0 516810.0 0
318847.0 515081.0 0
317610.0 519117.0 0
322072.0 519038.0 0
327172.0 518333.0 0
331270.0 517747.0 0
334719.0 519103.0 0
339781.0 518078.0 0
344136.0 516187.0 0
345768.0 519895.0 0
348322.0 515133.0 0
352206.0 517765.0 0
359802.0 519853.0 0
362649.0 517055.0 0
367185.0 519320.0 0
373091.0 520192.0 0
377442.0 517564.0 0
381788.0 517472.0 0
386970.0 517772.0 0
392578.0 517964.0 0
398064.0 521146.0 0
397051.0 516343.0 0
401539.0 517778.0 0
406307.0 518599.0 0
410612.0 518109.0 0
415973.0 518140.0 0
420830.0 518042.0 0
425351.0 518396.0 0
429501.0 516673.0 0
427894.0 519052.0 0
433352.0 519476.0 0
437147.0 519318.0 0
440421.0 519913.0 0
443905.0 518755.0 0
447771.0 517603.0 0
451588.0 518544.0 0
456792.0 519610.0 0
463847.0 518339.0 0
467172.0 519056.0 0
465364.0 521673.0 0
469579.0 516586.0 0
471013.0 520999.0 0
474924.0 519101.0 0
478295.0 519832.0 0
481543.0 517937.0 0
485543.0 517631.0 0
484517.0 520723.0 0
488094.0 520307.0 0
494344.0 519292.0 0
497756.0 517546.0 0
497383.0 521413.0 0
2421.8 525473.0 0
6075.37 523021.0 0
10484.6 524415.0 0
15683.6 526198.0 0
23993.0 524141.0 0
28785.2 521862.0 0
28388.5 526099.0 0
31965.5 524599.0 0
35851.1 523249.0 0
40604.1 523225.0 0
37487.6 526170.0 0
45473.6 522720.0 0
44101.4 526688.0 0
47973.8 525468.0 0
50478.3 522793.0 0
53533.5 524552.0 0
57178.3 524449.0 0
61793.1 525126.0 0
66245.4 522921.0 0
71143.5 522361.0 0
76218.3 523656.0 0
81838.6 523175.0 0
86823.5 521545.0 0
86604.6 525598.0 0
91137.4 523200.0 0
96237.1 522318.0 0
105767.0 521802.0 0
110619.0 523871.0 0
115349.0 524165.0 0
119697.0 521196.0 0
124164.0 520896.0 0
123644.0 524636.0 0
127733.0 522235.0 0
131919.0 520769.0 0
136401.0 520769.0 0
138866.0 523923.0 0
139948.0 520582.0 0
141998.0 522616.0 0
146058.0 522996.0 0
150845.0 521645.0 0
159506.0 521565.0 0
155078.0 525214.0 0
164673.0 520751.0 0
162387.0 524122.0 0
169238.0 522501.0 0
173603.0 524128.0 0
179346.0 521991.0 0
185255.0 520750.0 0
189786.0 522444.0 0
193857.0 523378.0 0
197487.0 521774.0 0
201998.0 521324.0 0
207013.0 521192.0 0
211944.0 520991.0 0
216705.0 522443.0 0
224996.0 519270.0 0
222912.0 523616.0 0
228362.0 521660.0 0
233472.0 522702.0 0
238355.0 521268.0 0
243113.0 520366.0 0
247438.0 522805.0 0
252201.0 520974.0 0
257476.0 519637.0 0
260644.0 523119.0 0
265270.0 523271.0 0
271413.0 521101.0 0
278143.0 520711.0 0
283718.0 519768.0 0
281032.0 524090.0 0
290141.0 520621.0 0
295140.0 524251.0 0
299648.0 521555.0 0
304326.0 522383.0 0
308360.0 522092.0 0
315529.0 523401.0 0
320756.0 523916.0 0
325456.0 523088.0 0
331038.0 522774.0 0
337091.0 523712.0 0
342170.0 522889.0 0
346369.0 524823.0 0
350052.0 521705.0 0
355420.0 522015.0 0
360785.0 523914.0 0
363470.0 520825.0 0
365522.0 524058.0 0
369003.0 522998.0 0
372107.0 525372.0 0
378953.0 521815.0 0
384083.0 521862.0 0
386590.0 525598.0 0
390072.0 522257.0 0
394239.0 521351.0 0
395054.0 525850.0 0
400101.0 525582.0 0
402947.0 521840.0 0
404098.0 525419.0 0
407732.0 522910.0 0
412991.0 521962.0 0
418237.0 522584.0 0
423365.0 522495.0 0
429354.0 522155.0 0
435476.0 523506.0 0
439291.0 522165.0 0
440709.0 526089.0 0
443164.0 522588.0 0
448148.0 522073.0 0
453193.0 522273.0 0
457310.0 525230.0 0
461347.0 521925.0 0
467255.0 524630.0 0
472314.0 526434.0 0
475950.0 522963.0 0
477766.0 526740.0 0
481047.0 523199.0 0
486753.0 524674.0 0
491914.0 522880.0 0
496779.0 525642.0 0
2054.13 529557.0 0
5460.09 532129.0 0
6516.59 527615.0 0
8992.33 530974.0 0
11908.6 528810.0 0
20044.6 527996.0 0
25174.5 530304.0 0
30632.7 529297.0 0
34250.8 527670.0 0
37423.5 530061.0 0
40390.5 527619.0 0
51330.3 526759.0 0
47719.2 530016.0 0
54546.6 526876.0 0
53425.5 530491.0 0
57773.1 528437.0 0
61916.2 530180.0 0
67149.2 527451.0 0
71129.1 531064.0 0
72358.3 526663.0 0
75592.7 528926.0 0
79027.3 527062.0 0
82769.9 527957.0 0
90227.5 527560.0 0
94731.1 527074.0 0
100171.0 525814.0 0
102409.0 530170.0 0
105656.0 526670.0 0
109988.0 528438.0 0
114220.0 528244.0 0
119229.0 526284.0 0
122905.0 529393.0 0
127848.0 527367.0 0
133865.0 525720.0 0
138733.0 527825.0 0
142233.0 525904.0 0
145480.0 527411.0 0
149524.0 526423.0 0
152432.0 529987.0 0
160062.0 527061.0 0
163872.0 528987.0 0
165612.0 525350.0 0
169559.0 527496.0 0
173765.0 528247.0 0
176823.0 526536.0 0
180251.0 527507.0 0
184600.0 526006.0 0
189031.0 526464.0 0
192538.0 526739.0 0
196632.0 526115.0 0
200326.0 525004.0 0
200327.0 529544.0 0
204809.0 526163.0 0
209705.0 525039.0 0
213698.0 526383.0 0
210034.0 529421.0 0
218257.0 527420.0 0
223135.0 528799.0 0
226976.0 526042.0 0
231518.0 527189.0 0
237451.0 527059.0 0
242860.0 525223.0 0
247028.0 526982.0 0
251029.0 525941.0 0
255580.0 524749.0 0
259298.0 528991.0 0
264425.0 527873.0 0
269597.0 526514.0 0
275753.0 526178.0 0
281584.0 528839.0 0
285821.0 525137.0 0
290751.0 527182.0 0
299939.0 526641.0 0
295221.0 529285.0 0
305181.0 527430.0 0
310362.0 526015.0 0
315164.0 529840.0 0
323479.0 526674.0 0
320344.0 528433.0 0
326294.0 526784.0 0
329357.0 527740.0 0
333733.0 527739.0 0
341361.0 527893.0 0
346982.0 530403.0 0
351524.0 526355.0 0
357272.0 528144.0 0
363088.0 528168.0 0
368341.0 528281.0 0
373563.0 530056.0 0
376455.0 525707.0 0
377988.0 529691.0 0
381655.0 526794.0 0
386798.0 530447.0 0
390431.0 527096.0 0
392706.0 531233.0 0
398208.0 529905.0 0
402538.0 529360.0 0
411127.0 526208.0 0
407217.0 527886.0 0
411435.0 530656.0 0
415669.0 527341.0 0
420862.0 526800.0 0
426088.0 526555.0 0
423883.0 530621.0 0
431570.0 527165.0 0
428539.0 530811.0 0
433461.0 531593.0 0
436360.0 528482.0 0
439947.0 530458.0 0
445886.0 526235.0 0
443998.0 530270.0 0
451520.0 526857.0 0
448044.0 529989.0 0
455762.0 530146.0 0
462777.0 526490.0 0
459664.0 529380.0 0
463028.0 530930.0 0
467117.0 529355.0 0
471372.0 531113.0 0
475539.0 530362.0 0
482611.0 527769.0 0
479701.0 530286.0 0
486553.0 529904.0 0
491404.0 527992.0 0
497085.0 530403.0 0
2072.8 533374.0 0
9017.35 534132.0 0
16233.4 530934.0 0
12638.4 533136.0 0
15906.1 535774.0 0
20073.0 533334.0 0
24547.0 535993.0 0
29766.3 533773.0 0
33757.6 531797.0 0
37315.2 534106.0 0
41601.5 535832.0 0
42091.7 531465.0 0
45552.7 534198.0 0
50065.6 534279.0 0
54650.7 534988.0 0
57920.2 532449.0 0
61283.8 535035.0 0
65980.6 533008.0 0
69856.2 535603.0 0
74806.5 533601.0 0
79919.2 531781.0 0
86464.1 530848.0 0
83599.8 535489.0 0
91921.4 531131.0 0
93668.4 535095.0 0
97691.1 531424.0 0
102445.0 534335.0 0
106736.0 531785.0 0
111835.0 532441.0 0
118057.0 530738.0 0
116034.0 534793.0 0
121406.0 534667.0 0
126614.0 532762.0 0
129898.0 535015.0 0
131921.0 531326.0 0
132904.0 535305.0 0
137400.0 532365.0 0
142378.0 530134.0 0
147364.0 531493.0 0
152155.0 534587.0 0
157512.0 532088.0 0
162685.0 532852.0 0
167007.0 531794.0 0
172022.0 532306.0 0
176991.0 530589.0 0
182050.0 532136.0 0
187581.0 530504.0 0
190959.0 533930.0 0
194793.0 530752.0 0
205540.0 531668.0 0
214585.0 531076.0 0
219593.0 532574.0 0
224096.0 534098.0 0
227909.0 531023.0 0
233335.0 531753.0 0
238690.0 533029.0 0
244017.0 530553.0 0
249363.0 530002.0 0
253816.0 529322.0 0
251779.0 532875.0 0
255700.0 533703.0 0
263636.0 531680.0 0
260391.0 534614.0 0
267513.0 530618.0 0
272119.0 531047.0 0
277306.0 532355.0 0
282254.0 534039.0 0
286686.0 530616.0 0
291583.0 532158.0 0
299431.0 532161.0 0
295405.0 534169.0 0
304087.0 531912.0 0
309085.0 532024.0 0
312966.0 534000.0 0
319796.0 533354.0 0
325261.0 531481.0 0
331168.0 532038.0 0
336973.0 532258.0 0
342322.0 533608.0 0
349106.0 535019.0 0
352848.0 531880.0 0
360888.0 532869.0 0
356644.0 535177.0 0
365498.0 532005.0 0
369846.0 533890.0 0
376883.0 533836.0 0
381735.0 532768.0 0
388875.0 535575.0 0
393395.0 535783.0 0
396532.0 533557.0 0
401196.0 534212.0 0
406655.0 532714.0 0
414852.0 533425.0 0
418980.0 531146.0 0
422302.0 534255.0 0
426487.0 534843.0 0
430665.0 534313.0 0
434767.0 535850.0 0
437270.0 532922.0 0
441574.0 534382.0 0
447178.0 535024.0 0
451534.0 532089.0 0
454967.0 534764.0 0
459585.0 533542.0 0
462018.0 536923.0 0
464060.0 534193.0 0
468239.0 534086.0 0
473704.0 535125.0 0
478002.0 533611.0 0
483007.0 534379.0 0
488492.0 534020.0 0
493117.0 532732.0 0
497652.0 535021.0 0
1782.48 536696.0 0
2681.55 540628.0 0
6250.47 537275.0 0
11480.1 537450.0 0
14786.5 540357.0 0
19603.6 538350.0 0
23898.6 541001.0 0
29047.9 538349.0 0
33301.6 536651.0 0
32656.1 541046.0 0
37669.7 539269.0 0
44535.8 536823.0 0
43350.2 540193.0 0
47479.9 537714.0 0
51187.2 538046.0 0
51464.9 540594.0 0
55085.2 539491.0 0
58015.5 536661.0 0
60294.9 539863.0 0
65160.8 537806.0 0
69461.9 540699.0 0
73570.8 537791.0 0
78329.6 537234.0 0
82057.9 539612.0 0
86120.2 539463.0 0
88814.8 535397.0 0
90010.3 539709.0 0
93724.5 539405.0 0
98253.3 537232.0 0
102852.0 538974.0 0
106748.0 536336.0 0
111711.0 537541.0 0
116654.0 539229.0 0
120985.0 539383.0 0
125717.0 537875.0 0
130777.0 538786.0 0
136401.0 538025.0 0
142611.0 535582.0 0
147994.0 536313.0 0
151534.0 539150.0 0
155824.0 537259.0 0
160322.0 536841.0 0
165652.0 536809.0 0
171035.0 537531.0 0
176562.0 535883.0 0
181526.0 538428.0 0
186326.0 535886.0 0
190716.0 538848.0 0
195360.0 536243.0 0
198350.0 539757.0 0
201142.0 535548.0 0
205930.0 536086.0 0
210360.0 534785.0 0
215752.0 536153.0 0
219868.0 536715.0 0
223171.0 538643.0 0
227168.0 538293.0 0
229988.0 535473.0 0
234664.0 536559.0 0
238977.0 537970.0 0
242985.0 536120.0 0
247900.0 534761.0 0
252309.0 537650.0 0
257118.0 539251.0 0
264830.0 535501.0 0
262172.0 539294.0 0
269043.0 534669.0 0
267582.0 539571.0 0
273696.0 536353.0 0
281812.0 538499.0 0
287206.0 536240.0 0
292469.0 536770.0 0
298647.0 536897.0 0
303325.0 536326.0 0
307934.0 537047.0 0
309558.0 540189.0 0
312197.0 537411.0 0
315855.0 535225.0 0
317093.0 539629.0 0
322015.0 537902.0 0
327541.0 537545.0 0
333386.0 536928.0 0
337805.0 537000.0 0
341431.0 538412.0 0
345562.0 536666.0 0
349067.0 538722.0 0
352539.0 536833.0 0
355830.0 540135.0 0
360510.0 537887.0 0
364916.0 536137.0 0
363990.0 540096.0 0
369111.0 540134.0 0
373995.0 537151.0 0
378367.0 537999.0 0
383570.0 538413.0 0
397168.0 538371.0 0
401898.0 538953.0 0
405660.0 537393.0 0
410761.0 535378.0 0
409704.0 540276.0 0
414407.0 538386.0 0
418695.0 536187.0 0
423489.0 538535.0 0
431552.0 536909.0 0
429139.0 537636.0 0
427775.0 541373.0 0
432620.0 539685.0 0
438510.0 537127.0 0
442955.0 539428.0 0
448425.0 540354.0 0
451795.0 537546.0 0
457837.0 539024.0 0
462794.0 540394.0 0
465966.0 538103.0 0
470155.0 537823.0 0
473808.0 540042.0 0
478277.0 537422.0 0
478206.0 540909.0 0
481937.0 539636.0 0
487038.0 539008.0 0
492559.0 537304.0 0
497283.0 539427.0 0
2523.49 544811.0 0
9368.3 542034.0 0
13671.9 544905.0 0
18987.2 543946.0 0
28334.3 542679.0 0
31344.4 545839.0 0
36182.1 544515.0 0
40534.9 543344.0 0
44143.4 544801.0 0
48058.6 542229.0 0
52557.6 543700.0 0
56881.5 543397.0 0
60365.9 544840.0 0
64417.7 542479.0 0
67930.5 545125.0 0
74370.0 541875.0 0
76101.2 545354.0 0
78883.4 542389.0 0
83940.0 544009.0 0
91253.1 543466.0 0
96754.3 543169.0 0
102439.0 544044.0 0
107588.0 541457.0 0
112978.0 542906.0 0
118736.0 544171.0 0
122810.0 546453.0 0
124129.0 542659.0 0
128752.0 543097.0 0
133586.0 542989.0 0
137757.0 543488.0 0
140811.0 540812.0 0
146184.0 541418.0 0
151294.0 544082.0 0
155453.0 541573.0 0
162613.0 540314.0 0
159689.0 543390.0 0
168066.0 540946.0 0
164887.0 544359.0 0
172404.0 542615.0 0
177231.0 540970.0 0
180760.0 542691.0 0
185975.0 541658.0 0
194751.0 540875.0 0
191295.0 543746.0 0
199585.0 542839.0 0
203214.0 540893.0 0
207942.0 539565.0 0
212479.0 539597.0 0
218438.0 540892.0 0
226285.0 542708.0 0
231077.0 540251.0 0
235912.0 540916.0 0
240980.0 541581.0 0
243736.0 544814.0 0
246425.0 540380.0 0
251766.0 542104.0 0
259596.0 543135.0 0
264433.0 543970.0 0
269009.0 544231.0 0
272506.0 541407.0 0
277515.0 540207.0 0
285228.0 541229.0 0
290343.0 541301.0 0
295775.0 540368.0 0
298298.0 544884.0 0
300802.0 540706.0 0
305707.0 540969.0 0
308672.0 544162.0 0
312805.0 541974.0 0
321085.0 542911.0 0
316568.0 544638.0 0
325847.0 542689.0 0
331347.0 542397.0 0
337096.0 541097.0 0
341675.0 542332.0 0
343866.0 545156.0 0
345619.0 541222.0 0
351208.0 541664.0 0
354103.0 544874.0 0
360694.0 543482.0 0
371588.0 544729.0 0
375034.0 541896.0 0
379557.0 541703.0 0
377843.0 544766.0 0
385975.0 544143.0 0
391473.0 540722.0 0
396187.0 542690.0 0
393815.0 545044.0 0
400288.0 542728.0 0
404939.0 541925.0 0
414169.0 543977.0 0
418884.0 541010.0 0
423202.0 542727.0 0
428552.0 546079.0 0
432616.0 544048.0 0
437646.0 541623.0 0
445309.0 543660.0 0
449753.0 544969.0 0
453225.0 541776.0 0
457215.0 543981.0 0
460621.0 543086.0 0
468937.0 541681.0 0
464731.0 544141.0 0
472244.0 544182.0 0
475788.0 543525.0 0
479980.0 544972.0 0
484205.0 543157.0 0
487858.0 543342.0 0
492230.0 542435.0 0
497394.0 544079.0 0
2109.12 548752.0 0
6792.73 547206.0 0
10485.1 545948.0 0
11865.1 548978.0 0
16061.8 548531.0 0
20416.8 548841.0 0
24770.7 546477.0 0
23625.4 551292.0 0
28784.3 550330.0 0
35264.0 550422.0 0
40455.6 547370.0 0
44950.9 549054.0 0
49232.8 547021.0 0
49373.3 551626.0 0
55242.4 549090.0 0
63874.9 547663.0 0
72180.7 545969.0 0
68763.3 549258.0 0
76127.8 548336.0 0
73158.6 550643.0 0
79541.2 546984.0 0
83820.3 549669.0 0
88220.8 546692.0 0
93202.7 548168.0 0
99264.8 548656.0 0
107080.0 547302.0 0
112413.0 547872.0 0
116672.0 548769.0 0
120708.0 549118.0 0
126311.0 547010.0 0
130954.0 547094.0 0
136279.0 548249.0 0
141719.0 545711.0 0
146976.0 547837.0 0
151916.0 548254.0 0
155781.0 546274.0 0
160405.0 548436.0 0
169233.0 546164.0 0
177193.0 546419.0 0
183131.0 546168.0 0
187595.0 546196.0 0
185815.0 549935.0 0
191532.0 548791.0 0
196148.0 544963.0 0
195976.0 549080.0 0
202365.0 546213.0 0
207767.0 544735.0 0
213777.0 544809.0 0
219160.0 545913.0 0
223355.0 546416.0 0
227998.0 548181.0 0
232376.0 545047.0 0
232941.0 549539.0 0
237672.0 545476.0 0
241515.0 548594.0 0
248813.0 546055.0 0
255243.0 544958.0 0
260505.0 548739.0 0
267240.0 548974.0 0
274905.0 546036.0 0
281114.0 545129.0 0
287324.0 545983.0 0
293170.0 546242.0 0
300660.0 549861.0 0
303148.0 545023.0 0
307084.0 549212.0 0
312192.0 546431.0 0
319972.0 547267.0 0
316281.0 549099.0 0
323777.0 546448.0 0
328669.0 547926.0 0
334247.0 547086.0 0
339370.0 546004.0 0
344133.0 549813.0 0
348760.0 546003.0 0
353114.0 549200.0 0
357486.0 547062.0 0
361276.0 548987.0 0
366572.0 546422.0 0
371575.0 548445.0 0
374874.0 546179.0 0
375219.0 549480.0 0
378531.0 548138.0 0
381124.0 545264.0 0
383251.0 549769.0 0
390483.0 545681.0 0
388378.0 548920.0 0
392931.0 549077.0 0
397674.0 546577.0 0
401442.0 549991.0 0
403526.0 545953.0 0
405643.0 549133.0 0
408585.0 545770.0 0
415337.0 549781.0 0
419707.0 546010.0 0
424573.0 545871.0 0
423153.0 549087.0 0
427325.0 550646.0 0
432577.0 549273.0 0
436380.0 546255.0 0
437937.0 550556.0 0
441145.0 546138.0 0
446091.0 548451.0 0
450831.0 549602.0 0
454254.0 546685.0 0
457541.0 550097.0 0
460753.0 546942.0 0
464983.0 549015.0 0
468904.0 546220.0 0
469986.0 550814.0 0
475069.0 548134.0 0
482561.0 548141.0 0
479742.0 551274.0 0
486745.0 547315.0 0
492147.0 547907.0 0
497364.0 548587.0 0
3369.32 553350.0 0
8540.72 551586.0 0
12487.8 553023.0 0
18225.4 554086.0 0
26199.9 554564.0 0
31443.9 555331.0 0
40819.2 551775.0 0
41537.0 554702.0 0
38053.4 556436.0 0
44973.3 554043.0 0
52614.9 554335.0 0
57224.5 555537.0 0
60767.1 551664.0 0
65318.8 552106.0 0
69377.6 553941.0 0
74030.3 555558.0 0
78266.4 551912.0 0
82734.9 554726.0 0
88672.3 551173.0 0
92929.0 553983.0 0
96206.0 551387.0 0
98724.8 553626.0 0
103766.0 552386.0 0
109625.0 552365.0 0
114178.0 551634.0 0
118279.0 552960.0 0
123827.0 553287.0 0
128584.0 550884.0 0
132540.0 551619.0 0
136386.0 554608.0 0
141510.0 551183.0 0
146452.0 553707.0 0
150410.0 551520.0 0
155366.0 551706.0 0
160942.0 554129.0 0
165895.0 550289.0 0
172057.0 550176.0 0
169537.0 553646.0 0
176673.0 551688.0 0
181081.0 550761.0 0
184354.0 554340.0 0
189253.0 553513.0 0
199749.0 550616.0 0
195066.0 553884.0 0
204768.0 550310.0 0
200408.0 554674.0 0
203857.0 554868.0 0
208977.0 549542.0 0
207783.0 553926.0 0
213603.0 550561.0 0
218433.0 550379.0 0
223202.0 550919.0 0
227548.0 553736.0 0
232449.0 553852.0 0
237336.0 550784.0 0
241623.0 553364.0 0
245529.0 550401.0 0
249668.0 551115.0 0
254353.0 550383.0 0
251751.0 554840.0 0
268924.0 553906.0 0
272669.0 551012.0 0
278139.0 550628.0 0
282312.0 549952.0 0
282682.0 554314.0 0
285794.0 550544.0 0
290057.0 550268.0 0
287363.0 553852.0 0
294753.0 551356.0 0
291232.0 554690.0 0
294593.0 554785.0 0
312360.0 550845.0 0
315624.0 553692.0 0
319668.0 551863.0 0
324059.0 550830.0 0
328457.0 553500.0 0
332733.0 551657.0 0
337493.0 550934.0 0
341115.0 553800.0 0
345546.0 555010.0 0
349211.0 551606.0 0
354025.0 553376.0 0
357029.0 550600.0 0
358263.0 554514.0 0
362689.0 553238.0 0
367431.0 552239.0 0
372794.0 553041.0 0
377818.0 552350.0 0
381237.0 553901.0 0
387699.0 553985.0 0
396912.0 550801.0 0
393566.0 554366.0 0
401187.0 554450.0 0
397910.0 553807.0 0
405388.0 553156.0 0
409973.0 551131.0 0
419896.0 550434.0 0
418598.0 553350.0 0
422975.0 553369.0 0
430533.0 552670.0 0
428321.0 555551.0 0
434229.0 555189.0 0
439554.0 554561.0 0
442727.0 551860.0 0
447865.0 553829.0 0
453577.0 553559.0 0
457989.0 554202.0 0
461724.0 552419.0 0
465915.0 553429.0 0
469852.0 555868.0 0
474878.0 553995.0 0
484222.0 551172.0 0
483024.0 555269.0 0
488727.0 552641.0 0
494330.0 552599.0 0
498288.0 552348.0 0
497876.0 555743.0 0
3683.2 559800.0 0
8923.78 556372.0 0
13717.6 558902.0 0
18871.1 560700.0 0
23160.1 557864.0 0
27746.2 559044.0 0
33634.7 560657.0 0
43360.7 559278.0 0
49105.8 557689.0 0
53941.6 559861.0 0
59213.1 560863.0 0
63132.9 556518.0 0
69179.4 559384.0 0
74899.2 560678.0 0
78603.3 557196.0 0
87664.4 556113.0 0
82871.2 559642.0 0
91958.3 559123.0 0
96759.2 557715.0 0
101412.0 557162.0 0
107201.0 558064.0 0
113872.0 556636.0 0
119416.0 557548.0 0
124224.0 559131.0 0
129748.0 556277.0 0
133515.0 560018.0 0
141952.0 556521.0 0
146402.0 558832.0 0
151469.0 555962.0 0
156410.0 556597.0 0
166522.0 556657.0 0
173195.0 555952.0 0
170236.0 559889.0 0
178923.0 555579.0 0
182778.0 558881.0 0
187748.0 558458.0 0
198461.0 558145.0 0
203304.0 559291.0 0
209042.0 559202.0 0
212251.0 555107.0 0
214335.0 559011.0 0
217021.0 554982.0 0
218730.0 559284.0 0
221809.0 555456.0 0
222816.0 559585.0 0
226910.0 558508.0 0
232207.0 559190.0 0
236992.0 555873.0 0
242265.0 558340.0 0
246695.0 555408.0 0
252762.0 559245.0 0
257206.0 555884.0 0
263665.0 554803.0 0
261217.0 559472.0 0
268271.0 558962.0 0
272913.0 556109.0 0
277665.0 555649.0 0
282137.0 559459.0 0
290070.0 559202.0 0
294416.0 558055.0 0
298331.0 555124.0 0
304158.0 555191.0 0
310050.0 555175.0 0
314644.0 558964.0 0
319197.0 556335.0 0
324074.0 555999.0 0
328090.0 559476.0 0
332486.0 556663.0 0
337157.0 555670.0 0
340885.0 558385.0 0
350631.0 556874.0 0
356256.0 559883.0 0
361539.0 557539.0 0
365345.0 556114.0 0
369440.0 556994.0 0
374223.0 557798.0 0
378706.0 557028.0 0
383454.0 557111.0 0
390573.0 558584.0 0
398026.0 557842.0 0
404028.0 558656.0 0
409300.0 556464.0 0
412231.0 559901.0 0
414720.0 555653.0 0
419993.0 557138.0 0
424476.0 557313.0 0
422660.0 559784.0 0
430734.0 559317.0 0
434815.0 560498.0 0
438966.0 558633.0 0
443132.0 556340.0 0
442745.0 560325.0 0
446951.0 559175.0 0
451766.0 558228.0 0
456146.0 557729.0 0
460948.0 557235.0 0
465556.0 557508.0 0
473846.0 558889.0 0
478474.0 558093.0 0
483199.0 560506.0 0
487441.0 557821.0 0
492430.0 556895.0 0
490826.0 561076.0 0
496472.0 559679.0 0
9373.25 562094.0 0
14517.6 564901.0 0
20087.3 565001.0 0
24123.7 562843.0 0
29040.1 563346.0 0
32748.7 565864.0 0
39074.1 562711.0 0
47367.1 563303.0 0
51225.1 566285.0 0
55402.5 564582.0 0
62161.7 564270.0 0
64260.2 561167.0 0
66884.9 563693.0 0
71490.6 565417.0 0
77952.8 564474.0 0
79057.3 560953.0 0
82861.5 564623.0 0
87477.4 561211.0 0
91433.2 563366.0 0
96141.5 562708.0 0
101680.0 562185.0 0
106716.0 563947.0 0
111878.0 561794.0 0
116646.0 560734.0 0
116774.0 565691.0 0
120251.0 561682.0 0
123559.0 564002.0 0
128998.0 563018.0 0
135033.0 564806.0 0
138246.0 560194.0 0
142997.0 562435.0 0
147477.0 564626.0 0
150729.0 560968.0 0
152204.0 565450.0 0
155871.0 561205.0 0
161422.0 560087.0 0
166439.0 562237.0 0
174293.0 561072.0 0
178572.0 560364.0 0
182403.0 564237.0 0
188432.0 563975.0 0
193356.0 560168.0 0
198739.0 563167.0 0
206050.0 563653.0 0
212313.0 563726.0 0
216436.0 562365.0 0
220531.0 563521.0 0
225942.0 563525.0 0
230797.0 564093.0 0
238426.0 560020.0 0
236046.0 564352.0 0
242289.0 563807.0 0
247975.0 560274.0 0
247100.0 564271.0 0
251149.0 563473.0 0
257874.0 560753.0 0
255799.0 564247.0 0
260467.0 563670.0 0
265377.0 563850.0 0
273032.0 560563.0 0
270244.0 563739.0 0
275023.0 564939.0 0
277479.0 560368.0 0
280314.0 564378.0 0
284773.0 564226.0 0
286150.0 560595.0 0
289411.0 564093.0 0
293903.0 562391.0 0
298895.0 560872.0 0
303907.0 560356.0 0
305355.0 563938.0 0
308855.0 560834.0 0
314382.0 564487.0 0
321502.0 560804.0 0
324906.0 563481.0 0
329254.0 564804.0 0
332165.0 561131.0 0
336367.0 560229.0 0
334532.0 564699.0 0
340740.0 564111.0 0
345837.0 560455.0 0
350886.0 562102.0 0
361064.0 561176.0 0
365545.0 560932.0 0
371305.0 561977.0 0
376847.0 561662.0 0
381080.0 560671.0 0
386306.0 561049.0 0
382929.0 564321.0 0
390361.0 562788.0 0
394535.0 561659.0 0
399955.0 562758.0 0
405209.0 564427.0 0
408616.0 561163.0 0
416816.0 561076.0 0
412961.0 563330.0 0
421793.0 563451.0 0
426487.0 561025.0 0
431765.0 563855.0 0
438167.0 563190.0 0
444967.0 563497.0 0
450450.0 563550.0 0
454546.0 561167.0 0
455841.0 565207.0 0
458509.0 561466.0 0
463420.0 562020.0 0
469324.0 561337.0 0
479102.0 562811.0 0
474376.0 564790.0 0
483691.0 565205.0 0
487133.0 561912.0 0
494160.0 563268.0 0
497998.0 563444.0 0
3223.42 566121.0 0
9417.33 567181.0 0
6255.97 570418.0 0
13075.4 570525.0 0
18714.6 569388.0 0
22778.2 567025.0 0
23708.7 570666.0 0
26779.8 567272.0 0
32968.4 569898.0 0
37454.6 568075.0 0
43111.1 567148.0 0
47988.0 569604.0 0
54518.8 569552.0 0
59382.6 567386.0 0
64913.5 568040.0 0
75860.6 567873.0 0
73003.4 570588.0 0
79908.3 568623.0 0
84263.2 568933.0 0
87938.9 566266.0 0
93456.4 567313.0 0
99144.2 566028.0 0
97630.4 569864.0 0
103099.0 567010.0 0
106914.0 568247.0 0
111072.0 566681.0 0
121642.0 567949.0 0
126294.0 568096.0 0
131426.0 569344.0 0
136610.0 569653.0 0
139756.0 565504.0 0
143507.0 567119.0 0
148495.0 569577.0 0
157105.0 566350.0 0
153548.0 569947.0 0
161875.0 565246.0 0
162244.0 570001.0 0
166133.0 567157.0 0
171086.0 565228.0 0
176779.0 565395.0 0
178947.0 569648.0 0
183130.0 569305.0 0
188108.0 569730.0 0
193781.0 566235.0 0
198663.0 568559.0 0
202561.0 565483.0 0
203186.0 568981.0 0
208906.0 569078.0 0
215987.0 566585.0 0
220102.0 568533.0 0
225233.0 569041.0 0
230597.0 568791.0 0
235448.0 569830.0 0
239911.0 568621.0 0
245664.0 569345.0 0
252618.0 569331.0 0
259013.0 568587.0 0
263824.0 568602.0 0
268520.0 568593.0 0
272942.0 568569.0 0
278344.0 569266.0 0
283009.0 568074.0 0
286711.0 567511.0 0
290841.0 569341.0 0
296356.0 566599.0 0
301522.0 565763.0 0
305822.0 567937.0 0
309866.0 565925.0 0
319434.0 565677.0 0
325567.0 568461.0 0
337272.0 569404.0 0
342117.0 568943.0 0
347348.0 566284.0 0
353474.0 566715.0 0
359886.0 565765.0 0
366131.0 566645.0 0
370902.0 566802.0 0
369230.0 570276.0 0
374498.0 565342.0 0
374364.0 569911.0 0
378765.0 566436.0 0
382980.0 569453.0 0
387493.0 566552.0 0
392240.0 566007.0 0
392503.0 569750.0 0
396432.0 566244.0 0
401172.0 567654.0 0
406920.0 567400.0 0
410336.0 566668.0 0
416145.0 566748.0 0
420966.0 567823.0 0
426709.0 566498.0 0
423772.0 570874.0 0
431362.0 568252.0 0
435702.0 567196.0 0
438231.0 570775.0 0
441427.0 567190.0 0
446802.0 567581.0 0
452343.0 568967.0 0
459893.0 567670.0 0
464497.0 566940.0 0
469245.0 566582.0 0
471798.0 569359.0 0
475500.0 569807.0 0
479473.0 567316.0 0
484029.0 570182.0 0
489540.0 566683.0 0
496118.0 567502.0 0
2037.09 570937.0 0
4156.67 574872.0 0
8851.63 573569.0 0
12683.3 575586.0 0
17282.1 574334.0 0
21149.7 572741.0 0
23958.1 574799.0 0
28751.6 572278.0 0
26988.4 576166.0 0
35798.0 573944.0 0
40578.7 571820.0 0
44261.7 571734.0 0
47367.0 574678.0 0
51359.5 572690.0 0
58704.8 572070.0 0
63053.5 572648.0 0
68601.7 571846.0 0
77156.6 572561.0 0
82466.1 573428.0 0
88333.2 571841.0 0
93610.9 572066.0 0
102040.0 571510.0 0
97730.2 574738.0 0
106891.0 572469.0 0
112467.0 572087.0 0
118516.0 572292.0 0
123711.0 571799.0 0
128140.0 574150.0 0
134616.0 575091.0 0
141039.0 571190.0 0
144686.0 570252.0 0
145314.0 573698.0 0
150073.0 574573.0 0
157894.0 570821.0 0
155313.0 574764.0 0
160318.0 574294.0 0
168382.0 573910.0 0
164471.0 573788.0 0
169260.0 570086.0 0
172431.0 575081.0 0
174042.0 570252.0 0
178003.0 574852.0 0
184302.0 574348.0 0
192450.0 570379.0 0
192847.0 573400.0 0
189424.0 574375.0 0
198044.0 574318.0 0
204065.0 573630.0 0
214309.0 569951.0 0
213898.0 573393.0 0
217527.0 572308.0 0
222063.0 573272.0 0
227192.0 573832.0 0
232647.0 574150.0 0
238670.0 573582.0 0
243087.0 573781.0 0
247442.0 575038.0 0
251312.0 574134.0 0
255284.0 574891.0 0
260263.0 573762.0 0
265370.0 573258.0 0
271271.0 574196.0 0
276401.0 573496.0 0
281752.0 574223.0 0
287118.0 572808.0 0
295737.0 572190.0 0
300588.0 570417.0 0
299993.0 574724.0 0
305252.0 573564.0 0
309600.0 570261.0 0
315366.0 570501.0 0
311050.0 575071.0 0
321119.0 575049.0 0
321311.0 570310.0 0
331491.0 569960.0 0
326525.0 573864.0 0
331594.0 574715.0 0
335955.0 574617.0 0
340845.0 573868.0 0
345591.0 571638.0 0
350154.0 570449.0 0
352219.0 574661.0 0
357026.0 571478.0 0
362925.0 571234.0 0
372050.0 573980.0 0
367459.0 574350.0 0
376554.0 574927.0 0
378800.0 570983.0 0
381633.0 574285.0 0
388682.0 571721.0 0
397173.0 571438.0 0
401701.0 571057.0 0
401408.0 574208.0 0
406272.0 571423.0 0
413148.0 571382.0 0
418763.0 571908.0 0
428413.0 571758.0 0
433618.0 572220.0 0
437693.0 574144.0 0
442630.0 572633.0 0
448146.0 572416.0 0
453362.0 574082.0 0
456894.0 570878.0 0
461947.0 571682.0 0
467428.0 571624.0 0
472675.0 573261.0 0
476192.0 574477.0 0
479298.0 572262.0 0
482889.0 574879.0 0
488523.0 572873.0 0
493033.0 571666.0 0
493925.0 575812.0 0
497563.0 572245.0 0
497905.0 576457.0 0
2911.91 580186.0 0
8256.01 578304.0 0
16144.8 578873.0 0
20649.1 577571.0 0
30357.6 577460.0 0
25416.4 580107.0 0
34453.3 578919.0 0
39078.3 578315.0 0
42672.7 575497.0 0
45491.1 579141.0 0
50411.8 577530.0 0
55043.6 576188.0 0
60744.7 576548.0 0
65982.7 576157.0 0
63519.3 580756.0 0
67987.8 580241.0 0
72474.5 576621.0 0
78669.9 577286.0 0
86390.6 576485.0 0
83174.4 577686.0 0
91728.6 577163.0 0
97419.4 580549.0 0
103198.0 577124.0 0
109414.0 576988.0 0
113885.0 576645.0 0
117817.0 577758.0 0
122912.0 576713.0 0
129770.0 580190.0 0
140907.0 576564.0 0
145825.0 578347.0 0
152828.0 579723.0 0
163223.0 577906.0 0
158668.0 578419.0 0
168404.0 578778.0 0
174577.0 578164.0 0
181886.0 579005.0 0
187283.0 579330.0 0
192915.0 577986.0 0
197956.0 579935.0 0
202075.0 578138.0 0
209609.0 576095.0 0
215316.0 577619.0 0
219682.0 578383.0 0
222564.0 577400.0 0
226429.0 579450.0 0
231731.0 579152.0 0
236680.0 578490.0 0
241829.0 577894.0 0
246368.0 579812.0 0
252500.0 578160.0 0
256451.0 579460.0 0
261251.0 578896.0 0
266919.0 578628.0 0
272304.0 579972.0 0
277165.0 577981.0 0
286599.0 577928.0 0
291253.0 575260.0 0
296191.0 578354.0 0
302321.0 578899.0 0
307434.0 578814.0 0
312022.0 580055.0 0
316220.0 576877.0 0
320605.0 580016.0 0
326213.0 579843.0 0
331576.0 579277.0 0
337419.0 580026.0 0
343115.0 578360.0 0
347412.0 576261.0 0
352607.0 580133.0 0
357844.0 577526.0 0
363036.0 576200.0 0
362377.0 580504.0 0
366330.0 578863.0 0
371232.0 578797.0 0
375964.0 579364.0 0
379951.0 578585.0 0
386468.0 576733.0 0
392739.0 575822.0 0
398193.0 577099.0 0
404949.0 578030.0 0
410518.0 575961.0 0
412246.0 580651.0 0
416100.0 576705.0 0
421125.0 580459.0 0
423234.0 576050.0 0
429520.0 577086.0 0
435026.0 577165.0 0
440305.0 577282.0 0
445645.0 577383.0 0
450824.0 578108.0 0
458582.0 575698.0 0
464137.0 576246.0 0
469526.0 576880.0 0
474291.0 577648.0 0
479030.0 577078.0 0
482564.0 580763.0 0
486615.0 577360.0 0
491064.0 578712.0 0
495499.0 580092.0 0
1220.28 583813.0 0
6952.61 582795.0 0
12263.4 581016.0 0
19551.5 582240.0 0
23098.3 584087.0 0
27209.6 585888.0 0
31268.5 582176.0 0
36982.6 583279.0 0
41937.0 581423.0 0
47109.4 583974.0 0
52495.9 581773.0 0
58238.3 581158.0 0
61432.3 585347.0 0
66986.7 585084.0 0
71442.6 582439.0 0
76503.5 582102.0 0
81721.9 581093.0 0
87130.4 581021.0 0
91964.4 582959.0 0
99719.9 585619.0 0
102374.0 582355.0 0
107059.0 581632.0 0
109812.0 585252.0 0
113004.0 580924.0 0
113801.0 585432.0 0
119192.0 582534.0 0
124206.0 581767.0 0
136253.0 581804.0 0
140736.0 580732.0 0
140102.0 585242.0 0
144128.0 583099.0 0
148483.0 581629.0 0
151507.0 585195.0 0
157560.0 583861.0 0
163179.0 582645.0 0
167845.0 584461.0 0
172973.0 582308.0 0
177711.0 580303.0 0
178317.0 584847.0 0
183728.0 583657.0 0
188610.0 583835.0 0
193046.0 583466.0 0
197677.0 584550.0 0
202216.0 583127.0 0
206096.0 581205.0 0
213129.0 582822.0 0
217649.0 582993.0 0
222500.0 582858.0 0
228008.0 584645.0 0
233204.0 583610.0 0
238059.0 583225.0 0
242820.0 582318.0 0
248260.0 583784.0 0
252279.0 582216.0 0
256410.0 583678.0 0
260835.0 583927.0 0
265604.0 583864.0 0
270720.0 585137.0 0
276811.0 583999.0 0
281786.0 580517.0 0
281890.0 584907.0 0
286557.0 583822.0 0
291088.0 580735.0 0
298610.0 584489.0 0
304059.0 583401.0 0
308382.0 583170.0 0
316235.0 581694.0 0
312901.0 585172.0 0
323248.0 583948.0 0
327817.0 585022.0 0
333098.0 584364.0 0
342367.0 584030.0 0
347364.0 581282.0 0
350964.0 585166.0 0
357723.0 582939.0 0
367934.0 583258.0 0
378559.0 583112.0 0
383645.0 581658.0 0
390034.0 581618.0 0
395503.0 580995.0 0
397857.0 585584.0 0
400348.0 581208.0 0
407925.0 583025.0 0
403175.0 585393.0 0
412651.0 585876.0 0
416992.0 582283.0 0
421897.0 584784.0 0
425275.0 581190.0 0
432865.0 580853.0 0
429344.0 582706.0 0
437485.0 581626.0 0
442863.0 582194.0 0
448091.0 582230.0 0
452248.0 581736.0 0
456126.0 580625.0 0
461279.0 580722.0 0
463905.0 584850.0 0
466552.0 580968.0 0
471509.0 581284.0 0
477074.0 581144.0 0
474549.0 585146.0 0
479564.0 584978.0 0
484044.0 585396.0 0
487865.0 582494.0 0
492139.0 582364.0 0
493700.0 585896.0 0
497788.0 584105.0 0
2867.56 587388.0 0
8107.91 586963.0 0
13189.7 585797.0 0
11349.0 590703.0 0
17825.1 586295.0 0
21996.0 588036.0 0
29076.3 590933.0 0
32739.9 587163.0 0
37556.9 588618.0 0
42030.0 586080.0 0
47161.3 589137.0 0
51176.1 586786.0 0
56207.7 586266.0 0
62170.9 590483.0 0
66757.6 589994.0 0
73414.6 586752.0 0
78550.1 587129.0 0
84429.0 586346.0 0
89976.9 587272.0 0
95130.3 586817.0 0
98718.2 590532.0 0
104773.0 586533.0 0
109251.0 590078.0 0
117412.0 586578.0 0
114579.0 589855.0 0
119801.0 590496.0 0
122581.0 586198.0 0
128818.0 587465.0 0
134869.0 586842.0 0
138939.0 589592.0 0
147217.0 586015.0 0
143669.0 588082.0 0
147292.0 589120.0 0
157683.0 590182.0 0
162816.0 587691.0 0
167654.0 589452.0 0
173311.0 588566.0 0
177899.0 589177.0 0
181708.0 588714.0 0
187051.0 588313.0 0
193225.0 589382.0 0
199058.0 588555.0 0
203153.0 587650.0 0
208763.0 585372.0 0
207527.0 589610.0 0
212268.0 588247.0 0
217524.0 587758.0 0
222330.0 587864.0 0
226394.0 589111.0 0
231174.0 588116.0 0
236343.0 588097.0 0
241559.0 586957.0 0
247134.0 588809.0 0
253242.0 587833.0 0
258450.0 588046.0 0
262442.0 587822.0 0
266774.0 588729.0 0
273695.0 589263.0 0
278134.0 589392.0 0
281958.0 588445.0 0
286839.0 589013.0 0
292572.0 585733.0 0
290864.0 590202.0 0
306092.0 587644.0 0
301740.0 588790.0 0
310309.0 589008.0 0
314764.0 590410.0 0
318591.0 586093.0 0
325187.0 590199.0 0
330855.0 589162.0 0
335548.0 590127.0 0
337662.0 586241.0 0
346597.0 587432.0 0
356236.0 588165.0 0
362525.0 586050.0 0
368148.0 589719.0 0
373301.0 585675.0 0
382270.0 586537.0 0
387624.0 587019.0 0
393144.0 585665.0 0
395382.0 590046.0 0
400718.0 590298.0 0
407909.0 587880.0 0
404617.0 589029.0 0
417685.0 587294.0 0
422135.0 589655.0 0
426700.0 586449.0 0
431369.0 590568.0 0
433503.0 585967.0 0
436138.0 590730.0 0
439680.0 586847.0 0
445603.0 587110.0 0
452031.0 586782.0 0
458708.0 586036.0 0
468979.0 586005.0 0
473075.0 590870.0 0
479117.0 590123.0 0
483750.0 589391.0 0
488200.0 587699.0 0
497572.0 588628.0 0
1349.6 591247.0 0
2249.38 594704.0 0
6236.99 591768.0 0
17136.9 591460.0 0
24358.8 592580.0 0
28423.9 596164.0 0
33938.4 592358.0 0
38745.1 592956.0 0
42859.2 591066.0 0
46842.9 595202.0 0
51550.3 591465.0 0
56889.8 591755.0 0
63340.4 595785.0 0
70952.9 591162.0 0
68049.4 594626.0 0
75762.8 591210.0 0
72392.1 595711.0 0
81438.2 592544.0 0
87679.8 590906.0 0
87252.8 595266.0 0
92608.7 591270.0 0
103987.0 592176.0 0
108229.0 595321.0 0
112357.0 593741.0 0
116545.0 594385.0 0
121202.0 594959.0 0
124649.0 592347.0 0
128924.0 593453.0 0
134059.0 591400.0 0
137856.0 594746.0 0
143115.0 593329.0 0
151786.0 590919.0 0
148077.0 594407.0 0
163042.0 592654.0 0
167310.0 593990.0 0
172110.0 594428.0 0
177536.0 592839.0 0
182448.0 593636.0 0
186681.0 592962.0 0
190735.0 594952.0 0
197899.0 594003.0 0
203520.0 592696.0 0
208201.0 594163.0 0
213185.0 593384.0 0
218012.0 592783.0 0
222025.0 592726.0 0
225806.0 593400.0 0
230786.0 593621.0 0
236563.0 593328.0 0
242403.0 592928.0 0
248031.0 594337.0 0
252408.0 593841.0 0
256661.0 592397.0 0
261124.0 594369.0 0
266676.0 594527.0 0
272340.0 593784.0 0
277799.0 594620.0 0
283121.0 592648.0 0
288334.0 594448.0 0
293284.0 594817.0 0
296032.0 590459.0 0
301052.0 593388.0 0
307426.0 593742.0 0
313240.0 595338.0 0
319755.0 591172.0 0
322694.0 594688.0 0
331684.0 594061.0 0
341451.0 590637.0 0
336925.0 595381.0 0
346533.0 592811.0 0
350717.0 590578.0 0
355817.0 593969.0 0
360956.0 592081.0 0
368108.0 594781.0 0
372432.0 593881.0 0
377943.0 590796.0 0
381728.0 594450.0 0
384068.0 591128.0 0
387142.0 595268.0 0
390665.0 591502.0 0
397471.0 594663.0 0
402378.0 595225.0 0
406748.0 592643.0 0
411198.0 595890.0 0
413200.0 591130.0 0
417961.0 591931.0 0
422228.0 594653.0 0
426810.0 591698.0 0
431842.0 595332.0 0
441185.0 592329.0 0
446109.0 592182.0 0
451373.0 593411.0 0
456714.0 591424.0 0
461485.0 590908.0 0
466755.0 591579.0 0
477248.0 595273.0 0
486858.0 593296.0 0
492688.0 591211.0 0
497910.0 593095.0 0
5817.44 596152.0 0
10830.3 596564.0 0
17266.5 597911.0 0
22682.1 597147.0 0
33830.3 597784.0 0
39245.0 597748.0 0
43458.7 599244.0 0
52922.5 596428.0 0
58086.3 597032.0 0
76990.2 596151.0 0
83666.1 597009.0 0
92830.4 596434.0 0
98175.7 596022.0 0
102802.0 596723.0 0
126220.0 596502.0 0
132658.0 597037.0 0
153973.0 596178.0 0
159162.0 595435.0 0
297180.0 596289.0 0
318286.0 595931.0 0
326964.0 595763.0 0
342079.0 596590.0 0
346481.0 596779.0 0
351041.0 596000.0 0
359640.0 597016.0 0
364221.0 596182.0 0
371916.0 598345.0 0
376393.0 596111.0 0
392516.0 596214.0 0
406455.0 597652.0 0
416834.0 597183.0 0
426786.0 596905.0 0
437320.0 596152.0 0
442661.0 597401.0 0
447290.0 596909.0 0
452886.0 599081.0 0
456557.0 596034.0 0
461454.0 596005.0 0
466405.0 596850.0 0
471623.0 596992.0 0
482233.0 596146.0 0
488043.0 598268.0 0
491963.0 596565.0 0
496133.0 596683.0 0
POINT_DATA 5000
SCALARS Radius float 1
LOOKUP_TABLE default
5415.48 5120.0 6182.6 6810.52 5840.26 5073.35 4834.9 2356.98 3863.18 4998.37 5492.18 5258.36 5061.3 3163.97 3642.12 5812.43 5906.14 5733.48 5580.89 5645.7 6110.27 5670.04 6044.04 5085.53 5351.6 5867.73 3951.75 5013.56 4499.64 5542.27 5122.66 5484.19 7513.1 5254.28 4436.4 4517.56 4182.53 4672.91 3588.44 5176.86 4366.19 5553.16 2938.66 3672.51 4008.92 5561.06 6716.79 3850.77 5325.36 5484.83 5538.89 4715.55 6059.59 5701.86 4375.68 4238.81 5054.98 6030.06 3557.27 5170.02 4688.68 4927.31 4402.52 5185.34 4432.58 5903.42 3761.32 5292.64 4118.05 5065.13 4940.78 3615.22 4380.59 5546.39 6759.9 4730.36 5926.61 2720.68 4955.55 3563.63 4468.59 5325.02 5200.76 4862.64 5205.43 6684.56 3955.56 3968.64 2635.86 4385.06 6166.5 5936.02 5305.17 3379.84 7613.27 4133.88 5945.65 5418.62 7021.47 5416.38 6051.14 4345.55 5836.15 5885.03 2837.58 5246.2 5017.13 3673.74 4827.23 6116.18 7447.37 4688.67 7184.19 4290.3 3867.67 4231.61 4861.08 3942.53 3607.45 4951.03 4094.62 4665.12 6483.19 6230.49 5493.32 5740.68 4195.44 3261.21 6704.06 3653.41 3871.88 5600.93 3856.01 4390.66 5279.39 4124.71 4911.47 5803.39 4381.97 4924.6 4733.32 2899.43 2812.98 2924.37 5399.73 4003.05 4827.82 3589.27 5759.91 4333.2 3936.02 4927.02 4174.52 7054.71 4601.27 3641.64 5489.43 4277.89 5747.75 4796.33 5539.32 6496.85 5360.19 4874.39 5541.59 5083.08 5728.85 6337.56 5863.59 3255.82 6257.19 5242.73 4065.69 5390.22 4805.87 5227.21 3997.1 3038.33 3260.67 4780.03 3383.4 3856.1 5980.74 5109.54 3829.13 5527.54 5573.7 5054.25 7325.81 4794.96 6186.19 4839.34 2980.99 6834.49 5525.39 3998.5 4024.3 5555.28 5603.15 4737.14 4686.65 4695.45 4712.33 4660.72 6038.78 5123.52 4295.38 4392.68 5252.48 5495.39 4044.71 3996.0 5816.2 6458.82 3091.3 6138.47 5697.4 4727.62 4055.8 5280.17 6425.26 5143.58 4840.01 4484.76 5611.2 7933.0 5938.34 6394.38 5118.27 5169.36 5556.96 3888.21 3921.18 5697.78 5529.52 4667.36 4091.31 7199.21 5337.48 4929.8 6124.89 3554.9 5708.81 5043.05 4015.92 4487.31 4002.16 4138.16 5693.81 4684.5 5789.98 2540.31 6029.66 6302.8 4270.95 5206.78 4005.44 5555.88 5028.96 6732.43 6362.12 3866.16 5152.36 4511.82 4220.65 5173.87 4455.12 4894.16 5380.13 5711.87 5932.23 5834.74 5788.23 6052.7 5891.05 3798.62 6902.81 4254.17 5615.42 4523.7 5255.32 6037.08 4382.74 4049.23 5601.05 3586.91 3103.0 5637.59 5481.78 3307.12 5542.21 4937.14 5924.89 4778.34 6894.71 3486.22 4414.54 5120.49 5409.61 5262.61 6038.2 5713.22 5861.71 5017.78 3183.98 4524.28 3794.63 3778.1 4727.24 5826.64 6820.42 4816.2 4896.52 3372.79 4941.22 5791.61 5581.75 4479.66 6392.01 3666.57 5308.1 6644.76 6372.62 7565.34 5629.19 6756.95 5091.39 2240.39 6324.23 4727.24 4685.34 4151.94 4651.28 4384.42 6355.42 4516.43 4362.19 4948.92 3115.91 4493.48 4749.8 6084.86 5810.84 5478.92 5551.36 4850.81 6038.14 5201.36 5024.9 4306.53 5094.81 5972.06 4312.67 4270.24 4359.04 4989.15 5015.69 6175.81 6677.09 6959.81 4829.35 6321.41 5201.67 4751.02 4089.76 5184.56 5526.55 5282.64 3192.41 4987.87 4715.72 3369.13 4669.66 5367.2 3043.85 5461.13 6730.19 3599.45 4937.02 4907.89 5655.21 5090.24 4786.6 5923.5 5096.78 4612.68 5293.9 3320.52 4129.43 6142.94 3843.58 4931.38 4736.58 4329.05 6082.81 5927.43 5690.56 5492.26 3693.63 5762.84 3937.74 5082.6 4230.54 5094.44 3748.24 4655.49 4467.94 4933.21 5375.47 4964.09 4723.12 4809.42 5659.17 4717.05 6135.57 5998.38 5423.8 3417.33 4926.42 4164.13 4947.52 4642.34 4520.1 4305.57 5813.4 4293.03 4389.21 4424.7 3791.79 4754.05 4951.47 6084.93 5215.15 3315.57 4764.96 4808.52 5046.33 5607.24 4726.76 5839.13 3735.44 4907.06 4073.93 4645.41 5163.9 5740.84 4433.59 5530.87 6445.94 4973.83 3912.37 4281.49 4310.18 6342.25 4218.06 6691.39 4602.25 4194.5 4501.51 4792.73 5513.6 3485.26 4556.36 3240.09 5110.37 3191.99 5664.98 6327.9 4048.37 4659.59 5244.78 4220.88 6640.13 5478.47 5351.39 6142.37 6061.47 6163.38 4997.27 4566.18 3459.9 4093.08 5543.27 5856.11 4109.88 5287.2 4234.94 4562.29 5013.13 4980.85 5080.66 5714.58 5110.45 5248.77 4083.97 5153.74 5874.89 4528.09 3895.51 4165.81 4128.98 6291.51 4925.44 6246.22 5246.61 4307.28 5804.71 5020.12 5727.3 5053.92 4242.52 6352.26 3057.03 3847.38 5495.68 5489.34 6043.3 5952.75 5537.72 5542.14 4320.28 4931.53 7134.64 4270.53 4790.08 5082.47 5191.63 5344.25 5344.0 4043.57 5925.6 5379.87 3708.04 6013.14 4901.41 5138.31 5264.06 4551.24 3369.23 3688.8 5358.59 4548.16 5449.18 6519.71 4322.15 4714.54 3092.35 3629.96 5210.03 6022.17 5119.37 4583.31 3982.23 5806.08 5243.29 4853.39 4449.22 5628.24 3130.65 3327.49 5992.26 3960.8 5070.39 4923.9 3329.99 4973.78 5208.32 3947.47 3296.27 4607.02 4713.25 6243.0 6673.96 3556.85 5441.96 5882.89 5174.89 5370.52 4188.32 4100.38 3697.96 4739.42 5538.93 4723.48 4899.11 4745.45 5281.28 2631.9 5356.51 3818.59 4087.15 4863.72 4143.08 5002.48 5708.14 6623.85 4262.82 3920.42 6332.36 6122.55 5480.13 5978.9 2739.94 4187.56 3629.62 4840.84 4997.27 5135.69 4301.06 4593.7 6045.46 4763.45 4150.99 3771.48 4478.15 5681.38 4138.42 5987.17 3979.82 2765.2 4602.86 4621.75 4581.13 4219.07 3610.4 4515.71 6387.01 5367.52 5025.39 5893.5 3320.11 5030.91 5507.24 6851.54 4503.89 4336.42 5570.3 4306.11 3402.32 7589.94 5004.67 5365.89 5409.33 4511.54 5196.0 4613.31 6119.09 5091.68 4204.84 5069.25 5048.89 3991.03 3161.47 3435.9 4288.3 6826.57 4652.29 4495.87 5774.81 5344.77 5027.98 5097.87 4278.07 7267.18 6255.18 4277.88 4668.71 4758.21 7500.97 3948.23 5102.36 5228.18 5787.31 8332.24 6155.31 4342.9 6308.71 4223.33 4716.19 5911.67 5514.76 3456.98 4290.14 6405.76 3815.26 4020.32 5445.87 4216.92 4704.72 4177.94 3929.19 5922.5 4271.69 3633.87 4107.03 5198.77 3970.25 5147.67 5643.58 4292.06 5011.31 5577.04 5006.58 4481.53 3948.17 5586.81 3856.59 4746.52 5413.79 5572.95 6202.55 6338.89 7111.16 3817.13 4547.19 5023.15 3844.9 4377.07 3695.36 5101.59 3848.93 3813.22 6020.48 5935.47 5903.66 4528.49 5313.66 5419.37 4466.03 5275.32 5985.29 4898.94 4178.15 4247.23 4694.83 4733.04 5788.66 7531.29 3903.75 4755.47 5935.03 6390.78 7435.25 5314.69 5543.46 4788.87 3746.31 6022.72 5498.32 5527.33 5346.27 6475.1 4969.21 2691.29 6256.02 2845.98 5320.92 7228.46 6362.14 6719.88 5065.11 5978.82 5069.84 4553.56 5329.64 4051.44 3323.28 6695.82 5835.78 4877.67 3498.2 4245.72 6562.18 4571.7 5908.1 6048.7 4742.68 4344.58 5896.46 5634.83 5495.84 4862.21 5113.21 4502.5 5499.11 2775.04 5347.48 4810.12 4850.01 4138.46 3821.72 5215.05 4986.77 6318.18 5137.34 5330.45 5423.0 5077.33 3824.16 3689.45 3868.18 6723.16 5584.06 5372.61 3686.21 6480.17 6445.22 4564.34 3963.86 4871.44 5076.35 6375.99 5200.05 5234.29 4091.8 4645.58 2651.49 5512.23 4711.62 5349.31 4649.22 4268.65 5509.42 4354.08 4256.43 5936.36 4520.62 5229.48 5475.7 5415.19 4016.18 4485.99 5127.16 5475.8 4244.99 6050.81 5560.26 4249.46 5965.81 3702.37 4643.31 2330.66 4177.19 6917.52 5402.21 4880.14 4989.09 4982.31 5289.52 5269.18 4406.1 5034.59 4942.77 5080.18 3927.99 5266.5 5868.82 4050.9 4066.38 6049.55 4241.89 5709.62 5054.74 5941.72 5794.24 4541.21 4127.74 3066.13 4302.5 4156.38 6006.16 6009.88 4164.68 5022.8 5316.75 6268.1 3784.5 4178.4 5782.6 7034.11 4011.77 6261.42 4527.08 5965.78 4374.35 6396.74 6898.19 5526.14 6035.6 5198.29 3975.31 5344.43 5125.78 5045.38 4373.47 5350.88 5130.91 5402.24 4948.5 4527.02 4519.22 4531.14 5013.42 3838.56 5651.07 6248.81 5872.05 5273.35 6259.23 5181.4 5670.2 4114.24 5166.79 4662.56 2976.22 5417.15 5394.55 5094.52 3688.16 4946.74 2682.24 5928.32 3950.63 4612.62 5526.75 5435.74 4275.57 6385.23 5327.45 2614.4 2983.99 6185.89 3997.96 4750.17 5660.85 3460.94 3990.25 3691.0 3758.07 4752.51 3587.05 6229.37 6718.19 5314.85 4307.48 3848.54 4305.43 5941.4 5450.44 5331.02 6510.17 4263.33 4454.63 4523.88 5912.61 3279.1 4978.31 4099.77 4981.9 4414.48 4537.32 5163.02 2476.04 4656.78 5991.09 5105.16 4678.38 5050.65 5448.61 4827.33 6133.92 7055.53 3719.84 5013.67 5729.23 5669.65 5934.22 3780.23 4359.62 5253.55 5820.48 2586.12 6946.21 6125.34 5433.8 5252.34 5975.63 2965.79 7099.43 5315.4 6449.45 4044.45 5262.19 3627.82 6070.58 4244.9 6034.41 5490.43 5452.83 5022.28 4959.34 5178.99 5383.07 4591.87 4247.15 6552.22 4602.85 4962.77 4853.02 6101.92 5323.3 5088.44 4998.21 4635.6 3457.48 4256.67 6079.11 3931.07 3405.98 7440.72 4681.72 4945.39 3949.6 5996.33 5661.62 6631.19 3619.07 4467.04 5626.61 5817.25 6363.92 6205.93 4439.35 5830.72 6184.4 3828.81 4373.45 5309.98 4236.14 5733.62 4407.87 5282.91 4425.84 7256.35 4871.96 5742.65 4863.23 5592.32 4402.67 5381.16 4403.98 5565.13 4948.98 4560.84 5227.52 4092.24 4729.43 4562.74 5126.91 5776.57 3942.07 5133.97 3937.08 7443.72 5513.57 5371.02 5260.34 5206.48 6586.45 5624.49 5826.04 3095.48 4861.06 3979.26 3471.03 6608.73 5188.81 3745.84 5696.88 5011.84 6057.22 5690.26 5062.71 4156.2 4497.59 4289.17 5564.02 4274.61 4410.55 4287.63 6314.07 5776.37 3921.08 4516.28 5678.96 4190.31 5486.68 6048.86 4285.32 6894.26 4986.51 5197.52 5339.38 6169.11 5615.35 4790.78 4027.09 6422.84 4502.18 5379.09 5210.48 7552.94 4051.34 3627.55 6239.84 5865.39 4427.28 3082.32 6430.39 3658.37 5376.71 5703.6 6326.18 4867.08 4266.03 6648.68 4713.74 5407.78 4084.49 5061.98 6632.99 4537.6 4923.24 5147.36 4419.61 7177.44 4563.46 4082.57 5255.18 6553.94 5169.9 5282.51 3004.16 4460.92 3797.33 5945.89 4042.28 4105.55 4800.69 6566.1 3555.86 6386.78 4470.61 6086.96 6193.35 3701.27 5233.78 6008.49 4806.34 7144.24 3600.43 5598.74 6600.94 4906.82 4788.58 4709.35 6155.1 6496.67 5876.71 5226.0 5339.78 4750.78 4373.3 4166.08 5762.59 6481.79 5320.28 4796.58 4298.67 5960.66 3999.48 4962.09 4203.26 5654.31 4643.85 4730.41 3923.03 4004.04 5607.14 6915.83 6072.45 6444.77 4470.98 5759.46 5083.41 7055.42 5683.61 5100.25 4049.02 4470.4 5311.03 5255.12 4285.66 4896.11 5172.53 4135.62 6132.95 5801.99 4860.33 5534.94 3685.13 7644.38 3312.06 6004.68 3361.26 6799.4 4409.63 5521.25 3661.9 5370.85 5949.46 3178.54 3776.94 4765.02 5629.39 4448.13 2684.03 5070.29 4768.61 4807.28 2261.36 5075.55 5280.69 4220.03 6923.84 5449.46 6179.96 5703.07 6113.54 4662.43 6260.79 4043.66 3963.76 5528.53 5726.66 5460.65 4767.78 5235.17 4779.5 4340.76 4421.12 4435.36 5254.49 6065.22 4996.99 4221.28 4456.39 4631.83 4896.39 4384.88 6887.27 5480.83 5653.9 4220.46 5683.26 5612.21 5046.21 5894.61 5687.83 5131.24 5196.67 5004.23 6442.69 5474.8 6320.71 4648.04 6262.72 5029.78 3664.11 5374.51 3365.82 5224.12 7092.87 4850.14 6739.08 3637.61 5463.38 4569.12 6098.14 5873.69 4472.17 5750.71 6222.42 5470.77 5082.74 6062.05 4735.33 5411.85 3999.94 4844.57 5092.37 6171.13 4027.46 3901.8 4864.22 5511.88 5941.61 4512.11 6248.6 5443.58 3836.45 4558.46 5805.86 5346.68 5296.29 4611.53 2681.29 5094.48 3872.61 4318.48 4238.4 6408.83 3930.79 5266.22 5226.97 5754.18 5180.76 5132.68 3418.99 4480.95 5278.36 6218.95 5222.16 5107.23 5533.72 5136.08 5533.42 5558.68 4802.32 4010.57 4599.38 5246.47 6157.04 6191.29 4522.21 5506.19 5161.01 6719.94 4950.67 5227.59 6166.29 5453.6 5294.77 5409.63 3077.84 4709.05 4630.82 4813.08 6799.88 4540.86 3062.43 5426.78 2967.38 5652.0 5463.41 5225.33 4929.75 6045.22 6649.96 4303.19 5514.84 6081.14 3633.79 4256.57 3914.2 5421.53 4607.85 4287.53 6070.3 4929.14 5128.57 5945.08 5139.5 7493.3 4814.55 5833.06 3527.05 5698.77 6607.87 6515.84 4163.5 4123.6 4143.78 4538.95 4970.88 5965.15 4763.66 7042.12 4797.52 6343.14 5501.93 4471.58 5462.21 6313.06 5945.21 3493.7 6470.3 4938.74 3474.39 4200.03 4831.47 5516.95 6939.12 4406.4 4413.85 6853.85 4020.4 2395.5 3497.9 4933.65 5782.48 4031.78 6098.1 5708.99 2435.33 5687.85 6401.43 4558.47 5020.71 5997.88 5839.71 4360.23 5576.92 6234.32 5365.24 4004.35 5293.51 4763.96 5008.63 4270.74 6293.89 6595.03 4558.15 4993.35 4983.39 5366.52 4690.55 5146.37 3678.08 5518.57 4187.31 5463.48 7422.36 3240.51 4527.99 4298.15 4376.7 4628.4 5190.61 5832.37 6051.83 4642.93 3973.12 4263.16 6024.75 6109.49 5860.67 5987.42 5990.52 3764.1 4835.83 4159.35 5604.35 6477.91 3091.67 4237.98 6439.37 4081.97 4614.3 5401.99 5134.39 5784.3 5769.98 6088.68 5937.08 2221.99 4643.56 4135.08 6000.7 5620.74 5233.29 5604.21 3979.54 4968.03 3169.67 5204.04 5304.13 5944.09 5490.58 4863.79 4702.06 3464.83 2477.07 4923.41 5724.64 5117.47 2990.77 4925.63 3163.78 4305.16 4888.6 3293.56 5882.65 4666.81 4780.2 5078.86 6326.39 5163.55 6817.32 4319.79 5960.56 6643.85 5774.97 4020.95 5862.86 6049.79 6345.13 5374.98 5226.56 5274.19 4719.7 5599.49 4097.57 5313.22 5563.79 5328.22 4151.76 4216.17 3905.51 6484.17 3493.47 4721.02 4596.75 4254.37 3374.08 5564.23 5950.04 3735.24 4231.83 4074.48 6333.29 3614.96 4477.04 3886.68 5731.57 5703.74 5662.55 4747.55 5737.92 3056.7 3755.95 5591.76 4585.31 4586.19 6625.18 4446.06 3450.93 5323.91 5097.45 4185.61 5737.75 5742.47 2761.07 3778.02 6552.21 5417.8 5227.02 7132.12 4836.16 5300.96 5151.11 5680.94 5730.33 5545.46 4543.1 6550.44 8325.01 3764.06 5732.27 4440.81 5941.9 4523.39 5434.47 6642.76 5829.22 4497.78 5567.93 4243.79 5811.18 5433.65 5332.65 4442.22 6451.33 5413.31 6316.56 4332.87 6420.81 4715.58 3317.83 4450.7 5580.92 5151.52 3532.3 5973.33 3583.21 4347.74 5442.32 5067.46 4863.01 3580.58 5356.79 4778.82 4312.56 4612.06 6124.08 3361.92 5467.84 4750.58 3306.14 6710.88 5395.14 3967.48 6213.04 4497.31 4721.32 3830.46 6413.11 5092.28 5274.14 4739.14 4918.77 4434.19 4636.5 4819.73 3382.7 4940.42 3954.91 6471.55 4946.42 5085.71 5923.4 2965.01 6263.44 4863.27 4584.5 5122.63 4118.84 6766.43 2315.64 4703.08 4390.41 4890.5 6113.95 4050.08 5452.42 5186.3 5017.5 3436.15 5005.85 5711.11 4575.94 3546.71 4938.72 5768.57 5956.65 4498.25 4188.87 5151.21 6574.95 5398.64 6817.57 6853.04 4745.43 5831.96 5464.68 4475.83 2685.81 4510.8 5889.35 5010.04 4394.56 4570.98 4275.07 5825.38 4573.72 4047.87 5099.21 4917.99 5636.4 4367.78 4350.12 4095.75 3603.51 5670.0 4232.16 5222.51 6609.84 4344.51 5135.96 3781.77 3834.43 5581.55 5193.01 3474.5 5491.37 3860.83 4250.88 6348.03 3475.67 4792.39 5278.56 5146.37 6917.62 5631.14 6137.8 4343.78 5263.3 4008.15 4887.76 4669.06 3012.99 4811.32 6400.08 4743.59 5829.32 5208.14 4396.25 3763.05 5092.24 5369.08 4518.04 5291.9 4766.06 4009.62 4874.18 2081.58 4011.37 2511.46 2775.69 5657.36 6519.43 3619.79 5029.47 5053.95 6667.68 5926.11 5235.11 5211.38 6031.67 5384.76 5529.42 6138.12 5257.12 4428.78 4903.82 5100.1 5746.28 4371.99 3703.1 5187.7 6090.91 3561.29 4152.85 4082.47 4623.61 3295.83 4963.34 4219.78 5081.78 4260.92 5499.39 5644.82 4407.9 4440.57 6413.02 3492.19 6235.57 5412.31 5548.29 5916.16 3623.87 5163.77 6934.37 3731.84 4488.85 3981.07 4579.69 3554.48 4901.07 6496.52 5966.61 5325.44 4893.49 5021.88 5102.75 5760.22 4597.29 5938.17 4200.09 5931.77 5108.06 3573.73 4222.4 4000.43 4693.52 4568.41 3624.7 3420.08 4912.04 4691.91 4539.07 4255.34 5064.79 5480.3 7509.24 5896.26 5388.78 6101.13 5599.7 4163.74 6969.28 3665.95 4296.69 5698.96 3319.67 4298.45 6471.42 5283.8 4076.59 5164.1 6464.15 5658.37 4972.17 4707.06 6074.94 5699.53 4222.77 3783.54 5268.38 5527.23 7038.89 3863.67 4814.12 4013.38 5067.56 6069.3 3352.35 2735.53 5116.6 4909.65 2783.85 6523.86 7693.4 4286.49 4326.48 4437.07 6184.88 3449.37 5491.9 6405.0 5551.95 4659.16 3918.87 3101.75 5549.49 5423.42 6605.86 6505.78 4785.25 5461.55 4270.15 5876.64 6306.21 5253.37 5424.46 5266.01 5767.9 2978.76 6515.8 2040.66 6622.11 4689.15 6790.73 4965.89 5243.43 5659.95 5920.32 5409.66 4537.14 5551.9 4188.3 4453.64 4459.28 5019.93 3885.86 5235.29 4255.31 6116.33 6250.23 4479.94 2588.37 4718.54 6736.03 5203.08 3087.09 5374.07 7480.41 3766.55 3423.15 6027.62 5765.42 5010.2 6098.95 6123.03 4997.83 4388.63 3991.42 3718.69 4834.87 4514.79 2216.82 3672.21 4509.89 6752.75 4795.43 5269.38 5097.95 5607.3 2928.82 4914.45 5313.12 4698.87 3984.88 4661.03 5318.53 5160.59 5262.35 4732.09 4320.42 4281.98 7165.9 5344.83 7046.11 3427.63 4863.97 4146.81 6342.48 5756.75 5093.82 4587.67 5951.81 3924.14 5212.43 6918.35 6238.32 6804.79 6372.13 5369.5 4428.14 6016.19 4479.11 4124.49 3230.13 5714.25 6685.4 5325.96 4850.06 6332.01 7044.29 4805.33 7085.01 5980.95 6193.08 5887.01 3862.77 5168.35 3747.03 5388.39 4356.49 5335.47 4526.81 3994.07 5048.19 4219.94 5907.46 6740.71 4264.91 5399.29 5789.55 4633.05 2275.45 4901.2 6522.59 5012.5 5711.62 5435.19 4383.56 3562.79 7093.13 3298.2 4953.1 6865.76 6449.64 4857.84 4908.49 7016.27 4962.21 5884.9 5089.62 3468.42 3685.65 3685.13 4590.55 4655.16 5869.4 4741.26 4916.22 4186.6 3701.16 5251.4 3867.19 6022.7 4255.85 4345.67 5097.69 5511.6 6261.75 4765.72 4517.73 3757.34 5177.64 6415.61 4338.08 4752.14 5660.16 4541.8 6134.99 5842.56 5453.3 3838.47 4062.5 5424.88 5887.15 4435.51 8659.64 4588.7 4055.54 6419.12 5683.95 5469.13 6107.89 4233.8 4976.12 5453.98 4817.16 5148.08 6192.0 4940.28 5885.28 6579.31 3004.34 5323.55 3022.6 5375.1 4811.76 5498.42 5351.56 3344.57 6448.66 5220.76 6945.98 5138.2 5783.48 4701.5 4449.98 4771.65 5589.37 4840.44 5439.49 6639.64 3687.65 5454.12 4834.3 5478.95 6348.54 4066.57 5642.35 5156.76 6357.47 5404.01 4891.38 5535.91 5955.86 6176.67 4848.46 5412.24 2779.99 5016.02 4920.21 4581.37 4234.18 4049.16 5851.61 3936.95 6153.94 6836.82 3858.17 4631.99 3477.1 4740.98 3185.39 5128.77 3728.18 7122.87 5633.61 4243.26 6799.23 4888.27 4592.15 6487.56 4854.11 5971.22 4998.22 5533.19 4909.31 5417.21 6602.43 4990.79 4798.17 5166.79 4516.53 2895.63 5818.95 4122.92 3940.49 4093.99 5079.22 6464.8 4684.44 4749.59 4680.94 4858.44 5799.69 4673.35 5571.72 3876.21 5689.26 4992.42 5297.19 7051.9 4940.84 5895.77 4732.09 3988.3 5857.79 2908.7 6136.49 4039.91 4642.66 5276.7 4687.64 4378.3 4419.71 4888.12 5411.02 4950.97 5037.06 4989.56 5175.29 4863.96 5199.44 4094.73 5191.08 6200.54 4199.45 5148.58 5415.85 5421.64 4858.51 7234.66 4207.54 6599.66 4886.12 4936.96 4301.61 3184.64 4446.84 5206.33 5530.49 5065.26 5660.55 4304.41 5653.03 5578.94 3989.7 7610.49 4286.17 4246.61 3684.56 6028.09 5452.36 4172.6 3804.5 4638.18 4196.37 5211.6 3556.79 5806.31 4453.97 3503.41 7317.04 6412.67 7001.83 4504.35 5012.97 4036.91 5110.11 6379.14 5216.26 4887.52 3851.85 6318.23 4206.98 4058.87 5174.75 5932.07 6101.57 4793.65 2949.12 3856.53 4532.89 5460.89 4533.37 5260.85 5742.09 2884.65 5887.38 5807.46 6942.34 3658.05 5478.11 4549.69 5526.31 5030.15 3644.78 4312.15 4078.93 5934.82 4501.78 4922.49 3572.94 5797.36 5001.58 4153.84 4820.17 5119.86 5084.17 4901.44 5415.45 3776.8 5096.43 6156.21 3568.28 6104.26 5425.98 5583.61 5996.66 6479.39 4405.42 4997.91 3598.08 4599.81 3604.14 5381.54 4452.54 5810.77 4406.05 5089.1 5828.35 2711.19 4028.32 5876.72 3809.69 5236.43 4771.13 3208.96 5285.07 3858.06 4608.41 4680.14 4083.79 4184.23 4144.57 4351.38 4833.46 5750.07 5550.75 5933.7 6543.13 5149.72 5036.58 4757.74 5469.47 5329.59 6119.63 5464.25 3498.16 4244.21 5439.9 4752.9 5512.16 3197.63 4287.16 4617.55 3645.12 3456.47 5471.74 4344.34 4652.01 5713.03 3548.39 5849.65 3583.49 3673.28 5052.84 4366.74 3375.28 5625.65 5297.16 4603.5 4647.67 4481.76 4214.44 5375.12 4787.97 5452.78 4356.36 4892.44 4741.28 6789.23 5069.89 4157.29 4777.03 5107.0 6212.15 6813.72 5327.75 4609.02 6486.37 4896.65 6083.28 6100.73 4745.79 5456.71 4908.75 6556.26 3971.08 6204.65 4482.9 4593.7 4349.13 4891.67 6818.91 3503.65 3634.5 6631.28 4027.63 6571.31 5420.67 4392.65 6413.15 6103.11 5048.55 4984.46 4024.31 5948.71 5844.72 3992.97 5989.05 6040.74 4054.22 7228.94 5393.65 4961.99 4648.21 4393.16 3311.29 3110.13 6484.43 6423.81 6192.77 3485.54 4583.52 6418.11 3492.83 6015.02 5244.22 5585.14 7039.98 6456.58 4729.42 4159.81 5089.26 5244.98 3886.72 5792.98 6592.93 6350.71 6436.74 2460.79 4456.11 4653.83 6063.64 4986.71 6171.71 7382.3 2995.67 4668.88 4022.56 5522.21 5698.23 7300.58 4714.83 5474.15 7519.2 4099.92 6633.61 4884.59 6355.68 4478.6 5484.36 4511.7 4187.94 4304.63 5980.59 6834.41 4809.67 5021.77 4356.25 7248.4 5776.96 6045.67 4209.49 4216.95 5742.74 3946.28 3821.94 5984.81 4209.31 7013.17 3805.67 5486.48 4409.27 5301.47 4247.69 4947.24 3875.05 4588.99 4321.21 3540.11 5950.45 5088.57 5580.34 3852.6 4928.27 5134.67 5775.31 4165.21 3332.49 4215.0 5354.66 3566.79 5116.66 3629.44 5378.23 5374.67 4981.43 4061.6 3746.36 5473.72 4215.2 2603.64 2856.55 2205.51 4553.68 5361.87 6502.97 4783.07 3758.22 4946.23 4757.2 4852.58 5561.74 5975.23 4788.08 4198.94 5470.04 4211.82 6003.78 5684.25 5438.92 4244.49 6550.4 5036.98 3766.69 5513.8 5188.53 4521.75 3429.57 5569.2 5350.88 4642.74 6735.97 5305.59 5416.45 6459.51 5754.6 4955.16 4904.51 4147.31 2202.77 5751.15 5950.88 4441.22 4149.55 5853.89 6551.93 4595.12 4140.4 4386.8 4625.67 4725.01 4458.64 5966.75 5510.9 3657.69 4883.63 4971.29 6280.13 3684.15 5832.29 4438.76 6006.89 4618.73 3814.65 3965.3 4960.64 4983.3 4385.81 4034.05 5690.96 5798.38 3862.91 4125.9 5366.11 5096.24 5039.12 3908.98 3628.89 6589.82 6328.42 5027.43 3772.3 7307.21 4855.01 5522.75 5867.64 3608.06 6208.9 4923.57 3340.09 5217.95 5602.53 4867.7 2279.05 4829.35 3953.55 4075.28 4063.9 5263.27 4469.54 4314.56 6300.92 5161.1 3796.15 3928.53 6226.14 5466.33 5280.12 4801.8 7216.98 4444.97 5721.05 5046.12 3000.29 5271.02 4807.4 6329.53 4590.01 5718.28 5367.73 4514.39 4640.06 6101.86 6242.79 6506.86 4227.41 5391.48 4803.57 5966.42 5131.15 4110.59 5210.38 4847.14 5717.8 4706.5 3950.27 4811.22 3683.86 5003.78 4918.76 5293.75 3299.24 4208.41 6246.56 5826.78 4508.18 6214.73 5175.89 3894.64 3703.49 4268.19 4374.74 4062.56 3205.68 6200.63 4532.7 4504.86 3217.67 4473.29 5079.64 996.652 6163.54 5212.37 4680.69 6500.49 2628.22 5965.58 5058.51 3352.34 4901.29 4124.76 4050.03 4775.04 4120.07 4952.52 4882.66 3840.21 6746.66 5410.33 4954.76 3908.56 4844.83 5244.78 3636.15 6114.89 4330.58 5135.63 3288.01 4355.83 6870.97 5351.86 6056.87 5474.01 6201.86 7554.58 3380.69 5166.89 3639.44 5446.4 5725.37 3868.62 5138.33 3743.76 4505.28 3425.69 6711.21 5510.45 4730.14 2606.51 4941.02 3994.39 3864.92 6119.99 2955.36 3668.93 4128.1 4009.24 5372.82 4402.17 7778.01 5127.82 5124.17 5805.1 7320.78 4064.58 3419.87 4234.88 4824.81 5769.14 5944.3 3563.14 3381.82 3619.72 4646.51 4438.58 4565.93 6059.93 4504.52 7107.63 6061.63 5073.02 6545.43 4277.24 6760.92 4989.2 8137.11 5291.05 6650.77 4173.54 5606.51 5599.29 5166.41 5740.65 6038.68 5067.56 3834.47 2596.96 6162.3 6349.67 4350.15 4264.54 4139.3 3516.27 5261.19 6541.45 7043.44 4601.74 4263.78 4750.49 4643.9 5078.31 5993.0 5228.75 4807.35 6047.14 4923.43 5467.63 5009.83 4568.64 5666.95 4642.2 4127.53 5210.75 4474.83 6555.44 5658.14 5730.61 7124.45 6358.93 5064.67 6618.21 5232.85 2617.39 3717.47 5144.44 4051.18 5969.37 6816.66 3844.54 5034.69 5849.53 4509.46 3538.53 4420.11 6127.39 4972.18 5329.76 4607.18 3899.7 7200.89 2403.72 4813.33 4802.98 4833.55 4081.34 7224.99 6334.53 5377.37 5652.87 5483.7 5018.69 6384.7 3152.86 5952.38 3896.27 5807.52 5963.36 5230.02 5307.35 4342.18 5169.48 6016.08 4731.21 5491.63 3124.7 6064.71 6102.98 6060.17 5153.18 4763.4 4236.86 5902.67 5393.76 5806.61 4983.1 6010.59 7123.04 5906.57 4446.58 5401.4 5053.15 5910.86 3220.29 6239.68 3845.9 4141.21 4834.44 5782.43 4384.28 4456.26 5113.6 4810.98 5135.5 5091.22 5347.9 5640.72 5851.63 5727.79 5212.92 4831.93 5788.97 3472.91 4464.73 4023.93 4928.85 5868.89 4711.04 5484.32 5007.21 7144.05 4619.2 4506.18 4067.96 4824.12 2970.9 6542.5 7104.73 4383.47 4834.39 3926.11 5971.21 5701.75 3272.75 5262.47 3104.96 3512.94 4991.35 4263.65 3831.52 4587.7 4258.98 5196.92 6106.43 5644.81 6761.81 3903.91 4728.55 3919.62 4929.6 4368.28 5750.35 4489.99 4548.45 4945.0 4658.11 4551.26 5114.07 5678.58 4385.49 6570.35 4263.18 7142.95 4383.68 4559.74 5836.26 6666.67 6063.44 4583.94 5046.31 4928.35 1937.5 5241.75 4731.53 3763.9 4651.99 4788.7 5863.0 5084.5 5640.12 5078.59 5134.33 4147.49 5419.57 5162.67 3646.95 5760.98 4705.68 5384.86 4749.96 4019.34 4658.24 5869.67 4311.48 4899.73 5457.66 6394.19 5973.89 5366.22 6193.73 5518.11 5087.14 5712.35 5701.52 4743.9 6776.22 5321.17 3719.11 4467.13 3877.8 6273.6 5136.87 5454.11 4708.17 3779.45 2741.2 5790.42 5784.37 3142.09 3682.35 5182.13 3756.96 6110.48 7541.76 4775.49 4681.29 4990.23 5499.59 5749.6 6715.73 4439.71 5667.51 4708.31 4027.33 4198.9 3873.92 5431.29 5026.76 5023.41 6282.38 4546.44 4092.07 5657.55 4213.05 4224.3 4184.21 4700.07 5188.82 5615.84 5043.14 4717.73 6440.38 5072.5 5556.0 3274.85 3904.07 5748.9 5545.59 5494.28 5610.53 4099.26 5206.47 6304.49 4580.06 5755.15 4608.34 4835.97 6419.64 5493.89 4057.17 5464.83 7066.96 4467.0 4431.23 5917.34 4994.65 5601.55 3787.08 4462.87 4013.86 6545.99 5334.36 2918.64 4554.68 5630.9 4140.92 4512.07 4692.32 4896.43 5984.8 5236.24 3127.83 4585.04 4212.15 5260.52 3185.09 5114.23 4242.63 3269.54 7407.91 5064.23 6015.22 6061.85 4454.74 5512.44 2904.46 4826.52 5120.92 4337.32 4685.4 6240.42 5146.0 5721.14 4288.45 4577.73 4987.28 4918.64 6206.98 6638.25 4759.99 4815.47 2646.13 4368.12 4365.58 5214.4 4636.53 3629.49 5766.05 5469.35 3835.81 4869.48 3623.19 4906.11 4387.39 4564.1 5825.55 5509.51 4848.14 4316.5 3199.4 5254.24 3742.11 4192.21 4914.03 3597.43 5144.56 4158.91 3360.86 5311.55 3034.16 4869.25 5545.21 4333.87 3667.93 5638.7 5024.32 4644.88 5813.79 7350.26 5591.77 3768.46 5167.53 5003.3 6245.52 4932.29 3954.77 3784.94 6793.1 6016.87 3125.13 4506.66 5515.73 5209.55 4174.44 4564.41 6331.74 5951.86 4252.18 4833.67 4659.88 5325.91 3791.41 5853.12 5157.38 6203.03 5235.87 5273.37 6089.45 4732.37 4985.3 5810.17 4966.07 5713.36 4749.18 5553.94 3669.32 4704.92 3663.0 3742.31 4954.81 4546.96 5424.55 5134.72 5695.79 5287.25 4420.6 3622.8 2781.96 5414.58 4770.51 5577.41 6511.37 5740.98 4216.44 4346.07 3999.5 4012.92 5759.79 4177.47 4598.54 4218.16 5218.42 4933.49 6139.64 3990.94 4756.8 4357.11 5477.8 5463.06 4176.32 4639.8 3986.41 4241.68 6102.49 3469.18 2945.34 5495.0 3372.95 4489.29 4301.93 5846.95 5268.15 5819.0 6449.06 4924.07 3200.6 4629.02 5914.5 6006.16 4608.62 5407.96 4071.75 4626.72 6562.03 4410.82 6443.99 3889.98 5193.58 5399.43 5695.44 5117.64 3422.21 3916.42 5429.3 5510.96 6653.07 4745.16 4697.91 5532.72 4584.81 5071.98 5719.79 4371.08 7261.51 4968.14 5086.29 4312.48 5527.13 5139.18 4278.57 5551.43 5049.99 4201.03 5001.87 5684.05 4493.79 4279.44 4899.19 5058.34 4028.22 5293.13 3918.94 5575.11 5487.63 3852.82 4507.36 7145.73 4168.52 5403.97 5800.81 5106.46 4068.31 5166.05 5077.29 7035.54 4850.5 5426.4 5763.05 5129.68 5679.74 5357.39 5076.84 5247.01 4208.37 4841.7 5702.4 5069.9 5473.89 952.938 4678.7 3673.6 3306.84 5265.21 4657.24 4400.14 5866.42 4762.1 3987.69 3484.81 4316.0 6502.99 4287.25 4392.75 4921.1 3814.16 4271.07 4191.01 4475.38 4589.06 5340.05 4920.88 4184.47 5890.25 5700.79 6710.14 5034.05 4726.2 4426.02 4816.51 5345.73 3825.48 4770.63 5188.22 3810.68 4841.23 2804.54 5005.6 5486.89 4462.35 6069.78 5532.75 6949.65 4095.83 4975.85 5695.25 5676.61 5716.42 5701.63 4620.95 6347.72 3460.93 4488.39 5124.86 4927.73 4602.57 3763.85 3565.32 3419.07 5710.33 5344.44 5131.77 6432.8 5549.71 3186.07 4967.51 5173.82 7212.97 5490.64 5034.34 3769.2 4507.46 5036.14 5603.68 4944.51 5610.95 3220.8 5042.75 5179.17 5579.39 5270.51 5148.1 5490.75 5224.64 5949.73 3495.68 5783.94 6370.33 5081.08 6318.25 4202.77 6864.06 6008.81 4932.56 5192.49 3487.31 6643.4 4674.9 5461.72 6599.28 6224.85 4556.19 5368.66 4795.08 6562.92 5501.73 3671.06 4697.24 3612.44 4983.43 5233.76 5866.91 4683.28 6405.69 2820.07 6549.8 4851.18 4825.73 4165.36 5288.33 6296.54 5797.21 5685.74 6740.35 6028.63 3450.07 5927.2 4550.92 6215.87 5191.26 6060.06 5544.27 5308.33 6896.55 4666.12 4685.65 6219.34 6023.07 5674.63 6506.63 4140.04 4668.8 5995.4 3495.3 5322.11 5735.08 7133.44 4750.81 4711.15 4474.39 4658.59 4196.62 6478.35 2809.19 5453.77 4916.7 5589.53 7208.19 5025.42 4549.51 5196.08 3587.93 4517.29 4495.75 5323.95 6171.01 4468.26 5796.26 4603.04 4870.94 5368.93 5271.88 6121.56 7168.2 4571.74 4096.86 3622.48 5001.51 5385.86 5115.42 4082.4 4369.86 5482.76 3745.02 3720.7 4211.36 5698.53 3604.31 3856.73 4450.49 3468.45 5887.71 5635.32 4526.34 4316.45 4827.61 5409.08 5481.64 4598.92 5241.22 6647.08 4979.52 3422.29 4407.79 5214.63 6548.29 3990.96 5352.24 7362.42 5793.12 5836.14 5473.05 5537.34 4373.2 5884.99 5726.42 7025.09 3392.26 4433.12 2549.95 4361.24 5138.93 6406.8 7086.69 5648.78 6875.73 5226.42 6081.3 5615.35 5117.52 3967.76 6311.89 6734.39 4217.36 5942.45 4150.76 5005.72 4871.77 5368.52 5155.28 5811.26 5062.77 6019.35 5205.38 6075.99 4884.93 4600.71 5262.79 4494.15 5146.1 5035.71 6485.77 4419.79 5407.69 5960.5 3869.39 4117.9 5393.43 4753.76 4638.09 5377.01 4441.91 5330.26 6470.23 5939.22 4215.05 4271.93 4697.49 5125.17 4859.01 5524.45 5990.75 5600.21 3953.26 5467.51 4625.53 5459.92 4096.47 5114.67 5353.66 4104.04 5030.33 5593.79 5234.2 4965.24 6379.38 6257.79 5327.05 4849.5 5353.23 6229.83 4523.81 5578.18 5106.33 5293.37 5198.94 5933.54 5559.79 2980.31 5879.24 3148.79 5740.78 4796.12 5997.91 4742.82 6791.86 4209.0 4930.72 5728.58 4887.73 6297.99 5378.24 4538.89 5817.74 5661.6 5285.75 5385.03 4169.15 5673.75 5360.67 5968.54 6263.3 4501.05 4537.03 3247.97 5124.34 4114.2 4904.37 4326.06 5034.46 5757.29 5016.46 5469.17 5061.75 6022.78 3769.24 4087.32 6647.85 2569.12 5161.74 7336.37 5099.9 6945.69 5118.86 4183.4 6170.9 5833.78 4733.79 4436.48 5758.98 5288.64 6213.24 5987.88 3579.59 4228.53 6123.46 6142.88 5111.26 5388.73 4574.54 4949.55 4764.83 4841.28 3957.38 5507.38 6889.5 4710.88 5300.17 5152.78 4052.43 4057.4 5534.23 6025.77 4781.9 6815.96 5339.6 5828.25 4725.11 3626.86 5418.12 6371.96 4604.1 5322.07 5076.11 5770.07 5101.6 4282.11 4656.01 6589.13 2347.41 5602.62 4542.16 3543.37 2030.03 5628.97 2638.82 5527.27 5104.39 5847.91 4612.13 5846.6 4109.44 4903.84 5438.55 4290.49 4434.65 5977.66 5209.5 5065.74 5791.25 4873.23 4028.35 5464.05 5453.2 6348.93 6824.53 4332.64 5232.16 4422.23 4820.68 6031.22 5485.84 6424.77 5453.69 5918.95 5432.04 5689.56 3702.45 6556.86 3242.31 6099.28 5372.25 3234.26 4830.13 3494.16 4778.37 5134.17 4074.16 4904.35 5592.54 5390.33 5078.73 4358.81 5278.54 4651.64 5729.0 5729.92 4179.87 6224.13 4761.84 3661.67 5517.65 4009.68 3303.49 4622.73 4161.32 5585.25 5256.75 6351.89 5932.28 2960.5 4975.32 4298.7 3902.48 4304.64 6030.39 4905.53 4823.06 3799.01 7392.65 5254.49 3757.23 6828.8 6161.94 4065.28 5057.59 4461.14 5939.29 5418.98 5285.6 5615.06 1969.87 3132.34 5490.54 5203.54 4047.95 6142.94 5001.69 4416.87 6581.56 3980.46 4896.67 3934.11 5158.44 4466.22 3886.56 4496.51 6153.71 5917.08 5483.37 5092.93 5934.05 4714.66 6771.18 4984.17 5327.39 5781.62 4037.86 4138.59 5714.51 4938.33 4484.78 4621.33 5157.73 4541.22 4934.66 3539.68 4984.01 6217.33 4557.1 6688.53 5927.1 6175.27 5876.51 6731.89 2932.52 5410.6 4733.41 5264.83 3901.53 5136.51 6815.51 5313.86 4457.05 3989.26 5189.91 3618.64 5777.26 5703.84 4335.79 3530.82 5797.32 3921.27 4886.99 3161.1 5265.63 4898.29 4431.06 5730.2 5620.88 5370.9 4529.77 4325.13 4262.74 6172.27 3783.79 4248.14 5279.19 4016.6 5192.92 5275.57 4786.66 5891.25 5370.1 5095.52 5129.4 5114.51 3720.38 4655.37 5023.61 4731.37 4672.86 6530.78 5560.23 3043.77 4139.39 5237.55 3909.94 5088.64 6589.8 3729.16 5319.1 4181.93 3038.91 6570.43 6883.86 3350.99 3820.19 4979.5 4745.37 6200.05 5575.11 4052.49 5061.74 5326.03 6189.67 4948.96 5117.83 5256.82 4013.86 4061.87 5383.9 5165.31 3798.09 4288.5 5715.51 4511.05 3456.3 6561.94 5259.21 4256.08 5881.93 2803.01 4399.52 4444.0 4554.24 6182.19 3939.96 5910.66 7415.84 4981.81 5141.03 4970.55 4840.44 8123.59 5765.14 4946.08 4767.54 2927.84 5121.08 4696.03 6177.68 4605.39 6270.59 6045.26 6500.45 4907.55 4103.76 4286.61 4603.66 4969.68 6636.43 5431.14 6298.8 3689.24 5178.07 5151.19 4171.02 7012.36 5028.06 4002.99 4293.3 5587.3 5159.67 3572.73 5764.52 5684.88 6523.78 4645.86 4045.67 6005.95 4941.52 4308.49 5900.0 4581.1 6241.77 5317.19 7360.12 6223.98 5821.49 7050.08 5580.44 5998.13 6275.25 4746.15 6892.33 4758.84 3976.0 4452.36 4068.41 6463.71 5059.37 5783.38 5645.54 6264.03 4526.87 3562.8 5192.82 6920.92 4174.22 3783.36 3573.84 4067.89 3922.28 6294.09 3445.92 4571.57 5131.07 5236.69 5524.28 4586.82 3133.28 6026.04 6353.81 5859.17 4034.41 4150.44 5522.34 5771.98 4420.35 5899.78 5717.45 5772.57 4813.81 5268.27 5244.95 4645.93 5448.64 4585.37 5901.8 6417.61 3721.69 5395.12 5783.69 6074.39 5317.83 6738.9 4460.89 4157.1 8052.53 4867.12 6044.01 4637.3 1458.87 6520.19 5734.07 3997.68 6033.28 4819.83 4801.16 5071.38 5616.66 5688.77 5368.28 4698.7 6229.64 2848.44 4220.43 6263.87 5743.8 4094.63 5084.76 6605.11 4757.87 3557.46 6379.33 5971.95 5652.73 3979.46 6321.97 6412.84 6509.54 6119.0 2589.19 3792.06 5128.59 4993.49 5310.33 4864.38 6583.37 3770.22 3688.83 3402.44 4390.64 4848.98 5150.84 4608.01 5087.97 5339.82 4519.03 4930.17 5110.27 4745.44 4085.96 5762.82 4612.68 4232.33 5462.6 5617.29 3035.06 5770.92 4262.19 4597.88 3093.38 4878.93 4845.91 2002.78 4505.3 4491.26 4511.34 4832.21 5009.21 4742.35 5394.79 4574.03 5290.37 5264.08 4227.66 4151.74 4691.01 4594.89 5245.95 5821.42 4515.02 3463.53 6126.03 4121.07 6044.69 4197.87 2970.24 5105.54 5731.43 3518.14 3414.67 5444.36 2649.69 5044.68 6908.32 3467.11 5000.74 6153.26 5637.53 3882.37 4634.25 4095.4 5188.57 6351.48 3830.7 5357.33 6210.0 5350.9 3483.61 4262.52 7430.48 5992.06 5545.68 6080.69 4970.12 4967.93 6369.66 5973.57 6241.48 5125.45 5957.82 6286.27 6327.54 5507.07 4802.36 5466.13 5327.71 5257.38 5075.23 4975.56 7282.36 6666.34 4645.91 5581.01 6834.92 4125.75 5130.57 5090.48 5402.45 3985.93 6071.59 6079.55 3856.4 5485.61 4937.36 5308.4 4569.32 5537.61 6084.88 4491.96 4397.06 5184.98 4199.44 4467.51 4053.12 4479.5 6261.67 5460.57 5065.78 5703.34 4521.42 6668.98 6649.52 3977.98 6043.34 4939.56 4747.68 4712.17 4723.71 4461.67 5631.32 6322.0 5793.14 6345.2 4609.65 5704.61 5128.03 5410.73 4379.91 4942.63 5850.38 7066.26 4730.97 3677.85 5214.71 4677.84 4811.11 4924.52 4866.8 5658.05 6593.1 5462.1 4000.51 6032.45 5011.37 4026.03 2827.92 4441.44 4232.44 5336.61 4817.75 3312.3 5563.09 4848.15 4439.09 5523.81 4718.61 3873.79 5717.67 5515.59 5252.37 5432.4 4499.54 5037.58 5640.67 6572.17 3751.73 5555.89 4766.47 4871.1 5678.08 5922.62 4414.09 5191.29 3784.68 4188.16 3717.22 6649.21 4654.92 2943.17 5286.55 4880.78 4322.56 5509.09 5625.02 5212.05 4829.77 3826.01 6474.5 3928.99 4444.92 6959.88 5971.9 5749.53 5247.73 4876.37 5034.02 4769.62 5582.28 5945.25 5181.31 4696.06 4137.16 6189.29 5984.55 6581.13 5803.3 4721.98 5252.82 3543.98 5056.26 5878.55 4014.44 3435.13 6604.72 6002.77 4431.46 3794.47 4610.55 3207.84 4967.02 4614.49 5400.69 4128.93 4462.5 5573.31 4959.72 5004.68 4023.88 3808.04 5348.11 4405.61 6126.5 4034.88 3511.5 6007.1 5067.92 5488.96 3188.21 5919.27 3720.92 5087.3 4793.06 6637.38 6139.74 4975.57 3057.3 6150.31 5873.62 4996.91 3920.44 5379.52 4450.51 3768.62 5314.67 5563.47 5651.46 4066.36 6033.93 3162.27 5516.37 5092.44 5432.2 4612.4 4746.19 6381.58 3282.57 5212.2 4798.13 5648.59 6697.45 4432.32 6296.36 4451.76 3224.81 3775.38 4046.22 6457.89 4844.2 4575.72 5114.61 6118.13 3374.62 4420.3 4926.62 3917.09 6009.93 5872.45 5270.1 5130.56 4947.64 6305.9 3470.69 4542.62 4859.95 4132.08 5522.18 5223.1 3873.72 4850.49 4592.49 3625.98 5479.86 4702.32 4763.04 5944.52 4413.56 3746.62 4532.67 5316.05 5260.13 4908.32 4649.5 5019.84 4810.74 5985.75 5475.83 4149.17 4329.8 5728.27 5672.46 5202.33 3228.27 3956.24 7558.99 4142.1 5043.14 5333.04 5445.91 4521.99 4812.59 6842.54 7115.67 5675.45 3361.11 6038.56 2807.46 5599.16 4179.8 3488.34 5658.35 5428.24 5108.84 4582.12 4520.14 5357.14 4850.95 6271.22 3421.81 6188.33 6111.23 6916.18 5786.06 4137.41 3780.07 3868.69 5466.49 5447.74 5007.41 6033.72 3851.47 3692.99 4966.74 4959.94 1635.31 5639.4 6185.73 4083.24 6520.96 4806.99 3771.91 5217.62 3839.0 6178.19 4616.81 5715.25 4611.21 5108.42 4630.5 3354.94 4404.87 5237.27 5767.65 7885.41 5782.25 4104.97 5497.27 4081.77 4948.21 4987.01 2181.29 4202.12 6332.64 2694.25 6492.44 4083.1 3482.73 5145.39 3996.93 4957.99 4063.26 4997.89 5093.28 6131.52 6009.88 4699.77 4981.55 5093.41 5144.23 6188.62 6153.07 4414.06 5908.57 7296.47 5050.2 2513.38 4821.41 4924.53 3995.08 5616.11 4499.52 4028.13 3874.12 3900.93 4457.73 5784.38 6476.35 6260.58 3074.49 3053.19 4067.24 6571.26 5580.95 3393.59 3549.92 4032.06 5246.81 5089.1 5888.95 5394.78 3463.34 5122.38 2853.68 5262.85 4998.37 5329.84 6559.82 3879.83 6565.95 4577.98 5886.81 4487.51 4246.24 6805.02 4295.25 7394.47 5354.48 4900.26 4729.45 5374.09 6261.13 4167.55 4720.34 5244.47 5378.75 3920.64 5510.89 6186.24 5822.7 4159.89 5282.67 5178.55 4038.17 5146.69 4907.48 6213.74 2329.93 4369.87 6938.87 5412.07 5512.57 4813.55 5856.43 3465.03 5349.85 5799.86 5172.1 4362.94 4469.82 6545.78 4870.14 2932.2 5105.72 4082.01 5003.49 4750.76 3964.03 4907.03 4216.33 5832.72 5617.91 4721.2 4706.31 4735.99 6265.48 4203.68 4739.56 4613.32 4701.03 3352.46 6351.95 5195.09 5345.05 5200.1 3997.52 7679.2 4881.51 4311.92 2626.41 6729.99 6664.54 6842.35 5464.34 3621.63 4777.96 5801.89 6833.5 5742.39 4780.16 5738.37 4813.24 4433.23 5759.19 3113.64 4304.75 5480.86 6139.9 4720.22 4313.38 6598.99 5250.56 3633.58 2468.16 6294.14 4339.97 5203.75 5169.09 4691.15 2459.88 4210.24 5470.67 5901.71 5225.11 5342.9 5733.12 5043.34 6436.29 5402.81 4600.81 4919.13 5640.63 5168.97 5783.88 5002.38 6705.93 4865.11 4731.16 5502.14 6470.87 4495.33 4465.56 4131.08 5747.9 3864.19 4287.93 6203.24 6818.23 4488.41 6679.12 5652.19 4621.32 5806.74 3878.8 6578.62 6284.12 4796.04 5229.56 6011.4 4672.34 6052.22 5376.41 5003.63 4695.7 4944.08 5576.16 5269.39 4305.35 5210.22 2451.27 3903.9 4444.95 5161.02 3124.49 6081.35 5003.81 6262.18 3818.37 5663.36 6225.05 5434.04 5125.53 5994.21 4444.54 5779.9 4909.74 5310.33 5299.03 4565.36 3922.98 5161.73 4025.08 5259.48 4008.67 5254.93 4803.4 6608.94 2613.78 3796.73 5417.07 3834.01 5656.84 6789.66 4739.41 5312.2 5847.27 4490.2 4706.59 5734.84 3982.31 4950.07 4582.24 2832.83 5827.3 6036.99 3010.1 3825.98 4589.22 5087.03 4667.84 3906.41 4123.08 4512.6 4260.38 4636.45 4932.27 5638.51 6793.49 5252.22 3563.33 6060.19 4962.35 6786.37 4333.23 4328.76 4124.33 5561.63 4358.06 5093.51 5647.93 6201.49 5449.09 5154.74 4605.61 5386.95 5332.11 5315.71 6158.93 5081.65 5373.78 4823.14 5438.5 5345.65 5863.36 5699.4 5237.76 4698.94 3948.21 4286.84 5669.15 5296.05 5263.86 3330.85 5056.32 5533.52 4060.17 5410.33 4747.24 4380.86 5302.53 4909.13 4287.61 5648.02 3308.75 4604.34 4439.17 5677.42 4929.35 5606.22 5051.39 3943.77 5242.38 4884.94 5459.52 4609.98 5566.5 4752.31 4276.59 5579.04 5405.6 3929.35 5403.81 5082.25 6964.78 4374.05 5036.84 5504.65 5813.68 5732.11 3618.53 5040.9 5596.68 4770.21 8013.28 3846.55 5283.65 3082.16 4644.68 2892.36 5911.29 5416.41 4694.27 6760.64 2515.5 5177.88 5551.79 6981.47 3916.15 4474.96 4084.87 4758.76 4790.63 5259.29 3584.05 4916.75 4818.53 5097.85 5584.64 6189.04 6224.64 4221.03 3799.55 5082.66 4550.77 4337.93 3550.88 4345.51 5536.0 4048.73 5145.13 3860.8 3747.96 5611.29 5940.5 6568.45 5004.22 4601.54 4280.92 4696.92 6437.99 6898.8 6632.04 6540.57 4893.72 6004.72 4072.4 4983.56 5699.51 4489.18 2489.44 4632.75 4752.94 4994.98 3950.53 6423.96 4501.1 6058.13 5894.69 6988.4 6635.51 6051.35 6779.82 5543.67 3999.81 4867.13 4863.27 2701.42 4502.12 5442.79 6673.92 5151.68 5733.59 5362.15 4455.61 4738.72 6874.6 5240.97 5569.85 5523.96 4884.93 4223.53 4759.38 4733.37 6960.97 4287.15 4523.9 5282.51 5669.41 4951.02 3919.47 4602.7 3783.35 4868.66 4004.39 5159.9 4987.48 5943.61 5981.54 4248.58 4542.25 4414.23 5233.88 4849.21 4785.55 3793.83 5245.4 6189.81 5367.05 4449.73 5647.11 4088.72 3945.62 3743.85 6236.46 5342.17 6379.3 5015.67 3795.63 5189.4 4576.71 6538.04 4894.15 6157.59 5201.3 5848.41 4090.28 6223.33 5438.6 7370.52 4726.5 4521.88 3724.23 4963.88 7263.57 5888.94 3832.09 5705.96 5267.65 5739.69 3509.34 5360.88 7360.62 3166.37 4977.64 5369.42 4985.45 5205.53 4714.52 5499.37 5543.05 4883.13 4836.76 5333.16 5551.09 5755.98 5581.47 4384.91 6550.61 4987.01 4713.56 6094.34 5448.68 6210.48 6377.45 4182.05 3255.93 6853.07 6327.61 4633.59 5575.8 5268.93 3695.72 5106.9 5306.31 4535.94 3037.72 5126.08 5604.0 3760.4 4037.16 6395.63 5479.17 5020.37 4246.83 5467.05 5103.3 4727.98 4122.2 5175.88 4516.26 4790.16 3647.26 3731.58 5207.08 4587.19 6028.89 4888.17 5392.85 5077.2 4274.05 5275.27 4277.54 5529.09 4531.46 5925.82 4739.5 4072.95 4491.62 3865.5 
SCALARS Velocity float 1
LOOKUP_TABLE default
1.51841 1.50774 1.46938 1.57011 1.39887 1.56318 1.52363 1.55179 1.59062 1.47304 1.52504 1.52306 1.61956 1.64891 1.63342 1.49713 1.55375 1.5577 1.54295 1.49268 1.45368 1.56417 1.52569 1.58417 1.52562 1.56566 1.54824 1.54266 1.62283 1.55396 1.60302 1.45239 1.57324 1.71901 1.5457 1.53241 1.66718 1.44487 1.50733 1.5237 1.53817 1.57362 1.54514 1.48186 1.67335 1.57333 1.56219 1.52501 1.54752 1.59439 1.59856 1.56972 1.56217 1.52088 1.5628 1.5362 1.54814 1.6031 1.4669 1.51562 1.6059 1.54224 1.73879 1.68348 1.52277 1.64478 1.46586 1.48837 1.5442 1.51744 1.56389 1.67349 1.64694 1.53451 1.55401 1.57892 1.5737 1.52431 1.54382 1.5203 1.53825 1.56179 1.56222 1.6002 1.74324 1.60262 1.49105 1.44688 1.55715 1.44612 1.52902 1.54364 1.66894 1.68025 1.66332 1.55 1.52178 1.54629 1.58815 1.59497 1.58715 1.50344 1.52908 1.52307 1.56424 1.58366 1.68094 1.57429 1.47389 1.67921 1.53151 1.36982 1.4906 1.522 1.43673 1.71216 1.77157 1.74039 1.63604 1.64707 1.5513 1.55731 1.50789 1.62289 1.60478 1.60876 1.57626 1.54068 1.47884 1.99193 1.57589 1.65769 1.49656 1.66671 1.38866 1.53071 1.47036 1.59293 1.50399 1.44465 1.54773 1.50714 1.50596 1.47161 1.31607 1.68671 1.93201 1.65172 1.67778 1.57344 1.63186 1.46233 1.57431 1.69333 1.64382 1.60576 1.57413 1.60528 1.60277 1.45295 1.47666 1.49336 1.50836 1.54783 1.49562 1.49863 1.42715 1.52645 1.54119 1.51112 1.5428 1.53859 1.50724 1.45001 1.8261 1.59181 1.62278 1.48998 1.53869 1.7001 1.6702 1.73513 1.54123 1.68417 1.78961 1.80875 1.25904 1.43577 1.5349 1.49693 1.49324 1.49019 1.48236 1.45518 1.53764 1.51657 1.53275 1.54818 1.47755 1.51658 1.47656 1.3767 1.93281 1.75348 1.82006 1.55054 1.44482 1.31491 1.50342 1.6858 2.37351 1.84299 1.68473 1.6169 1.63108 1.8221 1.33281 1.5256 1.59831 1.47682 1.47303 1.44902 1.45719 1.43826 1.4484 1.49337 1.5202 1.52565 1.56813 1.5428 1.44204 1.90585 1.8442 1.77182 1.05496 1.53194 1.32202 1.10821 1.31057 1.17159 1.45166 1.75654 1.56696 1.41748 1.56781 1.8555 1.69682 1.72651 1.57559 1.50859 1.57273 1.50387 1.81186 1.58334 1.2857 1.42629 1.37727 1.58115 1.38789 1.29021 1.42378 1.37873 1.43225 1.41752 1.46509 1.49214 1.46131 1.44902 1.54219 1.64881 1.54694 1.56049 1.50338 1.41361 1.70936 1.61575 1.91054 1.99242 1.72038 1.26031 1.14192 1.20474 1.0424 1.07721 1.05059 1.02485 1.13636 1.07065 1.10909 1.19524 1.24023 1.1223 1.12255 1.7222 1.53256 1.59355 1.61487 1.64967 1.66608 1.2206 1.37268 1.52303 1.15903 1.28336 1.35824 1.39383 1.39452 1.38879 1.43115 1.43854 1.50343 1.41033 1.60741 1.2079 1.6487 1.45852 1.64773 1.4782 1.56659 1.08812 1.4212 1.35947 1.41118 1.17733 1.12816 1.20388 1.19024 1.10797 1.39996 1.90599 0.935448 1.15625 1.0904 0.99864 1.02823 0.917475 0.990484 1.14747 1.02663 1.23818 1.13646 1.09896 1.11743 1.06029 1.28001 1.49885 1.36008 1.39072 1.33975 1.26935 1.46555 1.48747 1.40382 1.10427 1.14305 1.23256 1.38076 1.33068 1.42472 1.47855 1.25111 1.48899 1.07827 1.17462 1.5638 1.31715 1.22219 1.5573 1.39282 1.52824 1.50071 1.70862 1.54923 1.50603 1.36447 1.29869 1.33115 1.27135 1.41694 1.37574 1.26509 1.22148 1.10054 1.08667 0.742347 0.923724 0.890643 2.48511 3.6719 0.911945 0.825251 1.09745 1.04632 1.05233 1.1277 0.972386 0.954676 0.739335 1.22599 1.25054 1.11572 1.03737 0.930979 1.01649 1.05675 1.27431 1.03982 1.33985 1.26809 1.10699 1.24286 0.881661 1.25808 1.17635 1.51627 1.45816 1.03732 1.25983 1.21901 1.04388 1.25232 1.13756 1.51644 1.33482 1.53312 1.26562 1.34324 0.975779 1.73321 1.78315 1.48833 1.35792 1.33018 1.579 1.55113 1.40018 1.35872 1.21914 1.24808 1.28342 1.19864 0.828768 0.960546 1.08584 0.991062 1.13245 1.09974 1.13219 1.08862 0.984552 1.79748 1.14214 1.02379 1.02985 1.17375 0.836819 0.697794 0.987455 1.06293 1.05423 1.08232 1.0267 1.02741 1.01811 1.0596 0.901394 0.927924 0.881995 1.11528 0.852666 1.28895 1.55414 0.931286 0.760906 0.948893 0.880311 0.95565 1.12296 1.15883 1.20735 1.09604 1.14411 1.06604 1.25123 1.34941 1.38448 1.39424 1.48206 1.26874 1.26873 1.18312 1.26165 1.19887 1.17879 0.959745 1.37415 1.27302 1.31855 1.30189 1.23564 0.698613 1.08015 1.33868 1.163 1.50394 1.26313 1.28103 1.1049 0.962091 1.13765 1.04619 1.20251 1.1014 1.31798 0.915541 1.07014 1.02899 1.07813 1.10111 0.987444 1.11481 0.875379 1.30919 1.3306 0.763685 0.921031 0.877568 0.896682 0.956242 0.976299 0.993896 1.02059 0.967884 0.972296 0.885203 0.961538 0.890927 0.880054 0.892106 0.873402 0.883033 1.02777 0.960995 0.970892 0.947878 0.964581 1.04583 1.05819 1.21316 1.04506 1.02636 0.987623 1.01604 1.16696 1.13248 1.14041 1.10308 1.1765 1.07077 1.23415 1.15032 1.27489 1.19452 1.31811 1.22981 1.31806 1.12393 1.12793 1.03947 1.10963 1.07606 1.09884 1.22319 1.10347 0.896111 1.36492 1.48618 1.21838 0.995068 1.47051 1.18257 1.30028 1.19933 1.07891 1.04873 0.943475 1.03283 1.23053 1.5157 0.929287 1.36416 0.952651 1.01525 1.08143 1.08232 1.00744 1.11823 1.07614 1.09928 0.869356 0.979002 0.855312 1.05882 0.844718 0.865357 0.973054 0.831092 0.920121 0.797957 1.02842 0.867494 0.900865 0.880967 0.926274 0.95702 0.968595 0.934658 0.905931 0.926855 0.902655 0.926915 0.88102 0.878678 0.928879 0.926342 0.975254 0.964283 0.967658 0.961002 0.960526 1.21463 1.05478 1.07071 0.956787 0.919116 1.09546 0.956906 1.05263 1.09802 1.09241 1.06062 1.09639 1.09381 1.12299 1.2887 1.46482 1.10811 1.08872 1.05028 1.09036 1.13502 1.28441 1.00374 1.26181 0.793336 1.09007 1.14737 1.18086 1.25758 1.16454 1.07413 0.939417 0.969517 0.931163 0.784177 0.14766 0.638512 1.06167 1.03339 1.01658 0.972229 0.912241 0.925953 1.12088 0.963835 1.31727 0.957475 0.882629 0.901839 0.883809 0.864335 0.839813 0.902329 0.895476 0.817356 0.909651 0.862827 0.890727 0.887092 0.894077 0.835245 0.822822 0.865318 0.856866 0.884206 0.917369 0.877837 0.87278 0.895936 0.895108 0.914452 0.911836 0.921673 0.903603 0.893662 0.888154 0.923062 0.904694 0.90123 0.885745 0.98738 0.95802 0.937038 0.917273 0.945512 0.959191 0.971886 0.991583 0.949832 0.938197 0.916978 0.932893 0.959985 1.00449 1.0522 1.05759 1.02016 1.03181 1.04956 1.0269 1.114 1.14207 1.3882 1.28873 0.592137 1.37481 1.26672 1.06542 1.06377 1.08136 1.16208 1.06171 0.76948 0.975568 1.02538 1.11266 1.13681 1.07991 1.10672 1.04728 0.950437 1.0307 1.0146 0.968699 0.883257 0.866688 0.63937 1.01951 0.94491 0.967318 0.925426 0.955611 1.00914 1.21437 0.952376 1.11483 0.92584 0.894604 0.901543 0.919443 0.929762 0.894525 0.929883 0.897257 0.88636 0.900392 0.902379 0.903655 0.913714 0.90556 0.908313 0.845567 0.837454 0.840491 0.811423 0.894832 0.874044 0.910209 0.91605 0.914752 0.898728 0.911462 0.926479 0.924916 0.854723 0.863883 0.862269 0.87743 0.884275 0.890358 0.915447 0.951138 0.951256 0.94402 0.950784 0.936659 0.959117 0.830122 0.829253 0.805047 0.919432 0.978849 1.0003 1.02174 1.03204 1.01717 0.997177 1.02047 0.994591 1.02579 1.16564 1.03129 0.895402 1.29411 0.466561 1.17812 1.13651 1.07242 1.04309 1.0271 1.02532 1.09785 1.04911 1.0428 1.01258 0.94487 1.02643 1.06336 1.04329 1.03033 1.05368 1.03158 1.04162 1.03032 1.01716 0.906412 0.959568 0.871643 0.790888 0.921074 0.928273 0.963061 0.954975 0.942494 0.914889 0.957633 0.970462 0.982919 0.939744 0.949639 0.896506 0.927089 0.930919 0.946219 0.964312 0.917978 0.93266 0.947106 0.957834 0.88951 0.848984 0.900354 0.906396 0.872066 0.881667 0.89566 0.942323 0.738327 0.887683 0.870916 0.79821 0.798063 0.804184 0.88214 0.865981 0.904723 0.868101 0.897679 0.909249 0.875605 0.887613 0.879015 0.876469 0.890179 0.893702 0.914852 0.907248 0.949547 0.915653 0.902846 0.935126 0.85697 0.866427 0.820072 0.755898 0.962687 1.09549 1.03988 1.01553 0.989508 1.01833 0.992171 1.05457 0.990429 1.11395 1.06558 1.15683 0.751831 0.764808 0.742074 1.11291 1.17134 1.03037 1.02209 1.04149 1.00791 0.995523 0.992128 1.00807 0.998027 1.00745 1.02953 1.02154 1.01507 1.01888 1.00803 1.02421 1.04867 1.0458 1.02934 1.00305 0.953611 0.914869 0.931039 0.848195 0.929022 0.955866 0.945757 0.965538 0.966734 0.982659 0.960502 0.9805 0.983111 0.98358 0.916396 0.849047 0.892681 0.934977 0.909122 0.929834 0.91582 0.918316 0.882054 0.889183 0.921157 0.864344 0.844147 0.850634 0.869258 0.800907 0.900444 0.979329 0.890406 1.09793 0.724142 0.806313 0.773398 0.875685 0.913449 0.906241 0.855221 0.957118 0.862963 0.904162 0.846872 0.867587 0.898953 0.864914 0.926827 0.909525 0.942598 0.884911 0.867468 0.899186 0.715137 0.89416 0.918052 0.888846 0.854302 0.892643 0.873426 0.906421 0.794325 0.854092 0.625284 0.692179 1.24265 1.02451 0.920249 0.942438 0.951683 1.00207 0.974243 1.04088 1.01077 1.02528 1.05157 1.03867 0.912242 0.923535 0.954834 1.01666 1.11364 0.909015 1.00889 1.03593 1.06413 0.957041 0.992875 1.01155 1.00205 0.999172 0.978081 1.01377 1.08654 1.01897 1.13804 0.916586 0.940091 0.966772 0.897839 0.929767 0.938605 0.983161 0.993844 0.933256 1.03115 0.941645 1.04844 0.815912 0.852951 0.83426 0.896477 0.921738 0.881291 0.963524 0.820277 0.899086 0.815506 0.829702 0.814024 0.94858 0.884865 0.973675 0.891211 0.865375 0.770388 0.649491 0.855389 0.643009 0.866849 0.748908 0.890894 0.882318 0.871355 0.871198 0.815783 0.900184 0.849986 0.893038 0.871083 0.830773 0.825146 0.683302 0.716331 0.869748 0.878624 0.903861 0.788287 0.786367 0.818892 0.843586 0.841759 0.892976 0.770546 0.822738 0.705948 0.946224 0.863107 0.835344 0.874095 0.817953 0.839448 0.818736 0.832226 0.808738 0.754138 0.834003 0.908775 1.06243 0.845371 0.912745 0.931354 0.96567 1.00034 1.01363 1.00079 1.00625 0.926438 1.03403 1.02752 0.994866 0.953277 1.00012 1.01401 0.898928 0.957455 0.96955 1.00316 0.986499 0.96298 0.976279 0.957875 0.964343 0.964728 1.00239 0.966124 0.955021 0.768441 0.97011 0.945035 0.972644 0.922528 0.934827 0.927347 0.908192 0.982799 0.944598 0.974996 0.921621 0.961609 0.756174 0.932834 0.817443 0.922386 0.958919 0.869043 1.02448 0.821032 0.805376 0.81735 0.836174 0.844514 0.87932 0.856745 1.10891 1.04088 0.982793 0.726268 0.775105 0.94467 0.994562 0.814494 0.849108 0.755199 0.731323 0.866741 0.875693 0.891671 0.892987 0.848076 0.894276 0.822594 0.836407 0.885079 0.883501 0.8964 0.854283 0.78926 0.827734 0.793714 0.832363 0.834273 0.851034 0.858019 0.936611 0.824537 0.867261 0.812767 0.826298 0.824341 0.860128 0.846792 0.827025 0.810499 0.871235 0.862516 0.911114 0.881701 0.940157 0.9868 1.00343 0.871003 0.877294 0.931306 1.01621 1.01445 1.00098 0.991046 0.973153 0.937775 0.968621 0.971066 1.07339 1.06907 1.09147 1.04258 1.01568 0.984747 0.976297 0.979108 0.980355 0.95891 0.930206 0.950778 0.969222 0.966785 0.94787 0.958967 0.952288 1.00266 1.01864 0.97414 0.876493 0.956068 0.9144 0.91532 0.912309 0.940271 0.934297 0.942571 0.928086 0.950603 0.811957 1.05825 0.76405 0.747423 0.725375 0.780794 0.847206 0.82835 0.956861 0.845619 0.802187 0.741335 0.762735 0.785421 0.853765 0.956581 1.07354 1.01208 0.757478 1.12619 0.844644 0.869257 0.912398 0.89855 0.906194 0.769355 0.915283 0.69931 0.696691 0.704987 0.74697 0.807479 0.776703 0.857967 0.836847 0.850971 0.85427 0.818167 0.821447 0.835585 0.86485 0.887354 0.8322 0.83984 0.811643 0.85504 0.795096 0.716126 0.722669 0.850914 1.13094 0.779832 1.10408 0.577927 0.657522 0.92621 0.883579 1.14615 0.869018 0.788619 0.820082 0.82754 0.877584 0.830976 0.881524 0.86764 0.869537 0.887279 0.938704 0.930382 0.948505 0.955457 0.905977 0.93972 0.867206 0.955209 1.06278 1.00509 0.998935 0.991971 0.962832 0.974998 0.974108 0.971509 0.999199 0.998524 0.975276 1.11146 1.10162 1.02879 0.970759 0.964559 0.970396 0.955603 0.941424 0.933423 0.942461 0.97051 0.95719 0.92778 0.941531 0.945641 0.975707 0.95383 0.882917 0.90698 0.908874 0.919323 0.933838 0.914068 0.901103 0.89632 0.931293 0.934579 0.956892 0.881185 0.772923 0.833928 0.754797 0.80424 0.844866 0.869882 0.876409 0.855845 0.849257 0.723151 0.761 0.761303 0.859472 0.870098 0.693833 0.813162 0.834109 0.827979 0.890749 0.938755 0.859642 0.764601 0.885342 0.771709 0.717114 0.715326 0.777496 0.749238 0.774585 0.745683 0.746601 0.758246 0.782652 0.776584 0.812809 0.799439 0.822399 0.844042 0.833021 0.789537 0.889851 0.867228 0.841668 0.794027 0.789493 0.738686 0.903793 0.946716 0.860989 0.833987 0.781219 0.603614 0.836917 0.994761 0.768862 1.24537 0.721524 0.705112 0.870664 0.955684 0.871824 0.851555 0.871742 0.924152 1.02135 0.985016 0.987034 0.963352 0.951906 0.93778 0.946983 0.926271 0.751263 1.19538 1.11014 0.94415 0.950055 0.969353 0.98684 1.17412 1.18858 1.07176 0.955495 1.03685 0.982219 0.960916 0.977054 0.937349 0.962853 0.925712 0.926868 0.872093 0.92426 0.951357 0.946075 0.951098 0.92071 0.927997 0.934248 0.952994 0.939391 0.912446 0.946688 0.885354 0.893816 0.906417 0.925278 0.928951 0.93083 0.915506 0.851587 0.800231 0.826915 0.8618 0.907369 0.894099 0.900242 0.830284 0.733878 0.7914 0.769105 0.74112 0.865375 0.870886 0.800214 0.846288 0.869886 0.677443 0.667535 0.771791 0.843068 0.84036 0.851989 0.825647 0.941522 0.897105 0.775702 0.925198 0.681867 0.753978 0.815308 0.852766 0.809851 0.780614 0.78539 0.792779 0.791831 0.802687 0.809137 0.724133 0.74285 0.723957 0.808468 0.765464 0.803909 0.806581 0.833893 0.823423 0.722503 0.753925 0.752646 0.724968 0.653758 0.795693 0.790707 0.706315 0.772613 0.74956 0.763339 0.691138 0.855291 0.742417 0.73606 0.698473 0.701709 0.607193 0.692059 0.697753 0.767898 0.748996 0.864863 0.599405 0.397036 1.26706 1.20081 0.849178 0.919999 0.801688 0.844139 0.873583 0.903112 0.932545 1.11955 1.0295 0.978633 0.958974 0.939854 0.94354 0.93163 0.89584 0.872507 0.709609 0.592515 1.00125 0.989173 0.974792 1.00627 1.01871 1.13848 0.745637 0.894311 1.09435 1.08165 0.997607 0.990234 0.990011 0.933882 0.926226 0.91326 0.907418 0.904888 0.91463 0.921221 0.934247 0.936315 0.938525 0.929135 0.928741 0.928171 0.922679 0.949522 0.935874 0.973554 0.998818 0.933602 0.90404 0.930203 0.898146 0.893562 0.863773 0.858086 0.853676 0.825749 0.847612 0.849327 0.865026 0.880233 0.905999 0.853797 0.871102 0.82894 0.786004 0.769728 0.826397 0.790398 0.862213 0.830553 0.86084 0.810873 0.705513 0.797052 0.795212 0.814438 0.910574 0.923316 0.785562 0.849011 0.812212 0.82037 0.791701 0.80534 0.800357 0.826126 0.821541 0.83615 0.820963 0.842264 0.792376 0.786254 0.812824 0.816114 0.726618 0.745365 0.741925 0.728558 0.698563 0.722905 0.778401 0.749066 0.734462 0.724502 0.704695 0.716492 0.707349 0.671208 0.797711 0.829099 0.744398 0.671133 0.729039 0.692193 0.735167 0.81313 0.69243 0.777258 0.769675 0.704437 0.713776 0.736149 0.77421 0.716035 0.799994 1.07652 0.857079 0.824994 0.885529 0.887985 1.0562 1.26264 1.06825 0.943053 0.941889 0.913014 0.883321 0.860535 0.83995 0.811792 0.835922 0.891071 1.01178 1.01489 1.03785 1.02222 0.990875 1.09357 0.921439 0.939819 0.879063 0.898775 1.03476 1.06398 1.06069 1.00965 0.998628 1.06001 0.945222 0.925459 0.926246 0.932764 0.925119 0.918442 0.927346 0.931174 0.932466 0.926681 0.920994 0.921294 0.93038 0.955435 0.993764 0.997689 1.00603 0.92669 0.913308 0.875495 0.881564 0.859054 0.85385 0.857644 0.865612 0.88604 0.888355 0.897526 0.902341 0.880514 0.860216 0.841692 0.849332 0.846 0.797086 0.795953 0.806382 0.814974 0.912509 0.697717 0.846488 0.747824 0.866705 0.78229 0.785383 0.82762 0.794528 0.801833 0.755762 0.787604 0.816751 0.805945 0.822939 0.809839 0.840913 0.769711 0.814467 0.759084 0.788291 0.75896 0.706501 0.655587 0.691257 0.63108 0.627795 0.612491 0.644204 0.700344 0.706917 0.682824 0.716596 0.722725 0.67646 0.691987 0.658831 0.709999 0.649543 0.673828 0.691066 0.66594 0.734706 0.701999 0.667693 0.720596 0.672921 0.73299 0.483818 0.488994 0.843139 0.916725 0.940388 0.867305 0.776723 0.758719 0.728897 0.748304 0.763557 0.776367 0.811812 0.80628 0.832784 0.991807 1.08333 0.970873 0.877472 0.832357 0.806407 0.789609 0.936703 1.02316 0.945867 0.904786 0.853316 0.863171 0.848347 0.809647 0.848322 0.772805 0.943555 1.03962 1.01746 1.0719 0.958625 0.937487 0.947774 1.01388 1.03895 1.06858 1.0837 0.983513 1.11512 0.88721 0.935095 0.923059 0.943215 0.93408 0.937826 0.934705 0.933068 0.93417 0.93024 0.918019 0.911808 0.901136 0.93215 0.880979 0.932241 0.999177 0.995886 0.983348 1.00759 0.915662 0.966426 0.889292 0.858937 0.854357 0.865591 0.863997 0.872354 0.877326 0.888665 0.886042 0.855786 0.835685 0.817965 0.809344 0.788838 0.825626 0.837183 0.788003 0.723188 0.7974 0.569834 0.910112 0.808249 0.733544 0.725844 0.663119 0.768991 0.692414 0.79062 0.787544 0.718333 0.729931 0.775137 0.66784 0.691439 0.618388 0.64514 0.65056 0.631498 0.559981 0.56177 0.763005 0.733876 0.640692 0.696516 0.767035 0.686188 0.727115 0.647899 0.689435 0.746855 0.710302 0.706992 0.73722 0.704582 0.70085 0.671631 0.671485 0.658305 0.72304 0.68514 0.824009 0.766887 0.445277 1.29724 0.906631 0.778755 0.729948 0.7631 0.741775 0.762362 0.757239 0.731803 0.722472 0.790128 0.885039 0.869399 1.0005 0.973391 1.01226 0.980778 0.924571 0.935014 0.839873 0.714612 0.923496 1.00603 1.0726 1.02795 0.951322 0.913887 0.889838 0.873096 0.890839 0.859845 0.876939 0.863741 0.916615 1.02068 0.993021 0.961913 0.951914 1.00908 1.07082 1.05453 1.05951 1.08594 0.9473 0.851716 1.01181 0.903551 0.952296 0.947315 0.947914 0.942241 0.939582 0.911319 0.925118 0.902578 0.908493 0.899003 0.924308 0.962492 0.972448 0.977387 0.952303 0.93073 0.875931 0.844599 0.853098 0.860531 0.872924 0.893039 0.897574 0.891827 0.887665 0.868755 0.859146 0.835271 0.83406 0.81116 0.808457 0.799096 0.801193 0.806078 0.787463 0.745967 0.611446 0.909419 0.65234 0.811088 0.759129 0.797461 0.748942 0.72815 0.67276 0.661918 0.707516 0.705388 0.743912 0.722439 0.742469 0.711049 0.787869 0.740951 0.74053 0.791084 0.753685 0.695294 0.680072 0.707668 0.690476 0.71666 0.637016 0.629157 0.613123 0.595221 0.587709 0.525594 0.58732 0.63519 0.670323 0.693961 0.497668 0.579639 0.450553 0.618337 0.560238 0.667232 0.664814 0.749193 0.721781 0.751725 0.759302 0.745682 0.770367 0.705641 0.732998 0.690484 0.793457 0.677771 0.949998 0.818467 0.81084 0.79039 0.793578 0.792247 0.827606 0.882734 0.863418 0.96791 1.18917 0.994435 0.899362 0.845117 0.786922 1.05885 1.18932 0.953536 0.935157 0.916602 0.897269 0.898171 0.896122 0.89735 0.94119 0.899305 0.883544 0.95268 0.857927 0.912734 1.01682 0.989621 1.02199 1.06246 1.08404 0.957003 0.939187 0.99052 0.967265 0.932656 0.956746 0.946148 0.954827 0.960224 0.96165 0.947771 0.94991 0.949899 0.932882 0.922912 0.926198 0.932962 0.880486 0.918356 0.925045 0.924369 0.958016 0.934981 0.912749 0.868327 0.831731 0.857495 0.868003 0.884606 0.87588 0.888028 0.894472 0.891341 0.85597 0.817526 0.841484 0.809009 0.801709 0.801717 0.801798 0.788717 0.763646 0.783179 0.75994 0.774149 0.847067 0.737533 0.72309 0.732346 0.740988 0.730713 0.726173 0.693945 0.722789 0.740569 0.736868 0.731107 0.738646 0.719171 0.737158 0.710312 0.692403 0.70458 0.648594 0.724464 0.681359 0.637802 0.598945 0.583178 0.560466 0.529053 0.522646 0.521609 0.544125 0.550191 0.615502 0.606004 0.586566 0.521757 0.554023 0.553882 0.578892 0.579059 0.594542 0.647449 0.712432 0.641111 0.711433 0.600439 0.704937 0.811961 0.822085 0.732924 0.762239 0.746056 0.811336 0.747037 0.770358 0.593114 0.78917 0.898864 0.36316 0.942603 0.902553 0.776672 0.774126 0.781535 0.774426 0.790653 0.778175 0.534636 1.23746 0.805222 0.847726 0.937941 0.858608 0.74938 0.761551 0.662321 0.803 0.97819 0.97555 0.997768 0.895797 0.919469 0.907172 0.89557 0.882303 0.919235 0.917765 0.951629 0.969006 1.02542 1.04121 1.06617 1.08144 1.0549 0.937394 0.95691 0.979451 0.986719 0.982283 0.9769 0.9565 0.952219 0.9675 0.969145 0.955958 0.959273 0.961096 0.968616 0.927628 0.941082 0.941816 0.956217 0.934427 0.927732 0.91202 0.936357 0.914991 0.906908 0.901136 0.886206 0.851894 0.863726 0.861509 0.87178 0.884642 0.896501 0.839166 0.852327 0.824503 0.828148 0.810642 0.798023 0.79622 0.785085 0.788673 0.77241 0.755595 0.745258 0.72274 0.739991 0.801028 0.703468 0.709103 0.692735 0.690704 0.708467 0.713861 0.719097 0.737932 0.71578 0.718991 0.739552 0.717586 0.742487 0.751905 0.60249 0.666501 0.629716 0.629476 0.636287 0.632359 0.641436 0.675039 0.582758 0.571124 0.617142 0.585476 0.55696 0.48927 0.480841 0.462413 0.512191 0.483632 0.499432 0.515923 0.554445 0.51877 0.511029 0.473419 0.531199 0.624202 0.306892 0.655925 0.643111 0.686757 0.618033 0.615652 0.634174 0.739447 0.726562 0.707203 0.718645 0.606436 0.692525 0.811381 0.793375 0.867103 0.757109 0.699214 0.747568 0.665856 0.569253 0.777718 0.657764 0.71562 1.01995 0.736107 0.876363 0.777417 0.755475 0.76479 0.730541 0.651075 0.67545 0.740689 0.918335 0.936651 0.840477 0.889628 0.886159 0.819871 0.657316 0.980687 1.01961 1.03336 1.04864 0.942405 0.94495 0.930638 0.904449 0.934486 0.87297 0.85436 0.879819 0.94705 1.00553 1.04162 1.04149 1.07424 1.08325 1.05587 0.972516 0.98336 0.979085 0.999287 0.993824 0.980559 0.9812 0.990574 0.981147 0.975518 0.985142 0.979061 0.963655 0.980882 1.01002 0.964905 0.949666 0.967747 0.952319 0.93574 0.909264 0.91172 0.910389 0.88256 0.881373 0.890492 0.878265 0.86591 0.87009 0.875539 0.892661 0.93039 0.833313 0.826807 0.851354 0.833412 0.814207 0.829939 0.815134 0.799389 0.809986 0.787277 0.769622 0.750418 0.728113 0.697612 0.696191 0.690478 0.700837 0.690994 0.708906 0.724513 0.764837 0.747803 0.772112 0.665437 0.756014 0.596838 0.621822 0.73043 0.881916 0.607673 0.742781 0.665326 0.550333 0.499119 0.668507 0.433894 0.417413 0.485455 0.465294 0.39268 0.375287 0.325528 0.406471 0.430851 0.511317 0.556234 0.466426 0.473496 0.464213 0.299942 0.195956 0.303435 0.657861 0.62264 0.600722 0.687918 0.717604 0.659879 0.617852 0.591425 0.688396 0.910443 0.919389 0.800317 0.778454 0.706682 0.693604 0.690863 0.732308 0.676191 0.792811 0.756864 0.792134 0.752268 0.76968 0.789771 0.791974 0.73329 0.753145 0.753105 0.789357 0.787666 0.730226 0.846049 0.874047 0.937067 0.931983 0.94772 1.00778 0.83713 0.800811 1.07565 1.04772 1.11445 0.999277 1.03929 0.995022 0.96003 0.961085 0.949185 0.91591 0.874266 0.876067 1.02739 1.07492 1.05152 1.03212 1.04618 1.06271 1.02269 0.995211 1.02313 0.952853 1.00846 0.996259 1.00926 0.992232 0.996655 0.994503 1.00059 0.99568 0.97954 0.981551 0.9965 1.00895 0.998379 0.988041 0.926565 0.888736 0.957183 0.947938 0.919155 0.989631 0.991986 0.950211 0.888877 0.875832 0.877911 0.882899 0.877163 0.879151 0.883427 0.938445 0.751607 0.826563 0.828092 0.845282 0.841355 0.838796 0.826507 0.836023 0.824099 0.784739 0.771458 0.779169 0.759641 0.748954 0.73658 0.713525 0.714392 0.690041 0.688605 0.702465 0.689709 0.719833 0.725909 0.752477 0.74217 0.708524 0.716794 0.419884 0.325842 0.483515 0.569435 0.352548 0.765289 0.47674 0.509566 0.561833 0.602951 0.768324 0.524065 0.570678 0.672254 0.609228 0.381015 0.744145 0.725972 0.642592 0.525569 0.526997 0.539043 0.548115 0.405145 0.375728 0.4479 0.419596 0.744115 0.617353 0.608187 0.675169 0.699809 0.670922 0.663084 0.617963 0.651359 0.720823 0.841901 0.746312 0.78661 0.683052 0.733201 0.668215 0.70146 0.758715 0.730048 0.797843 0.795728 0.781269 0.793416 0.779923 0.780276 0.729285 0.672842 0.703447 0.609796 0.952529 0.936634 0.885462 0.909528 0.908641 0.907212 0.906418 0.905788 1.05752 0.754224 0.89598 0.751884 0.705165 0.545322 0.790678 0.875171 1.06344 1.02999 1.01423 0.994165 0.964586 1.00888 0.998997 0.903125 0.880432 0.838819 0.823881 1.01517 0.560972 0.897797 1.05567 1.0222 1.06302 1.04613 1.00703 0.96203 0.948914 1.00242 1.02081 1.01036 1.0049 1.00519 1.00633 1.00528 1.00286 1.00818 1.05098 1.05307 0.957374 0.979377 1.03788 0.899077 0.959559 0.947511 0.912969 0.928724 0.987522 0.993256 0.976242 0.972154 0.893129 0.876968 0.870202 0.891776 0.884794 0.886947 0.899841 0.952476 0.819046 0.845559 0.859053 0.847394 0.863522 0.858833 0.859894 0.843044 0.799854 0.762463 0.762677 0.746187 0.732884 0.720506 0.699668 0.711851 0.700876 0.710983 0.713095 0.739119 0.715387 0.833766 1.07235 0.508474 0.458286 0.503033 0.385192 0.37865 0.583629 0.599521 0.992398 0.658812 0.820125 0.722877 1.1917 0.16093 2.36459 0.261358 0.284272 0.574105 0.391477 0.470497 0.475431 0.472229 0.484665 0.473628 0.404172 0.369805 0.860351 0.61238 0.3964 0.220984 1.14849 0.84556 0.731513 0.71349 0.759381 0.728468 0.676191 0.686264 0.772232 0.801509 0.74752 0.719264 0.801179 0.809233 0.795873 0.79812 0.773645 0.732489 0.709655 0.63935 0.562746 1.06184 0.944876 0.932993 0.902572 0.904774 0.884781 0.83311 0.818329 0.804505 0.808025 0.852021 0.840474 0.838815 1.04765 1.03901 1.01782 1.00396 0.998344 0.991165 0.960898 0.95314 0.804191 0.721649 1.07192 1.11858 1.05933 1.06728 1.02659 0.979562 0.96266 0.920275 0.998161 1.0176 1.0285 1.00777 1.01269 1.01236 1.00922 1.01884 1.0382 1.02991 1.04509 1.06249 0.994443 0.893369 0.937301 0.898502 0.975287 0.944077 0.99357 0.995014 1.00099 0.906038 0.877086 0.890374 0.917768 0.878387 0.804104 0.885688 0.871544 0.86035 0.863517 0.873559 0.878574 0.893283 0.87815 0.850506 0.766279 0.773298 0.777582 0.746505 0.724968 0.721059 0.717438 0.724162 0.712408 0.728657 0.701419 0.69631 0.776694 1.05792 0.637133 0.493191 0.671996 0.607462 0.314568 0.792216 0.311601 0.302291 0.296767 0.499667 0.358589 0.638658 0.561225 0.395902 0.168548 0.66561 0.574928 0.373384 0.529311 0.518218 0.467655 0.396847 0.454789 0.352125 0.31011 0.446144 0.724631 0.459689 0.929655 0.61744 0.682002 0.686998 0.69971 0.700828 0.695752 0.766583 0.810047 0.774443 0.756451 0.752275 0.889127 0.689436 0.758635 0.79115 0.852993 0.803637 0.788818 0.768677 0.771857 0.729665 0.665649 1.08332 0.930756 0.899272 0.903423 0.911104 0.928906 0.865185 0.840298 0.798534 0.749341 0.840532 0.888339 1.03642 1.01339 1.00083 0.99683 0.996269 0.983405 0.999151 1.0005 0.865222 0.438903 0.419631 0.884157 1.21326 1.18157 1.08117 1.01896 0.99626 0.967195 0.944559 0.999871 1.01608 1.03612 0.995461 1.02803 1.04541 1.03513 1.05292 1.06436 1.07956 1.04149 0.982343 0.925264 0.948725 0.939417 0.878772 0.869561 0.932185 0.980325 0.992488 1.01579 1.01865 0.991558 0.948387 0.867139 0.933723 0.959381 0.941806 0.87791 0.863688 0.862294 0.866902 0.868833 0.882128 0.931401 0.932453 0.855016 0.856603 0.868823 0.822509 0.776404 0.731498 0.762952 0.717304 0.714005 0.734827 0.74256 0.706429 0.764097 0.699171 0.689863 0.758179 0.820223 0.785978 0.852222 0.768243 0.793577 0.758765 0.714379 0.459694 0.92837 0.45785 0.488366 0.442909 0.482373 0.42411 0.561999 0.421217 0.416307 0.453227 0.513859 0.447048 0.471979 0.511225 0.518262 0.45752 0.481698 0.363114 0.592227 0.516737 0.563095 0.719919 0.68666 0.856242 0.703028 0.721297 0.689173 0.701612 0.699145 0.67752 0.758473 0.737693 0.739963 0.739334 0.73891 0.740599 0.769897 0.845295 0.879323 0.800562 0.778058 0.752251 0.7627 0.762206 0.670476 0.882684 0.967374 0.939404 0.944221 0.913256 0.92491 0.920012 0.876644 0.833823 0.83054 0.76286 0.816357 0.926273 0.877813 0.966402 1.02046 1.00752 0.989438 1.01801 1.00105 0.994334 0.997639 1.00685 1.02432 0.974985 0.93608 0.972267 0.734594 1.1546 1.1619 1.03243 1.06633 0.980536 0.966353 0.986756 0.957325 1.03266 0.966109 1.02038 1.00029 1.02832 1.03026 1.04157 1.05524 1.02693 1.06608 1.08925 1.08945 0.984437 0.954586 0.957807 0.91401 0.900725 0.912221 0.960388 1.0186 1.00064 1.02226 0.998227 0.899942 0.947958 0.898176 0.835543 0.856356 0.879135 0.880844 0.874346 0.856006 0.871169 0.869229 0.863093 0.873466 0.976104 0.859561 0.84077 0.86201 0.829068 0.904751 0.793725 0.660874 0.823189 0.776741 0.722009 0.655667 0.762543 0.797235 0.737502 0.782204 0.794532 0.888364 0.781859 0.883411 0.663108 0.166447 0.264061 0.832906 0.664003 0.404883 0.561447 0.49332 0.419665 0.516296 0.471803 0.535531 0.535991 0.592193 0.566897 0.596322 0.637158 0.273086 0.304307 0.389253 0.514012 0.634369 0.801148 0.9477 0.681906 0.671527 0.892174 0.651816 0.70853 0.695834 0.705737 0.705451 0.730728 0.732435 0.740626 0.742467 0.760991 0.827047 0.850589 0.841633 0.836015 0.828442 0.80287 0.756992 0.748273 0.95977 0.896393 0.946827 0.932587 0.905496 0.9262 0.875008 0.874972 0.881368 0.846352 0.865934 0.891814 0.977783 1.0121 1.00854 0.993091 0.998781 1.01225 1.00658 0.843177 1.08865 1.11477 1.0246 0.843312 1.04313 1.14023 1.18797 1.16828 1.09848 0.997309 0.942616 0.994186 1.04163 1.0368 1.03369 1.02494 1.04563 1.03826 1.03373 1.05142 1.07989 1.02546 1.14742 0.930058 1.06156 1.00124 0.943744 0.895587 0.878223 0.958078 0.947769 1.01916 0.978188 0.979689 1.00453 1.00276 0.842302 0.89973 1.00952 0.909061 0.90452 0.896383 0.86126 0.887093 0.870638 0.856573 0.828159 0.975775 0.775793 0.841523 0.895779 0.964985 0.823346 0.727839 0.811254 0.793802 0.607946 0.667451 0.615738 0.586411 0.710281 0.7604 0.763569 0.744679 1.01729 0.623724 0.522475 1.36307 0.768249 0.870999 0.670568 0.492921 0.582983 0.601179 0.587401 0.53482 0.382176 0.494592 0.503399 0.623881 0.602025 0.661917 0.51238 0.879681 0.84318 0.837377 0.940469 0.678522 0.764743 0.668722 0.750534 0.731034 0.805552 0.716486 0.694429 0.707337 0.734699 0.737946 0.750817 0.793997 0.864212 0.845639 0.862275 0.811453 0.767133 0.929838 0.926946 0.903291 0.928489 0.913426 0.901831 0.87325 0.899725 0.88426 0.901587 0.88905 0.905696 0.950046 0.890973 0.978439 0.921771 1.00201 1.01715 1.01367 1.01361 0.995239 1.03771 0.77046 1.1147 1.24385 0.935664 1.04704 0.885744 1.09175 1.11683 1.04561 1.10532 1.04142 0.960277 1.03394 1.04977 1.03779 1.08366 1.09351 1.04272 1.0474 1.06892 1.06752 1.09159 1.0392 0.880364 1.17161 1.02897 0.94917 0.985714 1.0293 0.99457 0.996381 0.985052 1.02278 0.884597 0.833713 0.895754 0.928813 0.935475 0.98157 0.862545 0.913905 0.887311 0.857663 0.813735 0.777224 0.92717 0.852861 0.769626 0.82586 0.886399 0.944653 0.845609 0.804678 0.809915 0.684356 0.603352 0.735978 0.694689 0.733042 0.746284 0.713026 0.762827 1.28058 0.983146 0.663295 0.595025 0.588736 0.492749 0.555958 0.507614 0.579409 0.654551 0.644392 0.634579 0.634686 0.601468 0.77793 0.851152 0.587203 0.668089 0.710294 0.74979 0.703684 0.757856 0.7017 0.723191 0.70901 0.744429 0.738747 0.81181 0.77963 0.82964 0.84031 0.909291 0.815632 0.736833 0.808286 0.933556 0.948746 0.930108 0.910205 0.928858 0.887204 0.869359 0.898408 0.922194 0.937354 0.963793 0.92931 0.964264 1.01533 1.02435 1.01792 1.00879 1.02602 1.01346 0.978218 1.05216 0.821411 1.16743 1.15649 0.973478 0.998604 1.22759 0.985319 1.16472 1.09165 1.05156 1.03381 1.08536 1.07126 0.981157 1.04646 1.06781 1.09958 1.06952 1.02156 1.04988 1.04349 1.0891 1.11687 1.06611 0.939442 1.08727 0.885585 1.04203 1.00138 0.988206 1.01389 1.04335 0.998841 1.00203 1.0255 1.00912 0.844137 0.872823 0.913657 0.969503 0.986086 0.955436 0.929768 0.947588 0.880785 0.805858 0.803142 0.844742 0.92319 0.869648 0.915067 0.930858 0.918737 0.877043 0.858301 0.783013 0.879034 0.613838 0.773741 0.550374 0.571977 0.650302 0.729133 0.754136 0.712483 0.701069 0.763781 1.16098 1.00208 1.03504 0.821246 0.706836 0.622472 0.452499 0.609505 0.632862 0.543351 0.647994 0.704026 0.685373 0.693678 0.73571 0.902273 0.940915 0.85019 0.677528 0.666414 0.716692 0.74235 0.73675 0.751739 0.756645 0.725045 0.723442 0.763205 0.764833 0.838961 0.879397 0.871099 0.856092 0.829475 0.768362 0.941586 0.870326 0.946803 0.949781 0.929119 0.934775 0.942645 0.903307 0.873576 0.95093 0.916356 0.937598 0.931303 0.961273 0.988126 0.995932 1.04099 1.03324 0.989759 1.02271 1.02195 0.880074 0.933962 1.04015 1.12293 1.22248 1.10737 1.04949 1.04601 1.06674 1.07095 0.993883 1.05468 1.0939 1.11332 1.09483 1.15903 1.04213 1.01491 1.05243 1.07617 1.08145 1.12744 1.05241 0.968672 1.0421 1.22588 1.09198 0.999591 1.03117 0.930427 1.01087 0.997829 1.09986 0.995966 0.888619 0.885636 0.951062 0.924036 0.996957 0.949987 0.984861 0.922054 0.823303 0.853321 0.935474 0.914071 0.916549 0.933421 0.921498 0.950183 0.903869 0.734762 0.567051 0.471293 0.725356 0.732211 0.681925 0.787617 0.917564 0.928947 0.96859 0.742212 0.686647 0.624466 0.718207 0.714661 0.646118 0.689193 0.748471 0.793715 0.701536 0.786342 0.901156 0.920272 0.8517 0.682248 0.718541 0.767481 0.744387 0.755324 0.760184 0.753822 0.781619 0.778588 0.75925 0.773444 0.789829 0.807053 0.878155 0.903754 0.857689 0.876516 0.89217 0.976491 1.02877 0.95407 0.900475 0.983492 0.976049 0.94847 0.930989 0.909029 0.876785 0.962032 0.930295 0.984446 1.00474 1.01388 1.02806 1.04081 1.00289 1.03338 1.02696 0.9969 0.971243 1.05222 1.11912 1.09779 1.07665 1.22264 1.13412 1.08105 1.06919 1.11084 1.08958 1.07327 1.04624 0.995122 0.974644 1.08308 1.15795 1.17361 1.0519 1.03807 1.07012 1.0662 1.08592 1.13187 1.06057 0.999192 1.05874 1.07271 0.965761 0.912986 1.01484 1.00853 1.06063 1.02145 1.06557 1.0325 1.0736 1.00404 1.03354 0.946489 0.863628 0.913845 0.970607 0.989821 1.01475 0.926356 0.942309 0.99058 0.946943 0.923851 0.919897 0.921994 0.914797 0.906835 0.935813 0.950711 1.00312 0.783445 0.849085 0.808358 0.855449 0.969599 0.734957 0.825811 0.860968 0.853841 0.87196 0.81838 0.731539 0.720438 0.674759 0.698301 0.749677 0.761277 0.716967 0.742974 0.837574 0.821634 0.891882 0.921361 0.668087 0.824115 0.774982 0.763338 0.76431 0.758549 0.787344 0.784802 0.817199 0.862265 0.914289 0.928104 0.907427 0.883922 0.896741 0.973078 0.94029 0.989865 0.968907 0.94094 0.908261 0.902082 0.903677 0.972046 0.969182 1.0725 1.00676 1.03093 1.01721 1.02033 1.03729 1.06171 1.01449 1.04679 1.0601 1.09329 1.02033 0.996408 1.12396 1.02984 1.01323 1.0123 1.16509 1.10887 1.08408 1.08855 1.06588 1.04201 1.03089 1.05049 1.05366 1.1742 1.11145 1.07189 1.0664 1.09507 1.10781 1.07805 1.04646 0.97498 1.02644 1.09167 1.01948 1.17025 1.07099 1.03541 1.06569 1.07105 1.03909 1.04278 1.02755 1.03828 1.01782 0.994279 0.968803 0.968858 0.953852 0.958069 0.98455 0.964428 0.980981 0.909047 0.912085 0.902976 0.930962 0.917711 0.929485 0.968323 1.06575 0.633359 0.699096 1.06525 0.841903 0.850536 0.865803 0.855051 0.825254 0.79279 0.880846 0.743575 0.728066 0.727872 0.781316 0.782057 0.769082 0.78711 0.877425 0.898174 0.817079 0.859031 0.935992 0.902659 0.767834 0.795346 0.919423 0.760955 0.746703 0.782701 0.764148 0.748969 0.816144 0.926369 0.935748 0.932678 0.912759 0.933779 0.889005 0.913488 0.961233 0.981625 0.989518 0.986232 0.950775 0.908287 0.910681 0.965825 0.963254 1.06016 1.01559 1.03793 1.02293 1.01559 1.10309 1.10448 1.08244 0.975219 0.996782 0.998526 1.07925 1.05438 1.09673 1.01694 1.17564 1.11672 1.09618 1.06904 1.1012 1.08116 1.08106 1.07687 1.09757 1.05209 1.12713 1.12206 1.08311 1.09194 1.07078 1.05288 1.08339 1.03507 1.07618 1.18126 1.07832 1.02514 1.08912 1.05228 1.03006 1.05206 1.03861 1.05685 1.01885 0.986459 1.03531 0.982958 0.918678 0.961643 0.962512 0.972649 0.981323 1.00362 0.992066 0.938212 0.976784 0.923301 0.928505 0.922313 0.929234 0.939206 0.915785 0.981801 0.974803 1.17853 1.05785 0.657365 0.741119 0.883286 0.915696 1.09085 0.890809 0.900441 0.85272 0.921064 0.834206 0.862774 0.842635 0.871871 0.744388 0.732367 0.694478 0.80398 0.812565 0.82152 0.913177 0.911249 0.859387 0.925824 0.968344 0.85312 0.724581 0.728858 0.726824 0.802767 0.78779 0.962139 0.973788 0.940863 0.940489 0.935842 0.896497 0.907705 0.992864 0.984457 1.00453 0.99467 1.00366 0.970819 0.929508 0.895097 0.937338 0.974622 1.13228 1.0632 1.01165 1.04659 1.02849 1.00489 1.11599 1.07116 1.13682 1.20489 1.09078 0.992319 1.0161 1.13973 0.954373 1.10507 1.07395 0.952734 1.06609 1.19686 1.20135 1.12633 1.10865 1.06829 1.10228 1.08044 1.07598 1.1035 1.13299 1.01892 1.11828 1.05864 1.10819 1.11135 1.08807 1.0635 1.05749 1.05486 1.11213 1.04186 1.08988 1.12398 1.09232 1.08082 1.09548 1.10023 1.05411 1.01752 1.05698 1.05311 1.11517 1.02643 1.00962 0.989616 1.04518 1.06771 1.02175 0.970201 0.977891 0.979704 0.987923 0.984472 0.950181 0.939458 0.931411 0.957148 0.945745 0.925762 1.03356 1.04307 1.03656 0.718801 0.693271 0.819705 0.860378 0.824953 0.884747 0.95697 0.93375 0.904727 0.882255 0.912238 0.75191 0.814903 0.850135 0.823186 0.843107 0.834625 0.845875 0.933374 0.902588 0.911801 0.962826 0.990897 0.952964 0.833381 0.811858 0.845494 1.03679 0.951467 0.961887 0.944709 0.944702 0.938059 1.02996 0.909324 0.970701 0.98343 1.03019 0.981878 0.930898 0.88235 0.94327 1.00421 1.04817 1.03339 1.05448 1.02503 1.03215 1.12678 1.09089 1.04569 1.01696 1.05416 1.14601 1.05127 1.07636 1.1764 1.15014 1.17141 1.12849 1.13679 1.06828 1.06556 1.10919 1.08188 1.06995 1.11057 1.13944 1.06704 1.15855 1.15302 1.168 1.12177 1.11234 1.09981 1.05677 1.14314 1.10223 1.07319 1.20624 1.10545 1.10386 1.10397 1.06159 1.12395 1.07042 1.05164 1.12015 1.03049 1.07134 1.04329 1.00092 0.99304 0.99945 0.994749 1.00081 0.981207 0.95023 0.945499 0.94099 0.960391 0.999478 1.05456 1.03762 1.05028 0.799489 0.826524 0.832189 0.870035 0.864838 0.904858 0.960878 0.951308 0.921623 0.884457 0.676548 0.951053 0.880356 0.837892 0.845576 0.855083 0.837605 0.90129 0.962492 0.962205 0.969808 0.976468 0.855553 0.999064 0.844076 0.901055 1.00751 0.974975 0.955821 0.943803 0.940504 0.916181 0.913098 0.938436 1.05302 0.957995 1.00831 1.02188 1.00198 0.935291 1.05004 1.00754 0.883365 0.932477 1.0103 1.07407 1.08856 1.09249 1.07703 1.03635 1.02582 1.02263 1.11961 1.11253 1.106 1.01516 1.06994 1.13032 1.12094 1.06709 1.14828 1.15248 1.15113 1.11065 1.13577 1.11221 1.06895 1.13917 1.11879 1.17981 1.20316 1.07875 1.16421 1.17049 1.16724 1.12882 1.11671 1.12297 1.11556 1.11541 1.11534 0.971673 0.955997 1.13726 1.1099 1.08444 1.20687 1.13902 1.12647 1.10035 1.09951 1.17071 1.13139 1.08283 1.06272 1.07887 1.12792 1.0239 1.03496 1.05701 1.01503 1.01935 1.03378 0.997371 1.00754 0.992771 1.00706 0.958336 0.956753 0.956258 0.946751 0.999327 0.969028 1.00406 1.06217 0.849887 0.847121 0.89273 0.949511 0.955462 0.947604 0.946321 0.899554 0.929392 0.953882 1.02158 0.908039 0.861829 0.849381 0.826339 0.95565 0.902021 0.953052 0.952818 0.966059 0.972374 0.97489 0.971453 0.851628 1.04786 1.11047 1.11653 0.993168 1.03426 0.957497 0.904386 0.937778 0.933534 0.957262 1.02353 0.977966 1.02912 1.01802 1.03304 1.00939 0.959787 1.03011 1.08331 1.13933 1.0852 1.08705 1.0857 1.07391 1.01754 1.02862 1.12951 1.13534 1.11665 1.11426 1.10251 1.11437 1.08565 1.12551 1.12564 1.08281 1.16665 1.15762 1.1255 1.17912 1.11443 1.13756 1.10792 1.13302 1.09925 1.16873 1.16909 1.17551 1.19242 1.12953 1.11483 1.11814 1.13423 1.07577 1.15972 1.13901 1.11354 1.14685 1.14078 1.06445 1.16123 1.09615 1.17106 1.03969 1.04477 1.05963 1.02666 1.03769 1.04473 1.0458 1.04517 1.04195 1.07374 1.01964 1.0235 1.02895 0.956481 0.970571 0.976081 0.996232 0.987501 0.997378 1.03099 1.00702 0.879603 0.882188 0.926642 0.899501 0.907718 0.968031 1.08226 0.933605 0.950973 0.963404 1.00881 0.970647 0.929535 0.878103 0.839304 0.972736 0.969351 1.00051 0.94283 0.983412 0.962687 0.984176 0.978441 0.950903 0.973789 1.13436 1.04826 1.10148 1.14752 1.03912 0.98596 0.959702 0.952315 0.953915 1.03425 0.994168 1.02872 1.02765 1.0238 0.99512 0.963988 1.06021 1.12286 1.12693 1.09117 1.08854 1.09675 1.1692 1.04077 1.03101 1.10306 1.144 1.15562 1.13567 1.11722 1.10784 1.11744 1.10555 1.12183 1.12847 1.13138 1.09058 1.16879 1.16976 1.16889 1.2004 1.12521 1.14897 1.12217 1.16868 1.13844 1.15747 1.17586 1.16016 1.17851 1.12448 1.14335 1.1235 1.1528 1.16828 1.1354 1.12413 1.13035 1.14462 1.14626 1.10067 1.10109 1.06964 1.06024 1.15197 1.16177 1.15685 1.13023 1.04469 1.06126 1.0578 1.07813 1.05838 1.04695 1.03233 1.0686 1.04138 1.0494 1.07347 1.06576 0.961995 0.975799 0.97497 0.975653 0.998735 0.990482 1.02846 0.908172 0.944964 0.935158 0.910948 0.990206 1.09743 1.11941 0.967298 0.970313 0.962134 0.978202 0.96455 0.901533 0.883589 0.911693 0.82914 0.833393 0.967968 1.0042 0.974743 1.03302 1.00613 0.984951 0.999622 0.969998 1.11218 1.1124 1.12832 1.12285 1.01706 0.984416 1.01238 0.986385 0.938229 0.994997 1.02971 0.961253 1.01983 1.0358 1.04046 1.02455 0.995648 1.17485 1.04868 1.12322 1.08715 1.10916 1.07647 1.15309 1.1 1.14954 1.13184 1.13783 1.11865 1.1307 1.09636 1.18404 1.12762 1.18269 1.16146 1.27785 1.15586 1.13248 1.19327 1.15227 1.15423 1.19178 1.16849 1.18565 1.13181 1.14822 1.13842 1.16481 1.15997 1.15186 1.13706 1.15432 1.10349 1.11029 1.07873 1.15052 1.15604 1.16167 1.06589 1.08166 1.09524 1.0656 1.05099 1.05946 1.06329 1.0257 1.03946 1.06282 1.1043 1.02198 1.04177 0.982779 0.979913 0.998749 0.972234 1.01166 1.00548 1.02273 0.950105 0.956828 0.943536 0.991884 1.13367 1.01061 0.97482 0.962903 0.966567 0.941895 0.95268 0.981794 0.91768 0.978493 0.998778 1.02463 1.0241 0.983137 0.990605 1.00172 1.00293 0.988267 1.0993 1.10962 1.05452 1.03938 0.991599 0.963207 1.05871 0.993103 1.02837 1.0243 1.04447 1.04133 1.03198 1.08745 1.02556 1.07974 1.14703 1.04789 1.14219 1.08678 1.08275 1.15038 1.04151 1.05972 1.12725 1.15657 1.16916 1.1322 1.1201 1.12148 1.15042 1.11542 1.13376 1.09915 1.18822 1.15653 1.19816 1.1915 1.19178 1.17213 1.15549 1.21091 1.16263 1.1762 1.20738 1.16963 1.18597 1.14037 1.14687 1.14512 1.15249 1.1547 1.16492 1.15898 1.16779 1.14799 1.16137 1.11567 1.11614 1.12953 1.15514 1.16362 1.12845 1.08257 1.10381 1.07034 1.05662 1.06206 1.0722 1.06768 1.02473 1.0537 1.06582 1.01626 1.09228 0.994762 0.975732 1.0077 1.00522 0.992429 1.02493 0.965704 0.942478 0.986221 0.97524 1.20496 1.07575 1.00274 0.99651 0.981415 0.967323 0.985161 0.968826 0.930369 0.970986 0.96962 1.01926 1.00513 0.999398 1.00627 1.02584 1.02121 1.03716 1.00837 1.01157 1.00132 1.00651 0.998527 1.10172 1.1015 1.06908 1.05752 0.987467 1.01514 1.09617 1.05225 1.04085 1.01715 1.04574 1.03585 1.09228 1.1208 1.10831 1.08563 1.09231 1.1321 1.16666 1.10037 1.16524 1.14657 1.19114 1.13221 1.1616 1.16636 1.13845 1.18337 1.17123 1.13769 1.1335 1.09962 1.19379 1.17505 1.17856 1.19218 1.19178 1.19249 1.17899 1.165 1.18992 1.18058 1.18131 1.17179 1.18894 1.18613 1.15091 1.17404 1.15841 1.15858 1.16653 1.16827 1.16741 1.14583 1.16661 1.12486 1.12078 1.12012 1.16204 1.17187 1.10292 1.10101 1.16729 1.07395 1.06541 1.12775 1.14022 1.07356 1.02549 1.12551 1.06697 1.07015 1.02295 1.09095 0.978525 1.00672 1.02645 0.997836 1.00008 0.990916 0.969634 1.02186 0.971132 1.09624 0.99989 0.996702 1.00856 0.917004 0.98306 1.02061 1.01298 1.01723 1.00047 1.03419 1.04916 1.01275 1.02016 1.03102 1.01869 1.03033 1.10085 1.07393 1.05286 1.02393 1.06368 1.03175 1.01134 1.05308 1.04726 1.05144 1.03518 1.03841 1.08766 1.11268 1.06027 1.09276 1.11537 1.13171 1.12053 1.15145 1.14351 1.05758 1.06652 1.16538 1.16231 1.13697 1.18294 1.17133 1.13873 1.13719 1.15909 1.19078 1.17565 1.19163 1.19444 1.19755 1.17879 1.16637 1.19107 1.17307 1.18309 1.18998 1.1829 1.18459 1.15853 1.18199 1.16181 1.15244 1.16803 1.17012 1.17075 1.16883 1.13989 1.12528 1.11693 1.16782 1.17015 1.12963 1.1389 1.1021 1.11687 1.07214 1.06541 1.12956 1.10115 1.12247 1.08691 1.06093 1.07692 1.04143 1.07566 1.05719 1.03525 1.00299 0.993442 0.983111 1.00548 1.03055 1.0038 0.997028 1.03071 0.967215 1.09201 1.1074 1.0152 1.01874 0.964333 1.02264 1.02907 1.09896 1.02295 1.03774 1.06263 1.01882 1.0258 1.07462 1.09029 1.06401 1.1085 1.09248 1.03493 1.05599 1.05718 1.12593 1.13291 1.06437 1.14015 1.16686 1.11823 1.1577 1.12988 1.10319 1.12058 1.06849 1.07219 1.09923 1.11663 1.03842 1.04018 0.992696 1.03082 1.02754 0.976063 1.05926 0.991845 1.08957 1.1057 1.01249 0.992436 1.04727 0.951199 1.03189 1.0523 
SCALARS Stress float 1
LOOKUP_TABLE default
-251368000000.0 -177228000000.0 -215450000000.0 -299599000000.0 -124429000000.0 -153382000000.0 -345171000000.0 -180543000000.0 -231947000000.0 -586693000000.0 -434342000000.0 -193731000000.0 -304236000000.0 -72219300000.0 -325276000000.0 -216388000000.0 -278414000000.0 -258427000000.0 -207620000000.0 -403332000000.0 -580533000000.0 -678568000000.0 -1.13052e+12 -775766000000.0 -1.06568e+12 -661547000000.0 -538540000000.0 -698580000000.0 -488501000000.0 -816625000000.0 -987854000000.0 -796487000000.0 -467744000000.0 -232158000000.0 -111403000000.0 -1.13465e+12 -775749000000.0 -531755000000.0 -461250000000.0 -409959000000.0 -658542000000.0 -1.28164e+12 -724186000000.0 -507782000000.0 -824063000000.0 -928752000000.0 -944089000000.0 -843576000000.0 -1.53102e+12 -1.05746e+12 -1.53631e+12 -1.47758e+12 -1.47036e+12 -1.40818e+12 -1.03453e+12 -772480000000.0 -1.41626e+12 -1.64213e+12 -347632000000.0 -1.01683e+12 -1.03329e+12 -1.59121e+12 -1.30496e+12 -1.65373e+12 -461308000000.0 -1.48538e+12 -750127000000.0 -1.60117e+12 -1.4035e+12 -1.27662e+12 -915043000000.0 -1.36477e+12 -1.95764e+12 -1.42701e+12 -3.20142e+12 -2.541e+12 -1.91001e+12 -864728000000.0 -1.60569e+12 -945135000000.0 -927193000000.0 -2.21721e+12 -1.88594e+12 -1.8336e+12 -1.83035e+12 -2.58596e+12 -667789000000.0 -1.58164e+12 -811719000000.0 -2.10339e+12 -1.88093e+12 -1.62542e+12 -1.33571e+12 -1.09711e+12 -2.20644e+12 -1.83644e+12 -3.84975e+12 -2.28673e+12 -3.35579e+12 -2.59106e+12 -4.16964e+12 -1.67041e+12 -2.82137e+12 -1.49047e+12 -1.38736e+12 -2.07798e+12 -1.04193e+12 -1.70787e+12 -3.33558e+12 -2.43891e+12 -5.73243e+12 -2.46414e+12 -2.68555e+12 -1.59911e+12 -1.78912e+12 -2.18568e+12 -2.1204e+12 -1.24097e+12 -736840000000.0 -2.06748e+12 -902739000000.0 -1.58001e+12 -3.68217e+12 -3.32394e+12 -4.18777e+12 -3.01098e+12 -2.20347e+12 -1.30202e+12 -3.84463e+12 -1.59898e+12 -1.64583e+12 -4.36753e+12 -2.15341e+12 -1.71214e+12 -3.54429e+12 -2.73266e+12 -2.25995e+12 -3.42158e+12 -1.49552e+12 -2.409e+12 -2.84897e+12 -1.25573e+12 -1.2925e+12 -1.02945e+12 -2.42822e+12 -2.19584e+12 -3.06837e+12 -1.91946e+12 -4.05345e+12 -1.82516e+12 -1.5742e+12 -3.38727e+12 -3.16524e+12 -6.00408e+12 -1.7467e+12 -1.93913e+12 -4.67451e+12 -2.49337e+12 -3.87588e+12 -2.54538e+12 -4.02482e+12 -4.73748e+12 -4.09534e+12 -2.68726e+12 -3.34649e+12 -4.08784e+12 -2.99712e+12 -5.13609e+12 -4.20257e+12 -912233000000.0 -4.48225e+12 -4.10269e+12 -2.04157e+12 -3.70881e+12 -2.42831e+12 -4.10028e+12 -2.73244e+12 -1.06101e+12 -1.02052e+12 -2.58009e+12 -1.41806e+12 -2.10865e+12 -6.13215e+12 -4.03347e+12 -3.28946e+12 -5.37316e+12 -5.28491e+12 -3.20523e+12 -6.16401e+12 -2.92527e+12 -4.76636e+12 -3.43788e+12 -2.29995e+12 -5.17357e+12 -4.16513e+12 -2.57898e+12 -1.23575e+12 -4.20705e+12 -3.6901e+12 -2.63869e+12 -2.75722e+12 -4.01831e+12 -3.54829e+12 -3.42122e+12 -5.90985e+12 -3.90896e+12 -2.25049e+12 -2.12593e+12 -4.38174e+12 -3.93215e+12 -3.92243e+12 -4.0498e+12 -5.15608e+12 -6.14347e+12 -1.96102e+12 -5.63257e+12 -5.75208e+12 -3.61518e+12 -2.99122e+12 -3.54818e+12 -5.20231e+12 -4.68472e+12 -2.98926e+12 -2.93158e+12 -4.61017e+12 -6.62303e+12 -5.19635e+12 -6.43578e+12 -3.82651e+12 -3.73975e+12 -4.43786e+12 -3.00305e+12 -2.69284e+12 -6.38096e+12 -3.34861e+12 -3.87735e+12 -4.30739e+12 -8.64921e+12 -5.61666e+12 -4.45768e+12 -7.09181e+12 -3.59196e+12 -8.07317e+12 -6.47273e+12 -4.1319e+12 -4.58007e+12 -3.78591e+12 -3.81976e+12 -5.19075e+12 -4.40129e+12 -6.00653e+12 -2.11346e+12 -5.63719e+12 -7.53134e+12 -4.00565e+12 -4.80472e+12 -3.53111e+12 -4.43605e+12 -3.73217e+12 -5.79778e+12 -6.24311e+12 -3.02255e+12 -4.26776e+12 -4.34116e+12 -3.09815e+12 -4.26207e+12 -4.01699e+12 -3.72197e+12 -4.63558e+12 -5.31896e+12 -5.8579e+12 -5.42317e+12 -5.0825e+12 -6.39656e+12 -6.03648e+12 -3.30463e+12 -7.76329e+12 -4.16802e+12 -7.43139e+12 -6.63436e+12 -5.78895e+12 -6.97409e+12 -4.11071e+12 -3.22222e+12 -5.65119e+12 -3.98718e+12 -2.87986e+12 -7.9408e+12 -8.02586e+12 -3.44454e+12 -7.6706e+12 -6.37856e+12 -8.77849e+12 -5.12802e+12 -9.93971e+12 -3.00875e+12 -4.74716e+12 -5.25327e+12 -5.88419e+12 -5.21097e+12 -6.16157e+12 -4.74539e+12 -5.45743e+12 -4.57879e+12 -2.29291e+12 -2.91567e+12 -3.02207e+12 -3.10375e+12 -4.77829e+12 -5.0827e+12 -6.37957e+12 -4.56852e+12 -3.8534e+12 -2.61362e+12 -5.03276e+12 -6.26118e+12 -5.40245e+12 -4.19734e+12 -7.69831e+12 -3.68422e+12 -6.6653e+12 -9.64578e+12 -9.89062e+12 -1.30636e+13 -7.97885e+12 -8.07136e+12 -7.57365e+12 -2.62198e+12 -6.80133e+12 -4.18408e+12 -4.7886e+12 -3.79009e+12 -4.2432e+12 -5.69384e+12 -1.04982e+13 -5.06715e+12 -5.09532e+12 -6.2174e+12 -3.44046e+12 -5.00357e+12 -6.35076e+12 -8.94429e+12 -8.32337e+12 -7.61403e+12 -7.3246e+12 -5.86079e+12 -7.85143e+12 -5.62779e+12 -5.17418e+12 -4.15037e+12 -4.2631e+12 -6.29186e+12 -2.87002e+12 -3.04769e+12 -4.15336e+12 -4.5692e+12 -3.85523e+12 -6.21132e+12 -6.88741e+12 -6.88171e+12 -4.02162e+12 -5.98924e+12 -3.88466e+12 -4.36746e+12 -3.40095e+12 -5.51589e+12 -5.40828e+12 -4.97521e+12 -2.47423e+12 -4.37316e+12 -4.46145e+12 -2.9888e+12 -4.21383e+12 -5.36722e+12 -2.72258e+12 -6.67796e+12 -1.0295e+13 -3.86132e+12 -6.41007e+12 -5.91235e+12 -7.83559e+12 -6.99713e+12 -6.10495e+12 -8.3662e+12 -6.44146e+12 -5.95415e+12 -6.93282e+12 -2.61394e+12 -3.45088e+12 -6.68032e+12 -3.67139e+12 -4.66921e+12 -4.67527e+12 -4.07916e+12 -9.83096e+12 -9.82568e+12 -8.45412e+12 -8.65871e+12 -4.16933e+12 -8.32787e+12 -4.43666e+12 -6.68831e+12 -5.24359e+12 -6.39939e+12 -4.16821e+12 -5.50989e+12 -5.22249e+12 -5.74752e+12 -6.3611e+12 -5.28103e+12 -5.14058e+12 -4.94253e+12 -6.19324e+12 -4.85998e+12 -7.12241e+12 -6.24247e+12 -5.01387e+12 -2.65148e+12 -4.57056e+12 -2.69001e+12 -4.0798e+12 -3.7466e+12 -4.11359e+12 -3.80144e+12 -6.00434e+12 -3.37019e+12 -3.72231e+12 -3.45189e+12 -2.72069e+12 -4.16046e+12 -4.83958e+12 -6.72956e+12 -4.99554e+12 -2.88747e+12 -4.68196e+12 -4.8139e+12 -5.56426e+12 -6.61268e+12 -5.40112e+12 -7.92082e+12 -3.91572e+12 -5.91741e+12 -4.29562e+12 -5.72974e+12 -6.58531e+12 -8.06705e+12 -6.01912e+12 -8.10061e+12 -9.93754e+12 -6.19461e+12 -4.62659e+12 -5.66924e+12 -5.22478e+12 -1.08241e+13 -5.95174e+12 -8.86724e+12 -4.64634e+12 -3.57413e+12 -3.84373e+12 -4.32102e+12 -5.58313e+12 -4.08235e+12 -6.24234e+12 -3.65395e+12 -7.22154e+12 -4.35622e+12 -8.26991e+12 -1.03747e+13 -5.17877e+12 -6.17516e+12 -7.51024e+12 -5.4199e+12 -9.98443e+12 -7.76724e+12 -7.39778e+12 -8.9118e+12 -8.7812e+12 -8.18523e+12 -5.51092e+12 -4.68439e+12 -3.07891e+12 -4.06899e+12 -6.46924e+12 -6.52067e+12 -3.6782e+12 -4.99701e+12 -3.22527e+12 -4.43878e+12 -3.40607e+12 -4.10642e+12 -4.67186e+12 -4.88822e+12 -4.87187e+12 -4.31269e+12 -3.61976e+12 -4.2145e+12 -5.27367e+12 -3.4918e+12 -3.29645e+12 -2.96806e+12 -3.26998e+12 -6.49489e+12 -4.67623e+12 -7.04814e+12 -4.95899e+12 -4.33454e+12 -6.49108e+12 -5.72757e+12 -6.96419e+12 -5.47092e+12 -4.48889e+12 -8.30072e+12 -2.75755e+12 -4.1661e+12 -6.72574e+12 -7.24743e+12 -8.66321e+12 -8.87074e+12 -8.19377e+12 -7.85851e+12 -5.69237e+12 -7.5533e+12 -1.29552e+13 -5.23228e+12 -6.79545e+12 -7.07145e+12 -5.14895e+12 -5.84851e+12 -5.95022e+12 -3.94029e+12 -7.05668e+12 -5.74657e+12 -5.19359e+12 -1.01896e+13 -6.46186e+12 -6.95411e+12 -7.25615e+12 -5.38202e+12 -3.87797e+12 -4.1571e+12 -7.33934e+12 -5.52554e+12 -7.16611e+12 -9.98509e+12 -5.54822e+12 -6.04091e+12 -3.47919e+12 -3.56881e+12 -6.74215e+12 -9.01876e+12 -6.70741e+12 -5.51414e+12 -4.32364e+12 -7.41611e+12 -6.5483e+12 -5.65806e+12 -4.39337e+12 -5.74585e+12 -2.39542e+12 -2.68346e+12 -6.41523e+12 -2.8521e+12 -4.70684e+12 -4.17949e+12 -2.61656e+12 -4.54491e+12 -4.33755e+12 -3.42527e+12 -2.50337e+12 -4.10808e+12 -4.27932e+12 -6.66271e+12 -7.17417e+12 -2.68343e+12 -4.92509e+12 -5.93931e+12 -4.30316e+12 -5.02057e+12 -3.49704e+12 -3.56498e+12 -3.32797e+12 -4.75051e+12 -5.97249e+12 -4.72247e+12 -5.35238e+12 -5.24376e+12 -6.46626e+12 -2.59935e+12 -6.289e+12 -4.00623e+12 -4.24535e+12 -5.69803e+12 -4.45318e+12 -6.40718e+12 -8.25562e+12 -1.03732e+13 -4.93137e+12 -4.96592e+12 -1.08624e+13 -1.06153e+13 -8.07577e+12 -9.17746e+12 -3.66253e+12 -5.46949e+12 -4.94551e+12 -6.77926e+12 -6.88332e+12 -7.89072e+12 -5.0091e+12 -4.27569e+12 -1.00084e+13 -4.57681e+12 -3.69096e+12 -3.1674e+12 -4.00832e+12 -6.18725e+12 -5.70004e+12 -9.89977e+12 -4.63387e+12 -3.22091e+12 -5.79926e+12 -5.86782e+12 -5.78157e+12 -5.06857e+12 -4.33365e+12 -6.00117e+12 -9.98151e+12 -7.52128e+12 -6.47723e+12 -7.79942e+12 -3.42782e+12 -6.31984e+12 -7.44397e+12 -9.91308e+12 -4.38202e+12 -4.45576e+12 -6.79837e+12 -4.4814e+12 -3.24245e+12 -1.0431e+13 -5.23684e+12 -5.52425e+12 -5.72664e+12 -4.54742e+12 -3.75462e+12 -4.21642e+12 -6.25306e+12 -4.71666e+12 -4.00048e+12 -4.77165e+12 -4.58747e+12 -2.96784e+12 -2.522e+12 -2.45506e+12 -4.00562e+12 -8.16018e+12 -4.71421e+12 -4.00355e+12 -5.87827e+12 -5.00072e+12 -5.23426e+12 -5.72138e+12 -4.29553e+12 -1.02913e+13 -8.15178e+12 -4.45826e+12 -5.20722e+12 -5.94061e+12 -1.26945e+13 -4.98333e+12 -7.05998e+12 -7.01343e+12 -8.68119e+12 -1.56973e+13 -1.0453e+13 -5.56765e+12 -9.92798e+12 -5.59928e+12 -6.3927e+12 -9.10377e+12 -8.52294e+12 -4.64799e+12 -5.7936e+12 -1.07524e+13 -4.94546e+12 -5.05264e+12 -8.06387e+12 -3.73327e+12 -6.34922e+12 -3.1278e+12 -3.3048e+12 -6.98857e+12 -3.86123e+12 -4.74697e+12 -3.43562e+12 -8.30198e+12 -4.61418e+12 -7.46878e+12 -8.59385e+12 -5.82091e+12 -6.75385e+12 -7.95369e+12 -7.36887e+12 -5.54421e+12 -5.18059e+12 -7.89066e+12 -4.84622e+12 -5.91271e+12 -7.65336e+12 -8.03609e+12 -9.92582e+12 -1.03722e+13 -1.15639e+13 -4.35859e+12 -5.22378e+12 -6.24048e+12 -3.79405e+12 -4.86377e+12 -3.4772e+12 -5.85253e+12 -3.96121e+12 -4.2129e+12 -7.59239e+12 -7.65219e+12 -6.85845e+12 -5.01222e+12 -5.46052e+12 -5.59386e+12 -4.10092e+12 -5.5163e+12 -6.41498e+12 -4.91078e+12 -3.55032e+12 -4.19678e+12 -4.01072e+12 -3.78108e+12 -6.04154e+12 -8.38197e+12 -3.22722e+12 -4.16305e+12 -6.3074e+12 -7.0719e+12 -8.69391e+12 -5.32856e+12 -5.88088e+12 -4.36955e+12 -3.1344e+12 -6.39825e+12 -5.85921e+12 -5.53878e+12 -6.02067e+12 -8.80996e+12 -5.6632e+12 -2.67681e+12 -7.13823e+12 -2.47639e+12 -6.08686e+12 -1.1315e+13 -9.38461e+12 -1.02627e+13 -6.73415e+12 -8.52286e+12 -6.21599e+12 -5.52645e+12 -7.06351e+12 -5.13735e+12 -3.93243e+12 -1.14931e+13 -9.45372e+12 -6.73568e+12 -5.12428e+12 -5.92947e+12 -1.06949e+13 -6.84543e+12 -9.47364e+12 -1.05684e+13 -4.79647e+12 -5.9632e+12 -9.98279e+12 -6.05024e+12 -6.46695e+12 -5.34278e+12 -5.29743e+12 -4.23043e+12 -8.87571e+12 -2.77577e+12 -7.60524e+12 -6.46981e+12 -6.46735e+12 -4.83131e+12 -5.31931e+12 -7.37894e+12 -7.47894e+12 -1.02919e+13 -6.78232e+12 -7.70255e+12 -7.2741e+12 -6.29035e+12 -4.143e+12 -3.92824e+12 -4.26671e+12 -1.02245e+13 -7.92679e+12 -7.59394e+12 -4.68982e+12 -9.73339e+12 -8.648e+12 -4.84676e+12 -3.72627e+12 -5.31404e+12 -6.0228e+12 -8.4206e+12 -6.20428e+12 -5.9077e+12 -4.18829e+12 -4.6325e+12 -2.07598e+12 -5.47678e+12 -5.09448e+12 -4.99524e+12 -4.36603e+12 -3.69503e+12 -5.51613e+12 -3.70787e+12 -3.87312e+12 -5.35925e+12 -4.07796e+12 -4.61065e+12 -4.71313e+12 -5.0488e+12 -3.35739e+12 -4.36746e+12 -4.71892e+12 -4.61048e+12 -2.66484e+12 -6.44351e+12 -5.70806e+12 -3.99204e+12 -6.05539e+12 -2.97175e+12 -4.36927e+12 -1.78916e+12 -3.86759e+12 -8.35995e+12 -6.00292e+12 -5.35727e+12 -5.36604e+12 -5.29411e+12 -6.10997e+12 -6.48029e+12 -5.00305e+12 -6.31767e+12 -6.45453e+12 -6.68215e+12 -4.43418e+12 -6.59004e+12 -7.71128e+12 -4.94893e+12 -4.52137e+12 -8.58221e+12 -4.71422e+12 -8.63351e+12 -6.8029e+12 -9.08125e+12 -8.46477e+12 -6.42965e+12 -4.58883e+12 -3.44969e+12 -4.90672e+12 -5.66008e+12 -9.47787e+12 -9.42771e+12 -6.02898e+12 -8.14927e+12 -8.14938e+12 -7.93995e+12 -3.37194e+12 -3.42437e+12 -6.61988e+12 -9.39565e+12 -5.84848e+12 -1.01681e+13 -5.79771e+12 -9.53672e+12 -6.18587e+12 -1.11068e+13 -1.19581e+13 -8.50396e+12 -8.93003e+12 -7.64409e+12 -4.80168e+12 -7.41669e+12 -6.37111e+12 -6.46744e+12 -5.16087e+12 -7.38284e+12 -6.71348e+12 -7.05105e+12 -6.05636e+12 -4.85695e+12 -5.24906e+12 -4.74615e+12 -5.74507e+12 -4.03771e+12 -6.48949e+12 -8.58273e+12 -6.62148e+12 -6.00267e+12 -7.63611e+12 -4.71495e+12 -5.88368e+12 -3.95522e+12 -4.52489e+12 -4.48801e+12 -2.07008e+12 -4.81743e+12 -5.30042e+12 -4.30657e+12 -3.46492e+12 -3.52048e+12 -1.97554e+12 -4.99473e+12 -2.09662e+12 -3.43172e+12 -4.53496e+12 -4.32268e+12 -3.57194e+12 -5.02087e+12 -4.70423e+12 -1.98849e+12 -1.95321e+12 -6.04233e+12 -3.34969e+12 -4.04004e+12 -5.08135e+12 -2.69866e+12 -3.52092e+12 -3.24605e+12 -2.76972e+12 -4.2923e+12 -3.26126e+12 -7.63061e+12 -7.74875e+12 -5.83238e+12 -4.70345e+12 -3.74008e+12 -4.76349e+12 -7.22573e+12 -7.13218e+12 -7.11408e+12 -9.37752e+12 -5.07094e+12 -5.15679e+12 -5.26248e+12 -7.9296e+12 -3.52624e+12 -6.33533e+12 -4.56169e+12 -6.53525e+12 -5.1158e+12 -5.47587e+12 -6.85918e+12 -2.58424e+12 -5.6117e+12 -8.50383e+12 -7.10693e+12 -6.5985e+12 -7.82762e+12 -7.94775e+12 -7.34643e+12 -1.02536e+13 -1.33139e+13 -4.69492e+12 -7.40741e+12 -9.32514e+12 -6.03647e+12 -7.03934e+12 -3.75141e+12 -4.14903e+12 -5.8463e+12 -7.1311e+12 -3.76539e+12 -1.23881e+13 -9.45037e+12 -8.1212e+12 -8.01288e+12 -9.66595e+12 -3.67983e+12 -1.22872e+13 -8.17417e+12 -1.00433e+13 -4.88096e+12 -7.0284e+12 -4.42389e+12 -8.42075e+12 -4.92216e+12 -8.59523e+12 -7.1054e+12 -7.17922e+12 -6.20915e+12 -6.25867e+12 -6.43856e+12 -6.42634e+12 -5.1931e+12 -4.56124e+12 -8.53601e+12 -5.19251e+12 -6.09153e+12 -5.57383e+12 -7.37511e+12 -5.87077e+12 -5.54947e+12 -4.09987e+12 -4.19926e+12 -3.3015e+12 -3.59403e+12 -5.80981e+12 -3.25595e+12 -2.42919e+12 -7.28346e+12 -3.58892e+12 -3.95297e+12 -3.15406e+12 -5.24828e+12 -6.01687e+12 -6.73134e+12 -2.66216e+12 -3.7748e+12 -4.11612e+12 -5.25624e+12 -6.85937e+12 -6.39946e+12 -3.29377e+12 -5.94656e+12 -6.40588e+12 -3.1715e+12 -3.07182e+12 -4.85634e+12 -3.9569e+12 -5.71172e+12 -4.22918e+12 -5.44195e+12 -4.23409e+12 -9.23506e+12 -5.39354e+12 -7.06127e+12 -5.2094e+12 -6.95869e+12 -4.58582e+12 -6.97941e+12 -5.1938e+12 -6.96897e+12 -6.1361e+12 -5.69007e+12 -6.95604e+12 -4.91107e+12 -5.89266e+12 -5.36534e+12 -6.56169e+12 -8.22554e+12 -5.12733e+12 -7.62275e+12 -5.61551e+12 -1.35992e+13 -8.35776e+12 -8.22801e+12 -8.02193e+12 -6.92363e+12 -1.15852e+13 -6.12914e+12 -9.46725e+12 -2.51436e+12 -5.05777e+12 -3.65216e+12 -2.6584e+12 -8.23822e+12 -5.42989e+12 -5.02837e+12 -8.78357e+12 -7.4446e+12 -1.1017e+13 -8.86328e+12 -7.25374e+12 -5.52103e+12 -6.45581e+12 -5.69134e+12 -8.13964e+12 -6.12491e+12 -5.37309e+12 -5.66715e+12 -1.01765e+13 -8.60382e+12 -4.52408e+12 -5.67153e+12 -8.0158e+12 -5.16772e+12 -7.58028e+12 -8.75066e+12 -4.99709e+12 -1.02661e+13 -6.20863e+12 -6.45162e+12 -6.47964e+12 -8.04531e+12 -6.91784e+12 -5.46612e+12 -4.19515e+12 -7.93018e+12 -4.87264e+12 -6.55125e+12 -5.90237e+12 -1.05347e+13 -4.46942e+12 -3.73352e+12 -6.74281e+12 -5.40123e+12 -3.44177e+12 -1.99966e+12 -6.67666e+12 -2.96774e+12 -5.18161e+12 -5.70567e+12 -5.79986e+12 -3.82553e+12 -3.41197e+12 -5.75835e+12 -3.93642e+12 -4.70743e+12 -3.52907e+12 -5.44318e+12 -6.76932e+12 -3.89965e+12 -2.91304e+12 -4.4133e+12 -3.86714e+12 -7.62592e+12 -3.56807e+12 -3.03631e+12 -5.08421e+12 -7.53312e+12 -5.15238e+12 -5.03261e+12 -2.1565e+12 -3.89865e+12 -3.59851e+12 -7.03586e+12 -3.94415e+12 -4.40593e+12 -5.3477e+12 -8.62263e+12 -3.69623e+12 -8.26191e+12 -5.06574e+12 -8.82906e+12 -8.59221e+12 -4.5723e+12 -7.01494e+12 -8.9116e+12 -6.5027e+12 -1.18731e+13 -4.48193e+12 -7.89131e+12 -1.08902e+13 -6.45001e+12 -6.79797e+12 -7.50328e+12 -9.49588e+12 -1.1292e+13 -1.01696e+13 -7.518e+12 -8.55937e+12 -6.86839e+12 -6.00452e+12 -3.58734e+12 -9.39924e+12 -7.95689e+12 -6.77895e+12 -4.68565e+12 -4.1735e+12 -6.82454e+12 -5.40161e+12 -7.53154e+12 -5.56384e+12 -9.51725e+12 -5.99364e+12 -6.26805e+12 -4.89572e+12 -4.79899e+12 -8.65555e+12 -1.1886e+13 -9.24617e+12 -9.91073e+12 -5.58402e+12 -8.4758e+12 -6.7318e+12 -1.16341e+13 -7.92922e+12 -6.83789e+12 -4.48755e+12 -5.06747e+12 -6.70861e+12 -6.37276e+12 -4.18479e+12 -5.33337e+12 -6.0114e+12 -4.37479e+12 -6.8771e+12 -6.17542e+12 -5.12357e+12 -6.32314e+12 -2.65396e+12 -9.75336e+12 -2.99087e+12 -7.22378e+12 -2.44122e+12 -7.36225e+12 -3.97697e+12 -4.21561e+12 -2.81351e+12 -5.31707e+12 -5.55949e+12 -2.22021e+12 -3.07735e+12 -4.28044e+12 -4.99366e+12 -3.56838e+12 -2.20127e+12 -4.062e+12 -3.84118e+12 -3.81007e+12 -1.28253e+12 -3.35979e+12 -4.10462e+12 -3.42309e+12 -6.67381e+12 -4.74394e+12 -6.83839e+12 -5.29331e+12 -5.82223e+12 -4.65473e+12 -6.38654e+12 -2.59307e+12 -3.11075e+12 -5.20767e+12 -5.8657e+12 -5.39198e+12 -4.06003e+12 -5.20127e+12 -4.2536e+12 -4.30218e+12 -4.1262e+12 -4.59071e+12 -6.34459e+12 -7.89674e+12 -5.70253e+12 -4.92556e+12 -4.84085e+12 -5.23295e+12 -5.41967e+12 -5.05879e+12 -1.07478e+13 -7.51815e+12 -7.99516e+12 -4.89642e+12 -8.44031e+12 -7.75038e+12 -6.82489e+12 -8.24653e+12 -8.3277e+12 -6.81186e+12 -8.13899e+12 -7.18908e+12 -1.08992e+13 -8.61599e+12 -9.85232e+12 -6.75634e+12 -1.01671e+13 -6.88774e+12 -4.75656e+12 -8.93836e+12 -3.44774e+12 -5.97135e+12 -1.2962e+13 -4.76617e+12 -8.85885e+12 -3.16164e+12 -6.28857e+12 -4.37012e+12 -1.00987e+13 -1.02227e+13 -6.34012e+12 -9.37682e+12 -9.93994e+12 -7.98076e+12 -6.77651e+12 -9.85757e+12 -6.73277e+12 -7.17641e+12 -4.8936e+12 -7.08313e+12 -6.91303e+12 -8.8081e+12 -4.95343e+12 -4.55559e+12 -5.71667e+12 -7.50585e+12 -8.06673e+12 -5.68368e+12 -9.19768e+12 -7.51481e+12 -4.52676e+12 -5.41525e+12 -7.67525e+12 -6.3378e+12 -6.07127e+12 -5.04245e+12 -2.27021e+12 -5.43139e+12 -3.38048e+12 -4.62202e+12 -4.08921e+12 -7.46616e+12 -3.45012e+12 -4.79065e+12 -5.1696e+12 -5.38197e+12 -4.52847e+12 -4.62934e+12 -2.35066e+12 -3.52645e+12 -4.72079e+12 -5.55298e+12 -5.53683e+12 -4.92063e+12 -5.38163e+12 -4.45424e+12 -4.82327e+12 -4.40875e+12 -3.62743e+12 -2.43205e+12 -4.18254e+12 -3.87174e+12 -5.64149e+12 -5.13618e+12 -3.03812e+12 -3.8669e+12 -3.93391e+12 -6.39578e+12 -3.44606e+12 -3.8118e+12 -4.52925e+12 -4.74174e+12 -4.7831e+12 -4.55223e+12 -2.17805e+12 -4.11127e+12 -3.27089e+12 -3.66861e+12 -7.76824e+12 -4.27065e+12 -1.81186e+12 -4.24467e+12 -1.82143e+12 -5.08728e+12 -5.55711e+12 -5.4422e+12 -4.54974e+12 -7.33736e+12 -8.98305e+12 -4.58225e+12 -6.50365e+12 -8.07494e+12 -3.62326e+12 -4.16874e+12 -4.04584e+12 -7.01984e+12 -5.46006e+12 -5.0768e+12 -8.12861e+12 -6.8097e+12 -6.83849e+12 -8.89768e+12 -7.12466e+12 -1.24653e+13 -7.62162e+12 -9.18962e+12 -4.47213e+12 -8.10925e+12 -1.11976e+13 -1.04768e+13 -5.24254e+12 -5.38768e+12 -5.37345e+12 -6.35391e+12 -8.05718e+12 -9.51718e+12 -7.22477e+12 -9.77937e+12 -4.91775e+12 -8.11174e+12 -5.853e+12 -4.61066e+12 -8.54007e+12 -1.06273e+13 -9.15706e+12 -4.77115e+12 -1.04761e+13 -6.62708e+12 -4.22592e+12 -5.04663e+12 -6.58837e+12 -7.79209e+12 -1.06938e+13 -5.39726e+12 -5.22111e+12 -1.04946e+13 -4.5554e+12 -2.37395e+12 -3.76897e+12 -5.89404e+12 -7.59344e+12 -4.46063e+12 -8.42045e+12 -7.4971e+12 -2.05565e+12 -7.68258e+12 -8.52999e+12 -4.41561e+12 -5.67342e+12 -7.21626e+12 -5.65829e+12 -4.4965e+12 -6.1562e+12 -6.96498e+12 -5.02959e+12 -3.37454e+12 -5.25049e+12 -4.34732e+12 -4.73869e+12 -3.37373e+12 -6.96699e+12 -6.19136e+12 -3.49663e+12 -4.74087e+12 -3.73692e+12 -4.58674e+12 -3.37365e+12 -3.90769e+12 -2.6666e+12 -3.41944e+12 -2.24971e+12 -3.45322e+12 -6.60709e+12 -2.44474e+12 -3.82964e+12 -3.26424e+12 -2.4442e+12 -3.88405e+12 -3.88583e+12 -5.00525e+12 -5.31485e+12 -3.36096e+12 -3.05545e+12 -3.24583e+12 -5.8541e+12 -5.2032e+12 -5.84075e+12 -4.84663e+12 -5.52786e+12 -3.08417e+12 -4.11269e+12 -3.79781e+12 -5.73229e+12 -7.21866e+12 -2.45263e+12 -4.28794e+12 -7.529e+12 -3.47597e+12 -4.67786e+12 -5.7142e+12 -5.87045e+12 -6.98658e+12 -6.4945e+12 -7.91491e+12 -7.91811e+12 -2.08644e+12 -4.81548e+12 -4.44397e+12 -8.70929e+12 -7.3865e+12 -6.72493e+12 -7.20591e+12 -4.42811e+12 -6.24843e+12 -2.90067e+12 -6.09635e+12 -7.32995e+12 -8.4825e+12 -7.18178e+12 -6.51397e+12 -5.87251e+12 -4.27792e+12 -2.84232e+12 -6.22584e+12 -8.17715e+12 -6.90619e+12 -3.20888e+12 -6.4728e+12 -3.22817e+12 -5.07707e+12 -7.01091e+12 -3.72403e+12 -8.92165e+12 -7.22294e+12 -7.06908e+12 -7.68575e+12 -7.69408e+12 -7.52732e+12 -8.63028e+12 -3.7638e+12 -6.47421e+12 -7.72035e+12 -8.74898e+12 -5.35106e+12 -8.68723e+12 -9.81874e+12 -1.06219e+13 -8.26461e+12 -7.86921e+12 -7.42966e+12 -6.30269e+12 -8.08507e+12 -5.10917e+12 -7.26307e+12 -8.09511e+12 -7.07802e+12 -4.60816e+12 -4.80715e+12 -4.63443e+12 -9.34344e+12 -3.82144e+12 -5.80647e+12 -5.24337e+12 -4.58374e+12 -3.67409e+12 -6.77011e+12 -7.67684e+12 -3.81011e+12 -4.58435e+12 -3.8727e+12 -7.76254e+12 -3.64929e+12 -4.64436e+12 -2.98983e+12 -6.33119e+12 -6.5692e+12 -6.43963e+12 -5.21634e+12 -6.04252e+12 -2.2534e+12 -3.457e+12 -5.57075e+12 -4.05038e+12 -4.50916e+12 -6.23626e+12 -3.51443e+12 -2.55216e+12 -5.08294e+12 -4.81026e+12 -2.89909e+12 -5.87392e+12 -4.83466e+12 -1.6077e+12 -2.46441e+12 -6.15594e+12 -4.53801e+12 -4.13753e+12 -5.64177e+12 -4.03014e+12 -4.6793e+12 -4.38731e+12 -3.94596e+12 -3.75868e+12 -4.34551e+12 -2.79228e+12 -5.14861e+12 -7.91011e+12 -2.01895e+12 -3.29281e+12 -2.44722e+12 -4.78377e+12 -3.57894e+12 -5.56893e+12 -6.44533e+12 -5.21225e+12 -3.86363e+12 -5.41809e+12 -3.7046e+12 -5.5907e+12 -4.35246e+12 -4.61665e+12 -2.9257e+12 -6.62378e+12 -5.62214e+12 -5.3721e+12 -4.46592e+12 -7.79301e+12 -4.5206e+12 -2.85761e+12 -3.97935e+12 -5.9984e+12 -5.50143e+12 -3.35667e+12 -6.55643e+12 -3.38163e+12 -4.03936e+12 -6.1406e+12 -5.57757e+12 -5.25686e+12 -3.06894e+12 -5.89676e+12 -5.14281e+12 -4.78238e+12 -5.38789e+12 -8.12186e+12 -3.26942e+12 -6.92974e+12 -5.75607e+12 -3.37468e+12 -1.03134e+13 -6.96433e+12 -4.97673e+12 -9.33426e+12 -5.45718e+12 -6.16759e+12 -4.56388e+12 -9.34245e+12 -6.88059e+12 -7.20286e+12 -6.40015e+12 -6.64528e+12 -5.40748e+12 -5.66694e+12 -7.36981e+12 -4.35057e+12 -6.59979e+12 -5.03963e+12 -7.93187e+12 -7.31273e+12 -5.076e+12 -6.53725e+12 -1.91439e+12 -7.31991e+12 -6.65435e+12 -5.55404e+12 -7.27728e+12 -5.47396e+12 -1.09643e+13 -2.66154e+12 -6.76705e+12 -5.13437e+12 -6.53163e+12 -8.94059e+12 -5.00953e+12 -7.43969e+12 -6.99623e+12 -6.36171e+12 -3.94901e+12 -6.44792e+12 -7.45019e+12 -5.57499e+12 -3.65431e+12 -6.04131e+12 -6.99561e+12 -7.47977e+12 -5.08475e+12 -4.13879e+12 -5.51082e+12 -8.60096e+12 -6.16563e+12 -8.83551e+12 -7.61079e+12 -4.24659e+12 -5.49396e+12 -4.83979e+12 -3.65345e+12 -1.56877e+12 -3.92199e+12 -7.14867e+12 -4.84347e+12 -3.90572e+12 -3.98267e+12 -2.63933e+12 -5.64196e+12 -3.26507e+12 -3.27563e+12 -4.21374e+12 -3.846e+12 -4.81122e+12 -2.84579e+12 -2.6094e+12 -2.47451e+12 -2.28536e+12 -4.16177e+12 -2.32953e+12 -3.89693e+12 -4.7591e+12 -3.40865e+12 -3.816e+12 -2.33645e+12 -2.15491e+12 -4.60434e+12 -3.95785e+12 -1.7717e+12 -3.64266e+12 -2.29623e+12 -2.69704e+12 -4.47885e+12 -1.66439e+12 -2.53105e+12 -4.07703e+12 -3.79876e+12 -6.41142e+12 -4.05103e+12 -5.08737e+12 -2.79489e+12 -3.65247e+12 -3.1494e+12 -3.82879e+12 -3.95058e+12 -2.61515e+12 -3.67345e+12 -5.84591e+12 -4.11257e+12 -6.02035e+12 -5.00329e+12 -3.42379e+12 -3.30523e+12 -5.23881e+12 -5.28535e+12 -4.20172e+12 -6.00069e+12 -4.7423e+12 -3.84713e+12 -4.93472e+12 -1.46519e+12 -3.87641e+12 -1.85376e+12 -2.68047e+12 -7.16793e+12 -8.84495e+12 -3.71106e+12 -6.17904e+12 -6.58403e+12 -1.05596e+13 -8.76792e+12 -7.1079e+12 -7.31189e+12 -9.44553e+12 -7.24259e+12 -7.94155e+12 -8.99459e+12 -7.47827e+12 -5.98453e+12 -6.63291e+12 -6.80343e+12 -8.73964e+12 -5.11324e+12 -4.24259e+12 -7.74514e+12 -8.89025e+12 -4.37578e+12 -5.56415e+12 -5.06224e+12 -4.12716e+12 -2.37735e+12 -4.67776e+12 -5.22586e+12 -4.90967e+12 -3.91227e+12 -5.46306e+12 -5.74571e+12 -5.88607e+12 -6.52933e+12 -9.52278e+12 -4.35536e+12 -1.00361e+13 -7.70682e+12 -8.16963e+12 -8.93656e+12 -4.92276e+12 -7.08197e+12 -1.09585e+13 -3.87658e+12 -5.64024e+12 -4.2296e+12 -5.19153e+12 -3.85583e+12 -6.29018e+12 -9.48133e+12 -8.24556e+12 -6.53405e+12 -5.7343e+12 -6.06823e+12 -5.86112e+12 -6.90472e+12 -5.36056e+12 -6.82518e+12 -4.34844e+12 -6.43283e+12 -5.50856e+12 -3.08542e+12 -3.69254e+12 -3.07946e+12 -4.15278e+12 -4.10394e+12 -2.90366e+12 -2.91759e+12 -4.18433e+12 -3.96753e+12 -3.70094e+12 -3.89138e+12 -4.67678e+12 -5.43275e+12 -8.75873e+12 -4.85966e+12 -4.80418e+12 -4.65473e+12 -4.73402e+12 -3.34032e+12 -5.49197e+12 -2.44963e+12 -3.5779e+12 -3.93586e+12 -2.70571e+12 -2.06547e+12 -4.5798e+12 -3.23058e+12 -1.12461e+12 -2.88387e+12 -4.74427e+12 -3.41058e+12 -3.32751e+12 -3.372e+12 -4.56368e+12 -4.14818e+12 -2.80571e+12 -2.38e+12 -3.29675e+12 -4.12702e+12 -6.10892e+12 -2.25729e+12 -2.59452e+12 -2.62459e+12 -4.58008e+12 -4.09978e+12 -1.73081e+12 -1.11008e+12 -4.21338e+12 -4.3354e+12 -1.36842e+12 -6.55651e+12 -7.65077e+12 -3.22854e+12 -4.04589e+12 -4.2183e+12 -5.984e+12 -2.6044e+12 -5.24644e+12 -6.03634e+12 -4.99962e+12 -4.06445e+12 -3.38162e+12 -2.74717e+12 -5.37097e+12 -5.19525e+12 -7.86152e+12 -7.798e+12 -5.32436e+12 -6.4789e+12 -4.88669e+12 -7.0327e+12 -9.1093e+12 -6.98275e+12 -7.38833e+12 -6.52189e+12 -7.52812e+12 -2.95451e+12 -9.81682e+12 -1.95614e+12 -1.02697e+13 -6.09686e+12 -1.02448e+13 -6.95242e+12 -7.41817e+12 -8.19549e+12 -8.89422e+12 -7.98354e+12 -5.74197e+12 -7.40837e+12 -5.14371e+12 -5.50738e+12 -4.0375e+12 -6.73425e+12 -4.70162e+12 -5.25536e+12 -3.59804e+12 -6.15665e+12 -9.62947e+12 -5.68053e+12 -2.80899e+12 -6.63853e+12 -1.11309e+13 -8.15365e+12 -3.82659e+12 -8.12792e+12 -1.27e+13 -4.99165e+12 -4.16089e+12 -8.71088e+12 -7.79364e+12 -6.12226e+12 -8.433e+12 -8.42512e+12 -5.85624e+12 -4.56538e+12 -4.52029e+12 -3.23121e+12 -4.64629e+12 -4.31715e+12 -1.47179e+12 -3.49293e+12 -4.11432e+12 -8.33808e+12 -4.49018e+12 -5.13484e+12 -5.1437e+12 -5.70229e+12 -2.0749e+12 -4.7322e+12 -5.42247e+12 -4.16827e+12 -2.9703e+12 -4.05404e+12 -4.77648e+12 -5.20565e+12 -5.2752e+12 -4.27461e+12 -4.22516e+12 -4.29284e+12 -7.40928e+12 -5.73063e+12 -7.14745e+12 -2.50237e+12 -3.89445e+12 -3.51288e+12 -5.23922e+12 -5.48628e+12 -3.57477e+12 -3.95403e+12 -3.71957e+12 -2.94784e+12 -3.64357e+12 -6.19561e+12 -5.63073e+12 -4.89119e+12 -4.56435e+12 -3.45584e+12 -3.05297e+12 -3.26173e+12 -2.35581e+12 -2.65367e+12 -1.51836e+12 -3.47788e+12 -4.62885e+12 -3.39332e+12 -3.37577e+12 -4.15557e+12 -3.92397e+12 -3.99843e+12 -4.62387e+12 -5.03608e+12 -3.69398e+12 -4.49807e+12 -2.541e+12 -2.92436e+12 -2.79265e+12 -3.8662e+12 -2.47784e+12 -3.79026e+12 -3.10982e+12 -2.92316e+12 -4.25607e+12 -3.08187e+12 -5.74168e+12 -6.47226e+12 -3.73856e+12 -5.33769e+12 -6.20542e+12 -4.31688e+12 -1.80541e+12 -4.93591e+12 -7.36452e+12 -5.80662e+12 -6.45848e+12 -5.60715e+12 -4.40024e+12 -3.21391e+12 -9.09743e+12 -3.0717e+12 -5.39509e+12 -9.22163e+12 -8.49253e+12 -5.54307e+12 -5.63348e+12 -1.01599e+13 -5.90669e+12 -8.16599e+12 -6.18114e+12 -3.58758e+12 -3.68095e+12 -4.11697e+12 -5.33616e+12 -5.4924e+12 -7.99828e+12 -6.575e+12 -6.44218e+12 -4.94393e+12 -4.34395e+12 -6.72123e+12 -4.64161e+12 -8.68534e+12 -5.57239e+12 -5.03974e+12 -7.07916e+12 -7.83608e+12 -9.08762e+12 -6.38082e+12 -5.87517e+12 -4.32478e+12 -5.35831e+12 -7.60229e+12 -3.78043e+12 -4.3419e+12 -5.42682e+12 -4.06324e+12 -8.96897e+12 -8.05255e+12 -7.70966e+12 -4.20461e+12 -4.61495e+12 -7.23011e+12 -8.4231e+12 -6.04592e+12 -1.64692e+13 -5.92977e+12 -5.18369e+12 -9.15475e+12 -8.26292e+12 -7.35361e+12 -8.29379e+12 -4.60813e+12 -5.9384e+12 -6.46127e+12 -5.6723e+12 -5.69902e+12 -7.96754e+12 -5.40558e+12 -6.79929e+12 -8.2128e+12 -2.8142e+12 -5.2123e+12 -2.61672e+12 -4.9196e+12 -4.25231e+12 -4.9343e+12 -4.92926e+12 -3.00562e+12 -6.50607e+12 -4.62281e+12 -7.44763e+12 -5.1173e+12 -4.4356e+12 -4.3194e+12 -3.52148e+12 -3.05928e+12 -2.95839e+12 -4.26932e+12 -3.45977e+12 -4.23778e+12 -1.85902e+12 -4.00963e+12 -3.00165e+12 -3.42691e+12 -3.91182e+12 -2.39599e+12 -4.97338e+12 -3.6363e+12 -4.53938e+12 -3.48604e+12 -2.50897e+12 -3.56805e+12 -2.3103e+12 -3.18024e+12 -1.74327e+12 -2.19267e+12 -1.46498e+12 -2.4676e+12 -2.64234e+12 -2.77595e+12 -2.90122e+12 -2.5499e+12 -3.39797e+12 -1.99167e+12 -5.02633e+12 -5.06606e+12 -1.74379e+12 -3.05975e+12 -1.98785e+12 -2.80949e+12 -1.54458e+12 -3.55893e+12 -2.20202e+12 -5.59075e+12 -4.40734e+12 -3.40793e+12 -6.85986e+12 -3.62292e+12 -2.72766e+12 -7.29956e+12 -4.18687e+12 -6.15808e+12 -4.14412e+12 -5.1831e+12 -5.12699e+12 -6.13259e+12 -6.91578e+12 -5.40046e+12 -4.40666e+12 -6.21662e+12 -4.42011e+12 -2.54255e+12 -6.50555e+12 -3.98162e+12 -3.94614e+12 -3.91639e+12 -5.43626e+12 -8.20612e+12 -5.44523e+12 -4.98017e+12 -4.91359e+12 -5.58744e+12 -7.65359e+12 -5.26683e+12 -7.23505e+12 -4.38479e+12 -7.51268e+12 -6.6716e+12 -7.10011e+12 -1.08622e+13 -6.43262e+12 -8.50852e+12 -6.06814e+12 -4.78373e+12 -8.48308e+12 -2.83917e+12 -9.07869e+12 -4.57996e+12 -5.57478e+12 -7.44549e+12 -6.20949e+12 -3.55036e+12 -3.62131e+12 -4.71581e+12 -4.51139e+12 -4.02974e+12 -4.56805e+12 -5.93876e+12 -6.31996e+12 -5.96343e+12 -6.58303e+12 -5.23019e+12 -7.00706e+12 -8.89767e+12 -4.82426e+12 -6.52842e+12 -7.24462e+12 -6.47519e+12 -5.76872e+12 -1.2063e+13 -4.79046e+12 -1.0472e+13 -6.04396e+12 -5.78679e+12 -4.76875e+12 -3.05789e+12 -4.77124e+12 -6.13563e+12 -6.45233e+12 -5.5923e+12 -6.73065e+12 -4.34554e+12 -6.59914e+12 -6.15009e+12 -3.73059e+12 -9.50385e+12 -4.27175e+12 -3.87111e+12 -3.3017e+12 -7.16966e+12 -5.45951e+12 -2.88436e+12 -3.09183e+12 -4.11695e+12 -3.42452e+12 -4.31178e+12 -2.37927e+12 -5.15465e+12 -3.308e+12 -3.18324e+12 -7.31215e+12 -6.79772e+12 -6.08297e+12 -3.13725e+12 -3.37218e+12 -2.53798e+12 -2.82695e+12 -3.90721e+12 -3.10003e+12 -2.2283e+12 -2.03153e+12 -4.34116e+12 -1.78517e+12 -2.37564e+12 -3.22929e+12 -3.73395e+12 -3.90778e+12 -2.54014e+12 -1.1109e+12 -611210000000.0 -2.57833e+12 -1.77908e+12 -3.08709e+12 -2.70764e+12 -2.68853e+12 -1.47357e+12 -2.5734e+12 -2.84237e+12 -5.53842e+12 -1.59421e+12 -2.64142e+12 -2.17735e+12 -3.4286e+12 -3.20024e+12 -1.60861e+12 -2.29361e+12 -1.82759e+12 -3.62646e+12 -3.15287e+12 -2.64909e+12 -2.56574e+12 -3.41215e+12 -3.58258e+12 -3.18992e+12 -3.30036e+12 -3.87381e+12 -3.98251e+12 -4.09961e+12 -4.883e+12 -2.87182e+12 -4.05681e+12 -4.89472e+12 -2.76275e+12 -5.72443e+12 -4.70652e+12 -5.76552e+12 -6.80948e+12 -6.76028e+12 -4.14802e+12 -5.06075e+12 -2.84355e+12 -3.99858e+12 -3.39369e+12 -6.0601e+12 -4.49465e+12 -6.44402e+12 -4.69854e+12 -5.77698e+12 -7.24113e+12 -2.36292e+12 -4.04297e+12 -7.89334e+12 -3.89113e+12 -6.72668e+12 -5.64708e+12 -2.96469e+12 -6.82554e+12 -4.5147e+12 -5.36939e+12 -5.49955e+12 -4.06086e+12 -4.61599e+12 -4.29976e+12 -4.88662e+12 -5.5851e+12 -8.32771e+12 -7.53278e+12 -8.8804e+12 -1.02253e+13 -6.75881e+12 -6.4147e+12 -6.10421e+12 -7.47779e+12 -7.53015e+12 -6.64225e+12 -5.20962e+12 -1.93221e+12 -3.10145e+12 -4.5101e+12 -5.90508e+12 -7.11168e+12 -3.19424e+12 -4.34552e+12 -5.08479e+12 -3.87306e+12 -3.10133e+12 -6.76069e+12 -5.00762e+12 -5.46428e+12 -6.77019e+12 -3.46906e+12 -6.99531e+12 -3.6227e+12 -3.64208e+12 -5.60865e+12 -4.47461e+12 -3.4174e+12 -7.19004e+12 -5.84368e+12 -4.90339e+12 -4.6404e+12 -4.39777e+12 -3.89438e+12 -5.61485e+12 -4.47562e+12 -5.61565e+12 -3.78291e+12 -4.65077e+12 -4.19451e+12 -7.73482e+12 -5.06795e+12 -3.75419e+12 -5.23406e+12 -4.69908e+12 -7.41645e+12 -7.59371e+12 -5.11337e+12 -3.7384e+12 -6.47259e+12 -4.12869e+12 -6.49956e+12 -5.40474e+12 -4.49419e+12 -4.22646e+12 -3.63228e+12 -5.14183e+12 -3.62479e+12 -4.87034e+12 -3.38292e+12 -2.60257e+12 -2.2689e+12 -2.90491e+12 -4.57894e+12 -1.80315e+12 -1.9388e+12 -4.29665e+12 -1.53745e+12 -3.93601e+12 -2.55366e+12 -2.77671e+12 -3.16323e+12 -4.4145e+12 -2.77212e+12 -2.70777e+12 -1.78179e+12 -2.93111e+12 -2.41254e+12 -1.80574e+12 -2.61204e+12 -3.08123e+12 -1.42463e+12 -3.87442e+12 -2.29386e+12 -2.49398e+12 -1.63332e+12 -2.37943e+12 -1.6759e+12 -1.37921e+12 -2.87255e+12 -2.7599e+12 -2.49682e+12 -1.26354e+12 -1.90545e+12 -4.06046e+12 -1.42167e+12 -2.53909e+12 -2.5344e+12 -2.4789e+12 -4.61712e+12 -4.97013e+12 -4.09222e+12 -2.06939e+12 -2.93881e+12 -3.8802e+12 -2.78051e+12 -4.25115e+12 -6.52787e+12 -6.51689e+12 -5.79166e+12 -1.80423e+12 -2.97154e+12 -3.86147e+12 -5.4759e+12 -5.24702e+12 -5.6034e+12 -8.366e+12 -2.1601e+12 -3.77283e+12 -3.09232e+12 -6.1041e+12 -6.75889e+12 -8.95064e+12 -5.01171e+12 -6.37328e+12 -1.09822e+13 -4.3326e+12 -8.65096e+12 -5.63063e+12 -8.39245e+12 -4.95524e+12 -6.46609e+12 -4.8067e+12 -4.40028e+12 -4.49394e+12 -7.8706e+12 -9.73179e+12 -5.95921e+12 -6.18458e+12 -5.25063e+12 -1.07014e+13 -7.86908e+12 -8.26597e+12 -4.83818e+12 -4.67838e+12 -7.9131e+12 -5.14167e+12 -2.7158e+12 -6.30766e+12 -2.58801e+12 -6.67746e+12 -4.12319e+12 -6.70677e+12 -5.18503e+12 -6.23669e+12 -4.59781e+12 -6.01961e+12 -3.86228e+12 -5.078e+12 -4.69009e+12 -3.35128e+12 -7.18183e+12 -5.40806e+12 -6.95671e+12 -3.91334e+12 -5.34016e+12 -5.60429e+12 -6.77146e+12 -3.96342e+12 -2.74676e+12 -3.4807e+12 -5.59435e+12 -3.23111e+12 -4.82e+12 -3.26455e+12 -5.75897e+12 -5.41868e+12 -4.6429e+12 -3.63054e+12 -2.54727e+12 -5.05478e+12 -3.68303e+12 -2.13812e+12 -1.89159e+12 -1.5444e+12 -3.13786e+12 -5.07497e+12 -5.38152e+12 -3.75277e+12 -2.63497e+12 -4.25974e+12 -3.96777e+12 -3.97384e+12 -4.44552e+12 -5.78152e+12 -3.20858e+12 -3.22992e+12 -3.64582e+12 -3.29537e+12 -4.56291e+12 -3.27453e+12 -3.08029e+12 -1.51473e+12 -5.06645e+12 -3.15512e+12 -2.17348e+12 -2.17891e+12 -2.65733e+12 -2.36772e+12 -1.34775e+12 -3.51389e+12 -2.54123e+12 -1.77863e+12 -3.06388e+12 -1.62933e+12 -2.75094e+12 -2.91327e+12 -3.89145e+12 -2.11051e+12 -1.84814e+12 -1.06893e+12 -650130000000.0 -1.53195e+12 -1.85107e+12 -2.57455e+12 -1.81044e+12 -3.49399e+12 -4.18574e+12 -2.2947e+12 -1.53994e+12 -1.97419e+12 -3.18007e+12 -2.24457e+12 -1.81257e+12 -3.39116e+12 -3.63523e+12 -1.90112e+12 -2.40969e+12 -2.11769e+12 -3.26846e+12 -1.7795e+12 -3.82568e+12 -2.97288e+12 -3.23571e+12 -2.88507e+12 -2.26283e+12 -2.02032e+12 -3.35487e+12 -3.24029e+12 -3.36413e+12 -3.24005e+12 -4.92078e+12 -4.59728e+12 -2.88959e+12 -2.66096e+12 -5.15896e+12 -4.20951e+12 -3.13876e+12 -2.28088e+12 -3.50505e+12 -6.66801e+12 -6.76721e+12 -4.4787e+12 -3.57793e+12 -7.11612e+12 -5.75017e+12 -5.83854e+12 -5.48584e+12 -3.15595e+12 -6.21832e+12 -5.40074e+12 -3.47444e+12 -5.88995e+12 -6.38595e+12 -5.0938e+12 -1.79659e+12 -4.62638e+12 -3.69072e+12 -3.84175e+12 -3.91268e+12 -5.97394e+12 -4.72975e+12 -5.12704e+12 -8.86454e+12 -6.16066e+12 -3.89898e+12 -3.97421e+12 -7.78161e+12 -7.036e+12 -6.69095e+12 -5.91456e+12 -1.16949e+13 -5.73182e+12 -5.4685e+12 -6.10884e+12 -2.81701e+12 -4.44967e+12 -3.53511e+12 -4.22427e+12 -4.76674e+12 -6.93415e+12 -6.24983e+12 -4.73513e+12 -5.20521e+12 -7.28723e+12 -7.64596e+12 -7.57467e+12 -4.26081e+12 -6.12349e+12 -5.46666e+12 -7.17834e+12 -5.57509e+12 -4.2847e+12 -5.52889e+12 -5.13223e+12 -6.0842e+12 -4.58555e+12 -3.15298e+12 -4.79812e+12 -3.0342e+12 -4.19457e+12 -4.64328e+12 -5.15024e+12 -2.35351e+12 -3.0011e+12 -6.72343e+12 -6.55559e+12 -4.11745e+12 -5.35446e+12 -4.20356e+12 -3.15326e+12 -2.65123e+12 -3.30347e+12 -2.81051e+12 -1.86903e+12 -2.44312e+12 -5.50004e+12 -2.78459e+12 -2.56501e+12 -1.61556e+12 -2.90452e+12 -3.8069e+12 -177173000000.0 -4.45672e+12 -4.26831e+12 -1.94748e+12 -3.90073e+12 -1.10963e+12 -3.82973e+12 -2.46842e+12 -1.73184e+12 -2.80245e+12 -1.1501e+12 -2.35096e+12 -2.19439e+12 -2.16815e+12 -1.14582e+12 -2.58024e+12 -1.90951e+12 -2.91967e+12 -3.14235e+12 -3.0202e+12 -1.44769e+12 -1.89759e+12 -2.53585e+12 -1.43503e+12 -1.88475e+12 -2.2967e+12 -1.95937e+12 -552157000000.0 -1.38427e+12 -2.37346e+12 -2.17458e+12 -3.141e+12 -2.41953e+12 -2.40122e+12 -4.45599e+12 -1.65854e+12 -2.03398e+12 -1.66608e+12 -3.26165e+12 -2.75423e+12 -1.37717e+12 -2.07439e+12 -937348000000.0 -2.12254e+12 -959016000000.0 -2.61962e+12 -2.79436e+12 -2.79779e+12 -1.4148e+12 -1.77633e+12 -1.85872e+12 -1.71602e+12 -3.34165e+12 -1.88091e+12 -1.065e+12 -2.29526e+12 -3.09912e+12 -3.37361e+12 -3.27979e+12 -7.00036e+12 -3.06355e+12 -4.47556e+12 -4.25589e+12 -6.20036e+12 -3.10002e+12 -2.31117e+12 -3.00991e+12 -3.91307e+12 -4.67436e+12 -6.52599e+12 -3.48238e+12 -2.02989e+12 -2.99668e+12 -4.61643e+12 -3.59439e+12 -4.62042e+12 -6.05209e+12 -4.39182e+12 -6.97571e+12 -6.63086e+12 -5.55125e+12 -7.84577e+12 -4.12894e+12 -7.63023e+12 -5.21916e+12 -1.15935e+13 -7.01488e+12 -9.11861e+12 -4.39408e+12 -5.82967e+12 -7.17941e+12 -5.85738e+12 -7.87143e+12 -8.38528e+12 -5.5404e+12 -3.84277e+12 -2.72422e+12 -7.78882e+12 -5.20988e+12 -2.95404e+12 -3.1526e+12 -3.98005e+12 -3.02033e+12 -4.75634e+12 -8.6692e+12 -8.52824e+12 -4.7542e+12 -4.49155e+12 -4.43143e+12 -3.82146e+12 -5.43163e+12 -6.94611e+12 -5.7817e+12 -4.61948e+12 -7.36819e+12 -4.91573e+12 -5.3689e+12 -4.93116e+12 -4.63059e+12 -5.79072e+12 -4.35749e+12 -3.87682e+12 -5.20656e+12 -3.87969e+12 -7.25066e+12 -5.54774e+12 -6.04991e+12 -7.83909e+12 -5.62549e+12 -4.96006e+12 -4.94838e+12 -3.1577e+12 -1.90739e+12 -1.87331e+12 -3.33903e+12 -2.29026e+12 -5.85012e+12 -4.80549e+12 -2.52101e+12 -3.9606e+12 -4.18392e+12 -1.90934e+12 -1.75747e+12 -1.8393e+12 -3.08674e+12 -3.96716e+12 -2.49641e+12 -1.97826e+12 -1.37241e+12 -3.39808e+12 -1.30466e+12 -1.57881e+12 -1.75612e+12 -2.35151e+12 -2.33831e+12 -2.95295e+12 -2.71469e+12 -1.21274e+12 -2.14135e+12 -2.2048e+12 -2.17698e+12 -3.01481e+12 -647583000000.0 -3.07181e+12 -789610000000.0 -2.10987e+12 -2.20036e+12 -1.95479e+12 -2.37499e+12 -1.69325e+12 -2.91604e+12 -2.86843e+12 -2.13169e+12 -1.88452e+12 -1.7928e+12 -2.3862e+12 -2.09269e+12 -2.56714e+12 -1.65635e+12 -2.64082e+12 -2.15766e+12 -2.72228e+12 -2.5956e+12 -2.71683e+12 -2.01455e+12 -2.6132e+12 -3.87994e+12 -3.0824e+12 -3.16152e+12 -3.91626e+12 -2.45319e+12 -3.86837e+12 -2.26523e+12 -4.50215e+12 -1.93167e+12 -2.79313e+12 -3.32254e+12 -3.95713e+12 -3.73338e+12 -2.61492e+12 -3.97893e+12 -3.2028e+12 -3.98454e+12 -4.27297e+12 -4.25046e+12 -5.37063e+12 -5.11091e+12 -5.65759e+12 -4.40752e+12 -3.80817e+12 -6.39486e+12 -2.89146e+12 -3.62807e+12 -4.03616e+12 -4.59961e+12 -7.3584e+12 -5.13011e+12 -6.58036e+12 -5.3246e+12 -9.09951e+12 -4.89991e+12 -4.64213e+12 -3.3393e+12 -4.1628e+12 -2.19784e+12 -7.56152e+12 -9.64469e+12 -4.68793e+12 -5.19043e+12 -3.5578e+12 -7.69513e+12 -4.94983e+12 -2.21082e+12 -4.27946e+12 -2.80874e+12 -3.07846e+12 -4.69055e+12 -3.98439e+12 -3.39188e+12 -4.18891e+12 -3.94535e+12 -4.82497e+12 -6.69782e+12 -5.80575e+12 -7.97091e+12 -3.45049e+12 -4.4102e+12 -3.47359e+12 -4.87521e+12 -3.55086e+12 -5.62809e+12 -3.52864e+12 -3.58516e+12 -4.06518e+12 -3.96464e+12 -4.48427e+12 -4.45862e+12 -4.39814e+12 -3.78957e+12 -6.0546e+12 -2.57152e+12 -7.26591e+12 -3.69304e+12 -2.23107e+12 -5.30505e+12 -5.73891e+12 -4.8952e+12 -3.41897e+12 -3.58811e+12 -3.42845e+12 -707262000000.0 -2.78316e+12 -3.75805e+12 -2.54324e+12 -2.80535e+12 -2.49725e+12 -3.71128e+12 -2.30491e+12 -3.73216e+12 -2.95694e+12 -2.88374e+12 -1.11594e+12 -2.21114e+12 -2.2444e+12 -1.32252e+12 -2.27449e+12 -1.45602e+12 -2.59842e+12 -1.94755e+12 -1.12894e+12 -1.73224e+12 -2.0243e+12 -939328000000.0 -1.64384e+12 -2.41792e+12 -2.26669e+12 -3.22048e+12 -2.08242e+12 -2.34233e+12 -1.92323e+12 -1.71099e+12 -1.73751e+12 -1.50656e+12 -1.55678e+12 -3.22547e+12 -2.06902e+12 -1.0803e+12 -933674000000.0 -1.59075e+12 -3.13868e+12 -2.34206e+12 -2.88275e+12 -1.97447e+12 -2.10723e+12 -1.34101e+12 -2.93137e+12 -3.23933e+12 -1.6383e+12 -1.20381e+12 -2.83263e+12 -1.65341e+12 -4.93851e+12 -6.32748e+12 -1.9633e+12 -2.99743e+12 -2.40587e+12 -3.50371e+12 -3.12885e+12 -3.05753e+12 -2.13396e+12 -4.6057e+12 -2.82709e+12 -2.48659e+12 -2.68189e+12 -2.34664e+12 -4.05824e+12 -3.21321e+12 -3.77753e+12 -5.52988e+12 -3.12215e+12 -3.04341e+12 -5.33477e+12 -2.53763e+12 -3.35069e+12 -2.78577e+12 -4.0232e+12 -4.38302e+12 -5.59782e+12 -4.18331e+12 -3.79357e+12 -6.82118e+12 -4.45695e+12 -5.52434e+12 -2.46699e+12 -3.33702e+12 -5.5936e+12 -6.44784e+12 -5.12321e+12 -5.80552e+12 -3.09403e+12 -5.88265e+12 -6.46346e+12 -4.51032e+12 -5.86562e+12 -4.43662e+12 -4.77017e+12 -7.01411e+12 -6.31399e+12 -2.99628e+12 -4.03409e+12 -5.79854e+12 -3.95044e+12 -3.27128e+12 -6.07255e+12 -4.39551e+12 -4.99958e+12 -2.36638e+12 -3.16262e+12 -3.32837e+12 -5.96746e+12 -4.97136e+12 -1.88775e+12 -3.58173e+12 -4.8886e+12 -2.63091e+12 -3.46351e+12 -4.48245e+12 -3.75371e+12 -5.19217e+12 -3.34935e+12 -1.74046e+12 -2.97384e+12 -2.91932e+12 -3.90599e+12 -1.3659e+12 -2.70222e+12 -3.1714e+12 -1.90331e+12 -7.39393e+12 -2.90656e+12 -5.06137e+12 -4.0373e+12 -2.15738e+12 -3.6277e+12 -1.97544e+12 -1.6729e+12 -3.10232e+12 -2.3193e+12 -2.43938e+12 -3.1652e+12 -3.36059e+12 -3.01421e+12 -2.55061e+12 -1.78496e+12 -1.97916e+12 -3.87183e+12 -4.13342e+12 -3.91709e+12 -2.04874e+12 -2.33284e+12 -224839000000.0 -1.5498e+12 -959864000000.0 -2.56592e+12 -1.04607e+12 -1.01791e+12 -2.71575e+12 -2.6131e+12 -1.57327e+12 -1.71934e+12 -624871000000.0 -912766000000.0 -1.07762e+12 -877059000000.0 -2.39335e+12 -2.5796e+12 -1.37363e+12 -1.7064e+12 -530485000000.0 -1.37198e+12 -593177000000.0 -519580000000.0 -949535000000.0 -420484000000.0 -1.60514e+12 -662162000000.0 -1.11025e+12 -1.28367e+12 -1.21413e+12 -1.71505e+12 -2.64064e+12 -969987000000.0 -855304000000.0 -1.18842e+12 -2.48993e+12 -2.04669e+12 -1.77338e+12 -2.94333e+12 -2.29244e+12 -1.22137e+12 -1.52846e+12 -2.78371e+12 -3.97304e+12 -1.90575e+12 -1.47219e+12 -2.14895e+12 -3.60827e+12 -3.7067e+12 -1.28881e+12 -2.81837e+12 -3.9475e+12 -3.25848e+12 -2.61612e+12 -2.51892e+12 -4.44171e+12 -5.35142e+12 -3.32891e+12 -3.14263e+12 -3.05158e+12 -4.55306e+12 -2.51621e+12 -4.4179e+12 -3.24009e+12 -5.04353e+12 -2.68992e+12 -3.80017e+12 -4.84198e+12 -4.58706e+12 -4.36395e+12 -4.76966e+12 -4.00164e+12 -4.80668e+12 -4.00076e+12 -4.52909e+12 -2.84168e+12 -4.00934e+12 -2.88284e+12 -2.39942e+12 -3.98705e+12 -3.61611e+12 -4.77721e+12 -4.35791e+12 -5.1735e+12 -4.71594e+12 -4.09564e+12 -2.22142e+12 -975381000000.0 -5.04712e+12 -2.65996e+12 -5.22911e+12 -7.00064e+12 -4.92759e+12 -2.35014e+12 -3.75009e+12 -2.96498e+12 -2.25322e+12 -4.73032e+12 -3.21867e+12 -3.08827e+12 -3.6667e+12 -3.15352e+12 -3.5863e+12 -5.50972e+12 -3.17182e+12 -3.60184e+12 -2.89794e+12 -3.63957e+12 -4.38379e+12 -3.03482e+12 -3.29664e+12 -2.62811e+12 -845320000000.0 -4.18261e+12 -2.07709e+12 -1.40509e+12 -3.63197e+12 -1.87808e+12 -2.42792e+12 -3.12746e+12 -3.40695e+12 -3.84843e+12 -4.18173e+12 -4.57631e+12 -3.10323e+12 -1.14776e+12 -2.42064e+12 -4.39746e+12 -3.76126e+12 -2.42576e+12 -1.96274e+12 -2.33734e+12 -2.21957e+12 -3.24948e+12 -1.77822e+12 -2.78904e+12 -1.19369e+12 -1.84841e+12 -1.59124e+12 -1.6318e+12 -1.90934e+12 -330928000000.0 -1.38334e+12 -2.16703e+12 -1.53892e+12 -1.94204e+12 -1.63788e+12 -1.27368e+12 -1.30414e+12 -1.35718e+12 -1.76561e+12 -1.43338e+12 -1.4536e+12 -2.06109e+12 -1.79546e+12 -757273000000.0 -1.16277e+12 -1.61469e+12 -1.44934e+12 -1.00498e+12 -1.50975e+12 -1.53457e+12 -1.24903e+12 -1.67686e+12 -1.4515e+12 -1.61592e+12 -1.54037e+12 -1.22431e+12 -1.55006e+12 -1.01474e+12 -2.46802e+12 -1.54173e+12 -1.65061e+12 -2.66433e+12 -1.80426e+12 -2.16799e+12 -4.26007e+12 -3.54227e+12 -2.44261e+12 -3.42377e+12 -3.13287e+12 -2.45166e+12 -3.15425e+12 -1.41358e+12 -3.74934e+12 -3.83966e+12 -3.66554e+12 -4.1835e+12 -2.7626e+12 -3.41106e+12 -3.57388e+12 -3.53232e+12 -3.27183e+12 -2.21941e+12 -3.13767e+12 -4.48546e+12 -4.52161e+12 -4.6557e+12 -859885000000.0 -3.91971e+12 -1.45463e+12 -1.98264e+12 -4.67921e+12 -4.32676e+12 -2.90813e+12 -4.49569e+12 -4.10138e+12 -3.16978e+12 -2.15075e+12 -3.8087e+12 -6.08093e+12 -3.76254e+12 -3.99383e+12 -3.77278e+12 -2.81963e+12 -3.4771e+12 -2.82143e+12 -4.37943e+12 -3.24533e+12 -3.92803e+12 -2.40998e+12 -2.36336e+12 -5.52007e+12 -5.01425e+12 -6.19402e+12 -3.97562e+12 -4.09288e+12 -2.8946e+12 -3.33658e+12 -3.49461e+12 -2.82237e+12 -3.25908e+12 -4.05605e+12 -2.62965e+12 -2.99136e+12 -1.30679e+12 -3.83739e+12 -2.93721e+12 -3.34798e+12 -3.97343e+12 -2.21124e+12 -5.90637e+12 -1.97339e+12 -2.96832e+12 -3.18762e+12 -3.88359e+12 -4.12462e+12 -2.50411e+12 -2.75735e+12 -4.17778e+12 -1.56962e+12 -1.21034e+12 -2.06787e+12 -3.19451e+12 -2.03226e+12 -972274000000.0 -1.828e+12 -1.68281e+12 -2.79477e+12 -2.47777e+12 -1.16839e+12 -2.35028e+12 -2.44154e+12 -1.265e+12 -1.63256e+12 -2.12544e+12 -1.96675e+12 -2.20294e+12 -1.36754e+12 -1.06337e+12 -678402000000.0 -1.23583e+12 -2.24065e+12 -1.34559e+12 -1.22149e+12 -255550000000.0 -421424000000.0 -969792000000.0 -2.25284e+12 -1.25829e+12 -1.81977e+12 -1.61195e+12 -1.03817e+12 -1.25012e+12 -41047600000.0 -990223000000.0 -1.18011e+12 -1.23413e+12 -1.72568e+12 -1.00042e+12 -1.12593e+12 -2.5709e+12 -1.42977e+12 -1.71318e+12 -877118000000.0 -2.78885e+12 -1.16309e+12 -2.36854e+12 -2.61521e+12 -2.77248e+12 -2.23334e+12 -2.28856e+12 -2.1793e+12 -3.20796e+12 -3.64515e+12 -1.8296e+12 -1.8624e+12 -1.55893e+12 -3.51585e+12 -2.20037e+12 -4.30324e+12 -3.65311e+12 -4.36799e+12 -1.10154e+12 -3.74194e+12 -2.44495e+12 -2.57283e+12 -2.70366e+12 -2.78231e+12 -4.47455e+12 -4.00849e+12 -4.45138e+12 -5.87223e+12 -4.07344e+12 -1.88914e+12 -4.10164e+12 -3.01508e+12 -5.15479e+12 -4.62996e+12 -3.85142e+12 -4.46651e+12 -4.34831e+12 -6.33832e+12 -3.33815e+12 -2.77914e+12 -5.16015e+12 -4.19426e+12 -4.32517e+12 -5.10587e+12 -1.17844e+12 -2.85263e+12 -4.43097e+12 -2.2947e+12 -4.24019e+12 -4.34118e+12 -6.21122e+12 -3.16971e+12 -2.96599e+12 -2.77413e+12 -4.11957e+12 -2.52688e+12 -4.76675e+12 -1.27657e+12 -2.85848e+12 -2.99367e+12 -3.78806e+12 -5.98479e+12 -2.53045e+12 -3.09168e+12 -2.85475e+12 -1.62024e+12 -3.15524e+12 -2.97042e+12 -2.4652e+12 -2.64191e+12 -2.33327e+12 -3.39624e+12 -2.75786e+12 -1.85448e+12 -3.29719e+12 -2.15735e+12 -2.98874e+12 -3.88587e+12 -2.25676e+12 -1.34891e+12 -1.08819e+12 -1.74556e+12 -3.18142e+12 -1.79555e+12 -974392000000.0 -1.35181e+12 -1.75298e+12 -1.60187e+12 -1.59697e+12 -1.37675e+12 -1.22146e+12 -859564000000.0 -664389000000.0 -732469000000.0 -476095000000.0 -1.25264e+12 -670978000000.0 -1.17086e+12 -489404000000.0 -977009000000.0 -1.40417e+12 -1.69424e+12 -1.18213e+12 -1.66243e+12 -943808000000.0 -700955000000.0 -620837000000.0 -523825000000.0 -846128000000.0 -736523000000.0 -470854000000.0 -1.01941e+12 -1.91011e+12 -1.65628e+12 -1.59436e+12 -1.5213e+12 -1.6139e+12 -426047000000.0 -2.46269e+12 -1.81835e+12 -2.82293e+12 -1.20131e+12 -945487000000.0 -681117000000.0 -1.42323e+12 -2.11441e+12 -2.72152e+12 -4.42241e+12 -2.12357e+12 -3.83371e+12 -2.51539e+12 -3.14532e+12 -2.52092e+12 -2.41061e+12 -1.89162e+12 -3.35485e+12 -5.00986e+12 -2.69534e+12 -2.65838e+12 -686697000000.0 -2.45812e+12 -3.82785e+12 -3.82689e+12 -2.47323e+12 -2.51178e+12 -2.6601e+12 -5.36049e+12 -3.43244e+12 -5.32439e+12 -3.18453e+12 -2.66384e+12 -4.01714e+12 -3.71849e+12 -3.33146e+12 -3.27217e+12 -4.66099e+12 -3.27954e+12 -3.65586e+12 -4.67029e+12 -2.23739e+12 -2.25394e+12 -3.31807e+12 -4.04813e+12 -3.12532e+12 -3.94942e+12 -3.25022e+12 -3.86409e+12 -5.22189e+12 -4.05305e+12 -1.58872e+12 -3.36255e+12 -2.62796e+12 -3.89345e+12 -2.23709e+12 -3.13213e+12 -3.8193e+12 -3.39055e+12 -1.55406e+12 -3.18642e+12 -2.5916e+12 -2.55459e+12 -1.88309e+12 -3.17072e+12 -3.48747e+12 -1.7449e+12 -2.0662e+12 -3.53461e+12 -2.57858e+12 -2.22762e+12 -3.58608e+12 -3.29173e+12 -2.38554e+12 -1.85906e+12 -3.3554e+12 -2.2194e+12 -927287000000.0 -2.78001e+12 -1.80444e+12 -3.13064e+12 -2.58611e+12 -2.01929e+12 -2.2246e+12 -895224000000.0 -2.62715e+12 -1.04589e+12 -1.50387e+12 -1.49958e+12 -1.78497e+12 -1.06055e+12 -2.24472e+12 -817057000000.0 -1.45196e+12 -1.87796e+12 -1.58517e+12 -1.46698e+12 -860864000000.0 -937890000000.0 -1.2979e+12 -1.20545e+12 -911056000000.0 -942422000000.0 -65742400000.0 -1.23133e+12 -1.17252e+12 -1.44797e+12 -1.09537e+12 -445687000000.0 -269973000000.0 -418200000000.0 -614812000000.0 -1.04277e+12 -661689000000.0 -745700000000.0 -437587000000.0 -1.39605e+12 -836161000000.0 -1.11302e+12 -909787000000.0 -1.51537e+12 -901223000000.0 -1.71921e+12 -2.00652e+12 -658852000000.0 -1.61041e+12 -2.73465e+12 -1.15771e+12 -3.43175e+12 -1.83188e+12 -2.05954e+12 -3.50293e+12 -2.72554e+12 -1.7548e+12 -2.44414e+12 -1.81752e+12 -2.94845e+12 -3.83113e+12 -3.25451e+12 -875421000000.0 -1.87751e+12 -2.91388e+12 -4.16933e+12 -2.63711e+12 -3.22453e+12 -3.56631e+12 -2.65122e+12 -3.35055e+12 -2.48218e+12 -1.61158e+12 -3.8585e+12 -4.34972e+12 -2.88709e+12 -3.74239e+12 -2.17101e+12 -2.53239e+12 -2.00345e+12 -3.82486e+12 -4.00426e+12 -4.13124e+12 -3.68275e+12 -3.87555e+12 -5.52479e+12 -1.79791e+12 -1.5428e+12 -2.83937e+12 -4.37305e+12 -1.99792e+12 -2.17659e+12 -1.82417e+12 -3.65862e+12 -2.6955e+12 -1.18011e+12 -1.45514e+12 -4.3534e+12 -1.23553e+12 -3.18531e+12 -2.42985e+12 -1.28416e+12 -437661000000.0 -3.38539e+12 -608300000000.0 -1.89012e+12 -1.84638e+12 -2.41978e+12 -2.53361e+12 -2.54449e+12 -2.21945e+12 -2.6304e+12 -2.59912e+12 -2.18116e+12 -2.34071e+12 -2.74656e+12 -2.66568e+12 -2.42187e+12 -2.34427e+12 -1.71932e+12 -748076000000.0 -1.7665e+12 -2.07379e+12 -1.93937e+12 -1.7815e+12 -1.10687e+12 -1.88788e+12 -687120000000.0 -901907000000.0 -1.64019e+12 -1.57491e+12 -1.99055e+12 -1.20906e+12 -1.9842e+12 -1.50674e+12 -1.51247e+12 -338639000000.0 -1.50583e+12 -244007000000.0 -934802000000.0 -1.04973e+12 -602644000000.0 -547842000000.0 -435819000000.0 -1.02626e+12 -1.33442e+12 -381742000000.0 -559278000000.0 -1.0864e+12 -694448000000.0 -444810000000.0 -964945000000.0 -875645000000.0 -912055000000.0 -781590000000.0 -1.24304e+12 -382107000000.0 -1.17088e+12 -1.48744e+12 -92352000000.0 -1.05041e+12 -553806000000.0 -768066000000.0 -442996000000.0 -1.21718e+12 -1.23215e+12 -891165000000.0 -1.91494e+12 -2.2412e+12 -387933000000.0 -825344000000.0 -1.06698e+12 -1.08343e+12 -1.53959e+12 -2.7773e+12 -1.49976e+12 -1.51816e+12 -1.65824e+12 -3.73816e+12 -2.71223e+12 -353217000000.0 -2.72428e+12 -2.88546e+12 -1.8717e+12 -2.65048e+12 -1.32774e+12 -2.97691e+12 -2.72775e+12 -3.3007e+12 -3.18454e+12 -925528000000.0 -937146000000.0 -1.75194e+12 -2.9603e+12 -1.90734e+12 -3.01721e+12 -1.99216e+12 -1.96466e+12 -3.72923e+12 -1.96761e+12 -2.51296e+12 -2.28766e+12 -2.11637e+12 -1.77898e+12 -1.76966e+12 -1.42801e+12 -2.8966e+12 -4.44444e+12 -2.47799e+12 -2.55547e+12 -1.63175e+12 -1.76623e+12 -3.58718e+12 -3.05754e+12 -2.66862e+12 -3.70877e+12 -2.17814e+12 -1.11886e+12 -2.91773e+12 -2.799e+12 -2.64174e+12 -1.87425e+12 -2.30132e+12 -2.45071e+12 -2.239e+12 -1.3042e+12 -1.94147e+12 -2.90873e+12 -1.20844e+12 -3.20063e+12 -3.14947e+12 -3.17617e+12 -2.39395e+12 -2.88945e+12 -731732000000.0 -2.18925e+12 -1.49054e+12 -1.49026e+12 -1.37023e+12 -2.92727e+12 -1.88054e+12 -1.62683e+12 -807247000000.0 -1.34316e+12 -1.37447e+12 -137153000000.0 -1.09836e+12 -1.04288e+12 -643969000000.0 -409246000000.0 -642275000000.0 -629720000000.0 -559295000000.0 -420228000000.0 -746383000000.0 -761976000000.0 -487192000000.0 -484664000000.0 -595040000000.0 -891003000000.0 -886666000000.0 -132729000000.0 -173085000000.0 -319483000000.0 -282262000000.0 -491734000000.0 -561454000000.0 -281950000000.0 -1.24336e+12 -441331000000.0 -956482000000.0 -1.60294e+12 -747731000000.0 -1.02912e+12 -1.22031e+12 -956780000000.0 -149477000000.0 -920551000000.0 -506429000000.0 -522419000000.0 -452658000000.0 -2.2942e+12 -1.14046e+12 -234103000000.0 -1.43566e+12 -1.15995e+12 -697688000000.0 -1.8531e+12 -2.48874e+12 -930837000000.0 -1.57374e+12 -993399000000.0 -591757000000.0 -2.37904e+12 -2.62345e+12 -789770000000.0 -1.70004e+12 -1.7268e+12 -1.6134e+12 -2.2219e+12 -3.07385e+12 -1.59001e+12 -2.93064e+12 -2.94758e+12 -2.84146e+12 -3.01763e+12 -2.53068e+12 -2.26317e+12 -1.55842e+12 -2.307e+12 -2.82248e+12 -2.08105e+12 -1.4956e+12 -3.01692e+12 -2.60757e+12 -1.94847e+12 -1.85534e+12 -4.26739e+12 -2.38691e+12 -1.75096e+12 -2.05628e+12 -1.30632e+12 -964359000000.0 -1.27913e+12 -2.47436e+12 -2.67171e+12 -605585000000.0 -2.53078e+12 -3.80527e+12 -1.88639e+12 -1.58857e+12 -1.83005e+12 -1.03051e+12 -3.20211e+12 -2.70984e+12 -1.51327e+12 -1.73531e+12 -719022000000.0 -1.70767e+12 -1.4725e+12 -2.58893e+12 -1.21781e+12 -2.24542e+12 -2.14188e+12 -3.04636e+12 -1.53239e+12 -1.20074e+12 -1.0521e+12 -818590000000.0 -1.71987e+12 -1.72762e+12 -1.15364e+12 -846121000000.0 -818469000000.0 -1.43127e+12 -325333000000.0 -876228000000.0 -1.76318e+12 -464610000000.0 -272821000000.0 -58993700000.0 -749810000000.0 -646588000000.0 -782598000000.0 -721911000000.0 -581042000000.0 -595721000000.0 -524824000000.0 -404971000000.0 -528059000000.0 -617230000000.0 -298538000000.0 -1.04513e+12 -835336000000.0 -322198000000.0 -202805000000.0 -1.09164e+12 -279848000000.0 -1.04405e+12 -1.00876e+12 -455505000000.0 -1.07013e+12 -837623000000.0 -485036000000.0 -593886000000.0 -569893000000.0 -293602000000.0 -563604000000.0 -597204000000.0 -1.53383e+12 -1.15659e+12 -1.54881e+12 -616279000000.0 -970287000000.0 -1.07353e+12 -1.02476e+12 -1.49878e+12 -1.74178e+12 -801016000000.0 -840206000000.0 -1.19451e+12 -699351000000.0 -910992000000.0 -1.44022e+12 -888465000000.0 -1.39683e+12 -1.46834e+12 -1.8573e+12 -2.02791e+12 -1.60288e+12 -302779000000.0 -1.91934e+12 -2.59321e+12 -2.5265e+12 -1.7029e+12 -2.2083e+12 -2.47013e+12 -2.36974e+12 -2.49014e+12 -3.29505e+12 -2.17172e+12 -3.15179e+12 -2.27949e+12 -2.62786e+12 -1.9879e+12 -1.42847e+12 -2.32448e+12 -1.89392e+12 -2.93276e+12 -3.18482e+12 -1.81006e+12 -1.58791e+12 -2.71868e+12 -3.54409e+12 -2.35126e+12 -2.14131e+12 -1.57068e+12 -928419000000.0 -3.20214e+12 -1.69193e+12 -2.44256e+12 -1.65313e+12 -211141000000.0 -1.72816e+12 -2.69348e+12 -1.11826e+12 -2.00567e+12 -1.58106e+12 -2.64504e+12 -1.73594e+12 -1.98933e+12 -886418000000.0 -2.34673e+12 -1.21214e+12 -2.7891e+12 -1.05082e+12 -679663000000.0 -1.83366e+12 -2.04082e+12 -1.7711e+12 -1.34603e+12 -1.67515e+12 -1.64996e+12 -345457000000.0 -643078000000.0 -1.41944e+12 -1.29307e+12 -1.06506e+12 -1.56974e+12 -1.3724e+12 -836554000000.0 -1.3607e+12 -167473000000.0 -434086000000.0 -715488000000.0 -685465000000.0 -868065000000.0 -590805000000.0 -725349000000.0 -30405400000.0 -406005000000.0 -192105000000.0 -239266000000.0 -303146000000.0 -318815000000.0 -337350000000.0 -252916000000.0 -342997000000.0 -206586000000.0 -384442000000.0 -265347000000.0 -726012000000.0 -579738000000.0 -657399000000.0 -396660000000.0 -393293000000.0 -668912000000.0 -638713000000.0 -335997000000.0 -370013000000.0 -586234000000.0 -621313000000.0 -35153400000.0 -225285000000.0 -430269000000.0 -129385000000.0 -1.16746e+12 -454607000000.0 -454002000000.0 -655183000000.0 -991245000000.0 -874722000000.0 -1.55978e+12 -1.26063e+12 -1.42069e+12 -1.14155e+12 -500192000000.0 -1.0307e+12 -947091000000.0 -1.05689e+12 -704170000000.0 -1.7744e+12 -539293000000.0 -954692000000.0 -1.17548e+12 -1.5243e+12 -1.67908e+12 -1.67809e+12 -931885000000.0 -1.67689e+12 -1.99276e+12 -1.41281e+12 -764478000000.0 -2.35845e+12 -1.06434e+12 -1.25915e+12 -2.48937e+12 -911560000000.0 -1.96017e+12 -1.96258e+12 -1.79045e+12 -1.58859e+12 -1.00759e+12 -885566000000.0 -2.2087e+12 -3.08821e+12 -1.34096e+12 -1.38145e+12 -2.25694e+12 -2.67538e+12 -1.35158e+12 -966069000000.0 -3.29738e+12 -2.09439e+12 -1.5811e+12 -2.80851e+12 -1.96568e+12 -1.28103e+12 -2.23865e+12 -1.9213e+12 -2.01172e+12 -1.2231e+12 -1.84554e+12 -2.17191e+12 -679127000000.0 -1.32096e+12 -1.11584e+12 -925532000000.0 -1.51553e+12 -1.74234e+12 -1.47146e+12 -1.70937e+12 -2.00745e+12 -1.92427e+12 -377529000000.0 -751019000000.0 -959457000000.0 -674376000000.0 -792305000000.0 -995593000000.0 -519614000000.0 -418620000000.0 -377272000000.0 -645630000000.0 -226753000000.0 -457252000000.0 -888222000000.0 -602531000000.0 -739898000000.0 -223291000000.0 -460156000000.0 -374203000000.0 -45119600000.0 -279886000000.0 -172425000000.0 -77304600000.0 -90425800000.0 -288802000000.0 -215494000000.0 -299312000000.0 -349721000000.0 -349277000000.0 -142603000000.0 -406616000000.0 -894416000000.0 -112671000000.0 -586070000000.0 -398591000000.0 -511389000000.0 -297547000000.0 -502800000000.0 -412243000000.0 -988862000000.0 -482817000000.0 -889332000000.0 -932053000000.0 -844569000000.0 -1.19773e+12 -340255000000.0 -509463000000.0 -608351000000.0 -748525000000.0 -934963000000.0 -1.06398e+12 -1.29664e+12 -816778000000.0 -1.41344e+12 -1.12044e+12 -506470000000.0 -1.27609e+12 -924751000000.0 -1.84916e+12 -2.13482e+12 -1.59115e+12 -962259000000.0 -1.53218e+12 -1.52795e+12 -1.54566e+12 -820355000000.0 -1.30761e+12 -1.14166e+12 -1.93287e+12 -1.74704e+12 -494129000000.0 -2.5568e+12 -1.13031e+12 -1.08966e+12 -2.12388e+12 -2.00795e+12 -445122000000.0 -1.95032e+12 -1.95917e+12 -1.93702e+12 -2.36297e+12 -1.61479e+12 -1.53348e+12 -1.56242e+12 -1.32992e+12 -1.14899e+12 -1.01042e+12 -1.75949e+12 -1.50161e+12 -1.10947e+12 -1.27706e+12 -1.0857e+12 -1.32472e+12 -1.28611e+12 -1.11233e+12 -1.07271e+12 -1.06923e+12 -703445000000.0 -355102000000.0 -904121000000.0 -814113000000.0 -1.66636e+12 -822725000000.0 -732890000000.0 -1.20445e+12 -670130000000.0 -770533000000.0 -817845000000.0 -406349000000.0 -719770000000.0 -1.21094e+12 -1.10794e+12 -1.46137e+12 -937135000000.0 -280526000000.0 -991612000000.0 -465428000000.0 -699686000000.0 -752146000000.0 -439645000000.0 -592524000000.0 -199103000000.0 -660055000000.0 -467881000000.0 -565572000000.0 -454254000000.0 -114524000000.0 -339796000000.0 -162554000000.0 -191431000000.0 -308940000000.0 -231825000000.0 -233141000000.0 -308542000000.0 -290925000000.0 -95411300000.0 -250524000000.0 -238356000000.0 -84311700000.0 -293162000000.0 -293745000000.0 -304908000000.0 -406906000000.0 -509919000000.0 -461402000000.0 -566420000000.0 -220168000000.0 -152776000000.0 -243127000000.0 -432011000000.0 -291091000000.0 -369650000000.0 -138026000000.0 -195915000000.0 -572905000000.0 -558667000000.0 -416148000000.0 -30529600000.0 -662172000000.0 -406823000000.0 -565266000000.0 -362030000000.0 -511043000000.0 -1.34154e+12 -1.3553e+12 -745429000000.0 -1.25369e+12 -1.23333e+12 -497015000000.0 -397565000000.0 -1.13849e+12 -885189000000.0 -814347000000.0 -964599000000.0 -1.6595e+12 -1.07531e+12 -520582000000.0 -2.32468e+12 -389595000000.0 -1.50531e+12 -1.06089e+12 -1.47346e+12 -1.09376e+12 -1.41458e+12 -1.67943e+12 -274419000000.0 -1.32738e+12 -1.44937e+12 -1.63444e+12 -2.72714e+12 -1.36743e+12 -1.31578e+12 -819897000000.0 -701488000000.0 -620650000000.0 -1.05327e+12 -1.70684e+12 -612498000000.0 -1.04221e+12 -91536900000.0 -1.43201e+12 -579090000000.0 -687563000000.0 -1.05428e+12 -1.18262e+12 -1.54561e+12 -694876000000.0 -685675000000.0 -623958000000.0 -793593000000.0 -1.54686e+12 -252211000000.0 -907692000000.0 -800019000000.0 -1.11342e+12 -1.26392e+12 -852098000000.0 -823972000000.0 -1.01693e+12 -751297000000.0 -524594000000.0 -1.26576e+12 -909260000000.0 -435285000000.0 -571566000000.0 -274651000000.0 -205907000000.0 -480591000000.0 -164980000000.0 -425101000000.0 -461835000000.0 -387921000000.0 -419633000000.0 -470210000000.0 -449986000000.0 -437540000000.0 -163383000000.0 -427200000000.0 -296970000000.0 -175095000000.0 -379645000000.0 -133556000000.0 -184177000000.0 -228330000000.0 -113004000000.0 -142950000000.0 -189435000000.0 -97586100000.0 -252932000000.0 -153210000000.0 -214412000000.0 -166690000000.0 -51988000000.0 -16135900000.0 -352859000000.0 -18426000000.0 -520961000000.0 -205605000000.0 -225429000000.0 -354408000000.0 -158792000000.0 -310450000000.0 -160502000000.0 -277972000000.0 -369407000000.0 -529685000000.0 -568526000000.0 -22159700000.0 -628269000000.0 -740139000000.0 -998011000000.0 -927230000000.0 -824481000000.0 -219267000000.0 -860481000000.0 -663490000000.0 -994386000000.0 -432258000000.0 -1.14869e+12 -522293000000.0 -28209300000.0 -1.30788e+12 -767359000000.0 -533193000000.0 -622619000000.0 -1.44805e+12 -1.13097e+12 -2.11057e+12 -1.63294e+12 -745176000000.0 -788339000000.0 -637062000000.0 -1.27698e+12 -570339000000.0 -1.74221e+12 -584835000000.0 -1.21335e+12 -1.23871e+12 -505522000000.0 -1.0315e+12 -1.21694e+12 -1.458e+12 -2.69816e+12 -1.56044e+12 -873162000000.0 -1.08296e+12 -552531000000.0 -635802000000.0 -1.17824e+12 -20010800000.0 -436604000000.0 -1.20315e+12 -718201000000.0 -1.10072e+12 -505742000000.0 -228926000000.0 -610921000000.0 -450133000000.0 -990166000000.0 -673310000000.0 -1.1465e+12 -1.10456e+12 -1.24472e+12 -689022000000.0 -951806000000.0 -847869000000.0 -216963000000.0 -678438000000.0 -879437000000.0 -374534000000.0 -728528000000.0 -669932000000.0 -497528000000.0 -140346000000.0 -361406000000.0 -372702000000.0 -88185800000.0 -342592000000.0 -623097000000.0 -179905000000.0 -149972000000.0 -155127000000.0 -196852000000.0 -106886000000.0 -397339000000.0 -280199000000.0 -450484000000.0 -58539300000.0 -36489200000.0 -251560000000.0 -289622000000.0 -139816000000.0 -27351500000.0 -25722500000.0 -18339100000.0 -49100400000.0 -132368000000.0 -155756000000.0 -41679700000.0 -65780300000.0 -70529700000.0 -49628100000.0 -117161000000.0 -111698000000.0 -168295000000.0 -223435000000.0 -235395000000.0 -256071000000.0 -98462300000.0 -420688000000.0 -149548000000.0 -526579000000.0 -587187000000.0 -312269000000.0 -874478000000.0 -385308000000.0 -265379000000.0 -494006000000.0 -87227700000.0 -319157000000.0 -240388000000.0 -457186000000.0 -226800000000.0 -418009000000.0 -102494000000.0 -257138000000.0 -1.18805e+12 -932550000000.0 -456376000000.0 -489984000000.0 -271764000000.0 -869509000000.0 -867703000000.0 -470651000000.0 -1.30135e+12 -384293000000.0 -1.0402e+12 -649567000000.0 -777605000000.0 -576601000000.0 -590601000000.0 -995842000000.0 -758193000000.0 -543050000000.0 -1.25689e+12 -716777000000.0 -372210000000.0 -112837000000.0 -1.66413e+12 -1.06952e+12 -563737000000.0 -1.49912e+12 -589231000000.0 -1.03016e+12 -1.13608e+12 -282877000000.0 -1.13932e+12 -804775000000.0 -585791000000.0 -915198000000.0 -661989000000.0 -673006000000.0 -464736000000.0 -661754000000.0 -690132000000.0 -550634000000.0 -452479000000.0 -315355000000.0 -200278000000.0 -683558000000.0 -707382000000.0 -561350000000.0 -642512000000.0 -557632000000.0 -1.09037e+12 -330318000000.0 -942583000000.0 -165700000000.0 -1.13104e+12 -400132000000.0 -620694000000.0 -500869000000.0 -425846000000.0 -301668000000.0 -444574000000.0 -520236000000.0 -211274000000.0 -350249000000.0 -335554000000.0 -210916000000.0 -240346000000.0 -129162000000.0 -123096000000.0 -107508000000.0 -187720000000.0 -354515000000.0 -141630000000.0 -79277400000.0 -145627000000.0 -49749500000.0 -27437700000.0 -26062800000.0 -75926900000.0 -78941600000.0 -26701000000.0 -39704100000.0 -39592000000.0 -12549700000.0 -63468800000.0 -52640300000.0 -138859000000.0 -147599000000.0 -253586000000.0 -241168000000.0 -89236400000.0 -246364000000.0 -140874000000.0 -51778200000.0 -177000000000.0 -345387000000.0 -109768000000.0 -98143600000.0 -59452400000.0 -388176000000.0 -55889300000.0 -291658000000.0 -427787000000.0 -949437000000.0 -748109000000.0 -413203000000.0 -314827000000.0 -214865000000.0 -167240000000.0 -226293000000.0 -1.05546e+12 -1.2027e+12 -274922000000.0 -1.44908e+12 -1.11167e+12 -484002000000.0 -530159000000.0 -992903000000.0 -1.30869e+12 -395482000000.0 -672198000000.0 -1.11871e+12 -1.49797e+12 -479971000000.0 -750528000000.0 -911523000000.0 -615313000000.0 -568751000000.0 -839355000000.0 -600388000000.0 -1.11379e+12 -391533000000.0 -997984000000.0 -273847000000.0 -276921000000.0 -596574000000.0 -658696000000.0 -469445000000.0 -685438000000.0 -244216000000.0 -853552000000.0 -146126000000.0 -549980000000.0 -770179000000.0 -234502000000.0 -339108000000.0 -246765000000.0 -677935000000.0 -183387000000.0 -169338000000.0 -657673000000.0 -796132000000.0 -277987000000.0 -251500000000.0 -406546000000.0 -110197000000.0 -197638000000.0 -159914000000.0 -116896000000.0 -252047000000.0 -214386000000.0 -20491900000.0 -159525000000.0 -200519000000.0 -262943000000.0 -356680000000.0 -196699000000.0 -125213000000.0 -71590200000.0 -210599000000.0 -126774000000.0 -27364700000.0 -58634800000.0 -99901600000.0 -195341000000.0 -67768800000.0 -13132600000.0 -58357300000.0 -20302100000.0 -13421500000.0 -12549700000.0 -40873600000.0 -55904000000.0 -40414200000.0 -16440600000.0 -32487500000.0 -21993600000.0 -76064500000.0 -59828100000.0 -75751700000.0 -142648000000.0 -143786000000.0 -101497000000.0 -93792200000.0 -83364500000.0 -262425000000.0 -52962300000.0 -109836000000.0 -25210500000.0 -174670000000.0 -173906000000.0 -117139000000.0 -172889000000.0 -254949000000.0 -514917000000.0 -425681000000.0 -88948000000.0 -341450000000.0 -331130000000.0 -392379000000.0 -218104000000.0 -781845000000.0 -570594000000.0 -370099000000.0 -498815000000.0 -911773000000.0 -272735000000.0 -577333000000.0 -981952000000.0 -460403000000.0 -445303000000.0 -536097000000.0 -469925000000.0 -1.29596e+12 -365055000000.0 -801929000000.0 -525419000000.0 -422560000000.0 -1.03479e+12 -75313000000.0 -951723000000.0 -558553000000.0 -469348000000.0 -633362000000.0 -484388000000.0 -543326000000.0 -791226000000.0 -523190000000.0 -275920000000.0 -449971000000.0 -286577000000.0 -327258000000.0 -516679000000.0 -348190000000.0 -512658000000.0 -327037000000.0 -297572000000.0 -450879000000.0 -141292000000.0 -537259000000.0 -139357000000.0 -205555000000.0 -254945000000.0 -295579000000.0 -186261000000.0 -531383000000.0 -272893000000.0 -675585000000.0 -260732000000.0 -489939000000.0 -319201000000.0 -397991000000.0 -270903000000.0 -76631500000.0 -199879000000.0 -295891000000.0 -243768000000.0 -330656000000.0 -16656700000.0 -89227800000.0 -15023200000.0 -68464800000.0 -12536200000.0 -73083100000.0 -50581500000.0 -29196400000.0 -102950000000.0 -34611600000.0 -50006000000.0 -62360600000.0 -123531000000.0 -26177100000.0 -14343100000.0 -36772500000.0 -28017500000.0 -12670100000.0 -12549700000.0 -12866200000.0 -18576600000.0 -43813600000.0 -15366600000.0 -45542100000.0 -90473600000.0 -87729000000.0 -39004600000.0 -46333000000.0 -82938600000.0 -29613500000.0 -49708700000.0 -49833800000.0 -18110800000.0 -102229000000.0 -29999200000.0 -95756700000.0 -22186700000.0 -89673000000.0 -103370000000.0 -127916000000.0 -134203000000.0 -120777000000.0 -54035600000.0 -122426000000.0 -70929300000.0 -307003000000.0 -600032000000.0 -201963000000.0 -378564000000.0 -324907000000.0 -540263000000.0 -38330000000.0 -200110000000.0 -118319000000.0 -292156000000.0 -19279700000.0 -311351000000.0 -320426000000.0 -147095000000.0 -298261000000.0 -548850000000.0 -66625500000.0 -645035000000.0 -281728000000.0 -650164000000.0 -645639000000.0 -514545000000.0 -693818000000.0 -320876000000.0 -384195000000.0 -63596300000.0 -328947000000.0 -80052400000.0 -88288100000.0 -153031000000.0 -273217000000.0 -197977000000.0 -105833000000.0 -323176000000.0 -259442000000.0 -341467000000.0 -191092000000.0 -303917000000.0 -258858000000.0 -107151000000.0 -283628000000.0 -80292300000.0 -122726000000.0 -73974400000.0 -235863000000.0 -107103000000.0 -37008600000.0 -159968000000.0 -271188000000.0 -66363300000.0 -86450700000.0 -69216300000.0 -26179400000.0 -138210000000.0 -95616600000.0 -105307000000.0 -70875300000.0 -97626000000.0 -221379000000.0 -62666000000.0 -41714600000.0 -27304400000.0 -36500800000.0 -14146500000.0 -20129700000.0 -28912200000.0 -35311300000.0 -45319200000.0 -33581700000.0 -21917400000.0 -21418700000.0 -21242300000.0 -20938800000.0 -23504300000.0 -37583700000.0 -30618000000.0 -39793200000.0 -15782800000.0 -14329700000.0 -24602500000.0 -21554600000.0 -39786800000.0 -25551200000.0 -33388100000.0 -46381500000.0 -38894200000.0 -29586700000.0 -82979800000.0 -78868800000.0 -120299000000.0 -75021200000.0 -113077000000.0 -56327600000.0 -80654800000.0 -202461000000.0 -92941500000.0 -79631900000.0 -167716000000.0 -143096000000.0 -242711000000.0 -60711200000.0 -150000000000.0 -304306000000.0 -23372200000.0 -181285000000.0 -59541700000.0 -244357000000.0 -105474000000.0 -85632000000.0 -210822000000.0 -100974000000.0 -230660000000.0 -312515000000.0 -127763000000.0 -183118000000.0 -172966000000.0 -400794000000.0 -216965000000.0 -488013000000.0 -290836000000.0 -318980000000.0 -401306000000.0 -147677000000.0 -404969000000.0 -452275000000.0 -77463300000.0 -69092200000.0 -165827000000.0 -127311000000.0 -58837300000.0 -92512900000.0 -84482900000.0 -40266000000.0 -52230900000.0 -77043700000.0 -59558400000.0 -22126700000.0 -59983200000.0 -70988300000.0 -32678900000.0 -22955800000.0 -59627700000.0 -69600600000.0 -43005500000.0 -21636700000.0 -67184600000.0 -43759900000.0 -66856000000.0 -67563300000.0 -90482000000.0 -40463900000.0 -58207300000.0 -22872400000.0 -24892300000.0 -71195000000.0 -48624000000.0 -97283800000.0 -96640700000.0 -126584000000.0 -94139900000.0 -82223000000.0 -81639500000.0 -47555800000.0 -58788700000.0 -70971100000.0 -115638000000.0 -108652000000.0 -54975900000.0 -67271800000.0 -36510000000.0 