# vtk DataFile Version 2.0
Time step 67
ASCII
DATASET UNSTRUCTURED_GRID
POINTS 4650 float
210546.0 350602.0 0
289455.0 350600.0 0
202000.0 352090.0 0
206871.0 352164.0 0
215678.0 352736.0 0
222548.0 353626.0 0
235379.0 354193.0 0
242067.0 354254.0 0
248016.0 353054.0 0
251983.0 353054.0 0
257932.0 354252.0 0
264622.0 354194.0 0
277453.0 353624.0 0
284323.0 352734.0 0
293130.0 352162.0 0
298000.0 352088.0 0
204389.0 355282.0 0
208325.0 355869.0 0
211998.0 354297.0 0
215201.0 356668.0 0
218873.0 355150.0 0
225722.0 356038.0 0
232037.0 356317.0 0
238690.0 356382.0 0
245578.0 356160.0 0
254420.0 356159.0 0
261309.0 356380.0 0
267965.0 356317.0 0
274279.0 356037.0 0
281128.0 355148.0 0
284800.0 356667.0 0
288003.0 354296.0 0
291676.0 355868.0 0
295611.0 355280.0 0
201997.0 358435.0 0
211529.0 358214.0 0
218416.0 359086.0 0
222055.0 357584.0 0
228806.0 358547.0 0
235335.0 358544.0 0
242216.0 358228.0 0
250000.0 357938.0 0
257783.0 358226.0 0
264665.0 358541.0 0
271197.0 358546.0 0
277947.0 357582.0 0
281586.0 359085.0 0
288472.0 358212.0 0
298003.0 358432.0 0
204171.0 361717.0 0
207632.0 359768.0 0
214765.0 360552.0 0
221634.0 361561.0 0
225205.0 359993.0 0
232041.0 360775.0 0
238882.0 360343.0 0
242978.0 362090.0 0
246499.0 360000.0 0
250000.0 361907.0 0
253500.0 360000.0 0
257021.0 362089.0 0
261118.0 360341.0 0
267960.0 360772.0 0
274797.0 359992.0 0
278369.0 361559.0 0
285236.0 360551.0 0
292373.0 359766.0 0
295833.0 361717.0 0
207575.0 363717.0 0
211140.0 362083.0 0
214393.0 364401.0 0
218016.0 362986.0 0
224861.0 363914.0 0
228706.0 362957.0 0
232281.0 364723.0 0
235588.0 362518.0 0
239585.0 364210.0 0
246514.0 363929.0 0
253485.0 363928.0 0
260414.0 364208.0 0
264414.0 362515.0 0
267720.0 364720.0 0
271296.0 362953.0 0
275141.0 363914.0 0
281986.0 362985.0 0
285610.0 364400.0 0
288862.0 362081.0 0
292428.0 363714.0 0
201993.0 364965.0 0
205367.0 366898.0 0
210844.0 365941.0 0
217550.0 366826.0 0
221265.0 365523.0 0
228986.0 366929.0 0
236259.0 366384.0 0
243113.0 366010.0 0
250000.0 365834.0 0
256887.0 366009.0 0
263740.0 366381.0 0
271015.0 366926.0 0
278739.0 365521.0 0
282454.0 366827.0 0
289160.0 365938.0 0
294632.0 366899.0 0
298007.0 364967.0 0
201989.0 368907.0 0
208654.0 368987.0 0
214057.0 368237.0 0
220378.0 369372.0 0
225138.0 367825.0 0
233010.0 368585.0 0
239784.0 368148.0 0
243249.0 369940.0 0
246586.0 367845.0 0
249999.0 369748.0 0
253413.0 367845.0 0
256750.0 369940.0 0
260216.0 368146.0 0
266991.0 368582.0 0
274862.0 367825.0 0
279622.0 369371.0 0
285948.0 368235.0 0
291344.0 368989.0 0
298011.0 368907.0 0
205299.0 370798.0 0
211858.0 371142.0 0
216831.0 371095.0 0
223580.0 371372.0 0
229828.0 370786.0 0
233358.0 372537.0 0
236538.0 370333.0 0
240006.0 372107.0 0
246656.0 371765.0 0
253342.0 371765.0 0
259994.0 372106.0 0
263463.0 370331.0 0
266645.0 372535.0 0
270174.0 370783.0 0
276420.0 371372.0 0
283171.0 371090.0 0
288141.0 371146.0 0
294701.0 370798.0 0
201990.0 372877.0 0
205450.0 374584.0 0
208628.0 372864.0 0
214173.0 373995.0 0
220201.0 373300.0 0
226849.0 373161.0 0
230263.0 374803.0 0
236851.0 374302.0 0
243413.0 373890.0 0
249998.0 373656.0 0
256585.0 373891.0 0
263153.0 374299.0 0
269738.0 374804.0 0
273150.0 373163.0 0
276393.0 375287.0 0
279799.0 373300.0 0
285822.0 373996.0 0
291372.0 372865.0 0
294550.0 374585.0 0
298010.0 372877.0 0
197747.0 378716.0 0
200955.0 376704.0 0
204114.0 377821.0 0
207690.0 378034.0 0
210849.0 375950.0 0
217352.0 375827.0 0
223607.0 375285.0 0
227074.0 377026.0 0
233708.0 376498.0 0
240312.0 376115.0 0
246745.0 375701.0 0
249995.0 377566.0 0
253249.0 375703.0 0
259693.0 376108.0 0
266294.0 376497.0 0
272927.0 377028.0 0
282645.0 375830.0 0
289148.0 375949.0 0
292309.0 378030.0 0
295885.0 377822.0 0
299045.0 376704.0 0
302254.0 378716.0 0
194444.0 380772.0 0
201034.0 380180.0 0
204483.0 381261.0 0
210956.0 379903.0 0
214130.0 377894.0 0
217393.0 379748.0 0
220580.0 377579.0 0
223923.0 379229.0 0
230530.0 378700.0 0
233983.0 380405.0 0
237155.0 378258.0 0
240584.0 380083.0 0
243738.0 377996.0 0
247123.0 379945.0 0
252880.0 379925.0 0
256267.0 377983.0 0
259418.0 380077.0 0
262847.0 378256.0 0
266017.0 380405.0 0
269471.0 378701.0 0
276077.0 379232.0 0
279419.0 377583.0 0
282607.0 379751.0 0
285869.0 377896.0 0
289044.0 379902.0 0
295520.0 381262.0 0
298967.0 380179.0 0
305557.0 380772.0 0
191169.0 382818.0 0
194291.0 384188.0 0
197572.0 382105.0 0
200614.0 383542.0 0
207864.0 381988.0 0
214183.0 381833.0 0
220714.0 381464.0 0
227333.0 380889.0 0
230780.0 382547.0 0
237435.0 382180.0 0
243990.0 381966.0 0
250010.0 382535.0 0
256011.0 381954.0 0
262565.0 382178.0 0
269221.0 382548.0 0
272668.0 380891.0 0
279287.0 381468.0 0
285818.0 381835.0 0
292138.0 381984.0 0
299384.0 383541.0 0
302428.0 382106.0 0
305709.0 384188.0 0
308831.0 382818.0 0
184660.0 386885.0 0
187912.0 384854.0 0
191036.0 386238.0 0
197395.0 385604.0 0
203767.0 384695.0 0
207049.0 385769.0 0
210959.0 383877.0 0
214216.0 385757.0 0
217475.0 383650.0 0
220844.0 385304.0 0
224097.0 383075.0 0
227539.0 384683.0 0
234242.0 384260.0 0
240893.0 384030.0 0
246799.0 384643.0 0
253220.0 384647.0 0
259107.0 384025.0 0
265758.0 384259.0 0
272462.0 384685.0 0
275904.0 383078.0 0
279158.0 385307.0 0
282526.0 383653.0 0
285788.0 385758.0 0
289044.0 383876.0 0
292947.0 385768.0 0
296231.0 384697.0 0
302604.0 385604.0 0
308964.0 386238.0 0
312088.0 384854.0 0
315339.0 386885.0 0
181407.0 388918.0 0
187785.0 388266.0 0
194165.0 387661.0 0
197334.0 389093.0 0
200583.0 386997.0 0
203800.0 388259.0 0
210073.0 387566.0 0
213034.0 389373.0 0
217592.0 387533.0 0
224292.0 386836.0 0
230998.0 386332.0 0
234385.0 388055.0 0
237707.0 386048.0 0
241901.0 387769.0 0
245773.0 388319.0 0
249995.0 387671.0 0
254200.0 388334.0 0
258067.0 387755.0 0
262292.0 386045.0 0
265617.0 388054.0 0
269003.0 386332.0 0
275709.0 386838.0 0
282412.0 387535.0 0
286962.0 389377.0 0
289924.0 387567.0 0
296199.0 388259.0 0
299416.0 386997.0 0
302665.0 389093.0 0
305835.0 387661.0 0
312215.0 388265.0 0
318593.0 388918.0 0
178144.0 390956.0 0
181265.0 392296.0 0
184530.0 390282.0 0
187663.0 391704.0 0
190918.0 389692.0 0
194074.0 391144.0 0
200532.0 390500.0 0
203674.0 391935.0 0
206894.0 389696.0 0
209919.0 391496.0 0
216045.0 391005.0 0
221049.0 389084.0 0
224754.0 390467.0 0
227824.0 388415.0 0
231178.0 390142.0 0
237718.0 389790.0 0
240921.0 391524.0 0
259078.0 391504.0 0
262287.0 389786.0 0
268823.0 390142.0 0
272177.0 388416.0 0
275247.0 390469.0 0
278953.0 389086.0 0
283951.0 391012.0 0
290080.0 391497.0 0
293105.0 389695.0 0
296326.0 391935.0 0
299467.0 390500.0 0
305926.0 391144.0 0
309081.0 389692.0 0
312337.0 391704.0 0
315470.0 390282.0 0
318735.0 392296.0 0
321856.0 390956.0 0
171576.0 395058.0 0
174868.0 393002.0 0
177986.0 394315.0 0
184398.0 393701.0 0
190809.0 393166.0 0
193963.0 394652.0 0
197246.0 392604.0 0
200398.0 394088.0 0
206741.0 393563.0 0
213007.0 393319.0 0
218795.0 393074.0 0
222012.0 392569.0 0
228044.0 392229.0 0
234473.0 391888.0 0
237710.0 393653.0 0
244479.0 392004.0 0
248184.0 391314.0 0
251811.0 391346.0 0
255522.0 392008.0 0
262288.0 393647.0 0
265527.0 391888.0 0
271958.0 392230.0 0
277991.0 392569.0 0
281207.0 393093.0 0
286994.0 393322.0 0
293260.0 393563.0 0
299603.0 394087.0 0
302754.0 392603.0 0
306037.0 394652.0 0
309191.0 393166.0 0
315602.0 393701.0 0
322014.0 394315.0 0
325132.0 393002.0 0
328423.0 395058.0 0
168269.0 397125.0 0
174692.0 396345.0 0
181119.0 395694.0 0
184264.0 397140.0 0
187541.0 395163.0 0
190686.0 396666.0 0
197108.0 396165.0 0
203506.0 395656.0 0
209806.0 395375.0 0
216001.0 395309.0 0
218573.0 397866.0 0
225006.0 394350.0 0
228134.0 396089.0 0
231281.0 393986.0 0
234486.0 395751.0 0
240959.0 395380.0 0
246826.0 394940.0 0
250001.0 396776.0 0
253188.0 394957.0 0
259034.0 395362.0 0
265511.0 395749.0 0
268719.0 393986.0 0
271866.0 396090.0 0
274995.0 394352.0 0
281425.0 397867.0 0
284005.0 395318.0 0
290196.0 395376.0 0
296495.0 395656.0 0
302892.0 396164.0 0
309314.0 396666.0 0
312459.0 395163.0 0
315736.0 397140.0 0
318880.0 395694.0 0
325308.0 396345.0 0
331731.0 397125.0 0
164946.0 399201.0 0
171382.0 398388.0 0
174516.0 399705.0 0
177825.0 397693.0 0
180974.0 399109.0 0
187410.0 398649.0 0
193823.0 398200.0 0
196945.0 399770.0 0
200228.0 397726.0 0
203316.0 399379.0 0
206583.0 397378.0 0
209626.0 399257.0 0
212842.0 397267.0 0
215523.0 399647.0 0
221625.0 396125.0 0
224865.0 398062.0 0
231291.0 397850.0 0
237682.0 397514.0 0
240775.0 399359.0 0
243955.0 397339.0 0
247079.0 399146.0 0
252926.0 399143.0 0
256058.0 397347.0 0
259229.0 399364.0 0
262310.0 397508.0 0
268707.0 397849.0 0
275134.0 398064.0 0
278374.0 396127.0 0
284476.0 399646.0 0
287163.0 397271.0 0
290378.0 399258.0 0
293418.0 397378.0 0
296686.0 399379.0 0
299772.0 397726.0 0
303055.0 399770.0 0
306177.0 398200.0 0
312590.0 398649.0 0
319026.0 399109.0 0
322175.0 397693.0 0
325484.0 399705.0 0
328618.0 398388.0 0
335054.0 399201.0 0
161608.0 401287.0 0
164718.0 402514.0 0
168056.0 400444.0 0
171191.0 401734.0 0
177669.0 401086.0 0
180836.0 402541.0 0
184130.0 400601.0 0
187280.0 402169.0 0
190548.0 400203.0 0
193671.0 401791.0 0
200044.0 401396.0 0
206363.0 401174.0 0
212446.0 401421.0 0
218542.0 401735.0 0
221684.0 399928.0 0
228059.0 399891.0 0
231226.0 401696.0 0
234454.0 399623.0 0
237579.0 401441.0 0
243893.0 401267.0 0
250003.0 401304.0 0
256108.0 401272.0 0
262422.0 401441.0 0
265542.0 399619.0 0
268771.0 401695.0 0
271940.0 399891.0 0
278315.0 399929.0 0
281457.0 401736.0 0
287554.0 401419.0 0
293638.0 401175.0 0
299957.0 401396.0 0
306329.0 401792.0 0
309452.0 400203.0 0
312720.0 402169.0 0
315870.0 400601.0 0
319163.0 402541.0 0
322331.0 401086.0 0
328809.0 401734.0 0
331944.0 400444.0 0
335282.0 402514.0 0
338392.0 401287.0 0
154895.0 405484.0 0
158258.0 403381.0 0
161369.0 404596.0 0
167854.0 403782.0 0
171014.0 405098.0 0
174348.0 403081.0 0
177525.0 404492.0 0
184009.0 404086.0 0
190411.0 403785.0 0
196775.0 403415.0 0
199860.0 405094.0 0
203113.0 403119.0 0
209300.0 403187.0 0
215411.0 403540.0 0
221639.0 403750.0 0
224839.0 401859.0 0
227996.0 403720.0 0
234367.0 403516.0 0
240690.0 403308.0 0
246909.0 403270.0 0
253093.0 403273.0 0
259312.0 403311.0 0
265633.0 403514.0 0
272002.0 403720.0 0
275159.0 401860.0 0
278361.0 403751.0 0
284589.0 403539.0 0
290700.0 403187.0 0
296888.0 403120.0 0
300141.0 405095.0 0
303226.0 403415.0 0
309589.0 403785.0 0
315991.0 404086.0 0
322475.0 404492.0 0
325652.0 403081.0 0
328986.0 405098.0 0
332146.0 403782.0 0
338631.0 404596.0 0
341742.0 403381.0 0
345105.0 405484.0 0
151523.0 407592.0 0
158009.0 406691.0 0
161156.0 407928.0 0
164508.0 405846.0 0
167672.0 407138.0 0
174196.0 406470.0 0
177400.0 407908.0 0
180718.0 405987.0 0
183917.0 407594.0 0
187168.0 405734.0 0
190292.0 407421.0 0
193519.0 405428.0 0
196611.0 407098.0 0
202924.0 406877.0 0
206127.0 405009.0 0
212262.0 405317.0 0
218452.0 405593.0 0
224767.0 405684.0 0
231141.0 405562.0 0
237489.0 405368.0 0
240591.0 407270.0 0
243762.0 405251.0 0
246862.0 407228.0 0
250000.0 405259.0 0
253137.0 407230.0 0
256239.0 405254.0 0
259409.0 407272.0 0
262511.0 405368.0 0
268858.0 405561.0 0
275232.0 405684.0 0
281548.0 405593.0 0
287738.0 405316.0 0
293873.0 405009.0 0
297076.0 406878.0 0
303389.0 407098.0 0
306481.0 405429.0 0
309708.0 407422.0 0
312832.0 405734.0 0
316082.0 407594.0 0
319282.0 405987.0 0
322600.0 407908.0 0
325804.0 406470.0 0
332328.0 407138.0 0
335492.0 405846.0 0
338844.0 407928.0 0
341991.0 406691.0 0
348477.0 407592.0 0
148144.0 409706.0 0
154644.0 408800.0 0
157802.0 410024.0 0
164328.0 409201.0 0
167521.0 410517.0 0
170858.0 408478.0 0
174066.0 409872.0 0
180625.0 409437.0 0
187092.0 409356.0 0
193389.0 409117.0 0
199696.0 408812.0 0
205994.0 408800.0 0
209134.0 407070.0 0
212116.0 409218.0 0
215267.0 407411.0 0
218304.0 409449.0 0
221535.0 407587.0 0
224654.0 409519.0 0
227904.0 407566.0 0
231040.0 409438.0 0
234275.0 407416.0 0
237394.0 409301.0 0
243701.0 409214.0 0
249999.0 409203.0 0
256299.0 409216.0 0
262606.0 409301.0 0
265725.0 407416.0 0
268960.0 409438.0 0
272095.0 407566.0 0
275345.0 409518.0 0
278464.0 407587.0 0
281696.0 409449.0 0
284733.0 407411.0 0
287884.0 409218.0 0
290866.0 407070.0 0
294005.0 408800.0 0
300304.0 408812.0 0
306611.0 409118.0 0
312908.0 409356.0 0
319375.0 409437.0 0
325934.0 409872.0 0
329142.0 408478.0 0
332479.0 410517.0 0
335672.0 409201.0 0
342198.0 410024.0 0
345356.0 408800.0 0
351856.0 409706.0 0
144771.0 411817.0 0
147909.0 413069.0 0
151274.0 410922.0 0
154449.0 412140.0 0
160989.0 411285.0 0
164197.0 412582.0 0
170731.0 411876.0 0
173954.0 413287.0 0
177295.0 411327.0 0
180550.0 412873.0 0
183863.0 411109.0 0
190217.0 411124.0 0
193327.0 412867.0 0
196473.0 410815.0 0
199564.0 412522.0 0
202802.0 410599.0 0
205912.0 412517.0 0
209021.0 410960.0 0
215080.0 411298.0 0
221400.0 411424.0 0
227787.0 411423.0 0
234169.0 411323.0 0
240515.0 411219.0 0
246837.0 411177.0 0
253162.0 411178.0 0
259486.0 411220.0 0
265832.0 411323.0 0
272213.0 411423.0 0
278600.0 411423.0 0
284919.0 411298.0 0
290979.0 410960.0 0
294089.0 412517.0 0
297198.0 410600.0 0
300436.0 412522.0 0
303527.0 410816.0 0
306673.0 412867.0 0
309783.0 411125.0 0
316136.0 411109.0 0
319450.0 412873.0 0
322705.0 411327.0 0
326045.0 413287.0 0
329269.0 411876.0 0
335802.0 412582.0 0
339011.0 411285.0 0
345551.0 412140.0 0
348726.0 410922.0 0
352091.0 413069.0 0
355229.0 411817.0 0
138098.0 415996.0 0
141419.0 413916.0 0
144566.0 415241.0 0
151101.0 414274.0 0
154339.0 415506.0 0
157659.0 413382.0 0
160894.0 414673.0 0
167423.0 413924.0 0
170657.0 415305.0 0
177187.0 414741.0 0
183834.0 414588.0 0
187061.0 413050.0 0
190184.0 414891.0 0
196477.0 414584.0 0
202647.0 414260.0 0
205665.0 416076.0 0
211883.0 413174.0 0
218138.0 413297.0 0
224524.0 413368.0 0
230919.0 413325.0 0
237299.0 413229.0 0
243652.0 413162.0 0
246814.0 415118.0 0
250000.0 413145.0 0
253185.0 415118.0 0
256348.0 413162.0 0
262702.0 413230.0 0
269081.0 413325.0 0
275476.0 413368.0 0
281862.0 413297.0 0
288117.0 413174.0 0
294335.0 416077.0 0
297353.0 414260.0 0
303523.0 414584.0 0
309816.0 414891.0 0
312939.0 413050.0 0
316166.0 414588.0 0
322813.0 414741.0 0
329343.0 415305.0 0
332577.0 413924.0 0
339106.0 414673.0 0
342341.0 413382.0 0
345661.0 415506.0 0
348899.0 414274.0 0
355434.0 415241.0 0
358581.0 413916.0 0
361902.0 415996.0 0
134808.0 418057.0 0
141262.0 417408.0 0
147765.0 416461.0 0
151025.0 417642.0 0
157608.0 416767.0 0
160902.0 418096.0 0
164147.0 415996.0 0
167414.0 417372.0 0
173891.0 416737.0 0
177119.0 418180.0 0
180430.0 416264.0 0
183687.0 417912.0 0
187032.0 416851.0 0
193376.0 416635.0 0
199680.0 416306.0 0
202973.0 418065.0 0
208789.0 414999.0 0
211513.0 417182.0 0
214846.0 415167.0 0
217952.0 417130.0 0
221250.0 415272.0 0
224355.0 417240.0 0
227649.0 415299.0 0
230783.0 417221.0 0
234055.0 415233.0 0
237202.0 417153.0 0
240442.0 415156.0 0
243605.0 417099.0 0
250000.0 417082.0 0
256395.0 417099.0 0
259559.0 415156.0 0
262798.0 417152.0 0
265946.0 415233.0 0
269217.0 417220.0 0
272351.0 415299.0 0
275645.0 417240.0 0
278750.0 415272.0 0
282048.0 417129.0 0
285155.0 415167.0 0
288488.0 417182.0 0
291210.0 414997.0 0
297026.0 418065.0 0
300320.0 416306.0 0
306624.0 416635.0 0
312967.0 416851.0 0
316313.0 417912.0 0
319570.0 416264.0 0
322881.0 418180.0 0
326109.0 416737.0 0
332586.0 417372.0 0
335852.0 415996.0 0
339098.0 418097.0 0
342392.0 416768.0 0
348974.0 417642.0 0
352235.0 416461.0 0
358738.0 417408.0 0
365192.0 418056.0 0
131536.0 420103.0 0
138000.0 419546.0 0
141216.0 420962.0 0
144465.0 418708.0 0
147729.0 419873.0 0
151072.0 421008.0 0
154337.0 418901.0 0
157675.0 420175.0 0
164207.0 419441.0 0
167525.0 420863.0 0
170683.0 418779.0 0
173950.0 420251.0 0
180348.0 419666.0 0
183663.0 421074.0 0
190254.0 418677.0 0
193585.0 420383.0 0
196650.0 418348.0 0
200016.0 420031.0 0
206780.0 419357.0 0
210273.0 420832.0 0
214607.0 418942.0 0
221024.0 419136.0 0
227482.0 419184.0 0
233931.0 419142.0 0
240368.0 419084.0 0
246791.0 419052.0 0
253209.0 419052.0 0
259632.0 419084.0 0
266069.0 419142.0 0
272518.0 419184.0 0
278977.0 419136.0 0
285394.0 418942.0 0
289726.0 420833.0 0
293219.0 419358.0 0
299983.0 420031.0 0
303350.0 418348.0 0
306415.0 420383.0 0
309746.0 418677.0 0
316337.0 421074.0 0
319652.0 419666.0 0
326049.0 420251.0 0
329317.0 418779.0 0
332475.0 420863.0 0
335793.0 419441.0 0
342325.0 420175.0 0
345663.0 418901.0 0
348928.0 421008.0 0
352271.0 419873.0 0
355535.0 418708.0 0
358784.0 420962.0 0
362000.0 419546.0 0
368464.0 420103.0 0
128248.0 422157.0 0
131495.0 423666.0 0
134763.0 421639.0 0
138011.0 423163.0 0
144482.0 422209.0 0
147828.0 423278.0 0
154478.0 422327.0 0
157883.0 423589.0 0
161035.0 421562.0 0
164386.0 422906.0 0
170848.0 422288.0 0
177217.0 421677.0 0
180553.0 423109.0 0
187175.0 420767.0 0
190530.0 422456.0 0
196984.0 422075.0 0
203608.0 421585.0 0
207095.0 423033.0 0
213670.0 422495.0 0
217613.0 420965.0 0
224145.0 421109.0 0
230625.0 421117.0 0
237101.0 421068.0 0
243556.0 421027.0 0
250000.0 421012.0 0
256444.0 421027.0 0
262899.0 421068.0 0
269375.0 421116.0 0
275855.0 421109.0 0
282387.0 420964.0 0
286329.0 422495.0 0
292905.0 423034.0 0
296391.0 421585.0 0
303016.0 422075.0 0
309470.0 422456.0 0
312825.0 420768.0 0
319447.0 423109.0 0
322783.0 421677.0 0
329152.0 422288.0 0
335614.0 422907.0 0
338965.0 421562.0 0
342117.0 423589.0 0
345522.0 422327.0 0
352172.0 423278.0 0
355518.0 422209.0 0
361988.0 423163.0 0
365237.0 421639.0 0
368505.0 423666.0 0
371752.0 422157.0 0
121612.0 426304.0 0
124925.0 424232.0 0
128114.0 425691.0 0
134781.0 425264.0 0
141310.0 424577.0 0
144667.0 425724.0 0
151282.0 424337.0 0
154798.0 425812.0 0
161293.0 425091.0 0
167765.0 424394.0 0
171143.0 425796.0 0
174185.0 423834.0 0
177539.0 425174.0 0
184053.0 424200.0 0
187566.0 424682.0 0
193967.0 424111.0 0
197409.0 425818.0 0
200460.0 423645.0 0
203894.0 425305.0 0
210478.0 424809.0 0
213994.0 426114.0 0
217315.0 424681.0 0
220761.0 422970.0 0
223874.0 424974.0 0
227276.0 423065.0 0
230456.0 424998.0 0
233799.0 423043.0 0
236997.0 424973.0 0
240293.0 423003.0 0
243506.0 424945.0 0
246766.0 422977.0 0
250000.0 424934.0 0
253234.0 422977.0 0
256495.0 424945.0 0
259708.0 423002.0 0
263004.0 424973.0 0
266202.0 423042.0 0
269544.0 424997.0 0
272724.0 423065.0 0
276126.0 424974.0 0
279239.0 422969.0 0
282686.0 424681.0 0
286006.0 426115.0 0
289521.0 424808.0 0
296106.0 425306.0 0
299539.0 423645.0 0
302591.0 425818.0 0
306032.0 424111.0 0
312434.0 424682.0 0
315947.0 424200.0 0
322461.0 425174.0 0
325815.0 423834.0 0
328857.0 425797.0 0
332234.0 424394.0 0
338707.0 425091.0 0
345202.0 425812.0 0
348718.0 424337.0 0
355333.0 425724.0 0
358690.0 424577.0 0
365219.0 425264.0 0
371886.0 425691.0 0
375075.0 424232.0 0
378388.0 426304.0 0
118303.0 428375.0 0
124810.0 427789.0 0
131270.0 427189.0 0
134281.0 428775.0 0
138176.0 426824.0 0
141643.0 428255.0 0
148128.0 426640.0 0
151698.0 427570.0 0
158201.0 426986.0 0
161723.0 428734.0 0
164672.0 426358.0 0
168096.0 427987.0 0
174540.0 427493.0 0
178064.0 428528.0 0
181103.0 426539.0 0
184723.0 427419.0 0
190998.0 426214.0 0
194401.0 427857.0 0
200835.0 427324.0 0
207190.0 426721.0 0
220404.0 426824.0 0
227068.0 426920.0 0
233665.0 426930.0 0
240215.0 426911.0 0
246741.0 426895.0 0
253259.0 426894.0 0
259786.0 426911.0 0
266335.0 426929.0 0
272932.0 426919.0 0
279596.0 426823.0 0
292809.0 426721.0 0
299165.0 427325.0 0
305599.0 427857.0 0
309002.0 426214.0 0
315277.0 427419.0 0
318897.0 426539.0 0
321936.0 428529.0 0
325460.0 427493.0 0
331904.0 427988.0 0
335328.0 426358.0 0
338277.0 428734.0 0
341799.0 426986.0 0
348302.0 427570.0 0
351871.0 426640.0 0
358357.0 428255.0 0
361824.0 426824.0 0
365719.0 428775.0 0
368730.0 427189.0 0
375190.0 427789.0 0
381697.0 428375.0 0
114992.0 430445.0 0
121520.0 429879.0 0
124738.0 431405.0 0
127994.0 429296.0 0
131127.0 430884.0 0
137196.0 430286.0 0
140105.0 431570.0 0
145169.0 429238.0 0
148642.0 429952.0 0
151992.0 430637.0 0
155202.0 429486.0 0
158617.0 430166.0 0
165115.0 429726.0 0
171365.0 429239.0 0
175267.0 431182.0 0
181902.0 430012.0 0
185356.0 430813.0 0
188165.0 428490.0 0
191431.0 430018.0 0
197750.0 429692.0 0
201269.0 430807.0 0
204939.0 429862.0 0
208862.0 429787.0 0
212545.0 429297.0 0
216872.0 428629.0 0
220144.0 430659.0 0
223629.0 428806.0 0
230299.0 428861.0 0
236891.0 428868.0 0
243455.0 428854.0 0
250000.0 428848.0 0
256546.0 428854.0 0
263109.0 428867.0 0
269702.0 428861.0 0
276371.0 428805.0 0
279856.0 430658.0 0
283128.0 428629.0 0
287456.0 429297.0 0
291139.0 429788.0 0
295062.0 429861.0 0
298732.0 430808.0 0
302250.0 429692.0 0
308569.0 430018.0 0
311835.0 428490.0 0
314644.0 430813.0 0
318098.0 430012.0 0
324733.0 431182.0 0
328635.0 429239.0 0
334884.0 429726.0 0
341383.0 430166.0 0
344798.0 429486.0 0
348008.0 430637.0 0
351358.0 429952.0 0
354831.0 429238.0 0
359895.0 431570.0 0
362804.0 430286.0 0
368873.0 430884.0 0
372006.0 429296.0 0
375262.0 431405.0 0
378480.0 429879.0 0
385008.0 430445.0 0
111676.0 432519.0 0
114930.0 434053.0 0
118227.0 431966.0 0
121465.0 433502.0 0
127945.0 432977.0 0
134255.0 432544.0 0
137452.0 434115.0 0
143213.0 432293.0 0
146554.0 432815.0 0
153856.0 433220.0 0
157249.0 433067.0 0
161067.0 432594.0 0
164580.0 432802.0 0
168254.0 431846.0 0
171875.0 432309.0 0
178866.0 431647.0 0
181629.0 433860.0 0
188750.0 432370.0 0
194566.0 431633.0 0
203385.0 433641.0 0
207162.0 433116.0 0
211110.0 432786.0 0
215056.0 432115.0 0
223534.0 432625.0 0
226910.0 430759.0 0
230146.0 432729.0 0
233533.0 430809.0 0
236792.0 432753.0 0
240139.0 430809.0 0
243407.0 432755.0 0
246717.0 430803.0 0
250001.0 432754.0 0
253284.0 430803.0 0
256594.0 432755.0 0
259862.0 430809.0 0
263209.0 432752.0 0
266467.0 430808.0 0
269855.0 432729.0 0
273091.0 430759.0 0
276467.0 432624.0 0
284945.0 432114.0 0
288891.0 432786.0 0
292839.0 433117.0 0
296615.0 433642.0 0
305434.0 431634.0 0
311250.0 432370.0 0
318371.0 433860.0 0
321134.0 431647.0 0
328125.0 432309.0 0
331746.0 431846.0 0
335420.0 432803.0 0
338932.0 432594.0 0
342750.0 433067.0 0
346144.0 433220.0 0
353446.0 432815.0 0
356787.0 432293.0 0
362548.0 434115.0 0
365745.0 432543.0 0
372055.0 432977.0 0
378535.0 433502.0 0
381773.0 431966.0 0
385070.0 434053.0 0
388324.0 432519.0 0
105021.0 436683.0 0
108352.0 434599.0 0
111624.0 436141.0 0
118192.0 435602.0 0
124696.0 435066.0 0
127927.0 436658.0 0
131178.0 434618.0 0
134515.0 436314.0 0
140839.0 435279.0 0
144404.0 435822.0 0
150059.0 433352.0 0
155571.0 436308.0 0
159276.0 435968.0 0
162890.0 435862.0 0
166686.0 435468.0 0
170223.0 435232.0 0
174089.0 434878.0 0
177659.0 434600.0 0
185355.0 434082.0 0
188270.0 436070.0 0
191888.0 434602.0 0
195683.0 434869.0 0
199342.0 434003.0 0
209384.0 436236.0 0
213220.0 435838.0 0
216883.0 435419.0 0
220276.0 434444.0 0
226740.0 434643.0 0
233416.0 434680.0 0
240071.0 434699.0 0
246694.0 434704.0 0
253307.0 434704.0 0
259931.0 434699.0 0
266585.0 434680.0 0
273260.0 434643.0 0
279725.0 434443.0 0
283118.0 435419.0 0
286781.0 435838.0 0
290616.0 436236.0 0
300658.0 434004.0 0
304317.0 434870.0 0
308112.0 434602.0 0
311730.0 436071.0 0
314644.0 434083.0 0
322341.0 434600.0 0
325910.0 434879.0 0
329777.0 435233.0 0
333314.0 435468.0 0
337110.0 435862.0 0
340724.0 435968.0 0
344429.0 436308.0 0
349941.0 433352.0 0
355596.0 435822.0 0
359161.0 435279.0 0
365485.0 436314.0 0
368822.0 434618.0 0
372073.0 436658.0 0
375304.0 435066.0 0
381808.0 435602.0 0
388376.0 436141.0 0
391648.0 434599.0 0
394979.0 436683.0 0
101678.0 438775.0 0
108313.0 438241.0 0
114910.0 437702.0 0
118196.0 439280.0 0
121451.0 437174.0 0
124707.0 438768.0 0
131171.0 438274.0 0
138097.0 437851.0 0
142140.0 438765.0 0
148058.0 436200.0 0
151860.0 436320.0 0
164933.0 438803.0 0
168652.0 438547.0 0
172406.0 438166.0 0
176176.0 437880.0 0
179971.0 437310.0 0
183654.0 437000.0 0
190138.0 438967.0 0
193803.0 438101.0 0
197847.0 437689.0 0
201652.0 437080.0 0
205549.0 436677.0 0
215571.0 438965.0 0
219517.0 438342.0 0
223315.0 436586.0 0
230017.0 436596.0 0
236709.0 436631.0 0
243365.0 436649.0 0
250001.0 436653.0 0
256637.0 436649.0 0
263293.0 436630.0 0
269984.0 436595.0 0
276686.0 436585.0 0
280483.0 438341.0 0
284430.0 438964.0 0
294452.0 436678.0 0
298348.0 437081.0 0
302153.0 437690.0 0
306196.0 438101.0 0
309861.0 438968.0 0
316346.0 437000.0 0
320028.0 437311.0 0
323824.0 437880.0 0
327594.0 438166.0 0
331347.0 438547.0 0
335067.0 438803.0 0
348139.0 436320.0 0
351942.0 436200.0 0
357860.0 438765.0 0
361903.0 437851.0 0
368829.0 438274.0 0
375293.0 438768.0 0
378549.0 437174.0 0
381804.0 439280.0 0
385090.0 437702.0 0
391687.0 438241.0 0
398322.0 438775.0 0
98323.0 440874.0 0
104990.0 440345.0 0
108327.0 441917.0 0
111625.0 439806.0 0
114945.0 441392.0 0
121474.0 440886.0 0
127971.0 440376.0 0
134355.0 439931.0 0
137398.0 441406.0 0
146015.0 439125.0 0
149857.0 439328.0 0
153665.0 439408.0 0
157463.0 439277.0 0
161171.0 439095.0 0
170744.0 441507.0 0
174555.0 441149.0 0
178419.0 440707.0 0
182242.0 440253.0 0
186277.0 439438.0 0
196138.0 441150.0 0
200041.0 440674.0 0
203891.0 440175.0 0
207781.0 439760.0 0
211668.0 439355.0 0
222860.0 440446.0 0
226582.0 438503.0 0
229923.0 440449.0 0
233325.0 438548.0 0
236643.0 440508.0 0
240014.0 438585.0 0
243329.0 440541.0 0
246675.0 438599.0 0
250001.0 440548.0 0
253328.0 438600.0 0
256674.0 440541.0 0
259989.0 438585.0 0
263360.0 440508.0 0
266676.0 438547.0 0
270079.0 440448.0 0
273419.0 438502.0 0
277140.0 440444.0 0
288332.0 439356.0 0
292220.0 439761.0 0
296109.0 440176.0 0
299959.0 440676.0 0
303862.0 441151.0 0
313723.0 439439.0 0
317758.0 440254.0 0
321580.0 440707.0 0
325445.0 441149.0 0
329255.0 441508.0 0
338829.0 439095.0 0
342537.0 439278.0 0
346335.0 439408.0 0
350143.0 439328.0 0
353985.0 439125.0 0
362602.0 441406.0 0
365645.0 439931.0 0
372028.0 440376.0 0
378526.0 440886.0 0
385055.0 441392.0 0
388375.0 439806.0 0
391673.0 441917.0 0
395010.0 440345.0 0
401677.0 440874.0 0
91590.6 445089.0 0
94959.4 442979.0 0
98311.8 444584.0 0
101655.0 442458.0 0
105011.0 444038.0 0
111676.0 443503.0 0
118265.0 443004.0 0
121579.0 444666.0 0
124730.0 442505.0 0
127943.0 444104.0 0
131257.0 442029.0 0
134614.0 443819.0 0
140701.0 441980.0 0
144243.0 442137.0 0
147967.0 442365.0 0
151756.0 442487.0 0
155578.0 442472.0 0
159372.0 442352.0 0
163161.0 442114.0 0
166937.0 441845.0 0
176762.0 444042.0 0
180662.0 443589.0 0
184597.0 442958.0 0
188458.0 442408.0 0
192346.0 441803.0 0
202239.0 443734.0 0
206114.0 443279.0 0
210016.0 442872.0 0
213943.0 442488.0 0
217946.0 441995.0 0
226487.0 442304.0 0
233257.0 442418.0 0
239967.0 442473.0 0
246657.0 442493.0 0
253346.0 442494.0 0
260036.0 442473.0 0
266745.0 442418.0 0
273515.0 442303.0 0
282055.0 441994.0 0
286057.0 442488.0 0
289984.0 442873.0 0
293886.0 443280.0 0
297761.0 443735.0 0
307653.0 441804.0 0
311541.0 442408.0 0
315403.0 442958.0 0
319338.0 443589.0 0
323238.0 444042.0 0
333062.0 441845.0 0
336839.0 442115.0 0
340627.0 442352.0 0
344422.0 442472.0 0
348244.0 442488.0 0
352033.0 442365.0 0
355757.0 442137.0 0
359299.0 441981.0 0
365386.0 443819.0 0
368742.0 442029.0 0
372057.0 444104.0 0
375270.0 442505.0 0
378421.0 444666.0 0
381735.0 443004.0 0
388324.0 443503.0 0
394989.0 444038.0 0
398345.0 442458.0 0
401688.0 444584.0 0
405041.0 442979.0 0
408409.0 445089.0 0
88216.0 447200.0 0
94963.1 446719.0 0
101685.0 446174.0 0
108386.0 445623.0 0
111776.0 447224.0 0
115037.0 445115.0 0
118414.0 446759.0 0
124856.0 446345.0 0
131070.0 445684.0 0
138437.0 444958.0 0
142296.0 445287.0 0
146049.0 445466.0 0
149837.0 445603.0 0
153662.0 445638.0 0
157499.0 445577.0 0
161335.0 445408.0 0
165159.0 445157.0 0
169004.0 444834.0 0
172871.0 444462.0 0
182893.0 446429.0 0
186782.0 445899.0 0
190666.0 445345.0 0
194528.0 444774.0 0
198363.0 444214.0 0
208287.0 446415.0 0
212160.0 446040.0 0
215994.0 445724.0 0
219745.0 445427.0 0
223226.0 444295.0 0
226492.0 446206.0 0
229859.0 444308.0 0
236592.0 444391.0 0
243297.0 444434.0 0
250002.0 444442.0 0
256707.0 444434.0 0
263411.0 444391.0 0
270144.0 444308.0 0
273511.0 446205.0 0
276776.0 444294.0 0
280256.0 445427.0 0
284006.0 445724.0 0
287840.0 446041.0 0
291712.0 446417.0 0
301636.0 444215.0 0
305471.0 444776.0 0
309333.0 445345.0 0
313217.0 445900.0 0
317107.0 446429.0 0
327129.0 444463.0 0
330996.0 444834.0 0
334840.0 445157.0 0
338665.0 445409.0 0
342501.0 445578.0 0
346338.0 445638.0 0
350163.0 445603.0 0
353950.0 445466.0 0
357704.0 445287.0 0
361563.0 444958.0 0
368930.0 445684.0 0
375144.0 446345.0 0
381586.0 446759.0 0
384963.0 445115.0 0
388224.0 447224.0 0
391614.0 445623.0 0
398315.0 446174.0 0
405037.0 446719.0 0
411784.0 447200.0 0
84836.3 449316.0 0
91608.8 448859.0 0
98359.4 448331.0 0
101779.0 449925.0 0
105082.0 447762.0 0
108492.0 449356.0 0
115184.0 448854.0 0
121786.0 448524.0 0
128079.0 447990.0 0
131137.0 449838.0 0
133886.0 447382.0 0
137056.0 448182.0 0
140495.0 448373.0 0
144157.0 448626.0 0
147905.0 448760.0 0
151720.0 448819.0 0
155573.0 448793.0 0
159445.0 448680.0 0
163317.0 448477.0 0
167193.0 448171.0 0
171111.0 447784.0 0
175035.0 447382.0 0
178958.0 446945.0 0
188950.0 448876.0 0
192829.0 448353.0 0
196687.0 447816.0 0
200543.0 447296.0 0
204414.0 446835.0 0
214312.0 449282.0 0
218219.0 448980.0 0
222516.0 448267.0 0
229865.0 448204.0 0
233213.0 446299.0 0
236536.0 448286.0 0
239923.0 446368.0 0
243266.0 448330.0 0
246641.0 446387.0 0
250003.0 448333.0 0
253364.0 446387.0 0
256739.0 448331.0 0
260081.0 446368.0 0
263468.0 448287.0 0
266790.0 446299.0 0
270139.0 448204.0 0
277485.0 448266.0 0
281781.0 448979.0 0
285688.0 449282.0 0
295586.0 446837.0 0
299456.0 447297.0 0
303312.0 447817.0 0
307170.0 448354.0 0
311049.0 448876.0 0
321041.0 446945.0 0
324965.0 447382.0 0
328888.0 447785.0 0
332807.0 448171.0 0
336682.0 448478.0 0
340554.0 448681.0 0
344426.0 448794.0 0
348279.0 448819.0 0
352095.0 448760.0 0
355842.0 448626.0 0
359505.0 448373.0 0
362944.0 448182.0 0
366114.0 447382.0 0
368862.0 449838.0 0
371921.0 447990.0 0
378214.0 448524.0 0
384816.0 448854.0 0
391508.0 449356.0 0
394918.0 447762.0 0
398221.0 449925.0 0
401641.0 448331.0 0
408391.0 448859.0 0
415164.0 449316.0 0
81451.9 451436.0 0
88252.4 451011.0 0
91694.7 452669.0 0
95029.1 450498.0 0
98472.7 452112.0 0
105215.0 451526.0 0
111915.0 450963.0 0
115324.0 452607.0 0
118610.0 450508.0 0
125109.0 450286.0 0
134630.0 451008.0 0
138353.0 451558.0 0
142074.0 451785.0 0
153592.0 452016.0 0
157494.0 451943.0 0
161403.0 451791.0 0
165322.0 451541.0 0
169300.0 451107.0 0
173254.0 450723.0 0
177198.0 450315.0 0
181136.0 449861.0 0
185052.0 449382.0 0
194973.0 451417.0 0
198837.0 450889.0 0
202696.0 450408.0 0
206561.0 449983.0 0
210432.0 449604.0 0
226527.0 449982.0 0
233138.0 450218.0 0
239884.0 450270.0 0
246622.0 450279.0 0
253384.0 450280.0 0
260121.0 450271.0 0
266867.0 450219.0 0
273477.0 449981.0 0
289567.0 449605.0 0
293438.0 449985.0 0
297303.0 450411.0 0
301162.0 450891.0 0
305027.0 451419.0 0
314947.0 449383.0 0
318863.0 449862.0 0
322802.0 450316.0 0
326745.0 450723.0 0
330699.0 451107.0 0
334677.0 451541.0 0
338596.0 451791.0 0
342506.0 451943.0 0
346408.0 452017.0 0
357926.0 451785.0 0
361647.0 451558.0 0
365370.0 451008.0 0
374891.0 450286.0 0
381390.0 450508.0 0
384676.0 452607.0 0
388085.0 450963.0 0
394785.0 451526.0 0
401527.0 452112.0 0
404971.0 450498.0 0
408305.0 452669.0 0
411748.0 451011.0 0
418548.0 451436.0 0
77784.4 453738.0 0
81396.9 455328.0 0
84893.6 453167.0 0
88356.6 454869.0 0
95171.2 454311.0 0
101933.0 453715.0 0
108672.0 453124.0 0
112148.0 454745.0 0
118694.0 454175.0 0
122034.0 452457.0 0
128295.0 452266.0 0
131950.0 453628.0 0
135859.0 454421.0 0
145867.0 451950.0 0
149710.0 452018.0 0
167515.0 454427.0 0
171459.0 454067.0 0
175403.0 453690.0 0
179345.0 453281.0 0
183273.0 452847.0 0
187188.0 452388.0 0
191086.0 451911.0 0
200854.0 454076.0 0
204709.0 453629.0 0
208572.0 453235.0 0
212425.0 452903.0 0
216248.0 452644.0 0
220011.0 452410.0 0
223691.0 452218.0 0
229705.0 452176.0 0
236500.0 452173.0 0
243225.0 452233.0 0
250004.0 452219.0 0
256781.0 452234.0 0
263505.0 452175.0 0
270300.0 452178.0 0
276307.0 452225.0 0
279987.0 452408.0 0
283749.0 452645.0 0
287572.0 452905.0 0
291425.0 453237.0 0
295287.0 453631.0 0
299143.0 454077.0 0
308913.0 451912.0 0
312812.0 452388.0 0
316726.0 452847.0 0
320655.0 453282.0 0
324596.0 453691.0 0
328540.0 454067.0 0
332484.0 454427.0 0
350289.0 452018.0 0
354133.0 451950.0 0
364141.0 454421.0 0
368050.0 453628.0 0
371705.0 452266.0 0
377966.0 452457.0 0
381306.0 454175.0 0
387852.0 454745.0 0
391328.0 453124.0 0
398067.0 453715.0 0
404829.0 454311.0 0
411643.0 454869.0 0
415106.0 453167.0 0
418603.0 455328.0 0
422216.0 453738.0 0
84928.9 457061.0 0
91860.7 456498.0 0
98656.6 455938.0 0
102161.0 457540.0 0
105411.0 455318.0 0
108899.0 456912.0 0
115649.0 456465.0 0
120252.0 457365.0 0
125256.0 454637.0 0
128999.0 456049.0 0
139797.0 454905.0 0
143691.0 455118.0 0
147605.0 455218.0 0
151538.0 455238.0 0
155476.0 455202.0 0
159409.0 455104.0 0
163337.0 454920.0 0
173585.0 457073.0 0
177526.0 456699.0 0
181460.0 456302.0 0
185380.0 455885.0 0
189282.0 455453.0 0
193158.0 455018.0 0
197015.0 454585.0 0
206824.0 456814.0 0
210689.0 456468.0 0
214550.0 456196.0 0
218407.0 455977.0 0
222268.0 455798.0 0
226141.0 455268.0 0
229906.0 456093.0 0
233125.0 454101.0 0
236407.0 456069.0 0
239825.0 454197.0 0
243165.0 456137.0 0
246595.0 454164.0 0
250006.0 456089.0 0
253414.0 454166.0 0
256843.0 456139.0 0
260182.0 454198.0 0
263601.0 456074.0 0
266880.0 454101.0 0
270095.0 456096.0 0
273858.0 455275.0 0
277729.0 455805.0 0
281588.0 455979.0 0
285445.0 456199.0 0
289306.0 456470.0 0
293171.0 456816.0 0
302983.0 454585.0 0
306840.0 455018.0 0
310717.0 455454.0 0
314618.0 455886.0 0
318539.0 456303.0 0
322473.0 456699.0 0
326414.0 457074.0 0
336663.0 454921.0 0
340591.0 455104.0 0
344523.0 455202.0 0
348462.0 455238.0 0
352395.0 455218.0 0
356308.0 455118.0 0
360203.0 454905.0 0
371001.0 456049.0 0
374744.0 454636.0 0
379748.0 457365.0 0
384351.0 456465.0 0
391101.0 456912.0 0
394589.0 455318.0 0
397839.0 457540.0 0
401343.0 455938.0 0
408139.0 456498.0 0
415071.0 457061.0 0
81326.2 459279.0 0
88472.6 458766.0 0
95381.2 458166.0 0
98905.8 459803.0 0
105690.0 459148.0 0
112399.0 458510.0 0
117369.0 459883.0 0
123848.0 458255.0 0
127407.0 459431.0 0
133304.0 457189.0 0
137330.0 457788.0 0
141434.0 458249.0 0
145426.0 458400.0 0
149424.0 458446.0 0
153407.0 458448.0 0
157362.0 458414.0 0
161295.0 458304.0 0
165695.0 457718.0 0
169642.0 457423.0 0
179627.0 459753.0 0
183556.0 459373.0 0
187469.0 458979.0 0
191363.0 458576.0 0
195244.0 458164.0 0
199116.0 457748.0 0
202964.0 457224.0 0
216687.0 459512.0 0
220574.0 459319.0 0
224494.0 459063.0 0
232299.0 459228.0 0
239724.0 458159.0 0
246576.0 458029.0 0
253436.0 458034.0 0
260283.0 458159.0 0
267695.0 459225.0 0
275498.0 459066.0 0
279419.0 459324.0 0
283305.0 459515.0 0
297032.0 457226.0 0
300881.0 457748.0 0
304753.0 458164.0 0
308635.0 458576.0 0
312529.0 458980.0 0
316443.0 459373.0 0
320372.0 459754.0 0
330357.0 457424.0 0
334305.0 457718.0 0
338704.0 458305.0 0
342637.0 458414.0 0
346592.0 458448.0 0
350576.0 458446.0 0
354574.0 458400.0 0
358566.0 458250.0 0
362670.0 457788.0 0
366696.0 457189.0 0
372593.0 459431.0 0
376152.0 458255.0 0
382631.0 459883.0 0
387601.0 458510.0 0
394310.0 459148.0 0
401094.0 459803.0 0
404619.0 458166.0 0
411527.0 458766.0 0
418674.0 459279.0 0
84941.8 461005.0 0
88567.1 462712.0 0
92068.0 460343.0 0
95629.5 462066.0 0
102471.0 461391.0 0
106071.0 463010.0 0
109236.0 460739.0 0
114124.0 461809.0 0
121048.0 461091.0 0
124725.0 462103.0 0
131067.0 460197.0 0
134910.0 460711.0 0
138885.0 461155.0 0
143191.0 461552.0 0
147288.0 461636.0 0
151319.0 461672.0 0
155286.0 461710.0 0
159223.0 461685.0 0
163836.0 461000.0 0
167781.0 460777.0 0
171738.0 460461.0 0
175687.0 460117.0 0
189553.0 462120.0 0
193455.0 461731.0 0
197347.0 461331.0 0
201229.0 460941.0 0
205073.0 460397.0 0
208940.0 460026.0 0
212810.0 459735.0 0
228361.0 459586.0 0
236161.0 459874.0 0
243140.0 460014.0 0
246558.0 461877.0 0
250008.0 459943.0 0
253460.0 461888.0 0
256874.0 460020.0 0
263837.0 459883.0 0
271631.0 459594.0 0
287183.0 459738.0 0
291054.0 460028.0 0
294922.0 460399.0 0
298767.0 460941.0 0
302649.0 461331.0 0
306542.0 461731.0 0
310444.0 462120.0 0
324312.0 460117.0 0
328261.0 460461.0 0
332218.0 460777.0 0
336163.0 461000.0 0
340776.0 461686.0 0
344714.0 461710.0 0
348681.0 461672.0 0
352712.0 461636.0 0
356809.0 461552.0 0
361115.0 461155.0 0
365090.0 460711.0 0
368933.0 460197.0 0
375275.0 462103.0 0
378952.0 461091.0 0
385876.0 461808.0 0
390764.0 460739.0 0
393929.0 463010.0 0
397529.0 461391.0 0
404371.0 462066.0 0
407932.0 460343.0 0
411433.0 462712.0 0
415058.0 461005.0 0
92266.4 464206.0 0
99226.6 463688.0 0
102862.0 465239.0 0
111008.0 464097.0 0
118135.0 463725.0 0
121897.0 464890.0 0
128564.0 463176.0 0
132488.0 463792.0 0
136463.0 464159.0 0
140643.0 464464.0 0
145079.0 464794.0 0
149200.0 464866.0 0
153174.0 464979.0 0
157120.0 465053.0 0
161940.0 464281.0 0
165885.0 464141.0 0
169863.0 463845.0 0
173827.0 463534.0 0
177777.0 463201.0 0
181715.0 462852.0 0
185641.0 462492.0 0
199469.0 464524.0 0
203353.0 464171.0 0
207182.0 463589.0 0
211035.0 463275.0 0
214906.0 463040.0 0
218805.0 462853.0 0
222731.0 462646.0 0
226634.0 463043.0 0
230597.0 462830.0 0
234521.0 463385.0 0
238625.0 462865.0 0
242470.0 463823.0 0
250011.0 463778.0 0
257500.0 463842.0 0
261338.0 462850.0 0
265458.0 463403.0 0
269384.0 462833.0 0
273348.0 463056.0 0
277255.0 462652.0 0
281185.0 462859.0 0
285085.0 463044.0 0
288957.0 463278.0 0
292812.0 463591.0 0
296642.0 464170.0 0
300526.0 464524.0 0
314357.0 462492.0 0
318284.0 462852.0 0
322222.0 463201.0 0
326172.0 463534.0 0
330135.0 463845.0 0
334114.0 464142.0 0
338059.0 464281.0 0
342880.0 465053.0 0
346826.0 464979.0 0
350800.0 464866.0 0
354921.0 464794.0 0
359357.0 464464.0 0
363537.0 464159.0 0
367512.0 463792.0 0
371436.0 463176.0 0
378103.0 464890.0 0
381865.0 463725.0 0
388992.0 464097.0 0
397138.0 465239.0 0
400773.0 463688.0 0
407734.0 464206.0 0
95988.3 466006.0 0
99720.9 467586.0 0
107880.0 466455.0 0
111608.0 467893.0 0
114693.0 465530.0 0
119032.0 467580.0 0
125677.0 465784.0 0
130007.0 466844.0 0
163932.0 467523.0 0
167994.0 467227.0 0
171963.0 466948.0 0
175919.0 466647.0 0
179862.0 466326.0 0
183795.0 465992.0 0
187723.0 465652.0 0
191650.0 465287.0 0
195568.0 464906.0 0
208961.0 466993.0 0
212830.0 466698.0 0
216709.0 466500.0 0
220567.0 466374.0 0
224410.0 466274.0 0
228271.0 466627.0 0
232102.0 466485.0 0
235891.0 467084.0 0
239659.0 466628.0 0
246612.0 465692.0 0
253408.0 465714.0 0
260337.0 466622.0 0
264100.0 467109.0 0
267886.0 466491.0 0
271715.0 466643.0 0
275577.0 466281.0 0
279420.0 466381.0 0
283279.0 466504.0 0
287160.0 466701.0 0
291031.0 466995.0 0
304428.0 464907.0 0
308347.0 465288.0 0
312275.0 465652.0 0
316203.0 465992.0 0
320136.0 466326.0 0
324080.0 466647.0 0
328035.0 466949.0 0
332005.0 467227.0 0
336067.0 467523.0 0
369993.0 466844.0 0
374323.0 465784.0 0
380968.0 467580.0 0
385307.0 465530.0 0
388392.0 467893.0 0
392120.0 466455.0 0
400279.0 467586.0 0
404012.0 466006.0 0
92575.8 468093.0 0
96573.3 469952.0 0
104619.0 468696.0 0
108574.0 470317.0 0
115459.0 469266.0 0
122938.0 468693.0 0
126929.0 469300.0 0
134186.0 467270.0 0
138272.0 467518.0 0
142556.0 467731.0 0
147010.0 468020.0 0
150996.0 468204.0 0
154950.0 468381.0 0
159992.0 467556.0 0
174066.0 470095.0 0
178010.0 469803.0 0
181939.0 469495.0 0
185851.0 469179.0 0
189737.0 468877.0 0
193598.0 468573.0 0
197445.0 468259.0 0
201290.0 467932.0 0
205146.0 467635.0 0
243303.0 467624.0 0
246597.0 469591.0 0
250011.0 467658.0 0
253415.0 469639.0 0
256704.0 467655.0 0
294847.0 467634.0 0
298705.0 467932.0 0
302551.0 468259.0 0
306398.0 468574.0 0
310260.0 468877.0 0
314147.0 469179.0 0
318058.0 469495.0 0
321988.0 469803.0 0
325933.0 470095.0 0
340008.0 467557.0 0
345050.0 468382.0 0
349004.0 468204.0 0
352990.0 468020.0 0
357444.0 467731.0 0
361728.0 467518.0 0
365814.0 467270.0 0
373071.0 469300.0 0
377062.0 468693.0 0
384541.0 469266.0 0
391426.0 470317.0 0
395381.0 468696.0 0
403427.0 469952.0 0
407424.0 468093.0 0
93162.8 471993.0 0
101461.0 471119.0 0
105373.0 472536.0 0
112311.0 471717.0 0
119970.0 471437.0 0
131842.0 470347.0 0
136040.0 470679.0 0
140218.0 470830.0 0
144538.0 470997.0 0
148736.0 471370.0 0
152695.0 471646.0 0
157946.0 470789.0 0
161904.0 470912.0 0
166128.0 470600.0 0
170104.0 470364.0 0
187922.0 472417.0 0
191802.0 472127.0 0
195669.0 471831.0 0
199525.0 471523.0 0
203374.0 471211.0 0
207228.0 470963.0 0
211020.0 470258.0 0
214859.0 470015.0 0
218720.0 469901.0 0
222590.0 469792.0 0
226472.0 470125.0 0
230371.0 470026.0 0
234266.0 470645.0 0
238213.0 470323.0 0
242081.0 471269.0 0
249995.0 471536.0 0
257885.0 471308.0 0
261750.0 470334.0 0
265699.0 470678.0 0
269600.0 470039.0 0
273504.0 470143.0 0
277392.0 469800.0 0
281266.0 469907.0 0
285129.0 470019.0 0
288970.0 470260.0 0
292764.0 470962.0 0
296620.0 471210.0 0
300470.0 471524.0 0
304327.0 471831.0 0
308195.0 472127.0 0
312075.0 472417.0 0
329894.0 470364.0 0
333871.0 470600.0 0
338095.0 470913.0 0
342053.0 470789.0 0
347305.0 471646.0 0
351264.0 471370.0 0
355462.0 470997.0 0
359782.0 470830.0 0
363960.0 470679.0 0
368158.0 470347.0 0
380030.0 471437.0 0
387689.0 471717.0 0
394627.0 472536.0 0
398539.0 471119.0 0
406837.0 471993.0 0
94912.8 475556.0 0
98518.0 473865.0 0
109271.0 474215.0 0
115994.0 473067.0 0
124502.0 472358.0 0
128706.0 472648.0 0
133742.0 473807.0 0
138000.0 474032.0 0
142224.0 474129.0 0
146307.0 474411.0 0
150348.0 474820.0 0
155766.0 473969.0 0
159726.0 474232.0 0
164256.0 473969.0 0
168248.0 473776.0 0
172223.0 473541.0 0
176178.0 473282.0 0
180112.0 473002.0 0
184027.0 472709.0 0
201606.0 474820.0 0
205440.0 474529.0 0
209273.0 474337.0 0
212998.0 473613.0 0
216790.0 473397.0 0
220520.0 473423.0 0
224272.0 473385.0 0
228011.0 473805.0 0
231808.0 473719.0 0
235561.0 474396.0 0
239396.0 474114.0 0
243166.0 475044.0 0
246607.0 473421.0 0
253339.0 473507.0 0
256809.0 475086.0 0
260580.0 474137.0 0
264411.0 474435.0 0
268167.0 473737.0 0
271968.0 473826.0 0
275710.0 473395.0 0
279465.0 473429.0 0
283198.0 473402.0 0
286993.0 473616.0 0
290721.0 474337.0 0
294554.0 474529.0 0
298389.0 474820.0 0
315970.0 472709.0 0
319886.0 473002.0 0
323821.0 473282.0 0
327776.0 473541.0 0
331751.0 473776.0 0
335743.0 473969.0 0
340274.0 474232.0 0
344234.0 473969.0 0
349652.0 474820.0 0
353693.0 474411.0 0
357776.0 474130.0 0
362000.0 474032.0 0
366258.0 473807.0 0
371294.0 472648.0 0
375498.0 472358.0 0
384006.0 473067.0 0
390729.0 474215.0 0
401482.0 473865.0 0
405087.0 475556.0 0
102308.0 474978.0 0
106008.0 476428.0 0
112990.0 475644.0 0
118699.0 475763.0 0
122601.0 475779.0 0
126549.0 475879.0 0
130539.0 476035.0 0
135724.0 477212.0 0
140004.0 477360.0 0
143998.0 477572.0 0
147976.0 477903.0 0
153443.0 477105.0 0
157418.0 477469.0 0
162178.0 477236.0 0
166409.0 477188.0 0
170397.0 476981.0 0
174366.0 476756.0 0
178314.0 476507.0 0
182239.0 476239.0 0
186144.0 475961.0 0
190032.0 475682.0 0
193906.0 475398.0 0
197766.0 475110.0 0
215091.0 476936.0 0
222428.0 476876.0 0
229974.0 477230.0 0
246423.0 477324.0 0
249946.0 475459.0 0
253600.0 477438.0 0
269993.0 477251.0 0
277554.0 476884.0 0
284900.0 476941.0 0
302230.0 475110.0 0
306091.0 475398.0 0
309965.0 475682.0 0
313853.0 475961.0 0
317759.0 476239.0 0
321685.0 476507.0 0
325633.0 476756.0 0
329601.0 476981.0 0
333590.0 477188.0 0
337821.0 477236.0 0
342582.0 477470.0 0
346557.0 477105.0 0
352024.0 477904.0 0
356002.0 477573.0 0
359996.0 477360.0 0
364275.0 477212.0 0
369461.0 476035.0 0
373451.0 475879.0 0
377399.0 475779.0 0
381301.0 475763.0 0
387010.0 475644.0 0
393992.0 476428.0 0
397692.0 474978.0 0
98513.5 477883.0 0
102405.0 478882.0 0
106691.0 480296.0 0
110310.0 478585.0 0
115800.0 478482.0 0
120560.0 479189.0 0
124517.0 479250.0 0
128484.0 479348.0 0
132478.0 479425.0 0
168596.0 480415.0 0
172578.0 480222.0 0
176543.0 480006.0 0
180487.0 479766.0 0
184406.0 479508.0 0
188304.0 479242.0 0
192184.0 478970.0 0
196047.0 478692.0 0
199894.0 478423.0 0
203722.0 478130.0 0
207531.0 477876.0 0
211356.0 477809.0 0
218757.0 478075.0 0
226149.0 477950.0 0
233800.0 477976.0 0
237705.0 477694.0 0
241534.0 478522.0 0
250006.0 479305.0 0
258404.0 478588.0 0
262242.0 477734.0 0
266161.0 478013.0 0
273826.0 477953.0 0
281230.0 478074.0 0
288637.0 477808.0 0
292464.0 477877.0 0
296274.0 478130.0 0
300103.0 478423.0 0
303950.0 478691.0 0
307814.0 478970.0 0
311694.0 479242.0 0
315592.0 479509.0 0
319512.0 479767.0 0
323455.0 480006.0 0
327420.0 480222.0 0
331403.0 480415.0 0
367522.0 479425.0 0
371516.0 479348.0 0
375483.0 479250.0 0
379440.0 479189.0 0
384200.0 478482.0 0
389690.0 478585.0 0
393309.0 480296.0 0
397595.0 478882.0 0
401486.0 477883.0 0
99616.1 481724.0 0
103502.0 482666.0 0
109933.0 482555.0 0
113858.0 481960.0 0
117834.0 482044.0 0
122471.0 482634.0 0
126449.0 482716.0 0
137743.0 480596.0 0
141778.0 480814.0 0
145734.0 481058.0 0
151062.0 480289.0 0
155017.0 480610.0 0
159943.0 480427.0 0
164341.0 480470.0 0
191687.0 482871.0 0
195715.0 482613.0 0
199732.0 482373.0 0
203716.0 482080.0 0
207708.0 481812.0 0
211686.0 481767.0 0
215564.0 480878.0 0
219393.0 481940.0 0
223216.0 480786.0 0
227077.0 481796.0 0
231007.0 481059.0 0
234922.0 481784.0 0
238872.0 481458.0 0
242748.0 482206.0 0
246532.0 481221.0 0
253385.0 481370.0 0
257179.0 482286.0 0
261067.0 481509.0 0
265022.0 481815.0 0
268938.0 481076.0 0
272906.0 481803.0 0
276767.0 480793.0 0
280592.0 481940.0 0
284422.0 480883.0 0
288302.0 481765.0 0
292281.0 481812.0 0
296273.0 482080.0 0
300257.0 482374.0 0
304278.0 482613.0 0
308308.0 482871.0 0
335659.0 480470.0 0
340056.0 480427.0 0
344983.0 480611.0 0
348938.0 480289.0 0
354266.0 481058.0 0
358222.0 480814.0 0
362257.0 480596.0 0
373551.0 482715.0 0
377529.0 482634.0 0
382166.0 482044.0 0
386142.0 481960.0 0
390067.0 482555.0 0
396497.0 482666.0 0
400384.0 481724.0 0
130438.0 482787.0 0
134464.0 482834.0 0
139609.0 484077.0 0
143580.0 484295.0 0
148473.0 483808.0 0
152402.0 483975.0 0
156315.0 484200.0 0
160182.0 484270.0 0
164047.0 484289.0 0
167928.0 484189.0 0
171842.0 484007.0 0
175780.0 483806.0 0
179736.0 483589.0 0
183700.0 483358.0 0
187679.0 483116.0 0
205953.0 485365.0 0
214008.0 485004.0 0
221878.0 484988.0 0
229665.0 484807.0 0
237475.0 485143.0 0
245499.0 485038.0 0
249912.0 483199.0 0
254469.0 485206.0 0
262513.0 485177.0 0
270318.0 484812.0 0
278104.0 484988.0 0
285974.0 484997.0 0
294036.0 485365.0 0
312318.0 483116.0 0
316297.0 483359.0 0
320261.0 483590.0 0
324218.0 483806.0 0
328156.0 484007.0 0
332070.0 484189.0 0
335952.0 484288.0 0
339816.0 484270.0 0
343684.0 484200.0 0
347597.0 483975.0 0
351526.0 483808.0 0
356420.0 484295.0 0
360391.0 484077.0 0
365536.0 482834.0 0
369562.0 482787.0 0
99750.0 485710.0 0
103976.0 486583.0 0
107928.0 486001.0 0
112337.0 485715.0 0
116318.0 485715.0 0
120298.0 485925.0 0
124402.0 486103.0 0
128393.0 486171.0 0
132386.0 486226.0 0
136365.0 486318.0 0
141463.0 487565.0 0
146285.0 487141.0 0
150239.0 487326.0 0
154178.0 487499.0 0
158136.0 487638.0 0
162086.0 487686.0 0
166051.0 487638.0 0
170017.0 487490.0 0
173980.0 487304.0 0
177944.0 487103.0 0
181915.0 486893.0 0
185892.0 486660.0 0
189885.0 486413.0 0
193917.0 486159.0 0
197920.0 485917.0 0
201973.0 485669.0 0
209994.0 485381.0 0
217948.0 485636.0 0
225785.0 485574.0 0
233549.0 485511.0 0
241385.0 485861.0 0
250055.0 487024.0 0
258608.0 485908.0 0
266438.0 485528.0 0
274198.0 485584.0 0
282035.0 485639.0 0
289994.0 485380.0 0
298016.0 485669.0 0
302071.0 485917.0 0
306077.0 486159.0 0
310111.0 486413.0 0
314106.0 486661.0 0
318082.0 486894.0 0
322053.0 487103.0 0
326018.0 487304.0 0
329982.0 487490.0 0
333947.0 487638.0 0
337913.0 487686.0 0
341863.0 487638.0 0
345821.0 487499.0 0
349761.0 487326.0 0
353714.0 487140.0 0
358537.0 487565.0 0
363635.0 486318.0 0
367614.0 486227.0 0
371607.0 486171.0 0
375598.0 486103.0 0
379702.0 485925.0 0
383682.0 485715.0 0
387663.0 485715.0 0
392072.0 486001.0 0
396024.0 486583.0 0
400250.0 485710.0 0
101195.0 489430.0 0
106416.0 489717.0 0
110355.0 489178.0 0
114333.0 489173.0 0
118305.0 489353.0 0
122289.0 489452.0 0
126348.0 489580.0 0
130334.0 489633.0 0
134303.0 489710.0 0
138262.0 489818.0 0
144111.0 490475.0 0
180076.0 490419.0 0
184045.0 490221.0 0
187999.0 490011.0 0
191949.0 489804.0 0
195894.0 489605.0 0
199832.0 489400.0 0
203753.0 489240.0 0
207673.0 488939.0 0
211571.0 489333.0 0
215456.0 488728.0 0
219351.0 489375.0 0
223251.0 488712.0 0
227147.0 489325.0 0
231008.0 488563.0 0
234896.0 489267.0 0
238823.0 488876.0 0
242715.0 489582.0 0
246562.0 488818.0 0
253404.0 489049.0 0
257281.0 489625.0 0
261173.0 488915.0 0
265102.0 489290.0 0
268989.0 488573.0 0
272852.0 489343.0 0
276749.0 488719.0 0
280649.0 489383.0 0
284540.0 488724.0 0
288425.0 489327.0 0
292325.0 488945.0 0
296246.0 489241.0 0
300168.0 489405.0 0
304106.0 489607.0 0
308051.0 489806.0 0
312000.0 490012.0 0
315954.0 490223.0 0
319923.0 490420.0 0
355888.0 490474.0 0
361738.0 489818.0 0
365697.0 489711.0 0
369666.0 489633.0 0
373652.0 489580.0 0
377711.0 489452.0 0
381695.0 489353.0 0
385667.0 489173.0 0
389645.0 489178.0 0
393584.0 489717.0 0
398805.0 489429.0 0
112948.0 492919.0 0
148076.0 490676.0 0
152047.0 490840.0 0
156025.0 490972.0 0
160021.0 491061.0 0
164063.0 491050.0 0
168119.0 490952.0 0
172114.0 490792.0 0
176099.0 490613.0 0
198050.0 492959.0 0
205984.0 492547.0 0
213898.0 492558.0 0
221784.0 492529.0 0
229673.0 492543.0 0
237575.0 492641.0 0
245759.0 492680.0 0
249899.0 490938.0 0
254532.0 492863.0 0
262479.0 492656.0 0
270367.0 492555.0 0
278242.0 492552.0 0
286123.0 492573.0 0
294029.0 492556.0 0
301955.0 492963.0 0
323899.0 490613.0 0
327885.0 490792.0 0
331880.0 490951.0 0
335935.0 491050.0 0
339978.0 491061.0 0
343974.0 490972.0 0
347952.0 490840.0 0
351923.0 490676.0 0
387052.0 492919.0 0
100563.0 493362.0 0
104622.0 493279.0 0
108959.0 492930.0 0
116925.0 493093.0 0
120899.0 493184.0 0
124871.0 493274.0 0
128846.0 493314.0 0
132827.0 493400.0 0
136811.0 493496.0 0
141225.0 493226.0 0
145865.0 494030.0 0
149897.0 494197.0 0
153892.0 494330.0 0
157897.0 494423.0 0
161996.0 494437.0 0
166118.0 494374.0 0
170204.0 494263.0 0
174216.0 494111.0 0
178211.0 493939.0 0
182194.0 493762.0 0
186168.0 493571.0 0
190130.0 493361.0 0
194089.0 493165.0 0
202028.0 492969.0 0
209939.0 493005.0 0
217840.0 493072.0 0
225723.0 493043.0 0
233618.0 493043.0 0
241498.0 493335.0 0
250631.0 494762.0 0
258561.0 493357.0 0
266429.0 493053.0 0
274308.0 493052.0 0
282182.0 493077.0 0
290078.0 493013.0 0
297983.0 492969.0 0
305914.0 493167.0 0
309871.0 493363.0 0
313832.0 493573.0 0
317805.0 493763.0 0
321789.0 493940.0 0
325783.0 494111.0 0
329795.0 494263.0 0
333880.0 494375.0 0
338003.0 494437.0 0
342102.0 494422.0 0
346107.0 494329.0 0
350102.0 494197.0 0
354135.0 494030.0 0
358775.0 493226.0 0
363189.0 493496.0 0
367173.0 493400.0 0
371154.0 493314.0 0
375129.0 493274.0 0
379101.0 493184.0 0
383075.0 493093.0 0
391041.0 492930.0 0
395378.0 493279.0 0
399437.0 493362.0 0
102243.0 496980.0 0
106239.0 496934.0 0
110233.0 496805.0 0
114231.0 496786.0 0
118236.0 496867.0 0
122242.0 496947.0 0
126291.0 497003.0 0
130309.0 497022.0 0
134440.0 497049.0 0
138447.0 497119.0 0
142439.0 497044.0 0
147501.0 497660.0 0
151643.0 497760.0 0
155640.0 497869.0 0
159630.0 497948.0 0
163611.0 498001.0 0
167582.0 497995.0 0
171541.0 497936.0 0
175495.0 497824.0 0
179445.0 497688.0 0
183392.0 497543.0 0
187319.0 497381.0 0
191239.0 497183.0 0
195154.0 497005.0 0
199068.0 496806.0 0
202980.0 497030.0 0
206857.0 496437.0 0
210748.0 496968.0 0
214648.0 496472.0 0
218548.0 497003.0 0
222449.0 496463.0 0
226360.0 496978.0 0
230276.0 496495.0 0
234197.0 496988.0 0
238129.0 496584.0 0
242027.0 497254.0 0
245932.0 496626.0 0
253998.0 496815.0 0
257923.0 497263.0 0
261822.0 496581.0 0
265757.0 496987.0 0
269680.0 496495.0 0
273599.0 496977.0 0
277514.0 496474.0 0
281420.0 497001.0 0
285324.0 496478.0 0
289227.0 496975.0 0
293121.0 496440.0 0
297002.0 497031.0 0
300916.0 496806.0 0
304833.0 497004.0 0
308750.0 497182.0 0
312672.0 497381.0 0
316601.0 497543.0 0
320549.0 497687.0 0
324500.0 497823.0 0
328455.0 497935.0 0
332415.0 497995.0 0
336387.0 498001.0 0
340369.0 497948.0 0
344360.0 497869.0 0
348356.0 497760.0 0
352499.0 497660.0 0
357561.0 497044.0 0
361553.0 497119.0 0
365560.0 497049.0 0
369691.0 497022.0 0
373709.0 497003.0 0
377758.0 496947.0 0
381764.0 496867.0 0
385769.0 496786.0 0
389767.0 496805.0 0
393761.0 496934.0 0
397757.0 496980.0 0
197929.0 500635.0 0
205948.0 500630.0 0
213938.0 500632.0 0
221964.0 500632.0 0
229986.0 500630.0 0
237998.0 500619.0 0
246016.0 500606.0 0
249410.0 498505.0 0
254429.0 500761.0 0
262292.0 500546.0 0
270211.0 500607.0 0
278156.0 500626.0 0
286114.0 500633.0 0
294088.0 500633.0 0
302068.0 500633.0 0
101630.0 500923.0 0
105628.0 500885.0 0
109624.0 500791.0 0
113616.0 500783.0 0
117606.0 500814.0 0
121593.0 500890.0 0
125579.0 500932.0 0
129566.0 500942.0 0
133553.0 500943.0 0
137540.0 500998.0 0
141533.0 500981.0 0
145521.0 501128.0 0
149517.0 501141.0 0
153533.0 501259.0 0
157542.0 501346.0 0
161543.0 501405.0 0
165564.0 501423.0 0
169571.0 501393.0 0
173567.0 501310.0 0
177556.0 501196.0 0
181538.0 501059.0 0
185520.0 500942.0 0
189585.0 500814.0 0
193927.0 500805.0 0
201922.0 500877.0 0
209939.0 500871.0 0
217925.0 500934.0 0
225952.0 500934.0 0
233972.0 500959.0 0
242035.0 501200.0 0
250737.0 502212.0 0
258377.0 501192.0 0
266248.0 500941.0 0
274182.0 500918.0 0
282134.0 500922.0 0
290101.0 500866.0 0
298078.0 500874.0 0
306067.0 500802.0 0
310408.0 500812.0 0
314475.0 500940.0 0
318457.0 501058.0 0
322439.0 501194.0 0
326428.0 501309.0 0
330425.0 501392.0 0
334434.0 501423.0 0
338455.0 501404.0 0
342457.0 501346.0 0
346466.0 501259.0 0
350483.0 501141.0 0
354478.0 501128.0 0
358467.0 500981.0 0
362460.0 500998.0 0
366447.0 500943.0 0
370434.0 500942.0 0
374421.0 500932.0 0
378407.0 500890.0 0
382394.0 500814.0 0
386384.0 500783.0 0
390376.0 500791.0 0
394372.0 500885.0 0
398370.0 500923.0 0
102030.0 504893.0 0
106030.0 504861.0 0
110028.0 504774.0 0
114027.0 504771.0 0
118028.0 504789.0 0
122027.0 504863.0 0
126039.0 504898.0 0
130045.0 504906.0 0
134069.0 504903.0 0
138069.0 504949.0 0
142068.0 504951.0 0
146207.0 505062.0 0
150284.0 505061.0 0
154432.0 505133.0 0
158564.0 505180.0 0
162562.0 505225.0 0
166555.0 505238.0 0
170535.0 505213.0 0
174502.0 505140.0 0
178458.0 505046.0 0
182406.0 504922.0 0
186351.0 504850.0 0
190301.0 504742.0 0
194258.0 504787.0 0
198218.0 504620.0 0
202178.0 504860.0 0
206142.0 504624.0 0
210110.0 504856.0 0
214080.0 504628.0 0
218048.0 504915.0 0
222016.0 504630.0 0
225985.0 504915.0 0
229953.0 504629.0 0
233918.0 504938.0 0
237880.0 504615.0 0
241818.0 505146.0 0
245752.0 504582.0 0
249481.0 505946.0 0
253899.0 504712.0 0
257875.0 505115.0 0
261976.0 504635.0 0
265964.0 504914.0 0
269952.0 504640.0 0
273939.0 504894.0 0
277924.0 504635.0 0
281906.0 504901.0 0
285885.0 504629.0 0
289864.0 504849.0 0
293839.0 504624.0 0
297808.0 504857.0 0
301773.0 504619.0 0
305735.0 504785.0 0
309695.0 504741.0 0
313647.0 504849.0 0
317593.0 504922.0 0
321542.0 505046.0 0
325498.0 505140.0 0
329465.0 505214.0 0
333446.0 505238.0 0
337438.0 505225.0 0
341437.0 505180.0 0
345568.0 505133.0 0
349716.0 505061.0 0
353793.0 505062.0 0
357932.0 504951.0 0
361931.0 504949.0 0
365931.0 504903.0 0
369955.0 504906.0 0
373961.0 504898.0 0
377973.0 504863.0 0
381972.0 504789.0 0
385973.0 504771.0 0
389972.0 504774.0 0
393970.0 504861.0 0
397970.0 504893.0 0
101971.0 508882.0 0
105970.0 508856.0 0
109968.0 508773.0 0
113966.0 508770.0 0
117963.0 508785.0 0
121958.0 508859.0 0
125953.0 508890.0 0
129946.0 508898.0 0
133938.0 508894.0 0
137928.0 508934.0 0
141917.0 508948.0 0
145902.0 509043.0 0
149885.0 509033.0 0
153865.0 509073.0 0
157845.0 509088.0 0
161826.0 509117.0 0
165810.0 509119.0 0
169800.0 509095.0 0
173795.0 509029.0 0
177829.0 508959.0 0
181891.0 508855.0 0
185957.0 508825.0 0
189968.0 508722.0 0
193993.0 508773.0 0
197995.0 508644.0 0
201990.0 508845.0 0
205998.0 508644.0 0
209993.0 508842.0 0
214000.0 508644.0 0
217992.0 508896.0 0
222000.0 508644.0 0
225999.0 508895.0 0
230000.0 508644.0 0
234008.0 508915.0 0
238000.0 508643.0 0
242041.0 509092.0 0
246012.0 508631.0 0
250338.0 509790.0 0
254165.0 508690.0 0
258131.0 509067.0 0
262092.0 508633.0 0
266072.0 508896.0 0
270054.0 508639.0 0
274039.0 508878.0 0
278026.0 508643.0 0
282014.0 508885.0 0
286004.0 508644.0 0
290007.0 508836.0 0
294002.0 508644.0 0
298010.0 508842.0 0
302005.0 508644.0 0
306007.0 508771.0 0
310031.0 508721.0 0
314043.0 508824.0 0
318109.0 508855.0 0
322171.0 508959.0 0
326205.0 509029.0 0
330200.0 509096.0 0
334190.0 509119.0 0
338174.0 509117.0 0
342155.0 509088.0 0
346135.0 509073.0 0
350115.0 509033.0 0
354098.0 509043.0 0
358083.0 508948.0 0
362072.0 508934.0 0
366062.0 508894.0 0
370054.0 508898.0 0
374047.0 508890.0 0
378042.0 508859.0 0
382037.0 508785.0 0
386034.0 508770.0 0
390032.0 508773.0 0
394030.0 508856.0 0
398029.0 508882.0 0
102002.0 512871.0 0
106002.0 512850.0 0
110001.0 512772.0 0
114001.0 512770.0 0
118001.0 512781.0 0
122002.0 512854.0 0
126003.0 512883.0 0
130003.0 512891.0 0
134006.0 512886.0 0
138006.0 512922.0 0
142006.0 512946.0 0
146022.0 513032.0 0
150028.0 513021.0 0
154036.0 513049.0 0
158046.0 513057.0 0
162051.0 513076.0 0
166051.0 513068.0 0
170049.0 513044.0 0
174045.0 512979.0 0
178040.0 512921.0 0
182034.0 512824.0 0
186029.0 512816.0 0
190024.0 512714.0 0
194021.0 512769.0 0
198017.0 512644.0 0
202011.0 512835.0 0
206005.0 512644.0 0
210000.0 512830.0 0
214000.0 512644.0 0
218001.0 512879.0 0
222000.0 512644.0 0
226000.0 512878.0 0
229997.0 512644.0 0
233985.0 512894.0 0
237972.0 512643.0 0
241945.0 513047.0 0
245915.0 512628.0 0
249761.0 513683.0 0
253995.0 512680.0 0
257979.0 513025.0 0
262000.0 512644.0 0
265997.0 512879.0 0
270000.0 512644.0 0
273999.0 512864.0 0
278000.0 512644.0 0
281999.0 512871.0 0
286000.0 512644.0 0
289999.0 512826.0 0
293995.0 512644.0 0
297989.0 512833.0 0
301983.0 512644.0 0
305979.0 512768.0 0
309976.0 512714.0 0
313971.0 512816.0 0
317966.0 512824.0 0
321960.0 512920.0 0
325955.0 512979.0 0
329951.0 513044.0 0
333949.0 513068.0 0
337949.0 513076.0 0
341954.0 513057.0 0
345964.0 513049.0 0
349972.0 513021.0 0
353978.0 513032.0 0
357994.0 512946.0 0
361994.0 512922.0 0
365994.0 512886.0 0
369997.0 512891.0 0
373997.0 512883.0 0
377998.0 512854.0 0
381999.0 512781.0 0
385999.0 512770.0 0
389999.0 512772.0 0
393998.0 512850.0 0
397998.0 512871.0 0
102000.0 516861.0 0
105999.0 516842.0 0
109999.0 516772.0 0
113999.0 516769.0 0
117998.0 516777.0 0
121997.0 516850.0 0
125997.0 516877.0 0
129997.0 516884.0 0
133996.0 516878.0 0
137995.0 516913.0 0
141995.0 516943.0 0
145993.0 517022.0 0
149992.0 517010.0 0
153991.0 517030.0 0
157990.0 517032.0 0
161989.0 517043.0 0
165988.0 517028.0 0
169988.0 517004.0 0
173987.0 516941.0 0
177992.0 516891.0 0
181995.0 516800.0 0
185998.0 516808.0 0
189999.0 516706.0 0
194000.0 516765.0 0
198000.0 516644.0 0
202000.0 516825.0 0
206000.0 516644.0 0
210000.0 516820.0 0
214000.0 516644.0 0
218000.0 516864.0 0
222000.0 516644.0 0
226000.0 516862.0 0
230000.0 516644.0 0
234000.0 516875.0 0
238000.0 516644.0 0
242003.0 517007.0 0
246000.0 516644.0 0
250139.0 517600.0 0
254025.0 516673.0 0
258007.0 516989.0 0
262000.0 516644.0 0
266000.0 516863.0 0
270000.0 516644.0 0
274000.0 516851.0 0
278000.0 516644.0 0
282000.0 516858.0 0
286000.0 516644.0 0
290000.0 516817.0 0
294000.0 516644.0 0
298000.0 516824.0 0
302000.0 516644.0 0
306000.0 516764.0 0
310001.0 516706.0 0
314002.0 516807.0 0
318005.0 516800.0 0
322008.0 516891.0 0
326013.0 516941.0 0
330012.0 517004.0 0
334012.0 517028.0 0
338011.0 517043.0 0
342010.0 517032.0 0
346009.0 517030.0 0
350008.0 517010.0 0
354007.0 517022.0 0
358005.0 516943.0 0
362005.0 516913.0 0
366004.0 516878.0 0
370003.0 516884.0 0
374003.0 516877.0 0
378003.0 516850.0 0
382002.0 516777.0 0
386001.0 516769.0 0
390001.0 516772.0 0
394001.0 516842.0 0
398000.0 516861.0 0
102000.0 520850.0 0
106000.0 520835.0 0
110000.0 520770.0 0
114000.0 520768.0 0
118000.0 520773.0 0
122000.0 520846.0 0
126000.0 520871.0 0
130000.0 520879.0 0
134000.0 520869.0 0
138000.0 520905.0 0
142001.0 520940.0 0
146002.0 521012.0 0
150002.0 520998.0 0
154003.0 521012.0 0
158003.0 521008.0 0
162003.0 521014.0 0
166003.0 520992.0 0
170003.0 520968.0 0
174002.0 520906.0 0
178002.0 520865.0 0
182001.0 520779.0 0
186001.0 520799.0 0
190000.0 520698.0 0
194000.0 520762.0 0
198000.0 520644.0 0
202000.0 520816.0 0
206000.0 520644.0 0
210000.0 520811.0 0
214000.0 520644.0 0
218000.0 520850.0 0
222000.0 520644.0 0
226000.0 520847.0 0
230000.0 520644.0 0
234000.0 520858.0 0
238000.0 520644.0 0
242000.0 520971.0 0
246000.0 520644.0 0
249950.0 521530.0 0
254000.0 520668.0 0
258000.0 520957.0 0
262000.0 520644.0 0
266000.0 520849.0 0
270000.0 520644.0 0
274000.0 520839.0 0
278000.0 520644.0 0
282000.0 520846.0 0
286000.0 520644.0 0
290000.0 520809.0 0
294000.0 520644.0 0
298000.0 520815.0 0
302000.0 520644.0 0
306000.0 520761.0 0
310000.0 520698.0 0
313999.0 520798.0 0
317999.0 520779.0 0
321998.0 520865.0 0
325998.0 520906.0 0
329997.0 520968.0 0
333997.0 520992.0 0
337997.0 521014.0 0
341997.0 521008.0 0
345997.0 521012.0 0
349998.0 520998.0 0
353998.0 521012.0 0
357999.0 520940.0 0
362000.0 520905.0 0
366000.0 520869.0 0
370000.0 520879.0 0
374000.0 520871.0 0
378000.0 520846.0 0
382000.0 520773.0 0
386000.0 520768.0 0
390000.0 520770.0 0
394000.0 520835.0 0
398000.0 520850.0 0
102000.0 524841.0 0
106000.0 524827.0 0
110000.0 524769.0 0
114000.0 524767.0 0
118000.0 524769.0 0
122000.0 524843.0 0
126000.0 524865.0 0
130000.0 524873.0 0
134000.0 524861.0 0
138000.0 524898.0 0
142000.0 524936.0 0
145999.0 525001.0 0
149999.0 524986.0 0
153999.0 524995.0 0
157999.0 524986.0 0
161999.0 524987.0 0
165999.0 524960.0 0
169999.0 524936.0 0
174000.0 524876.0 0
178000.0 524842.0 0
182000.0 524761.0 0
186000.0 524790.0 0
190000.0 524691.0 0
194000.0 524758.0 0
198000.0 524644.0 0
202000.0 524808.0 0
206000.0 524644.0 0
210000.0 524802.0 0
214000.0 524644.0 0
218000.0 524838.0 0
222000.0 524644.0 0
226000.0 524833.0 0
230000.0 524644.0 0
234000.0 524843.0 0
238000.0 524644.0 0
242000.0 524940.0 0
246000.0 524644.0 0
250010.0 525465.0 0
254000.0 524664.0 0
258000.0 524929.0 0
262000.0 524644.0 0
266000.0 524835.0 0
270000.0 524644.0 0
274000.0 524827.0 0
278000.0 524644.0 0
282000.0 524835.0 0
286000.0 524644.0 0
290000.0 524801.0 0
294000.0 524644.0 0
298000.0 524807.0 0
302000.0 524644.0 0
306000.0 524758.0 0
310000.0 524690.0 0
314000.0 524790.0 0
318000.0 524761.0 0
322000.0 524842.0 0
326000.0 524876.0 0
330001.0 524936.0 0
334001.0 524960.0 0
338001.0 524987.0 0
342001.0 524986.0 0
346001.0 524995.0 0
350001.0 524986.0 0
354001.0 525001.0 0
358000.0 524936.0 0
362000.0 524898.0 0
366000.0 524861.0 0
370000.0 524873.0 0
374000.0 524865.0 0
378000.0 524843.0 0
382000.0 524769.0 0
386000.0 524767.0 0
390000.0 524769.0 0
394000.0 524827.0 0
398000.0 524841.0 0
102000.0 528832.0 0
106000.0 528819.0 0
110000.0 528767.0 0
114000.0 528766.0 0
118000.0 528765.0 0
122000.0 528839.0 0
126000.0 528860.0 0
130000.0 528868.0 0
134000.0 528854.0 0
138000.0 528891.0 0
142000.0 528932.0 0
146000.0 528989.0 0
150000.0 528973.0 0
154000.0 528979.0 0
158000.0 528965.0 0
162000.0 528962.0 0
166000.0 528931.0 0
170000.0 528908.0 0
174000.0 528849.0 0
178000.0 528822.0 0
182000.0 528746.0 0
186000.0 528781.0 0
190000.0 528684.0 0
194000.0 528755.0 0
198000.0 528644.0 0
202000.0 528800.0 0
206000.0 528644.0 0
210000.0 528794.0 0
214000.0 528644.0 0
218000.0 528826.0 0
222000.0 528644.0 0
226000.0 528821.0 0
230000.0 528644.0 0
234000.0 528829.0 0
238000.0 528644.0 0
242000.0 528912.0 0
246000.0 528644.0 0
249998.0 529402.0 0
254000.0 528660.0 0
258000.0 528903.0 0
262000.0 528644.0 0
266000.0 528823.0 0
270000.0 528644.0 0
274000.0 528816.0 0
278000.0 528644.0 0
282000.0 528823.0 0
286000.0 528644.0 0
290000.0 528793.0 0
294000.0 528644.0 0
298000.0 528799.0 0
302000.0 528644.0 0
306000.0 528755.0 0
310000.0 528684.0 0
314000.0 528781.0 0
318000.0 528746.0 0
322000.0 528822.0 0
326000.0 528849.0 0
330000.0 528908.0 0
334000.0 528931.0 0
338000.0 528962.0 0
342000.0 528965.0 0
346000.0 528979.0 0
350000.0 528973.0 0
354000.0 528989.0 0
358000.0 528932.0 0
362000.0 528891.0 0
366000.0 528854.0 0
370000.0 528868.0 0
374000.0 528860.0 0
378000.0 528839.0 0
382000.0 528765.0 0
386000.0 528766.0 0
390000.0 528767.0 0
394000.0 528819.0 0
398000.0 528832.0 0
102000.0 532824.0 0
106000.0 532811.0 0
110000.0 532765.0 0
114000.0 532765.0 0
118000.0 532761.0 0
122000.0 532835.0 0
126000.0 532855.0 0
130000.0 532863.0 0
134000.0 532847.0 0
138000.0 532885.0 0
142000.0 532927.0 0
146000.0 532977.0 0
150000.0 532960.0 0
154000.0 532963.0 0
158000.0 532946.0 0
162000.0 532940.0 0
166000.0 532905.0 0
170000.0 532883.0 0
174000.0 532825.0 0
178000.0 532805.0 0
182000.0 532733.0 0
186000.0 532773.0 0
190000.0 532678.0 0
194000.0 532752.0 0
198000.0 532644.0 0
202000.0 532793.0 0
206000.0 532644.0 0
210000.0 532787.0 0
214000.0 532644.0 0
218000.0 532815.0 0
222000.0 532644.0 0
226000.0 532810.0 0
230000.0 532644.0 0
234000.0 532816.0 0
238000.0 532644.0 0
242000.0 532887.0 0
246000.0 532644.0 0
250000.0 533341.0 0
254000.0 532656.0 0
258000.0 532880.0 0
262000.0 532644.0 0
266000.0 532811.0 0
270000.0 532644.0 0
274000.0 532806.0 0
278000.0 532644.0 0
282000.0 532813.0 0
286000.0 532644.0 0
290000.0 532786.0 0
294000.0 532644.0 0
298000.0 532792.0 0
302000.0 532644.0 0
306000.0 532752.0 0
310000.0 532677.0 0
314000.0 532773.0 0
318000.0 532733.0 0
322000.0 532805.0 0
326000.0 532825.0 0
330000.0 532883.0 0
334000.0 532905.0 0
338000.0 532940.0 0
342000.0 532946.0 0
346000.0 532963.0 0
350000.0 532960.0 0
354000.0 532977.0 0
358000.0 532927.0 0
362000.0 532885.0 0
366000.0 532847.0 0
370000.0 532863.0 0
374000.0 532855.0 0
378000.0 532835.0 0
382000.0 532761.0 0
386000.0 532765.0 0
390000.0 532765.0 0
394000.0 532811.0 0
398000.0 532824.0 0
102000.0 536816.0 0
106000.0 536804.0 0
110000.0 536763.0 0
114000.0 536764.0 0
118000.0 536758.0 0
122000.0 536831.0 0
126000.0 536851.0 0
130000.0 536858.0 0
134000.0 536840.0 0
138000.0 536880.0 0
142000.0 536921.0 0
146000.0 536965.0 0
150000.0 536947.0 0
154000.0 536948.0 0
158000.0 536928.0 0
162000.0 536919.0 0
166000.0 536882.0 0
170000.0 536861.0 0
174000.0 536805.0 0
178000.0 536790.0 0
182000.0 536722.0 0
186000.0 536765.0 0
190000.0 536672.0 0
194000.0 536749.0 0
198000.0 536644.0 0
202000.0 536786.0 0
206000.0 536644.0 0
210000.0 536780.0 0
214000.0 536644.0 0
218000.0 536804.0 0
222000.0 536644.0 0
226000.0 536799.0 0
230000.0 536644.0 0
234000.0 536804.0 0
238000.0 536644.0 0
242000.0 536865.0 0
246000.0 536644.0 0
254000.0 536654.0 0
258000.0 536860.0 0
262000.0 536644.0 0
266000.0 536801.0 0
270000.0 536644.0 0
274000.0 536797.0 0
278000.0 536644.0 0
282000.0 536803.0 0
286000.0 536644.0 0
290000.0 536780.0 0
294000.0 536644.0 0
298000.0 536786.0 0
302000.0 536644.0 0
306000.0 536749.0 0
310000.0 536672.0 0
314000.0 536765.0 0
318000.0 536722.0 0
322000.0 536790.0 0
326000.0 536805.0 0
330000.0 536861.0 0
334000.0 536882.0 0
338000.0 536919.0 0
342000.0 536928.0 0
346000.0 536948.0 0
350000.0 536947.0 0
354000.0 536965.0 0
358000.0 536921.0 0
362000.0 536880.0 0
366000.0 536840.0 0
370000.0 536858.0 0
374000.0 536851.0 0
378000.0 536831.0 0
382000.0 536758.0 0
386000.0 536764.0 0
390000.0 536763.0 0
394000.0 536804.0 0
398000.0 536816.0 0
250000.0 537282.0 0
102000.0 540810.0 0
106000.0 540797.0 0
110000.0 540761.0 0
114000.0 540762.0 0
118000.0 540755.0 0
122000.0 540827.0 0
126000.0 540846.0 0
130000.0 540853.0 0
134000.0 540833.0 0
138000.0 540876.0 0
142000.0 540915.0 0
146000.0 540953.0 0
150000.0 540935.0 0
154000.0 540934.0 0
158000.0 540911.0 0
162000.0 540901.0 0
166000.0 540861.0 0
170000.0 540842.0 0
174000.0 540787.0 0
178000.0 540777.0 0
182000.0 540712.0 0
186000.0 540758.0 0
190000.0 540667.0 0
194000.0 540746.0 0
198000.0 540644.0 0
202000.0 540779.0 0
206000.0 540644.0 0
210000.0 540774.0 0
214000.0 540644.0 0
218000.0 540795.0 0
222000.0 540644.0 0
226000.0 540790.0 0
230000.0 540644.0 0
234000.0 540793.0 0
238000.0 540644.0 0
242000.0 540845.0 0
246000.0 540644.0 0
250000.0 541227.0 0
254000.0 540651.0 0
258000.0 540842.0 0
262000.0 540644.0 0
266000.0 540791.0 0
270000.0 540644.0 0
274000.0 540788.0 0
278000.0 540644.0 0
282000.0 540794.0 0
286000.0 540644.0 0
290000.0 540773.0 0
294000.0 540644.0 0
298000.0 540779.0 0
302000.0 540644.0 0
306000.0 540746.0 0
310000.0 540667.0 0
314000.0 540758.0 0
318000.0 540712.0 0
322000.0 540777.0 0
326000.0 540787.0 0
330000.0 540842.0 0
334000.0 540861.0 0
338000.0 540901.0 0
342000.0 540911.0 0
346000.0 540934.0 0
350000.0 540935.0 0
354000.0 540953.0 0
358000.0 540915.0 0
362000.0 540876.0 0
366000.0 540833.0 0
370000.0 540853.0 0
374000.0 540846.0 0
378000.0 540827.0 0
382000.0 540755.0 0
386000.0 540762.0 0
390000.0 540761.0 0
394000.0 540797.0 0
398000.0 540810.0 0
102000.0 544804.0 0
106000.0 544791.0 0
110000.0 544759.0 0
114000.0 544761.0 0
118000.0 544752.0 0
122000.0 544823.0 0
126000.0 544842.0 0
130000.0 544849.0 0
134000.0 544828.0 0
138000.0 544872.0 0
142000.0 544909.0 0
146000.0 544941.0 0
150000.0 544922.0 0
154000.0 544921.0 0
158000.0 544895.0 0
162000.0 544884.0 0
166000.0 544843.0 0
170000.0 544825.0 0
174000.0 544772.0 0
178000.0 544766.0 0
182000.0 544704.0 0
186000.0 544752.0 0
190000.0 544663.0 0
194000.0 544743.0 0
198000.0 544644.0 0
202000.0 544774.0 0
206000.0 544644.0 0
210000.0 544768.0 0
214000.0 544644.0 0
218000.0 544786.0 0
222000.0 544644.0 0
226000.0 544781.0 0
230000.0 544644.0 0
234000.0 544783.0 0
238000.0 544644.0 0
242000.0 544828.0 0
246000.0 544644.0 0
254000.0 544650.0 0
258000.0 544825.0 0
262000.0 544644.0 0
266000.0 544782.0 0
270000.0 544644.0 0
274000.0 544780.0 0
278000.0 544644.0 0
282000.0 544785.0 0
286000.0 544644.0 0
290000.0 544768.0 0
294000.0 544644.0 0
298000.0 544773.0 0
302000.0 544644.0 0
306000.0 544743.0 0
310000.0 544663.0 0
314000.0 544752.0 0
318000.0 544704.0 0
322000.0 544766.0 0
326000.0 544772.0 0
330000.0 544825.0 0
334000.0 544843.0 0
338000.0 544884.0 0
342000.0 544895.0 0
346000.0 544921.0 0
350000.0 544922.0 0
354000.0 544941.0 0
358000.0 544909.0 0
362000.0 544872.0 0
366000.0 544828.0 0
370000.0 544849.0 0
374000.0 544842.0 0
378000.0 544823.0 0
382000.0 544752.0 0
386000.0 544761.0 0
390000.0 544759.0 0
394000.0 544791.0 0
398000.0 544804.0 0
250000.0 545175.0 0
102000.0 548799.0 0
106000.0 548785.0 0
110000.0 548757.0 0
114000.0 548759.0 0
118000.0 548750.0 0
122000.0 548819.0 0
126000.0 548838.0 0
130000.0 548845.0 0
134000.0 548822.0 0
138000.0 548868.0 0
142000.0 548903.0 0
146000.0 548930.0 0
150000.0 548910.0 0
154000.0 548908.0 0
158000.0 548881.0 0
162000.0 548868.0 0
166000.0 548826.0 0
170000.0 548810.0 0
174000.0 548758.0 0
178000.0 548756.0 0
182000.0 548696.0 0
186000.0 548747.0 0
190000.0 548660.0 0
194000.0 548740.0 0
198000.0 548644.0 0
202000.0 548768.0 0
206000.0 548644.0 0
210000.0 548762.0 0
214000.0 548644.0 0
218000.0 548777.0 0
222000.0 548644.0 0
226000.0 548773.0 0
230000.0 548644.0 0
234000.0 548774.0 0
238000.0 548644.0 0
242000.0 548812.0 0
246000.0 548644.0 0
250000.0 549126.0 0
254000.0 548648.0 0
258000.0 548810.0 0
262000.0 548644.0 0
266000.0 548773.0 0
270000.0 548644.0 0
274000.0 548772.0 0
278000.0 548644.0 0
282000.0 548777.0 0
286000.0 548644.0 0
290000.0 548762.0 0
294000.0 548644.0 0
298000.0 548768.0 0
302000.0 548644.0 0
306000.0 548740.0 0
310000.0 548660.0 0
314000.0 548747.0 0
318000.0 548696.0 0
322000.0 548756.0 0
326000.0 548758.0 0
330000.0 548810.0 0
334000.0 548826.0 0
338000.0 548868.0 0
342000.0 548881.0 0
346000.0 548908.0 0
350000.0 548910.0 0
354000.0 548930.0 0
358000.0 548903.0 0
362000.0 548868.0 0
366000.0 548822.0 0
370000.0 548845.0 0
374000.0 548838.0 0
378000.0 548819.0 0
382000.0 548750.0 0
386000.0 548759.0 0
390000.0 548757.0 0
394000.0 548785.0 0
398000.0 548799.0 0
106000.0 552780.0 0
110000.0 552755.0 0
114000.0 552758.0 0
118000.0 552747.0 0
170000.0 552796.0 0
174000.0 552746.0 0
178000.0 552747.0 0
182000.0 552689.0 0
186000.0 552741.0 0
190000.0 552657.0 0
194000.0 552737.0 0
198000.0 552644.0 0
202000.0 552763.0 0
206000.0 552644.0 0
210000.0 552757.0 0
214000.0 552644.0 0
218000.0 552770.0 0
222000.0 552644.0 0
226000.0 552765.0 0
230000.0 552644.0 0
234000.0 552766.0 0
238000.0 552644.0 0
242000.0 552799.0 0
246000.0 552644.0 0
254000.0 552647.0 0
258000.0 552797.0 0
262000.0 552644.0 0
266000.0 552765.0 0
270000.0 552644.0 0
274000.0 552765.0 0
278000.0 552644.0 0
282000.0 552770.0 0
286000.0 552644.0 0
290000.0 552757.0 0
294000.0 552644.0 0
298000.0 552763.0 0
302000.0 552644.0 0
306000.0 552737.0 0
310000.0 552657.0 0
314000.0 552741.0 0
318000.0 552689.0 0
322000.0 552747.0 0
326000.0 552746.0 0
330000.0 552796.0 0
382000.0 552747.0 0
386000.0 552758.0 0
390000.0 552755.0 0
394000.0 552780.0 0
102000.0 552794.0 0
122000.0 552816.0 0
126000.0 552834.0 0
130000.0 552841.0 0
134000.0 552818.0 0
138000.0 552864.0 0
142000.0 552897.0 0
146000.0 552918.0 0
150000.0 552898.0 0
154000.0 552896.0 0
158000.0 552867.0 0
162000.0 552854.0 0
166000.0 552811.0 0
250000.0 553081.0 0
334000.0 552811.0 0
338000.0 552854.0 0
342000.0 552867.0 0
346000.0 552896.0 0
350000.0 552898.0 0
354000.0 552918.0 0
358000.0 552897.0 0
362000.0 552864.0 0
366000.0 552818.0 0
370000.0 552841.0 0
374000.0 552834.0 0
378000.0 552816.0 0
398000.0 552794.0 0
102000.0 556790.0 0
106000.0 556776.0 0
110000.0 556753.0 0
114000.0 556756.0 0
118000.0 556745.0 0
122000.0 556812.0 0
126000.0 556830.0 0
130000.0 556837.0 0
134000.0 556813.0 0
138000.0 556861.0 0
142000.0 556891.0 0
146000.0 556908.0 0
150000.0 556887.0 0
154000.0 556885.0 0
158000.0 556855.0 0
162000.0 556841.0 0
166000.0 556797.0 0
170000.0 556785.0 0
174000.0 556736.0 0
178000.0 556740.0 0
182000.0 556683.0 0
186000.0 556737.0 0
190000.0 556655.0 0
194000.0 556734.0 0
198000.0 556644.0 0
202000.0 556758.0 0
206000.0 556644.0 0
210000.0 556752.0 0
214000.0 556644.0 0
218000.0 556763.0 0
222000.0 556644.0 0
226000.0 556758.0 0
230000.0 556644.0 0
234000.0 556758.0 0
238000.0 556644.0 0
242000.0 556786.0 0
246000.0 556644.0 0
250000.0 557039.0 0
254000.0 556646.0 0
258000.0 556785.0 0
262000.0 556644.0 0
266000.0 556758.0 0
270000.0 556644.0 0
274000.0 556758.0 0
278000.0 556644.0 0
282000.0 556763.0 0
286000.0 556644.0 0
290000.0 556752.0 0
294000.0 556644.0 0
298000.0 556758.0 0
302000.0 556644.0 0
306000.0 556734.0 0
310000.0 556655.0 0
314000.0 556737.0 0
318000.0 556683.0 0
322000.0 556740.0 0
326000.0 556736.0 0
330000.0 556785.0 0
334000.0 556797.0 0
338000.0 556841.0 0
342000.0 556855.0 0
346000.0 556885.0 0
350000.0 556887.0 0
354000.0 556908.0 0
358000.0 556891.0 0
362000.0 556861.0 0
366000.0 556813.0 0
370000.0 556837.0 0
374000.0 556830.0 0
378000.0 556812.0 0
382000.0 556745.0 0
386000.0 556756.0 0
390000.0 556753.0 0
394000.0 556776.0 0
398000.0 556790.0 0
102000.0 560787.0 0
106000.0 560772.0 0
110000.0 560752.0 0
114000.0 560754.0 0
118000.0 560743.0 0
122000.0 560809.0 0
126000.0 560827.0 0
130000.0 560834.0 0
134000.0 560809.0 0
138000.0 560858.0 0
142000.0 560884.0 0
146000.0 560898.0 0
150000.0 560876.0 0
154000.0 560875.0 0
158000.0 560843.0 0
162000.0 560829.0 0
166000.0 560785.0 0
170000.0 560774.0 0
174000.0 560727.0 0
178000.0 560733.0 0
182000.0 560677.0 0
186000.0 560733.0 0
190000.0 560653.0 0
194000.0 560731.0 0
198000.0 560644.0 0
202000.0 560753.0 0
206000.0 560644.0 0
210000.0 560747.0 0
214000.0 560644.0 0
218000.0 560757.0 0
222000.0 560644.0 0
226000.0 560752.0 0
230000.0 560644.0 0
234000.0 560751.0 0
238000.0 560644.0 0
242000.0 560775.0 0
246000.0 560644.0 0
250000.0 561001.0 0
254000.0 560646.0 0
258000.0 560775.0 0
262000.0 560644.0 0
266000.0 560751.0 0
270000.0 560644.0 0
274000.0 560752.0 0
278000.0 560644.0 0
282000.0 560756.0 0
286000.0 560644.0 0
290000.0 560747.0 0
294000.0 560644.0 0
298000.0 560753.0 0
302000.0 560644.0 0
306000.0 560731.0 0
310000.0 560653.0 0
314000.0 560733.0 0
318000.0 560677.0 0
322000.0 560733.0 0
326000.0 560727.0 0
330000.0 560774.0 0
334000.0 560785.0 0
338000.0 560829.0 0
342000.0 560843.0 0
346000.0 560875.0 0
350000.0 560876.0 0
354000.0 560898.0 0
358000.0 560884.0 0
362000.0 560858.0 0
366000.0 560809.0 0
370000.0 560834.0 0
374000.0 560827.0 0
378000.0 560809.0 0
382000.0 560743.0 0
386000.0 560754.0 0
390000.0 560752.0 0
394000.0 560772.0 0
398000.0 560787.0 0
102000.0 564784.0 0
106000.0 564769.0 0
110000.0 564750.0 0
114000.0 564753.0 0
118000.0 564741.0 0
122000.0 564805.0 0
126000.0 564823.0 0
130000.0 564831.0 0
134000.0 564806.0 0
138000.0 564855.0 0
142000.0 564879.0 0
146000.0 564888.0 0
150000.0 564867.0 0
154000.0 564865.0 0
158000.0 564833.0 0
162000.0 564819.0 0
166000.0 564774.0 0
170000.0 564765.0 0
174000.0 564719.0 0
178000.0 564727.0 0
182000.0 564673.0 0
186000.0 564729.0 0
190000.0 564651.0 0
194000.0 564729.0 0
198000.0 564644.0 0
202000.0 564749.0 0
206000.0 564644.0 0
210000.0 564743.0 0
214000.0 564644.0 0
218000.0 564751.0 0
222000.0 564644.0 0
226000.0 564747.0 0
230000.0 564644.0 0
234000.0 564745.0 0
238000.0 564644.0 0
242000.0 564766.0 0
246000.0 564644.0 0
250000.0 564967.0 0
254000.0 564645.0 0
258000.0 564765.0 0
262000.0 564644.0 0
266000.0 564745.0 0
270000.0 564644.0 0
274000.0 564746.0 0
278000.0 564644.0 0
282000.0 564751.0 0
286000.0 564644.0 0
290000.0 564743.0 0
294000.0 564644.0 0
298000.0 564749.0 0
302000.0 564644.0 0
306000.0 564729.0 0
310000.0 564651.0 0
314000.0 564729.0 0
318000.0 564673.0 0
322000.0 564727.0 0
326000.0 564719.0 0
330000.0 564765.0 0
334000.0 564774.0 0
338000.0 564819.0 0
342000.0 564833.0 0
346000.0 564865.0 0
350000.0 564867.0 0
354000.0 564888.0 0
358000.0 564879.0 0
362000.0 564855.0 0
366000.0 564806.0 0
370000.0 564831.0 0
374000.0 564823.0 0
378000.0 564805.0 0
382000.0 564741.0 0
386000.0 564753.0 0
390000.0 564750.0 0
394000.0 564769.0 0
398000.0 564784.0 0
102000.0 568781.0 0
106000.0 568766.0 0
110000.0 568748.0 0
114000.0 568752.0 0
118000.0 568739.0 0
122000.0 568802.0 0
126000.0 568820.0 0
130000.0 568828.0 0
134000.0 568803.0 0
138000.0 568853.0 0
142000.0 568873.0 0
146000.0 568880.0 0
150000.0 568858.0 0
154000.0 568856.0 0
158000.0 568823.0 0
162000.0 568809.0 0
166000.0 568765.0 0
170000.0 568757.0 0
174000.0 568712.0 0
178000.0 568721.0 0
182000.0 568669.0 0
186000.0 568726.0 0
190000.0 568650.0 0
194000.0 568726.0 0
198000.0 568644.0 0
202000.0 568746.0 0
206000.0 568644.0 0
210000.0 568739.0 0
214000.0 568644.0 0
218000.0 568746.0 0
222000.0 568644.0 0
226000.0 568741.0 0
230000.0 568644.0 0
234000.0 568739.0 0
238000.0 568644.0 0
242000.0 568757.0 0
246000.0 568644.0 0
250000.0 568937.0 0
254000.0 568645.0 0
258000.0 568757.0 0
262000.0 568644.0 0
266000.0 568739.0 0
270000.0 568644.0 0
274000.0 568741.0 0
278000.0 568644.0 0
282000.0 568746.0 0
286000.0 568644.0 0
290000.0 568739.0 0
294000.0 568644.0 0
298000.0 568746.0 0
302000.0 568644.0 0
306000.0 568726.0 0
310000.0 568650.0 0
314000.0 568726.0 0
318000.0 568669.0 0
322000.0 568721.0 0
326000.0 568712.0 0
330000.0 568757.0 0
334000.0 568765.0 0
338000.0 568809.0 0
342000.0 568823.0 0
346000.0 568856.0 0
350000.0 568858.0 0
354000.0 568880.0 0
358000.0 568873.0 0
362000.0 568853.0 0
366000.0 568803.0 0
370000.0 568828.0 0
374000.0 568820.0 0
378000.0 568802.0 0
382000.0 568739.0 0
386000.0 568752.0 0
390000.0 568748.0 0
394000.0 568766.0 0
398000.0 568781.0 0
102000.0 572779.0 0
106000.0 572763.0 0
110000.0 572747.0 0
114000.0 572750.0 0
118000.0 572738.0 0
122000.0 572799.0 0
126000.0 572817.0 0
130000.0 572825.0 0
134000.0 572800.0 0
138000.0 572851.0 0
142000.0 572868.0 0
146000.0 572872.0 0
150000.0 572849.0 0
154000.0 572849.0 0
158000.0 572815.0 0
162000.0 572801.0 0
166000.0 572756.0 0
170000.0 572750.0 0
174000.0 572706.0 0
178000.0 572717.0 0
182000.0 572665.0 0
186000.0 572723.0 0
190000.0 572649.0 0
194000.0 572724.0 0
198000.0 572644.0 0
202000.0 572742.0 0
206000.0 572644.0 0
210000.0 572736.0 0
214000.0 572644.0 0
218000.0 572741.0 0
222000.0 572644.0 0
226000.0 572737.0 0
230000.0 572644.0 0
234000.0 572734.0 0
238000.0 572644.0 0
242000.0 572750.0 0
246000.0 572644.0 0
250000.0 572910.0 0
254000.0 572645.0 0
258000.0 572749.0 0
262000.0 572644.0 0
266000.0 572734.0 0
270000.0 572644.0 0
274000.0 572737.0 0
278000.0 572644.0 0
282000.0 572741.0 0
286000.0 572644.0 0
290000.0 572736.0 0
294000.0 572644.0 0
298000.0 572742.0 0
302000.0 572644.0 0
306000.0 572724.0 0
310000.0 572649.0 0
314000.0 572723.0 0
318000.0 572665.0 0
322000.0 572717.0 0
326000.0 572706.0 0
330000.0 572750.0 0
334000.0 572756.0 0
338000.0 572801.0 0
342000.0 572815.0 0
346000.0 572849.0 0
350000.0 572849.0 0
354000.0 572872.0 0
358000.0 572868.0 0
362000.0 572851.0 0
366000.0 572800.0 0
370000.0 572825.0 0
374000.0 572817.0 0
378000.0 572799.0 0
382000.0 572738.0 0
386000.0 572750.0 0
390000.0 572747.0 0
394000.0 572763.0 0
398000.0 572779.0 0
102000.0 576777.0 0
106000.0 576761.0 0
110000.0 576746.0 0
114000.0 576749.0 0
118000.0 576736.0 0
122000.0 576796.0 0
126000.0 576815.0 0
130000.0 576822.0 0
134000.0 576797.0 0
138000.0 576849.0 0
142000.0 576863.0 0
146000.0 576865.0 0
150000.0 576842.0 0
154000.0 576841.0 0
158000.0 576807.0 0
162000.0 576793.0 0
166000.0 576749.0 0
170000.0 576743.0 0
174000.0 576700.0 0
178000.0 576713.0 0
182000.0 576662.0 0
186000.0 576721.0 0
190000.0 576648.0 0
194000.0 576722.0 0
198000.0 576644.0 0
202000.0 576739.0 0
206000.0 576644.0 0
210000.0 576733.0 0
214000.0 576644.0 0
218000.0 576737.0 0
222000.0 576644.0 0
226000.0 576733.0 0
230000.0 576644.0 0
234000.0 576730.0 0
238000.0 576644.0 0
242000.0 576743.0 0
246000.0 576644.0 0
250000.0 576886.0 0
254000.0 576645.0 0
258000.0 576743.0 0
262000.0 576644.0 0
266000.0 576729.0 0
270000.0 576644.0 0
274000.0 576733.0 0
278000.0 576644.0 0
282000.0 576737.0 0
286000.0 576644.0 0
290000.0 576733.0 0
294000.0 576644.0 0
298000.0 576739.0 0
302000.0 576644.0 0
306000.0 576722.0 0
310000.0 576648.0 0
314000.0 576721.0 0
318000.0 576662.0 0
322000.0 576713.0 0
326000.0 576700.0 0
330000.0 576743.0 0
334000.0 576749.0 0
338000.0 576793.0 0
342000.0 576807.0 0
346000.0 576841.0 0
350000.0 576842.0 0
354000.0 576865.0 0
358000.0 576863.0 0
362000.0 576849.0 0
366000.0 576797.0 0
370000.0 576822.0 0
374000.0 576815.0 0
378000.0 576796.0 0
382000.0 576736.0 0
386000.0 576749.0 0
390000.0 576746.0 0
394000.0 576761.0 0
398000.0 576777.0 0
102000.0 580775.0 0
106000.0 580760.0 0
110000.0 580745.0 0
114000.0 580748.0 0
118000.0 580735.0 0
122000.0 580794.0 0
126000.0 580812.0 0
130000.0 580820.0 0
134000.0 580795.0 0
138000.0 580847.0 0
142000.0 580859.0 0
146000.0 580859.0 0
150000.0 580835.0 0
154000.0 580835.0 0
158000.0 580801.0 0
162000.0 580787.0 0
166000.0 580743.0 0
170000.0 580738.0 0
174000.0 580696.0 0
178000.0 580709.0 0
182000.0 580660.0 0
186000.0 580719.0 0
190000.0 580647.0 0
194000.0 580720.0 0
198000.0 580644.0 0
202000.0 580736.0 0
206000.0 580644.0 0
210000.0 580730.0 0
214000.0 580644.0 0
218000.0 580734.0 0
222000.0 580644.0 0
226000.0 580729.0 0
230000.0 580644.0 0
234000.0 580726.0 0
238000.0 580644.0 0
242000.0 580737.0 0
246000.0 580644.0 0
250000.0 580866.0 0
254000.0 580645.0 0
258000.0 580737.0 0
262000.0 580644.0 0
266000.0 580726.0 0
270000.0 580644.0 0
274000.0 580729.0 0
278000.0 580644.0 0
282000.0 580734.0 0
286000.0 580644.0 0
290000.0 580730.0 0
294000.0 580644.0 0
298000.0 580736.0 0
302000.0 580644.0 0
306000.0 580720.0 0
310000.0 580647.0 0
314000.0 580719.0 0
318000.0 580660.0 0
322000.0 580709.0 0
326000.0 580696.0 0
330000.0 580738.0 0
334000.0 580743.0 0
338000.0 580787.0 0
342000.0 580801.0 0
346000.0 580835.0 0
350000.0 580835.0 0
354000.0 580859.0 0
358000.0 580859.0 0
362000.0 580847.0 0
366000.0 580795.0 0
370000.0 580820.0 0
374000.0 580812.0 0
378000.0 580794.0 0
382000.0 580735.0 0
386000.0 580748.0 0
390000.0 580745.0 0
394000.0 580760.0 0
398000.0 580775.0 0
102000.0 584774.0 0
106000.0 584758.0 0
110000.0 584744.0 0
114000.0 584747.0 0
118000.0 584734.0 0
122000.0 584792.0 0
126000.0 584810.0 0
130000.0 584818.0 0
134000.0 584794.0 0
138000.0 584845.0 0
142000.0 584855.0 0
146000.0 584853.0 0
150000.0 584830.0 0
154000.0 584830.0 0
158000.0 584795.0 0
162000.0 584781.0 0
166000.0 584738.0 0
170000.0 584734.0 0
174000.0 584692.0 0
178000.0 584706.0 0
182000.0 584657.0 0
186000.0 584717.0 0
190000.0 584647.0 0
194000.0 584719.0 0
198000.0 584644.0 0
202000.0 584734.0 0
206000.0 584644.0 0
210000.0 584728.0 0
214000.0 584644.0 0
218000.0 584731.0 0
222000.0 584644.0 0
226000.0 584726.0 0
230000.0 584644.0 0
234000.0 584722.0 0
238000.0 584644.0 0
242000.0 584733.0 0
246000.0 584644.0 0
250000.0 584848.0 0
254000.0 584645.0 0
258000.0 584733.0 0
262000.0 584644.0 0
266000.0 584722.0 0
270000.0 584644.0 0
274000.0 584726.0 0
278000.0 584644.0 0
282000.0 584731.0 0
286000.0 584644.0 0
290000.0 584728.0 0
294000.0 584644.0 0
298000.0 584734.0 0
302000.0 584644.0 0
306000.0 584719.0 0
310000.0 584647.0 0
314000.0 584717.0 0
318000.0 584657.0 0
322000.0 584706.0 0
326000.0 584692.0 0
330000.0 584734.0 0
334000.0 584738.0 0
338000.0 584781.0 0
342000.0 584795.0 0
346000.0 584830.0 0
350000.0 584830.0 0
354000.0 584853.0 0
358000.0 584855.0 0
362000.0 584845.0 0
366000.0 584794.0 0
370000.0 584818.0 0
374000.0 584810.0 0
378000.0 584792.0 0
382000.0 584734.0 0
386000.0 584747.0 0
390000.0 584744.0 0
394000.0 584758.0 0
398000.0 584774.0 0
102000.0 588773.0 0
106000.0 588757.0 0
110000.0 588743.0 0
114000.0 588746.0 0
118000.0 588733.0 0
122000.0 588790.0 0
126000.0 588809.0 0
130000.0 588817.0 0
134000.0 588792.0 0
138000.0 588844.0 0
142000.0 588852.0 0
146000.0 588849.0 0
150000.0 588825.0 0
154000.0 588825.0 0
158000.0 588790.0 0
162000.0 588777.0 0
166000.0 588733.0 0
170000.0 588730.0 0
174000.0 588689.0 0
178000.0 588704.0 0
182000.0 588656.0 0
186000.0 588716.0 0
190000.0 588646.0 0
194000.0 588718.0 0
198000.0 588644.0 0
202000.0 588732.0 0
206000.0 588644.0 0
210000.0 588726.0 0
214000.0 588644.0 0
218000.0 588729.0 0
222000.0 588644.0 0
226000.0 588724.0 0
230000.0 588644.0 0
234000.0 588719.0 0
238000.0 588644.0 0
242000.0 588729.0 0
246000.0 588644.0 0
250000.0 588834.0 0
254000.0 588644.0 0
258000.0 588729.0 0
262000.0 588644.0 0
266000.0 588719.0 0
270000.0 588644.0 0
274000.0 588724.0 0
278000.0 588644.0 0
282000.0 588729.0 0
286000.0 588644.0 0
290000.0 588726.0 0
294000.0 588644.0 0
298000.0 588732.0 0
302000.0 588644.0 0
306000.0 588718.0 0
310000.0 588646.0 0
314000.0 588716.0 0
318000.0 588656.0 0
322000.0 588704.0 0
326000.0 588689.0 0
330000.0 588730.0 0
334000.0 588733.0 0
338000.0 588777.0 0
342000.0 588790.0 0
346000.0 588825.0 0
350000.0 588825.0 0
354000.0 588849.0 0
358000.0 588852.0 0
362000.0 588844.0 0
366000.0 588792.0 0
370000.0 588817.0 0
374000.0 588809.0 0
378000.0 588790.0 0
382000.0 588733.0 0
386000.0 588746.0 0
390000.0 588743.0 0
394000.0 588757.0 0
398000.0 588773.0 0
102000.0 592772.0 0
106000.0 592756.0 0
110000.0 592742.0 0
114000.0 592746.0 0
118000.0 592732.0 0
122000.0 592789.0 0
126000.0 592807.0 0
130000.0 592816.0 0
134000.0 592791.0 0
138000.0 592843.0 0
142000.0 592849.0 0
146000.0 592845.0 0
150000.0 592821.0 0
154000.0 592822.0 0
158000.0 592786.0 0
162000.0 592773.0 0
166000.0 592730.0 0
170000.0 592727.0 0
174000.0 592686.0 0
178000.0 592702.0 0
182000.0 592655.0 0
186000.0 592715.0 0
190000.0 592646.0 0
194000.0 592717.0 0
198000.0 592644.0 0
202000.0 592731.0 0
206000.0 592644.0 0
210000.0 592725.0 0
214000.0 592644.0 0
218000.0 592727.0 0
222000.0 592644.0 0
226000.0 592722.0 0
230000.0 592644.0 0
234000.0 592717.0 0
238000.0 592644.0 0
242000.0 592726.0 0
246000.0 592644.0 0
250000.0 592823.0 0
254000.0 592644.0 0
258000.0 592726.0 0
262000.0 592644.0 0
266000.0 592717.0 0
270000.0 592644.0 0
274000.0 592722.0 0
278000.0 592644.0 0
282000.0 592727.0 0
286000.0 592644.0 0
290000.0 592725.0 0
294000.0 592644.0 0
298000.0 592731.0 0
302000.0 592644.0 0
306000.0 592717.0 0
310000.0 592646.0 0
314000.0 592715.0 0
318000.0 592655.0 0
322000.0 592702.0 0
326000.0 592686.0 0
330000.0 592727.0 0
334000.0 592730.0 0
338000.0 592773.0 0
342000.0 592786.0 0
346000.0 592822.0 0
350000.0 592821.0 0
354000.0 592845.0 0
358000.0 592849.0 0
362000.0 592843.0 0
366000.0 592791.0 0
370000.0 592816.0 0
374000.0 592807.0 0
378000.0 592789.0 0
382000.0 592732.0 0
386000.0 592746.0 0
390000.0 592742.0 0
394000.0 592756.0 0
398000.0 592772.0 0
102000.0 596771.0 0
106000.0 596756.0 0
110000.0 596742.0 0
114000.0 596745.0 0
118000.0 596732.0 0
122000.0 596788.0 0
126000.0 596806.0 0
130000.0 596815.0 0
134000.0 596790.0 0
138000.0 596842.0 0
142000.0 596847.0 0
146000.0 596842.0 0
150000.0 596819.0 0
154000.0 596819.0 0
158000.0 596784.0 0
162000.0 596771.0 0
166000.0 596727.0 0
170000.0 596725.0 0
174000.0 596685.0 0
178000.0 596701.0 0
182000.0 596654.0 0
186000.0 596714.0 0
190000.0 596646.0 0
194000.0 596716.0 0
198000.0 596644.0 0
202000.0 596730.0 0
206000.0 596644.0 0
210000.0 596723.0 0
214000.0 596644.0 0
218000.0 596725.0 0
222000.0 596644.0 0
226000.0 596721.0 0
230000.0 596644.0 0
234000.0 596715.0 0
238000.0 596644.0 0
242000.0 596723.0 0
246000.0 596644.0 0
250000.0 596815.0 0
254000.0 596644.0 0
258000.0 596723.0 0
262000.0 596644.0 0
266000.0 596715.0 0
270000.0 596644.0 0
274000.0 596721.0 0
278000.0 596644.0 0
282000.0 596725.0 0
286000.0 596644.0 0
290000.0 596723.0 0
294000.0 596644.0 0
298000.0 596730.0 0
302000.0 596644.0 0
306000.0 596716.0 0
310000.0 596646.0 0
314000.0 596714.0 0
318000.0 596654.0 0
322000.0 596701.0 0
326000.0 596685.0 0
330000.0 596725.0 0
334000.0 596727.0 0
338000.0 596771.0 0
342000.0 596784.0 0
346000.0 596819.0 0
350000.0 596819.0 0
354000.0 596842.0 0
358000.0 596847.0 0
362000.0 596842.0 0
366000.0 596790.0 0
370000.0 596815.0 0
374000.0 596806.0 0
378000.0 596788.0 0
382000.0 596732.0 0
386000.0 596745.0 0
390000.0 596742.0 0
394000.0 596756.0 0
398000.0 596771.0 0
102000.0 600771.0 0
106000.0 600755.0 0
110000.0 600742.0 0
114000.0 600745.0 0
118000.0 600731.0 0
122000.0 600787.0 0
126000.0 600805.0 0
130000.0 600814.0 0
134000.0 600790.0 0
138000.0 600842.0 0
142000.0 600846.0 0
146000.0 600841.0 0
150000.0 600817.0 0
154000.0 600817.0 0
158000.0 600782.0 0
162000.0 600769.0 0
166000.0 600726.0 0
170000.0 600724.0 0
174000.0 600683.0 0
178000.0 600700.0 0
182000.0 600653.0 0
186000.0 600713.0 0
190000.0 600645.0 0
194000.0 600715.0 0
198000.0 600644.0 0
202000.0 600729.0 0
206000.0 600644.0 0
210000.0 600723.0 0
214000.0 600644.0 0
218000.0 600725.0 0
222000.0 600644.0 0
226000.0 600720.0 0
230000.0 600644.0 0
234000.0 600714.0 0
238000.0 600644.0 0
242000.0 600722.0 0
246000.0 600644.0 0
250000.0 600809.0 0
254000.0 600644.0 0
258000.0 600722.0 0
262000.0 600644.0 0
266000.0 600714.0 0
270000.0 600644.0 0
274000.0 600720.0 0
278000.0 600644.0 0
282000.0 600725.0 0
286000.0 600644.0 0
290000.0 600723.0 0
294000.0 600644.0 0
298000.0 600729.0 0
302000.0 600644.0 0
306000.0 600715.0 0
310000.0 600645.0 0
314000.0 600713.0 0
318000.0 600653.0 0
322000.0 600700.0 0
326000.0 600683.0 0
330000.0 600724.0 0
334000.0 600726.0 0
338000.0 600769.0 0
342000.0 600782.0 0
346000.0 600817.0 0
350000.0 600817.0 0
354000.0 600841.0 0
358000.0 600846.0 0
362000.0 600842.0 0
366000.0 600790.0 0
370000.0 600814.0 0
374000.0 600805.0 0
378000.0 600787.0 0
382000.0 600731.0 0
386000.0 600745.0 0
390000.0 600742.0 0
394000.0 600755.0 0
398000.0 600771.0 0
102000.0 604771.0 0
106000.0 604755.0 0
110000.0 604741.0 0
114000.0 604745.0 0
118000.0 604731.0 0
122000.0 604787.0 0
126000.0 604805.0 0
130000.0 604814.0 0
134000.0 604789.0 0
138000.0 604841.0 0
142000.0 604845.0 0
146000.0 604840.0 0
150000.0 604816.0 0
154000.0 604817.0 0
158000.0 604781.0 0
162000.0 604768.0 0
166000.0 604725.0 0
170000.0 604723.0 0
174000.0 604683.0 0
178000.0 604700.0 0
182000.0 604653.0 0
186000.0 604713.0 0
190000.0 604645.0 0
194000.0 604715.0 0
198000.0 604644.0 0
202000.0 604728.0 0
206000.0 604644.0 0
210000.0 604722.0 0
214000.0 604644.0 0
218000.0 604724.0 0
222000.0 604644.0 0
226000.0 604719.0 0
230000.0 604644.0 0
234000.0 604714.0 0
238000.0 604644.0 0
242000.0 604721.0 0
246000.0 604644.0 0
250000.0 604807.0 0
254000.0 604644.0 0
258000.0 604721.0 0
262000.0 604644.0 0
266000.0 604714.0 0
270000.0 604644.0 0
274000.0 604719.0 0
278000.0 604644.0 0
282000.0 604724.0 0
286000.0 604644.0 0
290000.0 604722.0 0
294000.0 604644.0 0
298000.0 604728.0 0
302000.0 604644.0 0
306000.0 604715.0 0
310000.0 604645.0 0
314000.0 604713.0 0
318000.0 604653.0 0
322000.0 604700.0 0
326000.0 604683.0 0
330000.0 604723.0 0
334000.0 604725.0 0
338000.0 604768.0 0
342000.0 604781.0 0
346000.0 604817.0 0
350000.0 604816.0 0
354000.0 604840.0 0
358000.0 604845.0 0
362000.0 604841.0 0
366000.0 604789.0 0
370000.0 604814.0 0
374000.0 604805.0 0
378000.0 604787.0 0
382000.0 604731.0 0
386000.0 604745.0 0
390000.0 604741.0 0
394000.0 604755.0 0
398000.0 604771.0 0
POINT_DATA 4650
SCALARS Radius float 1
LOOKUP_TABLE default
4000.0 4000.0 4000.0 4000.0 4000.0 4000.0 4000.0 4000.0 4000.0 4000.0 4000.0 4000.0 4000.0 4000.0 4000.0 4000.0 4000.0 4000.0 4000.0 4000.0 4000.0 4000.0 4000.0 4000.0 4000.0 4000.0 4000.0 4000.0 4000.0 4000.0 4000.0 4000.0 4000.0 4000.0 4000.0 4000.0 4000.0 4000.0 4000.0 4000.0 4000.0 4000.0 4000.0 4000.0 4000.0 4000.0 4000.0 4000.0 4000.0 4000.0 4000.0 4000.0 4000.0 4000.0 4000.0 4000.0 4000.0 4000.0 4000.0 4000.0 4000.0 4000.0 4000.0 4000.0 4000.0 4000.0 4000.0 4000.0 4000.0 4000.0 4000.0 4000.0 4000.0 4000.0 4000.0 4000.0 4000.0 4000.0 4000.0 4000.0 4000.0 4000.0 4000.0 4000.0 4000.0 4000.0 4000.0 4000.0 4000.0 4000.0 4000.0 4000.0 4000.0 4000.0 4000.0 4000.0 4000.0 4000.0 4000.0 4000.0 4000.0 4000.0 4000.0 4000.0 4000.0 4000.0 4000.0 4000.0 4000.0 4000.0 4000.0 4000.0 4000.0 4000.0 4000.0 4000.0 4000.0 4000.0 4000.0 4000.0 4000.0 4000.0 4000.0 4000.0 4000.0 4000.0 4000.0 4000.0 4000.0 4000.0 4000.0 4000.0 4000.0 4000.0 4000.0 4000.0 4000.0 4000.0 4000.0 4000.0 4000.0 4000.0 4000.0 4000.0 4000.0 4000.0 4000.0 4000.0 4000.0 4000.0 4000.0 4000.0 4000.0 4000.0 4000.0 4000.0 4000.0 4000.0 4000.0 4000.0 4000.0 4000.0 4000.0 4000.0 4000.0 4000.0 4000.0 4000.0 4000.0 4000.0 4000.0 4000.0 4000.0 4000.0 4000.0 4000.0 4000.0 4000.0 4000.0 4000.0 4000.0 4000.0 4000.0 4000.0 4000.0 4000.0 4000.0 4000.0 4000.0 4000.0 4000.0 4000.0 4000.0 4000.0 4000.0 4000.0 4000.0 4000.0 4000.0 4000.0 4000.0 4000.0 4000.0 4000.0 4000.0 4000.0 4000.0 4000.0 4000.0 4000.0 4000.0 4000.0 4000.0 4000.0 4000.0 4000.0 4000.0 4000.0 4000.0 4000.0 4000.0 4000.0 4000.0 4000.0 4000.0 4000.0 4000.0 4000.0 4000.0 4000.0 4000.0 4000.0 4000.0 4000.0 4000.0 4000.0 4000.0 4000.0 4000.0 4000.0 4000.0 4000.0 4000.0 4000.0 4000.0 4000.0 4000.0 4000.0 4000.0 4000.0 4000.0 4000.0 4000.0 4000.0 4000.0 4000.0 4000.0 4000.0 4000.0 4000.0 4000.0 4000.0 4000.0 4000.0 4000.0 4000.0 4000.0 4000.0 4000.0 4000.0 4000.0 4000.0 4000.0 4000.0 4000.0 4000.0 4000.0 4000.0 4000.0 4000.0 4000.0 4000.0 4000.0 4000.0 4000.0 4000.0 4000.0 4000.0 4000.0 4000.0 4000.0 4000.0 4000.0 4000.0 4000.0 4000.0 4000.0 4000.0 4000.0 4000.0 4000.0 4000.0 4000.0 4000.0 4000.0 4000.0 4000.0 4000.0 4000.0 4000.0 4000.0 4000.0 4000.0 4000.0 4000.0 4000.0 4000.0 4000.0 4000.0 4000.0 4000.0 4000.0 4000.0 4000.0 4000.0 4000.0 4000.0 4000.0 4000.0 4000.0 4000.0 4000.0 4000.0 4000.0 4000.0 4000.0 4000.0 4000.0 4000.0 4000.0 4000.0 4000.0 4000.0 4000.0 4000.0 4000.0 4000.0 4000.0 4000.0 4000.0 4000.0 4000.0 4000.0 4000.0 4000.0 4000.0 4000.0 4000.0 4000.0 4000.0 4000.0 4000.0 4000.0 4000.0 4000.0 4000.0 4000.0 4000.0 4000.0 4000.0 4000.0 4000.0 4000.0 4000.0 4000.0 4000.0 4000.0 4000.0 4000.0 4000.0 4000.0 4000.0 4000.0 4000.0 4000.0 4000.0 4000.0 4000.0 4000.0 4000.0 4000.0 4000.0 4000.0 4000.0 4000.0 4000.0 4000.0 4000.0 4000.0 4000.0 4000.0 4000.0 4000.0 4000.0 4000.0 4000.0 4000.0 4000.0 4000.0 4000.0 4000.0 4000.0 4000.0 4000.0 4000.0 4000.0 4000.0 4000.0 4000.0 4000.0 4000.0 4000.0 4000.0 4000.0 4000.0 4000.0 4000.0 4000.0 4000.0 4000.0 4000.0 4000.0 4000.0 4000.0 4000.0 4000.0 4000.0 4000.0 4000.0 4000.0 4000.0 4000.0 4000.0 4000.0 4000.0 4000.0 4000.0 4000.0 4000.0 4000.0 4000.0 4000.0 4000.0 4000.0 4000.0 4000.0 4000.0 4000.0 4000.0 4000.0 4000.0 4000.0 4000.0 4000.0 4000.0 4000.0 4000.0 4000.0 4000.0 4000.0 4000.0 4000.0 4000.0 4000.0 4000.0 4000.0 4000.0 4000.0 4000.0 4000.0 4000.0 4000.0 4000.0 4000.0 4000.0 4000.0 4000.0 4000.0 4000.0 4000.0 4000.0 4000.0 4000.0 4000.0 4000.0 4000.0 4000.0 4000.0 4000.0 4000.0 4000.0 4000.0 4000.0 4000.0 4000.0 4000.0 4000.0 4000.0 4000.0 4000.0 4000.0 4000.0 4000.0 4000.0 4000.0 4000.0 4000.0 4000.0 4000.0 4000.0 4000.0 4000.0 4000.0 4000.0 4000.0 4000.0 4000.0 4000.0 4000.0 4000.0 4000.0 4000.0 4000.0 4000.0 4000.0 4000.0 4000.0 4000.0 4000.0 4000.0 4000.0 4000.0 4000.0 4000.0 4000.0 4000.0 4000.0 4000.0 4000.0 4000.0 4000.0 4000.0 4000.0 4000.0 4000.0 4000.0 4000.0 4000.0 4000.0 4000.0 4000.0 4000.0 4000.0 4000.0 4000.0 4000.0 4000.0 4000.0 4000.0 4000.0 4000.0 4000.0 4000.0 4000.0 4000.0 4000.0 4000.0 4000.0 4000.0 4000.0 4000.0 4000.0 4000.0 4000.0 4000.0 4000.0 4000.0 4000.0 4000.0 4000.0 4000.0 4000.0 4000.0 4000.0 4000.0 4000.0 4000.0 4000.0 4000.0 4000.0 4000.0 4000.0 4000.0 4000.0 4000.0 4000.0 4000.0 4000.0 4000.0 4000.0 4000.0 4000.0 4000.0 4000.0 4000.0 4000.0 4000.0 4000.0 4000.0 4000.0 4000.0 4000.0 4000.0 4000.0 4000.0 4000.0 4000.0 4000.0 4000.0 4000.0 4000.0 4000.0 4000.0 4000.0 4000.0 4000.0 4000.0 4000.0 4000.0 4000.0 4000.0 4000.0 4000.0 4000.0 4000.0 4000.0 4000.0 4000.0 4000.0 4000.0 4000.0 4000.0 4000.0 4000.0 4000.0 4000.0 4000.0 4000.0 4000.0 4000.0 4000.0 4000.0 4000.0 4000.0 4000.0 4000.0 4000.0 4000.0 4000.0 4000.0 4000.0 4000.0 4000.0 4000.0 4000.0 4000.0 4000.0 4000.0 4000.0 4000.0 4000.0 4000.0 4000.0 4000.0 4000.0 4000.0 4000.0 4000.0 4000.0 4000.0 4000.0 4000.0 4000.0 4000.0 4000.0 4000.0 4000.0 4000.0 4000.0 4000.0 4000.0 4000.0 4000.0 4000.0 4000.0 4000.0 4000.0 4000.0 4000.0 4000.0 4000.0 4000.0 4000.0 4000.0 4000.0 4000.0 4000.0 4000.0 4000.0 4000.0 4000.0 4000.0 4000.0 4000.0 4000.0 4000.0 4000.0 4000.0 4000.0 4000.0 4000.0 4000.0 4000.0 4000.0 4000.0 4000.0 4000.0 4000.0 4000.0 4000.0 4000.0 4000.0 4000.0 4000.0 4000.0 4000.0 4000.0 4000.0 4000.0 4000.0 4000.0 4000.0 4000.0 4000.0 4000.0 4000.0 4000.0 4000.0 4000.0 4000.0 4000.0 4000.0 4000.0 4000.0 4000.0 4000.0 4000.0 4000.0 4000.0 4000.0 4000.0 4000.0 4000.0 4000.0 4000.0 4000.0 4000.0 4000.0 4000.0 4000.0 4000.0 4000.0 4000.0 4000.0 4000.0 4000.0 4000.0 4000.0 4000.0 4000.0 4000.0 4000.0 4000.0 4000.0 4000.0 4000.0 4000.0 4000.0 4000.0 4000.0 4000.0 4000.0 4000.0 4000.0 4000.0 4000.0 4000.0 4000.0 4000.0 4000.0 4000.0 4000.0 4000.0 4000.0 4000.0 4000.0 4000.0 4000.0 4000.0 4000.0 4000.0 4000.0 4000.0 4000.0 4000.0 4000.0 4000.0 4000.0 4000.0 4000.0 4000.0 4000.0 4000.0 4000.0 4000.0 4000.0 4000.0 4000.0 4000.0 4000.0 4000.0 4000.0 4000.0 4000.0 4000.0 4000.0 4000.0 4000.0 4000.0 4000.0 4000.0 4000.0 4000.0 4000.0 4000.0 4000.0 4000.0 4000.0 4000.0 4000.0 4000.0 4000.0 4000.0 4000.0 4000.0 4000.0 4000.0 4000.0 4000.0 4000.0 4000.0 4000.0 4000.0 4000.0 4000.0 4000.0 4000.0 4000.0 4000.0 4000.0 4000.0 4000.0 4000.0 4000.0 4000.0 4000.0 4000.0 4000.0 4000.0 4000.0 4000.0 4000.0 4000.0 4000.0 4000.0 4000.0 4000.0 4000.0 4000.0 4000.0 4000.0 4000.0 4000.0 4000.0 4000.0 4000.0 4000.0 4000.0 4000.0 4000.0 4000.0 4000.0 4000.0 4000.0 4000.0 4000.0 4000.0 4000.0 4000.0 4000.0 4000.0 4000.0 4000.0 4000.0 4000.0 4000.0 4000.0 4000.0 4000.0 4000.0 4000.0 4000.0 4000.0 4000.0 4000.0 4000.0 4000.0 4000.0 4000.0 4000.0 4000.0 4000.0 4000.0 4000.0 4000.0 4000.0 4000.0 4000.0 4000.0 4000.0 4000.0 4000.0 4000.0 4000.0 4000.0 4000.0 4000.0 4000.0 4000.0 4000.0 4000.0 4000.0 4000.0 4000.0 4000.0 4000.0 4000.0 4000.0 4000.0 4000.0 4000.0 4000.0 4000.0 4000.0 4000.0 4000.0 4000.0 4000.0 4000.0 4000.0 4000.0 4000.0 4000.0 4000.0 4000.0 4000.0 4000.0 4000.0 4000.0 4000.0 4000.0 4000.0 4000.0 4000.0 4000.0 4000.0 4000.0 4000.0 4000.0 4000.0 4000.0 4000.0 4000.0 4000.0 4000.0 4000.0 4000.0 4000.0 4000.0 4000.0 4000.0 4000.0 4000.0 4000.0 4000.0 4000.0 4000.0 4000.0 4000.0 4000.0 4000.0 4000.0 4000.0 4000.0 4000.0 4000.0 4000.0 4000.0 4000.0 4000.0 4000.0 4000.0 4000.0 4000.0 4000.0 4000.0 4000.0 4000.0 4000.0 4000.0 4000.0 4000.0 4000.0 4000.0 4000.0 4000.0 4000.0 4000.0 4000.0 4000.0 4000.0 4000.0 4000.0 4000.0 4000.0 4000.0 4000.0 4000.0 4000.0 4000.0 4000.0 4000.0 4000.0 4000.0 4000.0 4000.0 4000.0 4000.0 4000.0 4000.0 4000.0 4000.0 4000.0 4000.0 4000.0 4000.0 4000.0 4000.0 4000.0 4000.0 4000.0 4000.0 4000.0 4000.0 4000.0 4000.0 4000.0 4000.0 4000.0 4000.0 4000.0 4000.0 4000.0 4000.0 4000.0 4000.0 4000.0 4000.0 4000.0 4000.0 4000.0 4000.0 4000.0 4000.0 4000.0 4000.0 4000.0 4000.0 4000.0 4000.0 4000.0 4000.0 4000.0 4000.0 4000.0 4000.0 4000.0 4000.0 4000.0 4000.0 4000.0 4000.0 4000.0 4000.0 4000.0 4000.0 4000.0 4000.0 4000.0 4000.0 4000.0 4000.0 4000.0 4000.0 4000.0 4000.0 4000.0 4000.0 4000.0 4000.0 4000.0 4000.0 4000.0 4000.0 4000.0 4000.0 4000.0 4000.0 4000.0 4000.0 4000.0 4000.0 4000.0 4000.0 4000.0 4000.0 4000.0 4000.0 4000.0 4000.0 4000.0 4000.0 4000.0 4000.0 4000.0 4000.0 4000.0 4000.0 4000.0 4000.0 4000.0 4000.0 4000.0 4000.0 4000.0 4000.0 4000.0 4000.0 4000.0 4000.0 4000.0 4000.0 4000.0 4000.0 4000.0 4000.0 4000.0 4000.0 4000.0 4000.0 4000.0 4000.0 4000.0 4000.0 4000.0 4000.0 4000.0 4000.0 4000.0 4000.0 4000.0 4000.0 4000.0 4000.0 4000.0 4000.0 4000.0 4000.0 4000.0 4000.0 4000.0 4000.0 4000.0 4000.0 4000.0 4000.0 4000.0 4000.0 4000.0 4000.0 4000.0 4000.0 4000.0 4000.0 4000.0 4000.0 4000.0 4000.0 4000.0 4000.0 4000.0 4000.0 4000.0 4000.0 4000.0 4000.0 4000.0 4000.0 4000.0 4000.0 4000.0 4000.0 4000.0 4000.0 4000.0 4000.0 4000.0 4000.0 4000.0 4000.0 4000.0 4000.0 4000.0 4000.0 4000.0 4000.0 4000.0 4000.0 4000.0 4000.0 4000.0 4000.0 4000.0 4000.0 4000.0 4000.0 4000.0 4000.0 4000.0 4000.0 4000.0 4000.0 4000.0 4000.0 4000.0 4000.0 4000.0 4000.0 4000.0 4000.0 4000.0 4000.0 4000.0 4000.0 4000.0 4000.0 4000.0 4000.0 4000.0 4000.0 4000.0 4000.0 4000.0 4000.0 4000.0 4000.0 4000.0 4000.0 4000.0 4000.0 4000.0 4000.0 4000.0 4000.0 4000.0 4000.0 4000.0 4000.0 4000.0 4000.0 4000.0 4000.0 4000.0 4000.0 4000.0 4000.0 4000.0 4000.0 4000.0 4000.0 4000.0 4000.0 4000.0 4000.0 4000.0 4000.0 4000.0 4000.0 4000.0 4000.0 4000.0 4000.0 4000.0 4000.0 4000.0 4000.0 4000.0 4000.0 4000.0 4000.0 4000.0 4000.0 4000.0 4000.0 4000.0 4000.0 4000.0 4000.0 4000.0 4000.0 4000.0 4000.0 4000.0 4000.0 4000.0 4000.0 4000.0 4000.0 4000.0 4000.0 4000.0 4000.0 4000.0 4000.0 4000.0 4000.0 4000.0 4000.0 4000.0 4000.0 4000.0 4000.0 4000.0 4000.0 4000.0 4000.0 4000.0 4000.0 4000.0 4000.0 4000.0 4000.0 4000.0 4000.0 4000.0 4000.0 4000.0 4000.0 4000.0 4000.0 4000.0 4000.0 4000.0 4000.0 4000.0 4000.0 4000.0 4000.0 4000.0 4000.0 4000.0 4000.0 4000.0 4000.0 4000.0 4000.0 4000.0 4000.0 4000.0 4000.0 4000.0 4000.0 4000.0 4000.0 4000.0 4000.0 4000.0 4000.0 4000.0 4000.0 4000.0 4000.0 4000.0 4000.0 4000.0 4000.0 4000.0 4000.0 4000.0 4000.0 4000.0 4000.0 4000.0 4000.0 4000.0 4000.0 4000.0 4000.0 4000.0 4000.0 4000.0 4000.0 4000.0 4000.0 4000.0 4000.0 4000.0 4000.0 4000.0 4000.0 4000.0 4000.0 4000.0 4000.0 4000.0 4000.0 4000.0 4000.0 4000.0 4000.0 4000.0 4000.0 4000.0 4000.0 4000.0 4000.0 4000.0 4000.0 4000.0 4000.0 4000.0 4000.0 4000.0 4000.0 4000.0 4000.0 4000.0 4000.0 4000.0 4000.0 4000.0 4000.0 4000.0 4000.0 4000.0 4000.0 4000.0 4000.0 4000.0 4000.0 4000.0 4000.0 4000.0 4000.0 4000.0 4000.0 4000.0 4000.0 4000.0 4000.0 4000.0 4000.0 4000.0 4000.0 4000.0 4000.0 4000.0 4000.0 4000.0 4000.0 4000.0 4000.0 4000.0 4000.0 4000.0 4000.0 4000.0 4000.0 4000.0 4000.0 4000.0 4000.0 4000.0 4000.0 4000.0 4000.0 4000.0 4000.0 4000.0 4000.0 4000.0 4000.0 4000.0 4000.0 4000.0 4000.0 4000.0 4000.0 4000.0 4000.0 4000.0 4000.0 4000.0 4000.0 4000.0 4000.0 4000.0 4000.0 4000.0 4000.0 4000.0 4000.0 4000.0 4000.0 4000.0 4000.0 4000.0 4000.0 4000.0 4000.0 4000.0 4000.0 4000.0 4000.0 4000.0 4000.0 4000.0 4000.0 4000.0 4000.0 4000.0 4000.0 4000.0 4000.0 4000.0 4000.0 4000.0 4000.0 4000.0 4000.0 4000.0 4000.0 4000.0 4000.0 4000.0 4000.0 4000.0 4000.0 4000.0 4000.0 4000.0 4000.0 4000.0 4000.0 4000.0 4000.0 4000.0 4000.0 4000.0 4000.0 4000.0 4000.0 4000.0 4000.0 4000.0 4000.0 4000.0 4000.0 4000.0 4000.0 4000.0 4000.0 4000.0 4000.0 4000.0 4000.0 4000.0 4000.0 4000.0 4000.0 4000.0 4000.0 4000.0 4000.0 4000.0 4000.0 4000.0 4000.0 4000.0 4000.0 4000.0 4000.0 4000.0 4000.0 4000.0 4000.0 4000.0 4000.0 4000.0 4000.0 4000.0 4000.0 4000.0 4000.0 4000.0 4000.0 4000.0 4000.0 4000.0 4000.0 4000.0 4000.0 4000.0 4000.0 4000.0 4000.0 4000.0 4000.0 4000.0 4000.0 4000.0 4000.0 4000.0 4000.0 4000.0 4000.0 4000.0 4000.0 4000.0 4000.0 4000.0 4000.0 4000.0 4000.0 4000.0 4000.0 4000.0 4000.0 4000.0 4000.0 4000.0 4000.0 4000.0 4000.0 4000.0 4000.0 4000.0 4000.0 4000.0 4000.0 4000.0 4000.0 4000.0 4000.0 4000.0 4000.0 4000.0 4000.0 4000.0 4000.0 4000.0 4000.0 4000.0 4000.0 4000.0 4000.0 4000.0 4000.0 4000.0 4000.0 4000.0 4000.0 4000.0 4000.0 4000.0 4000.0 4000.0 4000.0 4000.0 4000.0 4000.0 4000.0 4000.0 4000.0 4000.0 4000.0 4000.0 4000.0 4000.0 4000.0 4000.0 4000.0 4000.0 4000.0 4000.0 4000.0 4000.0 4000.0 4000.0 4000.0 4000.0 4000.0 4000.0 4000.0 4000.0 4000.0 4000.0 4000.0 4000.0 4000.0 4000.0 4000.0 4000.0 4000.0 4000.0 4000.0 4000.0 4000.0 4000.0 4000.0 4000.0 4000.0 4000.0 4000.0 4000.0 4000.0 4000.0 4000.0 4000.0 4000.0 4000.0 4000.0 4000.0 4000.0 4000.0 4000.0 4000.0 4000.0 4000.0 4000.0 4000.0 4000.0 4000.0 4000.0 4000.0 4000.0 4000.0 4000.0 4000.0 4000.0 4000.0 4000.0 4000.0 4000.0 4000.0 4000.0 4000.0 4000.0 4000.0 4000.0 4000.0 4000.0 4000.0 4000.0 4000.0 4000.0 4000.0 4000.0 4000.0 4000.0 4000.0 4000.0 4000.0 4000.0 4000.0 4000.0 4000.0 4000.0 4000.0 4000.0 4000.0 4000.0 4000.0 4000.0 4000.0 4000.0 4000.0 4000.0 4000.0 4000.0 4000.0 4000.0 4000.0 4000.0 4000.0 4000.0 4000.0 4000.0 4000.0 4000.0 4000.0 4000.0 4000.0 4000.0 4000.0 4000.0 4000.0 4000.0 4000.0 4000.0 4000.0 4000.0 4000.0 4000.0 4000.0 4000.0 4000.0 4000.0 4000.0 4000.0 4000.0 4000.0 4000.0 4000.0 4000.0 4000.0 4000.0 4000.0 4000.0 4000.0 4000.0 4000.0 4000.0 4000.0 4000.0 4000.0 4000.0 4000.0 4000.0 4000.0 4000.0 4000.0 4000.0 4000.0 4000.0 4000.0 4000.0 4000.0 4000.0 4000.0 4000.0 4000.0 4000.0 4000.0 4000.0 4000.0 4000.0 4000.0 4000.0 4000.0 4000.0 4000.0 4000.0 4000.0 4000.0 4000.0 4000.0 4000.0 4000.0 4000.0 4000.0 4000.0 4000.0 4000.0 4000.0 4000.0 4000.0 4000.0 4000.0 4000.0 4000.0 4000.0 4000.0 4000.0 4000.0 4000.0 4000.0 4000.0 4000.0 4000.0 4000.0 4000.0 4000.0 4000.0 4000.0 4000.0 4000.0 4000.0 4000.0 4000.0 4000.0 4000.0 4000.0 4000.0 4000.0 4000.0 4000.0 4000.0 4000.0 4000.0 4000.0 4000.0 4000.0 4000.0 4000.0 4000.0 4000.0 4000.0 4000.0 4000.0 4000.0 4000.0 4000.0 4000.0 4000.0 4000.0 4000.0 4000.0 4000.0 4000.0 4000.0 4000.0 4000.0 4000.0 4000.0 4000.0 4000.0 4000.0 4000.0 4000.0 4000.0 4000.0 4000.0 4000.0 4000.0 4000.0 4000.0 4000.0 4000.0 4000.0 4000.0 4000.0 4000.0 4000.0 4000.0 4000.0 4000.0 4000.0 4000.0 4000.0 4000.0 4000.0 4000.0 4000.0 4000.0 4000.0 4000.0 4000.0 4000.0 4000.0 4000.0 4000.0 4000.0 4000.0 4000.0 4000.0 4000.0 4000.0 4000.0 4000.0 4000.0 4000.0 4000.0 4000.0 4000.0 4000.0 4000.0 4000.0 4000.0 4000.0 4000.0 4000.0 4000.0 4000.0 4000.0 4000.0 4000.0 4000.0 4000.0 4000.0 4000.0 4000.0 4000.0 4000.0 4000.0 4000.0 4000.0 4000.0 4000.0 4000.0 4000.0 4000.0 4000.0 4000.0 4000.0 4000.0 4000.0 4000.0 4000.0 4000.0 4000.0 4000.0 4000.0 4000.0 4000.0 4000.0 4000.0 4000.0 4000.0 4000.0 4000.0 4000.0 4000.0 4000.0 4000.0 4000.0 4000.0 4000.0 4000.0 4000.0 4000.0 4000.0 4000.0 4000.0 4000.0 4000.0 4000.0 4000.0 4000.0 4000.0 4000.0 4000.0 4000.0 4000.0 4000.0 4000.0 4000.0 4000.0 4000.0 4000.0 4000.0 4000.0 4000.0 4000.0 4000.0 4000.0 4000.0 4000.0 4000.0 4000.0 4000.0 4000.0 4000.0 4000.0 4000.0 4000.0 4000.0 4000.0 4000.0 4000.0 4000.0 4000.0 4000.0 4000.0 4000.0 4000.0 4000.0 4000.0 4000.0 4000.0 4000.0 4000.0 4000.0 4000.0 4000.0 4000.0 4000.0 4000.0 4000.0 4000.0 4000.0 4000.0 4000.0 4000.0 4000.0 4000.0 4000.0 4000.0 4000.0 4000.0 4000.0 4000.0 4000.0 4000.0 4000.0 4000.0 4000.0 4000.0 4000.0 4000.0 4000.0 4000.0 4000.0 4000.0 4000.0 4000.0 4000.0 4000.0 4000.0 4000.0 4000.0 4000.0 4000.0 4000.0 4000.0 4000.0 4000.0 4000.0 4000.0 4000.0 4000.0 4000.0 4000.0 4000.0 4000.0 4000.0 4000.0 4000.0 4000.0 4000.0 4000.0 4000.0 4000.0 4000.0 4000.0 4000.0 4000.0 4000.0 4000.0 4000.0 4000.0 4000.0 4000.0 4000.0 4000.0 4000.0 4000.0 4000.0 4000.0 4000.0 4000.0 4000.0 4000.0 4000.0 4000.0 4000.0 4000.0 4000.0 4000.0 4000.0 4000.0 4000.0 4000.0 4000.0 4000.0 4000.0 4000.0 4000.0 4000.0 4000.0 4000.0 4000.0 4000.0 4000.0 4000.0 4000.0 4000.0 4000.0 4000.0 4000.0 4000.0 4000.0 4000.0 4000.0 4000.0 4000.0 4000.0 4000.0 4000.0 4000.0 4000.0 4000.0 4000.0 4000.0 4000.0 4000.0 4000.0 4000.0 4000.0 4000.0 4000.0 4000.0 4000.0 4000.0 4000.0 4000.0 4000.0 4000.0 4000.0 4000.0 4000.0 4000.0 4000.0 4000.0 4000.0 4000.0 4000.0 4000.0 4000.0 4000.0 4000.0 4000.0 4000.0 4000.0 4000.0 4000.0 4000.0 4000.0 4000.0 4000.0 4000.0 4000.0 4000.0 4000.0 4000.0 4000.0 4000.0 4000.0 4000.0 4000.0 4000.0 4000.0 4000.0 4000.0 4000.0 4000.0 4000.0 4000.0 4000.0 4000.0 4000.0 4000.0 4000.0 4000.0 4000.0 4000.0 4000.0 4000.0 4000.0 4000.0 4000.0 4000.0 4000.0 4000.0 4000.0 4000.0 4000.0 4000.0 4000.0 4000.0 4000.0 4000.0 4000.0 4000.0 4000.0 4000.0 4000.0 4000.0 4000.0 4000.0 4000.0 4000.0 4000.0 4000.0 4000.0 4000.0 4000.0 4000.0 4000.0 4000.0 4000.0 4000.0 4000.0 4000.0 4000.0 4000.0 4000.0 4000.0 4000.0 4000.0 4000.0 4000.0 4000.0 4000.0 4000.0 4000.0 4000.0 4000.0 4000.0 4000.0 4000.0 4000.0 4000.0 4000.0 4000.0 4000.0 4000.0 4000.0 4000.0 4000.0 4000.0 4000.0 4000.0 4000.0 4000.0 4000.0 4000.0 4000.0 4000.0 4000.0 4000.0 4000.0 4000.0 4000.0 4000.0 4000.0 4000.0 4000.0 4000.0 4000.0 4000.0 4000.0 4000.0 4000.0 4000.0 4000.0 4000.0 4000.0 4000.0 4000.0 4000.0 4000.0 4000.0 4000.0 4000.0 4000.0 4000.0 4000.0 4000.0 4000.0 4000.0 4000.0 4000.0 4000.0 4000.0 4000.0 4000.0 4000.0 4000.0 4000.0 4000.0 4000.0 4000.0 4000.0 4000.0 4000.0 4000.0 4000.0 4000.0 4000.0 4000.0 4000.0 4000.0 4000.0 4000.0 4000.0 4000.0 4000.0 4000.0 4000.0 4000.0 4000.0 4000.0 4000.0 4000.0 4000.0 4000.0 4000.0 4000.0 4000.0 4000.0 4000.0 4000.0 4000.0 4000.0 4000.0 4000.0 4000.0 4000.0 4000.0 4000.0 4000.0 4000.0 4000.0 4000.0 4000.0 4000.0 4000.0 4000.0 4000.0 4000.0 4000.0 4000.0 4000.0 4000.0 4000.0 4000.0 4000.0 4000.0 4000.0 4000.0 4000.0 4000.0 4000.0 4000.0 4000.0 4000.0 4000.0 4000.0 4000.0 4000.0 4000.0 4000.0 4000.0 4000.0 4000.0 4000.0 4000.0 4000.0 4000.0 4000.0 4000.0 4000.0 4000.0 4000.0 4000.0 4000.0 4000.0 4000.0 4000.0 4000.0 4000.0 4000.0 4000.0 4000.0 4000.0 4000.0 4000.0 4000.0 4000.0 4000.0 4000.0 4000.0 4000.0 4000.0 4000.0 4000.0 4000.0 4000.0 4000.0 4000.0 4000.0 4000.0 4000.0 4000.0 4000.0 4000.0 4000.0 4000.0 4000.0 4000.0 4000.0 4000.0 4000.0 4000.0 4000.0 4000.0 4000.0 4000.0 4000.0 4000.0 4000.0 4000.0 4000.0 4000.0 4000.0 4000.0 4000.0 4000.0 4000.0 4000.0 4000.0 4000.0 4000.0 4000.0 4000.0 4000.0 4000.0 4000.0 4000.0 4000.0 4000.0 4000.0 4000.0 4000.0 4000.0 4000.0 4000.0 4000.0 4000.0 4000.0 4000.0 4000.0 4000.0 4000.0 4000.0 4000.0 4000.0 4000.0 4000.0 4000.0 4000.0 4000.0 4000.0 4000.0 4000.0 4000.0 4000.0 4000.0 4000.0 4000.0 4000.0 4000.0 4000.0 4000.0 4000.0 4000.0 4000.0 4000.0 4000.0 4000.0 4000.0 4000.0 4000.0 4000.0 4000.0 4000.0 4000.0 4000.0 4000.0 4000.0 4000.0 4000.0 4000.0 4000.0 4000.0 4000.0 4000.0 4000.0 4000.0 4000.0 4000.0 4000.0 4000.0 4000.0 4000.0 4000.0 4000.0 4000.0 4000.0 4000.0 4000.0 4000.0 4000.0 4000.0 4000.0 4000.0 4000.0 4000.0 4000.0 4000.0 4000.0 4000.0 4000.0 4000.0 4000.0 4000.0 4000.0 4000.0 4000.0 4000.0 4000.0 4000.0 4000.0 4000.0 4000.0 4000.0 4000.0 4000.0 4000.0 4000.0 4000.0 4000.0 4000.0 4000.0 4000.0 4000.0 4000.0 4000.0 4000.0 4000.0 4000.0 4000.0 4000.0 4000.0 4000.0 4000.0 4000.0 4000.0 4000.0 4000.0 4000.0 4000.0 4000.0 4000.0 4000.0 4000.0 4000.0 4000.0 4000.0 4000.0 4000.0 4000.0 4000.0 4000.0 4000.0 4000.0 4000.0 4000.0 4000.0 4000.0 4000.0 4000.0 4000.0 4000.0 4000.0 4000.0 4000.0 4000.0 4000.0 4000.0 4000.0 4000.0 4000.0 4000.0 4000.0 4000.0 4000.0 4000.0 4000.0 4000.0 4000.0 4000.0 4000.0 4000.0 4000.0 4000.0 4000.0 4000.0 4000.0 4000.0 4000.0 4000.0 4000.0 4000.0 4000.0 4000.0 4000.0 4000.0 4000.0 4000.0 4000.0 4000.0 4000.0 4000.0 4000.0 4000.0 4000.0 4000.0 4000.0 4000.0 4000.0 4000.0 4000.0 4000.0 4000.0 4000.0 4000.0 4000.0 4000.0 4000.0 4000.0 4000.0 4000.0 4000.0 4000.0 4000.0 4000.0 4000.0 4000.0 4000.0 4000.0 4000.0 4000.0 4000.0 4000.0 4000.0 4000.0 4000.0 4000.0 4000.0 4000.0 4000.0 4000.0 4000.0 4000.0 4000.0 4000.0 4000.0 4000.0 4000.0 4000.0 4000.0 4000.0 4000.0 4000.0 4000.0 4000.0 4000.0 4000.0 4000.0 4000.0 4000.0 4000.0 4000.0 4000.0 4000.0 4000.0 4000.0 4000.0 4000.0 4000.0 4000.0 4000.0 4000.0 4000.0 4000.0 4000.0 4000.0 4000.0 4000.0 4000.0 4000.0 4000.0 4000.0 4000.0 4000.0 4000.0 4000.0 4000.0 4000.0 4000.0 4000.0 4000.0 4000.0 4000.0 4000.0 4000.0 4000.0 4000.0 4000.0 4000.0 4000.0 4000.0 4000.0 4000.0 4000.0 4000.0 4000.0 4000.0 4000.0 4000.0 4000.0 4000.0 4000.0 4000.0 4000.0 4000.0 4000.0 4000.0 4000.0 4000.0 4000.0 4000.0 4000.0 4000.0 4000.0 4000.0 4000.0 4000.0 4000.0 4000.0 4000.0 4000.0 4000.0 4000.0 4000.0 4000.0 4000.0 4000.0 4000.0 4000.0 4000.0 4000.0 4000.0 4000.0 4000.0 4000.0 4000.0 4000.0 4000.0 4000.0 4000.0 4000.0 4000.0 4000.0 4000.0 4000.0 4000.0 4000.0 4000.0 4000.0 4000.0 4000.0 4000.0 4000.0 4000.0 4000.0 4000.0 4000.0 4000.0 4000.0 4000.0 4000.0 4000.0 4000.0 4000.0 4000.0 4000.0 4000.0 4000.0 4000.0 4000.0 4000.0 4000.0 4000.0 4000.0 4000.0 4000.0 4000.0 4000.0 4000.0 4000.0 4000.0 4000.0 4000.0 4000.0 4000.0 4000.0 4000.0 4000.0 4000.0 4000.0 4000.0 4000.0 4000.0 4000.0 4000.0 4000.0 4000.0 4000.0 4000.0 4000.0 4000.0 4000.0 4000.0 4000.0 4000.0 4000.0 4000.0 4000.0 4000.0 4000.0 4000.0 4000.0 4000.0 4000.0 4000.0 4000.0 4000.0 4000.0 4000.0 4000.0 4000.0 4000.0 4000.0 4000.0 4000.0 4000.0 4000.0 4000.0 4000.0 4000.0 4000.0 4000.0 4000.0 4000.0 4000.0 4000.0 4000.0 4000.0 4000.0 4000.0 4000.0 4000.0 4000.0 4000.0 4000.0 4000.0 4000.0 4000.0 4000.0 4000.0 4000.0 4000.0 4000.0 4000.0 4000.0 4000.0 4000.0 4000.0 4000.0 4000.0 4000.0 4000.0 4000.0 4000.0 4000.0 4000.0 4000.0 4000.0 4000.0 4000.0 4000.0 4000.0 4000.0 4000.0 4000.0 4000.0 4000.0 4000.0 4000.0 4000.0 4000.0 4000.0 4000.0 4000.0 4000.0 4000.0 4000.0 4000.0 4000.0 4000.0 4000.0 4000.0 4000.0 4000.0 4000.0 4000.0 4000.0 4000.0 4000.0 4000.0 4000.0 4000.0 4000.0 4000.0 4000.0 4000.0 4000.0 4000.0 4000.0 4000.0 4000.0 4000.0 4000.0 4000.0 4000.0 4000.0 4000.0 4000.0 4000.0 4000.0 4000.0 4000.0 4000.0 4000.0 4000.0 4000.0 4000.0 4000.0 4000.0 4000.0 4000.0 4000.0 4000.0 4000.0 4000.0 4000.0 4000.0 4000.0 4000.0 4000.0 4000.0 4000.0 4000.0 4000.0 4000.0 4000.0 4000.0 4000.0 4000.0 4000.0 4000.0 4000.0 4000.0 4000.0 4000.0 4000.0 4000.0 4000.0 4000.0 4000.0 4000.0 4000.0 4000.0 4000.0 4000.0 4000.0 4000.0 4000.0 4000.0 4000.0 4000.0 4000.0 4000.0 4000.0 4000.0 4000.0 4000.0 4000.0 4000.0 4000.0 4000.0 4000.0 4000.0 4000.0 4000.0 4000.0 4000.0 4000.0 4000.0 4000.0 4000.0 4000.0 4000.0 4000.0 4000.0 4000.0 4000.0 4000.0 4000.0 4000.0 4000.0 4000.0 4000.0 4000.0 4000.0 4000.0 4000.0 4000.0 4000.0 4000.0 4000.0 4000.0 4000.0 4000.0 4000.0 4000.0 4000.0 4000.0 4000.0 4000.0 4000.0 4000.0 4000.0 4000.0 4000.0 4000.0 4000.0 4000.0 4000.0 4000.0 4000.0 4000.0 4000.0 4000.0 4000.0 4000.0 4000.0 4000.0 4000.0 4000.0 4000.0 4000.0 4000.0 4000.0 4000.0 4000.0 4000.0 4000.0 4000.0 4000.0 4000.0 4000.0 4000.0 4000.0 4000.0 4000.0 4000.0 4000.0 4000.0 4000.0 4000.0 4000.0 4000.0 4000.0 4000.0 4000.0 4000.0 4000.0 4000.0 4000.0 4000.0 4000.0 4000.0 4000.0 4000.0 4000.0 4000.0 4000.0 4000.0 4000.0 4000.0 4000.0 4000.0 4000.0 4000.0 4000.0 4000.0 4000.0 4000.0 4000.0 4000.0 4000.0 4000.0 4000.0 4000.0 4000.0 4000.0 4000.0 4000.0 4000.0 4000.0 4000.0 4000.0 4000.0 4000.0 4000.0 4000.0 4000.0 4000.0 4000.0 4000.0 4000.0 4000.0 4000.0 4000.0 4000.0 4000.0 4000.0 4000.0 4000.0 4000.0 4000.0 4000.0 4000.0 4000.0 4000.0 4000.0 4000.0 4000.0 4000.0 4000.0 4000.0 4000.0 4000.0 4000.0 4000.0 4000.0 4000.0 4000.0 4000.0 4000.0 4000.0 4000.0 4000.0 4000.0 4000.0 4000.0 4000.0 4000.0 4000.0 4000.0 4000.0 4000.0 4000.0 4000.0 4000.0 4000.0 4000.0 4000.0 4000.0 4000.0 4000.0 4000.0 4000.0 4000.0 4000.0 4000.0 4000.0 4000.0 4000.0 4000.0 4000.0 4000.0 4000.0 4000.0 4000.0 4000.0 4000.0 4000.0 4000.0 4000.0 4000.0 4000.0 4000.0 4000.0 4000.0 4000.0 4000.0 4000.0 4000.0 4000.0 4000.0 4000.0 4000.0 4000.0 4000.0 4000.0 4000.0 4000.0 4000.0 4000.0 4000.0 4000.0 4000.0 4000.0 4000.0 4000.0 4000.0 4000.0 4000.0 4000.0 4000.0 4000.0 4000.0 4000.0 4000.0 4000.0 4000.0 4000.0 4000.0 4000.0 4000.0 4000.0 4000.0 4000.0 4000.0 4000.0 4000.0 4000.0 4000.0 4000.0 4000.0 4000.0 4000.0 4000.0 4000.0 4000.0 4000.0 4000.0 4000.0 4000.0 4000.0 4000.0 4000.0 4000.0 4000.0 4000.0 4000.0 4000.0 4000.0 4000.0 4000.0 4000.0 4000.0 4000.0 4000.0 4000.0 4000.0 4000.0 4000.0 4000.0 4000.0 4000.0 4000.0 4000.0 4000.0 4000.0 4000.0 4000.0 4000.0 4000.0 4000.0 4000.0 4000.0 4000.0 4000.0 4000.0 4000.0 4000.0 4000.0 4000.0 4000.0 4000.0 4000.0 4000.0 4000.0 4000.0 4000.0 4000.0 4000.0 4000.0 4000.0 4000.0 4000.0 4000.0 4000.0 4000.0 4000.0 4000.0 4000.0 4000.0 4000.0 4000.0 4000.0 4000.0 4000.0 4000.0 4000.0 4000.0 4000.0 4000.0 4000.0 4000.0 4000.0 4000.0 4000.0 4000.0 4000.0 4000.0 4000.0 4000.0 4000.0 4000.0 4000.0 4000.0 4000.0 4000.0 4000.0 4000.0 4000.0 4000.0 4000.0 4000.0 4000.0 4000.0 4000.0 4000.0 4000.0 4000.0 4000.0 4000.0 4000.0 4000.0 4000.0 4000.0 4000.0 4000.0 4000.0 4000.0 4000.0 4000.0 4000.0 4000.0 4000.0 4000.0 4000.0 4000.0 4000.0 4000.0 4000.0 4000.0 4000.0 4000.0 4000.0 4000.0 4000.0 4000.0 4000.0 4000.0 4000.0 4000.0 4000.0 4000.0 4000.0 4000.0 4000.0 4000.0 4000.0 4000.0 4000.0 4000.0 4000.0 4000.0 4000.0 4000.0 4000.0 4000.0 4000.0 4000.0 4000.0 4000.0 4000.0 4000.0 4000.0 4000.0 4000.0 4000.0 4000.0 4000.0 4000.0 4000.0 4000.0 4000.0 4000.0 4000.0 4000.0 4000.0 4000.0 4000.0 4000.0 4000.0 4000.0 4000.0 4000.0 4000.0 4000.0 4000.0 4000.0 4000.0 4000.0 4000.0 4000.0 4000.0 4000.0 4000.0 4000.0 4000.0 4000.0 4000.0 4000.0 4000.0 4000.0 4000.0 4000.0 4000.0 4000.0 4000.0 4000.0 4000.0 4000.0 4000.0 4000.0 4000.0 4000.0 4000.0 4000.0 4000.0 4000.0 4000.0 4000.0 4000.0 4000.0 4000.0 4000.0 4000.0 4000.0 4000.0 4000.0 4000.0 4000.0 4000.0 4000.0 4000.0 4000.0 4000.0 4000.0 4000.0 4000.0 4000.0 4000.0 4000.0 4000.0 4000.0 4000.0 4000.0 4000.0 4000.0 4000.0 4000.0 4000.0 4000.0 4000.0 4000.0 4000.0 4000.0 4000.0 4000.0 4000.0 4000.0 4000.0 4000.0 4000.0 4000.0 4000.0 4000.0 4000.0 4000.0 4000.0 4000.0 4000.0 4000.0 4000.0 4000.0 4000.0 4000.0 4000.0 4000.0 4000.0 4000.0 4000.0 4000.0 4000.0 4000.0 4000.0 4000.0 4000.0 4000.0 4000.0 4000.0 4000.0 4000.0 4000.0 4000.0 4000.0 4000.0 4000.0 4000.0 4000.0 4000.0 4000.0 4000.0 4000.0 4000.0 4000.0 4000.0 4000.0 4000.0 4000.0 4000.0 4000.0 4000.0 4000.0 4000.0 4000.0 4000.0 4000.0 4000.0 4000.0 4000.0 4000.0 4000.0 4000.0 4000.0 4000.0 4000.0 4000.0 4000.0 4000.0 4000.0 4000.0 4000.0 4000.0 4000.0 4000.0 4000.0 4000.0 4000.0 4000.0 4000.0 4000.0 4000.0 4000.0 4000.0 4000.0 4000.0 4000.0 4000.0 4000.0 4000.0 4000.0 4000.0 4000.0 4000.0 4000.0 4000.0 4000.0 4000.0 4000.0 4000.0 4000.0 4000.0 4000.0 4000.0 4000.0 4000.0 4000.0 4000.0 4000.0 4000.0 4000.0 4000.0 4000.0 4000.0 4000.0 4000.0 4000.0 4000.0 4000.0 4000.0 4000.0 4000.0 4000.0 4000.0 4000.0 4000.0 4000.0 4000.0 4000.0 4000.0 4000.0 4000.0 4000.0 4000.0 4000.0 4000.0 4000.0 4000.0 4000.0 4000.0 4000.0 4000.0 4000.0 4000.0 4000.0 4000.0 4000.0 4000.0 4000.0 4000.0 4000.0 4000.0 4000.0 4000.0 4000.0 4000.0 4000.0 4000.0 4000.0 4000.0 4000.0 4000.0 4000.0 4000.0 4000.0 4000.0 4000.0 4000.0 4000.0 4000.0 4000.0 4000.0 4000.0 4000.0 4000.0 4000.0 4000.0 4000.0 4000.0 4000.0 4000.0 4000.0 4000.0 4000.0 4000.0 4000.0 4000.0 4000.0 4000.0 4000.0 4000.0 4000.0 4000.0 4000.0 4000.0 4000.0 4000.0 4000.0 4000.0 4000.0 4000.0 4000.0 4000.0 4000.0 4000.0 4000.0 4000.0 4000.0 4000.0 4000.0 4000.0 4000.0 4000.0 4000.0 4000.0 4000.0 4000.0 4000.0 4000.0 4000.0 4000.0 4000.0 4000.0 4000.0 4000.0 4000.0 4000.0 4000.0 4000.0 4000.0 4000.0 4000.0 4000.0 4000.0 4000.0 4000.0 4000.0 4000.0 4000.0 4000.0 4000.0 4000.0 4000.0 4000.0 4000.0 4000.0 4000.0 4000.0 4000.0 4000.0 4000.0 4000.0 4000.0 4000.0 4000.0 4000.0 4000.0 4000.0 4000.0 4000.0 4000.0 4000.0 4000.0 4000.0 4000.0 4000.0 4000.0 4000.0 4000.0 4000.0 4000.0 4000.0 4000.0 4000.0 4000.0 4000.0 4000.0 4000.0 4000.0 4000.0 4000.0 4000.0 4000.0 4000.0 4000.0 4000.0 4000.0 4000.0 4000.0 4000.0 4000.0 4000.0 4000.0 4000.0 4000.0 4000.0 4000.0 4000.0 4000.0 4000.0 4000.0 4000.0 4000.0 4000.0 4000.0 4000.0 4000.0 4000.0 4000.0 4000.0 4000.0 4000.0 4000.0 4000.0 4000.0 4000.0 4000.0 4000.0 4000.0 4000.0 4000.0 4000.0 4000.0 4000.0 4000.0 4000.0 4000.0 4000.0 4000.0 4000.0 4000.0 4000.0 4000.0 4000.0 4000.0 4000.0 4000.0 4000.0 4000.0 4000.0 4000.0 4000.0 4000.0 4000.0 4000.0 4000.0 4000.0 4000.0 4000.0 4000.0 4000.0 4000.0 4000.0 4000.0 4000.0 4000.0 4000.0 4000.0 4000.0 4000.0 4000.0 4000.0 4000.0 4000.0 4000.0 4000.0 4000.0 4000.0 4000.0 4000.0 4000.0 4000.0 4000.0 4000.0 4000.0 4000.0 4000.0 4000.0 4000.0 4000.0 4000.0 4000.0 4000.0 4000.0 4000.0 4000.0 4000.0 4000.0 4000.0 4000.0 4000.0 4000.0 4000.0 4000.0 4000.0 4000.0 4000.0 4000.0 4000.0 4000.0 4000.0 4000.0 4000.0 4000.0 4000.0 4000.0 4000.0 4000.0 4000.0 4000.0 4000.0 4000.0 4000.0 4000.0 4000.0 4000.0 4000.0 4000.0 4000.0 4000.0 4000.0 4000.0 4000.0 4000.0 4000.0 4000.0 4000.0 4000.0 4000.0 4000.0 4000.0 4000.0 4000.0 4000.0 4000.0 4000.0 4000.0 4000.0 4000.0 4000.0 4000.0 4000.0 4000.0 4000.0 4000.0 4000.0 4000.0 4000.0 4000.0 4000.0 4000.0 4000.0 4000.0 4000.0 4000.0 4000.0 4000.0 4000.0 4000.0 4000.0 4000.0 4000.0 4000.0 4000.0 4000.0 4000.0 4000.0 4000.0 4000.0 4000.0 4000.0 4000.0 4000.0 4000.0 4000.0 4000.0 4000.0 4000.0 4000.0 4000.0 4000.0 4000.0 4000.0 4000.0 4000.0 4000.0 4000.0 4000.0 4000.0 4000.0 4000.0 4000.0 4000.0 4000.0 4000.0 4000.0 4000.0 4000.0 4000.0 4000.0 4000.0 4000.0 4000.0 4000.0 4000.0 4000.0 4000.0 4000.0 4000.0 4000.0 4000.0 4000.0 4000.0 4000.0 4000.0 4000.0 4000.0 4000.0 4000.0 4000.0 4000.0 4000.0 4000.0 4000.0 4000.0 4000.0 4000.0 4000.0 4000.0 4000.0 4000.0 4000.0 4000.0 4000.0 4000.0 4000.0 4000.0 4000.0 4000.0 4000.0 4000.0 4000.0 4000.0 4000.0 4000.0 4000.0 4000.0 4000.0 4000.0 4000.0 4000.0 4000.0 4000.0 4000.0 4000.0 4000.0 4000.0 4000.0 4000.0 4000.0 4000.0 4000.0 4000.0 4000.0 4000.0 4000.0 4000.0 4000.0 4000.0 4000.0 4000.0 4000.0 4000.0 4000.0 4000.0 4000.0 4000.0 4000.0 4000.0 4000.0 4000.0 4000.0 4000.0 4000.0 4000.0 4000.0 4000.0 4000.0 4000.0 4000.0 4000.0 4000.0 4000.0 4000.0 4000.0 4000.0 4000.0 4000.0 4000.0 4000.0 4000.0 4000.0 4000.0 4000.0 4000.0 4000.0 4000.0 4000.0 4000.0 4000.0 4000.0 4000.0 4000.0 4000.0 4000.0 4000.0 4000.0 4000.0 4000.0 4000.0 4000.0 4000.0 4000.0 4000.0 4000.0 4000.0 4000.0 4000.0 4000.0 4000.0 4000.0 4000.0 4000.0 4000.0 4000.0 4000.0 4000.0 4000.0 4000.0 4000.0 4000.0 4000.0 4000.0 4000.0 4000.0 4000.0 4000.0 4000.0 4000.0 4000.0 4000.0 4000.0 4000.0 4000.0 4000.0 4000.0 4000.0 4000.0 4000.0 4000.0 4000.0 4000.0 4000.0 4000.0 4000.0 4000.0 4000.0 4000.0 4000.0 4000.0 4000.0 4000.0 4000.0 4000.0 4000.0 4000.0 4000.0 4000.0 4000.0 4000.0 4000.0 4000.0 4000.0 4000.0 4000.0 4000.0 4000.0 4000.0 4000.0 4000.0 4000.0 4000.0 4000.0 4000.0 4000.0 4000.0 4000.0 4000.0 4000.0 4000.0 4000.0 4000.0 4000.0 4000.0 4000.0 4000.0 4000.0 4000.0 4000.0 4000.0 4000.0 4000.0 4000.0 4000.0 4000.0 4000.0 4000.0 4000.0 4000.0 4000.0 4000.0 4000.0 4000.0 4000.0 4000.0 4000.0 4000.0 4000.0 4000.0 4000.0 4000.0 4000.0 4000.0 4000.0 4000.0 4000.0 4000.0 4000.0 4000.0 4000.0 4000.0 4000.0 4000.0 4000.0 4000.0 4000.0 4000.0 4000.0 4000.0 4000.0 4000.0 4000.0 4000.0 4000.0 4000.0 4000.0 4000.0 4000.0 4000.0 4000.0 4000.0 4000.0 4000.0 4000.0 4000.0 4000.0 4000.0 4000.0 4000.0 4000.0 4000.0 4000.0 4000.0 4000.0 4000.0 4000.0 4000.0 4000.0 4000.0 4000.0 4000.0 4000.0 4000.0 4000.0 4000.0 4000.0 4000.0 4000.0 4000.0 4000.0 4000.0 4000.0 4000.0 4000.0 4000.0 4000.0 4000.0 4000.0 4000.0 4000.0 4000.0 4000.0 4000.0 4000.0 4000.0 4000.0 4000.0 4000.0 4000.0 4000.0 4000.0 4000.0 4000.0 4000.0 4000.0 4000.0 4000.0 4000.0 4000.0 4000.0 4000.0 4000.0 4000.0 4000.0 4000.0 4000.0 4000.0 4000.0 4000.0 4000.0 4000.0 4000.0 4000.0 4000.0 4000.0 4000.0 4000.0 4000.0 4000.0 4000.0 4000.0 4000.0 4000.0 4000.0 4000.0 4000.0 4000.0 4000.0 4000.0 4000.0 4000.0 4000.0 4000.0 4000.0 4000.0 4000.0 4000.0 4000.0 4000.0 4000.0 4000.0 4000.0 4000.0 4000.0 4000.0 4000.0 4000.0 4000.0 4000.0 4000.0 4000.0 4000.0 4000.0 4000.0 4000.0 4000.0 4000.0 4000.0 4000.0 4000.0 4000.0 4000.0 4000.0 4000.0 4000.0 4000.0 4000.0 4000.0 4000.0 4000.0 4000.0 4000.0 4000.0 4000.0 4000.0 4000.0 4000.0 4000.0 4000.0 4000.0 4000.0 4000.0 4000.0 4000.0 4000.0 4000.0 4000.0 4000.0 4000.0 4000.0 4000.0 4000.0 4000.0 4000.0 4000.0 4000.0 4000.0 4000.0 4000.0 4000.0 4000.0 4000.0 4000.0 4000.0 4000.0 4000.0 4000.0 4000.0 4000.0 4000.0 4000.0 4000.0 4000.0 4000.0 4000.0 4000.0 4000.0 4000.0 4000.0 4000.0 4000.0 4000.0 4000.0 4000.0 4000.0 4000.0 4000.0 4000.0 4000.0 4000.0 4000.0 4000.0 4000.0 4000.0 4000.0 4000.0 4000.0 4000.0 4000.0 4000.0 4000.0 4000.0 4000.0 4000.0 4000.0 4000.0 4000.0 4000.0 4000.0 4000.0 4000.0 4000.0 4000.0 4000.0 4000.0 4000.0 4000.0 4000.0 4000.0 4000.0 4000.0 4000.0 4000.0 4000.0 4000.0 4000.0 4000.0 4000.0 SCALARS Mass float 1
LOOKUP_TABLE default
11309700000.0 11309700000.0 11309700000.0 11309700000.0 11309700000.0 11309700000.0 11309700000.0 11309700000.0 11309700000.0 11309700000.0 11309700000.0 11309700000.0 11309700000.0 11309700000.0 11309700000.0 11309700000.0 11309700000.0 11309700000.0 11309700000.0 11309700000.0 11309700000.0 11309700000.0 11309700000.0 11309700000.0 11309700000.0 11309700000.0 11309700000.0 11309700000.0 11309700000.0 11309700000.0 11309700000.0 11309700000.0 11309700000.0 11309700000.0 11309700000.0 11309700000.0 11309700000.0 11309700000.0 11309700000.0 11309700000.0 11309700000.0 11309700000.0 11309700000.0 11309700000.0 11309700000.0 11309700000.0 11309700000.0 11309700000.0 11309700000.0 11309700000.0 11309700000.0 11309700000.0 11309700000.0 11309700000.0 11309700000.0 11309700000.0 11309700000.0 11309700000.0 11309700000.0 11309700000.0 11309700000.0 11309700000.0 11309700000.0 11309700000.0 11309700000.0 11309700000.0 11309700000.0 11309700000.0 11309700000.0 11309700000.0 11309700000.0 11309700000.0 11309700000.0 11309700000.0 11309700000.0 11309700000.0 11309700000.0 11309700000.0 11309700000.0 11309700000.0 11309700000.0 11309700000.0 11309700000.0 11309700000.0 11309700000.0 11309700000.0 11309700000.0 11309700000.0 11309700000.0 11309700000.0 11309700000.0 11309700000.0 11309700000.0 11309700000.0 11309700000.0 11309700000.0 11309700000.0 11309700000.0 11309700000.0 11309700000.0 11309700000.0 11309700000.0 11309700000.0 11309700000.0 11309700000.0 11309700000.0 11309700000.0 11309700000.0 11309700000.0 11309700000.0 11309700000.0 11309700000.0 11309700000.0 11309700000.0 11309700000.0 11309700000.0 11309700000.0 11309700000.0 11309700000.0 11309700000.0 11309700000.0 11309700000.0 11309700000.0 11309700000.0 11309700000.0 11309700000.0 11309700000.0 11309700000.0 11309700000.0 11309700000.0 11309700000.0 11309700000.0 11309700000.0 11309700000.0 11309700000.0 11309700000.0 11309700000.0 11309700000.0 11309700000.0 11309700000.0 11309700000.0 11309700000.0 11309700000.0 11309700000.0 11309700000.0 11309700000.0 11309700000.0 11309700000.0 11309700000.0 11309700000.0 11309700000.0 11309700000.0 11309700000.0 11309700000.0 11309700000.0 11309700000.0 11309700000.0 11309700000.0 11309700000.0 11309700000.0 11309700000.0 11309700000.0 11309700000.0 11309700000.0 11309700000.0 11309700000.0 11309700000.0 11309700000.0 11309700000.0 11309700000.0 11309700000.0 11309700000.0 11309700000.0 11309700000.0 11309700000.0 11309700000.0 11309700000.0 11309700000.0 11309700000.0 11309700000.0 11309700000.0 11309700000.0 11309700000.0 11309700000.0 11309700000.0 11309700000.0 11309700000.0 11309700000.0 11309700000.0 11309700000.0 11309700000.0 11309700000.0 11309700000.0 11309700000.0 11309700000.0 11309700000.0 11309700000.0 11309700000.0 11309700000.0 11309700000.0 11309700000.0 11309700000.0 11309700000.0 11309700000.0 11309700000.0 11309700000.0 11309700000.0 11309700000.0 11309700000.0 11309700000.0 11309700000.0 11309700000.0 11309700000.0 11309700000.0 11309700000.0 11309700000.0 11309700000.0 11309700000.0 11309700000.0 11309700000.0 11309700000.0 11309700000.0 11309700000.0 11309700000.0 11309700000.0 11309700000.0 11309700000.0 11309700000.0 11309700000.0 11309700000.0 11309700000.0 11309700000.0 11309700000.0 11309700000.0 11309700000.0 11309700000.0 11309700000.0 11309700000.0 11309700000.0 11309700000.0 11309700000.0 11309700000.0 11309700000.0 11309700000.0 11309700000.0 11309700000.0 11309700000.0 11309700000.0 11309700000.0 11309700000.0 11309700000.0 11309700000.0 11309700000.0 11309700000.0 11309700000.0 11309700000.0 11309700000.0 11309700000.0 11309700000.0 11309700000.0 11309700000.0 11309700000.0 11309700000.0 11309700000.0 11309700000.0 11309700000.0 11309700000.0 11309700000.0 11309700000.0 11309700000.0 11309700000.0 11309700000.0 11309700000.0 11309700000.0 11309700000.0 11309700000.0 11309700000.0 11309700000.0 11309700000.0 11309700000.0 11309700000.0 11309700000.0 11309700000.0 11309700000.0 11309700000.0 11309700000.0 11309700000.0 11309700000.0 11309700000.0 11309700000.0 11309700000.0 11309700000.0 11309700000.0 11309700000.0 11309700000.0 11309700000.0 11309700000.0 11309700000.0 11309700000.0 11309700000.0 11309700000.0 11309700000.0 11309700000.0 11309700000.0 11309700000.0 11309700000.0 11309700000.0 11309700000.0 11309700000.0 11309700000.0 11309700000.0 11309700000.0 11309700000.0 11309700000.0 11309700000.0 11309700000.0 11309700000.0 11309700000.0 11309700000.0 11309700000.0 11309700000.0 11309700000.0 11309700000.0 11309700000.0 11309700000.0 11309700000.0 11309700000.0 11309700000.0 11309700000.0 11309700000.0 11309700000.0 11309700000.0 11309700000.0 11309700000.0 11309700000.0 11309700000.0 11309700000.0 11309700000.0 11309700000.0 11309700000.0 11309700000.0 11309700000.0 11309700000.0 11309700000.0 11309700000.0 11309700000.0 11309700000.0 11309700000.0 11309700000.0 11309700000.0 11309700000.0 11309700000.0 11309700000.0 11309700000.0 11309700000.0 11309700000.0 11309700000.0 11309700000.0 11309700000.0 11309700000.0 11309700000.0 11309700000.0 11309700000.0 11309700000.0 11309700000.0 11309700000.0 11309700000.0 11309700000.0 11309700000.0 11309700000.0 11309700000.0 11309700000.0 11309700000.0 11309700000.0 11309700000.0 11309700000.0 11309700000.0 11309700000.0 11309700000.0 11309700000.0 11309700000.0 11309700000.0 11309700000.0 11309700000.0 11309700000.0 11309700000.0 11309700000.0 11309700000.0 11309700000.0 11309700000.0 11309700000.0 11309700000.0 11309700000.0 11309700000.0 11309700000.0 11309700000.0 11309700000.0 11309700000.0 11309700000.0 11309700000.0 11309700000.0 11309700000.0 11309700000.0 11309700000.0 11309700000.0 11309700000.0 11309700000.0 11309700000.0 11309700000.0 11309700000.0 11309700000.0 11309700000.0 11309700000.0 11309700000.0 11309700000.0 11309700000.0 11309700000.0 11309700000.0 11309700000.0 11309700000.0 11309700000.0 11309700000.0 11309700000.0 11309700000.0 11309700000.0 11309700000.0 11309700000.0 11309700000.0 11309700000.0 11309700000.0 11309700000.0 11309700000.0 11309700000.0 11309700000.0 11309700000.0 11309700000.0 11309700000.0 11309700000.0 11309700000.0 11309700000.0 11309700000.0 11309700000.0 11309700000.0 11309700000.0 11309700000.0 11309700000.0 11309700000.0 11309700000.0 11309700000.0 11309700000.0 11309700000.0 11309700000.0 11309700000.0 11309700000.0 11309700000.0 11309700000.0 11309700000.0 11309700000.0 11309700000.0 11309700000.0 11309700000.0 11309700000.0 11309700000.0 11309700000.0 11309700000.0 11309700000.0 11309700000.0 11309700000.0 11309700000.0 11309700000.0 11309700000.0 11309700000.0 11309700000.0 11309700000.0 11309700000.0 11309700000.0 11309700000.0 11309700000.0 11309700000.0 11309700000.0 11309700000.0 11309700000.0 11309700000.0 11309700000.0 11309700000.0 11309700000.0 11309700000.0 11309700000.0 11309700000.0 11309700000.0 11309700000.0 11309700000.0 11309700000.0 11309700000.0 11309700000.0 11309700000.0 11309700000.0 11309700000.0 11309700000.0 11309700000.0 11309700000.0 11309700000.0 11309700000.0 11309700000.0 11309700000.0 11309700000.0 11309700000.0 11309700000.0 11309700000.0 11309700000.0 11309700000.0 11309700000.0 11309700000.0 11309700000.0 11309700000.0 11309700000.0 11309700000.0 11309700000.0 11309700000.0 11309700000.0 11309700000.0 11309700000.0 11309700000.0 11309700000.0 11309700000.0 11309700000.0 11309700000.0 11309700000.0 11309700000.0 11309700000.0 11309700000.0 11309700000.0 11309700000.0 11309700000.0 11309700000.0 11309700000.0 11309700000.0 11309700000.0 11309700000.0 11309700000.0 11309700000.0 11309700000.0 11309700000.0 11309700000.0 11309700000.0 11309700000.0 11309700000.0 11309700000.0 11309700000.0 11309700000.0 11309700000.0 11309700000.0 11309700000.0 11309700000.0 11309700000.0 11309700000.0 11309700000.0 11309700000.0 11309700000.0 11309700000.0 11309700000.0 11309700000.0 11309700000.0 11309700000.0 11309700000.0 11309700000.0 11309700000.0 11309700000.0 11309700000.0 11309700000.0 11309700000.0 11309700000.0 11309700000.0 11309700000.0 11309700000.0 11309700000.0 11309700000.0 11309700000.0 11309700000.0 11309700000.0 11309700000.0 11309700000.0 11309700000.0 11309700000.0 11309700000.0 11309700000.0 11309700000.0 11309700000.0 11309700000.0 11309700000.0 11309700000.0 11309700000.0 11309700000.0 11309700000.0 11309700000.0 11309700000.0 11309700000.0 11309700000.0 11309700000.0 11309700000.0 11309700000.0 11309700000.0 11309700000.0 11309700000.0 11309700000.0 11309700000.0 11309700000.0 11309700000.0 11309700000.0 11309700000.0 11309700000.0 11309700000.0 11309700000.0 11309700000.0 11309700000.0 11309700000.0 11309700000.0 11309700000.0 11309700000.0 11309700000.0 11309700000.0 11309700000.0 11309700000.0 11309700000.0 11309700000.0 11309700000.0 11309700000.0 11309700000.0 11309700000.0 11309700000.0 11309700000.0 11309700000.0 11309700000.0 11309700000.0 11309700000.0 11309700000.0 11309700000.0 11309700000.0 11309700000.0 11309700000.0 11309700000.0 11309700000.0 11309700000.0 11309700000.0 11309700000.0 11309700000.0 11309700000.0 11309700000.0 11309700000.0 11309700000.0 11309700000.0 11309700000.0 11309700000.0 11309700000.0 11309700000.0 11309700000.0 11309700000.0 11309700000.0 11309700000.0 11309700000.0 11309700000.0 11309700000.0 11309700000.0 11309700000.0 11309700000.0 11309700000.0 11309700000.0 11309700000.0 11309700000.0 11309700000.0 11309700000.0 11309700000.0 11309700000.0 11309700000.0 11309700000.0 11309700000.0 11309700000.0 11309700000.0 11309700000.0 11309700000.0 11309700000.0 11309700000.0 11309700000.0 11309700000.0 11309700000.0 11309700000.0 11309700000.0 11309700000.0 11309700000.0 11309700000.0 11309700000.0 11309700000.0 11309700000.0 11309700000.0 11309700000.0 11309700000.0 11309700000.0 11309700000.0 11309700000.0 11309700000.0 11309700000.0 11309700000.0 11309700000.0 11309700000.0 11309700000.0 11309700000.0 11309700000.0 11309700000.0 11309700000.0 11309700000.0 11309700000.0 11309700000.0 11309700000.0 11309700000.0 11309700000.0 11309700000.0 11309700000.0 11309700000.0 11309700000.0 11309700000.0 11309700000.0 11309700000.0 11309700000.0 11309700000.0 11309700000.0 11309700000.0 11309700000.0 11309700000.0 11309700000.0 11309700000.0 11309700000.0 11309700000.0 11309700000.0 11309700000.0 11309700000.0 11309700000.0 11309700000.0 11309700000.0 11309700000.0 11309700000.0 11309700000.0 11309700000.0 11309700000.0 11309700000.0 11309700000.0 11309700000.0 11309700000.0 11309700000.0 11309700000.0 11309700000.0 11309700000.0 11309700000.0 11309700000.0 11309700000.0 11309700000.0 11309700000.0 11309700000.0 11309700000.0 11309700000.0 11309700000.0 11309700000.0 11309700000.0 11309700000.0 11309700000.0 11309700000.0 11309700000.0 11309700000.0 11309700000.0 11309700000.0 11309700000.0 11309700000.0 11309700000.0 11309700000.0 11309700000.0 11309700000.0 11309700000.0 11309700000.0 11309700000.0 11309700000.0 11309700000.0 11309700000.0 11309700000.0 11309700000.0 11309700000.0 11309700000.0 11309700000.0 11309700000.0 11309700000.0 11309700000.0 11309700000.0 11309700000.0 11309700000.0 11309700000.0 11309700000.0 11309700000.0 11309700000.0 11309700000.0 11309700000.0 11309700000.0 11309700000.0 11309700000.0 11309700000.0 11309700000.0 11309700000.0 11309700000.0 11309700000.0 11309700000.0 11309700000.0 11309700000.0 11309700000.0 11309700000.0 11309700000.0 11309700000.0 11309700000.0 11309700000.0 11309700000.0 11309700000.0 11309700000.0 11309700000.0 11309700000.0 11309700000.0 11309700000.0 11309700000.0 11309700000.0 11309700000.0 11309700000.0 11309700000.0 11309700000.0 11309700000.0 11309700000.0 11309700000.0 11309700000.0 11309700000.0 11309700000.0 11309700000.0 11309700000.0 11309700000.0 11309700000.0 11309700000.0 11309700000.0 11309700000.0 11309700000.0 11309700000.0 11309700000.0 11309700000.0 11309700000.0 11309700000.0 11309700000.0 11309700000.0 11309700000.0 11309700000.0 11309700000.0 11309700000.0 11309700000.0 11309700000.0 11309700000.0 11309700000.0 11309700000.0 11309700000.0 11309700000.0 11309700000.0 11309700000.0 11309700000.0 11309700000.0 11309700000.0 11309700000.0 11309700000.0 11309700000.0 11309700000.0 11309700000.0 11309700000.0 11309700000.0 11309700000.0 11309700000.0 11309700000.0 11309700000.0 11309700000.0 11309700000.0 11309700000.0 11309700000.0 11309700000.0 11309700000.0 11309700000.0 11309700000.0 11309700000.0 11309700000.0 11309700000.0 11309700000.0 11309700000.0 11309700000.0 11309700000.0 11309700000.0 11309700000.0 11309700000.0 11309700000.0 11309700000.0 11309700000.0 11309700000.0 11309700000.0 11309700000.0 11309700000.0 11309700000.0 11309700000.0 11309700000.0 11309700000.0 11309700000.0 11309700000.0 11309700000.0 11309700000.0 11309700000.0 11309700000.0 11309700000.0 11309700000.0 11309700000.0 11309700000.0 11309700000.0 11309700000.0 11309700000.0 11309700000.0 11309700000.0 11309700000.0 11309700000.0 11309700000.0 11309700000.0 11309700000.0 11309700000.0 11309700000.0 11309700000.0 11309700000.0 11309700000.0 11309700000.0 11309700000.0 11309700000.0 11309700000.0 11309700000.0 11309700000.0 11309700000.0 11309700000.0 11309700000.0 11309700000.0 11309700000.0 11309700000.0 11309700000.0 11309700000.0 11309700000.0 11309700000.0 11309700000.0 11309700000.0 11309700000.0 11309700000.0 11309700000.0 11309700000.0 11309700000.0 11309700000.0 11309700000.0 11309700000.0 11309700000.0 11309700000.0 11309700000.0 11309700000.0 11309700000.0 11309700000.0 11309700000.0 11309700000.0 11309700000.0 11309700000.0 11309700000.0 11309700000.0 11309700000.0 11309700000.0 11309700000.0 11309700000.0 11309700000.0 11309700000.0 11309700000.0 11309700000.0 11309700000.0 11309700000.0 11309700000.0 11309700000.0 11309700000.0 11309700000.0 11309700000.0 11309700000.0 11309700000.0 11309700000.0 11309700000.0 11309700000.0 11309700000.0 11309700000.0 11309700000.0 11309700000.0 11309700000.0 11309700000.0 11309700000.0 11309700000.0 11309700000.0 11309700000.0 11309700000.0 11309700000.0 11309700000.0 11309700000.0 11309700000.0 11309700000.0 11309700000.0 11309700000.0 11309700000.0 11309700000.0 11309700000.0 11309700000.0 11309700000.0 11309700000.0 11309700000.0 11309700000.0 11309700000.0 11309700000.0 11309700000.0 11309700000.0 11309700000.0 11309700000.0 11309700000.0 11309700000.0 11309700000.0 11309700000.0 11309700000.0 11309700000.0 11309700000.0 11309700000.0 11309700000.0 11309700000.0 11309700000.0 11309700000.0 11309700000.0 11309700000.0 11309700000.0 11309700000.0 11309700000.0 11309700000.0 11309700000.0 11309700000.0 11309700000.0 11309700000.0 11309700000.0 11309700000.0 11309700000.0 11309700000.0 11309700000.0 11309700000.0 11309700000.0 11309700000.0 11309700000.0 11309700000.0 11309700000.0 11309700000.0 11309700000.0 11309700000.0 11309700000.0 11309700000.0 11309700000.0 11309700000.0 11309700000.0 11309700000.0 11309700000.0 11309700000.0 11309700000.0 11309700000.0 11309700000.0 11309700000.0 11309700000.0 11309700000.0 11309700000.0 11309700000.0 11309700000.0 11309700000.0 11309700000.0 11309700000.0 11309700000.0 11309700000.0 11309700000.0 11309700000.0 11309700000.0 11309700000.0 11309700000.0 11309700000.0 11309700000.0 11309700000.0 11309700000.0 11309700000.0 11309700000.0 11309700000.0 11309700000.0 11309700000.0 11309700000.0 11309700000.0 11309700000.0 11309700000.0 11309700000.0 11309700000.0 11309700000.0 11309700000.0 11309700000.0 11309700000.0 11309700000.0 11309700000.0 11309700000.0 11309700000.0 11309700000.0 11309700000.0 11309700000.0 11309700000.0 11309700000.0 11309700000.0 11309700000.0 11309700000.0 11309700000.0 11309700000.0 11309700000.0 11309700000.0 11309700000.0 11309700000.0 11309700000.0 11309700000.0 11309700000.0 11309700000.0 11309700000.0 11309700000.0 11309700000.0 11309700000.0 11309700000.0 11309700000.0 11309700000.0 11309700000.0 11309700000.0 11309700000.0 11309700000.0 11309700000.0 11309700000.0 11309700000.0 11309700000.0 11309700000.0 11309700000.0 11309700000.0 11309700000.0 11309700000.0 11309700000.0 11309700000.0 11309700000.0 11309700000.0 11309700000.0 11309700000.0 11309700000.0 11309700000.0 11309700000.0 11309700000.0 11309700000.0 11309700000.0 11309700000.0 11309700000.0 11309700000.0 11309700000.0 11309700000.0 11309700000.0 11309700000.0 11309700000.0 11309700000.0 11309700000.0 11309700000.0 11309700000.0 11309700000.0 11309700000.0 11309700000.0 11309700000.0 11309700000.0 11309700000.0 11309700000.0 11309700000.0 11309700000.0 11309700000.0 11309700000.0 11309700000.0 11309700000.0 11309700000.0 11309700000.0 11309700000.0 11309700000.0 11309700000.0 11309700000.0 11309700000.0 11309700000.0 11309700000.0 11309700000.0 11309700000.0 11309700000.0 11309700000.0 11309700000.0 11309700000.0 11309700000.0 11309700000.0 11309700000.0 11309700000.0 11309700000.0 11309700000.0 11309700000.0 11309700000.0 11309700000.0 11309700000.0 11309700000.0 11309700000.0 11309700000.0 11309700000.0 11309700000.0 11309700000.0 11309700000.0 11309700000.0 11309700000.0 11309700000.0 11309700000.0 11309700000.0 11309700000.0 11309700000.0 11309700000.0 11309700000.0 11309700000.0 11309700000.0 11309700000.0 11309700000.0 11309700000.0 11309700000.0 11309700000.0 11309700000.0 11309700000.0 11309700000.0 11309700000.0 11309700000.0 11309700000.0 11309700000.0 11309700000.0 11309700000.0 11309700000.0 11309700000.0 11309700000.0 11309700000.0 11309700000.0 11309700000.0 11309700000.0 11309700000.0 11309700000.0 11309700000.0 11309700000.0 11309700000.0 11309700000.0 11309700000.0 11309700000.0 11309700000.0 11309700000.0 11309700000.0 11309700000.0 11309700000.0 11309700000.0 11309700000.0 11309700000.0 11309700000.0 11309700000.0 11309700000.0 11309700000.0 11309700000.0 11309700000.0 11309700000.0 11309700000.0 11309700000.0 11309700000.0 11309700000.0 11309700000.0 11309700000.0 11309700000.0 11309700000.0 11309700000.0 11309700000.0 11309700000.0 11309700000.0 11309700000.0 11309700000.0 11309700000.0 11309700000.0 11309700000.0 11309700000.0 11309700000.0 11309700000.0 11309700000.0 11309700000.0 11309700000.0 11309700000.0 11309700000.0 11309700000.0 11309700000.0 11309700000.0 11309700000.0 11309700000.0 11309700000.0 11309700000.0 11309700000.0 11309700000.0 11309700000.0 11309700000.0 11309700000.0 11309700000.0 11309700000.0 11309700000.0 11309700000.0 11309700000.0 11309700000.0 11309700000.0 11309700000.0 11309700000.0 11309700000.0 11309700000.0 11309700000.0 11309700000.0 11309700000.0 11309700000.0 11309700000.0 11309700000.0 11309700000.0 11309700000.0 11309700000.0 11309700000.0 11309700000.0 11309700000.0 11309700000.0 11309700000.0 11309700000.0 11309700000.0 11309700000.0 11309700000.0 11309700000.0 11309700000.0 11309700000.0 11309700000.0 11309700000.0 11309700000.0 11309700000.0 11309700000.0 11309700000.0 11309700000.0 11309700000.0 11309700000.0 11309700000.0 11309700000.0 11309700000.0 11309700000.0 11309700000.0 11309700000.0 11309700000.0 11309700000.0 11309700000.0 11309700000.0 11309700000.0 11309700000.0 11309700000.0 11309700000.0 11309700000.0 11309700000.0 11309700000.0 11309700000.0 11309700000.0 11309700000.0 11309700000.0 11309700000.0 11309700000.0 11309700000.0 11309700000.0 11309700000.0 11309700000.0 11309700000.0 11309700000.0 11309700000.0 11309700000.0 11309700000.0 11309700000.0 11309700000.0 11309700000.0 11309700000.0 11309700000.0 11309700000.0 11309700000.0 11309700000.0 11309700000.0 11309700000.0 11309700000.0 11309700000.0 11309700000.0 11309700000.0 11309700000.0 11309700000.0 11309700000.0 11309700000.0 11309700000.0 11309700000.0 11309700000.0 11309700000.0 11309700000.0 11309700000.0 11309700000.0 11309700000.0 11309700000.0 11309700000.0 11309700000.0 11309700000.0 11309700000.0 11309700000.0 11309700000.0 11309700000.0 11309700000.0 11309700000.0 11309700000.0 11309700000.0 11309700000.0 11309700000.0 11309700000.0 11309700000.0 11309700000.0 11309700000.0 11309700000.0 11309700000.0 11309700000.0 11309700000.0 11309700000.0 11309700000.0 11309700000.0 11309700000.0 11309700000.0 11309700000.0 11309700000.0 11309700000.0 11309700000.0 11309700000.0 11309700000.0 11309700000.0 11309700000.0 11309700000.0 11309700000.0 11309700000.0 11309700000.0 11309700000.0 11309700000.0 11309700000.0 11309700000.0 11309700000.0 11309700000.0 11309700000.0 11309700000.0 11309700000.0 11309700000.0 11309700000.0 11309700000.0 11309700000.0 11309700000.0 11309700000.0 11309700000.0 11309700000.0 11309700000.0 11309700000.0 11309700000.0 11309700000.0 11309700000.0 11309700000.0 11309700000.0 11309700000.0 11309700000.0 11309700000.0 11309700000.0 11309700000.0 11309700000.0 11309700000.0 11309700000.0 11309700000.0 11309700000.0 11309700000.0 11309700000.0 11309700000.0 11309700000.0 11309700000.0 11309700000.0 11309700000.0 11309700000.0 11309700000.0 11309700000.0 11309700000.0 11309700000.0 11309700000.0 11309700000.0 11309700000.0 11309700000.0 11309700000.0 11309700000.0 11309700000.0 11309700000.0 11309700000.0 11309700000.0 11309700000.0 11309700000.0 11309700000.0 11309700000.0 11309700000.0 11309700000.0 11309700000.0 11309700000.0 11309700000.0 11309700000.0 11309700000.0 11309700000.0 11309700000.0 11309700000.0 11309700000.0 11309700000.0 11309700000.0 11309700000.0 11309700000.0 11309700000.0 11309700000.0 11309700000.0 11309700000.0 11309700000.0 11309700000.0 11309700000.0 11309700000.0 11309700000.0 11309700000.0 11309700000.0 11309700000.0 11309700000.0 11309700000.0 11309700000.0 11309700000.0 11309700000.0 11309700000.0 11309700000.0 11309700000.0 11309700000.0 11309700000.0 11309700000.0 11309700000.0 11309700000.0 11309700000.0 11309700000.0 11309700000.0 11309700000.0 11309700000.0 11309700000.0 11309700000.0 11309700000.0 11309700000.0 11309700000.0 11309700000.0 11309700000.0 11309700000.0 11309700000.0 11309700000.0 11309700000.0 11309700000.0 11309700000.0 11309700000.0 11309700000.0 11309700000.0 11309700000.0 11309700000.0 11309700000.0 11309700000.0 11309700000.0 11309700000.0 11309700000.0 11309700000.0 11309700000.0 11309700000.0 11309700000.0 11309700000.0 11309700000.0 11309700000.0 11309700000.0 11309700000.0 11309700000.0 11309700000.0 11309700000.0 11309700000.0 11309700000.0 11309700000.0 11309700000.0 11309700000.0 11309700000.0 11309700000.0 11309700000.0 11309700000.0 11309700000.0 11309700000.0 11309700000.0 11309700000.0 11309700000.0 11309700000.0 11309700000.0 11309700000.0 11309700000.0 11309700000.0 11309700000.0 11309700000.0 11309700000.0 11309700000.0 11309700000.0 11309700000.0 11309700000.0 11309700000.0 11309700000.0 11309700000.0 11309700000.0 11309700000.0 11309700000.0 11309700000.0 11309700000.0 11309700000.0 11309700000.0 11309700000.0 11309700000.0 11309700000.0 11309700000.0 11309700000.0 11309700000.0 11309700000.0 11309700000.0 11309700000.0 11309700000.0 11309700000.0 11309700000.0 11309700000.0 11309700000.0 11309700000.0 11309700000.0 11309700000.0 11309700000.0 11309700000.0 11309700000.0 11309700000.0 11309700000.0 11309700000.0 11309700000.0 11309700000.0 11309700000.0 11309700000.0 11309700000.0 11309700000.0 11309700000.0 11309700000.0 11309700000.0 11309700000.0 11309700000.0 11309700000.0 11309700000.0 11309700000.0 11309700000.0 11309700000.0 11309700000.0 11309700000.0 11309700000.0 11309700000.0 11309700000.0 11309700000.0 11309700000.0 11309700000.0 11309700000.0 11309700000.0 11309700000.0 11309700000.0 11309700000.0 11309700000.0 11309700000.0 11309700000.0 11309700000.0 11309700000.0 11309700000.0 11309700000.0 11309700000.0 11309700000.0 11309700000.0 11309700000.0 11309700000.0 11309700000.0 11309700000.0 11309700000.0 11309700000.0 11309700000.0 11309700000.0 11309700000.0 11309700000.0 11309700000.0 11309700000.0 11309700000.0 11309700000.0 11309700000.0 11309700000.0 11309700000.0 11309700000.0 11309700000.0 11309700000.0 11309700000.0 11309700000.0 11309700000.0 11309700000.0 11309700000.0 11309700000.0 11309700000.0 11309700000.0 11309700000.0 11309700000.0 11309700000.0 11309700000.0 11309700000.0 11309700000.0 11309700000.0 11309700000.0 11309700000.0 11309700000.0 11309700000.0 11309700000.0 11309700000.0 11309700000.0 11309700000.0 11309700000.0 11309700000.0 11309700000.0 11309700000.0 11309700000.0 11309700000.0 11309700000.0 11309700000.0 11309700000.0 11309700000.0 11309700000.0 11309700000.0 11309700000.0 11309700000.0 11309700000.0 11309700000.0 11309700000.0 11309700000.0 11309700000.0 11309700000.0 11309700000.0 11309700000.0 11309700000.0 11309700000.0 11309700000.0 11309700000.0 11309700000.0 11309700000.0 11309700000.0 11309700000.0 11309700000.0 11309700000.0 11309700000.0 11309700000.0 11309700000.0 11309700000.0 11309700000.0 11309700000.0 11309700000.0 11309700000.0 11309700000.0 11309700000.0 11309700000.0 11309700000.0 11309700000.0 11309700000.0 11309700000.0 11309700000.0 11309700000.0 11309700000.0 11309700000.0 11309700000.0 11309700000.0 11309700000.0 11309700000.0 11309700000.0 11309700000.0 11309700000.0 11309700000.0 11309700000.0 11309700000.0 11309700000.0 11309700000.0 11309700000.0 11309700000.0 11309700000.0 11309700000.0 11309700000.0 11309700000.0 11309700000.0 11309700000.0 11309700000.0 11309700000.0 11309700000.0 11309700000.0 11309700000.0 11309700000.0 11309700000.0 11309700000.0 11309700000.0 11309700000.0 11309700000.0 11309700000.0 11309700000.0 11309700000.0 11309700000.0 11309700000.0 11309700000.0 11309700000.0 11309700000.0 11309700000.0 11309700000.0 11309700000.0 11309700000.0 11309700000.0 11309700000.0 11309700000.0 11309700000.0 11309700000.0 11309700000.0 11309700000.0 11309700000.0 11309700000.0 11309700000.0 11309700000.0 11309700000.0 11309700000.0 11309700000.0 11309700000.0 11309700000.0 11309700000.0 11309700000.0 11309700000.0 11309700000.0 11309700000.0 11309700000.0 11309700000.0 11309700000.0 11309700000.0 11309700000.0 11309700000.0 11309700000.0 11309700000.0 11309700000.0 11309700000.0 11309700000.0 11309700000.0 11309700000.0 11309700000.0 11309700000.0 11309700000.0 11309700000.0 11309700000.0 11309700000.0 11309700000.0 11309700000.0 11309700000.0 11309700000.0 11309700000.0 11309700000.0 11309700000.0 11309700000.0 11309700000.0 11309700000.0 11309700000.0 11309700000.0 11309700000.0 11309700000.0 11309700000.0 11309700000.0 11309700000.0 11309700000.0 11309700000.0 11309700000.0 11309700000.0 11309700000.0 11309700000.0 11309700000.0 11309700000.0 11309700000.0 11309700000.0 11309700000.0 11309700000.0 11309700000.0 11309700000.0 11309700000.0 11309700000.0 11309700000.0 11309700000.0 11309700000.0 11309700000.0 11309700000.0 11309700000.0 11309700000.0 11309700000.0 11309700000.0 11309700000.0 11309700000.0 11309700000.0 11309700000.0 11309700000.0 11309700000.0 11309700000.0 11309700000.0 11309700000.0 11309700000.0 11309700000.0 11309700000.0 11309700000.0 11309700000.0 11309700000.0 11309700000.0 11309700000.0 11309700000.0 11309700000.0 11309700000.0 11309700000.0 11309700000.0 11309700000.0 11309700000.0 11309700000.0 11309700000.0 11309700000.0 11309700000.0 11309700000.0 11309700000.0 11309700000.0 11309700000.0 11309700000.0 11309700000.0 11309700000.0 11309700000.0 11309700000.0 11309700000.0 11309700000.0 11309700000.0 11309700000.0 11309700000.0 11309700000.0 11309700000.0 11309700000.0 11309700000.0 11309700000.0 11309700000.0 11309700000.0 11309700000.0 11309700000.0 11309700000.0 11309700000.0 11309700000.0 11309700000.0 11309700000.0 11309700000.0 11309700000.0 11309700000.0 11309700000.0 11309700000.0 11309700000.0 11309700000.0 11309700000.0 11309700000.0 11309700000.0 11309700000.0 11309700000.0 11309700000.0 11309700000.0 11309700000.0 11309700000.0 11309700000.0 11309700000.0 11309700000.0 11309700000.0 11309700000.0 11309700000.0 11309700000.0 11309700000.0 11309700000.0 11309700000.0 11309700000.0 11309700000.0 11309700000.0 11309700000.0 11309700000.0 11309700000.0 11309700000.0 11309700000.0 11309700000.0 11309700000.0 11309700000.0 11309700000.0 11309700000.0 11309700000.0 11309700000.0 11309700000.0 11309700000.0 11309700000.0 11309700000.0 11309700000.0 11309700000.0 11309700000.0 11309700000.0 11309700000.0 11309700000.0 11309700000.0 11309700000.0 11309700000.0 11309700000.0 11309700000.0 11309700000.0 11309700000.0 11309700000.0 11309700000.0 11309700000.0 11309700000.0 11309700000.0 11309700000.0 11309700000.0 11309700000.0 11309700000.0 11309700000.0 11309700000.0 11309700000.0 11309700000.0 11309700000.0 11309700000.0 11309700000.0 11309700000.0 11309700000.0 11309700000.0 11309700000.0 11309700000.0 11309700000.0 11309700000.0 11309700000.0 11309700000.0 11309700000.0 11309700000.0 11309700000.0 11309700000.0 11309700000.0 11309700000.0 11309700000.0 11309700000.0 11309700000.0 11309700000.0 11309700000.0 11309700000.0 11309700000.0 11309700000.0 11309700000.0 11309700000.0 11309700000.0 11309700000.0 11309700000.0 11309700000.0 11309700000.0 11309700000.0 11309700000.0 11309700000.0 11309700000.0 11309700000.0 11309700000.0 11309700000.0 11309700000.0 11309700000.0 11309700000.0 11309700000.0 11309700000.0 11309700000.0 11309700000.0 11309700000.0 11309700000.0 11309700000.0 11309700000.0 11309700000.0 11309700000.0 11309700000.0 11309700000.0 11309700000.0 11309700000.0 11309700000.0 11309700000.0 11309700000.0 11309700000.0 11309700000.0 11309700000.0 11309700000.0 11309700000.0 11309700000.0 11309700000.0 11309700000.0 11309700000.0 11309700000.0 11309700000.0 11309700000.0 11309700000.0 11309700000.0 11309700000.0 11309700000.0 11309700000.0 11309700000.0 11309700000.0 11309700000.0 11309700000.0 11309700000.0 11309700000.0 11309700000.0 11309700000.0 11309700000.0 11309700000.0 11309700000.0 11309700000.0 11309700000.0 11309700000.0 11309700000.0 11309700000.0 11309700000.0 11309700000.0 11309700000.0 11309700000.0 11309700000.0 11309700000.0 11309700000.0 11309700000.0 11309700000.0 11309700000.0 11309700000.0 11309700000.0 11309700000.0 11309700000.0 11309700000.0 11309700000.0 11309700000.0 11309700000.0 11309700000.0 11309700000.0 11309700000.0 11309700000.0 11309700000.0 11309700000.0 11309700000.0 11309700000.0 11309700000.0 11309700000.0 11309700000.0 11309700000.0 11309700000.0 11309700000.0 11309700000.0 11309700000.0 11309700000.0 11309700000.0 11309700000.0 11309700000.0 11309700000.0 11309700000.0 11309700000.0 11309700000.0 11309700000.0 11309700000.0 11309700000.0 11309700000.0 11309700000.0 11309700000.0 11309700000.0 11309700000.0 11309700000.0 11309700000.0 11309700000.0 11309700000.0 11309700000.0 11309700000.0 11309700000.0 11309700000.0 11309700000.0 11309700000.0 11309700000.0 11309700000.0 11309700000.0 11309700000.0 11309700000.0 11309700000.0 11309700000.0 11309700000.0 11309700000.0 11309700000.0 11309700000.0 11309700000.0 11309700000.0 11309700000.0 11309700000.0 11309700000.0 11309700000.0 11309700000.0 11309700000.0 11309700000.0 11309700000.0 11309700000.0 11309700000.0 11309700000.0 11309700000.0 11309700000.0 11309700000.0 11309700000.0 11309700000.0 11309700000.0 11309700000.0 11309700000.0 11309700000.0 11309700000.0 11309700000.0 11309700000.0 11309700000.0 11309700000.0 11309700000.0 11309700000.0 11309700000.0 11309700000.0 11309700000.0 11309700000.0 11309700000.0 11309700000.0 11309700000.0 11309700000.0 11309700000.0 11309700000.0 11309700000.0 11309700000.0 11309700000.0 11309700000.0 11309700000.0 11309700000.0 11309700000.0 11309700000.0 11309700000.0 11309700000.0 11309700000.0 11309700000.0 11309700000.0 11309700000.0 11309700000.0 11309700000.0 11309700000.0 11309700000.0 11309700000.0 11309700000.0 11309700000.0 11309700000.0 11309700000.0 11309700000.0 11309700000.0 11309700000.0 11309700000.0 11309700000.0 11309700000.0 11309700000.0 11309700000.0 11309700000.0 11309700000.0 11309700000.0 11309700000.0 11309700000.0 11309700000.0 11309700000.0 11309700000.0 11309700000.0 11309700000.0 11309700000.0 11309700000.0 11309700000.0 11309700000.0 11309700000.0 11309700000.0 11309700000.0 11309700000.0 11309700000.0 11309700000.0 11309700000.0 11309700000.0 11309700000.0 11309700000.0 11309700000.0 11309700000.0 11309700000.0 11309700000.0 11309700000.0 11309700000.0 11309700000.0 11309700000.0 11309700000.0 11309700000.0 11309700000.0 11309700000.0 11309700000.0 11309700000.0 11309700000.0 11309700000.0 11309700000.0 11309700000.0 11309700000.0 11309700000.0 11309700000.0 11309700000.0 11309700000.0 11309700000.0 11309700000.0 11309700000.0 11309700000.0 11309700000.0 11309700000.0 11309700000.0 11309700000.0 11309700000.0 11309700000.0 11309700000.0 11309700000.0 11309700000.0 11309700000.0 11309700000.0 11309700000.0 11309700000.0 11309700000.0 11309700000.0 11309700000.0 11309700000.0 11309700000.0 11309700000.0 11309700000.0 11309700000.0 11309700000.0 11309700000.0 11309700000.0 11309700000.0 11309700000.0 11309700000.0 11309700000.0 11309700000.0 11309700000.0 11309700000.0 11309700000.0 11309700000.0 11309700000.0 11309700000.0 11309700000.0 11309700000.0 11309700000.0 11309700000.0 11309700000.0 11309700000.0 11309700000.0 11309700000.0 11309700000.0 11309700000.0 11309700000.0 11309700000.0 11309700000.0 11309700000.0 11309700000.0 11309700000.0 11309700000.0 11309700000.0 11309700000.0 11309700000.0 11309700000.0 11309700000.0 11309700000.0 11309700000.0 11309700000.0 11309700000.0 11309700000.0 11309700000.0 11309700000.0 11309700000.0 11309700000.0 11309700000.0 11309700000.0 11309700000.0 11309700000.0 11309700000.0 11309700000.0 11309700000.0 11309700000.0 11309700000.0 11309700000.0 11309700000.0 11309700000.0 11309700000.0 11309700000.0 11309700000.0 11309700000.0 11309700000.0 11309700000.0 11309700000.0 11309700000.0 11309700000.0 11309700000.0 11309700000.0 11309700000.0 11309700000.0 11309700000.0 11309700000.0 11309700000.0 11309700000.0 11309700000.0 11309700000.0 11309700000.0 11309700000.0 11309700000.0 11309700000.0 11309700000.0 11309700000.0 11309700000.0 11309700000.0 11309700000.0 11309700000.0 11309700000.0 11309700000.0 11309700000.0 11309700000.0 11309700000.0 11309700000.0 11309700000.0 11309700000.0 11309700000.0 11309700000.0 11309700000.0 11309700000.0 11309700000.0 11309700000.0 11309700000.0 11309700000.0 11309700000.0 11309700000.0 11309700000.0 11309700000.0 11309700000.0 11309700000.0 11309700000.0 11309700000.0 11309700000.0 11309700000.0 11309700000.0 11309700000.0 11309700000.0 11309700000.0 11309700000.0 11309700000.0 11309700000.0 11309700000.0 11309700000.0 11309700000.0 11309700000.0 11309700000.0 11309700000.0 11309700000.0 11309700000.0 11309700000.0 11309700000.0 11309700000.0 11309700000.0 11309700000.0 11309700000.0 11309700000.0 11309700000.0 11309700000.0 11309700000.0 11309700000.0 11309700000.0 11309700000.0 11309700000.0 11309700000.0 11309700000.0 11309700000.0 11309700000.0 11309700000.0 11309700000.0 11309700000.0 11309700000.0 11309700000.0 11309700000.0 11309700000.0 11309700000.0 11309700000.0 11309700000.0 11309700000.0 11309700000.0 11309700000.0 11309700000.0 11309700000.0 11309700000.0 11309700000.0 11309700000.0 11309700000.0 11309700000.0 11309700000.0 11309700000.0 11309700000.0 11309700000.0 11309700000.0 11309700000.0 11309700000.0 11309700000.0 11309700000.0 11309700000.0 11309700000.0 11309700000.0 11309700000.0 11309700000.0 11309700000.0 11309700000.0 11309700000.0 11309700000.0 11309700000.0 11309700000.0 11309700000.0 11309700000.0 11309700000.0 11309700000.0 11309700000.0 11309700000.0 11309700000.0 11309700000.0 11309700000.0 11309700000.0 11309700000.0 11309700000.0 11309700000.0 11309700000.0 11309700000.0 11309700000.0 11309700000.0 11309700000.0 11309700000.0 11309700000.0 11309700000.0 11309700000.0 11309700000.0 11309700000.0 11309700000.0 11309700000.0 11309700000.0 11309700000.0 11309700000.0 11309700000.0 11309700000.0 11309700000.0 11309700000.0 11309700000.0 11309700000.0 11309700000.0 11309700000.0 11309700000.0 11309700000.0 11309700000.0 11309700000.0 11309700000.0 11309700000.0 11309700000.0 11309700000.0 11309700000.0 11309700000.0 11309700000.0 11309700000.0 11309700000.0 11309700000.0 11309700000.0 11309700000.0 11309700000.0 11309700000.0 11309700000.0 11309700000.0 11309700000.0 11309700000.0 11309700000.0 11309700000.0 11309700000.0 11309700000.0 11309700000.0 11309700000.0 11309700000.0 11309700000.0 11309700000.0 11309700000.0 11309700000.0 11309700000.0 11309700000.0 11309700000.0 11309700000.0 11309700000.0 11309700000.0 11309700000.0 11309700000.0 11309700000.0 11309700000.0 11309700000.0 11309700000.0 11309700000.0 11309700000.0 11309700000.0 11309700000.0 11309700000.0 11309700000.0 11309700000.0 11309700000.0 11309700000.0 11309700000.0 11309700000.0 11309700000.0 11309700000.0 11309700000.0 11309700000.0 11309700000.0 11309700000.0 11309700000.0 11309700000.0 11309700000.0 11309700000.0 11309700000.0 11309700000.0 11309700000.0 11309700000.0 11309700000.0 11309700000.0 11309700000.0 11309700000.0 11309700000.0 11309700000.0 11309700000.0 11309700000.0 11309700000.0 11309700000.0 11309700000.0 11309700000.0 11309700000.0 11309700000.0 11309700000.0 11309700000.0 11309700000.0 11309700000.0 11309700000.0 11309700000.0 11309700000.0 11309700000.0 11309700000.0 11309700000.0 11309700000.0 11309700000.0 11309700000.0 11309700000.0 11309700000.0 11309700000.0 11309700000.0 11309700000.0 11309700000.0 11309700000.0 11309700000.0 11309700000.0 11309700000.0 11309700000.0 11309700000.0 11309700000.0 11309700000.0 11309700000.0 11309700000.0 11309700000.0 11309700000.0 11309700000.0 11309700000.0 11309700000.0 11309700000.0 11309700000.0 11309700000.0 11309700000.0 11309700000.0 11309700000.0 11309700000.0 11309700000.0 11309700000.0 11309700000.0 11309700000.0 11309700000.0 11309700000.0 11309700000.0 11309700000.0 11309700000.0 11309700000.0 11309700000.0 11309700000.0 11309700000.0 11309700000.0 11309700000.0 11309700000.0 11309700000.0 11309700000.0 11309700000.0 11309700000.0 11309700000.0 11309700000.0 11309700000.0 11309700000.0 11309700000.0 11309700000.0 11309700000.0 11309700000.0 11309700000.0 11309700000.0 11309700000.0 11309700000.0 11309700000.0 11309700000.0 11309700000.0 11309700000.0 11309700000.0 11309700000.0 11309700000.0 11309700000.0 11309700000.0 11309700000.0 11309700000.0 11309700000.0 11309700000.0 11309700000.0 11309700000.0 11309700000.0 11309700000.0 11309700000.0 11309700000.0 11309700000.0 11309700000.0 11309700000.0 11309700000.0 11309700000.0 11309700000.0 11309700000.0 11309700000.0 11309700000.0 11309700000.0 11309700000.0 11309700000.0 11309700000.0 11309700000.0 11309700000.0 11309700000.0 11309700000.0 11309700000.0 11309700000.0 11309700000.0 11309700000.0 11309700000.0 11309700000.0 11309700000.0 11309700000.0 11309700000.0 11309700000.0 11309700000.0 11309700000.0 11309700000.0 11309700000.0 11309700000.0 11309700000.0 11309700000.0 11309700000.0 11309700000.0 11309700000.0 11309700000.0 11309700000.0 11309700000.0 11309700000.0 11309700000.0 11309700000.0 11309700000.0 11309700000.0 11309700000.0 11309700000.0 11309700000.0 11309700000.0 11309700000.0 11309700000.0 11309700000.0 11309700000.0 11309700000.0 11309700000.0 11309700000.0 11309700000.0 11309700000.0 11309700000.0 11309700000.0 11309700000.0 11309700000.0 11309700000.0 11309700000.0 11309700000.0 11309700000.0 11309700000.0 11309700000.0 11309700000.0 11309700000.0 11309700000.0 11309700000.0 11309700000.0 11309700000.0 11309700000.0 11309700000.0 11309700000.0 11309700000.0 11309700000.0 11309700000.0 11309700000.0 11309700000.0 11309700000.0 11309700000.0 11309700000.0 11309700000.0 11309700000.0 11309700000.0 11309700000.0 11309700000.0 11309700000.0 11309700000.0 11309700000.0 11309700000.0 11309700000.0 11309700000.0 11309700000.0 11309700000.0 11309700000.0 11309700000.0 11309700000.0 11309700000.0 11309700000.0 11309700000.0 11309700000.0 11309700000.0 11309700000.0 11309700000.0 11309700000.0 11309700000.0 11309700000.0 11309700000.0 11309700000.0 11309700000.0 11309700000.0 11309700000.0 11309700000.0 11309700000.0 11309700000.0 11309700000.0 11309700000.0 11309700000.0 11309700000.0 11309700000.0 11309700000.0 11309700000.0 11309700000.0 11309700000.0 11309700000.0 11309700000.0 11309700000.0 11309700000.0 11309700000.0 11309700000.0 11309700000.0 11309700000.0 11309700000.0 11309700000.0 11309700000.0 11309700000.0 11309700000.0 11309700000.0 11309700000.0 11309700000.0 11309700000.0 11309700000.0 11309700000.0 11309700000.0 11309700000.0 11309700000.0 11309700000.0 11309700000.0 11309700000.0 11309700000.0 11309700000.0 11309700000.0 11309700000.0 11309700000.0 11309700000.0 11309700000.0 11309700000.0 11309700000.0 11309700000.0 11309700000.0 11309700000.0 11309700000.0 11309700000.0 11309700000.0 11309700000.0 11309700000.0 11309700000.0 11309700000.0 11309700000.0 11309700000.0 11309700000.0 11309700000.0 11309700000.0 11309700000.0 11309700000.0 11309700000.0 11309700000.0 11309700000.0 11309700000.0 11309700000.0 11309700000.0 11309700000.0 11309700000.0 11309700000.0 11309700000.0 11309700000.0 11309700000.0 11309700000.0 11309700000.0 11309700000.0 11309700000.0 11309700000.0 11309700000.0 11309700000.0 11309700000.0 11309700000.0 11309700000.0 11309700000.0 11309700000.0 11309700000.0 11309700000.0 11309700000.0 11309700000.0 11309700000.0 11309700000.0 11309700000.0 11309700000.0 11309700000.0 11309700000.0 11309700000.0 11309700000.0 11309700000.0 11309700000.0 11309700000.0 11309700000.0 11309700000.0 11309700000.0 11309700000.0 11309700000.0 11309700000.0 11309700000.0 11309700000.0 11309700000.0 11309700000.0 11309700000.0 11309700000.0 11309700000.0 11309700000.0 11309700000.0 11309700000.0 11309700000.0 11309700000.0 11309700000.0 11309700000.0 11309700000.0 11309700000.0 11309700000.0 11309700000.0 11309700000.0 11309700000.0 11309700000.0 11309700000.0 11309700000.0 11309700000.0 11309700000.0 11309700000.0 11309700000.0 11309700000.0 11309700000.0 11309700000.0 11309700000.0 11309700000.0 11309700000.0 11309700000.0 11309700000.0 11309700000.0 11309700000.0 11309700000.0 11309700000.0 11309700000.0 11309700000.0 11309700000.0 11309700000.0 11309700000.0 11309700000.0 11309700000.0 11309700000.0 11309700000.0 11309700000.0 11309700000.0 11309700000.0 11309700000.0 11309700000.0 11309700000.0 11309700000.0 11309700000.0 11309700000.0 11309700000.0 11309700000.0 11309700000.0 11309700000.0 11309700000.0 11309700000.0 11309700000.0 11309700000.0 11309700000.0 11309700000.0 11309700000.0 11309700000.0 11309700000.0 11309700000.0 11309700000.0 11309700000.0 11309700000.0 11309700000.0 11309700000.0 11309700000.0 11309700000.0 11309700000.0 11309700000.0 11309700000.0 11309700000.0 11309700000.0 11309700000.0 11309700000.0 11309700000.0 11309700000.0 11309700000.0 11309700000.0 11309700000.0 11309700000.0 11309700000.0 11309700000.0 11309700000.0 11309700000.0 11309700000.0 11309700000.0 11309700000.0 11309700000.0 11309700000.0 11309700000.0 11309700000.0 11309700000.0 11309700000.0 11309700000.0 11309700000.0 11309700000.0 11309700000.0 11309700000.0 11309700000.0 11309700000.0 11309700000.0 11309700000.0 11309700000.0 11309700000.0 11309700000.0 11309700000.0 11309700000.0 11309700000.0 11309700000.0 11309700000.0 11309700000.0 11309700000.0 11309700000.0 11309700000.0 11309700000.0 11309700000.0 11309700000.0 11309700000.0 11309700000.0 11309700000.0 11309700000.0 11309700000.0 11309700000.0 11309700000.0 11309700000.0 11309700000.0 11309700000.0 11309700000.0 11309700000.0 11309700000.0 11309700000.0 11309700000.0 11309700000.0 11309700000.0 11309700000.0 11309700000.0 11309700000.0 11309700000.0 11309700000.0 11309700000.0 11309700000.0 11309700000.0 11309700000.0 11309700000.0 11309700000.0 11309700000.0 11309700000.0 11309700000.0 11309700000.0 11309700000.0 11309700000.0 11309700000.0 11309700000.0 11309700000.0 11309700000.0 11309700000.0 11309700000.0 11309700000.0 11309700000.0 11309700000.0 11309700000.0 11309700000.0 11309700000.0 11309700000.0 11309700000.0 11309700000.0 11309700000.0 11309700000.0 11309700000.0 11309700000.0 11309700000.0 11309700000.0 11309700000.0 11309700000.0 11309700000.0 11309700000.0 11309700000.0 11309700000.0 11309700000.0 11309700000.0 11309700000.0 11309700000.0 11309700000.0 11309700000.0 11309700000.0 11309700000.0 11309700000.0 11309700000.0 11309700000.0 11309700000.0 11309700000.0 11309700000.0 11309700000.0 11309700000.0 11309700000.0 11309700000.0 11309700000.0 11309700000.0 11309700000.0 11309700000.0 11309700000.0 11309700000.0 11309700000.0 11309700000.0 11309700000.0 11309700000.0 11309700000.0 11309700000.0 11309700000.0 11309700000.0 11309700000.0 11309700000.0 11309700000.0 11309700000.0 11309700000.0 11309700000.0 11309700000.0 11309700000.0 11309700000.0 11309700000.0 11309700000.0 11309700000.0 11309700000.0 11309700000.0 11309700000.0 11309700000.0 11309700000.0 11309700000.0 11309700000.0 11309700000.0 11309700000.0 11309700000.0 11309700000.0 11309700000.0 11309700000.0 11309700000.0 11309700000.0 11309700000.0 11309700000.0 11309700000.0 11309700000.0 11309700000.0 11309700000.0 11309700000.0 11309700000.0 11309700000.0 11309700000.0 11309700000.0 11309700000.0 11309700000.0 11309700000.0 11309700000.0 11309700000.0 11309700000.0 11309700000.0 11309700000.0 11309700000.0 11309700000.0 11309700000.0 11309700000.0 11309700000.0 11309700000.0 11309700000.0 11309700000.0 11309700000.0 11309700000.0 11309700000.0 11309700000.0 11309700000.0 11309700000.0 11309700000.0 11309700000.0 11309700000.0 11309700000.0 11309700000.0 11309700000.0 11309700000.0 11309700000.0 11309700000.0 11309700000.0 11309700000.0 11309700000.0 11309700000.0 11309700000.0 11309700000.0 11309700000.0 11309700000.0 11309700000.0 11309700000.0 11309700000.0 11309700000.0 11309700000.0 11309700000.0 11309700000.0 11309700000.0 11309700000.0 11309700000.0 11309700000.0 11309700000.0 11309700000.0 11309700000.0 11309700000.0 11309700000.0 11309700000.0 11309700000.0 11309700000.0 11309700000.0 11309700000.0 11309700000.0 11309700000.0 11309700000.0 11309700000.0 11309700000.0 11309700000.0 11309700000.0 11309700000.0 11309700000.0 11309700000.0 11309700000.0 11309700000.0 11309700000.0 11309700000.0 11309700000.0 11309700000.0 11309700000.0 11309700000.0 11309700000.0 11309700000.0 11309700000.0 11309700000.0 11309700000.0 11309700000.0 11309700000.0 11309700000.0 11309700000.0 11309700000.0 11309700000.0 11309700000.0 11309700000.0 11309700000.0 11309700000.0 11309700000.0 11309700000.0 11309700000.0 11309700000.0 11309700000.0 11309700000.0 11309700000.0 11309700000.0 11309700000.0 11309700000.0 11309700000.0 11309700000.0 11309700000.0 11309700000.0 11309700000.0 11309700000.0 11309700000.0 11309700000.0 11309700000.0 11309700000.0 11309700000.0 11309700000.0 11309700000.0 11309700000.0 11309700000.0 11309700000.0 11309700000.0 11309700000.0 11309700000.0 11309700000.0 11309700000.0 11309700000.0 11309700000.0 11309700000.0 11309700000.0 11309700000.0 11309700000.0 11309700000.0 11309700000.0 11309700000.0 11309700000.0 11309700000.0 11309700000.0 11309700000.0 11309700000.0 11309700000.0 11309700000.0 11309700000.0 11309700000.0 11309700000.0 11309700000.0 11309700000.0 11309700000.0 11309700000.0 11309700000.0 11309700000.0 11309700000.0 11309700000.0 11309700000.0 11309700000.0 11309700000.0 11309700000.0 11309700000.0 11309700000.0 11309700000.0 11309700000.0 11309700000.0 11309700000.0 11309700000.0 11309700000.0 11309700000.0 11309700000.0 11309700000.0 11309700000.0 11309700000.0 11309700000.0 11309700000.0 11309700000.0 11309700000.0 11309700000.0 11309700000.0 11309700000.0 11309700000.0 11309700000.0 11309700000.0 11309700000.0 11309700000.0 11309700000.0 11309700000.0 11309700000.0 11309700000.0 11309700000.0 11309700000.0 11309700000.0 11309700000.0 11309700000.0 11309700000.0 11309700000.0 11309700000.0 11309700000.0 11309700000.0 11309700000.0 11309700000.0 11309700000.0 11309700000.0 11309700000.0 11309700000.0 11309700000.0 11309700000.0 11309700000.0 11309700000.0 11309700000.0 11309700000.0 11309700000.0 11309700000.0 11309700000.0 11309700000.0 11309700000.0 11309700000.0 11309700000.0 11309700000.0 11309700000.0 11309700000.0 11309700000.0 11309700000.0 11309700000.0 11309700000.0 11309700000.0 11309700000.0 11309700000.0 11309700000.0 11309700000.0 11309700000.0 11309700000.0 11309700000.0 11309700000.0 11309700000.0 11309700000.0 11309700000.0 11309700000.0 11309700000.0 11309700000.0 11309700000.0 11309700000.0 11309700000.0 11309700000.0 11309700000.0 11309700000.0 11309700000.0 11309700000.0 11309700000.0 11309700000.0 11309700000.0 11309700000.0 11309700000.0 11309700000.0 11309700000.0 11309700000.0 11309700000.0 11309700000.0 11309700000.0 11309700000.0 11309700000.0 11309700000.0 11309700000.0 11309700000.0 11309700000.0 11309700000.0 11309700000.0 11309700000.0 11309700000.0 11309700000.0 11309700000.0 11309700000.0 11309700000.0 11309700000.0 11309700000.0 11309700000.0 11309700000.0 11309700000.0 11309700000.0 11309700000.0 11309700000.0 11309700000.0 11309700000.0 11309700000.0 11309700000.0 11309700000.0 11309700000.0 11309700000.0 11309700000.0 11309700000.0 11309700000.0 11309700000.0 11309700000.0 11309700000.0 11309700000.0 11309700000.0 11309700000.0 11309700000.0 11309700000.0 11309700000.0 11309700000.0 11309700000.0 11309700000.0 11309700000.0 11309700000.0 11309700000.0 11309700000.0 11309700000.0 11309700000.0 11309700000.0 11309700000.0 11309700000.0 11309700000.0 11309700000.0 11309700000.0 11309700000.0 11309700000.0 11309700000.0 11309700000.0 11309700000.0 11309700000.0 11309700000.0 11309700000.0 11309700000.0 11309700000.0 11309700000.0 11309700000.0 11309700000.0 11309700000.0 11309700000.0 11309700000.0 11309700000.0 11309700000.0 11309700000.0 11309700000.0 11309700000.0 11309700000.0 11309700000.0 11309700000.0 11309700000.0 11309700000.0 11309700000.0 11309700000.0 11309700000.0 11309700000.0 11309700000.0 11309700000.0 11309700000.0 11309700000.0 11309700000.0 11309700000.0 11309700000.0 11309700000.0 11309700000.0 11309700000.0 11309700000.0 11309700000.0 11309700000.0 11309700000.0 11309700000.0 11309700000.0 11309700000.0 11309700000.0 11309700000.0 11309700000.0 11309700000.0 11309700000.0 11309700000.0 11309700000.0 11309700000.0 11309700000.0 11309700000.0 11309700000.0 11309700000.0 11309700000.0 11309700000.0 11309700000.0 11309700000.0 11309700000.0 11309700000.0 11309700000.0 11309700000.0 11309700000.0 11309700000.0 11309700000.0 11309700000.0 11309700000.0 11309700000.0 11309700000.0 11309700000.0 11309700000.0 11309700000.0 11309700000.0 11309700000.0 11309700000.0 11309700000.0 11309700000.0 11309700000.0 11309700000.0 11309700000.0 11309700000.0 11309700000.0 11309700000.0 11309700000.0 11309700000.0 11309700000.0 11309700000.0 11309700000.0 11309700000.0 11309700000.0 11309700000.0 11309700000.0 11309700000.0 11309700000.0 11309700000.0 11309700000.0 11309700000.0 11309700000.0 11309700000.0 11309700000.0 11309700000.0 11309700000.0 11309700000.0 11309700000.0 11309700000.0 11309700000.0 11309700000.0 11309700000.0 11309700000.0 11309700000.0 11309700000.0 11309700000.0 11309700000.0 11309700000.0 11309700000.0 11309700000.0 11309700000.0 11309700000.0 11309700000.0 11309700000.0 11309700000.0 11309700000.0 11309700000.0 11309700000.0 11309700000.0 11309700000.0 11309700000.0 11309700000.0 11309700000.0 11309700000.0 11309700000.0 11309700000.0 11309700000.0 11309700000.0 11309700000.0 11309700000.0 11309700000.0 11309700000.0 11309700000.0 11309700000.0 11309700000.0 11309700000.0 11309700000.0 11309700000.0 11309700000.0 11309700000.0 11309700000.0 11309700000.0 11309700000.0 11309700000.0 11309700000.0 11309700000.0 11309700000.0 11309700000.0 11309700000.0 11309700000.0 11309700000.0 11309700000.0 11309700000.0 11309700000.0 11309700000.0 11309700000.0 11309700000.0 11309700000.0 11309700000.0 11309700000.0 11309700000.0 11309700000.0 11309700000.0 11309700000.0 11309700000.0 11309700000.0 11309700000.0 11309700000.0 11309700000.0 11309700000.0 11309700000.0 11309700000.0 11309700000.0 11309700000.0 11309700000.0 11309700000.0 11309700000.0 11309700000.0 11309700000.0 11309700000.0 11309700000.0 11309700000.0 11309700000.0 11309700000.0 11309700000.0 11309700000.0 11309700000.0 11309700000.0 11309700000.0 11309700000.0 11309700000.0 11309700000.0 11309700000.0 11309700000.0 11309700000.0 11309700000.0 11309700000.0 11309700000.0 11309700000.0 11309700000.0 11309700000.0 11309700000.0 11309700000.0 11309700000.0 11309700000.0 11309700000.0 11309700000.0 11309700000.0 11309700000.0 11309700000.0 11309700000.0 11309700000.0 11309700000.0 11309700000.0 11309700000.0 11309700000.0 11309700000.0 11309700000.0 11309700000.0 11309700000.0 11309700000.0 11309700000.0 11309700000.0 11309700000.0 11309700000.0 11309700000.0 11309700000.0 11309700000.0 11309700000.0 11309700000.0 11309700000.0 11309700000.0 11309700000.0 11309700000.0 11309700000.0 11309700000.0 11309700000.0 11309700000.0 11309700000.0 11309700000.0 11309700000.0 11309700000.0 11309700000.0 11309700000.0 11309700000.0 11309700000.0 11309700000.0 11309700000.0 11309700000.0 11309700000.0 11309700000.0 11309700000.0 11309700000.0 11309700000.0 11309700000.0 11309700000.0 11309700000.0 11309700000.0 11309700000.0 11309700000.0 11309700000.0 11309700000.0 11309700000.0 11309700000.0 11309700000.0 11309700000.0 11309700000.0 11309700000.0 11309700000.0 11309700000.0 11309700000.0 11309700000.0 11309700000.0 11309700000.0 11309700000.0 11309700000.0 11309700000.0 11309700000.0 11309700000.0 11309700000.0 11309700000.0 11309700000.0 11309700000.0 11309700000.0 11309700000.0 11309700000.0 11309700000.0 11309700000.0 11309700000.0 11309700000.0 11309700000.0 11309700000.0 11309700000.0 11309700000.0 11309700000.0 11309700000.0 11309700000.0 11309700000.0 11309700000.0 11309700000.0 11309700000.0 11309700000.0 11309700000.0 11309700000.0 11309700000.0 11309700000.0 11309700000.0 11309700000.0 11309700000.0 11309700000.0 11309700000.0 11309700000.0 11309700000.0 11309700000.0 11309700000.0 11309700000.0 11309700000.0 11309700000.0 11309700000.0 11309700000.0 11309700000.0 11309700000.0 11309700000.0 11309700000.0 11309700000.0 11309700000.0 11309700000.0 11309700000.0 11309700000.0 11309700000.0 11309700000.0 11309700000.0 11309700000.0 11309700000.0 11309700000.0 11309700000.0 11309700000.0 11309700000.0 11309700000.0 11309700000.0 11309700000.0 11309700000.0 11309700000.0 11309700000.0 11309700000.0 11309700000.0 11309700000.0 11309700000.0 11309700000.0 11309700000.0 11309700000.0 11309700000.0 11309700000.0 11309700000.0 11309700000.0 11309700000.0 11309700000.0 11309700000.0 11309700000.0 11309700000.0 11309700000.0 11309700000.0 11309700000.0 11309700000.0 11309700000.0 11309700000.0 11309700000.0 11309700000.0 11309700000.0 11309700000.0 11309700000.0 11309700000.0 11309700000.0 11309700000.0 11309700000.0 11309700000.0 11309700000.0 11309700000.0 11309700000.0 11309700000.0 11309700000.0 11309700000.0 11309700000.0 11309700000.0 11309700000.0 11309700000.0 11309700000.0 11309700000.0 11309700000.0 11309700000.0 11309700000.0 11309700000.0 11309700000.0 11309700000.0 11309700000.0 11309700000.0 11309700000.0 11309700000.0 11309700000.0 11309700000.0 11309700000.0 11309700000.0 11309700000.0 11309700000.0 11309700000.0 11309700000.0 11309700000.0 11309700000.0 11309700000.0 11309700000.0 11309700000.0 11309700000.0 11309700000.0 11309700000.0 11309700000.0 11309700000.0 11309700000.0 11309700000.0 11309700000.0 11309700000.0 11309700000.0 11309700000.0 11309700000.0 11309700000.0 11309700000.0 11309700000.0 11309700000.0 11309700000.0 11309700000.0 11309700000.0 11309700000.0 11309700000.0 11309700000.0 11309700000.0 11309700000.0 11309700000.0 11309700000.0 11309700000.0 11309700000.0 11309700000.0 11309700000.0 11309700000.0 11309700000.0 11309700000.0 11309700000.0 11309700000.0 11309700000.0 11309700000.0 11309700000.0 11309700000.0 11309700000.0 11309700000.0 11309700000.0 11309700000.0 11309700000.0 11309700000.0 11309700000.0 11309700000.0 11309700000.0 11309700000.0 11309700000.0 11309700000.0 11309700000.0 11309700000.0 11309700000.0 11309700000.0 11309700000.0 11309700000.0 11309700000.0 11309700000.0 11309700000.0 11309700000.0 11309700000.0 11309700000.0 11309700000.0 11309700000.0 11309700000.0 11309700000.0 11309700000.0 11309700000.0 11309700000.0 11309700000.0 11309700000.0 11309700000.0 11309700000.0 11309700000.0 11309700000.0 11309700000.0 11309700000.0 11309700000.0 11309700000.0 11309700000.0 11309700000.0 11309700000.0 11309700000.0 11309700000.0 11309700000.0 11309700000.0 11309700000.0 11309700000.0 11309700000.0 11309700000.0 11309700000.0 11309700000.0 11309700000.0 11309700000.0 11309700000.0 11309700000.0 11309700000.0 11309700000.0 11309700000.0 11309700000.0 11309700000.0 11309700000.0 11309700000.0 11309700000.0 11309700000.0 11309700000.0 11309700000.0 11309700000.0 11309700000.0 11309700000.0 11309700000.0 11309700000.0 11309700000.0 11309700000.0 11309700000.0 11309700000.0 11309700000.0 11309700000.0 11309700000.0 11309700000.0 11309700000.0 11309700000.0 11309700000.0 11309700000.0 11309700000.0 11309700000.0 11309700000.0 11309700000.0 11309700000.0 11309700000.0 11309700000.0 11309700000.0 11309700000.0 11309700000.0 11309700000.0 11309700000.0 11309700000.0 11309700000.0 11309700000.0 11309700000.0 11309700000.0 11309700000.0 11309700000.0 11309700000.0 11309700000.0 11309700000.0 11309700000.0 11309700000.0 11309700000.0 11309700000.0 11309700000.0 11309700000.0 11309700000.0 11309700000.0 11309700000.0 11309700000.0 11309700000.0 11309700000.0 11309700000.0 11309700000.0 11309700000.0 11309700000.0 11309700000.0 11309700000.0 11309700000.0 11309700000.0 11309700000.0 11309700000.0 11309700000.0 11309700000.0 11309700000.0 11309700000.0 11309700000.0 11309700000.0 11309700000.0 11309700000.0 11309700000.0 11309700000.0 11309700000.0 11309700000.0 11309700000.0 11309700000.0 11309700000.0 11309700000.0 11309700000.0 11309700000.0 11309700000.0 11309700000.0 11309700000.0 11309700000.0 11309700000.0 11309700000.0 11309700000.0 11309700000.0 11309700000.0 11309700000.0 11309700000.0 11309700000.0 11309700000.0 11309700000.0 11309700000.0 11309700000.0 11309700000.0 11309700000.0 11309700000.0 11309700000.0 11309700000.0 11309700000.0 11309700000.0 11309700000.0 11309700000.0 11309700000.0 11309700000.0 11309700000.0 11309700000.0 11309700000.0 11309700000.0 11309700000.0 11309700000.0 11309700000.0 11309700000.0 11309700000.0 11309700000.0 11309700000.0 11309700000.0 11309700000.0 11309700000.0 11309700000.0 11309700000.0 11309700000.0 11309700000.0 11309700000.0 11309700000.0 11309700000.0 11309700000.0 11309700000.0 11309700000.0 11309700000.0 11309700000.0 11309700000.0 11309700000.0 11309700000.0 11309700000.0 11309700000.0 11309700000.0 11309700000.0 11309700000.0 11309700000.0 11309700000.0 11309700000.0 11309700000.0 11309700000.0 11309700000.0 11309700000.0 11309700000.0 11309700000.0 11309700000.0 11309700000.0 11309700000.0 11309700000.0 11309700000.0 11309700000.0 11309700000.0 11309700000.0 11309700000.0 11309700000.0 11309700000.0 11309700000.0 11309700000.0 11309700000.0 11309700000.0 11309700000.0 11309700000.0 11309700000.0 11309700000.0 11309700000.0 11309700000.0 11309700000.0 11309700000.0 11309700000.0 11309700000.0 11309700000.0 11309700000.0 11309700000.0 11309700000.0 11309700000.0 11309700000.0 11309700000.0 11309700000.0 11309700000.0 11309700000.0 11309700000.0 11309700000.0 11309700000.0 11309700000.0 11309700000.0 11309700000.0 11309700000.0 11309700000.0 11309700000.0 11309700000.0 11309700000.0 11309700000.0 11309700000.0 11309700000.0 11309700000.0 11309700000.0 11309700000.0 11309700000.0 11309700000.0 11309700000.0 11309700000.0 11309700000.0 11309700000.0 11309700000.0 11309700000.0 11309700000.0 11309700000.0 11309700000.0 11309700000.0 11309700000.0 11309700000.0 11309700000.0 11309700000.0 11309700000.0 11309700000.0 11309700000.0 11309700000.0 11309700000.0 11309700000.0 11309700000.0 11309700000.0 11309700000.0 11309700000.0 11309700000.0 11309700000.0 11309700000.0 11309700000.0 11309700000.0 11309700000.0 11309700000.0 11309700000.0 11309700000.0 11309700000.0 11309700000.0 11309700000.0 11309700000.0 11309700000.0 11309700000.0 11309700000.0 11309700000.0 11309700000.0 11309700000.0 11309700000.0 11309700000.0 11309700000.0 11309700000.0 11309700000.0 11309700000.0 11309700000.0 11309700000.0 11309700000.0 11309700000.0 11309700000.0 11309700000.0 11309700000.0 11309700000.0 11309700000.0 11309700000.0 11309700000.0 11309700000.0 11309700000.0 11309700000.0 11309700000.0 11309700000.0 11309700000.0 11309700000.0 11309700000.0 11309700000.0 11309700000.0 11309700000.0 11309700000.0 11309700000.0 11309700000.0 11309700000.0 11309700000.0 11309700000.0 11309700000.0 11309700000.0 11309700000.0 11309700000.0 11309700000.0 11309700000.0 11309700000.0 11309700000.0 11309700000.0 11309700000.0 11309700000.0 11309700000.0 11309700000.0 11309700000.0 11309700000.0 11309700000.0 11309700000.0 11309700000.0 11309700000.0 11309700000.0 11309700000.0 11309700000.0 11309700000.0 11309700000.0 11309700000.0 11309700000.0 11309700000.0 11309700000.0 11309700000.0 11309700000.0 11309700000.0 11309700000.0 11309700000.0 11309700000.0 11309700000.0 11309700000.0 11309700000.0 11309700000.0 11309700000.0 11309700000.0 11309700000.0 11309700000.0 11309700000.0 11309700000.0 11309700000.0 11309700000.0 11309700000.0 11309700000.0 11309700000.0 11309700000.0 11309700000.0 11309700000.0 11309700000.0 11309700000.0 11309700000.0 11309700000.0 11309700000.0 11309700000.0 11309700000.0 11309700000.0 11309700000.0 11309700000.0 11309700000.0 11309700000.0 11309700000.0 11309700000.0 11309700000.0 11309700000.0 11309700000.0 11309700000.0 11309700000.0 11309700000.0 11309700000.0 11309700000.0 11309700000.0 11309700000.0 11309700000.0 11309700000.0 11309700000.0 11309700000.0 11309700000.0 11309700000.0 11309700000.0 11309700000.0 11309700000.0 11309700000.0 11309700000.0 11309700000.0 11309700000.0 11309700000.0 11309700000.0 11309700000.0 11309700000.0 11309700000.0 11309700000.0 11309700000.0 11309700000.0 11309700000.0 11309700000.0 11309700000.0 11309700000.0 11309700000.0 11309700000.0 11309700000.0 11309700000.0 11309700000.0 11309700000.0 11309700000.0 11309700000.0 11309700000.0 11309700000.0 11309700000.0 11309700000.0 11309700000.0 11309700000.0 11309700000.0 11309700000.0 11309700000.0 11309700000.0 11309700000.0 11309700000.0 11309700000.0 11309700000.0 11309700000.0 11309700000.0 11309700000.0 11309700000.0 11309700000.0 11309700000.0 11309700000.0 11309700000.0 11309700000.0 11309700000.0 11309700000.0 11309700000.0 11309700000.0 11309700000.0 11309700000.0 11309700000.0 11309700000.0 11309700000.0 11309700000.0 11309700000.0 11309700000.0 11309700000.0 11309700000.0 11309700000.0 11309700000.0 11309700000.0 11309700000.0 11309700000.0 11309700000.0 11309700000.0 11309700000.0 11309700000.0 11309700000.0 11309700000.0 11309700000.0 11309700000.0 11309700000.0 11309700000.0 11309700000.0 11309700000.0 11309700000.0 11309700000.0 11309700000.0 11309700000.0 11309700000.0 11309700000.0 11309700000.0 11309700000.0 11309700000.0 11309700000.0 11309700000.0 11309700000.0 11309700000.0 11309700000.0 11309700000.0 11309700000.0 11309700000.0 11309700000.0 11309700000.0 11309700000.0 11309700000.0 11309700000.0 11309700000.0 11309700000.0 11309700000.0 11309700000.0 11309700000.0 11309700000.0 11309700000.0 11309700000.0 11309700000.0 11309700000.0 11309700000.0 11309700000.0 11309700000.0 11309700000.0 11309700000.0 11309700000.0 11309700000.0 11309700000.0 11309700000.0 11309700000.0 11309700000.0 11309700000.0 11309700000.0 11309700000.0 11309700000.0 11309700000.0 11309700000.0 11309700000.0 11309700000.0 11309700000.0 11309700000.0 11309700000.0 11309700000.0 11309700000.0 11309700000.0 11309700000.0 11309700000.0 11309700000.0 11309700000.0 11309700000.0 11309700000.0 11309700000.0 11309700000.0 11309700000.0 11309700000.0 11309700000.0 11309700000.0 11309700000.0 11309700000.0 11309700000.0 11309700000.0 11309700000.0 11309700000.0 11309700000.0 11309700000.0 11309700000.0 11309700000.0 11309700000.0 11309700000.0 11309700000.0 11309700000.0 11309700000.0 11309700000.0 11309700000.0 11309700000.0 11309700000.0 11309700000.0 11309700000.0 11309700000.0 11309700000.0 11309700000.0 11309700000.0 11309700000.0 11309700000.0 11309700000.0 11309700000.0 11309700000.0 11309700000.0 11309700000.0 11309700000.0 11309700000.0 11309700000.0 11309700000.0 11309700000.0 11309700000.0 11309700000.0 11309700000.0 11309700000.0 11309700000.0 11309700000.0 11309700000.0 11309700000.0 11309700000.0 11309700000.0 11309700000.0 11309700000.0 11309700000.0 11309700000.0 11309700000.0 11309700000.0 11309700000.0 11309700000.0 11309700000.0 11309700000.0 11309700000.0 11309700000.0 11309700000.0 11309700000.0 11309700000.0 11309700000.0 11309700000.0 11309700000.0 11309700000.0 11309700000.0 11309700000.0 11309700000.0 11309700000.0 11309700000.0 11309700000.0 11309700000.0 11309700000.0 11309700000.0 11309700000.0 11309700000.0 11309700000.0 11309700000.0 11309700000.0 11309700000.0 11309700000.0 11309700000.0 11309700000.0 
SCALARS Velocity float 1
LOOKUP_TABLE default
1.14145 1.14181 0.990136 1.12518 1.20463 1.1287 1.19746 1.141 1.21732 1.21751 1.14051 1.19679 1.12854 1.20394 1.12621 0.991396 1.02664 1.17414 1.20187 1.21038 1.19358 1.12112 1.16143 1.11314 1.16964 1.16945 1.11153 1.16167 1.12137 1.19184 1.20989 1.20216 1.175 1.02802 1.05289 1.18521 1.22334 1.11655 1.12405 1.08922 1.13892 1.15046 1.13852 1.0888 1.12426 1.11625 1.22141 1.18541 1.05424 1.19103 1.13557 1.20726 1.10268 1.12759 1.07576 1.10931 1.09213 1.13611 1.13776 1.13578 1.09099 1.10807 1.07528 1.12808 1.10165 1.20706 1.13609 1.19131 1.07675 1.15035 1.19669 1.26734 1.12428 1.09916 1.0819 1.08276 1.06452 1.10654 1.10535 1.06162 1.08063 1.07752 1.09906 1.12419 1.26489 1.19658 1.15029 1.07731 1.22908 1.15932 1.08707 1.31473 1.10017 1.0978 1.05036 1.07889 1.10377 1.07567 1.04679 1.09887 1.10054 1.31277 1.08764 1.15895 1.22901 1.13494 1.17987 1.17004 1.15399 1.10407 1.07067 1.06913 1.06858 1.07535 1.0435 1.07265 1.06314 1.06279 1.06385 1.10403 1.15423 1.17003 1.1803 1.13474 1.07568 1.30971 0.981283 1.19078 1.06735 1.11212 1.07615 1.08084 1.03054 1.02743 1.07399 1.071 1.11616 1.06836 1.19021 0.980953 1.3106 1.07437 1.04147 0.973595 1.074 1.18632 1.17479 1.20952 1.21807 1.093 1.06065 0.973853 1.05476 1.09425 1.21998 1.21134 1.19512 1.17594 1.18759 1.07342 0.970441 1.04195 0.858155 1.10625 0.825511 1.05928 1.10853 1.17585 1.19414 1.21245 1.14514 1.03593 0.994725 0.913698 0.988857 1.0359 1.14803 1.21163 1.17691 1.10958 1.06391 0.826003 1.11017 0.857952 0.824649 0.762606 0.0884899 0.977045 1.10347 1.13042 1.18739 1.20201 1.20793 1.13672 1.10895 1.03627 0.956915 0.924406 0.924837 0.955261 1.03947 1.11655 1.14391 1.20892 1.2032 1.18904 1.13277 1.104 0.977447 0.078482 0.761271 0.823357 0.789159 0.789833 0.780533 0.96222 1.01324 1.00724 1.17834 1.20523 1.1867 1.08604 0.983719 1.01263 0.97901 1.09047 1.19306 1.20848 1.18065 1.00557 1.01739 0.965027 0.780751 0.78957 0.78834 0.739583 0.764056 0.769781 0.846351 0.7405 1.25817 0.908827 0.980783 1.10902 1.21071 1.19527 1.18124 1.11668 1.02684 0.985808 0.989153 1.0333 1.1164 1.17866 1.19536 1.21496 1.10948 0.979569 0.908734 1.2646 0.741135 0.847339 0.769426 0.763996 0.739759 0.713072 0.750626 0.804271 0.786325 0.761029 0.664261 1.09162 1.17416 1.1568 1.20634 1.13462 1.07835 1.10207 0.958472 1.10443 0.893832 1.08558 0.949043 1.09915 1.08285 1.13908 1.20945 1.1548 1.17767 1.09456 0.660185 0.75815 0.787469 0.804436 0.750612 0.713195 0.689192 0.697836 0.723974 0.739256 0.771271 0.774873 0.766719 0.868289 1.03994 1.03089 1.42496 1.29754 1.24505 1.17033 1.09753 1.05529 0.760457 0.746324 1.07019 1.09354 1.17235 1.24698 1.30328 1.43415 1.03316 1.04176 0.869069 0.765575 0.774324 0.771371 0.739588 0.724121 0.697911 0.689265 0.650994 0.668707 0.675418 0.709554 0.74812 0.762967 0.784076 0.825465 0.975569 1.08131 1.32315 1.53865 1.0857 1.06318 0.938004 0.896755 1.23007 1.20213 0.889083 0.943455 1.0626 1.08991 1.54233 1.34585 1.08435 0.97721 0.824845 0.78372 0.763158 0.748271 0.709707 0.675447 0.668741 0.65101 0.63669 0.657405 0.684408 0.695584 0.720248 0.733559 0.77342 0.872665 0.967625 0.22703 0.974814 1.15316 1.06024 1.05014 0.972767 0.753633 1.07807 0.596624 1.05492 0.683112 0.970997 1.05152 1.06674 1.15828 0.978825 0.215613 0.968616 0.871922 0.773212 0.733925 0.720579 0.695706 0.684446 0.657418 0.6367 0.623262 0.642482 0.648748 0.664837 0.674068 0.708793 0.741857 0.746615 0.790855 0.803153 0.886001 0.77626 0.628903 0.911411 1.28586 1.10618 0.991883 0.846008 0.804396 0.860462 0.543653 0.55657 0.855049 0.855064 0.8422 0.994613 1.1079 1.28892 0.914296 0.620845 0.772901 0.885938 0.802287 0.790249 0.746838 0.742138 0.708973 0.674058 0.664838 0.648743 0.642489 0.623269 0.609846 0.619408 0.630513 0.637193 0.657635 0.668147 0.685783 0.701894 0.72428 0.733184 0.74305 0.764612 0.977675 0.873862 1.07125 1.02973 0.927145 0.883322 0.832478 0.739952 0.55674 0.735104 0.831824 0.879361 0.931283 1.03029 1.07178 0.87589 0.978351 0.763711 0.742774 0.733253 0.724454 0.701957 0.685779 0.668091 0.657612 0.63719 0.63052 0.619414 0.60985 0.565654 0.590932 0.605367 0.627224 0.635423 0.644925 0.654391 0.683157 0.722013 0.72779 0.703392 0.711379 0.928664 0.831202 0.993266 1.0349 0.965502 0.846891 0.776004 0.657878 0.65284 0.77866 0.846034 0.966338 1.03298 0.993308 0.833298 0.928271 0.71127 0.703304 0.727709 0.722061 0.683114 0.654356 0.644913 0.635419 0.627228 0.605372 0.59094 0.565666 0.540195 0.584055 0.603376 0.616393 0.627068 0.644956 0.654453 0.667206 0.686515 0.706287 0.729752 0.734061 0.73067 0.707912 0.820653 0.937073 0.933953 0.965595 0.867252 0.78638 0.743197 0.715185 0.680901 0.626584 0.677234 0.713351 0.741182 0.784759 0.865877 0.963641 0.934718 0.937667 0.82078 0.708378 0.730558 0.733965 0.729705 0.706289 0.686473 0.667148 0.654418 0.644942 0.627068 0.6164 0.603387 0.584061 0.540211 0.512277 0.559699 0.584845 0.618356 0.631542 0.638092 0.647766 0.669873 0.720707 0.743401 0.72328 0.78339 0.843452 0.980227 0.931924 0.883981 0.918973 0.821457 0.858343 0.789742 0.796329 0.750892 0.711106 0.670862 0.706982 0.74953 0.795186 0.788095 0.855766 0.821259 0.918996 0.884893 0.932892 0.980287 0.842865 0.784949 0.723028 0.743235 0.720682 0.669819 0.647748 0.638084 0.631538 0.618362 0.584858 0.559712 0.512297 0.482642 0.505805 0.535411 0.566417 0.609853 0.629501 0.643122 0.65233 0.656248 0.670761 0.690363 0.744965 0.754218 0.750892 0.767824 0.67675 0.880779 0.839347 0.921737 0.765304 0.767641 0.748235 0.724199 0.69376 0.690723 0.721365 0.745796 0.766976 0.766386 0.921837 0.83653 0.881769 0.675431 0.76718 0.750888 0.754114 0.744848 0.69032 0.67071 0.65621 0.652305 0.643108 0.629501 0.609863 0.566433 0.535428 0.505825 0.482665 0.483994 0.474385 0.481492 0.548657 0.589424 0.599782 0.628592 0.644655 0.657365 0.666714 0.685104 0.734335 0.757075 0.761257 0.718387 0.858855 1.13917 0.73499 0.744653 0.742744 0.727982 0.708683 0.702403 0.690136 0.700944 0.705574 0.725496 0.741662 0.745559 0.735224 1.14051 0.863327 0.716877 0.761135 0.757005 0.734279 0.685051 0.666675 0.657338 0.644639 0.628596 0.599794 0.589435 0.548672 0.481518 0.474402 0.484008 0.506667 0.460743 0.525443 0.589977 0.625813 0.655527 0.651422 0.669346 0.663781 0.673782 0.682793 0.697383 0.765411 0.74889 0.743983 0.655208 2.1007 0.994562 0.713971 0.772628 0.752453 0.758205 0.739642 0.736626 0.73012 0.727621 0.719345 0.714396 0.70412 0.713229 0.717685 0.726407 0.728797 0.736867 0.740266 0.759185 0.753164 0.772676 0.713831 0.992589 2.10054 0.655902 0.743683 0.748915 0.765345 0.69733 0.682745 0.673741 0.663742 0.669316 0.651407 0.655527 0.625821 0.589982 0.525456 0.460768 0.506682 0.553654 0.480227 0.486062 0.522755 0.591514 0.665559 0.627702 0.670988 0.683471 0.693338 0.675535 0.665842 0.67063 0.626997 0.747623 0.720633 0.73761 0.68562 0.852241 0.96643 1.01418 0.807993 0.758315 0.737172 0.72632 0.713533 0.713132 0.725821 0.737091 0.759148 0.808326 1.01382 0.966474 0.853318 0.685536 0.737755 0.720742 0.747579 0.626926 0.670582 0.665794 0.675494 0.693331 0.683446 0.671001 0.627714 0.665563 0.591514 0.522773 0.486099 0.480252 0.55366 0.552323 0.548385 0.523033 0.513407 0.619786 0.702869 0.700248 0.719018 0.691136 0.70632 0.689279 0.657765 0.611091 0.756582 0.717733 0.696651 0.637921 0.607768 1.47973 0.889419 0.808358 0.758266 0.738584 0.724664 0.717371 0.724336 0.738291 0.758756 0.808812 0.889445 1.47971 0.608098 0.637976 0.696743 0.717656 0.756506 0.611037 0.657715 0.689262 0.706309 0.691141 0.719041 0.700269 0.702883 0.619801 0.513439 0.523047 0.548392 0.552327 0.35648 0.446604 0.461702 0.509035 0.570311 0.722174 0.783656 0.726827 0.697846 0.697884 0.679264 0.652306 0.632351 0.565118 0.722299 0.690093 0.650082 0.664426 0.599469 1.39999 0.285849 0.731443 0.854754 0.842065 0.807209 0.796251 0.758344 0.753073 0.737342 0.73628 0.725613 0.729899 0.725452 0.736056 0.737078 0.752943 0.758484 0.796453 0.80761 0.841737 0.854262 0.731158 0.287841 1.3986 0.599696 0.664344 0.650186 0.690196 0.722189 0.565065 0.632284 0.652277 0.679261 0.697918 0.697853 0.726873 0.783661 0.722169 0.570349 0.50906 0.461705 0.446616 0.356496 0.293482 0.371711 0.326107 0.201683 0.642375 0.646998 0.83961 0.770205 0.714373 0.719541 0.724287 0.705462 0.599359 0.552043 0.550168 0.689761 0.70867 0.648535 0.605971 0.98238 0.769563 0.810111 0.776978 0.749333 0.737573 0.737459 0.749127 0.777038 0.809303 0.769178 0.983011 0.605857 0.648607 0.708622 0.689651 0.550196 0.552046 0.59932 0.705361 0.72426 0.719507 0.714392 0.770229 0.839601 0.647019 0.642396 0.201598 0.326125 0.371721 0.293509 0.264067 0.300306 0.287539 0.323685 0.203295 0.370201 0.443176 0.895834 0.686671 0.706029 0.679936 0.822606 0.774828 0.686329 0.517049 0.732151 0.787301 0.749184 0.666681 0.603323 0.580509 0.790277 0.296997 0.301897 0.687837 0.766817 0.754179 0.801359 0.765949 0.747925 0.741781 0.747788 0.765878 0.801119 0.754572 0.767793 0.687763 0.302463 0.296326 0.791159 0.580629 0.603437 0.666648 0.749001 0.787121 0.732068 0.517033 0.68624 0.774756 0.822568 0.680009 0.706065 0.686673 0.895804 0.443044 0.37011 0.203264 0.323681 0.287541 0.300319 0.264086 0.240072 0.220394 0.249095 0.25259 0.208568 0.176609 0.283257 0.959857 0.595229 0.396932 0.717241 0.407392 0.591652 0.495988 0.529003 0.774731 0.530132 0.656021 0.60266 0.413907 0.445356 0.360962 0.621077 0.784633 0.756601 0.774945 0.785738 0.774508 0.760642 0.758419 0.748929 0.752604 0.748872 0.758356 0.760517 0.774407 0.785735 0.774492 0.756304 0.784434 0.620803 0.36018 0.444963 0.412299 0.602367 0.656002 0.530119 0.774661 0.52902 0.496052 0.591576 0.407347 0.71709 0.396987 0.595192 0.95971 0.283215 0.176546 0.208568 0.252604 0.249119 0.22042 0.2401 0.236977 0.219592 0.207611 0.220363 0.224861 0.181897 0.161139 0.169529 0.665822 0.758653 0.601634 0.527353 0.553184 0.510189 0.491278 0.451084 0.365302 0.686699 0.578528 0.618422 0.580878 0.563524 0.563885 0.399331 0.309467 0.453995 0.681184 0.767307 0.778993 0.769213 0.759025 0.759008 0.76909 0.778739 0.768132 0.680445 0.454687 0.30948 0.399435 0.563676 0.564316 0.578309 0.618448 0.578424 0.686499 0.365257 0.450998 0.491244 0.510136 0.553068 0.527302 0.60164 0.758563 0.66573 0.169565 0.161137 0.181909 0.224879 0.220381 0.207634 0.219626 0.236999 0.235712 0.228109 0.202904 0.203748 0.23263 0.23473 0.168497 0.398512 0.627826 0.573718 0.503646 0.492914 0.466276 0.433195 0.539412 0.601376 0.507529 0.576009 0.558245 0.526939 0.471195 0.438803 0.397302 0.625231 0.799771 0.75478 0.778143 0.767308 0.762003 0.767286 0.777935 0.754951 0.800586 0.625245 0.396951 0.438101 0.470014 0.526616 0.560146 0.575912 0.507446 0.601231 0.539325 0.433155 0.466243 0.492905 0.503635 0.573691 0.62783 0.398502 0.168507 0.234743 0.232648 0.203771 0.202933 0.228141 0.235731 0.232795 0.230148 0.202392 0.213076 0.159776 0.251312 0.187791 0.184708 0.327298 0.658207 0.543658 0.541429 0.505178 0.536781 0.463019 0.50246 0.521932 0.555836 0.624062 0.541356 0.491999 0.46002 0.411921 0.364087 0.854665 0.758902 0.768421 0.769567 0.779822 0.775997 0.774356 0.767303 0.769798 0.767345 0.774173 0.775741 0.779343 0.769236 0.768261 0.75937 0.855058 0.363545 0.411011 0.459127 0.49121 0.541353 0.624064 0.555736 0.521774 0.502322 0.462913 0.536628 0.505061 0.541344 0.543591 0.65815 0.327285 0.184707 0.187792 0.251297 0.159802 0.213099 0.20242 0.230175 0.232815 0.209963 0.199548 0.217276 0.231097 0.177962 0.147219 0.229367 0.246175 0.243075 0.158641 0.150488 0.213539 0.654462 0.626659 0.619275 0.557719 0.535234 0.504588 0.503217 0.487649 0.516741 0.552227 0.627417 0.580201 0.56017 0.479259 0.441748 0.401185 0.371036 0.601315 0.777771 0.784252 0.781314 0.774215 0.774109 0.780603 0.783906 0.778131 0.602678 0.369152 0.399064 0.440116 0.478253 0.560621 0.580134 0.627206 0.552037 0.516607 0.487518 0.503092 0.504419 0.535103 0.557599 0.619203 0.626573 0.654428 0.213632 0.150473 0.158609 0.24307 0.24614 0.229388 0.147244 0.17799 0.231117 0.217295 0.199567 0.209985 0.188473 0.201107 0.182992 0.157251 0.135458 0.17351 0.290642 0.258282 0.105801 0.485517 0.634588 0.585746 0.587256 0.540015 0.507098 0.48275 0.473858 0.476806 0.504407 0.592845 0.602103 0.577235 0.552072 0.522706 0.428526 0.390802 0.331087 0.249043 0.785816 0.805115 0.790074 0.787453 0.780257 0.776116 0.779206 0.78636 0.790142 0.806201 0.786728 0.248528 0.328338 0.388302 0.426491 0.522044 0.551478 0.577104 0.602002 0.592722 0.504317 0.476664 0.473683 0.482585 0.506943 0.53987 0.587147 0.585696 0.634566 0.48533 0.105707 0.258246 0.290631 0.17353 0.135479 0.157274 0.183019 0.20112 0.188481 0.168239 0.187318 0.173032 0.205899 0.184969 0.127188 0.241927 0.238423 0.150467 0.39187 0.308736 0.468889 0.581162 0.592639 0.572093 0.55643 0.513198 0.479052 0.455352 0.472444 0.523871 0.546118 0.556935 0.602315 0.574082 0.545825 0.504392 0.465175 0.365581 0.280371 0.747158 0.799754 0.794473 0.791287 0.785467 0.785192 0.780202 0.780816 0.779368 0.783447 0.784448 0.789839 0.794059 0.800367 0.747155 0.278486 0.3615 0.463049 0.503171 0.545173 0.574204 0.601907 0.556762 0.546029 0.523805 0.47233 0.455202 0.47885 0.513026 0.556272 0.572028 0.592603 0.581311 0.468821 0.308796 0.391955 0.1504 0.238376 0.241948 0.127207 0.184983 0.205913 0.173046 0.187334 0.168246 0.170657 0.162496 0.190035 0.202698 0.191371 0.151716 0.118594 0.158154 0.322953 0.289414 0.386013 0.552649 0.585699 0.522702 0.485548 0.455463 0.451422 0.53808 0.5593 0.573099 0.585366 0.600864 0.542462 0.529248 0.481145 0.450976 0.418532 0.825737 0.798403 0.789219 0.783574 0.782672 0.789551 0.79857 0.827617 0.41765 0.447524 0.47898 0.527981 0.542049 0.60114 0.585271 0.573102 0.559264 0.538145 0.451186 0.455209 0.485401 0.522542 0.585669 0.55262 0.386031 0.289357 0.322912 0.158168 0.118612 0.151729 0.191385 0.202703 0.190044 0.162506 0.170667 0.046687 0.143952 0.147849 0.169853 0.223682 0.187437 0.116323 0.133937 0.273011 0.321905 0.556204 0.400267 0.525455 0.565818 0.548553 0.559761 0.571673 0.57868 0.587817 0.588774 0.597376 0.602908 0.76681 0.732917 0.696414 0.658621 0.61475 0.502034 0.72253 0.784955 0.793156 0.787044 0.78218 0.786652 0.79319 0.786033 0.719818 0.493555 0.604529 0.655548 0.694665 0.73233 0.76561 0.602156 0.597269 0.588311 0.587729 0.578728 0.571715 0.559583 0.548425 0.565751 0.525471 0.400304 0.556254 0.321855 0.273017 0.13394 0.11633 0.187449 0.223698 0.169859 0.147854 0.143943 0.046685 0.146554 0.213046 0.220522 0.129116 0.116107 0.0769605 0.131863 0.361361 0.544255 0.602198 0.570288 0.567291 0.548771 0.514873 0.484381 0.449996 0.422056 0.578995 0.58559 0.593784 0.600459 0.619969 0.68192 0.678907 0.692399 0.655524 0.61638 0.585901 0.728626 0.659553 0.778101 0.812014 0.782976 0.792121 0.790608 0.783353 0.78047 0.78395 0.790123 0.792096 0.782341 0.810863 0.778901 0.657153 0.733937 0.565706 0.615111 0.654343 0.689878 0.679593 0.681519 0.620089 0.600248 0.593619 0.585746 0.579005 0.421828 0.449826 0.484291 0.514717 0.54868 0.567246 0.570251 0.602201 0.544242 0.361405 0.131859 0.0769479 0.11612 0.12912 0.220531 0.213062 0.146555 0.238033 0.220861 0.251484 0.250769 0.102405 0.230915 0.356016 0.470276 0.460073 0.567517 0.548887 0.560911 0.56296 0.520313 0.477265 0.436087 0.394831 0.601141 0.580532 0.59536 0.60745 0.632134 0.662877 0.676348 0.638652 0.741145 0.608128 0.658831 0.732679 0.776884 0.801355 0.782514 0.781383 0.801349 0.781714 0.732367 0.675874 0.601545 0.74059 0.639999 0.675975 0.662707 0.631646 0.607447 0.595436 0.580579 0.601155 0.394541 0.435925 0.477068 0.520177 0.562932 0.560887 0.548895 0.567555 0.460104 0.470303 0.356059 0.23091 0.102405 0.250774 0.251497 0.220858 0.238034 0.180249 0.171654 0.261754 0.372501 0.197979 0.205135 0.117262 0.445625 0.353265 0.436813 0.651673 0.575228 0.533914 0.577088 0.531078 0.48479 0.426174 0.372578 0.64358 0.601076 0.579894 0.58306 0.653643 0.670268 0.65106 0.58847 0.714533 0.661965 0.620251 0.774317 0.775744 0.787166 0.783242 0.779408 0.780294 0.786731 0.771585 0.77382 0.622148 0.657897 0.712546 0.590082 0.651706 0.670174 0.653546 0.583093 0.579865 0.601107 0.643732 0.372296 0.42593 0.484606 0.53101 0.577076 0.533933 0.575215 0.651707 0.436842 0.353312 0.445645 0.117254 0.205131 0.19798 0.372508 0.261766 0.171644 0.180251 0.262864 0.37459 0.407432 0.280861 0.473783 0.450868 0.558992 0.649195 0.588812 0.57031 0.550039 0.506242 0.429131 0.357554 0.680757 0.618995 0.592418 0.586216 0.592227 0.607983 0.630834 0.606595 0.516551 0.690398 0.618055 0.629839 0.671448 0.710708 0.781172 0.770882 0.775504 0.965975 0.784782 0.782365 0.785078 0.994036 0.770742 0.775557 0.774261 0.717643 0.672637 0.624585 0.61656 0.687922 0.518479 0.607706 0.631047 0.607945 0.592189 0.586332 0.592481 0.619071 0.680779 0.357292 0.428862 0.506193 0.549992 0.570329 0.588794 0.649179 0.559011 0.450899 0.473811 0.28089 0.407431 0.374592 0.262867 0.466114 0.726094 0.351173 0.219654 0.453767 0.521807 0.550197 0.534534 0.639418 0.604427 0.597596 0.598652 0.606858 0.620979 0.643438 0.658116 0.648452 0.810622 0.702124 0.717195 0.75511 0.748187 0.829899 0.782577 0.78352 0.879577 0.787481 0.780013 0.895846 0.771289 0.781823 0.820908 0.7516 0.75015 0.719625 0.703618 0.809507 0.648571 0.658407 0.643389 0.621119 0.606865 0.598751 0.597815 0.604642 0.639396 0.53451 0.550237 0.521806 0.453781 0.219665 0.35121 0.726107 0.466119 0.391202 0.733032 0.497033 0.233952 0.667749 0.643066 0.569173 0.697815 0.64619 0.534892 0.551913 0.452096 0.359796 0.711905 0.616153 0.618804 0.624065 0.639329 0.666797 0.700057 0.726835 0.71482 0.625518 0.721375 0.797553 0.794786 0.776955 0.713977 0.628242 0.71725 0.727121 0.701092 0.667041 0.639453 0.624171 0.618912 0.616492 0.711951 0.359548 0.451955 0.551881 0.534882 0.646151 0.69778 0.569183 0.643078 0.667731 0.233979 0.497054 0.733028 0.391203 0.70785 0.71496 0.594573 0.1796 0.673028 0.541354 0.752401 0.631831 0.546635 0.509755 0.395016 0.752533 0.650597 0.618293 0.613572 0.657867 0.686265 0.711034 0.720697 0.650574 0.57496 0.770568 0.668566 0.780066 0.737103 0.862631 0.787424 0.798269 0.825744 0.70166 0.787849 0.698421 0.834565 0.783185 0.78445 0.850907 0.739981 0.77477 0.673452 0.764194 0.562342 0.651523 0.722008 0.711822 0.686706 0.658198 0.613671 0.618464 0.650607 0.752548 0.394878 0.509649 0.546622 0.631746 0.75233 0.541364 0.673047 0.179587 0.594569 0.714968 0.707849 0.471848 1.14148 0.408234 0.569468 0.840535 0.677299 0.543729 0.754931 0.647925 0.498129 0.468691 0.796685 0.680762 0.622536 0.631576 0.641591 0.642533 0.639939 0.641724 0.758055 0.710778 0.652316 0.896149 0.745899 0.95428 0.817876 0.9327 0.789346 0.805774 0.765887 0.658287 0.818816 0.783296 0.660053 0.766097 0.783709 0.783917 0.910742 0.814952 0.945831 0.74738 0.894354 0.657329 0.723686 0.760016 0.641989 0.64011 0.642758 0.641757 0.631847 0.622719 0.68076 0.796662 0.46857 0.498074 0.647806 0.754816 0.543735 0.677309 0.840535 0.569465 0.408234 1.14147 0.471852 0.887297 0.8138 0.771833 0.663123 0.683663 0.72113 0.713022 0.534919 0.752412 0.630106 0.475124 0.836558 0.734686 0.637035 0.650155 0.664791 0.675265 0.667311 0.655224 0.65593 0.675934 0.702543 0.726808 0.771949 0.87087 0.819181 0.827185 0.801295 0.795753 0.808909 0.866434 0.7728 0.727504 0.704149 0.676983 0.656569 0.655448 0.667463 0.675507 0.66502 0.650369 0.637287 0.734612 0.836494 0.475057 0.629925 0.752252 0.534895 0.713031 0.721141 0.683675 0.66313 0.771832 0.813787 0.887302 0.925852 0.681832 0.613428 0.88436 0.836814 0.693767 0.707035 0.732815 0.725763 0.684176 0.705164 0.701727 0.68568 0.662729 0.677216 0.695685 0.722712 0.745566 0.733593 0.653686 0.848156 0.817751 0.767545 0.838615 0.767765 0.706885 0.785152 0.704886 0.763415 0.806385 0.782225 0.8211 0.854365 0.658573 0.73549 0.748896 0.724619 0.697895 0.6787 0.663139 0.68582 0.701899 0.705357 0.684471 0.725767 0.732823 0.707045 0.693777 0.836816 0.88436 0.613429 0.681837 0.925848 0.893992 0.735805 0.800082 0.808643 0.770904 0.724813 0.718887 0.514956 0.74189 0.63161 0.845817 0.784603 0.682224 0.672302 0.702108 0.70862 0.705751 0.679404 0.599407 0.798211 0.711727 0.788318 0.843914 0.750452 0.790404 0.813523 0.742137 0.717975 0.819681 0.764233 0.71641 0.739584 0.785375 0.783893 0.755441 0.836277 0.786195 0.713281 0.804001 0.600711 0.67992 0.708733 0.707159 0.703014 0.672446 0.682328 0.784545 0.84571 0.631274 0.741751 0.514806 0.7189 0.724826 0.770908 0.808646 0.800085 0.735802 0.893991 0.738862 0.698765 0.512082 0.687297 0.779514 0.756249 0.700039 0.66935 0.658847 0.680616 0.710891 0.75023 0.721376 0.674009 0.683661 0.660853 0.808823 0.76501 0.774466 0.726861 0.799826 0.791259 0.76234 0.738265 0.784732 0.767212 0.824369 0.655272 0.684821 0.673522 0.720973 0.750041 0.710835 0.680639 0.658643 0.669318 0.700326 0.755998 0.779539 0.687443 0.511787 0.698766 0.738846 0.864089 0.721043 0.808047 0.811405 0.755485 0.703466 0.739442 0.723824 0.717156 0.693738 0.498176 0.792497 0.77967 0.723432 0.677372 0.654593 0.646305 0.696788 0.712583 0.744234 0.746075 0.651762 0.672746 0.705023 0.719844 0.731193 0.81272 0.837458 0.753187 0.796408 0.721958 0.790568 0.721363 0.789112 0.754901 0.83268 0.814142 0.743368 0.718383 0.705384 0.674446 0.653004 0.744731 0.74435 0.712492 0.696806 0.646269 0.654139 0.677591 0.723413 0.779944 0.792822 0.497964 0.693766 0.717143 0.723802 0.739474 0.703472 0.755489 0.811406 0.808048 0.721046 0.86409 0.833816 0.749189 0.826204 0.783291 0.730368 0.709715 0.742965 0.705899 0.707073 0.68721 0.657475 0.745482 0.792948 0.80062 0.823552 0.830804 0.829354 0.912532 0.80151 0.895832 0.814928 0.868209 0.771565 0.771649 0.785295 0.797975 0.731624 0.731217 0.794522 0.761676 0.712788 0.741155 0.788611 0.789844 0.770401 0.765325 0.856053 0.825356 0.892775 0.746724 0.907361 0.817499 0.826383 0.823122 0.800024 0.79182 0.746115 0.657803 0.687222 0.707044 0.705896 0.742989 0.709719 0.730371 0.783293 0.826205 0.749191 0.833817 0.863682 0.784537 0.745981 0.694335 0.667348 0.655122 0.675106 0.702664 0.743374 0.827909 0.906858 0.901407 0.916241 0.958929 0.818977 0.876472 0.777674 0.818538 0.805681 0.962667 0.91468 0.904742 0.946843 0.819226 0.74307 0.702698 0.67492 0.654711 0.667109 0.694393 0.745894 0.784762 0.863683 0.821746 0.82245 0.905376 0.824247 0.812395 0.791879 0.76038 0.756194 0.710902 0.825842 0.758936 0.770593 0.717437 0.684542 0.669188 0.690172 0.700884 0.737807 0.77702 0.812941 0.789151 0.805675 0.82401 0.876479 0.859867 0.840692 0.809847 0.853857 0.813846 0.755763 0.768397 0.830413 0.792586 0.84415 0.850338 0.87279 0.821467 0.804144 0.787019 0.812148 0.776911 0.737212 0.700762 0.689682 0.669408 0.68398 0.717309 0.77082 0.758911 0.826104 0.710908 0.756192 0.760389 0.791876 0.812399 0.82425 0.905375 0.82245 0.821747 0.888213 0.887684 0.89542 0.894378 0.882023 0.88033 0.874762 0.85794 0.876079 0.846067 0.899536 0.802256 0.870848 0.815872 0.787889 0.764557 0.754407 0.761485 0.772257 0.808549 0.805131 0.778401 0.786423 0.825668 0.839763 0.840614 0.979946 0.851211 0.923714 0.859378 0.968942 0.851568 0.98375 0.879003 0.847475 0.836791 0.869139 0.850187 0.797434 0.861852 0.857369 0.989019 0.834112 0.942584 0.857814 0.924363 0.840062 0.981434 0.838457 0.842573 0.827088 0.787087 0.778302 0.806284 0.809249 0.773552 0.762817 0.755092 0.765794 0.788406 0.816259 0.871148 0.802321 0.899538 0.846077 0.876087 0.857951 0.874773 0.880336 0.882025 0.894378 0.89542 0.887683 0.888213 0.885221 0.905282 0.905535 0.906649 0.907776 0.916158 0.854403 0.691541 0.878576 0.936671 0.92479 0.912693 0.904318 0.902995 0.883323 0.899148 0.905737 0.895782 0.895801 0.896182 0.893085 0.889707 0.878658 0.900943 0.870143 0.897278 0.897597 0.903546 0.841279 0.794164 0.768406 0.757076 0.757815 0.771347 0.79288 0.797709 0.85754 0.874436 0.868529 0.879585 0.875742 0.875525 0.866957 0.877448 0.831233 0.766721 0.826247 0.878194 0.869875 0.879806 0.875873 0.880444 0.867933 0.872943 0.85702 0.798032 0.793879 0.772725 0.759107 0.758041 0.769234 0.794981 0.84163 0.903892 0.89757 0.897263 0.870137 0.900939 0.878651 0.889705 0.893083 0.896181 0.8958 0.895782 0.905738 0.899148 0.898495 0.909 0.896903 0.895474 0.899331 0.895116 0.89227 0.888013 0.902055 0.87584 0.900168 0.900903 0.905685 0.873014 0.865908 0.839702 0.818947 0.81366 0.818723 0.828917 0.834169 0.910427 0.909367 0.885713 0.894105 0.886615 0.911885 0.880126 0.908577 0.875553 0.907724 0.872795 0.90925 0.875455 0.920117 0.837952 0.878826 0.836748 0.894895 0.848751 0.904097 0.880963 0.899195 0.878696 0.903416 0.882746 0.909076 0.885583 0.912878 0.889716 0.904637 0.887747 0.910476 0.911636 0.8349 0.829647 0.819295 0.813636 0.818973 0.83989 0.865323 0.873007 0.905863 0.900873 0.900167 0.875829 0.902045 0.888002 0.892266 0.895114 0.899331 0.895474 0.896903 0.909001 0.898495 0.89468 0.906031 0.897175 0.895873 0.897827 0.894294 0.891345 0.890885 0.899221 0.879873 0.903269 0.905302 0.911331 0.8896 0.887051 0.868104 0.854994 0.853771 0.856868 0.863614 0.853415 0.907918 0.903647 0.887712 0.894353 0.886926 0.893977 0.882283 0.893832 0.87711 0.893832 0.87735 0.89426 0.875383 0.897604 0.843128 0.911531 0.86902 0.89792 0.855853 0.908571 0.883709 0.902653 0.882806 0.899023 0.884521 0.89574 0.886271 0.89399 0.888844 0.894352 0.889111 0.904207 0.908483 0.853604 0.863847 0.857102 0.853574 0.854806 0.868053 0.886991 0.889589 0.911465 0.905293 0.90327 0.879863 0.899212 0.890879 0.891343 0.894294 0.897827 0.895873 0.897175 0.906031 0.89468 0.891749 0.902263 0.896926 0.895769 0.895572 0.893753 0.890456 0.890884 0.895782 0.881663 0.902409 0.902932 0.906126 0.887835 0.882726 0.867675 0.856517 0.855136 0.856133 0.859625 0.855463 0.901681 0.897455 0.889391 0.894562 0.887299 0.894145 0.883918 0.893832 0.879734 0.893832 0.879739 0.895785 0.875741 0.898872 0.849825 0.913665 0.885367 0.891341 0.857594 0.893832 0.883059 0.893832 0.884749 0.893832 0.88579 0.893832 0.88698 0.894202 0.888813 0.894557 0.890558 0.897934 0.90213 0.855495 0.859741 0.856216 0.854927 0.856348 0.867607 0.882753 0.887822 0.906222 0.902927 0.90241 0.881654 0.895777 0.890881 0.890456 0.893754 0.895573 0.895769 0.896926 0.902263 0.891749 0.889649 0.89875 0.896581 0.895633 0.893608 0.893634 0.890262 0.890721 0.893458 0.883469 0.901656 0.900869 0.901925 0.886709 0.880375 0.867508 0.857846 0.85555 0.855242 0.859846 0.859821 0.896307 0.892591 0.890953 0.893832 0.887713 0.893832 0.885556 0.893832 0.882655 0.893832 0.881338 0.893832 0.877424 0.893832 0.85208 0.893832 0.891282 0.890409 0.860725 0.893832 0.883316 0.893832 0.886305 0.893832 0.887455 0.893832 0.887934 0.893832 0.888923 0.893832 0.891949 0.893017 0.896688 0.859795 0.859894 0.855243 0.855371 0.857741 0.867481 0.880396 0.886687 0.901976 0.900862 0.901657 0.883464 0.893457 0.890721 0.890262 0.893635 0.893609 0.895633 0.896581 0.89875 0.889649 0.88818 0.895673 0.896167 0.895471 0.892254 0.89364 0.890444 0.890764 0.891771 0.885042 0.900824 0.899113 0.898873 0.886079 0.880193 0.869301 0.860464 0.857225 0.856195 0.862196 0.865116 0.89255 0.889407 0.892274 0.893832 0.888186 0.893832 0.886922 0.893832 0.88494 0.893832 0.882683 0.893832 0.878928 0.893832 0.856568 0.893832 0.886987 0.887703 0.862551 0.893832 0.884025 0.893832 0.887136 0.893832 0.888544 0.893832 0.888763 0.893832 0.889127 0.893832 0.893094 0.88979 0.89286 0.865066 0.862226 0.85618 0.857097 0.860411 0.869284 0.880197 0.886058 0.898888 0.899106 0.900824 0.885041 0.891771 0.890764 0.890444 0.89364 0.892254 0.895471 0.896167 0.895673 0.88818 0.887229 0.893089 0.895712 0.895289 0.891521 0.893677 0.890784 0.891001 0.890577 0.886381 0.899938 0.897564 0.896745 0.885907 0.880669 0.871686 0.863423 0.859835 0.858728 0.865643 0.870382 0.890085 0.887463 0.89315 0.893832 0.888681 0.893832 0.888057 0.893832 0.8863 0.893832 0.883853 0.893832 0.880663 0.893832 0.860626 0.893832 0.877954 0.889167 0.866245 0.893832 0.884874 0.893832 0.887676 0.893832 0.888918 0.893832 0.889454 0.893832 0.889409 0.893832 0.893776 0.887799 0.890329 0.870335 0.865673 0.858719 0.859761 0.863393 0.871667 0.880664 0.885893 0.896744 0.897561 0.899938 0.886381 0.890578 0.891001 0.890784 0.893677 0.891521 0.895289 0.895712 0.893089 0.887229 0.886707 0.891056 0.895238 0.895088 0.891245 0.89371 0.891162 0.891313 0.889801 0.88752 0.899004 0.896104 0.895152 0.886106 0.881259 0.87394 0.866414 0.863081 0.862153 0.869426 0.875059 0.888593 0.886517 0.893661 0.893832 0.889166 0.893832 0.888947 0.893832 0.886948 0.893832 0.88483 0.893832 0.882347 0.893832 0.864609 0.893832 0.873784 0.888315 0.869275 0.893832 0.885728 0.893832 0.888073 0.893832 0.88885 0.893832 0.889995 0.893832 0.889731 0.893832 0.894138 0.886803 0.888789 0.87503 0.869456 0.862149 0.863042 0.866393 0.873923 0.881253 0.886099 0.895148 0.896103 0.899004 0.88752 0.889802 0.891313 0.891162 0.89371 0.891245 0.895088 0.895238 0.891056 0.886707 0.886531 0.889578 0.89477 0.894873 0.891253 0.89372 0.891519 0.891605 0.88936 0.888491 0.898036 0.894687 0.893819 0.886484 0.881938 0.875946 0.8693 0.866596 0.86596 0.873192 0.878919 0.887847 0.88633 0.893892 0.893832 0.889597 0.893832 0.889603 0.893832 0.887208 0.893832 0.885612 0.893832 0.88379 0.893832 0.868334 0.893832 0.869593 0.888028 0.872004 0.893832 0.886519 0.893832 0.888298 0.893832 0.888605 0.893832 0.890385 0.893832 0.890029 0.893832 0.894236 0.886565 0.888004 0.878907 0.873216 0.865957 0.866575 0.869285 0.875934 0.881934 0.88648 0.893816 0.894687 0.898036 0.888492 0.88936 0.891605 0.891519 0.89372 0.891253 0.894873 0.89477 0.889578 0.886531 0.886623 0.888606 0.894327 0.894649 0.891415 0.893688 0.891818 0.891829 0.889168 0.889313 0.89705 0.893338 0.892616 0.886867 0.882674 0.877732 0.871989 0.870031 0.869746 0.876645 0.881903 0.887639 0.886637 0.893873 0.893832 0.889945 0.893832 0.890055 0.893832 0.887306 0.893832 0.886238 0.893832 0.884978 0.893832 0.871502 0.893832 0.888632 0.874448 0.893832 0.887177 0.893832 0.888397 0.893832 0.888341 0.893832 0.890634 0.893832 0.890267 0.893832 0.894086 0.88682 0.887757 0.881901 0.876662 0.869742 0.870018 0.871979 0.877726 0.882672 0.886864 0.892614 0.893338 0.89705 0.889313 0.889168 0.891829 0.891818 0.893688 0.891416 0.894649 0.894327 0.888606 0.886623 0.86584 0.886914 0.88807 0.893926 0.894421 0.891649 0.893596 0.892033 0.891967 0.889152 0.889994 0.896064 0.892085 0.891504 0.887154 0.883364 0.879294 0.874423 0.873163 0.873218 0.879526 0.884076 0.887762 0.887227 0.893663 0.893832 0.890203 0.893832 0.890338 0.893832 0.887361 0.893832 0.88676 0.893832 0.885921 0.893832 0.874222 0.893832 0.86292 0.889494 0.876593 0.893832 0.887671 0.893832 0.888445 0.893832 0.888133 0.893832 0.890763 0.893832 0.890436 0.893832 0.893779 0.887359 0.887845 0.884077 0.879535 0.873214 0.873155 0.874417 0.879291 0.883363 0.887153 0.891503 0.892085 0.896064 0.889994 0.889152 0.891967 0.892033 0.893596 0.891649 0.894421 0.893926 0.88807 0.886914 0.887347 0.887891 0.893575 0.894191 0.891898 0.893438 0.892157 0.89202 0.889256 0.890547 0.895095 0.890945 0.890472 0.887304 0.88393 0.880598 0.876548 0.875895 0.876246 0.881791 0.885552 0.888065 0.887954 0.893363 0.893832 0.89038 0.893832 0.89049 0.893832 0.887436 0.893832 0.887215 0.893832 0.886646 0.893832 0.876577 0.893832 0.890321 0.878447 0.893832 0.888017 0.893832 0.888494 0.893832 0.888014 0.893832 0.890799 0.893832 0.890544 0.893832 0.893423 0.888042 0.888119 0.885555 0.881795 0.876242 0.875889 0.876544 0.880597 0.883929 0.887303 0.890471 0.890945 0.895095 0.890547 0.889256 0.89202 0.892157 0.893438 0.891898 0.894191 0.893575 0.887891 0.887347 0.860823 0.887873 0.887984 0.89328 0.893966 0.892128 0.893222 0.892196 0.892004 0.889433 0.890984 0.894159 0.88993 0.889516 0.887308 0.884341 0.88163 0.878333 0.878202 0.878801 0.88354 0.886466 0.888456 0.888718 0.893056 0.893832 0.890489 0.893832 0.890549 0.893832 0.887555 0.893832 0.887618 0.893832 0.887192 0.893832 0.878572 0.893832 0.859541 0.891039 0.880032 0.893832 0.888251 0.893832 0.888564 0.893832 0.887987 0.893832 0.890772 0.893832 0.890601 0.893832 0.893089 0.888771 0.888488 0.886469 0.883542 0.878798 0.878198 0.878332 0.88163 0.884341 0.887307 0.889515 0.88993 0.894159 0.890984 0.889433 0.892004 0.892196 0.893222 0.892128 0.893966 0.89328 0.887984 0.887873 0.888265 0.893043 0.893748 0.892316 0.880098 0.88089 0.884877 0.887003 0.888874 0.889455 0.892781 0.893832 0.890545 0.893832 0.890549 0.893832 0.887719 0.893832 0.887975 0.893832 0.8876 0.893832 0.880229 0.893832 0.891641 0.881368 0.893832 0.888407 0.893832 0.888658 0.893832 0.888041 0.893832 0.890709 0.893832 0.890619 0.893832 0.8928 0.889485 0.888892 0.887005 0.884877 0.880887 0.880095 0.892316 0.893748 0.893043 0.888265 0.888446 0.892961 0.892167 0.891937 0.88965 0.891317 0.893268 0.88905 0.888645 0.887178 0.884603 0.882415 0.87979 0.858958 0.87979 0.882415 0.884603 0.887178 0.888645 0.88905 0.893268 0.891317 0.88965 0.891937 0.892167 0.892961 0.888446 0.889026 0.888663 0.892857 0.89354 0.892453 0.892672 0.892085 0.891836 0.889883 0.891555 0.892435 0.888304 0.887876 0.886952 0.88474 0.883002 0.880961 0.881622 0.882548 0.885879 0.887368 0.889283 0.89013 0.892546 0.893832 0.890562 0.893832 0.890518 0.893832 0.887918 0.893832 0.888284 0.893832 0.887902 0.893832 0.881591 0.893832 0.858923 0.89213 0.88248 0.893832 0.88851 0.893832 0.888767 0.893832 0.888155 0.893832 0.890631 0.893832 0.890608 0.893832 0.892556 0.890145 0.889291 0.88737 0.885878 0.882546 0.88162 0.880961 0.883002 0.88474 0.886952 0.887876 0.888304 0.892435 0.891555 0.889883 0.891836 0.892085 0.892672 0.892453 0.89354 0.892857 0.888663 0.889026 0.88958 0.889119 0.892716 0.893345 0.892535 0.892368 0.891963 0.891716 0.890115 0.89171 0.891666 0.887683 0.887215 0.886677 0.884793 0.883446 0.881903 0.882833 0.883844 0.886622 0.887706 0.889659 0.890725 0.892346 0.893832 0.890552 0.893832 0.890475 0.893832 0.888136 0.893832 0.888543 0.893832 0.888123 0.893832 0.882706 0.893832 0.859321 0.892521 0.883397 0.893832 0.888576 0.893832 0.88888 0.893832 0.888308 0.893832 0.890552 0.893832 0.890579 0.893832 0.892351 0.890731 0.889663 0.887707 0.886621 0.883842 0.882832 0.881903 0.883446 0.884793 0.886677 0.887215 0.887683 0.891666 0.89171 0.890115 0.891716 0.891963 0.892369 0.892535 0.893345 0.892716 0.889119 0.88958 0.890084 0.889586 0.892613 0.893165 0.892565 0.892067 0.891811 0.89159 0.890331 0.891794 0.890968 0.887172 0.886663 0.886397 0.884805 0.883795 0.88267 0.883792 0.884852 0.887181 0.88808 0.889994 0.891236 0.892176 0.893832 0.890526 0.893832 0.89043 0.893832 0.888359 0.893832 0.888754 0.893832 0.888284 0.893832 0.883617 0.893832 0.860055 0.89283 0.884152 0.893832 0.888618 0.893832 0.888986 0.893832 0.888481 0.893832 0.890483 0.893832 0.890541 0.893832 0.892178 0.891239 0.889996 0.88808 0.88718 0.884851 0.883792 0.88267 0.883795 0.884805 0.886397 0.886663 0.887172 0.890968 0.891794 0.890331 0.89159 0.891811 0.892067 0.892565 0.893165 0.892613 0.889586 0.890084 0.890524 0.890034 0.892539 0.893 0.892549 0.891778 0.891641 0.891467 0.890524 0.891822 0.890343 0.886757 0.886219 0.886144 0.884808 0.884089 0.88331 0.884559 0.885642 0.887628 0.888494 0.890286 0.891668 0.89203 0.893832 0.890492 0.893832 0.890392 0.893832 0.888575 0.893832 0.88892 0.893832 0.8884 0.893832 0.884362 0.893832 0.861027 0.893074 0.884772 0.893832 0.888643 0.893832 0.889078 0.893832 0.88866 0.893832 0.890426 0.893832 0.890501 0.893832 0.892031 0.891669 0.890286 0.888494 0.887628 0.885642 0.884559 0.88331 0.88409 0.884808 0.886144 0.886219 0.886757 0.890343 0.891822 0.890524 0.891467 0.891641 0.891778 0.892549 0.893 0.892539 0.890034 0.890524 0.890894 0.890444 0.892487 0.892851 0.892499 0.89151 0.891463 0.89135 0.890689 0.891804 0.889791 0.886425 0.885876 0.885938 0.884822 0.884355 0.883858 0.885184 0.88627 0.888016 0.88893 0.890534 0.892028 0.891906 0.893832 0.890457 0.893832 0.890362 0.893832 0.888776 0.893832 0.889047 0.893832 0.888482 0.893832 0.884969 0.893832 0.862145 0.893264 0.885279 0.893832 0.888656 0.893832 0.889154 0.893832 0.888834 0.893832 0.890385 0.893832 0.890461 0.893832 0.891906 0.892028 0.890535 0.888929 0.888015 0.886269 0.885184 0.883858 0.884355 0.884822 0.885938 0.885876 0.886425 0.889791 0.891804 0.890689 0.89135 0.891463 0.89151 0.892499 0.892851 0.892487 0.890444 0.890894 0.891197 0.890804 0.892451 0.89272 0.892424 0.89127 0.891287 0.891243 0.890827 0.891756 0.889311 0.88616 0.885625 0.885789 0.884859 0.884608 0.884341 0.885705 0.886776 0.888374 0.889362 0.890742 0.892324 0.8918 0.893832 0.890424 0.893832 0.890341 0.893832 0.888957 0.893832 0.88914 0.893832 0.888539 0.893832 0.885462 0.893832 0.863325 0.893412 0.885692 0.893832 0.888662 0.893832 0.889211 0.893832 0.888996 0.893832 0.890356 0.893832 0.890426 0.893832 0.8918 0.892324 0.890742 0.889362 0.888373 0.886776 0.885705 0.884341 0.884608 0.884859 0.885789 0.885625 0.88616 0.889311 0.891756 0.890827 0.891243 0.891287 0.89127 0.892424 0.89272 0.892451 0.890804 0.891197 0.891437 0.891112 0.892427 0.892605 0.892336 0.891061 0.89112 0.891146 0.890937 0.891686 0.888902 0.88595 0.885451 0.885694 0.884921 0.884855 0.884771 0.886147 0.887195 0.88871 0.88977 0.890912 0.892565 0.89171 0.893832 0.890395 0.893832 0.890328 0.893832 0.889114 0.893832 0.889206 0.893832 0.888577 0.893832 0.885858 0.893832 0.864494 0.893526 0.886027 0.893832 0.888663 0.893832 0.889253 0.893832 0.88914 0.893832 0.890338 0.893832 0.890397 0.893832 0.89171 0.892565 0.890912 0.88977 0.88871 0.887194 0.886147 0.884771 0.884855 0.884921 0.885694 0.885451 0.88595 0.888902 0.891686 0.890937 0.891146 0.89112 0.891061 0.892336 0.892605 0.892427 0.891112 0.891437 0.891621 0.891366 0.89241 0.892508 0.892245 0.890883 0.890968 0.891061 0.891024 0.891607 0.88856 0.885784 0.885338 0.885644 0.885005 0.885095 0.885155 0.886526 0.887546 0.88902 0.890138 0.891047 0.892758 0.891636 0.893832 0.890372 0.893832 0.890322 0.893832 0.889247 0.893832 0.889251 0.893832 0.888603 0.893832 0.886173 0.893832 0.865595 0.893612 0.886295 0.893832 0.888662 0.893832 0.889282 0.893832 0.889263 0.893832 0.890328 0.893832 0.890373 0.893832 0.891636 0.892758 0.891047 0.890138 0.88902 0.887546 0.886526 0.885155 0.885095 0.885005 0.885644 0.885338 0.885784 0.88856 0.891607 0.891024 0.891061 0.890968 0.890883 0.892245 0.892508 0.89241 0.891366 0.891621 0.891759 0.89157 0.892399 0.892427 0.892159 0.890736 0.890835 0.890988 0.891089 0.891528 0.888281 0.885655 0.88527 0.885627 0.8851 0.885319 0.885491 0.886847 0.887841 0.889295 0.890455 0.891153 0.89291 0.891576 0.893832 0.890354 0.893832 0.89032 0.893832 0.889355 0.893832 0.889281 0.893832 0.88862 0.893832 0.886419 0.893832 0.866579 0.893676 0.886506 0.893832 0.88866 0.893832 0.889301 0.893832 0.889365 0.893832 0.890324 0.893832 0.890355 0.893832 0.891576 0.89291 0.891153 0.890455 0.889295 0.887841 0.886847 0.885491 0.885319 0.8851 0.885627 0.88527 0.885655 0.888281 0.891528 0.891089 0.890988 0.890835 0.890736 0.892159 0.892427 0.892399 0.89157 0.891759 0.891858 0.891728 0.892393 0.892363 0.892084 0.890621 0.890725 0.890929 0.891137 0.891455 0.888063 0.885557 0.885232 0.88563 0.885194 0.885516 0.885773 0.887111 0.888083 0.889525 0.890714 0.891231 0.893025 0.891529 0.893832 0.890341 0.893832 0.890321 0.893832 0.889439 0.893832 0.889299 0.893832 0.88863 0.893832 0.886604 0.893832 0.867409 0.893723 0.886666 0.893832 0.888658 0.893832 0.889312 0.893832 0.889446 0.893832 0.890323 0.893832 0.890341 0.893832 0.891529 0.893025 0.891231 0.890714 0.889525 0.888083 0.887111 0.885773 0.885516 0.885194 0.88563 0.885232 0.885557 0.888063 0.891455 0.891137 0.890929 0.890725 0.890621 0.892084 0.892363 0.892393 0.891728 0.891858 0.891926 0.891842 0.892389 0.892315 0.892025 0.890536 0.89064 0.890884 0.891169 0.891395 0.887902 0.885486 0.885214 0.885641 0.885275 0.885676 0.885994 0.887315 0.88827 0.889702 0.89091 0.891288 0.893108 0.891494 0.893832 0.890332 0.893832 0.890323 0.893832 0.8895 0.893832 0.88931 0.893832 0.888637 0.893832 0.886736 0.893832 0.868056 0.893755 0.886781 0.893832 0.888656 0.893832 0.889319 0.893832 0.889505 0.893832 0.890324 0.893832 0.890332 0.893832 0.891494 0.893108 0.891288 0.89091 0.889702 0.88827 0.887315 0.885994 0.885676 0.885275 0.885641 0.885214 0.885486 0.887902 0.891395 0.891169 0.890884 0.89064 0.890536 0.892025 0.892315 0.892389 0.891842 0.891926 0.891968 0.891916 0.892387 0.892283 0.891985 0.890479 0.890583 0.890854 0.89119 0.891353 0.887796 0.88544 0.885206 0.885654 0.885334 0.885788 0.886146 0.887454 0.888398 0.889824 0.891042 0.891323 0.893161 0.891471 0.893832 0.890327 0.893832 0.890325 0.893832 0.889541 0.893832 0.889316 0.893832 0.88864 0.893832 0.886821 0.893832 0.868498 0.893774 0.886856 0.893832 0.888655 0.893832 0.889322 0.893832 0.889544 0.893832 0.890326 0.893832 0.890327 0.893832 0.891471 0.893161 0.891323 0.891042 0.889824 0.888398 0.887454 0.886146 0.885788 0.885334 0.885654 0.885206 0.88544 0.887796 0.891353 0.89119 0.890854 0.890583 0.890479 0.891985 0.892283 0.892387 0.891916 0.891968 0.891988 0.891953 0.892386 0.892268 0.891964 0.890451 0.890554 0.890838 0.891199 0.891331 0.887744 0.885417 0.885203 0.885662 0.885366 0.885845 0.886224 0.887524 0.888464 0.889885 0.891108 0.891341 0.893188 0.89146 0.893832 0.890324 0.893832 0.890326 0.893832 0.889561 0.893832 0.889319 0.893832 0.888642 0.893832 0.886863 0.893832 0.868722 0.893784 0.886892 0.893832 0.888654 0.893832 0.889324 0.893832 0.889563 0.893832 0.890327 0.893832 0.890324 0.893832 0.89146 0.893188 0.891341 0.891108 0.889885 0.888464 0.887524 0.886224 0.885845 0.885366 0.885662 0.885203 0.885417 0.887744 0.891331 0.891199 0.890838 0.890554 0.890451 0.891964 0.892268 0.892386 0.891953 0.891988 
SCALARS Axial_Stress float 1
LOOKUP_TABLE default
-86056100000.0 -86263400000.0 -37022100000.0 -96346900000.0 -97918000000.0 -106648000000.0 -155249000000.0 -87385300000.0 -184266000000.0 -184261000000.0 -86922200000.0 -155080000000.0 -106803000000.0 -97822800000.0 -96918300000.0 -37428200000.0 -192960000000.0 -241411000000.0 -228166000000.0 -386390000000.0 -186038000000.0 -151973000000.0 -281520000000.0 -216916000000.0 -330879000000.0 -330784000000.0 -215285000000.0 -281503000000.0 -152968000000.0 -185576000000.0 -386096000000.0 -228895000000.0 -243137000000.0 -195334000000.0 -219886000000.0 -446714000000.0 -501121000000.0 -268688000000.0 -583606000000.0 -192599000000.0 -431108000000.0 -76593500000.0 -429931000000.0 -191209000000.0 -584857000000.0 -268722000000.0 -498978000000.0 -448508000000.0 -222196000000.0 -473140000000.0 -250503000000.0 -725068000000.0 -479437000000.0 -656441000000.0 -409780000000.0 -468284000000.0 -320043000000.0 -283247000000.0 -276273000000.0 -283286000000.0 -319051000000.0 -466371000000.0 -407542000000.0 -656014000000.0 -478264000000.0 -724219000000.0 -251142000000.0 -476487000000.0 -708685000000.0 -777559000000.0 -1.08088e+12 -859475000000.0 -499837000000.0 -180064000000.0 -385715000000.0 -445897000000.0 -393682000000.0 -425659000000.0 -425143000000.0 -390939000000.0 -445380000000.0 -383562000000.0 -175133000000.0 -494235000000.0 -855359000000.0 -1.07853e+12 -776971000000.0 -709826000000.0 -524276000000.0 -1.0162e+12 -1.17799e+12 -1.24437e+12 -395922000000.0 -317975000000.0 -560879000000.0 -628940000000.0 -586302000000.0 -625409000000.0 -555591000000.0 -317548000000.0 -394248000000.0 -1.23574e+12 -1.18002e+12 -1.01128e+12 -525428000000.0 -686509000000.0 -1.54943e+12 -1.52775e+12 -1.15281e+12 -510332000000.0 -740520000000.0 -758806000000.0 -1.00435e+12 -844485000000.0 -1.09168e+12 -841059000000.0 -995478000000.0 -751536000000.0 -733862000000.0 -508482000000.0 -1.14741e+12 -1.52689e+12 -1.54504e+12 -686806000000.0 -1.6627e+12 -2.15669e+12 -287791000000.0 -1.5744e+12 -848079000000.0 -980673000000.0 -882823000000.0 -1.07824e+12 -1.28348e+12 -1.27625e+12 -1.06451e+12 -875973000000.0 -975493000000.0 -844456000000.0 -1.56983e+12 -287982000000.0 -2.15435e+12 -1.66145e+12 -595918000000.0 -2.2536e+12 -2.10684e+12 -1.82341e+12 -840520000000.0 -1.77953e+12 -1.44469e+12 -1.08396e+12 -1.38374e+12 -1.58617e+12 -1.36795e+12 -1.09007e+12 -1.4477e+12 -1.77696e+12 -1.23691e+12 -838162000000.0 -1.82414e+12 -2.1079e+12 -2.25415e+12 -597244000000.0 -2.37425e+12 -2.48348e+12 -3.88428e+12 -1.69752e+12 -1.51879e+12 -2.0729e+12 -1.24398e+12 -1.57466e+12 -1.35984e+12 -1.11897e+12 -1.71697e+12 -2.14364e+12 -1.70364e+12 -1.12532e+12 -1.36119e+12 -1.57331e+12 -2.07569e+12 -1.51868e+12 -1.69545e+12 -3.88206e+12 -2.48344e+12 -2.37568e+12 -2.49882e+12 -3.68102e+12 -3.43067e+12 -2.01195e+12 -1.93407e+12 -1.91815e+12 -2.00588e+12 -1.76695e+12 -1.57353e+12 -1.56401e+12 -1.36297e+12 -1.3934e+12 -1.23712e+12 -1.43994e+12 -1.44181e+12 -1.24339e+12 -1.39457e+12 -1.36652e+12 -1.56437e+12 -1.57324e+12 -1.76616e+12 -2.01012e+12 -1.91963e+12 -1.93449e+12 -2.0103e+12 -3.43332e+12 -3.6863e+12 -2.49947e+12 -2.5762e+12 -4.43585e+12 -4.29067e+12 -4.47506e+12 -2.46874e+12 -1.86054e+12 -1.85617e+12 -1.80155e+12 -1.80017e+12 -1.53998e+12 -1.52043e+12 -1.0892e+12 -1.51787e+12 -1.5398e+12 -1.80149e+12 -1.80246e+12 -1.85638e+12 -1.85907e+12 -2.46582e+12 -4.47131e+12 -4.29129e+12 -4.43578e+12 -2.57631e+12 -2.65716e+12 -2.62702e+12 -4.51537e+12 -4.34178e+12 -3.80922e+12 -2.2043e+12 -1.92954e+12 -1.5683e+12 -1.75431e+12 -1.84236e+12 -1.8977e+12 -2.0141e+12 -1.77416e+12 -1.44377e+12 -898029000000.0 -903644000000.0 -1.43788e+12 -1.77227e+12 -2.01553e+12 -1.8964e+12 -1.84111e+12 -1.75319e+12 -1.56506e+12 -1.9261e+12 -2.19857e+12 -3.81024e+12 -4.34041e+12 -4.51507e+12 -2.62679e+12 -2.65687e+12 -2.66824e+12 -4.57581e+12 -4.34411e+12 -4.08983e+12 -4.06196e+12 -3.39264e+12 -2.6382e+12 -2.83423e+12 -1.48452e+12 -2.07106e+12 -2.14194e+12 -2.11385e+12 -1.59414e+12 -662900000000.0 -1.02293e+12 -9035760000.0 -1.02688e+12 -660462000000.0 -1.58768e+12 -2.11735e+12 -2.14593e+12 -2.0695e+12 -1.47945e+12 -2.82859e+12 -2.63366e+12 -3.39538e+12 -4.06153e+12 -4.08907e+12 -4.34362e+12 -4.57547e+12 -2.66803e+12 -2.66031e+12 -4.66908e+12 -4.6285e+12 -4.44556e+12 -4.38997e+12 -4.16063e+12 -3.70426e+12 -3.2814e+12 -2.73484e+12 -2.79334e+12 -2.69294e+12 -1.7155e+12 -2.95048e+12 -2.47828e+12 -2.37173e+12 -2.12912e+12 -2.18436e+12 -2.16755e+12 -2.14981e+12 -2.37402e+12 -2.47877e+12 -2.95074e+12 -1.71674e+12 -2.68102e+12 -2.79172e+12 -2.7295e+12 -3.28114e+12 -3.70436e+12 -4.16053e+12 -4.38968e+12 -4.44523e+12 -4.62824e+12 -4.66892e+12 -2.66017e+12 -2.60073e+12 -2.63643e+12 -4.69288e+12 -4.49792e+12 -4.23829e+12 -3.99838e+12 -3.87217e+12 -3.56715e+12 -2.98516e+12 -2.40625e+12 -2.94871e+12 -4.52813e+12 -2.69514e+12 -2.2847e+12 -2.28775e+12 -1.82073e+12 -1.67654e+12 -1.68566e+12 -1.8118e+12 -2.27998e+12 -2.2901e+12 -2.69527e+12 -4.5252e+12 -2.94498e+12 -2.40358e+12 -2.98454e+12 -3.56731e+12 -3.87227e+12 -3.99826e+12 -4.23806e+12 -4.49773e+12 -4.69277e+12 -2.63633e+12 -2.60066e+12 -2.557e+12 -4.69851e+12 -4.53609e+12 -4.36968e+12 -4.30878e+12 -4.09732e+12 -3.74752e+12 -3.28844e+12 -2.76525e+12 -2.6872e+12 -3.12288e+12 -3.29951e+12 -2.85893e+12 -2.53012e+12 -2.41956e+12 -1.8346e+12 -1.8079e+12 -2.1123e+12 -1.82428e+12 -1.79007e+12 -2.41397e+12 -2.52896e+12 -2.85867e+12 -3.30062e+12 -3.12489e+12 -2.69929e+12 -2.76728e+12 -3.28912e+12 -3.74757e+12 -4.09707e+12 -4.30854e+12 -4.36956e+12 -4.53599e+12 -4.69842e+12 -2.55694e+12 -2.50853e+12 -4.68812e+12 -4.55207e+12 -4.55389e+12 -4.40889e+12 -4.1791e+12 -3.87292e+12 -3.66044e+12 -3.5162e+12 -3.30491e+12 -3.03732e+12 -2.71017e+12 -2.53909e+12 -3.18546e+12 -2.773e+12 -2.86382e+12 -2.62022e+12 -2.22549e+12 -2.28039e+12 -2.52912e+12 -2.15151e+12 -2.14602e+12 -2.56605e+12 -2.27957e+12 -2.19748e+12 -2.61678e+12 -2.86767e+12 -2.77755e+12 -3.18152e+12 -2.54775e+12 -2.72015e+12 -3.0392e+12 -3.30585e+12 -3.51652e+12 -3.66045e+12 -3.87273e+12 -4.17895e+12 -4.40884e+12 -4.55381e+12 -4.55199e+12 -4.68804e+12 -2.50849e+12 -2.45684e+12 -4.62996e+12 -4.66451e+12 -4.53476e+12 -4.42218e+12 -4.29269e+12 -4.25199e+12 -4.05675e+12 -3.97046e+12 -3.76375e+12 -3.47909e+12 -3.09779e+12 -3.14633e+12 -3.08187e+12 -3.03807e+12 -2.71421e+12 -2.55344e+12 -2.42723e+12 -2.35273e+12 -2.20391e+12 -2.64958e+12 -2.21234e+12 -2.35353e+12 -2.418e+12 -2.54894e+12 -2.71406e+12 -3.04077e+12 -3.08103e+12 -3.14059e+12 -3.10106e+12 -3.47937e+12 -3.76372e+12 -3.9703e+12 -4.05664e+12 -4.25193e+12 -4.29265e+12 -4.42213e+12 -4.53468e+12 -4.66443e+12 -4.62988e+12 -2.4568e+12 -2.33978e+12 -2.40122e+12 -4.58413e+12 -4.50597e+12 -4.39159e+12 -4.41345e+12 -4.29956e+12 -4.145e+12 -3.84925e+12 -3.58447e+12 -3.45542e+12 -3.33058e+12 -3.09651e+12 -3.10509e+12 -2.93022e+12 -2.85267e+12 -2.66846e+12 -2.43193e+12 -2.26992e+12 -2.50416e+12 -2.51422e+12 -2.27741e+12 -2.43141e+12 -2.66808e+12 -2.85529e+12 -2.931e+12 -3.1023e+12 -3.09758e+12 -3.33188e+12 -3.45594e+12 -3.58458e+12 -3.84916e+12 -4.14494e+12 -4.2995e+12 -4.41338e+12 -4.39151e+12 -4.50589e+12 -4.58406e+12 -2.40118e+12 -2.33974e+12 -2.27541e+12 -4.52394e+12 -4.42032e+12 -4.46825e+12 -4.36135e+12 -4.28427e+12 -4.18648e+12 -4.18618e+12 -4.04539e+12 -3.92598e+12 -3.71721e+12 -3.65914e+12 -3.51642e+12 -3.44027e+12 -3.3014e+12 -3.08573e+12 -2.96272e+12 -2.75981e+12 -2.51706e+12 -2.33511e+12 -2.30088e+12 -2.33792e+12 -2.36973e+12 -2.4884e+12 -2.37368e+12 -2.34573e+12 -2.3073e+12 -2.33803e+12 -2.51693e+12 -2.76084e+12 -2.9617e+12 -3.08403e+12 -3.30231e+12 -3.44094e+12 -3.51662e+12 -3.6592e+12 -3.71718e+12 -3.92588e+12 -4.04531e+12 -4.18613e+12 -4.18642e+12 -4.2842e+12 -4.36127e+12 -4.46817e+12 -4.42025e+12 -4.52387e+12 -2.27538e+12 -2.20951e+12 -4.44201e+12 -4.35894e+12 -4.32712e+12 -4.2407e+12 -4.2627e+12 -4.16961e+12 -4.09203e+12 -3.74652e+12 -3.55418e+12 -3.47076e+12 -3.48937e+12 -3.17004e+12 -3.01808e+12 -2.9886e+12 -2.82812e+12 -2.8118e+12 -2.65391e+12 -2.59767e+12 -2.44383e+12 -2.39112e+12 -2.308e+12 -2.28725e+12 -2.33089e+12 -2.29166e+12 -2.31044e+12 -2.39173e+12 -2.44489e+12 -2.59886e+12 -2.654e+12 -2.81152e+12 -2.82738e+12 -2.98747e+12 -3.01781e+12 -3.17023e+12 -3.49019e+12 -3.47123e+12 -3.55425e+12 -3.74643e+12 -4.09197e+12 -4.16953e+12 -4.26261e+12 -4.24062e+12 -4.32704e+12 -4.35886e+12 -4.44194e+12 -2.20948e+12 -2.1592e+12 -4.18436e+12 -4.33481e+12 -4.27029e+12 -4.28044e+12 -4.21365e+12 -4.16757e+12 -4.10745e+12 -4.09328e+12 -4.02268e+12 -3.95944e+12 -3.52551e+12 -3.3725e+12 -3.48361e+12 -3.56612e+12 -3.56948e+12 -3.7776e+12 -3.13965e+12 -2.85098e+12 -2.67254e+12 -2.48409e+12 -2.3229e+12 -2.25144e+12 -2.26271e+12 -2.26456e+12 -2.25478e+12 -2.32444e+12 -2.4847e+12 -2.67183e+12 -2.85101e+12 -3.13858e+12 -3.77914e+12 -3.57081e+12 -3.56599e+12 -3.48356e+12 -3.37246e+12 -3.5255e+12 -3.95937e+12 -4.02262e+12 -4.09321e+12 -4.10738e+12 -4.16749e+12 -4.21357e+12 -4.28036e+12 -4.27022e+12 -4.33474e+12 -4.1843e+12 -2.15917e+12 -2.11655e+12 -2.13421e+12 -4.01211e+12 -4.15768e+12 -4.12221e+12 -4.21997e+12 -4.16055e+12 -4.15265e+12 -4.12111e+12 -4.0984e+12 -3.88986e+12 -3.43461e+12 -3.21306e+12 -3.33905e+12 -3.89156e+12 -4.78946e+12 -2.8204e+12 -2.66996e+12 -2.50696e+12 -2.33415e+12 -2.2346e+12 -2.20706e+12 -2.16277e+12 -2.2171e+12 -2.16342e+12 -2.20901e+12 -2.23636e+12 -2.3352e+12 -2.50666e+12 -2.66937e+12 -2.823e+12 -4.78696e+12 -3.89135e+12 -3.33881e+12 -3.21298e+12 -3.4345e+12 -3.8898e+12 -4.09834e+12 -4.12102e+12 -4.15256e+12 -4.16046e+12 -4.21989e+12 -4.12214e+12 -4.15761e+12 -4.01205e+12 -2.13418e+12 -2.11652e+12 -2.09033e+12 -3.83563e+12 -3.97993e+12 -4.02047e+12 -4.10404e+12 -4.04902e+12 -4.12439e+12 -4.08407e+12 -4.10267e+12 -4.19653e+12 -4.16142e+12 -4.37967e+12 -2.64969e+12 -3.15505e+12 -3.40062e+12 -3.49547e+12 -3.2007e+12 -2.16931e+12 -2.63049e+12 -2.59237e+12 -2.52699e+12 -2.328e+12 -2.33636e+12 -2.20642e+12 -2.221e+12 -2.1339e+12 -2.16722e+12 -2.11276e+12 -2.11354e+12 -2.11336e+12 -2.16862e+12 -2.13474e+12 -2.22208e+12 -2.20685e+12 -2.33649e+12 -2.3279e+12 -2.52667e+12 -2.59211e+12 -2.62984e+12 -2.16756e+12 -3.20182e+12 -3.49536e+12 -3.40046e+12 -3.15487e+12 -2.64948e+12 -4.37976e+12 -4.16141e+12 -4.19647e+12 -4.10258e+12 -4.08395e+12 -4.12429e+12 -4.04892e+12 -4.10395e+12 -4.02039e+12 -3.97986e+12 -3.83557e+12 -2.0903e+12 -2.05222e+12 -3.6624e+12 -3.53432e+12 -3.76987e+12 -3.81205e+12 -3.94542e+12 -3.991e+12 -4.02354e+12 -4.0559e+12 -3.99251e+12 -4.08963e+12 -4.05461e+12 -4.42923e+12 -4.7489e+12 -2.86303e+12 -2.96669e+12 -3.15571e+12 -3.18137e+12 -2.14208e+12 -1.3925e+12 -2.85945e+12 -2.30569e+12 -2.19148e+12 -2.1003e+12 -2.06791e+12 -2.06227e+12 -2.06243e+12 -2.06839e+12 -2.10078e+12 -2.19166e+12 -2.30571e+12 -2.85888e+12 -1.39355e+12 -2.14229e+12 -3.18128e+12 -3.15548e+12 -2.96649e+12 -2.86293e+12 -4.74883e+12 -4.4292e+12 -4.0545e+12 -4.08951e+12 -3.99239e+12 -4.05578e+12 -4.02344e+12 -3.99092e+12 -3.94534e+12 -3.81197e+12 -3.76981e+12 -3.53426e+12 -3.66234e+12 -2.05219e+12 -1.97543e+12 -3.40836e+12 -3.50771e+12 -3.28806e+12 -3.54305e+12 -3.71239e+12 -3.86853e+12 -4.0277e+12 -3.93534e+12 -4.00566e+12 -4.02549e+12 -4.22242e+12 -4.31155e+12 -2.10824e+12 -2.73301e+12 -2.94815e+12 -2.54369e+12 -2.32297e+12 -1.81537e+12 -2.23851e+12 -2.17945e+12 -2.06406e+12 -2.02424e+12 -2.01233e+12 -2.01137e+12 -2.01256e+12 -2.02467e+12 -2.06451e+12 -2.17965e+12 -2.23828e+12 -1.81437e+12 -2.32419e+12 -2.54347e+12 -2.94796e+12 -2.73296e+12 -2.10821e+12 -4.31145e+12 -4.22231e+12 -4.02537e+12 -4.00554e+12 -3.93523e+12 -4.02758e+12 -3.86843e+12 -3.71231e+12 -3.54298e+12 -3.288e+12 -3.50766e+12 -3.40831e+12 -1.9754e+12 -1.96415e+12 -1.9929e+12 -3.56498e+12 -2.89547e+12 -3.16461e+12 -3.32195e+12 -3.98795e+12 -3.67275e+12 -3.72694e+12 -3.83568e+12 -3.96161e+12 -3.83496e+12 -3.96993e+12 -4.37366e+12 -2.32427e+12 -2.88107e+12 -2.58648e+12 -2.8474e+12 -2.36133e+12 -1.35538e+12 -3.04646e+12 -2.00498e+12 -2.17163e+12 -1.92289e+12 -2.02117e+12 -1.93554e+12 -1.98027e+12 -1.91353e+12 -1.96308e+12 -1.90766e+12 -1.9599e+12 -1.90795e+12 -1.96e+12 -1.90784e+12 -1.9634e+12 -1.91395e+12 -1.98077e+12 -1.93619e+12 -2.02173e+12 -1.9232e+12 -2.17143e+12 -2.00422e+12 -3.04751e+12 -1.359e+12 -2.36042e+12 -2.84706e+12 -2.58642e+12 -2.88093e+12 -2.32429e+12 -4.37352e+12 -3.96977e+12 -3.83483e+12 -3.96143e+12 -3.83555e+12 -3.72684e+12 -3.67268e+12 -3.98785e+12 -3.32186e+12 -3.16454e+12 -2.89541e+12 -3.56493e+12 -1.99287e+12 -1.96412e+12 -1.90352e+12 -3.52402e+12 -3.49351e+12 -3.82295e+12 -2.57784e+12 -2.40431e+12 -3.78179e+12 -4.23629e+12 -3.99896e+12 -3.1301e+12 -4.07795e+12 -3.65923e+12 -3.11673e+12 -3.83501e+12 -3.66812e+12 -3.77377e+12 -2.93053e+12 -2.88129e+12 -2.73456e+12 -2.84663e+12 -1.61541e+12 -1.85631e+12 -1.86792e+12 -1.85306e+12 -1.85515e+12 -1.85523e+12 -1.85336e+12 -1.86856e+12 -1.85681e+12 -1.61574e+12 -2.8459e+12 -2.73421e+12 -2.88129e+12 -2.93048e+12 -3.77362e+12 -3.66811e+12 -3.83479e+12 -3.11653e+12 -3.65904e+12 -4.0778e+12 -3.13003e+12 -3.99887e+12 -4.23622e+12 -3.7817e+12 -2.40421e+12 -2.5778e+12 -3.82289e+12 -3.49345e+12 -3.52397e+12 -1.9035e+12 -1.82846e+12 -3.41464e+12 -3.31386e+12 -3.43125e+12 -3.47999e+12 -4.06135e+12 -4.23528e+12 -3.34929e+12 -4.52705e+12 -5.8291e+12 -2.73517e+12 -5.39337e+12 -4.57456e+12 -3.89195e+12 -2.40083e+12 -3.13662e+12 -4.09545e+12 -3.16884e+12 -3.25016e+12 -1.85888e+12 -3.15329e+12 -931177000000.0 -2.5262e+12 -2.26421e+12 -891527000000.0 -1.26127e+12 -1.66588e+12 -1.82739e+12 -1.79578e+12 -1.80018e+12 -1.80254e+12 -1.80033e+12 -1.79625e+12 -1.82799e+12 -1.66672e+12 -1.26308e+12 -892695000000.0 -2.2644e+12 -2.52869e+12 -930680000000.0 -3.1533e+12 -1.85952e+12 -3.25006e+12 -3.16863e+12 -4.095e+12 -3.13646e+12 -2.40094e+12 -3.89175e+12 -4.5742e+12 -5.39312e+12 -2.73521e+12 -5.82903e+12 -4.52694e+12 -3.3491e+12 -4.23518e+12 -4.06126e+12 -3.47993e+12 -3.43119e+12 -3.31381e+12 -3.4146e+12 -1.82844e+12 -1.73775e+12 -3.1416e+12 -3.28845e+12 -3.20188e+12 -3.24887e+12 -3.52583e+12 -3.4379e+12 -3.88892e+12 -4.08837e+12 -4.16897e+12 -4.05108e+12 -3.08546e+12 -4.51351e+12 -1.96339e+12 -4.89251e+12 -4.99289e+12 -2.4117e+12 -2.58886e+12 -2.75084e+12 -1.97264e+12 -1.54234e+12 -1.78964e+12 -989538000000.0 -1.75319e+12 -1.7729e+12 -1.6655e+12 -1.73819e+12 -1.67875e+12 -1.74122e+12 -1.69178e+12 -1.74851e+12 -1.69563e+12 -1.74857e+12 -1.6919e+12 -1.74148e+12 -1.67923e+12 -1.7389e+12 -1.66604e+12 -1.77339e+12 -1.75422e+12 -989319000000.0 -1.78921e+12 -1.54109e+12 -1.97289e+12 -2.75056e+12 -2.58833e+12 -2.41106e+12 -4.99266e+12 -4.89242e+12 -1.96298e+12 -4.51349e+12 -3.08506e+12 -4.05113e+12 -4.16864e+12 -4.08821e+12 -3.88884e+12 -3.43782e+12 -3.52576e+12 -3.24882e+12 -3.20183e+12 -3.28841e+12 -3.14157e+12 -1.73772e+12 -1.52355e+12 -1.63792e+12 -2.98164e+12 -3.0648e+12 -3.14245e+12 -3.10966e+12 -3.13403e+12 -2.63121e+12 -3.20189e+12 -3.51951e+12 -4.70614e+12 -4.02556e+12 -3.43219e+12 -3.78326e+12 -3.36029e+12 -3.51387e+12 -3.43914e+12 -3.54676e+12 -3.9569e+12 -2.64639e+12 -875944000000.0 -3.09494e+12 -1.29221e+12 -1.65313e+12 -1.86592e+12 -2.3751e+12 -2.32113e+12 -1.54834e+12 -1.61388e+12 -1.63152e+12 -1.64114e+12 -1.64117e+12 -1.63174e+12 -1.61457e+12 -1.54903e+12 -2.32103e+12 -2.37476e+12 -1.86673e+12 -1.65282e+12 -1.29195e+12 -3.09525e+12 -875279000000.0 -2.64624e+12 -3.95698e+12 -3.54684e+12 -3.43863e+12 -3.51353e+12 -3.36006e+12 -3.783e+12 -3.43199e+12 -4.02537e+12 -4.70594e+12 -3.51937e+12 -3.20163e+12 -2.63124e+12 -3.13398e+12 -3.10959e+12 -3.14239e+12 -3.06476e+12 -2.9816e+12 -1.6379e+12 -1.52353e+12 -1.39278e+12 -2.80401e+12 -2.91477e+12 -2.86795e+12 -2.99792e+12 -2.92983e+12 -3.07412e+12 -1.7292e+12 -2.16055e+12 -3.90317e+12 -3.86108e+12 -3.23384e+12 -3.38556e+12 -3.13332e+12 -3.42421e+12 -3.0082e+12 -3.66275e+12 -2.6674e+12 -1.30595e+12 -1.9386e+12 -1.48871e+12 -1.73497e+12 -1.2726e+12 -344553000000.0 -1.34112e+12 -1.53364e+12 -1.57089e+12 -1.58415e+12 -1.58856e+12 -1.58424e+12 -1.57129e+12 -1.53412e+12 -1.34267e+12 -344085000000.0 -1.2722e+12 -1.73502e+12 -1.48973e+12 -1.93761e+12 -1.30472e+12 -2.66663e+12 -3.66237e+12 -3.00805e+12 -3.42396e+12 -3.13294e+12 -3.38525e+12 -3.23354e+12 -3.86084e+12 -3.90299e+12 -2.1605e+12 -1.72927e+12 -3.07403e+12 -2.92976e+12 -2.99786e+12 -2.86791e+12 -2.91473e+12 -2.80398e+12 -1.39277e+12 -1.2588e+12 -2.60942e+12 -2.54891e+12 -2.74004e+12 -2.69652e+12 -2.80679e+12 -2.84473e+12 -3.15556e+12 -3.95207e+12 -3.17195e+12 -3.40006e+12 -3.54408e+12 -3.41475e+12 -3.4255e+12 -2.96918e+12 -2.96689e+12 -2.85948e+12 -2.93582e+12 -1.9132e+12 -1.4796e+12 -1.63253e+12 -1.49405e+12 -1.4996e+12 -1.3629e+12 -586390000000.0 -1.44884e+12 -1.44919e+12 -1.51304e+12 -1.47138e+12 -1.52551e+12 -1.47897e+12 -1.53441e+12 -1.48207e+12 -1.53438e+12 -1.47886e+12 -1.52563e+12 -1.47152e+12 -1.51363e+12 -1.44984e+12 -1.44964e+12 -587195000000.0 -1.36275e+12 -1.49921e+12 -1.4939e+12 -1.63265e+12 -1.48018e+12 -1.91294e+12 -2.93573e+12 -2.85923e+12 -2.96661e+12 -2.96883e+12 -3.42524e+12 -3.4145e+12 -3.54384e+12 -3.39984e+12 -3.1718e+12 -3.95195e+12 -3.15541e+12 -2.84464e+12 -2.80672e+12 -2.69648e+12 -2.74e+12 -2.54888e+12 -2.60939e+12 -1.25878e+12 -999465000000.0 -1.12555e+12 -2.17669e+12 -2.4016e+12 -2.34135e+12 -2.51001e+12 -2.65543e+12 -2.5387e+12 -2.77332e+12 -2.86222e+12 -2.70464e+12 -1.84007e+12 -3.82637e+12 -3.19763e+12 -3.2014e+12 -3.20961e+12 -3.15938e+12 -3.15742e+12 -3.04312e+12 -3.04191e+12 -2.59355e+12 -2.53109e+12 -2.0385e+12 -2.07875e+12 -1.93143e+12 -1.4786e+12 -1.36682e+12 -1.25185e+12 -960958000000.0 -579723000000.0 -1.25415e+12 -1.41179e+12 -1.42557e+12 -1.42863e+12 -1.42829e+12 -1.42536e+12 -1.41211e+12 -1.25546e+12 -580587000000.0 -960599000000.0 -1.25105e+12 -1.36569e+12 -1.47763e+12 -1.93109e+12 -2.07839e+12 -2.03813e+12 -2.5308e+12 -2.59323e+12 -3.04156e+12 -3.04278e+12 -3.1571e+12 -3.15908e+12 -3.20933e+12 -3.20118e+12 -3.19747e+12 -3.82628e+12 -1.83999e+12 -2.70449e+12 -2.86209e+12 -2.77324e+12 -2.53864e+12 -2.65538e+12 -2.50998e+12 -2.34133e+12 -2.40158e+12 -2.17668e+12 -1.12553e+12 -999453000000.0 -847173000000.0 -1.93208e+12 -2.13126e+12 -2.3094e+12 -2.28336e+12 -2.46388e+12 -2.42338e+12 -2.47711e+12 -3.08569e+12 -2.20041e+12 -2.96005e+12 -2.90025e+12 -2.90911e+12 -2.87142e+12 -2.85006e+12 -2.79012e+12 -2.7518e+12 -2.69144e+12 -2.69425e+12 -2.07435e+12 -1.96156e+12 -1.78794e+12 -1.65723e+12 -1.47417e+12 -1.25683e+12 -1.18362e+12 -1.30219e+12 -1.63348e+12 -1.63757e+12 -1.44616e+12 -1.30291e+12 -1.38847e+12 -1.37231e+12 -1.37841e+12 -1.37158e+12 -1.38787e+12 -1.30313e+12 -1.44872e+12 -1.6401e+12 -1.63615e+12 -1.30385e+12 -1.18286e+12 -1.25504e+12 -1.47386e+12 -1.65724e+12 -1.78797e+12 -1.96141e+12 -2.07409e+12 -2.69392e+12 -2.69101e+12 -2.75136e+12 -2.78969e+12 -2.84968e+12 -2.87108e+12 -2.90881e+12 -2.90002e+12 -2.95986e+12 -2.20019e+12 -3.08555e+12 -2.47703e+12 -2.42334e+12 -2.46385e+12 -2.28334e+12 -2.30938e+12 -2.13124e+12 -1.93207e+12 -847169000000.0 -682008000000.0 -1.6792e+12 -1.89082e+12 -1.85544e+12 -2.09076e+12 -2.08611e+12 -2.23655e+12 -2.11844e+12 -2.55329e+12 -2.6581e+12 -4.15692e+12 -4.22298e+12 -3.11427e+12 -2.8973e+12 -2.71126e+12 -2.62203e+12 -2.55976e+12 -2.49494e+12 -2.42776e+12 -2.37039e+12 -2.43729e+12 -2.3854e+12 -2.29938e+12 -1.71181e+12 -1.56002e+12 -1.46744e+12 -1.39938e+12 -1.35002e+12 -939850000000.0 -780409000000.0 -71162900000.0 -1.41249e+12 -1.35302e+12 -1.27635e+12 -1.31419e+12 -1.27218e+12 -1.32628e+12 -1.27416e+12 -1.32521e+12 -1.27091e+12 -1.31353e+12 -1.27472e+12 -1.35272e+12 -1.41082e+12 -71173300000.0 -783306000000.0 -938911000000.0 -1.34778e+12 -1.39744e+12 -1.46648e+12 -1.56045e+12 -1.71207e+12 -2.29905e+12 -2.38504e+12 -2.4369e+12 -2.36977e+12 -2.42717e+12 -2.49445e+12 -2.55936e+12 -2.62168e+12 -2.71097e+12 -2.89709e+12 -3.1141e+12 -4.22293e+12 -4.15685e+12 -2.65799e+12 -2.55317e+12 -2.11838e+12 -2.23652e+12 -2.08609e+12 -2.09074e+12 -1.85542e+12 -1.89081e+12 -1.67919e+12 -682007000000.0 -507002000000.0 -1.37349e+12 -1.36721e+12 -1.63211e+12 -1.6033e+12 -1.83227e+12 -2.11969e+12 -2.16695e+12 -2.23499e+12 -1.92135e+12 -3.24492e+12 -2.98934e+12 -2.56928e+12 -2.27428e+12 -2.19808e+12 -2.09399e+12 -1.88409e+12 -2.21443e+12 -2.19792e+12 -2.12566e+12 -1.98668e+12 -1.87076e+12 -1.30279e+12 -1.35775e+12 -1.29675e+12 -1.20504e+12 -1.0859e+12 -1.80931e+12 -1.17948e+12 -1.22e+12 -1.2204e+12 -1.2188e+12 -1.22005e+12 -1.17924e+12 -1.80879e+12 -1.08331e+12 -1.20175e+12 -1.29331e+12 -1.35435e+12 -1.30273e+12 -1.87069e+12 -1.98637e+12 -2.1253e+12 -2.19758e+12 -2.2143e+12 -1.88329e+12 -2.09332e+12 -2.19758e+12 -2.27388e+12 -2.56908e+12 -2.98921e+12 -3.24482e+12 -1.9213e+12 -2.23496e+12 -2.16694e+12 -2.11967e+12 -1.83226e+12 -1.60329e+12 -1.6321e+12 -1.36721e+12 -1.37348e+12 -507001000000.0 -105151000000.0 -537684000000.0 -1.06609e+12 -1.00674e+12 -1.34475e+12 -1.58446e+12 -1.83817e+12 -1.84723e+12 -2.75455e+12 -1.35092e+12 -1.72827e+12 -1.64596e+12 -2.1873e+12 -2.44034e+12 -2.34048e+12 -2.24402e+12 -2.09711e+12 -1.99947e+12 -1.88502e+12 -1.77127e+12 -1.6359e+12 -1.46269e+12 -1.31311e+12 -1.1941e+12 -1.12239e+12 -1.092e+12 -1.17286e+12 -1.44194e+12 -1.74424e+12 -719091000000.0 -1.29937e+12 -1.15385e+12 -1.16965e+12 -1.15227e+12 -1.29772e+12 -710211000000.0 -1.74796e+12 -1.43749e+12 -1.16466e+12 -1.08774e+12 -1.11919e+12 -1.19022e+12 -1.30876e+12 -1.46399e+12 -1.63601e+12 -1.77112e+12 -1.8847e+12 -1.99913e+12 -2.09688e+12 -2.24408e+12 -2.34014e+12 -2.44008e+12 -2.18719e+12 -1.64582e+12 -1.72817e+12 -1.35088e+12 -2.75453e+12 -1.84721e+12 -1.83816e+12 -1.58445e+12 -1.34474e+12 -1.00674e+12 -1.06609e+12 -537683000000.0 -105150000000.0 -577425000000.0 -1.13747e+12 -1.30689e+12 -1.29771e+12 -1.59508e+12 -1.66204e+12 -1.44253e+12 -2.03962e+12 -726062000000.0 -1.13533e+12 -2.07804e+12 -2.0173e+12 -2.00315e+12 -1.98314e+12 -1.92951e+12 -1.8264e+12 -1.60406e+12 -1.88815e+12 -1.78377e+12 -1.68011e+12 -1.57144e+12 -1.46058e+12 -1.38239e+12 -1.3178e+12 -1.15902e+12 -1.09351e+12 -1.02167e+12 -927317000000.0 -1.00621e+12 -635677000000.0 -1.30286e+12 -1.34065e+12 -1.25319e+12 -1.04143e+12 -993883000000.0 -1.11371e+12 -1.10323e+12 -1.11253e+12 -995130000000.0 -1.04194e+12 -1.23941e+12 -1.34774e+12 -1.30638e+12 -647321000000.0 -1.0234e+12 -914152000000.0 -1.01223e+12 -1.08748e+12 -1.15415e+12 -1.31572e+12 -1.37958e+12 -1.45971e+12 -1.57089e+12 -1.67953e+12 -1.78327e+12 -1.88783e+12 -1.60331e+12 -1.8258e+12 -1.9291e+12 -1.98278e+12 -2.00284e+12 -2.01707e+12 -2.07779e+12 -1.13527e+12 -725977000000.0 -2.0396e+12 -1.44251e+12 -1.66202e+12 -1.59507e+12 -1.2977e+12 -1.30688e+12 -1.13747e+12 -577424000000.0 -95066000000.0 -580652000000.0 -1.01916e+12 -961684000000.0 -1.31938e+12 -1.79761e+12 -1.50039e+12 -1.38197e+12 -2.01496e+12 -1.52472e+12 -1.92053e+12 -1.54513e+12 -1.59167e+12 -1.68378e+12 -1.69267e+12 -1.59139e+12 -1.37124e+12 -2.14209e+12 -2.00425e+12 -1.58141e+12 -1.48384e+12 -1.38502e+12 -1.30083e+12 -1.2367e+12 -1.15843e+12 -1.23025e+12 -866624000000.0 -734796000000.0 -448953000000.0 -404323000000.0 -564454000000.0 -1.07152e+12 -1.06391e+12 -586504000000.0 -412035000000.0 -445804000000.0 -727804000000.0 -856429000000.0 -1.22504e+12 -1.15529e+12 -1.23385e+12 -1.29868e+12 -1.38389e+12 -1.48294e+12 -1.58071e+12 -2.00395e+12 -2.14185e+12 -1.3705e+12 -1.59088e+12 -1.69236e+12 -1.6834e+12 -1.59146e+12 -1.54504e+12 -1.92055e+12 -1.52465e+12 -2.01488e+12 -1.38188e+12 -1.50037e+12 -1.7976e+12 -1.31937e+12 -961677000000.0 -1.01915e+12 -580650000000.0 -95066600000.0 -111398000000.0 -125533000000.0 -845681000000.0 -523816000000.0 -1.01336e+12 -931314000000.0 -1.36817e+12 -1.64811e+12 -1.34608e+12 -1.33056e+12 -1.6728e+12 -1.45276e+12 -1.55064e+12 -1.47043e+12 -1.55493e+12 -1.57083e+12 -1.40372e+12 -1.15132e+12 -1.9461e+12 -1.83512e+12 -1.76267e+12 -1.67189e+12 -1.19754e+12 -1.13229e+12 -1.08589e+12 -1.03118e+12 -1.17772e+12 -1.13817e+12 -1.02489e+12 -1.01231e+12 -1.10271e+12 -990561000000.0 -1.0621e+12 -1.05563e+12 -1.04007e+12 -981628000000.0 -1.10048e+12 -1.00903e+12 -1.01642e+12 -1.13135e+12 -1.17215e+12 -1.027e+12 -1.08205e+12 -1.12926e+12 -1.19543e+12 -1.67144e+12 -1.76228e+12 -1.83447e+12 -1.94556e+12 -1.15075e+12 -1.40341e+12 -1.57078e+12 -1.55487e+12 -1.47042e+12 -1.55057e+12 -1.4527e+12 -1.67274e+12 -1.33049e+12 -1.34603e+12 -1.64809e+12 -1.36816e+12 -931307000000.0 -1.01335e+12 -523812000000.0 -845680000000.0 -125531000000.0 -111398000000.0 -501378000000.0 -624578000000.0 -924762000000.0 -1.1987e+12 -732789000000.0 -867492000000.0 -785525000000.0 -877038000000.0 -1.33655e+12 -1.39185e+12 -1.44969e+12 -1.53863e+12 -1.28262e+12 -937139000000.0 -1.69438e+12 -1.5397e+12 -1.60473e+12 -1.54708e+12 -1.47381e+12 -1.3908e+12 -1.29286e+12 -955929000000.0 -897809000000.0 -1.20247e+12 -1.09855e+12 -887285000000.0 -634206000000.0 -379148000000.0 -751855000000.0 -383973000000.0 -562850000000.0 -516461000000.0 -606914000000.0 -1.17355e+12 -584187000000.0 -506701000000.0 -558086000000.0 -369285000000.0 -740400000000.0 -353795000000.0 -615661000000.0 -874484000000.0 -1.08941e+12 -1.19668e+12 -893820000000.0 -951293000000.0 -1.29145e+12 -1.3898e+12 -1.47317e+12 -1.54663e+12 -1.60426e+12 -1.53817e+12 -1.6936e+12 -936869000000.0 -1.2825e+12 -1.53852e+12 -1.44968e+12 -1.39181e+12 -1.33643e+12 -876945000000.0 -785462000000.0 -867456000000.0 -732765000000.0 -1.19868e+12 -924760000000.0 -624579000000.0 -501375000000.0 -145128000000.0 -543812000000.0 -618360000000.0 -975253000000.0 -1.33466e+12 -381430000000.0 -1.3267e+12 -461210000000.0 -1.19279e+12 -1.49317e+12 -1.42417e+12 -1.3628e+12 -1.2934e+12 -1.20914e+12 -1.0687e+12 -988580000000.0 -956577000000.0 -1.06955e+12 -951016000000.0 -845581000000.0 -793991000000.0 -779058000000.0 -823540000000.0 -983654000000.0 -1.01621e+12 -1.12855e+12 -1.21574e+12 -1.16586e+12 -1.12096e+12 -1.00826e+12 -994061000000.0 -816070000000.0 -779681000000.0 -782624000000.0 -833067000000.0 -940408000000.0 -1.06081e+12 -952433000000.0 -985739000000.0 -1.0668e+12 -1.20779e+12 -1.29247e+12 -1.36225e+12 -1.42396e+12 -1.49366e+12 -1.1919e+12 -461190000000.0 -1.32667e+12 -381400000000.0 -1.33463e+12 -975227000000.0 -618342000000.0 -543812000000.0 -145126000000.0 -307699000000.0 -200310000000.0 -534562000000.0 -678616000000.0 -788823000000.0 -158004000000.0 -1.21151e+12 -1.02242e+12 -1.17358e+12 -1.22841e+12 -1.47071e+12 -1.23784e+12 -814032000000.0 -1.44407e+12 -1.24545e+12 -1.19628e+12 -1.15107e+12 -1.11328e+12 -1.15719e+12 -1.17175e+12 -1.12561e+12 -1.01893e+12 -871384000000.0 -1.57589e+12 -1.15876e+12 -1.06023e+12 -1.00887e+12 -1.57806e+12 -865206000000.0 -1.0143e+12 -1.12094e+12 -1.16835e+12 -1.15447e+12 -1.11142e+12 -1.14978e+12 -1.19538e+12 -1.24495e+12 -1.44332e+12 -814114000000.0 -1.2378e+12 -1.47064e+12 -1.22838e+12 -1.17348e+12 -1.02234e+12 -1.21149e+12 -157997000000.0 -788803000000.0 -678595000000.0 -534554000000.0 -200309000000.0 -307697000000.0 -227179000000.0 -263494000000.0 -648089000000.0 -564956000000.0 -65161800000.0 -665422000000.0 -946225000000.0 -1.01033e+12 -1.1011e+12 -1.29217e+12 -830518000000.0 -1.23837e+12 -782904000000.0 -1.36123e+12 -1.29841e+12 -1.0341e+12 -1.05233e+12 -1.04028e+12 -986493000000.0 -956790000000.0 -821904000000.0 -1.06447e+12 -1.04082e+12 -757198000000.0 -655005000000.0 -690427000000.0 -511546000000.0 -554011000000.0 -272368000000.0 -653728000000.0 -1.20168e+12 -664205000000.0 -222986000000.0 -536998000000.0 -471084000000.0 -676102000000.0 -628159000000.0 -741092000000.0 -1.0298e+12 -1.05533e+12 -810749000000.0 -951147000000.0 -980409000000.0 -1.03648e+12 -1.04951e+12 -1.03181e+12 -1.29822e+12 -1.3611e+12 -781953000000.0 -1.2377e+12 -830674000000.0 -1.29209e+12 -1.10099e+12 -1.01023e+12 -946122000000.0 -665385000000.0 -65157700000.0 -564943000000.0 -648080000000.0 -263492000000.0 -227178000000.0 -97372100000.0 -149009000000.0 -351126000000.0 -894604000000.0 -394778000000.0 -1.12791e+12 -647685000000.0 -834630000000.0 -879440000000.0 -927184000000.0 -979310000000.0 -1.07513e+12 -648969000000.0 -1.0638e+12 -1.1297e+12 -1.10842e+12 -1.07292e+12 -1.04377e+12 -1.02477e+12 -950046000000.0 -942029000000.0 -924345000000.0 -1.12857e+12 -1.25717e+12 -1.17548e+12 -1.2186e+12 -966690000000.0 -1.02138e+12 -872341000000.0 -839953000000.0 -1.09771e+12 -1.29646e+12 -1.13577e+12 -1.05616e+12 -824531000000.0 -843505000000.0 -1.01026e+12 -935433000000.0 -1.21275e+12 -1.15757e+12 -1.24219e+12 -1.117e+12 -915192000000.0 -932071000000.0 -948099000000.0 -1.02306e+12 -1.0426e+12 -1.07212e+12 -1.10795e+12 -1.12923e+12 -1.063e+12 -649047000000.0 -1.07465e+12 -979440000000.0 -927115000000.0 -879253000000.0 -834516000000.0 -647628000000.0 -1.1279e+12 -394761000000.0 -894601000000.0 -351113000000.0 -149006000000.0 -97370800000.0 -601510000000.0 -424667000000.0 -203990000000.0 -789124000000.0 -587697000000.0 -525671000000.0 -880666000000.0 -554263000000.0 -718498000000.0 -781507000000.0 -930155000000.0 -860074000000.0 -629487000000.0 -905677000000.0 -934134000000.0 -960642000000.0 -933509000000.0 -911230000000.0 -902758000000.0 -911868000000.0 -929819000000.0 -947130000000.0 -938827000000.0 -980044000000.0 -753428000000.0 -663810000000.0 -462649000000.0 -819656000000.0 -291111000000.0 -624640000000.0 -739510000000.0 -969187000000.0 -936167000000.0 -945056000000.0 -927479000000.0 -909771000000.0 -901334000000.0 -910282000000.0 -932935000000.0 -960260000000.0 -933386000000.0 -905484000000.0 -629017000000.0 -859733000000.0 -930340000000.0 -781499000000.0 -718315000000.0 -554207000000.0 -880646000000.0 -525646000000.0 -587672000000.0 -789117000000.0 -203987000000.0 -424662000000.0 -601500000000.0 -16760100000.0 -343688000000.0 -297378000000.0 -73756000000.0 -103414000000.0 -559321000000.0 -502532000000.0 -550124000000.0 -581934000000.0 -784932000000.0 -742518000000.0 -728432000000.0 -729939000000.0 -747804000000.0 -777128000000.0 -804620000000.0 -849793000000.0 -827687000000.0 -923758000000.0 -1.02081e+12 -712575000000.0 -745348000000.0 -549374000000.0 -449799000000.0 -662991000000.0 -780018000000.0 -652498000000.0 -728123000000.0 -548370000000.0 -425992000000.0 -525993000000.0 -734869000000.0 -707760000000.0 -1.01497e+12 -920554000000.0 -825977000000.0 -848760000000.0 -803415000000.0 -774534000000.0 -746071000000.0 -728762000000.0 -727830000000.0 -742351000000.0 -784995000000.0 -581935000000.0 -550113000000.0 -502519000000.0 -559314000000.0 -103411000000.0 -73754500000.0 -297374000000.0 -343687000000.0 -16759300000.0 -77054500000.0 -287554000000.0 -271547000000.0 -145920000000.0 -213787000000.0 -427104000000.0 -414348000000.0 -384049000000.0 -764899000000.0 -983070000000.0 -464502000000.0 -812878000000.0 -711822000000.0 -779385000000.0 -242471000000.0 -235275000000.0 -174447000000.0 -183975000000.0 -238194000000.0 -199911000000.0 -159230000000.0 -429278000000.0 -62953300000.0 -186078000000.0 -151583000000.0 -232131000000.0 -487971000000.0 -811856000000.0 -702194000000.0 -571109000000.0 -708259000000.0 -438125000000.0 -216222000000.0 -136330000000.0 -178093000000.0 -65626700000.0 -421576000000.0 -157657000000.0 -200231000000.0 -237367000000.0 -185548000000.0 -176497000000.0 -234760000000.0 -243080000000.0 -779013000000.0 -711229000000.0 -812709000000.0 -464374000000.0 -982588000000.0 -764745000000.0 -383948000000.0 -414347000000.0 -427102000000.0 -213778000000.0 -145915000000.0 -271543000000.0 -287552000000.0 -77055500000.0 -431383000000.0 -277858000000.0 -520973000000.0 -774948000000.0 -522615000000.0 -577448000000.0 -1.11607e+12 -1.10159e+12 -1.16112e+12 -1.04326e+12 -828031000000.0 -674293000000.0 -536038000000.0 -410804000000.0 -306538000000.0 -212783000000.0 -67736200000.0 -332405000000.0 -318156000000.0 -343995000000.0 -343445000000.0 -854112000000.0 -90138100000.0 -348849000000.0 -321194000000.0 -323392000000.0 -74743200000.0 -209375000000.0 -305379000000.0 -409165000000.0 -534646000000.0 -673066000000.0 -826986000000.0 -1.04246e+12 -1.15985e+12 -1.10031e+12 -1.11519e+12 -576706000000.0 -521980000000.0 -774589000000.0 -520692000000.0 -277892000000.0 -431364000000.0 -51791200000.0 -220666000000.0 -48971300000.0 -137380000000.0 -154697000000.0 -215236000000.0 -276786000000.0 -308326000000.0 -287128000000.0 -314389000000.0 -602728000000.0 -374057000000.0 -471657000000.0 -641880000000.0 -797879000000.0 -776050000000.0 -755264000000.0 -725142000000.0 -625465000000.0 -518812000000.0 -391292000000.0 -253574000000.0 -180308000000.0 -162498000000.0 -154096000000.0 -93707000000.0 -26647300000.0 -193532000000.0 -225082000000.0 -356074000000.0 -429311000000.0 -811357000000.0 -466943000000.0 -351953000000.0 -212591000000.0 -182494000000.0 -26141900000.0 -100276000000.0 -152318000000.0 -163098000000.0 -180735000000.0 -253153000000.0 -389163000000.0 -517701000000.0 -624687000000.0 -724627000000.0 -754350000000.0 -774346000000.0 -796903000000.0 -641047000000.0 -471002000000.0 -373604000000.0 -602644000000.0 -314389000000.0 -287196000000.0 -308337000000.0 -276810000000.0 -215228000000.0 -154692000000.0 -137380000000.0 -48968800000.0 -220662000000.0 -51790500000.0 -103228000000.0 -135546000000.0 -123428000000.0 -150098000000.0 -177778000000.0 -148882000000.0 -158825000000.0 -260221000000.0 -300891000000.0 -377661000000.0 -325370000000.0 -373746000000.0 -312468000000.0 -315966000000.0 -296376000000.0 -316521000000.0 -362317000000.0 -334172000000.0 -402401000000.0 -349067000000.0 -308670000000.0 -256382000000.0 -266255000000.0 -299491000000.0 -309262000000.0 -255644000000.0 -415045000000.0 -450353000000.0 -649507000000.0 -436619000000.0 -464199000000.0 -424832000000.0 -239711000000.0 -298425000000.0 -277821000000.0 -258571000000.0 -258680000000.0 -313995000000.0 -345954000000.0 -377454000000.0 -338280000000.0 -353531000000.0 -316332000000.0 -299000000000.0 -318366000000.0 -313836000000.0 -373369000000.0 -324960000000.0 -377684000000.0 -300941000000.0 -260239000000.0 -158835000000.0 -148876000000.0 -177772000000.0 -150094000000.0 -123425000000.0 -135544000000.0 -103226000000.0 -80789500000.0 -286429000000.0 -396258000000.0 -477961000000.0 -497487000000.0 -539024000000.0 -535337000000.0 -505249000000.0 -445831000000.0 -224774000000.0 -167997000000.0 -165743000000.0 -156200000000.0 -97896800000.0 -187443000000.0 -217752000000.0 -505283000000.0 -76980700000.0 -220047000000.0 -128555000000.0 -190096000000.0 -172780000000.0 -165513000000.0 -235917000000.0 -445450000000.0 -505455000000.0 -535359000000.0 -538109000000.0 -497014000000.0 -477305000000.0 -395663000000.0 -285733000000.0 -80788700000.0 -63618200000.0 -38655700000.0 -31339300000.0 -131559000000.0 -154013000000.0 -174120000000.0 -179704000000.0 -143738000000.0 -174637000000.0 -31963800000.0 -113697000000.0 -175508000000.0 -264267000000.0 -338191000000.0 -411083000000.0 -438511000000.0 -429906000000.0 -347098000000.0 -292347000000.0 -236895000000.0 -220907000000.0 -252990000000.0 -223052000000.0 -94626800000.0 -77223600000.0 -117915000000.0 -164419000000.0 -153892000000.0 -237918000000.0 -448531000000.0 -238277000000.0 -166773000000.0 -182832000000.0 -119676000000.0 -94569500000.0 -111170000000.0 -230490000000.0 -256101000000.0 -223007000000.0 -236416000000.0 -292676000000.0 -347336000000.0 -429805000000.0 -437503000000.0 -410493000000.0 -337972000000.0 -264017000000.0 -174914000000.0 -113738000000.0 -31857400000.0 -174651000000.0 -143760000000.0 -179723000000.0 -174135000000.0 -154016000000.0 -131558000000.0 -31339000000.0 -38655100000.0 -63616900000.0 -56938500000.0 -36105300000.0 -21217900000.0 -13176400000.0 -23475800000.0 -26329400000.0 -42121400000.0 -55710200000.0 -40072400000.0 -103075000000.0 -22951900000.0 -57717100000.0 -135057000000.0 -222783000000.0 -321184000000.0 -424267000000.0 -497654000000.0 -520542000000.0 -459067000000.0 -401453000000.0 -360537000000.0 -350743000000.0 -373050000000.0 -366999000000.0 -378390000000.0 -341218000000.0 -332887000000.0 -312480000000.0 -301128000000.0 -307099000000.0 -262035000000.0 -296967000000.0 -218892000000.0 -269452000000.0 -226095000000.0 -383116000000.0 -325033000000.0 -302285000000.0 -360930000000.0 -235363000000.0 -234777000000.0 -204829000000.0 -270915000000.0 -250748000000.0 -276754000000.0 -286259000000.0 -295863000000.0 -316089000000.0 -327355000000.0 -363429000000.0 -356397000000.0 -364714000000.0 -342984000000.0 -352752000000.0 -395945000000.0 -454681000000.0 -516430000000.0 -492878000000.0 -421026000000.0 -319180000000.0 -221447000000.0 -134266000000.0 -57758200000.0 -22954500000.0 -103095000000.0 -40083100000.0 -55719400000.0 -42123200000.0 -26329400000.0 -23474900000.0 -13176300000.0 -21217600000.0 -36104200000.0 -56937100000.0 -28206700000.0 -14804400000.0 -15084200000.0 -14340300000.0 -13366500000.0 -14666400000.0 -92718400000.0 -361095000000.0 -217823000000.0 -138830000000.0 -88091600000.0 -60923500000.0 -40782700000.0 -28546200000.0 -29079900000.0 -49437700000.0 -29695700000.0 -30702600000.0 -43507500000.0 -65165600000.0 -74413400000.0 -91335500000.0 -96376300000.0 -83728400000.0 -110200000000.0 -41186400000.0 -60772700000.0 -42812800000.0 -118201000000.0 -165710000000.0 -230568000000.0 -284531000000.0 -294515000000.0 -302685000000.0 -274410000000.0 -267603000000.0 -71992100000.0 -41802700000.0 -30980100000.0 -46685700000.0 -61499000000.0 -84854600000.0 -93334700000.0 -94469700000.0 -207952000000.0 -315425000000.0 -304504000000.0 -168644000000.0 -138088000000.0 -106399000000.0 -76947800000.0 -53365700000.0 -28540800000.0 -40203200000.0 -70608200000.0 -266266000000.0 -272268000000.0 -300963000000.0 -294328000000.0 -284659000000.0 -230465000000.0 -165706000000.0 -118141000000.0 -42353800000.0 -60627400000.0 -41045900000.0 -110120000000.0 -83682400000.0 -96342700000.0 -91300600000.0 -74389700000.0 -65155000000.0 -43506700000.0 -30705700000.0 -29698100000.0 -49437800000.0 -51470000000.0 -28789700000.0 -12142400000.0 -10229500000.0 -21809900000.0 -23820900000.0 -36341400000.0 -38376200000.0 -36107700000.0 -63760700000.0 -12774200000.0 -36763700000.0 -37249700000.0 -94012600000.0 -128142000000.0 -192720000000.0 -273141000000.0 -325165000000.0 -364128000000.0 -354949000000.0 -360329000000.0 -232994000000.0 -214363000000.0 -185254000000.0 -155145000000.0 -168988000000.0 -119716000000.0 -153529000000.0 -101444000000.0 -165280000000.0 -96757700000.0 -171114000000.0 -101830000000.0 -187561000000.0 -115997000000.0 -300163000000.0 -148671000000.0 -307186000000.0 -66758200000.0 -182227000000.0 -15240100000.0 -85491600000.0 -24274800000.0 -92028100000.0 -40466700000.0 -107964000000.0 -62694000000.0 -117585000000.0 -94289200000.0 -146852000000.0 -139055000000.0 -171635000000.0 -204621000000.0 -226076000000.0 -356336000000.0 -352180000000.0 -362606000000.0 -325106000000.0 -273724000000.0 -193250000000.0 -128416000000.0 -94045900000.0 -37068000000.0 -36789000000.0 -12774500000.0 -63774500000.0 -36116900000.0 -38383500000.0 -36343400000.0 -23821200000.0 -21809300000.0 -10229500000.0 -12142400000.0 -28789000000.0 -51469100000.0 -52508300000.0 -34932800000.0 -17711200000.0 -20555000000.0 -37951600000.0 -43198800000.0 -59251900000.0 -64681600000.0 -74291800000.0 -96364100000.0 -63922500000.0 -102723000000.0 -115056000000.0 -166073000000.0 -191766000000.0 -222365000000.0 -240494000000.0 -220104000000.0 -194174000000.0 -146828000000.0 -130251000000.0 -35719200000.0 -36622300000.0 -27279000000.0 -9687480000.0 -51735000000.0 -9379290000.0 -56765900000.0 -9035750000.0 -78796200000.0 -9035750000.0 -82886600000.0 -9260810000.0 -93575100000.0 -9921480000.0 -193435000000.0 -17007700000.0 -293763000000.0 -116680000000.0 -226839000000.0 -65758700000.0 -117703000000.0 -44728100000.0 -94015900000.0 -29504800000.0 -79330200000.0 -14530700000.0 -50161800000.0 -9393660000.0 -48393400000.0 -9677560000.0 -24797200000.0 -35330500000.0 -34660200000.0 -130198000000.0 -146593000000.0 -194025000000.0 -220398000000.0 -240740000000.0 -222480000000.0 -191841000000.0 -166134000000.0 -114958000000.0 -102743000000.0 -63933000000.0 -96384300000.0 -74307300000.0 -64692300000.0 -59257100000.0 -43201400000.0 -37952700000.0 -20556200000.0 -17712000000.0 -34932900000.0 -52507900000.0 -51552900000.0 -36118600000.0 -12470900000.0 -11040000000.0 -24848600000.0 -24868200000.0 -34848500000.0 -34433300000.0 -40891000000.0 -48865400000.0 -16262300000.0 -46520000000.0 -49275400000.0 -84881700000.0 -109575000000.0 -142734000000.0 -176558000000.0 -182596000000.0 -183006000000.0 -151581000000.0 -133208000000.0 -58629600000.0 -53539600000.0 -35332500000.0 -15948800000.0 -52610000000.0 -11850900000.0 -53111400000.0 -9035750000.0 -72258400000.0 -9035750000.0 -76008700000.0 -16951700000.0 -104446000000.0 -32869300000.0 -203049000000.0 -53779900000.0 -286684000000.0 -36865800000.0 -156689000000.0 -9035750000.0 -72861400000.0 -9035750000.0 -63176100000.0 -9035750000.0 -62648700000.0 -9035750000.0 -48314600000.0 -12303900000.0 -50318900000.0 -16014000000.0 -33447000000.0 -52541700000.0 -57866800000.0 -133290000000.0 -151515000000.0 -183047000000.0 -182890000000.0 -176731000000.0 -142802000000.0 -109566000000.0 -84914300000.0 -49212600000.0 -46528000000.0 -16261900000.0 -48871000000.0 -40893600000.0 -34434200000.0 -34847900000.0 -24867400000.0 -24847700000.0 -11040000000.0 -12470900000.0 -36118400000.0 -51552500000.0 -50397500000.0 -39134700000.0 -13920900000.0 -12412900000.0 -26292300000.0 -26019700000.0 -34940500000.0 -34960100000.0 -43560100000.0 -46414900000.0 -22816900000.0 -53708300000.0 -58101400000.0 -86487500000.0 -109035000000.0 -134615000000.0 -159444000000.0 -158753000000.0 -153058000000.0 -118891000000.0 -98163900000.0 -44113300000.0 -40764100000.0 -23706200000.0 -9035750000.0 -46003500000.0 -9035750000.0 -47852100000.0 -9035750000.0 -66553400000.0 -9035750000.0 -70187300000.0 -9035750000.0 -80652600000.0 -9035750000.0 -158120000000.0 -9035750000.0 -276404000000.0 -54643600000.0 -153229000000.0 -9035750000.0 -68439000000.0 -9035750000.0 -59338300000.0 -9035750000.0 -59289400000.0 -9035750000.0 -44070600000.0 -9035750000.0 -44056700000.0 -9035750000.0 -22242400000.0 -39906900000.0 -43476900000.0 -98213800000.0 -118815000000.0 -153073000000.0 -158934000000.0 -159544000000.0 -134658000000.0 -109033000000.0 -86516900000.0 -58077000000.0 -53715400000.0 -22817200000.0 -46417800000.0 -43561000000.0 -34960200000.0 -34940000000.0 -26019000000.0 -26291700000.0 -12413000000.0 -13920900000.0 -39134600000.0 -50397400000.0 -48384900000.0 -40508400000.0 -14563300000.0 -12507500000.0 -25252700000.0 -24817600000.0 -32076500000.0 -31950100000.0 -41114000000.0 -39714600000.0 -22978100000.0 -52940800000.0 -57336700000.0 -79313000000.0 -99528500000.0 -120852000000.0 -143089000000.0 -142486000000.0 -137697000000.0 -106208000000.0 -85415400000.0 -45053900000.0 -40042000000.0 -22581900000.0 -9035750000.0 -43474200000.0 -9035750000.0 -44485000000.0 -9035750000.0 -61857300000.0 -9035750000.0 -65026900000.0 -9035750000.0 -73988700000.0 -9035750000.0 -141558000000.0 -9035750000.0 -264636000000.0 -28054200000.0 -128709000000.0 -9035750000.0 -64146300000.0 -9035750000.0 -56130400000.0 -9035750000.0 -56475900000.0 -9035750000.0 -41647200000.0 -9035750000.0 -42010700000.0 -9035750000.0 -21507800000.0 -39357800000.0 -44570400000.0 -85461500000.0 -106157000000.0 -137721000000.0 -142606000000.0 -143146000000.0 -120879000000.0 -99532500000.0 -79333600000.0 -57332400000.0 -52944800000.0 -22977900000.0 -39715200000.0 -41113700000.0 -31949700000.0 -32075900000.0 -24817100000.0 -25252200000.0 -12507500000.0 -14563300000.0 -40508400000.0 -48384800000.0 -45896000000.0 -40931000000.0 -15464000000.0 -13172500000.0 -24594400000.0 -24746600000.0 -30705900000.0 -30705600000.0 -40119200000.0 -36135200000.0 -25850400000.0 -54986500000.0 -59332100000.0 -76176700000.0 -93949000000.0 -110917000000.0 -129495000000.0 -127520000000.0 -122203000000.0 -93094600000.0 -73631400000.0 -44175400000.0 -38115300000.0 -21941700000.0 -9035750000.0 -41136600000.0 -9035750000.0 -41648500000.0 -9035750000.0 -58020600000.0 -9035750000.0 -60396300000.0 -9035750000.0 -67959100000.0 -9035750000.0 -126673000000.0 -9035750000.0 -260346000000.0 -25450300000.0 -116027000000.0 -9035750000.0 -60116800000.0 -9035750000.0 -53269600000.0 -9035750000.0 -54074900000.0 -9035750000.0 -39543400000.0 -9035750000.0 -40049500000.0 -9035750000.0 -21187700000.0 -37583000000.0 -43815700000.0 -73661900000.0 -93053900000.0 -122221000000.0 -127591000000.0 -129530000000.0 -110938000000.0 -93955700000.0 -76189600000.0 -59335800000.0 -54988200000.0 -25850200000.0 -36135000000.0 -40118700000.0 -30705300000.0 -30705600000.0 -24746300000.0 -24594100000.0 -13172500000.0 -15464000000.0 -40931000000.0 -45896000000.0 -43061500000.0 -40365600000.0 -16171700000.0 -13755000000.0 -23651000000.0 -24679000000.0 -29462200000.0 -29539400000.0 -38668300000.0 -33098500000.0 -28235200000.0 -56197100000.0 -60254700000.0 -72807800000.0 -88420700000.0 -101872000000.0 -117258000000.0 -113998000000.0 -108309000000.0 -81940500000.0 -64299600000.0 -42531900000.0 -35467500000.0 -21624000000.0 -9035750000.0 -38990400000.0 -9035750000.0 -39247700000.0 -9035750000.0 -54737800000.0 -9035750000.0 -56226700000.0 -9035750000.0 -62577000000.0 -9035750000.0 -113381000000.0 -9035750000.0 -252893000000.0 -23368600000.0 -104848000000.0 -9035750000.0 -56411000000.0 -9035750000.0 -50616600000.0 -9035750000.0 -51844500000.0 -9035750000.0 -37700600000.0 -9035750000.0 -38193100000.0 -9035750000.0 -21114100000.0 -35066500000.0 -42269400000.0 -64313800000.0 -81910200000.0 -108323000000.0 -114038000000.0 -117280000000.0 -101887000000.0 -88426200000.0 -72815400000.0 -60259200000.0 -56197400000.0 -28235200000.0 -33098200000.0 -38667900000.0 -29539200000.0 -29462000000.0 -24678800000.0 -23650800000.0 -13755000000.0 -16171700000.0 -40365500000.0 -43061500000.0 -40049800000.0 -39032600000.0 -16683000000.0 -14248100000.0 -22598600000.0 -24609500000.0 -28358800000.0 -28481100000.0 -36922900000.0 -30521800000.0 -30254500000.0 -56871500000.0 -60567100000.0 -69565900000.0 -83197400000.0 -93737400000.0 -106185000000.0 -101715000000.0 -95720700000.0 -72215300000.0 -56721700000.0 -40319400000.0 -32473600000.0 -21485800000.0 -9035750000.0 -37028400000.0 -9035750000.0 -37188000000.0 -9035750000.0 -51741300000.0 -9035750000.0 -52449800000.0 -9035750000.0 -57843000000.0 -9035750000.0 -101601000000.0 -9035750000.0 -243702000000.0 -21233400000.0 -94877500000.0 -9035750000.0 -53027100000.0 -9035750000.0 -48117700000.0 -9035750000.0 -49613400000.0 -9035750000.0 -36060200000.0 -9035750000.0 -36454700000.0 -9035750000.0 -21159400000.0 -32182700000.0 -40133000000.0 -56724600000.0 -72195300000.0 -95732300000.0 -101740000000.0 -106199000000.0 -93745900000.0 -83201000000.0 -69570300000.0 -60570300000.0 -56871200000.0 -30254400000.0 -30521700000.0 -36922700000.0 -28481000000.0 -28358700000.0 -24609400000.0 -22598500000.0 -14248100000.0 -16683000000.0 -39032600000.0 -40049800000.0 -36996000000.0 -37149900000.0 -17003200000.0 -14647000000.0 -21548400000.0 -24525900000.0 -27385500000.0 -27524900000.0 -35012900000.0 -28335100000.0 -31852300000.0 -56958100000.0 -60310100000.0 -66437300000.0 -78227400000.0 -86383300000.0 -96229900000.0 -90772500000.0 -84580500000.0 -63908300000.0 -50601100000.0 -37821500000.0 -29420300000.0 -21424600000.0 -9035750000.0 -35229900000.0 -9035750000.0 -35379500000.0 -9035750000.0 -48873900000.0 -9035750000.0 -48994500000.0 -9035750000.0 -53671800000.0 -9035750000.0 -91261100000.0 -9035750000.0 -18971100000.0 -85978200000.0 -9035750000.0 -49941200000.0 -9035750000.0 -45718700000.0 -9035750000.0 -47307300000.0 -9035750000.0 -34564400000.0 -9035750000.0 -34827000000.0 -9035750000.0 -21233000000.0 -29219300000.0 -37695000000.0 -50598600000.0 -63897100000.0 -84590600000.0 -90787900000.0 -96238600000.0 -86387400000.0 -78229400000.0 -66439900000.0 -60312100000.0 -56957800000.0 -31852300000.0 -28335000000.0 -35012800000.0 -27524900000.0 -27385500000.0 -24525800000.0 -21548300000.0 -14647000000.0 -17003200000.0 -37149900000.0 -36996000000.0 -233038000000.0 -34003400000.0 -34914100000.0 -17145100000.0 -14948800000.0 -20560500000.0 -24411100000.0 -26519200000.0 -26646500000.0 -33035500000.0 -26475900000.0 -33026000000.0 -56491100000.0 -59546200000.0 -63426000000.0 -73522200000.0 -79713700000.0 -87312100000.0 -81146900000.0 -74888600000.0 -56916100000.0 -45618400000.0 -35244600000.0 -26498800000.0 -21354400000.0 -9035750000.0 -33564000000.0 -9035750000.0 -33743900000.0 -9035750000.0 -46066200000.0 -9035750000.0 -45798900000.0 -9035750000.0 -49965400000.0 -9035750000.0 -82170700000.0 -9035750000.0 -221021000000.0 -16903200000.0 -78039200000.0 -9035750000.0 -47107400000.0 -9035750000.0 -43372500000.0 -9035750000.0 -44914900000.0 -9035750000.0 -33160400000.0 -9035750000.0 -33288200000.0 -9035750000.0 -21250300000.0 -26368100000.0 -35163800000.0 -45614600000.0 -56911100000.0 -74897100000.0 -81157100000.0 -87316900000.0 -79715200000.0 -73523300000.0 -63427600000.0 -59547400000.0 -56490800000.0 -33025900000.0 -26475900000.0 -33035500000.0 -26646500000.0 -26519200000.0 -24411000000.0 -20560500000.0 -14948800000.0 -17145100000.0 -34914100000.0 -34003400000.0 -31147100000.0 -32492600000.0 -17126500000.0 -15152100000.0 -19661500000.0 -24242900000.0 -25728100000.0 -25814100000.0 -31059400000.0 -24886500000.0 -33779600000.0 -55514500000.0 -58319500000.0 -60498600000.0 -69065400000.0 -73639400000.0 -79331600000.0 -72730300000.0 -66535600000.0 -51041200000.0 -41481100000.0 -32720000000.0 -23818900000.0 -21205700000.0 -9035750000.0 -31996300000.0 -9035750000.0 -32217000000.0 -9035750000.0 -43297400000.0 -9035750000.0 -42818300000.0 -9035750000.0 -46629900000.0 -9035750000.0 -74146900000.0 -9035750000.0 -15163700000.0 -70945300000.0 -9035750000.0 -44466900000.0 -9035750000.0 -41056200000.0 -9035750000.0 -42455000000.0 -9035750000.0 -31803500000.0 -9035750000.0 -31812700000.0 -9035750000.0 -21150700000.0 -23739500000.0 -32671700000.0 -41477800000.0 -51040100000.0 -66542400000.0 -72737100000.0 -79334100000.0 -73639700000.0 -69066000000.0 -60499600000.0 -58320200000.0 -55514300000.0 -33779600000.0 -24886600000.0 -31059400000.0 -25814100000.0 -25728000000.0 -24242900000.0 -19661500000.0 -15152100000.0 -17126500000.0 -32492500000.0 -31147100000.0 -207950000000.0 -28478500000.0 -30020100000.0 -16968500000.0 -15257800000.0 -18856000000.0 -23997700000.0 -24976700000.0 -24996600000.0 -29130300000.0 -23513900000.0 -34124200000.0 -54077800000.0 -56668700000.0 -57607300000.0 -64814200000.0 -68066000000.0 -72173500000.0 -65373600000.0 -59355900000.0 -46054800000.0 -37942300000.0 -30319700000.0 -21433000000.0 -20940800000.0 -9035750000.0 -30495400000.0 -9035750000.0 -30749200000.0 -9035750000.0 -40571000000.0 -9035750000.0 -40022400000.0 -9035750000.0 -43581400000.0 -9035750000.0 -67045700000.0 -9035750000.0 -194129000000.0 -13751900000.0 -64582900000.0 -9035750000.0 -41963500000.0 -9035750000.0 -38765900000.0 -9035750000.0 -39959100000.0 -9035750000.0 -30459400000.0 -9035750000.0 -30376800000.0 -9035750000.0 -20911500000.0 -21388300000.0 -30292800000.0 -37940000000.0 -46055500000.0 -59361000000.0 -65378100000.0 -72174700000.0 -68065800000.0 -64814400000.0 -57607900000.0 -56669100000.0 -54077700000.0 -34124200000.0 -23513900000.0 -29130400000.0 -24996600000.0 -24976700000.0 -23997700000.0 -18856000000.0 -15257800000.0 -16968500000.0 -30020100000.0 -28478500000.0 -27599000000.0 -16693800000.0 -15268100000.0 -18135000000.0 -58917200000.0 -53171400000.0 -41758000000.0 -34800500000.0 -28077700000.0 -19355100000.0 -20553300000.0 -9035750000.0 -29034900000.0 -9035750000.0 -29305000000.0 -9035750000.0 -37900900000.0 -9035750000.0 -37388400000.0 -9035750000.0 -40749700000.0 -9035750000.0 -60731000000.0 -9035750000.0 -12627500000.0 -58847000000.0 -9035750000.0 -39553100000.0 -9035750000.0 -36507000000.0 -9035750000.0 -37461100000.0 -9035750000.0 -29104500000.0 -9035750000.0 -28961000000.0 -9035750000.0 -20537600000.0 -19331900000.0 -28063800000.0 -34799200000.0 -41759400000.0 -53175100000.0 -58920100000.0 -18135000000.0 -15268100000.0 -16693800000.0 -27599000000.0 -26029300000.0 -23654600000.0 -24232100000.0 -24168000000.0 -27276000000.0 -22310500000.0 -34076400000.0 -52233400000.0 -54630600000.0 -54702500000.0 -60715100000.0 -62895200000.0 -65713800000.0 -179853000000.0 -65714300000.0 -62894900000.0 -60715200000.0 -54702900000.0 -54630800000.0 -52233300000.0 -34076400000.0 -22310600000.0 -27276000000.0 -24168000000.0 -24232100000.0 -23654600000.0 -26029300000.0 -23814300000.0 -25299900000.0 -16324700000.0 -15186600000.0 -17481600000.0 -23198000000.0 -23467500000.0 -23309000000.0 -25510900000.0 -21234100000.0 -33658200000.0 -50035900000.0 -52243800000.0 -51740200000.0 -56716200000.0 -58036400000.0 -59830900000.0 -53206600000.0 -47807300000.0 -37993600000.0 -31912000000.0 -26004700000.0 -17574500000.0 -20053700000.0 -9035750000.0 -27594900000.0 -9035750000.0 -27862000000.0 -9035750000.0 -35302400000.0 -9035750000.0 -34895600000.0 -9035750000.0 -38079700000.0 -9035750000.0 -55073100000.0 -9035750000.0 -165386000000.0 -11744600000.0 -53641200000.0 -9035750000.0 -37204400000.0 -9035750000.0 -34286100000.0 -9035750000.0 -34990400000.0 -9035750000.0 -27725300000.0 -9035750000.0 -27550500000.0 -9035750000.0 -20045600000.0 -17563500000.0 -25998000000.0 -31911400000.0 -37995100000.0 -47809900000.0 -53208400000.0 -59831000000.0 -58036100000.0 -56716200000.0 -51740500000.0 -52243900000.0 -50035900000.0 -33658200000.0 -21234200000.0 -25510900000.0 -23309000000.0 -23467500000.0 -23198000000.0 -17481600000.0 -15186600000.0 -16324700000.0 -25299900000.0 -23814300000.0 -21833100000.0 -23166000000.0 -15881800000.0 -15018300000.0 -16875500000.0 -22618400000.0 -22662500000.0 -22406800000.0 -23840300000.0 -20246700000.0 -32895100000.0 -47539100000.0 -49551300000.0 -48688400000.0 -52773900000.0 -53416200000.0 -54417400000.0 -48101400000.0 -43101200000.0 -34636800000.0 -29201000000.0 -24096500000.0 -16066100000.0 -19457300000.0 -9035750000.0 -26160400000.0 -9035750000.0 -26407700000.0 -9035750000.0 -32787300000.0 -9035750000.0 -32524400000.0 -9035750000.0 -35529100000.0 -9035750000.0 -49957100000.0 -9035750000.0 -150930000000.0 -11058900000.0 -48877700000.0 -9035750000.0 -34896000000.0 -9035750000.0 -32107800000.0 -9035750000.0 -32569300000.0 -9035750000.0 -26315900000.0 -9035750000.0 -26134800000.0 -9035750000.0 -19453400000.0 -16061600000.0 -24093600000.0 -29201000000.0 -34638000000.0 -43103000000.0 -48102600000.0 -54417300000.0 -53415900000.0 -52773900000.0 -48688500000.0 -49551300000.0 -47539100000.0 -32895100000.0 -20246700000.0 -23840300000.0 -22406800000.0 -22662500000.0 -22618400000.0 -16875500000.0 -15018300000.0 -15881800000.0 -23166000000.0 -21833100000.0 -20073500000.0 -21217900000.0 -15382900000.0 -14768700000.0 -16295400000.0 -21912300000.0 -21801900000.0 -21454300000.0 -22262500000.0 -19315200000.0 -31815800000.0 -44792600000.0 -46598400000.0 -45531200000.0 -48858500000.0 -48980500000.0 -49385600000.0 -43482100000.0 -38913700000.0 -31590100000.0 -26646300000.0 -22340200000.0 -14798200000.0 -18778500000.0 -9035750000.0 -24721400000.0 -9035750000.0 -24937000000.0 -9035750000.0 -30361700000.0 -9035750000.0 -30254700000.0 -9035750000.0 -33066000000.0 -9035750000.0 -45285700000.0 -9035750000.0 -136646000000.0 -10531000000.0 -44480100000.0 -9035750000.0 -32613300000.0 -9035750000.0 -29973000000.0 -9035750000.0 -30212000000.0 -9035750000.0 -24876400000.0 -9035750000.0 -24707100000.0 -9035750000.0 -18777000000.0 -14796700000.0 -22339000000.0 -26646600000.0 -31591000000.0 -38914900000.0 -43482700000.0 -49385500000.0 -48980300000.0 -48858500000.0 -45531200000.0 -46598400000.0 -44792600000.0 -31815800000.0 -19315300000.0 -22262500000.0 -21454400000.0 -21801900000.0 -21912300000.0 -16295400000.0 -14768700000.0 -15382900000.0 -21217900000.0 -20073500000.0 -18514700000.0 -19459000000.0 -14842500000.0 -14444400000.0 -15721700000.0 -21081700000.0 -20875500000.0 -20449500000.0 -20771000000.0 -18412300000.0 -30450500000.0 -41840600000.0 -43429700000.0 -42268200000.0 -44954800000.0 -44693100000.0 -44667800000.0 -39251400000.0 -35133600000.0 -28782000000.0 -24254000000.0 -20718900000.0 -13737300000.0 -18029800000.0 -9035750000.0 -23271800000.0 -9035750000.0 -23449500000.0 -9035750000.0 -28026700000.0 -9035750000.0 -28067500000.0 -9035750000.0 -30666300000.0 -9035750000.0 -40977700000.0 -9035750000.0 -122654000000.0 -10128200000.0 -40383700000.0 -9035750000.0 -30346500000.0 -9035750000.0 -27878800000.0 -9035750000.0 -27925600000.0 -9035750000.0 -23410000000.0 -9035750000.0 -23264100000.0 -9035750000.0 -18029500000.0 -13737000000.0 -20718500000.0 -24254400000.0 -28782600000.0 -35134300000.0 -39251800000.0 -44667700000.0 -44693000000.0 -44954800000.0 -42268200000.0 -43429700000.0 -41840600000.0 -30450500000.0 -18412300000.0 -20771000000.0 -20449500000.0 -20875500000.0 -21081700000.0 -15721700000.0 -14444400000.0 -14842500000.0 -19459000000.0 -18514700000.0 -17130700000.0 -17880600000.0 -14272500000.0 -14052200000.0 -15137700000.0 -20132900000.0 -19877000000.0 -19393500000.0 -19356100000.0 -17515900000.0 -28830400000.0 -38721200000.0 -40087400000.0 -38910000000.0 -41059000000.0 -40531700000.0 -40213300000.0 -35333800000.0 -31675000000.0 -26165600000.0 -22035100000.0 -19214600000.0 -12851000000.0 -17221500000.0 -9035750000.0 -21808700000.0 -9035750000.0 -21947200000.0 -9035750000.0 -25778700000.0 -9035750000.0 -25945100000.0 -9035750000.0 -28312000000.0 -9035750000.0 -36966300000.0 -9035750000.0 -109038000000.0 -9823730000.0 -36534300000.0 -9035750000.0 -28088900000.0 -9035750000.0 -25819800000.0 -9035750000.0 -25711600000.0 -9035750000.0 -21921800000.0 -9035750000.0 -21804600000.0 -9035750000.0 -17221600000.0 -12851100000.0 -19214500000.0 -22035400000.0 -26165900000.0 -31675400000.0 -35334000000.0 -40213200000.0 -40531600000.0 -41059000000.0 -38910100000.0 -40087400000.0 -38721200000.0 -28830400000.0 -17515900000.0 -19356100000.0 -19393500000.0 -19877000000.0 -20132900000.0 -15137700000.0 -14052200000.0 -14272500000.0 -17880500000.0 -17130700000.0 -15893800000.0 -16466500000.0 -13681500000.0 -13599300000.0 -14530700000.0 -19075500000.0 -18804600000.0 -18289300000.0 -18006800000.0 -16609300000.0 -26986500000.0 -35467100000.0 -36610900000.0 -35474200000.0 -37174400000.0 -36483200000.0 -35984400000.0 -31671600000.0 -28472900000.0 -23712800000.0 -19994600000.0 -17809800000.0 -12110100000.0 -16362400000.0 -9035750000.0 -20331600000.0 -9035750000.0 -20433500000.0 -9035750000.0 -23611100000.0 -9035750000.0 -23871900000.0 -9035750000.0 -25989600000.0 -9035750000.0 -33196000000.0 -9035750000.0 -95847400000.0 -9595890000.0 -32886600000.0 -9035750000.0 -25835900000.0 -9035750000.0 -23789600000.0 -9035750000.0 -23567300000.0 -9035750000.0 -20417300000.0 -9035750000.0 -20329400000.0 -9035750000.0 -16362600000.0 -12110200000.0 -17809700000.0 -19994800000.0 -23713000000.0 -28473100000.0 -31671700000.0 -35984300000.0 -36483100000.0 -37174400000.0 -35474200000.0 -36610900000.0 -35467100000.0 -26986500000.0 -16609300000.0 -18006800000.0 -18289300000.0 -18804600000.0 -19075500000.0 -14530700000.0 -13599300000.0 -13681500000.0 -16466500000.0 -15893800000.0 -14776800000.0 -15196500000.0 -13076200000.0 -13093000000.0 -13892400000.0 -17921200000.0 -17660100000.0 -17141200000.0 -16711700000.0 -15680900000.0 -24949300000.0 -32105300000.0 -33035500000.0 -31981100000.0 -33307900000.0 -32540000000.0 -31952000000.0 -28221400000.0 -25478000000.0 -21407400000.0 -18128600000.0 -16487700000.0 -11488500000.0 -15460300000.0 -9035750000.0 -18841300000.0 -9035750000.0 -18911600000.0 -9035750000.0 -21515200000.0 -9035750000.0 -21834800000.0 -9035750000.0 -23689200000.0 -9035750000.0 -29620600000.0 -9035750000.0 -83101000000.0 -9427390000.0 -29402700000.0 -9035750000.0 -23584800000.0 -9035750000.0 -21781400000.0 -9035750000.0 -21487000000.0 -9035750000.0 -18901300000.0 -9035750000.0 -18840100000.0 -9035750000.0 -15460500000.0 -11488500000.0 -16487700000.0 -18128700000.0 -21407500000.0 -25478100000.0 -28221500000.0 -31952000000.0 -32539900000.0 -33307900000.0 -31981200000.0 -33035500000.0 -32105300000.0 -24949300000.0 -15681000000.0 -16711700000.0 -17141200000.0 -17660100000.0 -17921200000.0 -13892400000.0 -13093000000.0 -13076200000.0 -15196500000.0 -14776800000.0 -13754700000.0 -14048800000.0 -12461000000.0 -12540700000.0 -13218500000.0 -16682900000.0 -16448200000.0 -15954000000.0 -15460300000.0 -14724000000.0 -22748300000.0 -28658100000.0 -29390500000.0 -28450600000.0 -29466900000.0 -28696300000.0 -28092100000.0 -24949100000.0 -22652400000.0 -19237000000.0 -16425100000.0 -15233000000.0 -10963400000.0 -14522300000.0 -9035750000.0 -17339700000.0 -9035750000.0 -17384600000.0 -9035750000.0 -19481200000.0 -9035750000.0 -19823300000.0 -9035750000.0 -21403600000.0 -9035750000.0 -26201100000.0 -9035750000.0 -70788200000.0 -9304390000.0 -26050500000.0 -9035750000.0 -21333800000.0 -9035750000.0 -19789200000.0 -9035750000.0 -19463300000.0 -9035750000.0 -17378100000.0 -9035750000.0 -17339000000.0 -9035750000.0 -14522500000.0 -10963500000.0 -15233000000.0 -16425200000.0 -19237000000.0 -22652500000.0 -24949100000.0 -28092000000.0 -28696300000.0 -29467000000.0 -28450600000.0 -29390500000.0 -28658100000.0 -22748300000.0 -14724000000.0 -15460300000.0 -15954000000.0 -16448200000.0 -16682900000.0 -13218500000.0 -12540700000.0 -12461000000.0 -14048800000.0 -13754700000.0 -12805500000.0 -13001400000.0 -11839200000.0 -11949700000.0 -12508800000.0 -15374200000.0 -15176000000.0 -14732800000.0 -14242700000.0 -13735800000.0 -20411700000.0 -25143900000.0 -25699300000.0 -24898900000.0 -25657500000.0 -24945600000.0 -24382300000.0 -21825900000.0 -19966200000.0 -17188200000.0 -14866100000.0 -14031600000.0 -10515100000.0 -13554800000.0 -9035750000.0 -15828700000.0 -9035750000.0 -15854700000.0 -9035750000.0 -17498800000.0 -9035750000.0 -17829300000.0 -9035750000.0 -19127600000.0 -9035750000.0 -22904400000.0 -9035750000.0 -58876100000.0 -9215800000.0 -22802500000.0 -9035750000.0 -19081800000.0 -9035750000.0 -17807800000.0 -9035750000.0 -17487700000.0 -9035750000.0 -15850700000.0 -9035750000.0 -15828200000.0 -9035750000.0 -13554900000.0 -10515200000.0 -14031600000.0 -14866100000.0 -17188300000.0 -19966200000.0 -21825900000.0 -24382300000.0 -24945600000.0 -25657500000.0 -24898900000.0 -25699300000.0 -25143900000.0 -20411700000.0 -13735800000.0 -14242700000.0 -14732800000.0 -15176000000.0 -15374200000.0 -12508800000.0 -11949700000.0 -11839200000.0 -13001400000.0 -12805500000.0 -11910400000.0 -12033400000.0 -11213100000.0 -11327300000.0 -11766300000.0 -14008500000.0 -13852300000.0 -13483300000.0 -13050500000.0 -12717000000.0 -17966300000.0 -21578000000.0 -21978900000.0 -21338000000.0 -21881800000.0 -21278500000.0 -20799900000.0 -18825700000.0 -17393600000.0 -15244500000.0 -13429100000.0 -12871300000.0 -10126100000.0 -12563700000.0 -9035750000.0 -14310400000.0 -9035750000.0 -14323700000.0 -9035750000.0 -15557800000.0 -9035750000.0 -15846700000.0 -9035750000.0 -16857700000.0 -9035750000.0 -19701800000.0 -9035750000.0 -47313000000.0 -9152570000.0 -19635000000.0 -9035750000.0 -16828400000.0 -9035750000.0 -15833500000.0 -9035750000.0 -15551100000.0 -9035750000.0 -14321300000.0 -9035750000.0 -14310100000.0 -9035750000.0 -12563700000.0 -10126200000.0 -12871300000.0 -13429200000.0 -15244500000.0 -17393600000.0 -18825700000.0 -20799900000.0 -21278500000.0 -21881800000.0 -21338000000.0 -21978900000.0 -21578000000.0 -17966300000.0 -12717000000.0 -13050500000.0 -13483300000.0 -13852300000.0 -14008500000.0 -11766300000.0 -11327300000.0 -11213100000.0 -12033400000.0 -11910400000.0 -11053700000.0 -11125200000.0 -10584200000.0 -10680700000.0 -10996100000.0 -12599000000.0 -12487400000.0 -12211500000.0 -11876500000.0 -11671600000.0 -15437900000.0 -17973300000.0 -18241000000.0 -17775000000.0 -18137600000.0 -17681800000.0 -17320100000.0 -15922400000.0 -14910300000.0 -13385800000.0 -12088800000.0 -11741000000.0 -9781100000.0 -11554600000.0 -9035750000.0 -12786800000.0 -9035750000.0 -12792500000.0 -9035750000.0 -13648300000.0 -9035750000.0 -13871100000.0 -9035750000.0 -14591300000.0 -9035750000.0 -16568300000.0 -9035750000.0 -36032200000.0 -9107290000.0 -16526900000.0 -9035750000.0 -14573600000.0 -9035750000.0 -13863300000.0 -9035750000.0 -13644300000.0 -9035750000.0 -12791100000.0 -9035750000.0 -12786600000.0 -9035750000.0 -11554600000.0 -9781110000.0 -11741000000.0 -12088900000.0 -13385800000.0 -14910300000.0 -15922400000.0 -17320000000.0 -17681700000.0 -18137600000.0 -17775000000.0 -18241000000.0 -17973300000.0 -15437900000.0 -11671600000.0 -11876500000.0 -12211500000.0 -12487400000.0 -12599000000.0 -10996100000.0 -10680700000.0 -10584200000.0 -11125200000.0 -11053700000.0 -10222200000.0 -10258300000.0 -9953740000.0 -10016800000.0 -10205300000.0 -11158500000.0 -11092300000.0 -10923500000.0 -10714500000.0 -10605600000.0 -12850900000.0 -14341500000.0 -14493200000.0 -14212900000.0 -14418500000.0 -14137800000.0 -13915300000.0 -13089200000.0 -12491600000.0 -11589200000.0 -10818100000.0 -10631100000.0 -9466210000.0 -10532800000.0 -9035750000.0 -11259500000.0 -9035750000.0 -11261400000.0 -9035750000.0 -11760500000.0 -9035750000.0 -11899400000.0 -9035750000.0 -12326800000.0 -9035750000.0 -13481600000.0 -9035750000.0 -24955700000.0 -9073870000.0 -13459400000.0 -9035750000.0 -12317400000.0 -9035750000.0 -11895400000.0 -9035750000.0 -11758400000.0 -9035750000.0 -11260700000.0 -9035750000.0 -11259400000.0 -9035750000.0 -10532900000.0 -9466210000.0 -10631100000.0 -10818200000.0 -11589200000.0 -12491600000.0 -13089200000.0 -13915300000.0 -14137800000.0 -14418500000.0 -14212900000.0 -14493200000.0 -14341500000.0 -12851000000.0 -10605600000.0 -10714500000.0 -10923500000.0 -11092300000.0 -11158500000.0 -10205300000.0 -10016800000.0 -9953740000.0 -10258300000.0 -10222200000.0 -9404970000.0 -9415490000.0 -9322360000.0 -9342760000.0 -9401790000.0 -9699770000.0 -9679090000.0 -9625740000.0 -9559230000.0 -9526750000.0 -10229400000.0 -10693200000.0 -10739800000.0 -10651800000.0 -10714900000.0 -10626000000.0 -10555500000.0 -10297900000.0 -10111500000.0 -9829920000.0 -9588900000.0 -9532800000.0 -9168760000.0 -9503630000.0 -9035750000.0 -9730060000.0 -9035750000.0 -9730470000.0 -9035750000.0 -9885280000.0 -9035750000.0 -9929480000.0 -9035750000.0 -10063000000.0 -9035750000.0 -10421500000.0 -9035750000.0 -13997200000.0 -9047130000.0 -10414800000.0 -9035750000.0 -10060200000.0 -9035750000.0 -9928300000.0 -9035750000.0 -9884690000.0 -9035750000.0 -9730260000.0 -9035750000.0 -9730040000.0 -9035750000.0 -9503630000.0 -9168760000.0 -9532810000.0 -9588900000.0 -9829920000.0 -10111600000.0 -10297900000.0 -10555500000.0 -10626000000.0 -10714900000.0 -10651800000.0 -10739800000.0 -10693200000.0 -10229400000.0 -9526750000.0 -9559230000.0 -9625740000.0 -9679090000.0 -9699770000.0 -9401790000.0 -9342760000.0 -9322360000.0 -9415490000.0 -9404970000.0 
SCALARS Shear_Stress float 1
LOOKUP_TABLE default
47953200000.0 47918000000.0 18391500000.0 40206300000.0 87150600000.0 1800660000.0 41060100000.0 48436600000.0 23063300000.0 23030500000.0 48522500000.0 41159200000.0 2020340000.0 86624000000.0 40260700000.0 18531900000.0 9462190000.0 54720900000.0 147008000000.0 196760000000.0 19872300000.0 10281100000.0 85915200000.0 19895800000.0 78154100000.0 78273800000.0 20516700000.0 86067600000.0 11212300000.0 18900100000.0 195513000000.0 146857000000.0 54001400000.0 9388330000.0 83246100000.0 289117000000.0 60589500000.0 96852500000.0 266532000000.0 17039600000.0 61809300000.0 76593500000.0 61848200000.0 15730600000.0 267147000000.0 97251600000.0 58660100000.0 289158000000.0 84287500000.0 49140000000.0 158011000000.0 256357000000.0 238647000000.0 158549000000.0 35440900000.0 99655100000.0 264169000000.0 229186000000.0 189973000000.0 229197000000.0 263263000000.0 99641700000.0 34779700000.0 159449000000.0 237362000000.0 255941000000.0 158401000000.0 49978200000.0 15848700000.0 283937000000.0 206917000000.0 101200000000.0 143191000000.0 45128600000.0 166748000000.0 70024400000.0 185587000000.0 258567000000.0 257795000000.0 184366000000.0 69639000000.0 166057000000.0 42291100000.0 145118000000.0 98566100000.0 208385000000.0 285947000000.0 16038300000.0 88986600000.0 32775700000.0 171396000000.0 196268000000.0 32605800000.0 27975300000.0 87841400000.0 126638000000.0 191945000000.0 125039000000.0 87979900000.0 27913000000.0 30149900000.0 196625000000.0 173534000000.0 36565400000.0 91841700000.0 57475100000.0 18191900000.0 125646000000.0 58097700000.0 245699000000.0 14991600000.0 87965300000.0 145064000000.0 70562000000.0 2317830000.0 69169200000.0 145992000000.0 88580100000.0 16482200000.0 244718000000.0 58437500000.0 129564000000.0 22755200000.0 54080300000.0 76766000000.0 128788000000.0 45785500000.0 218590000000.0 135580000000.0 232599000000.0 217248000000.0 385791000000.0 192706000000.0 194605000000.0 382061000000.0 213222000000.0 235898000000.0 133886000000.0 219558000000.0 45408800000.0 127327000000.0 78687200000.0 112659000000.0 478636000000.0 427295000000.0 92890300000.0 59962100000.0 438798000000.0 410876000000.0 303538000000.0 486369000000.0 209915000000.0 483396000000.0 308221000000.0 412881000000.0 437873000000.0 127861000000.0 59461300000.0 93902300000.0 428669000000.0 477745000000.0 111313000000.0 266624000000.0 59454500000.0 125146000000.0 1.03944e+12 242104000000.0 642250000000.0 125724000000.0 1527540000.0 313418000000.0 385706000000.0 558659000000.0 486476000000.0 559714000000.0 395185000000.0 319007000000.0 536433000.0 641742000000.0 243385000000.0 1.03959e+12 123499000000.0 56215900000.0 265434000000.0 68699600000.0 758975000000.0 277733000000.0 672534000000.0 412640000000.0 399975000000.0 608534000000.0 325206000000.0 68300100000.0 98346200000.0 313195000000.0 419529000000.0 404707000000.0 410319000000.0 413084000000.0 413523000000.0 425065000000.0 316918000000.0 99167700000.0 68319700000.0 329197000000.0 608966000000.0 399371000000.0 413340000000.0 672669000000.0 278464000000.0 757801000000.0 68228400000.0 49021100000.0 333715000000.0 365057000000.0 296721000000.0 1.02709e+12 456078000000.0 173836000000.0 32696500000.0 117827000000.0 141707000000.0 477795000000.0 277044000000.0 472773000000.0 142082000000.0 119392000000.0 31639000000.0 172035000000.0 454618000000.0 1.02982e+12 299275000000.0 365309000000.0 334108000000.0 49067900000.0 65620800000.0 51914300000.0 346208000000.0 200669000000.0 67164600000.0 800299000000.0 275559000000.0 61168200000.0 260273000000.0 69951400000.0 88977200000.0 252497000000.0 115403000000.0 163422000000.0 178520000000.0 188907000000.0 162610000000.0 118954000000.0 252215000000.0 89193300000.0 73792400000.0 258143000000.0 58404800000.0 274296000000.0 801713000000.0 62411000000.0 201948000000.0 346408000000.0 52041000000.0 65729500000.0 87491900000.0 366321000000.0 287026000000.0 317667000000.0 352258000000.0 470281000.0 477847000000.0 716410000000.0 14820900000.0 482804000000.0 59134200000.0 13915800000.0 327600000000.0 252407000000.0 350898000000.0 9035760000.0 360996000000.0 247410000000.0 333825000000.0 17182900000.0 58911400000.0 485644000000.0 11607000000.0 710816000000.0 474235000000.0 3035460000.0 352126000000.0 318219000000.0 287997000000.0 366412000000.0 87545000000.0 112699000000.0 432681000000.0 396598000000.0 362095000000.0 329854000000.0 321291000000.0 279553000000.0 148332000000.0 842395000000.0 717160000000.0 657221000000.0 648234000000.0 18437200000.0 42470600000.0 174631000000.0 32981200000.0 690896000000.0 695932000000.0 28166900000.0 174884000000.0 44611800000.0 20162800000.0 654007000000.0 646043000000.0 715613000000.0 843726000000.0 146735000000.0 279417000000.0 321423000000.0 330105000000.0 362122000000.0 396613000000.0 432665000000.0 112726000000.0 160999000000.0 137659000000.0 466757000000.0 406468000000.0 329773000000.0 283760000000.0 289198000000.0 117937000000.0 570466000000.0 680770000000.0 1.57092e+12 465689000000.0 333746000000.0 245526000000.0 332132000000.0 862775000000.0 814938000000.0 803628000000.0 856342000000.0 325719000000.0 248149000000.0 332215000000.0 457068000000.0 1.56032e+12 680748000000.0 572051000000.0 117561000000.0 288926000000.0 283450000000.0 329720000000.0 406386000000.0 466734000000.0 137672000000.0 161008000000.0 182261000000.0 494879000000.0 454909000000.0 414163000000.0 357176000000.0 288715000000.0 179450000000.0 177104000000.0 585140000000.0 685096000000.0 780159000000.0 459738000000.0 427710000000.0 373038000000.0 407056000000.0 385235000000.0 89902900000.0 793079000000.0 88661400000.0 411906000000.0 397672000000.0 369916000000.0 426959000000.0 459579000000.0 785672000000.0 696390000000.0 585682000000.0 178169000000.0 178652000000.0 288418000000.0 357022000000.0 414031000000.0 454834000000.0 494864000000.0 182269000000.0 201259000000.0 516984000000.0 532796000000.0 499159000000.0 480574000000.0 322911000000.0 193598000000.0 71403100000.0 11085400000.0 181757000000.0 374359000000.0 594139000000.0 739913000000.0 898397000000.0 296976000000.0 14448800000.0 433181000000.0 448174000000.0 816827000000.0 778593000000.0 764520000000.0 765413000000.0 774444000000.0 854721000000.0 447621000000.0 429316000000.0 14523000000.0 293739000000.0 901684000000.0 751673000000.0 597938000000.0 377109000000.0 183752000000.0 9633540000.0 70492100000.0 193096000000.0 322683000000.0 480469000000.0 499109000000.0 532773000000.0 516979000000.0 201265000000.0 217729000000.0 545994000000.0 533283000000.0 557122000000.0 536921000000.0 510874000000.0 411808000000.0 251508000000.0 207286000000.0 83633900000.0 63986200000.0 391027000000.0 984064000000.0 603854000000.0 347785000000.0 256345000000.0 390215000000.0 475754000000.0 652975000000.0 668666000000.0 818955000000.0 657780000000.0 670119000000.0 473855000000.0 388591000000.0 254127000000.0 346351000000.0 602092000000.0 984698000000.0 393417000000.0 65460800000.0 83095500000.0 206937000000.0 251296000000.0 411644000000.0 510784000000.0 536869000000.0 557115000000.0 533284000000.0 545995000000.0 217734000000.0 243400000000.0 233613000000.0 556242000000.0 572411000000.0 595385000000.0 574417000000.0 583416000000.0 409848000000.0 85551600000.0 31024600000.0 126124000000.0 223174000000.0 836901000000.0 692939000000.0 380899000000.0 269219000000.0 333914000000.0 534401000000.0 737372000000.0 913777000000.0 914242000000.0 732252000000.0 542203000000.0 331677000000.0 266810000000.0 377912000000.0 693290000000.0 833378000000.0 224397000000.0 126870000000.0 31770800000.0 85293800000.0 409723000000.0 583377000000.0 574397000000.0 595379000000.0 572410000000.0 556245000000.0 233617000000.0 243404000000.0 248194000000.0 570262000000.0 590916000000.0 582481000000.0 601094000000.0 616033000000.0 643038000000.0 561985000000.0 440901000000.0 137049000000.0 81843200000.0 49825400000.0 133215000000.0 215028000000.0 461626000000.0 778797000000.0 528401000000.0 322283000000.0 438997000000.0 645652000000.0 750138000000.0 846349000000.0 751623000000.0 766604000000.0 747598000000.0 842030000000.0 745553000000.0 649362000000.0 441258000000.0 320192000000.0 526521000000.0 780451000000.0 460463000000.0 214703000000.0 133502000000.0 50129300000.0 82020600000.0 136879000000.0 440842000000.0 561932000000.0 643016000000.0 616020000000.0 601089000000.0 582482000000.0 590918000000.0 570264000000.0 248197000000.0 221562000000.0 578870000000.0 610524000000.0 601906000000.0 598343000000.0 620999000000.0 644510000000.0 658223000000.0 37647900000.0 222290000000.0 147310000000.0 268322000000.0 770744000000.0 905768000000.0 639561000000.0 449032000000.0 373854000000.0 345245000000.0 372293000000.0 458300000000.0 545234000000.0 637534000000.0 736680000000.0 686042000000.0 731895000000.0 637432000000.0 547716000000.0 459572000000.0 372219000000.0 344396000000.0 372066000000.0 448412000000.0 639936000000.0 906117000000.0 770208000000.0 267034000000.0 147311000000.0 222360000000.0 37732300000.0 658202000000.0 644498000000.0 620989000000.0 598332000000.0 601903000000.0 610525000000.0 578874000000.0 221565000000.0 151371000000.0 538312000000.0 589892000000.0 624771000000.0 604586000000.0 592680000000.0 599463000000.0 592539000000.0 708469000000.0 815484000000.0 572674000000.0 250566000000.0 288042000000.0 295739000000.0 343996000000.0 60566500000.0 103683000000.0 1.08494e+12 563076000000.0 352658000000.0 398682000000.0 538072000000.0 670944000000.0 673475000000.0 670465000000.0 667095000000.0 538982000000.0 399119000000.0 351784000000.0 564182000000.0 1.08467e+12 102223000000.0 61285300000.0 343549000000.0 295455000000.0 287957000000.0 250622000000.0 572665000000.0 815490000000.0 708457000000.0 592512000000.0 599442000000.0 592670000000.0 604584000000.0 624775000000.0 589894000000.0 538314000000.0 151374000000.0 4636040000.0 70147800000.0 405864000000.0 656480000000.0 655677000000.0 640934000000.0 591695000000.0 546604000000.0 509000000000.0 658751000000.0 936903000000.0 345622000000.0 280353000000.0 303738000000.0 427482000000.0 128422000000.0 999413000000.0 332415000000.0 378845000000.0 458892000000.0 584100000000.0 645783000000.0 603006000000.0 630454000000.0 601566000000.0 642515000000.0 583000000000.0 459813000000.0 378638000000.0 332110000000.0 1.00069e+12 127807000000.0 427341000000.0 303458000000.0 280262000000.0 345688000000.0 936942000000.0 658710000000.0 508966000000.0 546579000000.0 591692000000.0 640935000000.0 655684000000.0 656483000000.0 405869000000.0 70149000000.0 4638620000.0 13392600000.0 259638000000.0 566399000000.0 751001000000.0 670270000000.0 546059000000.0 565336000000.0 461728000000.0 412235000000.0 445886000000.0 779052000000.0 1.11193e+12 739242000000.0 189693000000.0 251171000000.0 141324000000.0 1.46315e+12 464713000000.0 196827000000.0 313472000000.0 370784000000.0 352130000000.0 404686000000.0 429975000000.0 501020000000.0 512383000000.0 587467000000.0 562806000000.0 565972000000.0 561391000000.0 585360000000.0 511668000000.0 501271000000.0 430292000000.0 404968000000.0 351729000000.0 370177000000.0 312810000000.0 196461000000.0 463559000000.0 1.4619e+12 141572000000.0 250918000000.0 189490000000.0 739304000000.0 1.11189e+12 779008000000.0 445830000000.0 412198000000.0 461692000000.0 565315000000.0 546056000000.0 670270000000.0 751005000000.0 566399000000.0 259642000000.0 13391200000.0 73259100000.0 178014000000.0 137512000000.0 364965000000.0 621918000000.0 917920000000.0 661765000000.0 715746000000.0 551756000000.0 373205000000.0 410635000000.0 182264000000.0 482920000000.0 1.089e+12 157083000000.0 29224100000.0 144248000000.0 184928000000.0 934129000000.0 371960000000.0 74109100000.0 235270000000.0 363822000000.0 429773000000.0 502423000000.0 528760000000.0 528296000000.0 501590000000.0 429821000000.0 363604000000.0 234641000000.0 74988600000.0 368438000000.0 935326000000.0 184948000000.0 144067000000.0 29047300000.0 157001000000.0 1.08895e+12 482882000000.0 182245000000.0 410593000000.0 373174000000.0 551724000000.0 715745000000.0 661783000000.0 917926000000.0 621921000000.0 364968000000.0 137521000000.0 178022000000.0 73258900000.0 156179000000.0 535675000000.0 225483000000.0 126952000000.0 334868000000.0 738225000000.0 567787000000.0 800108000000.0 418029000000.0 611880000000.0 425446000000.0 341955000000.0 406866000000.0 1.00138e+12 66880800000.0 45100500000.0 528010000000.0 504497000000.0 864521000000.0 182590000000.0 288757000000.0 335135000000.0 423859000000.0 479200000000.0 491867000000.0 478818000000.0 423659000000.0 335083000000.0 288137000000.0 183055000000.0 865360000000.0 505032000000.0 527873000000.0 44807700000.0 66917800000.0 1.00147e+12 406919000000.0 341924000000.0 425398000000.0 611835000000.0 418033000000.0 800101000000.0 567826000000.0 738222000000.0 334861000000.0 126977000000.0 225489000000.0 535674000000.0 156180000000.0 56876900000.0 68002500000.0 273101000000.0 623333000000.0 7533540000.0 297341000000.0 1.1942e+12 71754700000.0 78093800000.0 231067000000.0 667662000000.0 33969700000.0 722670000000.0 991347000000.0 838160000000.0 16574800000.0 270547000000.0 390697000000.0 527007000000.0 717529000000.0 357099000000.0 252527000000.0 204923000000.0 71553200000.0 213972000000.0 200515000000.0 326630000000.0 326662000000.0 412047000000.0 390435000000.0 447849000000.0 409727000000.0 447778000000.0 390425000000.0 411862000000.0 326747000000.0 326690000000.0 200487000000.0 213724000000.0 71221700000.0 204236000000.0 251939000000.0 356917000000.0 714783000000.0 526948000000.0 390901000000.0 270182000000.0 16652000000.0 838280000000.0 991242000000.0 722624000000.0 33962300000.0 667638000000.0 231042000000.0 78114500000.0 71838700000.0 1.19421e+12 297319000000.0 7521560000.0 623347000000.0 273104000000.0 68006300000.0 56878300000.0 57539400000.0 246829000000.0 161591000000.0 194386000000.0 481171000000.0 79362700000.0 843522000000.0 1.58651e+12 1.22462e+12 758360000000.0 776887000000.0 555004000000.0 200165000000.0 1.29089e+12 483331000000.0 882920000000.0 211582000000.0 40361800000.0 758596000000.0 438633000000.0 94381900000.0 36735600000.0 225599000000.0 315879000000.0 361510000000.0 361566000000.0 315976000000.0 225808000000.0 36830800000.0 94949000000.0 439952000000.0 758533000000.0 40568200000.0 211704000000.0 882773000000.0 483352000000.0 1.29086e+12 200033000000.0 555035000000.0 776817000000.0 758291000000.0 1.22457e+12 1.58648e+12 843503000000.0 79422400000.0 481215000000.0 194345000000.0 161605000000.0 246828000000.0 57538800000.0 63443500000.0 266469000000.0 162480000000.0 74455600000.0 201463000000.0 771271000000.0 1.27118e+12 6268060000.0 19642300000.0 472184000000.0 1.05888e+12 550910000000.0 965929000000.0 1.2326e+12 667730000000.0 307136000000.0 906013000000.0 895098000000.0 904612000000.0 726418000000.0 486315000000.0 365609000000.0 241081000000.0 422792000000.0 76260900000.0 439994000000.0 165922000000.0 123745000000.0 224226000000.0 299386000000.0 324214000000.0 299550000000.0 224530000000.0 124038000000.0 165994000000.0 439852000000.0 76699300000.0 421735000000.0 241061000000.0 366956000000.0 486526000000.0 726475000000.0 904581000000.0 895105000000.0 906022000000.0 307137000000.0 667737000000.0 1.23255e+12 966039000000.0 550997000000.0 1.05879e+12 472142000000.0 19647100000.0 6253280000.0 1.27117e+12 771201000000.0 201441000000.0 74456400000.0 162474000000.0 266468000000.0 63444000000.0 79262200000.0 284480000000.0 269570000000.0 172762000000.0 50746000000.0 424709000000.0 579953000000.0 1.37399e+12 732572000000.0 267603000000.0 160206000000.0 530657000000.0 821092000000.0 685988000000.0 790285000000.0 670148000000.0 9710190000.0 114973000000.0 478056000000.0 226103000000.0 136841000000.0 718551000000.0 354877000000.0 247174000000.0 87928400000.0 50223500000.0 124937000000.0 128549000000.0 221003000000.0 214534000000.0 275697000000.0 241958000000.0 275852000000.0 214889000000.0 221328000000.0 129127000000.0 125449000000.0 50834200000.0 88011200000.0 246658000000.0 354630000000.0 719250000000.0 137418000000.0 226530000000.0 477881000000.0 114963000000.0 9468180000.0 670299000000.0 790191000000.0 686106000000.0 821136000000.0 530785000000.0 160375000000.0 267590000000.0 732541000000.0 1.37394e+12 579844000000.0 424639000000.0 50734300000.0 172766000000.0 269573000000.0 284485000000.0 79266300000.0 95631200000.0 83337700000.0 300319000000.0 205535000000.0 66527100000.0 13673800000.0 105087000000.0 389442000000.0 438590000000.0 165443000000.0 358677000000.0 412297000000.0 207533000000.0 297214000000.0 318500000000.0 180879000000.0 72000900000.0 783769000000.0 692097000000.0 524232000000.0 582193000000.0 454714000000.0 52613700000.0 20230300000.0 394464000000.0 708072000000.0 680498000000.0 10825900000.0 36734400000.0 141144000000.0 197598000000.0 197884000000.0 141764000000.0 37594200000.0 10790300000.0 680241000000.0 708123000000.0 394350000000.0 21036400000.0 52911900000.0 454482000000.0 582950000000.0 523918000000.0 692033000000.0 784040000000.0 71984900000.0 180932000000.0 318505000000.0 297172000000.0 207543000000.0 412335000000.0 358777000000.0 165354000000.0 438584000000.0 389410000000.0 105064000000.0 13677700000.0 66532000000.0 205546000000.0 300327000000.0 83343300000.0 95636400000.0 109170000000.0 320371000000.0 225786000000.0 114977000000.0 89443200000.0 7502620000.0 4635210000.0 839773000000.0 910251000000.0 338562000000.0 396549000000.0 99511300000.0 260560000000.0 173883000000.0 539029000000.0 61500400000.0 663230000000.0 174859000000.0 25528500000.0 299081000000.0 14888300000.0 137464000000.0 424985000000.0 50041600000.0 146472000000.0 51812700000.0 60965200000.0 144715000000.0 168843000000.0 145313000000.0 61952000000.0 51173700000.0 145851000000.0 50266400000.0 425125000000.0 136539000000.0 14936000000.0 298736000000.0 25961700000.0 174715000000.0 663171000000.0 61441500000.0 539126000000.0 173820000000.0 260553000000.0 99463000000.0 396548000000.0 338629000000.0 910227000000.0 839790000000.0 4634510000.0 7527030000.0 89462900000.0 115005000000.0 225801000000.0 320379000000.0 109174000000.0 111638000000.0 331814000000.0 305403000000.0 260772000000.0 178122000000.0 64200200000.0 52884700000.0 365391000000.0 651750000000.0 760052000000.0 576911000000.0 540328000000.0 246299000000.0 237673000000.0 343141000000.0 528524000000.0 463017000000.0 867347000000.0 119854000000.0 10067700000.0 137466000000.0 87721200000.0 170321000000.0 174793000000.0 430228000000.0 248497000000.0 103863000000.0 10959000000.0 27117100000.0 86816700000.0 94954200000.0 131961000000.0 105488000000.0 132431000000.0 95910100000.0 87851000000.0 28724600000.0 9747280000.0 102578000000.0 248595000000.0 431242000000.0 174463000000.0 168958000000.0 86443400000.0 136258000000.0 9271310000.0 120078000000.0 867372000000.0 463032000000.0 528532000000.0 343069000000.0 237645000000.0 246300000000.0 540348000000.0 576904000000.0 760046000000.0 651670000000.0 365334000000.0 52902700000.0 64163000000.0 178144000000.0 260785000000.0 305411000000.0 331820000000.0 111641000000.0 99839000000.0 106449000000.0 304016000000.0 330312000000.0 320626000000.0 255279000000.0 62458400000.0 266469000000.0 265385000000.0 423258000000.0 261124000000.0 498212000000.0 753423000000.0 380200000000.0 169819000000.0 394817000000.0 385669000000.0 342523000000.0 238992000000.0 310614000000.0 620003000000.0 781534000000.0 349422000000.0 390180000000.0 86550200000.0 78936800000.0 107502000000.0 188545000000.0 290714000000.0 238331000000.0 243529000000.0 24180600000.0 64459200000.0 76393400000.0 77225900000.0 66033000000.0 22458700000.0 243282000000.0 238646000000.0 289679000000.0 186648000000.0 105528000000.0 77195900000.0 85954900000.0 389907000000.0 349351000000.0 781571000000.0 620032000000.0 310550000000.0 238954000000.0 342516000000.0 385694000000.0 394866000000.0 169869000000.0 380145000000.0 753365000000.0 498295000000.0 261138000000.0 423222000000.0 265336000000.0 266430000000.0 62499600000.0 255294000000.0 320634000000.0 330317000000.0 304018000000.0 106451000000.0 99841600000.0 72911200000.0 278978000000.0 302130000000.0 294098000000.0 275905000000.0 189320000000.0 149720000000.0 599856000000.0 548612000000.0 944145000000.0 483283000000.0 152250000000.0 296898000000.0 383575000000.0 409106000000.0 358471000000.0 376557000000.0 440954000000.0 583957000000.0 476502000000.0 360208000000.0 208703000000.0 25180500000.0 2648100000.0 52083600000.0 211171000000.0 471260000000.0 626727000000.0 599386000000.0 209223000000.0 66165700000.0 34950900000.0 56782900000.0 47910000000.0 58466300000.0 37433900000.0 63512900000.0 209483000000.0 599806000000.0 626718000000.0 472378000000.0 213973000000.0 54651600000.0 3613290000.0 25065600000.0 208628000000.0 360019000000.0 476333000000.0 583975000000.0 440885000000.0 376486000000.0 358438000000.0 409122000000.0 383624000000.0 296973000000.0 152340000000.0 483383000000.0 944222000000.0 548648000000.0 599810000000.0 149750000000.0 189347000000.0 275915000000.0 294108000000.0 302137000000.0 278980000000.0 72913100000.0 54982600000.0 260552000000.0 270847000000.0 256283000000.0 273193000000.0 253715000000.0 239058000000.0 438291000000.0 764956000000.0 739374000000.0 546386000000.0 811779000000.0 747925000000.0 162125000000.0 93621400000.0 300934000000.0 411826000000.0 435929000000.0 428229000000.0 495654000000.0 671418000000.0 666462000000.0 682877000000.0 242956000000.0 80389400000.0 22658100000.0 13436400000.0 4097120000.0 81123400000.0 206743000000.0 3528830000.0 326957000000.0 81146000000.0 11554900000.0 49814200000.0 35494000000.0 24728200000.0 22102600000.0 26479800000.0 38412100000.0 51694800000.0 7975580000.0 82589800000.0 330601000000.0 3517490000.0 206644000000.0 84074300000.0 6064620000.0 14975000000.0 23179000000.0 80599700000.0 242726000000.0 682829000000.0 666483000000.0 671549000000.0 495587000000.0 428151000000.0 435929000000.0 411870000000.0 301011000000.0 93708000000.0 162055000000.0 747902000000.0 811722000000.0 546369000000.0 739394000000.0 764960000000.0 438264000000.0 239072000000.0 253726000000.0 273199000000.0 256287000000.0 270849000000.0 260552000000.0 54984200000.0 33625700000.0 183563000000.0 257220000000.0 244032000000.0 211076000000.0 236585000000.0 193857000000.0 94168800000.0 481994000000.0 622944000000.0 205283000000.0 201859000000.0 11471800000.0 446412000000.0 485827000000.0 497655000000.0 515423000000.0 821640000000.0 715400000000.0 654776000000.0 525871000000.0 397512000000.0 21247800000.0 21627800000.0 65087700000.0 91723500000.0 120637000000.0 58971900000.0 9391210000.0 97313000000.0 47303300000.0 43483500000.0 99146200000.0 10957800000.0 53368700000.0 123364000000.0 93824800000.0 66305100000.0 22563700000.0 20517500000.0 397293000000.0 525849000000.0 654817000000.0 715486000000.0 821723000000.0 515085000000.0 497654000000.0 485871000000.0 446495000000.0 11356400000.0 201958000000.0 205349000000.0 622945000000.0 482005000000.0 94171400000.0 193864000000.0 236591000000.0 211081000000.0 244034000000.0 257220000000.0 183564000000.0 33625700000.0 71040400000.0 153527000000.0 148534000000.0 131322000000.0 189091000000.0 197159000000.0 245699000000.0 303597000000.0 395217000000.0 439771000000.0 223150000000.0 244904000000.0 935637000000.0 192141000000.0 338733000000.0 783436000000.0 641034000000.0 603410000000.0 523052000000.0 417838000000.0 291205000000.0 156471000000.0 120312000000.0 140689000000.0 195729000000.0 328318000000.0 527560000000.0 747859000000.0 494155000000.0 13749200000.0 6651330000.0 947519000.0 132815000000.0 5149280000.0 16427000000.0 16942800000.0 488098000000.0 751380000000.0 532960000000.0 332312000000.0 198258000000.0 141856000000.0 120925000000.0 155861000000.0 290655000000.0 417533000000.0 523049000000.0 603508000000.0 640981000000.0 783362000000.0 338852000000.0 192271000000.0 935783000000.0 244941000000.0 223137000000.0 439764000000.0 395204000000.0 303593000000.0 245701000000.0 197162000000.0 189091000000.0 131322000000.0 148535000000.0 153528000000.0 71039800000.0 153577000000.0 281664000000.0 135723000000.0 170827000000.0 172695000000.0 154779000000.0 90455300000.0 294548000000.0 23007500000.0 520341000000.0 649096000000.0 475827000000.0 524944000000.0 558833000000.0 533549000000.0 470516000000.0 360697000000.0 551270000000.0 490547000000.0 399823000000.0 275537000000.0 114830000000.0 35917300000.0 120896000000.0 164161000000.0 199876000000.0 251157000000.0 282216000000.0 69791100000.0 384791000000.0 15152400000.0 291278000000.0 231096000000.0 185430000000.0 146027000000.0 173822000000.0 249503000000.0 163893000000.0 131924000000.0 182675000000.0 219438000000.0 291360000000.0 24205600000.0 393363000000.0 73874300000.0 294492000000.0 253250000000.0 200714000000.0 163802000000.0 120502000000.0 35379100000.0 116047000000.0 276130000000.0 400319000000.0 490855000000.0 551400000000.0 360269000000.0 470394000000.0 533604000000.0 558953000000.0 525101000000.0 476019000000.0 649228000000.0 520326000000.0 22987900000.0 294546000000.0 90450800000.0 154778000000.0 172698000000.0 170828000000.0 135724000000.0 281663000000.0 153577000000.0 94003600000.0 120154000000.0 117735000000.0 133117000000.0 116917000000.0 307402000000.0 102771000000.0 598201000000.0 381766000000.0 607139000000.0 892213000000.0 699489000000.0 727066000000.0 722588000000.0 612756000000.0 443626000000.0 237031000000.0 688999000000.0 599067000000.0 391585000000.0 283833000000.0 154043000000.0 34409800000.0 49975400000.0 133134000000.0 140172000000.0 208964000000.0 133759000000.0 275407000000.0 187941000000.0 172215000000.0 293111000000.0 273837000000.0 179936000000.0 192581000000.0 271602000000.0 133929000000.0 213257000000.0 139541000000.0 131923000000.0 49125800000.0 35097900000.0 155126000000.0 284659000000.0 392119000000.0 599081000000.0 688864000000.0 236689000000.0 443567000000.0 612880000000.0 722731000000.0 727227000000.0 699545000000.0 892230000000.0 607113000000.0 381766000000.0 598222000000.0 102761000000.0 307391000000.0 116916000000.0 133115000000.0 117732000000.0 120152000000.0 94004200000.0 110714000000.0 88934100000.0 361700000000.0 114193000000.0 246797000000.0 150108000000.0 220263000000.0 435910000000.0 1206700000.0 94549000000.0 309839000000.0 320135000000.0 709596000000.0 625280000000.0 690432000000.0 627449000000.0 402673000000.0 141738000000.0 548695000000.0 551729000000.0 552190000000.0 478283000000.0 85210900000.0 4620180000.0 69979000000.0 163512000000.0 148584000000.0 143687000000.0 178297000000.0 165091000000.0 350744000000.0 222494000000.0 431473000000.0 366975000000.0 395045000000.0 206759000000.0 332768000000.0 163868000000.0 176350000000.0 141560000000.0 146962000000.0 161791000000.0 68572700000.0 5775090000.0 86395300000.0 478741000000.0 552679000000.0 551815000000.0 548424000000.0 141536000000.0 402642000000.0 627443000000.0 690390000000.0 625289000000.0 709591000000.0 320135000000.0 309837000000.0 94554300000.0 1221950000.0 435912000000.0 220260000000.0 150105000000.0 246797000000.0 114190000000.0 361698000000.0 88933600000.0 110714000000.0 420727000000.0 165951000000.0 216732000000.0 315880000000.0 13448900000.0 20953000000.0 156085000000.0 345451000000.0 598792000000.0 563962000000.0 580506000000.0 626831000000.0 395824000000.0 85121900000.0 416889000000.0 476679000000.0 585551000000.0 486409000000.0 392029000000.0 297630000000.0 190827000000.0 63045600000.0 210778000000.0 147247000000.0 183216000000.0 180313000000.0 148776000000.0 235257000000.0 85418800000.0 4039910000.0 207844000000.0 152036000000.0 371442000000.0 234382000000.0 364199000000.0 151463000000.0 213433000000.0 12784100000.0 98454700000.0 224808000000.0 143324000000.0 179094000000.0 181155000000.0 144662000000.0 208394000000.0 61465400000.0 191968000000.0 298545000000.0 392715000000.0 487091000000.0 586489000000.0 476764000000.0 416755000000.0 85088000000.0 395902000000.0 626808000000.0 580502000000.0 563958000000.0 598788000000.0 345469000000.0 156102000000.0 20949700000.0 13437500000.0 315884000000.0 216731000000.0 165951000000.0 420726000000.0 94088900000.0 127637000000.0 179095000000.0 376165000000.0 500242000000.0 59219400000.0 497900000000.0 137315000000.0 328986000000.0 584494000000.0 462898000000.0 369940000000.0 283403000000.0 210264000000.0 142055000000.0 101218000000.0 31915100000.0 172306000000.0 193942000000.0 302403000000.0 441719000000.0 423621000000.0 386624000000.0 441032000000.0 465124000000.0 517975000000.0 225979000000.0 146474000000.0 522765000000.0 467087000000.0 439900000000.0 390775000000.0 418624000000.0 442957000000.0 301021000000.0 190010000000.0 169212000000.0 33388100000.0 102740000000.0 143420000000.0 211339000000.0 284244000000.0 370566000000.0 463207000000.0 584724000000.0 328393000000.0 137312000000.0 497900000000.0 59224200000.0 500252000000.0 376165000000.0 179097000000.0 127640000000.0 94088500000.0 298270000000.0 41876100000.0 257704000000.0 80274200000.0 557136000000.0 123875000000.0 628994000000.0 437562000000.0 496041000000.0 460420000000.0 604224000000.0 455777000000.0 75376400000.0 288163000000.0 337964000000.0 231840000000.0 122002000000.0 14830400000.0 123212000000.0 204389000000.0 253606000000.0 275554000000.0 303913000000.0 232824000000.0 221186000000.0 183035000000.0 113195000000.0 219279000000.0 300749000000.0 272375000000.0 251199000000.0 202068000000.0 121488000000.0 13432100000.0 123069000000.0 232677000000.0 338560000000.0 287739000000.0 75395200000.0 455736000000.0 604168000000.0 460416000000.0 496000000000.0 437522000000.0 628991000000.0 123875000000.0 557141000000.0 80277500000.0 257707000000.0 41874800000.0 298268000000.0 113880000000.0 158966000000.0 155150000000.0 71497900000.0 58193500000.0 112804000000.0 395813000000.0 410584000000.0 439619000000.0 544895000000.0 103044000000.0 242555000000.0 199861000000.0 535456000000.0 440224000000.0 106440000000.0 171943000000.0 239326000000.0 313624000000.0 340091000000.0 391915000000.0 320689000000.0 318654000000.0 380659000000.0 329700000000.0 242207000000.0 161712000000.0 11288100000.0 265883000.0 341710000000.0 19592800000.0 359150000000.0 5049570000.0 35964300000.0 142528000000.0 218859000000.0 313353000000.0 370814000000.0 312857000000.0 316152000000.0 391487000000.0 335900000000.0 309213000000.0 236053000000.0 170042000000.0 105172000000.0 440654000000.0 535467000000.0 199527000000.0 242404000000.0 103089000000.0 544864000000.0 439597000000.0 410553000000.0 395762000000.0 112789000000.0 58190100000.0 71496000000.0 155155000000.0 158967000000.0 113879000000.0 15301600000.0 97275700000.0 15415600000.0 171125000000.0 158936000000.0 406483000000.0 118810000000.0 348911000000.0 386548000000.0 428592000000.0 234723000000.0 181524000000.0 167903000000.0 413828000000.0 449730000000.0 344915000000.0 219881000000.0 99646300000.0 17383700000.0 416226000000.0 451749000000.0 553293000000.0 572757000000.0 676867000000.0 850683000000.0 746333000000.0 742515000000.0 583793000000.0 504858000000.0 380715000000.0 137075000000.0 74207300000.0 50457800000.0 122784000000.0 392818000000.0 505953000000.0 565327000000.0 737456000000.0 731030000000.0 844799000000.0 669520000000.0 566442000000.0 549048000000.0 451300000000.0 412949000000.0 16427200000.0 100510000000.0 220685000000.0 345624000000.0 450092000000.0 413502000000.0 167625000000.0 181091000000.0 234757000000.0 428561000000.0 386480000000.0 348858000000.0 118788000000.0 406482000000.0 158930000000.0 171122000000.0 15415800000.0 97272900000.0 15302100000.0 117487000000.0 156628000000.0 2372030000.0 83639600000.0 136869000000.0 65965200000.0 264548000000.0 123153000000.0 333957000000.0 354172000000.0 230472000000.0 173971000000.0 222074000000.0 307282000000.0 391175000000.0 361795000000.0 236726000000.0 110280000000.0 10094400000.0 107629000000.0 183850000000.0 251466000000.0 346966000000.0 322551000000.0 279020000000.0 219487000000.0 351352000000.0 273495000000.0 233697000000.0 202054000000.0 268342000000.0 320831000000.0 345167000000.0 249577000000.0 182667000000.0 107019000000.0 9520540000.0 110845000000.0 237364000000.0 362423000000.0 391128000000.0 307032000000.0 221754000000.0 173817000000.0 230377000000.0 353921000000.0 333792000000.0 123123000000.0 264555000000.0 65969100000.0 136865000000.0 83632200000.0 2371490000.0 156630000000.0 117489000000.0 15662100000.0 290756000000.0 87558800000.0 34282400000.0 22225100000.0 120976000000.0 29492000000.0 152760000000.0 153192000000.0 485272000000.0 357895000000.0 226433000000.0 87258400000.0 41599600000.0 141114000000.0 227442000000.0 298639000000.0 419899000000.0 475140000000.0 442240000000.0 553318000000.0 308685000000.0 322699000000.0 277747000000.0 103736000000.0 246380000000.0 434848000000.0 248079000000.0 88863500000.0 225767000000.0 309115000000.0 306706000000.0 549314000000.0 440026000000.0 471839000000.0 417339000000.0 297128000000.0 225863000000.0 140796000000.0 41287500000.0 87471600000.0 226694000000.0 358182000000.0 485455000000.0 153194000000.0 152756000000.0 29486800000.0 120974000000.0 22224600000.0 34281900000.0 87558500000.0 290754000000.0 15661500000.0 35962600000.0 190752000000.0 31057100000.0 77494400000.0 5046140000.0 142502000000.0 110351000000.0 127462000000.0 268542000000.0 222827000000.0 26829700000.0 438218000000.0 394022000000.0 508654000000.0 181826000000.0 179022000000.0 120091000000.0 124968000000.0 124313000000.0 4418800000.0 19649700000.0 176179000000.0 2676990000.0 84372500000.0 56738700000.0 7124310000.0 29245300000.0 93711400000.0 11729600000.0 136109000000.0 90022800000.0 43935200000.0 4157250000.0 59459900000.0 80051500000.0 3335880000.0 171109000000.0 19428200000.0 5659220000.0 124158000000.0 126441000000.0 121364000000.0 178802000000.0 182189000000.0 508337000000.0 393580000000.0 437892000000.0 26594300000.0 222708000000.0 268515000000.0 127391000000.0 110347000000.0 142500000000.0 5045800000.0 77491500000.0 31055600000.0 190750000000.0 35961300000.0 181423000000.0 89232500000.0 88982100000.0 223078000000.0 37928600000.0 92721000000.0 36844300000.0 81550300000.0 1303170000.0 75901900000.0 124220000000.0 160286000000.0 158161000000.0 151594000000.0 178452000000.0 89993000000.0 5571100000.0 45959400000.0 117082000000.0 16228100000.0 211023000000.0 377017000000.0 52450900000.0 31185200000.0 120529000000.0 40536200000.0 10674900000.0 89177800000.0 178127000000.0 151414000000.0 158330000000.0 161180000000.0 125409000000.0 76950800000.0 1775100000.0 81243800000.0 37362400000.0 92364700000.0 37960100000.0 223147000000.0 89114800000.0 89239000000.0 181412000000.0 46450900000.0 113762000000.0 10937700000.0 3291970000.0 8035380000.0 53204300000.0 109704000000.0 108553000000.0 65362300000.0 5591430000.0 97327600000.0 229124000.0 38744800000.0 38596700000.0 144106000000.0 138317000000.0 171442000000.0 162356000000.0 120499000000.0 94164300000.0 73383000000.0 71848600000.0 85960200000.0 80842200000.0 78400100000.0 22309100000.0 19611700000.0 25331300000.0 143637000000.0 133809000000.0 194053000000.0 334970000000.0 203218000000.0 148446000000.0 146474000000.0 25569200000.0 19304100000.0 27063800000.0 77722400000.0 81191500000.0 86244400000.0 72282700000.0 73193100000.0 94547000000.0 121303000000.0 163239000000.0 172121000000.0 138494000000.0 144712000000.0 39117800000.0 38530900000.0 169093000.0 97250700000.0 5583710000.0 65330800000.0 108501000000.0 109694000000.0 53201800000.0 8037230000.0 3292650000.0 10937600000.0 113761000000.0 46450400000.0 55852300000.0 11705400000.0 71800500000.0 55663000000.0 15884400000.0 37229800000.0 49805100000.0 13698100000.0 42348500000.0 42946500000.0 15383000000.0 45089100000.0 47988900000.0 97597800000.0 131199000000.0 154572000000.0 199781000000.0 250313000000.0 220957000000.0 261696000000.0 197520000000.0 144376000000.0 134292000000.0 175256000000.0 173651000000.0 150406000000.0 67627500000.0 54691800000.0 32700200000.0 183851000000.0 59427700000.0 59180500000.0 154724000000.0 165597000000.0 170981000000.0 127775000000.0 148739000000.0 200199000000.0 262360000000.0 232626000000.0 242934000000.0 199506000000.0 155477000000.0 132828000000.0 99504600000.0 50077800000.0 43530400000.0 15562800000.0 42964300000.0 42372900000.0 13671900000.0 49810200000.0 37226800000.0 15885800000.0 55661800000.0 71798200000.0 11704800000.0 55851400000.0 45216100000.0 8484530000.0 72156300000.0 177594000000.0 239020000000.0 256100000000.0 244588000000.0 203706000000.0 126915000000.0 32345500000.0 14376100000.0 27711000000.0 51814900000.0 65994000000.0 21390900000.0 207210000000.0 301126000000.0 68473800000.0 7787110000.0 100478000000.0 73498900000.0 43228400000.0 43339100000.0 53535400000.0 126871000000.0 203838000000.0 244585000000.0 255638000000.0 238890000000.0 177611000000.0 72422300000.0 8231950000.0 45216400000.0 53752800000.0 26197200000.0 13686700000.0 52109500000.0 60842600000.0 51600800000.0 18655000000.0 9149710000.0 74275800000.0 5995240000.0 73153100000.0 92882800000.0 140861000000.0 189802000000.0 230247000000.0 252182000000.0 256464000000.0 203985000000.0 130634000000.0 34587600000.0 38917500000.0 62835200000.0 82147300000.0 76476800000.0 58772400000.0 55775700000.0 28388500000.0 34148200000.0 152414000000.0 247305000000.0 134820000000.0 76296100000.0 67435500000.0 87576100000.0 76077600000.0 93047900000.0 93705600000.0 68850200000.0 41778900000.0 31949100000.0 129527000000.0 203482000000.0 256239000000.0 251515000000.0 229841000000.0 189654000000.0 140812000000.0 92653500000.0 73196300000.0 6009850000.0 74277400000.0 9155550000.0 18667300000.0 51610000000.0 60851200000.0 52113200000.0 13686400000.0 26196900000.0 53751900000.0 31845700000.0 1040490000.0 3101820000.0 4879430000.0 21242700000.0 23509600000.0 36135100000.0 46432200000.0 32338700000.0 55493300000.0 4974900000.0 37491000000.0 74552100000.0 96234900000.0 100090000000.0 99325500000.0 82849700000.0 55230300000.0 1526460000.0 55630900000.0 146356000000.0 230907000000.0 248787000000.0 272112000000.0 265263000000.0 279885000000.0 248466000000.0 235054000000.0 215759000000.0 182402000000.0 192318000000.0 131401000000.0 182337000000.0 106976000000.0 132150000000.0 33205800000.0 9642880000.0 53885600000.0 1330190000.0 104273000000.0 118092000000.0 173523000000.0 139661000000.0 183269000000.0 188255000000.0 206702000000.0 226854000000.0 240433000000.0 270788000000.0 259964000000.0 266113000000.0 243118000000.0 224934000000.0 141279000000.0 50687600000.0 2673090000.0 59220100000.0 85918300000.0 101920000000.0 101902000000.0 97258000000.0 74750800000.0 37513900000.0 4977590000.0 55504400000.0 32347000000.0 46440000000.0 36136900000.0 23509700000.0 21242000000.0 4879540000.0 3101490000.0 1040310000.0 31845000000.0 24025100000.0 8595740000.0 8314550000.0 9910140000.0 11666500000.0 14657300000.0 68843800000.0 144949000000.0 9432830000.0 84378000000.0 67905300000.0 41681700000.0 22114500000.0 8446880000.0 15801900000.0 44209400000.0 10457500000.0 12644900000.0 25443800000.0 24267900000.0 28783200000.0 18736200000.0 11015500000.0 18051600000.0 25990100000.0 22933100000.0 2675570000.0 17601900000.0 82550800000.0 111633000000.0 154037000000.0 189114000000.0 186872000000.0 159061000000.0 97350800000.0 73552600000.0 3157060000.0 33842700000.0 28129800000.0 41253000000.0 52981900000.0 76133100000.0 87956900000.0 92472900000.0 207330000000.0 148228000000.0 64923800000.0 20595200000.0 8322780000.0 24116400000.0 24222500000.0 27851600000.0 25906400000.0 32508000000.0 4110580000.0 74190300000.0 98662200000.0 160108000000.0 187625000000.0 189278000000.0 154025000000.0 111701000000.0 82544100000.0 17511600000.0 2897580000.0 22793300000.0 26105000000.0 17984500000.0 10961100000.0 18694200000.0 28756700000.0 24257600000.0 25443000000.0 12648000000.0 10453500000.0 44207000000.0 47874300000.0 22224800000.0 7259620000.0 8588000000.0 21676500000.0 23646300000.0 35957000000.0 37900400000.0 35650400000.0 58042300000.0 8112330000.0 35797100000.0 35967000000.0 87225900000.0 110400000000.0 139941000000.0 143027000000.0 97966600000.0 44935400000.0 27757600000.0 62211500000.0 173095000000.0 145237000000.0 131616000000.0 120867000000.0 74151600000.0 95380400000.0 40072100000.0 77208000000.0 4957180000.0 71613000000.0 999419000.0 75755900000.0 1128880000.0 84016600000.0 97046600000.0 52097900000.0 167967000000.0 54398000000.0 167460000000.0 7182390000.0 66974200000.0 5484800000.0 47046600000.0 21787400000.0 24980000000.0 43693000000.0 17554800000.0 73445800000.0 58423100000.0 107613000000.0 123292000000.0 138781000000.0 168711000000.0 58584000000.0 25586000000.0 46106100000.0 98837200000.0 142992000000.0 139488000000.0 110434000000.0 87264700000.0 35796100000.0 35821400000.0 8111590000.0 58054800000.0 35659400000.0 37907700000.0 35959000000.0 23646600000.0 21675900000.0 8588010000.0 7259670000.0 22224200000.0 47873500000.0 50305400000.0 27711300000.0 4196300000.0 253013000.0 9314270000.0 5942970000.0 12363700000.0 6931270000.0 4025260000.0 12548400000.0 37735400000.0 20208600000.0 29250400000.0 6212600000.0 31439300000.0 78549400000.0 131491000000.0 155378000000.0 169493000000.0 142387000000.0 127720000000.0 35480200000.0 36440200000.0 27190300000.0 8598020000.0 50547100000.0 8750160000.0 56093400000.0 9035750000.0 78781200000.0 9035750000.0 82885500000.0 9260810000.0 93525000000.0 9921400000.0 184235000000.0 8526990000.0 207365000000.0 13886000000.0 103332000000.0 42323200000.0 31877600000.0 25662100000.0 38687000000.0 11103600000.0 52026600000.0 3631640000.0 49464500000.0 8751310000.0 47221200000.0 8608390000.0 24718000000.0 35155900000.0 34432000000.0 127662000000.0 142163000000.0 169413000000.0 155713000000.0 131680000000.0 78578800000.0 31442500000.0 6223550000.0 29374400000.0 20203600000.0 37746700000.0 12546200000.0 4021410000.0 6927450000.0 12359000000.0 5939100000.0 9311290000.0 254278000.0 4195490000.0 27710500000.0 50304700000.0 51338000000.0 35614900000.0 12031700000.0 10890800000.0 24847100000.0 24866300000.0 34844200000.0 34427800000.0 40881700000.0 48848800000.0 16259600000.0 46485000000.0 49223300000.0 84722800000.0 109274000000.0 140497000000.0 167429000000.0 162778000000.0 151745000000.0 112760000000.0 93196400000.0 23641300000.0 26304900000.0 15067600000.0 2359360000.0 44470200000.0 6294850000.0 50517100000.0 9035750000.0 72258100000.0 9035750000.0 76008700000.0 1660310000.0 69537300000.0 12685900000.0 143211000000.0 24587300000.0 234217000000.0 33912500000.0 153536000000.0 9035750000.0 72837600000.0 9035750000.0 63170600000.0 9035750000.0 62647900000.0 9035750000.0 45269000000.0 5861300000.0 41645500000.0 2294400000.0 13094300000.0 25191800000.0 22765300000.0 93171600000.0 112571000000.0 151656000000.0 162989000000.0 167575000000.0 140562000000.0 109265000000.0 84755200000.0 49160600000.0 46493000000.0 16259200000.0 48854400000.0 40884300000.0 34428800000.0 34843700000.0 24865500000.0 24846200000.0 10890800000.0 12031700000.0 35614600000.0 51337700000.0 50245100000.0 38636600000.0 13048700000.0 11124500000.0 24523600000.0 23732800000.0 32072100000.0 31449900000.0 39373600000.0 41445900000.0 16776600000.0 46637700000.0 50206700000.0 78095600000.0 101003000000.0 127977000000.0 155060000000.0 155868000000.0 151702000000.0 118872000000.0 98154200000.0 44111200000.0 40762800000.0 23705800000.0 9035750000.0 46003200000.0 9035750000.0 47852100000.0 9035750000.0 66553400000.0 9035750000.0 70187300000.0 9035750000.0 80651600000.0 9035750000.0 158084000000.0 9035750000.0 253124000000.0 11123300000.0 129803000000.0 9035750000.0 68439000000.0 9035750000.0 59338300000.0 9035750000.0 59289400000.0 9035750000.0 44070600000.0 9035750000.0 44056400000.0 9035750000.0 22242100000.0 39905700000.0 43474800000.0 98204100000.0 118796000000.0 151722000000.0 156053000000.0 155157000000.0 128015000000.0 100997000000.0 78122000000.0 50179800000.0 46643100000.0 16775700000.0 41448000000.0 39373800000.0 31449700000.0 32071300000.0 23732000000.0 24523000000.0 11124400000.0 13048700000.0 38636500000.0 50244900000.0 48384900000.0 40508400000.0 14563100000.0 12507300000.0 25252700000.0 24817600000.0 32076400000.0 31950000000.0 41113900000.0 39714500000.0 22978000000.0 52940500000.0 57336400000.0 79312300000.0 99527300000.0 120753000000.0 142680000000.0 141643000000.0 136454000000.0 104886000000.0 84436600000.0 44687300000.0 40042000000.0 22581900000.0 9035750000.0 43474200000.0 9035750000.0 44485000000.0 9035750000.0 61857300000.0 9035750000.0 65026900000.0 9035750000.0 73988700000.0 9035750000.0 141557000000.0 9035750000.0 263891000000.0 28053400000.0 128709000000.0 9035750000.0 64146300000.0 9035750000.0 56130400000.0 9035750000.0 56475900000.0 9035750000.0 41647200000.0 9035750000.0 42010700000.0 9035750000.0 21507800000.0 39357800000.0 44203100000.0 84481200000.0 104832000000.0 136477000000.0 141761000000.0 142736000000.0 120780000000.0 99531300000.0 79332900000.0 57332100000.0 52944500000.0 22977900000.0 39715100000.0 41113600000.0 31949700000.0 32075900000.0 24817100000.0 25252200000.0 12507300000.0 14563100000.0 40508400000.0 48384800000.0 45896000000.0 40931000000.0 15464000000.0 13172500000.0 24594400000.0 24746600000.0 30705900000.0 30705600000.0 40119200000.0 36135200000.0 25759600000.0 54821700000.0 59176200000.0 76019300000.0 93816800000.0 110861000000.0 129495000000.0 127520000000.0 122203000000.0 93094600000.0 73631400000.0 44175400000.0 38115300000.0 21941700000.0 9035750000.0 41136600000.0 9035750000.0 41648500000.0 9035750000.0 58020600000.0 9035750000.0 60396300000.0 9035750000.0 67959100000.0 9035750000.0 126673000000.0 9035750000.0 260279000000.0 25450300000.0 116027000000.0 9035750000.0 60116800000.0 9035750000.0 53269600000.0 9035750000.0 54074900000.0 9035750000.0 39543400000.0 9035750000.0 40049500000.0 9035750000.0 21187700000.0 37583000000.0 43815700000.0 73661900000.0 93053900000.0 122221000000.0 127590000000.0 129530000000.0 110881000000.0 93823500000.0 76032200000.0 59179900000.0 54823400000.0 25759500000.0 36135000000.0 40118700000.0 30705300000.0 30705600000.0 24746300000.0 24594100000.0 13172500000.0 15464000000.0 40931000000.0 45896000000.0 43061500000.0 40365600000.0 16171700000.0 13755000000.0 23651000000.0 24679000000.0 29462200000.0 29539400000.0 38668300000.0 33098500000.0 28235200000.0 56197100000.0 60254700000.0 72807800000.0 88420700000.0 101872000000.0 117258000000.0 113998000000.0 108309000000.0 81940500000.0 64299600000.0 42531900000.0 35467500000.0 21624000000.0 9035750000.0 38990400000.0 9035750000.0 39247700000.0 9035750000.0 54737800000.0 9035750000.0 56226700000.0 9035750000.0 62577000000.0 9035750000.0 113381000000.0 9035750000.0 252890000000.0 23368600000.0 104848000000.0 9035750000.0 56411000000.0 9035750000.0 50616600000.0 9035750000.0 51844500000.0 9035750000.0 37700600000.0 9035750000.0 38193100000.0 9035750000.0 21114100000.0 35066500000.0 42269400000.0 64313800000.0 81910200000.0 108323000000.0 114038000000.0 117280000000.0 101887000000.0 88426200000.0 72815400000.0 60259200000.0 56197400000.0 28235200000.0 33098200000.0 38667900000.0 29539200000.0 29462000000.0 24678800000.0 23650800000.0 13755000000.0 16171700000.0 40365500000.0 43061500000.0 40049800000.0 39032600000.0 16683000000.0 14248100000.0 22598600000.0 24609500000.0 28358800000.0 28481100000.0 36922900000.0 30521800000.0 30254500000.0 56871500000.0 60567100000.0 69565900000.0 83197400000.0 93737400000.0 106185000000.0 101715000000.0 95720700000.0 72215300000.0 56721700000.0 40319400000.0 32473600000.0 21485800000.0 9035750000.0 37028400000.0 9035750000.0 37188000000.0 9035750000.0 51741300000.0 9035750000.0 52449800000.0 9035750000.0 57843000000.0 9035750000.0 101601000000.0 9035750000.0 243702000000.0 21233400000.0 94877500000.0 9035750000.0 53027100000.0 9035750000.0 48117700000.0 9035750000.0 49613400000.0 9035750000.0 36060200000.0 9035750000.0 36454700000.0 9035750000.0 21159400000.0 32182700000.0 40133000000.0 56724600000.0 72195300000.0 95732300000.0 101740000000.0 106199000000.0 93745900000.0 83201000000.0 69570300000.0 60570300000.0 56871200000.0 30254400000.0 30521700000.0 36922700000.0 28481000000.0 28358700000.0 24609400000.0 22598500000.0 14248100000.0 16683000000.0 39032600000.0 40049800000.0 36996000000.0 37149900000.0 17003200000.0 14647000000.0 21548400000.0 24525900000.0 27385500000.0 27524900000.0 35012900000.0 28335100000.0 31852300000.0 56958100000.0 60310100000.0 66437300000.0 78227400000.0 86383300000.0 96229900000.0 90772500000.0 84580500000.0 63908300000.0 50601100000.0 37821500000.0 29420300000.0 21424600000.0 9035750000.0 35229900000.0 9035750000.0 35379500000.0 9035750000.0 48873900000.0 9035750000.0 48994500000.0 9035750000.0 53671800000.0 9035750000.0 91261100000.0 9035750000.0 18971100000.0 85978200000.0 9035750000.0 49941200000.0 9035750000.0 45718700000.0 9035750000.0 47307300000.0 9035750000.0 34564400000.0 9035750000.0 34827000000.0 9035750000.0 21233000000.0 29219300000.0 37695000000.0 50598600000.0 63897100000.0 84590600000.0 90787900000.0 96238600000.0 86387400000.0 78229400000.0 66439900000.0 60312100000.0 56957800000.0 31852300000.0 28335000000.0 35012800000.0 27524900000.0 27385500000.0 24525800000.0 21548300000.0 14647000000.0 17003200000.0 37149900000.0 36996000000.0 233038000000.0 34003400000.0 34914100000.0 17145100000.0 14948800000.0 20560500000.0 24411100000.0 26519200000.0 26646500000.0 33035500000.0 26475900000.0 33026000000.0 56491100000.0 59546200000.0 63426000000.0 73522200000.0 79713700000.0 87312100000.0 81146900000.0 74888600000.0 56916100000.0 45618400000.0 35244600000.0 26498800000.0 21354400000.0 9035750000.0 33564000000.0 9035750000.0 33743900000.0 9035750000.0 46066200000.0 9035750000.0 45798900000.0 9035750000.0 49965400000.0 9035750000.0 82170700000.0 9035750000.0 221021000000.0 16903200000.0 78039200000.0 9035750000.0 47107400000.0 9035750000.0 43372500000.0 9035750000.0 44914900000.0 9035750000.0 33160400000.0 9035750000.0 33288200000.0 9035750000.0 21250300000.0 26368100000.0 35163800000.0 45614600000.0 56911100000.0 74897100000.0 81157100000.0 87316900000.0 79715200000.0 73523300000.0 63427600000.0 59547400000.0 56490800000.0 33025900000.0 26475900000.0 33035500000.0 26646500000.0 26519200000.0 24411000000.0 20560500000.0 14948800000.0 17145100000.0 34914100000.0 34003400000.0 31147100000.0 32492600000.0 17126500000.0 15152100000.0 19661500000.0 24242900000.0 25728100000.0 25814100000.0 31059400000.0 24886500000.0 33779600000.0 55514500000.0 58319500000.0 60498600000.0 69065400000.0 73639400000.0 79331600000.0 72730300000.0 66535600000.0 51041200000.0 41481100000.0 32720000000.0 23818900000.0 21205700000.0 9035750000.0 31996300000.0 9035750000.0 32217000000.0 9035750000.0 43297400000.0 9035750000.0 42818300000.0 9035750000.0 46629900000.0 9035750000.0 74146900000.0 9035750000.0 15163700000.0 70945300000.0 9035750000.0 44466900000.0 9035750000.0 41056200000.0 9035750000.0 42455000000.0 9035750000.0 31803500000.0 9035750000.0 31812700000.0 9035750000.0 21150700000.0 23739500000.0 32671700000.0 41477800000.0 51040100000.0 66542400000.0 72737100000.0 79334100000.0 73639700000.0 69066000000.0 60499600000.0 58320200000.0 55514300000.0 33779600000.0 24886600000.0 31059400000.0 25814100000.0 25728000000.0 24242900000.0 19661500000.0 15152100000.0 17126500000.0 32492500000.0 31147100000.0 207950000000.0 28478500000.0 30020100000.0 16968500000.0 15257800000.0 18856000000.0 23997700000.0 24976700000.0 24996600000.0 29130300000.0 23513900000.0 34124200000.0 54077800000.0 56668700000.0 57607300000.0 64814200000.0 68066000000.0 72173500000.0 65373600000.0 59355900000.0 46054800000.0 37942300000.0 30319700000.0 21433000000.0 20940800000.0 9035750000.0 30495400000.0 9035750000.0 30749200000.0 9035750000.0 40571000000.0 9035750000.0 40022400000.0 9035750000.0 43581400000.0 9035750000.0 67045700000.0 9035750000.0 194129000000.0 13751900000.0 64582900000.0 9035750000.0 41963500000.0 9035750000.0 38765900000.0 9035750000.0 39959100000.0 9035750000.0 30459400000.0 9035750000.0 30376800000.0 9035750000.0 20911500000.0 21388300000.0 30292800000.0 37940000000.0 46055500000.0 59361000000.0 65378100000.0 72174700000.0 68065800000.0 64814400000.0 57607900000.0 56669100000.0 54077700000.0 34124200000.0 23513900000.0 29130400000.0 24996600000.0 24976700000.0 23997700000.0 18856000000.0 15257800000.0 16968500000.0 30020100000.0 28478500000.0 27599000000.0 16693800000.0 15268100000.0 18135000000.0 58917200000.0 53171400000.0 41758000000.0 34800500000.0 28077700000.0 19355100000.0 20553300000.0 9035750000.0 29034900000.0 9035750000.0 29305000000.0 9035750000.0 37900900000.0 9035750000.0 37388400000.0 9035750000.0 40749700000.0 9035750000.0 60731000000.0 9035750000.0 12627500000.0 58847000000.0 9035750000.0 39553100000.0 9035750000.0 36507000000.0 9035750000.0 37461100000.0 9035750000.0 29104500000.0 9035750000.0 28961000000.0 9035750000.0 20537600000.0 19331900000.0 28063800000.0 34799200000.0 41759400000.0 53175100000.0 58920100000.0 18135000000.0 15268100000.0 16693800000.0 27599000000.0 26029300000.0 23654600000.0 24232100000.0 24168000000.0 27276000000.0 22310500000.0 34076400000.0 52233400000.0 54630600000.0 54702500000.0 60715100000.0 62895200000.0 65713800000.0 179853000000.0 65714300000.0 62894900000.0 60715200000.0 54702900000.0 54630800000.0 52233300000.0 34076400000.0 22310600000.0 27276000000.0 24168000000.0 24232100000.0 23654600000.0 26029300000.0 23814300000.0 25299900000.0 16324700000.0 15186600000.0 17481600000.0 23198000000.0 23467500000.0 23309000000.0 25510900000.0 21234100000.0 33658200000.0 50035900000.0 52243800000.0 51740200000.0 56716200000.0 58036400000.0 59830900000.0 53206600000.0 47807300000.0 37993600000.0 31912000000.0 26004700000.0 17574500000.0 20053700000.0 9035750000.0 27594900000.0 9035750000.0 27862000000.0 9035750000.0 35302400000.0 9035750000.0 34895600000.0 9035750000.0 38079700000.0 9035750000.0 55073100000.0 9035750000.0 165386000000.0 11744600000.0 53641200000.0 9035750000.0 37204400000.0 9035750000.0 34286100000.0 9035750000.0 34990400000.0 9035750000.0 27725300000.0 9035750000.0 27550500000.0 9035750000.0 20045600000.0 17563500000.0 25998000000.0 31911400000.0 37995100000.0 47809900000.0 53208400000.0 59831000000.0 58036100000.0 56716200000.0 51740500000.0 52243900000.0 50035900000.0 33658200000.0 21234200000.0 25510900000.0 23309000000.0 23467500000.0 23198000000.0 17481600000.0 15186600000.0 16324700000.0 25299900000.0 23814300000.0 21833100000.0 23166000000.0 15881800000.0 15018300000.0 16875500000.0 22618400000.0 22662500000.0 22406800000.0 23840300000.0 20246700000.0 32895100000.0 47539100000.0 49551300000.0 48688400000.0 52773900000.0 53416200000.0 54417400000.0 48101400000.0 43101200000.0 34636800000.0 29201000000.0 24096500000.0 16066100000.0 19457300000.0 9035750000.0 26160400000.0 9035750000.0 26407700000.0 9035750000.0 32787300000.0 9035750000.0 32524400000.0 9035750000.0 35529100000.0 9035750000.0 49957100000.0 9035750000.0 150930000000.0 11058900000.0 48877700000.0 9035750000.0 34896000000.0 9035750000.0 32107800000.0 9035750000.0 32569300000.0 9035750000.0 26315900000.0 9035750000.0 26134800000.0 9035750000.0 19453400000.0 16061600000.0 24093600000.0 29201000000.0 34638000000.0 43103000000.0 48102600000.0 54417300000.0 53415900000.0 52773900000.0 48688500000.0 49551300000.0 47539100000.0 32895100000.0 20246700000.0 23840300000.0 22406800000.0 22662500000.0 22618400000.0 16875500000.0 15018300000.0 15881800000.0 23166000000.0 21833100000.0 20073500000.0 21217900000.0 15382900000.0 14768700000.0 16295400000.0 21912300000.0 21801900000.0 21454300000.0 22262500000.0 19315200000.0 31815800000.0 44792600000.0 46598400000.0 45531200000.0 48858500000.0 48980500000.0 49385600000.0 43482100000.0 38913700000.0 31590100000.0 26646300000.0 22340200000.0 14798200000.0 18778500000.0 9035750000.0 24721400000.0 9035750000.0 24937000000.0 9035750000.0 30361700000.0 9035750000.0 30254700000.0 9035750000.0 33066000000.0 9035750000.0 45285700000.0 9035750000.0 136646000000.0 10531000000.0 44480100000.0 9035750000.0 32613300000.0 9035750000.0 29973000000.0 9035750000.0 30212000000.0 9035750000.0 24876400000.0 9035750000.0 24707100000.0 9035750000.0 18777000000.0 14796700000.0 22339000000.0 26646600000.0 31591000000.0 38914900000.0 43482700000.0 49385500000.0 48980300000.0 48858500000.0 45531200000.0 46598400000.0 44792600000.0 31815800000.0 19315300000.0 22262500000.0 21454400000.0 21801900000.0 21912300000.0 16295400000.0 14768700000.0 15382900000.0 21217900000.0 20073500000.0 18514700000.0 19459000000.0 14842500000.0 14444400000.0 15721700000.0 21081700000.0 20875500000.0 20449500000.0 20771000000.0 18412300000.0 30450500000.0 41840600000.0 43429700000.0 42268200000.0 44954800000.0 44693100000.0 44667800000.0 39251400000.0 35133600000.0 28782000000.0 24254000000.0 20718900000.0 13737300000.0 18029800000.0 9035750000.0 23271800000.0 9035750000.0 23449500000.0 9035750000.0 28026700000.0 9035750000.0 28067500000.0 9035750000.0 30666300000.0 9035750000.0 40977700000.0 9035750000.0 122654000000.0 10128200000.0 40383700000.0 9035750000.0 30346500000.0 9035750000.0 27878800000.0 9035750000.0 27925600000.0 9035750000.0 23410000000.0 9035750000.0 23264100000.0 9035750000.0 18029500000.0 13737000000.0 20718500000.0 24254400000.0 28782600000.0 35134300000.0 39251800000.0 44667700000.0 44693000000.0 44954800000.0 42268200000.0 43429700000.0 41840600000.0 30450500000.0 18412300000.0 20771000000.0 20449500000.0 20875500000.0 21081700000.0 15721700000.0 14444400000.0 14842500000.0 19459000000.0 18514700000.0 17130700000.0 17880600000.0 14272500000.0 14052200000.0 15137700000.0 20132900000.0 19877000000.0 19393500000.0 19356100000.0 17515900000.0 28830400000.0 38721200000.0 40087400000.0 38910000000.0 41059000000.0 40531700000.0 40213300000.0 35333800000.0 31675000000.0 26165600000.0 22035100000.0 19214600000.0 12851000000.0 17221500000.0 9035750000.0 21808700000.0 9035750000.0 21947200000.0 9035750000.0 25778700000.0 9035750000.0 25945100000.0 9035750000.0 28312000000.0 9035750000.0 36966300000.0 9035750000.0 109038000000.0 9823730000.0 36534300000.0 9035750000.0 28088900000.0 9035750000.0 25819800000.0 9035750000.0 25711600000.0 9035750000.0 21921800000.0 9035750000.0 21804600000.0 9035750000.0 17221600000.0 12851100000.0 19214500000.0 22035400000.0 26165900000.0 31675400000.0 35334000000.0 40213200000.0 40531600000.0 41059000000.0 38910100000.0 40087400000.0 38721200000.0 28830400000.0 17515900000.0 19356100000.0 19393500000.0 19877000000.0 20132900000.0 15137700000.0 14052200000.0 14272500000.0 17880500000.0 17130700000.0 15893800000.0 16466500000.0 13681500000.0 13599300000.0 14530700000.0 19075500000.0 18804600000.0 18289300000.0 18006800000.0 16609300000.0 26986500000.0 35467100000.0 36610900000.0 35474200000.0 37174400000.0 36483200000.0 35984400000.0 31671600000.0 28472900000.0 23712800000.0 19994600000.0 17809800000.0 12110100000.0 16362400000.0 9035750000.0 20331600000.0 9035750000.0 20433500000.0 9035750000.0 23611100000.0 9035750000.0 23871900000.0 9035750000.0 25989600000.0 9035750000.0 33196000000.0 9035750000.0 95847400000.0 9595890000.0 32886600000.0 9035750000.0 25835900000.0 9035750000.0 23789600000.0 9035750000.0 23567300000.0 9035750000.0 20417300000.0 9035750000.0 20329400000.0 9035750000.0 16362600000.0 12110200000.0 17809700000.0 19994800000.0 23713000000.0 28473100000.0 31671700000.0 35984300000.0 36483100000.0 37174400000.0 35474200000.0 36610900000.0 35467100000.0 26986500000.0 16609300000.0 18006800000.0 18289300000.0 18804600000.0 19075500000.0 14530700000.0 13599300000.0 13681500000.0 16466500000.0 15893800000.0 14776800000.0 15196500000.0 13076200000.0 13093000000.0 13892400000.0 17921200000.0 17660100000.0 17141200000.0 16711700000.0 15680900000.0 24949300000.0 32105300000.0 33035500000.0 31981100000.0 33307900000.0 32540000000.0 31952000000.0 28221400000.0 25478000000.0 21407400000.0 18128600000.0 16487700000.0 11488500000.0 15460300000.0 9035750000.0 18841300000.0 9035750000.0 18911600000.0 9035750000.0 21515200000.0 9035750000.0 21834800000.0 9035750000.0 23689200000.0 9035750000.0 29620600000.0 9035750000.0 83101000000.0 9427390000.0 29402700000.0 9035750000.0 23584800000.0 9035750000.0 21781400000.0 9035750000.0 21487000000.0 9035750000.0 18901300000.0 9035750000.0 18840100000.0 9035750000.0 15460500000.0 11488500000.0 16487700000.0 18128700000.0 21407500000.0 25478100000.0 28221500000.0 31952000000.0 32539900000.0 33307900000.0 31981200000.0 33035500000.0 32105300000.0 24949300000.0 15681000000.0 16711700000.0 17141200000.0 17660100000.0 17921200000.0 13892400000.0 13093000000.0 13076200000.0 15196500000.0 14776800000.0 13754700000.0 14048800000.0 12461000000.0 12540700000.0 13218500000.0 16682900000.0 16448200000.0 15954000000.0 15460300000.0 14724000000.0 22748300000.0 28658100000.0 29390500000.0 28450600000.0 29466900000.0 28696300000.0 28092100000.0 24949100000.0 22652400000.0 19237000000.0 16425100000.0 15233000000.0 10963400000.0 14522300000.0 9035750000.0 17339700000.0 9035750000.0 17384600000.0 9035750000.0 19481200000.0 9035750000.0 19823300000.0 9035750000.0 21403600000.0 9035750000.0 26201100000.0 9035750000.0 70788200000.0 9304390000.0 26050500000.0 9035750000.0 21333800000.0 9035750000.0 19789200000.0 9035750000.0 19463300000.0 9035750000.0 17378100000.0 9035750000.0 17339000000.0 9035750000.0 14522500000.0 10963500000.0 15233000000.0 16425200000.0 19237000000.0 22652500000.0 24949100000.0 28092000000.0 28696300000.0 29467000000.0 28450600000.0 29390500000.0 28658100000.0 22748300000.0 14724000000.0 15460300000.0 15954000000.0 16448200000.0 16682900000.0 13218500000.0 12540700000.0 12461000000.0 14048800000.0 13754700000.0 12805500000.0 13001400000.0 11839200000.0 11949700000.0 12508800000.0 15374200000.0 15176000000.0 14732800000.0 14242700000.0 13735800000.0 20411700000.0 25143900000.0 25699300000.0 24898900000.0 25657500000.0 24945600000.0 24382300000.0 21825900000.0 19966200000.0 17188200000.0 14866100000.0 14031600000.0 10515100000.0 13554800000.0 9035750000.0 15828700000.0 9035750000.0 15854700000.0 9035750000.0 17498800000.0 9035750000.0 17829300000.0 9035750000.0 19127600000.0 9035750000.0 22904400000.0 9035750000.0 58876100000.0 9215800000.0 22802500000.0 9035750000.0 19081800000.0 9035750000.0 17807800000.0 9035750000.0 17487700000.0 9035750000.0 15850700000.0 9035750000.0 15828200000.0 9035750000.0 13554900000.0 10515200000.0 14031600000.0 14866100000.0 17188300000.0 19966200000.0 21825900000.0 24382300000.0 24945600000.0 25657500000.0 24898900000.0 25699300000.0 25143900000.0 20411700000.0 13735800000.0 14242700000.0 14732800000.0 15176000000.0 15374200000.0 12508800000.0 11949700000.0 11839200000.0 13001400000.0 12805500000.0 11910400000.0 12033400000.0 11213100000.0 11327300000.0 11766300000.0 14008500000.0 13852300000.0 13483300000.0 13050500000.0 12717000000.0 17966300000.0 21578000000.0 21978900000.0 21338000000.0 21881800000.0 21278500000.0 20799900000.0 18825700000.0 17393600000.0 15244500000.0 13429100000.0 12871300000.0 10126100000.0 12563700000.0 9035750000.0 14310400000.0 9035750000.0 14323700000.0 9035750000.0 15557800000.0 9035750000.0 15846700000.0 9035750000.0 16857700000.0 9035750000.0 19701800000.0 9035750000.0 47313000000.0 9152570000.0 19635000000.0 9035750000.0 16828400000.0 9035750000.0 15833500000.0 9035750000.0 15551100000.0 9035750000.0 14321300000.0 9035750000.0 14310100000.0 9035750000.0 12563700000.0 10126200000.0 12871300000.0 13429200000.0 15244500000.0 17393600000.0 18825700000.0 20799900000.0 21278500000.0 21881800000.0 21338000000.0 21978900000.0 21578000000.0 17966300000.0 12717000000.0 13050500000.0 13483300000.0 13852300000.0 14008500000.0 11766300000.0 11327300000.0 11213100000.0 12033400000.0 11910400000.0 11053700000.0 11125200000.0 10584200000.0 10680700000.0 10996100000.0 12599000000.0 12487400000.0 12211500000.0 11876500000.0 11671600000.0 15437900000.0 17973300000.0 18241000000.0 17775000000.0 18137600000.0 17681800000.0 17320100000.0 15922400000.0 14910300000.0 13385800000.0 12088800000.0 11741000000.0 9781100000.0 11554600000.0 9035750000.0 12786800000.0 9035750000.0 12792500000.0 9035750000.0 13648300000.0 9035750000.0 13871100000.0 9035750000.0 14591300000.0 9035750000.0 16568300000.0 9035750000.0 36032200000.0 9107290000.0 16526900000.0 9035750000.0 14573600000.0 9035750000.0 13863300000.0 9035750000.0 13644300000.0 9035750000.0 12791100000.0 9035750000.0 12786600000.0 9035750000.0 11554600000.0 9781110000.0 11741000000.0 12088900000.0 13385800000.0 14910300000.0 15922400000.0 17320000000.0 17681700000.0 18137600000.0 17775000000.0 18241000000.0 17973300000.0 15437900000.0 11671600000.0 11876500000.0 12211500000.0 12487400000.0 12599000000.0 10996100000.0 10680700000.0 10584200000.0 11125200000.0 11053700000.0 10222200000.0 10258300000.0 9953740000.0 10016800000.0 10205300000.0 11158500000.0 11092300000.0 10923500000.0 10714500000.0 10605600000.0 12850900000.0 14341500000.0 14493200000.0 14212900000.0 14418500000.0 14137800000.0 13915300000.0 13089200000.0 12491600000.0 11589200000.0 10818100000.0 10631100000.0 9466210000.0 10532800000.0 9035750000.0 11259500000.0 9035750000.0 11261400000.0 9035750000.0 11760500000.0 9035750000.0 11899400000.0 9035750000.0 12326800000.0 9035750000.0 13481600000.0 9035750000.0 24955700000.0 9073870000.0 13459400000.0 9035750000.0 12317400000.0 9035750000.0 11895400000.0 9035750000.0 11758400000.0 9035750000.0 11260700000.0 9035750000.0 11259400000.0 9035750000.0 10532900000.0 9466210000.0 10631100000.0 10818200000.0 11589200000.0 12491600000.0 13089200000.0 13915300000.0 14137800000.0 14418500000.0 14212900000.0 14493200000.0 14341500000.0 12851000000.0 10605600000.0 10714500000.0 10923500000.0 11092300000.0 11158500000.0 10205300000.0 10016800000.0 9953740000.0 10258300000.0 10222200000.0 9404970000.0 9415490000.0 9322360000.0 9342760000.0 9401790000.0 9699770000.0 9679090000.0 9625740000.0 9559230000.0 9526750000.0 10229400000.0 10693200000.0 10739800000.0 10651800000.0 10714900000.0 10626000000.0 10555500000.0 10297900000.0 10111500000.0 9829920000.0 9588900000.0 9532800000.0 9168760000.0 9503630000.0 9035750000.0 9730060000.0 9035750000.0 9730470000.0 9035750000.0 9885280000.0 9035750000.0 9929480000.0 9035750000.0 10063000000.0 9035750000.0 10421500000.0 9035750000.0 13997200000.0 9047130000.0 10414800000.0 9035750000.0 10060200000.0 9035750000.0 9928300000.0 9035750000.0 9884690000.0 9035750000.0 9730260000.0 9035750000.0 9730040000.0 9035750000.0 9503630000.0 9168760000.0 9532810000.0 9588900000.0 9829920000.0 10111600000.0 10297900000.0 10555500000.0 10626000000.0 10714900000.0 10651800000.0 10739800000.0 10693200000.0 10229400000.0 9526750000.0 9559230000.0 9625740000.0 9679090000.0 9699770000.0 9401790000.0 9342760000.0 9322360000.0 9415490000.0 9404970000.0 