# vtk DataFile Version 2.0
Time step 33
ASCII
DATASET UNSTRUCTURED_GRID
POINTS 5000 float
198139.0 379277.0 0
202101.0 376255.0 0
207396.0 377897.0 0
298698.0 376161.0 0
189113.0 384043.0 0
194031.0 381501.0 0
201676.0 381134.0 0
198074.0 383700.0 0
204128.0 381942.0 0
206957.0 383393.0 0
212548.0 380683.0 0
217862.0 381471.0 0
223013.0 381332.0 0
227341.0 382773.0 0
231769.0 383357.0 0
240295.0 383237.0 0
267562.0 382829.0 0
275948.0 380617.0 0
281203.0 382093.0 0
287985.0 381517.0 0
292985.0 377871.0 0
297276.0 381303.0 0
297005.0 385599.0 0
302515.0 379861.0 0
307138.0 383347.0 0
179064.0 390325.0 0
186086.0 386073.0 0
182715.0 388444.0 0
185669.0 389744.0 0
189288.0 388781.0 0
193171.0 385587.0 0
197882.0 388258.0 0
202443.0 385600.0 0
206301.0 388286.0 0
211065.0 386087.0 0
216815.0 385853.0 0
224997.0 385170.0 0
220985.0 385592.0 0
228637.0 387920.0 0
236036.0 386672.0 0
245570.0 385211.0 0
248061.0 388971.0 0
251949.0 384835.0 0
258144.0 384056.0 0
256410.0 389138.0 0
262860.0 384227.0 0
260792.0 388036.0 0
265202.0 388227.0 0
269472.0 387984.0 0
272408.0 384116.0 0
274353.0 388808.0 0
278320.0 386236.0 0
280937.0 388709.0 0
284352.0 386135.0 0
288789.0 386961.0 0
292910.0 384920.0 0
298121.0 388910.0 0
301318.0 384902.0 0
302009.0 389462.0 0
304473.0 387120.0 0
307620.0 388319.0 0
305069.0 390208.0 0
312600.0 387215.0 0
317616.0 388838.0 0
321355.0 390818.0 0
175964.0 392730.0 0
172528.0 395304.0 0
176683.0 395914.0 0
178920.0 393525.0 0
182048.0 392044.0 0
185998.0 394042.0 0
190863.0 393843.0 0
193802.0 390264.0 0
201533.0 390931.0 0
205429.0 392835.0 0
210050.0 391877.0 0
214651.0 389579.0 0
214031.0 393173.0 0
219420.0 390314.0 0
223939.0 388939.0 0
222993.0 392880.0 0
226605.0 392166.0 0
232978.0 390718.0 0
230100.0 394399.0 0
238270.0 391704.0 0
243457.0 390003.0 0
247309.0 393260.0 0
251775.0 390979.0 0
255645.0 393820.0 0
260309.0 392664.0 0
264880.0 392633.0 0
270082.0 393460.0 0
278319.0 391366.0 0
275104.0 393560.0 0
282528.0 392818.0 0
286262.0 390142.0 0
287550.0 394811.0 0
290936.0 390803.0 0
294308.0 388796.0 0
295382.0 392992.0 0
300073.0 393221.0 0
303955.0 393229.0 0
307167.0 392675.0 0
310143.0 391324.0 0
310540.0 395044.0 0
313545.0 392099.0 0
314258.0 394956.0 0
317425.0 392786.0 0
321144.0 393702.0 0
324830.0 393659.0 0
164880.0 400428.0 0
168539.0 397642.0 0
171544.0 398974.0 0
174493.0 398565.0 0
181118.0 396603.0 0
177616.0 398802.0 0
184677.0 399298.0 0
188196.0 397904.0 0
192219.0 398819.0 0
196616.0 394519.0 0
201753.0 396988.0 0
207513.0 397046.0 0
212561.0 397034.0 0
217212.0 394884.0 0
221706.0 397186.0 0
226318.0 396288.0 0
234620.0 396301.0 0
238788.0 396191.0 0
240184.0 399199.0 0
242563.0 395203.0 0
246502.0 398412.0 0
251404.0 395900.0 0
255137.0 399319.0 0
258677.0 396675.0 0
263044.0 397016.0 0
274081.0 399178.0 0
278553.0 395570.0 0
281616.0 396553.0 0
284086.0 398287.0 0
292814.0 397976.0 0
298296.0 397267.0 0
302637.0 397002.0 0
306608.0 396142.0 0
309447.0 399023.0 0
313461.0 398342.0 0
317076.0 397066.0 0
322747.0 396423.0 0
319713.0 395843.0 0
320518.0 399353.0 0
328776.0 397083.0 0
324871.0 398763.0 0
333504.0 398910.0 0
157395.0 403927.0 0
160861.0 402488.0 0
160834.0 406198.0 0
164772.0 404807.0 0
169096.0 402181.0 0
168746.0 406322.0 0
172769.0 401662.0 0
175870.0 401933.0 0
172997.0 405326.0 0
180216.0 401715.0 0
176937.0 404940.0 0
179944.0 405985.0 0
184169.0 403791.0 0
188104.0 401554.0 0
187784.0 404803.0 0
191961.0 404203.0 0
196705.0 400459.0 0
200497.0 402233.0 0
205019.0 401553.0 0
210026.0 401920.0 0
214126.0 404137.0 0
216965.0 400276.0 0
224905.0 400354.0 0
221600.0 401896.0 0
229795.0 400228.0 0
233657.0 405231.0 0
235943.0 400758.0 0
239305.0 403811.0 0
243333.0 401535.0 0
247505.0 403874.0 0
250645.0 400300.0 0
252267.0 403917.0 0
259723.0 400641.0 0
263428.0 403139.0 0
267690.0 399916.0 0
277582.0 403627.0 0
280125.0 400053.0 0
284331.0 401884.0 0
287724.0 400079.0 0
292801.0 402717.0 0
290340.0 402297.0 0
294932.0 401882.0 0
297371.0 400872.0 0
301172.0 401204.0 0
305807.0 400427.0 0
308234.0 403831.0 0
304531.0 404629.0 0
312142.0 402984.0 0
316820.0 401389.0 0
320667.0 403654.0 0
327854.0 402183.0 0
323635.0 401569.0 0
324439.0 404617.0 0
331700.0 401533.0 0
333157.0 405630.0 0
336988.0 401578.0 0
341164.0 404536.0 0
148167.0 409747.0 0
145331.0 411816.0 0
151069.0 408058.0 0
154447.0 406670.0 0
151852.0 410857.0 0
155020.0 410607.0 0
157854.0 406853.0 0
158057.0 409766.0 0
160927.0 409119.0 0
164481.0 409082.0 0
167962.0 409704.0 0
171380.0 409547.0 0
175909.0 408923.0 0
179959.0 409897.0 0
182426.0 407768.0 0
185415.0 407700.0 0
189020.0 408725.0 0
197032.0 406442.0 0
202676.0 406069.0 0
205737.0 409809.0 0
206825.0 405354.0 0
210490.0 407352.0 0
215514.0 408192.0 0
218814.0 405054.0 0
225099.0 404740.0 0
228810.0 408232.0 0
236847.0 409669.0 0
243437.0 406665.0 0
250791.0 407996.0 0
256802.0 404879.0 0
261475.0 408235.0 0
267674.0 405815.0 0
273270.0 405710.0 0
270524.0 409560.0 0
277707.0 407698.0 0
282064.0 405739.0 0
287349.0 404768.0 0
285853.0 409799.0 0
291686.0 405371.0 0
290068.0 408668.0 0
294009.0 409759.0 0
296090.0 405338.0 0
298802.0 409653.0 0
300673.0 405601.0 0
304025.0 409527.0 0
307528.0 407116.0 0
311531.0 407991.0 0
316808.0 406718.0 0
315030.0 410733.0 0
322243.0 408351.0 0
328027.0 406981.0 0
326915.0 411238.0 0
331635.0 410679.0 0
337551.0 406659.0 0
338811.0 409378.0 0
335920.0 410987.0 0
341630.0 408737.0 0
345867.0 407247.0 0
347907.0 411514.0 0
349859.0 408841.0 0
352995.0 409998.0 0
139588.0 415557.0 0
142231.0 413557.0 0
144987.0 416098.0 0
148949.0 413592.0 0
153454.0 414958.0 0
157469.0 413422.0 0
161053.0 412258.0 0
164255.0 412553.0 0
160264.0 415544.0 0
163543.0 415493.0 0
167856.0 413301.0 0
173208.0 413167.0 0
178035.0 413700.0 0
184022.0 412612.0 0
189038.0 413053.0 0
193327.0 410961.0 0
192429.0 414949.0 0
196920.0 414501.0 0
200574.0 410696.0 0
208027.0 414129.0 0
212264.0 411712.0 0
214323.0 415199.0 0
216489.0 412039.0 0
221565.0 410094.0 0
226737.0 412924.0 0
232269.0 412725.0 0
237357.0 414690.0 0
241754.0 411653.0 0
246746.0 410153.0 0
246130.0 414616.0 0
250833.0 412237.0 0
255568.0 411012.0 0
266275.0 411182.0 0
270432.0 413982.0 0
274905.0 411343.0 0
280802.0 411873.0 0
285779.0 414709.0 0
290432.0 413123.0 0
296375.0 413937.0 0
301725.0 414092.0 0
308310.0 410676.0 0
306812.0 414508.0 0
312120.0 413511.0 0
318483.0 412233.0 0
322817.0 412882.0 0
326313.0 415786.0 0
330267.0 414130.0 0
334346.0 415299.0 0
338759.0 415285.0 0
340262.0 411982.0 0
343043.0 415001.0 0
344477.0 411507.0 0
346696.0 414518.0 0
351337.0 413170.0 0
355389.0 411773.0 0
358478.0 413901.0 0
355367.0 414463.0 0
361679.0 416469.0 0
133453.0 419299.0 0
130416.0 421029.0 0
136579.0 417318.0 0
139141.0 419287.0 0
136529.0 420860.0 0
139689.0 421669.0 0
141934.0 418204.0 0
145566.0 419807.0 0
149147.0 418409.0 0
153434.0 419733.0 0
157318.0 417709.0 0
161389.0 419499.0 0
165859.0 417996.0 0
168218.0 421215.0 0
170252.0 416936.0 0
175038.0 417213.0 0
172136.0 420219.0 0
177971.0 419688.0 0
180575.0 416785.0 0
184300.0 417617.0 0
181423.0 421135.0 0
188953.0 417224.0 0
193705.0 418349.0 0
198509.0 419350.0 0
202493.0 415556.0 0
206093.0 419085.0 0
211057.0 418421.0 0
215648.0 418882.0 0
218693.0 415609.0 0
223308.0 416856.0 0
228675.0 418362.0 0
233921.0 418085.0 0
237664.0 419209.0 0
241959.0 417708.0 0
246906.0 419456.0 0
250340.0 416073.0 0
255125.0 417171.0 0
261260.0 415222.0 0
266843.0 416680.0 0
269448.0 420143.0 0
273111.0 417709.0 0
277299.0 416201.0 0
281939.0 417843.0 0
288459.0 418611.0 0
285175.0 420175.0 0
293037.0 417466.0 0
299225.0 417810.0 0
303827.0 418774.0 0
307541.0 418208.0 0
311256.0 418423.0 0
316868.0 417097.0 0
314613.0 420557.0 0
321490.0 416377.0 0
321360.0 420699.0 0
324325.0 418926.0 0
327775.0 419543.0 0
330633.0 417875.0 0
333915.0 419459.0 0
338275.0 419720.0 0
342053.0 418443.0 0
345311.0 417971.0 0
349344.0 417160.0 0
346928.0 420922.0 0
354250.0 418185.0 0
358384.0 416897.0 0
357984.0 420326.0 0
361325.0 419988.0 0
365264.0 418811.0 0
368568.0 420860.0 0
123859.0 424868.0 0
121459.0 426618.0 0
127382.0 423411.0 0
130150.0 424331.0 0
133505.0 423382.0 0
137611.0 424122.0 0
142909.0 421841.0 0
140691.0 425441.0 0
144247.0 425286.0 0
150261.0 422288.0 0
146957.0 422779.0 0
146809.0 426541.0 0
150407.0 425918.0 0
153479.0 423437.0 0
157188.0 422248.0 0
164425.0 421653.0 0
160844.0 424880.0 0
166122.0 425112.0 0
174900.0 421356.0 0
171562.0 424509.0 0
177233.0 424635.0 0
182425.0 425787.0 0
185932.0 421606.0 0
187496.0 425427.0 0
190453.0 421817.0 0
191769.0 425821.0 0
195005.0 422670.0 0
199359.0 424167.0 0
202421.0 421129.0 0
204003.0 425581.0 0
208390.0 423106.0 0
213480.0 423219.0 0
219579.0 420815.0 0
217663.0 425030.0 0
224514.0 422810.0 0
229130.0 423735.0 0
232201.0 421667.0 0
235612.0 422173.0 0
239697.0 422653.0 0
243590.0 422346.0 0
247017.0 424365.0 0
250606.0 421791.0 0
255140.0 422649.0 0
259366.0 420726.0 0
264507.0 421758.0 0
273688.0 422933.0 0
278557.0 421552.0 0
282723.0 423022.0 0
287376.0 423421.0 0
291751.0 422464.0 0
296497.0 421355.0 0
300563.0 421231.0 0
303358.0 423423.0 0
299349.0 425015.0 0
307950.0 422086.0 0
312628.0 423079.0 0
317886.0 422964.0 0
322910.0 425421.0 0
325722.0 422443.0 0
328163.0 426317.0 0
330847.0 422702.0 0
335539.0 423696.0 0
340144.0 423818.0 0
343460.0 422136.0 0
347244.0 424821.0 0
351223.0 422246.0 0
356071.0 423648.0 0
359503.0 426059.0 0
363970.0 422387.0 0
360270.0 423390.0 0
363147.0 425774.0 0
367184.0 423685.0 0
371947.0 422560.0 0
370617.0 425865.0 0
375119.0 424638.0 0
378463.0 426361.0 0
111784.0 432443.0 0
118513.0 429147.0 0
114595.0 430484.0 0
122537.0 429117.0 0
126440.0 427208.0 0
125458.0 431289.0 0
129026.0 430552.0 0
131124.0 427494.0 0
133254.0 429905.0 0
135544.0 427053.0 0
135725.0 430571.0 0
139158.0 428500.0 0
143000.0 427876.0 0
141823.0 430835.0 0
145851.0 429810.0 0
150060.0 429476.0 0
155259.0 427233.0 0
156800.0 430984.0 0
159440.0 428735.0 0
163471.0 429000.0 0
168503.0 428586.0 0
173342.0 428586.0 0
177380.0 428864.0 0
180812.0 431006.0 0
189258.0 428532.0 0
185516.0 429427.0 0
192537.0 429785.0 0
195958.0 427177.0 0
200169.0 428727.0 0
204204.0 430900.0 0
208808.0 428207.0 0
214517.0 428675.0 0
221303.0 427154.0 0
225326.0 428536.0 0
229511.0 428264.0 0
233100.0 425493.0 0
234355.0 429806.0 0
237444.0 426577.0 0
242614.0 427193.0 0
246840.0 430400.0 0
251506.0 427366.0 0
256001.0 429946.0 0
259789.0 426260.0 0
265104.0 427469.0 0
269448.0 426148.0 0
273650.0 428081.0 0
277300.0 426069.0 0
277356.0 430439.0 0
281352.0 427658.0 0
285020.0 426205.0 0
286181.0 430382.0 0
290500.0 427168.0 0
293983.0 429546.0 0
294990.0 425991.0 0
298268.0 429814.0 0
302506.0 427954.0 0
306242.0 426537.0 0
312098.0 430211.0 0
310312.0 426573.0 0
315340.0 427303.0 0
318839.0 429976.0 0
319595.0 427064.0 0
321912.0 429594.0 0
325533.0 429494.0 0
329619.0 430577.0 0
333200.0 427822.0 0
338364.0 427256.0 0
337105.0 430627.0 0
340762.0 430540.0 0
343456.0 427306.0 0
348487.0 429167.0 0
351908.0 426680.0 0
352558.0 429926.0 0
355004.0 431785.0 0
356292.0 428209.0 0
361110.0 428807.0 0
364621.0 430081.0 0
366471.0 427009.0 0
368455.0 429134.0 0
373795.0 427595.0 0
371490.0 429696.0 0
374528.0 431052.0 0
376736.0 428735.0 0
379511.0 430462.0 0
381401.0 428249.0 0
384353.0 430053.0 0
382879.0 431987.0 0
387315.0 432231.0 0
108983.0 434087.0 0
106296.0 436097.0 0
114020.0 433747.0 0
110777.0 436658.0 0
117054.0 432501.0 0
118471.0 435821.0 0
114661.0 436269.0 0
121294.0 432656.0 0
122307.0 437293.0 0
124606.0 434795.0 0
128451.0 434438.0 0
131641.0 432384.0 0
131490.0 436504.0 0
134746.0 434450.0 0
138509.0 432228.0 0
137696.0 435882.0 0
140481.0 434668.0 0
143713.0 433142.0 0
147778.0 433775.0 0
152804.0 431975.0 0
160029.0 431924.0 0
156314.0 434754.0 0
163194.0 432709.0 0
160572.0 436326.0 0
166172.0 431561.0 0
165464.0 435104.0 0
170215.0 432883.0 0
175183.0 432070.0 0
177931.0 434629.0 0
184913.0 434031.0 0
181348.0 435687.0 0
188988.0 432116.0 0
192641.0 433713.0 0
196493.0 431740.0 0
200460.0 434538.0 0
204758.0 435062.0 0
207821.0 433475.0 0
211288.0 432096.0 0
214883.0 433788.0 0
218802.0 431353.0 0
223292.0 432696.0 0
227197.0 431636.0 0
230997.0 432664.0 0
238818.0 430959.0 0
235505.0 434256.0 0
239761.0 435199.0 0
242903.0 432529.0 0
250960.0 433498.0 0
255810.0 433905.0 0
260415.0 432327.0 0
265432.0 431749.0 0
269289.0 430512.0 0
268675.0 434304.0 0
273084.0 432479.0 0
281609.0 432578.0 0
288031.0 435128.0 0
290945.0 431898.0 0
295012.0 433423.0 0
299422.0 434940.0 0
303146.0 432319.0 0
307622.0 431031.0 0
311617.0 433966.0 0
316119.0 432486.0 0
318967.0 435785.0 0
320546.0 432713.0 0
322801.0 436351.0 0
324110.0 432763.0 0
328427.0 435679.0 0
333968.0 433305.0 0
339510.0 434001.0 0
345133.0 433751.0 0
351440.0 433420.0 0
359444.0 432126.0 0
356446.0 435196.0 0
360044.0 436184.0 0
363525.0 434491.0 0
368417.0 432965.0 0
372406.0 433190.0 0
374492.0 436516.0 0
370604.0 436412.0 0
376758.0 433056.0 0
380331.0 434276.0 0
385334.0 433994.0 0
383447.0 437103.0 0
390284.0 434612.0 0
387711.0 437297.0 0
393800.0 436705.0 0
103136.0 438408.0 0
99451.7 441078.0 0
103285.0 441668.0 0
107106.0 439376.0 0
113224.0 439194.0 0
110463.0 441187.0 0
113997.0 441479.0 0
116242.0 439079.0 0
119671.0 440360.0 0
123269.0 441594.0 0
126974.0 438476.0 0
131247.0 439979.0 0
134891.0 438276.0 0
135155.0 441906.0 0
138553.0 438687.0 0
143060.0 436618.0 0
141936.0 440663.0 0
146864.0 439088.0 0
151639.0 436728.0 0
155529.0 439907.0 0
160034.0 440445.0 0
163892.0 439150.0 0
168375.0 437956.0 0
173647.0 437033.0 0
174964.0 441218.0 0
178887.0 439271.0 0
183747.0 438578.0 0
189161.0 437859.0 0
193251.0 440415.0 0
195596.0 437084.0 0
198741.0 440706.0 0
202967.0 438832.0 0
207859.0 438371.0 0
211393.0 435749.0 0
214397.0 438669.0 0
218473.0 436051.0 0
222839.0 437943.0 0
227240.0 435726.0 0
231702.0 437434.0 0
235452.0 438342.0 0
238162.0 440617.0 0
242201.0 438482.0 0
246167.0 435929.0 0
249965.0 438211.0 0
253919.0 437595.0 0
258538.0 436881.0 0
256648.0 440201.0 0
264173.0 436671.0 0
267933.0 440471.0 0
272170.0 437526.0 0
277583.0 435726.0 0
280495.0 439833.0 0
283855.0 436854.0 0
287852.0 439051.0 0
291881.0 435997.0 0
292066.0 440167.0 0
295843.0 437821.0 0
303772.0 437018.0 0
300182.0 439762.0 0
307636.0 435946.0 0
310845.0 437185.0 0
314973.0 437721.0 0
319884.0 439635.0 0
325307.0 441069.0 0
333342.0 437868.0 0
337298.0 437111.0 0
341911.0 438689.0 0
349694.0 436997.0 0
346798.0 439422.0 0
353686.0 437481.0 0
351242.0 440398.0 0
354935.0 440877.0 0
358386.0 439399.0 0
362848.0 439432.0 0
367257.0 437832.0 0
374291.0 440752.0 0
371062.0 440308.0 0
378338.0 436927.0 0
377126.0 440081.0 0
380581.0 439124.0 0
384637.0 441357.0 0
388830.0 441494.0 0
390981.0 438949.0 0
393782.0 440417.0 0
397658.0 439566.0 0
401408.0 440506.0 0
404193.0 442462.0 0
90573.9 446666.0 0
95106.0 444519.0 0
99473.2 444971.0 0
103527.0 444682.0 0
106494.0 443032.0 0
112885.0 444121.0 0
109163.0 444605.0 0
116467.0 442454.0 0
116528.0 446579.0 0
119676.0 443651.0 0
122585.0 445830.0 0
126936.0 442765.0 0
126754.0 446621.0 0
130794.0 443726.0 0
134195.0 446062.0 0
138370.0 442295.0 0
137516.0 445426.0 0
140605.0 444333.0 0
145086.0 444398.0 0
149195.0 446638.0 0
150384.0 442050.0 0
153009.0 444672.0 0
157270.0 444783.0 0
162227.0 442996.0 0
165055.0 445213.0 0
166511.0 441981.0 0
168168.0 445290.0 0
170723.0 441783.0 0
171122.0 445756.0 0
173718.0 444214.0 0
177712.0 444569.0 0
182451.0 442949.0 0
186488.0 442156.0 0
185784.0 446282.0 0
190464.0 443841.0 0
195178.0 443076.0 0
198828.0 445723.0 0
202506.0 443206.0 0
206953.0 443912.0 0
211108.0 441849.0 0
215072.0 443699.0 0
218668.0 440794.0 0
219116.0 445852.0 0
222664.0 443090.0 0
225950.0 440700.0 0
229320.0 440769.0 0
227409.0 444988.0 0
233462.0 442177.0 0
241750.0 442692.0 0
246487.0 441607.0 0
252562.0 442908.0 0
257380.0 443426.0 0
260742.0 440929.0 0
264592.0 442672.0 0
271930.0 442432.0 0
276236.0 441122.0 0
279895.0 444195.0 0
284495.0 442218.0 0
288830.0 442847.0 0
292634.0 445118.0 0
296546.0 442459.0 0
301035.0 444563.0 0
304330.0 441287.0 0
306146.0 446086.0 0
309746.0 441294.0 0
312503.0 444970.0 0
315962.0 442874.0 0
318073.0 446605.0 0
320887.0 444069.0 0
325280.0 446390.0 0
329592.0 445883.0 0
331097.0 441549.0 0
333903.0 445911.0 0
336777.0 441634.0 0
341812.0 443529.0 0
345552.0 442424.0 0
345934.0 446384.0 0
349598.0 443969.0 0
353933.0 443731.0 0
357681.0 443455.0 0
360354.0 447428.0 0
361386.0 443572.0 0
364381.0 446118.0 0
366491.0 442484.0 0
368537.0 446445.0 0
375913.0 443497.0 0
370615.0 444085.0 0
373090.0 443157.0 0
380283.0 442690.0 0
377634.0 446800.0 0
381427.0 446296.0 0
385173.0 445032.0 0
388532.0 445000.0 0
393045.0 444078.0 0
397928.0 443669.0 0
399788.0 447251.0 0
401271.0 443016.0 0
403345.0 446041.0 0
407191.0 445326.0 0
411021.0 446503.0 0
82925.5 450124.0 0
86387.6 448953.0 0
85080.6 452054.0 0
89162.8 450286.0 0
94453.1 449489.0 0
97928.1 448047.0 0
98628.0 451319.0 0
101752.0 448396.0 0
103373.0 452184.0 0
106174.0 447457.0 0
107524.0 451440.0 0
111103.0 448211.0 0
110554.0 452201.0 0
114648.0 451894.0 0
119777.0 449488.0 0
124307.0 450969.0 0
128455.0 449950.0 0
130322.0 447211.0 0
132515.0 450037.0 0
136630.0 449221.0 0
140471.0 447752.0 0
144335.0 449244.0 0
148408.0 450872.0 0
153040.0 448717.0 0
156947.0 449517.0 0
161416.0 447981.0 0
166067.0 448604.0 0
169990.0 449130.0 0
174342.0 448253.0 0
180862.0 448767.0 0
189551.0 448816.0 0
185294.0 451199.0 0
194263.0 447566.0 0
195610.0 450918.0 0
199232.0 450761.0 0
203440.0 447708.0 0
207913.0 450403.0 0
211200.0 446423.0 0
212613.0 450579.0 0
215603.0 448157.0 0
219289.0 450359.0 0
223127.0 447851.0 0
227304.0 449979.0 0
231814.0 448087.0 0
237728.0 446549.0 0
243756.0 446630.0 0
241674.0 450410.0 0
248366.0 446832.0 0
252921.0 449055.0 0
256892.0 446836.0 0
261688.0 446380.0 0
268192.0 446612.0 0
274903.0 446859.0 0
279831.0 448796.0 0
283437.0 446903.0 0
288101.0 447505.0 0
292649.0 449895.0 0
297061.0 447567.0 0
302398.0 450458.0 0
310693.0 447829.0 0
314856.0 447694.0 0
317431.0 450988.0 0
321052.0 448657.0 0
324742.0 451127.0 0
328345.0 449436.0 0
332319.0 449847.0 0
337642.0 451216.0 0
338088.0 446503.0 0
342615.0 451716.0 0
342088.0 448226.0 0
346256.0 450292.0 0
349856.0 448484.0 0
352926.0 446851.0 0
353561.0 449654.0 0
356592.0 446682.0 0
357411.0 450272.0 0
360986.0 452053.0 0
363176.0 449497.0 0
366840.0 449819.0 0
373394.0 447164.0 0
370566.0 449803.0 0
376706.0 450703.0 0
379856.0 449747.0 0
384660.0 449952.0 0
388324.0 447982.0 0
389188.0 451939.0 0
391755.0 448347.0 0
395818.0 447883.0 0
393197.0 451917.0 0
396801.0 451237.0 0
401030.0 451432.0 0
404620.0 450120.0 0
408139.0 449024.0 0
411086.0 449066.0 0
409345.0 452688.0 0
413877.0 448897.0 0
412310.0 451584.0 0
416901.0 451726.0 0
73431.9 457463.0 0
76171.4 454627.0 0
78057.2 456426.0 0
80592.4 453356.0 0
80933.2 457391.0 0
87637.6 453469.0 0
84318.2 455457.0 0
87872.4 457135.0 0
91497.3 453112.0 0
91880.0 456977.0 0
95806.8 454364.0 0
95866.3 457578.0 0
99600.4 454854.0 0
103351.0 456165.0 0
107020.0 455009.0 0
110319.0 454953.0 0
116410.0 455597.0 0
119836.0 453505.0 0
122851.0 455797.0 0
125972.0 454418.0 0
129377.0 453379.0 0
130939.0 456553.0 0
134639.0 453748.0 0
139729.0 452327.0 0
141397.0 456472.0 0
144674.0 453607.0 0
148526.0 455687.0 0
151646.0 453050.0 0
155224.0 452966.0 0
157393.0 455968.0 0
159312.0 452524.0 0
161157.0 456007.0 0
163390.0 452301.0 0
167226.0 451983.0 0
165951.0 456445.0 0
170982.0 453539.0 0
173869.0 456573.0 0
176447.0 452379.0 0
181549.0 454682.0 0
188847.0 453104.0 0
186037.0 456024.0 0
192509.0 451988.0 0
195897.0 454593.0 0
200341.0 456157.0 0
203507.0 452543.0 0
206565.0 455226.0 0
211091.0 454869.0 0
215899.0 452814.0 0
223520.0 452715.0 0
228032.0 454065.0 0
232976.0 453477.0 0
237953.0 452322.0 0
242043.0 454701.0 0
245878.0 451107.0 0
249933.0 453145.0 0
254535.0 453943.0 0
258876.0 451278.0 0
264224.0 451415.0 0
269666.0 452951.0 0
265255.0 455805.0 0
275309.0 452789.0 0
279931.0 452761.0 0
284565.0 451976.0 0
289204.0 452037.0 0
287927.0 455978.0 0
292564.0 454928.0 0
294854.0 452135.0 0
297600.0 451905.0 0
296931.0 455524.0 0
300102.0 454652.0 0
303568.0 456043.0 0
308038.0 451690.0 0
307023.0 455589.0 0
312945.0 451957.0 0
316882.0 456058.0 0
321103.0 453252.0 0
324600.0 455084.0 0
328757.0 454136.0 0
333468.0 454217.0 0
336863.0 456561.0 0
341172.0 455528.0 0
345893.0 454481.0 0
350491.0 452637.0 0
354794.0 452685.0 0
358081.0 454749.0 0
365268.0 453267.0 0
362569.0 456721.0 0
369270.0 453075.0 0
367864.0 456697.0 0
373250.0 452054.0 0
372342.0 455945.0 0
377409.0 455549.0 0
381161.0 453140.0 0
381943.0 456742.0 0
385939.0 455384.0 0
390893.0 455533.0 0
395125.0 455787.0 0
398854.0 454849.0 0
406080.0 453842.0 0
402959.0 455948.0 0
407056.0 457476.0 0
409876.0 456427.0 0
413508.0 454947.0 0
420902.0 453555.0 0
417492.0 456041.0 0
424478.0 455735.0 0
427661.0 457535.0 0
66690.3 461035.0 0
69467.9 458986.0 0
71488.7 461456.0 0
76712.4 459011.0 0
75210.3 462751.0 0
80064.6 460663.0 0
83928.8 459172.0 0
83497.4 462922.0 0
86468.7 460874.0 0
89327.7 460783.0 0
92951.5 460591.0 0
96988.7 462097.0 0
98903.6 457794.0 0
102262.0 459904.0 0
107667.0 459215.0 0
113050.0 457815.0 0
111369.0 462410.0 0
118874.0 458129.0 0
115579.0 461004.0 0
123056.0 459392.0 0
126813.0 457901.0 0
130203.0 460982.0 0
133722.0 458381.0 0
137456.0 457491.0 0
140534.0 460694.0 0
144922.0 458403.0 0
149048.0 460079.0 0
152986.0 457340.0 0
156883.0 459546.0 0
161789.0 460716.0 0
166460.0 461386.0 0
170292.0 458859.0 0
174560.0 460939.0 0
177670.0 457303.0 0
180653.0 461642.0 0
186888.0 460830.0 0
191241.0 457096.0 0
196081.0 459388.0 0
204203.0 458788.0 0
200375.0 461214.0 0
208535.0 459202.0 0
212329.0 458945.0 0
215294.0 456913.0 0
219889.0 456349.0 0
224835.0 457590.0 0
229558.0 458184.0 0
233184.0 457537.0 0
237361.0 457352.0 0
242375.0 459905.0 0
246666.0 456647.0 0
248648.0 461042.0 0
251177.0 457552.0 0
255662.0 458675.0 0
260532.0 456357.0 0
264189.0 460892.0 0
269010.0 458405.0 0
273990.0 457926.0 0
279266.0 457321.0 0
284014.0 456881.0 0
287649.0 460393.0 0
291011.0 458934.0 0
295573.0 459812.0 0
300041.0 458099.0 0
303365.0 460311.0 0
307105.0 459333.0 0
311155.0 456808.0 0
314704.0 460386.0 0
319178.0 461507.0 0
321882.0 457637.0 0
323543.0 461178.0 0
326362.0 458552.0 0
331605.0 459453.0 0
336878.0 460454.0 0
340814.0 459811.0 0
343573.0 462110.0 0
344831.0 458672.0 0
349349.0 457483.0 0
352766.0 460566.0 0
353926.0 456590.0 0
358004.0 459405.0 0
363000.0 462370.0 0
366094.0 459379.0 0
371272.0 459859.0 0
375589.0 460180.0 0
380450.0 460202.0 0
384648.0 459406.0 0
389464.0 458854.0 0
387648.0 462249.0 0
393659.0 459343.0 0
399253.0 459120.0 0
404341.0 460086.0 0
408718.0 461448.0 0
412177.0 459167.0 0
415058.0 458344.0 0
415070.0 461565.0 0
412422.0 462704.0 0
417369.0 459924.0 0
421322.0 458350.0 0
418820.0 462458.0 0
425344.0 460191.0 0
422304.0 462484.0 0
430584.0 460427.0 0
427703.0 462809.0 0
58483.8 465958.0 0
63323.6 462991.0 0
60658.6 464208.0 0
66155.8 465174.0 0
69364.0 464036.0 0
72006.9 466593.0 0
76064.0 466703.0 0
79496.9 464435.0 0
79022.1 467958.0 0
82574.6 466580.0 0
87167.6 464725.0 0
91381.2 464065.0 0
94476.7 466328.0 0
101382.0 463909.0 0
98884.3 466603.0 0
103765.0 466509.0 0
105079.0 462833.0 0
107724.0 464316.0 0
106871.0 467558.0 0
110808.0 467326.0 0
114781.0 464790.0 0
119851.0 462848.0 0
122397.0 466285.0 0
125456.0 462814.0 0
125787.0 467330.0 0
129984.0 465201.0 0
135461.0 462913.0 0
140452.0 465047.0 0
144553.0 462674.0 0
148739.0 464886.0 0
153308.0 462537.0 0
157735.0 462993.0 0
156344.0 466446.0 0
160496.0 465305.0 0
164849.0 465830.0 0
170017.0 463775.0 0
175136.0 466484.0 0
184791.0 465039.0 0
188531.0 465032.0 0
192072.0 462425.0 0
196567.0 464022.0 0
200765.0 465350.0 0
204252.0 462692.0 0
208217.0 463548.0 0
211356.0 461953.0 0
215443.0 461587.0 0
219713.0 460742.0 0
223495.0 462021.0 0
224734.0 465898.0 0
228149.0 462871.0 0
233435.0 461653.0 0
238294.0 462027.0 0
245104.0 465105.0 0
252470.0 461645.0 0
259341.0 461247.0 0
255877.0 463562.0 0
260979.0 465756.0 0
268891.0 464278.0 0
271798.0 461247.0 0
272893.0 463560.0 0
277125.0 462974.0 0
282928.0 461788.0 0
287063.0 464999.0 0
291544.0 463455.0 0
299814.0 461639.0 0
297072.0 466074.0 0
302657.0 464773.0 0
306417.0 463251.0 0
310684.0 462608.0 0
315484.0 464572.0 0
319111.0 465506.0 0
322572.0 464700.0 0
327264.0 463537.0 0
331451.0 464949.0 0
334723.0 463428.0 0
334834.0 466855.0 0
339491.0 464816.0 0
344864.0 466129.0 0
348204.0 462156.0 0
349082.0 467020.0 0
355528.0 463101.0 0
352357.0 465020.0 0
356253.0 467476.0 0
358803.0 464264.0 0
366180.0 466930.0 0
368556.0 462641.0 0
370204.0 466525.0 0
373687.0 464227.0 0
378399.0 463923.0 0
381148.0 466961.0 0
383658.0 463960.0 0
389402.0 465824.0 0
392053.0 462857.0 0
396789.0 462883.0 0
399622.0 466783.0 0
406332.0 464482.0 0
402215.0 463659.0 0
407319.0 467351.0 0
411165.0 466486.0 0
415889.0 465497.0 0
420441.0 466014.0 0
425062.0 465093.0 0
429975.0 465451.0 0
434115.0 462830.0 0
438004.0 463971.0 0
434075.0 466543.0 0
440995.0 466701.0 0
437210.0 467904.0 0
47550.2 472705.0 0
51793.8 471386.0 0
55535.6 468879.0 0
57122.9 471982.0 0
60077.0 468832.0 0
60808.7 472366.0 0
63050.4 467456.0 0
64964.6 471892.0 0
68174.9 468852.0 0
71884.4 470190.0 0
75557.4 470731.0 0
80633.1 469832.0 0
85707.0 469587.0 0
90371.4 467981.0 0
93187.5 470306.0 0
89688.3 471780.0 0
96597.4 469369.0 0
101006.0 470142.0 0
104782.0 469493.0 0
104302.0 472088.0 0
107954.0 471352.0 0
114216.0 469105.0 0
118160.0 467911.0 0
121764.0 470497.0 0
125557.0 471729.0 0
129604.0 469926.0 0
133267.0 467191.0 0
134062.0 471129.0 0
137056.0 467760.0 0
138111.0 471995.0 0
141050.0 469219.0 0
144670.0 467500.0 0
144733.0 472226.0 0
148404.0 469668.0 0
152243.0 467611.0 0
151803.0 471667.0 0
155311.0 470440.0 0
160111.0 469809.0 0
164925.0 471004.0 0
169055.0 468395.0 0
172057.0 470741.0 0
175189.0 471233.0 0
180995.0 468072.0 0
186537.0 469625.0 0
192293.0 467776.0 0
197716.0 468851.0 0
201992.0 470947.0 0
205205.0 467169.0 0
208807.0 469359.0 0
212411.0 466524.0 0
219274.0 466243.0 0
215688.0 470227.0 0
223933.0 470436.0 0
228637.0 468113.0 0
234034.0 467347.0 0
239532.0 466444.0 0
237593.0 471223.0 0
242240.0 470737.0 0
246624.0 470160.0 0
251292.0 466539.0 0
256588.0 467883.0 0
265405.0 468548.0 0
269923.0 468834.0 0
273581.0 467116.0 0
278581.0 469249.0 0
283222.0 466947.0 0
288424.0 469603.0 0
292414.0 468323.0 0
298144.0 471323.0 0
301574.0 469112.0 0
306769.0 468588.0 0
311970.0 467686.0 0
316792.0 469254.0 0
321101.0 468485.0 0
325585.0 468332.0 0
330200.0 468786.0 0
334191.0 470246.0 0
337958.0 469609.0 0
342017.0 469718.0 0
347241.0 471505.0 0
352139.0 469203.0 0
355583.0 471946.0 0
358868.0 470772.0 0
361422.0 467869.0 0
361677.0 472483.0 0
365314.0 471485.0 0
369510.0 470201.0 0
373029.0 468466.0 0
377028.0 468298.0 0
381974.0 470980.0 0
386003.0 468550.0 0
389103.0 471904.0 0
390020.0 469315.0 0
394703.0 467749.0 0
392648.0 471866.0 0
399724.0 470903.0 0
403937.0 468490.0 0
404352.0 472695.0 0
408651.0 470818.0 0
415853.0 469852.0 0
412718.0 470238.0 0
412007.0 472195.0 0
418661.0 468831.0 0
420095.0 470248.0 0
422971.0 468924.0 0
427092.0 468176.0 0
422400.0 472438.0 0
425235.0 471075.0 0
431129.0 468701.0 0
428887.0 471890.0 0
434143.0 470500.0 0
440515.0 470940.0 0
437497.0 471661.0 0
444703.0 469290.0 0
443968.0 472778.0 0
448681.0 471589.0 0
452590.0 473230.0 0
40326.5 476453.0 0
44454.9 475759.0 0
49382.9 475815.0 0
54237.8 474546.0 0
53137.4 478129.0 0
57977.2 475884.0 0
62069.7 476705.0 0
66181.0 476281.0 0
70131.2 473462.0 0
70200.1 477967.0 0
74246.0 475218.0 0
78408.1 473056.0 0
82071.9 473147.0 0
78324.6 476807.0 0
82698.3 476607.0 0
86104.2 474525.0 0
92595.8 473709.0 0
89619.1 475936.0 0
96837.0 473668.0 0
93351.6 477239.0 0
101888.0 474321.0 0
100066.0 476325.0 0
105143.0 475366.0 0
112249.0 472207.0 0
109480.0 475919.0 0
113523.0 476026.0 0
116916.0 473072.0 0
121310.0 475145.0 0
125822.0 475555.0 0
130651.0 474899.0 0
135706.0 475706.0 0
141548.0 472327.0 0
140840.0 476045.0 0
146329.0 477087.0 0
148537.0 473309.0 0
151835.0 475975.0 0
156863.0 474748.0 0
161779.0 474059.0 0
165073.0 475580.0 0
168840.0 473187.0 0
173596.0 474879.0 0
178507.0 472772.0 0
182524.0 472325.0 0
181462.0 475385.0 0
185318.0 474862.0 0
190047.0 473662.0 0
194253.0 472395.0 0
198425.0 474148.0 0
202610.0 474786.0 0
206298.0 472675.0 0
211601.0 472502.0 0
215749.0 473512.0 0
219390.0 472153.0 0
217893.0 475856.0 0
224202.0 475731.0 0
228255.0 473012.0 0
232897.0 472779.0 0
240144.0 473585.0 0
236755.0 475672.0 0
245132.0 474527.0 0
250596.0 472370.0 0
255059.0 471776.0 0
260477.0 472023.0 0
264839.0 475953.0 0
268504.0 472811.0 0
274059.0 473344.0 0
279602.0 475341.0 0
283937.0 472010.0 0
288483.0 474392.0 0
293548.0 473291.0 0
298084.0 475085.0 0
302355.0 473456.0 0
307792.0 474970.0 0
312991.0 472702.0 0
317916.0 474236.0 0
322628.0 472789.0 0
321119.0 476583.0 0
324496.0 477083.0 0
327400.0 472901.0 0
331985.0 473325.0 0
334205.0 476849.0 0
336858.0 473688.0 0
341761.0 474341.0 0
345950.0 476270.0 0
350079.0 476535.0 0
351783.0 473087.0 0
354916.0 476811.0 0
359094.0 474594.0 0
363801.0 476595.0 0
368930.0 474752.0 0
373132.0 476781.0 0
373707.0 472681.0 0
378042.0 472741.0 0
377423.0 477170.0 0
381700.0 475513.0 0
386287.0 473654.0 0
388446.0 477437.0 0
396238.0 473709.0 0
391353.0 475171.0 0
394647.0 476953.0 0
397862.0 477040.0 0
400986.0 475218.0 0
405371.0 477242.0 0
407853.0 474610.0 0
411395.0 474965.0 0
414887.0 473448.0 0
418681.0 472814.0 0
417727.0 475973.0 0
421966.0 476551.0 0
425897.0 474478.0 0
430229.0 476298.0 0
432390.0 473368.0 0
435301.0 474427.0 0
434328.0 477520.0 0
438456.0 475376.0 0
441523.0 474101.0 0
441804.0 477751.0 0
445854.0 474248.0 0
444278.0 476199.0 0
452039.0 476580.0 0
448603.0 475945.0 0
455873.0 474272.0 0
455889.0 476975.0 0
458895.0 477158.0 0
37713.6 479612.0 0
34013.6 481857.0 0
41687.5 479567.0 0
37995.1 483135.0 0
41286.8 483659.0 0
46736.0 479158.0 0
44710.0 481370.0 0
50254.8 479748.0 0
48456.5 482368.0 0
56900.6 480143.0 0
52755.9 482709.0 0
60484.5 480110.0 0
63144.2 480269.0 0
66779.3 479861.0 0
69528.1 482329.0 0
73837.0 479757.0 0
77518.6 480660.0 0
81439.7 479910.0 0
85771.0 479022.0 0
87205.3 482501.0 0
89860.2 479956.0 0
93319.7 481033.0 0
97244.2 479291.0 0
102208.0 478619.0 0
100077.0 482703.0 0
105799.0 478889.0 0
103724.0 481807.0 0
107676.0 482746.0 0
108907.0 479363.0 0
112403.0 480351.0 0
116943.0 478487.0 0
121117.0 479202.0 0
123556.0 481492.0 0
123919.0 478511.0 0
127804.0 480126.0 0
132673.0 478903.0 0
136891.0 480262.0 0
142157.0 480599.0 0
150423.0 479635.0 0
155522.0 480675.0 0
160574.0 478131.0 0
164823.0 480062.0 0
168747.0 477603.0 0
168929.0 482007.0 0
172735.0 479423.0 0
177870.0 477705.0 0
176073.0 481819.0 0
183057.0 479719.0 0
188512.0 478076.0 0
193931.0 477621.0 0
199281.0 479016.0 0
204092.0 478537.0 0
208742.0 477175.0 0
213860.0 477440.0 0
217284.0 481015.0 0
220370.0 478127.0 0
222512.0 481314.0 0
228241.0 476506.0 0
227013.0 480219.0 0
232213.0 478297.0 0
237771.0 480908.0 0
241075.0 476779.0 0
244508.0 481478.0 0
249244.0 477385.0 0
255110.0 477035.0 0
260579.0 478174.0 0
265294.0 481154.0 0
270195.0 478064.0 0
275712.0 478799.0 0
280708.0 480830.0 0
284727.0 477419.0 0
290964.0 478130.0 0
295545.0 478294.0 0
300999.0 477990.0 0
305353.0 480340.0 0
312137.0 476710.0 0
310541.0 479915.0 0
315711.0 478908.0 0
320830.0 480160.0 0
325574.0 481702.0 0
329485.0 478000.0 0
333668.0 480072.0 0
338409.0 478893.0 0
343171.0 478862.0 0
347495.0 480466.0 0
352085.0 481072.0 0
356006.0 481206.0 0
359416.0 478927.0 0
362773.0 481281.0 0
366548.0 481398.0 0
367268.0 478040.0 0
370216.0 479099.0 0
374241.0 480489.0 0
378213.0 481909.0 0
384865.0 477656.0 0
381815.0 479822.0 0
386806.0 481595.0 0
391915.0 479870.0 0
396442.0 479843.0 0
401565.0 480166.0 0
409481.0 478122.0 0
406984.0 482198.0 0
411684.0 481232.0 0
414450.0 478068.0 0
419114.0 480265.0 0
426880.0 478484.0 0
423860.0 481260.0 0
431511.0 480183.0 0
435150.0 481728.0 0
438249.0 479282.0 0
446580.0 478967.0 0
442948.0 480920.0 0
446697.0 482629.0 0
450041.0 479863.0 0
449541.0 482718.0 0
453188.0 479828.0 0
456150.0 480618.0 0
452730.0 482561.0 0
459465.0 480491.0 0
462544.0 479103.0 0
462477.0 482578.0 0
465586.0 481455.0 0
469136.0 483624.0 0
23534.9 487707.0 0
27358.4 486356.0 0
30437.1 483403.0 0
31028.3 487053.0 0
34473.2 485976.0 0
38494.1 486494.0 0
42225.8 488495.0 0
45238.8 484660.0 0
50030.1 485996.0 0
55779.5 484644.0 0
53336.7 486374.0 0
59648.9 483792.0 0
61449.2 487622.0 0
64942.2 484166.0 0
72747.4 483599.0 0
67946.8 486939.0 0
70401.3 485967.0 0
75742.0 483735.0 0
73740.3 486999.0 0
77049.0 486554.0 0
79352.5 483605.0 0
81023.3 487647.0 0
83723.9 483234.0 0
86335.8 486172.0 0
90683.5 484488.0 0
95572.6 483872.0 0
93522.1 487726.0 0
98323.2 486665.0 0
103299.0 486030.0 0
107712.0 486622.0 0
111575.0 484836.0 0
114795.0 483382.0 0
119135.0 483582.0 0
124812.0 485956.0 0
128896.0 483992.0 0
132178.0 482569.0 0
134837.0 484573.0 0
138835.0 484715.0 0
143059.0 485036.0 0
146914.0 482436.0 0
149397.0 485528.0 0
151263.0 482859.0 0
153347.0 486115.0 0
157832.0 485425.0 0
160641.0 482520.0 0
164882.0 485616.0 0
170132.0 486502.0 0
172493.0 483128.0 0
174806.0 486187.0 0
179800.0 484774.0 0
185183.0 486037.0 0
187525.0 482212.0 0
189288.0 485316.0 0
191728.0 482524.0 0
193307.0 486576.0 0
196347.0 483007.0 0
201214.0 483346.0 0
206007.0 483084.0 0
211074.0 481884.0 0
219912.0 484192.0 0
215146.0 486387.0 0
224894.0 485450.0 0
230468.0 483067.0 0
234408.0 485479.0 0
240438.0 484696.0 0
248706.0 485549.0 0
251692.0 481866.0 0
253297.0 486242.0 0
256273.0 482312.0 0
260594.0 482801.0 0
270344.0 483999.0 0
275521.0 483496.0 0
283265.0 485106.0 0
285430.0 481856.0 0
288972.0 481420.0 0
288375.0 486272.0 0
293195.0 482866.0 0
298826.0 482446.0 0
303410.0 485526.0 0
308732.0 484651.0 0
313687.0 483757.0 0
317831.0 483037.0 0
321754.0 485587.0 0
327039.0 486910.0 0
330973.0 483689.0 0
335480.0 482938.0 0
339808.0 484516.0 0
343870.0 482588.0 0
344584.0 487153.0 0
347060.0 484369.0 0
350149.0 485271.0 0
354635.0 485136.0 0
359314.0 484059.0 0
363880.0 485001.0 0
368118.0 486023.0 0
371153.0 483199.0 0
372390.0 487151.0 0
374813.0 484373.0 0
375464.0 486961.0 0
378058.0 485666.0 0
380568.0 487145.0 0
382538.0 484349.0 0
387394.0 486906.0 0
390642.0 483678.0 0
392732.0 487447.0 0
394522.0 483472.0 0
398713.0 483457.0 0
397782.0 487710.0 0
402925.0 485936.0 0
408021.0 486999.0 0
415981.0 483058.0 0
412107.0 485478.0 0
417482.0 487622.0 0
421369.0 485258.0 0
425673.0 485492.0 0
428564.0 482963.0 0
432579.0 484464.0 0
436610.0 485422.0 0
439800.0 483378.0 0
441258.0 488010.0 0
444095.0 485029.0 0
447746.0 486054.0 0
451603.0 486127.0 0
455531.0 484138.0 0
455171.0 487385.0 0
458762.0 484102.0 0
462239.0 486541.0 0
458143.0 488129.0 0
465591.0 485063.0 0
472829.0 485456.0 0
469228.0 487690.0 0
473200.0 488895.0 0
476148.0 487558.0 0
16848.3 492342.0 0
20345.0 490496.0 0
23710.7 491092.0 0
27606.6 490467.0 0
29247.7 494020.0 0
31989.4 490806.0 0
35580.1 489600.0 0
34715.4 493030.0 0
38057.8 489158.0 0
38366.3 492532.0 0
47072.1 488805.0 0
42482.3 492462.0 0
51592.6 489987.0 0
56558.2 489120.0 0
61089.2 491022.0 0
65403.0 489707.0 0
70487.1 489851.0 0
75867.1 490603.0 0
80217.2 492459.0 0
84806.6 490467.0 0
89295.4 489149.0 0
91794.6 492257.0 0
96223.4 490501.0 0
100920.0 489868.0 0
105824.0 489898.0 0
110654.0 489259.0 0
112740.0 493023.0 0
115178.0 487413.0 0
116737.0 491865.0 0
119885.0 488664.0 0
123350.0 490483.0 0
126969.0 490831.0 0
130957.0 487822.0 0
133487.0 491429.0 0
136067.0 488412.0 0
137066.0 492470.0 0
140978.0 489495.0 0
146087.0 487785.0 0
148355.0 491125.0 0
149937.0 488091.0 0
151932.0 490769.0 0
156267.0 490288.0 0
160737.0 488799.0 0
168590.0 490813.0 0
164340.0 490956.0 0
172751.0 490272.0 0
177491.0 490334.0 0
181776.0 489200.0 0
185067.0 490692.0 0
189452.0 489395.0 0
193973.0 490896.0 0
198683.0 488128.0 0
204477.0 488128.0 0
209366.0 486899.0 0
220579.0 488194.0 0
224653.0 490746.0 0
229578.0 487524.0 0
233605.0 490905.0 0
238769.0 488684.0 0
244316.0 487937.0 0
250473.0 489568.0 0
257961.0 486640.0 0
255462.0 491617.0 0
264451.0 487954.0 0
273994.0 487633.0 0
270259.0 488792.0 0
274837.0 491896.0 0
278977.0 487156.0 0
283837.0 489711.0 0
294051.0 488649.0 0
298898.0 487480.0 0
302285.0 490016.0 0
307015.0 489879.0 0
312278.0 488856.0 0
316811.0 487165.0 0
320013.0 490402.0 0
315968.0 491171.0 0
324410.0 490560.0 0
329045.0 491452.0 0
330832.0 488216.0 0
335235.0 488139.0 0
340517.0 489299.0 0
344448.0 492199.0 0
348437.0 489204.0 0
352198.0 488314.0 0
356160.0 489596.0 0
360986.0 488512.0 0
363276.0 491843.0 0
365349.0 489043.0 0
369705.0 490190.0 0
373610.0 491538.0 0
374563.0 488653.0 0
378174.0 490296.0 0
383055.0 489282.0 0
386457.0 492112.0 0
390451.0 490785.0 0
400895.0 491163.0 0
405082.0 490182.0 0
408897.0 490234.0 0
410026.0 492253.0 0
413275.0 490592.0 0
418598.0 492616.0 0
425150.0 488572.0 0
422448.0 490446.0 0
426958.0 491672.0 0
429821.0 488412.0 0
430875.0 492806.0 0
433902.0 488172.0 0
434861.0 492383.0 0
437538.0 489161.0 0
439638.0 492363.0 0
445492.0 488934.0 0
443360.0 491391.0 0
447239.0 493033.0 0
449421.0 489653.0 0
451962.0 492858.0 0
453034.0 489819.0 0
455954.0 491555.0 0
463615.0 489981.0 0
460610.0 491418.0 0
465739.0 488785.0 0
468227.0 491658.0 0
465037.0 492119.0 0
471952.0 492291.0 0
476123.0 491194.0 0
479297.0 489571.0 0
482520.0 491846.0 0
479406.0 493738.0 0
10202.1 496699.0 0
6314.26 498479.0 0
13349.9 494491.0 0
13545.8 499464.0 0
16735.9 496152.0 0
17130.2 499251.0 0
19988.7 498225.0 0
20814.3 494699.0 0
25067.2 494709.0 0
23761.7 498540.0 0
32275.7 495652.0 0
28124.1 497737.0 0
36481.4 496793.0 0
41323.8 496094.0 0
47318.3 494016.0 0
51108.8 498450.0 0
53351.0 493787.0 0
55395.9 496880.0 0
57951.8 493987.0 0
62541.0 494130.0 0
67285.2 493641.0 0
64553.4 497214.0 0
72040.6 494113.0 0
68640.9 497754.0 0
76543.2 495612.0 0
80732.8 496642.0 0
87711.9 493304.0 0
83831.3 494400.0 0
85801.3 496669.0 0
89734.2 496134.0 0
92708.9 496090.0 0
94500.6 494170.0 0
95556.5 497438.0 0
98576.5 493808.0 0
103567.0 493563.0 0
106002.0 497758.0 0
108185.0 493440.0 0
110973.0 497215.0 0
114820.0 495784.0 0
118278.0 496017.0 0
120957.0 493049.0 0
122711.0 497021.0 0
124613.0 493693.0 0
127180.0 496507.0 0
130170.0 493383.0 0
133673.0 494487.0 0
136737.0 497000.0 0
140819.0 494467.0 0
144600.0 492474.0 0
144358.0 496601.0 0
148393.0 495103.0 0
153528.0 495106.0 0
159947.0 494934.0 0
166455.0 495211.0 0
171781.0 494788.0 0
177251.0 495716.0 0
181876.0 493381.0 0
187072.0 494259.0 0
192401.0 496557.0 0
197814.0 493937.0 0
202194.0 492158.0 0
206010.0 493808.0 0
210198.0 491829.0 0
210085.0 496160.0 0
215453.0 492503.0 0
218507.0 496749.0 0
220360.0 492583.0 0
224289.0 496589.0 0
228956.0 492116.0 0
230111.0 496450.0 0
234461.0 495561.0 0
237443.0 493214.0 0
241951.0 493095.0 0
247034.0 492731.0 0
251124.0 493716.0 0
259321.0 496124.0 0
260408.0 492281.0 0
264445.0 495165.0 0
270104.0 493350.0 0
274377.0 496502.0 0
279475.0 492617.0 0
284092.0 494732.0 0
289405.0 492811.0 0
294293.0 494259.0 0
298335.0 492346.0 0
304012.0 493763.0 0
308493.0 494921.0 0
313231.0 494409.0 0
318674.0 495426.0 0
325390.0 496257.0 0
330755.0 495598.0 0
333333.0 492626.0 0
334600.0 496672.0 0
338354.0 493469.0 0
342519.0 497192.0 0
348149.0 496321.0 0
351791.0 492395.0 0
355709.0 493932.0 0
353365.0 497097.0 0
359733.0 493022.0 0
363016.0 496283.0 0
366686.0 493346.0 0
371639.0 495932.0 0
376937.0 495188.0 0
381871.0 493968.0 0
382626.0 497516.0 0
387137.0 497356.0 0
390305.0 493784.0 0
395199.0 492761.0 0
392230.0 496707.0 0
399880.0 496161.0 0
404100.0 494758.0 0
407707.0 493436.0 0
407945.0 498210.0 0
411690.0 495121.0 0
415826.0 495774.0 0
420188.0 497050.0 0
422282.0 494314.0 0
424962.0 493812.0 0
424944.0 497780.0 0
428695.0 495326.0 0
433509.0 496556.0 0
438329.0 496147.0 0
442707.0 495015.0 0
446553.0 497133.0 0
451002.0 496715.0 0
455086.0 495353.0 0
458484.0 494425.0 0
459150.0 498027.0 0
463002.0 495564.0 0
467758.0 496008.0 0
471970.0 496124.0 0
475616.0 494891.0 0
474756.0 498778.0 0
482439.0 496628.0 0
478467.0 498464.0 0
485820.0 494618.0 0
489690.0 496664.0 0
493288.0 498002.0 0
2674.55 499989.0 0
1696.97 503253.0 0
9061.1 500219.0 0
10147.3 503439.0 0
17693.3 501971.0 0
20830.4 500970.0 0
21030.6 503953.0 0
23475.4 501851.0 0
27088.4 501906.0 0
31999.7 500125.0 0
34466.6 504074.0 0
36457.3 500902.0 0
39882.9 499393.0 0
39904.7 503350.0 0
44747.5 500169.0 0
49545.1 502288.0 0
55206.5 500589.0 0
59785.5 498807.0 0
60957.2 503107.0 0
64896.3 501212.0 0
69377.1 501420.0 0
72921.0 498625.0 0
72879.1 502891.0 0
77360.4 500395.0 0
82730.9 500169.0 0
87444.7 500461.0 0
92028.3 499476.0 0
95762.7 502114.0 0
100432.0 498418.0 0
103825.0 500804.0 0
108587.0 500168.0 0
111524.0 502300.0 0
115082.0 499319.0 0
119404.0 500270.0 0
124163.0 501479.0 0
128064.0 500226.0 0
131702.0 497871.0 0
135348.0 501066.0 0
140724.0 498581.0 0
144811.0 501834.0 0
150090.0 499170.0 0
155613.0 500612.0 0
160375.0 500285.0 0
163545.0 498878.0 0
167931.0 500787.0 0
173378.0 500008.0 0
178081.0 500472.0 0
182521.0 498233.0 0
187321.0 498604.0 0
185385.0 501922.0 0
197726.0 498368.0 0
195323.0 501293.0 0
202157.0 497079.0 0
204547.0 500747.0 0
206743.0 497827.0 0
213823.0 497105.0 0
210460.0 501215.0 0
216156.0 501217.0 0
220805.0 500632.0 0
228008.0 501026.0 0
233698.0 500785.0 0
238708.0 497596.0 0
243847.0 497743.0 0
241566.0 501881.0 0
249093.0 497911.0 0
254746.0 497391.0 0
257567.0 501275.0 0
261458.0 499483.0 0
268650.0 497502.0 0
265804.0 500661.0 0
271170.0 501013.0 0
279875.0 498620.0 0
285474.0 498834.0 0
289799.0 498636.0 0
295372.0 498416.0 0
300724.0 497476.0 0
305221.0 497411.0 0
307251.0 499476.0 0
314938.0 498329.0 0
310957.0 499225.0 0
317695.0 499947.0 0
321178.0 499825.0 0
328036.0 501493.0 0
331621.0 499518.0 0
335470.0 500589.0 0
338164.0 497957.0 0
339974.0 501891.0 0
346052.0 502016.0 0
350903.0 500496.0 0
355141.0 501606.0 0
358328.0 497794.0 0
361884.0 499294.0 0
364747.0 501148.0 0
367021.0 497780.0 0
370043.0 502009.0 0
375376.0 500027.0 0
379600.0 498516.0 0
383378.0 501111.0 0
387795.0 502968.0 0
391416.0 500710.0 0
394448.0 502053.0 0
396068.0 498976.0 0
400284.0 501032.0 0
403428.0 498900.0 0
407638.0 501989.0 0
411155.0 502241.0 0
413120.0 498848.0 0
414787.0 502383.0 0
417371.0 499757.0 0
421756.0 501598.0 0
426822.0 502652.0 0
429934.0 499477.0 0
433828.0 500604.0 0
437320.0 499813.0 0
435714.0 502980.0 0
442724.0 500027.0 0
448216.0 500480.0 0
452006.0 500619.0 0
455268.0 499222.0 0
454949.0 502970.0 0
459060.0 502355.0 0
463675.0 500373.0 0
467571.0 500397.0 0
471429.0 499963.0 0
475402.0 502925.0 0
479604.0 502337.0 0
482284.0 500319.0 0
486297.0 499698.0 0
483787.0 503713.0 0
490509.0 500094.0 0
493272.0 501683.0 0
497054.0 500001.0 0
497190.0 504181.0 0
2086.21 506067.0 0
5592.61 503076.0 0
6598.29 506731.0 0
10703.0 507210.0 0
14253.4 503653.0 0
14849.4 507284.0 0
18265.7 505720.0 0
23996.6 504578.0 0
22044.3 507359.0 0
30440.3 504272.0 0
26904.4 506942.0 0
32564.3 507808.0 0
36848.3 506121.0 0
39934.8 506881.0 0
43011.9 505561.0 0
46242.6 508044.0 0
46320.6 504324.0 0
49895.5 505819.0 0
52668.7 503251.0 0
56859.5 504249.0 0
53343.6 507173.0 0
60417.4 506902.0 0
64084.2 508355.0 0
63726.0 505104.0 0
67628.9 505301.0 0
71906.8 507332.0 0
76393.3 505344.0 0
80260.1 503589.0 0
79927.2 507464.0 0
84476.6 505080.0 0
90563.1 505301.0 0
96141.3 506738.0 0
100684.0 504004.0 0
106405.0 503030.0 0
104167.0 507765.0 0
109228.0 506908.0 0
113136.0 505876.0 0
116012.0 503415.0 0
120404.0 504711.0 0
127433.0 503772.0 0
124851.0 506180.0 0
131272.0 502747.0 0
135111.0 505728.0 0
139244.0 502282.0 0
140746.0 507248.0 0
146474.0 507216.0 0
150557.0 504233.0 0
154926.0 506264.0 0
159023.0 504890.0 0
163096.0 503090.0 0
162390.0 507426.0 0
166686.0 506049.0 0
171297.0 504859.0 0
176002.0 504726.0 0
181230.0 503833.0 0
185750.0 506451.0 0
190409.0 503026.0 0
195212.0 506173.0 0
200141.0 502592.0 0
205648.0 505539.0 0
213895.0 506513.0 0
219488.0 505114.0 0
223973.0 503330.0 0
229002.0 506429.0 0
233907.0 506012.0 0
237687.0 504304.0 0
246899.0 503798.0 0
252767.0 502427.0 0
256442.0 505983.0 0
261638.0 504526.0 0
267915.0 506287.0 0
273382.0 506135.0 0
275886.0 502608.0 0
280973.0 505447.0 0
286993.0 503348.0 0
292841.0 503177.0 0
298696.0 502820.0 0
304498.0 502588.0 0
301761.0 506549.0 0
309700.0 504000.0 0
314772.0 502731.0 0
313009.0 506443.0 0
319195.0 502815.0 0
318142.0 506718.0 0
323644.0 503656.0 0
328219.0 506329.0 0
332656.0 503848.0 0
337354.0 507343.0 0
342729.0 505980.0 0
351273.0 505633.0 0
356646.0 506076.0 0
360395.0 502932.0 0
365230.0 505961.0 0
370011.0 507330.0 0
375154.0 505667.0 0
379465.0 502801.0 0
379820.0 506639.0 0
383601.0 505587.0 0
392872.0 505567.0 0
397293.0 503468.0 0
397412.0 507629.0 0
400792.0 505238.0 0
404227.0 502732.0 0
404567.0 507305.0 0
408453.0 505396.0 0
413617.0 506549.0 0
418200.0 504367.0 0
420876.0 506576.0 0
423521.0 505611.0 0
432075.0 504036.0 0
428238.0 508003.0 0
433424.0 508151.0 0
436441.0 506409.0 0
439477.0 503673.0 0
443588.0 504686.0 0
446266.0 507560.0 0
446959.0 503804.0 0
450848.0 503488.0 0
449956.0 506677.0 0
453520.0 505812.0 0
457985.0 506840.0 0
463617.0 505356.0 0
469880.0 504549.0 0
471364.0 508584.0 0
475609.0 507810.0 0
480040.0 506025.0 0
484407.0 507784.0 0
488937.0 504485.0 0
493478.0 504685.0 0
493461.0 507926.0 0
497422.0 508048.0 0
3443.33 510340.0 0
8407.88 510346.0 0
13029.3 510489.0 0
14990.2 513696.0 0
18250.7 510301.0 0
23607.4 511722.0 0
28666.9 510771.0 0
32738.4 512424.0 0
37365.1 510040.0 0
36500.9 513919.0 0
40939.9 513698.0 0
42210.8 509469.0 0
45929.6 512419.0 0
49880.0 509708.0 0
50071.6 512867.0 0
53365.8 511381.0 0
56870.5 509210.0 0
60542.1 510936.0 0
63945.6 512263.0 0
67850.0 509909.0 0
71801.3 511862.0 0
75589.6 509576.0 0
78727.5 511033.0 0
83766.9 510512.0 0
88823.6 510187.0 0
91345.8 512977.0 0
93209.8 509885.0 0
96923.0 510673.0 0
99550.5 508361.0 0
101429.0 512815.0 0
107135.0 511628.0 0
111728.0 510606.0 0
116455.0 508581.0 0
121585.0 508822.0 0
125232.0 510848.0 0
129758.0 507853.0 0
132861.0 511194.0 0
136298.0 509983.0 0
139424.0 512251.0 0
144761.0 512644.0 0
151105.0 510097.0 0
158023.0 510796.0 0
165096.0 510913.0 0
170044.0 509703.0 0
175262.0 509822.0 0
181011.0 509710.0 0
186022.0 510750.0 0
190184.0 509005.0 0
194831.0 511332.0 0
200024.0 508814.0 0
204690.0 510813.0 0
209351.0 510168.0 0
218502.0 510816.0 0
223716.0 508151.0 0
228954.0 511833.0 0
233965.0 510737.0 0
237424.0 508125.0 0
241748.0 507131.0 0
246699.0 510119.0 0
251808.0 507787.0 0
258097.0 510724.0 0
263216.0 509985.0 0
267595.0 511938.0 0
272091.0 510467.0 0
276540.0 508658.0 0
282490.0 511596.0 0
285767.0 508079.0 0
290688.0 508695.0 0
297084.0 508791.0 0
302385.0 510336.0 0
305628.0 507687.0 0
309896.0 508752.0 0
306995.0 511583.0 0
314636.0 510544.0 0
323224.0 509742.0 0
329307.0 511829.0 0
332435.0 508388.0 0
342340.0 510324.0 0
346642.0 508177.0 0
350474.0 510982.0 0
354892.0 509948.0 0
358612.0 511416.0 0
360816.0 508002.0 0
362878.0 512145.0 0
367859.0 511928.0 0
373520.0 511423.0 0
378434.0 510410.0 0
383541.0 510812.0 0
388258.0 507960.0 0
388339.0 512580.0 0
393666.0 511836.0 0
398354.0 510837.0 0
400901.0 512390.0 0
401083.0 509078.0 0
404991.0 511685.0 0
409377.0 509615.0 0
414560.0 512398.0 0
418236.0 508612.0 0
419360.0 512324.0 0
422796.0 509918.0 0
426868.0 513058.0 0
432530.0 512648.0 0
437195.0 510837.0 0
441432.0 508323.0 0
441347.0 513181.0 0
445621.0 511753.0 0
449645.0 510128.0 0
452745.0 512434.0 0
453392.0 508964.0 0
456992.0 511068.0 0
462407.0 510736.0 0
467149.0 508930.0 0
467057.0 513261.0 0
470150.0 511277.0 0
473671.0 511270.0 0
480247.0 510539.0 0
484908.0 512034.0 0
489219.0 509604.0 0
493646.0 511726.0 0
497628.0 511591.0 0
3129.67 515899.0 0
6809.03 513701.0 0
8060.82 517472.0 0
10635.4 513950.0 0
13453.8 518400.0 0
18880.8 515635.0 0
23430.6 516241.0 0
28144.4 515381.0 0
33115.2 516546.0 0
37929.0 517457.0 0
44263.1 516345.0 0
48404.3 516255.0 0
52621.1 515226.0 0
55452.7 517529.0 0
57123.8 513764.0 0
61303.2 514570.0 0
67146.8 514415.0 0
63641.0 516931.0 0
71288.9 516297.0 0
75578.6 513936.0 0
79719.9 514415.0 0
79524.9 518282.0 0
83182.8 515570.0 0
85637.5 517103.0 0
87288.8 514128.0 0
90674.5 516857.0 0
95671.2 515290.0 0
105651.0 516117.0 0
110241.0 514874.0 0
114781.0 513747.0 0
113466.0 517960.0 0
119725.0 513265.0 0
124200.0 516091.0 0
129368.0 513801.0 0
131949.0 517780.0 0
135516.0 514435.0 0
140108.0 516311.0 0
148869.0 516113.0 0
153503.0 515462.0 0
158382.0 516288.0 0
162317.0 514572.0 0
168269.0 513957.0 0
165841.0 517018.0 0
172673.0 514292.0 0
178199.0 515294.0 0
183936.0 514536.0 0
188877.0 513845.0 0
197888.0 514664.0 0
202714.0 515463.0 0
207828.0 514711.0 0
213428.0 513284.0 0
217084.0 517213.0 0
223904.0 513699.0 0
232052.0 515521.0 0
235751.0 514481.0 0
239627.0 512451.0 0
244294.0 514792.0 0
248752.0 514914.0 0
252868.0 512712.0 0
256885.0 516084.0 0
260629.0 513920.0 0
264422.0 515973.0 0
270679.0 516002.0 0
276701.0 514054.0 0
281551.0 516169.0 0
287734.0 513456.0 0
293692.0 513656.0 0
299874.0 513926.0 0
304166.0 513637.0 0
310484.0 512936.0 0
314905.0 516355.0 0
318781.0 513093.0 0
322296.0 515693.0 0
325829.0 514136.0 0
334379.0 512659.0 0
338659.0 512531.0 0
338160.0 516771.0 0
342274.0 514960.0 0
346273.0 512866.0 0
349720.0 515184.0 0
354050.0 514671.0 0
359360.0 516197.0 0
365554.0 517228.0 0
371652.0 516677.0 0
376864.0 513994.0 0
380346.0 514676.0 0
385455.0 516264.0 0
390205.0 516030.0 0
398174.0 515004.0 0
402792.0 515946.0 0
406446.0 515756.0 0
409398.0 514130.0 0
412187.0 517737.0 0
417770.0 517360.0 0
422571.0 515169.0 0
427116.0 518323.0 0
429590.0 515432.0 0
432632.0 518134.0 0
437461.0 516027.0 0
441590.0 516180.0 0
445059.0 516116.0 0
449321.0 513790.0 0
449150.0 517036.0 0
452515.0 516103.0 0
455769.0 514727.0 0
459825.0 514126.0 0
463764.0 516135.0 0
471862.0 514318.0 0
469076.0 517908.0 0
476701.0 513886.0 0
474167.0 517267.0 0
478329.0 518574.0 0
481136.0 515334.0 0
489926.0 513758.0 0
485991.0 517112.0 0
493197.0 514374.0 0
492039.0 518162.0 0
496872.0 515753.0 0
2128.44 519879.0 0
2126.28 523159.0 0
5647.56 520407.0 0
9241.04 520902.0 0
17320.6 521445.0 0
20801.4 519516.0 0
25409.5 519574.0 0
22565.9 522815.0 0
30115.2 520017.0 0
27355.3 523692.0 0
34513.3 520587.0 0
38350.5 522446.0 0
41916.0 519445.0 0
46302.8 520255.0 0
51367.2 519861.0 0
55817.0 521125.0 0
59621.6 518038.0 0
59455.7 521865.0 0
63406.4 521103.0 0
67234.0 518820.0 0
67949.5 523195.0 0
70845.5 520412.0 0
75163.3 519209.0 0
78765.4 523139.0 0
83212.5 519970.0 0
87138.4 518644.0 0
89007.6 519607.0 0
91822.3 520651.0 0
95896.1 520779.0 0
100726.0 518654.0 0
105104.0 520065.0 0
107091.0 523133.0 0
108916.0 519136.0 0
111621.0 521322.0 0
115035.0 521844.0 0
118481.0 518522.0 0
123096.0 521536.0 0
127906.0 519380.0 0
131391.0 522040.0 0
136160.0 519461.0 0
140257.0 520807.0 0
144890.0 519120.0 0
150578.0 520596.0 0
155930.0 520460.0 0
161750.0 520200.0 0
166642.0 520880.0 0
170074.0 518433.0 0
175168.0 520918.0 0
182317.0 518385.0 0
180038.0 520722.0 0
187262.0 519245.0 0
193429.0 517134.0 0
198601.0 518729.0 0
206657.0 518623.0 0
211187.0 517873.0 0
214255.0 521855.0 0
222176.0 518746.0 0
224614.0 522412.0 0
227557.0 518389.0 0
232534.0 521376.0 0
235725.0 517776.0 0
237369.0 521247.0 0
240650.0 518022.0 0
246269.0 519714.0 0
251944.0 518411.0 0
260624.0 518060.0 0
262661.0 521587.0 0
267595.0 520335.0 0
274557.0 519380.0 0
278953.0 519148.0 0
282479.0 520249.0 0
285307.0 517704.0 0
290651.0 518531.0 0
296866.0 518554.0 0
302937.0 517390.0 0
300789.0 522018.0 0
305137.0 521194.0 0
308933.0 517614.0 0
314856.0 522284.0 0
319717.0 519702.0 0
326693.0 518303.0 0
332776.0 518410.0 0
338252.0 522211.0 0
342002.0 519035.0 0
346285.0 517886.0 0
347569.0 522684.0 0
351485.0 519358.0 0
356285.0 520352.0 0
361746.0 520360.0 0
370574.0 522195.0 0
374602.0 520538.0 0
376896.0 517323.0 0
381211.0 518973.0 0
377951.0 521433.0 0
385536.0 521260.0 0
389337.0 519553.0 0
394213.0 518516.0 0
400071.0 519721.0 0
406767.0 520594.0 0
411793.0 521757.0 0
414974.0 520646.0 0
418557.0 522082.0 0
422232.0 519925.0 0
425841.0 522372.0 0
431022.0 523500.0 0
436465.0 521179.0 0
441624.0 520044.0 0
447358.0 521028.0 0
452615.0 520057.0 0
458600.0 519166.0 0
464577.0 521081.0 0
470310.0 523354.0 0
474782.0 520630.0 0
478208.0 522212.0 0
482617.0 521856.0 0
488108.0 521165.0 0
492335.0 523108.0 0
497171.0 520895.0 0
2613.58 526919.0 0
6872.44 524393.0 0
9413.73 527589.0 0
6667.88 528456.0 0
12742.4 524237.0 0
18995.3 524953.0 0
16206.0 527477.0 0
23655.0 527012.0 0
28925.5 527902.0 0
32644.1 524842.0 0
37539.8 526811.0 0
42892.0 524123.0 0
46145.2 526747.0 0
48645.1 523843.0 0
50485.1 528231.0 0
52760.5 524217.0 0
56867.7 525267.0 0
61167.3 524851.0 0
64829.0 527652.0 0
70384.8 527496.0 0
72730.2 523478.0 0
75565.8 527407.0 0
83140.4 524595.0 0
87389.2 522963.0 0
92020.1 524804.0 0
95997.5 525069.0 0
99228.4 523370.0 0
102903.0 523213.0 0
104908.0 527032.0 0
110638.0 524387.0 0
108963.0 527565.0 0
114650.0 526716.0 0
118735.0 523504.0 0
127476.0 523683.0 0
124422.0 525650.0 0
130670.0 526552.0 0
135590.0 524772.0 0
133492.0 527669.0 0
141066.0 525089.0 0
146452.0 524748.0 0
150600.0 524694.0 0
158594.0 524249.0 0
154231.0 525284.0 0
164895.0 524846.0 0
170025.0 523730.0 0
175281.0 526817.0 0
179484.0 524550.0 0
183201.0 522571.0 0
187079.0 525243.0 0
191871.0 522781.0 0
197089.0 523313.0 0
202794.0 522140.0 0
208917.0 523020.0 0
219575.0 523666.0 0
214560.0 527053.0 0
228341.0 524701.0 0
232762.0 526720.0 0
236930.0 525158.0 0
241711.0 523615.0 0
246392.0 527024.0 0
250295.0 522736.0 0
252160.0 527353.0 0
256492.0 522508.0 0
260924.0 526156.0 0
266008.0 526047.0 0
271816.0 524121.0 0
277253.0 523223.0 0
280093.0 526626.0 0
281541.0 523245.0 0
286325.0 523113.0 0
291814.0 523784.0 0
297065.0 523381.0 0
299940.0 526870.0 0
303789.0 524861.0 0
310083.0 522310.0 0
307835.0 525679.0 0
312396.0 526988.0 0
319427.0 524116.0 0
323977.0 523093.0 0
325531.0 526962.0 0
328969.0 522543.0 0
328576.0 526600.0 0
333190.0 525299.0 0
337910.0 527454.0 0
343355.0 522674.0 0
341698.0 525995.0 0
349766.0 527054.0 0
353551.0 523988.0 0
359485.0 525336.0 0
365474.0 522971.0 0
370172.0 527206.0 0
375352.0 525243.0 0
381615.0 523770.0 0
385328.0 526333.0 0
387962.0 523985.0 0
389300.0 527153.0 0
391602.0 523260.0 0
393453.0 527356.0 0
396592.0 524005.0 0
402151.0 524580.0 0
406343.0 525880.0 0
410290.0 525372.0 0
414826.0 524584.0 0
422299.0 524756.0 0
418606.0 527694.0 0
426582.0 526432.0 0
433426.0 528775.0 0
436043.0 525567.0 0
440349.0 525171.0 0
444293.0 524314.0 0
447772.0 526264.0 0
451220.0 523956.0 0
452432.0 528607.0 0
455672.0 524200.0 0
458131.0 528596.0 0
460805.0 524337.0 0
461869.0 527569.0 0
465187.0 525666.0 0
469003.0 528681.0 0
475674.0 524026.0 0
474101.0 527764.0 0
479212.0 526252.0 0
483663.0 526733.0 0
487409.0 524742.0 0
490950.0 527086.0 0
498399.0 524648.0 0
495473.0 526839.0 0
3515.41 531975.0 0
9033.79 532587.0 0
12474.3 529795.0 0
19700.3 528946.0 0
16718.4 531134.0 0
22849.0 532178.0 0
26306.9 530258.0 0
33313.7 530887.0 0
38408.5 530846.0 0
41820.3 528585.0 0
41788.9 532882.0 0
45716.5 530545.0 0
49173.1 532752.0 0
55355.4 529118.0 0
53163.2 532320.0 0
59618.4 528880.0 0
57764.8 533082.0 0
62318.6 532141.0 0
67840.6 531738.0 0
72558.1 531864.0 0
76947.5 531997.0 0
81432.0 529285.0 0
87956.7 528582.0 0
90958.8 532647.0 0
93624.7 528846.0 0
99402.7 528278.0 0
103447.0 530263.0 0
106964.0 531612.0 0
111186.0 530287.0 0
115488.0 532164.0 0
120639.0 528515.0 0
126459.0 528979.0 0
123921.0 532512.0 0
132106.0 530716.0 0
138269.0 529003.0 0
135659.0 531952.0 0
143568.0 530114.0 0
150272.0 528961.0 0
154864.0 529369.0 0
157545.0 532204.0 0
159909.0 528272.0 0
161779.0 532216.0 0
168287.0 528278.0 0
164173.0 529179.0 0
172156.0 530045.0 0
179723.0 529104.0 0
183721.0 528177.0 0
182600.0 532325.0 0
187764.0 531231.0 0
192818.0 527918.0 0
197784.0 528202.0 0
199081.0 532193.0 0
203402.0 528732.0 0
209379.0 528565.0 0
211294.0 532462.0 0
219389.0 528885.0 0
224355.0 528249.0 0
228825.0 528765.0 0
231753.0 531170.0 0
237288.0 530544.0 0
240907.0 527631.0 0
243273.0 531583.0 0
248905.0 532362.0 0
254793.0 532356.0 0
257137.0 528159.0 0
261673.0 531342.0 0
268425.0 532247.0 0
272607.0 528908.0 0
275269.0 532150.0 0
275990.0 527427.0 0
279331.0 530527.0 0
284448.0 528648.0 0
289380.0 527758.0 0
294608.0 528122.0 0
292802.0 532522.0 0
304525.0 528821.0 0
301261.0 531223.0 0
309619.0 531769.0 0
315039.0 532374.0 0
317301.0 528113.0 0
320451.0 532526.0 0
322217.0 527932.0 0
325427.0 531501.0 0
329505.0 530249.0 0
334224.0 531182.0 0
338631.0 530875.0 0
345180.0 527672.0 0
341666.0 529676.0 0
344884.0 531656.0 0
348996.0 531541.0 0
354321.0 528529.0 0
358205.0 531286.0 0
365276.0 527978.0 0
363171.0 532202.0 0
368537.0 532280.0 0
374249.0 530757.0 0
380555.0 529218.0 0
386288.0 530476.0 0
391099.0 531449.0 0
395779.0 530963.0 0
399182.0 528597.0 0
401474.0 532310.0 0
403880.0 529074.0 0
408391.0 529516.0 0
413732.0 529863.0 0
418884.0 532200.0 0
423436.0 530097.0 0
428879.0 530139.0 0
434576.0 533120.0 0
438556.0 530050.0 0
443089.0 532125.0 0
443950.0 528072.0 0
447585.0 530689.0 0
455504.0 532279.0 0
459844.0 533376.0 0
464226.0 530448.0 0
468017.0 532576.0 0
472273.0 532190.0 0
477754.0 531419.0 0
482975.0 531216.0 0
487536.0 528877.0 0
487465.0 532666.0 0
492561.0 531458.0 0
497998.0 529989.0 0
1357.1 535473.0 0
2673.57 538577.0 0
6445.52 536104.0 0
14069.0 534244.0 0
10711.4 537400.0 0
19086.9 535056.0 0
23795.6 536594.0 0
27961.4 533728.0 0
27441.7 538019.0 0
32446.6 537129.0 0
37451.6 534964.0 0
41747.0 537699.0 0
45562.1 534988.0 0
49308.3 536666.0 0
53943.6 536857.0 0
61780.2 535595.0 0
58815.7 537924.0 0
65223.4 535102.0 0
69679.9 536090.0 0
75305.2 536788.0 0
80182.8 534632.0 0
85733.3 534455.0 0
92119.5 536771.0 0
95744.7 533113.0 0
101550.0 534083.0 0
106614.0 537016.0 0
110945.0 534406.0 0
116235.0 537217.0 0
120076.0 534132.0 0
120398.0 537320.0 0
123909.0 537048.0 0
128308.0 533900.0 0
133219.0 535054.0 0
137257.0 537174.0 0
139207.0 533183.0 0
142469.0 536741.0 0
147753.0 534340.0 0
153087.0 533446.0 0
156709.0 536965.0 0
161141.0 535902.0 0
163817.0 537499.0 0
167065.0 533961.0 0
173346.0 534147.0 0
178165.0 533629.0 0
180867.0 537651.0 0
184768.0 535609.0 0
193269.0 532962.0 0
197122.0 536885.0 0
202339.0 535039.0 0
207055.0 533458.0 0
211315.0 537026.0 0
216021.0 532710.0 0
221592.0 532976.0 0
227191.0 533897.0 0
232898.0 536137.0 0
237776.0 535823.0 0
242402.0 537082.0 0
258605.0 536119.0 0
263382.0 536360.0 0
272984.0 537233.0 0
278151.0 536101.0 0
282597.0 533674.0 0
288084.0 532804.0 0
291868.0 537286.0 0
297240.0 533007.0 0
304718.0 532686.0 0
301689.0 535561.0 0
306466.0 536356.0 0
311765.0 537606.0 0
317233.0 536674.0 0
324630.0 536765.0 0
329569.0 534594.0 0
334499.0 537082.0 0
340673.0 535125.0 0
347008.0 536082.0 0
353486.0 535226.0 0
360103.0 535709.0 0
365442.0 536305.0 0
372296.0 534589.0 0
375589.0 537346.0 0
378015.0 533645.0 0
380373.0 536435.0 0
383613.0 533979.0 0
388158.0 535767.0 0
394420.0 535001.0 0
398400.0 534132.0 0
402145.0 536829.0 0
397534.0 538002.0 0
405595.0 533310.0 0
407581.0 537388.0 0
410416.0 533768.0 0
412543.0 537975.0 0
415373.0 534518.0 0
419020.0 536107.0 0
422508.0 534551.0 0
426310.0 533946.0 0
430605.0 534483.0 0
438453.0 535391.0 0
442756.0 536340.0 0
447008.0 535045.0 0
451457.0 533637.0 0
450567.0 538148.0 0
455586.0 536832.0 0
460574.0 538142.0 0
464718.0 535348.0 0
469785.0 535225.0 0
472128.0 538023.0 0
475083.0 535393.0 0
479657.0 536610.0 0
484557.0 535975.0 0
489798.0 536266.0 0
497285.0 534117.0 0
498222.0 537949.0 0
2371.63 543246.0 0
6737.96 540966.0 0
11627.8 543139.0 0
15881.5 539187.0 0
20371.0 543179.0 0
20628.1 539334.0 0
24713.3 541677.0 0
29467.6 541083.0 0
33541.6 542719.0 0
36906.9 539563.0 0
39792.5 540975.0 0
46300.8 539177.0 0
43483.5 542982.0 0
50473.3 540843.0 0
55337.8 541899.0 0
60190.9 542288.0 0
63385.0 538931.0 0
64011.6 542970.0 0
67758.5 540720.0 0
71776.2 539850.0 0
76967.8 542091.0 0
79942.5 538654.0 0
82143.1 542699.0 0
83383.4 538711.0 0
88024.3 540869.0 0
97048.8 538243.0 0
93706.3 542211.0 0
101996.0 539295.0 0
104672.0 543127.0 0
108077.0 540784.0 0
111567.0 538956.0 0
115392.0 541891.0 0
119779.0 540161.0 0
124414.0 542615.0 0
128353.0 538982.0 0
132466.0 539036.0 0
135934.0 542046.0 0
140981.0 541642.0 0
145863.0 540784.0 0
151520.0 538446.0 0
155674.0 542744.0 0
160728.0 540134.0 0
166619.0 539981.0 0
171050.0 537885.0 0
171145.0 542551.0 0
176086.0 537956.0 0
184816.0 539400.0 0
190091.0 538113.0 0
196636.0 542624.0 0
201238.0 540507.0 0
205928.0 538634.0 0
209912.0 542551.0 0
216698.0 538379.0 0
221914.0 537987.0 0
219815.0 542473.0 0
227331.0 538643.0 0
224937.0 542206.0 0
230799.0 541906.0 0
236798.0 540600.0 0
248102.0 538301.0 0
253592.0 537548.0 0
257893.0 541213.0 0
263196.0 541576.0 0
267597.0 538467.0 0
273395.0 542562.0 0
279003.0 541842.0 0
281602.0 537773.0 0
286024.0 538360.0 0
289399.0 541872.0 0
293455.0 542251.0 0
297548.0 539019.0 0
307556.0 541003.0 0
320768.0 539541.0 0
316704.0 541669.0 0
324440.0 542554.0 0
329464.0 539912.0 0
333838.0 541562.0 0
338424.0 539853.0 0
343715.0 539355.0 0
347817.0 541893.0 0
353638.0 542830.0 0
357689.0 539590.0 0
362388.0 539816.0 0
366596.0 540217.0 0
370194.0 537959.0 0
375072.0 541503.0 0
379962.0 541552.0 0
383984.0 538132.0 0
387359.0 540513.0 0
392651.0 539637.0 0
400313.0 541972.0 0
404940.0 540667.0 0
409178.0 541527.0 0
413429.0 542039.0 0
417497.0 540207.0 0
422641.0 538966.0 0
425699.0 543107.0 0
428176.0 538454.0 0
430851.0 543031.0 0
433934.0 538072.0 0
440111.0 540544.0 0
445655.0 539960.0 0
449341.0 542818.0 0
453636.0 541475.0 0
457663.0 541183.0 0
464268.0 539529.0 0
468032.0 538535.0 0
466795.0 542602.0 0
470734.0 541521.0 0
475779.0 539282.0 0
478941.0 541380.0 0
482934.0 540292.0 0
486815.0 539516.0 0
486118.0 543253.0 0
490355.0 540702.0 0
494263.0 538266.0 0
493727.0 542958.0 0
497724.0 541492.0 0
2437.52 547650.0 0
6196.78 545499.0 0
14419.3 546992.0 0
16650.3 543740.0 0
19455.9 548113.0 0
24721.0 546947.0 0
28491.2 544837.0 0
31827.6 547211.0 0
36292.6 548542.0 0
38104.9 544034.0 0
41129.9 547536.0 0
45281.1 547341.0 0
48407.9 544731.0 0
52927.1 546561.0 0
57780.4 545829.0 0
62510.8 547588.0 0
67052.3 545197.0 0
71958.6 544293.0 0
76239.3 546136.0 0
79144.0 545383.0 0
81833.3 546808.0 0
85631.3 546214.0 0
89931.2 546049.0 0
94609.0 547277.0 0
99035.0 543457.0 0
110296.0 544425.0 0
115199.0 546671.0 0
119394.0 544434.0 0
118763.0 548109.0 0
122589.0 547682.0 0
127756.0 547522.0 0
130765.0 543112.0 0
137837.0 546386.0 0
143868.0 545355.0 0
150016.0 543331.0 0
163626.0 543787.0 0
160054.0 546953.0 0
167321.0 543797.0 0
164959.0 547878.0 0
169069.0 546859.0 0
176333.0 542780.0 0
173767.0 547155.0 0
178658.0 547044.0 0
181663.0 542837.0 0
182737.0 547370.0 0
186779.0 543039.0 0
191584.0 544322.0 0
197501.0 547134.0 0
200687.0 544842.0 0
204797.0 543521.0 0
207686.0 546738.0 0
212869.0 546982.0 0
214959.0 542898.0 0
217456.0 546417.0 0
221791.0 547465.0 0
226971.0 547420.0 0
232608.0 547537.0 0
237490.0 545929.0 0
241778.0 543187.0 0
247375.0 544313.0 0
252949.0 542857.0 0
260031.0 545073.0 0
256287.0 546360.0 0
263365.0 546606.0 0
268405.0 543758.0 0
272243.0 546836.0 0
276925.0 547486.0 0
284636.0 543858.0 0
281790.0 547131.0 0
289109.0 546144.0 0
294147.0 547119.0 0
297393.0 543884.0 0
299487.0 547390.0 0
302288.0 542902.0 0
306674.0 545159.0 0
312095.0 543040.0 0
315779.0 546904.0 0
320218.0 542712.0 0
320856.0 546288.0 0
331329.0 546138.0 0
337311.0 544177.0 0
342460.0 543366.0 0
345910.0 546971.0 0
350421.0 546806.0 0
359809.0 543412.0 0
360231.0 547853.0 0
364976.0 544859.0 0
371063.0 543494.0 0
375928.0 545023.0 0
380209.0 547531.0 0
384832.0 544484.0 0
389992.0 544383.0 0
395458.0 544825.0 0
400452.0 547189.0 0
405476.0 545245.0 0
411450.0 545392.0 0
416505.0 545276.0 0
420894.0 543665.0 0
423604.0 547147.0 0
433133.0 545000.0 0
428803.0 547705.0 0
435597.0 542932.0 0
439725.0 545747.0 0
443372.0 547181.0 0
446387.0 545797.0 0
443463.0 543895.0 0
450892.0 547437.0 0
456107.0 545504.0 0
461888.0 543175.0 0
466217.0 547232.0 0
469915.0 544958.0 0
474656.0 544209.0 0
477640.0 548173.0 0
481755.0 545444.0 0
489701.0 544368.0 0
486831.0 548299.0 0
492488.0 547601.0 0
497355.0 545908.0 0
4992.2 551822.0 0
9722.6 548730.0 0
14469.2 551444.0 0
23937.1 551600.0 0
28206.5 550016.0 0
32446.4 551578.0 0
39827.8 551908.0 0
44771.4 551335.0 0
48831.4 549142.0 0
48382.4 552561.0 0
52569.7 551685.0 0
56510.4 549549.0 0
67859.4 549604.0 0
73721.2 550375.0 0
78876.2 548823.0 0
83447.0 550728.0 0
89197.9 550752.0 0
96138.2 552443.0 0
99939.0 548589.0 0
105427.0 548544.0 0
111149.0 550502.0 0
116010.0 550570.0 0
120001.0 551771.0 0
124811.0 551847.0 0
129443.0 552458.0 0
133417.0 548822.0 0
137120.0 552553.0 0
141058.0 549656.0 0
144882.0 551973.0 0
148463.0 548447.0 0
154774.0 549023.0 0
162761.0 551430.0 0
168130.0 552136.0 0
173208.0 551569.0 0
177711.0 551819.0 0
183077.0 551847.0 0
187312.0 548219.0 0
192566.0 549466.0 0
196771.0 550927.0 0
203597.0 548100.0 0
201073.0 552569.0 0
206501.0 552305.0 0
212519.0 552687.0 0
217877.0 550905.0 0
222403.0 552054.0 0
226964.0 552592.0 0
231743.0 552722.0 0
236871.0 551173.0 0
244162.0 548406.0 0
240462.0 548585.0 0
241811.0 552114.0 0
251673.0 548074.0 0
253590.0 552790.0 0
257968.0 550572.0 0
262872.0 551335.0 0
267358.0 548965.0 0
271842.0 551442.0 0
280447.0 551612.0 0
284191.0 549527.0 0
287969.0 550941.0 0
292524.0 551587.0 0
297108.0 551389.0 0
304214.0 548991.0 0
310222.0 548024.0 0
307695.0 552529.0 0
312257.0 552809.0 0
317134.0 552116.0 0
325418.0 547970.0 0
321385.0 550550.0 0
330585.0 552456.0 0
335083.0 552022.0 0
336546.0 548660.0 0
340936.0 548137.0 0
339117.0 552527.0 0
344871.0 552760.0 0
350725.0 551529.0 0
355105.0 548449.0 0
364767.0 550072.0 0
369330.0 548705.0 0
371917.0 552070.0 0
375270.0 549400.0 0
385038.0 549252.0 0
390334.0 549434.0 0
396103.0 550682.0 0
400435.0 551143.0 0
404396.0 550550.0 0
408883.0 548944.0 0
410684.0 552712.0 0
413857.0 549610.0 0
419398.0 549984.0 0
425052.0 551824.0 0
430591.0 553073.0 0
434877.0 548574.0 0
440787.0 550926.0 0
446171.0 549675.0 0
449946.0 552573.0 0
455444.0 551173.0 0
460689.0 548395.0 0
460121.0 553058.0 0
464811.0 552341.0 0
471324.0 548860.0 0
475677.0 552925.0 0
481305.0 550666.0 0
485171.0 553473.0 0
490912.0 552912.0 0
496777.0 551291.0 0
2058.21 555626.0 0
9931.51 554266.0 0
6019.45 556153.0 0
14498.9 556147.0 0
19297.0 553943.0 0
24364.1 557382.0 0
29173.8 554478.0 0
35821.1 553655.0 0
34089.2 557371.0 0
38729.9 556445.0 0
42613.3 554865.0 0
46396.9 555346.0 0
49812.6 554896.0 0
53267.0 556391.0 0
57576.6 553857.0 0
63667.5 553962.0 0
69596.0 554239.0 0
67630.9 558476.0 0
75161.5 555126.0 0
78867.5 553258.0 0
77622.7 558120.0 0
81785.0 556859.0 0
86176.3 555184.0 0
91631.8 556057.0 0
101648.0 553394.0 0
97282.5 557801.0 0
106613.0 553495.0 0
102246.0 558186.0 0
110580.0 556158.0 0
114995.0 554264.0 0
119368.0 557052.0 0
125853.0 557632.0 0
131135.0 556483.0 0
133269.0 553571.0 0
134697.0 556708.0 0
139203.0 557196.0 0
144636.0 556534.0 0
148680.0 553731.0 0
153326.0 554480.0 0
156164.0 557318.0 0
158516.0 553723.0 0
163230.0 556004.0 0
167909.0 557854.0 0
173978.0 556978.0 0
180248.0 556474.0 0
185379.0 557364.0 0
189171.0 553628.0 0
193355.0 557315.0 0
194105.0 553436.0 0
198103.0 556874.0 0
203438.0 557511.0 0
208676.0 556995.0 0
218534.0 555978.0 0
222907.0 555973.0 0
226835.0 557441.0 0
237410.0 556630.0 0
242597.0 556802.0 0
247531.0 553066.0 0
252287.0 557711.0 0
257692.0 556333.0 0
262768.0 556017.0 0
267319.0 554228.0 0
272281.0 557461.0 0
275971.0 553624.0 0
279338.0 556822.0 0
284896.0 555685.0 0
291359.0 556882.0 0
297742.0 556816.0 0
301457.0 553154.0 0
303156.0 557472.0 0
308125.0 557811.0 0
312303.0 556937.0 0
320869.0 554471.0 0
325285.0 553298.0 0
328490.0 557678.0 0
334403.0 557106.0 0
340676.0 557581.0 0
351228.0 556813.0 0
355247.0 553651.0 0
360840.0 553485.0 0
367643.0 553718.0 0
372071.0 556097.0 0
375227.0 553481.0 0
376651.0 557284.0 0
381180.0 553631.0 0
387202.0 553605.0 0
392047.0 554179.0 0
396221.0 555851.0 0
401465.0 555635.0 0
407008.0 554960.0 0
411979.0 556917.0 0
415955.0 554026.0 0
421012.0 555615.0 0
426648.0 556712.0 0
432290.0 558138.0 0
436151.0 554560.0 0
440785.0 556986.0 0
445320.0 554660.0 0
452843.0 555848.0 0
457322.0 556470.0 0
462196.0 556896.0 0
466584.0 556870.0 0
469920.0 553775.0 0
472829.0 557679.0 0
477418.0 558311.0 0
480673.0 555140.0 0
483761.0 558123.0 0
488298.0 557450.0 0
497049.0 556905.0 0
3896.56 559408.0 0
2100.24 563201.0 0
8768.54 559253.0 0
6277.59 563067.0 0
13429.8 560422.0 0
18360.2 559197.0 0
22001.4 563286.0 0
30115.8 558670.0 0
27560.7 562646.0 0
37441.5 561032.0 0
43155.5 559562.0 0
49017.4 559057.0 0
53279.1 560734.0 0
55864.5 562890.0 0
57608.5 559174.0 0
62838.5 560076.0 0
70063.6 562754.0 0
72509.5 558322.0 0
75617.0 563019.0 0
86935.5 560006.0 0
81838.2 562155.0 0
93125.7 561896.0 0
98257.9 562722.0 0
106662.0 559154.0 0
103114.0 562939.0 0
110245.0 562588.0 0
114422.0 559456.0 0
121521.0 562238.0 0
130788.0 560606.0 0
135032.0 560416.0 0
142758.0 561197.0 0
138560.0 561777.0 0
149941.0 558991.0 0
155214.0 561237.0 0
159530.0 558806.0 0
159414.0 563020.0 0
163781.0 561148.0 0
168204.0 562247.0 0
171884.0 561979.0 0
176919.0 561838.0 0
181845.0 561801.0 0
186459.0 561511.0 0
189516.0 558835.0 0
192823.0 561755.0 0
197110.0 561008.0 0
208699.0 561673.0 0
213667.0 558658.0 0
217456.0 562626.0 0
221956.0 559990.0 0
226189.0 562259.0 0
232179.0 557988.0 0
236888.0 562836.0 0
242602.0 561854.0 0
247220.0 559415.0 0
251100.0 562478.0 0
255807.0 561564.0 0
261965.0 561671.0 0
266169.0 559711.0 0
276883.0 562521.0 0
282391.0 560299.0 0
287234.0 561595.0 0
292725.0 562871.0 0
300436.0 561867.0 0
312108.0 561508.0 0
317172.0 558032.0 0
323418.0 558046.0 0
323325.0 562583.0 0
330087.0 561363.0 0
327100.0 561795.0 0
333386.0 562413.0 0
338120.0 562425.0 0
346574.0 558276.0 0
343854.0 562908.0 0
356329.0 558625.0 0
362379.0 559845.0 0
368168.0 558966.0 0
373201.0 561263.0 0
380752.0 559759.0 0
386155.0 558883.0 0
383651.0 563159.0 0
392426.0 559558.0 0
398478.0 560905.0 0
403456.0 560512.0 0
407825.0 559636.0 0
412683.0 562362.0 0
416792.0 558756.0 0
418954.0 563147.0 0
423305.0 560492.0 0
428536.0 561234.0 0
433401.0 562728.0 0
436877.0 559794.0 0
440859.0 561298.0 0
444726.0 559754.0 0
449152.0 558377.0 0
454080.0 560065.0 0
459321.0 561102.0 0
464244.0 560692.0 0
468996.0 560689.0 0
474380.0 562650.0 0
480906.0 562676.0 0
486786.0 562002.0 0
492740.0 560169.0 0
497644.0 561951.0 0
1810.83 566909.0 0
7536.6 568054.0 0
11086.1 564200.0 0
13776.9 568317.0 0
16549.4 564040.0 0
19598.8 568326.0 0
24968.6 567845.0 0
29494.9 567050.0 0
32810.1 563501.0 0
38456.5 565809.0 0
42481.0 564537.0 0
41474.9 567426.0 0
44829.5 568066.0 0
46897.2 563657.0 0
48710.9 567176.0 0
52516.0 565099.0 0
59533.6 564027.0 0
56780.8 568337.0 0
65409.6 564588.0 0
78829.7 567650.0 0
84062.4 567525.0 0
88391.0 564721.0 0
93508.1 567892.0 0
98698.0 567085.0 0
106289.0 566856.0 0
111240.0 567637.0 0
115816.0 564675.0 0
120591.0 567491.0 0
126889.0 564014.0 0
124742.0 567827.0 0
132514.0 565398.0 0
128974.0 567971.0 0
137692.0 565827.0 0
142993.0 566580.0 0
148127.0 564389.0 0
153659.0 566877.0 0
159391.0 567138.0 0
163874.0 566280.0 0
169162.0 566821.0 0
174275.0 565506.0 0
179528.0 567319.0 0
185243.0 566151.0 0
189269.0 563897.0 0
193002.0 566906.0 0
198624.0 565434.0 0
203849.0 563084.0 0
207998.0 566269.0 0
212693.0 563487.0 0
222186.0 565263.0 0
227354.0 567298.0 0
230972.0 563219.0 0
244047.0 567273.0 0
247447.0 563852.0 0
249785.0 567044.0 0
259251.0 566307.0 0
265666.0 564520.0 0
268552.0 567490.0 0
270566.0 563094.0 0
273226.0 567545.0 0
282829.0 565264.0 0
288060.0 567238.0 0
296949.0 565340.0 0
301661.0 567449.0 0
306539.0 563117.0 0
311927.0 567630.0 0
318072.0 564723.0 0
323294.0 567804.0 0
329365.0 566580.0 0
335507.0 566614.0 0
351209.0 563027.0 0
347096.0 567537.0 0
357699.0 564237.0 0
364126.0 565865.0 0
368667.0 563725.0 0
372584.0 566939.0 0
378098.0 564287.0 0
382510.0 567431.0 0
388535.0 564538.0 0
394575.0 565278.0 0
402061.0 564375.0 0
399042.0 566803.0 0
407158.0 564914.0 0
411962.0 567596.0 0
416573.0 567113.0 0
421413.0 567574.0 0
425362.0 564786.0 0
429934.0 565901.0 0
435658.0 565139.0 0
433805.0 566791.0 0
438965.0 564992.0 0
444075.0 564596.0 0
450171.0 564058.0 0
455707.0 564175.0 0
461564.0 564860.0 0
463433.0 568264.0 0
465834.0 564613.0 0
470124.0 565055.0 0
473037.0 568280.0 0
477410.0 566682.0 0
485445.0 567195.0 0
491145.0 565380.0 0
496608.0 566707.0 0
2700.91 571150.0 0
12549.5 573085.0 0
23718.8 572670.0 0
28342.1 571337.0 0
34301.0 569249.0 0
40825.1 571172.0 0
47881.5 569661.0 0
46176.7 572956.0 0
51622.3 570370.0 0
55684.1 573085.0 0
60483.2 573170.0 0
62061.4 568379.0 0
65942.1 572916.0 0
68320.0 568376.0 0
73408.7 568643.0 0
77045.8 571967.0 0
81510.8 571868.0 0
85941.0 572881.0 0
88565.9 569478.0 0
97520.6 571729.0 0
102379.0 570102.0 0
107434.0 571983.0 0
116296.0 569616.0 0
112687.0 572283.0 0
121479.0 572635.0 0
126672.0 571511.0 0
132489.0 571867.0 0
138991.0 571439.0 0
144552.0 571453.0 0
148490.0 569305.0 0
153020.0 572434.0 0
157448.0 571191.0 0
162826.0 571600.0 0
168502.0 572338.0 0
174299.0 571127.0 0
188668.0 569717.0 0
183816.0 571627.0 0
192851.0 572634.0 0
198925.0 572811.0 0
203379.0 568692.0 0
208294.0 571894.0 0
212631.0 568238.0 0
217938.0 568595.0 0
219196.0 572716.0 0
214905.0 573011.0 0
222695.0 571512.0 0
229356.0 572117.0 0
232789.0 568149.0 0
234194.0 573164.0 0
238309.0 569329.0 0
242787.0 572707.0 0
247924.0 571734.0 0
254106.0 568353.0 0
252310.0 571800.0 0
256380.0 572624.0 0
264200.0 568256.0 0
261268.0 571658.0 0
265855.0 572129.0 0
270308.0 571605.0 0
278439.0 568881.0 0
283185.0 571568.0 0
288605.0 573054.0 0
293203.0 568153.0 0
294117.0 572962.0 0
297325.0 569695.0 0
299842.0 572417.0 0
304423.0 572447.0 0
306628.0 568190.0 0
309122.0 572092.0 0
314957.0 572376.0 0
316257.0 569092.0 0
319370.0 570266.0 0
327598.0 573112.0 0
334782.0 571927.0 0
341074.0 568866.0 0
346652.0 572173.0 0
351406.0 569054.0 0
350662.0 573000.0 0
355561.0 568908.0 0
360056.0 569043.0 0
363177.0 572637.0 0
367839.0 569650.0 0
372701.0 573322.0 0
377739.0 569599.0 0
382175.0 571767.0 0
387526.0 570787.0 0
394300.0 571465.0 0
399307.0 571987.0 0
403136.0 569351.0 0
408148.0 569841.0 0
412677.0 572773.0 0
418179.0 571675.0 0
426383.0 569575.0 0
431834.0 570597.0 0
436994.0 569411.0 0
441532.0 568584.0 0
442696.0 573524.0 0
447029.0 569430.0 0
452554.0 569440.0 0
458274.0 568820.0 0
462429.0 572033.0 0
467901.0 569022.0 0
470923.0 572134.0 0
476785.0 570569.0 0
480757.0 569470.0 0
484286.0 572121.0 0
490289.0 571164.0 0
497372.0 571818.0 0
2543.25 576221.0 0
7493.25 573998.0 0
11052.6 576524.0 0
14704.7 578306.0 0
18042.7 574026.0 0
27028.8 576579.0 0
32165.7 574865.0 0
36891.4 573797.0 0
38316.1 577990.0 0
42215.6 575741.0 0
47437.0 578027.0 0
51604.4 575439.0 0
57558.4 576997.0 0
63147.1 577216.0 0
71274.1 573566.0 0
68134.3 577821.0 0
75480.9 576163.0 0
80970.9 577219.0 0
86947.6 577144.0 0
91738.9 573933.0 0
97093.4 577189.0 0
102897.0 575753.0 0
110152.0 576990.0 0
116747.0 576174.0 0
123523.0 577150.0 0
128392.0 576504.0 0
132839.0 576973.0 0
137250.0 577066.0 0
143181.0 576794.0 0
148545.0 574169.0 0
154836.0 576493.0 0
159317.0 575124.0 0
165413.0 575652.0 0
169599.0 577791.0 0
174480.0 576634.0 0
179025.0 574660.0 0
183296.0 578286.0 0
188057.0 575364.0 0
192939.0 577436.0 0
196791.0 577472.0 0
203823.0 573246.0 0
202595.0 577413.0 0
207658.0 577340.0 0
212301.0 577132.0 0
217807.0 577706.0 0
222972.0 576666.0 0
226948.0 575471.0 0
230980.0 577297.0 0
238626.0 574334.0 0
235912.0 577662.0 0
240750.0 577943.0 0
245954.0 577267.0 0
251668.0 576072.0 0
257693.0 577541.0 0
262767.0 576512.0 0
268263.0 576533.0 0
275119.0 573469.0 0
278489.0 577803.0 0
282931.0 576159.0 0
286880.0 578280.0 0
292203.0 577924.0 0
297794.0 576435.0 0
303002.0 577517.0 0
307993.0 576493.0 0
311732.0 574603.0 0
317292.0 576869.0 0
321947.0 574176.0 0
332261.0 577481.0 0
338976.0 573278.0 0
338265.0 577413.0 0
342706.0 574566.0 0
348018.0 576711.0 0
352571.0 576390.0 0
357477.0 573627.0 0
367206.0 574155.0 0
362232.0 578276.0 0
378840.0 574695.0 0
381769.0 577622.0 0
384205.0 575041.0 0
390408.0 576775.0 0
395319.0 577737.0 0
397962.0 575257.0 0
402402.0 574739.0 0
407466.0 574062.0 0
405566.0 578228.0 0
410809.0 578240.0 0
416753.0 577179.0 0
423110.0 573945.0 0
428256.0 573791.0 0
426527.0 577308.0 0
432205.0 575717.0 0
437127.0 574521.0 0
440308.0 578112.0 0
448121.0 574648.0 0
452116.0 577418.0 0
455321.0 573679.0 0
459701.0 574847.0 0
461982.0 578426.0 0
466500.0 573942.0 0
470772.0 576161.0 0
474467.0 573724.0 0
479403.0 574361.0 0
483659.0 575949.0 0
487074.0 574861.0 0
491828.0 576968.0 0
497348.0 576946.0 0
2119.46 580686.0 0
6966.46 579676.0 0
11754.9 581381.0 0
17431.9 581870.0 0
21899.1 578914.0 0
26740.6 582421.0 0
33149.9 581265.0 0
38839.2 583012.0 0
42792.5 580248.0 0
46945.5 582798.0 0
53255.7 581592.0 0
60097.0 581298.0 0
65265.0 581717.0 0
70060.0 582586.0 0
72228.6 578861.0 0
73977.7 583193.0 0
76864.0 580767.0 0
81685.3 583232.0 0
86766.5 581698.0 0
91954.4 580352.0 0
97775.7 583056.0 0
103907.0 581983.0 0
109554.0 582278.0 0
113632.0 580464.0 0
120372.0 579251.0 0
117652.0 581566.0 0
123120.0 581733.0 0
127865.0 581553.0 0
133610.0 582169.0 0
139600.0 581707.0 0
145274.0 582973.0 0
149649.0 579226.0 0
154179.0 581757.0 0
158851.0 579623.0 0
164266.0 580181.0 0
168572.0 582599.0 0
177944.0 579004.0 0
174146.0 582641.0 0
180146.0 582664.0 0
188309.0 580498.0 0
184635.0 582987.0 0
193035.0 582181.0 0
196988.0 580895.0 0
201067.0 582695.0 0
206780.0 582546.0 0
212880.0 582558.0 0
218453.0 582831.0 0
226526.0 580493.0 0
231929.0 582359.0 0
237341.0 582654.0 0
243020.0 581577.0 0
248037.0 583110.0 0
252371.0 580601.0 0
256460.0 582584.0 0
260924.0 580895.0 0
265653.0 581373.0 0
270254.0 581952.0 0
273309.0 578553.0 0
276235.0 583164.0 0
282605.0 582370.0 0
288818.0 583343.0 0
294579.0 583364.0 0
299674.0 581311.0 0
304593.0 582183.0 0
308603.0 580855.0 0
312449.0 578478.0 0
312163.0 583137.0 0
316742.0 581952.0 0
321993.0 579311.0 0
325135.0 582593.0 0
326773.0 578548.0 0
335974.0 582197.0 0
341411.0 582055.0 0
343810.0 578372.0 0
346201.0 581002.0 0
351318.0 581443.0 0
356281.0 578903.0 0
358985.0 582128.0 0
368891.0 579225.0 0
374146.0 578635.0 0
373784.0 582542.0 0
377826.0 579017.0 0
381130.0 581057.0 0
377681.0 582605.0 0
385594.0 578707.0 0
390680.0 582255.0 0
400033.0 579175.0 0
399203.0 583682.0 0
407929.0 581676.0 0
403886.0 582861.0 0
417593.0 583323.0 0
422214.0 579493.0 0
425933.0 582714.0 0
430054.0 580419.0 0
435565.0 579789.0 0
440140.0 583148.0 0
445239.0 578999.0 0
450058.0 582167.0 0
457075.0 578628.0 0
460015.0 582913.0 0
466862.0 579098.0 0
464849.0 583590.0 0
470921.0 582887.0 0
475398.0 578822.0 0
481106.0 579613.0 0
482951.0 583761.0 0
486599.0 579334.0 0
494033.0 582032.0 0
498264.0 581126.0 0
3366.13 585836.0 0
8671.12 584428.0 0
12780.7 585488.0 0
18194.7 588126.0 0
22092.4 583794.0 0
24591.6 587325.0 0
35758.4 587630.0 0
39369.7 586006.0 0
42934.4 586133.0 0
49536.3 586210.0 0
57887.3 586076.0 0
62652.7 585718.0 0
66632.2 588380.0 0
76794.4 586398.0 0
86020.1 586426.0 0
91123.9 588219.0 0
93647.2 584534.0 0
96303.6 587946.0 0
101515.0 587895.0 0
107409.0 587079.0 0
113455.0 584453.0 0
117662.0 586193.0 0
123359.0 587239.0 0
129223.0 586194.0 0
133239.0 587235.0 0
138392.0 587195.0 0
150210.0 583669.0 0
148400.0 587012.0 0
153471.0 587691.0 0
158351.0 584739.0 0
163559.0 587233.0 0
169821.0 587554.0 0
174690.0 588402.0 0
183739.0 587030.0 0
179068.0 587608.0 0
188558.0 585718.0 0
193051.0 586544.0 0
197257.0 586375.0 0
202896.0 587096.0 0
208441.0 587293.0 0
213084.0 588376.0 0
217858.0 587402.0 0
222741.0 583481.0 0
222657.0 588041.0 0
227864.0 586147.0 0
232964.0 586862.0 0
237418.0 588056.0 0
241564.0 585744.0 0
245609.0 588037.0 0
250006.0 587880.0 0
254915.0 587892.0 0
261344.0 586677.0 0
268117.0 586573.0 0
273725.0 588200.0 0
279412.0 587886.0 0
283683.0 587289.0 0
287172.0 588298.0 0
291532.0 587664.0 0
301429.0 586684.0 0
307977.0 587156.0 0
313660.0 587487.0 0
317958.0 586338.0 0
321286.0 583753.0 0
325980.0 587049.0 0
330310.0 583533.0 0
334720.0 586939.0 0
339727.0 587306.0 0
347244.0 585746.0 0
352565.0 587050.0 0
361520.0 584900.0 0
357269.0 585743.0 0
366081.0 584446.0 0
370928.0 586273.0 0
376378.0 587009.0 0
381475.0 587233.0 0
385502.0 583682.0 0
385221.0 588458.0 0
390099.0 587756.0 0
394780.0 584701.0 0
398094.0 586999.0 0
401644.0 587013.0 0
407225.0 586950.0 0
411679.0 583926.0 0
422426.0 584148.0 0
421928.0 587538.0 0
426294.0 587416.0 0
431149.0 585499.0 0
434602.0 583847.0 0
436411.0 588243.0 0
441942.0 587391.0 0
445299.0 584285.0 0
451277.0 587864.0 0
455094.0 583638.0 0
457203.0 588411.0 0
461866.0 587013.0 0
465779.0 587753.0 0
471550.0 588262.0 0
477920.0 584510.0 0
482291.0 588267.0 0
487815.0 584828.0 0
492965.0 587167.0 0
497869.0 584894.0 0
3710.41 592733.0 0
9519.17 589468.0 0
13818.2 593194.0 0
23871.9 592125.0 0
29690.2 589110.0 0
40622.6 591466.0 0
47007.3 590481.0 0
53473.7 589161.0 0
61444.0 591062.0 0
71839.2 588886.0 0
77353.9 591600.0 0
81669.2 588935.0 0
86369.6 591560.0 0
96199.4 592570.0 0
101122.0 593467.0 0
107222.0 593559.0 0
112993.0 589718.0 0
118500.0 590956.0 0
128110.0 591865.0 0
134614.0 591991.0 0
140266.0 592649.0 0
143962.0 588777.0 0
149126.0 591619.0 0
153645.0 592837.0 0
158633.0 591406.0 0
164533.0 593434.0 0
168485.0 591690.0 0
172634.0 592917.0 0
178393.0 592858.0 0
183485.0 591661.0 0
188603.0 591151.0 0
194533.0 591396.0 0
199656.0 591744.0 0
203156.0 592297.0 0
207244.0 591750.0 0
212241.0 593107.0 0
216993.0 592211.0 0
221999.0 592767.0 0
227086.0 591766.0 0
231978.0 591162.0 0
236844.0 593205.0 0
241577.0 590860.0 0
246646.0 593153.0 0
251645.0 591906.0 0
263636.0 593292.0 0
268844.0 591728.0 0
273123.0 593357.0 0
277934.0 592837.0 0
283564.0 591771.0 0
288037.0 591872.0 0
292782.0 592200.0 0
296182.0 588560.0 0
296191.0 591999.0 0
299974.0 592425.0 0
305851.0 593403.0 0
311774.0 592241.0 0
316842.0 590665.0 0
321069.0 593216.0 0
321684.0 588739.0 0
326103.0 592298.0 0
330434.0 589214.0 0
337559.0 591679.0 0
342054.0 591636.0 0
346923.0 591155.0 0
356551.0 590024.0 0
352266.0 592585.0 0
360901.0 589209.0 0
365945.0 589258.0 0
363426.0 593126.0 0
368621.0 592352.0 0
372844.0 591130.0 0
377821.0 592037.0 0
386862.0 592199.0 0
395440.0 590570.0 0
401105.0 591774.0 0
407098.0 592767.0 0
411996.0 589397.0 0
417678.0 589430.0 0
423224.0 591626.0 0
427186.0 591441.0 0
430243.0 589899.0 0
433014.0 592985.0 0
437190.0 593702.0 0
441474.0 591719.0 0
445713.0 589019.0 0
448699.0 593080.0 0
453832.0 592636.0 0
458316.0 593323.0 0
462867.0 591546.0 0
467935.0 591506.0 0
475914.0 589138.0 0
479019.0 592686.0 0
487115.0 590247.0 0
491626.0 591841.0 0
497487.0 589455.0 0
497980.0 593851.0 0
9172.58 596155.0 0
19263.2 595062.0 0
24317.5 597913.0 0
28235.4 594407.0 0
33833.0 593709.0 0
38867.5 597000.0 0
44538.5 595890.0 0
50779.4 594713.0 0
56310.9 594369.0 0
58356.6 598749.0 0
61415.0 596253.0 0
64709.5 598378.0 0
67086.6 594003.0 0
72976.2 594287.0 0
77348.3 596650.0 0
81678.7 594226.0 0
86154.3 596702.0 0
91225.6 593914.0 0
90347.9 598579.0 0
95177.7 597748.0 0
100652.0 598712.0 0
111803.0 597495.0 0
114909.0 594530.0 0
122410.0 594214.0 0
118227.0 596423.0 0
127041.0 598637.0 0
132170.0 596599.0 0
137477.0 597306.0 0
144901.0 594690.0 0
149012.0 597585.0 0
154304.0 597568.0 0
160050.0 597417.0 0
169038.0 596339.0 0
173407.0 598217.0 0
177778.0 597629.0 0
182153.0 596443.0 0
187259.0 596274.0 0
192997.0 597793.0 0
198132.0 595642.0 0
203024.0 596855.0 0
208816.0 597119.0 0
214155.0 597112.0 0
218427.0 596674.0 0
222536.0 596990.0 0
226783.0 596666.0 0
232147.0 596697.0 0
238082.0 597468.0 0
242036.0 595924.0 0
247105.0 598198.0 0
252098.0 596442.0 0
256996.0 593743.0 0
257603.0 598642.0 0
261134.0 597978.0 0
268887.0 596849.0 0
273872.0 597821.0 0
278406.0 597655.0 0
283180.0 596990.0 0
287419.0 597186.0 0
291652.0 596833.0 0
296045.0 595562.0 0
300594.0 598257.0 0
305650.0 598570.0 0
310628.0 598015.0 0
316461.0 596069.0 0
323215.0 597773.0 0
328480.0 597135.0 0
332634.0 593895.0 0
332694.0 598444.0 0
341754.0 596324.0 0
336831.0 597012.0 0
347228.0 596832.0 0
352625.0 597948.0 0
358057.0 595450.0 0
367157.0 596993.0 0
362608.0 597702.0 0
373117.0 596615.0 0
382258.0 593683.0 0
378514.0 596820.0 0
387328.0 597253.0 0
382772.0 598061.0 0
391327.0 594068.0 0
391766.0 598335.0 0
395856.0 596348.0 0
401200.0 597263.0 0
406507.0 598800.0 0
410836.0 596644.0 0
413636.0 593785.0 0
418365.0 595342.0 0
414334.0 597550.0 0
423861.0 596916.0 0
428777.0 595059.0 0
433206.0 597896.0 0
443010.0 595717.0 0
439458.0 597391.0 0
446489.0 597648.0 0
452058.0 597915.0 0
456756.0 596835.0 0
460830.0 597149.0 0
465904.0 596171.0 0
473004.0 593987.0 0
484211.0 594600.0 0
480274.0 597581.0 0
488532.0 594107.0 0
494248.0 594884.0 0
497113.0 598596.0 0
3228.69 599552.0 0
8591.04 601288.0 0
14471.2 599168.0 0
19616.8 599906.0 0
22133.1 602395.0 0
29342.7 599113.0 0
26234.5 602784.0 0
34127.2 599259.0 0
32642.2 603355.0 0
37591.6 603397.0 0
43195.9 601515.0 0
48639.6 599001.0 0
48241.0 603820.0 0
53426.2 599125.0 0
56884.6 602802.0 0
62478.0 602820.0 0
69137.1 601020.0 0
74454.6 599109.0 0
73743.3 603092.0 0
77836.3 602437.0 0
81907.6 599476.0 0
86729.2 601862.0 0
92742.1 602683.0 0
97221.0 601962.0 0
105968.0 599648.0 0
102165.0 603579.0 0
110502.0 602450.0 0
116358.0 601266.0 0
121385.0 599112.0 0
121517.0 603653.0 0
133393.0 601475.0 0
142577.0 599293.0 0
138214.0 602076.0 0
146583.0 602357.0 0
151368.0 601859.0 0
156286.0 602743.0 0
161223.0 602573.0 0
165383.0 598993.0 0
170578.0 602725.0 0
176297.0 602386.0 0
182109.0 601996.0 0
188188.0 601834.0 0
198524.0 600812.0 0
202136.0 603521.0 0
205472.0 601362.0 0
212317.0 601568.0 0
216705.0 601501.0 0
220990.0 601270.0 0
226414.0 601885.0 0
231351.0 601770.0 0
236630.0 602263.0 0
242866.0 601392.0 0
247677.0 602270.0 0
251665.0 600980.0 0
256202.0 602480.0 0
260976.0 602270.0 0
265942.0 601743.0 0
270869.0 601706.0 0
275847.0 602243.0 0
281929.0 601682.0 0
286440.0 601562.0 0
295623.0 599974.0 0
291116.0 601825.0 0
301764.0 603741.0 0
307691.0 601733.0 0
315707.0 601696.0 0
311281.0 603529.0 0
321033.0 602733.0 0
325585.0 601404.0 0
330022.0 602422.0 0
335391.0 601733.0 0
341297.0 602050.0 0
347635.0 602965.0 0
353761.0 603314.0 0
360204.0 602091.0 0
366502.0 602846.0 0
374196.0 601324.0 0
378631.0 602627.0 0
383516.0 602170.0 0
388683.0 602730.0 0
393465.0 601719.0 0
397767.0 601130.0 0
402576.0 602326.0 0
407856.0 602156.0 0
411410.0 601455.0 0
417257.0 601297.0 0
422344.0 601448.0 0
427612.0 601600.0 0
432645.0 602447.0 0
437024.0 601606.0 0
442758.0 601597.0 0
448260.0 601906.0 0
453042.0 603787.0 0
457671.0 600970.0 0
461762.0 603659.0 0
466078.0 601467.0 0
470195.0 598899.0 0
471522.0 602661.0 0
475499.0 599933.0 0
484278.0 599470.0 0
480615.0 602495.0 0
490371.0 599210.0 0
497551.0 603802.0 0
2049.35 604626.0 0
6292.33 605338.0 0
12292.9 604559.0 0
17891.8 604490.0 0
20290.7 607872.0 0
23199.1 606324.0 0
29491.2 607344.0 0
41755.6 606204.0 0
46124.2 607649.0 0
52980.7 605905.0 0
57725.4 607657.0 0
62210.0 607989.0 0
71245.1 606191.0 0
66539.7 606716.0 0
75968.9 607032.0 0
82477.9 604135.0 0
87039.8 607585.0 0
96928.4 606292.0 0
92369.0 607618.0 0
101389.0 608294.0 0
106243.0 604044.0 0
106431.0 608412.0 0
112068.0 608037.0 0
118206.0 607924.0 0
126174.0 604401.0 0
123474.0 608088.0 0
130905.0 606852.0 0
136005.0 605958.0 0
142240.0 604166.0 0
140042.0 608418.0 0
147779.0 607300.0 0
143679.0 607381.0 0
152817.0 606461.0 0
157188.0 607280.0 0
161679.0 607600.0 0
165509.0 604531.0 0
168182.0 607960.0 0
173018.0 608071.0 0
177850.0 606936.0 0
182075.0 607248.0 0
187522.0 607646.0 0
193637.0 603882.0 0
192288.0 608041.0 0
198447.0 606399.0 0
202977.0 607012.0 0
208725.0 606860.0 0
213961.0 608462.0 0
215965.0 605272.0 0
220381.0 606531.0 0
225493.0 607414.0 0
230798.0 606466.0 0
235619.0 607727.0 0
240256.0 607233.0 0
246079.0 607337.0 0
253050.0 607628.0 0
259432.0 607177.0 0
264175.0 607303.0 0
268962.0 606593.0 0
273415.0 606305.0 0
278504.0 607138.0 0
283274.0 606072.0 0
287021.0 605272.0 0
291112.0 607312.0 0
296603.0 604792.0 0
300729.0 608420.0 0
306273.0 605498.0 0
310085.0 607771.0 0
315926.0 607900.0 0
326483.0 606453.0 0
321974.0 608024.0 0
331422.0 607872.0 0
337160.0 606970.0 0
342220.0 606976.0 0
346310.0 608584.0 0
350782.0 607337.0 0
357564.0 608079.0 0
363533.0 607769.0 0
371297.0 604034.0 0
368759.0 607044.0 0
375181.0 606837.0 0
379919.0 607188.0 0
384457.0 606804.0 0
392743.0 605410.0 0
389386.0 608093.0 0
397534.0 606664.0 0
401719.0 605846.0 0
407096.0 606348.0 0
413268.0 606623.0 0
418703.0 606937.0 0
423675.0 605668.0 0
428176.0 607268.0 0
433482.0 607159.0 0
438472.0 605865.0 0
442813.0 607331.0 0
448364.0 607071.0 0
457661.0 605749.0 0
454167.0 609032.0 0
461330.0 608168.0 0
466720.0 607189.0 0
472366.0 606806.0 0
476638.0 605130.0 0
477601.0 608636.0 0
481469.0 607554.0 0
485811.0 604288.0 0
489454.0 608201.0 0
492931.0 604884.0 0
493907.0 609093.0 0
497893.0 608275.0 0
3134.05 609249.0 0
7940.33 609295.0 0
8572.43 614068.0 0
12435.5 609547.0 0
14522.1 613870.0 0
17402.9 609988.0 0
24011.0 610551.0 0
20706.6 613523.0 0
27368.7 611292.0 0
30799.1 612705.0 0
36312.3 609497.0 0
41888.3 610475.0 0
50309.7 609561.0 0
46481.5 611994.0 0
54640.4 612373.0 0
60473.3 612267.0 0
65730.7 611810.0 0
72226.4 612203.0 0
81175.9 609084.0 0
78292.8 613757.0 0
85343.7 612436.0 0
82017.4 613381.0 0
91637.8 613270.0 0
97201.0 611255.0 0
103000.0 613964.0 0
109062.0 613009.0 0
113589.0 612691.0 0
121603.0 612832.0 0
127302.0 611540.0 0
133781.0 612783.0 0
140202.0 613809.0 0
144940.0 611491.0 0
149617.0 612854.0 0
154673.0 611373.0 0
159695.0 611923.0 0
167809.0 611902.0 0
163871.0 612154.0 0
171887.0 613062.0 0
177352.0 612398.0 0
183716.0 612274.0 0
192211.0 611103.0 0
188876.0 612349.0 0
197458.0 612200.0 0
203517.0 611749.0 0
213874.0 611932.0 0
209207.0 613918.0 0
217618.0 611347.0 0
222247.0 611646.0 0
227374.0 612273.0 0
232859.0 612131.0 0
238567.0 612054.0 0
242979.0 611631.0 0
247805.0 613062.0 0
251742.0 612437.0 0
255725.0 613207.0 0
260779.0 612340.0 0
265842.0 611341.0 0
271715.0 612250.0 0
276887.0 611589.0 0
282087.0 612038.0 0
287550.0 610973.0 0
291552.0 613666.0 0
295954.0 610434.0 0
300421.0 612801.0 0
305672.0 611139.0 0
311572.0 612536.0 0
321786.0 612831.0 0
327285.0 611942.0 0
332462.0 612522.0 0
341732.0 611268.0 0
336897.0 612444.0 0
352061.0 611872.0 0
347222.0 613547.0 0
363046.0 612873.0 0
367709.0 611424.0 0
372375.0 610740.0 0
376907.0 611861.0 0
382030.0 611263.0 0
387349.0 613222.0 0
393773.0 611936.0 0
402189.0 609145.0 0
399399.0 612580.0 0
405538.0 613507.0 0
411443.0 611815.0 0
417137.0 612354.0 0
423241.0 611340.0 0
429534.0 612636.0 0
437540.0 609374.0 0
435065.0 612668.0 0
440785.0 612201.0 0
446372.0 612575.0 0
451653.0 613218.0 0
458473.0 612558.0 0
464169.0 612530.0 0
469343.0 612318.0 0
474060.0 611267.0 0
478728.0 612381.0 0
483164.0 611786.0 0
487640.0 612934.0 0
492406.0 612912.0 0
497155.0 612873.0 0
2916.01 614870.0 0
1224.8 618625.0 0
6376.12 618289.0 0
12027.1 617688.0 0
17821.3 617515.0 0
21925.8 618008.0 0
25874.1 615485.0 0
34820.6 614628.0 0
31265.4 617547.0 0
39263.9 614269.0 0
41922.2 617618.0 0
50131.3 614141.0 0
46114.6 616884.0 0
52503.4 618291.0 0
58192.7 617058.0 0
63469.8 616559.0 0
68045.0 616261.0 0
71635.0 618467.0 0
76725.1 618840.0 0
81798.5 617167.0 0
86898.4 616973.0 0
97074.5 617174.0 0
107203.0 618243.0 0
116910.0 615246.0 0
112318.0 617254.0 0
122887.0 617972.0 0
128748.0 617734.0 0
139602.0 617943.0 0
144667.0 616569.0 0
148699.0 618053.0 0
153332.0 616880.0 0
158368.0 616185.0 0
162985.0 616406.0 0
168258.0 616772.0 0
174132.0 616106.0 0
177492.0 617878.0 0
181835.0 617205.0 0
186726.0 617310.0 0
192395.0 616040.0 0
197514.0 617845.0 0
201784.0 616381.0 0
214647.0 616263.0 0
219052.0 616833.0 0
222500.0 616870.0 0
226758.0 617931.0 0
232020.0 617172.0 0
237210.0 617180.0 0
242317.0 616278.0 0
246974.0 617895.0 0
252500.0 616874.0 0
256687.0 617843.0 0
261516.0 617522.0 0
267179.0 617012.0 0
272641.0 618063.0 0
277565.0 616148.0 0
282062.0 618944.0 0
286728.0 616058.0 0
291378.0 618683.0 0
296668.0 616587.0 0
302578.0 617114.0 0
307543.0 616518.0 0
312168.0 617629.0 0
316751.0 614358.0 0
320926.0 617790.0 0
326408.0 617886.0 0
331734.0 617044.0 0
337531.0 618106.0 0
342974.0 616159.0 0
347494.0 618625.0 0
352887.0 617777.0 0
357774.0 614362.0 0
366453.0 615940.0 0
362379.0 617278.0 0
371963.0 615673.0 0
376717.0 616372.0 0
380938.0 616247.0 0
385162.0 618529.0 0
391349.0 617930.0 0
396885.0 616982.0 0
401753.0 617817.0 0
407936.0 619065.0 0
412754.0 616766.0 0
417744.0 618062.0 0
422256.0 616472.0 0
426477.0 617194.0 0
432684.0 616657.0 0
437437.0 617324.0 0
442891.0 616994.0 0
448062.0 617939.0 0
452269.0 617142.0 0
456406.0 617692.0 0
461685.0 617352.0 0
467308.0 617104.0 0
472747.0 615801.0 0
477277.0 616784.0 0
482244.0 616516.0 0
488607.0 618244.0 0
493090.0 616638.0 0
497780.0 617625.0 0
2838.55 622333.0 0
8119.56 622717.0 0
13374.7 622496.0 0
18112.9 622040.0 0
22223.0 624049.0 0
27249.3 621486.0 0
32760.5 623118.0 0
37170.1 619301.0 0
42145.0 622488.0 0
47711.6 621799.0 0
52143.8 624029.0 0
56772.8 622364.0 0
62052.2 621515.0 0
67603.6 621777.0 0
73080.4 623352.0 0
78483.9 623970.0 0
84330.1 622536.0 0
91564.0 619470.0 0
89812.8 623972.0 0
94510.5 623710.0 0
101948.0 619237.0 0
99129.2 622407.0 0
104211.0 623543.0 0
109008.0 622463.0 0
112971.0 621834.0 0
116082.0 624030.0 0
118138.0 620102.0 0
122296.0 622896.0 0
135282.0 619556.0 0
139183.0 622993.0 0
143553.0 621542.0 0
147110.0 623866.0 0
151119.0 622128.0 0
157327.0 621698.0 0
163065.0 621180.0 0
167875.0 622627.0 0
173006.0 620441.0 0
178049.0 622441.0 0
183322.0 621996.0 0
188177.0 621813.0 0
192636.0 621577.0 0
197313.0 622491.0 0
202469.0 621759.0 0
205980.0 619225.0 0
208131.0 623688.0 0
212727.0 621570.0 0
217500.0 621702.0 0
222500.0 621571.0 0
227994.0 623230.0 0
232927.0 621794.0 0
237796.0 622080.0 0
242755.0 620854.0 0
247957.0 622189.0 0
252134.0 621098.0 0
256411.0 622069.0 0
260835.0 622529.0 0
265609.0 622211.0 0
270805.0 623172.0 0
276997.0 622199.0 0
282334.0 623342.0 0
286939.0 621947.0 0
292532.0 623799.0 0
298625.0 622899.0 0
304062.0 621749.0 0
308309.0 620912.0 0
312868.0 622818.0 0
316396.0 619220.0 0
318536.0 623765.0 0
323327.0 621905.0 0
327891.0 623112.0 0
333220.0 622515.0 0
337932.0 624066.0 0
342716.0 621936.0 0
351138.0 622802.0 0
358035.0 619879.0 0
362925.0 622902.0 0
368459.0 620241.0 0
373300.0 623707.0 0
378386.0 620650.0 0
382877.0 623084.0 0
388351.0 623201.0 0
393431.0 623157.0 0
398027.0 622072.0 0
403357.0 622630.0 0
408043.0 624112.0 0
412765.0 621998.0 0
417866.0 623220.0 0
422307.0 621069.0 0
426934.0 623242.0 0
430092.0 619850.0 0
434632.0 622673.0 0
440843.0 622255.0 0
452360.0 622279.0 0
459122.0 622851.0 0
464250.0 621382.0 0
469126.0 622618.0 0
474446.0 620685.0 0
479515.0 621290.0 0
484273.0 621007.0 0
488163.0 623443.0 0
493154.0 620579.0 0
497569.0 622256.0 0
1350.53 626766.0 0
5385.83 627268.0 0
10619.9 627039.0 0
17216.4 627268.0 0
23670.4 629029.0 0
28267.0 626930.0 0
33166.4 628498.0 0
37555.7 624708.0 0
38022.9 629206.0 0
42342.4 627635.0 0
47037.3 626955.0 0
51695.0 628762.0 0
57033.1 627925.0 0
62394.6 626764.0 0
67059.6 626707.0 0
71164.6 628304.0 0
75982.6 628204.0 0
81785.0 629013.0 0
87170.4 627398.0 0
92053.5 628246.0 0
97788.6 627834.0 0
103206.0 629194.0 0
108590.0 627321.0 0
113954.0 627799.0 0
119403.0 627216.0 0
128281.0 625134.0 0
134932.0 624764.0 0
133573.0 629051.0 0
138590.0 627493.0 0
143467.0 626571.0 0
147040.0 627766.0 0
151473.0 627932.0 0
157418.0 628046.0 0
162834.0 626358.0 0
167731.0 627628.0 0
173387.0 626732.0 0
177920.0 627712.0 0
181734.0 627214.0 0
187123.0 626512.0 0
193325.0 627501.0 0
198772.0 626481.0 0
202966.0 626374.0 0
207345.0 628039.0 0
212269.0 626965.0 0
217524.0 626471.0 0
222452.0 626595.0 0
226541.0 627755.0 0
231378.0 626497.0 0
236422.0 626801.0 0
241637.0 625474.0 0
247259.0 627296.0 0
253401.0 626360.0 0
258683.0 626752.0 0
262689.0 626575.0 0
267104.0 627047.0 0
273328.0 627598.0 0
277770.0 627709.0 0
281742.0 626849.0 0
286919.0 627149.0 0
290950.0 628320.0 0
296055.0 628873.0 0
301802.0 627168.0 0
306150.0 626001.0 0
310516.0 626833.0 0
314959.0 628296.0 0
320013.0 628778.0 0
325545.0 628444.0 0
331245.0 627457.0 0
336008.0 628067.0 0
341915.0 628614.0 0
346941.0 625375.0 0
351306.0 628226.0 0
356562.0 625190.0 0
361324.0 629001.0 0
367898.0 627471.0 0
378848.0 627881.0 0
384998.0 627538.0 0
389885.0 628474.0 0
394766.0 627487.0 0
400096.0 627200.0 0
404119.0 626466.0 0
407172.0 629029.0 0
413099.0 627356.0 0
418153.0 627941.0 0
422608.0 626168.0 0
427200.0 628503.0 0
431668.0 626914.0 0
436322.0 627867.0 0
441360.0 628039.0 0
446347.0 624564.0 0
451473.0 628973.0 0
457278.0 628433.0 0
462067.0 627673.0 0
467346.0 628751.0 0
473581.0 627216.0 0
484107.0 625146.0 0
479706.0 626902.0 0
487510.0 628951.0 0
493102.0 626060.0 0
497910.0 628166.0 0
2251.05 631183.0 0
5504.82 633294.0 0
10549.4 632983.0 0
17093.6 633758.0 0
22573.6 633794.0 0
27845.7 632514.0 0
33311.2 633957.0 0
38731.7 634009.0 0
47149.6 632762.0 0
53066.1 633749.0 0
58245.6 633223.0 0
63542.7 632104.0 0
68411.6 631931.0 0
72796.3 632836.0 0
77428.9 632760.0 0
82591.2 633946.0 0
87362.5 631799.0 0
92606.2 633419.0 0
98307.3 633363.0 0
102958.0 633902.0 0
107349.0 632516.0 0
112244.0 631939.0 0
117313.0 631867.0 0
121396.0 633383.0 0
123912.0 629864.0 0
125461.0 634120.0 0
128159.0 631139.0 0
137322.0 632468.0 0
142934.0 631838.0 0
148028.0 631712.0 0
153313.0 633357.0 0
162932.0 631447.0 0
158563.0 633389.0 0
167352.0 632166.0 0
172156.0 632601.0 0
177548.0 631492.0 0
182510.0 632134.0 0
186765.0 631592.0 0
191006.0 633157.0 0
197791.0 632339.0 0
203476.0 631303.0 0
208223.0 632558.0 0
213249.0 632091.0 0
218084.0 631524.0 0
222101.0 631497.0 0
225907.0 632039.0 0
230897.0 632002.0 0
236686.0 632021.0 0
242515.0 631417.0 0
248073.0 632839.0 0
252467.0 632520.0 0
256702.0 631020.0 0
261166.0 632997.0 0
266722.0 632844.0 0
272404.0 632229.0 0
277882.0 632954.0 0
283205.0 630973.0 0
288482.0 632607.0 0
293403.0 633295.0 0
301118.0 631766.0 0
307512.0 632108.0 0
313453.0 633239.0 0
318540.0 633547.0 0
323099.0 632970.0 0
327399.0 633976.0 0
332164.0 632353.0 0
337474.0 633460.0 0
347125.0 630515.0 0
351702.0 633651.0 0
356212.0 631028.0 0
363891.0 633594.0 0
367904.0 632540.0 0
373061.0 630507.0 0
377166.0 633166.0 0
382447.0 631722.0 0
386638.0 632527.0 0
392417.0 632892.0 0
397583.0 632252.0 0
402523.0 631803.0 0
406600.0 634039.0 0
411580.0 632342.0 0
417280.0 633302.0 0
422655.0 631482.0 0
427644.0 633703.0 0
432565.0 631678.0 0
438077.0 632501.0 0
443219.0 633474.0 0
446057.0 629692.0 0
448263.0 633416.0 0
457341.0 633065.0 0
462234.0 632781.0 0
467097.0 634056.0 0
472285.0 633432.0 0
477799.0 632049.0 0
482891.0 631895.0 0
487941.0 634074.0 0
492474.0 632057.0 0
497362.0 632147.0 0
42833.9 635809.0 0
132026.0 634614.0 0
297308.0 634755.0 0
342709.0 634555.0 0
347132.0 634492.0 0
359376.0 634759.0 0
372496.0 634974.0 0
452860.0 634714.0 0
POINT_DATA 5000
SCALARS Radius float 1
LOOKUP_TABLE default
5415.48 5120.0 6182.6 5073.35 3850.77 4834.9 3863.18 5085.53 2356.98 4998.37 5492.18 5258.36 5061.3 3163.97 5812.43 5906.14 5733.48 5580.89 5645.7 6810.52 5840.26 6110.27 3672.51 5670.04 6716.79 3936.02 4133.88 4665.12 4094.62 5546.39 6044.04 5484.83 5351.6 4715.55 5867.73 3951.75 3642.12 4499.64 5542.27 5122.66 5484.19 3557.27 7513.1 5254.28 4688.68 4436.4 4402.52 4517.56 4182.53 4672.91 5903.42 3588.44 3761.32 5176.86 4366.19 5553.16 4940.78 5561.06 4008.92 3615.22 4380.59 3379.84 7613.27 4951.03 4333.2 4780.03 5495.39 3856.1 3383.4 4927.02 6483.19 5945.65 5325.36 5538.89 4730.36 6059.59 5013.56 2720.68 5701.86 4375.68 3563.63 4238.81 5054.98 4468.59 6030.06 5170.02 5200.76 4927.31 4862.64 5185.34 4432.58 6684.56 3955.56 3968.64 5292.64 4118.05 6166.5 5065.13 2938.66 5936.02 5305.17 4231.61 3942.53 4827.82 4805.87 3607.45 3589.27 5759.91 3038.33 5529.52 6124.89 5252.48 3554.9 3996.0 5980.74 4044.71 5109.54 4174.52 6230.49 6759.9 7021.47 5416.38 5926.61 4955.55 5836.15 4345.55 5885.03 2837.58 3871.88 5325.02 5246.2 5017.13 5279.39 3673.74 5205.43 7447.37 4688.67 2635.86 4385.06 7184.19 4290.3 4861.08 4003.05 4712.33 5227.21 3997.1 4295.38 3260.67 5123.52 7199.21 4392.68 5255.32 4049.23 5337.48 4929.8 5481.78 5708.81 5542.21 4015.92 4487.31 5043.05 5816.2 4002.16 4138.16 5693.81 3829.13 3091.3 6458.82 5418.62 4601.27 5493.32 5740.68 4277.89 6051.14 3261.21 4195.44 6704.06 6496.85 3653.41 5600.93 3856.01 5541.59 4390.66 4124.71 4827.23 4911.47 6116.18 4381.97 4924.6 3255.82 4733.32 2899.43 2812.98 2924.37 3867.67 5399.73 5390.22 3888.21 4660.72 6038.78 5697.78 4667.36 5615.42 4091.31 4254.17 4523.7 7565.34 6037.08 6756.95 4151.94 4685.34 4382.74 5601.05 4651.28 4384.42 3586.91 4516.43 3103.0 5637.59 3307.12 4937.14 5924.89 4778.34 3486.22 4684.5 5789.98 7054.71 5489.43 5573.7 3641.64 5747.75 5054.25 4796.33 5539.32 5360.19 4794.96 4874.39 5083.08 5728.85 6337.56 5803.39 5863.59 3998.5 4024.3 6257.19 5242.73 5555.28 4065.69 4737.14 4686.65 5603.15 5556.96 4695.45 6052.7 3921.18 5891.05 6902.81 3666.57 6644.76 6372.62 5629.19 5090.24 5091.39 2240.39 5923.5 5096.78 6324.23 4129.43 4727.24 3320.52 4931.38 4329.05 6082.81 5927.43 6355.42 4362.19 4948.92 3115.91 3693.63 4493.48 6084.86 5478.92 5551.36 6894.71 4414.54 6138.47 2540.31 6029.66 5527.54 5697.4 4727.62 4270.95 4055.8 7325.81 5280.17 6425.26 5143.58 6186.19 4839.34 4484.76 2980.99 6834.49 5525.39 5173.87 5938.34 6394.38 5118.27 5169.36 5834.74 5788.23 3798.62 5581.75 6392.01 5308.1 4937.02 5655.21 4786.6 5740.84 5530.87 4612.68 4973.83 5293.9 3912.37 6142.94 3843.58 4194.5 4602.25 5191.63 4792.73 4501.51 4736.58 3485.26 4556.36 3240.09 5110.37 3191.99 6327.9 5492.26 5690.56 5762.84 4749.8 5082.6 5810.84 5094.44 4230.54 4655.49 4467.94 4850.81 4933.21 6038.14 5120.49 5262.61 6302.8 5409.61 6038.2 4005.44 5206.78 5555.88 6732.43 5028.96 3866.16 6362.12 5152.36 4840.01 5611.2 7933.0 4455.12 4816.2 4894.16 5380.13 5711.87 4941.22 3372.79 5932.23 4479.66 5367.2 3043.85 5461.13 6730.19 3599.45 4907.89 4907.06 3735.44 4073.93 4645.41 4433.59 6445.94 4310.18 4281.49 6342.25 4218.06 6691.39 4270.53 4790.08 5082.47 5344.25 5344.0 4043.57 4478.15 5379.87 3708.04 5513.6 4901.41 5664.98 5264.06 3688.8 4048.37 4659.59 4548.16 5449.18 4220.88 5244.78 3937.74 6640.13 5478.47 3748.24 6142.37 6061.47 6163.38 5375.47 4566.18 4723.12 4964.09 5201.36 5024.9 4306.53 5659.17 5094.81 5972.06 5713.22 4312.67 5861.71 4359.04 3183.98 3794.63 4524.28 3778.1 4727.24 4511.82 5826.64 4220.65 6820.42 6321.41 4896.52 4751.02 5184.56 5282.64 5791.61 3369.13 4808.52 4669.66 5607.24 4726.76 5839.13 5495.68 5163.9 5489.34 6043.3 5952.75 4320.28 5542.14 4931.53 7134.64 5978.9 3629.62 4840.84 4187.56 4997.27 5135.69 4593.7 6045.46 4763.45 4150.99 4107.03 5681.38 3771.48 4138.42 5925.6 5987.17 3979.82 6013.14 2765.2 5138.31 4602.86 4621.75 3369.23 4551.24 5358.59 4515.71 6519.71 4322.15 3092.35 5210.03 5351.39 5119.37 3982.23 5806.08 3459.9 4997.27 4093.08 4809.42 4717.05 5287.2 6135.57 5998.38 5423.8 4270.24 4989.15 5017.78 4164.13 5015.69 6175.81 4947.52 6677.09 4305.57 6959.81 4829.35 5201.67 4424.7 4089.76 4754.05 5526.55 3192.41 6084.93 4987.87 3315.57 4715.72 5804.71 4764.96 5046.33 4242.52 5053.92 6352.26 3057.03 3847.38 3818.59 4863.72 5002.48 5708.14 5537.72 4262.82 3920.42 6332.36 6122.55 5480.13 2739.94 4223.33 6308.71 4716.19 5514.76 4301.06 3456.98 3815.26 4290.14 4020.32 5445.87 4704.72 4216.92 4177.94 4571.7 4742.68 3929.19 4502.5 4271.69 5922.5 5198.77 5643.58 3970.25 5147.67 5577.04 4292.06 5011.31 5006.58 4481.53 5586.81 4581.13 3856.59 4219.07 3610.4 6387.01 5367.52 4714.54 5025.39 3629.96 5893.5 3320.11 5030.91 6022.17 4583.31 4503.89 5243.29 4336.42 4853.39 4449.22 5543.27 5856.11 3327.49 4109.88 4234.94 4562.29 5013.13 5080.66 3417.33 4926.42 4642.34 5248.77 4083.97 4520.1 5874.89 4293.03 5813.4 4389.21 3791.79 4128.98 4925.44 4951.47 4307.28 5215.15 4739.42 5538.93 5020.12 5727.3 5281.28 5356.51 4277.88 4087.15 4758.21 4143.08 7500.97 6623.85 5102.36 8332.24 6155.31 5911.67 5329.64 3323.28 6695.82 6405.76 4877.67 6562.18 3498.2 4245.72 5908.1 4344.58 6048.7 5634.83 5896.46 5495.84 5113.21 5782.6 4862.21 5499.11 3633.87 5347.48 2775.04 4850.01 5215.05 4986.77 6318.18 5330.45 3948.17 5077.33 4746.52 5413.79 5572.95 6338.89 6202.55 7111.16 3817.13 4547.19 5507.24 6851.54 3813.22 5570.3 4306.11 7589.94 3130.65 5628.24 5004.67 5365.89 5992.26 3960.8 5070.39 4980.85 5714.58 5110.45 5208.32 3296.27 4713.25 4607.02 5153.74 3895.51 4528.09 4165.81 3556.85 6291.51 5174.89 5882.89 6246.22 4188.32 5246.61 4100.38 3697.96 5344.77 4723.48 4899.11 5097.87 4745.45 2631.9 6255.18 4668.71 7228.46 3948.23 5228.18 5787.31 4342.9 5065.11 4553.56 5069.84 4051.44 6049.55 5709.62 5835.78 3066.13 5794.24 4541.21 4302.5 4156.38 6009.88 5316.75 4164.68 5022.8 6268.1 3784.5 4178.4 5820.48 7034.11 6261.42 4011.77 4527.08 4810.12 4374.35 4138.46 6898.19 3821.72 6035.6 5137.34 5198.29 5423.0 5125.78 3689.45 3824.16 3868.18 6723.16 5372.61 5584.06 3686.21 6480.17 5023.15 3844.9 4377.07 3695.36 5101.59 3963.86 3848.93 6020.48 5935.47 3402.32 5200.05 5903.66 4528.49 5419.37 4466.03 5409.33 4511.54 5196.0 4923.9 4613.31 4973.78 3329.99 3947.47 6119.09 5091.68 4204.84 6243.0 6673.96 3161.47 5441.96 3435.9 4288.3 5370.52 4652.29 5774.81 3746.31 5498.32 5027.98 5346.27 4278.07 6475.1 7267.18 2691.29 6256.02 2845.98 5320.92 5269.18 4406.1 6362.14 5034.59 6719.88 5978.82 3927.99 5266.5 5868.82 4050.9 4241.89 4099.77 5054.74 4981.9 5941.72 4537.32 5105.16 4127.74 2476.04 6006.16 4678.38 5448.61 5050.65 4827.33 7055.53 6133.92 5729.23 3719.84 5669.65 5934.22 3780.23 3471.03 5253.55 4359.62 5011.84 6946.21 2586.12 5433.8 6125.34 5975.63 5965.78 5252.34 6396.74 2965.79 7099.43 5526.14 6449.45 4044.45 3975.31 5344.43 4373.47 5045.38 5350.88 5130.91 5402.24 4519.22 6445.22 4564.34 4871.44 5076.35 6375.99 5234.29 5273.35 5313.66 2651.49 5512.23 5275.32 5985.29 4898.94 4247.23 4178.15 4694.83 4733.04 4354.08 5788.66 7531.29 5069.25 3903.75 5048.89 5935.03 3991.03 6390.78 7435.25 6826.57 4788.87 4495.87 6022.72 4643.31 5527.33 6917.52 4969.21 4880.14 4982.31 5289.52 5314.85 4305.43 5450.44 6510.17 4942.77 4263.33 5080.18 4454.63 4523.88 4066.38 3279.1 4978.31 4948.98 5227.52 4414.48 5163.02 5991.09 4656.78 5126.91 3942.07 7443.72 3937.08 5371.02 5513.57 5013.67 5260.34 5206.48 6586.45 5826.04 5624.49 3095.48 5339.78 4861.06 4166.08 6481.79 5960.66 3979.26 3999.48 6608.73 4203.26 3745.84 5188.81 5696.88 6057.22 5690.26 5062.71 4156.2 4497.59 5564.02 4274.61 4410.55 4287.63 5315.4 4516.28 3627.82 5262.19 4244.9 6070.58 6034.41 5022.28 5452.83 4959.34 4948.5 4527.02 4591.87 4531.14 4247.15 5013.42 3838.56 6552.22 5651.07 4602.85 6248.81 5872.05 4091.8 4853.02 4645.58 5181.4 5670.2 4711.62 4114.24 5349.31 4268.65 5509.42 4256.43 5936.36 4520.62 5229.48 4755.47 4485.99 5127.16 5475.8 5314.69 6050.81 4244.99 5543.46 4249.46 5965.81 3702.37 4750.17 5660.85 2330.66 4177.19 3990.25 3691.0 4752.51 5402.21 3587.05 4989.09 6718.19 4307.48 3848.54 5941.4 5331.02 4871.96 5742.65 5592.32 5912.61 4403.98 4560.84 4729.43 6086.96 4092.24 5233.78 4562.74 5776.57 7144.24 5133.97 3600.43 6600.94 4788.58 6155.1 4709.35 5226.0 5876.71 4373.3 4750.78 5762.59 5320.28 5374.51 5224.12 4850.14 4796.58 4298.67 5873.69 4962.09 6222.42 5654.31 4730.41 4643.85 3923.03 4004.04 5607.14 6915.83 4289.17 6072.45 6444.77 6314.07 5759.46 5776.37 3921.08 4190.31 5678.96 6048.86 4285.32 5490.43 4986.51 5197.52 5178.99 5383.07 4790.78 6422.84 4502.18 5379.09 5210.48 4962.77 7552.94 6101.92 6259.23 5088.44 4662.56 4998.21 5166.79 2976.22 4649.22 5394.55 5094.52 4946.74 2682.24 5928.32 5415.19 5475.7 4612.62 4016.18 5526.75 5435.74 6385.23 5327.45 5560.26 6185.89 3997.96 4439.35 3460.94 6184.4 3758.07 4373.45 4236.14 6229.37 4407.87 5282.51 5282.91 3797.33 4425.84 7256.35 4800.69 4863.23 3555.86 4402.67 5381.16 4470.61 5565.13 6193.35 6887.27 3701.27 4806.34 5683.26 5598.74 4906.82 5131.24 5687.83 5196.67 6496.67 5474.8 6262.72 5029.78 3365.82 4163.5 3664.11 4123.6 7092.87 4143.78 4970.88 4538.95 6739.08 4763.66 4471.58 4569.12 3637.61 6098.14 4472.17 5750.71 4938.74 5470.77 3474.39 4831.47 6062.05 5082.74 5411.85 5092.37 4844.57 4864.22 4027.46 4470.98 3901.8 5511.88 5083.41 7055.42 3836.45 5486.68 5683.61 5100.25 6894.26 5311.03 5339.38 6169.11 5615.35 4027.09 5172.53 4135.62 5801.99 5534.94 7644.38 4051.34 3627.55 5323.3 4635.6 4256.67 3457.48 3931.07 3405.98 5417.15 3688.16 4681.72 3949.6 4945.39 5996.33 3950.63 6631.19 3619.07 4275.57 4467.04 5626.61 5817.25 2983.99 2614.4 6363.92 6205.93 4923.24 5830.72 3828.81 7177.44 5309.98 4082.57 5733.62 5169.9 3004.16 4460.92 5945.89 4042.28 4105.55 4340.76 6566.1 6065.22 6386.78 4221.28 4631.83 4996.99 4896.39 4384.88 5480.83 6008.49 4220.46 5653.9 5046.21 4929.14 5894.61 5139.5 5004.23 6442.69 4814.55 4648.04 6320.71 3527.05 6607.87 6515.84 5724.64 5965.15 4666.81 7042.12 4797.52 4780.2 6326.39 5163.55 4319.79 6643.85 6343.14 4020.95 5501.93 5462.21 5463.38 6313.06 5945.21 3493.7 6470.3 4200.03 6939.12 4735.33 4413.85 4406.4 3999.94 6171.13 2395.5 3497.9 5941.61 4512.11 6248.6 5443.58 4558.46 5805.86 4049.02 5346.68 4470.4 5296.29 4611.53 5255.12 5094.48 4285.66 4896.11 4238.4 4318.48 6132.95 5266.22 4860.33 3685.13 3312.06 6004.68 6799.4 6239.84 5865.39 4427.28 6079.11 3082.32 6430.39 7440.72 3658.37 5376.71 5703.6 6326.18 5661.62 4807.28 4867.08 4266.03 6648.68 4713.74 5407.78 4084.49 5061.98 6632.99 4537.6 5147.36 4419.61 3963.76 4563.46 6553.94 5255.18 5460.65 4767.78 5235.17 4779.5 4421.12 4435.36 5254.49 6649.96 4456.39 5514.84 3633.79 6081.14 3914.2 5421.53 4607.85 4287.53 5612.21 6000.7 5945.08 3169.67 3979.54 7493.3 4968.03 5944.09 5833.06 4863.79 5698.77 5117.47 3464.83 2477.07 2990.77 3163.78 4925.63 4888.6 4305.16 3293.56 5078.86 5882.65 4918.77 4819.73 4636.5 6817.32 3382.7 6471.55 5085.71 2965.01 6263.44 5960.56 5774.97 5122.63 5862.86 6049.79 5374.98 6345.13 5226.56 5274.19 4719.7 5516.95 5599.49 4097.57 5313.22 3905.51 5563.79 6853.85 4151.76 4020.4 3493.47 4596.75 4933.65 5782.48 4031.78 6098.1 5708.99 5687.85 6401.43 5020.71 2681.29 5997.88 5839.71 3872.61 5576.92 6408.83 3930.79 4004.35 5226.97 5754.18 5180.76 3361.26 3418.99 4480.95 5278.36 4409.63 5521.25 3661.9 5370.85 5949.46 3178.54 4765.02 3776.94 5629.39 4448.13 5070.29 2261.36 4768.61 5075.55 5280.69 4220.03 6923.84 5227.59 5449.46 6179.96 5703.07 6113.54 4662.43 6260.79 4043.66 5528.53 6799.88 5726.66 5426.78 5652.0 2967.38 4159.35 5463.41 5225.33 4237.98 4929.75 6045.22 4614.3 5134.39 4303.19 5784.3 4256.57 6088.68 5937.08 4135.08 6070.3 5128.57 5620.74 5233.29 5604.21 4612.06 5304.13 5204.04 3361.92 3306.14 5490.58 5395.14 4702.06 4923.41 4497.31 4721.32 3830.46 6413.11 5092.28 5274.14 4739.14 4434.19 4903.82 5100.1 4940.42 4371.99 3954.91 3703.1 5923.4 4946.42 3295.83 4963.34 5081.78 5644.82 5499.39 6413.02 4407.9 4440.57 4863.27 3492.19 4118.84 4584.5 6766.43 5548.29 2315.64 4703.08 4390.41 4890.5 6113.95 4050.08 5452.42 5017.5 3436.15 5328.22 4216.17 6484.17 4721.02 4938.72 4254.37 3546.71 5768.57 3374.08 5564.23 5950.04 4231.83 4074.48 2435.33 6333.29 4558.47 5731.57 5662.55 4360.23 6234.32 5365.24 5293.51 4763.96 4446.06 5008.63 5132.68 4270.74 6595.03 4993.35 6218.95 5222.16 5107.23 5136.08 5558.68 4802.32 4010.57 4599.38 2684.03 5246.47 6157.04 6191.29 4522.21 7422.36 5506.19 6719.94 4950.67 5832.37 6166.29 5453.6 5409.63 5294.77 4709.05 4630.82 4813.08 5860.67 3062.43 4540.86 5990.52 4835.83 5604.35 6477.91 3091.67 6439.37 4081.97 5401.99 5580.92 3532.3 5769.98 3583.21 5442.32 2221.99 4643.56 4863.01 5356.79 4312.56 4778.82 6124.08 5467.84 4750.58 6710.88 3967.48 6667.68 5235.11 6213.04 6031.67 5529.42 5384.76 5257.12 4965.89 5746.28 6090.91 5187.7 4152.85 3561.29 4082.47 4219.78 4188.3 4623.61 5019.93 4459.28 3885.86 5235.29 5177.64 4255.31 6116.33 4260.92 4479.94 6250.23 4718.54 6736.03 6235.57 5412.31 3623.87 3087.09 5916.16 5163.77 6934.37 3731.84 3423.15 4488.85 3981.07 4579.69 3554.48 4901.07 6496.52 5186.3 5005.85 5711.11 4575.94 5325.44 5021.88 5956.65 4498.25 4188.87 3735.24 6574.95 6817.57 3614.96 4477.04 3886.68 5703.74 4747.55 5737.92 3056.7 3755.95 5591.76 4585.31 4586.19 6625.18 5323.91 3450.93 5097.45 6293.89 5737.75 4558.15 2761.07 4983.39 3778.02 5366.52 4690.55 5533.72 5533.42 3678.08 7132.12 5518.57 4187.31 5463.48 3240.51 4527.99 5161.01 4376.7 4298.15 4628.4 6051.83 4642.93 3973.12 4263.16 3077.84 6642.76 6024.75 6109.49 5567.93 5987.42 5332.65 3764.1 6451.33 5413.31 6316.56 4332.87 6420.81 4715.58 5208.14 3317.83 4450.7 5151.52 5973.33 4347.74 5291.9 5067.46 4009.62 3580.58 2511.46 4011.37 2775.69 5657.36 6519.43 3619.79 5876.64 5029.47 5053.95 6306.21 5926.11 5253.37 5211.38 5767.9 6515.8 6622.11 4689.15 6138.12 4428.78 5243.43 5659.95 5920.32 5409.66 4537.14 5551.9 4453.64 4345.67 5511.6 6261.75 4765.72 4517.73 4338.08 6415.61 4752.14 4378.3 5037.06 5660.16 4541.8 6134.99 4094.73 5453.3 3838.47 4062.5 2588.37 5887.15 5203.08 4435.51 5374.07 7480.41 3766.55 6027.62 5010.2 6123.03 4997.83 5966.61 4893.49 4834.87 5102.75 4597.29 4200.09 5931.77 5097.95 5151.21 5108.06 5398.64 3573.73 4693.52 6853.04 3420.08 4745.43 4912.04 5831.96 5464.68 4475.83 2685.81 4510.8 5889.35 5010.04 4570.98 4394.56 4275.07 5825.38 4185.61 4047.87 5742.47 4917.99 6552.21 5417.8 5146.37 4836.16 5300.96 5151.11 5680.94 5730.33 5545.46 4543.1 5190.61 6550.44 8325.01 4440.81 3764.06 4523.39 5941.9 5434.47 5829.22 4497.78 4243.79 5811.18 5433.65 4442.22 4887.76 4008.15 4669.06 4811.32 3012.99 6400.08 4743.59 5829.32 4396.25 3763.05 5092.24 5369.08 3101.75 4518.04 4766.06 4874.18 2081.58 6505.78 4785.25 5461.55 4270.15 5424.46 5266.01 2978.76 2040.66 7016.27 5884.9 3685.13 5089.62 4590.55 6790.73 3876.21 4655.16 5869.4 4741.26 4916.22 4186.6 3701.16 6022.7 5251.4 4255.85 3867.19 5097.69 2908.7 5857.79 3757.34 4642.66 4039.91 5276.7 4687.64 4419.71 4888.12 5469.47 5411.02 4244.21 4950.97 5512.16 4989.56 3197.63 4287.16 5175.29 5842.56 4863.96 5191.08 5199.44 5424.88 5415.85 8659.64 6599.66 4588.7 4055.54 5683.95 5469.13 5765.42 4233.8 6098.95 4976.12 5453.98 5148.08 4388.63 3991.42 3718.69 4514.79 2216.82 3672.21 4509.89 5760.22 5938.17 5269.38 4795.43 5607.3 2928.82 4914.45 4222.4 4698.87 4000.43 4661.03 4568.41 3624.7 5262.35 4691.91 4539.07 4255.34 5064.79 5480.3 7509.24 5896.26 5388.78 6101.13 4573.72 5099.21 6969.28 5636.4 4367.78 4350.12 5227.02 3603.51 5670.0 5222.51 4232.16 6609.84 4344.51 5135.96 3834.43 3781.77 5581.55 5193.01 3474.5 4250.88 3860.83 6348.03 5732.27 4792.39 5278.56 5146.37 6917.62 4013.38 5631.14 4343.78 5263.3 4909.65 6523.86 7693.4 4326.48 4286.49 4437.07 6184.88 5491.9 6405.0 5551.95 3918.87 4659.16 5549.49 4633.05 5423.42 6605.86 5012.5 5435.19 3562.79 7093.13 3298.2 6865.76 4953.1 6449.64 4857.84 4908.49 6464.8 4962.21 4749.59 4858.44 3468.42 3685.65 5799.69 4673.35 5689.26 4992.42 5297.19 4940.84 5895.77 4732.09 3988.3 5750.07 6136.49 6543.13 5149.72 5036.58 4356.25 5329.59 5776.96 6119.63 5464.25 3821.94 5439.9 3498.16 4752.9 5301.47 4617.55 3645.12 3875.05 3456.47 5471.74 6200.54 4652.01 5148.58 4199.45 5421.64 7234.66 4207.54 4886.12 6419.12 4301.61 6107.89 4446.84 4817.16 5530.49 5660.55 5653.03 6192.0 4940.28 5885.28 6752.75 3004.34 3022.6 5375.1 4811.76 5313.12 5351.56 3984.88 5160.59 4732.09 4320.42 7165.9 5344.83 7046.11 3427.63 4146.81 6342.48 5756.75 4587.67 5599.7 4163.74 3924.14 3665.95 4296.69 5698.96 3319.67 4095.75 4298.45 6471.42 5283.8 4076.59 5164.1 6464.15 5658.37 4707.06 4972.17 6074.94 5491.37 4222.77 3783.54 3475.67 5268.38 5527.23 7038.89 3863.67 4814.12 5067.56 6137.8 3352.35 2735.53 3747.03 5116.6 2783.85 4356.49 4526.81 3994.07 4219.94 3449.37 5907.46 6740.71 4264.91 5399.29 5789.55 2275.45 4909.31 4901.2 6522.59 5711.62 4383.56 4990.79 5166.79 4516.53 2895.63 5818.95 4093.99 3940.49 3604.14 4452.54 4684.44 4406.05 4680.94 5828.35 5876.72 5571.72 3809.69 4771.13 3208.96 7051.9 4608.41 4184.23 4833.46 4351.38 5550.75 5933.7 4809.67 4757.74 6045.67 4216.95 4209.49 5742.74 5280.12 3946.28 4444.97 5984.81 5721.05 4209.31 5486.48 4409.27 5367.73 4947.24 4640.06 4588.99 3540.11 4321.21 4344.34 5950.45 5713.03 3548.39 3583.49 3673.28 5052.84 4858.51 4366.74 3375.28 5625.65 5297.16 4936.96 4481.76 3184.64 5206.33 5452.78 5065.26 4304.41 4892.44 5578.94 7610.49 4286.17 6579.31 5323.55 6028.09 5452.36 3804.5 4172.6 5498.42 3344.57 4196.37 5318.53 5220.76 4281.98 6945.98 5138.2 5783.48 4701.5 4449.98 4863.97 4504.35 4771.65 4840.44 5093.82 5951.81 5212.43 6918.35 4834.3 6238.32 6804.79 6372.13 5369.5 4428.14 6016.19 4124.49 4479.11 6685.4 5699.53 4850.06 6332.01 7044.29 4234.18 4805.33 7085.01 5980.95 6193.08 6069.3 5887.01 3862.77 5168.35 5388.39 3185.39 3728.18 5128.77 5335.47 5633.61 5048.19 6799.23 4888.27 6487.56 4854.11 5971.22 5533.19 5417.21 6602.43 4798.17 3568.28 5425.98 6479.39 4122.92 4405.42 4997.91 5079.22 4599.81 5381.54 5810.77 5089.1 2711.19 4028.32 5236.43 7519.2 4099.92 4884.59 5285.07 3858.06 4478.6 4680.14 4144.57 4083.79 4187.94 5980.59 6834.41 7248.4 3796.15 6226.14 5466.33 4801.8 7216.98 3000.29 5046.12 5271.02 7013.17 4247.69 4514.39 4601.74 6242.79 6506.86 5088.57 5580.34 5849.65 3852.6 5134.67 4928.27 5775.31 4165.21 3332.49 4215.0 4603.5 4647.67 4214.44 5375.12 4787.97 4356.36 3746.36 6789.23 3989.7 4157.29 4777.03 4246.61 3684.56 6813.72 5327.75 4609.02 6486.37 4638.18 5211.6 6448.66 3556.79 4453.97 3503.41 7317.04 6412.67 7001.83 5012.97 5589.37 5439.49 6639.64 3687.65 5454.12 5478.95 6348.54 4066.57 5642.35 6357.47 5404.01 4891.38 5535.91 3230.13 5714.25 6176.67 5325.96 5412.24 5016.02 4581.37 4920.21 4049.16 5851.61 3936.95 6153.94 6836.82 3858.17 4631.99 4740.98 3477.1 5934.82 7122.87 5797.36 4243.26 5119.86 4592.15 5084.17 4901.44 3776.8 4998.22 5096.43 6156.21 6104.26 5583.61 6063.64 5996.66 4986.71 7382.3 2995.67 4022.56 3598.08 5522.21 5698.23 7300.58 4714.83 3608.06 5474.15 4923.57 6633.61 5217.95 6355.68 4867.7 5484.36 4511.7 4063.9 4304.63 5263.27 6300.92 5021.77 5161.1 3928.53 4173.54 5599.29 5740.65 6038.68 3834.47 4807.4 6329.53 3805.67 4590.01 5718.28 6541.45 6101.86 4227.41 5993.0 4803.57 5966.42 4110.59 4847.14 4706.5 3950.27 5354.66 3566.79 5378.23 3629.44 5374.67 4981.43 4741.28 4061.6 4215.2 2603.64 5069.89 5107.0 6212.15 4783.07 4946.23 4896.65 4852.58 6083.28 6100.73 5806.31 4745.79 5456.71 4908.75 3971.08 6204.65 4482.9 4593.7 4036.91 4349.13 5110.11 6379.14 5216.26 4887.52 3851.85 6318.23 4206.98 5156.76 5932.07 6101.57 4793.65 2949.12 5955.86 4532.89 4533.37 4848.46 5742.09 2779.99 5887.38 5807.46 6942.34 3658.05 5478.11 5526.31 5030.15 3644.78 4078.93 6015.02 4501.78 4922.49 3572.94 5001.58 4153.84 4820.17 4729.42 5089.26 3886.72 5415.45 6592.93 6350.71 6436.74 2460.79 4653.83 6171.71 3628.89 4668.88 5027.43 3772.3 4855.01 5522.75 5867.64 6208.9 6059.93 3340.09 5602.53 6061.63 2279.05 4829.35 3953.55 4075.28 4277.24 4469.54 4314.56 5291.05 4619.2 6650.77 5606.51 4067.96 4824.12 5166.41 5067.56 7104.73 2596.96 6162.3 6349.67 4350.15 4264.54 4139.3 3516.27 4263.78 4750.49 5078.31 4643.9 5391.48 5228.75 4923.43 5009.83 5131.15 5210.38 5717.8 4811.22 5116.66 3683.86 4918.76 5003.78 5293.75 3299.24 6246.56 5826.78 5473.72 2856.55 2205.51 4553.68 5361.87 6502.97 3758.22 4374.74 4757.2 3205.68 4532.7 5561.74 5975.23 4788.08 4198.94 5470.04 4211.82 6556.26 5684.25 5438.92 6550.4 3766.69 4891.67 6818.91 3634.5 3503.65 6631.28 6571.31 4392.65 4058.87 5174.75 5048.55 4984.46 4024.31 5948.71 5844.72 3856.53 3992.97 5460.89 6040.74 5260.85 2884.65 5393.65 4961.99 4648.21 4393.16 3311.29 4549.69 6423.81 6192.77 4312.15 4458.64 4583.52 6418.11 6280.13 5244.22 5585.14 7039.98 6456.58 4159.81 5244.98 4960.64 5792.98 4385.81 4034.05 5798.38 3862.91 4456.11 5096.24 4125.9 5039.12 3908.98 6589.82 6328.42 7307.21 3381.82 3619.72 4646.51 4438.58 4565.93 7107.63 5073.02 6545.43 6760.92 4989.2 8137.11 5484.32 7144.05 4506.18 2970.9 6542.5 4383.47 5971.21 5701.75 5262.47 5261.19 3104.96 3512.94 7043.44 4263.65 3831.52 6106.43 4807.35 6047.14 5467.63 5666.95 3919.62 4642.2 5750.35 4127.53 5210.75 4474.83 6555.44 5658.14 4208.41 5730.61 4508.18 6214.73 5175.89 3894.64 3703.49 4268.19 5232.85 4062.56 3717.47 6200.63 4504.86 4473.29 3217.67 5079.64 6163.54 996.652 5212.37 6003.78 2628.22 4244.49 5058.51 5036.98 5513.8 5188.53 4521.75 4027.63 5569.2 5350.88 5420.67 6413.15 6103.11 6459.51 5416.45 4955.16 4904.51 4147.31 5989.05 5751.15 4054.22 5950.88 7228.94 4441.22 5853.89 6551.93 4595.12 4386.8 3110.13 6484.43 4625.67 3485.54 5510.9 3657.69 3492.83 4883.63 4971.29 3684.15 5832.29 2606.51 4438.76 3994.39 6006.89 4618.73 3965.3 3814.65 5372.82 4983.3 7778.01 5690.96 5124.17 5805.1 5366.11 4064.58 3419.87 4234.88 4824.81 4384.28 5769.14 5944.3 3563.14 5135.5 5347.9 5851.63 5640.72 4504.52 5212.92 4831.93 5788.97 3472.91 4928.85 4023.93 6440.38 5868.89 5556.0 4711.04 3274.85 5007.21 5494.28 4099.26 5610.53 5206.47 4580.06 4834.39 3926.11 3272.75 5493.89 7066.96 4467.0 4991.35 4258.98 4587.7 5196.92 3787.08 6761.81 3903.91 4568.64 4728.55 4929.6 4368.28 4489.99 4692.32 4548.45 4945.0 4658.11 4551.26 5114.07 4385.49 7124.45 6358.93 4383.68 5064.67 6618.21 2617.39 5144.44 4051.18 5969.37 6816.66 5034.69 3844.54 4509.46 4680.69 3538.53 6500.49 5965.58 3352.34 4607.18 4901.29 4124.76 4775.04 4050.03 4120.07 4882.66 3429.57 3840.21 6746.66 5410.33 4642.74 3908.56 6735.97 5305.59 3636.15 4330.58 5754.6 3288.01 4355.83 6870.97 2202.77 5351.86 6056.87 5474.01 4149.55 6201.86 7554.58 3380.69 5166.89 4140.4 3639.44 5446.4 4725.01 5966.75 3868.62 4505.28 3743.76 6711.21 4236.86 5510.45 5393.76 4730.14 4941.02 3864.92 6119.99 2955.36 4128.1 3668.93 4009.24 4446.58 4402.17 5401.4 5127.82 5053.15 5910.86 6239.68 7320.78 4834.44 5782.43 4456.26 5113.6 3873.92 4810.98 5091.22 6282.38 4546.44 5657.55 5727.79 5188.82 5615.84 5043.14 4464.73 4717.73 3904.07 5748.9 5545.59 3663.0 4954.81 6304.49 5755.15 4835.97 4608.34 6419.64 4057.17 2781.96 5414.58 4431.23 4994.65 5917.34 5601.55 4462.87 5644.81 4013.86 6545.99 5334.36 5630.9 4554.68 4512.07 5984.8 3127.83 5236.24 4212.15 5678.58 6570.35 4263.18 7142.95 4559.74 5836.26 6666.67 6063.44 4583.94 5046.31 4928.35 1937.5 5241.75 5849.53 4651.99 4788.7 4420.11 5863.0 6127.39 4972.18 5329.76 3899.7 2403.72 7200.89 4813.33 4952.52 4833.55 4081.34 4954.76 6334.53 4844.83 5244.78 5652.87 6114.89 5135.63 6384.7 5952.38 3896.27 5807.52 5307.35 4342.18 6016.08 4731.21 5491.63 5725.37 6102.98 5138.33 3425.69 5153.18 4763.4 5902.67 5454.11 5806.61 4983.1 6010.59 7123.04 5906.57 7541.76 4775.49 4681.29 3220.29 5749.6 3845.9 4141.21 4439.71 5667.51 4708.31 4027.33 5431.29 4198.9 5026.76 4833.67 5023.41 5325.91 4092.07 4213.05 4224.3 4184.21 4700.07 5273.37 4732.37 4985.3 5072.5 4966.07 5713.36 4749.18 5553.94 3742.31 4316.0 4546.96 5424.55 5134.72 5695.79 5464.83 3622.8 4770.51 5577.41 6511.37 5740.98 4012.92 4346.07 5759.79 4177.47 5218.42 4218.16 2918.64 4140.92 6139.64 4896.43 5463.06 4639.8 4585.04 3986.41 5260.52 3185.09 5114.23 4242.63 5495.0 3269.54 7407.91 6015.22 5064.23 4454.74 5512.44 2904.46 4826.52 5120.92 4337.32 6240.42 4731.53 3763.9 5721.14 4577.73 5084.5 5640.12 6638.25 5078.59 5134.33 4147.49 5419.57 4802.98 3646.95 7224.99 5384.86 4749.96 5377.37 5869.67 5483.7 5018.69 4899.73 3152.86 5457.66 6394.19 5973.89 5963.36 5230.02 5087.14 5712.35 5169.48 4743.9 6776.22 3124.7 6064.71 3719.11 4467.13 6060.17 5136.87 3779.45 4708.17 5790.42 5784.37 3142.09 3682.35 3756.96 6110.48 6245.52 4932.29 4990.23 3784.94 5499.59 3125.13 6715.73 4174.44 4564.41 6331.74 5951.86 4252.18 4659.88 3791.41 5853.12 5157.38 5702.4 6203.03 5069.9 5235.87 6089.45 5810.17 5265.21 4657.24 4400.14 3669.32 4704.92 4762.1 3987.69 4287.25 4392.75 4921.1 3814.16 4271.07 4420.6 5287.25 4475.38 4589.06 4920.88 4184.47 4216.44 3999.5 6710.14 5034.05 4598.54 4816.51 5345.73 4933.49 4770.63 3990.94 4756.8 5477.8 4462.35 6069.78 4241.68 6102.49 3469.18 2945.34 3372.95 4489.29 4301.93 5846.95 6061.85 6449.06 4924.07 4685.4 3200.6 4629.02 5914.5 5146.0 4288.45 4987.28 4918.64 4759.99 4815.47 2646.13 4368.12 4365.58 5162.67 5214.4 4636.53 5760.98 3629.49 4705.68 5469.35 3835.81 4019.34 4658.24 3623.19 4906.11 4311.48 4387.39 4564.1 5825.55 5509.51 4848.14 5366.22 6193.73 5518.11 3742.11 4192.21 3597.43 5701.52 4158.91 5311.55 5321.17 3360.86 4869.25 5545.21 3877.8 4333.87 6273.6 3667.93 5024.32 5813.79 2741.2 4644.88 7350.26 5591.77 5182.13 5003.3 4168.52 3954.77 5106.46 6793.1 6016.87 4506.66 5515.73 5209.55 5426.4 5763.05 5129.68 5357.39 5076.84 5247.01 4208.37 4841.7 952.938 5685.74 5473.89 4678.7 3450.07 3306.84 3673.6 6215.87 5191.26 5866.42 5544.27 3484.81 6502.99 4666.12 6219.34 4191.01 6023.07 5674.63 5340.05 5995.4 5890.25 5700.79 4726.2 4426.02 4711.15 5188.22 4841.23 4357.11 2804.54 5005.6 4176.32 5532.75 6949.65 4095.83 5695.25 5676.61 5716.42 5268.15 5819.0 6347.72 3460.93 5124.86 4927.73 4602.57 6006.16 4608.62 5407.96 4071.75 6206.98 6562.03 4410.82 6443.99 3889.98 5193.58 5399.43 5766.05 5117.64 3916.42 4869.48 5429.3 5510.96 6653.07 4745.16 4697.91 4584.81 5071.98 5719.79 4316.5 3199.4 4371.08 5254.24 4968.14 4914.03 5086.29 5144.56 5139.18 5551.43 3034.16 5049.99 4201.03 5001.87 5684.05 5638.7 4279.44 4899.19 5058.34 5293.13 4028.22 5487.63 3852.82 3768.46 5167.53 4507.36 7145.73 5403.97 5800.81 4068.31 5166.05 3671.06 5077.29 4850.5 5866.91 6405.69 2820.07 5679.74 4825.73 4165.36 5288.33 6296.54 5797.21 6019.35 6740.35 6028.63 4550.92 5146.1 6485.77 6060.06 3869.39 5960.5 5308.33 6896.55 4685.65 5377.01 6470.23 6506.63 4140.04 5322.11 3495.3 4697.49 5735.08 7133.44 4750.81 3825.48 4474.39 4658.59 3810.68 4196.62 2809.19 4916.7 5486.89 7208.19 4549.51 5025.42 3587.93 4975.85 4517.29 4495.75 5323.95 6171.01 5701.63 5796.26 4620.95 4603.04 5368.93 4488.39 6121.56 7168.2 3763.85 3565.32 3419.07 5710.33 5344.44 4626.72 5131.77 3186.07 5549.71 4967.51 5173.82 7212.97 5490.64 5034.34 5695.44 4507.46 3422.21 5036.14 5603.68 4944.51 5532.72 3220.8 5179.17 5270.51 5148.1 7261.51 5224.64 5949.73 4312.48 5527.13 6370.33 4278.57 5081.08 6318.25 6864.06 6008.81 4493.79 4932.56 5192.49 3487.31 3918.94 5575.11 5461.72 6599.28 6224.85 5368.66 4795.08 6562.92 5501.73 4697.24 3612.44 4983.43 7035.54 5233.76 4683.28 4217.36 6549.8 4851.18 5368.52 4871.77 5811.26 5062.77 4884.93 6075.99 5262.79 5927.2 4419.79 5407.69 5152.78 4117.9 5393.43 4753.76 4781.9 4638.09 4441.91 5330.26 5939.22 4668.8 4215.05 5125.17 4271.93 4859.01 5524.45 5990.75 3953.26 5600.21 5459.92 6478.35 5453.77 4104.04 2638.82 5589.53 5593.79 4965.24 5196.08 6379.38 4849.5 6257.79 6229.83 4468.26 4870.94 5578.18 5293.37 5271.88 5559.79 4571.74 4096.86 5001.51 3622.48 6432.8 5115.42 4369.86 4082.4 5482.76 3745.02 3720.7 4211.36 5698.53 3604.31 3769.2 4450.49 3468.45 4526.34 5610.95 5409.08 5042.75 4598.92 5579.39 6647.08 4979.52 5490.75 4407.79 5214.63 3495.68 5783.94 7362.42 4202.77 5836.14 5473.05 5537.34 5726.42 6643.4 4674.9 4433.12 2549.95 3392.26 4361.24 5138.93 4556.19 6406.8 5648.78 6875.73 5226.42 6081.3 5117.52 6311.89 3967.76 6734.39 5942.45 4150.76 5005.72 6142.88 5155.28 5111.26 5388.73 5205.38 4764.83 4600.71 3957.38 4494.15 5035.71 4710.88 5300.17 4057.4 5534.23 6025.77 6815.96 5339.6 5828.25 4725.11 3626.86 6371.96 4604.1 5322.07 5076.11 5770.07 5101.6 4282.11 5467.51 4625.53 4096.47 2347.41 4542.16 5114.67 3543.37 5353.66 5030.33 5527.27 5234.2 5327.05 5438.55 5353.23 5977.66 4523.81 5106.33 5198.94 5933.54 5464.05 5879.24 2980.31 5740.78 3148.79 4796.12 5997.91 5385.86 6791.86 4209.0 4930.72 5728.58 4887.73 6297.99 5378.24 3856.73 5817.74 5887.71 5635.32 4827.61 4316.45 5481.64 5673.75 5241.22 6263.3 3422.29 4501.05 6548.29 3990.96 4326.06 5352.24 5034.46 5793.12 5469.17 4373.2 6022.78 5884.99 6647.85 7025.09 5161.74 7336.37 5099.9 7086.69 5118.86 6170.9 5833.78 4436.48 5758.98 5615.35 5288.64 6213.24 5987.88 4228.53 3579.59 6123.46 5057.59 4461.14 5285.6 4574.54 4949.55 1969.87 3132.34 4841.28 5507.38 6889.5 4416.87 4052.43 3980.46 4896.67 3934.11 5158.44 4466.22 6153.71 5917.08 5483.37 5418.12 4714.66 4984.17 4656.01 6589.13 5602.62 2030.03 5714.51 5628.97 4484.78 5157.73 5104.39 5847.91 4612.13 5846.6 4109.44 4903.84 4290.49 4434.65 5209.5 5065.74 5791.25 4028.35 4873.23 5410.6 5453.2 6348.93 6824.53 4332.64 4742.82 4422.23 4820.68 6031.22 5485.84 6424.77 4538.89 5918.95 5689.56 6556.86 5661.6 6099.28 5285.75 5385.03 3234.26 5372.25 4169.15 4778.37 5360.67 5134.17 5968.54 4904.35 5592.54 4537.03 3247.97 5124.34 4114.2 4904.37 4358.81 4651.64 5757.29 5016.46 6224.13 5061.75 4761.84 3769.24 3661.67 5517.65 4087.32 4009.68 4622.73 2569.12 4161.32 6351.89 5932.28 6945.69 4298.7 4183.4 3902.48 4304.64 4733.79 4905.53 4823.06 7392.65 5254.49 3757.23 6828.8 6883.86 3350.99 6161.94 4065.28 5939.29 5418.98 5615.06 5490.54 5203.54 4047.95 6189.67 6142.94 5001.69 6581.56 4061.87 5383.9 3798.09 3886.56 4496.51 4511.05 6561.94 5259.21 5092.93 5934.05 2803.01 4444.0 6771.18 5327.39 5781.62 4037.86 4981.81 4138.59 4970.55 4938.33 4621.33 4541.22 4934.66 4946.08 4984.01 6217.33 4557.1 6688.53 5927.1 6175.27 5876.51 6731.89 4733.41 5264.83 3901.53 5136.51 6815.51 5232.16 4457.05 3989.26 3618.64 5703.84 4335.79 5453.69 5797.32 5432.04 3921.27 3702.45 3242.31 5265.63 4898.29 4431.06 5730.2 4830.13 3494.16 5370.9 4074.16 4529.77 4325.13 6172.27 5390.33 5078.73 5278.54 5729.0 5729.92 5275.57 4179.87 4786.66 5891.25 5370.1 5129.4 5114.51 3303.49 5585.25 5256.75 6530.78 2960.5 5560.23 4975.32 5237.55 3909.94 6030.39 3799.01 6589.8 5319.1 3038.91 4181.93 6570.43 3445.92 3820.19 4979.5 4745.37 4586.82 6026.04 6200.05 5575.11 4052.49 4034.41 5061.74 5326.03 4420.35 4948.96 5117.83 5256.82 4013.86 4645.93 5165.31 4585.37 4288.5 5715.51 3721.69 3456.3 6074.39 5317.83 4256.08 5881.93 4399.52 4554.24 6182.19 5910.66 7415.84 4637.3 5141.03 4840.44 8123.59 5765.14 4767.54 5121.08 3539.68 2927.84 4696.03 6177.68 4605.39 6270.59 6045.26 6500.45 4907.55 4103.76 2932.52 4286.61 4603.66 4969.68 6636.43 5431.14 6298.8 5313.86 5178.07 5189.91 5777.26 4171.02 3530.82 7012.36 5028.06 4886.99 4002.99 5159.67 3161.1 5764.52 5684.88 6523.78 4645.86 5620.88 4941.52 5900.0 4262.74 6241.77 3783.79 5317.19 4248.14 5279.19 4016.6 5192.92 5821.49 7050.08 5580.44 5998.13 5095.52 4746.15 3720.38 4655.37 4758.84 4731.37 5023.61 4068.41 4672.86 5059.37 5783.38 3043.77 4139.39 6264.03 5088.64 3562.8 6920.92 3729.16 4174.22 3783.36 4067.89 3573.84 3922.28 4571.57 5236.69 4121.07 3133.28 5524.28 6353.81 5859.17 4150.44 5522.34 5771.98 5899.78 5717.45 5772.57 5268.27 5244.95 5448.64 4634.25 5901.8 6417.61 5395.12 3830.7 5783.69 5350.9 3483.61 6738.9 4460.89 4157.1 8052.53 3939.96 4867.12 6520.19 1458.87 5734.07 3997.68 4819.83 4801.16 5071.38 5688.77 4698.7 6229.64 2848.44 4220.43 6263.87 5743.8 4094.63 5084.76 6605.11 4757.87 3557.46 5971.95 3689.24 3979.46 6321.97 5151.19 6509.54 6119.0 3792.06 4293.3 5128.59 5587.3 3572.73 4864.38 3770.22 4390.64 5150.84 4608.01 4045.67 5087.97 6005.95 4308.49 4930.17 4581.1 4745.44 4085.96 5762.82 7360.12 6223.98 5462.6 5617.29 3035.06 4262.19 4597.88 6275.25 6892.33 4505.3 4452.36 3976.0 4832.21 6463.71 4742.35 5394.79 5645.54 5264.08 4151.74 4526.87 5192.82 5245.95 5821.42 4515.02 6294.09 3463.53 6126.03 5131.07 2970.24 4197.87 5105.54 5731.43 3518.14 3414.67 5444.36 5044.68 2649.69 6908.32 3467.11 5000.74 6153.26 4813.81 5637.53 3882.37 4095.4 5188.57 6351.48 5357.33 6210.0 5432.4 4262.52 7430.48 5992.06 5545.68 4970.12 6044.01 5973.57 6241.48 6033.28 6286.27 5616.66 4802.36 5368.28 5466.13 5075.23 4975.56 7282.36 6666.34 4645.91 6834.92 6379.33 5130.57 5652.73 5402.45 3985.93 6412.84 6071.59 2589.19 6079.55 5485.61 4993.49 5310.33 6583.37 3688.83 3402.44 4848.98 4491.96 5184.98 4467.51 5339.82 4519.03 5460.57 5110.27 5703.34 4612.68 6649.52 4232.33 4939.56 4747.68 5770.92 3093.38 4845.91 4878.93 2002.78 5631.32 6322.0 5793.14 4491.26 4609.65 4511.34 5704.61 5009.21 4379.91 4574.03 5290.37 4227.66 5850.38 4691.01 4594.89 4730.97 3677.85 5214.71 4677.84 4924.52 6044.69 5658.05 6593.1 5462.1 6032.45 5011.37 2827.92 4026.03 4441.44 4232.44 5336.61 4817.75 5563.09 4848.15 4439.09 5523.81 4718.61 3873.79 5717.67 5252.37 4499.54 5037.58 4046.22 5640.67 6080.69 5555.89 4967.93 6369.66 5678.08 5922.62 5125.45 5957.82 3784.68 4188.16 3717.22 6327.54 5507.07 2943.17 5327.71 4880.78 5257.38 4322.56 5509.09 5625.02 4829.77 3826.01 5581.01 3928.99 6959.88 4125.75 5749.53 5090.48 5034.02 5582.28 5945.25 3856.4 4696.06 4137.16 4937.36 5308.4 6581.13 4569.32 5537.61 6084.88 4397.06 4199.44 4053.12 4479.5 6261.67 3435.13 5065.78 4431.46 4521.42 6668.98 3207.84 3977.98 6043.34 4128.93 4959.72 4712.17 3808.04 4723.71 4461.67 6126.5 4034.88 6007.1 6345.2 5488.96 5128.03 5410.73 3720.92 4942.63 5087.3 6139.74 4975.57 7066.26 6150.31 3057.3 5873.62 4811.11 4996.91 5379.52 3920.44 4866.8 3768.62 5314.67 5563.47 5651.46 4066.36 4000.51 6033.93 3162.27 5516.37 5092.44 5432.2 3312.3 4612.4 4746.19 6381.58 3282.57 4798.13 5648.59 6697.45 5515.59 4432.32 3224.81 3775.38 5782.25 6457.89 4844.2 6572.17 3751.73 3374.62 4766.47 4926.62 4871.1 3917.09 6009.93 5872.45 4414.09 5270.1 5191.29 4947.64 6305.9 6649.21 4654.92 3470.69 4859.95 5286.55 5522.18 5223.1 3873.72 5212.05 4592.49 5479.86 6474.5 4444.92 4702.32 5971.9 5247.73 3746.62 4876.37 4769.62 5260.13 4649.5 5181.31 5985.75 5475.83 6189.29 5984.55 5803.3 3228.27 4721.98 5252.82 3543.98 5056.26 5878.55 4014.44 6604.72 6002.77 3794.47 4610.55 4967.02 4614.49 5400.69 4462.5 5573.31 5004.68 4023.88 4405.61 5348.11 5108.84 3511.5 5067.92 4520.14 5357.14 3188.21 5919.27 4793.06 6637.38 6188.33 6111.23 6916.18 5786.06 3868.69 5447.74 4450.51 6033.72 3851.47 4966.74 4959.94 1635.31 5639.4 6185.73 4083.24 6520.96 3771.91 5217.62 6178.19 4616.81 5715.25 5212.2 4611.21 5108.42 4630.5 3354.94 6296.36 4451.76 5237.27 7885.41 4907.03 4104.97 4575.72 5114.61 6118.13 2181.29 4420.3 6332.64 4083.1 3482.73 5130.56 4957.99 4063.26 4542.62 4997.89 5093.28 4132.08 6009.88 4850.49 4699.77 4981.55 3625.98 5144.23 6188.62 6153.07 4763.04 4414.06 5944.52 4413.56 4532.67 5050.2 5316.05 2513.38 4908.32 3995.08 5019.84 4810.74 3900.93 5784.38 4149.17 4329.8 5728.27 5672.46 3074.49 5202.33 3956.24 7558.99 3393.59 4142.1 5043.14 5333.04 5445.91 4521.99 4812.59 6842.54 7115.67 5675.45 3361.11 6038.56 2807.46 5599.16 4179.8 3488.34 5658.35 5428.24 4487.51 4582.12 4295.25 7394.47 4850.95 4729.45 5374.09 6271.22 3421.81 5378.75 3920.64 6186.24 5822.7 4137.41 3780.07 5466.49 4038.17 5007.41 3692.99 4907.48 6213.74 2329.93 6938.87 5412.07 5512.57 4806.99 4813.55 5856.43 3839.0 5349.85 5799.86 4362.94 5172.1 4469.82 6545.78 4870.14 4404.87 2932.2 5105.72 5767.65 5003.49 4750.76 3964.03 4216.33 5497.27 4081.77 5617.91 4948.21 4721.2 4987.01 4202.12 4706.31 2694.25 4735.99 6492.44 4613.32 3996.93 5145.39 6351.95 5195.09 5345.05 7679.2 6131.52 4881.51 4311.92 2626.41 6729.99 5093.41 6842.35 5464.34 3621.63 5801.89 5908.57 7296.47 5742.39 4821.41 4924.53 5616.11 4499.52 4028.13 3874.12 4457.73 6476.35 6260.58 3053.19 4067.24 6571.26 5580.95 3549.92 6598.99 4032.06 5246.81 5089.1 5888.95 5394.78 3463.34 5122.38 2853.68 5262.85 4998.37 5329.84 6559.82 3879.83 6565.95 4577.98 5043.34 5886.81 4246.24 6805.02 5354.48 4900.26 6261.13 4167.55 5244.47 4720.34 5510.89 4731.16 4495.33 5282.67 4159.89 5178.55 5146.69 6203.24 6818.23 4369.87 4488.41 6679.12 5652.19 5806.74 6578.62 6284.12 3465.03 4796.04 5229.56 6011.4 4672.34 6052.22 5376.41 5003.63 4695.7 4944.08 4082.01 5269.39 4305.35 5210.22 5832.72 2451.27 3903.9 4444.95 5161.02 3124.49 6265.48 4203.68 5003.81 4739.56 3818.37 3352.46 4701.03 6225.05 5434.04 5200.1 3997.52 4444.54 5779.9 4909.74 5310.33 6664.54 5161.73 4777.96 5259.48 4803.4 6833.5 2613.78 4780.16 3834.01 5738.37 4433.23 4813.24 5759.19 3113.64 4490.2 4304.75 5480.86 6139.9 4720.22 4313.38 5250.56 3633.58 2468.16 6294.14 4339.97 5203.75 5169.09 4691.15 2459.88 4210.24 5470.67 5901.71 5225.11 5342.9 5252.22 5733.12 4962.35 6436.29 5402.81 4600.81 4919.13 5640.63 5168.97 5783.88 5002.38 6705.93 4865.11 5449.09 5502.14 6470.87 4131.08 4465.56 5747.9 3864.19 4287.93 5315.71 6158.93 5081.65 4823.14 5438.5 4621.32 5699.4 3878.8 4698.94 3948.21 5669.15 5296.05 5263.86 3330.85 5056.32 5533.52 5410.33 4747.24 4380.86 5576.16 5648.02 3308.75 4439.17 5677.42 4929.35 5606.22 3943.77 5242.38 6081.35 5459.52 6262.18 5566.5 5663.36 4276.59 5579.04 5125.53 5994.21 5403.81 5082.25 6964.78 5299.03 4374.05 5036.84 3922.98 4565.36 5813.68 4025.08 4008.67 3618.53 5254.93 4770.21 6608.94 3796.73 5417.07 3082.16 5656.84 6789.66 4739.41 5312.2 5847.27 4706.59 5734.84 3982.31 4950.07 4582.24 2832.83 5827.3 4084.87 6036.99 3010.1 3825.98 4589.22 5087.03 4667.84 3906.41 4123.08 4512.6 4260.38 4636.45 4932.27 5638.51 6793.49 3563.33 6060.19 5536.0 6786.37 4333.23 4328.76 5561.63 4124.33 5940.5 4358.06 5093.51 5647.93 4280.92 6201.49 5154.74 4605.61 6898.8 5386.95 6540.57 5332.11 4893.72 6004.72 4072.4 5373.78 5345.65 4489.18 5863.36 4632.75 5237.76 4994.98 4286.84 6423.96 6058.13 6988.4 6635.51 4060.17 6051.35 5302.53 4909.13 4287.61 4867.13 4604.34 4863.27 2701.42 5442.79 5051.39 6673.92 5151.68 4884.94 5362.15 4609.98 4455.61 4738.72 4752.31 5240.97 5569.85 5405.6 3929.35 4884.93 4759.38 6960.97 4287.15 5282.51 5504.65 5669.41 5732.11 5040.9 5596.68 8013.28 3846.55 5159.9 5283.65 4644.68 2892.36 5981.54 5911.29 5416.41 4694.27 6760.64 2515.5 5177.88 5551.79 6981.47 3916.15 4474.96 4758.76 4790.63 5259.29 3584.05 4916.75 4818.53 5097.85 5584.64 6189.04 6224.64 4221.03 3799.55 5082.66 4550.77 4337.93 3550.88 4345.51 4048.73 6223.33 3860.8 5145.13 3747.96 5611.29 4521.88 6568.45 5004.22 4601.54 7263.57 4696.92 5705.96 6437.99 5739.69 6632.04 7360.62 4977.64 4985.45 4983.56 5699.51 2489.44 5499.37 4883.13 4836.76 4752.94 5551.09 3950.53 4501.1 5581.47 5894.69 6550.61 4987.01 4713.56 6094.34 6779.82 3999.81 5543.67 6210.48 6377.45 4182.05 4502.12 3255.93 6853.07 6327.61 4633.59 5733.59 5575.8 5268.93 6874.6 5106.9 5306.31 5523.96 4223.53 4733.37 4535.94 3037.72 4523.9 5126.08 5604.0 3760.4 4951.02 3919.47 4602.7 3783.35 4868.66 4037.16 4004.39 4987.48 5943.61 4248.58 5479.17 4542.25 5020.37 4414.23 5233.88 4849.21 4785.55 3793.83 5245.4 6189.81 5367.05 4449.73 5647.11 4088.72 3945.62 3743.85 6236.46 5342.17 6379.3 5015.67 3795.63 5189.4 4576.71 6538.04 4894.15 6157.59 5201.3 5848.41 4090.28 5438.6 7370.52 4726.5 5467.05 3724.23 5103.3 4963.88 5888.94 3832.09 5175.88 5267.65 4790.16 3509.34 5360.88 3731.58 3166.37 5369.42 5207.08 5205.53 4714.52 4587.19 5543.05 6028.89 5333.16 4888.17 5755.98 5392.85 5077.2 4384.91 4274.05 4277.54 5529.09 4531.46 5925.82 5448.68 4739.5 4072.95 4491.62 3865.5 3695.72 6395.63 4246.83 4727.98 4122.2 4516.26 3647.26 5275.27 
SCALARS Velocity float 1
LOOKUP_TABLE default
1.86512 1.92331 1.36899 2.14996 0.733576 1.90157 1.42063 1.46336 1.9601 1.57021 1.44193 1.53372 1.51812 1.57346 1.6276 1.34091 1.49243 1.64743 1.72296 1.6923 2.21293 2.02883 1.588 1.57687 1.60397 1.17929 0.85895 1.10001 1.16167 1.41252 1.47633 1.35053 1.34618 1.43385 1.47147 1.51713 1.5652 1.49612 1.61996 1.23232 1.4029 1.39329 1.30826 1.41627 1.3178 1.29949 1.37662 1.4466 1.31696 1.37185 1.26648 1.67076 1.51983 1.3841 1.86651 1.70411 1.25731 1.47297 1.20587 1.29742 1.32336 1.08177 1.51427 1.42366 1.27387 1.23166 1.25751 1.21587 1.20557 1.17477 1.09368 1.31882 1.39723 1.27731 1.35364 1.38323 1.36594 1.39165 1.47885 1.55044 1.41244 1.53064 1.24701 1.23097 1.24331 1.39441 1.38212 1.33497 1.3156 1.38985 1.46319 1.29008 1.20704 1.21306 1.51823 1.3618 1.2697 2.00225 1.65536 1.74034 1.35 1.15022 1.0952 1.19094 1.08908 1.24986 1.21526 1.20046 1.21205 1.12499 1.29316 1.29139 1.23155 1.21451 1.16226 1.18118 1.15122 1.24781 1.35726 1.3886 1.35677 1.34129 1.43103 1.49488 1.4175 1.41229 1.13682 1.13223 1.26172 1.32156 1.35552 1.33231 1.32743 1.3519 1.41669 1.30161 1.30076 1.49995 1.32094 1.17055 1.42412 1.30034 1.10897 1.06408 1.17942 1.22362 1.36478 1.28364 1.1824 1.0678 1.33934 1.07587 1.18147 1.25479 1.13084 1.16566 1.20731 1.08992 1.20024 1.16416 1.12488 1.14659 1.14927 1.14193 1.14477 1.23763 1.20134 1.29161 1.47843 1.43729 1.37582 1.45707 1.37122 1.45079 1.30183 1.38937 1.13925 1.03398 1.09716 1.28811 1.05126 1.29968 1.35039 1.43621 1.36104 1.24327 1.28219 1.31202 1.34354 1.35758 1.27819 1.21494 1.22384 1.06726 1.73324 1.43141 1.58742 1.66753 1.24266 0.943755 1.13848 1.12209 1.2066 1.20522 1.1923 1.142 1.14883 1.10615 1.12851 1.06209 1.00392 1.15593 1.15167 1.01059 1.0187 1.13188 1.00707 1.01624 1.04094 1.07825 1.10286 1.16043 1.219 1.14592 1.1352 1.28912 1.55214 1.33675 1.34574 1.38171 1.42919 1.20907 1.40275 1.27433 1.14669 1.12114 1.22998 1.42419 1.26061 1.21819 1.27968 1.25802 1.2747 1.23083 1.23418 1.30799 1.30135 1.13559 1.30435 1.23371 1.16453 1.13131 0.993467 1.13462 1.32463 0.973627 1.03159 1.01233 1.07799 1.15396 1.07953 1.11769 1.13734 1.11678 1.11212 1.11593 1.12638 1.0901 1.14023 1.12959 0.930979 0.966074 0.938657 0.987371 1.05991 1.03635 1.07198 1.07144 1.06823 1.07382 1.09937 1.13213 1.22981 1.27982 1.71846 1.70525 1.32758 1.1117 1.23591 1.12833 1.22113 1.08912 1.02992 1.27007 1.15356 1.21771 1.26986 1.23212 1.32773 1.3113 1.60436 1.23387 1.2806 1.28677 1.19746 1.14678 1.27613 1.22001 1.21954 1.18771 1.2318 1.19742 1.11848 1.07225 1.07488 1.06772 1.06237 1.07244 1.07043 1.11967 1.09905 1.10364 1.0869 1.09282 1.10141 1.0499 1.06575 0.985708 0.937611 0.884633 0.909856 0.954978 0.961597 0.97826 0.960874 1.01322 1.01167 1.10748 1.06629 1.08835 1.10335 1.09897 1.1232 1.17225 1.12927 0.977491 0.986181 0.680654 0.887871 0.984065 1.28565 1.08159 1.13622 1.14224 1.07478 1.11892 1.15989 1.16331 1.15535 1.26112 1.27446 1.23506 1.27882 1.54514 1.26467 1.21441 1.09204 1.05943 1.27525 1.11349 1.29609 1.12057 1.03805 1.06665 1.196 1.17348 1.16999 1.0946 1.1117 1.1003 1.05755 1.09345 1.0557 1.06616 1.05831 1.0491 1.03927 1.0352 1.06458 1.05268 1.04809 1.04994 1.01416 1.039 0.976166 0.943422 0.956307 0.790372 0.799341 0.842874 0.938861 0.966431 0.904503 1.0539 1.26349 1.24521 1.12115 1.01835 1.21928 1.39719 1.25254 1.11198 1.08989 1.07153 1.06135 1.05139 1.05509 0.950778 1.0189 0.959809 1.05075 1.19649 1.15234 1.19242 1.07796 1.05917 1.04014 1.12944 1.08131 1.19582 1.25895 1.03784 1.20381 1.24273 1.2478 1.28596 1.24344 1.19796 1.02935 1.33039 1.26412 1.14872 1.20166 1.49609 1.21144 1.0865 1.09811 1.09189 1.15337 1.14198 1.10947 1.15348 1.10736 1.11479 1.12822 1.06997 1.0898 1.06547 1.0503 1.04918 1.02946 1.02694 1.04713 1.07255 1.21531 0.922275 1.01306 0.99874 0.819832 0.96765 0.911756 0.955626 0.960609 0.847885 0.858663 0.854356 0.965361 0.908632 0.956645 0.964142 0.904465 0.719932 0.793157 0.964651 0.993337 0.922708 0.882824 0.675467 0.759552 1.14086 0.962919 1.0361 1.03322 1.03046 0.992339 0.936233 1.08275 1.10648 1.07648 1.12402 1.13495 1.06693 1.13141 1.25759 1.20652 1.02609 1.27469 1.23054 1.25968 1.27652 1.27769 1.22672 1.1407 1.20342 0.944052 1.26104 1.20116 1.51372 1.21383 1.15797 1.18572 1.19321 1.16389 1.15562 1.10185 1.08718 1.09184 1.09731 1.11033 1.12474 1.08811 1.11964 1.08084 1.06881 1.09111 1.09009 1.18626 1.13738 1.0883 1.07054 1.08835 1.08594 1.04359 1.02034 1.00553 0.973123 0.925967 0.998238 1.26905 1.05003 1.02822 1.05674 0.969962 0.931805 1.03172 0.91492 0.984265 0.938591 0.938491 0.940785 0.951897 0.837983 0.862939 0.887276 0.896391 0.880161 0.951522 0.899326 0.949896 0.914836 0.882257 0.887462 0.833048 0.967546 1.00366 0.970652 1.02167 0.973131 0.856187 0.969493 1.10964 1.0108 1.00274 1.01181 1.00502 1.01189 0.999351 0.996148 0.97986 1.10127 1.07654 1.08606 1.0938 1.1034 1.10979 1.1537 1.08988 1.03761 1.25905 1.11726 1.03795 1.24851 1.24294 1.2404 1.26228 1.31745 1.23001 1.2168 1.17322 0.97251 1.3154 1.26158 1.43439 1.33847 1.07595 1.18025 1.17102 1.11525 1.08211 1.09916 1.08271 1.1011 1.07923 1.04703 1.03448 1.03749 1.04837 1.06117 1.07494 1.15548 1.12651 1.07116 1.02056 0.90366 0.957838 0.95431 0.828444 1.08146 0.751272 0.843265 1.21782 1.01411 1.01562 0.955528 0.999528 0.93517 0.979581 0.901169 0.866442 0.826599 0.835093 0.876613 0.919737 0.902655 0.90563 0.959669 0.922886 0.925056 0.939905 0.983802 1.0212 1.00203 1.01569 0.992494 1.02856 1.02107 1.07054 1.026 1.02404 1.01993 1.02095 1.0454 1.08728 1.11826 1.07314 1.09036 1.09683 1.11952 1.07734 1.0941 1.01477 1.20896 1.12951 1.06999 1.22456 1.21812 1.27882 1.41016 1.14118 1.1418 1.17482 1.17261 1.06296 1.24529 1.2391 1.30159 1.07057 1.0908 1.12396 1.09699 1.14739 1.15433 1.14339 1.13243 1.08449 1.08354 1.09795 1.12767 1.11641 1.04239 1.02904 1.0555 1.13551 1.21866 1.18096 1.14148 1.1885 1.1466 1.20791 1.20791 1.03102 0.97766 1.07595 1.32481 1.46154 0.971189 1.19012 1.13944 0.923365 0.930687 0.928144 0.885396 0.883101 0.878641 0.853553 0.859777 0.829841 0.801809 0.820596 0.850814 0.8841 0.904785 0.909011 0.875435 0.875731 0.907689 0.945935 0.918858 0.972583 0.978421 1.03241 1.00496 1.01812 1.00292 1.06168 1.04433 1.0362 1.02905 1.03414 1.05069 1.02881 1.05331 1.03952 1.05717 1.09258 1.17026 1.06961 1.08193 1.04048 1.0589 1.05482 1.10453 1.11085 1.01397 1.03356 1.19919 1.16169 1.22249 1.21143 1.20648 1.31668 1.25775 1.26026 1.13183 1.17457 1.07591 1.24606 1.15717 0.983167 1.1338 1.14842 1.12264 1.11108 1.15322 1.15734 1.09488 1.10408 1.09313 1.08501 1.13634 1.11272 1.01697 0.93848 1.00277 0.999202 1.06827 1.19572 1.34362 1.17385 1.13446 1.09528 1.00072 1.23186 1.19194 1.06375 0.996684 1.08326 0.998774 1.00694 1.07168 0.0937863 0.948076 1.31776 0.829196 0.62543 0.881766 0.861816 0.905962 0.951642 0.8975 0.815862 0.872719 0.80994 0.81784 0.832232 0.896193 0.891991 0.916053 0.881063 0.876874 0.880176 0.880689 0.88892 0.972227 0.917837 0.920838 0.887665 0.875572 0.876899 0.907074 0.902912 0.942549 0.957411 0.973062 0.983328 0.989623 0.96391 1.02275 1.01842 1.03182 1.05591 1.0901 1.09221 1.20719 1.01037 1.05439 1.0445 1.05349 1.0144 1.08756 1.07652 1.16667 1.10629 1.06927 1.2035 1.27009 1.2343 1.14924 1.01383 1.20309 1.06387 1.16669 1.18314 1.0165 1.4169 1.0587 1.04071 1.18737 1.14051 1.09729 1.17355 1.22799 1.08918 1.14672 1.01358 1.07927 1.0752 0.961425 0.970418 0.967368 0.993033 0.790713 1.1691 0.894942 1.12623 0.990387 0.975357 1.55566 1.20393 1.22399 0.541717 0.637534 0.879343 0.944438 1.19727 1.05963 0.994415 0.686445 0.80891 0.726806 0.776443 0.687511 0.814702 0.766334 0.919737 0.903417 0.825596 0.815056 0.852522 0.834182 0.827975 0.936555 0.881945 0.973284 0.950618 0.899412 0.904169 0.874757 0.965542 0.909639 0.884476 1.03968 0.821253 0.99045 0.456687 1.23145 0.924384 0.957197 0.910425 0.777916 0.86244 0.932642 0.94395 0.966119 0.985025 0.99027 0.982658 0.99589 0.995983 1.01218 1.02157 1.00516 1.01778 1.0405 1.09309 1.07798 1.06289 1.02252 0.947601 0.960442 0.957001 1.03234 1.0416 1.04728 1.03643 1.04909 1.10924 1.1171 1.17989 1.10408 1.13415 1.19219 1.05658 0.996953 1.17259 1.22451 1.30983 1.23077 1.01152 1.10945 1.08604 1.07826 1.11298 1.21993 1.11966 1.06049 1.10766 1.06217 1.1413 1.38841 1.02782 0.93068 1.10087 1.12835 1.05973 0.991445 1.02444 1.04249 1.01815 1.00654 1.00514 0.933626 0.85698 0.805805 0.825058 1.0506 1.15496 0.811139 0.691508 0.900798 0.873025 0.652579 1.11765 0.9647 1.04085 0.827106 0.877069 0.852174 0.802187 0.814119 0.885297 0.849132 0.883822 0.841528 0.774457 0.803137 0.935252 0.746357 1.01879 1.10416 0.832145 0.917286 1.23849 0.843724 0.93335 0.892612 0.904679 0.769969 0.786718 0.771385 0.59587 0.859294 0.945649 0.758439 0.836817 0.793698 0.83426 0.915369 0.883565 0.951402 0.951077 1.01835 1.009 1.00341 0.999214 0.993869 0.992368 1.01393 0.967188 1.05124 0.988389 0.96332 0.979075 1.00441 0.996746 1.04711 1.0443 1.08346 1.2102 1.09443 1.14084 1.15439 1.10456 1.22522 1.19996 1.08658 1.02682 1.15283 1.22663 1.17556 1.21491 1.27349 1.05677 1.14505 1.15811 1.04541 1.20668 1.11384 1.05172 1.08939 1.16012 1.097 1.13998 1.14696 1.04015 1.02419 1.0628 1.03367 1.03166 1.0478 1.03447 1.01484 0.927979 0.825399 0.860991 0.816953 0.834219 0.815165 1.1761 1.00817 0.894567 1.15688 0.774567 0.923454 0.997251 0.80031 0.818157 0.766963 0.851286 0.825232 0.858283 0.871694 0.815358 0.788646 0.843235 0.867769 0.769995 0.778367 0.799361 0.860501 0.893446 1.11089 0.712765 0.263984 1.20055 2.00419 0.943217 1.16561 0.615468 0.425151 0.683739 0.600569 0.704292 0.752799 0.723316 0.826458 0.847114 0.81705 0.87702 0.879281 0.822678 0.808156 0.834356 0.94688 0.959033 0.962124 0.962802 0.944514 1.06787 1.03438 0.990298 0.983472 0.96237 0.975736 1.04257 1.06952 1.07667 1.00439 0.981669 0.979058 1.03392 1.05291 1.06008 1.08738 1.02749 1.30783 1.1418 1.12681 1.12108 1.21339 1.21041 1.21117 1.12138 1.05087 1.17356 1.23569 1.00227 1.12678 1.05012 1.14588 1.20498 1.10924 1.07771 1.15298 1.11675 1.07433 1.09132 1.13572 1.14584 1.12714 1.05845 1.06896 1.10772 1.01317 1.03187 1.08137 1.10356 1.0056 1.06915 0.983675 0.979594 0.826907 0.898243 0.548251 0.855696 0.698682 0.693832 0.90853 1.12961 1.04045 0.943348 0.97672 0.904116 1.15066 0.480407 0.876415 0.820819 0.782615 0.830215 0.821788 0.811846 0.882092 0.809477 0.830982 0.936479 0.781828 1.03593 0.851989 0.682539 0.785181 0.740119 0.491738 0.417456 0.369501 0.647823 0.445323 0.880632 1.03115 1.1786 0.523156 0.774789 0.630426 0.74379 0.745956 0.756419 0.796446 0.763512 0.791514 0.808277 0.756966 0.6833 0.698771 1.12459 1.11951 1.01061 1.38716 1.31614 1.12473 0.944787 0.995729 0.965817 0.972884 0.97415 0.960475 0.95749 0.957816 0.96976 1.14522 1.11514 1.02446 1.00031 0.980347 0.985417 1.01342 1.03906 1.0443 1.03434 1.08186 1.11203 1.12934 1.14077 1.19604 1.18287 1.19105 1.14823 1.03441 1.16666 1.10735 1.30181 1.30581 1.01919 1.07385 1.16669 1.19849 1.09649 1.1268 1.19019 1.05744 1.02962 1.15262 1.1924 1.02216 1.12242 1.17783 0.970711 1.04711 1.05815 1.00968 1.0805 1.0097 0.992427 0.90043 0.838492 0.7472 0.724422 0.744661 0.821762 0.942301 0.980825 0.939154 0.902315 1.07272 0.874503 0.759735 0.717729 0.834516 0.768713 0.799603 0.781431 0.790153 1.02141 0.899228 0.724474 0.921578 0.567358 0.615128 0.804258 0.69115 0.701151 0.848639 0.889207 0.827414 0.659923 0.78575 0.701063 0.645311 0.663828 0.668578 0.725207 0.624624 0.708351 0.818168 0.749999 0.81789 1.00106 1.03267 0.74087 0.847345 0.756037 0.788431 0.778742 0.80878 0.761398 0.740551 0.784888 0.781324 0.778001 0.782788 0.722969 0.729416 0.704644 0.936281 0.884067 0.956903 0.901611 0.625995 0.52097 0.945003 0.906768 0.954112 0.907373 0.939811 0.965737 0.848354 1.09409 1.04398 1.01131 0.984213 0.998433 1.02069 1.02446 1.03574 1.03752 0.912065 0.994327 1.04881 1.10367 1.12743 1.15256 1.17702 1.21177 1.23522 1.18535 1.16005 1.06775 1.22103 1.11416 1.29707 1.0152 1.10689 1.07939 1.06886 1.16401 1.07054 1.06649 1.2093 1.06846 1.01721 1.16512 1.21589 0.99497 1.14841 1.21191 0.949686 1.1379 0.97 1.06036 1.04468 1.07465 1.03537 0.999132 1.02952 1.00123 0.978164 0.947183 0.851182 0.833676 0.880421 0.903444 0.931335 0.929261 0.920687 0.927213 0.980387 0.955914 0.80146 0.89702 0.857652 0.811744 0.778182 0.783965 0.765713 0.771287 0.733996 0.911835 0.785872 0.810104 0.757113 0.830815 0.848521 0.882228 0.829092 0.839853 0.714474 0.773057 0.692551 0.636426 0.585249 0.66791 0.681002 0.683485 0.474077 0.800985 0.771714 0.683647 0.662818 0.602473 0.792086 0.873698 0.646589 0.627061 0.687894 0.740159 1.093 0.585355 0.922601 1.42144 0.955408 0.770461 0.781813 0.762872 0.787476 0.783387 0.776089 0.752782 0.726212 0.76718 0.782621 0.770284 0.827474 0.848008 0.909825 0.711748 0.803405 0.793025 0.596177 0.892712 1.02745 0.897356 0.934859 0.878672 1.04185 1.05073 0.989223 0.937107 0.934096 0.949293 1.01304 1.01031 1.02971 0.947465 1.02255 1.08731 1.15605 1.16719 1.15329 1.07106 1.12492 1.11674 1.16294 1.17213 1.09825 1.14561 1.15546 1.05902 1.05467 1.12831 1.10488 1.06544 1.14068 1.08502 0.945853 1.26267 1.17692 1.07022 1.18575 1.00998 1.07733 1.08934 1.06674 1.01758 0.923921 1.05423 1.01891 1.06866 1.00218 1.09065 0.957974 0.964752 0.985964 0.998016 0.817876 0.862294 0.859634 0.883453 0.892412 0.940794 0.91315 0.924053 0.920797 0.857515 0.790234 0.758033 0.81278 0.766121 0.760929 0.796555 0.799564 0.819525 0.8051 0.808874 0.796025 0.630902 0.793006 0.761061 0.617514 0.780197 0.476625 0.623942 0.966233 0.496464 0.550204 0.594045 0.531856 0.441902 0.811065 0.959907 0.723509 0.677327 0.578843 0.617809 0.574353 0.550987 0.655167 0.867233 0.780512 1.07286 0.862411 1.42265 1.21288 2.01863 1.91766 0.828336 0.709575 0.736824 0.821929 0.749951 0.785159 0.787804 0.788681 0.780036 0.790364 0.813094 0.793952 0.919392 0.978263 1.14058 0.916899 0.885217 0.96415 1.03897 0.880553 0.949075 0.947319 0.93232 0.991498 0.973956 1.02838 1.02388 1.0483 0.991812 0.91586 0.946794 1.01169 1.07779 1.0284 0.949039 0.951472 1.03192 0.97227 1.13786 1.01946 1.10621 1.1412 1.0418 1.10034 1.11621 1.11989 1.1559 1.1145 1.09667 1.09128 1.08854 1.13911 1.1017 1.11688 1.07596 1.11574 1.19757 1.20472 1.22883 1.14832 1.07742 0.979499 1.06844 1.05488 1.06908 1.02766 0.947096 0.995261 0.967635 1.02244 0.916375 0.952963 1.01779 0.825073 0.943698 0.989976 0.994485 0.859138 0.825 0.814759 0.860082 0.884677 0.858311 0.839249 0.886456 0.895568 0.935651 0.957945 0.946642 0.854717 0.984626 0.842916 0.894954 0.79324 0.733259 0.787972 0.806225 0.834408 0.808624 0.785381 0.808403 0.793061 0.785562 0.774201 0.685299 0.647624 1.17577 0.822162 0.534707 0.49109 0.464418 0.456558 0.528462 0.510874 0.551507 0.555447 0.356246 0.574531 0.553857 0.495027 0.349303 0.458716 0.572656 1.11574 0.621326 1.09132 0.591224 1.09479 0.725616 0.710329 0.473033 0.514014 0.820482 0.75231 0.775297 0.805985 0.790607 0.773564 0.809111 0.810778 0.961739 0.974708 0.71518 1.09031 0.981806 0.913724 0.883425 0.818952 0.920728 0.952265 0.92985 0.936672 0.969033 0.988483 1.03674 1.02251 1.01469 1.01474 0.96455 0.897001 1.00884 1.02633 1.05555 1.09123 1.00722 0.887709 1.13111 1.07992 1.09775 1.12222 1.02164 1.13722 1.12427 1.14856 1.12274 1.06381 1.10453 1.13012 1.1589 1.09224 1.08789 1.12096 1.07017 1.05931 1.04702 1.15254 1.07181 1.00933 1.06369 1.05234 1.03473 1.0599 1.01812 0.916322 0.962424 0.995782 0.981303 1.05991 1.02026 0.819167 0.901449 0.965367 1.00313 1.00727 0.977489 0.877536 0.981997 0.888102 0.850205 0.818971 0.826595 0.868306 0.964555 0.693431 0.779569 0.782414 0.639961 0.735171 0.806213 0.787211 0.786562 0.848809 0.815311 0.762087 0.732228 0.814971 0.779262 0.742195 0.776869 0.763129 0.685501 0.792576 0.75907 0.823404 0.448022 0.788825 0.406983 0.461019 0.40299 0.592702 0.638205 0.552869 0.48135 0.646651 0.208351 0.165605 0.289116 0.258355 0.228552 0.337589 0.351398 0.312525 0.4092 0.377377 0.836322 0.477017 0.533966 0.584822 0.804363 0.629449 0.654476 0.698838 0.615447 0.418941 0.803477 0.845722 0.900949 0.7661 0.781885 0.822871 0.791956 0.836439 0.783516 0.78393 0.859524 0.845114 0.844151 0.843694 0.92812 0.863346 0.869297 0.757653 0.72158 0.91296 0.871043 0.90184 0.85763 1.05304 0.985494 0.94614 0.916529 0.993444 1.00573 1.04007 1.07615 1.0096 0.97943 0.897815 1.02871 1.02338 1.05285 0.93862 1.14074 1.08658 1.08788 1.13121 1.13554 1.13373 1.11854 1.07895 1.04071 1.14549 1.11864 1.12406 1.13737 1.12064 1.1196 1.08289 1.09347 1.11289 1.12043 1.1042 1.13639 1.10406 1.09914 1.01258 1.2442 1.1115 1.09392 1.04831 1.08292 0.942172 1.03085 0.921413 0.959178 0.966557 0.980476 0.995481 0.971271 1.05289 0.924852 0.946973 0.982253 0.970082 0.954861 0.964279 0.998128 0.959566 0.790639 0.755168 0.792893 0.83504 0.903619 0.813341 1.06798 0.914146 0.69014 0.783155 0.736267 0.731096 0.75996 0.760536 0.77756 0.769027 0.788058 0.781177 0.749235 0.765273 0.74364 0.75265 0.804574 0.95787 0.899704 1.23138 0.676854 0.732833 0.614441 0.555699 0.584676 0.524268 0.383895 0.294543 0.216104 0.92525 0.167806 0.247318 0.0390214 0.288132 0.381424 0.494725 0.441585 0.567949 0.923942 0.533814 0.431749 0.532023 0.822175 0.783613 0.423899 0.94937 0.821817 0.702777 0.717116 0.698829 0.843188 0.87797 0.811817 0.774146 0.815 0.851847 0.870393 0.876954 0.870035 0.800996 0.81584 0.810785 0.912421 0.922107 1.00768 0.955126 0.90495 1.06258 0.985096 1.01319 0.974732 0.938092 0.884026 0.86529 1.01149 1.05324 1.06614 1.02896 1.09992 1.11124 1.16915 1.0917 1.09369 1.11642 1.1244 1.1246 1.10806 1.10619 1.14066 1.11166 1.11078 1.13906 1.12959 1.09618 1.16347 1.20746 1.09041 1.1265 1.11436 1.15257 1.09884 1.05522 1.20588 1.13033 1.11886 1.05616 1.15238 1.00106 1.12591 1.00271 1.01338 0.957344 0.970209 0.977528 0.990589 0.984268 1.02713 1.03698 1.01181 0.943422 0.890228 0.803401 0.944146 0.974448 0.962692 0.992693 0.820866 0.812102 0.805697 0.838041 0.85241 0.95705 1.07449 0.531138 0.681603 0.791296 0.763222 0.77532 0.768653 0.763367 0.776682 0.77553 0.764341 0.762325 0.747188 0.719765 0.705212 0.688007 0.646948 0.629493 1.30938 1.23564 0.372412 0.248872 0.424483 0.524077 0.488863 0.473443 0.307352 0.409692 3.52819 0.00476658 0.353689 0.206343 0.666799 0.464304 0.331347 0.597935 0.4851 0.557617 0.528327 0.737467 0.57797 0.532296 0.807068 0.412063 0.230771 0.563104 0.462451 0.71165 0.922002 0.602742 0.810909 0.722784 0.714698 0.698039 0.666685 0.809351 0.756222 0.769393 0.774477 0.810832 0.857255 0.889814 0.880774 0.84411 0.878619 0.850097 0.833292 0.84894 0.911515 1.00624 0.958502 0.987291 0.923376 1.07507 1.01922 0.970301 0.997411 1.00882 0.821973 0.833991 0.800285 0.864438 0.96693 1.05317 1.09297 1.12795 1.12449 1.08573 1.08697 1.09151 1.12202 1.10988 1.08472 1.1545 1.12194 1.15145 1.08571 1.1517 1.0953 1.09005 1.13049 0.941594 0.976962 1.08253 1.08009 1.14605 1.12366 1.24584 1.16891 1.16578 1.04443 1.11036 0.99264 1.02317 1.04645 0.978637 0.973287 0.989655 1.00811 1.0381 1.05035 0.93624 0.827009 1.01349 0.973205 0.983942 1.01843 0.84278 0.826122 0.872843 0.876277 0.997292 1.02458 1.01326 0.691799 0.776363 0.742905 0.751609 0.759026 0.766125 0.751834 0.751567 0.757508 0.765705 0.760742 0.760557 0.725613 0.677293 0.714516 0.667542 0.677552 0.990923 0.560488 0.116493 0.267069 0.345253 0.429408 0.546016 0.783834 0.805117 0.3469 0.599784 0.433956 0.630766 0.4546 0.512654 0.506547 0.508031 0.506786 0.566067 0.561714 0.469996 0.38732 0.655162 0.738008 0.766969 0.789782 0.715933 0.775363 0.733257 0.758444 0.818383 0.739424 0.759604 0.833982 0.858798 0.915165 0.879744 0.939773 0.906198 0.912773 0.883678 0.873759 0.874069 0.956362 0.997795 1.02394 1.16479 1.0008 0.976462 0.978719 0.989461 1.00476 0.945078 0.981636 1.08948 1.14982 1.15595 1.15224 1.12511 1.08689 1.08453 1.08541 1.11429 1.09375 1.15681 1.12838 1.15227 1.13072 1.09404 1.17692 1.13167 1.07967 1.16712 0.983038 1.05581 1.07168 1.08252 1.11189 1.07932 1.14571 1.24355 1.18742 1.31863 1.09085 1.0726 0.973008 0.961096 1.01122 1.00675 1.02303 1.04774 0.902927 0.956265 0.935513 1.07007 0.99277 0.96633 0.811156 0.846837 0.828904 0.845787 0.806444 0.918333 0.944711 0.918879 0.71775 0.836302 0.733853 0.70849 0.754144 0.747796 0.724316 0.744554 0.78195 0.76344 0.817909 0.74864 0.739126 0.718411 0.72441 0.85474 0.652859 0.742229 0.668577 0.54638 0.397166 0.480601 0.528447 0.795084 0.191187 0.658918 0.513301 0.637795 0.67869 0.620618 0.431356 0.517557 0.525392 0.494745 0.521477 0.771636 0.78711 0.813377 0.823744 0.799009 0.806142 0.822917 0.884597 0.81103 0.698832 0.800014 0.706623 0.900824 0.849596 0.840257 0.980856 0.979716 0.894264 0.888071 0.888173 0.895777 0.967663 1.06628 1.1095 0.925274 0.984071 0.98101 0.928208 0.953924 1.03071 1.10847 1.00193 1.16837 1.09846 1.09573 1.1972 1.12872 1.0451 1.12188 1.11033 1.06337 1.05469 1.09915 1.13918 1.11883 1.16174 1.13114 1.08209 1.17352 1.16633 1.12223 1.0676 1.26599 1.1004 1.06188 1.09919 1.09931 1.09584 1.12379 1.2119 1.07869 1.16772 1.11915 1.07446 1.18912 1.01872 1.06932 1.02348 0.996294 0.996551 1.05261 0.942707 1.0934 1.056 0.994433 0.947248 0.7892 0.818081 0.89829 0.918118 0.957093 0.773711 0.855289 0.918692 0.774782 0.75867 0.728824 0.709654 0.719915 0.756956 0.789427 0.812839 0.811078 0.809791 0.65436 0.769452 0.752328 0.530862 0.69311 0.740036 0.751146 0.74573 0.32245 0.622187 0.678814 0.710625 0.588762 0.0320056 0.715107 0.742484 0.678356 0.652537 0.740579 0.519691 0.584156 0.633202 0.558019 0.538881 0.448807 0.787411 0.865846 0.823332 0.815563 0.835673 0.844383 0.867206 0.873882 0.832518 0.814902 0.829726 0.548497 0.802418 0.888915 1.06029 1.05231 0.946481 0.986709 0.930074 0.894822 0.856183 0.858502 0.910735 0.971927 0.972643 1.02058 0.869956 0.912501 0.984943 0.968247 0.970762 0.941515 1.00589 1.10744 1.15623 1.20902 1.17058 1.27054 1.1152 1.11225 1.11872 1.14318 1.13106 1.09774 1.09365 1.10614 1.09341 1.09864 1.11169 1.12588 1.13001 1.16206 1.24679 1.07582 1.10509 1.18097 1.19518 1.16608 1.08816 1.15949 1.12075 1.08646 1.11018 1.09572 1.09426 1.07782 1.15929 1.09023 1.00118 1.09108 1.19523 1.11315 1.06721 0.992146 1.00465 0.985137 0.856752 0.971047 0.947346 1.10858 1.1034 1.01222 1.39244 0.825306 0.879733 0.84943 0.867708 0.92161 0.903042 0.919351 0.947456 0.867352 0.85748 0.739957 0.71874 0.747171 0.769693 0.724021 0.665614 0.691442 0.71339 0.801306 0.638939 0.900104 0.712042 0.750556 0.0716232 0.758325 0.698938 0.702041 0.729101 0.698938 0.763388 0.780063 0.657699 0.440779 0.509205 0.725625 0.900682 0.84185 0.838092 0.818453 0.811891 0.871108 0.881698 0.828049 0.739071 0.737659 0.9041 0.968519 1.10043 0.899614 0.952507 0.921901 0.912625 0.889808 0.930686 0.972099 0.984705 0.960974 0.867837 0.952333 0.934477 0.988535 0.985749 1.01335 1.04597 0.98094 1.08601 0.991288 1.13174 1.11184 1.15632 1.12436 1.02013 1.09907 1.16074 1.13522 1.25096 1.10307 1.1382 1.09773 1.09774 1.12586 1.14091 1.18113 1.13815 1.09918 1.1481 1.16616 1.17856 1.13594 1.13462 1.09473 1.14569 1.16965 1.11776 1.10223 1.11138 1.09571 1.11744 1.17083 1.18045 1.13321 1.00649 1.01388 0.986129 1.11524 1.14643 1.0071 1.11591 1.10548 1.13526 1.03317 0.950477 0.841075 1.07856 0.981649 1.08418 1.21601 1.31908 1.02023 1.05277 0.907284 0.991645 0.814114 0.879782 0.904741 0.915608 0.928238 0.937559 0.924915 0.948906 0.757325 0.764408 0.816744 0.885847 0.824751 0.751971 0.758768 0.70443 0.715626 0.660878 0.652232 0.684813 0.697707 0.813183 0.765697 0.931343 0.827971 0.833591 0.806103 0.0312166 0.879933 0.77822 0.841183 0.754602 0.728691 0.775641 0.670372 0.670817 0.674113 0.76481 0.846206 0.85045 0.844769 0.84675 0.878169 0.867503 0.856551 0.871544 0.845523 0.79716 0.853039 0.915949 0.955544 0.990256 0.977919 0.937877 0.923041 0.91657 0.940308 1.01917 0.963697 0.893859 0.965445 0.906855 0.992877 1.01455 0.993858 1.04202 0.985702 0.991262 1.07779 1.08961 1.12481 1.10436 1.12105 1.13352 1.12528 1.17259 1.08571 1.07555 1.14284 1.11147 1.13349 1.21183 1.1011 1.12059 1.14766 1.17302 1.08804 1.14593 1.14649 1.19099 1.1355 1.14393 1.1563 1.1685 1.17096 1.15353 1.14389 1.16249 1.18722 1.13952 1.10698 1.11875 1.10519 1.10016 1.12341 1.10726 1.12607 1.01781 1.01483 1.04867 1.10284 1.19807 1.148 0.998953 1.16198 1.27621 1.11645 1.23622 1.02405 0.939173 0.872541 1.04277 1.14027 0.982658 1.09674 0.900307 1.17825 0.96815 1.06226 0.833839 0.901246 0.889844 0.894865 0.920767 0.935447 0.933236 1.03723 0.823824 0.792952 0.939833 0.896558 0.852445 0.737401 0.750243 0.693636 0.702345 0.747938 0.870275 0.718055 0.838942 0.800274 0.76864 1.08041 0.7932 0.805734 0.805366 0.796929 0.859638 0.779579 0.723078 0.815144 0.861089 0.785839 0.748839 0.902989 0.856683 0.847235 0.892457 0.864982 0.872715 0.823947 0.865781 0.912914 0.942657 0.998571 0.981085 0.961014 0.952472 0.942709 0.996775 0.952129 0.889124 0.933762 1.06921 1.01351 1.00502 1.07106 1.04882 1.00907 0.976569 1.05101 1.10673 1.15875 1.12603 1.09075 1.10944 1.13381 1.12663 1.10078 1.16355 1.14028 1.1225 1.20212 1.13127 1.16335 1.15166 1.17172 1.1528 1.15034 1.14059 1.11365 1.28885 1.1718 1.13759 1.09965 1.11619 1.10977 1.11707 1.12353 1.11131 1.12323 1.13851 1.06581 1.17184 1.1286 1.00575 1.23416 1.16642 0.819867 0.946233 1.07895 1.06542 0.980289 1.01275 1.09092 1.00616 0.925325 1.01621 1.07697 0.986916 1.06111 0.883073 0.893373 0.874861 0.852963 0.912917 0.935355 0.951717 0.968642 1.0751 0.81671 1.02228 0.901916 0.791707 0.810895 0.756593 0.789621 0.756114 0.76556 0.805782 0.823605 0.869845 0.771366 0.812731 1.02548 0.996291 0.821988 0.813698 0.890348 0.849563 0.830282 0.802765 0.952528 0.81569 0.80941 0.747101 0.95178 0.828604 0.897477 0.882591 0.922531 0.834496 0.876185 0.942284 0.914592 0.891158 0.930198 0.931832 0.980763 1.00378 1.01082 0.992669 1.04469 0.973778 1.01218 0.986535 0.988995 0.926546 0.964017 1.03595 0.970861 1.02288 1.09367 1.05306 1.05193 1.06912 1.11485 1.15821 1.09943 1.06684 1.08289 1.12282 1.12444 1.18071 1.14521 1.18153 1.17562 1.13529 1.1651 1.15817 1.16674 1.1661 1.16007 1.16108 1.15917 1.15229 1.17353 1.12192 1.17524 1.15677 1.17605 1.09538 1.10918 1.17442 1.18615 1.11741 1.12808 1.13821 1.19189 1.07108 1.1613 1.11858 1.07539 1.11434 1.15473 1.1843 1.15705 0.984288 0.91219 1.03882 1.17656 0.959699 1.05729 1.03049 0.993338 0.975752 1.0437 0.995049 0.894717 0.890366 0.920283 0.960537 0.98558 0.98153 0.987957 0.975256 0.897976 1.02357 0.938485 0.726574 0.849278 0.793301 0.821496 0.828405 0.842136 0.853841 0.858324 0.834011 0.79029 0.840309 0.886324 0.974165 0.939095 0.973114 0.827759 0.820873 0.924062 0.901822 0.886629 0.958485 0.839426 0.89306 0.933698 0.944887 0.930872 0.950274 0.978696 1.00026 0.861843 0.996129 0.919652 0.890494 0.938946 0.952482 1.00154 1.0002 1.04619 1.05764 1.00187 0.959097 0.911193 0.961052 0.976484 1.0183 1.06057 1.00721 1.12914 1.09038 1.08419 1.0611 1.17719 1.06773 1.05849 1.0739 1.12799 1.11373 1.13159 1.13463 1.14537 1.14929 1.1736 1.15004 1.1713 1.178 1.16138 1.14898 1.1574 1.1626 1.18153 1.16418 1.16622 1.1689 1.1768 1.15769 1.18114 1.13876 1.20294 1.18746 1.15973 1.17125 1.09536 1.15995 1.16443 1.18114 1.1263 1.13006 1.13268 1.14632 1.1462 1.14187 1.15322 1.2059 1.20215 1.09352 1.1536 1.11662 1.14787 1.12819 0.954105 0.983148 0.97567 1.14783 0.955172 1.06102 1.03306 1.0187 0.987417 1.03377 1.0036 0.934826 0.924898 0.942251 0.974078 0.969503 0.998286 1.00241 0.966723 0.909224 0.865482 0.924323 1.01396 0.854068 0.844763 0.839944 0.85817 0.880047 0.902208 0.858137 0.909882 0.886317 0.933341 0.957834 0.914793 0.914558 0.931482 0.951539 0.984543 0.925653 0.964005 0.981862 1.00545 1.0142 0.98354 0.92917 0.928316 0.890842 0.972256 1.01805 1.06401 1.05779 1.00038 0.999699 0.936579 0.87385 1.00092 1.05698 1.06452 1.15933 1.11024 1.09933 1.1192 1.11072 1.1061 1.10203 1.07189 1.14203 1.14298 1.15057 1.15304 1.17684 1.15372 1.17285 1.17803 1.15944 1.15488 1.17104 1.18359 1.16375 1.16816 1.17021 1.15333 1.17929 1.18715 1.17234 1.18292 1.21055 1.15934 1.15752 1.16768 1.17081 1.2702 1.18596 1.14034 1.12936 1.13694 1.14494 1.12101 1.15997 1.1646 1.16058 1.19073 1.09904 1.1372 1.17149 1.12426 1.10143 1.14603 1.148 1.15036 0.997023 1.07786 1.03323 0.955621 1.03319 1.01454 0.99672 1.04012 1.04328 0.926686 0.95688 0.939636 0.974325 0.988713 1.00641 1.02784 1.00103 1.0059 1.00668 0.911391 0.841309 0.895365 0.865992 0.872064 0.910876 0.878401 0.908415 0.916526 0.962417 0.98675 0.914497 0.941736 0.953771 0.925723 0.978174 0.994033 1.01056 1.0034 0.992139 0.987864 1.01363 1.03193 1.01844 0.986056 1.00332 0.912736 0.946186 0.921121 1.00457 0.982397 1.04692 1.02429 1.09875 0.983077 1.0681 0.991582 0.989256 0.933063 0.869137 1.00891 1.0838 1.19875 1.16722 1.15864 1.08333 1.13049 1.1137 1.11128 1.09962 1.08758 1.11727 1.09388 1.16148 1.16544 1.18203 1.16097 1.16625 1.16616 1.18545 1.1744 1.15692 1.17525 1.1839 1.16442 1.1722 1.1866 1.17685 1.18411 1.17579 1.16315 1.1626 1.20623 1.21433 1.17468 1.16676 1.1422 1.13216 1.14489 1.15613 1.17927 1.16457 1.18413 1.16454 1.17623 1.13193 1.11437 1.16271 1.13733 1.00643 1.07088 1.03745 0.99622 1.02965 1.05844 1.04671 1.0074 1.02206 1.04892 1.03964 1.00249 0.976342 0.985609 1.00326 1.0081 1.02806 1.07373 1.12014 0.965453 0.955813 0.897778 0.895416 0.878331 0.932786 0.923446 0.891457 0.902942 0.938832 0.978338 1.01045 1.04664 0.915452 0.977321 0.959379 0.942069 0.991079 1.0296 1.03789 1.00454 1.02089 1.03377 1.00899 0.998249 0.999933 1.03376 1.00137 1.06405 1.07849 1.01496 1.04104 1.10516 1.0821 0.931449 0.979009 1.10776 1.09693 1.04443 1.20468 1.18559 1.12273 1.08425 1.11314 1.11044 1.13364 1.12883 1.12544 1.10629 1.17561 1.15914 1.17062 1.17693 1.13567 1.16548 1.19239 1.15718 1.16141 1.17669 1.18411 1.16504 1.17233 1.188 1.18717 1.18025 1.17581 1.1788 1.18663 1.16693 1.17332 1.16699 1.15468 1.14289 1.14715 1.16925 1.16056 1.16312 1.16017 1.19175 1.16042 1.12629 1.08365 1.16759 1.16386 1.14491 1.03781 1.04886 1.05072 1.1329 1.05836 1.10583 1.01042 1.02033 1.06863 1.0493 1.03215 0.996437 1.02177 1.00714 1.02128 1.01689 1.04466 1.06699 1.09124 1.12887 0.973923 0.946834 0.987743 0.973496 0.949661 0.930504 0.977097 0.991487 0.983379 1.05202 1.00178 1.06773 1.06502 0.956979 0.997045 1.05597 1.04482 1.05797 1.02476 1.04697 1.05544 1.02646 1.04055 1.02908 1.01178 1.01652 1.00095 1.07955 1.09371 1.06269 1.03772 1.11097 1.11342 1.11486 1.10671 1.08137 1.05388 1.131 1.19649 1.14576 1.04748 1.10953 1.11146 1.12988 1.13591 1.12786 1.13606 1.12461 1.17511 1.17928 1.17101 1.17145 1.17156 1.19939 1.17667 1.16011 1.16181 1.16796 1.18453 1.17696 1.18642 1.18106 1.1831 1.18891 1.17389 1.18799 1.18002 1.17484 1.16345 1.18545 1.16145 1.1475 1.18395 1.17236 1.16748 1.14727 1.15475 1.11777 1.17516 1.13437 1.11837 1.05827 1.04204 1.06428 1.12026 1.10915 1.0397 1.02363 1.06051 1.06855 1.06068 1.05347 1.04105 1.03329 1.02722 1.03616 1.02404 1.04881 1.0569 1.06842 1.13793 0.940093 1.03479 1.02387 0.999824 0.979346 0.968319 0.976429 0.971355 1.0196 1.00042 1.05709 1.07139 1.07489 1.04191 1.05645 1.09102 1.02566 1.03837 1.02691 1.02267 1.09282 1.05899 1.15331 1.10905 1.09008 1.09722 1.09336 1.0606 1.05782 1.12915 1.15792 1.10532 1.06985 1.11102 1.05231 1.13972 1.18696 1.11571 1.11653 1.13209 1.14895 1.1331 1.14686 1.13866 1.17727 1.17524 1.18449 1.17185 1.17261 1.17969 1.17674 1.16348 1.17681 1.18024 1.17105 1.19411 1.18902 1.17673 1.17907 1.17575 1.18727 1.18593 1.19885 1.20716 1.18595 1.16287 1.17908 1.15726 1.1893 1.16998 1.19268 1.18772 1.16957 1.17699 1.15524 1.18352 1.16585 1.17818 1.16356 1.17493 1.17325 1.14922 1.14568 1.12596 1.17325 1.13177 1.17417 1.1602 1.07615 1.13614 1.19459 1.14839 1.081 1.1223 1.12928 1.03627 1.03402 1.11492 1.07018 1.07464 1.06664 1.05049 1.04097 1.05035 1.05726 1.05665 1.06587 1.08168 1.18272 1.02611 1.02346 1.00576 0.979477 0.995815 1.03561 1.01398 1.02159 1.01539 1.05947 1.02617 1.04882 1.09196 1.07307 1.10892 1.11573 0.999394 0.993651 1.09864 1.04651 1.02399 1.06431 1.121 1.11752 1.17925 1.12189 1.12283 1.09266 1.1093 1.13691 1.15951 1.11852 1.09767 1.072 1.15037 1.18796 1.12151 1.1238 1.1318 1.19178 1.1414 1.14648 1.15204 1.19677 1.18806 1.18153 1.1803 1.17184 1.18958 1.1908 1.17671 1.17577 1.17983 1.1681 1.20036 1.19416 1.18335 1.17624 1.17887 1.17647 1.18457 1.20477 1.18905 1.18322 1.16722 1.17712 1.19383 1.19309 1.19038 1.18318 1.17772 1.17163 1.16559 1.1624 1.18058 1.16802 1.13537 1.17002 1.17196 1.17401 1.14267 1.17258 1.09752 1.15291 1.20245 1.13065 1.03482 1.07779 1.03706 1.13022 1.09466 1.08691 1.08917 1.11489 1.08202 1.06156 1.066 1.05771 1.07445 1.0684 1.06307 1.06175 1.0847 1.06559 1.11869 1.14073 1.13187 1.02676 0.977097 1.01231 1.02937 1.03006 1.07017 1.02725 1.02549 1.07174 1.04041 1.03767 1.12019 1.12162 1.15241 1.11999 1.18054 1.12375 1.05123 1.04261 1.1004 1.1744 1.10134 1.10242 1.12606 1.12335 1.14531 1.08966 1.11462 1.16369 1.16584 1.13731 1.09187 1.1147 1.10651 1.08105 1.14879 1.18094 1.12886 1.13077 1.13335 1.13136 1.14786 1.15408 1.16476 1.18889 1.20622 1.18162 1.18274 1.18341 1.18868 1.19147 1.17967 1.17664 1.18107 1.16843 1.19117 1.18329 1.18075 1.18038 1.18703 1.20453 1.18967 1.18727 1.17373 1.18476 1.17159 1.17259 1.19131 1.17778 1.18205 1.17152 1.17598 1.16808 1.16528 1.16676 1.18137 1.16812 1.15521 1.14794 1.16941 1.16165 1.16749 1.1752 1.15959 1.10572 1.14698 1.1381 1.07195 1.06622 1.15003 1.0383 1.17312 1.10161 1.03752 1.07698 1.07661 1.06091 1.11586 1.07382 1.07772 1.09529 1.08431 1.07488 1.06796 1.07707 1.10058 1.13039 1.12598 1.05124 1.08694 1.10597 1.027 1.03637 1.05054 1.06685 1.0408 1.03532 1.08414 1.05364 1.0375 1.12461 1.12422 1.13579 1.16498 1.15103 1.1623 1.05891 1.08265 1.14318 1.13559 1.15311 1.15268 1.15629 1.12632 1.18152 1.16737 1.15286 1.09913 1.10698 1.0825 1.15073 1.17654 1.13559 1.13452 1.13696 1.16678 1.14774 1.17764 1.17997 1.15948 1.18082 1.17755 1.1849 1.18852 1.17872 1.18048 1.17459 1.18201 1.16933 1.17712 1.17759 1.19246 1.18375 1.182 1.18236 1.18859 1.18545 1.18574 1.18974 1.18217 1.17488 1.17736 1.19289 1.18491 1.1799 1.17593 1.16928 1.16827 1.18249 1.17176 1.15878 1.15262 1.16848 1.16145 1.17293 1.15875 1.09348 1.18412 1.15244 1.15487 1.13783 1.12988 1.11097 1.11106 1.13228 1.06835 1.07754 1.10215 1.12117 1.09198 1.07672 1.07805 1.09976 1.08855 1.06424 1.04799 1.13675 1.07787 1.12911 1.1228 1.17585 1.20851 1.14074 1.1218 1.03678 1.05566 1.08538 1.04986 1.04355 1.09435 1.06962 1.12821 1.14078 1.1862 1.12726 1.13519 1.11988 1.16488 1.12927 1.1536 1.15007 1.15534 1.192 1.17817 1.1623 1.10425 1.10795 1.14952 1.16481 1.16276 1.13197 1.14354 1.16776 1.19138 1.17217 1.18896 1.16763 1.18089 1.18379 1.187 1.18537 1.19271 1.188 1.17417 1.18357 1.17037 1.18069 1.19264 1.1837 1.18224 1.18779 1.18802 1.18552 1.19146 1.18377 1.17555 1.1793 1.17853 1.18737 1.17906 1.18416 1.18442 1.18115 1.17451 1.17838 1.17701 1.15914 1.15785 1.16021 1.15689 1.16002 1.1696 1.17001 1.17681 1.15676 1.09676 1.1599 1.12154 1.16342 1.15274 1.13834 1.12573 1.12855 1.12397 1.12711 1.09657 1.09028 1.13135 1.09701 1.09106 1.1743 1.05531 1.15286 1.08499 1.12385 1.13126 1.17672 1.18183 1.1157 1.05667 1.0833 1.09091 1.05703 1.05336 1.06379 1.1503 1.12538 1.17583 1.18887 1.17281 1.1274 1.10713 1.19455 1.12125 1.12601 1.16624 1.14622 1.13757 1.13018 1.19339 1.15586 1.15864 1.15988 1.15699 1.18524 1.17651 1.17535 1.11778 1.15278 1.15778 1.15321 1.17593 1.16375 1.18441 1.18685 1.16293 1.18662 1.18586 1.17226 1.18025 1.18445 1.18763 1.18416 1.18918 1.18468 1.18349 1.18439 1.17059 1.18287 1.19244 1.18645 1.18183 1.18792 1.18807 1.1857 1.18508 1.18563 1.18931 1.18465 1.17444 1.17941 1.18003 1.17434 1.1805 1.18472 1.18121 1.17506 1.17967 1.17796 1.17088 1.17422 1.17271 1.17432 1.17087 1.17141 1.17101 1.15947 1.17829 1.14121 1.19157 1.15811 1.18486 1.14411 1.13033 1.18815 1.12383 1.12527 1.16827 1.13639 1.12489 1.16514 1.12223 1.11215 1.17823 1.18883 1.14663 1.1673 1.19675 1.12397 1.13399 1.13091 1.1733 1.15412 1.14315 1.12584 1.11241 1.08999 1.08268 1.07266 1.07061 1.10242 1.15476 1.1332 1.12611 1.1261 1.17593 1.16087 1.16812 1.17093 1.16114 1.11738 1.16106 1.16425 1.17606 1.15219 1.16403 1.19207 1.14708 1.15554 1.124 1.16032 1.16044 1.1608 1.18409 1.15451 1.17909 1.16536 1.16814 1.15233 1.15206 1.17849 1.18246 1.19165 1.17552 1.18681 1.18537 1.18634 1.16872 1.18291 1.1667 1.1863 1.18809 1.18884 1.1895 1.18392 1.18439 1.19326 1.18404 1.19027 1.18687 1.18307 1.1881 1.18731 1.18616 1.18766 1.18977 1.18342 1.18742 1.1771 1.18199 1.19589 1.1852 1.18236 1.18431 1.17788 1.17711 1.18572 1.17733 1.16957 1.17511 1.17345 1.17268 1.17134 1.16571 1.18154 1.15011 1.15934 1.18846 1.19028 1.14056 1.12049 1.15334 1.14098 1.13571 1.16869 1.12658 1.19479 1.17887 1.16782 1.16456 1.10274 1.13151 1.13186 1.16169 1.15245 1.14595 1.14005 1.13813 1.12797 1.11856 1.15478 1.09166 1.07832 1.10757 1.16339 1.14104 1.12837 1.12663 1.19888 1.16092 1.13567 1.18156 1.14186 1.15457 1.16511 1.17604 1.18133 1.14543 1.16178 1.1639 1.18544 1.16466 1.18109 1.15667 1.1577 1.16697 1.15937 1.158 1.171 1.17745 1.18417 1.18296 1.18325 1.17533 1.18269 1.1865 1.18458 1.18362 1.18089 1.18292 1.18694 1.16993 1.18744 1.18922 1.18383 1.18664 1.18874 1.19098 1.18427 1.19015 1.19354 1.19174 1.19064 1.18699 1.18362 1.19387 1.18747 1.18772 1.18967 1.19178 1.18661 1.19178 1.18468 1.18918 1.19924 1.18336 1.18792 1.18278 1.17651 1.18325 1.17837 1.18321 1.18575 1.17586 1.17664 1.17137 1.1736 1.17215 1.17548 1.15066 1.16124 1.15698 1.18003 1.19251 1.1908 1.12405 1.14652 1.15572 1.14891 1.13829 1.17107 1.14208 1.19182 1.18797 1.16353 1.16957 1.10556 1.13415 1.16221 1.13638 1.15013 1.1511 1.1764 1.13729 1.12732 1.15136 1.11109 1.12148 1.10259 1.10972 1.08377 1.12644 1.15818 1.16019 1.14196 1.14207 1.132 1.20337 1.16081 1.17471 1.15645 1.16218 1.14306 1.1618 1.1663 1.16814 1.17625 1.18443 1.17242 1.16135 1.17411 1.17488 1.15766 1.17072 1.18572 1.18384 1.16306 1.17047 1.16858 1.18378 1.17733 1.18287 1.18096 1.1874 1.18571 1.18527 1.18332 1.1925 1.188 1.18481 1.18547 1.18631 1.19107 1.18884 1.19118 1.19033 1.18445 1.19409 1.19235 1.19025 1.18471 1.19178 1.19178 1.18774 1.1876 1.18813 1.18993 1.18788 1.1866 1.18823 1.17802 1.18468 1.18727 1.18963 1.18825 1.17734 1.17739 1.18593 1.1836 1.17452 1.17169 1.17955 1.17792 1.17745 1.1534 1.15771 1.18207 1.17809 1.19075 1.15032 1.16369 1.15707 1.1749 1.16891 1.17875 1.16149 1.19265 1.18527 1.17479 1.18466 1.12864 1.15438 1.15866 1.15149 1.1458 1.15865 1.18106 1.14404 1.17066 1.12853 1.12995 1.09306 1.13034 1.13571 1.14835 1.14964 1.16909 1.11954 1.1803 1.15969 1.15754 1.16221 1.16743 1.16943 1.16966 1.17497 1.17479 1.1829 1.17189 1.18482 1.17125 1.18165 1.18028 1.18149 1.19118 1.18173 1.17203 1.16993 1.1829 1.18272 1.19019 1.18465 1.18595 1.18619 1.19264 1.18316 1.18897 1.18503 1.18652 1.18492 1.18948 1.18883 1.19198 1.1913 1.19155 1.19178 1.19048 1.18512 1.19189 1.19262 1.18788 1.19178 1.18875 1.19043 1.19249 1.18736 1.18866 1.18798 1.18405 1.18334 1.18765 1.18988 1.17862 1.17822 1.17885 1.18464 1.18279 1.17289 1.1825 1.17422 1.17712 1.18007 1.17698 1.16585 1.15911 1.18318 1.17848 1.19512 1.16159 1.16189 1.17102 1.177 1.17423 1.17603 1.16938 1.19414 1.1909 1.18759 1.18246 1.14126 1.16341 1.1636 1.15751 1.15019 1.17175 1.17518 1.1457 1.16806 1.13873 1.15166 1.09889 1.14862 1.18738 1.16041 1.16846 1.17578 1.1876 1.15855 1.16269 1.18341 1.17772 1.18229 1.17616 1.18265 1.18911 1.19172 1.17294 1.18241 1.18591 1.1843 1.18712 1.18462 1.18437 1.18535 1.18752 1.17139 1.18308 1.18347 1.18693 1.1791 1.18375 1.19029 1.18667 1.18531 1.18652 1.1927 1.18888 1.19047 1.18483 1.18661 1.18483 1.18977 1.18888 1.18996 1.18649 1.18945 1.19171 1.19178 1.19178 1.19159 1.1868 1.19257 1.19178 1.18934 1.19282 1.18871 1.19025 1.19227 1.18701 1.18719 1.18802 1.18414 1.18426 1.18916 1.19097 1.1795 1.17895 1.17901 1.18107 1.18443 1.18235 1.18379 1.18379 1.18442 1.18117 1.17704 1.16312 1.17074 1.18838 1.18524 1.15293 1.17155 1.19112 1.17411 1.18005 1.18688 1.17527 1.17445 1.19375 1.18395 1.19486 1.18743 1.15105 1.16463 1.15479 1.14709 1.18501 1.14525 1.19094 1.177 1.14169 1.15439 1.09971 1.20214 1.16921 1.17177 1.16649 1.17492 1.19178 1.16066 1.16559 1.16711 1.18324 1.17892 1.18289 1.17702 1.18283 1.18955 1.1908 1.17751 1.18493 1.18582 1.18529 1.18877 1.18631 1.18719 1.18713 1.18568 1.18315 1.18006 1.18017 1.18469 1.19037 1.18946 1.18509 1.18669 1.19178 1.1891 1.1904 1.1892 1.18818 1.19178 1.18958 1.18824 1.19179 1.18997 1.1918 1.19178 1.19178 1.19151 1.18897 1.19178 1.19085 1.18964 1.19042 1.19274 1.19235 1.19005 1.18959 1.18822 1.1885 1.18421 1.18509 1.18944 1.1886 1.19068 1.18172 1.18436 1.1799 1.18391 1.18519 1.18483 1.18527 1.18385 1.18129 1.17853 1.16489 1.17972 1.1874 1.15879 1.17827 1.19474 1.17792 1.1813 1.18602 1.17506 1.17666 1.1927 1.18462 1.17498 1.19114 1.15348 1.18183 1.16493 1.19197 1.1557 1.17618 1.18211 1.17838 1.17438 1.19122 1.15744 1.14978 1.19261 1.18998 1.1735 1.16673 1.17607 1.1842 1.16144 1.16839 1.17964 1.18378 1.17806 1.18356 1.18937 1.19032 1.18466 1.18577 1.18581 1.18495 1.18884 1.18664 1.18702 1.18844 1.19001 1.18857 1.18161 1.1904 1.18327 1.18441 1.19081 1.18851 1.18546 1.19219 1.18701 1.18911 1.19024 1.19178 1.18848 1.19204 1.18992 1.1902 1.19091 1.18977 1.19173 1.19188 1.192 1.19152 1.18881 1.19165 1.19092 1.18954 1.19151 1.19138 1.19159 1.18987 1.19043 1.1882 1.19031 1.18589 1.19036 1.18867 1.19095 1.18426 1.17963 1.18321 1.18486 1.18587 1.18395 1.18513 1.18075 1.179 1.17509 1.1798 1.17693 1.18866 1.18747 1.19152 1.17927 1.19214 1.18103 1.18531 1.17746 1.17918 1.18274 1.18506 1.17585 1.19188 1.18195 1.1816 1.18596 1.19201 1.15637 1.176 1.18125 1.17095 1.19178 1.19107 1.19178 1.15182 1.1733 1.18004 1.1902 1.18461 1.18516 1.19009 1.17843 1.16551 
SCALARS Stress float 1
LOOKUP_TABLE default
-2.47445e+12 -535895000000.0 -271527000000.0 -457799000000.0 -979210000000.0 -2.29331e+12 -1.14586e+12 -3.17734e+12 -771229000000.0 -1.35349e+12 -129761000000.0 -146579000000.0 -136649000000.0 -87693700000.0 -330379000000.0 -163119000000.0 -476502000000.0 -422176000000.0 -605610000000.0 -823467000000.0 -915554000000.0 -3.09248e+12 -2.11382e+12 -1.8629e+12 -2.89116e+12 -1.8518e+12 -1.67564e+12 -2.46421e+12 -3.6277e+12 -4.06896e+12 -4.98034e+12 -3.5888e+12 -1.45688e+12 -827698000000.0 -1.49509e+12 -370137000000.0 -261324000000.0 -337572000000.0 -826681000000.0 -276607000000.0 -408956000000.0 -75985900000.0 -519855000000.0 -442525000000.0 -83244200000.0 -475746000000.0 -411185000000.0 -210603000000.0 -208164000000.0 -704761000000.0 -814409000000.0 -113078000000.0 -545052000000.0 -1.28716e+12 -1.38368e+12 -1.5716e+12 -2.64494e+12 -2.6625e+12 -1.98305e+12 -2.50993e+12 -3.60741e+12 -2.09104e+12 -5.78914e+12 -3.16916e+12 -2.23531e+12 -2.98748e+12 -3.87111e+12 -3.25381e+12 -2.89445e+12 -5.08514e+12 -6.60447e+12 -5.66191e+12 -5.3083e+12 -2.47224e+12 -2.67978e+12 -2.28124e+12 -2.09707e+12 -833549000000.0 -1.76878e+12 -795852000000.0 -708357000000.0 -945007000000.0 -527819000000.0 -856056000000.0 -840120000000.0 -505921000000.0 -755279000000.0 -370217000000.0 -792235000000.0 -893795000000.0 -817040000000.0 -934166000000.0 -757233000000.0 -948872000000.0 -1.21802e+12 -919809000000.0 -2.80787e+12 -1.6172e+12 -464776000000.0 -3.88144e+12 -3.8822e+12 -2.7421e+12 -2.60412e+12 -4.94872e+12 -3.37571e+12 -2.65285e+12 -2.79005e+12 -5.48132e+12 -2.45386e+12 -3.80387e+12 -5.73904e+12 -4.09042e+12 -3.4311e+12 -3.57225e+12 -6.30227e+12 -3.92164e+12 -4.40421e+12 -3.48399e+12 -5.5043e+12 -4.57279e+12 -4.77524e+12 -2.42507e+12 -2.94208e+12 -1.53219e+12 -1.96098e+12 -1.1871e+12 -927485000000.0 -417753000000.0 -95212500000.0 -817073000000.0 -703661000000.0 -980250000000.0 -795904000000.0 -512356000000.0 -608626000000.0 -1.79066e+12 -1.54376e+12 -864855000000.0 -1.88939e+12 -4.30878e+12 -1.30408e+12 -3.06516e+12 -1.97801e+12 -3.71564e+12 -5.18031e+12 -3.15349e+12 -4.08754e+12 -2.63386e+12 -4.97413e+12 -6.91186e+12 -4.42491e+12 -4.21669e+12 -2.7124e+12 -4.56916e+12 -5.4704e+12 -7.0082e+12 -6.92755e+12 -6.48187e+12 -3.7793e+12 -4.12435e+12 -4.7023e+12 -5.84017e+12 -3.34689e+12 -2.81134e+12 -4.87997e+12 -1.78869e+12 -1.83175e+12 -5.09744e+12 -2.86422e+12 -3.19823e+12 -3.49653e+12 -2.15574e+12 -1.46898e+12 -2.36696e+12 -263961000000.0 -1.41496e+12 -1.03323e+12 -1.41677e+12 -313200000000.0 -878107000000.0 -240480000000.0 -741808000000.0 -1.39628e+12 -1.01932e+12 -1.24384e+12 -1.34129e+12 -1.14452e+12 -1.65115e+12 -839031000000.0 -752999000000.0 -2.15714e+12 -1.43369e+12 -770263000000.0 -2.10885e+12 -1.91332e+12 -3.3407e+12 -4.0396e+12 -2.38719e+12 -3.06419e+12 -5.69063e+12 -6.11792e+12 -4.61025e+12 -6.52628e+12 -3.77826e+12 -4.44861e+12 -5.06811e+12 -1.07085e+13 -5.31338e+12 -6.76986e+12 -3.19697e+12 -4.10584e+12 -3.16888e+12 -4.66266e+12 -5.53049e+12 -4.56691e+12 -3.40049e+12 -4.58063e+12 -2.86585e+12 -6.43739e+12 -3.25196e+12 -4.87777e+12 -5.65346e+12 -4.61632e+12 -2.50358e+12 -4.34868e+12 -4.93598e+12 -5.59732e+12 -3.8583e+12 -2.61912e+12 -1.33671e+12 -2.58431e+12 -1.93718e+12 -1.58193e+12 -907260000000.0 -1.34687e+12 -663299000000.0 -1.03118e+12 -1.22983e+12 -963976000000.0 -1.41582e+12 -1.25105e+12 -1.25674e+12 -1.18801e+12 -1.13782e+12 -2.31236e+12 -1.85667e+12 -2.77998e+12 -1.96004e+12 -2.99415e+12 -1.93133e+12 -2.77515e+12 -3.94301e+12 -3.04707e+12 -4.08772e+12 -2.66399e+12 -5.18342e+12 -7.4464e+12 -3.05234e+12 -7.5433e+12 -8.0708e+12 -6.40874e+12 -5.369e+12 -6.56572e+12 -2.04577e+12 -7.12413e+12 -6.71739e+12 -6.28506e+12 -4.52027e+12 -3.80899e+12 -2.06007e+12 -4.11942e+12 -3.38444e+12 -8.49672e+12 -8.49247e+12 -8.93443e+12 -4.51092e+12 -5.18324e+12 -2.88599e+12 -3.5093e+12 -4.15728e+12 -6.18839e+12 -5.3592e+12 -4.47707e+12 -4.61015e+12 -3.34524e+12 -4.64571e+12 -593178000000.0 -4.08416e+12 -3.57506e+12 -2.85553e+12 -1.78413e+12 -2.037e+12 -1.87589e+12 -1.52158e+12 -1.8955e+12 -1.52859e+12 -1.54453e+12 -1.83668e+12 -1.07418e+12 -789190000000.0 -85102500000.0 -1.21991e+12 -1.73188e+12 -1.96369e+12 -1.95285e+12 -1.6765e+12 -1.77538e+12 -1.47139e+12 -3.7952e+12 -4.18169e+12 -2.43751e+12 -3.15431e+12 -5.12336e+12 -3.91251e+12 -5.1359e+12 -5.75827e+12 -4.99254e+12 -5.918e+12 -6.54932e+12 -5.19192e+12 -5.50818e+12 -6.65453e+12 -4.03178e+12 -8.37153e+12 -2.49901e+12 -2.76919e+12 -5.47874e+12 -4.25345e+12 -4.14698e+12 -3.80557e+12 -3.8558e+12 -3.44727e+12 -5.49306e+12 -3.15525e+12 -5.87562e+12 -3.33174e+12 -8.81952e+12 -7.04134e+12 -7.0655e+12 -6.09105e+12 -4.27379e+12 -5.07781e+12 -6.42642e+12 -4.34187e+12 -3.98275e+12 -3.69715e+12 -3.13312e+12 -4.0517e+12 -3.37884e+12 -4.17658e+12 -3.02696e+12 -2.76036e+12 -3.43564e+12 -3.65365e+12 -3.91762e+12 -1.54694e+12 -2.03428e+12 -2.05262e+12 -2.63775e+12 -1.97341e+12 -1.5818e+12 -2.49117e+12 -1.50347e+12 -894948000000.0 -1.34399e+12 -2.93677e+12 -1.37981e+12 -2.27171e+12 -2.25275e+12 -2.31617e+12 -2.26007e+12 -1.89965e+12 -1.67018e+12 -4.14963e+12 -2.3961e+12 -2.65045e+12 -1.85391e+12 -3.73183e+12 -5.52165e+12 -3.06038e+12 -4.07968e+12 -3.43333e+12 -3.13314e+12 -3.73446e+12 -4.39446e+12 -4.55038e+12 -7.57035e+12 -4.54122e+12 -4.39885e+12 -9.10013e+12 -4.74152e+12 -1.04629e+13 -5.2613e+12 -5.93302e+12 -6.51612e+12 -4.84073e+12 -4.87912e+12 -3.12851e+12 -3.43983e+12 -5.01681e+12 -4.25688e+12 -7.71672e+12 -5.75794e+12 -6.71837e+12 -6.03653e+12 -3.55539e+12 -4.35513e+12 -4.85958e+12 -4.41882e+12 -6.05195e+12 -4.61938e+12 -5.78204e+12 -3.51671e+12 -7.13053e+12 -5.28586e+12 -2.9534e+12 -5.63512e+12 -3.95402e+12 -4.46269e+12 -3.97701e+12 -2.49607e+12 -2.51224e+12 -3.32663e+12 -3.30008e+12 -2.58025e+12 -1.90693e+12 -2.39494e+12 -2.59486e+12 -2.85447e+12 -2.10074e+12 -2.22136e+12 -1.74125e+12 -1.27991e+12 -563518000000.0 -552404000000.0 -782303000000.0 -829674000000.0 -1.23888e+12 -1.37272e+12 -2.61692e+12 -1.24624e+12 -2.1093e+12 -3.17468e+12 -1.51889e+12 -1.50783e+12 -2.46354e+12 -2.87528e+12 -4.08262e+12 -1.57374e+12 -2.86815e+12 -2.27991e+12 -3.39299e+12 -2.94342e+12 -4.36011e+12 -3.58442e+12 -4.70786e+12 -4.87745e+12 -6.02039e+12 -7.11618e+12 -4.38264e+12 -5.68652e+12 -5.50056e+12 -1.09415e+13 -8.33929e+12 -3.89462e+12 -5.99578e+12 -4.76007e+12 -6.12967e+12 -6.23612e+12 -3.53527e+12 -8.52686e+12 -3.98519e+12 -2.83996e+12 -2.84481e+12 -5.34565e+12 -2.67744e+12 -4.8565e+12 -8.25054e+12 -8.30309e+12 -4.78483e+12 -8.33387e+12 -2.62191e+12 -6.14888e+12 -5.08419e+12 -4.81019e+12 -2.79327e+12 -4.39893e+12 -5.83015e+12 -4.03569e+12 -6.54987e+12 -4.15005e+12 -2.05221e+12 -4.09579e+12 -4.62988e+12 -3.6126e+12 -2.5968e+12 -3.70434e+12 -1.98975e+12 -3.37807e+12 -1.92449e+12 -2.56784e+12 -1.80824e+12 -2.05551e+12 -2.87769e+12 -2.76066e+12 -2.05835e+12 -1.3565e+12 -1.63025e+12 -2.05756e+12 -537393000000.0 -1.80997e+12 -1.27584e+12 -1.31454e+12 -1.79212e+12 -1.25473e+12 -2.91829e+12 -1.6154e+12 -1.50472e+12 -1.0961e+12 -1.16254e+12 -1.12679e+12 -2.36082e+12 -1.28779e+12 -2.41697e+12 -1.45695e+12 -1.0165e+12 -1.79921e+12 -2.77842e+12 -2.84957e+12 -4.11409e+12 -3.26466e+12 -3.70343e+12 -5.84503e+12 -1.68664e+12 -2.92679e+12 -2.25056e+12 -3.73565e+12 -4.73767e+12 -4.67392e+12 -5.87216e+12 -3.70965e+12 -3.76252e+12 -7.18678e+12 -7.70958e+12 -6.80605e+12 -2.4258e+12 -4.63536e+12 -8.30658e+12 -5.47324e+12 -7.21268e+12 -4.93761e+12 -3.72262e+12 -4.27662e+12 -5.09237e+12 -4.19615e+12 -6.74527e+12 -5.71503e+12 -2.92062e+12 -2.75059e+12 -5.45818e+12 -3.83995e+12 -2.75673e+12 -3.7596e+12 -4.67395e+12 -8.41177e+12 -6.62361e+12 -7.54117e+12 -4.47678e+12 -6.89946e+12 -7.28173e+12 -5.24062e+12 -6.18655e+12 -6.08753e+12 -4.95777e+12 -6.56488e+12 -4.96592e+12 -3.59785e+12 -3.69981e+12 -3.42258e+12 -7.55356e+12 -5.32131e+12 -3.95979e+12 -4.72028e+12 -2.80861e+12 -5.03181e+12 -2.21769e+12 -3.96837e+12 -4.64181e+12 -3.04808e+12 -3.40742e+12 -3.66123e+12 -3.22106e+12 -3.30336e+12 -3.17509e+12 -3.54905e+12 -2.91943e+12 -961898000000.0 -1.12994e+12 -2.39939e+12 -1.65029e+12 -1.94571e+12 -1.01404e+12 -946193000000.0 -1.62863e+12 -932076000000.0 -1.68866e+12 -814205000000.0 -862033000000.0 -1.24757e+12 -1.29749e+12 -1.32046e+12 -924970000000.0 -404455000000.0 -723099000000.0 -897112000000.0 -2.02031e+12 -1.20787e+12 -3.04753e+12 -2.22251e+12 -3.56863e+12 -2.46023e+12 -3.45638e+12 -4.38654e+12 -3.59229e+12 -3.19006e+12 -2.34787e+12 -3.26675e+12 -2.85611e+12 -7.36195e+12 -6.94303e+12 -4.77424e+12 -1.11906e+13 -7.3391e+12 -7.56765e+12 -5.9998e+12 -3.40278e+12 -9.66896e+12 -9.20997e+12 -6.05398e+12 -8.89225e+12 -4.11625e+12 -5.0677e+12 -7.96843e+12 -5.11983e+12 -8.73153e+12 -5.2914e+12 -8.82012e+12 -5.35024e+12 -4.55425e+12 -5.6988e+12 -6.39456e+12 -7.48132e+12 -3.87944e+12 -7.09137e+12 -2.56969e+12 -5.79703e+12 -6.54732e+12 -5.93435e+12 -8.42712e+12 -5.89837e+12 -3.49497e+12 -4.66025e+12 -3.83509e+12 -5.72085e+12 -6.63148e+12 -7.97737e+12 -7.4158e+12 -7.90193e+12 -2.79824e+12 -3.20536e+12 -4.75428e+12 -6.47431e+12 -2.6876e+12 -3.44016e+12 -1.97616e+12 -5.53845e+12 -1.52827e+12 -2.34734e+12 -2.29198e+12 -3.14402e+12 -2.62189e+12 -1.65275e+12 -1.16289e+12 -2.0718e+12 -2.45141e+12 -1.59973e+12 -2.09077e+12 -1.00122e+12 -1.11294e+12 -910526000000.0 -659963000000.0 -660993000000.0 -1.09526e+12 -549906000000.0 -966808000000.0 -2.00826e+12 -1.86372e+12 -2.13471e+12 -2.04829e+12 -1.25841e+12 -1.15874e+12 -1.18327e+12 -861394000000.0 -2.5239e+12 -1.96915e+12 -2.41117e+12 -2.59695e+12 -2.4359e+12 -1.79318e+12 -4.9967e+12 -2.58861e+12 -7.03664e+12 -3.03325e+12 -5.3514e+12 -5.0879e+12 -4.51871e+12 -4.42106e+12 -4.34821e+12 -5.05191e+12 -3.76208e+12 -6.87693e+12 -6.98038e+12 -8.02012e+12 -2.90977e+12 -7.16963e+12 -5.50441e+12 -5.20183e+12 -5.02256e+12 -8.40318e+12 -7.2445e+12 -5.33942e+12 -6.92601e+12 -6.57204e+12 -2.69968e+12 -3.3116e+12 -6.0799e+12 -8.26177e+12 -9.28194e+12 -4.99225e+12 -5.57143e+12 -6.06324e+12 -5.33681e+12 -4.72124e+12 -1.00686e+13 -4.08064e+12 -7.31784e+12 -5.75663e+12 -5.89219e+12 -6.08284e+12 -5.27613e+12 -3.16359e+12 -2.86966e+12 -3.63997e+12 -7.53078e+12 -4.86938e+12 -5.48693e+12 -2.51402e+12 -6.35921e+12 -4.1021e+12 -3.02131e+12 -2.8453e+12 -1.75975e+12 -3.42109e+12 -3.06311e+12 -3.06197e+12 -5.22416e+12 -4.43632e+12 -1.61452e+12 -3.00885e+12 -3.35532e+12 -2.41676e+12 -2.7955e+12 -2.1688e+12 -1.48428e+12 -1.88895e+12 -2.07843e+12 -1.75949e+12 -1.29833e+12 -1.71929e+12 -929584000000.0 -1.35639e+12 -2.68113e+12 -598359000000.0 -1.61212e+12 -1.39577e+12 -1.2965e+12 -376036000000.0 -2.01132e+12 -910110000000.0 -1.5622e+12 -1.94452e+12 -947668000000.0 -1.9824e+12 -1.2053e+12 -3.14002e+12 -2.12633e+12 -2.37012e+12 -1.60311e+12 -4.83401e+12 -4.59955e+12 -1.43064e+12 -4.768e+12 -1.37485e+12 -4.18237e+12 -3.89281e+12 -2.59968e+12 -5.92999e+12 -3.91828e+12 -6.8808e+12 -6.16567e+12 -3.27986e+12 -5.06656e+12 -5.65784e+12 -3.29943e+12 -3.68958e+12 -2.69716e+12 -4.51786e+12 -5.03677e+12 -6.92017e+12 -4.54066e+12 -5.91139e+12 -4.09875e+12 -1.95378e+12 -7.86393e+12 -5.44052e+12 -7.07777e+12 -6.36598e+12 -6.00094e+12 -1.13539e+13 -9.16103e+12 -8.15526e+12 -4.01226e+12 -7.72451e+12 -6.1209e+12 -2.80747e+12 -2.44316e+12 -4.36159e+12 -5.11887e+12 -6.64222e+12 -1.1361e+13 -3.176e+12 -7.41936e+12 -8.93799e+12 -8.26813e+12 -8.42765e+12 -6.3649e+12 -9.44181e+12 -3.02561e+12 -1.00522e+13 -7.15501e+12 -7.66658e+12 -4.07271e+12 -3.98457e+12 -5.66238e+12 -3.51309e+12 -4.5397e+12 -4.75739e+12 -4.3186e+12 -3.96721e+12 -4.08046e+12 -6.7466e+12 -3.32424e+12 -3.37324e+12 -3.33016e+12 -3.91039e+12 -3.36666e+12 -3.26763e+12 -2.41199e+12 -1.27126e+12 -2.20691e+12 -1.92982e+12 -2.25187e+12 -1.36472e+12 -1.60924e+12 -942728000000.0 -1.10143e+12 -1.10806e+12 -1.0041e+12 -2.31562e+12 -2.87386e+12 -1.3566e+12 -849528000000.0 -1.35998e+12 -1.92193e+12 -1.05067e+12 -2.59463e+12 -2.70672e+12 -2.46843e+12 -1.95633e+12 -1.81798e+12 -2.584e+12 -1.27235e+12 -2.21272e+12 -3.75442e+12 -3.12517e+12 -3.22524e+12 -3.45706e+12 -3.89583e+12 -4.42633e+12 -3.25366e+12 -3.91001e+12 -5.08106e+12 -4.52965e+12 -3.56891e+12 -4.39245e+12 -3.24177e+12 -3.52534e+12 -3.34949e+12 -1.61488e+12 -4.21337e+12 -4.17821e+12 -4.72652e+12 -4.19315e+12 -5.51512e+12 -6.72027e+12 -4.90325e+12 -5.42201e+12 -4.33895e+12 -1.18395e+13 -4.53946e+12 -7.44515e+12 -7.56106e+12 -6.94404e+12 -6.90843e+12 -7.06343e+12 -1.00618e+13 -8.36219e+12 -7.447e+12 -3.21524e+12 -7.04342e+12 -4.06114e+12 -5.02266e+12 -7.48372e+12 -6.25987e+12 -2.77801e+12 -4.62314e+12 -7.22643e+12 -5.19845e+12 -4.11811e+12 -6.84833e+12 -7.34974e+12 -8.61062e+12 -7.37666e+12 -6.42143e+12 -4.66508e+12 -4.91523e+12 -6.91912e+12 -4.7101e+12 -4.39608e+12 -5.03571e+12 -6.25297e+12 -4.17478e+12 -3.4748e+12 -4.88383e+12 -3.8716e+12 -5.83011e+12 -5.34175e+12 -5.20775e+12 -5.20633e+12 -3.92295e+12 -4.50753e+12 -3.18574e+12 -3.43043e+12 -3.46358e+12 -2.795e+12 -4.12602e+12 -2.84187e+12 -5.60877e+12 -3.65315e+12 -3.82123e+12 -4.51595e+12 -3.14909e+12 -2.55983e+12 -2.50318e+12 -2.67809e+12 -3.06306e+12 -2.40069e+12 -2.12468e+12 -981653000000.0 -1.43067e+12 -929402000000.0 -1.85608e+12 -751299000000.0 -1.15288e+12 -925611000000.0 -1.29283e+12 -181364000000.0 -680471000000.0 -1.4889e+12 -889932000000.0 -944237000000.0 -915853000000.0 -819513000000.0 -1.23205e+12 -2.05726e+12 -1.40545e+12 -948427000000.0 -1.35254e+12 -2.33125e+12 -977109000000.0 -2.12289e+12 -1.9561e+12 -1.98595e+12 -1.73354e+12 -2.00407e+12 -1.87677e+12 -2.24847e+12 -4.76888e+12 -2.30054e+12 -2.44622e+12 -4.23882e+12 -5.11337e+12 -3.3879e+12 -5.07758e+12 -5.3164e+12 -5.22828e+12 -3.95854e+12 -3.71351e+12 -4.22693e+12 -5.83799e+12 -3.48499e+12 -4.50692e+12 -4.47131e+12 -6.57079e+12 -9.4415e+12 -6.01246e+12 -3.58226e+12 -8.87348e+12 -5.66267e+12 -8.45362e+12 -6.5005e+12 -6.89936e+12 -8.26886e+12 -5.15234e+12 -5.76447e+12 -8.54711e+12 -5.6602e+12 -8.05354e+12 -5.15068e+12 -4.22413e+12 -4.29058e+12 -3.40283e+12 -8.23244e+12 -5.98082e+12 -9.45024e+12 -7.63049e+12 -5.78492e+12 -5.57895e+12 -4.24378e+12 -4.32609e+12 -7.12845e+12 -9.61642e+12 -4.48462e+12 -7.82498e+12 -7.69626e+12 -7.47138e+12 -6.52678e+12 -6.34661e+12 -3.62411e+12 -4.01812e+12 -5.67096e+12 -6.58971e+12 -4.09002e+12 -5.16044e+12 -4.0071e+12 -4.4153e+12 -3.83145e+12 -3.38026e+12 -3.76653e+12 -4.578e+12 -3.27188e+12 -3.94888e+12 -3.14816e+12 -4.09461e+12 -4.1658e+12 -3.45471e+12 -3.3628e+12 -1.78113e+12 -1.81379e+12 -1.8129e+12 -1.94024e+12 -602276000000.0 -1.78536e+12 -1.21689e+12 -1.12807e+12 -1.0846e+12 -729418000000.0 -1.19931e+12 -612726000000.0 -1.17637e+12 -835945000000.0 -356305000000.0 -1.68482e+12 -506248000000.0 -2.14745e+12 -1.83959e+12 -1.96182e+12 -2.79992e+12 -907343000000.0 -1.22017e+12 -869655000000.0 -2.9896e+12 -941837000000.0 -1.47949e+12 -1.48041e+12 -3.36749e+12 -2.61394e+12 -2.15079e+12 -3.76194e+12 -1.99977e+12 -1.86708e+12 -5.52083e+12 -4.13232e+12 -3.65698e+12 -2.06754e+12 -2.72201e+12 -4.74317e+12 -3.05185e+12 -5.23884e+12 -5.69307e+12 -7.67771e+12 -3.39923e+12 -4.45484e+12 -6.39818e+12 -6.0504e+12 -5.37661e+12 -5.41912e+12 -6.70755e+12 -5.92715e+12 -9.31166e+12 -7.13878e+12 -8.3179e+12 -6.20878e+12 -3.63313e+12 -4.52385e+12 -4.34466e+12 -4.76312e+12 -1.1617e+13 -5.07099e+12 -7.20904e+12 -5.83896e+12 -8.03137e+12 -5.77592e+12 -3.77768e+12 -3.81926e+12 -2.29742e+12 -8.28104e+12 -5.38683e+12 -8.0699e+12 -6.44937e+12 -7.18349e+12 -3.38036e+12 -5.52888e+12 -7.71729e+12 -5.82247e+12 -6.08274e+12 -6.16452e+12 -5.36684e+12 -4.34693e+12 -4.01977e+12 -4.00805e+12 -3.5389e+12 -5.30125e+12 -5.20161e+12 -8.78029e+12 -3.35075e+12 -4.57401e+12 -5.74611e+12 -4.10776e+12 -5.8217e+12 -4.35649e+12 -4.38384e+12 -6.0094e+12 -3.63503e+12 -3.10129e+12 -3.97416e+12 -2.76061e+12 -2.49292e+12 -3.34238e+12 -5.37676e+12 -1.9832e+12 -1.16812e+12 -2.06653e+12 -1.00104e+12 -1.47702e+12 -467877000000.0 -746636000000.0 -1.08792e+12 -1.86889e+12 -644258000000.0 -986703000000.0 -1.0115e+12 -313473000000.0 -1.59359e+12 -685553000000.0 -1.82442e+12 -734309000000.0 -1.44215e+12 -836511000000.0 -1.18232e+12 -1.28547e+12 -840103000000.0 -743906000000.0 -1.60563e+12 -2.43555e+12 -1.97754e+12 -2.69245e+12 -1.70705e+12 -3.79071e+12 -3.086e+12 -1.47856e+12 -2.27625e+12 -2.91067e+12 -903302000000.0 -2.0104e+12 -3.3607e+12 -1.95356e+12 -3.08046e+12 -2.49421e+12 -4.81392e+12 -5.89483e+12 -5.6801e+12 -3.35026e+12 -4.11532e+12 -3.83799e+12 -2.78529e+12 -3.95744e+12 -5.23385e+12 -6.09816e+12 -3.90365e+12 -5.01474e+12 -4.73378e+12 -5.21953e+12 -6.17425e+12 -5.65835e+12 -5.76695e+12 -9.10954e+12 -6.0302e+12 -5.16442e+12 -8.48509e+12 -3.74047e+12 -8.59838e+12 -9.1149e+12 -7.72265e+12 -8.30434e+12 -6.08139e+12 -8.14459e+12 -4.50878e+12 -6.03964e+12 -7.00908e+12 -6.96126e+12 -3.56157e+12 -7.19458e+12 -6.94921e+12 -4.86808e+12 -7.14597e+12 -7.21946e+12 -6.88172e+12 -8.67771e+12 -8.38053e+12 -3.98913e+12 -8.24154e+12 -4.04984e+12 -9.40741e+12 -5.18835e+12 -4.2298e+12 -4.38601e+12 -4.16072e+12 -6.91655e+12 -1.68329e+12 -3.04547e+12 -6.19209e+12 -4.48766e+12 -7.57166e+12 -5.00176e+12 -3.88293e+12 -5.80687e+12 -3.01428e+12 -4.86535e+12 -3.07397e+12 -4.92606e+12 -3.45945e+12 -4.07387e+12 -2.5534e+12 -2.2253e+12 -3.34236e+12 -2.35243e+12 -2.98984e+12 -3.91085e+12 -2.76365e+12 -2.02699e+12 -2.00473e+12 -2.22415e+12 -3.38652e+12 -4.12059e+12 -2.73121e+12 -2.72518e+12 -1.49992e+12 -1.92608e+12 -989008000000.0 -1.187e+12 -1.99228e+12 -687442000000.0 -1.20882e+12 -1.82216e+12 -2.59558e+12 -1.78634e+12 -1.04934e+12 -875823000000.0 -721614000000.0 -1.14792e+12 -1.38796e+12 -1.18318e+12 -1.69975e+12 -1.65905e+12 -2.17414e+12 -1.52921e+12 -1.73669e+12 -1.97463e+12 -881768000000.0 -2.45321e+12 -2.07306e+12 -2.62051e+12 -2.75682e+12 -2.96015e+12 -2.47511e+12 -1.52176e+12 -3.09333e+12 -2.69263e+12 -4.3615e+12 -4.3133e+12 -2.65647e+12 -4.74758e+12 -2.4805e+12 -5.46298e+12 -2.74146e+12 -4.61539e+12 -3.62876e+12 -3.87979e+12 -4.95895e+12 -6.64604e+12 -5.93682e+12 -2.14605e+12 -4.09387e+12 -9.96399e+12 -5.56161e+12 -6.93244e+12 -6.78183e+12 -4.79014e+12 -6.24171e+12 -5.27569e+12 -2.94403e+12 -1.76879e+12 -2.64571e+12 -2.62419e+12 -5.75655e+12 -5.95044e+12 -4.54598e+12 -3.26769e+12 -6.26853e+12 -7.70874e+12 -6.14275e+12 -6.27135e+12 -5.39249e+12 -8.06342e+12 -3.45387e+12 -7.1092e+12 -4.34356e+12 -1.75932e+12 -6.3585e+12 -8.98732e+12 -8.18293e+12 -6.78132e+12 -8.26166e+12 -7.94251e+12 -6.52889e+12 -8.4666e+12 -6.1432e+12 -6.15221e+12 -5.31096e+12 -6.69524e+12 -6.18786e+12 -4.09718e+12 -6.0902e+12 -3.72656e+12 -6.13865e+12 -8.25705e+12 -3.64562e+12 -3.24715e+12 -3.42756e+12 -3.73036e+12 -4.51448e+12 -5.64872e+12 -3.16497e+12 -5.79197e+12 -5.03061e+12 -5.74785e+12 -6.22732e+12 -3.64619e+12 -1.9468e+12 -3.94097e+12 -2.86395e+12 -2.3318e+12 -3.37611e+12 -4.21114e+12 -1.76472e+12 -930415000000.0 -2.94806e+12 -2.90278e+12 -1.88633e+12 -980891000000.0 -988141000000.0 -1.03641e+12 -2.2473e+12 -1.71547e+12 -2.37047e+12 -1.17922e+12 -1.46234e+12 -2.0366e+12 -769782000000.0 -956512000000.0 -1.33985e+12 -1.04532e+12 -596683000000.0 -535736000000.0 -142677000000.0 -1.10966e+12 -861298000000.0 -942436000000.0 -1.0664e+12 -913471000000.0 -1.67378e+12 -2.13805e+12 -1.15456e+12 -1.17274e+12 -2.75029e+12 -1.24859e+12 -1.23562e+12 -1.39224e+12 -2.24004e+12 -2.87555e+12 -2.76248e+12 -2.65979e+12 -3.04756e+12 -875114000000.0 -873313000000.0 -3.14567e+12 -3.54605e+12 -2.77872e+12 -2.56012e+12 -4.18033e+12 -3.57885e+12 -3.67945e+12 -3.26666e+12 -4.09249e+12 -2.42421e+12 -3.78515e+12 -5.23127e+12 -3.27496e+12 -5.44563e+12 -5.34454e+12 -4.2716e+12 -5.10927e+12 -4.97636e+12 -4.59273e+12 -4.69787e+12 -4.2831e+12 -2.22854e+12 -2.25546e+12 -5.75687e+12 -5.66199e+12 -4.93764e+12 -5.02962e+12 -4.15666e+12 -4.59207e+12 -3.63319e+12 -8.12145e+12 -6.054e+12 -6.40775e+12 -5.43502e+12 -5.01202e+12 -5.67598e+12 -6.23718e+12 -5.70529e+12 -5.09127e+12 -4.67127e+12 -3.65161e+12 -7.77382e+12 -6.18427e+12 -1.77137e+12 -5.54011e+12 -3.83649e+12 -4.92265e+12 -4.90957e+12 -8.93417e+12 -5.29346e+12 -4.96178e+12 -6.1511e+12 -3.58351e+12 -4.7927e+12 -5.36345e+12 -9.4185e+12 -6.90698e+12 -2.15351e+12 -5.02054e+12 -4.85843e+12 -5.03409e+12 -7.05547e+12 -4.14597e+12 -6.28611e+12 -4.67229e+12 -2.75133e+12 -5.54946e+12 -3.92008e+12 -7.47337e+12 -3.46665e+12 -3.90207e+12 -3.48675e+12 -2.425e+12 -5.11125e+12 -3.11539e+12 -4.26926e+12 -5.0421e+12 -3.54901e+12 -3.16647e+12 -1.18093e+12 -4.94659e+12 -3.62844e+12 -3.34738e+12 -4.31364e+12 -2.72039e+12 -1.20436e+12 -3.142e+12 -2.46291e+12 -2.07371e+12 -1.36429e+12 -2.60515e+12 -1.29961e+12 -1.62113e+12 -2.49165e+12 -1.70532e+12 -1.46021e+12 -1.88115e+12 -1.57741e+12 -995545000000.0 -1.78981e+12 -874275000000.0 -1.43482e+12 -1.38822e+12 -242372000000.0 -1.07719e+12 -826730000000.0 -739517000000.0 -770219000000.0 -1.03663e+12 -1.58257e+12 -1.15668e+12 -889295000000.0 -1.62272e+12 -1.41513e+12 -1.46296e+12 -171254000000.0 -953935000000.0 -552466000000.0 -783037000000.0 -1.95852e+12 -1.98346e+12 -1.15196e+12 -474167000000.0 -2.05555e+12 -1.10847e+12 -2.56692e+12 -4.07295e+12 -959880000000.0 -3.9673e+12 -2.23712e+12 -3.74756e+12 -3.97872e+12 -1.94745e+12 -5.0336e+12 -1.80138e+12 -3.57051e+12 -1.32195e+12 -3.7007e+12 -3.99465e+12 -4.53538e+12 -4.11712e+12 -3.47141e+12 -5.55782e+12 -4.61312e+12 -4.16578e+12 -7.41327e+12 -3.19915e+12 -6.97186e+12 -5.70469e+12 -6.89447e+12 -7.22544e+12 -6.75449e+12 -6.45136e+12 -6.2289e+12 -5.71155e+12 -7.18574e+12 -8.01008e+12 -6.46265e+12 -4.59499e+12 -3.59254e+12 -4.19744e+12 -4.65462e+12 -4.69904e+12 -5.13695e+12 -5.81258e+12 -3.379e+12 -4.36523e+12 -4.23477e+12 -4.48061e+12 -3.10936e+12 -5.66436e+12 -3.12982e+12 -5.30032e+12 -8.05987e+12 -5.28592e+12 -9.1437e+12 -8.54864e+12 -6.59024e+12 -3.76309e+12 -2.93687e+12 -7.2848e+12 -6.48057e+12 -9.27906e+12 -3.51094e+12 -3.26721e+12 -4.18381e+12 -3.45712e+12 -4.22401e+12 -3.16633e+12 -5.24041e+12 -6.96446e+12 -5.19177e+12 -4.55846e+12 -5.21256e+12 -3.38791e+12 -4.56828e+12 -3.93908e+12 -4.86933e+12 -3.96656e+12 -2.33122e+12 -2.42989e+12 -5.5448e+12 -5.02565e+12 -3.12584e+12 -2.757e+12 -2.22859e+12 -4.80721e+12 -4.0055e+12 -3.73465e+12 -1.30848e+12 -2.17752e+12 -3.07085e+12 -1.90234e+12 -1.77719e+12 -3.01994e+12 -2.69822e+12 -1.43124e+12 -2.63064e+12 -3.14712e+12 -2.5667e+12 -2.56303e+12 -498204000000.0 -1.701e+12 -42208700000.0 -1.69857e+12 -1.10649e+12 -1.88312e+12 -1.38871e+12 -792349000000.0 -2.16669e+12 -847826000000.0 -775885000000.0 -916163000000.0 -468072000000.0 -527237000000.0 -726751000000.0 -362466000000.0 -538401000000.0 -995883000000.0 -1.09037e+12 -1.07973e+12 -622357000000.0 -830573000000.0 -246572000000.0 -1.81137e+12 -1.87125e+12 -2.10628e+12 -1.72261e+12 -3.00691e+12 -2.12033e+12 -1.29547e+12 -3.18928e+12 -2.78796e+12 -3.59544e+12 -2.72759e+12 -5.25437e+12 -3.41469e+12 -2.89628e+12 -1.80189e+12 -1.89185e+12 -3.07617e+12 -4.33776e+12 -2.12716e+12 -3.88879e+12 -3.89858e+12 -1.51792e+12 -1.65892e+12 -1.06885e+12 -2.6704e+12 -2.12464e+12 -4.45614e+12 -6.17613e+12 -2.55204e+12 -5.89059e+12 -4.64373e+12 -5.41675e+12 -6.81706e+12 -4.90143e+12 -4.6935e+12 -5.25561e+12 -5.85057e+12 -7.68355e+12 -7.47285e+12 -5.1403e+12 -7.67497e+12 -4.70362e+12 -5.92133e+12 -7.13327e+12 -6.98505e+12 -6.66841e+12 -5.00767e+12 -7.04424e+12 -4.74374e+12 -4.46338e+12 -7.00284e+12 -8.53078e+12 -5.57318e+12 -5.40479e+12 -3.22505e+12 -9.00023e+12 -5.69756e+12 -2.93232e+12 -4.00488e+12 -4.83882e+12 -5.22172e+12 -8.35729e+12 -4.30793e+12 -6.2181e+12 -3.65586e+12 -4.20127e+12 -2.27138e+12 -7.17956e+12 -6.90783e+12 -5.61183e+12 -6.38661e+12 -9.7033e+12 -3.66394e+12 -6.74215e+12 -4.10941e+12 -5.70871e+12 -4.41771e+12 -6.3984e+12 -4.02196e+12 -2.91192e+12 -4.16446e+12 -3.20642e+12 -2.39082e+12 -4.82605e+12 -4.10866e+12 -2.9443e+12 -3.28693e+12 -4.02659e+12 -2.17342e+12 -3.13855e+12 -5.14176e+12 -1.82382e+12 -2.95399e+12 -3.17819e+12 -3.33391e+12 -3.15842e+12 -3.199e+12 -927592000000.0 -2.60669e+12 -4.12335e+12 -2.67786e+12 -1.33378e+12 -1.47849e+12 -1.22994e+12 -2.49035e+12 -2.14489e+12 -1.74325e+12 -1.64957e+12 -1.62137e+12 -1.8867e+12 -1.16275e+12 -1.41932e+12 -1.13097e+12 -1.07475e+12 -844892000000.0 -1.02006e+12 -950947000000.0 -149876000000.0 -711777000000.0 -1.18609e+12 -1.43432e+12 -1.58984e+12 -846904000000.0 -809823000000.0 -653835000000.0 -1.2551e+12 -1.32572e+12 -789785000000.0 -1.06371e+12 -1.40297e+12 -1.88544e+12 -1.28885e+12 -1.03235e+12 -2.25542e+12 -1.3941e+12 -1.63642e+12 -947286000000.0 -896121000000.0 -2.66696e+12 -2.959e+12 -2.46142e+12 -1.38766e+12 -1.91408e+12 -1.90771e+12 -3.50786e+12 -1.54015e+12 -2.54288e+12 -2.63941e+12 -3.30652e+12 -1.11329e+12 -5.80755e+12 -3.54327e+12 -4.51737e+12 -3.43589e+12 -4.43847e+12 -4.81139e+12 -2.16636e+12 -1.64225e+12 -7.71446e+12 -6.22643e+12 -3.04853e+12 -3.73941e+12 -3.7962e+12 -7.74458e+12 -2.96604e+12 -5.21774e+12 -5.72263e+12 -5.50452e+12 -5.05738e+12 -4.11191e+12 -3.27315e+12 -6.69556e+12 -6.10026e+12 -3.93898e+12 -3.90035e+12 -5.45115e+12 -2.82102e+12 -7.36263e+12 -3.92287e+12 -5.20055e+12 -4.15916e+12 -6.26843e+12 -5.36734e+12 -3.01045e+12 -3.77611e+12 -6.68746e+12 -4.36987e+12 -2.73913e+12 -3.64367e+12 -5.1745e+12 -5.35111e+12 -2.76433e+12 -3.89294e+12 -5.46547e+12 -7.31864e+12 -4.58268e+12 -5.5787e+12 -5.77654e+12 -5.55097e+12 -6.41367e+12 -1.28722e+13 -7.17613e+12 -3.97174e+12 -3.65168e+12 -6.23706e+12 -5.57072e+12 -6.28809e+12 -3.68164e+12 -6.63711e+12 -4.37358e+12 -5.0401e+12 -4.50473e+12 -2.95814e+12 -2.85773e+12 -1.85352e+12 -2.84429e+12 -781318000000.0 -2.53434e+12 -3.31159e+12 -5.87082e+12 -5.31121e+12 -3.18599e+12 -3.00087e+12 -3.88919e+12 -1.33646e+12 -3.00679e+12 -2.06035e+12 -1.95402e+12 -2.25274e+12 -1.7257e+12 -1.6791e+12 -2.00775e+12 -2.7306e+12 -2.27851e+12 -2.05971e+12 -1.77312e+12 -2.45233e+12 -1.60456e+12 -2.76062e+12 -2.50824e+12 -1.08248e+12 -2.11178e+12 -798222000000.0 -1.14825e+12 -1.39624e+12 -2.20979e+12 -1.13779e+12 -542232000000.0 -716032000000.0 -300220000000.0 -1.09564e+12 -1.16203e+12 -520061000000.0 -569969000000.0 -1.02616e+12 -806224000000.0 -146071000000.0 -724917000000.0 -1.12734e+12 -826413000000.0 -510305000000.0 -369179000000.0 -772194000000.0 -1.00146e+12 -812551000000.0 -79403100000.0 -962147000000.0 -1.7527e+12 -1.54005e+12 -1.13451e+12 -1.42881e+12 -945417000000.0 -1.45407e+12 -927048000000.0 -2.76418e+12 -3.36174e+12 -1.82186e+12 -1.37451e+12 -1.55289e+12 -2.45544e+12 -1.8645e+12 -3.52618e+12 -2.72112e+12 -1.9139e+12 -1.64386e+12 -3.95975e+12 -1.99847e+12 -3.60246e+12 -4.59463e+12 -2.52267e+12 -2.92432e+12 -2.89532e+12 -6.02565e+12 -1.93956e+12 -5.60682e+12 -4.59026e+12 -6.60046e+12 -4.03801e+12 -4.71307e+12 -5.53546e+12 -4.82032e+12 -3.43606e+12 -3.8018e+12 -2.51375e+12 -2.58688e+12 -4.92461e+12 -3.50067e+12 -4.77673e+12 -3.92954e+12 -5.66435e+12 -5.6467e+12 -6.35743e+12 -4.65601e+12 -4.14736e+12 -6.76546e+12 -7.88384e+12 -8.14178e+12 -6.15943e+12 -5.94682e+12 -4.79471e+12 -6.44858e+12 -6.90424e+12 -5.65481e+12 -4.55743e+12 -2.2227e+12 -3.09051e+12 -2.20157e+12 -5.04435e+12 -5.06811e+12 -3.84083e+12 -3.01078e+12 -3.06373e+12 -2.85429e+12 -5.30278e+12 -6.92114e+12 -4.24401e+12 -5.58166e+12 -4.3469e+12 -4.66902e+12 -8.16571e+12 -3.69935e+12 -4.575e+12 -5.55023e+12 -3.71106e+12 -5.90074e+12 -3.67128e+12 -3.72395e+12 -4.86116e+12 -3.96254e+12 -4.52592e+12 -6.04875e+12 -3.85269e+12 -4.88716e+12 -6.60671e+12 -2.12029e+12 -2.07207e+12 -2.92928e+12 -2.82246e+12 -3.5518e+12 -2.46537e+12 -1.97088e+12 -1.77134e+12 -2.3527e+12 -2.09986e+12 -3.59107e+12 -2.81692e+12 -2.98927e+12 -1.20613e+12 -2.17136e+12 -2.75842e+12 -1.72093e+12 -2.20185e+12 -640417000000.0 -910783000000.0 -1.11254e+12 -621183000000.0 -1.15508e+12 -1.21539e+12 -384934000000.0 -919442000000.0 -476516000000.0 -1.13098e+12 -957688000000.0 -330132000000.0 -773581000000.0 -892937000000.0 -782447000000.0 -543497000000.0 -879745000000.0 -813819000000.0 -922257000000.0 -199168000000.0 -88188300000.0 -678300000000.0 -786635000000.0 -603796000000.0 -1.42189e+12 -401006000000.0 -115642000000.0 -894852000000.0 -1.74019e+12 -602370000000.0 -476953000000.0 -1.13489e+12 -1.19597e+12 -235710000000.0 -1.9976e+12 -871918000000.0 -612355000000.0 -1.29418e+12 -1.01528e+12 -2.70731e+12 -3.13039e+12 -2.02307e+12 -2.84787e+12 -3.12726e+12 -708235000000.0 -2.81607e+12 -3.82157e+12 -3.49652e+12 -3.56303e+12 -2.17525e+12 -3.47898e+12 -2.95801e+12 -2.89861e+12 -2.16263e+12 -4.49197e+12 -1.88019e+12 -2.53536e+12 -3.23317e+12 -3.20187e+12 -3.5644e+12 -3.77637e+12 -3.30687e+12 -4.83001e+12 -5.46337e+12 -5.10651e+12 -2.99033e+12 -3.6787e+12 -2.04272e+12 -6.94164e+12 -3.99977e+12 -3.74598e+12 -4.61955e+12 -3.37092e+12 -5.83348e+12 -6.8726e+12 -5.25282e+12 -5.12832e+12 -6.2767e+12 -4.06092e+12 -4.3981e+12 -6.88549e+12 -5.63425e+12 -3.91584e+12 -4.24194e+12 -3.65187e+12 -4.53076e+12 -2.26021e+12 -5.13316e+12 -3.28809e+12 -5.10905e+12 -4.47502e+12 -4.56026e+12 -3.94559e+12 -2.83201e+12 -3.08065e+12 -3.95992e+12 -5.0312e+12 -4.6056e+12 -2.20558e+12 -2.7542e+12 -2.18578e+12 -4.40737e+12 -4.98014e+12 -3.33337e+12 -1.49893e+12 -4.35297e+12 -4.36128e+12 -4.05873e+12 -2.90935e+12 -1.89579e+12 -3.47844e+12 -4.25182e+12 -3.70814e+12 -3.2064e+12 -3.37844e+12 -3.4605e+12 -6.07184e+12 -1.66997e+12 -5.72494e+12 -2.90801e+12 -5.0573e+12 -3.35468e+12 -2.37084e+12 -1.29575e+12 -3.5302e+12 -1.22078e+12 -869578000000.0 -3.28812e+12 -1.7966e+12 -1.50611e+12 -3.2245e+12 -2.90032e+12 -2.63745e+12 -1.74563e+12 -1.16408e+12 -1.59456e+12 -1.45169e+12 -867405000000.0 -1.06601e+12 -919865000000.0 -2.60249e+12 -1.59797e+12 -2.28412e+12 -343877000000.0 -1.14971e+12 -1.54446e+12 -783807000000.0 -911295000000.0 -472194000000.0 -602206000000.0 -558814000000.0 -755653000000.0 -911759000000.0 -935192000000.0 -760031000000.0 -817828000000.0 -1.27632e+12 -615390000000.0 -1.02417e+12 -1.09054e+12 -885318000000.0 -1.48969e+12 -1.85604e+12 -731397000000.0 -704994000000.0 -817026000000.0 -776297000000.0 -508075000000.0 -975246000000.0 -1.20792e+12 -830500000000.0 -1.81176e+12 -978620000000.0 -1.98967e+12 -2.81225e+12 -2.53319e+12 -2.55463e+12 -3.10532e+12 -1.65088e+12 -3.71251e+12 -4.06592e+12 -2.54667e+12 -1.82771e+12 -3.28534e+12 -4.90852e+12 -2.10934e+12 -1.98277e+12 -3.34372e+12 -3.06903e+12 -2.45973e+12 -4.39366e+12 -3.81367e+12 -3.64765e+12 -1.31412e+12 -2.62887e+12 -3.35627e+12 -7.77372e+12 -2.98509e+12 -3.48718e+12 -5.00404e+12 -3.05961e+12 -3.11951e+12 -3.39063e+12 -3.04544e+12 -2.58972e+12 -3.28878e+12 -4.91857e+12 -7.34015e+12 -8.1661e+12 -3.31973e+12 -5.72858e+12 -5.28728e+12 -3.70153e+12 -8.44498e+12 -2.39177e+12 -4.31258e+12 -4.07866e+12 -5.50547e+12 -3.0904e+12 -3.65741e+12 -4.32724e+12 -5.82531e+12 -5.33494e+12 -4.90949e+12 -5.09206e+12 -4.6806e+12 -2.6939e+12 -2.89193e+12 -3.79201e+12 -4.43387e+12 -2.44084e+12 -1.78656e+12 -2.2406e+12 -3.0078e+12 -3.24702e+12 -2.65226e+12 -4.32905e+12 -2.88727e+12 -2.08901e+12 -2.01425e+12 -4.62391e+12 -1.82272e+12 -2.51898e+12 -2.89982e+12 -2.55789e+12 -2.05842e+12 -4.62377e+12 -3.05511e+12 -2.16975e+12 -3.99861e+12 -3.06926e+12 -2.32506e+12 -2.57381e+12 -1.5301e+12 -2.02969e+12 -358208000000.0 -2.96115e+12 -1.63346e+12 -1.44822e+12 -1.03309e+12 -1.50771e+12 -1.10282e+12 -2.15188e+12 -510261000000.0 -1.20486e+12 -812044000000.0 -746032000000.0 -630720000000.0 -1.38532e+12 -579732000000.0 -878174000000.0 -368154000000.0 -408942000000.0 -127832000000.0 -839804000000.0 -915657000000.0 -498714000000.0 -335575000000.0 -144492000000.0 -503925000000.0 -337920000000.0 -370305000000.0 -739987000000.0 -368608000000.0 -1.00126e+12 -1.29782e+12 -164162000000.0 -657303000000.0 -1.24484e+12 -161259000000.0 -1.87702e+12 -1.71186e+12 -1.50584e+12 -1.46066e+12 -2.18398e+12 -955753000000.0 -2.07224e+12 -2.05434e+12 -1.21105e+12 -2.20018e+12 -2.04979e+12 -3.36092e+12 -3.76687e+12 -3.59957e+12 -3.74529e+12 -4.48395e+12 -4.05342e+12 -4.2342e+12 -1.21206e+12 -2.49201e+12 -1.12852e+12 -3.41659e+12 -4.69279e+12 -6.28451e+12 -2.93098e+12 -2.09002e+12 -3.32422e+12 -3.20288e+12 -5.75453e+12 -3.78309e+12 -5.58073e+12 -3.34463e+12 -4.30013e+12 -3.1034e+12 -2.41929e+12 -2.73098e+12 -4.36207e+12 -5.06777e+12 -4.78653e+12 -4.20647e+12 -3.25871e+12 -3.72803e+12 -4.5762e+12 -5.45681e+12 -6.00743e+12 -1.55904e+12 -3.0842e+12 -4.10425e+12 -3.01638e+12 -2.50816e+12 -5.50807e+12 -4.4802e+12 -4.62475e+12 -3.05483e+12 -4.3451e+12 -3.31818e+12 -5.28717e+12 -2.46242e+12 -3.26962e+12 -2.94893e+12 -2.36933e+12 -2.9517e+12 -1.62381e+12 -3.85022e+12 -1.01333e+12 -3.84576e+12 -2.54317e+12 -2.83031e+12 -2.04783e+12 -2.46346e+12 -1.32626e+12 -3.34451e+12 -3.28278e+12 -2.66074e+12 -1.89624e+12 -2.35772e+12 -2.21187e+12 -2.04179e+12 -3.75501e+12 -3.18715e+12 -2.21212e+12 -2.192e+12 -1.8714e+12 -1.15939e+12 -1.2249e+12 -2.20577e+12 -1.69391e+12 -822404000000.0 -837374000000.0 -1.1204e+12 -721639000000.0 -944663000000.0 -1.13781e+12 -699323000000.0 -553840000000.0 -852304000000.0 -431759000000.0 -828664000000.0 -508563000000.0 -1.0024e+12 -155894000000.0 -310906000000.0 -343846000000.0 -407497000000.0 -491794000000.0 -167418000000.0 -412855000000.0 -52447300000.0 -260137000000.0 -401350000000.0 -740872000000.0 -240341000000.0 -741173000000.0 -804214000000.0 -431277000000.0 -136320000000.0 -894104000000.0 -980481000000.0 -1.39926e+12 -1.31314e+12 -1.56645e+12 -739347000000.0 -1.19267e+12 -1.28493e+12 -1.59396e+12 -2.19639e+12 -1.46616e+12 -1.91386e+12 -3.06347e+12 -2.13342e+12 -2.98997e+12 -300034000000.0 -1.81484e+12 -3.3205e+12 -1.23853e+12 -2.38425e+12 -3.19188e+12 -2.66987e+12 -3.42612e+12 -3.09919e+12 -3.17952e+12 -4.86836e+12 -3.84552e+12 -2.68483e+12 -4.04954e+12 -3.86386e+12 -1.07175e+12 -2.43683e+12 -2.13026e+12 -2.63582e+12 -2.64008e+12 -3.83238e+12 -3.83499e+12 -3.75731e+12 -3.55138e+12 -5.72467e+12 -3.88868e+12 -2.33949e+12 -2.36612e+12 -4.01851e+12 -4.26377e+12 -7.58985e+12 -1.73169e+12 -5.17646e+12 -4.24605e+12 -2.72532e+12 -1.76902e+12 -1.9777e+12 -1.44625e+12 -1.87751e+12 -3.26434e+12 -3.64638e+12 -3.00232e+12 -4.00454e+12 -3.34713e+12 -4.09415e+12 -3.324e+12 -3.94704e+12 -3.18771e+12 -3.42517e+12 -2.93309e+12 -2.19675e+12 -2.0607e+12 -1.62033e+12 -3.1837e+12 -2.52832e+12 -1.15967e+12 -4.02608e+12 -2.4724e+12 -3.09445e+12 -814779000000.0 -1.32339e+12 -3.264e+12 -2.86686e+12 -3.81481e+12 -1.76901e+12 -1.51383e+12 -1.8773e+12 -1.32419e+12 -2.26134e+12 -1.49912e+12 -2.44174e+12 -1.66558e+12 -708130000000.0 -2.54063e+12 -1.59399e+12 -2.91389e+12 -793574000000.0 -1.46379e+12 -1.92715e+12 -829170000000.0 -711049000000.0 -1.60476e+12 -666705000000.0 -842874000000.0 -1.21016e+12 -780564000000.0 -337419000000.0 -447453000000.0 -330983000000.0 -564972000000.0 -905121000000.0 -316461000000.0 -417848000000.0 -391199000000.0 -245460000000.0 -524524000000.0 -422238000000.0 -55259100000.0 -477797000000.0 -225053000000.0 -409184000000.0 -377642000000.0 -498685000000.0 -582701000000.0 -456225000000.0 -452760000000.0 -1.16928e+12 -445669000000.0 -152666000000.0 -317061000000.0 -753462000000.0 -1.09355e+12 -1.3184e+12 -914314000000.0 -1.40152e+12 -1.16729e+12 -1.85686e+12 -1.36794e+12 -1.05657e+12 -1.08485e+12 -1.80246e+12 -1.03996e+12 -1.90537e+12 -2.7134e+12 -1.62963e+12 -995525000000.0 -2.73781e+12 -1.90636e+12 -2.46836e+12 -807817000000.0 -3.12355e+12 -4.40667e+12 -3.11532e+12 -1.33761e+12 -1.92552e+12 -2.44763e+12 -1.65013e+12 -3.42636e+12 -4.09016e+12 -2.51874e+12 -4.97248e+12 -5.71133e+12 -2.8959e+12 -8.26443e+12 -3.1744e+12 -5.72848e+12 -2.79325e+12 -932204000000.0 -3.49981e+12 -3.23616e+12 -4.7793e+12 -2.51873e+12 -2.68764e+12 -1.95746e+12 -1.08832e+12 -1.36163e+12 -4.55154e+12 -1.26902e+12 -1.83656e+12 -4.46332e+12 -2.79184e+12 -3.51189e+12 -2.90355e+12 -2.96025e+12 -1.93856e+12 -2.33548e+12 -2.27117e+12 -1.62864e+12 -3.1218e+12 -2.73491e+12 -3.93764e+12 -3.23179e+12 -1.00686e+12 -2.20614e+12 -3.02359e+12 -4.78651e+12 -3.31836e+12 -1.74919e+12 -1.2548e+12 -1.48658e+12 -2.19038e+12 -1.61046e+12 -994404000000.0 -2.74432e+12 -1.68283e+12 -1.56843e+12 -1.0375e+12 -1.78752e+12 -2.16701e+12 -13529000000.0 -1.46307e+12 -1.77743e+12 -411263000000.0 -1.13903e+12 -740243000000.0 -638800000000.0 -1.06626e+12 -490448000000.0 -516100000000.0 -380010000000.0 -604648000000.0 -914904000000.0 -541092000000.0 -275477000000.0 -659631000000.0 -707759000000.0 -42856000000.0 -341155000000.0 -289901000000.0 -432378000000.0 -307620000000.0 -277500000000.0 -89512200000.0 -434604000000.0 -679824000000.0 -383040000000.0 -369177000000.0 -683943000000.0 -249390000000.0 -404864000000.0 -146205000000.0 -681392000000.0 -432728000000.0 -26614300000.0 -825564000000.0 -684656000000.0 -433512000000.0 -664453000000.0 -1.34133e+12 -315874000000.0 -889774000000.0 -426453000000.0 -935134000000.0 -736213000000.0 -1.22913e+12 -1.12454e+12 -725608000000.0 -518844000000.0 -1.38811e+12 -1.48891e+12 -2.70356e+12 -2.49381e+12 -1.38583e+12 -1.27778e+12 -2.91635e+12 -898612000000.0 -1.44334e+12 -1.07049e+12 -1.25627e+12 -1.41042e+12 -2.50261e+12 -4.0517e+12 -1.26505e+12 -2.57366e+12 -3.37529e+12 -4.41468e+12 -3.78445e+12 -2.86603e+12 -3.26629e+12 -3.4258e+12 -4.07779e+12 -1.70377e+12 -2.87888e+12 -2.43902e+12 -4.16133e+12 -4.61144e+12 -2.89839e+12 -2.42767e+12 -1.97143e+12 -2.9405e+12 -3.72168e+12 -2.62354e+12 -3.83076e+12 -2.02741e+12 -2.7077e+12 -2.65008e+12 -2.23187e+12 -1.19658e+12 -3.34318e+12 -3.99759e+12 -846769000000.0 -1.93808e+12 -2.22784e+12 -2.83754e+12 -2.57431e+12 -2.84653e+12 -2.90895e+12 -1.81008e+12 -2.00633e+12 -2.09319e+12 -2.24434e+12 -2.24112e+12 -2.00187e+12 -2.64874e+12 -1.70229e+12 -925048000000.0 -1.81483e+12 -1.5295e+12 -1.86293e+12 -2.07281e+12 -3.38105e+12 -2.70272e+12 -1.39033e+12 -1.88338e+12 -2.51306e+12 -979007000000.0 -773638000000.0 -1.28322e+12 -2.64507e+12 -1.91006e+12 -932733000000.0 -823203000000.0 -1.07655e+12 -1.38311e+12 -781256000000.0 -1.54807e+12 -1.0421e+12 -215452000000.0 -766967000000.0 -850394000000.0 -913862000000.0 -1.11684e+12 -780010000000.0 -608067000000.0 -480326000000.0 -136362000000.0 -100652000000.0 -566750000000.0 -486798000000.0 -341038000000.0 -196438000000.0 -166072000000.0 -408000000000.0 -504557000000.0 -543410000000.0 -106550000000.0 -95508300000.0 -326358000000.0 -386736000000.0 -12533100000.0 -147956000000.0 -114739000000.0 -177791000000.0 -42589700000.0 -341407000000.0 -547490000000.0 -450921000000.0 -225010000000.0 -190115000000.0 -114958000000.0 -657551000000.0 -342601000000.0 -880175000000.0 -489339000000.0 -410082000000.0 -316322000000.0 -949200000000.0 -118449000000.0 -698457000000.0 -562778000000.0 -829692000000.0 -378352000000.0 -616458000000.0 -895310000000.0 -820158000000.0 -333893000000.0 -163935000000.0 -472231000000.0 -1.07405e+12 -419389000000.0 -1.99207e+12 -1.45917e+12 -1.33391e+12 -1.26474e+12 -2.46804e+12 -2.99424e+12 -1.32675e+12 -2.94162e+12 -1.77322e+12 -1.98469e+12 -1.11706e+12 -2.30741e+12 -2.54053e+12 -2.92418e+12 -1.41893e+12 -2.09002e+12 -3.07904e+12 -3.15545e+12 -1.97751e+12 -2.11113e+12 -2.02622e+12 -1.69451e+12 -1.61486e+12 -2.99461e+12 -3.22124e+12 -1.62015e+12 -2.21668e+12 -3.95628e+12 -3.07501e+12 -2.64589e+12 -3.23688e+12 -3.06018e+12 -1.35415e+12 -1.455e+12 -2.48795e+12 -2.3903e+12 -2.42772e+12 -3.52374e+12 -2.8119e+12 -999086000000.0 -2.37103e+12 -1.87727e+12 -3.28574e+12 -2.36064e+12 -2.43077e+12 -1.93238e+12 -2.46437e+12 -3.31045e+12 -1.05207e+12 -2.11475e+12 -1.1927e+12 -2.619e+12 -2.72129e+12 -989379000000.0 -3.17497e+12 -730451000000.0 -2.87298e+12 -3.15491e+12 -2.10485e+12 -940445000000.0 -1.08957e+12 -1.70314e+12 -417864000000.0 -967701000000.0 -1.52205e+12 -870280000000.0 -758256000000.0 -1.23388e+12 -1.17443e+12 -1.61432e+12 -833708000000.0 -762826000000.0 -609827000000.0 -63186800000.0 -763164000000.0 -502088000000.0 -363732000000.0 -227320000000.0 -308556000000.0 -535297000000.0 -562662000000.0 -270496000000.0 -239155000000.0 -214527000000.0 -535146000000.0 -369885000000.0 -290683000000.0 -292850000000.0 -305992000000.0 -178978000000.0 -357372000000.0 -116558000000.0 -336432000000.0 -343113000000.0 -421305000000.0 -346661000000.0 -759180000000.0 -127640000000.0 -355965000000.0 -672001000000.0 -631002000000.0 -506659000000.0 -590702000000.0 -171414000000.0 -181877000000.0 -669656000000.0 -1.38276e+12 -1.25325e+12 -1.3541e+12 -1.17637e+12 -939382000000.0 -1.23063e+12 -1.49205e+12 -1.69554e+12 -1.18852e+12 -1.15416e+12 -1.48279e+12 -1.94643e+12 -1.05622e+12 -1.10382e+12 -790441000000.0 -2.07535e+12 -1.6321e+12 -2.23925e+12 -1.67229e+12 -877396000000.0 -1.82625e+12 -1.54911e+12 -1.41515e+12 -2.56312e+12 -1.99255e+12 -3.10955e+12 -2.22763e+12 -2.21556e+12 -1.85578e+12 -1.62303e+12 -1.58895e+12 -2.84558e+12 -1.62774e+12 -2.00525e+12 -2.52059e+12 -1.76278e+12 -2.46213e+12 -3.62818e+12 -2.2175e+12 -1.55157e+12 -1.32364e+12 -3.2277e+12 -3.38826e+12 -2.31712e+12 -1.31445e+12 -1.78545e+12 -1.80909e+12 -1.94663e+12 -1.36864e+12 -961221000000.0 -1.45411e+12 -1.13397e+12 -2.48344e+12 -1.35747e+12 -1.89483e+12 -1.3491e+12 -1.01781e+12 -1.44056e+12 -1.68345e+12 -718017000000.0 -1.13184e+12 -1.46884e+12 -1.66805e+12 -1.19608e+12 -2.98746e+12 -2.67469e+12 -1.56837e+12 -1.35855e+12 -1.21644e+12 -973840000000.0 -521692000000.0 -1.21501e+12 -584093000000.0 -889743000000.0 -937639000000.0 -518870000000.0 -1.07496e+12 -338296000000.0 -486120000000.0 -1.10724e+12 -1.19569e+12 -915428000000.0 -465366000000.0 -362150000000.0 -536185000000.0 -456647000000.0 -178346000000.0 -120470000000.0 -404873000000.0 -175972000000.0 -140150000000.0 -348870000000.0 -320099000000.0 -180347000000.0 -199876000000.0 -64909500000.0 -297961000000.0 -284310000000.0 -338266000000.0 -229624000000.0 -227729000000.0 -313245000000.0 -291083000000.0 -472544000000.0 -353914000000.0 -451914000000.0 -492279000000.0 -428824000000.0 -71688200000.0 -299526000000.0 -756266000000.0 -813790000000.0 -205711000000.0 -206853000000.0 -370585000000.0 -579397000000.0 -121206000000.0 -471855000000.0 -944009000000.0 -1.07534e+12 -1.3798e+12 -1.50554e+12 -1.27485e+12 -1.21354e+12 -1.37219e+12 -585639000000.0 -1.87221e+12 -933437000000.0 -1.31269e+12 -1.88105e+12 -1.69776e+12 -1.19304e+12 -1.04749e+12 -1.41041e+12 -2.34396e+12 -1.20831e+12 -2.73526e+12 -2.83049e+12 -1.72627e+12 -649480000000.0 -2.68963e+12 -3.13355e+12 -3.04508e+12 -1.76544e+12 -1.94267e+12 -1.66507e+12 -2.58082e+12 -2.29146e+12 -1.75058e+12 -2.01213e+12 -2.01245e+12 -2.37344e+12 -1.66568e+12 -1.46207e+12 -2.24662e+12 -2.25302e+12 -1.55049e+12 -1.60916e+12 -1.42472e+12 -954114000000.0 -1.90245e+12 -1.14583e+12 -2.62168e+12 -1.64785e+12 -1.97575e+12 -1.81377e+12 -1.61371e+12 -1.45162e+12 -1.54433e+12 -1.54507e+12 -1.50593e+12 -1.0863e+12 -1.41611e+12 -905913000000.0 -1.29459e+12 -1.32451e+12 -855937000000.0 -590694000000.0 -955236000000.0 -474627000000.0 -1.133e+12 -1.47907e+12 -1.91243e+12 -1.71535e+12 -1.25251e+12 -977511000000.0 -768566000000.0 -499668000000.0 -1.12757e+12 -697924000000.0 -749651000000.0 -323503000000.0 -799807000000.0 -741902000000.0 -53775900000.0 -39656700000.0 -782015000000.0 -439826000000.0 -697684000000.0 -435716000000.0 -241617000000.0 -524296000000.0 -176277000000.0 -422669000000.0 -357671000000.0 -48046900000.0 -233431000000.0 -194159000000.0 -16633500000.0 -238816000000.0 -181909000000.0 -217282000000.0 -50169700000.0 -176561000000.0 -220572000000.0 -178644000000.0 -217649000000.0 -369792000000.0 -346697000000.0 -34707300000.0 -60648800000.0 -13520700000.0 -485887000000.0 -91504000000.0 -74518700000.0 -236725000000.0 -16038800000.0 -249415000000.0 -606760000000.0 -407981000000.0 -90708000000.0 -386735000000.0 -467232000000.0 -355028000000.0 -416159000000.0 -199044000000.0 -445599000000.0 -732001000000.0 -894009000000.0 -982179000000.0 -685228000000.0 -298908000000.0 -227070000000.0 -1.17951e+12 -2.05558e+12 -939870000000.0 -1.2404e+12 -513016000000.0 -1.12648e+12 -2.06807e+12 -981243000000.0 -1.00367e+12 -455557000000.0 -2.11755e+12 -1.33731e+12 -558172000000.0 -2.1458e+12 -8305020000.0 -1.23969e+12 -2.47117e+12 -697790000000.0 -876496000000.0 -196931000000.0 -673931000000.0 -2.75037e+12 -1.13855e+12 -2.40914e+12 -1.66838e+12 -1.07294e+12 -2.69289e+12 -2.49487e+12 -2.60769e+12 -2.0696e+12 -1.5062e+12 -3.05881e+12 -2.01614e+12 -1.95899e+12 -1.75507e+12 -2.522e+12 -514811000000.0 -262873000000.0 -1.30535e+12 -1.89286e+12 -858656000000.0 -727585000000.0 -247946000000.0 -688415000000.0 -1.13525e+12 -1.67403e+12 -1.9407e+12 -525323000000.0 -925491000000.0 -593020000000.0 -1.43363e+12 -1.36829e+12 -570930000000.0 -965590000000.0 -535287000000.0 -1.13545e+12 -942935000000.0 -273012000000.0 -467057000000.0 -416243000000.0 -830374000000.0 -785513000000.0 -769765000000.0 -873169000000.0 -540781000000.0 -412616000000.0 -355040000000.0 -157336000000.0 -77989300000.0 -181435000000.0 -276695000000.0 -184395000000.0 -254132000000.0 -216572000000.0 -315774000000.0 -370667000000.0 -243235000000.0 -138299000000.0 -205221000000.0 -220385000000.0 -159622000000.0 -183252000000.0 -143902000000.0 -72761300000.0 -78653200000.0 -213720000000.0 -119162000000.0 -132378000000.0 -334030000000.0 -140452000000.0 -39187700000.0 -31300400000.0 -130279000000.0 -346390000000.0 -263717000000.0 -315784000000.0 -300111000000.0 -54586000000.0 -255535000000.0 -240849000000.0 -540011000000.0 -127594000000.0 -534217000000.0 -555335000000.0 -346632000000.0 -517865000000.0 -427690000000.0 -1.54391e+12 -1.07898e+12 -1.18268e+12 -597738000000.0 -638369000000.0 -490271000000.0 -796374000000.0 -842234000000.0 -1.8992e+12 -1.61831e+12 -642608000000.0 -1.80415e+12 -1.67205e+12 -1.28095e+12 -1.57839e+12 -2.11212e+12 -1.97729e+12 -1.67218e+12 -1.5991e+12 -742413000000.0 -832448000000.0 -1.9508e+12 -2.34511e+12 -2.56535e+12 -1.10338e+12 -2.34751e+12 -1.1392e+12 -2.57971e+12 -1.01907e+12 -1.5828e+12 -2.58631e+12 -2.77096e+12 -534337000000.0 -816431000000.0 -769127000000.0 -1.32186e+12 -1.86843e+12 -1.86172e+12 -940835000000.0 -724498000000.0 -99465700000.0 -1.12555e+12 -1.36474e+12 -861500000000.0 -199053000000.0 -1.11486e+12 -1.38196e+12 -1.66868e+12 -395859000000.0 -1.00543e+12 -941666000000.0 -605100000000.0 -555965000000.0 -651228000000.0 -1.36808e+12 -1.05084e+12 -1.29636e+12 -1.17306e+12 -742262000000.0 -1.23106e+12 -1.22095e+12 -499720000000.0 -1.37439e+12 -874147000000.0 -195073000000.0 -343470000000.0 -140535000000.0 -262543000000.0 -570434000000.0 -798223000000.0 -970954000000.0 -443286000000.0 -500772000000.0 -292525000000.0 -402047000000.0 -427883000000.0 -310827000000.0 -187091000000.0 -131323000000.0 -48227600000.0 -47168600000.0 -21920900000.0 -122462000000.0 -226182000000.0 -88925800000.0 -36077000000.0 -100487000000.0 -79817300000.0 -95416000000.0 -224428000000.0 -49933600000.0 -164754000000.0 -158978000000.0 -287979000000.0 -98084100000.0 -109768000000.0 -134329000000.0 -137503000000.0 -452737000000.0 -289651000000.0 -324285000000.0 -307754000000.0 -224018000000.0 -283805000000.0 -505333000000.0 -766202000000.0 -357972000000.0 -602331000000.0 -1.2298e+12 -369475000000.0 -548810000000.0 -801618000000.0 -450925000000.0 -720603000000.0 -615520000000.0 -1.31938e+12 -764859000000.0 -1.45803e+12 -1.07564e+12 -594814000000.0 -1.19099e+12 -781577000000.0 -1.44589e+12 -1.16424e+12 -1.29276e+12 -1.12688e+12 -779409000000.0 -2.03921e+12 -1.75716e+12 -1.91104e+12 -1.50969e+12 -2.28696e+12 -1.79503e+12 -1.07516e+12 -1.76173e+12 -1.37466e+12 -1.04342e+12 -1.28652e+12 -1.01795e+12 -2.72012e+12 -1.82072e+12 -807621000000.0 -521243000000.0 -726750000000.0 -582628000000.0 -1.32765e+12 -1.41743e+12 -1.59669e+12 -163712000000.0 -1.11233e+12 -942191000000.0 -1.64251e+12 -1.16849e+12 -1.03396e+12 -22746200000.0 -1.21185e+12 -1.56187e+12 -401367000000.0 -782020000000.0 -1.06286e+12 -495477000000.0 -257314000000.0 -1.25428e+12 -670104000000.0 -678878000000.0 -944562000000.0 -368715000000.0 -959622000000.0 -719499000000.0 -431618000000.0 -209968000000.0 -428611000000.0 -279686000000.0 -804391000000.0 -383530000000.0 -232403000000.0 -128667000000.0 -424907000000.0 -250611000000.0 -158673000000.0 -123824000000.0 -173614000000.0 -121518000000.0 -32838300000.0 -23476300000.0 -14022600000.0 -188124000000.0 -211203000000.0 -126503000000.0 -72188300000.0 -161770000000.0 -161001000000.0 -58872200000.0 -84602800000.0 -111003000000.0 -52572500000.0 -93355800000.0 -14099200000.0 -212174000000.0 -176014000000.0 -67144400000.0 -296755000000.0 -112480000000.0 -301651000000.0 -254695000000.0 -501167000000.0 -59517300000.0 -164083000000.0 -12549100000.0 -246930000000.0 -246268000000.0 -561228000000.0 -374794000000.0 -686729000000.0 -640405000000.0 -1.02876e+12 -781385000000.0 -1.22342e+12 -891765000000.0 -1.63036e+12 -570892000000.0 -1.8435e+12 -850849000000.0 -406480000000.0 -968477000000.0 -1.11956e+12 -1.23624e+12 -850919000000.0 -993577000000.0 -932213000000.0 -520609000000.0 -401026000000.0 -821409000000.0 -546255000000.0 -911909000000.0 -915702000000.0 -1.02889e+12 -635383000000.0 -1.28617e+12 -826731000000.0 -1.44092e+12 -1.5598e+12 -1.79202e+12 -693759000000.0 -402661000000.0 -1.09312e+12 -707913000000.0 -312004000000.0 -788086000000.0 -1.23251e+12 -427630000000.0 -531418000000.0 -734172000000.0 -691193000000.0 -816850000000.0 -377867000000.0 -258036000000.0 -1.11529e+12 -953169000000.0 -770744000000.0 -587019000000.0 -588506000000.0 -734536000000.0 -816579000000.0 -767092000000.0 -1.06501e+12 -292607000000.0 -265806000000.0 -826964000000.0 -680256000000.0 -675432000000.0 -804284000000.0 -389384000000.0 -191464000000.0 -286925000000.0 -215202000000.0 -303443000000.0 -616349000000.0 -672201000000.0 -389545000000.0 -68508700000.0 -210863000000.0 -213606000000.0 -226962000000.0 -134248000000.0 -66533900000.0 -112012000000.0 -172225000000.0 -134504000000.0 -171045000000.0 -112076000000.0 -182519000000.0 -177322000000.0 -82882800000.0 -210266000000.0 -119481000000.0 -68695000000.0 -23086200000.0 -76792600000.0 -131436000000.0 -58579800000.0 -78520000000.0 -49852600000.0 -375419000000.0 -129699000000.0 -175040000000.0 -292126000000.0 -25764800000.0 -355241000000.0 -422416000000.0 -176757000000.0 -523326000000.0 -615709000000.0 -77574000000.0 -321569000000.0 -678491000000.0 -478510000000.0 -377841000000.0 -655660000000.0 -493390000000.0 -552638000000.0 -794426000000.0 -1.02056e+12 -442492000000.0 -172072000000.0 -911347000000.0 -1.19848e+12 -477228000000.0 -602242000000.0 -846804000000.0 -995799000000.0 -183825000000.0 -190558000000.0 -665035000000.0 -760716000000.0 -1.40687e+12 -718494000000.0 -894970000000.0 -621843000000.0 -1.21838e+12 -829509000000.0 -747334000000.0 -1.24852e+12 -1.37102e+12 -1.50658e+12 -670838000000.0 -806711000000.0 -610259000000.0 -198347000000.0 -102615000000.0 -998442000000.0 -426078000000.0 -290476000000.0 -512078000000.0 -1.03626e+12 -640602000000.0 -291424000000.0 -350532000000.0 -341437000000.0 -490926000000.0 -486490000000.0 -249616000000.0 -677357000000.0 -187136000000.0 -418990000000.0 -302952000000.0 -124265000000.0 -725765000000.0 -31338000000.0 -600276000000.0 -833491000000.0 -522785000000.0 -244668000000.0 -572114000000.0 -237715000000.0 -465270000000.0 -89012400000.0 -251584000000.0 -252718000000.0 -252037000000.0 -168751000000.0 -82742800000.0 -132391000000.0 -200064000000.0 -188186000000.0 -179670000000.0 -83441300000.0 -204725000000.0 -109086000000.0 -16134500000.0 -174730000000.0 -13644600000.0 -37243100000.0 -173983000000.0 -139623000000.0 -79929500000.0 -69465100000.0 -116627000000.0 -29547300000.0 -89847500000.0 -101654000000.0 -115575000000.0 -122312000000.0 -116046000000.0 -93091400000.0 -289457000000.0 -13026100000.0 -27067000000.0 -141746000000.0 -54576200000.0 -50990500000.0 -36337300000.0 -254388000000.0 -115817000000.0 -202072000000.0 -170015000000.0 -223059000000.0 -107741000000.0 -322021000000.0 -463153000000.0 -334986000000.0 -136586000000.0 -223578000000.0 -75485400000.0 -348821000000.0 -556209000000.0 -176119000000.0 -69750800000.0 -893879000000.0 -386490000000.0 -424731000000.0 -668394000000.0 -914860000000.0 -309551000000.0 -835243000000.0 -483842000000.0 -861463000000.0 -670776000000.0 -1.04628e+12 -495720000000.0 -555399000000.0 -169301000000.0 -725971000000.0 -1.34801e+12 -306181000000.0 -1.07836e+12 -465984000000.0 -1.22031e+12 -690945000000.0 -851556000000.0 -505723000000.0 -755314000000.0 -1.33653e+12 -477080000000.0 -571800000000.0 -1.11482e+12 -21559500000.0 -438655000000.0 -1.47713e+12 -410033000000.0 -765681000000.0 -388475000000.0 -350596000000.0 -399771000000.0 -353475000000.0 -598634000000.0 -700804000000.0 -174053000000.0 -88792300000.0 -86359100000.0 -199340000000.0 -525729000000.0 -85295400000.0 -352495000000.0 -523450000000.0 -285539000000.0 -426764000000.0 -804511000000.0 -383464000000.0 -398983000000.0 -286228000000.0 -426237000000.0 -386235000000.0 -396003000000.0 -12549700000.0 -187738000000.0 -87541900000.0 -87752800000.0 -17129000000.0 -142969000000.0 -124479000000.0 -169847000000.0 -15512900000.0 -19475000000.0 -12922700000.0 -94355500000.0 -94105000000.0 -93795400000.0 -101073000000.0 -43701800000.0 -36798500000.0 -74585100000.0 -89449500000.0 -77089900000.0 -36539200000.0 -36883800000.0 -16843000000.0 -44760800000.0 -49301500000.0 -96077700000.0 -271561000000.0 -55040500000.0 -13614600000.0 -23715900000.0 -44650700000.0 -38184500000.0 -217152000000.0 -109276000000.0 -144342000000.0 -209590000000.0 -184664000000.0 -591007000000.0 -228461000000.0 -238955000000.0 -152076000000.0 -105477000000.0 -58369300000.0 -468470000000.0 -139998000000.0 -153249000000.0 -483745000000.0 -155565000000.0 -453006000000.0 -532385000000.0 -23425400000.0 -275890000000.0 -402158000000.0 -295193000000.0 -437215000000.0 -839260000000.0 -665670000000.0 -436681000000.0 -565507000000.0 -367687000000.0 -874257000000.0 -675775000000.0 -580902000000.0 -696113000000.0 -1.00486e+12 -883623000000.0 -377920000000.0 -364558000000.0 -595996000000.0 -630655000000.0 -595685000000.0 -655946000000.0 -848390000000.0 -358865000000.0 -1.25703e+12 -588091000000.0 -631656000000.0 -678163000000.0 -404280000000.0 -40567500000.0 -901341000000.0 -500225000000.0 -846675000000.0 -294684000000.0 -401762000000.0 -613381000000.0 -880604000000.0 -867623000000.0 -233677000000.0 -178909000000.0 -90661100000.0 -153740000000.0 -159445000000.0 -695077000000.0 -253999000000.0 -358869000000.0 -366481000000.0 -206413000000.0 -350069000000.0 -434527000000.0 -240759000000.0 -196892000000.0 -323941000000.0 -178732000000.0 -129970000000.0 -413842000000.0 -295338000000.0 -302587000000.0 -224925000000.0 -240779000000.0 -140015000000.0 -152559000000.0 -54823100000.0 -116934000000.0 -115967000000.0 -67888900000.0 -78046700000.0 -27165300000.0 -23743500000.0 -79275200000.0 -60401000000.0 -76004300000.0 -76637300000.0 -52956400000.0 -25945000000.0 -69526900000.0 -43208600000.0 -37757500000.0 -29967300000.0 -56060700000.0 -65414600000.0 -44421200000.0 -101435000000.0 -238705000000.0 -162659000000.0 -116666000000.0 -93928600000.0 -177030000000.0 -224549000000.0 -43449700000.0 -47865000000.0 -125834000000.0 -158839000000.0 -134670000000.0 -41941200000.0 -31883600000.0 -62466600000.0 -19680400000.0 -293883000000.0 -111112000000.0 -276274000000.0 -308917000000.0 -498134000000.0 -322077000000.0 -553675000000.0 -214275000000.0 -50926200000.0 -308248000000.0 -245044000000.0 -249413000000.0 -381848000000.0 -299257000000.0 -391775000000.0 -373540000000.0 -304415000000.0 -650227000000.0 -599590000000.0 -723387000000.0 -394828000000.0 -650290000000.0 -756246000000.0 -837685000000.0 -330634000000.0 -852286000000.0 -318019000000.0 -358169000000.0 -808371000000.0 -334572000000.0 -531653000000.0 -1.18633e+12 -618515000000.0 -195736000000.0 -1.36176e+12 -586411000000.0 -317800000000.0 -736019000000.0 -637346000000.0 -249518000000.0 -662914000000.0 -652637000000.0 -314681000000.0 -478468000000.0 -73455900000.0 -281728000000.0 -658632000000.0 -182563000000.0 -550315000000.0 -418957000000.0 -424710000000.0 -171906000000.0 -337726000000.0 -214940000000.0 -160979000000.0 -246977000000.0 -274296000000.0 -322943000000.0 -270502000000.0 -361569000000.0 -78360300000.0 -64329800000.0 -264706000000.0 -110288000000.0 -207024000000.0 -128824000000.0 -225463000000.0 -190921000000.0 -249440000000.0 -40743800000.0 -30151300000.0 -71248900000.0 -78976800000.0 -43844700000.0 -60614500000.0 -14207000000.0 -31875400000.0 -67665800000.0 -59679700000.0 -42304300000.0 -42282100000.0 -35314200000.0 -37931200000.0 -73077600000.0 -57763300000.0 -59993600000.0 -57541200000.0 -100611000000.0 -89709300000.0 -114754000000.0 -50603700000.0 -99286900000.0 -51635100000.0 -65457500000.0 -99536500000.0 -153952000000.0 -96312700000.0 -135614000000.0 -150469000000.0 -17667300000.0 -196032000000.0 -458379000000.0 -143906000000.0 -267934000000.0 -164265000000.0 -75928000000.0 -287229000000.0 -117574000000.0 -449539000000.0 -135635000000.0 -410218000000.0 -191038000000.0 -625704000000.0 -281645000000.0 -279343000000.0 -272965000000.0 -165481000000.0 -403878000000.0 -150218000000.0 -608221000000.0 -161395000000.0 -194832000000.0 -325111000000.0 -285494000000.0 -100841000000.0 -321583000000.0 -185703000000.0 -746225000000.0 -386456000000.0 -150818000000.0 -23629500000.0 -163025000000.0 -241760000000.0 -452677000000.0 -532007000000.0 -357309000000.0 -1.18023e+12 -772976000000.0 -197714000000.0 -729027000000.0 -351358000000.0 -568861000000.0 -227535000000.0 -183913000000.0 -239765000000.0 -472203000000.0 -279956000000.0 -184973000000.0 -366982000000.0 -77062500000.0 -308358000000.0 -146510000000.0 -102620000000.0 -175760000000.0 -247397000000.0 -393272000000.0 -93425700000.0 -484773000000.0 -490433000000.0 -231343000000.0 -179712000000.0 -97435100000.0 -57255500000.0 -56739200000.0 -73806100000.0 -39660300000.0 -164818000000.0 -98632900000.0 -42988400000.0 -79679500000.0 -73554400000.0 -15845400000.0 -15141900000.0 -18285500000.0 -58976700000.0 -33888200000.0 -23085900000.0 -13654500000.0 -14456100000.0 -56904100000.0 -32779100000.0 -35996300000.0 -45490200000.0 -39708600000.0 -74730400000.0 -49425300000.0 -54026400000.0 -46048600000.0 -12816400000.0 -58892200000.0 -26869800000.0 -32487100000.0 -139083000000.0 -94155000000.0 -134946000000.0 -17988900000.0 -204171000000.0 -176473000000.0 -175286000000.0 -218639000000.0 -19437900000.0 -216509000000.0 -224058000000.0 -170047000000.0 -194904000000.0 -180871000000.0 -208972000000.0 -284336000000.0 -171638000000.0 -273035000000.0 -54307200000.0 -364062000000.0 -312071000000.0 -503646000000.0 -347199000000.0 -440417000000.0 -437390000000.0 -33880000000.0 -34006400000.0 -232437000000.0 -292959000000.0 -368273000000.0 -249895000000.0 -485870000000.0 -553162000000.0 -383523000000.0 -316495000000.0 -375062000000.0 -495116000000.0 -280546000000.0 -381829000000.0 -931927000000.0 -392699000000.0 -435689000000.0 -287753000000.0 -387721000000.0 -380017000000.0 -48708900000.0 -168446000000.0 -286814000000.0 -116727000000.0 -497472000000.0 -50173500000.0 -193413000000.0 -153024000000.0 -141739000000.0 -181828000000.0 -178836000000.0 -170990000000.0 -13711700000.0 -164453000000.0 -82764600000.0 -149118000000.0 -160374000000.0 -72439700000.0 -140234000000.0 -114015000000.0 -189307000000.0 -148999000000.0 -149927000000.0 -201022000000.0 -120551000000.0 -139573000000.0 -160844000000.0 -102484000000.0 -64277800000.0 -74206400000.0 -19221700000.0 -102327000000.0 -25458800000.0 -73317100000.0 -75105300000.0 -51471400000.0 -56787100000.0 -48959200000.0 -61596200000.0 -28068300000.0 -27003200000.0 -32729800000.0 -28990300000.0 -37967700000.0 -39315700000.0 -35789000000.0 -15321200000.0 -32850800000.0 -33607300000.0 -17007700000.0 -16332500000.0 -76949900000.0 -47793000000.0 -70505800000.0 -63473800000.0 -49975200000.0 -91495400000.0 -68106700000.0 -83123400000.0 -64838900000.0 -114235000000.0 -202295000000.0 -43799200000.0 -92826400000.0 -108035000000.0 -110113000000.0 -264458000000.0 -129247000000.0 -205818000000.0 -268601000000.0 -188314000000.0 -335981000000.0 -12624800000.0 -238596000000.0 -86085800000.0 -111147000000.0 -247106000000.0 -74241900000.0 -224530000000.0 -70550900000.0 -61010500000.0 -455344000000.0 -398402000000.0 -80963000000.0 -145681000000.0 -345197000000.0 -15123700000.0 -210697000000.0 -146893000000.0 -63278200000.0 -142598000000.0 -269609000000.0 -283644000000.0 -355068000000.0 -56403300000.0 -188555000000.0 -454353000000.0 -325011000000.0 -529256000000.0 -153462000000.0 -366961000000.0 -304161000000.0 -488649000000.0 -309234000000.0 -241323000000.0 -198322000000.0 -149174000000.0 -82516000000.0 -134034000000.0 -145581000000.0 -267841000000.0 -122829000000.0 -192132000000.0 -342998000000.0 -64374000000.0 -84377600000.0 -90869700000.0 -240673000000.0 -154362000000.0 -77514300000.0 -94959200000.0 -87425200000.0 -117662000000.0 -195545000000.0 -159952000000.0 -65984600000.0 -87474900000.0 -123856000000.0 -42375100000.0 -131637000000.0 -29666400000.0 -135507000000.0 -97698700000.0 -130833000000.0 -93573400000.0 -12699700000.0 -64138300000.0 -91395300000.0 -55202500000.0 -64711400000.0 -23205300000.0 -76360800000.0 -47442900000.0 -57272800000.0 -57575500000.0 -15309300000.0 -14928200000.0 -16472900000.0 -56099800000.0 -33155900000.0 -37485200000.0 -34914900000.0 -39543500000.0 -56424900000.0 -38881300000.0 -41517900000.0 -44476600000.0 -48742000000.0 -47012600000.0 -60255900000.0 -48270500000.0 -75719700000.0 -17987300000.0 -18381200000.0 -29360300000.0 -62971300000.0 -43557200000.0 -70823100000.0 -94441800000.0 -18902900000.0 -17859200000.0 -17255900000.0 -126155000000.0 -28409900000.0 -156686000000.0 -91064100000.0 -205041000000.0 -56077400000.0 -266277000000.0 -135432000000.0 -128808000000.0 -133928000000.0 -310890000000.0 -182915000000.0 -287911000000.0 -93252000000.0 -77485200000.0 -271828000000.0 -279583000000.0 -159545000000.0 -140867000000.0 -158366000000.0 -143603000000.0 -159693000000.0 -181613000000.0 -440757000000.0 -175185000000.0 -65936400000.0 -260275000000.0 -194830000000.0 -19119000000.0 -334162000000.0 -452428000000.0 -308086000000.0 -580851000000.0 -352268000000.0 -207753000000.0 -172558000000.0 -177648000000.0 -176733000000.0 -23014000000.0 -37382500000.0 -158688000000.0 -211375000000.0 -13804500000.0 -145820000000.0 -86621200000.0 -73260700000.0 -150701000000.0 -125763000000.0 -82984700000.0 -55902300000.0 -150558000000.0 -102457000000.0 -114950000000.0 -105009000000.0 -53321300000.0 -83869100000.0 -164801000000.0 -124628000000.0 -132850000000.0 -71299700000.0 -167656000000.0 -24863400000.0 -25728100000.0 -27161300000.0 -40057700000.0 -12911100000.0 -55089200000.0 -27084900000.0 -30749200000.0 -74344300000.0 -32176600000.0 -48169300000.0 -25854100000.0 -37333300000.0 -29794900000.0 -43439000000.0 -14092500000.0 -36318500000.0 -34925700000.0 -48652700000.0 -14790300000.0 -14399200000.0 -13968600000.0 -16009000000.0 -16048500000.0 -37380800000.0 -22377400000.0 -33902800000.0 -27831300000.0 -15514500000.0 -12549700000.0 -43950000000.0 -12549700000.0 -62185100000.0 -17009500000.0 -16978400000.0 -66032400000.0 -15353700000.0 -32089000000.0 -74396200000.0 -16932500000.0 -105139000000.0 -71307900000.0 -55341000000.0 -88541100000.0 -101333000000.0 -54672000000.0 -58521800000.0 -38161400000.0 -210083000000.0 -177139000000.0 -109791000000.0 -83711300000.0 -68931300000.0 -20956800000.0 -13149800000.0 -24881500000.0 -192534000000.0 -178741000000.0 -54910600000.0 -49105700000.0 -122568000000.0 -141233000000.0 -122458000000.0 -104943000000.0 -125692000000.0 -80766200000.0 -112218000000.0 -226454000000.0 -72178300000.0 -231449000000.0 -118065000000.0 -305001000000.0 -150804000000.0 -196913000000.0 -69528300000.0 -111497000000.0 -146867000000.0 -235334000000.0 -383192000000.0 -103845000000.0 -181480000000.0 -142525000000.0 -113551000000.0 -110007000000.0 -118618000000.0 -132749000000.0 -94594100000.0 -39364200000.0 -42286300000.0 -91142200000.0 -58434100000.0 -53357400000.0 -215156000000.0 -107442000000.0 -140645000000.0 -83674300000.0 -37004500000.0 -53381900000.0 -100395000000.0 -101172000000.0 -94142100000.0 -68184200000.0 -31404900000.0 -49758700000.0 -14209500000.0 -102176000000.0 -91003600000.0 -38119700000.0 -76156100000.0 -83455500000.0 -131823000000.0 -71228900000.0 -33348400000.0 -16855600000.0 -51494800000.0 -31384100000.0 -28958500000.0 -22837400000.0 -23558700000.0 -29352400000.0 -46798400000.0 -13202100000.0 -26709100000.0 -18717600000.0 -17794900000.0 -16723500000.0 -27653600000.0 -16024300000.0 -17259600000.0 -20610400000.0 -31130400000.0 -12549700000.0 -12549700000.0 -22284300000.0 -17182300000.0 -22019200000.0 -21839500000.0 -23530200000.0 -43593300000.0 -32452800000.0 -58153800000.0 -39966700000.0 -23699600000.0 -56384500000.0 -67683500000.0 -108971000000.0 -81047500000.0 -45955300000.0 -87797800000.0 -40166900000.0 -51980200000.0 -72363800000.0 -17286700000.0 -28681100000.0 -94332000000.0 -82253300000.0 -31615000000.0 -40702900000.0 -31076600000.0 -105686000000.0 -190217000000.0 -97234700000.0 -16712200000.0 -113505000000.0 -121030000000.0 -80828200000.0 -39045300000.0 -66541600000.0 -132825000000.0 -44618400000.0 -142411000000.0 -205161000000.0 -119344000000.0 -192545000000.0 -156486000000.0 -81015000000.0 -72258400000.0 -136271000000.0 -169784000000.0 -268210000000.0 -97281600000.0 -124342000000.0 -114734000000.0 -55659700000.0 -20737300000.0 -112882000000.0 -81469500000.0 -31656100000.0 -81474700000.0 -53449500000.0 -22893800000.0 -179035000000.0 -19478600000.0 -48514700000.0 -57532600000.0 -44755600000.0 -95135000000.0 -77484900000.0 -52417800000.0 -35253900000.0 -52322300000.0 -31934500000.0 -80286000000.0 -64595500000.0 -23835700000.0 -56466600000.0 -46656200000.0 -18376100000.0 -52593800000.0 -13349700000.0 -42747200000.0 -38617300000.0 -47073000000.0 -19521300000.0 -15784800000.0 -15937000000.0 -20460300000.0 -24799900000.0 -26796300000.0 -19709600000.0 -28685600000.0 -19182800000.0 -18719800000.0 -14182000000.0 -12782300000.0 -12549700000.0 -14684300000.0 -22060400000.0 -12938700000.0 -13492500000.0 -18277300000.0 -12549700000.0 -15771600000.0 -14994000000.0 -14735100000.0 -32721700000.0 -19054600000.0 -28266100000.0 -61082100000.0 -43210600000.0 -43973700000.0 -18887300000.0 -33118900000.0 -37124900000.0 -55552700000.0 -14704000000.0 -52181100000.0 -18514700000.0 -69526200000.0 -39308100000.0 -69222700000.0 -82220500000.0 -166812000000.0 -61135400000.0 -119327000000.0 -17705200000.0 -28501500000.0 -14044700000.0 -57854900000.0 -87519000000.0 -80235700000.0 -64618400000.0 -23107400000.0 -52650900000.0 -57162100000.0 -28646000000.0 -32575900000.0 -40308800000.0 -68834500000.0 -188024000000.0 -106607000000.0 -106739000000.0 -89167700000.0 -141581000000.0 -19715600000.0 -17869800000.0 -74284700000.0 -35372300000.0 -163902000000.0 -43905600000.0 -66267000000.0 -53336900000.0 -34141600000.0 -122241000000.0 -78500100000.0 -83799600000.0 -99573500000.0 -108249000000.0 -156746000000.0 -32599700000.0 -67861800000.0 -39359800000.0 -60172300000.0 -40263000000.0 -21384400000.0 -12620000000.0 -32496700000.0 -45271900000.0 -60674100000.0 -29516800000.0 -26160000000.0 -29853800000.0 -17471600000.0 -23039800000.0 -26258600000.0 -30551400000.0 -30223400000.0 -28807300000.0 -20078600000.0 -53780000000.0 -20984800000.0 -19776400000.0 -13428900000.0 -30049500000.0 -31725900000.0 -21379100000.0 -20574800000.0 -21660600000.0 -14041600000.0 -20020700000.0 -15879800000.0 -20580200000.0 -14779600000.0 -12760800000.0 -19995100000.0 -15922800000.0 -13586000000.0 -12549700000.0 -12549700000.0 -13057300000.0 -18584300000.0 -13967200000.0 -12549700000.0 -17202400000.0 -13454900000.0 -15278400000.0 -13979600000.0 -13689200000.0 -20591700000.0 -24024800000.0 -15339600000.0 -21394500000.0 -24815700000.0 -28575700000.0 -23472800000.0 -23985600000.0 -31035800000.0 -37089300000.0 -54387700000.0 -39632000000.0 -46287500000.0 -50751700000.0 -23198300000.0 -60888100000.0 -32052600000.0 -52737000000.0 -106675000000.0 -44054900000.0 -48070500000.0 -29054200000.0 -32076300000.0 -60982700000.0 -13035100000.0 -37484600000.0 -37456500000.0 -21342600000.0 -40790100000.0 -30968200000.0 -24737900000.0 -31234000000.0 -45970700000.0 -77286100000.0 -109953000000.0 -154802000000.0 -158269000000.0 -86118400000.0 -89825000000.0 -63784600000.0 -14650200000.0 -18726200000.0 -146524000000.0 -70277900000.0 -41739100000.0 -18616700000.0 -38295300000.0 -54485100000.0 -63674300000.0 -35331700000.0 -12549700000.0 -46133500000.0 -45941300000.0 -35231400000.0 -17842700000.0 -33050300000.0 -28630900000.0 -32708000000.0 -27891800000.0 -19200700000.0 -20063600000.0 -23047500000.0 -29059200000.0 -20111500000.0 -19077000000.0 -19032000000.0 -19600800000.0 -18565900000.0 -15803200000.0 -23979300000.0 -42289300000.0 -30772100000.0 -28387400000.0 -18369200000.0 -15685400000.0 -13674100000.0 -23657400000.0 -18752100000.0 -12549700000.0 -14399200000.0 -15398700000.0 -13446700000.0 -16100500000.0 -12549700000.0 -17179000000.0 -13138400000.0 -12653300000.0 -14667900000.0 -12557500000.0 -12549700000.0 -12553700000.0 -12620400000.0 -16141500000.0 -12549700000.0 -13042600000.0 -16148100000.0 -13288400000.0 -13144200000.0 -13544800000.0 -16232200000.0 -14063300000.0 -16636300000.0 -14038000000.0 -14321900000.0 -18763900000.0 -15582300000.0 -16850300000.0 -19076200000.0 -18321400000.0 -21653800000.0 -27730600000.0 -31536600000.0 -23261700000.0 -15069700000.0 -35174500000.0 -19758500000.0 -25187800000.0 -36576900000.0 -45182900000.0 -48509100000.0 -51845600000.0 -49890900000.0 -35268900000.0 -23952300000.0 -36396200000.0 -32191700000.0 -32355800000.0 -19348400000.0 -19345100000.0 -13103300000.0 -41644300000.0 -45592200000.0 -13759500000.0 -34577800000.0 -42701700000.0 -56183800000.0 -14936200000.0 -83445500000.0 -62212600000.0 -108467000000.0 -92392300000.0 -104080000000.0 -13173600000.0 -109753000000.0 -56640400000.0 -12843300000.0 -13205500000.0 -25005600000.0 -28062200000.0 -16811200000.0 -21053400000.0 -27904300000.0 -25457400000.0 -26283400000.0 -15516300000.0 -19186800000.0 -19659000000.0 -17286300000.0 -15758300000.0 -17139700000.0 -13098300000.0 -13642100000.0 -14529600000.0 -13719300000.0 -13290300000.0 -14088700000.0 -13064600000.0 -12992500000.0 -13036700000.0 -22182400000.0 -12795400000.0 -19992700000.0 -15010100000.0 -13342400000.0 -13831100000.0 -15321400000.0 -12855800000.0 -14370200000.0 -13238600000.0 -13189600000.0 -12549700000.0 -13414100000.0 -12714100000.0 -13329100000.0 -14160100000.0 -13676200000.0 -13037700000.0 -12854200000.0 -12922300000.0 -12950400000.0 -13067800000.0 -14625000000.0 -13379000000.0 -13840900000.0 -13326300000.0 -12791900000.0 -13007700000.0 -12778900000.0 -13830500000.0 -13070700000.0 -14318200000.0 -14225300000.0 -15655700000.0 -13021800000.0 -15314800000.0 -15993100000.0 -17093500000.0 -18105900000.0 -14469500000.0 -15550200000.0 -17855700000.0 -19239100000.0 -17632200000.0 -21913100000.0 -30739100000.0 -17888000000.0 -14863300000.0 -32412000000.0 -13068300000.0 -13673600000.0 -12922000000.0 -17767800000.0 -13856700000.0 -17854700000.0 -14576200000.0 -31126300000.0 -31307100000.0 -32272600000.0 -14874400000.0 -21965200000.0 -16901800000.0 -17315700000.0 -30545500000.0 -13658200000.0 -16700600000.0 -31530600000.0 -22328500000.0 -24877300000.0 -24967800000.0 -12608400000.0 -12667000000.0 -12549700000.0 -17217100000.0 -17960100000.0 -19372700000.0 -13058000000.0 -16113700000.0 -17252500000.0 -13004700000.0 -14125600000.0 -22921000000.0 