# vtk DataFile Version 2.0
Time step 44
ASCII
DATASET UNSTRUCTURED_GRID
POINTS 4650 float
149009.0 409205.0 0
152650.0 406946.0 0
347350.0 406946.0 0
350991.0 409205.0 0
152397.0 410838.0 0
156184.0 408620.0 0
159827.0 407107.0 0
163322.0 409005.0 0
167183.0 408039.0 0
170804.0 409707.0 0
174685.0 408790.0 0
178639.0 409274.0 0
182619.0 409202.0 0
186595.0 409222.0 0
190567.0 409219.0 0
194536.0 409218.0 0
198503.0 409217.0 0
202467.0 409216.0 0
206430.0 409215.0 0
210392.0 409215.0 0
214354.0 409214.0 0
218314.0 409214.0 0
222275.0 409213.0 0
226235.0 409213.0 0
230196.0 409212.0 0
234156.0 409212.0 0
238117.0 409212.0 0
242078.0 409212.0 0
246039.0 409212.0 0
250000.0 409212.0 0
253961.0 409212.0 0
257922.0 409212.0 0
261883.0 409212.0 0
265844.0 409212.0 0
269804.0 409212.0 0
273765.0 409213.0 0
277725.0 409213.0 0
281686.0 409214.0 0
285646.0 409214.0 0
289608.0 409215.0 0
293570.0 409215.0 0
297533.0 409216.0 0
301497.0 409217.0 0
305464.0 409218.0 0
309433.0 409219.0 0
313405.0 409222.0 0
317381.0 409202.0 0
321361.0 409274.0 0
325315.0 408790.0 0
329196.0 409707.0 0
332817.0 408039.0 0
336678.0 409005.0 0
340173.0 407107.0 0
343816.0 408620.0 0
347603.0 410838.0 0
142317.0 413387.0 0
145656.0 411301.0 0
155780.0 412563.0 0
159934.0 411088.0 0
340066.0 411088.0 0
344220.0 412563.0 0
354344.0 411301.0 0
357683.0 413387.0 0
135649.0 417551.0 0
138983.0 415469.0 0
142346.0 417190.0 0
149040.0 413032.0 0
152398.0 414772.0 0
158836.0 414862.0 0
163457.0 412985.0 0
167326.0 412031.0 0
170916.0 413762.0 0
174776.0 412775.0 0
178722.0 413291.0 0
182697.0 413199.0 0
186667.0 413224.0 0
190634.0 413221.0 0
194597.0 413219.0 0
198559.0 413218.0 0
202518.0 413217.0 0
206477.0 413216.0 0
210434.0 413215.0 0
214391.0 413215.0 0
218347.0 413214.0 0
222304.0 413213.0 0
226260.0 413213.0 0
230216.0 413213.0 0
234173.0 413212.0 0
238129.0 413212.0 0
242086.0 413212.0 0
246043.0 413212.0 0
250000.0 413212.0 0
253957.0 413212.0 0
257914.0 413212.0 0
261871.0 413212.0 0
265827.0 413212.0 0
269784.0 413213.0 0
273740.0 413213.0 0
277696.0 413213.0 0
281653.0 413214.0 0
285609.0 413215.0 0
289566.0 413215.0 0
293523.0 413216.0 0
297482.0 413217.0 0
301441.0 413218.0 0
305403.0 413219.0 0
309366.0 413221.0 0
313333.0 413224.0 0
317303.0 413199.0 0
321278.0 413291.0 0
325224.0 412775.0 0
329084.0 413762.0 0
332674.0 412031.0 0
336543.0 412985.0 0
341164.0 414862.0 0
347602.0 414772.0 0
350960.0 413032.0 0
357654.0 417190.0 0
361017.0 415469.0 0
364351.0 417551.0 0
132307.0 419638.0 0
139014.0 419248.0 0
145691.0 415125.0 0
149035.0 416925.0 0
155517.0 416898.0 0
162178.0 416723.0 0
167254.0 416023.0 0
170855.0 417750.0 0
174709.0 416753.0 0
178661.0 417290.0 0
182646.0 417195.0 0
186630.0 417229.0 0
190609.0 417224.0 0
194583.0 417222.0 0
198552.0 417220.0 0
202519.0 417218.0 0
206482.0 417217.0 0
210443.0 417216.0 0
214401.0 417215.0 0
218359.0 417214.0 0
222315.0 417214.0 0
226271.0 417213.0 0
230226.0 417213.0 0
234181.0 417212.0 0
238136.0 417212.0 0
242091.0 417212.0 0
246045.0 417212.0 0
250000.0 417212.0 0
253955.0 417212.0 0
257909.0 417212.0 0
261864.0 417212.0 0
265819.0 417212.0 0
269774.0 417213.0 0
273729.0 417213.0 0
277685.0 417214.0 0
281641.0 417214.0 0
285599.0 417215.0 0
289557.0 417216.0 0
293518.0 417217.0 0
297481.0 417218.0 0
301448.0 417220.0 0
305417.0 417222.0 0
309391.0 417224.0 0
313370.0 417229.0 0
317354.0 417195.0 0
321339.0 417290.0 0
325291.0 416753.0 0
329145.0 417750.0 0
332746.0 416023.0 0
337822.0 416723.0 0
344483.0 416898.0 0
350965.0 416925.0 0
354309.0 415125.0 0
360986.0 419248.0 0
367693.0 419638.0 0
128948.0 421735.0 0
135676.0 421300.0 0
139053.0 423055.0 0
142361.0 421039.0 0
145675.0 418989.0 0
152227.0 418912.0 0
158824.0 418808.0 0
164985.0 419297.0 0
335015.0 419297.0 0
341176.0 418808.0 0
347773.0 418912.0 0
354325.0 418989.0 0
357639.0 421039.0 0
360947.0 423055.0 0
364324.0 421300.0 0
371052.0 421735.0 0
125579.0 423839.0 0
128925.0 425437.0 0
132305.0 423356.0 0
135673.0 425050.0 0
142445.0 424936.0 0
148927.0 420893.0 0
152190.0 422868.0 0
155500.0 420859.0 0
161608.0 421397.0 0
165007.0 423238.0 0
168468.0 420937.0 0
171834.0 422855.0 0
175144.0 420702.0 0
179030.0 421426.0 0
182974.0 421174.0 0
186925.0 421241.0 0
190876.0 421224.0 0
194823.0 421224.0 0
198768.0 421222.0 0
202710.0 421220.0 0
206651.0 421219.0 0
210592.0 421217.0 0
214532.0 421216.0 0
218473.0 421215.0 0
222414.0 421214.0 0
226355.0 421214.0 0
230296.0 421213.0 0
234237.0 421213.0 0
238178.0 421212.0 0
242119.0 421212.0 0
246060.0 421212.0 0
250000.0 421212.0 0
253940.0 421212.0 0
257881.0 421212.0 0
261822.0 421212.0 0
265763.0 421213.0 0
269704.0 421213.0 0
273645.0 421214.0 0
277586.0 421214.0 0
281527.0 421215.0 0
285468.0 421216.0 0
289408.0 421217.0 0
293349.0 421219.0 0
297290.0 421220.0 0
301232.0 421222.0 0
305177.0 421224.0 0
309124.0 421224.0 0
313075.0 421241.0 0
317026.0 421174.0 0
320970.0 421426.0 0
324856.0 420702.0 0
328166.0 422855.0 0
331532.0 420937.0 0
334993.0 423238.0 0
338392.0 421397.0 0
344500.0 420859.0 0
347810.0 422868.0 0
351073.0 420893.0 0
357555.0 424936.0 0
364327.0 425050.0 0
367695.0 423356.0 0
371075.0 425437.0 0
374421.0 423839.0 0
118622.0 428195.0 0
122203.0 425947.0 0
125540.0 427530.0 0
132286.0 427085.0 0
139049.0 426838.0 0
142420.0 428756.0 0
145660.0 422923.0 0
148910.0 424861.0 0
154823.0 425613.0 0
158220.0 423507.0 0
161617.0 425339.0 0
168442.0 425033.0 0
171915.0 426806.0 0
175300.0 424701.0 0
179148.0 425538.0 0
183070.0 425164.0 0
187011.0 425248.0 0
190956.0 425224.0 0
194902.0 425225.0 0
198844.0 425222.0 0
202784.0 425220.0 0
206721.0 425219.0 0
210657.0 425218.0 0
214592.0 425216.0 0
218526.0 425215.0 0
222459.0 425215.0 0
226393.0 425214.0 0
230327.0 425213.0 0
234261.0 425213.0 0
238195.0 425212.0 0
242130.0 425212.0 0
246065.0 425212.0 0
250000.0 425212.0 0
253935.0 425212.0 0
257870.0 425212.0 0
261805.0 425212.0 0
265739.0 425213.0 0
269673.0 425213.0 0
273607.0 425214.0 0
277541.0 425215.0 0
281474.0 425215.0 0
285408.0 425216.0 0
289343.0 425218.0 0
293279.0 425219.0 0
297216.0 425220.0 0
301156.0 425222.0 0
305098.0 425225.0 0
309044.0 425224.0 0
312989.0 425248.0 0
316930.0 425164.0 0
320852.0 425538.0 0
324700.0 424701.0 0
328085.0 426806.0 0
331558.0 425033.0 0
338383.0 425339.0 0
341780.0 423507.0 0
345177.0 425613.0 0
351090.0 424861.0 0
354340.0 422923.0 0
357580.0 428756.0 0
360951.0 426838.0 0
367714.0 427085.0 0
374460.0 427530.0 0
377797.0 425947.0 0
381378.0 428195.0 0
115233.0 430312.0 0
122098.0 429609.0 0
128903.0 429154.0 0
135655.0 428806.0 0
139015.0 430620.0 0
145930.0 427296.0 0
151382.0 427779.0 0
158230.0 427442.0 0
165035.0 427180.0 0
334965.0 427180.0 0
341770.0 427442.0 0
348618.0 427779.0 0
354070.0 427296.0 0
360985.0 430620.0 0
364345.0 428806.0 0
371097.0 429154.0 0
377902.0 429609.0 0
384767.0 430312.0 0
111844.0 432433.0 0
118589.0 431984.0 0
125497.0 431228.0 0
128889.0 432885.0 0
132284.0 430831.0 0
135675.0 432584.0 0
142337.0 432534.0 0
147760.0 430728.0 0
154847.0 429547.0 0
161649.0 429281.0 0
165061.0 431133.0 0
168455.0 429021.0 0
171946.0 430758.0 0
175351.0 428688.0 0
179177.0 429571.0 0
183085.0 429156.0 0
187017.0 429254.0 0
190952.0 429223.0 0
194890.0 429227.0 0
198830.0 429223.0 0
202768.0 429222.0 0
206705.0 429220.0 0
210641.0 429218.0 0
214576.0 429217.0 0
218511.0 429216.0 0
222445.0 429215.0 0
226380.0 429214.0 0
230316.0 429213.0 0
234252.0 429213.0 0
238188.0 429212.0 0
242125.0 429212.0 0
246063.0 429212.0 0
250000.0 429212.0 0
253937.0 429212.0 0
257875.0 429212.0 0
261812.0 429212.0 0
265748.0 429213.0 0
269684.0 429213.0 0
273620.0 429214.0 0
277555.0 429215.0 0
281489.0 429216.0 0
285424.0 429217.0 0
289359.0 429218.0 0
293295.0 429220.0 0
297232.0 429222.0 0
301170.0 429223.0 0
305110.0 429227.0 0
309048.0 429223.0 0
312983.0 429254.0 0
316915.0 429156.0 0
320823.0 429571.0 0
324649.0 428688.0 0
328054.0 430758.0 0
331545.0 429021.0 0
334939.0 431133.0 0
338351.0 429281.0 0
345153.0 429547.0 0
352240.0 430728.0 0
357663.0 432534.0 0
364325.0 432584.0 0
367716.0 430831.0 0
371111.0 432885.0 0
374503.0 431228.0 0
381411.0 431984.0 0
388156.0 432433.0 0
108470.0 434545.0 0
111848.0 436264.0 0
115209.0 434112.0 0
118574.0 435799.0 0
122100.0 433319.0 0
125492.0 434960.0 0
132284.0 434577.0 0
139083.0 434443.0 0
145686.0 433970.0 0
151512.0 431715.0 0
154980.0 433496.0 0
158286.0 431381.0 0
161691.0 433242.0 0
168465.0 432999.0 0
171968.0 434706.0 0
175376.0 432662.0 0
179186.0 433571.0 0
183085.0 433150.0 0
187013.0 433254.0 0
190945.0 433224.0 0
194878.0 433227.0 0
198813.0 433224.0 0
202749.0 433222.0 0
206686.0 433220.0 0
210621.0 433219.0 0
214557.0 433217.0 0
218492.0 433216.0 0
222428.0 433215.0 0
226365.0 433214.0 0
230303.0 433213.0 0
234241.0 433213.0 0
238180.0 433212.0 0
242120.0 433212.0 0
246060.0 433212.0 0
250000.0 433212.0 0
253940.0 433212.0 0
257880.0 433212.0 0
261820.0 433212.0 0
265759.0 433213.0 0
269697.0 433213.0 0
273635.0 433214.0 0
277572.0 433215.0 0
281508.0 433216.0 0
285443.0 433217.0 0
289379.0 433219.0 0
293314.0 433220.0 0
297251.0 433222.0 0
301187.0 433224.0 0
305122.0 433227.0 0
309055.0 433224.0 0
312987.0 433254.0 0
316915.0 433150.0 0
320814.0 433571.0 0
324624.0 432662.0 0
328032.0 434706.0 0
331535.0 432999.0 0
338309.0 433242.0 0
341714.0 431381.0 0
345020.0 433496.0 0
348488.0 431715.0 0
354314.0 433970.0 0
360917.0 434443.0 0
367716.0 434577.0 0
374508.0 434960.0 0
377900.0 433319.0 0
381426.0 435799.0 0
384791.0 434112.0 0
388152.0 436264.0 0
391530.0 434545.0 0
98426.7 440829.0 0
105125.0 436640.0 0
108523.0 438417.0 0
115225.0 437963.0 0
122120.0 437076.0 0
128876.0 436641.0 0
135700.0 436347.0 0
139175.0 438186.0 0
142899.0 436793.0 0
148057.0 436763.0 0
151757.0 435668.0 0
158374.0 435362.0 0
165075.0 435103.0 0
334925.0 435103.0 0
341626.0 435362.0 0
348243.0 435668.0 0
351943.0 436763.0 0
357101.0 436793.0 0
360825.0 438186.0 0
364300.0 436347.0 0
371124.0 436641.0 0
377880.0 437076.0 0
384775.0 437963.0 0
391477.0 438417.0 0
394875.0 436640.0 0
401573.0 440829.0 0
95049.1 442942.0 0
101789.0 438745.0 0
111927.0 440162.0 0
118589.0 439640.0 0
122159.0 440883.0 0
125519.0 438734.0 0
132242.0 438316.0 0
135550.0 440067.0 0
153790.0 439053.0 0
161401.0 437873.0 0
165142.0 439055.0 0
168493.0 436968.0 0
171987.0 438641.0 0
175388.0 436637.0 0
179178.0 437565.0 0
183066.0 437147.0 0
186984.0 437255.0 0
190907.0 437228.0 0
194835.0 437228.0 0
198768.0 437226.0 0
202702.0 437223.0 0
206637.0 437221.0 0
210572.0 437220.0 0
214508.0 437218.0 0
218446.0 437217.0 0
222385.0 437215.0 0
226326.0 437214.0 0
230268.0 437214.0 0
234213.0 437213.0 0
238158.0 437212.0 0
242105.0 437212.0 0
246052.0 437212.0 0
250000.0 437212.0 0
253948.0 437212.0 0
257895.0 437212.0 0
261842.0 437212.0 0
265787.0 437213.0 0
269732.0 437214.0 0
273674.0 437214.0 0
277615.0 437215.0 0
281554.0 437217.0 0
285492.0 437218.0 0
289428.0 437220.0 0
293363.0 437221.0 0
297298.0 437223.0 0
301232.0 437226.0 0
305165.0 437228.0 0
309093.0 437228.0 0
313016.0 437255.0 0
316934.0 437147.0 0
320822.0 437565.0 0
324612.0 436637.0 0
328013.0 438641.0 0
331507.0 436968.0 0
334858.0 439055.0 0
338599.0 437873.0 0
346210.0 439053.0 0
364450.0 440067.0 0
367758.0 438316.0 0
374481.0 438734.0 0
377841.0 440883.0 0
381411.0 439640.0 0
388073.0 440162.0 0
398211.0 438745.0 0
404951.0 442942.0 0
98519.5 444713.0 0
105218.0 440562.0 0
108658.0 442339.0 0
115286.0 441887.0 0
118674.0 443489.0 0
125575.0 442520.0 0
128928.0 440458.0 0
132358.0 442127.0 0
138577.0 441925.0 0
142199.0 440671.0 0
146036.0 440110.0 0
150002.0 440010.0 0
157685.0 439237.0 0
167554.0 442175.0 0
175098.0 441012.0 0
178966.0 441544.0 0
182855.0 441148.0 0
186772.0 441249.0 0
190697.0 441222.0 0
194628.0 441223.0 0
198565.0 441220.0 0
202506.0 441219.0 0
206451.0 441217.0 0
210401.0 441216.0 0
214353.0 441215.0 0
218308.0 441214.0 0
222265.0 441214.0 0
226224.0 441213.0 0
230184.0 441213.0 0
234145.0 441212.0 0
238108.0 441212.0 0
242071.0 441212.0 0
246036.0 441212.0 0
250000.0 441212.0 0
253964.0 441212.0 0
257929.0 441212.0 0
261892.0 441212.0 0
265855.0 441212.0 0
269816.0 441213.0 0
273776.0 441213.0 0
277735.0 441214.0 0
281692.0 441214.0 0
285647.0 441215.0 0
289599.0 441216.0 0
293549.0 441217.0 0
297494.0 441219.0 0
301435.0 441220.0 0
305372.0 441223.0 0
309303.0 441222.0 0
313228.0 441249.0 0
317145.0 441148.0 0
321034.0 441544.0 0
324902.0 441012.0 0
332446.0 442175.0 0
342315.0 439237.0 0
349998.0 440010.0 0
353964.0 440110.0 0
357801.0 440671.0 0
361423.0 441925.0 0
367642.0 442127.0 0
371072.0 440458.0 0
374425.0 442520.0 0
381326.0 443489.0 0
384714.0 441887.0 0
391342.0 442339.0 0
394782.0 440562.0 0
401481.0 444713.0 0
91657.9 445062.0 0
95109.1 446875.0 0
101910.0 442649.0 0
105383.0 444513.0 0
112091.0 444212.0 0
122265.0 444751.0 0
128979.0 444314.0 0
132400.0 445793.0 0
136199.0 444982.0 0
140540.0 444889.0 0
144293.0 443946.0 0
148140.0 443469.0 0
152066.0 443280.0 0
155911.0 442800.0 0
159808.0 442539.0 0
163666.0 442712.0 0
171437.0 442522.0 0
328563.0 442522.0 0
336334.0 442712.0 0
340192.0 442539.0 0
344089.0 442800.0 0
347934.0 443280.0 0
351860.0 443469.0 0
355707.0 443946.0 0
359460.0 444889.0 0
363801.0 444982.0 0
367600.0 445793.0 0
371021.0 444314.0 0
377735.0 444751.0 0
387909.0 444212.0 0
394617.0 444513.0 0
398090.0 442649.0 0
404891.0 446875.0 0
408342.0 445062.0 0
91648.0 449014.0 0
102001.0 446561.0 0
108944.0 446622.0 0
115482.0 446213.0 0
119263.0 447282.0 0
125686.0 446297.0 0
142507.0 448002.0 0
146360.0 447260.0 0
150260.0 446792.0 0
154211.0 446592.0 0
158122.0 446118.0 0
162091.0 446365.0 0
166034.0 445859.0 0
169991.0 446220.0 0
174163.0 445334.0 0
178122.0 445437.0 0
182085.0 445208.0 0
186061.0 445213.0 0
190040.0 445212.0 0
194025.0 445212.0 0
198015.0 445212.0 0
202008.0 445212.0 0
206004.0 445212.0 0
210002.0 445212.0 0
214002.0 445212.0 0
218002.0 445212.0 0
222001.0 445212.0 0
226001.0 445212.0 0
230001.0 445212.0 0
234001.0 445212.0 0
238001.0 445212.0 0
242000.0 445212.0 0
246000.0 445212.0 0
250000.0 445212.0 0
254000.0 445212.0 0
258000.0 445212.0 0
261999.0 445212.0 0
265999.0 445212.0 0
269999.0 445212.0 0
273999.0 445212.0 0
277999.0 445212.0 0
281998.0 445212.0 0
285998.0 445212.0 0
289998.0 445212.0 0
293996.0 445212.0 0
297992.0 445212.0 0
301985.0 445212.0 0
305975.0 445212.0 0
309960.0 445212.0 0
313939.0 445213.0 0
317915.0 445208.0 0
321878.0 445437.0 0
325837.0 445334.0 0
330009.0 446220.0 0
333966.0 445859.0 0
337909.0 446365.0 0
341878.0 446118.0 0
345789.0 446592.0 0
349740.0 446792.0 0
353640.0 447260.0 0
357493.0 448002.0 0
374314.0 446297.0 0
380737.0 447282.0 0
384518.0 446213.0 0
391056.0 446622.0 0
397999.0 446561.0 0
408352.0 449014.0 0
98598.7 448601.0 0
105453.0 448498.0 0
112354.0 448671.0 0
116623.0 450075.0 0
122717.0 448953.0 0
126506.0 449838.0 0
130292.0 448994.0 0
134646.0 448655.0 0
138509.0 448192.0 0
361491.0 448192.0 0
365354.0 448655.0 0
369708.0 448994.0 0
373494.0 449838.0 0
377283.0 448953.0 0
383377.0 450075.0 0
387646.0 448671.0 0
394547.0 448498.0 0
401401.0 448601.0 0
98498.1 452512.0 0
102024.0 450524.0 0
105450.0 452472.0 0
109312.0 451268.0 0
113566.0 452437.0 0
120070.0 452050.0 0
123962.0 452694.0 0
128868.0 452699.0 0
132750.0 452077.0 0
136741.0 451772.0 0
140639.0 451449.0 0
144550.0 451180.0 0
148361.0 450630.0 0
152208.0 450211.0 0
156050.0 450103.0 0
159891.0 449664.0 0
163742.0 450064.0 0
167604.0 449483.0 0
171470.0 449920.0 0
175270.0 449131.0 0
179144.0 449343.0 0
183031.0 449215.0 0
186929.0 449233.0 0
190836.0 449227.0 0
194750.0 449224.0 0
198671.0 449222.0 0
202598.0 449220.0 0
206531.0 449218.0 0
210469.0 449217.0 0
214411.0 449216.0 0
218357.0 449215.0 0
222306.0 449214.0 0
226257.0 449213.0 0
230211.0 449213.0 0
234167.0 449212.0 0
238124.0 449212.0 0
242082.0 449212.0 0
246041.0 449212.0 0
250000.0 449212.0 0
253959.0 449212.0 0
257918.0 449212.0 0
261876.0 449212.0 0
265833.0 449212.0 0
269789.0 449213.0 0
273743.0 449213.0 0
277694.0 449214.0 0
281643.0 449215.0 0
285589.0 449216.0 0
289531.0 449217.0 0
293469.0 449218.0 0
297402.0 449220.0 0
301329.0 449222.0 0
305250.0 449224.0 0
309164.0 449227.0 0
313071.0 449233.0 0
316969.0 449215.0 0
320856.0 449343.0 0
324730.0 449131.0 0
328530.0 449920.0 0
332396.0 449483.0 0
336258.0 450064.0 0
340109.0 449664.0 0
343950.0 450103.0 0
347792.0 450211.0 0
351639.0 450630.0 0
355450.0 451180.0 0
359361.0 451449.0 0
363259.0 451772.0 0
367250.0 452077.0 0
371132.0 452699.0 0
376038.0 452694.0 0
379930.0 452050.0 0
386434.0 452437.0 0
390688.0 451268.0 0
394550.0 452472.0 0
397976.0 450524.0 0
401502.0 452512.0 0
117298.0 454912.0 0
131130.0 455727.0 0
135005.0 455271.0 0
138916.0 454980.0 0
142827.0 454699.0 0
146758.0 454364.0 0
150624.0 453848.0 0
154521.0 453967.0 0
158378.0 453326.0 0
162276.0 453846.0 0
166167.0 453199.0 0
170090.0 453632.0 0
174041.0 453207.0 0
178024.0 453212.0 0
182010.0 453212.0 0
186003.0 453212.0 0
190000.0 453212.0 0
194000.0 453212.0 0
198000.0 453212.0 0
202000.0 453212.0 0
206000.0 453212.0 0
210000.0 453212.0 0
214000.0 453212.0 0
218000.0 453212.0 0
222000.0 453212.0 0
226000.0 453212.0 0
230000.0 453212.0 0
234000.0 453212.0 0
238000.0 453212.0 0
242000.0 453212.0 0
246000.0 453212.0 0
250000.0 453212.0 0
254000.0 453212.0 0
258000.0 453212.0 0
262000.0 453212.0 0
266000.0 453212.0 0
270000.0 453212.0 0
274000.0 453212.0 0
278000.0 453212.0 0
282000.0 453212.0 0
286000.0 453212.0 0
290000.0 453212.0 0
294000.0 453212.0 0
298000.0 453212.0 0
302000.0 453212.0 0
306000.0 453212.0 0
310000.0 453212.0 0
313997.0 453212.0 0
317990.0 453212.0 0
321976.0 453212.0 0
325959.0 453207.0 0
329910.0 453632.0 0
333833.0 453199.0 0
337724.0 453846.0 0
341622.0 453326.0 0
345479.0 453967.0 0
349376.0 453848.0 0
353242.0 454364.0 0
357173.0 454699.0 0
361084.0 454980.0 0
364995.0 455271.0 0
368870.0 455727.0 0
382702.0 454912.0 0
98521.5 456456.0 0
102194.0 454802.0 0
108328.0 455150.0 0
112168.0 456029.0 0
121608.0 455765.0 0
126386.0 455763.0 0
373614.0 455763.0 0
378392.0 455765.0 0
387832.0 456029.0 0
391672.0 455150.0 0
397806.0 454802.0 0
401478.0 456456.0 0
101750.0 458782.0 0
105671.0 458124.0 0
109563.0 458937.0 0
115233.0 458454.0 0
119141.0 458790.0 0
123496.0 459278.0 0
127475.0 459502.0 0
131448.0 459555.0 0
135417.0 459126.0 0
139470.0 458802.0 0
143452.0 458531.0 0
147409.0 458220.0 0
151346.0 457730.0 0
155293.0 457879.0 0
159180.0 457217.0 0
163082.0 457756.0 0
166959.0 457094.0 0
170868.0 457521.0 0
174772.0 457165.0 0
178695.0 457235.0 0
182623.0 457224.0 0
186556.0 457222.0 0
190494.0 457220.0 0
194438.0 457218.0 0
198386.0 457217.0 0
202339.0 457216.0 0
206296.0 457215.0 0
210257.0 457214.0 0
214222.0 457214.0 0
218190.0 457213.0 0
222160.0 457213.0 0
226133.0 457212.0 0
230108.0 457212.0 0
234084.0 457212.0 0
238062.0 457212.0 0
242041.0 457212.0 0
246020.0 457212.0 0
250000.0 457212.0 0
253980.0 457212.0 0
257959.0 457212.0 0
261938.0 457212.0 0
265916.0 457212.0 0
269892.0 457212.0 0
273867.0 457212.0 0
277840.0 457213.0 0
281810.0 457213.0 0
285778.0 457214.0 0
289743.0 457214.0 0
293704.0 457215.0 0
297661.0 457216.0 0
301614.0 457217.0 0
305562.0 457218.0 0
309506.0 457220.0 0
313444.0 457222.0 0
317377.0 457224.0 0
321305.0 457235.0 0
325228.0 457165.0 0
329132.0 457521.0 0
333041.0 457094.0 0
336918.0 457756.0 0
340820.0 457217.0 0
344707.0 457879.0 0
348654.0 457730.0 0
352591.0 458220.0 0
356548.0 458531.0 0
360530.0 458802.0 0
364583.0 459126.0 0
368552.0 459555.0 0
372525.0 459502.0 0
376504.0 459278.0 0
380859.0 458790.0 0
384767.0 458454.0 0
390437.0 458937.0 0
394329.0 458124.0 0
398250.0 458782.0 0
99764.7 462244.0 0
104319.0 461885.0 0
108270.0 462631.0 0
112748.0 461568.0 0
116873.0 462078.0 0
120914.0 462318.0 0
125323.0 462837.0 0
129377.0 462933.0 0
133729.0 462719.0 0
137694.0 462331.0 0
141676.0 462059.0 0
145683.0 461798.0 0
149773.0 461388.0 0
153755.0 461558.0 0
157729.0 461185.0 0
161709.0 461497.0 0
165910.0 461204.0 0
169901.0 461367.0 0
174000.0 461212.0 0
178000.0 461212.0 0
182000.0 461212.0 0
186000.0 461212.0 0
190000.0 461212.0 0
194000.0 461212.0 0
198000.0 461212.0 0
202000.0 461212.0 0
206000.0 461212.0 0
210000.0 461212.0 0
214000.0 461212.0 0
218000.0 461212.0 0
222000.0 461212.0 0
226000.0 461212.0 0
230000.0 461212.0 0
234000.0 461212.0 0
238000.0 461212.0 0
242000.0 461212.0 0
246000.0 461212.0 0
250000.0 461212.0 0
254000.0 461212.0 0
258000.0 461212.0 0
262000.0 461212.0 0
266000.0 461212.0 0
270000.0 461212.0 0
274000.0 461212.0 0
278000.0 461212.0 0
282000.0 461212.0 0
286000.0 461212.0 0
290000.0 461212.0 0
294000.0 461212.0 0
298000.0 461212.0 0
302000.0 461212.0 0
306000.0 461212.0 0
310000.0 461212.0 0
314000.0 461212.0 0
318000.0 461212.0 0
322000.0 461212.0 0
326000.0 461212.0 0
330099.0 461367.0 0
334090.0 461204.0 0
338291.0 461497.0 0
342271.0 461185.0 0
346245.0 461558.0 0
350227.0 461388.0 0
354317.0 461798.0 0
358324.0 462059.0 0
362306.0 462331.0 0
366271.0 462719.0 0
370623.0 462933.0 0
374677.0 462837.0 0
379086.0 462318.0 0
383127.0 462078.0 0
387252.0 461568.0 0
391730.0 462631.0 0
395681.0 461885.0 0
400235.0 462244.0 0
101897.0 465614.0 0
105874.0 465759.0 0
110680.0 465802.0 0
114653.0 465400.0 0
118691.0 465629.0 0
122727.0 465851.0 0
127264.0 466331.0 0
131268.0 466363.0 0
135261.0 466331.0 0
139193.0 465970.0 0
143103.0 465722.0 0
146987.0 465542.0 0
150856.0 465205.0 0
154738.0 465453.0 0
158621.0 465081.0 0
162522.0 465408.0 0
166439.0 465168.0 0
170372.0 465314.0 0
174311.0 465211.0 0
178260.0 465217.0 0
182217.0 465215.0 0
186181.0 465214.0 0
190151.0 465213.0 0
194125.0 465213.0 0
198103.0 465213.0 0
202085.0 465212.0 0
206070.0 465212.0 0
210058.0 465212.0 0
214047.0 465212.0 0
218038.0 465212.0 0
222031.0 465212.0 0
226025.0 465212.0 0
230019.0 465212.0 0
234015.0 465212.0 0
238011.0 465212.0 0
242007.0 465212.0 0
246003.0 465212.0 0
250000.0 465212.0 0
253997.0 465212.0 0
257993.0 465212.0 0
261989.0 465212.0 0
265985.0 465212.0 0
269981.0 465212.0 0
273975.0 465212.0 0
277969.0 465212.0 0
281962.0 465212.0 0
285953.0 465212.0 0
289942.0 465212.0 0
293930.0 465212.0 0
297915.0 465212.0 0
301897.0 465213.0 0
305875.0 465213.0 0
309849.0 465213.0 0
313819.0 465214.0 0
317783.0 465215.0 0
321740.0 465217.0 0
325689.0 465211.0 0
329628.0 465314.0 0
333561.0 465168.0 0
337478.0 465408.0 0
341379.0 465081.0 0
345262.0 465453.0 0
349144.0 465205.0 0
353013.0 465542.0 0
356897.0 465722.0 0
360807.0 465970.0 0
364739.0 466331.0 0
368732.0 466363.0 0
372736.0 466331.0 0
377273.0 465851.0 0
381309.0 465629.0 0
385347.0 465400.0 0
389320.0 465802.0 0
394126.0 465759.0 0
398103.0 465614.0 0
101395.0 469574.0 0
105387.0 469684.0 0
109384.0 469581.0 0
113369.0 469376.0 0
117351.0 469389.0 0
121325.0 469573.0 0
125301.0 469813.0 0
129283.0 469816.0 0
133276.0 469750.0 0
137544.0 469577.0 0
141650.0 469407.0 0
145912.0 469373.0 0
149953.0 469204.0 0
153949.0 469363.0 0
157956.0 469207.0 0
161952.0 469352.0 0
165989.0 469210.0 0
169987.0 469273.0 0
174000.0 469212.0 0
178000.0 469212.0 0
182000.0 469212.0 0
186000.0 469212.0 0
190000.0 469212.0 0
194000.0 469212.0 0
198000.0 469212.0 0
202000.0 469212.0 0
206000.0 469212.0 0
210000.0 469212.0 0
214000.0 469212.0 0
218000.0 469212.0 0
222000.0 469212.0 0
226000.0 469212.0 0
230000.0 469212.0 0
234000.0 469212.0 0
238000.0 469212.0 0
242000.0 469212.0 0
246000.0 469212.0 0
250000.0 469212.0 0
254000.0 469212.0 0
258000.0 469212.0 0
262000.0 469212.0 0
266000.0 469212.0 0
270000.0 469212.0 0
274000.0 469212.0 0
278000.0 469212.0 0
282000.0 469212.0 0
286000.0 469212.0 0
290000.0 469212.0 0
294000.0 469212.0 0
298000.0 469212.0 0
302000.0 469212.0 0
306000.0 469212.0 0
310000.0 469212.0 0
314000.0 469212.0 0
318000.0 469212.0 0
322000.0 469212.0 0
326000.0 469212.0 0
330013.0 469273.0 0
334011.0 469210.0 0
338048.0 469352.0 0
342044.0 469207.0 0
346051.0 469363.0 0
350047.0 469204.0 0
354088.0 469373.0 0
358350.0 469407.0 0
362456.0 469577.0 0
366724.0 469750.0 0
370717.0 469816.0 0
374699.0 469813.0 0
378675.0 469573.0 0
382649.0 469389.0 0
386631.0 469376.0 0
390616.0 469581.0 0
394613.0 469684.0 0
398605.0 469574.0 0
102082.0 473507.0 0
106104.0 473579.0 0
110098.0 473514.0 0
114090.0 473346.0 0
118088.0 473316.0 0
122087.0 473489.0 0
126248.0 473687.0 0
130247.0 473675.0 0
134241.0 473552.0 0
138216.0 473491.0 0
142187.0 473340.0 0
146159.0 473351.0 0
150132.0 473200.0 0
154108.0 473350.0 0
158088.0 473204.0 0
162071.0 473336.0 0
166056.0 473209.0 0
170046.0 473255.0 0
174036.0 473212.0 0
178029.0 473212.0 0
182023.0 473212.0 0
186018.0 473212.0 0
190014.0 473212.0 0
194011.0 473212.0 0
198008.0 473212.0 0
202006.0 473212.0 0
206005.0 473212.0 0
210004.0 473212.0 0
214003.0 473212.0 0
218002.0 473212.0 0
222001.0 473212.0 0
226001.0 473212.0 0
230001.0 473212.0 0
234001.0 473212.0 0
238000.0 473212.0 0
242000.0 473212.0 0
246000.0 473212.0 0
250000.0 473212.0 0
254000.0 473212.0 0
258000.0 473212.0 0
262000.0 473212.0 0
265999.0 473212.0 0
269999.0 473212.0 0
273999.0 473212.0 0
277999.0 473212.0 0
281998.0 473212.0 0
285997.0 473212.0 0
289996.0 473212.0 0
293995.0 473212.0 0
297994.0 473212.0 0
301992.0 473212.0 0
305989.0 473212.0 0
309986.0 473212.0 0
313982.0 473212.0 0
317977.0 473212.0 0
321971.0 473212.0 0
325964.0 473212.0 0
329954.0 473255.0 0
333944.0 473209.0 0
337929.0 473336.0 0
341912.0 473204.0 0
345892.0 473350.0 0
349868.0 473200.0 0
353841.0 473351.0 0
357813.0 473340.0 0
361784.0 473491.0 0
365759.0 473552.0 0
369753.0 473675.0 0
373752.0 473687.0 0
377913.0 473489.0 0
381912.0 473316.0 0
385910.0 473346.0 0
389902.0 473514.0 0
393896.0 473579.0 0
397918.0 473507.0 0
101947.0 477496.0 0
105946.0 477540.0 0
109945.0 477505.0 0
113941.0 477343.0 0
117938.0 477310.0 0
121931.0 477477.0 0
125922.0 477653.0 0
129916.0 477634.0 0
133906.0 477477.0 0
137961.0 477457.0 0
141979.0 477308.0 0
145992.0 477335.0 0
149997.0 477212.0 0
153995.0 477337.0 0
157998.0 477212.0 0
161996.0 477320.0 0
166000.0 477212.0 0
169999.0 477241.0 0
174000.0 477212.0 0
178000.0 477212.0 0
182000.0 477212.0 0
186000.0 477212.0 0
190000.0 477212.0 0
194000.0 477212.0 0
198000.0 477212.0 0
202000.0 477212.0 0
206000.0 477212.0 0
210000.0 477212.0 0
214000.0 477212.0 0
218000.0 477212.0 0
222000.0 477212.0 0
226000.0 477212.0 0
230000.0 477212.0 0
234000.0 477212.0 0
238000.0 477212.0 0
242000.0 477212.0 0
246000.0 477212.0 0
250000.0 477212.0 0
254000.0 477212.0 0
258000.0 477212.0 0
262000.0 477212.0 0
266000.0 477212.0 0
270000.0 477212.0 0
274000.0 477212.0 0
278000.0 477212.0 0
282000.0 477212.0 0
286000.0 477212.0 0
290000.0 477212.0 0
294000.0 477212.0 0
298000.0 477212.0 0
302000.0 477212.0 0
306000.0 477212.0 0
310000.0 477212.0 0
314000.0 477212.0 0
318000.0 477212.0 0
322000.0 477212.0 0
326000.0 477212.0 0
330001.0 477241.0 0
334000.0 477212.0 0
338004.0 477320.0 0
342002.0 477212.0 0
346005.0 477337.0 0
350003.0 477212.0 0
354008.0 477335.0 0
358021.0 477308.0 0
362039.0 477457.0 0
366094.0 477477.0 0
370084.0 477634.0 0
374078.0 477653.0 0
378069.0 477477.0 0
382062.0 477310.0 0
386059.0 477343.0 0
390055.0 477505.0 0
394054.0 477540.0 0
398053.0 477496.0 0
102005.0 481485.0 0
106007.0 481508.0 0
110007.0 481496.0 0
114003.0 481342.0 0
118003.0 481305.0 0
122014.0 481470.0 0
126030.0 481624.0 0
130029.0 481601.0 0
134023.0 481427.0 0
138021.0 481433.0 0
142015.0 481286.0 0
146013.0 481325.0 0
150010.0 481211.0 0
154007.0 481327.0 0
158004.0 481212.0 0
162002.0 481306.0 0
166001.0 481212.0 0
170000.0 481231.0 0
174000.0 481212.0 0
178000.0 481212.0 0
182000.0 481212.0 0
186000.0 481212.0 0
190000.0 481212.0 0
194000.0 481212.0 0
198000.0 481212.0 0
202000.0 481212.0 0
206000.0 481212.0 0
210000.0 481212.0 0
214000.0 481212.0 0
218000.0 481212.0 0
222000.0 481212.0 0
226000.0 481212.0 0
230000.0 481212.0 0
234000.0 481212.0 0
238000.0 481212.0 0
242000.0 481212.0 0
246000.0 481212.0 0
250000.0 481212.0 0
254000.0 481212.0 0
258000.0 481212.0 0
262000.0 481212.0 0
266000.0 481212.0 0
270000.0 481212.0 0
274000.0 481212.0 0
278000.0 481212.0 0
282000.0 481212.0 0
286000.0 481212.0 0
290000.0 481212.0 0
294000.0 481212.0 0
298000.0 481212.0 0
302000.0 481212.0 0
306000.0 481212.0 0
310000.0 481212.0 0
314000.0 481212.0 0
318000.0 481212.0 0
322000.0 481212.0 0
326000.0 481212.0 0
330000.0 481231.0 0
333999.0 481212.0 0
337998.0 481306.0 0
341996.0 481212.0 0
345993.0 481327.0 0
349990.0 481211.0 0
353987.0 481325.0 0
357985.0 481286.0 0
361979.0 481433.0 0
365977.0 481427.0 0
369971.0 481601.0 0
373970.0 481624.0 0
377986.0 481470.0 0
381997.0 481305.0 0
385997.0 481342.0 0
389993.0 481496.0 0
393993.0 481508.0 0
397995.0 481485.0 0
101999.0 485475.0 0
105999.0 485479.0 0
109999.0 485485.0 0
113996.0 485340.0 0
117995.0 485302.0 0
121991.0 485463.0 0
125988.0 485593.0 0
129988.0 485568.0 0
133996.0 485387.0 0
137998.0 485411.0 0
141999.0 485268.0 0
146000.0 485316.0 0
150000.0 485212.0 0
154000.0 485316.0 0
158000.0 485212.0 0
162000.0 485292.0 0
166000.0 485212.0 0
170000.0 485224.0 0
174000.0 485212.0 0
178000.0 485212.0 0
182000.0 485212.0 0
186000.0 485212.0 0
190000.0 485212.0 0
194000.0 485212.0 0
198000.0 485212.0 0
202000.0 485212.0 0
206000.0 485212.0 0
210000.0 485212.0 0
214000.0 485212.0 0
218000.0 485212.0 0
222000.0 485212.0 0
226000.0 485212.0 0
230000.0 485212.0 0
234000.0 485212.0 0
238000.0 485212.0 0
242000.0 485212.0 0
246000.0 485212.0 0
250000.0 485212.0 0
254000.0 485212.0 0
258000.0 485212.0 0
262000.0 485212.0 0
266000.0 485212.0 0
270000.0 485212.0 0
274000.0 485212.0 0
278000.0 485212.0 0
282000.0 485212.0 0
286000.0 485212.0 0
290000.0 485212.0 0
294000.0 485212.0 0
298000.0 485212.0 0
302000.0 485212.0 0
306000.0 485212.0 0
310000.0 485212.0 0
314000.0 485212.0 0
318000.0 485212.0 0
322000.0 485212.0 0
326000.0 485212.0 0
330000.0 485224.0 0
334000.0 485212.0 0
338000.0 485292.0 0
342000.0 485212.0 0
346000.0 485316.0 0
350000.0 485212.0 0
354000.0 485316.0 0
358001.0 485268.0 0
362002.0 485411.0 0
366004.0 485387.0 0
370012.0 485568.0 0
374012.0 485593.0 0
378009.0 485463.0 0
382005.0 485302.0 0
386004.0 485340.0 0
390001.0 485485.0 0
394001.0 485479.0 0
398001.0 485475.0 0
102000.0 489463.0 0
106000.0 489455.0 0
110000.0 489472.0 0
114000.0 489338.0 0
118000.0 489298.0 0
122001.0 489456.0 0
126005.0 489560.0 0
130005.0 489535.0 0
134000.0 489355.0 0
138000.0 489392.0 0
142000.0 489253.0 0
146000.0 489309.0 0
150000.0 489212.0 0
154000.0 489307.0 0
158000.0 489212.0 0
162000.0 489279.0 0
166000.0 489212.0 0
170000.0 489219.0 0
174000.0 489212.0 0
178000.0 489212.0 0
182000.0 489212.0 0
186000.0 489212.0 0
190000.0 489212.0 0
194000.0 489212.0 0
198000.0 489212.0 0
202000.0 489212.0 0
206000.0 489212.0 0
210000.0 489212.0 0
214000.0 489212.0 0
218000.0 489212.0 0
222000.0 489212.0 0
226000.0 489212.0 0
230000.0 489212.0 0
234000.0 489212.0 0
238000.0 489212.0 0
242000.0 489212.0 0
246000.0 489212.0 0
250000.0 489212.0 0
254000.0 489212.0 0
258000.0 489212.0 0
262000.0 489212.0 0
266000.0 489212.0 0
270000.0 489212.0 0
274000.0 489212.0 0
278000.0 489212.0 0
282000.0 489212.0 0
286000.0 489212.0 0
290000.0 489212.0 0
294000.0 489212.0 0
298000.0 489212.0 0
302000.0 489212.0 0
306000.0 489212.0 0
310000.0 489212.0 0
314000.0 489212.0 0
318000.0 489212.0 0
322000.0 489212.0 0
326000.0 489212.0 0
330000.0 489219.0 0
334000.0 489212.0 0
338000.0 489279.0 0
342000.0 489212.0 0
346000.0 489307.0 0
350000.0 489212.0 0
354000.0 489309.0 0
358000.0 489253.0 0
362000.0 489392.0 0
366000.0 489355.0 0
369995.0 489535.0 0
373995.0 489560.0 0
377999.0 489456.0 0
382000.0 489298.0 0
386000.0 489338.0 0
390000.0 489472.0 0
394000.0 489455.0 0
398000.0 489463.0 0
118000.0 493294.0 0
134000.0 493330.0 0
142000.0 493242.0 0
146000.0 493302.0 0
150000.0 493212.0 0
154000.0 493297.0 0
158000.0 493212.0 0
162000.0 493268.0 0
166000.0 493212.0 0
170000.0 493216.0 0
174000.0 493212.0 0
178000.0 493212.0 0
182000.0 493212.0 0
186000.0 493212.0 0
190000.0 493212.0 0
194000.0 493212.0 0
198000.0 493212.0 0
202000.0 493212.0 0
206000.0 493212.0 0
210000.0 493212.0 0
214000.0 493212.0 0
218000.0 493212.0 0
222000.0 493212.0 0
226000.0 493212.0 0
230000.0 493212.0 0
234000.0 493212.0 0
238000.0 493212.0 0
242000.0 493212.0 0
246000.0 493212.0 0
250000.0 493212.0 0
254000.0 493212.0 0
258000.0 493212.0 0
262000.0 493212.0 0
266000.0 493212.0 0
270000.0 493212.0 0
274000.0 493212.0 0
278000.0 493212.0 0
282000.0 493212.0 0
286000.0 493212.0 0
290000.0 493212.0 0
294000.0 493212.0 0
298000.0 493212.0 0
302000.0 493212.0 0
306000.0 493212.0 0
310000.0 493212.0 0
314000.0 493212.0 0
318000.0 493212.0 0
322000.0 493212.0 0
326000.0 493212.0 0
330000.0 493216.0 0
334000.0 493212.0 0
338000.0 493268.0 0
342000.0 493212.0 0
346000.0 493297.0 0
350000.0 493212.0 0
354000.0 493302.0 0
358000.0 493242.0 0
366000.0 493330.0 0
382000.0 493294.0 0
102000.0 493451.0 0
106000.0 493434.0 0
110000.0 493458.0 0
114000.0 493335.0 0
122000.0 493447.0 0
125999.0 493526.0 0
129999.0 493504.0 0
138000.0 493375.0 0
362000.0 493375.0 0
370001.0 493504.0 0
374001.0 493526.0 0
378000.0 493447.0 0
386000.0 493335.0 0
390000.0 493458.0 0
394000.0 493434.0 0
398000.0 493451.0 0
102000.0 497439.0 0
106000.0 497416.0 0
110000.0 497443.0 0
114000.0 497332.0 0
118000.0 497291.0 0
122000.0 497437.0 0
126000.0 497493.0 0
130000.0 497473.0 0
134000.0 497309.0 0
138000.0 497360.0 0
142000.0 497234.0 0
146000.0 497295.0 0
150000.0 497212.0 0
154000.0 497288.0 0
158000.0 497212.0 0
162000.0 497258.0 0
166000.0 497212.0 0
170000.0 497215.0 0
174000.0 497212.0 0
178000.0 497212.0 0
182000.0 497212.0 0
186000.0 497212.0 0
190000.0 497212.0 0
194000.0 497212.0 0
198000.0 497212.0 0
202000.0 497212.0 0
206000.0 497212.0 0
210000.0 497212.0 0
214000.0 497212.0 0
218000.0 497212.0 0
222000.0 497212.0 0
226000.0 497212.0 0
230000.0 497212.0 0
234000.0 497212.0 0
238000.0 497212.0 0
242000.0 497212.0 0
246000.0 497212.0 0
250000.0 497212.0 0
254000.0 497212.0 0
258000.0 497212.0 0
262000.0 497212.0 0
266000.0 497212.0 0
270000.0 497212.0 0
274000.0 497212.0 0
278000.0 497212.0 0
282000.0 497212.0 0
286000.0 497212.0 0
290000.0 497212.0 0
294000.0 497212.0 0
298000.0 497212.0 0
302000.0 497212.0 0
306000.0 497212.0 0
310000.0 497212.0 0
314000.0 497212.0 0
318000.0 497212.0 0
322000.0 497212.0 0
326000.0 497212.0 0
330000.0 497215.0 0
334000.0 497212.0 0
338000.0 497258.0 0
342000.0 497212.0 0
346000.0 497288.0 0
350000.0 497212.0 0
354000.0 497295.0 0
358000.0 497234.0 0
362000.0 497360.0 0
366000.0 497309.0 0
370000.0 497473.0 0
374000.0 497493.0 0
378000.0 497437.0 0
382000.0 497291.0 0
386000.0 497332.0 0
390000.0 497443.0 0
394000.0 497416.0 0
398000.0 497439.0 0
102000.0 501427.0 0
106000.0 501401.0 0
110000.0 501428.0 0
114000.0 501328.0 0
118000.0 501287.0 0
122000.0 501426.0 0
126000.0 501461.0 0
130000.0 501445.0 0
134000.0 501292.0 0
138000.0 501347.0 0
142000.0 501228.0 0
146000.0 501289.0 0
150000.0 501212.0 0
154000.0 501279.0 0
158000.0 501212.0 0
162000.0 501250.0 0
166000.0 501212.0 0
170000.0 501213.0 0
174000.0 501212.0 0
178000.0 501212.0 0
182000.0 501212.0 0
186000.0 501212.0 0
190000.0 501212.0 0
194000.0 501212.0 0
198000.0 501212.0 0
202000.0 501212.0 0
206000.0 501212.0 0
210000.0 501212.0 0
214000.0 501212.0 0
218000.0 501212.0 0
222000.0 501212.0 0
226000.0 501212.0 0
230000.0 501212.0 0
234000.0 501212.0 0
238000.0 501212.0 0
242000.0 501212.0 0
246000.0 501212.0 0
250000.0 501212.0 0
254000.0 501212.0 0
258000.0 501212.0 0
262000.0 501212.0 0
266000.0 501212.0 0
270000.0 501212.0 0
274000.0 501212.0 0
278000.0 501212.0 0
282000.0 501212.0 0
286000.0 501212.0 0
290000.0 501212.0 0
294000.0 501212.0 0
298000.0 501212.0 0
302000.0 501212.0 0
306000.0 501212.0 0
310000.0 501212.0 0
314000.0 501212.0 0
318000.0 501212.0 0
322000.0 501212.0 0
326000.0 501212.0 0
330000.0 501213.0 0
334000.0 501212.0 0
338000.0 501250.0 0
342000.0 501212.0 0
346000.0 501279.0 0
350000.0 501212.0 0
354000.0 501289.0 0
358000.0 501228.0 0
362000.0 501347.0 0
366000.0 501292.0 0
370000.0 501445.0 0
374000.0 501461.0 0
378000.0 501426.0 0
382000.0 501287.0 0
386000.0 501328.0 0
390000.0 501428.0 0
394000.0 501401.0 0
398000.0 501427.0 0
102000.0 505415.0 0
106000.0 505387.0 0
110000.0 505413.0 0
114000.0 505324.0 0
118000.0 505284.0 0
122000.0 505414.0 0
126000.0 505430.0 0
130000.0 505420.0 0
134000.0 505277.0 0
138000.0 505336.0 0
142000.0 505224.0 0
146000.0 505282.0 0
150000.0 505212.0 0
154000.0 505271.0 0
158000.0 505212.0 0
162000.0 505243.0 0
166000.0 505212.0 0
170000.0 505213.0 0
174000.0 505212.0 0
178000.0 505212.0 0
182000.0 505212.0 0
186000.0 505212.0 0
190000.0 505212.0 0
194000.0 505212.0 0
198000.0 505212.0 0
202000.0 505212.0 0
206000.0 505212.0 0
210000.0 505212.0 0
214000.0 505212.0 0
218000.0 505212.0 0
222000.0 505212.0 0
226000.0 505212.0 0
230000.0 505212.0 0
234000.0 505212.0 0
238000.0 505212.0 0
242000.0 505212.0 0
246000.0 505212.0 0
250000.0 505212.0 0
254000.0 505212.0 0
258000.0 505212.0 0
262000.0 505212.0 0
266000.0 505212.0 0
270000.0 505212.0 0
274000.0 505212.0 0
278000.0 505212.0 0
282000.0 505212.0 0
286000.0 505212.0 0
290000.0 505212.0 0
294000.0 505212.0 0
298000.0 505212.0 0
302000.0 505212.0 0
306000.0 505212.0 0
310000.0 505212.0 0
314000.0 505212.0 0
318000.0 505212.0 0
322000.0 505212.0 0
326000.0 505212.0 0
330000.0 505213.0 0
334000.0 505212.0 0
338000.0 505243.0 0
342000.0 505212.0 0
346000.0 505271.0 0
350000.0 505212.0 0
354000.0 505282.0 0
358000.0 505224.0 0
362000.0 505336.0 0
366000.0 505277.0 0
370000.0 505420.0 0
374000.0 505430.0 0
378000.0 505414.0 0
382000.0 505284.0 0
386000.0 505324.0 0
390000.0 505413.0 0
394000.0 505387.0 0
398000.0 505415.0 0
102000.0 509403.0 0
106000.0 509376.0 0
110000.0 509398.0 0
114000.0 509320.0 0
118000.0 509280.0 0
122000.0 509402.0 0
126000.0 509402.0 0
130000.0 509396.0 0
134000.0 509265.0 0
138000.0 509325.0 0
142000.0 509220.0 0
146000.0 509276.0 0
150000.0 509212.0 0
154000.0 509264.0 0
158000.0 509212.0 0
162000.0 509237.0 0
166000.0 509212.0 0
170000.0 509212.0 0
174000.0 509212.0 0
178000.0 509212.0 0
182000.0 509212.0 0
186000.0 509212.0 0
190000.0 509212.0 0
194000.0 509212.0 0
198000.0 509212.0 0
202000.0 509212.0 0
206000.0 509212.0 0
210000.0 509212.0 0
214000.0 509212.0 0
218000.0 509212.0 0
222000.0 509212.0 0
226000.0 509212.0 0
230000.0 509212.0 0
234000.0 509212.0 0
238000.0 509212.0 0
242000.0 509212.0 0
246000.0 509212.0 0
250000.0 509212.0 0
254000.0 509212.0 0
258000.0 509212.0 0
262000.0 509212.0 0
266000.0 509212.0 0
270000.0 509212.0 0
274000.0 509212.0 0
278000.0 509212.0 0
282000.0 509212.0 0
286000.0 509212.0 0
290000.0 509212.0 0
294000.0 509212.0 0
298000.0 509212.0 0
302000.0 509212.0 0
306000.0 509212.0 0
310000.0 509212.0 0
314000.0 509212.0 0
318000.0 509212.0 0
322000.0 509212.0 0
326000.0 509212.0 0
330000.0 509212.0 0
334000.0 509212.0 0
338000.0 509237.0 0
342000.0 509212.0 0
346000.0 509264.0 0
350000.0 509212.0 0
354000.0 509276.0 0
358000.0 509220.0 0
362000.0 509325.0 0
366000.0 509265.0 0
370000.0 509396.0 0
374000.0 509402.0 0
378000.0 509402.0 0
382000.0 509280.0 0
386000.0 509320.0 0
390000.0 509398.0 0
394000.0 509376.0 0
398000.0 509403.0 0
102000.0 513392.0 0
106000.0 513365.0 0
110000.0 513383.0 0
114000.0 513315.0 0
118000.0 513277.0 0
122000.0 513390.0 0
126000.0 513377.0 0
130000.0 513376.0 0
134000.0 513255.0 0
138000.0 513316.0 0
142000.0 513218.0 0
146000.0 513270.0 0
150000.0 513212.0 0
154000.0 513257.0 0
158000.0 513212.0 0
162000.0 513231.0 0
166000.0 513212.0 0
170000.0 513212.0 0
174000.0 513212.0 0
178000.0 513212.0 0
182000.0 513212.0 0
186000.0 513212.0 0
190000.0 513212.0 0
194000.0 513212.0 0
198000.0 513212.0 0
202000.0 513212.0 0
206000.0 513212.0 0
210000.0 513212.0 0
214000.0 513212.0 0
218000.0 513212.0 0
222000.0 513212.0 0
226000.0 513212.0 0
230000.0 513212.0 0
234000.0 513212.0 0
238000.0 513212.0 0
242000.0 513212.0 0
246000.0 513212.0 0
250000.0 513212.0 0
254000.0 513212.0 0
258000.0 513212.0 0
262000.0 513212.0 0
266000.0 513212.0 0
270000.0 513212.0 0
274000.0 513212.0 0
278000.0 513212.0 0
282000.0 513212.0 0
286000.0 513212.0 0
290000.0 513212.0 0
294000.0 513212.0 0
298000.0 513212.0 0
302000.0 513212.0 0
306000.0 513212.0 0
310000.0 513212.0 0
314000.0 513212.0 0
318000.0 513212.0 0
322000.0 513212.0 0
326000.0 513212.0 0
330000.0 513212.0 0
334000.0 513212.0 0
338000.0 513231.0 0
342000.0 513212.0 0
346000.0 513257.0 0
350000.0 513212.0 0
354000.0 513270.0 0
358000.0 513218.0 0
362000.0 513316.0 0
366000.0 513255.0 0
370000.0 513376.0 0
374000.0 513377.0 0
378000.0 513390.0 0
382000.0 513277.0 0
386000.0 513315.0 0
390000.0 513383.0 0
394000.0 513365.0 0
398000.0 513392.0 0
102000.0 517381.0 0
106000.0 517356.0 0
110000.0 517369.0 0
114000.0 517310.0 0
118000.0 517273.0 0
122000.0 517377.0 0
126000.0 517354.0 0
130000.0 517357.0 0
134000.0 517246.0 0
138000.0 517307.0 0
142000.0 517217.0 0
146000.0 517265.0 0
150000.0 517212.0 0
154000.0 517251.0 0
158000.0 517212.0 0
162000.0 517227.0 0
166000.0 517212.0 0
170000.0 517212.0 0
174000.0 517212.0 0
178000.0 517212.0 0
182000.0 517212.0 0
186000.0 517212.0 0
190000.0 517212.0 0
194000.0 517212.0 0
198000.0 517212.0 0
202000.0 517212.0 0
206000.0 517212.0 0
210000.0 517212.0 0
214000.0 517212.0 0
218000.0 517212.0 0
222000.0 517212.0 0
226000.0 517212.0 0
230000.0 517212.0 0
234000.0 517212.0 0
238000.0 517212.0 0
242000.0 517212.0 0
246000.0 517212.0 0
250000.0 517212.0 0
254000.0 517212.0 0
258000.0 517212.0 0
262000.0 517212.0 0
266000.0 517212.0 0
270000.0 517212.0 0
274000.0 517212.0 0
278000.0 517212.0 0
282000.0 517212.0 0
286000.0 517212.0 0
290000.0 517212.0 0
294000.0 517212.0 0
298000.0 517212.0 0
302000.0 517212.0 0
306000.0 517212.0 0
310000.0 517212.0 0
314000.0 517212.0 0
318000.0 517212.0 0
322000.0 517212.0 0
326000.0 517212.0 0
330000.0 517212.0 0
334000.0 517212.0 0
338000.0 517227.0 0
342000.0 517212.0 0
346000.0 517251.0 0
350000.0 517212.0 0
354000.0 517265.0 0
358000.0 517217.0 0
362000.0 517307.0 0
366000.0 517246.0 0
370000.0 517357.0 0
374000.0 517354.0 0
378000.0 517377.0 0
382000.0 517273.0 0
386000.0 517310.0 0
390000.0 517369.0 0
394000.0 517356.0 0
398000.0 517381.0 0
102000.0 521370.0 0
106000.0 521347.0 0
110000.0 521356.0 0
114000.0 521305.0 0
118000.0 521269.0 0
122000.0 521365.0 0
126000.0 521334.0 0
130000.0 521341.0 0
134000.0 521239.0 0
138000.0 521299.0 0
142000.0 521215.0 0
146000.0 521259.0 0
150000.0 521212.0 0
154000.0 521245.0 0
158000.0 521212.0 0
162000.0 521224.0 0
166000.0 521212.0 0
170000.0 521212.0 0
174000.0 521212.0 0
178000.0 521212.0 0
182000.0 521212.0 0
186000.0 521212.0 0
190000.0 521212.0 0
194000.0 521212.0 0
198000.0 521212.0 0
202000.0 521212.0 0
206000.0 521212.0 0
210000.0 521212.0 0
214000.0 521212.0 0
218000.0 521212.0 0
222000.0 521212.0 0
226000.0 521212.0 0
230000.0 521212.0 0
234000.0 521212.0 0
238000.0 521212.0 0
242000.0 521212.0 0
246000.0 521212.0 0
250000.0 521212.0 0
254000.0 521212.0 0
258000.0 521212.0 0
262000.0 521212.0 0
266000.0 521212.0 0
270000.0 521212.0 0
274000.0 521212.0 0
278000.0 521212.0 0
282000.0 521212.0 0
286000.0 521212.0 0
290000.0 521212.0 0
294000.0 521212.0 0
298000.0 521212.0 0
302000.0 521212.0 0
306000.0 521212.0 0
310000.0 521212.0 0
314000.0 521212.0 0
318000.0 521212.0 0
322000.0 521212.0 0
326000.0 521212.0 0
330000.0 521212.0 0
334000.0 521212.0 0
338000.0 521224.0 0
342000.0 521212.0 0
346000.0 521245.0 0
350000.0 521212.0 0
354000.0 521259.0 0
358000.0 521215.0 0
362000.0 521299.0 0
366000.0 521239.0 0
370000.0 521341.0 0
374000.0 521334.0 0
378000.0 521365.0 0
382000.0 521269.0 0
386000.0 521305.0 0
390000.0 521356.0 0
394000.0 521347.0 0
398000.0 521370.0 0
102000.0 525359.0 0
106000.0 525339.0 0
110000.0 525344.0 0
114000.0 525300.0 0
118000.0 525266.0 0
122000.0 525353.0 0
126000.0 525316.0 0
130000.0 525327.0 0
134000.0 525234.0 0
138000.0 525292.0 0
142000.0 525215.0 0
146000.0 525254.0 0
150000.0 525212.0 0
154000.0 525240.0 0
158000.0 525212.0 0
162000.0 525221.0 0
166000.0 525212.0 0
170000.0 525212.0 0
174000.0 525212.0 0
178000.0 525212.0 0
182000.0 525212.0 0
186000.0 525212.0 0
190000.0 525212.0 0
194000.0 525212.0 0
198000.0 525212.0 0
202000.0 525212.0 0
206000.0 525212.0 0
210000.0 525212.0 0
214000.0 525212.0 0
218000.0 525212.0 0
222000.0 525212.0 0
226000.0 525212.0 0
230000.0 525212.0 0
234000.0 525212.0 0
238000.0 525212.0 0
242000.0 525212.0 0
246000.0 525212.0 0
250000.0 525212.0 0
254000.0 525212.0 0
258000.0 525212.0 0
262000.0 525212.0 0
266000.0 525212.0 0
270000.0 525212.0 0
274000.0 525212.0 0
278000.0 525212.0 0
282000.0 525212.0 0
286000.0 525212.0 0
290000.0 525212.0 0
294000.0 525212.0 0
298000.0 525212.0 0
302000.0 525212.0 0
306000.0 525212.0 0
310000.0 525212.0 0
314000.0 525212.0 0
318000.0 525212.0 0
322000.0 525212.0 0
326000.0 525212.0 0
330000.0 525212.0 0
334000.0 525212.0 0
338000.0 525221.0 0
342000.0 525212.0 0
346000.0 525240.0 0
350000.0 525212.0 0
354000.0 525254.0 0
358000.0 525215.0 0
362000.0 525292.0 0
366000.0 525234.0 0
370000.0 525327.0 0
374000.0 525316.0 0
378000.0 525353.0 0
382000.0 525266.0 0
386000.0 525300.0 0
390000.0 525344.0 0
394000.0 525339.0 0
398000.0 525359.0 0
102000.0 529349.0 0
106000.0 529331.0 0
110000.0 529332.0 0
114000.0 529295.0 0
118000.0 529262.0 0
122000.0 529342.0 0
126000.0 529300.0 0
130000.0 529314.0 0
134000.0 529229.0 0
138000.0 529284.0 0
142000.0 529214.0 0
146000.0 529250.0 0
150000.0 529212.0 0
154000.0 529236.0 0
158000.0 529212.0 0
162000.0 529219.0 0
166000.0 529212.0 0
170000.0 529212.0 0
174000.0 529212.0 0
178000.0 529212.0 0
182000.0 529212.0 0
186000.0 529212.0 0
190000.0 529212.0 0
194000.0 529212.0 0
198000.0 529212.0 0
202000.0 529212.0 0
206000.0 529212.0 0
210000.0 529212.0 0
214000.0 529212.0 0
218000.0 529212.0 0
222000.0 529212.0 0
226000.0 529212.0 0
230000.0 529212.0 0
234000.0 529212.0 0
238000.0 529212.0 0
242000.0 529212.0 0
246000.0 529212.0 0
250000.0 529212.0 0
254000.0 529212.0 0
258000.0 529212.0 0
262000.0 529212.0 0
266000.0 529212.0 0
270000.0 529212.0 0
274000.0 529212.0 0
278000.0 529212.0 0
282000.0 529212.0 0
286000.0 529212.0 0
290000.0 529212.0 0
294000.0 529212.0 0
298000.0 529212.0 0
302000.0 529212.0 0
306000.0 529212.0 0
310000.0 529212.0 0
314000.0 529212.0 0
318000.0 529212.0 0
322000.0 529212.0 0
326000.0 529212.0 0
330000.0 529212.0 0
334000.0 529212.0 0
338000.0 529219.0 0
342000.0 529212.0 0
346000.0 529236.0 0
350000.0 529212.0 0
354000.0 529250.0 0
358000.0 529214.0 0
362000.0 529284.0 0
366000.0 529229.0 0
370000.0 529314.0 0
374000.0 529300.0 0
378000.0 529342.0 0
382000.0 529262.0 0
386000.0 529295.0 0
390000.0 529332.0 0
394000.0 529331.0 0
398000.0 529349.0 0
102000.0 533340.0 0
106000.0 533324.0 0
110000.0 533322.0 0
114000.0 533289.0 0
118000.0 533259.0 0
122000.0 533331.0 0
126000.0 533287.0 0
130000.0 533303.0 0
134000.0 533226.0 0
138000.0 533278.0 0
142000.0 533214.0 0
146000.0 533245.0 0
150000.0 533212.0 0
154000.0 533232.0 0
158000.0 533212.0 0
162000.0 533217.0 0
166000.0 533212.0 0
170000.0 533212.0 0
174000.0 533212.0 0
178000.0 533212.0 0
182000.0 533212.0 0
186000.0 533212.0 0
190000.0 533212.0 0
194000.0 533212.0 0
198000.0 533212.0 0
202000.0 533212.0 0
206000.0 533212.0 0
210000.0 533212.0 0
214000.0 533212.0 0
218000.0 533212.0 0
222000.0 533212.0 0
226000.0 533212.0 0
230000.0 533212.0 0
234000.0 533212.0 0
238000.0 533212.0 0
242000.0 533212.0 0
246000.0 533212.0 0
250000.0 533212.0 0
254000.0 533212.0 0
258000.0 533212.0 0
262000.0 533212.0 0
266000.0 533212.0 0
270000.0 533212.0 0
274000.0 533212.0 0
278000.0 533212.0 0
282000.0 533212.0 0
286000.0 533212.0 0
290000.0 533212.0 0
294000.0 533212.0 0
298000.0 533212.0 0
302000.0 533212.0 0
306000.0 533212.0 0
310000.0 533212.0 0
314000.0 533212.0 0
318000.0 533212.0 0
322000.0 533212.0 0
326000.0 533212.0 0
330000.0 533212.0 0
334000.0 533212.0 0
338000.0 533217.0 0
342000.0 533212.0 0
346000.0 533232.0 0
350000.0 533212.0 0
354000.0 533245.0 0
358000.0 533214.0 0
362000.0 533278.0 0
366000.0 533226.0 0
370000.0 533303.0 0
374000.0 533287.0 0
378000.0 533331.0 0
382000.0 533259.0 0
386000.0 533289.0 0
390000.0 533322.0 0
394000.0 533324.0 0
398000.0 533340.0 0
102000.0 537331.0 0
106000.0 537317.0 0
110000.0 537312.0 0
114000.0 537284.0 0
118000.0 537255.0 0
122000.0 537320.0 0
126000.0 537275.0 0
130000.0 537293.0 0
134000.0 537223.0 0
138000.0 537271.0 0
142000.0 537213.0 0
146000.0 537241.0 0
150000.0 537212.0 0
154000.0 537229.0 0
158000.0 537212.0 0
162000.0 537216.0 0
166000.0 537212.0 0
170000.0 537212.0 0
174000.0 537212.0 0
178000.0 537212.0 0
182000.0 537212.0 0
186000.0 537212.0 0
190000.0 537212.0 0
194000.0 537212.0 0
198000.0 537212.0 0
202000.0 537212.0 0
206000.0 537212.0 0
210000.0 537212.0 0
214000.0 537212.0 0
218000.0 537212.0 0
222000.0 537212.0 0
226000.0 537212.0 0
230000.0 537212.0 0
234000.0 537212.0 0
238000.0 537212.0 0
242000.0 537212.0 0
246000.0 537212.0 0
250000.0 537212.0 0
254000.0 537212.0 0
258000.0 537212.0 0
262000.0 537212.0 0
266000.0 537212.0 0
270000.0 537212.0 0
274000.0 537212.0 0
278000.0 537212.0 0
282000.0 537212.0 0
286000.0 537212.0 0
290000.0 537212.0 0
294000.0 537212.0 0
298000.0 537212.0 0
302000.0 537212.0 0
306000.0 537212.0 0
310000.0 537212.0 0
314000.0 537212.0 0
318000.0 537212.0 0
322000.0 537212.0 0
326000.0 537212.0 0
330000.0 537212.0 0
334000.0 537212.0 0
338000.0 537216.0 0
342000.0 537212.0 0
346000.0 537229.0 0
350000.0 537212.0 0
354000.0 537241.0 0
358000.0 537213.0 0
362000.0 537271.0 0
366000.0 537223.0 0
370000.0 537293.0 0
374000.0 537275.0 0
378000.0 537320.0 0
382000.0 537255.0 0
386000.0 537284.0 0
390000.0 537312.0 0
394000.0 537317.0 0
398000.0 537331.0 0
102000.0 541322.0 0
106000.0 541310.0 0
110000.0 541303.0 0
114000.0 541279.0 0
118000.0 541252.0 0
122000.0 541310.0 0
126000.0 541265.0 0
130000.0 541284.0 0
134000.0 541221.0 0
138000.0 541265.0 0
142000.0 541213.0 0
146000.0 541238.0 0
150000.0 541212.0 0
154000.0 541226.0 0
158000.0 541212.0 0
162000.0 541215.0 0
166000.0 541212.0 0
170000.0 541212.0 0
174000.0 541212.0 0
178000.0 541212.0 0
182000.0 541212.0 0
186000.0 541212.0 0
190000.0 541212.0 0
194000.0 541212.0 0
198000.0 541212.0 0
202000.0 541212.0 0
206000.0 541212.0 0
210000.0 541212.0 0
214000.0 541212.0 0
218000.0 541212.0 0
222000.0 541212.0 0
226000.0 541212.0 0
230000.0 541212.0 0
234000.0 541212.0 0
238000.0 541212.0 0
242000.0 541212.0 0
246000.0 541212.0 0
250000.0 541212.0 0
254000.0 541212.0 0
258000.0 541212.0 0
262000.0 541212.0 0
266000.0 541212.0 0
270000.0 541212.0 0
274000.0 541212.0 0
278000.0 541212.0 0
282000.0 541212.0 0
286000.0 541212.0 0
290000.0 541212.0 0
294000.0 541212.0 0
298000.0 541212.0 0
302000.0 541212.0 0
306000.0 541212.0 0
310000.0 541212.0 0
314000.0 541212.0 0
318000.0 541212.0 0
322000.0 541212.0 0
326000.0 541212.0 0
330000.0 541212.0 0
334000.0 541212.0 0
338000.0 541215.0 0
342000.0 541212.0 0
346000.0 541226.0 0
350000.0 541212.0 0
354000.0 541238.0 0
358000.0 541213.0 0
362000.0 541265.0 0
366000.0 541221.0 0
370000.0 541284.0 0
374000.0 541265.0 0
378000.0 541310.0 0
382000.0 541252.0 0
386000.0 541279.0 0
390000.0 541303.0 0
394000.0 541310.0 0
398000.0 541322.0 0
102000.0 545314.0 0
106000.0 545303.0 0
110000.0 545295.0 0
114000.0 545274.0 0
118000.0 545248.0 0
122000.0 545301.0 0
126000.0 545257.0 0
130000.0 545276.0 0
134000.0 545219.0 0
138000.0 545260.0 0
142000.0 545213.0 0
146000.0 545234.0 0
150000.0 545212.0 0
154000.0 545224.0 0
158000.0 545212.0 0
162000.0 545214.0 0
166000.0 545212.0 0
170000.0 545212.0 0
174000.0 545212.0 0
178000.0 545212.0 0
182000.0 545212.0 0
186000.0 545212.0 0
190000.0 545212.0 0
194000.0 545212.0 0
198000.0 545212.0 0
202000.0 545212.0 0
206000.0 545212.0 0
210000.0 545212.0 0
214000.0 545212.0 0
218000.0 545212.0 0
222000.0 545212.0 0
226000.0 545212.0 0
230000.0 545212.0 0
234000.0 545212.0 0
238000.0 545212.0 0
242000.0 545212.0 0
246000.0 545212.0 0
250000.0 545212.0 0
254000.0 545212.0 0
258000.0 545212.0 0
262000.0 545212.0 0
266000.0 545212.0 0
270000.0 545212.0 0
274000.0 545212.0 0
278000.0 545212.0 0
282000.0 545212.0 0
286000.0 545212.0 0
290000.0 545212.0 0
294000.0 545212.0 0
298000.0 545212.0 0
302000.0 545212.0 0
306000.0 545212.0 0
310000.0 545212.0 0
314000.0 545212.0 0
318000.0 545212.0 0
322000.0 545212.0 0
326000.0 545212.0 0
330000.0 545212.0 0
334000.0 545212.0 0
338000.0 545214.0 0
342000.0 545212.0 0
346000.0 545224.0 0
350000.0 545212.0 0
354000.0 545234.0 0
358000.0 545213.0 0
362000.0 545260.0 0
366000.0 545219.0 0
370000.0 545276.0 0
374000.0 545257.0 0
378000.0 545301.0 0
382000.0 545248.0 0
386000.0 545274.0 0
390000.0 545295.0 0
394000.0 545303.0 0
398000.0 545314.0 0
102000.0 549307.0 0
106000.0 549297.0 0
110000.0 549287.0 0
114000.0 549270.0 0
118000.0 549245.0 0
122000.0 549292.0 0
126000.0 549249.0 0
130000.0 549269.0 0
134000.0 549217.0 0
138000.0 549255.0 0
142000.0 549213.0 0
146000.0 549231.0 0
150000.0 549212.0 0
154000.0 549221.0 0
158000.0 549212.0 0
162000.0 549213.0 0
166000.0 549212.0 0
170000.0 549212.0 0
174000.0 549212.0 0
178000.0 549212.0 0
182000.0 549212.0 0
186000.0 549212.0 0
190000.0 549212.0 0
194000.0 549212.0 0
198000.0 549212.0 0
202000.0 549212.0 0
206000.0 549212.0 0
210000.0 549212.0 0
214000.0 549212.0 0
218000.0 549212.0 0
222000.0 549212.0 0
226000.0 549212.0 0
230000.0 549212.0 0
234000.0 549212.0 0
238000.0 549212.0 0
242000.0 549212.0 0
246000.0 549212.0 0
250000.0 549212.0 0
254000.0 549212.0 0
258000.0 549212.0 0
262000.0 549212.0 0
266000.0 549212.0 0
270000.0 549212.0 0
274000.0 549212.0 0
278000.0 549212.0 0
282000.0 549212.0 0
286000.0 549212.0 0
290000.0 549212.0 0
294000.0 549212.0 0
298000.0 549212.0 0
302000.0 549212.0 0
306000.0 549212.0 0
310000.0 549212.0 0
314000.0 549212.0 0
318000.0 549212.0 0
322000.0 549212.0 0
326000.0 549212.0 0
330000.0 549212.0 0
334000.0 549212.0 0
338000.0 549213.0 0
342000.0 549212.0 0
346000.0 549221.0 0
350000.0 549212.0 0
354000.0 549231.0 0
358000.0 549213.0 0
362000.0 549255.0 0
366000.0 549217.0 0
370000.0 549269.0 0
374000.0 549249.0 0
378000.0 549292.0 0
382000.0 549245.0 0
386000.0 549270.0 0
390000.0 549287.0 0
394000.0 549297.0 0
398000.0 549307.0 0
126000.0 553243.0 0
134000.0 553216.0 0
142000.0 553213.0 0
146000.0 553229.0 0
150000.0 553212.0 0
154000.0 553220.0 0
158000.0 553212.0 0
162000.0 553213.0 0
166000.0 553212.0 0
170000.0 553212.0 0
174000.0 553212.0 0
178000.0 553212.0 0
182000.0 553212.0 0
186000.0 553212.0 0
190000.0 553212.0 0
194000.0 553212.0 0
198000.0 553212.0 0
202000.0 553212.0 0
206000.0 553212.0 0
210000.0 553212.0 0
214000.0 553212.0 0
218000.0 553212.0 0
222000.0 553212.0 0
226000.0 553212.0 0
230000.0 553212.0 0
234000.0 553212.0 0
238000.0 553212.0 0
242000.0 553212.0 0
246000.0 553212.0 0
250000.0 553212.0 0
254000.0 553212.0 0
258000.0 553212.0 0
262000.0 553212.0 0
266000.0 553212.0 0
270000.0 553212.0 0
274000.0 553212.0 0
278000.0 553212.0 0
282000.0 553212.0 0
286000.0 553212.0 0
290000.0 553212.0 0
294000.0 553212.0 0
298000.0 553212.0 0
302000.0 553212.0 0
306000.0 553212.0 0
310000.0 553212.0 0
314000.0 553212.0 0
318000.0 553212.0 0
322000.0 553212.0 0
326000.0 553212.0 0
330000.0 553212.0 0
334000.0 553212.0 0
338000.0 553213.0 0
342000.0 553212.0 0
346000.0 553220.0 0
350000.0 553212.0 0
354000.0 553229.0 0
358000.0 553213.0 0
366000.0 553216.0 0
374000.0 553243.0 0
102000.0 553299.0 0
106000.0 553291.0 0
110000.0 553280.0 0
114000.0 553265.0 0
118000.0 553242.0 0
122000.0 553284.0 0
130000.0 553263.0 0
138000.0 553250.0 0
362000.0 553250.0 0
370000.0 553263.0 0
378000.0 553284.0 0
382000.0 553242.0 0
386000.0 553265.0 0
390000.0 553280.0 0
394000.0 553291.0 0
398000.0 553299.0 0
102000.0 557293.0 0
106000.0 557285.0 0
110000.0 557274.0 0
114000.0 557261.0 0
118000.0 557240.0 0
122000.0 557277.0 0
126000.0 557238.0 0
130000.0 557258.0 0
134000.0 557215.0 0
138000.0 557245.0 0
142000.0 557212.0 0
146000.0 557226.0 0
150000.0 557212.0 0
154000.0 557218.0 0
158000.0 557212.0 0
162000.0 557213.0 0
166000.0 557212.0 0
170000.0 557212.0 0
174000.0 557212.0 0
178000.0 557212.0 0
182000.0 557212.0 0
186000.0 557212.0 0
190000.0 557212.0 0
194000.0 557212.0 0
198000.0 557212.0 0
202000.0 557212.0 0
206000.0 557212.0 0
210000.0 557212.0 0
214000.0 557212.0 0
218000.0 557212.0 0
222000.0 557212.0 0
226000.0 557212.0 0
230000.0 557212.0 0
234000.0 557212.0 0
238000.0 557212.0 0
242000.0 557212.0 0
246000.0 557212.0 0
250000.0 557212.0 0
254000.0 557212.0 0
258000.0 557212.0 0
262000.0 557212.0 0
266000.0 557212.0 0
270000.0 557212.0 0
274000.0 557212.0 0
278000.0 557212.0 0
282000.0 557212.0 0
286000.0 557212.0 0
290000.0 557212.0 0
294000.0 557212.0 0
298000.0 557212.0 0
302000.0 557212.0 0
306000.0 557212.0 0
310000.0 557212.0 0
314000.0 557212.0 0
318000.0 557212.0 0
322000.0 557212.0 0
326000.0 557212.0 0
330000.0 557212.0 0
334000.0 557212.0 0
338000.0 557213.0 0
342000.0 557212.0 0
346000.0 557218.0 0
350000.0 557212.0 0
354000.0 557226.0 0
358000.0 557212.0 0
362000.0 557245.0 0
366000.0 557215.0 0
370000.0 557258.0 0
374000.0 557238.0 0
378000.0 557277.0 0
382000.0 557240.0 0
386000.0 557261.0 0
390000.0 557274.0 0
394000.0 557285.0 0
398000.0 557293.0 0
102000.0 561286.0 0
106000.0 561280.0 0
110000.0 561268.0 0
114000.0 561257.0 0
118000.0 561237.0 0
122000.0 561270.0 0
126000.0 561234.0 0
130000.0 561252.0 0
134000.0 561215.0 0
138000.0 561241.0 0
142000.0 561212.0 0
146000.0 561224.0 0
150000.0 561212.0 0
154000.0 561217.0 0
158000.0 561212.0 0
162000.0 561212.0 0
166000.0 561212.0 0
170000.0 561212.0 0
174000.0 561212.0 0
178000.0 561212.0 0
182000.0 561212.0 0
186000.0 561212.0 0
190000.0 561212.0 0
194000.0 561212.0 0
198000.0 561212.0 0
202000.0 561212.0 0
206000.0 561212.0 0
210000.0 561212.0 0
214000.0 561212.0 0
218000.0 561212.0 0
222000.0 561212.0 0
226000.0 561212.0 0
230000.0 561212.0 0
234000.0 561212.0 0
238000.0 561212.0 0
242000.0 561212.0 0
246000.0 561212.0 0
250000.0 561212.0 0
254000.0 561212.0 0
258000.0 561212.0 0
262000.0 561212.0 0
266000.0 561212.0 0
270000.0 561212.0 0
274000.0 561212.0 0
278000.0 561212.0 0
282000.0 561212.0 0
286000.0 561212.0 0
290000.0 561212.0 0
294000.0 561212.0 0
298000.0 561212.0 0
302000.0 561212.0 0
306000.0 561212.0 0
310000.0 561212.0 0
314000.0 561212.0 0
318000.0 561212.0 0
322000.0 561212.0 0
326000.0 561212.0 0
330000.0 561212.0 0
334000.0 561212.0 0
338000.0 561212.0 0
342000.0 561212.0 0
346000.0 561217.0 0
350000.0 561212.0 0
354000.0 561224.0 0
358000.0 561212.0 0
362000.0 561241.0 0
366000.0 561215.0 0
370000.0 561252.0 0
374000.0 561234.0 0
378000.0 561270.0 0
382000.0 561237.0 0
386000.0 561257.0 0
390000.0 561268.0 0
394000.0 561280.0 0
398000.0 561286.0 0
102000.0 565281.0 0
106000.0 565274.0 0
110000.0 565262.0 0
114000.0 565253.0 0
118000.0 565234.0 0
122000.0 565264.0 0
126000.0 565230.0 0
130000.0 565248.0 0
134000.0 565214.0 0
138000.0 565238.0 0
142000.0 565212.0 0
146000.0 565222.0 0
150000.0 565212.0 0
154000.0 565216.0 0
158000.0 565212.0 0
162000.0 565212.0 0
166000.0 565212.0 0
170000.0 565212.0 0
174000.0 565212.0 0
178000.0 565212.0 0
182000.0 565212.0 0
186000.0 565212.0 0
190000.0 565212.0 0
194000.0 565212.0 0
198000.0 565212.0 0
202000.0 565212.0 0
206000.0 565212.0 0
210000.0 565212.0 0
214000.0 565212.0 0
218000.0 565212.0 0
222000.0 565212.0 0
226000.0 565212.0 0
230000.0 565212.0 0
234000.0 565212.0 0
238000.0 565212.0 0
242000.0 565212.0 0
246000.0 565212.0 0
250000.0 565212.0 0
254000.0 565212.0 0
258000.0 565212.0 0
262000.0 565212.0 0
266000.0 565212.0 0
270000.0 565212.0 0
274000.0 565212.0 0
278000.0 565212.0 0
282000.0 565212.0 0
286000.0 565212.0 0
290000.0 565212.0 0
294000.0 565212.0 0
298000.0 565212.0 0
302000.0 565212.0 0
306000.0 565212.0 0
310000.0 565212.0 0
314000.0 565212.0 0
318000.0 565212.0 0
322000.0 565212.0 0
326000.0 565212.0 0
330000.0 565212.0 0
334000.0 565212.0 0
338000.0 565212.0 0
342000.0 565212.0 0
346000.0 565216.0 0
350000.0 565212.0 0
354000.0 565222.0 0
358000.0 565212.0 0
362000.0 565238.0 0
366000.0 565214.0 0
370000.0 565248.0 0
374000.0 565230.0 0
378000.0 565264.0 0
382000.0 565234.0 0
386000.0 565253.0 0
390000.0 565262.0 0
394000.0 565274.0 0
398000.0 565281.0 0
102000.0 569275.0 0
106000.0 569270.0 0
110000.0 569258.0 0
114000.0 569249.0 0
118000.0 569232.0 0
122000.0 569258.0 0
126000.0 569227.0 0
130000.0 569244.0 0
134000.0 569214.0 0
138000.0 569234.0 0
142000.0 569212.0 0
146000.0 569221.0 0
150000.0 569212.0 0
154000.0 569215.0 0
158000.0 569212.0 0
162000.0 569212.0 0
166000.0 569212.0 0
170000.0 569212.0 0
174000.0 569212.0 0
178000.0 569212.0 0
182000.0 569212.0 0
186000.0 569212.0 0
190000.0 569212.0 0
194000.0 569212.0 0
198000.0 569212.0 0
202000.0 569212.0 0
206000.0 569212.0 0
210000.0 569212.0 0
214000.0 569212.0 0
218000.0 569212.0 0
222000.0 569212.0 0
226000.0 569212.0 0
230000.0 569212.0 0
234000.0 569212.0 0
238000.0 569212.0 0
242000.0 569212.0 0
246000.0 569212.0 0
250000.0 569212.0 0
254000.0 569212.0 0
258000.0 569212.0 0
262000.0 569212.0 0
266000.0 569212.0 0
270000.0 569212.0 0
274000.0 569212.0 0
278000.0 569212.0 0
282000.0 569212.0 0
286000.0 569212.0 0
290000.0 569212.0 0
294000.0 569212.0 0
298000.0 569212.0 0
302000.0 569212.0 0
306000.0 569212.0 0
310000.0 569212.0 0
314000.0 569212.0 0
318000.0 569212.0 0
322000.0 569212.0 0
326000.0 569212.0 0
330000.0 569212.0 0
334000.0 569212.0 0
338000.0 569212.0 0
342000.0 569212.0 0
346000.0 569215.0 0
350000.0 569212.0 0
354000.0 569221.0 0
358000.0 569212.0 0
362000.0 569234.0 0
366000.0 569214.0 0
370000.0 569244.0 0
374000.0 569227.0 0
378000.0 569258.0 0
382000.0 569232.0 0
386000.0 569249.0 0
390000.0 569258.0 0
394000.0 569270.0 0
398000.0 569275.0 0
102000.0 573270.0 0
106000.0 573265.0 0
110000.0 573253.0 0
114000.0 573246.0 0
118000.0 573230.0 0
122000.0 573253.0 0
126000.0 573224.0 0
130000.0 573240.0 0
134000.0 573213.0 0
138000.0 573231.0 0
142000.0 573212.0 0
146000.0 573219.0 0
150000.0 573212.0 0
154000.0 573214.0 0
158000.0 573212.0 0
162000.0 573212.0 0
166000.0 573212.0 0
170000.0 573212.0 0
174000.0 573212.0 0
178000.0 573212.0 0
182000.0 573212.0 0
186000.0 573212.0 0
190000.0 573212.0 0
194000.0 573212.0 0
198000.0 573212.0 0
202000.0 573212.0 0
206000.0 573212.0 0
210000.0 573212.0 0
214000.0 573212.0 0
218000.0 573212.0 0
222000.0 573212.0 0
226000.0 573212.0 0
230000.0 573212.0 0
234000.0 573212.0 0
238000.0 573212.0 0
242000.0 573212.0 0
246000.0 573212.0 0
250000.0 573212.0 0
254000.0 573212.0 0
258000.0 573212.0 0
262000.0 573212.0 0
266000.0 573212.0 0
270000.0 573212.0 0
274000.0 573212.0 0
278000.0 573212.0 0
282000.0 573212.0 0
286000.0 573212.0 0
290000.0 573212.0 0
294000.0 573212.0 0
298000.0 573212.0 0
302000.0 573212.0 0
306000.0 573212.0 0
310000.0 573212.0 0
314000.0 573212.0 0
318000.0 573212.0 0
322000.0 573212.0 0
326000.0 573212.0 0
330000.0 573212.0 0
334000.0 573212.0 0
338000.0 573212.0 0
342000.0 573212.0 0
346000.0 573214.0 0
350000.0 573212.0 0
354000.0 573219.0 0
358000.0 573212.0 0
362000.0 573231.0 0
366000.0 573213.0 0
370000.0 573240.0 0
374000.0 573224.0 0
378000.0 573253.0 0
382000.0 573230.0 0
386000.0 573246.0 0
390000.0 573253.0 0
394000.0 573265.0 0
398000.0 573270.0 0
102000.0 577265.0 0
106000.0 577261.0 0
110000.0 577249.0 0
114000.0 577243.0 0
118000.0 577228.0 0
122000.0 577248.0 0
126000.0 577222.0 0
130000.0 577237.0 0
134000.0 577213.0 0
138000.0 577229.0 0
142000.0 577212.0 0
146000.0 577218.0 0
150000.0 577212.0 0
154000.0 577214.0 0
158000.0 577212.0 0
162000.0 577212.0 0
166000.0 577212.0 0
170000.0 577212.0 0
174000.0 577212.0 0
178000.0 577212.0 0
182000.0 577212.0 0
186000.0 577212.0 0
190000.0 577212.0 0
194000.0 577212.0 0
198000.0 577212.0 0
202000.0 577212.0 0
206000.0 577212.0 0
210000.0 577212.0 0
214000.0 577212.0 0
218000.0 577212.0 0
222000.0 577212.0 0
226000.0 577212.0 0
230000.0 577212.0 0
234000.0 577212.0 0
238000.0 577212.0 0
242000.0 577212.0 0
246000.0 577212.0 0
250000.0 577212.0 0
254000.0 577212.0 0
258000.0 577212.0 0
262000.0 577212.0 0
266000.0 577212.0 0
270000.0 577212.0 0
274000.0 577212.0 0
278000.0 577212.0 0
282000.0 577212.0 0
286000.0 577212.0 0
290000.0 577212.0 0
294000.0 577212.0 0
298000.0 577212.0 0
302000.0 577212.0 0
306000.0 577212.0 0
310000.0 577212.0 0
314000.0 577212.0 0
318000.0 577212.0 0
322000.0 577212.0 0
326000.0 577212.0 0
330000.0 577212.0 0
334000.0 577212.0 0
338000.0 577212.0 0
342000.0 577212.0 0
346000.0 577214.0 0
350000.0 577212.0 0
354000.0 577218.0 0
358000.0 577212.0 0
362000.0 577229.0 0
366000.0 577213.0 0
370000.0 577237.0 0
374000.0 577222.0 0
378000.0 577248.0 0
382000.0 577228.0 0
386000.0 577243.0 0
390000.0 577249.0 0
394000.0 577261.0 0
398000.0 577265.0 0
102000.0 581261.0 0
106000.0 581257.0 0
110000.0 581245.0 0
114000.0 581240.0 0
118000.0 581226.0 0
122000.0 581244.0 0
126000.0 581220.0 0
130000.0 581234.0 0
134000.0 581213.0 0
138000.0 581226.0 0
142000.0 581212.0 0
146000.0 581217.0 0
150000.0 581212.0 0
154000.0 581213.0 0
158000.0 581212.0 0
162000.0 581212.0 0
166000.0 581212.0 0
170000.0 581212.0 0
174000.0 581212.0 0
178000.0 581212.0 0
182000.0 581212.0 0
186000.0 581212.0 0
190000.0 581212.0 0
194000.0 581212.0 0
198000.0 581212.0 0
202000.0 581212.0 0
206000.0 581212.0 0
210000.0 581212.0 0
214000.0 581212.0 0
218000.0 581212.0 0
222000.0 581212.0 0
226000.0 581212.0 0
230000.0 581212.0 0
234000.0 581212.0 0
238000.0 581212.0 0
242000.0 581212.0 0
246000.0 581212.0 0
250000.0 581212.0 0
254000.0 581212.0 0
258000.0 581212.0 0
262000.0 581212.0 0
266000.0 581212.0 0
270000.0 581212.0 0
274000.0 581212.0 0
278000.0 581212.0 0
282000.0 581212.0 0
286000.0 581212.0 0
290000.0 581212.0 0
294000.0 581212.0 0
298000.0 581212.0 0
302000.0 581212.0 0
306000.0 581212.0 0
310000.0 581212.0 0
314000.0 581212.0 0
318000.0 581212.0 0
322000.0 581212.0 0
326000.0 581212.0 0
330000.0 581212.0 0
334000.0 581212.0 0
338000.0 581212.0 0
342000.0 581212.0 0
346000.0 581213.0 0
350000.0 581212.0 0
354000.0 581217.0 0
358000.0 581212.0 0
362000.0 581226.0 0
366000.0 581213.0 0
370000.0 581234.0 0
374000.0 581220.0 0
378000.0 581244.0 0
382000.0 581226.0 0
386000.0 581240.0 0
390000.0 581245.0 0
394000.0 581257.0 0
398000.0 581261.0 0
102000.0 585257.0 0
106000.0 585253.0 0
110000.0 585242.0 0
114000.0 585237.0 0
118000.0 585225.0 0
122000.0 585240.0 0
126000.0 585219.0 0
130000.0 585231.0 0
134000.0 585213.0 0
138000.0 585224.0 0
142000.0 585212.0 0
146000.0 585216.0 0
150000.0 585212.0 0
154000.0 585213.0 0
158000.0 585212.0 0
162000.0 585212.0 0
166000.0 585212.0 0
170000.0 585212.0 0
174000.0 585212.0 0
178000.0 585212.0 0
182000.0 585212.0 0
186000.0 585212.0 0
190000.0 585212.0 0
194000.0 585212.0 0
198000.0 585212.0 0
202000.0 585212.0 0
206000.0 585212.0 0
210000.0 585212.0 0
214000.0 585212.0 0
218000.0 585212.0 0
222000.0 585212.0 0
226000.0 585212.0 0
230000.0 585212.0 0
234000.0 585212.0 0
238000.0 585212.0 0
242000.0 585212.0 0
246000.0 585212.0 0
250000.0 585212.0 0
254000.0 585212.0 0
258000.0 585212.0 0
262000.0 585212.0 0
266000.0 585212.0 0
270000.0 585212.0 0
274000.0 585212.0 0
278000.0 585212.0 0
282000.0 585212.0 0
286000.0 585212.0 0
290000.0 585212.0 0
294000.0 585212.0 0
298000.0 585212.0 0
302000.0 585212.0 0
306000.0 585212.0 0
310000.0 585212.0 0
314000.0 585212.0 0
318000.0 585212.0 0
322000.0 585212.0 0
326000.0 585212.0 0
330000.0 585212.0 0
334000.0 585212.0 0
338000.0 585212.0 0
342000.0 585212.0 0
346000.0 585213.0 0
350000.0 585212.0 0
354000.0 585216.0 0
358000.0 585212.0 0
362000.0 585224.0 0
366000.0 585213.0 0
370000.0 585231.0 0
374000.0 585219.0 0
378000.0 585240.0 0
382000.0 585225.0 0
386000.0 585237.0 0
390000.0 585242.0 0
394000.0 585253.0 0
398000.0 585257.0 0
102000.0 589253.0 0
106000.0 589249.0 0
110000.0 589239.0 0
114000.0 589235.0 0
118000.0 589223.0 0
122000.0 589236.0 0
126000.0 589217.0 0
130000.0 589229.0 0
134000.0 589213.0 0
138000.0 589223.0 0
142000.0 589212.0 0
146000.0 589215.0 0
150000.0 589212.0 0
154000.0 589213.0 0
158000.0 589212.0 0
162000.0 589212.0 0
166000.0 589212.0 0
170000.0 589212.0 0
174000.0 589212.0 0
178000.0 589212.0 0
182000.0 589212.0 0
186000.0 589212.0 0
190000.0 589212.0 0
194000.0 589212.0 0
198000.0 589212.0 0
202000.0 589212.0 0
206000.0 589212.0 0
210000.0 589212.0 0
214000.0 589212.0 0
218000.0 589212.0 0
222000.0 589212.0 0
226000.0 589212.0 0
230000.0 589212.0 0
234000.0 589212.0 0
238000.0 589212.0 0
242000.0 589212.0 0
246000.0 589212.0 0
250000.0 589212.0 0
254000.0 589212.0 0
258000.0 589212.0 0
262000.0 589212.0 0
266000.0 589212.0 0
270000.0 589212.0 0
274000.0 589212.0 0
278000.0 589212.0 0
282000.0 589212.0 0
286000.0 589212.0 0
290000.0 589212.0 0
294000.0 589212.0 0
298000.0 589212.0 0
302000.0 589212.0 0
306000.0 589212.0 0
310000.0 589212.0 0
314000.0 589212.0 0
318000.0 589212.0 0
322000.0 589212.0 0
326000.0 589212.0 0
330000.0 589212.0 0
334000.0 589212.0 0
338000.0 589212.0 0
342000.0 589212.0 0
346000.0 589213.0 0
350000.0 589212.0 0
354000.0 589215.0 0
358000.0 589212.0 0
362000.0 589223.0 0
366000.0 589213.0 0
370000.0 589229.0 0
374000.0 589217.0 0
378000.0 589236.0 0
382000.0 589223.0 0
386000.0 589235.0 0
390000.0 589239.0 0
394000.0 589249.0 0
398000.0 589253.0 0
102000.0 593250.0 0
106000.0 593246.0 0
110000.0 593236.0 0
114000.0 593232.0 0
118000.0 593222.0 0
122000.0 593233.0 0
126000.0 593216.0 0
130000.0 593226.0 0
134000.0 593212.0 0
138000.0 593221.0 0
142000.0 593212.0 0
146000.0 593215.0 0
150000.0 593212.0 0
154000.0 593212.0 0
158000.0 593212.0 0
162000.0 593212.0 0
166000.0 593212.0 0
170000.0 593212.0 0
174000.0 593212.0 0
178000.0 593212.0 0
182000.0 593212.0 0
186000.0 593212.0 0
190000.0 593212.0 0
194000.0 593212.0 0
198000.0 593212.0 0
202000.0 593212.0 0
206000.0 593212.0 0
210000.0 593212.0 0
214000.0 593212.0 0
218000.0 593212.0 0
222000.0 593212.0 0
226000.0 593212.0 0
230000.0 593212.0 0
234000.0 593212.0 0
238000.0 593212.0 0
242000.0 593212.0 0
246000.0 593212.0 0
250000.0 593212.0 0
254000.0 593212.0 0
258000.0 593212.0 0
262000.0 593212.0 0
266000.0 593212.0 0
270000.0 593212.0 0
274000.0 593212.0 0
278000.0 593212.0 0
282000.0 593212.0 0
286000.0 593212.0 0
290000.0 593212.0 0
294000.0 593212.0 0
298000.0 593212.0 0
302000.0 593212.0 0
306000.0 593212.0 0
310000.0 593212.0 0
314000.0 593212.0 0
318000.0 593212.0 0
322000.0 593212.0 0
326000.0 593212.0 0
330000.0 593212.0 0
334000.0 593212.0 0
338000.0 593212.0 0
342000.0 593212.0 0
346000.0 593212.0 0
350000.0 593212.0 0
354000.0 593215.0 0
358000.0 593212.0 0
362000.0 593221.0 0
366000.0 593212.0 0
370000.0 593226.0 0
374000.0 593216.0 0
378000.0 593233.0 0
382000.0 593222.0 0
386000.0 593232.0 0
390000.0 593236.0 0
394000.0 593246.0 0
398000.0 593250.0 0
102000.0 597246.0 0
106000.0 597243.0 0
110000.0 597234.0 0
114000.0 597230.0 0
118000.0 597221.0 0
122000.0 597230.0 0
126000.0 597216.0 0
130000.0 597224.0 0
134000.0 597212.0 0
138000.0 597220.0 0
142000.0 597212.0 0
146000.0 597214.0 0
150000.0 597212.0 0
154000.0 597212.0 0
158000.0 597212.0 0
162000.0 597212.0 0
166000.0 597212.0 0
170000.0 597212.0 0
174000.0 597212.0 0
178000.0 597212.0 0
182000.0 597212.0 0
186000.0 597212.0 0
190000.0 597212.0 0
194000.0 597212.0 0
198000.0 597212.0 0
202000.0 597212.0 0
206000.0 597212.0 0
210000.0 597212.0 0
214000.0 597212.0 0
218000.0 597212.0 0
222000.0 597212.0 0
226000.0 597212.0 0
230000.0 597212.0 0
234000.0 597212.0 0
238000.0 597212.0 0
242000.0 597212.0 0
246000.0 597212.0 0
250000.0 597212.0 0
254000.0 597212.0 0
258000.0 597212.0 0
262000.0 597212.0 0
266000.0 597212.0 0
270000.0 597212.0 0
274000.0 597212.0 0
278000.0 597212.0 0
282000.0 597212.0 0
286000.0 597212.0 0
290000.0 597212.0 0
294000.0 597212.0 0
298000.0 597212.0 0
302000.0 597212.0 0
306000.0 597212.0 0
310000.0 597212.0 0
314000.0 597212.0 0
318000.0 597212.0 0
322000.0 597212.0 0
326000.0 597212.0 0
330000.0 597212.0 0
334000.0 597212.0 0
338000.0 597212.0 0
342000.0 597212.0 0
346000.0 597212.0 0
350000.0 597212.0 0
354000.0 597214.0 0
358000.0 597212.0 0
362000.0 597220.0 0
366000.0 597212.0 0
370000.0 597224.0 0
374000.0 597216.0 0
378000.0 597230.0 0
382000.0 597221.0 0
386000.0 597230.0 0
390000.0 597234.0 0
394000.0 597243.0 0
398000.0 597246.0 0
102000.0 601243.0 0
106000.0 601240.0 0
110000.0 601232.0 0
114000.0 601228.0 0
118000.0 601220.0 0
122000.0 601228.0 0
126000.0 601215.0 0
130000.0 601223.0 0
134000.0 601212.0 0
138000.0 601218.0 0
142000.0 601212.0 0
146000.0 601214.0 0
150000.0 601212.0 0
154000.0 601212.0 0
158000.0 601212.0 0
162000.0 601212.0 0
166000.0 601212.0 0
170000.0 601212.0 0
174000.0 601212.0 0
178000.0 601212.0 0
182000.0 601212.0 0
186000.0 601212.0 0
190000.0 601212.0 0
194000.0 601212.0 0
198000.0 601212.0 0
202000.0 601212.0 0
206000.0 601212.0 0
210000.0 601212.0 0
214000.0 601212.0 0
218000.0 601212.0 0
222000.0 601212.0 0
226000.0 601212.0 0
230000.0 601212.0 0
234000.0 601212.0 0
238000.0 601212.0 0
242000.0 601212.0 0
246000.0 601212.0 0
250000.0 601212.0 0
254000.0 601212.0 0
258000.0 601212.0 0
262000.0 601212.0 0
266000.0 601212.0 0
270000.0 601212.0 0
274000.0 601212.0 0
278000.0 601212.0 0
282000.0 601212.0 0
286000.0 601212.0 0
290000.0 601212.0 0
294000.0 601212.0 0
298000.0 601212.0 0
302000.0 601212.0 0
306000.0 601212.0 0
310000.0 601212.0 0
314000.0 601212.0 0
318000.0 601212.0 0
322000.0 601212.0 0
326000.0 601212.0 0
330000.0 601212.0 0
334000.0 601212.0 0
338000.0 601212.0 0
342000.0 601212.0 0
346000.0 601212.0 0
350000.0 601212.0 0
354000.0 601214.0 0
358000.0 601212.0 0
362000.0 601218.0 0
366000.0 601212.0 0
370000.0 601223.0 0
374000.0 601215.0 0
378000.0 601228.0 0
382000.0 601220.0 0
386000.0 601228.0 0
390000.0 601232.0 0
394000.0 601240.0 0
398000.0 601243.0 0
102000.0 605241.0 0
106000.0 605238.0 0
110000.0 605230.0 0
114000.0 605227.0 0
118000.0 605219.0 0
122000.0 605226.0 0
126000.0 605214.0 0
130000.0 605221.0 0
134000.0 605212.0 0
138000.0 605217.0 0
142000.0 605212.0 0
146000.0 605213.0 0
150000.0 605212.0 0
154000.0 605212.0 0
158000.0 605212.0 0
162000.0 605212.0 0
166000.0 605212.0 0
170000.0 605212.0 0
174000.0 605212.0 0
178000.0 605212.0 0
182000.0 605212.0 0
186000.0 605212.0 0
190000.0 605212.0 0
194000.0 605212.0 0
198000.0 605212.0 0
202000.0 605212.0 0
206000.0 605212.0 0
210000.0 605212.0 0
214000.0 605212.0 0
218000.0 605212.0 0
222000.0 605212.0 0
226000.0 605212.0 0
230000.0 605212.0 0
234000.0 605212.0 0
238000.0 605212.0 0
242000.0 605212.0 0
246000.0 605212.0 0
250000.0 605212.0 0
254000.0 605212.0 0
258000.0 605212.0 0
262000.0 605212.0 0
266000.0 605212.0 0
270000.0 605212.0 0
274000.0 605212.0 0
278000.0 605212.0 0
282000.0 605212.0 0
286000.0 605212.0 0
290000.0 605212.0 0
294000.0 605212.0 0
298000.0 605212.0 0
302000.0 605212.0 0
306000.0 605212.0 0
310000.0 605212.0 0
314000.0 605212.0 0
318000.0 605212.0 0
322000.0 605212.0 0
326000.0 605212.0 0
330000.0 605212.0 0
334000.0 605212.0 0
338000.0 605212.0 0
342000.0 605212.0 0
346000.0 605212.0 0
350000.0 605212.0 0
354000.0 605213.0 0
358000.0 605212.0 0
362000.0 605217.0 0
366000.0 605212.0 0
370000.0 605221.0 0
374000.0 605214.0 0
378000.0 605226.0 0
382000.0 605219.0 0
386000.0 605227.0 0
390000.0 605230.0 0
394000.0 605238.0 0
398000.0 605241.0 0
102000.0 609238.0 0
106000.0 609236.0 0
110000.0 609228.0 0
114000.0 609225.0 0
118000.0 609218.0 0
122000.0 609224.0 0
126000.0 609214.0 0
130000.0 609220.0 0
134000.0 609212.0 0
138000.0 609216.0 0
142000.0 609212.0 0
146000.0 609213.0 0
150000.0 609212.0 0
154000.0 609212.0 0
158000.0 609212.0 0
162000.0 609212.0 0
166000.0 609212.0 0
170000.0 609212.0 0
174000.0 609212.0 0
178000.0 609212.0 0
182000.0 609212.0 0
186000.0 609212.0 0
190000.0 609212.0 0
194000.0 609212.0 0
198000.0 609212.0 0
202000.0 609212.0 0
206000.0 609212.0 0
210000.0 609212.0 0
214000.0 609212.0 0
218000.0 609212.0 0
222000.0 609212.0 0
226000.0 609212.0 0
230000.0 609212.0 0
234000.0 609212.0 0
238000.0 609212.0 0
242000.0 609212.0 0
246000.0 609212.0 0
250000.0 609212.0 0
254000.0 609212.0 0
258000.0 609212.0 0
262000.0 609212.0 0
266000.0 609212.0 0
270000.0 609212.0 0
274000.0 609212.0 0
278000.0 609212.0 0
282000.0 609212.0 0
286000.0 609212.0 0
290000.0 609212.0 0
294000.0 609212.0 0
298000.0 609212.0 0
302000.0 609212.0 0
306000.0 609212.0 0
310000.0 609212.0 0
314000.0 609212.0 0
318000.0 609212.0 0
322000.0 609212.0 0
326000.0 609212.0 0
330000.0 609212.0 0
334000.0 609212.0 0
338000.0 609212.0 0
342000.0 609212.0 0
346000.0 609212.0 0
350000.0 609212.0 0
354000.0 609213.0 0
358000.0 609212.0 0
362000.0 609216.0 0
366000.0 609212.0 0
370000.0 609220.0 0
374000.0 609214.0 0
378000.0 609224.0 0
382000.0 609218.0 0
386000.0 609225.0 0
390000.0 609228.0 0
394000.0 609236.0 0
398000.0 609238.0 0
102000.0 613236.0 0
106000.0 613234.0 0
110000.0 613226.0 0
114000.0 613224.0 0
118000.0 613217.0 0
122000.0 613222.0 0
126000.0 613213.0 0
130000.0 613219.0 0
134000.0 613212.0 0
138000.0 613216.0 0
142000.0 613212.0 0
146000.0 613213.0 0
150000.0 613212.0 0
154000.0 613212.0 0
158000.0 613212.0 0
162000.0 613212.0 0
166000.0 613212.0 0
170000.0 613212.0 0
174000.0 613212.0 0
178000.0 613212.0 0
182000.0 613212.0 0
186000.0 613212.0 0
190000.0 613212.0 0
194000.0 613212.0 0
198000.0 613212.0 0
202000.0 613212.0 0
206000.0 613212.0 0
210000.0 613212.0 0
214000.0 613212.0 0
218000.0 613212.0 0
222000.0 613212.0 0
226000.0 613212.0 0
230000.0 613212.0 0
234000.0 613212.0 0
238000.0 613212.0 0
242000.0 613212.0 0
246000.0 613212.0 0
250000.0 613212.0 0
254000.0 613212.0 0
258000.0 613212.0 0
262000.0 613212.0 0
266000.0 613212.0 0
270000.0 613212.0 0
274000.0 613212.0 0
278000.0 613212.0 0
282000.0 613212.0 0
286000.0 613212.0 0
290000.0 613212.0 0
294000.0 613212.0 0
298000.0 613212.0 0
302000.0 613212.0 0
306000.0 613212.0 0
310000.0 613212.0 0
314000.0 613212.0 0
318000.0 613212.0 0
322000.0 613212.0 0
326000.0 613212.0 0
330000.0 613212.0 0
334000.0 613212.0 0
338000.0 613212.0 0
342000.0 613212.0 0
346000.0 613212.0 0
350000.0 613212.0 0
354000.0 613213.0 0
358000.0 613212.0 0
362000.0 613216.0 0
366000.0 613212.0 0
370000.0 613219.0 0
374000.0 613213.0 0
378000.0 613222.0 0
382000.0 613217.0 0
386000.0 613224.0 0
390000.0 613226.0 0
394000.0 613234.0 0
398000.0 613236.0 0
102000.0 617234.0 0
106000.0 617232.0 0
110000.0 617225.0 0
114000.0 617223.0 0
118000.0 617216.0 0
122000.0 617221.0 0
126000.0 617213.0 0
130000.0 617218.0 0
134000.0 617212.0 0
138000.0 617215.0 0
142000.0 617212.0 0
146000.0 617213.0 0
150000.0 617212.0 0
154000.0 617212.0 0
158000.0 617212.0 0
162000.0 617212.0 0
166000.0 617212.0 0
170000.0 617212.0 0
174000.0 617212.0 0
178000.0 617212.0 0
182000.0 617212.0 0
186000.0 617212.0 0
190000.0 617212.0 0
194000.0 617212.0 0
198000.0 617212.0 0
202000.0 617212.0 0
206000.0 617212.0 0
210000.0 617212.0 0
214000.0 617212.0 0
218000.0 617212.0 0
222000.0 617212.0 0
226000.0 617212.0 0
230000.0 617212.0 0
234000.0 617212.0 0
238000.0 617212.0 0
242000.0 617212.0 0
246000.0 617212.0 0
250000.0 617212.0 0
254000.0 617212.0 0
258000.0 617212.0 0
262000.0 617212.0 0
266000.0 617212.0 0
270000.0 617212.0 0
274000.0 617212.0 0
278000.0 617212.0 0
282000.0 617212.0 0
286000.0 617212.0 0
290000.0 617212.0 0
294000.0 617212.0 0
298000.0 617212.0 0
302000.0 617212.0 0
306000.0 617212.0 0
310000.0 617212.0 0
314000.0 617212.0 0
318000.0 617212.0 0
322000.0 617212.0 0
326000.0 617212.0 0
330000.0 617212.0 0
334000.0 617212.0 0
338000.0 617212.0 0
342000.0 617212.0 0
346000.0 617212.0 0
350000.0 617212.0 0
354000.0 617213.0 0
358000.0 617212.0 0
362000.0 617215.0 0
366000.0 617212.0 0
370000.0 617218.0 0
374000.0 617213.0 0
378000.0 617221.0 0
382000.0 617216.0 0
386000.0 617223.0 0
390000.0 617225.0 0
394000.0 617232.0 0
398000.0 617234.0 0
102000.0 621233.0 0
106000.0 621230.0 0
110000.0 621224.0 0
114000.0 621221.0 0
118000.0 621216.0 0
122000.0 621220.0 0
126000.0 621213.0 0
130000.0 621217.0 0
134000.0 621212.0 0
138000.0 621214.0 0
142000.0 621212.0 0
146000.0 621212.0 0
150000.0 621212.0 0
154000.0 621212.0 0
158000.0 621212.0 0
162000.0 621212.0 0
166000.0 621212.0 0
170000.0 621212.0 0
174000.0 621212.0 0
178000.0 621212.0 0
182000.0 621212.0 0
186000.0 621212.0 0
190000.0 621212.0 0
194000.0 621212.0 0
198000.0 621212.0 0
202000.0 621212.0 0
206000.0 621212.0 0
210000.0 621212.0 0
214000.0 621212.0 0
218000.0 621212.0 0
222000.0 621212.0 0
226000.0 621212.0 0
230000.0 621212.0 0
234000.0 621212.0 0
238000.0 621212.0 0
242000.0 621212.0 0
246000.0 621212.0 0
250000.0 621212.0 0
254000.0 621212.0 0
258000.0 621212.0 0
262000.0 621212.0 0
266000.0 621212.0 0
270000.0 621212.0 0
274000.0 621212.0 0
278000.0 621212.0 0
282000.0 621212.0 0
286000.0 621212.0 0
290000.0 621212.0 0
294000.0 621212.0 0
298000.0 621212.0 0
302000.0 621212.0 0
306000.0 621212.0 0
310000.0 621212.0 0
314000.0 621212.0 0
318000.0 621212.0 0
322000.0 621212.0 0
326000.0 621212.0 0
330000.0 621212.0 0
334000.0 621212.0 0
338000.0 621212.0 0
342000.0 621212.0 0
346000.0 621212.0 0
350000.0 621212.0 0
354000.0 621212.0 0
358000.0 621212.0 0
362000.0 621214.0 0
366000.0 621212.0 0
370000.0 621217.0 0
374000.0 621213.0 0
378000.0 621220.0 0
382000.0 621216.0 0
386000.0 621221.0 0
390000.0 621224.0 0
394000.0 621230.0 0
398000.0 621233.0 0
102000.0 625231.0 0
106000.0 625229.0 0
110000.0 625222.0 0
114000.0 625221.0 0
118000.0 625215.0 0
122000.0 625219.0 0
126000.0 625213.0 0
130000.0 625216.0 0
134000.0 625212.0 0
138000.0 625214.0 0
142000.0 625212.0 0
146000.0 625212.0 0
150000.0 625212.0 0
154000.0 625212.0 0
158000.0 625212.0 0
162000.0 625212.0 0
166000.0 625212.0 0
170000.0 625212.0 0
174000.0 625212.0 0
178000.0 625212.0 0
182000.0 625212.0 0
186000.0 625212.0 0
190000.0 625212.0 0
194000.0 625212.0 0
198000.0 625212.0 0
202000.0 625212.0 0
206000.0 625212.0 0
210000.0 625212.0 0
214000.0 625212.0 0
218000.0 625212.0 0
222000.0 625212.0 0
226000.0 625212.0 0
230000.0 625212.0 0
234000.0 625212.0 0
238000.0 625212.0 0
242000.0 625212.0 0
246000.0 625212.0 0
250000.0 625212.0 0
254000.0 625212.0 0
258000.0 625212.0 0
262000.0 625212.0 0
266000.0 625212.0 0
270000.0 625212.0 0
274000.0 625212.0 0
278000.0 625212.0 0
282000.0 625212.0 0
286000.0 625212.0 0
290000.0 625212.0 0
294000.0 625212.0 0
298000.0 625212.0 0
302000.0 625212.0 0
306000.0 625212.0 0
310000.0 625212.0 0
314000.0 625212.0 0
318000.0 625212.0 0
322000.0 625212.0 0
326000.0 625212.0 0
330000.0 625212.0 0
334000.0 625212.0 0
338000.0 625212.0 0
342000.0 625212.0 0
346000.0 625212.0 0
350000.0 625212.0 0
354000.0 625212.0 0
358000.0 625212.0 0
362000.0 625214.0 0
366000.0 625212.0 0
370000.0 625216.0 0
374000.0 625213.0 0
378000.0 625219.0 0
382000.0 625215.0 0
386000.0 625221.0 0
390000.0 625222.0 0
394000.0 625229.0 0
398000.0 625231.0 0
102000.0 629230.0 0
106000.0 629228.0 0
110000.0 629222.0 0
114000.0 629220.0 0
118000.0 629215.0 0
122000.0 629218.0 0
126000.0 629212.0 0
130000.0 629216.0 0
134000.0 629212.0 0
138000.0 629214.0 0
142000.0 629212.0 0
146000.0 629212.0 0
150000.0 629212.0 0
154000.0 629212.0 0
158000.0 629212.0 0
162000.0 629212.0 0
166000.0 629212.0 0
170000.0 629212.0 0
174000.0 629212.0 0
178000.0 629212.0 0
182000.0 629212.0 0
186000.0 629212.0 0
190000.0 629212.0 0
194000.0 629212.0 0
198000.0 629212.0 0
202000.0 629212.0 0
206000.0 629212.0 0
210000.0 629212.0 0
214000.0 629212.0 0
218000.0 629212.0 0
222000.0 629212.0 0
226000.0 629212.0 0
230000.0 629212.0 0
234000.0 629212.0 0
238000.0 629212.0 0
242000.0 629212.0 0
246000.0 629212.0 0
250000.0 629212.0 0
254000.0 629212.0 0
258000.0 629212.0 0
262000.0 629212.0 0
266000.0 629212.0 0
270000.0 629212.0 0
274000.0 629212.0 0
278000.0 629212.0 0
282000.0 629212.0 0
286000.0 629212.0 0
290000.0 629212.0 0
294000.0 629212.0 0
298000.0 629212.0 0
302000.0 629212.0 0
306000.0 629212.0 0
310000.0 629212.0 0
314000.0 629212.0 0
318000.0 629212.0 0
322000.0 629212.0 0
326000.0 629212.0 0
330000.0 629212.0 0
334000.0 629212.0 0
338000.0 629212.0 0
342000.0 629212.0 0
346000.0 629212.0 0
350000.0 629212.0 0
354000.0 629212.0 0
358000.0 629212.0 0
362000.0 629214.0 0
366000.0 629212.0 0
370000.0 629216.0 0
374000.0 629212.0 0
378000.0 629218.0 0
382000.0 629215.0 0
386000.0 629220.0 0
390000.0 629222.0 0
394000.0 629228.0 0
398000.0 629230.0 0
102000.0 633229.0 0
106000.0 633227.0 0
110000.0 633221.0 0
114000.0 633219.0 0
118000.0 633215.0 0
122000.0 633217.0 0
126000.0 633212.0 0
130000.0 633215.0 0
134000.0 633212.0 0
138000.0 633213.0 0
142000.0 633212.0 0
146000.0 633212.0 0
150000.0 633212.0 0
154000.0 633212.0 0
158000.0 633212.0 0
162000.0 633212.0 0
166000.0 633212.0 0
170000.0 633212.0 0
174000.0 633212.0 0
178000.0 633212.0 0
182000.0 633212.0 0
186000.0 633212.0 0
190000.0 633212.0 0
194000.0 633212.0 0
198000.0 633212.0 0
202000.0 633212.0 0
206000.0 633212.0 0
210000.0 633212.0 0
214000.0 633212.0 0
218000.0 633212.0 0
222000.0 633212.0 0
226000.0 633212.0 0
230000.0 633212.0 0
234000.0 633212.0 0
238000.0 633212.0 0
242000.0 633212.0 0
246000.0 633212.0 0
250000.0 633212.0 0
254000.0 633212.0 0
258000.0 633212.0 0
262000.0 633212.0 0
266000.0 633212.0 0
270000.0 633212.0 0
274000.0 633212.0 0
278000.0 633212.0 0
282000.0 633212.0 0
286000.0 633212.0 0
290000.0 633212.0 0
294000.0 633212.0 0
298000.0 633212.0 0
302000.0 633212.0 0
306000.0 633212.0 0
310000.0 633212.0 0
314000.0 633212.0 0
318000.0 633212.0 0
322000.0 633212.0 0
326000.0 633212.0 0
330000.0 633212.0 0
334000.0 633212.0 0
338000.0 633212.0 0
342000.0 633212.0 0
346000.0 633212.0 0
350000.0 633212.0 0
354000.0 633212.0 0
358000.0 633212.0 0
362000.0 633213.0 0
366000.0 633212.0 0
370000.0 633215.0 0
374000.0 633212.0 0
378000.0 633217.0 0
382000.0 633215.0 0
386000.0 633219.0 0
390000.0 633221.0 0
394000.0 633227.0 0
398000.0 633229.0 0
102000.0 637228.0 0
106000.0 637226.0 0
110000.0 637220.0 0
114000.0 637219.0 0
118000.0 637214.0 0
122000.0 637216.0 0
126000.0 637212.0 0
130000.0 637215.0 0
134000.0 637212.0 0
138000.0 637213.0 0
142000.0 637212.0 0
146000.0 637212.0 0
150000.0 637212.0 0
154000.0 637212.0 0
158000.0 637212.0 0
162000.0 637212.0 0
166000.0 637212.0 0
170000.0 637212.0 0
174000.0 637212.0 0
178000.0 637212.0 0
182000.0 637212.0 0
186000.0 637212.0 0
190000.0 637212.0 0
194000.0 637212.0 0
198000.0 637212.0 0
202000.0 637212.0 0
206000.0 637212.0 0
210000.0 637212.0 0
214000.0 637212.0 0
218000.0 637212.0 0
222000.0 637212.0 0
226000.0 637212.0 0
230000.0 637212.0 0
234000.0 637212.0 0
238000.0 637212.0 0
242000.0 637212.0 0
246000.0 637212.0 0
250000.0 637212.0 0
254000.0 637212.0 0
258000.0 637212.0 0
262000.0 637212.0 0
266000.0 637212.0 0
270000.0 637212.0 0
274000.0 637212.0 0
278000.0 637212.0 0
282000.0 637212.0 0
286000.0 637212.0 0
290000.0 637212.0 0
294000.0 637212.0 0
298000.0 637212.0 0
302000.0 637212.0 0
306000.0 637212.0 0
310000.0 637212.0 0
314000.0 637212.0 0
318000.0 637212.0 0
322000.0 637212.0 0
326000.0 637212.0 0
330000.0 637212.0 0
334000.0 637212.0 0
338000.0 637212.0 0
342000.0 637212.0 0
346000.0 637212.0 0
350000.0 637212.0 0
354000.0 637212.0 0
358000.0 637212.0 0
362000.0 637213.0 0
366000.0 637212.0 0
370000.0 637215.0 0
374000.0 637212.0 0
378000.0 637216.0 0
382000.0 637214.0 0
386000.0 637219.0 0
390000.0 637220.0 0
394000.0 637226.0 0
398000.0 637228.0 0
102000.0 641227.0 0
106000.0 641225.0 0
110000.0 641220.0 0
114000.0 641218.0 0
118000.0 641214.0 0
122000.0 641216.0 0
126000.0 641212.0 0
130000.0 641214.0 0
134000.0 641212.0 0
138000.0 641213.0 0
142000.0 641212.0 0
146000.0 641212.0 0
150000.0 641212.0 0
154000.0 641212.0 0
158000.0 641212.0 0
162000.0 641212.0 0
166000.0 641212.0 0
170000.0 641212.0 0
174000.0 641212.0 0
178000.0 641212.0 0
182000.0 641212.0 0
186000.0 641212.0 0
190000.0 641212.0 0
194000.0 641212.0 0
198000.0 641212.0 0
202000.0 641212.0 0
206000.0 641212.0 0
210000.0 641212.0 0
214000.0 641212.0 0
218000.0 641212.0 0
222000.0 641212.0 0
226000.0 641212.0 0
230000.0 641212.0 0
234000.0 641212.0 0
238000.0 641212.0 0
242000.0 641212.0 0
246000.0 641212.0 0
250000.0 641212.0 0
254000.0 641212.0 0
258000.0 641212.0 0
262000.0 641212.0 0
266000.0 641212.0 0
270000.0 641212.0 0
274000.0 641212.0 0
278000.0 641212.0 0
282000.0 641212.0 0
286000.0 641212.0 0
290000.0 641212.0 0
294000.0 641212.0 0
298000.0 641212.0 0
302000.0 641212.0 0
306000.0 641212.0 0
310000.0 641212.0 0
314000.0 641212.0 0
318000.0 641212.0 0
322000.0 641212.0 0
326000.0 641212.0 0
330000.0 641212.0 0
334000.0 641212.0 0
338000.0 641212.0 0
342000.0 641212.0 0
346000.0 641212.0 0
350000.0 641212.0 0
354000.0 641212.0 0
358000.0 641212.0 0
362000.0 641213.0 0
366000.0 641212.0 0
370000.0 641214.0 0
374000.0 641212.0 0
378000.0 641216.0 0
382000.0 641214.0 0
386000.0 641218.0 0
390000.0 641220.0 0
394000.0 641225.0 0
398000.0 641227.0 0
102000.0 645227.0 0
106000.0 645225.0 0
110000.0 645219.0 0
114000.0 645218.0 0
118000.0 645214.0 0
122000.0 645216.0 0
126000.0 645212.0 0
130000.0 645214.0 0
134000.0 645212.0 0
138000.0 645213.0 0
142000.0 645212.0 0
146000.0 645212.0 0
150000.0 645212.0 0
154000.0 645212.0 0
158000.0 645212.0 0
162000.0 645212.0 0
166000.0 645212.0 0
170000.0 645212.0 0
174000.0 645212.0 0
178000.0 645212.0 0
182000.0 645212.0 0
186000.0 645212.0 0
190000.0 645212.0 0
194000.0 645212.0 0
198000.0 645212.0 0
202000.0 645212.0 0
206000.0 645212.0 0
210000.0 645212.0 0
214000.0 645212.0 0
218000.0 645212.0 0
222000.0 645212.0 0
226000.0 645212.0 0
230000.0 645212.0 0
234000.0 645212.0 0
238000.0 645212.0 0
242000.0 645212.0 0
246000.0 645212.0 0
250000.0 645212.0 0
254000.0 645212.0 0
258000.0 645212.0 0
262000.0 645212.0 0
266000.0 645212.0 0
270000.0 645212.0 0
274000.0 645212.0 0
278000.0 645212.0 0
282000.0 645212.0 0
286000.0 645212.0 0
290000.0 645212.0 0
294000.0 645212.0 0
298000.0 645212.0 0
302000.0 645212.0 0
306000.0 645212.0 0
310000.0 645212.0 0
314000.0 645212.0 0
318000.0 645212.0 0
322000.0 645212.0 0
326000.0 645212.0 0
330000.0 645212.0 0
334000.0 645212.0 0
338000.0 645212.0 0
342000.0 645212.0 0
346000.0 645212.0 0
350000.0 645212.0 0
354000.0 645212.0 0
358000.0 645212.0 0
362000.0 645213.0 0
366000.0 645212.0 0
370000.0 645214.0 0
374000.0 645212.0 0
378000.0 645216.0 0
382000.0 645214.0 0
386000.0 645218.0 0
390000.0 645219.0 0
394000.0 645225.0 0
398000.0 645227.0 0
102000.0 649226.0 0
106000.0 649224.0 0
110000.0 649219.0 0
114000.0 649218.0 0
118000.0 649214.0 0
122000.0 649215.0 0
126000.0 649212.0 0
130000.0 649214.0 0
134000.0 649212.0 0
138000.0 649213.0 0
142000.0 649212.0 0
146000.0 649212.0 0
150000.0 649212.0 0
154000.0 649212.0 0
158000.0 649212.0 0
162000.0 649212.0 0
166000.0 649212.0 0
170000.0 649212.0 0
174000.0 649212.0 0
178000.0 649212.0 0
182000.0 649212.0 0
186000.0 649212.0 0
190000.0 649212.0 0
194000.0 649212.0 0
198000.0 649212.0 0
202000.0 649212.0 0
206000.0 649212.0 0
210000.0 649212.0 0
214000.0 649212.0 0
218000.0 649212.0 0
222000.0 649212.0 0
226000.0 649212.0 0
230000.0 649212.0 0
234000.0 649212.0 0
238000.0 649212.0 0
242000.0 649212.0 0
246000.0 649212.0 0
250000.0 649212.0 0
254000.0 649212.0 0
258000.0 649212.0 0
262000.0 649212.0 0
266000.0 649212.0 0
270000.0 649212.0 0
274000.0 649212.0 0
278000.0 649212.0 0
282000.0 649212.0 0
286000.0 649212.0 0
290000.0 649212.0 0
294000.0 649212.0 0
298000.0 649212.0 0
302000.0 649212.0 0
306000.0 649212.0 0
310000.0 649212.0 0
314000.0 649212.0 0
318000.0 649212.0 0
322000.0 649212.0 0
326000.0 649212.0 0
330000.0 649212.0 0
334000.0 649212.0 0
338000.0 649212.0 0
342000.0 649212.0 0
346000.0 649212.0 0
350000.0 649212.0 0
354000.0 649212.0 0
358000.0 649212.0 0
362000.0 649213.0 0
366000.0 649212.0 0
370000.0 649214.0 0
374000.0 649212.0 0
378000.0 649215.0 0
382000.0 649214.0 0
386000.0 649218.0 0
390000.0 649219.0 0
394000.0 649224.0 0
398000.0 649226.0 0
102000.0 653226.0 0
106000.0 653224.0 0
110000.0 653219.0 0
114000.0 653217.0 0
118000.0 653214.0 0
122000.0 653215.0 0
126000.0 653212.0 0
130000.0 653214.0 0
134000.0 653212.0 0
138000.0 653213.0 0
142000.0 653212.0 0
146000.0 653212.0 0
150000.0 653212.0 0
154000.0 653212.0 0
158000.0 653212.0 0
162000.0 653212.0 0
166000.0 653212.0 0
170000.0 653212.0 0
174000.0 653212.0 0
178000.0 653212.0 0
182000.0 653212.0 0
186000.0 653212.0 0
190000.0 653212.0 0
194000.0 653212.0 0
198000.0 653212.0 0
202000.0 653212.0 0
206000.0 653212.0 0
210000.0 653212.0 0
214000.0 653212.0 0
218000.0 653212.0 0
222000.0 653212.0 0
226000.0 653212.0 0
230000.0 653212.0 0
234000.0 653212.0 0
238000.0 653212.0 0
242000.0 653212.0 0
246000.0 653212.0 0
250000.0 653212.0 0
254000.0 653212.0 0
258000.0 653212.0 0
262000.0 653212.0 0
266000.0 653212.0 0
270000.0 653212.0 0
274000.0 653212.0 0
278000.0 653212.0 0
282000.0 653212.0 0
286000.0 653212.0 0
290000.0 653212.0 0
294000.0 653212.0 0
298000.0 653212.0 0
302000.0 653212.0 0
306000.0 653212.0 0
310000.0 653212.0 0
314000.0 653212.0 0
318000.0 653212.0 0
322000.0 653212.0 0
326000.0 653212.0 0
330000.0 653212.0 0
334000.0 653212.0 0
338000.0 653212.0 0
342000.0 653212.0 0
346000.0 653212.0 0
350000.0 653212.0 0
354000.0 653212.0 0
358000.0 653212.0 0
362000.0 653213.0 0
366000.0 653212.0 0
370000.0 653214.0 0
374000.0 653212.0 0
378000.0 653215.0 0
382000.0 653214.0 0
386000.0 653217.0 0
390000.0 653219.0 0
394000.0 653224.0 0
398000.0 653226.0 0
POINT_DATA 4650
SCALARS Radius float 1
LOOKUP_TABLE default
4000.0 4000.0 4000.0 4000.0 4000.0 4000.0 4000.0 4000.0 4000.0 4000.0 4000.0 4000.0 4000.0 4000.0 4000.0 4000.0 4000.0 4000.0 4000.0 4000.0 4000.0 4000.0 4000.0 4000.0 4000.0 4000.0 4000.0 4000.0 4000.0 4000.0 4000.0 4000.0 4000.0 4000.0 4000.0 4000.0 4000.0 4000.0 4000.0 4000.0 4000.0 4000.0 4000.0 4000.0 4000.0 4000.0 4000.0 4000.0 4000.0 4000.0 4000.0 4000.0 4000.0 4000.0 4000.0 4000.0 4000.0 4000.0 4000.0 4000.0 4000.0 4000.0 4000.0 4000.0 4000.0 4000.0 4000.0 4000.0 4000.0 4000.0 4000.0 4000.0 4000.0 4000.0 4000.0 4000.0 4000.0 4000.0 4000.0 4000.0 4000.0 4000.0 4000.0 4000.0 4000.0 4000.0 4000.0 4000.0 4000.0 4000.0 4000.0 4000.0 4000.0 4000.0 4000.0 4000.0 4000.0 4000.0 4000.0 4000.0 4000.0 4000.0 4000.0 4000.0 4000.0 4000.0 4000.0 4000.0 4000.0 4000.0 4000.0 4000.0 4000.0 4000.0 4000.0 4000.0 4000.0 4000.0 4000.0 4000.0 4000.0 4000.0 4000.0 4000.0 4000.0 4000.0 4000.0 4000.0 4000.0 4000.0 4000.0 4000.0 4000.0 4000.0 4000.0 4000.0 4000.0 4000.0 4000.0 4000.0 4000.0 4000.0 4000.0 4000.0 4000.0 4000.0 4000.0 4000.0 4000.0 4000.0 4000.0 4000.0 4000.0 4000.0 4000.0 4000.0 4000.0 4000.0 4000.0 4000.0 4000.0 4000.0 4000.0 4000.0 4000.0 4000.0 4000.0 4000.0 4000.0 4000.0 4000.0 4000.0 4000.0 4000.0 4000.0 4000.0 4000.0 4000.0 4000.0 4000.0 4000.0 4000.0 4000.0 4000.0 4000.0 4000.0 4000.0 4000.0 4000.0 4000.0 4000.0 4000.0 4000.0 4000.0 4000.0 4000.0 4000.0 4000.0 4000.0 4000.0 4000.0 4000.0 4000.0 4000.0 4000.0 4000.0 4000.0 4000.0 4000.0 4000.0 4000.0 4000.0 4000.0 4000.0 4000.0 4000.0 4000.0 4000.0 4000.0 4000.0 4000.0 4000.0 4000.0 4000.0 4000.0 4000.0 4000.0 4000.0 4000.0 4000.0 4000.0 4000.0 4000.0 4000.0 4000.0 4000.0 4000.0 4000.0 4000.0 4000.0 4000.0 4000.0 4000.0 4000.0 4000.0 4000.0 4000.0 4000.0 4000.0 4000.0 4000.0 4000.0 4000.0 4000.0 4000.0 4000.0 4000.0 4000.0 4000.0 4000.0 4000.0 4000.0 4000.0 4000.0 4000.0 4000.0 4000.0 4000.0 4000.0 4000.0 4000.0 4000.0 4000.0 4000.0 4000.0 4000.0 4000.0 4000.0 4000.0 4000.0 4000.0 4000.0 4000.0 4000.0 4000.0 4000.0 4000.0 4000.0 4000.0 4000.0 4000.0 4000.0 4000.0 4000.0 4000.0 4000.0 4000.0 4000.0 4000.0 4000.0 4000.0 4000.0 4000.0 4000.0 4000.0 4000.0 4000.0 4000.0 4000.0 4000.0 4000.0 4000.0 4000.0 4000.0 4000.0 4000.0 4000.0 4000.0 4000.0 4000.0 4000.0 4000.0 4000.0 4000.0 4000.0 4000.0 4000.0 4000.0 4000.0 4000.0 4000.0 4000.0 4000.0 4000.0 4000.0 4000.0 4000.0 4000.0 4000.0 4000.0 4000.0 4000.0 4000.0 4000.0 4000.0 4000.0 4000.0 4000.0 4000.0 4000.0 4000.0 4000.0 4000.0 4000.0 4000.0 4000.0 4000.0 4000.0 4000.0 4000.0 4000.0 4000.0 4000.0 4000.0 4000.0 4000.0 4000.0 4000.0 4000.0 4000.0 4000.0 4000.0 4000.0 4000.0 4000.0 4000.0 4000.0 4000.0 4000.0 4000.0 4000.0 4000.0 4000.0 4000.0 4000.0 4000.0 4000.0 4000.0 4000.0 4000.0 4000.0 4000.0 4000.0 4000.0 4000.0 4000.0 4000.0 4000.0 4000.0 4000.0 4000.0 4000.0 4000.0 4000.0 4000.0 4000.0 4000.0 4000.0 4000.0 4000.0 4000.0 4000.0 4000.0 4000.0 4000.0 4000.0 4000.0 4000.0 4000.0 4000.0 4000.0 4000.0 4000.0 4000.0 4000.0 4000.0 4000.0 4000.0 4000.0 4000.0 4000.0 4000.0 4000.0 4000.0 4000.0 4000.0 4000.0 4000.0 4000.0 4000.0 4000.0 4000.0 4000.0 4000.0 4000.0 4000.0 4000.0 4000.0 4000.0 4000.0 4000.0 4000.0 4000.0 4000.0 4000.0 4000.0 4000.0 4000.0 4000.0 4000.0 4000.0 4000.0 4000.0 4000.0 4000.0 4000.0 4000.0 4000.0 4000.0 4000.0 4000.0 4000.0 4000.0 4000.0 4000.0 4000.0 4000.0 4000.0 4000.0 4000.0 4000.0 4000.0 4000.0 4000.0 4000.0 4000.0 4000.0 4000.0 4000.0 4000.0 4000.0 4000.0 4000.0 4000.0 4000.0 4000.0 4000.0 4000.0 4000.0 4000.0 4000.0 4000.0 4000.0 4000.0 4000.0 4000.0 4000.0 4000.0 4000.0 4000.0 4000.0 4000.0 4000.0 4000.0 4000.0 4000.0 4000.0 4000.0 4000.0 4000.0 4000.0 4000.0 4000.0 4000.0 4000.0 4000.0 4000.0 4000.0 4000.0 4000.0 4000.0 4000.0 4000.0 4000.0 4000.0 4000.0 4000.0 4000.0 4000.0 4000.0 4000.0 4000.0 4000.0 4000.0 4000.0 4000.0 4000.0 4000.0 4000.0 4000.0 4000.0 4000.0 4000.0 4000.0 4000.0 4000.0 4000.0 4000.0 4000.0 4000.0 4000.0 4000.0 4000.0 4000.0 4000.0 4000.0 4000.0 4000.0 4000.0 4000.0 4000.0 4000.0 4000.0 4000.0 4000.0 4000.0 4000.0 4000.0 4000.0 4000.0 4000.0 4000.0 4000.0 4000.0 4000.0 4000.0 4000.0 4000.0 4000.0 4000.0 4000.0 4000.0 4000.0 4000.0 4000.0 4000.0 4000.0 4000.0 4000.0 4000.0 4000.0 4000.0 4000.0 4000.0 4000.0 4000.0 4000.0 4000.0 4000.0 4000.0 4000.0 4000.0 4000.0 4000.0 4000.0 4000.0 4000.0 4000.0 4000.0 4000.0 4000.0 4000.0 4000.0 4000.0 4000.0 4000.0 4000.0 4000.0 4000.0 4000.0 4000.0 4000.0 4000.0 4000.0 4000.0 4000.0 4000.0 4000.0 4000.0 4000.0 4000.0 4000.0 4000.0 4000.0 4000.0 4000.0 4000.0 4000.0 4000.0 4000.0 4000.0 4000.0 4000.0 4000.0 4000.0 4000.0 4000.0 4000.0 4000.0 4000.0 4000.0 4000.0 4000.0 4000.0 4000.0 4000.0 4000.0 4000.0 4000.0 4000.0 4000.0 4000.0 4000.0 4000.0 4000.0 4000.0 4000.0 4000.0 4000.0 4000.0 4000.0 4000.0 4000.0 4000.0 4000.0 4000.0 4000.0 4000.0 4000.0 4000.0 4000.0 4000.0 4000.0 4000.0 4000.0 4000.0 4000.0 4000.0 4000.0 4000.0 4000.0 4000.0 4000.0 4000.0 4000.0 4000.0 4000.0 4000.0 4000.0 4000.0 4000.0 4000.0 4000.0 4000.0 4000.0 4000.0 4000.0 4000.0 4000.0 4000.0 4000.0 4000.0 4000.0 4000.0 4000.0 4000.0 4000.0 4000.0 4000.0 4000.0 4000.0 4000.0 4000.0 4000.0 4000.0 4000.0 4000.0 4000.0 4000.0 4000.0 4000.0 4000.0 4000.0 4000.0 4000.0 4000.0 4000.0 4000.0 4000.0 4000.0 4000.0 4000.0 4000.0 4000.0 4000.0 4000.0 4000.0 4000.0 4000.0 4000.0 4000.0 4000.0 4000.0 4000.0 4000.0 4000.0 4000.0 4000.0 4000.0 4000.0 4000.0 4000.0 4000.0 4000.0 4000.0 4000.0 4000.0 4000.0 4000.0 4000.0 4000.0 4000.0 4000.0 4000.0 4000.0 4000.0 4000.0 4000.0 4000.0 4000.0 4000.0 4000.0 4000.0 4000.0 4000.0 4000.0 4000.0 4000.0 4000.0 4000.0 4000.0 4000.0 4000.0 4000.0 4000.0 4000.0 4000.0 4000.0 4000.0 4000.0 4000.0 4000.0 4000.0 4000.0 4000.0 4000.0 4000.0 4000.0 4000.0 4000.0 4000.0 4000.0 4000.0 4000.0 4000.0 4000.0 4000.0 4000.0 4000.0 4000.0 4000.0 4000.0 4000.0 4000.0 4000.0 4000.0 4000.0 4000.0 4000.0 4000.0 4000.0 4000.0 4000.0 4000.0 4000.0 4000.0 4000.0 4000.0 4000.0 4000.0 4000.0 4000.0 4000.0 4000.0 4000.0 4000.0 4000.0 4000.0 4000.0 4000.0 4000.0 4000.0 4000.0 4000.0 4000.0 4000.0 4000.0 4000.0 4000.0 4000.0 4000.0 4000.0 4000.0 4000.0 4000.0 4000.0 4000.0 4000.0 4000.0 4000.0 4000.0 4000.0 4000.0 4000.0 4000.0 4000.0 4000.0 4000.0 4000.0 4000.0 4000.0 4000.0 4000.0 4000.0 4000.0 4000.0 4000.0 4000.0 4000.0 4000.0 4000.0 4000.0 4000.0 4000.0 4000.0 4000.0 4000.0 4000.0 4000.0 4000.0 4000.0 4000.0 4000.0 4000.0 4000.0 4000.0 4000.0 4000.0 4000.0 4000.0 4000.0 4000.0 4000.0 4000.0 4000.0 4000.0 4000.0 4000.0 4000.0 4000.0 4000.0 4000.0 4000.0 4000.0 4000.0 4000.0 4000.0 4000.0 4000.0 4000.0 4000.0 4000.0 4000.0 4000.0 4000.0 4000.0 4000.0 4000.0 4000.0 4000.0 4000.0 4000.0 4000.0 4000.0 4000.0 4000.0 4000.0 4000.0 4000.0 4000.0 4000.0 4000.0 4000.0 4000.0 4000.0 4000.0 4000.0 4000.0 4000.0 4000.0 4000.0 4000.0 4000.0 4000.0 4000.0 4000.0 4000.0 4000.0 4000.0 4000.0 4000.0 4000.0 4000.0 4000.0 4000.0 4000.0 4000.0 4000.0 4000.0 4000.0 4000.0 4000.0 4000.0 4000.0 4000.0 4000.0 4000.0 4000.0 4000.0 4000.0 4000.0 4000.0 4000.0 4000.0 4000.0 4000.0 4000.0 4000.0 4000.0 4000.0 4000.0 4000.0 4000.0 4000.0 4000.0 4000.0 4000.0 4000.0 4000.0 4000.0 4000.0 4000.0 4000.0 4000.0 4000.0 4000.0 4000.0 4000.0 4000.0 4000.0 4000.0 4000.0 4000.0 4000.0 4000.0 4000.0 4000.0 4000.0 4000.0 4000.0 4000.0 4000.0 4000.0 4000.0 4000.0 4000.0 4000.0 4000.0 4000.0 4000.0 4000.0 4000.0 4000.0 4000.0 4000.0 4000.0 4000.0 4000.0 4000.0 4000.0 4000.0 4000.0 4000.0 4000.0 4000.0 4000.0 4000.0 4000.0 4000.0 4000.0 4000.0 4000.0 4000.0 4000.0 4000.0 4000.0 4000.0 4000.0 4000.0 4000.0 4000.0 4000.0 4000.0 4000.0 4000.0 4000.0 4000.0 4000.0 4000.0 4000.0 4000.0 4000.0 4000.0 4000.0 4000.0 4000.0 4000.0 4000.0 4000.0 4000.0 4000.0 4000.0 4000.0 4000.0 4000.0 4000.0 4000.0 4000.0 4000.0 4000.0 4000.0 4000.0 4000.0 4000.0 4000.0 4000.0 4000.0 4000.0 4000.0 4000.0 4000.0 4000.0 4000.0 4000.0 4000.0 4000.0 4000.0 4000.0 4000.0 4000.0 4000.0 4000.0 4000.0 4000.0 4000.0 4000.0 4000.0 4000.0 4000.0 4000.0 4000.0 4000.0 4000.0 4000.0 4000.0 4000.0 4000.0 4000.0 4000.0 4000.0 4000.0 4000.0 4000.0 4000.0 4000.0 4000.0 4000.0 4000.0 4000.0 4000.0 4000.0 4000.0 4000.0 4000.0 4000.0 4000.0 4000.0 4000.0 4000.0 4000.0 4000.0 4000.0 4000.0 4000.0 4000.0 4000.0 4000.0 4000.0 4000.0 4000.0 4000.0 4000.0 4000.0 4000.0 4000.0 4000.0 4000.0 4000.0 4000.0 4000.0 4000.0 4000.0 4000.0 4000.0 4000.0 4000.0 4000.0 4000.0 4000.0 4000.0 4000.0 4000.0 4000.0 4000.0 4000.0 4000.0 4000.0 4000.0 4000.0 4000.0 4000.0 4000.0 4000.0 4000.0 4000.0 4000.0 4000.0 4000.0 4000.0 4000.0 4000.0 4000.0 4000.0 4000.0 4000.0 4000.0 4000.0 4000.0 4000.0 4000.0 4000.0 4000.0 4000.0 4000.0 4000.0 4000.0 4000.0 4000.0 4000.0 4000.0 4000.0 4000.0 4000.0 4000.0 4000.0 4000.0 4000.0 4000.0 4000.0 4000.0 4000.0 4000.0 4000.0 4000.0 4000.0 4000.0 4000.0 4000.0 4000.0 4000.0 4000.0 4000.0 4000.0 4000.0 4000.0 4000.0 4000.0 4000.0 4000.0 4000.0 4000.0 4000.0 4000.0 4000.0 4000.0 4000.0 4000.0 4000.0 4000.0 4000.0 4000.0 4000.0 4000.0 4000.0 4000.0 4000.0 4000.0 4000.0 4000.0 4000.0 4000.0 4000.0 4000.0 4000.0 4000.0 4000.0 4000.0 4000.0 4000.0 4000.0 4000.0 4000.0 4000.0 4000.0 4000.0 4000.0 4000.0 4000.0 4000.0 4000.0 4000.0 4000.0 4000.0 4000.0 4000.0 4000.0 4000.0 4000.0 4000.0 4000.0 4000.0 4000.0 4000.0 4000.0 4000.0 4000.0 4000.0 4000.0 4000.0 4000.0 4000.0 4000.0 4000.0 4000.0 4000.0 4000.0 4000.0 4000.0 4000.0 4000.0 4000.0 4000.0 4000.0 4000.0 4000.0 4000.0 4000.0 4000.0 4000.0 4000.0 4000.0 4000.0 4000.0 4000.0 4000.0 4000.0 4000.0 4000.0 4000.0 4000.0 4000.0 4000.0 4000.0 4000.0 4000.0 4000.0 4000.0 4000.0 4000.0 4000.0 4000.0 4000.0 4000.0 4000.0 4000.0 4000.0 4000.0 4000.0 4000.0 4000.0 4000.0 4000.0 4000.0 4000.0 4000.0 4000.0 4000.0 4000.0 4000.0 4000.0 4000.0 4000.0 4000.0 4000.0 4000.0 4000.0 4000.0 4000.0 4000.0 4000.0 4000.0 4000.0 4000.0 4000.0 4000.0 4000.0 4000.0 4000.0 4000.0 4000.0 4000.0 4000.0 4000.0 4000.0 4000.0 4000.0 4000.0 4000.0 4000.0 4000.0 4000.0 4000.0 4000.0 4000.0 4000.0 4000.0 4000.0 4000.0 4000.0 4000.0 4000.0 4000.0 4000.0 4000.0 4000.0 4000.0 4000.0 4000.0 4000.0 4000.0 4000.0 4000.0 4000.0 4000.0 4000.0 4000.0 4000.0 4000.0 4000.0 4000.0 4000.0 4000.0 4000.0 4000.0 4000.0 4000.0 4000.0 4000.0 4000.0 4000.0 4000.0 4000.0 4000.0 4000.0 4000.0 4000.0 4000.0 4000.0 4000.0 4000.0 4000.0 4000.0 4000.0 4000.0 4000.0 4000.0 4000.0 4000.0 4000.0 4000.0 4000.0 4000.0 4000.0 4000.0 4000.0 4000.0 4000.0 4000.0 4000.0 4000.0 4000.0 4000.0 4000.0 4000.0 4000.0 4000.0 4000.0 4000.0 4000.0 4000.0 4000.0 4000.0 4000.0 4000.0 4000.0 4000.0 4000.0 4000.0 4000.0 4000.0 4000.0 4000.0 4000.0 4000.0 4000.0 4000.0 4000.0 4000.0 4000.0 4000.0 4000.0 4000.0 4000.0 4000.0 4000.0 4000.0 4000.0 4000.0 4000.0 4000.0 4000.0 4000.0 4000.0 4000.0 4000.0 4000.0 4000.0 4000.0 4000.0 4000.0 4000.0 4000.0 4000.0 4000.0 4000.0 4000.0 4000.0 4000.0 4000.0 4000.0 4000.0 4000.0 4000.0 4000.0 4000.0 4000.0 4000.0 4000.0 4000.0 4000.0 4000.0 4000.0 4000.0 4000.0 4000.0 4000.0 4000.0 4000.0 4000.0 4000.0 4000.0 4000.0 4000.0 4000.0 4000.0 4000.0 4000.0 4000.0 4000.0 4000.0 4000.0 4000.0 4000.0 4000.0 4000.0 4000.0 4000.0 4000.0 4000.0 4000.0 4000.0 4000.0 4000.0 4000.0 4000.0 4000.0 4000.0 4000.0 4000.0 4000.0 4000.0 4000.0 4000.0 4000.0 4000.0 4000.0 4000.0 4000.0 4000.0 4000.0 4000.0 4000.0 4000.0 4000.0 4000.0 4000.0 4000.0 4000.0 4000.0 4000.0 4000.0 4000.0 4000.0 4000.0 4000.0 4000.0 4000.0 4000.0 4000.0 4000.0 4000.0 4000.0 4000.0 4000.0 4000.0 4000.0 4000.0 4000.0 4000.0 4000.0 4000.0 4000.0 4000.0 4000.0 4000.0 4000.0 4000.0 4000.0 4000.0 4000.0 4000.0 4000.0 4000.0 4000.0 4000.0 4000.0 4000.0 4000.0 4000.0 4000.0 4000.0 4000.0 4000.0 4000.0 4000.0 4000.0 4000.0 4000.0 4000.0 4000.0 4000.0 4000.0 4000.0 4000.0 4000.0 4000.0 4000.0 4000.0 4000.0 4000.0 4000.0 4000.0 4000.0 4000.0 4000.0 4000.0 4000.0 4000.0 4000.0 4000.0 4000.0 4000.0 4000.0 4000.0 4000.0 4000.0 4000.0 4000.0 4000.0 4000.0 4000.0 4000.0 4000.0 4000.0 4000.0 4000.0 4000.0 4000.0 4000.0 4000.0 4000.0 4000.0 4000.0 4000.0 4000.0 4000.0 4000.0 4000.0 4000.0 4000.0 4000.0 4000.0 4000.0 4000.0 4000.0 4000.0 4000.0 4000.0 4000.0 4000.0 4000.0 4000.0 4000.0 4000.0 4000.0 4000.0 4000.0 4000.0 4000.0 4000.0 4000.0 4000.0 4000.0 4000.0 4000.0 4000.0 4000.0 4000.0 4000.0 4000.0 4000.0 4000.0 4000.0 4000.0 4000.0 4000.0 4000.0 4000.0 4000.0 4000.0 4000.0 4000.0 4000.0 4000.0 4000.0 4000.0 4000.0 4000.0 4000.0 4000.0 4000.0 4000.0 4000.0 4000.0 4000.0 4000.0 4000.0 4000.0 4000.0 4000.0 4000.0 4000.0 4000.0 4000.0 4000.0 4000.0 4000.0 4000.0 4000.0 4000.0 4000.0 4000.0 4000.0 4000.0 4000.0 4000.0 4000.0 4000.0 4000.0 4000.0 4000.0 4000.0 4000.0 4000.0 4000.0 4000.0 4000.0 4000.0 4000.0 4000.0 4000.0 4000.0 4000.0 4000.0 4000.0 4000.0 4000.0 4000.0 4000.0 4000.0 4000.0 4000.0 4000.0 4000.0 4000.0 4000.0 4000.0 4000.0 4000.0 4000.0 4000.0 4000.0 4000.0 4000.0 4000.0 4000.0 4000.0 4000.0 4000.0 4000.0 4000.0 4000.0 4000.0 4000.0 4000.0 4000.0 4000.0 4000.0 4000.0 4000.0 4000.0 4000.0 4000.0 4000.0 4000.0 4000.0 4000.0 4000.0 4000.0 4000.0 4000.0 4000.0 4000.0 4000.0 4000.0 4000.0 4000.0 4000.0 4000.0 4000.0 4000.0 4000.0 4000.0 4000.0 4000.0 4000.0 4000.0 4000.0 4000.0 4000.0 4000.0 4000.0 4000.0 4000.0 4000.0 4000.0 4000.0 4000.0 4000.0 4000.0 4000.0 4000.0 4000.0 4000.0 4000.0 4000.0 4000.0 4000.0 4000.0 4000.0 4000.0 4000.0 4000.0 4000.0 4000.0 4000.0 4000.0 4000.0 4000.0 4000.0 4000.0 4000.0 4000.0 4000.0 4000.0 4000.0 4000.0 4000.0 4000.0 4000.0 4000.0 4000.0 4000.0 4000.0 4000.0 4000.0 4000.0 4000.0 4000.0 4000.0 4000.0 4000.0 4000.0 4000.0 4000.0 4000.0 4000.0 4000.0 4000.0 4000.0 4000.0 4000.0 4000.0 4000.0 4000.0 4000.0 4000.0 4000.0 4000.0 4000.0 4000.0 4000.0 4000.0 4000.0 4000.0 4000.0 4000.0 4000.0 4000.0 4000.0 4000.0 4000.0 4000.0 4000.0 4000.0 4000.0 4000.0 4000.0 4000.0 4000.0 4000.0 4000.0 4000.0 4000.0 4000.0 4000.0 4000.0 4000.0 4000.0 4000.0 4000.0 4000.0 4000.0 4000.0 4000.0 4000.0 4000.0 4000.0 4000.0 4000.0 4000.0 4000.0 4000.0 4000.0 4000.0 4000.0 4000.0 4000.0 4000.0 4000.0 4000.0 4000.0 4000.0 4000.0 4000.0 4000.0 4000.0 4000.0 4000.0 4000.0 4000.0 4000.0 4000.0 4000.0 4000.0 4000.0 4000.0 4000.0 4000.0 4000.0 4000.0 4000.0 4000.0 4000.0 4000.0 4000.0 4000.0 4000.0 4000.0 4000.0 4000.0 4000.0 4000.0 4000.0 4000.0 4000.0 4000.0 4000.0 4000.0 4000.0 4000.0 4000.0 4000.0 4000.0 4000.0 4000.0 4000.0 4000.0 4000.0 4000.0 4000.0 4000.0 4000.0 4000.0 4000.0 4000.0 4000.0 4000.0 4000.0 4000.0 4000.0 4000.0 4000.0 4000.0 4000.0 4000.0 4000.0 4000.0 4000.0 4000.0 4000.0 4000.0 4000.0 4000.0 4000.0 4000.0 4000.0 4000.0 4000.0 4000.0 4000.0 4000.0 4000.0 4000.0 4000.0 4000.0 4000.0 4000.0 4000.0 4000.0 4000.0 4000.0 4000.0 4000.0 4000.0 4000.0 4000.0 4000.0 4000.0 4000.0 4000.0 4000.0 4000.0 4000.0 4000.0 4000.0 4000.0 4000.0 4000.0 4000.0 4000.0 4000.0 4000.0 4000.0 4000.0 4000.0 4000.0 4000.0 4000.0 4000.0 4000.0 4000.0 4000.0 4000.0 4000.0 4000.0 4000.0 4000.0 4000.0 4000.0 4000.0 4000.0 4000.0 4000.0 4000.0 4000.0 4000.0 4000.0 4000.0 4000.0 4000.0 4000.0 4000.0 4000.0 4000.0 4000.0 4000.0 4000.0 4000.0 4000.0 4000.0 4000.0 4000.0 4000.0 4000.0 4000.0 4000.0 4000.0 4000.0 4000.0 4000.0 4000.0 4000.0 4000.0 4000.0 4000.0 4000.0 4000.0 4000.0 4000.0 4000.0 4000.0 4000.0 4000.0 4000.0 4000.0 4000.0 4000.0 4000.0 4000.0 4000.0 4000.0 4000.0 4000.0 4000.0 4000.0 4000.0 4000.0 4000.0 4000.0 4000.0 4000.0 4000.0 4000.0 4000.0 4000.0 4000.0 4000.0 4000.0 4000.0 4000.0 4000.0 4000.0 4000.0 4000.0 4000.0 4000.0 4000.0 4000.0 4000.0 4000.0 4000.0 4000.0 4000.0 4000.0 4000.0 4000.0 4000.0 4000.0 4000.0 4000.0 4000.0 4000.0 4000.0 4000.0 4000.0 4000.0 4000.0 4000.0 4000.0 4000.0 4000.0 4000.0 4000.0 4000.0 4000.0 4000.0 4000.0 4000.0 4000.0 4000.0 4000.0 4000.0 4000.0 4000.0 4000.0 4000.0 4000.0 4000.0 4000.0 4000.0 4000.0 4000.0 4000.0 4000.0 4000.0 4000.0 4000.0 4000.0 4000.0 4000.0 4000.0 4000.0 4000.0 4000.0 4000.0 4000.0 4000.0 4000.0 4000.0 4000.0 4000.0 4000.0 4000.0 4000.0 4000.0 4000.0 4000.0 4000.0 4000.0 4000.0 4000.0 4000.0 4000.0 4000.0 4000.0 4000.0 4000.0 4000.0 4000.0 4000.0 4000.0 4000.0 4000.0 4000.0 4000.0 4000.0 4000.0 4000.0 4000.0 4000.0 4000.0 4000.0 4000.0 4000.0 4000.0 4000.0 4000.0 4000.0 4000.0 4000.0 4000.0 4000.0 4000.0 4000.0 4000.0 4000.0 4000.0 4000.0 4000.0 4000.0 4000.0 4000.0 4000.0 4000.0 4000.0 4000.0 4000.0 4000.0 4000.0 4000.0 4000.0 4000.0 4000.0 4000.0 4000.0 4000.0 4000.0 4000.0 4000.0 4000.0 4000.0 4000.0 4000.0 4000.0 4000.0 4000.0 4000.0 4000.0 4000.0 4000.0 4000.0 4000.0 4000.0 4000.0 4000.0 4000.0 4000.0 4000.0 4000.0 4000.0 4000.0 4000.0 4000.0 4000.0 4000.0 4000.0 4000.0 4000.0 4000.0 4000.0 4000.0 4000.0 4000.0 4000.0 4000.0 4000.0 4000.0 4000.0 4000.0 4000.0 4000.0 4000.0 4000.0 4000.0 4000.0 4000.0 4000.0 4000.0 4000.0 4000.0 4000.0 4000.0 4000.0 4000.0 4000.0 4000.0 4000.0 4000.0 4000.0 4000.0 4000.0 4000.0 4000.0 4000.0 4000.0 4000.0 4000.0 4000.0 4000.0 4000.0 4000.0 4000.0 4000.0 4000.0 4000.0 4000.0 4000.0 4000.0 4000.0 4000.0 4000.0 4000.0 4000.0 4000.0 4000.0 4000.0 4000.0 4000.0 4000.0 4000.0 4000.0 4000.0 4000.0 4000.0 4000.0 4000.0 4000.0 4000.0 4000.0 4000.0 4000.0 4000.0 4000.0 4000.0 4000.0 4000.0 4000.0 4000.0 4000.0 4000.0 4000.0 4000.0 4000.0 4000.0 4000.0 4000.0 4000.0 4000.0 4000.0 4000.0 4000.0 4000.0 4000.0 4000.0 4000.0 4000.0 4000.0 4000.0 4000.0 4000.0 4000.0 4000.0 4000.0 4000.0 4000.0 4000.0 4000.0 4000.0 4000.0 4000.0 4000.0 4000.0 4000.0 4000.0 4000.0 4000.0 4000.0 4000.0 4000.0 4000.0 4000.0 4000.0 4000.0 4000.0 4000.0 4000.0 4000.0 4000.0 4000.0 4000.0 4000.0 4000.0 4000.0 4000.0 4000.0 4000.0 4000.0 4000.0 4000.0 4000.0 4000.0 4000.0 4000.0 4000.0 4000.0 4000.0 4000.0 4000.0 4000.0 4000.0 4000.0 4000.0 4000.0 4000.0 4000.0 4000.0 4000.0 4000.0 4000.0 4000.0 4000.0 4000.0 4000.0 4000.0 4000.0 4000.0 4000.0 4000.0 4000.0 4000.0 4000.0 4000.0 4000.0 4000.0 4000.0 4000.0 4000.0 4000.0 4000.0 4000.0 4000.0 4000.0 4000.0 4000.0 4000.0 4000.0 4000.0 4000.0 4000.0 4000.0 4000.0 4000.0 4000.0 4000.0 4000.0 4000.0 4000.0 4000.0 4000.0 4000.0 4000.0 4000.0 4000.0 4000.0 4000.0 4000.0 4000.0 4000.0 4000.0 4000.0 4000.0 4000.0 4000.0 4000.0 4000.0 4000.0 4000.0 4000.0 4000.0 4000.0 4000.0 4000.0 4000.0 4000.0 4000.0 4000.0 4000.0 4000.0 4000.0 4000.0 4000.0 4000.0 4000.0 4000.0 4000.0 4000.0 4000.0 4000.0 4000.0 4000.0 4000.0 4000.0 4000.0 4000.0 4000.0 4000.0 4000.0 4000.0 4000.0 4000.0 4000.0 4000.0 4000.0 4000.0 4000.0 4000.0 4000.0 4000.0 4000.0 4000.0 4000.0 4000.0 4000.0 4000.0 4000.0 4000.0 4000.0 4000.0 4000.0 4000.0 4000.0 4000.0 4000.0 4000.0 4000.0 4000.0 4000.0 4000.0 4000.0 4000.0 4000.0 4000.0 4000.0 4000.0 4000.0 4000.0 4000.0 4000.0 4000.0 4000.0 4000.0 4000.0 4000.0 4000.0 4000.0 4000.0 4000.0 4000.0 4000.0 4000.0 4000.0 4000.0 4000.0 4000.0 4000.0 4000.0 4000.0 4000.0 4000.0 4000.0 4000.0 4000.0 4000.0 4000.0 4000.0 4000.0 4000.0 4000.0 4000.0 4000.0 4000.0 4000.0 4000.0 4000.0 4000.0 4000.0 4000.0 4000.0 4000.0 4000.0 4000.0 4000.0 4000.0 4000.0 4000.0 4000.0 4000.0 4000.0 4000.0 4000.0 4000.0 4000.0 4000.0 4000.0 4000.0 4000.0 4000.0 4000.0 4000.0 4000.0 4000.0 4000.0 4000.0 4000.0 4000.0 4000.0 4000.0 4000.0 4000.0 4000.0 4000.0 4000.0 4000.0 4000.0 4000.0 4000.0 4000.0 4000.0 4000.0 4000.0 4000.0 4000.0 4000.0 4000.0 4000.0 4000.0 4000.0 4000.0 4000.0 4000.0 4000.0 4000.0 4000.0 4000.0 4000.0 4000.0 4000.0 4000.0 4000.0 4000.0 4000.0 4000.0 4000.0 4000.0 4000.0 4000.0 4000.0 4000.0 4000.0 4000.0 4000.0 4000.0 4000.0 4000.0 4000.0 4000.0 4000.0 4000.0 4000.0 4000.0 4000.0 4000.0 4000.0 4000.0 4000.0 4000.0 4000.0 4000.0 4000.0 4000.0 4000.0 4000.0 4000.0 4000.0 4000.0 4000.0 4000.0 4000.0 4000.0 4000.0 4000.0 4000.0 4000.0 4000.0 4000.0 4000.0 4000.0 4000.0 4000.0 4000.0 4000.0 4000.0 4000.0 4000.0 4000.0 4000.0 4000.0 4000.0 4000.0 4000.0 4000.0 4000.0 4000.0 4000.0 4000.0 4000.0 4000.0 4000.0 4000.0 4000.0 4000.0 4000.0 4000.0 4000.0 4000.0 4000.0 4000.0 4000.0 4000.0 4000.0 4000.0 4000.0 4000.0 4000.0 4000.0 4000.0 4000.0 4000.0 4000.0 4000.0 4000.0 4000.0 4000.0 4000.0 4000.0 4000.0 4000.0 4000.0 4000.0 4000.0 4000.0 4000.0 4000.0 4000.0 4000.0 4000.0 4000.0 4000.0 4000.0 4000.0 4000.0 4000.0 4000.0 4000.0 4000.0 4000.0 4000.0 4000.0 4000.0 4000.0 4000.0 4000.0 4000.0 4000.0 4000.0 4000.0 4000.0 4000.0 4000.0 4000.0 4000.0 4000.0 4000.0 4000.0 4000.0 4000.0 4000.0 4000.0 4000.0 4000.0 4000.0 4000.0 4000.0 4000.0 4000.0 4000.0 4000.0 4000.0 4000.0 4000.0 4000.0 4000.0 4000.0 4000.0 4000.0 4000.0 4000.0 4000.0 4000.0 4000.0 4000.0 4000.0 4000.0 4000.0 4000.0 4000.0 4000.0 4000.0 4000.0 4000.0 4000.0 4000.0 4000.0 4000.0 4000.0 4000.0 4000.0 4000.0 4000.0 4000.0 4000.0 4000.0 4000.0 4000.0 4000.0 4000.0 4000.0 4000.0 4000.0 4000.0 4000.0 4000.0 4000.0 4000.0 4000.0 4000.0 4000.0 4000.0 4000.0 4000.0 4000.0 4000.0 4000.0 4000.0 4000.0 4000.0 4000.0 4000.0 4000.0 4000.0 4000.0 4000.0 4000.0 4000.0 4000.0 4000.0 4000.0 4000.0 4000.0 4000.0 4000.0 4000.0 4000.0 4000.0 4000.0 4000.0 4000.0 4000.0 4000.0 4000.0 4000.0 4000.0 4000.0 4000.0 4000.0 4000.0 4000.0 4000.0 4000.0 4000.0 4000.0 4000.0 4000.0 4000.0 4000.0 4000.0 4000.0 4000.0 4000.0 4000.0 4000.0 4000.0 4000.0 4000.0 4000.0 4000.0 4000.0 4000.0 4000.0 4000.0 4000.0 4000.0 4000.0 4000.0 4000.0 4000.0 4000.0 4000.0 4000.0 4000.0 4000.0 4000.0 4000.0 4000.0 4000.0 4000.0 4000.0 4000.0 4000.0 4000.0 4000.0 4000.0 4000.0 4000.0 4000.0 4000.0 4000.0 4000.0 4000.0 4000.0 4000.0 4000.0 4000.0 4000.0 4000.0 4000.0 4000.0 4000.0 4000.0 4000.0 4000.0 4000.0 4000.0 4000.0 4000.0 4000.0 4000.0 4000.0 4000.0 4000.0 4000.0 4000.0 4000.0 4000.0 4000.0 4000.0 4000.0 4000.0 4000.0 4000.0 4000.0 4000.0 4000.0 4000.0 4000.0 4000.0 4000.0 4000.0 4000.0 4000.0 4000.0 4000.0 4000.0 4000.0 4000.0 4000.0 4000.0 4000.0 4000.0 4000.0 4000.0 4000.0 4000.0 4000.0 4000.0 4000.0 4000.0 4000.0 4000.0 4000.0 4000.0 4000.0 4000.0 4000.0 4000.0 4000.0 4000.0 4000.0 4000.0 4000.0 4000.0 4000.0 4000.0 4000.0 4000.0 4000.0 4000.0 4000.0 4000.0 4000.0 4000.0 4000.0 4000.0 4000.0 4000.0 4000.0 4000.0 4000.0 4000.0 4000.0 4000.0 4000.0 4000.0 4000.0 4000.0 4000.0 4000.0 4000.0 4000.0 4000.0 4000.0 4000.0 4000.0 4000.0 4000.0 4000.0 4000.0 4000.0 4000.0 4000.0 4000.0 4000.0 4000.0 4000.0 4000.0 4000.0 4000.0 4000.0 4000.0 4000.0 4000.0 4000.0 4000.0 4000.0 4000.0 4000.0 4000.0 4000.0 4000.0 4000.0 4000.0 4000.0 4000.0 4000.0 4000.0 4000.0 4000.0 4000.0 4000.0 4000.0 4000.0 4000.0 4000.0 4000.0 4000.0 4000.0 4000.0 4000.0 4000.0 4000.0 4000.0 4000.0 4000.0 4000.0 4000.0 4000.0 4000.0 4000.0 4000.0 4000.0 4000.0 4000.0 4000.0 4000.0 4000.0 4000.0 4000.0 4000.0 4000.0 4000.0 4000.0 4000.0 4000.0 4000.0 4000.0 4000.0 4000.0 4000.0 4000.0 4000.0 4000.0 4000.0 4000.0 4000.0 4000.0 4000.0 4000.0 4000.0 4000.0 4000.0 4000.0 4000.0 4000.0 4000.0 4000.0 4000.0 4000.0 4000.0 4000.0 4000.0 4000.0 4000.0 4000.0 4000.0 4000.0 4000.0 4000.0 4000.0 4000.0 4000.0 4000.0 4000.0 4000.0 4000.0 4000.0 4000.0 4000.0 4000.0 4000.0 4000.0 4000.0 4000.0 4000.0 4000.0 4000.0 4000.0 4000.0 4000.0 4000.0 4000.0 4000.0 4000.0 4000.0 4000.0 4000.0 4000.0 4000.0 4000.0 4000.0 4000.0 4000.0 4000.0 4000.0 4000.0 4000.0 4000.0 4000.0 4000.0 4000.0 4000.0 4000.0 4000.0 4000.0 4000.0 4000.0 4000.0 4000.0 4000.0 4000.0 4000.0 4000.0 4000.0 4000.0 4000.0 4000.0 4000.0 4000.0 4000.0 4000.0 4000.0 4000.0 4000.0 4000.0 4000.0 4000.0 4000.0 4000.0 4000.0 4000.0 4000.0 4000.0 4000.0 4000.0 4000.0 4000.0 4000.0 4000.0 4000.0 4000.0 4000.0 4000.0 4000.0 4000.0 4000.0 4000.0 4000.0 4000.0 4000.0 4000.0 4000.0 4000.0 4000.0 4000.0 4000.0 4000.0 4000.0 4000.0 4000.0 4000.0 4000.0 4000.0 4000.0 4000.0 4000.0 4000.0 4000.0 4000.0 4000.0 4000.0 4000.0 4000.0 4000.0 4000.0 4000.0 4000.0 4000.0 4000.0 4000.0 4000.0 4000.0 4000.0 4000.0 4000.0 4000.0 4000.0 4000.0 4000.0 4000.0 4000.0 4000.0 4000.0 4000.0 4000.0 4000.0 4000.0 4000.0 4000.0 4000.0 4000.0 4000.0 4000.0 4000.0 4000.0 4000.0 4000.0 4000.0 4000.0 4000.0 4000.0 4000.0 4000.0 4000.0 4000.0 4000.0 4000.0 4000.0 4000.0 4000.0 4000.0 4000.0 4000.0 4000.0 4000.0 4000.0 4000.0 4000.0 4000.0 4000.0 4000.0 4000.0 4000.0 4000.0 4000.0 4000.0 4000.0 4000.0 4000.0 4000.0 4000.0 4000.0 4000.0 4000.0 4000.0 4000.0 4000.0 4000.0 4000.0 4000.0 4000.0 4000.0 4000.0 4000.0 4000.0 4000.0 4000.0 4000.0 4000.0 4000.0 4000.0 4000.0 4000.0 4000.0 4000.0 4000.0 4000.0 4000.0 4000.0 4000.0 4000.0 4000.0 4000.0 4000.0 4000.0 4000.0 4000.0 4000.0 4000.0 4000.0 4000.0 4000.0 4000.0 4000.0 4000.0 4000.0 4000.0 4000.0 4000.0 4000.0 4000.0 4000.0 4000.0 4000.0 4000.0 4000.0 4000.0 4000.0 4000.0 4000.0 4000.0 4000.0 4000.0 4000.0 4000.0 4000.0 4000.0 4000.0 4000.0 4000.0 4000.0 4000.0 4000.0 4000.0 4000.0 4000.0 4000.0 4000.0 4000.0 4000.0 4000.0 4000.0 4000.0 4000.0 4000.0 4000.0 4000.0 4000.0 4000.0 4000.0 4000.0 4000.0 4000.0 4000.0 4000.0 4000.0 4000.0 4000.0 4000.0 4000.0 4000.0 4000.0 4000.0 4000.0 4000.0 4000.0 4000.0 4000.0 4000.0 4000.0 4000.0 4000.0 4000.0 4000.0 4000.0 4000.0 4000.0 4000.0 4000.0 4000.0 4000.0 4000.0 4000.0 4000.0 4000.0 4000.0 4000.0 4000.0 4000.0 4000.0 4000.0 4000.0 4000.0 4000.0 4000.0 4000.0 4000.0 4000.0 4000.0 4000.0 4000.0 4000.0 4000.0 4000.0 4000.0 4000.0 4000.0 4000.0 4000.0 4000.0 4000.0 4000.0 4000.0 4000.0 4000.0 4000.0 4000.0 4000.0 4000.0 4000.0 4000.0 4000.0 4000.0 4000.0 4000.0 4000.0 4000.0 4000.0 4000.0 4000.0 4000.0 4000.0 4000.0 4000.0 4000.0 4000.0 4000.0 4000.0 4000.0 4000.0 4000.0 4000.0 4000.0 4000.0 4000.0 4000.0 4000.0 4000.0 4000.0 4000.0 4000.0 4000.0 4000.0 4000.0 4000.0 4000.0 4000.0 4000.0 4000.0 4000.0 4000.0 4000.0 4000.0 4000.0 4000.0 4000.0 4000.0 4000.0 4000.0 4000.0 4000.0 4000.0 4000.0 4000.0 4000.0 4000.0 4000.0 4000.0 4000.0 4000.0 4000.0 4000.0 4000.0 4000.0 4000.0 4000.0 4000.0 4000.0 4000.0 4000.0 4000.0 4000.0 4000.0 4000.0 4000.0 4000.0 4000.0 4000.0 4000.0 4000.0 4000.0 4000.0 4000.0 4000.0 4000.0 4000.0 4000.0 4000.0 4000.0 4000.0 4000.0 4000.0 4000.0 4000.0 4000.0 4000.0 4000.0 4000.0 4000.0 4000.0 4000.0 4000.0 4000.0 4000.0 4000.0 4000.0 4000.0 4000.0 4000.0 4000.0 4000.0 4000.0 4000.0 4000.0 4000.0 4000.0 4000.0 4000.0 4000.0 4000.0 4000.0 4000.0 4000.0 4000.0 4000.0 4000.0 4000.0 4000.0 4000.0 4000.0 4000.0 4000.0 4000.0 4000.0 4000.0 4000.0 4000.0 4000.0 4000.0 4000.0 4000.0 4000.0 4000.0 4000.0 4000.0 4000.0 4000.0 4000.0 4000.0 4000.0 4000.0 4000.0 4000.0 4000.0 4000.0 4000.0 4000.0 4000.0 4000.0 4000.0 4000.0 4000.0 4000.0 4000.0 4000.0 4000.0 4000.0 4000.0 4000.0 4000.0 4000.0 4000.0 4000.0 4000.0 4000.0 4000.0 4000.0 4000.0 4000.0 4000.0 4000.0 4000.0 4000.0 4000.0 4000.0 4000.0 4000.0 4000.0 4000.0 4000.0 4000.0 4000.0 4000.0 4000.0 4000.0 4000.0 4000.0 4000.0 4000.0 4000.0 4000.0 4000.0 4000.0 4000.0 4000.0 4000.0 4000.0 4000.0 4000.0 4000.0 4000.0 4000.0 4000.0 4000.0 4000.0 4000.0 4000.0 4000.0 4000.0 4000.0 4000.0 4000.0 4000.0 4000.0 4000.0 4000.0 4000.0 4000.0 4000.0 4000.0 4000.0 4000.0 4000.0 4000.0 4000.0 4000.0 4000.0 4000.0 4000.0 4000.0 4000.0 4000.0 4000.0 4000.0 4000.0 4000.0 4000.0 4000.0 4000.0 4000.0 4000.0 4000.0 4000.0 4000.0 4000.0 4000.0 4000.0 4000.0 4000.0 4000.0 4000.0 4000.0 4000.0 4000.0 4000.0 4000.0 4000.0 4000.0 4000.0 4000.0 4000.0 4000.0 4000.0 4000.0 4000.0 4000.0 4000.0 4000.0 4000.0 4000.0 4000.0 4000.0 4000.0 4000.0 4000.0 4000.0 4000.0 4000.0 4000.0 4000.0 4000.0 4000.0 4000.0 4000.0 4000.0 4000.0 4000.0 4000.0 4000.0 4000.0 4000.0 4000.0 4000.0 4000.0 4000.0 4000.0 4000.0 4000.0 4000.0 4000.0 4000.0 4000.0 4000.0 4000.0 4000.0 4000.0 4000.0 4000.0 4000.0 4000.0 4000.0 4000.0 4000.0 4000.0 4000.0 4000.0 4000.0 4000.0 4000.0 4000.0 4000.0 4000.0 4000.0 4000.0 4000.0 4000.0 4000.0 4000.0 4000.0 4000.0 4000.0 4000.0 4000.0 4000.0 4000.0 4000.0 4000.0 4000.0 4000.0 4000.0 4000.0 4000.0 4000.0 4000.0 4000.0 4000.0 4000.0 4000.0 4000.0 4000.0 4000.0 4000.0 4000.0 4000.0 4000.0 4000.0 4000.0 4000.0 4000.0 4000.0 4000.0 4000.0 4000.0 4000.0 4000.0 4000.0 4000.0 4000.0 4000.0 4000.0 4000.0 4000.0 4000.0 4000.0 4000.0 4000.0 4000.0 4000.0 4000.0 4000.0 4000.0 4000.0 4000.0 4000.0 4000.0 4000.0 4000.0 4000.0 4000.0 4000.0 4000.0 4000.0 4000.0 4000.0 4000.0 4000.0 4000.0 4000.0 4000.0 4000.0 4000.0 4000.0 4000.0 4000.0 4000.0 4000.0 4000.0 4000.0 4000.0 4000.0 4000.0 4000.0 4000.0 4000.0 4000.0 4000.0 4000.0 4000.0 4000.0 4000.0 4000.0 4000.0 4000.0 4000.0 4000.0 4000.0 4000.0 4000.0 4000.0 4000.0 4000.0 4000.0 4000.0 4000.0 4000.0 4000.0 4000.0 4000.0 4000.0 4000.0 4000.0 4000.0 4000.0 4000.0 4000.0 4000.0 4000.0 4000.0 4000.0 4000.0 4000.0 4000.0 4000.0 4000.0 4000.0 4000.0 4000.0 4000.0 4000.0 4000.0 4000.0 4000.0 4000.0 4000.0 4000.0 4000.0 4000.0 4000.0 4000.0 4000.0 4000.0 4000.0 4000.0 4000.0 4000.0 4000.0 4000.0 4000.0 4000.0 4000.0 4000.0 4000.0 4000.0 4000.0 4000.0 4000.0 4000.0 4000.0 4000.0 4000.0 4000.0 4000.0 4000.0 4000.0 4000.0 4000.0 4000.0 4000.0 4000.0 4000.0 4000.0 4000.0 4000.0 4000.0 4000.0 4000.0 4000.0 4000.0 4000.0 4000.0 4000.0 4000.0 4000.0 4000.0 4000.0 4000.0 4000.0 4000.0 4000.0 4000.0 4000.0 4000.0 4000.0 4000.0 4000.0 4000.0 4000.0 4000.0 4000.0 4000.0 4000.0 4000.0 4000.0 4000.0 4000.0 4000.0 4000.0 4000.0 4000.0 4000.0 4000.0 4000.0 4000.0 4000.0 4000.0 4000.0 4000.0 4000.0 4000.0 4000.0 4000.0 4000.0 4000.0 4000.0 4000.0 4000.0 4000.0 4000.0 4000.0 4000.0 4000.0 4000.0 4000.0 4000.0 4000.0 4000.0 4000.0 4000.0 4000.0 4000.0 4000.0 4000.0 4000.0 4000.0 4000.0 4000.0 4000.0 4000.0 4000.0 4000.0 4000.0 4000.0 4000.0 4000.0 4000.0 4000.0 4000.0 4000.0 4000.0 4000.0 4000.0 4000.0 4000.0 4000.0 4000.0 4000.0 4000.0 4000.0 4000.0 4000.0 4000.0 4000.0 4000.0 4000.0 4000.0 4000.0 4000.0 4000.0 4000.0 4000.0 4000.0 4000.0 4000.0 4000.0 4000.0 4000.0 4000.0 4000.0 4000.0 4000.0 4000.0 4000.0 4000.0 4000.0 4000.0 4000.0 4000.0 4000.0 4000.0 4000.0 4000.0 4000.0 4000.0 4000.0 4000.0 4000.0 4000.0 4000.0 4000.0 4000.0 4000.0 4000.0 4000.0 4000.0 4000.0 4000.0 4000.0 4000.0 4000.0 4000.0 4000.0 4000.0 4000.0 4000.0 4000.0 4000.0 4000.0 4000.0 4000.0 4000.0 4000.0 4000.0 4000.0 4000.0 4000.0 4000.0 4000.0 4000.0 4000.0 4000.0 4000.0 4000.0 4000.0 4000.0 4000.0 4000.0 4000.0 4000.0 4000.0 4000.0 4000.0 4000.0 4000.0 4000.0 4000.0 4000.0 4000.0 4000.0 4000.0 4000.0 4000.0 4000.0 4000.0 4000.0 4000.0 4000.0 4000.0 4000.0 4000.0 4000.0 4000.0 4000.0 4000.0 4000.0 4000.0 4000.0 4000.0 4000.0 4000.0 4000.0 4000.0 4000.0 4000.0 4000.0 4000.0 4000.0 4000.0 4000.0 4000.0 4000.0 4000.0 4000.0 4000.0 4000.0 4000.0 4000.0 4000.0 4000.0 4000.0 4000.0 4000.0 4000.0 4000.0 4000.0 4000.0 4000.0 4000.0 4000.0 4000.0 4000.0 4000.0 4000.0 4000.0 4000.0 4000.0 4000.0 4000.0 4000.0 4000.0 4000.0 4000.0 4000.0 4000.0 4000.0 4000.0 4000.0 4000.0 4000.0 4000.0 4000.0 4000.0 4000.0 4000.0 4000.0 4000.0 4000.0 4000.0 4000.0 4000.0 4000.0 4000.0 4000.0 4000.0 4000.0 4000.0 4000.0 4000.0 4000.0 4000.0 4000.0 4000.0 4000.0 4000.0 4000.0 4000.0 4000.0 4000.0 4000.0 4000.0 4000.0 4000.0 4000.0 4000.0 4000.0 4000.0 4000.0 4000.0 4000.0 4000.0 4000.0 4000.0 4000.0 4000.0 4000.0 4000.0 4000.0 4000.0 4000.0 4000.0 4000.0 4000.0 4000.0 4000.0 4000.0 4000.0 4000.0 4000.0 4000.0 4000.0 4000.0 4000.0 4000.0 4000.0 4000.0 4000.0 4000.0 4000.0 4000.0 4000.0 4000.0 4000.0 4000.0 4000.0 4000.0 4000.0 4000.0 4000.0 4000.0 4000.0 4000.0 4000.0 4000.0 4000.0 4000.0 4000.0 4000.0 4000.0 4000.0 4000.0 4000.0 4000.0 4000.0 4000.0 4000.0 4000.0 4000.0 4000.0 4000.0 4000.0 4000.0 4000.0 4000.0 4000.0 4000.0 4000.0 4000.0 4000.0 4000.0 4000.0 4000.0 4000.0 4000.0 4000.0 4000.0 4000.0 4000.0 4000.0 4000.0 4000.0 4000.0 4000.0 4000.0 4000.0 4000.0 4000.0 4000.0 4000.0 4000.0 4000.0 4000.0 4000.0 4000.0 4000.0 4000.0 4000.0 4000.0 4000.0 4000.0 4000.0 4000.0 4000.0 4000.0 4000.0 4000.0 4000.0 4000.0 4000.0 4000.0 4000.0 4000.0 4000.0 4000.0 4000.0 4000.0 4000.0 4000.0 4000.0 4000.0 4000.0 4000.0 4000.0 4000.0 4000.0 4000.0 4000.0 4000.0 4000.0 4000.0 4000.0 4000.0 4000.0 4000.0 4000.0 4000.0 4000.0 4000.0 4000.0 4000.0 4000.0 4000.0 4000.0 4000.0 4000.0 4000.0 4000.0 4000.0 4000.0 4000.0 4000.0 4000.0 4000.0 4000.0 4000.0 4000.0 4000.0 4000.0 4000.0 4000.0 4000.0 4000.0 4000.0 4000.0 4000.0 4000.0 4000.0 4000.0 4000.0 4000.0 4000.0 4000.0 4000.0 4000.0 4000.0 4000.0 4000.0 4000.0 4000.0 4000.0 4000.0 4000.0 4000.0 4000.0 4000.0 4000.0 4000.0 4000.0 4000.0 4000.0 4000.0 4000.0 4000.0 4000.0 4000.0 4000.0 4000.0 4000.0 4000.0 4000.0 4000.0 4000.0 4000.0 4000.0 4000.0 4000.0 4000.0 4000.0 4000.0 4000.0 4000.0 4000.0 4000.0 4000.0 4000.0 4000.0 4000.0 4000.0 4000.0 4000.0 4000.0 4000.0 4000.0 4000.0 4000.0 4000.0 4000.0 4000.0 4000.0 4000.0 4000.0 4000.0 4000.0 4000.0 4000.0 4000.0 4000.0 4000.0 4000.0 4000.0 4000.0 4000.0 4000.0 SCALARS Mass float 1
LOOKUP_TABLE default
11309700000.0 11309700000.0 11309700000.0 11309700000.0 11309700000.0 11309700000.0 11309700000.0 11309700000.0 11309700000.0 11309700000.0 11309700000.0 11309700000.0 11309700000.0 11309700000.0 11309700000.0 11309700000.0 11309700000.0 11309700000.0 11309700000.0 11309700000.0 11309700000.0 11309700000.0 11309700000.0 11309700000.0 11309700000.0 11309700000.0 11309700000.0 11309700000.0 11309700000.0 11309700000.0 11309700000.0 11309700000.0 11309700000.0 11309700000.0 11309700000.0 11309700000.0 11309700000.0 11309700000.0 11309700000.0 11309700000.0 11309700000.0 11309700000.0 11309700000.0 11309700000.0 11309700000.0 11309700000.0 11309700000.0 11309700000.0 11309700000.0 11309700000.0 11309700000.0 11309700000.0 11309700000.0 11309700000.0 11309700000.0 11309700000.0 11309700000.0 11309700000.0 11309700000.0 11309700000.0 11309700000.0 11309700000.0 11309700000.0 11309700000.0 11309700000.0 11309700000.0 11309700000.0 11309700000.0 11309700000.0 11309700000.0 11309700000.0 11309700000.0 11309700000.0 11309700000.0 11309700000.0 11309700000.0 11309700000.0 11309700000.0 11309700000.0 11309700000.0 11309700000.0 11309700000.0 11309700000.0 11309700000.0 11309700000.0 11309700000.0 11309700000.0 11309700000.0 11309700000.0 11309700000.0 11309700000.0 11309700000.0 11309700000.0 11309700000.0 11309700000.0 11309700000.0 11309700000.0 11309700000.0 11309700000.0 11309700000.0 11309700000.0 11309700000.0 11309700000.0 11309700000.0 11309700000.0 11309700000.0 11309700000.0 11309700000.0 11309700000.0 11309700000.0 11309700000.0 11309700000.0 11309700000.0 11309700000.0 11309700000.0 11309700000.0 11309700000.0 11309700000.0 11309700000.0 11309700000.0 11309700000.0 11309700000.0 11309700000.0 11309700000.0 11309700000.0 11309700000.0 11309700000.0 11309700000.0 11309700000.0 11309700000.0 11309700000.0 11309700000.0 11309700000.0 11309700000.0 11309700000.0 11309700000.0 11309700000.0 11309700000.0 11309700000.0 11309700000.0 11309700000.0 11309700000.0 11309700000.0 11309700000.0 11309700000.0 11309700000.0 11309700000.0 11309700000.0 11309700000.0 11309700000.0 11309700000.0 11309700000.0 11309700000.0 11309700000.0 11309700000.0 11309700000.0 11309700000.0 11309700000.0 11309700000.0 11309700000.0 11309700000.0 11309700000.0 11309700000.0 11309700000.0 11309700000.0 11309700000.0 11309700000.0 11309700000.0 11309700000.0 11309700000.0 11309700000.0 11309700000.0 11309700000.0 11309700000.0 11309700000.0 11309700000.0 11309700000.0 11309700000.0 11309700000.0 11309700000.0 11309700000.0 11309700000.0 11309700000.0 11309700000.0 11309700000.0 11309700000.0 11309700000.0 11309700000.0 11309700000.0 11309700000.0 11309700000.0 11309700000.0 11309700000.0 11309700000.0 11309700000.0 11309700000.0 11309700000.0 11309700000.0 11309700000.0 11309700000.0 11309700000.0 11309700000.0 11309700000.0 11309700000.0 11309700000.0 11309700000.0 11309700000.0 11309700000.0 11309700000.0 11309700000.0 11309700000.0 11309700000.0 11309700000.0 11309700000.0 11309700000.0 11309700000.0 11309700000.0 11309700000.0 11309700000.0 11309700000.0 11309700000.0 11309700000.0 11309700000.0 11309700000.0 11309700000.0 11309700000.0 11309700000.0 11309700000.0 11309700000.0 11309700000.0 11309700000.0 11309700000.0 11309700000.0 11309700000.0 11309700000.0 11309700000.0 11309700000.0 11309700000.0 11309700000.0 11309700000.0 11309700000.0 11309700000.0 11309700000.0 11309700000.0 11309700000.0 11309700000.0 11309700000.0 11309700000.0 11309700000.0 11309700000.0 11309700000.0 11309700000.0 11309700000.0 11309700000.0 11309700000.0 11309700000.0 11309700000.0 11309700000.0 11309700000.0 11309700000.0 11309700000.0 11309700000.0 11309700000.0 11309700000.0 11309700000.0 11309700000.0 11309700000.0 11309700000.0 11309700000.0 11309700000.0 11309700000.0 11309700000.0 11309700000.0 11309700000.0 11309700000.0 11309700000.0 11309700000.0 11309700000.0 11309700000.0 11309700000.0 11309700000.0 11309700000.0 11309700000.0 11309700000.0 11309700000.0 11309700000.0 11309700000.0 11309700000.0 11309700000.0 11309700000.0 11309700000.0 11309700000.0 11309700000.0 11309700000.0 11309700000.0 11309700000.0 11309700000.0 11309700000.0 11309700000.0 11309700000.0 11309700000.0 11309700000.0 11309700000.0 11309700000.0 11309700000.0 11309700000.0 11309700000.0 11309700000.0 11309700000.0 11309700000.0 11309700000.0 11309700000.0 11309700000.0 11309700000.0 11309700000.0 11309700000.0 11309700000.0 11309700000.0 11309700000.0 11309700000.0 11309700000.0 11309700000.0 11309700000.0 11309700000.0 11309700000.0 11309700000.0 11309700000.0 11309700000.0 11309700000.0 11309700000.0 11309700000.0 11309700000.0 11309700000.0 11309700000.0 11309700000.0 11309700000.0 11309700000.0 11309700000.0 11309700000.0 11309700000.0 11309700000.0 11309700000.0 11309700000.0 11309700000.0 11309700000.0 11309700000.0 11309700000.0 11309700000.0 11309700000.0 11309700000.0 11309700000.0 11309700000.0 11309700000.0 11309700000.0 11309700000.0 11309700000.0 11309700000.0 11309700000.0 11309700000.0 11309700000.0 11309700000.0 11309700000.0 11309700000.0 11309700000.0 11309700000.0 11309700000.0 11309700000.0 11309700000.0 11309700000.0 11309700000.0 11309700000.0 11309700000.0 11309700000.0 11309700000.0 11309700000.0 11309700000.0 11309700000.0 11309700000.0 11309700000.0 11309700000.0 11309700000.0 11309700000.0 11309700000.0 11309700000.0 11309700000.0 11309700000.0 11309700000.0 11309700000.0 11309700000.0 11309700000.0 11309700000.0 11309700000.0 11309700000.0 11309700000.0 11309700000.0 11309700000.0 11309700000.0 11309700000.0 11309700000.0 11309700000.0 11309700000.0 11309700000.0 11309700000.0 11309700000.0 11309700000.0 11309700000.0 11309700000.0 11309700000.0 11309700000.0 11309700000.0 11309700000.0 11309700000.0 11309700000.0 11309700000.0 11309700000.0 11309700000.0 11309700000.0 11309700000.0 11309700000.0 11309700000.0 11309700000.0 11309700000.0 11309700000.0 11309700000.0 11309700000.0 11309700000.0 11309700000.0 11309700000.0 11309700000.0 11309700000.0 11309700000.0 11309700000.0 11309700000.0 11309700000.0 11309700000.0 11309700000.0 11309700000.0 11309700000.0 11309700000.0 11309700000.0 11309700000.0 11309700000.0 11309700000.0 11309700000.0 11309700000.0 11309700000.0 11309700000.0 11309700000.0 11309700000.0 11309700000.0 11309700000.0 11309700000.0 11309700000.0 11309700000.0 11309700000.0 11309700000.0 11309700000.0 11309700000.0 11309700000.0 11309700000.0 11309700000.0 11309700000.0 11309700000.0 11309700000.0 11309700000.0 11309700000.0 11309700000.0 11309700000.0 11309700000.0 11309700000.0 11309700000.0 11309700000.0 11309700000.0 11309700000.0 11309700000.0 11309700000.0 11309700000.0 11309700000.0 11309700000.0 11309700000.0 11309700000.0 11309700000.0 11309700000.0 11309700000.0 11309700000.0 11309700000.0 11309700000.0 11309700000.0 11309700000.0 11309700000.0 11309700000.0 11309700000.0 11309700000.0 11309700000.0 11309700000.0 11309700000.0 11309700000.0 11309700000.0 11309700000.0 11309700000.0 11309700000.0 11309700000.0 11309700000.0 11309700000.0 11309700000.0 11309700000.0 11309700000.0 11309700000.0 11309700000.0 11309700000.0 11309700000.0 11309700000.0 11309700000.0 11309700000.0 11309700000.0 11309700000.0 11309700000.0 11309700000.0 11309700000.0 11309700000.0 11309700000.0 11309700000.0 11309700000.0 11309700000.0 11309700000.0 11309700000.0 11309700000.0 11309700000.0 11309700000.0 11309700000.0 11309700000.0 11309700000.0 11309700000.0 11309700000.0 11309700000.0 11309700000.0 11309700000.0 11309700000.0 11309700000.0 11309700000.0 11309700000.0 11309700000.0 11309700000.0 11309700000.0 11309700000.0 11309700000.0 11309700000.0 11309700000.0 11309700000.0 11309700000.0 11309700000.0 11309700000.0 11309700000.0 11309700000.0 11309700000.0 11309700000.0 11309700000.0 11309700000.0 11309700000.0 11309700000.0 11309700000.0 11309700000.0 11309700000.0 11309700000.0 11309700000.0 11309700000.0 11309700000.0 11309700000.0 11309700000.0 11309700000.0 11309700000.0 11309700000.0 11309700000.0 11309700000.0 11309700000.0 11309700000.0 11309700000.0 11309700000.0 11309700000.0 11309700000.0 11309700000.0 11309700000.0 11309700000.0 11309700000.0 11309700000.0 11309700000.0 11309700000.0 11309700000.0 11309700000.0 11309700000.0 11309700000.0 11309700000.0 11309700000.0 11309700000.0 11309700000.0 11309700000.0 11309700000.0 11309700000.0 11309700000.0 11309700000.0 11309700000.0 11309700000.0 11309700000.0 11309700000.0 11309700000.0 11309700000.0 11309700000.0 11309700000.0 11309700000.0 11309700000.0 11309700000.0 11309700000.0 11309700000.0 11309700000.0 11309700000.0 11309700000.0 11309700000.0 11309700000.0 11309700000.0 11309700000.0 11309700000.0 11309700000.0 11309700000.0 11309700000.0 11309700000.0 11309700000.0 11309700000.0 11309700000.0 11309700000.0 11309700000.0 11309700000.0 11309700000.0 11309700000.0 11309700000.0 11309700000.0 11309700000.0 11309700000.0 11309700000.0 11309700000.0 11309700000.0 11309700000.0 11309700000.0 11309700000.0 11309700000.0 11309700000.0 11309700000.0 11309700000.0 11309700000.0 11309700000.0 11309700000.0 11309700000.0 11309700000.0 11309700000.0 11309700000.0 11309700000.0 11309700000.0 11309700000.0 11309700000.0 11309700000.0 11309700000.0 11309700000.0 11309700000.0 11309700000.0 11309700000.0 11309700000.0 11309700000.0 11309700000.0 11309700000.0 11309700000.0 11309700000.0 11309700000.0 11309700000.0 11309700000.0 11309700000.0 11309700000.0 11309700000.0 11309700000.0 11309700000.0 11309700000.0 11309700000.0 11309700000.0 11309700000.0 11309700000.0 11309700000.0 11309700000.0 11309700000.0 11309700000.0 11309700000.0 11309700000.0 11309700000.0 11309700000.0 11309700000.0 11309700000.0 11309700000.0 11309700000.0 11309700000.0 11309700000.0 11309700000.0 11309700000.0 11309700000.0 11309700000.0 11309700000.0 11309700000.0 11309700000.0 11309700000.0 11309700000.0 11309700000.0 11309700000.0 11309700000.0 11309700000.0 11309700000.0 11309700000.0 11309700000.0 11309700000.0 11309700000.0 11309700000.0 11309700000.0 11309700000.0 11309700000.0 11309700000.0 11309700000.0 11309700000.0 11309700000.0 11309700000.0 11309700000.0 11309700000.0 11309700000.0 11309700000.0 11309700000.0 11309700000.0 11309700000.0 11309700000.0 11309700000.0 11309700000.0 11309700000.0 11309700000.0 11309700000.0 11309700000.0 11309700000.0 11309700000.0 11309700000.0 11309700000.0 11309700000.0 11309700000.0 11309700000.0 11309700000.0 11309700000.0 11309700000.0 11309700000.0 11309700000.0 11309700000.0 11309700000.0 11309700000.0 11309700000.0 11309700000.0 11309700000.0 11309700000.0 11309700000.0 11309700000.0 11309700000.0 11309700000.0 11309700000.0 11309700000.0 11309700000.0 11309700000.0 11309700000.0 11309700000.0 11309700000.0 11309700000.0 11309700000.0 11309700000.0 11309700000.0 11309700000.0 11309700000.0 11309700000.0 11309700000.0 11309700000.0 11309700000.0 11309700000.0 11309700000.0 11309700000.0 11309700000.0 11309700000.0 11309700000.0 11309700000.0 11309700000.0 11309700000.0 11309700000.0 11309700000.0 11309700000.0 11309700000.0 11309700000.0 11309700000.0 11309700000.0 11309700000.0 11309700000.0 11309700000.0 11309700000.0 11309700000.0 11309700000.0 11309700000.0 11309700000.0 11309700000.0 11309700000.0 11309700000.0 11309700000.0 11309700000.0 11309700000.0 11309700000.0 11309700000.0 11309700000.0 11309700000.0 11309700000.0 11309700000.0 11309700000.0 11309700000.0 11309700000.0 11309700000.0 11309700000.0 11309700000.0 11309700000.0 11309700000.0 11309700000.0 11309700000.0 11309700000.0 11309700000.0 11309700000.0 11309700000.0 11309700000.0 11309700000.0 11309700000.0 11309700000.0 11309700000.0 11309700000.0 11309700000.0 11309700000.0 11309700000.0 11309700000.0 11309700000.0 11309700000.0 11309700000.0 11309700000.0 11309700000.0 11309700000.0 11309700000.0 11309700000.0 11309700000.0 11309700000.0 11309700000.0 11309700000.0 11309700000.0 11309700000.0 11309700000.0 11309700000.0 11309700000.0 11309700000.0 11309700000.0 11309700000.0 11309700000.0 11309700000.0 11309700000.0 11309700000.0 11309700000.0 11309700000.0 11309700000.0 11309700000.0 11309700000.0 11309700000.0 11309700000.0 11309700000.0 11309700000.0 11309700000.0 11309700000.0 11309700000.0 11309700000.0 11309700000.0 11309700000.0 11309700000.0 11309700000.0 11309700000.0 11309700000.0 11309700000.0 11309700000.0 11309700000.0 11309700000.0 11309700000.0 11309700000.0 11309700000.0 11309700000.0 11309700000.0 11309700000.0 11309700000.0 11309700000.0 11309700000.0 11309700000.0 11309700000.0 11309700000.0 11309700000.0 11309700000.0 11309700000.0 11309700000.0 11309700000.0 11309700000.0 11309700000.0 11309700000.0 11309700000.0 11309700000.0 11309700000.0 11309700000.0 11309700000.0 11309700000.0 11309700000.0 11309700000.0 11309700000.0 11309700000.0 11309700000.0 11309700000.0 11309700000.0 11309700000.0 11309700000.0 11309700000.0 11309700000.0 11309700000.0 11309700000.0 11309700000.0 11309700000.0 11309700000.0 11309700000.0 11309700000.0 11309700000.0 11309700000.0 11309700000.0 11309700000.0 11309700000.0 11309700000.0 11309700000.0 11309700000.0 11309700000.0 11309700000.0 11309700000.0 11309700000.0 11309700000.0 11309700000.0 11309700000.0 11309700000.0 11309700000.0 11309700000.0 11309700000.0 11309700000.0 11309700000.0 11309700000.0 11309700000.0 11309700000.0 11309700000.0 11309700000.0 11309700000.0 11309700000.0 11309700000.0 11309700000.0 11309700000.0 11309700000.0 11309700000.0 11309700000.0 11309700000.0 11309700000.0 11309700000.0 11309700000.0 11309700000.0 11309700000.0 11309700000.0 11309700000.0 11309700000.0 11309700000.0 11309700000.0 11309700000.0 11309700000.0 11309700000.0 11309700000.0 11309700000.0 11309700000.0 11309700000.0 11309700000.0 11309700000.0 11309700000.0 11309700000.0 11309700000.0 11309700000.0 11309700000.0 11309700000.0 11309700000.0 11309700000.0 11309700000.0 11309700000.0 11309700000.0 11309700000.0 11309700000.0 11309700000.0 11309700000.0 11309700000.0 11309700000.0 11309700000.0 11309700000.0 11309700000.0 11309700000.0 11309700000.0 11309700000.0 11309700000.0 11309700000.0 11309700000.0 11309700000.0 11309700000.0 11309700000.0 11309700000.0 11309700000.0 11309700000.0 11309700000.0 11309700000.0 11309700000.0 11309700000.0 11309700000.0 11309700000.0 11309700000.0 11309700000.0 11309700000.0 11309700000.0 11309700000.0 11309700000.0 11309700000.0 11309700000.0 11309700000.0 11309700000.0 11309700000.0 11309700000.0 11309700000.0 11309700000.0 11309700000.0 11309700000.0 11309700000.0 11309700000.0 11309700000.0 11309700000.0 11309700000.0 11309700000.0 11309700000.0 11309700000.0 11309700000.0 11309700000.0 11309700000.0 11309700000.0 11309700000.0 11309700000.0 11309700000.0 11309700000.0 11309700000.0 11309700000.0 11309700000.0 11309700000.0 11309700000.0 11309700000.0 11309700000.0 11309700000.0 11309700000.0 11309700000.0 11309700000.0 11309700000.0 11309700000.0 11309700000.0 11309700000.0 11309700000.0 11309700000.0 11309700000.0 11309700000.0 11309700000.0 11309700000.0 11309700000.0 11309700000.0 11309700000.0 11309700000.0 11309700000.0 11309700000.0 11309700000.0 11309700000.0 11309700000.0 11309700000.0 11309700000.0 11309700000.0 11309700000.0 11309700000.0 11309700000.0 11309700000.0 11309700000.0 11309700000.0 11309700000.0 11309700000.0 11309700000.0 11309700000.0 11309700000.0 11309700000.0 11309700000.0 11309700000.0 11309700000.0 11309700000.0 11309700000.0 11309700000.0 11309700000.0 11309700000.0 11309700000.0 11309700000.0 11309700000.0 11309700000.0 11309700000.0 11309700000.0 11309700000.0 11309700000.0 11309700000.0 11309700000.0 11309700000.0 11309700000.0 11309700000.0 11309700000.0 11309700000.0 11309700000.0 11309700000.0 11309700000.0 11309700000.0 11309700000.0 11309700000.0 11309700000.0 11309700000.0 11309700000.0 11309700000.0 11309700000.0 11309700000.0 11309700000.0 11309700000.0 11309700000.0 11309700000.0 11309700000.0 11309700000.0 11309700000.0 11309700000.0 11309700000.0 11309700000.0 11309700000.0 11309700000.0 11309700000.0 11309700000.0 11309700000.0 11309700000.0 11309700000.0 11309700000.0 11309700000.0 11309700000.0 11309700000.0 11309700000.0 11309700000.0 11309700000.0 11309700000.0 11309700000.0 11309700000.0 11309700000.0 11309700000.0 11309700000.0 11309700000.0 11309700000.0 11309700000.0 11309700000.0 11309700000.0 11309700000.0 11309700000.0 11309700000.0 11309700000.0 11309700000.0 11309700000.0 11309700000.0 11309700000.0 11309700000.0 11309700000.0 11309700000.0 11309700000.0 11309700000.0 11309700000.0 11309700000.0 11309700000.0 11309700000.0 11309700000.0 11309700000.0 11309700000.0 11309700000.0 11309700000.0 11309700000.0 11309700000.0 11309700000.0 11309700000.0 11309700000.0 11309700000.0 11309700000.0 11309700000.0 11309700000.0 11309700000.0 11309700000.0 11309700000.0 11309700000.0 11309700000.0 11309700000.0 11309700000.0 11309700000.0 11309700000.0 11309700000.0 11309700000.0 11309700000.0 11309700000.0 11309700000.0 11309700000.0 11309700000.0 11309700000.0 11309700000.0 11309700000.0 11309700000.0 11309700000.0 11309700000.0 11309700000.0 11309700000.0 11309700000.0 11309700000.0 11309700000.0 11309700000.0 11309700000.0 11309700000.0 11309700000.0 11309700000.0 11309700000.0 11309700000.0 11309700000.0 11309700000.0 11309700000.0 11309700000.0 11309700000.0 11309700000.0 11309700000.0 11309700000.0 11309700000.0 11309700000.0 11309700000.0 11309700000.0 11309700000.0 11309700000.0 11309700000.0 11309700000.0 11309700000.0 11309700000.0 11309700000.0 11309700000.0 11309700000.0 11309700000.0 11309700000.0 11309700000.0 11309700000.0 11309700000.0 11309700000.0 11309700000.0 11309700000.0 11309700000.0 11309700000.0 11309700000.0 11309700000.0 11309700000.0 11309700000.0 11309700000.0 11309700000.0 11309700000.0 11309700000.0 11309700000.0 11309700000.0 11309700000.0 11309700000.0 11309700000.0 11309700000.0 11309700000.0 11309700000.0 11309700000.0 11309700000.0 11309700000.0 11309700000.0 11309700000.0 11309700000.0 11309700000.0 11309700000.0 11309700000.0 11309700000.0 11309700000.0 11309700000.0 11309700000.0 11309700000.0 11309700000.0 11309700000.0 11309700000.0 11309700000.0 11309700000.0 11309700000.0 11309700000.0 11309700000.0 11309700000.0 11309700000.0 11309700000.0 11309700000.0 11309700000.0 11309700000.0 11309700000.0 11309700000.0 11309700000.0 11309700000.0 11309700000.0 11309700000.0 11309700000.0 11309700000.0 11309700000.0 11309700000.0 11309700000.0 11309700000.0 11309700000.0 11309700000.0 11309700000.0 11309700000.0 11309700000.0 11309700000.0 11309700000.0 11309700000.0 11309700000.0 11309700000.0 11309700000.0 11309700000.0 11309700000.0 11309700000.0 11309700000.0 11309700000.0 11309700000.0 11309700000.0 11309700000.0 11309700000.0 11309700000.0 11309700000.0 11309700000.0 11309700000.0 11309700000.0 11309700000.0 11309700000.0 11309700000.0 11309700000.0 11309700000.0 11309700000.0 11309700000.0 11309700000.0 11309700000.0 11309700000.0 11309700000.0 11309700000.0 11309700000.0 11309700000.0 11309700000.0 11309700000.0 11309700000.0 11309700000.0 11309700000.0 11309700000.0 11309700000.0 11309700000.0 11309700000.0 11309700000.0 11309700000.0 11309700000.0 11309700000.0 11309700000.0 11309700000.0 11309700000.0 11309700000.0 11309700000.0 11309700000.0 11309700000.0 11309700000.0 11309700000.0 11309700000.0 11309700000.0 11309700000.0 11309700000.0 11309700000.0 11309700000.0 11309700000.0 11309700000.0 11309700000.0 11309700000.0 11309700000.0 11309700000.0 11309700000.0 11309700000.0 11309700000.0 11309700000.0 11309700000.0 11309700000.0 11309700000.0 11309700000.0 11309700000.0 11309700000.0 11309700000.0 11309700000.0 11309700000.0 11309700000.0 11309700000.0 11309700000.0 11309700000.0 11309700000.0 11309700000.0 11309700000.0 11309700000.0 11309700000.0 11309700000.0 11309700000.0 11309700000.0 11309700000.0 11309700000.0 11309700000.0 11309700000.0 11309700000.0 11309700000.0 11309700000.0 11309700000.0 11309700000.0 11309700000.0 11309700000.0 11309700000.0 11309700000.0 11309700000.0 11309700000.0 11309700000.0 11309700000.0 11309700000.0 11309700000.0 11309700000.0 11309700000.0 11309700000.0 11309700000.0 11309700000.0 11309700000.0 11309700000.0 11309700000.0 11309700000.0 11309700000.0 11309700000.0 11309700000.0 11309700000.0 11309700000.0 11309700000.0 11309700000.0 11309700000.0 11309700000.0 11309700000.0 11309700000.0 11309700000.0 11309700000.0 11309700000.0 11309700000.0 11309700000.0 11309700000.0 11309700000.0 11309700000.0 11309700000.0 11309700000.0 11309700000.0 11309700000.0 11309700000.0 11309700000.0 11309700000.0 11309700000.0 11309700000.0 11309700000.0 11309700000.0 11309700000.0 11309700000.0 11309700000.0 11309700000.0 11309700000.0 11309700000.0 11309700000.0 11309700000.0 11309700000.0 11309700000.0 11309700000.0 11309700000.0 11309700000.0 11309700000.0 11309700000.0 11309700000.0 11309700000.0 11309700000.0 11309700000.0 11309700000.0 11309700000.0 11309700000.0 11309700000.0 11309700000.0 11309700000.0 11309700000.0 11309700000.0 11309700000.0 11309700000.0 11309700000.0 11309700000.0 11309700000.0 11309700000.0 11309700000.0 11309700000.0 11309700000.0 11309700000.0 11309700000.0 11309700000.0 11309700000.0 11309700000.0 11309700000.0 11309700000.0 11309700000.0 11309700000.0 11309700000.0 11309700000.0 11309700000.0 11309700000.0 11309700000.0 11309700000.0 11309700000.0 11309700000.0 11309700000.0 11309700000.0 11309700000.0 11309700000.0 11309700000.0 11309700000.0 11309700000.0 11309700000.0 11309700000.0 11309700000.0 11309700000.0 11309700000.0 11309700000.0 11309700000.0 11309700000.0 11309700000.0 11309700000.0 11309700000.0 11309700000.0 11309700000.0 11309700000.0 11309700000.0 11309700000.0 11309700000.0 11309700000.0 11309700000.0 11309700000.0 11309700000.0 11309700000.0 11309700000.0 11309700000.0 11309700000.0 11309700000.0 11309700000.0 11309700000.0 11309700000.0 11309700000.0 11309700000.0 11309700000.0 11309700000.0 11309700000.0 11309700000.0 11309700000.0 11309700000.0 11309700000.0 11309700000.0 11309700000.0 11309700000.0 11309700000.0 11309700000.0 11309700000.0 11309700000.0 11309700000.0 11309700000.0 11309700000.0 11309700000.0 11309700000.0 11309700000.0 11309700000.0 11309700000.0 11309700000.0 11309700000.0 11309700000.0 11309700000.0 11309700000.0 11309700000.0 11309700000.0 11309700000.0 11309700000.0 11309700000.0 11309700000.0 11309700000.0 11309700000.0 11309700000.0 11309700000.0 11309700000.0 11309700000.0 11309700000.0 11309700000.0 11309700000.0 11309700000.0 11309700000.0 11309700000.0 11309700000.0 11309700000.0 11309700000.0 11309700000.0 11309700000.0 11309700000.0 11309700000.0 11309700000.0 11309700000.0 11309700000.0 11309700000.0 11309700000.0 11309700000.0 11309700000.0 11309700000.0 11309700000.0 11309700000.0 11309700000.0 11309700000.0 11309700000.0 11309700000.0 11309700000.0 11309700000.0 11309700000.0 11309700000.0 11309700000.0 11309700000.0 11309700000.0 11309700000.0 11309700000.0 11309700000.0 11309700000.0 11309700000.0 11309700000.0 11309700000.0 11309700000.0 11309700000.0 11309700000.0 11309700000.0 11309700000.0 11309700000.0 11309700000.0 11309700000.0 11309700000.0 11309700000.0 11309700000.0 11309700000.0 11309700000.0 11309700000.0 11309700000.0 11309700000.0 11309700000.0 11309700000.0 11309700000.0 11309700000.0 11309700000.0 11309700000.0 11309700000.0 11309700000.0 11309700000.0 11309700000.0 11309700000.0 11309700000.0 11309700000.0 11309700000.0 11309700000.0 11309700000.0 11309700000.0 11309700000.0 11309700000.0 11309700000.0 11309700000.0 11309700000.0 11309700000.0 11309700000.0 11309700000.0 11309700000.0 11309700000.0 11309700000.0 11309700000.0 11309700000.0 11309700000.0 11309700000.0 11309700000.0 11309700000.0 11309700000.0 11309700000.0 11309700000.0 11309700000.0 11309700000.0 11309700000.0 11309700000.0 11309700000.0 11309700000.0 11309700000.0 11309700000.0 11309700000.0 11309700000.0 11309700000.0 11309700000.0 11309700000.0 11309700000.0 11309700000.0 11309700000.0 11309700000.0 11309700000.0 11309700000.0 11309700000.0 11309700000.0 11309700000.0 11309700000.0 11309700000.0 11309700000.0 11309700000.0 11309700000.0 11309700000.0 11309700000.0 11309700000.0 11309700000.0 11309700000.0 11309700000.0 11309700000.0 11309700000.0 11309700000.0 11309700000.0 11309700000.0 11309700000.0 11309700000.0 11309700000.0 11309700000.0 11309700000.0 11309700000.0 11309700000.0 11309700000.0 11309700000.0 11309700000.0 11309700000.0 11309700000.0 11309700000.0 11309700000.0 11309700000.0 11309700000.0 11309700000.0 11309700000.0 11309700000.0 11309700000.0 11309700000.0 11309700000.0 11309700000.0 11309700000.0 11309700000.0 11309700000.0 11309700000.0 11309700000.0 11309700000.0 11309700000.0 11309700000.0 11309700000.0 11309700000.0 11309700000.0 11309700000.0 11309700000.0 11309700000.0 11309700000.0 11309700000.0 11309700000.0 11309700000.0 11309700000.0 11309700000.0 11309700000.0 11309700000.0 11309700000.0 11309700000.0 11309700000.0 11309700000.0 11309700000.0 11309700000.0 11309700000.0 11309700000.0 11309700000.0 11309700000.0 11309700000.0 11309700000.0 11309700000.0 11309700000.0 11309700000.0 11309700000.0 11309700000.0 11309700000.0 11309700000.0 11309700000.0 11309700000.0 11309700000.0 11309700000.0 11309700000.0 11309700000.0 11309700000.0 11309700000.0 11309700000.0 11309700000.0 11309700000.0 11309700000.0 11309700000.0 11309700000.0 11309700000.0 11309700000.0 11309700000.0 11309700000.0 11309700000.0 11309700000.0 11309700000.0 11309700000.0 11309700000.0 11309700000.0 11309700000.0 11309700000.0 11309700000.0 11309700000.0 11309700000.0 11309700000.0 11309700000.0 11309700000.0 11309700000.0 11309700000.0 11309700000.0 11309700000.0 11309700000.0 11309700000.0 11309700000.0 11309700000.0 11309700000.0 11309700000.0 11309700000.0 11309700000.0 11309700000.0 11309700000.0 11309700000.0 11309700000.0 11309700000.0 11309700000.0 11309700000.0 11309700000.0 11309700000.0 11309700000.0 11309700000.0 11309700000.0 11309700000.0 11309700000.0 11309700000.0 11309700000.0 11309700000.0 11309700000.0 11309700000.0 11309700000.0 11309700000.0 11309700000.0 11309700000.0 11309700000.0 11309700000.0 11309700000.0 11309700000.0 11309700000.0 11309700000.0 11309700000.0 11309700000.0 11309700000.0 11309700000.0 11309700000.0 11309700000.0 11309700000.0 11309700000.0 11309700000.0 11309700000.0 11309700000.0 11309700000.0 11309700000.0 11309700000.0 11309700000.0 11309700000.0 11309700000.0 11309700000.0 11309700000.0 11309700000.0 11309700000.0 11309700000.0 11309700000.0 11309700000.0 11309700000.0 11309700000.0 11309700000.0 11309700000.0 11309700000.0 11309700000.0 11309700000.0 11309700000.0 11309700000.0 11309700000.0 11309700000.0 11309700000.0 11309700000.0 11309700000.0 11309700000.0 11309700000.0 11309700000.0 11309700000.0 11309700000.0 11309700000.0 11309700000.0 11309700000.0 11309700000.0 11309700000.0 11309700000.0 11309700000.0 11309700000.0 11309700000.0 11309700000.0 11309700000.0 11309700000.0 11309700000.0 11309700000.0 11309700000.0 11309700000.0 11309700000.0 11309700000.0 11309700000.0 11309700000.0 11309700000.0 11309700000.0 11309700000.0 11309700000.0 11309700000.0 11309700000.0 11309700000.0 11309700000.0 11309700000.0 11309700000.0 11309700000.0 11309700000.0 11309700000.0 11309700000.0 11309700000.0 11309700000.0 11309700000.0 11309700000.0 11309700000.0 11309700000.0 11309700000.0 11309700000.0 11309700000.0 11309700000.0 11309700000.0 11309700000.0 11309700000.0 11309700000.0 11309700000.0 11309700000.0 11309700000.0 11309700000.0 11309700000.0 11309700000.0 11309700000.0 11309700000.0 11309700000.0 11309700000.0 11309700000.0 11309700000.0 11309700000.0 11309700000.0 11309700000.0 11309700000.0 11309700000.0 11309700000.0 11309700000.0 11309700000.0 11309700000.0 11309700000.0 11309700000.0 11309700000.0 11309700000.0 11309700000.0 11309700000.0 11309700000.0 11309700000.0 11309700000.0 11309700000.0 11309700000.0 11309700000.0 11309700000.0 11309700000.0 11309700000.0 11309700000.0 11309700000.0 11309700000.0 11309700000.0 11309700000.0 11309700000.0 11309700000.0 11309700000.0 11309700000.0 11309700000.0 11309700000.0 11309700000.0 11309700000.0 11309700000.0 11309700000.0 11309700000.0 11309700000.0 11309700000.0 11309700000.0 11309700000.0 11309700000.0 11309700000.0 11309700000.0 11309700000.0 11309700000.0 11309700000.0 11309700000.0 11309700000.0 11309700000.0 11309700000.0 11309700000.0 11309700000.0 11309700000.0 11309700000.0 11309700000.0 11309700000.0 11309700000.0 11309700000.0 11309700000.0 11309700000.0 11309700000.0 11309700000.0 11309700000.0 11309700000.0 11309700000.0 11309700000.0 11309700000.0 11309700000.0 11309700000.0 11309700000.0 11309700000.0 11309700000.0 11309700000.0 11309700000.0 11309700000.0 11309700000.0 11309700000.0 11309700000.0 11309700000.0 11309700000.0 11309700000.0 11309700000.0 11309700000.0 11309700000.0 11309700000.0 11309700000.0 11309700000.0 11309700000.0 11309700000.0 11309700000.0 11309700000.0 11309700000.0 11309700000.0 11309700000.0 11309700000.0 11309700000.0 11309700000.0 11309700000.0 11309700000.0 11309700000.0 11309700000.0 11309700000.0 11309700000.0 11309700000.0 11309700000.0 11309700000.0 11309700000.0 11309700000.0 11309700000.0 11309700000.0 11309700000.0 11309700000.0 11309700000.0 11309700000.0 11309700000.0 11309700000.0 11309700000.0 11309700000.0 11309700000.0 11309700000.0 11309700000.0 11309700000.0 11309700000.0 11309700000.0 11309700000.0 11309700000.0 11309700000.0 11309700000.0 11309700000.0 11309700000.0 11309700000.0 11309700000.0 11309700000.0 11309700000.0 11309700000.0 11309700000.0 11309700000.0 11309700000.0 11309700000.0 11309700000.0 11309700000.0 11309700000.0 11309700000.0 11309700000.0 11309700000.0 11309700000.0 11309700000.0 11309700000.0 11309700000.0 11309700000.0 11309700000.0 11309700000.0 11309700000.0 11309700000.0 11309700000.0 11309700000.0 11309700000.0 11309700000.0 11309700000.0 11309700000.0 11309700000.0 11309700000.0 11309700000.0 11309700000.0 11309700000.0 11309700000.0 11309700000.0 11309700000.0 11309700000.0 11309700000.0 11309700000.0 11309700000.0 11309700000.0 11309700000.0 11309700000.0 11309700000.0 11309700000.0 11309700000.0 11309700000.0 11309700000.0 11309700000.0 11309700000.0 11309700000.0 11309700000.0 11309700000.0 11309700000.0 11309700000.0 11309700000.0 11309700000.0 11309700000.0 11309700000.0 11309700000.0 11309700000.0 11309700000.0 11309700000.0 11309700000.0 11309700000.0 11309700000.0 11309700000.0 11309700000.0 11309700000.0 11309700000.0 11309700000.0 11309700000.0 11309700000.0 11309700000.0 11309700000.0 11309700000.0 11309700000.0 11309700000.0 11309700000.0 11309700000.0 11309700000.0 11309700000.0 11309700000.0 11309700000.0 11309700000.0 11309700000.0 11309700000.0 11309700000.0 11309700000.0 11309700000.0 11309700000.0 11309700000.0 11309700000.0 11309700000.0 11309700000.0 11309700000.0 11309700000.0 11309700000.0 11309700000.0 11309700000.0 11309700000.0 11309700000.0 11309700000.0 11309700000.0 11309700000.0 11309700000.0 11309700000.0 11309700000.0 11309700000.0 11309700000.0 11309700000.0 11309700000.0 11309700000.0 11309700000.0 11309700000.0 11309700000.0 11309700000.0 11309700000.0 11309700000.0 11309700000.0 11309700000.0 11309700000.0 11309700000.0 11309700000.0 11309700000.0 11309700000.0 11309700000.0 11309700000.0 11309700000.0 11309700000.0 11309700000.0 11309700000.0 11309700000.0 11309700000.0 11309700000.0 11309700000.0 11309700000.0 11309700000.0 11309700000.0 11309700000.0 11309700000.0 11309700000.0 11309700000.0 11309700000.0 11309700000.0 11309700000.0 11309700000.0 11309700000.0 11309700000.0 11309700000.0 11309700000.0 11309700000.0 11309700000.0 11309700000.0 11309700000.0 11309700000.0 11309700000.0 11309700000.0 11309700000.0 11309700000.0 11309700000.0 11309700000.0 11309700000.0 11309700000.0 11309700000.0 11309700000.0 11309700000.0 11309700000.0 11309700000.0 11309700000.0 11309700000.0 11309700000.0 11309700000.0 11309700000.0 11309700000.0 11309700000.0 11309700000.0 11309700000.0 11309700000.0 11309700000.0 11309700000.0 11309700000.0 11309700000.0 11309700000.0 11309700000.0 11309700000.0 11309700000.0 11309700000.0 11309700000.0 11309700000.0 11309700000.0 11309700000.0 11309700000.0 11309700000.0 11309700000.0 11309700000.0 11309700000.0 11309700000.0 11309700000.0 11309700000.0 11309700000.0 11309700000.0 11309700000.0 11309700000.0 11309700000.0 11309700000.0 11309700000.0 11309700000.0 11309700000.0 11309700000.0 11309700000.0 11309700000.0 11309700000.0 11309700000.0 11309700000.0 11309700000.0 11309700000.0 11309700000.0 11309700000.0 11309700000.0 11309700000.0 11309700000.0 11309700000.0 11309700000.0 11309700000.0 11309700000.0 11309700000.0 11309700000.0 11309700000.0 11309700000.0 11309700000.0 11309700000.0 11309700000.0 11309700000.0 11309700000.0 11309700000.0 11309700000.0 11309700000.0 11309700000.0 11309700000.0 11309700000.0 11309700000.0 11309700000.0 11309700000.0 11309700000.0 11309700000.0 11309700000.0 11309700000.0 11309700000.0 11309700000.0 11309700000.0 11309700000.0 11309700000.0 11309700000.0 11309700000.0 11309700000.0 11309700000.0 11309700000.0 11309700000.0 11309700000.0 11309700000.0 11309700000.0 11309700000.0 11309700000.0 11309700000.0 11309700000.0 11309700000.0 11309700000.0 11309700000.0 11309700000.0 11309700000.0 11309700000.0 11309700000.0 11309700000.0 11309700000.0 11309700000.0 11309700000.0 11309700000.0 11309700000.0 11309700000.0 11309700000.0 11309700000.0 11309700000.0 11309700000.0 11309700000.0 11309700000.0 11309700000.0 11309700000.0 11309700000.0 11309700000.0 11309700000.0 11309700000.0 11309700000.0 11309700000.0 11309700000.0 11309700000.0 11309700000.0 11309700000.0 11309700000.0 11309700000.0 11309700000.0 11309700000.0 11309700000.0 11309700000.0 11309700000.0 11309700000.0 11309700000.0 11309700000.0 11309700000.0 11309700000.0 11309700000.0 11309700000.0 11309700000.0 11309700000.0 11309700000.0 11309700000.0 11309700000.0 11309700000.0 11309700000.0 11309700000.0 11309700000.0 11309700000.0 11309700000.0 11309700000.0 11309700000.0 11309700000.0 11309700000.0 11309700000.0 11309700000.0 11309700000.0 11309700000.0 11309700000.0 11309700000.0 11309700000.0 11309700000.0 11309700000.0 11309700000.0 11309700000.0 11309700000.0 11309700000.0 11309700000.0 11309700000.0 11309700000.0 11309700000.0 11309700000.0 11309700000.0 11309700000.0 11309700000.0 11309700000.0 11309700000.0 11309700000.0 11309700000.0 11309700000.0 11309700000.0 11309700000.0 11309700000.0 11309700000.0 11309700000.0 11309700000.0 11309700000.0 11309700000.0 11309700000.0 11309700000.0 11309700000.0 11309700000.0 11309700000.0 11309700000.0 11309700000.0 11309700000.0 11309700000.0 11309700000.0 11309700000.0 11309700000.0 11309700000.0 11309700000.0 11309700000.0 11309700000.0 11309700000.0 11309700000.0 11309700000.0 11309700000.0 11309700000.0 11309700000.0 11309700000.0 11309700000.0 11309700000.0 11309700000.0 11309700000.0 11309700000.0 11309700000.0 11309700000.0 11309700000.0 11309700000.0 11309700000.0 11309700000.0 11309700000.0 11309700000.0 11309700000.0 11309700000.0 11309700000.0 11309700000.0 11309700000.0 11309700000.0 11309700000.0 11309700000.0 11309700000.0 11309700000.0 11309700000.0 11309700000.0 11309700000.0 11309700000.0 11309700000.0 11309700000.0 11309700000.0 11309700000.0 11309700000.0 11309700000.0 11309700000.0 11309700000.0 11309700000.0 11309700000.0 11309700000.0 11309700000.0 11309700000.0 11309700000.0 11309700000.0 11309700000.0 11309700000.0 11309700000.0 11309700000.0 11309700000.0 11309700000.0 11309700000.0 11309700000.0 11309700000.0 11309700000.0 11309700000.0 11309700000.0 11309700000.0 11309700000.0 11309700000.0 11309700000.0 11309700000.0 11309700000.0 11309700000.0 11309700000.0 11309700000.0 11309700000.0 11309700000.0 11309700000.0 11309700000.0 11309700000.0 11309700000.0 11309700000.0 11309700000.0 11309700000.0 11309700000.0 11309700000.0 11309700000.0 11309700000.0 11309700000.0 11309700000.0 11309700000.0 11309700000.0 11309700000.0 11309700000.0 11309700000.0 11309700000.0 11309700000.0 11309700000.0 11309700000.0 11309700000.0 11309700000.0 11309700000.0 11309700000.0 11309700000.0 11309700000.0 11309700000.0 11309700000.0 11309700000.0 11309700000.0 11309700000.0 11309700000.0 11309700000.0 11309700000.0 11309700000.0 11309700000.0 11309700000.0 11309700000.0 11309700000.0 11309700000.0 11309700000.0 11309700000.0 11309700000.0 11309700000.0 11309700000.0 11309700000.0 11309700000.0 11309700000.0 11309700000.0 11309700000.0 11309700000.0 11309700000.0 11309700000.0 11309700000.0 11309700000.0 11309700000.0 11309700000.0 11309700000.0 11309700000.0 11309700000.0 11309700000.0 11309700000.0 11309700000.0 11309700000.0 11309700000.0 11309700000.0 11309700000.0 11309700000.0 11309700000.0 11309700000.0 11309700000.0 11309700000.0 11309700000.0 11309700000.0 11309700000.0 11309700000.0 11309700000.0 11309700000.0 11309700000.0 11309700000.0 11309700000.0 11309700000.0 11309700000.0 11309700000.0 11309700000.0 11309700000.0 11309700000.0 11309700000.0 11309700000.0 11309700000.0 11309700000.0 11309700000.0 11309700000.0 11309700000.0 11309700000.0 11309700000.0 11309700000.0 11309700000.0 11309700000.0 11309700000.0 11309700000.0 11309700000.0 11309700000.0 11309700000.0 11309700000.0 11309700000.0 11309700000.0 11309700000.0 11309700000.0 11309700000.0 11309700000.0 11309700000.0 11309700000.0 11309700000.0 11309700000.0 11309700000.0 11309700000.0 11309700000.0 11309700000.0 11309700000.0 11309700000.0 11309700000.0 11309700000.0 11309700000.0 11309700000.0 11309700000.0 11309700000.0 11309700000.0 11309700000.0 11309700000.0 11309700000.0 11309700000.0 11309700000.0 11309700000.0 11309700000.0 11309700000.0 11309700000.0 11309700000.0 11309700000.0 11309700000.0 11309700000.0 11309700000.0 11309700000.0 11309700000.0 11309700000.0 11309700000.0 11309700000.0 11309700000.0 11309700000.0 11309700000.0 11309700000.0 11309700000.0 11309700000.0 11309700000.0 11309700000.0 11309700000.0 11309700000.0 11309700000.0 11309700000.0 11309700000.0 11309700000.0 11309700000.0 11309700000.0 11309700000.0 11309700000.0 11309700000.0 11309700000.0 11309700000.0 11309700000.0 11309700000.0 11309700000.0 11309700000.0 11309700000.0 11309700000.0 11309700000.0 11309700000.0 11309700000.0 11309700000.0 11309700000.0 11309700000.0 11309700000.0 11309700000.0 11309700000.0 11309700000.0 11309700000.0 11309700000.0 11309700000.0 11309700000.0 11309700000.0 11309700000.0 11309700000.0 11309700000.0 11309700000.0 11309700000.0 11309700000.0 11309700000.0 11309700000.0 11309700000.0 11309700000.0 11309700000.0 11309700000.0 11309700000.0 11309700000.0 11309700000.0 11309700000.0 11309700000.0 11309700000.0 11309700000.0 11309700000.0 11309700000.0 11309700000.0 11309700000.0 11309700000.0 11309700000.0 11309700000.0 11309700000.0 11309700000.0 11309700000.0 11309700000.0 11309700000.0 11309700000.0 11309700000.0 11309700000.0 11309700000.0 11309700000.0 11309700000.0 11309700000.0 11309700000.0 11309700000.0 11309700000.0 11309700000.0 11309700000.0 11309700000.0 11309700000.0 11309700000.0 11309700000.0 11309700000.0 11309700000.0 11309700000.0 11309700000.0 11309700000.0 11309700000.0 11309700000.0 11309700000.0 11309700000.0 11309700000.0 11309700000.0 11309700000.0 11309700000.0 11309700000.0 11309700000.0 11309700000.0 11309700000.0 11309700000.0 11309700000.0 11309700000.0 11309700000.0 11309700000.0 11309700000.0 11309700000.0 11309700000.0 11309700000.0 11309700000.0 11309700000.0 11309700000.0 11309700000.0 11309700000.0 11309700000.0 11309700000.0 11309700000.0 11309700000.0 11309700000.0 11309700000.0 11309700000.0 11309700000.0 11309700000.0 11309700000.0 11309700000.0 11309700000.0 11309700000.0 11309700000.0 11309700000.0 11309700000.0 11309700000.0 11309700000.0 11309700000.0 11309700000.0 11309700000.0 11309700000.0 11309700000.0 11309700000.0 11309700000.0 11309700000.0 11309700000.0 11309700000.0 11309700000.0 11309700000.0 11309700000.0 11309700000.0 11309700000.0 11309700000.0 11309700000.0 11309700000.0 11309700000.0 11309700000.0 11309700000.0 11309700000.0 11309700000.0 11309700000.0 11309700000.0 11309700000.0 11309700000.0 11309700000.0 11309700000.0 11309700000.0 11309700000.0 11309700000.0 11309700000.0 11309700000.0 11309700000.0 11309700000.0 11309700000.0 11309700000.0 11309700000.0 11309700000.0 11309700000.0 11309700000.0 11309700000.0 11309700000.0 11309700000.0 11309700000.0 11309700000.0 11309700000.0 11309700000.0 11309700000.0 11309700000.0 11309700000.0 11309700000.0 11309700000.0 11309700000.0 11309700000.0 11309700000.0 11309700000.0 11309700000.0 11309700000.0 11309700000.0 11309700000.0 11309700000.0 11309700000.0 11309700000.0 11309700000.0 11309700000.0 11309700000.0 11309700000.0 11309700000.0 11309700000.0 11309700000.0 11309700000.0 11309700000.0 11309700000.0 11309700000.0 11309700000.0 11309700000.0 11309700000.0 11309700000.0 11309700000.0 11309700000.0 11309700000.0 11309700000.0 11309700000.0 11309700000.0 11309700000.0 11309700000.0 11309700000.0 11309700000.0 11309700000.0 11309700000.0 11309700000.0 11309700000.0 11309700000.0 11309700000.0 11309700000.0 11309700000.0 11309700000.0 11309700000.0 11309700000.0 11309700000.0 11309700000.0 11309700000.0 11309700000.0 11309700000.0 11309700000.0 11309700000.0 11309700000.0 11309700000.0 11309700000.0 11309700000.0 11309700000.0 11309700000.0 11309700000.0 11309700000.0 11309700000.0 11309700000.0 11309700000.0 11309700000.0 11309700000.0 11309700000.0 11309700000.0 11309700000.0 11309700000.0 11309700000.0 11309700000.0 11309700000.0 11309700000.0 11309700000.0 11309700000.0 11309700000.0 11309700000.0 11309700000.0 11309700000.0 11309700000.0 11309700000.0 11309700000.0 11309700000.0 11309700000.0 11309700000.0 11309700000.0 11309700000.0 11309700000.0 11309700000.0 11309700000.0 11309700000.0 11309700000.0 11309700000.0 11309700000.0 11309700000.0 11309700000.0 11309700000.0 11309700000.0 11309700000.0 11309700000.0 11309700000.0 11309700000.0 11309700000.0 11309700000.0 11309700000.0 11309700000.0 11309700000.0 11309700000.0 11309700000.0 11309700000.0 11309700000.0 11309700000.0 11309700000.0 11309700000.0 11309700000.0 11309700000.0 11309700000.0 11309700000.0 11309700000.0 11309700000.0 11309700000.0 11309700000.0 11309700000.0 11309700000.0 11309700000.0 11309700000.0 11309700000.0 11309700000.0 11309700000.0 11309700000.0 11309700000.0 11309700000.0 11309700000.0 11309700000.0 11309700000.0 11309700000.0 11309700000.0 11309700000.0 11309700000.0 11309700000.0 11309700000.0 11309700000.0 11309700000.0 11309700000.0 11309700000.0 11309700000.0 11309700000.0 11309700000.0 11309700000.0 11309700000.0 11309700000.0 11309700000.0 11309700000.0 11309700000.0 11309700000.0 11309700000.0 11309700000.0 11309700000.0 11309700000.0 11309700000.0 11309700000.0 11309700000.0 11309700000.0 11309700000.0 11309700000.0 11309700000.0 11309700000.0 11309700000.0 11309700000.0 11309700000.0 11309700000.0 11309700000.0 11309700000.0 11309700000.0 11309700000.0 11309700000.0 11309700000.0 11309700000.0 11309700000.0 11309700000.0 11309700000.0 11309700000.0 11309700000.0 11309700000.0 11309700000.0 11309700000.0 11309700000.0 11309700000.0 11309700000.0 11309700000.0 11309700000.0 11309700000.0 11309700000.0 11309700000.0 11309700000.0 11309700000.0 11309700000.0 11309700000.0 11309700000.0 11309700000.0 11309700000.0 11309700000.0 11309700000.0 11309700000.0 11309700000.0 11309700000.0 11309700000.0 11309700000.0 11309700000.0 11309700000.0 11309700000.0 11309700000.0 11309700000.0 11309700000.0 11309700000.0 11309700000.0 11309700000.0 11309700000.0 11309700000.0 11309700000.0 11309700000.0 11309700000.0 11309700000.0 11309700000.0 11309700000.0 11309700000.0 11309700000.0 11309700000.0 11309700000.0 11309700000.0 11309700000.0 11309700000.0 11309700000.0 11309700000.0 11309700000.0 11309700000.0 11309700000.0 11309700000.0 11309700000.0 11309700000.0 11309700000.0 11309700000.0 11309700000.0 11309700000.0 11309700000.0 11309700000.0 11309700000.0 11309700000.0 11309700000.0 11309700000.0 11309700000.0 11309700000.0 11309700000.0 11309700000.0 11309700000.0 11309700000.0 11309700000.0 11309700000.0 11309700000.0 11309700000.0 11309700000.0 11309700000.0 11309700000.0 11309700000.0 11309700000.0 11309700000.0 11309700000.0 11309700000.0 11309700000.0 11309700000.0 11309700000.0 11309700000.0 11309700000.0 11309700000.0 11309700000.0 11309700000.0 11309700000.0 11309700000.0 11309700000.0 11309700000.0 11309700000.0 11309700000.0 11309700000.0 11309700000.0 11309700000.0 11309700000.0 11309700000.0 11309700000.0 11309700000.0 11309700000.0 11309700000.0 11309700000.0 11309700000.0 11309700000.0 11309700000.0 11309700000.0 11309700000.0 11309700000.0 11309700000.0 11309700000.0 11309700000.0 11309700000.0 11309700000.0 11309700000.0 11309700000.0 11309700000.0 11309700000.0 11309700000.0 11309700000.0 11309700000.0 11309700000.0 11309700000.0 11309700000.0 11309700000.0 11309700000.0 11309700000.0 11309700000.0 11309700000.0 11309700000.0 11309700000.0 11309700000.0 11309700000.0 11309700000.0 11309700000.0 11309700000.0 11309700000.0 11309700000.0 11309700000.0 11309700000.0 11309700000.0 11309700000.0 11309700000.0 11309700000.0 11309700000.0 11309700000.0 11309700000.0 11309700000.0 11309700000.0 11309700000.0 11309700000.0 11309700000.0 11309700000.0 11309700000.0 11309700000.0 11309700000.0 11309700000.0 11309700000.0 11309700000.0 11309700000.0 11309700000.0 11309700000.0 11309700000.0 11309700000.0 11309700000.0 11309700000.0 11309700000.0 11309700000.0 11309700000.0 11309700000.0 11309700000.0 11309700000.0 11309700000.0 11309700000.0 11309700000.0 11309700000.0 11309700000.0 11309700000.0 11309700000.0 11309700000.0 11309700000.0 11309700000.0 11309700000.0 11309700000.0 11309700000.0 11309700000.0 11309700000.0 11309700000.0 11309700000.0 11309700000.0 11309700000.0 11309700000.0 11309700000.0 11309700000.0 11309700000.0 11309700000.0 11309700000.0 11309700000.0 11309700000.0 11309700000.0 11309700000.0 11309700000.0 11309700000.0 11309700000.0 11309700000.0 11309700000.0 11309700000.0 11309700000.0 11309700000.0 11309700000.0 11309700000.0 11309700000.0 11309700000.0 11309700000.0 11309700000.0 11309700000.0 11309700000.0 11309700000.0 11309700000.0 11309700000.0 11309700000.0 11309700000.0 11309700000.0 11309700000.0 11309700000.0 11309700000.0 11309700000.0 11309700000.0 11309700000.0 11309700000.0 11309700000.0 11309700000.0 11309700000.0 11309700000.0 11309700000.0 11309700000.0 11309700000.0 11309700000.0 11309700000.0 11309700000.0 11309700000.0 11309700000.0 11309700000.0 11309700000.0 11309700000.0 11309700000.0 11309700000.0 11309700000.0 11309700000.0 11309700000.0 11309700000.0 11309700000.0 11309700000.0 11309700000.0 11309700000.0 11309700000.0 11309700000.0 11309700000.0 11309700000.0 11309700000.0 11309700000.0 11309700000.0 11309700000.0 11309700000.0 11309700000.0 11309700000.0 11309700000.0 11309700000.0 11309700000.0 11309700000.0 11309700000.0 11309700000.0 11309700000.0 11309700000.0 11309700000.0 11309700000.0 11309700000.0 11309700000.0 11309700000.0 11309700000.0 11309700000.0 11309700000.0 11309700000.0 11309700000.0 11309700000.0 11309700000.0 11309700000.0 11309700000.0 11309700000.0 11309700000.0 11309700000.0 11309700000.0 11309700000.0 11309700000.0 11309700000.0 11309700000.0 11309700000.0 11309700000.0 11309700000.0 11309700000.0 11309700000.0 11309700000.0 11309700000.0 11309700000.0 11309700000.0 11309700000.0 11309700000.0 11309700000.0 11309700000.0 11309700000.0 11309700000.0 11309700000.0 11309700000.0 11309700000.0 11309700000.0 11309700000.0 11309700000.0 11309700000.0 11309700000.0 11309700000.0 11309700000.0 11309700000.0 11309700000.0 11309700000.0 11309700000.0 11309700000.0 11309700000.0 11309700000.0 11309700000.0 11309700000.0 11309700000.0 11309700000.0 11309700000.0 11309700000.0 11309700000.0 11309700000.0 11309700000.0 11309700000.0 11309700000.0 11309700000.0 11309700000.0 11309700000.0 11309700000.0 11309700000.0 11309700000.0 11309700000.0 11309700000.0 11309700000.0 11309700000.0 11309700000.0 11309700000.0 11309700000.0 11309700000.0 11309700000.0 11309700000.0 11309700000.0 11309700000.0 11309700000.0 11309700000.0 11309700000.0 11309700000.0 11309700000.0 11309700000.0 11309700000.0 11309700000.0 11309700000.0 11309700000.0 11309700000.0 11309700000.0 11309700000.0 11309700000.0 11309700000.0 11309700000.0 11309700000.0 11309700000.0 11309700000.0 11309700000.0 11309700000.0 11309700000.0 11309700000.0 11309700000.0 11309700000.0 11309700000.0 11309700000.0 11309700000.0 11309700000.0 11309700000.0 11309700000.0 11309700000.0 11309700000.0 11309700000.0 11309700000.0 11309700000.0 11309700000.0 11309700000.0 11309700000.0 11309700000.0 11309700000.0 11309700000.0 11309700000.0 11309700000.0 11309700000.0 11309700000.0 11309700000.0 11309700000.0 11309700000.0 11309700000.0 11309700000.0 11309700000.0 11309700000.0 11309700000.0 11309700000.0 11309700000.0 11309700000.0 11309700000.0 11309700000.0 11309700000.0 11309700000.0 11309700000.0 11309700000.0 11309700000.0 11309700000.0 11309700000.0 11309700000.0 11309700000.0 11309700000.0 11309700000.0 11309700000.0 11309700000.0 11309700000.0 11309700000.0 11309700000.0 11309700000.0 11309700000.0 11309700000.0 11309700000.0 11309700000.0 11309700000.0 11309700000.0 11309700000.0 11309700000.0 11309700000.0 11309700000.0 11309700000.0 11309700000.0 11309700000.0 11309700000.0 11309700000.0 11309700000.0 11309700000.0 11309700000.0 11309700000.0 11309700000.0 11309700000.0 11309700000.0 11309700000.0 11309700000.0 11309700000.0 11309700000.0 11309700000.0 11309700000.0 11309700000.0 11309700000.0 11309700000.0 11309700000.0 11309700000.0 11309700000.0 11309700000.0 11309700000.0 11309700000.0 11309700000.0 11309700000.0 11309700000.0 11309700000.0 11309700000.0 11309700000.0 11309700000.0 11309700000.0 11309700000.0 11309700000.0 11309700000.0 11309700000.0 11309700000.0 11309700000.0 11309700000.0 11309700000.0 11309700000.0 11309700000.0 11309700000.0 11309700000.0 11309700000.0 11309700000.0 11309700000.0 11309700000.0 11309700000.0 11309700000.0 11309700000.0 11309700000.0 11309700000.0 11309700000.0 11309700000.0 11309700000.0 11309700000.0 11309700000.0 11309700000.0 11309700000.0 11309700000.0 11309700000.0 11309700000.0 11309700000.0 11309700000.0 11309700000.0 11309700000.0 11309700000.0 11309700000.0 11309700000.0 11309700000.0 11309700000.0 11309700000.0 11309700000.0 11309700000.0 11309700000.0 11309700000.0 11309700000.0 11309700000.0 11309700000.0 11309700000.0 11309700000.0 11309700000.0 11309700000.0 11309700000.0 11309700000.0 11309700000.0 11309700000.0 11309700000.0 11309700000.0 11309700000.0 11309700000.0 11309700000.0 11309700000.0 11309700000.0 11309700000.0 11309700000.0 11309700000.0 11309700000.0 11309700000.0 11309700000.0 11309700000.0 11309700000.0 11309700000.0 11309700000.0 11309700000.0 11309700000.0 11309700000.0 11309700000.0 11309700000.0 11309700000.0 11309700000.0 11309700000.0 11309700000.0 11309700000.0 11309700000.0 11309700000.0 11309700000.0 11309700000.0 11309700000.0 11309700000.0 11309700000.0 11309700000.0 11309700000.0 11309700000.0 11309700000.0 11309700000.0 11309700000.0 11309700000.0 11309700000.0 11309700000.0 11309700000.0 11309700000.0 11309700000.0 11309700000.0 11309700000.0 11309700000.0 11309700000.0 11309700000.0 11309700000.0 11309700000.0 11309700000.0 11309700000.0 11309700000.0 11309700000.0 11309700000.0 11309700000.0 11309700000.0 11309700000.0 11309700000.0 11309700000.0 11309700000.0 11309700000.0 11309700000.0 11309700000.0 11309700000.0 11309700000.0 11309700000.0 11309700000.0 11309700000.0 11309700000.0 11309700000.0 11309700000.0 11309700000.0 11309700000.0 11309700000.0 11309700000.0 11309700000.0 11309700000.0 11309700000.0 11309700000.0 11309700000.0 11309700000.0 11309700000.0 11309700000.0 11309700000.0 11309700000.0 11309700000.0 11309700000.0 11309700000.0 11309700000.0 11309700000.0 11309700000.0 11309700000.0 11309700000.0 11309700000.0 11309700000.0 11309700000.0 11309700000.0 11309700000.0 11309700000.0 11309700000.0 11309700000.0 11309700000.0 11309700000.0 11309700000.0 11309700000.0 11309700000.0 11309700000.0 11309700000.0 11309700000.0 11309700000.0 11309700000.0 11309700000.0 11309700000.0 11309700000.0 11309700000.0 11309700000.0 11309700000.0 11309700000.0 11309700000.0 11309700000.0 11309700000.0 11309700000.0 11309700000.0 11309700000.0 11309700000.0 11309700000.0 11309700000.0 11309700000.0 11309700000.0 11309700000.0 11309700000.0 11309700000.0 11309700000.0 11309700000.0 11309700000.0 11309700000.0 11309700000.0 11309700000.0 11309700000.0 11309700000.0 11309700000.0 11309700000.0 11309700000.0 11309700000.0 11309700000.0 11309700000.0 11309700000.0 11309700000.0 11309700000.0 11309700000.0 11309700000.0 11309700000.0 11309700000.0 11309700000.0 11309700000.0 11309700000.0 11309700000.0 11309700000.0 11309700000.0 11309700000.0 11309700000.0 11309700000.0 11309700000.0 11309700000.0 11309700000.0 11309700000.0 11309700000.0 11309700000.0 11309700000.0 11309700000.0 11309700000.0 11309700000.0 11309700000.0 11309700000.0 11309700000.0 11309700000.0 11309700000.0 11309700000.0 11309700000.0 11309700000.0 11309700000.0 11309700000.0 11309700000.0 11309700000.0 11309700000.0 11309700000.0 11309700000.0 11309700000.0 11309700000.0 11309700000.0 11309700000.0 11309700000.0 11309700000.0 11309700000.0 11309700000.0 11309700000.0 11309700000.0 11309700000.0 11309700000.0 11309700000.0 11309700000.0 11309700000.0 11309700000.0 11309700000.0 11309700000.0 11309700000.0 11309700000.0 11309700000.0 11309700000.0 11309700000.0 11309700000.0 11309700000.0 11309700000.0 11309700000.0 11309700000.0 11309700000.0 11309700000.0 11309700000.0 11309700000.0 11309700000.0 11309700000.0 11309700000.0 11309700000.0 11309700000.0 11309700000.0 11309700000.0 11309700000.0 11309700000.0 11309700000.0 11309700000.0 11309700000.0 11309700000.0 11309700000.0 11309700000.0 11309700000.0 11309700000.0 11309700000.0 11309700000.0 11309700000.0 11309700000.0 11309700000.0 11309700000.0 11309700000.0 11309700000.0 11309700000.0 11309700000.0 11309700000.0 11309700000.0 11309700000.0 11309700000.0 11309700000.0 11309700000.0 11309700000.0 11309700000.0 11309700000.0 11309700000.0 11309700000.0 11309700000.0 11309700000.0 11309700000.0 11309700000.0 11309700000.0 11309700000.0 11309700000.0 11309700000.0 11309700000.0 11309700000.0 11309700000.0 11309700000.0 11309700000.0 11309700000.0 11309700000.0 11309700000.0 11309700000.0 11309700000.0 11309700000.0 11309700000.0 11309700000.0 11309700000.0 11309700000.0 11309700000.0 11309700000.0 11309700000.0 11309700000.0 11309700000.0 11309700000.0 11309700000.0 11309700000.0 11309700000.0 11309700000.0 11309700000.0 11309700000.0 11309700000.0 11309700000.0 11309700000.0 11309700000.0 11309700000.0 11309700000.0 11309700000.0 11309700000.0 11309700000.0 11309700000.0 11309700000.0 11309700000.0 11309700000.0 11309700000.0 11309700000.0 11309700000.0 11309700000.0 11309700000.0 11309700000.0 11309700000.0 11309700000.0 11309700000.0 11309700000.0 11309700000.0 11309700000.0 11309700000.0 11309700000.0 11309700000.0 11309700000.0 11309700000.0 11309700000.0 11309700000.0 11309700000.0 11309700000.0 11309700000.0 11309700000.0 11309700000.0 11309700000.0 11309700000.0 11309700000.0 11309700000.0 11309700000.0 11309700000.0 11309700000.0 11309700000.0 11309700000.0 11309700000.0 11309700000.0 11309700000.0 11309700000.0 11309700000.0 11309700000.0 11309700000.0 11309700000.0 11309700000.0 11309700000.0 11309700000.0 11309700000.0 11309700000.0 11309700000.0 11309700000.0 11309700000.0 11309700000.0 11309700000.0 11309700000.0 11309700000.0 11309700000.0 11309700000.0 11309700000.0 11309700000.0 11309700000.0 11309700000.0 11309700000.0 11309700000.0 11309700000.0 11309700000.0 11309700000.0 11309700000.0 11309700000.0 11309700000.0 11309700000.0 11309700000.0 11309700000.0 11309700000.0 11309700000.0 11309700000.0 11309700000.0 11309700000.0 11309700000.0 11309700000.0 11309700000.0 11309700000.0 11309700000.0 11309700000.0 11309700000.0 11309700000.0 11309700000.0 11309700000.0 11309700000.0 11309700000.0 11309700000.0 11309700000.0 11309700000.0 11309700000.0 11309700000.0 11309700000.0 11309700000.0 11309700000.0 11309700000.0 11309700000.0 11309700000.0 11309700000.0 11309700000.0 11309700000.0 11309700000.0 11309700000.0 11309700000.0 11309700000.0 11309700000.0 11309700000.0 11309700000.0 11309700000.0 11309700000.0 11309700000.0 11309700000.0 11309700000.0 11309700000.0 11309700000.0 11309700000.0 11309700000.0 11309700000.0 11309700000.0 11309700000.0 11309700000.0 11309700000.0 11309700000.0 11309700000.0 11309700000.0 11309700000.0 11309700000.0 11309700000.0 11309700000.0 11309700000.0 11309700000.0 11309700000.0 11309700000.0 11309700000.0 11309700000.0 11309700000.0 11309700000.0 11309700000.0 11309700000.0 11309700000.0 11309700000.0 11309700000.0 11309700000.0 11309700000.0 11309700000.0 11309700000.0 11309700000.0 11309700000.0 11309700000.0 11309700000.0 11309700000.0 11309700000.0 11309700000.0 11309700000.0 11309700000.0 11309700000.0 11309700000.0 11309700000.0 11309700000.0 11309700000.0 11309700000.0 11309700000.0 11309700000.0 11309700000.0 11309700000.0 11309700000.0 11309700000.0 11309700000.0 11309700000.0 11309700000.0 11309700000.0 11309700000.0 11309700000.0 11309700000.0 11309700000.0 11309700000.0 11309700000.0 11309700000.0 11309700000.0 11309700000.0 11309700000.0 11309700000.0 11309700000.0 11309700000.0 11309700000.0 11309700000.0 11309700000.0 11309700000.0 11309700000.0 11309700000.0 11309700000.0 11309700000.0 11309700000.0 11309700000.0 11309700000.0 11309700000.0 11309700000.0 11309700000.0 11309700000.0 11309700000.0 11309700000.0 11309700000.0 11309700000.0 11309700000.0 11309700000.0 11309700000.0 11309700000.0 11309700000.0 11309700000.0 11309700000.0 11309700000.0 11309700000.0 11309700000.0 11309700000.0 11309700000.0 11309700000.0 11309700000.0 11309700000.0 11309700000.0 11309700000.0 11309700000.0 11309700000.0 11309700000.0 11309700000.0 11309700000.0 11309700000.0 11309700000.0 11309700000.0 11309700000.0 11309700000.0 11309700000.0 11309700000.0 11309700000.0 11309700000.0 11309700000.0 11309700000.0 11309700000.0 11309700000.0 11309700000.0 11309700000.0 11309700000.0 11309700000.0 11309700000.0 11309700000.0 11309700000.0 11309700000.0 11309700000.0 11309700000.0 11309700000.0 11309700000.0 11309700000.0 11309700000.0 11309700000.0 11309700000.0 11309700000.0 11309700000.0 11309700000.0 11309700000.0 11309700000.0 11309700000.0 11309700000.0 11309700000.0 11309700000.0 11309700000.0 11309700000.0 11309700000.0 11309700000.0 11309700000.0 11309700000.0 11309700000.0 11309700000.0 11309700000.0 11309700000.0 11309700000.0 11309700000.0 11309700000.0 11309700000.0 11309700000.0 11309700000.0 11309700000.0 11309700000.0 11309700000.0 11309700000.0 11309700000.0 11309700000.0 11309700000.0 11309700000.0 11309700000.0 11309700000.0 11309700000.0 11309700000.0 11309700000.0 11309700000.0 11309700000.0 11309700000.0 11309700000.0 11309700000.0 11309700000.0 11309700000.0 11309700000.0 11309700000.0 11309700000.0 11309700000.0 11309700000.0 11309700000.0 11309700000.0 11309700000.0 11309700000.0 11309700000.0 11309700000.0 11309700000.0 11309700000.0 11309700000.0 11309700000.0 11309700000.0 11309700000.0 11309700000.0 11309700000.0 11309700000.0 11309700000.0 11309700000.0 11309700000.0 11309700000.0 11309700000.0 11309700000.0 11309700000.0 11309700000.0 11309700000.0 11309700000.0 11309700000.0 11309700000.0 11309700000.0 11309700000.0 11309700000.0 11309700000.0 11309700000.0 11309700000.0 11309700000.0 11309700000.0 11309700000.0 11309700000.0 11309700000.0 11309700000.0 11309700000.0 11309700000.0 11309700000.0 11309700000.0 11309700000.0 11309700000.0 11309700000.0 11309700000.0 11309700000.0 11309700000.0 11309700000.0 11309700000.0 11309700000.0 11309700000.0 11309700000.0 11309700000.0 11309700000.0 11309700000.0 11309700000.0 11309700000.0 11309700000.0 11309700000.0 11309700000.0 11309700000.0 11309700000.0 11309700000.0 11309700000.0 11309700000.0 11309700000.0 11309700000.0 11309700000.0 11309700000.0 11309700000.0 11309700000.0 11309700000.0 11309700000.0 11309700000.0 11309700000.0 11309700000.0 11309700000.0 11309700000.0 11309700000.0 11309700000.0 11309700000.0 11309700000.0 11309700000.0 11309700000.0 11309700000.0 11309700000.0 11309700000.0 11309700000.0 11309700000.0 11309700000.0 11309700000.0 11309700000.0 11309700000.0 11309700000.0 11309700000.0 11309700000.0 11309700000.0 11309700000.0 11309700000.0 11309700000.0 11309700000.0 11309700000.0 11309700000.0 11309700000.0 11309700000.0 11309700000.0 11309700000.0 11309700000.0 11309700000.0 11309700000.0 11309700000.0 11309700000.0 11309700000.0 11309700000.0 11309700000.0 11309700000.0 11309700000.0 11309700000.0 11309700000.0 11309700000.0 11309700000.0 11309700000.0 11309700000.0 11309700000.0 11309700000.0 11309700000.0 11309700000.0 11309700000.0 11309700000.0 11309700000.0 11309700000.0 11309700000.0 11309700000.0 11309700000.0 11309700000.0 11309700000.0 11309700000.0 11309700000.0 11309700000.0 11309700000.0 11309700000.0 11309700000.0 11309700000.0 11309700000.0 11309700000.0 11309700000.0 11309700000.0 11309700000.0 11309700000.0 11309700000.0 11309700000.0 11309700000.0 11309700000.0 11309700000.0 11309700000.0 11309700000.0 11309700000.0 11309700000.0 11309700000.0 11309700000.0 11309700000.0 11309700000.0 11309700000.0 11309700000.0 11309700000.0 11309700000.0 11309700000.0 11309700000.0 11309700000.0 11309700000.0 11309700000.0 11309700000.0 11309700000.0 11309700000.0 11309700000.0 11309700000.0 11309700000.0 11309700000.0 11309700000.0 11309700000.0 11309700000.0 11309700000.0 11309700000.0 11309700000.0 11309700000.0 11309700000.0 11309700000.0 11309700000.0 11309700000.0 11309700000.0 11309700000.0 11309700000.0 11309700000.0 11309700000.0 11309700000.0 11309700000.0 11309700000.0 11309700000.0 11309700000.0 11309700000.0 11309700000.0 11309700000.0 11309700000.0 11309700000.0 11309700000.0 11309700000.0 11309700000.0 11309700000.0 11309700000.0 11309700000.0 11309700000.0 11309700000.0 11309700000.0 11309700000.0 11309700000.0 11309700000.0 11309700000.0 11309700000.0 11309700000.0 11309700000.0 11309700000.0 11309700000.0 11309700000.0 11309700000.0 11309700000.0 11309700000.0 11309700000.0 11309700000.0 11309700000.0 11309700000.0 11309700000.0 11309700000.0 11309700000.0 11309700000.0 11309700000.0 11309700000.0 11309700000.0 11309700000.0 11309700000.0 11309700000.0 11309700000.0 11309700000.0 11309700000.0 11309700000.0 11309700000.0 11309700000.0 11309700000.0 11309700000.0 11309700000.0 11309700000.0 11309700000.0 11309700000.0 11309700000.0 11309700000.0 11309700000.0 11309700000.0 11309700000.0 11309700000.0 11309700000.0 11309700000.0 11309700000.0 11309700000.0 11309700000.0 11309700000.0 11309700000.0 11309700000.0 11309700000.0 11309700000.0 11309700000.0 11309700000.0 11309700000.0 11309700000.0 11309700000.0 11309700000.0 11309700000.0 11309700000.0 11309700000.0 11309700000.0 11309700000.0 11309700000.0 11309700000.0 11309700000.0 11309700000.0 11309700000.0 11309700000.0 11309700000.0 11309700000.0 11309700000.0 11309700000.0 11309700000.0 11309700000.0 11309700000.0 11309700000.0 11309700000.0 11309700000.0 11309700000.0 11309700000.0 11309700000.0 11309700000.0 11309700000.0 11309700000.0 11309700000.0 11309700000.0 11309700000.0 11309700000.0 11309700000.0 11309700000.0 11309700000.0 11309700000.0 11309700000.0 11309700000.0 11309700000.0 11309700000.0 11309700000.0 11309700000.0 11309700000.0 11309700000.0 11309700000.0 11309700000.0 11309700000.0 11309700000.0 11309700000.0 11309700000.0 11309700000.0 11309700000.0 11309700000.0 11309700000.0 11309700000.0 11309700000.0 11309700000.0 11309700000.0 11309700000.0 11309700000.0 11309700000.0 11309700000.0 11309700000.0 11309700000.0 11309700000.0 11309700000.0 11309700000.0 11309700000.0 11309700000.0 11309700000.0 11309700000.0 11309700000.0 11309700000.0 11309700000.0 11309700000.0 11309700000.0 11309700000.0 11309700000.0 11309700000.0 11309700000.0 11309700000.0 11309700000.0 11309700000.0 11309700000.0 11309700000.0 11309700000.0 11309700000.0 11309700000.0 11309700000.0 11309700000.0 11309700000.0 11309700000.0 11309700000.0 11309700000.0 11309700000.0 11309700000.0 11309700000.0 11309700000.0 11309700000.0 11309700000.0 11309700000.0 11309700000.0 11309700000.0 11309700000.0 11309700000.0 11309700000.0 11309700000.0 11309700000.0 11309700000.0 11309700000.0 11309700000.0 11309700000.0 11309700000.0 11309700000.0 11309700000.0 11309700000.0 11309700000.0 11309700000.0 11309700000.0 11309700000.0 11309700000.0 11309700000.0 11309700000.0 11309700000.0 11309700000.0 11309700000.0 11309700000.0 11309700000.0 11309700000.0 11309700000.0 11309700000.0 11309700000.0 11309700000.0 
SCALARS Velocity float 1
LOOKUP_TABLE default
0.786756 0.724444 0.724444 0.786756 0.737514 0.828179 1.28207 1.05123 1.01988 0.811687 1.06671 0.874358 0.918048 0.89396 0.894852 0.894388 0.894186 0.894 0.893922 0.893865 0.893844 0.893836 0.893836 0.893838 0.893839 0.893841 0.893837 0.893846 0.893837 0.893844 0.893837 0.893846 0.893837 0.893841 0.893839 0.893838 0.893836 0.893836 0.893844 0.893865 0.893922 0.894 0.894186 0.894388 0.894852 0.89396 0.918048 0.874358 1.06671 0.811687 1.01988 1.05123 1.28207 0.828179 0.737514 0.694339 0.763365 0.94018 1.15957 1.15957 0.94018 0.763365 0.694339 0.688114 0.687724 0.669899 0.757717 0.686185 1.2279 1.09854 1.01073 0.866236 1.03971 0.874246 0.919427 0.893193 0.894715 0.894292 0.894087 0.893978 0.893899 0.893862 0.893843 0.893837 0.893837 0.893844 0.893839 0.893858 0.893851 0.893852 0.893838 0.893844 0.893838 0.893852 0.893851 0.893858 0.893839 0.893844 0.893837 0.893837 0.893843 0.893862 0.893899 0.893978 0.894087 0.894292 0.894715 0.893193 0.919427 0.874246 1.03971 0.866236 1.01073 1.09854 1.2279 0.686185 0.757717 0.669899 0.687724 0.688114 0.684869 0.67581 0.714428 0.796719 1.22609 1.13719 1.00028 0.881192 0.992455 0.871982 0.926052 0.895132 0.896251 0.895558 0.895001 0.894593 0.894318 0.894108 0.893984 0.893915 0.893878 0.893853 0.89385 0.893834 0.893828 0.893832 0.893835 0.893844 0.893835 0.893832 0.893828 0.893834 0.89385 0.893853 0.893878 0.893915 0.893984 0.894108 0.894318 0.894593 0.895001 0.895558 0.896251 0.895132 0.926052 0.871982 0.992455 0.881192 1.00028 1.13719 1.22609 0.796719 0.714428 0.67581 0.684869 0.669388 0.670785 0.682414 0.691176 0.737189 1.17723 1.15044 0.862656 0.862656 1.15044 1.17723 0.737189 0.691176 0.682414 0.670785 0.669388 0.641634 0.622059 0.659033 0.648523 0.721767 0.96027 1.2053 1.18561 0.828622 0.87605 0.79352 0.821412 0.958593 0.785337 0.935054 0.885547 0.896682 0.89415 0.894026 0.893882 0.893845 0.893863 0.893858 0.89385 0.893843 0.89383 0.893855 0.893841 0.893888 0.893846 0.893858 0.893843 0.893858 0.893846 0.893888 0.893841 0.893855 0.89383 0.893843 0.89385 0.893858 0.893863 0.893845 0.893882 0.894026 0.89415 0.896682 0.885547 0.935054 0.785337 0.958593 0.821412 0.79352 0.87605 0.828622 1.18561 1.2053 0.96027 0.721767 0.648523 0.659033 0.622059 0.641634 0.133263 0.650876 0.618723 0.589542 0.683914 0.656264 0.825645 1.13345 0.827345 0.851029 0.847704 0.935013 0.79587 0.908362 0.719214 0.944493 0.880317 0.897732 0.894408 0.894642 0.894286 0.894053 0.893921 0.893856 0.893842 0.893849 0.893861 0.893868 0.893863 0.893873 0.893845 0.893864 0.893842 0.893864 0.893845 0.893873 0.893863 0.893868 0.893861 0.893849 0.893842 0.893856 0.893921 0.894053 0.894286 0.894642 0.894408 0.897732 0.880317 0.944493 0.719214 0.908362 0.79587 0.935013 0.847704 0.851029 0.827345 1.13345 0.825645 0.656264 0.683914 0.589542 0.618723 0.650876 0.133263 0.098925 0.488352 0.544996 0.603413 0.582352 1.45129 0.716187 0.824703 0.864118 0.864118 0.824703 0.716187 1.45129 0.582352 0.603413 0.544996 0.488352 0.098925 0.10883 0.146709 0.488526 0.460699 0.539752 0.47668 0.397999 1.34302 0.788859 0.849673 0.878274 0.936304 0.813598 0.862011 0.669617 0.950711 0.876295 0.897745 0.892924 0.894287 0.894077 0.89395 0.893862 0.893841 0.893853 0.893873 0.893889 0.893895 0.89389 0.893878 0.893865 0.893855 0.893842 0.893855 0.893865 0.893878 0.89389 0.893895 0.893889 0.893873 0.893853 0.893841 0.893862 0.89395 0.894077 0.894287 0.892924 0.897745 0.876295 0.950711 0.669617 0.862011 0.813598 0.936304 0.878274 0.849673 0.788859 1.34302 0.397999 0.47668 0.539752 0.460699 0.488526 0.146709 0.10883 0.258737 0.209167 0.149484 0.256459 0.469427 0.416574 0.455635 0.419895 1.14419 0.713147 0.825575 0.836588 0.871844 0.938727 0.784266 0.828085 0.674136 0.95786 0.874186 0.898938 0.892945 0.893999 0.893878 0.89386 0.893839 0.893861 0.893897 0.893927 0.893939 0.893935 0.893917 0.893894 0.893871 0.893857 0.893849 0.893857 0.893871 0.893894 0.893917 0.893935 0.893939 0.893927 0.893897 0.893861 0.893839 0.89386 0.893878 0.893999 0.892945 0.898938 0.874186 0.95786 0.674136 0.828085 0.784266 0.938727 0.871844 0.836588 0.825575 0.713147 1.14419 0.419895 0.455635 0.416574 0.469427 0.256459 0.149484 0.209167 0.258737 0.0809985 0.201384 0.461625 0.241197 0.371045 0.423816 0.346346 0.553108 1.24486 0.660821 0.788634 0.866093 0.895481 0.895481 0.866093 0.788634 0.660821 1.24486 0.553108 0.346346 0.423816 0.371045 0.241197 0.461625 0.201384 0.0809985 0.0839029 0.300071 0.208977 0.398562 0.25936 0.37467 0.406089 0.226209 0.748791 0.878139 0.91241 0.950877 0.762518 0.826962 0.686187 0.96277 0.87309 0.900387 0.895311 0.895185 0.893819 0.893885 0.89404 0.894171 0.894238 0.894245 0.894207 0.894137 0.894055 0.893974 0.893908 0.893864 0.893849 0.893864 0.893908 0.893974 0.894055 0.894137 0.894207 0.894245 0.894238 0.894171 0.89404 0.893885 0.893819 0.895185 0.895311 0.900387 0.87309 0.96277 0.686187 0.826962 0.762518 0.950877 0.91241 0.878139 0.748791 0.226209 0.406089 0.37467 0.25936 0.398562 0.208977 0.300071 0.0839029 0.188611 0.174553 0.25333 0.367084 0.680733 0.399197 0.488732 0.306917 0.707369 1.09651 0.702957 0.616181 0.900203 0.775298 0.639755 0.708053 0.989344 0.87595 0.900884 0.894142 0.894673 0.895838 0.895167 0.894574 0.89431 0.894216 0.894164 0.894109 0.894045 0.893981 0.893923 0.893877 0.893848 0.893838 0.893848 0.893877 0.893923 0.893981 0.894045 0.894109 0.894164 0.894216 0.89431 0.894574 0.895167 0.895838 0.894673 0.894142 0.900884 0.87595 0.989344 0.708053 0.639755 0.775298 0.900203 0.616181 0.702957 1.09651 0.707369 0.306917 0.488732 0.399197 0.680733 0.367084 0.25333 0.174553 0.188611 0.107841 0.22191 0.0805555 0.664473 0.818892 0.371793 0.700197 0.439406 0.636873 0.608736 0.910219 0.603788 0.545708 0.925501 0.828423 0.905051 0.746045 0.746045 0.905051 0.828423 0.925501 0.545708 0.603788 0.910219 0.608736 0.636873 0.439406 0.700197 0.371793 0.818892 0.664473 0.0805555 0.22191 0.107841 0.155758 0.338946 0.959363 0.898296 0.398127 0.688702 0.636043 0.868155 0.527324 0.56304 0.833385 0.93685 0.805055 0.755426 0.755778 0.721317 0.910239 0.896738 0.896783 0.895317 0.895053 0.894467 0.893968 0.893845 0.893833 0.893832 0.893832 0.893832 0.893832 0.893832 0.893832 0.893832 0.893832 0.893835 0.893832 0.893832 0.893832 0.893832 0.893832 0.893832 0.893832 0.893832 0.893833 0.893845 0.893968 0.894467 0.895053 0.895317 0.896783 0.896738 0.910239 0.721317 0.755778 0.755426 0.805055 0.93685 0.833385 0.56304 0.527324 0.868155 0.636043 0.688702 0.398127 0.898296 0.959363 0.338946 0.155758 0.394064 0.793979 1.03828 0.789065 0.861224 0.169851 0.416786 0.619486 0.627202 0.627202 0.619486 0.416786 0.169851 0.861224 0.789065 1.03828 0.793979 0.394064 0.49075 0.635598 0.836788 0.873936 1.09222 0.973508 0.728225 0.475605 0.592859 0.612266 0.632029 0.666624 0.858136 0.724295 0.856768 0.911206 0.913431 0.868815 0.784917 0.787355 0.810104 0.934922 0.896211 0.89983 0.898614 0.897977 0.896925 0.896026 0.895447 0.895064 0.894776 0.89454 0.894342 0.894179 0.894051 0.893956 0.89389 0.893853 0.893835 0.893853 0.89389 0.893956 0.894051 0.894179 0.894342 0.89454 0.894776 0.895064 0.895447 0.896026 0.896925 0.897977 0.898614 0.89983 0.896211 0.934922 0.810104 0.787355 0.784917 0.868815 0.913431 0.911206 0.856768 0.724295 0.858136 0.666624 0.632029 0.612266 0.592859 0.475605 0.728225 0.973508 1.09222 0.873936 0.836788 0.635598 0.49075 0.809423 0.606904 0.649476 0.654804 0.688734 0.727869 0.708661 0.865645 0.899967 0.815774 0.87105 0.789176 0.918607 0.896484 0.89657 0.894407 0.893867 0.893833 0.893832 0.893832 0.893832 0.893832 0.893832 0.893832 0.893832 0.893832 0.893832 0.893832 0.893832 0.893832 0.893832 0.893833 0.893832 0.893832 0.893832 0.893832 0.893832 0.893832 0.893832 0.893832 0.893832 0.893832 0.893832 0.893832 0.893832 0.893833 0.893867 0.894407 0.89657 0.896484 0.918607 0.789176 0.87105 0.815774 0.899967 0.865645 0.708661 0.727869 0.688734 0.654804 0.649476 0.606904 0.809423 0.599168 0.896569 0.809446 0.693452 0.833075 0.775854 0.775854 0.833075 0.693452 0.809446 0.896569 0.599168 0.852124 0.92466 0.779899 0.718566 0.540049 0.886601 0.787051 0.329131 0.432518 0.459101 0.505588 0.60086 0.66283 0.766023 0.815413 0.766352 0.833398 0.760188 0.967632 0.883095 0.898027 0.896803 0.896833 0.896479 0.896019 0.895627 0.895314 0.895043 0.894798 0.894579 0.894388 0.894228 0.8941 0.894 0.893925 0.893874 0.893844 0.893833 0.893844 0.893874 0.893925 0.894 0.8941 0.894228 0.894388 0.894579 0.894798 0.895043 0.895314 0.895627 0.896019 0.896479 0.896833 0.896803 0.898027 0.883095 0.967632 0.760188 0.833398 0.766352 0.815413 0.766023 0.66283 0.60086 0.505588 0.459101 0.432518 0.329131 0.787051 0.886601 0.540049 0.718566 0.779899 0.92466 0.852124 0.918162 0.855772 0.705038 0.795612 0.834447 0.719307 0.816016 0.718079 0.378615 0.452745 0.481486 0.586495 0.666564 0.771745 0.926839 0.808916 0.902722 0.806683 0.893832 0.893832 0.893832 0.893832 0.893832 0.893832 0.893832 0.893832 0.893832 0.893832 0.893832 0.893832 0.893832 0.893832 0.893832 0.893832 0.893832 0.893832 0.893832 0.893832 0.893832 0.893832 0.893832 0.893832 0.893832 0.893832 0.893832 0.893832 0.893832 0.893832 0.893832 0.893832 0.893832 0.893832 0.893832 0.893832 0.893832 0.893832 0.893832 0.806683 0.902722 0.808916 0.926839 0.771745 0.666564 0.586495 0.481486 0.452745 0.378615 0.718079 0.816016 0.719307 0.834447 0.795612 0.705038 0.855772 0.918162 0.906966 0.865947 0.794344 0.862744 0.793327 0.691952 0.884453 0.862298 0.584791 0.613649 0.639982 0.769439 0.78891 0.868358 1.02207 0.889979 0.960129 0.844586 0.914157 0.898659 0.897925 0.896802 0.895989 0.895396 0.894955 0.894622 0.894379 0.894207 0.894087 0.894004 0.893946 0.893905 0.893877 0.893858 0.893846 0.893838 0.893834 0.893832 0.893834 0.893838 0.893846 0.893858 0.893877 0.893905 0.893946 0.894004 0.894087 0.894207 0.894379 0.894622 0.894955 0.895396 0.895989 0.896802 0.897925 0.898659 0.914157 0.844586 0.960129 0.889979 1.02207 0.868358 0.78891 0.769439 0.639982 0.613649 0.584791 0.862298 0.884453 0.691952 0.793327 0.862744 0.794344 0.865947 0.906966 0.890574 0.843513 0.895092 0.90599 0.870978 0.824217 0.963442 0.938701 0.69069 0.813223 0.872396 0.847883 0.898808 0.884655 0.897508 0.894372 0.895591 0.845731 0.893899 0.893832 0.893832 0.893832 0.893832 0.893832 0.893832 0.893832 0.893832 0.893832 0.893832 0.893832 0.893832 0.893832 0.893832 0.893832 0.893832 0.893832 0.893832 0.893832 0.893832 0.893832 0.893832 0.893832 0.893832 0.893832 0.893832 0.893832 0.893832 0.893832 0.893832 0.893832 0.893832 0.893832 0.893832 0.893832 0.893832 0.893832 0.893899 0.845731 0.895591 0.894372 0.897508 0.884655 0.898808 0.847883 0.872396 0.813223 0.69069 0.938701 0.963442 0.824217 0.870978 0.90599 0.895092 0.843513 0.890574 0.905434 0.859821 0.921265 0.898799 0.893961 0.866953 0.967098 0.940365 0.751254 0.874919 0.857717 0.865546 0.905693 0.890199 0.901331 0.892776 0.897218 0.851264 0.894768 0.893999 0.893954 0.893917 0.89389 0.89387 0.893857 0.893848 0.893842 0.893838 0.893836 0.893834 0.893834 0.893833 0.893833 0.893832 0.893832 0.893832 0.893832 0.893832 0.893832 0.893832 0.893832 0.893832 0.893833 0.893833 0.893834 0.893834 0.893836 0.893838 0.893842 0.893848 0.893857 0.89387 0.89389 0.893917 0.893954 0.893999 0.894768 0.851264 0.897218 0.892776 0.901331 0.890199 0.905693 0.865546 0.857717 0.874919 0.751254 0.940365 0.967098 0.866953 0.893961 0.898799 0.921265 0.859821 0.905434 0.904361 0.856894 0.920417 0.900228 0.893545 0.883636 0.946333 0.922578 0.783801 0.872304 0.85284 0.873895 0.894188 0.890754 0.893993 0.888183 0.893878 0.858478 0.893832 0.893832 0.893832 0.893832 0.893832 0.893832 0.893832 0.893832 0.893832 0.893832 0.893832 0.893832 0.893832 0.893832 0.893832 0.893832 0.893832 0.893832 0.893832 0.893832 0.893832 0.893832 0.893832 0.893832 0.893832 0.893832 0.893832 0.893832 0.893832 0.893832 0.893832 0.893832 0.893832 0.893832 0.893832 0.893832 0.893832 0.893832 0.893832 0.858478 0.893878 0.888183 0.893993 0.890754 0.894188 0.873895 0.85284 0.872304 0.783801 0.922578 0.946333 0.883636 0.893545 0.900228 0.920417 0.856894 0.904361 0.901814 0.855507 0.915168 0.900059 0.893209 0.902267 0.925489 0.904034 0.805334 0.86964 0.853208 0.880995 0.894274 0.891095 0.894057 0.884321 0.89389 0.866883 0.893835 0.893832 0.893832 0.893832 0.893832 0.893832 0.893832 0.893832 0.893832 0.893832 0.893832 0.893832 0.893832 0.893832 0.893832 0.893832 0.893832 0.893832 0.893832 0.893832 0.893832 0.893832 0.893832 0.893832 0.893832 0.893832 0.893832 0.893832 0.893832 0.893832 0.893832 0.893832 0.893832 0.893832 0.893832 0.893832 0.893832 0.893832 0.893835 0.866883 0.89389 0.884321 0.894057 0.891095 0.894274 0.880995 0.853208 0.86964 0.805334 0.904034 0.925489 0.902267 0.893209 0.900059 0.915168 0.855507 0.901814 0.899462 0.857289 0.909577 0.899662 0.893305 0.908031 0.910277 0.891757 0.824049 0.869841 0.85768 0.887175 0.893833 0.89091 0.893833 0.881801 0.893832 0.874536 0.893832 0.893832 0.893832 0.893832 0.893832 0.893832 0.893832 0.893832 0.893832 0.893832 0.893832 0.893832 0.893832 0.893832 0.893832 0.893832 0.893832 0.893832 0.893832 0.893832 0.893832 0.893832 0.893832 0.893832 0.893832 0.893832 0.893832 0.893832 0.893832 0.893832 0.893832 0.893832 0.893832 0.893832 0.893832 0.893832 0.893832 0.893832 0.893832 0.874536 0.893832 0.881801 0.893833 0.89091 0.893833 0.887175 0.85768 0.869841 0.824049 0.891757 0.910277 0.908031 0.893305 0.899662 0.909577 0.857289 0.899462 0.897417 0.86103 0.904517 0.899178 0.893331 0.907243 0.898475 0.882382 0.840269 0.871516 0.86319 0.891262 0.893833 0.890408 0.893833 0.880679 0.893832 0.880628 0.893832 0.893832 0.893832 0.893832 0.893832 0.893832 0.893832 0.893832 0.893832 0.893832 0.893832 0.893832 0.893832 0.893832 0.893832 0.893832 0.893832 0.893832 0.893832 0.893832 0.893832 0.893832 0.893832 0.893832 0.893832 0.893832 0.893832 0.893832 0.893832 0.893832 0.893832 0.893832 0.893832 0.893832 0.893832 0.893832 0.893832 0.893832 0.893832 0.880628 0.893832 0.880679 0.893833 0.890408 0.893833 0.891262 0.86319 0.871516 0.840269 0.882382 0.898475 0.907243 0.893331 0.899178 0.904517 0.86103 0.897417 0.893368 0.854724 0.868863 0.892735 0.893833 0.88972 0.893833 0.880553 0.893832 0.885082 0.893832 0.893832 0.893832 0.893832 0.893832 0.893832 0.893832 0.893832 0.893832 0.893832 0.893832 0.893832 0.893832 0.893832 0.893832 0.893832 0.893832 0.893832 0.893832 0.893832 0.893832 0.893832 0.893832 0.893832 0.893832 0.893832 0.893832 0.893832 0.893832 0.893832 0.893832 0.893832 0.893832 0.893832 0.893832 0.893832 0.893832 0.893832 0.893832 0.885082 0.893832 0.880553 0.893833 0.88972 0.893833 0.892735 0.868863 0.854724 0.893368 0.895653 0.865678 0.90015 0.898614 0.904978 0.888412 0.875825 0.874261 0.874261 0.875825 0.888412 0.904978 0.898614 0.90015 0.865678 0.895653 0.894145 0.870547 0.896431 0.898032 0.893571 0.902474 0.880183 0.871864 0.865169 0.877552 0.874369 0.892683 0.893833 0.889012 0.893832 0.881072 0.893832 0.888155 0.893832 0.893832 0.893832 0.893832 0.893832 0.893832 0.893832 0.893832 0.893832 0.893832 0.893832 0.893832 0.893832 0.893832 0.893832 0.893832 0.893832 0.893832 0.893832 0.893832 0.893832 0.893832 0.893832 0.893832 0.893832 0.893832 0.893832 0.893832 0.893832 0.893832 0.893832 0.893832 0.893832 0.893832 0.893832 0.893832 0.893832 0.893832 0.893832 0.888155 0.893832 0.881072 0.893832 0.889012 0.893833 0.892683 0.874369 0.877552 0.865169 0.871864 0.880183 0.902474 0.893571 0.898032 0.896431 0.870547 0.894145 0.892907 0.875178 0.893354 0.897431 0.893913 0.899987 0.874272 0.870011 0.870744 0.880808 0.879267 0.892196 0.893833 0.888448 0.893832 0.882001 0.893832 0.890207 0.893832 0.893832 0.893832 0.893832 0.893832 0.893832 0.893832 0.893832 0.893832 0.893832 0.893832 0.893832 0.893832 0.893832 0.893832 0.893832 0.893832 0.893832 0.893832 0.893832 0.893832 0.893832 0.893832 0.893832 0.893832 0.893832 0.893832 0.893832 0.893832 0.893832 0.893832 0.893832 0.893832 0.893832 0.893832 0.893832 0.893832 0.893832 0.893832 0.890207 0.893832 0.882001 0.893832 0.888448 0.893833 0.892196 0.879267 0.880808 0.870744 0.870011 0.874272 0.899987 0.893913 0.897431 0.893354 0.875178 0.892907 0.891929 0.879293 0.890893 0.896821 0.894191 0.897632 0.870673 0.869745 0.873433 0.883656 0.883261 0.891746 0.893833 0.888089 0.893832 0.883165 0.893832 0.891564 0.893832 0.893832 0.893832 0.893832 0.893832 0.893832 0.893832 0.893832 0.893832 0.893832 0.893832 0.893832 0.893832 0.893832 0.893832 0.893832 0.893832 0.893832 0.893832 0.893832 0.893832 0.893832 0.893832 0.893832 0.893832 0.893832 0.893832 0.893832 0.893832 0.893832 0.893832 0.893832 0.893832 0.893832 0.893832 0.893832 0.893832 0.893832 0.893832 0.891564 0.893832 0.883165 0.893832 0.888089 0.893833 0.891746 0.883261 0.883656 0.873433 0.869745 0.870673 0.897632 0.894191 0.896821 0.890893 0.879293 0.891929 0.89117 0.882763 0.889004 0.896213 0.894267 0.895491 0.868978 0.870603 0.87527 0.88594 0.88631 0.891421 0.893833 0.887921 0.893832 0.884423 0.893832 0.892458 0.893832 0.893832 0.893832 0.893832 0.893832 0.893832 0.893832 0.893832 0.893832 0.893832 0.893832 0.893832 0.893832 0.893832 0.893832 0.893832 0.893832 0.893832 0.893832 0.893832 0.893832 0.893832 0.893832 0.893832 0.893832 0.893832 0.893832 0.893832 0.893832 0.893832 0.893832 0.893832 0.893832 0.893832 0.893832 0.893832 0.893832 0.893832 0.893832 0.892458 0.893832 0.884423 0.893832 0.887921 0.893833 0.891421 0.88631 0.88594 0.87527 0.870603 0.868978 0.895491 0.894267 0.896213 0.889004 0.882763 0.89117 0.890586 0.885557 0.887634 0.895619 0.894161 0.893625 0.868699 0.872168 0.877176 0.887635 0.888541 0.891189 0.893833 0.887911 0.893832 0.885674 0.893832 0.893036 0.893832 0.893832 0.893832 0.893832 0.893832 0.893832 0.893832 0.893832 0.893832 0.893832 0.893832 0.893832 0.893832 0.893832 0.893832 0.893832 0.893832 0.893832 0.893832 0.893832 0.893832 0.893832 0.893832 0.893832 0.893832 0.893832 0.893832 0.893832 0.893832 0.893832 0.893832 0.893832 0.893832 0.893832 0.893832 0.893832 0.893832 0.893832 0.893832 0.893036 0.893832 0.885674 0.893832 0.887911 0.893833 0.891189 0.888541 0.887635 0.877176 0.872168 0.868699 0.893625 0.894161 0.895619 0.887634 0.885557 0.890586 0.890147 0.887703 0.886719 0.89505 0.893964 0.892067 0.869424 0.874115 0.879296 0.888799 0.89013 0.89101 0.893832 0.888029 0.893832 0.886858 0.893832 0.893397 0.893832 0.893832 0.893832 0.893832 0.893832 0.893832 0.893832 0.893832 0.893832 0.893832 0.893832 0.893832 0.893832 0.893832 0.893832 0.893832 0.893832 0.893832 0.893832 0.893832 0.893832 0.893832 0.893832 0.893832 0.893832 0.893832 0.893832 0.893832 0.893832 0.893832 0.893832 0.893832 0.893832 0.893832 0.893832 0.893832 0.893832 0.893832 0.893832 0.893397 0.893832 0.886858 0.893832 0.888029 0.893832 0.89101 0.89013 0.888799 0.879296 0.874115 0.869424 0.892067 0.893964 0.89505 0.886719 0.887703 0.890147 0.889827 0.88927 0.886189 0.894514 0.893744 0.890817 0.870822 0.876218 0.881499 0.889534 0.891238 0.890867 0.893832 0.888248 0.893832 0.887943 0.893832 0.893612 0.893832 0.893832 0.893832 0.893832 0.893832 0.893832 0.893832 0.893832 0.893832 0.893832 0.893832 0.893832 0.893832 0.893832 0.893832 0.893832 0.893832 0.893832 0.893832 0.893832 0.893832 0.893832 0.893832 0.893832 0.893832 0.893832 0.893832 0.893832 0.893832 0.893832 0.893832 0.893832 0.893832 0.893832 0.893832 0.893832 0.893832 0.893832 0.893832 0.893612 0.893832 0.887943 0.893832 0.888248 0.893832 0.890867 0.891238 0.889534 0.881499 0.876218 0.870822 0.890817 0.893744 0.894514 0.886189 0.88927 0.889827 0.889609 0.890346 0.885974 0.894019 0.893524 0.88985 0.87263 0.878321 0.883622 0.889951 0.891997 0.890758 0.893832 0.888544 0.893832 0.888915 0.893832 0.893731 0.893832 0.893832 0.893832 0.893832 0.893832 0.893832 0.893832 0.893832 0.893832 0.893832 0.893832 0.893832 0.893832 0.893832 0.893832 0.893832 0.893832 0.893832 0.893832 0.893832 0.893832 0.893832 0.893832 0.893832 0.893832 0.893832 0.893832 0.893832 0.893832 0.893832 0.893832 0.893832 0.893832 0.893832 0.893832 0.893832 0.893832 0.893832 0.893832 0.893731 0.893832 0.888915 0.893832 0.888544 0.893832 0.890758 0.891997 0.889951 0.883622 0.878321 0.87263 0.88985 0.893524 0.894019 0.885974 0.890346 0.889609 0.889477 0.891024 0.886005 0.893571 0.893311 0.889132 0.874642 0.880319 0.885548 0.890149 0.892517 0.890685 0.893832 0.888892 0.893832 0.88977 0.893832 0.893791 0.893832 0.893832 0.893832 0.893832 0.893832 0.893832 0.893832 0.893832 0.893832 0.893832 0.893832 0.893832 0.893832 0.893832 0.893832 0.893832 0.893832 0.893832 0.893832 0.893832 0.893832 0.893832 0.893832 0.893832 0.893832 0.893832 0.893832 0.893832 0.893832 0.893832 0.893832 0.893832 0.893832 0.893832 0.893832 0.893832 0.893832 0.893832 0.893832 0.893791 0.893832 0.88977 0.893832 0.888892 0.893832 0.890685 0.892517 0.890149 0.885548 0.880319 0.874642 0.889132 0.893311 0.893571 0.886005 0.891024 0.889477 0.889414 0.891399 0.886219 0.893172 0.893105 0.88863 0.876709 0.882148 0.887215 0.890215 0.89288 0.890655 0.893832 0.889275 0.893832 0.890511 0.893832 0.893817 0.893832 0.893832 0.893832 0.893832 0.893832 0.893832 0.893832 0.893832 0.893832 0.893832 0.893832 0.893832 0.893832 0.893832 0.893832 0.893832 0.893832 0.893832 0.893832 0.893832 0.893832 0.893832 0.893832 0.893832 0.893832 0.893832 0.893832 0.893832 0.893832 0.893832 0.893832 0.893832 0.893832 0.893832 0.893832 0.893832 0.893832 0.893832 0.893832 0.893817 0.893832 0.890511 0.893832 0.889275 0.893832 0.890655 0.89288 0.890215 0.887215 0.882148 0.876709 0.88863 0.893105 0.893172 0.886219 0.891399 0.889414 0.88941 0.891558 0.886559 0.892825 0.89291 0.888307 0.878725 0.883773 0.888607 0.890216 0.893141 0.890669 0.893832 0.889676 0.893832 0.891145 0.893832 0.893827 0.893832 0.893832 0.893832 0.893832 0.893832 0.893832 0.893832 0.893832 0.893832 0.893832 0.893832 0.893832 0.893832 0.893832 0.893832 0.893832 0.893832 0.893832 0.893832 0.893832 0.893832 0.893832 0.893832 0.893832 0.893832 0.893832 0.893832 0.893832 0.893832 0.893832 0.893832 0.893832 0.893832 0.893832 0.893832 0.893832 0.893832 0.893832 0.893832 0.893827 0.893832 0.891145 0.893832 0.889676 0.893832 0.890669 0.893141 0.890216 0.888607 0.883773 0.878725 0.888307 0.89291 0.892825 0.886559 0.891558 0.88941 0.889452 0.891576 0.886978 0.892528 0.892732 0.888132 0.880624 0.88518 0.889735 0.8902 0.893332 0.890725 0.893832 0.890081 0.893832 0.89168 0.893832 0.893831 0.893832 0.893832 0.893832 0.893832 0.893832 0.893832 0.893832 0.893832 0.893832 0.893832 0.893832 0.893832 0.893832 0.893832 0.893832 0.893832 0.893832 0.893832 0.893832 0.893832 0.893832 0.893832 0.893832 0.893832 0.893832 0.893832 0.893832 0.893832 0.893832 0.893832 0.893832 0.893832 0.893832 0.893832 0.893832 0.893832 0.893832 0.893832 0.893832 0.893831 0.893832 0.89168 0.893832 0.890081 0.893832 0.890725 0.893332 0.8902 0.889735 0.88518 0.880624 0.888132 0.892732 0.892528 0.886978 0.891576 0.889452 0.889533 0.891513 0.887439 0.892281 0.892577 0.888076 0.882366 0.886372 0.890633 0.890195 0.893473 0.89082 0.893832 0.89048 0.893832 0.892128 0.893832 0.893832 0.893832 0.893832 0.893832 0.893832 0.893832 0.893832 0.893832 0.893832 0.893832 0.893832 0.893832 0.893832 0.893832 0.893832 0.893832 0.893832 0.893832 0.893832 0.893832 0.893832 0.893832 0.893832 0.893832 0.893832 0.893832 0.893832 0.893832 0.893832 0.893832 0.893832 0.893832 0.893832 0.893832 0.893832 0.893832 0.893832 0.893832 0.893832 0.893832 0.893832 0.893832 0.892128 0.893832 0.89048 0.893832 0.89082 0.893473 0.890195 0.890633 0.886372 0.882366 0.888076 0.892577 0.892281 0.887439 0.891513 0.889533 0.889642 0.891414 0.887912 0.892081 0.89245 0.888115 0.883934 0.887364 0.891336 0.890218 0.893576 0.890949 0.893832 0.890864 0.893832 0.892497 0.893832 0.893832 0.893832 0.893832 0.893832 0.893832 0.893832 0.893832 0.893832 0.893832 0.893832 0.893832 0.893832 0.893832 0.893832 0.893832 0.893832 0.893832 0.893832 0.893832 0.893832 0.893832 0.893832 0.893832 0.893832 0.893832 0.893832 0.893832 0.893832 0.893832 0.893832 0.893832 0.893832 0.893832 0.893832 0.893832 0.893832 0.893832 0.893832 0.893832 0.893832 0.893832 0.893832 0.892497 0.893832 0.890864 0.893832 0.890949 0.893576 0.890218 0.891336 0.887364 0.883934 0.888115 0.89245 0.892081 0.887912 0.891414 0.889642 0.885325 0.891884 0.893649 0.891104 0.893832 0.891229 0.893832 0.892799 0.893832 0.893832 0.893832 0.893832 0.893832 0.893832 0.893832 0.893832 0.893832 0.893832 0.893832 0.893832 0.893832 0.893832 0.893832 0.893832 0.893832 0.893832 0.893832 0.893832 0.893832 0.893832 0.893832 0.893832 0.893832 0.893832 0.893832 0.893832 0.893832 0.893832 0.893832 0.893832 0.893832 0.893832 0.893832 0.893832 0.893832 0.893832 0.893832 0.893832 0.893832 0.893832 0.893832 0.892799 0.893832 0.891229 0.893832 0.891104 0.893649 0.891884 0.885325 0.889772 0.89131 0.888377 0.891927 0.892353 0.888226 0.888178 0.890272 0.890272 0.888178 0.888226 0.892353 0.891927 0.888377 0.89131 0.889772 0.889917 0.89122 0.888819 0.891813 0.892287 0.888392 0.886546 0.888841 0.892307 0.890357 0.8937 0.89128 0.893832 0.891569 0.893832 0.893043 0.893832 0.893832 0.893832 0.893832 0.893832 0.893832 0.893832 0.893832 0.893832 0.893832 0.893832 0.893832 0.893832 0.893832 0.893832 0.893832 0.893832 0.893832 0.893832 0.893832 0.893832 0.893832 0.893832 0.893832 0.893832 0.893832 0.893832 0.893832 0.893832 0.893832 0.893832 0.893832 0.893832 0.893832 0.893832 0.893832 0.893832 0.893832 0.893832 0.893832 0.893832 0.893832 0.893832 0.893043 0.893832 0.891569 0.893832 0.89128 0.8937 0.890357 0.892307 0.888841 0.886546 0.888392 0.892287 0.891813 0.888819 0.89122 0.889917 0.890071 0.891154 0.889231 0.891737 0.892249 0.8886 0.887608 0.889381 0.892635 0.890472 0.893734 0.891469 0.893832 0.891882 0.893832 0.893236 0.893832 0.893832 0.893832 0.893832 0.893832 0.893832 0.893832 0.893832 0.893832 0.893832 0.893832 0.893832 0.893832 0.893832 0.893832 0.893832 0.893832 0.893832 0.893832 0.893832 0.893832 0.893832 0.893832 0.893832 0.893832 0.893832 0.893832 0.893832 0.893832 0.893832 0.893832 0.893832 0.893832 0.893832 0.893832 0.893832 0.893832 0.893832 0.893832 0.893832 0.893832 0.893832 0.893832 0.893236 0.893832 0.891882 0.893832 0.891469 0.893734 0.890472 0.892635 0.889381 0.887608 0.8886 0.892249 0.891737 0.889231 0.891154 0.890071 0.890229 0.891116 0.889608 0.891694 0.892238 0.888837 0.888528 0.889823 0.892889 0.890612 0.893756 0.891665 0.893832 0.892167 0.893832 0.893389 0.893832 0.893832 0.893832 0.893832 0.893832 0.893832 0.893832 0.893832 0.893832 0.893832 0.893832 0.893832 0.893832 0.893832 0.893832 0.893832 0.893832 0.893832 0.893832 0.893832 0.893832 0.893832 0.893832 0.893832 0.893832 0.893832 0.893832 0.893832 0.893832 0.893832 0.893832 0.893832 0.893832 0.893832 0.893832 0.893832 0.893832 0.893832 0.893832 0.893832 0.893832 0.893832 0.893832 0.893389 0.893832 0.892167 0.893832 0.891665 0.893756 0.890612 0.892889 0.889823 0.888528 0.888837 0.892238 0.891694 0.889608 0.891116 0.890229 0.890387 0.891107 0.889952 0.89168 0.892248 0.889094 0.889321 0.890191 0.893087 0.890773 0.893771 0.891863 0.893832 0.892422 0.893832 0.893506 0.893832 0.893832 0.893832 0.893832 0.893832 0.893832 0.893832 0.893832 0.893832 0.893832 0.893832 0.893832 0.893832 0.893832 0.893832 0.893832 0.893832 0.893832 0.893832 0.893832 0.893832 0.893832 0.893832 0.893832 0.893832 0.893832 0.893832 0.893832 0.893832 0.893832 0.893832 0.893832 0.893832 0.893832 0.893832 0.893832 0.893832 0.893832 0.893832 0.893832 0.893832 0.893832 0.893832 0.893506 0.893832 0.892422 0.893832 0.891863 0.893771 0.890773 0.893087 0.890191 0.889321 0.889094 0.892248 0.89168 0.889952 0.891107 0.890387 0.890543 0.891122 0.890263 0.891691 0.892278 0.889364 0.890003 0.890502 0.893241 0.890951 0.89378 0.892059 0.893832 0.892649 0.893832 0.893596 0.893832 0.893832 0.893832 0.893832 0.893832 0.893832 0.893832 0.893832 0.893832 0.893832 0.893832 0.893832 0.893832 0.893832 0.893832 0.893832 0.893832 0.893832 0.893832 0.893832 0.893832 0.893832 0.893832 0.893832 0.893832 0.893832 0.893832 0.893832 0.893832 0.893832 0.893832 0.893832 0.893832 0.893832 0.893832 0.893832 0.893832 0.893832 0.893832 0.893832 0.893832 0.893832 0.893832 0.893596 0.893832 0.892649 0.893832 0.892059 0.89378 0.890951 0.893241 0.890502 0.890003 0.889364 0.892278 0.891691 0.890263 0.891122 0.890543 0.890694 0.891159 0.890543 0.891723 0.892323 0.889641 0.890589 0.890773 0.893361 0.891141 0.893785 0.892248 0.893832 0.892849 0.893832 0.893664 0.893832 0.893832 0.893832 0.893832 0.893832 0.893832 0.893832 0.893832 0.893832 0.893832 0.893832 0.893832 0.893832 0.893832 0.893832 0.893832 0.893832 0.893832 0.893832 0.893832 0.893832 0.893832 0.893832 0.893832 0.893832 0.893832 0.893832 0.893832 0.893832 0.893832 0.893832 0.893832 0.893832 0.893832 0.893832 0.893832 0.893832 0.893832 0.893832 0.893832 0.893832 0.893832 0.893832 0.893664 0.893832 0.892849 0.893832 0.892248 0.893785 0.891141 0.893361 0.890773 0.890589 0.889641 0.892323 0.891723 0.890543 0.891159 0.890694 0.890839 0.891213 0.890796 0.891772 0.89238 0.889919 0.891091 0.891014 0.893456 0.891337 0.89379 0.892428 0.893832 0.893022 0.893832 0.893713 0.893832 0.893832 0.893832 0.893832 0.893832 0.893832 0.893832 0.893832 0.893832 0.893832 0.893832 0.893832 0.893832 0.893832 0.893832 0.893832 0.893832 0.893832 0.893832 0.893832 0.893832 0.893832 0.893832 0.893832 0.893832 0.893832 0.893832 0.893832 0.893832 0.893832 0.893832 0.893832 0.893832 0.893832 0.893832 0.893832 0.893832 0.893832 0.893832 0.893832 0.893832 0.893832 0.893832 0.893713 0.893832 0.893022 0.893832 0.892428 0.89379 0.891337 0.893456 0.891014 0.891091 0.889919 0.89238 0.891772 0.890796 0.891213 0.890839 0.890977 0.89128 0.891025 0.891835 0.892447 0.890194 0.89152 0.891234 0.89353 0.891537 0.893793 0.892598 0.893832 0.89317 0.893832 0.89375 0.893832 0.893832 0.893832 0.893832 0.893832 0.893832 0.893832 0.893832 0.893832 0.893832 0.893832 0.893832 0.893832 0.893832 0.893832 0.893832 0.893832 0.893832 0.893832 0.893832 0.893832 0.893832 0.893832 0.893832 0.893832 0.893832 0.893832 0.893832 0.893832 0.893832 0.893832 0.893832 0.893832 0.893832 0.893832 0.893832 0.893832 0.893832 0.893832 0.893832 0.893832 0.893832 0.893832 0.89375 0.893832 0.89317 0.893832 0.892598 0.893793 0.891537 0.89353 0.891234 0.89152 0.890194 0.892447 0.891835 0.891025 0.89128 0.890977 0.891109 0.891357 0.891233 0.891908 0.89252 0.890463 0.891888 0.891438 0.893588 0.891736 0.893796 0.892755 0.893832 0.893297 0.893832 0.893776 0.893832 0.893832 0.893832 0.893832 0.893832 0.893832 0.893832 0.893832 0.893832 0.893832 0.893832 0.893832 0.893832 0.893832 0.893832 0.893832 0.893832 0.893832 0.893832 0.893832 0.893832 0.893832 0.893832 0.893832 0.893832 0.893832 0.893832 0.893832 0.893832 0.893832 0.893832 0.893832 0.893832 0.893832 0.893832 0.893832 0.893832 0.893832 0.893832 0.893832 0.893832 0.893832 0.893832 0.893776 0.893832 0.893297 0.893832 0.892755 0.893796 0.891736 0.893588 0.891438 0.891888 0.890463 0.89252 0.891908 0.891233 0.891357 0.891109 0.891234 0.891441 0.891422 0.891988 0.892596 0.890725 0.892201 0.89163 0.893634 0.891931 0.893799 0.892899 0.893832 0.893403 0.893832 0.893794 0.893832 0.893832 0.893832 0.893832 0.893832 0.893832 0.893832 0.893832 0.893832 0.893832 0.893832 0.893832 0.893832 0.893832 0.893832 0.893832 0.893832 0.893832 0.893832 0.893832 0.893832 0.893832 0.893832 0.893832 0.893832 0.893832 0.893832 0.893832 0.893832 0.893832 0.893832 0.893832 0.893832 0.893832 0.893832 0.893832 0.893832 0.893832 0.893832 0.893832 0.893832 0.893832 0.893832 0.893794 0.893832 0.893403 0.893832 0.892899 0.893799 0.891931 0.893634 0.89163 0.892201 0.890725 0.892596 0.891988 0.891422 0.891441 0.891234 0.891351 0.891529 0.891593 0.892072 0.892675 0.890975 0.892468 0.891811 0.89367 0.892119 0.893802 0.89303 0.893832 0.893491 0.893832 0.893807 0.893832 0.893832 0.893832 0.893832 0.893832 0.893832 0.893832 0.893832 0.893832 0.893832 0.893832 0.893832 0.893832 0.893832 0.893832 0.893832 0.893832 0.893832 0.893832 0.893832 0.893832 0.893832 0.893832 0.893832 0.893832 0.893832 0.893832 0.893832 0.893832 0.893832 0.893832 0.893832 0.893832 0.893832 0.893832 0.893832 0.893832 0.893832 0.893832 0.893832 0.893832 0.893832 0.893832 0.893807 0.893832 0.893491 0.893832 0.89303 0.893802 0.892119 0.89367 0.891811 0.892468 0.890975 0.892675 0.892072 0.891593 0.891529 0.891351 0.891462 0.891618 0.89175 0.892159 0.892754 0.891214 0.892695 0.891982 0.893699 0.892298 0.893805 0.893147 0.893832 0.893563 0.893832 0.893815 0.893832 0.893832 0.893832 0.893832 0.893832 0.893832 0.893832 0.893832 0.893832 0.893832 0.893832 0.893832 0.893832 0.893832 0.893832 0.893832 0.893832 0.893832 0.893832 0.893832 0.893832 0.893832 0.893832 0.893832 0.893832 0.893832 0.893832 0.893832 0.893832 0.893832 0.893832 0.893832 0.893832 0.893832 0.893832 0.893832 0.893832 0.893832 0.893832 0.893832 0.893832 0.893832 0.893832 0.893815 0.893832 0.893563 0.893832 0.893147 0.893805 0.892298 0.893699 0.891982 0.892695 0.891214 0.892754 0.892159 0.89175 0.891618 0.891462 0.891565 0.891707 0.891893 0.892246 0.892831 0.891439 0.892887 0.892144 0.893722 0.892466 0.893808 0.893251 0.893832 0.893622 0.893832 0.893821 0.893832 0.893832 0.893832 0.893832 0.893832 0.893832 0.893832 0.893832 0.893832 0.893832 0.893832 0.893832 0.893832 0.893832 0.893832 0.893832 0.893832 0.893832 0.893832 0.893832 0.893832 0.893832 0.893832 0.893832 0.893832 0.893832 0.893832 0.893832 0.893832 0.893832 0.893832 0.893832 0.893832 0.893832 0.893832 0.893832 0.893832 0.893832 0.893832 0.893832 0.893832 0.893832 0.893832 0.893821 0.893832 0.893622 0.893832 0.893251 0.893808 0.892466 0.893722 0.892144 0.892887 0.891439 0.892831 0.892246 0.891893 0.891707 0.891565 0.891661 0.891794 0.892023 0.892331 0.892906 0.89165 0.893049 0.892295 0.893741 0.892622 0.893811 0.893342 0.893832 0.893669 0.893832 0.893825 0.893832 0.893832 0.893832 0.893832 0.893832 0.893832 0.893832 0.893832 0.893832 0.893832 0.893832 0.893832 0.893832 0.893832 0.893832 0.893832 0.893832 0.893832 0.893832 0.893832 0.893832 0.893832 0.893832 0.893832 0.893832 0.893832 0.893832 0.893832 0.893832 0.893832 0.893832 0.893832 0.893832 0.893832 0.893832 0.893832 0.893832 0.893832 0.893832 0.893832 0.893832 0.893832 0.893832 0.893825 0.893832 0.893669 0.893832 0.893342 0.893811 0.892622 0.893741 0.892295 0.893049 0.89165 0.892906 0.892331 0.892023 0.891794 0.891661 0.89175 0.891878 0.892141 0.892413 0.892976 0.891845 0.893184 0.892435 0.893755 0.892765 0.893813 0.893422 0.893832 0.893707 0.893832 0.893828 0.893832 0.893832 0.893832 0.893832 0.893832 0.893832 0.893832 0.893832 0.893832 0.893832 0.893832 0.893832 0.893832 0.893832 0.893832 0.893832 0.893832 0.893832 0.893832 0.893832 0.893832 0.893832 0.893832 0.893832 0.893832 0.893832 0.893832 0.893832 0.893832 0.893832 0.893832 0.893832 0.893832 0.893832 0.893832 0.893832 0.893832 0.893832 0.893832 0.893832 0.893832 0.893832 0.893832 0.893828 0.893832 0.893707 0.893832 0.893422 0.893813 0.892765 0.893755 0.892435 0.893184 0.891845 0.892976 0.892413 0.892141 0.891878 0.89175 0.891832 0.891957 0.892248 0.89249 0.893042 0.892024 0.893297 0.892565 0.893767 0.892895 0.893815 0.893491 0.893832 0.893737 0.893832 0.893829 0.893832 0.893832 0.893832 0.893832 0.893832 0.893832 0.893832 0.893832 0.893832 0.893832 0.893832 0.893832 0.893832 0.893832 0.893832 0.893832 0.893832 0.893832 0.893832 0.893832 0.893832 0.893832 0.893832 0.893832 0.893832 0.893832 0.893832 0.893832 0.893832 0.893832 0.893832 0.893832 0.893832 0.893832 0.893832 0.893832 0.893832 0.893832 0.893832 0.893832 0.893832 0.893832 0.893832 0.893829 0.893832 0.893737 0.893832 0.893491 0.893815 0.892895 0.893767 0.892565 0.893297 0.892024 0.893042 0.89249 0.892248 0.891957 0.891832 0.891906 0.89203 0.892343 0.892562 0.893103 0.892186 0.893391 0.892682 0.893777 0.893011 0.893818 0.893549 0.893832 0.89376 0.893832 0.89383 0.893832 0.893832 0.893832 0.893832 0.893832 0.893832 0.893832 0.893832 0.893832 0.893832 0.893832 0.893832 0.893832 0.893832 0.893832 0.893832 0.893832 0.893832 0.893832 0.893832 0.893832 0.893832 0.893832 0.893832 0.893832 0.893832 0.893832 0.893832 0.893832 0.893832 0.893832 0.893832 0.893832 0.893832 0.893832 0.893832 0.893832 0.893832 0.893832 0.893832 0.893832 0.893832 0.893832 0.89383 0.893832 0.89376 0.893832 0.893549 0.893818 0.893011 0.893777 0.892682 0.893391 0.892186 0.893103 0.892562 0.892343 0.89203 0.891906 0.891973 0.892096 0.892428 0.892628 0.893158 0.89233 0.893468 0.892787 0.893785 0.893113 0.893819 0.893599 0.893832 0.893778 0.893832 0.893831 0.893832 0.893832 0.893832 0.893832 0.893832 0.893832 0.893832 0.893832 0.893832 0.893832 0.893832 0.893832 0.893832 0.893832 0.893832 0.893832 0.893832 0.893832 0.893832 0.893832 0.893832 0.893832 0.893832 0.893832 0.893832 0.893832 0.893832 0.893832 0.893832 0.893832 0.893832 0.893832 0.893832 0.893832 0.893832 0.893832 0.893832 0.893832 0.893832 0.893832 0.893832 0.893832 0.893832 0.893831 0.893832 0.893778 0.893832 0.893599 0.893819 0.893113 0.893785 0.892787 0.893468 0.89233 0.893158 0.892628 0.892428 0.892096 0.891973 0.892031 0.892156 0.892503 0.892687 0.893207 0.892457 0.893531 0.89288 0.893791 0.893201 0.893821 0.89364 0.893832 0.893792 0.893832 0.893832 0.893832 0.893832 0.893832 0.893832 0.893832 0.893832 0.893832 0.893832 0.893832 0.893832 0.893832 0.893832 0.893832 0.893832 0.893832 0.893832 0.893832 0.893832 0.893832 0.893832 0.893832 0.893832 0.893832 0.893832 0.893832 0.893832 0.893832 0.893832 0.893832 0.893832 0.893832 0.893832 0.893832 0.893832 0.893832 0.893832 0.893832 0.893832 0.893832 0.893832 0.893832 0.893832 0.893832 0.893832 0.893832 0.893792 0.893832 0.89364 0.893821 0.893201 0.893791 0.89288 0.893531 0.892457 0.893207 0.892687 0.892503 0.892156 0.892031 0.892082 0.892208 0.892566 0.892738 0.893249 0.892566 0.893581 0.892959 0.893797 0.893276 0.893823 0.893673 0.893832 0.893802 0.893832 0.893832 0.893832 0.893832 0.893832 0.893832 0.893832 0.893832 0.893832 0.893832 0.893832 0.893832 0.893832 0.893832 0.893832 0.893832 0.893832 0.893832 0.893832 0.893832 0.893832 0.893832 0.893832 0.893832 0.893832 0.893832 0.893832 0.893832 0.893832 0.893832 0.893832 0.893832 0.893832 0.893832 0.893832 0.893832 0.893832 0.893832 0.893832 0.893832 0.893832 0.893832 0.893832 0.893832 0.893832 0.893832 0.893832 0.893802 0.893832 0.893673 0.893823 0.893276 0.893797 0.892959 0.893581 0.892566 0.893249 0.892738 0.892566 0.892208 0.892082 0.892125 0.892251 0.892619 0.892781 0.893284 0.892658 0.893621 0.893026 0.893801 0.893338 0.893824 0.8937 0.893832 0.89381 0.893832 0.893832 0.893832 0.893832 0.893832 0.893832 0.893832 0.893832 0.893832 0.893832 0.893832 0.893832 0.893832 0.893832 0.893832 0.893832 0.893832 0.893832 0.893832 0.893832 0.893832 0.893832 0.893832 0.893832 0.893832 0.893832 0.893832 0.893832 0.893832 0.893832 0.893832 0.893832 0.893832 0.893832 0.893832 0.893832 0.893832 0.893832 0.893832 0.893832 0.893832 0.893832 0.893832 0.893832 0.893832 0.893832 0.893832 0.89381 0.893832 0.8937 0.893824 0.893338 0.893801 0.893026 0.893621 0.892658 0.893284 0.892781 0.892619 0.892251 0.892125 0.892159 0.892287 0.892662 0.892816 0.893313 0.892731 0.893651 0.893079 0.893804 0.893387 0.893825 0.89372 0.893832 0.893815 0.893832 0.893832 0.893832 0.893832 0.893832 0.893832 0.893832 0.893832 0.893832 0.893832 0.893832 0.893832 0.893832 0.893832 0.893832 0.893832 0.893832 0.893832 0.893832 0.893832 0.893832 0.893832 0.893832 0.893832 0.893832 0.893832 0.893832 0.893832 0.893832 0.893832 0.893832 0.893832 0.893832 0.893832 0.893832 0.893832 0.893832 0.893832 0.893832 0.893832 0.893832 0.893832 0.893832 0.893832 0.893832 0.893832 0.893832 0.893815 0.893832 0.89372 0.893825 0.893387 0.893804 0.893079 0.893651 0.892731 0.893313 0.892816 0.892662 0.892287 0.892159 0.892185 0.892313 0.892694 0.892842 0.893334 0.892785 0.893673 0.893119 0.893806 0.893423 0.893825 0.893735 0.893832 0.893819 0.893832 0.893832 0.893832 0.893832 0.893832 0.893832 0.893832 0.893832 0.893832 0.893832 0.893832 0.893832 0.893832 0.893832 0.893832 0.893832 0.893832 0.893832 0.893832 0.893832 0.893832 0.893832 0.893832 0.893832 0.893832 0.893832 0.893832 0.893832 0.893832 0.893832 0.893832 0.893832 0.893832 0.893832 0.893832 0.893832 0.893832 0.893832 0.893832 0.893832 0.893832 0.893832 0.893832 0.893832 0.893832 0.893832 0.893832 0.893819 0.893832 0.893735 0.893825 0.893423 0.893806 0.893119 0.893673 0.892785 0.893334 0.892842 0.892694 0.892313 0.892185 0.892202 0.892331 0.892715 0.89286 0.893349 0.892822 0.893687 0.893146 0.893808 0.893448 0.893826 0.893745 0.893832 0.893822 0.893832 0.893832 0.893832 0.893832 0.893832 0.893832 0.893832 0.893832 0.893832 0.893832 0.893832 0.893832 0.893832 0.893832 0.893832 0.893832 0.893832 0.893832 0.893832 0.893832 0.893832 0.893832 0.893832 0.893832 0.893832 0.893832 0.893832 0.893832 0.893832 0.893832 0.893832 0.893832 0.893832 0.893832 0.893832 0.893832 0.893832 0.893832 0.893832 0.893832 0.893832 0.893832 0.893832 0.893832 0.893832 0.893832 0.893832 0.893822 0.893832 0.893745 0.893826 0.893448 0.893808 0.893146 0.893687 0.892822 0.893349 0.89286 0.892715 0.892331 0.892202 0.892211 0.89234 0.892726 0.892869 0.893356 0.89284 0.893693 0.893159 0.893808 0.89346 0.893826 0.893749 0.893832 0.893823 0.893832 0.893832 0.893832 0.893832 0.893832 0.893832 0.893832 0.893832 0.893832 0.893832 0.893832 0.893832 0.893832 0.893832 0.893832 0.893832 0.893832 0.893832 0.893832 0.893832 0.893832 0.893832 0.893832 0.893832 0.893832 0.893832 0.893832 0.893832 0.893832 0.893832 0.893832 0.893832 0.893832 0.893832 0.893832 0.893832 0.893832 0.893832 0.893832 0.893832 0.893832 0.893832 0.893832 0.893832 0.893832 0.893832 0.893832 0.893823 0.893832 0.893749 0.893826 0.89346 0.893808 0.893159 0.893693 0.89284 0.893356 0.892869 0.892726 0.89234 0.892211 
SCALARS Axial_Stress float 1
LOOKUP_TABLE default
-879981000000.0 -376675000000.0 -376675000000.0 -879981000000.0 -1.16362e+12 -364300000000.0 -207115000000.0 -177705000000.0 -87241200000.0 -57769200000.0 -97183100000.0 -80406500000.0 -101574000000.0 -111730000000.0 -125002000000.0 -136413000000.0 -145587000000.0 -152537000000.0 -157651000000.0 -161258000000.0 -163587000000.0 -164892000000.0 -165453000000.0 -165513000000.0 -165252000000.0 -164812000000.0 -164324000000.0 -163899000000.0 -163607000000.0 -163502000000.0 -163607000000.0 -163899000000.0 -164324000000.0 -164812000000.0 -165252000000.0 -165513000000.0 -165453000000.0 -164892000000.0 -163587000000.0 -161258000000.0 -157651000000.0 -152537000000.0 -145587000000.0 -136413000000.0 -125002000000.0 -111730000000.0 -101574000000.0 -80406500000.0 -97183100000.0 -57769200000.0 -87241200000.0 -177705000000.0 -207115000000.0 -364300000000.0 -1.16362e+12 -1.0291e+12 -935255000000.0 -802681000000.0 -230952000000.0 -230952000000.0 -802681000000.0 -935255000000.0 -1.0291e+12 -1.16525e+12 -1.11407e+12 -1.79755e+12 -1.43641e+12 -986710000000.0 -1.13756e+12 -175456000000.0 -94668600000.0 -91597100000.0 -155439000000.0 -100011000000.0 -130232000000.0 -133649000000.0 -146981000000.0 -157434000000.0 -165420000000.0 -171404000000.0 -175773000000.0 -178821000000.0 -180784000000.0 -181870000000.0 -182268000000.0 -182138000000.0 -181640000000.0 -180947000000.0 -180224000000.0 -179591000000.0 -179167000000.0 -179014000000.0 -179167000000.0 -179591000000.0 -180224000000.0 -180947000000.0 -181640000000.0 -182138000000.0 -182268000000.0 -181870000000.0 -180784000000.0 -178821000000.0 -175773000000.0 -171404000000.0 -165420000000.0 -157434000000.0 -146981000000.0 -133649000000.0 -130232000000.0 -100011000000.0 -155439000000.0 -91597100000.0 -94668600000.0 -175456000000.0 -1.13756e+12 -986710000000.0 -1.43641e+12 -1.79755e+12 -1.11407e+12 -1.16525e+12 -1.1841e+12 -1.93592e+12 -1.6127e+12 -1.23828e+12 -1.34783e+12 -908497000000.0 -71523800000.0 -118124000000.0 -172014000000.0 -61244200000.0 -91369600000.0 -83701400000.0 -102749000000.0 -120687000000.0 -136304000000.0 -149214000000.0 -159700000000.0 -168091000000.0 -174490000000.0 -179179000000.0 -182617000000.0 -185102000000.0 -186765000000.0 -187738000000.0 -188212000000.0 -188382000000.0 -188432000000.0 -188439000000.0 -188432000000.0 -188382000000.0 -188212000000.0 -187738000000.0 -186765000000.0 -185102000000.0 -182617000000.0 -179179000000.0 -174490000000.0 -168091000000.0 -159700000000.0 -149214000000.0 -136304000000.0 -120687000000.0 -102749000000.0 -83701400000.0 -91369600000.0 -61244200000.0 -172014000000.0 -118124000000.0 -71523800000.0 -908497000000.0 -1.34783e+12 -1.23828e+12 -1.6127e+12 -1.93592e+12 -1.1841e+12 -1.19997e+12 -2.03217e+12 -1.77984e+12 -1.70833e+12 -1.55678e+12 -1.48552e+12 -1.12695e+12 -858880000000.0 -858880000000.0 -1.12695e+12 -1.48552e+12 -1.55678e+12 -1.70833e+12 -1.77984e+12 -2.03217e+12 -1.19997e+12 -1.21194e+12 -2.20487e+12 -2.13961e+12 -1.95246e+12 -1.38435e+12 -1.51442e+12 -1.39015e+12 -1.27695e+12 -822368000000.0 -761790000000.0 -577390000000.0 -590847000000.0 -258926000000.0 -194309000000.0 -232926000000.0 -202753000000.0 -210306000000.0 -221540000000.0 -231594000000.0 -238475000000.0 -242468000000.0 -243688000000.0 -243227000000.0 -242562000000.0 -241939000000.0 -241157000000.0 -240610000000.0 -240819000000.0 -241761000000.0 -242958000000.0 -243893000000.0 -244239000000.0 -243893000000.0 -242958000000.0 -241761000000.0 -240819000000.0 -240610000000.0 -241157000000.0 -241939000000.0 -242562000000.0 -243227000000.0 -243688000000.0 -242468000000.0 -238475000000.0 -231594000000.0 -221540000000.0 -210306000000.0 -202753000000.0 -232926000000.0 -194309000000.0 -258926000000.0 -590847000000.0 -577390000000.0 -761790000000.0 -822368000000.0 -1.27695e+12 -1.39015e+12 -1.51442e+12 -1.38435e+12 -1.95246e+12 -2.13961e+12 -2.20487e+12 -1.21194e+12 -872177000000.0 -1.22657e+12 -2.23286e+12 -2.03985e+12 -1.76546e+12 -1.60752e+12 -1.61559e+12 -1.4264e+12 -775593000000.0 -819663000000.0 -786466000000.0 -471849000000.0 -582673000000.0 -328814000000.0 -247403000000.0 -275637000000.0 -231222000000.0 -224644000000.0 -230259000000.0 -240959000000.0 -250690000000.0 -258378000000.0 -264030000000.0 -267738000000.0 -269705000000.0 -270276000000.0 -269866000000.0 -268871000000.0 -267624000000.0 -266391000000.0 -265372000000.0 -264710000000.0 -264484000000.0 -264710000000.0 -265372000000.0 -266391000000.0 -267624000000.0 -268871000000.0 -269866000000.0 -270276000000.0 -269705000000.0 -267738000000.0 -264030000000.0 -258378000000.0 -250690000000.0 -240959000000.0 -230259000000.0 -224644000000.0 -231222000000.0 -275637000000.0 -247403000000.0 -328814000000.0 -582673000000.0 -471849000000.0 -786466000000.0 -819663000000.0 -775593000000.0 -1.4264e+12 -1.61559e+12 -1.60752e+12 -1.76546e+12 -2.03985e+12 -2.23286e+12 -1.22657e+12 -872177000000.0 -864528000000.0 -2.06456e+12 -2.04322e+12 -1.92339e+12 -1.88946e+12 -907973000000.0 -677329000000.0 -798932000000.0 -698366000000.0 -698366000000.0 -798932000000.0 -677329000000.0 -907973000000.0 -1.88946e+12 -1.92339e+12 -2.04322e+12 -2.06456e+12 -864528000000.0 -815639000000.0 -1.69389e+12 -1.97406e+12 -1.88233e+12 -1.92656e+12 -1.82041e+12 -1.81592e+12 -759661000000.0 -722487000000.0 -754673000000.0 -672109000000.0 -506825000000.0 -582972000000.0 -421764000000.0 -285613000000.0 -305677000000.0 -268367000000.0 -259579000000.0 -250371000000.0 -249265000000.0 -253881000000.0 -259392000000.0 -263406000000.0 -265513000000.0 -266003000000.0 -265310000000.0 -263841000000.0 -261944000000.0 -259931000000.0 -258071000000.0 -256583000000.0 -255630000000.0 -255304000000.0 -255630000000.0 -256583000000.0 -258071000000.0 -259931000000.0 -261944000000.0 -263841000000.0 -265310000000.0 -266003000000.0 -265513000000.0 -263406000000.0 -259392000000.0 -253881000000.0 -249265000000.0 -250371000000.0 -259579000000.0 -268367000000.0 -305677000000.0 -285613000000.0 -421764000000.0 -582972000000.0 -506825000000.0 -672109000000.0 -754673000000.0 -722487000000.0 -759661000000.0 -1.81592e+12 -1.82041e+12 -1.92656e+12 -1.88233e+12 -1.97406e+12 -1.69389e+12 -815639000000.0 -789081000000.0 -1.42861e+12 -1.59141e+12 -1.56299e+12 -1.9136e+12 -1.86048e+12 -1.8126e+12 -1.70399e+12 -1.63651e+12 -682017000000.0 -914681000000.0 -810907000000.0 -756760000000.0 -566414000000.0 -630865000000.0 -472168000000.0 -332422000000.0 -321115000000.0 -281551000000.0 -275610000000.0 -267899000000.0 -261269000000.0 -259732000000.0 -261178000000.0 -262602000000.0 -262756000000.0 -261564000000.0 -259356000000.0 -256541000000.0 -253506000000.0 -250584000000.0 -248043000000.0 -246087000000.0 -244859000000.0 -244442000000.0 -244859000000.0 -246087000000.0 -248043000000.0 -250584000000.0 -253506000000.0 -256541000000.0 -259356000000.0 -261564000000.0 -262756000000.0 -262602000000.0 -261178000000.0 -259732000000.0 -261269000000.0 -267899000000.0 -275610000000.0 -281551000000.0 -321115000000.0 -332422000000.0 -472168000000.0 -630865000000.0 -566414000000.0 -756760000000.0 -810907000000.0 -914681000000.0 -682017000000.0 -1.63651e+12 -1.70399e+12 -1.8126e+12 -1.86048e+12 -1.9136e+12 -1.56299e+12 -1.59141e+12 -1.42861e+12 -789081000000.0 -481067000000.0 -683309000000.0 -1.24454e+12 -1.3999e+12 -1.70966e+12 -1.79896e+12 -1.65912e+12 -1.2358e+12 -248858000000.0 -1.47692e+12 -680666000000.0 -672838000000.0 -653886000000.0 -653886000000.0 -672838000000.0 -680666000000.0 -1.47692e+12 -248858000000.0 -1.2358e+12 -1.65912e+12 -1.79896e+12 -1.70966e+12 -1.3999e+12 -1.24454e+12 -683309000000.0 -481067000000.0 -364943000000.0 -612880000000.0 -1.16919e+12 -1.47249e+12 -1.45981e+12 -1.69997e+12 -1.92649e+12 -2.17437e+12 -488090000000.0 -373827000000.0 -579805000000.0 -624636000000.0 -812169000000.0 -493293000000.0 -411747000000.0 -350010000000.0 -316876000000.0 -301557000000.0 -283467000000.0 -270662000000.0 -265941000000.0 -264988000000.0 -262607000000.0 -257982000000.0 -251899000000.0 -245179000000.0 -238410000000.0 -232029000000.0 -226382000000.0 -221731000000.0 -218268000000.0 -216134000000.0 -215413000000.0 -216134000000.0 -218268000000.0 -221731000000.0 -226382000000.0 -232029000000.0 -238410000000.0 -245179000000.0 -251899000000.0 -257982000000.0 -262607000000.0 -264988000000.0 -265941000000.0 -270662000000.0 -283467000000.0 -301557000000.0 -316876000000.0 -350010000000.0 -411747000000.0 -493293000000.0 -812169000000.0 -624636000000.0 -579805000000.0 -373827000000.0 -488090000000.0 -2.17437e+12 -1.92649e+12 -1.69997e+12 -1.45981e+12 -1.47249e+12 -1.16919e+12 -612880000000.0 -364943000000.0 -816023000000.0 -1.01128e+12 -850427000000.0 -1.15085e+12 -1.44529e+12 -1.66152e+12 -1.5587e+12 -1.70689e+12 -2.56328e+12 -1.07521e+12 -557095000000.0 -1.05561e+12 -598363000000.0 -492082000000.0 -440957000000.0 -433999000000.0 -348317000000.0 -316380000000.0 -291190000000.0 -267404000000.0 -250209000000.0 -233812000000.0 -216995000000.0 -202426000000.0 -191663000000.0 -183485000000.0 -176483000000.0 -170116000000.0 -164392000000.0 -159462000000.0 -155466000000.0 -152514000000.0 -150697000000.0 -150083000000.0 -150697000000.0 -152514000000.0 -155466000000.0 -159462000000.0 -164392000000.0 -170116000000.0 -176483000000.0 -183485000000.0 -191663000000.0 -202426000000.0 -216995000000.0 -233812000000.0 -250209000000.0 -267404000000.0 -291190000000.0 -316380000000.0 -348317000000.0 -433999000000.0 -440957000000.0 -492082000000.0 -598363000000.0 -1.05561e+12 -557095000000.0 -1.07521e+12 -2.56328e+12 -1.70689e+12 -1.5587e+12 -1.66152e+12 -1.44529e+12 -1.15085e+12 -850427000000.0 -1.01128e+12 -816023000000.0 -292871000000.0 -535360000000.0 -839310000000.0 -465520000000.0 -473881000000.0 -1.24673e+12 -1.38184e+12 -2.3251e+12 -590212000000.0 -1.8697e+12 -906820000000.0 -706508000000.0 -846276000000.0 -500814000000.0 -690537000000.0 -700361000000.0 -661482000000.0 -661482000000.0 -700361000000.0 -690537000000.0 -500814000000.0 -846276000000.0 -706508000000.0 -906820000000.0 -1.8697e+12 -590212000000.0 -2.3251e+12 -1.38184e+12 -1.24673e+12 -473881000000.0 -465520000000.0 -839310000000.0 -535360000000.0 -292871000000.0 -94254100000.0 -597915000000.0 -199209000000.0 -313002000000.0 -1.21159e+12 -1.88184e+12 -1.31323e+12 -641169000000.0 -575747000000.0 -389657000000.0 -358636000000.0 -219425000000.0 -359889000000.0 -148650000000.0 -337204000000.0 -176619000000.0 -117684000000.0 -98751600000.0 -79617200000.0 -59463600000.0 -44779100000.0 -31084800000.0 -19374600000.0 -12876000000.0 -10513700000.0 -9927100000.0 -9834080000.0 -9841070000.0 -9865270000.0 -9879250000.0 -9881920000.0 -9898370000.0 -9933000000.0 -9952790000.0 -9933000000.0 -9898370000.0 -9881920000.0 -9879250000.0 -9865270000.0 -9841070000.0 -9834080000.0 -9927100000.0 -10513700000.0 -12876000000.0 -19374600000.0 -31084800000.0 -44779100000.0 -59463600000.0 -79617200000.0 -98751600000.0 -117684000000.0 -176619000000.0 -337204000000.0 -148650000000.0 -359889000000.0 -219425000000.0 -358636000000.0 -389657000000.0 -575747000000.0 -641169000000.0 -1.31323e+12 -1.88184e+12 -1.21159e+12 -313002000000.0 -199209000000.0 -597915000000.0 -94254100000.0 -804251000000.0 -276888000000.0 -187084000000.0 -625962000000.0 -677193000000.0 -1.98372e+12 -729725000000.0 -1.53048e+12 -770600000000.0 -770600000000.0 -1.53048e+12 -729725000000.0 -1.98372e+12 -677193000000.0 -625962000000.0 -187084000000.0 -276888000000.0 -804251000000.0 -285560000000.0 -368849000000.0 -309544000000.0 -11098900000.0 -644443000000.0 -202819000000.0 -987311000000.0 -1.26531e+12 -611704000000.0 -1.07477e+12 -1.00221e+12 -1.27159e+12 -836324000000.0 -754053000000.0 -687046000000.0 -734525000000.0 -514763000000.0 -537116000000.0 -558498000000.0 -560176000000.0 -457038000000.0 -424920000000.0 -389991000000.0 -359099000000.0 -332088000000.0 -307098000000.0 -283390000000.0 -262489000000.0 -244932000000.0 -230066000000.0 -217225000000.0 -206072000000.0 -196477000000.0 -188407000000.0 -181857000000.0 -176808000000.0 -173227000000.0 -171087000000.0 -170374000000.0 -171087000000.0 -173227000000.0 -176808000000.0 -181857000000.0 -188407000000.0 -196477000000.0 -206072000000.0 -217225000000.0 -230066000000.0 -244932000000.0 -262489000000.0 -283390000000.0 -307098000000.0 -332088000000.0 -359099000000.0 -389991000000.0 -424920000000.0 -457038000000.0 -560176000000.0 -558498000000.0 -537116000000.0 -514763000000.0 -734525000000.0 -687046000000.0 -754053000000.0 -836324000000.0 -1.27159e+12 -1.00221e+12 -1.07477e+12 -611704000000.0 -1.26531e+12 -987311000000.0 -202819000000.0 -644443000000.0 -11098900000.0 -309544000000.0 -368849000000.0 -285560000000.0 -37414900000.0 -930987000000.0 -948234000000.0 -957762000000.0 -816834000000.0 -725901000000.0 -695155000000.0 -406973000000.0 -492022000000.0 -265643000000.0 -378033000000.0 -309932000000.0 -95639500000.0 -70335500000.0 -51068000000.0 -28128700000.0 -14252000000.0 -9945870000.0 -9144680000.0 -9045220000.0 -9036380000.0 -9035790000.0 -9035750000.0 -9035750000.0 -9035750000.0 -9035750000.0 -9035750000.0 -9035750000.0 -9035750000.0 -9035750000.0 -9035750000.0 -9035920000.0 -9035750000.0 -9035750000.0 -9035750000.0 -9035750000.0 -9035750000.0 -9035750000.0 -9035750000.0 -9035750000.0 -9035750000.0 -9035790000.0 -9036380000.0 -9045220000.0 -9144680000.0 -9945870000.0 -14252000000.0 -28128700000.0 -51068000000.0 -70335500000.0 -95639500000.0 -309932000000.0 -378033000000.0 -265643000000.0 -492022000000.0 -406973000000.0 -695155000000.0 -725901000000.0 -816834000000.0 -957762000000.0 -948234000000.0 -930987000000.0 -37414900000.0 -155630000000.0 -9091170000.0 -320002000000.0 -771410000000.0 -472784000000.0 -500464000000.0 -500464000000.0 -472784000000.0 -771410000000.0 -320002000000.0 -9091170000.0 -155630000000.0 -115541000000.0 -138254000000.0 -444312000000.0 -412174000000.0 -457129000000.0 -83222800000.0 -507862000000.0 -644219000000.0 -449102000000.0 -516184000000.0 -494350000000.0 -454195000000.0 -306475000000.0 -266113000000.0 -293367000000.0 -303749000000.0 -323580000000.0 -433065000000.0 -315873000000.0 -298680000000.0 -282182000000.0 -263119000000.0 -243143000000.0 -223050000000.0 -203882000000.0 -186381000000.0 -170581000000.0 -156273000000.0 -143358000000.0 -131837000000.0 -121731000000.0 -113057000000.0 -105802000000.0 -99931800000.0 -95407300000.0 -92197300000.0 -90280500000.0 -89643400000.0 -90280500000.0 -92197300000.0 -95407300000.0 -99931800000.0 -105802000000.0 -113057000000.0 -121731000000.0 -131837000000.0 -143358000000.0 -156273000000.0 -170581000000.0 -186381000000.0 -203882000000.0 -223050000000.0 -243143000000.0 -263119000000.0 -282182000000.0 -298680000000.0 -315873000000.0 -433065000000.0 -323580000000.0 -303749000000.0 -293367000000.0 -266113000000.0 -306475000000.0 -454195000000.0 -494350000000.0 -516184000000.0 -449102000000.0 -644219000000.0 -507862000000.0 -83222800000.0 -457129000000.0 -412174000000.0 -444312000000.0 -138254000000.0 -115541000000.0 -50873000000.0 -15173000000.0 -327091000000.0 -38127900000.0 -92040000000.0 -211420000000.0 -116739000000.0 -393541000000.0 -438783000000.0 -412835000000.0 -387462000000.0 -215867000000.0 -225530000000.0 -75301800000.0 -49082100000.0 -63718800000.0 -21764900000.0 -136625000000.0 -9035750000.0 -9035750000.0 -9035750000.0 -9035750000.0 -9035750000.0 -9035750000.0 -9035750000.0 -9035750000.0 -9035750000.0 -9035750000.0 -9035750000.0 -9035750000.0 -9035750000.0 -9035750000.0 -9035750000.0 -9035750000.0 -9035750000.0 -9035750000.0 -9035750000.0 -9035750000.0 -9035750000.0 -9035750000.0 -9035750000.0 -9035750000.0 -9035750000.0 -9035750000.0 -9035750000.0 -9035750000.0 -9035750000.0 -9035750000.0 -9035750000.0 -9035750000.0 -9035750000.0 -9035750000.0 -9035750000.0 -9035750000.0 -9035750000.0 -9035750000.0 -9035750000.0 -136625000000.0 -21764900000.0 -63718800000.0 -49082100000.0 -75301800000.0 -225530000000.0 -215867000000.0 -387462000000.0 -412835000000.0 -438783000000.0 -393541000000.0 -116739000000.0 -211420000000.0 -92040000000.0 -38127900000.0 -327091000000.0 -15173000000.0 -50873000000.0 -89928300000.0 -256461000000.0 -64224500000.0 -31160700000.0 -70460100000.0 -150976000000.0 -20168200000.0 -343301000000.0 -422768000000.0 -462484000000.0 -595956000000.0 -561196000000.0 -510448000000.0 -439614000000.0 -377978000000.0 -363971000000.0 -286759000000.0 -345918000000.0 -226888000000.0 -193904000000.0 -165777000000.0 -141517000000.0 -120746000000.0 -103016000000.0 -87879600000.0 -75004900000.0 -64163000000.0 -55125500000.0 -47642100000.0 -41478600000.0 -36436400000.0 -32352100000.0 -29096700000.0 -26569500000.0 -24690700000.0 -23396000000.0 -22638400000.0 -22389000000.0 -22638400000.0 -23396000000.0 -24690700000.0 -26569500000.0 -29096700000.0 -32352100000.0 -36436400000.0 -41478600000.0 -47642100000.0 -55125500000.0 -64163000000.0 -75004900000.0 -87879600000.0 -103016000000.0 -120746000000.0 -141517000000.0 -165777000000.0 -193904000000.0 -226888000000.0 -345918000000.0 -286759000000.0 -363971000000.0 -377978000000.0 -439614000000.0 -510448000000.0 -561196000000.0 -595956000000.0 -462484000000.0 -422768000000.0 -343301000000.0 -20168200000.0 -150976000000.0 -70460100000.0 -31160700000.0 -64224500000.0 -256461000000.0 -89928300000.0 -55339500000.0 -193039000000.0 -47581700000.0 -62915400000.0 -111800000000.0 -153490000000.0 -110793000000.0 -137453000000.0 -384363000000.0 -193584000000.0 -147556000000.0 -79358200000.0 -12752100000.0 -54385700000.0 -12289400000.0 -69061600000.0 -11851600000.0 -91274500000.0 -9080160000.0 -9035750000.0 -9035750000.0 -9035750000.0 -9035750000.0 -9035750000.0 -9035750000.0 -9035750000.0 -9035750000.0 -9035750000.0 -9035750000.0 -9035750000.0 -9035750000.0 -9035750000.0 -9035750000.0 -9035750000.0 -9035750000.0 -9035750000.0 -9035750000.0 -9035750000.0 -9035750000.0 -9035750000.0 -9035750000.0 -9035750000.0 -9035750000.0 -9035750000.0 -9035750000.0 -9035750000.0 -9035750000.0 -9035750000.0 -9035750000.0 -9035750000.0 -9035750000.0 -9035750000.0 -9035750000.0 -9035750000.0 -9035750000.0 -9035750000.0 -9080160000.0 -91274500000.0 -11851600000.0 -69061600000.0 -12289400000.0 -54385700000.0 -12752100000.0 -79358200000.0 -147556000000.0 -193584000000.0 -384363000000.0 -137453000000.0 -110793000000.0 -153490000000.0 -111800000000.0 -62915400000.0 -47581700000.0 -193039000000.0 -55339500000.0 -41694600000.0 -168976000000.0 -48064700000.0 -21497500000.0 -27983500000.0 -48283800000.0 -77289100000.0 -118733000000.0 -336906000000.0 -217625000000.0 -227392000000.0 -164960000000.0 -100249000000.0 -127799000000.0 -74502800000.0 -121978000000.0 -55500100000.0 -110061000000.0 -42113300000.0 -36170900000.0 -31139400000.0 -26880400000.0 -23312000000.0 -20358600000.0 -17947700000.0 -16002800000.0 -14447400000.0 -13212800000.0 -12239700000.0 -11478800000.0 -10889600000.0 -10439300000.0 -10100600000.0 -9851230000.0 -9673840000.0 -9555650000.0 -9487970000.0 -9465930000.0 -9487970000.0 -9555650000.0 -9673840000.0 -9851230000.0 -10100600000.0 -10439300000.0 -10889600000.0 -11478800000.0 -12239700000.0 -13212800000.0 -14447400000.0 -16002800000.0 -17947700000.0 -20358600000.0 -23312000000.0 -26880400000.0 -31139400000.0 -36170900000.0 -42113300000.0 -110061000000.0 -55500100000.0 -121978000000.0 -74502800000.0 -127799000000.0 -100249000000.0 -164960000000.0 -227392000000.0 -217625000000.0 -336906000000.0 -118733000000.0 -77289100000.0 -48283800000.0 -27983500000.0 -21497500000.0 -48064700000.0 -168976000000.0 -41694600000.0 -48110700000.0 -144758000000.0 -41640800000.0 -19235200000.0 -36391400000.0 -55480500000.0 -127649000000.0 -152196000000.0 -237369000000.0 -107513000000.0 -104508000000.0 -53126900000.0 -9450760000.0 -52277000000.0 -9370810000.0 -68295200000.0 -9190710000.0 -55574000000.0 -9035930000.0 -9035780000.0 -9035780000.0 -9035780000.0 -9035770000.0 -9035770000.0 -9035770000.0 -9035780000.0 -9035800000.0 -9035810000.0 -9035800000.0 -9035790000.0 -9035780000.0 -9035770000.0 -9035760000.0 -9035760000.0 -9035760000.0 -9035750000.0 -9035750000.0 -9035750000.0 -9035750000.0 -9035750000.0 -9035760000.0 -9035760000.0 -9035760000.0 -9035770000.0 -9035780000.0 -9035790000.0 -9035800000.0 -9035810000.0 -9035800000.0 -9035780000.0 -9035770000.0 -9035770000.0 -9035770000.0 -9035780000.0 -9035780000.0 -9035780000.0 -9035930000.0 -55574000000.0 -9190710000.0 -68295200000.0 -9370810000.0 -52277000000.0 -9450760000.0 -53126900000.0 -104508000000.0 -107513000000.0 -237369000000.0 -152196000000.0 -127649000000.0 -55480500000.0 -36391400000.0 -19235200000.0 -41640800000.0 -144758000000.0 -48110700000.0 -50287900000.0 -128507000000.0 -50282800000.0 -15581900000.0 -24630200000.0 -34302600000.0 -126358000000.0 -140572000000.0 -190369000000.0 -109592000000.0 -98353500000.0 -53679200000.0 -15070800000.0 -54869000000.0 -12468300000.0 -67706000000.0 -10698700000.0 -42946900000.0 -9385250000.0 -9075190000.0 -9037650000.0 -9035860000.0 -9035810000.0 -9035800000.0 -9035800000.0 -9035820000.0 -9035820000.0 -9035810000.0 -9035800000.0 -9035790000.0 -9035780000.0 -9035770000.0 -9035760000.0 -9035760000.0 -9035760000.0 -9035750000.0 -9035750000.0 -9035750000.0 -9035750000.0 -9035750000.0 -9035760000.0 -9035760000.0 -9035760000.0 -9035770000.0 -9035780000.0 -9035790000.0 -9035800000.0 -9035810000.0 -9035820000.0 -9035820000.0 -9035800000.0 -9035800000.0 -9035810000.0 -9035860000.0 -9037650000.0 -9075190000.0 -9385250000.0 -42946900000.0 -10698700000.0 -67706000000.0 -12468300000.0 -54869000000.0 -15070800000.0 -53679200000.0 -98353500000.0 -109592000000.0 -190369000000.0 -140572000000.0 -126358000000.0 -34302600000.0 -24630200000.0 -15581900000.0 -50282800000.0 -128507000000.0 -50287900000.0 -53513800000.0 -113689000000.0 -58259000000.0 -18371700000.0 -25868800000.0 -38959600000.0 -138308000000.0 -139681000000.0 -148371000000.0 -89759200000.0 -72871300000.0 -40555800000.0 -9035890000.0 -49275700000.0 -9035830000.0 -61245800000.0 -9035810000.0 -31404700000.0 -9035830000.0 -9035890000.0 -9035870000.0 -9035850000.0 -9035840000.0 -9035830000.0 -9035830000.0 -9035830000.0 -9035820000.0 -9035810000.0 -9035790000.0 -9035780000.0 -9035770000.0 -9035770000.0 -9035760000.0 -9035760000.0 -9035760000.0 -9035750000.0 -9035750000.0 -9035750000.0 -9035750000.0 -9035750000.0 -9035760000.0 -9035760000.0 -9035760000.0 -9035770000.0 -9035770000.0 -9035780000.0 -9035790000.0 -9035810000.0 -9035820000.0 -9035830000.0 -9035830000.0 -9035830000.0 -9035840000.0 -9035850000.0 -9035870000.0 -9035890000.0 -9035830000.0 -31404700000.0 -9035810000.0 -61245800000.0 -9035830000.0 -49275700000.0 -9035890000.0 -40555800000.0 -72871300000.0 -89759200000.0 -148371000000.0 -139681000000.0 -138308000000.0 -38959600000.0 -25868800000.0 -18371700000.0 -58259000000.0 -113689000000.0 -53513800000.0 -55409100000.0 -98731800000.0 -63003600000.0 -19117400000.0 -23543500000.0 -41889800000.0 -141799000000.0 -138237000000.0 -122613000000.0 -80713600000.0 -58884600000.0 -37562700000.0 -9036140000.0 -47801500000.0 -9035980000.0 -56238900000.0 -9035910000.0 -23766900000.0 -9035940000.0 -9035940000.0 -9035910000.0 -9035880000.0 -9035870000.0 -9035860000.0 -9035850000.0 -9035830000.0 -9035820000.0 -9035800000.0 -9035790000.0 -9035780000.0 -9035770000.0 -9035770000.0 -9035760000.0 -9035760000.0 -9035760000.0 -9035750000.0 -9035750000.0 -9035750000.0 -9035750000.0 -9035750000.0 -9035760000.0 -9035760000.0 -9035760000.0 -9035770000.0 -9035770000.0 -9035780000.0 -9035790000.0 -9035800000.0 -9035820000.0 -9035830000.0 -9035850000.0 -9035860000.0 -9035870000.0 -9035880000.0 -9035910000.0 -9035940000.0 -9035940000.0 -23766900000.0 -9035910000.0 -56238900000.0 -9035980000.0 -47801500000.0 -9036140000.0 -37562700000.0 -58884600000.0 -80713600000.0 -122613000000.0 -138237000000.0 -141799000000.0 -41889800000.0 -23543500000.0 -19117400000.0 -63003600000.0 -98731800000.0 -55409100000.0 -23413300000.0 -100135000000.0 -47002600000.0 -36172300000.0 -9036380000.0 -46148000000.0 -9036120000.0 -50831100000.0 -9036000000.0 -18482000000.0 -9035990000.0 -9035980000.0 -9035940000.0 -9035910000.0 -9035890000.0 -9035870000.0 -9035850000.0 -9035830000.0 -9035810000.0 -9035800000.0 -9035790000.0 -9035780000.0 -9035770000.0 -9035770000.0 -9035760000.0 -9035760000.0 -9035760000.0 -9035750000.0 -9035750000.0 -9035750000.0 -9035750000.0 -9035750000.0 -9035760000.0 -9035760000.0 -9035760000.0 -9035770000.0 -9035770000.0 -9035780000.0 -9035790000.0 -9035800000.0 -9035810000.0 -9035830000.0 -9035850000.0 -9035870000.0 -9035890000.0 -9035910000.0 -9035940000.0 -9035980000.0 -9035990000.0 -18482000000.0 -9036000000.0 -50831100000.0 -9036120000.0 -46148000000.0 -9036380000.0 -36172300000.0 -47002600000.0 -100135000000.0 -23413300000.0 -56665000000.0 -85976700000.0 -66890600000.0 -21310000000.0 -47114600000.0 -142140000000.0 -131988000000.0 -71736200000.0 -71736200000.0 -131988000000.0 -142140000000.0 -47114600000.0 -21310000000.0 -66890600000.0 -85976700000.0 -56665000000.0 -57215900000.0 -74996200000.0 -69021700000.0 -23253800000.0 -23294500000.0 -51325800000.0 -138897000000.0 -124359000000.0 -83910900000.0 -64090700000.0 -37269100000.0 -35492100000.0 -9036610000.0 -44255700000.0 -9036250000.0 -45407700000.0 -9036080000.0 -14955500000.0 -9036030000.0 -9036010000.0 -9035960000.0 -9035930000.0 -9035900000.0 -9035870000.0 -9035850000.0 -9035830000.0 -9035810000.0 -9035790000.0 -9035780000.0 -9035780000.0 -9035770000.0 -9035770000.0 -9035760000.0 -9035760000.0 -9035760000.0 -9035750000.0 -9035750000.0 -9035750000.0 -9035750000.0 -9035750000.0 -9035760000.0 -9035760000.0 -9035760000.0 -9035770000.0 -9035770000.0 -9035780000.0 -9035780000.0 -9035790000.0 -9035810000.0 -9035830000.0 -9035850000.0 -9035870000.0 -9035900000.0 -9035930000.0 -9035960000.0 -9036010000.0 -9036030000.0 -14955500000.0 -9036080000.0 -45407700000.0 -9036250000.0 -44255700000.0 -9036610000.0 -35492100000.0 -37269100000.0 -64090700000.0 -83910900000.0 -124359000000.0 -138897000000.0 -51325800000.0 -23294500000.0 -23253800000.0 -69021700000.0 -74996200000.0 -57215900000.0 -57168200000.0 -65879600000.0 -69680000000.0 -24940600000.0 -23216800000.0 -54548500000.0 -132713000000.0 -115288000000.0 -71790200000.0 -57665800000.0 -29612000000.0 -34883900000.0 -9036830000.0 -42115400000.0 -9036370000.0 -40217800000.0 -9036150000.0 -12661000000.0 -9036060000.0 -9036030000.0 -9035980000.0 -9035940000.0 -9035900000.0 -9035870000.0 -9035840000.0 -9035820000.0 -9035810000.0 -9035790000.0 -9035780000.0 -9035780000.0 -9035770000.0 -9035770000.0 -9035760000.0 -9035760000.0 -9035760000.0 -9035750000.0 -9035750000.0 -9035750000.0 -9035750000.0 -9035750000.0 -9035760000.0 -9035760000.0 -9035760000.0 -9035770000.0 -9035770000.0 -9035780000.0 -9035780000.0 -9035790000.0 -9035810000.0 -9035820000.0 -9035840000.0 -9035870000.0 -9035900000.0 -9035940000.0 -9035980000.0 -9036030000.0 -9036060000.0 -12661000000.0 -9036150000.0 -40217800000.0 -9036370000.0 -42115400000.0 -9036830000.0 -34883900000.0 -29612000000.0 -57665800000.0 -71790200000.0 -115288000000.0 -132713000000.0 -54548500000.0 -23216800000.0 -24940600000.0 -69680000000.0 -65879600000.0 -57168200000.0 -56627500000.0 -58542300000.0 -69135000000.0 -26366800000.0 -23230100000.0 -56755200000.0 -124399000000.0 -105586000000.0 -62171400000.0 -52460500000.0 -23826200000.0 -34113100000.0 -9037030000.0 -39774800000.0 -9036480000.0 -35416000000.0 -9036200000.0 -11194400000.0 -9036090000.0 -9036050000.0 -9035990000.0 -9035940000.0 -9035900000.0 -9035870000.0 -9035840000.0 -9035820000.0 -9035810000.0 -9035790000.0 -9035790000.0 -9035780000.0 -9035770000.0 -9035770000.0 -9035760000.0 -9035760000.0 -9035760000.0 -9035750000.0 -9035750000.0 -9035750000.0 -9035750000.0 -9035750000.0 -9035760000.0 -9035760000.0 -9035760000.0 -9035770000.0 -9035770000.0 -9035780000.0 -9035790000.0 -9035790000.0 -9035810000.0 -9035820000.0 -9035840000.0 -9035870000.0 -9035900000.0 -9035940000.0 -9035990000.0 -9036050000.0 -9036090000.0 -11194400000.0 -9036200000.0 -35416000000.0 -9036480000.0 -39774800000.0 -9037030000.0 -34113100000.0 -23826200000.0 -52460500000.0 -62171400000.0 -105586000000.0 -124399000000.0 -56755200000.0 -23230100000.0 -26366800000.0 -69135000000.0 -58542300000.0 -56627500000.0 -55696600000.0 -52790600000.0 -67639900000.0 -27531300000.0 -23330700000.0 -58014700000.0 -114791000000.0 -95833400000.0 -53871800000.0 -48331600000.0 -19592600000.0 -33164000000.0 -9037220000.0 -37310400000.0 -9036580000.0 -31090400000.0 -9036250000.0 -10274800000.0 -9036110000.0 -9036050000.0 -9035990000.0 -9035940000.0 -9035900000.0 -9035870000.0 -9035840000.0 -9035820000.0 -9035810000.0 -9035800000.0 -9035790000.0 -9035780000.0 -9035770000.0 -9035770000.0 -9035760000.0 -9035760000.0 -9035760000.0 -9035750000.0 -9035750000.0 -9035750000.0 -9035750000.0 -9035750000.0 -9035760000.0 -9035760000.0 -9035760000.0 -9035770000.0 -9035770000.0 -9035780000.0 -9035790000.0 -9035800000.0 -9035810000.0 -9035820000.0 -9035840000.0 -9035870000.0 -9035900000.0 -9035940000.0 -9035990000.0 -9036050000.0 -9036110000.0 -10274800000.0 -9036250000.0 -31090400000.0 -9036580000.0 -37310400000.0 -9037220000.0 -33164000000.0 -19592600000.0 -48331600000.0 -53871800000.0 -95833400000.0 -114791000000.0 -58014700000.0 -23330700000.0 -27531300000.0 -67639900000.0 -52790600000.0 -55696600000.0 -54464400000.0 -48377300000.0 -65425600000.0 -28437900000.0 -23457400000.0 -58422600000.0 -104600000000.0 -86450300000.0 -46426900000.0 -45072200000.0 -16561100000.0 -32079600000.0 -9037380000.0 -34797100000.0 -9036670000.0 -27276700000.0 -9036290000.0 -9714430000.0 -9036120000.0 -9036060000.0 -9035990000.0 -9035940000.0 -9035900000.0 -9035870000.0 -9035840000.0 -9035820000.0 -9035810000.0 -9035800000.0 -9035790000.0 -9035780000.0 -9035770000.0 -9035770000.0 -9035760000.0 -9035760000.0 -9035760000.0 -9035750000.0 -9035750000.0 -9035750000.0 -9035750000.0 -9035750000.0 -9035760000.0 -9035760000.0 -9035760000.0 -9035770000.0 -9035770000.0 -9035780000.0 -9035790000.0 -9035800000.0 -9035810000.0 -9035820000.0 -9035840000.0 -9035870000.0 -9035900000.0 -9035940000.0 -9035990000.0 -9036060000.0 -9036120000.0 -9714430000.0 -9036290000.0 -27276700000.0 -9036670000.0 -34797100000.0 -9037380000.0 -32079600000.0 -16561100000.0 -45072200000.0 -46426900000.0 -86450300000.0 -104600000000.0 -58422600000.0 -23457400000.0 -28437900000.0 -65425600000.0 -48377300000.0 -54464400000.0 -53003200000.0 -45041200000.0 -62698000000.0 -29094800000.0 -23542300000.0 -58093600000.0 -94360100000.0 -77704600000.0 -39781400000.0 -42463300000.0 -14417800000.0 -30899500000.0 -9037520000.0 -32297500000.0 -9036740000.0 -23971900000.0 -9036330000.0 -9386510000.0 -9036130000.0 -9036060000.0 -9035990000.0 -9035940000.0 -9035900000.0 -9035870000.0 -9035840000.0 -9035820000.0 -9035810000.0 -9035800000.0 -9035790000.0 -9035780000.0 -9035770000.0 -9035770000.0 -9035760000.0 -9035760000.0 -9035760000.0 -9035750000.0 -9035750000.0 -9035750000.0 -9035750000.0 -9035750000.0 -9035760000.0 -9035760000.0 -9035760000.0 -9035770000.0 -9035770000.0 -9035780000.0 -9035790000.0 -9035800000.0 -9035810000.0 -9035820000.0 -9035840000.0 -9035870000.0 -9035900000.0 -9035940000.0 -9035990000.0 -9036060000.0 -9036130000.0 -9386510000.0 -9036330000.0 -23971900000.0 -9036740000.0 -32297500000.0 -9037520000.0 -30899500000.0 -14417800000.0 -42463300000.0 -39781400000.0 -77704600000.0 -94360100000.0 -58093600000.0 -23542300000.0 -29094800000.0 -62698000000.0 -45041200000.0 -53003200000.0 -51371500000.0 -42531900000.0 -59635700000.0 -29514300000.0 -23545600000.0 -57152600000.0 -84447900000.0 -69741500000.0 -33985300000.0 -40305300000.0 -12912500000.0 -29649500000.0 -9037640000.0 -29861400000.0 -9036800000.0 -21148600000.0 -9036360000.0 -9204480000.0 -9036140000.0 -9036060000.0 -9035990000.0 -9035940000.0 -9035900000.0 -9035870000.0 -9035850000.0 -9035830000.0 -9035810000.0 -9035800000.0 -9035790000.0 -9035780000.0 -9035780000.0 -9035770000.0 -9035760000.0 -9035760000.0 -9035760000.0 -9035750000.0 -9035750000.0 -9035750000.0 -9035750000.0 -9035750000.0 -9035760000.0 -9035760000.0 -9035760000.0 -9035770000.0 -9035780000.0 -9035780000.0 -9035790000.0 -9035800000.0 -9035810000.0 -9035830000.0 -9035850000.0 -9035870000.0 -9035900000.0 -9035940000.0 -9035990000.0 -9036060000.0 -9036140000.0 -9204480000.0 -9036360000.0 -21148600000.0 -9036800000.0 -29861400000.0 -9037640000.0 -29649500000.0 -12912500000.0 -40305300000.0 -33985300000.0 -69741500000.0 -84447900000.0 -57152600000.0 -23545600000.0 -29514300000.0 -59635700000.0 -42531900000.0 -51371500000.0 -49618100000.0 -40625700000.0 -56388100000.0 -29712300000.0 -23455100000.0 -55723200000.0 -75116300000.0 -62618600000.0 -29060000000.0 -38435600000.0 -11855900000.0 -28347300000.0 -9037740000.0 -27527800000.0 -9036850000.0 -18766400000.0 -9036380000.0 -9110210000.0 -9036150000.0 -9036060000.0 -9035990000.0 -9035940000.0 -9035900000.0 -9035870000.0 -9035850000.0 -9035830000.0 -9035810000.0 -9035800000.0 -9035790000.0 -9035780000.0 -9035780000.0 -9035770000.0 -9035760000.0 -9035760000.0 -9035760000.0 -9035750000.0 -9035750000.0 -9035750000.0 -9035750000.0 -9035750000.0 -9035760000.0 -9035760000.0 -9035760000.0 -9035770000.0 -9035780000.0 -9035780000.0 -9035790000.0 -9035800000.0 -9035810000.0 -9035830000.0 -9035850000.0 -9035870000.0 -9035900000.0 -9035940000.0 -9035990000.0 -9036060000.0 -9036150000.0 -9110210000.0 -9036380000.0 -18766400000.0 -9036850000.0 -27527800000.0 -9037740000.0 -28347300000.0 -11855900000.0 -38435600000.0 -29060000000.0 -62618600000.0 -75116300000.0 -55723200000.0 -23455100000.0 -29712300000.0 -56388100000.0 -40625700000.0 -49618100000.0 -47783900000.0 -39133200000.0 -53076700000.0 -29707200000.0 -23271100000.0 -53918900000.0 -66519700000.0 -56333100000.0 -24972200000.0 -36733800000.0 -11109800000.0 -27008600000.0 -9037830000.0 -25325800000.0 -9036890000.0 -16778900000.0 -9036400000.0 -9065610000.0 -9036150000.0 -9036060000.0 -9035990000.0 -9035940000.0 -9035900000.0 -9035870000.0 -9035850000.0 -9035830000.0 -9035810000.0 -9035800000.0 -9035790000.0 -9035780000.0 -9035780000.0 -9035770000.0 -9035770000.0 -9035760000.0 -9035760000.0 -9035750000.0 -9035750000.0 -9035750000.0 -9035750000.0 -9035750000.0 -9035760000.0 -9035760000.0 -9035770000.0 -9035770000.0 -9035780000.0 -9035780000.0 -9035790000.0 -9035800000.0 -9035810000.0 -9035830000.0 -9035850000.0 -9035870000.0 -9035900000.0 -9035940000.0 -9035990000.0 -9036060000.0 -9036150000.0 -9065610000.0 -9036400000.0 -16778900000.0 -9036890000.0 -25325800000.0 -9037830000.0 -27008600000.0 -11109800000.0 -36733800000.0 -24972200000.0 -56333100000.0 -66519700000.0 -53918900000.0 -23271100000.0 -29707200000.0 -53076700000.0 -39133200000.0 -47783900000.0 -45903300000.0 -37901700000.0 -49795400000.0 -29519200000.0 -22997700000.0 -51839900000.0 -58735100000.0 -50842200000.0 -21646100000.0 -35117200000.0 -10577100000.0 -25649400000.0 -9037890000.0 -23275500000.0 -9036920000.0 -15138500000.0 -9036420000.0 -9046680000.0 -9036160000.0 -9036060000.0 -9035990000.0 -9035940000.0 -9035900000.0 -9035870000.0 -9035850000.0 -9035830000.0 -9035810000.0 -9035800000.0 -9035790000.0 -9035780000.0 -9035780000.0 -9035770000.0 -9035770000.0 -9035760000.0 -9035760000.0 -9035750000.0 -9035750000.0 -9035750000.0 -9035750000.0 -9035750000.0 -9035760000.0 -9035760000.0 -9035770000.0 -9035770000.0 -9035780000.0 -9035780000.0 -9035790000.0 -9035800000.0 -9035810000.0 -9035830000.0 -9035850000.0 -9035870000.0 -9035900000.0 -9035940000.0 -9035990000.0 -9036060000.0 -9036160000.0 -9046680000.0 -9036420000.0 -15138500000.0 -9036920000.0 -23275500000.0 -9037890000.0 -25649400000.0 -10577100000.0 -35117200000.0 -21646100000.0 -50842200000.0 -58735100000.0 -51839900000.0 -22997700000.0 -29519200000.0 -49795400000.0 -37901700000.0 -45903300000.0 -44004400000.0 -36815300000.0 -46613800000.0 -29169800000.0 -22640000000.0 -49571500000.0 -51782500000.0 -46078200000.0 -18981900000.0 -33534900000.0 -10192700000.0 -24287100000.0 -9037940000.0 -21389400000.0 -9036940000.0 -13798700000.0 -9036430000.0 -9039560000.0 -9036160000.0 -9036060000.0 -9035990000.0 -9035940000.0 -9035900000.0 -9035870000.0 -9035850000.0 -9035830000.0 -9035820000.0 -9035800000.0 -9035790000.0 -9035780000.0 -9035780000.0 -9035770000.0 -9035770000.0 -9035760000.0 -9035760000.0 -9035750000.0 -9035750000.0 -9035750000.0 -9035750000.0 -9035750000.0 -9035760000.0 -9035760000.0 -9035770000.0 -9035770000.0 -9035780000.0 -9035780000.0 -9035790000.0 -9035800000.0 -9035820000.0 -9035830000.0 -9035850000.0 -9035870000.0 -9035900000.0 -9035940000.0 -9035990000.0 -9036060000.0 -9036160000.0 -9039560000.0 -9036430000.0 -13798700000.0 -9036940000.0 -21389400000.0 -9037940000.0 -24287100000.0 -10192700000.0 -33534900000.0 -18981900000.0 -46078200000.0 -51782500000.0 -49571500000.0 -22640000000.0 -29169800000.0 -46613800000.0 -36815300000.0 -44004400000.0 -42110200000.0 -35791700000.0 -43579400000.0 -28680600000.0 -22204300000.0 -47185300000.0 -45641700000.0 -41960100000.0 -16872200000.0 -31961500000.0 -9913960000.0 -22939300000.0 -9037970000.0 -19673400000.0 -9036960000.0 -12715600000.0 -9036440000.0 -9037200000.0 -9036160000.0 -9036060000.0 -9035990000.0 -9035940000.0 -9035900000.0 -9035870000.0 -9035850000.0 -9035830000.0 -9035820000.0 -9035800000.0 -9035790000.0 -9035780000.0 -9035780000.0 -9035770000.0 -9035770000.0 -9035760000.0 -9035760000.0 -9035750000.0 -9035750000.0 -9035750000.0 -9035750000.0 -9035750000.0 -9035760000.0 -9035760000.0 -9035770000.0 -9035770000.0 -9035780000.0 -9035780000.0 -9035790000.0 -9035800000.0 -9035820000.0 -9035830000.0 -9035850000.0 -9035870000.0 -9035900000.0 -9035940000.0 -9035990000.0 -9036060000.0 -9036160000.0 -9037200000.0 -9036440000.0 -12715600000.0 -9036960000.0 -19673400000.0 -9037970000.0 -22939300000.0 -9913960000.0 -31961500000.0 -16872200000.0 -41960100000.0 -45641700000.0 -47185300000.0 -22204300000.0 -28680600000.0 -43579400000.0 -35791700000.0 -42110200000.0 -40239300000.0 -34777000000.0 -40721700000.0 -28073200000.0 -21698900000.0 -44740000000.0 -40266300000.0 -38402300000.0 -15214400000.0 -30390100000.0 -9712040000.0 -21622800000.0 -9037980000.0 -18128100000.0 -9036960000.0 -11849200000.0 -9036440000.0 -9036510000.0 -9036150000.0 -9036060000.0 -9035990000.0 -9035940000.0 -9035900000.0 -9035870000.0 -9035850000.0 -9035830000.0 -9035820000.0 -9035800000.0 -9035790000.0 -9035780000.0 -9035780000.0 -9035770000.0 -9035770000.0 -9035760000.0 -9035760000.0 -9035750000.0 -9035750000.0 -9035750000.0 -9035750000.0 -9035750000.0 -9035760000.0 -9035760000.0 -9035770000.0 -9035770000.0 -9035780000.0 -9035780000.0 -9035790000.0 -9035800000.0 -9035820000.0 -9035830000.0 -9035850000.0 -9035870000.0 -9035900000.0 -9035940000.0 -9035990000.0 -9036060000.0 -9036150000.0 -9036510000.0 -9036440000.0 -11849200000.0 -9036960000.0 -18128100000.0 -9037980000.0 -21622800000.0 -9712040000.0 -30390100000.0 -15214400000.0 -38402300000.0 -40266300000.0 -44740000000.0 -21698900000.0 -28073200000.0 -40721700000.0 -34777000000.0 -40239300000.0 -38406200000.0 -33740400000.0 -38055600000.0 -27368400000.0 -21133700000.0 -42282900000.0 -35594400000.0 -35320600000.0 -13917400000.0 -28825500000.0 -9566440000.0 -20352800000.0 -9037990000.0 -16750100000.0 -9036960000.0 -11163600000.0 -9036440000.0 -9036330000.0 -9036150000.0 -9036060000.0 -9035990000.0 -9035940000.0 -9035900000.0 -9035870000.0 -9035850000.0 -9035830000.0 -9035810000.0 -9035800000.0 -9035790000.0 -9035780000.0 -9035780000.0 -9035770000.0 -9035770000.0 -9035760000.0 -9035760000.0 -9035750000.0 -9035750000.0 -9035750000.0 -9035750000.0 -9035750000.0 -9035760000.0 -9035760000.0 -9035770000.0 -9035770000.0 -9035780000.0 -9035780000.0 -9035790000.0 -9035800000.0 -9035810000.0 -9035830000.0 -9035850000.0 -9035870000.0 -9035900000.0 -9035940000.0 -9035990000.0 -9036060000.0 -9036150000.0 -9036330000.0 -9036440000.0 -11163600000.0 -9036960000.0 -16750100000.0 -9037990000.0 -20352800000.0 -9566440000.0 -28825500000.0 -13917400000.0 -35320600000.0 -35594400000.0 -42282900000.0 -21133700000.0 -27368400000.0 -38055600000.0 -33740400000.0 -38406200000.0 -31557200000.0 -12904200000.0 -9461830000.0 -19141900000.0 -9037980000.0 -15532600000.0 -9036950000.0 -10627200000.0 -9036430000.0 -9036280000.0 -9036140000.0 -9036050000.0 -9035990000.0 -9035940000.0 -9035900000.0 -9035870000.0 -9035850000.0 -9035830000.0 -9035810000.0 -9035800000.0 -9035790000.0 -9035780000.0 -9035780000.0 -9035770000.0 -9035760000.0 -9035760000.0 -9035760000.0 -9035750000.0 -9035750000.0 -9035750000.0 -9035750000.0 -9035750000.0 -9035760000.0 -9035760000.0 -9035760000.0 -9035770000.0 -9035780000.0 -9035780000.0 -9035790000.0 -9035800000.0 -9035810000.0 -9035830000.0 -9035850000.0 -9035870000.0 -9035900000.0 -9035940000.0 -9035990000.0 -9036050000.0 -9036140000.0 -9036280000.0 -9036430000.0 -10627200000.0 -9036950000.0 -15532600000.0 -9037980000.0 -19141900000.0 -9461830000.0 -12904200000.0 -31557200000.0 -36622100000.0 -32668300000.0 -35585100000.0 -26585800000.0 -20520400000.0 -39851100000.0 -32636600000.0 -27278100000.0 -27278100000.0 -32636600000.0 -39851100000.0 -20520400000.0 -26585800000.0 -35585100000.0 -32668300000.0 -36622100000.0 -34895100000.0 -31558900000.0 -33306100000.0 -25744100000.0 -19871500000.0 -37473600000.0 -28084200000.0 -30280800000.0 -12112300000.0 -25760500000.0 -9386480000.0 -18000500000.0 -9037950000.0 -14466600000.0 -9036940000.0 -10212300000.0 -9036420000.0 -9036260000.0 -9036140000.0 -9036050000.0 -9035980000.0 -9035930000.0 -9035900000.0 -9035870000.0 -9035850000.0 -9035830000.0 -9035810000.0 -9035800000.0 -9035790000.0 -9035780000.0 -9035780000.0 -9035770000.0 -9035760000.0 -9035760000.0 -9035760000.0 -9035750000.0 -9035750000.0 -9035750000.0 -9035750000.0 -9035750000.0 -9035760000.0 -9035760000.0 -9035760000.0 -9035770000.0 -9035780000.0 -9035780000.0 -9035790000.0 -9035800000.0 -9035810000.0 -9035830000.0 -9035850000.0 -9035870000.0 -9035900000.0 -9035930000.0 -9035980000.0 -9036050000.0 -9036140000.0 -9036260000.0 -9036420000.0 -10212300000.0 -9036940000.0 -14466600000.0 -9037950000.0 -18000500000.0 -9386480000.0 -25760500000.0 -12112300000.0 -30280800000.0 -28084200000.0 -37473600000.0 -19871500000.0 -25744100000.0 -33306100000.0 -31558900000.0 -34895100000.0 -33230700000.0 -30417700000.0 -31209300000.0 -24860000000.0 -19199300000.0 -35172300000.0 -25107400000.0 -28194200000.0 -11492200000.0 -24285300000.0 -9331520000.0 -16936000000.0 -9037920000.0 -13541600000.0 -9036920000.0 -9895320000.0 -9036410000.0 -9036250000.0 -9036130000.0 -9036040000.0 -9035980000.0 -9035930000.0 -9035890000.0 -9035870000.0 -9035840000.0 -9035830000.0 -9035810000.0 -9035800000.0 -9035790000.0 -9035780000.0 -9035770000.0 -9035770000.0 -9035760000.0 -9035760000.0 -9035760000.0 -9035750000.0 -9035750000.0 -9035750000.0 -9035750000.0 -9035750000.0 -9035760000.0 -9035760000.0 -9035760000.0 -9035770000.0 -9035770000.0 -9035780000.0 -9035790000.0 -9035800000.0 -9035810000.0 -9035830000.0 -9035840000.0 -9035870000.0 -9035890000.0 -9035930000.0 -9035980000.0 -9036040000.0 -9036130000.0 -9036250000.0 -9036410000.0 -9895320000.0 -9036920000.0 -13541600000.0 -9037920000.0 -16936000000.0 -9331520000.0 -24285300000.0 -11492200000.0 -28194200000.0 -25107400000.0 -35172300000.0 -19199300000.0 -24860000000.0 -31209300000.0 -30417700000.0 -33230700000.0 -31632100000.0 -29254400000.0 -29282400000.0 -23948800000.0 -18515500000.0 -32963200000.0 -22563300000.0 -26328500000.0 -11005000000.0 -22863900000.0 -9290350000.0 -15953100000.0 -9037880000.0 -12746100000.0 -9036890000.0 -9656180000.0 -9036390000.0 -9036240000.0 -9036120000.0 -9036040000.0 -9035970000.0 -9035930000.0 -9035890000.0 -9035860000.0 -9035840000.0 -9035820000.0 -9035810000.0 -9035800000.0 -9035790000.0 -9035780000.0 -9035770000.0 -9035770000.0 -9035760000.0 -9035760000.0 -9035760000.0 -9035750000.0 -9035750000.0 -9035750000.0 -9035750000.0 -9035750000.0 -9035760000.0 -9035760000.0 -9035760000.0 -9035770000.0 -9035770000.0 -9035780000.0 -9035790000.0 -9035800000.0 -9035810000.0 -9035820000.0 -9035840000.0 -9035860000.0 -9035890000.0 -9035930000.0 -9035970000.0 -9036040000.0 -9036120000.0 -9036240000.0 -9036390000.0 -9656180000.0 -9036890000.0 -12746100000.0 -9037880000.0 -15953100000.0 -9290350000.0 -22863900000.0 -11005000000.0 -26328500000.0 -22563300000.0 -32963200000.0 -18515500000.0 -23948800000.0 -29282400000.0 -29254400000.0 -31632100000.0 -30100500000.0 -28080100000.0 -27511500000.0 -23024000000.0 -17830500000.0 -30857900000.0 -20394500000.0 -24645100000.0 -10621100000.0 -21506400000.0 -9258280000.0 -15054000000.0 -9037820000.0 -12067700000.0 -9036860000.0 -9478120000.0 -9036370000.0 -9036220000.0 -9036110000.0 -9036030000.0 -9035970000.0 -9035920000.0 -9035890000.0 -9035860000.0 -9035840000.0 -9035820000.0 -9035810000.0 -9035800000.0 -9035790000.0 -9035780000.0 -9035770000.0 -9035770000.0 -9035760000.0 -9035760000.0 -9035760000.0 -9035750000.0 -9035750000.0 -9035750000.0 -9035750000.0 -9035750000.0 -9035760000.0 -9035760000.0 -9035760000.0 -9035770000.0 -9035770000.0 -9035780000.0 -9035790000.0 -9035800000.0 -9035810000.0 -9035820000.0 -9035840000.0 -9035860000.0 -9035890000.0 -9035920000.0 -9035970000.0 -9036030000.0 -9036110000.0 -9036220000.0 -9036370000.0 -9478120000.0 -9036860000.0 -12067700000.0 -9037820000.0 -15054000000.0 -9258280000.0 -21506400000.0 -10621100000.0 -24645100000.0 -20394500000.0 -30857900000.0 -17830500000.0 -23024000000.0 -27511500000.0 -28080100000.0 -30100500000.0 -28635800000.0 -26905800000.0 -25882900000.0 -22097300000.0 -17153200000.0 -28864100000.0 -18549700000.0 -23114700000.0 -10317400000.0 -20220800000.0 -9232090000.0 -14239000000.0 -9037760000.0 -11494400000.0 -9036830000.0 -9347300000.0 -9036350000.0 -9036210000.0 -9036100000.0 -9036020000.0 -9035960000.0 -9035910000.0 -9035880000.0 -9035860000.0 -9035830000.0 -9035820000.0 -9035810000.0 -9035790000.0 -9035790000.0 -9035780000.0 -9035770000.0 -9035770000.0 -9035760000.0 -9035760000.0 -9035760000.0 -9035750000.0 -9035750000.0 -9035750000.0 -9035750000.0 -9035750000.0 -9035760000.0 -9035760000.0 -9035760000.0 -9035770000.0 -9035770000.0 -9035780000.0 -9035790000.0 -9035790000.0 -9035810000.0 -9035820000.0 -9035830000.0 -9035860000.0 -9035880000.0 -9035910000.0 -9035960000.0 -9036020000.0 -9036100000.0 -9036210000.0 -9036350000.0 -9347300000.0 -9036830000.0 -11494400000.0 -9037760000.0 -14239000000.0 -9232090000.0 -20220800000.0 -10317400000.0 -23114700000.0 -18549700000.0 -28864100000.0 -17153200000.0 -22097300000.0 -25882900000.0 -26905800000.0 -28635800000.0 -27236800000.0 -25741400000.0 -24383100000.0 -21178700000.0 -16491000000.0 -26986300000.0 -16983900000.0 -21714900000.0 -10076300000.0 -19013300000.0 -9209740000.0 -13506400000.0 -9037690000.0 -11014100000.0 -9036790000.0 -9252470000.0 -9036330000.0 -9036190000.0 -9036080000.0 -9036010000.0 -9035950000.0 -9035910000.0 -9035880000.0 -9035850000.0 -9035830000.0 -9035820000.0 -9035800000.0 -9035790000.0 -9035780000.0 -9035780000.0 -9035770000.0 -9035770000.0 -9035760000.0 -9035760000.0 -9035760000.0 -9035750000.0 -9035750000.0 -9035750000.0 -9035750000.0 -9035750000.0 -9035760000.0 -9035760000.0 -9035760000.0 -9035770000.0 -9035770000.0 -9035780000.0 -9035780000.0 -9035790000.0 -9035800000.0 -9035820000.0 -9035830000.0 -9035850000.0 -9035880000.0 -9035910000.0 -9035950000.0 -9036010000.0 -9036080000.0 -9036190000.0 -9036330000.0 -9252470000.0 -9036790000.0 -11014100000.0 -9037690000.0 -13506400000.0 -9209740000.0 -19013300000.0 -10076300000.0 -21714900000.0 -16983900000.0 -26986300000.0 -16491000000.0 -21178700000.0 -24383100000.0 -25741400000.0 -27236800000.0 -25901500000.0 -24595300000.0 -22999900000.0 -20276500000.0 -15850100000.0 -25226800000.0 -15657700000.0 -20429300000.0 -9884140000.0 -17888100000.0 -9189960000.0 -12853300000.0 -9037620000.0 -10615300000.0 -9036750000.0 -9184660000.0 -9036310000.0 -9036170000.0 -9036070000.0 -9036000000.0 -9035940000.0 -9035900000.0 -9035870000.0 -9035850000.0 -9035830000.0 -9035810000.0 -9035800000.0 -9035790000.0 -9035780000.0 -9035780000.0 -9035770000.0 -9035770000.0 -9035760000.0 -9035760000.0 -9035760000.0 -9035750000.0 -9035750000.0 -9035750000.0 -9035750000.0 -9035750000.0 -9035760000.0 -9035760000.0 -9035760000.0 -9035770000.0 -9035770000.0 -9035780000.0 -9035780000.0 -9035790000.0 -9035800000.0 -9035810000.0 -9035830000.0 -9035850000.0 -9035870000.0 -9035900000.0 -9035940000.0 -9036000000.0 -9036070000.0 -9036170000.0 -9036310000.0 -9184660000.0 -9036750000.0 -10615300000.0 -9037620000.0 -12853300000.0 -9189960000.0 -17888100000.0 -9884140000.0 -20429300000.0 -15657700000.0 -25226800000.0 -15850100000.0 -20276500000.0 -22999900000.0 -24595300000.0 -25901500000.0 -24627300000.0 -23474100000.0 -21722100000.0 -19397400000.0 -15235100000.0 -23585700000.0 -14537100000.0 -19246000000.0 -9730350000.0 -16847600000.0 -9172070000.0 -12275500000.0 -9037540000.0 -10287000000.0 -9036700000.0 -9136810000.0 -9036280000.0 -9036150000.0 -9036050000.0 -9035990000.0 -9035930000.0 -9035890000.0 -9035870000.0 -9035840000.0 -9035820000.0 -9035810000.0 -9035800000.0 -9035790000.0 -9035780000.0 -9035780000.0 -9035770000.0 -9035770000.0 -9035760000.0 -9035760000.0 -9035760000.0 -9035750000.0 -9035750000.0 -9035750000.0 -9035750000.0 -9035750000.0 -9035760000.0 -9035760000.0 -9035760000.0 -9035770000.0 -9035770000.0 -9035780000.0 -9035780000.0 -9035790000.0 -9035800000.0 -9035810000.0 -9035820000.0 -9035840000.0 -9035870000.0 -9035890000.0 -9035930000.0 -9035990000.0 -9036050000.0 -9036150000.0 -9036280000.0 -9136810000.0 -9036700000.0 -10287000000.0 -9037540000.0 -12275500000.0 -9172070000.0 -16847600000.0 -9730350000.0 -19246000000.0 -14537100000.0 -23585700000.0 -15235100000.0 -19397400000.0 -21722100000.0 -23474100000.0 -24627300000.0 -23411600000.0 -22383100000.0 -20539700000.0 -18546700000.0 -14649600000.0 -22061500000.0 -13592500000.0 -18156200000.0 -9606680000.0 -15892400000.0 -9155710000.0 -11768400000.0 -9037450000.0 -10019300000.0 -9036660000.0 -9103510000.0 -9036250000.0 -9036130000.0 -9036040000.0 -9035970000.0 -9035920000.0 -9035890000.0 -9035860000.0 -9035840000.0 -9035820000.0 -9035810000.0 -9035800000.0 -9035790000.0 -9035780000.0 -9035770000.0 -9035770000.0 -9035760000.0 -9035760000.0 -9035760000.0 -9035760000.0 -9035750000.0 -9035750000.0 -9035750000.0 -9035750000.0 -9035750000.0 -9035760000.0 -9035760000.0 -9035760000.0 -9035760000.0 -9035770000.0 -9035770000.0 -9035780000.0 -9035790000.0 -9035800000.0 -9035810000.0 -9035820000.0 -9035840000.0 -9035860000.0 -9035890000.0 -9035920000.0 -9035970000.0 -9036040000.0 -9036130000.0 -9036250000.0 -9103510000.0 -9036660000.0 -10019300000.0 -9037450000.0 -11768400000.0 -9155710000.0 -15892400000.0 -9606680000.0 -18156200000.0 -13592500000.0 -22061500000.0 -14649600000.0 -18546700000.0 -20539700000.0 -22383100000.0 -23411600000.0 -22251300000.0 -21326000000.0 -19444000000.0 -17728200000.0 -14095800000.0 -20651400000.0 -12798300000.0 -17153000000.0 -9506720000.0 -15021600000.0 -9140710000.0 -11326500000.0 -9037360000.0 -9802730000.0 -9036610000.0 -9080640000.0 -9036230000.0 -9036110000.0 -9036020000.0 -9035960000.0 -9035910000.0 -9035880000.0 -9035850000.0 -9035830000.0 -9035820000.0 -9035800000.0 -9035790000.0 -9035790000.0 -9035780000.0 -9035770000.0 -9035770000.0 -9035760000.0 -9035760000.0 -9035760000.0 -9035760000.0 -9035750000.0 -9035750000.0 -9035750000.0 -9035750000.0 -9035750000.0 -9035760000.0 -9035760000.0 -9035760000.0 -9035760000.0 -9035770000.0 -9035770000.0 -9035780000.0 -9035790000.0 -9035790000.0 -9035800000.0 -9035820000.0 -9035830000.0 -9035850000.0 -9035880000.0 -9035910000.0 -9035960000.0 -9036020000.0 -9036110000.0 -9036230000.0 -9080640000.0 -9036610000.0 -9802730000.0 -9037360000.0 -11326500000.0 -9140710000.0 -15021600000.0 -9506720000.0 -17153000000.0 -12798300000.0 -20651400000.0 -14095800000.0 -17728200000.0 -19444000000.0 -21326000000.0 -22251300000.0 -21143500000.0 -20305100000.0 -18427000000.0 -16944600000.0 -13575100000.0 -19351500000.0 -12132500000.0 -16231200000.0 -9425460000.0 -14233100000.0 -9127020000.0 -10944300000.0 -9037260000.0 -9629200000.0 -9036560000.0 -9065140000.0 -9036200000.0 -9036090000.0 -9036010000.0 -9035950000.0 -9035900000.0 -9035870000.0 -9035850000.0 -9035830000.0 -9035810000.0 -9035800000.0 -9035790000.0 -9035780000.0 -9035780000.0 -9035770000.0 -9035770000.0 -9035760000.0 -9035760000.0 -9035760000.0 -9035760000.0 -9035750000.0 -9035750000.0 -9035750000.0 -9035750000.0 -9035750000.0 -9035760000.0 -9035760000.0 -9035760000.0 -9035760000.0 -9035770000.0 -9035770000.0 -9035780000.0 -9035780000.0 -9035790000.0 -9035800000.0 -9035810000.0 -9035830000.0 -9035850000.0 -9035870000.0 -9035900000.0 -9035950000.0 -9036010000.0 -9036090000.0 -9036200000.0 -9065140000.0 -9036560000.0 -9629200000.0 -9037260000.0 -10944300000.0 -9127020000.0 -14233100000.0 -9425460000.0 -16231200000.0 -12132500000.0 -19351500000.0 -13575100000.0 -16944600000.0 -18427000000.0 -20305100000.0 -21143500000.0 -20085100000.0 -19321800000.0 -17481800000.0 -16197400000.0 -13088100000.0 -18157200000.0 -11575800000.0 -15385900000.0 -9359010000.0 -13523600000.0 -9114580000.0 -10616000000.0 -9037170000.0 -9491350000.0 -9036500000.0 -9054780000.0 -9036170000.0 -9036070000.0 -9035990000.0 -9035930000.0 -9035890000.0 -9035860000.0 -9035840000.0 -9035820000.0 -9035810000.0 -9035800000.0 -9035790000.0 -9035780000.0 -9035770000.0 -9035770000.0 -9035770000.0 -9035760000.0 -9035760000.0 -9035760000.0 -9035760000.0 -9035750000.0 -9035750000.0 -9035750000.0 -9035750000.0 -9035750000.0 -9035760000.0 -9035760000.0 -9035760000.0 -9035760000.0 -9035770000.0 -9035770000.0 -9035770000.0 -9035780000.0 -9035790000.0 -9035800000.0 -9035810000.0 -9035820000.0 -9035840000.0 -9035860000.0 -9035890000.0 -9035930000.0 -9035990000.0 -9036070000.0 -9036170000.0 -9054780000.0 -9036500000.0 -9491350000.0 -9037170000.0 -10616000000.0 -9114580000.0 -13523600000.0 -9359010000.0 -15385900000.0 -11575800000.0 -18157200000.0 -13088100000.0 -16197400000.0 -17481800000.0 -19321800000.0 -20085100000.0 -19073000000.0 -18376600000.0 -16601800000.0 -15487300000.0 -12634500000.0 -17062900000.0 -11111800000.0 -14612800000.0 -9304320000.0 -12889000000.0 -9103370000.0 -10336100000.0 -9037070000.0 -9382800000.0 -9036450000.0 -9047950000.0 -9036140000.0 -9036040000.0 -9035970000.0 -9035920000.0 -9035880000.0 -9035860000.0 -9035830000.0 -9035820000.0 -9035800000.0 -9035790000.0 -9035790000.0 -9035780000.0 -9035770000.0 -9035770000.0 -9035760000.0 -9035760000.0 -9035760000.0 -9035760000.0 -9035760000.0 -9035750000.0 -9035750000.0 -9035750000.0 -9035750000.0 -9035750000.0 -9035760000.0 -9035760000.0 -9035760000.0 -9035760000.0 -9035760000.0 -9035770000.0 -9035770000.0 -9035780000.0 -9035790000.0 -9035790000.0 -9035800000.0 -9035820000.0 -9035830000.0 -9035860000.0 -9035880000.0 -9035920000.0 -9035970000.0 -9036040000.0 -9036140000.0 -9047950000.0 -9036450000.0 -9382800000.0 -9037070000.0 -10336100000.0 -9103370000.0 -12889000000.0 -9304320000.0 -14612800000.0 -11111800000.0 -17062900000.0 -12634500000.0 -15487300000.0 -16601800000.0 -18376600000.0 -19073000000.0 -18104000000.0 -17468900000.0 -15781400000.0 -14813900000.0 -12213500000.0 -16062800000.0 -10726200000.0 -13907400000.0 -9259020000.0 -12324400000.0 -9093340000.0 -10098900000.0 -9036960000.0 -9298050000.0 -9036400000.0 -9043500000.0 -9036110000.0 -9036020000.0 -9035950000.0 -9035910000.0 -9035870000.0 -9035850000.0 -9035830000.0 -9035810000.0 -9035800000.0 -9035790000.0 -9035780000.0 -9035780000.0 -9035770000.0 -9035770000.0 -9035760000.0 -9035760000.0 -9035760000.0 -9035760000.0 -9035750000.0 -9035750000.0 -9035750000.0 -9035750000.0 -9035750000.0 -9035750000.0 -9035750000.0 -9035760000.0 -9035760000.0 -9035760000.0 -9035760000.0 -9035770000.0 -9035770000.0 -9035780000.0 -9035780000.0 -9035790000.0 -9035800000.0 -9035810000.0 -9035830000.0 -9035850000.0 -9035870000.0 -9035910000.0 -9035950000.0 -9036020000.0 -9036110000.0 -9043500000.0 -9036400000.0 -9298050000.0 -9036960000.0 -10098900000.0 -9093340000.0 -12324400000.0 -9259020000.0 -13907400000.0 -10726200000.0 -16062800000.0 -12213500000.0 -14813900000.0 -15781400000.0 -17468900000.0 -18104000000.0 -17175100000.0 -16597700000.0 -15015000000.0 -14176300000.0 -11823800000.0 -15150300000.0 -10406400000.0 -13265100000.0 -9221250000.0 -11824600000.0 -9084430000.0 -9899200000.0 -9036860000.0 -9232440000.0 -9036340000.0 -9040650000.0 -9036080000.0 -9036000000.0 -9035940000.0 -9035890000.0 -9035860000.0 -9035840000.0 -9035820000.0 -9035810000.0 -9035800000.0 -9035790000.0 -9035780000.0 -9035770000.0 -9035770000.0 -9035770000.0 -9035760000.0 -9035760000.0 -9035760000.0 -9035760000.0 -9035750000.0 -9035750000.0 -9035750000.0 -9035750000.0 -9035750000.0 -9035750000.0 -9035750000.0 -9035760000.0 -9035760000.0 -9035760000.0 -9035760000.0 -9035770000.0 -9035770000.0 -9035770000.0 -9035780000.0 -9035790000.0 -9035800000.0 -9035810000.0 -9035820000.0 -9035840000.0 -9035860000.0 -9035890000.0 -9035940000.0 -9036000000.0 -9036080000.0 -9040650000.0 -9036340000.0 -9232440000.0 -9036860000.0 -9899200000.0 -9084430000.0 -11824600000.0 -9221250000.0 -13265100000.0 -10406400000.0 -15150300000.0 -11823800000.0 -14176300000.0 -15015000000.0 -16597700000.0 -17175100000.0 -16283100000.0 -15761300000.0 -14297500000.0 -13572800000.0 -11463500000.0 -14318700000.0 -10141900000.0 -12681100000.0 -9189550000.0 -11383800000.0 -9076570000.0 -9732080000.0 -9036760000.0 -9182080000.0 -9036280000.0 -9038840000.0 -9036050000.0 -9035970000.0 -9035920000.0 -9035880000.0 -9035850000.0 -9035830000.0 -9035810000.0 -9035800000.0 -9035790000.0 -9035780000.0 -9035780000.0 -9035770000.0 -9035770000.0 -9035760000.0 -9035760000.0 -9035760000.0 -9035760000.0 -9035760000.0 -9035750000.0 -9035750000.0 -9035750000.0 -9035750000.0 -9035750000.0 -9035750000.0 -9035750000.0 -9035760000.0 -9035760000.0 -9035760000.0 -9035760000.0 -9035760000.0 -9035770000.0 -9035770000.0 -9035780000.0 -9035780000.0 -9035790000.0 -9035800000.0 -9035810000.0 -9035830000.0 -9035850000.0 -9035880000.0 -9035920000.0 -9035970000.0 -9036050000.0 -9038840000.0 -9036280000.0 -9182080000.0 -9036760000.0 -9732080000.0 -9076570000.0 -11383800000.0 -9189550000.0 -12681100000.0 -10141900000.0 -14318700000.0 -11463500000.0 -13572800000.0 -14297500000.0 -15761300000.0 -16283100000.0 -15424700000.0 -14957500000.0 -13624100000.0 -13001500000.0 -11130600000.0 -13560700000.0 -9923320000.0 -12150500000.0 -9162750000.0 -10996300000.0 -9069660000.0 -9592930000.0 -9036650000.0 -9143730000.0 -9036230000.0 -9037700000.0 -9036010000.0 -9035950000.0 -9035900000.0 -9035870000.0 -9035840000.0 -9035820000.0 -9035810000.0 -9035800000.0 -9035790000.0 -9035780000.0 -9035770000.0 -9035770000.0 -9035770000.0 -9035760000.0 -9035760000.0 -9035760000.0 -9035760000.0 -9035760000.0 -9035750000.0 -9035750000.0 -9035750000.0 -9035750000.0 -9035750000.0 -9035750000.0 -9035750000.0 -9035760000.0 -9035760000.0 -9035760000.0 -9035760000.0 -9035760000.0 -9035770000.0 -9035770000.0 -9035770000.0 -9035780000.0 -9035790000.0 -9035800000.0 -9035810000.0 -9035820000.0 -9035840000.0 -9035870000.0 -9035900000.0 -9035950000.0 -9036010000.0 -9037700000.0 -9036230000.0 -9143730000.0 -9036650000.0 -9592930000.0 -9069660000.0 -10996300000.0 -9162750000.0 -12150500000.0 -9923320000.0 -13560700000.0 -11130600000.0 -13001500000.0 -13624100000.0 -14957500000.0 -15424700000.0 -14596700000.0 -14183600000.0 -12989800000.0 -12459800000.0 -10822600000.0 -12869100000.0 -9742770000.0 -11668100000.0 -9139920000.0 -10656100000.0 -9063620000.0 -9477540000.0 -9036540000.0 -9114740000.0 -9036170000.0 -9036990000.0 -9035980000.0 -9035930000.0 -9035880000.0 -9035850000.0 -9035830000.0 -9035810000.0 -9035800000.0 -9035790000.0 -9035780000.0 -9035780000.0 -9035770000.0 -9035770000.0 -9035760000.0 -9035760000.0 -9035760000.0 -9035760000.0 -9035760000.0 -9035760000.0 -9035750000.0 -9035750000.0 -9035750000.0 -9035750000.0 -9035750000.0 -9035750000.0 -9035750000.0 -9035760000.0 -9035760000.0 -9035760000.0 -9035760000.0 -9035760000.0 -9035760000.0 -9035770000.0 -9035770000.0 -9035780000.0 -9035780000.0 -9035790000.0 -9035800000.0 -9035810000.0 -9035830000.0 -9035850000.0 -9035880000.0 -9035930000.0 -9035980000.0 -9036990000.0 -9036170000.0 -9114740000.0 -9036540000.0 -9477540000.0 -9063620000.0 -10656100000.0 -9139920000.0 -11668100000.0 -9742770000.0 -12869100000.0 -10822600000.0 -12459800000.0 -12989800000.0 -14183600000.0 -14596700000.0 -13795600000.0 -13436800000.0 -12390100000.0 -11944900000.0 -10537000000.0 -12236200000.0 -9593330000.0 -11228400000.0 -9120310000.0 -10357300000.0 -9058350000.0 -9382060000.0 -9036440000.0 -9092970000.0 -9036120000.0 -9036550000.0 -9035950000.0 -9035900000.0 -9035870000.0 -9035840000.0 -9035820000.0 -9035810000.0 -9035790000.0 -9035790000.0 -9035780000.0 -9035770000.0 -9035770000.0 -9035770000.0 -9035760000.0 -9035760000.0 -9035760000.0 -9035760000.0 -9035760000.0 -9035750000.0 -9035750000.0 -9035750000.0 -9035750000.0 -9035750000.0 -9035750000.0 -9035750000.0 -9035750000.0 -9035750000.0 -9035760000.0 -9035760000.0 -9035760000.0 -9035760000.0 -9035760000.0 -9035770000.0 -9035770000.0 -9035770000.0 -9035780000.0 -9035790000.0 -9035790000.0 -9035810000.0 -9035820000.0 -9035840000.0 -9035870000.0 -9035900000.0 -9035950000.0 -9036550000.0 -9036120000.0 -9092970000.0 -9036440000.0 -9382060000.0 -9058350000.0 -10357300000.0 -9120310000.0 -11228400000.0 -9593330000.0 -12236200000.0 -10537000000.0 -11944900000.0 -12390100000.0 -13436800000.0 -13795600000.0 -13018100000.0 -12713900000.0 -11820200000.0 -11453500000.0 -10271000000.0 -11654400000.0 -9469070000.0 -10825900000.0 -9103290000.0 -10094000000.0 -9053740000.0 -9303000000.0 -9036330000.0 -9076690000.0 -9036060000.0 -9036280000.0 -9035920000.0 -9035880000.0 -9035850000.0 -9035830000.0 -9035810000.0 -9035800000.0 -9035790000.0 -9035780000.0 -9035780000.0 -9035770000.0 -9035770000.0 -9035760000.0 -9035760000.0 -9035760000.0 -9035760000.0 -9035760000.0 -9035760000.0 -9035750000.0 -9035750000.0 -9035750000.0 -9035750000.0 -9035750000.0 -9035750000.0 -9035750000.0 -9035750000.0 -9035750000.0 -9035760000.0 -9035760000.0 -9035760000.0 -9035760000.0 -9035760000.0 -9035760000.0 -9035770000.0 -9035770000.0 -9035780000.0 -9035780000.0 -9035790000.0 -9035800000.0 -9035810000.0 -9035830000.0 -9035850000.0 -9035880000.0 -9035920000.0 -9036280000.0 -9036060000.0 -9076690000.0 -9036330000.0 -9303000000.0 -9053740000.0 -10094000000.0 -9103290000.0 -10825900000.0 -9469070000.0 -11654400000.0 -10271000000.0 -11453500000.0 -11820200000.0 -12713900000.0 -13018100000.0 -12260700000.0 -12011400000.0 -11275600000.0 -10982400000.0 -10021800000.0 -11115800000.0 -9364810000.0 -10455000000.0 -9088330000.0 -9860500000.0 -9049690000.0 -9237210000.0 -9036230000.0 -9064520000.0 -9036000000.0 -9036100000.0 -9035890000.0 -9035860000.0 -9035830000.0 -9035810000.0 -9035800000.0 -9035790000.0 -9035780000.0 -9035780000.0 -9035770000.0 -9035770000.0 -9035760000.0 -9035760000.0 -9035760000.0 -9035760000.0 -9035760000.0 -9035760000.0 -9035760000.0 -9035750000.0 -9035750000.0 -9035750000.0 -9035750000.0 -9035750000.0 -9035750000.0 -9035750000.0 -9035750000.0 -9035750000.0 -9035760000.0 -9035760000.0 -9035760000.0 -9035760000.0 -9035760000.0 -9035760000.0 -9035760000.0 -9035770000.0 -9035770000.0 -9035780000.0 -9035780000.0 -9035790000.0 -9035800000.0 -9035810000.0 -9035830000.0 -9035860000.0 -9035890000.0 -9036100000.0 -9036000000.0 -9064520000.0 -9036230000.0 -9237210000.0 -9049690000.0 -9860500000.0 -9088330000.0 -10455000000.0 -9364810000.0 -11115800000.0 -10021800000.0 -10982400000.0 -11275600000.0 -12011400000.0 -12260700000.0 -11519700000.0 -11325900000.0 -10751700000.0 -10528100000.0 -9786260000.0 -10612700000.0 -9276050000.0 -10110000000.0 -9074970000.0 -9651040000.0 -9046100000.0 -9181830000.0 -9036120000.0 -9055360000.0 -9035950000.0 -9035980000.0 -9035860000.0 -9035830000.0 -9035810000.0 -9035800000.0 -9035790000.0 -9035780000.0 -9035780000.0 -9035770000.0 -9035770000.0 -9035760000.0 -9035760000.0 -9035760000.0 -9035760000.0 -9035760000.0 -9035760000.0 -9035760000.0 -9035750000.0 -9035750000.0 -9035750000.0 -9035750000.0 -9035750000.0 -9035750000.0 -9035750000.0 -9035750000.0 -9035750000.0 -9035750000.0 -9035750000.0 -9035760000.0 -9035760000.0 -9035760000.0 -9035760000.0 -9035760000.0 -9035760000.0 -9035760000.0 -9035770000.0 -9035770000.0 -9035780000.0 -9035780000.0 -9035790000.0 -9035800000.0 -9035810000.0 -9035830000.0 -9035860000.0 -9035980000.0 -9035950000.0 -9055360000.0 -9036120000.0 -9181830000.0 -9046100000.0 -9651040000.0 -9074970000.0 -10110000000.0 -9276050000.0 -10612700000.0 -9786260000.0 -10528100000.0 -10751700000.0 -11325900000.0 -11519700000.0 -10791600000.0 -10653600000.0 -10243700000.0 -10086800000.0 -9561470000.0 -10137000000.0 -9198790000.0 -9784960000.0 -9062810000.0 -9460100000.0 -9042860000.0 -9134270000.0 -9036010000.0 -9048320000.0 -9035890000.0 -9035900000.0 -9035830000.0 -9035810000.0 -9035800000.0 -9035790000.0 -9035780000.0 -9035770000.0 -9035770000.0 -9035770000.0 -9035760000.0 -9035760000.0 -9035760000.0 -9035760000.0 -9035760000.0 -9035760000.0 -9035760000.0 -9035750000.0 -9035750000.0 -9035750000.0 -9035750000.0 -9035750000.0 -9035750000.0 -9035750000.0 -9035750000.0 -9035750000.0 -9035750000.0 -9035750000.0 -9035750000.0 -9035750000.0 -9035760000.0 -9035760000.0 -9035760000.0 -9035760000.0 -9035760000.0 -9035760000.0 -9035760000.0 -9035770000.0 -9035770000.0 -9035770000.0 -9035780000.0 -9035790000.0 -9035800000.0 -9035810000.0 -9035830000.0 -9035900000.0 -9035890000.0 -9048320000.0 -9036010000.0 -9134270000.0 -9042860000.0 -9460100000.0 -9062810000.0 -9784960000.0 -9198790000.0 -10137000000.0 -9561470000.0 -10086800000.0 -10243700000.0 -10653600000.0 -10791600000.0 -10072600000.0 -9990670000.0 -9747130000.0 -9654930000.0 -9344330000.0 -9680790000.0 -9129420000.0 -9474230000.0 -9051470000.0 -9282240000.0 -9039870000.0 -9092110000.0 -9035910000.0 -9042700000.0 -9035830000.0 -9035830000.0 -9035800000.0 -9035790000.0 -9035780000.0 -9035770000.0 -9035770000.0 -9035760000.0 -9035760000.0 -9035760000.0 -9035760000.0 -9035760000.0 -9035760000.0 -9035760000.0 -9035760000.0 -9035750000.0 -9035750000.0 -9035750000.0 -9035750000.0 -9035750000.0 -9035750000.0 -9035750000.0 -9035750000.0 -9035750000.0 -9035750000.0 -9035750000.0 -9035750000.0 -9035750000.0 -9035750000.0 -9035750000.0 -9035750000.0 -9035750000.0 -9035760000.0 -9035760000.0 -9035760000.0 -9035760000.0 -9035760000.0 -9035760000.0 -9035760000.0 -9035760000.0 -9035770000.0 -9035770000.0 -9035780000.0 -9035790000.0 -9035800000.0 -9035830000.0 -9035830000.0 -9042700000.0 -9035910000.0 -9092110000.0 -9039870000.0 -9282240000.0 -9051470000.0 -9474230000.0 -9129420000.0 -9680790000.0 -9344330000.0 -9654930000.0 -9747130000.0 -9990670000.0 -10072600000.0 -9358970000.0 -9333390000.0 -9257280000.0 -9228590000.0 -9131720000.0 -9236200000.0 -9064630000.0 -9171960000.0 -9040620000.0 -9112090000.0 -9037030000.0 -9053100000.0 -9035800000.0 -9037860000.0 -9035780000.0 -9035780000.0 -9035770000.0 -9035760000.0 -9035760000.0 -9035760000.0 -9035760000.0 -9035760000.0 -9035760000.0 -9035760000.0 -9035750000.0 -9035750000.0 -9035750000.0 -9035750000.0 -9035750000.0 -9035750000.0 -9035750000.0 -9035750000.0 -9035750000.0 -9035750000.0 -9035750000.0 -9035750000.0 -9035750000.0 -9035750000.0 -9035750000.0 -9035750000.0 -9035750000.0 -9035750000.0 -9035750000.0 -9035750000.0 -9035750000.0 -9035750000.0 -9035750000.0 -9035750000.0 -9035750000.0 -9035750000.0 -9035750000.0 -9035760000.0 -9035760000.0 -9035760000.0 -9035760000.0 -9035760000.0 -9035760000.0 -9035760000.0 -9035770000.0 -9035780000.0 -9035780000.0 -9037860000.0 -9035800000.0 -9053100000.0 -9037030000.0 -9112090000.0 -9040620000.0 -9171960000.0 -9064630000.0 -9236200000.0 -9131720000.0 -9228590000.0 -9257280000.0 -9333390000.0 -9358970000.0 
SCALARS Shear_Stress float 1
LOOKUP_TABLE default
7276650000.0 76050600000.0 76050600000.0 7276650000.0 185389000000.0 118662000000.0 50607800000.0 33469800000.0 31712000000.0 31299700000.0 12532000000.0 62305000000.0 74055000000.0 93745200000.0 106953000000.0 118357000000.0 127522000000.0 134469000000.0 139580000000.0 143187000000.0 145515000000.0 146820000000.0 147381000000.0 147441000000.0 147181000000.0 146741000000.0 146253000000.0 145825000000.0 145534000000.0 145429000000.0 145534000000.0 145825000000.0 146253000000.0 146741000000.0 147181000000.0 147441000000.0 147381000000.0 146820000000.0 145515000000.0 143187000000.0 139580000000.0 134469000000.0 127522000000.0 118357000000.0 106953000000.0 93745200000.0 74055000000.0 62305000000.0 12532000000.0 31299700000.0 31712000000.0 33469800000.0 50607800000.0 118662000000.0 185389000000.0 32549300000.0 17005700000.0 250425000000.0 145211000000.0 145211000000.0 250425000000.0 17005700000.0 32549300000.0 96768800000.0 49487600000.0 60194200000.0 34231400000.0 271271000000.0 140716000000.0 99319800000.0 9726950000.0 15446800000.0 17704300000.0 78096700000.0 85884800000.0 115683000000.0 128925000000.0 139374000000.0 147355000000.0 153335000000.0 157702000000.0 160749000000.0 162712000000.0 163798000000.0 164196000000.0 164066000000.0 163569000000.0 162875000000.0 162142000000.0 161517000000.0 161090000000.0 160942000000.0 161090000000.0 161517000000.0 162142000000.0 162875000000.0 163569000000.0 164066000000.0 164196000000.0 163798000000.0 162712000000.0 160749000000.0 157702000000.0 153335000000.0 147355000000.0 139374000000.0 128925000000.0 115683000000.0 85884800000.0 78096700000.0 17704300000.0 15446800000.0 9726950000.0 99319800000.0 140716000000.0 271271000000.0 34231400000.0 60194200000.0 49487600000.0 96768800000.0 157497000000.0 162867000000.0 54246800000.0 196524000000.0 468149000000.0 168381000000.0 29660000000.0 280478000.0 50353300000.0 39854500000.0 26000600000.0 65786100000.0 84748300000.0 102666000000.0 118264000000.0 131163000000.0 141639000000.0 150026000000.0 156421000000.0 161109000000.0 164546000000.0 167031000000.0 168693000000.0 169666000000.0 170130000000.0 170310000000.0 170356000000.0 170367000000.0 170356000000.0 170310000000.0 170130000000.0 169666000000.0 168693000000.0 167031000000.0 164546000000.0 161109000000.0 156421000000.0 150026000000.0 141639000000.0 131163000000.0 118264000000.0 102666000000.0 84748300000.0 65786100000.0 26000600000.0 39854500000.0 50353300000.0 280477000.0 29660000000.0 168381000000.0 468149000000.0 196524000000.0 54246800000.0 162867000000.0 157497000000.0 175343000000.0 326902000000.0 255892000000.0 123836000000.0 186485000000.0 544249000000.0 216109000000.0 99895400000.0 99895400000.0 216109000000.0 544249000000.0 186485000000.0 123836000000.0 255892000000.0 326902000000.0 175343000000.0 186013000000.0 394700000000.0 378174000000.0 356240000000.0 132941000000.0 520413000000.0 314618000000.0 299231000000.0 76768500000.0 52562400000.0 291797000000.0 143299000000.0 64909000000.0 173402000000.0 148188000000.0 185018000000.0 192078000000.0 203485000000.0 213523000000.0 220403000000.0 224396000000.0 225616000000.0 225155000000.0 224490000000.0 223867000000.0 223085000000.0 222539000000.0 222748000000.0 223689000000.0 224886000000.0 225820000000.0 226167000000.0 225820000000.0 224886000000.0 223689000000.0 222748000000.0 222539000000.0 223085000000.0 223867000000.0 224490000000.0 225155000000.0 225616000000.0 224396000000.0 220403000000.0 213523000000.0 203485000000.0 192078000000.0 185018000000.0 148188000000.0 173402000000.0 64909000000.0 143299000000.0 291797000000.0 52562400000.0 76768500000.0 299231000000.0 314618000000.0 520413000000.0 132941000000.0 356240000000.0 378174000000.0 394700000000.0 186013000000.0 64450100000.0 237483000000.0 442283000000.0 367176000000.0 322236000000.0 248924000000.0 561645000000.0 276652000000.0 4299330000.0 36649900000.0 60974900000.0 220734000000.0 17829200000.0 169572000000.0 222398000000.0 187696000000.0 213587000000.0 205716000000.0 212240000000.0 222904000000.0 232627000000.0 240310000000.0 245959000000.0 249666000000.0 251633000000.0 252205000000.0 251795000000.0 250800000000.0 249553000000.0 248319000000.0 247300000000.0 246637000000.0 246408000000.0 246637000000.0 247300000000.0 248319000000.0 249553000000.0 250800000000.0 251795000000.0 252205000000.0 251633000000.0 249666000000.0 245959000000.0 240310000000.0 232627000000.0 222904000000.0 212240000000.0 205716000000.0 213587000000.0 187696000000.0 222398000000.0 169572000000.0 17829200000.0 220734000000.0 60974900000.0 36649900000.0 4299330000.0 276652000000.0 561645000000.0 248924000000.0 322236000000.0 367176000000.0 442283000000.0 237483000000.0 64450100000.0 90445600000.0 543561000000.0 417962000000.0 307241000000.0 154614000000.0 181030000000.0 54392800000.0 41019900000.0 51308800000.0 51308800000.0 41019900000.0 54392800000.0 181030000000.0 154614000000.0 307241000000.0 417962000000.0 543561000000.0 90445600000.0 34776200000.0 121194000000.0 496255000000.0 416413000000.0 398010000000.0 358387000000.0 399004000000.0 58024400000.0 37653700000.0 97851800000.0 113152000000.0 169042000000.0 8772170000.0 144457000000.0 257284000000.0 228008000000.0 250837000000.0 240671000000.0 232346000000.0 231197000000.0 235814000000.0 241321000000.0 245334000000.0 247441000000.0 247932000000.0 247240000000.0 245771000000.0 243875000000.0 241861000000.0 240000000000.0 238511000000.0 237557000000.0 237229000000.0 237557000000.0 238511000000.0 240000000000.0 241861000000.0 243875000000.0 245771000000.0 247240000000.0 247932000000.0 247441000000.0 245334000000.0 241321000000.0 235814000000.0 231197000000.0 232346000000.0 240671000000.0 250837000000.0 228008000000.0 257284000000.0 144457000000.0 8772170000.0 169042000000.0 113152000000.0 97851800000.0 37653700000.0 58024400000.0 399004000000.0 358387000000.0 398010000000.0 416413000000.0 496255000000.0 121194000000.0 34776200000.0 49805400000.0 1119310000.0 118897000000.0 46192500000.0 374221000000.0 368320000000.0 479917000000.0 363536000000.0 223808000000.0 133721000000.0 289182000000.0 169200000000.0 259417000000.0 144425000000.0 13738900000.0 140369000000.0 279416000000.0 259593000000.0 264067000000.0 257327000000.0 249865000000.0 243192000000.0 241661000000.0 243105000000.0 244531000000.0 244686000000.0 243496000000.0 241288000000.0 238474000000.0 235438000000.0 232515000000.0 229973000000.0 228015000000.0 226787000000.0 226370000000.0 226787000000.0 228015000000.0 229973000000.0 232515000000.0 235438000000.0 238474000000.0 241288000000.0 243496000000.0 244686000000.0 244531000000.0 243105000000.0 241661000000.0 243192000000.0 249865000000.0 257327000000.0 264067000000.0 259593000000.0 279416000000.0 140369000000.0 13738900000.0 144425000000.0 259417000000.0 169200000000.0 289182000000.0 133721000000.0 223808000000.0 363536000000.0 479917000000.0 368320000000.0 374221000000.0 46192500000.0 118897000000.0 1119310000.0 49805400000.0 90928900000.0 121694000000.0 59617300000.0 122157000000.0 217872000000.0 229661000000.0 575649000000.0 719116000000.0 92249800000.0 146165000000.0 182237000000.0 46557000000.0 103140000000.0 103140000000.0 46557000000.0 182237000000.0 146165000000.0 92249800000.0 719116000000.0 575649000000.0 229661000000.0 217872000000.0 122157000000.0 59617300000.0 121694000000.0 90928900000.0 3688610000.0 33344000000.0 328607000000.0 7481080000.0 31234500000.0 326180000000.0 238152000000.0 274992000000.0 303463000000.0 204678000000.0 39597800000.0 242738000000.0 33502700000.0 237015000000.0 294874000000.0 311132000000.0 299199000000.0 283284000000.0 265355000000.0 251620000000.0 247840000000.0 246925000000.0 244549000000.0 239928000000.0 233846000000.0 227124000000.0 220353000000.0 213969000000.0 208318000000.0 203663000000.0 200198000000.0 198062000000.0 197341000000.0 198062000000.0 200198000000.0 203663000000.0 208318000000.0 213969000000.0 220353000000.0 227124000000.0 233846000000.0 239928000000.0 244549000000.0 246925000000.0 247840000000.0 251620000000.0 265355000000.0 283284000000.0 299199000000.0 311132000000.0 294874000000.0 237015000000.0 33502700000.0 242738000000.0 39597800000.0 204678000000.0 303463000000.0 274992000000.0 238152000000.0 326180000000.0 31234500000.0 7481080000.0 328607000000.0 33344000000.0 3688610000.0 228354000000.0 153876000000.0 197965000000.0 432354000000.0 3637680000.0 343545000000.0 103358000000.0 593907000000.0 142640000000.0 298692000000.0 176982000000.0 154174000000.0 47130300000.0 283046000000.0 277032000000.0 289367000000.0 322743000000.0 298857000000.0 273079000000.0 249490000000.0 231335000000.0 215757000000.0 198953000000.0 184375000000.0 173608000000.0 165429000000.0 158424000000.0 152055000000.0 146328000000.0 141395000000.0 137398000000.0 134444000000.0 132625000000.0 132011000000.0 132625000000.0 134444000000.0 137398000000.0 141395000000.0 146328000000.0 152055000000.0 158424000000.0 165429000000.0 173608000000.0 184375000000.0 198953000000.0 215757000000.0 231335000000.0 249490000000.0 273079000000.0 298857000000.0 322743000000.0 289367000000.0 277032000000.0 283046000000.0 47130300000.0 154174000000.0 176982000000.0 298692000000.0 142640000000.0 593907000000.0 103358000000.0 343545000000.0 3637680000.0 432354000000.0 197965000000.0 153876000000.0 228354000000.0 18709100000.0 109252000000.0 107648000000.0 35636200000.0 195432000000.0 373311000000.0 376781000000.0 341303000000.0 96040300000.0 445464000000.0 274756000000.0 209986000000.0 155892000000.0 376015000000.0 327077000000.0 254616000000.0 46013900000.0 46013900000.0 254616000000.0 327077000000.0 376015000000.0 155892000000.0 209986000000.0 274756000000.0 445464000000.0 96040300000.0 341303000000.0 376781000000.0 373311000000.0 195432000000.0 35636200000.0 107648000000.0 109252000000.0 18709100000.0 93744500000.0 62386700000.0 70952700000.0 178794000000.0 22434300000.0 560274000000.0 375317000000.0 111176000000.0 50640600000.0 114256000000.0 44393300000.0 27637300000.0 27737800000.0 18328700000.0 8583310000.0 101256000000.0 98776700000.0 80815400000.0 61621100000.0 41437900000.0 26732600000.0 13020800000.0 1304160000.0 5195440000.0 7557820000.0 8144400000.0 8237420000.0 8230440000.0 8206230000.0 8192260000.0 8189590000.0 8173130000.0 8138500000.0 8119880000.0 8138500000.0 8173130000.0 8189590000.0 8192260000.0 8206230000.0 8230440000.0 8237420000.0 8144400000.0 7557820000.0 5195440000.0 1304160000.0 13020800000.0 26732600000.0 41437900000.0 61621100000.0 80815400000.0 98776700000.0 101256000000.0 8583310000.0 18328700000.0 27737800000.0 27637300000.0 44393300000.0 114256000000.0 50640600000.0 111176000000.0 375317000000.0 560274000000.0 22434300000.0 178794000000.0 70952700000.0 62386700000.0 93744500000.0 158877000000.0 14832500000.0 50898600000.0 73629500000.0 288954000000.0 333971000000.0 15753600000.0 231635000000.0 24227000000.0 24227000000.0 231635000000.0 15753600000.0 333971000000.0 288954000000.0 73629500000.0 50898600000.0 14832500000.0 158877000000.0 285113000000.0 71480400000.0 11206000000.0 8097950000.0 215524000000.0 120057000000.0 134363000000.0 160700000000.0 58020200000.0 212479000000.0 7747990000.0 71297000000.0 397126000000.0 432816000000.0 490235000000.0 362955000000.0 394191000000.0 283981000000.0 331537000000.0 362736000000.0 441069000000.0 405294000000.0 372334000000.0 341195000000.0 314173000000.0 289146000000.0 265406000000.0 244483000000.0 226912000000.0 212035000000.0 199183000000.0 188022000000.0 178421000000.0 170346000000.0 163792000000.0 158740000000.0 155157000000.0 153015000000.0 152302000000.0 153015000000.0 155157000000.0 158740000000.0 163792000000.0 170346000000.0 178421000000.0 188022000000.0 199183000000.0 212035000000.0 226912000000.0 244483000000.0 265406000000.0 289146000000.0 314173000000.0 341195000000.0 372334000000.0 405294000000.0 441069000000.0 362736000000.0 331537000000.0 283981000000.0 394191000000.0 362955000000.0 490235000000.0 432816000000.0 397126000000.0 71297000000.0 7747990000.0 212479000000.0 58020200000.0 160700000000.0 134363000000.0 120057000000.0 215524000000.0 8097950000.0 11206000000.0 71480400000.0 285113000000.0 7767840000.0 240649000000.0 66153500000.0 125190000000.0 115440000000.0 38215500000.0 197028000000.0 333218000000.0 168915000000.0 211050000000.0 111139000000.0 26505300000.0 75645700000.0 52360600000.0 33030100000.0 10061100000.0 3819330000.0 8125630000.0 8926830000.0 9026290000.0 9035130000.0 9035720000.0 9035750000.0 9035750000.0 9035750000.0 9035750000.0 9035750000.0 9035750000.0 9035750000.0 9035750000.0 9035750000.0 9035920000.0 9035750000.0 9035750000.0 9035750000.0 9035750000.0 9035750000.0 9035750000.0 9035750000.0 9035750000.0 9035750000.0 9035720000.0 9035130000.0 9026290000.0 8926830000.0 8125630000.0 3819330000.0 10061100000.0 33030100000.0 52360600000.0 75645700000.0 26505300000.0 111139000000.0 211050000000.0 168915000000.0 333218000000.0 197028000000.0 38215500000.0 115440000000.0 125190000000.0 66153500000.0 240649000000.0 7767840000.0 100523000000.0 8972550000.0 78338700000.0 84883400000.0 119981000000.0 244368000000.0 244368000000.0 119981000000.0 84883400000.0 78338700000.0 8972550000.0 100523000000.0 41235000000.0 72690900000.0 140282000000.0 150071000000.0 44540100000.0 1886110000.0 204236000000.0 328306000000.0 303249000000.0 346988000000.0 231526000000.0 107966000000.0 36826500000.0 157259000000.0 165780000000.0 195317000000.0 200529000000.0 155983000000.0 292173000000.0 281148000000.0 264173000000.0 245167000000.0 225174000000.0 205066000000.0 185884000000.0 168371000000.0 152561000000.0 138243000000.0 125319000000.0 113790000000.0 103678000000.0 94998200000.0 87739100000.0 81865700000.0 77338700000.0 74127000000.0 72209300000.0 71571500000.0 72209300000.0 74127000000.0 77338700000.0 81865700000.0 87739100000.0 94998200000.0 103678000000.0 113790000000.0 125319000000.0 138243000000.0 152561000000.0 168371000000.0 185884000000.0 205066000000.0 225174000000.0 245167000000.0 264173000000.0 281148000000.0 292173000000.0 155983000000.0 200529000000.0 195317000000.0 165780000000.0 157259000000.0 36826500000.0 107966000000.0 231526000000.0 346988000000.0 303249000000.0 328306000000.0 204236000000.0 1886110000.0 44540100000.0 150071000000.0 140282000000.0 72690900000.0 41235000000.0 27578300000.0 13571700000.0 176722000000.0 13390700000.0 55844800000.0 112117000000.0 41705700000.0 200631000000.0 174560000000.0 145545000000.0 191591000000.0 124402000000.0 82480500000.0 21253200000.0 16433400000.0 24866700000.0 1721460000.0 103618000000.0 9035750000.0 9035750000.0 9035750000.0 9035750000.0 9035750000.0 9035750000.0 9035750000.0 9035750000.0 9035750000.0 9035750000.0 9035750000.0 9035750000.0 9035750000.0 9035750000.0 9035750000.0 9035750000.0 9035750000.0 9035750000.0 9035750000.0 9035750000.0 9035750000.0 9035750000.0 9035750000.0 9035750000.0 9035750000.0 9035750000.0 9035750000.0 9035750000.0 9035750000.0 9035750000.0 9035750000.0 9035750000.0 9035750000.0 9035750000.0 9035750000.0 9035750000.0 9035750000.0 9035750000.0 9035750000.0 103618000000.0 1721460000.0 24866700000.0 16433400000.0 21253200000.0 82480500000.0 124402000000.0 191591000000.0 145545000000.0 174560000000.0 200631000000.0 41705700000.0 112117000000.0 55844800000.0 13390700000.0 176722000000.0 13571700000.0 27578300000.0 3726400000.0 85457000000.0 9600750000.0 1770110000.0 42570300000.0 78964300000.0 14382700000.0 157208000000.0 59204500000.0 122241000000.0 216928000000.0 343086000000.0 376479000000.0 375342000000.0 337181000000.0 266737000000.0 263564000000.0 143939000000.0 208351000000.0 176028000000.0 147828000000.0 123535000000.0 102739000000.0 84991800000.0 69841300000.0 56956600000.0 46107500000.0 37065000000.0 29578100000.0 23412100000.0 18368100000.0 14282700000.0 11026400000.0 8498770000.0 6619530000.0 5324680000.0 4566890000.0 4317470000.0 4566890000.0 5324680000.0 6619530000.0 8498770000.0 11026400000.0 14282700000.0 18368100000.0 23412100000.0 29578100000.0 37065000000.0 46107500000.0 56956600000.0 69841300000.0 84991800000.0 102739000000.0 123535000000.0 147828000000.0 176028000000.0 208351000000.0 143939000000.0 263564000000.0 266737000000.0 337181000000.0 375342000000.0 376479000000.0 343086000000.0 216928000000.0 122241000000.0 59204500000.0 157208000000.0 14382700000.0 78964300000.0 42570300000.0 1770110000.0 9600750000.0 85457000000.0 3726400000.0 26764200000.0 148581000000.0 2245610000.0 44794200000.0 48412200000.0 15041100000.0 35455800000.0 17017500000.0 229186000000.0 123588000000.0 121915000000.0 72782100000.0 7546710000.0 47343400000.0 7351830000.0 62887500000.0 6968730000.0 85531100000.0 9080160000.0 9035750000.0 9035750000.0 9035750000.0 9035750000.0 9035750000.0 9035750000.0 9035750000.0 9035750000.0 9035750000.0 9035750000.0 9035750000.0 9035750000.0 9035750000.0 9035750000.0 9035750000.0 9035750000.0 9035750000.0 9035750000.0 9035750000.0 9035750000.0 9035750000.0 9035750000.0 9035750000.0 9035750000.0 9035750000.0 9035750000.0 9035750000.0 9035750000.0 9035750000.0 9035750000.0 9035750000.0 9035750000.0 9035750000.0 9035750000.0 9035750000.0 9035750000.0 9035750000.0 9080160000.0 85531100000.0 6968730000.0 62887500000.0 7351830000.0 47343400000.0 7546710000.0 72782100000.0 121915000000.0 123588000000.0 229186000000.0 17017500000.0 35455800000.0 15041100000.0 48412200000.0 44794200000.0 2245610000.0 148581000000.0 26764200000.0 40746500000.0 139454000000.0 6577510000.0 2106680000.0 20695700000.0 46556700000.0 69988000000.0 89904100000.0 199461000000.0 11414900000.0 12574600000.0 40790500000.0 79519500000.0 25599600000.0 54604500000.0 13285000000.0 36582600000.0 32209800000.0 23930500000.0 18104800000.0 13071500000.0 8811380000.0 5242150000.0 2288150000.0 123090000.0 2068280000.0 3623840000.0 4858630000.0 5831790000.0 6592730000.0 7181860000.0 7632170000.0 7970900000.0 8220280000.0 8397660000.0 8515860000.0 8583530000.0 8605570000.0 8583530000.0 8515860000.0 8397660000.0 8220280000.0 7970900000.0 7632170000.0 7181860000.0 6592730000.0 5831790000.0 4858630000.0 3623840000.0 2068280000.0 123090000.0 2288150000.0 5242150000.0 8811380000.0 13071500000.0 18104800000.0 23930500000.0 32209800000.0 36582600000.0 13285000000.0 54604500000.0 25599600000.0 79519500000.0 40790500000.0 12574600000.0 11414900000.0 199461000000.0 89904100000.0 69988000000.0 46556700000.0 20695700000.0 2106680000.0 6577510000.0 139454000000.0 40746500000.0 44359400000.0 139572000000.0 35090100000.0 3927920000.0 12349200000.0 21676300000.0 80703200000.0 97377700000.0 208090000000.0 107041000000.0 104201000000.0 53037500000.0 8785540000.0 51576100000.0 8767360000.0 67670400000.0 8909880000.0 55285800000.0 9035930000.0 9035780000.0 9035780000.0 9035780000.0 9035770000.0 9035770000.0 9035770000.0 9035780000.0 9035800000.0 9035810000.0 9035800000.0 9035790000.0 9035780000.0 9035770000.0 9035760000.0 9035760000.0 9035760000.0 9035750000.0 9035750000.0 9035750000.0 9035750000.0 9035750000.0 9035760000.0 9035760000.0 9035760000.0 9035770000.0 9035780000.0 9035790000.0 9035800000.0 9035810000.0 9035800000.0 9035780000.0 9035770000.0 9035770000.0 9035770000.0 9035780000.0 9035780000.0 9035780000.0 9035930000.0 55285800000.0 8909880000.0 67670400000.0 8767360000.0 51576100000.0 8785540000.0 53037500000.0 104201000000.0 107041000000.0 208090000000.0 97377700000.0 80703200000.0 21676300000.0 12349200000.0 3927920000.0 35090100000.0 139572000000.0 44359400000.0 50279400000.0 127021000000.0 47223000000.0 12777800000.0 23419500000.0 34290600000.0 123392000000.0 131265000000.0 173036000000.0 88511500000.0 79023700000.0 37498300000.0 3176780000.0 46259000000.0 5676530000.0 62873700000.0 7403270000.0 40865200000.0 8686700000.0 8996490000.0 9034000000.0 9035770000.0 9035810000.0 9035800000.0 9035800000.0 9035820000.0 9035820000.0 9035810000.0 9035800000.0 9035790000.0 9035780000.0 9035770000.0 9035760000.0 9035760000.0 9035760000.0 9035750000.0 9035750000.0 9035750000.0 9035750000.0 9035750000.0 9035760000.0 9035760000.0 9035760000.0 9035770000.0 9035780000.0 9035790000.0 9035800000.0 9035810000.0 9035820000.0 9035820000.0 9035800000.0 9035800000.0 9035810000.0 9035770000.0 9034000000.0 8996490000.0 8686700000.0 40865200000.0 7403270000.0 62873700000.0 5676530000.0 46259000000.0 3176780000.0 37498300000.0 79023700000.0 88511500000.0 173036000000.0 131265000000.0 123392000000.0 34290600000.0 23419500000.0 12777800000.0 47223000000.0 127021000000.0 50279400000.0 53137900000.0 112133000000.0 55802100000.0 15082800000.0 21667800000.0 34305100000.0 134536000000.0 138373000000.0 148363000000.0 89756300000.0 72870100000.0 40555400000.0 9035890000.0 49275600000.0 9035830000.0 61245700000.0 9035810000.0 31404700000.0 9035830000.0 9035890000.0 9035870000.0 9035850000.0 9035840000.0 9035830000.0 9035830000.0 9035830000.0 9035820000.0 9035810000.0 9035790000.0 9035780000.0 9035770000.0 9035770000.0 9035760000.0 9035760000.0 9035760000.0 9035750000.0 9035750000.0 9035750000.0 9035750000.0 9035750000.0 9035760000.0 9035760000.0 9035760000.0 9035770000.0 9035770000.0 9035780000.0 9035790000.0 9035810000.0 9035820000.0 9035830000.0 9035830000.0 9035830000.0 9035840000.0 9035850000.0 9035870000.0 9035890000.0 9035830000.0 31404700000.0 9035810000.0 61245700000.0 9035830000.0 49275600000.0 9035890000.0 40555400000.0 72870100000.0 89756300000.0 148363000000.0 138373000000.0 134536000000.0 34305100000.0 21667800000.0 15082800000.0 55802100000.0 112133000000.0 53137900000.0 55409100000.0 98731800000.0 63003600000.0 19117400000.0 23543400000.0 41889600000.0 141379000000.0 136191000000.0 120373000000.0 80100200000.0 58884600000.0 37562700000.0 9036140000.0 47801500000.0 9035980000.0 56238900000.0 9035910000.0 23766900000.0 9035940000.0 9035940000.0 9035910000.0 9035880000.0 9035870000.0 9035860000.0 9035850000.0 9035830000.0 9035820000.0 9035800000.0 9035790000.0 9035780000.0 9035770000.0 9035770000.0 9035760000.0 9035760000.0 9035760000.0 9035750000.0 9035750000.0 9035750000.0 9035750000.0 9035750000.0 9035760000.0 9035760000.0 9035760000.0 9035770000.0 9035770000.0 9035780000.0 9035790000.0 9035800000.0 9035820000.0 9035830000.0 9035850000.0 9035860000.0 9035870000.0 9035880000.0 9035910000.0 9035940000.0 9035940000.0 23766900000.0 9035910000.0 56238900000.0 9035980000.0 47801500000.0 9036140000.0 37562700000.0 58884600000.0 80100200000.0 120373000000.0 136191000000.0 141379000000.0 41889600000.0 23543400000.0 19117400000.0 63003600000.0 98731800000.0 55409100000.0 23413300000.0 100135000000.0 47002600000.0 36172300000.0 9036380000.0 46148000000.0 9036120000.0 50831100000.0 9036000000.0 18482000000.0 9035990000.0 9035980000.0 9035940000.0 9035910000.0 9035890000.0 9035870000.0 9035850000.0 9035830000.0 9035810000.0 9035800000.0 9035790000.0 9035780000.0 9035770000.0 9035770000.0 9035760000.0 9035760000.0 9035760000.0 9035750000.0 9035750000.0 9035750000.0 9035750000.0 9035750000.0 9035760000.0 9035760000.0 9035760000.0 9035770000.0 9035770000.0 9035780000.0 9035790000.0 9035800000.0 9035810000.0 9035830000.0 9035850000.0 9035870000.0 9035890000.0 9035910000.0 9035940000.0 9035980000.0 9035990000.0 18482000000.0 9036000000.0 50831100000.0 9036120000.0 46148000000.0 9036380000.0 36172300000.0 47002600000.0 100135000000.0 23413300000.0 56665000000.0 85976700000.0 66890600000.0 21310000000.0 47016900000.0 142042000000.0 131988000000.0 71736200000.0 71736200000.0 131988000000.0 142042000000.0 47016900000.0 21310000000.0 66890600000.0 85976700000.0 56665000000.0 57215900000.0 74996200000.0 69021700000.0 23253800000.0 23294500000.0 51325800000.0 138879000000.0 124341000000.0 83910900000.0 64090700000.0 37269100000.0 35492100000.0 9036610000.0 44255700000.0 9036250000.0 45407700000.0 9036080000.0 14955500000.0 9036030000.0 9036010000.0 9035960000.0 9035930000.0 9035900000.0 9035870000.0 9035850000.0 9035830000.0 9035810000.0 9035790000.0 9035780000.0 9035780000.0 9035770000.0 9035770000.0 9035760000.0 9035760000.0 9035760000.0 9035750000.0 9035750000.0 9035750000.0 9035750000.0 9035750000.0 9035760000.0 9035760000.0 9035760000.0 9035770000.0 9035770000.0 9035780000.0 9035780000.0 9035790000.0 9035810000.0 9035830000.0 9035850000.0 9035870000.0 9035900000.0 9035930000.0 9035960000.0 9036010000.0 9036030000.0 14955500000.0 9036080000.0 45407700000.0 9036250000.0 44255700000.0 9036610000.0 35492100000.0 37269100000.0 64090700000.0 83910900000.0 124341000000.0 138879000000.0 51325800000.0 23294500000.0 23253800000.0 69021700000.0 74996200000.0 57215900000.0 57168200000.0 65879600000.0 69680000000.0 24940600000.0 23216800000.0 54548500000.0 132713000000.0 115288000000.0 71790200000.0 57665800000.0 29612000000.0 34883900000.0 9036830000.0 42115400000.0 9036370000.0 40217800000.0 9036150000.0 12661000000.0 9036060000.0 9036030000.0 9035980000.0 9035940000.0 9035900000.0 9035870000.0 9035840000.0 9035820000.0 9035810000.0 9035790000.0 9035780000.0 9035780000.0 9035770000.0 9035770000.0 9035760000.0 9035760000.0 9035760000.0 9035750000.0 9035750000.0 9035750000.0 9035750000.0 9035750000.0 9035760000.0 9035760000.0 9035760000.0 9035770000.0 9035770000.0 9035780000.0 9035780000.0 9035790000.0 9035810000.0 9035820000.0 9035840000.0 9035870000.0 9035900000.0 9035940000.0 9035980000.0 9036030000.0 9036060000.0 12661000000.0 9036150000.0 40217800000.0 9036370000.0 42115400000.0 9036830000.0 34883900000.0 29612000000.0 57665800000.0 71790200000.0 115288000000.0 132713000000.0 54548500000.0 23216800000.0 24940600000.0 69680000000.0 65879600000.0 57168200000.0 56627500000.0 58542300000.0 69135000000.0 26366800000.0 23230100000.0 56755200000.0 124399000000.0 105586000000.0 62171400000.0 52460500000.0 23826200000.0 34113100000.0 9037030000.0 39774800000.0 9036480000.0 35416000000.0 9036200000.0 11194400000.0 9036090000.0 9036050000.0 9035990000.0 9035940000.0 9035900000.0 9035870000.0 9035840000.0 9035820000.0 9035810000.0 9035790000.0 9035790000.0 9035780000.0 9035770000.0 9035770000.0 9035760000.0 9035760000.0 9035760000.0 9035750000.0 9035750000.0 9035750000.0 9035750000.0 9035750000.0 9035760000.0 9035760000.0 9035760000.0 9035770000.0 9035770000.0 9035780000.0 9035790000.0 9035790000.0 9035810000.0 9035820000.0 9035840000.0 9035870000.0 9035900000.0 9035940000.0 9035990000.0 9036050000.0 9036090000.0 11194400000.0 9036200000.0 35416000000.0 9036480000.0 39774800000.0 9037030000.0 34113100000.0 23826200000.0 52460500000.0 62171400000.0 105586000000.0 124399000000.0 56755200000.0 23230100000.0 26366800000.0 69135000000.0 58542300000.0 56627500000.0 55696600000.0 52790600000.0 67639900000.0 27531300000.0 23330700000.0 58014700000.0 114791000000.0 95833400000.0 53871800000.0 48331600000.0 19592600000.0 33164000000.0 9037220000.0 37310400000.0 9036580000.0 31090400000.0 9036250000.0 10274800000.0 9036110000.0 9036050000.0 9035990000.0 9035940000.0 9035900000.0 9035870000.0 9035840000.0 9035820000.0 9035810000.0 9035800000.0 9035790000.0 9035780000.0 9035770000.0 9035770000.0 9035760000.0 9035760000.0 9035760000.0 9035750000.0 9035750000.0 9035750000.0 9035750000.0 9035750000.0 9035760000.0 9035760000.0 9035760000.0 9035770000.0 9035770000.0 9035780000.0 9035790000.0 9035800000.0 9035810000.0 9035820000.0 9035840000.0 9035870000.0 9035900000.0 9035940000.0 9035990000.0 9036050000.0 9036110000.0 10274800000.0 9036250000.0 31090400000.0 9036580000.0 37310400000.0 9037220000.0 33164000000.0 19592600000.0 48331600000.0 53871800000.0 95833400000.0 114791000000.0 58014700000.0 23330700000.0 27531300000.0 67639900000.0 52790600000.0 55696600000.0 54464400000.0 48377300000.0 65425600000.0 28437900000.0 23457400000.0 58422600000.0 104600000000.0 86450300000.0 46426900000.0 45072200000.0 16561100000.0 32079600000.0 9037380000.0 34797100000.0 9036670000.0 27276700000.0 9036290000.0 9714430000.0 9036120000.0 9036060000.0 9035990000.0 9035940000.0 9035900000.0 9035870000.0 9035840000.0 9035820000.0 9035810000.0 9035800000.0 9035790000.0 9035780000.0 9035770000.0 9035770000.0 9035760000.0 9035760000.0 9035760000.0 9035750000.0 9035750000.0 9035750000.0 9035750000.0 9035750000.0 9035760000.0 9035760000.0 9035760000.0 9035770000.0 9035770000.0 9035780000.0 9035790000.0 9035800000.0 9035810000.0 9035820000.0 9035840000.0 9035870000.0 9035900000.0 9035940000.0 9035990000.0 9036060000.0 9036120000.0 9714430000.0 9036290000.0 27276700000.0 9036670000.0 34797100000.0 9037380000.0 32079600000.0 16561100000.0 45072200000.0 46426900000.0 86450300000.0 104600000000.0 58422600000.0 23457400000.0 28437900000.0 65425600000.0 48377300000.0 54464400000.0 53003200000.0 45041200000.0 62698000000.0 29094800000.0 23542300000.0 58093600000.0 94360100000.0 77704600000.0 39781400000.0 42463300000.0 14417800000.0 30899500000.0 9037520000.0 32297500000.0 9036740000.0 23971900000.0 9036330000.0 9386510000.0 9036130000.0 9036060000.0 9035990000.0 9035940000.0 9035900000.0 9035870000.0 9035840000.0 9035820000.0 9035810000.0 9035800000.0 9035790000.0 9035780000.0 9035770000.0 9035770000.0 9035760000.0 9035760000.0 9035760000.0 9035750000.0 9035750000.0 9035750000.0 9035750000.0 9035750000.0 9035760000.0 9035760000.0 9035760000.0 9035770000.0 9035770000.0 9035780000.0 9035790000.0 9035800000.0 9035810000.0 9035820000.0 9035840000.0 9035870000.0 9035900000.0 9035940000.0 9035990000.0 9036060000.0 9036130000.0 9386510000.0 9036330000.0 23971900000.0 9036740000.0 32297500000.0 9037520000.0 30899500000.0 14417800000.0 42463300000.0 39781400000.0 77704600000.0 94360100000.0 58093600000.0 23542300000.0 29094800000.0 62698000000.0 45041200000.0 53003200000.0 51371500000.0 42531900000.0 59635700000.0 29514300000.0 23545600000.0 57152600000.0 84447900000.0 69741500000.0 33985300000.0 40305300000.0 12912500000.0 29649500000.0 9037640000.0 29861400000.0 9036800000.0 21148600000.0 9036360000.0 9204480000.0 9036140000.0 9036060000.0 9035990000.0 9035940000.0 9035900000.0 9035870000.0 9035850000.0 9035830000.0 9035810000.0 9035800000.0 9035790000.0 9035780000.0 9035780000.0 9035770000.0 9035760000.0 9035760000.0 9035760000.0 9035750000.0 9035750000.0 9035750000.0 9035750000.0 9035750000.0 9035760000.0 9035760000.0 9035760000.0 9035770000.0 9035780000.0 9035780000.0 9035790000.0 9035800000.0 9035810000.0 9035830000.0 9035850000.0 9035870000.0 9035900000.0 9035940000.0 9035990000.0 9036060000.0 9036140000.0 9204480000.0 9036360000.0 21148600000.0 9036800000.0 29861400000.0 9037640000.0 29649500000.0 12912500000.0 40305300000.0 33985300000.0 69741500000.0 84447900000.0 57152600000.0 23545600000.0 29514300000.0 59635700000.0 42531900000.0 51371500000.0 49618100000.0 40625700000.0 56388100000.0 29712300000.0 23455100000.0 55723200000.0 75116300000.0 62618600000.0 29060000000.0 38435600000.0 11855900000.0 28347300000.0 9037740000.0 27527800000.0 9036850000.0 18766400000.0 9036380000.0 9110210000.0 9036150000.0 9036060000.0 9035990000.0 9035940000.0 9035900000.0 9035870000.0 9035850000.0 9035830000.0 9035810000.0 9035800000.0 9035790000.0 9035780000.0 9035780000.0 9035770000.0 9035760000.0 9035760000.0 9035760000.0 9035750000.0 9035750000.0 9035750000.0 9035750000.0 9035750000.0 9035760000.0 9035760000.0 9035760000.0 9035770000.0 9035780000.0 9035780000.0 9035790000.0 9035800000.0 9035810000.0 9035830000.0 9035850000.0 9035870000.0 9035900000.0 9035940000.0 9035990000.0 9036060000.0 9036150000.0 9110210000.0 9036380000.0 18766400000.0 9036850000.0 27527800000.0 9037740000.0 28347300000.0 11855900000.0 38435600000.0 29060000000.0 62618600000.0 75116300000.0 55723200000.0 23455100000.0 29712300000.0 56388100000.0 40625700000.0 49618100000.0 47783900000.0 39133200000.0 53076700000.0 29707200000.0 23271100000.0 53918900000.0 66519700000.0 56333100000.0 24972200000.0 36733800000.0 11109800000.0 27008600000.0 9037830000.0 25325800000.0 9036890000.0 16778900000.0 9036400000.0 9065610000.0 9036150000.0 9036060000.0 9035990000.0 9035940000.0 9035900000.0 9035870000.0 9035850000.0 9035830000.0 9035810000.0 9035800000.0 9035790000.0 9035780000.0 9035780000.0 9035770000.0 9035770000.0 9035760000.0 9035760000.0 9035750000.0 9035750000.0 9035750000.0 9035750000.0 9035750000.0 9035760000.0 9035760000.0 9035770000.0 9035770000.0 9035780000.0 9035780000.0 9035790000.0 9035800000.0 9035810000.0 9035830000.0 9035850000.0 9035870000.0 9035900000.0 9035940000.0 9035990000.0 9036060000.0 9036150000.0 9065610000.0 9036400000.0 16778900000.0 9036890000.0 25325800000.0 9037830000.0 27008600000.0 11109800000.0 36733800000.0 24972200000.0 56333100000.0 66519700000.0 53918900000.0 23271100000.0 29707200000.0 53076700000.0 39133200000.0 47783900000.0 45903300000.0 37901700000.0 49795400000.0 29519200000.0 22997700000.0 51839900000.0 58735100000.0 50842200000.0 21646100000.0 35117200000.0 10577100000.0 25649400000.0 9037890000.0 23275500000.0 9036920000.0 15138500000.0 9036420000.0 9046680000.0 9036160000.0 9036060000.0 9035990000.0 9035940000.0 9035900000.0 9035870000.0 9035850000.0 9035830000.0 9035810000.0 9035800000.0 9035790000.0 9035780000.0 9035780000.0 9035770000.0 9035770000.0 9035760000.0 9035760000.0 9035750000.0 9035750000.0 9035750000.0 9035750000.0 9035750000.0 9035760000.0 9035760000.0 9035770000.0 9035770000.0 9035780000.0 9035780000.0 9035790000.0 9035800000.0 9035810000.0 9035830000.0 9035850000.0 9035870000.0 9035900000.0 9035940000.0 9035990000.0 9036060000.0 9036160000.0 9046680000.0 9036420000.0 15138500000.0 9036920000.0 23275500000.0 9037890000.0 25649400000.0 10577100000.0 35117200000.0 21646100000.0 50842200000.0 58735100000.0 51839900000.0 22997700000.0 29519200000.0 49795400000.0 37901700000.0 45903300000.0 44004400000.0 36815300000.0 46613800000.0 29169800000.0 22640000000.0 49571500000.0 51782500000.0 46078200000.0 18981900000.0 33534900000.0 10192700000.0 24287100000.0 9037940000.0 21389400000.0 9036940000.0 13798700000.0 9036430000.0 9039560000.0 9036160000.0 9036060000.0 9035990000.0 9035940000.0 9035900000.0 9035870000.0 9035850000.0 9035830000.0 9035820000.0 9035800000.0 9035790000.0 9035780000.0 9035780000.0 9035770000.0 9035770000.0 9035760000.0 9035760000.0 9035750000.0 9035750000.0 9035750000.0 9035750000.0 9035750000.0 9035760000.0 9035760000.0 9035770000.0 9035770000.0 9035780000.0 9035780000.0 9035790000.0 9035800000.0 9035820000.0 9035830000.0 9035850000.0 9035870000.0 9035900000.0 9035940000.0 9035990000.0 9036060000.0 9036160000.0 9039560000.0 9036430000.0 13798700000.0 9036940000.0 21389400000.0 9037940000.0 24287100000.0 10192700000.0 33534900000.0 18981900000.0 46078200000.0 51782500000.0 49571500000.0 22640000000.0 29169800000.0 46613800000.0 36815300000.0 44004400000.0 42110200000.0 35791700000.0 43579400000.0 28680600000.0 22204300000.0 47185300000.0 45641700000.0 41960100000.0 16872200000.0 31961500000.0 9913960000.0 22939300000.0 9037970000.0 19673400000.0 9036960000.0 12715600000.0 9036440000.0 9037200000.0 9036160000.0 9036060000.0 9035990000.0 9035940000.0 9035900000.0 9035870000.0 9035850000.0 9035830000.0 9035820000.0 9035800000.0 9035790000.0 9035780000.0 9035780000.0 9035770000.0 9035770000.0 9035760000.0 9035760000.0 9035750000.0 9035750000.0 9035750000.0 9035750000.0 9035750000.0 9035760000.0 9035760000.0 9035770000.0 9035770000.0 9035780000.0 9035780000.0 9035790000.0 9035800000.0 9035820000.0 9035830000.0 9035850000.0 9035870000.0 9035900000.0 9035940000.0 9035990000.0 9036060000.0 9036160000.0 9037200000.0 9036440000.0 12715600000.0 9036960000.0 19673400000.0 9037970000.0 22939300000.0 9913960000.0 31961500000.0 16872200000.0 41960100000.0 45641700000.0 47185300000.0 22204300000.0 28680600000.0 43579400000.0 35791700000.0 42110200000.0 40239300000.0 34777000000.0 40721700000.0 28073200000.0 21698900000.0 44740000000.0 40266300000.0 38402300000.0 15214400000.0 30390100000.0 9712040000.0 21622800000.0 9037980000.0 18128100000.0 9036960000.0 11849200000.0 9036440000.0 9036510000.0 9036150000.0 9036060000.0 9035990000.0 9035940000.0 9035900000.0 9035870000.0 9035850000.0 9035830000.0 9035820000.0 9035800000.0 9035790000.0 9035780000.0 9035780000.0 9035770000.0 9035770000.0 9035760000.0 9035760000.0 9035750000.0 9035750000.0 9035750000.0 9035750000.0 9035750000.0 9035760000.0 9035760000.0 9035770000.0 9035770000.0 9035780000.0 9035780000.0 9035790000.0 9035800000.0 9035820000.0 9035830000.0 9035850000.0 9035870000.0 9035900000.0 9035940000.0 9035990000.0 9036060000.0 9036150000.0 9036510000.0 9036440000.0 11849200000.0 9036960000.0 18128100000.0 9037980000.0 21622800000.0 9712040000.0 30390100000.0 15214400000.0 38402300000.0 40266300000.0 44740000000.0 21698900000.0 28073200000.0 40721700000.0 34777000000.0 40239300000.0 38406200000.0 33740400000.0 38055600000.0 27368400000.0 21133700000.0 42282900000.0 35594400000.0 35320600000.0 13917400000.0 28825500000.0 9566440000.0 20352800000.0 9037990000.0 16750100000.0 9036960000.0 11163600000.0 9036440000.0 9036330000.0 9036150000.0 9036060000.0 9035990000.0 9035940000.0 9035900000.0 9035870000.0 9035850000.0 9035830000.0 9035810000.0 9035800000.0 9035790000.0 9035780000.0 9035780000.0 9035770000.0 9035770000.0 9035760000.0 9035760000.0 9035750000.0 9035750000.0 9035750000.0 9035750000.0 9035750000.0 9035760000.0 9035760000.0 9035770000.0 9035770000.0 9035780000.0 9035780000.0 9035790000.0 9035800000.0 9035810000.0 9035830000.0 9035850000.0 9035870000.0 9035900000.0 9035940000.0 9035990000.0 9036060000.0 9036150000.0 9036330000.0 9036440000.0 11163600000.0 9036960000.0 16750100000.0 9037990000.0 20352800000.0 9566440000.0 28825500000.0 13917400000.0 35320600000.0 35594400000.0 42282900000.0 21133700000.0 27368400000.0 38055600000.0 33740400000.0 38406200000.0 31557200000.0 12904200000.0 9461830000.0 19141900000.0 9037980000.0 15532600000.0 9036950000.0 10627200000.0 9036430000.0 9036280000.0 9036140000.0 9036050000.0 9035990000.0 9035940000.0 9035900000.0 9035870000.0 9035850000.0 9035830000.0 9035810000.0 9035800000.0 9035790000.0 9035780000.0 9035780000.0 9035770000.0 9035760000.0 9035760000.0 9035760000.0 9035750000.0 9035750000.0 9035750000.0 9035750000.0 9035750000.0 9035760000.0 9035760000.0 9035760000.0 9035770000.0 9035780000.0 9035780000.0 9035790000.0 9035800000.0 9035810000.0 9035830000.0 9035850000.0 9035870000.0 9035900000.0 9035940000.0 9035990000.0 9036050000.0 9036140000.0 9036280000.0 9036430000.0 10627200000.0 9036950000.0 15532600000.0 9037980000.0 19141900000.0 9461830000.0 12904200000.0 31557200000.0 36622100000.0 32668300000.0 35585100000.0 26585800000.0 20520400000.0 39851100000.0 32636600000.0 27278100000.0 27278100000.0 32636600000.0 39851100000.0 20520400000.0 26585800000.0 35585100000.0 32668300000.0 36622100000.0 34895100000.0 31558900000.0 33306100000.0 25744100000.0 19871500000.0 37473600000.0 28084200000.0 30280800000.0 12112300000.0 25760500000.0 9386480000.0 18000500000.0 9037950000.0 14466600000.0 9036940000.0 10212300000.0 9036420000.0 9036260000.0 9036140000.0 9036050000.0 9035980000.0 9035930000.0 9035900000.0 9035870000.0 9035850000.0 9035830000.0 9035810000.0 9035800000.0 9035790000.0 9035780000.0 9035780000.0 9035770000.0 9035760000.0 9035760000.0 9035760000.0 9035750000.0 9035750000.0 9035750000.0 9035750000.0 9035750000.0 9035760000.0 9035760000.0 9035760000.0 9035770000.0 9035780000.0 9035780000.0 9035790000.0 9035800000.0 9035810000.0 9035830000.0 9035850000.0 9035870000.0 9035900000.0 9035930000.0 9035980000.0 9036050000.0 9036140000.0 9036260000.0 9036420000.0 10212300000.0 9036940000.0 14466600000.0 9037950000.0 18000500000.0 9386480000.0 25760500000.0 12112300000.0 30280800000.0 28084200000.0 37473600000.0 19871500000.0 25744100000.0 33306100000.0 31558900000.0 34895100000.0 33230700000.0 30417700000.0 31209300000.0 24860000000.0 19199300000.0 35172300000.0 25107400000.0 28194200000.0 11492200000.0 24285300000.0 9331520000.0 16936000000.0 9037920000.0 13541600000.0 9036920000.0 9895320000.0 9036410000.0 9036250000.0 9036130000.0 9036040000.0 9035980000.0 9035930000.0 9035890000.0 9035870000.0 9035840000.0 9035830000.0 9035810000.0 9035800000.0 9035790000.0 9035780000.0 9035770000.0 9035770000.0 9035760000.0 9035760000.0 9035760000.0 9035750000.0 9035750000.0 9035750000.0 9035750000.0 9035750000.0 9035760000.0 9035760000.0 9035760000.0 9035770000.0 9035770000.0 9035780000.0 9035790000.0 9035800000.0 9035810000.0 9035830000.0 9035840000.0 9035870000.0 9035890000.0 9035930000.0 9035980000.0 9036040000.0 9036130000.0 9036250000.0 9036410000.0 9895320000.0 9036920000.0 13541600000.0 9037920000.0 16936000000.0 9331520000.0 24285300000.0 11492200000.0 28194200000.0 25107400000.0 35172300000.0 19199300000.0 24860000000.0 31209300000.0 30417700000.0 33230700000.0 31632100000.0 29254400000.0 29282400000.0 23948800000.0 18515500000.0 32963200000.0 22563300000.0 26328500000.0 11005000000.0 22863900000.0 9290350000.0 15953100000.0 9037880000.0 12746100000.0 9036890000.0 9656180000.0 9036390000.0 9036240000.0 9036120000.0 9036040000.0 9035970000.0 9035930000.0 9035890000.0 9035860000.0 9035840000.0 9035820000.0 9035810000.0 9035800000.0 9035790000.0 9035780000.0 9035770000.0 9035770000.0 9035760000.0 9035760000.0 9035760000.0 9035750000.0 9035750000.0 9035750000.0 9035750000.0 9035750000.0 9035760000.0 9035760000.0 9035760000.0 9035770000.0 9035770000.0 9035780000.0 9035790000.0 9035800000.0 9035810000.0 9035820000.0 9035840000.0 9035860000.0 9035890000.0 9035930000.0 9035970000.0 9036040000.0 9036120000.0 9036240000.0 9036390000.0 9656180000.0 9036890000.0 12746100000.0 9037880000.0 15953100000.0 9290350000.0 22863900000.0 11005000000.0 26328500000.0 22563300000.0 32963200000.0 18515500000.0 23948800000.0 29282400000.0 29254400000.0 31632100000.0 30100500000.0 28080100000.0 27511500000.0 23024000000.0 17830500000.0 30857900000.0 20394500000.0 24645100000.0 10621100000.0 21506400000.0 9258280000.0 15054000000.0 9037820000.0 12067700000.0 9036860000.0 9478120000.0 9036370000.0 9036220000.0 9036110000.0 9036030000.0 9035970000.0 9035920000.0 9035890000.0 9035860000.0 9035840000.0 9035820000.0 9035810000.0 9035800000.0 9035790000.0 9035780000.0 9035770000.0 9035770000.0 9035760000.0 9035760000.0 9035760000.0 9035750000.0 9035750000.0 9035750000.0 9035750000.0 9035750000.0 9035760000.0 9035760000.0 9035760000.0 9035770000.0 9035770000.0 9035780000.0 9035790000.0 9035800000.0 9035810000.0 9035820000.0 9035840000.0 9035860000.0 9035890000.0 9035920000.0 9035970000.0 9036030000.0 9036110000.0 9036220000.0 9036370000.0 9478120000.0 9036860000.0 12067700000.0 9037820000.0 15054000000.0 9258280000.0 21506400000.0 10621100000.0 24645100000.0 20394500000.0 30857900000.0 17830500000.0 23024000000.0 27511500000.0 28080100000.0 30100500000.0 28635800000.0 26905800000.0 25882900000.0 22097300000.0 17153200000.0 28864100000.0 18549700000.0 23114700000.0 10317400000.0 20220800000.0 9232090000.0 14239000000.0 9037760000.0 11494400000.0 9036830000.0 9347300000.0 9036350000.0 9036210000.0 9036100000.0 9036020000.0 9035960000.0 9035910000.0 9035880000.0 9035860000.0 9035830000.0 9035820000.0 9035810000.0 9035790000.0 9035790000.0 9035780000.0 9035770000.0 9035770000.0 9035760000.0 9035760000.0 9035760000.0 9035750000.0 9035750000.0 9035750000.0 9035750000.0 9035750000.0 9035760000.0 9035760000.0 9035760000.0 9035770000.0 9035770000.0 9035780000.0 9035790000.0 9035790000.0 9035810000.0 9035820000.0 9035830000.0 9035860000.0 9035880000.0 9035910000.0 9035960000.0 9036020000.0 9036100000.0 9036210000.0 9036350000.0 9347300000.0 9036830000.0 11494400000.0 9037760000.0 14239000000.0 9232090000.0 20220800000.0 10317400000.0 23114700000.0 18549700000.0 28864100000.0 17153200000.0 22097300000.0 25882900000.0 26905800000.0 28635800000.0 27236800000.0 25741400000.0 24383100000.0 21178700000.0 16491000000.0 26986300000.0 16983900000.0 21714900000.0 10076300000.0 19013300000.0 9209740000.0 13506400000.0 9037690000.0 11014100000.0 9036790000.0 9252470000.0 9036330000.0 9036190000.0 9036080000.0 9036010000.0 9035950000.0 9035910000.0 9035880000.0 9035850000.0 9035830000.0 9035820000.0 9035800000.0 9035790000.0 9035780000.0 9035780000.0 9035770000.0 9035770000.0 9035760000.0 9035760000.0 9035760000.0 9035750000.0 9035750000.0 9035750000.0 9035750000.0 9035750000.0 9035760000.0 9035760000.0 9035760000.0 9035770000.0 9035770000.0 9035780000.0 9035780000.0 9035790000.0 9035800000.0 9035820000.0 9035830000.0 9035850000.0 9035880000.0 9035910000.0 9035950000.0 9036010000.0 9036080000.0 9036190000.0 9036330000.0 9252470000.0 9036790000.0 11014100000.0 9037690000.0 13506400000.0 9209740000.0 19013300000.0 10076300000.0 21714900000.0 16983900000.0 26986300000.0 16491000000.0 21178700000.0 24383100000.0 25741400000.0 27236800000.0 25901500000.0 24595300000.0 22999900000.0 20276500000.0 15850100000.0 25226800000.0 15657700000.0 20429300000.0 9884140000.0 17888100000.0 9189960000.0 12853300000.0 9037620000.0 10615300000.0 9036750000.0 9184660000.0 9036310000.0 9036170000.0 9036070000.0 9036000000.0 9035940000.0 9035900000.0 9035870000.0 9035850000.0 9035830000.0 9035810000.0 9035800000.0 9035790000.0 9035780000.0 9035780000.0 9035770000.0 9035770000.0 9035760000.0 9035760000.0 9035760000.0 9035750000.0 9035750000.0 9035750000.0 9035750000.0 9035750000.0 9035760000.0 9035760000.0 9035760000.0 9035770000.0 9035770000.0 9035780000.0 9035780000.0 9035790000.0 9035800000.0 9035810000.0 9035830000.0 9035850000.0 9035870000.0 9035900000.0 9035940000.0 9036000000.0 9036070000.0 9036170000.0 9036310000.0 9184660000.0 9036750000.0 10615300000.0 9037620000.0 12853300000.0 9189960000.0 17888100000.0 9884140000.0 20429300000.0 15657700000.0 25226800000.0 15850100000.0 20276500000.0 22999900000.0 24595300000.0 25901500000.0 24627300000.0 23474100000.0 21722100000.0 19397400000.0 15235100000.0 23585700000.0 14537100000.0 19246000000.0 9730350000.0 16847600000.0 9172070000.0 12275500000.0 9037540000.0 10287000000.0 9036700000.0 9136810000.0 9036280000.0 9036150000.0 9036050000.0 9035990000.0 9035930000.0 9035890000.0 9035870000.0 9035840000.0 9035820000.0 9035810000.0 9035800000.0 9035790000.0 9035780000.0 9035780000.0 9035770000.0 9035770000.0 9035760000.0 9035760000.0 9035760000.0 9035750000.0 9035750000.0 9035750000.0 9035750000.0 9035750000.0 9035760000.0 9035760000.0 9035760000.0 9035770000.0 9035770000.0 9035780000.0 9035780000.0 9035790000.0 9035800000.0 9035810000.0 9035820000.0 9035840000.0 9035870000.0 9035890000.0 9035930000.0 9035990000.0 9036050000.0 9036150000.0 9036280000.0 9136810000.0 9036700000.0 10287000000.0 9037540000.0 12275500000.0 9172070000.0 16847600000.0 9730350000.0 19246000000.0 14537100000.0 23585700000.0 15235100000.0 19397400000.0 21722100000.0 23474100000.0 24627300000.0 23411600000.0 22383100000.0 20539700000.0 18546700000.0 14649600000.0 22061500000.0 13592500000.0 18156200000.0 9606680000.0 15892400000.0 9155710000.0 11768400000.0 9037450000.0 10019300000.0 9036660000.0 9103510000.0 9036250000.0 9036130000.0 9036040000.0 9035970000.0 9035920000.0 9035890000.0 9035860000.0 9035840000.0 9035820000.0 9035810000.0 9035800000.0 9035790000.0 9035780000.0 9035770000.0 9035770000.0 9035760000.0 9035760000.0 9035760000.0 9035760000.0 9035750000.0 9035750000.0 9035750000.0 9035750000.0 9035750000.0 9035760000.0 9035760000.0 9035760000.0 9035760000.0 9035770000.0 9035770000.0 9035780000.0 9035790000.0 9035800000.0 9035810000.0 9035820000.0 9035840000.0 9035860000.0 9035890000.0 9035920000.0 9035970000.0 9036040000.0 9036130000.0 9036250000.0 9103510000.0 9036660000.0 10019300000.0 9037450000.0 11768400000.0 9155710000.0 15892400000.0 9606680000.0 18156200000.0 13592500000.0 22061500000.0 14649600000.0 18546700000.0 20539700000.0 22383100000.0 23411600000.0 22251300000.0 21326000000.0 19444000000.0 17728200000.0 14095800000.0 20651400000.0 12798300000.0 17153000000.0 9506720000.0 15021600000.0 9140710000.0 11326500000.0 9037360000.0 9802730000.0 9036610000.0 9080640000.0 9036230000.0 9036110000.0 9036020000.0 9035960000.0 9035910000.0 9035880000.0 9035850000.0 9035830000.0 9035820000.0 9035800000.0 9035790000.0 9035790000.0 9035780000.0 9035770000.0 9035770000.0 9035760000.0 9035760000.0 9035760000.0 9035760000.0 9035750000.0 9035750000.0 9035750000.0 9035750000.0 9035750000.0 9035760000.0 9035760000.0 9035760000.0 9035760000.0 9035770000.0 9035770000.0 9035780000.0 9035790000.0 9035790000.0 9035800000.0 9035820000.0 9035830000.0 9035850000.0 9035880000.0 9035910000.0 9035960000.0 9036020000.0 9036110000.0 9036230000.0 9080640000.0 9036610000.0 9802730000.0 9037360000.0 11326500000.0 9140710000.0 15021600000.0 9506720000.0 17153000000.0 12798300000.0 20651400000.0 14095800000.0 17728200000.0 19444000000.0 21326000000.0 22251300000.0 21143500000.0 20305100000.0 18427000000.0 16944600000.0 13575100000.0 19351500000.0 12132500000.0 16231200000.0 9425460000.0 14233100000.0 9127020000.0 10944300000.0 9037260000.0 9629200000.0 9036560000.0 9065140000.0 9036200000.0 9036090000.0 9036010000.0 9035950000.0 9035900000.0 9035870000.0 9035850000.0 9035830000.0 9035810000.0 9035800000.0 9035790000.0 9035780000.0 9035780000.0 9035770000.0 9035770000.0 9035760000.0 9035760000.0 9035760000.0 9035760000.0 9035750000.0 9035750000.0 9035750000.0 9035750000.0 9035750000.0 9035760000.0 9035760000.0 9035760000.0 9035760000.0 9035770000.0 9035770000.0 9035780000.0 9035780000.0 9035790000.0 9035800000.0 9035810000.0 9035830000.0 9035850000.0 9035870000.0 9035900000.0 9035950000.0 9036010000.0 9036090000.0 9036200000.0 9065140000.0 9036560000.0 9629200000.0 9037260000.0 10944300000.0 9127020000.0 14233100000.0 9425460000.0 16231200000.0 12132500000.0 19351500000.0 13575100000.0 16944600000.0 18427000000.0 20305100000.0 21143500000.0 20085100000.0 19321800000.0 17481800000.0 16197400000.0 13088100000.0 18157200000.0 11575800000.0 15385900000.0 9359010000.0 13523600000.0 9114580000.0 10616000000.0 9037170000.0 9491350000.0 9036500000.0 9054780000.0 9036170000.0 9036070000.0 9035990000.0 9035930000.0 9035890000.0 9035860000.0 9035840000.0 9035820000.0 9035810000.0 9035800000.0 9035790000.0 9035780000.0 9035770000.0 9035770000.0 9035770000.0 9035760000.0 9035760000.0 9035760000.0 9035760000.0 9035750000.0 9035750000.0 9035750000.0 9035750000.0 9035750000.0 9035760000.0 9035760000.0 9035760000.0 9035760000.0 9035770000.0 9035770000.0 9035770000.0 9035780000.0 9035790000.0 9035800000.0 9035810000.0 9035820000.0 9035840000.0 9035860000.0 9035890000.0 9035930000.0 9035990000.0 9036070000.0 9036170000.0 9054780000.0 9036500000.0 9491350000.0 9037170000.0 10616000000.0 9114580000.0 13523600000.0 9359010000.0 15385900000.0 11575800000.0 18157200000.0 13088100000.0 16197400000.0 17481800000.0 19321800000.0 20085100000.0 19073000000.0 18376600000.0 16601800000.0 15487300000.0 12634500000.0 17062900000.0 11111800000.0 14612800000.0 9304320000.0 12889000000.0 9103370000.0 10336100000.0 9037070000.0 9382800000.0 9036450000.0 9047950000.0 9036140000.0 9036040000.0 9035970000.0 9035920000.0 9035880000.0 9035860000.0 9035830000.0 9035820000.0 9035800000.0 9035790000.0 9035790000.0 9035780000.0 9035770000.0 9035770000.0 9035760000.0 9035760000.0 9035760000.0 9035760000.0 9035760000.0 9035750000.0 9035750000.0 9035750000.0 9035750000.0 9035750000.0 9035760000.0 9035760000.0 9035760000.0 9035760000.0 9035760000.0 9035770000.0 9035770000.0 9035780000.0 9035790000.0 9035790000.0 9035800000.0 9035820000.0 9035830000.0 9035860000.0 9035880000.0 9035920000.0 9035970000.0 9036040000.0 9036140000.0 9047950000.0 9036450000.0 9382800000.0 9037070000.0 10336100000.0 9103370000.0 12889000000.0 9304320000.0 14612800000.0 11111800000.0 17062900000.0 12634500000.0 15487300000.0 16601800000.0 18376600000.0 19073000000.0 18104000000.0 17468900000.0 15781400000.0 14813900000.0 12213500000.0 16062800000.0 10726200000.0 13907400000.0 9259020000.0 12324400000.0 9093340000.0 10098900000.0 9036960000.0 9298050000.0 9036400000.0 9043500000.0 9036110000.0 9036020000.0 9035950000.0 9035910000.0 9035870000.0 9035850000.0 9035830000.0 9035810000.0 9035800000.0 9035790000.0 9035780000.0 9035780000.0 9035770000.0 9035770000.0 9035760000.0 9035760000.0 9035760000.0 9035760000.0 9035750000.0 9035750000.0 9035750000.0 9035750000.0 9035750000.0 9035750000.0 9035750000.0 9035760000.0 9035760000.0 9035760000.0 9035760000.0 9035770000.0 9035770000.0 9035780000.0 9035780000.0 9035790000.0 9035800000.0 9035810000.0 9035830000.0 9035850000.0 9035870000.0 9035910000.0 9035950000.0 9036020000.0 9036110000.0 9043500000.0 9036400000.0 9298050000.0 9036960000.0 10098900000.0 9093340000.0 12324400000.0 9259020000.0 13907400000.0 10726200000.0 16062800000.0 12213500000.0 14813900000.0 15781400000.0 17468900000.0 18104000000.0 17175100000.0 16597700000.0 15015000000.0 14176300000.0 11823800000.0 15150300000.0 10406400000.0 13265100000.0 9221250000.0 11824600000.0 9084430000.0 9899200000.0 9036860000.0 9232440000.0 9036340000.0 9040650000.0 9036080000.0 9036000000.0 9035940000.0 9035890000.0 9035860000.0 9035840000.0 9035820000.0 9035810000.0 9035800000.0 9035790000.0 9035780000.0 9035770000.0 9035770000.0 9035770000.0 9035760000.0 9035760000.0 9035760000.0 9035760000.0 9035750000.0 9035750000.0 9035750000.0 9035750000.0 9035750000.0 9035750000.0 9035750000.0 9035760000.0 9035760000.0 9035760000.0 9035760000.0 9035770000.0 9035770000.0 9035770000.0 9035780000.0 9035790000.0 9035800000.0 9035810000.0 9035820000.0 9035840000.0 9035860000.0 9035890000.0 9035940000.0 9036000000.0 9036080000.0 9040650000.0 9036340000.0 9232440000.0 9036860000.0 9899200000.0 9084430000.0 11824600000.0 9221250000.0 13265100000.0 10406400000.0 15150300000.0 11823800000.0 14176300000.0 15015000000.0 16597700000.0 17175100000.0 16283100000.0 15761300000.0 14297500000.0 13572800000.0 11463500000.0 14318700000.0 10141900000.0 12681100000.0 9189550000.0 11383800000.0 9076570000.0 9732080000.0 9036760000.0 9182080000.0 9036280000.0 9038840000.0 9036050000.0 9035970000.0 9035920000.0 9035880000.0 9035850000.0 9035830000.0 9035810000.0 9035800000.0 9035790000.0 9035780000.0 9035780000.0 9035770000.0 9035770000.0 9035760000.0 9035760000.0 9035760000.0 9035760000.0 9035760000.0 9035750000.0 9035750000.0 9035750000.0 9035750000.0 9035750000.0 9035750000.0 9035750000.0 9035760000.0 9035760000.0 9035760000.0 9035760000.0 9035760000.0 9035770000.0 9035770000.0 9035780000.0 9035780000.0 9035790000.0 9035800000.0 9035810000.0 9035830000.0 9035850000.0 9035880000.0 9035920000.0 9035970000.0 9036050000.0 9038840000.0 9036280000.0 9182080000.0 9036760000.0 9732080000.0 9076570000.0 11383800000.0 9189550000.0 12681100000.0 10141900000.0 14318700000.0 11463500000.0 13572800000.0 14297500000.0 15761300000.0 16283100000.0 15424700000.0 14957500000.0 13624100000.0 13001500000.0 11130600000.0 13560700000.0 9923320000.0 12150500000.0 9162750000.0 10996300000.0 9069660000.0 9592930000.0 9036650000.0 9143730000.0 9036230000.0 9037700000.0 9036010000.0 9035950000.0 9035900000.0 9035870000.0 9035840000.0 9035820000.0 9035810000.0 9035800000.0 9035790000.0 9035780000.0 9035770000.0 9035770000.0 9035770000.0 9035760000.0 9035760000.0 9035760000.0 9035760000.0 9035760000.0 9035750000.0 9035750000.0 9035750000.0 9035750000.0 9035750000.0 9035750000.0 9035750000.0 9035760000.0 9035760000.0 9035760000.0 9035760000.0 9035760000.0 9035770000.0 9035770000.0 9035770000.0 9035780000.0 9035790000.0 9035800000.0 9035810000.0 9035820000.0 9035840000.0 9035870000.0 9035900000.0 9035950000.0 9036010000.0 9037700000.0 9036230000.0 9143730000.0 9036650000.0 9592930000.0 9069660000.0 10996300000.0 9162750000.0 12150500000.0 9923320000.0 13560700000.0 11130600000.0 13001500000.0 13624100000.0 14957500000.0 15424700000.0 14596700000.0 14183600000.0 12989800000.0 12459800000.0 10822600000.0 12869100000.0 9742770000.0 11668100000.0 9139920000.0 10656100000.0 9063620000.0 9477540000.0 9036540000.0 9114740000.0 9036170000.0 9036990000.0 9035980000.0 9035930000.0 9035880000.0 9035850000.0 9035830000.0 9035810000.0 9035800000.0 9035790000.0 9035780000.0 9035780000.0 9035770000.0 9035770000.0 9035760000.0 9035760000.0 9035760000.0 9035760000.0 9035760000.0 9035760000.0 9035750000.0 9035750000.0 9035750000.0 9035750000.0 9035750000.0 9035750000.0 9035750000.0 9035760000.0 9035760000.0 9035760000.0 9035760000.0 9035760000.0 9035760000.0 9035770000.0 9035770000.0 9035780000.0 9035780000.0 9035790000.0 9035800000.0 9035810000.0 9035830000.0 9035850000.0 9035880000.0 9035930000.0 9035980000.0 9036990000.0 9036170000.0 9114740000.0 9036540000.0 9477540000.0 9063620000.0 10656100000.0 9139920000.0 11668100000.0 9742770000.0 12869100000.0 10822600000.0 12459800000.0 12989800000.0 14183600000.0 14596700000.0 13795600000.0 13436800000.0 12390100000.0 11944900000.0 10537000000.0 12236200000.0 9593330000.0 11228400000.0 9120310000.0 10357300000.0 9058350000.0 9382060000.0 9036440000.0 9092970000.0 9036120000.0 9036550000.0 9035950000.0 9035900000.0 9035870000.0 9035840000.0 9035820000.0 9035810000.0 9035790000.0 9035790000.0 9035780000.0 9035770000.0 9035770000.0 9035770000.0 9035760000.0 9035760000.0 9035760000.0 9035760000.0 9035760000.0 9035750000.0 9035750000.0 9035750000.0 9035750000.0 9035750000.0 9035750000.0 9035750000.0 9035750000.0 9035750000.0 9035760000.0 9035760000.0 9035760000.0 9035760000.0 9035760000.0 9035770000.0 9035770000.0 9035770000.0 9035780000.0 9035790000.0 9035790000.0 9035810000.0 9035820000.0 9035840000.0 9035870000.0 9035900000.0 9035950000.0 9036550000.0 9036120000.0 9092970000.0 9036440000.0 9382060000.0 9058350000.0 10357300000.0 9120310000.0 11228400000.0 9593330000.0 12236200000.0 10537000000.0 11944900000.0 12390100000.0 13436800000.0 13795600000.0 13018100000.0 12713900000.0 11820200000.0 11453500000.0 10271000000.0 11654400000.0 9469070000.0 10825900000.0 9103290000.0 10094000000.0 9053740000.0 9303000000.0 9036330000.0 9076690000.0 9036060000.0 9036280000.0 9035920000.0 9035880000.0 9035850000.0 9035830000.0 9035810000.0 9035800000.0 9035790000.0 9035780000.0 9035780000.0 9035770000.0 9035770000.0 9035760000.0 9035760000.0 9035760000.0 9035760000.0 9035760000.0 9035760000.0 9035750000.0 9035750000.0 9035750000.0 9035750000.0 9035750000.0 9035750000.0 9035750000.0 9035750000.0 9035750000.0 9035760000.0 9035760000.0 9035760000.0 9035760000.0 9035760000.0 9035760000.0 9035770000.0 9035770000.0 9035780000.0 9035780000.0 9035790000.0 9035800000.0 9035810000.0 9035830000.0 9035850000.0 9035880000.0 9035920000.0 9036280000.0 9036060000.0 9076690000.0 9036330000.0 9303000000.0 9053740000.0 10094000000.0 9103290000.0 10825900000.0 9469070000.0 11654400000.0 10271000000.0 11453500000.0 11820200000.0 12713900000.0 13018100000.0 12260700000.0 12011400000.0 11275600000.0 10982400000.0 10021800000.0 11115800000.0 9364810000.0 10455000000.0 9088330000.0 9860500000.0 9049690000.0 9237210000.0 9036230000.0 9064520000.0 9036000000.0 9036100000.0 9035890000.0 9035860000.0 9035830000.0 9035810000.0 9035800000.0 9035790000.0 9035780000.0 9035780000.0 9035770000.0 9035770000.0 9035760000.0 9035760000.0 9035760000.0 9035760000.0 9035760000.0 9035760000.0 9035760000.0 9035750000.0 9035750000.0 9035750000.0 9035750000.0 9035750000.0 9035750000.0 9035750000.0 9035750000.0 9035750000.0 9035760000.0 9035760000.0 9035760000.0 9035760000.0 9035760000.0 9035760000.0 9035760000.0 9035770000.0 9035770000.0 9035780000.0 9035780000.0 9035790000.0 9035800000.0 9035810000.0 9035830000.0 9035860000.0 9035890000.0 9036100000.0 9036000000.0 9064520000.0 9036230000.0 9237210000.0 9049690000.0 9860500000.0 9088330000.0 10455000000.0 9364810000.0 11115800000.0 10021800000.0 10982400000.0 11275600000.0 12011400000.0 12260700000.0 11519700000.0 11325900000.0 10751700000.0 10528100000.0 9786260000.0 10612700000.0 9276050000.0 10110000000.0 9074970000.0 9651040000.0 9046100000.0 9181830000.0 9036120000.0 9055360000.0 9035950000.0 9035980000.0 9035860000.0 9035830000.0 9035810000.0 9035800000.0 9035790000.0 9035780000.0 9035780000.0 9035770000.0 9035770000.0 9035760000.0 9035760000.0 9035760000.0 9035760000.0 9035760000.0 9035760000.0 9035760000.0 9035750000.0 9035750000.0 9035750000.0 9035750000.0 9035750000.0 9035750000.0 9035750000.0 9035750000.0 9035750000.0 9035750000.0 9035750000.0 9035760000.0 9035760000.0 9035760000.0 9035760000.0 9035760000.0 9035760000.0 9035760000.0 9035770000.0 9035770000.0 9035780000.0 9035780000.0 9035790000.0 9035800000.0 9035810000.0 9035830000.0 9035860000.0 9035980000.0 9035950000.0 9055360000.0 9036120000.0 9181830000.0 9046100000.0 9651040000.0 9074970000.0 10110000000.0 9276050000.0 10612700000.0 9786260000.0 10528100000.0 10751700000.0 11325900000.0 11519700000.0 10791600000.0 10653600000.0 10243700000.0 10086800000.0 9561470000.0 10137000000.0 9198790000.0 9784960000.0 9062810000.0 9460100000.0 9042860000.0 9134270000.0 9036010000.0 9048320000.0 9035890000.0 9035900000.0 9035830000.0 9035810000.0 9035800000.0 9035790000.0 9035780000.0 9035770000.0 9035770000.0 9035770000.0 9035760000.0 9035760000.0 9035760000.0 9035760000.0 9035760000.0 9035760000.0 9035760000.0 9035750000.0 9035750000.0 9035750000.0 9035750000.0 9035750000.0 9035750000.0 9035750000.0 9035750000.0 9035750000.0 9035750000.0 9035750000.0 9035750000.0 9035750000.0 9035760000.0 9035760000.0 9035760000.0 9035760000.0 9035760000.0 9035760000.0 9035760000.0 9035770000.0 9035770000.0 9035770000.0 9035780000.0 9035790000.0 9035800000.0 9035810000.0 9035830000.0 9035900000.0 9035890000.0 9048320000.0 9036010000.0 9134270000.0 9042860000.0 9460100000.0 9062810000.0 9784960000.0 9198790000.0 10137000000.0 9561470000.0 10086800000.0 10243700000.0 10653600000.0 10791600000.0 10072600000.0 9990670000.0 9747130000.0 9654930000.0 9344330000.0 9680790000.0 9129420000.0 9474230000.0 9051470000.0 9282240000.0 9039870000.0 9092110000.0 9035910000.0 9042700000.0 9035830000.0 9035830000.0 9035800000.0 9035790000.0 9035780000.0 9035770000.0 9035770000.0 9035760000.0 9035760000.0 9035760000.0 9035760000.0 9035760000.0 9035760000.0 9035760000.0 9035760000.0 9035750000.0 9035750000.0 9035750000.0 9035750000.0 9035750000.0 9035750000.0 9035750000.0 9035750000.0 9035750000.0 9035750000.0 9035750000.0 9035750000.0 9035750000.0 9035750000.0 9035750000.0 9035750000.0 9035750000.0 9035760000.0 9035760000.0 9035760000.0 9035760000.0 9035760000.0 9035760000.0 9035760000.0 9035760000.0 9035770000.0 9035770000.0 9035780000.0 9035790000.0 9035800000.0 9035830000.0 9035830000.0 9042700000.0 9035910000.0 9092110000.0 9039870000.0 9282240000.0 9051470000.0 9474230000.0 9129420000.0 9680790000.0 9344330000.0 9654930000.0 9747130000.0 9990670000.0 10072600000.0 9358970000.0 9333390000.0 9257280000.0 9228590000.0 9131720000.0 9236200000.0 9064630000.0 9171960000.0 9040620000.0 9112090000.0 9037030000.0 9053100000.0 9035800000.0 9037860000.0 9035780000.0 9035780000.0 9035770000.0 9035760000.0 9035760000.0 9035760000.0 9035760000.0 9035760000.0 9035760000.0 9035760000.0 9035750000.0 9035750000.0 9035750000.0 9035750000.0 9035750000.0 9035750000.0 9035750000.0 9035750000.0 9035750000.0 9035750000.0 9035750000.0 9035750000.0 9035750000.0 9035750000.0 9035750000.0 9035750000.0 9035750000.0 9035750000.0 9035750000.0 9035750000.0 9035750000.0 9035750000.0 9035750000.0 9035750000.0 9035750000.0 9035750000.0 9035750000.0 9035760000.0 9035760000.0 9035760000.0 9035760000.0 9035760000.0 9035760000.0 9035760000.0 9035770000.0 9035780000.0 9035780000.0 9037860000.0 9035800000.0 9053100000.0 9037030000.0 9112090000.0 9040620000.0 9171960000.0 9064630000.0 9236200000.0 9131720000.0 9228590000.0 9257280000.0 9333390000.0 9358970000.0 