# vtk DataFile Version 2.0
Time step 62
ASCII
DATASET UNSTRUCTURED_GRID
POINTS 4650 float
210919.0 364537.0 0
289081.0 364537.0 0
201999.0 364709.0 0
207166.0 365905.0 0
214731.0 366774.0 0
285269.0 366774.0 0
292834.0 365905.0 0
298001.0 364709.0 0
203903.0 368192.0 0
211175.0 368486.0 0
218321.0 368443.0 0
222242.0 367389.0 0
226174.0 368060.0 0
230758.0 368965.0 0
234489.0 367645.0 0
241079.0 367794.0 0
247488.0 368315.0 0
252512.0 368315.0 0
258921.0 367794.0 0
265511.0 367645.0 0
269242.0 368965.0 0
273826.0 368060.0 0
277758.0 367389.0 0
281679.0 368443.0 0
288825.0 368486.0 0
296097.0 368192.0 0
201997.0 371634.0 0
207507.0 369853.0 0
214426.0 370755.0 0
221151.0 371199.0 0
227888.0 371641.0 0
234240.0 371632.0 0
237745.0 369918.0 0
244121.0 370352.0 0
250000.0 371392.0 0
255879.0 370352.0 0
262255.0 369918.0 0
265760.0 371632.0 0
272112.0 371641.0 0
278849.0 371199.0 0
285574.0 370755.0 0
292493.0 369853.0 0
298003.0 371634.0 0
199623.0 377576.0 0
205854.0 373345.0 0
208963.0 375748.0 0
210857.0 372412.0 0
214068.0 374801.0 0
217630.0 372998.0 0
224420.0 373376.0 0
231112.0 373895.0 0
237403.0 374073.0 0
240819.0 372371.0 0
243207.0 375431.0 0
246597.0 373414.0 0
250000.0 375395.0 0
253403.0 373414.0 0
256793.0 375431.0 0
259181.0 372371.0 0
262597.0 374073.0 0
268888.0 373895.0 0
275580.0 373376.0 0
282370.0 372998.0 0
285932.0 374801.0 0
289143.0 372412.0 0
291037.0 375748.0 0
294146.0 373345.0 0
300377.0 377576.0 0
196331.0 379610.0 0
199561.0 381253.0 0
202672.0 375472.0 0
205785.0 377770.0 0
211945.0 378163.0 0
217469.0 376924.0 0
220948.0 375153.0 0
227691.0 375611.0 0
234278.0 376171.0 0
239731.0 377317.0 0
246598.0 377396.0 0
253402.0 377396.0 0
260269.0 377317.0 0
265722.0 376171.0 0
272309.0 375611.0 0
279052.0 375153.0 0
282531.0 376924.0 0
288055.0 378163.0 0
294215.0 377770.0 0
297328.0 375472.0 0
300439.0 381253.0 0
303669.0 379610.0 0
189783.0 383707.0 0
193024.0 381674.0 0
196198.0 383195.0 0
202920.0 380098.0 0
208657.0 380343.0 0
215279.0 380064.0 0
220908.0 379060.0 0
224288.0 377305.0 0
230937.0 377863.0 0
236370.0 379387.0 0
243155.0 379361.0 0
250000.0 379375.0 0
256845.0 379361.0 0
263630.0 379387.0 0
269063.0 377863.0 0
275712.0 377305.0 0
279092.0 379060.0 0
284721.0 380064.0 0
291343.0 380343.0 0
297080.0 380098.0 0
303802.0 383195.0 0
306976.0 381674.0 0
310217.0 383707.0 0
186578.0 385714.0 0
193022.0 385317.0 0
199376.0 384705.0 0
205609.0 382764.0 0
212053.0 382147.0 0
218591.0 381967.0 0
224352.0 381173.0 0
227641.0 379567.0 0
229363.0 383107.0 0
232880.0 381244.0 0
236281.0 383278.0 0
239748.0 381321.0 0
243147.0 383311.0 0
246575.0 381348.0 0
250000.0 383324.0 0
253425.0 381348.0 0
256853.0 383311.0 0
260252.0 381321.0 0
263719.0 383278.0 0
267120.0 381244.0 0
270637.0 383107.0 0
272359.0 379567.0 0
275648.0 381173.0 0
281409.0 381967.0 0
287947.0 382147.0 0
294391.0 382764.0 0
300624.0 384705.0 0
306978.0 385317.0 0
313422.0 385714.0 0
183377.0 387715.0 0
189887.0 387392.0 0
193224.0 389021.0 0
196284.0 386855.0 0
199663.0 388211.0 0
202774.0 385301.0 0
206019.0 386833.0 0
208985.0 384429.0 0
212335.0 386163.0 0
215424.0 384010.0 0
218845.0 385841.0 0
221966.0 383796.0 0
225790.0 385055.0 0
232784.0 385150.0 0
239695.0 385254.0 0
246566.0 385289.0 0
253434.0 385289.0 0
260305.0 385254.0 0
267216.0 385150.0 0
274210.0 385055.0 0
278034.0 383796.0 0
281155.0 385841.0 0
284576.0 384010.0 0
287665.0 386163.0 0
291015.0 384429.0 0
293981.0 386833.0 0
297226.0 385301.0 0
300337.0 388211.0 0
303716.0 386855.0 0
306776.0 389021.0 0
310113.0 387392.0 0
316623.0 387715.0 0
179401.0 390161.0 0
182411.0 391103.0 0
186758.0 389403.0 0
190180.0 391119.0 0
196611.0 390507.0 0
203014.0 389266.0 0
209303.0 388437.0 0
215716.0 387933.0 0
222431.0 387495.0 0
229301.0 387038.0 0
236219.0 387168.0 0
243116.0 387236.0 0
250000.0 387259.0 0
256884.0 387236.0 0
263781.0 387168.0 0
270699.0 387038.0 0
277569.0 387495.0 0
284284.0 387933.0 0
290697.0 388437.0 0
296986.0 389266.0 0
303389.0 390507.0 0
309820.0 391119.0 0
313242.0 389403.0 0
317589.0 391103.0 0
320599.0 390161.0 0
172878.0 394251.0 0
176136.0 392212.0 0
179229.0 393509.0 0
185252.0 392575.0 0
193613.0 392761.0 0
197020.0 394224.0 0
200017.0 391861.0 0
206283.0 390790.0 0
212619.0 390119.0 0
215998.0 391810.0 0
219187.0 389649.0 0
222655.0 391319.0 0
225939.0 389082.0 0
229341.0 390982.0 0
232749.0 389045.0 0
236174.0 391057.0 0
239650.0 389160.0 0
246551.0 389207.0 0
253449.0 389207.0 0
260350.0 389160.0 0
263826.0 391057.0 0
267251.0 389045.0 0
270659.0 390982.0 0
274061.0 389082.0 0
277345.0 391319.0 0
280813.0 389649.0 0
284002.0 391810.0 0
287381.0 390119.0 0
293717.0 390790.0 0
299983.0 391861.0 0
302980.0 394224.0 0
306387.0 392761.0 0
314748.0 392575.0 0
320771.0 393509.0 0
323864.0 392212.0 0
327122.0 394251.0 0
169614.0 396292.0 0
175988.0 395630.0 0
182226.0 394785.0 0
185214.0 396287.0 0
188125.0 393986.0 0
191113.0 395318.0 0
200327.0 395673.0 0
203299.0 393205.0 0
206534.0 394747.0 0
209555.0 392396.0 0
212864.0 394036.0 0
219404.0 393493.0 0
226039.0 393051.0 0
232704.0 392949.0 0
239603.0 393052.0 0
243085.0 391137.0 0
246543.0 393102.0 0
250000.0 391176.0 0
253457.0 393102.0 0
256915.0 391137.0 0
260397.0 393052.0 0
267296.0 392949.0 0
273961.0 393051.0 0
280596.0 393493.0 0
287136.0 394036.0 0
290445.0 392396.0 0
293466.0 394747.0 0
296701.0 393205.0 0
299673.0 395673.0 0
308887.0 395318.0 0
311875.0 393986.0 0
314786.0 396287.0 0
317774.0 394785.0 0
324012.0 395630.0 0
330386.0 396292.0 0
166339.0 398340.0 0
172739.0 397693.0 0
175865.0 399121.0 0
179079.0 397014.0 0
182145.0 398445.0 0
188277.0 397735.0 0
194248.0 396647.0 0
203558.0 397156.0 0
209787.0 396339.0 0
216208.0 395686.0 0
222779.0 395207.0 0
229366.0 394942.0 0
236013.0 394929.0 0
243068.0 395015.0 0
250000.0 395092.0 0
256932.0 395015.0 0
263987.0 394929.0 0
270634.0 394942.0 0
277221.0 395207.0 0
283792.0 395686.0 0
290213.0 396339.0 0
296442.0 397156.0 0
305752.0 396647.0 0
311723.0 397735.0 0
317855.0 398445.0 0
320921.0 397014.0 0
324135.0 399121.0 0
327261.0 397693.0 0
333661.0 398340.0 0
163054.0 400394.0 0
166201.0 401794.0 0
169477.0 399744.0 0
172620.0 401184.0 0
178986.0 400582.0 0
185243.0 399960.0 0
188388.0 401443.0 0
191401.0 399125.0 0
194540.0 400537.0 0
197431.0 398109.0 0
200617.0 399597.0 0
206769.0 398709.0 0
209999.0 400277.0 0
213072.0 397941.0 0
216383.0 399565.0 0
219558.0 397368.0 0
222885.0 399120.0 0
226104.0 397009.0 0
229384.0 398919.0 0
232653.0 396901.0 0
235901.0 398874.0 0
239249.0 396892.0 0
242432.0 398805.0 0
246547.0 396968.0 0
253453.0 396968.0 0
257568.0 398805.0 0
260751.0 396892.0 0
264099.0 398874.0 0
267347.0 396901.0 0
270616.0 398919.0 0
273896.0 397009.0 0
277115.0 399120.0 0
280442.0 397368.0 0
283617.0 399565.0 0
286928.0 397941.0 0
290001.0 400277.0 0
293231.0 398709.0 0
299383.0 399597.0 0
302569.0 398109.0 0
305460.0 400537.0 0
308599.0 399125.0 0
311612.0 401443.0 0
314757.0 399960.0 0
321014.0 400582.0 0
327380.0 401184.0 0
330523.0 399744.0 0
333799.0 401794.0 0
336946.0 400394.0 0
156453.0 404520.0 0
159758.0 402454.0 0
162912.0 403849.0 0
169356.0 403233.0 0
175768.0 402661.0 0
178925.0 404176.0 0
182115.0 402085.0 0
185274.0 403624.0 0
191552.0 402911.0 0
197693.0 402028.0 0
203793.0 401121.0 0
206986.0 402674.0 0
213264.0 401841.0 0
219703.0 401252.0 0
226171.0 400971.0 0
232632.0 400887.0 0
239142.0 400826.0 0
245567.0 400636.0 0
250000.0 399048.0 0
254433.0 400636.0 0
260858.0 400826.0 0
267368.0 400887.0 0
273829.0 400971.0 0
280297.0 401252.0 0
286736.0 401841.0 0
293014.0 402674.0 0
296207.0 401121.0 0
302307.0 402028.0 0
308448.0 402911.0 0
314726.0 403624.0 0
317885.0 402085.0 0
321075.0 404176.0 0
324232.0 402661.0 0
330644.0 403233.0 0
337088.0 403849.0 0
340242.0 402454.0 0
343547.0 404520.0 0
153140.0 406591.0 0
159612.0 405911.0 0
166076.0 405283.0 0
169250.0 406757.0 0
172520.0 404713.0 0
175693.0 406232.0 0
182098.0 405725.0 0
188458.0 405157.0 0
194718.0 404409.0 0
197885.0 405958.0 0
200851.0 403557.0 0
204025.0 405105.0 0
210211.0 404215.0 0
216559.0 403433.0 0
223000.0 403043.0 0
229417.0 402908.0 0
235879.0 402844.0 0
242408.0 402751.0 0
248399.0 402680.0 0
251601.0 402680.0 0
257592.0 402751.0 0
264121.0 402844.0 0
270583.0 402908.0 0
277000.0 403043.0 0
283441.0 403433.0 0
289789.0 404215.0 0
295975.0 405105.0 0
299149.0 403557.0 0
302115.0 405958.0 0
305282.0 404409.0 0
311542.0 405157.0 0
317902.0 405725.0 0
324307.0 406232.0 0
327480.0 404713.0 0
330750.0 406757.0 0
333924.0 405283.0 0
340388.0 405911.0 0
346860.0 406591.0 0
149821.0 408666.0 0
152990.0 410057.0 0
156304.0 407981.0 0
159480.0 409402.0 0
162783.0 407338.0 0
165964.0 408804.0 0
172434.0 408273.0 0
178879.0 407788.0 0
182084.0 409376.0 0
185294.0 407299.0 0
188509.0 408885.0 0
191653.0 406700.0 0
194852.0 408278.0 0
201067.0 407527.0 0
207231.0 406648.0 0
213469.0 405727.0 0
216765.0 407273.0 0
219863.0 405130.0 0
223121.0 406977.0 0
226248.0 404943.0 0
229403.0 406982.0 0
232639.0 404889.0 0
235977.0 406791.0 0
239186.0 404761.0 0
242529.0 406682.0 0
245627.0 404792.0 0
250000.0 406325.0 0
254373.0 404792.0 0
257471.0 406682.0 0
260814.0 404761.0 0
264023.0 406791.0 0
267361.0 404889.0 0
270597.0 406982.0 0
273752.0 404943.0 0
276879.0 406977.0 0
280137.0 405130.0 0
283235.0 407273.0 0
286531.0 405727.0 0
292769.0 406648.0 0
298933.0 407527.0 0
305148.0 408278.0 0
308347.0 406700.0 0
311491.0 408885.0 0
314706.0 407299.0 0
317916.0 409376.0 0
321121.0 407788.0 0
327566.0 408273.0 0
334036.0 408804.0 0
337217.0 407338.0 0
340520.0 409402.0 0
343696.0 407981.0 0
347010.0 410057.0 0
350179.0 408666.0 0
146498.0 410744.0 0
149672.0 412139.0 0
156171.0 411476.0 0
162669.0 410859.0 0
169158.0 410310.0 0
172362.0 411858.0 0
175630.0 409828.0 0
178841.0 411419.0 0
185308.0 410988.0 0
191738.0 410495.0 0
198061.0 409893.0 0
204284.0 409093.0 0
207552.0 410623.0 0
210471.0 408160.0 0
213749.0 409588.0 0
220050.0 409004.0 0
226156.0 409115.0 0
232751.0 408836.0 0
239385.0 408674.0 0
243087.0 410458.0 0
246529.0 408466.0 0
250000.0 410292.0 0
253471.0 408466.0 0
256913.0 410458.0 0
260615.0 408674.0 0
267249.0 408836.0 0
273844.0 409115.0 0
279950.0 409004.0 0
286251.0 409588.0 0
289529.0 408160.0 0
292448.0 410623.0 0
295716.0 409093.0 0
301939.0 409893.0 0
308262.0 410495.0 0
314692.0 410988.0 0
321159.0 411419.0 0
324370.0 409828.0 0
327638.0 411858.0 0
330842.0 410310.0 0
337331.0 410859.0 0
343829.0 411476.0 0
350328.0 412139.0 0
353502.0 410744.0 0
139847.0 414902.0 0
143173.0 412823.0 0
146352.0 414227.0 0
152859.0 413558.0 0
156059.0 415003.0 0
159366.0 412925.0 0
162573.0 414409.0 0
165869.0 412354.0 0
169082.0 413890.0 0
175579.0 413446.0 0
182068.0 413041.0 0
188551.0 412623.0 0
194982.0 412146.0 0
198244.0 413830.0 0
201298.0 411488.0 0
204600.0 413064.0 0
210884.0 412115.0 0
217075.0 411071.0 0
222890.0 411292.0 0
229506.0 410912.0 0
236168.0 410696.0 0
239701.0 412488.0 0
246573.0 412315.0 0
253427.0 412315.0 0
260299.0 412488.0 0
263832.0 410696.0 0
270494.0 410912.0 0
277110.0 411292.0 0
282925.0 411071.0 0
289116.0 412115.0 0
295400.0 413064.0 0
298702.0 411488.0 0
301756.0 413830.0 0
305018.0 412146.0 0
311449.0 412623.0 0
317932.0 413041.0 0
324421.0 413446.0 0
330918.0 413890.0 0
334131.0 412354.0 0
337427.0 414409.0 0
340634.0 412925.0 0
343941.0 415003.0 0
347141.0 413558.0 0
353648.0 414227.0 0
356827.0 412823.0 0
360153.0 414902.0 0
136522.0 416982.0 0
143032.0 416318.0 0
146232.0 417746.0 0
149545.0 415648.0 0
152752.0 417092.0 0
159273.0 416478.0 0
165793.0 415930.0 0
172306.0 415468.0 0
178808.0 415069.0 0
182047.0 416723.0 0
185312.0 414688.0 0
188573.0 416360.0 0
191817.0 414285.0 0
195111.0 416008.0 0
201554.0 415417.0 0
207995.0 414561.0 0
214317.0 413392.0 0
219631.0 413565.0 0
226246.0 413017.0 0
232905.0 412735.0 0
236363.0 414541.0 0
243175.0 414324.0 0
250000.0 414217.0 0
256825.0 414324.0 0
263637.0 414541.0 0
267095.0 412735.0 0
273754.0 413017.0 0
280369.0 413565.0 0
285683.0 413392.0 0
292005.0 414561.0 0
298446.0 415417.0 0
304889.0 416008.0 0
308183.0 414285.0 0
311427.0 416360.0 0
314688.0 414688.0 0
317953.0 416723.0 0
321192.0 415069.0 0
327694.0 415468.0 0
334207.0 415930.0 0
340727.0 416478.0 0
347248.0 417092.0 0
350455.0 415648.0 0
353768.0 417746.0 0
356968.0 416318.0 0
363478.0 416982.0 0
133195.0 419062.0 0
136398.0 420504.0 0
139715.0 418411.0 0
142921.0 419852.0 0
149446.0 419191.0 0
155972.0 418562.0 0
159204.0 420059.0 0
162500.0 417985.0 0
165740.0 419531.0 0
169026.0 417495.0 0
172270.0 419102.0 0
175541.0 417087.0 0
178783.0 418742.0 0
185294.0 418398.0 0
191859.0 418054.0 0
198432.0 417786.0 0
204983.0 416992.0 0
208509.0 418389.0 0
211527.0 416035.0 0
215304.0 416817.0 0
219168.0 417347.0 0
222965.0 415142.0 0
226327.0 416882.0 0
229625.0 414801.0 0
229733.0 418662.0 0
233046.0 416600.0 0
236465.0 418413.0 0
239810.0 416359.0 0
243229.0 418217.0 0
246603.0 416207.0 0
250000.0 418137.0 0
253397.0 416207.0 0
256771.0 418217.0 0
260190.0 416359.0 0
263535.0 418413.0 0
266954.0 416600.0 0
270267.0 418662.0 0
270375.0 414801.0 0
273673.0 416882.0 0
277035.0 415142.0 0
280832.0 417347.0 0
284696.0 416817.0 0
288473.0 416035.0 0
291491.0 418389.0 0
295017.0 416992.0 0
301568.0 417786.0 0
308141.0 418054.0 0
314706.0 418398.0 0
321217.0 418742.0 0
324459.0 417087.0 0
327730.0 419102.0 0
330974.0 417495.0 0
334260.0 419531.0 0
337500.0 417985.0 0
340796.0 420059.0 0
344028.0 418562.0 0
350554.0 419191.0 0
357079.0 419852.0 0
360285.0 418411.0 0
363602.0 420504.0 0
366805.0 419062.0 0
126523.0 423234.0 0
129863.0 421146.0 0
133080.0 422594.0 0
139614.0 421959.0 0
146142.0 421301.0 0
149377.0 422768.0 0
152673.0 420659.0 0
155912.0 422153.0 0
162451.0 421587.0 0
168992.0 421122.0 0
175522.0 420753.0 0
182026.0 420431.0 0
188540.0 420098.0 0
191784.0 421782.0 0
195172.0 419845.0 0
201872.0 419259.0 0
209127.0 422034.0 0
216274.0 420226.0 0
222945.0 418902.0 0
226408.0 420706.0 0
233132.0 420472.0 0
239873.0 420252.0 0
246624.0 420120.0 0
253376.0 420120.0 0
260127.0 420252.0 0
266868.0 420472.0 0
273592.0 420706.0 0
277055.0 418902.0 0
283726.0 420226.0 0
290873.0 422034.0 0
298128.0 419259.0 0
304828.0 419845.0 0
308216.0 421782.0 0
311460.0 420098.0 0
317974.0 420431.0 0
324478.0 420753.0 0
331008.0 421122.0 0
337549.0 421587.0 0
344088.0 422153.0 0
347327.0 420659.0 0
350623.0 422768.0 0
353858.0 421301.0 0
360386.0 421959.0 0
366920.0 422594.0 0
370137.0 421146.0 0
373477.0 423234.0 0
123169.0 425331.0 0
129755.0 424684.0 0
136310.0 424064.0 0
139550.0 425548.0 0
142843.0 423424.0 0
146085.0 424890.0 0
152627.0 424257.0 0
159163.0 423668.0 0
165711.0 423155.0 0
168983.0 424772.0 0
172254.0 422757.0 0
175522.0 424440.0 0
178781.0 422444.0 0
182043.0 424182.0 0
185261.0 422135.0 0
188457.0 423879.0 0
194973.0 423645.0 0
198465.0 421782.0 0
202102.0 422959.0 0
205423.0 420912.0 0
212371.0 419875.0 0
219818.0 421077.0 0
223180.0 422779.0 0
229804.0 422529.0 0
236525.0 422303.0 0
243262.0 422129.0 0
250000.0 422064.0 0
256738.0 422129.0 0
263475.0 422303.0 0
270196.0 422529.0 0
276820.0 422779.0 0
280182.0 421077.0 0
287629.0 419875.0 0
294577.0 420912.0 0
297898.0 422959.0 0
301535.0 421782.0 0
305027.0 423645.0 0
311543.0 423879.0 0
314739.0 422135.0 0
317957.0 424182.0 0
321219.0 422444.0 0
324478.0 424440.0 0
327746.0 422757.0 0
331017.0 424772.0 0
334289.0 423155.0 0
340837.0 423668.0 0
347373.0 424257.0 0
353915.0 424890.0 0
357157.0 423424.0 0
360450.0 425548.0 0
363690.0 424064.0 0
370245.0 424684.0 0
376831.0 425331.0 0
119798.0 427440.0 0
126415.0 426778.0 0
129681.0 428253.0 0
133002.0 426161.0 0
136258.0 427664.0 0
142798.0 427034.0 0
146067.0 428506.0 0
149346.0 426377.0 0
152622.0 427887.0 0
155886.0 425777.0 0
159156.0 427306.0 0
162429.0 425210.0 0
165709.0 426797.0 0
172265.0 426433.0 0
178790.0 426164.0 0
185315.0 425935.0 0
191566.0 425507.0 0
197519.0 426160.0 0
200839.0 426534.0 0
204336.0 425986.0 0
207822.0 425585.0 0
211457.0 425011.0 0
214822.0 423533.0 0
219875.0 424779.0 0
226505.0 424598.0 0
229850.0 426423.0 0
233181.0 424358.0 0
236551.0 426206.0 0
239906.0 424161.0 0
243275.0 426051.0 0
246635.0 424045.0 0
250000.0 425995.0 0
253365.0 424045.0 0
256725.0 426051.0 0
260094.0 424161.0 0
263449.0 426206.0 0
266819.0 424358.0 0
270150.0 426423.0 0
273495.0 424598.0 0
280125.0 424779.0 0
285178.0 423533.0 0
288543.0 425011.0 0
292178.0 425585.0 0
295664.0 425986.0 0
299161.0 426534.0 0
302481.0 426160.0 0
308434.0 425507.0 0
314685.0 425935.0 0
321210.0 426164.0 0
327735.0 426433.0 0
334291.0 426797.0 0
337571.0 425210.0 0
340844.0 427306.0 0
344114.0 425777.0 0
347378.0 427887.0 0
350654.0 426377.0 0
353933.0 428506.0 0
357202.0 427034.0 0
363742.0 427664.0 0
366998.0 426161.0 0
370319.0 428253.0 0
373585.0 426778.0 0
380202.0 427440.0 0
116413.0 429558.0 0
119686.0 431008.0 0
123057.0 428883.0 0
126343.0 430347.0 0
132960.0 429764.0 0
139519.0 429181.0 0
142790.0 430683.0 0
149361.0 430015.0 0
155906.0 429441.0 0
162442.0 428854.0 0
168995.0 428442.0 0
175559.0 428152.0 0
182036.0 427952.0 0
188619.0 427833.0 0
194243.0 427580.0 0
202616.0 429773.0 0
206320.0 429255.0 0
209998.0 428738.0 0
213541.0 428111.0 0
216776.0 426713.0 0
219854.0 428703.0 0
223178.0 426650.0 0
233202.0 428262.0 0
239915.0 428078.0 0
246639.0 427975.0 0
253361.0 427975.0 0
260085.0 428078.0 0
266798.0 428262.0 0
276822.0 426650.0 0
280146.0 428703.0 0
283224.0 426713.0 0
286459.0 428111.0 0
290002.0 428738.0 0
293680.0 429255.0 0
297384.0 429773.0 0
305757.0 427580.0 0
311381.0 427833.0 0
317964.0 427952.0 0
324441.0 428152.0 0
331005.0 428442.0 0
337558.0 428854.0 0
344094.0 429441.0 0
350639.0 430015.0 0
357210.0 430683.0 0
360481.0 429181.0 0
367040.0 429764.0 0
373657.0 430347.0 0
376943.0 428883.0 0
380314.0 431008.0 0
383587.0 429558.0 0
109650.0 433792.0 0
113024.0 431679.0 0
116312.0 433156.0 0
122989.0 432460.0 0
129647.0 431851.0 0
132958.0 433402.0 0
136244.0 431304.0 0
139529.0 432860.0 0
146094.0 432137.0 0
149443.0 433679.0 0
152673.0 431544.0 0
155982.0 433154.0 0
159192.0 430971.0 0
162505.0 432511.0 0
165743.0 430460.0 0
169036.0 432148.0 0
172280.0 430115.0 0
175558.0 431856.0 0
178880.0 429918.0 0
182254.0 431854.0 0
185219.0 429659.0 0
188035.0 431666.0 0
191532.0 430389.0 0
195219.0 430967.0 0
198807.0 429894.0 0
216360.0 430658.0 0
223148.0 430525.0 0
226509.0 428482.0 0
229848.0 430319.0 0
236555.0 430120.0 0
243276.0 429978.0 0
250000.0 429928.0 0
256724.0 429978.0 0
263445.0 430120.0 0
270152.0 430319.0 0
273491.0 428482.0 0
276852.0 430525.0 0
283640.0 430658.0 0
301193.0 429894.0 0
304781.0 430967.0 0
308468.0 430389.0 0
311965.0 431666.0 0
314781.0 429659.0 0
317746.0 431854.0 0
321120.0 429918.0 0
324442.0 431856.0 0
327720.0 430115.0 0
330964.0 432148.0 0
334257.0 430460.0 0
337495.0 432511.0 0
340808.0 430971.0 0
344018.0 433154.0 0
347327.0 431544.0 0
350557.0 433679.0 0
353906.0 432137.0 0
360471.0 432860.0 0
363756.0 431304.0 0
367042.0 433402.0 0
370353.0 431851.0 0
377011.0 432460.0 0
383688.0 433156.0 0
386976.0 431679.0 0
390350.0 433792.0 0
106297.0 435892.0 0
112947.0 435327.0 0
119628.0 434607.0 0
122970.0 436061.0 0
126314.0 433940.0 0
129654.0 435476.0 0
136270.0 434987.0 0
142825.0 434367.0 0
146184.0 435745.0 0
152798.0 435220.0 0
156131.0 436934.0 0
159280.0 434653.0 0
165844.0 434145.0 0
172298.0 433820.0 0
178835.0 433567.0 0
185668.0 434761.0 0
189522.0 434864.0 0
193225.0 434204.0 0
197160.0 433945.0 0
200903.0 433258.0 0
204796.0 432879.0 0
208640.0 432367.0 0
212527.0 431802.0 0
219703.0 432515.0 0
226486.0 432368.0 0
229811.0 434222.0 0
233187.0 432171.0 0
236534.0 434035.0 0
239909.0 432000.0 0
243267.0 433906.0 0
246636.0 431907.0 0
250000.0 433861.0 0
253364.0 431907.0 0
256733.0 433906.0 0
260091.0 432000.0 0
263466.0 434035.0 0
266813.0 432171.0 0
270189.0 434222.0 0
273514.0 432368.0 0
280297.0 432515.0 0
287473.0 431802.0 0
291360.0 432367.0 0
295204.0 432879.0 0
299097.0 433258.0 0
302840.0 433945.0 0
306775.0 434204.0 0
310478.0 434864.0 0
314332.0 434761.0 0
321165.0 433567.0 0
327702.0 433820.0 0
334156.0 434145.0 0
340720.0 434653.0 0
343869.0 436934.0 0
347202.0 435220.0 0
353816.0 435745.0 0
357175.0 434367.0 0
363730.0 434987.0 0
370346.0 435476.0 0
373686.0 433940.0 0
377030.0 436061.0 0
380372.0 434607.0 0
387053.0 435327.0 0
393703.0 435892.0 0
102963.0 437981.0 0
109619.0 437489.0 0
112967.0 439028.0 0
116275.0 436800.0 0
119629.0 438240.0 0
126333.0 437553.0 0
132991.0 437074.0 0
136310.0 438710.0 0
139580.0 436594.0 0
142917.0 438086.0 0
162641.0 436162.0 0
169147.0 435934.0 0
175513.0 435616.0 0
178619.0 437188.0 0
182002.0 435614.0 0
195441.0 437386.0 0
199346.0 436943.0 0
203171.0 436424.0 0
207075.0 435979.0 0
210998.0 435408.0 0
215381.0 434470.0 0
219754.0 436303.0 0
223106.0 434360.0 0
233151.0 436082.0 0
239890.0 435922.0 0
246630.0 435838.0 0
253370.0 435838.0 0
260110.0 435922.0 0
266849.0 436082.0 0
276894.0 434360.0 0
280246.0 436303.0 0
284619.0 434470.0 0
289002.0 435408.0 0
292925.0 435979.0 0
296829.0 436424.0 0
300654.0 436943.0 0
304559.0 437386.0 0
317998.0 435614.0 0
321381.0 437188.0 0
324487.0 435616.0 0
330853.0 435934.0 0
337359.0 436162.0 0
357083.0 438086.0 0
360420.0 436594.0 0
363690.0 438710.0 0
367009.0 437074.0 0
373667.0 437553.0 0
380371.0 438240.0 0
383725.0 436800.0 0
387033.0 439028.0 0
390381.0 437489.0 0
397037.0 437981.0 0
99639.7 440063.0 0
103021.0 441787.0 0
106307.0 439645.0 0
109682.0 441240.0 0
116330.0 440495.0 0
122998.0 439683.0 0
126377.0 441180.0 0
129703.0 439130.0 0
133064.0 440792.0 0
139578.0 440390.0 0
146392.0 439256.0 0
149607.0 437379.0 0
152963.0 438882.0 0
159476.0 438320.0 0
162852.0 439808.0 0
165998.0 437843.0 0
172426.0 437568.0 0
180363.0 440092.0 0
183932.0 438748.0 0
187686.0 438199.0 0
191624.0 437865.0 0
201525.0 440054.0 0
205361.0 439586.0 0
209168.0 439177.0 0
212912.0 438713.0 0
216589.0 438170.0 0
223018.0 438253.0 0
226421.0 436271.0 0
229754.0 438121.0 0
236503.0 437948.0 0
243252.0 437833.0 0
250000.0 437792.0 0
256748.0 437833.0 0
263497.0 437948.0 0
270246.0 438121.0 0
273579.0 436271.0 0
276982.0 438253.0 0
283411.0 438170.0 0
287088.0 438713.0 0
290832.0 439177.0 0
294639.0 439586.0 0
298475.0 440054.0 0
308376.0 437865.0 0
312314.0 438199.0 0
316068.0 438748.0 0
319637.0 440092.0 0
327574.0 437568.0 0
334002.0 437843.0 0
337148.0 439808.0 0
340524.0 438320.0 0
347037.0 438882.0 0
350393.0 437379.0 0
353608.0 439256.0 0
360422.0 440390.0 0
366936.0 440792.0 0
370297.0 439130.0 0
373623.0 441180.0 0
377002.0 439683.0 0
383670.0 440495.0 0
390318.0 441240.0 0
393693.0 439645.0 0
396979.0 441787.0 0
400360.0 440063.0 0
93031.6 444199.0 0
96348.5 442146.0 0
106432.0 443445.0 0
113075.0 442775.0 0
116460.0 444244.0 0
119696.0 441914.0 0
123075.0 443334.0 0
129736.0 442804.0 0
136431.0 442507.0 0
142788.0 441807.0 0
146247.0 442628.0 0
149724.0 441219.0 0
153221.0 442294.0 0
156517.0 440786.0 0
165837.0 441583.0 0
169183.0 439836.0 0
172616.0 441028.0 0
176269.0 440140.0 0
186078.0 441837.0 0
189905.0 441369.0 0
193792.0 440967.0 0
197657.0 440504.0 0
215287.0 441818.0 0
219174.0 441088.0 0
226356.0 440201.0 0
229702.0 442005.0 0
233106.0 439995.0 0
236454.0 441857.0 0
239861.0 439843.0 0
243230.0 441755.0 0
246621.0 439766.0 0
250000.0 441719.0 0
253379.0 439766.0 0
256770.0 441755.0 0
260139.0 439843.0 0
263546.0 441857.0 0
266894.0 439995.0 0
270298.0 442005.0 0
273644.0 440201.0 0
280826.0 441088.0 0
284713.0 441818.0 0
302343.0 440504.0 0
306208.0 440967.0 0
310095.0 441369.0 0
313922.0 441837.0 0
323731.0 440140.0 0
327384.0 441028.0 0
330817.0 439836.0 0
334163.0 441583.0 0
343483.0 440786.0 0
346779.0 442294.0 0
350276.0 441219.0 0
353753.0 442628.0 0
357212.0 441807.0 0
363569.0 442507.0 0
370264.0 442804.0 0
376925.0 443334.0 0
380304.0 441914.0 0
383540.0 444244.0 0
386925.0 442775.0 0
393568.0 443445.0 0
403651.0 442146.0 0
406968.0 444199.0 0
89705.5 446278.0 0
93174.6 448066.0 0
99757.0 443929.0 0
109869.0 445046.0 0
113307.0 446590.0 0
119830.0 445630.0 0
126452.0 444831.0 0
133021.0 444521.0 0
136185.0 446181.0 0
139863.0 444382.0 0
143724.0 445410.0 0
147795.0 445557.0 0
151453.0 445301.0 0
155412.0 445090.0 0
160084.0 441939.0 0
166926.0 444755.0 0
170620.0 444114.0 0
174661.0 443861.0 0
178446.0 443346.0 0
182403.0 443008.0 0
188239.0 444969.0 0
192101.0 444524.0 0
195987.0 444095.0 0
199862.0 443651.0 0
203732.0 443208.0 0
207594.0 442789.0 0
211443.0 442350.0 0
222928.0 442093.0 0
233026.0 443930.0 0
239829.0 443760.0 0
246607.0 443688.0 0
253393.0 443688.0 0
260171.0 443760.0 0
266974.0 443930.0 0
277072.0 442093.0 0
288557.0 442350.0 0
292406.0 442789.0 0
296268.0 443208.0 0
300138.0 443651.0 0
304013.0 444095.0 0
307899.0 444524.0 0
311761.0 444969.0 0
317597.0 443008.0 0
321554.0 443346.0 0
325339.0 443861.0 0
329380.0 444114.0 0
333074.0 444755.0 0
339916.0 441939.0 0
344588.0 445090.0 0
348547.0 445301.0 0
352205.0 445557.0 0
356276.0 445410.0 0
360137.0 444382.0 0
363815.0 446181.0 0
366979.0 444521.0 0
373548.0 444831.0 0
380170.0 445630.0 0
386693.0 446590.0 0
390131.0 445046.0 0
400243.0 443929.0 0
406825.0 448066.0 0
410295.0 446278.0 0
82927.8 450519.0 0
86327.6 448389.0 0
89795.9 450129.0 0
96480.0 446037.0 0
99950.3 447828.0 0
103201.0 445644.0 0
106691.0 447295.0 0
116719.0 448065.0 0
120056.0 449427.0 0
123166.0 447015.0 0
126460.0 448470.0 0
129803.0 446553.0 0
133111.0 448430.0 0
138901.0 448187.0 0
142265.0 448721.0 0
145904.0 448665.0 0
149735.0 448675.0 0
153538.0 448438.0 0
159121.0 445156.0 0
163027.0 444482.0 0
172829.0 447241.0 0
176741.0 446896.0 0
180600.0 446449.0 0
184507.0 446010.0 0
194299.0 447681.0 0
198194.0 447252.0 0
202083.0 446820.0 0
205973.0 446376.0 0
209904.0 445974.0 0
213790.0 445484.0 0
217674.0 444835.0 0
221420.0 445632.0 0
225802.0 444706.0 0
229530.0 445860.0 0
236413.0 445739.0 0
243198.0 445674.0 0
250000.0 445637.0 0
256802.0 445674.0 0
263587.0 445739.0 0
270470.0 445860.0 0
274198.0 444706.0 0
278580.0 445632.0 0
282326.0 444835.0 0
286210.0 445484.0 0
290096.0 445974.0 0
294027.0 446376.0 0
297917.0 446820.0 0
301806.0 447252.0 0
305701.0 447681.0 0
315493.0 446010.0 0
319400.0 446449.0 0
323259.0 446896.0 0
327171.0 447241.0 0
336973.0 444482.0 0
340879.0 445156.0 0
346462.0 448438.0 0
350265.0 448675.0 0
354096.0 448665.0 0
357735.0 448721.0 0
361099.0 448187.0 0
366889.0 448430.0 0
370197.0 446553.0 0
373540.0 448470.0 0
376834.0 447015.0 0
379944.0 449427.0 0
383281.0 448065.0 0
393309.0 447295.0 0
396799.0 445644.0 0
400050.0 447828.0 0
403520.0 446037.0 0
410204.0 450129.0 0
413672.0 448389.0 0
417072.0 450519.0 0
86421.2 452262.0 0
93301.9 451899.0 0
96726.0 450023.0 0
103498.0 449520.0 0
110216.0 448914.0 0
113767.0 450497.0 0
123265.0 450771.0 0
129633.0 450300.0 0
132540.0 452212.0 0
157350.0 448373.0 0
161268.0 448075.0 0
165036.0 447883.0 0
169000.0 447689.0 0
178854.0 449984.0 0
182741.0 449538.0 0
186637.0 449070.0 0
190416.0 448121.0 0
200412.0 450434.0 0
208233.0 449511.0 0
212275.0 449174.0 0
216257.0 448523.0 0
224177.0 448313.0 0
227946.0 449428.0 0
232836.0 447869.0 0
236312.0 449591.0 0
239778.0 447689.0 0
243160.0 449580.0 0
246590.0 447601.0 0
250000.0 449546.0 0
253410.0 447601.0 0
256840.0 449580.0 0
260222.0 447689.0 0
263688.0 449591.0 0
267164.0 447869.0 0
272054.0 449428.0 0
275823.0 448313.0 0
283743.0 448523.0 0
287725.0 449174.0 0
291767.0 449511.0 0
299588.0 450434.0 0
309584.0 448121.0 0
313363.0 449070.0 0
317259.0 449538.0 0
321146.0 449984.0 0
331000.0 447689.0 0
334964.0 447883.0 0
338732.0 448075.0 0
342650.0 448373.0 0
367460.0 452212.0 0
370367.0 450300.0 0
376735.0 450771.0 0
386233.0 450497.0 0
389784.0 448914.0 0
396502.0 449520.0 0
403274.0 450023.0 0
406698.0 451899.0 0
413579.0 452262.0 0
82934.8 454465.0 0
89941.1 453998.0 0
93511.3 455720.0 0
100297.0 451757.0 0
107065.0 451174.0 0
110651.0 452790.0 0
117334.0 452075.0 0
120901.0 453710.0 0
126354.0 452118.0 0
128850.0 454372.0 0
136189.0 450822.0 0
140017.0 451848.0 0
143945.0 451980.0 0
147790.0 451925.0 0
151667.0 451825.0 0
155505.0 451680.0 0
159399.0 451485.0 0
163263.0 451290.0 0
167149.0 451043.0 0
171076.0 450757.0 0
174953.0 450371.0 0
184888.0 452641.0 0
188788.0 452164.0 0
192608.0 451288.0 0
196503.0 450850.0 0
204324.0 450002.0 0
220347.0 449423.0 0
232328.0 451772.0 0
239643.0 451639.0 0
246571.0 451503.0 0
253429.0 451503.0 0
260357.0 451639.0 0
267672.0 451772.0 0
279653.0 449423.0 0
295676.0 450002.0 0
303497.0 450850.0 0
307392.0 451288.0 0
311212.0 452164.0 0
315112.0 452641.0 0
325047.0 450371.0 0
328924.0 450757.0 0
332851.0 451043.0 0
336737.0 451290.0 0
340601.0 451485.0 0
344495.0 451680.0 0
348333.0 451825.0 0
352210.0 451925.0 0
356055.0 451980.0 0
359983.0 451848.0 0
363811.0 450822.0 0
371150.0 454372.0 0
373646.0 452118.0 0
379099.0 453710.0 0
382666.0 452075.0 0
389349.0 452790.0 0
392935.0 451174.0 0
399703.0 451757.0 0
406489.0 455720.0 0
410059.0 453998.0 0
417065.0 454465.0 0
86550.4 456164.0 0
90158.7 457885.0 0
97081.5 454017.0 0
103893.0 453431.0 0
107506.0 455064.0 0
114227.0 454388.0 0
117778.0 455991.0 0
135210.0 454555.0 0
138469.0 455271.0 0
142067.0 455231.0 0
145873.0 455240.0 0
149730.0 455152.0 0
153612.0 455037.0 0
157506.0 454866.0 0
161406.0 454684.0 0
165318.0 454463.0 0
169239.0 454196.0 0
173164.0 453883.0 0
177072.0 453505.0 0
180984.0 453095.0 0
190961.0 455274.0 0
194799.0 454491.0 0
198686.0 454049.0 0
202570.0 453679.0 0
206379.0 453325.0 0
210181.0 452795.0 0
213882.0 453240.0 0
217559.0 452206.0 0
221240.0 453315.0 0
224962.0 452114.0 0
228682.0 453267.0 0
235931.0 453412.0 0
243111.0 453461.0 0
250000.0 453444.0 0
256889.0 453461.0 0
264069.0 453412.0 0
271318.0 453267.0 0
275038.0 452114.0 0
278760.0 453315.0 0
282441.0 452206.0 0
286118.0 453240.0 0
289819.0 452795.0 0
293621.0 453325.0 0
297430.0 453679.0 0
301314.0 454049.0 0
305201.0 454491.0 0
309039.0 455274.0 0
319016.0 453095.0 0
322928.0 453505.0 0
326836.0 453883.0 0
330761.0 454196.0 0
334682.0 454463.0 0
338594.0 454684.0 0
342494.0 454866.0 0
346388.0 455037.0 0
350270.0 455152.0 0
354127.0 455240.0 0
357933.0 455231.0 0
361531.0 455271.0 0
364790.0 454555.0 0
382222.0 455991.0 0
385773.0 454388.0 0
392494.0 455064.0 0
396107.0 453431.0 0
402918.0 454017.0 0
409841.0 457885.0 0
413450.0 456164.0 0
86805.7 460098.0 0
93810.7 459563.0 0
97475.8 457984.0 0
100699.0 455697.0 0
104337.0 457343.0 0
111108.0 456697.0 0
114681.0 458319.0 0
121322.0 457580.0 0
124499.0 455327.0 0
131930.0 456005.0 0
135984.0 458388.0 0
139953.0 458609.0 0
143837.0 458566.0 0
147743.0 458497.0 0
167381.0 457641.0 0
171327.0 457364.0 0
175269.0 457035.0 0
179206.0 456645.0 0
183139.0 456219.0 0
187058.0 455758.0 0
193198.0 458378.0 0
200934.0 457250.0 0
208754.0 456440.0 0
216559.0 456055.0 0
220345.0 457189.0 0
224131.0 455974.0 0
227922.0 457117.0 0
231744.0 455710.0 0
235401.0 457237.0 0
239252.0 455573.0 0
242831.0 457329.0 0
246539.0 455393.0 0
250000.0 457325.0 0
253461.0 455393.0 0
257169.0 457329.0 0
260748.0 455573.0 0
264599.0 457237.0 0
268256.0 455710.0 0
272078.0 457117.0 0
275869.0 455974.0 0
279655.0 457189.0 0
283441.0 456055.0 0
291246.0 456440.0 0
299066.0 457250.0 0
306802.0 458378.0 0
312942.0 455758.0 0
316861.0 456219.0 0
320794.0 456645.0 0
324731.0 457035.0 0
328673.0 457364.0 0
332619.0 457641.0 0
352257.0 458497.0 0
356163.0 458566.0 0
360047.0 458609.0 0
364016.0 458388.0 0
368070.0 456005.0 0
375501.0 455327.0 0
378678.0 457580.0 0
385319.0 458319.0 0
388892.0 456697.0 0
395663.0 457343.0 0
399301.0 455697.0 0
402524.0 457984.0 0
406189.0 459563.0 0
413194.0 460098.0 0
90386.1 461823.0 0
101149.0 459622.0 0
107963.0 458965.0 0
111582.0 460641.0 0
118233.0 459928.0 0
124873.0 459077.0 0
128582.0 458208.0 0
132175.0 459470.0 0
137846.0 461864.0 0
141784.0 461914.0 0
145722.0 461842.0 0
151656.0 458387.0 0
155579.0 458245.0 0
159505.0 458075.0 0
163439.0 457877.0 0
177402.0 460193.0 0
181376.0 459789.0 0
185338.0 459352.0 0
189279.0 458887.0 0
197054.0 457690.0 0
204873.0 457189.0 0
212687.0 457065.0 0
232219.0 459631.0 0
239495.0 459511.0 0
246517.0 459271.0 0
253483.0 459271.0 0
260505.0 459511.0 0
267781.0 459631.0 0
287313.0 457065.0 0
295127.0 457189.0 0
302946.0 457690.0 0
310721.0 458887.0 0
314662.0 459352.0 0
318624.0 459789.0 0
322598.0 460193.0 0
336561.0 457877.0 0
340495.0 458075.0 0
344421.0 458245.0 0
348344.0 458387.0 0
354278.0 461842.0 0
358216.0 461914.0 0
362154.0 461864.0 0
367825.0 459470.0 0
371418.0 458208.0 0
375127.0 459077.0 0
381767.0 459928.0 0
388418.0 460641.0 0
392037.0 458965.0 0
398851.0 459622.0 0
409614.0 461823.0 0
93974.8 463472.0 0
97945.6 461922.0 0
104784.0 461268.0 0
108398.0 462854.0 0
115178.0 462304.0 0
121786.0 461479.0 0
125532.0 462735.0 0
129421.0 462162.0 0
134046.0 462392.0 0
139730.0 465264.0 0
149668.0 461744.0 0
153617.0 461617.0 0
157569.0 461466.0 0
161526.0 461288.0 0
165485.0 461079.0 0
169449.0 460833.0 0
173421.0 460550.0 0
187105.0 462775.0 0
190965.0 462358.0 0
194810.0 461886.0 0
198637.0 461303.0 0
202479.0 460819.0 0
206285.0 461135.0 0
209989.0 460123.0 0
213694.0 461033.0 0
217398.0 459884.0 0
221088.0 461084.0 0
224802.0 459845.0 0
228546.0 460995.0 0
235880.0 461084.0 0
243060.0 461220.0 0
250000.0 461196.0 0
256940.0 461220.0 0
264120.0 461084.0 0
271454.0 460995.0 0
275198.0 459845.0 0
278912.0 461084.0 0
282602.0 459884.0 0
286306.0 461033.0 0
290011.0 460123.0 0
293715.0 461135.0 0
297521.0 460819.0 0
301363.0 461303.0 0
305190.0 461886.0 0
309035.0 462358.0 0
312895.0 462775.0 0
326579.0 460550.0 0
330551.0 460833.0 0
334515.0 461079.0 0
338474.0 461288.0 0
342431.0 461466.0 0
346383.0 461617.0 0
350332.0 461744.0 0
360270.0 465264.0 0
365954.0 462392.0 0
370579.0 462162.0 0
374468.0 462735.0 0
378214.0 461479.0 0
384822.0 462304.0 0
391602.0 462854.0 0
395216.0 461268.0 0
402054.0 461922.0 0
406025.0 463472.0 0
97150.0 465778.0 0
101594.0 463546.0 0
105234.0 465228.0 0
112678.0 465304.0 0
118760.0 464062.0 0
122616.0 465251.0 0
127785.0 465735.0 0
131681.0 465454.0 0
143695.0 465204.0 0
147664.0 465108.0 0
151635.0 464991.0 0
155607.0 464854.0 0
159583.0 464697.0 0
163558.0 464515.0 0
167528.0 464300.0 0
171490.0 464053.0 0
175425.0 463798.0 0
179336.0 463493.0 0
183229.0 463151.0 0
193232.0 465531.0 0
201009.0 464492.0 0
208791.0 464204.0 0
212662.0 464873.0 0
216475.0 463805.0 0
220227.0 464930.0 0
223998.0 463753.0 0
227777.0 464827.0 0
231567.0 463576.0 0
235320.0 464918.0 0
239040.0 463475.0 0
242664.0 465099.0 0
246506.0 463181.0 0
250000.0 465064.0 0
253494.0 463181.0 0
257336.0 465099.0 0
260960.0 463475.0 0
264680.0 464918.0 0
268433.0 463576.0 0
272223.0 464827.0 0
276002.0 463753.0 0
279773.0 464930.0 0
283525.0 463805.0 0
287338.0 464873.0 0
291209.0 464204.0 0
298991.0 464492.0 0
306768.0 465531.0 0
316771.0 463151.0 0
320664.0 463493.0 0
324575.0 463798.0 0
328510.0 464053.0 0
332472.0 464300.0 0
336442.0 464515.0 0
340417.0 464697.0 0
344393.0 464854.0 0
348365.0 464991.0 0
352336.0 465108.0 0
356305.0 465204.0 0
368319.0 465454.0 0
372215.0 465735.0 0
377384.0 465251.0 0
381240.0 464062.0 0
387322.0 465304.0 0
394766.0 465228.0 0
398406.0 463546.0 0
402850.0 465778.0 0
93743.2 467882.0 0
100786.0 467364.0 0
109002.0 466669.0 0
115954.0 467525.0 0
119872.0 467888.0 0
124932.0 468386.0 0
135838.0 465535.0 0
141689.0 468587.0 0
145664.0 468487.0 0
161613.0 467945.0 0
165602.0 467761.0 0
169583.0 467545.0 0
173554.0 467311.0 0
177522.0 467034.0 0
181468.0 466719.0 0
185402.0 466366.0 0
189324.0 465977.0 0
197135.0 465018.0 0
204902.0 464860.0 0
230633.0 467544.0 0
238474.0 467428.0 0
246480.0 467101.0 0
253520.0 467101.0 0
261526.0 467428.0 0
269367.0 467544.0 0
295098.0 464860.0 0
302865.0 465018.0 0
310676.0 465977.0 0
314598.0 466366.0 0
318532.0 466719.0 0
322478.0 467034.0 0
326446.0 467311.0 0
330417.0 467545.0 0
334398.0 467761.0 0
338387.0 467945.0 0
354336.0 468487.0 0
358311.0 468587.0 0
364162.0 465535.0 0
375068.0 468386.0 0
380128.0 467888.0 0
384046.0 467525.0 0
390998.0 466669.0 0
399214.0 467364.0 0
406257.0 467882.0 0
97479.6 469693.0 0
104547.0 469139.0 0
108313.0 470455.0 0
112553.0 469597.0 0
129798.0 468946.0 0
133726.0 468810.0 0
137746.0 468750.0 0
149647.0 468374.0 0
153633.0 468246.0 0
157621.0 468102.0 0
175686.0 470550.0 0
179682.0 470273.0 0
183662.0 469938.0 0
187639.0 469574.0 0
191607.0 469167.0 0
195560.0 468679.0 0
199495.0 468179.0 0
203410.0 468555.0 0
207329.0 467997.0 0
211224.0 468590.0 0
215140.0 467968.0 0
219023.0 468678.0 0
222921.0 467835.0 0
226800.0 468646.0 0
234415.0 468694.0 0
243001.0 468992.0 0
250000.0 468920.0 0
256999.0 468992.0 0
265585.0 468694.0 0
273200.0 468646.0 0
277079.0 467835.0 0
280977.0 468678.0 0
284860.0 467968.0 0
288776.0 468590.0 0
292671.0 467997.0 0
296590.0 468555.0 0
300505.0 468179.0 0
304440.0 468679.0 0
308393.0 469167.0 0
312361.0 469574.0 0
316338.0 469938.0 0
320318.0 470273.0 0
324314.0 470550.0 0
342379.0 468102.0 0
346367.0 468246.0 0
350353.0 468374.0 0
362254.0 468750.0 0
366274.0 468810.0 0
370202.0 468946.0 0
387447.0 469597.0 0
391687.0 470455.0 0
395453.0 469139.0 0
402520.0 469693.0 0
101164.0 471262.0 0
118153.0 471329.0 0
122155.0 471150.0 0
127001.0 471703.0 0
131745.0 472255.0 0
135717.0 472134.0 0
139708.0 472026.0 0
143680.0 471891.0 0
147665.0 471774.0 0
151655.0 471649.0 0
155649.0 471513.0 0
159645.0 471367.0 0
163655.0 471211.0 0
167666.0 471024.0 0
171657.0 470811.0 0
185897.0 473152.0 0
189921.0 472778.0 0
193964.0 472328.0 0
197927.0 471836.0 0
201889.0 472250.0 0
205837.0 471703.0 0
209773.0 472310.0 0
213707.0 471696.0 0
217621.0 472385.0 0
221555.0 471719.0 0
225472.0 472381.0 0
229401.0 471648.0 0
233300.0 472448.0 0
237249.0 471454.0 0
241104.0 472405.0 0
246399.0 471064.0 0
250000.0 472761.0 0
253602.0 471064.0 0
258896.0 472405.0 0
262751.0 471454.0 0
266700.0 472448.0 0
270599.0 471648.0 0
274528.0 472381.0 0
278445.0 471719.0 0
282379.0 472385.0 0
286293.0 471696.0 0
290227.0 472310.0 0
294163.0 471703.0 0
298111.0 472250.0 0
302073.0 471836.0 0
306036.0 472328.0 0
310079.0 472778.0 0
314103.0 473152.0 0
328343.0 470811.0 0
332334.0 471024.0 0
336345.0 471211.0 0
340355.0 471367.0 0
344351.0 471513.0 0
348345.0 471649.0 0
352335.0 471774.0 0
356320.0 471891.0 0
360292.0 472026.0 0
364283.0 472134.0 0
368255.0 472255.0 0
372999.0 471703.0 0
377845.0 471150.0 0
381847.0 471329.0 0
398836.0 471262.0 0
97937.2 473612.0 0
102086.0 475098.0 0
105600.0 473267.0 0
110953.0 473349.0 0
114874.0 473403.0 0
120318.0 474619.0 0
124284.0 474553.0 0
128982.0 475086.0 0
133734.0 475568.0 0
137720.0 475446.0 0
141710.0 475325.0 0
145695.0 475196.0 0
149686.0 475070.0 0
153680.0 474938.0 0
157675.0 474798.0 0
161680.0 474649.0 0
165718.0 474488.0 0
169740.0 474308.0 0
173804.0 474048.0 0
177836.0 473798.0 0
181893.0 473506.0 0
238572.0 475436.0 0
246346.0 475028.0 0
253653.0 475028.0 0
261428.0 475436.0 0
318107.0 473506.0 0
322164.0 473798.0 0
326196.0 474048.0 0
330260.0 474308.0 0
334282.0 474488.0 0
338320.0 474649.0 0
342325.0 474798.0 0
346320.0 474938.0 0
350314.0 475070.0 0
354305.0 475196.0 0
358290.0 475325.0 0
362280.0 475446.0 0
366266.0 475568.0 0
371018.0 475086.0 0
375716.0 474553.0 0
379682.0 474619.0 0
385126.0 473403.0 0
389047.0 473349.0 0
394400.0 473267.0 0
397914.0 475098.0 0
402063.0 473612.0 0
98901.8 477455.0 0
105450.0 477216.0 0
109417.0 476989.0 0
113387.0 477060.0 0
117353.0 477183.0 0
122333.0 478013.0 0
126301.0 477995.0 0
131017.0 478450.0 0
155717.0 478243.0 0
159714.0 478098.0 0
163741.0 477940.0 0
167785.0 477786.0 0
171913.0 477549.0 0
175941.0 477311.0 0
179919.0 477107.0 0
183873.0 476896.0 0
187805.0 476583.0 0
191730.0 476289.0 0
195621.0 475921.0 0
199511.0 475465.0 0
203384.0 475978.0 0
207276.0 475418.0 0
211161.0 476060.0 0
215070.0 475445.0 0
218977.0 476122.0 0
222899.0 475464.0 0
226816.0 476116.0 0
230735.0 475469.0 0
234669.0 476156.0 0
242514.0 476109.0 0
250000.0 476611.0 0
257486.0 476109.0 0
265331.0 476156.0 0
269265.0 475469.0 0
273184.0 476116.0 0
277101.0 475464.0 0
281023.0 476122.0 0
284930.0 475445.0 0
288839.0 476060.0 0
292724.0 475418.0 0
296616.0 475978.0 0
300489.0 475465.0 0
304379.0 475921.0 0
308270.0 476289.0 0
312195.0 476583.0 0
316127.0 476896.0 0
320081.0 477107.0 0
324059.0 477311.0 0
328087.0 477549.0 0
332215.0 477786.0 0
336259.0 477940.0 0
340286.0 478098.0 0
344283.0 478243.0 0
368983.0 478450.0 0
373699.0 477995.0 0
377667.0 478013.0 0
382647.0 477183.0 0
386613.0 477060.0 0
390583.0 476989.0 0
394550.0 477216.0 0
401098.0 477455.0 0
103176.0 480470.0 0
107630.0 480531.0 0
111613.0 480602.0 0
115596.0 480724.0 0
135747.0 478887.0 0
139740.0 478763.0 0
143734.0 478639.0 0
147728.0 478509.0 0
151722.0 478380.0 0
174062.0 480825.0 0
178052.0 480628.0 0
182040.0 480436.0 0
186028.0 480211.0 0
190001.0 479869.0 0
193989.0 479714.0 0
197939.0 479136.0 0
201870.0 479788.0 0
205798.0 479133.0 0
209713.0 479824.0 0
213639.0 479175.0 0
217556.0 479856.0 0
221483.0 479201.0 0
225401.0 479842.0 0
229330.0 479200.0 0
233252.0 479858.0 0
237249.0 479194.0 0
241189.0 479860.0 0
245979.0 478992.0 0
250000.0 480467.0 0
254021.0 478992.0 0
258811.0 479860.0 0
262751.0 479194.0 0
266748.0 479858.0 0
270670.0 479200.0 0
274599.0 479842.0 0
278517.0 479201.0 0
282444.0 479856.0 0
286361.0 479175.0 0
290287.0 479824.0 0
294202.0 479133.0 0
298130.0 479788.0 0
302061.0 479136.0 0
306011.0 479714.0 0
309999.0 479869.0 0
313972.0 480211.0 0
317960.0 480436.0 0
321948.0 480628.0 0
325938.0 480825.0 0
348278.0 478380.0 0
352272.0 478509.0 0
356266.0 478639.0 0
360260.0 478763.0 0
364253.0 478887.0 0
384404.0 480724.0 0
388387.0 480602.0 0
392370.0 480531.0 0
396824.0 480470.0 0
98574.9 481406.0 0
119577.0 480850.0 0
124325.0 481455.0 0
128361.0 481393.0 0
133070.0 481817.0 0
137768.0 482212.0 0
141770.0 482089.0 0
145778.0 481962.0 0
149775.0 481837.0 0
153772.0 481705.0 0
157767.0 481563.0 0
161780.0 481406.0 0
165808.0 481253.0 0
169971.0 481030.0 0
330029.0 481030.0 0
334192.0 481253.0 0
338220.0 481406.0 0
342233.0 481563.0 0
346228.0 481705.0 0
350225.0 481837.0 0
354222.0 481962.0 0
358230.0 482089.0 0
362232.0 482212.0 0
366930.0 481817.0 0
371639.0 481393.0 0
375675.0 481455.0 0
380423.0 480850.0 0
401425.0 481406.0 0
101523.0 484091.0 0
105506.0 483880.0 0
109562.0 484011.0 0
113551.0 484123.0 0
117548.0 484267.0 0
121552.0 484319.0 0
126417.0 484849.0 0
130436.0 484794.0 0
135132.0 485194.0 0
139796.0 485542.0 0
143821.0 485418.0 0
147829.0 485300.0 0
151838.0 485179.0 0
155838.0 485045.0 0
159842.0 484890.0 0
163850.0 484737.0 0
167840.0 484609.0 0
171818.0 484494.0 0
175784.0 484360.0 0
179745.0 484191.0 0
183706.0 484030.0 0
187645.0 483837.0 0
191586.0 483502.0 0
195511.0 483897.0 0
199330.0 482866.0 0
203187.0 483778.0 0
207061.0 482912.0 0
210964.0 483646.0 0
214882.0 482965.0 0
218801.0 483652.0 0
222725.0 482991.0 0
226655.0 483626.0 0
230583.0 482985.0 0
234512.0 483625.0 0
238438.0 483004.0 0
242359.0 483670.0 0
246269.0 482967.0 0
250000.0 484338.0 0
253731.0 482967.0 0
257641.0 483670.0 0
261562.0 483004.0 0
265488.0 483625.0 0
269417.0 482985.0 0
273345.0 483626.0 0
277275.0 482991.0 0
281199.0 483652.0 0
285118.0 482965.0 0
289036.0 483646.0 0
292939.0 482912.0 0
296813.0 483778.0 0
300670.0 482866.0 0
304489.0 483897.0 0
308414.0 483502.0 0
312355.0 483837.0 0
316294.0 484030.0 0
320255.0 484191.0 0
324216.0 484360.0 0
328182.0 484494.0 0
332160.0 484609.0 0
336150.0 484737.0 0
340158.0 484890.0 0
344162.0 485045.0 0
348162.0 485179.0 0
352171.0 485300.0 0
356179.0 485418.0 0
360204.0 485542.0 0
364868.0 485194.0 0
369564.0 484794.0 0
373583.0 484849.0 0
378448.0 484319.0 0
382452.0 484267.0 0
386449.0 484123.0 0
390438.0 484011.0 0
394494.0 483880.0 0
398477.0 484091.0 0
100319.0 487889.0 0
104381.0 487706.0 0
108377.0 487809.0 0
112391.0 487935.0 0
116398.0 488078.0 0
120498.0 488160.0 0
124493.0 488318.0 0
128507.0 488271.0 0
132517.0 488202.0 0
137212.0 488577.0 0
145867.0 488764.0 0
149887.0 488652.0 0
153914.0 488534.0 0
157930.0 488392.0 0
161925.0 488237.0 0
165913.0 488105.0 0
169899.0 487987.0 0
173887.0 487868.0 0
177873.0 487719.0 0
181851.0 487549.0 0
185837.0 487442.0 0
189827.0 487156.0 0
193805.0 487509.0 0
197801.0 487153.0 0
201782.0 487518.0 0
205830.0 487162.0 0
209817.0 487474.0 0
213805.0 487176.0 0
217789.0 487514.0 0
221821.0 487185.0 0
225805.0 487519.0 0
229825.0 487194.0 0
233807.0 487537.0 0
237813.0 487195.0 0
241789.0 487607.0 0
246000.0 487199.0 0
250000.0 488207.0 0
254000.0 487199.0 0
258211.0 487607.0 0
262187.0 487195.0 0
266193.0 487537.0 0
270175.0 487194.0 0
274195.0 487519.0 0
278179.0 487185.0 0
282211.0 487514.0 0
286195.0 487176.0 0
290183.0 487474.0 0
294170.0 487162.0 0
298218.0 487518.0 0
302199.0 487153.0 0
306195.0 487509.0 0
310173.0 487156.0 0
314163.0 487442.0 0
318149.0 487549.0 0
322127.0 487719.0 0
326113.0 487868.0 0
330101.0 487987.0 0
334087.0 488105.0 0
338075.0 488237.0 0
342070.0 488392.0 0
346086.0 488534.0 0
350113.0 488652.0 0
354133.0 488764.0 0
362788.0 488577.0 0
367483.0 488202.0 0
371493.0 488271.0 0
375507.0 488318.0 0
379502.0 488160.0 0
383602.0 488078.0 0
387609.0 487935.0 0
391623.0 487809.0 0
395619.0 487706.0 0
399681.0 487889.0 0
141844.0 488870.0 0
358156.0 488870.0 0
102117.0 491455.0 0
106114.0 491339.0 0
110148.0 491387.0 0
114277.0 491457.0 0
118385.0 491542.0 0
122380.0 491684.0 0
126555.0 491740.0 0
130582.0 491689.0 0
134626.0 491620.0 0
139249.0 492002.0 0
143448.0 492436.0 0
147429.0 492370.0 0
151406.0 492289.0 0
155374.0 492206.0 0
159332.0 492101.0 0
163276.0 491964.0 0
167208.0 491854.0 0
171134.0 491758.0 0
175053.0 491663.0 0
178968.0 491537.0 0
182882.0 491377.0 0
186795.0 491454.0 0
190699.0 491045.0 0
194613.0 491437.0 0
198540.0 491078.0 0
202473.0 491457.0 0
206417.0 491117.0 0
210370.0 491434.0 0
214330.0 491141.0 0
218292.0 491475.0 0
222259.0 491161.0 0
226230.0 491483.0 0
230204.0 491176.0 0
234181.0 491499.0 0
238159.0 491189.0 0
242133.0 491570.0 0
246107.0 491197.0 0
250000.0 492090.0 0
253893.0 491197.0 0
257867.0 491570.0 0
261841.0 491189.0 0
265819.0 491499.0 0
269796.0 491176.0 0
273770.0 491483.0 0
277741.0 491161.0 0
281708.0 491475.0 0
285670.0 491141.0 0
289630.0 491434.0 0
293583.0 491117.0 0
297527.0 491457.0 0
301460.0 491078.0 0
305387.0 491437.0 0
309301.0 491045.0 0
313205.0 491454.0 0
317118.0 491377.0 0
321032.0 491537.0 0
324947.0 491663.0 0
328866.0 491758.0 0
332792.0 491854.0 0
336724.0 491964.0 0
340668.0 492101.0 0
344626.0 492206.0 0
348594.0 492289.0 0
352571.0 492370.0 0
356552.0 492436.0 0
360751.0 492002.0 0
365374.0 491620.0 0
369418.0 491689.0 0
373445.0 491740.0 0
377620.0 491684.0 0
381615.0 491542.0 0
385723.0 491457.0 0
389852.0 491387.0 0
393886.0 491339.0 0
397883.0 491455.0 0
101612.0 495420.0 0
105606.0 495342.0 0
109594.0 495345.0 0
113577.0 495389.0 0
117555.0 495442.0 0
121531.0 495569.0 0
125512.0 495583.0 0
129497.0 495529.0 0
133482.0 495459.0 0
137463.0 495578.0 0
141435.0 495858.0 0
145457.0 495835.0 0
149455.0 495762.0 0
153446.0 495690.0 0
157431.0 495605.0 0
161512.0 495537.0 0
165532.0 495470.0 0
169627.0 495446.0 0
173648.0 495392.0 0
177844.0 495357.0 0
181928.0 495243.0 0
185953.0 495359.0 0
189964.0 495197.0 0
193959.0 495375.0 0
197966.0 495199.0 0
201959.0 495416.0 0
205977.0 495200.0 0
209971.0 495407.0 0
213974.0 495202.0 0
217966.0 495450.0 0
221981.0 495202.0 0
225972.0 495459.0 0
229984.0 495202.0 0
233974.0 495473.0 0
237981.0 495202.0 0
241966.0 495543.0 0
246000.0 495203.0 0
250000.0 495984.0 0
254000.0 495203.0 0
258034.0 495543.0 0
262019.0 495202.0 0
266026.0 495473.0 0
270016.0 495202.0 0
274028.0 495459.0 0
278019.0 495202.0 0
282034.0 495450.0 0
286026.0 495202.0 0
290029.0 495407.0 0
294023.0 495200.0 0
298041.0 495416.0 0
302034.0 495199.0 0
306041.0 495375.0 0
310036.0 495197.0 0
314047.0 495359.0 0
318072.0 495243.0 0
322156.0 495357.0 0
326352.0 495392.0 0
330373.0 495446.0 0
334468.0 495470.0 0
338488.0 495537.0 0
342569.0 495605.0 0
346554.0 495690.0 0
350545.0 495762.0 0
354543.0 495835.0 0
358565.0 495858.0 0
362537.0 495578.0 0
366518.0 495459.0 0
370503.0 495529.0 0
374488.0 495583.0 0
378469.0 495569.0 0
382445.0 495442.0 0
386423.0 495389.0 0
390406.0 495345.0 0
394394.0 495342.0 0
398388.0 495420.0 0
102011.0 499396.0 0
106010.0 499329.0 0
110010.0 499321.0 0
114027.0 499359.0 0
118070.0 499398.0 0
122101.0 499506.0 0
126099.0 499524.0 0
130096.0 499478.0 0
134093.0 499430.0 0
138091.0 499525.0 0
142239.0 499749.0 0
146236.0 499709.0 0
150227.0 499641.0 0
154211.0 499582.0 0
158192.0 499514.0 0
162176.0 499472.0 0
166161.0 499410.0 0
170148.0 499399.0 0
174135.0 499348.0 0
178123.0 499333.0 0
182109.0 499225.0 0
186096.0 499351.0 0
190084.0 499195.0 0
194072.0 499366.0 0
198062.0 499197.0 0
202051.0 499406.0 0
206041.0 499200.0 0
210032.0 499400.0 0
214024.0 499201.0 0
218016.0 499438.0 0
222008.0 499202.0 0
226007.0 499443.0 0
230000.0 499203.0 0
234008.0 499454.0 0
238000.0 499203.0 0
242013.0 499518.0 0
246001.0 499202.0 0
250000.0 499889.0 0
253999.0 499202.0 0
257987.0 499518.0 0
262000.0 499203.0 0
265992.0 499454.0 0
270000.0 499203.0 0
273993.0 499443.0 0
277992.0 499202.0 0
281984.0 499438.0 0
285976.0 499201.0 0
289968.0 499400.0 0
293959.0 499200.0 0
297949.0 499406.0 0
301938.0 499197.0 0
305928.0 499366.0 0
309916.0 499195.0 0
313904.0 499351.0 0
317891.0 499225.0 0
321877.0 499333.0 0
325865.0 499348.0 0
329852.0 499399.0 0
333839.0 499410.0 0
337824.0 499472.0 0
341808.0 499514.0 0
345789.0 499582.0 0
349773.0 499641.0 0
353764.0 499709.0 0
357761.0 499749.0 0
361909.0 499525.0 0
365907.0 499430.0 0
369904.0 499478.0 0
373901.0 499524.0 0
377899.0 499506.0 0
381930.0 499398.0 0
385973.0 499359.0 0
389990.0 499321.0 0
393990.0 499329.0 0
397989.0 499396.0 0
101973.0 503391.0 0
105972.0 503328.0 0
109971.0 503319.0 0
113969.0 503357.0 0
117966.0 503386.0 0
121963.0 503484.0 0
125960.0 503506.0 0
129958.0 503469.0 0
133954.0 503427.0 0
137949.0 503517.0 0
141940.0 503710.0 0
145936.0 503659.0 0
149934.0 503596.0 0
153937.0 503549.0 0
157942.0 503496.0 0
161951.0 503456.0 0
165963.0 503395.0 0
169971.0 503383.0 0
173975.0 503332.0 0
177989.0 503318.0 0
181997.0 503215.0 0
185995.0 503345.0 0
189999.0 503202.0 0
193996.0 503357.0 0
198000.0 503203.0 0
201996.0 503397.0 0
206000.0 503203.0 0
209998.0 503391.0 0
214000.0 503203.0 0
217999.0 503426.0 0
222000.0 503203.0 0
225999.0 503428.0 0
230000.0 503203.0 0
233998.0 503437.0 0
238000.0 503203.0 0
241997.0 503493.0 0
246000.0 503203.0 0
250000.0 503804.0 0
254000.0 503203.0 0
258003.0 503493.0 0
262000.0 503203.0 0
266002.0 503437.0 0
270000.0 503203.0 0
274001.0 503428.0 0
278000.0 503203.0 0
282001.0 503426.0 0
286000.0 503203.0 0
290002.0 503391.0 0
294000.0 503203.0 0
298004.0 503397.0 0
302000.0 503203.0 0
306004.0 503357.0 0
310001.0 503202.0 0
314005.0 503345.0 0
318003.0 503215.0 0
322011.0 503318.0 0
326025.0 503332.0 0
330029.0 503383.0 0
334037.0 503395.0 0
338049.0 503456.0 0
342058.0 503496.0 0
346063.0 503549.0 0
350066.0 503596.0 0
354064.0 503659.0 0
358060.0 503710.0 0
362051.0 503517.0 0
366046.0 503427.0 0
370042.0 503469.0 0
374040.0 503506.0 0
378037.0 503484.0 0
382034.0 503386.0 0
386031.0 503357.0 0
390029.0 503319.0 0
394028.0 503328.0 0
398027.0 503391.0 0
102001.0 507385.0 0
106000.0 507328.0 0
110000.0 507317.0 0
114002.0 507354.0 0
118004.0 507376.0 0
122006.0 507465.0 0
126006.0 507491.0 0
130006.0 507462.0 0
134006.0 507425.0 0
138009.0 507512.0 0
142022.0 507681.0 0
146022.0 507624.0 0
150020.0 507567.0 0
154019.0 507532.0 0
158017.0 507485.0 0
162016.0 507445.0 0
166015.0 507385.0 0
170014.0 507371.0 0
174012.0 507318.0 0
178012.0 507307.0 0
182010.0 507209.0 0
186007.0 507339.0 0
190004.0 507202.0 0
194001.0 507350.0 0
198000.0 507203.0 0
202000.0 507388.0 0
206000.0 507203.0 0
210000.0 507383.0 0
214000.0 507203.0 0
218000.0 507413.0 0
222000.0 507203.0 0
226000.0 507413.0 0
230000.0 507203.0 0
234000.0 507420.0 0
238000.0 507203.0 0
242000.0 507469.0 0
246000.0 507203.0 0
250000.0 507729.0 0
254000.0 507203.0 0
258000.0 507469.0 0
262000.0 507203.0 0
266000.0 507420.0 0
270000.0 507203.0 0
274000.0 507413.0 0
278000.0 507203.0 0
282000.0 507413.0 0
286000.0 507203.0 0
290000.0 507383.0 0
294000.0 507203.0 0
298000.0 507388.0 0
302000.0 507203.0 0
305999.0 507350.0 0
309996.0 507202.0 0
313993.0 507339.0 0
317990.0 507209.0 0
321988.0 507307.0 0
325988.0 507318.0 0
329986.0 507371.0 0
333985.0 507385.0 0
337984.0 507445.0 0
341983.0 507485.0 0
345981.0 507532.0 0
349980.0 507567.0 0
353978.0 507624.0 0
357978.0 507681.0 0
361991.0 507512.0 0
365994.0 507425.0 0
369994.0 507462.0 0
373994.0 507491.0 0
377994.0 507465.0 0
381996.0 507376.0 0
385998.0 507354.0 0
390000.0 507317.0 0
394000.0 507328.0 0
397999.0 507385.0 0
102000.0 511380.0 0
105999.0 511328.0 0
109999.0 511315.0 0
113999.0 511350.0 0
117999.0 511366.0 0
121998.0 511448.0 0
165998.0 511374.0 0
169998.0 511360.0 0
173999.0 511306.0 0
177999.0 511298.0 0
182000.0 511206.0 0
186000.0 511334.0 0
190000.0 511203.0 0
194000.0 511343.0 0
198000.0 511203.0 0
202000.0 511379.0 0
206000.0 511203.0 0
210000.0 511375.0 0
214000.0 511203.0 0
218000.0 511400.0 0
222000.0 511203.0 0
226000.0 511399.0 0
230000.0 511203.0 0
234000.0 511403.0 0
238000.0 511203.0 0
242000.0 511446.0 0
246000.0 511203.0 0
250000.0 511663.0 0
254000.0 511203.0 0
258000.0 511446.0 0
262000.0 511203.0 0
266000.0 511403.0 0
270000.0 511203.0 0
274000.0 511399.0 0
278000.0 511203.0 0
282000.0 511400.0 0
286000.0 511203.0 0
290000.0 511375.0 0
294000.0 511203.0 0
298000.0 511379.0 0
302000.0 511203.0 0
306000.0 511343.0 0
310000.0 511203.0 0
314000.0 511334.0 0
318000.0 511206.0 0
322001.0 511298.0 0
326001.0 511306.0 0
330002.0 511360.0 0
334002.0 511374.0 0
378002.0 511448.0 0
382001.0 511366.0 0
386001.0 511350.0 0
390001.0 511315.0 0
394001.0 511328.0 0
398000.0 511380.0 0
125998.0 511477.0 0
129997.0 511456.0 0
133997.0 511422.0 0
137996.0 511505.0 0
141993.0 511652.0 0
145992.0 511594.0 0
149992.0 511543.0 0
153993.0 511519.0 0
157994.0 511474.0 0
161996.0 511435.0 0
338004.0 511435.0 0
342006.0 511474.0 0
346007.0 511519.0 0
350008.0 511543.0 0
354008.0 511594.0 0
358007.0 511652.0 0
362004.0 511505.0 0
366003.0 511422.0 0
370003.0 511456.0 0
374002.0 511477.0 0
102000.0 515374.0 0
106000.0 515327.0 0
110000.0 515314.0 0
114000.0 515346.0 0
118000.0 515357.0 0
122000.0 515433.0 0
126000.0 515464.0 0
130000.0 515449.0 0
134000.0 515418.0 0
138001.0 515498.0 0
142003.0 515623.0 0
146003.0 515568.0 0
150002.0 515524.0 0
154002.0 515507.0 0
158002.0 515462.0 0
162001.0 515424.0 0
166001.0 515364.0 0
170001.0 515349.0 0
174000.0 515294.0 0
178000.0 515290.0 0
182000.0 515204.0 0
186000.0 515328.0 0
190000.0 515203.0 0
194000.0 515336.0 0
198000.0 515203.0 0
202000.0 515370.0 0
206000.0 515203.0 0
210000.0 515366.0 0
214000.0 515203.0 0
218000.0 515388.0 0
222000.0 515203.0 0
226000.0 515386.0 0
230000.0 515203.0 0
234000.0 515387.0 0
238000.0 515203.0 0
242000.0 515424.0 0
246000.0 515203.0 0
250000.0 515604.0 0
254000.0 515203.0 0
258000.0 515424.0 0
262000.0 515203.0 0
266000.0 515387.0 0
270000.0 515203.0 0
274000.0 515386.0 0
278000.0 515203.0 0
282000.0 515388.0 0
286000.0 515203.0 0
290000.0 515366.0 0
294000.0 515203.0 0
298000.0 515370.0 0
302000.0 515203.0 0
306000.0 515336.0 0
310000.0 515203.0 0
314000.0 515328.0 0
318000.0 515204.0 0
322000.0 515290.0 0
326000.0 515294.0 0
329999.0 515349.0 0
333999.0 515364.0 0
337999.0 515424.0 0
341998.0 515462.0 0
345998.0 515507.0 0
349998.0 515524.0 0
353997.0 515568.0 0
357997.0 515623.0 0
361999.0 515498.0 0
366000.0 515418.0 0
370000.0 515449.0 0
374000.0 515464.0 0
378000.0 515433.0 0
382000.0 515357.0 0
386000.0 515346.0 0
390000.0 515314.0 0
394000.0 515327.0 0
398000.0 515374.0 0
182000.0 519203.0 0
190000.0 519203.0 0
198000.0 519203.0 0
206000.0 519203.0 0
214000.0 519203.0 0
222000.0 519203.0 0
230000.0 519203.0 0
238000.0 519203.0 0
246000.0 519203.0 0
254000.0 519203.0 0
262000.0 519203.0 0
270000.0 519203.0 0
278000.0 519203.0 0
286000.0 519203.0 0
294000.0 519203.0 0
302000.0 519203.0 0
310000.0 519203.0 0
318000.0 519203.0 0
102000.0 519369.0 0
106000.0 519326.0 0
110000.0 519313.0 0
114000.0 519342.0 0
118000.0 519348.0 0
122000.0 519420.0 0
126000.0 519451.0 0
130000.0 519441.0 0
134000.0 519414.0 0
138000.0 519491.0 0
141999.0 519595.0 0
145999.0 519545.0 0
149999.0 519506.0 0
153999.0 519495.0 0
158000.0 519450.0 0
162000.0 519414.0 0
166000.0 519354.0 0
170000.0 519339.0 0
174000.0 519284.0 0
178000.0 519283.0 0
186000.0 519322.0 0
194000.0 519329.0 0
202000.0 519361.0 0
210000.0 519357.0 0
218000.0 519375.0 0
226000.0 519373.0 0
234000.0 519372.0 0
242000.0 519403.0 0
250000.0 519551.0 0
258000.0 519403.0 0
266000.0 519372.0 0
274000.0 519373.0 0
282000.0 519375.0 0
290000.0 519357.0 0
298000.0 519361.0 0
306000.0 519329.0 0
314000.0 519322.0 0
322000.0 519283.0 0
326000.0 519284.0 0
330000.0 519339.0 0
334000.0 519354.0 0
338000.0 519414.0 0
342000.0 519450.0 0
346001.0 519495.0 0
350001.0 519506.0 0
354001.0 519545.0 0
358001.0 519595.0 0
362000.0 519491.0 0
366000.0 519414.0 0
370000.0 519441.0 0
374000.0 519451.0 0
378000.0 519420.0 0
382000.0 519348.0 0
386000.0 519342.0 0
390000.0 519313.0 0
394000.0 519326.0 0
398000.0 519369.0 0
102000.0 523364.0 0
106000.0 523325.0 0
110000.0 523312.0 0
114000.0 523337.0 0
118000.0 523340.0 0
122000.0 523408.0 0
126000.0 523439.0 0
130000.0 523434.0 0
134000.0 523408.0 0
138000.0 523483.0 0
142000.0 523568.0 0
146000.0 523523.0 0
150000.0 523489.0 0
154000.0 523482.0 0
158000.0 523438.0 0
162000.0 523403.0 0
166000.0 523344.0 0
170000.0 523330.0 0
174000.0 523274.0 0
178000.0 523277.0 0
182000.0 523203.0 0
186000.0 523317.0 0
190000.0 523203.0 0
194000.0 523322.0 0
198000.0 523203.0 0
202000.0 523353.0 0
206000.0 523203.0 0
210000.0 523348.0 0
214000.0 523203.0 0
218000.0 523364.0 0
222000.0 523203.0 0
226000.0 523361.0 0
230000.0 523203.0 0
234000.0 523358.0 0
238000.0 523203.0 0
242000.0 523383.0 0
246000.0 523203.0 0
250000.0 523506.0 0
254000.0 523203.0 0
258000.0 523383.0 0
262000.0 523203.0 0
266000.0 523358.0 0
270000.0 523203.0 0
274000.0 523361.0 0
278000.0 523203.0 0
282000.0 523364.0 0
286000.0 523203.0 0
290000.0 523348.0 0
294000.0 523203.0 0
298000.0 523353.0 0
302000.0 523203.0 0
306000.0 523322.0 0
310000.0 523203.0 0
314000.0 523317.0 0
318000.0 523203.0 0
322000.0 523277.0 0
326000.0 523274.0 0
330000.0 523330.0 0
334000.0 523344.0 0
338000.0 523403.0 0
342000.0 523438.0 0
346000.0 523482.0 0
350000.0 523489.0 0
354000.0 523523.0 0
358000.0 523568.0 0
362000.0 523483.0 0
366000.0 523408.0 0
370000.0 523434.0 0
374000.0 523439.0 0
378000.0 523408.0 0
382000.0 523340.0 0
386000.0 523337.0 0
390000.0 523312.0 0
394000.0 523325.0 0
398000.0 523364.0 0
102000.0 527359.0 0
106000.0 527324.0 0
110000.0 527311.0 0
114000.0 527333.0 0
118000.0 527333.0 0
122000.0 527397.0 0
126000.0 527428.0 0
130000.0 527427.0 0
134000.0 527403.0 0
138000.0 527475.0 0
142000.0 527543.0 0
146000.0 527503.0 0
150000.0 527472.0 0
154000.0 527468.0 0
158000.0 527425.0 0
162000.0 527392.0 0
166000.0 527334.0 0
170000.0 527321.0 0
174000.0 527266.0 0
178000.0 527273.0 0
182000.0 527203.0 0
186000.0 527311.0 0
190000.0 527203.0 0
194000.0 527316.0 0
198000.0 527203.0 0
202000.0 527344.0 0
206000.0 527203.0 0
210000.0 527340.0 0
214000.0 527203.0 0
218000.0 527352.0 0
222000.0 527203.0 0
226000.0 527349.0 0
230000.0 527203.0 0
234000.0 527344.0 0
238000.0 527203.0 0
242000.0 527364.0 0
246000.0 527203.0 0
250000.0 527465.0 0
254000.0 527203.0 0
258000.0 527364.0 0
262000.0 527203.0 0
266000.0 527344.0 0
270000.0 527203.0 0
274000.0 527349.0 0
278000.0 527203.0 0
282000.0 527352.0 0
286000.0 527203.0 0
290000.0 527340.0 0
294000.0 527203.0 0
298000.0 527344.0 0
302000.0 527203.0 0
306000.0 527316.0 0
310000.0 527203.0 0
314000.0 527311.0 0
318000.0 527203.0 0
322000.0 527273.0 0
326000.0 527266.0 0
330000.0 527321.0 0
334000.0 527334.0 0
338000.0 527392.0 0
342000.0 527425.0 0
346000.0 527468.0 0
350000.0 527472.0 0
354000.0 527503.0 0
358000.0 527543.0 0
362000.0 527475.0 0
366000.0 527403.0 0
370000.0 527427.0 0
374000.0 527428.0 0
378000.0 527397.0 0
382000.0 527333.0 0
386000.0 527333.0 0
390000.0 527311.0 0
394000.0 527324.0 0
398000.0 527359.0 0
102000.0 531355.0 0
106000.0 531323.0 0
110000.0 531309.0 0
114000.0 531328.0 0
118000.0 531326.0 0
122000.0 531387.0 0
126000.0 531417.0 0
130000.0 531419.0 0
134000.0 531397.0 0
138000.0 531466.0 0
142000.0 531519.0 0
146000.0 531484.0 0
150000.0 531456.0 0
154000.0 531455.0 0
158000.0 531412.0 0
162000.0 531382.0 0
166000.0 531325.0 0
170000.0 531313.0 0
174000.0 531259.0 0
178000.0 531268.0 0
182000.0 531203.0 0
186000.0 531306.0 0
190000.0 531203.0 0
194000.0 531310.0 0
198000.0 531203.0 0
202000.0 531336.0 0
206000.0 531203.0 0
210000.0 531331.0 0
214000.0 531203.0 0
218000.0 531341.0 0
222000.0 531203.0 0
226000.0 531338.0 0
230000.0 531203.0 0
234000.0 531332.0 0
238000.0 531203.0 0
242000.0 531347.0 0
246000.0 531203.0 0
250000.0 531430.0 0
254000.0 531203.0 0
258000.0 531347.0 0
262000.0 531203.0 0
266000.0 531332.0 0
270000.0 531203.0 0
274000.0 531338.0 0
278000.0 531203.0 0
282000.0 531341.0 0
286000.0 531203.0 0
290000.0 531331.0 0
294000.0 531203.0 0
298000.0 531336.0 0
302000.0 531203.0 0
306000.0 531310.0 0
310000.0 531203.0 0
314000.0 531306.0 0
318000.0 531203.0 0
322000.0 531268.0 0
326000.0 531259.0 0
330000.0 531313.0 0
334000.0 531325.0 0
338000.0 531382.0 0
342000.0 531412.0 0
346000.0 531455.0 0
350000.0 531456.0 0
354000.0 531484.0 0
358000.0 531519.0 0
362000.0 531466.0 0
366000.0 531397.0 0
370000.0 531419.0 0
374000.0 531417.0 0
378000.0 531387.0 0
382000.0 531326.0 0
386000.0 531328.0 0
390000.0 531309.0 0
394000.0 531323.0 0
398000.0 531355.0 0
102000.0 535350.0 0
106000.0 535321.0 0
110000.0 535308.0 0
114000.0 535324.0 0
118000.0 535319.0 0
122000.0 535379.0 0
126000.0 535408.0 0
130000.0 535412.0 0
134000.0 535390.0 0
138000.0 535458.0 0
142000.0 535496.0 0
146000.0 535465.0 0
150000.0 535440.0 0
154000.0 535442.0 0
158000.0 535400.0 0
162000.0 535372.0 0
166000.0 535316.0 0
170000.0 535305.0 0
174000.0 535252.0 0
178000.0 535265.0 0
182000.0 535203.0 0
186000.0 535301.0 0
190000.0 535203.0 0
194000.0 535303.0 0
198000.0 535203.0 0
202000.0 535328.0 0
206000.0 535203.0 0
210000.0 535323.0 0
214000.0 535203.0 0
218000.0 535331.0 0
222000.0 535203.0 0
226000.0 535327.0 0
230000.0 535203.0 0
234000.0 535320.0 0
238000.0 535203.0 0
242000.0 535332.0 0
246000.0 535203.0 0
250000.0 535399.0 0
254000.0 535203.0 0
258000.0 535332.0 0
262000.0 535203.0 0
266000.0 535320.0 0
270000.0 535203.0 0
274000.0 535327.0 0
278000.0 535203.0 0
282000.0 535331.0 0
286000.0 535203.0 0
290000.0 535323.0 0
294000.0 535203.0 0
298000.0 535328.0 0
302000.0 535203.0 0
306000.0 535303.0 0
310000.0 535203.0 0
314000.0 535301.0 0
318000.0 535203.0 0
322000.0 535265.0 0
326000.0 535252.0 0
330000.0 535305.0 0
334000.0 535316.0 0
338000.0 535372.0 0
342000.0 535400.0 0
346000.0 535442.0 0
350000.0 535440.0 0
354000.0 535465.0 0
358000.0 535496.0 0
362000.0 535458.0 0
366000.0 535390.0 0
370000.0 535412.0 0
374000.0 535408.0 0
378000.0 535379.0 0
382000.0 535319.0 0
386000.0 535324.0 0
390000.0 535308.0 0
394000.0 535321.0 0
398000.0 535350.0 0
102000.0 539346.0 0
106000.0 539320.0 0
110000.0 539306.0 0
114000.0 539320.0 0
118000.0 539313.0 0
122000.0 539371.0 0
126000.0 539398.0 0
130000.0 539404.0 0
134000.0 539384.0 0
138000.0 539449.0 0
142000.0 539476.0 0
146000.0 539448.0 0
150000.0 539425.0 0
154000.0 539428.0 0
158000.0 539387.0 0
162000.0 539362.0 0
166000.0 539307.0 0
170000.0 539298.0 0
174000.0 539246.0 0
178000.0 539261.0 0
182000.0 539203.0 0
186000.0 539295.0 0
190000.0 539203.0 0
194000.0 539298.0 0
198000.0 539203.0 0
202000.0 539320.0 0
206000.0 539203.0 0
210000.0 539315.0 0
214000.0 539203.0 0
218000.0 539321.0 0
222000.0 539203.0 0
226000.0 539317.0 0
230000.0 539203.0 0
234000.0 539308.0 0
238000.0 539203.0 0
242000.0 539317.0 0
246000.0 539203.0 0
250000.0 539372.0 0
254000.0 539203.0 0
258000.0 539317.0 0
262000.0 539203.0 0
266000.0 539308.0 0
270000.0 539203.0 0
274000.0 539317.0 0
278000.0 539203.0 0
282000.0 539321.0 0
286000.0 539203.0 0
290000.0 539315.0 0
294000.0 539203.0 0
298000.0 539320.0 0
302000.0 539203.0 0
306000.0 539298.0 0
310000.0 539203.0 0
314000.0 539295.0 0
318000.0 539203.0 0
322000.0 539261.0 0
326000.0 539246.0 0
330000.0 539298.0 0
334000.0 539307.0 0
338000.0 539362.0 0
342000.0 539387.0 0
346000.0 539428.0 0
350000.0 539425.0 0
354000.0 539448.0 0
358000.0 539476.0 0
362000.0 539449.0 0
366000.0 539384.0 0
370000.0 539404.0 0
374000.0 539398.0 0
378000.0 539371.0 0
382000.0 539313.0 0
386000.0 539320.0 0
390000.0 539306.0 0
394000.0 539320.0 0
398000.0 539346.0 0
102000.0 543343.0 0
106000.0 543319.0 0
110000.0 543305.0 0
114000.0 543316.0 0
118000.0 543307.0 0
122000.0 543363.0 0
126000.0 543390.0 0
130000.0 543397.0 0
134000.0 543377.0 0
138000.0 543441.0 0
142000.0 543457.0 0
146000.0 543433.0 0
150000.0 543411.0 0
154000.0 543415.0 0
158000.0 543375.0 0
162000.0 543352.0 0
166000.0 543299.0 0
170000.0 543291.0 0
174000.0 543241.0 0
178000.0 543258.0 0
182000.0 543203.0 0
186000.0 543290.0 0
190000.0 543203.0 0
194000.0 543292.0 0
198000.0 543203.0 0
202000.0 543312.0 0
206000.0 543203.0 0
210000.0 543308.0 0
214000.0 543203.0 0
218000.0 543312.0 0
222000.0 543203.0 0
226000.0 543307.0 0
230000.0 543203.0 0
234000.0 543298.0 0
238000.0 543203.0 0
242000.0 543304.0 0
246000.0 543203.0 0
250000.0 543348.0 0
254000.0 543203.0 0
258000.0 543304.0 0
262000.0 543203.0 0
266000.0 543298.0 0
270000.0 543203.0 0
274000.0 543307.0 0
278000.0 543203.0 0
282000.0 543312.0 0
286000.0 543203.0 0
290000.0 543308.0 0
294000.0 543203.0 0
298000.0 543312.0 0
302000.0 543203.0 0
306000.0 543292.0 0
310000.0 543203.0 0
314000.0 543290.0 0
318000.0 543203.0 0
322000.0 543258.0 0
326000.0 543241.0 0
330000.0 543291.0 0
334000.0 543299.0 0
338000.0 543352.0 0
342000.0 543375.0 0
346000.0 543415.0 0
350000.0 543411.0 0
354000.0 543433.0 0
358000.0 543457.0 0
362000.0 543441.0 0
366000.0 543377.0 0
370000.0 543397.0 0
374000.0 543390.0 0
378000.0 543363.0 0
382000.0 543307.0 0
386000.0 543316.0 0
390000.0 543305.0 0
394000.0 543319.0 0
398000.0 543343.0 0
102000.0 547339.0 0
106000.0 547317.0 0
110000.0 547303.0 0
114000.0 547312.0 0
118000.0 547302.0 0
122000.0 547356.0 0
126000.0 547382.0 0
130000.0 547391.0 0
134000.0 547371.0 0
138000.0 547433.0 0
142000.0 547439.0 0
146000.0 547418.0 0
150000.0 547397.0 0
154000.0 547403.0 0
158000.0 547363.0 0
162000.0 547342.0 0
166000.0 547291.0 0
170000.0 547285.0 0
174000.0 547237.0 0
178000.0 547256.0 0
182000.0 547203.0 0
186000.0 547286.0 0
190000.0 547203.0 0
194000.0 547287.0 0
198000.0 547203.0 0
202000.0 547305.0 0
206000.0 547203.0 0
210000.0 547300.0 0
214000.0 547203.0 0
218000.0 547303.0 0
222000.0 547203.0 0
226000.0 547298.0 0
230000.0 547203.0 0
234000.0 547288.0 0
238000.0 547203.0 0
242000.0 547292.0 0
246000.0 547203.0 0
250000.0 547328.0 0
254000.0 547203.0 0
258000.0 547292.0 0
262000.0 547203.0 0
266000.0 547288.0 0
270000.0 547203.0 0
274000.0 547298.0 0
278000.0 547203.0 0
282000.0 547303.0 0
286000.0 547203.0 0
290000.0 547300.0 0
294000.0 547203.0 0
298000.0 547305.0 0
302000.0 547203.0 0
306000.0 547287.0 0
310000.0 547203.0 0
314000.0 547286.0 0
318000.0 547203.0 0
322000.0 547256.0 0
326000.0 547237.0 0
330000.0 547285.0 0
334000.0 547291.0 0
338000.0 547342.0 0
342000.0 547363.0 0
346000.0 547403.0 0
350000.0 547397.0 0
354000.0 547418.0 0
358000.0 547439.0 0
362000.0 547433.0 0
366000.0 547371.0 0
370000.0 547391.0 0
374000.0 547382.0 0
378000.0 547356.0 0
382000.0 547302.0 0
386000.0 547312.0 0
390000.0 547303.0 0
394000.0 547317.0 0
398000.0 547339.0 0
102000.0 551336.0 0
106000.0 551316.0 0
110000.0 551302.0 0
114000.0 551309.0 0
118000.0 551297.0 0
122000.0 551350.0 0
126000.0 551374.0 0
130000.0 551384.0 0
134000.0 551365.0 0
138000.0 551425.0 0
142000.0 551424.0 0
146000.0 551404.0 0
150000.0 551384.0 0
154000.0 551391.0 0
158000.0 551352.0 0
162000.0 551333.0 0
166000.0 551284.0 0
170000.0 551279.0 0
174000.0 551233.0 0
178000.0 551253.0 0
182000.0 551203.0 0
186000.0 551281.0 0
190000.0 551203.0 0
194000.0 551282.0 0
198000.0 551203.0 0
202000.0 551299.0 0
206000.0 551203.0 0
210000.0 551294.0 0
214000.0 551203.0 0
218000.0 551295.0 0
222000.0 551203.0 0
226000.0 551289.0 0
230000.0 551203.0 0
234000.0 551279.0 0
238000.0 551203.0 0
242000.0 551281.0 0
246000.0 551203.0 0
250000.0 551310.0 0
254000.0 551203.0 0
258000.0 551281.0 0
262000.0 551203.0 0
266000.0 551279.0 0
270000.0 551203.0 0
274000.0 551289.0 0
278000.0 551203.0 0
282000.0 551295.0 0
286000.0 551203.0 0
290000.0 551294.0 0
294000.0 551203.0 0
298000.0 551299.0 0
302000.0 551203.0 0
306000.0 551282.0 0
310000.0 551203.0 0
314000.0 551281.0 0
318000.0 551203.0 0
322000.0 551253.0 0
326000.0 551233.0 0
330000.0 551279.0 0
334000.0 551284.0 0
338000.0 551333.0 0
342000.0 551352.0 0
346000.0 551391.0 0
350000.0 551384.0 0
354000.0 551404.0 0
358000.0 551424.0 0
362000.0 551425.0 0
366000.0 551365.0 0
370000.0 551384.0 0
374000.0 551374.0 0
378000.0 551350.0 0
382000.0 551297.0 0
386000.0 551309.0 0
390000.0 551302.0 0
394000.0 551316.0 0
398000.0 551336.0 0
102000.0 555332.0 0
106000.0 555314.0 0
110000.0 555300.0 0
114000.0 555306.0 0
118000.0 555292.0 0
122000.0 555344.0 0
126000.0 555367.0 0
130000.0 555378.0 0
134000.0 555358.0 0
138000.0 555417.0 0
142000.0 555409.0 0
146000.0 555392.0 0
150000.0 555372.0 0
154000.0 555379.0 0
158000.0 555341.0 0
162000.0 555325.0 0
166000.0 555277.0 0
170000.0 555274.0 0
174000.0 555229.0 0
178000.0 555251.0 0
182000.0 555203.0 0
186000.0 555277.0 0
190000.0 555203.0 0
194000.0 555277.0 0
198000.0 555203.0 0
202000.0 555292.0 0
206000.0 555203.0 0
210000.0 555287.0 0
214000.0 555203.0 0
218000.0 555288.0 0
222000.0 555203.0 0
226000.0 555281.0 0
230000.0 555203.0 0
234000.0 555271.0 0
238000.0 555203.0 0
242000.0 555272.0 0
246000.0 555203.0 0
250000.0 555295.0 0
254000.0 555203.0 0
258000.0 555272.0 0
262000.0 555203.0 0
266000.0 555271.0 0
270000.0 555203.0 0
274000.0 555281.0 0
278000.0 555203.0 0
282000.0 555288.0 0
286000.0 555203.0 0
290000.0 555287.0 0
294000.0 555203.0 0
298000.0 555292.0 0
302000.0 555203.0 0
306000.0 555277.0 0
310000.0 555203.0 0
314000.0 555277.0 0
318000.0 555203.0 0
322000.0 555251.0 0
326000.0 555229.0 0
330000.0 555274.0 0
334000.0 555277.0 0
338000.0 555325.0 0
342000.0 555341.0 0
346000.0 555379.0 0
350000.0 555372.0 0
354000.0 555392.0 0
358000.0 555409.0 0
362000.0 555417.0 0
366000.0 555358.0 0
370000.0 555378.0 0
374000.0 555367.0 0
378000.0 555344.0 0
382000.0 555292.0 0
386000.0 555306.0 0
390000.0 555300.0 0
394000.0 555314.0 0
398000.0 555332.0 0
102000.0 559329.0 0
106000.0 559313.0 0
110000.0 559299.0 0
114000.0 559303.0 0
118000.0 559288.0 0
122000.0 559339.0 0
126000.0 559361.0 0
130000.0 559372.0 0
134000.0 559353.0 0
138000.0 559409.0 0
142000.0 559397.0 0
146000.0 559380.0 0
150000.0 559361.0 0
154000.0 559368.0 0
158000.0 559331.0 0
162000.0 559317.0 0
166000.0 559270.0 0
170000.0 559269.0 0
174000.0 559226.0 0
178000.0 559249.0 0
182000.0 559203.0 0
186000.0 559272.0 0
190000.0 559203.0 0
194000.0 559273.0 0
198000.0 559203.0 0
202000.0 559286.0 0
206000.0 559203.0 0
210000.0 559281.0 0
214000.0 559203.0 0
218000.0 559281.0 0
222000.0 559203.0 0
226000.0 559274.0 0
230000.0 559203.0 0
234000.0 559263.0 0
238000.0 559203.0 0
242000.0 559263.0 0
246000.0 559203.0 0
250000.0 559281.0 0
254000.0 559203.0 0
258000.0 559263.0 0
262000.0 559203.0 0
266000.0 559263.0 0
270000.0 559203.0 0
274000.0 559274.0 0
278000.0 559203.0 0
282000.0 559281.0 0
286000.0 559203.0 0
290000.0 559281.0 0
294000.0 559203.0 0
298000.0 559286.0 0
302000.0 559203.0 0
306000.0 559273.0 0
310000.0 559203.0 0
314000.0 559272.0 0
318000.0 559203.0 0
322000.0 559249.0 0
326000.0 559226.0 0
330000.0 559269.0 0
334000.0 559270.0 0
338000.0 559317.0 0
342000.0 559331.0 0
346000.0 559368.0 0
350000.0 559361.0 0
354000.0 559380.0 0
358000.0 559397.0 0
362000.0 559409.0 0
366000.0 559353.0 0
370000.0 559372.0 0
374000.0 559361.0 0
378000.0 559339.0 0
382000.0 559288.0 0
386000.0 559303.0 0
390000.0 559299.0 0
394000.0 559313.0 0
398000.0 559329.0 0
102000.0 563326.0 0
106000.0 563311.0 0
110000.0 563297.0 0
114000.0 563300.0 0
118000.0 563284.0 0
122000.0 563334.0 0
126000.0 563355.0 0
130000.0 563367.0 0
134000.0 563347.0 0
138000.0 563402.0 0
142000.0 563385.0 0
146000.0 563370.0 0
150000.0 563351.0 0
154000.0 563358.0 0
158000.0 563322.0 0
162000.0 563309.0 0
166000.0 563265.0 0
170000.0 563265.0 0
174000.0 563224.0 0
178000.0 563247.0 0
182000.0 563203.0 0
186000.0 563269.0 0
190000.0 563203.0 0
194000.0 563269.0 0
198000.0 563203.0 0
202000.0 563281.0 0
206000.0 563203.0 0
210000.0 563275.0 0
214000.0 563203.0 0
218000.0 563274.0 0
222000.0 563203.0 0
226000.0 563267.0 0
230000.0 563203.0 0
234000.0 563257.0 0
238000.0 563203.0 0
242000.0 563256.0 0
246000.0 563203.0 0
250000.0 563270.0 0
254000.0 563203.0 0
258000.0 563256.0 0
262000.0 563203.0 0
266000.0 563257.0 0
270000.0 563203.0 0
274000.0 563267.0 0
278000.0 563203.0 0
282000.0 563274.0 0
286000.0 563203.0 0
290000.0 563275.0 0
294000.0 563203.0 0
298000.0 563281.0 0
302000.0 563203.0 0
306000.0 563269.0 0
310000.0 563203.0 0
314000.0 563269.0 0
318000.0 563203.0 0
322000.0 563247.0 0
326000.0 563224.0 0
330000.0 563265.0 0
334000.0 563265.0 0
338000.0 563309.0 0
342000.0 563322.0 0
346000.0 563358.0 0
350000.0 563351.0 0
354000.0 563370.0 0
358000.0 563385.0 0
362000.0 563402.0 0
366000.0 563347.0 0
370000.0 563367.0 0
374000.0 563355.0 0
378000.0 563334.0 0
382000.0 563284.0 0
386000.0 563300.0 0
390000.0 563297.0 0
394000.0 563311.0 0
398000.0 563326.0 0
102000.0 567324.0 0
106000.0 567310.0 0
110000.0 567296.0 0
114000.0 567297.0 0
118000.0 567281.0 0
122000.0 567330.0 0
126000.0 567349.0 0
130000.0 567362.0 0
134000.0 567342.0 0
138000.0 567395.0 0
142000.0 567375.0 0
146000.0 567360.0 0
150000.0 567341.0 0
154000.0 567348.0 0
158000.0 567313.0 0
162000.0 567302.0 0
166000.0 567259.0 0
170000.0 567261.0 0
174000.0 567221.0 0
178000.0 567245.0 0
182000.0 567203.0 0
186000.0 567265.0 0
190000.0 567203.0 0
194000.0 567265.0 0
198000.0 567203.0 0
202000.0 567276.0 0
206000.0 567203.0 0
210000.0 567270.0 0
214000.0 567203.0 0
218000.0 567268.0 0
222000.0 567203.0 0
226000.0 567261.0 0
230000.0 567203.0 0
234000.0 567250.0 0
238000.0 567203.0 0
242000.0 567249.0 0
246000.0 567203.0 0
250000.0 567260.0 0
254000.0 567203.0 0
258000.0 567249.0 0
262000.0 567203.0 0
266000.0 567250.0 0
270000.0 567203.0 0
274000.0 567261.0 0
278000.0 567203.0 0
282000.0 567268.0 0
286000.0 567203.0 0
290000.0 567270.0 0
294000.0 567203.0 0
298000.0 567276.0 0
302000.0 567203.0 0
306000.0 567265.0 0
310000.0 567203.0 0
314000.0 567265.0 0
318000.0 567203.0 0
322000.0 567245.0 0
326000.0 567221.0 0
330000.0 567261.0 0
334000.0 567259.0 0
338000.0 567302.0 0
342000.0 567313.0 0
346000.0 567348.0 0
350000.0 567341.0 0
354000.0 567360.0 0
358000.0 567375.0 0
362000.0 567395.0 0
366000.0 567342.0 0
370000.0 567362.0 0
374000.0 567349.0 0
378000.0 567330.0 0
382000.0 567281.0 0
386000.0 567297.0 0
390000.0 567296.0 0
394000.0 567310.0 0
398000.0 567324.0 0
110000.0 571294.0 0
114000.0 571295.0 0
118000.0 571277.0 0
158000.0 571305.0 0
162000.0 571296.0 0
166000.0 571254.0 0
170000.0 571257.0 0
174000.0 571219.0 0
178000.0 571244.0 0
182000.0 571203.0 0
186000.0 571261.0 0
190000.0 571203.0 0
194000.0 571262.0 0
198000.0 571203.0 0
202000.0 571271.0 0
206000.0 571203.0 0
210000.0 571265.0 0
214000.0 571203.0 0
218000.0 571262.0 0
222000.0 571203.0 0
226000.0 571255.0 0
230000.0 571203.0 0
234000.0 571245.0 0
238000.0 571203.0 0
242000.0 571243.0 0
246000.0 571203.0 0
250000.0 571252.0 0
254000.0 571203.0 0
258000.0 571243.0 0
262000.0 571203.0 0
266000.0 571245.0 0
270000.0 571203.0 0
274000.0 571255.0 0
278000.0 571203.0 0
282000.0 571262.0 0
286000.0 571203.0 0
290000.0 571265.0 0
294000.0 571203.0 0
298000.0 571271.0 0
302000.0 571203.0 0
306000.0 571262.0 0
310000.0 571203.0 0
314000.0 571261.0 0
318000.0 571203.0 0
322000.0 571244.0 0
326000.0 571219.0 0
330000.0 571257.0 0
334000.0 571254.0 0
338000.0 571296.0 0
342000.0 571305.0 0
382000.0 571277.0 0
386000.0 571295.0 0
390000.0 571294.0 0
102000.0 571321.0 0
106000.0 571308.0 0
122000.0 571325.0 0
126000.0 571344.0 0
130000.0 571357.0 0
134000.0 571337.0 0
138000.0 571389.0 0
142000.0 571365.0 0
146000.0 571352.0 0
150000.0 571332.0 0
154000.0 571339.0 0
346000.0 571339.0 0
350000.0 571332.0 0
354000.0 571352.0 0
358000.0 571365.0 0
362000.0 571389.0 0
366000.0 571337.0 0
370000.0 571357.0 0
374000.0 571344.0 0
378000.0 571325.0 0
394000.0 571308.0 0
398000.0 571321.0 0
102000.0 575319.0 0
106000.0 575307.0 0
110000.0 575293.0 0
114000.0 575292.0 0
118000.0 575275.0 0
122000.0 575322.0 0
126000.0 575340.0 0
130000.0 575353.0 0
134000.0 575333.0 0
138000.0 575383.0 0
142000.0 575357.0 0
146000.0 575344.0 0
150000.0 575324.0 0
154000.0 575331.0 0
158000.0 575297.0 0
162000.0 575290.0 0
166000.0 575250.0 0
170000.0 575254.0 0
174000.0 575217.0 0
178000.0 575242.0 0
182000.0 575203.0 0
186000.0 575258.0 0
190000.0 575203.0 0
194000.0 575258.0 0
198000.0 575203.0 0
202000.0 575266.0 0
206000.0 575203.0 0
210000.0 575260.0 0
214000.0 575203.0 0
218000.0 575257.0 0
222000.0 575203.0 0
226000.0 575250.0 0
230000.0 575203.0 0
234000.0 575240.0 0
238000.0 575203.0 0
242000.0 575238.0 0
246000.0 575203.0 0
250000.0 575245.0 0
254000.0 575203.0 0
258000.0 575238.0 0
262000.0 575203.0 0
266000.0 575240.0 0
270000.0 575203.0 0
274000.0 575250.0 0
278000.0 575203.0 0
282000.0 575257.0 0
286000.0 575203.0 0
290000.0 575260.0 0
294000.0 575203.0 0
298000.0 575266.0 0
302000.0 575203.0 0
306000.0 575258.0 0
310000.0 575203.0 0
314000.0 575258.0 0
318000.0 575203.0 0
322000.0 575242.0 0
326000.0 575217.0 0
330000.0 575254.0 0
334000.0 575250.0 0
338000.0 575290.0 0
342000.0 575297.0 0
346000.0 575331.0 0
350000.0 575324.0 0
354000.0 575344.0 0
358000.0 575357.0 0
362000.0 575383.0 0
366000.0 575333.0 0
370000.0 575353.0 0
374000.0 575340.0 0
378000.0 575322.0 0
382000.0 575275.0 0
386000.0 575292.0 0
390000.0 575293.0 0
394000.0 575307.0 0
398000.0 575319.0 0
102000.0 579317.0 0
106000.0 579306.0 0
110000.0 579292.0 0
114000.0 579290.0 0
118000.0 579272.0 0
122000.0 579318.0 0
126000.0 579336.0 0
130000.0 579349.0 0
134000.0 579329.0 0
138000.0 579377.0 0
142000.0 579350.0 0
146000.0 579337.0 0
150000.0 579317.0 0
154000.0 579324.0 0
158000.0 579290.0 0
162000.0 579285.0 0
166000.0 579246.0 0
170000.0 579251.0 0
174000.0 579216.0 0
178000.0 579241.0 0
182000.0 579203.0 0
186000.0 579256.0 0
190000.0 579203.0 0
194000.0 579256.0 0
198000.0 579203.0 0
202000.0 579262.0 0
206000.0 579203.0 0
210000.0 579256.0 0
214000.0 579203.0 0
218000.0 579253.0 0
222000.0 579203.0 0
226000.0 579245.0 0
230000.0 579203.0 0
234000.0 579235.0 0
238000.0 579203.0 0
242000.0 579233.0 0
246000.0 579203.0 0
250000.0 579239.0 0
254000.0 579203.0 0
258000.0 579233.0 0
262000.0 579203.0 0
266000.0 579235.0 0
270000.0 579203.0 0
274000.0 579245.0 0
278000.0 579203.0 0
282000.0 579253.0 0
286000.0 579203.0 0
290000.0 579256.0 0
294000.0 579203.0 0
298000.0 579262.0 0
302000.0 579203.0 0
306000.0 579256.0 0
310000.0 579203.0 0
314000.0 579256.0 0
318000.0 579203.0 0
322000.0 579241.0 0
326000.0 579216.0 0
330000.0 579251.0 0
334000.0 579246.0 0
338000.0 579285.0 0
342000.0 579290.0 0
346000.0 579324.0 0
350000.0 579317.0 0
354000.0 579337.0 0
358000.0 579350.0 0
362000.0 579377.0 0
366000.0 579329.0 0
370000.0 579349.0 0
374000.0 579336.0 0
378000.0 579318.0 0
382000.0 579272.0 0
386000.0 579290.0 0
390000.0 579292.0 0
394000.0 579306.0 0
398000.0 579317.0 0
102000.0 583315.0 0
106000.0 583305.0 0
110000.0 583291.0 0
114000.0 583288.0 0
118000.0 583270.0 0
122000.0 583315.0 0
126000.0 583332.0 0
130000.0 583346.0 0
134000.0 583325.0 0
138000.0 583372.0 0
142000.0 583343.0 0
146000.0 583331.0 0
150000.0 583311.0 0
154000.0 583317.0 0
158000.0 583284.0 0
162000.0 583280.0 0
166000.0 583242.0 0
170000.0 583248.0 0
174000.0 583215.0 0
178000.0 583239.0 0
182000.0 583203.0 0
186000.0 583253.0 0
190000.0 583203.0 0
194000.0 583253.0 0
198000.0 583203.0 0
202000.0 583259.0 0
206000.0 583203.0 0
210000.0 583253.0 0
214000.0 583203.0 0
218000.0 583249.0 0
222000.0 583203.0 0
226000.0 583241.0 0
230000.0 583203.0 0
234000.0 583232.0 0
238000.0 583203.0 0
242000.0 583229.0 0
246000.0 583203.0 0
250000.0 583234.0 0
254000.0 583203.0 0
258000.0 583229.0 0
262000.0 583203.0 0
266000.0 583232.0 0
270000.0 583203.0 0
274000.0 583241.0 0
278000.0 583203.0 0
282000.0 583249.0 0
286000.0 583203.0 0
290000.0 583253.0 0
294000.0 583203.0 0
298000.0 583259.0 0
302000.0 583203.0 0
306000.0 583253.0 0
310000.0 583203.0 0
314000.0 583253.0 0
318000.0 583203.0 0
322000.0 583239.0 0
326000.0 583215.0 0
330000.0 583248.0 0
334000.0 583242.0 0
338000.0 583280.0 0
342000.0 583284.0 0
346000.0 583317.0 0
350000.0 583311.0 0
354000.0 583331.0 0
358000.0 583343.0 0
362000.0 583372.0 0
366000.0 583325.0 0
370000.0 583346.0 0
374000.0 583332.0 0
378000.0 583315.0 0
382000.0 583270.0 0
386000.0 583288.0 0
390000.0 583291.0 0
394000.0 583305.0 0
398000.0 583315.0 0
102000.0 587313.0 0
106000.0 587304.0 0
110000.0 587290.0 0
114000.0 587287.0 0
118000.0 587268.0 0
122000.0 587313.0 0
126000.0 587329.0 0
130000.0 587343.0 0
134000.0 587322.0 0
138000.0 587368.0 0
142000.0 587337.0 0
146000.0 587326.0 0
150000.0 587305.0 0
154000.0 587311.0 0
158000.0 587279.0 0
162000.0 587276.0 0
166000.0 587239.0 0
170000.0 587246.0 0
174000.0 587213.0 0
178000.0 587238.0 0
182000.0 587203.0 0
186000.0 587251.0 0
190000.0 587203.0 0
194000.0 587251.0 0
198000.0 587203.0 0
202000.0 587256.0 0
206000.0 587203.0 0
210000.0 587249.0 0
214000.0 587203.0 0
218000.0 587245.0 0
222000.0 587203.0 0
226000.0 587237.0 0
230000.0 587203.0 0
234000.0 587228.0 0
238000.0 587203.0 0
242000.0 587226.0 0
246000.0 587203.0 0
250000.0 587229.0 0
254000.0 587203.0 0
258000.0 587226.0 0
262000.0 587203.0 0
266000.0 587228.0 0
270000.0 587203.0 0
274000.0 587237.0 0
278000.0 587203.0 0
282000.0 587245.0 0
286000.0 587203.0 0
290000.0 587249.0 0
294000.0 587203.0 0
298000.0 587256.0 0
302000.0 587203.0 0
306000.0 587251.0 0
310000.0 587203.0 0
314000.0 587251.0 0
318000.0 587203.0 0
322000.0 587238.0 0
326000.0 587213.0 0
330000.0 587246.0 0
334000.0 587239.0 0
338000.0 587276.0 0
342000.0 587279.0 0
346000.0 587311.0 0
350000.0 587305.0 0
354000.0 587326.0 0
358000.0 587337.0 0
362000.0 587368.0 0
366000.0 587322.0 0
370000.0 587343.0 0
374000.0 587329.0 0
378000.0 587313.0 0
382000.0 587268.0 0
386000.0 587287.0 0
390000.0 587290.0 0
394000.0 587304.0 0
398000.0 587313.0 0
102000.0 591312.0 0
106000.0 591303.0 0
110000.0 591289.0 0
114000.0 591285.0 0
118000.0 591266.0 0
122000.0 591310.0 0
126000.0 591326.0 0
130000.0 591340.0 0
134000.0 591319.0 0
138000.0 591364.0 0
142000.0 591333.0 0
146000.0 591322.0 0
150000.0 591301.0 0
154000.0 591306.0 0
158000.0 591274.0 0
162000.0 591272.0 0
166000.0 591237.0 0
170000.0 591244.0 0
174000.0 591212.0 0
178000.0 591237.0 0
182000.0 591203.0 0
186000.0 591249.0 0
190000.0 591203.0 0
194000.0 591249.0 0
198000.0 591203.0 0
202000.0 591253.0 0
206000.0 591203.0 0
210000.0 591247.0 0
214000.0 591203.0 0
218000.0 591242.0 0
222000.0 591203.0 0
226000.0 591234.0 0
230000.0 591203.0 0
234000.0 591225.0 0
238000.0 591203.0 0
242000.0 591223.0 0
246000.0 591203.0 0
250000.0 591226.0 0
254000.0 591203.0 0
258000.0 591223.0 0
262000.0 591203.0 0
266000.0 591225.0 0
270000.0 591203.0 0
274000.0 591234.0 0
278000.0 591203.0 0
282000.0 591242.0 0
286000.0 591203.0 0
290000.0 591247.0 0
294000.0 591203.0 0
298000.0 591253.0 0
302000.0 591203.0 0
306000.0 591249.0 0
310000.0 591203.0 0
314000.0 591249.0 0
318000.0 591203.0 0
322000.0 591237.0 0
326000.0 591212.0 0
330000.0 591244.0 0
334000.0 591237.0 0
338000.0 591272.0 0
342000.0 591274.0 0
346000.0 591306.0 0
350000.0 591301.0 0
354000.0 591322.0 0
358000.0 591333.0 0
362000.0 591364.0 0
366000.0 591319.0 0
370000.0 591340.0 0
374000.0 591326.0 0
378000.0 591310.0 0
382000.0 591266.0 0
386000.0 591285.0 0
390000.0 591289.0 0
394000.0 591303.0 0
398000.0 591312.0 0
102000.0 595311.0 0
106000.0 595302.0 0
110000.0 595288.0 0
114000.0 595284.0 0
118000.0 595264.0 0
122000.0 595308.0 0
126000.0 595324.0 0
130000.0 595338.0 0
134000.0 595317.0 0
138000.0 595360.0 0
142000.0 595329.0 0
146000.0 595318.0 0
150000.0 595296.0 0
154000.0 595302.0 0
158000.0 595270.0 0
162000.0 595269.0 0
166000.0 595234.0 0
170000.0 595242.0 0
174000.0 595212.0 0
178000.0 595236.0 0
182000.0 595203.0 0
186000.0 595247.0 0
190000.0 595203.0 0
194000.0 595247.0 0
198000.0 595203.0 0
202000.0 595250.0 0
206000.0 595203.0 0
210000.0 595244.0 0
214000.0 595203.0 0
218000.0 595240.0 0
222000.0 595203.0 0
226000.0 595232.0 0
230000.0 595203.0 0
234000.0 595223.0 0
238000.0 595203.0 0
242000.0 595221.0 0
246000.0 595203.0 0
250000.0 595223.0 0
254000.0 595203.0 0
258000.0 595221.0 0
262000.0 595203.0 0
266000.0 595223.0 0
270000.0 595203.0 0
274000.0 595232.0 0
278000.0 595203.0 0
282000.0 595240.0 0
286000.0 595203.0 0
290000.0 595244.0 0
294000.0 595203.0 0
298000.0 595250.0 0
302000.0 595203.0 0
306000.0 595247.0 0
310000.0 595203.0 0
314000.0 595247.0 0
318000.0 595203.0 0
322000.0 595236.0 0
326000.0 595212.0 0
330000.0 595242.0 0
334000.0 595234.0 0
338000.0 595269.0 0
342000.0 595270.0 0
346000.0 595302.0 0
350000.0 595296.0 0
354000.0 595318.0 0
358000.0 595329.0 0
362000.0 595360.0 0
366000.0 595317.0 0
370000.0 595338.0 0
374000.0 595324.0 0
378000.0 595308.0 0
382000.0 595264.0 0
386000.0 595284.0 0
390000.0 595288.0 0
394000.0 595302.0 0
398000.0 595311.0 0
102000.0 599310.0 0
106000.0 599301.0 0
110000.0 599287.0 0
114000.0 599283.0 0
118000.0 599263.0 0
122000.0 599307.0 0
126000.0 599322.0 0
130000.0 599336.0 0
134000.0 599315.0 0
138000.0 599358.0 0
142000.0 599325.0 0
146000.0 599315.0 0
150000.0 599293.0 0
154000.0 599298.0 0
158000.0 599267.0 0
162000.0 599266.0 0
166000.0 599232.0 0
170000.0 599241.0 0
174000.0 599211.0 0
178000.0 599236.0 0
182000.0 599203.0 0
186000.0 599246.0 0
190000.0 599203.0 0
194000.0 599245.0 0
198000.0 599203.0 0
202000.0 599248.0 0
206000.0 599203.0 0
210000.0 599242.0 0
214000.0 599203.0 0
218000.0 599237.0 0
222000.0 599203.0 0
226000.0 599229.0 0
230000.0 599203.0 0
234000.0 599221.0 0
238000.0 599203.0 0
242000.0 599219.0 0
246000.0 599203.0 0
250000.0 599221.0 0
254000.0 599203.0 0
258000.0 599219.0 0
262000.0 599203.0 0
266000.0 599221.0 0
270000.0 599203.0 0
274000.0 599229.0 0
278000.0 599203.0 0
282000.0 599237.0 0
286000.0 599203.0 0
290000.0 599242.0 0
294000.0 599203.0 0
298000.0 599248.0 0
302000.0 599203.0 0
306000.0 599245.0 0
310000.0 599203.0 0
314000.0 599246.0 0
318000.0 599203.0 0
322000.0 599236.0 0
326000.0 599211.0 0
330000.0 599241.0 0
334000.0 599232.0 0
338000.0 599266.0 0
342000.0 599267.0 0
346000.0 599298.0 0
350000.0 599293.0 0
354000.0 599315.0 0
358000.0 599325.0 0
362000.0 599358.0 0
366000.0 599315.0 0
370000.0 599336.0 0
374000.0 599322.0 0
378000.0 599307.0 0
382000.0 599263.0 0
386000.0 599283.0 0
390000.0 599287.0 0
394000.0 599301.0 0
398000.0 599310.0 0
102000.0 603309.0 0
106000.0 603301.0 0
110000.0 603287.0 0
114000.0 603282.0 0
118000.0 603262.0 0
122000.0 603305.0 0
126000.0 603320.0 0
130000.0 603335.0 0
134000.0 603314.0 0
138000.0 603355.0 0
142000.0 603323.0 0
146000.0 603312.0 0
150000.0 603290.0 0
154000.0 603295.0 0
158000.0 603264.0 0
162000.0 603264.0 0
166000.0 603231.0 0
170000.0 603240.0 0
174000.0 603210.0 0
178000.0 603235.0 0
182000.0 603203.0 0
186000.0 603245.0 0
190000.0 603203.0 0
194000.0 603244.0 0
198000.0 603203.0 0
202000.0 603247.0 0
206000.0 603203.0 0
210000.0 603241.0 0
214000.0 603203.0 0
218000.0 603236.0 0
222000.0 603203.0 0
226000.0 603228.0 0
230000.0 603203.0 0
234000.0 603220.0 0
238000.0 603203.0 0
242000.0 603218.0 0
246000.0 603203.0 0
250000.0 603219.0 0
254000.0 603203.0 0
258000.0 603218.0 0
262000.0 603203.0 0
266000.0 603220.0 0
270000.0 603203.0 0
274000.0 603228.0 0
278000.0 603203.0 0
282000.0 603236.0 0
286000.0 603203.0 0
290000.0 603241.0 0
294000.0 603203.0 0
298000.0 603247.0 0
302000.0 603203.0 0
306000.0 603244.0 0
310000.0 603203.0 0
314000.0 603245.0 0
318000.0 603203.0 0
322000.0 603235.0 0
326000.0 603210.0 0
330000.0 603240.0 0
334000.0 603231.0 0
338000.0 603264.0 0
342000.0 603264.0 0
346000.0 603295.0 0
350000.0 603290.0 0
354000.0 603312.0 0
358000.0 603323.0 0
362000.0 603355.0 0
366000.0 603314.0 0
370000.0 603335.0 0
374000.0 603320.0 0
378000.0 603305.0 0
382000.0 603262.0 0
386000.0 603282.0 0
390000.0 603287.0 0
394000.0 603301.0 0
398000.0 603309.0 0
102000.0 607308.0 0
106000.0 607300.0 0
110000.0 607286.0 0
114000.0 607281.0 0
118000.0 607261.0 0
122000.0 607304.0 0
126000.0 607319.0 0
130000.0 607334.0 0
134000.0 607312.0 0
138000.0 607354.0 0
142000.0 607321.0 0
146000.0 607310.0 0
150000.0 607288.0 0
154000.0 607293.0 0
158000.0 607262.0 0
162000.0 607263.0 0
166000.0 607230.0 0
170000.0 607239.0 0
174000.0 607210.0 0
178000.0 607234.0 0
182000.0 607203.0 0
186000.0 607244.0 0
190000.0 607203.0 0
194000.0 607243.0 0
198000.0 607203.0 0
202000.0 607246.0 0
206000.0 607203.0 0
210000.0 607239.0 0
214000.0 607203.0 0
218000.0 607234.0 0
222000.0 607203.0 0
226000.0 607226.0 0
230000.0 607203.0 0
234000.0 607218.0 0
238000.0 607203.0 0
242000.0 607217.0 0
246000.0 607203.0 0
250000.0 607218.0 0
254000.0 607203.0 0
258000.0 607217.0 0
262000.0 607203.0 0
266000.0 607218.0 0
270000.0 607203.0 0
274000.0 607226.0 0
278000.0 607203.0 0
282000.0 607234.0 0
286000.0 607203.0 0
290000.0 607239.0 0
294000.0 607203.0 0
298000.0 607246.0 0
302000.0 607203.0 0
306000.0 607243.0 0
310000.0 607203.0 0
314000.0 607244.0 0
318000.0 607203.0 0
322000.0 607234.0 0
326000.0 607210.0 0
330000.0 607239.0 0
334000.0 607230.0 0
338000.0 607263.0 0
342000.0 607262.0 0
346000.0 607293.0 0
350000.0 607288.0 0
354000.0 607310.0 0
358000.0 607321.0 0
362000.0 607354.0 0
366000.0 607312.0 0
370000.0 607334.0 0
374000.0 607319.0 0
378000.0 607304.0 0
382000.0 607261.0 0
386000.0 607281.0 0
390000.0 607286.0 0
394000.0 607300.0 0
398000.0 607308.0 0
102000.0 611308.0 0
106000.0 611300.0 0
110000.0 611286.0 0
114000.0 611281.0 0
118000.0 611261.0 0
122000.0 611304.0 0
126000.0 611318.0 0
130000.0 611333.0 0
134000.0 611312.0 0
138000.0 611352.0 0
142000.0 611319.0 0
146000.0 611309.0 0
150000.0 611287.0 0
154000.0 611291.0 0
158000.0 611261.0 0
162000.0 611262.0 0
166000.0 611229.0 0
170000.0 611238.0 0
174000.0 611210.0 0
178000.0 611234.0 0
182000.0 611203.0 0
186000.0 611243.0 0
190000.0 611203.0 0
194000.0 611243.0 0
198000.0 611203.0 0
202000.0 611245.0 0
206000.0 611203.0 0
210000.0 611239.0 0
214000.0 611203.0 0
218000.0 611233.0 0
222000.0 611203.0 0
226000.0 611226.0 0
230000.0 611203.0 0
234000.0 611218.0 0
238000.0 611203.0 0
242000.0 611216.0 0
246000.0 611203.0 0
250000.0 611217.0 0
254000.0 611203.0 0
258000.0 611216.0 0
262000.0 611203.0 0
266000.0 611218.0 0
270000.0 611203.0 0
274000.0 611226.0 0
278000.0 611203.0 0
282000.0 611233.0 0
286000.0 611203.0 0
290000.0 611239.0 0
294000.0 611203.0 0
298000.0 611245.0 0
302000.0 611203.0 0
306000.0 611243.0 0
310000.0 611203.0 0
314000.0 611243.0 0
318000.0 611203.0 0
322000.0 611234.0 0
326000.0 611210.0 0
330000.0 611238.0 0
334000.0 611229.0 0
338000.0 611262.0 0
342000.0 611261.0 0
346000.0 611291.0 0
350000.0 611287.0 0
354000.0 611309.0 0
358000.0 611319.0 0
362000.0 611352.0 0
366000.0 611312.0 0
370000.0 611333.0 0
374000.0 611318.0 0
378000.0 611304.0 0
382000.0 611261.0 0
386000.0 611281.0 0
390000.0 611286.0 0
394000.0 611300.0 0
398000.0 611308.0 0
102000.0 615308.0 0
106000.0 615300.0 0
110000.0 615286.0 0
114000.0 615280.0 0
118000.0 615260.0 0
122000.0 615303.0 0
126000.0 615318.0 0
130000.0 615333.0 0
134000.0 615311.0 0
138000.0 615352.0 0
142000.0 615319.0 0
146000.0 615308.0 0
150000.0 615286.0 0
154000.0 615291.0 0
158000.0 615260.0 0
162000.0 615261.0 0
166000.0 615229.0 0
170000.0 615238.0 0
174000.0 615209.0 0
178000.0 615234.0 0
182000.0 615203.0 0
186000.0 615243.0 0
190000.0 615203.0 0
194000.0 615242.0 0
198000.0 615203.0 0
202000.0 615244.0 0
206000.0 615203.0 0
210000.0 615238.0 0
214000.0 615203.0 0
218000.0 615233.0 0
222000.0 615203.0 0
226000.0 615225.0 0
230000.0 615203.0 0
234000.0 615217.0 0
238000.0 615203.0 0
242000.0 615215.0 0
246000.0 615203.0 0
250000.0 615216.0 0
254000.0 615203.0 0
258000.0 615215.0 0
262000.0 615203.0 0
266000.0 615217.0 0
270000.0 615203.0 0
274000.0 615225.0 0
278000.0 615203.0 0
282000.0 615233.0 0
286000.0 615203.0 0
290000.0 615238.0 0
294000.0 615203.0 0
298000.0 615244.0 0
302000.0 615203.0 0
306000.0 615242.0 0
310000.0 615203.0 0
314000.0 615243.0 0
318000.0 615203.0 0
322000.0 615234.0 0
326000.0 615209.0 0
330000.0 615238.0 0
334000.0 615229.0 0
338000.0 615261.0 0
342000.0 615260.0 0
346000.0 615291.0 0
350000.0 615286.0 0
354000.0 615308.0 0
358000.0 615319.0 0
362000.0 615352.0 0
366000.0 615311.0 0
370000.0 615333.0 0
374000.0 615318.0 0
378000.0 615303.0 0
382000.0 615260.0 0
386000.0 615280.0 0
390000.0 615286.0 0
394000.0 615300.0 0
398000.0 615308.0 0
POINT_DATA 4650
SCALARS Radius float 1
LOOKUP_TABLE default
4000.0 4000.0 4000.0 4000.0 4000.0 4000.0 4000.0 4000.0 4000.0 4000.0 4000.0 4000.0 4000.0 4000.0 4000.0 4000.0 4000.0 4000.0 4000.0 4000.0 4000.0 4000.0 4000.0 4000.0 4000.0 4000.0 4000.0 4000.0 4000.0 4000.0 4000.0 4000.0 4000.0 4000.0 4000.0 4000.0 4000.0 4000.0 4000.0 4000.0 4000.0 4000.0 4000.0 4000.0 4000.0 4000.0 4000.0 4000.0 4000.0 4000.0 4000.0 4000.0 4000.0 4000.0 4000.0 4000.0 4000.0 4000.0 4000.0 4000.0 4000.0 4000.0 4000.0 4000.0 4000.0 4000.0 4000.0 4000.0 4000.0 4000.0 4000.0 4000.0 4000.0 4000.0 4000.0 4000.0 4000.0 4000.0 4000.0 4000.0 4000.0 4000.0 4000.0 4000.0 4000.0 4000.0 4000.0 4000.0 4000.0 4000.0 4000.0 4000.0 4000.0 4000.0 4000.0 4000.0 4000.0 4000.0 4000.0 4000.0 4000.0 4000.0 4000.0 4000.0 4000.0 4000.0 4000.0 4000.0 4000.0 4000.0 4000.0 4000.0 4000.0 4000.0 4000.0 4000.0 4000.0 4000.0 4000.0 4000.0 4000.0 4000.0 4000.0 4000.0 4000.0 4000.0 4000.0 4000.0 4000.0 4000.0 4000.0 4000.0 4000.0 4000.0 4000.0 4000.0 4000.0 4000.0 4000.0 4000.0 4000.0 4000.0 4000.0 4000.0 4000.0 4000.0 4000.0 4000.0 4000.0 4000.0 4000.0 4000.0 4000.0 4000.0 4000.0 4000.0 4000.0 4000.0 4000.0 4000.0 4000.0 4000.0 4000.0 4000.0 4000.0 4000.0 4000.0 4000.0 4000.0 4000.0 4000.0 4000.0 4000.0 4000.0 4000.0 4000.0 4000.0 4000.0 4000.0 4000.0 4000.0 4000.0 4000.0 4000.0 4000.0 4000.0 4000.0 4000.0 4000.0 4000.0 4000.0 4000.0 4000.0 4000.0 4000.0 4000.0 4000.0 4000.0 4000.0 4000.0 4000.0 4000.0 4000.0 4000.0 4000.0 4000.0 4000.0 4000.0 4000.0 4000.0 4000.0 4000.0 4000.0 4000.0 4000.0 4000.0 4000.0 4000.0 4000.0 4000.0 4000.0 4000.0 4000.0 4000.0 4000.0 4000.0 4000.0 4000.0 4000.0 4000.0 4000.0 4000.0 4000.0 4000.0 4000.0 4000.0 4000.0 4000.0 4000.0 4000.0 4000.0 4000.0 4000.0 4000.0 4000.0 4000.0 4000.0 4000.0 4000.0 4000.0 4000.0 4000.0 4000.0 4000.0 4000.0 4000.0 4000.0 4000.0 4000.0 4000.0 4000.0 4000.0 4000.0 4000.0 4000.0 4000.0 4000.0 4000.0 4000.0 4000.0 4000.0 4000.0 4000.0 4000.0 4000.0 4000.0 4000.0 4000.0 4000.0 4000.0 4000.0 4000.0 4000.0 4000.0 4000.0 4000.0 4000.0 4000.0 4000.0 4000.0 4000.0 4000.0 4000.0 4000.0 4000.0 4000.0 4000.0 4000.0 4000.0 4000.0 4000.0 4000.0 4000.0 4000.0 4000.0 4000.0 4000.0 4000.0 4000.0 4000.0 4000.0 4000.0 4000.0 4000.0 4000.0 4000.0 4000.0 4000.0 4000.0 4000.0 4000.0 4000.0 4000.0 4000.0 4000.0 4000.0 4000.0 4000.0 4000.0 4000.0 4000.0 4000.0 4000.0 4000.0 4000.0 4000.0 4000.0 4000.0 4000.0 4000.0 4000.0 4000.0 4000.0 4000.0 4000.0 4000.0 4000.0 4000.0 4000.0 4000.0 4000.0 4000.0 4000.0 4000.0 4000.0 4000.0 4000.0 4000.0 4000.0 4000.0 4000.0 4000.0 4000.0 4000.0 4000.0 4000.0 4000.0 4000.0 4000.0 4000.0 4000.0 4000.0 4000.0 4000.0 4000.0 4000.0 4000.0 4000.0 4000.0 4000.0 4000.0 4000.0 4000.0 4000.0 4000.0 4000.0 4000.0 4000.0 4000.0 4000.0 4000.0 4000.0 4000.0 4000.0 4000.0 4000.0 4000.0 4000.0 4000.0 4000.0 4000.0 4000.0 4000.0 4000.0 4000.0 4000.0 4000.0 4000.0 4000.0 4000.0 4000.0 4000.0 4000.0 4000.0 4000.0 4000.0 4000.0 4000.0 4000.0 4000.0 4000.0 4000.0 4000.0 4000.0 4000.0 4000.0 4000.0 4000.0 4000.0 4000.0 4000.0 4000.0 4000.0 4000.0 4000.0 4000.0 4000.0 4000.0 4000.0 4000.0 4000.0 4000.0 4000.0 4000.0 4000.0 4000.0 4000.0 4000.0 4000.0 4000.0 4000.0 4000.0 4000.0 4000.0 4000.0 4000.0 4000.0 4000.0 4000.0 4000.0 4000.0 4000.0 4000.0 4000.0 4000.0 4000.0 4000.0 4000.0 4000.0 4000.0 4000.0 4000.0 4000.0 4000.0 4000.0 4000.0 4000.0 4000.0 4000.0 4000.0 4000.0 4000.0 4000.0 4000.0 4000.0 4000.0 4000.0 4000.0 4000.0 4000.0 4000.0 4000.0 4000.0 4000.0 4000.0 4000.0 4000.0 4000.0 4000.0 4000.0 4000.0 4000.0 4000.0 4000.0 4000.0 4000.0 4000.0 4000.0 4000.0 4000.0 4000.0 4000.0 4000.0 4000.0 4000.0 4000.0 4000.0 4000.0 4000.0 4000.0 4000.0 4000.0 4000.0 4000.0 4000.0 4000.0 4000.0 4000.0 4000.0 4000.0 4000.0 4000.0 4000.0 4000.0 4000.0 4000.0 4000.0 4000.0 4000.0 4000.0 4000.0 4000.0 4000.0 4000.0 4000.0 4000.0 4000.0 4000.0 4000.0 4000.0 4000.0 4000.0 4000.0 4000.0 4000.0 4000.0 4000.0 4000.0 4000.0 4000.0 4000.0 4000.0 4000.0 4000.0 4000.0 4000.0 4000.0 4000.0 4000.0 4000.0 4000.0 4000.0 4000.0 4000.0 4000.0 4000.0 4000.0 4000.0 4000.0 4000.0 4000.0 4000.0 4000.0 4000.0 4000.0 4000.0 4000.0 4000.0 4000.0 4000.0 4000.0 4000.0 4000.0 4000.0 4000.0 4000.0 4000.0 4000.0 4000.0 4000.0 4000.0 4000.0 4000.0 4000.0 4000.0 4000.0 4000.0 4000.0 4000.0 4000.0 4000.0 4000.0 4000.0 4000.0 4000.0 4000.0 4000.0 4000.0 4000.0 4000.0 4000.0 4000.0 4000.0 4000.0 4000.0 4000.0 4000.0 4000.0 4000.0 4000.0 4000.0 4000.0 4000.0 4000.0 4000.0 4000.0 4000.0 4000.0 4000.0 4000.0 4000.0 4000.0 4000.0 4000.0 4000.0 4000.0 4000.0 4000.0 4000.0 4000.0 4000.0 4000.0 4000.0 4000.0 4000.0 4000.0 4000.0 4000.0 4000.0 4000.0 4000.0 4000.0 4000.0 4000.0 4000.0 4000.0 4000.0 4000.0 4000.0 4000.0 4000.0 4000.0 4000.0 4000.0 4000.0 4000.0 4000.0 4000.0 4000.0 4000.0 4000.0 4000.0 4000.0 4000.0 4000.0 4000.0 4000.0 4000.0 4000.0 4000.0 4000.0 4000.0 4000.0 4000.0 4000.0 4000.0 4000.0 4000.0 4000.0 4000.0 4000.0 4000.0 4000.0 4000.0 4000.0 4000.0 4000.0 4000.0 4000.0 4000.0 4000.0 4000.0 4000.0 4000.0 4000.0 4000.0 4000.0 4000.0 4000.0 4000.0 4000.0 4000.0 4000.0 4000.0 4000.0 4000.0 4000.0 4000.0 4000.0 4000.0 4000.0 4000.0 4000.0 4000.0 4000.0 4000.0 4000.0 4000.0 4000.0 4000.0 4000.0 4000.0 4000.0 4000.0 4000.0 4000.0 4000.0 4000.0 4000.0 4000.0 4000.0 4000.0 4000.0 4000.0 4000.0 4000.0 4000.0 4000.0 4000.0 4000.0 4000.0 4000.0 4000.0 4000.0 4000.0 4000.0 4000.0 4000.0 4000.0 4000.0 4000.0 4000.0 4000.0 4000.0 4000.0 4000.0 4000.0 4000.0 4000.0 4000.0 4000.0 4000.0 4000.0 4000.0 4000.0 4000.0 4000.0 4000.0 4000.0 4000.0 4000.0 4000.0 4000.0 4000.0 4000.0 4000.0 4000.0 4000.0 4000.0 4000.0 4000.0 4000.0 4000.0 4000.0 4000.0 4000.0 4000.0 4000.0 4000.0 4000.0 4000.0 4000.0 4000.0 4000.0 4000.0 4000.0 4000.0 4000.0 4000.0 4000.0 4000.0 4000.0 4000.0 4000.0 4000.0 4000.0 4000.0 4000.0 4000.0 4000.0 4000.0 4000.0 4000.0 4000.0 4000.0 4000.0 4000.0 4000.0 4000.0 4000.0 4000.0 4000.0 4000.0 4000.0 4000.0 4000.0 4000.0 4000.0 4000.0 4000.0 4000.0 4000.0 4000.0 4000.0 4000.0 4000.0 4000.0 4000.0 4000.0 4000.0 4000.0 4000.0 4000.0 4000.0 4000.0 4000.0 4000.0 4000.0 4000.0 4000.0 4000.0 4000.0 4000.0 4000.0 4000.0 4000.0 4000.0 4000.0 4000.0 4000.0 4000.0 4000.0 4000.0 4000.0 4000.0 4000.0 4000.0 4000.0 4000.0 4000.0 4000.0 4000.0 4000.0 4000.0 4000.0 4000.0 4000.0 4000.0 4000.0 4000.0 4000.0 4000.0 4000.0 4000.0 4000.0 4000.0 4000.0 4000.0 4000.0 4000.0 4000.0 4000.0 4000.0 4000.0 4000.0 4000.0 4000.0 4000.0 4000.0 4000.0 4000.0 4000.0 4000.0 4000.0 4000.0 4000.0 4000.0 4000.0 4000.0 4000.0 4000.0 4000.0 4000.0 4000.0 4000.0 4000.0 4000.0 4000.0 4000.0 4000.0 4000.0 4000.0 4000.0 4000.0 4000.0 4000.0 4000.0 4000.0 4000.0 4000.0 4000.0 4000.0 4000.0 4000.0 4000.0 4000.0 4000.0 4000.0 4000.0 4000.0 4000.0 4000.0 4000.0 4000.0 4000.0 4000.0 4000.0 4000.0 4000.0 4000.0 4000.0 4000.0 4000.0 4000.0 4000.0 4000.0 4000.0 4000.0 4000.0 4000.0 4000.0 4000.0 4000.0 4000.0 4000.0 4000.0 4000.0 4000.0 4000.0 4000.0 4000.0 4000.0 4000.0 4000.0 4000.0 4000.0 4000.0 4000.0 4000.0 4000.0 4000.0 4000.0 4000.0 4000.0 4000.0 4000.0 4000.0 4000.0 4000.0 4000.0 4000.0 4000.0 4000.0 4000.0 4000.0 4000.0 4000.0 4000.0 4000.0 4000.0 4000.0 4000.0 4000.0 4000.0 4000.0 4000.0 4000.0 4000.0 4000.0 4000.0 4000.0 4000.0 4000.0 4000.0 4000.0 4000.0 4000.0 4000.0 4000.0 4000.0 4000.0 4000.0 4000.0 4000.0 4000.0 4000.0 4000.0 4000.0 4000.0 4000.0 4000.0 4000.0 4000.0 4000.0 4000.0 4000.0 4000.0 4000.0 4000.0 4000.0 4000.0 4000.0 4000.0 4000.0 4000.0 4000.0 4000.0 4000.0 4000.0 4000.0 4000.0 4000.0 4000.0 4000.0 4000.0 4000.0 4000.0 4000.0 4000.0 4000.0 4000.0 4000.0 4000.0 4000.0 4000.0 4000.0 4000.0 4000.0 4000.0 4000.0 4000.0 4000.0 4000.0 4000.0 4000.0 4000.0 4000.0 4000.0 4000.0 4000.0 4000.0 4000.0 4000.0 4000.0 4000.0 4000.0 4000.0 4000.0 4000.0 4000.0 4000.0 4000.0 4000.0 4000.0 4000.0 4000.0 4000.0 4000.0 4000.0 4000.0 4000.0 4000.0 4000.0 4000.0 4000.0 4000.0 4000.0 4000.0 4000.0 4000.0 4000.0 4000.0 4000.0 4000.0 4000.0 4000.0 4000.0 4000.0 4000.0 4000.0 4000.0 4000.0 4000.0 4000.0 4000.0 4000.0 4000.0 4000.0 4000.0 4000.0 4000.0 4000.0 4000.0 4000.0 4000.0 4000.0 4000.0 4000.0 4000.0 4000.0 4000.0 4000.0 4000.0 4000.0 4000.0 4000.0 4000.0 4000.0 4000.0 4000.0 4000.0 4000.0 4000.0 4000.0 4000.0 4000.0 4000.0 4000.0 4000.0 4000.0 4000.0 4000.0 4000.0 4000.0 4000.0 4000.0 4000.0 4000.0 4000.0 4000.0 4000.0 4000.0 4000.0 4000.0 4000.0 4000.0 4000.0 4000.0 4000.0 4000.0 4000.0 4000.0 4000.0 4000.0 4000.0 4000.0 4000.0 4000.0 4000.0 4000.0 4000.0 4000.0 4000.0 4000.0 4000.0 4000.0 4000.0 4000.0 4000.0 4000.0 4000.0 4000.0 4000.0 4000.0 4000.0 4000.0 4000.0 4000.0 4000.0 4000.0 4000.0 4000.0 4000.0 4000.0 4000.0 4000.0 4000.0 4000.0 4000.0 4000.0 4000.0 4000.0 4000.0 4000.0 4000.0 4000.0 4000.0 4000.0 4000.0 4000.0 4000.0 4000.0 4000.0 4000.0 4000.0 4000.0 4000.0 4000.0 4000.0 4000.0 4000.0 4000.0 4000.0 4000.0 4000.0 4000.0 4000.0 4000.0 4000.0 4000.0 4000.0 4000.0 4000.0 4000.0 4000.0 4000.0 4000.0 4000.0 4000.0 4000.0 4000.0 4000.0 4000.0 4000.0 4000.0 4000.0 4000.0 4000.0 4000.0 4000.0 4000.0 4000.0 4000.0 4000.0 4000.0 4000.0 4000.0 4000.0 4000.0 4000.0 4000.0 4000.0 4000.0 4000.0 4000.0 4000.0 4000.0 4000.0 4000.0 4000.0 4000.0 4000.0 4000.0 4000.0 4000.0 4000.0 4000.0 4000.0 4000.0 4000.0 4000.0 4000.0 4000.0 4000.0 4000.0 4000.0 4000.0 4000.0 4000.0 4000.0 4000.0 4000.0 4000.0 4000.0 4000.0 4000.0 4000.0 4000.0 4000.0 4000.0 4000.0 4000.0 4000.0 4000.0 4000.0 4000.0 4000.0 4000.0 4000.0 4000.0 4000.0 4000.0 4000.0 4000.0 4000.0 4000.0 4000.0 4000.0 4000.0 4000.0 4000.0 4000.0 4000.0 4000.0 4000.0 4000.0 4000.0 4000.0 4000.0 4000.0 4000.0 4000.0 4000.0 4000.0 4000.0 4000.0 4000.0 4000.0 4000.0 4000.0 4000.0 4000.0 4000.0 4000.0 4000.0 4000.0 4000.0 4000.0 4000.0 4000.0 4000.0 4000.0 4000.0 4000.0 4000.0 4000.0 4000.0 4000.0 4000.0 4000.0 4000.0 4000.0 4000.0 4000.0 4000.0 4000.0 4000.0 4000.0 4000.0 4000.0 4000.0 4000.0 4000.0 4000.0 4000.0 4000.0 4000.0 4000.0 4000.0 4000.0 4000.0 4000.0 4000.0 4000.0 4000.0 4000.0 4000.0 4000.0 4000.0 4000.0 4000.0 4000.0 4000.0 4000.0 4000.0 4000.0 4000.0 4000.0 4000.0 4000.0 4000.0 4000.0 4000.0 4000.0 4000.0 4000.0 4000.0 4000.0 4000.0 4000.0 4000.0 4000.0 4000.0 4000.0 4000.0 4000.0 4000.0 4000.0 4000.0 4000.0 4000.0 4000.0 4000.0 4000.0 4000.0 4000.0 4000.0 4000.0 4000.0 4000.0 4000.0 4000.0 4000.0 4000.0 4000.0 4000.0 4000.0 4000.0 4000.0 4000.0 4000.0 4000.0 4000.0 4000.0 4000.0 4000.0 4000.0 4000.0 4000.0 4000.0 4000.0 4000.0 4000.0 4000.0 4000.0 4000.0 4000.0 4000.0 4000.0 4000.0 4000.0 4000.0 4000.0 4000.0 4000.0 4000.0 4000.0 4000.0 4000.0 4000.0 4000.0 4000.0 4000.0 4000.0 4000.0 4000.0 4000.0 4000.0 4000.0 4000.0 4000.0 4000.0 4000.0 4000.0 4000.0 4000.0 4000.0 4000.0 4000.0 4000.0 4000.0 4000.0 4000.0 4000.0 4000.0 4000.0 4000.0 4000.0 4000.0 4000.0 4000.0 4000.0 4000.0 4000.0 4000.0 4000.0 4000.0 4000.0 4000.0 4000.0 4000.0 4000.0 4000.0 4000.0 4000.0 4000.0 4000.0 4000.0 4000.0 4000.0 4000.0 4000.0 4000.0 4000.0 4000.0 4000.0 4000.0 4000.0 4000.0 4000.0 4000.0 4000.0 4000.0 4000.0 4000.0 4000.0 4000.0 4000.0 4000.0 4000.0 4000.0 4000.0 4000.0 4000.0 4000.0 4000.0 4000.0 4000.0 4000.0 4000.0 4000.0 4000.0 4000.0 4000.0 4000.0 4000.0 4000.0 4000.0 4000.0 4000.0 4000.0 4000.0 4000.0 4000.0 4000.0 4000.0 4000.0 4000.0 4000.0 4000.0 4000.0 4000.0 4000.0 4000.0 4000.0 4000.0 4000.0 4000.0 4000.0 4000.0 4000.0 4000.0 4000.0 4000.0 4000.0 4000.0 4000.0 4000.0 4000.0 4000.0 4000.0 4000.0 4000.0 4000.0 4000.0 4000.0 4000.0 4000.0 4000.0 4000.0 4000.0 4000.0 4000.0 4000.0 4000.0 4000.0 4000.0 4000.0 4000.0 4000.0 4000.0 4000.0 4000.0 4000.0 4000.0 4000.0 4000.0 4000.0 4000.0 4000.0 4000.0 4000.0 4000.0 4000.0 4000.0 4000.0 4000.0 4000.0 4000.0 4000.0 4000.0 4000.0 4000.0 4000.0 4000.0 4000.0 4000.0 4000.0 4000.0 4000.0 4000.0 4000.0 4000.0 4000.0 4000.0 4000.0 4000.0 4000.0 4000.0 4000.0 4000.0 4000.0 4000.0 4000.0 4000.0 4000.0 4000.0 4000.0 4000.0 4000.0 4000.0 4000.0 4000.0 4000.0 4000.0 4000.0 4000.0 4000.0 4000.0 4000.0 4000.0 4000.0 4000.0 4000.0 4000.0 4000.0 4000.0 4000.0 4000.0 4000.0 4000.0 4000.0 4000.0 4000.0 4000.0 4000.0 4000.0 4000.0 4000.0 4000.0 4000.0 4000.0 4000.0 4000.0 4000.0 4000.0 4000.0 4000.0 4000.0 4000.0 4000.0 4000.0 4000.0 4000.0 4000.0 4000.0 4000.0 4000.0 4000.0 4000.0 4000.0 4000.0 4000.0 4000.0 4000.0 4000.0 4000.0 4000.0 4000.0 4000.0 4000.0 4000.0 4000.0 4000.0 4000.0 4000.0 4000.0 4000.0 4000.0 4000.0 4000.0 4000.0 4000.0 4000.0 4000.0 4000.0 4000.0 4000.0 4000.0 4000.0 4000.0 4000.0 4000.0 4000.0 4000.0 4000.0 4000.0 4000.0 4000.0 4000.0 4000.0 4000.0 4000.0 4000.0 4000.0 4000.0 4000.0 4000.0 4000.0 4000.0 4000.0 4000.0 4000.0 4000.0 4000.0 4000.0 4000.0 4000.0 4000.0 4000.0 4000.0 4000.0 4000.0 4000.0 4000.0 4000.0 4000.0 4000.0 4000.0 4000.0 4000.0 4000.0 4000.0 4000.0 4000.0 4000.0 4000.0 4000.0 4000.0 4000.0 4000.0 4000.0 4000.0 4000.0 4000.0 4000.0 4000.0 4000.0 4000.0 4000.0 4000.0 4000.0 4000.0 4000.0 4000.0 4000.0 4000.0 4000.0 4000.0 4000.0 4000.0 4000.0 4000.0 4000.0 4000.0 4000.0 4000.0 4000.0 4000.0 4000.0 4000.0 4000.0 4000.0 4000.0 4000.0 4000.0 4000.0 4000.0 4000.0 4000.0 4000.0 4000.0 4000.0 4000.0 4000.0 4000.0 4000.0 4000.0 4000.0 4000.0 4000.0 4000.0 4000.0 4000.0 4000.0 4000.0 4000.0 4000.0 4000.0 4000.0 4000.0 4000.0 4000.0 4000.0 4000.0 4000.0 4000.0 4000.0 4000.0 4000.0 4000.0 4000.0 4000.0 4000.0 4000.0 4000.0 4000.0 4000.0 4000.0 4000.0 4000.0 4000.0 4000.0 4000.0 4000.0 4000.0 4000.0 4000.0 4000.0 4000.0 4000.0 4000.0 4000.0 4000.0 4000.0 4000.0 4000.0 4000.0 4000.0 4000.0 4000.0 4000.0 4000.0 4000.0 4000.0 4000.0 4000.0 4000.0 4000.0 4000.0 4000.0 4000.0 4000.0 4000.0 4000.0 4000.0 4000.0 4000.0 4000.0 4000.0 4000.0 4000.0 4000.0 4000.0 4000.0 4000.0 4000.0 4000.0 4000.0 4000.0 4000.0 4000.0 4000.0 4000.0 4000.0 4000.0 4000.0 4000.0 4000.0 4000.0 4000.0 4000.0 4000.0 4000.0 4000.0 4000.0 4000.0 4000.0 4000.0 4000.0 4000.0 4000.0 4000.0 4000.0 4000.0 4000.0 4000.0 4000.0 4000.0 4000.0 4000.0 4000.0 4000.0 4000.0 4000.0 4000.0 4000.0 4000.0 4000.0 4000.0 4000.0 4000.0 4000.0 4000.0 4000.0 4000.0 4000.0 4000.0 4000.0 4000.0 4000.0 4000.0 4000.0 4000.0 4000.0 4000.0 4000.0 4000.0 4000.0 4000.0 4000.0 4000.0 4000.0 4000.0 4000.0 4000.0 4000.0 4000.0 4000.0 4000.0 4000.0 4000.0 4000.0 4000.0 4000.0 4000.0 4000.0 4000.0 4000.0 4000.0 4000.0 4000.0 4000.0 4000.0 4000.0 4000.0 4000.0 4000.0 4000.0 4000.0 4000.0 4000.0 4000.0 4000.0 4000.0 4000.0 4000.0 4000.0 4000.0 4000.0 4000.0 4000.0 4000.0 4000.0 4000.0 4000.0 4000.0 4000.0 4000.0 4000.0 4000.0 4000.0 4000.0 4000.0 4000.0 4000.0 4000.0 4000.0 4000.0 4000.0 4000.0 4000.0 4000.0 4000.0 4000.0 4000.0 4000.0 4000.0 4000.0 4000.0 4000.0 4000.0 4000.0 4000.0 4000.0 4000.0 4000.0 4000.0 4000.0 4000.0 4000.0 4000.0 4000.0 4000.0 4000.0 4000.0 4000.0 4000.0 4000.0 4000.0 4000.0 4000.0 4000.0 4000.0 4000.0 4000.0 4000.0 4000.0 4000.0 4000.0 4000.0 4000.0 4000.0 4000.0 4000.0 4000.0 4000.0 4000.0 4000.0 4000.0 4000.0 4000.0 4000.0 4000.0 4000.0 4000.0 4000.0 4000.0 4000.0 4000.0 4000.0 4000.0 4000.0 4000.0 4000.0 4000.0 4000.0 4000.0 4000.0 4000.0 4000.0 4000.0 4000.0 4000.0 4000.0 4000.0 4000.0 4000.0 4000.0 4000.0 4000.0 4000.0 4000.0 4000.0 4000.0 4000.0 4000.0 4000.0 4000.0 4000.0 4000.0 4000.0 4000.0 4000.0 4000.0 4000.0 4000.0 4000.0 4000.0 4000.0 4000.0 4000.0 4000.0 4000.0 4000.0 4000.0 4000.0 4000.0 4000.0 4000.0 4000.0 4000.0 4000.0 4000.0 4000.0 4000.0 4000.0 4000.0 4000.0 4000.0 4000.0 4000.0 4000.0 4000.0 4000.0 4000.0 4000.0 4000.0 4000.0 4000.0 4000.0 4000.0 4000.0 4000.0 4000.0 4000.0 4000.0 4000.0 4000.0 4000.0 4000.0 4000.0 4000.0 4000.0 4000.0 4000.0 4000.0 4000.0 4000.0 4000.0 4000.0 4000.0 4000.0 4000.0 4000.0 4000.0 4000.0 4000.0 4000.0 4000.0 4000.0 4000.0 4000.0 4000.0 4000.0 4000.0 4000.0 4000.0 4000.0 4000.0 4000.0 4000.0 4000.0 4000.0 4000.0 4000.0 4000.0 4000.0 4000.0 4000.0 4000.0 4000.0 4000.0 4000.0 4000.0 4000.0 4000.0 4000.0 4000.0 4000.0 4000.0 4000.0 4000.0 4000.0 4000.0 4000.0 4000.0 4000.0 4000.0 4000.0 4000.0 4000.0 4000.0 4000.0 4000.0 4000.0 4000.0 4000.0 4000.0 4000.0 4000.0 4000.0 4000.0 4000.0 4000.0 4000.0 4000.0 4000.0 4000.0 4000.0 4000.0 4000.0 4000.0 4000.0 4000.0 4000.0 4000.0 4000.0 4000.0 4000.0 4000.0 4000.0 4000.0 4000.0 4000.0 4000.0 4000.0 4000.0 4000.0 4000.0 4000.0 4000.0 4000.0 4000.0 4000.0 4000.0 4000.0 4000.0 4000.0 4000.0 4000.0 4000.0 4000.0 4000.0 4000.0 4000.0 4000.0 4000.0 4000.0 4000.0 4000.0 4000.0 4000.0 4000.0 4000.0 4000.0 4000.0 4000.0 4000.0 4000.0 4000.0 4000.0 4000.0 4000.0 4000.0 4000.0 4000.0 4000.0 4000.0 4000.0 4000.0 4000.0 4000.0 4000.0 4000.0 4000.0 4000.0 4000.0 4000.0 4000.0 4000.0 4000.0 4000.0 4000.0 4000.0 4000.0 4000.0 4000.0 4000.0 4000.0 4000.0 4000.0 4000.0 4000.0 4000.0 4000.0 4000.0 4000.0 4000.0 4000.0 4000.0 4000.0 4000.0 4000.0 4000.0 4000.0 4000.0 4000.0 4000.0 4000.0 4000.0 4000.0 4000.0 4000.0 4000.0 4000.0 4000.0 4000.0 4000.0 4000.0 4000.0 4000.0 4000.0 4000.0 4000.0 4000.0 4000.0 4000.0 4000.0 4000.0 4000.0 4000.0 4000.0 4000.0 4000.0 4000.0 4000.0 4000.0 4000.0 4000.0 4000.0 4000.0 4000.0 4000.0 4000.0 4000.0 4000.0 4000.0 4000.0 4000.0 4000.0 4000.0 4000.0 4000.0 4000.0 4000.0 4000.0 4000.0 4000.0 4000.0 4000.0 4000.0 4000.0 4000.0 4000.0 4000.0 4000.0 4000.0 4000.0 4000.0 4000.0 4000.0 4000.0 4000.0 4000.0 4000.0 4000.0 4000.0 4000.0 4000.0 4000.0 4000.0 4000.0 4000.0 4000.0 4000.0 4000.0 4000.0 4000.0 4000.0 4000.0 4000.0 4000.0 4000.0 4000.0 4000.0 4000.0 4000.0 4000.0 4000.0 4000.0 4000.0 4000.0 4000.0 4000.0 4000.0 4000.0 4000.0 4000.0 4000.0 4000.0 4000.0 4000.0 4000.0 4000.0 4000.0 4000.0 4000.0 4000.0 4000.0 4000.0 4000.0 4000.0 4000.0 4000.0 4000.0 4000.0 4000.0 4000.0 4000.0 4000.0 4000.0 4000.0 4000.0 4000.0 4000.0 4000.0 4000.0 4000.0 4000.0 4000.0 4000.0 4000.0 4000.0 4000.0 4000.0 4000.0 4000.0 4000.0 4000.0 4000.0 4000.0 4000.0 4000.0 4000.0 4000.0 4000.0 4000.0 4000.0 4000.0 4000.0 4000.0 4000.0 4000.0 4000.0 4000.0 4000.0 4000.0 4000.0 4000.0 4000.0 4000.0 4000.0 4000.0 4000.0 4000.0 4000.0 4000.0 4000.0 4000.0 4000.0 4000.0 4000.0 4000.0 4000.0 4000.0 4000.0 4000.0 4000.0 4000.0 4000.0 4000.0 4000.0 4000.0 4000.0 4000.0 4000.0 4000.0 4000.0 4000.0 4000.0 4000.0 4000.0 4000.0 4000.0 4000.0 4000.0 4000.0 4000.0 4000.0 4000.0 4000.0 4000.0 4000.0 4000.0 4000.0 4000.0 4000.0 4000.0 4000.0 4000.0 4000.0 4000.0 4000.0 4000.0 4000.0 4000.0 4000.0 4000.0 4000.0 4000.0 4000.0 4000.0 4000.0 4000.0 4000.0 4000.0 4000.0 4000.0 4000.0 4000.0 4000.0 4000.0 4000.0 4000.0 4000.0 4000.0 4000.0 4000.0 4000.0 4000.0 4000.0 4000.0 4000.0 4000.0 4000.0 4000.0 4000.0 4000.0 4000.0 4000.0 4000.0 4000.0 4000.0 4000.0 4000.0 4000.0 4000.0 4000.0 4000.0 4000.0 4000.0 4000.0 4000.0 4000.0 4000.0 4000.0 4000.0 4000.0 4000.0 4000.0 4000.0 4000.0 4000.0 4000.0 4000.0 4000.0 4000.0 4000.0 4000.0 4000.0 4000.0 4000.0 4000.0 4000.0 4000.0 4000.0 4000.0 4000.0 4000.0 4000.0 4000.0 4000.0 4000.0 4000.0 4000.0 4000.0 4000.0 4000.0 4000.0 4000.0 4000.0 4000.0 4000.0 4000.0 4000.0 4000.0 4000.0 4000.0 4000.0 4000.0 4000.0 4000.0 4000.0 4000.0 4000.0 4000.0 4000.0 4000.0 4000.0 4000.0 4000.0 4000.0 4000.0 4000.0 4000.0 4000.0 4000.0 4000.0 4000.0 4000.0 4000.0 4000.0 4000.0 4000.0 4000.0 4000.0 4000.0 4000.0 4000.0 4000.0 4000.0 4000.0 4000.0 4000.0 4000.0 4000.0 4000.0 4000.0 4000.0 4000.0 4000.0 4000.0 4000.0 4000.0 4000.0 4000.0 4000.0 4000.0 4000.0 4000.0 4000.0 4000.0 4000.0 4000.0 4000.0 4000.0 4000.0 4000.0 4000.0 4000.0 4000.0 4000.0 4000.0 4000.0 4000.0 4000.0 4000.0 4000.0 4000.0 4000.0 4000.0 4000.0 4000.0 4000.0 4000.0 4000.0 4000.0 4000.0 4000.0 4000.0 4000.0 4000.0 4000.0 4000.0 4000.0 4000.0 4000.0 4000.0 4000.0 4000.0 4000.0 4000.0 4000.0 4000.0 4000.0 4000.0 4000.0 4000.0 4000.0 4000.0 4000.0 4000.0 4000.0 4000.0 4000.0 4000.0 4000.0 4000.0 4000.0 4000.0 4000.0 4000.0 4000.0 4000.0 4000.0 4000.0 4000.0 4000.0 4000.0 4000.0 4000.0 4000.0 4000.0 4000.0 4000.0 4000.0 4000.0 4000.0 4000.0 4000.0 4000.0 4000.0 4000.0 4000.0 4000.0 4000.0 4000.0 4000.0 4000.0 4000.0 4000.0 4000.0 4000.0 4000.0 4000.0 4000.0 4000.0 4000.0 4000.0 4000.0 4000.0 4000.0 4000.0 4000.0 4000.0 4000.0 4000.0 4000.0 4000.0 4000.0 4000.0 4000.0 4000.0 4000.0 4000.0 4000.0 4000.0 4000.0 4000.0 4000.0 4000.0 4000.0 4000.0 4000.0 4000.0 4000.0 4000.0 4000.0 4000.0 4000.0 4000.0 4000.0 4000.0 4000.0 4000.0 4000.0 4000.0 4000.0 4000.0 4000.0 4000.0 4000.0 4000.0 4000.0 4000.0 4000.0 4000.0 4000.0 4000.0 4000.0 4000.0 4000.0 4000.0 4000.0 4000.0 4000.0 4000.0 4000.0 4000.0 4000.0 4000.0 4000.0 4000.0 4000.0 4000.0 4000.0 4000.0 4000.0 4000.0 4000.0 4000.0 4000.0 4000.0 4000.0 4000.0 4000.0 4000.0 4000.0 4000.0 4000.0 4000.0 4000.0 4000.0 4000.0 4000.0 4000.0 4000.0 4000.0 4000.0 4000.0 4000.0 4000.0 4000.0 4000.0 4000.0 4000.0 4000.0 4000.0 4000.0 4000.0 4000.0 4000.0 4000.0 4000.0 4000.0 4000.0 4000.0 4000.0 4000.0 4000.0 4000.0 4000.0 4000.0 4000.0 4000.0 4000.0 4000.0 4000.0 4000.0 4000.0 4000.0 4000.0 4000.0 4000.0 4000.0 4000.0 4000.0 4000.0 4000.0 4000.0 4000.0 4000.0 4000.0 4000.0 4000.0 4000.0 4000.0 4000.0 4000.0 4000.0 4000.0 4000.0 4000.0 4000.0 4000.0 4000.0 4000.0 4000.0 4000.0 4000.0 4000.0 4000.0 4000.0 4000.0 4000.0 4000.0 4000.0 4000.0 4000.0 4000.0 4000.0 4000.0 4000.0 4000.0 4000.0 4000.0 4000.0 4000.0 4000.0 4000.0 4000.0 4000.0 4000.0 4000.0 4000.0 4000.0 4000.0 4000.0 4000.0 4000.0 4000.0 4000.0 4000.0 4000.0 4000.0 4000.0 4000.0 4000.0 4000.0 4000.0 4000.0 4000.0 4000.0 4000.0 4000.0 4000.0 4000.0 4000.0 4000.0 4000.0 4000.0 4000.0 4000.0 4000.0 4000.0 4000.0 4000.0 4000.0 4000.0 4000.0 4000.0 4000.0 4000.0 4000.0 4000.0 4000.0 4000.0 4000.0 4000.0 4000.0 4000.0 4000.0 4000.0 4000.0 4000.0 4000.0 4000.0 4000.0 4000.0 4000.0 4000.0 4000.0 4000.0 4000.0 4000.0 4000.0 4000.0 4000.0 4000.0 4000.0 4000.0 4000.0 4000.0 4000.0 4000.0 4000.0 4000.0 4000.0 4000.0 4000.0 4000.0 4000.0 4000.0 4000.0 4000.0 4000.0 4000.0 4000.0 4000.0 4000.0 4000.0 4000.0 4000.0 4000.0 4000.0 4000.0 4000.0 4000.0 4000.0 4000.0 4000.0 4000.0 4000.0 4000.0 4000.0 4000.0 4000.0 4000.0 4000.0 4000.0 4000.0 4000.0 4000.0 4000.0 4000.0 4000.0 4000.0 4000.0 4000.0 4000.0 4000.0 4000.0 4000.0 4000.0 4000.0 4000.0 4000.0 4000.0 4000.0 4000.0 4000.0 4000.0 4000.0 4000.0 4000.0 4000.0 4000.0 4000.0 4000.0 4000.0 4000.0 4000.0 4000.0 4000.0 4000.0 4000.0 4000.0 4000.0 4000.0 4000.0 4000.0 4000.0 4000.0 4000.0 4000.0 4000.0 4000.0 4000.0 4000.0 4000.0 4000.0 4000.0 4000.0 4000.0 4000.0 4000.0 4000.0 4000.0 4000.0 4000.0 4000.0 4000.0 4000.0 4000.0 4000.0 4000.0 4000.0 4000.0 4000.0 4000.0 4000.0 4000.0 4000.0 4000.0 4000.0 4000.0 4000.0 4000.0 4000.0 4000.0 4000.0 4000.0 4000.0 4000.0 4000.0 4000.0 4000.0 4000.0 4000.0 4000.0 4000.0 4000.0 4000.0 4000.0 4000.0 4000.0 4000.0 4000.0 4000.0 4000.0 4000.0 4000.0 4000.0 4000.0 4000.0 4000.0 4000.0 4000.0 4000.0 4000.0 4000.0 4000.0 4000.0 4000.0 4000.0 4000.0 4000.0 4000.0 4000.0 4000.0 4000.0 4000.0 4000.0 4000.0 4000.0 4000.0 4000.0 4000.0 4000.0 4000.0 4000.0 4000.0 4000.0 4000.0 4000.0 4000.0 4000.0 4000.0 4000.0 4000.0 4000.0 4000.0 4000.0 4000.0 4000.0 4000.0 4000.0 4000.0 4000.0 4000.0 4000.0 4000.0 4000.0 4000.0 4000.0 4000.0 4000.0 4000.0 4000.0 4000.0 4000.0 4000.0 4000.0 4000.0 4000.0 4000.0 4000.0 4000.0 4000.0 4000.0 4000.0 4000.0 4000.0 4000.0 4000.0 4000.0 4000.0 4000.0 4000.0 4000.0 4000.0 4000.0 4000.0 4000.0 4000.0 4000.0 4000.0 4000.0 4000.0 4000.0 4000.0 4000.0 4000.0 4000.0 4000.0 4000.0 4000.0 4000.0 4000.0 4000.0 4000.0 4000.0 4000.0 4000.0 4000.0 4000.0 4000.0 4000.0 4000.0 4000.0 4000.0 4000.0 4000.0 4000.0 4000.0 4000.0 4000.0 4000.0 4000.0 4000.0 4000.0 4000.0 4000.0 4000.0 4000.0 4000.0 4000.0 4000.0 4000.0 4000.0 4000.0 4000.0 4000.0 4000.0 4000.0 4000.0 4000.0 4000.0 4000.0 4000.0 4000.0 4000.0 4000.0 4000.0 4000.0 4000.0 4000.0 4000.0 4000.0 4000.0 4000.0 4000.0 4000.0 4000.0 4000.0 4000.0 4000.0 4000.0 4000.0 4000.0 4000.0 4000.0 4000.0 4000.0 4000.0 4000.0 4000.0 4000.0 4000.0 4000.0 4000.0 4000.0 4000.0 4000.0 4000.0 4000.0 4000.0 4000.0 4000.0 4000.0 4000.0 4000.0 4000.0 4000.0 4000.0 4000.0 4000.0 4000.0 4000.0 4000.0 4000.0 4000.0 4000.0 4000.0 4000.0 4000.0 4000.0 4000.0 4000.0 4000.0 4000.0 4000.0 4000.0 4000.0 4000.0 4000.0 4000.0 4000.0 4000.0 4000.0 4000.0 4000.0 4000.0 4000.0 4000.0 4000.0 4000.0 4000.0 4000.0 4000.0 4000.0 4000.0 4000.0 4000.0 4000.0 4000.0 4000.0 4000.0 4000.0 4000.0 4000.0 4000.0 4000.0 4000.0 4000.0 4000.0 4000.0 4000.0 4000.0 4000.0 4000.0 4000.0 4000.0 4000.0 4000.0 4000.0 4000.0 4000.0 4000.0 4000.0 4000.0 4000.0 4000.0 4000.0 4000.0 4000.0 4000.0 4000.0 4000.0 4000.0 4000.0 4000.0 4000.0 4000.0 4000.0 4000.0 4000.0 4000.0 4000.0 4000.0 4000.0 4000.0 4000.0 4000.0 4000.0 4000.0 4000.0 4000.0 4000.0 4000.0 4000.0 4000.0 4000.0 4000.0 4000.0 4000.0 4000.0 4000.0 4000.0 4000.0 4000.0 4000.0 4000.0 4000.0 4000.0 4000.0 4000.0 4000.0 4000.0 4000.0 4000.0 4000.0 4000.0 4000.0 4000.0 4000.0 4000.0 4000.0 4000.0 4000.0 4000.0 4000.0 4000.0 4000.0 4000.0 4000.0 4000.0 4000.0 4000.0 4000.0 4000.0 4000.0 4000.0 4000.0 4000.0 4000.0 4000.0 4000.0 4000.0 4000.0 4000.0 4000.0 4000.0 4000.0 4000.0 4000.0 4000.0 4000.0 4000.0 4000.0 4000.0 4000.0 4000.0 4000.0 4000.0 4000.0 4000.0 4000.0 4000.0 4000.0 4000.0 4000.0 4000.0 4000.0 4000.0 4000.0 4000.0 4000.0 4000.0 4000.0 4000.0 4000.0 4000.0 4000.0 4000.0 4000.0 4000.0 4000.0 4000.0 4000.0 4000.0 4000.0 4000.0 4000.0 4000.0 4000.0 4000.0 4000.0 4000.0 4000.0 4000.0 4000.0 4000.0 4000.0 4000.0 4000.0 4000.0 4000.0 4000.0 4000.0 4000.0 4000.0 4000.0 4000.0 4000.0 4000.0 4000.0 4000.0 4000.0 4000.0 4000.0 4000.0 4000.0 4000.0 4000.0 4000.0 4000.0 4000.0 4000.0 4000.0 4000.0 4000.0 4000.0 4000.0 4000.0 4000.0 4000.0 4000.0 4000.0 4000.0 4000.0 4000.0 4000.0 4000.0 4000.0 4000.0 4000.0 4000.0 4000.0 4000.0 4000.0 4000.0 4000.0 4000.0 4000.0 4000.0 4000.0 4000.0 4000.0 4000.0 4000.0 4000.0 4000.0 4000.0 4000.0 4000.0 4000.0 4000.0 4000.0 4000.0 4000.0 4000.0 4000.0 4000.0 4000.0 4000.0 4000.0 4000.0 4000.0 4000.0 4000.0 4000.0 4000.0 4000.0 4000.0 4000.0 4000.0 4000.0 4000.0 4000.0 4000.0 4000.0 4000.0 4000.0 4000.0 4000.0 4000.0 4000.0 4000.0 4000.0 4000.0 4000.0 4000.0 4000.0 4000.0 4000.0 4000.0 4000.0 4000.0 4000.0 4000.0 4000.0 4000.0 4000.0 4000.0 4000.0 4000.0 4000.0 4000.0 4000.0 4000.0 4000.0 4000.0 4000.0 4000.0 4000.0 4000.0 4000.0 4000.0 4000.0 4000.0 4000.0 4000.0 4000.0 4000.0 4000.0 4000.0 4000.0 4000.0 4000.0 4000.0 4000.0 4000.0 4000.0 4000.0 4000.0 4000.0 4000.0 4000.0 4000.0 4000.0 4000.0 4000.0 4000.0 4000.0 4000.0 4000.0 4000.0 4000.0 4000.0 4000.0 4000.0 4000.0 4000.0 4000.0 4000.0 4000.0 4000.0 4000.0 4000.0 4000.0 4000.0 4000.0 4000.0 4000.0 4000.0 4000.0 4000.0 4000.0 4000.0 4000.0 4000.0 4000.0 4000.0 4000.0 4000.0 4000.0 4000.0 4000.0 4000.0 4000.0 4000.0 4000.0 4000.0 4000.0 4000.0 4000.0 4000.0 4000.0 4000.0 4000.0 4000.0 4000.0 4000.0 4000.0 4000.0 4000.0 4000.0 4000.0 4000.0 4000.0 4000.0 4000.0 4000.0 4000.0 4000.0 4000.0 4000.0 4000.0 4000.0 4000.0 4000.0 4000.0 4000.0 4000.0 4000.0 4000.0 4000.0 4000.0 4000.0 4000.0 4000.0 4000.0 4000.0 4000.0 4000.0 4000.0 4000.0 4000.0 4000.0 4000.0 4000.0 4000.0 4000.0 4000.0 4000.0 4000.0 4000.0 4000.0 4000.0 4000.0 4000.0 4000.0 4000.0 4000.0 4000.0 4000.0 4000.0 4000.0 4000.0 4000.0 4000.0 4000.0 4000.0 4000.0 4000.0 4000.0 4000.0 4000.0 4000.0 4000.0 4000.0 4000.0 4000.0 4000.0 4000.0 4000.0 4000.0 4000.0 4000.0 4000.0 4000.0 4000.0 4000.0 4000.0 4000.0 4000.0 4000.0 4000.0 4000.0 4000.0 4000.0 4000.0 4000.0 4000.0 4000.0 4000.0 4000.0 4000.0 4000.0 4000.0 4000.0 4000.0 4000.0 4000.0 4000.0 4000.0 4000.0 4000.0 4000.0 4000.0 4000.0 4000.0 4000.0 4000.0 4000.0 4000.0 4000.0 4000.0 4000.0 4000.0 4000.0 4000.0 4000.0 4000.0 4000.0 4000.0 4000.0 4000.0 4000.0 4000.0 4000.0 4000.0 4000.0 4000.0 4000.0 4000.0 4000.0 4000.0 4000.0 4000.0 4000.0 4000.0 4000.0 4000.0 4000.0 4000.0 4000.0 4000.0 4000.0 4000.0 4000.0 4000.0 4000.0 4000.0 4000.0 4000.0 4000.0 4000.0 4000.0 4000.0 4000.0 4000.0 4000.0 4000.0 4000.0 4000.0 4000.0 4000.0 4000.0 4000.0 4000.0 4000.0 4000.0 4000.0 4000.0 4000.0 4000.0 4000.0 4000.0 4000.0 4000.0 4000.0 4000.0 4000.0 4000.0 4000.0 4000.0 4000.0 4000.0 4000.0 4000.0 4000.0 4000.0 4000.0 4000.0 4000.0 4000.0 4000.0 4000.0 4000.0 4000.0 4000.0 4000.0 4000.0 4000.0 4000.0 4000.0 4000.0 4000.0 4000.0 4000.0 4000.0 4000.0 4000.0 4000.0 4000.0 4000.0 4000.0 4000.0 4000.0 4000.0 4000.0 4000.0 4000.0 4000.0 4000.0 4000.0 4000.0 4000.0 4000.0 4000.0 4000.0 4000.0 4000.0 4000.0 4000.0 4000.0 4000.0 4000.0 4000.0 4000.0 4000.0 4000.0 4000.0 4000.0 4000.0 4000.0 4000.0 4000.0 4000.0 4000.0 4000.0 4000.0 4000.0 4000.0 4000.0 4000.0 4000.0 4000.0 4000.0 4000.0 4000.0 4000.0 4000.0 4000.0 4000.0 4000.0 4000.0 4000.0 4000.0 4000.0 4000.0 4000.0 4000.0 4000.0 4000.0 4000.0 4000.0 4000.0 4000.0 4000.0 4000.0 4000.0 4000.0 4000.0 4000.0 4000.0 4000.0 4000.0 4000.0 4000.0 4000.0 4000.0 4000.0 4000.0 4000.0 4000.0 4000.0 4000.0 4000.0 4000.0 4000.0 4000.0 4000.0 4000.0 4000.0 4000.0 4000.0 4000.0 4000.0 4000.0 4000.0 4000.0 4000.0 4000.0 4000.0 4000.0 4000.0 4000.0 4000.0 4000.0 4000.0 4000.0 4000.0 4000.0 4000.0 4000.0 4000.0 4000.0 4000.0 4000.0 4000.0 4000.0 4000.0 4000.0 4000.0 4000.0 4000.0 4000.0 4000.0 4000.0 4000.0 4000.0 4000.0 4000.0 4000.0 4000.0 4000.0 4000.0 4000.0 4000.0 4000.0 4000.0 4000.0 4000.0 4000.0 4000.0 4000.0 4000.0 4000.0 4000.0 4000.0 4000.0 4000.0 4000.0 4000.0 4000.0 4000.0 4000.0 4000.0 4000.0 4000.0 4000.0 4000.0 4000.0 4000.0 4000.0 4000.0 4000.0 4000.0 4000.0 4000.0 4000.0 4000.0 4000.0 4000.0 4000.0 4000.0 4000.0 4000.0 4000.0 4000.0 4000.0 4000.0 4000.0 4000.0 4000.0 4000.0 4000.0 4000.0 4000.0 4000.0 4000.0 4000.0 4000.0 4000.0 4000.0 4000.0 4000.0 4000.0 4000.0 4000.0 4000.0 4000.0 4000.0 4000.0 4000.0 4000.0 4000.0 4000.0 4000.0 4000.0 4000.0 4000.0 4000.0 4000.0 4000.0 4000.0 4000.0 4000.0 4000.0 4000.0 4000.0 4000.0 4000.0 4000.0 4000.0 4000.0 4000.0 4000.0 4000.0 4000.0 4000.0 4000.0 4000.0 4000.0 4000.0 4000.0 4000.0 4000.0 4000.0 4000.0 4000.0 4000.0 4000.0 4000.0 4000.0 4000.0 4000.0 4000.0 4000.0 4000.0 4000.0 4000.0 4000.0 4000.0 4000.0 4000.0 4000.0 4000.0 4000.0 4000.0 4000.0 4000.0 4000.0 4000.0 4000.0 4000.0 4000.0 4000.0 4000.0 4000.0 4000.0 4000.0 4000.0 4000.0 4000.0 4000.0 4000.0 4000.0 4000.0 4000.0 4000.0 4000.0 4000.0 4000.0 4000.0 4000.0 4000.0 4000.0 4000.0 4000.0 4000.0 4000.0 4000.0 4000.0 4000.0 4000.0 4000.0 4000.0 4000.0 4000.0 4000.0 4000.0 4000.0 4000.0 4000.0 4000.0 4000.0 4000.0 4000.0 4000.0 4000.0 4000.0 4000.0 4000.0 4000.0 4000.0 4000.0 4000.0 4000.0 4000.0 4000.0 4000.0 4000.0 4000.0 4000.0 4000.0 4000.0 4000.0 4000.0 4000.0 4000.0 4000.0 4000.0 4000.0 4000.0 4000.0 4000.0 4000.0 4000.0 4000.0 4000.0 4000.0 4000.0 4000.0 4000.0 4000.0 4000.0 4000.0 4000.0 4000.0 4000.0 4000.0 4000.0 4000.0 4000.0 4000.0 4000.0 4000.0 4000.0 4000.0 4000.0 4000.0 4000.0 4000.0 4000.0 4000.0 4000.0 4000.0 4000.0 4000.0 4000.0 4000.0 4000.0 4000.0 4000.0 4000.0 4000.0 4000.0 4000.0 4000.0 4000.0 4000.0 4000.0 4000.0 4000.0 4000.0 4000.0 4000.0 4000.0 4000.0 4000.0 4000.0 4000.0 4000.0 4000.0 4000.0 4000.0 4000.0 4000.0 4000.0 4000.0 4000.0 4000.0 4000.0 4000.0 4000.0 4000.0 4000.0 4000.0 4000.0 4000.0 4000.0 4000.0 4000.0 4000.0 4000.0 4000.0 4000.0 4000.0 4000.0 4000.0 4000.0 4000.0 4000.0 4000.0 4000.0 4000.0 4000.0 4000.0 4000.0 4000.0 4000.0 4000.0 4000.0 4000.0 4000.0 4000.0 4000.0 4000.0 4000.0 4000.0 4000.0 4000.0 4000.0 4000.0 4000.0 4000.0 4000.0 4000.0 4000.0 4000.0 4000.0 4000.0 4000.0 4000.0 4000.0 4000.0 4000.0 4000.0 4000.0 4000.0 4000.0 4000.0 4000.0 4000.0 4000.0 4000.0 4000.0 4000.0 4000.0 4000.0 4000.0 4000.0 4000.0 4000.0 4000.0 4000.0 4000.0 4000.0 4000.0 4000.0 4000.0 4000.0 4000.0 4000.0 4000.0 4000.0 4000.0 4000.0 4000.0 4000.0 4000.0 4000.0 4000.0 4000.0 4000.0 4000.0 4000.0 4000.0 4000.0 4000.0 4000.0 4000.0 4000.0 4000.0 4000.0 4000.0 4000.0 4000.0 4000.0 4000.0 4000.0 4000.0 4000.0 4000.0 4000.0 4000.0 4000.0 4000.0 4000.0 4000.0 4000.0 4000.0 4000.0 4000.0 4000.0 4000.0 4000.0 4000.0 4000.0 4000.0 4000.0 4000.0 4000.0 4000.0 4000.0 4000.0 4000.0 4000.0 4000.0 4000.0 4000.0 4000.0 4000.0 4000.0 4000.0 4000.0 4000.0 4000.0 4000.0 4000.0 4000.0 4000.0 4000.0 4000.0 4000.0 4000.0 4000.0 4000.0 4000.0 4000.0 4000.0 4000.0 4000.0 4000.0 4000.0 4000.0 4000.0 4000.0 4000.0 4000.0 4000.0 4000.0 4000.0 4000.0 4000.0 4000.0 4000.0 4000.0 4000.0 4000.0 4000.0 4000.0 4000.0 4000.0 4000.0 4000.0 4000.0 4000.0 4000.0 4000.0 4000.0 4000.0 4000.0 4000.0 4000.0 4000.0 4000.0 4000.0 4000.0 4000.0 4000.0 4000.0 4000.0 4000.0 4000.0 4000.0 4000.0 4000.0 4000.0 4000.0 4000.0 4000.0 4000.0 4000.0 4000.0 SCALARS Mass float 1
LOOKUP_TABLE default
11309700000.0 11309700000.0 11309700000.0 11309700000.0 11309700000.0 11309700000.0 11309700000.0 11309700000.0 11309700000.0 11309700000.0 11309700000.0 11309700000.0 11309700000.0 11309700000.0 11309700000.0 11309700000.0 11309700000.0 11309700000.0 11309700000.0 11309700000.0 11309700000.0 11309700000.0 11309700000.0 11309700000.0 11309700000.0 11309700000.0 11309700000.0 11309700000.0 11309700000.0 11309700000.0 11309700000.0 11309700000.0 11309700000.0 11309700000.0 11309700000.0 11309700000.0 11309700000.0 11309700000.0 11309700000.0 11309700000.0 11309700000.0 11309700000.0 11309700000.0 11309700000.0 11309700000.0 11309700000.0 11309700000.0 11309700000.0 11309700000.0 11309700000.0 11309700000.0 11309700000.0 11309700000.0 11309700000.0 11309700000.0 11309700000.0 11309700000.0 11309700000.0 11309700000.0 11309700000.0 11309700000.0 11309700000.0 11309700000.0 11309700000.0 11309700000.0 11309700000.0 11309700000.0 11309700000.0 11309700000.0 11309700000.0 11309700000.0 11309700000.0 11309700000.0 11309700000.0 11309700000.0 11309700000.0 11309700000.0 11309700000.0 11309700000.0 11309700000.0 11309700000.0 11309700000.0 11309700000.0 11309700000.0 11309700000.0 11309700000.0 11309700000.0 11309700000.0 11309700000.0 11309700000.0 11309700000.0 11309700000.0 11309700000.0 11309700000.0 11309700000.0 11309700000.0 11309700000.0 11309700000.0 11309700000.0 11309700000.0 11309700000.0 11309700000.0 11309700000.0 11309700000.0 11309700000.0 11309700000.0 11309700000.0 11309700000.0 11309700000.0 11309700000.0 11309700000.0 11309700000.0 11309700000.0 11309700000.0 11309700000.0 11309700000.0 11309700000.0 11309700000.0 11309700000.0 11309700000.0 11309700000.0 11309700000.0 11309700000.0 11309700000.0 11309700000.0 11309700000.0 11309700000.0 11309700000.0 11309700000.0 11309700000.0 11309700000.0 11309700000.0 11309700000.0 11309700000.0 11309700000.0 11309700000.0 11309700000.0 11309700000.0 11309700000.0 11309700000.0 11309700000.0 11309700000.0 11309700000.0 11309700000.0 11309700000.0 11309700000.0 11309700000.0 11309700000.0 11309700000.0 11309700000.0 11309700000.0 11309700000.0 11309700000.0 11309700000.0 11309700000.0 11309700000.0 11309700000.0 11309700000.0 11309700000.0 11309700000.0 11309700000.0 11309700000.0 11309700000.0 11309700000.0 11309700000.0 11309700000.0 11309700000.0 11309700000.0 11309700000.0 11309700000.0 11309700000.0 11309700000.0 11309700000.0 11309700000.0 11309700000.0 11309700000.0 11309700000.0 11309700000.0 11309700000.0 11309700000.0 11309700000.0 11309700000.0 11309700000.0 11309700000.0 11309700000.0 11309700000.0 11309700000.0 11309700000.0 11309700000.0 11309700000.0 11309700000.0 11309700000.0 11309700000.0 11309700000.0 11309700000.0 11309700000.0 11309700000.0 11309700000.0 11309700000.0 11309700000.0 11309700000.0 11309700000.0 11309700000.0 11309700000.0 11309700000.0 11309700000.0 11309700000.0 11309700000.0 11309700000.0 11309700000.0 11309700000.0 11309700000.0 11309700000.0 11309700000.0 11309700000.0 11309700000.0 11309700000.0 11309700000.0 11309700000.0 11309700000.0 11309700000.0 11309700000.0 11309700000.0 11309700000.0 11309700000.0 11309700000.0 11309700000.0 11309700000.0 11309700000.0 11309700000.0 11309700000.0 11309700000.0 11309700000.0 11309700000.0 11309700000.0 11309700000.0 11309700000.0 11309700000.0 11309700000.0 11309700000.0 11309700000.0 11309700000.0 11309700000.0 11309700000.0 11309700000.0 11309700000.0 11309700000.0 11309700000.0 11309700000.0 11309700000.0 11309700000.0 11309700000.0 11309700000.0 11309700000.0 11309700000.0 11309700000.0 11309700000.0 11309700000.0 11309700000.0 11309700000.0 11309700000.0 11309700000.0 11309700000.0 11309700000.0 11309700000.0 11309700000.0 11309700000.0 11309700000.0 11309700000.0 11309700000.0 11309700000.0 11309700000.0 11309700000.0 11309700000.0 11309700000.0 11309700000.0 11309700000.0 11309700000.0 11309700000.0 11309700000.0 11309700000.0 11309700000.0 11309700000.0 11309700000.0 11309700000.0 11309700000.0 11309700000.0 11309700000.0 11309700000.0 11309700000.0 11309700000.0 11309700000.0 11309700000.0 11309700000.0 11309700000.0 11309700000.0 11309700000.0 11309700000.0 11309700000.0 11309700000.0 11309700000.0 11309700000.0 11309700000.0 11309700000.0 11309700000.0 11309700000.0 11309700000.0 11309700000.0 11309700000.0 11309700000.0 11309700000.0 11309700000.0 11309700000.0 11309700000.0 11309700000.0 11309700000.0 11309700000.0 11309700000.0 11309700000.0 11309700000.0 11309700000.0 11309700000.0 11309700000.0 11309700000.0 11309700000.0 11309700000.0 11309700000.0 11309700000.0 11309700000.0 11309700000.0 11309700000.0 11309700000.0 11309700000.0 11309700000.0 11309700000.0 11309700000.0 11309700000.0 11309700000.0 11309700000.0 11309700000.0 11309700000.0 11309700000.0 11309700000.0 11309700000.0 11309700000.0 11309700000.0 11309700000.0 11309700000.0 11309700000.0 11309700000.0 11309700000.0 11309700000.0 11309700000.0 11309700000.0 11309700000.0 11309700000.0 11309700000.0 11309700000.0 11309700000.0 11309700000.0 11309700000.0 11309700000.0 11309700000.0 11309700000.0 11309700000.0 11309700000.0 11309700000.0 11309700000.0 11309700000.0 11309700000.0 11309700000.0 11309700000.0 11309700000.0 11309700000.0 11309700000.0 11309700000.0 11309700000.0 11309700000.0 11309700000.0 11309700000.0 11309700000.0 11309700000.0 11309700000.0 11309700000.0 11309700000.0 11309700000.0 11309700000.0 11309700000.0 11309700000.0 11309700000.0 11309700000.0 11309700000.0 11309700000.0 11309700000.0 11309700000.0 11309700000.0 11309700000.0 11309700000.0 11309700000.0 11309700000.0 11309700000.0 11309700000.0 11309700000.0 11309700000.0 11309700000.0 11309700000.0 11309700000.0 11309700000.0 11309700000.0 11309700000.0 11309700000.0 11309700000.0 11309700000.0 11309700000.0 11309700000.0 11309700000.0 11309700000.0 11309700000.0 11309700000.0 11309700000.0 11309700000.0 11309700000.0 11309700000.0 11309700000.0 11309700000.0 11309700000.0 11309700000.0 11309700000.0 11309700000.0 11309700000.0 11309700000.0 11309700000.0 11309700000.0 11309700000.0 11309700000.0 11309700000.0 11309700000.0 11309700000.0 11309700000.0 11309700000.0 11309700000.0 11309700000.0 11309700000.0 11309700000.0 11309700000.0 11309700000.0 11309700000.0 11309700000.0 11309700000.0 11309700000.0 11309700000.0 11309700000.0 11309700000.0 11309700000.0 11309700000.0 11309700000.0 11309700000.0 11309700000.0 11309700000.0 11309700000.0 11309700000.0 11309700000.0 11309700000.0 11309700000.0 11309700000.0 11309700000.0 11309700000.0 11309700000.0 11309700000.0 11309700000.0 11309700000.0 11309700000.0 11309700000.0 11309700000.0 11309700000.0 11309700000.0 11309700000.0 11309700000.0 11309700000.0 11309700000.0 11309700000.0 11309700000.0 11309700000.0 11309700000.0 11309700000.0 11309700000.0 11309700000.0 11309700000.0 11309700000.0 11309700000.0 11309700000.0 11309700000.0 11309700000.0 11309700000.0 11309700000.0 11309700000.0 11309700000.0 11309700000.0 11309700000.0 11309700000.0 11309700000.0 11309700000.0 11309700000.0 11309700000.0 11309700000.0 11309700000.0 11309700000.0 11309700000.0 11309700000.0 11309700000.0 11309700000.0 11309700000.0 11309700000.0 11309700000.0 11309700000.0 11309700000.0 11309700000.0 11309700000.0 11309700000.0 11309700000.0 11309700000.0 11309700000.0 11309700000.0 11309700000.0 11309700000.0 11309700000.0 11309700000.0 11309700000.0 11309700000.0 11309700000.0 11309700000.0 11309700000.0 11309700000.0 11309700000.0 11309700000.0 11309700000.0 11309700000.0 11309700000.0 11309700000.0 11309700000.0 11309700000.0 11309700000.0 11309700000.0 11309700000.0 11309700000.0 11309700000.0 11309700000.0 11309700000.0 11309700000.0 11309700000.0 11309700000.0 11309700000.0 11309700000.0 11309700000.0 11309700000.0 11309700000.0 11309700000.0 11309700000.0 11309700000.0 11309700000.0 11309700000.0 11309700000.0 11309700000.0 11309700000.0 11309700000.0 11309700000.0 11309700000.0 11309700000.0 11309700000.0 11309700000.0 11309700000.0 11309700000.0 11309700000.0 11309700000.0 11309700000.0 11309700000.0 11309700000.0 11309700000.0 11309700000.0 11309700000.0 11309700000.0 11309700000.0 11309700000.0 11309700000.0 11309700000.0 11309700000.0 11309700000.0 11309700000.0 11309700000.0 11309700000.0 11309700000.0 11309700000.0 11309700000.0 11309700000.0 11309700000.0 11309700000.0 11309700000.0 11309700000.0 11309700000.0 11309700000.0 11309700000.0 11309700000.0 11309700000.0 11309700000.0 11309700000.0 11309700000.0 11309700000.0 11309700000.0 11309700000.0 11309700000.0 11309700000.0 11309700000.0 11309700000.0 11309700000.0 11309700000.0 11309700000.0 11309700000.0 11309700000.0 11309700000.0 11309700000.0 11309700000.0 11309700000.0 11309700000.0 11309700000.0 11309700000.0 11309700000.0 11309700000.0 11309700000.0 11309700000.0 11309700000.0 11309700000.0 11309700000.0 11309700000.0 11309700000.0 11309700000.0 11309700000.0 11309700000.0 11309700000.0 11309700000.0 11309700000.0 11309700000.0 11309700000.0 11309700000.0 11309700000.0 11309700000.0 11309700000.0 11309700000.0 11309700000.0 11309700000.0 11309700000.0 11309700000.0 11309700000.0 11309700000.0 11309700000.0 11309700000.0 11309700000.0 11309700000.0 11309700000.0 11309700000.0 11309700000.0 11309700000.0 11309700000.0 11309700000.0 11309700000.0 11309700000.0 11309700000.0 11309700000.0 11309700000.0 11309700000.0 11309700000.0 11309700000.0 11309700000.0 11309700000.0 11309700000.0 11309700000.0 11309700000.0 11309700000.0 11309700000.0 11309700000.0 11309700000.0 11309700000.0 11309700000.0 11309700000.0 11309700000.0 11309700000.0 11309700000.0 11309700000.0 11309700000.0 11309700000.0 11309700000.0 11309700000.0 11309700000.0 11309700000.0 11309700000.0 11309700000.0 11309700000.0 11309700000.0 11309700000.0 11309700000.0 11309700000.0 11309700000.0 11309700000.0 11309700000.0 11309700000.0 11309700000.0 11309700000.0 11309700000.0 11309700000.0 11309700000.0 11309700000.0 11309700000.0 11309700000.0 11309700000.0 11309700000.0 11309700000.0 11309700000.0 11309700000.0 11309700000.0 11309700000.0 11309700000.0 11309700000.0 11309700000.0 11309700000.0 11309700000.0 11309700000.0 11309700000.0 11309700000.0 11309700000.0 11309700000.0 11309700000.0 11309700000.0 11309700000.0 11309700000.0 11309700000.0 11309700000.0 11309700000.0 11309700000.0 11309700000.0 11309700000.0 11309700000.0 11309700000.0 11309700000.0 11309700000.0 11309700000.0 11309700000.0 11309700000.0 11309700000.0 11309700000.0 11309700000.0 11309700000.0 11309700000.0 11309700000.0 11309700000.0 11309700000.0 11309700000.0 11309700000.0 11309700000.0 11309700000.0 11309700000.0 11309700000.0 11309700000.0 11309700000.0 11309700000.0 11309700000.0 11309700000.0 11309700000.0 11309700000.0 11309700000.0 11309700000.0 11309700000.0 11309700000.0 11309700000.0 11309700000.0 11309700000.0 11309700000.0 11309700000.0 11309700000.0 11309700000.0 11309700000.0 11309700000.0 11309700000.0 11309700000.0 11309700000.0 11309700000.0 11309700000.0 11309700000.0 11309700000.0 11309700000.0 11309700000.0 11309700000.0 11309700000.0 11309700000.0 11309700000.0 11309700000.0 11309700000.0 11309700000.0 11309700000.0 11309700000.0 11309700000.0 11309700000.0 11309700000.0 11309700000.0 11309700000.0 11309700000.0 11309700000.0 11309700000.0 11309700000.0 11309700000.0 11309700000.0 11309700000.0 11309700000.0 11309700000.0 11309700000.0 11309700000.0 11309700000.0 11309700000.0 11309700000.0 11309700000.0 11309700000.0 11309700000.0 11309700000.0 11309700000.0 11309700000.0 11309700000.0 11309700000.0 11309700000.0 11309700000.0 11309700000.0 11309700000.0 11309700000.0 11309700000.0 11309700000.0 11309700000.0 11309700000.0 11309700000.0 11309700000.0 11309700000.0 11309700000.0 11309700000.0 11309700000.0 11309700000.0 11309700000.0 11309700000.0 11309700000.0 11309700000.0 11309700000.0 11309700000.0 11309700000.0 11309700000.0 11309700000.0 11309700000.0 11309700000.0 11309700000.0 11309700000.0 11309700000.0 11309700000.0 11309700000.0 11309700000.0 11309700000.0 11309700000.0 11309700000.0 11309700000.0 11309700000.0 11309700000.0 11309700000.0 11309700000.0 11309700000.0 11309700000.0 11309700000.0 11309700000.0 11309700000.0 11309700000.0 11309700000.0 11309700000.0 11309700000.0 11309700000.0 11309700000.0 11309700000.0 11309700000.0 11309700000.0 11309700000.0 11309700000.0 11309700000.0 11309700000.0 11309700000.0 11309700000.0 11309700000.0 11309700000.0 11309700000.0 11309700000.0 11309700000.0 11309700000.0 11309700000.0 11309700000.0 11309700000.0 11309700000.0 11309700000.0 11309700000.0 11309700000.0 11309700000.0 11309700000.0 11309700000.0 11309700000.0 11309700000.0 11309700000.0 11309700000.0 11309700000.0 11309700000.0 11309700000.0 11309700000.0 11309700000.0 11309700000.0 11309700000.0 11309700000.0 11309700000.0 11309700000.0 11309700000.0 11309700000.0 11309700000.0 11309700000.0 11309700000.0 11309700000.0 11309700000.0 11309700000.0 11309700000.0 11309700000.0 11309700000.0 11309700000.0 11309700000.0 11309700000.0 11309700000.0 11309700000.0 11309700000.0 11309700000.0 11309700000.0 11309700000.0 11309700000.0 11309700000.0 11309700000.0 11309700000.0 11309700000.0 11309700000.0 11309700000.0 11309700000.0 11309700000.0 11309700000.0 11309700000.0 11309700000.0 11309700000.0 11309700000.0 11309700000.0 11309700000.0 11309700000.0 11309700000.0 11309700000.0 11309700000.0 11309700000.0 11309700000.0 11309700000.0 11309700000.0 11309700000.0 11309700000.0 11309700000.0 11309700000.0 11309700000.0 11309700000.0 11309700000.0 11309700000.0 11309700000.0 11309700000.0 11309700000.0 11309700000.0 11309700000.0 11309700000.0 11309700000.0 11309700000.0 11309700000.0 11309700000.0 11309700000.0 11309700000.0 11309700000.0 11309700000.0 11309700000.0 11309700000.0 11309700000.0 11309700000.0 11309700000.0 11309700000.0 11309700000.0 11309700000.0 11309700000.0 11309700000.0 11309700000.0 11309700000.0 11309700000.0 11309700000.0 11309700000.0 11309700000.0 11309700000.0 11309700000.0 11309700000.0 11309700000.0 11309700000.0 11309700000.0 11309700000.0 11309700000.0 11309700000.0 11309700000.0 11309700000.0 11309700000.0 11309700000.0 11309700000.0 11309700000.0 11309700000.0 11309700000.0 11309700000.0 11309700000.0 11309700000.0 11309700000.0 11309700000.0 11309700000.0 11309700000.0 11309700000.0 11309700000.0 11309700000.0 11309700000.0 11309700000.0 11309700000.0 11309700000.0 11309700000.0 11309700000.0 11309700000.0 11309700000.0 11309700000.0 11309700000.0 11309700000.0 11309700000.0 11309700000.0 11309700000.0 11309700000.0 11309700000.0 11309700000.0 11309700000.0 11309700000.0 11309700000.0 11309700000.0 11309700000.0 11309700000.0 11309700000.0 11309700000.0 11309700000.0 11309700000.0 11309700000.0 11309700000.0 11309700000.0 11309700000.0 11309700000.0 11309700000.0 11309700000.0 11309700000.0 11309700000.0 11309700000.0 11309700000.0 11309700000.0 11309700000.0 11309700000.0 11309700000.0 11309700000.0 11309700000.0 11309700000.0 11309700000.0 11309700000.0 11309700000.0 11309700000.0 11309700000.0 11309700000.0 11309700000.0 11309700000.0 11309700000.0 11309700000.0 11309700000.0 11309700000.0 11309700000.0 11309700000.0 11309700000.0 11309700000.0 11309700000.0 11309700000.0 11309700000.0 11309700000.0 11309700000.0 11309700000.0 11309700000.0 11309700000.0 11309700000.0 11309700000.0 11309700000.0 11309700000.0 11309700000.0 11309700000.0 11309700000.0 11309700000.0 11309700000.0 11309700000.0 11309700000.0 11309700000.0 11309700000.0 11309700000.0 11309700000.0 11309700000.0 11309700000.0 11309700000.0 11309700000.0 11309700000.0 11309700000.0 11309700000.0 11309700000.0 11309700000.0 11309700000.0 11309700000.0 11309700000.0 11309700000.0 11309700000.0 11309700000.0 11309700000.0 11309700000.0 11309700000.0 11309700000.0 11309700000.0 11309700000.0 11309700000.0 11309700000.0 11309700000.0 11309700000.0 11309700000.0 11309700000.0 11309700000.0 11309700000.0 11309700000.0 11309700000.0 11309700000.0 11309700000.0 11309700000.0 11309700000.0 11309700000.0 11309700000.0 11309700000.0 11309700000.0 11309700000.0 11309700000.0 11309700000.0 11309700000.0 11309700000.0 11309700000.0 11309700000.0 11309700000.0 11309700000.0 11309700000.0 11309700000.0 11309700000.0 11309700000.0 11309700000.0 11309700000.0 11309700000.0 11309700000.0 11309700000.0 11309700000.0 11309700000.0 11309700000.0 11309700000.0 11309700000.0 11309700000.0 11309700000.0 11309700000.0 11309700000.0 11309700000.0 11309700000.0 11309700000.0 11309700000.0 11309700000.0 11309700000.0 11309700000.0 11309700000.0 11309700000.0 11309700000.0 11309700000.0 11309700000.0 11309700000.0 11309700000.0 11309700000.0 11309700000.0 11309700000.0 11309700000.0 11309700000.0 11309700000.0 11309700000.0 11309700000.0 11309700000.0 11309700000.0 11309700000.0 11309700000.0 11309700000.0 11309700000.0 11309700000.0 11309700000.0 11309700000.0 11309700000.0 11309700000.0 11309700000.0 11309700000.0 11309700000.0 11309700000.0 11309700000.0 11309700000.0 11309700000.0 11309700000.0 11309700000.0 11309700000.0 11309700000.0 11309700000.0 11309700000.0 11309700000.0 11309700000.0 11309700000.0 11309700000.0 11309700000.0 11309700000.0 11309700000.0 11309700000.0 11309700000.0 11309700000.0 11309700000.0 11309700000.0 11309700000.0 11309700000.0 11309700000.0 11309700000.0 11309700000.0 11309700000.0 11309700000.0 11309700000.0 11309700000.0 11309700000.0 11309700000.0 11309700000.0 11309700000.0 11309700000.0 11309700000.0 11309700000.0 11309700000.0 11309700000.0 11309700000.0 11309700000.0 11309700000.0 11309700000.0 11309700000.0 11309700000.0 11309700000.0 11309700000.0 11309700000.0 11309700000.0 11309700000.0 11309700000.0 11309700000.0 11309700000.0 11309700000.0 11309700000.0 11309700000.0 11309700000.0 11309700000.0 11309700000.0 11309700000.0 11309700000.0 11309700000.0 11309700000.0 11309700000.0 11309700000.0 11309700000.0 11309700000.0 11309700000.0 11309700000.0 11309700000.0 11309700000.0 11309700000.0 11309700000.0 11309700000.0 11309700000.0 11309700000.0 11309700000.0 11309700000.0 11309700000.0 11309700000.0 11309700000.0 11309700000.0 11309700000.0 11309700000.0 11309700000.0 11309700000.0 11309700000.0 11309700000.0 11309700000.0 11309700000.0 11309700000.0 11309700000.0 11309700000.0 11309700000.0 11309700000.0 11309700000.0 11309700000.0 11309700000.0 11309700000.0 11309700000.0 11309700000.0 11309700000.0 11309700000.0 11309700000.0 11309700000.0 11309700000.0 11309700000.0 11309700000.0 11309700000.0 11309700000.0 11309700000.0 11309700000.0 11309700000.0 11309700000.0 11309700000.0 11309700000.0 11309700000.0 11309700000.0 11309700000.0 11309700000.0 11309700000.0 11309700000.0 11309700000.0 11309700000.0 11309700000.0 11309700000.0 11309700000.0 11309700000.0 11309700000.0 11309700000.0 11309700000.0 11309700000.0 11309700000.0 11309700000.0 11309700000.0 11309700000.0 11309700000.0 11309700000.0 11309700000.0 11309700000.0 11309700000.0 11309700000.0 11309700000.0 11309700000.0 11309700000.0 11309700000.0 11309700000.0 11309700000.0 11309700000.0 11309700000.0 11309700000.0 11309700000.0 11309700000.0 11309700000.0 11309700000.0 11309700000.0 11309700000.0 11309700000.0 11309700000.0 11309700000.0 11309700000.0 11309700000.0 11309700000.0 11309700000.0 11309700000.0 11309700000.0 11309700000.0 11309700000.0 11309700000.0 11309700000.0 11309700000.0 11309700000.0 11309700000.0 11309700000.0 11309700000.0 11309700000.0 11309700000.0 11309700000.0 11309700000.0 11309700000.0 11309700000.0 11309700000.0 11309700000.0 11309700000.0 11309700000.0 11309700000.0 11309700000.0 11309700000.0 11309700000.0 11309700000.0 11309700000.0 11309700000.0 11309700000.0 11309700000.0 11309700000.0 11309700000.0 11309700000.0 11309700000.0 11309700000.0 11309700000.0 11309700000.0 11309700000.0 11309700000.0 11309700000.0 11309700000.0 11309700000.0 11309700000.0 11309700000.0 11309700000.0 11309700000.0 11309700000.0 11309700000.0 11309700000.0 11309700000.0 11309700000.0 11309700000.0 11309700000.0 11309700000.0 11309700000.0 11309700000.0 11309700000.0 11309700000.0 11309700000.0 11309700000.0 11309700000.0 11309700000.0 11309700000.0 11309700000.0 11309700000.0 11309700000.0 11309700000.0 11309700000.0 11309700000.0 11309700000.0 11309700000.0 11309700000.0 11309700000.0 11309700000.0 11309700000.0 11309700000.0 11309700000.0 11309700000.0 11309700000.0 11309700000.0 11309700000.0 11309700000.0 11309700000.0 11309700000.0 11309700000.0 11309700000.0 11309700000.0 11309700000.0 11309700000.0 11309700000.0 11309700000.0 11309700000.0 11309700000.0 11309700000.0 11309700000.0 11309700000.0 11309700000.0 11309700000.0 11309700000.0 11309700000.0 11309700000.0 11309700000.0 11309700000.0 11309700000.0 11309700000.0 11309700000.0 11309700000.0 11309700000.0 11309700000.0 11309700000.0 11309700000.0 11309700000.0 11309700000.0 11309700000.0 11309700000.0 11309700000.0 11309700000.0 11309700000.0 11309700000.0 11309700000.0 11309700000.0 11309700000.0 11309700000.0 11309700000.0 11309700000.0 11309700000.0 11309700000.0 11309700000.0 11309700000.0 11309700000.0 11309700000.0 11309700000.0 11309700000.0 11309700000.0 11309700000.0 11309700000.0 11309700000.0 11309700000.0 11309700000.0 11309700000.0 11309700000.0 11309700000.0 11309700000.0 11309700000.0 11309700000.0 11309700000.0 11309700000.0 11309700000.0 11309700000.0 11309700000.0 11309700000.0 11309700000.0 11309700000.0 11309700000.0 11309700000.0 11309700000.0 11309700000.0 11309700000.0 11309700000.0 11309700000.0 11309700000.0 11309700000.0 11309700000.0 11309700000.0 11309700000.0 11309700000.0 11309700000.0 11309700000.0 11309700000.0 11309700000.0 11309700000.0 11309700000.0 11309700000.0 11309700000.0 11309700000.0 11309700000.0 11309700000.0 11309700000.0 11309700000.0 11309700000.0 11309700000.0 11309700000.0 11309700000.0 11309700000.0 11309700000.0 11309700000.0 11309700000.0 11309700000.0 11309700000.0 11309700000.0 11309700000.0 11309700000.0 11309700000.0 11309700000.0 11309700000.0 11309700000.0 11309700000.0 11309700000.0 11309700000.0 11309700000.0 11309700000.0 11309700000.0 11309700000.0 11309700000.0 11309700000.0 11309700000.0 11309700000.0 11309700000.0 11309700000.0 11309700000.0 11309700000.0 11309700000.0 11309700000.0 11309700000.0 11309700000.0 11309700000.0 11309700000.0 11309700000.0 11309700000.0 11309700000.0 11309700000.0 11309700000.0 11309700000.0 11309700000.0 11309700000.0 11309700000.0 11309700000.0 11309700000.0 11309700000.0 11309700000.0 11309700000.0 11309700000.0 11309700000.0 11309700000.0 11309700000.0 11309700000.0 11309700000.0 11309700000.0 11309700000.0 11309700000.0 11309700000.0 11309700000.0 11309700000.0 11309700000.0 11309700000.0 11309700000.0 11309700000.0 11309700000.0 11309700000.0 11309700000.0 11309700000.0 11309700000.0 11309700000.0 11309700000.0 11309700000.0 11309700000.0 11309700000.0 11309700000.0 11309700000.0 11309700000.0 11309700000.0 11309700000.0 11309700000.0 11309700000.0 11309700000.0 11309700000.0 11309700000.0 11309700000.0 11309700000.0 11309700000.0 11309700000.0 11309700000.0 11309700000.0 11309700000.0 11309700000.0 11309700000.0 11309700000.0 11309700000.0 11309700000.0 11309700000.0 11309700000.0 11309700000.0 11309700000.0 11309700000.0 11309700000.0 11309700000.0 11309700000.0 11309700000.0 11309700000.0 11309700000.0 11309700000.0 11309700000.0 11309700000.0 11309700000.0 11309700000.0 11309700000.0 11309700000.0 11309700000.0 11309700000.0 11309700000.0 11309700000.0 11309700000.0 11309700000.0 11309700000.0 11309700000.0 11309700000.0 11309700000.0 11309700000.0 11309700000.0 11309700000.0 11309700000.0 11309700000.0 11309700000.0 11309700000.0 11309700000.0 11309700000.0 11309700000.0 11309700000.0 11309700000.0 11309700000.0 11309700000.0 11309700000.0 11309700000.0 11309700000.0 11309700000.0 11309700000.0 11309700000.0 11309700000.0 11309700000.0 11309700000.0 11309700000.0 11309700000.0 11309700000.0 11309700000.0 11309700000.0 11309700000.0 11309700000.0 11309700000.0 11309700000.0 11309700000.0 11309700000.0 11309700000.0 11309700000.0 11309700000.0 11309700000.0 11309700000.0 11309700000.0 11309700000.0 11309700000.0 11309700000.0 11309700000.0 11309700000.0 11309700000.0 11309700000.0 11309700000.0 11309700000.0 11309700000.0 11309700000.0 11309700000.0 11309700000.0 11309700000.0 11309700000.0 11309700000.0 11309700000.0 11309700000.0 11309700000.0 11309700000.0 11309700000.0 11309700000.0 11309700000.0 11309700000.0 11309700000.0 11309700000.0 11309700000.0 11309700000.0 11309700000.0 11309700000.0 11309700000.0 11309700000.0 11309700000.0 11309700000.0 11309700000.0 11309700000.0 11309700000.0 11309700000.0 11309700000.0 11309700000.0 11309700000.0 11309700000.0 11309700000.0 11309700000.0 11309700000.0 11309700000.0 11309700000.0 11309700000.0 11309700000.0 11309700000.0 11309700000.0 11309700000.0 11309700000.0 11309700000.0 11309700000.0 11309700000.0 11309700000.0 11309700000.0 11309700000.0 11309700000.0 11309700000.0 11309700000.0 11309700000.0 11309700000.0 11309700000.0 11309700000.0 11309700000.0 11309700000.0 11309700000.0 11309700000.0 11309700000.0 11309700000.0 11309700000.0 11309700000.0 11309700000.0 11309700000.0 11309700000.0 11309700000.0 11309700000.0 11309700000.0 11309700000.0 11309700000.0 11309700000.0 11309700000.0 11309700000.0 11309700000.0 11309700000.0 11309700000.0 11309700000.0 11309700000.0 11309700000.0 11309700000.0 11309700000.0 11309700000.0 11309700000.0 11309700000.0 11309700000.0 11309700000.0 11309700000.0 11309700000.0 11309700000.0 11309700000.0 11309700000.0 11309700000.0 11309700000.0 11309700000.0 11309700000.0 11309700000.0 11309700000.0 11309700000.0 11309700000.0 11309700000.0 11309700000.0 11309700000.0 11309700000.0 11309700000.0 11309700000.0 11309700000.0 11309700000.0 11309700000.0 11309700000.0 11309700000.0 11309700000.0 11309700000.0 11309700000.0 11309700000.0 11309700000.0 11309700000.0 11309700000.0 11309700000.0 11309700000.0 11309700000.0 11309700000.0 11309700000.0 11309700000.0 11309700000.0 11309700000.0 11309700000.0 11309700000.0 11309700000.0 11309700000.0 11309700000.0 11309700000.0 11309700000.0 11309700000.0 11309700000.0 11309700000.0 11309700000.0 11309700000.0 11309700000.0 11309700000.0 11309700000.0 11309700000.0 11309700000.0 11309700000.0 11309700000.0 11309700000.0 11309700000.0 11309700000.0 11309700000.0 11309700000.0 11309700000.0 11309700000.0 11309700000.0 11309700000.0 11309700000.0 11309700000.0 11309700000.0 11309700000.0 11309700000.0 11309700000.0 11309700000.0 11309700000.0 11309700000.0 11309700000.0 11309700000.0 11309700000.0 11309700000.0 11309700000.0 11309700000.0 11309700000.0 11309700000.0 11309700000.0 11309700000.0 11309700000.0 11309700000.0 11309700000.0 11309700000.0 11309700000.0 11309700000.0 11309700000.0 11309700000.0 11309700000.0 11309700000.0 11309700000.0 11309700000.0 11309700000.0 11309700000.0 11309700000.0 11309700000.0 11309700000.0 11309700000.0 11309700000.0 11309700000.0 11309700000.0 11309700000.0 11309700000.0 11309700000.0 11309700000.0 11309700000.0 11309700000.0 11309700000.0 11309700000.0 11309700000.0 11309700000.0 11309700000.0 11309700000.0 11309700000.0 11309700000.0 11309700000.0 11309700000.0 11309700000.0 11309700000.0 11309700000.0 11309700000.0 11309700000.0 11309700000.0 11309700000.0 11309700000.0 11309700000.0 11309700000.0 11309700000.0 11309700000.0 11309700000.0 11309700000.0 11309700000.0 11309700000.0 11309700000.0 11309700000.0 11309700000.0 11309700000.0 11309700000.0 11309700000.0 11309700000.0 11309700000.0 11309700000.0 11309700000.0 11309700000.0 11309700000.0 11309700000.0 11309700000.0 11309700000.0 11309700000.0 11309700000.0 11309700000.0 11309700000.0 11309700000.0 11309700000.0 11309700000.0 11309700000.0 11309700000.0 11309700000.0 11309700000.0 11309700000.0 11309700000.0 11309700000.0 11309700000.0 11309700000.0 11309700000.0 11309700000.0 11309700000.0 11309700000.0 11309700000.0 11309700000.0 11309700000.0 11309700000.0 11309700000.0 11309700000.0 11309700000.0 11309700000.0 11309700000.0 11309700000.0 11309700000.0 11309700000.0 11309700000.0 11309700000.0 11309700000.0 11309700000.0 11309700000.0 11309700000.0 11309700000.0 11309700000.0 11309700000.0 11309700000.0 11309700000.0 11309700000.0 11309700000.0 11309700000.0 11309700000.0 11309700000.0 11309700000.0 11309700000.0 11309700000.0 11309700000.0 11309700000.0 11309700000.0 11309700000.0 11309700000.0 11309700000.0 11309700000.0 11309700000.0 11309700000.0 11309700000.0 11309700000.0 11309700000.0 11309700000.0 11309700000.0 11309700000.0 11309700000.0 11309700000.0 11309700000.0 11309700000.0 11309700000.0 11309700000.0 11309700000.0 11309700000.0 11309700000.0 11309700000.0 11309700000.0 11309700000.0 11309700000.0 11309700000.0 11309700000.0 11309700000.0 11309700000.0 11309700000.0 11309700000.0 11309700000.0 11309700000.0 11309700000.0 11309700000.0 11309700000.0 11309700000.0 11309700000.0 11309700000.0 11309700000.0 11309700000.0 11309700000.0 11309700000.0 11309700000.0 11309700000.0 11309700000.0 11309700000.0 11309700000.0 11309700000.0 11309700000.0 11309700000.0 11309700000.0 11309700000.0 11309700000.0 11309700000.0 11309700000.0 11309700000.0 11309700000.0 11309700000.0 11309700000.0 11309700000.0 11309700000.0 11309700000.0 11309700000.0 11309700000.0 11309700000.0 11309700000.0 11309700000.0 11309700000.0 11309700000.0 11309700000.0 11309700000.0 11309700000.0 11309700000.0 11309700000.0 11309700000.0 11309700000.0 11309700000.0 11309700000.0 11309700000.0 11309700000.0 11309700000.0 11309700000.0 11309700000.0 11309700000.0 11309700000.0 11309700000.0 11309700000.0 11309700000.0 11309700000.0 11309700000.0 11309700000.0 11309700000.0 11309700000.0 11309700000.0 11309700000.0 11309700000.0 11309700000.0 11309700000.0 11309700000.0 11309700000.0 11309700000.0 11309700000.0 11309700000.0 11309700000.0 11309700000.0 11309700000.0 11309700000.0 11309700000.0 11309700000.0 11309700000.0 11309700000.0 11309700000.0 11309700000.0 11309700000.0 11309700000.0 11309700000.0 11309700000.0 11309700000.0 11309700000.0 11309700000.0 11309700000.0 11309700000.0 11309700000.0 11309700000.0 11309700000.0 11309700000.0 11309700000.0 11309700000.0 11309700000.0 11309700000.0 11309700000.0 11309700000.0 11309700000.0 11309700000.0 11309700000.0 11309700000.0 11309700000.0 11309700000.0 11309700000.0 11309700000.0 11309700000.0 11309700000.0 11309700000.0 11309700000.0 11309700000.0 11309700000.0 11309700000.0 11309700000.0 11309700000.0 11309700000.0 11309700000.0 11309700000.0 11309700000.0 11309700000.0 11309700000.0 11309700000.0 11309700000.0 11309700000.0 11309700000.0 11309700000.0 11309700000.0 11309700000.0 11309700000.0 11309700000.0 11309700000.0 11309700000.0 11309700000.0 11309700000.0 11309700000.0 11309700000.0 11309700000.0 11309700000.0 11309700000.0 11309700000.0 11309700000.0 11309700000.0 11309700000.0 11309700000.0 11309700000.0 11309700000.0 11309700000.0 11309700000.0 11309700000.0 11309700000.0 11309700000.0 11309700000.0 11309700000.0 11309700000.0 11309700000.0 11309700000.0 11309700000.0 11309700000.0 11309700000.0 11309700000.0 11309700000.0 11309700000.0 11309700000.0 11309700000.0 11309700000.0 11309700000.0 11309700000.0 11309700000.0 11309700000.0 11309700000.0 11309700000.0 11309700000.0 11309700000.0 11309700000.0 11309700000.0 11309700000.0 11309700000.0 11309700000.0 11309700000.0 11309700000.0 11309700000.0 11309700000.0 11309700000.0 11309700000.0 11309700000.0 11309700000.0 11309700000.0 11309700000.0 11309700000.0 11309700000.0 11309700000.0 11309700000.0 11309700000.0 11309700000.0 11309700000.0 11309700000.0 11309700000.0 11309700000.0 11309700000.0 11309700000.0 11309700000.0 11309700000.0 11309700000.0 11309700000.0 11309700000.0 11309700000.0 11309700000.0 11309700000.0 11309700000.0 11309700000.0 11309700000.0 11309700000.0 11309700000.0 11309700000.0 11309700000.0 11309700000.0 11309700000.0 11309700000.0 11309700000.0 11309700000.0 11309700000.0 11309700000.0 11309700000.0 11309700000.0 11309700000.0 11309700000.0 11309700000.0 11309700000.0 11309700000.0 11309700000.0 11309700000.0 11309700000.0 11309700000.0 11309700000.0 11309700000.0 11309700000.0 11309700000.0 11309700000.0 11309700000.0 11309700000.0 11309700000.0 11309700000.0 11309700000.0 11309700000.0 11309700000.0 11309700000.0 11309700000.0 11309700000.0 11309700000.0 11309700000.0 11309700000.0 11309700000.0 11309700000.0 11309700000.0 11309700000.0 11309700000.0 11309700000.0 11309700000.0 11309700000.0 11309700000.0 11309700000.0 11309700000.0 11309700000.0 11309700000.0 11309700000.0 11309700000.0 11309700000.0 11309700000.0 11309700000.0 11309700000.0 11309700000.0 11309700000.0 11309700000.0 11309700000.0 11309700000.0 11309700000.0 11309700000.0 11309700000.0 11309700000.0 11309700000.0 11309700000.0 11309700000.0 11309700000.0 11309700000.0 11309700000.0 11309700000.0 11309700000.0 11309700000.0 11309700000.0 11309700000.0 11309700000.0 11309700000.0 11309700000.0 11309700000.0 11309700000.0 11309700000.0 11309700000.0 11309700000.0 11309700000.0 11309700000.0 11309700000.0 11309700000.0 11309700000.0 11309700000.0 11309700000.0 11309700000.0 11309700000.0 11309700000.0 11309700000.0 11309700000.0 11309700000.0 11309700000.0 11309700000.0 11309700000.0 11309700000.0 11309700000.0 11309700000.0 11309700000.0 11309700000.0 11309700000.0 11309700000.0 11309700000.0 11309700000.0 11309700000.0 11309700000.0 11309700000.0 11309700000.0 11309700000.0 11309700000.0 11309700000.0 11309700000.0 11309700000.0 11309700000.0 11309700000.0 11309700000.0 11309700000.0 11309700000.0 11309700000.0 11309700000.0 11309700000.0 11309700000.0 11309700000.0 11309700000.0 11309700000.0 11309700000.0 11309700000.0 11309700000.0 11309700000.0 11309700000.0 11309700000.0 11309700000.0 11309700000.0 11309700000.0 11309700000.0 11309700000.0 11309700000.0 11309700000.0 11309700000.0 11309700000.0 11309700000.0 11309700000.0 11309700000.0 11309700000.0 11309700000.0 11309700000.0 11309700000.0 11309700000.0 11309700000.0 11309700000.0 11309700000.0 11309700000.0 11309700000.0 11309700000.0 11309700000.0 11309700000.0 11309700000.0 11309700000.0 11309700000.0 11309700000.0 11309700000.0 11309700000.0 11309700000.0 11309700000.0 11309700000.0 11309700000.0 11309700000.0 11309700000.0 11309700000.0 11309700000.0 11309700000.0 11309700000.0 11309700000.0 11309700000.0 11309700000.0 11309700000.0 11309700000.0 11309700000.0 11309700000.0 11309700000.0 11309700000.0 11309700000.0 11309700000.0 11309700000.0 11309700000.0 11309700000.0 11309700000.0 11309700000.0 11309700000.0 11309700000.0 11309700000.0 11309700000.0 11309700000.0 11309700000.0 11309700000.0 11309700000.0 11309700000.0 11309700000.0 11309700000.0 11309700000.0 11309700000.0 11309700000.0 11309700000.0 11309700000.0 11309700000.0 11309700000.0 11309700000.0 11309700000.0 11309700000.0 11309700000.0 11309700000.0 11309700000.0 11309700000.0 11309700000.0 11309700000.0 11309700000.0 11309700000.0 11309700000.0 11309700000.0 11309700000.0 11309700000.0 11309700000.0 11309700000.0 11309700000.0 11309700000.0 11309700000.0 11309700000.0 11309700000.0 11309700000.0 11309700000.0 11309700000.0 11309700000.0 11309700000.0 11309700000.0 11309700000.0 11309700000.0 11309700000.0 11309700000.0 11309700000.0 11309700000.0 11309700000.0 11309700000.0 11309700000.0 11309700000.0 11309700000.0 11309700000.0 11309700000.0 11309700000.0 11309700000.0 11309700000.0 11309700000.0 11309700000.0 11309700000.0 11309700000.0 11309700000.0 11309700000.0 11309700000.0 11309700000.0 11309700000.0 11309700000.0 11309700000.0 11309700000.0 11309700000.0 11309700000.0 11309700000.0 11309700000.0 11309700000.0 11309700000.0 11309700000.0 11309700000.0 11309700000.0 11309700000.0 11309700000.0 11309700000.0 11309700000.0 11309700000.0 11309700000.0 11309700000.0 11309700000.0 11309700000.0 11309700000.0 11309700000.0 11309700000.0 11309700000.0 11309700000.0 11309700000.0 11309700000.0 11309700000.0 11309700000.0 11309700000.0 11309700000.0 11309700000.0 11309700000.0 11309700000.0 11309700000.0 11309700000.0 11309700000.0 11309700000.0 11309700000.0 11309700000.0 11309700000.0 11309700000.0 11309700000.0 11309700000.0 11309700000.0 11309700000.0 11309700000.0 11309700000.0 11309700000.0 11309700000.0 11309700000.0 11309700000.0 11309700000.0 11309700000.0 11309700000.0 11309700000.0 11309700000.0 11309700000.0 11309700000.0 11309700000.0 11309700000.0 11309700000.0 11309700000.0 11309700000.0 11309700000.0 11309700000.0 11309700000.0 11309700000.0 11309700000.0 11309700000.0 11309700000.0 11309700000.0 11309700000.0 11309700000.0 11309700000.0 11309700000.0 11309700000.0 11309700000.0 11309700000.0 11309700000.0 11309700000.0 11309700000.0 11309700000.0 11309700000.0 11309700000.0 11309700000.0 11309700000.0 11309700000.0 11309700000.0 11309700000.0 11309700000.0 11309700000.0 11309700000.0 11309700000.0 11309700000.0 11309700000.0 11309700000.0 11309700000.0 11309700000.0 11309700000.0 11309700000.0 11309700000.0 11309700000.0 11309700000.0 11309700000.0 11309700000.0 11309700000.0 11309700000.0 11309700000.0 11309700000.0 11309700000.0 11309700000.0 11309700000.0 11309700000.0 11309700000.0 11309700000.0 11309700000.0 11309700000.0 11309700000.0 11309700000.0 11309700000.0 11309700000.0 11309700000.0 11309700000.0 11309700000.0 11309700000.0 11309700000.0 11309700000.0 11309700000.0 11309700000.0 11309700000.0 11309700000.0 11309700000.0 11309700000.0 11309700000.0 11309700000.0 11309700000.0 11309700000.0 11309700000.0 11309700000.0 11309700000.0 11309700000.0 11309700000.0 11309700000.0 11309700000.0 11309700000.0 11309700000.0 11309700000.0 11309700000.0 11309700000.0 11309700000.0 11309700000.0 11309700000.0 11309700000.0 11309700000.0 11309700000.0 11309700000.0 11309700000.0 11309700000.0 11309700000.0 11309700000.0 11309700000.0 11309700000.0 11309700000.0 11309700000.0 11309700000.0 11309700000.0 11309700000.0 11309700000.0 11309700000.0 11309700000.0 11309700000.0 11309700000.0 11309700000.0 11309700000.0 11309700000.0 11309700000.0 11309700000.0 11309700000.0 11309700000.0 11309700000.0 11309700000.0 11309700000.0 11309700000.0 11309700000.0 11309700000.0 11309700000.0 11309700000.0 11309700000.0 11309700000.0 11309700000.0 11309700000.0 11309700000.0 11309700000.0 11309700000.0 11309700000.0 11309700000.0 11309700000.0 11309700000.0 11309700000.0 11309700000.0 11309700000.0 11309700000.0 11309700000.0 11309700000.0 11309700000.0 11309700000.0 11309700000.0 11309700000.0 11309700000.0 11309700000.0 11309700000.0 11309700000.0 11309700000.0 11309700000.0 11309700000.0 11309700000.0 11309700000.0 11309700000.0 11309700000.0 11309700000.0 11309700000.0 11309700000.0 11309700000.0 11309700000.0 11309700000.0 11309700000.0 11309700000.0 11309700000.0 11309700000.0 11309700000.0 11309700000.0 11309700000.0 11309700000.0 11309700000.0 11309700000.0 11309700000.0 11309700000.0 11309700000.0 11309700000.0 11309700000.0 11309700000.0 11309700000.0 11309700000.0 11309700000.0 11309700000.0 11309700000.0 11309700000.0 11309700000.0 11309700000.0 11309700000.0 11309700000.0 11309700000.0 11309700000.0 11309700000.0 11309700000.0 11309700000.0 11309700000.0 11309700000.0 11309700000.0 11309700000.0 11309700000.0 11309700000.0 11309700000.0 11309700000.0 11309700000.0 11309700000.0 11309700000.0 11309700000.0 11309700000.0 11309700000.0 11309700000.0 11309700000.0 11309700000.0 11309700000.0 11309700000.0 11309700000.0 11309700000.0 11309700000.0 11309700000.0 11309700000.0 11309700000.0 11309700000.0 11309700000.0 11309700000.0 11309700000.0 11309700000.0 11309700000.0 11309700000.0 11309700000.0 11309700000.0 11309700000.0 11309700000.0 11309700000.0 11309700000.0 11309700000.0 11309700000.0 11309700000.0 11309700000.0 11309700000.0 11309700000.0 11309700000.0 11309700000.0 11309700000.0 11309700000.0 11309700000.0 11309700000.0 11309700000.0 11309700000.0 11309700000.0 11309700000.0 11309700000.0 11309700000.0 11309700000.0 11309700000.0 11309700000.0 11309700000.0 11309700000.0 11309700000.0 11309700000.0 11309700000.0 11309700000.0 11309700000.0 11309700000.0 11309700000.0 11309700000.0 11309700000.0 11309700000.0 11309700000.0 11309700000.0 11309700000.0 11309700000.0 11309700000.0 11309700000.0 11309700000.0 11309700000.0 11309700000.0 11309700000.0 11309700000.0 11309700000.0 11309700000.0 11309700000.0 11309700000.0 11309700000.0 11309700000.0 11309700000.0 11309700000.0 11309700000.0 11309700000.0 11309700000.0 11309700000.0 11309700000.0 11309700000.0 11309700000.0 11309700000.0 11309700000.0 11309700000.0 11309700000.0 11309700000.0 11309700000.0 11309700000.0 11309700000.0 11309700000.0 11309700000.0 11309700000.0 11309700000.0 11309700000.0 11309700000.0 11309700000.0 11309700000.0 11309700000.0 11309700000.0 11309700000.0 11309700000.0 11309700000.0 11309700000.0 11309700000.0 11309700000.0 11309700000.0 11309700000.0 11309700000.0 11309700000.0 11309700000.0 11309700000.0 11309700000.0 11309700000.0 11309700000.0 11309700000.0 11309700000.0 11309700000.0 11309700000.0 11309700000.0 11309700000.0 11309700000.0 11309700000.0 11309700000.0 11309700000.0 11309700000.0 11309700000.0 11309700000.0 11309700000.0 11309700000.0 11309700000.0 11309700000.0 11309700000.0 11309700000.0 11309700000.0 11309700000.0 11309700000.0 11309700000.0 11309700000.0 11309700000.0 11309700000.0 11309700000.0 11309700000.0 11309700000.0 11309700000.0 11309700000.0 11309700000.0 11309700000.0 11309700000.0 11309700000.0 11309700000.0 11309700000.0 11309700000.0 11309700000.0 11309700000.0 11309700000.0 11309700000.0 11309700000.0 11309700000.0 11309700000.0 11309700000.0 11309700000.0 11309700000.0 11309700000.0 11309700000.0 11309700000.0 11309700000.0 11309700000.0 11309700000.0 11309700000.0 11309700000.0 11309700000.0 11309700000.0 11309700000.0 11309700000.0 11309700000.0 11309700000.0 11309700000.0 11309700000.0 11309700000.0 11309700000.0 11309700000.0 11309700000.0 11309700000.0 11309700000.0 11309700000.0 11309700000.0 11309700000.0 11309700000.0 11309700000.0 11309700000.0 11309700000.0 11309700000.0 11309700000.0 11309700000.0 11309700000.0 11309700000.0 11309700000.0 11309700000.0 11309700000.0 11309700000.0 11309700000.0 11309700000.0 11309700000.0 11309700000.0 11309700000.0 11309700000.0 11309700000.0 11309700000.0 11309700000.0 11309700000.0 11309700000.0 11309700000.0 11309700000.0 11309700000.0 11309700000.0 11309700000.0 11309700000.0 11309700000.0 11309700000.0 11309700000.0 11309700000.0 11309700000.0 11309700000.0 11309700000.0 11309700000.0 11309700000.0 11309700000.0 11309700000.0 11309700000.0 11309700000.0 11309700000.0 11309700000.0 11309700000.0 11309700000.0 11309700000.0 11309700000.0 11309700000.0 11309700000.0 11309700000.0 11309700000.0 11309700000.0 11309700000.0 11309700000.0 11309700000.0 11309700000.0 11309700000.0 11309700000.0 11309700000.0 11309700000.0 11309700000.0 11309700000.0 11309700000.0 11309700000.0 11309700000.0 11309700000.0 11309700000.0 11309700000.0 11309700000.0 11309700000.0 11309700000.0 11309700000.0 11309700000.0 11309700000.0 11309700000.0 11309700000.0 11309700000.0 11309700000.0 11309700000.0 11309700000.0 11309700000.0 11309700000.0 11309700000.0 11309700000.0 11309700000.0 11309700000.0 11309700000.0 11309700000.0 11309700000.0 11309700000.0 11309700000.0 11309700000.0 11309700000.0 11309700000.0 11309700000.0 11309700000.0 11309700000.0 11309700000.0 11309700000.0 11309700000.0 11309700000.0 11309700000.0 11309700000.0 11309700000.0 11309700000.0 11309700000.0 11309700000.0 11309700000.0 11309700000.0 11309700000.0 11309700000.0 11309700000.0 11309700000.0 11309700000.0 11309700000.0 11309700000.0 11309700000.0 11309700000.0 11309700000.0 11309700000.0 11309700000.0 11309700000.0 11309700000.0 11309700000.0 11309700000.0 11309700000.0 11309700000.0 11309700000.0 11309700000.0 11309700000.0 11309700000.0 11309700000.0 11309700000.0 11309700000.0 11309700000.0 11309700000.0 11309700000.0 11309700000.0 11309700000.0 11309700000.0 11309700000.0 11309700000.0 11309700000.0 11309700000.0 11309700000.0 11309700000.0 11309700000.0 11309700000.0 11309700000.0 11309700000.0 11309700000.0 11309700000.0 11309700000.0 11309700000.0 11309700000.0 11309700000.0 11309700000.0 11309700000.0 11309700000.0 11309700000.0 11309700000.0 11309700000.0 11309700000.0 11309700000.0 11309700000.0 11309700000.0 11309700000.0 11309700000.0 11309700000.0 11309700000.0 11309700000.0 11309700000.0 11309700000.0 11309700000.0 11309700000.0 11309700000.0 11309700000.0 11309700000.0 11309700000.0 11309700000.0 11309700000.0 11309700000.0 11309700000.0 11309700000.0 11309700000.0 11309700000.0 11309700000.0 11309700000.0 11309700000.0 11309700000.0 11309700000.0 11309700000.0 11309700000.0 11309700000.0 11309700000.0 11309700000.0 11309700000.0 11309700000.0 11309700000.0 11309700000.0 11309700000.0 11309700000.0 11309700000.0 11309700000.0 11309700000.0 11309700000.0 11309700000.0 11309700000.0 11309700000.0 11309700000.0 11309700000.0 11309700000.0 11309700000.0 11309700000.0 11309700000.0 11309700000.0 11309700000.0 11309700000.0 11309700000.0 11309700000.0 11309700000.0 11309700000.0 11309700000.0 11309700000.0 11309700000.0 11309700000.0 11309700000.0 11309700000.0 11309700000.0 11309700000.0 11309700000.0 11309700000.0 11309700000.0 11309700000.0 11309700000.0 11309700000.0 11309700000.0 11309700000.0 11309700000.0 11309700000.0 11309700000.0 11309700000.0 11309700000.0 11309700000.0 11309700000.0 11309700000.0 11309700000.0 11309700000.0 11309700000.0 11309700000.0 11309700000.0 11309700000.0 11309700000.0 11309700000.0 11309700000.0 11309700000.0 11309700000.0 11309700000.0 11309700000.0 11309700000.0 11309700000.0 11309700000.0 11309700000.0 11309700000.0 11309700000.0 11309700000.0 11309700000.0 11309700000.0 11309700000.0 11309700000.0 11309700000.0 11309700000.0 11309700000.0 11309700000.0 11309700000.0 11309700000.0 11309700000.0 11309700000.0 11309700000.0 11309700000.0 11309700000.0 11309700000.0 11309700000.0 11309700000.0 11309700000.0 11309700000.0 11309700000.0 11309700000.0 11309700000.0 11309700000.0 11309700000.0 11309700000.0 11309700000.0 11309700000.0 11309700000.0 11309700000.0 11309700000.0 11309700000.0 11309700000.0 11309700000.0 11309700000.0 11309700000.0 11309700000.0 11309700000.0 11309700000.0 11309700000.0 11309700000.0 11309700000.0 11309700000.0 11309700000.0 11309700000.0 11309700000.0 11309700000.0 11309700000.0 11309700000.0 11309700000.0 11309700000.0 11309700000.0 11309700000.0 11309700000.0 11309700000.0 11309700000.0 11309700000.0 11309700000.0 11309700000.0 11309700000.0 11309700000.0 11309700000.0 11309700000.0 11309700000.0 11309700000.0 11309700000.0 11309700000.0 11309700000.0 11309700000.0 11309700000.0 11309700000.0 11309700000.0 11309700000.0 11309700000.0 11309700000.0 11309700000.0 11309700000.0 11309700000.0 11309700000.0 11309700000.0 11309700000.0 11309700000.0 11309700000.0 11309700000.0 11309700000.0 11309700000.0 11309700000.0 11309700000.0 11309700000.0 11309700000.0 11309700000.0 11309700000.0 11309700000.0 11309700000.0 11309700000.0 11309700000.0 11309700000.0 11309700000.0 11309700000.0 11309700000.0 11309700000.0 11309700000.0 11309700000.0 11309700000.0 11309700000.0 11309700000.0 11309700000.0 11309700000.0 11309700000.0 11309700000.0 11309700000.0 11309700000.0 11309700000.0 11309700000.0 11309700000.0 11309700000.0 11309700000.0 11309700000.0 11309700000.0 11309700000.0 11309700000.0 11309700000.0 11309700000.0 11309700000.0 11309700000.0 11309700000.0 11309700000.0 11309700000.0 11309700000.0 11309700000.0 11309700000.0 11309700000.0 11309700000.0 11309700000.0 11309700000.0 11309700000.0 11309700000.0 11309700000.0 11309700000.0 11309700000.0 11309700000.0 11309700000.0 11309700000.0 11309700000.0 11309700000.0 11309700000.0 11309700000.0 11309700000.0 11309700000.0 11309700000.0 11309700000.0 11309700000.0 11309700000.0 11309700000.0 11309700000.0 11309700000.0 11309700000.0 11309700000.0 11309700000.0 11309700000.0 11309700000.0 11309700000.0 11309700000.0 11309700000.0 11309700000.0 11309700000.0 11309700000.0 11309700000.0 11309700000.0 11309700000.0 11309700000.0 11309700000.0 11309700000.0 11309700000.0 11309700000.0 11309700000.0 11309700000.0 11309700000.0 11309700000.0 11309700000.0 11309700000.0 11309700000.0 11309700000.0 11309700000.0 11309700000.0 11309700000.0 11309700000.0 11309700000.0 11309700000.0 11309700000.0 11309700000.0 11309700000.0 11309700000.0 11309700000.0 11309700000.0 11309700000.0 11309700000.0 11309700000.0 11309700000.0 11309700000.0 11309700000.0 11309700000.0 11309700000.0 11309700000.0 11309700000.0 11309700000.0 11309700000.0 11309700000.0 11309700000.0 11309700000.0 11309700000.0 11309700000.0 11309700000.0 11309700000.0 11309700000.0 11309700000.0 11309700000.0 11309700000.0 11309700000.0 11309700000.0 11309700000.0 11309700000.0 11309700000.0 11309700000.0 11309700000.0 11309700000.0 11309700000.0 11309700000.0 11309700000.0 11309700000.0 11309700000.0 11309700000.0 11309700000.0 11309700000.0 11309700000.0 11309700000.0 11309700000.0 11309700000.0 11309700000.0 11309700000.0 11309700000.0 11309700000.0 11309700000.0 11309700000.0 11309700000.0 11309700000.0 11309700000.0 11309700000.0 11309700000.0 11309700000.0 11309700000.0 11309700000.0 11309700000.0 11309700000.0 11309700000.0 11309700000.0 11309700000.0 11309700000.0 11309700000.0 11309700000.0 11309700000.0 11309700000.0 11309700000.0 11309700000.0 11309700000.0 11309700000.0 11309700000.0 11309700000.0 11309700000.0 11309700000.0 11309700000.0 11309700000.0 11309700000.0 11309700000.0 11309700000.0 11309700000.0 11309700000.0 11309700000.0 11309700000.0 11309700000.0 11309700000.0 11309700000.0 11309700000.0 11309700000.0 11309700000.0 11309700000.0 11309700000.0 11309700000.0 11309700000.0 11309700000.0 11309700000.0 11309700000.0 11309700000.0 11309700000.0 11309700000.0 11309700000.0 11309700000.0 11309700000.0 11309700000.0 11309700000.0 11309700000.0 11309700000.0 11309700000.0 11309700000.0 11309700000.0 11309700000.0 11309700000.0 11309700000.0 11309700000.0 11309700000.0 11309700000.0 11309700000.0 11309700000.0 11309700000.0 11309700000.0 11309700000.0 11309700000.0 11309700000.0 11309700000.0 11309700000.0 11309700000.0 11309700000.0 11309700000.0 11309700000.0 11309700000.0 11309700000.0 11309700000.0 11309700000.0 11309700000.0 11309700000.0 11309700000.0 11309700000.0 11309700000.0 11309700000.0 11309700000.0 11309700000.0 11309700000.0 11309700000.0 11309700000.0 11309700000.0 11309700000.0 11309700000.0 11309700000.0 11309700000.0 11309700000.0 11309700000.0 11309700000.0 11309700000.0 11309700000.0 11309700000.0 11309700000.0 11309700000.0 11309700000.0 11309700000.0 11309700000.0 11309700000.0 11309700000.0 11309700000.0 11309700000.0 11309700000.0 11309700000.0 11309700000.0 11309700000.0 11309700000.0 11309700000.0 11309700000.0 11309700000.0 11309700000.0 11309700000.0 11309700000.0 11309700000.0 11309700000.0 11309700000.0 11309700000.0 11309700000.0 11309700000.0 11309700000.0 11309700000.0 11309700000.0 11309700000.0 11309700000.0 11309700000.0 11309700000.0 11309700000.0 11309700000.0 11309700000.0 11309700000.0 11309700000.0 11309700000.0 11309700000.0 11309700000.0 11309700000.0 11309700000.0 11309700000.0 11309700000.0 11309700000.0 11309700000.0 11309700000.0 11309700000.0 11309700000.0 11309700000.0 11309700000.0 11309700000.0 11309700000.0 11309700000.0 11309700000.0 11309700000.0 11309700000.0 11309700000.0 11309700000.0 11309700000.0 11309700000.0 11309700000.0 11309700000.0 11309700000.0 11309700000.0 11309700000.0 11309700000.0 11309700000.0 11309700000.0 11309700000.0 11309700000.0 11309700000.0 11309700000.0 11309700000.0 11309700000.0 11309700000.0 11309700000.0 11309700000.0 11309700000.0 11309700000.0 11309700000.0 11309700000.0 11309700000.0 11309700000.0 11309700000.0 11309700000.0 11309700000.0 11309700000.0 11309700000.0 11309700000.0 11309700000.0 11309700000.0 11309700000.0 11309700000.0 11309700000.0 11309700000.0 11309700000.0 11309700000.0 11309700000.0 11309700000.0 11309700000.0 11309700000.0 11309700000.0 11309700000.0 11309700000.0 11309700000.0 11309700000.0 11309700000.0 11309700000.0 11309700000.0 11309700000.0 11309700000.0 11309700000.0 11309700000.0 11309700000.0 11309700000.0 11309700000.0 11309700000.0 11309700000.0 11309700000.0 11309700000.0 11309700000.0 11309700000.0 11309700000.0 11309700000.0 11309700000.0 11309700000.0 11309700000.0 11309700000.0 11309700000.0 11309700000.0 11309700000.0 11309700000.0 11309700000.0 11309700000.0 11309700000.0 11309700000.0 11309700000.0 11309700000.0 11309700000.0 11309700000.0 11309700000.0 11309700000.0 11309700000.0 11309700000.0 11309700000.0 11309700000.0 11309700000.0 11309700000.0 11309700000.0 11309700000.0 11309700000.0 11309700000.0 11309700000.0 11309700000.0 11309700000.0 11309700000.0 11309700000.0 11309700000.0 11309700000.0 11309700000.0 11309700000.0 11309700000.0 11309700000.0 11309700000.0 11309700000.0 11309700000.0 11309700000.0 11309700000.0 11309700000.0 11309700000.0 11309700000.0 11309700000.0 11309700000.0 11309700000.0 11309700000.0 11309700000.0 11309700000.0 11309700000.0 11309700000.0 11309700000.0 11309700000.0 11309700000.0 11309700000.0 11309700000.0 11309700000.0 11309700000.0 11309700000.0 11309700000.0 11309700000.0 11309700000.0 11309700000.0 11309700000.0 11309700000.0 11309700000.0 11309700000.0 11309700000.0 11309700000.0 11309700000.0 11309700000.0 11309700000.0 11309700000.0 11309700000.0 11309700000.0 11309700000.0 11309700000.0 11309700000.0 11309700000.0 11309700000.0 11309700000.0 11309700000.0 11309700000.0 11309700000.0 11309700000.0 11309700000.0 11309700000.0 11309700000.0 11309700000.0 11309700000.0 11309700000.0 11309700000.0 11309700000.0 11309700000.0 11309700000.0 11309700000.0 11309700000.0 11309700000.0 11309700000.0 11309700000.0 11309700000.0 11309700000.0 11309700000.0 11309700000.0 11309700000.0 11309700000.0 11309700000.0 11309700000.0 11309700000.0 11309700000.0 11309700000.0 11309700000.0 11309700000.0 11309700000.0 11309700000.0 11309700000.0 11309700000.0 11309700000.0 11309700000.0 11309700000.0 11309700000.0 11309700000.0 11309700000.0 11309700000.0 11309700000.0 11309700000.0 11309700000.0 11309700000.0 11309700000.0 11309700000.0 11309700000.0 11309700000.0 11309700000.0 11309700000.0 11309700000.0 11309700000.0 11309700000.0 11309700000.0 11309700000.0 11309700000.0 11309700000.0 11309700000.0 11309700000.0 11309700000.0 11309700000.0 11309700000.0 11309700000.0 11309700000.0 11309700000.0 11309700000.0 11309700000.0 11309700000.0 11309700000.0 11309700000.0 11309700000.0 11309700000.0 11309700000.0 11309700000.0 11309700000.0 11309700000.0 11309700000.0 11309700000.0 11309700000.0 11309700000.0 11309700000.0 11309700000.0 11309700000.0 11309700000.0 11309700000.0 11309700000.0 11309700000.0 11309700000.0 11309700000.0 11309700000.0 11309700000.0 11309700000.0 11309700000.0 11309700000.0 11309700000.0 11309700000.0 11309700000.0 11309700000.0 11309700000.0 11309700000.0 11309700000.0 11309700000.0 11309700000.0 11309700000.0 11309700000.0 11309700000.0 11309700000.0 11309700000.0 11309700000.0 11309700000.0 11309700000.0 11309700000.0 11309700000.0 11309700000.0 11309700000.0 11309700000.0 11309700000.0 11309700000.0 11309700000.0 11309700000.0 11309700000.0 11309700000.0 11309700000.0 11309700000.0 11309700000.0 11309700000.0 11309700000.0 11309700000.0 11309700000.0 11309700000.0 11309700000.0 11309700000.0 11309700000.0 11309700000.0 11309700000.0 11309700000.0 11309700000.0 11309700000.0 11309700000.0 11309700000.0 11309700000.0 11309700000.0 11309700000.0 11309700000.0 11309700000.0 11309700000.0 11309700000.0 11309700000.0 11309700000.0 11309700000.0 11309700000.0 11309700000.0 11309700000.0 11309700000.0 11309700000.0 11309700000.0 11309700000.0 11309700000.0 11309700000.0 11309700000.0 11309700000.0 11309700000.0 11309700000.0 11309700000.0 11309700000.0 11309700000.0 11309700000.0 11309700000.0 11309700000.0 11309700000.0 11309700000.0 11309700000.0 11309700000.0 11309700000.0 11309700000.0 11309700000.0 11309700000.0 11309700000.0 11309700000.0 11309700000.0 11309700000.0 11309700000.0 11309700000.0 11309700000.0 11309700000.0 11309700000.0 11309700000.0 11309700000.0 11309700000.0 11309700000.0 11309700000.0 11309700000.0 11309700000.0 11309700000.0 11309700000.0 11309700000.0 11309700000.0 11309700000.0 11309700000.0 11309700000.0 11309700000.0 11309700000.0 11309700000.0 11309700000.0 11309700000.0 11309700000.0 11309700000.0 11309700000.0 11309700000.0 11309700000.0 11309700000.0 11309700000.0 11309700000.0 11309700000.0 11309700000.0 11309700000.0 11309700000.0 11309700000.0 11309700000.0 11309700000.0 11309700000.0 11309700000.0 11309700000.0 11309700000.0 11309700000.0 11309700000.0 11309700000.0 11309700000.0 11309700000.0 11309700000.0 11309700000.0 11309700000.0 11309700000.0 11309700000.0 11309700000.0 11309700000.0 11309700000.0 11309700000.0 11309700000.0 11309700000.0 11309700000.0 11309700000.0 11309700000.0 11309700000.0 11309700000.0 11309700000.0 11309700000.0 11309700000.0 11309700000.0 11309700000.0 11309700000.0 11309700000.0 11309700000.0 11309700000.0 11309700000.0 11309700000.0 11309700000.0 11309700000.0 11309700000.0 11309700000.0 11309700000.0 11309700000.0 11309700000.0 11309700000.0 11309700000.0 11309700000.0 11309700000.0 11309700000.0 11309700000.0 11309700000.0 11309700000.0 11309700000.0 11309700000.0 11309700000.0 11309700000.0 11309700000.0 11309700000.0 11309700000.0 11309700000.0 11309700000.0 11309700000.0 11309700000.0 11309700000.0 11309700000.0 11309700000.0 11309700000.0 11309700000.0 11309700000.0 11309700000.0 11309700000.0 11309700000.0 11309700000.0 11309700000.0 11309700000.0 11309700000.0 11309700000.0 11309700000.0 11309700000.0 11309700000.0 11309700000.0 11309700000.0 11309700000.0 11309700000.0 11309700000.0 11309700000.0 11309700000.0 11309700000.0 11309700000.0 11309700000.0 11309700000.0 11309700000.0 11309700000.0 11309700000.0 11309700000.0 11309700000.0 11309700000.0 11309700000.0 11309700000.0 11309700000.0 11309700000.0 11309700000.0 11309700000.0 11309700000.0 11309700000.0 11309700000.0 11309700000.0 11309700000.0 11309700000.0 11309700000.0 11309700000.0 11309700000.0 11309700000.0 11309700000.0 11309700000.0 11309700000.0 11309700000.0 11309700000.0 11309700000.0 11309700000.0 11309700000.0 11309700000.0 11309700000.0 11309700000.0 11309700000.0 11309700000.0 11309700000.0 11309700000.0 11309700000.0 11309700000.0 11309700000.0 11309700000.0 11309700000.0 11309700000.0 11309700000.0 11309700000.0 11309700000.0 11309700000.0 11309700000.0 11309700000.0 11309700000.0 11309700000.0 11309700000.0 11309700000.0 11309700000.0 11309700000.0 11309700000.0 11309700000.0 11309700000.0 11309700000.0 11309700000.0 11309700000.0 11309700000.0 11309700000.0 11309700000.0 11309700000.0 11309700000.0 11309700000.0 11309700000.0 11309700000.0 11309700000.0 11309700000.0 11309700000.0 11309700000.0 11309700000.0 11309700000.0 11309700000.0 11309700000.0 11309700000.0 11309700000.0 11309700000.0 11309700000.0 11309700000.0 11309700000.0 11309700000.0 11309700000.0 11309700000.0 11309700000.0 11309700000.0 11309700000.0 11309700000.0 11309700000.0 11309700000.0 11309700000.0 11309700000.0 11309700000.0 11309700000.0 11309700000.0 11309700000.0 11309700000.0 11309700000.0 11309700000.0 11309700000.0 11309700000.0 11309700000.0 11309700000.0 11309700000.0 11309700000.0 11309700000.0 11309700000.0 11309700000.0 11309700000.0 11309700000.0 11309700000.0 11309700000.0 11309700000.0 11309700000.0 11309700000.0 11309700000.0 11309700000.0 11309700000.0 11309700000.0 11309700000.0 11309700000.0 11309700000.0 11309700000.0 11309700000.0 11309700000.0 11309700000.0 11309700000.0 11309700000.0 11309700000.0 11309700000.0 11309700000.0 11309700000.0 11309700000.0 11309700000.0 11309700000.0 11309700000.0 11309700000.0 11309700000.0 11309700000.0 11309700000.0 11309700000.0 11309700000.0 11309700000.0 11309700000.0 11309700000.0 11309700000.0 11309700000.0 11309700000.0 11309700000.0 11309700000.0 11309700000.0 11309700000.0 11309700000.0 11309700000.0 11309700000.0 11309700000.0 11309700000.0 11309700000.0 11309700000.0 11309700000.0 11309700000.0 11309700000.0 11309700000.0 11309700000.0 11309700000.0 11309700000.0 11309700000.0 11309700000.0 11309700000.0 11309700000.0 11309700000.0 11309700000.0 11309700000.0 11309700000.0 11309700000.0 11309700000.0 11309700000.0 11309700000.0 11309700000.0 11309700000.0 11309700000.0 11309700000.0 11309700000.0 11309700000.0 11309700000.0 11309700000.0 11309700000.0 11309700000.0 11309700000.0 11309700000.0 11309700000.0 11309700000.0 11309700000.0 11309700000.0 11309700000.0 11309700000.0 11309700000.0 11309700000.0 11309700000.0 11309700000.0 11309700000.0 11309700000.0 11309700000.0 11309700000.0 11309700000.0 11309700000.0 11309700000.0 11309700000.0 11309700000.0 11309700000.0 11309700000.0 11309700000.0 11309700000.0 11309700000.0 11309700000.0 11309700000.0 11309700000.0 11309700000.0 11309700000.0 11309700000.0 11309700000.0 11309700000.0 11309700000.0 11309700000.0 11309700000.0 11309700000.0 11309700000.0 11309700000.0 11309700000.0 11309700000.0 11309700000.0 11309700000.0 11309700000.0 11309700000.0 11309700000.0 11309700000.0 11309700000.0 11309700000.0 11309700000.0 11309700000.0 11309700000.0 11309700000.0 11309700000.0 11309700000.0 11309700000.0 11309700000.0 11309700000.0 11309700000.0 11309700000.0 11309700000.0 11309700000.0 11309700000.0 11309700000.0 11309700000.0 11309700000.0 11309700000.0 11309700000.0 11309700000.0 11309700000.0 11309700000.0 11309700000.0 11309700000.0 11309700000.0 11309700000.0 11309700000.0 11309700000.0 11309700000.0 11309700000.0 11309700000.0 11309700000.0 11309700000.0 11309700000.0 11309700000.0 11309700000.0 11309700000.0 11309700000.0 11309700000.0 11309700000.0 11309700000.0 11309700000.0 11309700000.0 11309700000.0 11309700000.0 11309700000.0 11309700000.0 11309700000.0 11309700000.0 11309700000.0 11309700000.0 11309700000.0 11309700000.0 11309700000.0 11309700000.0 11309700000.0 11309700000.0 11309700000.0 11309700000.0 11309700000.0 11309700000.0 11309700000.0 11309700000.0 11309700000.0 11309700000.0 11309700000.0 11309700000.0 11309700000.0 11309700000.0 11309700000.0 11309700000.0 11309700000.0 11309700000.0 11309700000.0 11309700000.0 11309700000.0 11309700000.0 11309700000.0 11309700000.0 11309700000.0 11309700000.0 11309700000.0 11309700000.0 11309700000.0 11309700000.0 11309700000.0 11309700000.0 11309700000.0 11309700000.0 11309700000.0 11309700000.0 11309700000.0 11309700000.0 11309700000.0 11309700000.0 11309700000.0 11309700000.0 11309700000.0 11309700000.0 11309700000.0 11309700000.0 11309700000.0 11309700000.0 11309700000.0 11309700000.0 11309700000.0 11309700000.0 11309700000.0 11309700000.0 11309700000.0 11309700000.0 11309700000.0 11309700000.0 11309700000.0 11309700000.0 11309700000.0 11309700000.0 11309700000.0 11309700000.0 11309700000.0 11309700000.0 11309700000.0 11309700000.0 11309700000.0 11309700000.0 11309700000.0 11309700000.0 11309700000.0 11309700000.0 11309700000.0 11309700000.0 11309700000.0 11309700000.0 11309700000.0 11309700000.0 11309700000.0 11309700000.0 11309700000.0 11309700000.0 11309700000.0 11309700000.0 11309700000.0 11309700000.0 11309700000.0 11309700000.0 11309700000.0 11309700000.0 11309700000.0 11309700000.0 11309700000.0 11309700000.0 11309700000.0 11309700000.0 11309700000.0 11309700000.0 11309700000.0 11309700000.0 11309700000.0 11309700000.0 11309700000.0 11309700000.0 11309700000.0 11309700000.0 11309700000.0 11309700000.0 11309700000.0 11309700000.0 11309700000.0 11309700000.0 11309700000.0 11309700000.0 11309700000.0 11309700000.0 11309700000.0 11309700000.0 11309700000.0 11309700000.0 11309700000.0 11309700000.0 11309700000.0 11309700000.0 11309700000.0 11309700000.0 11309700000.0 11309700000.0 11309700000.0 11309700000.0 11309700000.0 11309700000.0 11309700000.0 11309700000.0 11309700000.0 11309700000.0 11309700000.0 11309700000.0 11309700000.0 11309700000.0 11309700000.0 11309700000.0 11309700000.0 11309700000.0 11309700000.0 11309700000.0 11309700000.0 11309700000.0 11309700000.0 11309700000.0 11309700000.0 11309700000.0 11309700000.0 11309700000.0 11309700000.0 11309700000.0 11309700000.0 11309700000.0 11309700000.0 11309700000.0 11309700000.0 11309700000.0 11309700000.0 11309700000.0 11309700000.0 11309700000.0 11309700000.0 11309700000.0 11309700000.0 11309700000.0 11309700000.0 11309700000.0 11309700000.0 11309700000.0 11309700000.0 11309700000.0 11309700000.0 11309700000.0 11309700000.0 11309700000.0 11309700000.0 11309700000.0 11309700000.0 11309700000.0 11309700000.0 11309700000.0 11309700000.0 11309700000.0 11309700000.0 11309700000.0 11309700000.0 11309700000.0 11309700000.0 11309700000.0 11309700000.0 11309700000.0 11309700000.0 11309700000.0 11309700000.0 11309700000.0 11309700000.0 11309700000.0 11309700000.0 11309700000.0 11309700000.0 11309700000.0 11309700000.0 11309700000.0 
SCALARS Velocity float 1
LOOKUP_TABLE default
1.23142 1.23142 1.11859 1.24397 1.25098 1.25098 1.24397 1.11859 1.17547 1.25632 1.03229 1.18891 1.0989 1.20603 1.20114 1.23682 1.35532 1.35532 1.23682 1.20114 1.20603 1.09889 1.18891 1.03229 1.25632 1.17547 1.23037 1.23664 1.27116 1.1547 1.21515 1.20085 1.24363 1.41241 0.890729 1.41241 1.24363 1.20085 1.21515 1.1547 1.27116 1.23664 1.23037 0.742721 1.10104 1.30339 1.30805 1.04928 1.11736 1.21928 1.25713 1.33141 1.40837 0.972938 0.965963 0.992584 0.965963 0.972938 1.40837 1.33141 1.25713 1.21928 1.11736 1.04928 1.30805 1.30339 1.10104 0.742721 0.742746 0.758406 1.26873 1.53377 0.927987 1.12105 1.20381 1.19753 1.36445 0.946681 0.98578 0.98578 0.946681 1.36445 1.19753 1.20381 1.12105 0.927987 1.53377 1.26873 0.758406 0.742746 0.673665 0.681404 0.662557 1.59067 0.98353 0.987874 1.22771 1.25218 1.2778 1.04002 0.990042 0.995121 0.990042 1.04002 1.2778 1.25218 1.22771 0.987874 0.98353 1.59067 0.662557 0.681404 0.673665 0.72085 0.626625 0.48126 0.997973 0.964564 1.00496 1.31339 1.16839 0.966036 1.02145 1.04454 1.0468 1.01524 0.996296 1.00086 0.996296 1.01524 1.0468 1.04454 1.02145 0.966035 1.16839 1.31339 1.00496 0.964564 0.997972 0.48126 0.626625 0.72085 0.807818 0.669914 0.610923 0.566107 0.595449 0.726926 0.776664 0.956119 0.960535 0.99758 1.00406 0.995332 0.895017 1.01397 1.04161 1.01188 1.01188 1.04161 1.01397 0.895017 0.995332 1.00406 0.99758 0.960535 0.956118 0.776664 0.726926 0.595449 0.566107 0.610924 0.669914 0.807818 0.127235 0.592229 0.768032 0.720503 0.678438 0.771712 0.892433 0.99089 0.931847 0.97352 1.05795 1.0281 1.01179 1.0281 1.05795 0.97352 0.931847 0.99089 0.892433 0.771712 0.678438 0.720503 0.768032 0.592228 0.127235 0.181703 0.0408522 0.165934 0.653451 0.724044 0.805843 0.814606 0.857776 0.971112 0.973494 0.970069 0.91899 0.895299 0.952568 1.01153 1.06352 1.04092 1.02227 1.02227 1.04092 1.06352 1.01153 0.952568 0.895299 0.91899 0.970069 0.973494 0.971112 0.857776 0.814606 0.805843 0.724044 0.653451 0.165934 0.0408525 0.181703 0.28441 0.217118 0.448663 0.536463 0.744732 0.808031 0.760278 0.839438 0.903235 0.941491 0.972884 0.957029 0.931894 1.00404 1.00405 1.01416 1.04428 1.02232 1.04428 1.01416 1.00405 1.00404 0.931894 0.957029 0.972884 0.941491 0.903236 0.839438 0.760278 0.808031 0.744732 0.536463 0.448663 0.217118 0.28441 0.357038 0.293461 0.346846 0.327431 0.47729 0.668134 0.76632 0.854402 0.967666 0.975062 0.956436 0.972649 1.08854 1.01719 1.02739 1.01719 1.08854 0.972649 0.956436 0.975062 0.967666 0.854402 0.76632 0.668134 0.47729 0.327431 0.346846 0.293461 0.357038 0.407056 0.406184 0.357459 0.384333 0.439637 0.580042 0.703701 0.826162 0.819995 0.751763 0.784153 0.943579 0.933043 0.962512 0.976619 0.97694 0.990384 0.96934 1.03268 1.03907 1.05873 1.03356 1.01605 1.09806 1.09806 1.01605 1.03356 1.05873 1.03907 1.03268 0.96934 0.990384 0.97694 0.976619 0.962512 0.933043 0.943579 0.784152 0.751763 0.819995 0.826162 0.703701 0.580042 0.439638 0.384333 0.357459 0.406184 0.407056 0.459554 0.439843 0.43917 0.42025 0.441401 0.52149 0.546089 0.640379 0.783131 0.747321 0.890339 0.905581 0.954656 0.991454 1.01889 1.04574 0.999939 1.1186 0.99817 1.1186 0.999939 1.04574 1.01889 0.991454 0.954656 0.905581 0.89034 0.747321 0.783131 0.64038 0.546089 0.52149 0.441401 0.420251 0.43917 0.439843 0.459554 0.470109 0.459654 0.447997 0.470748 0.455718 0.511731 0.606536 0.729405 0.820558 0.845782 0.84901 0.903354 0.918129 0.976843 1.005 1.03913 1.01349 0.994197 0.945149 0.945151 0.994197 1.01349 1.03913 1.005 0.976843 0.918129 0.903354 0.84901 0.845782 0.820558 0.729405 0.606536 0.511731 0.455719 0.470748 0.447997 0.459654 0.470109 0.475799 0.477905 0.471356 0.479023 0.466734 0.48356 0.510362 0.580681 0.651514 0.685464 0.758141 0.800952 0.848137 0.887255 0.897365 0.947041 0.979396 0.995225 0.999985 1.02563 0.984904 1.00279 0.967156 0.959189 0.910589 0.838437 0.887086 0.838437 0.910589 0.959189 0.967156 1.00279 0.984904 1.02563 0.999985 0.995225 0.979396 0.947041 0.897364 0.887255 0.848137 0.800952 0.758141 0.685464 0.651514 0.580681 0.510362 0.48356 0.466734 0.479023 0.471356 0.477905 0.475799 0.477422 0.482614 0.485971 0.492781 0.513167 0.554891 0.563853 0.623704 0.717005 0.81446 0.870337 0.903135 0.902976 0.920307 0.952566 0.99874 0.98795 0.952747 0.882255 0.81033 0.787373 0.824095 0.787373 0.810329 0.882255 0.952746 0.98795 0.99874 0.952566 0.920307 0.902975 0.903135 0.870337 0.81446 0.717006 0.623704 0.563853 0.554891 0.513168 0.492781 0.485971 0.482614 0.477422 0.469953 0.47659 0.481974 0.490786 0.503903 0.500255 0.520101 0.516465 0.550369 0.604078 0.682743 0.774038 0.848179 0.861004 0.890718 0.903646 0.940526 0.994588 1.00597 0.944375 0.903086 0.776768 0.803815 0.803814 0.776767 0.903085 0.944375 1.00597 0.994587 0.940526 0.903646 0.890718 0.861004 0.848179 0.774038 0.682743 0.604078 0.550369 0.516465 0.520101 0.500255 0.503903 0.490786 0.481974 0.47659 0.469953 0.453642 0.473453 0.484527 0.490895 0.505034 0.522584 0.546511 0.591415 0.65542 0.704147 0.736012 0.780042 0.816049 0.840975 0.892958 0.912534 0.976588 1.0193 0.9491 0.880306 0.816838 0.78355 0.80796 0.78355 0.816836 0.880307 0.9491 1.0193 0.976588 0.912534 0.892958 0.840975 0.816049 0.780042 0.736012 0.704147 0.65542 0.591415 0.546511 0.522584 0.505034 0.490895 0.484527 0.473453 0.453642 0.435328 0.449922 0.464674 0.474224 0.499428 0.519966 0.538094 0.543921 0.567118 0.578845 0.617012 0.634891 0.677959 0.74577 0.807416 0.842754 0.924184 0.92131 0.984795 1.0173 1.0719 0.97229 0.881512 0.875157 0.820389 0.82221 0.77821 0.770252 0.760972 0.778714 0.777152 0.778714 0.760972 0.770252 0.778212 0.822211 0.82039 0.875157 0.881512 0.97229 1.0719 1.0173 0.984795 0.92131 0.924184 0.842754 0.807416 0.74577 0.677959 0.634891 0.617012 0.578845 0.567118 0.543921 0.538094 0.519966 0.499428 0.474224 0.464674 0.449922 0.435329 0.382235 0.410748 0.430078 0.468256 0.496993 0.510673 0.518772 0.53131 0.558325 0.596715 0.65538 0.71701 0.77604 0.780737 0.819987 0.940605 0.856354 0.876238 0.906772 0.833152 0.774267 0.754286 0.771715 0.771715 0.754287 0.774268 0.833153 0.906772 0.876237 0.856353 0.940604 0.819987 0.780737 0.77604 0.71701 0.65538 0.596715 0.558325 0.53131 0.518772 0.510673 0.496993 0.468256 0.430079 0.410748 0.382235 0.341613 0.397931 0.448165 0.451712 0.48058 0.499666 0.528524 0.551188 0.580826 0.614344 0.63481 0.672856 0.691712 0.722466 0.749253 0.771636 0.779268 0.765569 0.907316 0.916374 0.942179 0.903733 0.814014 0.786895 0.770588 0.76312 0.774496 0.763121 0.770588 0.786896 0.814015 0.903733 0.942178 0.916374 0.907316 0.76557 0.779267 0.771636 0.749253 0.722466 0.691712 0.672856 0.63481 0.614344 0.580826 0.551189 0.528524 0.499666 0.48058 0.451712 0.448165 0.397931 0.341613 0.309587 0.358422 0.386213 0.411116 0.438569 0.476376 0.513285 0.52521 0.544744 0.547672 0.570563 0.573895 0.597168 0.655167 0.706035 0.745929 0.75312 0.883538 0.831792 0.689041 0.705055 0.468135 0.94532 0.826991 0.806832 0.792306 0.766686 0.766594 0.759097 0.760565 0.766094 0.762739 0.766094 0.760565 0.759097 0.766594 0.766687 0.792307 0.806834 0.826991 0.945319 0.468137 0.705054 0.68904 0.831792 0.88354 0.75312 0.745929 0.706035 0.655167 0.597168 0.573895 0.570563 0.547672 0.544744 0.52521 0.513285 0.476376 0.438569 0.411116 0.386213 0.358422 0.309587 0.30567 0.295142 0.325984 0.351922 0.412362 0.449873 0.489384 0.548697 0.566226 0.592736 0.636177 0.69494 0.726665 0.763236 0.791228 0.679682 0.627959 0.544716 0.441248 0.78354 0.814293 0.819023 0.774357 0.760623 0.762438 0.762439 0.760625 0.774357 0.819024 0.814293 0.783541 0.441248 0.544717 0.627959 0.67968 0.79123 0.763236 0.726665 0.69494 0.636177 0.592736 0.566226 0.548697 0.489383 0.449873 0.412362 0.351922 0.325984 0.295142 0.30567 0.442191 0.379055 0.275435 0.316324 0.38967 0.433791 0.445306 0.47068 0.545788 0.576038 0.564978 0.656892 0.60642 0.609927 0.61904 0.650865 0.670868 0.706616 0.725585 0.737587 0.742551 0.790511 0.805144 0.634171 0.80442 0.674083 0.816915 0.808559 0.78335 0.759788 0.763891 0.765262 0.763892 0.75979 0.783351 0.808559 0.816916 0.674083 0.804421 0.634171 0.805145 0.790511 0.742551 0.737587 0.725585 0.706616 0.670868 0.650865 0.61904 0.609927 0.60642 0.656891 0.564978 0.576039 0.545788 0.47068 0.445306 0.433791 0.38967 0.316324 0.275435 0.379055 0.442191 0.442525 0.444068 0.28599 0.303526 0.350861 0.413325 0.472877 0.519847 0.592635 0.547459 1.00955 0.716249 0.634349 0.680227 0.753086 0.807683 0.590819 0.615519 0.540799 0.659096 0.61266 0.574138 0.47425 0.813922 0.807572 0.770076 0.764911 0.75571 0.755831 0.767886 0.769072 0.776745 0.769072 0.767886 0.755833 0.755713 0.764912 0.770082 0.807572 0.813923 0.47425 0.574138 0.612661 0.659096 0.540799 0.615518 0.590819 0.807683 0.753086 0.680227 0.634349 0.716248 1.00955 0.547459 0.592635 0.519847 0.472877 0.413325 0.35086 0.303527 0.28599 0.444068 0.442525 0.382698 0.379345 0.307662 0.309951 0.243031 0.353884 0.461741 0.493171 0.484177 0.541722 0.614114 0.652739 0.729171 0.79592 0.73048 0.565443 0.598314 0.63587 0.585216 0.487435 0.660083 0.805765 0.801154 0.76727 0.764838 0.779838 0.779839 0.764841 0.767276 0.801154 0.805766 0.660084 0.487434 0.585221 0.63587 0.598315 0.565443 0.73048 0.79592 0.729171 0.652739 0.614114 0.541721 0.484176 0.493171 0.461741 0.353884 0.243031 0.309951 0.307662 0.379345 0.382698 0.305143 0.414671 0.407359 0.330373 0.194387 0.245825 0.353912 0.42506 0.477996 0.478097 0.602234 0.595139 0.624872 0.766797 0.336546 0.579732 0.725331 0.474802 0.434719 0.60461 0.580859 0.615658 0.653599 0.663791 0.65087 0.584525 0.780367 0.801434 0.778642 0.761498 0.776103 0.785282 0.776104 0.7615 0.778649 0.801432 0.780371 0.584525 0.650871 0.663791 0.653593 0.615659 0.580859 0.60461 0.434718 0.474802 0.72533 0.579732 0.336546 0.766798 0.624871 0.595139 0.602234 0.478096 0.477996 0.42506 0.353912 0.245825 0.194388 0.330373 0.407359 0.414671 0.305143 0.0408935 0.379393 0.391962 0.350803 0.119821 0.181985 0.254292 0.464554 0.50216 0.616688 0.630667 0.609576 0.485108 1.1487 0.829855 0.745509 0.718114 0.786635 0.59098 0.609693 0.581814 0.581596 0.59311 0.456064 0.808436 0.730651 0.774123 0.748607 0.768341 0.779805 0.784833 0.786469 0.78483 0.779802 0.768342 0.748606 0.774122 0.730658 0.808434 0.456061 0.593109 0.581596 0.581814 0.609693 0.59098 0.786635 0.718114 0.745509 0.829855 1.1487 0.485108 0.609575 0.630666 0.616688 0.50216 0.464555 0.254291 0.181985 0.119821 0.350803 0.391962 0.379393 0.0408936 0.0403017 0.199107 0.39259 0.35743 0.34903 0.129956 0.36866 0.508593 0.55163 0.590737 0.596081 0.377384 0.477851 0.427374 0.673618 0.515652 0.686393 0.582338 0.537604 0.604418 0.604802 0.602451 0.58639 0.597101 0.638823 0.668478 0.644635 0.790319 0.816571 0.7758 0.781962 0.781959 0.775798 0.816567 0.790319 0.644635 0.668477 0.638823 0.597102 0.58639 0.602451 0.604802 0.604417 0.537603 0.582338 0.686393 0.515652 0.673618 0.427374 0.477852 0.377384 0.596081 0.590737 0.55163 0.508593 0.368659 0.129956 0.34903 0.35743 0.39259 0.199107 0.0403015 0.00994057 0.123783 0.11164 0.251212 0.425053 0.349316 0.484102 0.140615 0.284543 0.317034 0.454286 0.522791 0.560303 0.535695 0.563255 0.442555 0.471641 0.490753 0.517866 0.753061 0.653394 0.571614 0.589114 0.600455 0.594922 0.587448 0.615803 0.648891 0.654176 0.638207 0.624798 0.808111 0.833837 0.736986 0.732078 0.77544 0.779297 0.775446 0.732079 0.736988 0.833836 0.80811 0.624797 0.638207 0.654176 0.648891 0.615803 0.587449 0.594922 0.600455 0.589114 0.571614 0.653394 0.753061 0.517866 0.490753 0.471641 0.442555 0.563255 0.535695 0.560304 0.522791 0.454286 0.317034 0.284542 0.140616 0.484102 0.349316 0.425053 0.251212 0.111641 0.123783 0.0099407 0.138882 0.0465691 0.988527 0.624936 0.553266 0.64531 0.47443 0.645097 0.435881 0.52505 0.643886 0.657677 0.649254 0.592043 0.603115 0.603365 0.611555 0.590177 0.642703 0.649999 0.6442 0.835388 0.723603 0.845393 0.719446 0.786561 0.75114 0.769049 0.768163 0.769049 0.751131 0.78656 0.719449 0.845393 0.723606 0.835385 0.644198 0.649999 0.642704 0.590178 0.611555 0.603365 0.603115 0.592042 0.649254 0.657677 0.643886 0.52505 0.435881 0.645097 0.474432 0.64531 0.553265 0.624936 0.988527 0.0465691 0.138882 0.253806 0.015052 0.105411 0.827491 0.697195 0.709559 0.831279 0.958955 0.634937 0.67217 0.508326 0.54605 0.46829 0.466601 0.506521 0.552663 0.621231 0.65288 0.675168 0.651704 0.626167 0.607365 0.614572 0.60019 0.586025 0.644195 0.820411 0.851243 0.81487 0.757231 0.757217 0.814864 0.85124 0.820412 0.644195 0.586026 0.600189 0.614569 0.607365 0.626167 0.651704 0.675168 0.65288 0.621231 0.552663 0.506522 0.466602 0.46829 0.54605 0.508325 0.672167 0.634938 0.958956 0.831278 0.709559 0.697195 0.827491 0.105411 0.0150518 0.253806 0.221147 0.16759 0.952121 0.834416 0.793525 0.646808 0.756658 0.553642 0.535267 0.490279 0.471356 0.50149 0.553856 0.608985 0.641492 0.666597 0.665264 0.645288 0.626882 0.604815 0.665951 0.716088 0.684584 0.645405 0.731929 0.697669 0.934435 0.790056 0.866804 0.863412 0.748855 0.719832 0.731138 0.749387 0.731142 0.71984 0.74886 0.863411 0.866807 0.790056 0.934434 0.697669 0.731928 0.645405 0.684584 0.716088 0.665951 0.604815 0.626882 0.645288 0.665264 0.666597 0.641492 0.608985 0.553857 0.50149 0.471356 0.490279 0.535268 0.553642 0.756657 0.646809 0.793525 0.834416 0.952121 0.16759 0.221147 0.497691 0.164494 0.954437 0.90681 0.860734 0.743671 0.704492 0.806479 1.07606 0.48233 0.449687 0.516764 0.496929 0.513982 0.671937 0.661539 0.646803 0.630115 0.628975 0.630463 0.659529 0.633577 0.696873 0.787853 0.854155 0.838545 0.759845 0.884477 0.748773 0.842771 0.731001 0.749146 0.736553 0.749129 0.731 0.842765 0.748773 0.884471 0.759845 0.838545 0.854156 0.787852 0.696872 0.633577 0.659529 0.630464 0.628975 0.630115 0.646803 0.661539 0.671937 0.513982 0.496928 0.516764 0.449687 0.48233 1.07606 0.806479 0.704493 0.743671 0.860734 0.90681 0.954437 0.164494 0.497691 0.427048 0.910543 0.813397 0.747451 0.711827 0.899032 0.448555 0.353019 0.515286 0.540926 0.534749 0.554714 0.600842 0.630953 0.654933 0.642092 0.636074 0.659565 0.679984 0.67974 0.831122 0.897582 0.814766 0.819788 0.753551 0.753533 0.819787 0.814768 0.897582 0.831122 0.67974 0.679984 0.659566 0.636074 0.642092 0.654933 0.630953 0.600842 0.554715 0.534749 0.540926 0.515286 0.353019 0.448554 0.899032 0.711827 0.74745 0.813397 0.910543 0.427049 0.622551 0.971103 0.880491 0.868828 0.736117 0.780598 0.804907 0.686056 0.556717 0.5474 0.569592 0.598803 0.625428 0.65107 0.671483 0.679328 0.65816 0.643909 0.650734 0.64529 0.62895 0.574638 0.886386 0.695006 0.862973 0.833007 0.849932 0.830678 0.768311 0.689208 0.692645 0.729135 0.692641 0.68921 0.768315 0.830678 0.84993 0.833006 0.862974 0.695005 0.886385 0.574638 0.62895 0.64529 0.650734 0.643909 0.65816 0.679329 0.671483 0.65107 0.625428 0.598803 0.569593 0.5474 0.556716 0.686056 0.804907 0.780598 0.736116 0.868828 0.880491 0.971103 0.622551 0.686081 0.945361 0.890313 0.754265 0.861871 0.75193 0.698022 0.720691 0.568159 0.581377 0.6027 0.625664 0.646931 0.67172 0.688391 0.704734 0.696492 0.673031 0.646357 0.65923 0.595791 0.814636 0.862665 0.751223 0.843423 0.825687 0.78428 0.807999 0.728518 0.825035 0.695407 0.77954 0.71095 0.779564 0.695509 0.825039 0.728515 0.807999 0.784283 0.825689 0.843424 0.751223 0.862665 0.814636 0.595791 0.65923 0.646357 0.673031 0.696492 0.704734 0.688391 0.67172 0.646931 0.625664 0.6027 0.581377 0.568159 0.72069 0.698022 0.751931 0.861871 0.754265 0.890313 0.945361 0.686081 0.890064 0.63063 0.871313 0.840202 0.847486 0.721983 0.670667 0.599764 0.599343 0.667135 0.692154 0.703482 0.704278 0.682902 0.653562 0.639139 0.642983 0.645825 0.883464 0.647721 0.819659 0.815578 0.81578 0.819653 0.647719 0.883464 0.645825 0.642983 0.639139 0.653562 0.682902 0.704278 0.703482 0.692154 0.667135 0.599343 0.599764 0.670667 0.721983 0.847486 0.840201 0.871314 0.63063 0.890064 0.68374 0.657368 0.657776 0.83358 0.702534 0.752922 0.694566 0.60342 0.623916 0.645487 0.696839 0.665604 0.642025 0.626827 0.682294 0.64089 0.62373 0.873288 0.833903 0.878024 0.807484 0.854892 0.711614 0.778549 0.738225 0.686155 0.699904 0.686641 0.738226 0.778548 0.711616 0.854892 0.807482 0.878024 0.833902 0.873288 0.62373 0.64089 0.682294 0.626827 0.642025 0.665604 0.696839 0.645487 0.623916 0.60342 0.694566 0.752921 0.702534 0.83358 0.657776 0.657368 0.68374 0.56149 0.65044 0.8328 0.760414 0.749055 0.741089 0.655665 0.614303 0.615288 0.622561 0.644698 0.66383 0.688578 0.704178 0.708384 0.622729 0.663423 0.676257 0.654956 0.845156 0.847163 0.881568 0.836812 0.855783 0.824923 0.81522 0.712427 0.759563 0.666928 0.721215 0.863739 0.662712 0.86296 0.721256 0.666931 0.759567 0.712426 0.81522 0.824921 0.855784 0.836812 0.881568 0.847162 0.845156 0.654956 0.676257 0.663423 0.622729 0.708384 0.704178 0.688578 0.66383 0.644698 0.622561 0.615288 0.614303 0.655665 0.741089 0.749055 0.760415 0.8328 0.650439 0.56149 0.692117 0.578585 0.952677 0.744721 0.719722 0.658002 0.793243 0.795674 0.739035 0.708309 0.661057 0.634156 0.63555 0.646091 0.663391 0.681705 0.697942 0.710795 0.707067 0.679404 0.665436 0.724036 0.846313 0.846578 0.724054 0.665436 0.679404 0.707067 0.710795 0.697942 0.681705 0.663391 0.646092 0.63555 0.634156 0.661057 0.708309 0.739035 0.795674 0.793243 0.658002 0.719722 0.744721 0.952677 0.578585 0.692117 0.723464 0.799089 0.765906 0.753971 0.787842 0.720327 0.849451 0.768221 0.665331 0.678195 0.692919 0.700899 0.714884 0.689374 0.689206 0.718966 0.638767 0.6081 0.805187 0.774565 0.902469 0.867189 0.879456 0.858729 0.83417 0.814911 0.81362 0.797506 0.780552 0.729963 0.724657 0.730007 0.780564 0.7975 0.813623 0.814909 0.834172 0.858729 0.879457 0.867189 0.902469 0.774565 0.805188 0.6081 0.638767 0.718966 0.689206 0.689374 0.714884 0.700899 0.692919 0.678195 0.665331 0.768221 0.849451 0.720327 0.787841 0.753971 0.765906 0.799088 0.723464 0.83712 0.768064 0.746869 0.768735 0.730733 0.699815 0.670833 0.661926 0.656627 0.690391 0.692539 0.68878 0.779629 0.601771 0.888447 0.790706 0.9246 0.870906 0.829537 0.859499 0.83172 0.823795 0.821972 0.806852 0.770057 0.790866 0.830851 0.871447 0.740484 0.871476 0.830868 0.790865 0.770066 0.806848 0.821975 0.823795 0.831722 0.8595 0.829537 0.870906 0.9246 0.790706 0.888447 0.601771 0.779629 0.68878 0.692539 0.690391 0.656627 0.661926 0.670833 0.699815 0.730733 0.768735 0.746869 0.768064 0.83712 0.646182 0.860114 0.77475 0.848208 0.748835 0.729263 0.704355 0.69181 0.674092 0.673788 0.676482 0.693378 0.695208 0.7078 0.7078 0.695208 0.693378 0.676482 0.673788 0.674092 0.69181 0.704355 0.729263 0.748835 0.848208 0.77475 0.860114 0.646182 0.771655 0.750158 0.744409 0.759546 0.855371 0.882398 0.778643 0.836278 0.74205 0.734143 0.719807 0.697963 0.690139 0.686058 0.696022 0.693447 0.706142 0.726355 0.755274 0.762096 0.740189 0.857658 0.647077 0.850919 0.867406 0.808888 0.873505 0.846741 0.874671 0.861482 0.859231 0.85708 0.840883 0.824593 0.899586 0.886047 0.883888 0.743253 0.883871 0.886057 0.899591 0.824597 0.84088 0.857081 0.859231 0.861482 0.874671 0.846741 0.873505 0.808888 0.867406 0.850919 0.647077 0.857658 0.740189 0.762096 0.755274 0.726355 0.706142 0.693447 0.696022 0.686058 0.690139 0.697963 0.719807 0.734143 0.74205 0.836278 0.778643 0.882398 0.855371 0.759546 0.744409 0.750158 0.771655 0.800195 0.782536 0.765791 0.787195 0.857387 0.87577 0.864129 0.863431 0.835714 0.717975 0.724812 0.709726 0.715819 0.700668 0.694269 0.70494 0.724144 0.743852 0.754245 0.738136 0.902739 0.831297 0.838441 0.855965 0.856852 0.909397 0.875588 0.903824 0.887023 0.900303 0.880406 0.897906 0.857085 0.896767 0.897761 0.901556 0.759123 0.901556 0.897768 0.896766 0.857087 0.897906 0.880406 0.900303 0.887023 0.903824 0.875588 0.909397 0.856852 0.855965 0.838441 0.831297 0.902739 0.738136 0.754245 0.743852 0.724144 0.70494 0.694269 0.700668 0.715819 0.709726 0.724812 0.717975 0.835714 0.863431 0.864129 0.87577 0.857387 0.787196 0.765791 0.782536 0.800195 0.752109 0.752109 0.879879 0.894562 0.862129 0.845337 0.874319 0.865309 0.866673 0.867491 0.850594 0.809363 0.809714 0.768758 0.774671 0.804226 0.688234 0.711728 0.732617 0.75562 0.776904 0.802955 0.799705 0.869048 0.924992 0.871753 0.95545 0.8903 0.937967 0.896176 0.92503 0.900848 0.917181 0.892187 0.910729 0.875905 0.906969 0.900911 0.903782 0.769185 0.903782 0.900915 0.906969 0.875906 0.910729 0.892187 0.917181 0.900848 0.92503 0.896176 0.937967 0.8903 0.95545 0.871753 0.924992 0.869048 0.799705 0.802955 0.776904 0.75562 0.732617 0.711728 0.688234 0.804226 0.774671 0.768758 0.809714 0.809363 0.850594 0.867491 0.866673 0.865309 0.874319 0.845337 0.862129 0.894562 0.879879 0.90014 0.898825 0.888341 0.871281 0.884647 0.86947 0.87567 0.874862 0.901891 0.899708 0.887235 0.807125 0.782964 0.766547 0.757635 0.869949 0.876794 0.880016 0.887267 0.872309 0.84898 0.892478 0.896422 0.888154 0.896061 0.896714 0.895515 0.899511 0.89488 0.900666 0.894191 0.891618 0.894189 0.884685 0.894385 0.897677 0.893981 0.781899 0.893981 0.89768 0.894385 0.884685 0.894189 0.891618 0.894191 0.900666 0.89488 0.899511 0.895515 0.896714 0.896061 0.888154 0.896422 0.892478 0.84898 0.872309 0.887267 0.880016 0.876794 0.869949 0.757635 0.766547 0.782964 0.807125 0.887235 0.899708 0.901891 0.874862 0.87567 0.86947 0.884647 0.871281 0.888341 0.898825 0.90014 0.900034 0.895372 0.890761 0.891949 0.89224 0.879422 0.888428 0.89397 0.902724 0.903291 0.904704 0.825319 0.810126 0.804288 0.878136 0.895467 0.895755 0.890315 0.892763 0.876991 0.859217 0.894168 0.898123 0.891165 0.897177 0.895662 0.896169 0.898523 0.895227 0.897737 0.894398 0.889402 0.893832 0.887819 0.893832 0.893127 0.893919 0.793448 0.893919 0.893129 0.893832 0.887819 0.893832 0.889402 0.894398 0.897737 0.895227 0.898523 0.896169 0.895662 0.897177 0.891165 0.898123 0.894168 0.859217 0.876991 0.892763 0.890315 0.895755 0.895467 0.878136 0.804288 0.810126 0.825319 0.904704 0.903291 0.902724 0.89397 0.888428 0.879422 0.89224 0.891949 0.89076 0.895372 0.900034 0.896763 0.895538 0.89014 0.900558 0.889711 0.878005 0.888626 0.897336 0.903594 0.902807 0.900318 0.845218 0.833231 0.841554 0.901391 0.896732 0.895491 0.889589 0.889347 0.878384 0.867244 0.894241 0.893953 0.892414 0.893832 0.894712 0.893832 0.897132 0.893832 0.895077 0.893832 0.888522 0.893832 0.888176 0.893832 0.888812 0.893832 0.804431 0.893832 0.888814 0.893832 0.888176 0.893832 0.888522 0.893832 0.895077 0.893832 0.897132 0.893832 0.894712 0.893832 0.892414 0.893953 0.894241 0.867244 0.878384 0.889347 0.889589 0.895491 0.896732 0.901391 0.841554 0.833231 0.845218 0.900318 0.902807 0.903594 0.897336 0.888626 0.878005 0.889711 0.900558 0.89014 0.895538 0.896763 0.894344 0.895483 0.890826 0.900798 0.888015 0.877342 0.887814 0.897373 0.902988 0.901548 0.896288 0.855723 0.851575 0.87902 0.901632 0.895964 0.894081 0.888409 0.886517 0.879261 0.874847 0.894114 0.893941 0.892925 0.893832 0.893941 0.893832 0.895969 0.893832 0.893041 0.893832 0.888462 0.893832 0.887643 0.893832 0.885654 0.893832 0.814257 0.893832 0.885655 0.893832 0.887644 0.893832 0.888462 0.893832 0.893041 0.893832 0.895969 0.893832 0.893941 0.893832 0.892925 0.893941 0.894114 0.874847 0.879261 0.886517 0.888409 0.894081 0.895964 0.901632 0.87902 0.851575 0.855723 0.896288 0.901548 0.902988 0.897373 0.887814 0.877342 0.888015 0.900798 0.890826 0.895483 0.894344 0.892782 0.895394 0.891888 0.898649 0.887539 0.877774 0.893102 0.887835 0.884816 0.880669 0.881231 0.893978 0.893832 0.892954 0.893832 0.893312 0.893832 0.894975 0.893832 0.891524 0.893832 0.888669 0.893832 0.887148 0.893832 0.883578 0.893832 0.822527 0.893832 0.883579 0.893832 0.887148 0.893832 0.888669 0.893832 0.891524 0.893832 0.894975 0.893832 0.893312 0.893832 0.892954 0.893832 0.893978 0.881231 0.880669 0.884816 0.887835 0.893102 0.877774 0.887539 0.898649 0.891888 0.895394 0.892782 0.887033 0.896535 0.902138 0.900406 0.89207 0.864199 0.868575 0.896136 0.899829 0.895267 0.895267 0.899829 0.896136 0.868575 0.864199 0.89207 0.900406 0.902138 0.896535 0.887033 0.891882 0.895283 0.892933 0.896497 0.887788 0.879046 0.886616 0.89568 0.901131 0.899093 0.887067 0.872121 0.882884 0.899122 0.8981 0.89471 0.892458 0.887726 0.883997 0.882449 0.885662 0.893788 0.893832 0.892687 0.893832 0.892795 0.893832 0.894095 0.893832 0.890496 0.893832 0.888916 0.893832 0.88689 0.893832 0.882302 0.893832 0.829724 0.893832 0.882303 0.893832 0.88689 0.893832 0.888916 0.893832 0.890496 0.893832 0.894095 0.893832 0.892795 0.893832 0.892687 0.893832 0.893788 0.885662 0.882449 0.883997 0.887726 0.892458 0.89471 0.8981 0.899122 0.882884 0.872121 0.887067 0.899093 0.901131 0.89568 0.886616 0.879046 0.887788 0.896497 0.892933 0.895283 0.891882 0.889894 0.893832 0.893832 0.893832 0.893832 0.893832 0.893832 0.893832 0.893832 0.893832 0.893832 0.893832 0.893832 0.893832 0.893832 0.893832 0.893832 0.889894 0.891453 0.895154 0.89397 0.894808 0.888395 0.880705 0.886647 0.894959 0.899986 0.897574 0.882832 0.879295 0.889862 0.89803 0.896551 0.894162 0.891946 0.887868 0.883864 0.884381 0.893548 0.892302 0.892358 0.893331 0.889826 0.889094 0.886801 0.881558 0.836253 0.881559 0.886801 0.889094 0.889826 0.893331 0.892358 0.892302 0.893548 0.884381 0.883864 0.887868 0.891946 0.894162 0.896551 0.89803 0.889862 0.879295 0.882832 0.897574 0.899986 0.894959 0.886647 0.880705 0.888395 0.894808 0.89397 0.895154 0.891453 0.891343 0.89501 0.894603 0.89359 0.889048 0.882492 0.886977 0.894318 0.898757 0.896186 0.880089 0.883426 0.8912 0.896394 0.895155 0.89355 0.891485 0.888127 0.88421 0.886245 0.892604 0.893292 0.893832 0.891936 0.893832 0.891981 0.893832 0.892674 0.893832 0.889398 0.893832 0.889156 0.893832 0.88679 0.893832 0.881178 0.893832 0.842257 0.893832 0.881178 0.893832 0.88679 0.893832 0.889156 0.893832 0.889398 0.893832 0.892674 0.893832 0.891981 0.893832 0.891936 0.893832 0.893292 0.892604 0.886245 0.88421 0.888127 0.891485 0.89355 0.895155 0.896394 0.8912 0.883426 0.880089 0.896186 0.898757 0.894318 0.886977 0.882492 0.889048 0.89359 0.894603 0.89501 0.891343 0.891423 0.894854 0.894769 0.892767 0.889621 0.884209 0.887425 0.893734 0.897505 0.895113 0.878581 0.884546 0.890376 0.894842 0.893893 0.892876 0.891053 0.888425 0.884854 0.88787 0.893579 0.89304 0.893832 0.891652 0.893832 0.891653 0.893832 0.892112 0.893832 0.889136 0.893832 0.889119 0.893832 0.886807 0.893832 0.881071 0.893832 0.847783 0.893832 0.881071 0.893832 0.886807 0.893832 0.889119 0.893832 0.889136 0.893832 0.892112 0.893832 0.891653 0.893832 0.891652 0.893832 0.89304 0.893579 0.88787 0.884854 0.888425 0.891053 0.892876 0.893893 0.894842 0.890376 0.884546 0.878581 0.895113 0.897505 0.893734 0.887425 0.884209 0.889621 0.892767 0.894769 0.894854 0.891423 0.891587 0.894691 0.894687 0.892258 0.890095 0.885697 0.887869 0.893178 0.896282 0.894318 0.877902 0.884262 0.889181 0.893435 0.892758 0.89218 0.890645 0.888716 0.885655 0.889192 0.893796 0.892796 0.893832 0.891455 0.893832 0.891369 0.893832 0.891639 0.893832 0.888987 0.893832 0.889021 0.893832 0.88683 0.893832 0.881181 0.893832 0.852855 0.893832 0.881181 0.893832 0.88683 0.893832 0.889021 0.893832 0.888987 0.893832 0.891639 0.893832 0.891369 0.893832 0.891455 0.893832 0.892796 0.893796 0.889192 0.885655 0.888716 0.890645 0.89218 0.892758 0.893435 0.889181 0.884262 0.877902 0.894318 0.896282 0.893178 0.887869 0.885697 0.890095 0.892258 0.894687 0.894691 0.891587 0.891765 0.894522 0.894523 0.891985 0.890393 0.886917 0.88825 0.89262 0.895128 0.893697 0.877788 0.883727 0.888132 0.892177 0.891742 0.891505 0.890264 0.888975 0.886511 0.890227 0.893828 0.892559 0.893832 0.891327 0.893832 0.891123 0.893832 0.891249 0.893832 0.888914 0.893832 0.8889 0.893832 0.886856 0.893832 0.881464 0.893832 0.857489 0.893832 0.881465 0.893832 0.886856 0.893832 0.8889 0.893832 0.888914 0.893832 0.891249 0.893832 0.891123 0.893832 0.891327 0.893832 0.892559 0.893828 0.890227 0.886511 0.888975 0.890264 0.891505 0.891742 0.892177 0.888132 0.883727 0.877788 0.893697 0.895128 0.89262 0.88825 0.886917 0.890393 0.891985 0.894523 0.894522 0.891765 0.891919 0.894351 0.894341 0.891873 0.890483 0.887902 0.888546 0.892064 0.894074 0.893165 0.878073 0.883357 0.887312 0.891071 0.890841 0.890881 0.889926 0.8892 0.887358 0.891018 0.893832 0.892333 0.893832 0.89125 0.893832 0.890911 0.893832 0.890933 0.893832 0.888887 0.893832 0.888781 0.893832 0.886894 0.893832 0.881887 0.893832 0.861697 0.893832 0.881887 0.893832 0.886894 0.893832 0.888781 0.893832 0.888887 0.893832 0.890933 0.893832 0.890911 0.893832 0.89125 0.893832 0.892333 0.893832 0.891018 0.887358 0.8892 0.889926 0.890881 0.890841 0.891071 0.887312 0.883357 0.878073 0.893165 0.894074 0.892064 0.888546 0.887902 0.890483 0.891873 0.894341 0.894351 0.891919 0.892034 0.894181 0.894157 0.891859 0.890446 0.888668 0.888762 0.891532 0.893142 0.892669 0.878637 0.883219 0.886712 0.890117 0.890056 0.890331 0.889648 0.8894 0.888157 0.891601 0.893832 0.892122 0.893832 0.891207 0.893832 0.890729 0.893832 0.890681 0.893832 0.888888 0.893832 0.888682 0.893832 0.886952 0.893832 0.882417 0.893832 0.865492 0.893832 0.882417 0.893832 0.886952 0.893832 0.888682 0.893832 0.888888 0.893832 0.890681 0.893832 0.890729 0.893832 0.891207 0.893832 0.892122 0.893832 0.891601 0.888157 0.8894 0.889648 0.890331 0.890056 0.890117 0.886712 0.883219 0.878637 0.892669 0.893142 0.891532 0.888762 0.888668 0.890446 0.891859 0.894157 0.894181 0.892034 0.892109 0.894015 0.893979 0.891897 0.890394 0.88923 0.888912 0.89105 0.892345 0.892179 0.879386 0.883286 0.886308 0.889314 0.889391 0.88987 0.889443 0.889587 0.888885 0.892008 0.893832 0.891932 0.893832 0.891185 0.893832 0.890574 0.893832 0.890482 0.893832 0.888906 0.893832 0.88861 0.893832 0.887039 0.893832 0.883026 0.893832 0.868895 0.893832 0.883026 0.893832 0.887039 0.893832 0.88861 0.893832 0.888906 0.893832 0.890482 0.893832 0.890574 0.893832 0.891185 0.893832 0.891932 0.893832 0.892008 0.888885 0.889587 0.889443 0.88987 0.889391 0.889314 0.886308 0.883286 0.879386 0.892179 0.892345 0.89105 0.888912 0.88923 0.890394 0.891897 0.893979 0.894015 0.892109 0.892146 0.893854 0.893808 0.891956 0.89039 0.889616 0.889017 0.890644 0.891687 0.891683 0.880243 0.883513 0.886074 0.888659 0.888844 0.889502 0.889317 0.889769 0.889532 0.892273 0.893832 0.891767 0.893832 0.891175 0.893832 0.890445 0.893832 0.890328 0.893832 0.888935 0.893832 0.888572 0.893832 0.88716 0.893832 0.883686 0.893832 0.871934 0.893832 0.883686 0.893832 0.88716 0.893832 0.888572 0.893832 0.888935 0.893832 0.890328 0.893832 0.890445 0.893832 0.891175 0.893832 0.891767 0.893832 0.892273 0.889532 0.889769 0.889317 0.889502 0.888844 0.888659 0.886074 0.883513 0.880243 0.891683 0.891687 0.890644 0.889017 0.889616 0.89039 0.891956 0.893808 0.893854 0.892146 0.892151 0.893701 0.893646 0.892016 0.890448 0.889869 0.889105 0.890335 0.891164 0.891191 0.881147 0.883857 0.885981 0.888142 0.88841 0.889224 0.889264 0.889949 0.890096 0.892433 0.893832 0.891629 0.893832 0.891172 0.893832 0.890341 0.893832 0.890212 0.893832 0.888974 0.893832 0.888566 0.893832 0.887318 0.893832 0.884374 0.893832 0.874638 0.893832 0.884374 0.893832 0.887318 0.893832 0.888566 0.893832 0.888974 0.893832 0.890212 0.893832 0.890341 0.893832 0.891172 0.893832 0.891629 0.893832 0.892433 0.890096 0.889949 0.889264 0.889224 0.88841 0.888142 0.885981 0.883857 0.881147 0.891191 0.891164 0.890335 0.889105 0.889869 0.890448 0.892016 0.893646 0.893701 0.892151 0.892133 0.893555 0.893496 0.892066 0.890554 0.890035 0.889195 0.890126 0.890765 0.890719 0.882054 0.884279 0.885997 0.887748 0.888079 0.889026 0.889275 0.890125 0.890578 0.892523 0.893832 0.891517 0.893832 0.891172 0.893832 0.890259 0.893832 0.890127 0.893832 0.889022 0.893832 0.888591 0.893832 0.887512 0.893832 0.88507 0.893832 0.877034 0.893832 0.88507 0.893832 0.887512 0.893832 0.888591 0.893832 0.889022 0.893832 0.890127 0.893832 0.890259 0.893832 0.891172 0.893832 0.891517 0.893832 0.892523 0.890578 0.890125 0.889275 0.889026 0.888079 0.887748 0.885997 0.884279 0.882054 0.890719 0.890765 0.890126 0.889195 0.890035 0.890554 0.892066 0.893496 0.893555 0.892133 0.8921 0.893419 0.893358 0.892099 0.890688 0.890154 0.8893 0.890009 0.890475 0.890284 0.882929 0.884742 0.886091 0.887459 0.887837 0.888896 0.889336 0.890296 0.890983 0.892569 0.893832 0.891429 0.893832 0.891173 0.893832 0.890197 0.893832 0.890068 0.893832 0.88908 0.893832 0.888645 0.893832 0.887739 0.893832 0.885757 0.893832 0.87915 0.893832 0.885757 0.893832 0.887739 0.893832 0.888645 0.893832 0.88908 0.893832 0.890068 0.893832 0.890197 0.893832 0.891173 0.893832 0.891429 0.893832 0.892569 0.890983 0.890296 0.889336 0.888896 0.887837 0.887459 0.886091 0.884742 0.882929 0.890284 0.890475 0.890009 0.8893 0.890154 0.890688 0.892099 0.893358 0.893419 0.8921 0.892059 0.893293 0.893232 0.892114 0.890831 0.890253 0.889418 0.889965 0.890277 0.889901 0.883747 0.88522 0.886237 0.887256 0.88767 0.88882 0.889433 0.890457 0.891319 0.89259 0.893832 0.891363 0.893832 0.891174 0.893832 0.890154 0.893832 0.89003 0.893832 0.889146 0.893832 0.888725 0.893832 0.887992 0.893832 0.886421 0.893832 0.881011 0.893832 0.886421 0.893832 0.887992 0.893832 0.888725 0.893832 0.889146 0.893832 0.89003 0.893832 0.890154 0.893832 0.891174 0.893832 0.891363 0.893832 0.89259 0.891319 0.890457 0.889433 0.88882 0.88767 0.887256 0.886237 0.88522 0.883747 0.889901 0.890277 0.889965 0.889418 0.890253 0.890831 0.892114 0.893232 0.893293 0.892059 0.89312 0.892111 0.890971 0.887563 0.888786 0.889551 0.890606 0.891595 0.892597 0.893832 0.891315 0.893832 0.891174 0.893832 0.890126 0.893832 0.890009 0.893832 0.889219 0.893832 0.888825 0.893832 0.888265 0.893832 0.887052 0.893832 0.882641 0.893832 0.887052 0.893832 0.888265 0.893832 0.888825 0.893832 0.889219 0.893832 0.890009 0.893832 0.890126 0.893832 0.891174 0.893832 0.891315 0.893832 0.892597 0.891595 0.890606 0.889551 0.888786 0.887563 0.890971 0.892111 0.89312 0.892019 0.893177 0.890345 0.889545 0.889976 0.890154 0.889578 0.884493 0.885689 0.886413 0.887121 0.887121 0.886413 0.885689 0.884493 0.889578 0.890154 0.889976 0.889545 0.890345 0.893177 0.892019 0.891983 0.893072 0.89302 0.892092 0.891098 0.890434 0.889672 0.890024 0.89009 0.889317 0.885157 0.886134 0.8866 0.887037 0.887502 0.888782 0.889678 0.890738 0.891819 0.892597 0.893832 0.891282 0.893832 0.891174 0.893832 0.890112 0.893832 0.890003 0.893832 0.889297 0.893832 0.888941 0.893832 0.888549 0.893832 0.887642 0.893832 0.88406 0.893832 0.887642 0.893832 0.888549 0.893832 0.888941 0.893832 0.889297 0.893832 0.890003 0.893832 0.890112 0.893832 0.891174 0.893832 0.891282 0.893832 0.892597 0.891819 0.890738 0.889678 0.888782 0.887502 0.887037 0.8866 0.886134 0.885157 0.889317 0.89009 0.890024 0.889672 0.890434 0.891098 0.892092 0.89302 0.893072 0.891983 0.891954 0.892977 0.892932 0.892062 0.891207 0.890518 0.889791 0.890094 0.890068 0.889115 0.885737 0.886543 0.886785 0.886992 0.887477 0.8888 0.889806 0.890855 0.892002 0.892591 0.893832 0.89126 0.893832 0.891173 0.893832 0.890109 0.893832 0.890009 0.893832 0.889378 0.893832 0.889068 0.893832 0.888836 0.893832 0.888185 0.893832 0.88529 0.893832 0.888185 0.893832 0.888836 0.893832 0.889068 0.893832 0.889378 0.893832 0.890009 0.893832 0.890109 0.893832 0.891173 0.893832 0.89126 0.893832 0.892591 0.892002 0.890855 0.889806 0.8888 0.887477 0.886992 0.886785 0.886543 0.885737 0.889115 0.890068 0.890094 0.889791 0.890518 0.891207 0.892062 0.892932 0.892977 0.891954 0.891933 0.892893 0.892856 0.892023 0.891298 0.890594 0.889899 0.890175 0.890075 0.888964 0.886233 0.88691 0.886959 0.886974 0.887477 0.888831 0.889927 0.890954 0.892149 0.892582 0.893832 0.891247 0.893832 0.891172 0.893832 0.890115 0.893832 0.890023 0.893832 0.88946 0.893832 0.8892 0.893832 0.889118 0.893832 0.888679 0.893832 0.886346 0.893832 0.888679 0.893832 0.889118 0.893832 0.8892 0.893832 0.88946 0.893832 0.890023 0.893832 0.890115 0.893832 0.891172 0.893832 0.891247 0.893832 0.892582 0.892149 0.890954 0.889927 0.888831 0.887477 0.886974 0.886959 0.88691 0.886233 0.888964 0.890075 0.890175 0.889899 0.890594 0.891298 0.892023 0.892856 0.892893 0.891933 0.89192 0.892819 0.892791 0.891981 0.89137 0.89066 0.889992 0.890259 0.890102 0.888855 0.886649 0.88723 0.887116 0.886974 0.887494 0.888868 0.890037 0.891039 0.892269 0.89257 0.893832 0.89124 0.893832 0.891171 0.893832 0.890126 0.893832 0.890043 0.893832 0.88954 0.893832 0.889334 0.893832 0.889386 0.893832 0.889119 0.893832 0.887245 0.893832 0.889119 0.893832 0.889386 0.893832 0.889334 0.893832 0.88954 0.893832 0.890043 0.893832 0.890126 0.893832 0.891171 0.893832 0.89124 0.893832 0.89257 0.892269 0.891039 0.890037 0.888868 0.887494 0.886974 0.887116 0.88723 0.886649 0.888855 0.890102 0.890259 0.889992 0.89066 0.89137 0.891981 0.892791 0.892819 0.89192 0.891914 0.892755 0.892736 0.891938 0.891425 0.890715 0.89007 0.890339 0.890138 0.888779 0.886991 0.887503 0.887252 0.886985 0.887521 0.888908 0.890134 0.891108 0.892367 0.892555 0.893832 0.891238 0.893832 0.89117 0.893832 0.890142 0.893832 0.890067 0.893832 0.889617 0.893832 0.889463 0.893832 0.889635 0.893832 0.889505 0.893832 0.888002 0.893832 0.889505 0.893832 0.889635 0.893832 0.889463 0.893832 0.889617 0.893832 0.890067 0.893832 0.890142 0.893832 0.89117 0.893832 0.891238 0.893832 0.892555 0.892367 0.891108 0.890134 0.888908 0.887521 0.886985 0.887252 0.887503 0.886991 0.888779 0.890138 0.890339 0.89007 0.890715 0.891425 0.891938 0.892736 0.892755 0.891914 0.891914 0.892701 0.892691 0.891897 0.891466 0.890759 0.890133 0.890411 0.890178 0.888728 0.887267 0.887729 0.887367 0.887003 0.887553 0.888948 0.890217 0.891165 0.892445 0.892539 0.893832 0.891238 0.893832 0.891169 0.893832 0.890159 0.893832 0.890092 0.893832 0.889687 0.893832 0.889582 0.893832 0.889858 0.893832 0.889835 0.893832 0.888628 0.893832 0.889835 0.893832 0.889858 0.893832 0.889582 0.893832 0.889687 0.893832 0.890092 0.893832 0.890159 0.893832 0.891169 0.893832 0.891238 0.893832 0.892539 0.892445 0.891165 0.890217 0.888948 0.887553 0.887003 0.887367 0.887729 0.887267 0.888728 0.890178 0.890411 0.890133 0.890759 0.891466 0.891897 0.892691 0.892701 0.891914 0.891917 0.892656 0.892654 0.891861 0.891496 0.890793 0.890183 0.890473 0.890217 0.888696 0.887484 0.887913 0.887461 0.887022 0.887585 0.888983 0.890284 0.89121 0.892507 0.892524 0.893832 0.89124 0.893832 0.891168 0.893832 0.890176 0.893832 0.890116 0.893832 0.889749 0.893832 0.889688 0.893832 0.890051 0.893832 0.890111 0.893832 0.889133 0.893832 0.890111 0.893832 0.890051 0.893832 0.889688 0.893832 0.889749 0.893832 0.890116 0.893832 0.890176 0.893832 0.891168 0.893832 0.89124 0.893832 0.892524 0.892507 0.89121 0.890284 0.888983 0.887585 0.887022 0.887461 0.887913 0.887484 0.888696 0.890217 0.890473 0.890183 0.890793 0.891496 0.891861 0.892654 0.892656 0.891917 0.891922 0.892621 0.892626 0.89183 0.891516 0.890818 0.890219 0.890524 0.890252 0.888675 0.887648 0.888054 0.887533 0.887041 0.887615 0.889014 0.890338 0.891245 0.892555 0.892511 0.893832 0.891242 0.893832 0.891168 0.893832 0.890192 0.893832 0.890137 0.893832 0.8898 0.893832 0.889778 0.893832 0.89021 0.893832 0.890331 0.893832 0.889528 0.893832 0.890331 0.893832 0.89021 0.893832 0.889778 0.893832 0.8898 0.893832 0.890137 0.893832 0.890192 0.893832 0.891168 0.893832 0.891242 0.893832 0.892511 0.892555 0.891245 0.890338 0.889014 0.887615 0.887041 0.887533 0.888054 0.887648 0.888675 0.890252 0.890524 0.890219 0.890818 0.891516 0.89183 0.892626 0.892621 0.891922 0.891927 0.892594 0.892605 0.891807 0.891529 0.890836 0.890245 0.890562 0.890279 0.888664 0.887766 0.888158 0.887586 0.887057 0.887639 0.889037 0.890377 0.891271 0.89259 0.8925 0.893832 0.891244 0.893832 0.891167 0.893832 0.890205 0.893832 0.890155 0.893832 0.889841 0.893832 0.889848 0.893832 0.890331 0.893832 0.890495 0.893832 0.889817 0.893832 0.890495 0.893832 0.890331 0.893832 0.889848 0.893832 0.889841 0.893832 0.890155 0.893832 0.890205 0.893832 0.891167 0.893832 0.891244 0.893832 0.8925 0.89259 0.891271 0.890377 0.889037 0.887639 0.887057 0.887586 0.888158 0.887766 0.888664 0.890279 0.890562 0.890245 0.890836 0.891529 0.891807 0.892605 0.892594 0.891927 0.891932 0.892577 0.892591 0.891791 0.891537 0.890847 0.890261 0.890587 0.890298 0.888657 0.887841 0.888226 0.88762 0.887068 0.887656 0.889054 0.890403 0.891287 0.892613 0.892492 0.893832 0.891246 0.893832 0.891167 0.893832 0.890214 0.893832 0.890167 0.893832 0.889868 0.893832 0.889895 0.893832 0.890414 0.893832 0.890605 0.893832 0.890007 0.893832 0.890605 0.893832 0.890414 0.893832 0.889895 0.893832 0.889868 0.893832 0.890167 0.893832 0.890214 0.893832 0.891167 0.893832 0.891246 0.893832 0.892492 0.892613 0.891287 0.890403 0.889054 0.887656 0.887068 0.88762 0.888226 0.887841 0.888657 0.890298 0.890587 0.890261 0.890847 0.891537 0.891791 0.892591 0.892577 0.891932 0.891934 0.892568 0.892585 0.891783 0.891541 0.890852 0.890269 0.8906 0.890308 0.888655 0.887878 0.888259 0.887637 0.887074 0.887665 0.889062 0.890416 0.891296 0.892624 0.892488 0.893832 0.891247 0.893832 0.891167 0.893832 0.890218 0.893832 0.890173 0.893832 0.889882 0.893832 0.889919 0.893832 0.890455 0.893832 0.890659 0.893832 0.890102 0.893832 0.890659 0.893832 0.890455 0.893832 0.889919 0.893832 0.889882 0.893832 0.890173 0.893832 0.890218 0.893832 0.891167 0.893832 0.891247 0.893832 0.892488 0.892624 0.891296 0.890416 0.889062 0.887665 0.887074 0.887637 0.888259 0.887878 0.888655 0.890308 0.8906 0.890269 0.890852 0.891541 0.891783 0.892585 0.892568 0.891934 
SCALARS Axial_Stress float 1
LOOKUP_TABLE default
-112282000000.0 -112282000000.0 -76020700000.0 -133931000000.0 -217424000000.0 -217424000000.0 -133931000000.0 -76020700000.0 -298861000000.0 -566475000000.0 -190421000000.0 -111735000000.0 -94333900000.0 -248948000000.0 -168854000000.0 -159952000000.0 -203880000000.0 -203880000000.0 -159952000000.0 -168854000000.0 -248948000000.0 -94333800000.0 -111735000000.0 -190421000000.0 -566475000000.0 -298861000000.0 -347515000000.0 -584165000000.0 -404929000000.0 -501323000000.0 -640744000000.0 -495294000000.0 -490850000000.0 -573835000000.0 -284496000000.0 -573835000000.0 -490850000000.0 -495294000000.0 -640744000000.0 -501323000000.0 -404929000000.0 -584165000000.0 -347515000000.0 -1.39883e+12 -746115000000.0 -1.22434e+12 -581468000000.0 -76331700000.0 -518774000000.0 -804428000000.0 -1.00064e+12 -838230000000.0 -986065000000.0 -736207000000.0 -485705000000.0 -509385000000.0 -485705000000.0 -736207000000.0 -986065000000.0 -838230000000.0 -1.00064e+12 -804428000000.0 -518774000000.0 -76331800000.0 -581468000000.0 -1.22434e+12 -746115000000.0 -1.39883e+12 -1.87749e+12 -3.24117e+12 -1.34974e+12 -1.56742e+12 -817814000000.0 -669276000000.0 -800173000000.0 -1.03573e+12 -1.45306e+12 -243208000000.0 -603510000000.0 -603510000000.0 -243208000000.0 -1.45306e+12 -1.03573e+12 -800173000000.0 -669276000000.0 -817814000000.0 -1.56742e+12 -1.34974e+12 -3.24117e+12 -1.87749e+12 -2.01995e+12 -2.03256e+12 -3.62823e+12 -1.79732e+12 -902531000000.0 -1.40425e+12 -1.08741e+12 -1.20159e+12 -1.38192e+12 -940964000000.0 -565180000000.0 -591845000000.0 -565180000000.0 -940964000000.0 -1.38192e+12 -1.20159e+12 -1.08741e+12 -1.40425e+12 -902531000000.0 -1.79732e+12 -3.62823e+12 -2.03256e+12 -2.01995e+12 -1.94799e+12 -3.39249e+12 -4.02535e+12 -1.43899e+12 -1.26521e+12 -1.85548e+12 -1.70001e+12 -1.38595e+12 -341686000000.0 -595913000000.0 -723917000000.0 -646254000000.0 -651281000000.0 -591529000000.0 -594929000000.0 -591529000000.0 -651280000000.0 -646254000000.0 -723917000000.0 -595913000000.0 -341685000000.0 -1.38595e+12 -1.70001e+12 -1.85548e+12 -1.26521e+12 -1.43899e+12 -4.02535e+12 -3.39249e+12 -1.94799e+12 -1.69095e+12 -3.11484e+12 -3.11599e+12 -3.50921e+12 -3.31565e+12 -2.12134e+12 -2.05191e+12 -1.56727e+12 -1.69619e+12 -1.63731e+12 -1.856e+12 -2.13466e+12 -9059730000.0 -603486000000.0 -668936000000.0 -631366000000.0 -631366000000.0 -668936000000.0 -603486000000.0 -9059730000.0 -2.13466e+12 -1.856e+12 -1.63731e+12 -1.69619e+12 -1.56727e+12 -2.05191e+12 -2.12134e+12 -3.31565e+12 -3.5092e+12 -3.11599e+12 -3.11484e+12 -1.69095e+12 -2.69832e+12 -4.05719e+12 -2.69903e+12 -2.58619e+12 -3.0872e+12 -2.05631e+12 -1.95629e+12 -1.79935e+12 -1.43622e+12 -478944000000.0 -710230000000.0 -666698000000.0 -620636000000.0 -666698000000.0 -710230000000.0 -478944000000.0 -1.43622e+12 -1.79935e+12 -1.95629e+12 -2.05631e+12 -3.0872e+12 -2.58619e+12 -2.69903e+12 -4.05719e+12 -2.69832e+12 -2.56231e+12 -2.6525e+12 -4.50819e+12 -4.42955e+12 -2.71899e+12 -2.85815e+12 -2.7901e+12 -2.14002e+12 -1.91402e+12 -1.84553e+12 -1.66758e+12 -1.44176e+12 -737617000000.0 -959105000000.0 -741544000000.0 -763783000000.0 -690289000000.0 -653133000000.0 -653133000000.0 -690288000000.0 -763782000000.0 -741544000000.0 -959105000000.0 -737617000000.0 -1.44176e+12 -1.66758e+12 -1.84553e+12 -1.91402e+12 -2.14002e+12 -2.7901e+12 -2.85815e+12 -2.71899e+12 -4.42955e+12 -4.50819e+12 -2.6525e+12 -2.56231e+12 -2.48433e+12 -4.46747e+12 -4.25696e+12 -4.27587e+12 -4.31168e+12 -3.82775e+12 -2.63661e+12 -2.31044e+12 -2.22696e+12 -2.06763e+12 -2.00555e+12 -1.73844e+12 -1.23938e+12 -1.08462e+12 -649041000000.0 -673346000000.0 -694826000000.0 -622550000000.0 -694826000000.0 -673345000000.0 -649041000000.0 -1.08462e+12 -1.23938e+12 -1.73844e+12 -2.00555e+12 -2.06763e+12 -2.22696e+12 -2.31044e+12 -2.63661e+12 -3.82775e+12 -4.31168e+12 -4.27587e+12 -4.25696e+12 -4.46747e+12 -2.48433e+12 -2.41705e+12 -4.37069e+12 -4.22247e+12 -4.29213e+12 -4.09355e+12 -3.99577e+12 -3.21962e+12 -2.3753e+12 -2.14823e+12 -1.95046e+12 -1.62371e+12 -1.28528e+12 -1.24536e+12 -672908000000.0 -582860000000.0 -672908000000.0 -1.24536e+12 -1.28528e+12 -1.62371e+12 -1.95046e+12 -2.14823e+12 -2.3753e+12 -3.21962e+12 -3.99577e+12 -4.09355e+12 -4.29213e+12 -4.22247e+12 -4.37069e+12 -2.41705e+12 -2.35806e+12 -4.20517e+12 -4.28121e+12 -4.14337e+12 -4.05132e+12 -3.93999e+12 -3.62932e+12 -3.5124e+12 -3.06886e+12 -2.8844e+12 -2.60711e+12 -2.27282e+12 -2.21282e+12 -2.11005e+12 -2.11075e+12 -1.89365e+12 -1.82205e+12 -1.52569e+12 -1.51436e+12 -1.35149e+12 -1.48597e+12 -1.56829e+12 -1.89199e+12 -816408000000.0 -816409000000.0 -1.89199e+12 -1.56829e+12 -1.48597e+12 -1.35149e+12 -1.51436e+12 -1.52569e+12 -1.82205e+12 -1.89365e+12 -2.11075e+12 -2.11005e+12 -2.21282e+12 -2.27282e+12 -2.60711e+12 -2.8844e+12 -3.06886e+12 -3.5124e+12 -3.62932e+12 -3.93999e+12 -4.05132e+12 -4.14337e+12 -4.28121e+12 -4.20517e+12 -2.35806e+12 -2.25752e+12 -2.30546e+12 -4.13923e+12 -4.07078e+12 -3.98879e+12 -3.8111e+12 -3.85164e+12 -3.63528e+12 -3.25759e+12 -2.7668e+12 -2.38953e+12 -2.27464e+12 -2.24324e+12 -2.09677e+12 -1.74559e+12 -1.51232e+12 -1.65323e+12 -2.33499e+12 -218856000000.0 -2.33499e+12 -1.65323e+12 -1.51232e+12 -1.74559e+12 -2.09677e+12 -2.24324e+12 -2.27464e+12 -2.38953e+12 -2.7668e+12 -3.25759e+12 -3.63528e+12 -3.85164e+12 -3.8111e+12 -3.98879e+12 -4.07078e+12 -4.13923e+12 -2.30546e+12 -2.25752e+12 -2.21325e+12 -4.07882e+12 -4.00613e+12 -3.86943e+12 -3.92679e+12 -3.76742e+12 -3.6068e+12 -3.34745e+12 -2.89659e+12 -2.59229e+12 -2.50608e+12 -2.31062e+12 -2.26041e+12 -2.33203e+12 -2.03509e+12 -1.68643e+12 -1.54348e+12 -1.76826e+12 -3.16911e+12 -3.16911e+12 -1.76826e+12 -1.54348e+12 -1.68643e+12 -2.03509e+12 -2.33203e+12 -2.26041e+12 -2.31062e+12 -2.50608e+12 -2.59229e+12 -2.89659e+12 -3.34745e+12 -3.6068e+12 -3.76742e+12 -3.92679e+12 -3.86943e+12 -4.00613e+12 -4.07882e+12 -2.21325e+12 -2.17273e+12 -3.96245e+12 -4.02045e+12 -3.88911e+12 -3.94646e+12 -3.81535e+12 -3.72402e+12 -3.58718e+12 -3.38384e+12 -3.37814e+12 -3.10794e+12 -3.02626e+12 -2.69875e+12 -2.35045e+12 -2.23792e+12 -2.41972e+12 -2.67075e+12 -2.36148e+12 -2.24108e+12 -1.91348e+12 -1.43985e+12 -1.43169e+12 -1.52943e+12 -1.68468e+12 -1.96091e+12 -2.34856e+12 -149887000000.0 -2.34856e+12 -1.96091e+12 -1.68468e+12 -1.52943e+12 -1.43169e+12 -1.43985e+12 -1.91348e+12 -2.24108e+12 -2.36148e+12 -2.67075e+12 -2.41972e+12 -2.23792e+12 -2.35045e+12 -2.69875e+12 -3.02626e+12 -3.10794e+12 -3.37814e+12 -3.38384e+12 -3.58718e+12 -3.72401e+12 -3.81535e+12 -3.94646e+12 -3.88911e+12 -4.02045e+12 -3.96245e+12 -2.17273e+12 -2.13499e+12 -3.90322e+12 -3.83231e+12 -3.76202e+12 -3.68127e+12 -3.53917e+12 -3.56452e+12 -3.38736e+12 -3.15687e+12 -2.81368e+12 -2.37023e+12 -2.1661e+12 -2.11966e+12 -2.28149e+12 -2.68703e+12 -2.69652e+12 -1.4837e+12 -1.47599e+12 -1.60593e+12 -862293000000.0 -906565000000.0 -607032000000.0 -906564000000.0 -862293000000.0 -1.60593e+12 -1.47599e+12 -1.4837e+12 -2.69652e+12 -2.68703e+12 -2.28149e+12 -2.11966e+12 -2.1661e+12 -2.37023e+12 -2.81368e+12 -3.15687e+12 -3.38736e+12 -3.56452e+12 -3.53917e+12 -3.68127e+12 -3.76202e+12 -3.83231e+12 -3.90322e+12 -2.13499e+12 -2.06174e+12 -2.09841e+12 -3.83976e+12 -3.77505e+12 -3.65225e+12 -3.708e+12 -3.58932e+12 -3.63702e+12 -3.50879e+12 -3.38497e+12 -3.18968e+12 -2.8963e+12 -2.4772e+12 -2.05623e+12 -2.14674e+12 -1.92328e+12 -2.11648e+12 -3.18488e+12 -1.5695e+12 -1.52961e+12 -1.43766e+12 -1.06193e+12 -909516000000.0 -909516000000.0 -1.06193e+12 -1.43766e+12 -1.52961e+12 -1.5695e+12 -3.18488e+12 -2.11648e+12 -1.92328e+12 -2.14674e+12 -2.05623e+12 -2.4772e+12 -2.8963e+12 -3.18968e+12 -3.38497e+12 -3.50879e+12 -3.63702e+12 -3.58932e+12 -3.708e+12 -3.65225e+12 -3.77505e+12 -3.83976e+12 -2.09841e+12 -2.06174e+12 -2.02141e+12 -3.76981e+12 -3.64625e+12 -3.71365e+12 -3.59476e+12 -3.53715e+12 -3.4722e+12 -3.37351e+12 -3.21697e+12 -3.03253e+12 -2.97186e+12 -2.7177e+12 -2.60854e+12 -2.20355e+12 -1.89331e+12 -1.87195e+12 -2.71472e+12 -1.76628e+12 -1.63787e+12 -1.45792e+12 -1.27892e+12 -1.01997e+12 -875655000000.0 -1.01997e+12 -1.27893e+12 -1.45792e+12 -1.63787e+12 -1.76628e+12 -2.71473e+12 -1.87195e+12 -1.89331e+12 -2.20355e+12 -2.60854e+12 -2.7177e+12 -2.97186e+12 -3.03253e+12 -3.21697e+12 -3.37351e+12 -3.4722e+12 -3.53715e+12 -3.59476e+12 -3.71365e+12 -3.64625e+12 -3.76981e+12 -2.02141e+12 -1.97227e+12 -3.61564e+12 -3.69552e+12 -3.57012e+12 -3.53018e+12 -3.48006e+12 -3.37537e+12 -3.42867e+12 -3.32053e+12 -3.35021e+12 -3.22217e+12 -3.22789e+12 -3.07378e+12 -2.84398e+12 -2.45161e+12 -1.45514e+12 -1.5844e+12 -1.58619e+12 -1.43545e+12 -2.06504e+12 -975043000000.0 -1.90617e+12 -1.62427e+12 -1.52531e+12 -1.49862e+12 -1.39877e+12 -1.27065e+12 -1.15095e+12 -1.09882e+12 -1.00995e+12 -1.00358e+12 -1.00995e+12 -1.09882e+12 -1.15095e+12 -1.27065e+12 -1.39877e+12 -1.49862e+12 -1.52532e+12 -1.62427e+12 -1.90618e+12 -975043000000.0 -2.06504e+12 -1.43545e+12 -1.58619e+12 -1.5844e+12 -1.45514e+12 -2.45161e+12 -2.84398e+12 -3.07378e+12 -3.22789e+12 -3.22217e+12 -3.35021e+12 -3.32053e+12 -3.42867e+12 -3.37537e+12 -3.48006e+12 -3.53018e+12 -3.57012e+12 -3.69552e+12 -3.61564e+12 -1.97227e+12 -1.82611e+12 -1.90821e+12 -3.52664e+12 -3.48959e+12 -3.45902e+12 -3.3536e+12 -3.42247e+12 -3.3148e+12 -3.27957e+12 -3.20649e+12 -3.08093e+12 -2.90789e+12 -2.62124e+12 -2.53206e+12 -1.94177e+12 -1.7662e+12 -1.84701e+12 -2.3223e+12 -1.35517e+12 -1.5216e+12 -1.37139e+12 -1.17658e+12 -1.06826e+12 -1.06827e+12 -1.17658e+12 -1.37139e+12 -1.5216e+12 -1.35517e+12 -2.32231e+12 -1.84701e+12 -1.7662e+12 -1.94177e+12 -2.53206e+12 -2.62124e+12 -2.90789e+12 -3.08093e+12 -3.20649e+12 -3.27957e+12 -3.3148e+12 -3.42247e+12 -3.3536e+12 -3.45902e+12 -3.48959e+12 -3.52664e+12 -1.90821e+12 -1.82611e+12 -1.72259e+12 -3.4235e+12 -3.40472e+12 -3.2771e+12 -3.37025e+12 -3.27568e+12 -3.25825e+12 -3.22362e+12 -3.18398e+12 -3.07432e+12 -3.09086e+12 -2.96195e+12 -2.92752e+12 -2.72024e+12 -2.78356e+12 -2.61004e+12 -2.00926e+12 -778943000000.0 -1.92707e+12 -753034000000.0 -504439000000.0 -2.41322e+12 -1.89399e+12 -1.4326e+12 -1.25507e+12 -1.12489e+12 -1.06399e+12 -1.12489e+12 -1.25507e+12 -1.43261e+12 -1.89399e+12 -2.41322e+12 -504439000000.0 -753033000000.0 -1.92707e+12 -778943000000.0 -2.00926e+12 -2.61004e+12 -2.78356e+12 -2.72024e+12 -2.92752e+12 -2.96195e+12 -3.09086e+12 -3.07432e+12 -3.18398e+12 -3.22362e+12 -3.25825e+12 -3.27568e+12 -3.37025e+12 -3.2771e+12 -3.40472e+12 -3.4235e+12 -1.72259e+12 -1.60598e+12 -3.30184e+12 -3.20633e+12 -3.31082e+12 -3.18956e+12 -3.16114e+12 -3.10022e+12 -3.1815e+12 -3.10391e+12 -3.15238e+12 -3.08772e+12 -3.15157e+12 -3.07779e+12 -2.96409e+12 -2.8504e+12 -2.54226e+12 -3.09765e+12 -2.72824e+12 -3.02611e+12 -2.46709e+12 -2.25769e+12 -2.09684e+12 -1.80692e+12 -1.99238e+12 -1.58122e+12 -1.42148e+12 -1.32853e+12 -1.23244e+12 -1.17674e+12 -1.12793e+12 -1.09617e+12 -1.09026e+12 -1.09617e+12 -1.12793e+12 -1.17674e+12 -1.23244e+12 -1.32853e+12 -1.42148e+12 -1.58122e+12 -1.99238e+12 -1.80692e+12 -2.09684e+12 -2.25769e+12 -2.46709e+12 -3.02611e+12 -2.72823e+12 -3.09765e+12 -2.54226e+12 -2.8504e+12 -2.96409e+12 -3.07779e+12 -3.15157e+12 -3.08772e+12 -3.15238e+12 -3.10391e+12 -3.1815e+12 -3.10022e+12 -3.16114e+12 -3.18956e+12 -3.31082e+12 -3.20633e+12 -3.30184e+12 -1.60598e+12 -1.48959e+12 -2.98012e+12 -3.15472e+12 -3.08395e+12 -3.09765e+12 -3.05097e+12 -2.9361e+12 -3.01005e+12 -2.9891e+12 -3.05583e+12 -2.97293e+12 -2.7963e+12 -2.679e+12 -1.66224e+12 -2.83876e+12 -2.03224e+12 -1.79352e+12 -1.87821e+12 -2.76982e+12 -2.65726e+12 -1.74935e+12 -1.62147e+12 -1.29796e+12 -1.1611e+12 -1.0997e+12 -1.0997e+12 -1.1611e+12 -1.29796e+12 -1.62147e+12 -1.74935e+12 -2.65726e+12 -2.76982e+12 -1.87821e+12 -1.79352e+12 -2.03224e+12 -2.83876e+12 -1.66225e+12 -2.679e+12 -2.7963e+12 -2.97293e+12 -3.05583e+12 -2.9891e+12 -3.01005e+12 -2.9361e+12 -3.05097e+12 -3.09765e+12 -3.08395e+12 -3.15472e+12 -2.98012e+12 -1.48959e+12 -1.34689e+12 -1.39906e+12 -2.77123e+12 -2.93482e+12 -3.00116e+12 -2.88537e+12 -2.96739e+12 -2.79746e+12 -2.94876e+12 -2.83198e+12 -2.97613e+12 -2.83553e+12 -2.97876e+12 -2.98979e+12 -3.00785e+12 -2.89039e+12 -2.91723e+12 -2.76552e+12 -2.58949e+12 -1.74602e+12 -2.99978e+12 -2.73234e+12 -1.45401e+12 -2.98861e+12 -1.15768e+12 -915480000000.0 -1.53999e+12 -1.47109e+12 -1.35978e+12 -1.20291e+12 -1.11405e+12 -1.08648e+12 -1.11405e+12 -1.20291e+12 -1.35978e+12 -1.47109e+12 -1.53999e+12 -915480000000.0 -1.15767e+12 -2.98861e+12 -1.45401e+12 -2.73234e+12 -2.99978e+12 -1.74602e+12 -2.58949e+12 -2.76552e+12 -2.91723e+12 -2.89039e+12 -3.00785e+12 -2.98979e+12 -2.97876e+12 -2.83553e+12 -2.97613e+12 -2.83198e+12 -2.94876e+12 -2.79746e+12 -2.96739e+12 -2.88537e+12 -3.00116e+12 -2.93482e+12 -2.77123e+12 -1.39906e+12 -1.34689e+12 -1.26063e+12 -2.57396e+12 -2.74896e+12 -2.7418e+12 -2.89245e+12 -2.819e+12 -2.72604e+12 -2.6672e+12 -2.89365e+12 -2.91952e+12 -2.57156e+12 -2.92224e+12 -2.9667e+12 -2.97653e+12 -2.83943e+12 -959139000000.0 -2.5486e+12 -1.18653e+12 -2.10755e+12 -1.05236e+12 -1.42853e+12 -1.27348e+12 -872857000000.0 -1.39051e+12 -1.41486e+12 -1.27287e+12 -1.23819e+12 -1.15934e+12 -1.13573e+12 -1.08923e+12 -1.08372e+12 -1.06416e+12 -1.08372e+12 -1.08923e+12 -1.13573e+12 -1.15935e+12 -1.23819e+12 -1.27288e+12 -1.41486e+12 -1.39051e+12 -872856000000.0 -1.27348e+12 -1.42853e+12 -1.05236e+12 -2.10755e+12 -1.18653e+12 -2.5486e+12 -959138000000.0 -2.83943e+12 -2.97653e+12 -2.9667e+12 -2.92224e+12 -2.57156e+12 -2.91952e+12 -2.89365e+12 -2.6672e+12 -2.72604e+12 -2.819e+12 -2.89245e+12 -2.7418e+12 -2.74896e+12 -2.57396e+12 -1.26063e+12 -1.14887e+12 -2.34198e+12 -2.31307e+12 -2.52853e+12 -2.54572e+12 -2.73277e+12 -2.69102e+12 -2.53557e+12 -2.43823e+12 -2.279e+12 -3.0462e+12 -2.64632e+12 -2.76913e+12 -3.55256e+12 -2.40674e+12 -1.41518e+12 -1.44547e+12 -1.13813e+12 -983597000000.0 -872904000000.0 -521712000000.0 -1.62656e+12 -1.50317e+12 -1.16754e+12 -1.09752e+12 -1.05453e+12 -1.05453e+12 -1.09752e+12 -1.16754e+12 -1.50317e+12 -1.62657e+12 -521710000000.0 -872904000000.0 -983600000000.0 -1.13813e+12 -1.44547e+12 -1.41518e+12 -2.40674e+12 -3.55256e+12 -2.76913e+12 -2.64632e+12 -3.0462e+12 -2.279e+12 -2.43823e+12 -2.53557e+12 -2.69102e+12 -2.73278e+12 -2.54572e+12 -2.52853e+12 -2.31307e+12 -2.34198e+12 -1.14887e+12 -1.00549e+12 -1.75929e+12 -2.08265e+12 -2.06253e+12 -2.32962e+12 -2.61036e+12 -2.67466e+12 -2.63905e+12 -2.41268e+12 -2.24312e+12 -3.2917e+12 -2.64058e+12 -2.73355e+12 -3.08196e+12 -3.54876e+12 -3.07779e+12 -2.73595e+12 -2.60177e+12 -1.78602e+12 -1.18031e+12 -1.61377e+12 -1.24593e+12 -1.14487e+12 -1.40618e+12 -1.63565e+12 -1.78123e+12 -1.27753e+12 -1.2178e+12 -1.19925e+12 -1.11755e+12 -1.05109e+12 -1.0312e+12 -1.0511e+12 -1.11755e+12 -1.19925e+12 -1.2178e+12 -1.27753e+12 -1.78123e+12 -1.63565e+12 -1.40618e+12 -1.14487e+12 -1.24593e+12 -1.61377e+12 -1.18031e+12 -1.78602e+12 -2.60177e+12 -2.73595e+12 -3.07779e+12 -3.54876e+12 -3.08196e+12 -2.73355e+12 -2.64058e+12 -3.2917e+12 -2.24312e+12 -2.41268e+12 -2.63905e+12 -2.67466e+12 -2.61036e+12 -2.32962e+12 -2.06253e+12 -2.08265e+12 -1.75929e+12 -1.00549e+12 -779410000000.0 -902973000000.0 -1.75889e+12 -2.08957e+12 -2.1764e+12 -2.42401e+12 -2.56464e+12 -2.60331e+12 -2.03546e+12 -2.88996e+12 -3.91467e+12 -1.66668e+12 -3.98569e+12 -1.70168e+12 -2.91301e+12 -1.82617e+12 -3.52969e+12 -1.12921e+12 -1.42074e+12 -1.26919e+12 -1.38004e+12 -1.24995e+12 -1.12154e+12 -513168000000.0 -979356000000.0 -1.27725e+12 -1.09379e+12 -1.06316e+12 -1.04531e+12 -1.01257e+12 -1.018e+12 -989733000000.0 -1.018e+12 -1.01258e+12 -1.04532e+12 -1.06316e+12 -1.0938e+12 -1.27725e+12 -979360000000.0 -513170000000.0 -1.12154e+12 -1.24995e+12 -1.38004e+12 -1.26919e+12 -1.42074e+12 -1.12921e+12 -3.52969e+12 -1.82617e+12 -2.91301e+12 -1.70168e+12 -3.98569e+12 -1.66668e+12 -3.91467e+12 -2.88996e+12 -2.03546e+12 -2.60331e+12 -2.56464e+12 -2.42401e+12 -2.1764e+12 -2.08957e+12 -1.75889e+12 -902973000000.0 -779410000000.0 -659090000000.0 -1.07573e+12 -1.42363e+12 -1.76835e+12 -1.82558e+12 -2.39477e+12 -2.67778e+12 -2.43846e+12 -2.76593e+12 -535778000000.0 -1.83966e+12 -3.00909e+12 -2.42057e+12 -2.0782e+12 -3.25809e+12 -3.09977e+12 -1.54856e+12 -2.122e+12 -1.61066e+12 -1.95735e+12 -1.22529e+12 -1.17156e+12 -1.15573e+12 -1.09114e+12 -1.06956e+12 -1.03232e+12 -1.10957e+12 -1.21858e+12 -869366000000.0 -1.00087e+12 -969788000000.0 -969791000000.0 -1.00087e+12 -869372000000.0 -1.21859e+12 -1.10957e+12 -1.03231e+12 -1.06956e+12 -1.09114e+12 -1.15573e+12 -1.17156e+12 -1.22529e+12 -1.95735e+12 -1.61066e+12 -2.122e+12 -1.54856e+12 -3.09976e+12 -3.25809e+12 -2.0782e+12 -2.42057e+12 -3.00909e+12 -1.83966e+12 -535777000000.0 -2.76593e+12 -2.43846e+12 -2.67778e+12 -2.39477e+12 -1.82558e+12 -1.76835e+12 -1.42363e+12 -1.07573e+12 -659090000000.0 -292439000000.0 -509126000000.0 -1.00428e+12 -1.02336e+12 -979577000000.0 -1.39101e+12 -1.39608e+12 -1.99883e+12 -2.50464e+12 -2.6954e+12 -3.04009e+12 -2.40247e+12 -1.55038e+12 -2.95903e+12 -3.25924e+12 -2.5305e+12 -2.65905e+12 -2.12049e+12 -2.97607e+12 -570763000000.0 -1.60583e+12 -1.74795e+12 -1.57477e+12 -1.60771e+12 -1.01282e+12 -964050000000.0 -898442000000.0 -920539000000.0 -722546000000.0 -724832000000.0 -844153000000.0 -1.0426e+12 -509398000000.0 -925065000000.0 -1.14519e+12 -953342000000.0 -939847000000.0 -953348000000.0 -1.14519e+12 -925069000000.0 -509402000000.0 -1.0426e+12 -844155000000.0 -724833000000.0 -722547000000.0 -920539000000.0 -898442000000.0 -964050000000.0 -1.01282e+12 -1.60771e+12 -1.57477e+12 -1.74795e+12 -1.60583e+12 -570763000000.0 -2.97607e+12 -2.12049e+12 -2.65905e+12 -2.5305e+12 -3.25924e+12 -2.95903e+12 -1.55038e+12 -2.40247e+12 -3.04009e+12 -2.6954e+12 -2.50464e+12 -1.99883e+12 -1.39608e+12 -1.39101e+12 -979577000000.0 -1.02336e+12 -1.00428e+12 -509126000000.0 -292439000000.0 -781587000000.0 -1.05256e+12 -463486000000.0 -1.02535e+12 -1.37024e+12 -1.29477e+12 -2.97786e+12 -2.56804e+12 -2.52594e+12 -2.37456e+12 -1.88e+12 -1.90863e+12 -2.09675e+12 -1.46857e+12 -1.38054e+12 -1.34506e+12 -1.05154e+12 -737349000000.0 -905393000000.0 -62456800000.0 -453390000000.0 -783477000000.0 -508973000000.0 -736175000000.0 -1.09777e+12 -850965000000.0 -907512000000.0 -913605000000.0 -877362000000.0 -913607000000.0 -907504000000.0 -850979000000.0 -1.09777e+12 -736181000000.0 -508974000000.0 -783482000000.0 -453389000000.0 -62456500000.0 -905394000000.0 -737349000000.0 -1.05154e+12 -1.34506e+12 -1.38054e+12 -1.46857e+12 -2.09675e+12 -1.90863e+12 -1.88e+12 -2.37456e+12 -2.52594e+12 -2.56804e+12 -2.97786e+12 -1.29477e+12 -1.37024e+12 -1.02535e+12 -463486000000.0 -1.05256e+12 -781587000000.0 -116583000000.0 -749916000000.0 -789295000000.0 -645351000000.0 -1.08159e+12 -1.10984e+12 -1.09573e+12 -1.16577e+12 -3.79025e+12 -2.27056e+12 -1.14354e+12 -1.37433e+12 -2.20017e+12 -2.14791e+12 -2.10929e+12 -2.03386e+12 -1.84735e+12 -1.84808e+12 -1.68175e+12 -1.66706e+12 -1.48132e+12 -1.17366e+12 -1.1522e+12 -867079000000.0 -860609000000.0 -679174000000.0 -283875000000.0 -370684000000.0 -529956000000.0 -843965000000.0 -843963000000.0 -529973000000.0 -370682000000.0 -283876000000.0 -679175000000.0 -860610000000.0 -867079000000.0 -1.1522e+12 -1.17366e+12 -1.48132e+12 -1.66706e+12 -1.68175e+12 -1.84808e+12 -1.84735e+12 -2.03386e+12 -2.10929e+12 -2.14791e+12 -2.20017e+12 -1.37433e+12 -1.14354e+12 -2.27056e+12 -3.79025e+12 -1.16576e+12 -1.09573e+12 -1.10984e+12 -1.08159e+12 -645351000000.0 -789295000000.0 -749916000000.0 -116583000000.0 -315643000000.0 -339164000000.0 -284602000000.0 -774775000000.0 -891507000000.0 -1.09381e+12 -1.12423e+12 -3.09204e+12 -2.95003e+12 -2.09751e+12 -2.03049e+12 -1.88881e+12 -1.84958e+12 -1.70875e+12 -1.65097e+12 -1.5527e+12 -1.43199e+12 -1.36328e+12 -1.25335e+12 -1.2157e+12 -1.0544e+12 -738820000000.0 -808104000000.0 -875426000000.0 -992619000000.0 -1.33602e+12 -1.08431e+12 -997579000000.0 -685966000000.0 -719626000000.0 -818535000000.0 -735777000000.0 -812234000000.0 -779127000000.0 -812221000000.0 -735770000000.0 -818532000000.0 -719627000000.0 -685963000000.0 -997582000000.0 -1.08431e+12 -1.33602e+12 -992620000000.0 -875427000000.0 -808105000000.0 -738821000000.0 -1.0544e+12 -1.2157e+12 -1.25335e+12 -1.36328e+12 -1.43199e+12 -1.5527e+12 -1.65097e+12 -1.70875e+12 -1.84958e+12 -1.88881e+12 -2.03049e+12 -2.09751e+12 -2.95003e+12 -3.09204e+12 -1.12424e+12 -1.09381e+12 -891507000000.0 -774775000000.0 -284602000000.0 -339164000000.0 -315643000000.0 -166658000000.0 -469964000000.0 -218167000000.0 -482015000000.0 -646691000000.0 -901786000000.0 -927727000000.0 -1.30561e+12 -1.30661e+12 -2.8583e+12 -445657000000.0 -1.59828e+12 -1.5903e+12 -1.62916e+12 -1.28018e+12 -1.1606e+12 -1.06591e+12 -1.00453e+12 -985884000000.0 -992697000000.0 -864317000000.0 -840758000000.0 -687459000000.0 -526510000000.0 -280695000000.0 -520081000000.0 -375643000000.0 -381965000000.0 -622475000000.0 -308992000000.0 -494120000000.0 -712520000000.0 -672108000000.0 -712534000000.0 -494095000000.0 -308999000000.0 -622474000000.0 -381975000000.0 -375637000000.0 -520083000000.0 -280690000000.0 -526509000000.0 -687460000000.0 -840759000000.0 -864317000000.0 -992697000000.0 -985884000000.0 -1.00453e+12 -1.06591e+12 -1.1606e+12 -1.28018e+12 -1.62916e+12 -1.5903e+12 -1.59828e+12 -445658000000.0 -2.8583e+12 -1.30661e+12 -1.30561e+12 -927727000000.0 -901786000000.0 -646691000000.0 -482015000000.0 -218167000000.0 -469964000000.0 -166658000000.0 -261822000000.0 -499860000000.0 -779707000000.0 -645690000000.0 -996688000000.0 -1.78871e+12 -1.02903e+12 -2.56741e+12 -1.00934e+12 -1.31741e+12 -1.35303e+12 -1.6032e+12 -1.54404e+12 -1.46863e+12 -1.38422e+12 -757599000000.0 -734032000000.0 -741091000000.0 -778063000000.0 -650491000000.0 -221558000000.0 -43650500000.0 -426103000000.0 -367464000000.0 -540602000000.0 -540566000000.0 -367467000000.0 -426109000000.0 -43650400000.0 -221559000000.0 -650492000000.0 -778064000000.0 -741091000000.0 -734032000000.0 -757599000000.0 -1.38422e+12 -1.46863e+12 -1.54404e+12 -1.6032e+12 -1.35303e+12 -1.31741e+12 -1.00934e+12 -2.56741e+12 -1.02903e+12 -1.78871e+12 -996689000000.0 -645690000000.0 -779707000000.0 -499861000000.0 -261822000000.0 -425291000000.0 -324611000000.0 -564283000000.0 -874153000000.0 -535249000000.0 -968835000000.0 -1.52149e+12 -581533000000.0 -2.18278e+12 -894284000000.0 -1.37448e+12 -1.34765e+12 -1.29594e+12 -1.22034e+12 -1.1296e+12 -1.00964e+12 -811766000000.0 -977266000000.0 -998135000000.0 -1.01583e+12 -662761000000.0 -898722000000.0 -789858000000.0 -889528000000.0 -787041000000.0 -648182000000.0 -691721000000.0 -497559000000.0 -702067000000.0 -795368000000.0 -623913000000.0 -591829000000.0 -623899000000.0 -795375000000.0 -702066000000.0 -497563000000.0 -691719000000.0 -648184000000.0 -787042000000.0 -889529000000.0 -789858000000.0 -898723000000.0 -662762000000.0 -1.01583e+12 -998136000000.0 -977266000000.0 -811766000000.0 -1.00964e+12 -1.1296e+12 -1.22034e+12 -1.29594e+12 -1.34765e+12 -1.37448e+12 -894284000000.0 -2.18278e+12 -581532000000.0 -1.52149e+12 -968835000000.0 -535250000000.0 -874153000000.0 -564283000000.0 -324611000000.0 -425291000000.0 -483365000000.0 -470933000000.0 -184965000000.0 -428956000000.0 -102189000000.0 -1.12883e+12 -1.39615e+12 -656030000000.0 -1.10788e+12 -1.15079e+12 -1.15836e+12 -1.12909e+12 -1.07037e+12 -996973000000.0 -923321000000.0 -855852000000.0 -935053000000.0 -969032000000.0 -972379000000.0 -713395000000.0 -522186000000.0 -333740000000.0 -371784000000.0 -392600000000.0 -585912000000.0 -365313000000.0 -571787000000.0 -108150000000.0 -525185000000.0 -195317000000.0 -442624000000.0 -469755000000.0 -663602000000.0 -469776000000.0 -442684000000.0 -195325000000.0 -525182000000.0 -108147000000.0 -571783000000.0 -365310000000.0 -585910000000.0 -392602000000.0 -371784000000.0 -333740000000.0 -522187000000.0 -713395000000.0 -972379000000.0 -969032000000.0 -935053000000.0 -855853000000.0 -923321000000.0 -996973000000.0 -1.07037e+12 -1.12909e+12 -1.15836e+12 -1.15079e+12 -1.10788e+12 -656030000000.0 -1.39615e+12 -1.12882e+12 -102188000000.0 -428956000000.0 -184966000000.0 -470933000000.0 -483365000000.0 -8959730000.0 -424758000000.0 -720985000000.0 -254534000000.0 -867317000000.0 -749240000000.0 -1.57905e+12 -896990000000.0 -963988000000.0 -855646000000.0 -780470000000.0 -731760000000.0 -684831000000.0 -726173000000.0 -732707000000.0 -727454000000.0 -713026000000.0 -638146000000.0 -445488000000.0 -234578000000.0 -22484900000.0 -393364000000.0 -393319000000.0 -22484200000.0 -234575000000.0 -445489000000.0 -638146000000.0 -713026000000.0 -727454000000.0 -732707000000.0 -726173000000.0 -684831000000.0 -731760000000.0 -780470000000.0 -855646000000.0 -963988000000.0 -896990000000.0 -1.57905e+12 -749239000000.0 -867317000000.0 -254535000000.0 -720985000000.0 -424758000000.0 -8959730000.0 -252116000000.0 -96007100000.0 -661949000000.0 -43008500000.0 -1.05478e+12 -774323000000.0 -1.05366e+12 -981625000000.0 -973611000000.0 -933378000000.0 -569717000000.0 -475536000000.0 -489790000000.0 -438872000000.0 -388768000000.0 -441618000000.0 -383069000000.0 -310413000000.0 -284867000000.0 -287433000000.0 -262867000000.0 -421076000000.0 -180110000000.0 -342416000000.0 -578214000000.0 -492821000000.0 -739043000000.0 -493215000000.0 -578209000000.0 -342413000000.0 -180109000000.0 -421074000000.0 -262865000000.0 -287433000000.0 -284866000000.0 -310413000000.0 -383069000000.0 -441618000000.0 -388768000000.0 -438872000000.0 -489790000000.0 -475536000000.0 -569717000000.0 -933378000000.0 -973611000000.0 -981625000000.0 -1.05366e+12 -774323000000.0 -1.05478e+12 -43008500000.0 -661950000000.0 -96007300000.0 -252116000000.0 -302361000000.0 -654052000000.0 -352120000000.0 -607845000000.0 -766767000000.0 -741020000000.0 -838318000000.0 -805510000000.0 -826794000000.0 -829006000000.0 -811701000000.0 -770840000000.0 -683744000000.0 -613926000000.0 -553584000000.0 -359218000000.0 -264962000000.0 -250877000000.0 -282347000000.0 -80666500000.0 -162673000000.0 -122750000000.0 -178377000000.0 -233095000000.0 -211035000000.0 -199450000000.0 -105312000000.0 -375980000000.0 -151699000000.0 -422055000000.0 -228214000000.0 -671249000000.0 -228302000000.0 -421994000000.0 -151693000000.0 -375979000000.0 -105310000000.0 -199447000000.0 -211032000000.0 -233095000000.0 -178376000000.0 -122750000000.0 -162672000000.0 -80666300000.0 -282347000000.0 -250877000000.0 -264962000000.0 -359218000000.0 -553584000000.0 -613926000000.0 -683744000000.0 -770840000000.0 -811701000000.0 -829006000000.0 -826794000000.0 -805510000000.0 -838318000000.0 -741020000000.0 -766767000000.0 -607844000000.0 -352120000000.0 -654052000000.0 -302362000000.0 -203702000000.0 -311327000000.0 -361334000000.0 -420137000000.0 -497510000000.0 -598943000000.0 -271484000000.0 -473690000000.0 -667841000000.0 -677401000000.0 -701342000000.0 -690055000000.0 -695314000000.0 -690307000000.0 -676684000000.0 -627539000000.0 -558079000000.0 -468421000000.0 -520539000000.0 -443588000000.0 -349587000000.0 -199922000000.0 -187846000000.0 -187658000000.0 -199884000000.0 -349587000000.0 -443588000000.0 -520539000000.0 -468421000000.0 -558079000000.0 -627538000000.0 -676684000000.0 -690307000000.0 -695314000000.0 -690055000000.0 -701342000000.0 -677401000000.0 -667841000000.0 -473690000000.0 -271484000000.0 -598944000000.0 -497510000000.0 -420137000000.0 -361335000000.0 -311327000000.0 -203702000000.0 -228201000000.0 -329424000000.0 -280983000000.0 -308902000000.0 -321046000000.0 -361760000000.0 -262881000000.0 -399831000000.0 -562478000000.0 -545877000000.0 -495942000000.0 -426787000000.0 -427021000000.0 -412806000000.0 -426911000000.0 -459738000000.0 -480203000000.0 -456865000000.0 -507171000000.0 -446817000000.0 -380378000000.0 -326060000000.0 -258909000000.0 -227618000000.0 -241838000000.0 -159711000000.0 -250440000000.0 -174879000000.0 -276479000000.0 -159186000000.0 -645848000000.0 -159122000000.0 -276459000000.0 -174872000000.0 -250429000000.0 -159704000000.0 -241835000000.0 -227617000000.0 -258909000000.0 -326060000000.0 -380378000000.0 -446817000000.0 -507171000000.0 -456865000000.0 -480203000000.0 -459738000000.0 -426911000000.0 -412806000000.0 -427021000000.0 -426787000000.0 -495942000000.0 -545877000000.0 -562478000000.0 -399831000000.0 -262881000000.0 -361761000000.0 -321046000000.0 -308902000000.0 -280983000000.0 -329424000000.0 -228201000000.0 -106707000000.0 -275715000000.0 -189618000000.0 -230074000000.0 -588012000000.0 -581476000000.0 -575496000000.0 -574011000000.0 -568188000000.0 -338968000000.0 -301307000000.0 -240028000000.0 -192816000000.0 -260661000000.0 -41837800000.0 -174560000000.0 -94782200000.0 -182704000000.0 -98590700000.0 -170112000000.0 -112691000000.0 -193693000000.0 -160092000000.0 -185252000000.0 -178590000000.0 -92058100000.0 -88968600000.0 -76526300000.0 -534868000000.0 -76498800000.0 -88948200000.0 -92056400000.0 -178582000000.0 -185255000000.0 -160091000000.0 -193695000000.0 -112690000000.0 -170112000000.0 -98590500000.0 -182704000000.0 -94782000000.0 -174560000000.0 -41837700000.0 -260661000000.0 -192816000000.0 -240028000000.0 -301307000000.0 -338968000000.0 -568188000000.0 -574011000000.0 -575496000000.0 -581476000000.0 -588012000000.0 -230073000000.0 -189618000000.0 -275716000000.0 -106707000000.0 -98972700000.0 -198444000000.0 -136284000000.0 -232477000000.0 -311890000000.0 -508275000000.0 -487580000000.0 -484761000000.0 -451491000000.0 -443442000000.0 -444729000000.0 -414100000000.0 -365709000000.0 -351488000000.0 -351488000000.0 -365709000000.0 -414100000000.0 -444729000000.0 -443442000000.0 -451491000000.0 -484761000000.0 -487580000000.0 -508275000000.0 -311890000000.0 -232477000000.0 -136284000000.0 -198444000000.0 -98972700000.0 -126214000000.0 -120832000000.0 -149193000000.0 -124071000000.0 -100480000000.0 -85403200000.0 -167580000000.0 -149891000000.0 -216513000000.0 -455156000000.0 -433476000000.0 -389417000000.0 -336834000000.0 -320098000000.0 -321379000000.0 -293051000000.0 -315659000000.0 -365512000000.0 -383951000000.0 -343675000000.0 -309547000000.0 -322321000000.0 -274286000000.0 -251487000000.0 -226146000000.0 -150647000000.0 -155719000000.0 -119595000000.0 -120087000000.0 -118222000000.0 -109112000000.0 -143696000000.0 -112037000000.0 -200868000000.0 -123877000000.0 -179766000000.0 -142449000000.0 -609269000000.0 -142444000000.0 -179754000000.0 -123880000000.0 -200867000000.0 -112040000000.0 -143696000000.0 -109113000000.0 -118223000000.0 -120088000000.0 -119595000000.0 -155720000000.0 -150647000000.0 -226146000000.0 -251487000000.0 -274286000000.0 -322321000000.0 -309547000000.0 -343675000000.0 -383950000000.0 -365512000000.0 -315659000000.0 -293051000000.0 -321379000000.0 -320098000000.0 -336834000000.0 -389417000000.0 -433476000000.0 -455156000000.0 -216513000000.0 -149891000000.0 -167580000000.0 -85403100000.0 -100480000000.0 -124071000000.0 -149193000000.0 -120832000000.0 -126214000000.0 -50905100000.0 -38264600000.0 -70340300000.0 -46382400000.0 -78916800000.0 -80162100000.0 -138835000000.0 -96179100000.0 -73239200000.0 -135460000000.0 -333536000000.0 -286480000000.0 -240515000000.0 -203167000000.0 -225467000000.0 -233493000000.0 -230682000000.0 -211956000000.0 -221143000000.0 -255420000000.0 -35026300000.0 -107304000000.0 -30249200000.0 -64027100000.0 -25763600000.0 -14361400000.0 -22295800000.0 -15399700000.0 -42078500000.0 -14668100000.0 -70563000000.0 -15649700000.0 -106322000000.0 -14078500000.0 -100909000000.0 -11028700000.0 -486047000000.0 -11028700000.0 -100900000000.0 -14078000000.0 -106320000000.0 -15649600000.0 -70562600000.0 -14668100000.0 -42078400000.0 -15399700000.0 -22295900000.0 -14361400000.0 -25763600000.0 -64027100000.0 -30249200000.0 -107304000000.0 -35026300000.0 -255420000000.0 -221143000000.0 -211956000000.0 -230682000000.0 -233493000000.0 -225467000000.0 -203167000000.0 -240515000000.0 -286480000000.0 -333536000000.0 -135459000000.0 -73239200000.0 -96179100000.0 -138835000000.0 -80162100000.0 -78916800000.0 -46382400000.0 -70340300000.0 -38264700000.0 -50905100000.0 -404475000000.0 -404475000000.0 -30435600000.0 -12096700000.0 -30029200000.0 -50245900000.0 -74094200000.0 -121651000000.0 -91917500000.0 -53179300000.0 -21674100000.0 -45129300000.0 -382521000000.0 -348764000000.0 -327704000000.0 -333728000000.0 -288739000000.0 -343233000000.0 -373007000000.0 -402936000000.0 -415740000000.0 -424808000000.0 -445450000000.0 -333384000000.0 -316124000000.0 -267220000000.0 -229350000000.0 -202834000000.0 -164042000000.0 -152484000000.0 -117316000000.0 -133542000000.0 -82786200000.0 -126266000000.0 -57783200000.0 -131053000000.0 -45267600000.0 -131791000000.0 -39212100000.0 -465437000000.0 -39211800000.0 -131785000000.0 -45268200000.0 -131053000000.0 -57783400000.0 -126266000000.0 -82786500000.0 -133542000000.0 -117316000000.0 -152484000000.0 -164042000000.0 -202834000000.0 -229350000000.0 -267220000000.0 -316124000000.0 -333384000000.0 -445450000000.0 -424808000000.0 -415740000000.0 -402936000000.0 -373007000000.0 -343233000000.0 -288739000000.0 -333728000000.0 -327704000000.0 -348764000000.0 -382521000000.0 -45129300000.0 -21674100000.0 -53179400000.0 -91917500000.0 -121651000000.0 -74094200000.0 -50245900000.0 -30029200000.0 -12096700000.0 -30435600000.0 -35300800000.0 -43108200000.0 -77997800000.0 -106822000000.0 -142826000000.0 -180054000000.0 -142967000000.0 -98228500000.0 -71944100000.0 -93886100000.0 -158079000000.0 -233309000000.0 -244800000000.0 -219858000000.0 -147648000000.0 -58522100000.0 -57467600000.0 -65207600000.0 -67552800000.0 -71573800000.0 -71280700000.0 -28501200000.0 -11070500000.0 -41019200000.0 -10713600000.0 -42052000000.0 -10183700000.0 -37134500000.0 -10257700000.0 -56185500000.0 -10188000000.0 -71816300000.0 -10151800000.0 -86713500000.0 -10358000000.0 -106824000000.0 -9080820000.0 -400097000000.0 -9080820000.0 -106821000000.0 -10357900000.0 -86713000000.0 -10151800000.0 -71816100000.0 -10188000000.0 -56185500000.0 -10257700000.0 -37134500000.0 -10183700000.0 -42052000000.0 -10713600000.0 -41019200000.0 -11070500000.0 -28501200000.0 -71280700000.0 -71573800000.0 -67552800000.0 -65207600000.0 -57467600000.0 -58522100000.0 -147648000000.0 -219858000000.0 -244800000000.0 -233309000000.0 -158079000000.0 -93886100000.0 -71944100000.0 -98228500000.0 -142967000000.0 -180054000000.0 -142826000000.0 -106822000000.0 -77997800000.0 -43108200000.0 -35300800000.0 -27628400000.0 -9883520000.0 -18011300000.0 -21453300000.0 -51802400000.0 -94810700000.0 -80573500000.0 -44282500000.0 -18218900000.0 -28292600000.0 -121587000000.0 -203665000000.0 -212356000000.0 -186987000000.0 -132698000000.0 -109609000000.0 -103696000000.0 -108804000000.0 -112488000000.0 -110602000000.0 -97751700000.0 -70538800000.0 -44692000000.0 -68086000000.0 -34380800000.0 -63755800000.0 -26039600000.0 -51505800000.0 -17883200000.0 -63243900000.0 -10878700000.0 -69742500000.0 -9035750000.0 -81316200000.0 -9035750000.0 -106790000000.0 -9376850000.0 -358100000000.0 -9376810000.0 -106788000000.0 -9035750000.0 -81315900000.0 -9035750000.0 -69742300000.0 -10878700000.0 -63243900000.0 -17883200000.0 -51505800000.0 -26039600000.0 -63755800000.0 -34380800000.0 -68086000000.0 -44692000000.0 -70538800000.0 -97751700000.0 -110602000000.0 -112488000000.0 -108804000000.0 -103696000000.0 -109609000000.0 -132698000000.0 -186987000000.0 -212356000000.0 -203665000000.0 -121587000000.0 -28292600000.0 -18218800000.0 -44282500000.0 -80573500000.0 -94810700000.0 -51802400000.0 -21453300000.0 -18011300000.0 -9883520000.0 -27628400000.0 -30559700000.0 -13395000000.0 -22751900000.0 -27681900000.0 -60576200000.0 -94779400000.0 -78229300000.0 -44927800000.0 -28446800000.0 -46938700000.0 -137908000000.0 -163274000000.0 -135895000000.0 -87579300000.0 -49846300000.0 -48789200000.0 -49707100000.0 -56992600000.0 -61792800000.0 -55526800000.0 -37337700000.0 -31036700000.0 -9215010000.0 -38663600000.0 -9035750000.0 -44796100000.0 -9035750000.0 -41598700000.0 -9035750000.0 -59548000000.0 -9035750000.0 -67969100000.0 -9035750000.0 -78431900000.0 -9035750000.0 -105691000000.0 -9035750000.0 -319955000000.0 -9035750000.0 -105690000000.0 -9035750000.0 -78431700000.0 -9035750000.0 -67969000000.0 -9035750000.0 -59548000000.0 -9035750000.0 -41598700000.0 -9035750000.0 -44796100000.0 -9035750000.0 -38663600000.0 -9215010000.0 -31036700000.0 -37337700000.0 -55526800000.0 -61792800000.0 -56992600000.0 -49707100000.0 -48789200000.0 -49846300000.0 -87579300000.0 -135895000000.0 -163274000000.0 -137908000000.0 -46938700000.0 -28446800000.0 -44927800000.0 -78229300000.0 -94779400000.0 -60576200000.0 -27681900000.0 -22751900000.0 -13395000000.0 -30559700000.0 -30641200000.0 -10810600000.0 -15785400000.0 -21527300000.0 -49106700000.0 -78922000000.0 -67054500000.0 -35861400000.0 -18572600000.0 -32483500000.0 -123551000000.0 -136286000000.0 -114499000000.0 -71465300000.0 -56422300000.0 -54201900000.0 -54212400000.0 -58835100000.0 -63129000000.0 -52544600000.0 -29981100000.0 -33422600000.0 -10295700000.0 -38184700000.0 -9035750000.0 -45058800000.0 -9035750000.0 -42827500000.0 -9035750000.0 -59843100000.0 -9035750000.0 -65784300000.0 -9035750000.0 -75870400000.0 -9035750000.0 -103251000000.0 -9035750000.0 -285529000000.0 -9035750000.0 -103250000000.0 -9035750000.0 -75870300000.0 -9035750000.0 -65784300000.0 -9035750000.0 -59843100000.0 -9035750000.0 -42827500000.0 -9035750000.0 -45058800000.0 -9035750000.0 -38184700000.0 -10295700000.0 -33422600000.0 -29981100000.0 -52544600000.0 -63129000000.0 -58835100000.0 -54212400000.0 -54201900000.0 -56422300000.0 -71465300000.0 -114499000000.0 -136286000000.0 -123551000000.0 -32483500000.0 -18572600000.0 -35861400000.0 -67054500000.0 -78922000000.0 -49106700000.0 -21527300000.0 -15785400000.0 -10810600000.0 -30641200000.0 -30814600000.0 -11640000000.0 -15057300000.0 -24460400000.0 -47378100000.0 -72634400000.0 -50258600000.0 -52907800000.0 -56504100000.0 -43595800000.0 -19741700000.0 -31384500000.0 -9035750000.0 -37304100000.0 -9035750000.0 -45003500000.0 -9035750000.0 -43572700000.0 -9035750000.0 -59349300000.0 -9035750000.0 -63521800000.0 -9035750000.0 -73175300000.0 -9035750000.0 -99586800000.0 -9035750000.0 -254607000000.0 -9035750000.0 -99586100000.0 -9035750000.0 -73175300000.0 -9035750000.0 -63521800000.0 -9035750000.0 -59349400000.0 -9035750000.0 -43572700000.0 -9035750000.0 -45003500000.0 -9035750000.0 -37304100000.0 -9035750000.0 -31384500000.0 -19741700000.0 -43595800000.0 -56504100000.0 -52907800000.0 -50258600000.0 -72634400000.0 -47378100000.0 -24460400000.0 -15057300000.0 -11640000000.0 -30814600000.0 -64485100000.0 -37488500000.0 -23206700000.0 -36888700000.0 -123983000000.0 -119732000000.0 -94183600000.0 -58602800000.0 -54734500000.0 -50756500000.0 -50756500000.0 -54734500000.0 -58602800000.0 -94183600000.0 -119732000000.0 -123983000000.0 -36888700000.0 -23206700000.0 -37488500000.0 -64485100000.0 -30300500000.0 -12099800000.0 -14048300000.0 -25786800000.0 -44297700000.0 -65581700000.0 -60947500000.0 -37682900000.0 -25429200000.0 -37985500000.0 -121341000000.0 -107811000000.0 -83936800000.0 -58869100000.0 -57490800000.0 -51698800000.0 -50230200000.0 -50681400000.0 -52895300000.0 -38458500000.0 -14836800000.0 -31383500000.0 -9035750000.0 -36809400000.0 -9035750000.0 -44688500000.0 -9035750000.0 -43908100000.0 -9035750000.0 -58261900000.0 -9035750000.0 -61306900000.0 -9035750000.0 -70296200000.0 -9035750000.0 -95108500000.0 -9035750000.0 -226741000000.0 -9035750000.0 -95108100000.0 -9035750000.0 -70296300000.0 -9035750000.0 -61306900000.0 -9035750000.0 -58261900000.0 -9035750000.0 -43908100000.0 -9035750000.0 -44688500000.0 -9035750000.0 -36809400000.0 -9035750000.0 -31383500000.0 -14836800000.0 -38458500000.0 -52895300000.0 -50681400000.0 -50230200000.0 -51698800000.0 -57490800000.0 -58869100000.0 -83936800000.0 -107811000000.0 -121341000000.0 -37985500000.0 -25429200000.0 -37682900000.0 -60947500000.0 -65581700000.0 -44297700000.0 -25786800000.0 -14048300000.0 -12099800000.0 -30300500000.0 -11592200000.0 -9035760000.0 -9035760000.0 -9035750000.0 -9035750000.0 -9035750000.0 -9035750000.0 -9035750000.0 -9035750000.0 -9035750000.0 -9035750000.0 -9035750000.0 -9035750000.0 -9035750000.0 -9035750000.0 -9035760000.0 -9035760000.0 -11592200000.0 -29495300000.0 -12697000000.0 -13717500000.0 -26754300000.0 -41852600000.0 -59661800000.0 -57963300000.0 -38354900000.0 -28307300000.0 -39996100000.0 -117938000000.0 -98494600000.0 -78157100000.0 -60104300000.0 -58560400000.0 -51463500000.0 -49143000000.0 -47838200000.0 -48650000000.0 -33888200000.0 -31300100000.0 -36228800000.0 -44159100000.0 -43885100000.0 -56764600000.0 -59165400000.0 -67306500000.0 -90135300000.0 -201559000000.0 -90135100000.0 -67306500000.0 -59165400000.0 -56764600000.0 -43885100000.0 -44159100000.0 -36228800000.0 -31300100000.0 -33888200000.0 -48650000000.0 -47838200000.0 -49143100000.0 -51463500000.0 -58560400000.0 -60104300000.0 -78157100000.0 -98494600000.0 -117938000000.0 -39996100000.0 -28307300000.0 -38354900000.0 -57963300000.0 -59661800000.0 -41852600000.0 -26754300000.0 -13717500000.0 -12697000000.0 -29495300000.0 -28519000000.0 -13235400000.0 -13740900000.0 -27067800000.0 -39610900000.0 -54384800000.0 -54984400000.0 -38713400000.0 -30687500000.0 -41438300000.0 -113110000000.0 -91998600000.0 -75803400000.0 -61553200000.0 -59465200000.0 -51429300000.0 -48220300000.0 -45327600000.0 -44553400000.0 -30127200000.0 -9847350000.0 -31115000000.0 -9035760000.0 -35511000000.0 -9035760000.0 -43449300000.0 -9035750000.0 -43551500000.0 -9035760000.0 -55000200000.0 -9035750000.0 -57080500000.0 -9035760000.0 -64272200000.0 -9035750000.0 -84886200000.0 -9035750000.0 -178825000000.0 -9035750000.0 -84886100000.0 -9035750000.0 -64272300000.0 -9035760000.0 -57080500000.0 -9035750000.0 -55000200000.0 -9035760000.0 -43551500000.0 -9035750000.0 -43449200000.0 -9035760000.0 -35511000000.0 -9035760000.0 -31115000000.0 -9847350000.0 -30127200000.0 -44553400000.0 -45327600000.0 -48220300000.0 -51429300000.0 -59465200000.0 -61553200000.0 -75803400000.0 -91998600000.0 -113110000000.0 -41438300000.0 -30687500000.0 -38713400000.0 -54984400000.0 -54384800000.0 -39610900000.0 -27067800000.0 -13740900000.0 -13235400000.0 -28519000000.0 -27492700000.0 -13709200000.0 -14012000000.0 -26908400000.0 -37596800000.0 -49795500000.0 -52119000000.0 -38788300000.0 -32545300000.0 -42332800000.0 -107238000000.0 -87189700000.0 -74270000000.0 -62352600000.0 -59789400000.0 -51131000000.0 -47101400000.0 -42915900000.0 -40610800000.0 -27087900000.0 -9214980000.0 -30820600000.0 -9035760000.0 -34655900000.0 -9035760000.0 -42584400000.0 -9035760000.0 -42952400000.0 -9035760000.0 -53065300000.0 -9035750000.0 -55015600000.0 -9035760000.0 -61229300000.0 -9035750000.0 -79510600000.0 -9035750000.0 -158364000000.0 -9035750000.0 -79510600000.0 -9035750000.0 -61229300000.0 -9035760000.0 -55015600000.0 -9035750000.0 -53065300000.0 -9035760000.0 -42952400000.0 -9035760000.0 -42584400000.0 -9035760000.0 -34655900000.0 -9035760000.0 -30820600000.0 -9214980000.0 -27087900000.0 -40610800000.0 -42915900000.0 -47101400000.0 -51131000000.0 -59789400000.0 -62352600000.0 -74270000000.0 -87189700000.0 -107238000000.0 -42332800000.0 -32545300000.0 -38788300000.0 -52119000000.0 -49795500000.0 -37596800000.0 -26908400000.0 -14012000000.0 -13709200000.0 -27492700000.0 -26489400000.0 -14114400000.0 -14363600000.0 -26429300000.0 -35780600000.0 -45870700000.0 -49415800000.0 -38604100000.0 -33880500000.0 -42780200000.0 -100799000000.0 -82998500000.0 -72537900000.0 -62515800000.0 -59592700000.0 -50553500000.0 -45804200000.0 -40621400000.0 -36936300000.0 -24684800000.0 -9063790000.0 -30418700000.0 -9035760000.0 -33690800000.0 -9035760000.0 -41584900000.0 -9035760000.0 -42127500000.0 -9035760000.0 -51025700000.0 -9035750000.0 -52936000000.0 -9035760000.0 -58192800000.0 -9035750000.0 -74118400000.0 -9035750000.0 -140013000000.0 -9035750000.0 -74118400000.0 -9035750000.0 -58192800000.0 -9035760000.0 -52936000000.0 -9035750000.0 -51025700000.0 -9035760000.0 -42127500000.0 -9035760000.0 -41584900000.0 -9035760000.0 -33690800000.0 -9035760000.0 -30418700000.0 -9063790000.0 -24684800000.0 -36936300000.0 -40621400000.0 -45804200000.0 -50553500000.0 -59592700000.0 -62515800000.0 -72537900000.0 -82998500000.0 -100799000000.0 -42780200000.0 -33880500000.0 -38604100000.0 -49415800000.0 -45870700000.0 -35780600000.0 -26429300000.0 -14363600000.0 -14114400000.0 -26489400000.0 -25543900000.0 -14448100000.0 -14688200000.0 -25751100000.0 -34132700000.0 -42526200000.0 -46878100000.0 -38179400000.0 -34712500000.0 -42882800000.0 -94123800000.0 -78810600000.0 -70372200000.0 -62105800000.0 -58931300000.0 -49694100000.0 -44344400000.0 -38444600000.0 -33589800000.0 -22801700000.0 -9038970000.0 -29913900000.0 -9035760000.0 -32647900000.0 -9035760000.0 -40469100000.0 -9035760000.0 -41112900000.0 -9035760000.0 -48926100000.0 -9035750000.0 -50819800000.0 -9035760000.0 -55169200000.0 -9035750000.0 -68795200000.0 -9035750000.0 -123617000000.0 -9035750000.0 -68795200000.0 -9035750000.0 -55169200000.0 -9035760000.0 -50819800000.0 -9035750000.0 -48926100000.0 -9035760000.0 -41112900000.0 -9035760000.0 -40469100000.0 -9035760000.0 -32647900000.0 -9035760000.0 -29913900000.0 -9038970000.0 -22801700000.0 -33589800000.0 -38444600000.0 -44344400000.0 -49694100000.0 -58931300000.0 -62105800000.0 -70372200000.0 -78810600000.0 -94123800000.0 -42882800000.0 -34712500000.0 -38179400000.0 -46878100000.0 -42526200000.0 -34132700000.0 -25751100000.0 -14688200000.0 -14448100000.0 -25543900000.0 -24662900000.0 -14708800000.0 -14945300000.0 -24964400000.0 -32606500000.0 -39656600000.0 -44485500000.0 -37523900000.0 -35075700000.0 -42709500000.0 -87433600000.0 -74466700000.0 -67807500000.0 -61188500000.0 -57858500000.0 -48565200000.0 -42738600000.0 -36376400000.0 -30592300000.0 -21324600000.0 -9036040000.0 -29311000000.0 -9035760000.0 -31553900000.0 -9035760000.0 -39252800000.0 -9035760000.0 -39941900000.0 -9035760000.0 -46796600000.0 -9035760000.0 -48658800000.0 -9035760000.0 -52162900000.0 -9035750000.0 -63609000000.0 -9035750000.0 -109019000000.0 -9035750000.0 -63609100000.0 -9035750000.0 -52163000000.0 -9035760000.0 -48658800000.0 -9035760000.0 -46796600000.0 -9035760000.0 -39941900000.0 -9035760000.0 -39252800000.0 -9035760000.0 -31553900000.0 -9035760000.0 -29311000000.0 -9036040000.0 -21324600000.0 -30592300000.0 -36376400000.0 -42738600000.0 -48565200000.0 -57858500000.0 -61188500000.0 -67807500000.0 -74466700000.0 -87433600000.0 -42709500000.0 -35075700000.0 -37523900000.0 -44485600000.0 -39656600000.0 -32606500000.0 -24964400000.0 -14945300000.0 -14708800000.0 -24662900000.0 -23838000000.0 -14896100000.0 -15125200000.0 -24131400000.0 -31136300000.0 -37167100000.0 -42209500000.0 -36647000000.0 -35015200000.0 -42298600000.0 -80882100000.0 -70007000000.0 -64932000000.0 -59829200000.0 -56424900000.0 -47190200000.0 -41006900000.0 -34404800000.0 -27938800000.0 -20156600000.0 -9035780000.0 -28615800000.0 -9035760000.0 -30428700000.0 -9035760000.0 -37950400000.0 -9035760000.0 -38644300000.0 -9035760000.0 -44656900000.0 -9035760000.0 -46454400000.0 -9035760000.0 -49180800000.0 -9035750000.0 -58613400000.0 -9035750000.0 -96068000000.0 -9035750000.0 -58613400000.0 -9035750000.0 -49180800000.0 -9035760000.0 -46454400000.0 -9035760000.0 -44656900000.0 -9035760000.0 -38644300000.0 -9035760000.0 -37950400000.0 -9035760000.0 -30428700000.0 -9035760000.0 -28615800000.0 -9035780000.0 -20156600000.0 -27938800000.0 -34404800000.0 -41006900000.0 -47190200000.0 -56424900000.0 -59829200000.0 -64932000000.0 -70007000000.0 -80882100000.0 -42298600000.0 -35015200000.0 -36647000000.0 -42209500000.0 -37167100000.0 -31136300000.0 -24131400000.0 -15125200000.0 -14896100000.0 -23838000000.0 -23054400000.0 -15011000000.0 -15227300000.0 -23290800000.0 -29673000000.0 -34975200000.0 -40022800000.0 -35564500000.0 -34583800000.0 -41669200000.0 -74575100000.0 -65515100000.0 -61832000000.0 -58091600000.0 -54679900000.0 -45600300000.0 -39174400000.0 -32520000000.0 -25609000000.0 -19216500000.0 -9035760000.0 -27835600000.0 -9035760000.0 -29285600000.0 -9035760000.0 -36574300000.0 -9035760000.0 -37245700000.0 -9035760000.0 -42518900000.0 -9035760000.0 -44214900000.0 -9035760000.0 -46232500000.0 -9035750000.0 -53849100000.0 -9035750000.0 -84611900000.0 -9035750000.0 -53849100000.0 -9035750000.0 -46232500000.0 -9035760000.0 -44214900000.0 -9035760000.0 -42518900000.0 -9035760000.0 -37245700000.0 -9035760000.0 -36574300000.0 -9035760000.0 -29285600000.0 -9035760000.0 -27835600000.0 -9035760000.0 -19216500000.0 -25609000000.0 -32520000000.0 -39174400000.0 -45600300000.0 -54679900000.0 -58091600000.0 -61832000000.0 -65515100000.0 -74575100000.0 -41669200000.0 -34583800000.0 -35564500000.0 -40022800000.0 -34975200000.0 -29673000000.0 -23290800000.0 -15227300000.0 -15011000000.0 -23054400000.0 -22296700000.0 -15055300000.0 -15254200000.0 -22462600000.0 -28203500000.0 -33005500000.0 -37902700000.0 -34299800000.0 -33837600000.0 -40829600000.0 -68581700000.0 -61068100000.0 -58584000000.0 -56037600000.0 -52672600000.0 -43831000000.0 -37270100000.0 -30716300000.0 -23573600000.0 -18436900000.0 -9035760000.0 -26979500000.0 -9035760000.0 -28133100000.0 -9035760000.0 -35136400000.0 -9035760000.0 -35767900000.0 -9035760000.0 -40390100000.0 -9035760000.0 -41952200000.0 -9035760000.0 -43330400000.0 -9035750000.0 -49345300000.0 -9035750000.0 -74504900000.0 -9035750000.0 -49345400000.0 -9035750000.0 -43330400000.0 -9035760000.0 -41952200000.0 -9035760000.0 -40390100000.0 -9035760000.0 -35767900000.0 -9035760000.0 -35136400000.0 -9035760000.0 -28133100000.0 -9035760000.0 -26979500000.0 -9035760000.0 -18436900000.0 -23573600000.0 -30716300000.0 -37270100000.0 -43831000000.0 -52672600000.0 -56037600000.0 -58584000000.0 -61068100000.0 -68581700000.0 -40829600000.0 -33837600000.0 -34299800000.0 -37902700000.0 -33005500000.0 -28203500000.0 -22462600000.0 -15254200000.0 -15055300000.0 -22296700000.0 -21551000000.0 -15031500000.0 -15209400000.0 -21654600000.0 -26740900000.0 -31193000000.0 -35833300000.0 -32883900000.0 -32833200000.0 -39783500000.0 -62940900000.0 -56726100000.0 -55253200000.0 -53726200000.0 -50450800000.0 -41919300000.0 -35323600000.0 -28990200000.0 -21799500000.0 -17763300000.0 -9035760000.0 -26057900000.0 -9035760000.0 -26976200000.0 -9035760000.0 -33647400000.0 -9035760000.0 -34229200000.0 -9035760000.0 -38275500000.0 -9035760000.0 -39679400000.0 -9035760000.0 -40488400000.0 -9035750000.0 -45121000000.0 -9035750000.0 -65608500000.0 -9035750000.0 -45121000000.0 -9035750000.0 -40488400000.0 -9035760000.0 -39679400000.0 -9035760000.0 -38275500000.0 -9035760000.0 -34229200000.0 -9035760000.0 -33647400000.0 -9035760000.0 -26976200000.0 -9035760000.0 -26057900000.0 -9035760000.0 -17763300000.0 -21799500000.0 -28990200000.0 -35323600000.0 -41919300000.0 -50450800000.0 -53726200000.0 -55253200000.0 -56726100000.0 -62940900000.0 -39783500000.0 -32833200000.0 -32883900000.0 -35833300000.0 -31193000000.0 -26740900000.0 -21654600000.0 -15209400000.0 -15031500000.0 -21551000000.0 -20805900000.0 -14943000000.0 -15097300000.0 -20867200000.0 -25305500000.0 -29487700000.0 -33806700000.0 -31353100000.0 -31624700000.0 -38536700000.0 -57668800000.0 -52532500000.0 -51893200000.0 -51211900000.0 -48059500000.0 -39900400000.0 -33362900000.0 -27339700000.0 -20252700000.0 -17154900000.0 -9035760000.0 -25081600000.0 -9035760000.0 -25817600000.0 -9035760000.0 -32117400000.0 -9035760000.0 -32645000000.0 -9035760000.0 -36179500000.0 -9035760000.0 -37409900000.0 -9035760000.0 -37721200000.0 -9035750000.0 -41185500000.0 -9035750000.0 -57793500000.0 -9035750000.0 -41185500000.0 -9035750000.0 -37721200000.0 -9035760000.0 -37409900000.0 -9035760000.0 -36179500000.0 -9035760000.0 -32645000000.0 -9035760000.0 -32117400000.0 -9035760000.0 -25817600000.0 -9035760000.0 -25081600000.0 -9035760000.0 -17154900000.0 -20252700000.0 -27339700000.0 -33362900000.0 -39900400000.0 -48059500000.0 -51211900000.0 -51893200000.0 -52532500000.0 -57668800000.0 -38536700000.0 -31624700000.0 -31353100000.0 -33806700000.0 -29487700000.0 -25305500000.0 -20867200000.0 -15097300000.0 -14943000000.0 -20805900000.0 -20053000000.0 -14793500000.0 -14922600000.0 -20096300000.0 -23914300000.0 -27855000000.0 -31822000000.0 -29745500000.0 -30261200000.0 -37100600000.0 -52763800000.0 -48515400000.0 -48545200000.0 -48543200000.0 -45539000000.0 -37805500000.0 -31411900000.0 -25762500000.0 -18900000000.0 -16583400000.0 -9035760000.0 -24061100000.0 -9035760000.0 -24658500000.0 -9035760000.0 -30555400000.0 -9035760000.0 -31027800000.0 -9035760000.0 -34105800000.0 -9035760000.0 -35156200000.0 -9035760000.0 -35042500000.0 -9035750000.0 -37540400000.0 -9035750000.0 -50940100000.0 -9035750000.0 -37540400000.0 -9035750000.0 -35042500000.0 -9035760000.0 -35156200000.0 -9035760000.0 -34105800000.0 -9035760000.0 -31027800000.0 -9035760000.0 -30555400000.0 -9035760000.0 -24658500000.0 -9035760000.0 -24061100000.0 -9035760000.0 -16583400000.0 -18900000000.0 -25762500000.0 -31411900000.0 -37805500000.0 -45539000000.0 -48543200000.0 -48545200000.0 -48515400000.0 -52763800000.0 -37100600000.0 -30261200000.0 -29745500000.0 -31822000000.0 -27855000000.0 -23914300000.0 -20096300000.0 -14922600000.0 -14793500000.0 -20053000000.0 -19286900000.0 -14587200000.0 -14690800000.0 -19335500000.0 -22577200000.0 -26274600000.0 -29882600000.0 -28095500000.0 -28785900000.0 -35492200000.0 -48211100000.0 -44689400000.0 -45238800000.0 -45761000000.0 -42924400000.0 -35660800000.0 -29489000000.0 -24255300000.0 -17711000000.0 -16030800000.0 -9035760000.0 -23005800000.0 -9035760000.0 -23499500000.0 -9035760000.0 -28969600000.0 -9035760000.0 -29388000000.0 -9035760000.0 -32058100000.0 -9035760000.0 -32929700000.0 -9035760000.0 -32464300000.0 -9035750000.0 -34180300000.0 -9035750000.0 -44938100000.0 -9035750000.0 -34180300000.0 -9035750000.0 -32464300000.0 -9035760000.0 -32929700000.0 -9035760000.0 -32058100000.0 -9035760000.0 -29388000000.0 -9035760000.0 -28969600000.0 -9035760000.0 -23499500000.0 -9035760000.0 -23005800000.0 -9035760000.0 -16030800000.0 -17711000000.0 -24255300000.0 -29489000000.0 -35660800000.0 -42924400000.0 -45761000000.0 -45238800000.0 -44689400000.0 -48211100000.0 -35492200000.0 -28785900000.0 -28095500000.0 -29882600000.0 -26274600000.0 -22577200000.0 -19335500000.0 -14690800000.0 -14587200000.0 -19286900000.0 -14407100000.0 -18577800000.0 -21297300000.0 -40244900000.0 -33487600000.0 -27607400000.0 -22813700000.0 -16657800000.0 -15486600000.0 -9035760000.0 -21924400000.0 -9035760000.0 -22340500000.0 -9035760000.0 -27367500000.0 -9035760000.0 -27734200000.0 -9035760000.0 -30039400000.0 -9035760000.0 -30739900000.0 -9035760000.0 -29996400000.0 -9035750000.0 -31094900000.0 -9035750000.0 -39686200000.0 -9035750000.0 -31094900000.0 -9035750000.0 -29996400000.0 -9035760000.0 -30739900000.0 -9035760000.0 -30039400000.0 -9035760000.0 -27734200000.0 -9035760000.0 -27367500000.0 -9035760000.0 -22340500000.0 -9035760000.0 -21924400000.0 -9035760000.0 -15486600000.0 -16657800000.0 -22813700000.0 -27607400000.0 -33487600000.0 -40244900000.0 -21297300000.0 -18577800000.0 -14407100000.0 -18505400000.0 -14328300000.0 -24736500000.0 -27992600000.0 -26431500000.0 -27234900000.0 -33732800000.0 -43986700000.0 -41058200000.0 -41992900000.0 -42899100000.0 -42899100000.0 -41992900000.0 -41058200000.0 -43986700000.0 -33732800000.0 -27234900000.0 -26431500000.0 -27992600000.0 -24736500000.0 -14328300000.0 -18505400000.0 -17708500000.0 -14021500000.0 -14077100000.0 -17816500000.0 -20072700000.0 -23236400000.0 -26153900000.0 -24774200000.0 -25637300000.0 -31846000000.0 -40060700000.0 -37617100000.0 -38818200000.0 -39983800000.0 -37524100000.0 -31302000000.0 -25774500000.0 -21432000000.0 -15716400000.0 -14944800000.0 -9035760000.0 -20824000000.0 -9035760000.0 -21181400000.0 -9035760000.0 -25755300000.0 -9035760000.0 -26073300000.0 -9035760000.0 -28052200000.0 -9035750000.0 -28594700000.0 -9035760000.0 -27645100000.0 -9035750000.0 -28269200000.0 -9035750000.0 -35091800000.0 -9035750000.0 -28269200000.0 -9035750000.0 -27645100000.0 -9035760000.0 -28594700000.0 -9035750000.0 -28052200000.0 -9035760000.0 -26073300000.0 -9035760000.0 -25755300000.0 -9035760000.0 -21181400000.0 -9035760000.0 -20824000000.0 -9035760000.0 -14944800000.0 -15716400000.0 -21432000000.0 -25774500000.0 -31302000000.0 -37524100000.0 -39983800000.0 -38818200000.0 -37617100000.0 -40060700000.0 -31846000000.0 -25637300000.0 -24774200000.0 -26153900000.0 -23236400000.0 -20072700000.0 -17816500000.0 -14077100000.0 -14021500000.0 -17708500000.0 -16898100000.0 -13671100000.0 -13706100000.0 -17046000000.0 -18898100000.0 -21772200000.0 -24365900000.0 -23137500000.0 -24015600000.0 -29856300000.0 -36399600000.0 -34355000000.0 -35718400000.0 -37035500000.0 -34780300000.0 -29115900000.0 -23993700000.0 -20103900000.0 -14866300000.0 -14402200000.0 -9035760000.0 -19710500000.0 -9035760000.0 -20022000000.0 -9035760000.0 -24138300000.0 -9035760000.0 -24411000000.0 -9035760000.0 -26098200000.0 -9035750000.0 -26499600000.0 -9035760000.0 -25413600000.0 -9035750000.0 -25685700000.0 -9035750000.0 -31070300000.0 -9035750000.0 -25685700000.0 -9035750000.0 -25413600000.0 -9035760000.0 -26499600000.0 -9035750000.0 -26098200000.0 -9035760000.0 -24411000000.0 -9035760000.0 -24138300000.0 -9035760000.0 -20022000000.0 -9035760000.0 -19710500000.0 -9035760000.0 -14402200000.0 -14866300000.0 -20103900000.0 -23993700000.0 -29115900000.0 -34780300000.0 -37035500000.0 -35718400000.0 -34355000000.0 -36399600000.0 -29856300000.0 -24015600000.0 -23137600000.0 -24365900000.0 -21772200000.0 -18898100000.0 -17046000000.0 -13706100000.0 -13671100000.0 -16898100000.0 -16076800000.0 -13281800000.0 -13299200000.0 -16261900000.0 -17766600000.0 -20341400000.0 -22625400000.0 -21529800000.0 -22386200000.0 -27786500000.0 -32969100000.0 -31256700000.0 -32692000000.0 -34069100000.0 -32027000000.0 -26937200000.0 -22264400000.0 -18822700000.0 -14090300000.0 -13856500000.0 -9035760000.0 -18588400000.0 -9035760000.0 -18862000000.0 -9035760000.0 -22520600000.0 -9035760000.0 -22751700000.0 -9035760000.0 -24178200000.0 -9035750000.0 -24458400000.0 -9035760000.0 -23301400000.0 -9035750000.0 -23324100000.0 -9035750000.0 -27544300000.0 -9035750000.0 -23324100000.0 -9035750000.0 -23301400000.0 -9035760000.0 -24458400000.0 -9035750000.0 -24178200000.0 -9035760000.0 -22751700000.0 -9035760000.0 -22520600000.0 -9035760000.0 -18862000000.0 -9035760000.0 -18588400000.0 -9035760000.0 -13856500000.0 -14090300000.0 -18822700000.0 -22264400000.0 -26937200000.0 -32027000000.0 -34069100000.0 -32692000000.0 -31256700000.0 -32969100000.0 -27786500000.0 -22386200000.0 -21529800000.0 -22625400000.0 -20341400000.0 -17766600000.0 -16261900000.0 -13299200000.0 -13281800000.0 -16076800000.0 -15247900000.0 -12858100000.0 -12861400000.0 -15461600000.0 -16670700000.0 -18940600000.0 -20927300000.0 -19954900000.0 -20760400000.0 -25656700000.0 -29735300000.0 -28304400000.0 -29734200000.0 -31094900000.0 -29273800000.0 -24770800000.0 -20583600000.0 -17581600000.0 -13374400000.0 -13306400000.0 -9035760000.0 -17461100000.0 -9035760000.0 -17701500000.0 -9035760000.0 -20905500000.0 -9035760000.0 -21098700000.0 -9035760000.0 -22291900000.0 -9035750000.0 -22472200000.0 -9035760000.0 -21305000000.0 -9035750000.0 -21162700000.0 -9035750000.0 -24443100000.0 -9035750000.0 -21162700000.0 -9035750000.0 -21305000000.0 -9035760000.0 -22472200000.0 -9035750000.0 -22291900000.0 -9035760000.0 -21098700000.0 -9035760000.0 -20905500000.0 -9035760000.0 -17701500000.0 -9035760000.0 -17461100000.0 -9035760000.0 -13306400000.0 -13374400000.0 -17581600000.0 -20583600000.0 -24770800000.0 -29273800000.0 -31094900000.0 -29734200000.0 -28304400000.0 -29735300000.0 -25656700000.0 -20760400000.0 -19954900000.0 -20927300000.0 -18940600000.0 -16670700000.0 -15461600000.0 -12861400000.0 -12858100000.0 -15247900000.0 -14414400000.0 -12404300000.0 -12397300000.0 -14643800000.0 -15603100000.0 -17565700000.0 -19265900000.0 -18413400000.0 -19145300000.0 -23483300000.0 -26665900000.0 -25478900000.0 -26837900000.0 -28120000000.0 -26527000000.0 -22619200000.0 -18946800000.0 -16374100000.0 -12707100000.0 -12750800000.0 -9035760000.0 -16331000000.0 -9035760000.0 -16540400000.0 -9035760000.0 -19295000000.0 -9035760000.0 -19453900000.0 -9035760000.0 -20438200000.0 -9035750000.0 -20540500000.0 -9035750000.0 -19417500000.0 -9035750000.0 -19178800000.0 -9035750000.0 -21702100000.0 -9035750000.0 -19178800000.0 -9035750000.0 -19417500000.0 -9035750000.0 -20540500000.0 -9035750000.0 -20438200000.0 -9035760000.0 -19453900000.0 -9035760000.0 -19295000000.0 -9035760000.0 -16540400000.0 -9035760000.0 -16331000000.0 -9035760000.0 -12750800000.0 -12707100000.0 -16374100000.0 -18946800000.0 -22619200000.0 -26527000000.0 -28120000000.0 -26837900000.0 -25478900000.0 -26665900000.0 -23483300000.0 -19145300000.0 -18413400000.0 -19265900000.0 -17565700000.0 -15603100000.0 -14643800000.0 -12397300000.0 -12404300000.0 -14414400000.0 -13578700000.0 -11924800000.0 -11911200000.0 -13808700000.0 -14557300000.0 -16212300000.0 -17635000000.0 -16903300000.0 -17544400000.0 -21279300000.0 -23731100000.0 -22760700000.0 -23994500000.0 -25148700000.0 -23790200000.0 -20483200000.0 -17348100000.0 -15194300000.0 -12078900000.0 -12189200000.0 -9035760000.0 -15199800000.0 -9035760000.0 -15378600000.0 -9035760000.0 -17690600000.0 -9035750000.0 -17818600000.0 -9035750000.0 -18614900000.0 -9035750000.0 -18660200000.0 -9035750000.0 -17629600000.0 -9035750000.0 -17349000000.0 -9035750000.0 -19262300000.0 -9035750000.0 -17349000000.0 -9035750000.0 -17629600000.0 -9035750000.0 -18660200000.0 -9035750000.0 -18614900000.0 -9035750000.0 -17818600000.0 -9035750000.0 -17690600000.0 -9035760000.0 -15378600000.0 -9035760000.0 -15199800000.0 -9035760000.0 -12189200000.0 -12078900000.0 -15194300000.0 -17348100000.0 -20483200000.0 -23790200000.0 -25148700000.0 -23994500000.0 -22760700000.0 -23731100000.0 -21279300000.0 -17544400000.0 -16903300000.0 -17635000000.0 -16212300000.0 -14557300000.0 -13808700000.0 -11911200000.0 -11924800000.0 -13578700000.0 -12742900000.0 -11423700000.0 -11407100000.0 -12957400000.0 -13527500000.0 -14875900000.0 -16028500000.0 -15421400000.0 -15958900000.0 -19054500000.0 -20903900000.0 -20130800000.0 -21195200000.0 -22183000000.0 -21064900000.0 -18362000000.0 -15781700000.0 -14037000000.0 -11481800000.0 -11621300000.0 -9035760000.0 -14068500000.0 -9035760000.0 -14216400000.0 -9035760000.0 -16092700000.0 -9035750000.0 -16192700000.0 -9035750000.0 -16819000000.0 -9035750000.0 -16826800000.0 -9035750000.0 -15929500000.0 -9035750000.0 -15649500000.0 -9035750000.0 -17068900000.0 -9035750000.0 -15649500000.0 -9035750000.0 -15929500000.0 -9035750000.0 -16826800000.0 -9035750000.0 -16819000000.0 -9035750000.0 -16192700000.0 -9035750000.0 -16092700000.0 -9035760000.0 -14216400000.0 -9035760000.0 -14068500000.0 -9035760000.0 -11621300000.0 -11481800000.0 -14037000000.0 -15781700000.0 -18362000000.0 -21064900000.0 -22183000000.0 -21195200000.0 -20130800000.0 -20903900000.0 -19054500000.0 -15958900000.0 -15421400000.0 -16028500000.0 -14875900000.0 -13527500000.0 -12957400000.0 -11407100000.0 -11423700000.0 -12742900000.0 -11908100000.0 -10905100000.0 -10888700000.0 -12092200000.0 -12509200000.0 -13552700000.0 -14440900000.0 -13963100000.0 -14387900000.0 -16815900000.0 -18160000000.0 -17571100000.0 -18431000000.0 -19223600000.0 -18350900000.0 -16253900000.0 -14241200000.0 -12897100000.0 -10908900000.0 -11047600000.0 -9035760000.0 -12937600000.0 -9035760000.0 -13053700000.0 -9035750000.0 -14500900000.0 -9035750000.0 -14575700000.0 -9035750000.0 -15046500000.0 -9035750000.0 -15033800000.0 -9035750000.0 -14303600000.0 -9035750000.0 -14056300000.0 -9035750000.0 -15071500000.0 -9035750000.0 -14056300000.0 -9035750000.0 -14303600000.0 -9035750000.0 -15033800000.0 -9035750000.0 -15046500000.0 -9035750000.0 -14575700000.0 -9035750000.0 -14500900000.0 -9035750000.0 -13053700000.0 -9035760000.0 -12937600000.0 -9035760000.0 -11047600000.0 -10908900000.0 -12897100000.0 -14241200000.0 -16253900000.0 -18350900000.0 -19223600000.0 -18431000000.0 -17571100000.0 -18160000000.0 -16815900000.0 -14387900000.0 -13963100000.0 -14440900000.0 -13552700000.0 -12509200000.0 -12092200000.0 -10888700000.0 -10905100000.0 -11908100000.0 -11074900000.0 -10373200000.0 -10359600000.0 -11215500000.0 -11498800000.0 -12238800000.0 -12867000000.0 -12523400000.0 -12829200000.0 -14568500000.0 -15477600000.0 -15064300000.0 -15693200000.0 -16269800000.0 -15646700000.0 -14156400000.0 -12720500000.0 -11770300000.0 -10354300000.0 -10468900000.0 -9035760000.0 -11807400000.0 -9035750000.0 -11890700000.0 -9035750000.0 -12914600000.0 -9035750000.0 -12966200000.0 -9035750000.0 -13292800000.0 -9035750000.0 -13273600000.0 -9035750000.0 -12736500000.0 -9035750000.0 -12545500000.0 -9035750000.0 -13222700000.0 -9035750000.0 -12545500000.0 -9035750000.0 -12736500000.0 -9035750000.0 -13273600000.0 -9035750000.0 -13292800000.0 -9035750000.0 -12966200000.0 -9035750000.0 -12914600000.0 -9035750000.0 -11890700000.0 -9035750000.0 -11807400000.0 -9035760000.0 -10468900000.0 -10354300000.0 -11770300000.0 -12720500000.0 -14156400000.0 -15646700000.0 -16269800000.0 -15693200000.0 -15064300000.0 -15477600000.0 -14568500000.0 -12829200000.0 -12523400000.0 -12867000000.0 -12238800000.0 -11498800000.0 -11215500000.0 -10359600000.0 -10373200000.0 -11074900000.0 -10243200000.0 -9831720000.0 -9822890000.0 -10330400000.0 -10493300000.0 -10931200000.0 -11302400000.0 -11097100000.0 -11279700000.0 -12315700000.0 -12837100000.0 -12594000000.0 -12973600000.0 -13320300000.0 -12949900000.0 -12066700000.0 -11213700000.0 -10652600000.0 -9812250000.0 -9886400000.0 -9035750000.0 -10677600000.0 -9035750000.0 -10727400000.0 -9035750000.0 -11332300000.0 -9035750000.0 -11362300000.0 -9035750000.0 -11552700000.0 -9035750000.0 -11537400000.0 -9035750000.0 -11212100000.0 -9035750000.0 -11093100000.0 -9035750000.0 -11477700000.0 -9035750000.0 -11093100000.0 -9035750000.0 -11212100000.0 -9035750000.0 -11537400000.0 -9035750000.0 -11552700000.0 -9035750000.0 -11362300000.0 -9035750000.0 -11332300000.0 -9035750000.0 -10727400000.0 -9035750000.0 -10677600000.0 -9035750000.0 -9886400000.0 -9812250000.0 -10652600000.0 -11213700000.0 -12066700000.0 -12949900000.0 -13320300000.0 -12973600000.0 -12594000000.0 -12837100000.0 -12315700000.0 -11279700000.0 -11097100000.0 -11302400000.0 -10931200000.0 -10493300000.0 -10330400000.0 -9822890000.0 -9831720000.0 -10243200000.0 -9412560000.0 -9284640000.0 -9281790000.0 -9440250000.0 -9490500000.0 -9627140000.0 -9742850000.0 -9678580000.0 -9735760000.0 -10059800000.0 -10220500000.0 -10144800000.0 -10264200000.0 -10373000000.0 -10257200000.0 -9981520000.0 -9714970000.0 -9540030000.0 -9277560000.0 -9301450000.0 -9035750000.0 -9548220000.0 -9035750000.0 -9563790000.0 -9035750000.0 -9752420000.0 -9035750000.0 -9761720000.0 -9035750000.0 -9820790000.0 -9035750000.0 -9815540000.0 -9035750000.0 -9713140000.0 -9035750000.0 -9675280000.0 -9035750000.0 -9793290000.0 -9035750000.0 -9675280000.0 -9035750000.0 -9713140000.0 -9035750000.0 -9815540000.0 -9035750000.0 -9820790000.0 -9035750000.0 -9761720000.0 -9035750000.0 -9752420000.0 -9035750000.0 -9563790000.0 -9035750000.0 -9548220000.0 -9035750000.0 -9301450000.0 -9277560000.0 -9540030000.0 -9714970000.0 -9981520000.0 -10257200000.0 -10373000000.0 -10264200000.0 -10144800000.0 -10220500000.0 -10059800000.0 -9735760000.0 -9678580000.0 -9742850000.0 -9627140000.0 -9490500000.0 -9440250000.0 -9281790000.0 -9284640000.0 -9412560000.0 
SCALARS Shear_Stress float 1
LOOKUP_TABLE default
90518300000.0 90518200000.0 47561400000.0 71684200000.0 85506600000.0 85506600000.0 71684200000.0 47561400000.0 68088700000.0 2016420000.0 42557600000.0 57298100000.0 29244600000.0 60053000000.0 58676400000.0 32222900000.0 32249400000.0 32249400000.0 32222900000.0 58676400000.0 60052900000.0 29244600000.0 57298100000.0 42557600000.0 2016320000.0 68088700000.0 274387000000.0 89698900000.0 134185000000.0 48134700000.0 94263400000.0 177701000000.0 189814000000.0 137535000000.0 47875900000.0 137535000000.0 189814000000.0 177701000000.0 94263500000.0 48134700000.0 134185000000.0 89698900000.0 274387000000.0 283306000000.0 14620800000.0 113808000000.0 216461000000.0 23810400000.0 3449640000.0 187451000000.0 315041000000.0 360386000000.0 279360000000.0 24293900000.0 78928500000.0 172099000000.0 78928500000.0 24293900000.0 279360000000.0 360386000000.0 315041000000.0 187451000000.0 3449740000.0 23810400000.0 216461000000.0 113808000000.0 14620800000.0 283306000000.0 133772000000.0 379329000000.0 189619000000.0 385763000000.0 208596000000.0 156142000000.0 4484700000.0 335745000000.0 366685000000.0 92834300000.0 85732400000.0 85732400000.0 92834300000.0 366685000000.0 335745000000.0 4484680000.0 156142000000.0 208596000000.0 385763000000.0 189619000000.0 379329000000.0 133772000000.0 169563000000.0 114446000000.0 46753100000.0 722193000000.0 275125000000.0 236313000000.0 104846000000.0 52597700000.0 455290000000.0 144049000000.0 86329700000.0 66993000000.0 86329600000.0 144049000000.0 455290000000.0 52597600000.0 104846000000.0 236313000000.0 275125000000.0 722194000000.0 46753200000.0 114446000000.0 169563000000.0 122874000000.0 6050840000.0 187316000000.0 350107000000.0 503531000000.0 171483000000.0 33281900000.0 514654000000.0 185328000000.0 182382000000.0 288719000000.0 108413000000.0 59962500000.0 37083400000.0 61229900000.0 37083400000.0 59962600000.0 108413000000.0 288719000000.0 182382000000.0 185328000000.0 514654000000.0 33281800000.0 171483000000.0 503531000000.0 350108000000.0 187316000000.0 6050910000.0 122874000000.0 273453000000.0 16327100000.0 85711900000.0 13452800000.0 167326000000.0 1.34654e+12 911462000000.0 677412000000.0 637230000000.0 375265000000.0 2911630000.0 203829000000.0 9046510000.0 288704000000.0 152324000000.0 113872000000.0 113872000000.0 152324000000.0 288705000000.0 9046510000.0 203829000000.0 2911550000.0 375265000000.0 637230000000.0 677412000000.0 911462000000.0 1.34654e+12 167326000000.0 13452700000.0 85711800000.0 16327200000.0 273453000000.0 137792000000.0 548365000000.0 436404000000.0 117039000000.0 25747100000.0 1.06909e+12 818257000000.0 298613000000.0 485096000000.0 143044000000.0 299915000000.0 190458000000.0 139526000000.0 190458000000.0 299915000000.0 143044000000.0 485096000000.0 298613000000.0 818257000000.0 1.06909e+12 25747000000.0 117040000000.0 436404000000.0 548365000000.0 137792000000.0 11909300000.0 25676300000.0 236914000000.0 583901000000.0 163173000000.0 356821000000.0 181539000000.0 857947000000.0 573973000000.0 234074000000.0 109409000000.0 55029800000.0 308207000000.0 176578000000.0 224299000000.0 315792000000.0 255686000000.0 234684000000.0 234684000000.0 255687000000.0 315793000000.0 224299000000.0 176577000000.0 308207000000.0 55029700000.0 109409000000.0 234074000000.0 573973000000.0 857947000000.0 181539000000.0 356821000000.0 163173000000.0 583900000000.0 236914000000.0 25676300000.0 11909300000.0 41609700000.0 271924000000.0 531978000000.0 455889000000.0 965579000000.0 1.21282e+12 653314000000.0 978815000000.0 910176000000.0 751666000000.0 510216000000.0 95687700000.0 399633000000.0 94635100000.0 415673000000.0 318128000000.0 360810000000.0 191220000000.0 360810000000.0 318128000000.0 415673000000.0 94635000000.0 399633000000.0 95687800000.0 510216000000.0 751666000000.0 910176000000.0 978815000000.0 653314000000.0 1.21282e+12 965579000000.0 455889000000.0 531978000000.0 271924000000.0 41609700000.0 67672500000.0 300074000000.0 200747000000.0 54103000000.0 268521000000.0 533243000000.0 1.09834e+12 988167000000.0 756790000000.0 299188000000.0 237558000000.0 413125000000.0 61447900000.0 469492000000.0 92848200000.0 469493000000.0 61447900000.0 413126000000.0 237558000000.0 299188000000.0 756790000000.0 988167000000.0 1.09834e+12 533243000000.0 268521000000.0 54103100000.0 200747000000.0 300074000000.0 67672500000.0 89374900000.0 358139000000.0 330733000000.0 268599000000.0 46750900000.0 231028000000.0 309942000000.0 708841000000.0 920030000000.0 933902000000.0 1.00921e+12 955846000000.0 800467000000.0 535482000000.0 354561000000.0 258983000000.0 396636000000.0 485529000000.0 582163000000.0 435367000000.0 436323000000.0 130124000000.0 299763000000.0 520038000000.0 520038000000.0 299764000000.0 130124000000.0 436323000000.0 435367000000.0 582164000000.0 485529000000.0 396636000000.0 258983000000.0 354561000000.0 535481000000.0 800466000000.0 955846000000.0 1.00921e+12 933902000000.0 920030000000.0 708840000000.0 309942000000.0 231028000000.0 46751000000.0 268600000000.0 330733000000.0 358140000000.0 89374900000.0 118451000000.0 106215000000.0 379435000000.0 312390000000.0 183938000000.0 92645200000.0 83416100000.0 99581800000.0 515063000000.0 977991000000.0 1.07466e+12 999004000000.0 563670000000.0 343233000000.0 599663000000.0 632083000000.0 384007000000.0 406905000000.0 179669000000.0 406906000000.0 384007000000.0 632083000000.0 599663000000.0 343233000000.0 563670000000.0 999004000000.0 1.07466e+12 977991000000.0 515062000000.0 99581700000.0 83416100000.0 92645300000.0 183938000000.0 312390000000.0 379435000000.0 106215000000.0 118451000000.0 126443000000.0 393707000000.0 343318000000.0 301757000000.0 256676000000.0 194754000000.0 24187700000.0 206819000000.0 748018000000.0 913743000000.0 1.06455e+12 1.09991e+12 868021000000.0 349749000000.0 522610000000.0 705200000000.0 463439000000.0 411998000000.0 1.71855e+12 1.71855e+12 411998000000.0 463439000000.0 705200000000.0 522611000000.0 349749000000.0 868021000000.0 1.09991e+12 1.06455e+12 913743000000.0 748017000000.0 206819000000.0 24187800000.0 194754000000.0 256676000000.0 301757000000.0 343318000000.0 393707000000.0 126442000000.0 130434000000.0 404518000000.0 401827000000.0 375718000000.0 363865000000.0 331454000000.0 255409000000.0 136523000000.0 87075000000.0 22658300000.0 125002000000.0 390051000000.0 607233000000.0 984287000000.0 1.03269e+12 569008000000.0 315667000000.0 409558000000.0 728645000000.0 733706000000.0 427591000000.0 488223000000.0 290409000000.0 350063000000.0 196745000000.0 331526000000.0 125336000000.0 331525000000.0 196744000000.0 350063000000.0 290409000000.0 488223000000.0 427592000000.0 733707000000.0 728645000000.0 409559000000.0 315667000000.0 569008000000.0 1.03269e+12 984287000000.0 607232000000.0 390051000000.0 125002000000.0 22658300000.0 87075100000.0 136523000000.0 255409000000.0 331454000000.0 363865000000.0 375718000000.0 401827000000.0 404518000000.0 130434000000.0 129875000000.0 402925000000.0 379847000000.0 348854000000.0 294482000000.0 253493000000.0 208217000000.0 163530000000.0 39986200000.0 262545000000.0 813912000000.0 1.00619e+12 896698000000.0 976040000000.0 556732000000.0 666958000000.0 338347000000.0 259841000000.0 4007780000.0 470796000000.0 549915000000.0 8594620000.0 549915000000.0 470795000000.0 4007450000.0 259842000000.0 338348000000.0 666959000000.0 556732000000.0 976041000000.0 896699000000.0 1.00619e+12 813912000000.0 262545000000.0 39986200000.0 163530000000.0 208217000000.0 253493000000.0 294482000000.0 348854000000.0 379847000000.0 402925000000.0 129875000000.0 120861000000.0 126109000000.0 395316000000.0 378774000000.0 353444000000.0 356164000000.0 333720000000.0 320051000000.0 285494000000.0 209280000000.0 120735000000.0 28958700000.0 454576000000.0 732600000000.0 779636000000.0 751553000000.0 900698000000.0 453403000000.0 167100000000.0 222807000000.0 17856500000.0 334549000000.0 298441000000.0 298440000000.0 334548000000.0 17855900000.0 222808000000.0 167101000000.0 453404000000.0 900698000000.0 751553000000.0 779636000000.0 732600000000.0 454576000000.0 28958600000.0 120735000000.0 209280000000.0 285494000000.0 320051000000.0 333720000000.0 356164000000.0 353444000000.0 378774000000.0 395316000000.0 126109000000.0 120861000000.0 118958000000.0 381926000000.0 361525000000.0 373037000000.0 349223000000.0 333364000000.0 308476000000.0 244449000000.0 161989000000.0 104986000000.0 88179700000.0 58557100000.0 77449500000.0 222608000000.0 372008000000.0 384439000000.0 338213000000.0 43739400000.0 156142000000.0 41053700000.0 160167000000.0 187681000000.0 22568000000.0 187681000000.0 160166000000.0 41054400000.0 156143000000.0 43740600000.0 338213000000.0 384440000000.0 372007000000.0 222607000000.0 77449400000.0 58557200000.0 88179800000.0 104986000000.0 161989000000.0 244449000000.0 308476000000.0 333364000000.0 349223000000.0 373037000000.0 361525000000.0 381926000000.0 118958000000.0 127741000000.0 367947000000.0 371142000000.0 337217000000.0 338188000000.0 320234000000.0 305139000000.0 317745000000.0 296124000000.0 273733000000.0 232804000000.0 191797000000.0 124157000000.0 63243100000.0 155905000000.0 651378000000.0 493623000000.0 414116000000.0 403717000000.0 908010000000.0 549313000000.0 72224200000.0 54058600000.0 44222500000.0 24034800000.0 52309100000.0 49374500000.0 103183000000.0 24172600000.0 73584600000.0 41678000000.0 73584400000.0 24172900000.0 103183000000.0 49374500000.0 52308600000.0 24034300000.0 44223400000.0 54057600000.0 72223500000.0 549313000000.0 908010000000.0 403718000000.0 414115000000.0 493623000000.0 651378000000.0 155905000000.0 63243100000.0 124157000000.0 191797000000.0 232804000000.0 273733000000.0 296124000000.0 317745000000.0 305139000000.0 320234000000.0 338188000000.0 337217000000.0 371142000000.0 367947000000.0 127741000000.0 173727000000.0 145848000000.0 385536000000.0 321423000000.0 324428000000.0 300389000000.0 314314000000.0 274658000000.0 301861000000.0 256892000000.0 173158000000.0 9580300000.0 17894700000.0 210490000000.0 57647900000.0 287896000000.0 655208000000.0 434572000000.0 391500000000.0 70950700000.0 8825070000.0 7142670000.0 44828400000.0 44828300000.0 7142250000.0 8825050000.0 70950300000.0 391499000000.0 434570000000.0 655208000000.0 287897000000.0 57648400000.0 210489000000.0 17894800000.0 9580290000.0 173158000000.0 256892000000.0 301861000000.0 274658000000.0 314314000000.0 300389000000.0 324428000000.0 321423000000.0 385536000000.0 145848000000.0 173727000000.0 201824000000.0 420610000000.0 327622000000.0 258292000000.0 285995000000.0 294929000000.0 274865000000.0 266541000000.0 285329000000.0 239439000000.0 215748000000.0 134367000000.0 104780000000.0 27028800000.0 107910000000.0 587765000000.0 85304700000.0 477557000000.0 619053000000.0 297348000000.0 106311000000.0 23584800000.0 244652000000.0 19516600000.0 22919700000.0 66130600000.0 97789700000.0 66130400000.0 22919500000.0 19516500000.0 244653000000.0 23586900000.0 106311000000.0 297347000000.0 619054000000.0 477557000000.0 85305700000.0 587764000000.0 107910000000.0 27029100000.0 104780000000.0 134367000000.0 215748000000.0 239439000000.0 285329000000.0 266541000000.0 274865000000.0 294929000000.0 285995000000.0 258292000000.0 327622000000.0 420611000000.0 201824000000.0 217592000000.0 465765000000.0 424738000000.0 361150000000.0 280413000000.0 227921000000.0 302036000000.0 267162000000.0 239819000000.0 204821000000.0 216532000000.0 282563000000.0 262398000000.0 231057000000.0 28809900000.0 98838200000.0 481631000000.0 1.52447e+12 1.16576e+12 1.32512e+12 921225000000.0 676948000000.0 306053000000.0 107215000000.0 140996000000.0 99079000000.0 52148000000.0 77766100000.0 71204000000.0 108374000000.0 106477000000.0 127685000000.0 106477000000.0 108374000000.0 71203600000.0 77765900000.0 52147800000.0 99079000000.0 140995000000.0 107215000000.0 306052000000.0 676948000000.0 921227000000.0 1.32513e+12 1.16576e+12 1.52447e+12 481632000000.0 98837600000.0 28809800000.0 231057000000.0 262398000000.0 282563000000.0 216532000000.0 204821000000.0 239819000000.0 267162000000.0 302036000000.0 227921000000.0 280413000000.0 361150000000.0 424738000000.0 465765000000.0 217592000000.0 206422000000.0 490190000000.0 495081000000.0 491302000000.0 337643000000.0 179062000000.0 166536000000.0 243329000000.0 87676800000.0 264538000000.0 164706000000.0 191831000000.0 426106000000.0 156509000000.0 68254200000.0 249423000000.0 609271000000.0 878647000000.0 819772000000.0 807901000000.0 60531300000.0 63190300000.0 99077500000.0 100308000000.0 127033000000.0 127033000000.0 100307000000.0 99077500000.0 63189700000.0 60531900000.0 807901000000.0 819772000000.0 878647000000.0 609271000000.0 249422000000.0 68254000000.0 156509000000.0 426106000000.0 191831000000.0 164706000000.0 264538000000.0 87676700000.0 243329000000.0 166536000000.0 179062000000.0 337643000000.0 491302000000.0 495081000000.0 490190000000.0 206422000000.0 77584600000.0 148644000000.0 427332000000.0 514973000000.0 431976000000.0 313794000000.0 224566000000.0 75214800000.0 410418000000.0 200426000000.0 227289000000.0 116070000000.0 171365000000.0 293924000000.0 215382000000.0 71505200000.0 189203000000.0 61569600000.0 363314000000.0 136723000000.0 499411000000.0 117707000000.0 893360000000.0 324048000000.0 576993000000.0 37259600000.0 58001300000.0 66376300000.0 93907300000.0 97308400000.0 116941000000.0 131682000000.0 116940000000.0 97307400000.0 93907200000.0 66375800000.0 58000900000.0 37262400000.0 576993000000.0 324049000000.0 893360000000.0 117708000000.0 499412000000.0 136723000000.0 363314000000.0 61569600000.0 189203000000.0 71505300000.0 215382000000.0 293924000000.0 171365000000.0 116071000000.0 227289000000.0 200426000000.0 410418000000.0 75215200000.0 224566000000.0 313794000000.0 431976000000.0 514973000000.0 427332000000.0 148645000000.0 77584600000.0 7897110000.0 301110000000.0 466594000000.0 521417000000.0 511739000000.0 420998000000.0 177408000000.0 102474000000.0 706576000000.0 292946000000.0 400959000000.0 180371000000.0 185722000000.0 29022200000.0 528219000000.0 607326000000.0 247607000000.0 270908000000.0 207641000000.0 273785000000.0 47191000000.0 45109600000.0 260558000000.0 424427000000.0 96064300000.0 60777400000.0 93604400000.0 74200500000.0 101906000000.0 104388000000.0 121956000000.0 115362000000.0 121955000000.0 104386000000.0 101904000000.0 74197800000.0 93603500000.0 60775700000.0 96064200000.0 424425000000.0 260558000000.0 45110100000.0 47192100000.0 273785000000.0 207641000000.0 270908000000.0 247607000000.0 607326000000.0 528219000000.0 29022100000.0 185722000000.0 180371000000.0 400959000000.0 292946000000.0 706576000000.0 102473000000.0 177408000000.0 420998000000.0 511739000000.0 521417000000.0 466595000000.0 301110000000.0 7897140000.0 53725100000.0 220444000000.0 194230000000.0 321257000000.0 387862000000.0 537740000000.0 241595000000.0 12293300000.0 31146900000.0 127501000000.0 303503000000.0 447053000000.0 746346000000.0 398737000000.0 200891000000.0 26263000000.0 23576400000.0 75015300000.0 116277000000.0 291108000000.0 269528000000.0 180146000000.0 33004700000.0 71209100000.0 79541800000.0 97588300000.0 97587000000.0 79538200000.0 71208500000.0 33002400000.0 180146000000.0 269526000000.0 291107000000.0 116278000000.0 75015400000.0 23576300000.0 26263400000.0 200891000000.0 398737000000.0 746346000000.0 447053000000.0 303503000000.0 127501000000.0 31146400000.0 12293000000.0 241594000000.0 537740000000.0 387862000000.0 321258000000.0 194231000000.0 220444000000.0 53725100000.0 127424000000.0 27645000000.0 126250000000.0 88353600000.0 149992000000.0 471511000000.0 493865000000.0 426459000000.0 279754000000.0 689427000000.0 1.03071e+12 150864000000.0 952864000000.0 131887000000.0 658193000000.0 46689100000.0 715907000000.0 694960000000.0 218666000000.0 137284000000.0 96602600000.0 155145000000.0 357473000000.0 455160000000.0 588489000000.0 406162000000.0 151394000000.0 120745000000.0 26828600000.0 36621500000.0 71311300000.0 81723200000.0 71309900000.0 36618600000.0 26829500000.0 120744000000.0 151393000000.0 406163000000.0 588489000000.0 455158000000.0 357471000000.0 155144000000.0 96602700000.0 137284000000.0 218666000000.0 694960000000.0 715907000000.0 46689000000.0 658193000000.0 131887000000.0 952864000000.0 150865000000.0 1.03071e+12 689426000000.0 279754000000.0 426459000000.0 493865000000.0 471512000000.0 149993000000.0 88353800000.0 126250000000.0 27645000000.0 127425000000.0 2367930000.0 133695000000.0 31191600000.0 15111800000.0 110223000000.0 228660000000.0 348742000000.0 222832000000.0 435751000000.0 348224000000.0 695470000000.0 676437000000.0 640933000000.0 618166000000.0 652542000000.0 802741000000.0 520911000000.0 214437000000.0 173312000000.0 94125000000.0 28716400000.0 64114000000.0 57854200000.0 250101000000.0 295006000000.0 97388800000.0 105883000000.0 75648000000.0 40371100000.0 31087800000.0 56830500000.0 27241500000.0 56830600000.0 31089500000.0 40368000000.0 75648000000.0 105884000000.0 97387500000.0 295007000000.0 250102000000.0 57854500000.0 64113500000.0 28716800000.0 94124900000.0 173312000000.0 214437000000.0 520911000000.0 802741000000.0 652542000000.0 618166000000.0 640933000000.0 676436000000.0 695471000000.0 348224000000.0 435752000000.0 222832000000.0 348742000000.0 228661000000.0 110223000000.0 15112200000.0 31191700000.0 133695000000.0 2367860000.0 92280700000.0 313949000000.0 60157100000.0 75027300000.0 295516000000.0 101651000000.0 495682000000.0 259558000000.0 272047000000.0 4357380000.0 1.01527e+12 604966000000.0 168467000000.0 80172000000.0 836800000000.0 775826000000.0 15224300000.0 324523000000.0 130919000000.0 328692000000.0 128095000000.0 64069900000.0 46293600000.0 107597000000.0 162254000000.0 185724000000.0 153412000000.0 214822000000.0 86604900000.0 43926900000.0 7959520000.0 7957270000.0 43921500000.0 86607100000.0 214821000000.0 153411000000.0 185723000000.0 162253000000.0 107596000000.0 46293100000.0 64069700000.0 128095000000.0 328692000000.0 130919000000.0 324523000000.0 15224400000.0 775826000000.0 836800000000.0 80171400000.0 168467000000.0 604966000000.0 1.01527e+12 4357770000.0 272046000000.0 259558000000.0 495683000000.0 101650000000.0 295516000000.0 75027000000.0 60157200000.0 313950000000.0 92280700000.0 7256920000.0 90391200000.0 263478000000.0 178353000000.0 31584000000.0 9989970000.0 3938640000.0 634159000000.0 816152000000.0 14467200000.0 318919000000.0 187097000000.0 88958900000.0 877087000000.0 705427000000.0 257486000000.0 269522000000.0 63297000000.0 823356000000.0 221861000000.0 99995000000.0 212915000000.0 154861000000.0 114073000000.0 66385600000.0 69725200000.0 106114000000.0 13324400000.0 953352000.0 116083000000.0 269382000000.0 4446310000.0 113991000000.0 120439000000.0 187600000000.0 43079300000.0 47536900000.0 43074000000.0 187597000000.0 120437000000.0 113991000000.0 4445410000.0 269383000000.0 116084000000.0 954127000.0 13323900000.0 106114000000.0 69724900000.0 66385300000.0 114073000000.0 154861000000.0 212915000000.0 99995100000.0 221861000000.0 823356000000.0 63296800000.0 269522000000.0 257486000000.0 705428000000.0 877086000000.0 88959000000.0 187097000000.0 318920000000.0 14466700000.0 816152000000.0 634160000000.0 3938960000.0 9990020000.0 31584000000.0 178354000000.0 263478000000.0 90391300000.0 7256890000.0 221577000000.0 428028000000.0 192249000000.0 43111600000.0 33600500000.0 133670000000.0 852383000000.0 506460000000.0 10543400000.0 414396000000.0 57289300000.0 179911000000.0 387308000000.0 144498000000.0 107388000000.0 37665900000.0 98066500000.0 70388300000.0 245340000000.0 30363600000.0 253199000000.0 131753000000.0 181200000000.0 19226600000.0 319019000000.0 74401400000.0 167745000000.0 91487500000.0 132498000000.0 91484000000.0 167736000000.0 74394500000.0 319016000000.0 19228200000.0 181199000000.0 131752000000.0 253199000000.0 30363600000.0 245340000000.0 70388300000.0 98066500000.0 37665700000.0 107388000000.0 144498000000.0 387308000000.0 179912000000.0 57289100000.0 414397000000.0 10543300000.0 506460000000.0 852382000000.0 133670000000.0 33600100000.0 43111700000.0 192250000000.0 428028000000.0 221577000000.0 97798400000.0 287293000000.0 498096000000.0 3400460000.0 43927000000.0 27661500000.0 191682000000.0 52519000000.0 175032000000.0 318421000000.0 26245700000.0 509501000000.0 486862000000.0 248782000000.0 207384000000.0 235062000000.0 182816000000.0 209674000000.0 283270000000.0 254015000000.0 128768000000.0 66625700000.0 26034800000.0 88109200000.0 67946700000.0 60451300000.0 98398200000.0 30222600000.0 20475200000.0 188635000000.0 188633000000.0 20482700000.0 30229600000.0 98394700000.0 60451300000.0 67946500000.0 88108900000.0 26034800000.0 66625500000.0 128768000000.0 254015000000.0 283270000000.0 209674000000.0 182816000000.0 235062000000.0 207384000000.0 248782000000.0 486862000000.0 509501000000.0 26246100000.0 318421000000.0 175030000000.0 52519700000.0 191681000000.0 27661300000.0 43927300000.0 3400520000.0 498096000000.0 287293000000.0 97798400000.0 289839000000.0 304679000000.0 85528100000.0 44260200000.0 64402500000.0 140114000000.0 241988000000.0 1.21011e+12 993265000000.0 569004000000.0 35621500000.0 166376000000.0 254617000000.0 230395000000.0 262518000000.0 278366000000.0 264424000000.0 204132000000.0 133200000000.0 110758000000.0 16291300000.0 172308000000.0 191935000000.0 344005000000.0 497246000000.0 499464000000.0 768095000000.0 357836000000.0 340876000000.0 2921170000.0 18172700000.0 479413000000.0 286528000000.0 257269000000.0 286508000000.0 479411000000.0 18170600000.0 2920570000.0 340880000000.0 357838000000.0 768096000000.0 499465000000.0 497247000000.0 344006000000.0 191935000000.0 172308000000.0 16291900000.0 110758000000.0 133200000000.0 204132000000.0 264424000000.0 278366000000.0 262518000000.0 230395000000.0 254617000000.0 166376000000.0 35621700000.0 569003000000.0 993265000000.0 1.21011e+12 241987000000.0 140114000000.0 64402700000.0 44260300000.0 85528000000.0 304679000000.0 289839000000.0 79117900000.0 435026000000.0 52426800000.0 65494300000.0 59458800000.0 116760000000.0 278999000000.0 128545000000.0 563843000000.0 191113000000.0 116159000000.0 485950000000.0 196291000000.0 272249000000.0 301809000000.0 256036000000.0 193824000000.0 155840000000.0 109935000000.0 40906100000.0 37797500000.0 3553890000.0 226694000000.0 122000000000.0 5273100000.0 111401000000.0 209568000000.0 51146300000.0 429778000000.0 156516000000.0 409626000000.0 325510000000.0 390223000000.0 325494000000.0 409608000000.0 156526000000.0 429775000000.0 51148400000.0 209564000000.0 111405000000.0 5276350000.0 122002000000.0 226694000000.0 3553660000.0 37797200000.0 40905500000.0 109935000000.0 155840000000.0 193824000000.0 256036000000.0 301809000000.0 272249000000.0 196291000000.0 485949000000.0 116159000000.0 191112000000.0 563844000000.0 128545000000.0 278999000000.0 116760000000.0 59458700000.0 65494300000.0 52426800000.0 435027000000.0 79117900000.0 9040700000.0 95978200000.0 134433000000.0 160334000000.0 340669000000.0 365300000000.0 313414000000.0 930696000000.0 144455000000.0 294807000000.0 319133000000.0 300364000000.0 305980000000.0 305608000000.0 314413000000.0 308514000000.0 275969000000.0 213701000000.0 142968000000.0 187729000000.0 200401000000.0 25817800000.0 111730000000.0 13548700000.0 354879000000.0 354873000000.0 13543300000.0 111731000000.0 25817800000.0 200402000000.0 187729000000.0 142968000000.0 213700000000.0 275969000000.0 308514000000.0 314413000000.0 305608000000.0 305980000000.0 300364000000.0 319133000000.0 294807000000.0 144455000000.0 930696000000.0 313414000000.0 365299000000.0 340669000000.0 160334000000.0 134433000000.0 95978100000.0 9040690000.0 56939100000.0 138450000000.0 54939600000.0 242429000000.0 86410100000.0 98497300000.0 379624000000.0 37420300000.0 500850000000.0 56161800000.0 354861000000.0 361027000000.0 358382000000.0 345030000000.0 329376000000.0 316364000000.0 294076000000.0 152358000000.0 188881000000.0 200867000000.0 384995000000.0 368057000000.0 541298000000.0 392835000000.0 462452000000.0 235704000000.0 155257000000.0 111948000000.0 39168300000.0 284778000000.0 271639000000.0 469557000000.0 271619000000.0 284777000000.0 39164000000.0 111949000000.0 155262000000.0 235705000000.0 462453000000.0 392835000000.0 541299000000.0 368057000000.0 384995000000.0 200868000000.0 188881000000.0 152358000000.0 294076000000.0 316364000000.0 329376000000.0 345030000000.0 358382000000.0 361027000000.0 354861000000.0 56162000000.0 500850000000.0 37420100000.0 379625000000.0 98496500000.0 86410100000.0 242429000000.0 54939700000.0 138450000000.0 56939000000.0 165494000000.0 213614000000.0 61360000000.0 113539000000.0 14368800000.0 249760000000.0 203078000000.0 9151010000.0 344108000000.0 376231000000.0 390368000000.0 389950000000.0 369895000000.0 324145000000.0 257094000000.0 127637000000.0 38535100000.0 33975900000.0 99301900000.0 70165100000.0 242620000000.0 214938000000.0 115519000000.0 199214000000.0 152651000.0 183726000000.0 133110000000.0 35397500000.0 403687000000.0 34211700000.0 337526000000.0 269197000000.0 470805000000.0 269192000000.0 337575000000.0 34215500000.0 403689000000.0 35395600000.0 133112000000.0 183725000000.0 150884000.0 199215000000.0 115519000000.0 214938000000.0 242620000000.0 70165300000.0 99302000000.0 33976000000.0 38535000000.0 127637000000.0 257094000000.0 324145000000.0 369895000000.0 389950000000.0 390368000000.0 376231000000.0 344109000000.0 9151180000.0 203077000000.0 249760000000.0 14368700000.0 113539000000.0 61360000000.0 213614000000.0 165494000000.0 8915560000.0 293394000000.0 409987000000.0 167184000000.0 80783900000.0 126719000000.0 483078000000.0 206692000000.0 341399000000.0 356507000000.0 296408000000.0 228032000000.0 170571000000.0 134917000000.0 54986000000.0 4127990000.0 48373200000.0 180522000000.0 188821000000.0 97798200000.0 21876900000.0 150055000000.0 150261000000.0 21876300000.0 97795900000.0 188821000000.0 180522000000.0 48373300000.0 4127880000.0 54985900000.0 134917000000.0 170570000000.0 228032000000.0 296408000000.0 356507000000.0 341399000000.0 206692000000.0 483078000000.0 126719000000.0 80783600000.0 167184000000.0 409987000000.0 293393000000.0 8915560000.0 247248000000.0 37575500000.0 282297000000.0 10447800000.0 226989000000.0 158091000000.0 347584000000.0 377148000000.0 391328000000.0 390600000000.0 247670000000.0 181466000000.0 165114000000.0 134346000000.0 74380900000.0 28498200000.0 109056000000.0 161589000000.0 158018000000.0 125273000000.0 131159000000.0 59453200000.0 78503500000.0 84490700000.0 266419000000.0 219215000000.0 500017000000.0 219113000000.0 266419000000.0 84492400000.0 78502400000.0 59453300000.0 131159000000.0 125272000000.0 158018000000.0 161588000000.0 109056000000.0 28498200000.0 74380800000.0 134346000000.0 165114000000.0 181466000000.0 247670000000.0 390600000000.0 391328000000.0 377148000000.0 347584000000.0 158091000000.0 226989000000.0 10447800000.0 282297000000.0 37575500000.0 247248000000.0 249393000000.0 129513000000.0 100488000000.0 165081000000.0 254932000000.0 254470000000.0 301334000000.0 267883000000.0 327306000000.0 352355000000.0 361012000000.0 352296000000.0 310775000000.0 264950000000.0 225865000000.0 164893000000.0 123960000000.0 104502000000.0 74077600000.0 46120300000.0 7970640000.0 41817400000.0 38264000000.0 40756100000.0 14705900000.0 51770500000.0 27522200000.0 191427000000.0 50287800000.0 121487000000.0 107389000000.0 550438000000.0 107403000000.0 121458000000.0 50284900000.0 191427000000.0 27520800000.0 51770900000.0 14705700000.0 40756700000.0 38264200000.0 41816900000.0 7970630000.0 46120000000.0 74077700000.0 104502000000.0 123960000000.0 164893000000.0 225865000000.0 264950000000.0 310775000000.0 352296000000.0 361012000000.0 352355000000.0 327306000000.0 267883000000.0 301334000000.0 254470000000.0 254932000000.0 165081000000.0 100489000000.0 129513000000.0 249393000000.0 169373000000.0 9660560000.0 63976800000.0 65655000000.0 174232000000.0 96769500000.0 14109600000.0 155468000000.0 248791000000.0 259864000000.0 270060000000.0 269293000000.0 293952000000.0 303991000000.0 308525000000.0 287023000000.0 252068000000.0 199133000000.0 223125000000.0 193654000000.0 157014000000.0 10625400000.0 58235100000.0 58166400000.0 10611100000.0 157014000000.0 193654000000.0 223125000000.0 199133000000.0 252068000000.0 287023000000.0 308525000000.0 303991000000.0 293952000000.0 269294000000.0 270060000000.0 259864000000.0 248791000000.0 155468000000.0 14109600000.0 96769600000.0 174232000000.0 65655000000.0 63976900000.0 9660460000.0 169373000000.0 115101000000.0 73959100000.0 3426120000.0 2909230000.0 24482000000.0 46081800000.0 2681590000.0 131237000000.0 252408000000.0 250523000000.0 224821000000.0 181194000000.0 179530000000.0 131929000000.0 28654900000.0 59995700000.0 117042000000.0 208690000000.0 249241000000.0 263034000000.0 280729000000.0 203474000000.0 177867000000.0 108890000000.0 43246800000.0 51328100000.0 21465500000.0 26152500000.0 65739700000.0 61328300000.0 523730000000.0 61343400000.0 65752700000.0 26140900000.0 21459500000.0 51323800000.0 43243900000.0 108889000000.0 177866000000.0 203474000000.0 280729000000.0 263034000000.0 249241000000.0 208690000000.0 117042000000.0 59995700000.0 28654900000.0 131929000000.0 179530000000.0 181194000000.0 224821000000.0 250523000000.0 252408000000.0 131237000000.0 2681580000.0 46081800000.0 24482100000.0 2909200000.0 3426280000.0 73959400000.0 115101000000.0 53264800000.0 86611700000.0 7386430000.0 29684700000.0 239026000000.0 249520000000.0 248990000000.0 248012000000.0 247140000000.0 159364000000.0 124105000000.0 87751400000.0 45475400000.0 75811600000.0 23423900000.0 23540900000.0 48901300000.0 29389200000.0 77950500000.0 41704700000.0 57368000000.0 47400200000.0 40117000000.0 21179100000.0 60915200000.0 42311500000.0 58070400000.0 75535500000.0 534868000000.0 75508200000.0 58057100000.0 42311200000.0 60910900000.0 21176900000.0 40120200000.0 47400800000.0 57369300000.0 41704400000.0 77950300000.0 29389000000.0 48901200000.0 23541000000.0 23423800000.0 75811600000.0 45475400000.0 87751400000.0 124105000000.0 159364000000.0 247140000000.0 248012000000.0 248990000000.0 249520000000.0 239026000000.0 29684700000.0 7386440000.0 86611800000.0 53264900000.0 68930700000.0 10524700000.0 57629400000.0 90234800000.0 106810000000.0 226407000000.0 229736000000.0 228480000000.0 208610000000.0 198876000000.0 201135000000.0 189417000000.0 168333000000.0 165584000000.0 165584000000.0 168333000000.0 189417000000.0 201135000000.0 198876000000.0 208610000000.0 228480000000.0 229736000000.0 226407000000.0 106810000000.0 90234800000.0 57629400000.0 10524700000.0 68930700000.0 32908300000.0 32196800000.0 64030000000.0 42774800000.0 62479800000.0 46949700000.0 88779500000.0 59526100000.0 79602000000.0 204471000000.0 205029000000.0 184837000000.0 159291000000.0 149966000000.0 148042000000.0 111895000000.0 67189300000.0 35058500000.0 4346000000.0 27903800000.0 98071500000.0 128510000000.0 141326000000.0 154223000000.0 99781500000.0 104887000000.0 75078800000.0 82971300000.0 59613700000.0 48446700000.0 46824500000.0 15891900000.0 45175700000.0 13110700000.0 69013400000.0 18760400000.0 48962500000.0 431820000000.0 48960600000.0 18770300000.0 69014700000.0 13105500000.0 45177300000.0 15894100000.0 46825400000.0 48447900000.0 59614300000.0 82971800000.0 75079100000.0 104887000000.0 99781500000.0 154223000000.0 141326000000.0 128510000000.0 98071500000.0 27903800000.0 4346020000.0 35058500000.0 67189300000.0 111895000000.0 148042000000.0 149966000000.0 159291000000.0 184837000000.0 205029000000.0 204471000000.0 79601900000.0 59526100000.0 88779500000.0 46949600000.0 62479700000.0 42774800000.0 64030100000.0 32196800000.0 32908300000.0 39723800000.0 21737500000.0 44382900000.0 37050200000.0 55088700000.0 49378100000.0 65638100000.0 54282000000.0 30147700000.0 52901800000.0 188748000000.0 163670000000.0 139813000000.0 109286000000.0 92099000000.0 65984000000.0 66292800000.0 63346700000.0 42294500000.0 61111300000.0 16882000000.0 44277600000.0 1574020000.0 26003300000.0 11380800000.0 11079900000.0 15733900000.0 6794120000.0 33085900000.0 5587370000.0 58133200000.0 2998120000.0 89766900000.0 4171170000.0 88585300000.0 11026100000.0 486047000000.0 11026000000.0 88577800000.0 4171640000.0 89765500000.0 2998230000.0 58132900000.0 5587420000.0 33085900000.0 6794160000.0 15734100000.0 11079900000.0 11380800000.0 26003300000.0 1574020000.0 44277600000.0 16882000000.0 61111300000.0 42294500000.0 63346700000.0 66292800000.0 65984000000.0 92099000000.0 109286000000.0 139813000000.0 163670000000.0 188748000000.0 52901800000.0 30147700000.0 54282000000.0 65638100000.0 49378000000.0 55088700000.0 37050200000.0 44382900000.0 21737500000.0 39723800000.0 225550000000.0 225550000000.0 19486900000.0 5983660000.0 23738000000.0 34370200000.0 43857400000.0 75113000000.0 63750300000.0 37878700000.0 10242300000.0 25258900000.0 165142000000.0 79730300000.0 30729600000.0 21499400000.0 115599000000.0 158481000000.0 198485000000.0 220261000000.0 238640000000.0 240605000000.0 231277000000.0 294976000000.0 235883000000.0 214933000000.0 183738000000.0 149291000000.0 135642000000.0 100671000000.0 93200200000.0 42680300000.0 61095900000.0 7400750000.0 38164700000.0 48432300000.0 26184100000.0 69075400000.0 15595800000.0 418995000000.0 15595600000.0 69070000000.0 26184700000.0 48431100000.0 38164900000.0 7400300000.0 61096100000.0 42680500000.0 93200300000.0 100671000000.0 135642000000.0 149291000000.0 183738000000.0 214933000000.0 235883000000.0 294976000000.0 231277000000.0 240605000000.0 238640000000.0 220261000000.0 198485000000.0 158481000000.0 115599000000.0 21499400000.0 30729700000.0 79730300000.0 165142000000.0 25258800000.0 10242300000.0 37878700000.0 63750300000.0 75113000000.0 43857400000.0 34370200000.0 23738100000.0 5983660000.0 19486900000.0 13274600000.0 25131100000.0 38149600000.0 48333100000.0 34518400000.0 11383200000.0 4408050000.0 20973400000.0 53520700000.0 49960000000.0 50853100000.0 156114000000.0 131597000000.0 72619500000.0 49882000000.0 45163800000.0 46030500000.0 54939000000.0 58487200000.0 65515300000.0 66806300000.0 27576700000.0 8133750000.0 37193300000.0 8322260000.0 39128300000.0 8655270000.0 35340300000.0 8107330000.0 53732200000.0 7905260000.0 69270000000.0 7942340000.0 84283400000.0 7751870000.0 104037000000.0 9080820000.0 400097000000.0 9080820000.0 104033000000.0 7751910000.0 84283000000.0 7942350000.0 69269900000.0 7905270000.0 53732200000.0 8107330000.0 35340300000.0 8655270000.0 39128300000.0 8322260000.0 37193300000.0 8133750000.0 27576700000.0 66806300000.0 65515300000.0 58487200000.0 54939000000.0 46030500000.0 45163800000.0 49882000000.0 72619500000.0 131597000000.0 156114000000.0 50853100000.0 49960000000.0 53520700000.0 20973400000.0 4408020000.0 11383100000.0 34518400000.0 48333200000.0 38149500000.0 25131100000.0 13274600000.0 26467600000.0 8887860000.0 17908400000.0 21261100000.0 51036100000.0 85560200000.0 60471100000.0 23989200000.0 3725000000.0 21848800000.0 106997000000.0 149614000000.0 108553000000.0 48424000000.0 8626010000.0 14112800000.0 5634810000.0 6988870000.0 12330900000.0 12845100000.0 6094250000.0 11532100000.0 25322700000.0 8876170000.0 15206200000.0 22440100000.0 7098140000.0 26993000000.0 533975000.0 52640600000.0 7222920000.0 69737400000.0 9035750000.0 81310400000.0 9035750000.0 106184000000.0 8785430000.0 358100000000.0 8785460000.0 106181000000.0 9035750000.0 81310000000.0 9035750000.0 69737300000.0 7222920000.0 52640600000.0 533976000.0 26993000000.0 7098140000.0 22440100000.0 15206200000.0 8876160000.0 25322700000.0 11532100000.0 6094250000.0 12845100000.0 12330900000.0 6988880000.0 5634800000.0 14112800000.0 8625990000.0 48424000000.0 108553000000.0 149614000000.0 106997000000.0 21848900000.0 3725050000.0 23989200000.0 60471100000.0 85560200000.0 51036100000.0 21261100000.0 17908400000.0 8887860000.0 26467600000.0 28437400000.0 6716490000.0 11307700000.0 11594600000.0 41081500000.0 74976600000.0 59039900000.0 23261100000.0 747904000.0 11446400000.0 102391000000.0 140824000000.0 128698000000.0 87089600000.0 49668600000.0 48651600000.0 49598400000.0 56887500000.0 61697800000.0 55467400000.0 37309600000.0 31022200000.0 8904530000.0 38342100000.0 9035750000.0 44789300000.0 9035750000.0 41596400000.0 9035750000.0 59547000000.0 9035750000.0 67968800000.0 9035750000.0 78431500000.0 9035750000.0 105690000000.0 9035750000.0 319955000000.0 9035750000.0 105688000000.0 9035750000.0 78431300000.0 9035750000.0 67968700000.0 9035750000.0 59547000000.0 9035750000.0 41596400000.0 9035750000.0 44789300000.0 9035750000.0 38342100000.0 8904530000.0 31022200000.0 37309600000.0 55467400000.0 61697800000.0 56887500000.0 49598400000.0 48651600000.0 49668700000.0 87089600000.0 128698000000.0 140824000000.0 102391000000.0 11446400000.0 747906000.0 23261100000.0 59039900000.0 74976600000.0 41081500000.0 11594600000.0 11307700000.0 6716490000.0 28437400000.0 30558600000.0 10710300000.0 15766400000.0 21526600000.0 49103000000.0 78270300000.0 65679900000.0 34773100000.0 18210900000.0 32478300000.0 121909000000.0 130986000000.0 105776000000.0 61578100000.0 47133300000.0 45651000000.0 46312400000.0 51499700000.0 56230300000.0 46131900000.0 24298500000.0 29070100000.0 7825720000.0 37442000000.0 9035750000.0 45058800000.0 9035750000.0 42827500000.0 9035750000.0 59843000000.0 9035750000.0 65784300000.0 9035750000.0 75870300000.0 9035750000.0 103251000000.0 9035750000.0 285529000000.0 9035750000.0 103250000000.0 9035750000.0 75870200000.0 9035750000.0 65784300000.0 9035750000.0 59843100000.0 9035750000.0 42827500000.0 9035750000.0 45058800000.0 9035750000.0 37442000000.0 7825720000.0 29070100000.0 24298500000.0 46131900000.0 56230300000.0 51499700000.0 46312400000.0 45651000000.0 47133300000.0 61578100000.0 105776000000.0 130986000000.0 121909000000.0 32478400000.0 18210900000.0 34773100000.0 65679900000.0 78270300000.0 49103000000.0 21526600000.0 15766400000.0 10710300000.0 30558600000.0 30693200000.0 11263000000.0 14405000000.0 23548400000.0 46246200000.0 71350400000.0 50257800000.0 52907100000.0 56503500000.0 43595400000.0 19741600000.0 31384400000.0 9035750000.0 37304100000.0 9035750000.0 45003500000.0 9035750000.0 43572700000.0 9035750000.0 59349300000.0 9035750000.0 63521800000.0 9035750000.0 73175300000.0 9035750000.0 99586800000.0 9035750000.0 254607000000.0 9035750000.0 99586100000.0 9035750000.0 73175300000.0 9035750000.0 63521800000.0 9035750000.0 59349400000.0 9035750000.0 43572700000.0 9035750000.0 45003500000.0 9035750000.0 37304100000.0 9035750000.0 31384400000.0 19741600000.0 43595400000.0 56503500000.0 52907100000.0 50257800000.0 71350400000.0 46246200000.0 23548400000.0 14405000000.0 11263000000.0 30693200000.0 63075000000.0 35807100000.0 21019400000.0 34088700000.0 121492000000.0 118471000000.0 93856100000.0 58600400000.0 54732800000.0 50755400000.0 50755400000.0 54732800000.0 58600400000.0 93856100000.0 118470000000.0 121492000000.0 34088700000.0 21019400000.0 35807100000.0 63075000000.0 30300500000.0 12099800000.0 14048300000.0 25786800000.0 44297600000.0 65581700000.0 60942800000.0 37678200000.0 25429200000.0 37985400000.0 121088000000.0 107172000000.0 83086300000.0 57919200000.0 56525500000.0 50791000000.0 49459500000.0 50116200000.0 52544300000.0 38330300000.0 14836800000.0 31383500000.0 9035750000.0 36809400000.0 9035750000.0 44688500000.0 9035750000.0 43908100000.0 9035750000.0 58261900000.0 9035750000.0 61306900000.0 9035750000.0 70296200000.0 9035750000.0 95108500000.0 9035750000.0 226741000000.0 9035750000.0 95108100000.0 9035750000.0 70296300000.0 9035750000.0 61306900000.0 9035750000.0 58261900000.0 9035750000.0 43908100000.0 9035750000.0 44688500000.0 9035750000.0 36809400000.0 9035750000.0 31383500000.0 14836800000.0 38330300000.0 52544300000.0 50116200000.0 49459500000.0 50791000000.0 56525500000.0 57919200000.0 83086300000.0 107172000000.0 121088000000.0 37985400000.0 25429200000.0 37678200000.0 60942800000.0 65581700000.0 44297600000.0 25786800000.0 14048300000.0 12099800000.0 30300500000.0 11592200000.0 9035760000.0 9035760000.0 9035750000.0 9035750000.0 9035750000.0 9035750000.0 9035750000.0 9035750000.0 9035750000.0 9035750000.0 9035750000.0 9035750000.0 9035750000.0 9035750000.0 9035760000.0 9035760000.0 11592200000.0 29495300000.0 12697000000.0 13717500000.0 26754300000.0 41852600000.0 59661800000.0 57963300000.0 38354900000.0 28307300000.0 39996100000.0 117938000000.0 98494600000.0 78157100000.0 60104300000.0 58560400000.0 51463500000.0 49143000000.0 47838200000.0 48650000000.0 33888200000.0 31300100000.0 36228800000.0 44159100000.0 43885100000.0 56764600000.0 59165400000.0 67306500000.0 90135300000.0 201559000000.0 90135100000.0 67306500000.0 59165400000.0 56764600000.0 43885100000.0 44159100000.0 36228800000.0 31300100000.0 33888200000.0 48650000000.0 47838200000.0 49143000000.0 51463500000.0 58560400000.0 60104300000.0 78157100000.0 98494600000.0 117938000000.0 39996100000.0 28307300000.0 38354900000.0 57963300000.0 59661800000.0 41852600000.0 26754300000.0 13717500000.0 12697000000.0 29495300000.0 28519000000.0 13235400000.0 13740900000.0 27067800000.0 39610900000.0 54384800000.0 54984400000.0 38713400000.0 30687500000.0 41438300000.0 113110000000.0 91998600000.0 75803400000.0 61553200000.0 59465200000.0 51429300000.0 48220300000.0 45327600000.0 44553400000.0 30127200000.0 9847350000.0 31115000000.0 9035760000.0 35511000000.0 9035760000.0 43449300000.0 9035750000.0 43551500000.0 9035760000.0 55000200000.0 9035750000.0 57080500000.0 9035760000.0 64272200000.0 9035750000.0 84886200000.0 9035750000.0 178825000000.0 9035750000.0 84886100000.0 9035750000.0 64272300000.0 9035760000.0 57080500000.0 9035750000.0 55000200000.0 9035760000.0 43551500000.0 9035750000.0 43449200000.0 9035760000.0 35511000000.0 9035760000.0 31115000000.0 9847350000.0 30127200000.0 44553400000.0 45327600000.0 48220300000.0 51429300000.0 59465200000.0 61553200000.0 75803400000.0 91998600000.0 113110000000.0 41438300000.0 30687500000.0 38713400000.0 54984400000.0 54384800000.0 39610900000.0 27067800000.0 13740900000.0 13235400000.0 28519000000.0 27492700000.0 13709200000.0 14012000000.0 26908400000.0 37596800000.0 49795500000.0 52119000000.0 38788300000.0 32545300000.0 42332800000.0 107238000000.0 87189700000.0 74270000000.0 62352600000.0 59789400000.0 51131000000.0 47101400000.0 42915900000.0 40610800000.0 27087900000.0 9214980000.0 30820600000.0 9035760000.0 34655900000.0 9035760000.0 42584400000.0 9035760000.0 42952400000.0 9035760000.0 53065300000.0 9035750000.0 55015600000.0 9035760000.0 61229300000.0 9035750000.0 79510600000.0 9035750000.0 158364000000.0 9035750000.0 79510600000.0 9035750000.0 61229300000.0 9035760000.0 55015600000.0 9035750000.0 53065300000.0 9035760000.0 42952400000.0 9035760000.0 42584400000.0 9035760000.0 34655900000.0 9035760000.0 30820600000.0 9214980000.0 27087900000.0 40610800000.0 42915900000.0 47101400000.0 51131000000.0 59789400000.0 62352600000.0 74270000000.0 87189700000.0 107238000000.0 42332800000.0 32545300000.0 38788300000.0 52119000000.0 49795500000.0 37596800000.0 26908400000.0 14012000000.0 13709200000.0 27492700000.0 26489400000.0 14114400000.0 14363600000.0 26429300000.0 35780600000.0 45870700000.0 49415800000.0 38604100000.0 33880500000.0 42780200000.0 100799000000.0 82998500000.0 72537900000.0 62515800000.0 59592700000.0 50553500000.0 45804200000.0 40621400000.0 36936300000.0 24684800000.0 9063790000.0 30418700000.0 9035760000.0 33690800000.0 9035760000.0 41584900000.0 9035760000.0 42127500000.0 9035760000.0 51025700000.0 9035750000.0 52936000000.0 9035760000.0 58192800000.0 9035750000.0 74118400000.0 9035750000.0 140013000000.0 9035750000.0 74118400000.0 9035750000.0 58192800000.0 9035760000.0 52936000000.0 9035750000.0 51025700000.0 9035760000.0 42127500000.0 9035760000.0 41584900000.0 9035760000.0 33690800000.0 9035760000.0 30418700000.0 9063790000.0 24684800000.0 36936300000.0 40621400000.0 45804200000.0 50553500000.0 59592700000.0 62515800000.0 72537900000.0 82998500000.0 100799000000.0 42780200000.0 33880500000.0 38604100000.0 49415800000.0 45870700000.0 35780600000.0 26429300000.0 14363600000.0 14114400000.0 26489400000.0 25543900000.0 14448100000.0 14688200000.0 25751100000.0 34132700000.0 42526200000.0 46878100000.0 38179400000.0 34712500000.0 42882800000.0 94123800000.0 78810600000.0 70372100000.0 62105800000.0 58931300000.0 49694100000.0 44344400000.0 38444600000.0 33589800000.0 22801700000.0 9038970000.0 29913900000.0 9035760000.0 32647900000.0 9035760000.0 40469100000.0 9035760000.0 41112900000.0 9035760000.0 48926100000.0 9035750000.0 50819800000.0 9035760000.0 55169200000.0 9035750000.0 68795200000.0 9035750000.0 123617000000.0 9035750000.0 68795200000.0 9035750000.0 55169200000.0 9035760000.0 50819800000.0 9035750000.0 48926100000.0 9035760000.0 41112900000.0 9035760000.0 40469100000.0 9035760000.0 32647900000.0 9035760000.0 29913900000.0 9038970000.0 22801700000.0 33589800000.0 38444600000.0 44344400000.0 49694100000.0 58931300000.0 62105800000.0 70372100000.0 78810600000.0 94123800000.0 42882800000.0 34712500000.0 38179400000.0 46878100000.0 42526200000.0 34132700000.0 25751100000.0 14688200000.0 14448100000.0 25543900000.0 24662900000.0 14708800000.0 14945300000.0 24964400000.0 32606500000.0 39656600000.0 44485500000.0 37523900000.0 35075700000.0 42709500000.0 87433600000.0 74466700000.0 67807500000.0 61188500000.0 57858500000.0 48565200000.0 42738600000.0 36376400000.0 30592300000.0 21324600000.0 9036040000.0 29311000000.0 9035760000.0 31553900000.0 9035760000.0 39252800000.0 9035760000.0 39941900000.0 9035760000.0 46796600000.0 9035760000.0 48658800000.0 9035760000.0 52162900000.0 9035750000.0 63609000000.0 9035750000.0 109019000000.0 9035750000.0 63609100000.0 9035750000.0 52163000000.0 9035760000.0 48658800000.0 9035760000.0 46796600000.0 9035760000.0 39941900000.0 9035760000.0 39252800000.0 9035760000.0 31553900000.0 9035760000.0 29311000000.0 9036040000.0 21324600000.0 30592300000.0 36376400000.0 42738600000.0 48565200000.0 57858500000.0 61188500000.0 67807500000.0 74466700000.0 87433600000.0 42709500000.0 35075700000.0 37523900000.0 44485600000.0 39656600000.0 32606500000.0 24964400000.0 14945300000.0 14708800000.0 24662900000.0 23838000000.0 14896100000.0 15125200000.0 24131400000.0 31136300000.0 37167100000.0 42209500000.0 36647000000.0 35015200000.0 42298600000.0 80882100000.0 70007000000.0 64932000000.0 59829200000.0 56424900000.0 47190200000.0 41006900000.0 34404800000.0 27938800000.0 20156600000.0 9035780000.0 28615800000.0 9035760000.0 30428700000.0 9035760000.0 37950400000.0 9035760000.0 38644300000.0 9035760000.0 44656900000.0 9035760000.0 46454400000.0 9035760000.0 49180800000.0 9035750000.0 58613400000.0 9035750000.0 96068000000.0 9035750000.0 58613400000.0 9035750000.0 49180800000.0 9035760000.0 46454400000.0 9035760000.0 44656900000.0 9035760000.0 38644300000.0 9035760000.0 37950400000.0 9035760000.0 30428700000.0 9035760000.0 28615800000.0 9035780000.0 20156600000.0 27938800000.0 34404800000.0 41006900000.0 47190200000.0 56424900000.0 59829200000.0 64932000000.0 70007000000.0 80882100000.0 42298600000.0 35015200000.0 36647000000.0 42209500000.0 37167100000.0 31136300000.0 24131400000.0 15125200000.0 14896100000.0 23838000000.0 23054400000.0 15011000000.0 15227300000.0 23290800000.0 29673000000.0 34975200000.0 40022800000.0 35564500000.0 34583800000.0 41669200000.0 74575100000.0 65515100000.0 61832000000.0 58091600000.0 54679900000.0 45600300000.0 39174400000.0 32520000000.0 25609000000.0 19216500000.0 9035760000.0 27835600000.0 9035760000.0 29285600000.0 9035760000.0 36574300000.0 9035760000.0 37245700000.0 9035760000.0 42518900000.0 9035760000.0 44214900000.0 9035760000.0 46232500000.0 9035750000.0 53849100000.0 9035750000.0 84611900000.0 9035750000.0 53849100000.0 9035750000.0 46232500000.0 9035760000.0 44214900000.0 9035760000.0 42518900000.0 9035760000.0 37245700000.0 9035760000.0 36574300000.0 9035760000.0 29285600000.0 9035760000.0 27835600000.0 9035760000.0 19216500000.0 25609000000.0 32520000000.0 39174400000.0 45600300000.0 54679900000.0 58091600000.0 61832000000.0 65515100000.0 74575100000.0 41669200000.0 34583800000.0 35564500000.0 40022800000.0 34975200000.0 29673000000.0 23290800000.0 15227300000.0 15011000000.0 23054400000.0 22296700000.0 15055300000.0 15254200000.0 22462600000.0 28203500000.0 33005500000.0 37902700000.0 34299800000.0 33837600000.0 40829600000.0 68581700000.0 61068100000.0 58584000000.0 56037600000.0 52672600000.0 43831000000.0 37270100000.0 30716300000.0 23573600000.0 18436900000.0 9035760000.0 26979500000.0 9035760000.0 28133100000.0 9035760000.0 35136400000.0 9035760000.0 35767900000.0 9035760000.0 40390100000.0 9035760000.0 41952200000.0 9035760000.0 43330400000.0 9035750000.0 49345300000.0 9035750000.0 74504900000.0 9035750000.0 49345400000.0 9035750000.0 43330400000.0 9035760000.0 41952200000.0 9035760000.0 40390100000.0 9035760000.0 35767900000.0 9035760000.0 35136400000.0 9035760000.0 28133100000.0 9035760000.0 26979500000.0 9035760000.0 18436900000.0 23573600000.0 30716300000.0 37270100000.0 43831000000.0 52672600000.0 56037600000.0 58584000000.0 61068100000.0 68581700000.0 40829600000.0 33837600000.0 34299800000.0 37902700000.0 33005500000.0 28203500000.0 22462600000.0 15254200000.0 15055300000.0 22296700000.0 21551000000.0 15031500000.0 15209400000.0 21654600000.0 26740900000.0 31193000000.0 35833300000.0 32883900000.0 32833200000.0 39783500000.0 62940900000.0 56726100000.0 55253200000.0 53726200000.0 50450800000.0 41919300000.0 35323600000.0 28990200000.0 21799500000.0 17763300000.0 9035760000.0 26057900000.0 9035760000.0 26976200000.0 9035760000.0 33647400000.0 9035760000.0 34229200000.0 9035760000.0 38275500000.0 9035760000.0 39679400000.0 9035760000.0 40488400000.0 9035750000.0 45121000000.0 9035750000.0 65608500000.0 9035750000.0 45121000000.0 9035750000.0 40488400000.0 9035760000.0 39679400000.0 9035760000.0 38275500000.0 9035760000.0 34229200000.0 9035760000.0 33647400000.0 9035760000.0 26976200000.0 9035760000.0 26057900000.0 9035760000.0 17763300000.0 21799500000.0 28990200000.0 35323600000.0 41919300000.0 50450800000.0 53726200000.0 55253200000.0 56726100000.0 62940900000.0 39783500000.0 32833200000.0 32883900000.0 35833300000.0 31193000000.0 26740900000.0 21654600000.0 15209400000.0 15031500000.0 21551000000.0 20805900000.0 14943000000.0 15097300000.0 20867200000.0 25305500000.0 29487700000.0 33806700000.0 31353100000.0 31624700000.0 38536700000.0 57668800000.0 52532500000.0 51893200000.0 51211900000.0 48059500000.0 39900400000.0 33362900000.0 27339700000.0 20252700000.0 17154900000.0 9035760000.0 25081600000.0 9035760000.0 25817600000.0 9035760000.0 32117400000.0 9035760000.0 32645000000.0 9035760000.0 36179500000.0 9035760000.0 37409900000.0 9035760000.0 37721200000.0 9035750000.0 41185500000.0 9035750000.0 57793500000.0 9035750000.0 41185500000.0 9035750000.0 37721200000.0 9035760000.0 37409900000.0 9035760000.0 36179500000.0 9035760000.0 32645000000.0 9035760000.0 32117400000.0 9035760000.0 25817600000.0 9035760000.0 25081600000.0 9035760000.0 17154900000.0 20252700000.0 27339700000.0 33362900000.0 39900400000.0 48059500000.0 51211900000.0 51893200000.0 52532500000.0 57668800000.0 38536700000.0 31624700000.0 31353100000.0 33806700000.0 29487700000.0 25305500000.0 20867200000.0 15097300000.0 14943000000.0 20805900000.0 20053000000.0 14793500000.0 14922600000.0 20096300000.0 23914300000.0 27855000000.0 31822000000.0 29745500000.0 30261200000.0 37100600000.0 52763800000.0 48515400000.0 48545200000.0 48543200000.0 45539000000.0 37805500000.0 31411900000.0 25762500000.0 18900000000.0 16583400000.0 9035760000.0 24061100000.0 9035760000.0 24658500000.0 9035760000.0 30555400000.0 9035760000.0 31027800000.0 9035760000.0 34105800000.0 9035760000.0 35156200000.0 9035760000.0 35042500000.0 9035750000.0 37540400000.0 9035750000.0 50940100000.0 9035750000.0 37540400000.0 9035750000.0 35042500000.0 9035760000.0 35156200000.0 9035760000.0 34105800000.0 9035760000.0 31027800000.0 9035760000.0 30555400000.0 9035760000.0 24658500000.0 9035760000.0 24061100000.0 9035760000.0 16583400000.0 18900000000.0 25762500000.0 31411900000.0 37805500000.0 45539000000.0 48543200000.0 48545200000.0 48515400000.0 52763800000.0 37100600000.0 30261200000.0 29745500000.0 31822000000.0 27855000000.0 23914300000.0 20096300000.0 14922600000.0 14793500000.0 20053000000.0 19286900000.0 14587200000.0 14690800000.0 19335500000.0 22577200000.0 26274600000.0 29882600000.0 28095500000.0 28785900000.0 35492200000.0 48211100000.0 44689400000.0 45238800000.0 45761000000.0 42924400000.0 35660800000.0 29489000000.0 24255300000.0 17711000000.0 16030800000.0 9035760000.0 23005800000.0 9035760000.0 23499500000.0 9035760000.0 28969600000.0 9035760000.0 29388000000.0 9035760000.0 32058100000.0 9035760000.0 32929700000.0 9035760000.0 32464300000.0 9035750000.0 34180300000.0 9035750000.0 44938100000.0 9035750000.0 34180300000.0 9035750000.0 32464300000.0 9035760000.0 32929700000.0 9035760000.0 32058100000.0 9035760000.0 29388000000.0 9035760000.0 28969600000.0 9035760000.0 23499500000.0 9035760000.0 23005800000.0 9035760000.0 16030800000.0 17711000000.0 24255300000.0 29489000000.0 35660800000.0 42924400000.0 45761000000.0 45238800000.0 44689400000.0 48211100000.0 35492200000.0 28785900000.0 28095500000.0 29882600000.0 26274600000.0 22577200000.0 19335500000.0 14690800000.0 14587200000.0 19286900000.0 14407100000.0 18577800000.0 21297300000.0 40244900000.0 33487600000.0 27607400000.0 22813700000.0 16657800000.0 15486600000.0 9035760000.0 21924400000.0 9035760000.0 22340500000.0 9035760000.0 27367500000.0 9035760000.0 27734200000.0 9035760000.0 30039400000.0 9035760000.0 30739900000.0 9035760000.0 29996400000.0 9035750000.0 31094900000.0 9035750000.0 39686200000.0 9035750000.0 31094900000.0 9035750000.0 29996400000.0 9035760000.0 30739900000.0 9035760000.0 30039400000.0 9035760000.0 27734200000.0 9035760000.0 27367500000.0 9035760000.0 22340500000.0 9035760000.0 21924400000.0 9035760000.0 15486600000.0 16657800000.0 22813700000.0 27607400000.0 33487600000.0 40244900000.0 21297300000.0 18577800000.0 14407100000.0 18505400000.0 14328300000.0 24736500000.0 27992600000.0 26431500000.0 27234900000.0 33732800000.0 43986700000.0 41058200000.0 41992900000.0 42899100000.0 42899100000.0 41992900000.0 41058200000.0 43986700000.0 33732800000.0 27234900000.0 26431500000.0 27992600000.0 24736500000.0 14328300000.0 18505400000.0 17708500000.0 14021500000.0 14077100000.0 17816500000.0 20072700000.0 23236400000.0 26153900000.0 24774200000.0 25637300000.0 31846000000.0 40060700000.0 37617100000.0 38818200000.0 39983800000.0 37524100000.0 31302000000.0 25774500000.0 21432000000.0 15716400000.0 14944800000.0 9035760000.0 20824000000.0 9035760000.0 21181400000.0 9035760000.0 25755300000.0 9035760000.0 26073300000.0 9035760000.0 28052200000.0 9035750000.0 28594700000.0 9035760000.0 27645100000.0 9035750000.0 28269200000.0 9035750000.0 35091800000.0 9035750000.0 28269200000.0 9035750000.0 27645100000.0 9035760000.0 28594700000.0 9035750000.0 28052200000.0 9035760000.0 26073300000.0 9035760000.0 25755300000.0 9035760000.0 21181400000.0 9035760000.0 20824000000.0 9035760000.0 14944800000.0 15716400000.0 21432000000.0 25774500000.0 31302000000.0 37524100000.0 39983800000.0 38818200000.0 37617100000.0 40060700000.0 31846000000.0 25637300000.0 24774200000.0 26153900000.0 23236400000.0 20072700000.0 17816500000.0 14077100000.0 14021500000.0 17708500000.0 16898100000.0 13671100000.0 13706100000.0 17046000000.0 18898100000.0 21772200000.0 24365900000.0 23137500000.0 24015600000.0 29856300000.0 36399600000.0 34355000000.0 35718400000.0 37035500000.0 34780300000.0 29115900000.0 23993700000.0 20103900000.0 14866300000.0 14402200000.0 9035760000.0 19710500000.0 9035760000.0 20022000000.0 9035760000.0 24138300000.0 9035760000.0 24411000000.0 9035760000.0 26098200000.0 9035750000.0 26499600000.0 9035760000.0 25413600000.0 9035750000.0 25685700000.0 9035750000.0 31070300000.0 9035750000.0 25685700000.0 9035750000.0 25413600000.0 9035760000.0 26499600000.0 9035750000.0 26098200000.0 9035760000.0 24411000000.0 9035760000.0 24138300000.0 9035760000.0 20022000000.0 9035760000.0 19710500000.0 9035760000.0 14402200000.0 14866300000.0 20103900000.0 23993700000.0 29115900000.0 34780300000.0 37035500000.0 35718400000.0 34355000000.0 36399600000.0 29856300000.0 24015600000.0 23137600000.0 24365900000.0 21772200000.0 18898100000.0 17046000000.0 13706100000.0 13671100000.0 16898100000.0 16076800000.0 13281800000.0 13299200000.0 16261900000.0 17766600000.0 20341400000.0 22625400000.0 21529800000.0 22386200000.0 27786500000.0 32969100000.0 31256700000.0 32692000000.0 34069100000.0 32027000000.0 26937200000.0 22264400000.0 18822700000.0 14090300000.0 13856500000.0 9035760000.0 18588400000.0 9035760000.0 18862000000.0 9035760000.0 22520600000.0 9035760000.0 22751700000.0 9035760000.0 24178200000.0 9035750000.0 24458400000.0 9035760000.0 23301400000.0 9035750000.0 23324100000.0 9035750000.0 27544300000.0 9035750000.0 23324100000.0 9035750000.0 23301400000.0 9035760000.0 24458400000.0 9035750000.0 24178200000.0 9035760000.0 22751700000.0 9035760000.0 22520600000.0 9035760000.0 18862000000.0 9035760000.0 18588400000.0 9035760000.0 13856500000.0 14090300000.0 18822700000.0 22264400000.0 26937200000.0 32027000000.0 34069100000.0 32692000000.0 31256700000.0 32969100000.0 27786500000.0 22386200000.0 21529800000.0 22625400000.0 20341400000.0 17766600000.0 16261900000.0 13299200000.0 13281800000.0 16076800000.0 15247900000.0 12858100000.0 12861400000.0 15461600000.0 16670700000.0 18940600000.0 20927300000.0 19954900000.0 20760400000.0 25656700000.0 29735300000.0 28304400000.0 29734200000.0 31094900000.0 29273800000.0 24770800000.0 20583600000.0 17581600000.0 13374400000.0 13306400000.0 9035760000.0 17461100000.0 9035760000.0 17701500000.0 9035760000.0 20905500000.0 9035760000.0 21098700000.0 9035760000.0 22291900000.0 9035750000.0 22472200000.0 9035760000.0 21305000000.0 9035750000.0 21162700000.0 9035750000.0 24443100000.0 9035750000.0 21162700000.0 9035750000.0 21305000000.0 9035760000.0 22472200000.0 9035750000.0 22291900000.0 9035760000.0 21098700000.0 9035760000.0 20905500000.0 9035760000.0 17701500000.0 9035760000.0 17461100000.0 9035760000.0 13306400000.0 13374400000.0 17581600000.0 20583600000.0 24770800000.0 29273800000.0 31094900000.0 29734200000.0 28304400000.0 29735300000.0 25656700000.0 20760400000.0 19954900000.0 20927300000.0 18940600000.0 16670700000.0 15461600000.0 12861400000.0 12858100000.0 15247900000.0 14414400000.0 12404300000.0 12397300000.0 14643800000.0 15603100000.0 17565700000.0 19265900000.0 18413400000.0 19145300000.0 23483300000.0 26665900000.0 25478900000.0 26837900000.0 28120000000.0 26527000000.0 22619200000.0 18946800000.0 16374100000.0 12707100000.0 12750800000.0 9035760000.0 16331000000.0 9035760000.0 16540400000.0 9035760000.0 19295000000.0 9035760000.0 19453900000.0 9035760000.0 20438200000.0 9035750000.0 20540500000.0 9035750000.0 19417500000.0 9035750000.0 19178800000.0 9035750000.0 21702100000.0 9035750000.0 19178800000.0 9035750000.0 19417500000.0 9035750000.0 20540500000.0 9035750000.0 20438200000.0 9035760000.0 19453900000.0 9035760000.0 19295000000.0 9035760000.0 16540400000.0 9035760000.0 16331000000.0 9035760000.0 12750800000.0 12707100000.0 16374100000.0 18946800000.0 22619200000.0 26527000000.0 28120000000.0 26837900000.0 25478900000.0 26665900000.0 23483300000.0 19145300000.0 18413400000.0 19265900000.0 17565700000.0 15603100000.0 14643800000.0 12397300000.0 12404300000.0 14414400000.0 13578700000.0 11924800000.0 11911200000.0 13808700000.0 14557300000.0 16212300000.0 17635000000.0 16903300000.0 17544400000.0 21279300000.0 23731100000.0 22760700000.0 23994500000.0 25148700000.0 23790200000.0 20483200000.0 17348100000.0 15194300000.0 12078900000.0 12189200000.0 9035760000.0 15199800000.0 9035760000.0 15378600000.0 9035760000.0 17690600000.0 9035750000.0 17818600000.0 9035750000.0 18614900000.0 9035750000.0 18660200000.0 9035750000.0 17629600000.0 9035750000.0 17349000000.0 9035750000.0 19262300000.0 9035750000.0 17349000000.0 9035750000.0 17629600000.0 9035750000.0 18660200000.0 9035750000.0 18614900000.0 9035750000.0 17818600000.0 9035750000.0 17690600000.0 9035760000.0 15378600000.0 9035760000.0 15199800000.0 9035760000.0 12189200000.0 12078900000.0 15194300000.0 17348100000.0 20483200000.0 23790200000.0 25148700000.0 23994500000.0 22760700000.0 23731100000.0 21279300000.0 17544400000.0 16903300000.0 17635000000.0 16212300000.0 14557300000.0 13808700000.0 11911200000.0 11924800000.0 13578700000.0 12742900000.0 11423700000.0 11407100000.0 12957400000.0 13527500000.0 14875900000.0 16028500000.0 15421400000.0 15958900000.0 19054500000.0 20903900000.0 20130800000.0 21195200000.0 22183000000.0 21064900000.0 18362000000.0 15781700000.0 14037000000.0 11481800000.0 11621300000.0 9035760000.0 14068500000.0 9035760000.0 14216400000.0 9035760000.0 16092700000.0 9035750000.0 16192700000.0 9035750000.0 16819000000.0 9035750000.0 16826800000.0 9035750000.0 15929500000.0 9035750000.0 15649500000.0 9035750000.0 17068900000.0 9035750000.0 15649500000.0 9035750000.0 15929500000.0 9035750000.0 16826800000.0 9035750000.0 16819000000.0 9035750000.0 16192700000.0 9035750000.0 16092700000.0 9035760000.0 14216400000.0 9035760000.0 14068500000.0 9035760000.0 11621300000.0 11481800000.0 14037000000.0 15781700000.0 18362000000.0 21064900000.0 22183000000.0 21195200000.0 20130800000.0 20903900000.0 19054500000.0 15958900000.0 15421400000.0 16028500000.0 14875900000.0 13527500000.0 12957400000.0 11407100000.0 11423700000.0 12742900000.0 11908100000.0 10905100000.0 10888700000.0 12092200000.0 12509200000.0 13552700000.0 14440900000.0 13963100000.0 14387900000.0 16815900000.0 18160000000.0 17571100000.0 18431000000.0 19223600000.0 18350900000.0 16253900000.0 14241200000.0 12897100000.0 10908900000.0 11047600000.0 9035760000.0 12937600000.0 9035760000.0 13053700000.0 9035750000.0 14500900000.0 9035750000.0 14575700000.0 9035750000.0 15046500000.0 9035750000.0 15033800000.0 9035750000.0 14303600000.0 9035750000.0 14056300000.0 9035750000.0 15071500000.0 9035750000.0 14056300000.0 9035750000.0 14303600000.0 9035750000.0 15033800000.0 9035750000.0 15046500000.0 9035750000.0 14575700000.0 9035750000.0 14500900000.0 9035750000.0 13053700000.0 9035760000.0 12937600000.0 9035760000.0 11047600000.0 10908900000.0 12897100000.0 14241200000.0 16253900000.0 18350900000.0 19223600000.0 18431000000.0 17571100000.0 18160000000.0 16815900000.0 14387900000.0 13963100000.0 14440900000.0 13552700000.0 12509200000.0 12092200000.0 10888700000.0 10905100000.0 11908100000.0 11074900000.0 10373200000.0 10359600000.0 11215500000.0 11498800000.0 12238800000.0 12867000000.0 12523400000.0 12829200000.0 14568500000.0 15477600000.0 15064300000.0 15693200000.0 16269800000.0 15646700000.0 14156400000.0 12720500000.0 11770300000.0 10354300000.0 10468900000.0 9035760000.0 11807400000.0 9035750000.0 11890700000.0 9035750000.0 12914600000.0 9035750000.0 12966200000.0 9035750000.0 13292800000.0 9035750000.0 13273600000.0 9035750000.0 12736500000.0 9035750000.0 12545500000.0 9035750000.0 13222700000.0 9035750000.0 12545500000.0 9035750000.0 12736500000.0 9035750000.0 13273600000.0 9035750000.0 13292800000.0 9035750000.0 12966200000.0 9035750000.0 12914600000.0 9035750000.0 11890700000.0 9035750000.0 11807400000.0 9035760000.0 10468900000.0 10354300000.0 11770300000.0 12720500000.0 14156400000.0 15646700000.0 16269800000.0 15693200000.0 15064300000.0 15477600000.0 14568500000.0 12829200000.0 12523400000.0 12867000000.0 12238800000.0 11498800000.0 11215500000.0 10359600000.0 10373200000.0 11074900000.0 10243200000.0 9831720000.0 9822890000.0 10330400000.0 10493300000.0 10931200000.0 11302400000.0 11097100000.0 11279700000.0 12315700000.0 12837100000.0 12594000000.0 12973600000.0 13320300000.0 12949900000.0 12066700000.0 11213700000.0 10652600000.0 9812250000.0 9886400000.0 9035750000.0 10677600000.0 9035750000.0 10727400000.0 9035750000.0 11332300000.0 9035750000.0 11362300000.0 9035750000.0 11552700000.0 9035750000.0 11537400000.0 9035750000.0 11212100000.0 9035750000.0 11093100000.0 9035750000.0 11477700000.0 9035750000.0 11093100000.0 9035750000.0 11212100000.0 9035750000.0 11537400000.0 9035750000.0 11552700000.0 9035750000.0 11362300000.0 9035750000.0 11332300000.0 9035750000.0 10727400000.0 9035750000.0 10677600000.0 9035750000.0 9886400000.0 9812250000.0 10652600000.0 11213700000.0 12066700000.0 12949900000.0 13320300000.0 12973600000.0 12594000000.0 12837100000.0 12315700000.0 11279700000.0 11097100000.0 11302400000.0 10931200000.0 10493300000.0 10330400000.0 9822890000.0 9831720000.0 10243200000.0 9412560000.0 9284640000.0 9281790000.0 9440250000.0 9490500000.0 9627140000.0 9742850000.0 9678580000.0 9735760000.0 10059800000.0 10220500000.0 10144800000.0 10264200000.0 10373000000.0 10257200000.0 9981520000.0 9714970000.0 9540030000.0 9277560000.0 9301450000.0 9035750000.0 9548220000.0 9035750000.0 9563790000.0 9035750000.0 9752420000.0 9035750000.0 9761720000.0 9035750000.0 9820790000.0 9035750000.0 9815540000.0 9035750000.0 9713140000.0 9035750000.0 9675280000.0 9035750000.0 9793290000.0 9035750000.0 9675280000.0 9035750000.0 9713140000.0 9035750000.0 9815540000.0 9035750000.0 9820790000.0 9035750000.0 9761720000.0 9035750000.0 9752420000.0 9035750000.0 9563790000.0 9035750000.0 9548220000.0 9035750000.0 9301450000.0 9277560000.0 9540030000.0 9714970000.0 9981520000.0 10257200000.0 10373000000.0 10264200000.0 10144800000.0 10220500000.0 10059800000.0 9735760000.0 9678580000.0 9742850000.0 9627140000.0 9490500000.0 9440250000.0 9281790000.0 9284640000.0 9412560000.0 