# vtk DataFile Version 2.0
Time step 74
ASCII
DATASET UNSTRUCTURED_GRID
POINTS 4650 float
208782.0 332925.0 0
290646.0 333922.0 0
205428.0 335085.0 0
211785.0 335538.0 0
215129.0 333381.0 0
218660.0 335213.0 0
222640.0 335287.0 0
235934.0 335347.0 0
242975.0 335137.0 0
248149.0 333511.0 0
252138.0 333522.0 0
257082.0 335420.0 0
263609.0 335250.0 0
276610.0 335849.0 0
283932.0 334262.0 0
294274.0 335580.0 0
201999.0 337107.0 0
208459.0 337667.0 0
215292.0 337365.0 0
225950.0 337492.0 0
232455.0 337548.0 0
239479.0 337198.0 0
246457.0 337107.0 0
253521.0 337241.0 0
260440.0 337623.0 0
266906.0 337450.0 0
273254.0 337910.0 0
280531.0 336328.0 0
283985.0 338271.0 0
287393.0 336228.0 0
290840.0 338185.0 0
298000.0 337094.0 0
205079.0 339644.0 0
211942.0 339530.0 0
218806.0 339162.0 0
222702.0 339804.0 0
229161.0 339821.0 0
236083.0 339335.0 0
239626.0 341183.0 0
243020.0 339121.0 0
249963.0 339085.0 0
256888.0 339379.0 0
263777.0 339887.0 0
269932.0 339953.0 0
276662.0 339937.0 0
280578.0 340307.0 0
287426.0 340228.0 0
294550.0 339524.0 0
201992.0 342042.0 0
205372.0 343971.0 0
208590.0 341672.0 0
212128.0 343498.0 0
215455.0 341325.0 0
218990.0 343062.0 0
225883.0 342149.0 0
229471.0 343793.0 0
232750.0 341529.0 0
236301.0 343316.0 0
243116.0 343099.0 0
246504.0 341071.0 0
249922.0 343070.0 0
253361.0 341183.0 0
256708.0 343302.0 0
260224.0 341569.0 0
266902.0 342326.0 0
273267.0 341971.0 0
284014.0 342258.0 0
290848.0 342195.0 0
294568.0 343446.0 0
298003.0 341419.0 0
201996.0 346020.0 0
208852.0 345709.0 0
215687.0 345260.0 0
222650.0 344467.0 0
226233.0 346121.0 0
233038.0 345504.0 0
239799.0 345172.0 0
246554.0 345053.0 0
253297.0 345134.0 0
259969.0 345481.0 0
263433.0 343934.0 0
265767.0 347119.0 0
269349.0 345368.0 0
273229.0 345894.0 0
276687.0 343921.0 0
280595.0 344268.0 0
284011.0 346234.0 0
287431.0 344225.0 0
290828.0 346203.0 0
298005.0 345353.0 0
205457.0 347944.0 0
212388.0 347452.0 0
219288.0 346938.0 0
222974.0 348413.0 0
229835.0 347745.0 0
236547.0 347305.0 0
243248.0 347095.0 0
249959.0 347043.0 0
256632.0 347241.0 0
261447.0 349031.0 0
269075.0 349288.0 0
276609.0 347861.0 0
280572.0 348212.0 0
287411.0 348218.0 0
294566.0 347329.0 0
201998.0 349962.0 0
209033.0 349632.0 0
212577.0 351355.0 0
215981.0 349165.0 0
219613.0 350787.0 0
226731.0 350058.0 0
233349.0 349489.0 0
236811.0 351343.0 0
240004.0 349194.0 0
243448.0 351106.0 0
246676.0 349034.0 0
250112.0 350991.0 0
253348.0 349078.0 0
257870.0 350916.0 0
264823.0 350965.0 0
272974.0 349801.0 0
278237.0 351356.0 0
283980.0 350196.0 0
290777.0 350236.0 0
294559.0 351155.0 0
298005.0 349225.0 0
201996.0 353894.0 0
205442.0 351896.0 0
209019.0 353549.0 0
216132.0 353037.0 0
223600.0 352276.0 0
230280.0 351832.0 0
233753.0 353671.0 0
240266.0 353236.0 0
246918.0 352991.0 0
250852.0 354825.0 0
254330.0 352846.0 0
257744.0 354823.0 0
261241.0 352922.0 0
268076.0 353054.0 0
274788.0 353202.0 0
281595.0 353305.0 0
287346.0 352207.0 0
290667.0 354289.0 0
298005.0 353041.0 0
205404.0 355825.0 0
212543.0 355252.0 0
217507.0 356585.0 0
220552.0 354499.0 0
224050.0 356203.0 0
227138.0 354011.0 0
230607.0 355818.0 0
237192.0 355504.0 0
243759.0 355083.0 0
247443.0 356870.0 0
254289.0 356762.0 0
261101.0 356828.0 0
264578.0 354910.0 0
271345.0 355048.0 0
278117.0 355228.0 0
284930.0 355323.0 0
288222.0 357417.0 0
294525.0 354915.0 0
201993.0 357838.0 0
208914.0 357467.0 0
214454.0 358556.0 0
220963.0 358364.0 0
227496.0 357977.0 0
234048.0 357650.0 0
240646.0 357287.0 0
244157.0 359010.0 0
250898.0 358759.0 0
257659.0 358746.0 0
264402.0 358839.0 0
267868.0 356955.0 0
271141.0 358960.0 0
274626.0 357093.0 0
277912.0 359090.0 0
281432.0 357215.0 0
284703.0 359259.0 0
294701.0 358598.0 0
298012.0 356795.0 0
201991.0 361791.0 0
205373.0 359757.0 0
211357.0 360416.0 0
217855.0 360430.0 0
224389.0 360128.0 0
230920.0 359789.0 0
234342.0 361605.0 0
237491.0 359460.0 0
240944.0 361218.0 0
244347.0 362976.0 0
247589.0 360828.0 0
250956.0 362723.0 0
254276.0 360706.0 0
260970.0 360756.0 0
267670.0 360855.0 0
274403.0 360958.0 0
281169.0 361089.0 0
287824.0 361487.0 0
291238.0 359862.0 0
298014.0 360587.0 0
208245.0 362257.0 0
211552.0 364280.0 0
214712.0 362395.0 0
218105.0 364264.0 0
221263.0 362236.0 0
224658.0 364030.0 0
227796.0 361921.0 0
231200.0 363731.0 0
237765.0 363398.0 0
247697.0 364803.0 0
254264.0 364676.0 0
257589.0 362697.0 0
260848.0 364706.0 0
264234.0 362764.0 0
270917.0 362840.0 0
277646.0 362937.0 0
284346.0 363176.0 0
291035.0 363728.0 0
294587.0 362296.0 0
205075.0 364073.0 0
208366.0 366126.0 0
214922.0 366209.0 0
221494.0 366091.0 0
228046.0 365833.0 0
234605.0 365540.0 0
241154.0 365178.0 0
244492.0 366950.0 0
250992.0 366705.0 0
257519.0 366673.0 0
264073.0 366698.0 0
267469.0 364753.0 0
270688.0 366708.0 0
274146.0 364804.0 0
280847.0 364945.0 0
287522.0 365350.0 0
294315.0 365929.0 0
298003.0 364326.0 0
201976.0 366032.0 0
205200.0 368001.0 0
211718.0 368089.0 0
218304.0 368078.0 0
224872.0 367902.0 0
228247.0 369709.0 0
231434.0 367642.0 0
234815.0 369457.0 0
237997.0 367348.0 0
241364.0 369169.0 0
247767.0 368790.0 0
254237.0 368664.0 0
260733.0 368677.0 0
267284.0 368653.0 0
273887.0 368640.0 0
277349.0 366765.0 0
280523.0 368752.0 0
284023.0 367018.0 0
287179.0 369162.0 0
290713.0 367510.0 0
293935.0 369563.0 0
297613.0 367963.0 0
201981.0 369911.0 0
205291.0 371810.0 0
208518.0 369949.0 0
211881.0 371863.0 0
215092.0 369993.0 0
218450.0 371868.0 0
221674.0 369923.0 0
225036.0 371741.0 0
231622.0 371525.0 0
238171.0 371288.0 0
244679.0 371064.0 0
247940.0 373005.0 0
250999.0 370700.0 0
254189.0 372696.0 0
257440.0 370668.0 0
260633.0 372660.0 0
263936.0 370638.0 0
270489.0 370572.0 0
277055.0 370570.0 0
283662.0 370798.0 0
290326.0 371264.0 0
294765.0 372959.0 0
298023.0 371455.0 0
200528.0 376979.0 0
201993.0 373693.0 0
208687.0 373703.0 0
215208.0 373758.0 0
221796.0 373728.0 0
228405.0 373548.0 0
234982.0 373363.0 0
238293.0 375239.0 0
241475.0 373153.0 0
244728.0 375059.0 0
251128.0 375000.0 0
257375.0 374720.0 0
263867.0 374567.0 0
267153.0 372549.0 0
270370.0 374436.0 0
273673.0 372475.0 0
280175.0 372524.0 0
283201.0 374535.0 0
286735.0 372944.0 0
291795.0 374517.0 0
297715.0 375047.0 0
300007.0 377324.0 0
194521.0 380722.0 0
197535.0 378843.0 0
200695.0 380410.0 0
205528.0 375491.0 0
208847.0 377474.0 0
211977.0 375630.0 0
215173.0 377501.0 0
218515.0 375622.0 0
225148.0 375537.0 0
228545.0 377335.0 0
231779.0 375381.0 0
235108.0 377269.0 0
241549.0 377147.0 0
247921.0 377043.0 0
254277.0 376983.0 0
260626.0 376631.0 0
267121.0 376434.0 0
273564.0 376324.0 0
276815.0 374385.0 0
279880.0 376330.0 0
285817.0 376872.0 0
288889.0 375789.0 0
291502.0 378381.0 0
294511.0 376753.0 0
299591.0 380718.0 0
302842.0 379076.0 0
305849.0 380946.0 0
191461.0 382631.0 0
197655.0 382247.0 0
200753.0 383931.0 0
203617.0 378284.0 0
206563.0 380030.0 0
212030.0 379452.0 0
218283.0 379282.0 0
221192.0 381040.0 0
221832.0 377494.0 0
225269.0 379251.0 0
231906.0 379217.0 0
238367.0 379206.0 0
244746.0 379123.0 0
251082.0 379066.0 0
257489.0 378819.0 0
263916.0 378473.0 0
270375.0 378297.0 0
273611.0 380182.0 0
276713.0 378238.0 0
282755.0 378422.0 0
288462.0 379524.0 0
293742.0 380949.0 0
296780.0 379105.0 0
302756.0 382338.0 0
308870.0 382835.0 0
188368.0 384562.0 0
191412.0 385972.0 0
194551.0 384084.0 0
197638.0 385663.0 0
203721.0 382071.0 0
209490.0 381858.0 0
215118.0 381324.0 0
218078.0 383113.0 0
224084.0 382586.0 0
228670.0 381072.0 0
235173.0 381186.0 0
238368.0 383191.0 0
241564.0 381176.0 0
244721.0 383190.0 0
247905.0 381143.0 0
251113.0 383075.0 0
254308.0 380961.0 0
257609.0 382749.0 0
260767.0 380581.0 0
264104.0 382348.0 0
267222.0 380300.0 0
267472.0 384134.0 0
270528.0 382143.0 0
276815.0 382114.0 0
279777.0 380229.0 0
282861.0 382280.0 0
285597.0 380702.0 0
290435.0 382455.0 0
296549.0 383024.0 0
299675.0 383945.0 0
302779.0 385650.0 0
305828.0 384247.0 0
308829.0 386179.0 0
311878.0 384717.0 0
182187.0 388425.0 0
185269.0 386498.0 0
188283.0 387904.0 0
194449.0 387455.0 0
200701.0 387452.0 0
203723.0 385890.0 0
206620.0 383923.0 0
209525.0 385769.0 0
212475.0 383690.0 0
215545.0 385551.0 0
220984.0 384766.0 0
226963.0 384151.0 0
229758.0 385915.0 0
231943.0 383052.0 0
235129.0 385113.0 0
241528.0 385216.0 0
247893.0 385179.0 0
254427.0 384892.0 0
260986.0 384444.0 0
264442.0 386155.0 0
270810.0 385967.0 0
273813.0 384020.0 0
280074.0 384066.0 0
283756.0 385774.0 0
287057.0 384017.0 0
290176.0 386192.0 0
293403.0 384688.0 0
296315.0 386892.0 0
299552.0 386981.0 0
305748.0 387607.0 0
311834.0 388079.0 0
314892.0 386601.0 0
317920.0 388494.0 0
179112.0 390347.0 0
185206.0 389855.0 0
191283.0 389345.0 0
194258.0 390849.0 0
197479.0 389052.0 0
200526.0 390859.0 0
206568.0 387830.0 0
212524.0 387566.0 0
218746.0 387421.0 0
222078.0 389289.0 0
223827.0 386247.0 0
226547.0 387859.0 0
232538.0 387755.0 0
238295.0 387168.0 0
244664.0 387263.0 0
251187.0 387009.0 0
257842.0 386608.0 0
261447.0 388189.0 0
267834.0 387951.0 0
274138.0 387805.0 0
277126.0 385900.0 0
280595.0 387657.0 0
286993.0 387782.0 0
293214.0 388452.0 0
299321.0 390089.0 0
302580.0 388945.0 0
305586.0 390955.0 0
308738.0 389547.0 0
314858.0 389967.0 0
320965.0 390397.0 0
172943.0 394202.0 0
176034.0 392270.0 0
179080.0 393698.0 0
182146.0 391785.0 0
185187.0 393262.0 0
188221.0 391312.0 0
191221.0 392807.0 0
197212.0 392409.0 0
200217.0 393981.0 0
203614.0 389778.0 0
206448.0 391736.0 0
209492.0 389642.0 0
215649.0 389345.0 0
218868.0 391131.0 0
225398.0 391231.0 0
229244.0 389700.0 0
232104.0 391567.0 0
235418.0 389584.0 0
238357.0 391481.0 0
241421.0 389284.0 0
244634.0 391226.0 0
247917.0 389125.0 0
251271.0 390868.0 0
254595.0 388738.0 0
255716.0 392255.0 0
258557.0 390263.0 0
262015.0 391989.0 0
264893.0 389957.0 0
268258.0 391776.0 0
271175.0 389772.0 0
274499.0 391552.0 0
277512.0 389575.0 0
280810.0 391360.0 0
283882.0 389521.0 0
290109.0 389962.0 0
293151.0 392227.0 0
296181.0 390750.0 0
299197.0 393399.0 0
302387.0 392254.0 0
308637.0 392917.0 0
311765.0 391455.0 0
314813.0 393348.0 0
317901.0 391855.0 0
320966.0 393748.0 0
324031.0 392312.0 0
327116.0 394239.0 0
169835.0 396144.0 0
175997.0 395611.0 0
182142.0 395177.0 0
188226.0 394777.0 0
191269.0 396321.0 0
194220.0 394346.0 0
197272.0 395882.0 0
203470.0 393858.0 0
209509.0 393443.0 0
212565.0 391359.0 0
215706.0 393073.0 0
222095.0 392986.0 0
228555.0 393275.0 0
235049.0 393449.0 0
241417.0 393351.0 0
247922.0 393013.0 0
252871.0 394173.0 0
259140.0 394024.0 0
265386.0 393797.0 0
271570.0 393585.0 0
277776.0 393291.0 0
284025.0 393272.0 0
287053.0 391565.0 0
290138.0 393747.0 0
296160.0 394526.0 0
302331.0 395638.0 0
305483.0 394320.0 0
311702.0 394849.0 0
317878.0 395232.0 0
324051.0 395652.0 0
330221.0 396179.0 0
166706.0 398099.0 0
169762.0 399460.0 0
172891.0 397530.0 0
175968.0 398966.0 0
179070.0 397069.0 0
182161.0 398590.0 0
185211.0 396705.0 0
188287.0 398271.0 0
194358.0 397864.0 0
200575.0 397119.0 0
203714.0 397868.0 0
206529.0 395590.0 0
212615.0 395118.0 0
218871.0 394814.0 0
221989.0 396701.0 0
225221.0 394976.0 0
228202.0 397070.0 0
231586.0 395284.0 0
238070.0 395351.0 0
244579.0 395176.0 0
249993.0 396033.0 0
256225.0 396009.0 0
262509.0 395813.0 0
268714.0 395629.0 0
271989.0 397449.0 0
274822.0 395334.0 0
278026.0 397006.0 0
281009.0 395060.0 0
287146.0 395348.0 0
293168.0 395998.0 0
296188.0 398259.0 0
299229.0 396912.0 0
305445.0 397752.0 0
308574.0 396323.0 0
311654.0 398282.0 0
314771.0 396752.0 0
317853.0 398626.0 0
320963.0 397112.0 0
324073.0 399005.0 0
327158.0 397569.0 0
330286.0 399497.0 0
333346.0 398132.0 0
160378.0 402052.0 0
163554.0 400068.0 0
166609.0 401404.0 0
172837.0 400874.0 0
179068.0 400451.0 0
185264.0 400170.0 0
191391.0 399834.0 0
194563.0 401340.0 0
197583.0 399278.0 0
200819.0 400523.0 0
206766.0 399471.0 0
209631.0 397252.0 0
212737.0 398906.0 0
215729.0 396791.0 0
218837.0 398486.0 0
224951.0 398787.0 0
231089.0 399081.0 0
234590.0 397225.0 0
237644.0 399133.0 0
241160.0 397260.0 0
243941.0 399547.0 0
247046.0 397836.0 0
250235.0 399850.0 0
253261.0 397951.0 0
256588.0 399781.0 0
259576.0 397811.0 0
262931.0 399616.0 0
265863.0 397641.0 0
269225.0 399500.0 0
275183.0 399151.0 0
281173.0 398733.0 0
284162.0 397018.0 0
287172.0 399144.0 0
290173.0 397538.0 0
293157.0 399765.0 0
299238.0 400521.0 0
302329.0 399133.0 0
305422.0 401263.0 0
308536.0 399788.0 0
314733.0 400188.0 0
320963.0 400487.0 0
327206.0 400912.0 0
333436.0 401438.0 0
336493.0 400097.0 0
339664.0 402078.0 0
157177.0 404051.0 0
163433.0 403358.0 0
169682.0 402792.0 0
172775.0 404231.0 0
175936.0 402332.0 0
179066.0 403833.0 0
182192.0 402014.0 0
185328.0 403651.0 0
188378.0 401778.0 0
191520.0 403340.0 0
197759.0 402742.0 0
203901.0 401748.0 0
206985.0 403302.0 0
209876.0 401096.0 0
215849.0 400549.0 0
221869.0 400442.0 0
227622.0 400976.0 0
234074.0 400970.0 0
240607.0 401190.0 0
247095.0 401648.0 0
253544.0 401726.0 0
259947.0 401583.0 0
266295.0 401444.0 0
272633.0 401378.0 0
278231.0 400721.0 0
284149.0 400787.0 0
290096.0 401337.0 0
293074.0 403512.0 0
296164.0 401979.0 0
302311.0 402702.0 0
308502.0 403312.0 0
311614.0 401767.0 0
314696.0 403661.0 0
317832.0 402040.0 0
320970.0 403866.0 0
324103.0 402368.0 0
327267.0 404270.0 0
330362.0 402830.0 0
336609.0 403390.0 0
342858.0 404074.0 0
153946.0 406070.0 0
157004.0 407307.0 0
160233.0 405328.0 0
163303.0 406668.0 0
166503.0 404727.0 0
169591.0 406139.0 0
175894.0 405701.0 0
179055.0 407198.0 0
182227.0 405440.0 0
188463.0 405313.0 0
194684.0 404859.0 0
197856.0 406284.0 0
200923.0 404108.0 0
204046.0 405536.0 0
207207.0 407064.0 0
213056.0 402735.0 0
219000.0 402152.0 0
220430.0 405271.0 0
224165.0 402966.0 0
227177.0 404795.0 0
230604.0 402865.0 0
233571.0 404761.0 0
237013.0 402873.0 0
239881.0 404821.0 0
243783.0 403334.0 0
250431.0 403634.0 0
256923.0 403536.0 0
260310.0 405343.0 0
263315.0 403392.0 0
266691.0 405213.0 0
269686.0 403288.0 0
273112.0 405151.0 0
276099.0 403312.0 0
280007.0 405655.0 0
281036.0 402394.0 0
286969.0 402953.0 0
292908.0 407226.0 0
296068.0 405693.0 0
299195.0 404169.0 0
302256.0 406306.0 0
305387.0 404837.0 0
311576.0 405310.0 0
317812.0 405466.0 0
320989.0 407235.0 0
324147.0 405738.0 0
330450.0 406178.0 0
333538.0 404762.0 0
336732.0 406702.0 0
339803.0 405356.0 0
343024.0 407333.0 0
346083.0 406088.0 0
147382.0 410172.0 0
150681.0 408110.0 0
153746.0 409309.0 0
160081.0 408624.0 0
166386.0 408067.0 0
169483.0 409498.0 0
172697.0 407601.0 0
175827.0 409072.0 0
182256.0 408861.0 0
185392.0 407157.0 0
191600.0 406881.0 0
194764.0 408438.0 0
201049.0 407745.0 0
204247.0 409283.0 0
210151.0 404889.0 0
213436.0 406447.0 0
216393.0 404333.0 0
216922.0 407803.0 0
223725.0 406759.0 0
230195.0 406680.0 0
236495.0 406679.0 0
242686.0 406733.0 0
247193.0 405366.0 0
250823.0 407384.0 0
253871.0 405474.0 0
257297.0 407292.0 0
263687.0 407157.0 0
270072.0 407041.0 0
276619.0 407025.0 0
283218.0 407979.0 0
283682.0 404539.0 0
286669.0 406622.0 0
289926.0 405081.0 0
295893.0 409403.0 0
299084.0 407824.0 0
305333.0 408457.0 0
308466.0 406884.0 0
314658.0 407173.0 0
317796.0 408894.0 0
324215.0 409110.0 0
327344.0 407641.0 0
330554.0 409540.0 0
333650.0 408106.0 0
339948.0 408655.0 0
346274.0 409329.0 0
349339.0 408123.0 0
352630.0 410180.0 0
144060.0 412251.0 0
150454.0 411333.0 0
153568.0 412561.0 0
156838.0 410581.0 0
159944.0 411946.0 0
163169.0 409997.0 0
166266.0 411432.0 0
172589.0 410989.0 0
175705.0 412442.0 0
179013.0 410519.0 0
182246.0 412252.0 0
185445.0 410703.0 0
188523.0 408917.0 0
191654.0 410449.0 0
197967.0 409839.0 0
201243.0 411379.0 0
207472.0 410775.0 0
210453.0 408612.0 0
213794.0 410078.0 0
220319.0 408985.0 0
226831.0 408599.0 0
233191.0 408600.0 0
239414.0 408600.0 0
242423.0 410449.0 0
245545.0 408454.0 0
248538.0 409993.0 0
251683.0 411519.0 0
254311.0 409251.0 0
257734.0 411082.0 0
260693.0 409112.0 0
267046.0 408977.0 0
273463.0 408870.0 0
279906.0 409277.0 0
286366.0 410218.0 0
289675.0 408767.0 0
292679.0 410908.0 0
298888.0 411468.0 0
302152.0 409895.0 0
308428.0 410480.0 0
311540.0 408924.0 0
314620.0 410726.0 0
317806.0 412299.0 0
321033.0 410566.0 0
324335.0 412480.0 0
327450.0 411032.0 0
333767.0 411474.0 0
336861.0 410033.0 0
340078.0 411980.0 0
343184.0 410609.0 0
346445.0 412584.0 0
349558.0 411348.0 0
355944.0 412253.0 0
140733.0 414334.0 0
143812.0 415526.0 0
147135.0 413405.0 0
150270.0 414563.0 0
156709.0 413873.0 0
163055.0 413352.0 0
169366.0 412879.0 0
172455.0 414424.0 0
178890.0 413746.0 0
182101.0 415578.0 0
188560.0 412640.0 0
191751.0 413959.0 0
194873.0 412070.0 0
198135.0 413329.0 0
204508.0 413039.0 0
207719.0 414446.0 0
210762.0 412314.0 0
217103.0 411452.0 0
220302.0 412828.0 0
223507.0 410597.0 0
226640.0 412412.0 0
229907.0 410508.0 0
232970.0 412444.0 0
236189.0 410518.0 0
239264.0 412379.0 0
245566.0 412152.0 0
248801.0 413744.0 0
254925.0 413175.0 0
261092.0 412925.0 0
264049.0 410942.0 0
267369.0 412769.0 0
270384.0 410795.0 0
273665.0 412638.0 0
276752.0 410816.0 0
279962.0 413028.0 0
283104.0 411604.0 0
289418.0 412441.0 0
292450.0 414575.0 0
295639.0 413147.0 0
301978.0 413404.0 0
305237.0 412113.0 0
308362.0 414023.0 0
311518.0 412642.0 0
317948.0 415637.0 0
321153.0 413807.0 0
327585.0 414469.0 0
330670.0 412924.0 0
336969.0 413392.0 0
343307.0 413902.0 0
349736.0 414579.0 0
352869.0 413413.0 0
356185.0 415526.0 0
359262.0 414330.0 0
137426.0 416405.0 0
140512.0 417677.0 0
146957.0 416649.0 0
150161.0 417800.0 0
153444.0 415829.0 0
156637.0 417179.0 0
159859.0 415305.0 0
163009.0 416745.0 0
166160.0 414838.0 0
169243.0 416288.0 0
175530.0 415836.0 0
178708.0 416828.0 0
185425.0 414278.0 0
188401.0 416529.0 0
195088.0 415800.0 0
198463.0 416600.0 0
201557.0 414993.0 0
204695.0 416951.0 0
211099.0 416062.0 0
214045.0 413819.0 0
217212.0 415253.0 0
223429.0 414443.0 0
229755.0 414340.0 0
236081.0 414320.0 0
242465.0 414145.0 0
245766.0 415824.0 0
252054.0 415354.0 0
258203.0 414964.0 0
264413.0 414770.0 0
270640.0 414592.0 0
276885.0 414587.0 0
283064.0 415384.0 0
286177.0 413923.0 0
289113.0 416185.0 0
295433.0 417051.0 0
298576.0 415093.0 0
301667.0 416707.0 0
305018.0 415837.0 0
311631.0 416522.0 0
314634.0 414314.0 0
321352.0 416907.0 0
324516.0 415866.0 0
330779.0 416341.0 0
333864.0 414887.0 0
337010.0 416787.0 0
340159.0 415341.0 0
343374.0 417212.0 0
346564.0 415855.0 0
349840.0 417816.0 0
353041.0 416657.0 0
359474.0 417668.0 0
362558.0 416395.0 0
130938.0 420474.0 0
134158.0 418455.0 0
137261.0 419837.0 0
143662.0 418824.0 0
146873.0 419902.0 0
153402.0 419119.0 0
159824.0 418705.0 0
166159.0 418331.0 0
169330.0 419777.0 0
172253.0 417949.0 0
175065.0 419216.0 0
181563.0 418924.0 0
184978.0 417838.0 0
191814.0 417190.0 0
201435.0 418695.0 0
208098.0 417918.0 0
214222.0 417741.0 0
220349.0 416719.0 0
226563.0 416218.0 0
232880.0 416268.0 0
239319.0 416099.0 0
239553.0 419751.0 0
242669.0 417808.0 0
246009.0 419520.0 0
249068.0 417480.0 0
252352.0 419168.0 0
255312.0 417059.0 0
258581.0 418850.0 0
261493.0 416795.0 0
267704.0 416612.0 0
273847.0 416422.0 0
280005.0 416856.0 0
286020.0 417809.0 0
292059.0 418083.0 0
298640.0 418795.0 0
308245.0 417279.0 0
315036.0 417880.0 0
318449.0 418975.0 0
324919.0 419252.0 0
327762.0 418006.0 0
330687.0 419828.0 0
333860.0 418384.0 0
340191.0 418744.0 0
346604.0 419148.0 0
353119.0 419912.0 0
356327.0 418823.0 0
362712.0 419813.0 0
365817.0 418437.0 0
369028.0 420450.0 0
127754.0 422468.0 0
134080.0 421982.0 0
137259.0 423337.0 0
140416.0 421063.0 0
143627.0 422147.0 0
150146.0 421031.0 0
153446.0 422438.0 0
156653.0 420498.0 0
159884.0 422199.0 0
162984.0 420136.0 0
166108.0 421862.0 0
172515.0 421849.0 0
176127.0 422508.0 0
178172.0 419812.0 0
183627.0 421448.0 0
187095.0 420550.0 0
190494.0 420212.0 0
194266.0 419633.0 0
197754.0 419653.0 0
203857.0 421326.0 0
207464.0 421134.0 0
211193.0 420026.0 0
213652.0 422860.0 0
217398.0 419115.0 0
220662.0 420652.0 0
223442.0 418284.0 0
226392.0 420004.0 0
229670.0 418175.0 0
232891.0 420039.0 0
236130.0 418048.0 0
236440.0 421648.0 0
242917.0 421499.0 0
249321.0 421236.0 0
255628.0 420920.0 0
261864.0 420681.0 0
264779.0 418639.0 0
268059.0 420475.0 0
270975.0 418447.0 0
274283.0 420259.0 0
276972.0 418324.0 0
279583.0 420762.0 0
282924.0 419279.0 0
288908.0 420165.0 0
292571.0 421308.0 0
296167.0 421418.0 0
302259.0 419785.0 0
305735.0 419693.0 0
309491.0 420312.0 0
312895.0 420590.0 0
316365.0 421494.0 0
321815.0 419904.0 0
323876.0 422561.0 0
327484.0 421896.0 0
333912.0 421921.0 0
337033.0 420177.0 0
340138.0 422241.0 0
343360.0 420534.0 0
346559.0 422474.0 0
349852.0 421050.0 0
356353.0 422148.0 0
359557.0 421049.0 0
362690.0 423302.0 0
365876.0 421939.0 0
372213.0 422444.0 0
124550.0 424466.0 0
127794.0 426054.0 0
130955.0 424074.0 0
134190.0 425591.0 0
140489.0 424498.0 0
143772.0 425500.0 0
146892.0 423158.0 0
150210.0 424239.0 0
156737.0 423786.0 0
163083.0 423533.0 0
169207.0 422989.0 0
174187.0 425266.0 0
180021.0 422293.0 0
185572.0 424167.0 0
189091.0 423612.0 0
192720.0 423070.0 0
196343.0 422788.0 0
200159.0 422191.0 0
209906.0 423745.0 0
217436.0 422825.0 0
222122.0 423930.0 0
229473.0 421937.0 0
233451.0 423552.0 0
239817.0 423441.0 0
246244.0 423255.0 0
252614.0 422982.0 0
258912.0 422726.0 0
265166.0 422526.0 0
271347.0 422266.0 0
278168.0 424108.0 0
282678.0 422967.0 0
286424.0 423016.0 0
290126.0 423897.0 0
299847.0 422308.0 0
303666.0 422887.0 0
307269.0 423151.0 0
310904.0 423680.0 0
314416.0 424214.0 0
319964.0 422360.0 0
325800.0 425317.0 0
330799.0 423030.0 0
336951.0 423567.0 0
343274.0 423828.0 0
349788.0 424261.0 0
353096.0 423172.0 0
356203.0 425512.0 0
359470.0 424487.0 0
365727.0 425518.0 0
368986.0 424003.0 0
372117.0 425974.0 0
375421.0 424448.0 0
117888.0 428617.0 0
121208.0 426541.0 0
124261.0 427878.0 0
131129.0 427723.0 0
137475.0 426904.0 0
140798.0 427976.0 0
147112.0 426428.0 0
150532.0 427437.0 0
153500.0 425812.0 0
156617.0 426933.0 0
159927.0 425833.0 0
163372.0 426538.0 0
166762.0 425571.0 0
170681.0 425664.0 0
178075.0 425244.0 0
181937.0 424855.0 0
187521.0 427058.0 0
191171.0 426516.0 0
194831.0 426084.0 0
198597.0 425565.0 0
202363.0 424935.0 0
206039.0 424427.0 0
211897.0 426776.0 0
215506.0 426237.0 0
219206.0 426081.0 0
225776.0 423514.0 0
230499.0 425281.0 0
236742.0 425372.0 0
240007.0 427191.0 0
243136.0 425234.0 0
246435.0 427020.0 0
249547.0 425017.0 0
252841.0 426799.0 0
255904.0 424767.0 0
259211.0 426583.0 0
262220.0 424559.0 0
268500.0 424355.0 0
274738.0 423825.0 0
280931.0 426201.0 0
284518.0 426392.0 0
288081.0 426902.0 0
293984.0 424565.0 0
297636.0 425046.0 0
301399.0 425669.0 0
305159.0 426178.0 0
308817.0 426589.0 0
318046.0 424910.0 0
321913.0 425297.0 0
329301.0 425697.0 0
333219.0 425622.0 0
336611.0 426565.0 0
340079.0 425886.0 0
343392.0 426970.0 0
346510.0 425861.0 0
349483.0 427461.0 0
352883.0 426452.0 0
359153.0 427980.0 0
362453.0 426869.0 0
368743.0 427592.0 0
375886.0 427779.0 0
378908.0 426608.0 0
382249.0 428703.0 0
114619.0 430666.0 0
120923.0 429952.0 0
127146.0 429435.0 0
129931.0 431004.0 0
134570.0 429262.0 0
138060.0 430533.0 0
144145.0 428873.0 0
147478.0 429678.0 0
150830.0 430381.0 0
154109.0 429444.0 0
157945.0 429637.0 0
161393.0 429268.0 0
165249.0 429119.0 0
168787.0 428665.0 0
172546.0 428560.0 0
176231.0 428249.0 0
180069.0 428004.0 0
183860.0 427584.0 0
193233.0 429462.0 0
196978.0 428960.0 0
200738.0 428418.0 0
204466.0 427895.0 0
208210.0 427301.0 0
217542.0 429528.0 0
221160.0 429173.0 0
224038.0 427166.0 0
227433.0 426669.0 0
230283.0 428961.0 0
233602.0 427260.0 0
236803.0 429103.0 0
243283.0 428994.0 0
249727.0 428812.0 0
256143.0 428603.0 0
262554.0 428407.0 0
265571.0 426394.0 0
269003.0 428187.0 0
271926.0 426082.0 0
275482.0 427501.0 0
278704.0 429051.0 0
282317.0 429667.0 0
291767.0 427437.0 0
295512.0 428020.0 0
299239.0 428523.0 0
303000.0 429055.0 0
306748.0 429543.0 0
312467.0 427119.0 0
316123.0 427638.0 0
319915.0 428055.0 0
323754.0 428300.0 0
327441.0 428605.0 0
331195.0 428709.0 0
334737.0 429160.0 0
338584.0 429307.0 0
342032.0 429666.0 0
345868.0 429496.0 0
349145.0 430408.0 0
352505.0 429721.0 0
355828.0 428904.0 0
361881.0 430510.0 0
365328.0 429176.0 0
370114.0 430686.0 0
372976.0 429217.0 0
379211.0 429967.0 0
385510.0 430750.0 0
109691.0 433754.0 0
117617.0 432069.0 0
120546.0 433439.0 0
123879.0 431432.0 0
126811.0 433062.0 0
132836.0 432327.0 0
141551.0 431491.0 0
145047.0 432296.0 0
148627.0 432937.0 0
152468.0 432962.0 0
155954.0 432571.0 0
159673.0 432542.0 0
163328.0 432217.0 0
167062.0 432010.0 0
170720.0 431697.0 0
174480.0 431477.0 0
178236.0 431160.0 0
182039.0 430837.0 0
185808.0 430430.0 0
189529.0 429939.0 0
199067.0 431870.0 0
202820.0 431368.0 0
206567.0 430844.0 0
210277.0 430349.0 0
213950.0 429893.0 0
226734.0 430306.0 0
233455.0 430910.0 0
240063.0 430924.0 0
246564.0 430798.0 0
253025.0 430614.0 0
259470.0 430417.0 0
265956.0 430213.0 0
272544.0 429870.0 0
285942.0 430023.0 0
289633.0 430468.0 0
293366.0 430962.0 0
297130.0 431475.0 0
300892.0 431964.0 0
310453.0 430006.0 0
314174.0 430488.0 0
317943.0 430890.0 0
321748.0 431210.0 0
325507.0 431524.0 0
329268.0 431743.0 0
332929.0 432053.0 0
336664.0 432263.0 0
340320.0 432583.0 0
344035.0 432618.0 0
347529.0 433011.0 0
351362.0 432980.0 0
354942.0 432342.0 0
358422.0 431518.0 0
367192.0 432081.0 0
373195.0 432753.0 0
376198.0 431245.0 0
379433.0 433425.0 0
382457.0 432177.0 0
390314.0 433750.0 0
106459.0 435772.0 0
109721.0 437213.0 0
113106.0 433709.0 0
116394.0 435308.0 0
123410.0 434992.0 0
126383.0 436538.0 0
129927.0 434667.0 0
133348.0 435983.0 0
135964.0 433387.0 0
139292.0 434245.0 0
142795.0 435004.0 0
146448.0 435592.0 0
150271.0 435850.0 0
154046.0 435847.0 0
157699.0 435623.0 0
161446.0 435460.0 0
165157.0 435199.0 0
168903.0 434961.0 0
172641.0 434674.0 0
176423.0 434399.0 0
180209.0 434073.0 0
184007.0 433723.0 0
187790.0 433310.0 0
191546.0 432854.0 0
195305.0 432371.0 0
204891.0 434349.0 0
208642.0 433882.0 0
212378.0 433451.0 0
216098.0 433089.0 0
219795.0 432694.0 0
223481.0 431995.0 0
226510.0 434184.0 0
229958.0 432549.0 0
233362.0 434517.0 0
236747.0 432776.0 0
240042.0 434638.0 0
243339.0 432747.0 0
246631.0 434570.0 0
249855.0 432607.0 0
253161.0 434421.0 0
256339.0 432425.0 0
259680.0 434234.0 0
262835.0 432223.0 0
266240.0 433999.0 0
269436.0 431968.0 0
272942.0 433710.0 0
276026.0 431565.0 0
279805.0 432696.0 0
283666.0 433170.0 0
287461.0 433553.0 0
291243.0 433981.0 0
295025.0 434446.0 0
304662.0 432454.0 0
308426.0 432925.0 0
312185.0 433371.0 0
315971.0 433778.0 0
319773.0 434123.0 0
323563.0 434445.0 0
327350.0 434719.0 0
331094.0 435005.0 0
334844.0 435245.0 0
338559.0 435509.0 0
342307.0 435675.0 0
345965.0 435901.0 0
349744.0 435908.0 0
353571.0 435644.0 0
357234.0 435053.0 0
360736.0 434246.0 0
364073.0 433268.0 0
366797.0 435745.0 0
370111.0 434298.0 0
373502.0 436213.0 0
376473.0 434712.0 0
383793.0 435368.0 0
386972.0 433846.0 0
390338.0 437139.0 0
393557.0 435778.0 0
103169.0 437830.0 0
106413.0 439250.0 0
113219.0 437350.0 0
119719.0 436860.0 0
122976.0 438501.0 0
129343.0 438055.0 0
136915.0 437064.0 0
140563.0 437809.0 0
144284.0 438352.0 0
174561.0 437633.0 0
178367.0 437334.0 0
182175.0 437001.0 0
185985.0 436635.0 0
189783.0 436226.0 0
193570.0 435778.0 0
197351.0 435308.0 0
201124.0 434832.0 0
210715.0 436961.0 0
214510.0 436581.0 0
218372.0 436233.0 0
222285.0 435638.0 0
230045.0 436205.0 0
236689.0 436458.0 0
243351.0 436489.0 0
249936.0 436396.0 0
256486.0 436236.0 0
263049.0 436030.0 0
269646.0 435744.0 0
276964.0 435330.0 0
281385.0 436226.0 0
285299.0 436657.0 0
289144.0 437042.0 0
298812.0 434923.0 0
302598.0 435389.0 0
306388.0 435850.0 0
310182.0 436289.0 0
313986.0 436691.0 0
317801.0 437051.0 0
321614.0 437379.0 0
325428.0 437674.0 0
355782.0 438406.0 0
359543.0 437848.0 0
363237.0 436951.0 0
370377.0 437702.0 0
377071.0 438076.0 0
380478.0 436722.0 0
386918.0 437519.0 0
393600.0 439242.0 0
396831.0 437830.0 0
96539.9 441983.0 0
99852.9 439907.0 0
103106.0 441363.0 0
109724.0 440635.0 0
113264.0 441030.0 0
116496.0 438952.0 0
119767.0 440540.0 0
126188.0 440131.0 0
132369.0 439299.0 0
135489.0 440298.0 0
138771.0 440858.0 0
148086.0 438699.0 0
151906.0 438851.0 0
155699.0 438808.0 0
159448.0 438620.0 0
163220.0 438424.0 0
166986.0 438176.0 0
170772.0 437919.0 0
184144.0 439946.0 0
187966.0 439576.0 0
191780.0 439168.0 0
195582.0 438734.0 0
199375.0 438286.0 0
203161.0 437831.0 0
206938.0 437385.0 0
216456.0 439758.0 0
220116.0 439549.0 0
223617.0 439161.0 0
226849.0 437868.0 0
233332.0 438236.0 0
240028.0 438356.0 0
246662.0 438338.0 0
253256.0 438221.0 0
259830.0 438045.0 0
266433.0 437811.0 0
272997.0 437468.0 0
276228.0 439061.0 0
279754.0 439591.0 0
283411.0 439857.0 0
292955.0 437467.0 0
296756.0 437913.0 0
300558.0 438363.0 0
304363.0 438804.0 0
308175.0 439232.0 0
311996.0 439631.0 0
315824.0 439995.0 0
329225.0 437961.0 0
333018.0 438223.0 0
336791.0 438475.0 0
340570.0 438676.0 0
344327.0 438868.0 0
348129.0 438913.0 0
351962.0 438762.0 0
361148.0 440998.0 0
364323.0 440315.0 0
367351.0 439128.0 0
373703.0 439598.0 0
380305.0 440269.0 0
383647.0 438964.0 0
386831.0 441205.0 0
390281.0 440518.0 0
396850.0 441375.0 0
400113.0 439888.0 0
403390.0 441943.0 0
93233.7 444056.0 0
99819.4 443507.0 0
103148.0 444931.0 0
106411.0 442742.0 0
109773.0 444049.0 0
116544.0 442639.0 0
119884.0 444219.0 0
123067.0 442179.0 0
126467.0 443767.0 0
129484.0 441649.0 0
132901.0 442897.0 0
142297.0 441259.0 0
145990.0 441615.0 0
149772.0 441828.0 0
153592.0 441885.0 0
157411.0 441796.0 0
161215.0 441614.0 0
165028.0 441399.0 0
168845.0 441148.0 0
172668.0 440881.0 0
176491.0 440593.0 0
180318.0 440285.0 0
193768.0 442146.0 0
197579.0 441728.0 0
201380.0 441302.0 0
205169.0 440878.0 0
208947.0 440468.0 0
212712.0 440089.0 0
222375.0 442747.0 0
226440.0 441721.0 0
229971.0 440030.0 0
233402.0 441967.0 0
236700.0 440177.0 0
240017.0 442114.0 0
243349.0 440242.0 0
246677.0 442111.0 0
249984.0 440181.0 0
253319.0 442021.0 0
256591.0 440045.0 0
259938.0 441866.0 0
263180.0 439843.0 0
266517.0 441629.0 0
269821.0 439590.0 0
273243.0 441401.0 0
277441.0 442696.0 0
287159.0 440161.0 0
290942.0 440541.0 0
294737.0 440951.0 0
298542.0 441374.0 0
302355.0 441797.0 0
306176.0 442208.0 0
319657.0 440328.0 0
323491.0 440631.0 0
327323.0 440919.0 0
331157.0 441188.0 0
334988.0 441450.0 0
338812.0 441673.0 0
342625.0 441862.0 0
346457.0 441952.0 0
350288.0 441900.0 0
354072.0 441696.0 0
357734.0 441352.0 0
367068.0 442746.0 0
370378.0 441302.0 0
373508.0 443038.0 0
376942.0 441592.0 0
380167.0 443826.0 0
383515.0 442567.0 0
390096.0 443929.0 0
393509.0 442727.0 0
396715.0 444947.0 0
400089.0 443516.0 0
406665.0 443997.0 0
89936.8 446124.0 0
96550.5 445659.0 0
99919.7 447154.0 0
106530.0 446270.0 0
113288.0 444764.0 0
116595.0 446320.0 0
123330.0 445832.0 0
126958.0 447346.0 0
130019.0 445234.0 0
133755.0 446363.0 0
136490.0 443860.0 0
140179.0 444286.0 0
143876.0 444624.0 0
147637.0 444857.0 0
151457.0 444955.0 0
155312.0 444927.0 0
159167.0 444800.0 0
163019.0 444604.0 0
166881.0 444371.0 0
170737.0 444120.0 0
174588.0 443854.0 0
178433.0 443566.0 0
182276.0 443255.0 0
186115.0 442915.0 0
189947.0 442544.0 0
199563.0 444762.0 0
203367.0 444362.0 0
207159.0 443970.0 0
210940.0 443601.0 0
214715.0 443271.0 0
218500.0 443015.0 0
230203.0 443746.0 0
236683.0 443967.0 0
243345.0 444015.0 0
250015.0 443971.0 0
256665.0 443859.0 0
263288.0 443687.0 0
269803.0 443393.0 0
281346.0 443092.0 0
285164.0 443353.0 0
288952.0 443673.0 0
292744.0 444041.0 0
296548.0 444431.0 0
300363.0 444828.0 0
310007.0 442600.0 0
313846.0 442963.0 0
317691.0 443297.0 0
321540.0 443603.0 0
325393.0 443887.0 0
329255.0 444151.0 0
333128.0 444407.0 0
337015.0 444664.0 0
340877.0 444873.0 0
344749.0 445000.0 0
348625.0 445028.0 0
352467.0 444943.0 0
356241.0 444746.0 0
359921.0 444470.0 0
363533.0 443918.0 0
366390.0 446223.0 0
370030.0 445013.0 0
373376.0 446287.0 0
376800.0 445055.0 0
383265.0 446209.0 0
386654.0 444920.0 0
393263.0 446243.0 0
399920.0 447176.0 0
403324.0 445650.0 0
409937.0 446050.0 0
86648.5 448186.0 0
90056.1 449943.0 0
93299.0 447806.0 0
96710.1 449383.0 0
103335.0 448547.0 0
106806.0 449840.0 0
109963.0 447502.0 0
113419.0 448542.0 0
119917.0 447832.0 0
123108.0 449358.0 0
130964.0 448726.0 0
137937.0 447217.0 0
141705.0 447673.0 0
145476.0 447943.0 0
149302.0 448060.0 0
153189.0 448051.0 0
157083.0 447970.0 0
160975.0 447805.0 0
164884.0 447577.0 0
168779.0 447349.0 0
172658.0 447107.0 0
176525.0 446846.0 0
180384.0 446561.0 0
184237.0 446250.0 0
188084.0 445911.0 0
191921.0 445547.0 0
195748.0 445161.0 0
205343.0 447465.0 0
209134.0 447109.0 0
212907.0 446783.0 0
216653.0 446506.0 0
220350.0 446286.0 0
223898.0 446184.0 0
227144.0 445404.0 0
233365.0 445830.0 0
239997.0 445901.0 0
246689.0 445897.0 0
253363.0 445825.0 0
260021.0 445696.0 0
266637.0 445516.0 0
272903.0 445163.0 0
276100.0 446200.0 0
279601.0 446400.0 0
283259.0 446592.0 0
286998.0 446864.0 0
290773.0 447183.0 0
294570.0 447535.0 0
304189.0 445222.0 0
308024.0 445602.0 0
311870.0 445960.0 0
315722.0 446292.0 0
319581.0 446597.0 0
323446.0 446877.0 0
327320.0 447132.0 0
331210.0 447371.0 0
335125.0 447605.0 0
339076.0 447892.0 0
342986.0 448052.0 0
346906.0 448127.0 0
350822.0 448136.0 0
354690.0 448045.0 0
358518.0 447840.0 0
362356.0 447433.0 0
369199.0 448733.0 0
376419.0 448523.0 0
379867.0 447416.0 0
386256.0 448648.0 0
389741.0 447414.0 0
392908.0 449776.0 0
396449.0 448547.0 0
403116.0 449400.0 0
406552.0 447783.0 0
409773.0 449909.0 0
413205.0 448098.0 0
77757.2 453747.0 0
83357.3 450248.0 0
86809.3 452065.0 0
93516.2 451604.0 0
100167.0 450850.0 0
103663.0 452202.0 0
110326.0 451040.0 0
116807.0 450048.0 0
120122.0 451608.0 0
126193.0 450732.0 0
135308.0 449580.0 0
139451.0 450657.0 0
143266.0 451066.0 0
147114.0 451217.0 0
151056.0 451184.0 0
166807.0 450562.0 0
170711.0 450350.0 0
174597.0 450119.0 0
178472.0 449864.0 0
182339.0 449582.0 0
186198.0 449273.0 0
190049.0 448940.0 0
193891.0 448585.0 0
197720.0 448214.0 0
201538.0 447837.0 0
211121.0 450287.0 0
214913.0 450003.0 0
218704.0 449766.0 0
222516.0 449592.0 0
226431.0 449232.0 0
230025.0 447698.0 0
233233.0 449686.0 0
236637.0 447787.0 0
239995.0 449698.0 0
243346.0 447804.0 0
246703.0 449698.0 0
250040.0 447771.0 0
253396.0 449642.0 0
256716.0 447678.0 0
260074.0 449527.0 0
263386.0 447539.0 0
266774.0 449398.0 0
269974.0 447384.0 0
273502.0 449090.0 0
277389.0 449660.0 0
281201.0 449879.0 0
284991.0 450095.0 0
298383.0 447903.0 0
302210.0 448275.0 0
306049.0 448640.0 0
309898.0 448989.0 0
313755.0 449316.0 0
317619.0 449619.0 0
321490.0 449894.0 0
325368.0 450143.0 0
329257.0 450368.0 0
333161.0 450575.0 0
349077.0 451263.0 0
353040.0 451294.0 0
356933.0 451185.0 0
360813.0 450891.0 0
365407.0 449553.0 0
372804.0 449375.0 0
379246.0 451009.0 0
382793.0 449901.0 0
389322.0 450961.0 0
396090.0 452174.0 0
399626.0 450870.0 0
406292.0 451618.0 0
413009.0 452011.0 0
416478.0 450148.0 0
422530.0 453930.0 0
74417.0 455838.0 0
81566.2 453644.0 0
90324.4 453807.0 0
97023.0 453156.0 0
100563.0 454594.0 0
107196.0 453446.0 0
110737.0 454656.0 0
113792.0 452304.0 0
117217.0 453859.0 0
123396.0 453123.0 0
129366.0 451746.0 0
132895.0 452165.0 0
136675.0 453007.0 0
154985.0 451136.0 0
158912.0 451012.0 0
162877.0 450768.0 0
180422.0 452910.0 0
184294.0 452631.0 0
188157.0 452327.0 0
192013.0 452001.0 0
195857.0 451658.0 0
199690.0 451305.0 0
203512.0 450951.0 0
207321.0 450608.0 0
220797.0 453001.0 0
224719.0 452719.0 0
229648.0 451538.0 0
236634.0 451582.0 0
243357.0 451611.0 0
250064.0 451588.0 0
256754.0 451510.0 0
263435.0 451373.0 0
270265.0 451250.0 0
275077.0 452699.0 0
279051.0 453101.0 0
288785.0 450370.0 0
292590.0 450683.0 0
296406.0 451020.0 0
300235.0 451367.0 0
304077.0 451714.0 0
307929.0 452051.0 0
311790.0 452371.0 0
315659.0 452670.0 0
319534.0 452943.0 0
337090.0 450785.0 0
341192.0 451124.0 0
345128.0 451223.0 0
364065.0 452786.0 0
367962.0 452309.0 0
371685.0 452371.0 0
375555.0 451899.0 0
382054.0 453560.0 0
385703.0 452412.0 0
388885.0 454439.0 0
392512.0 453326.0 0
399200.0 454623.0 0
402766.0 453200.0 0
409480.0 453807.0 0
418746.0 453265.0 0
425872.0 456020.0 0
71050.6 457946.0 0
77873.7 457654.0 0
84968.0 455430.0 0
88388.3 457112.0 0
93892.0 455449.0 0
97496.9 456983.0 0
104127.0 455905.0 0
107695.0 457106.0 0
114271.0 456045.0 0
120586.0 455459.0 0
126795.0 454372.0 0
130430.0 455153.0 0
134095.0 455728.0 0
137913.0 456474.0 0
140971.0 454164.0 0
144868.0 454436.0 0
148952.0 454326.0 0
152890.0 454310.0 0
156822.0 454230.0 0
160907.0 453945.0 0
164847.0 453765.0 0
168760.0 453586.0 0
172658.0 453387.0 0
176544.0 453162.0 0
190116.0 455412.0 0
193975.0 455095.0 0
197824.0 454765.0 0
201662.0 454431.0 0
205490.0 454100.0 0
209310.0 453784.0 0
213126.0 453492.0 0
216949.0 453231.0 0
230079.0 455375.0 0
233281.0 453455.0 0
240004.0 453514.0 0
246725.0 453519.0 0
253423.0 453476.0 0
260115.0 453373.0 0
266801.0 453198.0 0
282936.0 453333.0 0
286771.0 453583.0 0
290595.0 453865.0 0
294423.0 454173.0 0
298258.0 454496.0 0
302105.0 454823.0 0
305961.0 455146.0 0
323414.0 453189.0 0
327299.0 453407.0 0
331192.0 453600.0 0
335095.0 453775.0 0
339019.0 453933.0 0
343341.0 454357.0 0
347267.0 454403.0 0
351215.0 454420.0 0
355282.0 454519.0 0
359196.0 454332.0 0
362641.0 456060.0 0
366541.0 455707.0 0
370362.0 455482.0 0
374312.0 455117.0 0
378265.0 454497.0 0
384840.0 456200.0 0
391979.0 456884.0 0
395607.0 455841.0 0
402252.0 457059.0 0
405893.0 455499.0 0
411885.0 456812.0 0
415322.0 455092.0 0
422400.0 457853.0 0
429241.0 458129.0 0
74536.9 459792.0 0
81732.8 457609.0 0
91841.2 458680.0 0
95334.0 460136.0 0
101127.0 458398.0 0
104760.0 459670.0 0
111268.0 458281.0 0
117750.0 457725.0 0
124020.0 456862.0 0
127660.0 457874.0 0
131366.0 458610.0 0
135049.0 459260.0 0
138643.0 460055.0 0
142275.0 457776.0 0
146949.0 457458.0 0
150840.0 457511.0 0
154732.0 457474.0 0
158972.0 457100.0 0
162905.0 456966.0 0
166815.0 456820.0 0
170714.0 456654.0 0
174605.0 456460.0 0
178492.0 456237.0 0
182373.0 455987.0 0
186248.0 455711.0 0
199795.0 457904.0 0
203640.0 457588.0 0
207476.0 457279.0 0
211307.0 456985.0 0
215136.0 456713.0 0
218966.0 456465.0 0
222790.0 456222.0 0
226518.0 456023.0 0
233304.0 457361.0 0
236648.0 455412.0 0
240053.0 457350.0 0
243383.0 455438.0 0
246748.0 457363.0 0
250090.0 455427.0 0
253457.0 457334.0 0
256781.0 455358.0 0
260129.0 457230.0 0
263485.0 455227.0 0
266858.0 457105.0 0
270046.0 455062.0 0
273475.0 456155.0 0
277152.0 456373.0 0
280941.0 456574.0 0
284764.0 456815.0 0
288594.0 457075.0 0
292431.0 457357.0 0
296275.0 457656.0 0
300128.0 457964.0 0
309826.0 455457.0 0
313700.0 455750.0 0
317579.0 456021.0 0
321462.0 456266.0 0
325349.0 456484.0 0
329237.0 456673.0 0
333130.0 456835.0 0
337030.0 456966.0 0
340950.0 457049.0 0
345463.0 457606.0 0
349350.0 457615.0 0
353261.0 457592.0 0
357649.0 457803.0 0
361448.0 459451.0 0
365218.0 459101.0 0
369054.0 458760.0 0
372965.0 458357.0 0
376948.0 457838.0 0
381014.0 457121.0 0
388282.0 457780.0 0
394873.0 459542.0 0
398575.0 458445.0 0
404877.0 459892.0 0
408410.0 458413.0 0
418561.0 457250.0 0
425747.0 459978.0 0
78049.0 461603.0 0
81979.3 461593.0 0
85214.8 459379.0 0
88737.2 461046.0 0
98857.5 461477.0 0
102414.0 462656.0 0
108360.0 460811.0 0
111884.0 461868.0 0
114878.0 459791.0 0
121163.0 459350.0 0
124807.0 460507.0 0
128577.0 461385.0 0
145063.0 460554.0 0
148832.0 460749.0 0
152656.0 460771.0 0
157059.0 460244.0 0
160975.0 460166.0 0
164873.0 460061.0 0
168766.0 459926.0 0
172658.0 459760.0 0
176549.0 459565.0 0
180438.0 459341.0 0
184324.0 459091.0 0
188204.0 458818.0 0
192076.0 458526.0 0
195940.0 458219.0 0
209472.0 460482.0 0
213315.0 460207.0 0
217161.0 459950.0 0
221019.0 459711.0 0
224903.0 459513.0 0
228873.0 459115.0 0
236763.0 459246.0 0
243401.0 459300.0 0
250120.0 459285.0 0
256825.0 459238.0 0
263445.0 459079.0 0
270752.0 458930.0 0
275012.0 459661.0 0
278890.0 459855.0 0
282733.0 460070.0 0
286577.0 460309.0 0
290426.0 460568.0 0
303991.0 458272.0 0
307862.0 458572.0 0
311741.0 458859.0 0
315625.0 459128.0 0
319514.0 459373.0 0
323405.0 459592.0 0
327296.0 459782.0 0
331186.0 459943.0 0
335077.0 460068.0 0
338973.0 460147.0 0
342876.0 460163.0 0
347546.0 460902.0 0
351363.0 460871.0 0
355155.0 460784.0 0
371643.0 461697.0 0
375582.0 461185.0 0
379627.0 460569.0 0
383615.0 459921.0 0
387292.0 461008.0 0
391122.0 460418.0 0
397586.0 462340.0 0
401278.0 461217.0 0
411527.0 460770.0 0
415066.0 459066.0 0
418317.0 461264.0 0
422228.0 461806.0 0
85537.5 463347.0 0
92319.0 462595.0 0
95952.2 464044.0 0
106016.0 463683.0 0
109672.0 464558.0 0
115056.0 463554.0 0
118297.0 461824.0 0
121938.0 463171.0 0
125774.0 464100.0 0
132339.0 462143.0 0
136008.0 462936.0 0
141752.0 461657.0 0
155170.0 463382.0 0
159049.0 463368.0 0
162927.0 463309.0 0
166810.0 463207.0 0
170699.0 463068.0 0
174593.0 462897.0 0
178489.0 462697.0 0
182385.0 462471.0 0
186277.0 462222.0 0
190163.0 461953.0 0
194041.0 461668.0 0
197911.0 461373.0 0
201773.0 461072.0 0
205625.0 460773.0 0
219166.0 463210.0 0
222987.0 463000.0 0
226750.0 462853.0 0
230379.0 462671.0 0
233553.0 461134.0 0
240059.0 461253.0 0
246771.0 461223.0 0
253497.0 461211.0 0
260193.0 461146.0 0
266703.0 460867.0 0
269746.0 462651.0 0
273241.0 463030.0 0
276919.0 463165.0 0
280710.0 463358.0 0
294281.0 460845.0 0
298144.0 461133.0 0
302015.0 461426.0 0
305894.0 461715.0 0
309779.0 461995.0 0
313671.0 462260.0 0
317567.0 462505.0 0
321464.0 462726.0 0
325362.0 462921.0 0
329258.0 463086.0 0
333149.0 463216.0 0
337036.0 463302.0 0
340917.0 463329.0 0
344787.0 463287.0 0
358659.0 461598.0 0
363965.0 462613.0 0
367762.0 462152.0 0
374239.0 464599.0 0
378190.0 464035.0 0
382142.0 463501.0 0
385985.0 464180.0 0
389898.0 463887.0 0
393777.0 463215.0 0
404218.0 463813.0 0
407910.0 462346.0 0
414757.0 463050.0 0
89184.4 464978.0 0
92878.9 466501.0 0
99655.2 465362.0 0
103431.0 466463.0 0
107252.0 467402.0 0
115075.0 467041.0 0
119106.0 465965.0 0
129615.0 464935.0 0
133381.0 465786.0 0
139314.0 464479.0 0
143098.0 465118.0 0
146672.0 463973.0 0
150492.0 464101.0 0
184335.0 465624.0 0
188236.0 465377.0 0
192129.0 465113.0 0
196014.0 464837.0 0
199891.0 464552.0 0
203760.0 464265.0 0
207621.0 463982.0 0
211475.0 463709.0 0
215325.0 463450.0 0
233084.0 465471.0 0
236704.0 463186.0 0
240059.0 465171.0 0
243411.0 463176.0 0
246790.0 465085.0 0
250157.0 463158.0 0
253553.0 465108.0 0
256873.0 463131.0 0
260243.0 465060.0 0
263592.0 463033.0 0
267002.0 465262.0 0
284549.0 463568.0 0
288407.0 463803.0 0
292274.0 464059.0 0
296147.0 464329.0 0
300029.0 464606.0 0
303917.0 464884.0 0
307811.0 465156.0 0
311711.0 465416.0 0
315616.0 465660.0 0
349672.0 464243.0 0
353470.0 464136.0 0
357106.0 465003.0 0
360907.0 464589.0 0
366491.0 465672.0 0
370328.0 465131.0 0
380671.0 467048.0 0
384531.0 467343.0 0
392438.0 466807.0 0
396376.0 466103.0 0
400425.0 465089.0 0
407351.0 466254.0 0
411080.0 464710.0 0
85963.0 467299.0 0
89727.9 468916.0 0
96695.3 467917.0 0
100708.0 469176.0 0
111371.0 467836.0 0
116854.0 470074.0 0
123055.0 466876.0 0
126940.0 467708.0 0
130766.0 468564.0 0
136751.0 467346.0 0
140532.0 468049.0 0
144363.0 468619.0 0
148039.0 467492.0 0
153246.0 466481.0 0
157098.0 466573.0 0
160959.0 466565.0 0
164835.0 466497.0 0
168724.0 466384.0 0
172621.0 466235.0 0
176525.0 466056.0 0
180431.0 465852.0 0
194105.0 468298.0 0
197998.0 468030.0 0
201882.0 467756.0 0
205758.0 467482.0 0
209628.0 467214.0 0
213491.0 466958.0 0
217349.0 466718.0 0
221202.0 466503.0 0
225057.0 466328.0 0
228952.0 466170.0 0
236688.0 467003.0 0
243398.0 467058.0 0
250201.0 467033.0 0
256956.0 467045.0 0
263592.0 466878.0 0
270800.0 466340.0 0
274709.0 466545.0 0
278594.0 466671.0 0
282478.0 466849.0 0
286363.0 467058.0 0
290248.0 467294.0 0
294136.0 467547.0 0
298030.0 467808.0 0
301929.0 468074.0 0
305833.0 468338.0 0
319523.0 465883.0 0
323431.0 466082.0 0
327338.0 466254.0 0
331240.0 466395.0 0
335135.0 466495.0 0
339017.0 466542.0 0
342879.0 466521.0 0
346720.0 466397.0 0
351932.0 467562.0 0
355662.0 468505.0 0
359497.0 468082.0 0
363307.0 467544.0 0
369027.0 468672.0 0
372878.0 468086.0 0
376775.0 467544.0 0
383102.0 470591.0 0
388445.0 467310.0 0
399159.0 468854.0 0
403415.0 467688.0 0
410534.0 468653.0 0
414321.0 467014.0 0
93632.4 470392.0 0
97781.2 471729.0 0
104635.0 470194.0 0
120628.0 469888.0 0
124426.0 470580.0 0
128255.0 471366.0 0
134148.0 470282.0 0
137946.0 470994.0 0
151188.0 469503.0 0
155062.0 469755.0 0
158938.0 469821.0 0
162823.0 469793.0 0
166721.0 469707.0 0
170628.0 469580.0 0
174543.0 469420.0 0
178462.0 469234.0 0
182380.0 469026.0 0
186296.0 468798.0 0
190204.0 468555.0 0
207770.0 470721.0 0
211649.0 470468.0 0
215521.0 470229.0 0
219387.0 470008.0 0
223251.0 469811.0 0
227126.0 469629.0 0
231018.0 469447.0 0
234757.0 470195.0 0
239955.0 469163.0 0
246845.0 468922.0 0
253572.0 469022.0 0
260388.0 469086.0 0
264310.0 470541.0 0
268008.0 469128.0 0
272492.0 469841.0 0
276456.0 469991.0 0
280385.0 470140.0 0
284302.0 470328.0 0
288208.0 470547.0 0
292111.0 470785.0 0
309743.0 468594.0 0
313658.0 468837.0 0
317576.0 469061.0 0
321497.0 469263.0 0
325418.0 469441.0 0
329337.0 469591.0 0
333250.0 469707.0 0
337153.0 469778.0 0
341038.0 469788.0 0
344903.0 469707.0 0
348745.0 469465.0 0
361981.0 471115.0 0
365780.0 470524.0 0
371515.0 471655.0 0
375363.0 471086.0 0
379235.0 470606.0 0
394946.0 469782.0 0
402116.0 471447.0 0
406542.0 470138.0 0
91248.6 473553.0 0
101921.0 472944.0 0
108986.0 470822.0 0
113136.0 471209.0 0
118190.0 473439.0 0
122004.0 473624.0 0
125836.0 474260.0 0
131593.0 473291.0 0
141748.0 471611.0 0
145491.0 472161.0 0
149150.0 472582.0 0
152970.0 472904.0 0
156857.0 473062.0 0
160764.0 473088.0 0
164682.0 473034.0 0
168609.0 472929.0 0
172541.0 472786.0 0
176476.0 472617.0 0
180411.0 472426.0 0
184343.0 472217.0 0
188268.0 471993.0 0
192186.0 471755.0 0
196094.0 471505.0 0
199994.0 471246.0 0
203885.0 470982.0 0
217562.0 473523.0 0
221433.0 473320.0 0
225301.0 473131.0 0
229161.0 472954.0 0
243487.0 470876.0 0
246797.0 472749.0 0
250239.0 470941.0 0
253629.0 473039.0 0
256927.0 470897.0 0
270398.0 473192.0 0
274357.0 473313.0 0
278303.0 473448.0 0
282239.0 473610.0 0
296017.0 471032.0 0
299928.0 471286.0 0
303843.0 471542.0 0
307763.0 471792.0 0
311689.0 472032.0 0
315619.0 472257.0 0
319552.0 472462.0 0
323488.0 472644.0 0
327426.0 472801.0 0
331363.0 472929.0 0
335294.0 473022.0 0
339214.0 473064.0 0
343115.0 473030.0 0
346986.0 472875.0 0
350800.0 472543.0 0
354456.0 472083.0 0
358186.0 471613.0 0
368245.0 473556.0 0
373936.0 474674.0 0
377775.0 474168.0 0
381617.0 473903.0 0
386997.0 470836.0 0
390938.0 470350.0 0
397715.0 472562.0 0
408698.0 473481.0 0
95104.9 474575.0 0
99963.5 476298.0 0
106397.0 473687.0 0
110666.0 474255.0 0
114582.0 474786.0 0
119670.0 476865.0 0
123491.0 477293.0 0
129099.0 476360.0 0
135434.0 473975.0 0
139276.0 474625.0 0
143102.0 475218.0 0
146927.0 475726.0 0
166561.0 476278.0 0
170519.0 476154.0 0
174474.0 476002.0 0
178427.0 475827.0 0
182377.0 475634.0 0
186321.0 475428.0 0
190256.0 475209.0 0
194181.0 474978.0 0
198096.0 474735.0 0
202002.0 474483.0 0
205902.0 474229.0 0
209796.0 473981.0 0
213683.0 473744.0 0
232908.0 473614.0 0
236756.0 473451.0 0
240517.0 473158.0 0
250106.0 474821.0 0
258647.0 474239.0 0
262518.0 473945.0 0
266495.0 473711.0 0
286164.0 473815.0 0
290075.0 474044.0 0
293994.0 474274.0 0
297915.0 474517.0 0
301839.0 474765.0 0
305769.0 475008.0 0
309705.0 475245.0 0
313647.0 475470.0 0
317593.0 475679.0 0
321542.0 475864.0 0
325497.0 476022.0 0
329458.0 476158.0 0
333419.0 476267.0 0
353005.0 475686.0 0
356800.0 475212.0 0
360603.0 474704.0 0
364425.0 474152.0 0
370680.0 476639.0 0
376313.0 477745.0 0
380166.0 477340.0 0
385494.0 474406.0 0
389439.0 473932.0 0
393401.0 473404.0 0
399768.0 475930.0 0
404796.0 474345.0 0
92331.5 477403.0 0
96557.0 478277.0 0
103939.0 476701.0 0
108102.0 477216.0 0
112132.0 477827.0 0
116087.0 478378.0 0
121117.0 480432.0 0
132972.0 476988.0 0
136847.0 477642.0 0
140714.0 478261.0 0
150789.0 476067.0 0
154702.0 476283.0 0
158649.0 476370.0 0
162606.0 476356.0 0
188316.0 478658.0 0
192259.0 478447.0 0
196191.0 478222.0 0
200113.0 477987.0 0
204024.0 477740.0 0
207933.0 477494.0 0
211836.0 477261.0 0
215729.0 477044.0 0
219613.0 476841.0 0
223491.0 476652.0 0
227360.0 476478.0 0
231147.0 477103.0 0
235006.0 476957.0 0
238870.0 476738.0 0
242746.0 476378.0 0
246614.0 476490.0 0
253205.0 477051.0 0
256915.0 477692.0 0
260777.0 477504.0 0
264645.0 477226.0 0
268521.0 477043.0 0
272370.0 476710.0 0
276270.0 476797.0 0
280195.0 476916.0 0
284126.0 477094.0 0
288035.0 477329.0 0
291964.0 477535.0 0
295895.0 477767.0 0
299823.0 478009.0 0
303760.0 478244.0 0
307705.0 478475.0 0
311658.0 478698.0 0
337376.0 476336.0 0
341326.0 476345.0 0
345259.0 476263.0 0
349158.0 476041.0 0
359153.0 478315.0 0
362994.0 477776.0 0
366841.0 477204.0 0
378686.0 480818.0 0
383994.0 478022.0 0
387920.0 477531.0 0
391873.0 477033.0 0
395832.0 476508.0 0
403155.0 477980.0 0
407472.0 477286.0 0
101636.0 479882.0 0
105637.0 480302.0 0
109609.0 480834.0 0
126669.0 479486.0 0
130552.0 480042.0 0
134440.0 480665.0 0
138331.0 481313.0 0
144593.0 478807.0 0
148517.0 479222.0 0
152479.0 479499.0 0
156474.0 479628.0 0
160495.0 479665.0 0
164490.0 479626.0 0
168482.0 479518.0 0
172460.0 479388.0 0
176431.0 479229.0 0
180402.0 479047.0 0
184363.0 478858.0 0
202145.0 481261.0 0
206060.0 481010.0 0
209979.0 480776.0 0
213890.0 480567.0 0
217785.0 480370.0 0
221676.0 480182.0 0
225559.0 480010.0 0
229378.0 480594.0 0
233244.0 480473.0 0
237107.0 480296.0 0
240948.0 480029.0 0
244778.0 479769.0 0
249704.0 478791.0 0
254628.0 480928.0 0
262557.0 480953.0 0
266468.0 480690.0 0
270376.0 480494.0 0
274269.0 480218.0 0
278185.0 480272.0 0
282109.0 480385.0 0
286010.0 480661.0 0
289939.0 480823.0 0
293870.0 481031.0 0
297797.0 481276.0 0
315617.0 478909.0 0
319580.0 479101.0 0
323547.0 479262.0 0
327523.0 479394.0 0
331510.0 479512.0 0
335501.0 479603.0 0
339493.0 479642.0 0
343485.0 479617.0 0
347465.0 479487.0 0
351402.0 479201.0 0
355302.0 478802.0 0
361509.0 481415.0 0
365372.0 480845.0 0
369234.0 480283.0 0
373088.0 479764.0 0
390330.0 480663.0 0
394284.0 480172.0 0
398244.0 479675.0 0
95411.7 482076.0 0
99276.4 483055.0 0
113609.0 481402.0 0
117577.0 482029.0 0
124259.0 482644.0 0
128154.0 483140.0 0
132049.0 483713.0 0
135940.0 484341.0 0
142215.0 481890.0 0
146164.0 482350.0 0
150165.0 482684.0 0
154268.0 482873.0 0
158338.0 482946.0 0
162391.0 482961.0 0
166449.0 482880.0 0
170441.0 482773.0 0
174429.0 482637.0 0
178421.0 482459.0 0
182399.0 482285.0 0
186368.0 482102.0 0
190327.0 481910.0 0
194276.0 481706.0 0
198214.0 481488.0 0
215947.0 483908.0 0
219846.0 483718.0 0
223745.0 483550.0 0
247039.0 482854.0 0
250963.0 482459.0 0
258620.0 481156.0 0
276269.0 483717.0 0
280160.0 483725.0 0
284039.0 484064.0 0
301739.0 481499.0 0
305689.0 481723.0 0
309649.0 481942.0 0
313618.0 482151.0 0
317596.0 482349.0 0
321580.0 482524.0 0
325567.0 482653.0 0
329558.0 482761.0 0
333571.0 482864.0 0
337604.0 482933.0 0
341629.0 482941.0 0
345685.0 482875.0 0
349759.0 482687.0 0
353724.0 482339.0 0
357645.0 481925.0 0
363865.0 484501.0 0
367739.0 483927.0 0
371611.0 483390.0 0
375499.0 482903.0 0
382469.0 481666.0 0
386391.0 481152.0 0
400588.0 482907.0 0
404403.0 481760.0 0
103246.0 483491.0 0
107183.0 483952.0 0
111117.0 484451.0 0
115048.0 484992.0 0
120740.0 484572.0 0
125766.0 486262.0 0
129682.0 486793.0 0
133580.0 487388.0 0
139813.0 485020.0 0
143755.0 485467.0 0
147824.0 485847.0 0
151997.0 486079.0 0
156154.0 486218.0 0
160236.0 486267.0 0
164382.0 486227.0 0
168415.0 486161.0 0
172412.0 486048.0 0
176450.0 485873.0 0
180435.0 485712.0 0
184414.0 485544.0 0
188386.0 485368.0 0
192350.0 485184.0 0
196304.0 484987.0 0
200251.0 484773.0 0
204192.0 484561.0 0
208109.0 484288.0 0
212035.0 484082.0 0
227593.0 484067.0 0
231475.0 483990.0 0
235356.0 483844.0 0
239245.0 483642.0 0
243102.0 483297.0 0
253060.0 485719.0 0
256792.0 484637.0 0
260722.0 484480.0 0
264637.0 484267.0 0
268531.0 484041.0 0
272414.0 483864.0 0
287944.0 484153.0 0
291859.0 484320.0 0
295774.0 484581.0 0
299710.0 484779.0 0
303659.0 484993.0 0
307621.0 485205.0 0
311594.0 485409.0 0
315579.0 485605.0 0
319581.0 485790.0 0
323610.0 485938.0 0
327605.0 486041.0 0
331600.0 486125.0 0
335653.0 486213.0 0
339725.0 486260.0 0
343796.0 486227.0 0
347946.0 486094.0 0
352117.0 485851.0 0
356087.0 485489.0 0
360011.0 485083.0 0
366204.0 487584.0 0
370100.0 487027.0 0
374020.0 486475.0 0
379281.0 484667.0 0
384840.0 484776.0 0
388779.0 484298.0 0
392713.0 483828.0 0
396649.0 483364.0 0
99807.2 486994.0 0
103801.0 487416.0 0
107774.0 487849.0 0
111756.0 488292.0 0
115723.0 488744.0 0
119702.0 488445.0 0
137448.0 488224.0 0
141400.0 488664.0 0
145427.0 488971.0 0
182458.0 488989.0 0
186437.0 488826.0 0
190411.0 488656.0 0
194381.0 488482.0 0
198345.0 488286.0 0
202296.0 488077.0 0
206237.0 487905.0 0
210150.0 487583.0 0
214078.0 487434.0 0
217997.0 487284.0 0
221904.0 487092.0 0
225770.0 487513.0 0
229660.0 487490.0 0
233569.0 487390.0 0
237479.0 487202.0 0
241405.0 487037.0 0
245288.0 486444.0 0
249181.0 486054.0 0
258895.0 488009.0 0
262824.0 487820.0 0
266718.0 487611.0 0
270602.0 487413.0 0
274457.0 487277.0 0
278298.0 487148.0 0
282138.0 487530.0 0
285999.0 487547.0 0
289874.0 487651.0 0
293764.0 487932.0 0
297680.0 488091.0 0
301617.0 488286.0 0
305575.0 488489.0 0
309550.0 488687.0 0
313539.0 488878.0 0
317545.0 489056.0 0
354472.0 489017.0 0
358434.0 488693.0 0
362354.0 488307.0 0
380334.0 488484.0 0
384318.0 488623.0 0
388282.0 488194.0 0
392248.0 487762.0 0
396214.0 487325.0 0
400184.0 486884.0 0
101431.0 490635.0 0
105399.0 491060.0 0
123555.0 489461.0 0
127517.0 490012.0 0
131460.0 490628.0 0
149687.0 489263.0 0
153904.0 489455.0 0
158066.0 489568.0 0
162249.0 489545.0 0
166345.0 489531.0 0
170385.0 489462.0 0
174481.0 489288.0 0
178472.0 489144.0 0
208219.0 491323.0 0
212133.0 490924.0 0
216066.0 490844.0 0
223858.0 490908.0 0
227765.0 490976.0 0
231704.0 490906.0 0
235630.0 490810.0 0
239552.0 490581.0 0
247273.0 489742.0 0
251191.0 489366.0 0
255103.0 489017.0 0
268824.0 490959.0 0
276607.0 490713.0 0
284385.0 491143.0 0
292235.0 491554.0 0
321610.0 489216.0 0
325664.0 489350.0 0
329660.0 489431.0 0
333657.0 489489.0 0
337748.0 489563.0 0
341869.0 489579.0 0
346039.0 489472.0 0
350278.0 489267.0 0
368548.0 490672.0 0
372484.0 490095.0 0
376478.0 489481.0 0
394613.0 490983.0 0
398582.0 490547.0 0
109365.0 491472.0 0
113326.0 491889.0 0
117289.0 492271.0 0
121211.0 492599.0 0
125162.0 493105.0 0
129086.0 493704.0 0
135223.0 491941.0 0
139206.0 492000.0 0
143186.0 492208.0 0
147297.0 492399.0 0
151604.0 492667.0 0
155837.0 492838.0 0
160102.0 492869.0 0
164217.0 492872.0 0
168315.0 492855.0 0
172497.0 492702.0 0
176508.0 492582.0 0
180501.0 492438.0 0
184488.0 492288.0 0
188467.0 492129.0 0
192437.0 491967.0 0
196393.0 491812.0 0
200334.0 491646.0 0
204273.0 491451.0 0
219964.0 490736.0 0
243456.0 490681.0 0
249424.0 492949.0 0
253347.0 492610.0 0
257247.0 492263.0 0
261036.0 491359.0 0
264939.0 491196.0 0
272726.0 490913.0 0
280490.0 491127.0 0
288315.0 491237.0 0
296171.0 491702.0 0
300105.0 491883.0 0
304037.0 492064.0 0
307972.0 492232.0 0
311908.0 492388.0 0
315848.0 492521.0 0
319797.0 492619.0 0
323759.0 492699.0 0
327736.0 492769.0 0
331725.0 492826.0 0
335723.0 492858.0 0
339865.0 492909.0 0
344093.0 492853.0 0
348364.0 492668.0 0
352630.0 492433.0 0
356764.0 492246.0 0
360761.0 491959.0 0
364763.0 491923.0 0
370940.0 493750.0 0
374875.0 493136.0 0
378820.0 492608.0 0
382737.0 492200.0 0
386692.0 491806.0 0
390651.0 491399.0 0
99069.6 494251.0 0
103060.0 494317.0 0
107024.0 494701.0 0
110987.0 495090.0 0
114947.0 495474.0 0
118900.0 495838.0 0
122829.0 496214.0 0
127545.0 497302.0 0
132967.0 495241.0 0
137111.0 495463.0 0
141102.0 495576.0 0
145103.0 495684.0 0
149215.0 495824.0 0
153548.0 496076.0 0
157898.0 496169.0 0
162087.0 496220.0 0
166190.0 496219.0 0
170455.0 496099.0 0
174525.0 496016.0 0
178550.0 495893.0 0
182545.0 495754.0 0
186532.0 495607.0 0
190509.0 495454.0 0
194473.0 495306.0 0
198430.0 495160.0 0
202372.0 494996.0 0
206297.0 494816.0 0
210218.0 494766.0 0
214108.0 494294.0 0
217976.0 494887.0 0
221843.0 494259.0 0
225813.0 494567.0 0
229796.0 494389.0 0
233815.0 494440.0 0
237796.0 494156.0 0
241721.0 494890.0 0
245607.0 493996.0 0
251315.0 496340.0 0
255242.0 496040.0 0
259147.0 495675.0 0
262974.0 494832.0 0
266884.0 494803.0 0
270777.0 494391.0 0
274613.0 495019.0 0
278487.0 494534.0 0
282391.0 494935.0 0
286302.0 494619.0 0
290206.0 494950.0 0
294128.0 495066.0 0
298053.0 495228.0 0
301992.0 495404.0 0
305941.0 495570.0 0
309899.0 495728.0 0
313864.0 495868.0 0
317838.0 495979.0 0
321816.0 496063.0 0
325800.0 496135.0 0
329789.0 496194.0 0
333784.0 496224.0 0
337807.0 496229.0 0
342067.0 496210.0 0
346416.0 496069.0 0
350728.0 495848.0 0
354844.0 495702.0 0
358894.0 495579.0 0
362885.0 495449.0 0
367021.0 495237.0 0
372467.0 497354.0 0
377215.0 496229.0 0
381142.0 495816.0 0
385078.0 495418.0 0
389027.0 495029.0 0
392981.0 494638.0 0
396946.0 494328.0 0
400933.0 494250.0 0
100729.0 498125.0 0
104715.0 498056.0 0
108679.0 498329.0 0
112634.0 498706.0 0
116587.0 499065.0 0
135111.0 498921.0 0
143068.0 499079.0 0
147060.0 499154.0 0
151165.0 499256.0 0
195637.0 499052.0 0
199596.0 498919.0 0
203538.0 498762.0 0
207480.0 498578.0 0
211398.0 498593.0 0
215296.0 498036.0 0
219144.0 498737.0 0
222994.0 498026.0 0
226858.0 498562.0 0
230753.0 498231.0 0
234655.0 498442.0 0
238553.0 498067.0 0
246169.0 497903.0 0
261406.0 498877.0 0
265321.0 498562.0 0
269212.0 498046.0 0
273083.0 498713.0 0
276961.0 498221.0 0
280833.0 498618.0 0
284684.0 498223.0 0
288559.0 498563.0 0
292440.0 498641.0 0
296348.0 498790.0 0
300257.0 498941.0 0
304176.0 499077.0 0
348779.0 499267.0 0
352909.0 499164.0 0
356908.0 499079.0 0
364873.0 498913.0 0
383456.0 499041.0 0
387392.0 498657.0 0
391337.0 498280.0 0
395301.0 498059.0 0
399285.0 498126.0 0
120531.0 499430.0 0
124486.0 499764.0 0
131136.0 498992.0 0
139087.0 499002.0 0
155619.0 499429.0 0
159909.0 499550.0 0
163911.0 499679.0 0
167898.0 499725.0 0
171870.0 499725.0 0
175833.0 499680.0 0
179793.0 499587.0 0
183755.0 499469.0 0
187715.0 499336.0 0
191676.0 499194.0 0
242378.0 498928.0 0
249560.0 499858.0 0
253518.0 499626.0 0
257472.0 499297.0 0
308102.0 499210.0 0
312034.0 499327.0 0
315975.0 499417.0 0
319929.0 499486.0 0
323892.0 499547.0 0
327864.0 499593.0 0
331847.0 499618.0 0
335846.0 499627.0 0
339985.0 499553.0 0
344385.0 499441.0 0
360895.0 499006.0 0
368850.0 498993.0 0
375563.0 499780.0 0
379520.0 499430.0 0
100891.0 502121.0 0
104888.0 502054.0 0
108876.0 502307.0 0
112858.0 502672.0 0
116855.0 503004.0 0
121095.0 503319.0 0
125083.0 503613.0 0
129082.0 502469.0 0
133077.0 502478.0 0
137061.0 502439.0 0
141045.0 502506.0 0
145035.0 502582.0 0
149032.0 502620.0 0
153243.0 502630.0 0
157642.0 502831.0 0
161761.0 503041.0 0
165825.0 503128.0 0
169839.0 503151.0 0
173839.0 503127.0 0
177835.0 503059.0 0
181823.0 502953.0 0
185804.0 502834.0 0
189778.0 502696.0 0
193748.0 502554.0 0
197718.0 502413.0 0
201696.0 502295.0 0
205677.0 502103.0 0
209681.0 502257.0 0
213847.0 501729.0 0
217854.0 502505.0 0
221923.0 501856.0 0
226541.0 502531.0 0
230524.0 502202.0 0
234511.0 502428.0 0
238486.0 502071.0 0
242388.0 502898.0 0
246287.0 502103.0 0
251095.0 503458.0 0
255064.0 503261.0 0
259010.0 502944.0 0
262938.0 502520.0 0
266860.0 502372.0 0
270760.0 501937.0 0
274668.0 502418.0 0
278566.0 501883.0 0
282482.0 502358.0 0
286394.0 501891.0 0
290327.0 502233.0 0
294268.0 502171.0 0
298197.0 502333.0 0
302132.0 502459.0 0
306070.0 502592.0 0
310018.0 502713.0 0
313975.0 502815.0 0
317940.0 502887.0 0
321912.0 502951.0 0
325894.0 503003.0 0
329885.0 503036.0 0
333882.0 503046.0 0
338006.0 502978.0 0
342295.0 502800.0 0
346741.0 502656.0 0
350936.0 502618.0 0
354938.0 502586.0 0
358929.0 502509.0 0
362912.0 502446.0 0
366894.0 502471.0 0
370887.0 502468.0 0
374895.0 503620.0 0
378889.0 503316.0 0
383138.0 502987.0 0
387122.0 502628.0 0
391102.0 502267.0 0
395093.0 502055.0 0
399090.0 502121.0 0
102002.0 506040.0 0
106002.0 506013.0 0
110152.0 506090.0 0
114574.0 506268.0 0
118729.0 506512.0 0
134720.0 506125.0 0
138693.0 506213.0 0
142674.0 506155.0 0
146661.0 506233.0 0
150656.0 506268.0 0
154659.0 506347.0 0
158974.0 506574.0 0
175117.0 506862.0 0
179069.0 506810.0 0
183003.0 506720.0 0
186920.0 506631.0 0
190828.0 506511.0 0
194726.0 506385.0 0
198617.0 506255.0 0
202502.0 506189.0 0
206386.0 505989.0 0
210267.0 506240.0 0
214126.0 505680.0 0
221812.0 505831.0 0
229628.0 506079.0 0
233579.0 506306.0 0
237531.0 505952.0 0
245338.0 505979.0 0
261347.0 506164.0 0
265644.0 506183.0 0
269618.0 505795.0 0
273575.0 506259.0 0
277524.0 505775.0 0
281467.0 506225.0 0
285399.0 505756.0 0
289327.0 506160.0 0
293261.0 506014.0 0
297192.0 506188.0 0
301119.0 506291.0 0
305049.0 506423.0 0
308984.0 506538.0 0
312926.0 506638.0 0
316876.0 506699.0 0
320837.0 506762.0 0
324806.0 506810.0 0
341039.0 506566.0 0
345324.0 506366.0 0
349332.0 506271.0 0
353328.0 506243.0 0
357316.0 506165.0 0
361297.0 506219.0 0
365270.0 506128.0 0
381268.0 506503.0 0
385433.0 506245.0 0
389874.0 506071.0 0
393998.0 506013.0 0
397998.0 506040.0 0
122844.0 506877.0 0
126915.0 507098.0 0
130753.0 506128.0 0
163165.0 506754.0 0
167161.0 506854.0 0
171147.0 506881.0 0
217947.0 506491.0 0
225697.0 506423.0 0
241422.0 506748.0 0
249213.0 506945.0 0
253223.0 506791.0 0
257303.0 506547.0 0
328786.0 506842.0 0
332775.0 506847.0 0
336771.0 506751.0 0
369236.0 506132.0 0
373071.0 507110.0 0
377145.0 506880.0 0
101559.0 510050.0 0
105548.0 510021.0 0
109526.0 510040.0 0
113492.0 510101.0 0
117450.0 510271.0 0
121404.0 510554.0 0
125381.0 510736.0 0
129768.0 510226.0 0
133761.0 510121.0 0
137749.0 510140.0 0
141730.0 510110.0 0
145705.0 510162.0 0
149672.0 510168.0 0
153633.0 510206.0 0
157588.0 510313.0 0
161541.0 510395.0 0
165495.0 510465.0 0
169455.0 510473.0 0
173423.0 510449.0 0
177402.0 510410.0 0
181391.0 510344.0 0
185406.0 510308.0 0
189439.0 510233.0 0
193708.0 510218.0 0
197766.0 510121.0 0
201969.0 510134.0 0
205978.0 509939.0 0
210055.0 510215.0 0
214039.0 509820.0 0
218347.0 510429.0 0
222298.0 509829.0 0
226387.0 510335.0 0
230369.0 510000.0 0
234359.0 510216.0 0
238344.0 509916.0 0
242607.0 510537.0 0
246540.0 509889.0 0
250508.0 510720.0 0
254569.0 510506.0 0
258543.0 510326.0 0
262499.0 509968.0 0
266466.0 510121.0 0
270421.0 509735.0 0
274377.0 510172.0 0
278339.0 509764.0 0
282309.0 510130.0 0
286285.0 509802.0 0
290270.0 510047.0 0
294263.0 509876.0 0
298257.0 510040.0 0
302479.0 510032.0 0
306478.0 510139.0 0
310597.0 510175.0 0
314592.0 510254.0 0
318584.0 510289.0 0
322569.0 510343.0 0
326547.0 510385.0 0
330519.0 510424.0 0
334485.0 510438.0 0
338445.0 510370.0 0
342405.0 510310.0 0
346364.0 510216.0 0
350327.0 510173.0 0
354297.0 510161.0 0
358273.0 510109.0 0
362256.0 510143.0 0
366244.0 510121.0 0
370237.0 510229.0 0
374622.0 510741.0 0
378598.0 510554.0 0
382550.0 510265.0 0
386506.0 510089.0 0
390474.0 510033.0 0
394453.0 510022.0 0
398442.0 510050.0 0
102000.0 514034.0 0
106000.0 514009.0 0
110014.0 514010.0 0
114055.0 514053.0 0
118160.0 514183.0 0
190081.0 514157.0 0
194059.0 514173.0 0
198035.0 514075.0 0
202011.0 514118.0 0
205984.0 513917.0 0
213914.0 513816.0 0
221803.0 513797.0 0
229737.0 513943.0 0
237695.0 513862.0 0
245583.0 513765.0 0
261909.0 513911.0 0
265932.0 514083.0 0
269928.0 513845.0 0
277945.0 513849.0 0
285923.0 513853.0 0
289913.0 514030.0 0
293901.0 513854.0 0
297887.0 514021.0 0
301874.0 513969.0 0
305861.0 514076.0 0
309849.0 514087.0 0
313839.0 514167.0 0
317830.0 514196.0 0
381842.0 514179.0 0
385947.0 514048.0 0
389987.0 514007.0 0
394000.0 514009.0 0
398000.0 514034.0 0
122173.0 514433.0 0
126160.0 514613.0 0
130122.0 514210.0 0
134106.0 514112.0 0
138095.0 514126.0 0
142085.0 514109.0 0
146078.0 514150.0 0
150074.0 514156.0 0
154071.0 514181.0 0
158103.0 514269.0 0
162147.0 514336.0 0
166148.0 514389.0 0
170145.0 514388.0 0
174140.0 514355.0 0
178131.0 514314.0 0
182117.0 514249.0 0
186101.0 514227.0 0
209952.0 514195.0 0
217857.0 514362.0 0
225761.0 514263.0 0
233719.0 514155.0 0
241644.0 514394.0 0
249486.0 514584.0 0
253462.0 514307.0 0
257730.0 514226.0 0
273917.0 514137.0 0
281934.0 514107.0 0
321823.0 514254.0 0
325818.0 514298.0 0
329815.0 514342.0 0
333813.0 514361.0 0
337838.0 514312.0 0
341901.0 514265.0 0
345927.0 514186.0 0
349925.0 514159.0 0
353921.0 514150.0 0
357913.0 514109.0 0
361904.0 514128.0 0
365892.0 514112.0 0
369876.0 514212.0 0
373838.0 514616.0 0
377825.0 514433.0 0
101971.0 518033.0 0
105970.0 518009.0 0
109968.0 518008.0 0
113964.0 518045.0 0
117958.0 518155.0 0
121948.0 518383.0 0
125942.0 518560.0 0
129985.0 518207.0 0
133983.0 518110.0 0
137983.0 518124.0 0
141981.0 518109.0 0
145979.0 518149.0 0
149977.0 518154.0 0
153974.0 518179.0 0
157969.0 518254.0 0
161965.0 518317.0 0
165961.0 518361.0 0
169958.0 518357.0 0
173956.0 518323.0 0
177954.0 518283.0 0
181953.0 518218.0 0
185965.0 518202.0 0
189973.0 518130.0 0
193988.0 518144.0 0
197998.0 518042.0 0
202003.0 518104.0 0
206002.0 517903.0 0
210022.0 518175.0 0
214010.0 517863.0 0
218092.0 518318.0 0
222064.0 517860.0 0
226098.0 518227.0 0
230085.0 517923.0 0
234079.0 518130.0 0
238071.0 517888.0 0
242206.0 518331.0 0
246174.0 517846.0 0
250198.0 518515.0 0
254186.0 518206.0 0
258178.0 518188.0 0
262158.0 517894.0 0
266146.0 518075.0 0
270132.0 517840.0 0
274115.0 518125.0 0
278100.0 517845.0 0
282087.0 518099.0 0
286075.0 517852.0 0
290069.0 518025.0 0
294063.0 517856.0 0
298059.0 518017.0 0
302058.0 517950.0 0
306056.0 518056.0 0
310055.0 518064.0 0
314054.0 518145.0 0
318053.0 518170.0 0
322051.0 518229.0 0
326049.0 518270.0 0
330046.0 518316.0 0
334043.0 518333.0 0
338038.0 518294.0 0
342034.0 518249.0 0
346029.0 518182.0 0
350026.0 518158.0 0
354023.0 518149.0 0
358021.0 518109.0 0
362019.0 518126.0 0
366018.0 518110.0 0
370017.0 518209.0 0
374059.0 518563.0 0
378053.0 518383.0 0
382042.0 518152.0 0
386036.0 518044.0 0
390033.0 518006.0 0
394031.0 518009.0 0
398029.0 518033.0 0
198008.0 522012.0 0
206000.0 521892.0 0
213986.0 521862.0 0
221952.0 521861.0 0
229925.0 521915.0 0
245855.0 521834.0 0
261984.0 521885.0 0
269986.0 521860.0 0
277995.0 521862.0 0
286000.0 521863.0 0
293997.0 521863.0 0
301992.0 521935.0 0
102000.0 522033.0 0
106000.0 522008.0 0
110001.0 522007.0 0
114002.0 522040.0 0
118006.0 522132.0 0
122023.0 522342.0 0
126021.0 522513.0 0
130008.0 522206.0 0
134006.0 522109.0 0
138005.0 522123.0 0
142005.0 522109.0 0
146004.0 522148.0 0
150004.0 522154.0 0
154004.0 522178.0 0
158006.0 522242.0 0
162012.0 522301.0 0
166015.0 522336.0 0
170015.0 522331.0 0
174014.0 522294.0 0
178014.0 522255.0 0
182013.0 522190.0 0
186012.0 522179.0 0
190010.0 522105.0 0
194010.0 522119.0 0
202006.0 522092.0 0
209994.0 522157.0 0
217964.0 522283.0 0
225936.0 522205.0 0
233918.0 522118.0 0
237909.0 521885.0 0
241885.0 522298.0 0
249797.0 522491.0 0
253779.0 522154.0 0
257927.0 522169.0 0
265980.0 522068.0 0
273978.0 522114.0 0
281988.0 522091.0 0
289997.0 522023.0 0
297993.0 522015.0 0
305990.0 522041.0 0
309989.0 522046.0 0
313988.0 522129.0 0
317988.0 522148.0 0
321987.0 522209.0 0
325986.0 522249.0 0
329986.0 522295.0 0
333986.0 522311.0 0
337990.0 522280.0 0
341994.0 522236.0 0
345996.0 522180.0 0
349996.0 522157.0 0
353996.0 522148.0 0
357995.0 522109.0 0
361995.0 522125.0 0
365994.0 522110.0 0
369992.0 522208.0 0
373979.0 522515.0 0
377977.0 522342.0 0
381994.0 522131.0 0
385998.0 522039.0 0
389999.0 522005.0 0
394000.0 522008.0 0
398000.0 522033.0 0
101999.0 526033.0 0
105999.0 526008.0 0
109999.0 526004.0 0
113999.0 526034.0 0
117997.0 526112.0 0
121992.0 526304.0 0
125988.0 526468.0 0
129999.0 526203.0 0
133999.0 526109.0 0
137999.0 526121.0 0
141999.0 526109.0 0
145999.0 526148.0 0
149999.0 526153.0 0
153998.0 526177.0 0
157998.0 526230.0 0
161997.0 526285.0 0
165997.0 526311.0 0
169997.0 526305.0 0
173996.0 526266.0 0
177996.0 526229.0 0
181997.0 526164.0 0
185998.0 526157.0 0
189998.0 526080.0 0
193999.0 526096.0 0
197999.0 525986.0 0
202000.0 526082.0 0
206000.0 525884.0 0
210001.0 526140.0 0
214000.0 525863.0 0
218013.0 526253.0 0
222000.0 525863.0 0
226016.0 526186.0 0
230007.0 525909.0 0
234011.0 526109.0 0
238005.0 525885.0 0
242049.0 526276.0 0
246027.0 525861.0 0
250088.0 526474.0 0
254072.0 526116.0 0
258069.0 526157.0 0
262056.0 525880.0 0
266050.0 526065.0 0
270042.0 525860.0 0
274033.0 526105.0 0
278024.0 525862.0 0
282017.0 526085.0 0
286009.0 525863.0 0
290006.0 526021.0 0
294002.0 525863.0 0
298000.0 526014.0 0
302000.0 525921.0 0
306001.0 526028.0 0
310001.0 526029.0 0
314002.0 526113.0 0
318002.0 526128.0 0
322003.0 526189.0 0
326003.0 526228.0 0
330002.0 526274.0 0
334002.0 526290.0 0
338002.0 526266.0 0
342002.0 526223.0 0
346001.0 526178.0 0
350001.0 526156.0 0
354001.0 526148.0 0
358001.0 526109.0 0
362001.0 526123.0 0
366001.0 526109.0 0
370001.0 526205.0 0
374012.0 526470.0 0
378008.0 526305.0 0
382003.0 526111.0 0
386001.0 526033.0 0
390001.0 526003.0 0
394001.0 526008.0 0
398001.0 526033.0 0
102000.0 530032.0 0
106000.0 530008.0 0
110000.0 530002.0 0
114000.0 530027.0 0
118000.0 530093.0 0
122001.0 530270.0 0
126006.0 530426.0 0
130000.0 530199.0 0
134000.0 530108.0 0
138000.0 530119.0 0
142000.0 530109.0 0
146000.0 530147.0 0
150000.0 530152.0 0
154000.0 530175.0 0
158000.0 530218.0 0
162001.0 530268.0 0
166001.0 530287.0 0
170001.0 530281.0 0
174001.0 530240.0 0
178001.0 530204.0 0
182000.0 530139.0 0
186000.0 530136.0 0
190000.0 530057.0 0
194000.0 530075.0 0
198000.0 529964.0 0
202000.0 530073.0 0
206000.0 529878.0 0
210000.0 530124.0 0
214000.0 529863.0 0
217998.0 530226.0 0
222000.0 529863.0 0
225998.0 530170.0 0
230000.0 529904.0 0
233998.0 530101.0 0
237997.0 529885.0 0
241979.0 530259.0 0
245959.0 529860.0 0
249913.0 530464.0 0
253938.0 530088.0 0
257987.0 530148.0 0
261999.0 529876.0 0
265996.0 530061.0 0
270000.0 529863.0 0
273996.0 530097.0 0
278000.0 529863.0 0
281999.0 530079.0 0
286000.0 529863.0 0
290000.0 530019.0 0
294000.0 529863.0 0
298000.0 530013.0 0
302000.0 529910.0 0
306000.0 530016.0 0
310000.0 530012.0 0
314000.0 530098.0 0
318000.0 530108.0 0
321999.0 530171.0 0
325999.0 530207.0 0
329999.0 530254.0 0
333999.0 530268.0 0
338000.0 530251.0 0
342000.0 530210.0 0
346000.0 530177.0 0
350000.0 530155.0 0
354000.0 530147.0 0
358000.0 530109.0 0
362000.0 530121.0 0
366000.0 530108.0 0
370000.0 530201.0 0
373993.0 530427.0 0
377999.0 530271.0 0
382000.0 530093.0 0
386000.0 530027.0 0
390000.0 530001.0 0
394000.0 530008.0 0
398000.0 530032.0 0
102000.0 534032.0 0
106000.0 534008.0 0
110000.0 533999.0 0
114000.0 534020.0 0
118000.0 534077.0 0
122000.0 534240.0 0
125998.0 534386.0 0
130000.0 534195.0 0
134000.0 534106.0 0
138000.0 534117.0 0
142000.0 534109.0 0
146000.0 534147.0 0
150000.0 534151.0 0
154000.0 534173.0 0
158000.0 534206.0 0
162000.0 534252.0 0
166000.0 534264.0 0
170000.0 534257.0 0
174000.0 534215.0 0
178000.0 534181.0 0
182000.0 534115.0 0
186000.0 534116.0 0
190000.0 534035.0 0
194000.0 534058.0 0
198000.0 533946.0 0
202000.0 534065.0 0
206000.0 533874.0 0
210000.0 534110.0 0
214000.0 533863.0 0
218000.0 534201.0 0
222000.0 533863.0 0
226000.0 534155.0 0
230000.0 533899.0 0
234000.0 534094.0 0
238000.0 533884.0 0
242006.0 534243.0 0
246000.0 533863.0 0
250038.0 534455.0 0
254018.0 534064.0 0
258017.0 534141.0 0
262008.0 533873.0 0
266003.0 534057.0 0
270000.0 533863.0 0
274000.0 534089.0 0
278000.0 533863.0 0
282000.0 534073.0 0
286000.0 533863.0 0
290000.0 534016.0 0
294000.0 533863.0 0
298000.0 534012.0 0
302000.0 533900.0 0
306000.0 534005.0 0
310000.0 533996.0 0
314000.0 534083.0 0
318000.0 534089.0 0
322000.0 534153.0 0
326000.0 534188.0 0
330000.0 534235.0 0
334000.0 534248.0 0
338000.0 534237.0 0
342000.0 534199.0 0
346000.0 534174.0 0
350000.0 534153.0 0
354000.0 534147.0 0
358000.0 534109.0 0
362000.0 534119.0 0
366000.0 534107.0 0
370000.0 534196.0 0
374002.0 534387.0 0
378000.0 534240.0 0
382000.0 534077.0 0
386000.0 534020.0 0
390000.0 533999.0 0
394000.0 534008.0 0
398000.0 534032.0 0
102000.0 538032.0 0
106000.0 538008.0 0
110000.0 537997.0 0
114000.0 538014.0 0
118000.0 538062.0 0
122000.0 538213.0 0
126000.0 538348.0 0
130000.0 538189.0 0
134000.0 538105.0 0
138000.0 538114.0 0
142000.0 538108.0 0
146000.0 538146.0 0
150000.0 538149.0 0
154000.0 538170.0 0
158000.0 538195.0 0
162000.0 538236.0 0
166000.0 538242.0 0
170000.0 538235.0 0
174000.0 538192.0 0
178000.0 538160.0 0
182000.0 538094.0 0
186000.0 538098.0 0
190000.0 538015.0 0
194000.0 538042.0 0
198000.0 537930.0 0
202000.0 538058.0 0
206000.0 537872.0 0
210000.0 538097.0 0
214000.0 537863.0 0
218000.0 538179.0 0
222000.0 537863.0 0
226000.0 538141.0 0
230000.0 537894.0 0
234000.0 538087.0 0
238000.0 537884.0 0
241999.0 538228.0 0
246000.0 537863.0 0
249979.0 538448.0 0
253996.0 538044.0 0
257999.0 538135.0 0
262000.0 537871.0 0
266000.0 538053.0 0
270000.0 537863.0 0
274000.0 538082.0 0
278000.0 537863.0 0
282000.0 538067.0 0
286000.0 537863.0 0
290000.0 538014.0 0
294000.0 537863.0 0
298000.0 538011.0 0
302000.0 537891.0 0
306000.0 537996.0 0
310000.0 537982.0 0
314000.0 538070.0 0
318000.0 538071.0 0
322000.0 538136.0 0
326000.0 538169.0 0
330000.0 538216.0 0
334000.0 538229.0 0
338000.0 538223.0 0
342000.0 538188.0 0
346000.0 538172.0 0
350000.0 538151.0 0
354000.0 538146.0 0
358000.0 538108.0 0
362000.0 538116.0 0
366000.0 538105.0 0
370000.0 538191.0 0
374000.0 538350.0 0
378000.0 538213.0 0
382000.0 538063.0 0
386000.0 538014.0 0
390000.0 537996.0 0
394000.0 538008.0 0
398000.0 538032.0 0
102000.0 542031.0 0
106000.0 542007.0 0
110000.0 541994.0 0
114000.0 542008.0 0
118000.0 542050.0 0
122000.0 542189.0 0
126000.0 542314.0 0
130000.0 542184.0 0
134000.0 542103.0 0
138000.0 542112.0 0
142000.0 542108.0 0
146000.0 542145.0 0
150000.0 542147.0 0
154000.0 542167.0 0
158000.0 542185.0 0
162000.0 542221.0 0
166000.0 542222.0 0
170000.0 542215.0 0
174000.0 542171.0 0
178000.0 542140.0 0
182000.0 542074.0 0
186000.0 542082.0 0
190000.0 541998.0 0
194000.0 542029.0 0
198000.0 541918.0 0
202000.0 542051.0 0
206000.0 541869.0 0
210000.0 542085.0 0
214000.0 541863.0 0
218000.0 542159.0 0
222000.0 541863.0 0
226000.0 542129.0 0
230000.0 541890.0 0
234000.0 542080.0 0
238000.0 541883.0 0
242000.0 542215.0 0
246000.0 541863.0 0
250006.0 542440.0 0
254000.0 542025.0 0
258000.0 542130.0 0
262000.0 541869.0 0
266000.0 542049.0 0
270000.0 541863.0 0
274000.0 542074.0 0
278000.0 541863.0 0
282000.0 542062.0 0
286000.0 541863.0 0
290000.0 542012.0 0
294000.0 541863.0 0
298000.0 542010.0 0
302000.0 541885.0 0
306000.0 541989.0 0
310000.0 541969.0 0
314000.0 542058.0 0
318000.0 542055.0 0
322000.0 542120.0 0
326000.0 542152.0 0
330000.0 542199.0 0
334000.0 542211.0 0
338000.0 542210.0 0
342000.0 542179.0 0
346000.0 542169.0 0
350000.0 542149.0 0
354000.0 542145.0 0
358000.0 542108.0 0
362000.0 542113.0 0
366000.0 542103.0 0
370000.0 542185.0 0
374000.0 542315.0 0
378000.0 542190.0 0
382000.0 542050.0 0
386000.0 542008.0 0
390000.0 541994.0 0
394000.0 542007.0 0
398000.0 542031.0 0
102000.0 546030.0 0
106000.0 546007.0 0
110000.0 545992.0 0
114000.0 546002.0 0
118000.0 546039.0 0
122000.0 546168.0 0
126000.0 546283.0 0
130000.0 546178.0 0
134000.0 546101.0 0
138000.0 546109.0 0
142000.0 546108.0 0
146000.0 546144.0 0
150000.0 546146.0 0
154000.0 546165.0 0
158000.0 546176.0 0
162000.0 546207.0 0
166000.0 546204.0 0
170000.0 546197.0 0
174000.0 546152.0 0
178000.0 546123.0 0
182000.0 546057.0 0
186000.0 546067.0 0
190000.0 545982.0 0
194000.0 546018.0 0
198000.0 545907.0 0
202000.0 546045.0 0
206000.0 545868.0 0
210000.0 546075.0 0
214000.0 545863.0 0
218000.0 546142.0 0
222000.0 545863.0 0
226000.0 546117.0 0
230000.0 545886.0 0
234000.0 546074.0 0
238000.0 545883.0 0
242000.0 546202.0 0
246000.0 545863.0 0
249999.0 546433.0 0
254000.0 546009.0 0
258000.0 546125.0 0
262000.0 545867.0 0
266000.0 546045.0 0
270000.0 545863.0 0
274000.0 546068.0 0
278000.0 545863.0 0
282000.0 546057.0 0
286000.0 545863.0 0
290000.0 546010.0 0
294000.0 545863.0 0
298000.0 546008.0 0
302000.0 545879.0 0
306000.0 545982.0 0
310000.0 545958.0 0
314000.0 546047.0 0
318000.0 546041.0 0
322000.0 546106.0 0
326000.0 546136.0 0
330000.0 546184.0 0
334000.0 546194.0 0
338000.0 546197.0 0
342000.0 546170.0 0
346000.0 546166.0 0
350000.0 546148.0 0
354000.0 546144.0 0
358000.0 546108.0 0
362000.0 546111.0 0
366000.0 546101.0 0
370000.0 546179.0 0
374000.0 546284.0 0
378000.0 546169.0 0
382000.0 546039.0 0
386000.0 546002.0 0
390000.0 545992.0 0
394000.0 546007.0 0
398000.0 546031.0 0
102000.0 550030.0 0
106000.0 550007.0 0
110000.0 549990.0 0
114000.0 549997.0 0
118000.0 550029.0 0
122000.0 550150.0 0
126000.0 550255.0 0
130000.0 550171.0 0
134000.0 550099.0 0
138000.0 550107.0 0
142000.0 550108.0 0
146000.0 550144.0 0
150000.0 550144.0 0
154000.0 550162.0 0
158000.0 550167.0 0
162000.0 550194.0 0
166000.0 550188.0 0
170000.0 550181.0 0
174000.0 550135.0 0
178000.0 550108.0 0
182000.0 550042.0 0
186000.0 550055.0 0
190000.0 549969.0 0
194000.0 550009.0 0
198000.0 549899.0 0
202000.0 550039.0 0
206000.0 549866.0 0
210000.0 550065.0 0
214000.0 549863.0 0
218000.0 550126.0 0
222000.0 549863.0 0
226000.0 550106.0 0
230000.0 549882.0 0
234000.0 550069.0 0
238000.0 549882.0 0
242000.0 550191.0 0
246000.0 549863.0 0
250000.0 550426.0 0
254000.0 549994.0 0
258000.0 550120.0 0
262000.0 549866.0 0
266000.0 550042.0 0
270000.0 549863.0 0
274000.0 550061.0 0
278000.0 549863.0 0
282000.0 550052.0 0
286000.0 549863.0 0
290000.0 550008.0 0
294000.0 549863.0 0
298000.0 550007.0 0
302000.0 549875.0 0
306000.0 549977.0 0
310000.0 549948.0 0
314000.0 550037.0 0
318000.0 550027.0 0
322000.0 550093.0 0
326000.0 550122.0 0
330000.0 550169.0 0
334000.0 550179.0 0
338000.0 550186.0 0
342000.0 550162.0 0
346000.0 550163.0 0
350000.0 550146.0 0
354000.0 550144.0 0
358000.0 550108.0 0
362000.0 550108.0 0
366000.0 550099.0 0
370000.0 550173.0 0
374000.0 550256.0 0
378000.0 550151.0 0
382000.0 550030.0 0
386000.0 549997.0 0
390000.0 549990.0 0
394000.0 550007.0 0
398000.0 550030.0 0
102000.0 554029.0 0
106000.0 554006.0 0
110000.0 553989.0 0
114000.0 553993.0 0
118000.0 554021.0 0
122000.0 554134.0 0
126000.0 554229.0 0
130000.0 554165.0 0
134000.0 554097.0 0
138000.0 554105.0 0
142000.0 554107.0 0
146000.0 554143.0 0
150000.0 554142.0 0
154000.0 554159.0 0
158000.0 554160.0 0
162000.0 554183.0 0
166000.0 554173.0 0
170000.0 554166.0 0
174000.0 554120.0 0
178000.0 554094.0 0
182000.0 554028.0 0
186000.0 554044.0 0
190000.0 553957.0 0
194000.0 554001.0 0
198000.0 553892.0 0
202000.0 554034.0 0
206000.0 553865.0 0
210000.0 554056.0 0
214000.0 553863.0 0
218000.0 554111.0 0
222000.0 553863.0 0
226000.0 554096.0 0
230000.0 553879.0 0
234000.0 554063.0 0
238000.0 553881.0 0
242000.0 554180.0 0
246000.0 553863.0 0
250000.0 554418.0 0
254000.0 553982.0 0
258000.0 554116.0 0
262000.0 553865.0 0
266000.0 554038.0 0
270000.0 553863.0 0
274000.0 554056.0 0
278000.0 553863.0 0
282000.0 554047.0 0
286000.0 553863.0 0
290000.0 554006.0 0
294000.0 553863.0 0
298000.0 554006.0 0
302000.0 553871.0 0
306000.0 553972.0 0
310000.0 553939.0 0
314000.0 554028.0 0
318000.0 554016.0 0
322000.0 554082.0 0
326000.0 554109.0 0
330000.0 554157.0 0
334000.0 554166.0 0
338000.0 554175.0 0
342000.0 554155.0 0
346000.0 554160.0 0
350000.0 554144.0 0
354000.0 554143.0 0
358000.0 554107.0 0
362000.0 554106.0 0
366000.0 554097.0 0
370000.0 554166.0 0
374000.0 554230.0 0
378000.0 554135.0 0
382000.0 554021.0 0
386000.0 553993.0 0
390000.0 553988.0 0
394000.0 554006.0 0
398000.0 554029.0 0
102000.0 558029.0 0
106000.0 558006.0 0
110000.0 557987.0 0
114000.0 557989.0 0
118000.0 558013.0 0
122000.0 558121.0 0
126000.0 558207.0 0
130000.0 558159.0 0
134000.0 558095.0 0
138000.0 558102.0 0
142000.0 558107.0 0
146000.0 558142.0 0
150000.0 558140.0 0
154000.0 558156.0 0
158000.0 558153.0 0
162000.0 558172.0 0
166000.0 558160.0 0
170000.0 558153.0 0
174000.0 558107.0 0
178000.0 558082.0 0
182000.0 558016.0 0
186000.0 558035.0 0
190000.0 557947.0 0
194000.0 557994.0 0
198000.0 557886.0 0
202000.0 558030.0 0
206000.0 557865.0 0
210000.0 558049.0 0
214000.0 557863.0 0
218000.0 558099.0 0
222000.0 557863.0 0
226000.0 558088.0 0
230000.0 557876.0 0
234000.0 558058.0 0
238000.0 557880.0 0
242000.0 558170.0 0
246000.0 557863.0 0
254000.0 557970.0 0
258000.0 558112.0 0
262000.0 557865.0 0
266000.0 558035.0 0
270000.0 557863.0 0
274000.0 558050.0 0
278000.0 557863.0 0
282000.0 558042.0 0
286000.0 557863.0 0
290000.0 558004.0 0
294000.0 557863.0 0
298000.0 558004.0 0
302000.0 557869.0 0
306000.0 557969.0 0
310000.0 557931.0 0
314000.0 558021.0 0
318000.0 558005.0 0
322000.0 558072.0 0
326000.0 558097.0 0
330000.0 558145.0 0
334000.0 558154.0 0
338000.0 558166.0 0
342000.0 558148.0 0
346000.0 558157.0 0
350000.0 558142.0 0
354000.0 558142.0 0
358000.0 558107.0 0
362000.0 558103.0 0
366000.0 558095.0 0
370000.0 558160.0 0
374000.0 558208.0 0
378000.0 558121.0 0
382000.0 558014.0 0
386000.0 557989.0 0
390000.0 557987.0 0
394000.0 558006.0 0
398000.0 558029.0 0
250000.0 558411.0 0
102000.0 562028.0 0
106000.0 562006.0 0
110000.0 561986.0 0
114000.0 561986.0 0
118000.0 562007.0 0
122000.0 562109.0 0
126000.0 562188.0 0
130000.0 562153.0 0
134000.0 562093.0 0
138000.0 562100.0 0
142000.0 562107.0 0
146000.0 562141.0 0
150000.0 562139.0 0
154000.0 562153.0 0
158000.0 562146.0 0
162000.0 562163.0 0
166000.0 562149.0 0
170000.0 562142.0 0
174000.0 562096.0 0
178000.0 562072.0 0
182000.0 562006.0 0
186000.0 562027.0 0
190000.0 561939.0 0
194000.0 561989.0 0
198000.0 561882.0 0
202000.0 562026.0 0
206000.0 561864.0 0
210000.0 562042.0 0
214000.0 561863.0 0
218000.0 562088.0 0
222000.0 561863.0 0
226000.0 562080.0 0
230000.0 561873.0 0
234000.0 562054.0 0
238000.0 561880.0 0
242000.0 562161.0 0
246000.0 561863.0 0
250000.0 562405.0 0
254000.0 561961.0 0
258000.0 562108.0 0
262000.0 561864.0 0
266000.0 562032.0 0
270000.0 561863.0 0
274000.0 562045.0 0
278000.0 561863.0 0
282000.0 562038.0 0
286000.0 561863.0 0
290000.0 562002.0 0
294000.0 561863.0 0
298000.0 562003.0 0
302000.0 561867.0 0
306000.0 561966.0 0
310000.0 561925.0 0
314000.0 562015.0 0
318000.0 561997.0 0
322000.0 562063.0 0
326000.0 562087.0 0
330000.0 562135.0 0
334000.0 562144.0 0
338000.0 562158.0 0
342000.0 562143.0 0
346000.0 562154.0 0
350000.0 562140.0 0
354000.0 562141.0 0
358000.0 562107.0 0
362000.0 562101.0 0
366000.0 562093.0 0
370000.0 562154.0 0
374000.0 562189.0 0
378000.0 562109.0 0
382000.0 562007.0 0
386000.0 561986.0 0
390000.0 561986.0 0
394000.0 562006.0 0
398000.0 562028.0 0
102000.0 566028.0 0
106000.0 566005.0 0
110000.0 565985.0 0
114000.0 565983.0 0
118000.0 566002.0 0
122000.0 566099.0 0
126000.0 566171.0 0
130000.0 566148.0 0
134000.0 566091.0 0
138000.0 566099.0 0
142000.0 566107.0 0
146000.0 566140.0 0
150000.0 566137.0 0
154000.0 566151.0 0
158000.0 566141.0 0
162000.0 566156.0 0
166000.0 566140.0 0
170000.0 566133.0 0
174000.0 566086.0 0
178000.0 566064.0 0
182000.0 565998.0 0
186000.0 566020.0 0
190000.0 565932.0 0
194000.0 565984.0 0
198000.0 565878.0 0
202000.0 566022.0 0
206000.0 565864.0 0
210000.0 566036.0 0
214000.0 565863.0 0
218000.0 566079.0 0
222000.0 565863.0 0
226000.0 566073.0 0
230000.0 565871.0 0
234000.0 566050.0 0
238000.0 565879.0 0
242000.0 566154.0 0
246000.0 565863.0 0
254000.0 565953.0 0
258000.0 566105.0 0
262000.0 565864.0 0
266000.0 566030.0 0
270000.0 565863.0 0
274000.0 566041.0 0
278000.0 565863.0 0
282000.0 566035.0 0
286000.0 565863.0 0
290000.0 566001.0 0
294000.0 565863.0 0
298000.0 566002.0 0
302000.0 565866.0 0
306000.0 565964.0 0
310000.0 565919.0 0
314000.0 566009.0 0
318000.0 565989.0 0
322000.0 566056.0 0
326000.0 566079.0 0
330000.0 566127.0 0
334000.0 566135.0 0
338000.0 566151.0 0
342000.0 566138.0 0
346000.0 566151.0 0
350000.0 566138.0 0
354000.0 566140.0 0
358000.0 566107.0 0
362000.0 566099.0 0
366000.0 566091.0 0
370000.0 566149.0 0
374000.0 566172.0 0
378000.0 566099.0 0
382000.0 566002.0 0
386000.0 565983.0 0
390000.0 565985.0 0
394000.0 566005.0 0
398000.0 566028.0 0
250000.0 566399.0 0
102000.0 570027.0 0
106000.0 570005.0 0
110000.0 569984.0 0
114000.0 569981.0 0
118000.0 569997.0 0
122000.0 570091.0 0
126000.0 570157.0 0
130000.0 570143.0 0
134000.0 570090.0 0
138000.0 570097.0 0
142000.0 570106.0 0
146000.0 570140.0 0
150000.0 570136.0 0
154000.0 570148.0 0
158000.0 570137.0 0
162000.0 570149.0 0
166000.0 570132.0 0
170000.0 570125.0 0
174000.0 570078.0 0
178000.0 570056.0 0
182000.0 569990.0 0
186000.0 570015.0 0
190000.0 569927.0 0
194000.0 569981.0 0
198000.0 569876.0 0
202000.0 570020.0 0
206000.0 569863.0 0
210000.0 570031.0 0
214000.0 569863.0 0
218000.0 570071.0 0
222000.0 569863.0 0
226000.0 570067.0 0
230000.0 569870.0 0
234000.0 570047.0 0
238000.0 569878.0 0
242000.0 570147.0 0
246000.0 569863.0 0
250000.0 570394.0 0
254000.0 569946.0 0
258000.0 570102.0 0
262000.0 569864.0 0
266000.0 570028.0 0
270000.0 569863.0 0
274000.0 570038.0 0
278000.0 569863.0 0
282000.0 570032.0 0
286000.0 569863.0 0
290000.0 570000.0 0
294000.0 569863.0 0
298000.0 570001.0 0
302000.0 569865.0 0
306000.0 569962.0 0
310000.0 569915.0 0
314000.0 570005.0 0
318000.0 569983.0 0
322000.0 570049.0 0
326000.0 570072.0 0
330000.0 570120.0 0
334000.0 570128.0 0
338000.0 570145.0 0
342000.0 570134.0 0
346000.0 570149.0 0
350000.0 570137.0 0
354000.0 570140.0 0
358000.0 570106.0 0
362000.0 570098.0 0
366000.0 570090.0 0
370000.0 570144.0 0
374000.0 570158.0 0
378000.0 570091.0 0
382000.0 569997.0 0
386000.0 569981.0 0
390000.0 569984.0 0
394000.0 570005.0 0
398000.0 570027.0 0
110000.0 573983.0 0
114000.0 573979.0 0
118000.0 573993.0 0
182000.0 573985.0 0
186000.0 574010.0 0
190000.0 573922.0 0
194000.0 573978.0 0
198000.0 573873.0 0
206000.0 573863.0 0
214000.0 573863.0 0
222000.0 573863.0 0
230000.0 573868.0 0
238000.0 573878.0 0
246000.0 573863.0 0
254000.0 573940.0 0
262000.0 573864.0 0
270000.0 573863.0 0
278000.0 573863.0 0
286000.0 573863.0 0
294000.0 573863.0 0
302000.0 573864.0 0
306000.0 573961.0 0
310000.0 573912.0 0
314000.0 574001.0 0
318000.0 573978.0 0
382000.0 573994.0 0
386000.0 573980.0 0
390000.0 573983.0 0
102000.0 574027.0 0
106000.0 574005.0 0
122000.0 574084.0 0
126000.0 574146.0 0
130000.0 574139.0 0
134000.0 574088.0 0
138000.0 574096.0 0
142000.0 574106.0 0
146000.0 574139.0 0
150000.0 574135.0 0
154000.0 574146.0 0
158000.0 574133.0 0
162000.0 574144.0 0
166000.0 574125.0 0
170000.0 574118.0 0
174000.0 574071.0 0
178000.0 574051.0 0
202000.0 574017.0 0
210000.0 574027.0 0
218000.0 574064.0 0
226000.0 574062.0 0
234000.0 574044.0 0
242000.0 574141.0 0
250000.0 574389.0 0
258000.0 574100.0 0
266000.0 574026.0 0
274000.0 574035.0 0
282000.0 574029.0 0
290000.0 573998.0 0
298000.0 574000.0 0
322000.0 574044.0 0
326000.0 574066.0 0
330000.0 574114.0 0
334000.0 574122.0 0
338000.0 574140.0 0
342000.0 574130.0 0
346000.0 574147.0 0
350000.0 574136.0 0
354000.0 574139.0 0
358000.0 574106.0 0
362000.0 574096.0 0
366000.0 574088.0 0
370000.0 574140.0 0
374000.0 574146.0 0
378000.0 574084.0 0
394000.0 574005.0 0
398000.0 574027.0 0
102000.0 578027.0 0
106000.0 578005.0 0
110000.0 577982.0 0
114000.0 577978.0 0
118000.0 577990.0 0
122000.0 578079.0 0
126000.0 578137.0 0
130000.0 578136.0 0
134000.0 578087.0 0
138000.0 578095.0 0
142000.0 578106.0 0
146000.0 578139.0 0
150000.0 578134.0 0
154000.0 578145.0 0
158000.0 578130.0 0
162000.0 578140.0 0
166000.0 578120.0 0
170000.0 578113.0 0
174000.0 578066.0 0
178000.0 578046.0 0
182000.0 577980.0 0
186000.0 578007.0 0
190000.0 577919.0 0
194000.0 577976.0 0
198000.0 577872.0 0
202000.0 578015.0 0
206000.0 577863.0 0
210000.0 578024.0 0
214000.0 577863.0 0
218000.0 578059.0 0
222000.0 577863.0 0
226000.0 578058.0 0
230000.0 577867.0 0
234000.0 578041.0 0
238000.0 577877.0 0
242000.0 578137.0 0
246000.0 577863.0 0
250000.0 578386.0 0
254000.0 577936.0 0
258000.0 578097.0 0
262000.0 577864.0 0
266000.0 578024.0 0
270000.0 577863.0 0
274000.0 578032.0 0
278000.0 577863.0 0
282000.0 578027.0 0
286000.0 577863.0 0
290000.0 577997.0 0
294000.0 577863.0 0
298000.0 577999.0 0
302000.0 577864.0 0
306000.0 577960.0 0
310000.0 577909.0 0
314000.0 577999.0 0
318000.0 577974.0 0
322000.0 578040.0 0
326000.0 578061.0 0
330000.0 578109.0 0
334000.0 578117.0 0
338000.0 578136.0 0
342000.0 578128.0 0
346000.0 578145.0 0
350000.0 578135.0 0
354000.0 578139.0 0
358000.0 578106.0 0
362000.0 578095.0 0
366000.0 578087.0 0
370000.0 578136.0 0
374000.0 578137.0 0
378000.0 578079.0 0
382000.0 577991.0 0
386000.0 577978.0 0
390000.0 577982.0 0
394000.0 578005.0 0
398000.0 578027.0 0
102000.0 582026.0 0
106000.0 582004.0 0
110000.0 581982.0 0
114000.0 581977.0 0
118000.0 581988.0 0
122000.0 582075.0 0
126000.0 582130.0 0
130000.0 582133.0 0
134000.0 582086.0 0
138000.0 582094.0 0
142000.0 582106.0 0
146000.0 582138.0 0
150000.0 582133.0 0
154000.0 582143.0 0
158000.0 582127.0 0
162000.0 582137.0 0
166000.0 582116.0 0
170000.0 582110.0 0
174000.0 582062.0 0
178000.0 582043.0 0
182000.0 581977.0 0
186000.0 582004.0 0
190000.0 581916.0 0
194000.0 581974.0 0
198000.0 581871.0 0
202000.0 582014.0 0
206000.0 581863.0 0
210000.0 582022.0 0
214000.0 581863.0 0
218000.0 582055.0 0
222000.0 581863.0 0
226000.0 582055.0 0
230000.0 581867.0 0
234000.0 582040.0 0
238000.0 581877.0 0
242000.0 582133.0 0
246000.0 581863.0 0
250000.0 582383.0 0
254000.0 581932.0 0
258000.0 582096.0 0
262000.0 581863.0 0
266000.0 582023.0 0
270000.0 581863.0 0
274000.0 582030.0 0
278000.0 581863.0 0
282000.0 582025.0 0
286000.0 581863.0 0
290000.0 581997.0 0
294000.0 581863.0 0
298000.0 581999.0 0
302000.0 581864.0 0
306000.0 581959.0 0
310000.0 581907.0 0
314000.0 581997.0 0
318000.0 581971.0 0
322000.0 582037.0 0
326000.0 582058.0 0
330000.0 582106.0 0
334000.0 582113.0 0
338000.0 582133.0 0
342000.0 582126.0 0
346000.0 582144.0 0
350000.0 582134.0 0
354000.0 582138.0 0
358000.0 582106.0 0
362000.0 582095.0 0
366000.0 582086.0 0
370000.0 582134.0 0
374000.0 582131.0 0
378000.0 582075.0 0
382000.0 581988.0 0
386000.0 581977.0 0
390000.0 581982.0 0
394000.0 582004.0 0
398000.0 582026.0 0
102000.0 586026.0 0
106000.0 586004.0 0
110000.0 585982.0 0
114000.0 585977.0 0
118000.0 585987.0 0
122000.0 586072.0 0
126000.0 586126.0 0
130000.0 586131.0 0
134000.0 586085.0 0
138000.0 586094.0 0
142000.0 586106.0 0
146000.0 586138.0 0
150000.0 586133.0 0
154000.0 586143.0 0
158000.0 586126.0 0
162000.0 586135.0 0
166000.0 586114.0 0
170000.0 586107.0 0
174000.0 586060.0 0
178000.0 586040.0 0
182000.0 585975.0 0
186000.0 586003.0 0
190000.0 585914.0 0
194000.0 585973.0 0
198000.0 585870.0 0
202000.0 586013.0 0
206000.0 585863.0 0
210000.0 586020.0 0
214000.0 585863.0 0
218000.0 586053.0 0
222000.0 585863.0 0
226000.0 586053.0 0
230000.0 585866.0 0
234000.0 586038.0 0
238000.0 585876.0 0
242000.0 586131.0 0
246000.0 585863.0 0
250000.0 586381.0 0
254000.0 585930.0 0
258000.0 586095.0 0
262000.0 585863.0 0
266000.0 586022.0 0
270000.0 585863.0 0
274000.0 586029.0 0
278000.0 585863.0 0
282000.0 586024.0 0
286000.0 585863.0 0
290000.0 585996.0 0
294000.0 585863.0 0
298000.0 585998.0 0
302000.0 585863.0 0
306000.0 585959.0 0
310000.0 585906.0 0
314000.0 585995.0 0
318000.0 585969.0 0
322000.0 586035.0 0
326000.0 586055.0 0
330000.0 586104.0 0
334000.0 586111.0 0
338000.0 586132.0 0
342000.0 586124.0 0
346000.0 586143.0 0
350000.0 586133.0 0
354000.0 586138.0 0
358000.0 586106.0 0
362000.0 586094.0 0
366000.0 586086.0 0
370000.0 586132.0 0
374000.0 586126.0 0
378000.0 586073.0 0
382000.0 585987.0 0
386000.0 585977.0 0
390000.0 585982.0 0
394000.0 586004.0 0
398000.0 586026.0 0
102000.0 590026.0 0
106000.0 590004.0 0
110000.0 589981.0 0
114000.0 589976.0 0
118000.0 589986.0 0
122000.0 590071.0 0
126000.0 590123.0 0
130000.0 590130.0 0
134000.0 590085.0 0
138000.0 590093.0 0
142000.0 590106.0 0
146000.0 590138.0 0
150000.0 590132.0 0
154000.0 590142.0 0
158000.0 590125.0 0
162000.0 590134.0 0
166000.0 590113.0 0
170000.0 590106.0 0
174000.0 590058.0 0
178000.0 590039.0 0
182000.0 589974.0 0
186000.0 590002.0 0
190000.0 589914.0 0
194000.0 589972.0 0
198000.0 589870.0 0
202000.0 590012.0 0
206000.0 589863.0 0
210000.0 590019.0 0
214000.0 589863.0 0
218000.0 590051.0 0
222000.0 589863.0 0
226000.0 590052.0 0
230000.0 589866.0 0
234000.0 590038.0 0
238000.0 589876.0 0
242000.0 590130.0 0
246000.0 589863.0 0
250000.0 590380.0 0
254000.0 589929.0 0
258000.0 590094.0 0
262000.0 589863.0 0
266000.0 590022.0 0
270000.0 589863.0 0
274000.0 590028.0 0
278000.0 589863.0 0
282000.0 590024.0 0
286000.0 589863.0 0
290000.0 589996.0 0
294000.0 589863.0 0
298000.0 589998.0 0
302000.0 589863.0 0
306000.0 589959.0 0
310000.0 589905.0 0
314000.0 589995.0 0
318000.0 589968.0 0
322000.0 590034.0 0
326000.0 590054.0 0
330000.0 590102.0 0
334000.0 590110.0 0
338000.0 590131.0 0
342000.0 590124.0 0
346000.0 590143.0 0
350000.0 590133.0 0
354000.0 590138.0 0
358000.0 590106.0 0
362000.0 590094.0 0
366000.0 590085.0 0
370000.0 590131.0 0
374000.0 590124.0 0
378000.0 590071.0 0
382000.0 589986.0 0
386000.0 589976.0 0
390000.0 589981.0 0
394000.0 590004.0 0
398000.0 590026.0 0
POINT_DATA 4650
SCALARS Radius float 1
LOOKUP_TABLE default
4000.0 4000.0 4000.0 4000.0 4000.0 4000.0 4000.0 4000.0 4000.0 4000.0 4000.0 4000.0 4000.0 4000.0 4000.0 4000.0 4000.0 4000.0 4000.0 4000.0 4000.0 4000.0 4000.0 4000.0 4000.0 4000.0 4000.0 4000.0 4000.0 4000.0 4000.0 4000.0 4000.0 4000.0 4000.0 4000.0 4000.0 4000.0 4000.0 4000.0 4000.0 4000.0 4000.0 4000.0 4000.0 4000.0 4000.0 4000.0 4000.0 4000.0 4000.0 4000.0 4000.0 4000.0 4000.0 4000.0 4000.0 4000.0 4000.0 4000.0 4000.0 4000.0 4000.0 4000.0 4000.0 4000.0 4000.0 4000.0 4000.0 4000.0 4000.0 4000.0 4000.0 4000.0 4000.0 4000.0 4000.0 4000.0 4000.0 4000.0 4000.0 4000.0 4000.0 4000.0 4000.0 4000.0 4000.0 4000.0 4000.0 4000.0 4000.0 4000.0 4000.0 4000.0 4000.0 4000.0 4000.0 4000.0 4000.0 4000.0 4000.0 4000.0 4000.0 4000.0 4000.0 4000.0 4000.0 4000.0 4000.0 4000.0 4000.0 4000.0 4000.0 4000.0 4000.0 4000.0 4000.0 4000.0 4000.0 4000.0 4000.0 4000.0 4000.0 4000.0 4000.0 4000.0 4000.0 4000.0 4000.0 4000.0 4000.0 4000.0 4000.0 4000.0 4000.0 4000.0 4000.0 4000.0 4000.0 4000.0 4000.0 4000.0 4000.0 4000.0 4000.0 4000.0 4000.0 4000.0 4000.0 4000.0 4000.0 4000.0 4000.0 4000.0 4000.0 4000.0 4000.0 4000.0 4000.0 4000.0 4000.0 4000.0 4000.0 4000.0 4000.0 4000.0 4000.0 4000.0 4000.0 4000.0 4000.0 4000.0 4000.0 4000.0 4000.0 4000.0 4000.0 4000.0 4000.0 4000.0 4000.0 4000.0 4000.0 4000.0 4000.0 4000.0 4000.0 4000.0 4000.0 4000.0 4000.0 4000.0 4000.0 4000.0 4000.0 4000.0 4000.0 4000.0 4000.0 4000.0 4000.0 4000.0 4000.0 4000.0 4000.0 4000.0 4000.0 4000.0 4000.0 4000.0 4000.0 4000.0 4000.0 4000.0 4000.0 4000.0 4000.0 4000.0 4000.0 4000.0 4000.0 4000.0 4000.0 4000.0 4000.0 4000.0 4000.0 4000.0 4000.0 4000.0 4000.0 4000.0 4000.0 4000.0 4000.0 4000.0 4000.0 4000.0 4000.0 4000.0 4000.0 4000.0 4000.0 4000.0 4000.0 4000.0 4000.0 4000.0 4000.0 4000.0 4000.0 4000.0 4000.0 4000.0 4000.0 4000.0 4000.0 4000.0 4000.0 4000.0 4000.0 4000.0 4000.0 4000.0 4000.0 4000.0 4000.0 4000.0 4000.0 4000.0 4000.0 4000.0 4000.0 4000.0 4000.0 4000.0 4000.0 4000.0 4000.0 4000.0 4000.0 4000.0 4000.0 4000.0 4000.0 4000.0 4000.0 4000.0 4000.0 4000.0 4000.0 4000.0 4000.0 4000.0 4000.0 4000.0 4000.0 4000.0 4000.0 4000.0 4000.0 4000.0 4000.0 4000.0 4000.0 4000.0 4000.0 4000.0 4000.0 4000.0 4000.0 4000.0 4000.0 4000.0 4000.0 4000.0 4000.0 4000.0 4000.0 4000.0 4000.0 4000.0 4000.0 4000.0 4000.0 4000.0 4000.0 4000.0 4000.0 4000.0 4000.0 4000.0 4000.0 4000.0 4000.0 4000.0 4000.0 4000.0 4000.0 4000.0 4000.0 4000.0 4000.0 4000.0 4000.0 4000.0 4000.0 4000.0 4000.0 4000.0 4000.0 4000.0 4000.0 4000.0 4000.0 4000.0 4000.0 4000.0 4000.0 4000.0 4000.0 4000.0 4000.0 4000.0 4000.0 4000.0 4000.0 4000.0 4000.0 4000.0 4000.0 4000.0 4000.0 4000.0 4000.0 4000.0 4000.0 4000.0 4000.0 4000.0 4000.0 4000.0 4000.0 4000.0 4000.0 4000.0 4000.0 4000.0 4000.0 4000.0 4000.0 4000.0 4000.0 4000.0 4000.0 4000.0 4000.0 4000.0 4000.0 4000.0 4000.0 4000.0 4000.0 4000.0 4000.0 4000.0 4000.0 4000.0 4000.0 4000.0 4000.0 4000.0 4000.0 4000.0 4000.0 4000.0 4000.0 4000.0 4000.0 4000.0 4000.0 4000.0 4000.0 4000.0 4000.0 4000.0 4000.0 4000.0 4000.0 4000.0 4000.0 4000.0 4000.0 4000.0 4000.0 4000.0 4000.0 4000.0 4000.0 4000.0 4000.0 4000.0 4000.0 4000.0 4000.0 4000.0 4000.0 4000.0 4000.0 4000.0 4000.0 4000.0 4000.0 4000.0 4000.0 4000.0 4000.0 4000.0 4000.0 4000.0 4000.0 4000.0 4000.0 4000.0 4000.0 4000.0 4000.0 4000.0 4000.0 4000.0 4000.0 4000.0 4000.0 4000.0 4000.0 4000.0 4000.0 4000.0 4000.0 4000.0 4000.0 4000.0 4000.0 4000.0 4000.0 4000.0 4000.0 4000.0 4000.0 4000.0 4000.0 4000.0 4000.0 4000.0 4000.0 4000.0 4000.0 4000.0 4000.0 4000.0 4000.0 4000.0 4000.0 4000.0 4000.0 4000.0 4000.0 4000.0 4000.0 4000.0 4000.0 4000.0 4000.0 4000.0 4000.0 4000.0 4000.0 4000.0 4000.0 4000.0 4000.0 4000.0 4000.0 4000.0 4000.0 4000.0 4000.0 4000.0 4000.0 4000.0 4000.0 4000.0 4000.0 4000.0 4000.0 4000.0 4000.0 4000.0 4000.0 4000.0 4000.0 4000.0 4000.0 4000.0 4000.0 4000.0 4000.0 4000.0 4000.0 4000.0 4000.0 4000.0 4000.0 4000.0 4000.0 4000.0 4000.0 4000.0 4000.0 4000.0 4000.0 4000.0 4000.0 4000.0 4000.0 4000.0 4000.0 4000.0 4000.0 4000.0 4000.0 4000.0 4000.0 4000.0 4000.0 4000.0 4000.0 4000.0 4000.0 4000.0 4000.0 4000.0 4000.0 4000.0 4000.0 4000.0 4000.0 4000.0 4000.0 4000.0 4000.0 4000.0 4000.0 4000.0 4000.0 4000.0 4000.0 4000.0 4000.0 4000.0 4000.0 4000.0 4000.0 4000.0 4000.0 4000.0 4000.0 4000.0 4000.0 4000.0 4000.0 4000.0 4000.0 4000.0 4000.0 4000.0 4000.0 4000.0 4000.0 4000.0 4000.0 4000.0 4000.0 4000.0 4000.0 4000.0 4000.0 4000.0 4000.0 4000.0 4000.0 4000.0 4000.0 4000.0 4000.0 4000.0 4000.0 4000.0 4000.0 4000.0 4000.0 4000.0 4000.0 4000.0 4000.0 4000.0 4000.0 4000.0 4000.0 4000.0 4000.0 4000.0 4000.0 4000.0 4000.0 4000.0 4000.0 4000.0 4000.0 4000.0 4000.0 4000.0 4000.0 4000.0 4000.0 4000.0 4000.0 4000.0 4000.0 4000.0 4000.0 4000.0 4000.0 4000.0 4000.0 4000.0 4000.0 4000.0 4000.0 4000.0 4000.0 4000.0 4000.0 4000.0 4000.0 4000.0 4000.0 4000.0 4000.0 4000.0 4000.0 4000.0 4000.0 4000.0 4000.0 4000.0 4000.0 4000.0 4000.0 4000.0 4000.0 4000.0 4000.0 4000.0 4000.0 4000.0 4000.0 4000.0 4000.0 4000.0 4000.0 4000.0 4000.0 4000.0 4000.0 4000.0 4000.0 4000.0 4000.0 4000.0 4000.0 4000.0 4000.0 4000.0 4000.0 4000.0 4000.0 4000.0 4000.0 4000.0 4000.0 4000.0 4000.0 4000.0 4000.0 4000.0 4000.0 4000.0 4000.0 4000.0 4000.0 4000.0 4000.0 4000.0 4000.0 4000.0 4000.0 4000.0 4000.0 4000.0 4000.0 4000.0 4000.0 4000.0 4000.0 4000.0 4000.0 4000.0 4000.0 4000.0 4000.0 4000.0 4000.0 4000.0 4000.0 4000.0 4000.0 4000.0 4000.0 4000.0 4000.0 4000.0 4000.0 4000.0 4000.0 4000.0 4000.0 4000.0 4000.0 4000.0 4000.0 4000.0 4000.0 4000.0 4000.0 4000.0 4000.0 4000.0 4000.0 4000.0 4000.0 4000.0 4000.0 4000.0 4000.0 4000.0 4000.0 4000.0 4000.0 4000.0 4000.0 4000.0 4000.0 4000.0 4000.0 4000.0 4000.0 4000.0 4000.0 4000.0 4000.0 4000.0 4000.0 4000.0 4000.0 4000.0 4000.0 4000.0 4000.0 4000.0 4000.0 4000.0 4000.0 4000.0 4000.0 4000.0 4000.0 4000.0 4000.0 4000.0 4000.0 4000.0 4000.0 4000.0 4000.0 4000.0 4000.0 4000.0 4000.0 4000.0 4000.0 4000.0 4000.0 4000.0 4000.0 4000.0 4000.0 4000.0 4000.0 4000.0 4000.0 4000.0 4000.0 4000.0 4000.0 4000.0 4000.0 4000.0 4000.0 4000.0 4000.0 4000.0 4000.0 4000.0 4000.0 4000.0 4000.0 4000.0 4000.0 4000.0 4000.0 4000.0 4000.0 4000.0 4000.0 4000.0 4000.0 4000.0 4000.0 4000.0 4000.0 4000.0 4000.0 4000.0 4000.0 4000.0 4000.0 4000.0 4000.0 4000.0 4000.0 4000.0 4000.0 4000.0 4000.0 4000.0 4000.0 4000.0 4000.0 4000.0 4000.0 4000.0 4000.0 4000.0 4000.0 4000.0 4000.0 4000.0 4000.0 4000.0 4000.0 4000.0 4000.0 4000.0 4000.0 4000.0 4000.0 4000.0 4000.0 4000.0 4000.0 4000.0 4000.0 4000.0 4000.0 4000.0 4000.0 4000.0 4000.0 4000.0 4000.0 4000.0 4000.0 4000.0 4000.0 4000.0 4000.0 4000.0 4000.0 4000.0 4000.0 4000.0 4000.0 4000.0 4000.0 4000.0 4000.0 4000.0 4000.0 4000.0 4000.0 4000.0 4000.0 4000.0 4000.0 4000.0 4000.0 4000.0 4000.0 4000.0 4000.0 4000.0 4000.0 4000.0 4000.0 4000.0 4000.0 4000.0 4000.0 4000.0 4000.0 4000.0 4000.0 4000.0 4000.0 4000.0 4000.0 4000.0 4000.0 4000.0 4000.0 4000.0 4000.0 4000.0 4000.0 4000.0 4000.0 4000.0 4000.0 4000.0 4000.0 4000.0 4000.0 4000.0 4000.0 4000.0 4000.0 4000.0 4000.0 4000.0 4000.0 4000.0 4000.0 4000.0 4000.0 4000.0 4000.0 4000.0 4000.0 4000.0 4000.0 4000.0 4000.0 4000.0 4000.0 4000.0 4000.0 4000.0 4000.0 4000.0 4000.0 4000.0 4000.0 4000.0 4000.0 4000.0 4000.0 4000.0 4000.0 4000.0 4000.0 4000.0 4000.0 4000.0 4000.0 4000.0 4000.0 4000.0 4000.0 4000.0 4000.0 4000.0 4000.0 4000.0 4000.0 4000.0 4000.0 4000.0 4000.0 4000.0 4000.0 4000.0 4000.0 4000.0 4000.0 4000.0 4000.0 4000.0 4000.0 4000.0 4000.0 4000.0 4000.0 4000.0 4000.0 4000.0 4000.0 4000.0 4000.0 4000.0 4000.0 4000.0 4000.0 4000.0 4000.0 4000.0 4000.0 4000.0 4000.0 4000.0 4000.0 4000.0 4000.0 4000.0 4000.0 4000.0 4000.0 4000.0 4000.0 4000.0 4000.0 4000.0 4000.0 4000.0 4000.0 4000.0 4000.0 4000.0 4000.0 4000.0 4000.0 4000.0 4000.0 4000.0 4000.0 4000.0 4000.0 4000.0 4000.0 4000.0 4000.0 4000.0 4000.0 4000.0 4000.0 4000.0 4000.0 4000.0 4000.0 4000.0 4000.0 4000.0 4000.0 4000.0 4000.0 4000.0 4000.0 4000.0 4000.0 4000.0 4000.0 4000.0 4000.0 4000.0 4000.0 4000.0 4000.0 4000.0 4000.0 4000.0 4000.0 4000.0 4000.0 4000.0 4000.0 4000.0 4000.0 4000.0 4000.0 4000.0 4000.0 4000.0 4000.0 4000.0 4000.0 4000.0 4000.0 4000.0 4000.0 4000.0 4000.0 4000.0 4000.0 4000.0 4000.0 4000.0 4000.0 4000.0 4000.0 4000.0 4000.0 4000.0 4000.0 4000.0 4000.0 4000.0 4000.0 4000.0 4000.0 4000.0 4000.0 4000.0 4000.0 4000.0 4000.0 4000.0 4000.0 4000.0 4000.0 4000.0 4000.0 4000.0 4000.0 4000.0 4000.0 4000.0 4000.0 4000.0 4000.0 4000.0 4000.0 4000.0 4000.0 4000.0 4000.0 4000.0 4000.0 4000.0 4000.0 4000.0 4000.0 4000.0 4000.0 4000.0 4000.0 4000.0 4000.0 4000.0 4000.0 4000.0 4000.0 4000.0 4000.0 4000.0 4000.0 4000.0 4000.0 4000.0 4000.0 4000.0 4000.0 4000.0 4000.0 4000.0 4000.0 4000.0 4000.0 4000.0 4000.0 4000.0 4000.0 4000.0 4000.0 4000.0 4000.0 4000.0 4000.0 4000.0 4000.0 4000.0 4000.0 4000.0 4000.0 4000.0 4000.0 4000.0 4000.0 4000.0 4000.0 4000.0 4000.0 4000.0 4000.0 4000.0 4000.0 4000.0 4000.0 4000.0 4000.0 4000.0 4000.0 4000.0 4000.0 4000.0 4000.0 4000.0 4000.0 4000.0 4000.0 4000.0 4000.0 4000.0 4000.0 4000.0 4000.0 4000.0 4000.0 4000.0 4000.0 4000.0 4000.0 4000.0 4000.0 4000.0 4000.0 4000.0 4000.0 4000.0 4000.0 4000.0 4000.0 4000.0 4000.0 4000.0 4000.0 4000.0 4000.0 4000.0 4000.0 4000.0 4000.0 4000.0 4000.0 4000.0 4000.0 4000.0 4000.0 4000.0 4000.0 4000.0 4000.0 4000.0 4000.0 4000.0 4000.0 4000.0 4000.0 4000.0 4000.0 4000.0 4000.0 4000.0 4000.0 4000.0 4000.0 4000.0 4000.0 4000.0 4000.0 4000.0 4000.0 4000.0 4000.0 4000.0 4000.0 4000.0 4000.0 4000.0 4000.0 4000.0 4000.0 4000.0 4000.0 4000.0 4000.0 4000.0 4000.0 4000.0 4000.0 4000.0 4000.0 4000.0 4000.0 4000.0 4000.0 4000.0 4000.0 4000.0 4000.0 4000.0 4000.0 4000.0 4000.0 4000.0 4000.0 4000.0 4000.0 4000.0 4000.0 4000.0 4000.0 4000.0 4000.0 4000.0 4000.0 4000.0 4000.0 4000.0 4000.0 4000.0 4000.0 4000.0 4000.0 4000.0 4000.0 4000.0 4000.0 4000.0 4000.0 4000.0 4000.0 4000.0 4000.0 4000.0 4000.0 4000.0 4000.0 4000.0 4000.0 4000.0 4000.0 4000.0 4000.0 4000.0 4000.0 4000.0 4000.0 4000.0 4000.0 4000.0 4000.0 4000.0 4000.0 4000.0 4000.0 4000.0 4000.0 4000.0 4000.0 4000.0 4000.0 4000.0 4000.0 4000.0 4000.0 4000.0 4000.0 4000.0 4000.0 4000.0 4000.0 4000.0 4000.0 4000.0 4000.0 4000.0 4000.0 4000.0 4000.0 4000.0 4000.0 4000.0 4000.0 4000.0 4000.0 4000.0 4000.0 4000.0 4000.0 4000.0 4000.0 4000.0 4000.0 4000.0 4000.0 4000.0 4000.0 4000.0 4000.0 4000.0 4000.0 4000.0 4000.0 4000.0 4000.0 4000.0 4000.0 4000.0 4000.0 4000.0 4000.0 4000.0 4000.0 4000.0 4000.0 4000.0 4000.0 4000.0 4000.0 4000.0 4000.0 4000.0 4000.0 4000.0 4000.0 4000.0 4000.0 4000.0 4000.0 4000.0 4000.0 4000.0 4000.0 4000.0 4000.0 4000.0 4000.0 4000.0 4000.0 4000.0 4000.0 4000.0 4000.0 4000.0 4000.0 4000.0 4000.0 4000.0 4000.0 4000.0 4000.0 4000.0 4000.0 4000.0 4000.0 4000.0 4000.0 4000.0 4000.0 4000.0 4000.0 4000.0 4000.0 4000.0 4000.0 4000.0 4000.0 4000.0 4000.0 4000.0 4000.0 4000.0 4000.0 4000.0 4000.0 4000.0 4000.0 4000.0 4000.0 4000.0 4000.0 4000.0 4000.0 4000.0 4000.0 4000.0 4000.0 4000.0 4000.0 4000.0 4000.0 4000.0 4000.0 4000.0 4000.0 4000.0 4000.0 4000.0 4000.0 4000.0 4000.0 4000.0 4000.0 4000.0 4000.0 4000.0 4000.0 4000.0 4000.0 4000.0 4000.0 4000.0 4000.0 4000.0 4000.0 4000.0 4000.0 4000.0 4000.0 4000.0 4000.0 4000.0 4000.0 4000.0 4000.0 4000.0 4000.0 4000.0 4000.0 4000.0 4000.0 4000.0 4000.0 4000.0 4000.0 4000.0 4000.0 4000.0 4000.0 4000.0 4000.0 4000.0 4000.0 4000.0 4000.0 4000.0 4000.0 4000.0 4000.0 4000.0 4000.0 4000.0 4000.0 4000.0 4000.0 4000.0 4000.0 4000.0 4000.0 4000.0 4000.0 4000.0 4000.0 4000.0 4000.0 4000.0 4000.0 4000.0 4000.0 4000.0 4000.0 4000.0 4000.0 4000.0 4000.0 4000.0 4000.0 4000.0 4000.0 4000.0 4000.0 4000.0 4000.0 4000.0 4000.0 4000.0 4000.0 4000.0 4000.0 4000.0 4000.0 4000.0 4000.0 4000.0 4000.0 4000.0 4000.0 4000.0 4000.0 4000.0 4000.0 4000.0 4000.0 4000.0 4000.0 4000.0 4000.0 4000.0 4000.0 4000.0 4000.0 4000.0 4000.0 4000.0 4000.0 4000.0 4000.0 4000.0 4000.0 4000.0 4000.0 4000.0 4000.0 4000.0 4000.0 4000.0 4000.0 4000.0 4000.0 4000.0 4000.0 4000.0 4000.0 4000.0 4000.0 4000.0 4000.0 4000.0 4000.0 4000.0 4000.0 4000.0 4000.0 4000.0 4000.0 4000.0 4000.0 4000.0 4000.0 4000.0 4000.0 4000.0 4000.0 4000.0 4000.0 4000.0 4000.0 4000.0 4000.0 4000.0 4000.0 4000.0 4000.0 4000.0 4000.0 4000.0 4000.0 4000.0 4000.0 4000.0 4000.0 4000.0 4000.0 4000.0 4000.0 4000.0 4000.0 4000.0 4000.0 4000.0 4000.0 4000.0 4000.0 4000.0 4000.0 4000.0 4000.0 4000.0 4000.0 4000.0 4000.0 4000.0 4000.0 4000.0 4000.0 4000.0 4000.0 4000.0 4000.0 4000.0 4000.0 4000.0 4000.0 4000.0 4000.0 4000.0 4000.0 4000.0 4000.0 4000.0 4000.0 4000.0 4000.0 4000.0 4000.0 4000.0 4000.0 4000.0 4000.0 4000.0 4000.0 4000.0 4000.0 4000.0 4000.0 4000.0 4000.0 4000.0 4000.0 4000.0 4000.0 4000.0 4000.0 4000.0 4000.0 4000.0 4000.0 4000.0 4000.0 4000.0 4000.0 4000.0 4000.0 4000.0 4000.0 4000.0 4000.0 4000.0 4000.0 4000.0 4000.0 4000.0 4000.0 4000.0 4000.0 4000.0 4000.0 4000.0 4000.0 4000.0 4000.0 4000.0 4000.0 4000.0 4000.0 4000.0 4000.0 4000.0 4000.0 4000.0 4000.0 4000.0 4000.0 4000.0 4000.0 4000.0 4000.0 4000.0 4000.0 4000.0 4000.0 4000.0 4000.0 4000.0 4000.0 4000.0 4000.0 4000.0 4000.0 4000.0 4000.0 4000.0 4000.0 4000.0 4000.0 4000.0 4000.0 4000.0 4000.0 4000.0 4000.0 4000.0 4000.0 4000.0 4000.0 4000.0 4000.0 4000.0 4000.0 4000.0 4000.0 4000.0 4000.0 4000.0 4000.0 4000.0 4000.0 4000.0 4000.0 4000.0 4000.0 4000.0 4000.0 4000.0 4000.0 4000.0 4000.0 4000.0 4000.0 4000.0 4000.0 4000.0 4000.0 4000.0 4000.0 4000.0 4000.0 4000.0 4000.0 4000.0 4000.0 4000.0 4000.0 4000.0 4000.0 4000.0 4000.0 4000.0 4000.0 4000.0 4000.0 4000.0 4000.0 4000.0 4000.0 4000.0 4000.0 4000.0 4000.0 4000.0 4000.0 4000.0 4000.0 4000.0 4000.0 4000.0 4000.0 4000.0 4000.0 4000.0 4000.0 4000.0 4000.0 4000.0 4000.0 4000.0 4000.0 4000.0 4000.0 4000.0 4000.0 4000.0 4000.0 4000.0 4000.0 4000.0 4000.0 4000.0 4000.0 4000.0 4000.0 4000.0 4000.0 4000.0 4000.0 4000.0 4000.0 4000.0 4000.0 4000.0 4000.0 4000.0 4000.0 4000.0 4000.0 4000.0 4000.0 4000.0 4000.0 4000.0 4000.0 4000.0 4000.0 4000.0 4000.0 4000.0 4000.0 4000.0 4000.0 4000.0 4000.0 4000.0 4000.0 4000.0 4000.0 4000.0 4000.0 4000.0 4000.0 4000.0 4000.0 4000.0 4000.0 4000.0 4000.0 4000.0 4000.0 4000.0 4000.0 4000.0 4000.0 4000.0 4000.0 4000.0 4000.0 4000.0 4000.0 4000.0 4000.0 4000.0 4000.0 4000.0 4000.0 4000.0 4000.0 4000.0 4000.0 4000.0 4000.0 4000.0 4000.0 4000.0 4000.0 4000.0 4000.0 4000.0 4000.0 4000.0 4000.0 4000.0 4000.0 4000.0 4000.0 4000.0 4000.0 4000.0 4000.0 4000.0 4000.0 4000.0 4000.0 4000.0 4000.0 4000.0 4000.0 4000.0 4000.0 4000.0 4000.0 4000.0 4000.0 4000.0 4000.0 4000.0 4000.0 4000.0 4000.0 4000.0 4000.0 4000.0 4000.0 4000.0 4000.0 4000.0 4000.0 4000.0 4000.0 4000.0 4000.0 4000.0 4000.0 4000.0 4000.0 4000.0 4000.0 4000.0 4000.0 4000.0 4000.0 4000.0 4000.0 4000.0 4000.0 4000.0 4000.0 4000.0 4000.0 4000.0 4000.0 4000.0 4000.0 4000.0 4000.0 4000.0 4000.0 4000.0 4000.0 4000.0 4000.0 4000.0 4000.0 4000.0 4000.0 4000.0 4000.0 4000.0 4000.0 4000.0 4000.0 4000.0 4000.0 4000.0 4000.0 4000.0 4000.0 4000.0 4000.0 4000.0 4000.0 4000.0 4000.0 4000.0 4000.0 4000.0 4000.0 4000.0 4000.0 4000.0 4000.0 4000.0 4000.0 4000.0 4000.0 4000.0 4000.0 4000.0 4000.0 4000.0 4000.0 4000.0 4000.0 4000.0 4000.0 4000.0 4000.0 4000.0 4000.0 4000.0 4000.0 4000.0 4000.0 4000.0 4000.0 4000.0 4000.0 4000.0 4000.0 4000.0 4000.0 4000.0 4000.0 4000.0 4000.0 4000.0 4000.0 4000.0 4000.0 4000.0 4000.0 4000.0 4000.0 4000.0 4000.0 4000.0 4000.0 4000.0 4000.0 4000.0 4000.0 4000.0 4000.0 4000.0 4000.0 4000.0 4000.0 4000.0 4000.0 4000.0 4000.0 4000.0 4000.0 4000.0 4000.0 4000.0 4000.0 4000.0 4000.0 4000.0 4000.0 4000.0 4000.0 4000.0 4000.0 4000.0 4000.0 4000.0 4000.0 4000.0 4000.0 4000.0 4000.0 4000.0 4000.0 4000.0 4000.0 4000.0 4000.0 4000.0 4000.0 4000.0 4000.0 4000.0 4000.0 4000.0 4000.0 4000.0 4000.0 4000.0 4000.0 4000.0 4000.0 4000.0 4000.0 4000.0 4000.0 4000.0 4000.0 4000.0 4000.0 4000.0 4000.0 4000.0 4000.0 4000.0 4000.0 4000.0 4000.0 4000.0 4000.0 4000.0 4000.0 4000.0 4000.0 4000.0 4000.0 4000.0 4000.0 4000.0 4000.0 4000.0 4000.0 4000.0 4000.0 4000.0 4000.0 4000.0 4000.0 4000.0 4000.0 4000.0 4000.0 4000.0 4000.0 4000.0 4000.0 4000.0 4000.0 4000.0 4000.0 4000.0 4000.0 4000.0 4000.0 4000.0 4000.0 4000.0 4000.0 4000.0 4000.0 4000.0 4000.0 4000.0 4000.0 4000.0 4000.0 4000.0 4000.0 4000.0 4000.0 4000.0 4000.0 4000.0 4000.0 4000.0 4000.0 4000.0 4000.0 4000.0 4000.0 4000.0 4000.0 4000.0 4000.0 4000.0 4000.0 4000.0 4000.0 4000.0 4000.0 4000.0 4000.0 4000.0 4000.0 4000.0 4000.0 4000.0 4000.0 4000.0 4000.0 4000.0 4000.0 4000.0 4000.0 4000.0 4000.0 4000.0 4000.0 4000.0 4000.0 4000.0 4000.0 4000.0 4000.0 4000.0 4000.0 4000.0 4000.0 4000.0 4000.0 4000.0 4000.0 4000.0 4000.0 4000.0 4000.0 4000.0 4000.0 4000.0 4000.0 4000.0 4000.0 4000.0 4000.0 4000.0 4000.0 4000.0 4000.0 4000.0 4000.0 4000.0 4000.0 4000.0 4000.0 4000.0 4000.0 4000.0 4000.0 4000.0 4000.0 4000.0 4000.0 4000.0 4000.0 4000.0 4000.0 4000.0 4000.0 4000.0 4000.0 4000.0 4000.0 4000.0 4000.0 4000.0 4000.0 4000.0 4000.0 4000.0 4000.0 4000.0 4000.0 4000.0 4000.0 4000.0 4000.0 4000.0 4000.0 4000.0 4000.0 4000.0 4000.0 4000.0 4000.0 4000.0 4000.0 4000.0 4000.0 4000.0 4000.0 4000.0 4000.0 4000.0 4000.0 4000.0 4000.0 4000.0 4000.0 4000.0 4000.0 4000.0 4000.0 4000.0 4000.0 4000.0 4000.0 4000.0 4000.0 4000.0 4000.0 4000.0 4000.0 4000.0 4000.0 4000.0 4000.0 4000.0 4000.0 4000.0 4000.0 4000.0 4000.0 4000.0 4000.0 4000.0 4000.0 4000.0 4000.0 4000.0 4000.0 4000.0 4000.0 4000.0 4000.0 4000.0 4000.0 4000.0 4000.0 4000.0 4000.0 4000.0 4000.0 4000.0 4000.0 4000.0 4000.0 4000.0 4000.0 4000.0 4000.0 4000.0 4000.0 4000.0 4000.0 4000.0 4000.0 4000.0 4000.0 4000.0 4000.0 4000.0 4000.0 4000.0 4000.0 4000.0 4000.0 4000.0 4000.0 4000.0 4000.0 4000.0 4000.0 4000.0 4000.0 4000.0 4000.0 4000.0 4000.0 4000.0 4000.0 4000.0 4000.0 4000.0 4000.0 4000.0 4000.0 4000.0 4000.0 4000.0 4000.0 4000.0 4000.0 4000.0 4000.0 4000.0 4000.0 4000.0 4000.0 4000.0 4000.0 4000.0 4000.0 4000.0 4000.0 4000.0 4000.0 4000.0 4000.0 4000.0 4000.0 4000.0 4000.0 4000.0 4000.0 4000.0 4000.0 4000.0 4000.0 4000.0 4000.0 4000.0 4000.0 4000.0 4000.0 4000.0 4000.0 4000.0 4000.0 4000.0 4000.0 4000.0 4000.0 4000.0 4000.0 4000.0 4000.0 4000.0 4000.0 4000.0 4000.0 4000.0 4000.0 4000.0 4000.0 4000.0 4000.0 4000.0 4000.0 4000.0 4000.0 4000.0 4000.0 4000.0 4000.0 4000.0 4000.0 4000.0 4000.0 4000.0 4000.0 4000.0 4000.0 4000.0 4000.0 4000.0 4000.0 4000.0 4000.0 4000.0 4000.0 4000.0 4000.0 4000.0 4000.0 4000.0 4000.0 4000.0 4000.0 4000.0 4000.0 4000.0 4000.0 4000.0 4000.0 4000.0 4000.0 4000.0 4000.0 4000.0 4000.0 4000.0 4000.0 4000.0 4000.0 4000.0 4000.0 4000.0 4000.0 4000.0 4000.0 4000.0 4000.0 4000.0 4000.0 4000.0 4000.0 4000.0 4000.0 4000.0 4000.0 4000.0 4000.0 4000.0 4000.0 4000.0 4000.0 4000.0 4000.0 4000.0 4000.0 4000.0 4000.0 4000.0 4000.0 4000.0 4000.0 4000.0 4000.0 4000.0 4000.0 4000.0 4000.0 4000.0 4000.0 4000.0 4000.0 4000.0 4000.0 4000.0 4000.0 4000.0 4000.0 4000.0 4000.0 4000.0 4000.0 4000.0 4000.0 4000.0 4000.0 4000.0 4000.0 4000.0 4000.0 4000.0 4000.0 4000.0 4000.0 4000.0 4000.0 4000.0 4000.0 4000.0 4000.0 4000.0 4000.0 4000.0 4000.0 4000.0 4000.0 4000.0 4000.0 4000.0 4000.0 4000.0 4000.0 4000.0 4000.0 4000.0 4000.0 4000.0 4000.0 4000.0 4000.0 4000.0 4000.0 4000.0 4000.0 4000.0 4000.0 4000.0 4000.0 4000.0 4000.0 4000.0 4000.0 4000.0 4000.0 4000.0 4000.0 4000.0 4000.0 4000.0 4000.0 4000.0 4000.0 4000.0 4000.0 4000.0 4000.0 4000.0 4000.0 4000.0 4000.0 4000.0 4000.0 4000.0 4000.0 4000.0 4000.0 4000.0 4000.0 4000.0 4000.0 4000.0 4000.0 4000.0 4000.0 4000.0 4000.0 4000.0 4000.0 4000.0 4000.0 4000.0 4000.0 4000.0 4000.0 4000.0 4000.0 4000.0 4000.0 4000.0 4000.0 4000.0 4000.0 4000.0 4000.0 4000.0 4000.0 4000.0 4000.0 4000.0 4000.0 4000.0 4000.0 4000.0 4000.0 4000.0 4000.0 4000.0 4000.0 4000.0 4000.0 4000.0 4000.0 4000.0 4000.0 4000.0 4000.0 4000.0 4000.0 4000.0 4000.0 4000.0 4000.0 4000.0 4000.0 4000.0 4000.0 4000.0 4000.0 4000.0 4000.0 4000.0 4000.0 4000.0 4000.0 4000.0 4000.0 4000.0 4000.0 4000.0 4000.0 4000.0 4000.0 4000.0 4000.0 4000.0 4000.0 4000.0 4000.0 4000.0 4000.0 4000.0 4000.0 4000.0 4000.0 4000.0 4000.0 4000.0 4000.0 4000.0 4000.0 4000.0 4000.0 4000.0 4000.0 4000.0 4000.0 4000.0 4000.0 4000.0 4000.0 4000.0 4000.0 4000.0 4000.0 4000.0 4000.0 4000.0 4000.0 4000.0 4000.0 4000.0 4000.0 4000.0 4000.0 4000.0 4000.0 4000.0 4000.0 4000.0 4000.0 4000.0 4000.0 4000.0 4000.0 4000.0 4000.0 4000.0 4000.0 4000.0 4000.0 4000.0 4000.0 4000.0 4000.0 4000.0 4000.0 4000.0 4000.0 4000.0 4000.0 4000.0 4000.0 4000.0 4000.0 4000.0 4000.0 4000.0 4000.0 4000.0 4000.0 4000.0 4000.0 4000.0 4000.0 4000.0 4000.0 4000.0 4000.0 4000.0 4000.0 4000.0 4000.0 4000.0 4000.0 4000.0 4000.0 4000.0 4000.0 4000.0 4000.0 4000.0 4000.0 4000.0 4000.0 4000.0 4000.0 4000.0 4000.0 4000.0 4000.0 4000.0 4000.0 4000.0 4000.0 4000.0 4000.0 4000.0 4000.0 4000.0 4000.0 4000.0 4000.0 4000.0 4000.0 4000.0 4000.0 4000.0 4000.0 4000.0 4000.0 4000.0 4000.0 4000.0 4000.0 4000.0 4000.0 4000.0 4000.0 4000.0 4000.0 4000.0 4000.0 4000.0 4000.0 4000.0 4000.0 4000.0 4000.0 4000.0 4000.0 4000.0 4000.0 4000.0 4000.0 4000.0 4000.0 4000.0 4000.0 4000.0 4000.0 4000.0 4000.0 4000.0 4000.0 4000.0 4000.0 4000.0 4000.0 4000.0 4000.0 4000.0 4000.0 4000.0 4000.0 4000.0 4000.0 4000.0 4000.0 4000.0 4000.0 4000.0 4000.0 4000.0 4000.0 4000.0 4000.0 4000.0 4000.0 4000.0 4000.0 4000.0 4000.0 4000.0 4000.0 4000.0 4000.0 4000.0 4000.0 4000.0 4000.0 4000.0 4000.0 4000.0 4000.0 4000.0 4000.0 4000.0 4000.0 4000.0 4000.0 4000.0 4000.0 4000.0 4000.0 4000.0 4000.0 4000.0 4000.0 4000.0 4000.0 4000.0 4000.0 4000.0 4000.0 4000.0 4000.0 4000.0 4000.0 4000.0 4000.0 4000.0 4000.0 4000.0 4000.0 4000.0 4000.0 4000.0 4000.0 4000.0 4000.0 4000.0 4000.0 4000.0 4000.0 4000.0 4000.0 4000.0 4000.0 4000.0 4000.0 4000.0 4000.0 4000.0 4000.0 4000.0 4000.0 4000.0 4000.0 4000.0 4000.0 4000.0 4000.0 4000.0 4000.0 4000.0 4000.0 4000.0 4000.0 4000.0 4000.0 4000.0 4000.0 4000.0 4000.0 4000.0 4000.0 4000.0 4000.0 4000.0 4000.0 4000.0 4000.0 4000.0 4000.0 4000.0 4000.0 4000.0 4000.0 4000.0 4000.0 4000.0 4000.0 4000.0 4000.0 4000.0 4000.0 4000.0 4000.0 4000.0 4000.0 4000.0 4000.0 4000.0 4000.0 4000.0 4000.0 4000.0 4000.0 4000.0 4000.0 4000.0 4000.0 4000.0 4000.0 4000.0 4000.0 4000.0 4000.0 4000.0 4000.0 4000.0 4000.0 4000.0 4000.0 4000.0 4000.0 4000.0 4000.0 4000.0 4000.0 4000.0 4000.0 4000.0 4000.0 4000.0 4000.0 4000.0 4000.0 4000.0 4000.0 4000.0 4000.0 4000.0 4000.0 4000.0 4000.0 4000.0 4000.0 4000.0 4000.0 4000.0 4000.0 4000.0 4000.0 4000.0 4000.0 4000.0 4000.0 4000.0 4000.0 4000.0 4000.0 4000.0 4000.0 4000.0 4000.0 4000.0 4000.0 4000.0 4000.0 4000.0 4000.0 4000.0 4000.0 4000.0 4000.0 4000.0 4000.0 4000.0 4000.0 4000.0 4000.0 4000.0 4000.0 4000.0 4000.0 4000.0 4000.0 4000.0 4000.0 4000.0 4000.0 4000.0 4000.0 4000.0 4000.0 4000.0 4000.0 4000.0 4000.0 4000.0 4000.0 4000.0 4000.0 4000.0 4000.0 4000.0 4000.0 4000.0 4000.0 4000.0 4000.0 4000.0 4000.0 4000.0 4000.0 4000.0 4000.0 4000.0 4000.0 4000.0 4000.0 4000.0 4000.0 4000.0 4000.0 4000.0 4000.0 4000.0 4000.0 4000.0 4000.0 4000.0 4000.0 4000.0 4000.0 4000.0 4000.0 4000.0 4000.0 4000.0 4000.0 4000.0 4000.0 4000.0 4000.0 4000.0 4000.0 4000.0 4000.0 4000.0 4000.0 4000.0 4000.0 4000.0 4000.0 4000.0 4000.0 4000.0 4000.0 4000.0 4000.0 4000.0 4000.0 4000.0 4000.0 4000.0 4000.0 4000.0 4000.0 4000.0 4000.0 4000.0 4000.0 4000.0 4000.0 4000.0 4000.0 4000.0 4000.0 4000.0 4000.0 4000.0 4000.0 4000.0 4000.0 4000.0 4000.0 4000.0 4000.0 4000.0 4000.0 4000.0 4000.0 4000.0 4000.0 4000.0 4000.0 4000.0 4000.0 4000.0 4000.0 4000.0 4000.0 4000.0 4000.0 4000.0 4000.0 4000.0 4000.0 4000.0 4000.0 4000.0 4000.0 4000.0 4000.0 4000.0 4000.0 4000.0 4000.0 4000.0 4000.0 4000.0 4000.0 4000.0 4000.0 4000.0 4000.0 4000.0 4000.0 4000.0 4000.0 4000.0 4000.0 4000.0 4000.0 4000.0 4000.0 4000.0 4000.0 4000.0 4000.0 4000.0 4000.0 4000.0 4000.0 4000.0 4000.0 4000.0 4000.0 4000.0 4000.0 4000.0 4000.0 4000.0 4000.0 4000.0 4000.0 4000.0 4000.0 4000.0 4000.0 4000.0 4000.0 4000.0 4000.0 4000.0 4000.0 4000.0 4000.0 4000.0 4000.0 4000.0 4000.0 4000.0 4000.0 4000.0 4000.0 4000.0 4000.0 4000.0 4000.0 4000.0 4000.0 4000.0 4000.0 4000.0 4000.0 4000.0 4000.0 4000.0 4000.0 4000.0 4000.0 4000.0 4000.0 4000.0 4000.0 4000.0 4000.0 4000.0 4000.0 4000.0 4000.0 4000.0 4000.0 4000.0 4000.0 4000.0 4000.0 4000.0 4000.0 4000.0 4000.0 4000.0 4000.0 4000.0 4000.0 4000.0 4000.0 4000.0 4000.0 4000.0 4000.0 4000.0 4000.0 4000.0 4000.0 4000.0 4000.0 4000.0 4000.0 4000.0 4000.0 4000.0 4000.0 4000.0 4000.0 4000.0 4000.0 4000.0 4000.0 4000.0 4000.0 4000.0 4000.0 4000.0 4000.0 4000.0 4000.0 4000.0 4000.0 4000.0 4000.0 4000.0 4000.0 4000.0 4000.0 4000.0 4000.0 4000.0 4000.0 4000.0 4000.0 4000.0 4000.0 4000.0 4000.0 4000.0 4000.0 4000.0 4000.0 4000.0 4000.0 4000.0 4000.0 4000.0 4000.0 4000.0 4000.0 4000.0 4000.0 4000.0 4000.0 4000.0 4000.0 4000.0 4000.0 4000.0 4000.0 4000.0 4000.0 4000.0 4000.0 4000.0 4000.0 4000.0 4000.0 4000.0 4000.0 4000.0 4000.0 4000.0 4000.0 4000.0 4000.0 4000.0 4000.0 4000.0 4000.0 4000.0 4000.0 4000.0 4000.0 4000.0 4000.0 4000.0 4000.0 4000.0 4000.0 4000.0 4000.0 4000.0 4000.0 4000.0 4000.0 4000.0 4000.0 4000.0 4000.0 4000.0 4000.0 4000.0 4000.0 4000.0 4000.0 4000.0 4000.0 4000.0 4000.0 4000.0 4000.0 4000.0 4000.0 4000.0 4000.0 4000.0 4000.0 4000.0 4000.0 4000.0 4000.0 4000.0 4000.0 4000.0 4000.0 4000.0 4000.0 4000.0 4000.0 4000.0 4000.0 4000.0 4000.0 4000.0 4000.0 4000.0 4000.0 4000.0 4000.0 4000.0 4000.0 4000.0 4000.0 4000.0 4000.0 4000.0 4000.0 4000.0 4000.0 4000.0 4000.0 4000.0 4000.0 4000.0 4000.0 4000.0 4000.0 4000.0 4000.0 4000.0 4000.0 4000.0 4000.0 4000.0 4000.0 4000.0 4000.0 4000.0 4000.0 4000.0 4000.0 4000.0 4000.0 4000.0 4000.0 4000.0 4000.0 4000.0 4000.0 4000.0 4000.0 4000.0 4000.0 4000.0 4000.0 4000.0 4000.0 4000.0 4000.0 4000.0 4000.0 4000.0 4000.0 4000.0 4000.0 4000.0 4000.0 4000.0 4000.0 4000.0 4000.0 4000.0 4000.0 4000.0 4000.0 4000.0 4000.0 4000.0 4000.0 4000.0 4000.0 4000.0 4000.0 4000.0 4000.0 4000.0 4000.0 4000.0 4000.0 4000.0 4000.0 4000.0 4000.0 4000.0 4000.0 4000.0 4000.0 4000.0 4000.0 4000.0 4000.0 4000.0 4000.0 4000.0 4000.0 4000.0 4000.0 4000.0 4000.0 4000.0 4000.0 4000.0 4000.0 4000.0 4000.0 4000.0 4000.0 4000.0 4000.0 4000.0 4000.0 4000.0 4000.0 4000.0 4000.0 4000.0 4000.0 4000.0 4000.0 4000.0 4000.0 4000.0 4000.0 4000.0 4000.0 4000.0 4000.0 4000.0 4000.0 4000.0 4000.0 4000.0 4000.0 4000.0 4000.0 4000.0 4000.0 4000.0 4000.0 4000.0 4000.0 4000.0 4000.0 4000.0 4000.0 4000.0 4000.0 4000.0 4000.0 4000.0 4000.0 4000.0 4000.0 4000.0 4000.0 4000.0 4000.0 4000.0 4000.0 4000.0 4000.0 4000.0 4000.0 4000.0 4000.0 4000.0 4000.0 4000.0 4000.0 4000.0 4000.0 4000.0 4000.0 4000.0 4000.0 4000.0 4000.0 4000.0 4000.0 4000.0 4000.0 4000.0 4000.0 4000.0 4000.0 4000.0 4000.0 4000.0 4000.0 4000.0 4000.0 4000.0 4000.0 4000.0 4000.0 4000.0 4000.0 4000.0 4000.0 4000.0 4000.0 4000.0 4000.0 4000.0 4000.0 4000.0 4000.0 4000.0 4000.0 4000.0 4000.0 4000.0 4000.0 4000.0 4000.0 4000.0 4000.0 4000.0 4000.0 4000.0 4000.0 4000.0 4000.0 4000.0 4000.0 4000.0 4000.0 4000.0 4000.0 4000.0 4000.0 4000.0 4000.0 4000.0 4000.0 4000.0 4000.0 4000.0 4000.0 4000.0 4000.0 4000.0 4000.0 4000.0 4000.0 4000.0 4000.0 4000.0 4000.0 4000.0 4000.0 4000.0 4000.0 4000.0 4000.0 4000.0 4000.0 4000.0 4000.0 4000.0 4000.0 4000.0 4000.0 4000.0 4000.0 4000.0 4000.0 4000.0 4000.0 4000.0 4000.0 4000.0 4000.0 4000.0 4000.0 4000.0 4000.0 4000.0 4000.0 4000.0 4000.0 4000.0 4000.0 4000.0 4000.0 4000.0 4000.0 4000.0 4000.0 4000.0 4000.0 4000.0 4000.0 4000.0 4000.0 4000.0 4000.0 4000.0 4000.0 4000.0 4000.0 4000.0 4000.0 4000.0 4000.0 4000.0 4000.0 4000.0 4000.0 4000.0 4000.0 4000.0 4000.0 4000.0 4000.0 4000.0 4000.0 4000.0 4000.0 4000.0 4000.0 4000.0 4000.0 4000.0 4000.0 4000.0 4000.0 4000.0 4000.0 4000.0 4000.0 4000.0 4000.0 4000.0 4000.0 4000.0 4000.0 4000.0 4000.0 4000.0 4000.0 4000.0 4000.0 4000.0 4000.0 4000.0 4000.0 4000.0 4000.0 4000.0 4000.0 4000.0 4000.0 4000.0 4000.0 4000.0 4000.0 4000.0 4000.0 4000.0 4000.0 4000.0 4000.0 4000.0 4000.0 4000.0 4000.0 4000.0 4000.0 4000.0 4000.0 4000.0 4000.0 4000.0 4000.0 4000.0 4000.0 4000.0 4000.0 4000.0 4000.0 4000.0 4000.0 4000.0 4000.0 4000.0 4000.0 4000.0 4000.0 4000.0 4000.0 4000.0 4000.0 4000.0 4000.0 4000.0 4000.0 4000.0 4000.0 4000.0 4000.0 4000.0 4000.0 4000.0 4000.0 4000.0 4000.0 4000.0 4000.0 4000.0 4000.0 4000.0 4000.0 4000.0 4000.0 4000.0 4000.0 4000.0 4000.0 4000.0 4000.0 4000.0 4000.0 4000.0 4000.0 4000.0 4000.0 4000.0 4000.0 4000.0 4000.0 4000.0 4000.0 4000.0 4000.0 4000.0 4000.0 4000.0 4000.0 4000.0 4000.0 4000.0 4000.0 4000.0 4000.0 4000.0 4000.0 4000.0 4000.0 4000.0 4000.0 4000.0 4000.0 4000.0 4000.0 4000.0 4000.0 4000.0 4000.0 4000.0 4000.0 4000.0 4000.0 4000.0 4000.0 4000.0 4000.0 4000.0 4000.0 4000.0 4000.0 4000.0 4000.0 4000.0 4000.0 4000.0 4000.0 4000.0 4000.0 4000.0 4000.0 4000.0 4000.0 4000.0 4000.0 4000.0 4000.0 4000.0 4000.0 4000.0 4000.0 4000.0 4000.0 4000.0 4000.0 4000.0 4000.0 4000.0 4000.0 4000.0 4000.0 4000.0 4000.0 4000.0 4000.0 4000.0 4000.0 4000.0 4000.0 4000.0 4000.0 4000.0 4000.0 4000.0 4000.0 4000.0 4000.0 4000.0 4000.0 4000.0 4000.0 4000.0 4000.0 4000.0 4000.0 4000.0 4000.0 4000.0 4000.0 4000.0 4000.0 4000.0 4000.0 4000.0 4000.0 4000.0 4000.0 4000.0 4000.0 4000.0 4000.0 4000.0 4000.0 4000.0 4000.0 4000.0 4000.0 4000.0 4000.0 4000.0 4000.0 4000.0 4000.0 4000.0 4000.0 4000.0 4000.0 4000.0 4000.0 4000.0 4000.0 4000.0 4000.0 4000.0 4000.0 4000.0 4000.0 4000.0 4000.0 4000.0 4000.0 4000.0 4000.0 4000.0 4000.0 4000.0 4000.0 4000.0 4000.0 4000.0 4000.0 4000.0 4000.0 4000.0 4000.0 4000.0 4000.0 4000.0 4000.0 4000.0 4000.0 4000.0 4000.0 4000.0 4000.0 4000.0 4000.0 4000.0 4000.0 4000.0 4000.0 4000.0 4000.0 4000.0 4000.0 4000.0 4000.0 4000.0 4000.0 4000.0 4000.0 4000.0 4000.0 4000.0 4000.0 4000.0 4000.0 4000.0 4000.0 4000.0 4000.0 4000.0 4000.0 4000.0 4000.0 4000.0 4000.0 4000.0 4000.0 4000.0 4000.0 4000.0 4000.0 4000.0 4000.0 4000.0 4000.0 4000.0 4000.0 4000.0 4000.0 4000.0 4000.0 4000.0 4000.0 4000.0 4000.0 4000.0 4000.0 4000.0 4000.0 4000.0 4000.0 4000.0 4000.0 4000.0 4000.0 4000.0 4000.0 4000.0 4000.0 4000.0 4000.0 4000.0 4000.0 4000.0 4000.0 4000.0 4000.0 4000.0 4000.0 4000.0 4000.0 4000.0 4000.0 4000.0 4000.0 4000.0 4000.0 4000.0 4000.0 4000.0 4000.0 4000.0 4000.0 4000.0 4000.0 4000.0 4000.0 4000.0 4000.0 4000.0 4000.0 4000.0 4000.0 4000.0 4000.0 4000.0 4000.0 4000.0 4000.0 4000.0 4000.0 4000.0 4000.0 4000.0 4000.0 4000.0 4000.0 4000.0 4000.0 4000.0 4000.0 4000.0 4000.0 4000.0 4000.0 4000.0 4000.0 4000.0 4000.0 4000.0 4000.0 4000.0 4000.0 4000.0 4000.0 4000.0 4000.0 4000.0 4000.0 4000.0 4000.0 4000.0 4000.0 4000.0 4000.0 4000.0 4000.0 4000.0 4000.0 4000.0 4000.0 4000.0 4000.0 4000.0 4000.0 4000.0 4000.0 4000.0 4000.0 4000.0 4000.0 4000.0 4000.0 4000.0 4000.0 4000.0 4000.0 4000.0 4000.0 4000.0 4000.0 4000.0 4000.0 4000.0 4000.0 4000.0 4000.0 4000.0 4000.0 4000.0 4000.0 4000.0 4000.0 4000.0 4000.0 4000.0 4000.0 4000.0 4000.0 4000.0 4000.0 4000.0 4000.0 4000.0 4000.0 4000.0 4000.0 4000.0 4000.0 4000.0 4000.0 4000.0 4000.0 4000.0 4000.0 4000.0 4000.0 4000.0 4000.0 4000.0 4000.0 4000.0 4000.0 4000.0 4000.0 4000.0 4000.0 4000.0 4000.0 4000.0 4000.0 4000.0 4000.0 4000.0 4000.0 4000.0 4000.0 4000.0 4000.0 4000.0 4000.0 4000.0 4000.0 4000.0 4000.0 4000.0 4000.0 4000.0 4000.0 4000.0 4000.0 4000.0 4000.0 4000.0 4000.0 4000.0 4000.0 4000.0 4000.0 4000.0 4000.0 4000.0 4000.0 4000.0 4000.0 4000.0 4000.0 4000.0 4000.0 4000.0 4000.0 4000.0 4000.0 4000.0 4000.0 4000.0 4000.0 4000.0 4000.0 4000.0 4000.0 4000.0 4000.0 4000.0 4000.0 4000.0 4000.0 4000.0 4000.0 4000.0 4000.0 4000.0 4000.0 4000.0 4000.0 4000.0 4000.0 4000.0 4000.0 4000.0 4000.0 4000.0 4000.0 4000.0 4000.0 4000.0 4000.0 4000.0 4000.0 4000.0 4000.0 4000.0 4000.0 4000.0 4000.0 4000.0 4000.0 4000.0 4000.0 4000.0 4000.0 4000.0 4000.0 4000.0 4000.0 4000.0 4000.0 4000.0 4000.0 4000.0 4000.0 4000.0 4000.0 4000.0 4000.0 4000.0 4000.0 4000.0 4000.0 4000.0 4000.0 4000.0 4000.0 4000.0 4000.0 4000.0 4000.0 4000.0 4000.0 4000.0 4000.0 4000.0 4000.0 4000.0 4000.0 4000.0 4000.0 4000.0 4000.0 4000.0 4000.0 4000.0 4000.0 4000.0 4000.0 4000.0 4000.0 4000.0 4000.0 4000.0 4000.0 4000.0 4000.0 4000.0 4000.0 4000.0 4000.0 4000.0 4000.0 4000.0 4000.0 4000.0 4000.0 4000.0 4000.0 4000.0 4000.0 4000.0 4000.0 4000.0 4000.0 4000.0 4000.0 4000.0 4000.0 4000.0 4000.0 4000.0 4000.0 4000.0 4000.0 4000.0 4000.0 4000.0 4000.0 4000.0 4000.0 4000.0 4000.0 4000.0 4000.0 4000.0 4000.0 4000.0 4000.0 4000.0 4000.0 4000.0 4000.0 4000.0 4000.0 4000.0 4000.0 4000.0 4000.0 4000.0 4000.0 4000.0 4000.0 4000.0 4000.0 4000.0 4000.0 4000.0 4000.0 4000.0 4000.0 4000.0 4000.0 4000.0 4000.0 4000.0 4000.0 4000.0 4000.0 4000.0 4000.0 4000.0 4000.0 4000.0 4000.0 4000.0 4000.0 4000.0 4000.0 4000.0 4000.0 4000.0 4000.0 4000.0 4000.0 4000.0 4000.0 4000.0 SCALARS Mass float 1
LOOKUP_TABLE default
11309700000.0 11309700000.0 11309700000.0 11309700000.0 11309700000.0 11309700000.0 11309700000.0 11309700000.0 11309700000.0 11309700000.0 11309700000.0 11309700000.0 11309700000.0 11309700000.0 11309700000.0 11309700000.0 11309700000.0 11309700000.0 11309700000.0 11309700000.0 11309700000.0 11309700000.0 11309700000.0 11309700000.0 11309700000.0 11309700000.0 11309700000.0 11309700000.0 11309700000.0 11309700000.0 11309700000.0 11309700000.0 11309700000.0 11309700000.0 11309700000.0 11309700000.0 11309700000.0 11309700000.0 11309700000.0 11309700000.0 11309700000.0 11309700000.0 11309700000.0 11309700000.0 11309700000.0 11309700000.0 11309700000.0 11309700000.0 11309700000.0 11309700000.0 11309700000.0 11309700000.0 11309700000.0 11309700000.0 11309700000.0 11309700000.0 11309700000.0 11309700000.0 11309700000.0 11309700000.0 11309700000.0 11309700000.0 11309700000.0 11309700000.0 11309700000.0 11309700000.0 11309700000.0 11309700000.0 11309700000.0 11309700000.0 11309700000.0 11309700000.0 11309700000.0 11309700000.0 11309700000.0 11309700000.0 11309700000.0 11309700000.0 11309700000.0 11309700000.0 11309700000.0 11309700000.0 11309700000.0 11309700000.0 11309700000.0 11309700000.0 11309700000.0 11309700000.0 11309700000.0 11309700000.0 11309700000.0 11309700000.0 11309700000.0 11309700000.0 11309700000.0 11309700000.0 11309700000.0 11309700000.0 11309700000.0 11309700000.0 11309700000.0 11309700000.0 11309700000.0 11309700000.0 11309700000.0 11309700000.0 11309700000.0 11309700000.0 11309700000.0 11309700000.0 11309700000.0 11309700000.0 11309700000.0 11309700000.0 11309700000.0 11309700000.0 11309700000.0 11309700000.0 11309700000.0 11309700000.0 11309700000.0 11309700000.0 11309700000.0 11309700000.0 11309700000.0 11309700000.0 11309700000.0 11309700000.0 11309700000.0 11309700000.0 11309700000.0 11309700000.0 11309700000.0 11309700000.0 11309700000.0 11309700000.0 11309700000.0 11309700000.0 11309700000.0 11309700000.0 11309700000.0 11309700000.0 11309700000.0 11309700000.0 11309700000.0 11309700000.0 11309700000.0 11309700000.0 11309700000.0 11309700000.0 11309700000.0 11309700000.0 11309700000.0 11309700000.0 11309700000.0 11309700000.0 11309700000.0 11309700000.0 11309700000.0 11309700000.0 11309700000.0 11309700000.0 11309700000.0 11309700000.0 11309700000.0 11309700000.0 11309700000.0 11309700000.0 11309700000.0 11309700000.0 11309700000.0 11309700000.0 11309700000.0 11309700000.0 11309700000.0 11309700000.0 11309700000.0 11309700000.0 11309700000.0 11309700000.0 11309700000.0 11309700000.0 11309700000.0 11309700000.0 11309700000.0 11309700000.0 11309700000.0 11309700000.0 11309700000.0 11309700000.0 11309700000.0 11309700000.0 11309700000.0 11309700000.0 11309700000.0 11309700000.0 11309700000.0 11309700000.0 11309700000.0 11309700000.0 11309700000.0 11309700000.0 11309700000.0 11309700000.0 11309700000.0 11309700000.0 11309700000.0 11309700000.0 11309700000.0 11309700000.0 11309700000.0 11309700000.0 11309700000.0 11309700000.0 11309700000.0 11309700000.0 11309700000.0 11309700000.0 11309700000.0 11309700000.0 11309700000.0 11309700000.0 11309700000.0 11309700000.0 11309700000.0 11309700000.0 11309700000.0 11309700000.0 11309700000.0 11309700000.0 11309700000.0 11309700000.0 11309700000.0 11309700000.0 11309700000.0 11309700000.0 11309700000.0 11309700000.0 11309700000.0 11309700000.0 11309700000.0 11309700000.0 11309700000.0 11309700000.0 11309700000.0 11309700000.0 11309700000.0 11309700000.0 11309700000.0 11309700000.0 11309700000.0 11309700000.0 11309700000.0 11309700000.0 11309700000.0 11309700000.0 11309700000.0 11309700000.0 11309700000.0 11309700000.0 11309700000.0 11309700000.0 11309700000.0 11309700000.0 11309700000.0 11309700000.0 11309700000.0 11309700000.0 11309700000.0 11309700000.0 11309700000.0 11309700000.0 11309700000.0 11309700000.0 11309700000.0 11309700000.0 11309700000.0 11309700000.0 11309700000.0 11309700000.0 11309700000.0 11309700000.0 11309700000.0 11309700000.0 11309700000.0 11309700000.0 11309700000.0 11309700000.0 11309700000.0 11309700000.0 11309700000.0 11309700000.0 11309700000.0 11309700000.0 11309700000.0 11309700000.0 11309700000.0 11309700000.0 11309700000.0 11309700000.0 11309700000.0 11309700000.0 11309700000.0 11309700000.0 11309700000.0 11309700000.0 11309700000.0 11309700000.0 11309700000.0 11309700000.0 11309700000.0 11309700000.0 11309700000.0 11309700000.0 11309700000.0 11309700000.0 11309700000.0 11309700000.0 11309700000.0 11309700000.0 11309700000.0 11309700000.0 11309700000.0 11309700000.0 11309700000.0 11309700000.0 11309700000.0 11309700000.0 11309700000.0 11309700000.0 11309700000.0 11309700000.0 11309700000.0 11309700000.0 11309700000.0 11309700000.0 11309700000.0 11309700000.0 11309700000.0 11309700000.0 11309700000.0 11309700000.0 11309700000.0 11309700000.0 11309700000.0 11309700000.0 11309700000.0 11309700000.0 11309700000.0 11309700000.0 11309700000.0 11309700000.0 11309700000.0 11309700000.0 11309700000.0 11309700000.0 11309700000.0 11309700000.0 11309700000.0 11309700000.0 11309700000.0 11309700000.0 11309700000.0 11309700000.0 11309700000.0 11309700000.0 11309700000.0 11309700000.0 11309700000.0 11309700000.0 11309700000.0 11309700000.0 11309700000.0 11309700000.0 11309700000.0 11309700000.0 11309700000.0 11309700000.0 11309700000.0 11309700000.0 11309700000.0 11309700000.0 11309700000.0 11309700000.0 11309700000.0 11309700000.0 11309700000.0 11309700000.0 11309700000.0 11309700000.0 11309700000.0 11309700000.0 11309700000.0 11309700000.0 11309700000.0 11309700000.0 11309700000.0 11309700000.0 11309700000.0 11309700000.0 11309700000.0 11309700000.0 11309700000.0 11309700000.0 11309700000.0 11309700000.0 11309700000.0 11309700000.0 11309700000.0 11309700000.0 11309700000.0 11309700000.0 11309700000.0 11309700000.0 11309700000.0 11309700000.0 11309700000.0 11309700000.0 11309700000.0 11309700000.0 11309700000.0 11309700000.0 11309700000.0 11309700000.0 11309700000.0 11309700000.0 11309700000.0 11309700000.0 11309700000.0 11309700000.0 11309700000.0 11309700000.0 11309700000.0 11309700000.0 11309700000.0 11309700000.0 11309700000.0 11309700000.0 11309700000.0 11309700000.0 11309700000.0 11309700000.0 11309700000.0 11309700000.0 11309700000.0 11309700000.0 11309700000.0 11309700000.0 11309700000.0 11309700000.0 11309700000.0 11309700000.0 11309700000.0 11309700000.0 11309700000.0 11309700000.0 11309700000.0 11309700000.0 11309700000.0 11309700000.0 11309700000.0 11309700000.0 11309700000.0 11309700000.0 11309700000.0 11309700000.0 11309700000.0 11309700000.0 11309700000.0 11309700000.0 11309700000.0 11309700000.0 11309700000.0 11309700000.0 11309700000.0 11309700000.0 11309700000.0 11309700000.0 11309700000.0 11309700000.0 11309700000.0 11309700000.0 11309700000.0 11309700000.0 11309700000.0 11309700000.0 11309700000.0 11309700000.0 11309700000.0 11309700000.0 11309700000.0 11309700000.0 11309700000.0 11309700000.0 11309700000.0 11309700000.0 11309700000.0 11309700000.0 11309700000.0 11309700000.0 11309700000.0 11309700000.0 11309700000.0 11309700000.0 11309700000.0 11309700000.0 11309700000.0 11309700000.0 11309700000.0 11309700000.0 11309700000.0 11309700000.0 11309700000.0 11309700000.0 11309700000.0 11309700000.0 11309700000.0 11309700000.0 11309700000.0 11309700000.0 11309700000.0 11309700000.0 11309700000.0 11309700000.0 11309700000.0 11309700000.0 11309700000.0 11309700000.0 11309700000.0 11309700000.0 11309700000.0 11309700000.0 11309700000.0 11309700000.0 11309700000.0 11309700000.0 11309700000.0 11309700000.0 11309700000.0 11309700000.0 11309700000.0 11309700000.0 11309700000.0 11309700000.0 11309700000.0 11309700000.0 11309700000.0 11309700000.0 11309700000.0 11309700000.0 11309700000.0 11309700000.0 11309700000.0 11309700000.0 11309700000.0 11309700000.0 11309700000.0 11309700000.0 11309700000.0 11309700000.0 11309700000.0 11309700000.0 11309700000.0 11309700000.0 11309700000.0 11309700000.0 11309700000.0 11309700000.0 11309700000.0 11309700000.0 11309700000.0 11309700000.0 11309700000.0 11309700000.0 11309700000.0 11309700000.0 11309700000.0 11309700000.0 11309700000.0 11309700000.0 11309700000.0 11309700000.0 11309700000.0 11309700000.0 11309700000.0 11309700000.0 11309700000.0 11309700000.0 11309700000.0 11309700000.0 11309700000.0 11309700000.0 11309700000.0 11309700000.0 11309700000.0 11309700000.0 11309700000.0 11309700000.0 11309700000.0 11309700000.0 11309700000.0 11309700000.0 11309700000.0 11309700000.0 11309700000.0 11309700000.0 11309700000.0 11309700000.0 11309700000.0 11309700000.0 11309700000.0 11309700000.0 11309700000.0 11309700000.0 11309700000.0 11309700000.0 11309700000.0 11309700000.0 11309700000.0 11309700000.0 11309700000.0 11309700000.0 11309700000.0 11309700000.0 11309700000.0 11309700000.0 11309700000.0 11309700000.0 11309700000.0 11309700000.0 11309700000.0 11309700000.0 11309700000.0 11309700000.0 11309700000.0 11309700000.0 11309700000.0 11309700000.0 11309700000.0 11309700000.0 11309700000.0 11309700000.0 11309700000.0 11309700000.0 11309700000.0 11309700000.0 11309700000.0 11309700000.0 11309700000.0 11309700000.0 11309700000.0 11309700000.0 11309700000.0 11309700000.0 11309700000.0 11309700000.0 11309700000.0 11309700000.0 11309700000.0 11309700000.0 11309700000.0 11309700000.0 11309700000.0 11309700000.0 11309700000.0 11309700000.0 11309700000.0 11309700000.0 11309700000.0 11309700000.0 11309700000.0 11309700000.0 11309700000.0 11309700000.0 11309700000.0 11309700000.0 11309700000.0 11309700000.0 11309700000.0 11309700000.0 11309700000.0 11309700000.0 11309700000.0 11309700000.0 11309700000.0 11309700000.0 11309700000.0 11309700000.0 11309700000.0 11309700000.0 11309700000.0 11309700000.0 11309700000.0 11309700000.0 11309700000.0 11309700000.0 11309700000.0 11309700000.0 11309700000.0 11309700000.0 11309700000.0 11309700000.0 11309700000.0 11309700000.0 11309700000.0 11309700000.0 11309700000.0 11309700000.0 11309700000.0 11309700000.0 11309700000.0 11309700000.0 11309700000.0 11309700000.0 11309700000.0 11309700000.0 11309700000.0 11309700000.0 11309700000.0 11309700000.0 11309700000.0 11309700000.0 11309700000.0 11309700000.0 11309700000.0 11309700000.0 11309700000.0 11309700000.0 11309700000.0 11309700000.0 11309700000.0 11309700000.0 11309700000.0 11309700000.0 11309700000.0 11309700000.0 11309700000.0 11309700000.0 11309700000.0 11309700000.0 11309700000.0 11309700000.0 11309700000.0 11309700000.0 11309700000.0 11309700000.0 11309700000.0 11309700000.0 11309700000.0 11309700000.0 11309700000.0 11309700000.0 11309700000.0 11309700000.0 11309700000.0 11309700000.0 11309700000.0 11309700000.0 11309700000.0 11309700000.0 11309700000.0 11309700000.0 11309700000.0 11309700000.0 11309700000.0 11309700000.0 11309700000.0 11309700000.0 11309700000.0 11309700000.0 11309700000.0 11309700000.0 11309700000.0 11309700000.0 11309700000.0 11309700000.0 11309700000.0 11309700000.0 11309700000.0 11309700000.0 11309700000.0 11309700000.0 11309700000.0 11309700000.0 11309700000.0 11309700000.0 11309700000.0 11309700000.0 11309700000.0 11309700000.0 11309700000.0 11309700000.0 11309700000.0 11309700000.0 11309700000.0 11309700000.0 11309700000.0 11309700000.0 11309700000.0 11309700000.0 11309700000.0 11309700000.0 11309700000.0 11309700000.0 11309700000.0 11309700000.0 11309700000.0 11309700000.0 11309700000.0 11309700000.0 11309700000.0 11309700000.0 11309700000.0 11309700000.0 11309700000.0 11309700000.0 11309700000.0 11309700000.0 11309700000.0 11309700000.0 11309700000.0 11309700000.0 11309700000.0 11309700000.0 11309700000.0 11309700000.0 11309700000.0 11309700000.0 11309700000.0 11309700000.0 11309700000.0 11309700000.0 11309700000.0 11309700000.0 11309700000.0 11309700000.0 11309700000.0 11309700000.0 11309700000.0 11309700000.0 11309700000.0 11309700000.0 11309700000.0 11309700000.0 11309700000.0 11309700000.0 11309700000.0 11309700000.0 11309700000.0 11309700000.0 11309700000.0 11309700000.0 11309700000.0 11309700000.0 11309700000.0 11309700000.0 11309700000.0 11309700000.0 11309700000.0 11309700000.0 11309700000.0 11309700000.0 11309700000.0 11309700000.0 11309700000.0 11309700000.0 11309700000.0 11309700000.0 11309700000.0 11309700000.0 11309700000.0 11309700000.0 11309700000.0 11309700000.0 11309700000.0 11309700000.0 11309700000.0 11309700000.0 11309700000.0 11309700000.0 11309700000.0 11309700000.0 11309700000.0 11309700000.0 11309700000.0 11309700000.0 11309700000.0 11309700000.0 11309700000.0 11309700000.0 11309700000.0 11309700000.0 11309700000.0 11309700000.0 11309700000.0 11309700000.0 11309700000.0 11309700000.0 11309700000.0 11309700000.0 11309700000.0 11309700000.0 11309700000.0 11309700000.0 11309700000.0 11309700000.0 11309700000.0 11309700000.0 11309700000.0 11309700000.0 11309700000.0 11309700000.0 11309700000.0 11309700000.0 11309700000.0 11309700000.0 11309700000.0 11309700000.0 11309700000.0 11309700000.0 11309700000.0 11309700000.0 11309700000.0 11309700000.0 11309700000.0 11309700000.0 11309700000.0 11309700000.0 11309700000.0 11309700000.0 11309700000.0 11309700000.0 11309700000.0 11309700000.0 11309700000.0 11309700000.0 11309700000.0 11309700000.0 11309700000.0 11309700000.0 11309700000.0 11309700000.0 11309700000.0 11309700000.0 11309700000.0 11309700000.0 11309700000.0 11309700000.0 11309700000.0 11309700000.0 11309700000.0 11309700000.0 11309700000.0 11309700000.0 11309700000.0 11309700000.0 11309700000.0 11309700000.0 11309700000.0 11309700000.0 11309700000.0 11309700000.0 11309700000.0 11309700000.0 11309700000.0 11309700000.0 11309700000.0 11309700000.0 11309700000.0 11309700000.0 11309700000.0 11309700000.0 11309700000.0 11309700000.0 11309700000.0 11309700000.0 11309700000.0 11309700000.0 11309700000.0 11309700000.0 11309700000.0 11309700000.0 11309700000.0 11309700000.0 11309700000.0 11309700000.0 11309700000.0 11309700000.0 11309700000.0 11309700000.0 11309700000.0 11309700000.0 11309700000.0 11309700000.0 11309700000.0 11309700000.0 11309700000.0 11309700000.0 11309700000.0 11309700000.0 11309700000.0 11309700000.0 11309700000.0 11309700000.0 11309700000.0 11309700000.0 11309700000.0 11309700000.0 11309700000.0 11309700000.0 11309700000.0 11309700000.0 11309700000.0 11309700000.0 11309700000.0 11309700000.0 11309700000.0 11309700000.0 11309700000.0 11309700000.0 11309700000.0 11309700000.0 11309700000.0 11309700000.0 11309700000.0 11309700000.0 11309700000.0 11309700000.0 11309700000.0 11309700000.0 11309700000.0 11309700000.0 11309700000.0 11309700000.0 11309700000.0 11309700000.0 11309700000.0 11309700000.0 11309700000.0 11309700000.0 11309700000.0 11309700000.0 11309700000.0 11309700000.0 11309700000.0 11309700000.0 11309700000.0 11309700000.0 11309700000.0 11309700000.0 11309700000.0 11309700000.0 11309700000.0 11309700000.0 11309700000.0 11309700000.0 11309700000.0 11309700000.0 11309700000.0 11309700000.0 11309700000.0 11309700000.0 11309700000.0 11309700000.0 11309700000.0 11309700000.0 11309700000.0 11309700000.0 11309700000.0 11309700000.0 11309700000.0 11309700000.0 11309700000.0 11309700000.0 11309700000.0 11309700000.0 11309700000.0 11309700000.0 11309700000.0 11309700000.0 11309700000.0 11309700000.0 11309700000.0 11309700000.0 11309700000.0 11309700000.0 11309700000.0 11309700000.0 11309700000.0 11309700000.0 11309700000.0 11309700000.0 11309700000.0 11309700000.0 11309700000.0 11309700000.0 11309700000.0 11309700000.0 11309700000.0 11309700000.0 11309700000.0 11309700000.0 11309700000.0 11309700000.0 11309700000.0 11309700000.0 11309700000.0 11309700000.0 11309700000.0 11309700000.0 11309700000.0 11309700000.0 11309700000.0 11309700000.0 11309700000.0 11309700000.0 11309700000.0 11309700000.0 11309700000.0 11309700000.0 11309700000.0 11309700000.0 11309700000.0 11309700000.0 11309700000.0 11309700000.0 11309700000.0 11309700000.0 11309700000.0 11309700000.0 11309700000.0 11309700000.0 11309700000.0 11309700000.0 11309700000.0 11309700000.0 11309700000.0 11309700000.0 11309700000.0 11309700000.0 11309700000.0 11309700000.0 11309700000.0 11309700000.0 11309700000.0 11309700000.0 11309700000.0 11309700000.0 11309700000.0 11309700000.0 11309700000.0 11309700000.0 11309700000.0 11309700000.0 11309700000.0 11309700000.0 11309700000.0 11309700000.0 11309700000.0 11309700000.0 11309700000.0 11309700000.0 11309700000.0 11309700000.0 11309700000.0 11309700000.0 11309700000.0 11309700000.0 11309700000.0 11309700000.0 11309700000.0 11309700000.0 11309700000.0 11309700000.0 11309700000.0 11309700000.0 11309700000.0 11309700000.0 11309700000.0 11309700000.0 11309700000.0 11309700000.0 11309700000.0 11309700000.0 11309700000.0 11309700000.0 11309700000.0 11309700000.0 11309700000.0 11309700000.0 11309700000.0 11309700000.0 11309700000.0 11309700000.0 11309700000.0 11309700000.0 11309700000.0 11309700000.0 11309700000.0 11309700000.0 11309700000.0 11309700000.0 11309700000.0 11309700000.0 11309700000.0 11309700000.0 11309700000.0 11309700000.0 11309700000.0 11309700000.0 11309700000.0 11309700000.0 11309700000.0 11309700000.0 11309700000.0 11309700000.0 11309700000.0 11309700000.0 11309700000.0 11309700000.0 11309700000.0 11309700000.0 11309700000.0 11309700000.0 11309700000.0 11309700000.0 11309700000.0 11309700000.0 11309700000.0 11309700000.0 11309700000.0 11309700000.0 11309700000.0 11309700000.0 11309700000.0 11309700000.0 11309700000.0 11309700000.0 11309700000.0 11309700000.0 11309700000.0 11309700000.0 11309700000.0 11309700000.0 11309700000.0 11309700000.0 11309700000.0 11309700000.0 11309700000.0 11309700000.0 11309700000.0 11309700000.0 11309700000.0 11309700000.0 11309700000.0 11309700000.0 11309700000.0 11309700000.0 11309700000.0 11309700000.0 11309700000.0 11309700000.0 11309700000.0 11309700000.0 11309700000.0 11309700000.0 11309700000.0 11309700000.0 11309700000.0 11309700000.0 11309700000.0 11309700000.0 11309700000.0 11309700000.0 11309700000.0 11309700000.0 11309700000.0 11309700000.0 11309700000.0 11309700000.0 11309700000.0 11309700000.0 11309700000.0 11309700000.0 11309700000.0 11309700000.0 11309700000.0 11309700000.0 11309700000.0 11309700000.0 11309700000.0 11309700000.0 11309700000.0 11309700000.0 11309700000.0 11309700000.0 11309700000.0 11309700000.0 11309700000.0 11309700000.0 11309700000.0 11309700000.0 11309700000.0 11309700000.0 11309700000.0 11309700000.0 11309700000.0 11309700000.0 11309700000.0 11309700000.0 11309700000.0 11309700000.0 11309700000.0 11309700000.0 11309700000.0 11309700000.0 11309700000.0 11309700000.0 11309700000.0 11309700000.0 11309700000.0 11309700000.0 11309700000.0 11309700000.0 11309700000.0 11309700000.0 11309700000.0 11309700000.0 11309700000.0 11309700000.0 11309700000.0 11309700000.0 11309700000.0 11309700000.0 11309700000.0 11309700000.0 11309700000.0 11309700000.0 11309700000.0 11309700000.0 11309700000.0 11309700000.0 11309700000.0 11309700000.0 11309700000.0 11309700000.0 11309700000.0 11309700000.0 11309700000.0 11309700000.0 11309700000.0 11309700000.0 11309700000.0 11309700000.0 11309700000.0 11309700000.0 11309700000.0 11309700000.0 11309700000.0 11309700000.0 11309700000.0 11309700000.0 11309700000.0 11309700000.0 11309700000.0 11309700000.0 11309700000.0 11309700000.0 11309700000.0 11309700000.0 11309700000.0 11309700000.0 11309700000.0 11309700000.0 11309700000.0 11309700000.0 11309700000.0 11309700000.0 11309700000.0 11309700000.0 11309700000.0 11309700000.0 11309700000.0 11309700000.0 11309700000.0 11309700000.0 11309700000.0 11309700000.0 11309700000.0 11309700000.0 11309700000.0 11309700000.0 11309700000.0 11309700000.0 11309700000.0 11309700000.0 11309700000.0 11309700000.0 11309700000.0 11309700000.0 11309700000.0 11309700000.0 11309700000.0 11309700000.0 11309700000.0 11309700000.0 11309700000.0 11309700000.0 11309700000.0 11309700000.0 11309700000.0 11309700000.0 11309700000.0 11309700000.0 11309700000.0 11309700000.0 11309700000.0 11309700000.0 11309700000.0 11309700000.0 11309700000.0 11309700000.0 11309700000.0 11309700000.0 11309700000.0 11309700000.0 11309700000.0 11309700000.0 11309700000.0 11309700000.0 11309700000.0 11309700000.0 11309700000.0 11309700000.0 11309700000.0 11309700000.0 11309700000.0 11309700000.0 11309700000.0 11309700000.0 11309700000.0 11309700000.0 11309700000.0 11309700000.0 11309700000.0 11309700000.0 11309700000.0 11309700000.0 11309700000.0 11309700000.0 11309700000.0 11309700000.0 11309700000.0 11309700000.0 11309700000.0 11309700000.0 11309700000.0 11309700000.0 11309700000.0 11309700000.0 11309700000.0 11309700000.0 11309700000.0 11309700000.0 11309700000.0 11309700000.0 11309700000.0 11309700000.0 11309700000.0 11309700000.0 11309700000.0 11309700000.0 11309700000.0 11309700000.0 11309700000.0 11309700000.0 11309700000.0 11309700000.0 11309700000.0 11309700000.0 11309700000.0 11309700000.0 11309700000.0 11309700000.0 11309700000.0 11309700000.0 11309700000.0 11309700000.0 11309700000.0 11309700000.0 11309700000.0 11309700000.0 11309700000.0 11309700000.0 11309700000.0 11309700000.0 11309700000.0 11309700000.0 11309700000.0 11309700000.0 11309700000.0 11309700000.0 11309700000.0 11309700000.0 11309700000.0 11309700000.0 11309700000.0 11309700000.0 11309700000.0 11309700000.0 11309700000.0 11309700000.0 11309700000.0 11309700000.0 11309700000.0 11309700000.0 11309700000.0 11309700000.0 11309700000.0 11309700000.0 11309700000.0 11309700000.0 11309700000.0 11309700000.0 11309700000.0 11309700000.0 11309700000.0 11309700000.0 11309700000.0 11309700000.0 11309700000.0 11309700000.0 11309700000.0 11309700000.0 11309700000.0 11309700000.0 11309700000.0 11309700000.0 11309700000.0 11309700000.0 11309700000.0 11309700000.0 11309700000.0 11309700000.0 11309700000.0 11309700000.0 11309700000.0 11309700000.0 11309700000.0 11309700000.0 11309700000.0 11309700000.0 11309700000.0 11309700000.0 11309700000.0 11309700000.0 11309700000.0 11309700000.0 11309700000.0 11309700000.0 11309700000.0 11309700000.0 11309700000.0 11309700000.0 11309700000.0 11309700000.0 11309700000.0 11309700000.0 11309700000.0 11309700000.0 11309700000.0 11309700000.0 11309700000.0 11309700000.0 11309700000.0 11309700000.0 11309700000.0 11309700000.0 11309700000.0 11309700000.0 11309700000.0 11309700000.0 11309700000.0 11309700000.0 11309700000.0 11309700000.0 11309700000.0 11309700000.0 11309700000.0 11309700000.0 11309700000.0 11309700000.0 11309700000.0 11309700000.0 11309700000.0 11309700000.0 11309700000.0 11309700000.0 11309700000.0 11309700000.0 11309700000.0 11309700000.0 11309700000.0 11309700000.0 11309700000.0 11309700000.0 11309700000.0 11309700000.0 11309700000.0 11309700000.0 11309700000.0 11309700000.0 11309700000.0 11309700000.0 11309700000.0 11309700000.0 11309700000.0 11309700000.0 11309700000.0 11309700000.0 11309700000.0 11309700000.0 11309700000.0 11309700000.0 11309700000.0 11309700000.0 11309700000.0 11309700000.0 11309700000.0 11309700000.0 11309700000.0 11309700000.0 11309700000.0 11309700000.0 11309700000.0 11309700000.0 11309700000.0 11309700000.0 11309700000.0 11309700000.0 11309700000.0 11309700000.0 11309700000.0 11309700000.0 11309700000.0 11309700000.0 11309700000.0 11309700000.0 11309700000.0 11309700000.0 11309700000.0 11309700000.0 11309700000.0 11309700000.0 11309700000.0 11309700000.0 11309700000.0 11309700000.0 11309700000.0 11309700000.0 11309700000.0 11309700000.0 11309700000.0 11309700000.0 11309700000.0 11309700000.0 11309700000.0 11309700000.0 11309700000.0 11309700000.0 11309700000.0 11309700000.0 11309700000.0 11309700000.0 11309700000.0 11309700000.0 11309700000.0 11309700000.0 11309700000.0 11309700000.0 11309700000.0 11309700000.0 11309700000.0 11309700000.0 11309700000.0 11309700000.0 11309700000.0 11309700000.0 11309700000.0 11309700000.0 11309700000.0 11309700000.0 11309700000.0 11309700000.0 11309700000.0 11309700000.0 11309700000.0 11309700000.0 11309700000.0 11309700000.0 11309700000.0 11309700000.0 11309700000.0 11309700000.0 11309700000.0 11309700000.0 11309700000.0 11309700000.0 11309700000.0 11309700000.0 11309700000.0 11309700000.0 11309700000.0 11309700000.0 11309700000.0 11309700000.0 11309700000.0 11309700000.0 11309700000.0 11309700000.0 11309700000.0 11309700000.0 11309700000.0 11309700000.0 11309700000.0 11309700000.0 11309700000.0 11309700000.0 11309700000.0 11309700000.0 11309700000.0 11309700000.0 11309700000.0 11309700000.0 11309700000.0 11309700000.0 11309700000.0 11309700000.0 11309700000.0 11309700000.0 11309700000.0 11309700000.0 11309700000.0 11309700000.0 11309700000.0 11309700000.0 11309700000.0 11309700000.0 11309700000.0 11309700000.0 11309700000.0 11309700000.0 11309700000.0 11309700000.0 11309700000.0 11309700000.0 11309700000.0 11309700000.0 11309700000.0 11309700000.0 11309700000.0 11309700000.0 11309700000.0 11309700000.0 11309700000.0 11309700000.0 11309700000.0 11309700000.0 11309700000.0 11309700000.0 11309700000.0 11309700000.0 11309700000.0 11309700000.0 11309700000.0 11309700000.0 11309700000.0 11309700000.0 11309700000.0 11309700000.0 11309700000.0 11309700000.0 11309700000.0 11309700000.0 11309700000.0 11309700000.0 11309700000.0 11309700000.0 11309700000.0 11309700000.0 11309700000.0 11309700000.0 11309700000.0 11309700000.0 11309700000.0 11309700000.0 11309700000.0 11309700000.0 11309700000.0 11309700000.0 11309700000.0 11309700000.0 11309700000.0 11309700000.0 11309700000.0 11309700000.0 11309700000.0 11309700000.0 11309700000.0 11309700000.0 11309700000.0 11309700000.0 11309700000.0 11309700000.0 11309700000.0 11309700000.0 11309700000.0 11309700000.0 11309700000.0 11309700000.0 11309700000.0 11309700000.0 11309700000.0 11309700000.0 11309700000.0 11309700000.0 11309700000.0 11309700000.0 11309700000.0 11309700000.0 11309700000.0 11309700000.0 11309700000.0 11309700000.0 11309700000.0 11309700000.0 11309700000.0 11309700000.0 11309700000.0 11309700000.0 11309700000.0 11309700000.0 11309700000.0 11309700000.0 11309700000.0 11309700000.0 11309700000.0 11309700000.0 11309700000.0 11309700000.0 11309700000.0 11309700000.0 11309700000.0 11309700000.0 11309700000.0 11309700000.0 11309700000.0 11309700000.0 11309700000.0 11309700000.0 11309700000.0 11309700000.0 11309700000.0 11309700000.0 11309700000.0 11309700000.0 11309700000.0 11309700000.0 11309700000.0 11309700000.0 11309700000.0 11309700000.0 11309700000.0 11309700000.0 11309700000.0 11309700000.0 11309700000.0 11309700000.0 11309700000.0 11309700000.0 11309700000.0 11309700000.0 11309700000.0 11309700000.0 11309700000.0 11309700000.0 11309700000.0 11309700000.0 11309700000.0 11309700000.0 11309700000.0 11309700000.0 11309700000.0 11309700000.0 11309700000.0 11309700000.0 11309700000.0 11309700000.0 11309700000.0 11309700000.0 11309700000.0 11309700000.0 11309700000.0 11309700000.0 11309700000.0 11309700000.0 11309700000.0 11309700000.0 11309700000.0 11309700000.0 11309700000.0 11309700000.0 11309700000.0 11309700000.0 11309700000.0 11309700000.0 11309700000.0 11309700000.0 11309700000.0 11309700000.0 11309700000.0 11309700000.0 11309700000.0 11309700000.0 11309700000.0 11309700000.0 11309700000.0 11309700000.0 11309700000.0 11309700000.0 11309700000.0 11309700000.0 11309700000.0 11309700000.0 11309700000.0 11309700000.0 11309700000.0 11309700000.0 11309700000.0 11309700000.0 11309700000.0 11309700000.0 11309700000.0 11309700000.0 11309700000.0 11309700000.0 11309700000.0 11309700000.0 11309700000.0 11309700000.0 11309700000.0 11309700000.0 11309700000.0 11309700000.0 11309700000.0 11309700000.0 11309700000.0 11309700000.0 11309700000.0 11309700000.0 11309700000.0 11309700000.0 11309700000.0 11309700000.0 11309700000.0 11309700000.0 11309700000.0 11309700000.0 11309700000.0 11309700000.0 11309700000.0 11309700000.0 11309700000.0 11309700000.0 11309700000.0 11309700000.0 11309700000.0 11309700000.0 11309700000.0 11309700000.0 11309700000.0 11309700000.0 11309700000.0 11309700000.0 11309700000.0 11309700000.0 11309700000.0 11309700000.0 11309700000.0 11309700000.0 11309700000.0 11309700000.0 11309700000.0 11309700000.0 11309700000.0 11309700000.0 11309700000.0 11309700000.0 11309700000.0 11309700000.0 11309700000.0 11309700000.0 11309700000.0 11309700000.0 11309700000.0 11309700000.0 11309700000.0 11309700000.0 11309700000.0 11309700000.0 11309700000.0 11309700000.0 11309700000.0 11309700000.0 11309700000.0 11309700000.0 11309700000.0 11309700000.0 11309700000.0 11309700000.0 11309700000.0 11309700000.0 11309700000.0 11309700000.0 11309700000.0 11309700000.0 11309700000.0 11309700000.0 11309700000.0 11309700000.0 11309700000.0 11309700000.0 11309700000.0 11309700000.0 11309700000.0 11309700000.0 11309700000.0 11309700000.0 11309700000.0 11309700000.0 11309700000.0 11309700000.0 11309700000.0 11309700000.0 11309700000.0 11309700000.0 11309700000.0 11309700000.0 11309700000.0 11309700000.0 11309700000.0 11309700000.0 11309700000.0 11309700000.0 11309700000.0 11309700000.0 11309700000.0 11309700000.0 11309700000.0 11309700000.0 11309700000.0 11309700000.0 11309700000.0 11309700000.0 11309700000.0 11309700000.0 11309700000.0 11309700000.0 11309700000.0 11309700000.0 11309700000.0 11309700000.0 11309700000.0 11309700000.0 11309700000.0 11309700000.0 11309700000.0 11309700000.0 11309700000.0 11309700000.0 11309700000.0 11309700000.0 11309700000.0 11309700000.0 11309700000.0 11309700000.0 11309700000.0 11309700000.0 11309700000.0 11309700000.0 11309700000.0 11309700000.0 11309700000.0 11309700000.0 11309700000.0 11309700000.0 11309700000.0 11309700000.0 11309700000.0 11309700000.0 11309700000.0 11309700000.0 11309700000.0 11309700000.0 11309700000.0 11309700000.0 11309700000.0 11309700000.0 11309700000.0 11309700000.0 11309700000.0 11309700000.0 11309700000.0 11309700000.0 11309700000.0 11309700000.0 11309700000.0 11309700000.0 11309700000.0 11309700000.0 11309700000.0 11309700000.0 11309700000.0 11309700000.0 11309700000.0 11309700000.0 11309700000.0 11309700000.0 11309700000.0 11309700000.0 11309700000.0 11309700000.0 11309700000.0 11309700000.0 11309700000.0 11309700000.0 11309700000.0 11309700000.0 11309700000.0 11309700000.0 11309700000.0 11309700000.0 11309700000.0 11309700000.0 11309700000.0 11309700000.0 11309700000.0 11309700000.0 11309700000.0 11309700000.0 11309700000.0 11309700000.0 11309700000.0 11309700000.0 11309700000.0 11309700000.0 11309700000.0 11309700000.0 11309700000.0 11309700000.0 11309700000.0 11309700000.0 11309700000.0 11309700000.0 11309700000.0 11309700000.0 11309700000.0 11309700000.0 11309700000.0 11309700000.0 11309700000.0 11309700000.0 11309700000.0 11309700000.0 11309700000.0 11309700000.0 11309700000.0 11309700000.0 11309700000.0 11309700000.0 11309700000.0 11309700000.0 11309700000.0 11309700000.0 11309700000.0 11309700000.0 11309700000.0 11309700000.0 11309700000.0 11309700000.0 11309700000.0 11309700000.0 11309700000.0 11309700000.0 11309700000.0 11309700000.0 11309700000.0 11309700000.0 11309700000.0 11309700000.0 11309700000.0 11309700000.0 11309700000.0 11309700000.0 11309700000.0 11309700000.0 11309700000.0 11309700000.0 11309700000.0 11309700000.0 11309700000.0 11309700000.0 11309700000.0 11309700000.0 11309700000.0 11309700000.0 11309700000.0 11309700000.0 11309700000.0 11309700000.0 11309700000.0 11309700000.0 11309700000.0 11309700000.0 11309700000.0 11309700000.0 11309700000.0 11309700000.0 11309700000.0 11309700000.0 11309700000.0 11309700000.0 11309700000.0 11309700000.0 11309700000.0 11309700000.0 11309700000.0 11309700000.0 11309700000.0 11309700000.0 11309700000.0 11309700000.0 11309700000.0 11309700000.0 11309700000.0 11309700000.0 11309700000.0 11309700000.0 11309700000.0 11309700000.0 11309700000.0 11309700000.0 11309700000.0 11309700000.0 11309700000.0 11309700000.0 11309700000.0 11309700000.0 11309700000.0 11309700000.0 11309700000.0 11309700000.0 11309700000.0 11309700000.0 11309700000.0 11309700000.0 11309700000.0 11309700000.0 11309700000.0 11309700000.0 11309700000.0 11309700000.0 11309700000.0 11309700000.0 11309700000.0 11309700000.0 11309700000.0 11309700000.0 11309700000.0 11309700000.0 11309700000.0 11309700000.0 11309700000.0 11309700000.0 11309700000.0 11309700000.0 11309700000.0 11309700000.0 11309700000.0 11309700000.0 11309700000.0 11309700000.0 11309700000.0 11309700000.0 11309700000.0 11309700000.0 11309700000.0 11309700000.0 11309700000.0 11309700000.0 11309700000.0 11309700000.0 11309700000.0 11309700000.0 11309700000.0 11309700000.0 11309700000.0 11309700000.0 11309700000.0 11309700000.0 11309700000.0 11309700000.0 11309700000.0 11309700000.0 11309700000.0 11309700000.0 11309700000.0 11309700000.0 11309700000.0 11309700000.0 11309700000.0 11309700000.0 11309700000.0 11309700000.0 11309700000.0 11309700000.0 11309700000.0 11309700000.0 11309700000.0 11309700000.0 11309700000.0 11309700000.0 11309700000.0 11309700000.0 11309700000.0 11309700000.0 11309700000.0 11309700000.0 11309700000.0 11309700000.0 11309700000.0 11309700000.0 11309700000.0 11309700000.0 11309700000.0 11309700000.0 11309700000.0 11309700000.0 11309700000.0 11309700000.0 11309700000.0 11309700000.0 11309700000.0 11309700000.0 11309700000.0 11309700000.0 11309700000.0 11309700000.0 11309700000.0 11309700000.0 11309700000.0 11309700000.0 11309700000.0 11309700000.0 11309700000.0 11309700000.0 11309700000.0 11309700000.0 11309700000.0 11309700000.0 11309700000.0 11309700000.0 11309700000.0 11309700000.0 11309700000.0 11309700000.0 11309700000.0 11309700000.0 11309700000.0 11309700000.0 11309700000.0 11309700000.0 11309700000.0 11309700000.0 11309700000.0 11309700000.0 11309700000.0 11309700000.0 11309700000.0 11309700000.0 11309700000.0 11309700000.0 11309700000.0 11309700000.0 11309700000.0 11309700000.0 11309700000.0 11309700000.0 11309700000.0 11309700000.0 11309700000.0 11309700000.0 11309700000.0 11309700000.0 11309700000.0 11309700000.0 11309700000.0 11309700000.0 11309700000.0 11309700000.0 11309700000.0 11309700000.0 11309700000.0 11309700000.0 11309700000.0 11309700000.0 11309700000.0 11309700000.0 11309700000.0 11309700000.0 11309700000.0 11309700000.0 11309700000.0 11309700000.0 11309700000.0 11309700000.0 11309700000.0 11309700000.0 11309700000.0 11309700000.0 11309700000.0 11309700000.0 11309700000.0 11309700000.0 11309700000.0 11309700000.0 11309700000.0 11309700000.0 11309700000.0 11309700000.0 11309700000.0 11309700000.0 11309700000.0 11309700000.0 11309700000.0 11309700000.0 11309700000.0 11309700000.0 11309700000.0 11309700000.0 11309700000.0 11309700000.0 11309700000.0 11309700000.0 11309700000.0 11309700000.0 11309700000.0 11309700000.0 11309700000.0 11309700000.0 11309700000.0 11309700000.0 11309700000.0 11309700000.0 11309700000.0 11309700000.0 11309700000.0 11309700000.0 11309700000.0 11309700000.0 11309700000.0 11309700000.0 11309700000.0 11309700000.0 11309700000.0 11309700000.0 11309700000.0 11309700000.0 11309700000.0 11309700000.0 11309700000.0 11309700000.0 11309700000.0 11309700000.0 11309700000.0 11309700000.0 11309700000.0 11309700000.0 11309700000.0 11309700000.0 11309700000.0 11309700000.0 11309700000.0 11309700000.0 11309700000.0 11309700000.0 11309700000.0 11309700000.0 11309700000.0 11309700000.0 11309700000.0 11309700000.0 11309700000.0 11309700000.0 11309700000.0 11309700000.0 11309700000.0 11309700000.0 11309700000.0 11309700000.0 11309700000.0 11309700000.0 11309700000.0 11309700000.0 11309700000.0 11309700000.0 11309700000.0 11309700000.0 11309700000.0 11309700000.0 11309700000.0 11309700000.0 11309700000.0 11309700000.0 11309700000.0 11309700000.0 11309700000.0 11309700000.0 11309700000.0 11309700000.0 11309700000.0 11309700000.0 11309700000.0 11309700000.0 11309700000.0 11309700000.0 11309700000.0 11309700000.0 11309700000.0 11309700000.0 11309700000.0 11309700000.0 11309700000.0 11309700000.0 11309700000.0 11309700000.0 11309700000.0 11309700000.0 11309700000.0 11309700000.0 11309700000.0 11309700000.0 11309700000.0 11309700000.0 11309700000.0 11309700000.0 11309700000.0 11309700000.0 11309700000.0 11309700000.0 11309700000.0 11309700000.0 11309700000.0 11309700000.0 11309700000.0 11309700000.0 11309700000.0 11309700000.0 11309700000.0 11309700000.0 11309700000.0 11309700000.0 11309700000.0 11309700000.0 11309700000.0 11309700000.0 11309700000.0 11309700000.0 11309700000.0 11309700000.0 11309700000.0 11309700000.0 11309700000.0 11309700000.0 11309700000.0 11309700000.0 11309700000.0 11309700000.0 11309700000.0 11309700000.0 11309700000.0 11309700000.0 11309700000.0 11309700000.0 11309700000.0 11309700000.0 11309700000.0 11309700000.0 11309700000.0 11309700000.0 11309700000.0 11309700000.0 11309700000.0 11309700000.0 11309700000.0 11309700000.0 11309700000.0 11309700000.0 11309700000.0 11309700000.0 11309700000.0 11309700000.0 11309700000.0 11309700000.0 11309700000.0 11309700000.0 11309700000.0 11309700000.0 11309700000.0 11309700000.0 11309700000.0 11309700000.0 11309700000.0 11309700000.0 11309700000.0 11309700000.0 11309700000.0 11309700000.0 11309700000.0 11309700000.0 11309700000.0 11309700000.0 11309700000.0 11309700000.0 11309700000.0 11309700000.0 11309700000.0 11309700000.0 11309700000.0 11309700000.0 11309700000.0 11309700000.0 11309700000.0 11309700000.0 11309700000.0 11309700000.0 11309700000.0 11309700000.0 11309700000.0 11309700000.0 11309700000.0 11309700000.0 11309700000.0 11309700000.0 11309700000.0 11309700000.0 11309700000.0 11309700000.0 11309700000.0 11309700000.0 11309700000.0 11309700000.0 11309700000.0 11309700000.0 11309700000.0 11309700000.0 11309700000.0 11309700000.0 11309700000.0 11309700000.0 11309700000.0 11309700000.0 11309700000.0 11309700000.0 11309700000.0 11309700000.0 11309700000.0 11309700000.0 11309700000.0 11309700000.0 11309700000.0 11309700000.0 11309700000.0 11309700000.0 11309700000.0 11309700000.0 11309700000.0 11309700000.0 11309700000.0 11309700000.0 11309700000.0 11309700000.0 11309700000.0 11309700000.0 11309700000.0 11309700000.0 11309700000.0 11309700000.0 11309700000.0 11309700000.0 11309700000.0 11309700000.0 11309700000.0 11309700000.0 11309700000.0 11309700000.0 11309700000.0 11309700000.0 11309700000.0 11309700000.0 11309700000.0 11309700000.0 11309700000.0 11309700000.0 11309700000.0 11309700000.0 11309700000.0 11309700000.0 11309700000.0 11309700000.0 11309700000.0 11309700000.0 11309700000.0 11309700000.0 11309700000.0 11309700000.0 11309700000.0 11309700000.0 11309700000.0 11309700000.0 11309700000.0 11309700000.0 11309700000.0 11309700000.0 11309700000.0 11309700000.0 11309700000.0 11309700000.0 11309700000.0 11309700000.0 11309700000.0 11309700000.0 11309700000.0 11309700000.0 11309700000.0 11309700000.0 11309700000.0 11309700000.0 11309700000.0 11309700000.0 11309700000.0 11309700000.0 11309700000.0 11309700000.0 11309700000.0 11309700000.0 11309700000.0 11309700000.0 11309700000.0 11309700000.0 11309700000.0 11309700000.0 11309700000.0 11309700000.0 11309700000.0 11309700000.0 11309700000.0 11309700000.0 11309700000.0 11309700000.0 11309700000.0 11309700000.0 11309700000.0 11309700000.0 11309700000.0 11309700000.0 11309700000.0 11309700000.0 11309700000.0 11309700000.0 11309700000.0 11309700000.0 11309700000.0 11309700000.0 11309700000.0 11309700000.0 11309700000.0 11309700000.0 11309700000.0 11309700000.0 11309700000.0 11309700000.0 11309700000.0 11309700000.0 11309700000.0 11309700000.0 11309700000.0 11309700000.0 11309700000.0 11309700000.0 11309700000.0 11309700000.0 11309700000.0 11309700000.0 11309700000.0 11309700000.0 11309700000.0 11309700000.0 11309700000.0 11309700000.0 11309700000.0 11309700000.0 11309700000.0 11309700000.0 11309700000.0 11309700000.0 11309700000.0 11309700000.0 11309700000.0 11309700000.0 11309700000.0 11309700000.0 11309700000.0 11309700000.0 11309700000.0 11309700000.0 11309700000.0 11309700000.0 11309700000.0 11309700000.0 11309700000.0 11309700000.0 11309700000.0 11309700000.0 11309700000.0 11309700000.0 11309700000.0 11309700000.0 11309700000.0 11309700000.0 11309700000.0 11309700000.0 11309700000.0 11309700000.0 11309700000.0 11309700000.0 11309700000.0 11309700000.0 11309700000.0 11309700000.0 11309700000.0 11309700000.0 11309700000.0 11309700000.0 11309700000.0 11309700000.0 11309700000.0 11309700000.0 11309700000.0 11309700000.0 11309700000.0 11309700000.0 11309700000.0 11309700000.0 11309700000.0 11309700000.0 11309700000.0 11309700000.0 11309700000.0 11309700000.0 11309700000.0 11309700000.0 11309700000.0 11309700000.0 11309700000.0 11309700000.0 11309700000.0 11309700000.0 11309700000.0 11309700000.0 11309700000.0 11309700000.0 11309700000.0 11309700000.0 11309700000.0 11309700000.0 11309700000.0 11309700000.0 11309700000.0 11309700000.0 11309700000.0 11309700000.0 11309700000.0 11309700000.0 11309700000.0 11309700000.0 11309700000.0 11309700000.0 11309700000.0 11309700000.0 11309700000.0 11309700000.0 11309700000.0 11309700000.0 11309700000.0 11309700000.0 11309700000.0 11309700000.0 11309700000.0 11309700000.0 11309700000.0 11309700000.0 11309700000.0 11309700000.0 11309700000.0 11309700000.0 11309700000.0 11309700000.0 11309700000.0 11309700000.0 11309700000.0 11309700000.0 11309700000.0 11309700000.0 11309700000.0 11309700000.0 11309700000.0 11309700000.0 11309700000.0 11309700000.0 11309700000.0 11309700000.0 11309700000.0 11309700000.0 11309700000.0 11309700000.0 11309700000.0 11309700000.0 11309700000.0 11309700000.0 11309700000.0 11309700000.0 11309700000.0 11309700000.0 11309700000.0 11309700000.0 11309700000.0 11309700000.0 11309700000.0 11309700000.0 11309700000.0 11309700000.0 11309700000.0 11309700000.0 11309700000.0 11309700000.0 11309700000.0 11309700000.0 11309700000.0 11309700000.0 11309700000.0 11309700000.0 11309700000.0 11309700000.0 11309700000.0 11309700000.0 11309700000.0 11309700000.0 11309700000.0 11309700000.0 11309700000.0 11309700000.0 11309700000.0 11309700000.0 11309700000.0 11309700000.0 11309700000.0 11309700000.0 11309700000.0 11309700000.0 11309700000.0 11309700000.0 11309700000.0 11309700000.0 11309700000.0 11309700000.0 11309700000.0 11309700000.0 11309700000.0 11309700000.0 11309700000.0 11309700000.0 11309700000.0 11309700000.0 11309700000.0 11309700000.0 11309700000.0 11309700000.0 11309700000.0 11309700000.0 11309700000.0 11309700000.0 11309700000.0 11309700000.0 11309700000.0 11309700000.0 11309700000.0 11309700000.0 11309700000.0 11309700000.0 11309700000.0 11309700000.0 11309700000.0 11309700000.0 11309700000.0 11309700000.0 11309700000.0 11309700000.0 11309700000.0 11309700000.0 11309700000.0 11309700000.0 11309700000.0 11309700000.0 11309700000.0 11309700000.0 11309700000.0 11309700000.0 11309700000.0 11309700000.0 11309700000.0 11309700000.0 11309700000.0 11309700000.0 11309700000.0 11309700000.0 11309700000.0 11309700000.0 11309700000.0 11309700000.0 11309700000.0 11309700000.0 11309700000.0 11309700000.0 11309700000.0 11309700000.0 11309700000.0 11309700000.0 11309700000.0 11309700000.0 11309700000.0 11309700000.0 11309700000.0 11309700000.0 11309700000.0 11309700000.0 11309700000.0 11309700000.0 11309700000.0 11309700000.0 11309700000.0 11309700000.0 11309700000.0 11309700000.0 11309700000.0 11309700000.0 11309700000.0 11309700000.0 11309700000.0 11309700000.0 11309700000.0 11309700000.0 11309700000.0 11309700000.0 11309700000.0 11309700000.0 11309700000.0 11309700000.0 11309700000.0 11309700000.0 11309700000.0 11309700000.0 11309700000.0 11309700000.0 11309700000.0 11309700000.0 11309700000.0 11309700000.0 11309700000.0 11309700000.0 11309700000.0 11309700000.0 11309700000.0 11309700000.0 11309700000.0 11309700000.0 11309700000.0 11309700000.0 11309700000.0 11309700000.0 11309700000.0 11309700000.0 11309700000.0 11309700000.0 11309700000.0 11309700000.0 11309700000.0 11309700000.0 11309700000.0 11309700000.0 11309700000.0 11309700000.0 11309700000.0 11309700000.0 11309700000.0 11309700000.0 11309700000.0 11309700000.0 11309700000.0 11309700000.0 11309700000.0 11309700000.0 11309700000.0 11309700000.0 11309700000.0 11309700000.0 11309700000.0 11309700000.0 11309700000.0 11309700000.0 11309700000.0 11309700000.0 11309700000.0 11309700000.0 11309700000.0 11309700000.0 11309700000.0 11309700000.0 11309700000.0 11309700000.0 11309700000.0 11309700000.0 11309700000.0 11309700000.0 11309700000.0 11309700000.0 11309700000.0 11309700000.0 11309700000.0 11309700000.0 11309700000.0 11309700000.0 11309700000.0 11309700000.0 11309700000.0 11309700000.0 11309700000.0 11309700000.0 11309700000.0 11309700000.0 11309700000.0 11309700000.0 11309700000.0 11309700000.0 11309700000.0 11309700000.0 11309700000.0 11309700000.0 11309700000.0 11309700000.0 11309700000.0 11309700000.0 11309700000.0 11309700000.0 11309700000.0 11309700000.0 11309700000.0 11309700000.0 11309700000.0 11309700000.0 11309700000.0 11309700000.0 11309700000.0 11309700000.0 11309700000.0 11309700000.0 11309700000.0 11309700000.0 11309700000.0 11309700000.0 11309700000.0 11309700000.0 11309700000.0 11309700000.0 11309700000.0 11309700000.0 11309700000.0 11309700000.0 11309700000.0 11309700000.0 11309700000.0 11309700000.0 11309700000.0 11309700000.0 11309700000.0 11309700000.0 11309700000.0 11309700000.0 11309700000.0 11309700000.0 11309700000.0 11309700000.0 11309700000.0 11309700000.0 11309700000.0 11309700000.0 11309700000.0 11309700000.0 11309700000.0 11309700000.0 11309700000.0 11309700000.0 11309700000.0 11309700000.0 11309700000.0 11309700000.0 11309700000.0 11309700000.0 11309700000.0 11309700000.0 11309700000.0 11309700000.0 11309700000.0 11309700000.0 11309700000.0 11309700000.0 11309700000.0 11309700000.0 11309700000.0 11309700000.0 11309700000.0 11309700000.0 11309700000.0 11309700000.0 11309700000.0 11309700000.0 11309700000.0 11309700000.0 11309700000.0 11309700000.0 11309700000.0 11309700000.0 11309700000.0 11309700000.0 11309700000.0 11309700000.0 11309700000.0 11309700000.0 11309700000.0 11309700000.0 11309700000.0 11309700000.0 11309700000.0 11309700000.0 11309700000.0 11309700000.0 11309700000.0 11309700000.0 11309700000.0 11309700000.0 11309700000.0 11309700000.0 11309700000.0 11309700000.0 11309700000.0 11309700000.0 11309700000.0 11309700000.0 11309700000.0 11309700000.0 11309700000.0 11309700000.0 11309700000.0 11309700000.0 11309700000.0 11309700000.0 11309700000.0 11309700000.0 11309700000.0 11309700000.0 11309700000.0 11309700000.0 11309700000.0 11309700000.0 11309700000.0 11309700000.0 11309700000.0 11309700000.0 11309700000.0 11309700000.0 11309700000.0 11309700000.0 11309700000.0 11309700000.0 11309700000.0 11309700000.0 11309700000.0 11309700000.0 11309700000.0 11309700000.0 11309700000.0 11309700000.0 11309700000.0 11309700000.0 11309700000.0 11309700000.0 11309700000.0 11309700000.0 11309700000.0 11309700000.0 11309700000.0 11309700000.0 11309700000.0 11309700000.0 11309700000.0 11309700000.0 11309700000.0 11309700000.0 11309700000.0 11309700000.0 11309700000.0 11309700000.0 11309700000.0 11309700000.0 11309700000.0 11309700000.0 11309700000.0 11309700000.0 11309700000.0 11309700000.0 11309700000.0 11309700000.0 11309700000.0 11309700000.0 11309700000.0 11309700000.0 11309700000.0 11309700000.0 11309700000.0 11309700000.0 11309700000.0 11309700000.0 11309700000.0 11309700000.0 11309700000.0 11309700000.0 11309700000.0 11309700000.0 11309700000.0 11309700000.0 11309700000.0 11309700000.0 11309700000.0 11309700000.0 11309700000.0 11309700000.0 11309700000.0 11309700000.0 11309700000.0 11309700000.0 11309700000.0 11309700000.0 11309700000.0 11309700000.0 11309700000.0 11309700000.0 11309700000.0 11309700000.0 11309700000.0 11309700000.0 11309700000.0 11309700000.0 11309700000.0 11309700000.0 11309700000.0 11309700000.0 11309700000.0 11309700000.0 11309700000.0 11309700000.0 11309700000.0 11309700000.0 11309700000.0 11309700000.0 11309700000.0 11309700000.0 11309700000.0 11309700000.0 11309700000.0 11309700000.0 11309700000.0 11309700000.0 11309700000.0 11309700000.0 11309700000.0 11309700000.0 11309700000.0 11309700000.0 11309700000.0 11309700000.0 11309700000.0 11309700000.0 11309700000.0 11309700000.0 11309700000.0 11309700000.0 11309700000.0 11309700000.0 11309700000.0 11309700000.0 11309700000.0 11309700000.0 11309700000.0 11309700000.0 11309700000.0 11309700000.0 11309700000.0 11309700000.0 11309700000.0 11309700000.0 11309700000.0 11309700000.0 11309700000.0 11309700000.0 11309700000.0 11309700000.0 11309700000.0 11309700000.0 11309700000.0 11309700000.0 11309700000.0 11309700000.0 11309700000.0 11309700000.0 11309700000.0 11309700000.0 11309700000.0 11309700000.0 11309700000.0 11309700000.0 11309700000.0 11309700000.0 11309700000.0 11309700000.0 11309700000.0 11309700000.0 11309700000.0 11309700000.0 11309700000.0 11309700000.0 11309700000.0 11309700000.0 11309700000.0 11309700000.0 11309700000.0 11309700000.0 11309700000.0 11309700000.0 11309700000.0 11309700000.0 11309700000.0 11309700000.0 11309700000.0 11309700000.0 11309700000.0 11309700000.0 11309700000.0 11309700000.0 11309700000.0 11309700000.0 11309700000.0 11309700000.0 11309700000.0 11309700000.0 11309700000.0 11309700000.0 11309700000.0 11309700000.0 11309700000.0 11309700000.0 11309700000.0 11309700000.0 11309700000.0 11309700000.0 11309700000.0 11309700000.0 11309700000.0 11309700000.0 11309700000.0 11309700000.0 11309700000.0 11309700000.0 11309700000.0 11309700000.0 11309700000.0 11309700000.0 11309700000.0 11309700000.0 11309700000.0 11309700000.0 11309700000.0 11309700000.0 11309700000.0 11309700000.0 11309700000.0 11309700000.0 11309700000.0 11309700000.0 11309700000.0 11309700000.0 11309700000.0 11309700000.0 11309700000.0 11309700000.0 11309700000.0 11309700000.0 11309700000.0 11309700000.0 11309700000.0 11309700000.0 11309700000.0 11309700000.0 11309700000.0 11309700000.0 11309700000.0 11309700000.0 11309700000.0 11309700000.0 11309700000.0 11309700000.0 11309700000.0 11309700000.0 11309700000.0 11309700000.0 11309700000.0 11309700000.0 11309700000.0 11309700000.0 11309700000.0 11309700000.0 11309700000.0 11309700000.0 11309700000.0 11309700000.0 11309700000.0 11309700000.0 11309700000.0 11309700000.0 11309700000.0 11309700000.0 11309700000.0 11309700000.0 11309700000.0 11309700000.0 11309700000.0 11309700000.0 11309700000.0 11309700000.0 11309700000.0 11309700000.0 11309700000.0 11309700000.0 11309700000.0 11309700000.0 11309700000.0 11309700000.0 11309700000.0 11309700000.0 11309700000.0 11309700000.0 11309700000.0 11309700000.0 11309700000.0 11309700000.0 11309700000.0 11309700000.0 11309700000.0 11309700000.0 11309700000.0 11309700000.0 11309700000.0 11309700000.0 11309700000.0 11309700000.0 11309700000.0 11309700000.0 11309700000.0 11309700000.0 11309700000.0 11309700000.0 11309700000.0 11309700000.0 11309700000.0 11309700000.0 11309700000.0 11309700000.0 11309700000.0 11309700000.0 11309700000.0 11309700000.0 11309700000.0 11309700000.0 11309700000.0 11309700000.0 11309700000.0 11309700000.0 11309700000.0 11309700000.0 11309700000.0 11309700000.0 11309700000.0 11309700000.0 11309700000.0 11309700000.0 11309700000.0 11309700000.0 11309700000.0 11309700000.0 11309700000.0 11309700000.0 11309700000.0 11309700000.0 11309700000.0 11309700000.0 11309700000.0 11309700000.0 11309700000.0 11309700000.0 11309700000.0 11309700000.0 11309700000.0 11309700000.0 11309700000.0 11309700000.0 11309700000.0 11309700000.0 11309700000.0 11309700000.0 11309700000.0 11309700000.0 11309700000.0 11309700000.0 11309700000.0 11309700000.0 11309700000.0 11309700000.0 11309700000.0 11309700000.0 11309700000.0 11309700000.0 11309700000.0 11309700000.0 11309700000.0 11309700000.0 11309700000.0 11309700000.0 11309700000.0 11309700000.0 11309700000.0 11309700000.0 11309700000.0 11309700000.0 11309700000.0 11309700000.0 11309700000.0 11309700000.0 11309700000.0 11309700000.0 11309700000.0 11309700000.0 11309700000.0 11309700000.0 11309700000.0 11309700000.0 11309700000.0 11309700000.0 11309700000.0 11309700000.0 11309700000.0 11309700000.0 11309700000.0 11309700000.0 11309700000.0 11309700000.0 11309700000.0 11309700000.0 11309700000.0 11309700000.0 11309700000.0 11309700000.0 11309700000.0 11309700000.0 11309700000.0 11309700000.0 11309700000.0 11309700000.0 11309700000.0 11309700000.0 11309700000.0 11309700000.0 11309700000.0 11309700000.0 11309700000.0 11309700000.0 11309700000.0 11309700000.0 11309700000.0 11309700000.0 11309700000.0 11309700000.0 11309700000.0 11309700000.0 11309700000.0 11309700000.0 11309700000.0 11309700000.0 11309700000.0 11309700000.0 11309700000.0 11309700000.0 11309700000.0 11309700000.0 11309700000.0 11309700000.0 11309700000.0 11309700000.0 11309700000.0 11309700000.0 11309700000.0 11309700000.0 11309700000.0 11309700000.0 11309700000.0 11309700000.0 11309700000.0 11309700000.0 11309700000.0 11309700000.0 11309700000.0 11309700000.0 11309700000.0 11309700000.0 11309700000.0 11309700000.0 11309700000.0 11309700000.0 11309700000.0 11309700000.0 11309700000.0 11309700000.0 11309700000.0 11309700000.0 11309700000.0 11309700000.0 11309700000.0 11309700000.0 11309700000.0 11309700000.0 11309700000.0 11309700000.0 11309700000.0 11309700000.0 11309700000.0 11309700000.0 11309700000.0 11309700000.0 11309700000.0 11309700000.0 11309700000.0 11309700000.0 11309700000.0 11309700000.0 11309700000.0 11309700000.0 11309700000.0 11309700000.0 11309700000.0 11309700000.0 11309700000.0 11309700000.0 11309700000.0 11309700000.0 11309700000.0 11309700000.0 11309700000.0 11309700000.0 11309700000.0 11309700000.0 11309700000.0 11309700000.0 11309700000.0 11309700000.0 11309700000.0 11309700000.0 11309700000.0 11309700000.0 11309700000.0 11309700000.0 11309700000.0 11309700000.0 11309700000.0 11309700000.0 11309700000.0 11309700000.0 11309700000.0 11309700000.0 11309700000.0 11309700000.0 11309700000.0 11309700000.0 11309700000.0 11309700000.0 11309700000.0 11309700000.0 11309700000.0 11309700000.0 11309700000.0 11309700000.0 11309700000.0 11309700000.0 11309700000.0 11309700000.0 11309700000.0 11309700000.0 11309700000.0 11309700000.0 11309700000.0 11309700000.0 11309700000.0 11309700000.0 11309700000.0 11309700000.0 11309700000.0 11309700000.0 11309700000.0 11309700000.0 11309700000.0 11309700000.0 11309700000.0 11309700000.0 11309700000.0 11309700000.0 11309700000.0 11309700000.0 11309700000.0 11309700000.0 11309700000.0 11309700000.0 11309700000.0 11309700000.0 11309700000.0 11309700000.0 11309700000.0 11309700000.0 11309700000.0 11309700000.0 11309700000.0 11309700000.0 11309700000.0 11309700000.0 11309700000.0 11309700000.0 11309700000.0 11309700000.0 11309700000.0 11309700000.0 11309700000.0 11309700000.0 11309700000.0 11309700000.0 11309700000.0 11309700000.0 11309700000.0 11309700000.0 11309700000.0 11309700000.0 11309700000.0 11309700000.0 11309700000.0 11309700000.0 11309700000.0 11309700000.0 11309700000.0 11309700000.0 11309700000.0 11309700000.0 11309700000.0 11309700000.0 11309700000.0 11309700000.0 11309700000.0 11309700000.0 11309700000.0 11309700000.0 11309700000.0 11309700000.0 11309700000.0 11309700000.0 11309700000.0 11309700000.0 11309700000.0 11309700000.0 11309700000.0 11309700000.0 11309700000.0 11309700000.0 11309700000.0 11309700000.0 11309700000.0 11309700000.0 11309700000.0 11309700000.0 11309700000.0 11309700000.0 11309700000.0 11309700000.0 11309700000.0 11309700000.0 11309700000.0 11309700000.0 11309700000.0 11309700000.0 11309700000.0 11309700000.0 11309700000.0 11309700000.0 11309700000.0 11309700000.0 11309700000.0 11309700000.0 11309700000.0 11309700000.0 11309700000.0 11309700000.0 11309700000.0 11309700000.0 11309700000.0 11309700000.0 11309700000.0 11309700000.0 11309700000.0 11309700000.0 11309700000.0 11309700000.0 11309700000.0 11309700000.0 11309700000.0 11309700000.0 11309700000.0 11309700000.0 11309700000.0 11309700000.0 11309700000.0 11309700000.0 11309700000.0 11309700000.0 11309700000.0 11309700000.0 11309700000.0 11309700000.0 11309700000.0 11309700000.0 11309700000.0 11309700000.0 11309700000.0 11309700000.0 11309700000.0 11309700000.0 11309700000.0 11309700000.0 11309700000.0 11309700000.0 11309700000.0 11309700000.0 11309700000.0 11309700000.0 11309700000.0 11309700000.0 11309700000.0 11309700000.0 11309700000.0 11309700000.0 11309700000.0 11309700000.0 11309700000.0 11309700000.0 11309700000.0 11309700000.0 11309700000.0 11309700000.0 11309700000.0 11309700000.0 11309700000.0 11309700000.0 11309700000.0 11309700000.0 11309700000.0 11309700000.0 11309700000.0 11309700000.0 11309700000.0 11309700000.0 11309700000.0 11309700000.0 11309700000.0 11309700000.0 11309700000.0 11309700000.0 11309700000.0 11309700000.0 11309700000.0 11309700000.0 11309700000.0 11309700000.0 11309700000.0 11309700000.0 11309700000.0 11309700000.0 11309700000.0 11309700000.0 11309700000.0 11309700000.0 11309700000.0 11309700000.0 11309700000.0 11309700000.0 11309700000.0 11309700000.0 11309700000.0 11309700000.0 11309700000.0 11309700000.0 11309700000.0 11309700000.0 11309700000.0 11309700000.0 11309700000.0 11309700000.0 11309700000.0 11309700000.0 11309700000.0 11309700000.0 11309700000.0 11309700000.0 11309700000.0 11309700000.0 11309700000.0 11309700000.0 11309700000.0 11309700000.0 11309700000.0 11309700000.0 11309700000.0 11309700000.0 11309700000.0 11309700000.0 11309700000.0 11309700000.0 11309700000.0 11309700000.0 11309700000.0 11309700000.0 11309700000.0 11309700000.0 11309700000.0 11309700000.0 11309700000.0 11309700000.0 11309700000.0 11309700000.0 11309700000.0 11309700000.0 11309700000.0 11309700000.0 11309700000.0 11309700000.0 11309700000.0 11309700000.0 11309700000.0 11309700000.0 11309700000.0 11309700000.0 11309700000.0 11309700000.0 11309700000.0 11309700000.0 11309700000.0 11309700000.0 11309700000.0 11309700000.0 11309700000.0 11309700000.0 11309700000.0 11309700000.0 11309700000.0 11309700000.0 11309700000.0 11309700000.0 11309700000.0 11309700000.0 11309700000.0 11309700000.0 11309700000.0 11309700000.0 11309700000.0 11309700000.0 11309700000.0 11309700000.0 11309700000.0 11309700000.0 11309700000.0 11309700000.0 11309700000.0 11309700000.0 11309700000.0 11309700000.0 11309700000.0 11309700000.0 11309700000.0 11309700000.0 11309700000.0 11309700000.0 11309700000.0 11309700000.0 11309700000.0 11309700000.0 11309700000.0 11309700000.0 11309700000.0 11309700000.0 11309700000.0 11309700000.0 11309700000.0 11309700000.0 11309700000.0 11309700000.0 11309700000.0 11309700000.0 11309700000.0 11309700000.0 11309700000.0 11309700000.0 11309700000.0 11309700000.0 11309700000.0 11309700000.0 11309700000.0 11309700000.0 11309700000.0 11309700000.0 11309700000.0 11309700000.0 11309700000.0 11309700000.0 11309700000.0 11309700000.0 11309700000.0 11309700000.0 11309700000.0 11309700000.0 11309700000.0 11309700000.0 11309700000.0 11309700000.0 11309700000.0 11309700000.0 11309700000.0 11309700000.0 11309700000.0 11309700000.0 11309700000.0 11309700000.0 11309700000.0 11309700000.0 11309700000.0 11309700000.0 11309700000.0 11309700000.0 11309700000.0 11309700000.0 11309700000.0 11309700000.0 11309700000.0 11309700000.0 11309700000.0 11309700000.0 11309700000.0 11309700000.0 11309700000.0 11309700000.0 11309700000.0 11309700000.0 11309700000.0 11309700000.0 11309700000.0 11309700000.0 11309700000.0 11309700000.0 11309700000.0 11309700000.0 11309700000.0 11309700000.0 11309700000.0 11309700000.0 11309700000.0 11309700000.0 11309700000.0 11309700000.0 11309700000.0 11309700000.0 11309700000.0 11309700000.0 11309700000.0 11309700000.0 11309700000.0 11309700000.0 11309700000.0 11309700000.0 11309700000.0 11309700000.0 11309700000.0 11309700000.0 11309700000.0 11309700000.0 11309700000.0 11309700000.0 11309700000.0 11309700000.0 11309700000.0 11309700000.0 11309700000.0 11309700000.0 11309700000.0 11309700000.0 11309700000.0 11309700000.0 11309700000.0 11309700000.0 11309700000.0 11309700000.0 11309700000.0 11309700000.0 11309700000.0 11309700000.0 11309700000.0 11309700000.0 11309700000.0 11309700000.0 11309700000.0 11309700000.0 11309700000.0 11309700000.0 11309700000.0 11309700000.0 11309700000.0 11309700000.0 11309700000.0 11309700000.0 11309700000.0 11309700000.0 11309700000.0 11309700000.0 11309700000.0 11309700000.0 11309700000.0 11309700000.0 11309700000.0 11309700000.0 11309700000.0 11309700000.0 11309700000.0 11309700000.0 11309700000.0 11309700000.0 11309700000.0 11309700000.0 11309700000.0 11309700000.0 11309700000.0 11309700000.0 11309700000.0 11309700000.0 11309700000.0 11309700000.0 11309700000.0 11309700000.0 11309700000.0 11309700000.0 11309700000.0 11309700000.0 11309700000.0 11309700000.0 11309700000.0 11309700000.0 11309700000.0 11309700000.0 11309700000.0 11309700000.0 11309700000.0 11309700000.0 11309700000.0 11309700000.0 11309700000.0 11309700000.0 11309700000.0 11309700000.0 11309700000.0 11309700000.0 11309700000.0 11309700000.0 11309700000.0 11309700000.0 11309700000.0 11309700000.0 11309700000.0 11309700000.0 11309700000.0 11309700000.0 11309700000.0 11309700000.0 11309700000.0 11309700000.0 11309700000.0 11309700000.0 11309700000.0 11309700000.0 11309700000.0 11309700000.0 11309700000.0 11309700000.0 11309700000.0 11309700000.0 11309700000.0 11309700000.0 11309700000.0 11309700000.0 11309700000.0 11309700000.0 11309700000.0 11309700000.0 11309700000.0 11309700000.0 11309700000.0 11309700000.0 11309700000.0 11309700000.0 11309700000.0 11309700000.0 11309700000.0 11309700000.0 11309700000.0 11309700000.0 11309700000.0 11309700000.0 11309700000.0 11309700000.0 11309700000.0 11309700000.0 11309700000.0 11309700000.0 11309700000.0 11309700000.0 11309700000.0 11309700000.0 11309700000.0 11309700000.0 11309700000.0 11309700000.0 11309700000.0 11309700000.0 11309700000.0 11309700000.0 11309700000.0 11309700000.0 11309700000.0 11309700000.0 11309700000.0 11309700000.0 11309700000.0 11309700000.0 11309700000.0 11309700000.0 11309700000.0 11309700000.0 11309700000.0 11309700000.0 11309700000.0 11309700000.0 11309700000.0 11309700000.0 11309700000.0 11309700000.0 11309700000.0 11309700000.0 11309700000.0 11309700000.0 11309700000.0 11309700000.0 11309700000.0 11309700000.0 11309700000.0 11309700000.0 11309700000.0 11309700000.0 11309700000.0 11309700000.0 11309700000.0 11309700000.0 11309700000.0 11309700000.0 11309700000.0 11309700000.0 11309700000.0 11309700000.0 11309700000.0 11309700000.0 11309700000.0 11309700000.0 11309700000.0 11309700000.0 11309700000.0 11309700000.0 11309700000.0 11309700000.0 11309700000.0 11309700000.0 11309700000.0 11309700000.0 11309700000.0 11309700000.0 11309700000.0 11309700000.0 11309700000.0 11309700000.0 11309700000.0 11309700000.0 11309700000.0 11309700000.0 11309700000.0 11309700000.0 11309700000.0 11309700000.0 11309700000.0 11309700000.0 11309700000.0 11309700000.0 11309700000.0 11309700000.0 11309700000.0 11309700000.0 11309700000.0 11309700000.0 11309700000.0 11309700000.0 11309700000.0 11309700000.0 11309700000.0 11309700000.0 11309700000.0 11309700000.0 11309700000.0 11309700000.0 11309700000.0 11309700000.0 11309700000.0 11309700000.0 11309700000.0 11309700000.0 11309700000.0 11309700000.0 11309700000.0 11309700000.0 11309700000.0 11309700000.0 11309700000.0 11309700000.0 11309700000.0 11309700000.0 11309700000.0 11309700000.0 11309700000.0 11309700000.0 11309700000.0 11309700000.0 11309700000.0 11309700000.0 11309700000.0 11309700000.0 11309700000.0 11309700000.0 11309700000.0 11309700000.0 11309700000.0 11309700000.0 11309700000.0 11309700000.0 11309700000.0 11309700000.0 11309700000.0 11309700000.0 11309700000.0 11309700000.0 11309700000.0 11309700000.0 11309700000.0 11309700000.0 11309700000.0 11309700000.0 11309700000.0 11309700000.0 11309700000.0 11309700000.0 11309700000.0 11309700000.0 11309700000.0 11309700000.0 11309700000.0 11309700000.0 11309700000.0 11309700000.0 11309700000.0 11309700000.0 11309700000.0 11309700000.0 11309700000.0 11309700000.0 11309700000.0 11309700000.0 11309700000.0 11309700000.0 11309700000.0 11309700000.0 11309700000.0 11309700000.0 11309700000.0 11309700000.0 11309700000.0 11309700000.0 11309700000.0 11309700000.0 11309700000.0 11309700000.0 11309700000.0 11309700000.0 11309700000.0 11309700000.0 11309700000.0 11309700000.0 11309700000.0 11309700000.0 11309700000.0 11309700000.0 11309700000.0 11309700000.0 11309700000.0 11309700000.0 11309700000.0 11309700000.0 11309700000.0 11309700000.0 11309700000.0 11309700000.0 11309700000.0 11309700000.0 11309700000.0 11309700000.0 11309700000.0 11309700000.0 11309700000.0 11309700000.0 11309700000.0 11309700000.0 11309700000.0 11309700000.0 11309700000.0 11309700000.0 11309700000.0 11309700000.0 11309700000.0 11309700000.0 11309700000.0 11309700000.0 11309700000.0 11309700000.0 11309700000.0 11309700000.0 11309700000.0 11309700000.0 11309700000.0 11309700000.0 11309700000.0 11309700000.0 11309700000.0 11309700000.0 11309700000.0 11309700000.0 11309700000.0 11309700000.0 11309700000.0 11309700000.0 11309700000.0 11309700000.0 11309700000.0 11309700000.0 11309700000.0 11309700000.0 11309700000.0 11309700000.0 11309700000.0 11309700000.0 11309700000.0 11309700000.0 11309700000.0 11309700000.0 11309700000.0 11309700000.0 11309700000.0 11309700000.0 11309700000.0 11309700000.0 11309700000.0 11309700000.0 11309700000.0 11309700000.0 11309700000.0 11309700000.0 11309700000.0 11309700000.0 11309700000.0 11309700000.0 11309700000.0 11309700000.0 11309700000.0 11309700000.0 11309700000.0 11309700000.0 11309700000.0 11309700000.0 11309700000.0 11309700000.0 
SCALARS Velocity float 1
LOOKUP_TABLE default
1.05598 0.995171 1.03374 1.13663 1.17026 1.21082 1.00871 0.98032 1.02471 1.08823 1.13754 1.18262 1.24195 1.19277 1.0632 1.21625 0.861541 1.11967 1.16596 1.0251 0.968944 1.00103 1.07075 1.15074 1.20591 1.24699 1.18971 1.0751 1.04043 1.01859 0.997784 0.893832 0.953491 1.12873 1.20379 1.00962 0.957254 0.985347 1.00743 1.02853 1.09842 1.18119 1.14822 1.25333 1.10904 1.07385 1.01164 1.21751 1.05351 1.06539 1.09171 1.1154 1.15507 1.19097 1.04223 0.973376 0.978194 0.990464 1.0333 1.06417 1.09676 1.14465 1.18237 1.21111 1.16805 1.15432 1.04012 0.986072 1.22984 1.22336 1.09945 1.07821 1.1246 1.06511 1.05336 0.964722 1.0191 1.05905 1.14108 1.22582 1.22938 1.03186 0.998364 1.16559 1.11715 1.07656 1.04273 1.00699 0.976419 1.23454 1.07904 1.07879 1.16444 1.08568 0.964895 1.00164 1.03648 1.09691 1.19135 1.06656 1.02826 1.13079 1.08161 1.00682 1.24943 1.17808 1.05078 1.02448 1.10351 1.13694 1.10453 0.978895 0.942459 0.998221 1.00704 1.05299 1.10409 1.14644 1.04735 1.13374 1.17622 1.12885 1.05418 0.949499 1.27285 1.25116 1.10414 1.09681 1.00917 1.0801 1.11545 1.18542 1.20307 0.955167 1.0518 0.991435 1.01379 1.02831 1.05231 1.13845 1.16138 1.12317 1.02111 0.834212 1.26898 1.15066 1.09003 1.16293 1.18827 1.14242 1.13714 1.18574 1.20256 1.00395 0.993831 0.941914 1.05029 1.1042 1.2015 1.14179 1.11539 0.957834 1.2976 1.09912 0.89077 1.26641 1.17007 1.15761 1.19772 1.16661 0.957008 0.981191 0.994182 1.0998 1.14071 1.18332 1.18642 1.16048 1.13215 1.11096 1.3113 1.30108 1.05851 1.10969 1.3038 1.18107 1.15717 1.18709 1.18598 1.18066 1.09129 0.980084 0.940563 0.943565 0.950839 1.05019 1.14353 1.17947 1.14741 1.21217 1.225 1.32673 1.22455 1.25882 1.24416 1.20568 1.17426 1.1722 1.16949 1.17551 1.13919 0.930918 0.953443 0.995157 1.05701 1.10492 1.17345 1.1637 1.16408 1.23776 1.31919 1.23247 1.21526 1.22442 1.19722 1.17333 1.15679 1.06235 0.974437 0.929194 1.00888 1.1151 1.14799 1.17079 1.17318 1.16316 1.21258 1.30218 1.36675 1.31693 1.26045 1.22408 1.22368 1.19128 1.17602 1.16055 1.12097 1.10621 1.0468 0.935098 0.965928 1.07509 1.15261 1.17404 1.1659 1.16417 1.18182 1.22918 1.26564 1.29602 1.41747 1.32607 1.25278 1.21681 1.23498 1.22935 1.26164 1.22395 1.21109 1.14174 1.06984 1.02816 1.06576 0.934432 0.962161 1.02476 1.09811 1.12876 1.16765 1.16516 1.18086 1.32533 1.31216 1.47127 1.02018 1.35719 1.27218 1.26138 1.26156 1.17881 1.09554 1.04757 1.02772 1.01965 1.09879 1.01085 1.14749 1.15564 1.15056 1.16015 1.15934 1.17507 1.2403 1.3761 1.60823 0.519784 0.692306 0.837374 0.794658 1.42041 1.45129 1.28845 1.28168 1.31974 1.23255 1.19545 1.13319 1.08329 1.01985 1.00503 1.11648 1.14513 1.14203 1.13375 1.14739 1.14192 1.12465 1.16671 1.45369 1.68497 0.56401 0.575965 0.71377 0.657287 0.669709 0.655869 0.963964 0.963248 1.43225 1.31183 1.30374 1.3164 1.28436 1.14429 1.04065 0.993288 0.96617 1.21987 1.14563 1.12411 1.10219 1.11397 1.13275 1.23212 1.11922 1.22282 0.824127 0.616105 0.693366 0.695074 0.652879 0.651885 0.831903 1.02641 1.43156 1.4232 1.16495 1.25964 1.09819 1.05388 0.998679 0.899032 0.913644 1.14651 1.15286 1.21562 1.18823 1.12662 1.11214 1.05148 1.08 1.08748 1.08755 1.1152 1.18246 0.985453 1.3637 0.994919 0.470333 0.684705 0.552227 0.549294 0.639384 0.672713 0.690541 0.747136 0.664262 0.962394 0.973191 1.07287 1.09035 1.10859 1.31643 0.987993 0.829456 1.2045 1.15208 0.951312 1.15321 1.16706 1.16224 1.04251 1.06535 1.09299 1.05549 1.05859 1.04004 1.00077 1.08777 1.39752 0.63131 0.436281 0.525159 0.549745 0.570008 0.613347 0.655136 0.707775 0.754608 0.903543 1.11784 1.12557 1.05834 1.12592 1.09864 1.13231 0.966196 0.787997 1.08378 1.16075 1.16356 1.22845 0.987813 1.03628 1.10602 1.10576 1.03794 1.02538 1.06706 0.255496 0.147702 0.340456 0.451833 0.556077 0.590126 0.584821 0.594159 0.596873 0.620616 0.622283 0.651086 0.627952 0.79559 0.51283 1.25771 1.05422 1.02287 1.05394 1.08799 1.03713 0.826578 0.851345 0.826392 0.966991 1.19909 1.17569 1.18118 1.23261 1.17164 0.912779 1.08664 1.04206 1.02521 1.05477 1.081 1.14655 1.11503 1.07604 1.03063 1.00968 1.04053 1.20256 0.666358 0.296835 0.49656 0.521853 0.576907 0.584908 0.605333 0.60337 0.610943 0.580377 0.584505 0.595839 0.589296 0.567861 0.620813 0.338231 1.3399 0.939378 0.985537 1.02221 1.12464 0.899616 0.891239 1.04067 1.26144 0.79056 0.964139 1.02345 1.10329 1.1763 1.01457 1.00839 0.992977 1.08902 0.678741 0.514997 0.57525 0.604511 0.611476 0.606512 0.570981 0.569392 0.575683 0.567089 0.578873 0.571238 0.580296 0.549084 0.416044 0.0304509 1.00426 0.95119 0.93713 1.10103 1.21834 1.08247 0.93196 0.875745 0.992809 1.22411 0.678651 0.828511 0.961961 1.02025 1.08196 1.22706 1.28641 1.09957 0.973329 1.00955 1.01781 0.870748 0.683164 0.601098 0.630079 0.612368 0.619171 0.615725 0.60749 0.611224 0.59964 0.596651 0.547272 0.557246 0.562279 0.561889 0.564304 0.555922 0.471608 0.436801 0.278471 0.633524 0.964113 0.912329 0.929829 0.989129 1.12842 1.20428 0.845262 0.90177 1.05457 1.06667 0.681217 0.601192 0.618938 0.707907 0.757661 0.868064 0.877108 0.934069 0.895337 1.36318 1.11173 0.980026 0.978751 0.978318 0.97689 0.898667 0.789382 0.736934 0.670921 0.633112 0.611859 0.594911 0.581249 0.579601 0.559197 0.529054 0.553898 0.563933 0.564596 0.561823 0.570831 0.567436 0.557223 0.523389 0.518129 0.580111 1.01619 0.99219 0.939396 1.01136 1.43092 0.838613 0.900119 1.01131 0.654733 0.665833 0.799008 0.869475 0.880004 1.53833 1.07044 0.97655 0.941291 0.952558 0.824972 0.693157 0.654455 0.642933 0.626436 0.612914 0.598129 0.587698 0.584792 0.569768 0.544548 0.501363 0.519192 0.536896 0.54256 0.560372 0.566668 0.567649 0.591106 0.584568 0.563182 0.606639 0.733467 0.800559 0.998602 0.949145 0.994972 1.3814 1.20047 0.786994 0.839106 0.876574 0.981596 0.966447 0.986967 0.849404 0.633034 0.719422 0.762917 0.827684 0.84886 0.858233 0.837393 0.806675 0.913225 1.42844 1.01308 0.901142 0.908797 0.890681 0.831318 0.757133 0.657634 0.634194 0.621474 0.59648 0.582978 0.572967 0.556906 0.552771 0.527626 0.516689 0.454011 0.47756 0.492436 0.529473 0.558168 0.565998 0.566216 0.564585 0.620941 0.595531 0.628214 0.712761 0.868275 0.945172 0.94412 0.988549 1.14154 0.756943 0.877213 0.963132 1.05761 0.795324 0.836542 0.684068 0.668124 0.703656 0.805624 0.864735 0.954449 0.693134 0.981002 0.943168 0.948728 0.863718 0.863878 0.767439 0.707632 0.651974 0.651991 0.589051 0.588103 0.575868 0.562981 0.537447 0.505407 0.493533 0.468669 0.433731 0.467537 0.492097 0.512405 0.522848 0.545784 0.563789 0.563492 0.545205 0.614763 0.647242 0.636228 0.604906 0.702147 0.814954 0.864269 0.871393 0.910591 0.795474 0.291519 0.912621 1.05763 0.974591 0.7746 0.608763 0.48606 0.480655 0.661909 0.698868 0.748475 0.838258 0.938238 0.326099 0.708289 0.856251 0.824578 0.822407 0.825245 0.723844 0.657922 0.667153 0.66488 0.635442 0.565153 0.578596 0.566055 0.543182 0.526049 0.519456 0.49511 0.477399 0.454901 0.405881 0.426727 0.443788 0.462068 0.507077 0.540935 0.573709 0.575874 0.649375 0.680715 0.623912 0.881634 0.794827 0.811501 0.866229 0.759787 0.739564 0.63051 0.635203 0.754239 0.886777 1.02415 1.10019 1.08781 0.943174 0.590082 0.5108 0.599208 0.735571 0.789922 0.83655 0.895412 0.882078 0.76538 0.44123 0.466102 0.707927 0.709261 0.801256 0.785805 0.782605 0.812655 0.644821 0.692233 0.662104 0.585463 0.579345 0.538406 0.511083 0.46817 0.463493 0.4588 0.445589 0.35898 0.393825 0.441306 0.46161 0.491931 0.511219 0.525652 0.536669 0.559369 0.559395 0.54013 0.799102 0.639973 0.404698 0.744164 0.862107 0.83247 0.748553 0.664964 0.629884 0.570605 0.772994 1.03173 1.11965 0.734775 0.589868 0.524936 0.663991 0.773392 0.877396 0.783637 0.523865 0.559406 0.643525 0.71202 0.781038 0.798326 0.718605 0.503415 0.659055 0.78873 0.5598 0.56532 0.561676 0.538469 0.523467 0.513531 0.492848 0.469161 0.46468 0.452438 0.435993 0.305805 0.32309 0.341355 0.423825 0.44735 0.508249 0.533738 0.567127 0.543064 0.530339 0.340101 0.54055 0.521252 0.798125 0.688042 0.673056 0.530353 0.845814 0.926315 1.14203 0.914982 0.720605 0.630091 0.60212 0.552646 0.57477 0.601878 0.658795 0.711151 0.824017 0.897992 0.550534 0.552551 0.624868 0.677505 0.751868 0.566087 0.576137 0.386482 0.545475 0.546813 0.566919 0.53379 0.509437 0.471738 0.465318 0.434405 0.434514 0.456203 0.331635 0.286573 0.341528 0.398217 0.449628 0.46975 0.547876 0.538491 0.573029 0.532352 0.592043 0.424666 0.532696 0.691885 0.528337 0.533891 0.71667 0.587523 0.74507 0.603519 0.597358 0.621058 0.77085 0.723636 0.917265 0.83365 1.1206 1.12347 1.21746 1.15421 0.80512 0.687869 0.598325 0.631887 0.699059 0.751342 0.78665 0.874232 0.976608 0.802978 0.694657 0.69441 0.593143 0.599197 0.601691 0.708201 0.601678 0.685028 0.531257 0.545757 0.683476 0.544286 0.458435 0.593375 0.527887 0.572663 0.534548 0.543549 0.474191 0.490991 0.4674 0.460247 0.438512 0.516509 0.379678 0.319074 0.284122 0.255862 0.442336 0.50956 0.476477 0.491064 0.568644 0.567095 0.469386 0.509667 0.601245 0.564712 0.638051 0.645709 0.671175 0.671299 0.612248 0.754953 0.986373 1.22752 1.00705 0.855969 0.66197 0.631612 0.674343 0.73075 0.851321 0.380599 0.594257 0.795154 0.604517 0.659458 0.648806 0.629503 0.615204 0.558632 0.60667 0.511344 0.479447 0.567544 0.559355 0.486897 0.495598 0.540437 0.512805 0.460349 0.471769 0.543704 0.583171 0.54055 0.477162 0.400661 0.254912 0.393931 0.518354 0.554166 0.598776 0.634904 0.520705 0.571006 0.396311 0.495413 0.498257 0.551991 0.573257 0.614163 0.630403 0.658145 0.654005 0.631243 0.609688 0.584206 0.693589 0.702062 0.988093 0.721536 0.964989 0.861469 0.778742 0.729137 0.65694 0.676015 0.66707 0.696399 0.706218 0.768507 1.087 0.443929 0.563099 0.450116 0.60461 0.612238 0.632076 0.634627 0.609913 0.576386 0.552265 0.461641 0.482099 0.377196 0.567363 0.505346 0.638263 0.613953 0.566483 0.534141 0.504237 0.523422 0.399576 0.31798 0.412564 0.586408 0.469897 0.322722 0.203953 0.34142 0.547553 0.534464 0.508652 0.306076 0.483416 0.348087 0.432777 0.468421 0.516325 0.518344 0.542248 0.567653 0.589876 0.634212 0.639092 0.628597 0.616812 0.597376 0.624866 0.351459 0.896038 0.376449 0.395877 0.760823 0.794977 0.775864 0.710894 0.697763 0.721004 0.736225 0.796196 0.869681 1.03466 0.632498 0.467637 0.558193 0.588826 0.603143 0.61575 0.613433 0.599747 0.583063 0.567308 0.538598 0.49958 0.48546 0.436544 0.396438 0.272687 0.446751 0.226745 0.460707 0.512652 0.553204 0.507332 0.336788 0.350014 0.355279 0.552004 0.106659 0.512143 0.314174 0.332843 0.277474 0.191766 0.567918 0.517002 0.399546 0.455209 0.442195 0.444418 0.484078 0.507394 0.533667 0.54689 0.571134 0.590093 0.60914 0.620357 0.615686 0.611213 0.590106 0.576339 0.597953 0.277482 0.57186 0.749715 0.735809 0.707603 0.716027 0.757225 0.877842 0.505045 0.501133 0.55424 0.578854 0.596128 0.603536 0.597485 0.583654 0.56086 0.536101 0.504583 0.469235 0.450884 0.390566 0.372823 0.372878 0.319463 0.433301 0.495458 0.434638 0.37773 0.400065 0.406378 0.4563 0.406302 0.0196332 0.242859 0.640867 0.45597 0.0958403 0.063116 0.389858 0.576285 0.531702 0.600655 0.568205 0.451272 0.447617 0.444633 0.470489 0.48999 0.514439 0.529968 0.559367 0.575675 0.592272 0.606722 0.614019 0.619709 0.617918 0.582526 0.560878 0.557536 0.547925 0.547067 0.13911 0.236616 0.371504 0.524316 0.667327 0.686716 0.726461 0.715695 0.717651 0.716156 0.715973 0.728334 0.737119 0.764414 0.806266 0.817034 0.802306 0.569451 0.510504 0.52233 0.530161 0.560569 0.600069 0.601255 0.604643 0.596148 0.580272 0.564533 0.534474 0.496119 0.470084 0.433193 0.400636 0.35702 0.3596 0.338007 0.405306 0.461843 0.553815 0.481148 0.339871 0.365982 0.438052 0.589908 0.799794 0.33215 0.305407 0.00847787 0.0643312 0.610582 0.213042 0.0222862 0.282024 0.715313 0.681363 0.513403 0.578581 0.595984 0.605388 0.611907 0.613239 0.60936 0.602481 0.597408 0.542509 0.535842 0.497614 0.591335 0.428125 0.615474 0.692965 0.710763 0.723404 0.744333 0.778871 0.904965 0.560617 0.52852 0.539495 0.584328 0.587939 0.596652 0.602509 0.599364 0.592853 0.579 0.55714 0.369529 0.437673 0.511074 0.224845 0.412529 0.464439 0.628773 0.230921 0.219391 0.0476481 0.0245018 0.0666615 0.320962 0.523366 0.344717 0.141715 0.0329136 0.395449 0.768301 0.78214 0.454924 0.449324 0.463769 0.490157 0.511944 0.533694 0.555223 0.611605 0.611047 0.607343 0.600094 0.590664 0.58374 0.562677 0.566601 0.547299 0.464737 0.346362 0.536196 0.655921 0.69407 0.714158 0.734154 0.761393 0.786735 0.706376 0.533152 0.516701 0.553842 0.575033 0.587284 0.595915 0.60328 0.60391 0.599063 0.528319 0.493288 0.450354 0.415401 0.371322 0.352252 0.358244 0.490698 0.508941 0.361858 0.322832 0.393505 0.454309 0.517266 0.238158 0.163052 0.185099 0.151412 0.00607959 0.04289 0.138162 0.15969 0.339148 0.255558 0.135297 0.121691 0.261948 0.161589 0.373406 0.512906 0.441299 0.43206 0.451401 0.479692 0.507121 0.531997 0.556234 0.575419 0.591069 0.604892 0.606232 0.594642 0.581638 0.568062 0.552354 0.542114 0.486209 0.438987 0.477545 0.560893 0.609948 0.642661 0.671445 0.679752 0.6982 0.707802 0.721986 0.733011 0.747542 0.75912 0.775494 0.7671 0.665147 0.539029 0.556599 0.568181 0.581081 0.593926 0.607416 0.591147 0.579749 0.560993 0.528914 0.474319 0.426194 0.387347 0.356276 0.341032 0.347328 0.395032 0.32004 0.244862 0.335098 0.376982 0.395973 0.408116 0.104 0.17019 0.124149 0.162192 0.102106 0.0270323 0.049609 0.101533 0.259627 0.367452 0.207702 0.211869 0.398303 0.560862 0.905512 0.897894 0.658571 0.464483 0.42849 0.437681 0.475068 0.503526 0.531314 0.555772 0.577373 0.593379 0.604407 0.611682 0.615168 0.6133 0.587391 0.572532 0.562864 0.556212 0.555796 0.554788 0.543359 0.612377 0.659959 0.690109 0.718868 0.747314 0.760299 0.542848 0.539615 0.559869 0.570605 0.580282 0.592155 0.611556 0.608427 0.608308 0.604124 0.590273 0.569376 0.529467 0.447077 0.400488 0.379069 0.348136 0.326899 0.357717 0.447316 0.544396 0.38291 0.255873 0.402168 0.401687 0.378155 0.389484 0.0492971 0.06453 0.108868 0.0506576 0.0458167 0.0556729 0.0759737 0.120095 0.161333 0.244558 0.325034 0.199903 0.206872 0.168076 1.16719 0.788958 0.51716 0.440763 0.43327 0.490214 0.511422 0.535803 0.559357 0.579964 0.59593 0.608459 0.617284 0.620142 0.619241 0.614449 0.602624 0.570796 0.562858 0.561743 0.556923 0.561474 0.519757 0.506359 0.591807 0.639474 0.672306 0.70198 0.732436 0.761245 0.748792 0.591099 0.509051 0.540731 0.557491 0.571309 0.581833 0.603613 0.611256 0.616633 0.620975 0.618827 0.611665 0.600222 0.583081 0.545047 0.405055 0.405011 0.393959 0.344682 0.325036 0.387974 0.519643 0.435822 0.449953 0.407923 0.333238 0.144406 0.141416 0.0284856 0.0873042 0.0408923 0.0431001 0.0395049 0.679307 0.0875334 0.0762486 0.130434 0.165938 0.211083 0.153254 0.259591 0.30392 0.315437 0.844458 0.67146 0.504204 0.417505 0.547843 0.585348 0.59933 0.609937 0.617582 0.623672 0.624906 0.618868 0.609639 0.598079 0.58417 0.564899 0.56026 0.560628 0.54419 0.525203 0.57962 0.612365 0.623341 0.64485 0.656205 0.671197 0.685635 0.697391 0.714344 0.725457 0.746304 0.766876 0.7741 0.697894 0.55606 0.534812 0.556398 0.592978 0.602518 0.608926 0.617179 0.624 0.624694 0.620823 0.615933 0.610667 0.607454 0.42659 0.31601 0.388286 0.478379 0.311563 0.559539 0.45897 0.396726 0.243897 0.151738 0.0525013 0.0643282 0.0725329 0.0204635 0.59431 0.660679 0.698085 0.119965 0.194662 0.246951 0.233364 0.171018 0.119371 0.222125 0.288801 0.580112 0.527176 0.659627 0.543212 0.551895 0.568108 0.622004 0.624616 0.623408 0.617073 0.608025 0.597868 0.585453 0.573786 0.554697 0.546052 0.616845 0.635191 0.661231 0.684179 0.707962 0.738808 0.78685 0.627811 0.564452 0.569992 0.581707 0.593224 0.602713 0.610601 0.618205 0.623293 0.625106 0.624388 0.603332 0.394563 0.42275 0.221928 0.0790323 0.133732 0.552786 0.446642 0.376777 0.347152 0.272418 0.140729 0.0888379 0.112892 0.842627 0.581899 0.648681 0.672381 0.684653 0.69854 0.214823 0.300795 0.256643 0.219143 0.228162 0.429186 0.489948 0.471667 0.342217 0.668305 0.680717 0.486207 0.66287 0.601501 0.58019 0.581507 0.593099 0.603508 0.611564 0.617357 0.622916 0.61787 0.609648 0.599774 0.588772 0.577603 0.567341 0.561536 0.604316 0.636042 0.654566 0.67559 0.695395 0.71786 0.757016 0.561573 0.570754 0.581893 0.59289 0.602938 0.612055 0.619345 0.621609 0.617911 0.615481 0.620478 0.665397 0.40679 0.4382 0.473661 0.401248 0.526966 0.353751 0.13189 0.184248 0.343639 0.569589 0.43321 0.399426 0.284266 0.188227 0.157356 0.763432 0.793987 0.58081 0.576728 0.655243 0.658839 0.733775 0.775131 0.377334 0.427248 0.269394 0.412646 0.505583 0.420345 0.174764 0.254792 0.898493 0.637772 0.803716 0.628094 0.592516 0.594034 0.603353 0.608208 0.613856 0.618541 0.622023 0.624077 0.624595 0.611525 0.601985 0.59173 0.580946 0.570865 0.559829 0.54963 0.537991 0.654441 0.654786 0.666893 0.669545 0.683372 0.687599 0.69722 0.704384 0.714917 0.728569 0.763046 0.830303 0.47185 0.522247 0.5617 0.572581 0.582453 0.593123 0.603274 0.612379 0.623831 0.62564 0.625597 0.624291 0.621566 0.61792 0.620275 0.643264 0.697535 0.408296 0.443788 0.574834 0.584847 0.870811 0.409757 0.332707 0.344866 0.466668 0.535166 0.398529 0.424571 0.229421 0.704065 0.726924 0.799738 0.57825 0.668051 0.640594 0.642194 0.646092 0.850735 0.950723 0.545449 0.753982 0.29002 0.722277 0.433452 0.209761 0.967079 0.659364 0.584948 0.608618 0.613895 0.613603 0.615536 0.619496 0.622944 0.625362 0.626717 0.626547 0.62418 0.619127 0.593496 0.582953 0.571414 0.559563 0.546388 0.576997 0.666062 0.68053 0.694496 0.707054 0.728307 0.897995 0.494434 0.536298 0.567948 0.581207 0.592522 0.619503 0.62395 0.626108 0.626357 0.625537 0.62392 0.621408 0.621095 0.63283 0.662992 0.712377 0.409498 0.494086 0.678928 0.395857 0.366954 0.468726 0.474428 0.385696 0.386209 0.743356 0.72871 0.703335 0.750193 0.747247 0.591906 0.625893 0.66379 0.682905 1.04394 1.15809 1.06355 1.30331 0.391994 0.271221 0.235839 0.714387 0.823822 0.631969 0.618898 0.616286 0.615766 0.618667 0.622796 0.626381 0.629082 0.630251 0.629181 0.625703 0.620089 0.612549 0.603608 0.56851 0.553954 0.533973 0.537284 0.674071 0.680509 0.692606 0.704333 0.720152 0.767552 0.619663 0.47802 0.514125 0.551863 0.603201 0.6122 0.619109 0.623869 0.62647 0.627208 0.626663 0.625247 0.623251 0.622234 0.62772 0.64254 0.671944 0.724914 0.616983 0.599102 0.453689 0.34575 0.336595 0.445098 0.591645 0.455901 0.531563 0.646159 0.660205 0.737913 0.604109 0.599861 0.74005 0.83818 0.873021 0.612103 0.78283 0.22466 0.506557 0.921421 0.556645 0.758688 0.586423 0.633849 0.63424 0.632096 0.627473 0.621066 0.613528 0.604499 0.593847 0.581718 0.390529 0.688639 0.696259 0.691939 0.701479 0.70127 0.711101 0.715119 0.734512 0.718814 0.571188 0.573821 0.588124 0.60064 0.610984 0.618516 0.623975 0.627337 0.628725 0.628492 0.412571 0.54326 0.545615 0.778592 0.561647 0.406545 0.258288 0.467456 0.62249 0.741987 0.698935 0.62394 0.650647 0.583306 0.569146 0.547021 0.638418 0.910365 0.276818 0.412224 0.36108 0.372156 0.921539 0.72216 0.529045 0.55067 0.66282 0.618217 0.611166 0.612425 0.615692 0.620967 0.626492 0.63101 0.63532 0.629615 0.622518 0.614218 0.604672 0.592021 0.577043 0.560847 0.541923 0.525464 0.714519 0.698414 0.708858 0.716004 0.699005 0.609866 0.528336 0.53175 0.558011 0.579257 0.595891 0.608696 0.617231 0.624211 0.628541 0.627235 0.624594 0.622436 0.623823 0.630515 0.646208 0.676248 0.739485 0.432637 0.52927 0.692004 0.819242 0.405689 0.317333 0.279092 0.536278 0.570109 0.653976 0.586133 0.607724 0.683108 0.507727 0.459374 0.827302 0.346647 0.381072 0.352052 0.865937 0.770367 0.698463 0.631011 0.608614 0.607385 0.611789 0.618263 0.625842 0.632756 0.636961 0.638912 0.638582 0.61312 0.602471 0.587057 0.567497 0.545675 0.523274 0.480716 0.746409 0.695451 0.71222 0.721504 0.668915 0.701453 0.576695 0.568016 0.533769 0.543321 0.568167 0.591599 0.608667 0.630784 0.631262 0.629904 0.627141 0.623779 0.622409 0.624247 0.631931 0.650497 0.683858 0.748065 0.713487 0.750257 0.33797 0.288943 0.231481 0.766956 0.590532 0.565453 0.810225 0.633163 0.688927 0.782873 0.252276 0.313612 0.330204 0.787292 0.634792 0.608367 0.673989 0.665294 0.626288 0.610784 0.60984 0.616142 0.625551 0.633787 0.639048 0.642873 0.644236 0.643115 0.638195 0.631081 0.622907 0.579112 0.552212 0.523878 0.488781 0.707604 0.726641 0.706852 0.68683 0.723619 0.559427 0.541737 0.536265 0.551712 0.616144 0.623827 0.629351 0.632857 0.634147 0.633477 0.630888 0.626515 0.623518 0.62245 0.625982 0.638456 0.663828 0.702214 0.731631 0.666065 0.709385 0.681675 0.288963 0.299103 0.531427 0.689493 0.687247 0.643093 0.768264 0.851471 0.772309 0.707073 0.706427 0.750214 0.149065 0.219105 0.706417 0.759735 0.680935 0.643438 0.654223 0.615102 0.626133 0.633655 0.638542 0.644478 0.648876 0.650721 0.647469 0.638787 0.629347 0.620785 0.611129 0.597429 0.771792 0.743244 0.746714 0.698092 0.735899 0.699531 0.686808 0.585011 0.611231 0.616971 0.623802 0.630131 0.634433 0.636278 0.636849 0.635921 0.631814 0.626114 0.622026 0.624918 0.701768 0.695234 0.695946 0.678059 0.619262 0.144286 0.284929 0.776699 0.74321 0.773911 0.712483 0.833703 0.742849 0.848207 0.905217 0.735018 0.703023 0.729483 0.120647 0.723885 0.705611 0.682904 0.666097 0.649994 0.622382 0.612524 0.657143 0.658267 0.649363 0.634291 0.624362 0.618022 0.611533 0.589883 0.564263 0.532944 0.494391 0.787334 0.757438 0.746444 0.74366 0.748495 0.630727 0.776159 0.731204 0.685332 0.686966 0.528755 0.530385 0.537443 0.560646 0.610646 0.616575 0.622136 0.630499 0.6365 0.638589 0.638741 0.631997 0.648536 0.682834 0.712549 0.68963 0.65789 0.639548 0.232122 0.822589 0.772997 0.782612 0.814589 0.837414 0.724819 0.752162 0.864364 0.762988 0.628924 0.667482 0.688532 0.69941 0.672653 0.665788 0.658574 0.636525 0.62126 0.613109 0.626857 0.637465 0.634664 0.643158 0.650935 0.622262 0.625682 0.615894 0.605826 0.572844 0.537634 0.509938 0.797897 0.772273 0.751785 0.752793 0.752801 0.683197 0.691691 0.764237 0.676422 0.684944 0.526007 0.530686 0.535836 0.640472 0.61611 0.613077 0.62787 0.640554 0.638701 0.631263 0.626728 0.624173 0.62759 0.638956 0.654091 0.695425 0.710526 0.713422 0.671841 0.608589 0.607206 0.634564 0.801202 0.822602 0.840135 0.725136 0.843445 0.710364 0.721054 0.588658 0.612378 0.641301 0.674768 0.691201 0.689392 0.657674 0.645508 0.635611 0.614706 0.624536 0.642866 0.636746 0.637601 0.648753 0.661729 0.6683 0.66316 0.646022 0.61134 0.534498 0.520301 0.765253 0.720604 0.791091 0.52781 0.521779 0.678274 0.638722 0.642273 0.640824 0.640374 0.64499 0.639062 0.632231 0.630226 0.626904 0.632604 0.639257 0.651945 0.711284 0.707891 0.719148 0.609773 0.550096 0.604057 0.735513 0.832445 0.797371 0.92663 0.821682 0.799864 0.824327 0.779573 0.747403 0.893828 0.566806 0.599653 0.61938 0.695161 0.704007 0.662438 0.645768 0.646783 0.626205 0.632355 0.650284 0.62981 0.636263 0.642725 0.659055 0.67343 0.679473 0.664375 0.635406 0.600302 0.627042 0.600435 0.793605 0.794482 0.772549 0.747374 0.770856 0.646014 0.804734 0.782494 0.761856 0.679722 0.694051 0.631215 0.611786 0.624302 0.638603 0.646831 0.645024 0.640876 0.640864 0.643406 0.639794 0.63581 0.640731 0.632631 0.636985 0.639868 0.642113 0.734473 0.694356 0.714232 0.540226 0.564187 0.581008 0.175819 0.814827 0.81597 0.840403 0.877597 0.771487 0.757064 0.759241 0.724909 0.68106 0.935179 0.653864 0.741871 0.659674 0.653624 0.670611 0.68672 0.70331 0.650172 0.621476 0.562353 0.617921 0.59581 0.680608 0.522886 0.784407 0.801499 0.802904 0.760026 0.838934 0.785983 0.718598 0.807726 0.77446 0.746517 0.683369 0.695242 0.500859 0.753195 0.627699 0.634182 0.643421 0.636941 0.649649 0.649819 0.645152 0.640324 0.635288 0.686776 0.743171 0.7121 0.865219 0.761094 0.786531 0.807874 0.838091 0.899683 0.760937 0.793877 0.777488 0.801151 0.765888 0.656666 0.648986 0.633625 0.647035 0.663291 0.617975 0.629425 0.642044 0.709916 0.792335 0.715461 0.745228 0.808381 0.797502 0.859229 0.798398 0.873356 0.743928 0.656326 0.725825 0.54774 0.62823 0.698753 0.640648 0.636862 0.646693 0.656359 0.63752 0.637836 0.633535 0.651389 0.531831 0.597125 0.817403 0.826025 0.875505 0.755722 0.709324 0.685403 0.726467 0.769608 0.744664 0.90517 0.843751 0.706837 0.65361 0.665567 0.632178 0.655311 0.677061 0.616633 0.625144 0.638639 0.653934 0.668332 0.693871 0.714267 0.777411 0.783405 0.78129 0.834183 1.07847 0.775583 0.698395 0.619388 0.795485 0.74686 0.962059 0.8282 0.670283 0.67549 0.68352 0.675738 0.662726 0.651236 0.633861 0.621127 0.61926 0.646972 0.654566 0.661368 0.637869 0.636875 0.654508 0.616169 0.700225 0.86729 0.912233 0.610269 0.754326 0.771914 0.736057 0.773534 0.81666 0.904548 0.915701 0.79753 0.748161 0.716464 0.708848 0.721924 0.677619 0.862522 0.895426 0.749922 0.712055 0.671234 0.649017 0.659256 0.682627 0.622706 0.628742 0.63563 0.653046 0.668248 0.689226 0.730005 0.769281 0.785532 0.770017 0.736706 0.626631 0.739432 0.628551 0.785294 0.876704 0.811012 0.895601 0.884394 0.857129 0.93318 0.808042 0.782311 0.701662 0.85495 0.868234 0.824085 0.848206 0.779702 0.757602 0.63538 0.735713 0.668168 0.68317 0.687171 0.672388 0.658382 0.643555 0.627353 0.615768 0.627766 0.676175 0.659121 0.658444 0.650479 0.646126 0.627873 0.693198 0.756049 0.897873 0.893832 0.664823 0.732908 0.735708 0.761654 0.811062 0.883575 0.920648 0.909123 0.916665 0.929931 0.813163 0.739437 0.746616 0.866497 0.717533 0.72495 0.66183 0.745002 0.770007 0.775456 0.746249 0.954163 0.761515 0.776857 0.835637 0.876771 0.866085 0.886641 0.98117 0.960605 0.663002 0.853823 0.840482 0.861573 0.813834 0.862798 0.675214 0.81027 0.710954 0.736497 0.73199 0.714481 0.638133 0.701645 0.705649 0.862816 0.776966 0.794955 0.878942 0.933184 0.920822 0.70299 0.716316 0.852186 0.77258 0.679801 0.680124 0.684147 0.659896 0.640196 0.636413 0.644414 0.654621 0.673656 0.711254 0.836067 0.804378 0.794074 0.755727 0.706033 0.698592 0.692413 0.689444 0.696235 0.70589 0.684324 0.667725 0.673386 0.661306 0.733741 0.857236 0.727018 0.723229 0.888501 0.897658 0.805977 0.721038 0.735004 0.735251 0.758185 0.896394 0.806581 0.84345 0.762716 0.763491 0.720399 0.701243 0.693737 0.684107 0.663224 0.642215 0.634738 0.638281 0.651306 0.665181 0.691807 0.733871 0.756445 0.782525 0.771482 0.893712 0.817846 0.857643 0.900005 0.874139 0.87975 0.879205 0.951805 0.831236 0.855436 0.806261 0.793459 0.795009 0.688652 0.84449 0.840725 0.803489 0.832923 0.794978 0.860144 0.846223 0.719414 0.741723 0.716827 0.706652 0.698836 0.692763 0.688962 0.689606 0.697088 0.702285 0.689969 0.682533 0.684655 0.663181 0.700565 0.748319 0.765559 0.818692 0.811079 0.897419 0.770936 0.753335 0.78245 0.752268 0.854632 0.896848 0.887668 0.893832 0.893832 0.84291 0.76192 0.774538 0.903144 0.891656 0.868533 0.877265 0.839541 0.772044 0.786641 0.725436 0.721979 0.726413 0.726088 0.745185 0.789463 0.805377 0.846729 0.829931 0.890852 0.854166 0.912227 0.876603 0.861921 0.938502 0.838727 0.744757 0.887175 0.921595 0.850067 0.954464 0.849266 0.941165 0.849851 0.786152 0.805754 0.761549 0.750101 0.741385 0.735157 0.730802 0.731321 0.737664 0.788728 0.760253 0.817428 0.866354 0.86728 0.89161 0.904264 0.797187 0.77233 0.874404 0.893832 0.893832 0.734039 0.726089 0.985306 0.764504 0.753829 0.735312 0.864157 0.852787 0.818504 0.817621 0.788882 0.79424 0.743631 0.742042 0.759117 0.986805 0.727224 0.748117 0.904096 0.906768 0.903057 0.851733 0.871569 0.861765 0.873284 0.898964 0.899217 0.895781 0.901905 0.896132 0.901225 0.847273 0.893501 0.901207 0.896792 0.886394 0.881803 0.87804 0.877451 0.899167 0.904651 0.879857 0.874987 0.859788 0.838364 0.878492 0.913273 0.843188 0.908108 0.846404 0.875305 0.861795 0.900024 0.821097 0.833539 0.8426 0.816655 0.829236 0.831619 0.884903 0.936163 0.884867 0.921416 0.885336 0.907248 0.889108 0.855861 0.864782 0.880126 0.878502 0.878717 0.878472 0.878357 0.879829 0.882874 0.888176 0.885914 0.894551 0.887927 0.855619 0.900325 0.896084 0.901395 0.895281 0.898757 0.898587 0.870905 0.866273 0.876148 0.88569 0.907838 0.90555 0.903758 0.894524 0.894183 0.902244 0.882567 0.889528 0.904735 0.872579 0.86138 0.868199 0.84918 0.914181 0.91852 0.892317 0.918867 0.859479 0.860712 0.894107 0.897113 0.897062 0.898577 0.895162 0.867314 0.888265 0.888762 0.88958 0.898531 0.899279 0.899425 0.893984 0.90949 0.899913 0.894178 0.894525 0.873319 0.891299 0.907148 0.898163 0.898899 0.895353 0.894839 0.896548 0.896992 0.899387 0.911619 0.908109 0.90107 0.897606 0.894617 0.893999 0.905068 0.878601 0.85321 0.865134 0.880588 0.85044 0.878992 0.85532 0.864506 0.8913 0.892287 0.900775 0.901867 0.904726 0.903031 0.906196 0.89475 0.868191 0.897095 0.894786 0.895428 0.899175 0.898322 0.907268 0.890431 0.876619 0.894798 0.894482 0.899928 0.899055 0.879747 0.865876 0.885164 0.906297 0.897417 0.898924 0.894317 0.895129 0.896791 0.898577 0.895633 0.905782 0.900778 0.895195 0.891698 0.889278 0.889052 0.895911 0.893906 0.86873 0.857445 0.874533 0.859457 0.879916 0.894137 0.860263 0.895581 0.873313 0.895946 0.886688 0.895544 0.869037 0.897071 0.893016 0.866354 0.87208 0.877445 0.895405 0.898925 0.892177 0.898602 0.893115 0.897352 0.895377 0.895204 0.89499 0.884268 0.88631 0.894684 0.89597 0.895868 0.897365 0.897977 0.899597 0.899393 0.903386 0.891515 0.888917 0.897325 0.895147 0.89432 0.899268 0.897401 0.90654 0.884581 0.867887 0.884373 0.908027 0.899729 0.894476 0.894798 0.856755 0.868171 0.894293 0.894628 0.896076 0.901286 0.887083 0.894752 0.894529 0.894195 0.893941 0.880363 0.894678 0.894377 0.897521 0.89998 0.874928 0.86091 0.878302 0.904791 0.897307 0.898347 0.894321 0.895059 0.896581 0.898276 0.89249 0.899668 0.893253 0.889063 0.885716 0.883891 0.883921 0.888188 0.885504 0.867242 0.879842 0.881185 0.864741 0.877873 0.889136 0.897067 0.876874 0.897318 0.868824 0.876771 0.895675 0.892057 0.893011 0.894883 0.895346 0.882842 0.889875 0.891513 0.890954 0.892482 0.892847 0.893867 0.894034 0.899188 0.888843 0.897189 0.897038 0.895075 0.894326 0.898642 0.897293 0.905018 0.877678 0.862007 0.878368 0.902856 0.898718 0.894375 0.894681 0.894598 0.894321 0.895602 0.896751 0.873332 0.858807 0.872984 0.903185 0.897034 0.897502 0.894285 0.89494 0.89628 0.897828 0.890226 0.894575 0.88718 0.884147 0.881092 0.879805 0.879852 0.882555 0.879688 0.86769 0.858152 0.883999 0.875129 0.881936 0.893832 0.867841 0.893832 0.880574 0.894692 0.889998 0.895334 0.880585 0.894302 0.898486 0.869953 0.880846 0.889616 0.895334 0.89496 0.891579 0.894655 0.89276 0.894186 0.894467 0.893954 0.895198 0.878231 0.880739 0.886061 0.88788 0.886848 0.888378 0.888538 0.889275 0.889199 0.895132 0.887074 0.897922 0.896632 0.894954 0.89429 0.897721 0.897031 0.903374 0.872494 0.859344 0.875684 0.89832 0.897276 0.89432 0.8946 0.894498 0.894256 0.894126 0.89361 0.873667 0.859171 0.86921 0.901554 0.896636 0.896522 0.894238 0.8948 0.895924 0.897285 0.888635 0.890488 0.88271 0.880517 0.877868 0.877088 0.877078 0.878896 0.875979 0.869107 0.861206 0.886915 0.880708 0.882425 0.893832 0.870246 0.893832 0.882375 0.893048 0.890321 0.895289 0.882725 0.89421 0.898162 0.871179 0.88414 0.889523 0.89482 0.893832 0.891146 0.893832 0.892527 0.893832 0.894133 0.893832 0.89501 0.877697 0.87992 0.883358 0.885233 0.883747 0.885234 0.885202 0.88576 0.885363 0.891634 0.886056 0.897429 0.896157 0.894811 0.894243 0.896675 0.896653 0.901708 0.868964 0.859436 0.875206 0.894687 0.89552 0.894255 0.894501 0.894388 0.894187 0.893082 0.891289 0.875143 0.86103 0.866742 0.899915 0.896162 0.895539 0.894182 0.89464 0.895529 0.896668 0.887631 0.887324 0.879623 0.878084 0.87587 0.87554 0.875477 0.876921 0.874042 0.87103 0.865024 0.888481 0.885047 0.882831 0.893832 0.872217 0.893832 0.883638 0.891666 0.890468 0.895172 0.884021 0.893832 0.897291 0.8719 0.88684 0.88928 0.894162 0.893832 0.890706 0.893832 0.892323 0.893832 0.89387 0.893832 0.894762 0.878264 0.880045 0.881633 0.883473 0.88158 0.882995 0.88278 0.88321 0.882571 0.888837 0.885608 0.896775 0.895639 0.89465 0.894186 0.895635 0.896186 0.900022 0.866721 0.861204 0.876127 0.891984 0.893998 0.894187 0.89439 0.894268 0.894111 0.892393 0.889728 0.877226 0.863643 0.865381 0.898286 0.895652 0.894625 0.894118 0.894465 0.895108 0.895996 0.887069 0.885003 0.877713 0.876696 0.874871 0.874922 0.874805 0.87622 0.873502 0.873304 0.868981 0.888937 0.888077 0.883214 0.893832 0.873852 0.893832 0.884435 0.890695 0.890486 0.894993 0.884753 0.893832 0.896065 0.873098 0.88883 0.889438 0.893462 0.893832 0.890317 0.893832 0.892068 0.893832 0.893648 0.893832 0.894476 0.879508 0.880808 0.88073 0.882464 0.88023 0.881553 0.88117 0.881505 0.880713 0.886734 0.885542 0.896062 0.895103 0.894473 0.894122 0.894669 0.895676 0.898354 0.865485 0.86381 0.877838 0.890127 0.892932 0.894111 0.894269 0.894139 0.894031 0.891979 0.888761 0.879421 0.866575 0.864841 0.896686 0.895126 0.893814 0.894049 0.894278 0.894674 0.89529 0.886751 0.883417 0.876772 0.876139 0.87464 0.875005 0.874834 0.876405 0.873949 0.87574 0.872798 0.888851 0.889849 0.883592 0.893832 0.875236 0.893832 0.884891 0.890108 0.890399 0.894787 0.885122 0.893832 0.894657 0.874717 0.890131 0.889889 0.892842 0.893832 0.889969 0.893832 0.891753 0.893832 0.893432 0.893832 0.894179 0.881139 0.881963 0.880491 0.882066 0.879563 0.880778 0.880238 0.8805 0.879631 0.885255 0.885706 0.895318 0.894573 0.894286 0.894053 0.893809 0.895147 0.896718 0.864986 0.866737 0.879792 0.888963 0.892289 0.894031 0.89414 0.894006 0.893949 0.891777 0.888253 0.881409 0.86949 0.864899 0.895135 0.894595 0.893125 0.893976 0.894083 0.894241 0.894573 0.886551 0.882447 0.876564 0.876191 0.874964 0.875585 0.875373 0.87717 0.875024 0.87813 0.876306 0.888685 0.890751 0.883971 0.893832 0.876424 0.893832 0.885122 0.889814 0.890235 0.894551 0.885241 0.893832 0.893249 0.876406 0.890848 0.890487 0.892338 0.893832 0.889659 0.893832 0.891393 0.893832 0.893206 0.893832 0.893888 0.882944 0.883328 0.880754 0.882138 0.879437 0.880529 0.87984 0.880045 0.879156 0.884304 0.885986 0.894565 0.894066 0.89409 0.893979 0.893076 0.894613 0.895135 0.865023 0.869622 0.881628 0.88834 0.891968 0.893949 0.894007 0.893871 0.893866 0.891727 0.888097 0.88304 0.872134 0.865405 0.89365 0.894071 0.892568 0.893901 0.893886 0.89382 0.893864 0.886431 0.881978 0.876856 0.876654 0.875653 0.876485 0.876252 0.878278 0.876453 0.880329 0.879391 0.888627 0.891254 0.884349 0.893832 0.877457 0.893832 0.885211 0.889735 0.890022 0.894288 0.885179 0.893832 0.891935 0.877947 0.891151 0.891118 0.891929 0.893832 0.889391 0.893832 0.891009 0.893832 0.892976 0.893832 0.893609 0.884762 0.88476 0.881372 0.882547 0.879708 0.880665 0.879836 0.879996 0.879126 0.883773 0.886301 0.893825 0.893597 0.893892 0.893904 0.892483 0.894085 0.893622 0.865477 0.872222 0.883159 0.888124 0.891858 0.893866 0.893871 0.893737 0.893784 0.89177 0.888196 0.884276 0.874391 0.866229 0.89225 0.893562 0.892144 0.893827 0.893691 0.893419 0.893182 0.886384 0.88189 0.877455 0.877368 0.876552 0.877556 0.877327 0.879548 0.878033 0.882265 0.882009 0.888684 0.891648 0.884721 0.893832 0.878361 0.893832 0.885209 0.889808 0.889785 0.894019 0.885 0.893832 0.890728 0.87927 0.891164 0.891707 0.891593 0.893832 0.889159 0.893832 0.890626 0.893832 0.89275 0.893832 0.893346 0.886481 0.886152 0.882211 0.883173 0.880246 0.881058 0.880101 0.880227 0.879403 0.883563 0.886602 0.893117 0.893174 0.893696 0.893829 0.892031 0.893572 0.892198 0.86624 0.87443 0.884326 0.888191 0.891869 0.893784 0.893737 0.893608 0.893704 0.891864 0.888465 0.885157 0.876253 0.867246 0.890952 0.893078 0.891842 0.893754 0.893502 0.893046 0.89254 0.886403 0.882065 0.878218 0.878207 0.87754 0.878681 0.878477 0.880848 0.879622 0.883911 0.884169 0.888812 0.892034 0.885075 0.893832 0.879156 0.893832 0.88515 0.889986 0.889544 0.893754 0.884758 0.893832 0.880374 0.890971 0.892221 0.891314 0.893832 0.888953 0.893832 0.890264 0.893832 0.892534 0.893832 0.893103 0.888032 0.88743 0.883162 0.883913 0.880942 0.881604 0.880529 0.880631 0.879869 0.883576 0.886863 0.892455 0.892801 0.893506 0.893756 0.891709 0.893085 0.890879 0.867201 0.876247 0.885158 0.888444 0.891942 0.893704 0.893608 0.889623 0.893487 0.893629 0.891985 0.888841 0.885754 0.877767 0.868351 0.88977 0.892628 0.891649 0.893685 0.893323 0.892705 0.891952 0.886469 0.882397 0.879036 0.879074 0.878526 0.879776 0.879613 0.882083 0.881121 0.885273 0.88591 0.888963 0.89241 0.885406 0.893832 0.879852 0.893832 0.88506 0.890231 0.889311 0.8935 0.884489 0.893832 0.888621 0.881273 0.890652 0.892651 0.891077 0.893832 0.888768 0.893832 0.889934 0.893832 0.892332 0.893832 0.892886 0.889374 0.888553 0.884138 0.884688 0.881705 0.882215 0.881034 0.881123 0.880432 0.883734 0.887077 0.891851 0.892476 0.893326 0.893687 0.891502 0.89263 0.889681 0.868263 0.877727 0.885722 0.888812 0.892045 0.893629 0.893486 0.893376 0.89356 0.892113 0.889278 0.886148 0.878993 0.869471 0.888716 0.892217 0.891544 0.893621 0.893159 0.8924 0.891425 0.886564 0.882801 0.879836 0.879903 0.879448 0.880781 0.880669 0.883197 0.882469 0.88637 0.887285 0.889108 0.892754 0.885705 0.893832 0.880458 0.893832 0.884958 0.890511 0.889094 0.893266 0.884217 0.893832 0.881992 0.890283 0.892995 0.890869 0.893832 0.888603 0.893832 0.889644 0.893832 0.892149 0.893832 0.892695 0.890489 0.889505 0.885073 0.885435 0.882465 0.88283 0.881555 0.881636 0.881019 0.883971 0.887246 0.891314 0.892197 0.893161 0.893623 0.891391 0.892216 0.888615 0.869353 0.878929 0.886097 0.889246 0.892159 0.89356 0.893375 0.887729 0.893277 0.893497 0.892236 0.889735 0.886421 0.879969 0.870551 0.887801 0.891853 0.891505 0.893564 0.893012 0.892133 0.890968 0.886671 0.883216 0.880567 0.880648 0.880264 0.881662 0.881605 0.884156 0.88363 0.887232 0.888349 0.889231 0.893047 0.885968 0.893832 0.880979 0.893832 0.884857 0.890799 0.888901 0.893059 0.883962 0.893832 0.886951 0.882553 0.889919 0.893259 0.890687 0.893832 0.888459 0.893832 0.889396 0.893832 0.891987 0.893832 0.892532 0.891381 0.890285 0.885922 0.886114 0.883174 0.883402 0.882046 0.882125 0.881579 0.884237 0.887376 0.89085 0.891958 0.893013 0.893565 0.89135 0.891849 0.88769 0.870414 0.879892 0.88636 0.889704 0.89227 0.893497 0.893275 0.892343 0.890177 0.886634 0.882396 0.884948 0.884589 0.887889 0.889151 0.893281 0.893832 0.893832 0.891072 0.892882 0.893832 0.882983 0.893452 0.893832 0.893832 0.893832 0.893832 0.892066 0.890901 0.886652 0.886698 0.883795 0.886569 0.890149 0.892367 0.893192 0.893444 0.880732 0.871539 0.887031 0.891541 0.891508 0.893515 0.892886 0.891907 0.890584 0.886776 0.8836 0.881198 0.881283 0.880952 0.882398 0.889325 0.88619 0.881415 0.884767 0.888735 0.883739 0.886292 0.889593 0.890529 0.888337 0.889192 0.89185 0.892395 0.883902 0.882479 0.882559 0.882078 0.884496 0.887472 0.890461 0.891755 0.892886 0.893516 0.891355 0.891534 0.886913 0.871391 0.88065 0.893444 0.89319 0.893122 0.893399 0.89243 0.89057 0.886819 0.881313 0.872389 0.886411 0.891285 0.891534 0.893474 0.892782 0.891721 0.890275 0.886868 0.883925 0.881711 0.881794 0.881501 0.882983 0.883031 0.88557 0.885344 0.888374 0.889738 0.889392 0.893457 0.88637 0.893832 0.881767 0.893832 0.88469 0.891313 0.888599 0.892738 0.883554 0.893832 0.885757 0.883302 0.889321 0.893586 0.890397 0.893832 0.888237 0.893832 0.889032 0.893832 0.89174 0.893832 0.892286 0.89257 0.891369 0.887247 0.887172 0.884308 0.884314 0.882835 0.882917 0.882494 0.884724 0.887543 0.890149 0.891588 0.892781 0.893475 0.891384 0.891275 0.886289 0.872236 0.88123 0.886754 0.890546 0.892447 0.893399 0.89312 0.893068 0.893366 0.892496 0.890889 0.886978 0.881738 0.873061 0.885944 0.891089 0.891566 0.893443 0.892703 0.891579 0.890043 0.886942 0.884177 0.882099 0.882177 0.88191 0.883417 0.883507 0.886027 0.885901 0.888712 0.890146 0.889435 0.893581 0.886505 0.893832 0.882032 0.893832 0.884631 0.891505 0.888494 0.892628 0.883414 0.893832 0.885349 0.883527 0.889112 0.893675 0.890294 0.893832 0.888161 0.893832 0.888914 0.893832 0.891657 0.893832 0.892203 0.89292 0.891703 0.887697 0.88753 0.8847 0.884626 0.883106 0.883191 0.882812 0.884905 0.887592 0.889915 0.891459 0.892701 0.893444 0.891421 0.891078 0.88582 0.872907 0.881656 0.886914 0.890868 0.892507 0.893365 0.893066 0.893033 0.893343 0.892539 0.891113 0.887097 0.88202 0.873526 0.885632 0.890956 0.891593 0.893422 0.892649 0.891483 0.889888 0.886992 0.884348 0.882357 0.882431 0.88218 0.883703 0.883823 0.886326 0.886266 0.888926 0.890402 0.88946 0.893659 0.886596 0.893832 0.882211 0.893832 0.884591 0.89164 0.888424 0.892554 0.883319 0.893832 0.885075 0.883671 0.88897 0.893727 0.890224 0.893832 0.888109 0.893832 0.888837 0.893832 0.891601 0.893832 0.892147 0.893139 0.891917 0.887998 0.887768 0.884963 0.884836 0.883287 0.883374 0.883026 0.885029 0.887623 0.889759 0.891371 0.892647 0.893422 0.891451 0.890944 0.885506 0.873371 0.88194 0.887034 0.891094 0.892546 0.893342 0.89303 0.893014 0.893331 0.89256 0.891228 0.887161 0.882162 0.873763 0.885476 0.89089 0.891609 0.893411 0.892622 0.891434 0.889811 0.887018 0.884434 0.882486 0.882558 0.882315 0.883845 0.88398 0.886474 0.886447 0.889029 0.890526 0.889471 0.893696 0.886641 0.893832 0.8823 0.893832 0.884571 0.891709 0.888388 0.892517 0.883272 0.893832 0.884937 0.883741 0.888899 0.893752 0.890189 0.893832 0.888083 0.893832 0.888799 0.893832 0.891573 0.893832 0.89212 0.893244 0.892022 0.888148 0.887887 0.885096 0.884941 0.883378 0.883466 0.883133 0.885093 0.887639 0.889681 0.891327 0.89262 0.893412 0.891469 0.890877 0.885349 0.873609 0.882082 0.887099 0.891211 0.892565 0.893331 0.893012 
SCALARS Axial_Stress float 1
LOOKUP_TABLE default
-71429000000.0 -58346000000.0 -105798000000.0 -295424000000.0 -125308000000.0 -197608000000.0 -95527200000.0 -30647100000.0 -42206600000.0 -86032800000.0 -99646800000.0 -88004000000.0 -172020000000.0 -237440000000.0 -92783800000.0 -131193000000.0 -65218500000.0 -414417000000.0 -336718000000.0 -148204000000.0 -27370500000.0 -37106700000.0 -166445000000.0 -210973000000.0 -265937000000.0 -300720000000.0 -400902000000.0 -267514000000.0 -306577000000.0 -200191000000.0 -234592000000.0 -9035750000.0 -371392000000.0 -352665000000.0 -527235000000.0 -234961000000.0 -159105000000.0 -82566600000.0 -247786000000.0 -186853000000.0 -80580200000.0 -422271000000.0 -289973000000.0 -845342000000.0 -329960000000.0 -420701000000.0 -306647000000.0 -491238000000.0 -444861000000.0 -679173000000.0 -180226000000.0 -380766000000.0 -508681000000.0 -763863000000.0 -281452000000.0 -350183000000.0 -206572000000.0 -408248000000.0 -458252000000.0 -337137000000.0 -595899000000.0 -538081000000.0 -910699000000.0 -606185000000.0 -902428000000.0 -571223000000.0 -420960000000.0 -313439000000.0 -706354000000.0 -290658000000.0 -353016000000.0 -577410000000.0 -546694000000.0 -398421000000.0 -358650000000.0 -559139000000.0 -593430000000.0 -684277000000.0 -963708000000.0 -1.44237e+12 -876118000000.0 -305792000000.0 -526375000000.0 -708531000000.0 -472998000000.0 -534601000000.0 -505612000000.0 -396290000000.0 -400945000000.0 -599784000000.0 -330205000000.0 -498542000000.0 -636730000000.0 -354111000000.0 -747417000000.0 -709014000000.0 -722674000000.0 -973568000000.0 -1.35583e+12 -724875000000.0 -571167000000.0 -628081000000.0 -506204000000.0 -462006000000.0 -975590000000.0 -363498000000.0 -526354000000.0 -642405000000.0 -529402000000.0 -650791000000.0 -756105000000.0 -825844000000.0 -863943000000.0 -804748000000.0 -894511000000.0 -952398000000.0 -1.27718e+12 -1.32301e+12 -577434000000.0 -658095000000.0 -595678000000.0 -1.10155e+12 -592555000000.0 -453249000000.0 -1.25246e+12 -858083000000.0 -454408000000.0 -499521000000.0 -614978000000.0 -757540000000.0 -1.13581e+12 -825321000000.0 -1.04119e+12 -895646000000.0 -1.18896e+12 -483366000000.0 -490322000000.0 -736224000000.0 -806395000000.0 -1.06477e+12 -1.05448e+12 -819997000000.0 -541514000000.0 -402298000000.0 -1.06617e+12 -769060000000.0 -730483000000.0 -2.11128e+12 -1.77495e+12 -1.52184e+12 -1.1351e+12 -1.18893e+12 -1.2134e+12 -986285000000.0 -579586000000.0 -769383000000.0 -940304000000.0 -845632000000.0 -1.01722e+12 -1.10912e+12 -677149000000.0 -544492000000.0 -1.39578e+12 -515293000000.0 -735718000000.0 -2.25118e+12 -1.90258e+12 -1.44525e+12 -1.28197e+12 -1.19936e+12 -926768000000.0 -845834000000.0 -971054000000.0 -1.09809e+12 -1.11591e+12 -1.22667e+12 -1.20154e+12 -1.26071e+12 -1.0174e+12 -946548000000.0 -2.42626e+12 -1.38628e+12 -526079000000.0 -839481000000.0 -2.19651e+12 -2.13519e+12 -1.72903e+12 -1.44097e+12 -1.45233e+12 -1.32483e+12 -1.24087e+12 -1.2447e+12 -1.02941e+12 -1.16661e+12 -1.03905e+12 -1.14511e+12 -1.29039e+12 -1.38527e+12 -1.298e+12 -1.41621e+12 -1.48766e+12 -1.49427e+12 -2.20213e+12 -2.26961e+12 -2.23446e+12 -2.16483e+12 -1.98863e+12 -1.88236e+12 -1.65606e+12 -1.61948e+12 -1.42292e+12 -1.33722e+12 -1.28445e+12 -1.19361e+12 -1.33478e+12 -1.3083e+12 -1.45192e+12 -1.50985e+12 -1.50657e+12 -1.49923e+12 -1.93152e+12 -1.95031e+12 -2.23589e+12 -2.28614e+12 -2.08364e+12 -1.81914e+12 -1.57644e+12 -1.39248e+12 -1.52076e+12 -1.41634e+12 -1.38044e+12 -1.4999e+12 -1.49642e+12 -1.70274e+12 -1.63828e+12 -1.68779e+12 -1.65723e+12 -1.77433e+12 -1.18871e+12 -1.2847e+12 -2.30155e+12 -2.34366e+12 -2.26192e+12 -2.01433e+12 -1.95984e+12 -1.76788e+12 -1.71309e+12 -1.51108e+12 -1.36354e+12 -1.57739e+12 -1.49121e+12 -1.47979e+12 -1.71239e+12 -1.94952e+12 -1.84572e+12 -2.05928e+12 -1.84617e+12 -1.90037e+12 -1.78137e+12 -1.89543e+12 -1.74146e+12 -1.49839e+12 -2.41768e+12 -2.41251e+12 -2.55953e+12 -2.41242e+12 -2.40292e+12 -2.19489e+12 -2.1385e+12 -1.90599e+12 -1.63751e+12 -1.4081e+12 -1.53355e+12 -1.58444e+12 -1.52894e+12 -1.49809e+12 -1.53437e+12 -1.66421e+12 -1.97554e+12 -2.22609e+12 -2.23551e+12 -1.71225e+12 -3.79522e+12 -2.32457e+12 -3.62605e+12 -1.60922e+12 -2.72268e+12 -2.61418e+12 -2.29624e+12 -2.09339e+12 -1.84355e+12 -1.75844e+12 -1.58113e+12 -1.63796e+12 -1.67924e+12 -1.46377e+12 -1.84299e+12 -1.93812e+12 -2.24299e+12 -2.27531e+12 -2.53727e+12 -2.82229e+12 -1.93652e+12 -4.27638e+12 -3.35273e+12 -3.92869e+12 -3.48066e+12 -3.48464e+12 -5.09195e+12 -2.63665e+12 -2.82878e+12 -2.86561e+12 -3.00806e+12 -2.56134e+12 -2.22993e+12 -2.29656e+12 -2.06063e+12 -1.97414e+12 -1.67448e+12 -1.6905e+12 -1.80045e+12 -1.66881e+12 -2.16782e+12 -2.56784e+12 -2.61256e+12 -3.00078e+12 -3.85347e+12 -4.34983e+12 -4.07567e+12 -4.11365e+12 -5.26306e+12 -3.78351e+12 -3.78304e+12 -3.45953e+12 -5.24941e+12 -4.95969e+12 -4.22112e+12 -4.00775e+12 -2.97068e+12 -3.20266e+12 -3.92227e+12 -2.1488e+12 -2.29379e+12 -2.25568e+12 -1.81567e+12 -1.7267e+12 -1.69896e+12 -1.87648e+12 -2.06523e+12 -2.48504e+12 -2.80263e+12 -2.92381e+12 -3.7719e+12 -4.39234e+12 -3.83124e+12 -3.96097e+12 -5.77681e+12 -3.76395e+12 -3.46327e+12 -5.49957e+12 -5.38443e+12 -5.16184e+12 -4.41011e+12 -3.70104e+12 -3.24168e+12 -3.70594e+12 -4.20194e+12 -2.46239e+12 -2.06014e+12 -1.83821e+12 -1.77188e+12 -1.7864e+12 -1.75244e+12 -1.65802e+12 -1.77375e+12 -1.92713e+12 -2.02861e+12 -2.32682e+12 -2.39753e+12 -2.65055e+12 -2.71505e+12 -3.14742e+12 -3.4389e+12 -4.01501e+12 -4.39062e+12 -3.02358e+12 -3.63857e+12 -5.65083e+12 -5.86604e+12 -5.85831e+12 -5.79442e+12 -3.71511e+12 -3.52248e+12 -3.50063e+12 -5.59367e+12 -5.31942e+12 -4.90457e+12 -4.20614e+12 -4.01523e+12 -3.69063e+12 -3.36832e+12 -3.20176e+12 -4.20601e+12 -4.11851e+12 -3.79049e+12 -2.27869e+12 -1.96832e+12 -1.78467e+12 -1.63374e+12 -1.75879e+12 -2.19853e+12 -2.60849e+12 -2.92238e+12 -3.01365e+12 -3.41932e+12 -2.63233e+12 -2.51789e+12 -3.27013e+12 -3.64348e+12 -3.32095e+12 -5.6702e+12 -5.71829e+12 -5.70254e+12 -3.65404e+12 -3.59974e+12 -3.52004e+12 -5.62673e+12 -5.45184e+12 -5.39347e+12 -5.19972e+12 -4.99608e+12 -3.82653e+12 -3.51842e+12 -2.99887e+12 -2.62887e+12 -4.51027e+12 -4.27783e+12 -3.32116e+12 -1.78653e+12 -1.68138e+12 -1.64983e+12 -1.83014e+12 -2.5893e+12 -2.84427e+12 -3.17574e+12 -3.26596e+12 -3.1207e+12 -3.16493e+12 -3.60479e+12 -5.19017e+12 -5.59743e+12 -5.41395e+12 -5.58355e+12 -5.6385e+12 -3.5511e+12 -3.45301e+12 -3.49415e+12 -5.61108e+12 -5.6252e+12 -5.47823e+12 -5.48258e+12 -5.37823e+12 -5.5215e+12 -5.79749e+12 -3.7045e+12 -3.48839e+12 -3.60481e+12 -3.44776e+12 -3.32646e+12 -2.49049e+12 -3.53638e+12 -3.05405e+12 -2.84023e+12 -2.58533e+12 -1.67724e+12 -1.60787e+12 -1.63136e+12 -1.45632e+12 -1.54692e+12 -3.15773e+12 -2.86571e+12 -2.86954e+12 -2.79399e+12 -2.97247e+12 -3.07606e+12 -3.30405e+12 -3.30468e+12 -3.5281e+12 -3.31899e+12 -3.5098e+12 -3.77777e+12 -3.50215e+12 -4.55161e+12 -5.1396e+12 -5.32119e+12 -5.49524e+12 -5.44779e+12 -5.6025e+12 -5.5811e+12 -3.50292e+12 -3.45477e+12 -3.40224e+12 -5.58561e+12 -5.46726e+12 -5.33878e+12 -5.23158e+12 -5.35961e+12 -5.45787e+12 -2.71148e+12 -3.60724e+12 -3.59436e+12 -3.57757e+12 -3.19068e+12 -2.73652e+12 -2.71116e+12 -2.02829e+12 -1.41808e+12 -3.28739e+12 -3.04931e+12 -2.93261e+12 -3.17906e+12 -3.61974e+12 -3.67836e+12 -3.53511e+12 -3.73891e+12 -3.90006e+12 -4.74153e+12 -5.08692e+12 -5.26942e+12 -5.42661e+12 -5.56004e+12 -3.40596e+12 -3.34465e+12 -5.52642e+12 -5.55584e+12 -5.41896e+12 -5.45039e+12 -5.29784e+12 -5.31114e+12 -5.15198e+12 -5.1542e+12 -4.98427e+12 -3.26033e+12 -3.49121e+12 -3.66806e+12 -3.62631e+12 -3.65734e+12 -3.11852e+12 -2.8928e+12 -2.71057e+12 -2.33868e+12 -1.46332e+12 -3.28272e+12 -3.16158e+12 -2.97182e+12 -3.03612e+12 -3.21702e+12 -3.5407e+12 -4.04867e+12 -3.91489e+12 -3.79496e+12 -3.91009e+12 -4.00837e+12 -4.3504e+12 -4.80602e+12 -5.06387e+12 -5.04588e+12 -5.24943e+12 -5.24863e+12 -5.41491e+12 -5.39406e+12 -5.53961e+12 -5.51986e+12 -3.35382e+12 -3.2146e+12 -3.28297e+12 -5.49547e+12 -5.385e+12 -5.2847e+12 -5.11839e+12 -5.00982e+12 -4.77458e+12 -4.89396e+12 -4.36056e+12 -3.65537e+12 -3.63723e+12 -3.73649e+12 -3.77398e+12 -4.09906e+12 -3.45875e+12 -2.52795e+12 -2.4424e+12 -2.23482e+12 -1.65582e+12 -2.85275e+12 -3.21444e+12 -2.99825e+12 -3.1529e+12 -3.03656e+12 -3.05203e+12 -3.00127e+12 -2.94336e+12 -2.87522e+12 -3.8287e+12 -4.40804e+12 -3.98106e+12 -3.93949e+12 -3.87469e+12 -3.93736e+12 -4.23163e+12 -4.51819e+12 -4.57642e+12 -4.82989e+12 -5.05042e+12 -5.24944e+12 -5.3711e+12 -5.49688e+12 -3.29733e+12 -3.233e+12 -3.13579e+12 -5.46551e+12 -5.35736e+12 -5.20832e+12 -5.24525e+12 -5.11892e+12 -5.11729e+12 -4.89475e+12 -4.91185e+12 -4.70993e+12 -4.49249e+12 -3.71318e+12 -3.74492e+12 -3.66205e+12 -3.94368e+12 -4.19565e+12 -2.29664e+12 -2.54982e+12 -2.24362e+12 -2.72896e+12 -2.88961e+12 -3.00214e+12 -2.96999e+12 -2.59201e+12 -4.60454e+12 -4.17899e+12 -3.87643e+12 -3.9284e+12 -4.01002e+12 -4.34328e+12 -4.60948e+12 -4.82075e+12 -4.84631e+12 -5.07332e+12 -5.09248e+12 -5.22452e+12 -5.19965e+12 -5.35287e+12 -5.47393e+12 -3.15847e+12 -3.03592e+12 -5.3813e+12 -5.42782e+12 -5.30057e+12 -5.32631e+12 -5.1892e+12 -5.06548e+12 -4.96424e+12 -4.92897e+12 -4.6082e+12 -4.44075e+12 -4.25665e+12 -4.16291e+12 -3.78787e+12 -3.72894e+12 -3.62334e+12 -4.54887e+12 -2.21621e+12 -2.21871e+12 -2.46565e+12 -2.57014e+12 -2.717e+12 -2.71353e+12 -3.14453e+12 -2.08164e+12 -2.49643e+12 -2.911e+12 -2.94216e+12 -2.98944e+12 -2.97405e+12 -2.89419e+12 -2.73194e+12 -2.48372e+12 -2.69434e+12 -4.71225e+12 -3.87499e+12 -3.87749e+12 -3.94514e+12 -4.12875e+12 -4.20114e+12 -4.3521e+12 -4.56913e+12 -4.90179e+12 -4.95036e+12 -5.05548e+12 -5.19061e+12 -5.32949e+12 -5.3103e+12 -5.44197e+12 -5.40121e+12 -3.06285e+12 -2.77739e+12 -2.91477e+12 -5.3009e+12 -5.26059e+12 -5.16324e+12 -5.0412e+12 -5.03014e+12 -4.88232e+12 -4.73988e+12 -4.64074e+12 -4.43498e+12 -4.12438e+12 -4.00803e+12 -3.68381e+12 -3.66738e+12 -3.54279e+12 -3.45125e+12 -2.96541e+12 -2.11112e+12 -2.67845e+12 -2.97283e+12 -3.85592e+12 -2.06716e+12 -2.17059e+12 -2.67833e+12 -2.80932e+12 -2.96846e+12 -2.9432e+12 -2.21158e+12 -3.26413e+12 -3.95233e+12 -3.77773e+12 -3.8594e+12 -3.80955e+12 -4.02718e+12 -4.09761e+12 -4.3928e+12 -4.62505e+12 -4.7352e+12 -4.88371e+12 -5.02832e+12 -5.04725e+12 -5.17191e+12 -5.27703e+12 -5.32533e+12 -2.94547e+12 -2.81115e+12 -2.65854e+12 -5.182e+12 -5.1236e+12 -5.21767e+12 -5.11053e+12 -5.14957e+12 -5.0158e+12 -4.8649e+12 -4.71257e+12 -4.84433e+12 -4.58709e+12 -4.3389e+12 -4.21958e+12 -4.18929e+12 -4.11364e+12 -3.87156e+12 -3.66589e+12 -3.56523e+12 -3.2008e+12 -2.3188e+12 -2.57456e+12 -2.86888e+12 -3.40299e+12 -3.76401e+12 -4.15598e+12 -3.92556e+12 -3.39422e+12 -2.43804e+12 -2.74955e+12 -2.89698e+12 -2.99067e+12 -2.85441e+12 -2.91891e+12 -3.4433e+12 -3.7462e+12 -3.80346e+12 -3.91835e+12 -4.10123e+12 -4.18126e+12 -4.23278e+12 -4.35889e+12 -4.58957e+12 -4.83998e+12 -4.72723e+12 -4.86593e+12 -5.02837e+12 -5.16458e+12 -5.1264e+12 -5.23939e+12 -5.15189e+12 -5.21197e+12 -2.69847e+12 -2.58104e+12 -4.82024e+12 -5.01183e+12 -5.00853e+12 -5.07062e+12 -5.03399e+12 -4.9326e+12 -4.68476e+12 -4.86288e+12 -4.80574e+12 -3.49706e+12 -4.05157e+12 -3.75376e+12 -4.07104e+12 -3.41796e+12 -3.49461e+12 -3.317e+12 -2.91772e+12 -2.591e+12 -2.47334e+12 -2.82287e+12 -2.8035e+12 -2.95017e+12 -3.11626e+12 -3.35966e+12 -3.80505e+12 -3.55757e+12 -2.98231e+12 -2.84808e+12 -2.94785e+12 -3.012e+12 -3.02335e+12 -3.18804e+12 -2.97087e+12 -3.09828e+12 -3.22834e+12 -3.50334e+12 -3.64407e+12 -3.53533e+12 -4.09545e+12 -3.74776e+12 -3.96979e+12 -3.61223e+12 -4.76382e+12 -4.8601e+12 -4.69736e+12 -4.94303e+12 -5.04818e+12 -5.091e+12 -5.04212e+12 -5.04748e+12 -4.87318e+12 -2.6347e+12 -2.53996e+12 -4.6261e+12 -4.8226e+12 -4.88454e+12 -4.97961e+12 -4.96669e+12 -4.94607e+12 -4.89775e+12 -4.90787e+12 -4.96359e+12 -4.47024e+12 -5.50554e+12 -4.0271e+12 -2.23603e+12 -2.8766e+12 -5.01362e+12 -3.86918e+12 -2.25156e+12 -3.18319e+12 -3.03829e+12 -2.83381e+12 -2.87857e+12 -2.91018e+12 -3.10575e+12 -3.48184e+12 -3.44252e+12 -3.21194e+12 -2.89078e+12 -2.90189e+12 -3.17028e+12 -3.39211e+12 -3.15162e+12 -3.33367e+12 -3.33638e+12 -2.44396e+12 -3.884e+12 -4.91568e+12 -2.99527e+12 -2.27467e+12 -4.03648e+12 -5.42141e+12 -4.54409e+12 -4.96195e+12 -4.91076e+12 -4.90862e+12 -4.95938e+12 -4.9835e+12 -5.00589e+12 -4.92071e+12 -4.86526e+12 -4.70754e+12 -2.60955e+12 -2.4538e+12 -2.51062e+12 -4.41344e+12 -4.61727e+12 -4.69075e+12 -4.8565e+12 -4.78785e+12 -4.63986e+12 -4.69714e+12 -4.53779e+12 -5.28871e+12 -5.21666e+12 -3.97141e+12 -5.03763e+12 -3.42397e+12 -4.20285e+12 -2.49277e+12 -2.88479e+12 -3.12619e+12 -2.90179e+12 -3.20762e+12 -3.16765e+12 -3.27657e+12 -3.19859e+12 -3.26179e+12 -3.04404e+12 -2.96865e+12 -2.85134e+12 -2.85672e+12 -2.97743e+12 -3.52286e+12 -3.22875e+12 -2.9319e+12 -4.15597e+12 -3.49633e+12 -5.04105e+12 -3.92524e+12 -5.20332e+12 -5.21416e+12 -4.52717e+12 -4.67883e+12 -4.63152e+12 -4.79739e+12 -4.88042e+12 -4.73618e+12 -4.68037e+12 -4.52963e+12 -2.59327e+12 -2.54617e+12 -2.37353e+12 -4.13797e+12 -4.13184e+12 -4.41102e+12 -4.4966e+12 -4.82814e+12 -4.73949e+12 -4.89016e+12 -4.46498e+12 -4.89621e+12 -4.44964e+12 -3.02717e+12 -4.91471e+12 -6.10708e+12 -4.26037e+12 -3.49146e+12 -3.79039e+12 -3.19417e+12 -4.4763e+12 -2.42517e+12 -3.60358e+12 -1.74984e+12 -1.45337e+12 -2.81832e+12 -2.41194e+12 -3.35424e+12 -3.30927e+12 -2.8462e+12 -2.51072e+12 -2.97351e+12 -3.19319e+12 -3.11833e+12 -3.0554e+12 -2.87129e+12 -2.78317e+12 -2.87115e+12 -2.95775e+12 -3.11927e+12 -3.36267e+12 -4.08713e+12 -2.58512e+12 -2.76942e+12 -1.83568e+12 -3.82095e+12 -2.33894e+12 -4.6387e+12 -3.11529e+12 -3.89976e+12 -3.41981e+12 -4.24072e+12 -6.16623e+12 -4.9047e+12 -2.97193e+12 -4.40946e+12 -4.90411e+12 -4.48117e+12 -4.91027e+12 -4.75102e+12 -4.86324e+12 -4.56216e+12 -4.50868e+12 -4.28198e+12 -4.30305e+12 -2.44469e+12 -2.24119e+12 -3.45953e+12 -3.8217e+12 -3.72172e+12 -4.23775e+12 -4.45298e+12 -4.69451e+12 -5.01252e+12 -4.88076e+12 -4.55798e+12 -5.53172e+12 -3.76577e+12 -4.79787e+12 -3.82149e+12 -3.78346e+12 -3.40456e+12 -3.75752e+12 -3.42068e+12 -2.12234e+12 -1.86856e+12 -2.47459e+12 -2.16948e+12 -3.58196e+12 -3.0864e+12 -3.0188e+12 -2.89064e+12 -2.75546e+12 -2.75026e+12 -3.18614e+12 -2.55332e+12 -2.2337e+12 -1.50252e+12 -2.32173e+12 -3.49204e+12 -3.78745e+12 -3.4312e+12 -3.80224e+12 -3.8035e+12 -4.80921e+12 -3.78693e+12 -5.54185e+12 -4.61276e+12 -4.87812e+12 -5.03944e+12 -4.73491e+12 -4.51734e+12 -4.34415e+12 -3.95604e+12 -4.05205e+12 -3.60828e+12 -2.14085e+12 -2.50803e+12 -2.39744e+12 -4.22687e+12 -2.96107e+12 -3.82433e+12 -4.16052e+12 -4.76633e+12 -5.02426e+12 -4.81574e+12 -5.66084e+12 -3.48756e+12 -5.52049e+12 -3.05917e+12 -4.19089e+12 -4.19807e+12 -4.17005e+12 -3.70203e+12 -3.45203e+12 -3.45699e+12 -3.23062e+12 -2.88735e+12 -2.90373e+12 -2.48515e+12 -1.94338e+12 -2.73899e+12 -2.15884e+12 -4.10869e+12 -3.23057e+12 -3.01727e+12 -2.98397e+12 -2.86982e+12 -2.88821e+12 -2.74762e+12 -2.7503e+12 -2.6349e+12 -2.66397e+12 -2.73983e+12 -3.38097e+12 -3.44773e+12 -2.2127e+12 -2.52417e+12 -2.9721e+12 -2.91576e+12 -3.26807e+12 -3.49462e+12 -3.4613e+12 -4.17325e+12 -4.19991e+12 -4.17528e+12 -3.11084e+12 -5.47965e+12 -3.45295e+12 -5.68507e+12 -4.79268e+12 -5.08264e+12 -4.81003e+12 -4.23259e+12 -3.9837e+12 -3.31763e+12 -4.4709e+12 -2.39972e+12 -2.47026e+12 -2.44184e+12 -4.42018e+12 -4.40646e+12 -4.56849e+12 -2.86247e+12 -3.28203e+12 -4.63004e+12 -5.26522e+12 -6.02959e+12 -3.59766e+12 -4.56817e+12 -4.14302e+12 -4.26302e+12 -3.7583e+12 -4.1041e+12 -3.81196e+12 -3.87336e+12 -3.81693e+12 -3.30297e+12 -3.12231e+12 -2.92204e+12 -2.86565e+12 -2.51772e+12 -2.47537e+12 -3.20598e+12 -2.29656e+12 -3.99868e+12 -3.33106e+12 -3.45001e+12 -3.0447e+12 -2.86558e+12 -2.73612e+12 -2.62055e+12 -2.51773e+12 -2.56757e+12 -2.38327e+12 -2.65949e+12 -1.9925e+12 -3.03548e+12 -2.4634e+12 -2.57352e+12 -2.90689e+12 -2.94211e+12 -3.14653e+12 -3.31921e+12 -3.71164e+12 -3.8166e+12 -3.87135e+12 -3.81611e+12 -4.10447e+12 -3.75496e+12 -4.26355e+12 -4.14218e+12 -4.52738e+12 -3.62e+12 -5.98912e+12 -5.25903e+12 -4.64551e+12 -3.40025e+12 -3.12246e+12 -4.77452e+12 -4.7443e+12 -4.52559e+12 -2.34009e+12 -2.29608e+12 -4.39256e+12 -4.37149e+12 -4.26607e+12 -4.13885e+12 -4.35022e+12 -4.02793e+12 -4.57227e+12 -5.03143e+12 -4.68694e+12 -4.10987e+12 -4.35931e+12 -3.92459e+12 -3.97889e+12 -3.74937e+12 -3.79102e+12 -3.63131e+12 -3.61314e+12 -3.56962e+12 -3.40573e+12 -2.87322e+12 -2.76809e+12 -2.5781e+12 -2.45564e+12 -2.31446e+12 -1.92055e+12 -2.90533e+12 -2.84825e+12 -2.7208e+12 -2.60455e+12 -2.50099e+12 -2.34657e+12 -1.88721e+12 -2.30903e+12 -2.41923e+12 -2.57372e+12 -2.77282e+12 -2.87731e+12 -3.41058e+12 -3.57375e+12 -3.61027e+12 -3.62927e+12 -3.78565e+12 -3.74196e+12 -3.95652e+12 -3.90408e+12 -4.31907e+12 -4.0633e+12 -4.64275e+12 -4.97946e+12 -4.53047e+12 -4.02019e+12 -4.48042e+12 -4.6329e+12 -4.63991e+12 -4.49642e+12 -4.23689e+12 -2.47078e+12 -2.27212e+12 -3.79537e+12 -3.30642e+12 -3.23952e+12 -4.0258e+12 -3.93652e+12 -3.56357e+12 -3.21097e+12 -3.89865e+12 -3.65615e+12 -4.01226e+12 -4.31992e+12 -4.25082e+12 -4.22431e+12 -3.93721e+12 -3.89184e+12 -3.72412e+12 -3.69428e+12 -3.56286e+12 -3.5182e+12 -3.42197e+12 -3.37956e+12 -3.29207e+12 -3.18027e+12 -3.02848e+12 -2.53545e+12 -2.40579e+12 -2.25799e+12 -2.15144e+12 -2.26846e+12 -2.5221e+12 -1.62512e+12 -2.23774e+12 -2.53606e+12 -2.75724e+12 -2.59475e+12 -2.68323e+12 -2.546e+12 -2.58413e+12 -2.45352e+12 -2.47821e+12 -2.34687e+12 -2.3659e+12 -2.19622e+12 -2.03045e+12 -1.59944e+12 -1.64903e+12 -1.32039e+12 -1.90409e+12 -2.11149e+12 -2.32749e+12 -2.49908e+12 -3.03442e+12 -3.18374e+12 -3.29136e+12 -3.37629e+12 -3.41607e+12 -3.50882e+12 -3.54911e+12 -3.66762e+12 -3.68772e+12 -3.84278e+12 -3.87785e+12 -4.14804e+12 -4.1736e+12 -4.22488e+12 -3.8841e+12 -3.54941e+12 -3.86457e+12 -3.29534e+12 -4.16222e+12 -4.20166e+12 -4.61632e+12 -3.64225e+12 -3.52962e+12 -4.16051e+12 -2.40974e+12 -2.0382e+12 -3.71445e+12 -3.18549e+12 -2.98767e+12 -3.28391e+12 -4.42598e+12 -2.81319e+12 -3.21004e+12 -3.70699e+12 -3.34107e+12 -3.28104e+12 -3.20692e+12 -3.13756e+12 -3.0504e+12 -2.92634e+12 -2.79441e+12 -2.67779e+12 -2.17283e+12 -1.93615e+12 -1.38356e+12 -1.12345e+12 -2.4603e+12 -2.435e+12 -2.47847e+12 -2.41439e+12 -2.32814e+12 -2.19509e+12 -2.06251e+12 -860086000000.0 -1.22759e+12 -1.68093e+12 -2.05342e+12 -2.66075e+12 -2.78474e+12 -2.92039e+12 -3.04439e+12 -3.13102e+12 -3.19909e+12 -3.26977e+12 -3.32469e+12 -3.50458e+12 -2.75607e+12 -2.65816e+12 -4.07362e+12 -3.20041e+12 -3.32667e+12 -3.29208e+12 -3.89873e+12 -2.14872e+12 -1.6566e+12 -1.84275e+12 -3.41811e+12 -3.65203e+12 -2.80256e+12 -3.13251e+12 -3.09043e+12 -3.67983e+12 -4.49776e+12 -4.29563e+12 -3.7186e+12 -3.80497e+12 -3.83958e+12 -3.80059e+12 -3.63145e+12 -3.57831e+12 -3.4827e+12 -3.43049e+12 -2.9869e+12 -2.91059e+12 -2.81328e+12 -2.7007e+12 -2.58846e+12 -2.46472e+12 -2.33486e+12 -2.03579e+12 -2.43501e+12 -2.93541e+12 -2.80278e+12 -2.25261e+12 -2.38396e+12 -2.35507e+12 -2.28922e+12 -2.2047e+12 -2.02824e+12 -2.07325e+12 -2.58751e+12 -2.41999e+12 -2.07941e+12 -2.26324e+12 -2.42369e+12 -2.56358e+12 -2.68369e+12 -2.7998e+12 -2.89926e+12 -2.97648e+12 -3.40252e+12 -3.43598e+12 -3.51602e+12 -3.55455e+12 -3.70874e+12 -3.73697e+12 -3.67418e+12 -4.03798e+12 -4.44698e+12 -4.4735e+12 -3.74576e+12 -3.30306e+12 -3.37021e+12 -2.90049e+12 -3.85673e+12 -3.46869e+12 -1.91659e+12 -1.68276e+12 -1.4522e+12 -3.05879e+12 -3.10011e+12 -3.45986e+12 -3.52412e+12 -2.87289e+12 -2.82516e+12 -3.16736e+12 -3.14722e+12 -3.83788e+12 -3.76351e+12 -3.54129e+12 -3.51506e+12 -3.49795e+12 -3.48154e+12 -3.43672e+12 -3.34865e+12 -3.29969e+12 -3.24529e+12 -3.19387e+12 -3.1246e+12 -3.06085e+12 -2.59859e+12 -2.49932e+12 -2.39586e+12 -2.29224e+12 -2.18845e+12 -2.09791e+12 -1.23528e+12 -1.23976e+12 -1.88182e+12 -2.27608e+12 -2.30594e+12 -2.18343e+12 -2.27385e+12 -2.16855e+12 -2.23727e+12 -2.12359e+12 -2.16806e+12 -2.05025e+12 -2.09557e+12 -2.03556e+12 -1.82056e+12 -1.23422e+12 -1.187e+12 -2.01173e+12 -2.11702e+12 -2.23887e+12 -2.35847e+12 -2.47282e+12 -2.57831e+12 -3.04922e+12 -3.10874e+12 -3.16895e+12 -3.20204e+12 -3.22041e+12 -3.25361e+12 -3.32389e+12 -3.36611e+12 -3.38358e+12 -3.39902e+12 -3.4093e+12 -3.81395e+12 -3.68411e+12 -3.70544e+12 -3.5066e+12 -3.33354e+12 -3.10661e+12 -3.4584e+12 -3.50535e+12 -3.04003e+12 -3.00097e+12 -1.43447e+12 -1.23527e+12 -2.6349e+12 -2.68035e+12 -3.17283e+12 -2.50064e+12 -2.77983e+12 -2.49608e+12 -2.27505e+12 -2.9264e+12 -2.90032e+12 -3.22701e+12 -3.28124e+12 -3.15631e+12 -3.1293e+12 -3.1246e+12 -3.13872e+12 -3.11937e+12 -3.07355e+12 -3.06516e+12 -3.02915e+12 -2.97996e+12 -2.91661e+12 -2.84888e+12 -2.77428e+12 -2.69215e+12 -2.3135e+12 -2.22309e+12 -2.13238e+12 -2.03965e+12 -1.93152e+12 -1.80859e+12 -2.53597e+12 -2.08616e+12 -2.08306e+12 -2.06909e+12 -2.01101e+12 -1.93679e+12 -2.0708e+12 -1.59674e+12 -1.8627e+12 -1.96534e+12 -2.07398e+12 -2.1774e+12 -2.27849e+12 -2.676e+12 -2.76124e+12 -2.83629e+12 -2.9027e+12 -2.96194e+12 -2.9996e+12 -3.00816e+12 -2.94008e+12 -2.97295e+12 -2.98787e+12 -2.97622e+12 -2.97117e+12 -2.96322e+12 -3.10989e+12 -3.30549e+12 -3.08765e+12 -2.43938e+12 -4.39884e+12 -3.7412e+12 -2.99833e+12 -2.63747e+12 -3.03402e+12 -2.56017e+12 -2.50757e+12 -1.18099e+12 -1.00375e+12 -1.67929e+12 -2.17507e+12 -2.22253e+12 -2.73e+12 -2.77323e+12 -3.21498e+12 -2.36523e+12 -3.00358e+12 -3.60756e+12 -2.43991e+12 -2.87212e+12 -2.79907e+12 -2.71867e+12 -2.72264e+12 -2.81398e+12 -2.82929e+12 -2.82044e+12 -2.87449e+12 -2.86987e+12 -2.83346e+12 -2.78027e+12 -2.71536e+12 -2.64543e+12 -2.57011e+12 -2.48982e+12 -2.40379e+12 -2.07223e+12 -2.00928e+12 -1.97032e+12 -2.01009e+12 -2.19198e+12 -3.02438e+12 -3.27283e+12 -2.00311e+12 -1.9769e+12 -2.00069e+12 -1.96948e+12 -1.89742e+12 -1.81952e+12 -2.92021e+12 -3.19595e+12 -2.41796e+12 -1.98458e+12 -1.93456e+12 -1.9608e+12 -2.02726e+12 -2.37721e+12 -2.46969e+12 -2.55468e+12 -2.63252e+12 -2.70424e+12 -2.77029e+12 -2.82144e+12 -2.84726e+12 -2.816e+12 -2.55055e+12 -2.63712e+12 -2.63384e+12 -2.54501e+12 -2.49154e+12 -2.43303e+12 -2.06732e+12 -2.06155e+12 -3.8726e+12 -3.31966e+12 -2.56642e+12 -2.89016e+12 -2.58225e+12 -2.58476e+12 -2.05065e+12 -1.98693e+12 -1.45552e+12 -936594000000.0 -661542000000.0 -726843000000.0 -1.12412e+12 -1.71404e+12 -2.28173e+12 -2.35277e+12 -2.69173e+12 -2.7618e+12 -3.05952e+12 -4.2454e+12 -2.98666e+12 -2.25822e+12 -2.21125e+12 -2.17986e+12 -2.49595e+12 -2.7207e+12 -2.69678e+12 -2.64856e+12 -2.5883e+12 -2.52089e+12 -2.45005e+12 -2.37698e+12 -2.3017e+12 -2.22383e+12 -2.14594e+12 -1.87733e+12 -1.84522e+12 -1.82255e+12 -1.85951e+12 -906921000000.0 -1.8864e+12 -1.54274e+12 -1.83785e+12 -1.8321e+12 -1.92007e+12 -1.84616e+12 -1.9133e+12 -1.82519e+12 -1.87304e+12 -1.78472e+12 -1.77234e+12 -1.61423e+12 -1.75985e+12 -914767000000.0 -1.86483e+12 -1.80621e+12 -1.79632e+12 -2.10719e+12 -2.19239e+12 -2.27739e+12 -2.35836e+12 -2.4359e+12 -2.51069e+12 -2.58295e+12 -2.6494e+12 -2.70658e+12 -2.74942e+12 -2.31689e+12 -2.03054e+12 -2.00148e+12 -1.78736e+12 -3.00797e+12 -4.28257e+12 -3.07585e+12 -2.73889e+12 -2.61351e+12 -2.2062e+12 -2.10817e+12 -1.49257e+12 -920551000000.0 -668897000000.0 -569057000000.0 -450871000000.0 -1.04149e+12 -1.10029e+12 -1.76937e+12 -1.85152e+12 -2.43461e+12 -2.60209e+12 -2.58883e+12 -2.66819e+12 -3.43629e+12 -4.2731e+12 -2.66976e+12 -2.54019e+12 -2.52902e+12 -2.46879e+12 -2.69543e+12 -2.39949e+12 -2.33137e+12 -2.26213e+12 -2.19277e+12 -2.12356e+12 -2.05478e+12 -1.98836e+12 -1.9277e+12 -1.60905e+12 -1.14381e+12 -628869000000.0 -1.73782e+12 -1.76635e+12 -1.7713e+12 -1.73691e+12 -1.7228e+12 -951401000000.0 -848598000000.0 -1.31296e+12 -1.83188e+12 -1.88387e+12 -1.94909e+12 -2.02117e+12 -2.0959e+12 -2.17058e+12 -2.24476e+12 -2.3186e+12 -2.39251e+12 -2.77841e+12 -2.20248e+12 -2.35417e+12 -2.55938e+12 -2.14872e+12 -3.42011e+12 -3.39012e+12 -2.26423e+12 -1.85772e+12 -2.82662e+12 -2.41256e+12 -1.6345e+12 -1.53698e+12 -871737000000.0 -844726000000.0 -392703000000.0 -169339000000.0 -807553000000.0 -1.26192e+12 -1.37725e+12 -1.1291e+12 -1.19895e+12 -2.00339e+12 -2.2864e+12 -2.55636e+12 -2.71575e+12 -3.59827e+12 -3.05547e+12 -2.35782e+12 -1.76466e+12 -1.43435e+12 -1.44193e+12 -2.31769e+12 -2.31033e+12 -2.18448e+12 -2.64252e+12 -2.62123e+12 -2.58077e+12 -2.52684e+12 -2.46517e+12 -2.08015e+12 -2.01615e+12 -1.95392e+12 -1.89377e+12 -1.83678e+12 -1.7845e+12 -1.73801e+12 -1.68725e+12 -1.99927e+12 -1.63073e+12 -1.66705e+12 -1.70884e+12 -1.69147e+12 -1.64833e+12 -1.6476e+12 -1.59299e+12 -1.67365e+12 -1.73587e+12 -1.79593e+12 -1.8588e+12 -1.9241e+12 -1.99112e+12 -2.46631e+12 -2.53965e+12 -2.61529e+12 -2.70663e+12 -2.80115e+12 -2.0336e+12 -2.17348e+12 -2.13078e+12 -1.41491e+12 -1.44018e+12 -1.97036e+12 -2.14476e+12 -2.55321e+12 -2.65914e+12 -2.45177e+12 -1.2278e+12 -2.4343e+12 -1.92586e+12 -875647000000.0 -855842000000.0 -1.1797e+12 -1.06867e+12 -672642000000.0 -146863000000.0 -371423000000.0 -732281000000.0 -1.43972e+12 -1.48486e+12 -1.3206e+12 -1.64926e+12 -2.65076e+12 -2.35928e+12 -2.77365e+12 -2.67806e+12 -2.46e+12 -2.1759e+12 -2.2942e+12 -603120000000.0 -2.42395e+12 -2.2167e+12 -2.0011e+12 -2.63349e+12 -2.56639e+12 -2.48569e+12 -2.41392e+12 -2.34506e+12 -2.2776e+12 -2.21122e+12 -2.14538e+12 -1.79243e+12 -1.74059e+12 -1.69288e+12 -1.65183e+12 -1.62075e+12 -1.60941e+12 -1.57141e+12 -2.15637e+12 -1.37503e+12 -1.53955e+12 -1.60439e+12 -1.64825e+12 -1.56689e+12 -1.62644e+12 -1.5428e+12 -1.62519e+12 -1.5827e+12 -1.53169e+12 -1.41538e+12 -2.09885e+12 -2.21839e+12 -1.75006e+12 -1.57371e+12 -1.57904e+12 -1.60772e+12 -1.6528e+12 -1.70466e+12 -1.76068e+12 -2.05947e+12 -2.12903e+12 -2.20023e+12 -2.27379e+12 -2.35075e+12 -2.43345e+12 -2.52987e+12 -2.64686e+12 -2.70979e+12 -1.90491e+12 -2.0773e+12 -2.12984e+12 -747982000000.0 -1.98621e+12 -1.93062e+12 -2.18326e+12 -2.25085e+12 -2.1676e+12 -1.91634e+12 -3.09707e+12 -1.64478e+12 -1.00278e+12 -1.15385e+12 -1.20099e+12 -581996000000.0 -313072000000.0 -330427000000.0 -377330000000.0 -860852000000.0 -886039000000.0 -1.55521e+12 -1.72512e+12 -2.3435e+12 -3.53429e+12 -2.51081e+12 -1.8952e+12 -2.00906e+12 -2.1127e+12 -2.54949e+12 -2.24077e+12 -1.78107e+12 -2.61471e+12 -2.52195e+12 -2.40376e+12 -2.30707e+12 -2.22615e+12 -2.15417e+12 -2.08772e+12 -2.02466e+12 -1.96373e+12 -1.90453e+12 -1.84726e+12 -1.55202e+12 -1.51197e+12 -1.46386e+12 -1.35647e+12 -1.10246e+12 -651536000000.0 -1.72898e+12 -1.49494e+12 -1.48815e+12 -1.46005e+12 -1.68411e+12 -642320000000.0 -1.10103e+12 -1.37236e+12 -1.41974e+12 -1.4684e+12 -1.51045e+12 -1.81967e+12 -1.8808e+12 -1.94399e+12 -2.00958e+12 -2.07845e+12 -2.15226e+12 -2.23335e+12 -2.32614e+12 -2.4359e+12 -2.55784e+12 -2.60853e+12 -1.73895e+12 -2.12316e+12 -2.34311e+12 -1.93574e+12 -1.90406e+12 -1.59329e+12 -1.07251e+12 -2.81647e+12 -2.29818e+12 -847845000000.0 -1.06484e+12 -646809000000.0 -656899000000.0 -290986000000.0 -260051000000.0 -283980000000.0 -921262000000.0 -878932000000.0 -2.03186e+12 -2.49203e+12 -2.6783e+12 -1.29739e+12 -992769000000.0 -1.56784e+12 -2.06841e+12 -1.91957e+12 -2.9785e+12 -2.68637e+12 -2.4939e+12 -2.32506e+12 -2.20107e+12 -2.10533e+12 -2.02728e+12 -1.95993e+12 -1.89906e+12 -1.84224e+12 -1.78795e+12 -1.7357e+12 -1.68559e+12 -1.63804e+12 -1.59344e+12 -1.38455e+12 -1.4313e+12 -1.75858e+12 -2.39656e+12 -2.21855e+12 -1.38837e+12 -1.44209e+12 -1.40063e+12 -1.34452e+12 -2.20573e+12 -2.68348e+12 -2.17556e+12 -1.5052e+12 -1.36661e+12 -1.55518e+12 -1.60331e+12 -1.65481e+12 -1.70843e+12 -1.76416e+12 -1.82259e+12 -1.88446e+12 -1.95125e+12 -2.02543e+12 -2.11059e+12 -2.2114e+12 -2.33185e+12 -2.48033e+12 -2.5997e+12 -2.68395e+12 -1.56469e+12 -1.86519e+12 -1.6362e+12 -1.37219e+12 -1.03928e+12 -2.25876e+12 -1.86637e+12 -1.44708e+12 -401167000000.0 -621810000000.0 -162728000000.0 -339241000000.0 -379420000000.0 -863856000000.0 -1.2286e+12 -1.44139e+12 -2.14886e+12 -50451300000.0 -1.80782e+12 -1.7948e+12 -2.19261e+12 -2.02855e+12 -1.88395e+12 -1.54109e+12 -1.71515e+12 -1.66592e+12 -1.61861e+12 -1.5734e+12 -1.53067e+12 -1.49082e+12 -1.4545e+12 -1.42274e+12 -1.39801e+12 -374156000000.0 -1.37099e+12 -1.20292e+12 -1.38303e+12 -1.33901e+12 -1.34611e+12 -1.22567e+12 -1.34916e+12 -1.23972e+12 -1.17354e+12 -946701000000.0 -1.35218e+12 -1.37663e+12 -1.41116e+12 -1.45114e+12 -1.49572e+12 -1.54208e+12 -1.58998e+12 -1.64032e+12 -1.69401e+12 -1.52186e+12 -2.02108e+12 -1.91239e+12 -2.28848e+12 -1.50099e+12 -1.69475e+12 -1.20338e+12 -2.12253e+12 -1.07908e+12 -596741000000.0 -300705000000.0 -256465000000.0 -248508000000.0 -113686000000.0 -113342000000.0 -484617000000.0 -698083000000.0 -1.687e+12 -2.17618e+12 -881516000000.0 -1.45678e+12 -1.71652e+12 -1.59326e+12 -1.78479e+12 -1.64381e+12 -1.21828e+12 -2.69495e+12 -2.44626e+12 -2.22495e+12 -2.07883e+12 -1.9734e+12 -1.89196e+12 -1.82551e+12 -1.76762e+12 -1.45549e+12 -1.41732e+12 -1.38203e+12 -1.34917e+12 -1.31932e+12 -1.29212e+12 -1.26662e+12 -1.24712e+12 -1.24528e+12 -1.07412e+12 -1.49725e+12 -1.20502e+12 -1.28324e+12 -1.10429e+12 -1.80299e+12 -912308000000.0 -1.07131e+12 -1.08495e+12 -1.17119e+12 -1.22217e+12 -1.26325e+12 -1.30027e+12 -1.34115e+12 -1.38171e+12 -1.42217e+12 -1.75216e+12 -1.81614e+12 -1.88906e+12 -1.97523e+12 -2.08e+12 -2.21349e+12 -2.40176e+12 -2.5776e+12 -1.29058e+12 -1.39513e+12 -1.80608e+12 -1.8433e+12 -1.49052e+12 -1.54864e+12 -1.40011e+12 -1.92385e+12 -1.22491e+12 -403565000000.0 -263103000000.0 -71591000000.0 -76365000000.0 -277924000000.0 -482708000000.0 -929817000000.0 -982106000000.0 -1.22847e+12 -1.55872e+12 -1.09108e+12 -1.47831e+12 -2.22806e+12 -2.23299e+12 -2.05399e+12 -1.9151e+12 -1.81551e+12 -1.73982e+12 -1.68023e+12 -1.62843e+12 -1.58189e+12 -1.53863e+12 -1.49644e+12 -1.21176e+12 -1.18716e+12 -1.16346e+12 -1.14423e+12 -1.13914e+12 -1.11247e+12 -865873000000.0 -1.4268e+12 -327869000000.0 -1.41747e+12 -1.09934e+12 -414912000000.0 -1.16927e+12 -204883000000.0 -553155000000.0 -862309000000.0 -980111000000.0 -1.06326e+12 -1.11631e+12 -1.15062e+12 -1.46429e+12 -1.50879e+12 -1.55763e+12 -1.61121e+12 -1.67007e+12 -1.73743e+12 -1.81816e+12 -1.91792e+12 -2.05009e+12 -2.22438e+12 -2.29091e+12 -1.65096e+12 -1.46867e+12 -1.44672e+12 -1.401e+12 -1.1931e+12 -595506000000.0 -285775000000.0 -167426000000.0 -110446000000.0 -575455000000.0 -1.2711e+12 -1.01966e+12 -1.82118e+12 -916478000000.0 -1.32369e+12 -782845000000.0 -1.68069e+12 -2.05535e+12 -2.04881e+12 -1.9469e+12 -1.81911e+12 -1.70221e+12 -1.62291e+12 -1.56259e+12 -1.51979e+12 -1.47913e+12 -1.44157e+12 -1.40671e+12 -1.37016e+12 -1.33345e+12 -1.29804e+12 -1.2674e+12 -1.23899e+12 -1.03978e+12 -1.02817e+12 -1.02497e+12 -982582000000.0 -1.57123e+12 -1.59143e+12 -1.05419e+12 -268050000000.0 -1.36241e+12 -301239000000.0 -615078000000.0 -821259000000.0 -925978000000.0 -1.19198e+12 -1.22817e+12 -1.26146e+12 -1.29642e+12 -1.33141e+12 -1.36922e+12 -1.41279e+12 -1.46042e+12 -1.51035e+12 -1.5655e+12 -1.63214e+12 -1.71618e+12 -1.8295e+12 -1.96781e+12 -2.04013e+12 -1.86219e+12 -1.65507e+12 -1.17721e+12 -1.36762e+12 -1.31003e+12 -1.64083e+12 -969863000000.0 -870914000000.0 -306237000000.0 -63750900000.0 -333482000000.0 -449056000000.0 -817246000000.0 -1.02515e+12 -1.05427e+12 -1.3151e+12 -1.0916e+12 -639958000000.0 -1.12256e+12 -1.3312e+12 -1.51757e+12 -1.67323e+12 -1.35069e+12 -1.34039e+12 -1.31693e+12 -1.29193e+12 -1.27095e+12 -1.24145e+12 -1.20869e+12 -1.17595e+12 -1.14482e+12 -1.12282e+12 -1.1011e+12 -1.0801e+12 -1.05968e+12 -1.16979e+12 -1.40338e+12 -1.19258e+12 -1.13976e+12 -1.14928e+12 -809257000000.0 -700764000000.0 -981346000000.0 -1.00228e+12 -1.05142e+12 -1.08442e+12 -1.1084e+12 -1.13795e+12 -1.16491e+12 -1.19066e+12 -1.22009e+12 -1.25852e+12 -1.3007e+12 -1.33639e+12 -1.36632e+12 -1.65068e+12 -1.52684e+12 -1.45292e+12 -1.38686e+12 -1.01654e+12 -1.33165e+12 -1.43578e+12 -735457000000.0 -701419000000.0 -519850000000.0 -240383000000.0 -189841000000.0 -83986300000.0 -236152000000.0 -413282000000.0 -584638000000.0 -879040000000.0 -729978000000.0 -944918000000.0 -895387000000.0 -1.03293e+12 -1.1535e+12 -1.5468e+12 -1.47408e+12 -1.40746e+12 -1.37891e+12 -1.08385e+12 -1.05232e+12 -1.02156e+12 -991028000000.0 -984888000000.0 -974763000000.0 -955675000000.0 -932344000000.0 -907882000000.0 -892657000000.0 -851872000000.0 -995233000000.0 -1.03078e+12 -1.03108e+12 -723177000000.0 -1.72413e+12 -970672000000.0 -1.31726e+12 -1.00363e+12 -871481000000.0 -858194000000.0 -609922000000.0 -689242000000.0 -839426000000.0 -908664000000.0 -829585000000.0 -926141000000.0 -955347000000.0 -962449000000.0 -989930000000.0 -1.01037e+12 -1.02687e+12 -1.40565e+12 -1.45069e+12 -1.50182e+12 -1.57452e+12 -1.26563e+12 -1.22899e+12 -1.1807e+12 -1.45357e+12 -688639000000.0 -625861000000.0 -480984000000.0 -258485000000.0 -148624000000.0 -57150100000.0 -424925000000.0 -245167000000.0 -568152000000.0 -671154000000.0 -797838000000.0 -883416000000.0 -875656000000.0 -1.2042e+12 -1.18097e+12 -1.0491e+12 -1.09764e+12 -1.10434e+12 -1.07937e+12 -1.14788e+12 -1.1403e+12 -1.12841e+12 -1.13233e+12 -1.11281e+12 -824914000000.0 -876054000000.0 -867194000000.0 -824803000000.0 -789195000000.0 -762318000000.0 -709754000000.0 -899929000000.0 -882477000000.0 -865379000000.0 -997238000000.0 -1.37904e+12 -721333000000.0 -139911000000.0 -727699000000.0 -627767000000.0 -650368000000.0 -450880000000.0 -707149000000.0 -922255000000.0 -657281000000.0 -821264000000.0 -879403000000.0 -810779000000.0 -1.03988e+12 -1.0569e+12 -1.09658e+12 -1.14315e+12 -1.14483e+12 -1.12684e+12 -1.13826e+12 -1.10589e+12 -1.08795e+12 -1.24035e+12 -1.28712e+12 -1.03799e+12 -1.06405e+12 -1.05353e+12 -950097000000.0 -475311000000.0 -282224000000.0 -78753600000.0 -96392900000.0 -188399000000.0 -815285000000.0 -546646000000.0 -663160000000.0 -762990000000.0 -821580000000.0 -866324000000.0 -860359000000.0 -830702000000.0 -849538000000.0 -947897000000.0 -983764000000.0 -939064000000.0 -1.00635e+12 -976352000000.0 -932538000000.0 -994773000000.0 -986528000000.0 -964141000000.0 -931686000000.0 -897599000000.0 -865422000000.0 -650649000000.0 -648565000000.0 -576163000000.0 -824740000000.0 -650210000000.0 -661113000000.0 -643230000000.0 -924749000000.0 -627770000000.0 -853575000000.0 -868856000000.0 -877685000000.0 -882103000000.0 -871622000000.0 -867656000000.0 -954945000000.0 -1.02307e+12 -1.00465e+12 -973532000000.0 -964950000000.0 -894518000000.0 -829126000000.0 -980501000000.0 -998654000000.0 -937428000000.0 -956348000000.0 -969018000000.0 -871710000000.0 -606297000000.0 -618439000000.0 -132589000000.0 -78637200000.0 -285782000000.0 -429862000000.0 -625733000000.0 -885005000000.0 -9035660000.0 -608710000000.0 -750329000000.0 -766431000000.0 -411923000000.0 -680111000000.0 -717794000000.0 -787789000000.0 -830234000000.0 -835689000000.0 -880341000000.0 -836263000000.0 -780593000000.0 -905990000000.0 -873339000000.0 -850800000000.0 -821861000000.0 -781415000000.0 -738677000000.0 -712829000000.0 -650082000000.0 -824782000000.0 -756072000000.0 -850773000000.0 -730453000000.0 -678977000000.0 -581652000000.0 -1.00339e+12 -906047000000.0 -548433000000.0 -631690000000.0 -668745000000.0 -633803000000.0 -695346000000.0 -777428000000.0 -851217000000.0 -705769000000.0 -744254000000.0 -747148000000.0 -743751000000.0 -742293000000.0 -738339000000.0 -714201000000.0 -746675000000.0 -844276000000.0 -932849000000.0 -877830000000.0 -831312000000.0 -789270000000.0 -762098000000.0 -747878000000.0 -769178000000.0 -644574000000.0 -850762000000.0 -834520000000.0 -872652000000.0 -284537000000.0 -588595000000.0 -481259000000.0 -350627000000.0 -235421000000.0 -84115100000.0 -131632000000.0 -225936000000.0 -417626000000.0 -759458000000.0 -59824600000.0 -171351000000.0 -238592000000.0 -665061000000.0 -739232000000.0 -716291000000.0 -685581000000.0 -620945000000.0 -579630000000.0 -607348000000.0 -512084000000.0 -795983000000.0 -570946000000.0 -482885000000.0 -505060000000.0 -844182000000.0 -616562000000.0 -474928000000.0 -487452000000.0 -289558000000.0 -942165000000.0 -914489000000.0 -437521000000.0 -560108000000.0 -626438000000.0 -677239000000.0 -637303000000.0 -912732000000.0 -726027000000.0 -807034000000.0 -862745000000.0 -673647000000.0 -682650000000.0 -641696000000.0 -607763000000.0 -591308000000.0 -592362000000.0 -624557000000.0 -706214000000.0 -496886000000.0 -347810000000.0 -150072000000.0 -519164000000.0 -331095000000.0 -186990000000.0 -87104000000.0 -29615000000.0 -58104500000.0 -131026000000.0 -454142000000.0 -477913000000.0 -524102000000.0 -640240000000.0 -655248000000.0 -697453000000.0 -752566000000.0 -733203000000.0 -669999000000.0 -789005000000.0 -761635000000.0 -396665000000.0 -679767000000.0 -499747000000.0 -762908000000.0 -434438000000.0 -404226000000.0 -332812000000.0 -438691000000.0 -827253000000.0 -733290000000.0 -747691000000.0 -662618000000.0 -515960000000.0 -519221000000.0 -499929000000.0 -627172000000.0 -647342000000.0 -742715000000.0 -808768000000.0 -728249000000.0 -662326000000.0 -634736000000.0 -660651000000.0 -587721000000.0 -724403000000.0 -469712000000.0 -74694400000.0 -30233700000.0 -287654000000.0 -513374000000.0 -673454000000.0 -448821000000.0 -572800000000.0 -457170000000.0 -84655900000.0 -85576000000.0 -359299000000.0 -546012000000.0 -514744000000.0 -523760000000.0 -596018000000.0 -627438000000.0 -579552000000.0 -656975000000.0 -629920000000.0 -623160000000.0 -610105000000.0 -601573000000.0 -592960000000.0 -597094000000.0 -574138000000.0 -538341000000.0 -473340000000.0 -429362000000.0 -716815000000.0 -662056000000.0 -772949000000.0 -555130000000.0 -431619000000.0 -449543000000.0 -579007000000.0 -574495000000.0 -547149000000.0 -601776000000.0 -644485000000.0 -677033000000.0 -705184000000.0 -724168000000.0 -683449000000.0 -637856000000.0 -600299000000.0 -635322000000.0 -654757000000.0 -552611000000.0 -503533000000.0 -522739000000.0 -624908000000.0 -409542000000.0 -40760100000.0 -45868100000.0 -470996000000.0 -588845000000.0 -505790000000.0 -491314000000.0 -390201000000.0 -228452000000.0 -27909400000.0 -62139500000.0 -152158000000.0 -322443000000.0 -452343000000.0 -547525000000.0 -663169000000.0 -377805000000.0 -13176100000.0 -40288100000.0 -147608000000.0 -280495000000.0 -405948000000.0 -390674000000.0 -406471000000.0 -489088000000.0 -463775000000.0 -506664000000.0 -508618000000.0 -485904000000.0 -469561000000.0 -474747000000.0 -492979000000.0 -505511000000.0 -488652000000.0 -521232000000.0 -579644000000.0 -356055000000.0 -730176000000.0 -335455000000.0 -516260000000.0 -70103900000.0 -227432000000.0 -25371400000.0 -132662000000.0 -48046700000.0 -318660000000.0 -578042000000.0 -585343000000.0 -679323000000.0 -389465000000.0 -365750000000.0 -568810000000.0 -476993000000.0 -456008000000.0 -306293000000.0 -599399000000.0 -461071000000.0 -533375000000.0 -514425000000.0 -503558000000.0 -522266000000.0 -522856000000.0 -516423000000.0 -507183000000.0 -492973000000.0 -466857000000.0 -464296000000.0 -512711000000.0 -463556000000.0 -389840000000.0 -400943000000.0 -446496000000.0 -352482000000.0 -171270000000.0 -43826000000.0 -9035750000.0 -360924000000.0 -691836000000.0 -506134000000.0 -385768000000.0 -273594000000.0 -134040000000.0 -78896300000.0 -32327300000.0 -37758200000.0 -89403100000.0 -217427000000.0 -279415000000.0 -407485000000.0 -113338000000.0 -179805000000.0 -181686000000.0 -269058000000.0 -441475000000.0 -430536000000.0 -430909000000.0 -466149000000.0 -333475000000.0 -512535000000.0 -382765000000.0 -532649000000.0 -415522000000.0 -492692000000.0 -377152000000.0 -364107000000.0 -426050000000.0 -487420000000.0 -297480000000.0 -358881000000.0 -382577000000.0 -476040000000.0 -520143000000.0 -565513000000.0 -567133000000.0 -551241000000.0 -523711000000.0 -540956000000.0 -555402000000.0 -296520000000.0 -222862000000.0 -153367000000.0 -104527000000.0 -387404000000.0 -287986000000.0 -185617000000.0 -98689900000.0 -40472700000.0 -486773000000.0 -578078000000.0 -138574000000.0 -159077000000.0 -274318000000.0 -295253000000.0 -334315000000.0 -435557000000.0 -512762000000.0 -542669000000.0 -519603000000.0 -484795000000.0 -463381000000.0 -447210000000.0 -365283000000.0 -608441000000.0 -368135000000.0 -360162000000.0 -558850000000.0 -551208000000.0 -520507000000.0 -480243000000.0 -445828000000.0 -414243000000.0 -372148000000.0 -338082000000.0 -295114000000.0 -293092000000.0 -157949000000.0 -131811000000.0 -555094000000.0 -458934000000.0 -14822900000.0 -20677900000.0 -66891300000.0 -95029400000.0 -191024000000.0 -268014000000.0 -416471000000.0 -19010100000.0 -68878200000.0 -91821500000.0 -105774000000.0 -72136900000.0 -82488800000.0 -150240000000.0 -166566000000.0 -179383000000.0 -227498000000.0 -257635000000.0 -286039000000.0 -305082000000.0 -333605000000.0 -315802000000.0 -339664000000.0 -353615000000.0 -366964000000.0 -201489000000.0 -280182000000.0 -9033320000.0 -190360000000.0 -68780200000.0 -100288000000.0 -85888400000.0 -112728000000.0 -85577200000.0 -58642200000.0 -191860000000.0 -129016000000.0 -394566000000.0 -324965000000.0 -339069000000.0 -393813000000.0 -306552000000.0 -330724000000.0 -272014000000.0 -298897000000.0 -241102000000.0 -307662000000.0 -226410000000.0 -420012000000.0 -363797000000.0 -439828000000.0 -415094000000.0 -392504000000.0 -352968000000.0 -353510000000.0 -312813000000.0 -276348000000.0 -235353000000.0 -229695000000.0 -178928000000.0 -182694000000.0 -180117000000.0 -97417400000.0 -74864500000.0 -99885400000.0 -99497500000.0 -78206900000.0 -23084300000.0 -405832000000.0 -241071000000.0 -153634000000.0 -69594900000.0 -42567900000.0 -21124500000.0 -14270700000.0 -9035750000.0 -9035750000.0 -25863500000.0 -106947000000.0 -162555000000.0 -126430000000.0 -97095900000.0 -77108500000.0 -47596200000.0 -31450500000.0 -65893700000.0 -85540600000.0 -327218000000.0 -395567000000.0 -464343000000.0 -473744000000.0 -516498000000.0 -567386000000.0 -628118000000.0 -532035000000.0 -593101000000.0 -459858000000.0 -465113000000.0 -348107000000.0 -259027000000.0 -203959000000.0 -137401000000.0 -57254900000.0 -147713000000.0 -24395700000.0 -55428000000.0 -105980000000.0 -114757000000.0 -165083000000.0 -208257000000.0 -235291000000.0 -334583000000.0 -317115000000.0 -392084000000.0 -371291000000.0 -358945000000.0 -324118000000.0 -314693000000.0 -266671000000.0 -232632000000.0 -95791600000.0 -86853600000.0 -37283900000.0 -48050900000.0 -76010400000.0 -98139100000.0 -127914000000.0 -140060000000.0 -69133600000.0 -13508000000.0 -9035750000.0 -9035750000.0 -257204000000.0 -312647000000.0 -159164000000.0 -99896200000.0 -170131000000.0 -243708000000.0 -455128000000.0 -342186000000.0 -203431000000.0 -159368000000.0 -233022000000.0 -127412000000.0 -188934000000.0 -160334000000.0 -96396500000.0 -160520000000.0 -313922000000.0 -245082000000.0 -30727200000.0 -74467700000.0 -122226000000.0 -202629000000.0 -261681000000.0 -308758000000.0 -237467000000.0 -21694500000.0 -45390600000.0 -69871200000.0 -95641700000.0 -122719000000.0 -150212000000.0 -188346000000.0 -233276000000.0 -241079000000.0 -271109000000.0 -258637000000.0 -234366000000.0 -190070000000.0 -151337000000.0 -96659900000.0 -110003000000.0 -133808000000.0 -163186000000.0 -78218500000.0 -108252000000.0 -83918900000.0 -13921100000.0 -171568000000.0 -19422500000.0 -116391000000.0 -57584100000.0 -66397700000.0 -17021900000.0 -144988000000.0 -99898500000.0 -32781000000.0 -228218000000.0 -184100000000.0 -199853000000.0 -125228000000.0 -99973200000.0 -109348000000.0 -70447200000.0 -77530400000.0 -45813100000.0 -33744700000.0 -52184900000.0 -25645200000.0 -80390600000.0 -76222800000.0 -94420300000.0 -101126000000.0 -143560000000.0 -161904000000.0 -193007000000.0 -211187000000.0 -238957000000.0 -214857000000.0 -222964000000.0 -195956000000.0 -141238000000.0 -115631000000.0 -90385200000.0 -65899300000.0 -42867000000.0 -20828800000.0 -241934000000.0 -308846000000.0 -258135000000.0 -173413000000.0 -113496000000.0 -71734700000.0 -30166200000.0 -9192140000.0 -9112600000.0 -11693100000.0 -38973800000.0 -103089000000.0 -188008000000.0 -211542000000.0 -240118000000.0 -159840000000.0 -169471000000.0 -92639500000.0 -67538100000.0 -79892800000.0 -67279200000.0 -70936800000.0 -52354600000.0 -17835800000.0 -10999200000.0 -13625000000.0 -28014300000.0 -41430600000.0 -57683700000.0 -59842200000.0 -121324000000.0 -115708000000.0 -120511000000.0 -107174000000.0 -120261000000.0 -96068000000.0 -20264200000.0 -10339700000.0 -9111460000.0 -9192310000.0 -202587000000.0 -243965000000.0 -74029000000.0 -61913100000.0 -52532100000.0 -41451300000.0 -32127700000.0 -23148700000.0 -16851000000.0 -55781800000.0 -62942200000.0 -104764000000.0 -125129000000.0 -150288000000.0 -162648000000.0 -179557000000.0 -165813000000.0 -166484000000.0 -219448000000.0 -148574000000.0 -95881000000.0 -154075000000.0 -77112600000.0 -184164000000.0 -65638000000.0 -41710700000.0 -42786700000.0 -106118000000.0 -105281000000.0 -94730000000.0 -93753600000.0 -57423200000.0 -62448900000.0 -31312600000.0 -22410100000.0 -32135500000.0 -41738700000.0 -53010800000.0 -62374200000.0 -74501100000.0 -245345000000.0 -199433000000.0 -11699400000.0 -15808800000.0 -25856600000.0 -47624500000.0 -116621000000.0 -187313000000.0 -197100000000.0 -13753600000.0 -12504200000.0 -16792000000.0 -15507100000.0 -18280900000.0 -21273600000.0 -24875000000.0 -72294900000.0 -84116600000.0 -118014000000.0 -122389000000.0 -128920000000.0 -121657000000.0 -119619000000.0 -97925300000.0 -109280000000.0 -115658000000.0 -132433000000.0 -59828800000.0 -58869700000.0 -84673500000.0 -9490320000.0 -149616000000.0 -12131700000.0 -93067200000.0 -32996500000.0 -48031600000.0 -11328600000.0 -97655600000.0 -13771700000.0 -27414500000.0 -154035000000.0 -89846200000.0 -71594800000.0 -50787100000.0 -36450000000.0 -64715400000.0 -30090400000.0 -49790600000.0 -23142400000.0 -26168800000.0 -15822500000.0 -14923900000.0 -69527600000.0 -68658000000.0 -80987000000.0 -75217700000.0 -95702600000.0 -92088200000.0 -100947000000.0 -100972000000.0 -107977000000.0 -78208500000.0 -78538000000.0 -32861500000.0 -23011700000.0 -19432800000.0 -16459100000.0 -17732200000.0 -12931200000.0 -13970400000.0 -198242000000.0 -186001000000.0 -111527000000.0 -40061500000.0 -23471600000.0 -15762800000.0 -11683800000.0 -120652000000.0 -46433100000.0 -10359300000.0 -10899700000.0 -33233700000.0 -20397800000.0 -27894200000.0 -9625870000.0 -9389540000.0 -9121680000.0 -9629800000.0 -66238100000.0 -9911960000.0 -9506650000.0 -17110900000.0 -32725200000.0 -93787200000.0 -163495000000.0 -190427000000.0 -21620200000.0 -14337500000.0 -16774000000.0 -11116700000.0 -11671700000.0 -12525500000.0 -13888500000.0 -58134500000.0 -73631100000.0 -106961000000.0 -112370000000.0 -121373000000.0 -117130000000.0 -118322000000.0 -101065000000.0 -111452000000.0 -108267000000.0 -54658300000.0 -78404900000.0 -134665000000.0 -85895800000.0 -49438700000.0 -20096200000.0 -95666700000.0 -44648000000.0 -133709000000.0 -49173500000.0 -21972800000.0 -42469200000.0 -33472500000.0 -16904000000.0 -14006700000.0 -66144300000.0 -80687100000.0 -74530600000.0 -92917700000.0 -87251700000.0 -93408700000.0 -91109700000.0 -94900500000.0 -65214100000.0 -61240000000.0 -15157100000.0 -13059100000.0 -11647800000.0 -11118100000.0 -17173700000.0 -14353000000.0 -21840200000.0 -191259000000.0 -162654000000.0 -90189100000.0 -29770200000.0 -14613300000.0 -9507790000.0 -9913100000.0 -10446600000.0 -10378200000.0 -19644000000.0 -36252700000.0 -88264300000.0 -152127000000.0 -182230000000.0 -22165300000.0 -12659400000.0 -16224100000.0 -9769580000.0 -11375700000.0 -13545700000.0 -16323600000.0 -58396800000.0 -76476000000.0 -106735000000.0 -109784000000.0 -116490000000.0 -110557000000.0 -110902000000.0 -95129100000.0 -104424000000.0 -94739400000.0 -103182000000.0 -46593600000.0 -35316100000.0 -73020800000.0 -9035750000.0 -121608000000.0 -9035750000.0 -76223700000.0 -28908600000.0 -40666700000.0 -9568570000.0 -80306700000.0 -10018000000.0 -33829000000.0 -120785000000.0 -54124500000.0 -34316600000.0 -32208500000.0 -16922300000.0 -48253500000.0 -14934400000.0 -37578000000.0 -12207600000.0 -19247900000.0 -9693120000.0 -12917200000.0 -58251200000.0 -59140600000.0 -76295200000.0 -70960700000.0 -89240600000.0 -84864700000.0 -91778600000.0 -90437200000.0 -94710200000.0 -67530900000.0 -59716700000.0 -16440900000.0 -14052700000.0 -11220400000.0 -9670510000.0 -16662900000.0 -12616700000.0 -22419500000.0 -182845000000.0 -151755000000.0 -86001000000.0 -34712000000.0 -17481200000.0 -10369600000.0 -10461100000.0 -10563600000.0 -9922100000.0 -19061900000.0 -35405900000.0 -78027300000.0 -136274000000.0 -172374000000.0 -25868300000.0 -13865100000.0 -17385400000.0 -9606850000.0 -11316100000.0 -13823000000.0 -17008300000.0 -55651600000.0 -75144100000.0 -102508000000.0 -104622000000.0 -110459000000.0 -104400000000.0 -104878000000.0 -90224900000.0 -98304100000.0 -84183500000.0 -89101500000.0 -42386600000.0 -27911900000.0 -67965800000.0 -9035750000.0 -110904000000.0 -9035750000.0 -70683500000.0 -29012100000.0 -38808900000.0 -10294200000.0 -74271300000.0 -9529970000.0 -35596200000.0 -104714000000.0 -38459400000.0 -21384600000.0 -24018500000.0 -9035750000.0 -40968900000.0 -9035750000.0 -32879200000.0 -9035750000.0 -17682400000.0 -9035750000.0 -13443600000.0 -51902800000.0 -53731500000.0 -72740700000.0 -68160200000.0 -85917400000.0 -82040400000.0 -88831800000.0 -87686200000.0 -91692300000.0 -66848600000.0 -56094200000.0 -17385400000.0 -14644200000.0 -11293300000.0 -9592170000.0 -17953700000.0 -13836900000.0 -26371700000.0 -172998000000.0 -136125000000.0 -76676400000.0 -34505800000.0 -17502700000.0 -9922590000.0 -10566700000.0 -10823900000.0 -10088200000.0 -19099400000.0 -35085600000.0 -69998100000.0 -122421000000.0 -161878000000.0 -28857500000.0 -14960900000.0 -18348900000.0 -9767480000.0 -11693900000.0 -14630500000.0 -18345000000.0 -53342000000.0 -73321600000.0 -97549800000.0 -98813500000.0 -103569000000.0 -97198200000.0 -97652300000.0 -83877900000.0 -90835500000.0 -74224300000.0 -76182800000.0 -39288600000.0 -22604600000.0 -63127600000.0 -9035750000.0 -101150000000.0 -9035750000.0 -65832300000.0 -28518500000.0 -37256600000.0 -10503000000.0 -69235500000.0 -9035750000.0 -37161000000.0 -96933600000.0 -36722900000.0 -20867200000.0 -24775700000.0 -9035750000.0 -39715500000.0 -9035750000.0 -32239000000.0 -9035750000.0 -17765500000.0 -9035750000.0 -13882500000.0 -45396300000.0 -48048700000.0 -68184100000.0 -64361600000.0 -81424000000.0 -78159700000.0 -84903600000.0 -83983900000.0 -87806700000.0 -65539100000.0 -52797300000.0 -18771800000.0 -15526300000.0 -11675800000.0 -9754800000.0 -18971900000.0 -14938800000.0 -29240100000.0 -162233000000.0 -122392000000.0 -69255000000.0 -34606500000.0 -18077700000.0 -10088400000.0 -10827900000.0 -11034200000.0 -10223100000.0 -18733100000.0 -33871600000.0 -62505900000.0 -109264000000.0 -150475000000.0 -31136300000.0 -15849000000.0 -18916100000.0 -9902460000.0 -11999600000.0 -15264700000.0 -19406800000.0 -50622900000.0 -70285000000.0 -91436900000.0 -92110200000.0 -95997400000.0 -89540700000.0 -89956200000.0 -76860300000.0 -82683700000.0 -65056800000.0 -64739900000.0 -36853700000.0 -18947500000.0 -58465000000.0 -9035750000.0 -92176400000.0 -9035750000.0 -61465500000.0 -27509800000.0 -35749100000.0 -11029300000.0 -65005600000.0 -9035750000.0 -37969000000.0 -86395200000.0 -31896200000.0 -17641600000.0 -24344300000.0 -9035750000.0 -38282400000.0 -9035750000.0 -31491300000.0 -9035750000.0 -17730400000.0 -9035750000.0 -14214700000.0 -39153300000.0 -42459200000.0 -63011900000.0 -59927600000.0 -76141100000.0 -73451200000.0 -80072300000.0 -79322100000.0 -82869900000.0 -63154300000.0 -49326200000.0 -19871100000.0 -16188200000.0 -11985600000.0 -9891590000.0 -19569900000.0 -15836400000.0 -31557400000.0 -150811000000.0 -109305000000.0 -62153300000.0 -33668600000.0 -18085100000.0 -10223200000.0 -11039000000.0 -11191300000.0 -10324500000.0 -18102100000.0 -32061900000.0 -55772900000.0 -97088600000.0 -138582000000.0 -32715700000.0 -16515200000.0 -19119200000.0 -10009000000.0 -12227700000.0 -15717400000.0 -20175600000.0 -47669800000.0 -66378600000.0 -84631600000.0 -84909000000.0 -88077600000.0 -81684700000.0 -82043800000.0 -69606600000.0 -74364100000.0 -56790800000.0 -54839300000.0 -34676200000.0 -16498300000.0 -53966200000.0 -9035750000.0 -83853200000.0 -9035750000.0 -57409200000.0 -26133900000.0 -34236900000.0 -11473200000.0 -61052200000.0 -9035750000.0 -38611000000.0 -77918200000.0 -29773800000.0 -15902400000.0 -24083400000.0 -9035750000.0 -36689300000.0 -9035750000.0 -30625000000.0 -9035750000.0 -17594100000.0 -9035750000.0 -14425900000.0 -33432700000.0 -37201000000.0 -57535000000.0 -55139700000.0 -70374400000.0 -68216200000.0 -74644900000.0 -74026900000.0 -77246100000.0 -59970400000.0 -45826600000.0 -20660800000.0 -16626300000.0 -12217100000.0 -9999880000.0 -19782500000.0 -16512300000.0 -33159100000.0 -138942000000.0 -97188600000.0 -55663500000.0 -32021100000.0 -17681700000.0 -10324800000.0 -11196700000.0 -11292500000.0 -10391200000.0 -17312900000.0 -29892400000.0 -49853000000.0 -86013300000.0 -126511000000.0 -33614700000.0 -16954600000.0 -19003300000.0 -10085300000.0 -12374000000.0 -15985700000.0 -20641800000.0 -44590300000.0 -61882500000.0 -77487800000.0 -77518100000.0 -80096200000.0 -73891300000.0 -74177900000.0 -62452800000.0 -66247400000.0 -49479800000.0 -46427200000.0 -32519200000.0 -14811400000.0 -49627000000.0 -9035750000.0 -76081800000.0 -9035750000.0 -53529600000.0 -24538000000.0 -32681100000.0 -11822500000.0 -57230300000.0 -9035750000.0 -38670800000.0 -70044500000.0 -28142000000.0 -14342800000.0 -23573900000.0 -9035750000.0 -34953000000.0 -9035750000.0 -29621300000.0 -9035750000.0 -17362800000.0 -9035750000.0 -14512000000.0 -28377400000.0 -32420100000.0 -52003000000.0 -50229000000.0 -64381900000.0 -62706900000.0 -68878000000.0 -68363800000.0 -71227200000.0 -56226900000.0 -42386900000.0 -21132400000.0 -16845100000.0 -12366600000.0 -10077700000.0 -19657000000.0 -16960000000.0 -34066000000.0 -126914000000.0 -86167300000.0 -49890200000.0 -29935100000.0 -17025700000.0 -10391500000.0 -11298100000.0 -11336200000.0 -10422400000.0 -16447300000.0 -27543100000.0 -44681100000.0 -76042000000.0 -114488000000.0 -33860100000.0 -17167700000.0 -18619700000.0 -10130100000.0 -12436700000.0 -16071500000.0 -20804500000.0 -41438600000.0 -57030800000.0 -70279500000.0 -70165400000.0 -72258700000.0 -66344000000.0 -66546500000.0 -55616500000.0 -58570700000.0 -43106200000.0 -39386300000.0 -30319500000.0 -13542600000.0 -45445500000.0 -9035750000.0 -68785100000.0 -9035750000.0 -49737100000.0 -22838700000.0 -31053200000.0 -12068900000.0 -53443700000.0 -9035750000.0 -38145900000.0 -62816000000.0 -26776800000.0 -13018900000.0 -22857600000.0 -9035750000.0 -33088800000.0 -9035750000.0 -28466100000.0 -9035750000.0 -17035000000.0 -9035750000.0 -14476100000.0 -24048900000.0 -28191200000.0 -46604400000.0 -45371200000.0 -58365600000.0 -57120300000.0 -62972600000.0 -62540100000.0 -65042200000.0 -52125600000.0 -39052200000.0 -21286300000.0 -16855500000.0 -12431900000.0 -10123800000.0 -19247100000.0 -17179900000.0 -34306400000.0 -114928000000.0 -76239800000.0 -44802600000.0 -27622100000.0 -16241100000.0 -10422700000.0 -11342100000.0 -11322600000.0 -10418300000.0 -15564000000.0 -25150900000.0 -40133000000.0 -67087200000.0 -102678000000.0 -33486100000.0 -17159200000.0 -18022100000.0 -10143000000.0 -12415400000.0 -15981200000.0 -20670700000.0 -38246600000.0 -52010500000.0 -63195100000.0 -63004300000.0 -64700200000.0 -59160000000.0 -59273900000.0 -49225200000.0 -51466200000.0 -37597400000.0 -33556900000.0 -28101000000.0 -12508100000.0 -41419400000.0 -9035750000.0 -61901200000.0 -9035750000.0 -45975600000.0 -21120500000.0 -29335100000.0 -12203900000.0 -49623800000.0 -9035750000.0 -37074100000.0 -56185300000.0 -25515700000.0 -11944000000.0 -21971900000.0 -9035750000.0 -31112500000.0 -9035750000.0 -27152500000.0 -9035750000.0 -16610200000.0 -9035750000.0 -14324100000.0 -20446800000.0 -24535900000.0 -41469900000.0 -40691400000.0 -52473600000.0 -51600400000.0 -57076100000.0 -56708600000.0 -58858800000.0 -47827100000.0 -35837700000.0 -21131500000.0 -16673400000.0 -12413000000.0 -10137900000.0 -18609300000.0 -17176600000.0 -33916100000.0 -103137000000.0 -67313600000.0 -40299100000.0 -25240900000.0 -15412000000.0 -10418700000.0 -11328500000.0 -11252900000.0 -10379700000.0 -14699400000.0 -22815100000.0 -36067600000.0 -59011000000.0 -91198000000.0 -32533600000.0 -16937800000.0 -17262600000.0 -10124500000.0 -12312000000.0 -15724600000.0 -20254200000.0 -35040900000.0 -46963200000.0 -56350100000.0 -56127200000.0 -57497400000.0 -52400600000.0 -52430000000.0 -43337800000.0 -44988500000.0 -32850800000.0 -28759600000.0 -25902900000.0 -11643600000.0 -37544000000.0 -9035750000.0 -55378100000.0 -9035750000.0 -42209700000.0 -19442200000.0 -27518500000.0 -12226000000.0 -45726400000.0 -9035750000.0 -50070800000.0 -24249000000.0 -11102200000.0 -20945800000.0 -9035750000.0 -29039000000.0 -9035750000.0 -25682500000.0 -9035750000.0 -16091300000.0 -9035750000.0 -14063800000.0 -17527600000.0 -21435200000.0 -36680100000.0 -36268500000.0 -46804400000.0 -46242600000.0 -51288600000.0 -50973500000.0 -52791100000.0 -43452000000.0 -32739200000.0 -20684200000.0 -16317600000.0 -12311600000.0 -10120400000.0 -17799100000.0 -16958900000.0 -32937800000.0 -91654500000.0 -59248700000.0 -36251600000.0 -22903000000.0 -14587500000.0 -10380000000.0 -11258700000.0 -35502500000.0 -11129800000.0 -10307900000.0 -13873600000.0 -20600500000.0 -32355800000.0 -51664600000.0 -80118200000.0 -31049700000.0 -16516100000.0 -16388800000.0 -10075700000.0 -12130200000.0 -15314100000.0 -19574800000.0 -31844600000.0 -41986400000.0 -49804100000.0 -49578400000.0 -50680900000.0 -46083200000.0 -46039900000.0 -37962400000.0 -39137400000.0 -28753200000.0 -24816100000.0 -23751200000.0 -10934300000.0 -33811000000.0 -9035750000.0 -49170600000.0 -9035750000.0 -38417800000.0 -17842800000.0 -25602400000.0 -12138500000.0 -41727900000.0 -9035750000.0 -33477500000.0 -44387200000.0 -22901500000.0 -10463400000.0 -19803000000.0 -9035750000.0 -26879900000.0 -9035750000.0 -24065600000.0 -9035750000.0 -15483400000.0 -9035750000.0 -13704400000.0 -15222000000.0 -18842700000.0 -32273400000.0 -32143000000.0 -41414400000.0 -41102200000.0 -45669600000.0 -45398600000.0 -46908900000.0 -39085000000.0 -29742100000.0 -19965900000.0 -15808100000.0 -12131200000.0 -10072500000.0 -16867100000.0 -16539300000.0 -31420300000.0 -80552500000.0 -51897300000.0 -32538700000.0 -20679900000.0 -13792600000.0 -10308200000.0 -11135300000.0 -10957000000.0 -10205200000.0 -13095800000.0 -18545500000.0 -28892200000.0 -44912600000.0 -69467800000.0 -29087200000.0 -15910000000.0 -15441600000.0 -9998640000.0 -11875200000.0 -14764000000.0 -18656500000.0 -28674600000.0 -37138400000.0 -43576100000.0 -43366400000.0 -44247000000.0 -40192900000.0 -40094300000.0 -33071500000.0 -33874800000.0 -25192400000.0 -21561800000.0 -21655500000.0 -10373100000.0 -30209300000.0 -9035750000.0 -43238000000.0 -9035750000.0 -34588200000.0 -16346100000.0 -23591200000.0 -11947800000.0 -37619400000.0 -9035750000.0 -39054800000.0 -21427000000.0 -9993810000.0 -18561400000.0 -9035750000.0 -24644900000.0 -9035750000.0 -22316200000.0 -9035750000.0 -14793400000.0 -9035750000.0 -13256500000.0 -13446100000.0 -16695600000.0 -28254800000.0 -28324400000.0 -36325500000.0 -36201800000.0 -40247100000.0 -40014600000.0 -41246200000.0 -34779700000.0 -26828400000.0 -19003000000.0 -15165100000.0 -11877300000.0 -9996240000.0 -15856900000.0 -15933600000.0 -29417700000.0 -69863700000.0 -45127400000.0 -29061300000.0 -18613200000.0 -13038700000.0 -10205600000.0 -10962100000.0 -31045400000.0 -10739300000.0 -10074500000.0 -12368200000.0 -16668300000.0 -25597600000.0 -38640400000.0 -59245000000.0 -26703000000.0 -15138300000.0 -14453800000.0 -9895800000.0 -11553800000.0 -14090400000.0 -17527200000.0 -25541100000.0 -32445000000.0 -37656100000.0 -37473400000.0 -38167900000.0 -34692300000.0 -34559000000.0 -28615200000.0 -29138400000.0 -22063600000.0 -18851700000.0 -19614200000.0 -9946330000.0 -26725100000.0 -9035750000.0 -37541900000.0 -9035750000.0 -30716800000.0 -14962900000.0 -21492600000.0 -11663000000.0 -33401800000.0 -9035750000.0 -28254800000.0 -34002100000.0 -19807000000.0 -9659600000.0 -17234900000.0 -9035750000.0 -22343100000.0 -9035750000.0 -20451000000.0 -9035750000.0 -14029700000.0 -9035750000.0 -12731700000.0 -12109800000.0 -14924800000.0 -24604100000.0 -24799000000.0 -31533200000.0 -31539800000.0 -35024600000.0 -34827700000.0 -35809600000.0 -30564800000.0 -23980700000.0 -17824700000.0 -14408100000.0 -11556500000.0 -9894020000.0 -14803600000.0 -15160700000.0 -26988600000.0 -59590800000.0 -38828200000.0 -25744900000.0 -16723400000.0 -12329200000.0 -10074800000.0 -10743800000.0 -11688000000.0 -14971500000.0 -22418500000.0 -29383600000.0 -24530400000.0 -24851700000.0 -19272800000.0 -16560700000.0 -9633730000.0 -9035750000.0 -9035750000.0 -13693300000.0 -11295800000.0 -9035750000.0 -29166600000.0 -9429150000.0 -9035750000.0 -9035750000.0 -9035750000.0 -9035750000.0 -11124200000.0 -13460500000.0 -21283000000.0 -21536900000.0 -27013200000.0 -22540300000.0 -15014200000.0 -11662400000.0 -10482200000.0 -9918990000.0 -32748300000.0 -49424600000.0 -23957800000.0 -14222100000.0 -13450000000.0 -9770250000.0 -11174200000.0 -13310700000.0 -16217100000.0 -22447600000.0 -27908600000.0 -32014400000.0 -31864300000.0 -32400100000.0 -29529700000.0 -17619100000.0 -23342500000.0 -32045700000.0 -26804700000.0 -19317200000.0 -29083000000.0 -25156400000.0 -18044900000.0 -15835500000.0 -19983700000.0 -18488000000.0 -13202300000.0 -12141800000.0 -27097100000.0 -29988500000.0 -29826400000.0 -30585900000.0 -26450100000.0 -21183200000.0 -16462700000.0 -13555200000.0 -11177100000.0 -9768980000.0 -13733500000.0 -14242200000.0 -24194900000.0 -49712800000.0 -32904100000.0 -9919240000.0 -10486100000.0 -10192100000.0 -9742660000.0 -11049000000.0 -13443100000.0 -19323900000.0 -27148300000.0 -39962000000.0 -20914800000.0 -13184900000.0 -12445600000.0 -9625540000.0 -10745600000.0 -12442900000.0 -14757900000.0 -19392300000.0 -23514600000.0 -26609100000.0 -26493500000.0 -26890800000.0 -24645700000.0 -24507600000.0 -20748200000.0 -20931900000.0 -16737700000.0 -14583700000.0 -15660000000.0 -9412130000.0 -20044100000.0 -9035750000.0 -26713000000.0 -9035750000.0 -22856100000.0 -12528100000.0 -17077100000.0 -10859900000.0 -24676600000.0 -9035750000.0 -21802900000.0 -24495100000.0 -16157200000.0 -9274630000.0 -14374500000.0 -9035750000.0 -17576300000.0 -9035750000.0 -16445700000.0 -9035750000.0 -12321700000.0 -9035750000.0 -11498800000.0 -10406600000.0 -12236300000.0 -18241000000.0 -18497600000.0 -22727700000.0 -22842900000.0 -25113600000.0 -24986700000.0 -25548300000.0 -22430800000.0 -18422800000.0 -14949800000.0 -12623200000.0 -10748300000.0 -9624680000.0 -12663500000.0 -13201500000.0 -21100800000.0 -40188100000.0 -27269500000.0 -19418500000.0 -13474400000.0 -11032900000.0 -9742870000.0 -10195200000.0 -9875860000.0 -9549770000.0 -10442900000.0 -12058600000.0 -16295200000.0 -21762500000.0 -30794600000.0 -17638900000.0 -12051600000.0 -11448600000.0 -9465600000.0 -10278200000.0 -11505600000.0 -13182400000.0 -16369800000.0 -19238000000.0 -21390600000.0 -21309500000.0 -21582700000.0 -19977700000.0 -19865600000.0 -17198300000.0 -17294200000.0 -14387600000.0 -12831900000.0 -13726400000.0 -9258340000.0 -16811300000.0 -9035750000.0 -21507200000.0 -9035750000.0 -18877300000.0 -11451200000.0 -14785600000.0 -10369900000.0 -20199400000.0 -9035750000.0 -18248700000.0 -19942300000.0 -14168100000.0 -9172870000.0 -12864300000.0 -9035750000.0 -15130800000.0 -9035750000.0 -14342400000.0 -9035750000.0 -11399500000.0 -9035750000.0 -10814600000.0 -9883440000.0 -11190600000.0 -15420100000.0 -15634500000.0 -18630300000.0 -18739200000.0 -20367900000.0 -20276800000.0 -20660900000.0 -18492700000.0 -15688500000.0 -13319500000.0 -11628900000.0 -10280300000.0 -9465060000.0 -11602100000.0 -12064000000.0 -17772200000.0 -30956200000.0 -21848500000.0 -16362200000.0 -12079700000.0 -10433500000.0 -9549920000.0 -9878100000.0 -9540700000.0 -9344880000.0 -9860480000.0 -10783600000.0 -13316700000.0 -16522800000.0 -21845100000.0 -14196500000.0 -10849100000.0 -10460800000.0 -9294640000.0 -9782600000.0 -10518200000.0 -11524000000.0 -13371600000.0 -15047600000.0 -16305700000.0 -16258200000.0 -16416700000.0 -15461800000.0 -15389800000.0 -13811100000.0 -13854600000.0 -12161600000.0 -11230400000.0 -11809100000.0 -9150710000.0 -13625200000.0 -9035750000.0 -16391500000.0 -9035750000.0 -14875900000.0 -10440800000.0 -12456700000.0 -9841030000.0 -15670400000.0 -9035750000.0 -14549800000.0 -15469100000.0 -12105000000.0 -9105060000.0 -11318000000.0 -9035750000.0 -12657700000.0 -9035750000.0 -12196000000.0 -9035750000.0 -10447500000.0 -9035750000.0 -10100800000.0 -9490640000.0 -10267300000.0 -12758000000.0 -12897600000.0 -14668700000.0 -14743900000.0 -15714900000.0 -15660600000.0 -15882300000.0 -14615400000.0 -12971300000.0 -11605500000.0 -10589400000.0 -9783920000.0 -9294340000.0 -10551200000.0 -10856600000.0 -14275800000.0 -21941200000.0 -16573600000.0 -13356300000.0 -10795600000.0 -9855710000.0 -9344970000.0 -9542050000.0 -9194230000.0 -9132790000.0 -9292070000.0 -9576170000.0 -10369800000.0 -11366700000.0 -13025000000.0 -10654400000.0 -9604960000.0 -9480060000.0 -9117070000.0 -9270160000.0 -9500770000.0 -9816250000.0 -10388100000.0 -10908500000.0 -11299100000.0 -11284300000.0 -11333400000.0 -11034800000.0 -11011700000.0 -10519000000.0 -10531000000.0 -10005900000.0 -9714140000.0 -9900720000.0 -9069530000.0 -10466300000.0 -9035750000.0 -11328000000.0 -9035750000.0 -10859900000.0 -9471210000.0 -10105300000.0 -9288900000.0 -11109300000.0 -9035750000.0 -10763700000.0 -11040500000.0 -9997220000.0 -9055890000.0 -9749820000.0 -9035750000.0 -10167600000.0 -9035750000.0 -10024200000.0 -9035750000.0 -9477800000.0 -9035750000.0 -9369550000.0 -9171880000.0 -9414600000.0 -10190300000.0 -10235400000.0 -10787900000.0 -10812600000.0 -11116500000.0 -11099500000.0 -11168000000.0 -10774700000.0 -10263500000.0 -9841720000.0 -9522780000.0 -9270590000.0 -9116980000.0 -9508220000.0 -9607340000.0 -10679200000.0 -13055100000.0 -11382600000.0 -10382200000.0 -9579880000.0 -9290670000.0 -9132820000.0 -9194660000.0 
SCALARS Shear_Stress float 1
LOOKUP_TABLE default
1319690000.0 11706600000.0 20545700000.0 91563400000.0 1702000000.0 46069800000.0 44611700000.0 29299200000.0 42198100000.0 23788500000.0 40450000000.0 86925700000.0 33641200000.0 135949000000.0 26086600000.0 92808800000.0 13640900000.0 169509000000.0 10728000000.0 34283300000.0 27185000000.0 35747200000.0 99717000000.0 160524000000.0 42658800000.0 53860000000.0 159627000000.0 100074000000.0 95601700000.0 78173100000.0 129660000000.0 9035750000.0 118466000000.0 67614600000.0 130334000000.0 121878000000.0 10272100000.0 43122300000.0 40804500000.0 33823000000.0 25296000000.0 122855000000.0 105916000000.0 259210000000.0 155607000000.0 75654600000.0 124434000000.0 111722000000.0 93712200000.0 247014000000.0 53623100000.0 29329400000.0 34189000000.0 202809000000.0 74997900000.0 38959500000.0 24571600000.0 124523000000.0 131503000000.0 11840000000.0 150508000000.0 53670200000.0 46651000000.0 68364700000.0 249908000000.0 30869000000.0 83089200000.0 183358000000.0 196419000000.0 71502000000.0 84329800000.0 76167500000.0 164461000000.0 105368000000.0 53263100000.0 187372000000.0 234143000000.0 206135000000.0 154590000000.0 179768000000.0 440560000000.0 62454000000.0 13490200000.0 66395400000.0 67023900000.0 36783200000.0 49173200000.0 148927000000.0 245295000000.0 288172000000.0 60300000000.0 142567000000.0 405764000000.0 200722000000.0 217477000000.0 286993000000.0 305762000000.0 228691000000.0 199838000000.0 310836000000.0 162438000000.0 180522000000.0 40930100000.0 157764000000.0 312307000000.0 212680000000.0 187018000000.0 236458000000.0 353067000000.0 531632000000.0 89290400000.0 314943000000.0 323667000000.0 334792000000.0 343500000000.0 264766000000.0 173697000000.0 191452000000.0 302059000000.0 41033800000.0 210728000000.0 275174000000.0 37656500000.0 289273000000.0 486964000000.0 489563000000.0 156543000000.0 102748000000.0 147496000000.0 445090000000.0 40259900000.0 287291000000.0 366747000000.0 334899000000.0 156268000000.0 233620000000.0 299193000000.0 138677000000.0 188758000000.0 68583300000.0 87873600000.0 8295960000.0 124338000000.0 216601000000.0 703744000000.0 10693400000.0 282303000000.0 53982100000.0 51411500000.0 329794000000.0 323345000000.0 434446000000.0 394373000000.0 195994000000.0 98768100000.0 42514100000.0 29674500000.0 53962800000.0 223111000000.0 224070000000.0 43487300000.0 136213000000.0 779268000000.0 66148300000.0 69402700000.0 241178000000.0 181129000000.0 428363000000.0 409128000000.0 338890000000.0 194600000000.0 98224800000.0 91978100000.0 103735000000.0 33935800000.0 4402890000.0 119480000000.0 214045000000.0 125689000000.0 23102900000.0 345994000000.0 597767000000.0 34862500000.0 67611800000.0 430249000000.0 124975000000.0 332821000000.0 426884000000.0 371009000000.0 330315000000.0 310259000000.0 431775000000.0 297120000000.0 378682000000.0 233136000000.0 185024000000.0 39283000000.0 144243000000.0 136422000000.0 324001000000.0 484791000000.0 582276000000.0 547738000000.0 169976000000.0 96052700000.0 51591200000.0 179401000000.0 253027000000.0 367928000000.0 341217000000.0 364153000000.0 508191000000.0 460368000000.0 336356000000.0 382883000000.0 209530000000.0 14330200000.0 178576000000.0 88495700000.0 154862000000.0 760359000000.0 624045000000.0 190140000000.0 16916200000.0 112262000000.0 259021000000.0 321312000000.0 533205000000.0 624999000000.0 570459000000.0 535148000000.0 329555000000.0 132363000000.0 58786900000.0 95258200000.0 104536000000.0 56121500000.0 1.04628e+12 1.09526e+12 201188000000.0 332218000000.0 23897100000.0 17193600000.0 144133000000.0 131783000000.0 250375000000.0 302796000000.0 388512000000.0 536444000000.0 647352000000.0 621825000000.0 533424000000.0 222108000000.0 17656500000.0 114905000000.0 142814000000.0 118883000000.0 136628000000.0 355215000000.0 1.26265e+12 1.3519e+12 259310000000.0 203627000000.0 480861000.0 25386400000.0 81478700000.0 105182000000.0 35608500000.0 5086370000.0 167691000000.0 445244000000.0 570435000000.0 608714000000.0 633248000000.0 597157000000.0 637283000000.0 549962000000.0 385877000000.0 167563000000.0 19825600000.0 189459000000.0 730232000000.0 153093000000.0 1.0731e+12 318737000000.0 678524000000.0 28982400000.0 94410000000.0 78813200000.0 38013500000.0 322477000000.0 554570000000.0 645392000000.0 690685000000.0 654672000000.0 595135000000.0 375304000000.0 281594000000.0 269672000000.0 185980000000.0 51184400000.0 135695000000.0 213512000000.0 900399000000.0 106799000000.0 148506000000.0 144873000000.0 219574000000.0 209858000000.0 458447000000.0 97325600000.0 219539000000.0 221390000000.0 329284000000.0 260161000000.0 198732000000.0 113775000000.0 399975000000.0 702520000000.0 696713000000.0 687045000000.0 514743000000.0 299273000000.0 352595000000.0 283084000000.0 470629000000.0 1.2878e+12 1.17132e+12 1.06624e+12 632552000000.0 642216000000.0 44884800000.0 233334000000.0 134151000000.0 284955000000.0 130883000000.0 673064000000.0 855088000000.0 466262000000.0 130839000000.0 137446000000.0 612929000000.0 675505000000.0 145627000000.0 653226000000.0 710250000000.0 717127000000.0 651869000000.0 334723000000.0 320426000000.0 415780000000.0 524303000000.0 924256000000.0 1.1421e+12 466513000000.0 1.09536e+12 357691000000.0 296896000000.0 167191000000.0 249661000000.0 317032000000.0 351757000000.0 826945000000.0 946522000000.0 669115000000.0 882533000000.0 196091000000.0 388895000000.0 487154000000.0 685717000000.0 744187000000.0 746012000000.0 735770000000.0 551011000000.0 541886000000.0 329128000000.0 431780000000.0 229799000000.0 275711000000.0 281157000000.0 331724000000.0 477158000000.0 753249000000.0 448140000000.0 1.00984e+12 131371000000.0 1.41571e+12 719935000000.0 203321000000.0 198631000000.0 181463000000.0 282030000000.0 212656000000.0 212871000000.0 140471000000.0 265405000000.0 304174000000.0 1.00448e+12 1.00581e+12 885324000000.0 819048000000.0 505855000000.0 756266000000.0 364393000000.0 619918000000.0 44504500000.0 374291000000.0 747196000000.0 562206000000.0 210699000000.0 33525700000.0 181169000000.0 337181000000.0 348467000000.0 115469000000.0 385303000000.0 173683000000.0 310295000000.0 367896000000.0 1.42113e+12 673190000000.0 192330000000.0 183862000000.0 254809000000.0 223946000000.0 189797000000.0 135160000000.0 72990700000.0 19607100000.0 384627000000.0 591654000000.0 983194000000.0 623347000000.0 36997200000.0 396226000000.0 483210000000.0 171454000000.0 701759000000.0 549841000000.0 618529000000.0 203812000000.0 248336000000.0 17961700000.0 344875000000.0 229475000000.0 119529000000.0 272293000000.0 310161000000.0 494927000000.0 444248000000.0 311812000000.0 292062000000.0 222379000000.0 190440000000.0 190962000000.0 133473000000.0 162905000000.0 220477000000.0 168848000000.0 94236000000.0 34890700000.0 73865500000.0 32832400000.0 466479000000.0 1.48342e+12 735684000000.0 661389000000.0 303339000000.0 33531900000.0 492353000000.0 54845900000.0 215878000000.0 764489000000.0 740510000000.0 646212000000.0 483331000000.0 308484000000.0 355688000000.0 429586000000.0 12472800000.0 112902000000.0 335157000000.0 323951000000.0 475553000000.0 382540000000.0 266899000000.0 26326300000.0 60398100000.0 214276000000.0 514594000000.0 635937000000.0 1.22383e+12 160737000000.0 340493000000.0 252484000000.0 210195000000.0 210407000000.0 213771000000.0 249525000000.0 161021000000.0 132861000000.0 101915000000.0 257998000000.0 175033000000.0 11046400000.0 71794600000.0 114353000000.0 13690500000.0 1.83595e+12 564810000000.0 438293000000.0 200689000000.0 53881300000.0 168775000000.0 338103000000.0 690314000000.0 158904000000.0 201067000000.0 238492000000.0 483776000000.0 555332000000.0 152917000000.0 360643000000.0 500032000000.0 651620000000.0 847018000000.0 193225000000.0 265681000000.0 205591000000.0 240803000000.0 275541000000.0 103601000000.0 71069800000.0 317232000000.0 287645000000.0 300166000000.0 257445000000.0 210924000000.0 87385000000.0 1875270000.0 12754900000.0 365881000000.0 1.57547e+12 738260000000.0 466367000000.0 10096100000.0 205491000000.0 258435000000.0 580183000000.0 76538700000.0 178639000000.0 171759000000.0 469217000000.0 232256000000.0 368345000000.0 614469000000.0 885908000000.0 495675000000.0 281744000000.0 135742000000.0 626654000000.0 665792000000.0 596498000000.0 134972000000.0 138997000000.0 199118000000.0 151192000000.0 209337000000.0 268037000000.0 292197000000.0 317222000000.0 296288000000.0 319043000000.0 74916600000.0 1146040000.0 34741300000.0 337116000000.0 324065000000.0 325415000000.0 109984000000.0 16876300000.0 103154000000.0 239395000000.0 79104000000.0 813003000000.0 659211000000.0 641445000000.0 348837000000.0 105208000000.0 882060000000.0 76725300000.0 49901800000.0 161797000000.0 225255000000.0 642040000000.0 633997000000.0 323467000000.0 275440000000.0 172485000000.0 249168000000.0 275025000000.0 388414000000.0 355999000000.0 981836000000.0 206449000000.0 519330000000.0 717621000000.0 703838000000.0 570699000000.0 240846000000.0 3353860000.0 2544750000.0 102743000000.0 186566000000.0 350243000000.0 331204000000.0 335856000000.0 40575100000.0 6922800000.0 51236400000.0 367239000000.0 353325000000.0 361892000000.0 356795000000.0 437501000000.0 274702000000.0 132596000000.0 9732480000.0 81293200000.0 160111000000.0 990422000000.0 629280000000.0 636064000000.0 613310000000.0 709015000000.0 207450000000.0 28285800000.0 149218000000.0 39174900000.0 106717000000.0 171781000000.0 249686000000.0 229725000000.0 696157000000.0 643462000000.0 550935000000.0 434578000000.0 468782000000.0 76002200000.0 19960700000.0 60496000000.0 152297000000.0 304788000000.0 443571000000.0 367542000000.0 362615000000.0 353062000000.0 362930000000.0 40491900000.0 98274000000.0 454172000000.0 396908000000.0 395634000000.0 365577000000.0 389802000000.0 422693000000.0 621129000000.0 371300000000.0 61020900000.0 42514300000.0 129735000000.0 132280000000.0 615188000000.0 379669000000.0 390565000000.0 55004300000.0 690068000000.0 41444600000.0 191241000000.0 171694000000.0 295112000000.0 140562000000.0 10515200000.0 564052000000.0 13436400000.0 91800700000.0 144987000000.0 189394000000.0 167169000000.0 159547000000.0 225756000.0 245846000000.0 756394000000.0 136760000000.0 364978000000.0 273122000000.0 388697000000.0 226416000000.0 15993900000.0 101793000000.0 74611300000.0 369027000000.0 603777000000.0 425164000000.0 384351000000.0 360047000000.0 389309000000.0 390659000000.0 445972000000.0 87689100000.0 168489000000.0 151166000000.0 511301000000.0 424225000000.0 375913000000.0 406105000000.0 382228000000.0 477407000000.0 522777000000.0 123631000000.0 96316700000.0 68459000000.0 93384200000.0 483151000000.0 429910000000.0 50596300000.0 400991000000.0 444179000000.0 182679000000.0 292453000000.0 423029000000.0 13743600000.0 652521000000.0 184442000000.0 41689400000.0 130631000000.0 197952000000.0 98534500000.0 51598300000.0 478194000000.0 206647000000.0 15230400000.0 333061000000.0 406088000000.0 139877000000.0 172974000000.0 2829130000.0 109112000000.0 491776000000.0 477999000000.0 375560000000.0 395791000000.0 365665000000.0 414065000000.0 501369000000.0 140307000000.0 158819000000.0 143439000000.0 583889000000.0 598317000000.0 514385000000.0 421409000000.0 413905000000.0 339527000000.0 321648000000.0 431931000000.0 908048000000.0 730898000000.0 119097000000.0 317275000000.0 291948000000.0 330472000000.0 37830200000.0 154151000000.0 241284000000.0 76282600000.0 193981000000.0 186650000000.0 448127000000.0 393860000000.0 196337000000.0 321248000000.0 781713000000.0 949387000000.0 189768000000.0 338131000000.0 242148000000.0 217742000000.0 2592740000.0 1577550000.0 16642400000.0 179051000000.0 137093000000.0 18281500000.0 244511000000.0 184306000000.0 318302000000.0 76702000000.0 692667000000.0 872408000000.0 448497000000.0 310140000000.0 321777000000.0 402036000000.0 411275000000.0 505856000000.0 584335000000.0 576289000000.0 134056000000.0 77692500000.0 507953000000.0 583109000000.0 702484000000.0 591815000000.0 396455000000.0 391991000000.0 109388000000.0 1.23298e+12 570149000000.0 814278000000.0 937731000000.0 332431000000.0 853394000000.0 798738000000.0 358196000000.0 233775000000.0 205438000000.0 697325000000.0 373632000000.0 264587000000.0 359398000000.0 433220000000.0 442344000000.0 216390000000.0 123191000000.0 297564000000.0 850048000000.0 421086000000.0 324391000000.0 392160000000.0 207893000000.0 260867000000.0 302686000000.0 518132000000.0 203109000000.0 245456000000.0 250395000000.0 783492000000.0 775716000000.0 344265000000.0 878774000000.0 786531000000.0 599899000000.0 1.1909e+12 71310400000.0 370753000000.0 387664000000.0 579701000000.0 694085000000.0 576709000000.0 500320000000.0 68958600000.0 23055300000.0 377079000000.0 676729000000.0 830206000000.0 662050000000.0 660669000000.0 402018000000.0 466730000000.0 169662000000.0 250080000000.0 264536000000.0 1.08618e+12 123270000000.0 1.2312e+12 963013000000.0 804853000000.0 93938900000.0 1.11192e+12 751430000000.0 659866000000.0 636665000000.0 517762000000.0 415202000000.0 172971000000.0 27384600000.0 15743500000.0 527296000000.0 656967000000.0 476213000000.0 491729000000.0 304923000000.0 765225000000.0 591973000000.0 857310000000.0 1.14325e+12 111302000000.0 838085000000.0 968381000000.0 1.19584e+12 101825000000.0 1.12207e+12 274900000000.0 246852000000.0 153213000000.0 467122000000.0 390399000000.0 646015000000.0 646074000000.0 816467000000.0 664682000000.0 371047000000.0 23802800000.0 206110000000.0 137795000000.0 196518000000.0 533255000000.0 745737000000.0 686569000000.0 223520000000.0 87114300000.0 863563000000.0 948238000000.0 417320000000.0 25856200000.0 52335900000.0 636016000000.0 149575000000.0 719637000000.0 1.0835e+12 996930000000.0 314690000000.0 242335000000.0 113817000000.0 181170000000.0 112057000000.0 17511000000.0 184121000000.0 394426000000.0 638083000000.0 614206000000.0 601642000000.0 516646000000.0 568366000000.0 991925000000.0 1.07652e+12 738601000000.0 54865600000.0 633286000000.0 44282700000.0 29535100000.0 394253000000.0 955895000000.0 887697000000.0 68121600000.0 210341000000.0 659292000000.0 723952000000.0 516572000000.0 202857000000.0 121481000000.0 147313000000.0 92011800000.0 31537700000.0 51815100000.0 304891000000.0 476705000000.0 970514000000.0 600844000000.0 807937000000.0 160024000000.0 513406000000.0 683752000000.0 984040000000.0 994465000000.0 77388200000.0 111605000000.0 1.03774e+12 67094600000.0 630228000000.0 691998000000.0 712273000000.0 777200000000.0 224382000000.0 447004000000.0 370759000000.0 24075300000.0 1.02523e+12 103615000000.0 242703000000.0 539061000000.0 316306000000.0 220199000000.0 30809500000.0 189679000000.0 500946000000.0 588471000000.0 604630000000.0 622908000000.0 477212000000.0 94714400000.0 866014000000.0 3635650000.0 359046000000.0 317236000000.0 753294000000.0 803523000000.0 661433000000.0 719346000000.0 126725000000.0 1.07081e+12 117808000000.0 97104700000.0 1.00437e+12 973250000000.0 693558000000.0 530108000000.0 204860000000.0 783875000000.0 560765000000.0 952888000000.0 439588000000.0 285652000000.0 36901500000.0 76022500000.0 18383300000.0 296743000000.0 652387000000.0 22069600000.0 103625000000.0 176293000000.0 380818000000.0 703001000000.0 960198000000.0 1.12707e+12 1.26632e+12 496892000000.0 165631000000.0 762354000000.0 258510000000.0 133639000000.0 298974000000.0 498470000000.0 372730000000.0 101835000000.0 426659000000.0 62632900000.0 783464000000.0 217609000000.0 24180400000.0 88810300000.0 332229000000.0 506865000000.0 555661000000.0 547811000000.0 735653000000.0 406763000000.0 620878000000.0 45624700000.0 383314000000.0 482679000000.0 331950000000.0 121896000000.0 298463000000.0 785677000000.0 154270000000.0 498953000000.0 1.23539e+12 1.12716e+12 950154000000.0 666811000000.0 310450000000.0 126084000000.0 85532000000.0 142646000000.0 797649000000.0 421576000000.0 40198800000.0 88193100000.0 223118000000.0 541756000000.0 151192000000.0 62543500000.0 705602000000.0 1.41157e+12 388601000000.0 652711000000.0 710530000000.0 688603000000.0 7171460000.0 547572000000.0 931665000000.0 517278000000.0 60245600000.0 94377300000.0 240880000000.0 306197000000.0 114954000000.0 427162000000.0 536993000000.0 774245000000.0 22080900000.0 594574000000.0 136554000000.0 85266400000.0 49032900000.0 55907500000.0 118941000000.0 203029000000.0 274165000000.0 391903000000.0 365481000000.0 455952000000.0 463101000000.0 278202000000.0 122283000000.0 990931000000.0 643934000000.0 396332000000.0 179510000000.0 305788000000.0 245917000000.0 99618800000.0 515898000000.0 929180000000.0 505377000000.0 14247200000.0 696006000000.0 718928000000.0 628526000000.0 435987000000.0 1.35496e+12 626962000000.0 128698000000.0 192281000000.0 603351000000.0 252110000000.0 82625700000.0 98764800000.0 236522000000.0 239277000000.0 65864200000.0 409259000000.0 194155000000.0 82261500000.0 12589800000.0 58003600000.0 522782000000.0 130406000000.0 501956000000.0 149334000000.0 294738000000.0 62107000000.0 425277000000.0 409202000000.0 624782000000.0 306663000000.0 173653000000.0 198173000000.0 52378500000.0 76438000000.0 260853000000.0 727562000000.0 246042000000.0 1.01125e+12 823877000000.0 324504000000.0 51571000000.0 119368000000.0 50336000000.0 170967000000.0 281383000000.0 257787000000.0 332151000000.0 89948600000.0 243141000000.0 358061000000.0 615541000000.0 447689000000.0 225522000000.0 103011000000.0 56569500000.0 216453000000.0 186440000000.0 56179600000.0 294887000000.0 624838000000.0 415332000000.0 421373000000.0 68318000000.0 293060000000.0 126087000000.0 464241000000.0 151256000000.0 509521000000.0 31337100000.0 66459000000.0 168939000000.0 142340000000.0 311217000000.0 108222000000.0 242609000000.0 179950000000.0 222812000000.0 28951300000.0 44903300000.0 56030200000.0 126712000000.0 887614000000.0 37451200000.0 155708000000.0 719613000000.0 425379000000.0 112338000000.0 421049000000.0 171401000000.0 267743000000.0 202774000000.0 427666000000.0 433877000000.0 459491000000.0 318532000000.0 126932000000.0 103924000000.0 47691000000.0 155942000000.0 371649000000.0 733812000000.0 40041300000.0 524440000000.0 104943000000.0 72154600000.0 191500000000.0 221297000000.0 49029200000.0 51221400000.0 576130000000.0 287948000000.0 63886300000.0 110463000000.0 140977000000.0 127504000000.0 320887000000.0 460710000000.0 441844000000.0 432841000000.0 208266000000.0 268938000000.0 173559000000.0 405525000000.0 116928000000.0 435998000000.0 703894000000.0 125854000000.0 108556000000.0 803055000000.0 124132000000.0 85822300000.0 82866800000.0 26900600000.0 207868000000.0 125520000000.0 431273000000.0 115474000000.0 392076000000.0 131094000000.0 218025000000.0 462051000000.0 449430000000.0 1.18595e+12 818733000000.0 76610300000.0 553127000000.0 733487000000.0 514072000000.0 257222000000.0 368511000000.0 287450000000.0 342206000000.0 348539000000.0 432247000000.0 427078000000.0 418216000000.0 309676000000.0 235283000000.0 187140000000.0 33684900000.0 161268000000.0 305651000000.0 386024000000.0 256759000000.0 562521000000.0 393028000000.0 821872000000.0 506023000000.0 351925000000.0 259749000000.0 69949400000.0 28417700000.0 93007300000.0 93603700000.0 166657000000.0 99645900000.0 103353000000.0 20631200000.0 210648000000.0 353523000000.0 228041000000.0 185963000000.0 145406000000.0 57654400000.0 10171000000.0 71330200000.0 216253000000.0 252845000000.0 319073000000.0 428603000000.0 439917000000.0 446828000000.0 366437000000.0 352952000000.0 291714000000.0 368458000000.0 258551000000.0 517594000000.0 748890000000.0 565136000000.0 70483600000.0 787975000000.0 1.07506e+12 610524000000.0 377085000000.0 570376000000.0 156104000000.0 175868000000.0 389686000000.0 436496000000.0 49826900000.0 96978500000.0 562017000000.0 201900000000.0 446773000000.0 351679000000.0 35963000000.0 88697500000.0 136873000000.0 486526000000.0 429042000000.0 446248000000.0 431568000000.0 392313000000.0 322821000000.0 241013000000.0 156817000000.0 84994600000.0 60689400000.0 75280700000.0 286843000000.0 549991000000.0 129082000000.0 406691000000.0 163431000000.0 5152920000.0 71958900000.0 16005600000.0 5596160000.0 537474000000.0 458386000000.0 245077000000.0 93076500000.0 152230000000.0 200441000000.0 271533000000.0 344231000000.0 410458000000.0 450428000000.0 468752000000.0 453839000000.0 577210000000.0 293227000000.0 398620000000.0 256067000000.0 900421000000.0 502128000000.0 408605000000.0 484900000000.0 18641400000.0 11182300000.0 50714900000.0 425341000000.0 649574000000.0 187680000000.0 171946000000.0 134647000000.0 128524000000.0 498107000000.0 981633000000.0 924874000000.0 665623000000.0 682135000000.0 551849000000.0 403897000000.0 421941000000.0 398984000000.0 427150000000.0 421207000000.0 372161000000.0 297137000000.0 209951000000.0 128999000000.0 40016700000.0 35373600000.0 595887000000.0 885130000000.0 872198000000.0 415985000000.0 381656000000.0 252978000000.0 112111000000.0 1255970000.0 49158700000.0 39729100000.0 245196000000.0 659664000000.0 775363000000.0 555468000000.0 70203800000.0 117192000000.0 183023000000.0 247531000000.0 326001000000.0 396560000000.0 444482000000.0 448130000000.0 412889000000.0 434146000000.0 417029000000.0 566855000000.0 711153000000.0 711512000000.0 1.03937e+12 888220000000.0 156195000000.0 981549000000.0 420118000000.0 229129000000.0 283337000000.0 606983000000.0 387221000000.0 31132700000.0 77859700000.0 68833500000.0 310494000000.0 388325000000.0 551833000000.0 677895000000.0 211362000000.0 434875000000.0 180207000000.0 419169000000.0 130989000000.0 243210000000.0 309963000000.0 232901000000.0 513206000000.0 607868000000.0 567151000000.0 505066000000.0 505927000000.0 495895000000.0 488755000000.0 471813000000.0 456357000000.0 249074000000.0 162348000000.0 68268100000.0 31745100000.0 139825000000.0 277391000000.0 443783000000.0 535476000000.0 346763000000.0 11760300000.0 200909000000.0 184888000000.0 189118000000.0 157894000000.0 84836200000.0 65634100000.0 2917920000.0 21134900000.0 67500700000.0 177448000000.0 105459000000.0 278746000000.0 535466000000.0 276355000000.0 90989400000.0 21186700000.0 116464000000.0 202413000000.0 281785000000.0 480225000000.0 496630000000.0 520617000000.0 538598000000.0 532261000000.0 522026000000.0 584385000000.0 631026000000.0 510994000000.0 128027000000.0 658196000000.0 322936000000.0 106359000000.0 1.28562e+12 680110000000.0 250767000000.0 169373000000.0 625617000000.0 543983000000.0 458945000000.0 282078000000.0 133794000000.0 121937000000.0 205294000000.0 265623000000.0 493892000000.0 258914000000.0 95867400000.0 873696000000.0 1.22192e+12 576669000000.0 837769000000.0 7655750000.0 43330300000.0 99336000000.0 355691000000.0 554863000000.0 638496000000.0 623909000000.0 604125000000.0 604860000000.0 561482000000.0 518993000000.0 480746000000.0 443660000000.0 394488000000.0 329893000000.0 100491000000.0 4988250000.0 94947800000.0 183029000000.0 225577000000.0 29165200000.0 380876000000.0 74227700000.0 193717000000.0 126277000000.0 47167700000.0 78310500000.0 438408000000.0 143432000000.0 132940000000.0 158101000000.0 66140300000.0 37317500000.0 134889000000.0 357766000000.0 418736000000.0 464621000000.0 503754000000.0 552569000000.0 613172000000.0 678953000000.0 629703000000.0 642030000000.0 682809000000.0 613690000000.0 394411000000.0 49139100000.0 76902400000.0 98348300000.0 1.09127e+12 119695000000.0 1.2814e+12 531280000000.0 23737800000.0 215065000000.0 660081000000.0 313100000000.0 160288000000.0 191814000000.0 155098000000.0 22991900000.0 104610000000.0 153748000000.0 354586000000.0 495887000000.0 578341000000.0 221135000000.0 18825100000.0 115560000000.0 1.09622e+12 430434000000.0 179354000000.0 257710000000.0 499793000000.0 677714000000.0 691388000000.0 700744000000.0 725819000000.0 652226000000.0 576449000000.0 513731000000.0 459961000000.0 408816000000.0 347806000000.0 273524000000.0 190048000000.0 69095100000.0 182488000000.0 323241000000.0 502493000000.0 884503000000.0 1.03577e+12 976577000000.0 153341000000.0 189115000000.0 168078000000.0 94428100000.0 28760700000.0 200897000000.0 949378000000.0 926435000000.0 938282000000.0 631157000000.0 354094000000.0 190281000000.0 56843300000.0 223606000000.0 303232000000.0 371337000000.0 427774000000.0 479667000000.0 537648000000.0 610465000000.0 712703000000.0 856765000000.0 715654000000.0 743104000000.0 756958000000.0 618746000000.0 426573000000.0 406012000000.0 317890000000.0 199296000000.0 443622000000.0 91642400000.0 206495000000.0 692524000000.0 781781000000.0 517689000000.0 118122000000.0 30002000000.0 53293600000.0 207565000000.0 236539000000.0 34384000000.0 102447000000.0 62923400000.0 199291000000.0 282440000000.0 522587000000.0 186961000000.0 494949000000.0 330574000000.0 852298000000.0 262793000000.0 241854000000.0 468504000000.0 773152000000.0 730965000000.0 623824000000.0 542712000000.0 477757000000.0 418811000000.0 358938000000.0 291442000000.0 212624000000.0 124350000000.0 30812900000.0 183469000000.0 220659000000.0 168795000000.0 304079000000.0 63104000000.0 261593000000.0 308581000000.0 181931000000.0 179545000000.0 183219000000.0 151852000000.0 130631000000.0 88167200000.0 63567400000.0 37741200000.0 28130500000.0 123703000000.0 359937000000.0 148725000000.0 300901000000.0 160326000000.0 244591000000.0 54248200000.0 152163000000.0 239422000000.0 313893000000.0 377473000000.0 434344000000.0 490012000000.0 551437000000.0 628012000000.0 732806000000.0 820200000000.0 585569000000.0 417380000000.0 179695000000.0 1.02226e+12 1.12886e+12 320327000000.0 15209400000.0 1.00226e+12 444276000000.0 245947000000.0 9565320000.0 14383900000.0 98155000000.0 189625000000.0 94982400000.0 298678000000.0 135020000000.0 81648400000.0 83755500000.0 396335000000.0 456516000000.0 105482000000.0 442801000000.0 395060000000.0 470576000000.0 478072000000.0 560042000000.0 746783000000.0 755345000000.0 873054000000.0 424218000000.0 366546000000.0 303636000000.0 232485000000.0 151881000000.0 64415100000.0 24178400000.0 108859000000.0 187181000000.0 366301000000.0 504971000000.0 187892000000.0 158437000000.0 100728000000.0 53149200000.0 29946500000.0 426406000000.0 402933000000.0 342446000000.0 189642000000.0 103447000000.0 7427920000.0 86959800000.0 174925000000.0 253172000000.0 321465000000.0 380444000000.0 432374000000.0 940849000000.0 659740000000.0 771626000000.0 833782000000.0 122136000000.0 1.0047e+12 894709000000.0 417804000000.0 84782900000.0 1.27024e+12 724030000000.0 50702500000.0 26696500000.0 58172600000.0 307783000000.0 77356000000.0 87665300000.0 139181000000.0 212539000000.0 288476000000.0 125784000000.0 75784300000.0 103702000000.0 181519000000.0 26607700000.0 610703000000.0 126125000000.0 331738000000.0 217120000000.0 750004000000.0 284459000000.0 405494000000.0 861942000000.0 693433000000.0 665032000000.0 922737000000.0 732503000000.0 624272000000.0 545187000000.0 481408000000.0 247735000000.0 175864000000.0 97925900000.0 18048300000.0 56033600000.0 112638000000.0 129822000000.0 69183300000.0 681953000000.0 127223000000.0 158732000000.0 107227000000.0 45628600000.0 35818700000.0 19203300000.0 27452500000.0 106031000000.0 97543700000.0 38197900000.0 39793700000.0 120626000000.0 197069000000.0 481898000000.0 534261000000.0 595776000000.0 692298000000.0 862432000000.0 482753000000.0 658610000000.0 820310000000.0 440473000000.0 242736000000.0 765491000000.0 470842000000.0 972558000000.0 1.27558e+12 915778000000.0 59256400000.0 549321000000.0 244625000000.0 22407500000.0 64422600000.0 348743000000.0 277922000000.0 91822100000.0 75722100000.0 61866300000.0 376155000000.0 353066000000.0 454790000000.0 27504100000.0 178746000000.0 552667000000.0 654310000000.0 15742200000.0 447354000000.0 334717000000.0 109352000000.0 436678000000.0 398922000000.0 740751000000.0 427392000000.0 418011000000.0 855653000000.0 682677000000.0 577906000000.0 514245000000.0 463829000000.0 416572000000.0 367136000000.0 311556000000.0 53179200000.0 16837300000.0 77039700000.0 118464000000.0 137852000000.0 159748000000.0 460416000000.0 642843000000.0 228047000000.0 193805000000.0 42384700000.0 74008100000.0 75102800000.0 65246500000.0 5559440000.0 20155700000.0 127506000000.0 87155000000.0 262468000000.0 522487000000.0 701818000000.0 573680000000.0 298932000000.0 174368000000.0 122692000000.0 63390900000.0 5332780000.0 78533500000.0 265803000000.0 325288000000.0 375706000000.0 418761000000.0 457776000000.0 498495000000.0 556064000000.0 655845000000.0 735487000000.0 260640000000.0 413838000000.0 694245000000.0 421090000000.0 42808700000.0 204615000000.0 726741000000.0 1.05368e+12 1.05038e+12 728904000000.0 1.22041e+12 179684000000.0 103748000000.0 442561000000.0 384722000000.0 340693000000.0 44216400000.0 101212000000.0 220254000000.0 236514000000.0 165912000000.0 576668000000.0 601440000000.0 304431000000.0 340696000000.0 178101000000.0 345302000000.0 378346000000.0 539330000000.0 549183000000.0 12752300000.0 66225700000.0 750037000000.0 598496000000.0 505572000000.0 457473000000.0 426472000000.0 395820000000.0 359094000000.0 313768000000.0 259145000000.0 195780000000.0 125835000000.0 87948400000.0 109986000000.0 94528300000.0 40108600000.0 241943000000.0 338871000000.0 194084000000.0 21967900000.0 43079000000.0 54333800000.0 286014000000.0 375333000000.0 283065000000.0 79692800000.0 162024000000.0 122673000000.0 73444800000.0 150362000000.0 216587000000.0 274948000000.0 324479000000.0 364971000000.0 397242000000.0 424769000000.0 457098000000.0 508391000000.0 578244000000.0 596337000000.0 70078500000.0 42799700000.0 465225000000.0 789099000000.0 932715000000.0 753527000000.0 64340000000.0 1.08771e+12 560450000000.0 303888000000.0 412484000000.0 123402000000.0 238250000000.0 174843000000.0 54335900000.0 875303000.0 125721000000.0 107443000000.0 550587000000.0 216281000000.0 575015000000.0 570346000000.0 114780000000.0 551517000000.0 169806000000.0 462166000000.0 598566000000.0 603421000000.0 451584000000.0 402759000000.0 385357000000.0 377461000000.0 366695000000.0 345941000000.0 312886000000.0 267979000000.0 212766000000.0 149956000000.0 83308200000.0 17402200000.0 42214800000.0 252248000000.0 441901000000.0 737472000000.0 686456000000.0 534596000000.0 147995000000.0 89611900000.0 34243700000.0 146054000000.0 380477000000.0 747080000000.0 950891000000.0 682394000000.0 339789000000.0 14866300000.0 49472300000.0 114954000000.0 176877000000.0 232835000000.0 281355000000.0 321380000000.0 352156000000.0 373887000000.0 390033000000.0 406274000000.0 422519000000.0 434749000000.0 437457000000.0 291110000000.0 191821000000.0 398757000000.0 735954000000.0 640766000000.0 229564000000.0 964377000000.0 619072000000.0 270456000000.0 52820400000.0 12954900000.0 19624200000.0 64339300000.0 118923000000.0 114414000000.0 27671300000.0 296665000000.0 938177000000.0 4819170000.0 417401000000.0 207962000000.0 251478000000.0 147366000000.0 42417300000.0 113615000000.0 277916000000.0 229829000000.0 172176000000.0 109647000000.0 46626800000.0 13477900000.0 67970400000.0 116029000000.0 164708000000.0 105468000000.0 69344700000.0 341687000000.0 21219700000.0 202000000000.0 64875300000.0 49926300000.0 96402500000.0 358162000000.0 59317800000.0 365738000000.0 174233000000.0 86537000000.0 26500200000.0 31600000000.0 90774000000.0 147337000000.0 199926000000.0 246924000000.0 287237000000.0 281106000000.0 140964000000.0 115385000000.0 66402000000.0 104343000000.0 480781000000.0 92213900000.0 718149000000.0 516930000000.0 177822000000.0 97902800000.0 137564000000.0 63833300000.0 28990200000.0 29441900000.0 111478000000.0 107231000000.0 247452000000.0 316298000000.0 295868000000.0 355210000000.0 3754470000.0 311417000000.0 232696000000.0 353982000000.0 137028000000.0 394056000000.0 333000000000.0 308029000000.0 320011000000.0 333985000000.0 340421000000.0 334477000000.0 313359000000.0 135133000000.0 73597600000.0 15177700000.0 39102400000.0 88955500000.0 134919000000.0 177560000000.0 194753000000.0 61189600000.0 321400000000.0 239242000000.0 255445000000.0 5655580000.0 145157000000.0 223366000000.0 151484000000.0 49458700000.0 85724600000.0 60692500000.0 39401200000.0 11593900000.0 28440900000.0 78116500000.0 127258000000.0 175539000000.0 320104000000.0 343640000000.0 356829000000.0 359768000000.0 349619000000.0 322320000000.0 297098000000.0 245318000000.0 204550000000.0 98965500000.0 185496000000.0 153900000000.0 55089300000.0 355689000000.0 353878000000.0 544903000000.0 490757000000.0 58502500000.0 93124000000.0 31415100000.0 9695410000.0 63024500000.0 40635100000.0 250345000000.0 586112000000.0 160457000000.0 12298500000.0 296583000000.0 9305100000.0 197416000000.0 372293000000.0 311147000000.0 304373000000.0 319737000000.0 332300000000.0 334619000000.0 321508000000.0 293223000000.0 250419000000.0 195969000000.0 60034900000.0 107393000000.0 153175000000.0 184512000000.0 160717000000.0 97503600000.0 387148000000.0 185321000000.0 136024000000.0 255608000000.0 291098000000.0 181926000000.0 675365000000.0 48426100000.0 199790000000.0 147947000000.0 55222500000.0 28930300000.0 14708400000.0 31568200000.0 221006000000.0 260975000000.0 295956000000.0 325889000000.0 347363000000.0 355626000000.0 346532000000.0 317670000000.0 279985000000.0 257513000000.0 92090900000.0 27312700000.0 258992000000.0 58640800000.0 140403000000.0 17978300000.0 201750000000.0 29949800000.0 67651600000.0 1955560000.0 180305000000.0 500517000000.0 258425000000.0 281361000000.0 418422000000.0 65148100000.0 200666000000.0 47514700000.0 255547000000.0 376303000000.0 146086000000.0 306583000000.0 331088000000.0 344023000000.0 351989000000.0 354076000000.0 341120000000.0 316807000000.0 278134000000.0 224280000000.0 162877000000.0 99277400000.0 40450500000.0 11450400000.0 180439000000.0 216451000000.0 251747000000.0 433489000000.0 167329000000.0 413050000000.0 81443200000.0 121609000000.0 237368000000.0 152485000000.0 36685200000.0 75708400000.0 64121800000.0 72912900000.0 112533000000.0 155692000000.0 201231000000.0 241550000000.0 276352000000.0 310367000000.0 345255000000.0 371839000000.0 377537000000.0 361238000000.0 323700000000.0 258211000000.0 108060000000.0 395865000000.0 448819000000.0 177983000000.0 245420000000.0 106884000000.0 73823300000.0 344314000000.0 212205000000.0 369026000000.0 84608600000.0 16531700000.0 26119300000.0 100319000000.0 272848000000.0 365249000000.0 74359400000.0 113879000000.0 213526000000.0 135445000000.0 49416100000.0 4954850000.0 9009800000.0 90219700000.0 405558000000.0 398029000000.0 371303000000.0 347095000000.0 313474000000.0 258854000000.0 194965000000.0 128252000000.0 62109000000.0 9190770000.0 31917700000.0 77048800000.0 129755000000.0 355602000000.0 377961000000.0 407155000000.0 159528000000.0 282759000000.0 32877500000.0 77574900000.0 22049000000.0 19232800000.0 68345000000.0 96944800000.0 133216000000.0 181550000000.0 225673000000.0 262736000000.0 294357000000.0 334169000000.0 384218000000.0 420152000000.0 426072000000.0 66325600000.0 163719000000.0 91457300000.0 73842900000.0 222134000000.0 99286500000.0 213566000000.0 93082800000.0 286858000000.0 228035000000.0 25429600000.0 23356300000.0 1594520000.0 26551100000.0 106909000000.0 257614000000.0 425613000000.0 98359900000.0 8984580000.0 39165600000.0 9385900000.0 44663100000.0 173982000000.0 353139000000.0 419819000000.0 418457000000.0 231051000000.0 161200000000.0 91901300000.0 21660400000.0 17987600000.0 42651100000.0 95362400000.0 162294000000.0 216269000000.0 263454000000.0 383047000000.0 320144000000.0 240815000000.0 172003000000.0 349716000000.0 228407000000.0 629009000000.0 319618000000.0 224934000000.0 261542000000.0 307806000000.0 376102000000.0 161518000000.0 6407580000.0 3486520000.0 40357500000.0 60647800000.0 73616100000.0 97424700000.0 155535000000.0 205294000000.0 251800000000.0 417612000000.0 384727000000.0 288477000000.0 107806000000.0 59075300000.0 75376400000.0 93437400000.0 180095000000.0 65840900000.0 158567000000.0 172455000000.0 18957300000.0 12470000000.0 10998000000.0 194737000000.0 106407000000.0 275695000000.0 124227000000.0 60870900000.0 3632330000.0 44382700000.0 186809000000.0 361192000000.0 440364000000.0 536581000000.0 522991000000.0 479344000000.0 466425000000.0 405241000000.0 374931000000.0 353219000000.0 296454000000.0 21419500000.0 31783900000.0 47680200000.0 135026000000.0 209902000000.0 252763000000.0 349747000000.0 283541000000.0 304556000000.0 376738000000.0 419731000000.0 198999000000.0 23449600000.0 11687800000.0 27630000000.0 167372000000.0 205110000000.0 300824000000.0 108423000000.0 26469600000.0 135422000000.0 9926950000.0 34409500000.0 35755900000.0 287274000000.0 314266000000.0 366789000000.0 442709000000.0 485459000000.0 495437000000.0 512215000000.0 477881000000.0 347826000000.0 235852000000.0 69896700000.0 100826000000.0 74472000000.0 97053900000.0 203635000000.0 100492000000.0 54834900000.0 4296840000.0 29948400000.0 40490900000.0 427119000000.0 35078300000.0 112689000000.0 43158800000.0 33015200000.0 55450900000.0 143481000000.0 354530000000.0 431555000000.0 459004000000.0 473762000000.0 440132000000.0 452268000000.0 414506000000.0 388356000000.0 394761000000.0 325573000000.0 263270000000.0 195186000000.0 122973000000.0 58259200000.0 209034000000.0 248877000000.0 326972000000.0 42801000000.0 144355000000.0 186994000000.0 403495000000.0 154761000000.0 262011000000.0 118417000000.0 172517000000.0 227931000000.0 282674000000.0 318561000000.0 338560000000.0 398758000000.0 460535000000.0 471274000000.0 465550000000.0 469410000000.0 438883000000.0 365865000000.0 283680000000.0 50876600000.0 153754000000.0 82973400000.0 33180100000.0 94454800000.0 179099000000.0 90661700000.0 76362700000.0 8005620000.0 60730700000.0 50662700000.0 205737000000.0 492812000000.0 9035650000.0 134706000000.0 7169630000.0 16920300000.0 99314900000.0 274344000000.0 346645000000.0 365023000000.0 392694000000.0 388104000000.0 405252000000.0 390079000000.0 349463000000.0 383860000000.0 319782000000.0 272789000000.0 220899000000.0 153822000000.0 83438400000.0 35030300000.0 63641200000.0 27715300000.0 79528700000.0 217614000000.0 291217000000.0 294041000000.0 380087000000.0 14657200000.0 183245000000.0 214209000000.0 120542000000.0 200279000000.0 307619000000.0 389585000000.0 127572000000.0 51713700000.0 56611100000.0 45215000000.0 116228000000.0 182047000000.0 246704000000.0 307132000000.0 326390000000.0 339639000000.0 382623000000.0 429978000000.0 407278000000.0 394254000000.0 373637000000.0 357203000000.0 341149000000.0 219492000000.0 118151000000.0 90580500000.0 48095900000.0 283071000000.0 263132000000.0 288227000000.0 100436000000.0 13574500000.0 88372600000.0 73150400000.0 98122200000.0 171401000000.0 299864000000.0 513782000000.0 36233700000.0 106946000000.0 53601200000.0 323958000000.0 261908000000.0 219948000000.0 178402000000.0 122085000000.0 55116700000.0 1474640000.0 127800000000.0 34236000000.0 149939000000.0 245325000000.0 327093000000.0 200083000000.0 261658000000.0 265577000000.0 212427000000.0 264097000000.0 41004400000.0 142842000000.0 178796000000.0 203855000000.0 311372000000.0 387892000000.0 542457000000.0 375358000000.0 422499000000.0 334639000000.0 191058000000.0 168425000000.0 40646000000.0 68002100000.0 165561000000.0 243927000000.0 298569000000.0 328345000000.0 292048000000.0 27778200000.0 234108000000.0 19214100000.0 308976000000.0 178655000000.0 81055000000.0 17053400000.0 6512970000.0 8290830000.0 13870700000.0 125829000000.0 135704000000.0 122846000000.0 283628000000.0 300571000000.0 319686000000.0 342795000000.0 346479000000.0 301139000000.0 341642000000.0 303823000000.0 144864000000.0 48245100000.0 236729000000.0 186202000000.0 227508000000.0 185724000000.0 256054000000.0 262900000000.0 2776830000.0 59260900000.0 76243200000.0 265230000000.0 330680000000.0 227883000000.0 99539100000.0 317891000000.0 313859000000.0 348196000000.0 376563000000.0 334021000000.0 307504000000.0 289671000000.0 300167000000.0 104630000000.0 214657000000.0 83558700000.0 25850600000.0 2457690000.0 72541500000.0 168961000000.0 157239000000.0 40971900000.0 59526900000.0 120582000000.0 39972400000.0 47971300000.0 123780000000.0 248432000000.0 228447000000.0 233830000000.0 269007000000.0 296749000000.0 257948000000.0 292900000000.0 283542000000.0 249979000000.0 202340000000.0 152329000000.0 80999900000.0 3009260000.0 46620500000.0 54457600000.0 350865000000.0 253809000000.0 41847400000.0 112452000000.0 158718000000.0 271697000000.0 370761000000.0 387373000000.0 275904000000.0 81367300000.0 55704000000.0 32715300000.0 11221000000.0 11919500000.0 34802000000.0 72679400000.0 102183000000.0 146306000000.0 202067000000.0 278978000000.0 304662000000.0 248088000000.0 225785000000.0 234224000000.0 293419000000.0 209506000000.0 30439000000.0 6497430000.0 181325000000.0 69976800000.0 22830100000.0 30689100000.0 75638800000.0 19756700000.0 10123000000.0 43180100000.0 22035500000.0 44981300000.0 93595900000.0 58472300000.0 148232000000.0 51748100000.0 10112700000.0 5210750000.0 52161100000.0 131827000000.0 185218000000.0 170037000000.0 179297000000.0 244933000000.0 250322000000.0 278805000000.0 304161000000.0 285328000000.0 245782000000.0 195834000000.0 135531000000.0 79728500000.0 538022000.0 76284400000.0 113148000000.0 286810000000.0 70249300000.0 310609000000.0 10412200000.0 52292700000.0 109132000000.0 7597260000.0 42188700000.0 28358600000.0 54795800000.0 120035000000.0 115532000000.0 126252000000.0 287766000000.0 325494000000.0 266425000000.0 362798000000.0 259300000000.0 283840000000.0 144053000000.0 221533000000.0 156976000000.0 115132000000.0 46350500000.0 15391100000.0 57511700000.0 97637000000.0 125730000000.0 146356000000.0 164509000000.0 192569000000.0 242830000000.0 214655000000.0 169034000000.0 177463000000.0 208651000000.0 166325000000.0 60236500000.0 5977400000.0 9035750000.0 51022800000.0 162720000000.0 20434400000.0 19438800000.0 29396200000.0 78416900000.0 60102400000.0 14602500000.0 18070100000.0 70753200000.0 34102000000.0 830995000.0 56093700000.0 82180900000.0 14286200000.0 67260800000.0 120782000000.0 45175500000.0 17551200000.0 68135900000.0 123007000000.0 258282000000.0 106709000000.0 284238000000.0 194294000000.0 314950000000.0 231399000000.0 311130000000.0 259077000000.0 96057200000.0 100010000000.0 274110000000.0 231156000000.0 278950000000.0 335973000000.0 421090000000.0 385709000000.0 370438000000.0 309948000000.0 246591000000.0 201336000000.0 149154000000.0 136715000000.0 106606000000.0 35780400000.0 71296100000.0 30016800000.0 74888400000.0 97895800000.0 80352300000.0 20755500000.0 101683000000.0 212656000000.0 69089600000.0 42125100000.0 119211000000.0 144943000000.0 143039000000.0 119749000000.0 115654000000.0 105440000000.0 90847800000.0 76531900000.0 66104700000.0 59186000000.0 196858000000.0 29496500000.0 1066640000.0 34094900000.0 114791000000.0 80530500000.0 38864700000.0 3368750000.0 37097200000.0 79144500000.0 137599000000.0 165104000000.0 132313000000.0 125551000000.0 15583600000.0 64645300000.0 212747000000.0 66121000000.0 5140320000.0 2450920000.0 43722000000.0 77056000000.0 145700000000.0 195219000000.0 298978000000.0 1032430000.0 23374700000.0 45030300000.0 19341100000.0 2771280000.0 36052500000.0 79907000000.0 95220500000.0 111148000000.0 140125000000.0 157368000000.0 164071000000.0 141268000000.0 114749000000.0 63726400000.0 47782900000.0 45674700000.0 84347800000.0 19981800000.0 144458000000.0 9033210000.0 141492000000.0 61007100000.0 93384200000.0 70950300000.0 70205600000.0 19230000000.0 22211400000.0 61702000000.0 35484700000.0 151493000000.0 17564300000.0 79002000000.0 139054000000.0 284893000000.0 238654000000.0 223462000000.0 201934000000.0 209653000000.0 170277000000.0 208899000000.0 137555000000.0 189282000000.0 114548000000.0 93057000000.0 49413800000.0 20195200000.0 25271100000.0 49037300000.0 87115500000.0 113023000000.0 137194000000.0 107449000000.0 101160000000.0 97703000000.0 53233100000.0 16565500000.0 17384500000.0 48333100000.0 32715100000.0 5116360000.0 290794000000.0 176485000000.0 116994000000.0 48392900000.0 10326000000.0 2930400000.0 5841380000.0 9035750000.0 9035750000.0 22522300000.0 66612400000.0 93082500000.0 108313000000.0 79489200000.0 47976400000.0 22582300000.0 7126690000.0 51677400000.0 65763700000.0 24737000000.0 93398000000.0 154921000000.0 229819000000.0 251079000000.0 256119000000.0 255084000000.0 350605000000.0 272331000000.0 354643000000.0 272178000000.0 224482000000.0 125795000000.0 94820100000.0 98331900000.0 3600260000.0 93606800000.0 5259800000.0 35530200000.0 41834100000.0 91964400000.0 117515000000.0 152127000000.0 214735000000.0 181190000000.0 229810000000.0 177928000000.0 164266000000.0 136599000000.0 117649000000.0 67951400000.0 36280300000.0 3390480000.0 75075400000.0 67972400000.0 13539600000.0 17379500000.0 46910800000.0 80537600000.0 109756000000.0 81023900000.0 41465800000.0 12587500000.0 9035750000.0 9035750000.0 150511000000.0 73046400000.0 127638000000.0 61356500000.0 63766600000.0 27708800000.0 201233000000.0 146182000000.0 42062900000.0 57149600000.0 141308000000.0 78263300000.0 33232800000.0 72188600000.0 63804700000.0 128693000000.0 73112800000.0 143120000000.0 13046300000.0 56700000000.0 99769700000.0 89928300000.0 48520700000.0 58085700000.0 124724000000.0 2639410000.0 27334800000.0 51980600000.0 77511500000.0 104872000000.0 132198000000.0 142675000000.0 127823000000.0 130572000000.0 89479900000.0 50554400000.0 1181990000.0 40258600000.0 84519100000.0 79490300000.0 93345500000.0 123321000000.0 154145000000.0 76775700000.0 107022000000.0 83646600000.0 13912400000.0 150950000000.0 2699390000.0 93222000000.0 24247800000.0 35255100000.0 2418060000.0 72854900000.0 211686000.0 27951300000.0 103869000000.0 24695800000.0 40080700000.0 97927000000.0 78429100000.0 37810800000.0 50180600000.0 19900300000.0 26877100000.0 10016200000.0 24618100000.0 14111900000.0 69080300000.0 64477900000.0 59844600000.0 36207100000.0 30906400000.0 1863210000.0 23503800000.0 52446400000.0 70358800000.0 110210000000.0 101010000000.0 110756000000.0 123202000000.0 97746200000.0 72245600000.0 47997800000.0 24801300000.0 1761410000.0 123050000000.0 47721600000.0 62965100000.0 114153000000.0 95618200000.0 53967600000.0 12474200000.0 9191390000.0 9111850000.0 11684100000.0 38234000000.0 99596100000.0 24221000000.0 34642700000.0 54138300000.0 25119300000.0 6002260000.0 62576700000.0 43369700000.0 15888800000.0 45716600000.0 19377600000.0 51042700000.0 17652400000.0 8458840000.0 5223960000.0 9679200000.0 14491500000.0 16414800000.0 32081000000.0 20925900000.0 20560300000.0 33584300000.0 31542800000.0 56651500000.0 92903800000.0 20077100000.0 10339400000.0 9110700000.0 9191540000.0 160594000000.0 133093000000.0 52886500000.0 43682100000.0 32204300000.0 23355300000.0 13619300000.0 4114970000.0 7721560000.0 54946100000.0 61619600000.0 93553300000.0 92617000000.0 89483100000.0 70998000000.0 56969000000.0 20430800000.0 2436610000.0 87474200000.0 41923400000.0 5375620000.0 43277500000.0 27837200000.0 110976000000.0 62181000000.0 38671300000.0 19592400000.0 57749300000.0 70613400000.0 73660100000.0 84818900000.0 56194900000.0 61507000000.0 23468900000.0 3153100000.0 13674100000.0 23640300000.0 32518700000.0 44136000000.0 53331700000.0 134262000000.0 157926000000.0 7365030000.0 2762600000.0 3959550000.0 17124000000.0 82672000000.0 161586000000.0 187731000000.0 11985900000.0 7155970000.0 7804820000.0 2685020000.0 1305810000.0 121921000.0 1264600000.0 42998900000.0 54591100000.0 91469100000.0 101399000000.0 114337000000.0 113447000000.0 116869000000.0 97802600000.0 109191000000.0 115617000000.0 132420000000.0 59828500000.0 58868400000.0 83825400000.0 8670260000.0 142903000000.0 6075810000.0 86725700000.0 23638900000.0 40040000000.0 7279200000.0 86129000000.0 4563850000.0 26624600000.0 115927000000.0 21399700000.0 2939350000.0 11273800000.0 16713200000.0 17711400000.0 11005900000.0 15329900000.0 4850940000.0 5471300000.0 2321430000.0 8755430000.0 66694000000.0 65483700000.0 76441000000.0 68775200000.0 86017100000.0 77949700000.0 81965100000.0 76724000000.0 78289100000.0 45570900000.0 46223200000.0 3605900000.0 1207300000.0 72215600.0 1713270000.0 7330780000.0 6708440000.0 11907000000.0 188552000000.0 159596000000.0 77196600000.0 9602720000.0 1702110000.0 2807990000.0 7381530000.0 115136000000.0 44435600000.0 7828640000.0 7225120000.0 23869200000.0 1514450000.0 27847500000.0 8846590000.0 9013990000.0 9121680000.0 8447230000.0 61556800000.0 9911930000.0 9506630000.0 17110400000.0 32723100000.0 93773600000.0 163420000000.0 186296000000.0 14141800000.0 8132790000.0 11830200000.0 7363540000.0 9058070000.0 10984300000.0 13379500000.0 58130000000.0 73620900000.0 106585000000.0 111046000000.0 118651000000.0 112919000000.0 112759000000.0 94864700000.0 105402000000.0 102650000000.0 49804600000.0 78400900000.0 131977000000.0 78998700000.0 34604100000.0 1275040000.0 73909400000.0 14740700000.0 115864000000.0 48946500000.0 21947100000.0 41644100000.0 33080900000.0 16901500000.0 10550700000.0 61392000000.0 76185600000.0 70216300000.0 89114700000.0 84463000000.0 91604800000.0 90171200000.0 94598300000.0 65205100000.0 61234400000.0 14648500000.0 11512800000.0 9013750000.0 7323920000.0 12171800000.0 8071830000.0 14255400000.0 187063000000.0 162578000000.0 90175900000.0 29768500000.0 14613000000.0 9507770000.0 9913060000.0 10068000000.0 9076850000.0 17274500000.0 32870800000.0 84161000000.0 148370000000.0 180635000000.0 22165300000.0 12525200000.0 15822600000.0 9083390000.0 10368300000.0 12170800000.0 14532900000.0 56273800000.0 74298000000.0 104851000000.0 108395000000.0 115668000000.0 110299000000.0 110900000000.0 95127800000.0 104423000000.0 94738700000.0 103182000000.0 46593500000.0 35316100000.0 73020600000.0 9035750000.0 121587000000.0 9035750000.0 76192500000.0 28900100000.0 40258300000.0 9178180000.0 78233900000.0 8091930000.0 32306000000.0 107683000000.0 32062900000.0 13588700000.0 13988600000.0 1602630000.0 35051700000.0 3511910000.0 28747700000.0 6049970000.0 15525300000.0 8384690000.0 12917100000.0 58251000000.0 59140200000.0 76294600000.0 70959900000.0 89239400000.0 84604900000.0 91210700000.0 89670400000.0 93557000000.0 66094100000.0 58288400000.0 15197500000.0 13060500000.0 10467600000.0 9147920000.0 16353900000.0 12512400000.0 22419400000.0 181244000000.0 147971000000.0 81881400000.0 31324900000.0 15145200000.0 9086830000.0 10057700000.0 10563600000.0 9922100000.0 19061900000.0 35405900000.0 78027300000.0 136273000000.0 172370000000.0 25868300000.0 13865100000.0 17385400000.0 9606850000.0 11316100000.0 13823000000.0 17008300000.0 55651600000.0 75144100000.0 102508000000.0 104621000000.0 110373000000.0 104216000000.0 104685000000.0 90129500000.0 98297300000.0 84176700000.0 89101500000.0 42386600000.0 27911900000.0 67965800000.0 9035750000.0 110903000000.0 9035750000.0 70682000000.0 29012100000.0 38808600000.0 9612430000.0 73565700000.0 8578450000.0 34570600000.0 104550000000.0 38444200000.0 21381700000.0 24015700000.0 9035750000.0 40966000000.0 9035750000.0 32878700000.0 9035750000.0 17682400000.0 9035750000.0 13443600000.0 51902800000.0 53725500000.0 72734700000.0 68147700000.0 85904900000.0 82034800000.0 88826300000.0 87686200000.0 91692300000.0 66848500000.0 56094200000.0 17385400000.0 14644200000.0 11293300000.0 9592170000.0 17953700000.0 13836900000.0 26020800000.0 172642000000.0 136125000000.0 76676400000.0 34505800000.0 17502700000.0 9922590000.0 10566700000.0 10823900000.0 10088200000.0 19099400000.0 35085600000.0 69998100000.0 122421000000.0 161877000000.0 28857500000.0 14960900000.0 18348900000.0 9767480000.0 11693900000.0 14630500000.0 18345000000.0 53342000000.0 73313200000.0 97536000000.0 98808100000.0 103569000000.0 97198200000.0 97652300000.0 83877900000.0 90835500000.0 74224300000.0 76182800000.0 39288600000.0 22604600000.0 63127600000.0 9035750000.0 101150000000.0 9035750000.0 65832200000.0 28518500000.0 37256600000.0 10503000000.0 69232500000.0 9035750000.0 36372700000.0 93797400000.0 32647700000.0 18209800000.0 23851000000.0 9035750000.0 39715500000.0 9035750000.0 32239000000.0 9035750000.0 17765500000.0 9035750000.0 13882500000.0 45396300000.0 48048700000.0 68184100000.0 64361600000.0 81424000000.0 78159700000.0 84903600000.0 83982400000.0 87801300000.0 65535200000.0 52797300000.0 18771800000.0 15526300000.0 11675800000.0 9754800000.0 18971900000.0 14938800000.0 29240100000.0 162232000000.0 122392000000.0 69255000000.0 34606500000.0 18077700000.0 10088400000.0 10827900000.0 11034200000.0 10223100000.0 18733100000.0 33871600000.0 62505900000.0 109264000000.0 150475000000.0 31136300000.0 15849000000.0 18916100000.0 9902460000.0 11999600000.0 15264700000.0 19406800000.0 50622900000.0 70285000000.0 91436900000.0 92110200000.0 95997400000.0 89540700000.0 89956200000.0 76860300000.0 82683700000.0 65056800000.0 64739900000.0 36853700000.0 18947500000.0 58465000000.0 9035750000.0 92176400000.0 9035750000.0 61465500000.0 27509800000.0 35749100000.0 11029300000.0 65005500000.0 9035750000.0 37961300000.0 86392300000.0 31895700000.0 17641500000.0 24344200000.0 9035750000.0 38282400000.0 9035750000.0 31491300000.0 9035750000.0 17730400000.0 9035750000.0 14214700000.0 39153300000.0 42459200000.0 63011900000.0 59927600000.0 76141100000.0 73451200000.0 80072300000.0 79322100000.0 82869900000.0 63154300000.0 49326200000.0 19871100000.0 16188200000.0 11985600000.0 9891590000.0 19569900000.0 15836400000.0 31557400000.0 150811000000.0 109305000000.0 62153300000.0 33668600000.0 18085100000.0 10223200000.0 11039000000.0 11191300000.0 10324500000.0 18102100000.0 32061900000.0 55772900000.0 97088600000.0 138582000000.0 32715700000.0 16515200000.0 19119200000.0 10009000000.0 12227700000.0 15717400000.0 20175600000.0 47669800000.0 66378600000.0 84631600000.0 84909000000.0 88077600000.0 81684700000.0 82043800000.0 69606600000.0 74364100000.0 56790800000.0 54839300000.0 34676200000.0 16498300000.0 53966200000.0 9035750000.0 83853200000.0 9035750000.0 57409200000.0 26133900000.0 34236900000.0 11473200000.0 61052200000.0 9035750000.0 38609600000.0 77918100000.0 29773800000.0 15902400000.0 24083400000.0 9035750000.0 36689300000.0 9035750000.0 30625000000.0 9035750000.0 17594100000.0 9035750000.0 14425900000.0 33432700000.0 37201000000.0 57535000000.0 55139700000.0 70374400000.0 68216200000.0 74644900000.0 74026900000.0 77246100000.0 59970400000.0 45826600000.0 20660800000.0 16626300000.0 12217100000.0 9999880000.0 19782500000.0 16512300000.0 33159100000.0 138942000000.0 97188600000.0 55663500000.0 32021100000.0 17681700000.0 10324800000.0 11196700000.0 11292500000.0 10391200000.0 17312900000.0 29892400000.0 49853000000.0 86013300000.0 126511000000.0 33614700000.0 16954600000.0 19003300000.0 10085300000.0 12374000000.0 15985700000.0 20641800000.0 44590300000.0 61882500000.0 77487800000.0 77518100000.0 80096200000.0 73891300000.0 74177900000.0 62452800000.0 66247400000.0 49479800000.0 46427200000.0 32519200000.0 14811400000.0 49627000000.0 9035750000.0 76081800000.0 9035750000.0 53529600000.0 24538000000.0 32681100000.0 11822500000.0 57230300000.0 9035750000.0 38670700000.0 70044500000.0 28142000000.0 14342800000.0 23573900000.0 9035750000.0 34953000000.0 9035750000.0 29621300000.0 9035750000.0 17362800000.0 9035750000.0 14512000000.0 28377400000.0 32420100000.0 52003000000.0 50229000000.0 64381900000.0 62706900000.0 68878000000.0 68363800000.0 71227200000.0 56226900000.0 42386900000.0 21132400000.0 16845100000.0 12366600000.0 10077700000.0 19657000000.0 16960000000.0 34066000000.0 126914000000.0 86167300000.0 49890200000.0 29935100000.0 17025700000.0 10391500000.0 11298100000.0 11336200000.0 10422400000.0 16447300000.0 27543100000.0 44681100000.0 76042000000.0 114488000000.0 33860100000.0 17167700000.0 18619700000.0 10130100000.0 12436700000.0 16071500000.0 20804500000.0 41438600000.0 57030800000.0 70279500000.0 70165400000.0 72258700000.0 66344000000.0 66546500000.0 55616500000.0 58570700000.0 43106200000.0 39386300000.0 30319500000.0 13542600000.0 45445500000.0 9035750000.0 68785100000.0 9035750000.0 49737100000.0 22838700000.0 31053200000.0 12068900000.0 53443700000.0 9035750000.0 38145900000.0 62816000000.0 26776800000.0 13018900000.0 22857600000.0 9035750000.0 33088800000.0 9035750000.0 28466100000.0 9035750000.0 17035000000.0 9035750000.0 14476100000.0 24048900000.0 28191200000.0 46604400000.0 45371200000.0 58365600000.0 57120300000.0 62972600000.0 62540100000.0 65042200000.0 52125600000.0 39052200000.0 21286300000.0 16855500000.0 12431900000.0 10123800000.0 19247100000.0 17179900000.0 34306400000.0 114928000000.0 76239800000.0 44802600000.0 27622100000.0 16241100000.0 10422700000.0 11342100000.0 11322600000.0 10418300000.0 15564000000.0 25150900000.0 40133000000.0 67087200000.0 102678000000.0 33486100000.0 17159200000.0 18022100000.0 10143000000.0 12415400000.0 15981200000.0 20670700000.0 38246600000.0 52010500000.0 63195100000.0 63004300000.0 64700200000.0 59160000000.0 59273900000.0 49225200000.0 51466200000.0 37597400000.0 33556900000.0 28101000000.0 12508100000.0 41419400000.0 9035750000.0 61901200000.0 9035750000.0 45975600000.0 21120500000.0 29335100000.0 12203900000.0 49623800000.0 9035750000.0 37074100000.0 56185300000.0 25515700000.0 11944000000.0 21971900000.0 9035750000.0 31112500000.0 9035750000.0 27152500000.0 9035750000.0 16610200000.0 9035750000.0 14324100000.0 20446800000.0 24535900000.0 41469900000.0 40691400000.0 52473600000.0 51600400000.0 57076100000.0 56708600000.0 58858800000.0 47827100000.0 35837700000.0 21131500000.0 16673400000.0 12413000000.0 10137900000.0 18609300000.0 17176600000.0 33916100000.0 103137000000.0 67313600000.0 40299100000.0 25240900000.0 15412000000.0 10418700000.0 11328500000.0 11252900000.0 10379700000.0 14699400000.0 22815100000.0 36067600000.0 59011000000.0 91198000000.0 32533600000.0 16937800000.0 17262600000.0 10124500000.0 12312000000.0 15724600000.0 20254200000.0 35040900000.0 46963200000.0 56350100000.0 56127200000.0 57497400000.0 52400600000.0 52430000000.0 43337800000.0 44988500000.0 32850800000.0 28759600000.0 25902900000.0 11643600000.0 37544000000.0 9035750000.0 55378100000.0 9035750000.0 42209700000.0 19442200000.0 27518500000.0 12226000000.0 45726400000.0 9035750000.0 50070800000.0 24249000000.0 11102200000.0 20945800000.0 9035750000.0 29039000000.0 9035750000.0 25682500000.0 9035750000.0 16091300000.0 9035750000.0 14063800000.0 17527600000.0 21435200000.0 36680100000.0 36268500000.0 46804400000.0 46242600000.0 51288600000.0 50973500000.0 52791100000.0 43452000000.0 32739200000.0 20684200000.0 16317600000.0 12311600000.0 10120400000.0 17799100000.0 16958900000.0 32937800000.0 91654500000.0 59248700000.0 36251600000.0 22903000000.0 14587500000.0 10380000000.0 11258700000.0 35502500000.0 11129800000.0 10307900000.0 13873600000.0 20600500000.0 32355800000.0 51664600000.0 80118200000.0 31049700000.0 16516100000.0 16388800000.0 10075700000.0 12130200000.0 15314100000.0 19574800000.0 31844600000.0 41986400000.0 49804100000.0 49578400000.0 50680900000.0 46083200000.0 46039900000.0 37962400000.0 39137400000.0 28753200000.0 24816100000.0 23751200000.0 10934300000.0 33811000000.0 9035750000.0 49170600000.0 9035750000.0 38417800000.0 17842800000.0 25602400000.0 12138500000.0 41727900000.0 9035750000.0 33477500000.0 44387200000.0 22901500000.0 10463400000.0 19803000000.0 9035750000.0 26879900000.0 9035750000.0 24065600000.0 9035750000.0 15483400000.0 9035750000.0 13704400000.0 15222000000.0 18842700000.0 32273400000.0 32143000000.0 41414400000.0 41102200000.0 45669600000.0 45398600000.0 46908900000.0 39085000000.0 29742100000.0 19965900000.0 15808100000.0 12131200000.0 10072500000.0 16867100000.0 16539300000.0 31420300000.0 80552500000.0 51897300000.0 32538700000.0 20679900000.0 13792600000.0 10308200000.0 11135300000.0 10957000000.0 10205200000.0 13095800000.0 18545500000.0 28892200000.0 44912600000.0 69467800000.0 29087200000.0 15910000000.0 15441600000.0 9998640000.0 11875200000.0 14764000000.0 18656500000.0 28674600000.0 37138400000.0 43576100000.0 43366400000.0 44247000000.0 40192900000.0 40094300000.0 33071500000.0 33874800000.0 25192400000.0 21561800000.0 21655500000.0 10373100000.0 30209300000.0 9035750000.0 43238000000.0 9035750000.0 34588200000.0 16346100000.0 23591200000.0 11947800000.0 37619400000.0 9035750000.0 39054800000.0 21427000000.0 9993810000.0 18561400000.0 9035750000.0 24644900000.0 9035750000.0 22316200000.0 9035750000.0 14793400000.0 9035750000.0 13256500000.0 13446100000.0 16695600000.0 28254800000.0 28324400000.0 36325500000.0 36201800000.0 40247100000.0 40014600000.0 41246200000.0 34779700000.0 26828400000.0 19003000000.0 15165100000.0 11877300000.0 9996240000.0 15856900000.0 15933600000.0 29417700000.0 69863700000.0 45127400000.0 29061300000.0 18613200000.0 13038700000.0 10205600000.0 10962100000.0 31045400000.0 10739300000.0 10074500000.0 12368200000.0 16668300000.0 25597600000.0 38640400000.0 59245000000.0 26703000000.0 15138300000.0 14453800000.0 9895800000.0 11553800000.0 14090400000.0 17527200000.0 25541100000.0 32445000000.0 37656100000.0 37473400000.0 38167900000.0 34692300000.0 34559000000.0 28615200000.0 29138400000.0 22063600000.0 18851700000.0 19614200000.0 9946330000.0 26725100000.0 9035750000.0 37541900000.0 9035750000.0 30716800000.0 14962900000.0 21492600000.0 11663000000.0 33401800000.0 9035750000.0 28254800000.0 34002100000.0 19807000000.0 9659600000.0 17234900000.0 9035750000.0 22343100000.0 9035750000.0 20451000000.0 9035750000.0 14029700000.0 9035750000.0 12731700000.0 12109800000.0 14924800000.0 24604100000.0 24799000000.0 31533200000.0 31539800000.0 35024600000.0 34827700000.0 35809600000.0 30564800000.0 23980700000.0 17824700000.0 14408100000.0 11556500000.0 9894020000.0 14803600000.0 15160700000.0 26988600000.0 59590800000.0 38828200000.0 25744900000.0 16723400000.0 12329200000.0 10074800000.0 10743800000.0 11688000000.0 14971500000.0 22418500000.0 29383600000.0 24530400000.0 24851700000.0 19272800000.0 16560700000.0 9633730000.0 9035750000.0 9035750000.0 13693300000.0 11295800000.0 9035750000.0 29166600000.0 9429150000.0 9035750000.0 9035750000.0 9035750000.0 9035750000.0 11124200000.0 13460500000.0 21283000000.0 21536900000.0 27013200000.0 22540300000.0 15014200000.0 11662400000.0 10482200000.0 9918990000.0 32748300000.0 49424600000.0 23957800000.0 14222100000.0 13450000000.0 9770250000.0 11174200000.0 13310700000.0 16217100000.0 22447600000.0 27908600000.0 32014400000.0 31864300000.0 32400100000.0 29529700000.0 17619100000.0 23342500000.0 32045700000.0 26804700000.0 19317200000.0 29083000000.0 25156400000.0 18044900000.0 15835500000.0 19983700000.0 18488000000.0 13202300000.0 12141800000.0 27097100000.0 29988500000.0 29826400000.0 30585900000.0 26450100000.0 21183200000.0 16462700000.0 13555200000.0 11177100000.0 9768980000.0 13733500000.0 14242200000.0 24194900000.0 49712800000.0 32904100000.0 9919240000.0 10486100000.0 10192100000.0 9742660000.0 11049000000.0 13443100000.0 19323900000.0 27148300000.0 39962000000.0 20914800000.0 13184900000.0 12445600000.0 9625540000.0 10745600000.0 12442900000.0 14757900000.0 19392300000.0 23514600000.0 26609100000.0 26493500000.0 26890800000.0 24645700000.0 24507600000.0 20748200000.0 20931900000.0 16737700000.0 14583700000.0 15660000000.0 9412130000.0 20044100000.0 9035750000.0 26713000000.0 9035750000.0 22856100000.0 12528100000.0 17077100000.0 10859900000.0 24676600000.0 9035750000.0 21802900000.0 24495100000.0 16157200000.0 9274630000.0 14374500000.0 9035750000.0 17576300000.0 9035750000.0 16445700000.0 9035750000.0 12321700000.0 9035750000.0 11498800000.0 10406600000.0 12236300000.0 18241000000.0 18497600000.0 22727700000.0 22842900000.0 25113600000.0 24986700000.0 25548300000.0 22430800000.0 18422800000.0 14949800000.0 12623200000.0 10748300000.0 9624680000.0 12663500000.0 13201500000.0 21100800000.0 40188100000.0 27269500000.0 19418500000.0 13474400000.0 11032900000.0 9742870000.0 10195200000.0 9875860000.0 9549770000.0 10442900000.0 12058600000.0 16295200000.0 21762500000.0 30794600000.0 17638900000.0 12051600000.0 11448600000.0 9465600000.0 10278200000.0 11505600000.0 13182400000.0 16369800000.0 19238000000.0 21390600000.0 21309500000.0 21582700000.0 19977700000.0 19865600000.0 17198300000.0 17294200000.0 14387600000.0 12831900000.0 13726400000.0 9258340000.0 16811300000.0 9035750000.0 21507200000.0 9035750000.0 18877300000.0 11451200000.0 14785600000.0 10369900000.0 20199400000.0 9035750000.0 18248700000.0 19942300000.0 14168100000.0 9172870000.0 12864300000.0 9035750000.0 15130800000.0 9035750000.0 14342400000.0 9035750000.0 11399500000.0 9035750000.0 10814600000.0 9883440000.0 11190600000.0 15420100000.0 15634500000.0 18630300000.0 18739200000.0 20367900000.0 20276800000.0 20660900000.0 18492700000.0 15688500000.0 13319500000.0 11628900000.0 10280300000.0 9465060000.0 11602100000.0 12064000000.0 17772200000.0 30956200000.0 21848500000.0 16362200000.0 12079700000.0 10433500000.0 9549920000.0 9878100000.0 9540700000.0 9344880000.0 9860480000.0 10783600000.0 13316700000.0 16522800000.0 21845100000.0 14196500000.0 10849100000.0 10460800000.0 9294640000.0 9782600000.0 10518200000.0 11524000000.0 13371600000.0 15047600000.0 16305700000.0 16258200000.0 16416700000.0 15461800000.0 15389800000.0 13811100000.0 13854600000.0 12161600000.0 11230400000.0 11809100000.0 9150710000.0 13625200000.0 9035750000.0 16391500000.0 9035750000.0 14875900000.0 10440800000.0 12456700000.0 9841030000.0 15670400000.0 9035750000.0 14549800000.0 15469100000.0 12105000000.0 9105060000.0 11318000000.0 9035750000.0 12657700000.0 9035750000.0 12196000000.0 9035750000.0 10447500000.0 9035750000.0 10100800000.0 9490640000.0 10267300000.0 12758000000.0 12897600000.0 14668700000.0 14743900000.0 15714900000.0 15660600000.0 15882300000.0 14615400000.0 12971300000.0 11605500000.0 10589400000.0 9783920000.0 9294340000.0 10551200000.0 10856600000.0 14275800000.0 21941200000.0 16573600000.0 13356300000.0 10795600000.0 9855710000.0 9344970000.0 9542050000.0 9194230000.0 9132790000.0 9292070000.0 9576170000.0 10369800000.0 11366700000.0 13025000000.0 10654400000.0 9604960000.0 9480060000.0 9117070000.0 9270160000.0 9500770000.0 9816250000.0 10388100000.0 10908500000.0 11299100000.0 11284300000.0 11333400000.0 11034800000.0 11011700000.0 10519000000.0 10531000000.0 10005900000.0 9714140000.0 9900720000.0 9069530000.0 10466300000.0 9035750000.0 11328000000.0 9035750000.0 10859900000.0 9471210000.0 10105300000.0 9288900000.0 11109300000.0 9035750000.0 10763700000.0 11040500000.0 9997220000.0 9055890000.0 9749820000.0 9035750000.0 10167600000.0 9035750000.0 10024200000.0 9035750000.0 9477800000.0 9035750000.0 9369550000.0 9171880000.0 9414600000.0 10190300000.0 10235400000.0 10787900000.0 10812600000.0 11116500000.0 11099500000.0 11168000000.0 10774700000.0 10263500000.0 9841720000.0 9522780000.0 9270590000.0 9116980000.0 9508220000.0 9607340000.0 10679200000.0 13055100000.0 11382600000.0 10382200000.0 9579880000.0 9290670000.0 9132820000.0 9194660000.0 