# vtk DataFile Version 2.0
Time step 49
ASCII
DATASET UNSTRUCTURED_GRID
POINTS 4650 float
171506.0 395144.0 0
178043.0 395553.0 0
321957.0 395553.0 0
328494.0 395144.0 0
167450.0 397673.0 0
170891.0 399006.0 0
174551.0 397437.0 0
181205.0 398051.0 0
184589.0 395992.0 0
190653.0 397401.0 0
194383.0 398864.0 0
198306.0 398082.0 0
202255.0 398699.0 0
206246.0 398584.0 0
210234.0 398662.0 0
214219.0 398657.0 0
218202.0 398657.0 0
222182.0 398656.0 0
226160.0 398655.0 0
230136.0 398655.0 0
234110.0 398654.0 0
238084.0 398653.0 0
242056.0 398654.0 0
246028.0 398653.0 0
250000.0 398654.0 0
253972.0 398653.0 0
257944.0 398654.0 0
261916.0 398653.0 0
265890.0 398654.0 0
269864.0 398655.0 0
273840.0 398655.0 0
277818.0 398656.0 0
281798.0 398657.0 0
285781.0 398657.0 0
289766.0 398662.0 0
293754.0 398584.0 0
297745.0 398699.0 0
301694.0 398082.0 0
305617.0 398864.0 0
309347.0 397401.0 0
315411.0 395992.0 0
318795.0 398051.0 0
325449.0 397437.0 0
329109.0 399006.0 0
332550.0 397673.0 0
159764.0 402478.0 0
163151.0 400363.0 0
166805.0 401341.0 0
173777.0 401328.0 0
177675.0 399741.0 0
183680.0 401178.0 0
187062.0 399133.0 0
312938.0 399133.0 0
316320.0 401178.0 0
322325.0 399741.0 0
326223.0 401328.0 0
333195.0 401341.0 0
336849.0 400363.0 0
340236.0 402478.0 0
155732.0 404976.0 0
163156.0 404075.0 0
170239.0 403062.0 0
176770.0 403517.0 0
180562.0 403559.0 0
187156.0 403137.0 0
190703.0 401380.0 0
194356.0 402953.0 0
198239.0 402059.0 0
202176.0 402700.0 0
206162.0 402576.0 0
210150.0 402662.0 0
214140.0 402655.0 0
218128.0 402657.0 0
222115.0 402656.0 0
226101.0 402655.0 0
230086.0 402655.0 0
234069.0 402654.0 0
238053.0 402653.0 0
242035.0 402654.0 0
246018.0 402653.0 0
250000.0 402654.0 0
253982.0 402653.0 0
257965.0 402654.0 0
261947.0 402653.0 0
265931.0 402654.0 0
269914.0 402655.0 0
273899.0 402655.0 0
277885.0 402656.0 0
281872.0 402657.0 0
285860.0 402655.0 0
289850.0 402662.0 0
293838.0 402576.0 0
297824.0 402700.0 0
301761.0 402059.0 0
305644.0 402953.0 0
309297.0 401380.0 0
312844.0 403137.0 0
319438.0 403559.0 0
323230.0 403517.0 0
329761.0 403062.0 0
336844.0 404075.0 0
344268.0 404976.0 0
152400.0 407065.0 0
159007.0 406104.0 0
162182.0 407632.0 0
166760.0 405123.0 0
170017.0 407012.0 0
173428.0 405378.0 0
178179.0 407014.0 0
183958.0 405449.0 0
191011.0 405352.0 0
198432.0 406014.0 0
202329.0 406754.0 0
206295.0 406561.0 0
210267.0 406667.0 0
214242.0 406653.0 0
218216.0 406658.0 0
222191.0 406656.0 0
226166.0 406656.0 0
230140.0 406654.0 0
234113.0 406655.0 0
238086.0 406653.0 0
242058.0 406654.0 0
246029.0 406652.0 0
250000.0 406654.0 0
253971.0 406652.0 0
257942.0 406654.0 0
261914.0 406653.0 0
265887.0 406655.0 0
269860.0 406654.0 0
273834.0 406656.0 0
277809.0 406656.0 0
281784.0 406658.0 0
285758.0 406653.0 0
289733.0 406667.0 0
293705.0 406561.0 0
297671.0 406754.0 0
301568.0 406014.0 0
308989.0 405352.0 0
316042.0 405449.0 0
321821.0 407014.0 0
326572.0 405378.0 0
329983.0 407012.0 0
333240.0 405123.0 0
337818.0 407632.0 0
340993.0 406104.0 0
347600.0 407065.0 0
149070.0 409149.0 0
152358.0 410659.0 0
155667.0 408516.0 0
158953.0 409855.0 0
165570.0 408793.0 0
174824.0 409071.0 0
181667.0 408668.0 0
187504.0 407171.0 0
194609.0 407042.0 0
305391.0 407042.0 0
312496.0 407171.0 0
318333.0 408668.0 0
325176.0 409071.0 0
334430.0 408793.0 0
341047.0 409855.0 0
344333.0 408516.0 0
347642.0 410659.0 0
350930.0 409149.0 0
145733.0 411237.0 0
149031.0 412768.0 0
155686.0 412128.0 0
162262.0 411329.0 0
168730.0 410527.0 0
172090.0 411876.0 0
178366.0 410907.0 0
185173.0 410380.0 0
188649.0 412178.0 0
191369.0 409327.0 0
194896.0 411190.0 0
198656.0 409963.0 0
202509.0 410877.0 0
206455.0 410538.0 0
210412.0 410681.0 0
214371.0 410649.0 0
218329.0 410660.0 0
222287.0 410656.0 0
226245.0 410657.0 0
230203.0 410654.0 0
234162.0 410656.0 0
238121.0 410653.0 0
242080.0 410655.0 0
246040.0 410652.0 0
250000.0 410654.0 0
253960.0 410652.0 0
257920.0 410655.0 0
261879.0 410653.0 0
265838.0 410656.0 0
269797.0 410654.0 0
273755.0 410657.0 0
277713.0 410656.0 0
281671.0 410660.0 0
285629.0 410649.0 0
289588.0 410681.0 0
293545.0 410538.0 0
297491.0 410877.0 0
301344.0 409963.0 0
305104.0 411190.0 0
308631.0 409327.0 0
311351.0 412178.0 0
314827.0 410380.0 0
321634.0 410907.0 0
327910.0 411876.0 0
331270.0 410527.0 0
337738.0 411329.0 0
344314.0 412128.0 0
350969.0 412768.0 0
354267.0 411237.0 0
139057.0 415412.0 0
142396.0 413324.0 0
145699.0 414882.0 0
152368.0 414283.0 0
159023.0 413579.0 0
162374.0 415085.0 0
165569.0 412737.0 0
168923.0 414323.0 0
175422.0 413457.0 0
181892.0 412614.0 0
185370.0 414363.0 0
192122.0 413999.0 0
198916.0 413914.0 0
301084.0 413914.0 0
307878.0 413999.0 0
314630.0 414363.0 0
318108.0 412614.0 0
324578.0 413457.0 0
331077.0 414323.0 0
334431.0 412737.0 0
337626.0 415085.0 0
340977.0 413579.0 0
347632.0 414283.0 0
354301.0 414882.0 0
357604.0 413324.0 0
360943.0 415412.0 0
135714.0 417501.0 0
142368.0 416981.0 0
149035.0 416411.0 0
152412.0 417936.0 0
155734.0 415786.0 0
159115.0 417306.0 0
165722.0 416603.0 0
172271.0 415822.0 0
175635.0 417401.0 0
178814.0 415045.0 0
182225.0 416711.0 0
188829.0 416162.0 0
195546.0 415915.0 0
202685.0 415056.0 0
206590.0 414511.0 0
210529.0 414696.0 0
214473.0 414645.0 0
218418.0 414660.0 0
222362.0 414657.0 0
226307.0 414657.0 0
230254.0 414654.0 0
234202.0 414656.0 0
238150.0 414653.0 0
242100.0 414655.0 0
246050.0 414652.0 0
250000.0 414655.0 0
253950.0 414652.0 0
257900.0 414655.0 0
261850.0 414653.0 0
265798.0 414656.0 0
269746.0 414654.0 0
273693.0 414657.0 0
277638.0 414657.0 0
281582.0 414660.0 0
285527.0 414645.0 0
289471.0 414696.0 0
293410.0 414511.0 0
297315.0 415056.0 0
304454.0 415915.0 0
311171.0 416162.0 0
317775.0 416711.0 0
321186.0 415045.0 0
324365.0 417401.0 0
327729.0 415822.0 0
334278.0 416603.0 0
340885.0 417306.0 0
344266.0 415786.0 0
347588.0 417936.0 0
350965.0 416411.0 0
357632.0 416981.0 0
364286.0 417501.0 0
132364.0 419594.0 0
139032.0 419072.0 0
142376.0 420664.0 0
145704.0 418562.0 0
149074.0 420070.0 0
155820.0 419469.0 0
162497.0 418873.0 0
169080.0 418184.0 0
172442.0 419749.0 0
179016.0 419006.0 0
185640.0 418452.0 0
192255.0 418031.0 0
195601.0 420070.0 0
198930.0 417920.0 0
202684.0 419073.0 0
206574.0 418484.0 0
210508.0 418700.0 0
214449.0 418642.0 0
218393.0 418661.0 0
222343.0 418657.0 0
226294.0 418657.0 0
230246.0 418655.0 0
234197.0 418656.0 0
238148.0 418653.0 0
242099.0 418655.0 0
246050.0 418652.0 0
250000.0 418655.0 0
253950.0 418652.0 0
257901.0 418655.0 0
261852.0 418653.0 0
265803.0 418656.0 0
269754.0 418655.0 0
273706.0 418657.0 0
277657.0 418657.0 0
281607.0 418661.0 0
285551.0 418642.0 0
289492.0 418700.0 0
293426.0 418484.0 0
297316.0 419073.0 0
301070.0 417920.0 0
304399.0 420070.0 0
307745.0 418031.0 0
314360.0 418452.0 0
320984.0 419006.0 0
327558.0 419749.0 0
330920.0 418184.0 0
337503.0 418873.0 0
344180.0 419469.0 0
350926.0 420070.0 0
354296.0 418562.0 0
357624.0 420664.0 0
360968.0 419072.0 0
367636.0 419594.0 0
129003.0 421693.0 0
132312.0 423230.0 0
135681.0 421152.0 0
139023.0 422752.0 0
145747.0 422288.0 0
152503.0 421606.0 0
155941.0 423169.0 0
159236.0 421052.0 0
162648.0 422694.0 0
165871.0 420468.0 0
169243.0 422075.0 0
175807.0 421340.0 0
182408.0 420686.0 0
185795.0 422444.0 0
189044.0 420263.0 0
192341.0 422295.0 0
199065.0 421919.0 0
300935.0 421919.0 0
307659.0 422295.0 0
310956.0 420263.0 0
314205.0 422444.0 0
317592.0 420686.0 0
324193.0 421340.0 0
330757.0 422075.0 0
334129.0 420468.0 0
337352.0 422694.0 0
340764.0 421052.0 0
344059.0 423169.0 0
347497.0 421606.0 0
354253.0 422288.0 0
360977.0 422752.0 0
364319.0 421152.0 0
367688.0 423230.0 0
370997.0 421693.0 0
121969.0 426097.0 0
125631.0 423798.0 0
128922.0 425307.0 0
135646.0 424815.0 0
142395.0 424362.0 0
145781.0 426079.0 0
149179.0 423717.0 0
152633.0 425305.0 0
159391.0 424818.0 0
166044.0 424360.0 0
172618.0 423687.0 0
175990.0 425287.0 0
179184.0 422946.0 0
182563.0 424652.0 0
189053.0 424464.0 0
195774.0 424132.0 0
202769.0 423215.0 0
206626.0 422455.0 0
210552.0 422715.0 0
214489.0 422639.0 0
218429.0 422662.0 0
222371.0 422657.0 0
226315.0 422657.0 0
230260.0 422655.0 0
234207.0 422656.0 0
238155.0 422653.0 0
242103.0 422655.0 0
246052.0 422652.0 0
250000.0 422655.0 0
253948.0 422652.0 0
257897.0 422655.0 0
261845.0 422653.0 0
265793.0 422656.0 0
269740.0 422655.0 0
273685.0 422657.0 0
277629.0 422657.0 0
281571.0 422662.0 0
285511.0 422639.0 0
289448.0 422715.0 0
293374.0 422455.0 0
297231.0 423215.0 0
304226.0 424132.0 0
310947.0 424464.0 0
317437.0 424652.0 0
320816.0 422946.0 0
324010.0 425287.0 0
327382.0 423687.0 0
333956.0 424360.0 0
340609.0 424818.0 0
347367.0 425305.0 0
350821.0 423717.0 0
354219.0 426079.0 0
357605.0 424362.0 0
364354.0 424815.0 0
371078.0 425307.0 0
374369.0 423798.0 0
378031.0 426097.0 0
118600.0 428202.0 0
125421.0 427373.0 0
132237.0 426874.0 0
135579.0 428482.0 0
139006.0 426451.0 0
142407.0 428055.0 0
149311.0 427338.0 0
156083.0 426868.0 0
162832.0 426552.0 0
166250.0 428294.0 0
169444.0 425992.0 0
172877.0 427656.0 0
179352.0 426865.0 0
185782.0 426641.0 0
192446.0 426287.0 0
199224.0 425981.0 0
202874.0 427423.0 0
206679.0 426427.0 0
210602.0 426739.0 0
214535.0 426634.0 0
218471.0 426665.0 0
222408.0 426658.0 0
226346.0 426657.0 0
230286.0 426656.0 0
234227.0 426656.0 0
238169.0 426653.0 0
242112.0 426655.0 0
246056.0 426652.0 0
250000.0 426655.0 0
253944.0 426652.0 0
257888.0 426655.0 0
261831.0 426653.0 0
265773.0 426656.0 0
269714.0 426656.0 0
273654.0 426657.0 0
277592.0 426658.0 0
281529.0 426665.0 0
285465.0 426634.0 0
289398.0 426739.0 0
293321.0 426427.0 0
297126.0 427423.0 0
300776.0 425981.0 0
307554.0 426287.0 0
314218.0 426641.0 0
320648.0 426865.0 0
327123.0 427656.0 0
330556.0 425992.0 0
333750.0 428294.0 0
337168.0 426552.0 0
343917.0 426868.0 0
350689.0 427338.0 0
357593.0 428055.0 0
360994.0 426451.0 0
364421.0 428482.0 0
367763.0 426874.0 0
374579.0 427373.0 0
381400.0 428202.0 0
115224.0 430312.0 0
121915.0 429825.0 0
125412.0 430995.0 0
128796.0 428923.0 0
132143.0 430524.0 0
138912.0 430172.0 0
145771.0 429946.0 0
149413.0 430912.0 0
152769.0 429061.0 0
156228.0 430512.0 0
159578.0 428596.0 0
163046.0 430459.0 0
169706.0 429891.0 0
176335.0 429270.0 0
182504.0 428784.0 0
189117.0 428458.0 0
192516.0 430261.0 0
195870.0 428122.0 0
199300.0 429991.0 0
300700.0 429991.0 0
304130.0 428122.0 0
307484.0 430261.0 0
310883.0 428458.0 0
317496.0 428784.0 0
323665.0 429270.0 0
330294.0 429891.0 0
336954.0 430459.0 0
340422.0 428596.0 0
343772.0 430512.0 0
347231.0 429061.0 0
350587.0 430912.0 0
354229.0 429946.0 0
361088.0 430172.0 0
367857.0 430524.0 0
371204.0 428923.0 0
374588.0 430995.0 0
378085.0 429825.0 0
384776.0 430312.0 0
111845.0 432424.0 0
115178.0 434039.0 0
118544.0 431922.0 0
121856.0 433581.0 0
128772.0 432595.0 0
135456.0 432169.0 0
142327.0 431704.0 0
145478.0 433893.0 0
152726.0 432955.0 0
159671.0 432372.0 0
166434.0 432527.0 0
174347.0 432673.0 0
178329.0 432599.0 0
182218.0 432689.0 0
185728.0 430774.0 0
189164.0 432418.0 0
195925.0 432108.0 0
202923.0 431476.0 0
206701.0 430403.0 0
210618.0 430757.0 0
214549.0 430630.0 0
218484.0 430667.0 0
222420.0 430657.0 0
226358.0 430657.0 0
230296.0 430656.0 0
234236.0 430656.0 0
238176.0 430654.0 0
242117.0 430655.0 0
246058.0 430652.0 0
250000.0 430655.0 0
253942.0 430652.0 0
257883.0 430655.0 0
261824.0 430654.0 0
265764.0 430656.0 0
269704.0 430656.0 0
273642.0 430657.0 0
277580.0 430657.0 0
281516.0 430667.0 0
285451.0 430630.0 0
289382.0 430757.0 0
293299.0 430403.0 0
297077.0 431476.0 0
304075.0 432108.0 0
310836.0 432418.0 0
314272.0 430774.0 0
317782.0 432689.0 0
321671.0 432599.0 0
325653.0 432673.0 0
333566.0 432527.0 0
340329.0 432372.0 0
347274.0 432955.0 0
354522.0 433893.0 0
357673.0 431704.0 0
364544.0 432169.0 0
371228.0 432595.0 0
378144.0 433581.0 0
381456.0 431922.0 0
384822.0 434039.0 0
388155.0 432424.0 0
105064.0 436667.0 0
108456.0 434544.0 0
111805.0 436144.0 0
118505.0 435682.0 0
125393.0 434647.0 0
128756.0 436292.0 0
132128.0 434239.0 0
135489.0 435961.0 0
138666.0 433912.0 0
141891.0 435286.0 0
149176.0 434422.0 0
156337.0 434060.0 0
162897.0 434355.0 0
170524.0 433568.0 0
185360.0 434962.0 0
192551.0 434223.0 0
199337.0 433995.0 0
202964.0 435460.0 0
206737.0 434385.0 0
210645.0 434781.0 0
214571.0 434626.0 0
218501.0 434668.0 0
222433.0 434657.0 0
226367.0 434657.0 0
230303.0 434656.0 0
234240.0 434656.0 0
238179.0 434654.0 0
242119.0 434655.0 0
246059.0 434652.0 0
250000.0 434655.0 0
253941.0 434652.0 0
257881.0 434655.0 0
261821.0 434654.0 0
265760.0 434656.0 0
269697.0 434656.0 0
273633.0 434657.0 0
277567.0 434657.0 0
281499.0 434668.0 0
285429.0 434626.0 0
289355.0 434781.0 0
293263.0 434385.0 0
297036.0 435460.0 0
300663.0 433995.0 0
307449.0 434223.0 0
314640.0 434962.0 0
329476.0 433568.0 0
337103.0 434355.0 0
343663.0 434060.0 0
350824.0 434422.0 0
358109.0 435286.0 0
361334.0 433912.0 0
364511.0 435961.0 0
367872.0 434239.0 0
371244.0 436292.0 0
374607.0 434647.0 0
381495.0 435682.0 0
388195.0 436144.0 0
391544.0 434544.0 0
394936.0 436667.0 0
101514.0 438895.0 0
108425.0 438296.0 0
115158.0 437813.0 0
121837.0 437362.0 0
125431.0 438323.0 0
132079.0 437954.0 0
138945.0 437836.0 0
143665.0 438146.0 0
147333.0 437645.0 0
151226.0 437420.0 0
154938.0 437237.0 0
159400.0 436290.0 0
164806.0 437596.0 0
168610.0 436913.0 0
172581.0 436886.0 0
176440.0 436040.0 0
180452.0 436273.0 0
189020.0 436366.0 0
192522.0 438164.0 0
195944.0 436088.0 0
304056.0 436088.0 0
307478.0 438164.0 0
310980.0 436366.0 0
319548.0 436273.0 0
323560.0 436040.0 0
327419.0 436886.0 0
331390.0 436913.0 0
335194.0 437596.0 0
340600.0 436290.0 0
345062.0 437237.0 0
348774.0 437420.0 0
352667.0 437645.0 0
356335.0 438146.0 0
361055.0 437836.0 0
367921.0 437954.0 0
374569.0 438323.0 0
378163.0 437362.0 0
384842.0 437813.0 0
391575.0 438296.0 0
398486.0 438895.0 0
97967.0 441108.0 0
104991.0 440451.0 0
108412.0 442096.0 0
111811.0 439886.0 0
115186.0 441654.0 0
118493.0 439476.0 0
121834.0 441163.0 0
128829.0 440059.0 0
135349.0 439621.0 0
141792.0 441331.0 0
145686.0 441200.0 0
149491.0 440846.0 0
153363.0 440605.0 0
157497.0 439951.0 0
161397.0 439500.0 0
166734.0 440920.0 0
170546.0 440326.0 0
174372.0 440386.0 0
178138.0 439584.0 0
181921.0 440237.0 0
185577.0 438898.0 0
189218.0 440318.0 0
195933.0 440051.0 0
199354.0 437993.0 0
203005.0 439425.0 0
206793.0 438374.0 0
210703.0 438803.0 0
214632.0 438622.0 0
218563.0 438689.0 0
222494.0 438656.0 0
226425.0 438665.0 0
230355.0 438659.0 0
234285.0 438658.0 0
238214.0 438653.0 0
242143.0 438656.0 0
246071.0 438652.0 0
250000.0 438655.0 0
253929.0 438652.0 0
257857.0 438656.0 0
261786.0 438653.0 0
265715.0 438658.0 0
269645.0 438659.0 0
273575.0 438665.0 0
277506.0 438656.0 0
281437.0 438689.0 0
285368.0 438622.0 0
289297.0 438803.0 0
293207.0 438374.0 0
296995.0 439425.0 0
300646.0 437993.0 0
304067.0 440051.0 0
310782.0 440318.0 0
314423.0 438898.0 0
318079.0 440237.0 0
321862.0 439584.0 0
325628.0 440386.0 0
329454.0 440326.0 0
333266.0 440920.0 0
338603.0 439500.0 0
342503.0 439951.0 0
346637.0 440605.0 0
350509.0 440846.0 0
354314.0 441200.0 0
358208.0 441331.0 0
364651.0 439621.0 0
371171.0 440059.0 0
378166.0 441163.0 0
381507.0 439476.0 0
384814.0 441654.0 0
388189.0 439886.0 0
391588.0 442096.0 0
395009.0 440451.0 0
402033.0 441108.0 0
91267.5 445308.0 0
94626.9 443216.0 0
101333.0 442768.0 0
104711.0 444286.0 0
111869.0 443615.0 0
118513.0 443304.0 0
125479.0 441980.0 0
128858.0 443852.0 0
132243.0 441764.0 0
138149.0 441619.0 0
155581.0 443611.0 0
159472.0 443188.0 0
163331.0 442758.0 0
184577.0 443138.0 0
192127.0 442979.0 0
199346.0 441985.0 0
203012.0 443378.0 0
206806.0 442369.0 0
210712.0 442799.0 0
214636.0 442621.0 0
218564.0 442688.0 0
222493.0 442655.0 0
226421.0 442664.0 0
230350.0 442659.0 0
234280.0 442658.0 0
238209.0 442654.0 0
242140.0 442656.0 0
246070.0 442652.0 0
250000.0 442655.0 0
253930.0 442652.0 0
257860.0 442656.0 0
261791.0 442654.0 0
265720.0 442658.0 0
269650.0 442659.0 0
273579.0 442664.0 0
277507.0 442655.0 0
281436.0 442688.0 0
285364.0 442621.0 0
289288.0 442799.0 0
293194.0 442369.0 0
296988.0 443378.0 0
300654.0 441985.0 0
307873.0 442979.0 0
315423.0 443138.0 0
336669.0 442758.0 0
340528.0 443188.0 0
344419.0 443611.0 0
361851.0 441619.0 0
367757.0 441764.0 0
371142.0 443852.0 0
374521.0 441980.0 0
381487.0 443304.0 0
388131.0 443615.0 0
395289.0 444286.0 0
398667.0 442768.0 0
405373.0 443216.0 0
408732.0 445308.0 0
87896.1 447420.0 0
98103.1 444993.0 0
107954.0 445924.0 0
115141.0 445633.0 0
121906.0 444974.0 0
125539.0 445602.0 0
132170.0 445409.0 0
135939.0 444751.0 0
139916.0 444804.0 0
143801.0 444566.0 0
147730.0 444336.0 0
151628.0 444026.0 0
161672.0 446347.0 0
165593.0 445813.0 0
169111.0 444047.0 0
173020.0 444120.0 0
176898.0 443386.0 0
180740.0 444046.0 0
188348.0 444156.0 0
195920.0 444002.0 0
304080.0 444002.0 0
311652.0 444156.0 0
319260.0 444046.0 0
323102.0 443386.0 0
326980.0 444120.0 0
330889.0 444047.0 0
334407.0 445813.0 0
338328.0 446347.0 0
348372.0 444026.0 0
352270.0 444336.0 0
356199.0 444566.0 0
360084.0 444804.0 0
364061.0 444751.0 0
367830.0 445409.0 0
374461.0 445602.0 0
378094.0 444974.0 0
384859.0 445633.0 0
392046.0 445924.0 0
401897.0 444993.0 0
412104.0 447420.0 0
91427.2 449271.0 0
94765.8 447116.0 0
98337.1 448882.0 0
101664.0 446729.0 0
105292.0 448718.0 0
111274.0 447245.0 0
113814.0 449628.0 0
118706.0 447107.0 0
122162.0 448861.0 0
126049.0 449039.0 0
129865.0 448464.0 0
134089.0 448429.0 0
137942.0 448113.0 0
141915.0 447984.0 0
145864.0 447751.0 0
149826.0 447491.0 0
153789.0 447141.0 0
157742.0 446751.0 0
167902.0 448868.0 0
171712.0 447882.0 0
175598.0 447138.0 0
179483.0 447837.0 0
183360.0 447009.0 0
187192.0 447928.0 0
191066.0 447008.0 0
194921.0 447840.0 0
198749.0 446744.0 0
202653.0 447300.0 0
206506.0 446484.0 0
210438.0 446781.0 0
214380.0 446638.0 0
218328.0 446680.0 0
222280.0 446656.0 0
226234.0 446660.0 0
230191.0 446656.0 0
234151.0 446656.0 0
238111.0 446654.0 0
242074.0 446655.0 0
246037.0 446653.0 0
250000.0 446654.0 0
253963.0 446653.0 0
257926.0 446655.0 0
261889.0 446654.0 0
265849.0 446656.0 0
269809.0 446656.0 0
273766.0 446660.0 0
277720.0 446656.0 0
281672.0 446680.0 0
285620.0 446638.0 0
289562.0 446781.0 0
293494.0 446484.0 0
297347.0 447300.0 0
301251.0 446744.0 0
305079.0 447840.0 0
308934.0 447008.0 0
312808.0 447928.0 0
316640.0 447009.0 0
320517.0 447837.0 0
324402.0 447138.0 0
328288.0 447882.0 0
332098.0 448868.0 0
342258.0 446751.0 0
346211.0 447141.0 0
350174.0 447491.0 0
354136.0 447751.0 0
358085.0 447984.0 0
362058.0 448113.0 0
365911.0 448429.0 0
370135.0 448464.0 0
373951.0 449039.0 0
377838.0 448861.0 0
381294.0 447107.0 0
386186.0 449628.0 0
388726.0 447245.0 0
394708.0 448718.0 0
398336.0 446729.0 0
401663.0 448882.0 0
405234.0 447116.0 0
408573.0 449271.0 0
95007.4 451065.0 0
101912.0 450690.0 0
109089.0 450475.0 0
117250.0 450545.0 0
132038.0 451724.0 0
136044.0 451597.0 0
139988.0 451365.0 0
143973.0 451176.0 0
147952.0 450934.0 0
151943.0 450648.0 0
155965.0 450278.0 0
159942.0 449917.0 0
163973.0 449454.0 0
174325.0 450897.0 0
182136.0 450809.0 0
189898.0 450817.0 0
197755.0 450604.0 0
201700.0 451128.0 0
205983.0 450631.0 0
209981.0 450746.0 0
213999.0 450654.0 0
217999.0 450666.0 0
222000.0 450654.0 0
226000.0 450654.0 0
230000.0 450654.0 0
234000.0 450654.0 0
238000.0 450654.0 0
242000.0 450654.0 0
246000.0 450654.0 0
250000.0 450654.0 0
254000.0 450654.0 0
258000.0 450654.0 0
262000.0 450654.0 0
266000.0 450654.0 0
270000.0 450654.0 0
274000.0 450654.0 0
278000.0 450654.0 0
282001.0 450666.0 0
286001.0 450654.0 0
290019.0 450746.0 0
294017.0 450631.0 0
298300.0 451128.0 0
302245.0 450604.0 0
310102.0 450817.0 0
317864.0 450809.0 0
325675.0 450897.0 0
336027.0 449454.0 0
340058.0 449917.0 0
344035.0 450278.0 0
348057.0 450648.0 0
352048.0 450934.0 0
356027.0 451176.0 0
360012.0 451365.0 0
363956.0 451597.0 0
367962.0 451724.0 0
382750.0 450545.0 0
390911.0 450475.0 0
398088.0 450690.0 0
404993.0 451065.0 0
98588.1 452796.0 0
105775.0 452625.0 0
113083.0 453395.0 0
120362.0 452371.0 0
124160.0 452246.0 0
128144.0 452050.0 0
150038.0 454131.0 0
154135.0 453782.0 0
158122.0 453460.0 0
162245.0 453026.0 0
166394.0 452533.0 0
170466.0 451789.0 0
178241.0 451629.0 0
186014.0 451715.0 0
193785.0 451650.0 0
306215.0 451650.0 0
313986.0 451715.0 0
321759.0 451629.0 0
329534.0 451789.0 0
333606.0 452533.0 0
337755.0 453026.0 0
341878.0 453460.0 0
345865.0 453782.0 0
349962.0 454131.0 0
371856.0 452050.0 0
375840.0 452246.0 0
379638.0 452371.0 0
386917.0 453395.0 0
394225.0 452625.0 0
401412.0 452796.0 0
95329.5 455057.0 0
98969.9 456709.0 0
102369.0 454639.0 0
106022.0 456559.0 0
109324.0 454413.0 0
116884.0 454380.0 0
122202.0 455649.0 0
126166.0 455444.0 0
130142.0 455229.0 0
134082.0 454992.0 0
138074.0 454804.0 0
142055.0 454592.0 0
146052.0 454385.0 0
160169.0 456734.0 0
164093.0 456440.0 0
167990.0 456115.0 0
171821.0 455468.0 0
175639.0 454645.0 0
179461.0 455492.0 0
183306.0 454625.0 0
187161.0 455529.0 0
191032.0 454624.0 0
194914.0 455459.0 0
198739.0 454455.0 0
202657.0 454976.0 0
206580.0 454583.0 0
210522.0 454705.0 0
214467.0 454653.0 0
218412.0 454658.0 0
222359.0 454656.0 0
226306.0 454656.0 0
230254.0 454655.0 0
234203.0 454655.0 0
238152.0 454654.0 0
242101.0 454654.0 0
246050.0 454654.0 0
250000.0 454654.0 0
253950.0 454654.0 0
257899.0 454654.0 0
261848.0 454654.0 0
265797.0 454655.0 0
269746.0 454655.0 0
273694.0 454656.0 0
277641.0 454656.0 0
281588.0 454658.0 0
285533.0 454653.0 0
289478.0 454705.0 0
293420.0 454583.0 0
297343.0 454976.0 0
301261.0 454455.0 0
305086.0 455459.0 0
308968.0 454624.0 0
312839.0 455529.0 0
316694.0 454625.0 0
320539.0 455492.0 0
324361.0 454645.0 0
328179.0 455468.0 0
332010.0 456115.0 0
335907.0 456440.0 0
339831.0 456734.0 0
353948.0 454385.0 0
357945.0 454592.0 0
361926.0 454804.0 0
365918.0 454992.0 0
369858.0 455229.0 0
373834.0 455444.0 0
377798.0 455649.0 0
383116.0 454380.0 0
390676.0 454413.0 0
393978.0 456559.0 0
397631.0 454639.0 0
401030.0 456709.0 0
404671.0 455057.0 0
102629.0 458609.0 0
109811.0 458329.0 0
114045.0 457175.0 0
118858.0 457683.0 0
124182.0 458863.0 0
128166.0 458662.0 0
132147.0 458466.0 0
136137.0 458226.0 0
140133.0 458031.0 0
144125.0 457828.0 0
148136.0 457619.0 0
152245.0 457277.0 0
156220.0 457009.0 0
174196.0 458596.0 0
182009.0 458533.0 0
189792.0 458504.0 0
197893.0 458604.0 0
201880.0 458872.0 0
205999.0 458654.0 0
209998.0 458668.0 0
214000.0 458654.0 0
218000.0 458654.0 0
222000.0 458654.0 0
226000.0 458654.0 0
230000.0 458654.0 0
234000.0 458654.0 0
238000.0 458654.0 0
242000.0 458654.0 0
246000.0 458654.0 0
250000.0 458654.0 0
254000.0 458654.0 0
258000.0 458654.0 0
262000.0 458654.0 0
266000.0 458654.0 0
270000.0 458654.0 0
274000.0 458654.0 0
278000.0 458654.0 0
282000.0 458654.0 0
286000.0 458654.0 0
290002.0 458668.0 0
294001.0 458654.0 0
298120.0 458872.0 0
302107.0 458604.0 0
310208.0 458504.0 0
317991.0 458533.0 0
325804.0 458596.0 0
343780.0 457009.0 0
347755.0 457277.0 0
351864.0 457619.0 0
355875.0 457828.0 0
359867.0 458031.0 0
363863.0 458226.0 0
367853.0 458466.0 0
371834.0 458662.0 0
375818.0 458863.0 0
381142.0 457683.0 0
385955.0 457175.0 0
390189.0 458329.0 0
397371.0 458609.0 0
99202.3 460643.0 0
106460.0 460468.0 0
112786.0 460939.0 0
116755.0 460981.0 0
120869.0 461030.0 0
126167.0 462093.0 0
130153.0 461921.0 0
134224.0 461673.0 0
138209.0 461474.0 0
142201.0 461284.0 0
146196.0 461088.0 0
150370.0 460781.0 0
154359.0 460528.0 0
158341.0 460270.0 0
162318.0 459996.0 0
166295.0 459700.0 0
170280.0 459362.0 0
178107.0 459268.0 0
185897.0 459320.0 0
193699.0 459231.0 0
306301.0 459231.0 0
314103.0 459320.0 0
321893.0 459268.0 0
329720.0 459362.0 0
333705.0 459700.0 0
337682.0 459996.0 0
341659.0 460270.0 0
345641.0 460528.0 0
349630.0 460781.0 0
353804.0 461088.0 0
357799.0 461284.0 0
361791.0 461474.0 0
365776.0 461673.0 0
369847.0 461921.0 0
373833.0 462093.0 0
379131.0 461030.0 0
383245.0 460981.0 0
387214.0 460939.0 0
393540.0 460468.0 0
400798.0 460643.0 0
99622.1 464577.0 0
103072.0 462568.0 0
110619.0 464275.0 0
114766.0 464394.0 0
118791.0 464399.0 0
122923.0 464392.0 0
144256.0 464567.0 0
148227.0 464397.0 0
152172.0 464226.0 0
156106.0 464011.0 0
160034.0 463792.0 0
163950.0 463556.0 0
167865.0 463310.0 0
171760.0 463366.0 0
175542.0 462322.0 0
179359.0 463264.0 0
183184.0 462335.0 0
187042.0 463147.0 0
190899.0 462329.0 0
194780.0 463052.0 0
198680.0 462521.0 0
202610.0 462788.0 0
206545.0 462633.0 0
210485.0 462663.0 0
214428.0 462658.0 0
218374.0 462657.0 0
222321.0 462657.0 0
226271.0 462656.0 0
230223.0 462655.0 0
234176.0 462655.0 0
238131.0 462654.0 0
242087.0 462654.0 0
246043.0 462654.0 0
250000.0 462654.0 0
253957.0 462654.0 0
257913.0 462654.0 0
261869.0 462654.0 0
265824.0 462655.0 0
269777.0 462655.0 0
273729.0 462656.0 0
277679.0 462657.0 0
281626.0 462657.0 0
285572.0 462658.0 0
289515.0 462663.0 0
293455.0 462633.0 0
297390.0 462788.0 0
301320.0 462521.0 0
305220.0 463052.0 0
309101.0 462329.0 0
312958.0 463147.0 0
316816.0 462335.0 0
320641.0 463264.0 0
324458.0 462322.0 0
328240.0 463366.0 0
332135.0 463310.0 0
336050.0 463556.0 0
339966.0 463792.0 0
343894.0 464011.0 0
347828.0 464226.0 0
351773.0 464397.0 0
355744.0 464567.0 0
377077.0 464392.0 0
381209.0 464399.0 0
385234.0 464394.0 0
389381.0 464275.0 0
396928.0 462568.0 0
400378.0 464577.0 0
106627.0 464402.0 0
128126.0 465366.0 0
132293.0 465107.0 0
136285.0 464929.0 0
140272.0 464747.0 0
166097.0 466866.0 0
173978.0 466659.0 0
326022.0 466659.0 0
333903.0 466866.0 0
359728.0 464747.0 0
363715.0 464929.0 0
367707.0 465107.0 0
371874.0 465366.0 0
393373.0 464402.0 0
99558.5 468550.0 0
104239.0 467574.0 0
108709.0 467780.0 0
112693.0 467767.0 0
116795.0 467825.0 0
120869.0 467799.0 0
124956.0 467796.0 0
130317.0 468523.0 0
134351.0 468379.0 0
138349.0 468215.0 0
142338.0 468046.0 0
146319.0 467888.0 0
150294.0 467739.0 0
154261.0 467548.0 0
158213.0 467330.0 0
162159.0 467119.0 0
170039.0 467021.0 0
177918.0 466973.0 0
181873.0 466606.0 0
185836.0 466938.0 0
189805.0 466637.0 0
193786.0 466892.0 0
197970.0 466648.0 0
201967.0 466720.0 0
206000.0 466654.0 0
210000.0 466654.0 0
214000.0 466654.0 0
218000.0 466654.0 0
222000.0 466654.0 0
226000.0 466654.0 0
230000.0 466654.0 0
234000.0 466654.0 0
238000.0 466654.0 0
242000.0 466654.0 0
246000.0 466654.0 0
250000.0 466654.0 0
254000.0 466654.0 0
258000.0 466654.0 0
262000.0 466654.0 0
266000.0 466654.0 0
270000.0 466654.0 0
274000.0 466654.0 0
278000.0 466654.0 0
282000.0 466654.0 0
286000.0 466654.0 0
290000.0 466654.0 0
294000.0 466654.0 0
298033.0 466720.0 0
302030.0 466648.0 0
306214.0 466892.0 0
310195.0 466637.0 0
314164.0 466938.0 0
318127.0 466606.0 0
322082.0 466973.0 0
329961.0 467021.0 0
337841.0 467119.0 0
341787.0 467330.0 0
345739.0 467548.0 0
349706.0 467739.0 0
353681.0 467888.0 0
357662.0 468046.0 0
361651.0 468215.0 0
365649.0 468379.0 0
369683.0 468523.0 0
375044.0 467796.0 0
379131.0 467799.0 0
383205.0 467825.0 0
387307.0 467767.0 0
391291.0 467780.0 0
395761.0 467574.0 0
400442.0 468550.0 0
102561.0 471180.0 0
106557.0 471134.0 0
110718.0 471226.0 0
114715.0 471208.0 0
118861.0 471239.0 0
122903.0 471235.0 0
126953.0 471242.0 0
131457.0 472189.0 0
135436.0 472087.0 0
139405.0 471955.0 0
143375.0 471810.0 0
147345.0 471672.0 0
151311.0 471550.0 0
155249.0 471371.0 0
159167.0 471159.0 0
163070.0 470980.0 0
166967.0 470729.0 0
170866.0 470933.0 0
174761.0 470566.0 0
178669.0 470886.0 0
182579.0 470540.0 0
186501.0 470865.0 0
190430.0 470587.0 0
194370.0 470825.0 0
198314.0 470632.0 0
202269.0 470699.0 0
206228.0 470653.0 0
210194.0 470656.0 0
214163.0 470655.0 0
218136.0 470655.0 0
222113.0 470654.0 0
226092.0 470654.0 0
230074.0 470654.0 0
234057.0 470654.0 0
238041.0 470654.0 0
242027.0 470654.0 0
246013.0 470654.0 0
250000.0 470654.0 0
253987.0 470654.0 0
257973.0 470654.0 0
261959.0 470654.0 0
265943.0 470654.0 0
269926.0 470654.0 0
273908.0 470654.0 0
277887.0 470654.0 0
281864.0 470655.0 0
285837.0 470655.0 0
289806.0 470656.0 0
293772.0 470653.0 0
297731.0 470699.0 0
301686.0 470632.0 0
305630.0 470825.0 0
309570.0 470587.0 0
313499.0 470865.0 0
317421.0 470540.0 0
321331.0 470886.0 0
325239.0 470566.0 0
329134.0 470933.0 0
333033.0 470729.0 0
336930.0 470980.0 0
340833.0 471159.0 0
344751.0 471371.0 0
348689.0 471550.0 0
352655.0 471672.0 0
356625.0 471810.0 0
360595.0 471955.0 0
364564.0 472087.0 0
368543.0 472189.0 0
373047.0 471242.0 0
377097.0 471235.0 0
381139.0 471239.0 0
385285.0 471208.0 0
389282.0 471226.0 0
393443.0 471134.0 0
397439.0 471180.0 0
101354.0 474976.0 0
105352.0 474943.0 0
109342.0 474966.0 0
113330.0 474938.0 0
117319.0 474915.0 0
121308.0 474916.0 0
125289.0 474877.0 0
129221.0 475448.0 0
133476.0 475530.0 0
137474.0 475428.0 0
141462.0 475294.0 0
145445.0 475164.0 0
149430.0 475036.0 0
153507.0 474942.0 0
157632.0 474820.0 0
161917.0 474792.0 0
165928.0 474645.0 0
169923.0 474810.0 0
173944.0 474647.0 0
177939.0 474798.0 0
181947.0 474650.0 0
185942.0 474804.0 0
189968.0 474651.0 0
193964.0 474781.0 0
197996.0 474653.0 0
201995.0 474681.0 0
206000.0 474654.0 0
210000.0 474654.0 0
214000.0 474654.0 0
218000.0 474654.0 0
222000.0 474654.0 0
226000.0 474654.0 0
230000.0 474654.0 0
234000.0 474654.0 0
238000.0 474654.0 0
242000.0 474654.0 0
246000.0 474654.0 0
250000.0 474654.0 0
254000.0 474654.0 0
258000.0 474654.0 0
262000.0 474654.0 0
266000.0 474654.0 0
270000.0 474654.0 0
274000.0 474654.0 0
278000.0 474654.0 0
282000.0 474654.0 0
286000.0 474654.0 0
290000.0 474654.0 0
294000.0 474654.0 0
298005.0 474681.0 0
302004.0 474653.0 0
306036.0 474781.0 0
310032.0 474651.0 0
314058.0 474804.0 0
318053.0 474650.0 0
322061.0 474798.0 0
326056.0 474647.0 0
330077.0 474810.0 0
334072.0 474645.0 0
338083.0 474792.0 0
342368.0 474820.0 0
346493.0 474942.0 0
350570.0 475036.0 0
354555.0 475164.0 0
358538.0 475294.0 0
362526.0 475428.0 0
366524.0 475530.0 0
370779.0 475448.0 0
374711.0 474877.0 0
378692.0 474916.0 0
382681.0 474915.0 0
386670.0 474938.0 0
390658.0 474966.0 0
394648.0 474943.0 0
398646.0 474976.0 0
102063.0 478901.0 0
106062.0 478878.0 0
110085.0 478888.0 0
114085.0 478850.0 0
118083.0 478831.0 0
122080.0 478850.0 0
126079.0 478881.0 0
130476.0 479216.0 0
134489.0 479303.0 0
138469.0 479223.0 0
142434.0 479103.0 0
146390.0 478995.0 0
150341.0 478878.0 0
154289.0 478848.0 0
158244.0 478752.0 0
162204.0 478772.0 0
166168.0 478637.0 0
170139.0 478795.0 0
174115.0 478643.0 0
178096.0 478778.0 0
182080.0 478647.0 0
186066.0 478784.0 0
190054.0 478650.0 0
194044.0 478759.0 0
198035.0 478653.0 0
202029.0 478674.0 0
206024.0 478654.0 0
210019.0 478654.0 0
214016.0 478654.0 0
218013.0 478654.0 0
222010.0 478654.0 0
226008.0 478654.0 0
230006.0 478654.0 0
234005.0 478654.0 0
238003.0 478654.0 0
242002.0 478654.0 0
246001.0 478654.0 0
250000.0 478654.0 0
253999.0 478654.0 0
257998.0 478654.0 0
261997.0 478654.0 0
265995.0 478654.0 0
269994.0 478654.0 0
273992.0 478654.0 0
277990.0 478654.0 0
281987.0 478654.0 0
285984.0 478654.0 0
289981.0 478654.0 0
293976.0 478654.0 0
297971.0 478674.0 0
301965.0 478653.0 0
305956.0 478759.0 0
309946.0 478650.0 0
313934.0 478784.0 0
317920.0 478647.0 0
321904.0 478778.0 0
325885.0 478643.0 0
329861.0 478795.0 0
333832.0 478637.0 0
337796.0 478772.0 0
341756.0 478752.0 0
345711.0 478848.0 0
349659.0 478878.0 0
353610.0 478995.0 0
357566.0 479103.0 0
361531.0 479223.0 0
365511.0 479303.0 0
369524.0 479216.0 0
373921.0 478881.0 0
377920.0 478850.0 0
381917.0 478831.0 0
385915.0 478850.0 0
389915.0 478888.0 0
393938.0 478878.0 0
397937.0 478901.0 0
101939.0 482889.0 0
105938.0 482875.0 0
109934.0 482877.0 0
113928.0 482834.0 0
117921.0 482818.0 0
121911.0 482846.0 0
125897.0 482876.0 0
129870.0 483143.0 0
133852.0 483176.0 0
137842.0 483113.0 0
141837.0 483003.0 0
145899.0 482924.0 0
149931.0 482820.0 0
153959.0 482817.0 0
157977.0 482724.0 0
161992.0 482758.0 0
165994.0 482653.0 0
169992.0 482781.0 0
173997.0 482654.0 0
177995.0 482761.0 0
181997.0 482654.0 0
185996.0 482766.0 0
189999.0 482654.0 0
193998.0 482740.0 0
198000.0 482654.0 0
202000.0 482669.0 0
206000.0 482654.0 0
210000.0 482654.0 0
214000.0 482654.0 0
218000.0 482654.0 0
222000.0 482654.0 0
226000.0 482654.0 0
230000.0 482654.0 0
234000.0 482654.0 0
238000.0 482654.0 0
242000.0 482654.0 0
246000.0 482654.0 0
250000.0 482654.0 0
254000.0 482654.0 0
258000.0 482654.0 0
262000.0 482654.0 0
266000.0 482654.0 0
270000.0 482654.0 0
274000.0 482654.0 0
278000.0 482654.0 0
282000.0 482654.0 0
286000.0 482654.0 0
290000.0 482654.0 0
294000.0 482654.0 0
298000.0 482669.0 0
302000.0 482654.0 0
306002.0 482740.0 0
310001.0 482654.0 0
314004.0 482766.0 0
318003.0 482654.0 0
322005.0 482761.0 0
326003.0 482654.0 0
330008.0 482781.0 0
334006.0 482653.0 0
338008.0 482758.0 0
342023.0 482724.0 0
346041.0 482817.0 0
350069.0 482820.0 0
354101.0 482924.0 0
358163.0 483003.0 0
362158.0 483113.0 0
366148.0 483176.0 0
370130.0 483143.0 0
374103.0 482876.0 0
378089.0 482846.0 0
382079.0 482818.0 0
386072.0 482834.0 0
390066.0 482877.0 0
394062.0 482875.0 0
398061.0 482889.0 0
102005.0 486880.0 0
106005.0 486872.0 0
110006.0 486868.0 0
114007.0 486822.0 0
118007.0 486807.0 0
122007.0 486843.0 0
126010.0 486873.0 0
130043.0 487110.0 0
134044.0 487109.0 0
138041.0 487058.0 0
142037.0 486953.0 0
146032.0 486889.0 0
150026.0 486791.0 0
154023.0 486800.0 0
158018.0 486708.0 0
162016.0 486752.0 0
166012.0 486653.0 0
170009.0 486769.0 0
174007.0 486653.0 0
178005.0 486748.0 0
182003.0 486654.0 0
186002.0 486751.0 0
190000.0 486654.0 0
194000.0 486725.0 0
198000.0 486654.0 0
202000.0 486665.0 0
206000.0 486654.0 0
210000.0 486654.0 0
214000.0 486654.0 0
218000.0 486654.0 0
222000.0 486654.0 0
226000.0 486654.0 0
230000.0 486654.0 0
234000.0 486654.0 0
238000.0 486654.0 0
242000.0 486654.0 0
246000.0 486654.0 0
250000.0 486654.0 0
254000.0 486654.0 0
258000.0 486654.0 0
262000.0 486654.0 0
266000.0 486654.0 0
270000.0 486654.0 0
274000.0 486654.0 0
278000.0 486654.0 0
282000.0 486654.0 0
286000.0 486654.0 0
290000.0 486654.0 0
294000.0 486654.0 0
298000.0 486665.0 0
302000.0 486654.0 0
306000.0 486725.0 0
310000.0 486654.0 0
313998.0 486751.0 0
317997.0 486654.0 0
321995.0 486748.0 0
325993.0 486653.0 0
329991.0 486769.0 0
333988.0 486653.0 0
337984.0 486752.0 0
341982.0 486708.0 0
345977.0 486800.0 0
349974.0 486791.0 0
353968.0 486889.0 0
357963.0 486953.0 0
361959.0 487058.0 0
365956.0 487109.0 0
369957.0 487110.0 0
373990.0 486873.0 0
377993.0 486843.0 0
381993.0 486807.0 0
385993.0 486822.0 0
389994.0 486868.0 0
393995.0 486872.0 0
397995.0 486880.0 0
101997.0 490871.0 0
105997.0 490869.0 0
109997.0 490860.0 0
113996.0 490812.0 0
117996.0 490798.0 0
121995.0 490840.0 0
125994.0 490870.0 0
129987.0 491079.0 0
133986.0 491055.0 0
137985.0 491015.0 0
141990.0 490916.0 0
145994.0 490863.0 0
149997.0 490770.0 0
153998.0 490784.0 0
157999.0 490694.0 0
162000.0 490746.0 0
166000.0 490654.0 0
170000.0 490758.0 0
174000.0 490654.0 0
178000.0 490737.0 0
182000.0 490654.0 0
186000.0 490738.0 0
190000.0 490654.0 0
194000.0 490712.0 0
198000.0 490654.0 0
202000.0 490662.0 0
206000.0 490654.0 0
210000.0 490654.0 0
214000.0 490654.0 0
218000.0 490654.0 0
222000.0 490654.0 0
226000.0 490654.0 0
230000.0 490654.0 0
234000.0 490654.0 0
238000.0 490654.0 0
242000.0 490654.0 0
246000.0 490654.0 0
250000.0 490654.0 0
254000.0 490654.0 0
258000.0 490654.0 0
262000.0 490654.0 0
266000.0 490654.0 0
270000.0 490654.0 0
274000.0 490654.0 0
278000.0 490654.0 0
282000.0 490654.0 0
286000.0 490654.0 0
290000.0 490654.0 0
294000.0 490654.0 0
298000.0 490662.0 0
302000.0 490654.0 0
306000.0 490712.0 0
310000.0 490654.0 0
314000.0 490738.0 0
318000.0 490654.0 0
322000.0 490737.0 0
326000.0 490654.0 0
330000.0 490758.0 0
334000.0 490654.0 0
338000.0 490746.0 0
342001.0 490694.0 0
346002.0 490784.0 0
350003.0 490770.0 0
354006.0 490863.0 0
358010.0 490916.0 0
362015.0 491015.0 0
366014.0 491055.0 0
370013.0 491079.0 0
374006.0 490870.0 0
378005.0 490840.0 0
382004.0 490798.0 0
386004.0 490812.0 0
390003.0 490860.0 0
394003.0 490869.0 0
398003.0 490871.0 0
102000.0 494863.0 0
106000.0 494865.0 0
110000.0 494852.0 0
114000.0 494803.0 0
118000.0 494790.0 0
122000.0 494837.0 0
126001.0 494867.0 0
130005.0 495048.0 0
134004.0 495009.0 0
138004.0 494979.0 0
142003.0 494884.0 0
146002.0 494841.0 0
150001.0 494753.0 0
154001.0 494770.0 0
158000.0 494683.0 0
162000.0 494741.0 0
166000.0 494654.0 0
170000.0 494748.0 0
174000.0 494654.0 0
178000.0 494727.0 0
182000.0 494654.0 0
186000.0 494726.0 0
190000.0 494654.0 0
194000.0 494701.0 0
198000.0 494654.0 0
202000.0 494659.0 0
206000.0 494654.0 0
210000.0 494654.0 0
214000.0 494654.0 0
218000.0 494654.0 0
222000.0 494654.0 0
226000.0 494654.0 0
230000.0 494654.0 0
234000.0 494654.0 0
238000.0 494654.0 0
242000.0 494654.0 0
246000.0 494654.0 0
250000.0 494654.0 0
254000.0 494654.0 0
258000.0 494654.0 0
262000.0 494654.0 0
266000.0 494654.0 0
270000.0 494654.0 0
274000.0 494654.0 0
278000.0 494654.0 0
282000.0 494654.0 0
286000.0 494654.0 0
290000.0 494654.0 0
294000.0 494654.0 0
298000.0 494659.0 0
302000.0 494654.0 0
306000.0 494701.0 0
310000.0 494654.0 0
314000.0 494726.0 0
318000.0 494654.0 0
322000.0 494727.0 0
326000.0 494654.0 0
330000.0 494748.0 0
334000.0 494654.0 0
338000.0 494741.0 0
342000.0 494683.0 0
345999.0 494770.0 0
349999.0 494753.0 0
353998.0 494841.0 0
357997.0 494884.0 0
361996.0 494979.0 0
365996.0 495009.0 0
369995.0 495048.0 0
373999.0 494867.0 0
378000.0 494837.0 0
382000.0 494790.0 0
386000.0 494803.0 0
390000.0 494852.0 0
394000.0 494865.0 0
398000.0 494863.0 0
102000.0 498855.0 0
106000.0 498860.0 0
110000.0 498844.0 0
114000.0 498795.0 0
118000.0 498781.0 0
122000.0 498833.0 0
126000.0 498862.0 0
129998.0 499018.0 0
133999.0 498969.0 0
137999.0 498948.0 0
142000.0 498857.0 0
146000.0 498823.0 0
150000.0 498740.0 0
154000.0 498758.0 0
158000.0 498675.0 0
162000.0 498736.0 0
166000.0 498654.0 0
170000.0 498738.0 0
174000.0 498654.0 0
178000.0 498719.0 0
182000.0 498654.0 0
186000.0 498716.0 0
190000.0 498654.0 0
194000.0 498692.0 0
198000.0 498654.0 0
202000.0 498658.0 0
206000.0 498654.0 0
210000.0 498654.0 0
214000.0 498654.0 0
218000.0 498654.0 0
222000.0 498654.0 0
226000.0 498654.0 0
230000.0 498654.0 0
234000.0 498654.0 0
238000.0 498654.0 0
242000.0 498654.0 0
246000.0 498654.0 0
250000.0 498654.0 0
254000.0 498654.0 0
258000.0 498654.0 0
262000.0 498654.0 0
266000.0 498654.0 0
270000.0 498654.0 0
274000.0 498654.0 0
278000.0 498654.0 0
282000.0 498654.0 0
286000.0 498654.0 0
290000.0 498654.0 0
294000.0 498654.0 0
298000.0 498658.0 0
302000.0 498654.0 0
306000.0 498692.0 0
310000.0 498654.0 0
314000.0 498716.0 0
318000.0 498654.0 0
322000.0 498719.0 0
326000.0 498654.0 0
330000.0 498738.0 0
334000.0 498654.0 0
338000.0 498736.0 0
342000.0 498675.0 0
346000.0 498758.0 0
350000.0 498740.0 0
354000.0 498823.0 0
358000.0 498857.0 0
362001.0 498948.0 0
366001.0 498969.0 0
370002.0 499018.0 0
374000.0 498862.0 0
378000.0 498833.0 0
382000.0 498781.0 0
386000.0 498795.0 0
390000.0 498844.0 0
394000.0 498860.0 0
398000.0 498855.0 0
102000.0 502847.0 0
106000.0 502854.0 0
110000.0 502836.0 0
114000.0 502787.0 0
118000.0 502773.0 0
122000.0 502828.0 0
126000.0 502855.0 0
130000.0 502989.0 0
134000.0 502935.0 0
138000.0 502922.0 0
142000.0 502835.0 0
146000.0 502808.0 0
150000.0 502729.0 0
154000.0 502747.0 0
158000.0 502668.0 0
162000.0 502731.0 0
166000.0 502654.0 0
170000.0 502730.0 0
174000.0 502654.0 0
178000.0 502711.0 0
182000.0 502654.0 0
186000.0 502706.0 0
190000.0 502654.0 0
194000.0 502684.0 0
198000.0 502654.0 0
202000.0 502656.0 0
206000.0 502654.0 0
210000.0 502654.0 0
214000.0 502654.0 0
218000.0 502654.0 0
222000.0 502654.0 0
226000.0 502654.0 0
230000.0 502654.0 0
234000.0 502654.0 0
238000.0 502654.0 0
242000.0 502654.0 0
246000.0 502654.0 0
250000.0 502654.0 0
254000.0 502654.0 0
258000.0 502654.0 0
262000.0 502654.0 0
266000.0 502654.0 0
270000.0 502654.0 0
274000.0 502654.0 0
278000.0 502654.0 0
282000.0 502654.0 0
286000.0 502654.0 0
290000.0 502654.0 0
294000.0 502654.0 0
298000.0 502656.0 0
302000.0 502654.0 0
306000.0 502684.0 0
310000.0 502654.0 0
314000.0 502706.0 0
318000.0 502654.0 0
322000.0 502711.0 0
326000.0 502654.0 0
330000.0 502730.0 0
334000.0 502654.0 0
338000.0 502731.0 0
342000.0 502668.0 0
346000.0 502747.0 0
350000.0 502729.0 0
354000.0 502808.0 0
358000.0 502835.0 0
362000.0 502922.0 0
366000.0 502935.0 0
370000.0 502989.0 0
374000.0 502855.0 0
378000.0 502828.0 0
382000.0 502773.0 0
386000.0 502787.0 0
390000.0 502836.0 0
394000.0 502854.0 0
398000.0 502847.0 0
102000.0 506839.0 0
106000.0 506848.0 0
110000.0 506828.0 0
114000.0 506781.0 0
118000.0 506765.0 0
122000.0 506823.0 0
126000.0 506849.0 0
130000.0 506961.0 0
134000.0 506905.0 0
138000.0 506899.0 0
142000.0 506816.0 0
146000.0 506795.0 0
150000.0 506718.0 0
154000.0 506737.0 0
158000.0 506663.0 0
162000.0 506726.0 0
166000.0 506654.0 0
170000.0 506722.0 0
174000.0 506654.0 0
178000.0 506704.0 0
182000.0 506654.0 0
186000.0 506698.0 0
190000.0 506654.0 0
194000.0 506678.0 0
198000.0 506654.0 0
202000.0 506655.0 0
206000.0 506654.0 0
210000.0 506654.0 0
214000.0 506654.0 0
218000.0 506654.0 0
222000.0 506654.0 0
226000.0 506654.0 0
230000.0 506654.0 0
234000.0 506654.0 0
238000.0 506654.0 0
242000.0 506654.0 0
246000.0 506654.0 0
250000.0 506654.0 0
254000.0 506654.0 0
258000.0 506654.0 0
262000.0 506654.0 0
266000.0 506654.0 0
270000.0 506654.0 0
274000.0 506654.0 0
278000.0 506654.0 0
282000.0 506654.0 0
286000.0 506654.0 0
290000.0 506654.0 0
294000.0 506654.0 0
298000.0 506655.0 0
302000.0 506654.0 0
306000.0 506678.0 0
310000.0 506654.0 0
314000.0 506698.0 0
318000.0 506654.0 0
322000.0 506704.0 0
326000.0 506654.0 0
330000.0 506722.0 0
334000.0 506654.0 0
338000.0 506726.0 0
342000.0 506663.0 0
346000.0 506737.0 0
350000.0 506718.0 0
354000.0 506795.0 0
358000.0 506816.0 0
362000.0 506899.0 0
366000.0 506905.0 0
370000.0 506961.0 0
374000.0 506849.0 0
378000.0 506823.0 0
382000.0 506765.0 0
386000.0 506781.0 0
390000.0 506828.0 0
394000.0 506848.0 0
398000.0 506839.0 0
102000.0 510830.0 0
106000.0 510841.0 0
110000.0 510820.0 0
114000.0 510774.0 0
118000.0 510758.0 0
122000.0 510817.0 0
126000.0 510841.0 0
130000.0 510935.0 0
134000.0 510878.0 0
138000.0 510879.0 0
142000.0 510799.0 0
146000.0 510782.0 0
150000.0 510709.0 0
154000.0 510729.0 0
158000.0 510660.0 0
162000.0 510721.0 0
166000.0 510654.0 0
170000.0 510715.0 0
174000.0 510654.0 0
178000.0 510698.0 0
182000.0 510654.0 0
186000.0 510691.0 0
190000.0 510654.0 0
194000.0 510673.0 0
198000.0 510654.0 0
202000.0 510655.0 0
206000.0 510654.0 0
210000.0 510654.0 0
214000.0 510654.0 0
218000.0 510654.0 0
222000.0 510654.0 0
226000.0 510654.0 0
230000.0 510654.0 0
234000.0 510654.0 0
238000.0 510654.0 0
242000.0 510654.0 0
246000.0 510654.0 0
250000.0 510654.0 0
254000.0 510654.0 0
258000.0 510654.0 0
262000.0 510654.0 0
266000.0 510654.0 0
270000.0 510654.0 0
274000.0 510654.0 0
278000.0 510654.0 0
282000.0 510654.0 0
286000.0 510654.0 0
290000.0 510654.0 0
294000.0 510654.0 0
298000.0 510655.0 0
302000.0 510654.0 0
306000.0 510673.0 0
310000.0 510654.0 0
314000.0 510691.0 0
318000.0 510654.0 0
322000.0 510698.0 0
326000.0 510654.0 0
330000.0 510715.0 0
334000.0 510654.0 0
338000.0 510721.0 0
342000.0 510660.0 0
346000.0 510729.0 0
350000.0 510709.0 0
354000.0 510782.0 0
358000.0 510799.0 0
362000.0 510879.0 0
366000.0 510878.0 0
370000.0 510935.0 0
374000.0 510841.0 0
378000.0 510817.0 0
382000.0 510758.0 0
386000.0 510774.0 0
390000.0 510820.0 0
394000.0 510841.0 0
398000.0 510830.0 0
102000.0 514822.0 0
106000.0 514834.0 0
110000.0 514812.0 0
114000.0 514768.0 0
118000.0 514751.0 0
122000.0 514811.0 0
126000.0 514833.0 0
130000.0 514911.0 0
134000.0 514855.0 0
138000.0 514861.0 0
142000.0 514783.0 0
146000.0 514771.0 0
150000.0 514700.0 0
154000.0 514722.0 0
158000.0 514657.0 0
162000.0 514716.0 0
166000.0 514654.0 0
170000.0 514708.0 0
174000.0 514654.0 0
178000.0 514692.0 0
182000.0 514654.0 0
186000.0 514684.0 0
190000.0 514654.0 0
194000.0 514669.0 0
198000.0 514654.0 0
202000.0 514654.0 0
206000.0 514654.0 0
210000.0 514654.0 0
214000.0 514654.0 0
218000.0 514654.0 0
222000.0 514654.0 0
226000.0 514654.0 0
230000.0 514654.0 0
234000.0 514654.0 0
238000.0 514654.0 0
242000.0 514654.0 0
246000.0 514654.0 0
250000.0 514654.0 0
254000.0 514654.0 0
258000.0 514654.0 0
262000.0 514654.0 0
266000.0 514654.0 0
270000.0 514654.0 0
274000.0 514654.0 0
278000.0 514654.0 0
282000.0 514654.0 0
286000.0 514654.0 0
290000.0 514654.0 0
294000.0 514654.0 0
298000.0 514654.0 0
302000.0 514654.0 0
306000.0 514669.0 0
310000.0 514654.0 0
314000.0 514684.0 0
318000.0 514654.0 0
322000.0 514692.0 0
326000.0 514654.0 0
330000.0 514708.0 0
334000.0 514654.0 0
338000.0 514716.0 0
342000.0 514657.0 0
346000.0 514722.0 0
350000.0 514700.0 0
354000.0 514771.0 0
358000.0 514783.0 0
362000.0 514861.0 0
366000.0 514855.0 0
370000.0 514911.0 0
374000.0 514833.0 0
378000.0 514811.0 0
382000.0 514751.0 0
386000.0 514768.0 0
390000.0 514812.0 0
394000.0 514834.0 0
398000.0 514822.0 0
150000.0 518693.0 0
154000.0 518715.0 0
158000.0 518656.0 0
162000.0 518711.0 0
166000.0 518654.0 0
170000.0 518702.0 0
174000.0 518654.0 0
178000.0 518687.0 0
182000.0 518654.0 0
186000.0 518679.0 0
190000.0 518654.0 0
194000.0 518666.0 0
198000.0 518654.0 0
202000.0 518654.0 0
206000.0 518654.0 0
210000.0 518654.0 0
214000.0 518654.0 0
218000.0 518654.0 0
222000.0 518654.0 0
226000.0 518654.0 0
230000.0 518654.0 0
234000.0 518654.0 0
238000.0 518654.0 0
242000.0 518654.0 0
246000.0 518654.0 0
250000.0 518654.0 0
254000.0 518654.0 0
258000.0 518654.0 0
262000.0 518654.0 0
266000.0 518654.0 0
270000.0 518654.0 0
274000.0 518654.0 0
278000.0 518654.0 0
282000.0 518654.0 0
286000.0 518654.0 0
290000.0 518654.0 0
294000.0 518654.0 0
298000.0 518654.0 0
302000.0 518654.0 0
306000.0 518666.0 0
310000.0 518654.0 0
314000.0 518679.0 0
318000.0 518654.0 0
322000.0 518687.0 0
326000.0 518654.0 0
330000.0 518702.0 0
334000.0 518654.0 0
338000.0 518711.0 0
342000.0 518656.0 0
346000.0 518715.0 0
350000.0 518693.0 0
102000.0 518814.0 0
106000.0 518826.0 0
110000.0 518804.0 0
114000.0 518761.0 0
118000.0 518744.0 0
122000.0 518805.0 0
126000.0 518824.0 0
130000.0 518888.0 0
134000.0 518834.0 0
138000.0 518844.0 0
142000.0 518770.0 0
146000.0 518761.0 0
354000.0 518761.0 0
358000.0 518770.0 0
362000.0 518844.0 0
366000.0 518834.0 0
370000.0 518888.0 0
374000.0 518824.0 0
378000.0 518805.0 0
382000.0 518744.0 0
386000.0 518761.0 0
390000.0 518804.0 0
394000.0 518826.0 0
398000.0 518814.0 0
102000.0 522806.0 0
106000.0 522818.0 0
110000.0 522797.0 0
114000.0 522755.0 0
118000.0 522737.0 0
122000.0 522798.0 0
126000.0 522815.0 0
130000.0 522867.0 0
134000.0 522815.0 0
138000.0 522829.0 0
142000.0 522757.0 0
146000.0 522751.0 0
150000.0 522686.0 0
154000.0 522710.0 0
158000.0 522655.0 0
162000.0 522706.0 0
166000.0 522654.0 0
170000.0 522697.0 0
174000.0 522654.0 0
178000.0 522683.0 0
182000.0 522654.0 0
186000.0 522674.0 0
190000.0 522654.0 0
194000.0 522663.0 0
198000.0 522654.0 0
202000.0 522654.0 0
206000.0 522654.0 0
210000.0 522654.0 0
214000.0 522654.0 0
218000.0 522654.0 0
222000.0 522654.0 0
226000.0 522654.0 0
230000.0 522654.0 0
234000.0 522654.0 0
238000.0 522654.0 0
242000.0 522654.0 0
246000.0 522654.0 0
250000.0 522654.0 0
254000.0 522654.0 0
258000.0 522654.0 0
262000.0 522654.0 0
266000.0 522654.0 0
270000.0 522654.0 0
274000.0 522654.0 0
278000.0 522654.0 0
282000.0 522654.0 0
286000.0 522654.0 0
290000.0 522654.0 0
294000.0 522654.0 0
298000.0 522654.0 0
302000.0 522654.0 0
306000.0 522663.0 0
310000.0 522654.0 0
314000.0 522674.0 0
318000.0 522654.0 0
322000.0 522683.0 0
326000.0 522654.0 0
330000.0 522697.0 0
334000.0 522654.0 0
338000.0 522706.0 0
342000.0 522655.0 0
346000.0 522710.0 0
350000.0 522686.0 0
354000.0 522751.0 0
358000.0 522757.0 0
362000.0 522829.0 0
366000.0 522815.0 0
370000.0 522867.0 0
374000.0 522815.0 0
378000.0 522798.0 0
382000.0 522737.0 0
386000.0 522755.0 0
390000.0 522797.0 0
394000.0 522818.0 0
398000.0 522806.0 0
102000.0 526799.0 0
106000.0 526811.0 0
110000.0 526789.0 0
114000.0 526750.0 0
118000.0 526731.0 0
122000.0 526792.0 0
126000.0 526806.0 0
130000.0 526848.0 0
134000.0 526798.0 0
138000.0 526815.0 0
142000.0 526746.0 0
146000.0 526742.0 0
150000.0 526680.0 0
154000.0 526705.0 0
158000.0 526654.0 0
162000.0 526701.0 0
166000.0 526654.0 0
170000.0 526692.0 0
174000.0 526654.0 0
178000.0 526678.0 0
182000.0 526654.0 0
186000.0 526670.0 0
190000.0 526654.0 0
194000.0 526661.0 0
198000.0 526654.0 0
202000.0 526654.0 0
206000.0 526654.0 0
210000.0 526654.0 0
214000.0 526654.0 0
218000.0 526654.0 0
222000.0 526654.0 0
226000.0 526654.0 0
230000.0 526654.0 0
234000.0 526654.0 0
238000.0 526654.0 0
242000.0 526654.0 0
246000.0 526654.0 0
250000.0 526654.0 0
254000.0 526654.0 0
258000.0 526654.0 0
262000.0 526654.0 0
266000.0 526654.0 0
270000.0 526654.0 0
274000.0 526654.0 0
278000.0 526654.0 0
282000.0 526654.0 0
286000.0 526654.0 0
290000.0 526654.0 0
294000.0 526654.0 0
298000.0 526654.0 0
302000.0 526654.0 0
306000.0 526661.0 0
310000.0 526654.0 0
314000.0 526670.0 0
318000.0 526654.0 0
322000.0 526678.0 0
326000.0 526654.0 0
330000.0 526692.0 0
334000.0 526654.0 0
338000.0 526701.0 0
342000.0 526654.0 0
346000.0 526705.0 0
350000.0 526680.0 0
354000.0 526742.0 0
358000.0 526746.0 0
362000.0 526815.0 0
366000.0 526798.0 0
370000.0 526848.0 0
374000.0 526806.0 0
378000.0 526792.0 0
382000.0 526731.0 0
386000.0 526750.0 0
390000.0 526789.0 0
394000.0 526811.0 0
398000.0 526799.0 0
102000.0 530791.0 0
106000.0 530803.0 0
110000.0 530782.0 0
114000.0 530744.0 0
118000.0 530725.0 0
122000.0 530785.0 0
126000.0 530797.0 0
130000.0 530831.0 0
134000.0 530782.0 0
138000.0 530801.0 0
142000.0 530735.0 0
146000.0 530733.0 0
150000.0 530675.0 0
154000.0 530700.0 0
158000.0 530654.0 0
162000.0 530697.0 0
166000.0 530654.0 0
170000.0 530687.0 0
174000.0 530654.0 0
178000.0 530675.0 0
182000.0 530654.0 0
186000.0 530667.0 0
190000.0 530654.0 0
194000.0 530659.0 0
198000.0 530654.0 0
202000.0 530654.0 0
206000.0 530654.0 0
210000.0 530654.0 0
214000.0 530654.0 0
218000.0 530654.0 0
222000.0 530654.0 0
226000.0 530654.0 0
230000.0 530654.0 0
234000.0 530654.0 0
238000.0 530654.0 0
242000.0 530654.0 0
246000.0 530654.0 0
250000.0 530654.0 0
254000.0 530654.0 0
258000.0 530654.0 0
262000.0 530654.0 0
266000.0 530654.0 0
270000.0 530654.0 0
274000.0 530654.0 0
278000.0 530654.0 0
282000.0 530654.0 0
286000.0 530654.0 0
290000.0 530654.0 0
294000.0 530654.0 0
298000.0 530654.0 0
302000.0 530654.0 0
306000.0 530659.0 0
310000.0 530654.0 0
314000.0 530667.0 0
318000.0 530654.0 0
322000.0 530675.0 0
326000.0 530654.0 0
330000.0 530687.0 0
334000.0 530654.0 0
338000.0 530697.0 0
342000.0 530654.0 0
346000.0 530700.0 0
350000.0 530675.0 0
354000.0 530733.0 0
358000.0 530735.0 0
362000.0 530801.0 0
366000.0 530782.0 0
370000.0 530831.0 0
374000.0 530797.0 0
378000.0 530785.0 0
382000.0 530725.0 0
386000.0 530744.0 0
390000.0 530782.0 0
394000.0 530803.0 0
398000.0 530791.0 0
102000.0 534784.0 0
106000.0 534795.0 0
110000.0 534774.0 0
114000.0 534738.0 0
118000.0 534720.0 0
122000.0 534778.0 0
126000.0 534788.0 0
130000.0 534815.0 0
134000.0 534768.0 0
138000.0 534789.0 0
142000.0 534726.0 0
146000.0 534726.0 0
150000.0 534671.0 0
154000.0 534696.0 0
158000.0 534654.0 0
162000.0 534693.0 0
166000.0 534654.0 0
170000.0 534683.0 0
174000.0 534654.0 0
178000.0 534672.0 0
182000.0 534654.0 0
186000.0 534664.0 0
190000.0 534654.0 0
194000.0 534658.0 0
198000.0 534654.0 0
202000.0 534654.0 0
206000.0 534654.0 0
210000.0 534654.0 0
214000.0 534654.0 0
218000.0 534654.0 0
222000.0 534654.0 0
226000.0 534654.0 0
230000.0 534654.0 0
234000.0 534654.0 0
238000.0 534654.0 0
242000.0 534654.0 0
246000.0 534654.0 0
250000.0 534654.0 0
254000.0 534654.0 0
258000.0 534654.0 0
262000.0 534654.0 0
266000.0 534654.0 0
270000.0 534654.0 0
274000.0 534654.0 0
278000.0 534654.0 0
282000.0 534654.0 0
286000.0 534654.0 0
290000.0 534654.0 0
294000.0 534654.0 0
298000.0 534654.0 0
302000.0 534654.0 0
306000.0 534658.0 0
310000.0 534654.0 0
314000.0 534664.0 0
318000.0 534654.0 0
322000.0 534672.0 0
326000.0 534654.0 0
330000.0 534683.0 0
334000.0 534654.0 0
338000.0 534693.0 0
342000.0 534654.0 0
346000.0 534696.0 0
350000.0 534671.0 0
354000.0 534726.0 0
358000.0 534726.0 0
362000.0 534789.0 0
366000.0 534768.0 0
370000.0 534815.0 0
374000.0 534788.0 0
378000.0 534778.0 0
382000.0 534720.0 0
386000.0 534738.0 0
390000.0 534774.0 0
394000.0 534795.0 0
398000.0 534784.0 0
102000.0 538778.0 0
106000.0 538787.0 0
110000.0 538768.0 0
114000.0 538733.0 0
118000.0 538714.0 0
122000.0 538772.0 0
126000.0 538779.0 0
130000.0 538801.0 0
134000.0 538756.0 0
138000.0 538777.0 0
142000.0 538717.0 0
146000.0 538719.0 0
150000.0 538668.0 0
154000.0 538693.0 0
158000.0 538654.0 0
162000.0 538689.0 0
166000.0 538654.0 0
170000.0 538679.0 0
174000.0 538654.0 0
178000.0 538669.0 0
182000.0 538654.0 0
186000.0 538662.0 0
190000.0 538654.0 0
194000.0 538657.0 0
198000.0 538654.0 0
202000.0 538654.0 0
206000.0 538654.0 0
210000.0 538654.0 0
214000.0 538654.0 0
218000.0 538654.0 0
222000.0 538654.0 0
226000.0 538654.0 0
230000.0 538654.0 0
234000.0 538654.0 0
238000.0 538654.0 0
242000.0 538654.0 0
246000.0 538654.0 0
250000.0 538654.0 0
254000.0 538654.0 0
258000.0 538654.0 0
262000.0 538654.0 0
266000.0 538654.0 0
270000.0 538654.0 0
274000.0 538654.0 0
278000.0 538654.0 0
282000.0 538654.0 0
286000.0 538654.0 0
290000.0 538654.0 0
294000.0 538654.0 0
298000.0 538654.0 0
302000.0 538654.0 0
306000.0 538657.0 0
310000.0 538654.0 0
314000.0 538662.0 0
318000.0 538654.0 0
322000.0 538669.0 0
326000.0 538654.0 0
330000.0 538679.0 0
334000.0 538654.0 0
338000.0 538689.0 0
342000.0 538654.0 0
346000.0 538693.0 0
350000.0 538668.0 0
354000.0 538719.0 0
358000.0 538717.0 0
362000.0 538777.0 0
366000.0 538756.0 0
370000.0 538801.0 0
374000.0 538779.0 0
378000.0 538772.0 0
382000.0 538714.0 0
386000.0 538733.0 0
390000.0 538768.0 0
394000.0 538787.0 0
398000.0 538778.0 0
102000.0 542771.0 0
106000.0 542779.0 0
110000.0 542761.0 0
114000.0 542728.0 0
118000.0 542710.0 0
122000.0 542765.0 0
126000.0 542770.0 0
130000.0 542788.0 0
134000.0 542744.0 0
138000.0 542766.0 0
142000.0 542709.0 0
146000.0 542712.0 0
150000.0 542665.0 0
154000.0 542689.0 0
158000.0 542654.0 0
162000.0 542685.0 0
166000.0 542654.0 0
170000.0 542676.0 0
174000.0 542654.0 0
178000.0 542666.0 0
182000.0 542654.0 0
186000.0 542660.0 0
190000.0 542654.0 0
194000.0 542656.0 0
198000.0 542654.0 0
202000.0 542654.0 0
206000.0 542654.0 0
210000.0 542654.0 0
214000.0 542654.0 0
218000.0 542654.0 0
222000.0 542654.0 0
226000.0 542654.0 0
230000.0 542654.0 0
234000.0 542654.0 0
238000.0 542654.0 0
242000.0 542654.0 0
246000.0 542654.0 0
250000.0 542654.0 0
254000.0 542654.0 0
258000.0 542654.0 0
262000.0 542654.0 0
266000.0 542654.0 0
270000.0 542654.0 0
274000.0 542654.0 0
278000.0 542654.0 0
282000.0 542654.0 0
286000.0 542654.0 0
290000.0 542654.0 0
294000.0 542654.0 0
298000.0 542654.0 0
302000.0 542654.0 0
306000.0 542656.0 0
310000.0 542654.0 0
314000.0 542660.0 0
318000.0 542654.0 0
322000.0 542666.0 0
326000.0 542654.0 0
330000.0 542676.0 0
334000.0 542654.0 0
338000.0 542685.0 0
342000.0 542654.0 0
346000.0 542689.0 0
350000.0 542665.0 0
354000.0 542712.0 0
358000.0 542709.0 0
362000.0 542766.0 0
366000.0 542744.0 0
370000.0 542788.0 0
374000.0 542770.0 0
378000.0 542765.0 0
382000.0 542710.0 0
386000.0 542728.0 0
390000.0 542761.0 0
394000.0 542779.0 0
398000.0 542771.0 0
102000.0 546765.0 0
106000.0 546772.0 0
110000.0 546755.0 0
114000.0 546724.0 0
118000.0 546705.0 0
122000.0 546759.0 0
126000.0 546761.0 0
130000.0 546776.0 0
134000.0 546734.0 0
138000.0 546756.0 0
142000.0 546702.0 0
146000.0 546706.0 0
150000.0 546663.0 0
154000.0 546686.0 0
158000.0 546654.0 0
162000.0 546682.0 0
166000.0 546654.0 0
170000.0 546673.0 0
174000.0 546654.0 0
178000.0 546664.0 0
182000.0 546654.0 0
186000.0 546659.0 0
190000.0 546654.0 0
194000.0 546655.0 0
198000.0 546654.0 0
202000.0 546654.0 0
206000.0 546654.0 0
210000.0 546654.0 0
214000.0 546654.0 0
218000.0 546654.0 0
222000.0 546654.0 0
226000.0 546654.0 0
230000.0 546654.0 0
234000.0 546654.0 0
238000.0 546654.0 0
242000.0 546654.0 0
246000.0 546654.0 0
250000.0 546654.0 0
254000.0 546654.0 0
258000.0 546654.0 0
262000.0 546654.0 0
266000.0 546654.0 0
270000.0 546654.0 0
274000.0 546654.0 0
278000.0 546654.0 0
282000.0 546654.0 0
286000.0 546654.0 0
290000.0 546654.0 0
294000.0 546654.0 0
298000.0 546654.0 0
302000.0 546654.0 0
306000.0 546655.0 0
310000.0 546654.0 0
314000.0 546659.0 0
318000.0 546654.0 0
322000.0 546664.0 0
326000.0 546654.0 0
330000.0 546673.0 0
334000.0 546654.0 0
338000.0 546682.0 0
342000.0 546654.0 0
346000.0 546686.0 0
350000.0 546663.0 0
354000.0 546706.0 0
358000.0 546702.0 0
362000.0 546756.0 0
366000.0 546734.0 0
370000.0 546776.0 0
374000.0 546761.0 0
378000.0 546759.0 0
382000.0 546705.0 0
386000.0 546724.0 0
390000.0 546755.0 0
394000.0 546772.0 0
398000.0 546765.0 0
102000.0 550759.0 0
106000.0 550765.0 0
110000.0 550749.0 0
114000.0 550719.0 0
118000.0 550701.0 0
122000.0 550752.0 0
126000.0 550753.0 0
130000.0 550765.0 0
134000.0 550725.0 0
138000.0 550747.0 0
142000.0 550696.0 0
146000.0 550701.0 0
150000.0 550661.0 0
154000.0 550683.0 0
158000.0 550654.0 0
162000.0 550679.0 0
166000.0 550654.0 0
170000.0 550671.0 0
174000.0 550654.0 0
178000.0 550663.0 0
182000.0 550654.0 0
186000.0 550658.0 0
190000.0 550654.0 0
194000.0 550655.0 0
198000.0 550654.0 0
202000.0 550654.0 0
206000.0 550654.0 0
210000.0 550654.0 0
214000.0 550654.0 0
218000.0 550654.0 0
222000.0 550654.0 0
226000.0 550654.0 0
230000.0 550654.0 0
234000.0 550654.0 0
238000.0 550654.0 0
242000.0 550654.0 0
246000.0 550654.0 0
250000.0 550654.0 0
254000.0 550654.0 0
258000.0 550654.0 0
262000.0 550654.0 0
266000.0 550654.0 0
270000.0 550654.0 0
274000.0 550654.0 0
278000.0 550654.0 0
282000.0 550654.0 0
286000.0 550654.0 0
290000.0 550654.0 0
294000.0 550654.0 0
298000.0 550654.0 0
302000.0 550654.0 0
306000.0 550655.0 0
310000.0 550654.0 0
314000.0 550658.0 0
318000.0 550654.0 0
322000.0 550663.0 0
326000.0 550654.0 0
330000.0 550671.0 0
334000.0 550654.0 0
338000.0 550679.0 0
342000.0 550654.0 0
346000.0 550683.0 0
350000.0 550661.0 0
354000.0 550701.0 0
358000.0 550696.0 0
362000.0 550747.0 0
366000.0 550725.0 0
370000.0 550765.0 0
374000.0 550753.0 0
378000.0 550752.0 0
382000.0 550701.0 0
386000.0 550719.0 0
390000.0 550749.0 0
394000.0 550765.0 0
398000.0 550759.0 0
102000.0 554754.0 0
106000.0 554758.0 0
110000.0 554743.0 0
114000.0 554715.0 0
118000.0 554697.0 0
122000.0 554746.0 0
126000.0 554745.0 0
130000.0 554755.0 0
134000.0 554716.0 0
138000.0 554739.0 0
142000.0 554690.0 0
146000.0 554696.0 0
150000.0 554659.0 0
154000.0 554681.0 0
158000.0 554654.0 0
162000.0 554676.0 0
166000.0 554654.0 0
170000.0 554668.0 0
174000.0 554654.0 0
178000.0 554661.0 0
182000.0 554654.0 0
186000.0 554657.0 0
190000.0 554654.0 0
194000.0 554655.0 0
198000.0 554654.0 0
202000.0 554654.0 0
206000.0 554654.0 0
210000.0 554654.0 0
214000.0 554654.0 0
218000.0 554654.0 0
222000.0 554654.0 0
226000.0 554654.0 0
230000.0 554654.0 0
234000.0 554654.0 0
238000.0 554654.0 0
242000.0 554654.0 0
246000.0 554654.0 0
250000.0 554654.0 0
254000.0 554654.0 0
258000.0 554654.0 0
262000.0 554654.0 0
266000.0 554654.0 0
270000.0 554654.0 0
274000.0 554654.0 0
278000.0 554654.0 0
282000.0 554654.0 0
286000.0 554654.0 0
290000.0 554654.0 0
294000.0 554654.0 0
298000.0 554654.0 0
302000.0 554654.0 0
306000.0 554655.0 0
310000.0 554654.0 0
314000.0 554657.0 0
318000.0 554654.0 0
322000.0 554661.0 0
326000.0 554654.0 0
330000.0 554668.0 0
334000.0 554654.0 0
338000.0 554676.0 0
342000.0 554654.0 0
346000.0 554681.0 0
350000.0 554659.0 0
354000.0 554696.0 0
358000.0 554690.0 0
362000.0 554739.0 0
366000.0 554716.0 0
370000.0 554755.0 0
374000.0 554745.0 0
378000.0 554746.0 0
382000.0 554697.0 0
386000.0 554715.0 0
390000.0 554743.0 0
394000.0 554758.0 0
398000.0 554754.0 0
102000.0 558748.0 0
106000.0 558752.0 0
110000.0 558737.0 0
114000.0 558711.0 0
118000.0 558694.0 0
122000.0 558740.0 0
126000.0 558737.0 0
130000.0 558746.0 0
134000.0 558709.0 0
138000.0 558731.0 0
142000.0 558685.0 0
146000.0 558692.0 0
150000.0 558658.0 0
154000.0 558678.0 0
158000.0 558654.0 0
162000.0 558674.0 0
166000.0 558654.0 0
170000.0 558666.0 0
174000.0 558654.0 0
178000.0 558660.0 0
182000.0 558654.0 0
186000.0 558656.0 0
190000.0 558654.0 0
194000.0 558654.0 0
198000.0 558654.0 0
202000.0 558654.0 0
206000.0 558654.0 0
210000.0 558654.0 0
214000.0 558654.0 0
218000.0 558654.0 0
222000.0 558654.0 0
226000.0 558654.0 0
230000.0 558654.0 0
234000.0 558654.0 0
238000.0 558654.0 0
242000.0 558654.0 0
246000.0 558654.0 0
250000.0 558654.0 0
254000.0 558654.0 0
258000.0 558654.0 0
262000.0 558654.0 0
266000.0 558654.0 0
270000.0 558654.0 0
274000.0 558654.0 0
278000.0 558654.0 0
282000.0 558654.0 0
286000.0 558654.0 0
290000.0 558654.0 0
294000.0 558654.0 0
298000.0 558654.0 0
302000.0 558654.0 0
306000.0 558654.0 0
310000.0 558654.0 0
314000.0 558656.0 0
318000.0 558654.0 0
322000.0 558660.0 0
326000.0 558654.0 0
330000.0 558666.0 0
334000.0 558654.0 0
338000.0 558674.0 0
342000.0 558654.0 0
346000.0 558678.0 0
350000.0 558658.0 0
354000.0 558692.0 0
358000.0 558685.0 0
362000.0 558731.0 0
366000.0 558709.0 0
370000.0 558746.0 0
374000.0 558737.0 0
378000.0 558740.0 0
382000.0 558694.0 0
386000.0 558711.0 0
390000.0 558737.0 0
394000.0 558752.0 0
398000.0 558748.0 0
102000.0 562743.0 0
106000.0 562746.0 0
110000.0 562732.0 0
114000.0 562707.0 0
118000.0 562690.0 0
122000.0 562735.0 0
126000.0 562730.0 0
130000.0 562738.0 0
134000.0 562702.0 0
138000.0 562723.0 0
142000.0 562681.0 0
146000.0 562688.0 0
150000.0 562657.0 0
154000.0 562676.0 0
158000.0 562654.0 0
162000.0 562671.0 0
166000.0 562654.0 0
170000.0 562664.0 0
174000.0 562654.0 0
178000.0 562659.0 0
182000.0 562654.0 0
186000.0 562655.0 0
190000.0 562654.0 0
194000.0 562654.0 0
198000.0 562654.0 0
202000.0 562654.0 0
206000.0 562654.0 0
210000.0 562654.0 0
214000.0 562654.0 0
218000.0 562654.0 0
222000.0 562654.0 0
226000.0 562654.0 0
230000.0 562654.0 0
234000.0 562654.0 0
238000.0 562654.0 0
242000.0 562654.0 0
246000.0 562654.0 0
250000.0 562654.0 0
254000.0 562654.0 0
258000.0 562654.0 0
262000.0 562654.0 0
266000.0 562654.0 0
270000.0 562654.0 0
274000.0 562654.0 0
278000.0 562654.0 0
282000.0 562654.0 0
286000.0 562654.0 0
290000.0 562654.0 0
294000.0 562654.0 0
298000.0 562654.0 0
302000.0 562654.0 0
306000.0 562654.0 0
310000.0 562654.0 0
314000.0 562655.0 0
318000.0 562654.0 0
322000.0 562659.0 0
326000.0 562654.0 0
330000.0 562664.0 0
334000.0 562654.0 0
338000.0 562671.0 0
342000.0 562654.0 0
346000.0 562676.0 0
350000.0 562657.0 0
354000.0 562688.0 0
358000.0 562681.0 0
362000.0 562723.0 0
366000.0 562702.0 0
370000.0 562738.0 0
374000.0 562730.0 0
378000.0 562735.0 0
382000.0 562690.0 0
386000.0 562707.0 0
390000.0 562732.0 0
394000.0 562746.0 0
398000.0 562743.0 0
102000.0 566738.0 0
106000.0 566740.0 0
110000.0 566727.0 0
114000.0 566704.0 0
118000.0 566687.0 0
122000.0 566729.0 0
126000.0 566723.0 0
130000.0 566731.0 0
134000.0 566696.0 0
138000.0 566717.0 0
142000.0 566677.0 0
146000.0 566684.0 0
150000.0 566656.0 0
154000.0 566674.0 0
158000.0 566654.0 0
162000.0 566669.0 0
166000.0 566654.0 0
170000.0 566663.0 0
174000.0 566654.0 0
178000.0 566658.0 0
182000.0 566654.0 0
186000.0 566655.0 0
190000.0 566654.0 0
194000.0 566654.0 0
198000.0 566654.0 0
202000.0 566654.0 0
206000.0 566654.0 0
210000.0 566654.0 0
214000.0 566654.0 0
218000.0 566654.0 0
222000.0 566654.0 0
226000.0 566654.0 0
230000.0 566654.0 0
234000.0 566654.0 0
238000.0 566654.0 0
242000.0 566654.0 0
246000.0 566654.0 0
250000.0 566654.0 0
254000.0 566654.0 0
258000.0 566654.0 0
262000.0 566654.0 0
266000.0 566654.0 0
270000.0 566654.0 0
274000.0 566654.0 0
278000.0 566654.0 0
282000.0 566654.0 0
286000.0 566654.0 0
290000.0 566654.0 0
294000.0 566654.0 0
298000.0 566654.0 0
302000.0 566654.0 0
306000.0 566654.0 0
310000.0 566654.0 0
314000.0 566655.0 0
318000.0 566654.0 0
322000.0 566658.0 0
326000.0 566654.0 0
330000.0 566663.0 0
334000.0 566654.0 0
338000.0 566669.0 0
342000.0 566654.0 0
346000.0 566674.0 0
350000.0 566656.0 0
354000.0 566684.0 0
358000.0 566677.0 0
362000.0 566717.0 0
366000.0 566696.0 0
370000.0 566731.0 0
374000.0 566723.0 0
378000.0 566729.0 0
382000.0 566687.0 0
386000.0 566704.0 0
390000.0 566727.0 0
394000.0 566740.0 0
398000.0 566738.0 0
102000.0 570734.0 0
106000.0 570734.0 0
110000.0 570722.0 0
114000.0 570701.0 0
118000.0 570685.0 0
122000.0 570724.0 0
126000.0 570717.0 0
130000.0 570724.0 0
134000.0 570691.0 0
138000.0 570711.0 0
142000.0 570673.0 0
146000.0 570681.0 0
150000.0 570656.0 0
154000.0 570672.0 0
158000.0 570654.0 0
162000.0 570667.0 0
166000.0 570654.0 0
170000.0 570661.0 0
174000.0 570654.0 0
178000.0 570657.0 0
182000.0 570654.0 0
186000.0 570655.0 0
190000.0 570654.0 0
194000.0 570654.0 0
198000.0 570654.0 0
202000.0 570654.0 0
206000.0 570654.0 0
210000.0 570654.0 0
214000.0 570654.0 0
218000.0 570654.0 0
222000.0 570654.0 0
226000.0 570654.0 0
230000.0 570654.0 0
234000.0 570654.0 0
238000.0 570654.0 0
242000.0 570654.0 0
246000.0 570654.0 0
250000.0 570654.0 0
254000.0 570654.0 0
258000.0 570654.0 0
262000.0 570654.0 0
266000.0 570654.0 0
270000.0 570654.0 0
274000.0 570654.0 0
278000.0 570654.0 0
282000.0 570654.0 0
286000.0 570654.0 0
290000.0 570654.0 0
294000.0 570654.0 0
298000.0 570654.0 0
302000.0 570654.0 0
306000.0 570654.0 0
310000.0 570654.0 0
314000.0 570655.0 0
318000.0 570654.0 0
322000.0 570657.0 0
326000.0 570654.0 0
330000.0 570661.0 0
334000.0 570654.0 0
338000.0 570667.0 0
342000.0 570654.0 0
346000.0 570672.0 0
350000.0 570656.0 0
354000.0 570681.0 0
358000.0 570673.0 0
362000.0 570711.0 0
366000.0 570691.0 0
370000.0 570724.0 0
374000.0 570717.0 0
378000.0 570724.0 0
382000.0 570685.0 0
386000.0 570701.0 0
390000.0 570722.0 0
394000.0 570734.0 0
398000.0 570734.0 0
102000.0 574729.0 0
106000.0 574729.0 0
110000.0 574718.0 0
114000.0 574698.0 0
118000.0 574682.0 0
122000.0 574719.0 0
126000.0 574711.0 0
130000.0 574718.0 0
134000.0 574686.0 0
138000.0 574705.0 0
142000.0 574670.0 0
146000.0 574678.0 0
150000.0 574655.0 0
154000.0 574670.0 0
158000.0 574654.0 0
162000.0 574666.0 0
166000.0 574654.0 0
170000.0 574660.0 0
174000.0 574654.0 0
178000.0 574656.0 0
182000.0 574654.0 0
186000.0 574654.0 0
190000.0 574654.0 0
194000.0 574654.0 0
198000.0 574654.0 0
202000.0 574654.0 0
206000.0 574654.0 0
210000.0 574654.0 0
214000.0 574654.0 0
218000.0 574654.0 0
222000.0 574654.0 0
226000.0 574654.0 0
230000.0 574654.0 0
234000.0 574654.0 0
238000.0 574654.0 0
242000.0 574654.0 0
246000.0 574654.0 0
250000.0 574654.0 0
254000.0 574654.0 0
258000.0 574654.0 0
262000.0 574654.0 0
266000.0 574654.0 0
270000.0 574654.0 0
274000.0 574654.0 0
278000.0 574654.0 0
282000.0 574654.0 0
286000.0 574654.0 0
290000.0 574654.0 0
294000.0 574654.0 0
298000.0 574654.0 0
302000.0 574654.0 0
306000.0 574654.0 0
310000.0 574654.0 0
314000.0 574654.0 0
318000.0 574654.0 0
322000.0 574656.0 0
326000.0 574654.0 0
330000.0 574660.0 0
334000.0 574654.0 0
338000.0 574666.0 0
342000.0 574654.0 0
346000.0 574670.0 0
350000.0 574655.0 0
354000.0 574678.0 0
358000.0 574670.0 0
362000.0 574705.0 0
366000.0 574686.0 0
370000.0 574718.0 0
374000.0 574711.0 0
378000.0 574719.0 0
382000.0 574682.0 0
386000.0 574698.0 0
390000.0 574718.0 0
394000.0 574729.0 0
398000.0 574729.0 0
102000.0 578725.0 0
106000.0 578724.0 0
110000.0 578714.0 0
114000.0 578695.0 0
118000.0 578680.0 0
122000.0 578715.0 0
126000.0 578705.0 0
130000.0 578712.0 0
134000.0 578682.0 0
138000.0 578700.0 0
142000.0 578668.0 0
146000.0 578676.0 0
150000.0 578655.0 0
154000.0 578668.0 0
158000.0 578654.0 0
162000.0 578664.0 0
166000.0 578654.0 0
170000.0 578659.0 0
174000.0 578654.0 0
178000.0 578656.0 0
182000.0 578654.0 0
186000.0 578654.0 0
190000.0 578654.0 0
194000.0 578654.0 0
198000.0 578654.0 0
202000.0 578654.0 0
206000.0 578654.0 0
210000.0 578654.0 0
214000.0 578654.0 0
218000.0 578654.0 0
222000.0 578654.0 0
226000.0 578654.0 0
230000.0 578654.0 0
234000.0 578654.0 0
238000.0 578654.0 0
242000.0 578654.0 0
246000.0 578654.0 0
250000.0 578654.0 0
254000.0 578654.0 0
258000.0 578654.0 0
262000.0 578654.0 0
266000.0 578654.0 0
270000.0 578654.0 0
274000.0 578654.0 0
278000.0 578654.0 0
282000.0 578654.0 0
286000.0 578654.0 0
290000.0 578654.0 0
294000.0 578654.0 0
298000.0 578654.0 0
302000.0 578654.0 0
306000.0 578654.0 0
310000.0 578654.0 0
314000.0 578654.0 0
318000.0 578654.0 0
322000.0 578656.0 0
326000.0 578654.0 0
330000.0 578659.0 0
334000.0 578654.0 0
338000.0 578664.0 0
342000.0 578654.0 0
346000.0 578668.0 0
350000.0 578655.0 0
354000.0 578676.0 0
358000.0 578668.0 0
362000.0 578700.0 0
366000.0 578682.0 0
370000.0 578712.0 0
374000.0 578705.0 0
378000.0 578715.0 0
382000.0 578680.0 0
386000.0 578695.0 0
390000.0 578714.0 0
394000.0 578724.0 0
398000.0 578725.0 0
102000.0 582721.0 0
106000.0 582720.0 0
110000.0 582710.0 0
114000.0 582692.0 0
118000.0 582678.0 0
122000.0 582710.0 0
126000.0 582700.0 0
130000.0 582707.0 0
134000.0 582678.0 0
138000.0 582696.0 0
142000.0 582666.0 0
146000.0 582673.0 0
150000.0 582655.0 0
154000.0 582667.0 0
158000.0 582654.0 0
162000.0 582663.0 0
166000.0 582654.0 0
170000.0 582658.0 0
174000.0 582654.0 0
178000.0 582655.0 0
182000.0 582654.0 0
186000.0 582654.0 0
190000.0 582654.0 0
194000.0 582654.0 0
198000.0 582654.0 0
202000.0 582654.0 0
206000.0 582654.0 0
210000.0 582654.0 0
214000.0 582654.0 0
218000.0 582654.0 0
222000.0 582654.0 0
226000.0 582654.0 0
230000.0 582654.0 0
234000.0 582654.0 0
238000.0 582654.0 0
242000.0 582654.0 0
246000.0 582654.0 0
250000.0 582654.0 0
254000.0 582654.0 0
258000.0 582654.0 0
262000.0 582654.0 0
266000.0 582654.0 0
270000.0 582654.0 0
274000.0 582654.0 0
278000.0 582654.0 0
282000.0 582654.0 0
286000.0 582654.0 0
290000.0 582654.0 0
294000.0 582654.0 0
298000.0 582654.0 0
302000.0 582654.0 0
306000.0 582654.0 0
310000.0 582654.0 0
314000.0 582654.0 0
318000.0 582654.0 0
322000.0 582655.0 0
326000.0 582654.0 0
330000.0 582658.0 0
334000.0 582654.0 0
338000.0 582663.0 0
342000.0 582654.0 0
346000.0 582667.0 0
350000.0 582655.0 0
354000.0 582673.0 0
358000.0 582666.0 0
362000.0 582696.0 0
366000.0 582678.0 0
370000.0 582707.0 0
374000.0 582700.0 0
378000.0 582710.0 0
382000.0 582678.0 0
386000.0 582692.0 0
390000.0 582710.0 0
394000.0 582720.0 0
398000.0 582721.0 0
102000.0 586718.0 0
106000.0 586716.0 0
110000.0 586706.0 0
114000.0 586690.0 0
118000.0 586676.0 0
122000.0 586706.0 0
126000.0 586695.0 0
130000.0 586703.0 0
134000.0 586675.0 0
138000.0 586691.0 0
142000.0 586664.0 0
146000.0 586671.0 0
150000.0 586654.0 0
154000.0 586665.0 0
158000.0 586654.0 0
162000.0 586662.0 0
166000.0 586654.0 0
170000.0 586658.0 0
174000.0 586654.0 0
178000.0 586655.0 0
182000.0 586654.0 0
186000.0 586654.0 0
190000.0 586654.0 0
194000.0 586654.0 0
198000.0 586654.0 0
202000.0 586654.0 0
206000.0 586654.0 0
210000.0 586654.0 0
214000.0 586654.0 0
218000.0 586654.0 0
222000.0 586654.0 0
226000.0 586654.0 0
230000.0 586654.0 0
234000.0 586654.0 0
238000.0 586654.0 0
242000.0 586654.0 0
246000.0 586654.0 0
250000.0 586654.0 0
254000.0 586654.0 0
258000.0 586654.0 0
262000.0 586654.0 0
266000.0 586654.0 0
270000.0 586654.0 0
274000.0 586654.0 0
278000.0 586654.0 0
282000.0 586654.0 0
286000.0 586654.0 0
290000.0 586654.0 0
294000.0 586654.0 0
298000.0 586654.0 0
302000.0 586654.0 0
306000.0 586654.0 0
310000.0 586654.0 0
314000.0 586654.0 0
318000.0 586654.0 0
322000.0 586655.0 0
326000.0 586654.0 0
330000.0 586658.0 0
334000.0 586654.0 0
338000.0 586662.0 0
342000.0 586654.0 0
346000.0 586665.0 0
350000.0 586654.0 0
354000.0 586671.0 0
358000.0 586664.0 0
362000.0 586691.0 0
366000.0 586675.0 0
370000.0 586703.0 0
374000.0 586695.0 0
378000.0 586706.0 0
382000.0 586676.0 0
386000.0 586690.0 0
390000.0 586706.0 0
394000.0 586716.0 0
398000.0 586718.0 0
102000.0 590714.0 0
106000.0 590712.0 0
110000.0 590703.0 0
114000.0 590688.0 0
118000.0 590674.0 0
122000.0 590703.0 0
126000.0 590691.0 0
130000.0 590698.0 0
134000.0 590672.0 0
138000.0 590688.0 0
142000.0 590662.0 0
146000.0 590669.0 0
150000.0 590654.0 0
154000.0 590664.0 0
158000.0 590654.0 0
162000.0 590661.0 0
166000.0 590654.0 0
170000.0 590657.0 0
174000.0 590654.0 0
178000.0 590655.0 0
182000.0 590654.0 0
186000.0 590654.0 0
190000.0 590654.0 0
194000.0 590654.0 0
198000.0 590654.0 0
202000.0 590654.0 0
206000.0 590654.0 0
210000.0 590654.0 0
214000.0 590654.0 0
218000.0 590654.0 0
222000.0 590654.0 0
226000.0 590654.0 0
230000.0 590654.0 0
234000.0 590654.0 0
238000.0 590654.0 0
242000.0 590654.0 0
246000.0 590654.0 0
250000.0 590654.0 0
254000.0 590654.0 0
258000.0 590654.0 0
262000.0 590654.0 0
266000.0 590654.0 0
270000.0 590654.0 0
274000.0 590654.0 0
278000.0 590654.0 0
282000.0 590654.0 0
286000.0 590654.0 0
290000.0 590654.0 0
294000.0 590654.0 0
298000.0 590654.0 0
302000.0 590654.0 0
306000.0 590654.0 0
310000.0 590654.0 0
314000.0 590654.0 0
318000.0 590654.0 0
322000.0 590655.0 0
326000.0 590654.0 0
330000.0 590657.0 0
334000.0 590654.0 0
338000.0 590661.0 0
342000.0 590654.0 0
346000.0 590664.0 0
350000.0 590654.0 0
354000.0 590669.0 0
358000.0 590662.0 0
362000.0 590688.0 0
366000.0 590672.0 0
370000.0 590698.0 0
374000.0 590691.0 0
378000.0 590703.0 0
382000.0 590674.0 0
386000.0 590688.0 0
390000.0 590703.0 0
394000.0 590712.0 0
398000.0 590714.0 0
102000.0 594711.0 0
106000.0 594708.0 0
110000.0 594700.0 0
114000.0 594686.0 0
118000.0 594673.0 0
122000.0 594699.0 0
126000.0 594687.0 0
130000.0 594694.0 0
134000.0 594669.0 0
138000.0 594684.0 0
142000.0 594661.0 0
146000.0 594668.0 0
150000.0 594654.0 0
154000.0 594663.0 0
158000.0 594654.0 0
162000.0 594660.0 0
166000.0 594654.0 0
170000.0 594656.0 0
174000.0 594654.0 0
178000.0 594654.0 0
182000.0 594654.0 0
186000.0 594654.0 0
190000.0 594654.0 0
194000.0 594654.0 0
198000.0 594654.0 0
202000.0 594654.0 0
206000.0 594654.0 0
210000.0 594654.0 0
214000.0 594654.0 0
218000.0 594654.0 0
222000.0 594654.0 0
226000.0 594654.0 0
230000.0 594654.0 0
234000.0 594654.0 0
238000.0 594654.0 0
242000.0 594654.0 0
246000.0 594654.0 0
250000.0 594654.0 0
254000.0 594654.0 0
258000.0 594654.0 0
262000.0 594654.0 0
266000.0 594654.0 0
270000.0 594654.0 0
274000.0 594654.0 0
278000.0 594654.0 0
282000.0 594654.0 0
286000.0 594654.0 0
290000.0 594654.0 0
294000.0 594654.0 0
298000.0 594654.0 0
302000.0 594654.0 0
306000.0 594654.0 0
310000.0 594654.0 0
314000.0 594654.0 0
318000.0 594654.0 0
322000.0 594654.0 0
326000.0 594654.0 0
330000.0 594656.0 0
334000.0 594654.0 0
338000.0 594660.0 0
342000.0 594654.0 0
346000.0 594663.0 0
350000.0 594654.0 0
354000.0 594668.0 0
358000.0 594661.0 0
362000.0 594684.0 0
366000.0 594669.0 0
370000.0 594694.0 0
374000.0 594687.0 0
378000.0 594699.0 0
382000.0 594673.0 0
386000.0 594686.0 0
390000.0 594700.0 0
394000.0 594708.0 0
398000.0 594711.0 0
102000.0 598708.0 0
106000.0 598705.0 0
110000.0 598697.0 0
114000.0 598684.0 0
118000.0 598671.0 0
122000.0 598696.0 0
126000.0 598684.0 0
130000.0 598691.0 0
134000.0 598667.0 0
138000.0 598681.0 0
142000.0 598660.0 0
146000.0 598666.0 0
150000.0 598654.0 0
154000.0 598662.0 0
158000.0 598654.0 0
162000.0 598659.0 0
166000.0 598654.0 0
170000.0 598656.0 0
174000.0 598654.0 0
178000.0 598654.0 0
182000.0 598654.0 0
186000.0 598654.0 0
190000.0 598654.0 0
194000.0 598654.0 0
198000.0 598654.0 0
202000.0 598654.0 0
206000.0 598654.0 0
210000.0 598654.0 0
214000.0 598654.0 0
218000.0 598654.0 0
222000.0 598654.0 0
226000.0 598654.0 0
230000.0 598654.0 0
234000.0 598654.0 0
238000.0 598654.0 0
242000.0 598654.0 0
246000.0 598654.0 0
250000.0 598654.0 0
254000.0 598654.0 0
258000.0 598654.0 0
262000.0 598654.0 0
266000.0 598654.0 0
270000.0 598654.0 0
274000.0 598654.0 0
278000.0 598654.0 0
282000.0 598654.0 0
286000.0 598654.0 0
290000.0 598654.0 0
294000.0 598654.0 0
298000.0 598654.0 0
302000.0 598654.0 0
306000.0 598654.0 0
310000.0 598654.0 0
314000.0 598654.0 0
318000.0 598654.0 0
322000.0 598654.0 0
326000.0 598654.0 0
330000.0 598656.0 0
334000.0 598654.0 0
338000.0 598659.0 0
342000.0 598654.0 0
346000.0 598662.0 0
350000.0 598654.0 0
354000.0 598666.0 0
358000.0 598660.0 0
362000.0 598681.0 0
366000.0 598667.0 0
370000.0 598691.0 0
374000.0 598684.0 0
378000.0 598696.0 0
382000.0 598671.0 0
386000.0 598684.0 0
390000.0 598697.0 0
394000.0 598705.0 0
398000.0 598708.0 0
102000.0 602705.0 0
106000.0 602702.0 0
110000.0 602694.0 0
114000.0 602682.0 0
118000.0 602670.0 0
122000.0 602693.0 0
126000.0 602681.0 0
130000.0 602688.0 0
134000.0 602665.0 0
138000.0 602679.0 0
142000.0 602659.0 0
146000.0 602665.0 0
150000.0 602654.0 0
154000.0 602661.0 0
158000.0 602654.0 0
162000.0 602658.0 0
166000.0 602654.0 0
170000.0 602655.0 0
174000.0 602654.0 0
178000.0 602654.0 0
182000.0 602654.0 0
186000.0 602654.0 0
190000.0 602654.0 0
194000.0 602654.0 0
198000.0 602654.0 0
202000.0 602654.0 0
206000.0 602654.0 0
210000.0 602654.0 0
214000.0 602654.0 0
218000.0 602654.0 0
222000.0 602654.0 0
226000.0 602654.0 0
230000.0 602654.0 0
234000.0 602654.0 0
238000.0 602654.0 0
242000.0 602654.0 0
246000.0 602654.0 0
250000.0 602654.0 0
254000.0 602654.0 0
258000.0 602654.0 0
262000.0 602654.0 0
266000.0 602654.0 0
270000.0 602654.0 0
274000.0 602654.0 0
278000.0 602654.0 0
282000.0 602654.0 0
286000.0 602654.0 0
290000.0 602654.0 0
294000.0 602654.0 0
298000.0 602654.0 0
302000.0 602654.0 0
306000.0 602654.0 0
310000.0 602654.0 0
314000.0 602654.0 0
318000.0 602654.0 0
322000.0 602654.0 0
326000.0 602654.0 0
330000.0 602655.0 0
334000.0 602654.0 0
338000.0 602658.0 0
342000.0 602654.0 0
346000.0 602661.0 0
350000.0 602654.0 0
354000.0 602665.0 0
358000.0 602659.0 0
362000.0 602679.0 0
366000.0 602665.0 0
370000.0 602688.0 0
374000.0 602681.0 0
378000.0 602693.0 0
382000.0 602670.0 0
386000.0 602682.0 0
390000.0 602694.0 0
394000.0 602702.0 0
398000.0 602705.0 0
102000.0 606703.0 0
106000.0 606700.0 0
110000.0 606692.0 0
114000.0 606681.0 0
118000.0 606669.0 0
122000.0 606690.0 0
126000.0 606678.0 0
130000.0 606685.0 0
134000.0 606664.0 0
138000.0 606676.0 0
142000.0 606658.0 0
146000.0 606664.0 0
150000.0 606654.0 0
154000.0 606660.0 0
158000.0 606654.0 0
162000.0 606657.0 0
166000.0 606654.0 0
170000.0 606655.0 0
174000.0 606654.0 0
178000.0 606654.0 0
182000.0 606654.0 0
186000.0 606654.0 0
190000.0 606654.0 0
194000.0 606654.0 0
198000.0 606654.0 0
202000.0 606654.0 0
206000.0 606654.0 0
210000.0 606654.0 0
214000.0 606654.0 0
218000.0 606654.0 0
222000.0 606654.0 0
226000.0 606654.0 0
230000.0 606654.0 0
234000.0 606654.0 0
238000.0 606654.0 0
242000.0 606654.0 0
246000.0 606654.0 0
250000.0 606654.0 0
254000.0 606654.0 0
258000.0 606654.0 0
262000.0 606654.0 0
266000.0 606654.0 0
270000.0 606654.0 0
274000.0 606654.0 0
278000.0 606654.0 0
282000.0 606654.0 0
286000.0 606654.0 0
290000.0 606654.0 0
294000.0 606654.0 0
298000.0 606654.0 0
302000.0 606654.0 0
306000.0 606654.0 0
310000.0 606654.0 0
314000.0 606654.0 0
318000.0 606654.0 0
322000.0 606654.0 0
326000.0 606654.0 0
330000.0 606655.0 0
334000.0 606654.0 0
338000.0 606657.0 0
342000.0 606654.0 0
346000.0 606660.0 0
350000.0 606654.0 0
354000.0 606664.0 0
358000.0 606658.0 0
362000.0 606676.0 0
366000.0 606664.0 0
370000.0 606685.0 0
374000.0 606678.0 0
378000.0 606690.0 0
382000.0 606669.0 0
386000.0 606681.0 0
390000.0 606692.0 0
394000.0 606700.0 0
398000.0 606703.0 0
102000.0 610701.0 0
106000.0 610697.0 0
110000.0 610689.0 0
114000.0 610679.0 0
118000.0 610668.0 0
122000.0 610688.0 0
126000.0 610676.0 0
130000.0 610683.0 0
134000.0 610662.0 0
138000.0 610674.0 0
142000.0 610657.0 0
146000.0 610663.0 0
150000.0 610654.0 0
154000.0 610660.0 0
158000.0 610654.0 0
162000.0 610657.0 0
166000.0 610654.0 0
170000.0 610655.0 0
174000.0 610654.0 0
178000.0 610654.0 0
182000.0 610654.0 0
186000.0 610654.0 0
190000.0 610654.0 0
194000.0 610654.0 0
198000.0 610654.0 0
202000.0 610654.0 0
206000.0 610654.0 0
210000.0 610654.0 0
214000.0 610654.0 0
218000.0 610654.0 0
222000.0 610654.0 0
226000.0 610654.0 0
230000.0 610654.0 0
234000.0 610654.0 0
238000.0 610654.0 0
242000.0 610654.0 0
246000.0 610654.0 0
250000.0 610654.0 0
254000.0 610654.0 0
258000.0 610654.0 0
262000.0 610654.0 0
266000.0 610654.0 0
270000.0 610654.0 0
274000.0 610654.0 0
278000.0 610654.0 0
282000.0 610654.0 0
286000.0 610654.0 0
290000.0 610654.0 0
294000.0 610654.0 0
298000.0 610654.0 0
302000.0 610654.0 0
306000.0 610654.0 0
310000.0 610654.0 0
314000.0 610654.0 0
318000.0 610654.0 0
322000.0 610654.0 0
326000.0 610654.0 0
330000.0 610655.0 0
334000.0 610654.0 0
338000.0 610657.0 0
342000.0 610654.0 0
346000.0 610660.0 0
350000.0 610654.0 0
354000.0 610663.0 0
358000.0 610657.0 0
362000.0 610674.0 0
366000.0 610662.0 0
370000.0 610683.0 0
374000.0 610676.0 0
378000.0 610688.0 0
382000.0 610668.0 0
386000.0 610679.0 0
390000.0 610689.0 0
394000.0 610697.0 0
398000.0 610701.0 0
102000.0 614699.0 0
106000.0 614695.0 0
110000.0 614687.0 0
114000.0 614678.0 0
118000.0 614667.0 0
122000.0 614686.0 0
126000.0 614673.0 0
130000.0 614680.0 0
134000.0 614661.0 0
138000.0 614673.0 0
142000.0 614657.0 0
146000.0 614662.0 0
150000.0 614654.0 0
154000.0 614659.0 0
158000.0 614654.0 0
162000.0 614656.0 0
166000.0 614654.0 0
170000.0 614655.0 0
174000.0 614654.0 0
178000.0 614654.0 0
182000.0 614654.0 0
186000.0 614654.0 0
190000.0 614654.0 0
194000.0 614654.0 0
198000.0 614654.0 0
202000.0 614654.0 0
206000.0 614654.0 0
210000.0 614654.0 0
214000.0 614654.0 0
218000.0 614654.0 0
222000.0 614654.0 0
226000.0 614654.0 0
230000.0 614654.0 0
234000.0 614654.0 0
238000.0 614654.0 0
242000.0 614654.0 0
246000.0 614654.0 0
250000.0 614654.0 0
254000.0 614654.0 0
258000.0 614654.0 0
262000.0 614654.0 0
266000.0 614654.0 0
270000.0 614654.0 0
274000.0 614654.0 0
278000.0 614654.0 0
282000.0 614654.0 0
286000.0 614654.0 0
290000.0 614654.0 0
294000.0 614654.0 0
298000.0 614654.0 0
302000.0 614654.0 0
306000.0 614654.0 0
310000.0 614654.0 0
314000.0 614654.0 0
318000.0 614654.0 0
322000.0 614654.0 0
326000.0 614654.0 0
330000.0 614655.0 0
334000.0 614654.0 0
338000.0 614656.0 0
342000.0 614654.0 0
346000.0 614659.0 0
350000.0 614654.0 0
354000.0 614662.0 0
358000.0 614657.0 0
362000.0 614673.0 0
366000.0 614661.0 0
370000.0 614680.0 0
374000.0 614673.0 0
378000.0 614686.0 0
382000.0 614667.0 0
386000.0 614678.0 0
390000.0 614687.0 0
394000.0 614695.0 0
398000.0 614699.0 0
102000.0 618697.0 0
106000.0 618693.0 0
110000.0 618686.0 0
114000.0 618677.0 0
118000.0 618667.0 0
122000.0 618684.0 0
126000.0 618672.0 0
130000.0 618679.0 0
134000.0 618660.0 0
138000.0 618671.0 0
142000.0 618656.0 0
146000.0 618661.0 0
150000.0 618654.0 0
154000.0 618658.0 0
158000.0 618654.0 0
162000.0 618656.0 0
166000.0 618654.0 0
170000.0 618654.0 0
174000.0 618654.0 0
178000.0 618654.0 0
182000.0 618654.0 0
186000.0 618654.0 0
190000.0 618654.0 0
194000.0 618654.0 0
198000.0 618654.0 0
202000.0 618654.0 0
206000.0 618654.0 0
210000.0 618654.0 0
214000.0 618654.0 0
218000.0 618654.0 0
222000.0 618654.0 0
226000.0 618654.0 0
230000.0 618654.0 0
234000.0 618654.0 0
238000.0 618654.0 0
242000.0 618654.0 0
246000.0 618654.0 0
250000.0 618654.0 0
254000.0 618654.0 0
258000.0 618654.0 0
262000.0 618654.0 0
266000.0 618654.0 0
270000.0 618654.0 0
274000.0 618654.0 0
278000.0 618654.0 0
282000.0 618654.0 0
286000.0 618654.0 0
290000.0 618654.0 0
294000.0 618654.0 0
298000.0 618654.0 0
302000.0 618654.0 0
306000.0 618654.0 0
310000.0 618654.0 0
314000.0 618654.0 0
318000.0 618654.0 0
322000.0 618654.0 0
326000.0 618654.0 0
330000.0 618654.0 0
334000.0 618654.0 0
338000.0 618656.0 0
342000.0 618654.0 0
346000.0 618658.0 0
350000.0 618654.0 0
354000.0 618661.0 0
358000.0 618656.0 0
362000.0 618671.0 0
366000.0 618660.0 0
370000.0 618679.0 0
374000.0 618672.0 0
378000.0 618684.0 0
382000.0 618667.0 0
386000.0 618677.0 0
390000.0 618686.0 0
394000.0 618693.0 0
398000.0 618697.0 0
102000.0 622695.0 0
106000.0 622692.0 0
110000.0 622684.0 0
114000.0 622676.0 0
118000.0 622666.0 0
122000.0 622682.0 0
126000.0 622670.0 0
130000.0 622677.0 0
134000.0 622659.0 0
138000.0 622670.0 0
142000.0 622656.0 0
146000.0 622661.0 0
150000.0 622654.0 0
154000.0 622658.0 0
158000.0 622654.0 0
162000.0 622656.0 0
166000.0 622654.0 0
170000.0 622654.0 0
174000.0 622654.0 0
178000.0 622654.0 0
182000.0 622654.0 0
186000.0 622654.0 0
190000.0 622654.0 0
194000.0 622654.0 0
198000.0 622654.0 0
202000.0 622654.0 0
206000.0 622654.0 0
210000.0 622654.0 0
214000.0 622654.0 0
218000.0 622654.0 0
222000.0 622654.0 0
226000.0 622654.0 0
230000.0 622654.0 0
234000.0 622654.0 0
238000.0 622654.0 0
242000.0 622654.0 0
246000.0 622654.0 0
250000.0 622654.0 0
254000.0 622654.0 0
258000.0 622654.0 0
262000.0 622654.0 0
266000.0 622654.0 0
270000.0 622654.0 0
274000.0 622654.0 0
278000.0 622654.0 0
282000.0 622654.0 0
286000.0 622654.0 0
290000.0 622654.0 0
294000.0 622654.0 0
298000.0 622654.0 0
302000.0 622654.0 0
306000.0 622654.0 0
310000.0 622654.0 0
314000.0 622654.0 0
318000.0 622654.0 0
322000.0 622654.0 0
326000.0 622654.0 0
330000.0 622654.0 0
334000.0 622654.0 0
338000.0 622656.0 0
342000.0 622654.0 0
346000.0 622658.0 0
350000.0 622654.0 0
354000.0 622661.0 0
358000.0 622656.0 0
362000.0 622670.0 0
366000.0 622659.0 0
370000.0 622677.0 0
374000.0 622670.0 0
378000.0 622682.0 0
382000.0 622666.0 0
386000.0 622676.0 0
390000.0 622684.0 0
394000.0 622692.0 0
398000.0 622695.0 0
102000.0 626694.0 0
106000.0 626691.0 0
110000.0 626683.0 0
114000.0 626676.0 0
118000.0 626665.0 0
122000.0 626681.0 0
126000.0 626669.0 0
130000.0 626676.0 0
134000.0 626659.0 0
138000.0 626669.0 0
142000.0 626655.0 0
146000.0 626660.0 0
150000.0 626654.0 0
154000.0 626658.0 0
158000.0 626654.0 0
162000.0 626656.0 0
166000.0 626654.0 0
170000.0 626654.0 0
174000.0 626654.0 0
178000.0 626654.0 0
182000.0 626654.0 0
186000.0 626654.0 0
190000.0 626654.0 0
194000.0 626654.0 0
198000.0 626654.0 0
202000.0 626654.0 0
206000.0 626654.0 0
210000.0 626654.0 0
214000.0 626654.0 0
218000.0 626654.0 0
222000.0 626654.0 0
226000.0 626654.0 0
230000.0 626654.0 0
234000.0 626654.0 0
238000.0 626654.0 0
242000.0 626654.0 0
246000.0 626654.0 0
250000.0 626654.0 0
254000.0 626654.0 0
258000.0 626654.0 0
262000.0 626654.0 0
266000.0 626654.0 0
270000.0 626654.0 0
274000.0 626654.0 0
278000.0 626654.0 0
282000.0 626654.0 0
286000.0 626654.0 0
290000.0 626654.0 0
294000.0 626654.0 0
298000.0 626654.0 0
302000.0 626654.0 0
306000.0 626654.0 0
310000.0 626654.0 0
314000.0 626654.0 0
318000.0 626654.0 0
322000.0 626654.0 0
326000.0 626654.0 0
330000.0 626654.0 0
334000.0 626654.0 0
338000.0 626656.0 0
342000.0 626654.0 0
346000.0 626658.0 0
350000.0 626654.0 0
354000.0 626660.0 0
358000.0 626655.0 0
362000.0 626669.0 0
366000.0 626659.0 0
370000.0 626676.0 0
374000.0 626669.0 0
378000.0 626681.0 0
382000.0 626665.0 0
386000.0 626676.0 0
390000.0 626683.0 0
394000.0 626691.0 0
398000.0 626694.0 0
102000.0 630693.0 0
106000.0 630690.0 0
110000.0 630682.0 0
114000.0 630675.0 0
118000.0 630665.0 0
122000.0 630680.0 0
126000.0 630668.0 0
130000.0 630675.0 0
134000.0 630658.0 0
138000.0 630668.0 0
142000.0 630655.0 0
146000.0 630660.0 0
150000.0 630654.0 0
154000.0 630657.0 0
158000.0 630654.0 0
162000.0 630655.0 0
166000.0 630654.0 0
170000.0 630654.0 0
174000.0 630654.0 0
178000.0 630654.0 0
182000.0 630654.0 0
186000.0 630654.0 0
190000.0 630654.0 0
194000.0 630654.0 0
198000.0 630654.0 0
202000.0 630654.0 0
206000.0 630654.0 0
210000.0 630654.0 0
214000.0 630654.0 0
218000.0 630654.0 0
222000.0 630654.0 0
226000.0 630654.0 0
230000.0 630654.0 0
234000.0 630654.0 0
238000.0 630654.0 0
242000.0 630654.0 0
246000.0 630654.0 0
250000.0 630654.0 0
254000.0 630654.0 0
258000.0 630654.0 0
262000.0 630654.0 0
266000.0 630654.0 0
270000.0 630654.0 0
274000.0 630654.0 0
278000.0 630654.0 0
282000.0 630654.0 0
286000.0 630654.0 0
290000.0 630654.0 0
294000.0 630654.0 0
298000.0 630654.0 0
302000.0 630654.0 0
306000.0 630654.0 0
310000.0 630654.0 0
314000.0 630654.0 0
318000.0 630654.0 0
322000.0 630654.0 0
326000.0 630654.0 0
330000.0 630654.0 0
334000.0 630654.0 0
338000.0 630655.0 0
342000.0 630654.0 0
346000.0 630657.0 0
350000.0 630654.0 0
354000.0 630660.0 0
358000.0 630655.0 0
362000.0 630668.0 0
366000.0 630658.0 0
370000.0 630675.0 0
374000.0 630668.0 0
378000.0 630680.0 0
382000.0 630665.0 0
386000.0 630675.0 0
390000.0 630682.0 0
394000.0 630690.0 0
398000.0 630693.0 0
102000.0 634692.0 0
106000.0 634689.0 0
110000.0 634681.0 0
114000.0 634675.0 0
118000.0 634665.0 0
122000.0 634679.0 0
126000.0 634667.0 0
130000.0 634674.0 0
134000.0 634658.0 0
138000.0 634667.0 0
142000.0 634655.0 0
146000.0 634660.0 0
150000.0 634654.0 0
154000.0 634657.0 0
158000.0 634654.0 0
162000.0 634655.0 0
166000.0 634654.0 0
170000.0 634654.0 0
174000.0 634654.0 0
178000.0 634654.0 0
182000.0 634654.0 0
186000.0 634654.0 0
190000.0 634654.0 0
194000.0 634654.0 0
198000.0 634654.0 0
202000.0 634654.0 0
206000.0 634654.0 0
210000.0 634654.0 0
214000.0 634654.0 0
218000.0 634654.0 0
222000.0 634654.0 0
226000.0 634654.0 0
230000.0 634654.0 0
234000.0 634654.0 0
238000.0 634654.0 0
242000.0 634654.0 0
246000.0 634654.0 0
250000.0 634654.0 0
254000.0 634654.0 0
258000.0 634654.0 0
262000.0 634654.0 0
266000.0 634654.0 0
270000.0 634654.0 0
274000.0 634654.0 0
278000.0 634654.0 0
282000.0 634654.0 0
286000.0 634654.0 0
290000.0 634654.0 0
294000.0 634654.0 0
298000.0 634654.0 0
302000.0 634654.0 0
306000.0 634654.0 0
310000.0 634654.0 0
314000.0 634654.0 0
318000.0 634654.0 0
322000.0 634654.0 0
326000.0 634654.0 0
330000.0 634654.0 0
334000.0 634654.0 0
338000.0 634655.0 0
342000.0 634654.0 0
346000.0 634657.0 0
350000.0 634654.0 0
354000.0 634660.0 0
358000.0 634655.0 0
362000.0 634667.0 0
366000.0 634658.0 0
370000.0 634674.0 0
374000.0 634667.0 0
378000.0 634679.0 0
382000.0 634665.0 0
386000.0 634675.0 0
390000.0 634681.0 0
394000.0 634689.0 0
398000.0 634692.0 0
102000.0 638692.0 0
106000.0 638688.0 0
110000.0 638681.0 0
114000.0 638674.0 0
118000.0 638664.0 0
122000.0 638679.0 0
126000.0 638666.0 0
130000.0 638673.0 0
134000.0 638658.0 0
138000.0 638667.0 0
142000.0 638655.0 0
146000.0 638659.0 0
150000.0 638654.0 0
154000.0 638657.0 0
158000.0 638654.0 0
162000.0 638655.0 0
166000.0 638654.0 0
170000.0 638654.0 0
174000.0 638654.0 0
178000.0 638654.0 0
182000.0 638654.0 0
186000.0 638654.0 0
190000.0 638654.0 0
194000.0 638654.0 0
198000.0 638654.0 0
202000.0 638654.0 0
206000.0 638654.0 0
210000.0 638654.0 0
214000.0 638654.0 0
218000.0 638654.0 0
222000.0 638654.0 0
226000.0 638654.0 0
230000.0 638654.0 0
234000.0 638654.0 0
238000.0 638654.0 0
242000.0 638654.0 0
246000.0 638654.0 0
250000.0 638654.0 0
254000.0 638654.0 0
258000.0 638654.0 0
262000.0 638654.0 0
266000.0 638654.0 0
270000.0 638654.0 0
274000.0 638654.0 0
278000.0 638654.0 0
282000.0 638654.0 0
286000.0 638654.0 0
290000.0 638654.0 0
294000.0 638654.0 0
298000.0 638654.0 0
302000.0 638654.0 0
306000.0 638654.0 0
310000.0 638654.0 0
314000.0 638654.0 0
318000.0 638654.0 0
322000.0 638654.0 0
326000.0 638654.0 0
330000.0 638654.0 0
334000.0 638654.0 0
338000.0 638655.0 0
342000.0 638654.0 0
346000.0 638657.0 0
350000.0 638654.0 0
354000.0 638659.0 0
358000.0 638655.0 0
362000.0 638667.0 0
366000.0 638658.0 0
370000.0 638673.0 0
374000.0 638666.0 0
378000.0 638679.0 0
382000.0 638664.0 0
386000.0 638674.0 0
390000.0 638681.0 0
394000.0 638688.0 0
398000.0 638692.0 0
102000.0 642692.0 0
106000.0 642688.0 0
110000.0 642681.0 0
114000.0 642674.0 0
118000.0 642664.0 0
122000.0 642679.0 0
126000.0 642666.0 0
130000.0 642673.0 0
134000.0 642657.0 0
138000.0 642667.0 0
142000.0 642655.0 0
146000.0 642659.0 0
150000.0 642654.0 0
154000.0 642657.0 0
158000.0 642654.0 0
162000.0 642655.0 0
166000.0 642654.0 0
170000.0 642654.0 0
174000.0 642654.0 0
178000.0 642654.0 0
182000.0 642654.0 0
186000.0 642654.0 0
190000.0 642654.0 0
194000.0 642654.0 0
198000.0 642654.0 0
202000.0 642654.0 0
206000.0 642654.0 0
210000.0 642654.0 0
214000.0 642654.0 0
218000.0 642654.0 0
222000.0 642654.0 0
226000.0 642654.0 0
230000.0 642654.0 0
234000.0 642654.0 0
238000.0 642654.0 0
242000.0 642654.0 0
246000.0 642654.0 0
250000.0 642654.0 0
254000.0 642654.0 0
258000.0 642654.0 0
262000.0 642654.0 0
266000.0 642654.0 0
270000.0 642654.0 0
274000.0 642654.0 0
278000.0 642654.0 0
282000.0 642654.0 0
286000.0 642654.0 0
290000.0 642654.0 0
294000.0 642654.0 0
298000.0 642654.0 0
302000.0 642654.0 0
306000.0 642654.0 0
310000.0 642654.0 0
314000.0 642654.0 0
318000.0 642654.0 0
322000.0 642654.0 0
326000.0 642654.0 0
330000.0 642654.0 0
334000.0 642654.0 0
338000.0 642655.0 0
342000.0 642654.0 0
346000.0 642657.0 0
350000.0 642654.0 0
354000.0 642659.0 0
358000.0 642655.0 0
362000.0 642667.0 0
366000.0 642657.0 0
370000.0 642673.0 0
374000.0 642666.0 0
378000.0 642679.0 0
382000.0 642664.0 0
386000.0 642674.0 0
390000.0 642681.0 0
394000.0 642688.0 0
398000.0 642692.0 0
POINT_DATA 4650
SCALARS Radius float 1
LOOKUP_TABLE default
4000.0 4000.0 4000.0 4000.0 4000.0 4000.0 4000.0 4000.0 4000.0 4000.0 4000.0 4000.0 4000.0 4000.0 4000.0 4000.0 4000.0 4000.0 4000.0 4000.0 4000.0 4000.0 4000.0 4000.0 4000.0 4000.0 4000.0 4000.0 4000.0 4000.0 4000.0 4000.0 4000.0 4000.0 4000.0 4000.0 4000.0 4000.0 4000.0 4000.0 4000.0 4000.0 4000.0 4000.0 4000.0 4000.0 4000.0 4000.0 4000.0 4000.0 4000.0 4000.0 4000.0 4000.0 4000.0 4000.0 4000.0 4000.0 4000.0 4000.0 4000.0 4000.0 4000.0 4000.0 4000.0 4000.0 4000.0 4000.0 4000.0 4000.0 4000.0 4000.0 4000.0 4000.0 4000.0 4000.0 4000.0 4000.0 4000.0 4000.0 4000.0 4000.0 4000.0 4000.0 4000.0 4000.0 4000.0 4000.0 4000.0 4000.0 4000.0 4000.0 4000.0 4000.0 4000.0 4000.0 4000.0 4000.0 4000.0 4000.0 4000.0 4000.0 4000.0 4000.0 4000.0 4000.0 4000.0 4000.0 4000.0 4000.0 4000.0 4000.0 4000.0 4000.0 4000.0 4000.0 4000.0 4000.0 4000.0 4000.0 4000.0 4000.0 4000.0 4000.0 4000.0 4000.0 4000.0 4000.0 4000.0 4000.0 4000.0 4000.0 4000.0 4000.0 4000.0 4000.0 4000.0 4000.0 4000.0 4000.0 4000.0 4000.0 4000.0 4000.0 4000.0 4000.0 4000.0 4000.0 4000.0 4000.0 4000.0 4000.0 4000.0 4000.0 4000.0 4000.0 4000.0 4000.0 4000.0 4000.0 4000.0 4000.0 4000.0 4000.0 4000.0 4000.0 4000.0 4000.0 4000.0 4000.0 4000.0 4000.0 4000.0 4000.0 4000.0 4000.0 4000.0 4000.0 4000.0 4000.0 4000.0 4000.0 4000.0 4000.0 4000.0 4000.0 4000.0 4000.0 4000.0 4000.0 4000.0 4000.0 4000.0 4000.0 4000.0 4000.0 4000.0 4000.0 4000.0 4000.0 4000.0 4000.0 4000.0 4000.0 4000.0 4000.0 4000.0 4000.0 4000.0 4000.0 4000.0 4000.0 4000.0 4000.0 4000.0 4000.0 4000.0 4000.0 4000.0 4000.0 4000.0 4000.0 4000.0 4000.0 4000.0 4000.0 4000.0 4000.0 4000.0 4000.0 4000.0 4000.0 4000.0 4000.0 4000.0 4000.0 4000.0 4000.0 4000.0 4000.0 4000.0 4000.0 4000.0 4000.0 4000.0 4000.0 4000.0 4000.0 4000.0 4000.0 4000.0 4000.0 4000.0 4000.0 4000.0 4000.0 4000.0 4000.0 4000.0 4000.0 4000.0 4000.0 4000.0 4000.0 4000.0 4000.0 4000.0 4000.0 4000.0 4000.0 4000.0 4000.0 4000.0 4000.0 4000.0 4000.0 4000.0 4000.0 4000.0 4000.0 4000.0 4000.0 4000.0 4000.0 4000.0 4000.0 4000.0 4000.0 4000.0 4000.0 4000.0 4000.0 4000.0 4000.0 4000.0 4000.0 4000.0 4000.0 4000.0 4000.0 4000.0 4000.0 4000.0 4000.0 4000.0 4000.0 4000.0 4000.0 4000.0 4000.0 4000.0 4000.0 4000.0 4000.0 4000.0 4000.0 4000.0 4000.0 4000.0 4000.0 4000.0 4000.0 4000.0 4000.0 4000.0 4000.0 4000.0 4000.0 4000.0 4000.0 4000.0 4000.0 4000.0 4000.0 4000.0 4000.0 4000.0 4000.0 4000.0 4000.0 4000.0 4000.0 4000.0 4000.0 4000.0 4000.0 4000.0 4000.0 4000.0 4000.0 4000.0 4000.0 4000.0 4000.0 4000.0 4000.0 4000.0 4000.0 4000.0 4000.0 4000.0 4000.0 4000.0 4000.0 4000.0 4000.0 4000.0 4000.0 4000.0 4000.0 4000.0 4000.0 4000.0 4000.0 4000.0 4000.0 4000.0 4000.0 4000.0 4000.0 4000.0 4000.0 4000.0 4000.0 4000.0 4000.0 4000.0 4000.0 4000.0 4000.0 4000.0 4000.0 4000.0 4000.0 4000.0 4000.0 4000.0 4000.0 4000.0 4000.0 4000.0 4000.0 4000.0 4000.0 4000.0 4000.0 4000.0 4000.0 4000.0 4000.0 4000.0 4000.0 4000.0 4000.0 4000.0 4000.0 4000.0 4000.0 4000.0 4000.0 4000.0 4000.0 4000.0 4000.0 4000.0 4000.0 4000.0 4000.0 4000.0 4000.0 4000.0 4000.0 4000.0 4000.0 4000.0 4000.0 4000.0 4000.0 4000.0 4000.0 4000.0 4000.0 4000.0 4000.0 4000.0 4000.0 4000.0 4000.0 4000.0 4000.0 4000.0 4000.0 4000.0 4000.0 4000.0 4000.0 4000.0 4000.0 4000.0 4000.0 4000.0 4000.0 4000.0 4000.0 4000.0 4000.0 4000.0 4000.0 4000.0 4000.0 4000.0 4000.0 4000.0 4000.0 4000.0 4000.0 4000.0 4000.0 4000.0 4000.0 4000.0 4000.0 4000.0 4000.0 4000.0 4000.0 4000.0 4000.0 4000.0 4000.0 4000.0 4000.0 4000.0 4000.0 4000.0 4000.0 4000.0 4000.0 4000.0 4000.0 4000.0 4000.0 4000.0 4000.0 4000.0 4000.0 4000.0 4000.0 4000.0 4000.0 4000.0 4000.0 4000.0 4000.0 4000.0 4000.0 4000.0 4000.0 4000.0 4000.0 4000.0 4000.0 4000.0 4000.0 4000.0 4000.0 4000.0 4000.0 4000.0 4000.0 4000.0 4000.0 4000.0 4000.0 4000.0 4000.0 4000.0 4000.0 4000.0 4000.0 4000.0 4000.0 4000.0 4000.0 4000.0 4000.0 4000.0 4000.0 4000.0 4000.0 4000.0 4000.0 4000.0 4000.0 4000.0 4000.0 4000.0 4000.0 4000.0 4000.0 4000.0 4000.0 4000.0 4000.0 4000.0 4000.0 4000.0 4000.0 4000.0 4000.0 4000.0 4000.0 4000.0 4000.0 4000.0 4000.0 4000.0 4000.0 4000.0 4000.0 4000.0 4000.0 4000.0 4000.0 4000.0 4000.0 4000.0 4000.0 4000.0 4000.0 4000.0 4000.0 4000.0 4000.0 4000.0 4000.0 4000.0 4000.0 4000.0 4000.0 4000.0 4000.0 4000.0 4000.0 4000.0 4000.0 4000.0 4000.0 4000.0 4000.0 4000.0 4000.0 4000.0 4000.0 4000.0 4000.0 4000.0 4000.0 4000.0 4000.0 4000.0 4000.0 4000.0 4000.0 4000.0 4000.0 4000.0 4000.0 4000.0 4000.0 4000.0 4000.0 4000.0 4000.0 4000.0 4000.0 4000.0 4000.0 4000.0 4000.0 4000.0 4000.0 4000.0 4000.0 4000.0 4000.0 4000.0 4000.0 4000.0 4000.0 4000.0 4000.0 4000.0 4000.0 4000.0 4000.0 4000.0 4000.0 4000.0 4000.0 4000.0 4000.0 4000.0 4000.0 4000.0 4000.0 4000.0 4000.0 4000.0 4000.0 4000.0 4000.0 4000.0 4000.0 4000.0 4000.0 4000.0 4000.0 4000.0 4000.0 4000.0 4000.0 4000.0 4000.0 4000.0 4000.0 4000.0 4000.0 4000.0 4000.0 4000.0 4000.0 4000.0 4000.0 4000.0 4000.0 4000.0 4000.0 4000.0 4000.0 4000.0 4000.0 4000.0 4000.0 4000.0 4000.0 4000.0 4000.0 4000.0 4000.0 4000.0 4000.0 4000.0 4000.0 4000.0 4000.0 4000.0 4000.0 4000.0 4000.0 4000.0 4000.0 4000.0 4000.0 4000.0 4000.0 4000.0 4000.0 4000.0 4000.0 4000.0 4000.0 4000.0 4000.0 4000.0 4000.0 4000.0 4000.0 4000.0 4000.0 4000.0 4000.0 4000.0 4000.0 4000.0 4000.0 4000.0 4000.0 4000.0 4000.0 4000.0 4000.0 4000.0 4000.0 4000.0 4000.0 4000.0 4000.0 4000.0 4000.0 4000.0 4000.0 4000.0 4000.0 4000.0 4000.0 4000.0 4000.0 4000.0 4000.0 4000.0 4000.0 4000.0 4000.0 4000.0 4000.0 4000.0 4000.0 4000.0 4000.0 4000.0 4000.0 4000.0 4000.0 4000.0 4000.0 4000.0 4000.0 4000.0 4000.0 4000.0 4000.0 4000.0 4000.0 4000.0 4000.0 4000.0 4000.0 4000.0 4000.0 4000.0 4000.0 4000.0 4000.0 4000.0 4000.0 4000.0 4000.0 4000.0 4000.0 4000.0 4000.0 4000.0 4000.0 4000.0 4000.0 4000.0 4000.0 4000.0 4000.0 4000.0 4000.0 4000.0 4000.0 4000.0 4000.0 4000.0 4000.0 4000.0 4000.0 4000.0 4000.0 4000.0 4000.0 4000.0 4000.0 4000.0 4000.0 4000.0 4000.0 4000.0 4000.0 4000.0 4000.0 4000.0 4000.0 4000.0 4000.0 4000.0 4000.0 4000.0 4000.0 4000.0 4000.0 4000.0 4000.0 4000.0 4000.0 4000.0 4000.0 4000.0 4000.0 4000.0 4000.0 4000.0 4000.0 4000.0 4000.0 4000.0 4000.0 4000.0 4000.0 4000.0 4000.0 4000.0 4000.0 4000.0 4000.0 4000.0 4000.0 4000.0 4000.0 4000.0 4000.0 4000.0 4000.0 4000.0 4000.0 4000.0 4000.0 4000.0 4000.0 4000.0 4000.0 4000.0 4000.0 4000.0 4000.0 4000.0 4000.0 4000.0 4000.0 4000.0 4000.0 4000.0 4000.0 4000.0 4000.0 4000.0 4000.0 4000.0 4000.0 4000.0 4000.0 4000.0 4000.0 4000.0 4000.0 4000.0 4000.0 4000.0 4000.0 4000.0 4000.0 4000.0 4000.0 4000.0 4000.0 4000.0 4000.0 4000.0 4000.0 4000.0 4000.0 4000.0 4000.0 4000.0 4000.0 4000.0 4000.0 4000.0 4000.0 4000.0 4000.0 4000.0 4000.0 4000.0 4000.0 4000.0 4000.0 4000.0 4000.0 4000.0 4000.0 4000.0 4000.0 4000.0 4000.0 4000.0 4000.0 4000.0 4000.0 4000.0 4000.0 4000.0 4000.0 4000.0 4000.0 4000.0 4000.0 4000.0 4000.0 4000.0 4000.0 4000.0 4000.0 4000.0 4000.0 4000.0 4000.0 4000.0 4000.0 4000.0 4000.0 4000.0 4000.0 4000.0 4000.0 4000.0 4000.0 4000.0 4000.0 4000.0 4000.0 4000.0 4000.0 4000.0 4000.0 4000.0 4000.0 4000.0 4000.0 4000.0 4000.0 4000.0 4000.0 4000.0 4000.0 4000.0 4000.0 4000.0 4000.0 4000.0 4000.0 4000.0 4000.0 4000.0 4000.0 4000.0 4000.0 4000.0 4000.0 4000.0 4000.0 4000.0 4000.0 4000.0 4000.0 4000.0 4000.0 4000.0 4000.0 4000.0 4000.0 4000.0 4000.0 4000.0 4000.0 4000.0 4000.0 4000.0 4000.0 4000.0 4000.0 4000.0 4000.0 4000.0 4000.0 4000.0 4000.0 4000.0 4000.0 4000.0 4000.0 4000.0 4000.0 4000.0 4000.0 4000.0 4000.0 4000.0 4000.0 4000.0 4000.0 4000.0 4000.0 4000.0 4000.0 4000.0 4000.0 4000.0 4000.0 4000.0 4000.0 4000.0 4000.0 4000.0 4000.0 4000.0 4000.0 4000.0 4000.0 4000.0 4000.0 4000.0 4000.0 4000.0 4000.0 4000.0 4000.0 4000.0 4000.0 4000.0 4000.0 4000.0 4000.0 4000.0 4000.0 4000.0 4000.0 4000.0 4000.0 4000.0 4000.0 4000.0 4000.0 4000.0 4000.0 4000.0 4000.0 4000.0 4000.0 4000.0 4000.0 4000.0 4000.0 4000.0 4000.0 4000.0 4000.0 4000.0 4000.0 4000.0 4000.0 4000.0 4000.0 4000.0 4000.0 4000.0 4000.0 4000.0 4000.0 4000.0 4000.0 4000.0 4000.0 4000.0 4000.0 4000.0 4000.0 4000.0 4000.0 4000.0 4000.0 4000.0 4000.0 4000.0 4000.0 4000.0 4000.0 4000.0 4000.0 4000.0 4000.0 4000.0 4000.0 4000.0 4000.0 4000.0 4000.0 4000.0 4000.0 4000.0 4000.0 4000.0 4000.0 4000.0 4000.0 4000.0 4000.0 4000.0 4000.0 4000.0 4000.0 4000.0 4000.0 4000.0 4000.0 4000.0 4000.0 4000.0 4000.0 4000.0 4000.0 4000.0 4000.0 4000.0 4000.0 4000.0 4000.0 4000.0 4000.0 4000.0 4000.0 4000.0 4000.0 4000.0 4000.0 4000.0 4000.0 4000.0 4000.0 4000.0 4000.0 4000.0 4000.0 4000.0 4000.0 4000.0 4000.0 4000.0 4000.0 4000.0 4000.0 4000.0 4000.0 4000.0 4000.0 4000.0 4000.0 4000.0 4000.0 4000.0 4000.0 4000.0 4000.0 4000.0 4000.0 4000.0 4000.0 4000.0 4000.0 4000.0 4000.0 4000.0 4000.0 4000.0 4000.0 4000.0 4000.0 4000.0 4000.0 4000.0 4000.0 4000.0 4000.0 4000.0 4000.0 4000.0 4000.0 4000.0 4000.0 4000.0 4000.0 4000.0 4000.0 4000.0 4000.0 4000.0 4000.0 4000.0 4000.0 4000.0 4000.0 4000.0 4000.0 4000.0 4000.0 4000.0 4000.0 4000.0 4000.0 4000.0 4000.0 4000.0 4000.0 4000.0 4000.0 4000.0 4000.0 4000.0 4000.0 4000.0 4000.0 4000.0 4000.0 4000.0 4000.0 4000.0 4000.0 4000.0 4000.0 4000.0 4000.0 4000.0 4000.0 4000.0 4000.0 4000.0 4000.0 4000.0 4000.0 4000.0 4000.0 4000.0 4000.0 4000.0 4000.0 4000.0 4000.0 4000.0 4000.0 4000.0 4000.0 4000.0 4000.0 4000.0 4000.0 4000.0 4000.0 4000.0 4000.0 4000.0 4000.0 4000.0 4000.0 4000.0 4000.0 4000.0 4000.0 4000.0 4000.0 4000.0 4000.0 4000.0 4000.0 4000.0 4000.0 4000.0 4000.0 4000.0 4000.0 4000.0 4000.0 4000.0 4000.0 4000.0 4000.0 4000.0 4000.0 4000.0 4000.0 4000.0 4000.0 4000.0 4000.0 4000.0 4000.0 4000.0 4000.0 4000.0 4000.0 4000.0 4000.0 4000.0 4000.0 4000.0 4000.0 4000.0 4000.0 4000.0 4000.0 4000.0 4000.0 4000.0 4000.0 4000.0 4000.0 4000.0 4000.0 4000.0 4000.0 4000.0 4000.0 4000.0 4000.0 4000.0 4000.0 4000.0 4000.0 4000.0 4000.0 4000.0 4000.0 4000.0 4000.0 4000.0 4000.0 4000.0 4000.0 4000.0 4000.0 4000.0 4000.0 4000.0 4000.0 4000.0 4000.0 4000.0 4000.0 4000.0 4000.0 4000.0 4000.0 4000.0 4000.0 4000.0 4000.0 4000.0 4000.0 4000.0 4000.0 4000.0 4000.0 4000.0 4000.0 4000.0 4000.0 4000.0 4000.0 4000.0 4000.0 4000.0 4000.0 4000.0 4000.0 4000.0 4000.0 4000.0 4000.0 4000.0 4000.0 4000.0 4000.0 4000.0 4000.0 4000.0 4000.0 4000.0 4000.0 4000.0 4000.0 4000.0 4000.0 4000.0 4000.0 4000.0 4000.0 4000.0 4000.0 4000.0 4000.0 4000.0 4000.0 4000.0 4000.0 4000.0 4000.0 4000.0 4000.0 4000.0 4000.0 4000.0 4000.0 4000.0 4000.0 4000.0 4000.0 4000.0 4000.0 4000.0 4000.0 4000.0 4000.0 4000.0 4000.0 4000.0 4000.0 4000.0 4000.0 4000.0 4000.0 4000.0 4000.0 4000.0 4000.0 4000.0 4000.0 4000.0 4000.0 4000.0 4000.0 4000.0 4000.0 4000.0 4000.0 4000.0 4000.0 4000.0 4000.0 4000.0 4000.0 4000.0 4000.0 4000.0 4000.0 4000.0 4000.0 4000.0 4000.0 4000.0 4000.0 4000.0 4000.0 4000.0 4000.0 4000.0 4000.0 4000.0 4000.0 4000.0 4000.0 4000.0 4000.0 4000.0 4000.0 4000.0 4000.0 4000.0 4000.0 4000.0 4000.0 4000.0 4000.0 4000.0 4000.0 4000.0 4000.0 4000.0 4000.0 4000.0 4000.0 4000.0 4000.0 4000.0 4000.0 4000.0 4000.0 4000.0 4000.0 4000.0 4000.0 4000.0 4000.0 4000.0 4000.0 4000.0 4000.0 4000.0 4000.0 4000.0 4000.0 4000.0 4000.0 4000.0 4000.0 4000.0 4000.0 4000.0 4000.0 4000.0 4000.0 4000.0 4000.0 4000.0 4000.0 4000.0 4000.0 4000.0 4000.0 4000.0 4000.0 4000.0 4000.0 4000.0 4000.0 4000.0 4000.0 4000.0 4000.0 4000.0 4000.0 4000.0 4000.0 4000.0 4000.0 4000.0 4000.0 4000.0 4000.0 4000.0 4000.0 4000.0 4000.0 4000.0 4000.0 4000.0 4000.0 4000.0 4000.0 4000.0 4000.0 4000.0 4000.0 4000.0 4000.0 4000.0 4000.0 4000.0 4000.0 4000.0 4000.0 4000.0 4000.0 4000.0 4000.0 4000.0 4000.0 4000.0 4000.0 4000.0 4000.0 4000.0 4000.0 4000.0 4000.0 4000.0 4000.0 4000.0 4000.0 4000.0 4000.0 4000.0 4000.0 4000.0 4000.0 4000.0 4000.0 4000.0 4000.0 4000.0 4000.0 4000.0 4000.0 4000.0 4000.0 4000.0 4000.0 4000.0 4000.0 4000.0 4000.0 4000.0 4000.0 4000.0 4000.0 4000.0 4000.0 4000.0 4000.0 4000.0 4000.0 4000.0 4000.0 4000.0 4000.0 4000.0 4000.0 4000.0 4000.0 4000.0 4000.0 4000.0 4000.0 4000.0 4000.0 4000.0 4000.0 4000.0 4000.0 4000.0 4000.0 4000.0 4000.0 4000.0 4000.0 4000.0 4000.0 4000.0 4000.0 4000.0 4000.0 4000.0 4000.0 4000.0 4000.0 4000.0 4000.0 4000.0 4000.0 4000.0 4000.0 4000.0 4000.0 4000.0 4000.0 4000.0 4000.0 4000.0 4000.0 4000.0 4000.0 4000.0 4000.0 4000.0 4000.0 4000.0 4000.0 4000.0 4000.0 4000.0 4000.0 4000.0 4000.0 4000.0 4000.0 4000.0 4000.0 4000.0 4000.0 4000.0 4000.0 4000.0 4000.0 4000.0 4000.0 4000.0 4000.0 4000.0 4000.0 4000.0 4000.0 4000.0 4000.0 4000.0 4000.0 4000.0 4000.0 4000.0 4000.0 4000.0 4000.0 4000.0 4000.0 4000.0 4000.0 4000.0 4000.0 4000.0 4000.0 4000.0 4000.0 4000.0 4000.0 4000.0 4000.0 4000.0 4000.0 4000.0 4000.0 4000.0 4000.0 4000.0 4000.0 4000.0 4000.0 4000.0 4000.0 4000.0 4000.0 4000.0 4000.0 4000.0 4000.0 4000.0 4000.0 4000.0 4000.0 4000.0 4000.0 4000.0 4000.0 4000.0 4000.0 4000.0 4000.0 4000.0 4000.0 4000.0 4000.0 4000.0 4000.0 4000.0 4000.0 4000.0 4000.0 4000.0 4000.0 4000.0 4000.0 4000.0 4000.0 4000.0 4000.0 4000.0 4000.0 4000.0 4000.0 4000.0 4000.0 4000.0 4000.0 4000.0 4000.0 4000.0 4000.0 4000.0 4000.0 4000.0 4000.0 4000.0 4000.0 4000.0 4000.0 4000.0 4000.0 4000.0 4000.0 4000.0 4000.0 4000.0 4000.0 4000.0 4000.0 4000.0 4000.0 4000.0 4000.0 4000.0 4000.0 4000.0 4000.0 4000.0 4000.0 4000.0 4000.0 4000.0 4000.0 4000.0 4000.0 4000.0 4000.0 4000.0 4000.0 4000.0 4000.0 4000.0 4000.0 4000.0 4000.0 4000.0 4000.0 4000.0 4000.0 4000.0 4000.0 4000.0 4000.0 4000.0 4000.0 4000.0 4000.0 4000.0 4000.0 4000.0 4000.0 4000.0 4000.0 4000.0 4000.0 4000.0 4000.0 4000.0 4000.0 4000.0 4000.0 4000.0 4000.0 4000.0 4000.0 4000.0 4000.0 4000.0 4000.0 4000.0 4000.0 4000.0 4000.0 4000.0 4000.0 4000.0 4000.0 4000.0 4000.0 4000.0 4000.0 4000.0 4000.0 4000.0 4000.0 4000.0 4000.0 4000.0 4000.0 4000.0 4000.0 4000.0 4000.0 4000.0 4000.0 4000.0 4000.0 4000.0 4000.0 4000.0 4000.0 4000.0 4000.0 4000.0 4000.0 4000.0 4000.0 4000.0 4000.0 4000.0 4000.0 4000.0 4000.0 4000.0 4000.0 4000.0 4000.0 4000.0 4000.0 4000.0 4000.0 4000.0 4000.0 4000.0 4000.0 4000.0 4000.0 4000.0 4000.0 4000.0 4000.0 4000.0 4000.0 4000.0 4000.0 4000.0 4000.0 4000.0 4000.0 4000.0 4000.0 4000.0 4000.0 4000.0 4000.0 4000.0 4000.0 4000.0 4000.0 4000.0 4000.0 4000.0 4000.0 4000.0 4000.0 4000.0 4000.0 4000.0 4000.0 4000.0 4000.0 4000.0 4000.0 4000.0 4000.0 4000.0 4000.0 4000.0 4000.0 4000.0 4000.0 4000.0 4000.0 4000.0 4000.0 4000.0 4000.0 4000.0 4000.0 4000.0 4000.0 4000.0 4000.0 4000.0 4000.0 4000.0 4000.0 4000.0 4000.0 4000.0 4000.0 4000.0 4000.0 4000.0 4000.0 4000.0 4000.0 4000.0 4000.0 4000.0 4000.0 4000.0 4000.0 4000.0 4000.0 4000.0 4000.0 4000.0 4000.0 4000.0 4000.0 4000.0 4000.0 4000.0 4000.0 4000.0 4000.0 4000.0 4000.0 4000.0 4000.0 4000.0 4000.0 4000.0 4000.0 4000.0 4000.0 4000.0 4000.0 4000.0 4000.0 4000.0 4000.0 4000.0 4000.0 4000.0 4000.0 4000.0 4000.0 4000.0 4000.0 4000.0 4000.0 4000.0 4000.0 4000.0 4000.0 4000.0 4000.0 4000.0 4000.0 4000.0 4000.0 4000.0 4000.0 4000.0 4000.0 4000.0 4000.0 4000.0 4000.0 4000.0 4000.0 4000.0 4000.0 4000.0 4000.0 4000.0 4000.0 4000.0 4000.0 4000.0 4000.0 4000.0 4000.0 4000.0 4000.0 4000.0 4000.0 4000.0 4000.0 4000.0 4000.0 4000.0 4000.0 4000.0 4000.0 4000.0 4000.0 4000.0 4000.0 4000.0 4000.0 4000.0 4000.0 4000.0 4000.0 4000.0 4000.0 4000.0 4000.0 4000.0 4000.0 4000.0 4000.0 4000.0 4000.0 4000.0 4000.0 4000.0 4000.0 4000.0 4000.0 4000.0 4000.0 4000.0 4000.0 4000.0 4000.0 4000.0 4000.0 4000.0 4000.0 4000.0 4000.0 4000.0 4000.0 4000.0 4000.0 4000.0 4000.0 4000.0 4000.0 4000.0 4000.0 4000.0 4000.0 4000.0 4000.0 4000.0 4000.0 4000.0 4000.0 4000.0 4000.0 4000.0 4000.0 4000.0 4000.0 4000.0 4000.0 4000.0 4000.0 4000.0 4000.0 4000.0 4000.0 4000.0 4000.0 4000.0 4000.0 4000.0 4000.0 4000.0 4000.0 4000.0 4000.0 4000.0 4000.0 4000.0 4000.0 4000.0 4000.0 4000.0 4000.0 4000.0 4000.0 4000.0 4000.0 4000.0 4000.0 4000.0 4000.0 4000.0 4000.0 4000.0 4000.0 4000.0 4000.0 4000.0 4000.0 4000.0 4000.0 4000.0 4000.0 4000.0 4000.0 4000.0 4000.0 4000.0 4000.0 4000.0 4000.0 4000.0 4000.0 4000.0 4000.0 4000.0 4000.0 4000.0 4000.0 4000.0 4000.0 4000.0 4000.0 4000.0 4000.0 4000.0 4000.0 4000.0 4000.0 4000.0 4000.0 4000.0 4000.0 4000.0 4000.0 4000.0 4000.0 4000.0 4000.0 4000.0 4000.0 4000.0 4000.0 4000.0 4000.0 4000.0 4000.0 4000.0 4000.0 4000.0 4000.0 4000.0 4000.0 4000.0 4000.0 4000.0 4000.0 4000.0 4000.0 4000.0 4000.0 4000.0 4000.0 4000.0 4000.0 4000.0 4000.0 4000.0 4000.0 4000.0 4000.0 4000.0 4000.0 4000.0 4000.0 4000.0 4000.0 4000.0 4000.0 4000.0 4000.0 4000.0 4000.0 4000.0 4000.0 4000.0 4000.0 4000.0 4000.0 4000.0 4000.0 4000.0 4000.0 4000.0 4000.0 4000.0 4000.0 4000.0 4000.0 4000.0 4000.0 4000.0 4000.0 4000.0 4000.0 4000.0 4000.0 4000.0 4000.0 4000.0 4000.0 4000.0 4000.0 4000.0 4000.0 4000.0 4000.0 4000.0 4000.0 4000.0 4000.0 4000.0 4000.0 4000.0 4000.0 4000.0 4000.0 4000.0 4000.0 4000.0 4000.0 4000.0 4000.0 4000.0 4000.0 4000.0 4000.0 4000.0 4000.0 4000.0 4000.0 4000.0 4000.0 4000.0 4000.0 4000.0 4000.0 4000.0 4000.0 4000.0 4000.0 4000.0 4000.0 4000.0 4000.0 4000.0 4000.0 4000.0 4000.0 4000.0 4000.0 4000.0 4000.0 4000.0 4000.0 4000.0 4000.0 4000.0 4000.0 4000.0 4000.0 4000.0 4000.0 4000.0 4000.0 4000.0 4000.0 4000.0 4000.0 4000.0 4000.0 4000.0 4000.0 4000.0 4000.0 4000.0 4000.0 4000.0 4000.0 4000.0 4000.0 4000.0 4000.0 4000.0 4000.0 4000.0 4000.0 4000.0 4000.0 4000.0 4000.0 4000.0 4000.0 4000.0 4000.0 4000.0 4000.0 4000.0 4000.0 4000.0 4000.0 4000.0 4000.0 4000.0 4000.0 4000.0 4000.0 4000.0 4000.0 4000.0 4000.0 4000.0 4000.0 4000.0 4000.0 4000.0 4000.0 4000.0 4000.0 4000.0 4000.0 4000.0 4000.0 4000.0 4000.0 4000.0 4000.0 4000.0 4000.0 4000.0 4000.0 4000.0 4000.0 4000.0 4000.0 4000.0 4000.0 4000.0 4000.0 4000.0 4000.0 4000.0 4000.0 4000.0 4000.0 4000.0 4000.0 4000.0 4000.0 4000.0 4000.0 4000.0 4000.0 4000.0 4000.0 4000.0 4000.0 4000.0 4000.0 4000.0 4000.0 4000.0 4000.0 4000.0 4000.0 4000.0 4000.0 4000.0 4000.0 4000.0 4000.0 4000.0 4000.0 4000.0 4000.0 4000.0 4000.0 4000.0 4000.0 4000.0 4000.0 4000.0 4000.0 4000.0 4000.0 4000.0 4000.0 4000.0 4000.0 4000.0 4000.0 4000.0 4000.0 4000.0 4000.0 4000.0 4000.0 4000.0 4000.0 4000.0 4000.0 4000.0 4000.0 4000.0 4000.0 4000.0 4000.0 4000.0 4000.0 4000.0 4000.0 4000.0 4000.0 4000.0 4000.0 4000.0 4000.0 4000.0 4000.0 4000.0 4000.0 4000.0 4000.0 4000.0 4000.0 4000.0 4000.0 4000.0 4000.0 4000.0 4000.0 4000.0 4000.0 4000.0 4000.0 4000.0 4000.0 4000.0 4000.0 4000.0 4000.0 4000.0 4000.0 4000.0 4000.0 4000.0 4000.0 4000.0 4000.0 4000.0 4000.0 4000.0 4000.0 4000.0 4000.0 4000.0 4000.0 4000.0 4000.0 4000.0 4000.0 4000.0 4000.0 4000.0 4000.0 4000.0 4000.0 4000.0 4000.0 4000.0 4000.0 4000.0 4000.0 4000.0 4000.0 4000.0 4000.0 4000.0 4000.0 4000.0 4000.0 4000.0 4000.0 4000.0 4000.0 4000.0 4000.0 4000.0 4000.0 4000.0 4000.0 4000.0 4000.0 4000.0 4000.0 4000.0 4000.0 4000.0 4000.0 4000.0 4000.0 4000.0 4000.0 4000.0 4000.0 4000.0 4000.0 4000.0 4000.0 4000.0 4000.0 4000.0 4000.0 4000.0 4000.0 4000.0 4000.0 4000.0 4000.0 4000.0 4000.0 4000.0 4000.0 4000.0 4000.0 4000.0 4000.0 4000.0 4000.0 4000.0 4000.0 4000.0 4000.0 4000.0 4000.0 4000.0 4000.0 4000.0 4000.0 4000.0 4000.0 4000.0 4000.0 4000.0 4000.0 4000.0 4000.0 4000.0 4000.0 4000.0 4000.0 4000.0 4000.0 4000.0 4000.0 4000.0 4000.0 4000.0 4000.0 4000.0 4000.0 4000.0 4000.0 4000.0 4000.0 4000.0 4000.0 4000.0 4000.0 4000.0 4000.0 4000.0 4000.0 4000.0 4000.0 4000.0 4000.0 4000.0 4000.0 4000.0 4000.0 4000.0 4000.0 4000.0 4000.0 4000.0 4000.0 4000.0 4000.0 4000.0 4000.0 4000.0 4000.0 4000.0 4000.0 4000.0 4000.0 4000.0 4000.0 4000.0 4000.0 4000.0 4000.0 4000.0 4000.0 4000.0 4000.0 4000.0 4000.0 4000.0 4000.0 4000.0 4000.0 4000.0 4000.0 4000.0 4000.0 4000.0 4000.0 4000.0 4000.0 4000.0 4000.0 4000.0 4000.0 4000.0 4000.0 4000.0 4000.0 4000.0 4000.0 4000.0 4000.0 4000.0 4000.0 4000.0 4000.0 4000.0 4000.0 4000.0 4000.0 4000.0 4000.0 4000.0 4000.0 4000.0 4000.0 4000.0 4000.0 4000.0 4000.0 4000.0 4000.0 4000.0 4000.0 4000.0 4000.0 4000.0 4000.0 4000.0 4000.0 4000.0 4000.0 4000.0 4000.0 4000.0 4000.0 4000.0 4000.0 4000.0 4000.0 4000.0 4000.0 4000.0 4000.0 4000.0 4000.0 4000.0 4000.0 4000.0 4000.0 4000.0 4000.0 4000.0 4000.0 4000.0 4000.0 4000.0 4000.0 4000.0 4000.0 4000.0 4000.0 4000.0 4000.0 4000.0 4000.0 4000.0 4000.0 4000.0 4000.0 4000.0 4000.0 4000.0 4000.0 4000.0 4000.0 4000.0 4000.0 4000.0 4000.0 4000.0 4000.0 4000.0 4000.0 4000.0 4000.0 4000.0 4000.0 4000.0 4000.0 4000.0 4000.0 4000.0 4000.0 4000.0 4000.0 4000.0 4000.0 4000.0 4000.0 4000.0 4000.0 4000.0 4000.0 4000.0 4000.0 4000.0 4000.0 4000.0 4000.0 4000.0 4000.0 4000.0 4000.0 4000.0 4000.0 4000.0 4000.0 4000.0 4000.0 4000.0 4000.0 4000.0 4000.0 4000.0 4000.0 4000.0 4000.0 4000.0 4000.0 4000.0 4000.0 4000.0 4000.0 4000.0 4000.0 4000.0 4000.0 4000.0 4000.0 4000.0 4000.0 4000.0 4000.0 4000.0 4000.0 4000.0 4000.0 4000.0 4000.0 4000.0 4000.0 4000.0 4000.0 4000.0 4000.0 4000.0 4000.0 4000.0 4000.0 4000.0 4000.0 4000.0 4000.0 4000.0 4000.0 4000.0 4000.0 4000.0 4000.0 4000.0 4000.0 4000.0 4000.0 4000.0 4000.0 4000.0 4000.0 4000.0 4000.0 4000.0 4000.0 4000.0 4000.0 4000.0 4000.0 4000.0 4000.0 4000.0 4000.0 4000.0 4000.0 4000.0 4000.0 4000.0 4000.0 4000.0 4000.0 4000.0 4000.0 4000.0 4000.0 4000.0 4000.0 4000.0 4000.0 4000.0 4000.0 4000.0 4000.0 4000.0 4000.0 4000.0 4000.0 4000.0 4000.0 4000.0 4000.0 4000.0 4000.0 4000.0 4000.0 4000.0 4000.0 4000.0 4000.0 4000.0 4000.0 4000.0 4000.0 4000.0 4000.0 4000.0 4000.0 4000.0 4000.0 4000.0 4000.0 4000.0 4000.0 4000.0 4000.0 4000.0 4000.0 4000.0 4000.0 4000.0 4000.0 4000.0 4000.0 4000.0 4000.0 4000.0 4000.0 4000.0 4000.0 4000.0 4000.0 4000.0 4000.0 4000.0 4000.0 4000.0 4000.0 4000.0 4000.0 4000.0 4000.0 4000.0 4000.0 4000.0 4000.0 4000.0 4000.0 4000.0 4000.0 4000.0 4000.0 4000.0 4000.0 4000.0 4000.0 4000.0 4000.0 4000.0 4000.0 4000.0 4000.0 4000.0 4000.0 4000.0 4000.0 4000.0 4000.0 4000.0 4000.0 4000.0 4000.0 4000.0 4000.0 4000.0 4000.0 4000.0 4000.0 4000.0 4000.0 4000.0 4000.0 4000.0 4000.0 4000.0 4000.0 4000.0 4000.0 4000.0 4000.0 4000.0 4000.0 4000.0 4000.0 4000.0 4000.0 4000.0 4000.0 4000.0 4000.0 4000.0 4000.0 4000.0 4000.0 4000.0 4000.0 4000.0 4000.0 4000.0 4000.0 4000.0 4000.0 4000.0 4000.0 4000.0 4000.0 4000.0 4000.0 4000.0 4000.0 4000.0 4000.0 4000.0 4000.0 4000.0 4000.0 4000.0 4000.0 4000.0 4000.0 4000.0 4000.0 4000.0 4000.0 4000.0 4000.0 4000.0 4000.0 4000.0 4000.0 4000.0 4000.0 4000.0 4000.0 4000.0 4000.0 4000.0 4000.0 4000.0 4000.0 4000.0 4000.0 4000.0 4000.0 4000.0 4000.0 4000.0 4000.0 4000.0 4000.0 4000.0 4000.0 4000.0 4000.0 4000.0 4000.0 4000.0 4000.0 4000.0 4000.0 4000.0 4000.0 4000.0 4000.0 4000.0 4000.0 4000.0 4000.0 4000.0 4000.0 4000.0 4000.0 4000.0 4000.0 4000.0 4000.0 4000.0 4000.0 4000.0 4000.0 4000.0 4000.0 4000.0 4000.0 4000.0 4000.0 4000.0 4000.0 4000.0 4000.0 4000.0 4000.0 4000.0 4000.0 4000.0 4000.0 4000.0 4000.0 4000.0 4000.0 4000.0 4000.0 4000.0 4000.0 4000.0 4000.0 4000.0 4000.0 4000.0 4000.0 4000.0 4000.0 4000.0 4000.0 4000.0 4000.0 4000.0 4000.0 4000.0 4000.0 4000.0 4000.0 4000.0 4000.0 4000.0 4000.0 4000.0 4000.0 4000.0 4000.0 4000.0 4000.0 4000.0 4000.0 4000.0 4000.0 4000.0 4000.0 4000.0 4000.0 4000.0 4000.0 4000.0 4000.0 4000.0 4000.0 4000.0 4000.0 4000.0 4000.0 4000.0 4000.0 4000.0 4000.0 4000.0 4000.0 4000.0 4000.0 4000.0 4000.0 4000.0 4000.0 4000.0 4000.0 4000.0 4000.0 4000.0 4000.0 4000.0 4000.0 4000.0 4000.0 4000.0 4000.0 4000.0 4000.0 4000.0 4000.0 4000.0 4000.0 4000.0 4000.0 4000.0 4000.0 4000.0 4000.0 4000.0 4000.0 4000.0 4000.0 4000.0 4000.0 4000.0 4000.0 4000.0 4000.0 4000.0 4000.0 4000.0 4000.0 4000.0 4000.0 4000.0 4000.0 4000.0 4000.0 4000.0 4000.0 4000.0 4000.0 4000.0 4000.0 4000.0 4000.0 4000.0 4000.0 4000.0 4000.0 4000.0 4000.0 4000.0 4000.0 4000.0 4000.0 4000.0 4000.0 4000.0 4000.0 4000.0 4000.0 4000.0 4000.0 4000.0 4000.0 4000.0 4000.0 4000.0 4000.0 4000.0 4000.0 4000.0 4000.0 4000.0 4000.0 4000.0 4000.0 4000.0 4000.0 4000.0 4000.0 4000.0 4000.0 4000.0 4000.0 4000.0 4000.0 4000.0 4000.0 4000.0 4000.0 4000.0 4000.0 4000.0 4000.0 4000.0 4000.0 4000.0 4000.0 4000.0 4000.0 4000.0 4000.0 4000.0 4000.0 4000.0 4000.0 4000.0 4000.0 4000.0 4000.0 4000.0 4000.0 4000.0 4000.0 4000.0 4000.0 4000.0 4000.0 4000.0 4000.0 4000.0 4000.0 4000.0 4000.0 4000.0 4000.0 4000.0 4000.0 4000.0 4000.0 4000.0 4000.0 4000.0 4000.0 4000.0 4000.0 4000.0 4000.0 4000.0 4000.0 4000.0 4000.0 4000.0 4000.0 4000.0 4000.0 4000.0 4000.0 4000.0 4000.0 4000.0 4000.0 4000.0 4000.0 4000.0 4000.0 4000.0 4000.0 4000.0 4000.0 4000.0 4000.0 4000.0 4000.0 4000.0 4000.0 4000.0 4000.0 4000.0 4000.0 4000.0 4000.0 4000.0 4000.0 4000.0 4000.0 4000.0 4000.0 4000.0 4000.0 4000.0 4000.0 4000.0 4000.0 4000.0 4000.0 4000.0 4000.0 4000.0 4000.0 4000.0 4000.0 4000.0 4000.0 4000.0 4000.0 4000.0 4000.0 4000.0 4000.0 4000.0 4000.0 4000.0 4000.0 4000.0 4000.0 4000.0 4000.0 4000.0 4000.0 4000.0 4000.0 4000.0 4000.0 4000.0 4000.0 4000.0 4000.0 4000.0 4000.0 4000.0 4000.0 4000.0 4000.0 4000.0 4000.0 4000.0 4000.0 4000.0 4000.0 4000.0 4000.0 4000.0 4000.0 4000.0 4000.0 4000.0 4000.0 4000.0 4000.0 4000.0 4000.0 4000.0 4000.0 4000.0 4000.0 4000.0 4000.0 4000.0 4000.0 4000.0 4000.0 4000.0 4000.0 4000.0 4000.0 4000.0 4000.0 4000.0 4000.0 4000.0 4000.0 4000.0 4000.0 4000.0 4000.0 4000.0 4000.0 4000.0 4000.0 4000.0 4000.0 4000.0 4000.0 4000.0 4000.0 4000.0 4000.0 4000.0 4000.0 4000.0 4000.0 4000.0 4000.0 4000.0 4000.0 4000.0 4000.0 4000.0 4000.0 4000.0 4000.0 4000.0 4000.0 4000.0 4000.0 4000.0 4000.0 4000.0 4000.0 4000.0 4000.0 4000.0 4000.0 4000.0 4000.0 4000.0 4000.0 4000.0 4000.0 4000.0 4000.0 4000.0 4000.0 4000.0 4000.0 4000.0 4000.0 4000.0 4000.0 4000.0 4000.0 4000.0 4000.0 4000.0 4000.0 4000.0 4000.0 4000.0 4000.0 4000.0 4000.0 4000.0 4000.0 4000.0 4000.0 4000.0 4000.0 4000.0 4000.0 4000.0 4000.0 4000.0 4000.0 4000.0 4000.0 4000.0 4000.0 4000.0 4000.0 4000.0 4000.0 4000.0 4000.0 4000.0 4000.0 4000.0 4000.0 4000.0 4000.0 4000.0 4000.0 4000.0 4000.0 4000.0 4000.0 4000.0 4000.0 4000.0 4000.0 4000.0 4000.0 4000.0 4000.0 4000.0 4000.0 4000.0 4000.0 4000.0 4000.0 4000.0 4000.0 4000.0 4000.0 4000.0 4000.0 4000.0 4000.0 4000.0 4000.0 4000.0 4000.0 4000.0 4000.0 4000.0 4000.0 4000.0 4000.0 4000.0 4000.0 4000.0 4000.0 4000.0 4000.0 4000.0 4000.0 4000.0 4000.0 4000.0 4000.0 4000.0 4000.0 4000.0 4000.0 4000.0 4000.0 4000.0 4000.0 4000.0 4000.0 4000.0 4000.0 4000.0 4000.0 4000.0 4000.0 4000.0 4000.0 4000.0 4000.0 4000.0 4000.0 4000.0 4000.0 4000.0 4000.0 4000.0 4000.0 4000.0 4000.0 4000.0 4000.0 4000.0 4000.0 4000.0 4000.0 4000.0 4000.0 4000.0 4000.0 4000.0 4000.0 4000.0 4000.0 4000.0 4000.0 4000.0 4000.0 4000.0 4000.0 4000.0 4000.0 4000.0 4000.0 4000.0 4000.0 4000.0 4000.0 4000.0 4000.0 4000.0 4000.0 4000.0 4000.0 4000.0 4000.0 4000.0 4000.0 4000.0 4000.0 4000.0 4000.0 4000.0 4000.0 4000.0 4000.0 4000.0 4000.0 4000.0 4000.0 4000.0 4000.0 4000.0 4000.0 4000.0 4000.0 4000.0 4000.0 4000.0 4000.0 4000.0 4000.0 4000.0 4000.0 4000.0 4000.0 4000.0 4000.0 4000.0 4000.0 4000.0 4000.0 4000.0 4000.0 4000.0 4000.0 4000.0 4000.0 4000.0 4000.0 4000.0 4000.0 4000.0 4000.0 4000.0 4000.0 4000.0 4000.0 4000.0 4000.0 4000.0 4000.0 4000.0 4000.0 4000.0 4000.0 4000.0 4000.0 4000.0 4000.0 4000.0 4000.0 4000.0 4000.0 4000.0 4000.0 4000.0 4000.0 4000.0 4000.0 4000.0 4000.0 4000.0 4000.0 4000.0 4000.0 4000.0 4000.0 4000.0 4000.0 4000.0 4000.0 4000.0 4000.0 4000.0 4000.0 4000.0 4000.0 4000.0 4000.0 4000.0 4000.0 4000.0 4000.0 4000.0 4000.0 4000.0 4000.0 4000.0 4000.0 4000.0 4000.0 4000.0 4000.0 4000.0 4000.0 4000.0 4000.0 4000.0 4000.0 4000.0 4000.0 4000.0 4000.0 4000.0 4000.0 4000.0 4000.0 4000.0 4000.0 4000.0 4000.0 4000.0 4000.0 4000.0 4000.0 4000.0 4000.0 4000.0 4000.0 4000.0 4000.0 4000.0 4000.0 4000.0 4000.0 4000.0 4000.0 4000.0 4000.0 4000.0 4000.0 4000.0 4000.0 4000.0 4000.0 4000.0 4000.0 4000.0 4000.0 4000.0 4000.0 4000.0 4000.0 4000.0 4000.0 4000.0 4000.0 4000.0 4000.0 4000.0 4000.0 4000.0 4000.0 4000.0 4000.0 4000.0 4000.0 4000.0 4000.0 4000.0 4000.0 4000.0 4000.0 4000.0 4000.0 4000.0 4000.0 4000.0 4000.0 4000.0 4000.0 4000.0 4000.0 4000.0 4000.0 4000.0 4000.0 4000.0 4000.0 4000.0 4000.0 4000.0 4000.0 4000.0 4000.0 4000.0 4000.0 4000.0 4000.0 4000.0 4000.0 4000.0 4000.0 4000.0 4000.0 4000.0 4000.0 4000.0 4000.0 4000.0 4000.0 4000.0 4000.0 4000.0 4000.0 4000.0 4000.0 4000.0 4000.0 4000.0 4000.0 4000.0 4000.0 4000.0 4000.0 4000.0 4000.0 4000.0 4000.0 4000.0 4000.0 4000.0 4000.0 4000.0 4000.0 4000.0 4000.0 4000.0 4000.0 4000.0 4000.0 4000.0 4000.0 4000.0 4000.0 4000.0 4000.0 4000.0 4000.0 4000.0 4000.0 4000.0 4000.0 4000.0 4000.0 4000.0 4000.0 4000.0 4000.0 4000.0 4000.0 4000.0 4000.0 4000.0 4000.0 4000.0 4000.0 4000.0 4000.0 4000.0 4000.0 4000.0 4000.0 4000.0 4000.0 4000.0 4000.0 4000.0 4000.0 4000.0 4000.0 4000.0 4000.0 4000.0 4000.0 4000.0 4000.0 4000.0 4000.0 4000.0 4000.0 4000.0 4000.0 4000.0 4000.0 4000.0 4000.0 4000.0 4000.0 4000.0 4000.0 4000.0 4000.0 4000.0 4000.0 4000.0 4000.0 4000.0 4000.0 4000.0 4000.0 4000.0 4000.0 4000.0 4000.0 4000.0 4000.0 4000.0 4000.0 4000.0 4000.0 4000.0 4000.0 4000.0 4000.0 4000.0 4000.0 4000.0 4000.0 4000.0 4000.0 4000.0 4000.0 4000.0 4000.0 4000.0 4000.0 4000.0 4000.0 4000.0 4000.0 4000.0 4000.0 4000.0 4000.0 4000.0 4000.0 4000.0 4000.0 4000.0 4000.0 4000.0 4000.0 4000.0 4000.0 4000.0 4000.0 4000.0 4000.0 4000.0 4000.0 4000.0 4000.0 4000.0 4000.0 4000.0 4000.0 4000.0 4000.0 4000.0 4000.0 4000.0 4000.0 4000.0 4000.0 4000.0 4000.0 4000.0 4000.0 4000.0 4000.0 4000.0 4000.0 4000.0 4000.0 4000.0 4000.0 4000.0 4000.0 4000.0 4000.0 4000.0 4000.0 4000.0 4000.0 4000.0 4000.0 4000.0 4000.0 4000.0 4000.0 4000.0 4000.0 4000.0 4000.0 4000.0 4000.0 4000.0 4000.0 4000.0 4000.0 4000.0 4000.0 4000.0 4000.0 4000.0 4000.0 4000.0 4000.0 4000.0 4000.0 4000.0 4000.0 4000.0 4000.0 4000.0 4000.0 4000.0 4000.0 4000.0 4000.0 4000.0 4000.0 4000.0 4000.0 4000.0 4000.0 4000.0 4000.0 4000.0 4000.0 4000.0 4000.0 4000.0 4000.0 4000.0 4000.0 4000.0 4000.0 4000.0 4000.0 4000.0 4000.0 4000.0 4000.0 4000.0 4000.0 4000.0 4000.0 4000.0 4000.0 4000.0 4000.0 4000.0 4000.0 4000.0 4000.0 4000.0 4000.0 4000.0 4000.0 4000.0 4000.0 4000.0 4000.0 4000.0 4000.0 4000.0 4000.0 4000.0 4000.0 4000.0 4000.0 4000.0 4000.0 4000.0 4000.0 4000.0 4000.0 4000.0 4000.0 4000.0 4000.0 4000.0 4000.0 4000.0 4000.0 4000.0 4000.0 4000.0 4000.0 4000.0 4000.0 4000.0 4000.0 4000.0 4000.0 4000.0 4000.0 4000.0 4000.0 4000.0 4000.0 4000.0 4000.0 4000.0 4000.0 4000.0 4000.0 4000.0 4000.0 4000.0 4000.0 4000.0 4000.0 4000.0 4000.0 4000.0 4000.0 4000.0 4000.0 4000.0 4000.0 4000.0 4000.0 4000.0 4000.0 4000.0 4000.0 4000.0 4000.0 4000.0 4000.0 4000.0 4000.0 4000.0 4000.0 4000.0 4000.0 4000.0 4000.0 4000.0 4000.0 4000.0 4000.0 4000.0 4000.0 4000.0 4000.0 4000.0 4000.0 4000.0 4000.0 4000.0 4000.0 4000.0 4000.0 4000.0 4000.0 4000.0 4000.0 4000.0 4000.0 4000.0 4000.0 4000.0 4000.0 4000.0 4000.0 4000.0 4000.0 4000.0 4000.0 4000.0 4000.0 4000.0 4000.0 4000.0 4000.0 4000.0 4000.0 4000.0 4000.0 4000.0 4000.0 4000.0 4000.0 4000.0 4000.0 4000.0 4000.0 4000.0 4000.0 4000.0 4000.0 4000.0 4000.0 4000.0 4000.0 4000.0 4000.0 4000.0 4000.0 4000.0 4000.0 4000.0 4000.0 4000.0 4000.0 4000.0 4000.0 4000.0 4000.0 4000.0 4000.0 4000.0 4000.0 4000.0 4000.0 4000.0 4000.0 4000.0 4000.0 4000.0 4000.0 4000.0 4000.0 4000.0 4000.0 4000.0 4000.0 4000.0 4000.0 4000.0 4000.0 4000.0 4000.0 4000.0 4000.0 4000.0 4000.0 4000.0 4000.0 4000.0 4000.0 4000.0 4000.0 4000.0 4000.0 4000.0 4000.0 4000.0 4000.0 4000.0 4000.0 4000.0 4000.0 4000.0 4000.0 4000.0 4000.0 4000.0 4000.0 4000.0 4000.0 4000.0 4000.0 4000.0 4000.0 4000.0 4000.0 4000.0 4000.0 4000.0 4000.0 4000.0 4000.0 4000.0 4000.0 4000.0 4000.0 4000.0 4000.0 4000.0 4000.0 4000.0 4000.0 4000.0 4000.0 4000.0 4000.0 4000.0 4000.0 4000.0 4000.0 4000.0 4000.0 4000.0 4000.0 4000.0 4000.0 4000.0 4000.0 4000.0 4000.0 4000.0 4000.0 4000.0 4000.0 4000.0 4000.0 4000.0 4000.0 4000.0 4000.0 4000.0 4000.0 4000.0 4000.0 4000.0 4000.0 4000.0 4000.0 4000.0 4000.0 4000.0 4000.0 4000.0 4000.0 4000.0 4000.0 4000.0 4000.0 4000.0 4000.0 4000.0 4000.0 4000.0 4000.0 4000.0 4000.0 4000.0 4000.0 4000.0 4000.0 4000.0 4000.0 4000.0 4000.0 4000.0 4000.0 4000.0 4000.0 4000.0 4000.0 4000.0 4000.0 4000.0 4000.0 4000.0 4000.0 4000.0 4000.0 4000.0 4000.0 4000.0 4000.0 4000.0 4000.0 4000.0 4000.0 4000.0 4000.0 4000.0 4000.0 4000.0 4000.0 4000.0 4000.0 4000.0 4000.0 4000.0 4000.0 4000.0 4000.0 4000.0 4000.0 4000.0 4000.0 4000.0 4000.0 4000.0 4000.0 4000.0 4000.0 4000.0 4000.0 4000.0 4000.0 4000.0 4000.0 4000.0 4000.0 4000.0 4000.0 4000.0 4000.0 4000.0 4000.0 4000.0 4000.0 4000.0 4000.0 4000.0 4000.0 4000.0 4000.0 4000.0 4000.0 4000.0 4000.0 4000.0 4000.0 4000.0 4000.0 4000.0 4000.0 4000.0 4000.0 4000.0 4000.0 4000.0 4000.0 4000.0 4000.0 4000.0 4000.0 4000.0 4000.0 4000.0 4000.0 4000.0 4000.0 4000.0 4000.0 4000.0 4000.0 4000.0 4000.0 4000.0 4000.0 4000.0 4000.0 4000.0 4000.0 4000.0 4000.0 4000.0 4000.0 4000.0 4000.0 4000.0 4000.0 4000.0 4000.0 SCALARS Mass float 1
LOOKUP_TABLE default
11309700000.0 11309700000.0 11309700000.0 11309700000.0 11309700000.0 11309700000.0 11309700000.0 11309700000.0 11309700000.0 11309700000.0 11309700000.0 11309700000.0 11309700000.0 11309700000.0 11309700000.0 11309700000.0 11309700000.0 11309700000.0 11309700000.0 11309700000.0 11309700000.0 11309700000.0 11309700000.0 11309700000.0 11309700000.0 11309700000.0 11309700000.0 11309700000.0 11309700000.0 11309700000.0 11309700000.0 11309700000.0 11309700000.0 11309700000.0 11309700000.0 11309700000.0 11309700000.0 11309700000.0 11309700000.0 11309700000.0 11309700000.0 11309700000.0 11309700000.0 11309700000.0 11309700000.0 11309700000.0 11309700000.0 11309700000.0 11309700000.0 11309700000.0 11309700000.0 11309700000.0 11309700000.0 11309700000.0 11309700000.0 11309700000.0 11309700000.0 11309700000.0 11309700000.0 11309700000.0 11309700000.0 11309700000.0 11309700000.0 11309700000.0 11309700000.0 11309700000.0 11309700000.0 11309700000.0 11309700000.0 11309700000.0 11309700000.0 11309700000.0 11309700000.0 11309700000.0 11309700000.0 11309700000.0 11309700000.0 11309700000.0 11309700000.0 11309700000.0 11309700000.0 11309700000.0 11309700000.0 11309700000.0 11309700000.0 11309700000.0 11309700000.0 11309700000.0 11309700000.0 11309700000.0 11309700000.0 11309700000.0 11309700000.0 11309700000.0 11309700000.0 11309700000.0 11309700000.0 11309700000.0 11309700000.0 11309700000.0 11309700000.0 11309700000.0 11309700000.0 11309700000.0 11309700000.0 11309700000.0 11309700000.0 11309700000.0 11309700000.0 11309700000.0 11309700000.0 11309700000.0 11309700000.0 11309700000.0 11309700000.0 11309700000.0 11309700000.0 11309700000.0 11309700000.0 11309700000.0 11309700000.0 11309700000.0 11309700000.0 11309700000.0 11309700000.0 11309700000.0 11309700000.0 11309700000.0 11309700000.0 11309700000.0 11309700000.0 11309700000.0 11309700000.0 11309700000.0 11309700000.0 11309700000.0 11309700000.0 11309700000.0 11309700000.0 11309700000.0 11309700000.0 11309700000.0 11309700000.0 11309700000.0 11309700000.0 11309700000.0 11309700000.0 11309700000.0 11309700000.0 11309700000.0 11309700000.0 11309700000.0 11309700000.0 11309700000.0 11309700000.0 11309700000.0 11309700000.0 11309700000.0 11309700000.0 11309700000.0 11309700000.0 11309700000.0 11309700000.0 11309700000.0 11309700000.0 11309700000.0 11309700000.0 11309700000.0 11309700000.0 11309700000.0 11309700000.0 11309700000.0 11309700000.0 11309700000.0 11309700000.0 11309700000.0 11309700000.0 11309700000.0 11309700000.0 11309700000.0 11309700000.0 11309700000.0 11309700000.0 11309700000.0 11309700000.0 11309700000.0 11309700000.0 11309700000.0 11309700000.0 11309700000.0 11309700000.0 11309700000.0 11309700000.0 11309700000.0 11309700000.0 11309700000.0 11309700000.0 11309700000.0 11309700000.0 11309700000.0 11309700000.0 11309700000.0 11309700000.0 11309700000.0 11309700000.0 11309700000.0 11309700000.0 11309700000.0 11309700000.0 11309700000.0 11309700000.0 11309700000.0 11309700000.0 11309700000.0 11309700000.0 11309700000.0 11309700000.0 11309700000.0 11309700000.0 11309700000.0 11309700000.0 11309700000.0 11309700000.0 11309700000.0 11309700000.0 11309700000.0 11309700000.0 11309700000.0 11309700000.0 11309700000.0 11309700000.0 11309700000.0 11309700000.0 11309700000.0 11309700000.0 11309700000.0 11309700000.0 11309700000.0 11309700000.0 11309700000.0 11309700000.0 11309700000.0 11309700000.0 11309700000.0 11309700000.0 11309700000.0 11309700000.0 11309700000.0 11309700000.0 11309700000.0 11309700000.0 11309700000.0 11309700000.0 11309700000.0 11309700000.0 11309700000.0 11309700000.0 11309700000.0 11309700000.0 11309700000.0 11309700000.0 11309700000.0 11309700000.0 11309700000.0 11309700000.0 11309700000.0 11309700000.0 11309700000.0 11309700000.0 11309700000.0 11309700000.0 11309700000.0 11309700000.0 11309700000.0 11309700000.0 11309700000.0 11309700000.0 11309700000.0 11309700000.0 11309700000.0 11309700000.0 11309700000.0 11309700000.0 11309700000.0 11309700000.0 11309700000.0 11309700000.0 11309700000.0 11309700000.0 11309700000.0 11309700000.0 11309700000.0 11309700000.0 11309700000.0 11309700000.0 11309700000.0 11309700000.0 11309700000.0 11309700000.0 11309700000.0 11309700000.0 11309700000.0 11309700000.0 11309700000.0 11309700000.0 11309700000.0 11309700000.0 11309700000.0 11309700000.0 11309700000.0 11309700000.0 11309700000.0 11309700000.0 11309700000.0 11309700000.0 11309700000.0 11309700000.0 11309700000.0 11309700000.0 11309700000.0 11309700000.0 11309700000.0 11309700000.0 11309700000.0 11309700000.0 11309700000.0 11309700000.0 11309700000.0 11309700000.0 11309700000.0 11309700000.0 11309700000.0 11309700000.0 11309700000.0 11309700000.0 11309700000.0 11309700000.0 11309700000.0 11309700000.0 11309700000.0 11309700000.0 11309700000.0 11309700000.0 11309700000.0 11309700000.0 11309700000.0 11309700000.0 11309700000.0 11309700000.0 11309700000.0 11309700000.0 11309700000.0 11309700000.0 11309700000.0 11309700000.0 11309700000.0 11309700000.0 11309700000.0 11309700000.0 11309700000.0 11309700000.0 11309700000.0 11309700000.0 11309700000.0 11309700000.0 11309700000.0 11309700000.0 11309700000.0 11309700000.0 11309700000.0 11309700000.0 11309700000.0 11309700000.0 11309700000.0 11309700000.0 11309700000.0 11309700000.0 11309700000.0 11309700000.0 11309700000.0 11309700000.0 11309700000.0 11309700000.0 11309700000.0 11309700000.0 11309700000.0 11309700000.0 11309700000.0 11309700000.0 11309700000.0 11309700000.0 11309700000.0 11309700000.0 11309700000.0 11309700000.0 11309700000.0 11309700000.0 11309700000.0 11309700000.0 11309700000.0 11309700000.0 11309700000.0 11309700000.0 11309700000.0 11309700000.0 11309700000.0 11309700000.0 11309700000.0 11309700000.0 11309700000.0 11309700000.0 11309700000.0 11309700000.0 11309700000.0 11309700000.0 11309700000.0 11309700000.0 11309700000.0 11309700000.0 11309700000.0 11309700000.0 11309700000.0 11309700000.0 11309700000.0 11309700000.0 11309700000.0 11309700000.0 11309700000.0 11309700000.0 11309700000.0 11309700000.0 11309700000.0 11309700000.0 11309700000.0 11309700000.0 11309700000.0 11309700000.0 11309700000.0 11309700000.0 11309700000.0 11309700000.0 11309700000.0 11309700000.0 11309700000.0 11309700000.0 11309700000.0 11309700000.0 11309700000.0 11309700000.0 11309700000.0 11309700000.0 11309700000.0 11309700000.0 11309700000.0 11309700000.0 11309700000.0 11309700000.0 11309700000.0 11309700000.0 11309700000.0 11309700000.0 11309700000.0 11309700000.0 11309700000.0 11309700000.0 11309700000.0 11309700000.0 11309700000.0 11309700000.0 11309700000.0 11309700000.0 11309700000.0 11309700000.0 11309700000.0 11309700000.0 11309700000.0 11309700000.0 11309700000.0 11309700000.0 11309700000.0 11309700000.0 11309700000.0 11309700000.0 11309700000.0 11309700000.0 11309700000.0 11309700000.0 11309700000.0 11309700000.0 11309700000.0 11309700000.0 11309700000.0 11309700000.0 11309700000.0 11309700000.0 11309700000.0 11309700000.0 11309700000.0 11309700000.0 11309700000.0 11309700000.0 11309700000.0 11309700000.0 11309700000.0 11309700000.0 11309700000.0 11309700000.0 11309700000.0 11309700000.0 11309700000.0 11309700000.0 11309700000.0 11309700000.0 11309700000.0 11309700000.0 11309700000.0 11309700000.0 11309700000.0 11309700000.0 11309700000.0 11309700000.0 11309700000.0 11309700000.0 11309700000.0 11309700000.0 11309700000.0 11309700000.0 11309700000.0 11309700000.0 11309700000.0 11309700000.0 11309700000.0 11309700000.0 11309700000.0 11309700000.0 11309700000.0 11309700000.0 11309700000.0 11309700000.0 11309700000.0 11309700000.0 11309700000.0 11309700000.0 11309700000.0 11309700000.0 11309700000.0 11309700000.0 11309700000.0 11309700000.0 11309700000.0 11309700000.0 11309700000.0 11309700000.0 11309700000.0 11309700000.0 11309700000.0 11309700000.0 11309700000.0 11309700000.0 11309700000.0 11309700000.0 11309700000.0 11309700000.0 11309700000.0 11309700000.0 11309700000.0 11309700000.0 11309700000.0 11309700000.0 11309700000.0 11309700000.0 11309700000.0 11309700000.0 11309700000.0 11309700000.0 11309700000.0 11309700000.0 11309700000.0 11309700000.0 11309700000.0 11309700000.0 11309700000.0 11309700000.0 11309700000.0 11309700000.0 11309700000.0 11309700000.0 11309700000.0 11309700000.0 11309700000.0 11309700000.0 11309700000.0 11309700000.0 11309700000.0 11309700000.0 11309700000.0 11309700000.0 11309700000.0 11309700000.0 11309700000.0 11309700000.0 11309700000.0 11309700000.0 11309700000.0 11309700000.0 11309700000.0 11309700000.0 11309700000.0 11309700000.0 11309700000.0 11309700000.0 11309700000.0 11309700000.0 11309700000.0 11309700000.0 11309700000.0 11309700000.0 11309700000.0 11309700000.0 11309700000.0 11309700000.0 11309700000.0 11309700000.0 11309700000.0 11309700000.0 11309700000.0 11309700000.0 11309700000.0 11309700000.0 11309700000.0 11309700000.0 11309700000.0 11309700000.0 11309700000.0 11309700000.0 11309700000.0 11309700000.0 11309700000.0 11309700000.0 11309700000.0 11309700000.0 11309700000.0 11309700000.0 11309700000.0 11309700000.0 11309700000.0 11309700000.0 11309700000.0 11309700000.0 11309700000.0 11309700000.0 11309700000.0 11309700000.0 11309700000.0 11309700000.0 11309700000.0 11309700000.0 11309700000.0 11309700000.0 11309700000.0 11309700000.0 11309700000.0 11309700000.0 11309700000.0 11309700000.0 11309700000.0 11309700000.0 11309700000.0 11309700000.0 11309700000.0 11309700000.0 11309700000.0 11309700000.0 11309700000.0 11309700000.0 11309700000.0 11309700000.0 11309700000.0 11309700000.0 11309700000.0 11309700000.0 11309700000.0 11309700000.0 11309700000.0 11309700000.0 11309700000.0 11309700000.0 11309700000.0 11309700000.0 11309700000.0 11309700000.0 11309700000.0 11309700000.0 11309700000.0 11309700000.0 11309700000.0 11309700000.0 11309700000.0 11309700000.0 11309700000.0 11309700000.0 11309700000.0 11309700000.0 11309700000.0 11309700000.0 11309700000.0 11309700000.0 11309700000.0 11309700000.0 11309700000.0 11309700000.0 11309700000.0 11309700000.0 11309700000.0 11309700000.0 11309700000.0 11309700000.0 11309700000.0 11309700000.0 11309700000.0 11309700000.0 11309700000.0 11309700000.0 11309700000.0 11309700000.0 11309700000.0 11309700000.0 11309700000.0 11309700000.0 11309700000.0 11309700000.0 11309700000.0 11309700000.0 11309700000.0 11309700000.0 11309700000.0 11309700000.0 11309700000.0 11309700000.0 11309700000.0 11309700000.0 11309700000.0 11309700000.0 11309700000.0 11309700000.0 11309700000.0 11309700000.0 11309700000.0 11309700000.0 11309700000.0 11309700000.0 11309700000.0 11309700000.0 11309700000.0 11309700000.0 11309700000.0 11309700000.0 11309700000.0 11309700000.0 11309700000.0 11309700000.0 11309700000.0 11309700000.0 11309700000.0 11309700000.0 11309700000.0 11309700000.0 11309700000.0 11309700000.0 11309700000.0 11309700000.0 11309700000.0 11309700000.0 11309700000.0 11309700000.0 11309700000.0 11309700000.0 11309700000.0 11309700000.0 11309700000.0 11309700000.0 11309700000.0 11309700000.0 11309700000.0 11309700000.0 11309700000.0 11309700000.0 11309700000.0 11309700000.0 11309700000.0 11309700000.0 11309700000.0 11309700000.0 11309700000.0 11309700000.0 11309700000.0 11309700000.0 11309700000.0 11309700000.0 11309700000.0 11309700000.0 11309700000.0 11309700000.0 11309700000.0 11309700000.0 11309700000.0 11309700000.0 11309700000.0 11309700000.0 11309700000.0 11309700000.0 11309700000.0 11309700000.0 11309700000.0 11309700000.0 11309700000.0 11309700000.0 11309700000.0 11309700000.0 11309700000.0 11309700000.0 11309700000.0 11309700000.0 11309700000.0 11309700000.0 11309700000.0 11309700000.0 11309700000.0 11309700000.0 11309700000.0 11309700000.0 11309700000.0 11309700000.0 11309700000.0 11309700000.0 11309700000.0 11309700000.0 11309700000.0 11309700000.0 11309700000.0 11309700000.0 11309700000.0 11309700000.0 11309700000.0 11309700000.0 11309700000.0 11309700000.0 11309700000.0 11309700000.0 11309700000.0 11309700000.0 11309700000.0 11309700000.0 11309700000.0 11309700000.0 11309700000.0 11309700000.0 11309700000.0 11309700000.0 11309700000.0 11309700000.0 11309700000.0 11309700000.0 11309700000.0 11309700000.0 11309700000.0 11309700000.0 11309700000.0 11309700000.0 11309700000.0 11309700000.0 11309700000.0 11309700000.0 11309700000.0 11309700000.0 11309700000.0 11309700000.0 11309700000.0 11309700000.0 11309700000.0 11309700000.0 11309700000.0 11309700000.0 11309700000.0 11309700000.0 11309700000.0 11309700000.0 11309700000.0 11309700000.0 11309700000.0 11309700000.0 11309700000.0 11309700000.0 11309700000.0 11309700000.0 11309700000.0 11309700000.0 11309700000.0 11309700000.0 11309700000.0 11309700000.0 11309700000.0 11309700000.0 11309700000.0 11309700000.0 11309700000.0 11309700000.0 11309700000.0 11309700000.0 11309700000.0 11309700000.0 11309700000.0 11309700000.0 11309700000.0 11309700000.0 11309700000.0 11309700000.0 11309700000.0 11309700000.0 11309700000.0 11309700000.0 11309700000.0 11309700000.0 11309700000.0 11309700000.0 11309700000.0 11309700000.0 11309700000.0 11309700000.0 11309700000.0 11309700000.0 11309700000.0 11309700000.0 11309700000.0 11309700000.0 11309700000.0 11309700000.0 11309700000.0 11309700000.0 11309700000.0 11309700000.0 11309700000.0 11309700000.0 11309700000.0 11309700000.0 11309700000.0 11309700000.0 11309700000.0 11309700000.0 11309700000.0 11309700000.0 11309700000.0 11309700000.0 11309700000.0 11309700000.0 11309700000.0 11309700000.0 11309700000.0 11309700000.0 11309700000.0 11309700000.0 11309700000.0 11309700000.0 11309700000.0 11309700000.0 11309700000.0 11309700000.0 11309700000.0 11309700000.0 11309700000.0 11309700000.0 11309700000.0 11309700000.0 11309700000.0 11309700000.0 11309700000.0 11309700000.0 11309700000.0 11309700000.0 11309700000.0 11309700000.0 11309700000.0 11309700000.0 11309700000.0 11309700000.0 11309700000.0 11309700000.0 11309700000.0 11309700000.0 11309700000.0 11309700000.0 11309700000.0 11309700000.0 11309700000.0 11309700000.0 11309700000.0 11309700000.0 11309700000.0 11309700000.0 11309700000.0 11309700000.0 11309700000.0 11309700000.0 11309700000.0 11309700000.0 11309700000.0 11309700000.0 11309700000.0 11309700000.0 11309700000.0 11309700000.0 11309700000.0 11309700000.0 11309700000.0 11309700000.0 11309700000.0 11309700000.0 11309700000.0 11309700000.0 11309700000.0 11309700000.0 11309700000.0 11309700000.0 11309700000.0 11309700000.0 11309700000.0 11309700000.0 11309700000.0 11309700000.0 11309700000.0 11309700000.0 11309700000.0 11309700000.0 11309700000.0 11309700000.0 11309700000.0 11309700000.0 11309700000.0 11309700000.0 11309700000.0 11309700000.0 11309700000.0 11309700000.0 11309700000.0 11309700000.0 11309700000.0 11309700000.0 11309700000.0 11309700000.0 11309700000.0 11309700000.0 11309700000.0 11309700000.0 11309700000.0 11309700000.0 11309700000.0 11309700000.0 11309700000.0 11309700000.0 11309700000.0 11309700000.0 11309700000.0 11309700000.0 11309700000.0 11309700000.0 11309700000.0 11309700000.0 11309700000.0 11309700000.0 11309700000.0 11309700000.0 11309700000.0 11309700000.0 11309700000.0 11309700000.0 11309700000.0 11309700000.0 11309700000.0 11309700000.0 11309700000.0 11309700000.0 11309700000.0 11309700000.0 11309700000.0 11309700000.0 11309700000.0 11309700000.0 11309700000.0 11309700000.0 11309700000.0 11309700000.0 11309700000.0 11309700000.0 11309700000.0 11309700000.0 11309700000.0 11309700000.0 11309700000.0 11309700000.0 11309700000.0 11309700000.0 11309700000.0 11309700000.0 11309700000.0 11309700000.0 11309700000.0 11309700000.0 11309700000.0 11309700000.0 11309700000.0 11309700000.0 11309700000.0 11309700000.0 11309700000.0 11309700000.0 11309700000.0 11309700000.0 11309700000.0 11309700000.0 11309700000.0 11309700000.0 11309700000.0 11309700000.0 11309700000.0 11309700000.0 11309700000.0 11309700000.0 11309700000.0 11309700000.0 11309700000.0 11309700000.0 11309700000.0 11309700000.0 11309700000.0 11309700000.0 11309700000.0 11309700000.0 11309700000.0 11309700000.0 11309700000.0 11309700000.0 11309700000.0 11309700000.0 11309700000.0 11309700000.0 11309700000.0 11309700000.0 11309700000.0 11309700000.0 11309700000.0 11309700000.0 11309700000.0 11309700000.0 11309700000.0 11309700000.0 11309700000.0 11309700000.0 11309700000.0 11309700000.0 11309700000.0 11309700000.0 11309700000.0 11309700000.0 11309700000.0 11309700000.0 11309700000.0 11309700000.0 11309700000.0 11309700000.0 11309700000.0 11309700000.0 11309700000.0 11309700000.0 11309700000.0 11309700000.0 11309700000.0 11309700000.0 11309700000.0 11309700000.0 11309700000.0 11309700000.0 11309700000.0 11309700000.0 11309700000.0 11309700000.0 11309700000.0 11309700000.0 11309700000.0 11309700000.0 11309700000.0 11309700000.0 11309700000.0 11309700000.0 11309700000.0 11309700000.0 11309700000.0 11309700000.0 11309700000.0 11309700000.0 11309700000.0 11309700000.0 11309700000.0 11309700000.0 11309700000.0 11309700000.0 11309700000.0 11309700000.0 11309700000.0 11309700000.0 11309700000.0 11309700000.0 11309700000.0 11309700000.0 11309700000.0 11309700000.0 11309700000.0 11309700000.0 11309700000.0 11309700000.0 11309700000.0 11309700000.0 11309700000.0 11309700000.0 11309700000.0 11309700000.0 11309700000.0 11309700000.0 11309700000.0 11309700000.0 11309700000.0 11309700000.0 11309700000.0 11309700000.0 11309700000.0 11309700000.0 11309700000.0 11309700000.0 11309700000.0 11309700000.0 11309700000.0 11309700000.0 11309700000.0 11309700000.0 11309700000.0 11309700000.0 11309700000.0 11309700000.0 11309700000.0 11309700000.0 11309700000.0 11309700000.0 11309700000.0 11309700000.0 11309700000.0 11309700000.0 11309700000.0 11309700000.0 11309700000.0 11309700000.0 11309700000.0 11309700000.0 11309700000.0 11309700000.0 11309700000.0 11309700000.0 11309700000.0 11309700000.0 11309700000.0 11309700000.0 11309700000.0 11309700000.0 11309700000.0 11309700000.0 11309700000.0 11309700000.0 11309700000.0 11309700000.0 11309700000.0 11309700000.0 11309700000.0 11309700000.0 11309700000.0 11309700000.0 11309700000.0 11309700000.0 11309700000.0 11309700000.0 11309700000.0 11309700000.0 11309700000.0 11309700000.0 11309700000.0 11309700000.0 11309700000.0 11309700000.0 11309700000.0 11309700000.0 11309700000.0 11309700000.0 11309700000.0 11309700000.0 11309700000.0 11309700000.0 11309700000.0 11309700000.0 11309700000.0 11309700000.0 11309700000.0 11309700000.0 11309700000.0 11309700000.0 11309700000.0 11309700000.0 11309700000.0 11309700000.0 11309700000.0 11309700000.0 11309700000.0 11309700000.0 11309700000.0 11309700000.0 11309700000.0 11309700000.0 11309700000.0 11309700000.0 11309700000.0 11309700000.0 11309700000.0 11309700000.0 11309700000.0 11309700000.0 11309700000.0 11309700000.0 11309700000.0 11309700000.0 11309700000.0 11309700000.0 11309700000.0 11309700000.0 11309700000.0 11309700000.0 11309700000.0 11309700000.0 11309700000.0 11309700000.0 11309700000.0 11309700000.0 11309700000.0 11309700000.0 11309700000.0 11309700000.0 11309700000.0 11309700000.0 11309700000.0 11309700000.0 11309700000.0 11309700000.0 11309700000.0 11309700000.0 11309700000.0 11309700000.0 11309700000.0 11309700000.0 11309700000.0 11309700000.0 11309700000.0 11309700000.0 11309700000.0 11309700000.0 11309700000.0 11309700000.0 11309700000.0 11309700000.0 11309700000.0 11309700000.0 11309700000.0 11309700000.0 11309700000.0 11309700000.0 11309700000.0 11309700000.0 11309700000.0 11309700000.0 11309700000.0 11309700000.0 11309700000.0 11309700000.0 11309700000.0 11309700000.0 11309700000.0 11309700000.0 11309700000.0 11309700000.0 11309700000.0 11309700000.0 11309700000.0 11309700000.0 11309700000.0 11309700000.0 11309700000.0 11309700000.0 11309700000.0 11309700000.0 11309700000.0 11309700000.0 11309700000.0 11309700000.0 11309700000.0 11309700000.0 11309700000.0 11309700000.0 11309700000.0 11309700000.0 11309700000.0 11309700000.0 11309700000.0 11309700000.0 11309700000.0 11309700000.0 11309700000.0 11309700000.0 11309700000.0 11309700000.0 11309700000.0 11309700000.0 11309700000.0 11309700000.0 11309700000.0 11309700000.0 11309700000.0 11309700000.0 11309700000.0 11309700000.0 11309700000.0 11309700000.0 11309700000.0 11309700000.0 11309700000.0 11309700000.0 11309700000.0 11309700000.0 11309700000.0 11309700000.0 11309700000.0 11309700000.0 11309700000.0 11309700000.0 11309700000.0 11309700000.0 11309700000.0 11309700000.0 11309700000.0 11309700000.0 11309700000.0 11309700000.0 11309700000.0 11309700000.0 11309700000.0 11309700000.0 11309700000.0 11309700000.0 11309700000.0 11309700000.0 11309700000.0 11309700000.0 11309700000.0 11309700000.0 11309700000.0 11309700000.0 11309700000.0 11309700000.0 11309700000.0 11309700000.0 11309700000.0 11309700000.0 11309700000.0 11309700000.0 11309700000.0 11309700000.0 11309700000.0 11309700000.0 11309700000.0 11309700000.0 11309700000.0 11309700000.0 11309700000.0 11309700000.0 11309700000.0 11309700000.0 11309700000.0 11309700000.0 11309700000.0 11309700000.0 11309700000.0 11309700000.0 11309700000.0 11309700000.0 11309700000.0 11309700000.0 11309700000.0 11309700000.0 11309700000.0 11309700000.0 11309700000.0 11309700000.0 11309700000.0 11309700000.0 11309700000.0 11309700000.0 11309700000.0 11309700000.0 11309700000.0 11309700000.0 11309700000.0 11309700000.0 11309700000.0 11309700000.0 11309700000.0 11309700000.0 11309700000.0 11309700000.0 11309700000.0 11309700000.0 11309700000.0 11309700000.0 11309700000.0 11309700000.0 11309700000.0 11309700000.0 11309700000.0 11309700000.0 11309700000.0 11309700000.0 11309700000.0 11309700000.0 11309700000.0 11309700000.0 11309700000.0 11309700000.0 11309700000.0 11309700000.0 11309700000.0 11309700000.0 11309700000.0 11309700000.0 11309700000.0 11309700000.0 11309700000.0 11309700000.0 11309700000.0 11309700000.0 11309700000.0 11309700000.0 11309700000.0 11309700000.0 11309700000.0 11309700000.0 11309700000.0 11309700000.0 11309700000.0 11309700000.0 11309700000.0 11309700000.0 11309700000.0 11309700000.0 11309700000.0 11309700000.0 11309700000.0 11309700000.0 11309700000.0 11309700000.0 11309700000.0 11309700000.0 11309700000.0 11309700000.0 11309700000.0 11309700000.0 11309700000.0 11309700000.0 11309700000.0 11309700000.0 11309700000.0 11309700000.0 11309700000.0 11309700000.0 11309700000.0 11309700000.0 11309700000.0 11309700000.0 11309700000.0 11309700000.0 11309700000.0 11309700000.0 11309700000.0 11309700000.0 11309700000.0 11309700000.0 11309700000.0 11309700000.0 11309700000.0 11309700000.0 11309700000.0 11309700000.0 11309700000.0 11309700000.0 11309700000.0 11309700000.0 11309700000.0 11309700000.0 11309700000.0 11309700000.0 11309700000.0 11309700000.0 11309700000.0 11309700000.0 11309700000.0 11309700000.0 11309700000.0 11309700000.0 11309700000.0 11309700000.0 11309700000.0 11309700000.0 11309700000.0 11309700000.0 11309700000.0 11309700000.0 11309700000.0 11309700000.0 11309700000.0 11309700000.0 11309700000.0 11309700000.0 11309700000.0 11309700000.0 11309700000.0 11309700000.0 11309700000.0 11309700000.0 11309700000.0 11309700000.0 11309700000.0 11309700000.0 11309700000.0 11309700000.0 11309700000.0 11309700000.0 11309700000.0 11309700000.0 11309700000.0 11309700000.0 11309700000.0 11309700000.0 11309700000.0 11309700000.0 11309700000.0 11309700000.0 11309700000.0 11309700000.0 11309700000.0 11309700000.0 11309700000.0 11309700000.0 11309700000.0 11309700000.0 11309700000.0 11309700000.0 11309700000.0 11309700000.0 11309700000.0 11309700000.0 11309700000.0 11309700000.0 11309700000.0 11309700000.0 11309700000.0 11309700000.0 11309700000.0 11309700000.0 11309700000.0 11309700000.0 11309700000.0 11309700000.0 11309700000.0 11309700000.0 11309700000.0 11309700000.0 11309700000.0 11309700000.0 11309700000.0 11309700000.0 11309700000.0 11309700000.0 11309700000.0 11309700000.0 11309700000.0 11309700000.0 11309700000.0 11309700000.0 11309700000.0 11309700000.0 11309700000.0 11309700000.0 11309700000.0 11309700000.0 11309700000.0 11309700000.0 11309700000.0 11309700000.0 11309700000.0 11309700000.0 11309700000.0 11309700000.0 11309700000.0 11309700000.0 11309700000.0 11309700000.0 11309700000.0 11309700000.0 11309700000.0 11309700000.0 11309700000.0 11309700000.0 11309700000.0 11309700000.0 11309700000.0 11309700000.0 11309700000.0 11309700000.0 11309700000.0 11309700000.0 11309700000.0 11309700000.0 11309700000.0 11309700000.0 11309700000.0 11309700000.0 11309700000.0 11309700000.0 11309700000.0 11309700000.0 11309700000.0 11309700000.0 11309700000.0 11309700000.0 11309700000.0 11309700000.0 11309700000.0 11309700000.0 11309700000.0 11309700000.0 11309700000.0 11309700000.0 11309700000.0 11309700000.0 11309700000.0 11309700000.0 11309700000.0 11309700000.0 11309700000.0 11309700000.0 11309700000.0 11309700000.0 11309700000.0 11309700000.0 11309700000.0 11309700000.0 11309700000.0 11309700000.0 11309700000.0 11309700000.0 11309700000.0 11309700000.0 11309700000.0 11309700000.0 11309700000.0 11309700000.0 11309700000.0 11309700000.0 11309700000.0 11309700000.0 11309700000.0 11309700000.0 11309700000.0 11309700000.0 11309700000.0 11309700000.0 11309700000.0 11309700000.0 11309700000.0 11309700000.0 11309700000.0 11309700000.0 11309700000.0 11309700000.0 11309700000.0 11309700000.0 11309700000.0 11309700000.0 11309700000.0 11309700000.0 11309700000.0 11309700000.0 11309700000.0 11309700000.0 11309700000.0 11309700000.0 11309700000.0 11309700000.0 11309700000.0 11309700000.0 11309700000.0 11309700000.0 11309700000.0 11309700000.0 11309700000.0 11309700000.0 11309700000.0 11309700000.0 11309700000.0 11309700000.0 11309700000.0 11309700000.0 11309700000.0 11309700000.0 11309700000.0 11309700000.0 11309700000.0 11309700000.0 11309700000.0 11309700000.0 11309700000.0 11309700000.0 11309700000.0 11309700000.0 11309700000.0 11309700000.0 11309700000.0 11309700000.0 11309700000.0 11309700000.0 11309700000.0 11309700000.0 11309700000.0 11309700000.0 11309700000.0 11309700000.0 11309700000.0 11309700000.0 11309700000.0 11309700000.0 11309700000.0 11309700000.0 11309700000.0 11309700000.0 11309700000.0 11309700000.0 11309700000.0 11309700000.0 11309700000.0 11309700000.0 11309700000.0 11309700000.0 11309700000.0 11309700000.0 11309700000.0 11309700000.0 11309700000.0 11309700000.0 11309700000.0 11309700000.0 11309700000.0 11309700000.0 11309700000.0 11309700000.0 11309700000.0 11309700000.0 11309700000.0 11309700000.0 11309700000.0 11309700000.0 11309700000.0 11309700000.0 11309700000.0 11309700000.0 11309700000.0 11309700000.0 11309700000.0 11309700000.0 11309700000.0 11309700000.0 11309700000.0 11309700000.0 11309700000.0 11309700000.0 11309700000.0 11309700000.0 11309700000.0 11309700000.0 11309700000.0 11309700000.0 11309700000.0 11309700000.0 11309700000.0 11309700000.0 11309700000.0 11309700000.0 11309700000.0 11309700000.0 11309700000.0 11309700000.0 11309700000.0 11309700000.0 11309700000.0 11309700000.0 11309700000.0 11309700000.0 11309700000.0 11309700000.0 11309700000.0 11309700000.0 11309700000.0 11309700000.0 11309700000.0 11309700000.0 11309700000.0 11309700000.0 11309700000.0 11309700000.0 11309700000.0 11309700000.0 11309700000.0 11309700000.0 11309700000.0 11309700000.0 11309700000.0 11309700000.0 11309700000.0 11309700000.0 11309700000.0 11309700000.0 11309700000.0 11309700000.0 11309700000.0 11309700000.0 11309700000.0 11309700000.0 11309700000.0 11309700000.0 11309700000.0 11309700000.0 11309700000.0 11309700000.0 11309700000.0 11309700000.0 11309700000.0 11309700000.0 11309700000.0 11309700000.0 11309700000.0 11309700000.0 11309700000.0 11309700000.0 11309700000.0 11309700000.0 11309700000.0 11309700000.0 11309700000.0 11309700000.0 11309700000.0 11309700000.0 11309700000.0 11309700000.0 11309700000.0 11309700000.0 11309700000.0 11309700000.0 11309700000.0 11309700000.0 11309700000.0 11309700000.0 11309700000.0 11309700000.0 11309700000.0 11309700000.0 11309700000.0 11309700000.0 11309700000.0 11309700000.0 11309700000.0 11309700000.0 11309700000.0 11309700000.0 11309700000.0 11309700000.0 11309700000.0 11309700000.0 11309700000.0 11309700000.0 11309700000.0 11309700000.0 11309700000.0 11309700000.0 11309700000.0 11309700000.0 11309700000.0 11309700000.0 11309700000.0 11309700000.0 11309700000.0 11309700000.0 11309700000.0 11309700000.0 11309700000.0 11309700000.0 11309700000.0 11309700000.0 11309700000.0 11309700000.0 11309700000.0 11309700000.0 11309700000.0 11309700000.0 11309700000.0 11309700000.0 11309700000.0 11309700000.0 11309700000.0 11309700000.0 11309700000.0 11309700000.0 11309700000.0 11309700000.0 11309700000.0 11309700000.0 11309700000.0 11309700000.0 11309700000.0 11309700000.0 11309700000.0 11309700000.0 11309700000.0 11309700000.0 11309700000.0 11309700000.0 11309700000.0 11309700000.0 11309700000.0 11309700000.0 11309700000.0 11309700000.0 11309700000.0 11309700000.0 11309700000.0 11309700000.0 11309700000.0 11309700000.0 11309700000.0 11309700000.0 11309700000.0 11309700000.0 11309700000.0 11309700000.0 11309700000.0 11309700000.0 11309700000.0 11309700000.0 11309700000.0 11309700000.0 11309700000.0 11309700000.0 11309700000.0 11309700000.0 11309700000.0 11309700000.0 11309700000.0 11309700000.0 11309700000.0 11309700000.0 11309700000.0 11309700000.0 11309700000.0 11309700000.0 11309700000.0 11309700000.0 11309700000.0 11309700000.0 11309700000.0 11309700000.0 11309700000.0 11309700000.0 11309700000.0 11309700000.0 11309700000.0 11309700000.0 11309700000.0 11309700000.0 11309700000.0 11309700000.0 11309700000.0 11309700000.0 11309700000.0 11309700000.0 11309700000.0 11309700000.0 11309700000.0 11309700000.0 11309700000.0 11309700000.0 11309700000.0 11309700000.0 11309700000.0 11309700000.0 11309700000.0 11309700000.0 11309700000.0 11309700000.0 11309700000.0 11309700000.0 11309700000.0 11309700000.0 11309700000.0 11309700000.0 11309700000.0 11309700000.0 11309700000.0 11309700000.0 11309700000.0 11309700000.0 11309700000.0 11309700000.0 11309700000.0 11309700000.0 11309700000.0 11309700000.0 11309700000.0 11309700000.0 11309700000.0 11309700000.0 11309700000.0 11309700000.0 11309700000.0 11309700000.0 11309700000.0 11309700000.0 11309700000.0 11309700000.0 11309700000.0 11309700000.0 11309700000.0 11309700000.0 11309700000.0 11309700000.0 11309700000.0 11309700000.0 11309700000.0 11309700000.0 11309700000.0 11309700000.0 11309700000.0 11309700000.0 11309700000.0 11309700000.0 11309700000.0 11309700000.0 11309700000.0 11309700000.0 11309700000.0 11309700000.0 11309700000.0 11309700000.0 11309700000.0 11309700000.0 11309700000.0 11309700000.0 11309700000.0 11309700000.0 11309700000.0 11309700000.0 11309700000.0 11309700000.0 11309700000.0 11309700000.0 11309700000.0 11309700000.0 11309700000.0 11309700000.0 11309700000.0 11309700000.0 11309700000.0 11309700000.0 11309700000.0 11309700000.0 11309700000.0 11309700000.0 11309700000.0 11309700000.0 11309700000.0 11309700000.0 11309700000.0 11309700000.0 11309700000.0 11309700000.0 11309700000.0 11309700000.0 11309700000.0 11309700000.0 11309700000.0 11309700000.0 11309700000.0 11309700000.0 11309700000.0 11309700000.0 11309700000.0 11309700000.0 11309700000.0 11309700000.0 11309700000.0 11309700000.0 11309700000.0 11309700000.0 11309700000.0 11309700000.0 11309700000.0 11309700000.0 11309700000.0 11309700000.0 11309700000.0 11309700000.0 11309700000.0 11309700000.0 11309700000.0 11309700000.0 11309700000.0 11309700000.0 11309700000.0 11309700000.0 11309700000.0 11309700000.0 11309700000.0 11309700000.0 11309700000.0 11309700000.0 11309700000.0 11309700000.0 11309700000.0 11309700000.0 11309700000.0 11309700000.0 11309700000.0 11309700000.0 11309700000.0 11309700000.0 11309700000.0 11309700000.0 11309700000.0 11309700000.0 11309700000.0 11309700000.0 11309700000.0 11309700000.0 11309700000.0 11309700000.0 11309700000.0 11309700000.0 11309700000.0 11309700000.0 11309700000.0 11309700000.0 11309700000.0 11309700000.0 11309700000.0 11309700000.0 11309700000.0 11309700000.0 11309700000.0 11309700000.0 11309700000.0 11309700000.0 11309700000.0 11309700000.0 11309700000.0 11309700000.0 11309700000.0 11309700000.0 11309700000.0 11309700000.0 11309700000.0 11309700000.0 11309700000.0 11309700000.0 11309700000.0 11309700000.0 11309700000.0 11309700000.0 11309700000.0 11309700000.0 11309700000.0 11309700000.0 11309700000.0 11309700000.0 11309700000.0 11309700000.0 11309700000.0 11309700000.0 11309700000.0 11309700000.0 11309700000.0 11309700000.0 11309700000.0 11309700000.0 11309700000.0 11309700000.0 11309700000.0 11309700000.0 11309700000.0 11309700000.0 11309700000.0 11309700000.0 11309700000.0 11309700000.0 11309700000.0 11309700000.0 11309700000.0 11309700000.0 11309700000.0 11309700000.0 11309700000.0 11309700000.0 11309700000.0 11309700000.0 11309700000.0 11309700000.0 11309700000.0 11309700000.0 11309700000.0 11309700000.0 11309700000.0 11309700000.0 11309700000.0 11309700000.0 11309700000.0 11309700000.0 11309700000.0 11309700000.0 11309700000.0 11309700000.0 11309700000.0 11309700000.0 11309700000.0 11309700000.0 11309700000.0 11309700000.0 11309700000.0 11309700000.0 11309700000.0 11309700000.0 11309700000.0 11309700000.0 11309700000.0 11309700000.0 11309700000.0 11309700000.0 11309700000.0 11309700000.0 11309700000.0 11309700000.0 11309700000.0 11309700000.0 11309700000.0 11309700000.0 11309700000.0 11309700000.0 11309700000.0 11309700000.0 11309700000.0 11309700000.0 11309700000.0 11309700000.0 11309700000.0 11309700000.0 11309700000.0 11309700000.0 11309700000.0 11309700000.0 11309700000.0 11309700000.0 11309700000.0 11309700000.0 11309700000.0 11309700000.0 11309700000.0 11309700000.0 11309700000.0 11309700000.0 11309700000.0 11309700000.0 11309700000.0 11309700000.0 11309700000.0 11309700000.0 11309700000.0 11309700000.0 11309700000.0 11309700000.0 11309700000.0 11309700000.0 11309700000.0 11309700000.0 11309700000.0 11309700000.0 11309700000.0 11309700000.0 11309700000.0 11309700000.0 11309700000.0 11309700000.0 11309700000.0 11309700000.0 11309700000.0 11309700000.0 11309700000.0 11309700000.0 11309700000.0 11309700000.0 11309700000.0 11309700000.0 11309700000.0 11309700000.0 11309700000.0 11309700000.0 11309700000.0 11309700000.0 11309700000.0 11309700000.0 11309700000.0 11309700000.0 11309700000.0 11309700000.0 11309700000.0 11309700000.0 11309700000.0 11309700000.0 11309700000.0 11309700000.0 11309700000.0 11309700000.0 11309700000.0 11309700000.0 11309700000.0 11309700000.0 11309700000.0 11309700000.0 11309700000.0 11309700000.0 11309700000.0 11309700000.0 11309700000.0 11309700000.0 11309700000.0 11309700000.0 11309700000.0 11309700000.0 11309700000.0 11309700000.0 11309700000.0 11309700000.0 11309700000.0 11309700000.0 11309700000.0 11309700000.0 11309700000.0 11309700000.0 11309700000.0 11309700000.0 11309700000.0 11309700000.0 11309700000.0 11309700000.0 11309700000.0 11309700000.0 11309700000.0 11309700000.0 11309700000.0 11309700000.0 11309700000.0 11309700000.0 11309700000.0 11309700000.0 11309700000.0 11309700000.0 11309700000.0 11309700000.0 11309700000.0 11309700000.0 11309700000.0 11309700000.0 11309700000.0 11309700000.0 11309700000.0 11309700000.0 11309700000.0 11309700000.0 11309700000.0 11309700000.0 11309700000.0 11309700000.0 11309700000.0 11309700000.0 11309700000.0 11309700000.0 11309700000.0 11309700000.0 11309700000.0 11309700000.0 11309700000.0 11309700000.0 11309700000.0 11309700000.0 11309700000.0 11309700000.0 11309700000.0 11309700000.0 11309700000.0 11309700000.0 11309700000.0 11309700000.0 11309700000.0 11309700000.0 11309700000.0 11309700000.0 11309700000.0 11309700000.0 11309700000.0 11309700000.0 11309700000.0 11309700000.0 11309700000.0 11309700000.0 11309700000.0 11309700000.0 11309700000.0 11309700000.0 11309700000.0 11309700000.0 11309700000.0 11309700000.0 11309700000.0 11309700000.0 11309700000.0 11309700000.0 11309700000.0 11309700000.0 11309700000.0 11309700000.0 11309700000.0 11309700000.0 11309700000.0 11309700000.0 11309700000.0 11309700000.0 11309700000.0 11309700000.0 11309700000.0 11309700000.0 11309700000.0 11309700000.0 11309700000.0 11309700000.0 11309700000.0 11309700000.0 11309700000.0 11309700000.0 11309700000.0 11309700000.0 11309700000.0 11309700000.0 11309700000.0 11309700000.0 11309700000.0 11309700000.0 11309700000.0 11309700000.0 11309700000.0 11309700000.0 11309700000.0 11309700000.0 11309700000.0 11309700000.0 11309700000.0 11309700000.0 11309700000.0 11309700000.0 11309700000.0 11309700000.0 11309700000.0 11309700000.0 11309700000.0 11309700000.0 11309700000.0 11309700000.0 11309700000.0 11309700000.0 11309700000.0 11309700000.0 11309700000.0 11309700000.0 11309700000.0 11309700000.0 11309700000.0 11309700000.0 11309700000.0 11309700000.0 11309700000.0 11309700000.0 11309700000.0 11309700000.0 11309700000.0 11309700000.0 11309700000.0 11309700000.0 11309700000.0 11309700000.0 11309700000.0 11309700000.0 11309700000.0 11309700000.0 11309700000.0 11309700000.0 11309700000.0 11309700000.0 11309700000.0 11309700000.0 11309700000.0 11309700000.0 11309700000.0 11309700000.0 11309700000.0 11309700000.0 11309700000.0 11309700000.0 11309700000.0 11309700000.0 11309700000.0 11309700000.0 11309700000.0 11309700000.0 11309700000.0 11309700000.0 11309700000.0 11309700000.0 11309700000.0 11309700000.0 11309700000.0 11309700000.0 11309700000.0 11309700000.0 11309700000.0 11309700000.0 11309700000.0 11309700000.0 11309700000.0 11309700000.0 11309700000.0 11309700000.0 11309700000.0 11309700000.0 11309700000.0 11309700000.0 11309700000.0 11309700000.0 11309700000.0 11309700000.0 11309700000.0 11309700000.0 11309700000.0 11309700000.0 11309700000.0 11309700000.0 11309700000.0 11309700000.0 11309700000.0 11309700000.0 11309700000.0 11309700000.0 11309700000.0 11309700000.0 11309700000.0 11309700000.0 11309700000.0 11309700000.0 11309700000.0 11309700000.0 11309700000.0 11309700000.0 11309700000.0 11309700000.0 11309700000.0 11309700000.0 11309700000.0 11309700000.0 11309700000.0 11309700000.0 11309700000.0 11309700000.0 11309700000.0 11309700000.0 11309700000.0 11309700000.0 11309700000.0 11309700000.0 11309700000.0 11309700000.0 11309700000.0 11309700000.0 11309700000.0 11309700000.0 11309700000.0 11309700000.0 11309700000.0 11309700000.0 11309700000.0 11309700000.0 11309700000.0 11309700000.0 11309700000.0 11309700000.0 11309700000.0 11309700000.0 11309700000.0 11309700000.0 11309700000.0 11309700000.0 11309700000.0 11309700000.0 11309700000.0 11309700000.0 11309700000.0 11309700000.0 11309700000.0 11309700000.0 11309700000.0 11309700000.0 11309700000.0 11309700000.0 11309700000.0 11309700000.0 11309700000.0 11309700000.0 11309700000.0 11309700000.0 11309700000.0 11309700000.0 11309700000.0 11309700000.0 11309700000.0 11309700000.0 11309700000.0 11309700000.0 11309700000.0 11309700000.0 11309700000.0 11309700000.0 11309700000.0 11309700000.0 11309700000.0 11309700000.0 11309700000.0 11309700000.0 11309700000.0 11309700000.0 11309700000.0 11309700000.0 11309700000.0 11309700000.0 11309700000.0 11309700000.0 11309700000.0 11309700000.0 11309700000.0 11309700000.0 11309700000.0 11309700000.0 11309700000.0 11309700000.0 11309700000.0 11309700000.0 11309700000.0 11309700000.0 11309700000.0 11309700000.0 11309700000.0 11309700000.0 11309700000.0 11309700000.0 11309700000.0 11309700000.0 11309700000.0 11309700000.0 11309700000.0 11309700000.0 11309700000.0 11309700000.0 11309700000.0 11309700000.0 11309700000.0 11309700000.0 11309700000.0 11309700000.0 11309700000.0 11309700000.0 11309700000.0 11309700000.0 11309700000.0 11309700000.0 11309700000.0 11309700000.0 11309700000.0 11309700000.0 11309700000.0 11309700000.0 11309700000.0 11309700000.0 11309700000.0 11309700000.0 11309700000.0 11309700000.0 11309700000.0 11309700000.0 11309700000.0 11309700000.0 11309700000.0 11309700000.0 11309700000.0 11309700000.0 11309700000.0 11309700000.0 11309700000.0 11309700000.0 11309700000.0 11309700000.0 11309700000.0 11309700000.0 11309700000.0 11309700000.0 11309700000.0 11309700000.0 11309700000.0 11309700000.0 11309700000.0 11309700000.0 11309700000.0 11309700000.0 11309700000.0 11309700000.0 11309700000.0 11309700000.0 11309700000.0 11309700000.0 11309700000.0 11309700000.0 11309700000.0 11309700000.0 11309700000.0 11309700000.0 11309700000.0 11309700000.0 11309700000.0 11309700000.0 11309700000.0 11309700000.0 11309700000.0 11309700000.0 11309700000.0 11309700000.0 11309700000.0 11309700000.0 11309700000.0 11309700000.0 11309700000.0 11309700000.0 11309700000.0 11309700000.0 11309700000.0 11309700000.0 11309700000.0 11309700000.0 11309700000.0 11309700000.0 11309700000.0 11309700000.0 11309700000.0 11309700000.0 11309700000.0 11309700000.0 11309700000.0 11309700000.0 11309700000.0 11309700000.0 11309700000.0 11309700000.0 11309700000.0 11309700000.0 11309700000.0 11309700000.0 11309700000.0 11309700000.0 11309700000.0 11309700000.0 11309700000.0 11309700000.0 11309700000.0 11309700000.0 11309700000.0 11309700000.0 11309700000.0 11309700000.0 11309700000.0 11309700000.0 11309700000.0 11309700000.0 11309700000.0 11309700000.0 11309700000.0 11309700000.0 11309700000.0 11309700000.0 11309700000.0 11309700000.0 11309700000.0 11309700000.0 11309700000.0 11309700000.0 11309700000.0 11309700000.0 11309700000.0 11309700000.0 11309700000.0 11309700000.0 11309700000.0 11309700000.0 11309700000.0 11309700000.0 11309700000.0 11309700000.0 11309700000.0 11309700000.0 11309700000.0 11309700000.0 11309700000.0 11309700000.0 11309700000.0 11309700000.0 11309700000.0 11309700000.0 11309700000.0 11309700000.0 11309700000.0 11309700000.0 11309700000.0 11309700000.0 11309700000.0 11309700000.0 11309700000.0 11309700000.0 11309700000.0 11309700000.0 11309700000.0 11309700000.0 11309700000.0 11309700000.0 11309700000.0 11309700000.0 11309700000.0 11309700000.0 11309700000.0 11309700000.0 11309700000.0 11309700000.0 11309700000.0 11309700000.0 11309700000.0 11309700000.0 11309700000.0 11309700000.0 11309700000.0 11309700000.0 11309700000.0 11309700000.0 11309700000.0 11309700000.0 11309700000.0 11309700000.0 11309700000.0 11309700000.0 11309700000.0 11309700000.0 11309700000.0 11309700000.0 11309700000.0 11309700000.0 11309700000.0 11309700000.0 11309700000.0 11309700000.0 11309700000.0 11309700000.0 11309700000.0 11309700000.0 11309700000.0 11309700000.0 11309700000.0 11309700000.0 11309700000.0 11309700000.0 11309700000.0 11309700000.0 11309700000.0 11309700000.0 11309700000.0 11309700000.0 11309700000.0 11309700000.0 11309700000.0 11309700000.0 11309700000.0 11309700000.0 11309700000.0 11309700000.0 11309700000.0 11309700000.0 11309700000.0 11309700000.0 11309700000.0 11309700000.0 11309700000.0 11309700000.0 11309700000.0 11309700000.0 11309700000.0 11309700000.0 11309700000.0 11309700000.0 11309700000.0 11309700000.0 11309700000.0 11309700000.0 11309700000.0 11309700000.0 11309700000.0 11309700000.0 11309700000.0 11309700000.0 11309700000.0 11309700000.0 11309700000.0 11309700000.0 11309700000.0 11309700000.0 11309700000.0 11309700000.0 11309700000.0 11309700000.0 11309700000.0 11309700000.0 11309700000.0 11309700000.0 11309700000.0 11309700000.0 11309700000.0 11309700000.0 11309700000.0 11309700000.0 11309700000.0 11309700000.0 11309700000.0 11309700000.0 11309700000.0 11309700000.0 11309700000.0 11309700000.0 11309700000.0 11309700000.0 11309700000.0 11309700000.0 11309700000.0 11309700000.0 11309700000.0 11309700000.0 11309700000.0 11309700000.0 11309700000.0 11309700000.0 11309700000.0 11309700000.0 11309700000.0 11309700000.0 11309700000.0 11309700000.0 11309700000.0 11309700000.0 11309700000.0 11309700000.0 11309700000.0 11309700000.0 11309700000.0 11309700000.0 11309700000.0 11309700000.0 11309700000.0 11309700000.0 11309700000.0 11309700000.0 11309700000.0 11309700000.0 11309700000.0 11309700000.0 11309700000.0 11309700000.0 11309700000.0 11309700000.0 11309700000.0 11309700000.0 11309700000.0 11309700000.0 11309700000.0 11309700000.0 11309700000.0 11309700000.0 11309700000.0 11309700000.0 11309700000.0 11309700000.0 11309700000.0 11309700000.0 11309700000.0 11309700000.0 11309700000.0 11309700000.0 11309700000.0 11309700000.0 11309700000.0 11309700000.0 11309700000.0 11309700000.0 11309700000.0 11309700000.0 11309700000.0 11309700000.0 11309700000.0 11309700000.0 11309700000.0 11309700000.0 11309700000.0 11309700000.0 11309700000.0 11309700000.0 11309700000.0 11309700000.0 11309700000.0 11309700000.0 11309700000.0 11309700000.0 11309700000.0 11309700000.0 11309700000.0 11309700000.0 11309700000.0 11309700000.0 11309700000.0 11309700000.0 11309700000.0 11309700000.0 11309700000.0 11309700000.0 11309700000.0 11309700000.0 11309700000.0 11309700000.0 11309700000.0 11309700000.0 11309700000.0 11309700000.0 11309700000.0 11309700000.0 11309700000.0 11309700000.0 11309700000.0 11309700000.0 11309700000.0 11309700000.0 11309700000.0 11309700000.0 11309700000.0 11309700000.0 11309700000.0 11309700000.0 11309700000.0 11309700000.0 11309700000.0 11309700000.0 11309700000.0 11309700000.0 11309700000.0 11309700000.0 11309700000.0 11309700000.0 11309700000.0 11309700000.0 11309700000.0 11309700000.0 11309700000.0 11309700000.0 11309700000.0 11309700000.0 11309700000.0 11309700000.0 11309700000.0 11309700000.0 11309700000.0 11309700000.0 11309700000.0 11309700000.0 11309700000.0 11309700000.0 11309700000.0 11309700000.0 11309700000.0 11309700000.0 11309700000.0 11309700000.0 11309700000.0 11309700000.0 11309700000.0 11309700000.0 11309700000.0 11309700000.0 11309700000.0 11309700000.0 11309700000.0 11309700000.0 11309700000.0 11309700000.0 11309700000.0 11309700000.0 11309700000.0 11309700000.0 11309700000.0 11309700000.0 11309700000.0 11309700000.0 11309700000.0 11309700000.0 11309700000.0 11309700000.0 11309700000.0 11309700000.0 11309700000.0 11309700000.0 11309700000.0 11309700000.0 11309700000.0 11309700000.0 11309700000.0 11309700000.0 11309700000.0 11309700000.0 11309700000.0 11309700000.0 11309700000.0 11309700000.0 11309700000.0 11309700000.0 11309700000.0 11309700000.0 11309700000.0 11309700000.0 11309700000.0 11309700000.0 11309700000.0 11309700000.0 11309700000.0 11309700000.0 11309700000.0 11309700000.0 11309700000.0 11309700000.0 11309700000.0 11309700000.0 11309700000.0 11309700000.0 11309700000.0 11309700000.0 11309700000.0 11309700000.0 11309700000.0 11309700000.0 11309700000.0 11309700000.0 11309700000.0 11309700000.0 11309700000.0 11309700000.0 11309700000.0 11309700000.0 11309700000.0 11309700000.0 11309700000.0 11309700000.0 11309700000.0 11309700000.0 11309700000.0 11309700000.0 11309700000.0 11309700000.0 11309700000.0 11309700000.0 11309700000.0 11309700000.0 11309700000.0 11309700000.0 11309700000.0 11309700000.0 11309700000.0 11309700000.0 11309700000.0 11309700000.0 11309700000.0 11309700000.0 11309700000.0 11309700000.0 11309700000.0 11309700000.0 11309700000.0 11309700000.0 11309700000.0 11309700000.0 11309700000.0 11309700000.0 11309700000.0 11309700000.0 11309700000.0 11309700000.0 11309700000.0 11309700000.0 11309700000.0 11309700000.0 11309700000.0 11309700000.0 11309700000.0 11309700000.0 11309700000.0 11309700000.0 11309700000.0 11309700000.0 11309700000.0 11309700000.0 11309700000.0 11309700000.0 11309700000.0 11309700000.0 11309700000.0 11309700000.0 11309700000.0 11309700000.0 11309700000.0 11309700000.0 11309700000.0 11309700000.0 11309700000.0 11309700000.0 11309700000.0 11309700000.0 11309700000.0 11309700000.0 11309700000.0 11309700000.0 11309700000.0 11309700000.0 11309700000.0 11309700000.0 11309700000.0 11309700000.0 11309700000.0 11309700000.0 11309700000.0 11309700000.0 11309700000.0 11309700000.0 11309700000.0 11309700000.0 11309700000.0 11309700000.0 11309700000.0 11309700000.0 11309700000.0 11309700000.0 11309700000.0 11309700000.0 11309700000.0 11309700000.0 11309700000.0 11309700000.0 11309700000.0 11309700000.0 11309700000.0 11309700000.0 11309700000.0 11309700000.0 11309700000.0 11309700000.0 11309700000.0 11309700000.0 11309700000.0 11309700000.0 11309700000.0 11309700000.0 11309700000.0 11309700000.0 11309700000.0 11309700000.0 11309700000.0 11309700000.0 11309700000.0 11309700000.0 11309700000.0 11309700000.0 11309700000.0 11309700000.0 11309700000.0 11309700000.0 11309700000.0 11309700000.0 11309700000.0 11309700000.0 11309700000.0 11309700000.0 11309700000.0 11309700000.0 11309700000.0 11309700000.0 11309700000.0 11309700000.0 11309700000.0 11309700000.0 11309700000.0 11309700000.0 11309700000.0 11309700000.0 11309700000.0 11309700000.0 11309700000.0 11309700000.0 11309700000.0 11309700000.0 11309700000.0 11309700000.0 11309700000.0 11309700000.0 11309700000.0 11309700000.0 11309700000.0 11309700000.0 11309700000.0 11309700000.0 11309700000.0 11309700000.0 11309700000.0 11309700000.0 11309700000.0 11309700000.0 11309700000.0 11309700000.0 11309700000.0 11309700000.0 11309700000.0 11309700000.0 11309700000.0 11309700000.0 11309700000.0 11309700000.0 11309700000.0 11309700000.0 11309700000.0 11309700000.0 11309700000.0 11309700000.0 11309700000.0 11309700000.0 11309700000.0 11309700000.0 11309700000.0 11309700000.0 11309700000.0 11309700000.0 11309700000.0 11309700000.0 11309700000.0 11309700000.0 11309700000.0 11309700000.0 11309700000.0 11309700000.0 11309700000.0 11309700000.0 11309700000.0 11309700000.0 11309700000.0 11309700000.0 11309700000.0 11309700000.0 11309700000.0 11309700000.0 11309700000.0 11309700000.0 11309700000.0 11309700000.0 11309700000.0 11309700000.0 11309700000.0 11309700000.0 11309700000.0 11309700000.0 11309700000.0 11309700000.0 11309700000.0 11309700000.0 11309700000.0 11309700000.0 11309700000.0 11309700000.0 11309700000.0 11309700000.0 11309700000.0 11309700000.0 11309700000.0 11309700000.0 11309700000.0 11309700000.0 11309700000.0 11309700000.0 11309700000.0 11309700000.0 11309700000.0 11309700000.0 11309700000.0 11309700000.0 11309700000.0 11309700000.0 11309700000.0 11309700000.0 11309700000.0 11309700000.0 11309700000.0 11309700000.0 11309700000.0 11309700000.0 11309700000.0 11309700000.0 11309700000.0 11309700000.0 11309700000.0 11309700000.0 11309700000.0 11309700000.0 11309700000.0 11309700000.0 11309700000.0 11309700000.0 11309700000.0 11309700000.0 11309700000.0 11309700000.0 11309700000.0 11309700000.0 11309700000.0 11309700000.0 11309700000.0 11309700000.0 11309700000.0 11309700000.0 11309700000.0 11309700000.0 11309700000.0 11309700000.0 11309700000.0 11309700000.0 11309700000.0 11309700000.0 11309700000.0 11309700000.0 11309700000.0 11309700000.0 11309700000.0 11309700000.0 11309700000.0 11309700000.0 11309700000.0 11309700000.0 11309700000.0 11309700000.0 11309700000.0 11309700000.0 11309700000.0 11309700000.0 11309700000.0 11309700000.0 11309700000.0 11309700000.0 11309700000.0 11309700000.0 11309700000.0 11309700000.0 11309700000.0 11309700000.0 11309700000.0 11309700000.0 11309700000.0 11309700000.0 11309700000.0 11309700000.0 11309700000.0 11309700000.0 11309700000.0 11309700000.0 11309700000.0 11309700000.0 11309700000.0 11309700000.0 11309700000.0 11309700000.0 11309700000.0 11309700000.0 11309700000.0 11309700000.0 11309700000.0 11309700000.0 11309700000.0 11309700000.0 11309700000.0 11309700000.0 11309700000.0 11309700000.0 11309700000.0 11309700000.0 11309700000.0 11309700000.0 11309700000.0 11309700000.0 11309700000.0 11309700000.0 11309700000.0 11309700000.0 11309700000.0 11309700000.0 11309700000.0 11309700000.0 11309700000.0 11309700000.0 11309700000.0 11309700000.0 11309700000.0 11309700000.0 11309700000.0 11309700000.0 11309700000.0 11309700000.0 11309700000.0 11309700000.0 11309700000.0 11309700000.0 11309700000.0 11309700000.0 11309700000.0 11309700000.0 11309700000.0 11309700000.0 11309700000.0 11309700000.0 11309700000.0 11309700000.0 11309700000.0 11309700000.0 11309700000.0 11309700000.0 11309700000.0 11309700000.0 11309700000.0 11309700000.0 11309700000.0 11309700000.0 11309700000.0 11309700000.0 11309700000.0 11309700000.0 11309700000.0 11309700000.0 11309700000.0 11309700000.0 11309700000.0 11309700000.0 11309700000.0 11309700000.0 11309700000.0 11309700000.0 11309700000.0 11309700000.0 11309700000.0 11309700000.0 11309700000.0 11309700000.0 11309700000.0 11309700000.0 11309700000.0 11309700000.0 11309700000.0 11309700000.0 11309700000.0 11309700000.0 11309700000.0 11309700000.0 11309700000.0 11309700000.0 11309700000.0 11309700000.0 11309700000.0 11309700000.0 11309700000.0 11309700000.0 11309700000.0 11309700000.0 11309700000.0 11309700000.0 11309700000.0 11309700000.0 11309700000.0 11309700000.0 11309700000.0 11309700000.0 11309700000.0 11309700000.0 11309700000.0 11309700000.0 11309700000.0 11309700000.0 11309700000.0 11309700000.0 11309700000.0 11309700000.0 11309700000.0 11309700000.0 11309700000.0 11309700000.0 11309700000.0 11309700000.0 11309700000.0 11309700000.0 11309700000.0 11309700000.0 11309700000.0 11309700000.0 11309700000.0 11309700000.0 11309700000.0 11309700000.0 11309700000.0 11309700000.0 11309700000.0 11309700000.0 11309700000.0 11309700000.0 11309700000.0 11309700000.0 11309700000.0 11309700000.0 11309700000.0 11309700000.0 11309700000.0 11309700000.0 11309700000.0 11309700000.0 11309700000.0 11309700000.0 11309700000.0 11309700000.0 11309700000.0 11309700000.0 11309700000.0 11309700000.0 11309700000.0 11309700000.0 11309700000.0 11309700000.0 11309700000.0 11309700000.0 11309700000.0 11309700000.0 11309700000.0 11309700000.0 11309700000.0 11309700000.0 11309700000.0 11309700000.0 11309700000.0 11309700000.0 11309700000.0 11309700000.0 11309700000.0 11309700000.0 11309700000.0 11309700000.0 11309700000.0 11309700000.0 11309700000.0 11309700000.0 11309700000.0 11309700000.0 11309700000.0 11309700000.0 11309700000.0 11309700000.0 11309700000.0 11309700000.0 11309700000.0 11309700000.0 11309700000.0 11309700000.0 11309700000.0 11309700000.0 11309700000.0 11309700000.0 11309700000.0 11309700000.0 11309700000.0 11309700000.0 11309700000.0 11309700000.0 11309700000.0 11309700000.0 11309700000.0 11309700000.0 11309700000.0 11309700000.0 11309700000.0 11309700000.0 11309700000.0 11309700000.0 11309700000.0 11309700000.0 11309700000.0 11309700000.0 11309700000.0 11309700000.0 11309700000.0 11309700000.0 11309700000.0 11309700000.0 11309700000.0 11309700000.0 11309700000.0 11309700000.0 11309700000.0 11309700000.0 11309700000.0 11309700000.0 11309700000.0 11309700000.0 11309700000.0 11309700000.0 11309700000.0 11309700000.0 11309700000.0 11309700000.0 11309700000.0 11309700000.0 11309700000.0 11309700000.0 11309700000.0 11309700000.0 11309700000.0 11309700000.0 11309700000.0 11309700000.0 11309700000.0 11309700000.0 11309700000.0 11309700000.0 11309700000.0 11309700000.0 11309700000.0 11309700000.0 11309700000.0 11309700000.0 11309700000.0 11309700000.0 11309700000.0 11309700000.0 11309700000.0 11309700000.0 11309700000.0 11309700000.0 11309700000.0 11309700000.0 11309700000.0 11309700000.0 11309700000.0 11309700000.0 11309700000.0 11309700000.0 11309700000.0 11309700000.0 11309700000.0 11309700000.0 11309700000.0 11309700000.0 11309700000.0 11309700000.0 11309700000.0 11309700000.0 11309700000.0 11309700000.0 11309700000.0 11309700000.0 11309700000.0 11309700000.0 11309700000.0 11309700000.0 11309700000.0 11309700000.0 11309700000.0 11309700000.0 11309700000.0 11309700000.0 11309700000.0 11309700000.0 11309700000.0 11309700000.0 11309700000.0 11309700000.0 11309700000.0 11309700000.0 11309700000.0 11309700000.0 11309700000.0 11309700000.0 11309700000.0 11309700000.0 11309700000.0 11309700000.0 11309700000.0 11309700000.0 11309700000.0 11309700000.0 11309700000.0 11309700000.0 11309700000.0 11309700000.0 11309700000.0 11309700000.0 11309700000.0 11309700000.0 11309700000.0 11309700000.0 11309700000.0 11309700000.0 11309700000.0 11309700000.0 11309700000.0 11309700000.0 11309700000.0 11309700000.0 11309700000.0 11309700000.0 11309700000.0 11309700000.0 11309700000.0 11309700000.0 11309700000.0 11309700000.0 11309700000.0 11309700000.0 11309700000.0 11309700000.0 11309700000.0 11309700000.0 11309700000.0 11309700000.0 11309700000.0 11309700000.0 11309700000.0 11309700000.0 11309700000.0 11309700000.0 11309700000.0 11309700000.0 11309700000.0 11309700000.0 11309700000.0 11309700000.0 11309700000.0 11309700000.0 11309700000.0 11309700000.0 11309700000.0 11309700000.0 11309700000.0 11309700000.0 11309700000.0 11309700000.0 11309700000.0 11309700000.0 11309700000.0 11309700000.0 11309700000.0 11309700000.0 11309700000.0 11309700000.0 11309700000.0 11309700000.0 11309700000.0 11309700000.0 11309700000.0 11309700000.0 11309700000.0 11309700000.0 11309700000.0 11309700000.0 11309700000.0 11309700000.0 11309700000.0 11309700000.0 11309700000.0 11309700000.0 11309700000.0 11309700000.0 11309700000.0 11309700000.0 11309700000.0 11309700000.0 11309700000.0 11309700000.0 11309700000.0 11309700000.0 11309700000.0 11309700000.0 11309700000.0 11309700000.0 11309700000.0 11309700000.0 11309700000.0 11309700000.0 11309700000.0 11309700000.0 11309700000.0 11309700000.0 11309700000.0 11309700000.0 11309700000.0 11309700000.0 11309700000.0 11309700000.0 11309700000.0 11309700000.0 11309700000.0 11309700000.0 11309700000.0 11309700000.0 11309700000.0 11309700000.0 11309700000.0 11309700000.0 11309700000.0 11309700000.0 11309700000.0 11309700000.0 11309700000.0 11309700000.0 11309700000.0 11309700000.0 11309700000.0 11309700000.0 11309700000.0 11309700000.0 11309700000.0 11309700000.0 11309700000.0 11309700000.0 11309700000.0 11309700000.0 11309700000.0 11309700000.0 11309700000.0 11309700000.0 11309700000.0 11309700000.0 11309700000.0 11309700000.0 11309700000.0 11309700000.0 11309700000.0 11309700000.0 11309700000.0 11309700000.0 11309700000.0 11309700000.0 11309700000.0 11309700000.0 11309700000.0 11309700000.0 11309700000.0 11309700000.0 11309700000.0 11309700000.0 11309700000.0 11309700000.0 11309700000.0 11309700000.0 11309700000.0 11309700000.0 11309700000.0 11309700000.0 11309700000.0 11309700000.0 11309700000.0 11309700000.0 11309700000.0 11309700000.0 11309700000.0 11309700000.0 11309700000.0 11309700000.0 11309700000.0 11309700000.0 11309700000.0 11309700000.0 11309700000.0 11309700000.0 11309700000.0 11309700000.0 11309700000.0 11309700000.0 11309700000.0 11309700000.0 11309700000.0 11309700000.0 11309700000.0 11309700000.0 11309700000.0 11309700000.0 11309700000.0 11309700000.0 11309700000.0 11309700000.0 11309700000.0 11309700000.0 11309700000.0 11309700000.0 11309700000.0 11309700000.0 11309700000.0 11309700000.0 11309700000.0 11309700000.0 11309700000.0 11309700000.0 11309700000.0 11309700000.0 11309700000.0 11309700000.0 11309700000.0 11309700000.0 11309700000.0 11309700000.0 11309700000.0 11309700000.0 11309700000.0 11309700000.0 11309700000.0 11309700000.0 11309700000.0 11309700000.0 11309700000.0 11309700000.0 11309700000.0 11309700000.0 11309700000.0 11309700000.0 11309700000.0 11309700000.0 11309700000.0 11309700000.0 11309700000.0 11309700000.0 11309700000.0 11309700000.0 11309700000.0 11309700000.0 11309700000.0 11309700000.0 11309700000.0 11309700000.0 11309700000.0 11309700000.0 11309700000.0 11309700000.0 11309700000.0 11309700000.0 11309700000.0 11309700000.0 11309700000.0 11309700000.0 11309700000.0 11309700000.0 11309700000.0 11309700000.0 11309700000.0 11309700000.0 11309700000.0 11309700000.0 11309700000.0 11309700000.0 11309700000.0 11309700000.0 11309700000.0 11309700000.0 11309700000.0 11309700000.0 11309700000.0 11309700000.0 11309700000.0 11309700000.0 11309700000.0 11309700000.0 11309700000.0 11309700000.0 11309700000.0 11309700000.0 11309700000.0 11309700000.0 11309700000.0 11309700000.0 11309700000.0 11309700000.0 11309700000.0 11309700000.0 11309700000.0 11309700000.0 11309700000.0 11309700000.0 11309700000.0 11309700000.0 11309700000.0 11309700000.0 11309700000.0 11309700000.0 11309700000.0 11309700000.0 11309700000.0 11309700000.0 11309700000.0 11309700000.0 11309700000.0 11309700000.0 11309700000.0 11309700000.0 11309700000.0 11309700000.0 11309700000.0 11309700000.0 11309700000.0 11309700000.0 11309700000.0 11309700000.0 11309700000.0 11309700000.0 11309700000.0 11309700000.0 11309700000.0 11309700000.0 11309700000.0 11309700000.0 11309700000.0 11309700000.0 11309700000.0 11309700000.0 11309700000.0 11309700000.0 11309700000.0 11309700000.0 11309700000.0 11309700000.0 11309700000.0 11309700000.0 11309700000.0 11309700000.0 11309700000.0 11309700000.0 11309700000.0 11309700000.0 11309700000.0 11309700000.0 11309700000.0 11309700000.0 11309700000.0 11309700000.0 11309700000.0 11309700000.0 11309700000.0 11309700000.0 11309700000.0 11309700000.0 11309700000.0 11309700000.0 11309700000.0 11309700000.0 11309700000.0 11309700000.0 11309700000.0 11309700000.0 11309700000.0 11309700000.0 11309700000.0 11309700000.0 11309700000.0 11309700000.0 11309700000.0 11309700000.0 11309700000.0 11309700000.0 11309700000.0 11309700000.0 11309700000.0 11309700000.0 11309700000.0 11309700000.0 11309700000.0 11309700000.0 11309700000.0 11309700000.0 11309700000.0 11309700000.0 11309700000.0 11309700000.0 11309700000.0 11309700000.0 11309700000.0 11309700000.0 11309700000.0 11309700000.0 11309700000.0 11309700000.0 11309700000.0 11309700000.0 11309700000.0 11309700000.0 11309700000.0 11309700000.0 11309700000.0 11309700000.0 11309700000.0 11309700000.0 11309700000.0 11309700000.0 11309700000.0 11309700000.0 11309700000.0 11309700000.0 11309700000.0 11309700000.0 11309700000.0 11309700000.0 11309700000.0 11309700000.0 11309700000.0 11309700000.0 11309700000.0 11309700000.0 11309700000.0 11309700000.0 11309700000.0 11309700000.0 11309700000.0 11309700000.0 11309700000.0 11309700000.0 11309700000.0 11309700000.0 11309700000.0 11309700000.0 11309700000.0 11309700000.0 11309700000.0 11309700000.0 11309700000.0 11309700000.0 11309700000.0 11309700000.0 11309700000.0 11309700000.0 11309700000.0 11309700000.0 11309700000.0 11309700000.0 11309700000.0 11309700000.0 11309700000.0 11309700000.0 11309700000.0 11309700000.0 11309700000.0 11309700000.0 11309700000.0 11309700000.0 11309700000.0 11309700000.0 11309700000.0 11309700000.0 11309700000.0 11309700000.0 11309700000.0 11309700000.0 11309700000.0 11309700000.0 11309700000.0 11309700000.0 11309700000.0 11309700000.0 11309700000.0 11309700000.0 11309700000.0 11309700000.0 11309700000.0 11309700000.0 11309700000.0 11309700000.0 11309700000.0 11309700000.0 11309700000.0 11309700000.0 11309700000.0 11309700000.0 11309700000.0 11309700000.0 11309700000.0 11309700000.0 11309700000.0 11309700000.0 11309700000.0 11309700000.0 11309700000.0 11309700000.0 11309700000.0 11309700000.0 11309700000.0 11309700000.0 11309700000.0 11309700000.0 11309700000.0 11309700000.0 11309700000.0 11309700000.0 11309700000.0 11309700000.0 11309700000.0 11309700000.0 11309700000.0 11309700000.0 11309700000.0 11309700000.0 11309700000.0 11309700000.0 11309700000.0 11309700000.0 11309700000.0 11309700000.0 11309700000.0 11309700000.0 11309700000.0 11309700000.0 11309700000.0 11309700000.0 11309700000.0 11309700000.0 11309700000.0 11309700000.0 11309700000.0 11309700000.0 11309700000.0 11309700000.0 11309700000.0 11309700000.0 11309700000.0 11309700000.0 11309700000.0 11309700000.0 11309700000.0 11309700000.0 11309700000.0 11309700000.0 11309700000.0 11309700000.0 11309700000.0 11309700000.0 11309700000.0 11309700000.0 11309700000.0 11309700000.0 11309700000.0 11309700000.0 11309700000.0 11309700000.0 11309700000.0 11309700000.0 11309700000.0 11309700000.0 11309700000.0 11309700000.0 11309700000.0 11309700000.0 11309700000.0 11309700000.0 11309700000.0 11309700000.0 11309700000.0 11309700000.0 11309700000.0 11309700000.0 11309700000.0 11309700000.0 11309700000.0 11309700000.0 11309700000.0 11309700000.0 11309700000.0 11309700000.0 11309700000.0 11309700000.0 11309700000.0 11309700000.0 11309700000.0 11309700000.0 11309700000.0 11309700000.0 11309700000.0 11309700000.0 11309700000.0 11309700000.0 11309700000.0 11309700000.0 11309700000.0 11309700000.0 11309700000.0 11309700000.0 11309700000.0 11309700000.0 11309700000.0 11309700000.0 11309700000.0 11309700000.0 11309700000.0 11309700000.0 11309700000.0 11309700000.0 11309700000.0 11309700000.0 11309700000.0 11309700000.0 11309700000.0 11309700000.0 11309700000.0 11309700000.0 11309700000.0 11309700000.0 11309700000.0 11309700000.0 11309700000.0 11309700000.0 11309700000.0 11309700000.0 11309700000.0 11309700000.0 11309700000.0 11309700000.0 11309700000.0 11309700000.0 11309700000.0 11309700000.0 11309700000.0 11309700000.0 11309700000.0 11309700000.0 11309700000.0 11309700000.0 11309700000.0 11309700000.0 11309700000.0 11309700000.0 11309700000.0 11309700000.0 11309700000.0 11309700000.0 11309700000.0 11309700000.0 11309700000.0 11309700000.0 11309700000.0 11309700000.0 11309700000.0 11309700000.0 11309700000.0 11309700000.0 11309700000.0 11309700000.0 11309700000.0 11309700000.0 11309700000.0 11309700000.0 11309700000.0 11309700000.0 11309700000.0 11309700000.0 11309700000.0 11309700000.0 11309700000.0 11309700000.0 11309700000.0 11309700000.0 11309700000.0 11309700000.0 11309700000.0 11309700000.0 11309700000.0 11309700000.0 11309700000.0 11309700000.0 11309700000.0 11309700000.0 11309700000.0 11309700000.0 11309700000.0 11309700000.0 11309700000.0 11309700000.0 11309700000.0 11309700000.0 11309700000.0 11309700000.0 11309700000.0 11309700000.0 11309700000.0 
SCALARS Velocity float 1
LOOKUP_TABLE default
0.676623 1.11507 1.11507 0.676623 0.654037 0.718573 0.913151 1.13456 1.08829 1.07171 0.892462 1.09431 0.887887 0.951575 0.892672 0.899426 0.89441 0.894286 0.894168 0.89403 0.893974 0.894326 0.893793 0.894303 0.893714 0.894303 0.893793 0.894326 0.893974 0.89403 0.894168 0.894286 0.89441 0.899426 0.892672 0.951575 0.887887 1.09431 0.892462 1.07171 1.08829 1.13456 0.913151 0.718573 0.654037 1.22012 0.732287 0.691092 0.969569 1.0871 1.10165 1.03641 1.03641 1.10165 1.0871 0.969569 0.691092 0.732287 1.22012 0.397558 1.11466 0.951295 1.26086 1.1256 0.961944 1.09725 0.784333 1.08432 0.875098 0.953626 0.891847 0.898194 0.893967 0.893981 0.893945 0.894023 0.893858 0.894145 0.893776 0.894294 0.893715 0.894294 0.893776 0.894145 0.893858 0.894023 0.893945 0.893981 0.893967 0.898194 0.891847 0.953626 0.875098 1.08432 0.784333 1.09725 0.961944 1.1256 1.26086 0.951295 1.11466 0.397558 0.449533 0.827283 0.664454 1.1117 1.273 1.30204 0.802175 0.828099 1.12094 1.08159 0.830453 0.965042 0.887328 0.900044 0.893505 0.893855 0.893836 0.894039 0.893768 0.894158 0.89364 0.894318 0.893653 0.894318 0.89364 0.894158 0.893768 0.894039 0.893836 0.893855 0.893505 0.900044 0.887328 0.965042 0.830453 1.08159 1.12094 0.828099 0.802175 1.30204 1.273 1.1117 0.664454 0.827283 0.449533 0.505802 0.508243 0.467029 0.692531 0.649069 0.756503 0.880144 0.842939 0.901388 0.901388 0.842939 0.880144 0.756503 0.649069 0.692531 0.467029 0.508243 0.505802 0.553251 0.549569 0.598887 0.715983 0.830884 0.772228 0.853908 0.9 0.893762 1.05831 1.03399 1.04514 0.773488 0.977396 0.878282 0.902901 0.892611 0.894176 0.89349 0.894253 0.893317 0.894247 0.893371 0.894362 0.893481 0.894362 0.893371 0.894247 0.893317 0.894253 0.89349 0.894176 0.892611 0.902901 0.878282 0.977396 0.773488 1.04514 1.03399 1.05831 0.893762 0.9 0.853908 0.772228 0.830884 0.715983 0.598887 0.549569 0.553251 0.628206 0.593072 0.583915 0.590367 0.703857 0.734798 0.740921 0.838452 0.857088 0.887952 0.901175 0.886158 1.0466 1.0466 0.886158 0.901175 0.887952 0.857088 0.838452 0.740921 0.734798 0.703857 0.590367 0.583915 0.593072 0.628206 0.661793 0.616681 0.602188 0.642302 0.656791 0.722047 0.78238 0.827944 0.859526 0.870287 0.878371 0.892258 0.927793 0.636456 0.996545 0.864536 0.906227 0.891715 0.894359 0.893737 0.89452 0.893541 0.894431 0.893248 0.89443 0.893302 0.89443 0.893248 0.894431 0.893541 0.89452 0.893737 0.894359 0.891715 0.906227 0.864536 0.996545 0.636456 0.927793 0.892258 0.878371 0.870287 0.859526 0.827944 0.78238 0.722047 0.656791 0.642302 0.602188 0.616681 0.661793 0.693478 0.647583 0.640951 0.616173 0.644076 0.696582 0.764437 0.824554 0.843144 0.87623 0.886345 0.905983 0.93552 1.00128 0.587424 1.01723 0.859456 0.910831 0.891947 0.894177 0.893557 0.894274 0.893361 0.894316 0.893185 0.894446 0.893243 0.894446 0.893185 0.894316 0.893361 0.894274 0.893557 0.894177 0.891947 0.910831 0.859456 1.01723 0.587424 1.00128 0.93552 0.905983 0.886345 0.87623 0.843144 0.824554 0.764437 0.696582 0.644076 0.616173 0.640951 0.647583 0.693478 0.722984 0.70365 0.677451 0.658479 0.642356 0.683683 0.724515 0.748673 0.778879 0.797204 0.830254 0.862625 0.889367 0.901777 0.894249 0.890766 1.00544 1.00544 0.890766 0.894249 0.901777 0.889367 0.862625 0.830254 0.797204 0.778879 0.748673 0.724515 0.683683 0.642356 0.658479 0.677451 0.70365 0.722984 0.334516 0.745926 0.725454 0.674583 0.659754 0.652156 0.692555 0.713339 0.760161 0.806624 0.85682 0.868009 0.88661 0.903484 0.868776 0.921514 0.490584 1.03283 0.847407 0.912351 0.890686 0.894667 0.89384 0.894346 0.89332 0.894323 0.893159 0.894474 0.893245 0.894474 0.893159 0.894323 0.89332 0.894346 0.89384 0.894667 0.890686 0.912351 0.847407 1.03283 0.490584 0.921514 0.868776 0.903484 0.88661 0.868009 0.85682 0.806624 0.760161 0.713339 0.692555 0.652156 0.659754 0.674583 0.725454 0.745926 0.334516 0.348522 0.628836 0.684093 0.64609 0.65394 0.681766 0.744917 0.746441 0.794297 0.85168 0.846888 0.887557 0.898893 0.83294 0.899823 0.924136 0.389481 1.04312 0.832335 0.91396 0.888892 0.895456 0.893899 0.894224 0.893525 0.894436 0.893221 0.894532 0.893246 0.894532 0.893221 0.894436 0.893525 0.894224 0.893899 0.895456 0.888892 0.91396 0.832335 1.04312 0.389481 0.924136 0.899823 0.83294 0.898893 0.887557 0.846888 0.85168 0.794297 0.746441 0.744917 0.681766 0.65394 0.64609 0.684093 0.628836 0.348522 0.342765 0.348348 0.688072 0.648753 0.63749 0.599483 0.616592 0.778689 0.726611 0.778476 0.798486 0.857704 0.89685 0.856068 0.830017 0.886824 0.895866 0.911212 0.891687 0.891687 0.911212 0.895866 0.886824 0.830017 0.856068 0.89685 0.857704 0.798486 0.778476 0.726611 0.778689 0.616592 0.599483 0.63749 0.648753 0.688072 0.348348 0.342765 0.328125 0.346923 0.356861 0.349584 0.662258 0.603469 0.653474 0.470771 0.645239 0.862627 0.991839 0.855338 0.50361 0.782226 0.665564 0.887276 0.890147 0.522253 1.05419 0.820966 0.915918 0.887555 0.897534 0.89377 0.89409 0.893539 0.894786 0.893201 0.89455 0.893257 0.89455 0.893201 0.894786 0.893539 0.89409 0.89377 0.897534 0.887555 0.915918 0.820966 1.05419 0.522253 0.890147 0.887276 0.665564 0.782226 0.50361 0.855338 0.991839 0.862627 0.645239 0.470771 0.653474 0.603469 0.662258 0.349584 0.356861 0.346923 0.328125 0.273095 0.291389 0.35163 0.369038 0.700331 0.653733 0.622082 0.583744 0.541131 0.586541 0.688908 0.81058 0.959546 0.562665 1.04825 0.883176 0.862445 0.529626 1.06035 0.803255 0.917762 0.886126 0.898395 0.893993 0.894307 0.893672 0.894813 0.893201 0.894568 0.893295 0.894568 0.893201 0.894813 0.893672 0.894307 0.893993 0.898395 0.886126 0.917762 0.803255 1.06035 0.529626 0.862445 0.883176 1.04825 0.562665 0.959546 0.81058 0.688908 0.586541 0.541131 0.583744 0.622082 0.653733 0.700331 0.369038 0.35163 0.291389 0.273095 0.142106 0.276122 0.37852 0.380466 0.691757 0.60687 0.575383 0.54125 0.641011 0.541787 0.703091 0.97531 0.355562 0.439567 0.582928 0.656494 0.858868 0.863858 0.853834 0.874518 0.874518 0.853834 0.863858 0.858868 0.656494 0.582928 0.439567 0.355562 0.97531 0.703091 0.541787 0.641011 0.54125 0.575383 0.60687 0.691757 0.380466 0.37852 0.276122 0.142106 0.300452 0.149789 0.112457 0.418357 0.376351 0.407318 0.438385 0.652941 0.585378 0.572296 0.608687 0.606458 0.647569 0.611485 0.370275 0.496164 0.499141 0.867168 0.867518 0.884986 1.01515 0.860378 0.873442 0.856002 0.527999 1.0628 0.835208 0.917061 0.883896 0.897827 0.892704 0.894839 0.893993 0.894361 0.893562 0.894481 0.893357 0.894481 0.893562 0.894361 0.893993 0.894839 0.892704 0.897827 0.883896 0.917061 0.835208 1.0628 0.527999 0.856002 0.873442 0.860378 1.01515 0.884986 0.867518 0.867168 0.499141 0.496164 0.370275 0.611485 0.647569 0.606458 0.608687 0.572296 0.585378 0.652941 0.438385 0.407318 0.376351 0.418357 0.112457 0.149789 0.300452 0.12037 0.665398 0.0952775 0.0594878 0.415704 0.514762 0.681636 0.6676 0.602884 0.537148 0.621439 0.673453 0.568702 0.798313 0.844736 0.855592 0.554351 1.06439 0.837056 0.91725 0.884033 0.89751 0.892425 0.89457 0.893642 0.894631 0.893363 0.894696 0.893409 0.894696 0.893363 0.894631 0.893642 0.89457 0.892425 0.89751 0.884033 0.91725 0.837056 1.06439 0.554351 0.855592 0.844736 0.798313 0.568702 0.673453 0.621439 0.537148 0.602884 0.6676 0.681636 0.514762 0.415704 0.0594878 0.0952775 0.665398 0.12037 0.060335 0.182304 0.213571 0.26651 0.472988 0.698317 0.528343 0.560871 0.572579 0.603557 0.615902 0.635949 0.609848 0.557731 0.445068 0.900355 0.856548 0.884884 0.861515 0.880004 0.880004 0.861515 0.884884 0.856548 0.900355 0.445068 0.557731 0.609848 0.635949 0.615902 0.603557 0.572579 0.560871 0.528343 0.698317 0.472988 0.26651 0.213571 0.182304 0.060335 0.111932 0.474756 0.701858 0.855898 1.02867 0.574209 0.581244 0.575301 0.296305 0.491062 0.576683 0.61796 0.6021 0.604287 0.617583 0.632361 0.617257 0.625316 0.597123 0.896207 0.872132 0.884374 0.854756 0.829463 0.785917 0.896222 0.749114 0.584023 1.03492 0.83979 0.916527 0.883328 0.897463 0.891708 0.894625 0.892839 0.894177 0.893147 0.894056 0.893479 0.894056 0.893147 0.894177 0.892839 0.894625 0.891708 0.897463 0.883328 0.916527 0.83979 1.03492 0.584023 0.749114 0.896222 0.785917 0.829463 0.854756 0.884374 0.872132 0.896207 0.597123 0.625316 0.617257 0.632361 0.617583 0.604287 0.6021 0.61796 0.576683 0.491062 0.296305 0.575301 0.581244 0.574209 1.02867 0.855898 0.701858 0.474756 0.111932 0.775023 0.832036 0.897182 0.701693 0.63153 0.61741 0.618489 0.62307 0.640992 0.599098 0.617046 0.608635 0.566211 0.922597 0.870364 0.783262 0.800838 0.667385 0.921838 0.85368 0.893833 0.886903 0.893832 0.893832 0.893832 0.893832 0.893832 0.893249 0.893832 0.893543 0.893832 0.893249 0.893832 0.893832 0.893832 0.893832 0.893832 0.886903 0.893833 0.85368 0.921838 0.667385 0.800838 0.783262 0.870364 0.922597 0.566211 0.608635 0.617046 0.599098 0.640992 0.62307 0.618489 0.61741 0.63153 0.701693 0.897182 0.832036 0.775023 0.667317 0.920702 0.347121 0.2998 0.452412 0.570935 0.608668 0.615324 0.598111 0.559827 0.597352 0.745227 0.861275 0.849369 0.870539 0.870539 0.849369 0.861275 0.745227 0.597352 0.559827 0.598111 0.615324 0.608668 0.570935 0.452412 0.2998 0.347121 0.920702 0.667317 0.814379 0.695419 0.802853 0.873333 0.889955 0.639616 0.467213 0.556462 0.624734 0.634459 0.630678 0.638329 0.642626 0.618189 0.619194 0.616206 0.706833 0.894171 0.845113 0.866537 0.839289 0.751534 0.800919 0.840251 0.738011 0.929665 0.862603 0.900738 0.893208 0.89398 0.893892 0.89387 0.893858 0.893856 0.893828 0.893937 0.893592 0.893937 0.893828 0.893856 0.893858 0.89387 0.893892 0.89398 0.893208 0.900738 0.862603 0.929665 0.738011 0.840251 0.800919 0.751534 0.839289 0.866537 0.845113 0.894171 0.706833 0.616206 0.619194 0.618189 0.642626 0.638329 0.630678 0.634459 0.624734 0.556462 0.467213 0.639616 0.889955 0.873333 0.802853 0.695419 0.814379 0.744213 0.756144 0.479622 0.698319 0.553158 0.603545 0.629972 0.648442 0.651899 0.66108 0.628821 0.61085 0.623762 0.783997 0.954854 0.941794 0.935915 0.795899 0.893841 0.868243 0.893832 0.893832 0.893832 0.893832 0.893832 0.893832 0.893832 0.893832 0.893832 0.893639 0.893832 0.893832 0.893832 0.893832 0.893832 0.893832 0.893832 0.893832 0.893832 0.868243 0.893841 0.795899 0.935915 0.941794 0.954854 0.783997 0.623762 0.61085 0.628821 0.66108 0.651899 0.648442 0.629972 0.603545 0.553158 0.698319 0.479622 0.756144 0.744213 0.706266 0.793023 0.755408 0.769681 0.724446 0.58815 0.614449 0.659047 0.674479 0.672324 0.646961 0.610588 0.620914 0.630952 0.615619 0.612595 0.66566 0.892183 0.827809 0.774239 0.774239 0.827809 0.892183 0.66566 0.612595 0.615619 0.630952 0.620914 0.610588 0.646961 0.672324 0.674479 0.659047 0.614449 0.58815 0.724446 0.769681 0.755408 0.793023 0.706266 0.667523 0.67646 0.794421 0.774837 0.783831 0.746986 0.67599 0.70209 0.676521 0.657239 0.690637 0.685136 0.641877 0.928716 0.85201 0.800776 0.958175 0.833232 0.947208 0.759376 0.964814 0.830906 0.919365 0.890005 0.894981 0.894408 0.894348 0.894236 0.89413 0.894035 0.893955 0.893889 0.893891 0.893676 0.893891 0.893889 0.893955 0.894035 0.89413 0.894236 0.894348 0.894408 0.894981 0.890005 0.919365 0.830906 0.964814 0.759376 0.947208 0.833232 0.958175 0.800776 0.85201 0.928716 0.641877 0.685136 0.690637 0.657239 0.676521 0.70209 0.67599 0.746986 0.783831 0.774837 0.794421 0.67646 0.667523 0.772922 0.570314 0.667738 0.682419 0.683557 0.628477 0.884831 0.884831 0.628477 0.683557 0.682419 0.667738 0.570314 0.772922 0.673499 0.866619 0.786749 0.776392 0.783261 0.799074 0.688933 0.687783 0.69473 0.699049 0.688547 0.71053 0.694559 0.650204 0.672458 0.695543 0.855701 0.81209 0.961131 0.826246 0.912524 0.813137 0.89984 0.851185 0.893832 0.893832 0.893832 0.893832 0.893832 0.893832 0.893832 0.893832 0.893832 0.893832 0.893832 0.89371 0.893832 0.893832 0.893832 0.893832 0.893832 0.893832 0.893832 0.893832 0.893832 0.893832 0.893832 0.851185 0.89984 0.813137 0.912524 0.826246 0.961131 0.81209 0.855701 0.695543 0.672458 0.650204 0.694559 0.71053 0.688547 0.699049 0.69473 0.687783 0.688933 0.799074 0.783261 0.776392 0.786749 0.866619 0.673499 0.796906 0.815619 0.783514 0.782233 0.794349 0.82707 0.782441 0.581994 0.631689 0.677428 0.697648 0.704204 0.688989 0.610359 0.657954 0.754455 0.62197 0.866165 0.896925 0.834016 0.976654 0.851459 0.954701 0.855393 0.919981 0.871241 0.900242 0.895434 0.895155 0.894774 0.894498 0.89429 0.894132 0.894016 0.893932 0.893876 0.893848 0.893737 0.893848 0.893876 0.893932 0.894016 0.894132 0.89429 0.894498 0.894774 0.895155 0.895434 0.900242 0.871241 0.919981 0.855393 0.954701 0.851459 0.976654 0.834016 0.896925 0.866165 0.62197 0.754455 0.657954 0.610359 0.688989 0.704204 0.697648 0.677428 0.631689 0.581994 0.782441 0.82707 0.794349 0.782233 0.783514 0.815619 0.796906 0.858983 0.876527 0.862561 0.852563 0.873787 0.89854 0.918098 0.764766 0.641867 0.676731 0.697978 0.722039 0.717785 0.850945 0.857623 0.842312 0.8981 0.893524 0.897743 0.860441 0.89659 0.866931 0.895899 0.863255 0.894601 0.876644 0.893869 0.893832 0.893832 0.893832 0.893832 0.893832 0.893832 0.893832 0.893832 0.893832 0.893832 0.893758 0.893832 0.893832 0.893832 0.893832 0.893832 0.893832 0.893832 0.893832 0.893832 0.893832 0.893869 0.876644 0.894601 0.863255 0.895899 0.866931 0.89659 0.860441 0.897743 0.893524 0.8981 0.842312 0.857623 0.850945 0.717785 0.722039 0.697978 0.676731 0.641867 0.764766 0.918098 0.89854 0.873787 0.852563 0.862561 0.876527 0.858983 0.881096 0.899587 0.887788 0.874008 0.889628 0.899946 0.902765 0.904113 0.766066 0.779319 0.786983 0.799812 0.790243 0.900729 0.881096 0.874527 0.912118 0.896886 0.904101 0.869396 0.899809 0.873637 0.897343 0.865517 0.895119 0.880256 0.894075 0.893877 0.893864 0.893855 0.893847 0.893842 0.893838 0.893836 0.893834 0.893833 0.893833 0.893774 0.893833 0.893833 0.893834 0.893836 0.893838 0.893842 0.893847 0.893855 0.893864 0.893877 0.894075 0.880256 0.895119 0.865517 0.897343 0.873637 0.899809 0.869396 0.904101 0.896886 0.912118 0.874527 0.881096 0.900729 0.790243 0.799812 0.786983 0.779319 0.766066 0.904113 0.902765 0.899946 0.889628 0.874008 0.887788 0.899587 0.881096 0.886707 0.902598 0.892072 0.878976 0.891056 0.90426 0.908747 0.912307 0.793556 0.810812 0.816846 0.821705 0.813826 0.886956 0.871782 0.878775 0.894186 0.892323 0.894042 0.873853 0.893907 0.877476 0.89385 0.867787 0.893833 0.883053 0.893832 0.893832 0.893832 0.893832 0.893832 0.893832 0.893832 0.893832 0.893832 0.893832 0.893832 0.893787 0.893832 0.893832 0.893832 0.893832 0.893832 0.893832 0.893832 0.893832 0.893832 0.893832 0.893832 0.883053 0.893833 0.867787 0.89385 0.877476 0.893907 0.873853 0.894042 0.892323 0.894186 0.878775 0.871782 0.886956 0.813826 0.821705 0.816846 0.810812 0.793556 0.912307 0.908747 0.90426 0.891056 0.878976 0.892072 0.902598 0.886707 0.89033 0.90191 0.893167 0.88105 0.890394 0.902803 0.90667 0.901759 0.808861 0.821802 0.825839 0.838684 0.836691 0.880724 0.868769 0.887466 0.894312 0.889144 0.894086 0.878012 0.893933 0.880167 0.893873 0.870708 0.893832 0.885377 0.893832 0.893832 0.893832 0.893832 0.893832 0.893832 0.893832 0.893832 0.893832 0.893832 0.893832 0.893797 0.893832 0.893832 0.893832 0.893832 0.893832 0.893832 0.893832 0.893832 0.893832 0.893832 0.893832 0.885377 0.893832 0.870708 0.893873 0.880167 0.893933 0.878012 0.894086 0.889144 0.894312 0.887466 0.868769 0.880724 0.836691 0.838684 0.825839 0.821802 0.808861 0.901759 0.90667 0.902803 0.890394 0.88105 0.893167 0.90191 0.89033 0.892826 0.901897 0.894075 0.883404 0.890411 0.901756 0.905357 0.893481 0.82288 0.83269 0.836793 0.852504 0.856094 0.878271 0.868638 0.893608 0.893832 0.886405 0.893832 0.881551 0.893832 0.88188 0.893832 0.873839 0.893832 0.887231 0.893832 0.893832 0.893832 0.893832 0.893832 0.893832 0.893832 0.893832 0.893832 0.893832 0.893832 0.893805 0.893832 0.893832 0.893832 0.893832 0.893832 0.893832 0.893832 0.893832 0.893832 0.893832 0.893832 0.887231 0.893832 0.873839 0.893832 0.88188 0.893832 0.881551 0.893832 0.886405 0.893832 0.893608 0.868638 0.878271 0.856094 0.852504 0.836793 0.83269 0.82288 0.893481 0.905357 0.901756 0.890411 0.883404 0.894075 0.901897 0.892826 0.894318 0.90163 0.894666 0.885882 0.890574 0.900675 0.904019 0.887618 0.835153 0.844333 0.848226 0.862355 0.872784 0.878005 0.870715 0.89544 0.893832 0.88518 0.893832 0.884248 0.893832 0.882789 0.893832 0.876859 0.893832 0.888705 0.893832 0.893832 0.893832 0.893832 0.893832 0.893832 0.893832 0.893832 0.893832 0.893832 0.893832 0.893811 0.893832 0.893832 0.893832 0.893832 0.893832 0.893832 0.893832 0.893832 0.893832 0.893832 0.893832 0.888705 0.893832 0.876859 0.893832 0.882789 0.893832 0.884248 0.893832 0.88518 0.893832 0.89544 0.870715 0.878005 0.872784 0.862355 0.848226 0.844333 0.835153 0.887618 0.904019 0.900675 0.890574 0.885882 0.894666 0.90163 0.894318 0.895043 0.900858 0.895001 0.888248 0.891158 0.899504 0.902735 0.883261 0.845825 0.855164 0.858739 0.871176 0.882368 0.878974 0.873966 0.89507 0.893832 0.885461 0.893832 0.886113 0.893832 0.883245 0.893832 0.879608 0.893832 0.889885 0.893832 0.893832 0.893832 0.893832 0.893832 0.893832 0.893832 0.893832 0.893832 0.893832 0.893832 0.893815 0.893832 0.893832 0.893832 0.893832 0.893832 0.893832 0.893832 0.893832 0.893832 0.893832 0.893832 0.889885 0.893832 0.879608 0.893832 0.883245 0.893832 0.886113 0.893832 0.885461 0.893832 0.89507 0.873966 0.878974 0.882368 0.871176 0.858739 0.855164 0.845825 0.883261 0.902735 0.899504 0.891158 0.888248 0.895001 0.900858 0.895043 0.894873 0.899854 0.894905 0.890186 0.891602 0.898393 0.901488 0.880145 0.854832 0.86412 0.867077 0.878918 0.885302 0.880605 0.877644 0.894244 0.893832 0.886392 0.893832 0.887314 0.893832 0.883605 0.893832 0.881994 0.893832 0.890829 0.893832 0.893832 0.893832 0.893832 0.893832 0.893832 0.893832 0.893832 0.893832 0.893832 0.893832 0.893819 0.893832 0.893832 0.893832 0.893832 0.893832 0.893832 0.893832 0.893832 0.893832 0.893832 0.893832 0.890829 0.893832 0.881994 0.893832 0.883605 0.893832 0.887314 0.893832 0.886392 0.893832 0.894244 0.877644 0.880605 0.885302 0.878918 0.867077 0.86412 0.854832 0.880145 0.901488 0.898393 0.891602 0.890186 0.894905 0.899854 0.894873 0.894056 0.898782 0.894341 0.891534 0.891569 0.897477 0.900256 0.878166 0.862043 0.871183 0.873352 0.88428 0.885347 0.882435 0.881231 0.893504 0.893832 0.887348 0.893832 0.88803 0.893832 0.884072 0.893832 0.883984 0.893832 0.891582 0.893832 0.893832 0.893832 0.893832 0.893832 0.893832 0.893832 0.893832 0.893832 0.893832 0.893832 0.893822 0.893832 0.893832 0.893832 0.893832 0.893832 0.893832 0.893832 0.893832 0.893832 0.893832 0.893832 0.891582 0.893832 0.883984 0.893832 0.884072 0.893832 0.88803 0.893832 0.887348 0.893832 0.893504 0.881231 0.882435 0.885347 0.88428 0.873352 0.871183 0.862043 0.878166 0.900256 0.897477 0.891569 0.891534 0.894341 0.898782 0.894056 0.89306 0.897705 0.893559 0.892302 0.891261 0.896728 0.899036 0.877148 0.867637 0.876549 0.878029 0.886888 0.884906 0.884189 0.884428 0.892915 0.893832 0.888128 0.893832 0.888449 0.893832 0.884699 0.893832 0.885616 0.893832 0.892178 0.893832 0.893832 0.893832 0.893832 0.893832 0.893832 0.893832 0.893832 0.893832 0.893832 0.893832 0.893824 0.893832 0.893832 0.893832 0.893832 0.893832 0.893832 0.893832 0.893832 0.893832 0.893832 0.893832 0.892178 0.893832 0.885616 0.893832 0.884699 0.893832 0.888449 0.893832 0.888128 0.893832 0.892915 0.884428 0.884189 0.884906 0.886888 0.878029 0.876549 0.867637 0.877148 0.899036 0.896728 0.891261 0.892302 0.893559 0.897705 0.89306 0.89221 0.896659 0.892818 0.892599 0.890938 0.896076 0.897842 0.876852 0.871917 0.880381 0.88136 0.887619 0.884723 0.885779 0.887097 0.892457 0.893832 0.888718 0.893832 0.888738 0.893832 0.885457 0.893832 0.886965 0.893832 0.892645 0.893832 0.893832 0.893832 0.893832 0.893832 0.893832 0.893832 0.893832 0.893832 0.893832 0.893832 0.893826 0.893832 0.893832 0.893832 0.893832 0.893832 0.893832 0.893832 0.893832 0.893832 0.893832 0.893832 0.892645 0.893832 0.886965 0.893832 0.885457 0.893832 0.888738 0.893832 0.888718 0.893832 0.892457 0.887097 0.885779 0.884723 0.887619 0.88136 0.880381 0.871917 0.876852 0.897842 0.896076 0.890938 0.892599 0.892818 0.896659 0.89221 0.884887 0.887181 0.889201 0.892105 0.893832 0.889154 0.893832 0.888997 0.893832 0.886289 0.893832 0.8881 0.893832 0.893004 0.893832 0.893832 0.893832 0.893832 0.893832 0.893832 0.893832 0.893832 0.893832 0.893832 0.893832 0.893828 0.893832 0.893832 0.893832 0.893832 0.893832 0.893832 0.893832 0.893832 0.893832 0.893832 0.893832 0.893004 0.893832 0.8881 0.893832 0.886289 0.893832 0.888997 0.893832 0.889154 0.893832 0.892105 0.889201 0.887181 0.884887 0.891615 0.89567 0.892238 0.892577 0.890703 0.89548 0.896692 0.877046 0.875139 0.882953 0.883544 0.887567 0.887567 0.883544 0.882953 0.875139 0.877046 0.896692 0.89548 0.890703 0.892577 0.892238 0.89567 0.891615 0.89126 0.89476 0.891833 0.892372 0.890565 0.894923 0.895602 0.877571 0.87755 0.884584 0.884804 0.887392 0.885338 0.888382 0.890784 0.891839 0.893832 0.889481 0.893832 0.88927 0.893832 0.88714 0.893832 0.889067 0.893832 0.893272 0.893832 0.893832 0.893832 0.893832 0.893832 0.893832 0.893832 0.893832 0.893832 0.893832 0.893832 0.893829 0.893832 0.893832 0.893832 0.893832 0.893832 0.893832 0.893832 0.893832 0.893832 0.893832 0.893832 0.893272 0.893832 0.889067 0.893832 0.88714 0.893832 0.88927 0.893832 0.889481 0.893832 0.891839 0.890784 0.888382 0.885338 0.887392 0.884804 0.884584 0.87755 0.877571 0.895602 0.894923 0.890565 0.892372 0.891833 0.89476 0.89126 0.891087 0.893944 0.89158 0.892091 0.89051 0.894404 0.894587 0.878344 0.879377 0.885535 0.885418 0.887337 0.88599 0.889378 0.891918 0.891644 0.893832 0.889741 0.893832 0.889565 0.893832 0.887972 0.893832 0.889893 0.893832 0.893467 0.893832 0.893832 0.893832 0.893832 0.893832 0.893832 0.893832 0.893832 0.893832 0.893832 0.893832 0.89383 0.893832 0.893832 0.893832 0.893832 0.893832 0.893832 0.893832 0.893832 0.893832 0.893832 0.893832 0.893467 0.893832 0.889893 0.893832 0.887972 0.893832 0.889565 0.893832 0.889741 0.893832 0.891644 0.891918 0.889378 0.88599 0.887337 0.885418 0.885535 0.879377 0.878344 0.894587 0.894404 0.89051 0.892091 0.89158 0.893944 0.891087 0.891043 0.893229 0.89144 0.891814 0.890517 0.893923 0.893662 0.879313 0.880784 0.886036 0.885695 0.88744 0.886762 0.890175 0.892689 0.89151 0.893832 0.889969 0.893832 0.889877 0.893832 0.888758 0.893832 0.8906 0.893832 0.893603 0.893832 0.893832 0.893832 0.893832 0.893832 0.893832 0.893832 0.893832 0.893832 0.893832 0.893832 0.89383 0.893832 0.893832 0.893832 0.893832 0.893832 0.893832 0.893832 0.893832 0.893832 0.893832 0.893832 0.893603 0.893832 0.8906 0.893832 0.888758 0.893832 0.889877 0.893832 0.889969 0.893832 0.89151 0.892689 0.890175 0.886762 0.88744 0.885695 0.886036 0.880784 0.879313 0.893662 0.893923 0.890517 0.891814 0.89144 0.893229 0.891043 0.891083 0.892619 0.891377 0.891589 0.890566 0.893483 0.892835 0.880415 0.881892 0.886303 0.885884 0.887674 0.887584 0.890792 0.893188 0.89143 0.893832 0.890189 0.893832 0.890197 0.893832 0.889485 0.893832 0.891203 0.893832 0.893695 0.893832 0.893832 0.893832 0.893832 0.893832 0.893832 0.893832 0.893832 0.893832 0.893832 0.893832 0.893831 0.893832 0.893832 0.893832 0.893832 0.893832 0.893832 0.893832 0.893832 0.893832 0.893832 0.893832 0.893695 0.893832 0.891203 0.893832 0.889485 0.893832 0.890197 0.893832 0.890189 0.893832 0.89143 0.893188 0.890792 0.887584 0.887674 0.885884 0.886303 0.881892 0.880415 0.892835 0.893483 0.890566 0.891589 0.891377 0.892619 0.891083 0.89117 0.89211 0.891361 0.89144 0.890643 0.893086 0.892113 0.88158 0.88281 0.886498 0.886122 0.887999 0.888404 0.891254 0.893495 0.891395 0.893832 0.890411 0.893832 0.890518 0.893832 0.890143 0.893832 0.891715 0.893832 0.893753 0.893832 0.893832 0.893832 0.893832 0.893832 0.893832 0.893832 0.893832 0.893832 0.893832 0.893832 0.893831 0.893832 0.893832 0.893832 0.893832 0.893832 0.893832 0.893832 0.893832 0.893832 0.893832 0.893832 0.893753 0.893832 0.891715 0.893832 0.890143 0.893832 0.890518 0.893832 0.890411 0.893832 0.891395 0.893495 0.891254 0.888404 0.887999 0.886122 0.886498 0.88281 0.88158 0.892113 0.893086 0.890643 0.89144 0.891361 0.89211 0.89117 0.891278 0.891696 0.891367 0.891366 0.890738 0.892731 0.891497 0.882743 0.883628 0.886708 0.886449 0.888377 0.889185 0.891589 0.893672 0.891399 0.893832 0.890639 0.893832 0.890834 0.893832 0.890731 0.893832 0.892147 0.893832 0.893789 0.893832 0.893832 0.893832 0.893832 0.893832 0.893832 0.893832 0.893832 0.893832 0.893832 0.893832 0.893832 0.893832 0.893832 0.893832 0.893832 0.893832 0.893832 0.893832 0.893832 0.893832 0.893832 0.893832 0.893789 0.893832 0.892147 0.893832 0.890731 0.893832 0.890834 0.893832 0.890639 0.893832 0.891399 0.893672 0.891589 0.889185 0.888377 0.886449 0.886708 0.883628 0.882743 0.891497 0.892731 0.890738 0.891366 0.891367 0.891696 0.891278 0.891385 0.89137 0.891382 0.891352 0.890848 0.892417 0.890987 0.883856 0.884401 0.886962 0.88686 0.888781 0.889905 0.891827 0.893764 0.891437 0.893832 0.89087 0.893832 0.89114 0.893832 0.891248 0.893832 0.892507 0.893832 0.89381 0.893832 0.893832 0.893832 0.893832 0.893832 0.893832 0.893832 0.893832 0.893832 0.893832 0.893832 0.893832 0.893832 0.893832 0.893832 0.893832 0.893832 0.893832 0.893832 0.893832 0.893832 0.893832 0.893832 0.89381 0.893832 0.892507 0.893832 0.891248 0.893832 0.89114 0.893832 0.89087 0.893832 0.891437 0.893764 0.891827 0.889905 0.888781 0.88686 0.886962 0.884401 0.883856 0.890987 0.892417 0.890848 0.891352 0.891382 0.89137 0.891385 0.891479 0.891121 0.891397 0.891383 0.890967 0.892145 0.890578 0.884887 0.885149 0.887257 0.887331 0.889189 0.890551 0.891997 0.893807 0.891503 0.893832 0.891102 0.893832 0.891433 0.893832 0.891698 0.893832 0.892804 0.893832 0.893822 0.893832 0.893832 0.893832 0.893832 0.893832 0.893832 0.893832 0.893832 0.893832 0.893832 0.893832 0.893832 0.893832 0.893832 0.893832 0.893832 0.893832 0.893832 0.893832 0.893832 0.893832 0.893832 0.893832 0.893822 0.893832 0.892804 0.893832 0.891698 0.893832 0.891433 0.893832 0.891102 0.893832 0.891503 0.893807 0.891997 0.890551 0.889189 0.887331 0.887257 0.885149 0.884887 0.890578 0.892145 0.890967 0.891383 0.891397 0.891121 0.891479 0.891554 0.89094 0.891408 0.891445 0.891095 0.891913 0.890264 0.88582 0.885872 0.887579 0.887835 0.889588 0.891118 0.892119 0.893824 0.89159 0.893832 0.89133 0.893832 0.89171 0.893832 0.892085 0.893832 0.893045 0.893832 0.893828 0.893832 0.893832 0.893832 0.893832 0.893832 0.893832 0.893832 0.893832 0.893832 0.893832 0.893832 0.893832 0.893832 0.893832 0.893832 0.893832 0.893832 0.893832 0.893832 0.893832 0.893832 0.893832 0.893832 0.893828 0.893832 0.893045 0.893832 0.892085 0.893832 0.89171 0.893832 0.89133 0.893832 0.89159 0.893824 0.892119 0.891118 0.889588 0.887835 0.887579 0.885872 0.88582 0.890264 0.891913 0.891095 0.891445 0.891408 0.89094 0.891554 0.891609 0.890817 0.891417 0.891526 0.89123 0.89172 0.890037 0.886647 0.886563 0.887916 0.888351 0.889966 0.891608 0.892211 0.89383 0.891693 0.893832 0.891553 0.893832 0.891969 0.893832 0.892415 0.893832 0.893238 0.893832 0.89383 0.893832 0.893832 0.893832 0.893832 0.893832 0.893832 0.893832 0.893832 0.893832 0.893832 0.893832 0.893832 0.893832 0.893832 0.893832 0.893832 0.893832 0.893832 0.893832 0.893832 0.893832 0.893832 0.893832 0.89383 0.893832 0.893238 0.893832 0.892415 0.893832 0.891969 0.893832 0.891553 0.893832 0.891693 0.89383 0.892211 0.891608 0.889966 0.888351 0.887916 0.886563 0.886647 0.890037 0.89172 0.89123 0.891526 0.891417 0.890817 0.891609 0.891645 0.890742 0.891423 0.891617 0.89137 0.891564 0.889887 0.88737 0.887216 0.888257 0.888863 0.890319 0.892025 0.892286 0.893832 0.891808 0.893832 0.891767 0.893832 0.892209 0.893832 0.892693 0.893832 0.89339 0.893832 0.893832 0.893832 0.893832 0.893832 0.893832 0.893832 0.893832 0.893832 0.893832 0.893832 0.893832 0.893832 0.893832 0.893832 0.893832 0.893832 0.893832 0.893832 0.893832 0.893832 0.893832 0.893832 0.893832 0.893832 0.893832 0.893832 0.89339 0.893832 0.892693 0.893832 0.892209 0.893832 0.891767 0.893832 0.891808 0.893832 0.892286 0.892025 0.890319 0.888863 0.888257 0.887216 0.88737 0.889887 0.891564 0.89137 0.891617 0.891423 0.890742 0.891645 0.891664 0.890707 0.891429 0.891713 0.891514 0.891441 0.889806 0.887993 0.887826 0.888594 0.889358 0.890644 0.892374 0.892351 0.893832 0.89193 0.893832 0.891971 0.893832 0.892429 0.893832 0.892925 0.893832 0.893507 0.893832 0.893832 0.893832 0.893832 0.893832 0.893832 0.893832 0.893832 0.893832 0.893832 0.893832 0.893832 0.893832 0.893832 0.893832 0.893832 0.893832 0.893832 0.893832 0.893832 0.893832 0.893832 0.893832 0.893832 0.893832 0.893832 0.893832 0.893507 0.893832 0.892925 0.893832 0.892429 0.893832 0.891971 0.893832 0.89193 0.893832 0.892351 0.892374 0.890644 0.889358 0.888594 0.887826 0.887993 0.889806 0.891441 0.891514 0.891713 0.891429 0.890707 0.891664 0.89167 0.890704 0.891434 0.891809 0.89166 0.89135 0.889782 0.888527 0.888391 0.888921 0.889828 0.890939 0.892664 0.892411 0.893832 0.892056 0.893832 0.892164 0.893832 0.892628 0.893832 0.893117 0.893832 0.893597 0.893832 0.893832 0.893832 0.893832 0.893832 0.893832 0.893832 0.893832 0.893832 0.893832 0.893832 0.893832 0.893832 0.893832 0.893832 0.893832 0.893832 0.893832 0.893832 0.893832 0.893832 0.893832 0.893832 0.893832 0.893832 0.893832 0.893832 0.893597 0.893832 0.893117 0.893832 0.892628 0.893832 0.892164 0.893832 0.892056 0.893832 0.892411 0.892664 0.890939 0.889828 0.888921 0.888391 0.888527 0.889782 0.89135 0.89166 0.891809 0.891434 0.890704 0.89167 0.891667 0.890725 0.891441 0.891903 0.891804 0.891284 0.889807 0.888982 0.888911 0.889237 0.890268 0.891205 0.892902 0.89247 0.893832 0.892184 0.893832 0.892345 0.893832 0.892807 0.893832 0.893274 0.893832 0.893665 0.893832 0.893832 0.893832 0.893832 0.893832 0.893832 0.893832 0.893832 0.893832 0.893832 0.893832 0.893832 0.893832 0.893832 0.893832 0.893832 0.893832 0.893832 0.893832 0.893832 0.893832 0.893832 0.893832 0.893832 0.893832 0.893832 0.893832 0.893665 0.893832 0.893274 0.893832 0.892807 0.893832 0.892345 0.893832 0.892184 0.893832 0.89247 0.892902 0.891205 0.890268 0.889237 0.888911 0.888982 0.889807 0.891284 0.891804 0.891903 0.891441 0.890725 0.891667 0.891658 0.890764 0.891449 0.891991 0.891944 0.891242 0.889871 0.889368 0.889387 0.889538 0.890674 0.891443 0.893096 0.892529 0.893832 0.89231 0.893832 0.892513 0.893832 0.892966 0.893832 0.893401 0.893832 0.893714 0.893832 0.893832 0.893832 0.893832 0.893832 0.893832 0.893832 0.893832 0.893832 0.893832 0.893832 0.893832 0.893832 0.893832 0.893832 0.893832 0.893832 0.893832 0.893832 0.893832 0.893832 0.893832 0.893832 0.893832 0.893832 0.893832 0.893832 0.893714 0.893832 0.893401 0.893832 0.892966 0.893832 0.892513 0.893832 0.89231 0.893832 0.892529 0.893096 0.891443 0.890674 0.889538 0.889387 0.889368 0.889871 0.891242 0.891944 0.891991 0.891449 0.890764 0.891658 0.891646 0.890817 0.891459 0.892072 0.892079 0.891218 0.889967 0.889697 0.889822 0.889823 0.891046 0.891657 0.893254 0.892588 0.893832 0.892433 0.893832 0.892667 0.893832 0.893106 0.893832 0.893503 0.893832 0.893751 0.893832 0.893832 0.893832 0.893832 0.893832 0.893832 0.893832 0.893832 0.893832 0.893832 0.893832 0.893832 0.893832 0.893832 0.893832 0.893832 0.893832 0.893832 0.893832 0.893832 0.893832 0.893832 0.893832 0.893832 0.893832 0.893832 0.893832 0.893751 0.893832 0.893503 0.893832 0.893106 0.893832 0.892667 0.893832 0.892433 0.893832 0.892588 0.893254 0.891657 0.891046 0.889823 0.889822 0.889697 0.889967 0.891218 0.892079 0.892072 0.891459 0.890817 0.891646 0.891632 0.89088 0.89147 0.892146 0.892204 0.89121 0.890086 0.889977 0.890218 0.890092 0.891383 0.891847 0.89338 0.892647 0.893832 0.892551 0.893832 0.892809 0.893832 0.893228 0.893832 0.893584 0.893832 0.893777 0.893832 0.893832 0.893832 0.893832 0.893832 0.893832 0.893832 0.893832 0.893832 0.893832 0.893832 0.893832 0.893832 0.893832 0.893832 0.893832 0.893832 0.893832 0.893832 0.893832 0.893832 0.893832 0.893832 0.893832 0.893832 0.893832 0.893832 0.893777 0.893832 0.893584 0.893832 0.893228 0.893832 0.892809 0.893832 0.892551 0.893832 0.892647 0.89338 0.891847 0.891383 0.890092 0.890218 0.889977 0.890086 0.89121 0.892204 0.892146 0.89147 0.89088 0.891632 0.891618 0.890948 0.891484 0.892211 0.89232 0.891214 0.890221 0.890218 0.890578 0.890345 0.891687 0.892016 0.893482 0.892706 0.893832 0.892664 0.893832 0.892937 0.893832 0.893334 0.893832 0.893647 0.893832 0.893795 0.893832 0.893832 0.893832 0.893832 0.893832 0.893832 0.893832 0.893832 0.893832 0.893832 0.893832 0.893832 0.893832 0.893832 0.893832 0.893832 0.893832 0.893832 0.893832 0.893832 0.893832 0.893832 0.893832 0.893832 0.893832 0.893832 0.893832 0.893795 0.893832 0.893647 0.893832 0.893334 0.893832 0.892937 0.893832 0.892664 0.893832 0.892706 0.893482 0.892016 0.891687 0.890345 0.890578 0.890218 0.890221 0.891214 0.89232 0.892211 0.891484 0.890948 0.891618 0.891605 0.891019 0.8915 0.892268 0.892425 0.891228 0.890366 0.890425 0.890904 0.890581 0.891959 0.892166 0.893562 0.892764 0.893832 0.89277 0.893832 0.893053 0.893832 0.893424 0.893832 0.893695 0.893832 0.893808 0.893832 0.893832 0.893832 0.893832 0.893832 0.893832 0.893832 0.893832 0.893832 0.893832 0.893832 0.893832 0.893832 0.893832 0.893832 0.893832 0.893832 0.893832 0.893832 0.893832 0.893832 0.893832 0.893832 0.893832 0.893832 0.893832 0.893832 0.893808 0.893832 0.893695 0.893832 0.893424 0.893832 0.893053 0.893832 0.89277 0.893832 0.892764 0.893562 0.892166 0.891959 0.890581 0.890904 0.890425 0.890366 0.891228 0.892425 0.892268 0.8915 0.891019 0.891605 0.891595 0.891092 0.891516 0.892316 0.892518 0.891249 0.890517 0.890607 0.8912 0.8908 0.892201 0.8923 0.893626 0.892821 0.893832 0.892868 0.893832 0.893157 0.893832 0.8935 0.893832 0.893732 0.893832 0.893816 0.893832 0.893832 0.893832 0.893832 0.893832 0.893832 0.893832 0.893832 0.893832 0.893832 0.893832 0.893832 0.893832 0.893832 0.893832 0.893832 0.893832 0.893832 0.893832 0.893832 0.893832 0.893832 0.893832 0.893832 0.893832 0.893832 0.893832 0.893816 0.893832 0.893732 0.893832 0.8935 0.893832 0.893157 0.893832 0.892868 0.893832 0.892821 0.893626 0.8923 0.892201 0.8908 0.8912 0.890607 0.890517 0.891249 0.892518 0.892316 0.891516 0.891092 0.891595 0.891586 0.891162 0.891534 0.892356 0.892599 0.891274 0.890669 0.890765 0.891465 0.891002 0.892414 0.892417 0.893676 0.892876 0.893832 0.892959 0.893832 0.89325 0.893832 0.893564 0.893832 0.89376 0.893832 0.893822 0.893832 0.893832 0.893832 0.893832 0.893832 0.893832 0.893832 0.893832 0.893832 0.893832 0.893832 0.893832 0.893832 0.893832 0.893832 0.893832 0.893832 0.893832 0.893832 0.893832 0.893832 0.893832 0.893832 0.893832 0.893832 0.893832 0.893832 0.893822 0.893832 0.89376 0.893832 0.893564 0.893832 0.89325 0.893832 0.892959 0.893832 0.892876 0.893676 0.892417 0.892414 0.891002 0.891465 0.890765 0.890669 0.891274 0.892599 0.892356 0.891534 0.891162 0.891586 0.891579 0.89123 0.891553 0.892389 0.892669 0.891302 0.890817 0.890905 0.891703 0.891186 0.892601 0.892521 0.893715 0.892929 0.893832 0.893042 0.893832 0.893331 0.893832 0.893617 0.893832 0.893781 0.893832 0.893826 0.893832 0.893832 0.893832 0.893832 0.893832 0.893832 0.893832 0.893832 0.893832 0.893832 0.893832 0.893832 0.893832 0.893832 0.893832 0.893832 0.893832 0.893832 0.893832 0.893832 0.893832 0.893832 0.893832 0.893832 0.893832 0.893832 0.893832 0.893826 0.893832 0.893781 0.893832 0.893617 0.893832 0.893331 0.893832 0.893042 0.893832 0.892929 0.893715 0.892521 0.892601 0.891186 0.891703 0.890905 0.890817 0.891302 0.892669 0.892389 0.891553 0.89123 0.891579 0.891575 0.891295 0.891572 0.892415 0.892728 0.891332 0.890959 0.891028 0.891915 0.891352 0.892764 0.892611 0.893745 0.892978 0.893832 0.893117 0.893832 0.893402 0.893832 0.893661 0.893832 0.893796 0.893832 0.893828 0.893832 0.893832 0.893832 0.893832 0.893832 0.893832 0.893832 0.893832 0.893832 0.893832 0.893832 0.893832 0.893832 0.893832 0.893832 0.893832 0.893832 0.893832 0.893832 0.893832 0.893832 0.893832 0.893832 0.893832 0.893832 0.893832 0.893832 0.893828 0.893832 0.893796 0.893832 0.893661 0.893832 0.893402 0.893832 0.893117 0.893832 0.892978 0.893745 0.892611 0.892764 0.891352 0.891915 0.891028 0.890959 0.891332 0.892728 0.892415 0.891572 0.891295 0.891575 0.891572 0.891354 0.89159 0.892435 0.892778 0.891361 0.891091 0.891137 0.892101 0.8915 0.892904 0.89269 0.893768 0.893023 0.893832 0.893183 0.893832 0.893463 0.893832 0.893697 0.893832 0.893807 0.893832 0.89383 0.893832 0.893832 0.893832 0.893832 0.893832 0.893832 0.893832 0.893832 0.893832 0.893832 0.893832 0.893832 0.893832 0.893832 0.893832 0.893832 0.893832 0.893832 0.893832 0.893832 0.893832 0.893832 0.893832 0.893832 0.893832 0.893832 0.893832 0.89383 0.893832 0.893807 0.893832 0.893697 0.893832 0.893463 0.893832 0.893183 0.893832 0.893023 0.893768 0.89269 0.892904 0.8915 0.892101 0.891137 0.891091 0.891361 0.892778 0.892435 0.89159 0.891354 0.891572 0.89157 0.891407 0.891608 0.892451 0.892818 0.891389 0.891211 0.891231 0.892262 0.89163 0.893023 0.892757 0.893785 0.893064 0.893832 0.893242 0.893832 0.893515 0.893832 0.893726 0.893832 0.893815 0.893832 0.893831 0.893832 0.893832 0.893832 0.893832 0.893832 0.893832 0.893832 0.893832 0.893832 0.893832 0.893832 0.893832 0.893832 0.893832 0.893832 0.893832 0.893832 0.893832 0.893832 0.893832 0.893832 0.893832 0.893832 0.893832 0.893832 0.893832 0.893832 0.893831 0.893832 0.893815 0.893832 0.893726 0.893832 0.893515 0.893832 0.893242 0.893832 0.893064 0.893785 0.892757 0.893023 0.89163 0.892262 0.891231 0.891211 0.891389 0.892818 0.892451 0.891608 0.891407 0.89157 0.89157 0.891453 0.891625 0.892463 0.892851 0.891414 0.891317 0.891311 0.8924 0.891741 0.893123 0.892814 0.893798 0.8931 0.893832 0.893291 0.893832 0.893558 0.893832 0.893749 0.893832 0.893821 0.893832 0.893831 0.893832 0.893832 0.893832 0.893832 0.893832 0.893832 0.893832 0.893832 0.893832 0.893832 0.893832 0.893832 0.893832 0.893832 0.893832 0.893832 0.893832 0.893832 0.893832 0.893832 0.893832 0.893832 0.893832 0.893832 0.893832 0.893832 0.893832 0.893831 0.893832 0.893821 0.893832 0.893749 0.893832 0.893558 0.893832 0.893291 0.893832 0.8931 0.893798 0.892814 0.893123 0.891741 0.8924 0.891311 0.891317 0.891414 0.892851 0.892463 0.891625 0.891453 0.89157 0.89157 0.891493 0.891639 0.892472 0.892877 0.891437 0.891408 0.891379 0.892513 0.891834 0.893204 0.892861 0.893808 0.89313 0.893832 0.893333 0.893832 0.893593 0.893832 0.893766 0.893832 0.893824 0.893832 0.893832 0.893832 0.893832 0.893832 0.893832 0.893832 0.893832 0.893832 0.893832 0.893832 0.893832 0.893832 0.893832 0.893832 0.893832 0.893832 0.893832 0.893832 0.893832 0.893832 0.893832 0.893832 0.893832 0.893832 0.893832 0.893832 0.893832 0.893832 0.893832 0.893832 0.893824 0.893832 0.893766 0.893832 0.893593 0.893832 0.893333 0.893832 0.89313 0.893808 0.892861 0.893204 0.891834 0.892513 0.891379 0.891408 0.891437 0.892877 0.892472 0.891639 0.891493 0.89157 0.891571 0.891524 0.891652 0.892478 0.892897 0.891455 0.891483 0.891433 0.892604 0.891909 0.893267 0.892898 0.893815 0.893155 0.893832 0.893366 0.893832 0.893621 0.893832 0.893779 0.893832 0.893827 0.893832 0.893832 0.893832 0.893832 0.893832 0.893832 0.893832 0.893832 0.893832 0.893832 0.893832 0.893832 0.893832 0.893832 0.893832 0.893832 0.893832 0.893832 0.893832 0.893832 0.893832 0.893832 0.893832 0.893832 0.893832 0.893832 0.893832 0.893832 0.893832 0.893832 0.893832 0.893827 0.893832 0.893779 0.893832 0.893621 0.893832 0.893366 0.893832 0.893155 0.893815 0.892898 0.893267 0.891909 0.892604 0.891433 0.891483 0.891455 0.892897 0.892478 0.891652 0.891524 0.891571 0.891571 0.891549 0.891661 0.892482 0.892911 0.891469 0.891539 0.891474 0.892672 0.891965 0.893314 0.892925 0.893819 0.893174 0.893832 0.893391 0.893832 0.893641 0.893832 0.893789 0.893832 0.893829 0.893832 0.893832 0.893832 0.893832 0.893832 0.893832 0.893832 0.893832 0.893832 0.893832 0.893832 0.893832 0.893832 0.893832 0.893832 0.893832 0.893832 0.893832 0.893832 0.893832 0.893832 0.893832 0.893832 0.893832 0.893832 0.893832 0.893832 0.893832 0.893832 0.893832 0.893832 0.893829 0.893832 0.893789 0.893832 0.893641 0.893832 0.893391 0.893832 0.893174 0.893819 0.892925 0.893314 0.891965 0.892672 0.891474 0.891539 0.891469 0.892911 0.892482 0.891661 0.891549 0.891571 0.891572 0.891565 0.891668 0.892485 0.89292 0.891479 0.891577 0.891501 0.892717 0.892002 0.893345 0.892943 0.893822 0.893187 0.893832 0.893407 0.893832 0.893654 0.893832 0.893795 0.893832 0.89383 0.893832 0.893832 0.893832 0.893832 0.893832 0.893832 0.893832 0.893832 0.893832 0.893832 0.893832 0.893832 0.893832 0.893832 0.893832 0.893832 0.893832 0.893832 0.893832 0.893832 0.893832 0.893832 0.893832 0.893832 0.893832 0.893832 0.893832 0.893832 0.893832 0.893832 0.893832 0.89383 0.893832 0.893795 0.893832 0.893654 0.893832 0.893407 0.893832 0.893187 0.893822 0.892943 0.893345 0.892002 0.892717 0.891501 0.891577 0.891479 0.89292 0.892485 0.891668 0.891565 0.891572 0.891572 0.891573 0.891671 0.892486 0.892925 0.891484 0.891597 0.891515 0.892739 0.892021 0.89336 0.892952 0.893823 0.893193 0.893832 0.893416 0.893832 0.893661 0.893832 0.893798 0.893832 0.89383 0.893832 0.893832 0.893832 0.893832 0.893832 0.893832 0.893832 0.893832 0.893832 0.893832 0.893832 0.893832 0.893832 0.893832 0.893832 0.893832 0.893832 0.893832 0.893832 0.893832 0.893832 0.893832 0.893832 0.893832 0.893832 0.893832 0.893832 0.893832 0.893832 0.893832 0.893832 0.89383 0.893832 0.893798 0.893832 0.893661 0.893832 0.893416 0.893832 0.893193 0.893823 0.892952 0.89336 0.892021 0.892739 0.891515 0.891597 0.891484 0.892925 0.892486 0.891671 0.891573 0.891572 
SCALARS Axial_Stress float 1
LOOKUP_TABLE default
-538894000000.0 -78722800000.0 -78722800000.0 -538894000000.0 -1.09046e+12 -1.33629e+12 -760921000000.0 -287178000000.0 -95986200000.0 -79163800000.0 -9008080000.0 -65420700000.0 -29735100000.0 -60053200000.0 -60537100000.0 -73940400000.0 -83321700000.0 -92509600000.0 -100366000000.0 -106943000000.0 -112274000000.0 -116469000000.0 -119294000000.0 -121117000000.0 -121615000000.0 -121117000000.0 -119294000000.0 -116469000000.0 -112274000000.0 -106943000000.0 -100366000000.0 -92509600000.0 -83321700000.0 -73940400000.0 -60537100000.0 -60053200000.0 -29735100000.0 -65420700000.0 -9008080000.0 -79163800000.0 -95986200000.0 -287178000000.0 -760921000000.0 -1.33629e+12 -1.09046e+12 -1.04864e+12 -965413000000.0 -1.64623e+12 -1.28213e+12 -638221000000.0 -305184000000.0 -137043000000.0 -137043000000.0 -305184000000.0 -638221000000.0 -1.28213e+12 -1.64623e+12 -965413000000.0 -1.04864e+12 -1.87712e+12 -2.05634e+12 -636397000000.0 -1.94615e+12 -778986000000.0 -219790000000.0 -214001000000.0 -82382400000.0 -190422000000.0 -54366700000.0 -94104200000.0 -52246400000.0 -57375200000.0 -57962500000.0 -63087600000.0 -67795800000.0 -71681800000.0 -74659600000.0 -77126800000.0 -78494100000.0 -79679000000.0 -79754800000.0 -79679000000.0 -78494100000.0 -77126800000.0 -74659600000.0 -71681800000.0 -67795800000.0 -63087600000.0 -57962500000.0 -57375200000.0 -52246400000.0 -94104200000.0 -54366700000.0 -190422000000.0 -82382400000.0 -214001000000.0 -219790000000.0 -778986000000.0 -1.94615e+12 -636397000000.0 -2.05634e+12 -1.87712e+12 -1.76512e+12 -2.78955e+12 -2.88442e+12 -1.60564e+12 -1.4402e+12 -983519000000.0 -1.03579e+12 -548394000000.0 -209325000000.0 -329988000000.0 -131227000000.0 -186498000000.0 -112273000000.0 -115829000000.0 -109937000000.0 -109967000000.0 -110536000000.0 -112863000000.0 -116181000000.0 -119771000000.0 -122036000000.0 -123989000000.0 -124126000000.0 -123989000000.0 -122036000000.0 -119771000000.0 -116181000000.0 -112863000000.0 -110536000000.0 -109967000000.0 -109937000000.0 -115829000000.0 -112273000000.0 -186498000000.0 -131227000000.0 -329988000000.0 -209325000000.0 -548394000000.0 -1.03579e+12 -983519000000.0 -1.4402e+12 -1.60564e+12 -2.88442e+12 -2.78955e+12 -1.76512e+12 -1.64882e+12 -2.9958e+12 -3.19194e+12 -2.66685e+12 -1.85193e+12 -418389000000.0 -682437000000.0 -287408000000.0 -210659000000.0 -210659000000.0 -287408000000.0 -682437000000.0 -418389000000.0 -1.85193e+12 -2.66685e+12 -3.19194e+12 -2.9958e+12 -1.64882e+12 -1.56276e+12 -2.84601e+12 -2.77247e+12 -2.54482e+12 -2.5417e+12 -1.52728e+12 -616430000000.0 -522610000000.0 -591109000000.0 -237876000000.0 -226035000000.0 -347413000000.0 -163144000000.0 -257265000000.0 -170866000000.0 -181904000000.0 -174818000000.0 -175460000000.0 -175070000000.0 -173670000000.0 -171956000000.0 -170786000000.0 -168975000000.0 -168044000000.0 -166975000000.0 -168044000000.0 -168975000000.0 -170786000000.0 -171956000000.0 -173670000000.0 -175070000000.0 -175460000000.0 -174818000000.0 -181904000000.0 -170866000000.0 -257265000000.0 -163144000000.0 -347413000000.0 -226035000000.0 -237876000000.0 -591109000000.0 -522610000000.0 -616430000000.0 -1.52728e+12 -2.5417e+12 -2.54482e+12 -2.77247e+12 -2.84601e+12 -1.56276e+12 -1.4793e+12 -1.51396e+12 -2.71311e+12 -2.68778e+12 -2.47011e+12 -2.23227e+12 -1.98268e+12 -1.93332e+12 -1.48431e+12 -684868000000.0 -702974000000.0 -534032000000.0 -370617000000.0 -370617000000.0 -534032000000.0 -702974000000.0 -684868000000.0 -1.48431e+12 -1.93332e+12 -1.98268e+12 -2.23227e+12 -2.47011e+12 -2.68778e+12 -2.71311e+12 -1.51396e+12 -1.4793e+12 -1.45909e+12 -2.6483e+12 -2.59046e+12 -2.44071e+12 -2.49669e+12 -2.25914e+12 -1.89516e+12 -1.55899e+12 -1.38833e+12 -1.17961e+12 -1.0138e+12 -684928000000.0 -618494000000.0 -239507000000.0 -338002000000.0 -229337000000.0 -239684000000.0 -228632000000.0 -226294000000.0 -222297000000.0 -217962000000.0 -213727000000.0 -210164000000.0 -207359000000.0 -206618000000.0 -205795000000.0 -206618000000.0 -207359000000.0 -210164000000.0 -213727000000.0 -217962000000.0 -222297000000.0 -226294000000.0 -228632000000.0 -239684000000.0 -229337000000.0 -338002000000.0 -239507000000.0 -618494000000.0 -684928000000.0 -1.0138e+12 -1.17961e+12 -1.38833e+12 -1.55899e+12 -1.89516e+12 -2.25914e+12 -2.49669e+12 -2.44071e+12 -2.59046e+12 -2.6483e+12 -1.45909e+12 -1.45282e+12 -2.60223e+12 -2.40156e+12 -2.43532e+12 -2.37019e+12 -2.29556e+12 -2.01246e+12 -1.73289e+12 -1.47881e+12 -1.2476e+12 -905178000000.0 -704334000000.0 -491403000000.0 -358394000000.0 -276805000000.0 -369227000000.0 -242962000000.0 -247430000000.0 -217618000000.0 -204638000000.0 -200160000000.0 -200691000000.0 -202299000000.0 -203474000000.0 -204077000000.0 -205118000000.0 -204849000000.0 -205118000000.0 -204077000000.0 -203474000000.0 -202299000000.0 -200691000000.0 -200160000000.0 -204638000000.0 -217618000000.0 -247430000000.0 -242962000000.0 -369227000000.0 -276805000000.0 -358394000000.0 -491403000000.0 -704334000000.0 -905178000000.0 -1.2476e+12 -1.47881e+12 -1.73289e+12 -2.01246e+12 -2.29556e+12 -2.37019e+12 -2.43532e+12 -2.40156e+12 -2.60223e+12 -1.45282e+12 -1.46573e+12 -2.65461e+12 -2.61211e+12 -2.37046e+12 -2.03463e+12 -2.26969e+12 -2.1556e+12 -2.07709e+12 -1.80401e+12 -1.74218e+12 -1.57145e+12 -1.36316e+12 -1.13328e+12 -1.02902e+12 -879405000000.0 -701225000000.0 -372620000000.0 -372620000000.0 -701225000000.0 -879405000000.0 -1.02902e+12 -1.13328e+12 -1.36316e+12 -1.57145e+12 -1.74218e+12 -1.80401e+12 -2.07709e+12 -2.1556e+12 -2.26969e+12 -2.03463e+12 -2.37046e+12 -2.61211e+12 -2.65461e+12 -1.46573e+12 -1.14883e+12 -1.49133e+12 -2.737e+12 -2.41147e+12 -2.15942e+12 -1.69204e+12 -2.35298e+12 -2.11884e+12 -1.90105e+12 -1.52356e+12 -1.38513e+12 -1.38939e+12 -1.36727e+12 -1.24918e+12 -882411000000.0 -538797000000.0 -287682000000.0 -387442000000.0 -259314000000.0 -266149000000.0 -240589000000.0 -234086000000.0 -228456000000.0 -221969000000.0 -216543000000.0 -213498000000.0 -212595000000.0 -213350000000.0 -213177000000.0 -213350000000.0 -212595000000.0 -213498000000.0 -216543000000.0 -221969000000.0 -228456000000.0 -234086000000.0 -240589000000.0 -266149000000.0 -259314000000.0 -387442000000.0 -287682000000.0 -538797000000.0 -882411000000.0 -1.24918e+12 -1.36727e+12 -1.38939e+12 -1.38513e+12 -1.52356e+12 -1.90105e+12 -2.11884e+12 -2.35298e+12 -1.69204e+12 -2.15942e+12 -2.41147e+12 -2.737e+12 -1.49133e+12 -1.14883e+12 -1.18225e+12 -2.55913e+12 -2.47567e+12 -2.25998e+12 -2.08999e+12 -2.10982e+12 -2.38955e+12 -2.06444e+12 -1.55828e+12 -1.19101e+12 -1.4014e+12 -1.16216e+12 -1.73192e+12 -1.10251e+12 -703948000000.0 -364506000000.0 -281725000000.0 -376000000000.0 -264719000000.0 -280997000000.0 -259573000000.0 -254730000000.0 -248852000000.0 -243811000000.0 -239101000000.0 -234922000000.0 -232025000000.0 -230750000000.0 -229803000000.0 -230750000000.0 -232025000000.0 -234922000000.0 -239101000000.0 -243811000000.0 -248852000000.0 -254730000000.0 -259573000000.0 -280997000000.0 -264719000000.0 -376000000000.0 -281725000000.0 -364506000000.0 -703948000000.0 -1.10251e+12 -1.73192e+12 -1.16216e+12 -1.4014e+12 -1.19101e+12 -1.55828e+12 -2.06444e+12 -2.38955e+12 -2.10982e+12 -2.08999e+12 -2.25998e+12 -2.47567e+12 -2.55913e+12 -1.18225e+12 -1.14993e+12 -2.17185e+12 -2.48557e+12 -2.43207e+12 -2.35978e+12 -1.98214e+12 -1.31274e+12 -2.58225e+12 -1.77012e+12 -2.35937e+12 -1.73551e+12 -1.0506e+12 -1.22805e+12 -984468000000.0 -1.31165e+12 -825944000000.0 -737748000000.0 -546518000000.0 -391202000000.0 -391202000000.0 -546518000000.0 -737748000000.0 -825944000000.0 -1.31165e+12 -984468000000.0 -1.22805e+12 -1.0506e+12 -1.73551e+12 -2.35937e+12 -1.77012e+12 -2.58225e+12 -1.31274e+12 -1.98214e+12 -2.35978e+12 -2.43207e+12 -2.48557e+12 -2.17185e+12 -1.14993e+12 -1.10617e+12 -2.11591e+12 -2.19625e+12 -2.07254e+12 -2.35692e+12 -2.33948e+12 -2.40352e+12 -1.18582e+12 -1.14945e+12 -1.86951e+12 -107088000000.0 -375137000000.0 -630518000000.0 -636328000000.0 -772705000000.0 -886753000000.0 -579798000000.0 -341197000000.0 -371150000000.0 -270909000000.0 -284592000000.0 -262507000000.0 -258897000000.0 -253101000000.0 -249596000000.0 -246460000000.0 -243045000000.0 -240320000000.0 -239629000000.0 -239243000000.0 -239629000000.0 -240320000000.0 -243045000000.0 -246460000000.0 -249596000000.0 -253101000000.0 -258897000000.0 -262507000000.0 -284592000000.0 -270909000000.0 -371150000000.0 -341197000000.0 -579798000000.0 -886753000000.0 -772705000000.0 -636328000000.0 -630518000000.0 -375137000000.0 -107088000000.0 -1.86951e+12 -1.14945e+12 -1.18582e+12 -2.40352e+12 -2.33948e+12 -2.35692e+12 -2.07254e+12 -2.19625e+12 -2.11591e+12 -1.10617e+12 -903555000000.0 -1.00651e+12 -2.06418e+12 -2.03314e+12 -2.37451e+12 -2.31569e+12 -2.23798e+12 -2.08434e+12 -2.52054e+12 -3.14019e+12 -2.8537e+12 -3.03772e+12 -1.10181e+12 -1.05482e+12 -519955000000.0 -792031000000.0 -408159000000.0 -427592000000.0 -361224000000.0 -288035000000.0 -299502000000.0 -278531000000.0 -275066000000.0 -266071000000.0 -258972000000.0 -252627000000.0 -247988000000.0 -244701000000.0 -243482000000.0 -242999000000.0 -243482000000.0 -244701000000.0 -247988000000.0 -252627000000.0 -258972000000.0 -266071000000.0 -275066000000.0 -278531000000.0 -299502000000.0 -288035000000.0 -361224000000.0 -427592000000.0 -408159000000.0 -792031000000.0 -519955000000.0 -1.05482e+12 -1.10181e+12 -3.03772e+12 -2.8537e+12 -3.14019e+12 -2.52054e+12 -2.08434e+12 -2.23798e+12 -2.31569e+12 -2.37451e+12 -2.03314e+12 -2.06418e+12 -1.00651e+12 -903555000000.0 -599734000000.0 -1.82514e+12 -1.90694e+12 -1.90277e+12 -2.30051e+12 -2.36855e+12 -728091000000.0 -2.80539e+12 -1.71262e+12 -2.01624e+12 -2.47601e+12 -974657000000.0 -1.19994e+12 -749347000000.0 -486703000000.0 -455404000000.0 -17617200000.0 -472397000000.0 -556486000000.0 -578731000000.0 -578731000000.0 -556486000000.0 -472397000000.0 -17617200000.0 -455405000000.0 -486703000000.0 -749347000000.0 -1.19994e+12 -974657000000.0 -2.47601e+12 -2.01624e+12 -1.71262e+12 -2.80539e+12 -728091000000.0 -2.36855e+12 -2.30051e+12 -1.90277e+12 -1.90694e+12 -1.82514e+12 -599734000000.0 -781418000000.0 -1.45489e+12 -1.46927e+12 -1.96133e+12 -1.60323e+12 -1.87946e+12 -1.81039e+12 -2.05298e+12 -2.61695e+12 -1.87078e+12 -2.082e+12 -1.65456e+12 -1.88706e+12 -1.04854e+12 -1.1498e+12 -977715000000.0 -789431000000.0 -973876000000.0 -743222000000.0 -681342000000.0 -513784000000.0 -624547000000.0 -544473000000.0 -380762000000.0 -454132000000.0 -310297000000.0 -278296000000.0 -285161000000.0 -279073000000.0 -283237000000.0 -283305000000.0 -284481000000.0 -286248000000.0 -288015000000.0 -289014000000.0 -289256000000.0 -289581000000.0 -289256000000.0 -289014000000.0 -288015000000.0 -286248000000.0 -284481000000.0 -283305000000.0 -283237000000.0 -279073000000.0 -285161000000.0 -278296000000.0 -310297000000.0 -454132000000.0 -380762000000.0 -544473000000.0 -624547000000.0 -513784000000.0 -681342000000.0 -743222000000.0 -973876000000.0 -789431000000.0 -977715000000.0 -1.1498e+12 -1.04854e+12 -1.88706e+12 -1.65456e+12 -2.082e+12 -1.87078e+12 -2.61695e+12 -2.05298e+12 -1.81039e+12 -1.87946e+12 -1.60323e+12 -1.96133e+12 -1.46927e+12 -1.45489e+12 -781418000000.0 -317030000000.0 -567076000000.0 -1.45247e+12 -1.69768e+12 -2.10433e+12 -1.73717e+12 -2.34053e+12 -1.79482e+12 -1.82951e+12 -2.82813e+12 -1.15639e+12 -1.16081e+12 -1.35458e+12 -434539000000.0 -345055000000.0 -376746000000.0 -514480000000.0 -307669000000.0 -311641000000.0 -293602000000.0 -293634000000.0 -290807000000.0 -289457000000.0 -287281000000.0 -285914000000.0 -284253000000.0 -283904000000.0 -283245000000.0 -283723000000.0 -283245000000.0 -283904000000.0 -284253000000.0 -285914000000.0 -287281000000.0 -289457000000.0 -290807000000.0 -293634000000.0 -293602000000.0 -311641000000.0 -307669000000.0 -514480000000.0 -376746000000.0 -345055000000.0 -434539000000.0 -1.35458e+12 -1.16081e+12 -1.15639e+12 -2.82813e+12 -1.82951e+12 -1.79482e+12 -2.34053e+12 -1.73717e+12 -2.10433e+12 -1.69768e+12 -1.45247e+12 -567076000000.0 -317030000000.0 -69601300000.0 -926568000000.0 -1.97967e+12 -615724000000.0 -1.85138e+12 -2.64478e+12 -2.68929e+12 -872105000000.0 -1.75465e+12 -1.5574e+12 -1.57783e+12 -1.44985e+12 -889434000000.0 -947056000000.0 -470965000000.0 -442562000000.0 -524563000000.0 -443977000000.0 -629346000000.0 -482127000000.0 -482127000000.0 -629346000000.0 -443977000000.0 -524563000000.0 -442562000000.0 -470965000000.0 -947056000000.0 -889434000000.0 -1.44985e+12 -1.57783e+12 -1.5574e+12 -1.75465e+12 -872105000000.0 -2.68929e+12 -2.64478e+12 -1.85138e+12 -615724000000.0 -1.97967e+12 -926568000000.0 -69601300000.0 -147059000000.0 -575460000000.0 -504126000000.0 -455306000000.0 -579520000000.0 -2.45373e+12 -2.00591e+12 -1.68022e+12 -903337000000.0 -2.52554e+12 -812566000000.0 -1.76725e+12 -1.13419e+12 -1.38052e+12 -1.28853e+12 -1.22929e+12 -1.00315e+12 -974124000000.0 -804472000000.0 -274692000000.0 -380255000000.0 -246495000000.0 -299354000000.0 -419962000000.0 -304222000000.0 -355441000000.0 -301026000000.0 -464539000000.0 -245596000000.0 -264097000000.0 -219968000000.0 -210716000000.0 -194972000000.0 -184412000000.0 -174699000000.0 -167443000000.0 -161627000000.0 -157855000000.0 -154875000000.0 -154514000000.0 -154875000000.0 -157855000000.0 -161627000000.0 -167443000000.0 -174699000000.0 -184412000000.0 -194972000000.0 -210716000000.0 -219968000000.0 -264097000000.0 -245596000000.0 -464539000000.0 -301026000000.0 -355441000000.0 -304222000000.0 -419962000000.0 -299354000000.0 -246495000000.0 -380255000000.0 -274692000000.0 -804472000000.0 -974124000000.0 -1.00315e+12 -1.22929e+12 -1.28853e+12 -1.38052e+12 -1.13419e+12 -1.76725e+12 -812566000000.0 -2.52554e+12 -903337000000.0 -1.68022e+12 -2.00591e+12 -2.45373e+12 -579520000000.0 -455306000000.0 -504126000000.0 -575460000000.0 -147059000000.0 -175862000000.0 -418518000000.0 -411367000000.0 -2.28434e+12 -886585000000.0 -1.22666e+12 -1.08617e+12 -1.10424e+12 -1.02285e+12 -851895000000.0 -859337000000.0 -650699000000.0 -574395000000.0 -259451000000.0 -145426000000.0 -251499000000.0 -209219000000.0 -224144000000.0 -17148800000.0 -35310900000.0 -9100080000.0 -10572000000.0 -9036190000.0 -9037060000.0 -9037940000.0 -9038740000.0 -9039360000.0 -9141500000.0 -9035750000.0 -9527820000.0 -9035750000.0 -9141500000.0 -9039360000.0 -9038740000.0 -9037940000.0 -9037060000.0 -9036190000.0 -10572000000.0 -9100080000.0 -35310900000.0 -17148800000.0 -224144000000.0 -209219000000.0 -251499000000.0 -145426000000.0 -259451000000.0 -574395000000.0 -650699000000.0 -859337000000.0 -851895000000.0 -1.02285e+12 -1.10424e+12 -1.08617e+12 -1.22666e+12 -886585000000.0 -2.28434e+12 -411367000000.0 -418518000000.0 -175862000000.0 -532008000000.0 -483959000000.0 -855129000000.0 -1.65062e+12 -1.62591e+12 -1.46065e+12 -780404000000.0 -789699000000.0 -604849000000.0 -548777000000.0 -393707000000.0 -459108000000.0 -132217000000.0 -221647000000.0 -158464000000.0 -158464000000.0 -221647000000.0 -132217000000.0 -459108000000.0 -393707000000.0 -548777000000.0 -604849000000.0 -789699000000.0 -780404000000.0 -1.46065e+12 -1.62591e+12 -1.65062e+12 -855129000000.0 -483959000000.0 -532008000000.0 -79313700000.0 -301468000000.0 -224468000000.0 -447282000000.0 -603348000000.0 -754928000000.0 -1.25316e+12 -1.15772e+12 -1.07794e+12 -919003000000.0 -1.01603e+12 -937727000000.0 -871209000000.0 -703569000000.0 -717363000000.0 -679841000000.0 -709452000000.0 -450479000000.0 -355424000000.0 -268913000000.0 -232836000000.0 -165571000000.0 -282617000000.0 -244396000000.0 -337526000000.0 -239043000000.0 -241606000000.0 -225628000000.0 -222135000000.0 -218768000000.0 -215428000000.0 -212827000000.0 -211061000000.0 -209828000000.0 -208979000000.0 -208504000000.0 -208757000000.0 -208504000000.0 -208979000000.0 -209828000000.0 -211061000000.0 -212827000000.0 -215428000000.0 -218768000000.0 -222135000000.0 -225628000000.0 -241606000000.0 -239043000000.0 -337526000000.0 -244396000000.0 -282617000000.0 -165571000000.0 -232836000000.0 -268913000000.0 -355424000000.0 -450479000000.0 -709452000000.0 -679841000000.0 -717363000000.0 -703569000000.0 -871209000000.0 -937727000000.0 -1.01603e+12 -919003000000.0 -1.07794e+12 -1.15772e+12 -1.25316e+12 -754928000000.0 -603348000000.0 -447282000000.0 -224468000000.0 -301468000000.0 -79313700000.0 -181709000000.0 -245473000000.0 -288242000000.0 -825094000000.0 -1.02067e+12 -937177000000.0 -812796000000.0 -863188000000.0 -849843000000.0 -779161000000.0 -650478000000.0 -678289000000.0 -672421000000.0 -307070000000.0 -239800000000.0 -193478000000.0 -26125800000.0 -102044000000.0 -9464740000.0 -15041600000.0 -9035750000.0 -9035750000.0 -9035750000.0 -9035750000.0 -9035750000.0 -9035750000.0 -9035750000.0 -9035750000.0 -9035750000.0 -9371770000.0 -9035750000.0 -9035750000.0 -9035750000.0 -9035750000.0 -9035750000.0 -9035750000.0 -9035750000.0 -9035750000.0 -9035750000.0 -15041600000.0 -9464740000.0 -102044000000.0 -26125800000.0 -193478000000.0 -239800000000.0 -307070000000.0 -672421000000.0 -678289000000.0 -650478000000.0 -779161000000.0 -849843000000.0 -863188000000.0 -812796000000.0 -937177000000.0 -1.02067e+12 -825094000000.0 -288242000000.0 -245473000000.0 -181709000000.0 -238922000000.0 -337888000000.0 -292588000000.0 -383842000000.0 -475175000000.0 -880711000000.0 -711637000000.0 -880247000000.0 -771430000000.0 -700421000000.0 -584669000000.0 -529453000000.0 -505381000000.0 -483103000000.0 -453524000000.0 -353799000000.0 -79622400000.0 -152849000000.0 -133358000000.0 -189621000000.0 -189621000000.0 -133358000000.0 -152849000000.0 -79622400000.0 -353799000000.0 -453524000000.0 -483103000000.0 -505381000000.0 -529453000000.0 -584669000000.0 -700421000000.0 -771430000000.0 -880247000000.0 -711637000000.0 -880711000000.0 -475175000000.0 -383842000000.0 -292588000000.0 -337888000000.0 -238922000000.0 -160503000000.0 -80050900000.0 -78489200000.0 -250647000000.0 -232925000000.0 -286880000000.0 -589856000000.0 -567294000000.0 -624253000000.0 -613464000000.0 -609524000000.0 -601165000000.0 -540804000000.0 -423880000000.0 -393358000000.0 -307543000000.0 -288377000000.0 -289073000000.0 -262948000000.0 -360580000000.0 -264238000000.0 -311981000000.0 -249447000000.0 -238646000000.0 -229289000000.0 -220133000000.0 -211462000000.0 -203533000000.0 -196585000000.0 -190744000000.0 -186089000000.0 -182693000000.0 -180624000000.0 -180197000000.0 -180624000000.0 -182693000000.0 -186089000000.0 -190744000000.0 -196585000000.0 -203533000000.0 -211462000000.0 -220133000000.0 -229289000000.0 -238646000000.0 -249447000000.0 -311981000000.0 -264238000000.0 -360580000000.0 -262948000000.0 -289073000000.0 -288377000000.0 -307543000000.0 -393358000000.0 -423880000000.0 -540804000000.0 -601165000000.0 -609524000000.0 -613464000000.0 -624253000000.0 -567294000000.0 -589856000000.0 -286880000000.0 -232925000000.0 -250647000000.0 -78489200000.0 -80050900000.0 -160503000000.0 -262647000000.0 -677978000000.0 -808942000000.0 -723467000000.0 -648034000000.0 -462566000000.0 -280223000000.0 -280223000000.0 -462566000000.0 -648034000000.0 -723467000000.0 -808942000000.0 -677978000000.0 -262647000000.0 -73182800000.0 -112345000000.0 -170865000000.0 -170747000000.0 -179251000000.0 -129695000000.0 -121246000000.0 -721955000000.0 -619834000000.0 -542536000000.0 -501006000000.0 -458735000000.0 -386990000000.0 -417100000000.0 -467068000000.0 -398588000000.0 -206247000000.0 -230008000000.0 -118194000000.0 -170281000000.0 -73872000000.0 -141629000000.0 -13634000000.0 -62796400000.0 -9035750000.0 -9035750000.0 -9035750000.0 -9035750000.0 -9035750000.0 -9035750000.0 -9035750000.0 -9035750000.0 -9035750000.0 -9035750000.0 -9035750000.0 -9254070000.0 -9035750000.0 -9035750000.0 -9035750000.0 -9035750000.0 -9035750000.0 -9035750000.0 -9035750000.0 -9035750000.0 -9035750000.0 -9035750000.0 -9035750000.0 -62796400000.0 -13634000000.0 -141629000000.0 -73872000000.0 -170281000000.0 -118194000000.0 -230008000000.0 -206247000000.0 -398588000000.0 -467068000000.0 -417100000000.0 -386990000000.0 -458735000000.0 -501006000000.0 -542536000000.0 -619834000000.0 -721955000000.0 -121246000000.0 -129695000000.0 -179251000000.0 -170747000000.0 -170865000000.0 -112345000000.0 -73182800000.0 -110210000000.0 -55689200000.0 -97918000000.0 -128423000000.0 -86545900000.0 -23457800000.0 -44209500000.0 -634587000000.0 -609222000000.0 -541841000000.0 -465912000000.0 -412036000000.0 -370473000000.0 -423296000000.0 -501557000000.0 -473954000000.0 -456515000000.0 -387663000000.0 -366610000000.0 -384352000000.0 -291055000000.0 -332436000000.0 -237485000000.0 -308536000000.0 -200247000000.0 -213892000000.0 -157602000000.0 -138560000000.0 -122364000000.0 -108639000000.0 -97091700000.0 -87448500000.0 -79524800000.0 -73198200000.0 -68373000000.0 -64973600000.0 -62950800000.0 -62449700000.0 -62950800000.0 -64973600000.0 -68373000000.0 -73198200000.0 -79524800000.0 -87448500000.0 -97091700000.0 -108639000000.0 -122364000000.0 -138560000000.0 -157602000000.0 -213892000000.0 -200247000000.0 -308536000000.0 -237485000000.0 -332436000000.0 -291055000000.0 -384352000000.0 -366610000000.0 -387663000000.0 -456515000000.0 -473954000000.0 -501557000000.0 -423296000000.0 -370473000000.0 -412036000000.0 -465912000000.0 -541841000000.0 -609222000000.0 -634587000000.0 -44209500000.0 -23457800000.0 -86545900000.0 -128423000000.0 -97918000000.0 -55689200000.0 -110210000000.0 -68475200000.0 -43755700000.0 -98491900000.0 -126737000000.0 -99062900000.0 -69165200000.0 -104601000000.0 -210815000000.0 -451114000000.0 -395316000000.0 -391477000000.0 -331100000000.0 -294125000000.0 -93819300000.0 -110124000000.0 -61634300000.0 -13295900000.0 -50869600000.0 -14131900000.0 -88147200000.0 -13041600000.0 -91443900000.0 -12255600000.0 -101047000000.0 -9855030000.0 -39945500000.0 -9045510000.0 -9035750000.0 -9035750000.0 -9035750000.0 -9035750000.0 -9035750000.0 -9035750000.0 -9035750000.0 -9035750000.0 -9035750000.0 -9035750000.0 -9169790000.0 -9035750000.0 -9035750000.0 -9035750000.0 -9035750000.0 -9035750000.0 -9035750000.0 -9035750000.0 -9035750000.0 -9035750000.0 -9035750000.0 -9045510000.0 -39945500000.0 -9855030000.0 -101047000000.0 -12255600000.0 -91443900000.0 -13041600000.0 -88147200000.0 -14131900000.0 -50869600000.0 -13295900000.0 -61634300000.0 -110124000000.0 -93819300000.0 -294125000000.0 -331100000000.0 -391477000000.0 -395316000000.0 -451114000000.0 -210815000000.0 -104601000000.0 -69165200000.0 -99062900000.0 -126737000000.0 -98491900000.0 -43755700000.0 -68475200000.0 -53375600000.0 -16492800000.0 -43384900000.0 -69255200000.0 -58344000000.0 -18806000000.0 -13915100000.0 -118596000000.0 -374013000000.0 -379708000000.0 -399620000000.0 -372712000000.0 -376845000000.0 -265368000000.0 -254872000000.0 -189174000000.0 -127587000000.0 -144868000000.0 -85446900000.0 -134233000000.0 -60963200000.0 -121354000000.0 -45677100000.0 -117363000000.0 -35929900000.0 -55080100000.0 -28137300000.0 -25042100000.0 -22440800000.0 -20258800000.0 -18442700000.0 -16951300000.0 -15752200000.0 -14816600000.0 -14117800000.0 -13633900000.0 -13349500000.0 -13359600000.0 -13349500000.0 -13633900000.0 -14117800000.0 -14816600000.0 -15752200000.0 -16951300000.0 -18442700000.0 -20258800000.0 -22440800000.0 -25042100000.0 -28137300000.0 -55080100000.0 -35929900000.0 -117363000000.0 -45677100000.0 -121354000000.0 -60963200000.0 -134233000000.0 -85446900000.0 -144868000000.0 -127587000000.0 -189174000000.0 -254872000000.0 -265368000000.0 -376845000000.0 -372712000000.0 -399620000000.0 -379708000000.0 -374013000000.0 -118596000000.0 -13915100000.0 -18806000000.0 -58344000000.0 -69255200000.0 -43384900000.0 -16492800000.0 -53375600000.0 -49468000000.0 -27121500000.0 -59398700000.0 -83450700000.0 -82322000000.0 -60796500000.0 -76816100000.0 -191936000000.0 -330778000000.0 -249519000000.0 -209628000000.0 -153009000000.0 -135741000000.0 -75725800000.0 -76947700000.0 -38045300000.0 -9566340000.0 -54836200000.0 -9455200000.0 -64945300000.0 -9327800000.0 -71742200000.0 -9225460000.0 -76274400000.0 -9070400000.0 -27235900000.0 -9035750000.0 -9035750000.0 -9035750000.0 -9035750000.0 -9035750000.0 -9035750000.0 -9035750000.0 -9035750000.0 -9035750000.0 -9035750000.0 -9035750000.0 -9116330000.0 -9035750000.0 -9035750000.0 -9035750000.0 -9035750000.0 -9035750000.0 -9035750000.0 -9035750000.0 -9035750000.0 -9035750000.0 -9035750000.0 -9035750000.0 -27235900000.0 -9070400000.0 -76274400000.0 -9225460000.0 -71742200000.0 -9327800000.0 -64945300000.0 -9455200000.0 -54836200000.0 -9566340000.0 -38045300000.0 -76947700000.0 -75725800000.0 -135741000000.0 -153009000000.0 -209628000000.0 -249519000000.0 -330778000000.0 -191936000000.0 -76816100000.0 -60796500000.0 -82322000000.0 -83450700000.0 -59398700000.0 -27121500000.0 -49468000000.0 -43684200000.0 -20449000000.0 -40558600000.0 -51545400000.0 -46052500000.0 -17485800000.0 -17282100000.0 -127741000000.0 -241033000000.0 -200917000000.0 -186144000000.0 -141617000000.0 -121222000000.0 -86989300000.0 -79313700000.0 -41328500000.0 -15850600000.0 -58644600000.0 -12668500000.0 -58987800000.0 -10587600000.0 -65684000000.0 -9518560000.0 -65721800000.0 -9035760000.0 -22869700000.0 -9035760000.0 -9035760000.0 -9035760000.0 -9035760000.0 -9035750000.0 -9035750000.0 -9035750000.0 -9035750000.0 -9035750000.0 -9035750000.0 -9035750000.0 -9098070000.0 -9035750000.0 -9035750000.0 -9035750000.0 -9035750000.0 -9035750000.0 -9035750000.0 -9035750000.0 -9035760000.0 -9035760000.0 -9035760000.0 -9035760000.0 -22869700000.0 -9035760000.0 -65721800000.0 -9518560000.0 -65684000000.0 -10587600000.0 -58987800000.0 -12668500000.0 -58644600000.0 -15850600000.0 -41328500000.0 -79313700000.0 -86989300000.0 -121222000000.0 -141617000000.0 -186144000000.0 -200917000000.0 -241033000000.0 -127741000000.0 -17282100000.0 -17485800000.0 -46052500000.0 -51545400000.0 -40558600000.0 -20449000000.0 -43684200000.0 -42364300000.0 -24456000000.0 -41534100000.0 -48338000000.0 -46818400000.0 -24197100000.0 -26835500000.0 -134569000000.0 -207439000000.0 -164147000000.0 -145174000000.0 -103162000000.0 -82809700000.0 -67991300000.0 -57979500000.0 -29565600000.0 -9035770000.0 -51735000000.0 -9035760000.0 -50355800000.0 -9035760000.0 -58747300000.0 -9035760000.0 -56486200000.0 -9035760000.0 -19469200000.0 -9035760000.0 -9035760000.0 -9035760000.0 -9035760000.0 -9035760000.0 -9035760000.0 -9035750000.0 -9035750000.0 -9035750000.0 -9035750000.0 -9035750000.0 -9083850000.0 -9035750000.0 -9035750000.0 -9035750000.0 -9035750000.0 -9035750000.0 -9035760000.0 -9035760000.0 -9035760000.0 -9035760000.0 -9035760000.0 -9035760000.0 -19469200000.0 -9035760000.0 -56486200000.0 -9035760000.0 -58747300000.0 -9035760000.0 -50355800000.0 -9035760000.0 -51735000000.0 -9035770000.0 -29565600000.0 -57979500000.0 -67991300000.0 -82809700000.0 -103162000000.0 -145174000000.0 -164147000000.0 -207439000000.0 -134569000000.0 -26835500000.0 -24197100000.0 -46818400000.0 -48338000000.0 -41534100000.0 -24456000000.0 -42364300000.0 -41624700000.0 -27058200000.0 -40418600000.0 -42651300000.0 -43098900000.0 -24153100000.0 -27164000000.0 -129651000000.0 -178020000000.0 -141026000000.0 -124292000000.0 -88045600000.0 -67934000000.0 -62278600000.0 -48461400000.0 -28995100000.0 -9035810000.0 -48836000000.0 -9035790000.0 -45297700000.0 -9035780000.0 -53609200000.0 -9035770000.0 -48463400000.0 -9035770000.0 -16817500000.0 -9035760000.0 -9035760000.0 -9035760000.0 -9035760000.0 -9035760000.0 -9035760000.0 -9035760000.0 -9035750000.0 -9035750000.0 -9035750000.0 -9035750000.0 -9072750000.0 -9035750000.0 -9035750000.0 -9035750000.0 -9035750000.0 -9035760000.0 -9035760000.0 -9035760000.0 -9035760000.0 -9035760000.0 -9035760000.0 -9035760000.0 -16817500000.0 -9035770000.0 -48463400000.0 -9035770000.0 -53609200000.0 -9035780000.0 -45297700000.0 -9035790000.0 -48836000000.0 -9035810000.0 -28995100000.0 -48461400000.0 -62278600000.0 -67934000000.0 -88045600000.0 -124292000000.0 -141026000000.0 -178020000000.0 -129651000000.0 -27164000000.0 -24153100000.0 -43098900000.0 -42651300000.0 -40418600000.0 -27058200000.0 -41624700000.0 -41591700000.0 -30178800000.0 -40631400000.0 -39562400000.0 -41712500000.0 -26912200000.0 -31336000000.0 -126423000000.0 -154767000000.0 -121104000000.0 -105671000000.0 -75134000000.0 -57895300000.0 -55502800000.0 -39237300000.0 -29380300000.0 -9035840000.0 -45423200000.0 -9035810000.0 -41276800000.0 -9035790000.0 -48907500000.0 -9035780000.0 -41618300000.0 -9035770000.0 -14762100000.0 -9035770000.0 -9035760000.0 -9035760000.0 -9035760000.0 -9035760000.0 -9035760000.0 -9035760000.0 -9035750000.0 -9035750000.0 -9035750000.0 -9035750000.0 -9064070000.0 -9035750000.0 -9035750000.0 -9035750000.0 -9035750000.0 -9035760000.0 -9035760000.0 -9035760000.0 -9035760000.0 -9035760000.0 -9035760000.0 -9035770000.0 -14762100000.0 -9035770000.0 -41618300000.0 -9035780000.0 -48907500000.0 -9035790000.0 -41276800000.0 -9035810000.0 -45423200000.0 -9035840000.0 -29380300000.0 -39237300000.0 -55502800000.0 -57895300000.0 -75134000000.0 -105671000000.0 -121104000000.0 -154767000000.0 -126423000000.0 -31336000000.0 -26912200000.0 -41712500000.0 -39562400000.0 -40631400000.0 -30178800000.0 -41591700000.0 -41809100000.0 -32974200000.0 -40917300000.0 -37324500000.0 -40466000000.0 -29205400000.0 -34936500000.0 -121671000000.0 -135889000000.0 -105964000000.0 -91804200000.0 -66021000000.0 -52401800000.0 -49567900000.0 -31506000000.0 -29744800000.0 -9035870000.0 -42030500000.0 -9035830000.0 -37993300000.0 -9035800000.0 -44463000000.0 -9035790000.0 -35853500000.0 -9035780000.0 -13182900000.0 -9035770000.0 -9035770000.0 -9035760000.0 -9035760000.0 -9035760000.0 -9035760000.0 -9035760000.0 -9035760000.0 -9035750000.0 -9035750000.0 -9035750000.0 -9057290000.0 -9035750000.0 -9035750000.0 -9035750000.0 -9035760000.0 -9035760000.0 -9035760000.0 -9035760000.0 -9035760000.0 -9035760000.0 -9035770000.0 -9035770000.0 -13182900000.0 -9035780000.0 -35853500000.0 -9035790000.0 -44463000000.0 -9035800000.0 -37993300000.0 -9035830000.0 -42030500000.0 -9035870000.0 -29744800000.0 -31506000000.0 -49567900000.0 -52401800000.0 -66021000000.0 -91804200000.0 -105964000000.0 -135889000000.0 -121671000000.0 -34936500000.0 -29205400000.0 -40466000000.0 -37324500000.0 -40917300000.0 -32974200000.0 -41809100000.0 -41997300000.0 -35342000000.0 -41161900000.0 -35791500000.0 -39380100000.0 -31048400000.0 -37992200000.0 -115766000000.0 -120348000000.0 -94161700000.0 -81092400000.0 -59648300000.0 -48473100000.0 -44263300000.0 -25183300000.0 -29810300000.0 -9035900000.0 -38951600000.0 -9035850000.0 -35202800000.0 -9035820000.0 -40218600000.0 -9035800000.0 -31039000000.0 -9035780000.0 -11983800000.0 -9035770000.0 -9035770000.0 -9035770000.0 -9035760000.0 -9035760000.0 -9035760000.0 -9035760000.0 -9035760000.0 -9035750000.0 -9035750000.0 -9035750000.0 -9052010000.0 -9035750000.0 -9035750000.0 -9035750000.0 -9035760000.0 -9035760000.0 -9035760000.0 -9035760000.0 -9035760000.0 -9035770000.0 -9035770000.0 -9035770000.0 -11983800000.0 -9035780000.0 -31039000000.0 -9035800000.0 -40218600000.0 -9035820000.0 -35202800000.0 -9035850000.0 -38951600000.0 -9035900000.0 -29810300000.0 -25183300000.0 -44263300000.0 -48473100000.0 -59648300000.0 -81092400000.0 -94161700000.0 -120348000000.0 -115766000000.0 -37992200000.0 -31048400000.0 -39380100000.0 -35791500000.0 -41161900000.0 -35342000000.0 -41997300000.0 -41921700000.0 -37255000000.0 -41215900000.0 -34756600000.0 -38314600000.0 -32502300000.0 -40514400000.0 -109132000000.0 -107547000000.0 -85025200000.0 -72759400000.0 -55338500000.0 -44793800000.0 -39681100000.0 -20242000000.0 -29582700000.0 -9035930000.0 -36234000000.0 -9035870000.0 -32723900000.0 -9035830000.0 -36197500000.0 -9035800000.0 -27029300000.0 -9035790000.0 -11086900000.0 -9035780000.0 -9035770000.0 -9035770000.0 -9035760000.0 -9035760000.0 -9035760000.0 -9035760000.0 -9035760000.0 -9035750000.0 -9035750000.0 -9035750000.0 -9047930000.0 -9035750000.0 -9035750000.0 -9035750000.0 -9035760000.0 -9035760000.0 -9035760000.0 -9035760000.0 -9035760000.0 -9035770000.0 -9035770000.0 -9035780000.0 -11086900000.0 -9035790000.0 -27029300000.0 -9035800000.0 -36197500000.0 -9035830000.0 -32723900000.0 -9035870000.0 -36234000000.0 -9035930000.0 -29582700000.0 -20242000000.0 -39681100000.0 -44793800000.0 -55338500000.0 -72759400000.0 -85025200000.0 -107547000000.0 -109132000000.0 -40514400000.0 -32502300000.0 -38314600000.0 -34756600000.0 -41215900000.0 -37255000000.0 -41921700000.0 -41494700000.0 -38716400000.0 -40991100000.0 -34010900000.0 -37156300000.0 -33634000000.0 -42515400000.0 -102135000000.0 -96893900000.0 -77923300000.0 -66189400000.0 -52165900000.0 -41038300000.0 -35799100000.0 -16538300000.0 -29119000000.0 -9035960000.0 -33824000000.0 -9035880000.0 -30439100000.0 -9035840000.0 -32450600000.0 -9035810000.0 -23685800000.0 -9035790000.0 -10428200000.0 -9035780000.0 -9035770000.0 -9035770000.0 -9035770000.0 -9035760000.0 -9035760000.0 -9035760000.0 -9035760000.0 -9035750000.0 -9035750000.0 -9035750000.0 -9044790000.0 -9035750000.0 -9035750000.0 -9035750000.0 -9035760000.0 -9035760000.0 -9035760000.0 -9035760000.0 -9035770000.0 -9035770000.0 -9035770000.0 -9035780000.0 -10428200000.0 -9035790000.0 -23685800000.0 -9035810000.0 -32450600000.0 -9035840000.0 -30439100000.0 -9035880000.0 -33824000000.0 -9035960000.0 -29119000000.0 -16538300000.0 -35799100000.0 -41038300000.0 -52165900000.0 -66189400000.0 -77923300000.0 -96893900000.0 -102135000000.0 -42515400000.0 -33634000000.0 -37156300000.0 -34010900000.0 -40991100000.0 -38716400000.0 -41494700000.0 -37260400000.0 -32549700000.0 -13872200000.0 -28472400000.0 -9035990000.0 -31653800000.0 -9035900000.0 -28290800000.0 -9035850000.0 -29022900000.0 -9035810000.0 -20895000000.0 -9035790000.0 -9955110000.0 -9035780000.0 -9035770000.0 -9035770000.0 -9035770000.0 -9035760000.0 -9035760000.0 -9035760000.0 -9035760000.0 -9035750000.0 -9035750000.0 -9035750000.0 -9042400000.0 -9035750000.0 -9035750000.0 -9035750000.0 -9035760000.0 -9035760000.0 -9035760000.0 -9035760000.0 -9035770000.0 -9035770000.0 -9035770000.0 -9035780000.0 -9955110000.0 -9035790000.0 -20895000000.0 -9035810000.0 -29022900000.0 -9035850000.0 -28290800000.0 -9035900000.0 -31653800000.0 -9035990000.0 -28472400000.0 -13872200000.0 -32549700000.0 -37260400000.0 -40753500000.0 -39744200000.0 -40490600000.0 -33381700000.0 -35884500000.0 -34487300000.0 -44011800000.0 -95059100000.0 -87901300000.0 -72294200000.0 -60889200000.0 -49402100000.0 -49402100000.0 -60889200000.0 -72294200000.0 -87901300000.0 -95059100000.0 -44011800000.0 -34487300000.0 -35884500000.0 -33381700000.0 -40490600000.0 -39744200000.0 -40753500000.0 -39787500000.0 -40366200000.0 -39768900000.0 -32750000000.0 -34526600000.0 -35088200000.0 -45027100000.0 -88102400000.0 -80174900000.0 -67669000000.0 -56450100000.0 -46694300000.0 -33581200000.0 -29854700000.0 -12028700000.0 -27686700000.0 -9036010000.0 -29666500000.0 -9035910000.0 -26261600000.0 -9035860000.0 -25940800000.0 -9035820000.0 -18568800000.0 -9035800000.0 -9624300000.0 -9035780000.0 -9035780000.0 -9035770000.0 -9035770000.0 -9035760000.0 -9035760000.0 -9035760000.0 -9035760000.0 -9035760000.0 -9035750000.0 -9035750000.0 -9040590000.0 -9035750000.0 -9035750000.0 -9035760000.0 -9035760000.0 -9035760000.0 -9035760000.0 -9035760000.0 -9035770000.0 -9035770000.0 -9035780000.0 -9035780000.0 -9624300000.0 -9035800000.0 -18568800000.0 -9035820000.0 -25940800000.0 -9035860000.0 -26261600000.0 -9035910000.0 -29666500000.0 -9036010000.0 -27686700000.0 -12028700000.0 -29854700000.0 -33581200000.0 -46694300000.0 -56450100000.0 -67669000000.0 -80174900000.0 -88102400000.0 -45027100000.0 -35088200000.0 -34526600000.0 -32750000000.0 -39768900000.0 -40366200000.0 -39787500000.0 -38686700000.0 -40617900000.0 -38890400000.0 -32048200000.0 -33118900000.0 -35455800000.0 -45591000000.0 -81395200000.0 -73408000000.0 -63696500000.0 -52542700000.0 -43957800000.0 -30105900000.0 -27633000000.0 -10806400000.0 -26797700000.0 -9036030000.0 -27820800000.0 -9035930000.0 -24353500000.0 -9035860000.0 -23210400000.0 -9035820000.0 -16637900000.0 -9035800000.0 -9399900000.0 -9035780000.0 -9035780000.0 -9035770000.0 -9035770000.0 -9035760000.0 -9035760000.0 -9035760000.0 -9035760000.0 -9035760000.0 -9035750000.0 -9035750000.0 -9039230000.0 -9035750000.0 -9035750000.0 -9035760000.0 -9035760000.0 -9035760000.0 -9035760000.0 -9035760000.0 -9035770000.0 -9035770000.0 -9035780000.0 -9035780000.0 -9399900000.0 -9035800000.0 -16637900000.0 -9035820000.0 -23210400000.0 -9035860000.0 -24353500000.0 -9035930000.0 -27820800000.0 -9036030000.0 -26797700000.0 -10806400000.0 -27633000000.0 -30105900000.0 -43957800000.0 -52542700000.0 -63696500000.0 -73408000000.0 -81395200000.0 -45591000000.0 -35455800000.0 -33118900000.0 -32048200000.0 -38890400000.0 -40617900000.0 -38686700000.0 -37521300000.0 -40539800000.0 -37911800000.0 -31247900000.0 -31693000000.0 -35606900000.0 -45739100000.0 -75028000000.0 -67378900000.0 -60124900000.0 -48927500000.0 -41222800000.0 -26908500000.0 -25803000000.0 -10032100000.0 -25835100000.0 -9036050000.0 -26090400000.0 -9035940000.0 -22573400000.0 -9035870000.0 -20822200000.0 -9035830000.0 -15044500000.0 -9035800000.0 -9252750000.0 -9035790000.0 -9035780000.0 -9035770000.0 -9035770000.0 -9035770000.0 -9035760000.0 -9035760000.0 -9035760000.0 -9035760000.0 -9035750000.0 -9035750000.0 -9038230000.0 -9035750000.0 -9035750000.0 -9035760000.0 -9035760000.0 -9035760000.0 -9035760000.0 -9035770000.0 -9035770000.0 -9035770000.0 -9035780000.0 -9035790000.0 -9252750000.0 -9035800000.0 -15044500000.0 -9035830000.0 -20822200000.0 -9035870000.0 -22573400000.0 -9035940000.0 -26090400000.0 -9036050000.0 -25835100000.0 -10032100000.0 -25803000000.0 -26908500000.0 -41222800000.0 -48927500000.0 -60124900000.0 -67378900000.0 -75028000000.0 -45739100000.0 -35606900000.0 -31693000000.0 -31247900000.0 -37911800000.0 -40539800000.0 -37521300000.0 -36339900000.0 -40175000000.0 -36876500000.0 -30348700000.0 -30273300000.0 -35558800000.0 -45510900000.0 -69068200000.0 -61930300000.0 -56783600000.0 -45468400000.0 -38544900000.0 -24032200000.0 -24287200000.0 -9564950000.0 -24823800000.0 -9036070000.0 -24461700000.0 -9035940000.0 -20927200000.0 -9035880000.0 -18757000000.0 -9035830000.0 -13739300000.0 -9035800000.0 -9159810000.0 -9035790000.0 -9035780000.0 -9035770000.0 -9035770000.0 -9035770000.0 -9035760000.0 -9035760000.0 -9035760000.0 -9035760000.0 -9035750000.0 -9035750000.0 -9037500000.0 -9035750000.0 -9035750000.0 -9035760000.0 -9035760000.0 -9035760000.0 -9035760000.0 -9035770000.0 -9035770000.0 -9035770000.0 -9035780000.0 -9035790000.0 -9159810000.0 -9035800000.0 -13739300000.0 -9035830000.0 -18757000000.0 -9035880000.0 -20927200000.0 -9035940000.0 -24461700000.0 -9036070000.0 -24823800000.0 -9564950000.0 -24287200000.0 -24032200000.0 -38544900000.0 -45468400000.0 -56783600000.0 -61930300000.0 -69068200000.0 -45510900000.0 -35558800000.0 -30273300000.0 -30348700000.0 -36876500000.0 -40175000000.0 -36339900000.0 -35174100000.0 -39566400000.0 -35814400000.0 -29369300000.0 -28877200000.0 -35329200000.0 -44949600000.0 -63561200000.0 -56949000000.0 -53576700000.0 -42119600000.0 -35972900000.0 -21494100000.0 -23015600000.0 -9297760000.0 -23785600000.0 -9036080000.0 -22930000000.0 -9035950000.0 -19417700000.0 -9035880000.0 -16989300000.0 -9035830000.0 -12679400000.0 -9035810000.0 -9103480000.0 -9035790000.0 -9035780000.0 -9035770000.0 -9035770000.0 -9035770000.0 -9035760000.0 -9035760000.0 -9035760000.0 -9035760000.0 -9035750000.0 -9035750000.0 -9036970000.0 -9035750000.0 -9035750000.0 -9035760000.0 -9035760000.0 -9035760000.0 -9035760000.0 -9035770000.0 -9035770000.0 -9035770000.0 -9035780000.0 -9035790000.0 -9103480000.0 -9035810000.0 -12679400000.0 -9035830000.0 -16989300000.0 -9035880000.0 -19417700000.0 -9035950000.0 -22930000000.0 -9036080000.0 -23785600000.0 -9297760000.0 -23015600000.0 -21494100000.0 -35972900000.0 -42119600000.0 -53576700000.0 -56949000000.0 -63561200000.0 -44949600000.0 -35329200000.0 -28877200000.0 -29369300000.0 -35814400000.0 -39566400000.0 -35174100000.0 -34041500000.0 -38756000000.0 -34743700000.0 -28336700000.0 -27516600000.0 -34936600000.0 -44099700000.0 -58527600000.0 -52359100000.0 -50468500000.0 -38890500000.0 -33540600000.0 -19291400000.0 -21927900000.0 -9154860000.0 -22738700000.0 -9036090000.0 -21495400000.0 -9035960000.0 -18044500000.0 -9035880000.0 -15490900000.0 -9035830000.0 -11827100000.0 -9035810000.0 -9070870000.0 -9035790000.0 -9035780000.0 -9035770000.0 -9035770000.0 -9035770000.0 -9035760000.0 -9035760000.0 -9035760000.0 -9035760000.0 -9035750000.0 -9035750000.0 -9036590000.0 -9035750000.0 -9035750000.0 -9035760000.0 -9035760000.0 -9035760000.0 -9035760000.0 -9035770000.0 -9035770000.0 -9035770000.0 -9035780000.0 -9035790000.0 -9070870000.0 -9035810000.0 -11827100000.0 -9035830000.0 -15490900000.0 -9035880000.0 -18044500000.0 -9035960000.0 -21495400000.0 -9036090000.0 -22738700000.0 -9154860000.0 -21927900000.0 -19291400000.0 -33540600000.0 -38890500000.0 -50468500000.0 -52359100000.0 -58527600000.0 -44099700000.0 -34936600000.0 -27516600000.0 -28336700000.0 -34743700000.0 -38756000000.0 -34041500000.0 -32949500000.0 -37782400000.0 -33674100000.0 -27279000000.0 -26199300000.0 -34399200000.0 -43005900000.0 -53964300000.0 -48116700000.0 -47459000000.0 -35811200000.0 -31268100000.0 -17407000000.0 -20975200000.0 -9084860000.0 -21699200000.0 -9036100000.0 -20159100000.0 -9035960000.0 -16804700000.0 -9035890000.0 -14232600000.0 -9035840000.0 -11149500000.0 -9035810000.0 -9052930000.0 -9035790000.0 -9035780000.0 -9035780000.0 -9035770000.0 -9035770000.0 -9035760000.0 -9035760000.0 -9035760000.0 -9035760000.0 -9035750000.0 -9035750000.0 -9036320000.0 -9035750000.0 -9035750000.0 -9035760000.0 -9035760000.0 -9035760000.0 -9035760000.0 -9035770000.0 -9035770000.0 -9035780000.0 -9035780000.0 -9035790000.0 -9052930000.0 -9035810000.0 -11149500000.0 -9035840000.0 -14232600000.0 -9035890000.0 -16804700000.0 -9035960000.0 -20159100000.0 -9036100000.0 -21699200000.0 -9084860000.0 -20975200000.0 -17407000000.0 -31268100000.0 -35811200000.0 -47459000000.0 -48116700000.0 -53964300000.0 -43005900000.0 -34399200000.0 -26199300000.0 -27279000000.0 -33674100000.0 -37782400000.0 -32949500000.0 -31897900000.0 -36681200000.0 -32609300000.0 -26219500000.0 -24931100000.0 -33734900000.0 -41712100000.0 -49849900000.0 -44199000000.0 -44562200000.0 -32911400000.0 -29164500000.0 -15815400000.0 -20119900000.0 -9054100000.0 -20680100000.0 -9036110000.0 -18921900000.0 -9035970000.0 -15693800000.0 -9035890000.0 -13185300000.0 -9035840000.0 -10617200000.0 -9035810000.0 -9043620000.0 -9035790000.0 -9035780000.0 -9035780000.0 -9035770000.0 -9035770000.0 -9035760000.0 -9035760000.0 -9035760000.0 -9035760000.0 -9035750000.0 -9035750000.0 -9036130000.0 -9035750000.0 -9035750000.0 -9035760000.0 -9035760000.0 -9035760000.0 -9035760000.0 -9035770000.0 -9035770000.0 -9035780000.0 -9035780000.0 -9035790000.0 -9043620000.0 -9035810000.0 -10617200000.0 -9035840000.0 -13185300000.0 -9035890000.0 -15693800000.0 -9035970000.0 -18921900000.0 -9036110000.0 -20680100000.0 -9054100000.0 -20119900000.0 -15815400000.0 -29164500000.0 -32911400000.0 -44562200000.0 -44199000000.0 -49849900000.0 -41712100000.0 -33734900000.0 -24931100000.0 -26219500000.0 -32609300000.0 -36681200000.0 -31897900000.0 -30881800000.0 -35483600000.0 -31550000000.0 -25175700000.0 -23716300000.0 -32961400000.0 -40259900000.0 -46151200000.0 -40593200000.0 -41792400000.0 -30212700000.0 -27230800000.0 -14486000000.0 -19334800000.0 -9042130000.0 -19692300000.0 -9036110000.0 -17783400000.0 -9035970000.0 -14705600000.0 -9035890000.0 -12321400000.0 -9035840000.0 -10204400000.0 -9035810000.0 -9039110000.0 -9035790000.0 -9035780000.0 -9035780000.0 -9035770000.0 -9035770000.0 -9035760000.0 -9035760000.0 -9035760000.0 -9035760000.0 -9035750000.0 -9035750000.0 -9036000000.0 -9035750000.0 -9035750000.0 -9035760000.0 -9035760000.0 -9035760000.0 -9035760000.0 -9035770000.0 -9035770000.0 -9035780000.0 -9035780000.0 -9035790000.0 -9039110000.0 -9035810000.0 -10204400000.0 -9035840000.0 -12321400000.0 -9035890000.0 -14705600000.0 -9035970000.0 -17783400000.0 -9036110000.0 -19692300000.0 -9042130000.0 -19334800000.0 -14486000000.0 -27230800000.0 -30212700000.0 -41792400000.0 -40593200000.0 -46151200000.0 -40259900000.0 -32961400000.0 -23716300000.0 -25175700000.0 -31550000000.0 -35483600000.0 -30881800000.0 -29893900000.0 -34216900000.0 -30495300000.0 -24159500000.0 -22558200000.0 -32095300000.0 -38688000000.0 -42828400000.0 -37287500000.0 -39159800000.0 -27726900000.0 -25462400000.0 -13387000000.0 -18601100000.0 -9038030000.0 -18744000000.0 -9036110000.0 -16741800000.0 -9035970000.0 -13833200000.0 -9035890000.0 -11614900000.0 -9035840000.0 -9888550000.0 -9035810000.0 -9037090000.0 -9035790000.0 -9035780000.0 -9035780000.0 -9035770000.0 -9035770000.0 -9035760000.0 -9035760000.0 -9035760000.0 -9035760000.0 -9035750000.0 -9035750000.0 -9035910000.0 -9035750000.0 -9035750000.0 -9035760000.0 -9035760000.0 -9035760000.0 -9035760000.0 -9035770000.0 -9035770000.0 -9035780000.0 -9035780000.0 -9035790000.0 -9037090000.0 -9035810000.0 -9888550000.0 -9035840000.0 -11614900000.0 -9035890000.0 -13833200000.0 -9035970000.0 -16741800000.0 -9036110000.0 -18744000000.0 -9038030000.0 -18601100000.0 -13387000000.0 -25462400000.0 -27726900000.0 -39159800000.0 -37287500000.0 -42828400000.0 -38688000000.0 -32095300000.0 -22558200000.0 -24159500000.0 -30495300000.0 -34216900000.0 -29893900000.0 -28926400000.0 -32904200000.0 -29444300000.0 -23178300000.0 -21459300000.0 -31152700000.0 -37031600000.0 -39839200000.0 -34268400000.0 -36669800000.0 -25457800000.0 -23850600000.0 -12486400000.0 -17907100000.0 -9036800000.0 -17841500000.0 -9036110000.0 -15794300000.0 -9035970000.0 -13068800000.0 -9035890000.0 -11042400000.0 -9035840000.0 -9650090000.0 -9035810000.0 -9036260000.0 -9035790000.0 -9035780000.0 -9035770000.0 -9035770000.0 -9035770000.0 -9035760000.0 -9035760000.0 -9035760000.0 -9035760000.0 -9035750000.0 -9035750000.0 -9035860000.0 -9035750000.0 -9035750000.0 -9035760000.0 -9035760000.0 -9035760000.0 -9035760000.0 -9035770000.0 -9035770000.0 -9035770000.0 -9035780000.0 -9035790000.0 -9036260000.0 -9035810000.0 -9650090000.0 -9035840000.0 -11042400000.0 -9035890000.0 -13068800000.0 -9035970000.0 -15794300000.0 -9036110000.0 -17841500000.0 -9036800000.0 -17907100000.0 -12486400000.0 -23850600000.0 -25457800000.0 -36669800000.0 -34268400000.0 -39839200000.0 -37031600000.0 -31152700000.0 -21459300000.0 -23178300000.0 -29444300000.0 -32904200000.0 -28926400000.0 -27971900000.0 -31564800000.0 -28396100000.0 -22235900000.0 -20421200000.0 -30148600000.0 -35321900000.0 -37142000000.0 -31519600000.0 -34323400000.0 -23402600000.0 -22384800000.0 -11754700000.0 -17245700000.0 -9036470000.0 -16989300000.0 -9036100000.0 -14937100000.0 -9035960000.0 -12403900000.0 -9035880000.0 -10582800000.0 -9035830000.0 -9472520000.0 -9035810000.0 -9035950000.0 -9035790000.0 -9035780000.0 -9035770000.0 -9035770000.0 -9035770000.0 -9035760000.0 -9035760000.0 -9035760000.0 -9035760000.0 -9035750000.0 -9035750000.0 -9035820000.0 -9035750000.0 -9035750000.0 -9035760000.0 -9035760000.0 -9035760000.0 -9035760000.0 -9035770000.0 -9035770000.0 -9035770000.0 -9035780000.0 -9035790000.0 -9035950000.0 -9035810000.0 -9472520000.0 -9035830000.0 -10582800000.0 -9035880000.0 -12403900000.0 -9035960000.0 -14937100000.0 -9036100000.0 -16989300000.0 -9036470000.0 -17245700000.0 -11754700000.0 -22384800000.0 -23402600000.0 -34323400000.0 -31519600000.0 -37142000000.0 -35321900000.0 -30148600000.0 -20421200000.0 -22235900000.0 -28396100000.0 -31564800000.0 -27971900000.0 -27024200000.0 -30214400000.0 -27350600000.0 -21333800000.0 -19445000000.0 -29096900000.0 -33586200000.0 -34697200000.0 -29023500000.0 -32118800000.0 -21553500000.0 -21053000000.0 -11164500000.0 -16612800000.0 -9036380000.0 -16190000000.0 -9036100000.0 -14165800000.0 -9035960000.0 -11830100000.0 -9035880000.0 -10217100000.0 -9035830000.0 -9342120000.0 -9035800000.0 -9035840000.0 -9035790000.0 -9035780000.0 -9035770000.0 -9035770000.0 -9035770000.0 -9035760000.0 -9035760000.0 -9035760000.0 -9035760000.0 -9035750000.0 -9035750000.0 -9035790000.0 -9035750000.0 -9035750000.0 -9035760000.0 -9035760000.0 -9035760000.0 -9035760000.0 -9035770000.0 -9035770000.0 -9035770000.0 -9035780000.0 -9035790000.0 -9035840000.0 -9035800000.0 -9342120000.0 -9035830000.0 -10217100000.0 -9035880000.0 -11830100000.0 -9035960000.0 -14165800000.0 -9036100000.0 -16190000000.0 -9036380000.0 -16612800000.0 -11164500000.0 -21053000000.0 -21553500000.0 -32118800000.0 -29023500000.0 -34697200000.0 -33586200000.0 -29096900000.0 -19445000000.0 -21333800000.0 -27350600000.0 -30214400000.0 -27024200000.0 -26078300000.0 -28865300000.0 -26307800000.0 -20471800000.0 -18530600000.0 -28009700000.0 -31847600000.0 -32469000000.0 -26761500000.0 -30051800000.0 -19899700000.0 -19843100000.0 -10691800000.0 -16006500000.0 -9036350000.0 -15445000000.0 -9036090000.0 -13475300000.0 -9035950000.0 -11338500000.0 -9035880000.0 -9929130000.0 -9035830000.0 -9247690000.0 -9035800000.0 -9035810000.0 -9035790000.0 -9035780000.0 -9035770000.0 -9035770000.0 -9035770000.0 -9035760000.0 -9035760000.0 -9035760000.0 -9035760000.0 -9035750000.0 -9035750000.0 -9035780000.0 -9035750000.0 -9035750000.0 -9035760000.0 -9035760000.0 -9035760000.0 -9035760000.0 -9035770000.0 -9035770000.0 -9035770000.0 -9035780000.0 -9035790000.0 -9035810000.0 -9035800000.0 -9247690000.0 -9035830000.0 -9929130000.0 -9035880000.0 -11338500000.0 -9035950000.0 -13475300000.0 -9036090000.0 -15445000000.0 -9036350000.0 -16006500000.0 -10691800000.0 -19843100000.0 -19899700000.0 -30051800000.0 -26761500000.0 -32469000000.0 -31847600000.0 -28009700000.0 -18530600000.0 -20471800000.0 -26307800000.0 -28865300000.0 -26078300000.0 -25130800000.0 -27527400000.0 -25268200000.0 -19648500000.0 -17676800000.0 -26897800000.0 -30125100000.0 -30425900000.0 -24715100000.0 -28117400000.0 -18428300000.0 -18743300000.0 -10315700000.0 -15426000000.0 -9036330000.0 -14754400000.0 -9036080000.0 -12860300000.0 -9035950000.0 -10920700000.0 -9035870000.0 -9704580000.0 -9035830000.0 -9180290000.0 -9035800000.0 -9035790000.0 -9035780000.0 -9035780000.0 -9035770000.0 -9035770000.0 -9035760000.0 -9035760000.0 -9035760000.0 -9035760000.0 -9035760000.0 -9035750000.0 -9035750000.0 -9035770000.0 -9035750000.0 -9035750000.0 -9035760000.0 -9035760000.0 -9035760000.0 -9035760000.0 -9035760000.0 -9035770000.0 -9035770000.0 -9035780000.0 -9035780000.0 -9035790000.0 -9035800000.0 -9180290000.0 -9035830000.0 -9704580000.0 -9035870000.0 -10920700000.0 -9035950000.0 -12860300000.0 -9036080000.0 -14754400000.0 -9036330000.0 -15426000000.0 -10315700000.0 -18743300000.0 -18428300000.0 -28117400000.0 -24715100000.0 -30425900000.0 -30125100000.0 -26897800000.0 -17676800000.0 -19648500000.0 -25268200000.0 -27527400000.0 -25130800000.0 -24179300000.0 -26207900000.0 -24232500000.0 -18861300000.0 -16881700000.0 -25770200000.0 -28434400000.0 -28540500000.0 -22866300000.0 -26309200000.0 -17125200000.0 -17742300000.0 -10018300000.0 -14871200000.0 -9036310000.0 -14117400000.0 -9036070000.0 -12315400000.0 -9035940000.0 -10568100000.0 -9035870000.0 -9531320000.0 -9035830000.0 -9132890000.0 -9035800000.0 -9035790000.0 -9035780000.0 -9035780000.0 -9035770000.0 -9035770000.0 -9035760000.0 -9035760000.0 -9035760000.0 -9035760000.0 -9035760000.0 -9035750000.0 -9035750000.0 -9035760000.0 -9035750000.0 -9035750000.0 -9035760000.0 -9035760000.0 -9035760000.0 -9035760000.0 -9035760000.0 -9035770000.0 -9035770000.0 -9035780000.0 -9035780000.0 -9035790000.0 -9035800000.0 -9132890000.0 -9035830000.0 -9531320000.0 -9035870000.0 -10568100000.0 -9035940000.0 -12315400000.0 -9036070000.0 -14117400000.0 -9036310000.0 -14871200000.0 -10018300000.0 -17742300000.0 -17125200000.0 -26309200000.0 -22866300000.0 -28540500000.0 -28434400000.0 -25770200000.0 -16881700000.0 -18861300000.0 -24232500000.0 -26207900000.0 -24179300000.0 -23222600000.0 -24912000000.0 -23201400000.0 -18107500000.0 -16142300000.0 -24634600000.0 -26787400000.0 -26789600000.0 -21198100000.0 -24620600000.0 -15976100000.0 -16829500000.0 -9784700000.0 -14341900000.0 -9036290000.0 -13532400000.0 -9036060000.0 -11834900000.0 -9035930000.0 -10272900000.0 -9035860000.0 -9399050000.0 -9035820000.0 -9100050000.0 -9035800000.0 -9035790000.0 -9035780000.0 -9035780000.0 -9035770000.0 -9035770000.0 -9035760000.0 -9035760000.0 -9035760000.0 -9035760000.0 -9035750000.0 -9035750000.0 -9035750000.0 -9035760000.0 -9035750000.0 -9035750000.0 -9035750000.0 -9035760000.0 -9035760000.0 -9035760000.0 -9035760000.0 -9035770000.0 -9035770000.0 -9035780000.0 -9035780000.0 -9035790000.0 -9035800000.0 -9100050000.0 -9035820000.0 -9399050000.0 -9035860000.0 -10272900000.0 -9035930000.0 -11834900000.0 -9036060000.0 -13532400000.0 -9036290000.0 -14341900000.0 -9784700000.0 -16829500000.0 -15976100000.0 -24620600000.0 -21198100000.0 -26789600000.0 -26787400000.0 -24634600000.0 -16142300000.0 -18107500000.0 -23201400000.0 -24912000000.0 -23222600000.0 -22260300000.0 -23643200000.0 -22175700000.0 -17383500000.0 -15454700000.0 -23497000000.0 -25193000000.0 -25153800000.0 -19694400000.0 -23044800000.0 -14966400000.0 -15995400000.0 -9602330000.0 -13838200000.0 -9036270000.0 -12997300000.0 -9036040000.0 -11413200000.0 -9035920000.0 -10027600000.0 -9035860000.0 -9299190000.0 -9035820000.0 -9077640000.0 -9035800000.0 -9035790000.0 -9035780000.0 -9035770000.0 -9035770000.0 -9035770000.0 -9035760000.0 -9035760000.0 -9035760000.0 -9035760000.0 -9035750000.0 -9035750000.0 -9035750000.0 -9035760000.0 -9035750000.0 -9035750000.0 -9035750000.0 -9035760000.0 -9035760000.0 -9035760000.0 -9035760000.0 -9035770000.0 -9035770000.0 -9035770000.0 -9035780000.0 -9035790000.0 -9035800000.0 -9077640000.0 -9035820000.0 -9299190000.0 -9035860000.0 -10027600000.0 -9035920000.0 -11413200000.0 -9036040000.0 -12997300000.0 -9036270000.0 -13838200000.0 -9602330000.0 -15995400000.0 -14966400000.0 -23044800000.0 -19694400000.0 -25153800000.0 -25193000000.0 -23497000000.0 -15454700000.0 -17383500000.0 -22175700000.0 -23643200000.0 -22260300000.0 -21292400000.0 -22403600000.0 -21156100000.0 -16685900000.0 -14814600000.0 -22362300000.0 -23657300000.0 -23617100000.0 -18340200000.0 -21574500000.0 -14082200000.0 -15231300000.0 -9460960000.0 -13359800000.0 -9036240000.0 -12509300000.0 -9036030000.0 -11044900000.0 -9035910000.0 -9825260000.0 -9035850000.0 -9224660000.0 -9035820000.0 -9062610000.0 -9035790000.0 -9035780000.0 -9035780000.0 -9035770000.0 -9035770000.0 -9035770000.0 -9035760000.0 -9035760000.0 -9035760000.0 -9035760000.0 -9035750000.0 -9035750000.0 -9035750000.0 -9035750000.0 -9035750000.0 -9035750000.0 -9035750000.0 -9035760000.0 -9035760000.0 -9035760000.0 -9035760000.0 -9035770000.0 -9035770000.0 -9035770000.0 -9035780000.0 -9035780000.0 -9035790000.0 -9062610000.0 -9035820000.0 -9224660000.0 -9035850000.0 -9825260000.0 -9035910000.0 -11044900000.0 -9036030000.0 -12509300000.0 -9036240000.0 -13359800000.0 -9460960000.0 -15231300000.0 -14082200000.0 -21574500000.0 -18340200000.0 -23617100000.0 -23657300000.0 -22362300000.0 -14814600000.0 -16685900000.0 -21156100000.0 -22403600000.0 -21292400000.0 -20319500000.0 -21194300000.0 -20143300000.0 -16011000000.0 -14217200000.0 -21234100000.0 -22183900000.0 -22166200000.0 -17121300000.0 -20202500000.0 -13310100000.0 -14529300000.0 -9352180000.0 -12906300000.0 -9036210000.0 -12065600000.0 -9036010000.0 -10724600000.0 -9035900000.0 -9659650000.0 -9035850000.0 -9169670000.0 -9035810000.0 -9052680000.0 -9035790000.0 -9035780000.0 -9035780000.0 -9035770000.0 -9035770000.0 -9035760000.0 -9035760000.0 -9035760000.0 -9035760000.0 -9035760000.0 -9035750000.0 -9035750000.0 -9035750000.0 -9035750000.0 -9035750000.0 -9035750000.0 -9035750000.0 -9035760000.0 -9035760000.0 -9035760000.0 -9035760000.0 -9035760000.0 -9035770000.0 -9035770000.0 -9035780000.0 -9035780000.0 -9035790000.0 -9052680000.0 -9035810000.0 -9169670000.0 -9035850000.0 -9659650000.0 -9035900000.0 -10724600000.0 -9036010000.0 -12065600000.0 -9036210000.0 -12906300000.0 -9352180000.0 -14529300000.0 -13310100000.0 -20202500000.0 -17121300000.0 -22166200000.0 -22183900000.0 -21234100000.0 -14217200000.0 -16011000000.0 -20143300000.0 -21194300000.0 -20319500000.0 -19342300000.0 -20015200000.0 -19137800000.0 -15355400000.0 -13657600000.0 -20115100000.0 -20774300000.0 -20790000000.0 -16024600000.0 -18921300000.0 -12637500000.0 -13882200000.0 -9269110000.0 -12476800000.0 -9036180000.0 -11663000000.0 -9035990000.0 -10447100000.0 -9035890000.0 -9525100000.0 -9035840000.0 -9129580000.0 -9035810000.0 -9046230000.0 -9035790000.0 -9035780000.0 -9035770000.0 -9035770000.0 -9035770000.0 -9035760000.0 -9035760000.0 -9035760000.0 -9035760000.0 -9035760000.0 -9035750000.0 -9035750000.0 -9035750000.0 -9035750000.0 -9035750000.0 -9035750000.0 -9035750000.0 -9035760000.0 -9035760000.0 -9035760000.0 -9035760000.0 -9035760000.0 -9035770000.0 -9035770000.0 -9035770000.0 -9035780000.0 -9035790000.0 -9046230000.0 -9035810000.0 -9129580000.0 -9035840000.0 -9525100000.0 -9035890000.0 -10447100000.0 -9035990000.0 -11663000000.0 -9036180000.0 -12476800000.0 -9269110000.0 -13882200000.0 -12637500000.0 -18921300000.0 -16024600000.0 -20790000000.0 -20774300000.0 -20115100000.0 -13657600000.0 -15355400000.0 -19137800000.0 -20015200000.0 -19342300000.0 -18361700000.0 -18865600000.0 -18140000000.0 -14715800000.0 -13131100000.0 -19006900000.0 -19428200000.0 -19479300000.0 -15037600000.0 -17723400000.0 -12052600000.0 -13283500000.0 -9206220000.0 -12070400000.0 -9036140000.0 -11298000000.0 -9035970000.0 -10207500000.0 -9035880000.0 -9416570000.0 -9035830000.0 -9100710000.0 -9035800000.0 -9042130000.0 -9035780000.0 -9035780000.0 -9035770000.0 -9035770000.0 -9035770000.0 -9035760000.0 -9035760000.0 -9035760000.0 -9035760000.0 -9035760000.0 -9035750000.0 -9035750000.0 -9035750000.0 -9035750000.0 -9035750000.0 -9035750000.0 -9035750000.0 -9035760000.0 -9035760000.0 -9035760000.0 -9035760000.0 -9035760000.0 -9035770000.0 -9035770000.0 -9035770000.0 -9035780000.0 -9035780000.0 -9042130000.0 -9035800000.0 -9100710000.0 -9035830000.0 -9416570000.0 -9035880000.0 -10207500000.0 -9035970000.0 -11298000000.0 -9036140000.0 -12070400000.0 -9206220000.0 -13283500000.0 -12052600000.0 -17723400000.0 -15037600000.0 -19479300000.0 -19428200000.0 -19006900000.0 -13131100000.0 -14715800000.0 -18140000000.0 -18865600000.0 -18361700000.0 -17378400000.0 -17744100000.0 -17150100000.0 -14089300000.0 -12632800000.0 -17910500000.0 -18143600000.0 -18226000000.0 -14148400000.0 -16601100000.0 -11544400000.0 -12727300000.0 -9159030000.0 -11685900000.0 -9036110000.0 -10967300000.0 -9035950000.0 -10001200000.0 -9035870000.0 -9329650000.0 -9035820000.0 -9080170000.0 -9035800000.0 -9039560000.0 -9035780000.0 -9035780000.0 -9035770000.0 -9035770000.0 -9035760000.0 -9035760000.0 -9035760000.0 -9035760000.0 -9035760000.0 -9035760000.0 -9035750000.0 -9035750000.0 -9035750000.0 -9035750000.0 -9035750000.0 -9035750000.0 -9035750000.0 -9035760000.0 -9035760000.0 -9035760000.0 -9035760000.0 -9035760000.0 -9035760000.0 -9035770000.0 -9035770000.0 -9035780000.0 -9035780000.0 -9039560000.0 -9035800000.0 -9080170000.0 -9035820000.0 -9329650000.0 -9035870000.0 -10001200000.0 -9035950000.0 -10967300000.0 -9036110000.0 -11685900000.0 -9159030000.0 -12727300000.0 -11544400000.0 -16601100000.0 -14148400000.0 -18226000000.0 -18143600000.0 -17910500000.0 -12632800000.0 -14089300000.0 -17150100000.0 -17744100000.0 -17378400000.0 -16393200000.0 -16648800000.0 -16167900000.0 -13473100000.0 -12158500000.0 -16826200000.0 -16917200000.0 -17023100000.0 -13345500000.0 -15546700000.0 -11102400000.0 -12208200000.0 -9123930000.0 -11321600000.0 -9036070000.0 -10667200000.0 -9035930000.0 -9823780000.0 -9035860000.0 -9260460000.0 -9035820000.0 -9065740000.0 -9035790000.0 -9037980000.0 -9035780000.0 -9035770000.0 -9035770000.0 -9035770000.0 -9035760000.0 -9035760000.0 -9035760000.0 -9035760000.0 -9035760000.0 -9035750000.0 -9035750000.0 -9035750000.0 -9035750000.0 -9035750000.0 -9035750000.0 -9035750000.0 -9035750000.0 -9035750000.0 -9035760000.0 -9035760000.0 -9035760000.0 -9035760000.0 -9035760000.0 -9035770000.0 -9035770000.0 -9035770000.0 -9035780000.0 -9037980000.0 -9035790000.0 -9065740000.0 -9035820000.0 -9260460000.0 -9035860000.0 -9823780000.0 -9035930000.0 -10667200000.0 -9036070000.0 -11321600000.0 -9123930000.0 -12208200000.0 -11102400000.0 -15546700000.0 -13345500000.0 -17023100000.0 -16917200000.0 -16826200000.0 -12158500000.0 -13473100000.0 -16167900000.0 -16648800000.0 -16393200000.0 -15406900000.0 -15577300000.0 -15193300000.0 -12865100000.0 -11704100000.0 -15753700000.0 -15744500000.0 -15864100000.0 -12618200000.0 -14552400000.0 -10717200000.0 -11720900000.0 -9098070000.0 -10975800000.0 -9036030000.0 -10394100000.0 -9035910000.0 -9671080000.0 -9035840000.0 -9205670000.0 -9035810000.0 -9055730000.0 -9035790000.0 -9037030000.0 -9035770000.0 -9035770000.0 -9035770000.0 -9035760000.0 -9035760000.0 -9035760000.0 -9035760000.0 -9035760000.0 -9035760000.0 -9035750000.0 -9035750000.0 -9035750000.0 -9035750000.0 -9035750000.0 -9035750000.0 -9035750000.0 -9035750000.0 -9035750000.0 -9035760000.0 -9035760000.0 -9035760000.0 -9035760000.0 -9035760000.0 -9035760000.0 -9035770000.0 -9035770000.0 -9035770000.0 -9037030000.0 -9035790000.0 -9055730000.0 -9035810000.0 -9205670000.0 -9035840000.0 -9671080000.0 -9035910000.0 -10394100000.0 -9036030000.0 -10975800000.0 -9098070000.0 -11720900000.0 -10717200000.0 -14552400000.0 -12618200000.0 -15864100000.0 -15744500000.0 -15753700000.0 -11704100000.0 -12865100000.0 -15193300000.0 -15577300000.0 -15406900000.0 -14419900000.0 -14527000000.0 -14225800000.0 -12263400000.0 -11266000000.0 -14692300000.0 -14620000000.0 -14742800000.0 -11955600000.0 -13610100000.0 -10379900000.0 -11260700000.0 -9079180000.0 -10646400000.0 -9035990000.0 -10144500000.0 -9035880000.0 -9539220000.0 -9035830000.0 -9162400000.0 -9035800000.0 -9048870000.0 -9035780000.0 -9036480000.0 -9035770000.0 -9035770000.0 -9035760000.0 -9035760000.0 -9035760000.0 -9035760000.0 -9035760000.0 -9035760000.0 -9035760000.0 -9035750000.0 -9035750000.0 -9035750000.0 -9035750000.0 -9035750000.0 -9035750000.0 -9035750000.0 -9035750000.0 -9035750000.0 -9035760000.0 -9035760000.0 -9035760000.0 -9035760000.0 -9035760000.0 -9035760000.0 -9035760000.0 -9035770000.0 -9035770000.0 -9036480000.0 -9035780000.0 -9048870000.0 -9035800000.0 -9162400000.0 -9035830000.0 -9539220000.0 -9035880000.0 -10144500000.0 -9035990000.0 -10646400000.0 -9079180000.0 -11260700000.0 -10379900000.0 -13610100000.0 -11955600000.0 -14742800000.0 -14620000000.0 -14692300000.0 -11266000000.0 -12263400000.0 -14225800000.0 -14527000000.0 -14419900000.0 -13432600000.0 -13495000000.0 -13264800000.0 -11666400000.0 -10840900000.0 -13640900000.0 -13537500000.0 -13653400000.0 -11347500000.0 -12711900000.0 -10081900000.0 -10823000000.0 -9065440000.0 -10331300000.0 -9035950000.0 -9914570000.0 -9035860000.0 -9424540000.0 -9035820000.0 -9128180000.0 -9035790000.0 -9044210000.0 -9035780000.0 -9036150000.0 -9035770000.0 -9035770000.0 -9035760000.0 -9035760000.0 -9035760000.0 -9035760000.0 -9035760000.0 -9035760000.0 -9035750000.0 -9035750000.0 -9035750000.0 -9035750000.0 -9035750000.0 -9035750000.0 -9035750000.0 -9035750000.0 -9035750000.0 -9035750000.0 -9035750000.0 -9035760000.0 -9035760000.0 -9035760000.0 -9035760000.0 -9035760000.0 -9035760000.0 -9035770000.0 -9035770000.0 -9036150000.0 -9035780000.0 -9044210000.0 -9035790000.0 -9128180000.0 -9035820000.0 -9424540000.0 -9035860000.0 -9914570000.0 -9035950000.0 -10331300000.0 -9065440000.0 -10823000000.0 -10081900000.0 -12711900000.0 -11347500000.0 -13653400000.0 -13537500000.0 -13640900000.0 -10840900000.0 -11666400000.0 -13264800000.0 -13495000000.0 -13432600000.0 -12445200000.0 -12478200000.0 -12309300000.0 -11072700000.0 -10425900000.0 -12597900000.0 -12490100000.0 -12590000000.0 -10783600000.0 -11849700000.0 -9815600000.0 -10403400000.0 -9055460000.0 -10028100000.0 -9035900000.0 -9700820000.0 -9035840000.0 -9323590000.0 -9035800000.0 -9100880000.0 -9035780000.0 -9041070000.0 -9035770000.0 -9035970000.0 -9035760000.0 -9035760000.0 -9035760000.0 -9035760000.0 -9035760000.0 -9035760000.0 -9035760000.0 -9035760000.0 -9035750000.0 -9035750000.0 -9035750000.0 -9035750000.0 -9035750000.0 -9035750000.0 -9035750000.0 -9035750000.0 -9035750000.0 -9035750000.0 -9035750000.0 -9035760000.0 -9035760000.0 -9035760000.0 -9035760000.0 -9035760000.0 -9035760000.0 -9035760000.0 -9035760000.0 -9035970000.0 -9035770000.0 -9041070000.0 -9035780000.0 -9100880000.0 -9035800000.0 -9323590000.0 -9035840000.0 -9700820000.0 -9035900000.0 -10028100000.0 -9055460000.0 -10403400000.0 -9815600000.0 -11849700000.0 -10783600000.0 -12590000000.0 -12490100000.0 -12597900000.0 -10425900000.0 -11072700000.0 -12309300000.0 -12478200000.0 -12445200000.0 -11458000000.0 -11473200000.0 -11358300000.0 -10481500000.0 -10018400000.0 -11561700000.0 -11470400000.0 -11546900000.0 -10253900000.0 -11015600000.0 -9573310000.0 -9997820000.0 -9048090000.0 -9734170000.0 -9035860000.0 -9499580000.0 -9035810000.0 -9233100000.0 -9035790000.0 -9078660000.0 -9035770000.0 -9038930000.0 -9035770000.0 -9035870000.0 -9035760000.0 -9035760000.0 -9035760000.0 -9035760000.0 -9035760000.0 -9035760000.0 -9035750000.0 -9035750000.0 -9035750000.0 -9035750000.0 -9035750000.0 -9035750000.0 -9035750000.0 -9035750000.0 -9035750000.0 -9035750000.0 -9035750000.0 -9035750000.0 -9035750000.0 -9035750000.0 -9035750000.0 -9035760000.0 -9035760000.0 -9035760000.0 -9035760000.0 -9035760000.0 -9035760000.0 -9035870000.0 -9035770000.0 -9038930000.0 -9035770000.0 -9078660000.0 -9035790000.0 -9233100000.0 -9035810000.0 -9499580000.0 -9035860000.0 -9734170000.0 -9048090000.0 -9997820000.0 -9573310000.0 -11015600000.0 -10253900000.0 -11546900000.0 -11470400000.0 -11561700000.0 -10018400000.0 -10481500000.0 -11358300000.0 -11473200000.0 -11458000000.0 -10470800000.0 -10476700000.0 -10410500000.0 -9891760000.0 -9616010000.0 -10530500000.0 -10470600000.0 -10518100000.0 -9748340000.0 -10201200000.0 -9347910000.0 -9602050000.0 -9042450000.0 -9446990000.0 -9035820000.0 -9307200000.0 -9035790000.0 -9149930000.0 -9035770000.0 -9059900000.0 -9035770000.0 -9037410000.0 -9035760000.0 -9035810000.0 -9035760000.0 -9035760000.0 -9035760000.0 -9035760000.0 -9035750000.0 -9035750000.0 -9035750000.0 -9035750000.0 -9035750000.0 -9035750000.0 -9035750000.0 -9035750000.0 -9035750000.0 -9035750000.0 -9035750000.0 -9035750000.0 -9035750000.0 -9035750000.0 -9035750000.0 -9035750000.0 -9035750000.0 -9035750000.0 -9035750000.0 -9035760000.0 -9035760000.0 -9035760000.0 -9035760000.0 -9035810000.0 -9035760000.0 -9037410000.0 -9035770000.0 -9059900000.0 -9035770000.0 -9149930000.0 -9035790000.0 -9307200000.0 -9035820000.0 -9446990000.0 -9042450000.0 -9602050000.0 -9347910000.0 -10201200000.0 -9748340000.0 -10518100000.0 -10470600000.0 -10530500000.0 -9616010000.0 -9891760000.0 -10410500000.0 -10476700000.0 -10470800000.0 -9483690000.0 -9485130000.0 -9464730000.0 -9302880000.0 -9216640000.0 -9502080000.0 -9482730000.0 -9497790000.0 -9257070000.0 -9398630000.0 -9132420000.0 -9212070000.0 -9037770000.0 -9163800000.0 -9035770000.0 -9120070000.0 -9035760000.0 -9071060000.0 -9035760000.0 -9043140000.0 -9035760000.0 -9036240000.0 -9035760000.0 -9035770000.0 -9035750000.0 -9035750000.0 -9035750000.0 -9035750000.0 -9035750000.0 -9035750000.0 -9035750000.0 -9035750000.0 -9035750000.0 -9035750000.0 -9035750000.0 -9035750000.0 -9035750000.0 -9035750000.0 -9035750000.0 -9035750000.0 -9035750000.0 -9035750000.0 -9035750000.0 -9035750000.0 -9035750000.0 -9035750000.0 -9035750000.0 -9035750000.0 -9035750000.0 -9035750000.0 -9035750000.0 -9035770000.0 -9035760000.0 -9036240000.0 -9035760000.0 -9043140000.0 -9035760000.0 -9071060000.0 -9035760000.0 -9120070000.0 -9035770000.0 -9163800000.0 -9037770000.0 -9212070000.0 -9132420000.0 -9398630000.0 -9257070000.0 -9497790000.0 -9482730000.0 -9502080000.0 -9216640000.0 -9302880000.0 -9464730000.0 -9485130000.0 -9483690000.0 
SCALARS Shear_Stress float 1
LOOKUP_TABLE default
68371900000.0 26913200000.0 26913200000.0 68371900000.0 56688000000.0 399452000000.0 167521000000.0 126467000000.0 24150000000.0 37261100000.0 9005910000.0 52982100000.0 11695300000.0 14091200000.0 42570300000.0 53401900000.0 65271900000.0 74453300000.0 82305400000.0 88879500000.0 94206800000.0 98228000000.0 101227000000.0 102879000000.0 103537000000.0 102879000000.0 101227000000.0 98228000000.0 94206800000.0 88879500000.0 82305400000.0 74453300000.0 65271900000.0 53401900000.0 42570300000.0 14091200000.0 11695300000.0 52982100000.0 9005910000.0 37261100000.0 24150000000.0 126467000000.0 167521000000.0 399452000000.0 56688000000.0 188904000000.0 169196000000.0 350735000000.0 296380000000.0 31447400000.0 77668400000.0 49240800000.0 49240800000.0 77668400000.0 31447400000.0 296380000000.0 350735000000.0 169196000000.0 188904000000.0 22435300000.0 327880000000.0 207486000000.0 216783000000.0 545692000000.0 85345900000.0 3422560000.0 51424600000.0 89925000000.0 35849100000.0 3983400000.0 34243500000.0 32196300000.0 39900500000.0 45021000000.0 49726800000.0 53557200000.0 56589600000.0 58627800000.0 60425400000.0 61127400000.0 61677000000.0 61127400000.0 60425400000.0 58627800000.0 56589600000.0 53557200000.0 49726800000.0 45021000000.0 39900500000.0 32196300000.0 34243500000.0 3983400000.0 35849100000.0 89925000000.0 51424600000.0 3422560000.0 85345900000.0 545692000000.0 216783000000.0 207486000000.0 327880000000.0 22435300000.0 99266800000.0 283044000000.0 116812000000.0 11522700000.0 38940200000.0 393416000000.0 288175000000.0 187685000000.0 25659800000.0 47509700000.0 110854000000.0 35339000000.0 94387600000.0 85848300000.0 91879000000.0 91898100000.0 92471700000.0 94697600000.0 98119200000.0 101135000000.0 103974000000.0 105152000000.0 106062000000.0 105152000000.0 103974000000.0 101135000000.0 98119200000.0 94697600000.0 92471700000.0 91898100000.0 91879000000.0 85848300000.0 94387600000.0 35339000000.0 110854000000.0 47509700000.0 25659800000.0 187685000000.0 288175000000.0 393416000000.0 38940200000.0 11522700000.0 116812000000.0 283044000000.0 99266800000.0 120895000000.0 417429000000.0 384319000000.0 118406000000.0 640184000000.0 15654100000.0 164187000000.0 103425000000.0 118235000000.0 118235000000.0 103425000000.0 164187000000.0 15654100000.0 640184000000.0 118406000000.0 384319000000.0 417429000000.0 120895000000.0 108047000000.0 410561000000.0 383780000000.0 13066400000.0 224108000000.0 752214000000.0 53997900000.0 186281000000.0 193969000000.0 404320000.0 71222700000.0 36061200000.0 140078000000.0 57793300000.0 153202000000.0 147026000000.0 156794000000.0 157375000000.0 157013000000.0 155538000000.0 153906000000.0 152152000000.0 150922000000.0 149039000000.0 148918000000.0 149039000000.0 150922000000.0 152152000000.0 153906000000.0 155538000000.0 157013000000.0 157375000000.0 156794000000.0 147026000000.0 153202000000.0 57793300000.0 140078000000.0 36061200000.0 71222700000.0 404318000.0 193969000000.0 186281000000.0 53997900000.0 752214000000.0 224108000000.0 13066400000.0 383780000000.0 410561000000.0 108047000000.0 126740000000.0 114301000000.0 335505000000.0 449622000000.0 105873000000.0 2600650000.0 598659000000.0 147408000000.0 625769000000.0 182038000000.0 294112000000.0 204668000000.0 87511600000.0 87511600000.0 204668000000.0 294112000000.0 182038000000.0 625769000000.0 147408000000.0 598659000000.0 2600650000.0 105873000000.0 449622000000.0 335505000000.0 114301000000.0 126740000000.0 159069000000.0 351269000000.0 449422000000.0 479529000000.0 393929000000.0 202454000000.0 305692000000.0 553673000000.0 471972000000.0 530138000000.0 454648000000.0 278902000000.0 279371000000.0 205636000000.0 105703000000.0 211905000000.0 200179000000.0 210652000000.0 208214000000.0 204228000000.0 199873000000.0 195599000000.0 191645000000.0 189308000000.0 187574000000.0 187745000000.0 187574000000.0 189308000000.0 191645000000.0 195599000000.0 199873000000.0 204228000000.0 208214000000.0 210652000000.0 200179000000.0 211905000000.0 105703000000.0 205636000000.0 279371000000.0 278902000000.0 454648000000.0 530138000000.0 471972000000.0 553673000000.0 305692000000.0 202454000000.0 393929000000.0 479529000000.0 449422000000.0 351269000000.0 159069000000.0 191182000000.0 376852000000.0 394491000000.0 275853000000.0 546879000000.0 429715000000.0 7688840000.0 277509000000.0 470584000000.0 420729000000.0 421926000000.0 300482000000.0 213823000000.0 201779000000.0 238935000000.0 118995000000.0 225592000000.0 202917000000.0 199642000000.0 186552000000.0 182088000000.0 182604000000.0 184081000000.0 185114000000.0 186025000000.0 186098000000.0 186801000000.0 186098000000.0 186025000000.0 185114000000.0 184081000000.0 182604000000.0 182088000000.0 186552000000.0 199642000000.0 202917000000.0 225592000000.0 118995000000.0 238935000000.0 201779000000.0 213823000000.0 300482000000.0 421926000000.0 420729000000.0 470584000000.0 277509000000.0 7688840000.0 429715000000.0 546879000000.0 275853000000.0 394491000000.0 376852000000.0 191182000000.0 224636000000.0 473888000000.0 430032000000.0 408530000000.0 180808000000.0 474626000000.0 492464000000.0 239017000000.0 46763700000.0 266392000000.0 329007000000.0 466088000000.0 431048000000.0 451613000000.0 385480000000.0 289662000000.0 213800000000.0 213800000000.0 289662000000.0 385480000000.0 451613000000.0 431048000000.0 466088000000.0 329007000000.0 266392000000.0 46763700000.0 239017000000.0 492464000000.0 474626000000.0 180808000000.0 408530000000.0 430032000000.0 473888000000.0 224636000000.0 35669600000.0 272039000000.0 524368000000.0 504930000000.0 517135000000.0 29106400000.0 651265000000.0 347902000000.0 281450000000.0 322374000000.0 530505000000.0 621604000000.0 348033000000.0 488249000000.0 383302000000.0 238810000000.0 240011000000.0 127063000000.0 241934000000.0 216524000000.0 222662000000.0 216001000000.0 210399000000.0 203882000000.0 198297000000.0 195314000000.0 194551000000.0 194377000000.0 195095000000.0 194377000000.0 194551000000.0 195314000000.0 198297000000.0 203882000000.0 210399000000.0 216001000000.0 222662000000.0 216524000000.0 241934000000.0 127063000000.0 240011000000.0 238810000000.0 383302000000.0 488249000000.0 348033000000.0 621604000000.0 530505000000.0 322374000000.0 281450000000.0 347902000000.0 651265000000.0 29106400000.0 517135000000.0 504930000000.0 524368000000.0 272039000000.0 35669600000.0 130387000000.0 637034000000.0 538410000000.0 533936000000.0 449745000000.0 688642000000.0 819174000000.0 691933000000.0 127254000000.0 438900000000.0 242063000000.0 519888000000.0 576608000000.0 505016000000.0 260400000000.0 210577000000.0 222156000000.0 126167000000.0 247264000000.0 228672000000.0 241704000000.0 235848000000.0 230791000000.0 225734000000.0 220870000000.0 216831000000.0 213981000000.0 211857000000.0 211617000000.0 211857000000.0 213981000000.0 216831000000.0 220870000000.0 225734000000.0 230791000000.0 235848000000.0 241704000000.0 228672000000.0 247264000000.0 126167000000.0 222156000000.0 210577000000.0 260400000000.0 505016000000.0 576608000000.0 519888000000.0 242063000000.0 438900000000.0 127254000000.0 691933000000.0 819174000000.0 688642000000.0 449745000000.0 533936000000.0 538410000000.0 637034000000.0 130387000000.0 122715000000.0 126914000000.0 505609000000.0 579278000000.0 449452000000.0 364768000000.0 335967000000.0 952113000000.0 20682400000.0 880135000000.0 371259000000.0 53342400000.0 259872000000.0 112574000000.0 339456000000.0 297535000000.0 192955000000.0 207454000000.0 225138000000.0 225138000000.0 207454000000.0 192955000000.0 297535000000.0 339456000000.0 112574000000.0 259872000000.0 53342400000.0 371259000000.0 880135000000.0 20682400000.0 952113000000.0 335967000000.0 364768000000.0 449452000000.0 579278000000.0 505609000000.0 126914000000.0 122715000000.0 163312000000.0 228274000000.0 240683000000.0 33216600000.0 452286000000.0 206747000000.0 743976000000.0 717655000000.0 454818000000.0 125887000000.0 47630400000.0 67113300000.0 58809700000.0 113730000000.0 405999000000.0 231671000000.0 191368000000.0 204365000000.0 155394000000.0 253249000000.0 232426000000.0 244676000000.0 238319000000.0 235040000000.0 231522000000.0 228302000000.0 224800000000.0 222277000000.0 220847000000.0 220887000000.0 220847000000.0 222277000000.0 224800000000.0 228302000000.0 231522000000.0 235040000000.0 238319000000.0 244676000000.0 232426000000.0 253249000000.0 155394000000.0 204365000000.0 191368000000.0 231671000000.0 405999000000.0 113730000000.0 58809700000.0 67113300000.0 47630400000.0 125887000000.0 454818000000.0 717655000000.0 743976000000.0 206747000000.0 452286000000.0 33216600000.0 240683000000.0 228274000000.0 163312000000.0 100221000000.0 127568000000.0 356540000000.0 151383000000.0 424182000000.0 245837000000.0 394131000000.0 471037000000.0 520672000000.0 316079000000.0 665152000000.0 650533000000.0 205405000000.0 497355000000.0 66678400000.0 123916000000.0 231655000000.0 148753000000.0 198145000000.0 270148000000.0 250970000000.0 260765000000.0 252505000000.0 248022000000.0 240903000000.0 234546000000.0 229473000000.0 226659000000.0 224839000000.0 224420000000.0 224839000000.0 226659000000.0 229473000000.0 234546000000.0 240903000000.0 248022000000.0 252505000000.0 260765000000.0 250970000000.0 270148000000.0 198145000000.0 148753000000.0 231655000000.0 123916000000.0 66678400000.0 497355000000.0 205405000000.0 650533000000.0 665152000000.0 316079000000.0 520672000000.0 471037000000.0 394131000000.0 245837000000.0 424182000000.0 151383000000.0 356540000000.0 127568000000.0 100221000000.0 5175280000.0 227973000000.0 55097600000.0 4451930000.0 474258000000.0 60197900000.0 265332000000.0 461931000000.0 248183000000.0 171435000000.0 466901000000.0 196990000000.0 26623300000.0 81257100000.0 22859200000.0 111182000000.0 13987000000.0 510932000.0 101820000000.0 121948000000.0 121948000000.0 101820000000.0 510933000.0 13987000000.0 111182000000.0 22859200000.0 81257100000.0 26623300000.0 196990000000.0 466901000000.0 171435000000.0 248183000000.0 461931000000.0 265332000000.0 60197900000.0 474258000000.0 4451930000.0 55097600000.0 227973000000.0 5175280000.0 106865000000.0 218821000000.0 122314000000.0 417015000000.0 351662000000.0 59648500000.0 34794200000.0 178013000000.0 203593000000.0 329988000000.0 148673000000.0 54586700000.0 556794000000.0 72235000000.0 136679000000.0 213383000000.0 495462000000.0 438088000000.0 460912000000.0 413397000000.0 167120000000.0 21045600000.0 14214600000.0 190565000000.0 63546200000.0 199841000000.0 243535000000.0 245642000000.0 259006000000.0 260761000000.0 264849000000.0 266341000000.0 267923000000.0 269657000000.0 270625000000.0 270924000000.0 270654000000.0 270924000000.0 270625000000.0 269657000000.0 267923000000.0 266341000000.0 264849000000.0 260761000000.0 259006000000.0 245642000000.0 243535000000.0 199841000000.0 63546200000.0 190565000000.0 14214600000.0 21045600000.0 167120000000.0 413397000000.0 460912000000.0 438088000000.0 495462000000.0 213383000000.0 136679000000.0 72235000000.0 556794000000.0 54586700000.0 148673000000.0 329988000000.0 203593000000.0 178013000000.0 34794200000.0 59648500000.0 351662000000.0 417015000000.0 122314000000.0 218821000000.0 106865000000.0 59712700000.0 4882760000.0 416388000000.0 506061000000.0 508986000000.0 78714400000.0 588904000000.0 425528000000.0 617283000000.0 245066000000.0 111092000000.0 52014200000.0 1094810000.0 241847000000.0 193949000000.0 192572000000.0 26184500000.0 237660000000.0 242600000000.0 266996000000.0 268435000000.0 271070000000.0 270110000000.0 269143000000.0 267213000000.0 266149000000.0 265060000000.0 265138000000.0 264461000000.0 265138000000.0 265060000000.0 266149000000.0 267213000000.0 269143000000.0 270110000000.0 271070000000.0 268435000000.0 266996000000.0 242600000000.0 237660000000.0 26184500000.0 192572000000.0 193949000000.0 241847000000.0 1094810000.0 52014200000.0 111092000000.0 245066000000.0 617283000000.0 425528000000.0 588904000000.0 78714400000.0 508986000000.0 506061000000.0 416388000000.0 4882760000.0 59712700000.0 33931500000.0 170576000000.0 663918000000.0 287016000000.0 348820000000.0 752075000000.0 348731000000.0 166679000000.0 483982000000.0 232842000000.0 272272000000.0 333317000000.0 101487000000.0 65667100000.0 193984000000.0 186880000000.0 204596000000.0 239189000000.0 8809020000.0 14585800000.0 14585800000.0 8809020000.0 239189000000.0 204596000000.0 186880000000.0 193984000000.0 65667100000.0 101487000000.0 333317000000.0 272272000000.0 232842000000.0 483982000000.0 166679000000.0 348731000000.0 752075000000.0 348820000000.0 287016000000.0 663918000000.0 170576000000.0 33931500000.0 29960900000.0 126378000000.0 286360000000.0 4825580000.0 55733300000.0 21474900000.0 449275000000.0 261987000000.0 20144300000.0 867630000000.0 76500100000.0 401643000000.0 79341900000.0 432497000000.0 370216000000.0 393146000000.0 256401000000.0 187408000000.0 9109920000.0 152387000000.0 66549400000.0 125471000000.0 136850000000.0 20993500000.0 94579200000.0 25092600000.0 111026000000.0 1457310000.0 209842000000.0 177981000000.0 200758000000.0 184802000000.0 176812000000.0 165579000000.0 156629000000.0 149052000000.0 143554000000.0 139126000000.0 136796000000.0 135234000000.0 136796000000.0 139126000000.0 143554000000.0 149052000000.0 156629000000.0 165579000000.0 176812000000.0 184802000000.0 200758000000.0 177981000000.0 209842000000.0 1457300000.0 111026000000.0 25092600000.0 94579200000.0 20993500000.0 136850000000.0 125471000000.0 66549400000.0 152387000000.0 9109920000.0 187408000000.0 256401000000.0 393146000000.0 370216000000.0 432497000000.0 79341900000.0 401643000000.0 76500100000.0 867630000000.0 20144300000.0 261987000000.0 449275000000.0 21474900000.0 55733300000.0 4825580000.0 286360000000.0 126378000000.0 29960900000.0 49757200000.0 24545400000.0 146219000000.0 397430000000.0 128631000000.0 415245000000.0 323917000000.0 426811000000.0 413215000000.0 336460000000.0 335323000000.0 221260000000.0 123189000000.0 4829950000.0 28235500000.0 14312000000.0 35162300000.0 121564000000.0 14802800000.0 32482200000.0 8971450000.0 10421500000.0 9035320000.0 9034450000.0 9033570000.0 9032770000.0 9032140000.0 9137540000.0 9035750000.0 9527820000.0 9035750000.0 9137540000.0 9032140000.0 9032770000.0 9033570000.0 9034450000.0 9035320000.0 10421500000.0 8971450000.0 32482200000.0 14802800000.0 121564000000.0 35162300000.0 14312000000.0 28235500000.0 4829950000.0 123189000000.0 221260000000.0 335323000000.0 336460000000.0 413215000000.0 426811000000.0 323917000000.0 415245000000.0 128631000000.0 397430000000.0 146219000000.0 24545400000.0 49757200000.0 180997000000.0 128639000000.0 155396000000.0 424005000000.0 174510000000.0 312839000000.0 296753000000.0 325456000000.0 251333000000.0 241616000000.0 196661000000.0 83081100000.0 38010900000.0 39413500000.0 48774600000.0 48774600000.0 39413500000.0 38010900000.0 83081100000.0 196661000000.0 241616000000.0 251333000000.0 325456000000.0 296753000000.0 312839000000.0 174510000000.0 424005000000.0 155396000000.0 128639000000.0 180997000000.0 22382800000.0 230461000000.0 35980200000.0 162916000000.0 44307600000.0 296449000000.0 363312000000.0 383110000000.0 281575000000.0 254216000000.0 409154000000.0 384745000000.0 369694000000.0 7810240000.0 90672400000.0 214080000000.0 215630000000.0 260709000000.0 236471000000.0 150151000000.0 65285000000.0 44018700000.0 20338700000.0 116604000000.0 84159600000.0 204311000000.0 195995000000.0 207245000000.0 204095000000.0 200696000000.0 197357000000.0 194756000000.0 192990000000.0 191756000000.0 190908000000.0 190428000000.0 189879000000.0 190428000000.0 190908000000.0 191756000000.0 192990000000.0 194756000000.0 197357000000.0 200696000000.0 204095000000.0 207245000000.0 195995000000.0 204311000000.0 84159600000.0 116604000000.0 20338700000.0 44018700000.0 65285000000.0 150151000000.0 236471000000.0 260709000000.0 215630000000.0 214080000000.0 90672400000.0 7810240000.0 369694000000.0 384745000000.0 409154000000.0 254216000000.0 281575000000.0 383110000000.0 363312000000.0 296449000000.0 44307600000.0 162916000000.0 35980200000.0 230461000000.0 22382800000.0 29989900000.0 77243200000.0 220711000000.0 226420000000.0 363263000000.0 357188000000.0 308037000000.0 383635000000.0 375974000000.0 342327000000.0 263317000000.0 228167000000.0 123487000000.0 25497800000.0 60578300000.0 39652400000.0 11001300000.0 81174700000.0 8606910000.0 13974600000.0 9035750000.0 9035750000.0 9035750000.0 9035750000.0 9035750000.0 9035750000.0 9035750000.0 9035750000.0 9035750000.0 9371770000.0 9035750000.0 9035750000.0 9035750000.0 9035750000.0 9035750000.0 9035750000.0 9035750000.0 9035750000.0 9035750000.0 13974600000.0 8606910000.0 81174700000.0 11001300000.0 39652400000.0 60578300000.0 25497800000.0 123487000000.0 228167000000.0 263317000000.0 342327000000.0 375974000000.0 383635000000.0 308037000000.0 357188000000.0 363263000000.0 226420000000.0 220711000000.0 77243200000.0 29989900000.0 189897000000.0 223904000000.0 19794200000.0 87897700000.0 151517000000.0 340689000000.0 272849000000.0 365635000000.0 311784000000.0 306411000000.0 263006000000.0 233194000000.0 214530000000.0 179801000000.0 165493000000.0 157156000000.0 2893260000.0 101431000000.0 75515500000.0 66410100000.0 66410100000.0 75515500000.0 101431000000.0 2893260000.0 157156000000.0 165493000000.0 179801000000.0 214530000000.0 233194000000.0 263006000000.0 306411000000.0 311784000000.0 365635000000.0 272849000000.0 340689000000.0 151517000000.0 87897700000.0 19794200000.0 223904000000.0 189897000000.0 133841000000.0 16048000000.0 22266300000.0 123804000000.0 112870000000.0 97753700000.0 160648000000.0 42136300000.0 6650740000.0 53807100000.0 94298400000.0 130928000000.0 230829000000.0 302148000000.0 179669000000.0 193100000000.0 170996000000.0 154570000000.0 161961000000.0 106916000000.0 220250000000.0 172645000000.0 229991000000.0 220771000000.0 211223000000.0 202085000000.0 193409000000.0 185475000000.0 178523000000.0 172679000000.0 168021000000.0 164623000000.0 162551000000.0 161587000000.0 162551000000.0 164623000000.0 168021000000.0 172679000000.0 178523000000.0 185475000000.0 193409000000.0 202085000000.0 211223000000.0 220771000000.0 229991000000.0 172645000000.0 220250000000.0 106916000000.0 161961000000.0 154570000000.0 170996000000.0 193100000000.0 179669000000.0 302148000000.0 230829000000.0 130928000000.0 94298400000.0 53807100000.0 6650740000.0 42136300000.0 160648000000.0 97753700000.0 112870000000.0 123804000000.0 22266300000.0 16048000000.0 133841000000.0 162265000000.0 275341000000.0 342354000000.0 294513000000.0 236778000000.0 60604800000.0 119040000000.0 119040000000.0 60604800000.0 236778000000.0 294513000000.0 342354000000.0 275341000000.0 162265000000.0 54524400000.0 53269100000.0 36210300000.0 37442600000.0 88740300000.0 65120200000.0 52102300000.0 415207000000.0 386128000000.0 315555000000.0 239678000000.0 166454000000.0 79057100000.0 30926200000.0 2272900000.0 80226400000.0 184931000000.0 79624400000.0 83676600000.0 9312140000.0 49262600000.0 88076600000.0 7295800000.0 54639300000.0 9035750000.0 9035750000.0 9035750000.0 9035750000.0 9035750000.0 9035750000.0 9035750000.0 9035750000.0 9035750000.0 9035750000.0 9035750000.0 9254070000.0 9035750000.0 9035750000.0 9035750000.0 9035750000.0 9035750000.0 9035750000.0 9035750000.0 9035750000.0 9035750000.0 9035750000.0 9035750000.0 54639300000.0 7295800000.0 88076600000.0 49262600000.0 9312140000.0 83676600000.0 79624400000.0 184931000000.0 80226400000.0 2272900000.0 30926200000.0 79057100000.0 166454000000.0 239678000000.0 315555000000.0 386128000000.0 415207000000.0 52102300000.0 65120200000.0 88740300000.0 37442600000.0 36210300000.0 53269100000.0 54524400000.0 53282700000.0 19615100000.0 52143900000.0 68007400000.0 51360900000.0 15109700000.0 25217200000.0 337936000000.0 244206000000.0 179679000000.0 136695000000.0 83657100000.0 36086000000.0 136945000000.0 189182000000.0 270876000000.0 294197000000.0 326961000000.0 284670000000.0 222697000000.0 253798000000.0 163431000000.0 210285000000.0 103947000000.0 178251000000.0 121324000000.0 139426000000.0 120554000000.0 104334000000.0 90597300000.0 79041100000.0 69391400000.0 61462700000.0 55132500000.0 50304600000.0 46903500000.0 44879400000.0 44036700000.0 44879400000.0 46903500000.0 50304600000.0 55132500000.0 61462700000.0 69391400000.0 79041100000.0 90597300000.0 104334000000.0 120554000000.0 139426000000.0 121324000000.0 178251000000.0 103947000000.0 210285000000.0 163431000000.0 253798000000.0 222697000000.0 284670000000.0 326961000000.0 294197000000.0 270876000000.0 189182000000.0 136945000000.0 36086000000.0 83657100000.0 136695000000.0 179679000000.0 244206000000.0 337936000000.0 25217200000.0 15109700000.0 51360900000.0 68007400000.0 52143900000.0 19615100000.0 53282700000.0 52702400000.0 5120370000.0 2764190000.0 24023500000.0 3423380000.0 51377000000.0 77643800000.0 34022100000.0 287885000000.0 221075000000.0 171111000000.0 121113000000.0 148996000000.0 69069200000.0 88667700000.0 55557000000.0 6454710000.0 41739900000.0 5342760000.0 76450300000.0 6018790000.0 82659200000.0 6584650000.0 94338800000.0 8598030000.0 38524600000.0 9045510000.0 9035750000.0 9035750000.0 9035750000.0 9035750000.0 9035750000.0 9035750000.0 9035750000.0 9035750000.0 9035750000.0 9035750000.0 9169790000.0 9035750000.0 9035750000.0 9035750000.0 9035750000.0 9035750000.0 9035750000.0 9035750000.0 9035750000.0 9035750000.0 9035750000.0 9045510000.0 38524600000.0 8598030000.0 94338800000.0 6584650000.0 82659200000.0 6018790000.0 76450300000.0 5342760000.0 41739900000.0 6454710000.0 55557000000.0 88667700000.0 69069200000.0 148996000000.0 121113000000.0 171111000000.0 221075000000.0 287885000000.0 34022100000.0 77643800000.0 51377000000.0 3423380000.0 24023500000.0 2764190000.0 5120370000.0 52702400000.0 47425900000.0 11871900000.0 42054100000.0 59246900000.0 37807200000.0 1773120000.0 8139210000.0 103543000000.0 261342000000.0 144373000000.0 77152100000.0 300078000.0 26480900000.0 117996000000.0 82608900000.0 100568000000.0 107209000000.0 43387200000.0 65604600000.0 10608700000.0 41696000000.0 35605800000.0 26723200000.0 55818900000.0 17443000000.0 10015300000.0 10042000000.0 6971990000.0 4370310000.0 2187920000.0 371640000.0 1119940000.0 2319100000.0 3254780000.0 3953640000.0 4437580000.0 4722030000.0 4919830000.0 4722030000.0 4437580000.0 3953640000.0 3254780000.0 2319100000.0 1119940000.0 371640000.0 2187920000.0 4370310000.0 6971990000.0 10042000000.0 10015300000.0 17443000000.0 55818900000.0 26723200000.0 35605800000.0 41696000000.0 10608700000.0 65604600000.0 43387200000.0 107209000000.0 100568000000.0 82608900000.0 117996000000.0 26480900000.0 300079000.0 77152100000.0 144373000000.0 261342000000.0 103543000000.0 8139210000.0 1773120000.0 37807200000.0 59246900000.0 42054100000.0 11871900000.0 47425900000.0 43087600000.0 6305080000.0 22828700000.0 31443300000.0 12167200000.0 33971600000.0 49142700000.0 45665800000.0 214426000000.0 192893000000.0 189825000000.0 150177000000.0 134018000000.0 75226500000.0 76602900000.0 37950500000.0 8657530000.0 53864600000.0 8705140000.0 64156100000.0 8762750000.0 71156300000.0 8846880000.0 75885800000.0 9001130000.0 27165500000.0 9035750000.0 9035750000.0 9035750000.0 9035750000.0 9035750000.0 9035750000.0 9035750000.0 9035750000.0 9035750000.0 9035750000.0 9035750000.0 9116330000.0 9035750000.0 9035750000.0 9035750000.0 9035750000.0 9035750000.0 9035750000.0 9035750000.0 9035750000.0 9035750000.0 9035750000.0 9035750000.0 27165500000.0 9001130000.0 75885800000.0 8846880000.0 71156300000.0 8762750000.0 64156100000.0 8705140000.0 53864600000.0 8657530000.0 37950500000.0 76602900000.0 75226500000.0 134018000000.0 150177000000.0 189825000000.0 192893000000.0 214426000000.0 45665800000.0 49142700000.0 33971600000.0 12167200000.0 31443300000.0 22828700000.0 6305080000.0 43087600000.0 43451900000.0 20223900000.0 40547800000.0 51527200000.0 45672400000.0 17119900000.0 17277800000.0 127477000000.0 232778000000.0 179779000000.0 155310000000.0 107192000000.0 88952200000.0 59093800000.0 56578100000.0 23459800000.0 2385910000.0 48498000000.0 5497780000.0 54388300000.0 7505150000.0 63464800000.0 8555090000.0 65721800000.0 9035760000.0 22869700000.0 9035760000.0 9035760000.0 9035760000.0 9035760000.0 9035750000.0 9035750000.0 9035750000.0 9035750000.0 9035750000.0 9035750000.0 9035750000.0 9098070000.0 9035750000.0 9035750000.0 9035750000.0 9035750000.0 9035750000.0 9035750000.0 9035750000.0 9035760000.0 9035760000.0 9035760000.0 9035760000.0 22869700000.0 9035760000.0 65721800000.0 8555090000.0 63464800000.0 7505150000.0 54388300000.0 5497780000.0 48498000000.0 2385910000.0 23459800000.0 56578100000.0 59093800000.0 88952200000.0 107192000000.0 155310000000.0 179779000000.0 232778000000.0 127477000000.0 17277800000.0 17119900000.0 45672400000.0 51527200000.0 40547800000.0 20223900000.0 43451900000.0 41941300000.0 23097300000.0 39167200000.0 44955900000.0 42173200000.0 17715300000.0 18218400000.0 125914000000.0 202128000000.0 162648000000.0 145150000000.0 103152000000.0 82804800000.0 67988800000.0 57978200000.0 29565300000.0 9035770000.0 51734700000.0 9035760000.0 50355700000.0 9035760000.0 58747300000.0 9035760000.0 56486200000.0 9035760000.0 19469200000.0 9035760000.0 9035760000.0 9035760000.0 9035760000.0 9035760000.0 9035760000.0 9035750000.0 9035750000.0 9035750000.0 9035750000.0 9035750000.0 9083850000.0 9035750000.0 9035750000.0 9035750000.0 9035750000.0 9035750000.0 9035760000.0 9035760000.0 9035760000.0 9035760000.0 9035760000.0 9035760000.0 19469200000.0 9035760000.0 56486200000.0 9035760000.0 58747300000.0 9035760000.0 50355700000.0 9035760000.0 51734700000.0 9035770000.0 29565300000.0 57978200000.0 67988800000.0 82804800000.0 103152000000.0 145150000000.0 162648000000.0 202128000000.0 125914000000.0 18218400000.0 17715300000.0 42173200000.0 44955900000.0 39167200000.0 23097300000.0 41941300000.0 41619700000.0 27053300000.0 40418600000.0 42651200000.0 43098800000.0 24153000000.0 27164000000.0 129427000000.0 177080000000.0 139372000000.0 122499000000.0 86546300000.0 66827600000.0 61320700000.0 47966200000.0 28995100000.0 9035810000.0 48836000000.0 9035790000.0 45297700000.0 9035780000.0 53609200000.0 9035770000.0 48463400000.0 9035770000.0 16817500000.0 9035760000.0 9035760000.0 9035760000.0 9035760000.0 9035760000.0 9035760000.0 9035760000.0 9035750000.0 9035750000.0 9035750000.0 9035750000.0 9072750000.0 9035750000.0 9035750000.0 9035750000.0 9035750000.0 9035760000.0 9035760000.0 9035760000.0 9035760000.0 9035760000.0 9035760000.0 9035760000.0 16817500000.0 9035770000.0 48463400000.0 9035770000.0 53609200000.0 9035780000.0 45297700000.0 9035790000.0 48836000000.0 9035810000.0 28995100000.0 47966200000.0 61320700000.0 66827600000.0 86546300000.0 122499000000.0 139372000000.0 177080000000.0 129427000000.0 27164000000.0 24153000000.0 43098800000.0 42651200000.0 40418600000.0 27053300000.0 41619700000.0 41591700000.0 30178800000.0 40631400000.0 39562400000.0 41712500000.0 26907600000.0 31331400000.0 126423000000.0 154767000000.0 121104000000.0 105671000000.0 75134000000.0 57895300000.0 55502800000.0 39237300000.0 29380300000.0 9035840000.0 45423200000.0 9035810000.0 41276800000.0 9035790000.0 48907500000.0 9035780000.0 41618300000.0 9035770000.0 14762100000.0 9035770000.0 9035760000.0 9035760000.0 9035760000.0 9035760000.0 9035760000.0 9035760000.0 9035750000.0 9035750000.0 9035750000.0 9035750000.0 9064070000.0 9035750000.0 9035750000.0 9035750000.0 9035750000.0 9035760000.0 9035760000.0 9035760000.0 9035760000.0 9035760000.0 9035760000.0 9035770000.0 14762100000.0 9035770000.0 41618300000.0 9035780000.0 48907500000.0 9035790000.0 41276800000.0 9035810000.0 45423200000.0 9035840000.0 29380300000.0 39237300000.0 55502800000.0 57895300000.0 75134000000.0 105671000000.0 121104000000.0 154767000000.0 126423000000.0 31331400000.0 26907600000.0 41712500000.0 39562400000.0 40631400000.0 30178800000.0 41591700000.0 41809100000.0 32974200000.0 40917300000.0 37324500000.0 40466000000.0 29205400000.0 34936500000.0 121671000000.0 135877000000.0 105952000000.0 91804200000.0 66021000000.0 52401800000.0 49567900000.0 31506000000.0 29744800000.0 9035870000.0 42030500000.0 9035830000.0 37993300000.0 9035800000.0 44463000000.0 9035790000.0 35853500000.0 9035780000.0 13182900000.0 9035770000.0 9035770000.0 9035760000.0 9035760000.0 9035760000.0 9035760000.0 9035760000.0 9035760000.0 9035750000.0 9035750000.0 9035750000.0 9057290000.0 9035750000.0 9035750000.0 9035750000.0 9035760000.0 9035760000.0 9035760000.0 9035760000.0 9035760000.0 9035760000.0 9035770000.0 9035770000.0 13182900000.0 9035780000.0 35853500000.0 9035790000.0 44463000000.0 9035800000.0 37993300000.0 9035830000.0 42030500000.0 9035870000.0 29744800000.0 31506000000.0 49567900000.0 52401800000.0 66021000000.0 91804200000.0 105952000000.0 135877000000.0 121671000000.0 34936500000.0 29205400000.0 40466000000.0 37324500000.0 40917300000.0 32974200000.0 41809100000.0 41997300000.0 35342000000.0 41161900000.0 35791500000.0 39380100000.0 31048400000.0 37992200000.0 115766000000.0 120348000000.0 94161700000.0 81092400000.0 59648300000.0 48473100000.0 44263300000.0 25183300000.0 29810300000.0 9035900000.0 38951600000.0 9035850000.0 35202800000.0 9035820000.0 40218600000.0 9035800000.0 31039000000.0 9035780000.0 11983800000.0 9035770000.0 9035770000.0 9035770000.0 9035760000.0 9035760000.0 9035760000.0 9035760000.0 9035760000.0 9035750000.0 9035750000.0 9035750000.0 9052010000.0 9035750000.0 9035750000.0 9035750000.0 9035760000.0 9035760000.0 9035760000.0 9035760000.0 9035760000.0 9035770000.0 9035770000.0 9035770000.0 11983800000.0 9035780000.0 31039000000.0 9035800000.0 40218600000.0 9035820000.0 35202800000.0 9035850000.0 38951600000.0 9035900000.0 29810300000.0 25183300000.0 44263300000.0 48473100000.0 59648300000.0 81092400000.0 94161700000.0 120348000000.0 115766000000.0 37992200000.0 31048400000.0 39380100000.0 35791500000.0 41161900000.0 35342000000.0 41997300000.0 41921700000.0 37255000000.0 41215900000.0 34756600000.0 38314600000.0 32502300000.0 40514400000.0 109132000000.0 107547000000.0 85025200000.0 72759400000.0 55338500000.0 44793800000.0 39681100000.0 20242000000.0 29582700000.0 9035930000.0 36234000000.0 9035870000.0 32723900000.0 9035830000.0 36197500000.0 9035800000.0 27029300000.0 9035790000.0 11086900000.0 9035780000.0 9035770000.0 9035770000.0 9035760000.0 9035760000.0 9035760000.0 9035760000.0 9035760000.0 9035750000.0 9035750000.0 9035750000.0 9047930000.0 9035750000.0 9035750000.0 9035750000.0 9035760000.0 9035760000.0 9035760000.0 9035760000.0 9035760000.0 9035770000.0 9035770000.0 9035780000.0 11086900000.0 9035790000.0 27029300000.0 9035800000.0 36197500000.0 9035830000.0 32723900000.0 9035870000.0 36234000000.0 9035930000.0 29582700000.0 20242000000.0 39681100000.0 44793800000.0 55338500000.0 72759400000.0 85025200000.0 107547000000.0 109132000000.0 40514400000.0 32502300000.0 38314600000.0 34756600000.0 41215900000.0 37255000000.0 41921700000.0 41494700000.0 38716400000.0 40991100000.0 34010900000.0 37156300000.0 33634000000.0 42515400000.0 102135000000.0 96893900000.0 77923300000.0 66189400000.0 52165900000.0 41038300000.0 35799100000.0 16538300000.0 29119000000.0 9035960000.0 33824000000.0 9035880000.0 30439100000.0 9035840000.0 32450600000.0 9035810000.0 23685800000.0 9035790000.0 10428200000.0 9035780000.0 9035770000.0 9035770000.0 9035770000.0 9035760000.0 9035760000.0 9035760000.0 9035760000.0 9035750000.0 9035750000.0 9035750000.0 9044790000.0 9035750000.0 9035750000.0 9035750000.0 9035760000.0 9035760000.0 9035760000.0 9035760000.0 9035770000.0 9035770000.0 9035770000.0 9035780000.0 10428200000.0 9035790000.0 23685800000.0 9035810000.0 32450600000.0 9035840000.0 30439100000.0 9035880000.0 33824000000.0 9035960000.0 29119000000.0 16538300000.0 35799100000.0 41038300000.0 52165900000.0 66189400000.0 77923300000.0 96893900000.0 102135000000.0 42515400000.0 33634000000.0 37156300000.0 34010900000.0 40991100000.0 38716400000.0 41494700000.0 37260400000.0 32549700000.0 13872200000.0 28472400000.0 9035990000.0 31653800000.0 9035900000.0 28290800000.0 9035850000.0 29022900000.0 9035810000.0 20895000000.0 9035790000.0 9955110000.0 9035780000.0 9035770000.0 9035770000.0 9035770000.0 9035760000.0 9035760000.0 9035760000.0 9035760000.0 9035750000.0 9035750000.0 9035750000.0 9042400000.0 9035750000.0 9035750000.0 9035750000.0 9035760000.0 9035760000.0 9035760000.0 9035760000.0 9035770000.0 9035770000.0 9035770000.0 9035780000.0 9955110000.0 9035790000.0 20895000000.0 9035810000.0 29022900000.0 9035850000.0 28290800000.0 9035900000.0 31653800000.0 9035990000.0 28472400000.0 13872200000.0 32549700000.0 37260400000.0 40753500000.0 39744200000.0 40490600000.0 33381700000.0 35884500000.0 34487300000.0 44011800000.0 95059100000.0 87901300000.0 72294200000.0 60889200000.0 49402100000.0 49402100000.0 60889200000.0 72294200000.0 87901300000.0 95059100000.0 44011800000.0 34487300000.0 35884500000.0 33381700000.0 40490600000.0 39744200000.0 40753500000.0 39787500000.0 40366200000.0 39768900000.0 32750000000.0 34526600000.0 35088200000.0 45027100000.0 88102400000.0 80174900000.0 67669000000.0 56450100000.0 46694300000.0 33581200000.0 29854700000.0 12028700000.0 27686700000.0 9036010000.0 29666500000.0 9035910000.0 26261600000.0 9035860000.0 25940800000.0 9035820000.0 18568800000.0 9035800000.0 9624300000.0 9035780000.0 9035780000.0 9035770000.0 9035770000.0 9035760000.0 9035760000.0 9035760000.0 9035760000.0 9035760000.0 9035750000.0 9035750000.0 9040590000.0 9035750000.0 9035750000.0 9035760000.0 9035760000.0 9035760000.0 9035760000.0 9035760000.0 9035770000.0 9035770000.0 9035780000.0 9035780000.0 9624300000.0 9035800000.0 18568800000.0 9035820000.0 25940800000.0 9035860000.0 26261600000.0 9035910000.0 29666500000.0 9036010000.0 27686700000.0 12028700000.0 29854700000.0 33581200000.0 46694300000.0 56450100000.0 67669000000.0 80174900000.0 88102400000.0 45027100000.0 35088200000.0 34526600000.0 32750000000.0 39768900000.0 40366200000.0 39787500000.0 38686700000.0 40617900000.0 38890400000.0 32048200000.0 33118900000.0 35455800000.0 45591000000.0 81395200000.0 73408000000.0 63696500000.0 52542700000.0 43957800000.0 30105900000.0 27633000000.0 10806400000.0 26797700000.0 9036030000.0 27820800000.0 9035930000.0 24353500000.0 9035860000.0 23210400000.0 9035820000.0 16637900000.0 9035800000.0 9399900000.0 9035780000.0 9035780000.0 9035770000.0 9035770000.0 9035760000.0 9035760000.0 9035760000.0 9035760000.0 9035760000.0 9035750000.0 9035750000.0 9039230000.0 9035750000.0 9035750000.0 9035760000.0 9035760000.0 9035760000.0 9035760000.0 9035760000.0 9035770000.0 9035770000.0 9035780000.0 9035780000.0 9399900000.0 9035800000.0 16637900000.0 9035820000.0 23210400000.0 9035860000.0 24353500000.0 9035930000.0 27820800000.0 9036030000.0 26797700000.0 10806400000.0 27633000000.0 30105900000.0 43957800000.0 52542700000.0 63696500000.0 73408000000.0 81395200000.0 45591000000.0 35455800000.0 33118900000.0 32048200000.0 38890400000.0 40617900000.0 38686700000.0 37521300000.0 40539800000.0 37911800000.0 31247900000.0 31693000000.0 35606900000.0 45739100000.0 75028000000.0 67378900000.0 60124900000.0 48927500000.0 41222800000.0 26908500000.0 25803000000.0 10032100000.0 25835100000.0 9036050000.0 26090400000.0 9035940000.0 22573400000.0 9035870000.0 20822200000.0 9035830000.0 15044500000.0 9035800000.0 9252750000.0 9035790000.0 9035780000.0 9035770000.0 9035770000.0 9035770000.0 9035760000.0 9035760000.0 9035760000.0 9035760000.0 9035750000.0 9035750000.0 9038230000.0 9035750000.0 9035750000.0 9035760000.0 9035760000.0 9035760000.0 9035760000.0 9035770000.0 9035770000.0 9035770000.0 9035780000.0 9035790000.0 9252750000.0 9035800000.0 15044500000.0 9035830000.0 20822200000.0 9035870000.0 22573400000.0 9035940000.0 26090400000.0 9036050000.0 25835100000.0 10032100000.0 25803000000.0 26908500000.0 41222800000.0 48927500000.0 60124900000.0 67378900000.0 75028000000.0 45739100000.0 35606900000.0 31693000000.0 31247900000.0 37911800000.0 40539800000.0 37521300000.0 36339900000.0 40175000000.0 36876500000.0 30348700000.0 30273300000.0 35558800000.0 45510900000.0 69068200000.0 61930300000.0 56783600000.0 45468400000.0 38544900000.0 24032200000.0 24287200000.0 9564950000.0 24823800000.0 9036070000.0 24461700000.0 9035940000.0 20927200000.0 9035880000.0 18757000000.0 9035830000.0 13739300000.0 9035800000.0 9159810000.0 9035790000.0 9035780000.0 9035770000.0 9035770000.0 9035770000.0 9035760000.0 9035760000.0 9035760000.0 9035760000.0 9035750000.0 9035750000.0 9037500000.0 9035750000.0 9035750000.0 9035760000.0 9035760000.0 9035760000.0 9035760000.0 9035770000.0 9035770000.0 9035770000.0 9035780000.0 9035790000.0 9159810000.0 9035800000.0 13739300000.0 9035830000.0 18757000000.0 9035880000.0 20927200000.0 9035940000.0 24461700000.0 9036070000.0 24823800000.0 9564950000.0 24287200000.0 24032200000.0 38544900000.0 45468400000.0 56783600000.0 61930300000.0 69068200000.0 45510900000.0 35558800000.0 30273300000.0 30348700000.0 36876500000.0 40175000000.0 36339900000.0 35174100000.0 39566400000.0 35814400000.0 29369300000.0 28877200000.0 35329200000.0 44949600000.0 63561200000.0 56949000000.0 53576700000.0 42119600000.0 35972900000.0 21494100000.0 23015600000.0 9297760000.0 23785600000.0 9036080000.0 22930000000.0 9035950000.0 19417700000.0 9035880000.0 16989300000.0 9035830000.0 12679400000.0 9035810000.0 9103480000.0 9035790000.0 9035780000.0 9035770000.0 9035770000.0 9035770000.0 9035760000.0 9035760000.0 9035760000.0 9035760000.0 9035750000.0 9035750000.0 9036970000.0 9035750000.0 9035750000.0 9035760000.0 9035760000.0 9035760000.0 9035760000.0 9035770000.0 9035770000.0 9035770000.0 9035780000.0 9035790000.0 9103480000.0 9035810000.0 12679400000.0 9035830000.0 16989300000.0 9035880000.0 19417700000.0 9035950000.0 22930000000.0 9036080000.0 23785600000.0 9297760000.0 23015600000.0 21494100000.0 35972900000.0 42119600000.0 53576700000.0 56949000000.0 63561200000.0 44949600000.0 35329200000.0 28877200000.0 29369300000.0 35814400000.0 39566400000.0 35174100000.0 34041500000.0 38756000000.0 34743700000.0 28336700000.0 27516600000.0 34936600000.0 44099700000.0 58527600000.0 52359100000.0 50468500000.0 38890500000.0 33540600000.0 19291400000.0 21927900000.0 9154860000.0 22738700000.0 9036090000.0 21495400000.0 9035960000.0 18044500000.0 9035880000.0 15490900000.0 9035830000.0 11827100000.0 9035810000.0 9070870000.0 9035790000.0 9035780000.0 9035770000.0 9035770000.0 9035770000.0 9035760000.0 9035760000.0 9035760000.0 9035760000.0 9035750000.0 9035750000.0 9036590000.0 9035750000.0 9035750000.0 9035760000.0 9035760000.0 9035760000.0 9035760000.0 9035770000.0 9035770000.0 9035770000.0 9035780000.0 9035790000.0 9070870000.0 9035810000.0 11827100000.0 9035830000.0 15490900000.0 9035880000.0 18044500000.0 9035960000.0 21495400000.0 9036090000.0 22738700000.0 9154860000.0 21927900000.0 19291400000.0 33540600000.0 38890500000.0 50468500000.0 52359100000.0 58527600000.0 44099700000.0 34936600000.0 27516600000.0 28336700000.0 34743700000.0 38756000000.0 34041500000.0 32949500000.0 37782400000.0 33674100000.0 27279000000.0 26199300000.0 34399200000.0 43005900000.0 53964300000.0 48116700000.0 47459000000.0 35811200000.0 31268100000.0 17407000000.0 20975200000.0 9084860000.0 21699200000.0 9036100000.0 20159100000.0 9035960000.0 16804700000.0 9035890000.0 14232600000.0 9035840000.0 11149500000.0 9035810000.0 9052930000.0 9035790000.0 9035780000.0 9035780000.0 9035770000.0 9035770000.0 9035760000.0 9035760000.0 9035760000.0 9035760000.0 9035750000.0 9035750000.0 9036320000.0 9035750000.0 9035750000.0 9035760000.0 9035760000.0 9035760000.0 9035760000.0 9035770000.0 9035770000.0 9035780000.0 9035780000.0 9035790000.0 9052930000.0 9035810000.0 11149500000.0 9035840000.0 14232600000.0 9035890000.0 16804700000.0 9035960000.0 20159100000.0 9036100000.0 21699200000.0 9084860000.0 20975200000.0 17407000000.0 31268100000.0 35811200000.0 47459000000.0 48116700000.0 53964300000.0 43005900000.0 34399200000.0 26199300000.0 27279000000.0 33674100000.0 37782400000.0 32949500000.0 31897900000.0 36681200000.0 32609300000.0 26219500000.0 24931100000.0 33734900000.0 41712100000.0 49849900000.0 44199000000.0 44562200000.0 32911400000.0 29164500000.0 15815400000.0 20119900000.0 9054100000.0 20680100000.0 9036110000.0 18921900000.0 9035970000.0 15693800000.0 9035890000.0 13185300000.0 9035840000.0 10617200000.0 9035810000.0 9043620000.0 9035790000.0 9035780000.0 9035780000.0 9035770000.0 9035770000.0 9035760000.0 9035760000.0 9035760000.0 9035760000.0 9035750000.0 9035750000.0 9036130000.0 9035750000.0 9035750000.0 9035760000.0 9035760000.0 9035760000.0 9035760000.0 9035770000.0 9035770000.0 9035780000.0 9035780000.0 9035790000.0 9043620000.0 9035810000.0 10617200000.0 9035840000.0 13185300000.0 9035890000.0 15693800000.0 9035970000.0 18921900000.0 9036110000.0 20680100000.0 9054100000.0 20119900000.0 15815400000.0 29164500000.0 32911400000.0 44562200000.0 44199000000.0 49849900000.0 41712100000.0 33734900000.0 24931100000.0 26219500000.0 32609300000.0 36681200000.0 31897900000.0 30881800000.0 35483600000.0 31550000000.0 25175700000.0 23716300000.0 32961400000.0 40259900000.0 46151200000.0 40593200000.0 41792400000.0 30212700000.0 27230800000.0 14486000000.0 19334800000.0 9042130000.0 19692300000.0 9036110000.0 17783400000.0 9035970000.0 14705600000.0 9035890000.0 12321400000.0 9035840000.0 10204400000.0 9035810000.0 9039110000.0 9035790000.0 9035780000.0 9035780000.0 9035770000.0 9035770000.0 9035760000.0 9035760000.0 9035760000.0 9035760000.0 9035750000.0 9035750000.0 9036000000.0 9035750000.0 9035750000.0 9035760000.0 9035760000.0 9035760000.0 9035760000.0 9035770000.0 9035770000.0 9035780000.0 9035780000.0 9035790000.0 9039110000.0 9035810000.0 10204400000.0 9035840000.0 12321400000.0 9035890000.0 14705600000.0 9035970000.0 17783400000.0 9036110000.0 19692300000.0 9042130000.0 19334800000.0 14486000000.0 27230800000.0 30212700000.0 41792400000.0 40593200000.0 46151200000.0 40259900000.0 32961400000.0 23716300000.0 25175700000.0 31550000000.0 35483600000.0 30881800000.0 29893900000.0 34216900000.0 30495300000.0 24159500000.0 22558200000.0 32095300000.0 38688000000.0 42828400000.0 37287500000.0 39159800000.0 27726900000.0 25462400000.0 13387000000.0 18601100000.0 9038030000.0 18744000000.0 9036110000.0 16741800000.0 9035970000.0 13833200000.0 9035890000.0 11614900000.0 9035840000.0 9888550000.0 9035810000.0 9037090000.0 9035790000.0 9035780000.0 9035780000.0 9035770000.0 9035770000.0 9035760000.0 9035760000.0 9035760000.0 9035760000.0 9035750000.0 9035750000.0 9035910000.0 9035750000.0 9035750000.0 9035760000.0 9035760000.0 9035760000.0 9035760000.0 9035770000.0 9035770000.0 9035780000.0 9035780000.0 9035790000.0 9037090000.0 9035810000.0 9888550000.0 9035840000.0 11614900000.0 9035890000.0 13833200000.0 9035970000.0 16741800000.0 9036110000.0 18744000000.0 9038030000.0 18601100000.0 13387000000.0 25462400000.0 27726900000.0 39159800000.0 37287500000.0 42828400000.0 38688000000.0 32095300000.0 22558200000.0 24159500000.0 30495300000.0 34216900000.0 29893900000.0 28926400000.0 32904200000.0 29444300000.0 23178300000.0 21459300000.0 31152700000.0 37031600000.0 39839200000.0 34268400000.0 36669800000.0 25457800000.0 23850600000.0 12486400000.0 17907100000.0 9036800000.0 17841500000.0 9036110000.0 15794300000.0 9035970000.0 13068800000.0 9035890000.0 11042400000.0 9035840000.0 9650090000.0 9035810000.0 9036260000.0 9035790000.0 9035780000.0 9035770000.0 9035770000.0 9035770000.0 9035760000.0 9035760000.0 9035760000.0 9035760000.0 9035750000.0 9035750000.0 9035860000.0 9035750000.0 9035750000.0 9035760000.0 9035760000.0 9035760000.0 9035760000.0 9035770000.0 9035770000.0 9035770000.0 9035780000.0 9035790000.0 9036260000.0 9035810000.0 9650090000.0 9035840000.0 11042400000.0 9035890000.0 13068800000.0 9035970000.0 15794300000.0 9036110000.0 17841500000.0 9036800000.0 17907100000.0 12486400000.0 23850600000.0 25457800000.0 36669800000.0 34268400000.0 39839200000.0 37031600000.0 31152700000.0 21459300000.0 23178300000.0 29444300000.0 32904200000.0 28926400000.0 27971900000.0 31564800000.0 28396100000.0 22235900000.0 20421200000.0 30148600000.0 35321900000.0 37142000000.0 31519600000.0 34323400000.0 23402600000.0 22384800000.0 11754700000.0 17245700000.0 9036470000.0 16989300000.0 9036100000.0 14937100000.0 9035960000.0 12403900000.0 9035880000.0 10582800000.0 9035830000.0 9472520000.0 9035810000.0 9035950000.0 9035790000.0 9035780000.0 9035770000.0 9035770000.0 9035770000.0 9035760000.0 9035760000.0 9035760000.0 9035760000.0 9035750000.0 9035750000.0 9035820000.0 9035750000.0 9035750000.0 9035760000.0 9035760000.0 9035760000.0 9035760000.0 9035770000.0 9035770000.0 9035770000.0 9035780000.0 9035790000.0 9035950000.0 9035810000.0 9472520000.0 9035830000.0 10582800000.0 9035880000.0 12403900000.0 9035960000.0 14937100000.0 9036100000.0 16989300000.0 9036470000.0 17245700000.0 11754700000.0 22384800000.0 23402600000.0 34323400000.0 31519600000.0 37142000000.0 35321900000.0 30148600000.0 20421200000.0 22235900000.0 28396100000.0 31564800000.0 27971900000.0 27024200000.0 30214400000.0 27350600000.0 21333800000.0 19445000000.0 29096900000.0 33586200000.0 34697200000.0 29023500000.0 32118800000.0 21553500000.0 21053000000.0 11164500000.0 16612800000.0 9036380000.0 16190000000.0 9036100000.0 14165800000.0 9035960000.0 11830100000.0 9035880000.0 10217100000.0 9035830000.0 9342120000.0 9035800000.0 9035840000.0 9035790000.0 9035780000.0 9035770000.0 9035770000.0 9035770000.0 9035760000.0 9035760000.0 9035760000.0 9035760000.0 9035750000.0 9035750000.0 9035790000.0 9035750000.0 9035750000.0 9035760000.0 9035760000.0 9035760000.0 9035760000.0 9035770000.0 9035770000.0 9035770000.0 9035780000.0 9035790000.0 9035840000.0 9035800000.0 9342120000.0 9035830000.0 10217100000.0 9035880000.0 11830100000.0 9035960000.0 14165800000.0 9036100000.0 16190000000.0 9036380000.0 16612800000.0 11164500000.0 21053000000.0 21553500000.0 32118800000.0 29023500000.0 34697200000.0 33586200000.0 29096900000.0 19445000000.0 21333800000.0 27350600000.0 30214400000.0 27024200000.0 26078300000.0 28865300000.0 26307800000.0 20471800000.0 18530600000.0 28009700000.0 31847600000.0 32469000000.0 26761500000.0 30051800000.0 19899700000.0 19843100000.0 10691800000.0 16006500000.0 9036350000.0 15445000000.0 9036090000.0 13475300000.0 9035950000.0 11338500000.0 9035880000.0 9929130000.0 9035830000.0 9247690000.0 9035800000.0 9035810000.0 9035790000.0 9035780000.0 9035770000.0 9035770000.0 9035770000.0 9035760000.0 9035760000.0 9035760000.0 9035760000.0 9035750000.0 9035750000.0 9035780000.0 9035750000.0 9035750000.0 9035760000.0 9035760000.0 9035760000.0 9035760000.0 9035770000.0 9035770000.0 9035770000.0 9035780000.0 9035790000.0 9035810000.0 9035800000.0 9247690000.0 9035830000.0 9929130000.0 9035880000.0 11338500000.0 9035950000.0 13475300000.0 9036090000.0 15445000000.0 9036350000.0 16006500000.0 10691800000.0 19843100000.0 19899700000.0 30051800000.0 26761500000.0 32469000000.0 31847600000.0 28009700000.0 18530600000.0 20471800000.0 26307800000.0 28865300000.0 26078300000.0 25130800000.0 27527400000.0 25268200000.0 19648500000.0 17676800000.0 26897800000.0 30125100000.0 30425900000.0 24715100000.0 28117400000.0 18428300000.0 18743300000.0 10315700000.0 15426000000.0 9036330000.0 14754400000.0 9036080000.0 12860300000.0 9035950000.0 10920700000.0 9035870000.0 9704580000.0 9035830000.0 9180290000.0 9035800000.0 9035790000.0 9035780000.0 9035780000.0 9035770000.0 9035770000.0 9035760000.0 9035760000.0 9035760000.0 9035760000.0 9035760000.0 9035750000.0 9035750000.0 9035770000.0 9035750000.0 9035750000.0 9035760000.0 9035760000.0 9035760000.0 9035760000.0 9035760000.0 9035770000.0 9035770000.0 9035780000.0 9035780000.0 9035790000.0 9035800000.0 9180290000.0 9035830000.0 9704580000.0 9035870000.0 10920700000.0 9035950000.0 12860300000.0 9036080000.0 14754400000.0 9036330000.0 15426000000.0 10315700000.0 18743300000.0 18428300000.0 28117400000.0 24715100000.0 30425900000.0 30125100000.0 26897800000.0 17676800000.0 19648500000.0 25268200000.0 27527400000.0 25130800000.0 24179300000.0 26207900000.0 24232500000.0 18861300000.0 16881700000.0 25770200000.0 28434400000.0 28540500000.0 22866300000.0 26309200000.0 17125200000.0 17742300000.0 10018300000.0 14871200000.0 9036310000.0 14117400000.0 9036070000.0 12315400000.0 9035940000.0 10568100000.0 9035870000.0 9531320000.0 9035830000.0 9132890000.0 9035800000.0 9035790000.0 9035780000.0 9035780000.0 9035770000.0 9035770000.0 9035760000.0 9035760000.0 9035760000.0 9035760000.0 9035760000.0 9035750000.0 9035750000.0 9035760000.0 9035750000.0 9035750000.0 9035760000.0 9035760000.0 9035760000.0 9035760000.0 9035760000.0 9035770000.0 9035770000.0 9035780000.0 9035780000.0 9035790000.0 9035800000.0 9132890000.0 9035830000.0 9531320000.0 9035870000.0 10568100000.0 9035940000.0 12315400000.0 9036070000.0 14117400000.0 9036310000.0 14871200000.0 10018300000.0 17742300000.0 17125200000.0 26309200000.0 22866300000.0 28540500000.0 28434400000.0 25770200000.0 16881700000.0 18861300000.0 24232500000.0 26207900000.0 24179300000.0 23222600000.0 24912000000.0 23201400000.0 18107500000.0 16142300000.0 24634600000.0 26787400000.0 26789600000.0 21198100000.0 24620600000.0 15976100000.0 16829500000.0 9784700000.0 14341900000.0 9036290000.0 13532400000.0 9036060000.0 11834900000.0 9035930000.0 10272900000.0 9035860000.0 9399050000.0 9035820000.0 9100050000.0 9035800000.0 9035790000.0 9035780000.0 9035780000.0 9035770000.0 9035770000.0 9035760000.0 9035760000.0 9035760000.0 9035760000.0 9035750000.0 9035750000.0 9035750000.0 9035760000.0 9035750000.0 9035750000.0 9035750000.0 9035760000.0 9035760000.0 9035760000.0 9035760000.0 9035770000.0 9035770000.0 9035780000.0 9035780000.0 9035790000.0 9035800000.0 9100050000.0 9035820000.0 9399050000.0 9035860000.0 10272900000.0 9035930000.0 11834900000.0 9036060000.0 13532400000.0 9036290000.0 14341900000.0 9784700000.0 16829500000.0 15976100000.0 24620600000.0 21198100000.0 26789600000.0 26787400000.0 24634600000.0 16142300000.0 18107500000.0 23201400000.0 24912000000.0 23222600000.0 22260300000.0 23643200000.0 22175700000.0 17383500000.0 15454700000.0 23497000000.0 25193000000.0 25153800000.0 19694400000.0 23044800000.0 14966400000.0 15995400000.0 9602330000.0 13838200000.0 9036270000.0 12997300000.0 9036040000.0 11413200000.0 9035920000.0 10027600000.0 9035860000.0 9299190000.0 9035820000.0 9077640000.0 9035800000.0 9035790000.0 9035780000.0 9035770000.0 9035770000.0 9035770000.0 9035760000.0 9035760000.0 9035760000.0 9035760000.0 9035750000.0 9035750000.0 9035750000.0 9035760000.0 9035750000.0 9035750000.0 9035750000.0 9035760000.0 9035760000.0 9035760000.0 9035760000.0 9035770000.0 9035770000.0 9035770000.0 9035780000.0 9035790000.0 9035800000.0 9077640000.0 9035820000.0 9299190000.0 9035860000.0 10027600000.0 9035920000.0 11413200000.0 9036040000.0 12997300000.0 9036270000.0 13838200000.0 9602330000.0 15995400000.0 14966400000.0 23044800000.0 19694400000.0 25153800000.0 25193000000.0 23497000000.0 15454700000.0 17383500000.0 22175700000.0 23643200000.0 22260300000.0 21292400000.0 22403600000.0 21156100000.0 16685900000.0 14814600000.0 22362300000.0 23657300000.0 23617100000.0 18340200000.0 21574500000.0 14082200000.0 15231300000.0 9460960000.0 13359800000.0 9036240000.0 12509300000.0 9036030000.0 11044900000.0 9035910000.0 9825260000.0 9035850000.0 9224660000.0 9035820000.0 9062610000.0 9035790000.0 9035780000.0 9035780000.0 9035770000.0 9035770000.0 9035770000.0 9035760000.0 9035760000.0 9035760000.0 9035760000.0 9035750000.0 9035750000.0 9035750000.0 9035750000.0 9035750000.0 9035750000.0 9035750000.0 9035760000.0 9035760000.0 9035760000.0 9035760000.0 9035770000.0 9035770000.0 9035770000.0 9035780000.0 9035780000.0 9035790000.0 9062610000.0 9035820000.0 9224660000.0 9035850000.0 9825260000.0 9035910000.0 11044900000.0 9036030000.0 12509300000.0 9036240000.0 13359800000.0 9460960000.0 15231300000.0 14082200000.0 21574500000.0 18340200000.0 23617100000.0 23657300000.0 22362300000.0 14814600000.0 16685900000.0 21156100000.0 22403600000.0 21292400000.0 20319500000.0 21194300000.0 20143300000.0 16011000000.0 14217200000.0 21234100000.0 22183900000.0 22166200000.0 17121300000.0 20202500000.0 13310100000.0 14529300000.0 9352180000.0 12906300000.0 9036210000.0 12065600000.0 9036010000.0 10724600000.0 9035900000.0 9659650000.0 9035850000.0 9169670000.0 9035810000.0 9052680000.0 9035790000.0 9035780000.0 9035780000.0 9035770000.0 9035770000.0 9035760000.0 9035760000.0 9035760000.0 9035760000.0 9035760000.0 9035750000.0 9035750000.0 9035750000.0 9035750000.0 9035750000.0 9035750000.0 9035750000.0 9035760000.0 9035760000.0 9035760000.0 9035760000.0 9035760000.0 9035770000.0 9035770000.0 9035780000.0 9035780000.0 9035790000.0 9052680000.0 9035810000.0 9169670000.0 9035850000.0 9659650000.0 9035900000.0 10724600000.0 9036010000.0 12065600000.0 9036210000.0 12906300000.0 9352180000.0 14529300000.0 13310100000.0 20202500000.0 17121300000.0 22166200000.0 22183900000.0 21234100000.0 14217200000.0 16011000000.0 20143300000.0 21194300000.0 20319500000.0 19342300000.0 20015200000.0 19137800000.0 15355400000.0 13657600000.0 20115100000.0 20774300000.0 20790000000.0 16024600000.0 18921300000.0 12637500000.0 13882200000.0 9269110000.0 12476800000.0 9036180000.0 11663000000.0 9035990000.0 10447100000.0 9035890000.0 9525100000.0 9035840000.0 9129580000.0 9035810000.0 9046230000.0 9035790000.0 9035780000.0 9035770000.0 9035770000.0 9035770000.0 9035760000.0 9035760000.0 9035760000.0 9035760000.0 9035760000.0 9035750000.0 9035750000.0 9035750000.0 9035750000.0 9035750000.0 9035750000.0 9035750000.0 9035760000.0 9035760000.0 9035760000.0 9035760000.0 9035760000.0 9035770000.0 9035770000.0 9035770000.0 9035780000.0 9035790000.0 9046230000.0 9035810000.0 9129580000.0 9035840000.0 9525100000.0 9035890000.0 10447100000.0 9035990000.0 11663000000.0 9036180000.0 12476800000.0 9269110000.0 13882200000.0 12637500000.0 18921300000.0 16024600000.0 20790000000.0 20774300000.0 20115100000.0 13657600000.0 15355400000.0 19137800000.0 20015200000.0 19342300000.0 18361700000.0 18865600000.0 18140000000.0 14715800000.0 13131100000.0 19006900000.0 19428200000.0 19479300000.0 15037600000.0 17723400000.0 12052600000.0 13283500000.0 9206220000.0 12070400000.0 9036140000.0 11298000000.0 9035970000.0 10207500000.0 9035880000.0 9416570000.0 9035830000.0 9100710000.0 9035800000.0 9042130000.0 9035780000.0 9035780000.0 9035770000.0 9035770000.0 9035770000.0 9035760000.0 9035760000.0 9035760000.0 9035760000.0 9035760000.0 9035750000.0 9035750000.0 9035750000.0 9035750000.0 9035750000.0 9035750000.0 9035750000.0 9035760000.0 9035760000.0 9035760000.0 9035760000.0 9035760000.0 9035770000.0 9035770000.0 9035770000.0 9035780000.0 9035780000.0 9042130000.0 9035800000.0 9100710000.0 9035830000.0 9416570000.0 9035880000.0 10207500000.0 9035970000.0 11298000000.0 9036140000.0 12070400000.0 9206220000.0 13283500000.0 12052600000.0 17723400000.0 15037600000.0 19479300000.0 19428200000.0 19006900000.0 13131100000.0 14715800000.0 18140000000.0 18865600000.0 18361700000.0 17378400000.0 17744100000.0 17150100000.0 14089300000.0 12632800000.0 17910500000.0 18143600000.0 18226000000.0 14148400000.0 16601100000.0 11544400000.0 12727300000.0 9159030000.0 11685900000.0 9036110000.0 10967300000.0 9035950000.0 10001200000.0 9035870000.0 9329650000.0 9035820000.0 9080170000.0 9035800000.0 9039560000.0 9035780000.0 9035780000.0 9035770000.0 9035770000.0 9035760000.0 9035760000.0 9035760000.0 9035760000.0 9035760000.0 9035760000.0 9035750000.0 9035750000.0 9035750000.0 9035750000.0 9035750000.0 9035750000.0 9035750000.0 9035760000.0 9035760000.0 9035760000.0 9035760000.0 9035760000.0 9035760000.0 9035770000.0 9035770000.0 9035780000.0 9035780000.0 9039560000.0 9035800000.0 9080170000.0 9035820000.0 9329650000.0 9035870000.0 10001200000.0 9035950000.0 10967300000.0 9036110000.0 11685900000.0 9159030000.0 12727300000.0 11544400000.0 16601100000.0 14148400000.0 18226000000.0 18143600000.0 17910500000.0 12632800000.0 14089300000.0 17150100000.0 17744100000.0 17378400000.0 16393200000.0 16648800000.0 16167900000.0 13473100000.0 12158500000.0 16826200000.0 16917200000.0 17023100000.0 13345500000.0 15546700000.0 11102400000.0 12208200000.0 9123930000.0 11321600000.0 9036070000.0 10667200000.0 9035930000.0 9823780000.0 9035860000.0 9260460000.0 9035820000.0 9065740000.0 9035790000.0 9037980000.0 9035780000.0 9035770000.0 9035770000.0 9035770000.0 9035760000.0 9035760000.0 9035760000.0 9035760000.0 9035760000.0 9035750000.0 9035750000.0 9035750000.0 9035750000.0 9035750000.0 9035750000.0 9035750000.0 9035750000.0 9035750000.0 9035760000.0 9035760000.0 9035760000.0 9035760000.0 9035760000.0 9035770000.0 9035770000.0 9035770000.0 9035780000.0 9037980000.0 9035790000.0 9065740000.0 9035820000.0 9260460000.0 9035860000.0 9823780000.0 9035930000.0 10667200000.0 9036070000.0 11321600000.0 9123930000.0 12208200000.0 11102400000.0 15546700000.0 13345500000.0 17023100000.0 16917200000.0 16826200000.0 12158500000.0 13473100000.0 16167900000.0 16648800000.0 16393200000.0 15406900000.0 15577300000.0 15193300000.0 12865100000.0 11704100000.0 15753700000.0 15744500000.0 15864100000.0 12618200000.0 14552400000.0 10717200000.0 11720900000.0 9098070000.0 10975800000.0 9036030000.0 10394100000.0 9035910000.0 9671080000.0 9035840000.0 9205670000.0 9035810000.0 9055730000.0 9035790000.0 9037030000.0 9035770000.0 9035770000.0 9035770000.0 9035760000.0 9035760000.0 9035760000.0 9035760000.0 9035760000.0 9035760000.0 9035750000.0 9035750000.0 9035750000.0 9035750000.0 9035750000.0 9035750000.0 9035750000.0 9035750000.0 9035750000.0 9035760000.0 9035760000.0 9035760000.0 9035760000.0 9035760000.0 9035760000.0 9035770000.0 9035770000.0 9035770000.0 9037030000.0 9035790000.0 9055730000.0 9035810000.0 9205670000.0 9035840000.0 9671080000.0 9035910000.0 10394100000.0 9036030000.0 10975800000.0 9098070000.0 11720900000.0 10717200000.0 14552400000.0 12618200000.0 15864100000.0 15744500000.0 15753700000.0 11704100000.0 12865100000.0 15193300000.0 15577300000.0 15406900000.0 14419900000.0 14527000000.0 14225800000.0 12263400000.0 11266000000.0 14692300000.0 14620000000.0 14742800000.0 11955600000.0 13610100000.0 10379900000.0 11260700000.0 9079180000.0 10646400000.0 9035990000.0 10144500000.0 9035880000.0 9539220000.0 9035830000.0 9162400000.0 9035800000.0 9048870000.0 9035780000.0 9036480000.0 9035770000.0 9035770000.0 9035760000.0 9035760000.0 9035760000.0 9035760000.0 9035760000.0 9035760000.0 9035760000.0 9035750000.0 9035750000.0 9035750000.0 9035750000.0 9035750000.0 9035750000.0 9035750000.0 9035750000.0 9035750000.0 9035760000.0 9035760000.0 9035760000.0 9035760000.0 9035760000.0 9035760000.0 9035760000.0 9035770000.0 9035770000.0 9036480000.0 9035780000.0 9048870000.0 9035800000.0 9162400000.0 9035830000.0 9539220000.0 9035880000.0 10144500000.0 9035990000.0 10646400000.0 9079180000.0 11260700000.0 10379900000.0 13610100000.0 11955600000.0 14742800000.0 14620000000.0 14692300000.0 11266000000.0 12263400000.0 14225800000.0 14527000000.0 14419900000.0 13432600000.0 13495000000.0 13264800000.0 11666400000.0 10840900000.0 13640900000.0 13537500000.0 13653400000.0 11347500000.0 12711900000.0 10081900000.0 10823000000.0 9065440000.0 10331300000.0 9035950000.0 9914570000.0 9035860000.0 9424540000.0 9035820000.0 9128180000.0 9035790000.0 9044210000.0 9035780000.0 9036150000.0 9035770000.0 9035770000.0 9035760000.0 9035760000.0 9035760000.0 9035760000.0 9035760000.0 9035760000.0 9035750000.0 9035750000.0 9035750000.0 9035750000.0 9035750000.0 9035750000.0 9035750000.0 9035750000.0 9035750000.0 9035750000.0 9035750000.0 9035760000.0 9035760000.0 9035760000.0 9035760000.0 9035760000.0 9035760000.0 9035770000.0 9035770000.0 9036150000.0 9035780000.0 9044210000.0 9035790000.0 9128180000.0 9035820000.0 9424540000.0 9035860000.0 9914570000.0 9035950000.0 10331300000.0 9065440000.0 10823000000.0 10081900000.0 12711900000.0 11347500000.0 13653400000.0 13537500000.0 13640900000.0 10840900000.0 11666400000.0 13264800000.0 13495000000.0 13432600000.0 12445200000.0 12478200000.0 12309300000.0 11072700000.0 10425900000.0 12597900000.0 12490100000.0 12590000000.0 10783600000.0 11849700000.0 9815600000.0 10403400000.0 9055460000.0 10028100000.0 9035900000.0 9700820000.0 9035840000.0 9323590000.0 9035800000.0 9100880000.0 9035780000.0 9041070000.0 9035770000.0 9035970000.0 9035760000.0 9035760000.0 9035760000.0 9035760000.0 9035760000.0 9035760000.0 9035760000.0 9035760000.0 9035750000.0 9035750000.0 9035750000.0 9035750000.0 9035750000.0 9035750000.0 9035750000.0 9035750000.0 9035750000.0 9035750000.0 9035750000.0 9035760000.0 9035760000.0 9035760000.0 9035760000.0 9035760000.0 9035760000.0 9035760000.0 9035760000.0 9035970000.0 9035770000.0 9041070000.0 9035780000.0 9100880000.0 9035800000.0 9323590000.0 9035840000.0 9700820000.0 9035900000.0 10028100000.0 9055460000.0 10403400000.0 9815600000.0 11849700000.0 10783600000.0 12590000000.0 12490100000.0 12597900000.0 10425900000.0 11072700000.0 12309300000.0 12478200000.0 12445200000.0 11458000000.0 11473200000.0 11358300000.0 10481500000.0 10018400000.0 11561700000.0 11470400000.0 11546900000.0 10253900000.0 11015600000.0 9573310000.0 9997820000.0 9048090000.0 9734170000.0 9035860000.0 9499580000.0 9035810000.0 9233100000.0 9035790000.0 9078660000.0 9035770000.0 9038930000.0 9035770000.0 9035870000.0 9035760000.0 9035760000.0 9035760000.0 9035760000.0 9035760000.0 9035760000.0 9035750000.0 9035750000.0 9035750000.0 9035750000.0 9035750000.0 9035750000.0 9035750000.0 9035750000.0 9035750000.0 9035750000.0 9035750000.0 9035750000.0 9035750000.0 9035750000.0 9035750000.0 9035760000.0 9035760000.0 9035760000.0 9035760000.0 9035760000.0 9035760000.0 9035870000.0 9035770000.0 9038930000.0 9035770000.0 9078660000.0 9035790000.0 9233100000.0 9035810000.0 9499580000.0 9035860000.0 9734170000.0 9048090000.0 9997820000.0 9573310000.0 11015600000.0 10253900000.0 11546900000.0 11470400000.0 11561700000.0 10018400000.0 10481500000.0 11358300000.0 11473200000.0 11458000000.0 10470800000.0 10476700000.0 10410500000.0 9891760000.0 9616010000.0 10530500000.0 10470600000.0 10518100000.0 9748340000.0 10201200000.0 9347910000.0 9602050000.0 9042450000.0 9446990000.0 9035820000.0 9307200000.0 9035790000.0 9149930000.0 9035770000.0 9059900000.0 9035770000.0 9037410000.0 9035760000.0 9035810000.0 9035760000.0 9035760000.0 9035760000.0 9035760000.0 9035750000.0 9035750000.0 9035750000.0 9035750000.0 9035750000.0 9035750000.0 9035750000.0 9035750000.0 9035750000.0 9035750000.0 9035750000.0 9035750000.0 9035750000.0 9035750000.0 9035750000.0 9035750000.0 9035750000.0 9035750000.0 9035750000.0 9035760000.0 9035760000.0 9035760000.0 9035760000.0 9035810000.0 9035760000.0 9037410000.0 9035770000.0 9059900000.0 9035770000.0 9149930000.0 9035790000.0 9307200000.0 9035820000.0 9446990000.0 9042450000.0 9602050000.0 9347910000.0 10201200000.0 9748340000.0 10518100000.0 10470600000.0 10530500000.0 9616010000.0 9891760000.0 10410500000.0 10476700000.0 10470800000.0 9483690000.0 9485130000.0 9464730000.0 9302880000.0 9216640000.0 9502080000.0 9482730000.0 9497790000.0 9257070000.0 9398630000.0 9132420000.0 9212070000.0 9037770000.0 9163800000.0 9035770000.0 9120070000.0 9035760000.0 9071060000.0 9035760000.0 9043140000.0 9035760000.0 9036240000.0 9035760000.0 9035770000.0 9035750000.0 9035750000.0 9035750000.0 9035750000.0 9035750000.0 9035750000.0 9035750000.0 9035750000.0 9035750000.0 9035750000.0 9035750000.0 9035750000.0 9035750000.0 9035750000.0 9035750000.0 9035750000.0 9035750000.0 9035750000.0 9035750000.0 9035750000.0 9035750000.0 9035750000.0 9035750000.0 9035750000.0 9035750000.0 9035750000.0 9035750000.0 9035770000.0 9035760000.0 9036240000.0 9035760000.0 9043140000.0 9035760000.0 9071060000.0 9035760000.0 9120070000.0 9035770000.0 9163800000.0 9037770000.0 9212070000.0 9132420000.0 9398630000.0 9257070000.0 9497790000.0 9482730000.0 9502080000.0 9216640000.0 9302880000.0 9464730000.0 9485130000.0 9483690000.0 