# vtk DataFile Version 2.0
Time step 99
ASCII
DATASET UNSTRUCTURED_GRID
POINTS 4650 float
208867.0 269526.0 0
215463.0 269127.0 0
219230.0 270408.0 0
236870.0 270932.0 0
243828.0 270694.0 0
247249.0 268624.0 0
250763.0 270533.0 0
257715.0 270446.0 0
284437.0 270496.0 0
291222.0 270508.0 0
294652.0 268490.0 0
298003.0 270635.0 0
201997.0 273523.0 0
205423.0 271521.0 0
208871.0 273526.0 0
212301.0 271537.0 0
215742.0 273511.0 0
222963.0 271793.0 0
226565.0 273492.0 0
233490.0 273069.0 0
240419.0 272780.0 0
247343.0 272602.0 0
254263.0 272462.0 0
261190.0 272422.0 0
265129.0 271771.0 0
271553.0 273617.0 0
274981.0 271570.0 0
281021.0 272536.0 0
287837.0 272561.0 0
294596.0 272618.0 0
205437.0 275512.0 0
212324.0 275526.0 0
219589.0 274366.0 0
223273.0 275760.0 0
230139.0 275244.0 0
237039.0 274907.0 0
243939.0 274671.0 0
250840.0 274514.0 0
257736.0 274427.0 0
267031.0 275274.0 0
277620.0 274556.0 0
284446.0 274561.0 0
291220.0 274613.0 0
298005.0 274632.0 0
201997.0 277499.0 0
208883.0 277503.0 0
215793.0 277502.0 0
219690.0 278323.0 0
226823.0 277464.0 0
233686.0 277047.0 0
240564.0 276759.0 0
244063.0 278641.0 0
247439.0 276572.0 0
250910.0 278487.0 0
254310.0 276447.0 0
257751.0 278405.0 0
261183.0 276401.0 0
264579.0 278406.0 0
270381.0 277422.0 0
274235.0 276581.0 0
277714.0 278538.0 0
281067.0 276544.0 0
284479.0 278560.0 0
287845.0 276589.0 0
291243.0 278603.0 0
294619.0 276618.0 0
298006.0 278624.0 0
205433.0 279476.0 0
208862.0 281453.0 0
212336.0 279492.0 0
223419.0 279717.0 0
227020.0 281409.0 0
230358.0 279218.0 0
233900.0 281004.0 0
237217.0 278873.0 0
240718.0 280727.0 0
247536.0 280539.0 0
254353.0 280422.0 0
261155.0 280387.0 0
267904.0 280473.0 0
274403.0 280540.0 0
281133.0 280540.0 0
287877.0 280577.0 0
294630.0 280607.0 0
201996.0 281460.0 0
205411.0 283427.0 0
212271.0 283436.0 0
215789.0 281478.0 0
219696.0 282259.0 0
223422.0 283657.0 0
230611.0 283148.0 0
237404.0 282833.0 0
244189.0 282604.0 0
250980.0 282454.0 0
257764.0 282383.0 0
264509.0 282408.0 0
271163.0 282560.0 0
277811.0 282531.0 0
284527.0 282551.0 0
291263.0 282585.0 0
298007.0 282607.0 0
201994.0 285413.0 0
208797.0 285398.0 0
215660.0 285426.0 0
219525.0 286171.0 0
227383.0 285311.0 0
234123.0 284955.0 0
240872.0 284688.0 0
244310.0 286563.0 0
247632.0 284500.0 0
251050.0 286415.0 0
254396.0 284392.0 0
257785.0 286357.0 0
261140.0 284374.0 0
264490.0 286397.0 0
267831.0 284469.0 0
271187.0 286505.0 0
274517.0 284535.0 0
277879.0 286520.0 0
281196.0 284532.0 0
284569.0 286534.0 0
287909.0 284559.0 0
291282.0 286560.0 0
294640.0 284585.0 0
298008.0 286578.0 0
205380.0 287380.0 0
212137.0 287370.0 0
224236.0 287481.0 0
230892.0 287097.0 0
234342.0 288916.0 0
237587.0 286792.0 0
241017.0 288646.0 0
247725.0 288454.0 0
254444.0 288353.0 0
261152.0 288347.0 0
267848.0 288428.0 0
274551.0 288496.0 0
281240.0 288512.0 0
287935.0 288533.0 0
294648.0 288552.0 0
201992.0 289364.0 0
205352.0 291337.0 0
208729.0 289361.0 0
212041.0 291339.0 0
215427.0 289325.0 0
218228.0 291802.0 0
221190.0 289659.0 0
224610.0 291439.0 0
227720.0 289260.0 0
231144.0 291065.0 0
237757.0 290752.0 0
244422.0 290514.0 0
251118.0 290365.0 0
257819.0 290314.0 0
264513.0 290356.0 0
271213.0 290444.0 0
277910.0 290484.0 0
284597.0 290505.0 0
291296.0 290523.0 0
298009.0 290537.0 0
201990.0 293310.0 0
208677.0 293339.0 0
215067.0 293666.0 0
221536.0 293619.0 0
227989.0 293236.0 0
234534.0 292884.0 0
241147.0 292599.0 0
247808.0 292398.0 0
251180.0 294300.0 0
254494.0 292298.0 0
257858.0 294251.0 0
261183.0 292296.0 0
264542.0 294291.0 0
267875.0 292368.0 0
271235.0 294374.0 0
274574.0 292440.0 0
277927.0 294431.0 0
281263.0 292474.0 0
284611.0 294460.0 0
287952.0 292493.0 0
294654.0 292506.0 0
205321.0 295290.0 0
211852.0 295506.0 0
218366.0 295681.0 0
224861.0 295417.0 0
231347.0 295040.0 0
234690.0 296849.0 0
237903.0 294711.0 0
241255.0 296543.0 0
244519.0 294455.0 0
247879.0 296325.0 0
254539.0 296223.0 0
261213.0 296222.0 0
267898.0 296291.0 0
274588.0 296371.0 0
281272.0 296419.0 0
287958.0 296439.0 0
291304.0 294474.0 0
294656.0 296445.0 0
298009.0 294481.0 0
201988.0 297248.0 0
205294.0 299245.0 0
208584.0 297346.0 0
211891.0 299430.0 0
215145.0 297581.0 0
218496.0 299569.0 0
221700.0 297549.0 0
225025.0 299376.0 0
228186.0 297213.0 0
231506.0 299007.0 0
238019.0 298661.0 0
244596.0 298380.0 0
251230.0 298214.0 0
257889.0 298166.0 0
264564.0 298206.0 0
271249.0 298292.0 0
277933.0 298364.0 0
284614.0 298399.0 0
291305.0 298407.0 0
298010.0 298408.0 0
201987.0 301169.0 0
208612.0 301275.0 0
215254.0 301467.0 0
221854.0 301480.0 0
228339.0 301173.0 0
234812.0 300805.0 0
241335.0 300475.0 0
247931.0 300231.0 0
251261.0 302106.0 0
254571.0 300126.0 0
257902.0 302058.0 0
261231.0 300126.0 0
264567.0 302100.0 0
267909.0 300198.0 0
271248.0 302196.0 0
274592.0 300290.0 0
281271.0 300349.0 0
287956.0 300367.0 0
294655.0 300365.0 0
205311.0 303151.0 0
211971.0 303309.0 0
218652.0 303458.0 0
225192.0 303333.0 0
231634.0 302965.0 0
234903.0 304756.0 0
238103.0 302603.0 0
241383.0 304392.0 0
244646.0 302284.0 0
247959.0 304111.0 0
254580.0 304007.0 0
261225.0 304008.0 0
267898.0 304086.0 0
274581.0 304196.0 0
277928.0 302284.0 0
281259.0 304266.0 0
284607.0 302322.0 0
287946.0 304277.0 0
291301.0 302322.0 0
294652.0 304264.0 0
298010.0 302315.0 0
201987.0 305048.0 0
205336.0 307006.0 0
208664.0 305149.0 0
212050.0 307146.0 0
215368.0 305319.0 0
218792.0 307309.0 0
222075.0 305423.0 0
225504.0 307428.0 0
228490.0 305132.0 0
231741.0 306926.0 0
238155.0 306536.0 0
244666.0 306157.0 0
251266.0 305973.0 0
257885.0 305930.0 0
264540.0 305972.0 0
271225.0 306083.0 0
277908.0 306190.0 0
284592.0 306229.0 0
291292.0 306215.0 0
298010.0 306199.0 0
201988.0 308882.0 0
208711.0 308973.0 0
215461.0 309135.0 0
222223.0 309306.0 0
228917.0 309453.0 0
234968.0 308706.0 0
241397.0 308298.0 0
244652.0 309982.0 0
247960.0 307960.0 0
251240.0 309820.0 0
254555.0 307868.0 0
257821.0 309783.0 0
261178.0 307868.0 0
264466.0 309816.0 0
267854.0 307949.0 0
271168.0 309946.0 0
274548.0 308086.0 0
277874.0 310082.0 0
281237.0 308168.0 0
287932.0 308168.0 0
291283.0 310084.0 0
294647.0 308139.0 0
298011.0 310058.0 0
201988.0 312674.0 0
205356.0 310815.0 0
212108.0 310944.0 0
218884.0 311125.0 0
225633.0 311375.0 0
232336.0 311448.0 0
238181.0 310466.0 0
241375.0 312204.0 0
247934.0 311775.0 0
254482.0 311718.0 0
261074.0 311704.0 0
267755.0 311778.0 0
274488.0 311954.0 0
281210.0 312055.0 0
284572.0 310120.0 0
287920.0 312039.0 0
294645.0 311987.0 0
205366.0 314584.0 0
208741.0 312757.0 0
212136.0 314708.0 0
215516.0 312918.0 0
218923.0 314908.0 0
222299.0 313146.0 0
225738.0 315329.0 0
229033.0 313396.0 0
235771.0 313413.0 0
244621.0 313716.0 0
251148.0 313660.0 0
257711.0 313623.0 0
264309.0 313627.0 0
271053.0 313774.0 0
277830.0 313950.0 0
284563.0 313994.0 0
291281.0 313929.0 0
298011.0 313892.0 0
201988.0 316431.0 0
208752.0 316506.0 0
215532.0 316673.0 0
222323.0 316932.0 0
229134.0 317335.0 0
232444.0 315369.0 0
235865.0 317312.0 0
239215.0 315373.0 0
244248.0 317316.0 0
247787.0 315581.0 0
251007.0 317466.0 0
254366.0 315553.0 0
257577.0 317455.0 0
260924.0 315532.0 0
264103.0 317446.0 0
267509.0 315550.0 0
270614.0 317492.0 0
274401.0 315784.0 0
277813.0 317783.0 0
281203.0 315922.0 0
284592.0 317854.0 0
287929.0 315890.0 0
291304.0 317750.0 0
294651.0 315809.0 0
298013.0 317705.0 0
201987.0 320160.0 0
205366.0 318321.0 0
208740.0 320228.0 0
212136.0 318444.0 0
215512.0 320400.0 0
218922.0 318655.0 0
225845.0 319299.0 0
232546.0 319279.0 0
240811.0 318909.0 0
247578.0 319296.0 0
254237.0 319366.0 0
260764.0 319367.0 0
267219.0 319374.0 0
273598.0 319421.0 0
281258.0 319770.0 0
287988.0 319730.0 0
294676.0 319609.0 0
205357.0 322033.0 0
212101.0 322156.0 0
218884.0 322365.0 0
222316.0 320660.0 0
229249.0 321273.0 0
234215.0 322743.0 0
237490.0 320793.0 0
240860.0 322792.0 0
244172.0 321045.0 0
247526.0 323047.0 0
250876.0 321232.0 0
257451.0 321281.0 0
263908.0 321296.0 0
270261.0 321321.0 0
276506.0 321265.0 0
279392.0 322987.0 0
284714.0 321713.0 0
291378.0 321556.0 0
298016.0 321504.0 0
201986.0 323866.0 0
205339.0 325726.0 0
208714.0 323932.0 0
215435.0 324099.0 0
222277.0 324331.0 0
225958.0 323275.0 0
230987.0 324737.0 0
237613.0 324681.0 0
244226.0 324835.0 0
250840.0 325012.0 0
254141.0 323165.0 0
257367.0 325109.0 0
260632.0 323214.0 0
263773.0 325166.0 0
267001.0 323244.0 0
270057.0 325198.0 0
273258.0 323250.0 0
276250.0 325101.0 0
282334.0 324551.0 0
288156.0 323574.0 0
291540.0 325364.0 0
294737.0 323400.0 0
298021.0 325307.0 0
201983.0 327556.0 0
208669.0 327618.0 0
212050.0 325859.0 0
215358.0 327820.0 0
218727.0 326026.0 0
221925.0 327899.0 0
227793.0 326739.0 0
234412.0 326640.0 0
240992.0 326653.0 0
247571.0 326832.0 0
254113.0 326973.0 0
260556.0 327068.0 0
266881.0 327131.0 0
273105.0 327118.0 0
279276.0 326824.0 0
285393.0 326006.0 0
288562.0 327522.0 0
294824.0 327213.0 0
205289.0 329403.0 0
211980.0 329547.0 0
218639.0 329778.0 0
225166.0 329389.0 0
228439.0 331011.0 0
231262.0 328656.0 0
234708.0 330531.0 0
237819.0 328556.0 0
241192.0 330508.0 0
244352.0 328652.0 0
247680.0 330643.0 0
250878.0 328813.0 0
254145.0 330793.0 0
257344.0 328942.0 0
260543.0 330922.0 0
263713.0 329041.0 0
269975.0 329087.0 0
276169.0 328952.0 0
279264.0 330646.0 0
282369.0 328363.0 0
285528.0 329817.0 0
291752.0 329238.0 0
298026.0 329127.0 0
201979.0 331246.0 0
205219.0 333102.0 0
208538.0 331278.0 0
211709.0 333157.0 0
215295.0 331534.0 0
222006.0 331600.0 0
225403.0 333229.0 0
231769.0 332675.0 0
238099.0 332433.0 0
244531.0 332487.0 0
250969.0 332631.0 0
257375.0 332779.0 0
263718.0 332909.0 0
266851.0 331017.0 0
269986.0 332975.0 0
273073.0 330997.0 0
276182.0 332815.0 0
282405.0 332109.0 0
288705.0 331362.0 0
291864.0 333072.0 0
294918.0 331059.0 0
298031.0 332966.0 0
201976.0 334949.0 0
208379.0 334988.0 0
214721.0 335048.0 0
218725.0 333490.0 0
222263.0 335313.0 0
228796.0 334884.0 0
235108.0 334462.0 0
241442.0 334373.0 0
247832.0 334473.0 0
254221.0 334622.0 0
260578.0 334771.0 0
266885.0 334893.0 0
273124.0 334887.0 0
279296.0 334492.0 0
282467.0 335779.0 0
285609.0 333546.0 0
288813.0 335127.0 0
294972.0 334900.0 0
201974.0 338655.0 0
205160.0 336843.0 0
211436.0 336891.0 0
217593.0 336841.0 0
220507.0 338384.0 0
225782.0 337023.0 0
229217.0 338742.0 0
232154.0 336582.0 0
235477.0 338369.0 0
238430.0 336332.0 0
241721.0 338255.0 0
244745.0 336340.0 0
248011.0 338321.0 0
251096.0 336464.0 0
254325.0 338460.0 0
257441.0 336617.0 0
260638.0 338613.0 0
263764.0 336764.0 0
270054.0 336858.0 0
276263.0 336715.0 0
279392.0 338404.0 0
285743.0 337196.0 0
291939.0 336879.0 0
298034.0 336800.0 0
205131.0 340620.0 0
208263.0 338770.0 0
211320.0 340686.0 0
214432.0 338780.0 0
217486.0 340536.0 0
223533.0 339767.0 0
226649.0 341187.0 0
232571.0 340470.0 0
238756.0 340233.0 0
244978.0 340211.0 0
251242.0 340311.0 0
257526.0 340456.0 0
263818.0 340605.0 0
266946.0 338750.0 0
270128.0 340723.0 0
273230.0 338790.0 0
276413.0 340663.0 0
282653.0 339285.0 0
285877.0 340828.0 0
288911.0 338866.0 0
291967.0 340679.0 0
294997.0 338729.0 0
298035.0 340614.0 0
201973.0 342333.0 0
208232.0 342579.0 0
214417.0 342522.0 0
220631.0 342088.0 0
223817.0 343538.0 0
229830.0 342716.0 0
235846.0 342275.0 0
242000.0 342147.0 0
248202.0 342185.0 0
254441.0 342305.0 0
260702.0 342451.0 0
266985.0 342588.0 0
273307.0 342685.0 0
279364.0 342781.0 0
282731.0 342630.0 0
288921.0 342615.0 0
294994.0 342535.0 0
201976.0 345926.0 0
205146.0 344412.0 0
211345.0 344464.0 0
214535.0 346226.0 0
217600.0 344210.0 0
220838.0 345759.0 0
227015.0 345021.0 0
230200.0 346608.0 0
233024.0 344409.0 0
236212.0 346199.0 0
239075.0 344140.0 0
242272.0 346049.0 0
245211.0 344095.0 0
248392.0 346063.0 0
251394.0 344171.0 0
254556.0 346162.0 0
257612.0 344301.0 0
260756.0 346294.0 0
263857.0 344441.0 0
266983.0 346427.0 0
270130.0 344565.0 0
276359.0 344772.0 0
282468.0 345989.0 0
285791.0 344462.0 0
288803.0 346321.0 0
291933.0 344454.0 0
294964.0 346297.0 0
298035.0 344395.0 0
201972.0 349344.0 0
205191.0 348223.0 0
208271.0 346379.0 0
211459.0 348202.0 0
217794.0 347861.0 0
224086.0 347261.0 0
227311.0 348811.0 0
233371.0 348315.0 0
239383.0 348055.0 0
245438.0 347990.0 0
251543.0 348044.0 0
257689.0 348155.0 0
263869.0 348285.0 0
270052.0 348432.0 0
273193.0 346585.0 0
276150.0 348724.0 0
279259.0 347068.0 0
285549.0 348036.0 0
291840.0 348166.0 0
298034.0 348126.0 0
201971.0 352610.0 0
208378.0 350150.0 0
214725.0 349891.0 0
218047.0 351490.0 0
221084.0 349414.0 0
224360.0 350966.0 0
230506.0 350452.0 0
236526.0 350108.0 0
242531.0 349958.0 0
248574.0 349954.0 0
254663.0 350032.0 0
260791.0 350148.0 0
266939.0 350286.0 0
273049.0 350496.0 0
279107.0 350952.0 0
282264.0 349539.0 0
285374.0 351623.0 0
288630.0 349953.0 0
294914.0 349994.0 0
205341.0 352092.0 0
208576.0 353895.0 0
211647.0 351892.0 0
214999.0 353515.0 0
221372.0 353061.0 0
227601.0 352576.0 0
230798.0 354270.0 0
233671.0 352188.0 0
236805.0 354000.0 0
239660.0 351966.0 0
242767.0 353871.0 0
245651.0 351896.0 0
248742.0 353857.0 0
251680.0 351932.0 0
254756.0 353918.0 0
257753.0 352024.0 0
260809.0 354019.0 0
263856.0 352146.0 0
266881.0 354159.0 0
269956.0 352315.0 0
276017.0 352623.0 0
282155.0 353196.0 0
288499.0 353555.0 0
291730.0 351809.0 0
294862.0 353625.0 0
298032.0 351797.0 0
201976.0 355857.0 0
205493.0 355913.0 0
211959.0 355521.0 0
218371.0 355101.0 0
221714.0 356706.0 0
224664.0 354664.0 0
227904.0 356333.0 0
233950.0 356043.0 0
239908.0 355871.0 0
245845.0 355810.0 0
251804.0 355834.0 0
257801.0 355909.0 0
263832.0 356021.0 0
269875.0 356193.0 0
272940.0 354384.0 0
275929.0 356475.0 0
279017.0 354772.0 0
282080.0 356886.0 0
285268.0 355238.0 0
291647.0 355403.0 0
298030.0 355411.0 0
201981.0 359188.0 0
208936.0 357528.0 0
212427.0 359092.0 0
215381.0 357105.0 0
218771.0 358710.0 0
224999.0 358365.0 0
231087.0 358078.0 0
237062.0 357883.0 0
242979.0 357786.0 0
248893.0 357773.0 0
254836.0 357819.0 0
260816.0 357904.0 0
266827.0 358034.0 0
272861.0 358243.0 0
278951.0 358556.0 0
285195.0 358862.0 0
288413.0 357143.0 0
291595.0 358958.0 0
294827.0 357202.0 0
298029.0 358983.0 0
302245.0 358385.0 0
203650.0 362029.0 0
205948.0 359534.0 0
209554.0 361076.0 0
215861.0 360689.0 0
222099.0 360364.0 0
225350.0 362083.0 0
228217.0 360093.0 0
231370.0 361891.0 0
234216.0 359893.0 0
237298.0 361765.0 0
240134.0 359775.0 0
243169.0 361705.0 0
246018.0 359733.0 0
249027.0 361700.0 0
251912.0 359750.0 0
254903.0 361734.0 0
257839.0 359808.0 0
260817.0 361799.0 0
263805.0 359903.0 0
266779.0 361903.0 0
269809.0 360055.0 0
272798.0 362077.0 0
275863.0 360294.0 0
282021.0 360580.0 0
288358.0 360708.0 0
294809.0 360737.0 0
207017.0 363207.0 0
210371.0 364728.0 0
213023.0 362668.0 0
216400.0 364306.0 0
219223.0 362337.0 0
222497.0 364052.0 0
228524.0 363869.0 0
234466.0 363747.0 0
240336.0 363682.0 0
246171.0 363663.0 0
252007.0 363679.0 0
257870.0 363720.0 0
263779.0 363787.0 0
269752.0 363901.0 0
275806.0 364087.0 0
278896.0 362317.0 0
281972.0 364265.0 0
285144.0 362477.0 0
288331.0 364238.0 0
291570.0 362474.0 0
294811.0 364239.0 0
298029.0 362529.0 0
201931.0 364452.0 0
204834.0 365701.0 0
207909.0 366928.0 0
213690.0 366321.0 0
219676.0 366013.0 0
225685.0 365831.0 0
231636.0 365714.0 0
237512.0 365652.0 0
243337.0 365630.0 0
249143.0 365637.0 0
254962.0 365662.0 0
260818.0 365701.0 0
266734.0 365766.0 0
272738.0 365889.0 0
278846.0 366059.0 0
285115.0 366062.0 0
291586.0 365946.0 0
298032.0 366075.0 0
302175.0 366469.0 0
201957.0 367815.0 0
205115.0 369166.0 0
211132.0 368444.0 0
214280.0 370066.0 0
216924.0 368004.0 0
220056.0 369761.0 0
222858.0 367785.0 0
225993.0 369600.0 0
228810.0 367663.0 0
231874.0 369549.0 0
234691.0 367609.0 0
237699.0 369545.0 0
240515.0 367593.0 0
243482.0 369561.0 0
246305.0 367601.0 0
249245.0 369583.0 0
252090.0 367619.0 0
255016.0 369600.0 0
257899.0 367642.0 0
260823.0 369610.0 0
263756.0 367672.0 0
266691.0 369625.0 0
269693.0 367732.0 0
272663.0 369681.0 0
275748.0 367859.0 0
278801.0 369783.0 0
281938.0 367932.0 0
285140.0 369581.0 0
288360.0 367709.0 0
291742.0 369354.0 0
294879.0 367717.0 0
298037.0 369677.0 0
201966.0 371047.0 0
208396.0 370383.0 0
211675.0 372147.0 0
217291.0 371804.0 0
223192.0 371539.0 0
229061.0 371474.0 0
234885.0 371479.0 0
240667.0 371510.0 0
246419.0 371545.0 0
252164.0 371567.0 0
257930.0 371571.0 0
263742.0 371560.0 0
269627.0 371558.0 0
275648.0 371607.0 0
281957.0 371563.0 0
285773.0 372842.0 0
288641.0 371053.0 0
291801.0 372795.0 0
294970.0 371221.0 0
298034.0 373389.0 0
201972.0 374174.0 0
205381.0 372392.0 0
208816.0 373553.0 0
214528.0 373918.0 0
220411.0 373507.0 0
226258.0 373392.0 0
232074.0 373396.0 0
237853.0 373443.0 0
243602.0 373496.0 0
249332.0 373534.0 0
255069.0 373543.0 0
260838.0 373523.0 0
266659.0 373488.0 0
272561.0 373469.0 0
278671.0 373451.0 0
283213.0 374631.0 0
288915.0 374598.0 0
294695.0 374670.0 0
197201.0 379021.0 0
199981.0 377280.0 0
202879.0 377582.0 0
205146.0 375344.0 0
208212.0 376280.0 0
211673.0 376048.0 0
214849.0 377559.0 0
217637.0 375521.0 0
220690.0 377262.0 0
223471.0 375317.0 0
226469.0 377197.0 0
229267.0 375299.0 0
232226.0 377250.0 0
235039.0 375355.0 0
237967.0 377343.0 0
240786.0 375430.0 0
243693.0 377432.0 0
246512.0 375492.0 0
249406.0 377486.0 0
252231.0 375519.0 0
255124.0 377487.0 0
257969.0 375502.0 0
260871.0 377437.0 0
263746.0 375453.0 0
266653.0 377362.0 0
269569.0 375396.0 0
272454.0 377289.0 0
275482.0 375356.0 0
277863.0 377645.0 0
280584.0 376139.0 0
283436.0 378225.0 0
286209.0 376467.0 0
291788.0 376440.0 0
296942.0 376946.0 0
299664.0 377051.0 0
302613.0 378905.0 0
194404.0 380770.0 0
197543.0 381970.0 0
200358.0 380184.0 0
203520.0 380783.0 0
206035.0 378646.0 0
209451.0 379122.0 0
212415.0 379861.0 0
217906.0 379231.0 0
223679.0 379100.0 0
229418.0 379131.0 0
235144.0 379235.0 0
240868.0 379348.0 0
246583.0 379436.0 0
252293.0 379468.0 0
258022.0 379431.0 0
263780.0 379348.0 0
269546.0 379260.0 0
275104.0 379348.0 0
280615.0 379824.0 0
286293.0 380139.0 0
289054.0 378316.0 0
291685.0 380297.0 0
294270.0 378522.0 0
296829.0 380613.0 0
299600.0 379920.0 0
305556.0 380744.0 0
188734.0 384315.0 0
191587.0 382531.0 0
194700.0 383745.0 0
200858.0 383074.0 0
204083.0 383868.0 0
206826.0 381659.0 0
209894.0 382506.0 0
215269.0 381350.0 0
220888.0 381015.0 0
223820.0 382877.0 0
226617.0 381006.0 0
229500.0 382970.0 0
232320.0 381109.0 0
238034.0 381241.0 0
243753.0 381362.0 0
249465.0 381433.0 0
255186.0 381424.0 0
260932.0 381345.0 0
266687.0 381243.0 0
269554.0 383167.0 0
272337.0 381230.0 0
275130.0 383255.0 0
277846.0 381472.0 0
283480.0 381859.0 0
289043.0 382090.0 0
294271.0 382352.0 0
299715.0 383030.0 0
302609.0 381964.0 0
305631.0 383831.0 0
308532.0 382603.0 0
311549.0 384486.0 0
185834.0 386127.0 0
191807.0 385533.0 0
194992.0 386644.0 0
197969.0 384829.0 0
201241.0 386025.0 0
204353.0 387051.0 0
207187.0 384911.0 0
210090.0 386078.0 0
212710.0 383688.0 0
215417.0 385123.0 0
218141.0 382997.0 0
221040.0 384766.0 0
226688.0 384817.0 0
232337.0 384970.0 0
235189.0 383114.0 0
238048.0 385130.0 0
240909.0 383259.0 0
243780.0 385280.0 0
246631.0 383372.0 0
249512.0 385367.0 0
252353.0 383406.0 0
255261.0 385343.0 0
258096.0 383347.0 0
261030.0 385239.0 0
263853.0 383238.0 0
266767.0 385134.0 0
272411.0 385130.0 0
277988.0 385285.0 0
280701.0 383539.0 0
283588.0 385553.0 0
286321.0 383834.0 0
291752.0 384097.0 0
296986.0 384206.0 0
299965.0 386269.0 0
302766.0 385094.0 0
305839.0 386960.0 0
308680.0 385674.0 0
314569.0 386374.0 0
182891.0 387966.0 0
185825.0 389186.0 0
188844.0 387345.0 0
191930.0 388479.0 0
195027.0 389542.0 0
198185.0 387705.0 0
201294.0 389079.0 0
207344.0 388304.0 0
212701.0 387562.0 0
215354.0 388716.0 0
218254.0 386700.0 0
223901.0 386656.0 0
229482.0 386815.0 0
235168.0 386981.0 0
240907.0 387154.0 0
246654.0 387293.0 0
252414.0 387323.0 0
258202.0 387239.0 0
263978.0 387118.0 0
269677.0 387052.0 0
275297.0 387108.0 0
280903.0 387293.0 0
286483.0 387528.0 0
289145.0 385816.0 0
292007.0 387810.0 0
294465.0 386138.0 0
297250.0 387684.0 0
300360.0 389513.0 0
303063.0 388303.0 0
308790.0 388822.0 0
311682.0 387563.0 0
314707.0 389428.0 0
317612.0 388275.0 0
177009.0 391645.0 0
179932.0 389815.0 0
182796.0 391065.0 0
185711.0 392237.0 0
188813.0 390343.0 0
191823.0 391417.0 0
198102.0 390595.0 0
201023.0 392254.0 0
204222.0 390274.0 0
207031.0 391664.0 0
210173.0 389841.0 0
215510.0 391850.0 0
218378.0 390255.0 0
221138.0 388481.0 0
223782.0 390476.0 0
226631.0 388652.0 0
229364.0 390649.0 0
232272.0 388819.0 0
235081.0 390826.0 0
238007.0 388999.0 0
240858.0 391028.0 0
243771.0 389181.0 0
249545.0 389277.0 0
255357.0 389229.0 0
261177.0 389107.0 0
264175.0 390971.0 0
266933.0 389004.0 0
269897.0 390905.0 0
272600.0 388987.0 0
275553.0 390922.0 0
278231.0 389079.0 0
281223.0 391034.0 0
283862.0 389280.0 0
289414.0 389477.0 0
294844.0 389982.0 0
297685.0 390958.0 0
303047.0 391749.0 0
305903.0 390233.0 0
308828.0 391999.0 0
311784.0 390677.0 0
317791.0 391281.0 0
320701.0 390204.0 0
323850.0 392171.0 0
174121.0 393453.0 0
176975.0 394869.0 0
179861.0 392981.0 0
182783.0 394211.0 0
188650.0 393352.0 0
191597.0 394381.0 0
194832.0 392448.0 0
197841.0 393508.0 0
203769.0 393530.0 0
209570.0 393534.0 0
212538.0 392020.0 0
217992.0 393931.0 0
220925.0 392273.0 0
226437.0 392467.0 0
232130.0 392639.0 0
237911.0 392844.0 0
243725.0 393060.0 0
246651.0 391192.0 0
249572.0 393150.0 0
252482.0 391199.0 0
255492.0 393060.0 0
258353.0 391091.0 0
261394.0 392936.0 0
267180.0 392847.0 0
272877.0 392813.0 0
278551.0 392834.0 0
284290.0 392970.0 0
286878.0 391218.0 0
290007.0 393109.0 0
292433.0 391394.0 0
296481.0 393668.0 0
300149.0 392951.0 0
305824.0 393541.0 0
311902.0 393783.0 0
314858.0 392491.0 0
318026.0 394279.0 0
320955.0 393161.0 0
327034.0 394162.0 0
168426.0 397017.0 0
171262.0 395242.0 0
174126.0 396723.0 0
179906.0 396176.0 0
182908.0 397386.0 0
185762.0 395381.0 0
188800.0 396504.0 0
191923.0 397538.0 0
194549.0 395390.0 0
197471.0 396403.0 0
200580.0 395639.0 0
203125.0 396836.0 0
206413.0 395064.0 0
208778.0 397190.0 0
211781.0 395896.0 0
214737.0 395060.0 0
220447.0 396012.0 0
223477.0 394266.0 0
226126.0 396216.0 0
229152.0 394440.0 0
234929.0 394639.0 0
240760.0 394879.0 0
246629.0 395058.0 0
252579.0 395010.0 0
258574.0 394886.0 0
264448.0 394795.0 0
267487.0 396673.0 0
270186.0 394734.0 0
273213.0 396605.0 0
275894.0 394703.0 0
278973.0 396558.0 0
281608.0 394715.0 0
287487.0 394800.0 0
290998.0 396498.0 0
293476.0 394623.0 0
296033.0 397079.0 0
299377.0 395810.0 0
302760.0 395243.0 0
305815.0 396718.0 0
308890.0 395108.0 0
312136.0 396842.0 0
315088.0 395537.0 0
318353.0 397263.0 0
321274.0 396104.0 0
324175.0 395126.0 0
327401.0 397152.0 0
330219.0 396153.0 0
165605.0 398778.0 0
171309.0 398541.0 0
174219.0 400022.0 0
177048.0 398114.0 0
180040.0 399383.0 0
185988.0 398544.0 0
189163.0 399639.0 0
195193.0 398604.0 0
198895.0 398956.0 0
205573.0 398426.0 0
211008.0 399625.0 0
214080.0 398572.0 0
217245.0 397420.0 0
223011.0 397949.0 0
228861.0 398167.0 0
231916.0 396418.0 0
234704.0 398419.0 0
237749.0 396659.0 0
240593.0 398699.0 0
243641.0 396910.0 0
246592.0 398871.0 0
249615.0 396962.0 0
255696.0 396812.0 0
258883.0 398620.0 0
261687.0 396725.0 0
264773.0 398605.0 0
270521.0 398544.0 0
276288.0 398434.0 0
282131.0 398384.0 0
284709.0 396572.0 0
287803.0 398157.0 0
290632.0 399662.0 0
293726.0 399397.0 0
299388.0 398576.0 0
302777.0 398562.0 0
306218.0 399763.0 0
309144.0 398090.0 0
312563.0 399858.0 0
315447.0 398563.0 0
321632.0 399052.0 0
324538.0 398080.0 0
327674.0 400194.0 0
330540.0 399211.0 0
333356.0 398116.0 0
336453.0 400054.0 0
159839.0 402378.0 0
162745.0 400564.0 0
165701.0 402016.0 0
168523.0 400338.0 0
171411.0 401887.0 0
177183.0 401378.0 0
180234.0 402587.0 0
183117.0 400552.0 0
186284.0 401671.0 0
189528.0 402709.0 0
192462.0 400575.0 0
196011.0 401419.0 0
199263.0 402121.0 0
201966.0 399943.0 0
204578.0 401519.0 0
207875.0 400723.0 0
213288.0 402130.0 0
216539.0 400982.0 0
219760.0 399623.0 0
222442.0 401460.0 0
225724.0 399852.0 0
231631.0 400154.0 0
237500.0 400449.0 0
243492.0 400712.0 0
249701.0 400672.0 0
252741.0 398722.0 0
253170.0 402269.0 0
256035.0 400465.0 0
262022.0 400499.0 0
267834.0 400496.0 0
273579.0 400367.0 0
279445.0 400208.0 0
285318.0 400314.0 0
288286.0 401933.0 0
291809.0 402677.0 0
296991.0 400590.0 0
300612.0 401439.0 0
303858.0 401946.0 0
309687.0 400983.0 0
315868.0 401641.0 0
318720.0 400275.0 0
321772.0 402106.0 0
324752.0 401107.0 0
330786.0 402307.0 0
333638.0 401225.0 0
339511.0 401966.0 0
156877.0 404228.0 0
159808.0 405535.0 0
162799.0 403754.0 0
165756.0 405250.0 0
168613.0 403708.0 0
174322.0 403347.0 0
177324.0 404633.0 0
183389.0 403699.0 0
186630.0 404795.0 0
192839.0 403452.0 0
196045.0 404484.0 0
202348.0 403847.0 0
206326.0 404058.0 0
209888.0 403202.0 0
215835.0 404529.0 0
219093.0 403252.0 0
225287.0 403352.0 0
228512.0 401819.0 0
231278.0 403866.0 0
234390.0 402179.0 0
237120.0 404225.0 0
240314.0 402486.0 0
246548.0 402591.0 0
250370.0 404077.0 0
256381.0 404137.0 0
259220.0 402341.0 0
262338.0 404273.0 0
265115.0 402414.0 0
268200.0 404313.0 0
270903.0 402349.0 0
274011.0 404128.0 0
276677.0 402113.0 0
279814.0 403761.0 0
282722.0 401947.0 0
285982.0 404346.0 0
295023.0 403088.0 0
298458.0 403871.0 0
301916.0 404644.0 0
307137.0 402931.0 0
310424.0 403932.0 0
313105.0 402917.0 0
315734.0 405018.0 0
318756.0 403470.0 0
321921.0 405109.0 0
324934.0 404130.0 0
327887.0 403257.0 0
330946.0 405449.0 0
333834.0 404389.0 0
336683.0 403204.0 0
339700.0 405135.0 0
342544.0 403863.0 0
150886.0 407973.0 0
153875.0 406103.0 0
156759.0 407382.0 0
162742.0 406924.0 0
165697.0 408446.0 0
168620.0 407163.0 0
171449.0 405280.0 0
174341.0 406666.0 0
177356.0 407833.0 0
180443.0 405762.0 0
183652.0 406817.0 0
186923.0 407921.0 0
189931.0 405793.0 0
193254.0 406465.0 0
199042.0 405096.0 0
200771.0 407325.0 0
204273.0 406640.0 0
208530.0 406473.0 0
212302.0 405478.0 0
218561.0 406966.0 0
221918.0 404797.0 0
224964.0 406753.0 0
228144.0 405415.0 0
233938.0 405951.0 0
239891.0 406242.0 0
243226.0 404433.0 0
244956.0 407296.0 0
247680.0 405783.0 0
250709.0 407738.0 0
253552.0 405936.0 0
259492.0 406076.0 0
265434.0 406213.0 0
271314.0 406141.0 0
277190.0 405809.0 0
282973.0 405219.0 0
289494.0 405292.0 0
293035.0 405958.0 0
296474.0 406484.0 0
299924.0 407185.0 0
305251.0 405330.0 0
308711.0 406146.0 0
312627.0 406393.0 0
318896.0 406573.0 0
324997.0 407181.0 0
328004.0 406353.0 0
333991.0 407591.0 0
336852.0 406410.0 0
342696.0 407037.0 0
345565.0 405751.0 0
348580.0 407636.0 0
147917.0 409832.0 0
153765.0 409296.0 0
156656.0 410602.0 0
159649.0 408695.0 0
162548.0 410066.0 0
165538.0 411508.0 0
171415.0 408716.0 0
174373.0 409975.0 0
180418.0 408866.0 0
183456.0 409826.0 0
190206.0 408904.0 0
193578.0 409178.0 0
196843.0 407798.0 0
202340.0 409985.0 0
205594.0 409459.0 0
208632.0 409593.0 0
211680.0 408619.0 0
215092.0 407859.0 0
221734.0 407865.0 0
227563.0 409058.0 0
230766.0 407611.0 0
233379.0 409720.0 0
236614.0 407993.0 0
242102.0 408701.0 0
247791.0 409437.0 0
253659.0 409659.0 0
256602.0 407865.0 0
262585.0 408032.0 0
268542.0 408112.0 0
271689.0 409892.0 0
274513.0 407853.0 0
277886.0 409425.0 0
280468.0 407386.0 0
284052.0 408228.0 0
287409.0 407999.0 0
290993.0 408631.0 0
294572.0 409230.0 0
298069.0 409821.0 0
303363.0 407908.0 0
306778.0 408548.0 0
310339.0 408913.0 0
313538.0 409518.0 0
316030.0 408195.0 0
318811.0 409849.0 0
321907.0 408133.0 0
325163.0 410164.0 0
328152.0 409428.0 0
331094.0 408603.0 0
336985.0 409677.0 0
339834.0 408362.0 0
342757.0 410276.0 0
345670.0 408921.0 0
348668.0 410776.0 0
351617.0 409534.0 0
141968.0 413552.0 0
144950.0 411688.0 0
147893.0 413076.0 0
150827.0 411202.0 0
153759.0 412559.0 0
159542.0 411937.0 0
162469.0 413252.0 0
168536.0 410707.0 0
171452.0 412132.0 0
177416.0 411071.0 0
180485.0 412074.0 0
186355.0 410872.0 0
189138.0 411912.0 0
192184.0 412011.0 0
195707.0 411313.0 0
198910.0 410390.0 0
203891.0 412837.0 0
207141.0 412633.0 0
210632.0 412129.0 0
213934.0 411262.0 0
217337.0 410548.0 0
220627.0 410684.0 0
224250.0 410211.0 0
230095.0 411354.0 0
236000.0 411835.0 0
239109.0 410181.0 0
241766.0 412474.0 0
244793.0 410989.0 0
250664.0 411435.0 0
256591.0 411579.0 0
259634.0 409805.0 0
262706.0 411737.0 0
265701.0 409983.0 0
268865.0 411899.0 0
274915.0 411468.0 0
281606.0 410789.0 0
285539.0 411248.0 0
289135.0 411407.0 0
292727.0 411944.0 0
296286.0 412529.0 0
301558.0 410486.0 0
305073.0 411124.0 0
308657.0 411573.0 0
312176.0 412105.0 0
315929.0 411945.0 0
319241.0 412928.0 0
322115.0 410983.0 0
328388.0 412480.0 0
331280.0 411766.0 0
334143.0 410837.0 0
336947.0 413068.0 0
339846.0 411678.0 0
345709.0 412128.0 0
351736.0 412616.0 0
354710.0 411465.0 0
357887.0 413449.0 0
138956.0 415434.0 0
144941.0 414931.0 0
147943.0 416346.0 0
150863.0 414474.0 0
153858.0 415870.0 0
156704.0 413917.0 0
159689.0 415263.0 0
162774.0 416491.0 0
165547.0 414388.0 0
168592.0 414276.0 0
174493.0 413300.0 0
177551.0 414360.0 0
180614.0 415323.0 0
183567.0 413084.0 0
186732.0 414242.0 0
190187.0 415070.0 0
193856.0 414535.0 0
197304.0 413911.0 0
200555.0 413241.0 0
209089.0 415335.0 0
212594.0 414727.0 0
215989.0 414008.0 0
219396.0 413723.0 0
223054.0 413369.0 0
226709.0 412637.0 0
232729.0 413453.0 0
238742.0 414013.0 0
244530.0 414702.0 0
247609.0 413114.0 0
250468.0 415140.0 0
253545.0 413380.0 0
256440.0 415295.0 0
259536.0 413470.0 0
262487.0 415312.0 0
265860.0 413672.0 0
272100.0 413651.0 0
278231.0 412790.0 0
281233.0 414078.0 0
284355.0 414326.0 0
287716.0 414463.0 0
291138.0 414781.0 0
294629.0 415286.0 0
299807.0 413125.0 0
303341.0 413719.0 0
306923.0 414215.0 0
310477.0 414682.0 0
314138.0 414848.0 0
317452.0 415369.0 0
322499.0 413776.0 0
325457.0 413095.0 0
327887.0 415685.0 0
331042.0 415054.0 0
334038.0 414207.0 0
339728.0 415053.0 0
342729.0 413554.0 0
345729.0 415333.0 0
348746.0 413924.0 0
351923.0 415678.0 0
354916.0 414481.0 0
361157.0 415494.0 0
135900.0 417344.0 0
138916.0 418641.0 0
141953.0 416781.0 0
144982.0 418188.0 0
150974.0 417772.0 0
156890.0 417253.0 0
159988.0 418572.0 0
166038.0 417326.0 0
169053.0 417851.0 0
171682.0 415547.0 0
174758.0 416696.0 0
177837.0 417716.0 0
183708.0 416271.0 0
186868.0 417303.0 0
192559.0 417729.0 0
195766.0 417244.0 0
199007.0 416676.0 0
202258.0 416126.0 0
205608.0 415801.0 0
211013.0 418008.0 0
214534.0 417419.0 0
218010.0 416917.0 0
221653.0 416475.0 0
225472.0 415957.0 0
226773.0 419023.0 0
229266.0 415034.0 0
232600.0 416991.0 0
235674.0 415567.0 0
241459.0 416265.0 0
247363.0 416828.0 0
253354.0 417110.0 0
259345.0 417173.0 0
265387.0 417091.0 0
269133.0 415634.0 0
272658.0 417355.0 0
275461.0 415106.0 0
278813.0 416486.0 0
282364.0 417388.0 0
285952.0 417547.0 0
289504.0 417754.0 0
298146.0 415840.0 0
301680.0 416387.0 0
305250.0 416883.0 0
308826.0 417340.0 0
312442.0 417640.0 0
315910.0 418088.0 0
320873.0 416135.0 0
324594.0 416250.0 0
330285.0 418237.0 0
333640.0 417596.0 0
336710.0 416549.0 0
339529.0 418414.0 0
342664.0 416817.0 0
345909.0 418467.0 0
348920.0 417037.0 0
355197.0 417477.0 0
358198.0 416421.0 0
361568.0 418474.0 0
364494.0 417579.0 0
129637.0 421258.0 0
132795.0 419284.0 0
135821.0 420529.0 0
141969.0 420014.0 0
145054.0 421450.0 0
148044.0 419632.0 0
151138.0 421083.0 0
154042.0 419194.0 0
157160.0 420582.0 0
163180.0 419675.0 0
166329.0 420541.0 0
172098.0 419058.0 0
175162.0 420158.0 0
180958.0 418622.0 0
184180.0 419494.0 0
189612.0 418277.0 0
197248.0 420082.0 0
200583.0 419507.0 0
203964.0 419012.0 0
207470.0 418542.0 0
216456.0 420212.0 0
219973.0 419723.0 0
223482.0 419265.0 0
229787.0 418418.0 0
235270.0 419397.0 0
238374.0 417843.0 0
241108.0 420065.0 0
244249.0 418461.0 0
247120.0 420579.0 0
250247.0 418871.0 0
256260.0 419040.0 0
262237.0 419011.0 0
265087.0 420842.0 0
268037.0 418852.0 0
270814.0 420244.0 0
276223.0 418728.0 0
279937.0 419936.0 0
283947.0 420485.0 0
293013.0 418132.0 0
296530.0 418616.0 0
300067.0 419122.0 0
303631.0 419600.0 0
307212.0 420044.0 0
310817.0 420405.0 0
319361.0 418598.0 0
323058.0 418825.0 0
326797.0 418734.0 0
332679.0 420738.0 0
336299.0 420063.0 0
342901.0 419938.0 0
349143.0 420155.0 0
352172.0 418723.0 0
355543.0 420439.0 0
358581.0 419372.0 0
364993.0 420554.0 0
367927.0 419726.0 0
126431.0 423263.0 0
132665.0 422457.0 0
135741.0 423707.0 0
138889.0 421845.0 0
141993.0 423244.0 0
148168.0 422924.0 0
154273.0 422517.0 0
157442.0 423927.0 0
160322.0 421878.0 0
163476.0 422969.0 0
169414.0 421351.0 0
172534.0 422590.0 0
178268.0 421099.0 0
181462.0 421880.0 0
184790.0 422664.0 0
187396.0 420849.0 0
190717.0 421231.0 0
193944.0 420639.0 0
198838.0 422873.0 0
202278.0 422295.0 0
205792.0 421753.0 0
209362.0 421239.0 0
212927.0 420714.0 0
218428.0 423017.0 0
221970.0 422588.0 0
225468.0 422309.0 0
228949.0 421916.0 0
232241.0 420878.0 0
237909.0 421678.0 0
243963.0 422225.0 0
250052.0 422627.0 0
253166.0 420864.0 0
256111.0 422810.0 0
259183.0 420937.0 0
262130.0 422797.0 0
268114.0 422505.0 0
273774.0 421279.0 0
276894.0 422290.0 0
287734.0 420686.0 0
291355.0 421025.0 0
294912.0 421446.0 0
298466.0 421908.0 0
302038.0 422363.0 0
305625.0 422792.0 0
309231.0 423172.0 0
314360.0 420811.0 0
317899.0 421233.0 0
321549.0 421447.0 0
325287.0 421455.0 0
329036.0 421238.0 0
334482.0 423451.0 0
337489.0 423167.0 0
339976.0 421516.0 0
343091.0 423186.0 0
346117.0 421640.0 0
349456.0 423268.0 0
352482.0 421738.0 0
355825.0 423415.0 0
358918.0 422357.0 0
361972.0 421450.0 0
365186.0 423635.0 0
368240.0 422791.0 0
371209.0 421785.0 0
374334.0 423759.0 0
123186.0 425292.0 0
126214.0 426450.0 0
129459.0 424432.0 0
132537.0 425623.0 0
138857.0 425040.0 0
142002.0 426468.0 0
145125.0 424714.0 0
148282.0 426220.0 0
151314.0 424395.0 0
154495.0 425847.0 0
160607.0 425263.0 0
163769.0 426323.0 0
166638.0 423854.0 0
169845.0 424770.0 0
175627.0 423641.0 0
178754.0 424457.0 0
181986.0 425056.0 0
185322.0 425493.0 0
188423.0 424182.0 0
192039.0 424050.0 0
195438.0 423476.0 0
200556.0 425608.0 0
204088.0 424991.0 0
207679.0 424442.0 0
211283.0 423946.0 0
214866.0 423475.0 0
224016.0 425523.0 0
227685.0 425203.0 0
231328.0 424578.0 0
234686.0 423329.0 0
237380.0 425451.0 0
240732.0 423815.0 0
246904.0 424347.0 0
253020.0 424645.0 0
259094.0 424718.0 0
265227.0 424546.0 0
268530.0 426094.0 0
271281.0 424005.0 0
274365.0 425117.0 0
279971.0 423271.0 0
283079.0 423578.0 0
286368.0 423641.0 0
289827.0 423949.0 0
293340.0 424327.0 0
296882.0 424742.0 0
300454.0 425167.0 0
304049.0 425577.0 0
312815.0 423556.0 0
316402.0 423926.0 0
320052.0 424160.0 0
323742.0 424217.0 0
327437.0 424114.0 0
331063.0 423855.0 0
340188.0 425140.0 0
346516.0 424781.0 0
352714.0 424788.0 0
358999.0 425473.0 0
362091.0 424540.0 0
368047.0 426006.0 0
371220.0 425045.0 0
379323.0 426858.0 0
119916.0 427338.0 0
122944.0 428505.0 0
129290.0 427605.0 0
132414.0 428786.0 0
135660.0 426877.0 0
138821.0 428232.0 0
145165.0 427979.0 0
151470.0 427711.0 0
154698.0 429188.0 0
157695.0 427319.0 0
160872.0 428726.0 0
167000.0 427154.0 0
170403.0 428022.0 0
173141.0 426180.0 0
176300.0 427166.0 0
179699.0 427744.0 0
183223.0 428137.0 0
186975.0 427866.0 0
190249.0 427178.0 0
193754.0 426884.0 0
197126.0 426265.0 0
205963.0 427634.0 0
209589.0 427136.0 0
213203.0 426697.0 0
216808.0 426271.0 0
220408.0 425860.0 0
229946.0 427987.0 0
233841.0 427170.0 0
240477.0 427451.0 0
243724.0 425961.0 0
246675.0 428147.0 0
249875.0 426395.0 0
252923.0 428427.0 0
256051.0 426591.0 0
259172.0 428506.0 0
262154.0 426508.0 0
265277.0 428130.0 0
271854.0 428060.0 0
277699.0 425935.0 0
281218.0 426561.0 0
284745.0 426756.0 0
288219.0 426940.0 0
291731.0 427256.0 0
295277.0 427623.0 0
298854.0 428009.0 0
302459.0 428396.0 0
307662.0 425958.0 0
311274.0 426327.0 0
314894.0 426670.0 0
318552.0 426917.0 0
322239.0 427030.0 0
325927.0 427006.0 0
329593.0 426861.0 0
333215.0 426612.0 0
336793.0 426405.0 0
340979.0 428273.0 0
343662.0 426299.0 0
346874.0 428084.0 0
349726.0 426502.0 0
352865.0 427910.0 0
355908.0 426477.0 0
358706.0 428777.0 0
361759.0 427814.0 0
364890.0 426889.0 0
370575.0 428477.0 0
373654.0 427459.0 0
376533.0 426222.0 0
379322.0 429819.0 0
382373.0 428762.0 0
113349.0 431447.0 0
116632.0 429393.0 0
119661.0 430587.0 0
122730.0 431740.0 0
126015.0 429648.0 0
129135.0 430782.0 0
135587.0 430042.0 0
138795.0 431422.0 0
142008.0 429696.0 0
145194.0 431273.0 0
148326.0 429521.0 0
151467.0 431013.0 0
157967.0 430766.0 0
161307.0 432305.0 0
164046.0 429687.0 0
167366.0 430332.0 0
170658.0 430978.0 0
173864.0 429900.0 0
177464.0 430449.0 0
181124.0 430828.0 0
184899.0 430844.0 0
188547.0 430606.0 0
192003.0 430136.0 0
195513.0 429774.0 0
198839.0 429006.0 0
202349.0 428249.0 0
207847.0 430307.0 0
211461.0 429894.0 0
215076.0 429501.0 0
218698.0 429109.0 0
222344.0 428736.0 0
226071.0 428380.0 0
237183.0 429002.0 0
243436.0 429712.0 0
249713.0 430130.0 0
256068.0 430325.0 0
262388.0 430265.0 0
268361.0 429416.0 0
275499.0 428687.0 0
279154.0 429291.0 0
282849.0 429702.0 0
286466.0 429951.0 0
290035.0 430213.0 0
293613.0 430535.0 0
297212.0 430885.0 0
306085.0 428767.0 0
309722.0 429122.0 0
313370.0 429450.0 0
317042.0 429709.0 0
320730.0 429867.0 0
324410.0 429917.0 0
328049.0 429861.0 0
331614.0 429717.0 0
335046.0 429540.0 0
338303.0 429385.0 0
343970.0 429589.0 0
347407.0 431375.0 0
350080.0 429887.0 0
353020.0 431185.0 0
355772.0 429732.0 0
360910.0 431211.0 0
364197.0 430246.0 0
367412.0 429356.0 0
373219.0 430936.0 0
376288.0 429913.0 0
382395.0 431928.0 0
385470.0 430705.0 0
110078.0 433495.0 0
116386.0 432687.0 0
119459.0 433874.0 0
125846.0 432859.0 0
129015.0 433964.0 0
132309.0 431945.0 0
135532.0 433196.0 0
142020.0 432934.0 0
148344.0 432892.0 0
151446.0 434419.0 0
154572.0 432448.0 0
157509.0 434047.0 0
164927.0 432959.0 0
168474.0 433561.0 0
172233.0 433538.0 0
175546.0 433291.0 0
179134.0 433601.0 0
182858.0 433725.0 0
186582.0 433677.0 0
190244.0 433438.0 0
193819.0 433067.0 0
197401.0 432692.0 0
200628.0 431573.0 0
204219.0 430815.0 0
209616.0 433085.0 0
213222.0 432724.0 0
216839.0 432361.0 0
220460.0 432000.0 0
224079.0 431648.0 0
227672.0 431311.0 0
231117.0 431156.0 0
234446.0 430858.0 0
240042.0 431063.0 0
243184.0 433413.0 0
246448.0 431988.0 0
252847.0 432202.0 0
259330.0 432276.0 0
265736.0 431910.0 0
270359.0 431728.0 0
273725.0 431653.0 0
277278.0 432115.0 0
280941.0 432543.0 0
284622.0 432888.0 0
288265.0 433172.0 0
291888.0 433466.0 0
300835.0 431243.0 0
304480.0 431596.0 0
308143.0 431938.0 0
311820.0 432256.0 0
315515.0 432524.0 0
319222.0 432719.0 0
322923.0 432830.0 0
326596.0 432853.0 0
330225.0 432791.0 0
333803.0 432666.0 0
337356.0 432488.0 0
340959.0 431903.0 0
344347.0 432469.0 0
350447.0 433570.0 0
354242.0 433697.0 0
357524.0 432242.0 0
363524.0 433517.0 0
366828.0 432672.0 0
370051.0 431835.0 0
376049.0 433371.0 0
379181.0 432821.0 0
385515.0 433976.0 0
388611.0 432675.0 0
391770.0 434656.0 0
106819.0 435536.0 0
109898.0 436891.0 0
113130.0 434794.0 0
116211.0 436030.0 0
122570.0 435005.0 0
125726.0 436088.0 0
132235.0 435099.0 0
135506.0 436340.0 0
138789.0 434612.0 0
142055.0 436179.0 0
145223.0 434616.0 0
148345.0 436363.0 0
154526.0 435902.0 0
160054.0 435548.0 0
163098.0 435783.0 0
192009.0 436313.0 0
195679.0 435988.0 0
199358.0 435695.0 0
202390.0 433989.0 0
206015.0 433458.0 0
211231.0 435935.0 0
214871.0 435607.0 0
218505.0 435276.0 0
222125.0 434956.0 0
225721.0 434658.0 0
229276.0 434456.0 0
232862.0 434256.0 0
236465.0 433827.0 0
239850.0 434362.0 0
249558.0 433771.0 0
252709.0 436042.0 0
256070.0 433952.0 0
259449.0 436036.0 0
262729.0 433948.0 0
268129.0 434539.0 0
271893.0 434897.0 0
275466.0 435087.0 0
279099.0 435447.0 0
282772.0 435794.0 0
286451.0 436111.0 0
295517.0 433785.0 0
299164.0 434115.0 0
302832.0 434446.0 0
306521.0 434770.0 0
310228.0 435079.0 0
313951.0 435353.0 0
317683.0 435576.0 0
321412.0 435734.0 0
325121.0 435822.0 0
328796.0 435831.0 0
332431.0 435753.0 0
336045.0 435577.0 0
339681.0 435177.0 0
343173.0 435114.0 0
346997.0 434629.0 0
352833.0 436439.0 0
356742.0 435516.0 0
360145.0 434428.0 0
366257.0 435910.0 0
369595.0 435119.0 0
372860.0 434276.0 0
375771.0 436705.0 0
379027.0 435961.0 0
382292.0 435084.0 0
385402.0 437249.0 0
388642.0 436031.0 0
394932.0 436640.0 0
100325.0 439602.0 0
103570.0 437570.0 0
106686.0 438976.0 0
113002.0 438196.0 0
116132.0 439425.0 0
119325.0 437199.0 0
122474.0 438301.0 0
125661.0 439338.0 0
128930.0 437149.0 0
132180.0 438243.0 0
135468.0 439457.0 0
138805.0 437800.0 0
142119.0 439399.0 0
145286.0 438027.0 0
151381.0 437899.0 0
154470.0 439275.0 0
157499.0 437897.0 0
160835.0 438871.0 0
166473.0 436277.0 0
170110.0 436491.0 0
173700.0 436552.0 0
177201.0 436521.0 0
180862.0 436638.0 0
184582.0 436661.0 0
188310.0 436554.0 0
197490.0 438947.0 0
201227.0 438798.0 0
203919.0 436514.0 0
207588.0 436246.0 0
216474.0 438527.0 0
220127.0 438242.0 0
223754.0 437973.0 0
227357.0 437751.0 0
230970.0 437550.0 0
234601.0 437296.0 0
238141.0 437304.0 0
242034.0 437102.0 0
245707.0 436142.0 0
249175.0 437127.0 0
256100.0 437335.0 0
262820.0 437437.0 0
266343.0 437518.0 0
269999.0 437862.0 0
273676.0 438174.0 0
277303.0 438433.0 0
280960.0 438745.0 0
290116.0 436405.0 0
293776.0 436703.0 0
297448.0 437008.0 0
301138.0 437315.0 0
304850.0 437619.0 0
308584.0 437914.0 0
312336.0 438191.0 0
316098.0 438433.0 0
319859.0 438629.0 0
323608.0 438769.0 0
327332.0 438843.0 0
331027.0 438830.0 0
334697.0 438688.0 0
338381.0 438361.0 0
342053.0 438068.0 0
345773.0 437629.0 0
349440.0 437005.0 0
355671.0 438394.0 0
359409.0 437594.0 0
362866.0 436718.0 0
365678.0 439104.0 0
369085.0 438346.0 0
372458.0 437552.0 0
378732.0 439187.0 0
382086.0 438298.0 0
388486.0 439402.0 0
391761.0 438097.0 0
398089.0 438622.0 0
97072.5 441638.0 0
103481.0 441042.0 0
106666.0 442466.0 0
109825.0 440346.0 0
112989.0 441656.0 0
119288.0 440570.0 0
122477.0 441634.0 0
128883.0 440346.0 0
132136.0 441386.0 0
138751.0 440969.0 0
141998.0 442482.0 0
145400.0 441493.0 0
148371.0 440007.0 0
151356.0 441445.0 0
158246.0 441534.0 0
164305.0 439124.0 0
167936.0 439389.0 0
171595.0 439552.0 0
175241.0 439621.0 0
178873.0 439625.0 0
182575.0 439656.0 0
186310.0 439610.0 0
190049.0 439462.0 0
193774.0 439219.0 0
205285.0 439250.0 0
209074.0 439082.0 0
212792.0 438816.0 0
221745.0 441256.0 0
225383.0 441043.0 0
229010.0 440847.0 0
232632.0 440651.0 0
236211.0 440541.0 0
239850.0 440375.0 0
243397.0 440299.0 0
246829.0 439956.0 0
250500.0 440276.0 0
253950.0 440144.0 0
257667.0 440395.0 0
261089.0 440494.0 0
264677.0 440745.0 0
268241.0 440929.0 0
271869.0 441208.0 0
284637.0 439054.0 0
288321.0 439351.0 0
292006.0 439639.0 0
295697.0 439924.0 0
299405.0 440208.0 0
303133.0 440489.0 0
306885.0 440765.0 0
310661.0 441033.0 0
314455.0 441288.0 0
318249.0 441512.0 0
340854.0 441055.0 0
344656.0 440673.0 0
348388.0 440224.0 0
351979.0 439684.0 0
355026.0 441313.0 0
358634.0 440571.0 0
362222.0 439870.0 0
368526.0 441554.0 0
371961.0 440794.0 0
375364.0 439990.0 0
381720.0 441561.0 0
385131.0 440556.0 0
391544.0 441558.0 0
394863.0 440172.0 0
397948.0 442246.0 0
401242.0 440601.0 0
404401.0 442583.0 0
93795.8 443688.0 0
100264.0 443098.0 0
103497.0 444550.0 0
109882.0 443859.0 0
116171.0 442875.0 0
119378.0 443992.0 0
125702.0 442626.0 0
128965.0 443584.0 0
132276.0 444576.0 0
135409.0 442562.0 0
138603.0 444199.0 0
148521.0 443929.0 0
152301.0 444724.0 0
154792.0 442254.0 0
162006.0 442040.0 0
165717.0 442276.0 0
169435.0 442486.0 0
173149.0 442621.0 0
176853.0 442681.0 0
180554.0 442687.0 0
184284.0 442669.0 0
188026.0 442582.0 0
191760.0 442410.0 0
195477.0 442179.0 0
199184.0 441976.0 0
202914.0 441930.0 0
206824.0 442087.0 0
210636.0 441950.0 0
214381.0 441730.0 0
218081.0 441491.0 0
234264.0 443843.0 0
237882.0 443709.0 0
241470.0 443618.0 0
245059.0 443484.0 0
248557.0 443417.0 0
252178.0 443533.0 0
255726.0 443550.0 0
259320.0 443762.0 0
262886.0 443899.0 0
275523.0 441487.0 0
279173.0 441752.0 0
282843.0 442035.0 0
286528.0 442319.0 0
290222.0 442596.0 0
293926.0 442866.0 0
297643.0 443130.0 0
301379.0 443387.0 0
305138.0 443640.0 0
308925.0 443888.0 0
322035.0 441696.0 0
325806.0 441827.0 0
329560.0 441880.0 0
333300.0 441813.0 0
337031.0 441529.0 0
339595.0 444025.0 0
343446.0 443677.0 0
347253.0 443348.0 0
350995.0 442982.0 0
354376.0 444082.0 0
357986.0 443588.0 0
361528.0 442954.0 0
365057.0 442279.0 0
371349.0 444036.0 0
374830.0 443259.0 0
378284.0 442447.0 0
384687.0 443893.0 0
388145.0 442797.0 0
391125.0 445041.0 0
394574.0 443725.0 0
401023.0 444300.0 0
407602.0 444586.0 0
90497.3 445752.0 0
93735.5 447231.0 0
97015.4 445154.0 0
100290.0 446612.0 0
106771.0 446000.0 0
110073.0 447429.0 0
113115.0 445182.0 0
116369.0 446387.0 0
122619.0 445011.0 0
125889.0 445950.0 0
129172.0 446845.0 0
135663.0 445730.0 0
141541.0 445518.0 0
144951.0 444758.0 0
156252.0 444951.0 0
159823.0 444866.0 0
163552.0 445186.0 0
167283.0 445406.0 0
171024.0 445582.0 0
174765.0 445694.0 0
178502.0 445745.0 0
182237.0 445744.0 0
185979.0 445700.0 0
189716.0 445593.0 0
193428.0 445413.0 0
197124.0 445204.0 0
200828.0 445049.0 0
204588.0 444987.0 0
208442.0 444992.0 0
212246.0 444869.0 0
215995.0 444693.0 0
219700.0 444503.0 0
223371.0 444317.0 0
227021.0 444141.0 0
230655.0 443973.0 0
266491.0 444102.0 0
270098.0 444306.0 0
273736.0 444553.0 0
277394.0 444807.0 0
281061.0 445061.0 0
284743.0 445322.0 0
288439.0 445583.0 0
292147.0 445838.0 0
295868.0 446084.0 0
299605.0 446322.0 0
303363.0 446551.0 0
312741.0 444135.0 0
316574.0 444383.0 0
320395.0 444603.0 0
324203.0 444784.0 0
328001.0 444900.0 0
331798.0 444911.0 0
335607.0 444743.0 0
338404.0 446955.0 0
342191.0 446683.0 0
345955.0 446426.0 0
349688.0 446201.0 0
353206.0 446702.0 0
357007.0 446572.0 0
360680.0 446066.0 0
364277.0 445441.0 0
367835.0 444765.0 0
374141.0 446534.0 0
377679.0 445734.0 0
381194.0 444863.0 0
384076.0 447260.0 0
387620.0 446213.0 0
394060.0 447305.0 0
397570.0 445900.0 0
400563.0 448008.0 0
404133.0 446310.0 0
411616.0 447061.0 0
83876.4 449898.0 0
87190.6 447822.0 0
90446.1 449329.0 0
97030.4 448681.0 0
100381.0 450130.0 0
103613.0 448075.0 0
106986.0 449567.0 0
113399.0 448768.0 0
116770.0 449934.0 0
119665.0 447465.0 0
123016.0 448434.0 0
126410.0 449331.0 0
132446.0 447733.0 0
135725.0 448616.0 0
139054.0 447801.0 0
143088.0 448056.0 0
146732.0 447515.0 0
150195.0 447434.0 0
153982.0 447776.0 0
157751.0 448002.0 0
161413.0 448108.0 0
165145.0 448348.0 0
168891.0 448541.0 0
172649.0 448689.0 0
176409.0 448784.0 0
180165.0 448824.0 0
183916.0 448818.0 0
187661.0 448766.0 0
191383.0 448657.0 0
195070.0 448469.0 0
198757.0 448262.0 0
202485.0 448099.0 0
206271.0 448002.0 0
210094.0 447948.0 0
213882.0 447844.0 0
217625.0 447709.0 0
221329.0 447563.0 0
225005.0 447417.0 0
228659.0 447275.0 0
232294.0 447151.0 0
235922.0 447035.0 0
239535.0 446942.0 0
243144.0 446850.0 0
246723.0 446791.0 0
250291.0 446784.0 0
253895.0 446859.0 0
257473.0 446956.0 0
261086.0 447118.0 0
264694.0 447272.0 0
268321.0 447461.0 0
271956.0 447665.0 0
275612.0 447891.0 0
279282.0 448126.0 0
282964.0 448364.0 0
286660.0 448606.0 0
290368.0 448844.0 0
294089.0 449075.0 0
307146.0 446772.0 0
310961.0 446992.0 0
314811.0 447225.0 0
318686.0 447493.0 0
322522.0 447723.0 0
326346.0 447899.0 0
330163.0 447991.0 0
333968.0 447948.0 0
337054.0 449789.0 0
340857.0 449709.0 0
344602.0 449517.0 0
348313.0 449336.0 0
351929.0 449467.0 0
355738.0 449423.0 0
359569.0 449111.0 0
363302.0 448589.0 0
366961.0 447966.0 0
370571.0 447280.0 0
376912.0 449037.0 0
380507.0 448195.0 0
386915.0 449662.0 0
390499.0 448548.0 0
396937.0 449594.0 0
405435.0 449633.0 0
408451.0 448120.0 0
411699.0 450561.0 0
414925.0 449140.0 0
80579.8 451964.0 0
87149.4 451439.0 0
93741.2 450794.0 0
97082.3 452218.0 0
103797.0 451590.0 0
107291.0 453146.0 0
110402.0 451047.0 0
113883.0 452383.0 0
120215.0 450945.0 0
123729.0 451849.0 0
129851.0 450181.0 0
133394.0 450965.0 0
137298.0 451144.0 0
140869.0 450806.0 0
144671.0 450824.0 0
148253.0 450676.0 0
151856.0 450709.0 0
155573.0 450949.0 0
159304.0 451155.0 0
163012.0 451317.0 0
166757.0 451518.0 0
170518.0 451686.0 0
174289.0 451813.0 0
178062.0 451893.0 0
181831.0 451929.0 0
185592.0 451924.0 0
189336.0 451877.0 0
193048.0 451775.0 0
196709.0 451552.0 0
200406.0 451306.0 0
204168.0 451119.0 0
207962.0 451016.0 0
211761.0 450953.0 0
215531.0 450875.0 0
219263.0 450778.0 0
222965.0 450669.0 0
226642.0 450557.0 0
230300.0 450450.0 0
233946.0 450350.0 0
237580.0 450263.0 0
241208.0 450186.0 0
244821.0 450132.0 0
248424.0 450111.0 0
252025.0 450136.0 0
255636.0 450219.0 0
259251.0 450330.0 0
262882.0 450476.0 0
266519.0 450635.0 0
270168.0 450816.0 0
273827.0 451012.0 0
277500.0 451224.0 0
281186.0 451443.0 0
284883.0 451664.0 0
297825.0 449296.0 0
301576.0 449506.0 0
305347.0 449704.0 0
309143.0 449893.0 0
312973.0 450084.0 0
316850.0 450306.0 0
320778.0 450642.0 0
324621.0 450878.0 0
328458.0 451045.0 0
332269.0 451133.0 0
335598.0 452612.0 0
358299.0 452073.0 0
362140.0 451676.0 0
365912.0 451139.0 0
369623.0 450509.0 0
373286.0 449807.0 0
375988.0 452343.0 0
379663.0 451542.0 0
383307.0 450655.0 0
389690.0 452095.0 0
393303.0 450911.0 0
399185.0 452310.0 0
402372.0 451044.0 0
408503.0 451883.0 0
414970.0 452726.0 0
418241.0 451219.0 0
421573.0 453306.0 0
77283.0 454027.0 0
83881.3 453581.0 0
87203.4 455115.0 0
90456.1 452937.0 0
93803.2 454380.0 0
100454.0 453628.0 0
103832.0 455050.0 0
110915.0 454675.0 0
114681.0 455983.0 0
117442.0 453471.0 0
121078.0 454383.0 0
127311.0 452674.0 0
130989.0 453396.0 0
134876.0 453800.0 0
138720.0 453946.0 0
142412.0 453824.0 0
146122.0 453861.0 0
149771.0 453851.0 0
153430.0 453955.0 0
157144.0 454155.0 0
160878.0 454346.0 0
198365.0 454617.0 0
202097.0 454305.0 0
205872.0 454135.0 0
209655.0 454056.0 0
213430.0 454012.0 0
217180.0 453962.0 0
220902.0 453896.0 0
224601.0 453818.0 0
228280.0 453736.0 0
231947.0 453653.0 0
235603.0 453578.0 0
239251.0 453511.0 0
242890.0 453461.0 0
246520.0 453435.0 0
250146.0 453442.0 0
253772.0 453491.0 0
257407.0 453579.0 0
261049.0 453694.0 0
264701.0 453834.0 0
268362.0 453991.0 0
272032.0 454166.0 0
275712.0 454353.0 0
288592.0 451885.0 0
292313.0 452101.0 0
296046.0 452308.0 0
299791.0 452504.0 0
303549.0 452686.0 0
307322.0 452853.0 0
311116.0 453010.0 0
314939.0 453169.0 0
318814.0 453376.0 0
322859.0 453849.0 0
326701.0 454064.0 0
330517.0 454258.0 0
339398.0 452696.0 0
343184.0 452603.0 0
346942.0 452444.0 0
350655.0 452410.0 0
354444.0 452312.0 0
360868.0 454715.0 0
364722.0 454267.0 0
368525.0 453711.0 0
372277.0 453066.0 0
378672.0 454896.0 0
382381.0 454067.0 0
386056.0 453144.0 0
392336.0 454620.0 0
395826.0 453447.0 0
401948.0 454774.0 0
405285.0 453378.0 0
408348.0 455612.0 0
411669.0 454181.0 0
418268.0 454852.0 0
424924.0 455403.0 0
70704.0 458151.0 0
73997.7 456089.0 0
80620.9 455702.0 0
83970.4 457320.0 0
90550.6 456593.0 0
97177.7 455783.0 0
100569.0 457169.0 0
107080.0 456629.0 0
110119.0 458110.0 0
118496.0 456954.0 0
124774.0 455195.0 0
128535.0 455900.0 0
132410.0 456405.0 0
136293.0 456735.0 0
140124.0 456883.0 0
143857.0 456904.0 0
147582.0 456973.0 0
151276.0 457049.0 0
154979.0 457189.0 0
164616.0 454520.0 0
168376.0 454696.0 0
172151.0 454844.0 0
175935.0 454955.0 0
179720.0 455028.0 0
183501.0 455064.0 0
187272.0 455066.0 0
191023.0 455033.0 0
194740.0 454947.0 0
233601.0 456883.0 0
237271.0 456827.0 0
240934.0 456783.0 0
244589.0 456756.0 0
248240.0 456753.0 0
251889.0 456782.0 0
255541.0 456844.0 0
259199.0 456936.0 0
279403.0 454552.0 0
283105.0 454756.0 0
286818.0 454960.0 0
290541.0 455162.0 0
294274.0 455357.0 0
298015.0 455542.0 0
301766.0 455713.0 0
305523.0 455870.0 0
309287.0 456010.0 0
313059.0 456137.0 0
316842.0 456263.0 0
320660.0 456416.0 0
324963.0 457085.0 0
333998.0 455441.0 0
337840.0 455672.0 0
341669.0 455667.0 0
345504.0 455527.0 0
349307.0 455417.0 0
353133.0 455279.0 0
356993.0 455051.0 0
363440.0 457368.0 0
367309.0 456883.0 0
371138.0 456305.0 0
374925.0 455641.0 0
385061.0 456635.0 0
388743.0 455688.0 0
394999.0 457227.0 0
398501.0 456046.0 0
404929.0 457067.0 0
411519.0 457848.0 0
414917.0 456365.0 0
418216.0 458516.0 0
421594.0 456978.0 0
428291.0 457511.0 0
67401.9 460217.0 0
74117.6 459919.0 0
77369.2 457830.0 0
80743.8 459506.0 0
87340.1 458849.0 0
90738.1 460301.0 0
93928.4 458004.0 0
97333.4 459373.0 0
103939.0 458642.0 0
107253.0 460421.0 0
113205.0 459188.0 0
122281.0 457757.0 0
126084.0 458466.0 0
129950.0 459028.0 0
133837.0 459456.0 0
137711.0 459750.0 0
141537.0 459923.0 0
145306.0 460021.0 0
158713.0 457373.0 0
162462.0 457557.0 0
166222.0 457728.0 0
169999.0 457887.0 0
173787.0 458019.0 0
177582.0 458119.0 0
181380.0 458188.0 0
185175.0 458228.0 0
188964.0 458243.0 0
192740.0 458231.0 0
196490.0 458180.0 0
200074.0 457581.0 0
203805.0 457300.0 0
207568.0 457181.0 0
211332.0 457141.0 0
215085.0 457125.0 0
218819.0 457100.0 0
222535.0 457059.0 0
226236.0 457005.0 0
229923.0 456944.0 0
262866.0 457053.0 0
266540.0 457190.0 0
270222.0 457344.0 0
273913.0 457511.0 0
277613.0 457690.0 0
281322.0 457876.0 0
285041.0 458065.0 0
288769.0 458254.0 0
292505.0 458437.0 0
296249.0 458613.0 0
299999.0 458778.0 0
303753.0 458929.0 0
307507.0 459064.0 0
311258.0 459184.0 0
315001.0 459287.0 0
318736.0 459369.0 0
322491.0 459388.0 0
328745.0 457318.0 0
332268.0 458342.0 0
336126.0 458593.0 0
340081.0 458739.0 0
344006.0 458588.0 0
347893.0 458446.0 0
351769.0 458287.0 0
355655.0 458066.0 0
359549.0 457761.0 0
366012.0 460041.0 0
369896.0 459526.0 0
373746.0 458928.0 0
377557.0 458247.0 0
381330.0 457484.0 0
387724.0 459251.0 0
391421.0 458309.0 0
397801.0 459765.0 0
401401.0 458444.0 0
404460.0 460714.0 0
408040.0 459292.0 0
414777.0 460031.0 0
421573.0 460676.0 0
424946.0 459113.0 0
431667.0 459624.0 0
64079.5 462296.0 0
70841.8 462005.0 0
74311.3 463793.0 0
77537.6 461684.0 0
84147.1 461113.0 0
87577.6 462626.0 0
94154.8 461674.0 0
97579.9 463001.0 0
100747.0 460746.0 0
104186.0 462211.0 0
110579.0 461826.0 0
116498.0 459843.0 0
120022.0 460478.0 0
123718.0 461138.0 0
127528.0 461708.0 0
131394.0 462183.0 0
135276.0 462558.0 0
149055.0 460136.0 0
152788.0 460263.0 0
156528.0 460423.0 0
160283.0 460604.0 0
164051.0 460782.0 0
167829.0 460946.0 0
171620.0 461091.0 0
175420.0 461212.0 0
179227.0 461305.0 0
183038.0 461373.0 0
186850.0 461421.0 0
190658.0 461453.0 0
194455.0 461476.0 0
198216.0 461530.0 0
201720.0 460516.0 0
205467.0 460327.0 0
209224.0 460276.0 0
212974.0 460277.0 0
216715.0 460286.0 0
220445.0 460281.0 0
224164.0 460258.0 0
227873.0 460221.0 0
231573.0 460178.0 0
235266.0 460134.0 0
238952.0 460097.0 0
242633.0 460071.0 0
246308.0 460064.0 0
249981.0 460081.0 0
253654.0 460125.0 0
257330.0 460196.0 0
261013.0 460292.0 0
264701.0 460409.0 0
268397.0 460544.0 0
272101.0 460693.0 0
275811.0 460854.0 0
279531.0 461023.0 0
283258.0 461197.0 0
286994.0 461372.0 0
290737.0 461545.0 0
294487.0 461712.0 0
298243.0 461871.0 0
302002.0 462018.0 0
305762.0 462152.0 0
327019.0 460358.0 0
330432.0 461375.0 0
334250.0 461562.0 0
338208.0 461666.0 0
342525.0 461651.0 0
346465.0 461485.0 0
350375.0 461323.0 0
354283.0 461112.0 0
358195.0 460831.0 0
362107.0 460475.0 0
372475.0 462202.0 0
376342.0 461589.0 0
380173.0 460893.0 0
383968.0 460111.0 0
390388.0 461915.0 0
394158.0 460969.0 0
400792.0 462091.0 0
407615.0 462939.0 0
411242.0 461510.0 0
414797.0 463678.0 0
418181.0 462191.0 0
424912.0 462867.0 0
428302.0 461261.0 0
431730.0 463408.0 0
435199.0 461840.0 0
57358.4 466502.0 0
60728.2 464393.0 0
64201.0 466194.0 0
67536.0 464096.0 0
71025.7 465884.0 0
80981.1 463377.0 0
84450.4 464969.0 0
91035.9 464047.0 0
94513.4 465384.0 0
101010.0 464313.0 0
104490.0 465601.0 0
107814.0 464298.0 0
114087.0 462752.0 0
117676.0 463373.0 0
121348.0 463938.0 0
125124.0 464476.0 0
128966.0 464954.0 0
132845.0 465367.0 0
139143.0 462835.0 0
142976.0 463030.0 0
146771.0 463180.0 0
150546.0 463332.0 0
154312.0 463492.0 0
158079.0 463667.0 0
161854.0 463848.0 0
165638.0 464021.0 0
169432.0 464177.0 0
173236.0 464312.0 0
177048.0 464424.0 0
180867.0 464512.0 0
184690.0 464583.0 0
188517.0 464642.0 0
192340.0 464701.0 0
196151.0 464788.0 0
203296.0 463469.0 0
207070.0 463402.0 0
210831.0 463420.0 0
214582.0 463458.0 0
218326.0 463486.0 0
222064.0 463494.0 0
225794.0 463484.0 0
229518.0 463461.0 0
233235.0 463432.0 0
236946.0 463404.0 0
240651.0 463383.0 0
244352.0 463374.0 0
248049.0 463384.0 0
251744.0 463415.0 0
255441.0 463470.0 0
259141.0 463548.0 0
262846.0 463647.0 0
266556.0 463764.0 0
270273.0 463896.0 0
273997.0 464040.0 0
277728.0 464194.0 0
281466.0 464353.0 0
285212.0 464516.0 0
288964.0 464678.0 0
309519.0 462271.0 0
313268.0 462372.0 0
317004.0 462446.0 0
320717.0 462458.0 0
324378.0 462310.0 0
330725.0 464889.0 0
334390.0 464990.0 0
337978.0 465016.0 0
341545.0 464837.0 0
345227.0 464587.0 0
349040.0 464405.0 0
352914.0 464195.0 0
356819.0 463930.0 0
360739.0 463602.0 0
364662.0 463206.0 0
368579.0 462741.0 0
375043.0 464918.0 0
378928.0 464291.0 0
382775.0 463580.0 0
386591.0 462784.0 0
393023.0 464606.0 0
397060.0 463493.0 0
400165.0 465722.0 0
403910.0 464338.0 0
411426.0 465144.0 0
418096.0 465932.0 0
421505.0 464422.0 0
428294.0 465052.0 0
435145.0 465728.0 0
438574.0 463954.0 0
441950.0 466069.0 0
53975.3 468620.0 0
60849.5 468320.0 0
67699.6 467990.0 0
74543.4 467683.0 0
77805.0 465607.0 0
81326.1 467294.0 0
87960.7 466451.0 0
91497.8 467832.0 0
98011.0 466666.0 0
101557.0 467890.0 0
111436.0 465446.0 0
115147.0 466233.0 0
118894.0 466815.0 0
122690.0 467318.0 0
126536.0 467782.0 0
136729.0 465705.0 0
140599.0 465974.0 0
144443.0 466190.0 0
148259.0 466376.0 0
152058.0 466557.0 0
155846.0 466740.0 0
159634.0 466927.0 0
163426.0 467108.0 0
167225.0 467275.0 0
199943.0 464942.0 0
204819.0 466477.0 0
208625.0 466532.0 0
212403.0 466610.0 0
216169.0 466674.0 0
219930.0 466715.0 0
223684.0 466732.0 0
227433.0 466731.0 0
231176.0 466719.0 0
234913.0 466702.0 0
238644.0 466688.0 0
242370.0 466681.0 0
246092.0 466688.0 0
249811.0 466711.0 0
253529.0 466754.0 0
257249.0 466818.0 0
260971.0 466901.0 0
264698.0 467001.0 0
268430.0 467117.0 0
272167.0 467246.0 0
292724.0 464836.0 0
296489.0 464988.0 0
300258.0 465131.0 0
304031.0 465262.0 0
307806.0 465379.0 0
311583.0 465477.0 0
315367.0 465547.0 0
319173.0 465559.0 0
323033.0 465434.0 0
326981.0 464813.0 0
343937.0 467827.0 0
347708.0 467576.0 0
351543.0 467339.0 0
355427.0 467072.0 0
359341.0 466758.0 0
363270.0 466390.0 0
367205.0 465963.0 0
371133.0 465474.0 0
377592.0 467679.0 0
381486.0 467042.0 0
385345.0 466319.0 0
389178.0 465497.0 0
391704.0 468236.0 0
395780.0 467112.0 0
404684.0 467859.0 0
408063.0 466534.0 0
411250.0 468857.0 0
414681.0 467402.0 0
421409.0 468229.0 0
424856.0 466669.0 0
431621.0 467249.0 0
438490.0 467881.0 0
445323.0 468182.0 0
57485.6 470461.0 0
64359.7 470123.0 0
71224.7 469780.0 0
74766.0 471582.0 0
78168.4 469604.0 0
84907.2 468860.0 0
88500.1 470312.0 0
95072.5 469114.0 0
98708.5 470314.0 0
105237.0 468865.0 0
108822.0 468136.0 0
112560.0 469034.0 0
116371.0 469687.0 0
120221.0 470202.0 0
130417.0 468203.0 0
134313.0 468574.0 0
138206.0 468890.0 0
142084.0 469160.0 0
145938.0 469394.0 0
149770.0 469606.0 0
153585.0 469811.0 0
157391.0 470011.0 0
171032.0 467424.0 0
174846.0 467550.0 0
178668.0 467655.0 0
182497.0 467742.0 0
186331.0 467818.0 0
190169.0 467894.0 0
194006.0 467992.0 0
197841.0 468143.0 0
201674.0 468383.0 0
206317.0 469561.0 0
210155.0 469716.0 0
213963.0 469834.0 0
217756.0 469914.0 0
275911.0 467385.0 0
279662.0 467531.0 0
283419.0 467681.0 0
287183.0 467832.0 0
290953.0 467982.0 0
294729.0 468127.0 0
298511.0 468264.0 0
302297.0 468391.0 0
306087.0 468504.0 0
309883.0 468598.0 0
313690.0 468662.0 0
317515.0 468674.0 0
321372.0 468581.0 0
325252.0 468274.0 0
328956.0 468119.0 0
332688.0 468155.0 0
336431.0 468175.0 0
340189.0 468068.0 0
354007.0 470264.0 0
357912.0 469953.0 0
361841.0 469601.0 0
365784.0 469201.0 0
369730.0 468751.0 0
373669.0 468244.0 0
384020.0 469854.0 0
387880.0 469115.0 0
397838.0 470134.0 0
401301.0 469148.0 0
407779.0 470219.0 0
414444.0 471175.0 0
417936.0 469724.0 0
424669.0 470539.0 0
428150.0 468907.0 0
431450.0 471139.0 0
435048.0 469682.0 0
441814.0 470043.0 0
61015.7 472283.0 0
64553.0 474084.0 0
67884.2 471909.0 0
71426.7 473702.0 0
81816.7 471218.0 0
85473.5 472792.0 0
92148.4 471625.0 0
95853.1 472818.0 0
102448.0 471406.0 0
106255.0 472134.0 0
110013.0 471900.0 0
113842.0 472573.0 0
124099.0 470654.0 0
127998.0 471074.0 0
131906.0 471458.0 0
135814.0 471804.0 0
139712.0 472112.0 0
143595.0 472388.0 0
147456.0 472638.0 0
151297.0 472872.0 0
161195.0 470205.0 0
165000.0 470385.0 0
168810.0 470547.0 0
172626.0 470688.0 0
176449.0 470807.0 0
180279.0 470907.0 0
184116.0 470994.0 0
187958.0 471078.0 0
191805.0 471176.0 0
195660.0 471312.0 0
199525.0 471520.0 0
203408.0 471840.0 0
221541.0 469964.0 0
225319.0 469988.0 0
229090.0 469994.0 0
232855.0 469992.0 0
236613.0 469986.0 0
240365.0 469984.0 0
244112.0 469991.0 0
247855.0 470010.0 0
251596.0 470045.0 0
255336.0 470098.0 0
259078.0 470167.0 0
262822.0 470254.0 0
266570.0 470355.0 0
270322.0 470470.0 0
274080.0 470595.0 0
277844.0 470728.0 0
281614.0 470866.0 0
285390.0 471007.0 0
289172.0 471147.0 0
292960.0 471285.0 0
296754.0 471416.0 0
300553.0 471538.0 0
304358.0 471647.0 0
308171.0 471738.0 0
311992.0 471801.0 0
315828.0 471819.0 0
319682.0 471762.0 0
323538.0 471595.0 0
327317.0 471450.0 0
331061.0 471368.0 0
334841.0 471335.0 0
338655.0 471244.0 0
342482.0 471060.0 0
346301.0 470812.0 0
350135.0 470545.0 0
360371.0 472844.0 0
364315.0 472463.0 0
368270.0 472041.0 0
372228.0 471574.0 0
376180.0 471059.0 0
380116.0 470490.0 0
386523.0 472737.0 0
390376.0 471965.0 0
394193.0 470933.0 0
400591.0 472825.0 0
404238.0 471535.0 0
407321.0 473893.0 0
410910.0 472593.0 0
417614.0 473547.0 0
421161.0 472084.0 0
427939.0 472814.0 0
68091.2 475877.0 0
75272.7 475493.0 0
78831.9 473738.0 0
82483.8 475367.0 0
89212.7 474170.0 0
92989.8 475398.0 0
99641.8 473889.0 0
103572.0 474907.0 0
107494.0 475437.0 0
117735.0 473104.0 0
121657.0 473555.0 0
125582.0 473975.0 0
129507.0 474368.0 0
133429.0 474731.0 0
137343.0 475066.0 0
141244.0 475373.0 0
155124.0 473095.0 0
158943.0 473306.0 0
162758.0 473503.0 0
166573.0 473682.0 0
170392.0 473837.0 0
174216.0 473970.0 0
178045.0 474083.0 0
181881.0 474179.0 0
185722.0 474269.0 0
189570.0 474363.0 0
193426.0 474481.0 0
197297.0 474647.0 0
201195.0 474899.0 0
207817.0 472731.0 0
211695.0 472943.0 0
215539.0 473083.0 0
219363.0 473174.0 0
223175.0 473227.0 0
226978.0 473257.0 0
230773.0 473271.0 0
234559.0 473277.0 0
238339.0 473282.0 0
242111.0 473292.0 0
245879.0 473310.0 0
249643.0 473340.0 0
253404.0 473385.0 0
257166.0 473444.0 0
260928.0 473519.0 0
264693.0 473608.0 0
268461.0 473710.0 0
272234.0 473822.0 0
276011.0 473943.0 0
279794.0 474070.0 0
283583.0 474200.0 0
287378.0 474332.0 0
291179.0 474461.0 0
294985.0 474586.0 0
298798.0 474703.0 0
302616.0 474809.0 0
306442.0 474897.0 0
310277.0 474961.0 0
314123.0 474987.0 0
317979.0 474959.0 0
321836.0 474862.0 0
325658.0 474746.0 0
329452.0 474640.0 0
333250.0 474547.0 0
337081.0 474440.0 0
340936.0 474277.0 0
344797.0 474056.0 0
348661.0 473792.0 0
352540.0 473502.0 0
356444.0 473188.0 0
366763.0 475349.0 0
370731.0 474913.0 0
374699.0 474440.0 0
378662.0 473923.0 0
382609.0 473363.0 0
393144.0 474555.0 0
396897.0 473769.0 0
403632.0 475124.0 0
410414.0 476342.0 0
414040.0 474984.0 0
420791.0 475967.0 0
424397.0 474471.0 0
431306.0 475079.0 0
71911.0 477621.0 0
78589.1 477708.0 0
86261.5 476724.0 0
90133.0 478021.0 0
96813.3 476466.0 0
100679.0 477407.0 0
104954.0 478385.0 0
111344.0 475547.0 0
115255.0 476049.0 0
119219.0 476478.0 0
123174.0 476900.0 0
127120.0 477300.0 0
131056.0 477677.0 0
134983.0 478031.0 0
145126.0 475657.0 0
148991.0 475922.0 0
152839.0 476172.0 0
156674.0 476407.0 0
160500.0 476626.0 0
164323.0 476824.0 0
168145.0 476998.0 0
171971.0 477146.0 0
175800.0 477271.0 0
179635.0 477378.0 0
183475.0 477472.0 0
187319.0 477565.0 0
191169.0 477668.0 0
195029.0 477801.0 0
205134.0 475316.0 0
209370.0 475970.0 0
213279.0 476206.0 0
217152.0 476355.0 0
221005.0 476448.0 0
224844.0 476504.0 0
228670.0 476538.0 0
232486.0 476559.0 0
236293.0 476574.0 0
240091.0 476589.0 0
243883.0 476609.0 0
247670.0 476638.0 0
251454.0 476677.0 0
255235.0 476730.0 0
259016.0 476795.0 0
262799.0 476873.0 0
266583.0 476964.0 0
270371.0 477065.0 0
274163.0 477174.0 0
277960.0 477290.0 0
281762.0 477411.0 0
285569.0 477533.0 0
289383.0 477655.0 0
293202.0 477774.0 0
331641.0 477805.0 0
335484.0 477675.0 0
339349.0 477513.0 0
343230.0 477306.0 0
347119.0 477057.0 0
351016.0 476772.0 0
354928.0 476459.0 0
358857.0 476119.0 0
362803.0 475750.0 0
373154.0 477826.0 0
377137.0 477352.0 0
381108.0 476849.0 0
385068.0 476308.0 0
389008.0 475697.0 0
395949.0 477368.0 0
399754.0 476511.0 0
402999.0 478641.0 0
406734.0 477554.0 0
413508.0 478816.0 0
417174.0 477396.0 0
427677.0 476754.0 0
83252.7 479284.0 0
87200.5 480611.0 0
94035.2 479144.0 0
97917.3 480091.0 0
101961.0 480868.0 0
108903.0 478810.0 0
112803.0 479083.0 0
116822.0 479440.0 0
120791.0 479851.0 0
124751.0 480255.0 0
128700.0 480643.0 0
138897.0 478363.0 0
142795.0 478673.0 0
146677.0 478966.0 0
150543.0 479243.0 0
154394.0 479506.0 0
158232.0 479751.0 0
162062.0 479972.0 0
165889.0 480167.0 0
198905.0 477986.0 0
202811.0 478265.0 0
206908.0 478795.0 0
210992.0 479267.0 0
214919.0 479502.0 0
218817.0 479645.0 0
222693.0 479735.0 0
226552.0 479794.0 0
230397.0 479832.0 0
234231.0 479860.0 0
238055.0 479883.0 0
241871.0 479907.0 0
245681.0 479937.0 0
249486.0 479974.0 0
253288.0 480021.0 0
257088.0 480079.0 0
260888.0 480149.0 0
264689.0 480230.0 0
268492.0 480321.0 0
297027.0 477886.0 0
300859.0 477987.0 0
304698.0 478074.0 0
308545.0 478139.0 0
312401.0 478173.0 0
316265.0 478165.0 0
320129.0 478108.0 0
323979.0 478020.0 0
327812.0 477917.0 0
345532.0 480339.0 0
349444.0 480065.0 0
353366.0 479758.0 0
357301.0 479424.0 0
361249.0 479065.0 0
365209.0 478681.0 0
369179.0 478268.0 0
379518.0 480328.0 0
383483.0 479851.0 0
387432.0 479351.0 0
392111.0 478027.0 0
398701.0 480226.0 0
402174.0 482094.0 0
406005.0 481212.0 0
409780.0 480105.0 0
420431.0 479900.0 0
84177.1 483163.0 0
91235.7 481840.0 0
95212.9 482868.0 0
106415.0 481882.0 0
110374.0 482250.0 0
114490.0 482457.0 0
118452.0 482842.0 0
122411.0 483240.0 0
132638.0 481013.0 0
136563.0 481364.0 0
140472.0 481696.0 0
144366.0 482011.0 0
148245.0 482312.0 0
152108.0 482602.0 0
155956.0 482875.0 0
169717.0 480333.0 0
173548.0 480473.0 0
177383.0 480590.0 0
181222.0 480691.0 0
185064.0 480785.0 0
188910.0 480880.0 0
192760.0 480991.0 0
196617.0 481133.0 0
200489.0 481327.0 0
204393.0 481589.0 0
208722.0 482270.0 0
212689.0 482616.0 0
216626.0 482820.0 0
272299.0 480420.0 0
276109.0 480526.0 0
279925.0 480638.0 0
283745.0 480751.0 0
287571.0 480866.0 0
291403.0 480978.0 0
295241.0 481084.0 0
299085.0 481182.0 0
302936.0 481268.0 0
306795.0 481334.0 0
310662.0 481375.0 0
314536.0 481382.0 0
318412.0 481350.0 0
322282.0 481285.0 0
326144.0 481194.0 0
330001.0 481082.0 0
333864.0 480946.0 0
337739.0 480779.0 0
341629.0 480578.0 0
351762.0 483082.0 0
355702.0 482757.0 0
359653.0 482407.0 0
363615.0 482035.0 0
367585.0 481641.0 0
371561.0 481225.0 0
375546.0 480784.0 0
385776.0 482957.0 0
390757.0 481331.0 0
394797.0 480922.0 0
408898.0 483894.0 0
412810.0 482647.0 0
416683.0 481268.0 0
88593.2 484731.0 0
92489.9 485676.0 0
99235.0 483662.0 0
103307.0 484345.0 0
107560.0 485541.0 0
112224.0 485525.0 0
126366.0 483632.0 0
130313.0 484014.0 0
134247.0 484382.0 0
138164.0 484733.0 0
142063.0 485067.0 0
145949.0 485387.0 0
149820.0 485697.0 0
159793.0 483124.0 0
163624.0 483343.0 0
167455.0 483529.0 0
171290.0 483685.0 0
175128.0 483815.0 0
178969.0 483925.0 0
182812.0 484022.0 0
186657.0 484115.0 0
190504.0 484213.0 0
194353.0 484329.0 0
198210.0 484473.0 0
202082.0 484655.0 0
205989.0 484870.0 0
220536.0 482951.0 0
224426.0 483038.0 0
228299.0 483097.0 0
232158.0 483140.0 0
236007.0 483173.0 0
239846.0 483204.0 0
243678.0 483236.0 0
247504.0 483273.0 0
251325.0 483318.0 0
255144.0 483371.0 0
258961.0 483434.0 0
262779.0 483507.0 0
266597.0 483590.0 0
270419.0 483680.0 0
274243.0 483777.0 0
278072.0 483880.0 0
281905.0 483985.0 0
285743.0 484092.0 0
289587.0 484197.0 0
293437.0 484299.0 0
297294.0 484393.0 0
301157.0 484477.0 0
305027.0 484544.0 0
308905.0 484590.0 0
312789.0 484609.0 0
316676.0 484594.0 0
320563.0 484548.0 0
324447.0 484472.0 0
328328.0 484369.0 0
332211.0 484237.0 0
336101.0 484073.0 0
340001.0 483876.0 0
343911.0 483645.0 0
347832.0 483380.0 0
358020.0 485774.0 0
361983.0 485412.0 0
365953.0 485033.0 0
369930.0 484638.0 0
373908.0 484227.0 0
377879.0 483809.0 0
381838.0 483383.0 0
389258.0 484636.0 0
393227.0 484301.0 0
397419.0 483899.0 0
401071.0 485471.0 0
405019.0 484876.0 0
415890.0 485155.0 0
85333.4 486982.0 0
89762.7 488549.0 0
96563.4 486544.0 0
100497.0 487274.0 0
104382.0 487945.0 0
116158.0 485885.0 0
120103.0 486264.0 0
124055.0 486649.0 0
128006.0 487033.0 0
131950.0 487416.0 0
135875.0 487789.0 0
139779.0 488143.0 0
143667.0 488477.0 0
153677.0 485998.0 0
157517.0 486279.0 0
161352.0 486526.0 0
165188.0 486734.0 0
169027.0 486907.0 0
172871.0 487051.0 0
176717.0 487171.0 0
180565.0 487274.0 0
184414.0 487367.0 0
188264.0 487460.0 0
192113.0 487559.0 0
195966.0 487675.0 0
199826.0 487811.0 0
203702.0 487965.0 0
207604.0 488127.0 0
210530.0 485739.0 0
214467.0 485990.0 0
218394.0 486160.0 0
222304.0 486276.0 0
226200.0 486357.0 0
230081.0 486416.0 0
233952.0 486461.0 0
237812.0 486499.0 0
241664.0 486536.0 0
245510.0 486575.0 0
249350.0 486619.0 0
253186.0 486669.0 0
257020.0 486728.0 0
260854.0 486795.0 0
264688.0 486870.0 0
268523.0 486952.0 0
272361.0 487042.0 0
276202.0 487136.0 0
280048.0 487234.0 0
283899.0 487333.0 0
287754.0 487433.0 0
291616.0 487529.0 0
295484.0 487620.0 0
299359.0 487701.0 0
303241.0 487769.0 0
307130.0 487819.0 0
311024.0 487846.0 0
314923.0 487845.0 0
318824.0 487815.0 0
322724.0 487754.0 0
326623.0 487663.0 0
330524.0 487541.0 0
334428.0 487387.0 0
338339.0 487198.0 0
342258.0 486975.0 0
346185.0 486719.0 0
350121.0 486431.0 0
354066.0 486114.0 0
364289.0 488445.0 0
368263.0 488067.0 0
372237.0 487681.0 0
376205.0 487293.0 0
380158.0 486909.0 0
384090.0 486535.0 0
387678.0 487971.0 0
391634.0 487698.0 0
395607.0 487347.0 0
399272.0 488632.0 0
403610.0 488474.0 0
407811.0 487680.0 0
411903.0 486481.0 0
93840.2 489418.0 0
97859.7 490251.0 0
101775.0 490952.0 0
106846.0 490784.0 0
109956.0 488572.0 0
113875.0 488974.0 0
117812.0 489332.0 0
121761.0 489700.0 0
125714.0 490078.0 0
129664.0 490461.0 0
133607.0 490856.0 0
147539.0 488799.0 0
151398.0 489121.0 0
155237.0 489437.0 0
159073.0 489713.0 0
162913.0 489946.0 0
166759.0 490138.0 0
170611.0 490296.0 0
174467.0 490427.0 0
178324.0 490538.0 0
182181.0 490635.0 0
186038.0 490725.0 0
212368.0 489190.0 0
216285.0 489379.0 0
220202.0 489518.0 0
224110.0 489618.0 0
228007.0 489692.0 0
231895.0 489749.0 0
235773.0 489796.0 0
239643.0 489838.0 0
243506.0 489880.0 0
247364.0 489925.0 0
251217.0 489974.0 0
255067.0 490029.0 0
258915.0 490091.0 0
262764.0 490161.0 0
266613.0 490237.0 0
270464.0 490319.0 0
274318.0 490406.0 0
278175.0 490497.0 0
282037.0 490590.0 0
285905.0 490683.0 0
332728.0 490716.0 0
336649.0 490539.0 0
340577.0 490327.0 0
344511.0 490080.0 0
348452.0 489802.0 0
352401.0 489495.0 0
356357.0 489164.0 0
360320.0 488812.0 0
374507.0 490782.0 0
378458.0 490430.0 0
382387.0 490095.0 0
397583.0 491974.0 0
401561.0 491814.0 0
410356.0 490707.0 0
414696.0 489301.0 0
111564.0 492081.0 0
115516.0 492434.0 0
119470.0 492784.0 0
123426.0 493148.0 0
127383.0 493527.0 0
137523.0 491240.0 0
141413.0 491593.0 0
145284.0 491926.0 0
149134.0 492251.0 0
152955.0 492600.0 0
156785.0 492907.0 0
160629.0 493164.0 0
189894.0 490816.0 0
193750.0 490914.0 0
197610.0 491022.0 0
201478.0 491141.0 0
205361.0 491261.0 0
209263.0 491364.0 0
214223.0 492634.0 0
218129.0 492779.0 0
222038.0 492890.0 0
225943.0 492975.0 0
229842.0 493041.0 0
233734.0 493096.0 0
237619.0 493144.0 0
241497.0 493189.0 0
245370.0 493235.0 0
249238.0 493284.0 0
289777.0 490774.0 0
293656.0 490861.0 0
297542.0 490940.0 0
301434.0 491008.0 0
305334.0 491061.0 0
309240.0 491094.0 0
313151.0 491104.0 0
317065.0 491087.0 0
320980.0 491042.0 0
324895.0 490966.0 0
328811.0 490858.0 0
346762.0 493195.0 0
350714.0 492899.0 0
354670.0 492577.0 0
358632.0 492235.0 0
362600.0 491878.0 0
366571.0 491513.0 0
370542.0 491146.0 0
380677.0 493644.0 0
386051.0 491347.0 0
389988.0 491108.0 0
393924.0 490809.0 0
405836.0 491706.0 0
94849.4 493253.0 0
98748.1 494095.0 0
104411.0 493821.0 0
108367.0 494269.0 0
113225.0 495569.0 0
117182.0 495900.0 0
131335.0 493914.0 0
135288.0 494341.0 0
139200.0 494735.0 0
143076.0 495082.0 0
146928.0 495414.0 0
164485.0 493374.0 0
168349.0 493548.0 0
172217.0 493691.0 0
176086.0 493811.0 0
179955.0 493913.0 0
183823.0 494005.0 0
187690.0 494092.0 0
191555.0 494180.0 0
195422.0 494271.0 0
199293.0 494367.0 0
203172.0 494462.0 0
207063.0 494545.0 0
210965.0 494596.0 0
253103.0 493338.0 0
256965.0 493397.0 0
260827.0 493461.0 0
264689.0 493532.0 0
268552.0 493608.0 0
272418.0 493689.0 0
276287.0 493774.0 0
280160.0 493860.0 0
284038.0 493948.0 0
287921.0 494034.0 0
291810.0 494117.0 0
295706.0 494193.0 0
299608.0 494260.0 0
303518.0 494315.0 0
307434.0 494353.0 0
311356.0 494370.0 0
315282.0 494365.0 0
319212.0 494334.0 0
323142.0 494274.0 0
327073.0 494183.0 0
331005.0 494057.0 0
334937.0 493895.0 0
338874.0 493696.0 0
342815.0 493462.0 0
352966.0 496014.0 0
356927.0 495681.0 0
360891.0 495333.0 0
364859.0 494977.0 0
368828.0 494622.0 0
372791.0 494276.0 0
376743.0 493948.0 0
384402.0 494757.0 0
388344.0 494536.0 0
392305.0 494256.0 0
398119.0 495711.0 0
402947.0 495487.0 0
408762.0 494368.0 0
95986.4 497066.0 0
101733.0 496694.0 0
106028.0 497379.0 0
110005.0 497748.0 0
121141.0 496247.0 0
125101.0 496613.0 0
129061.0 497000.0 0
133009.0 497386.0 0
137017.0 497873.0 0
140938.0 498273.0 0
144871.0 498567.0 0
150669.0 495782.0 0
154475.0 496110.0 0
158326.0 496387.0 0
162199.0 496616.0 0
166081.0 496804.0 0
169965.0 496961.0 0
173851.0 497091.0 0
177736.0 497201.0 0
181618.0 497296.0 0
185498.0 497383.0 0
189376.0 497466.0 0
193254.0 497547.0 0
197133.0 497628.0 0
201016.0 497707.0 0
204907.0 497776.0 0
208805.0 497825.0 0
212707.0 497837.0 0
216091.0 496074.0 0
219991.0 496184.0 0
223895.0 496273.0 0
227799.0 496345.0 0
231699.0 496404.0 0
235595.0 496456.0 0
239485.0 496505.0 0
243371.0 496553.0 0
247252.0 496602.0 0
251130.0 496654.0 0
255005.0 496711.0 0
258879.0 496772.0 0
262753.0 496838.0 0
266628.0 496909.0 0
270505.0 496985.0 0
274384.0 497064.0 0
278268.0 497145.0 0
282155.0 497227.0 0
286048.0 497309.0 0
289946.0 497387.0 0
293851.0 497461.0 0
297762.0 497527.0 0
301681.0 497582.0 0
305606.0 497623.0 0
309537.0 497647.0 0
313475.0 497651.0 0
317416.0 497631.0 0
321361.0 497586.0 0
325308.0 497513.0 0
329254.0 497406.0 0
333200.0 497263.0 0
337148.0 497081.0 0
341098.0 496860.0 0
345052.0 496607.0 0
349008.0 496323.0 0
359168.0 498810.0 0
363131.0 498461.0 0
367095.0 498112.0 0
371058.0 497777.0 0
375013.0 497465.0 0
378952.0 497184.0 0
382720.0 498191.0 0
386667.0 497983.0 0
390632.0 497722.0 0
394607.0 497398.0 0
400561.0 498644.0 0
99054.0 499612.0 0
103413.0 500286.0 0
107721.0 500910.0 0
111693.0 501259.0 0
114901.0 499050.0 0
118858.0 499377.0 0
122817.0 499725.0 0
126780.0 500094.0 0
130742.0 500506.0 0
134670.0 500856.0 0
148277.0 500559.0 0
152028.0 499335.0 0
155972.0 499602.0 0
159893.0 499853.0 0
163805.0 500062.0 0
167714.0 500234.0 0
171619.0 500376.0 0
175521.0 500495.0 0
179420.0 500596.0 0
183316.0 500685.0 0
187208.0 500767.0 0
191099.0 500843.0 0
194989.0 500916.0 0
198881.0 500984.0 0
202778.0 501044.0 0
206679.0 501088.0 0
210582.0 501108.0 0
214483.0 501093.0 0
217969.0 499511.0 0
221867.0 499594.0 0
225769.0 499665.0 0
229673.0 499725.0 0
233575.0 499779.0 0
237474.0 499829.0 0
241370.0 499878.0 0
245261.0 499928.0 0
249150.0 499979.0 0
253037.0 500034.0 0
256922.0 500093.0 0
260807.0 500155.0 0
264692.0 500222.0 0
268579.0 500293.0 0
272468.0 500367.0 0
276361.0 500443.0 0
280257.0 500520.0 0
284159.0 500598.0 0
288065.0 500673.0 0
291978.0 500743.0 0
295897.0 500808.0 0
299824.0 500863.0 0
303757.0 500906.0 0
307697.0 500935.0 0
311643.0 500946.0 0
315595.0 500936.0 0
319551.0 500904.0 0
323511.0 500846.0 0
327473.0 500760.0 0
331435.0 500639.0 0
335394.0 500477.0 0
339356.0 500273.0 0
343320.0 500033.0 0
347283.0 499765.0 0
351246.0 499469.0 0
355207.0 499150.0 0
369311.0 501288.0 0
373267.0 500983.0 0
377211.0 500717.0 0
392912.0 500916.0 0
397028.0 500557.0 0
404396.0 499577.0 0
96897.8 502960.0 0
100879.0 503288.0 0
116573.0 502538.0 0
120531.0 502868.0 0
124495.0 503214.0 0
128460.0 503593.0 0
132495.0 504041.0 0
139510.0 501839.0 0
143481.0 502081.0 0
153659.0 502811.0 0
157601.0 503084.0 0
161535.0 503318.0 0
165465.0 503508.0 0
219857.0 502946.0 0
223755.0 503008.0 0
227657.0 503064.0 0
231562.0 503116.0 0
235466.0 503166.0 0
239369.0 503214.0 0
243269.0 503263.0 0
247167.0 503314.0 0
251063.0 503367.0 0
254957.0 503423.0 0
258852.0 503483.0 0
262746.0 503547.0 0
266642.0 503613.0 0
270540.0 503683.0 0
341566.0 503471.0 0
345540.0 503218.0 0
349510.0 502940.0 0
353475.0 502636.0 0
357436.0 502310.0 0
361394.0 501968.0 0
365352.0 501621.0 0
381007.0 501650.0 0
384958.0 501447.0 0
388928.0 501204.0 0
395201.0 504115.0 0
400510.0 502548.0 0
105148.0 503861.0 0
109426.0 504452.0 0
113396.0 504810.0 0
118233.0 506040.0 0
122207.0 506363.0 0
136465.0 504242.0 0
141416.0 505308.0 0
146795.0 504235.0 0
150604.0 505267.0 0
169391.0 503664.0 0
173312.0 503794.0 0
177229.0 503903.0 0
181141.0 503997.0 0
185049.0 504080.0 0
188954.0 504155.0 0
192857.0 504223.0 0
196760.0 504285.0 0
200664.0 504339.0 0
204571.0 504381.0 0
208481.0 504404.0 0
212389.0 504403.0 0
216291.0 504371.0 0
274441.0 503755.0 0
278345.0 503828.0 0
282254.0 503901.0 0
286168.0 503972.0 0
290088.0 504041.0 0
294014.0 504103.0 0
297947.0 504158.0 0
301887.0 504203.0 0
305834.0 504235.0 0
309788.0 504252.0 0
313748.0 504250.0 0
317713.0 504228.0 0
321683.0 504184.0 0
325658.0 504114.0 0
329636.0 504017.0 0
333613.0 503883.0 0
337588.0 503696.0 0
351731.0 506135.0 0
355696.0 505827.0 0
359652.0 505497.0 0
363604.0 505154.0 0
367557.0 504815.0 0
371510.0 504507.0 0
375455.0 504246.0 0
379266.0 505138.0 0
383217.0 504933.0 0
387186.0 504700.0 0
391171.0 504435.0 0
98643.7 506551.0 0
102622.0 506882.0 0
106878.0 507441.0 0
111126.0 508019.0 0
115089.0 508402.0 0
126166.0 506720.0 0
130137.0 507096.0 0
134373.0 507548.0 0
138354.0 507626.0 0
144634.0 507544.0 0
155322.0 506316.0 0
159274.0 506575.0 0
163224.0 506784.0 0
167170.0 506955.0 0
171110.0 507097.0 0
175045.0 507216.0 0
178973.0 507317.0 0
182897.0 507404.0 0
186816.0 507479.0 0
190732.0 507547.0 0
194647.0 507606.0 0
198562.0 507657.0 0
202477.0 507696.0 0
206393.0 507722.0 0
210308.0 507728.0 0
214220.0 507712.0 0
218124.0 507672.0 0
221753.0 506379.0 0
225652.0 506426.0 0
229557.0 506472.0 0
233463.0 506517.0 0
237370.0 506563.0 0
241276.0 506610.0 0
245181.0 506659.0 0
249084.0 506711.0 0
252987.0 506765.0 0
256889.0 506822.0 0
260791.0 506883.0 0
264695.0 506946.0 0
268600.0 507012.0 0
272508.0 507080.0 0
276420.0 507149.0 0
280336.0 507219.0 0
284256.0 507287.0 0
288182.0 507352.0 0
292114.0 507413.0 0
296053.0 507468.0 0
299998.0 507513.0 0
303951.0 507548.0 0
307910.0 507569.0 0
311876.0 507574.0 0
315848.0 507562.0 0
319826.0 507529.0 0
323808.0 507473.0 0
327797.0 507393.0 0
331793.0 507289.0 0
335798.0 507131.0 0
339792.0 506915.0 0
343780.0 506679.0 0
347760.0 506419.0 0
361862.0 508709.0 0
365808.0 508368.0 0
369751.0 508043.0 0
373693.0 507774.0 0
377505.0 508656.0 0
381451.0 508444.0 0
385416.0 508216.0 0
389395.0 507962.0 0
393403.0 507681.0 0
397797.0 507100.0 0
401728.0 506317.0 0
97553.8 510366.0 0
101657.0 510723.0 0
105620.0 511174.0 0
119924.0 509527.0 0
123873.0 509890.0 0
127831.0 510230.0 0
131878.0 510580.0 0
136495.0 510991.0 0
141550.0 509961.0 0
148396.0 508553.0 0
152326.0 508852.0 0
157027.0 509837.0 0
160995.0 510065.0 0
164959.0 510251.0 0
168918.0 510405.0 0
172869.0 510535.0 0
176813.0 510644.0 0
180751.0 510737.0 0
184685.0 510816.0 0
188615.0 510884.0 0
192542.0 510943.0 0
196467.0 510993.0 0
200391.0 511032.0 0
204314.0 511059.0 0
208237.0 511071.0 0
212157.0 511065.0 0
216071.0 511040.0 0
219978.0 510997.0 0
223655.0 509811.0 0
227558.0 509848.0 0
231465.0 509887.0 0
235375.0 509928.0 0
239284.0 509971.0 0
243194.0 510018.0 0
247103.0 510067.0 0
251012.0 510118.0 0
254920.0 510173.0 0
258829.0 510231.0 0
262739.0 510291.0 0
266651.0 510354.0 0
270565.0 510419.0 0
274483.0 510484.0 0
278404.0 510551.0 0
282330.0 510616.0 0
286261.0 510679.0 0
290199.0 510739.0 0
294142.0 510792.0 0
298092.0 510838.0 0
302049.0 510875.0 0
306012.0 510899.0 0
309983.0 510910.0 0
313960.0 510906.0 0
317943.0 510883.0 0
321929.0 510840.0 0
325920.0 510773.0 0
329917.0 510686.0 0
333962.0 510559.0 0
338012.0 510369.0 0
342007.0 510144.0 0
345997.0 509904.0 0
349977.0 509642.0 0
353950.0 509354.0 0
357912.0 509044.0 0
364072.0 511947.0 0
368013.0 511610.0 0
371938.0 511307.0 0
387600.0 511506.0 0
391588.0 511237.0 0
396001.0 510670.0 0
400295.0 510192.0 0
99304.5 513942.0 0
109577.0 511625.0 0
113542.0 512046.0 0
117488.0 512557.0 0
121559.0 513079.0 0
125524.0 513424.0 0
129501.0 513723.0 0
133937.0 513918.0 0
139664.0 513404.0 0
145612.0 511416.0 0
150069.0 512130.0 0
154035.0 512410.0 0
158786.0 513355.0 0
162763.0 513554.0 0
166736.0 513720.0 0
170702.0 513861.0 0
174661.0 513980.0 0
178613.0 514079.0 0
225564.0 513246.0 0
229471.0 513275.0 0
233382.0 513310.0 0
237294.0 513348.0 0
241207.0 513390.0 0
245121.0 513435.0 0
249034.0 513484.0 0
252948.0 513537.0 0
256862.0 513592.0 0
260776.0 513649.0 0
264693.0 513709.0 0
268612.0 513771.0 0
272535.0 513833.0 0
276461.0 513897.0 0
280391.0 513960.0 0
284327.0 514021.0 0
288268.0 514079.0 0
292215.0 514132.0 0
332064.0 513969.0 0
336175.0 513810.0 0
340226.0 513618.0 0
344220.0 513391.0 0
348211.0 513153.0 0
352195.0 512883.0 0
356170.0 512596.0 0
360130.0 512289.0 0
375732.0 512206.0 0
379664.0 511982.0 0
383624.0 511749.0 0
103266.0 514374.0 0
107225.0 514820.0 0
111194.0 515261.0 0
115158.0 515719.0 0
119132.0 516180.0 0
123211.0 516648.0 0
127201.0 516952.0 0
131553.0 517010.0 0
137060.0 516336.0 0
143399.0 514741.0 0
147367.0 515025.0 0
151815.0 515698.0 0
155795.0 515944.0 0
182560.0 514163.0 0
186503.0 514234.0 0
190442.0 514295.0 0
194378.0 514345.0 0
198311.0 514386.0 0
202243.0 514415.0 0
206172.0 514431.0 0
210100.0 514432.0 0
214023.0 514418.0 0
217940.0 514388.0 0
221849.0 514346.0 0
227480.0 516684.0 0
296169.0 514178.0 0
300129.0 514216.0 0
304096.0 514243.0 0
308070.0 514258.0 0
312050.0 514260.0 0
316037.0 514247.0 0
320028.0 514217.0 0
324021.0 514166.0 0
328018.0 514088.0 0
350430.0 516416.0 0
354415.0 516147.0 0
358391.0 515863.0 0
362354.0 515564.0 0
366296.0 515194.0 0
370246.0 514879.0 0
373951.0 516250.0 0
377859.0 515549.0 0
381827.0 515297.0 0
385796.0 515057.0 0
389761.0 514819.0 0
393720.0 514568.0 0
397676.0 514274.0 0
401647.0 513949.0 0
100686.0 517684.0 0
104672.0 518103.0 0
108771.0 518484.0 0
112809.0 518906.0 0
140862.0 517835.0 0
145143.0 518329.0 0
149127.0 518608.0 0
160586.0 516869.0 0
164570.0 517043.0 0
168548.0 517194.0 0
172519.0 517323.0 0
176483.0 517432.0 0
180441.0 517521.0 0
184396.0 517596.0 0
188346.0 517659.0 0
192293.0 517712.0 0
196236.0 517755.0 0
200176.0 517787.0 0
204113.0 517807.0 0
208048.0 517814.0 0
211978.0 517807.0 0
215903.0 517787.0 0
219822.0 517755.0 0
223734.0 517715.0 0
231391.0 516710.0 0
235305.0 516741.0 0
239221.0 516777.0 0
243138.0 516818.0 0
247055.0 516864.0 0
250972.0 516913.0 0
254889.0 516966.0 0
258808.0 517021.0 0
262729.0 517078.0 0
266651.0 517137.0 0
270577.0 517197.0 0
274507.0 517257.0 0
278441.0 517318.0 0
282380.0 517377.0 0
286324.0 517434.0 0
290274.0 517486.0 0
294231.0 517532.0 0
298193.0 517571.0 0
302163.0 517601.0 0
306139.0 517620.0 0
310121.0 517627.0 0
314110.0 517621.0 0
318104.0 517601.0 0
322103.0 517567.0 0
326108.0 517504.0 0
330154.0 517388.0 0
334266.0 517229.0 0
338382.0 517075.0 0
342426.0 516885.0 0
346417.0 516662.0 0
364571.0 518867.0 0
368517.0 518462.0 0
380057.0 518864.0 0
384014.0 518619.0 0
387979.0 518383.0 0
391952.0 518140.0 0
395933.0 517872.0 0
399915.0 517567.0 0
102070.0 521431.0 0
116782.0 519367.0 0
120767.0 519806.0 0
124727.0 520279.0 0
128671.0 520571.0 0
132595.0 520714.0 0
136484.0 520210.0 0
153610.0 519254.0 0
157594.0 519469.0 0
162420.0 520378.0 0
166406.0 520535.0 0
170386.0 520676.0 0
174360.0 520794.0 0
178329.0 520891.0 0
182293.0 520970.0 0
186254.0 521035.0 0
190211.0 521091.0 0
194164.0 521138.0 0
198113.0 521174.0 0
202058.0 521198.0 0
206000.0 521211.0 0
209938.0 521210.0 0
213870.0 521198.0 0
217797.0 521175.0 0
221716.0 521142.0 0
225630.0 521101.0 0
229403.0 520129.0 0
233318.0 520152.0 0
237236.0 520181.0 0
241155.0 520216.0 0
245075.0 520257.0 0
248994.0 520304.0 0
252914.0 520353.0 0
256835.0 520406.0 0
260758.0 520460.0 0
264683.0 520517.0 0
268612.0 520574.0 0
272544.0 520632.0 0
276480.0 520691.0 0
280421.0 520748.0 0
284368.0 520803.0 0
288320.0 520855.0 0
292278.0 520902.0 0
296243.0 520942.0 0
300214.0 520974.0 0
304191.0 520995.0 0
308175.0 521006.0 0
312165.0 521006.0 0
316160.0 520994.0 0
320159.0 520971.0 0
324183.0 520924.0 0
328248.0 520822.0 0
332352.0 520660.0 0
336461.0 520506.0 0
340573.0 520360.0 0
344603.0 520181.0 0
348621.0 519935.0 0
352649.0 519700.0 0
356633.0 519433.0 0
360608.0 519155.0 0
372213.0 519846.0 0
376161.0 519567.0 0
399492.0 521535.0 0
106398.0 521703.0 0
110449.0 522103.0 0
114421.0 522561.0 0
118395.0 523019.0 0
122360.0 523471.0 0
126458.0 523863.0 0
130513.0 524065.0 0
134870.0 523876.0 0
139239.0 522990.0 0
142979.0 521667.0 0
146950.0 521928.0 0
150930.0 522175.0 0
155434.0 522806.0 0
159428.0 522987.0 0
164273.0 523886.0 0
168259.0 524037.0 0
172243.0 524167.0 0
176222.0 524273.0 0
180196.0 524356.0 0
184167.0 524424.0 0
188133.0 524483.0 0
192095.0 524533.0 0
196052.0 524573.0 0
215775.0 524605.0 0
219703.0 524580.0 0
223623.0 524545.0 0
227537.0 524497.0 0
231334.0 523582.0 0
235254.0 523602.0 0
239176.0 523629.0 0
243097.0 523665.0 0
247017.0 523708.0 0
250938.0 523755.0 0
254859.0 523805.0 0
258783.0 523857.0 0
262709.0 523911.0 0
266639.0 523966.0 0
270572.0 524022.0 0
274509.0 524079.0 0
278451.0 524134.0 0
282399.0 524188.0 0
286353.0 524240.0 0
290313.0 524287.0 0
294279.0 524328.0 0
298252.0 524361.0 0
302230.0 524386.0 0
306215.0 524400.0 0
310205.0 524404.0 0
314200.0 524397.0 0
318199.0 524383.0 0
322229.0 524343.0 0
326321.0 524258.0 0
330450.0 524112.0 0
334540.0 523952.0 0
338640.0 523805.0 0
342726.0 523679.0 0
346809.0 523468.0 0
350816.0 523226.0 0
354869.0 523004.0 0
358855.0 522739.0 0
362838.0 522467.0 0
366823.0 522166.0 0
370892.0 523596.0 0
374878.0 523346.0 0
379272.0 522768.0 0
383310.0 522533.0 0
387319.0 522306.0 0
391475.0 522087.0 0
395504.0 521834.0 0
100838.0 525380.0 0
104830.0 525384.0 0
108798.0 525732.0 0
112752.0 526183.0 0
116700.0 526638.0 0
137638.0 526646.0 0
141570.0 526170.0 0
145467.0 525621.0 0
149405.0 525849.0 0
153346.0 526196.0 0
157309.0 526348.0 0
161288.0 526509.0 0
200005.0 524603.0 0
203955.0 524621.0 0
207900.0 524627.0 0
211841.0 524621.0 0
233279.0 527043.0 0
237202.0 527058.0 0
344925.0 526980.0 0
349002.0 526774.0 0
353008.0 526529.0 0
357116.0 526332.0 0
361182.0 526104.0 0
365184.0 526050.0 0
377508.0 526349.0 0
381498.0 526086.0 0
385513.0 525863.0 0
389580.0 525597.0 0
393706.0 525396.0 0
397999.0 525240.0 0
120644.0 527066.0 0
124606.0 527372.0 0
128575.0 527506.0 0
132815.0 527296.0 0
166128.0 527406.0 0
170125.0 527546.0 0
174118.0 527666.0 0
178104.0 527756.0 0
182084.0 527825.0 0
186058.0 527887.0 0
190026.0 527941.0 0
193991.0 527986.0 0
197953.0 528021.0 0
201911.0 528045.0 0
205865.0 528057.0 0
209814.0 528057.0 0
213757.0 528047.0 0
217694.0 528029.0 0
221625.0 528003.0 0
225547.0 527962.0 0
229461.0 527892.0 0
241123.0 527088.0 0
245042.0 527128.0 0
248961.0 527172.0 0
252882.0 527220.0 0
256805.0 527269.0 0
260730.0 527321.0 0
264659.0 527374.0 0
268592.0 527428.0 0
272529.0 527482.0 0
276472.0 527536.0 0
280420.0 527588.0 0
284374.0 527639.0 0
288335.0 527686.0 0
292302.0 527728.0 0
296276.0 527764.0 0
300256.0 527791.0 0
304242.0 527808.0 0
308233.0 527815.0 0
312229.0 527813.0 0
316227.0 527804.0 0
320262.0 527768.0 0
324361.0 527690.0 0
328521.0 527564.0 0
332642.0 527423.0 0
336713.0 527268.0 0
340775.0 527144.0 0
369070.0 527126.0 0
373118.0 526936.0 0
102000.0 529330.0 0
106000.0 529256.0 0
110165.0 529525.0 0
114209.0 529981.0 0
118263.0 530338.0 0
122372.0 530663.0 0
126497.0 530897.0 0
130558.0 530956.0 0
134552.0 530873.0 0
138525.0 530495.0 0
142480.0 530028.0 0
146428.0 529529.0 0
150411.0 529710.0 0
154389.0 530048.0 0
158383.0 530189.0 0
162394.0 530332.0 0
167294.0 531216.0 0
171432.0 531309.0 0
175546.0 531386.0 0
179615.0 531429.0 0
183661.0 531460.0 0
187708.0 531487.0 0
191729.0 531511.0 0
195725.0 531538.0 0
199717.0 531556.0 0
203706.0 531563.0 0
207691.0 531557.0 0
211672.0 531538.0 0
215647.0 531510.0 0
219616.0 531474.0 0
223574.0 531435.0 0
227514.0 531381.0 0
231426.0 531270.0 0
235247.0 530509.0 0
239159.0 530527.0 0
243071.0 530564.0 0
246986.0 530605.0 0
250904.0 530650.0 0
254825.0 530697.0 0
258748.0 530746.0 0
262675.0 530797.0 0
266606.0 530849.0 0
270541.0 530901.0 0
274482.0 530953.0 0
278429.0 531004.0 0
282383.0 531054.0 0
286343.0 531101.0 0
290311.0 531144.0 0
294286.0 531181.0 0
298269.0 531210.0 0
302257.0 531230.0 0
306251.0 531241.0 0
310249.0 531242.0 0
314248.0 531236.0 0
318287.0 531203.0 0
322390.0 531128.0 0
326558.0 531009.0 0
330712.0 530889.0 0
334818.0 530758.0 0
338840.0 530627.0 0
342833.0 530543.0 0
346814.0 530476.0 0
350781.0 530326.0 0
354734.0 530106.0 0
358683.0 530014.0 0
362639.0 529958.0 0
366591.0 530232.0 0
370523.0 530852.0 0
374505.0 530696.0 0
378467.0 530224.0 0
382449.0 529961.0 0
386436.0 529744.0 0
390422.0 529497.0 0
394412.0 529323.0 0
398407.0 529246.0 0
101960.0 533331.0 0
105957.0 533256.0 0
109944.0 533519.0 0
113912.0 533974.0 0
117887.0 534325.0 0
137783.0 534393.0 0
141748.0 533937.0 0
145720.0 533529.0 0
149710.0 533643.0 0
153686.0 533982.0 0
157672.0 534119.0 0
161659.0 534253.0 0
233707.0 534470.0 0
237654.0 534201.0 0
241614.0 534259.0 0
245578.0 534318.0 0
249545.0 534380.0 0
253516.0 534445.0 0
257491.0 534511.0 0
261470.0 534578.0 0
265453.0 534646.0 0
269439.0 534712.0 0
273428.0 534777.0 0
277420.0 534840.0 0
333721.0 534580.0 0
337780.0 534464.0 0
341784.0 534390.0 0
345788.0 534329.0 0
349836.0 534199.0 0
353916.0 534006.0 0
357964.0 533976.0 0
361964.0 533973.0 0
365958.0 534169.0 0
377915.0 534180.0 0
381936.0 533923.0 0
385944.0 533707.0 0
389963.0 533464.0 0
393982.0 533293.0 0
398000.0 533239.0 0
121865.0 534611.0 0
125847.0 534842.0 0
129833.0 534878.0 0
133817.0 534793.0 0
165605.0 534837.0 0
169597.0 534857.0 0
173592.0 534870.0 0
177591.0 534874.0 0
181600.0 534882.0 0
185644.0 534908.0 0
189681.0 534939.0 0
193686.0 534971.0 0
197685.0 534994.0 0
201683.0 535007.0 0
205679.0 535008.0 0
209671.0 534996.0 0
213657.0 534973.0 0
217639.0 534942.0 0
221616.0 534907.0 0
225595.0 534864.0 0
229581.0 534788.0 0
281413.0 534900.0 0
285409.0 534955.0 0
289407.0 535006.0 0
293418.0 535051.0 0
297441.0 535088.0 0
301467.0 535116.0 0
305514.0 535137.0 0
309567.0 535148.0 0
313589.0 535146.0 0
317597.0 535108.0 0
321619.0 535021.0 0
325639.0 534872.0 0
329656.0 534720.0 0
369908.0 534802.0 0
373906.0 534652.0 0
102000.0 537331.0 0
106000.0 537258.0 0
110000.0 537523.0 0
114001.0 537975.0 0
118002.0 538324.0 0
122004.0 538598.0 0
126007.0 538839.0 0
130008.0 538868.0 0
134008.0 538782.0 0
138020.0 538371.0 0
142026.0 537917.0 0
146009.0 537543.0 0
150009.0 537630.0 0
154012.0 537967.0 0
158011.0 538103.0 0
162010.0 538233.0 0
166055.0 538808.0 0
170055.0 538829.0 0
174056.0 538841.0 0
178058.0 538846.0 0
182061.0 538845.0 0
186070.0 538872.0 0
190084.0 538904.0 0
194089.0 538936.0 0
198092.0 538958.0 0
202095.0 538970.0 0
206097.0 538970.0 0
210097.0 538957.0 0
214097.0 538931.0 0
218096.0 538897.0 0
222096.0 538859.0 0
226094.0 538813.0 0
230092.0 538737.0 0
234077.0 538423.0 0
238067.0 538168.0 0
242065.0 538221.0 0
246064.0 538275.0 0
250063.0 538333.0 0
254069.0 538393.0 0
258075.0 538454.0 0
262080.0 538517.0 0
266086.0 538581.0 0
270091.0 538644.0 0
274093.0 538706.0 0
278092.0 538768.0 0
282091.0 538826.0 0
286090.0 538881.0 0
290088.0 538932.0 0
294086.0 538979.0 0
298083.0 539021.0 0
302080.0 539053.0 0
306076.0 539081.0 0
310072.0 539099.0 0
314068.0 539100.0 0
318063.0 539064.0 0
322057.0 538982.0 0
326050.0 538837.0 0
330042.0 538689.0 0
334035.0 538557.0 0
338030.0 538447.0 0
342025.0 538377.0 0
346022.0 538316.0 0
350017.0 538188.0 0
354011.0 537998.0 0
358009.0 537976.0 0
362008.0 537974.0 0
366003.0 538162.0 0
370007.0 538800.0 0
374011.0 538651.0 0
378005.0 538177.0 0
382003.0 537919.0 0
386002.0 537703.0 0
390001.0 537460.0 0
394000.0 537290.0 0
398000.0 537239.0 0
POINT_DATA 4650
SCALARS Radius float 1
LOOKUP_TABLE default
4000.0 4000.0 4000.0 4000.0 4000.0 4000.0 4000.0 4000.0 4000.0 4000.0 4000.0 4000.0 4000.0 4000.0 4000.0 4000.0 4000.0 4000.0 4000.0 4000.0 4000.0 4000.0 4000.0 4000.0 4000.0 4000.0 4000.0 4000.0 4000.0 4000.0 4000.0 4000.0 4000.0 4000.0 4000.0 4000.0 4000.0 4000.0 4000.0 4000.0 4000.0 4000.0 4000.0 4000.0 4000.0 4000.0 4000.0 4000.0 4000.0 4000.0 4000.0 4000.0 4000.0 4000.0 4000.0 4000.0 4000.0 4000.0 4000.0 4000.0 4000.0 4000.0 4000.0 4000.0 4000.0 4000.0 4000.0 4000.0 4000.0 4000.0 4000.0 4000.0 4000.0 4000.0 4000.0 4000.0 4000.0 4000.0 4000.0 4000.0 4000.0 4000.0 4000.0 4000.0 4000.0 4000.0 4000.0 4000.0 4000.0 4000.0 4000.0 4000.0 4000.0 4000.0 4000.0 4000.0 4000.0 4000.0 4000.0 4000.0 4000.0 4000.0 4000.0 4000.0 4000.0 4000.0 4000.0 4000.0 4000.0 4000.0 4000.0 4000.0 4000.0 4000.0 4000.0 4000.0 4000.0 4000.0 4000.0 4000.0 4000.0 4000.0 4000.0 4000.0 4000.0 4000.0 4000.0 4000.0 4000.0 4000.0 4000.0 4000.0 4000.0 4000.0 4000.0 4000.0 4000.0 4000.0 4000.0 4000.0 4000.0 4000.0 4000.0 4000.0 4000.0 4000.0 4000.0 4000.0 4000.0 4000.0 4000.0 4000.0 4000.0 4000.0 4000.0 4000.0 4000.0 4000.0 4000.0 4000.0 4000.0 4000.0 4000.0 4000.0 4000.0 4000.0 4000.0 4000.0 4000.0 4000.0 4000.0 4000.0 4000.0 4000.0 4000.0 4000.0 4000.0 4000.0 4000.0 4000.0 4000.0 4000.0 4000.0 4000.0 4000.0 4000.0 4000.0 4000.0 4000.0 4000.0 4000.0 4000.0 4000.0 4000.0 4000.0 4000.0 4000.0 4000.0 4000.0 4000.0 4000.0 4000.0 4000.0 4000.0 4000.0 4000.0 4000.0 4000.0 4000.0 4000.0 4000.0 4000.0 4000.0 4000.0 4000.0 4000.0 4000.0 4000.0 4000.0 4000.0 4000.0 4000.0 4000.0 4000.0 4000.0 4000.0 4000.0 4000.0 4000.0 4000.0 4000.0 4000.0 4000.0 4000.0 4000.0 4000.0 4000.0 4000.0 4000.0 4000.0 4000.0 4000.0 4000.0 4000.0 4000.0 4000.0 4000.0 4000.0 4000.0 4000.0 4000.0 4000.0 4000.0 4000.0 4000.0 4000.0 4000.0 4000.0 4000.0 4000.0 4000.0 4000.0 4000.0 4000.0 4000.0 4000.0 4000.0 4000.0 4000.0 4000.0 4000.0 4000.0 4000.0 4000.0 4000.0 4000.0 4000.0 4000.0 4000.0 4000.0 4000.0 4000.0 4000.0 4000.0 4000.0 4000.0 4000.0 4000.0 4000.0 4000.0 4000.0 4000.0 4000.0 4000.0 4000.0 4000.0 4000.0 4000.0 4000.0 4000.0 4000.0 4000.0 4000.0 4000.0 4000.0 4000.0 4000.0 4000.0 4000.0 4000.0 4000.0 4000.0 4000.0 4000.0 4000.0 4000.0 4000.0 4000.0 4000.0 4000.0 4000.0 4000.0 4000.0 4000.0 4000.0 4000.0 4000.0 4000.0 4000.0 4000.0 4000.0 4000.0 4000.0 4000.0 4000.0 4000.0 4000.0 4000.0 4000.0 4000.0 4000.0 4000.0 4000.0 4000.0 4000.0 4000.0 4000.0 4000.0 4000.0 4000.0 4000.0 4000.0 4000.0 4000.0 4000.0 4000.0 4000.0 4000.0 4000.0 4000.0 4000.0 4000.0 4000.0 4000.0 4000.0 4000.0 4000.0 4000.0 4000.0 4000.0 4000.0 4000.0 4000.0 4000.0 4000.0 4000.0 4000.0 4000.0 4000.0 4000.0 4000.0 4000.0 4000.0 4000.0 4000.0 4000.0 4000.0 4000.0 4000.0 4000.0 4000.0 4000.0 4000.0 4000.0 4000.0 4000.0 4000.0 4000.0 4000.0 4000.0 4000.0 4000.0 4000.0 4000.0 4000.0 4000.0 4000.0 4000.0 4000.0 4000.0 4000.0 4000.0 4000.0 4000.0 4000.0 4000.0 4000.0 4000.0 4000.0 4000.0 4000.0 4000.0 4000.0 4000.0 4000.0 4000.0 4000.0 4000.0 4000.0 4000.0 4000.0 4000.0 4000.0 4000.0 4000.0 4000.0 4000.0 4000.0 4000.0 4000.0 4000.0 4000.0 4000.0 4000.0 4000.0 4000.0 4000.0 4000.0 4000.0 4000.0 4000.0 4000.0 4000.0 4000.0 4000.0 4000.0 4000.0 4000.0 4000.0 4000.0 4000.0 4000.0 4000.0 4000.0 4000.0 4000.0 4000.0 4000.0 4000.0 4000.0 4000.0 4000.0 4000.0 4000.0 4000.0 4000.0 4000.0 4000.0 4000.0 4000.0 4000.0 4000.0 4000.0 4000.0 4000.0 4000.0 4000.0 4000.0 4000.0 4000.0 4000.0 4000.0 4000.0 4000.0 4000.0 4000.0 4000.0 4000.0 4000.0 4000.0 4000.0 4000.0 4000.0 4000.0 4000.0 4000.0 4000.0 4000.0 4000.0 4000.0 4000.0 4000.0 4000.0 4000.0 4000.0 4000.0 4000.0 4000.0 4000.0 4000.0 4000.0 4000.0 4000.0 4000.0 4000.0 4000.0 4000.0 4000.0 4000.0 4000.0 4000.0 4000.0 4000.0 4000.0 4000.0 4000.0 4000.0 4000.0 4000.0 4000.0 4000.0 4000.0 4000.0 4000.0 4000.0 4000.0 4000.0 4000.0 4000.0 4000.0 4000.0 4000.0 4000.0 4000.0 4000.0 4000.0 4000.0 4000.0 4000.0 4000.0 4000.0 4000.0 4000.0 4000.0 4000.0 4000.0 4000.0 4000.0 4000.0 4000.0 4000.0 4000.0 4000.0 4000.0 4000.0 4000.0 4000.0 4000.0 4000.0 4000.0 4000.0 4000.0 4000.0 4000.0 4000.0 4000.0 4000.0 4000.0 4000.0 4000.0 4000.0 4000.0 4000.0 4000.0 4000.0 4000.0 4000.0 4000.0 4000.0 4000.0 4000.0 4000.0 4000.0 4000.0 4000.0 4000.0 4000.0 4000.0 4000.0 4000.0 4000.0 4000.0 4000.0 4000.0 4000.0 4000.0 4000.0 4000.0 4000.0 4000.0 4000.0 4000.0 4000.0 4000.0 4000.0 4000.0 4000.0 4000.0 4000.0 4000.0 4000.0 4000.0 4000.0 4000.0 4000.0 4000.0 4000.0 4000.0 4000.0 4000.0 4000.0 4000.0 4000.0 4000.0 4000.0 4000.0 4000.0 4000.0 4000.0 4000.0 4000.0 4000.0 4000.0 4000.0 4000.0 4000.0 4000.0 4000.0 4000.0 4000.0 4000.0 4000.0 4000.0 4000.0 4000.0 4000.0 4000.0 4000.0 4000.0 4000.0 4000.0 4000.0 4000.0 4000.0 4000.0 4000.0 4000.0 4000.0 4000.0 4000.0 4000.0 4000.0 4000.0 4000.0 4000.0 4000.0 4000.0 4000.0 4000.0 4000.0 4000.0 4000.0 4000.0 4000.0 4000.0 4000.0 4000.0 4000.0 4000.0 4000.0 4000.0 4000.0 4000.0 4000.0 4000.0 4000.0 4000.0 4000.0 4000.0 4000.0 4000.0 4000.0 4000.0 4000.0 4000.0 4000.0 4000.0 4000.0 4000.0 4000.0 4000.0 4000.0 4000.0 4000.0 4000.0 4000.0 4000.0 4000.0 4000.0 4000.0 4000.0 4000.0 4000.0 4000.0 4000.0 4000.0 4000.0 4000.0 4000.0 4000.0 4000.0 4000.0 4000.0 4000.0 4000.0 4000.0 4000.0 4000.0 4000.0 4000.0 4000.0 4000.0 4000.0 4000.0 4000.0 4000.0 4000.0 4000.0 4000.0 4000.0 4000.0 4000.0 4000.0 4000.0 4000.0 4000.0 4000.0 4000.0 4000.0 4000.0 4000.0 4000.0 4000.0 4000.0 4000.0 4000.0 4000.0 4000.0 4000.0 4000.0 4000.0 4000.0 4000.0 4000.0 4000.0 4000.0 4000.0 4000.0 4000.0 4000.0 4000.0 4000.0 4000.0 4000.0 4000.0 4000.0 4000.0 4000.0 4000.0 4000.0 4000.0 4000.0 4000.0 4000.0 4000.0 4000.0 4000.0 4000.0 4000.0 4000.0 4000.0 4000.0 4000.0 4000.0 4000.0 4000.0 4000.0 4000.0 4000.0 4000.0 4000.0 4000.0 4000.0 4000.0 4000.0 4000.0 4000.0 4000.0 4000.0 4000.0 4000.0 4000.0 4000.0 4000.0 4000.0 4000.0 4000.0 4000.0 4000.0 4000.0 4000.0 4000.0 4000.0 4000.0 4000.0 4000.0 4000.0 4000.0 4000.0 4000.0 4000.0 4000.0 4000.0 4000.0 4000.0 4000.0 4000.0 4000.0 4000.0 4000.0 4000.0 4000.0 4000.0 4000.0 4000.0 4000.0 4000.0 4000.0 4000.0 4000.0 4000.0 4000.0 4000.0 4000.0 4000.0 4000.0 4000.0 4000.0 4000.0 4000.0 4000.0 4000.0 4000.0 4000.0 4000.0 4000.0 4000.0 4000.0 4000.0 4000.0 4000.0 4000.0 4000.0 4000.0 4000.0 4000.0 4000.0 4000.0 4000.0 4000.0 4000.0 4000.0 4000.0 4000.0 4000.0 4000.0 4000.0 4000.0 4000.0 4000.0 4000.0 4000.0 4000.0 4000.0 4000.0 4000.0 4000.0 4000.0 4000.0 4000.0 4000.0 4000.0 4000.0 4000.0 4000.0 4000.0 4000.0 4000.0 4000.0 4000.0 4000.0 4000.0 4000.0 4000.0 4000.0 4000.0 4000.0 4000.0 4000.0 4000.0 4000.0 4000.0 4000.0 4000.0 4000.0 4000.0 4000.0 4000.0 4000.0 4000.0 4000.0 4000.0 4000.0 4000.0 4000.0 4000.0 4000.0 4000.0 4000.0 4000.0 4000.0 4000.0 4000.0 4000.0 4000.0 4000.0 4000.0 4000.0 4000.0 4000.0 4000.0 4000.0 4000.0 4000.0 4000.0 4000.0 4000.0 4000.0 4000.0 4000.0 4000.0 4000.0 4000.0 4000.0 4000.0 4000.0 4000.0 4000.0 4000.0 4000.0 4000.0 4000.0 4000.0 4000.0 4000.0 4000.0 4000.0 4000.0 4000.0 4000.0 4000.0 4000.0 4000.0 4000.0 4000.0 4000.0 4000.0 4000.0 4000.0 4000.0 4000.0 4000.0 4000.0 4000.0 4000.0 4000.0 4000.0 4000.0 4000.0 4000.0 4000.0 4000.0 4000.0 4000.0 4000.0 4000.0 4000.0 4000.0 4000.0 4000.0 4000.0 4000.0 4000.0 4000.0 4000.0 4000.0 4000.0 4000.0 4000.0 4000.0 4000.0 4000.0 4000.0 4000.0 4000.0 4000.0 4000.0 4000.0 4000.0 4000.0 4000.0 4000.0 4000.0 4000.0 4000.0 4000.0 4000.0 4000.0 4000.0 4000.0 4000.0 4000.0 4000.0 4000.0 4000.0 4000.0 4000.0 4000.0 4000.0 4000.0 4000.0 4000.0 4000.0 4000.0 4000.0 4000.0 4000.0 4000.0 4000.0 4000.0 4000.0 4000.0 4000.0 4000.0 4000.0 4000.0 4000.0 4000.0 4000.0 4000.0 4000.0 4000.0 4000.0 4000.0 4000.0 4000.0 4000.0 4000.0 4000.0 4000.0 4000.0 4000.0 4000.0 4000.0 4000.0 4000.0 4000.0 4000.0 4000.0 4000.0 4000.0 4000.0 4000.0 4000.0 4000.0 4000.0 4000.0 4000.0 4000.0 4000.0 4000.0 4000.0 4000.0 4000.0 4000.0 4000.0 4000.0 4000.0 4000.0 4000.0 4000.0 4000.0 4000.0 4000.0 4000.0 4000.0 4000.0 4000.0 4000.0 4000.0 4000.0 4000.0 4000.0 4000.0 4000.0 4000.0 4000.0 4000.0 4000.0 4000.0 4000.0 4000.0 4000.0 4000.0 4000.0 4000.0 4000.0 4000.0 4000.0 4000.0 4000.0 4000.0 4000.0 4000.0 4000.0 4000.0 4000.0 4000.0 4000.0 4000.0 4000.0 4000.0 4000.0 4000.0 4000.0 4000.0 4000.0 4000.0 4000.0 4000.0 4000.0 4000.0 4000.0 4000.0 4000.0 4000.0 4000.0 4000.0 4000.0 4000.0 4000.0 4000.0 4000.0 4000.0 4000.0 4000.0 4000.0 4000.0 4000.0 4000.0 4000.0 4000.0 4000.0 4000.0 4000.0 4000.0 4000.0 4000.0 4000.0 4000.0 4000.0 4000.0 4000.0 4000.0 4000.0 4000.0 4000.0 4000.0 4000.0 4000.0 4000.0 4000.0 4000.0 4000.0 4000.0 4000.0 4000.0 4000.0 4000.0 4000.0 4000.0 4000.0 4000.0 4000.0 4000.0 4000.0 4000.0 4000.0 4000.0 4000.0 4000.0 4000.0 4000.0 4000.0 4000.0 4000.0 4000.0 4000.0 4000.0 4000.0 4000.0 4000.0 4000.0 4000.0 4000.0 4000.0 4000.0 4000.0 4000.0 4000.0 4000.0 4000.0 4000.0 4000.0 4000.0 4000.0 4000.0 4000.0 4000.0 4000.0 4000.0 4000.0 4000.0 4000.0 4000.0 4000.0 4000.0 4000.0 4000.0 4000.0 4000.0 4000.0 4000.0 4000.0 4000.0 4000.0 4000.0 4000.0 4000.0 4000.0 4000.0 4000.0 4000.0 4000.0 4000.0 4000.0 4000.0 4000.0 4000.0 4000.0 4000.0 4000.0 4000.0 4000.0 4000.0 4000.0 4000.0 4000.0 4000.0 4000.0 4000.0 4000.0 4000.0 4000.0 4000.0 4000.0 4000.0 4000.0 4000.0 4000.0 4000.0 4000.0 4000.0 4000.0 4000.0 4000.0 4000.0 4000.0 4000.0 4000.0 4000.0 4000.0 4000.0 4000.0 4000.0 4000.0 4000.0 4000.0 4000.0 4000.0 4000.0 4000.0 4000.0 4000.0 4000.0 4000.0 4000.0 4000.0 4000.0 4000.0 4000.0 4000.0 4000.0 4000.0 4000.0 4000.0 4000.0 4000.0 4000.0 4000.0 4000.0 4000.0 4000.0 4000.0 4000.0 4000.0 4000.0 4000.0 4000.0 4000.0 4000.0 4000.0 4000.0 4000.0 4000.0 4000.0 4000.0 4000.0 4000.0 4000.0 4000.0 4000.0 4000.0 4000.0 4000.0 4000.0 4000.0 4000.0 4000.0 4000.0 4000.0 4000.0 4000.0 4000.0 4000.0 4000.0 4000.0 4000.0 4000.0 4000.0 4000.0 4000.0 4000.0 4000.0 4000.0 4000.0 4000.0 4000.0 4000.0 4000.0 4000.0 4000.0 4000.0 4000.0 4000.0 4000.0 4000.0 4000.0 4000.0 4000.0 4000.0 4000.0 4000.0 4000.0 4000.0 4000.0 4000.0 4000.0 4000.0 4000.0 4000.0 4000.0 4000.0 4000.0 4000.0 4000.0 4000.0 4000.0 4000.0 4000.0 4000.0 4000.0 4000.0 4000.0 4000.0 4000.0 4000.0 4000.0 4000.0 4000.0 4000.0 4000.0 4000.0 4000.0 4000.0 4000.0 4000.0 4000.0 4000.0 4000.0 4000.0 4000.0 4000.0 4000.0 4000.0 4000.0 4000.0 4000.0 4000.0 4000.0 4000.0 4000.0 4000.0 4000.0 4000.0 4000.0 4000.0 4000.0 4000.0 4000.0 4000.0 4000.0 4000.0 4000.0 4000.0 4000.0 4000.0 4000.0 4000.0 4000.0 4000.0 4000.0 4000.0 4000.0 4000.0 4000.0 4000.0 4000.0 4000.0 4000.0 4000.0 4000.0 4000.0 4000.0 4000.0 4000.0 4000.0 4000.0 4000.0 4000.0 4000.0 4000.0 4000.0 4000.0 4000.0 4000.0 4000.0 4000.0 4000.0 4000.0 4000.0 4000.0 4000.0 4000.0 4000.0 4000.0 4000.0 4000.0 4000.0 4000.0 4000.0 4000.0 4000.0 4000.0 4000.0 4000.0 4000.0 4000.0 4000.0 4000.0 4000.0 4000.0 4000.0 4000.0 4000.0 4000.0 4000.0 4000.0 4000.0 4000.0 4000.0 4000.0 4000.0 4000.0 4000.0 4000.0 4000.0 4000.0 4000.0 4000.0 4000.0 4000.0 4000.0 4000.0 4000.0 4000.0 4000.0 4000.0 4000.0 4000.0 4000.0 4000.0 4000.0 4000.0 4000.0 4000.0 4000.0 4000.0 4000.0 4000.0 4000.0 4000.0 4000.0 4000.0 4000.0 4000.0 4000.0 4000.0 4000.0 4000.0 4000.0 4000.0 4000.0 4000.0 4000.0 4000.0 4000.0 4000.0 4000.0 4000.0 4000.0 4000.0 4000.0 4000.0 4000.0 4000.0 4000.0 4000.0 4000.0 4000.0 4000.0 4000.0 4000.0 4000.0 4000.0 4000.0 4000.0 4000.0 4000.0 4000.0 4000.0 4000.0 4000.0 4000.0 4000.0 4000.0 4000.0 4000.0 4000.0 4000.0 4000.0 4000.0 4000.0 4000.0 4000.0 4000.0 4000.0 4000.0 4000.0 4000.0 4000.0 4000.0 4000.0 4000.0 4000.0 4000.0 4000.0 4000.0 4000.0 4000.0 4000.0 4000.0 4000.0 4000.0 4000.0 4000.0 4000.0 4000.0 4000.0 4000.0 4000.0 4000.0 4000.0 4000.0 4000.0 4000.0 4000.0 4000.0 4000.0 4000.0 4000.0 4000.0 4000.0 4000.0 4000.0 4000.0 4000.0 4000.0 4000.0 4000.0 4000.0 4000.0 4000.0 4000.0 4000.0 4000.0 4000.0 4000.0 4000.0 4000.0 4000.0 4000.0 4000.0 4000.0 4000.0 4000.0 4000.0 4000.0 4000.0 4000.0 4000.0 4000.0 4000.0 4000.0 4000.0 4000.0 4000.0 4000.0 4000.0 4000.0 4000.0 4000.0 4000.0 4000.0 4000.0 4000.0 4000.0 4000.0 4000.0 4000.0 4000.0 4000.0 4000.0 4000.0 4000.0 4000.0 4000.0 4000.0 4000.0 4000.0 4000.0 4000.0 4000.0 4000.0 4000.0 4000.0 4000.0 4000.0 4000.0 4000.0 4000.0 4000.0 4000.0 4000.0 4000.0 4000.0 4000.0 4000.0 4000.0 4000.0 4000.0 4000.0 4000.0 4000.0 4000.0 4000.0 4000.0 4000.0 4000.0 4000.0 4000.0 4000.0 4000.0 4000.0 4000.0 4000.0 4000.0 4000.0 4000.0 4000.0 4000.0 4000.0 4000.0 4000.0 4000.0 4000.0 4000.0 4000.0 4000.0 4000.0 4000.0 4000.0 4000.0 4000.0 4000.0 4000.0 4000.0 4000.0 4000.0 4000.0 4000.0 4000.0 4000.0 4000.0 4000.0 4000.0 4000.0 4000.0 4000.0 4000.0 4000.0 4000.0 4000.0 4000.0 4000.0 4000.0 4000.0 4000.0 4000.0 4000.0 4000.0 4000.0 4000.0 4000.0 4000.0 4000.0 4000.0 4000.0 4000.0 4000.0 4000.0 4000.0 4000.0 4000.0 4000.0 4000.0 4000.0 4000.0 4000.0 4000.0 4000.0 4000.0 4000.0 4000.0 4000.0 4000.0 4000.0 4000.0 4000.0 4000.0 4000.0 4000.0 4000.0 4000.0 4000.0 4000.0 4000.0 4000.0 4000.0 4000.0 4000.0 4000.0 4000.0 4000.0 4000.0 4000.0 4000.0 4000.0 4000.0 4000.0 4000.0 4000.0 4000.0 4000.0 4000.0 4000.0 4000.0 4000.0 4000.0 4000.0 4000.0 4000.0 4000.0 4000.0 4000.0 4000.0 4000.0 4000.0 4000.0 4000.0 4000.0 4000.0 4000.0 4000.0 4000.0 4000.0 4000.0 4000.0 4000.0 4000.0 4000.0 4000.0 4000.0 4000.0 4000.0 4000.0 4000.0 4000.0 4000.0 4000.0 4000.0 4000.0 4000.0 4000.0 4000.0 4000.0 4000.0 4000.0 4000.0 4000.0 4000.0 4000.0 4000.0 4000.0 4000.0 4000.0 4000.0 4000.0 4000.0 4000.0 4000.0 4000.0 4000.0 4000.0 4000.0 4000.0 4000.0 4000.0 4000.0 4000.0 4000.0 4000.0 4000.0 4000.0 4000.0 4000.0 4000.0 4000.0 4000.0 4000.0 4000.0 4000.0 4000.0 4000.0 4000.0 4000.0 4000.0 4000.0 4000.0 4000.0 4000.0 4000.0 4000.0 4000.0 4000.0 4000.0 4000.0 4000.0 4000.0 4000.0 4000.0 4000.0 4000.0 4000.0 4000.0 4000.0 4000.0 4000.0 4000.0 4000.0 4000.0 4000.0 4000.0 4000.0 4000.0 4000.0 4000.0 4000.0 4000.0 4000.0 4000.0 4000.0 4000.0 4000.0 4000.0 4000.0 4000.0 4000.0 4000.0 4000.0 4000.0 4000.0 4000.0 4000.0 4000.0 4000.0 4000.0 4000.0 4000.0 4000.0 4000.0 4000.0 4000.0 4000.0 4000.0 4000.0 4000.0 4000.0 4000.0 4000.0 4000.0 4000.0 4000.0 4000.0 4000.0 4000.0 4000.0 4000.0 4000.0 4000.0 4000.0 4000.0 4000.0 4000.0 4000.0 4000.0 4000.0 4000.0 4000.0 4000.0 4000.0 4000.0 4000.0 4000.0 4000.0 4000.0 4000.0 4000.0 4000.0 4000.0 4000.0 4000.0 4000.0 4000.0 4000.0 4000.0 4000.0 4000.0 4000.0 4000.0 4000.0 4000.0 4000.0 4000.0 4000.0 4000.0 4000.0 4000.0 4000.0 4000.0 4000.0 4000.0 4000.0 4000.0 4000.0 4000.0 4000.0 4000.0 4000.0 4000.0 4000.0 4000.0 4000.0 4000.0 4000.0 4000.0 4000.0 4000.0 4000.0 4000.0 4000.0 4000.0 4000.0 4000.0 4000.0 4000.0 4000.0 4000.0 4000.0 4000.0 4000.0 4000.0 4000.0 4000.0 4000.0 4000.0 4000.0 4000.0 4000.0 4000.0 4000.0 4000.0 4000.0 4000.0 4000.0 4000.0 4000.0 4000.0 4000.0 4000.0 4000.0 4000.0 4000.0 4000.0 4000.0 4000.0 4000.0 4000.0 4000.0 4000.0 4000.0 4000.0 4000.0 4000.0 4000.0 4000.0 4000.0 4000.0 4000.0 4000.0 4000.0 4000.0 4000.0 4000.0 4000.0 4000.0 4000.0 4000.0 4000.0 4000.0 4000.0 4000.0 4000.0 4000.0 4000.0 4000.0 4000.0 4000.0 4000.0 4000.0 4000.0 4000.0 4000.0 4000.0 4000.0 4000.0 4000.0 4000.0 4000.0 4000.0 4000.0 4000.0 4000.0 4000.0 4000.0 4000.0 4000.0 4000.0 4000.0 4000.0 4000.0 4000.0 4000.0 4000.0 4000.0 4000.0 4000.0 4000.0 4000.0 4000.0 4000.0 4000.0 4000.0 4000.0 4000.0 4000.0 4000.0 4000.0 4000.0 4000.0 4000.0 4000.0 4000.0 4000.0 4000.0 4000.0 4000.0 4000.0 4000.0 4000.0 4000.0 4000.0 4000.0 4000.0 4000.0 4000.0 4000.0 4000.0 4000.0 4000.0 4000.0 4000.0 4000.0 4000.0 4000.0 4000.0 4000.0 4000.0 4000.0 4000.0 4000.0 4000.0 4000.0 4000.0 4000.0 4000.0 4000.0 4000.0 4000.0 4000.0 4000.0 4000.0 4000.0 4000.0 4000.0 4000.0 4000.0 4000.0 4000.0 4000.0 4000.0 4000.0 4000.0 4000.0 4000.0 4000.0 4000.0 4000.0 4000.0 4000.0 4000.0 4000.0 4000.0 4000.0 4000.0 4000.0 4000.0 4000.0 4000.0 4000.0 4000.0 4000.0 4000.0 4000.0 4000.0 4000.0 4000.0 4000.0 4000.0 4000.0 4000.0 4000.0 4000.0 4000.0 4000.0 4000.0 4000.0 4000.0 4000.0 4000.0 4000.0 4000.0 4000.0 4000.0 4000.0 4000.0 4000.0 4000.0 4000.0 4000.0 4000.0 4000.0 4000.0 4000.0 4000.0 4000.0 4000.0 4000.0 4000.0 4000.0 4000.0 4000.0 4000.0 4000.0 4000.0 4000.0 4000.0 4000.0 4000.0 4000.0 4000.0 4000.0 4000.0 4000.0 4000.0 4000.0 4000.0 4000.0 4000.0 4000.0 4000.0 4000.0 4000.0 4000.0 4000.0 4000.0 4000.0 4000.0 4000.0 4000.0 4000.0 4000.0 4000.0 4000.0 4000.0 4000.0 4000.0 4000.0 4000.0 4000.0 4000.0 4000.0 4000.0 4000.0 4000.0 4000.0 4000.0 4000.0 4000.0 4000.0 4000.0 4000.0 4000.0 4000.0 4000.0 4000.0 4000.0 4000.0 4000.0 4000.0 4000.0 4000.0 4000.0 4000.0 4000.0 4000.0 4000.0 4000.0 4000.0 4000.0 4000.0 4000.0 4000.0 4000.0 4000.0 4000.0 4000.0 4000.0 4000.0 4000.0 4000.0 4000.0 4000.0 4000.0 4000.0 4000.0 4000.0 4000.0 4000.0 4000.0 4000.0 4000.0 4000.0 4000.0 4000.0 4000.0 4000.0 4000.0 4000.0 4000.0 4000.0 4000.0 4000.0 4000.0 4000.0 4000.0 4000.0 4000.0 4000.0 4000.0 4000.0 4000.0 4000.0 4000.0 4000.0 4000.0 4000.0 4000.0 4000.0 4000.0 4000.0 4000.0 4000.0 4000.0 4000.0 4000.0 4000.0 4000.0 4000.0 4000.0 4000.0 4000.0 4000.0 4000.0 4000.0 4000.0 4000.0 4000.0 4000.0 4000.0 4000.0 4000.0 4000.0 4000.0 4000.0 4000.0 4000.0 4000.0 4000.0 4000.0 4000.0 4000.0 4000.0 4000.0 4000.0 4000.0 4000.0 4000.0 4000.0 4000.0 4000.0 4000.0 4000.0 4000.0 4000.0 4000.0 4000.0 4000.0 4000.0 4000.0 4000.0 4000.0 4000.0 4000.0 4000.0 4000.0 4000.0 4000.0 4000.0 4000.0 4000.0 4000.0 4000.0 4000.0 4000.0 4000.0 4000.0 4000.0 4000.0 4000.0 4000.0 4000.0 4000.0 4000.0 4000.0 4000.0 4000.0 4000.0 4000.0 4000.0 4000.0 4000.0 4000.0 4000.0 4000.0 4000.0 4000.0 4000.0 4000.0 4000.0 4000.0 4000.0 4000.0 4000.0 4000.0 4000.0 4000.0 4000.0 4000.0 4000.0 4000.0 4000.0 4000.0 4000.0 4000.0 4000.0 4000.0 4000.0 4000.0 4000.0 4000.0 4000.0 4000.0 4000.0 4000.0 4000.0 4000.0 4000.0 4000.0 4000.0 4000.0 4000.0 4000.0 4000.0 4000.0 4000.0 4000.0 4000.0 4000.0 4000.0 4000.0 4000.0 4000.0 4000.0 4000.0 4000.0 4000.0 4000.0 4000.0 4000.0 4000.0 4000.0 4000.0 4000.0 4000.0 4000.0 4000.0 4000.0 4000.0 4000.0 4000.0 4000.0 4000.0 4000.0 4000.0 4000.0 4000.0 4000.0 4000.0 4000.0 4000.0 4000.0 4000.0 4000.0 4000.0 4000.0 4000.0 4000.0 4000.0 4000.0 4000.0 4000.0 4000.0 4000.0 4000.0 4000.0 4000.0 4000.0 4000.0 4000.0 4000.0 4000.0 4000.0 4000.0 4000.0 4000.0 4000.0 4000.0 4000.0 4000.0 4000.0 4000.0 4000.0 4000.0 4000.0 4000.0 4000.0 4000.0 4000.0 4000.0 4000.0 4000.0 4000.0 4000.0 4000.0 4000.0 4000.0 4000.0 4000.0 4000.0 4000.0 4000.0 4000.0 4000.0 4000.0 4000.0 4000.0 4000.0 4000.0 4000.0 4000.0 4000.0 4000.0 4000.0 4000.0 4000.0 4000.0 4000.0 4000.0 4000.0 4000.0 4000.0 4000.0 4000.0 4000.0 4000.0 4000.0 4000.0 4000.0 4000.0 4000.0 4000.0 4000.0 4000.0 4000.0 4000.0 4000.0 4000.0 4000.0 4000.0 4000.0 4000.0 4000.0 4000.0 4000.0 4000.0 4000.0 4000.0 4000.0 4000.0 4000.0 4000.0 4000.0 4000.0 4000.0 4000.0 4000.0 4000.0 4000.0 4000.0 4000.0 4000.0 4000.0 4000.0 4000.0 4000.0 4000.0 4000.0 4000.0 4000.0 4000.0 4000.0 4000.0 4000.0 4000.0 4000.0 4000.0 4000.0 4000.0 4000.0 4000.0 4000.0 4000.0 4000.0 4000.0 4000.0 4000.0 4000.0 4000.0 4000.0 4000.0 4000.0 4000.0 4000.0 4000.0 4000.0 4000.0 4000.0 4000.0 4000.0 4000.0 4000.0 4000.0 4000.0 4000.0 4000.0 4000.0 4000.0 4000.0 4000.0 4000.0 4000.0 4000.0 4000.0 4000.0 4000.0 4000.0 4000.0 4000.0 4000.0 4000.0 4000.0 4000.0 4000.0 4000.0 4000.0 4000.0 4000.0 4000.0 4000.0 4000.0 4000.0 4000.0 4000.0 4000.0 4000.0 4000.0 4000.0 4000.0 4000.0 4000.0 4000.0 4000.0 4000.0 4000.0 4000.0 4000.0 4000.0 4000.0 4000.0 4000.0 4000.0 4000.0 4000.0 4000.0 4000.0 4000.0 4000.0 4000.0 4000.0 4000.0 4000.0 4000.0 4000.0 4000.0 4000.0 4000.0 4000.0 4000.0 4000.0 4000.0 4000.0 4000.0 4000.0 4000.0 4000.0 4000.0 4000.0 4000.0 4000.0 4000.0 4000.0 4000.0 4000.0 4000.0 4000.0 4000.0 4000.0 4000.0 4000.0 4000.0 4000.0 4000.0 4000.0 4000.0 4000.0 4000.0 4000.0 4000.0 4000.0 4000.0 4000.0 4000.0 4000.0 4000.0 4000.0 4000.0 4000.0 4000.0 4000.0 4000.0 4000.0 4000.0 4000.0 4000.0 4000.0 4000.0 4000.0 4000.0 4000.0 4000.0 4000.0 4000.0 4000.0 4000.0 4000.0 4000.0 4000.0 4000.0 4000.0 4000.0 4000.0 4000.0 4000.0 4000.0 4000.0 4000.0 4000.0 4000.0 4000.0 4000.0 4000.0 4000.0 4000.0 4000.0 4000.0 4000.0 4000.0 4000.0 4000.0 4000.0 4000.0 4000.0 4000.0 4000.0 4000.0 4000.0 4000.0 4000.0 4000.0 4000.0 4000.0 4000.0 4000.0 4000.0 4000.0 4000.0 4000.0 4000.0 4000.0 4000.0 4000.0 4000.0 4000.0 4000.0 4000.0 4000.0 4000.0 4000.0 4000.0 4000.0 4000.0 4000.0 4000.0 4000.0 4000.0 4000.0 4000.0 4000.0 4000.0 4000.0 4000.0 4000.0 4000.0 4000.0 4000.0 4000.0 4000.0 4000.0 4000.0 4000.0 4000.0 4000.0 4000.0 4000.0 4000.0 4000.0 4000.0 4000.0 4000.0 4000.0 4000.0 4000.0 4000.0 4000.0 4000.0 4000.0 4000.0 4000.0 4000.0 4000.0 4000.0 4000.0 4000.0 4000.0 4000.0 4000.0 4000.0 4000.0 4000.0 4000.0 4000.0 4000.0 4000.0 4000.0 4000.0 4000.0 4000.0 4000.0 4000.0 4000.0 4000.0 4000.0 4000.0 4000.0 4000.0 4000.0 4000.0 4000.0 4000.0 4000.0 4000.0 4000.0 4000.0 4000.0 4000.0 4000.0 4000.0 4000.0 4000.0 4000.0 4000.0 4000.0 4000.0 4000.0 4000.0 4000.0 4000.0 4000.0 4000.0 4000.0 4000.0 4000.0 4000.0 4000.0 4000.0 4000.0 4000.0 4000.0 4000.0 4000.0 4000.0 4000.0 4000.0 4000.0 4000.0 4000.0 4000.0 4000.0 4000.0 4000.0 4000.0 4000.0 4000.0 4000.0 4000.0 4000.0 4000.0 4000.0 4000.0 4000.0 4000.0 4000.0 4000.0 4000.0 4000.0 4000.0 4000.0 4000.0 4000.0 4000.0 4000.0 4000.0 4000.0 4000.0 4000.0 4000.0 4000.0 4000.0 4000.0 4000.0 4000.0 4000.0 4000.0 4000.0 4000.0 4000.0 4000.0 4000.0 4000.0 4000.0 4000.0 4000.0 4000.0 4000.0 4000.0 4000.0 4000.0 4000.0 4000.0 4000.0 4000.0 4000.0 4000.0 4000.0 4000.0 4000.0 4000.0 4000.0 4000.0 4000.0 4000.0 4000.0 4000.0 4000.0 4000.0 4000.0 4000.0 4000.0 4000.0 4000.0 4000.0 4000.0 4000.0 4000.0 4000.0 4000.0 4000.0 4000.0 4000.0 4000.0 4000.0 4000.0 4000.0 4000.0 4000.0 4000.0 4000.0 4000.0 4000.0 4000.0 4000.0 4000.0 4000.0 4000.0 4000.0 4000.0 4000.0 4000.0 4000.0 4000.0 4000.0 4000.0 4000.0 4000.0 4000.0 4000.0 4000.0 4000.0 4000.0 4000.0 4000.0 4000.0 4000.0 4000.0 4000.0 4000.0 4000.0 4000.0 4000.0 4000.0 4000.0 4000.0 4000.0 4000.0 4000.0 4000.0 4000.0 4000.0 4000.0 4000.0 4000.0 4000.0 4000.0 4000.0 4000.0 4000.0 4000.0 4000.0 4000.0 4000.0 4000.0 4000.0 4000.0 4000.0 4000.0 4000.0 4000.0 4000.0 4000.0 4000.0 4000.0 4000.0 4000.0 4000.0 4000.0 4000.0 4000.0 4000.0 4000.0 4000.0 4000.0 4000.0 4000.0 4000.0 4000.0 4000.0 4000.0 4000.0 4000.0 4000.0 4000.0 4000.0 4000.0 4000.0 4000.0 4000.0 4000.0 4000.0 4000.0 4000.0 4000.0 4000.0 4000.0 4000.0 4000.0 4000.0 4000.0 4000.0 4000.0 4000.0 4000.0 4000.0 4000.0 4000.0 4000.0 4000.0 4000.0 4000.0 4000.0 4000.0 4000.0 4000.0 4000.0 4000.0 4000.0 4000.0 4000.0 4000.0 4000.0 4000.0 4000.0 4000.0 4000.0 4000.0 4000.0 4000.0 4000.0 4000.0 4000.0 4000.0 4000.0 4000.0 4000.0 4000.0 4000.0 4000.0 4000.0 4000.0 4000.0 4000.0 4000.0 4000.0 4000.0 4000.0 4000.0 4000.0 4000.0 4000.0 4000.0 4000.0 4000.0 4000.0 4000.0 4000.0 4000.0 4000.0 4000.0 4000.0 4000.0 4000.0 4000.0 4000.0 4000.0 4000.0 4000.0 4000.0 4000.0 4000.0 4000.0 4000.0 4000.0 4000.0 4000.0 4000.0 4000.0 4000.0 4000.0 4000.0 4000.0 4000.0 4000.0 4000.0 4000.0 4000.0 4000.0 4000.0 4000.0 4000.0 4000.0 4000.0 4000.0 4000.0 4000.0 4000.0 4000.0 4000.0 4000.0 4000.0 4000.0 4000.0 4000.0 4000.0 4000.0 4000.0 4000.0 4000.0 4000.0 4000.0 4000.0 4000.0 4000.0 4000.0 4000.0 4000.0 4000.0 4000.0 4000.0 4000.0 4000.0 4000.0 4000.0 4000.0 4000.0 4000.0 4000.0 4000.0 4000.0 4000.0 4000.0 4000.0 4000.0 4000.0 4000.0 4000.0 4000.0 4000.0 4000.0 4000.0 4000.0 4000.0 4000.0 4000.0 4000.0 4000.0 4000.0 4000.0 4000.0 4000.0 4000.0 4000.0 4000.0 4000.0 4000.0 4000.0 4000.0 4000.0 4000.0 4000.0 4000.0 4000.0 4000.0 4000.0 4000.0 4000.0 4000.0 4000.0 4000.0 4000.0 4000.0 4000.0 4000.0 4000.0 4000.0 4000.0 4000.0 4000.0 4000.0 4000.0 4000.0 4000.0 4000.0 4000.0 4000.0 4000.0 4000.0 4000.0 4000.0 4000.0 4000.0 4000.0 4000.0 4000.0 4000.0 4000.0 4000.0 4000.0 4000.0 4000.0 4000.0 4000.0 4000.0 4000.0 4000.0 4000.0 4000.0 4000.0 4000.0 4000.0 4000.0 4000.0 4000.0 4000.0 4000.0 4000.0 4000.0 4000.0 4000.0 4000.0 4000.0 4000.0 4000.0 4000.0 4000.0 4000.0 4000.0 4000.0 4000.0 4000.0 4000.0 4000.0 4000.0 4000.0 4000.0 4000.0 4000.0 4000.0 4000.0 4000.0 4000.0 4000.0 4000.0 4000.0 4000.0 4000.0 4000.0 4000.0 4000.0 4000.0 4000.0 4000.0 4000.0 4000.0 4000.0 4000.0 4000.0 4000.0 4000.0 4000.0 4000.0 4000.0 4000.0 4000.0 4000.0 4000.0 4000.0 4000.0 4000.0 4000.0 4000.0 4000.0 4000.0 4000.0 4000.0 4000.0 4000.0 4000.0 4000.0 4000.0 4000.0 4000.0 4000.0 4000.0 4000.0 4000.0 4000.0 4000.0 4000.0 4000.0 4000.0 4000.0 4000.0 4000.0 4000.0 4000.0 4000.0 4000.0 4000.0 4000.0 4000.0 4000.0 4000.0 4000.0 4000.0 4000.0 4000.0 4000.0 4000.0 4000.0 4000.0 4000.0 4000.0 4000.0 4000.0 4000.0 4000.0 4000.0 4000.0 4000.0 4000.0 4000.0 4000.0 4000.0 4000.0 4000.0 4000.0 4000.0 4000.0 4000.0 4000.0 4000.0 4000.0 4000.0 4000.0 4000.0 4000.0 4000.0 4000.0 4000.0 4000.0 4000.0 4000.0 4000.0 4000.0 4000.0 4000.0 4000.0 4000.0 4000.0 4000.0 4000.0 4000.0 4000.0 4000.0 4000.0 4000.0 4000.0 4000.0 4000.0 4000.0 4000.0 4000.0 4000.0 4000.0 4000.0 4000.0 4000.0 4000.0 4000.0 4000.0 4000.0 4000.0 4000.0 4000.0 4000.0 4000.0 4000.0 4000.0 4000.0 4000.0 4000.0 4000.0 4000.0 4000.0 4000.0 4000.0 4000.0 4000.0 4000.0 4000.0 4000.0 4000.0 4000.0 4000.0 4000.0 4000.0 4000.0 4000.0 4000.0 4000.0 4000.0 4000.0 4000.0 4000.0 4000.0 4000.0 4000.0 4000.0 4000.0 4000.0 4000.0 4000.0 4000.0 4000.0 4000.0 4000.0 4000.0 4000.0 4000.0 4000.0 4000.0 4000.0 4000.0 4000.0 4000.0 4000.0 4000.0 4000.0 4000.0 4000.0 4000.0 4000.0 4000.0 4000.0 4000.0 4000.0 4000.0 4000.0 4000.0 4000.0 4000.0 4000.0 4000.0 4000.0 4000.0 4000.0 4000.0 4000.0 4000.0 4000.0 4000.0 4000.0 4000.0 4000.0 4000.0 4000.0 4000.0 4000.0 4000.0 4000.0 4000.0 4000.0 4000.0 4000.0 4000.0 4000.0 4000.0 4000.0 4000.0 4000.0 4000.0 4000.0 4000.0 4000.0 4000.0 4000.0 4000.0 4000.0 4000.0 4000.0 4000.0 4000.0 4000.0 4000.0 4000.0 4000.0 4000.0 4000.0 4000.0 4000.0 4000.0 4000.0 4000.0 4000.0 4000.0 4000.0 4000.0 4000.0 4000.0 4000.0 4000.0 4000.0 4000.0 4000.0 4000.0 4000.0 4000.0 4000.0 4000.0 4000.0 4000.0 4000.0 4000.0 4000.0 4000.0 4000.0 4000.0 4000.0 4000.0 4000.0 4000.0 4000.0 4000.0 4000.0 4000.0 4000.0 4000.0 4000.0 4000.0 4000.0 4000.0 4000.0 4000.0 4000.0 4000.0 4000.0 4000.0 4000.0 4000.0 4000.0 4000.0 4000.0 4000.0 4000.0 4000.0 4000.0 4000.0 4000.0 4000.0 4000.0 4000.0 4000.0 4000.0 4000.0 4000.0 4000.0 4000.0 4000.0 4000.0 4000.0 4000.0 4000.0 4000.0 4000.0 4000.0 4000.0 4000.0 4000.0 4000.0 4000.0 4000.0 4000.0 4000.0 4000.0 4000.0 4000.0 4000.0 4000.0 4000.0 4000.0 4000.0 4000.0 4000.0 4000.0 4000.0 4000.0 4000.0 4000.0 4000.0 4000.0 4000.0 4000.0 4000.0 4000.0 4000.0 4000.0 4000.0 4000.0 4000.0 4000.0 4000.0 4000.0 4000.0 4000.0 4000.0 4000.0 4000.0 4000.0 4000.0 4000.0 4000.0 4000.0 4000.0 4000.0 4000.0 4000.0 4000.0 4000.0 4000.0 4000.0 4000.0 4000.0 4000.0 4000.0 4000.0 4000.0 4000.0 4000.0 4000.0 4000.0 4000.0 4000.0 4000.0 4000.0 4000.0 4000.0 4000.0 4000.0 4000.0 4000.0 4000.0 4000.0 4000.0 4000.0 4000.0 4000.0 4000.0 4000.0 4000.0 4000.0 4000.0 4000.0 4000.0 4000.0 4000.0 4000.0 4000.0 4000.0 4000.0 4000.0 4000.0 4000.0 4000.0 4000.0 4000.0 4000.0 4000.0 4000.0 4000.0 4000.0 4000.0 4000.0 4000.0 4000.0 4000.0 4000.0 4000.0 4000.0 4000.0 4000.0 4000.0 4000.0 4000.0 4000.0 4000.0 4000.0 4000.0 4000.0 4000.0 4000.0 4000.0 4000.0 4000.0 4000.0 4000.0 4000.0 4000.0 4000.0 4000.0 4000.0 4000.0 4000.0 4000.0 4000.0 4000.0 4000.0 4000.0 4000.0 4000.0 4000.0 4000.0 4000.0 4000.0 4000.0 4000.0 4000.0 4000.0 4000.0 4000.0 4000.0 4000.0 4000.0 4000.0 4000.0 4000.0 4000.0 4000.0 4000.0 4000.0 4000.0 4000.0 4000.0 4000.0 4000.0 4000.0 4000.0 4000.0 4000.0 4000.0 4000.0 4000.0 4000.0 4000.0 4000.0 4000.0 4000.0 4000.0 4000.0 4000.0 4000.0 4000.0 4000.0 4000.0 4000.0 4000.0 4000.0 4000.0 4000.0 4000.0 4000.0 4000.0 4000.0 4000.0 4000.0 4000.0 4000.0 4000.0 4000.0 4000.0 4000.0 4000.0 4000.0 4000.0 4000.0 4000.0 4000.0 4000.0 4000.0 4000.0 4000.0 4000.0 4000.0 4000.0 4000.0 4000.0 4000.0 4000.0 4000.0 4000.0 4000.0 4000.0 4000.0 4000.0 4000.0 4000.0 4000.0 4000.0 4000.0 4000.0 4000.0 4000.0 4000.0 4000.0 4000.0 4000.0 4000.0 4000.0 4000.0 4000.0 4000.0 4000.0 4000.0 4000.0 4000.0 4000.0 4000.0 4000.0 4000.0 4000.0 4000.0 4000.0 4000.0 4000.0 4000.0 4000.0 4000.0 4000.0 4000.0 4000.0 4000.0 4000.0 4000.0 4000.0 4000.0 4000.0 4000.0 4000.0 4000.0 4000.0 4000.0 4000.0 4000.0 4000.0 4000.0 4000.0 4000.0 4000.0 4000.0 4000.0 4000.0 4000.0 4000.0 4000.0 4000.0 4000.0 4000.0 4000.0 4000.0 4000.0 4000.0 4000.0 4000.0 4000.0 4000.0 4000.0 4000.0 4000.0 4000.0 4000.0 4000.0 4000.0 4000.0 4000.0 4000.0 4000.0 4000.0 4000.0 4000.0 4000.0 4000.0 4000.0 4000.0 4000.0 4000.0 4000.0 4000.0 4000.0 4000.0 4000.0 4000.0 4000.0 4000.0 4000.0 4000.0 4000.0 4000.0 4000.0 4000.0 4000.0 4000.0 4000.0 4000.0 4000.0 4000.0 4000.0 4000.0 4000.0 4000.0 4000.0 4000.0 4000.0 4000.0 4000.0 4000.0 4000.0 4000.0 4000.0 4000.0 4000.0 4000.0 4000.0 4000.0 4000.0 4000.0 4000.0 4000.0 4000.0 4000.0 4000.0 4000.0 4000.0 4000.0 4000.0 4000.0 4000.0 4000.0 4000.0 4000.0 4000.0 4000.0 4000.0 4000.0 4000.0 4000.0 4000.0 4000.0 4000.0 4000.0 4000.0 4000.0 4000.0 4000.0 4000.0 4000.0 4000.0 4000.0 4000.0 4000.0 4000.0 4000.0 4000.0 4000.0 4000.0 4000.0 4000.0 4000.0 4000.0 4000.0 4000.0 4000.0 4000.0 4000.0 4000.0 4000.0 4000.0 4000.0 4000.0 4000.0 4000.0 4000.0 4000.0 4000.0 4000.0 4000.0 4000.0 4000.0 4000.0 4000.0 4000.0 4000.0 4000.0 4000.0 4000.0 4000.0 4000.0 4000.0 4000.0 4000.0 4000.0 4000.0 4000.0 4000.0 4000.0 4000.0 4000.0 4000.0 4000.0 4000.0 4000.0 4000.0 4000.0 4000.0 4000.0 4000.0 4000.0 4000.0 4000.0 4000.0 4000.0 4000.0 4000.0 4000.0 4000.0 4000.0 4000.0 4000.0 4000.0 4000.0 4000.0 4000.0 4000.0 4000.0 4000.0 4000.0 4000.0 4000.0 4000.0 4000.0 4000.0 4000.0 4000.0 4000.0 4000.0 4000.0 4000.0 4000.0 4000.0 4000.0 4000.0 4000.0 4000.0 4000.0 4000.0 4000.0 4000.0 4000.0 4000.0 4000.0 4000.0 4000.0 4000.0 4000.0 4000.0 4000.0 4000.0 4000.0 4000.0 4000.0 4000.0 4000.0 4000.0 4000.0 4000.0 4000.0 4000.0 4000.0 4000.0 4000.0 4000.0 4000.0 4000.0 4000.0 4000.0 4000.0 4000.0 4000.0 4000.0 4000.0 4000.0 4000.0 4000.0 4000.0 4000.0 4000.0 4000.0 4000.0 4000.0 4000.0 4000.0 4000.0 4000.0 4000.0 4000.0 4000.0 4000.0 4000.0 4000.0 4000.0 4000.0 4000.0 4000.0 4000.0 4000.0 4000.0 4000.0 4000.0 4000.0 4000.0 4000.0 4000.0 4000.0 4000.0 4000.0 4000.0 4000.0 4000.0 4000.0 4000.0 4000.0 4000.0 4000.0 4000.0 4000.0 4000.0 4000.0 4000.0 4000.0 4000.0 4000.0 4000.0 4000.0 4000.0 4000.0 4000.0 4000.0 4000.0 4000.0 4000.0 4000.0 4000.0 4000.0 4000.0 4000.0 4000.0 4000.0 4000.0 4000.0 4000.0 4000.0 4000.0 4000.0 4000.0 4000.0 4000.0 4000.0 4000.0 4000.0 4000.0 4000.0 4000.0 4000.0 4000.0 4000.0 4000.0 4000.0 4000.0 4000.0 4000.0 4000.0 4000.0 4000.0 4000.0 4000.0 4000.0 4000.0 4000.0 4000.0 4000.0 4000.0 4000.0 4000.0 4000.0 4000.0 4000.0 4000.0 4000.0 4000.0 4000.0 4000.0 4000.0 4000.0 4000.0 4000.0 4000.0 4000.0 4000.0 4000.0 4000.0 4000.0 4000.0 4000.0 4000.0 4000.0 4000.0 4000.0 4000.0 4000.0 4000.0 4000.0 4000.0 4000.0 4000.0 4000.0 4000.0 4000.0 4000.0 4000.0 4000.0 4000.0 4000.0 4000.0 4000.0 4000.0 4000.0 4000.0 4000.0 4000.0 4000.0 4000.0 4000.0 4000.0 4000.0 4000.0 4000.0 4000.0 4000.0 4000.0 4000.0 4000.0 4000.0 4000.0 4000.0 4000.0 4000.0 4000.0 4000.0 4000.0 4000.0 4000.0 4000.0 4000.0 4000.0 4000.0 4000.0 4000.0 4000.0 4000.0 4000.0 4000.0 4000.0 4000.0 4000.0 4000.0 4000.0 4000.0 4000.0 4000.0 4000.0 4000.0 4000.0 4000.0 4000.0 4000.0 4000.0 4000.0 4000.0 4000.0 4000.0 4000.0 4000.0 4000.0 4000.0 4000.0 4000.0 4000.0 4000.0 4000.0 4000.0 4000.0 4000.0 4000.0 4000.0 4000.0 4000.0 4000.0 4000.0 4000.0 4000.0 4000.0 4000.0 4000.0 4000.0 4000.0 4000.0 4000.0 4000.0 4000.0 4000.0 4000.0 4000.0 4000.0 4000.0 4000.0 4000.0 4000.0 4000.0 4000.0 4000.0 4000.0 4000.0 4000.0 4000.0 4000.0 4000.0 4000.0 4000.0 4000.0 4000.0 4000.0 4000.0 4000.0 4000.0 4000.0 4000.0 4000.0 4000.0 4000.0 4000.0 4000.0 4000.0 4000.0 4000.0 4000.0 4000.0 4000.0 4000.0 4000.0 4000.0 4000.0 4000.0 4000.0 4000.0 4000.0 4000.0 4000.0 4000.0 4000.0 4000.0 4000.0 4000.0 4000.0 4000.0 4000.0 4000.0 4000.0 4000.0 4000.0 4000.0 4000.0 4000.0 4000.0 4000.0 4000.0 4000.0 4000.0 4000.0 4000.0 4000.0 4000.0 4000.0 4000.0 4000.0 4000.0 4000.0 4000.0 4000.0 4000.0 4000.0 4000.0 4000.0 4000.0 4000.0 4000.0 4000.0 4000.0 4000.0 4000.0 4000.0 4000.0 4000.0 4000.0 4000.0 4000.0 4000.0 4000.0 4000.0 4000.0 4000.0 4000.0 4000.0 4000.0 4000.0 4000.0 4000.0 4000.0 4000.0 4000.0 4000.0 4000.0 4000.0 4000.0 4000.0 4000.0 4000.0 4000.0 4000.0 4000.0 4000.0 4000.0 4000.0 SCALARS Mass float 1
LOOKUP_TABLE default
11309700000.0 11309700000.0 11309700000.0 11309700000.0 11309700000.0 11309700000.0 11309700000.0 11309700000.0 11309700000.0 11309700000.0 11309700000.0 11309700000.0 11309700000.0 11309700000.0 11309700000.0 11309700000.0 11309700000.0 11309700000.0 11309700000.0 11309700000.0 11309700000.0 11309700000.0 11309700000.0 11309700000.0 11309700000.0 11309700000.0 11309700000.0 11309700000.0 11309700000.0 11309700000.0 11309700000.0 11309700000.0 11309700000.0 11309700000.0 11309700000.0 11309700000.0 11309700000.0 11309700000.0 11309700000.0 11309700000.0 11309700000.0 11309700000.0 11309700000.0 11309700000.0 11309700000.0 11309700000.0 11309700000.0 11309700000.0 11309700000.0 11309700000.0 11309700000.0 11309700000.0 11309700000.0 11309700000.0 11309700000.0 11309700000.0 11309700000.0 11309700000.0 11309700000.0 11309700000.0 11309700000.0 11309700000.0 11309700000.0 11309700000.0 11309700000.0 11309700000.0 11309700000.0 11309700000.0 11309700000.0 11309700000.0 11309700000.0 11309700000.0 11309700000.0 11309700000.0 11309700000.0 11309700000.0 11309700000.0 11309700000.0 11309700000.0 11309700000.0 11309700000.0 11309700000.0 11309700000.0 11309700000.0 11309700000.0 11309700000.0 11309700000.0 11309700000.0 11309700000.0 11309700000.0 11309700000.0 11309700000.0 11309700000.0 11309700000.0 11309700000.0 11309700000.0 11309700000.0 11309700000.0 11309700000.0 11309700000.0 11309700000.0 11309700000.0 11309700000.0 11309700000.0 11309700000.0 11309700000.0 11309700000.0 11309700000.0 11309700000.0 11309700000.0 11309700000.0 11309700000.0 11309700000.0 11309700000.0 11309700000.0 11309700000.0 11309700000.0 11309700000.0 11309700000.0 11309700000.0 11309700000.0 11309700000.0 11309700000.0 11309700000.0 11309700000.0 11309700000.0 11309700000.0 11309700000.0 11309700000.0 11309700000.0 11309700000.0 11309700000.0 11309700000.0 11309700000.0 11309700000.0 11309700000.0 11309700000.0 11309700000.0 11309700000.0 11309700000.0 11309700000.0 11309700000.0 11309700000.0 11309700000.0 11309700000.0 11309700000.0 11309700000.0 11309700000.0 11309700000.0 11309700000.0 11309700000.0 11309700000.0 11309700000.0 11309700000.0 11309700000.0 11309700000.0 11309700000.0 11309700000.0 11309700000.0 11309700000.0 11309700000.0 11309700000.0 11309700000.0 11309700000.0 11309700000.0 11309700000.0 11309700000.0 11309700000.0 11309700000.0 11309700000.0 11309700000.0 11309700000.0 11309700000.0 11309700000.0 11309700000.0 11309700000.0 11309700000.0 11309700000.0 11309700000.0 11309700000.0 11309700000.0 11309700000.0 11309700000.0 11309700000.0 11309700000.0 11309700000.0 11309700000.0 11309700000.0 11309700000.0 11309700000.0 11309700000.0 11309700000.0 11309700000.0 11309700000.0 11309700000.0 11309700000.0 11309700000.0 11309700000.0 11309700000.0 11309700000.0 11309700000.0 11309700000.0 11309700000.0 11309700000.0 11309700000.0 11309700000.0 11309700000.0 11309700000.0 11309700000.0 11309700000.0 11309700000.0 11309700000.0 11309700000.0 11309700000.0 11309700000.0 11309700000.0 11309700000.0 11309700000.0 11309700000.0 11309700000.0 11309700000.0 11309700000.0 11309700000.0 11309700000.0 11309700000.0 11309700000.0 11309700000.0 11309700000.0 11309700000.0 11309700000.0 11309700000.0 11309700000.0 11309700000.0 11309700000.0 11309700000.0 11309700000.0 11309700000.0 11309700000.0 11309700000.0 11309700000.0 11309700000.0 11309700000.0 11309700000.0 11309700000.0 11309700000.0 11309700000.0 11309700000.0 11309700000.0 11309700000.0 11309700000.0 11309700000.0 11309700000.0 11309700000.0 11309700000.0 11309700000.0 11309700000.0 11309700000.0 11309700000.0 11309700000.0 11309700000.0 11309700000.0 11309700000.0 11309700000.0 11309700000.0 11309700000.0 11309700000.0 11309700000.0 11309700000.0 11309700000.0 11309700000.0 11309700000.0 11309700000.0 11309700000.0 11309700000.0 11309700000.0 11309700000.0 11309700000.0 11309700000.0 11309700000.0 11309700000.0 11309700000.0 11309700000.0 11309700000.0 11309700000.0 11309700000.0 11309700000.0 11309700000.0 11309700000.0 11309700000.0 11309700000.0 11309700000.0 11309700000.0 11309700000.0 11309700000.0 11309700000.0 11309700000.0 11309700000.0 11309700000.0 11309700000.0 11309700000.0 11309700000.0 11309700000.0 11309700000.0 11309700000.0 11309700000.0 11309700000.0 11309700000.0 11309700000.0 11309700000.0 11309700000.0 11309700000.0 11309700000.0 11309700000.0 11309700000.0 11309700000.0 11309700000.0 11309700000.0 11309700000.0 11309700000.0 11309700000.0 11309700000.0 11309700000.0 11309700000.0 11309700000.0 11309700000.0 11309700000.0 11309700000.0 11309700000.0 11309700000.0 11309700000.0 11309700000.0 11309700000.0 11309700000.0 11309700000.0 11309700000.0 11309700000.0 11309700000.0 11309700000.0 11309700000.0 11309700000.0 11309700000.0 11309700000.0 11309700000.0 11309700000.0 11309700000.0 11309700000.0 11309700000.0 11309700000.0 11309700000.0 11309700000.0 11309700000.0 11309700000.0 11309700000.0 11309700000.0 11309700000.0 11309700000.0 11309700000.0 11309700000.0 11309700000.0 11309700000.0 11309700000.0 11309700000.0 11309700000.0 11309700000.0 11309700000.0 11309700000.0 11309700000.0 11309700000.0 11309700000.0 11309700000.0 11309700000.0 11309700000.0 11309700000.0 11309700000.0 11309700000.0 11309700000.0 11309700000.0 11309700000.0 11309700000.0 11309700000.0 11309700000.0 11309700000.0 11309700000.0 11309700000.0 11309700000.0 11309700000.0 11309700000.0 11309700000.0 11309700000.0 11309700000.0 11309700000.0 11309700000.0 11309700000.0 11309700000.0 11309700000.0 11309700000.0 11309700000.0 11309700000.0 11309700000.0 11309700000.0 11309700000.0 11309700000.0 11309700000.0 11309700000.0 11309700000.0 11309700000.0 11309700000.0 11309700000.0 11309700000.0 11309700000.0 11309700000.0 11309700000.0 11309700000.0 11309700000.0 11309700000.0 11309700000.0 11309700000.0 11309700000.0 11309700000.0 11309700000.0 11309700000.0 11309700000.0 11309700000.0 11309700000.0 11309700000.0 11309700000.0 11309700000.0 11309700000.0 11309700000.0 11309700000.0 11309700000.0 11309700000.0 11309700000.0 11309700000.0 11309700000.0 11309700000.0 11309700000.0 11309700000.0 11309700000.0 11309700000.0 11309700000.0 11309700000.0 11309700000.0 11309700000.0 11309700000.0 11309700000.0 11309700000.0 11309700000.0 11309700000.0 11309700000.0 11309700000.0 11309700000.0 11309700000.0 11309700000.0 11309700000.0 11309700000.0 11309700000.0 11309700000.0 11309700000.0 11309700000.0 11309700000.0 11309700000.0 11309700000.0 11309700000.0 11309700000.0 11309700000.0 11309700000.0 11309700000.0 11309700000.0 11309700000.0 11309700000.0 11309700000.0 11309700000.0 11309700000.0 11309700000.0 11309700000.0 11309700000.0 11309700000.0 11309700000.0 11309700000.0 11309700000.0 11309700000.0 11309700000.0 11309700000.0 11309700000.0 11309700000.0 11309700000.0 11309700000.0 11309700000.0 11309700000.0 11309700000.0 11309700000.0 11309700000.0 11309700000.0 11309700000.0 11309700000.0 11309700000.0 11309700000.0 11309700000.0 11309700000.0 11309700000.0 11309700000.0 11309700000.0 11309700000.0 11309700000.0 11309700000.0 11309700000.0 11309700000.0 11309700000.0 11309700000.0 11309700000.0 11309700000.0 11309700000.0 11309700000.0 11309700000.0 11309700000.0 11309700000.0 11309700000.0 11309700000.0 11309700000.0 11309700000.0 11309700000.0 11309700000.0 11309700000.0 11309700000.0 11309700000.0 11309700000.0 11309700000.0 11309700000.0 11309700000.0 11309700000.0 11309700000.0 11309700000.0 11309700000.0 11309700000.0 11309700000.0 11309700000.0 11309700000.0 11309700000.0 11309700000.0 11309700000.0 11309700000.0 11309700000.0 11309700000.0 11309700000.0 11309700000.0 11309700000.0 11309700000.0 11309700000.0 11309700000.0 11309700000.0 11309700000.0 11309700000.0 11309700000.0 11309700000.0 11309700000.0 11309700000.0 11309700000.0 11309700000.0 11309700000.0 11309700000.0 11309700000.0 11309700000.0 11309700000.0 11309700000.0 11309700000.0 11309700000.0 11309700000.0 11309700000.0 11309700000.0 11309700000.0 11309700000.0 11309700000.0 11309700000.0 11309700000.0 11309700000.0 11309700000.0 11309700000.0 11309700000.0 11309700000.0 11309700000.0 11309700000.0 11309700000.0 11309700000.0 11309700000.0 11309700000.0 11309700000.0 11309700000.0 11309700000.0 11309700000.0 11309700000.0 11309700000.0 11309700000.0 11309700000.0 11309700000.0 11309700000.0 11309700000.0 11309700000.0 11309700000.0 11309700000.0 11309700000.0 11309700000.0 11309700000.0 11309700000.0 11309700000.0 11309700000.0 11309700000.0 11309700000.0 11309700000.0 11309700000.0 11309700000.0 11309700000.0 11309700000.0 11309700000.0 11309700000.0 11309700000.0 11309700000.0 11309700000.0 11309700000.0 11309700000.0 11309700000.0 11309700000.0 11309700000.0 11309700000.0 11309700000.0 11309700000.0 11309700000.0 11309700000.0 11309700000.0 11309700000.0 11309700000.0 11309700000.0 11309700000.0 11309700000.0 11309700000.0 11309700000.0 11309700000.0 11309700000.0 11309700000.0 11309700000.0 11309700000.0 11309700000.0 11309700000.0 11309700000.0 11309700000.0 11309700000.0 11309700000.0 11309700000.0 11309700000.0 11309700000.0 11309700000.0 11309700000.0 11309700000.0 11309700000.0 11309700000.0 11309700000.0 11309700000.0 11309700000.0 11309700000.0 11309700000.0 11309700000.0 11309700000.0 11309700000.0 11309700000.0 11309700000.0 11309700000.0 11309700000.0 11309700000.0 11309700000.0 11309700000.0 11309700000.0 11309700000.0 11309700000.0 11309700000.0 11309700000.0 11309700000.0 11309700000.0 11309700000.0 11309700000.0 11309700000.0 11309700000.0 11309700000.0 11309700000.0 11309700000.0 11309700000.0 11309700000.0 11309700000.0 11309700000.0 11309700000.0 11309700000.0 11309700000.0 11309700000.0 11309700000.0 11309700000.0 11309700000.0 11309700000.0 11309700000.0 11309700000.0 11309700000.0 11309700000.0 11309700000.0 11309700000.0 11309700000.0 11309700000.0 11309700000.0 11309700000.0 11309700000.0 11309700000.0 11309700000.0 11309700000.0 11309700000.0 11309700000.0 11309700000.0 11309700000.0 11309700000.0 11309700000.0 11309700000.0 11309700000.0 11309700000.0 11309700000.0 11309700000.0 11309700000.0 11309700000.0 11309700000.0 11309700000.0 11309700000.0 11309700000.0 11309700000.0 11309700000.0 11309700000.0 11309700000.0 11309700000.0 11309700000.0 11309700000.0 11309700000.0 11309700000.0 11309700000.0 11309700000.0 11309700000.0 11309700000.0 11309700000.0 11309700000.0 11309700000.0 11309700000.0 11309700000.0 11309700000.0 11309700000.0 11309700000.0 11309700000.0 11309700000.0 11309700000.0 11309700000.0 11309700000.0 11309700000.0 11309700000.0 11309700000.0 11309700000.0 11309700000.0 11309700000.0 11309700000.0 11309700000.0 11309700000.0 11309700000.0 11309700000.0 11309700000.0 11309700000.0 11309700000.0 11309700000.0 11309700000.0 11309700000.0 11309700000.0 11309700000.0 11309700000.0 11309700000.0 11309700000.0 11309700000.0 11309700000.0 11309700000.0 11309700000.0 11309700000.0 11309700000.0 11309700000.0 11309700000.0 11309700000.0 11309700000.0 11309700000.0 11309700000.0 11309700000.0 11309700000.0 11309700000.0 11309700000.0 11309700000.0 11309700000.0 11309700000.0 11309700000.0 11309700000.0 11309700000.0 11309700000.0 11309700000.0 11309700000.0 11309700000.0 11309700000.0 11309700000.0 11309700000.0 11309700000.0 11309700000.0 11309700000.0 11309700000.0 11309700000.0 11309700000.0 11309700000.0 11309700000.0 11309700000.0 11309700000.0 11309700000.0 11309700000.0 11309700000.0 11309700000.0 11309700000.0 11309700000.0 11309700000.0 11309700000.0 11309700000.0 11309700000.0 11309700000.0 11309700000.0 11309700000.0 11309700000.0 11309700000.0 11309700000.0 11309700000.0 11309700000.0 11309700000.0 11309700000.0 11309700000.0 11309700000.0 11309700000.0 11309700000.0 11309700000.0 11309700000.0 11309700000.0 11309700000.0 11309700000.0 11309700000.0 11309700000.0 11309700000.0 11309700000.0 11309700000.0 11309700000.0 11309700000.0 11309700000.0 11309700000.0 11309700000.0 11309700000.0 11309700000.0 11309700000.0 11309700000.0 11309700000.0 11309700000.0 11309700000.0 11309700000.0 11309700000.0 11309700000.0 11309700000.0 11309700000.0 11309700000.0 11309700000.0 11309700000.0 11309700000.0 11309700000.0 11309700000.0 11309700000.0 11309700000.0 11309700000.0 11309700000.0 11309700000.0 11309700000.0 11309700000.0 11309700000.0 11309700000.0 11309700000.0 11309700000.0 11309700000.0 11309700000.0 11309700000.0 11309700000.0 11309700000.0 11309700000.0 11309700000.0 11309700000.0 11309700000.0 11309700000.0 11309700000.0 11309700000.0 11309700000.0 11309700000.0 11309700000.0 11309700000.0 11309700000.0 11309700000.0 11309700000.0 11309700000.0 11309700000.0 11309700000.0 11309700000.0 11309700000.0 11309700000.0 11309700000.0 11309700000.0 11309700000.0 11309700000.0 11309700000.0 11309700000.0 11309700000.0 11309700000.0 11309700000.0 11309700000.0 11309700000.0 11309700000.0 11309700000.0 11309700000.0 11309700000.0 11309700000.0 11309700000.0 11309700000.0 11309700000.0 11309700000.0 11309700000.0 11309700000.0 11309700000.0 11309700000.0 11309700000.0 11309700000.0 11309700000.0 11309700000.0 11309700000.0 11309700000.0 11309700000.0 11309700000.0 11309700000.0 11309700000.0 11309700000.0 11309700000.0 11309700000.0 11309700000.0 11309700000.0 11309700000.0 11309700000.0 11309700000.0 11309700000.0 11309700000.0 11309700000.0 11309700000.0 11309700000.0 11309700000.0 11309700000.0 11309700000.0 11309700000.0 11309700000.0 11309700000.0 11309700000.0 11309700000.0 11309700000.0 11309700000.0 11309700000.0 11309700000.0 11309700000.0 11309700000.0 11309700000.0 11309700000.0 11309700000.0 11309700000.0 11309700000.0 11309700000.0 11309700000.0 11309700000.0 11309700000.0 11309700000.0 11309700000.0 11309700000.0 11309700000.0 11309700000.0 11309700000.0 11309700000.0 11309700000.0 11309700000.0 11309700000.0 11309700000.0 11309700000.0 11309700000.0 11309700000.0 11309700000.0 11309700000.0 11309700000.0 11309700000.0 11309700000.0 11309700000.0 11309700000.0 11309700000.0 11309700000.0 11309700000.0 11309700000.0 11309700000.0 11309700000.0 11309700000.0 11309700000.0 11309700000.0 11309700000.0 11309700000.0 11309700000.0 11309700000.0 11309700000.0 11309700000.0 11309700000.0 11309700000.0 11309700000.0 11309700000.0 11309700000.0 11309700000.0 11309700000.0 11309700000.0 11309700000.0 11309700000.0 11309700000.0 11309700000.0 11309700000.0 11309700000.0 11309700000.0 11309700000.0 11309700000.0 11309700000.0 11309700000.0 11309700000.0 11309700000.0 11309700000.0 11309700000.0 11309700000.0 11309700000.0 11309700000.0 11309700000.0 11309700000.0 11309700000.0 11309700000.0 11309700000.0 11309700000.0 11309700000.0 11309700000.0 11309700000.0 11309700000.0 11309700000.0 11309700000.0 11309700000.0 11309700000.0 11309700000.0 11309700000.0 11309700000.0 11309700000.0 11309700000.0 11309700000.0 11309700000.0 11309700000.0 11309700000.0 11309700000.0 11309700000.0 11309700000.0 11309700000.0 11309700000.0 11309700000.0 11309700000.0 11309700000.0 11309700000.0 11309700000.0 11309700000.0 11309700000.0 11309700000.0 11309700000.0 11309700000.0 11309700000.0 11309700000.0 11309700000.0 11309700000.0 11309700000.0 11309700000.0 11309700000.0 11309700000.0 11309700000.0 11309700000.0 11309700000.0 11309700000.0 11309700000.0 11309700000.0 11309700000.0 11309700000.0 11309700000.0 11309700000.0 11309700000.0 11309700000.0 11309700000.0 11309700000.0 11309700000.0 11309700000.0 11309700000.0 11309700000.0 11309700000.0 11309700000.0 11309700000.0 11309700000.0 11309700000.0 11309700000.0 11309700000.0 11309700000.0 11309700000.0 11309700000.0 11309700000.0 11309700000.0 11309700000.0 11309700000.0 11309700000.0 11309700000.0 11309700000.0 11309700000.0 11309700000.0 11309700000.0 11309700000.0 11309700000.0 11309700000.0 11309700000.0 11309700000.0 11309700000.0 11309700000.0 11309700000.0 11309700000.0 11309700000.0 11309700000.0 11309700000.0 11309700000.0 11309700000.0 11309700000.0 11309700000.0 11309700000.0 11309700000.0 11309700000.0 11309700000.0 11309700000.0 11309700000.0 11309700000.0 11309700000.0 11309700000.0 11309700000.0 11309700000.0 11309700000.0 11309700000.0 11309700000.0 11309700000.0 11309700000.0 11309700000.0 11309700000.0 11309700000.0 11309700000.0 11309700000.0 11309700000.0 11309700000.0 11309700000.0 11309700000.0 11309700000.0 11309700000.0 11309700000.0 11309700000.0 11309700000.0 11309700000.0 11309700000.0 11309700000.0 11309700000.0 11309700000.0 11309700000.0 11309700000.0 11309700000.0 11309700000.0 11309700000.0 11309700000.0 11309700000.0 11309700000.0 11309700000.0 11309700000.0 11309700000.0 11309700000.0 11309700000.0 11309700000.0 11309700000.0 11309700000.0 11309700000.0 11309700000.0 11309700000.0 11309700000.0 11309700000.0 11309700000.0 11309700000.0 11309700000.0 11309700000.0 11309700000.0 11309700000.0 11309700000.0 11309700000.0 11309700000.0 11309700000.0 11309700000.0 11309700000.0 11309700000.0 11309700000.0 11309700000.0 11309700000.0 11309700000.0 11309700000.0 11309700000.0 11309700000.0 11309700000.0 11309700000.0 11309700000.0 11309700000.0 11309700000.0 11309700000.0 11309700000.0 11309700000.0 11309700000.0 11309700000.0 11309700000.0 11309700000.0 11309700000.0 11309700000.0 11309700000.0 11309700000.0 11309700000.0 11309700000.0 11309700000.0 11309700000.0 11309700000.0 11309700000.0 11309700000.0 11309700000.0 11309700000.0 11309700000.0 11309700000.0 11309700000.0 11309700000.0 11309700000.0 11309700000.0 11309700000.0 11309700000.0 11309700000.0 11309700000.0 11309700000.0 11309700000.0 11309700000.0 11309700000.0 11309700000.0 11309700000.0 11309700000.0 11309700000.0 11309700000.0 11309700000.0 11309700000.0 11309700000.0 11309700000.0 11309700000.0 11309700000.0 11309700000.0 11309700000.0 11309700000.0 11309700000.0 11309700000.0 11309700000.0 11309700000.0 11309700000.0 11309700000.0 11309700000.0 11309700000.0 11309700000.0 11309700000.0 11309700000.0 11309700000.0 11309700000.0 11309700000.0 11309700000.0 11309700000.0 11309700000.0 11309700000.0 11309700000.0 11309700000.0 11309700000.0 11309700000.0 11309700000.0 11309700000.0 11309700000.0 11309700000.0 11309700000.0 11309700000.0 11309700000.0 11309700000.0 11309700000.0 11309700000.0 11309700000.0 11309700000.0 11309700000.0 11309700000.0 11309700000.0 11309700000.0 11309700000.0 11309700000.0 11309700000.0 11309700000.0 11309700000.0 11309700000.0 11309700000.0 11309700000.0 11309700000.0 11309700000.0 11309700000.0 11309700000.0 11309700000.0 11309700000.0 11309700000.0 11309700000.0 11309700000.0 11309700000.0 11309700000.0 11309700000.0 11309700000.0 11309700000.0 11309700000.0 11309700000.0 11309700000.0 11309700000.0 11309700000.0 11309700000.0 11309700000.0 11309700000.0 11309700000.0 11309700000.0 11309700000.0 11309700000.0 11309700000.0 11309700000.0 11309700000.0 11309700000.0 11309700000.0 11309700000.0 11309700000.0 11309700000.0 11309700000.0 11309700000.0 11309700000.0 11309700000.0 11309700000.0 11309700000.0 11309700000.0 11309700000.0 11309700000.0 11309700000.0 11309700000.0 11309700000.0 11309700000.0 11309700000.0 11309700000.0 11309700000.0 11309700000.0 11309700000.0 11309700000.0 11309700000.0 11309700000.0 11309700000.0 11309700000.0 11309700000.0 11309700000.0 11309700000.0 11309700000.0 11309700000.0 11309700000.0 11309700000.0 11309700000.0 11309700000.0 11309700000.0 11309700000.0 11309700000.0 11309700000.0 11309700000.0 11309700000.0 11309700000.0 11309700000.0 11309700000.0 11309700000.0 11309700000.0 11309700000.0 11309700000.0 11309700000.0 11309700000.0 11309700000.0 11309700000.0 11309700000.0 11309700000.0 11309700000.0 11309700000.0 11309700000.0 11309700000.0 11309700000.0 11309700000.0 11309700000.0 11309700000.0 11309700000.0 11309700000.0 11309700000.0 11309700000.0 11309700000.0 11309700000.0 11309700000.0 11309700000.0 11309700000.0 11309700000.0 11309700000.0 11309700000.0 11309700000.0 11309700000.0 11309700000.0 11309700000.0 11309700000.0 11309700000.0 11309700000.0 11309700000.0 11309700000.0 11309700000.0 11309700000.0 11309700000.0 11309700000.0 11309700000.0 11309700000.0 11309700000.0 11309700000.0 11309700000.0 11309700000.0 11309700000.0 11309700000.0 11309700000.0 11309700000.0 11309700000.0 11309700000.0 11309700000.0 11309700000.0 11309700000.0 11309700000.0 11309700000.0 11309700000.0 11309700000.0 11309700000.0 11309700000.0 11309700000.0 11309700000.0 11309700000.0 11309700000.0 11309700000.0 11309700000.0 11309700000.0 11309700000.0 11309700000.0 11309700000.0 11309700000.0 11309700000.0 11309700000.0 11309700000.0 11309700000.0 11309700000.0 11309700000.0 11309700000.0 11309700000.0 11309700000.0 11309700000.0 11309700000.0 11309700000.0 11309700000.0 11309700000.0 11309700000.0 11309700000.0 11309700000.0 11309700000.0 11309700000.0 11309700000.0 11309700000.0 11309700000.0 11309700000.0 11309700000.0 11309700000.0 11309700000.0 11309700000.0 11309700000.0 11309700000.0 11309700000.0 11309700000.0 11309700000.0 11309700000.0 11309700000.0 11309700000.0 11309700000.0 11309700000.0 11309700000.0 11309700000.0 11309700000.0 11309700000.0 11309700000.0 11309700000.0 11309700000.0 11309700000.0 11309700000.0 11309700000.0 11309700000.0 11309700000.0 11309700000.0 11309700000.0 11309700000.0 11309700000.0 11309700000.0 11309700000.0 11309700000.0 11309700000.0 11309700000.0 11309700000.0 11309700000.0 11309700000.0 11309700000.0 11309700000.0 11309700000.0 11309700000.0 11309700000.0 11309700000.0 11309700000.0 11309700000.0 11309700000.0 11309700000.0 11309700000.0 11309700000.0 11309700000.0 11309700000.0 11309700000.0 11309700000.0 11309700000.0 11309700000.0 11309700000.0 11309700000.0 11309700000.0 11309700000.0 11309700000.0 11309700000.0 11309700000.0 11309700000.0 11309700000.0 11309700000.0 11309700000.0 11309700000.0 11309700000.0 11309700000.0 11309700000.0 11309700000.0 11309700000.0 11309700000.0 11309700000.0 11309700000.0 11309700000.0 11309700000.0 11309700000.0 11309700000.0 11309700000.0 11309700000.0 11309700000.0 11309700000.0 11309700000.0 11309700000.0 11309700000.0 11309700000.0 11309700000.0 11309700000.0 11309700000.0 11309700000.0 11309700000.0 11309700000.0 11309700000.0 11309700000.0 11309700000.0 11309700000.0 11309700000.0 11309700000.0 11309700000.0 11309700000.0 11309700000.0 11309700000.0 11309700000.0 11309700000.0 11309700000.0 11309700000.0 11309700000.0 11309700000.0 11309700000.0 11309700000.0 11309700000.0 11309700000.0 11309700000.0 11309700000.0 11309700000.0 11309700000.0 11309700000.0 11309700000.0 11309700000.0 11309700000.0 11309700000.0 11309700000.0 11309700000.0 11309700000.0 11309700000.0 11309700000.0 11309700000.0 11309700000.0 11309700000.0 11309700000.0 11309700000.0 11309700000.0 11309700000.0 11309700000.0 11309700000.0 11309700000.0 11309700000.0 11309700000.0 11309700000.0 11309700000.0 11309700000.0 11309700000.0 11309700000.0 11309700000.0 11309700000.0 11309700000.0 11309700000.0 11309700000.0 11309700000.0 11309700000.0 11309700000.0 11309700000.0 11309700000.0 11309700000.0 11309700000.0 11309700000.0 11309700000.0 11309700000.0 11309700000.0 11309700000.0 11309700000.0 11309700000.0 11309700000.0 11309700000.0 11309700000.0 11309700000.0 11309700000.0 11309700000.0 11309700000.0 11309700000.0 11309700000.0 11309700000.0 11309700000.0 11309700000.0 11309700000.0 11309700000.0 11309700000.0 11309700000.0 11309700000.0 11309700000.0 11309700000.0 11309700000.0 11309700000.0 11309700000.0 11309700000.0 11309700000.0 11309700000.0 11309700000.0 11309700000.0 11309700000.0 11309700000.0 11309700000.0 11309700000.0 11309700000.0 11309700000.0 11309700000.0 11309700000.0 11309700000.0 11309700000.0 11309700000.0 11309700000.0 11309700000.0 11309700000.0 11309700000.0 11309700000.0 11309700000.0 11309700000.0 11309700000.0 11309700000.0 11309700000.0 11309700000.0 11309700000.0 11309700000.0 11309700000.0 11309700000.0 11309700000.0 11309700000.0 11309700000.0 11309700000.0 11309700000.0 11309700000.0 11309700000.0 11309700000.0 11309700000.0 11309700000.0 11309700000.0 11309700000.0 11309700000.0 11309700000.0 11309700000.0 11309700000.0 11309700000.0 11309700000.0 11309700000.0 11309700000.0 11309700000.0 11309700000.0 11309700000.0 11309700000.0 11309700000.0 11309700000.0 11309700000.0 11309700000.0 11309700000.0 11309700000.0 11309700000.0 11309700000.0 11309700000.0 11309700000.0 11309700000.0 11309700000.0 11309700000.0 11309700000.0 11309700000.0 11309700000.0 11309700000.0 11309700000.0 11309700000.0 11309700000.0 11309700000.0 11309700000.0 11309700000.0 11309700000.0 11309700000.0 11309700000.0 11309700000.0 11309700000.0 11309700000.0 11309700000.0 11309700000.0 11309700000.0 11309700000.0 11309700000.0 11309700000.0 11309700000.0 11309700000.0 11309700000.0 11309700000.0 11309700000.0 11309700000.0 11309700000.0 11309700000.0 11309700000.0 11309700000.0 11309700000.0 11309700000.0 11309700000.0 11309700000.0 11309700000.0 11309700000.0 11309700000.0 11309700000.0 11309700000.0 11309700000.0 11309700000.0 11309700000.0 11309700000.0 11309700000.0 11309700000.0 11309700000.0 11309700000.0 11309700000.0 11309700000.0 11309700000.0 11309700000.0 11309700000.0 11309700000.0 11309700000.0 11309700000.0 11309700000.0 11309700000.0 11309700000.0 11309700000.0 11309700000.0 11309700000.0 11309700000.0 11309700000.0 11309700000.0 11309700000.0 11309700000.0 11309700000.0 11309700000.0 11309700000.0 11309700000.0 11309700000.0 11309700000.0 11309700000.0 11309700000.0 11309700000.0 11309700000.0 11309700000.0 11309700000.0 11309700000.0 11309700000.0 11309700000.0 11309700000.0 11309700000.0 11309700000.0 11309700000.0 11309700000.0 11309700000.0 11309700000.0 11309700000.0 11309700000.0 11309700000.0 11309700000.0 11309700000.0 11309700000.0 11309700000.0 11309700000.0 11309700000.0 11309700000.0 11309700000.0 11309700000.0 11309700000.0 11309700000.0 11309700000.0 11309700000.0 11309700000.0 11309700000.0 11309700000.0 11309700000.0 11309700000.0 11309700000.0 11309700000.0 11309700000.0 11309700000.0 11309700000.0 11309700000.0 11309700000.0 11309700000.0 11309700000.0 11309700000.0 11309700000.0 11309700000.0 11309700000.0 11309700000.0 11309700000.0 11309700000.0 11309700000.0 11309700000.0 11309700000.0 11309700000.0 11309700000.0 11309700000.0 11309700000.0 11309700000.0 11309700000.0 11309700000.0 11309700000.0 11309700000.0 11309700000.0 11309700000.0 11309700000.0 11309700000.0 11309700000.0 11309700000.0 11309700000.0 11309700000.0 11309700000.0 11309700000.0 11309700000.0 11309700000.0 11309700000.0 11309700000.0 11309700000.0 11309700000.0 11309700000.0 11309700000.0 11309700000.0 11309700000.0 11309700000.0 11309700000.0 11309700000.0 11309700000.0 11309700000.0 11309700000.0 11309700000.0 11309700000.0 11309700000.0 11309700000.0 11309700000.0 11309700000.0 11309700000.0 11309700000.0 11309700000.0 11309700000.0 11309700000.0 11309700000.0 11309700000.0 11309700000.0 11309700000.0 11309700000.0 11309700000.0 11309700000.0 11309700000.0 11309700000.0 11309700000.0 11309700000.0 11309700000.0 11309700000.0 11309700000.0 11309700000.0 11309700000.0 11309700000.0 11309700000.0 11309700000.0 11309700000.0 11309700000.0 11309700000.0 11309700000.0 11309700000.0 11309700000.0 11309700000.0 11309700000.0 11309700000.0 11309700000.0 11309700000.0 11309700000.0 11309700000.0 11309700000.0 11309700000.0 11309700000.0 11309700000.0 11309700000.0 11309700000.0 11309700000.0 11309700000.0 11309700000.0 11309700000.0 11309700000.0 11309700000.0 11309700000.0 11309700000.0 11309700000.0 11309700000.0 11309700000.0 11309700000.0 11309700000.0 11309700000.0 11309700000.0 11309700000.0 11309700000.0 11309700000.0 11309700000.0 11309700000.0 11309700000.0 11309700000.0 11309700000.0 11309700000.0 11309700000.0 11309700000.0 11309700000.0 11309700000.0 11309700000.0 11309700000.0 11309700000.0 11309700000.0 11309700000.0 11309700000.0 11309700000.0 11309700000.0 11309700000.0 11309700000.0 11309700000.0 11309700000.0 11309700000.0 11309700000.0 11309700000.0 11309700000.0 11309700000.0 11309700000.0 11309700000.0 11309700000.0 11309700000.0 11309700000.0 11309700000.0 11309700000.0 11309700000.0 11309700000.0 11309700000.0 11309700000.0 11309700000.0 11309700000.0 11309700000.0 11309700000.0 11309700000.0 11309700000.0 11309700000.0 11309700000.0 11309700000.0 11309700000.0 11309700000.0 11309700000.0 11309700000.0 11309700000.0 11309700000.0 11309700000.0 11309700000.0 11309700000.0 11309700000.0 11309700000.0 11309700000.0 11309700000.0 11309700000.0 11309700000.0 11309700000.0 11309700000.0 11309700000.0 11309700000.0 11309700000.0 11309700000.0 11309700000.0 11309700000.0 11309700000.0 11309700000.0 11309700000.0 11309700000.0 11309700000.0 11309700000.0 11309700000.0 11309700000.0 11309700000.0 11309700000.0 11309700000.0 11309700000.0 11309700000.0 11309700000.0 11309700000.0 11309700000.0 11309700000.0 11309700000.0 11309700000.0 11309700000.0 11309700000.0 11309700000.0 11309700000.0 11309700000.0 11309700000.0 11309700000.0 11309700000.0 11309700000.0 11309700000.0 11309700000.0 11309700000.0 11309700000.0 11309700000.0 11309700000.0 11309700000.0 11309700000.0 11309700000.0 11309700000.0 11309700000.0 11309700000.0 11309700000.0 11309700000.0 11309700000.0 11309700000.0 11309700000.0 11309700000.0 11309700000.0 11309700000.0 11309700000.0 11309700000.0 11309700000.0 11309700000.0 11309700000.0 11309700000.0 11309700000.0 11309700000.0 11309700000.0 11309700000.0 11309700000.0 11309700000.0 11309700000.0 11309700000.0 11309700000.0 11309700000.0 11309700000.0 11309700000.0 11309700000.0 11309700000.0 11309700000.0 11309700000.0 11309700000.0 11309700000.0 11309700000.0 11309700000.0 11309700000.0 11309700000.0 11309700000.0 11309700000.0 11309700000.0 11309700000.0 11309700000.0 11309700000.0 11309700000.0 11309700000.0 11309700000.0 11309700000.0 11309700000.0 11309700000.0 11309700000.0 11309700000.0 11309700000.0 11309700000.0 11309700000.0 11309700000.0 11309700000.0 11309700000.0 11309700000.0 11309700000.0 11309700000.0 11309700000.0 11309700000.0 11309700000.0 11309700000.0 11309700000.0 11309700000.0 11309700000.0 11309700000.0 11309700000.0 11309700000.0 11309700000.0 11309700000.0 11309700000.0 11309700000.0 11309700000.0 11309700000.0 11309700000.0 11309700000.0 11309700000.0 11309700000.0 11309700000.0 11309700000.0 11309700000.0 11309700000.0 11309700000.0 11309700000.0 11309700000.0 11309700000.0 11309700000.0 11309700000.0 11309700000.0 11309700000.0 11309700000.0 11309700000.0 11309700000.0 11309700000.0 11309700000.0 11309700000.0 11309700000.0 11309700000.0 11309700000.0 11309700000.0 11309700000.0 11309700000.0 11309700000.0 11309700000.0 11309700000.0 11309700000.0 11309700000.0 11309700000.0 11309700000.0 11309700000.0 11309700000.0 11309700000.0 11309700000.0 11309700000.0 11309700000.0 11309700000.0 11309700000.0 11309700000.0 11309700000.0 11309700000.0 11309700000.0 11309700000.0 11309700000.0 11309700000.0 11309700000.0 11309700000.0 11309700000.0 11309700000.0 11309700000.0 11309700000.0 11309700000.0 11309700000.0 11309700000.0 11309700000.0 11309700000.0 11309700000.0 11309700000.0 11309700000.0 11309700000.0 11309700000.0 11309700000.0 11309700000.0 11309700000.0 11309700000.0 11309700000.0 11309700000.0 11309700000.0 11309700000.0 11309700000.0 11309700000.0 11309700000.0 11309700000.0 11309700000.0 11309700000.0 11309700000.0 11309700000.0 11309700000.0 11309700000.0 11309700000.0 11309700000.0 11309700000.0 11309700000.0 11309700000.0 11309700000.0 11309700000.0 11309700000.0 11309700000.0 11309700000.0 11309700000.0 11309700000.0 11309700000.0 11309700000.0 11309700000.0 11309700000.0 11309700000.0 11309700000.0 11309700000.0 11309700000.0 11309700000.0 11309700000.0 11309700000.0 11309700000.0 11309700000.0 11309700000.0 11309700000.0 11309700000.0 11309700000.0 11309700000.0 11309700000.0 11309700000.0 11309700000.0 11309700000.0 11309700000.0 11309700000.0 11309700000.0 11309700000.0 11309700000.0 11309700000.0 11309700000.0 11309700000.0 11309700000.0 11309700000.0 11309700000.0 11309700000.0 11309700000.0 11309700000.0 11309700000.0 11309700000.0 11309700000.0 11309700000.0 11309700000.0 11309700000.0 11309700000.0 11309700000.0 11309700000.0 11309700000.0 11309700000.0 11309700000.0 11309700000.0 11309700000.0 11309700000.0 11309700000.0 11309700000.0 11309700000.0 11309700000.0 11309700000.0 11309700000.0 11309700000.0 11309700000.0 11309700000.0 11309700000.0 11309700000.0 11309700000.0 11309700000.0 11309700000.0 11309700000.0 11309700000.0 11309700000.0 11309700000.0 11309700000.0 11309700000.0 11309700000.0 11309700000.0 11309700000.0 11309700000.0 11309700000.0 11309700000.0 11309700000.0 11309700000.0 11309700000.0 11309700000.0 11309700000.0 11309700000.0 11309700000.0 11309700000.0 11309700000.0 11309700000.0 11309700000.0 11309700000.0 11309700000.0 11309700000.0 11309700000.0 11309700000.0 11309700000.0 11309700000.0 11309700000.0 11309700000.0 11309700000.0 11309700000.0 11309700000.0 11309700000.0 11309700000.0 11309700000.0 11309700000.0 11309700000.0 11309700000.0 11309700000.0 11309700000.0 11309700000.0 11309700000.0 11309700000.0 11309700000.0 11309700000.0 11309700000.0 11309700000.0 11309700000.0 11309700000.0 11309700000.0 11309700000.0 11309700000.0 11309700000.0 11309700000.0 11309700000.0 11309700000.0 11309700000.0 11309700000.0 11309700000.0 11309700000.0 11309700000.0 11309700000.0 11309700000.0 11309700000.0 11309700000.0 11309700000.0 11309700000.0 11309700000.0 11309700000.0 11309700000.0 11309700000.0 11309700000.0 11309700000.0 11309700000.0 11309700000.0 11309700000.0 11309700000.0 11309700000.0 11309700000.0 11309700000.0 11309700000.0 11309700000.0 11309700000.0 11309700000.0 11309700000.0 11309700000.0 11309700000.0 11309700000.0 11309700000.0 11309700000.0 11309700000.0 11309700000.0 11309700000.0 11309700000.0 11309700000.0 11309700000.0 11309700000.0 11309700000.0 11309700000.0 11309700000.0 11309700000.0 11309700000.0 11309700000.0 11309700000.0 11309700000.0 11309700000.0 11309700000.0 11309700000.0 11309700000.0 11309700000.0 11309700000.0 11309700000.0 11309700000.0 11309700000.0 11309700000.0 11309700000.0 11309700000.0 11309700000.0 11309700000.0 11309700000.0 11309700000.0 11309700000.0 11309700000.0 11309700000.0 11309700000.0 11309700000.0 11309700000.0 11309700000.0 11309700000.0 11309700000.0 11309700000.0 11309700000.0 11309700000.0 11309700000.0 11309700000.0 11309700000.0 11309700000.0 11309700000.0 11309700000.0 11309700000.0 11309700000.0 11309700000.0 11309700000.0 11309700000.0 11309700000.0 11309700000.0 11309700000.0 11309700000.0 11309700000.0 11309700000.0 11309700000.0 11309700000.0 11309700000.0 11309700000.0 11309700000.0 11309700000.0 11309700000.0 11309700000.0 11309700000.0 11309700000.0 11309700000.0 11309700000.0 11309700000.0 11309700000.0 11309700000.0 11309700000.0 11309700000.0 11309700000.0 11309700000.0 11309700000.0 11309700000.0 11309700000.0 11309700000.0 11309700000.0 11309700000.0 11309700000.0 11309700000.0 11309700000.0 11309700000.0 11309700000.0 11309700000.0 11309700000.0 11309700000.0 11309700000.0 11309700000.0 11309700000.0 11309700000.0 11309700000.0 11309700000.0 11309700000.0 11309700000.0 11309700000.0 11309700000.0 11309700000.0 11309700000.0 11309700000.0 11309700000.0 11309700000.0 11309700000.0 11309700000.0 11309700000.0 11309700000.0 11309700000.0 11309700000.0 11309700000.0 11309700000.0 11309700000.0 11309700000.0 11309700000.0 11309700000.0 11309700000.0 11309700000.0 11309700000.0 11309700000.0 11309700000.0 11309700000.0 11309700000.0 11309700000.0 11309700000.0 11309700000.0 11309700000.0 11309700000.0 11309700000.0 11309700000.0 11309700000.0 11309700000.0 11309700000.0 11309700000.0 11309700000.0 11309700000.0 11309700000.0 11309700000.0 11309700000.0 11309700000.0 11309700000.0 11309700000.0 11309700000.0 11309700000.0 11309700000.0 11309700000.0 11309700000.0 11309700000.0 11309700000.0 11309700000.0 11309700000.0 11309700000.0 11309700000.0 11309700000.0 11309700000.0 11309700000.0 11309700000.0 11309700000.0 11309700000.0 11309700000.0 11309700000.0 11309700000.0 11309700000.0 11309700000.0 11309700000.0 11309700000.0 11309700000.0 11309700000.0 11309700000.0 11309700000.0 11309700000.0 11309700000.0 11309700000.0 11309700000.0 11309700000.0 11309700000.0 11309700000.0 11309700000.0 11309700000.0 11309700000.0 11309700000.0 11309700000.0 11309700000.0 11309700000.0 11309700000.0 11309700000.0 11309700000.0 11309700000.0 11309700000.0 11309700000.0 11309700000.0 11309700000.0 11309700000.0 11309700000.0 11309700000.0 11309700000.0 11309700000.0 11309700000.0 11309700000.0 11309700000.0 11309700000.0 11309700000.0 11309700000.0 11309700000.0 11309700000.0 11309700000.0 11309700000.0 11309700000.0 11309700000.0 11309700000.0 11309700000.0 11309700000.0 11309700000.0 11309700000.0 11309700000.0 11309700000.0 11309700000.0 11309700000.0 11309700000.0 11309700000.0 11309700000.0 11309700000.0 11309700000.0 11309700000.0 11309700000.0 11309700000.0 11309700000.0 11309700000.0 11309700000.0 11309700000.0 11309700000.0 11309700000.0 11309700000.0 11309700000.0 11309700000.0 11309700000.0 11309700000.0 11309700000.0 11309700000.0 11309700000.0 11309700000.0 11309700000.0 11309700000.0 11309700000.0 11309700000.0 11309700000.0 11309700000.0 11309700000.0 11309700000.0 11309700000.0 11309700000.0 11309700000.0 11309700000.0 11309700000.0 11309700000.0 11309700000.0 11309700000.0 11309700000.0 11309700000.0 11309700000.0 11309700000.0 11309700000.0 11309700000.0 11309700000.0 11309700000.0 11309700000.0 11309700000.0 11309700000.0 11309700000.0 11309700000.0 11309700000.0 11309700000.0 11309700000.0 11309700000.0 11309700000.0 11309700000.0 11309700000.0 11309700000.0 11309700000.0 11309700000.0 11309700000.0 11309700000.0 11309700000.0 11309700000.0 11309700000.0 11309700000.0 11309700000.0 11309700000.0 11309700000.0 11309700000.0 11309700000.0 11309700000.0 11309700000.0 11309700000.0 11309700000.0 11309700000.0 11309700000.0 11309700000.0 11309700000.0 11309700000.0 11309700000.0 11309700000.0 11309700000.0 11309700000.0 11309700000.0 11309700000.0 11309700000.0 11309700000.0 11309700000.0 11309700000.0 11309700000.0 11309700000.0 11309700000.0 11309700000.0 11309700000.0 11309700000.0 11309700000.0 11309700000.0 11309700000.0 11309700000.0 11309700000.0 11309700000.0 11309700000.0 11309700000.0 11309700000.0 11309700000.0 11309700000.0 11309700000.0 11309700000.0 11309700000.0 11309700000.0 11309700000.0 11309700000.0 11309700000.0 11309700000.0 11309700000.0 11309700000.0 11309700000.0 11309700000.0 11309700000.0 11309700000.0 11309700000.0 11309700000.0 11309700000.0 11309700000.0 11309700000.0 11309700000.0 11309700000.0 11309700000.0 11309700000.0 11309700000.0 11309700000.0 11309700000.0 11309700000.0 11309700000.0 11309700000.0 11309700000.0 11309700000.0 11309700000.0 11309700000.0 11309700000.0 11309700000.0 11309700000.0 11309700000.0 11309700000.0 11309700000.0 11309700000.0 11309700000.0 11309700000.0 11309700000.0 11309700000.0 11309700000.0 11309700000.0 11309700000.0 11309700000.0 11309700000.0 11309700000.0 11309700000.0 11309700000.0 11309700000.0 11309700000.0 11309700000.0 11309700000.0 11309700000.0 11309700000.0 11309700000.0 11309700000.0 11309700000.0 11309700000.0 11309700000.0 11309700000.0 11309700000.0 11309700000.0 11309700000.0 11309700000.0 11309700000.0 11309700000.0 11309700000.0 11309700000.0 11309700000.0 11309700000.0 11309700000.0 11309700000.0 11309700000.0 11309700000.0 11309700000.0 11309700000.0 11309700000.0 11309700000.0 11309700000.0 11309700000.0 11309700000.0 11309700000.0 11309700000.0 11309700000.0 11309700000.0 11309700000.0 11309700000.0 11309700000.0 11309700000.0 11309700000.0 11309700000.0 11309700000.0 11309700000.0 11309700000.0 11309700000.0 11309700000.0 11309700000.0 11309700000.0 11309700000.0 11309700000.0 11309700000.0 11309700000.0 11309700000.0 11309700000.0 11309700000.0 11309700000.0 11309700000.0 11309700000.0 11309700000.0 11309700000.0 11309700000.0 11309700000.0 11309700000.0 11309700000.0 11309700000.0 11309700000.0 11309700000.0 11309700000.0 11309700000.0 11309700000.0 11309700000.0 11309700000.0 11309700000.0 11309700000.0 11309700000.0 11309700000.0 11309700000.0 11309700000.0 11309700000.0 11309700000.0 11309700000.0 11309700000.0 11309700000.0 11309700000.0 11309700000.0 11309700000.0 11309700000.0 11309700000.0 11309700000.0 11309700000.0 11309700000.0 11309700000.0 11309700000.0 11309700000.0 11309700000.0 11309700000.0 11309700000.0 11309700000.0 11309700000.0 11309700000.0 11309700000.0 11309700000.0 11309700000.0 11309700000.0 11309700000.0 11309700000.0 11309700000.0 11309700000.0 11309700000.0 11309700000.0 11309700000.0 11309700000.0 11309700000.0 11309700000.0 11309700000.0 11309700000.0 11309700000.0 11309700000.0 11309700000.0 11309700000.0 11309700000.0 11309700000.0 11309700000.0 11309700000.0 11309700000.0 11309700000.0 11309700000.0 11309700000.0 11309700000.0 11309700000.0 11309700000.0 11309700000.0 11309700000.0 11309700000.0 11309700000.0 11309700000.0 11309700000.0 11309700000.0 11309700000.0 11309700000.0 11309700000.0 11309700000.0 11309700000.0 11309700000.0 11309700000.0 11309700000.0 11309700000.0 11309700000.0 11309700000.0 11309700000.0 11309700000.0 11309700000.0 11309700000.0 11309700000.0 11309700000.0 11309700000.0 11309700000.0 11309700000.0 11309700000.0 11309700000.0 11309700000.0 11309700000.0 11309700000.0 11309700000.0 11309700000.0 11309700000.0 11309700000.0 11309700000.0 11309700000.0 11309700000.0 11309700000.0 11309700000.0 11309700000.0 11309700000.0 11309700000.0 11309700000.0 11309700000.0 11309700000.0 11309700000.0 11309700000.0 11309700000.0 11309700000.0 11309700000.0 11309700000.0 11309700000.0 11309700000.0 11309700000.0 11309700000.0 11309700000.0 11309700000.0 11309700000.0 11309700000.0 11309700000.0 11309700000.0 11309700000.0 11309700000.0 11309700000.0 11309700000.0 11309700000.0 11309700000.0 11309700000.0 11309700000.0 11309700000.0 11309700000.0 11309700000.0 11309700000.0 11309700000.0 11309700000.0 11309700000.0 11309700000.0 11309700000.0 11309700000.0 11309700000.0 11309700000.0 11309700000.0 11309700000.0 11309700000.0 11309700000.0 11309700000.0 11309700000.0 11309700000.0 11309700000.0 11309700000.0 11309700000.0 11309700000.0 11309700000.0 11309700000.0 11309700000.0 11309700000.0 11309700000.0 11309700000.0 11309700000.0 11309700000.0 11309700000.0 11309700000.0 11309700000.0 11309700000.0 11309700000.0 11309700000.0 11309700000.0 11309700000.0 11309700000.0 11309700000.0 11309700000.0 11309700000.0 11309700000.0 11309700000.0 11309700000.0 11309700000.0 11309700000.0 11309700000.0 11309700000.0 11309700000.0 11309700000.0 11309700000.0 11309700000.0 11309700000.0 11309700000.0 11309700000.0 11309700000.0 11309700000.0 11309700000.0 11309700000.0 11309700000.0 11309700000.0 11309700000.0 11309700000.0 11309700000.0 11309700000.0 11309700000.0 11309700000.0 11309700000.0 11309700000.0 11309700000.0 11309700000.0 11309700000.0 11309700000.0 11309700000.0 11309700000.0 11309700000.0 11309700000.0 11309700000.0 11309700000.0 11309700000.0 11309700000.0 11309700000.0 11309700000.0 11309700000.0 11309700000.0 11309700000.0 11309700000.0 11309700000.0 11309700000.0 11309700000.0 11309700000.0 11309700000.0 11309700000.0 11309700000.0 11309700000.0 11309700000.0 11309700000.0 11309700000.0 11309700000.0 11309700000.0 11309700000.0 11309700000.0 11309700000.0 11309700000.0 11309700000.0 11309700000.0 11309700000.0 11309700000.0 11309700000.0 11309700000.0 11309700000.0 11309700000.0 11309700000.0 11309700000.0 11309700000.0 11309700000.0 11309700000.0 11309700000.0 11309700000.0 11309700000.0 11309700000.0 11309700000.0 11309700000.0 11309700000.0 11309700000.0 11309700000.0 11309700000.0 11309700000.0 11309700000.0 11309700000.0 11309700000.0 11309700000.0 11309700000.0 11309700000.0 11309700000.0 11309700000.0 11309700000.0 11309700000.0 11309700000.0 11309700000.0 11309700000.0 11309700000.0 11309700000.0 11309700000.0 11309700000.0 11309700000.0 11309700000.0 11309700000.0 11309700000.0 11309700000.0 11309700000.0 11309700000.0 11309700000.0 11309700000.0 11309700000.0 11309700000.0 11309700000.0 11309700000.0 11309700000.0 11309700000.0 11309700000.0 11309700000.0 11309700000.0 11309700000.0 11309700000.0 11309700000.0 11309700000.0 11309700000.0 11309700000.0 11309700000.0 11309700000.0 11309700000.0 11309700000.0 11309700000.0 11309700000.0 11309700000.0 11309700000.0 11309700000.0 11309700000.0 11309700000.0 11309700000.0 11309700000.0 11309700000.0 11309700000.0 11309700000.0 11309700000.0 11309700000.0 11309700000.0 11309700000.0 11309700000.0 11309700000.0 11309700000.0 11309700000.0 11309700000.0 11309700000.0 11309700000.0 11309700000.0 11309700000.0 11309700000.0 11309700000.0 11309700000.0 11309700000.0 11309700000.0 11309700000.0 11309700000.0 11309700000.0 11309700000.0 11309700000.0 11309700000.0 11309700000.0 11309700000.0 11309700000.0 11309700000.0 11309700000.0 11309700000.0 11309700000.0 11309700000.0 11309700000.0 11309700000.0 11309700000.0 11309700000.0 11309700000.0 11309700000.0 11309700000.0 11309700000.0 11309700000.0 11309700000.0 11309700000.0 11309700000.0 11309700000.0 11309700000.0 11309700000.0 11309700000.0 11309700000.0 11309700000.0 11309700000.0 11309700000.0 11309700000.0 11309700000.0 11309700000.0 11309700000.0 11309700000.0 11309700000.0 11309700000.0 11309700000.0 11309700000.0 11309700000.0 11309700000.0 11309700000.0 11309700000.0 11309700000.0 11309700000.0 11309700000.0 11309700000.0 11309700000.0 11309700000.0 11309700000.0 11309700000.0 11309700000.0 11309700000.0 11309700000.0 11309700000.0 11309700000.0 11309700000.0 11309700000.0 11309700000.0 11309700000.0 11309700000.0 11309700000.0 11309700000.0 11309700000.0 11309700000.0 11309700000.0 11309700000.0 11309700000.0 11309700000.0 11309700000.0 11309700000.0 11309700000.0 11309700000.0 11309700000.0 11309700000.0 11309700000.0 11309700000.0 11309700000.0 11309700000.0 11309700000.0 11309700000.0 11309700000.0 11309700000.0 11309700000.0 11309700000.0 11309700000.0 11309700000.0 11309700000.0 11309700000.0 11309700000.0 11309700000.0 11309700000.0 11309700000.0 11309700000.0 11309700000.0 11309700000.0 11309700000.0 11309700000.0 11309700000.0 11309700000.0 11309700000.0 11309700000.0 11309700000.0 11309700000.0 11309700000.0 11309700000.0 11309700000.0 11309700000.0 11309700000.0 11309700000.0 11309700000.0 11309700000.0 11309700000.0 11309700000.0 11309700000.0 11309700000.0 11309700000.0 11309700000.0 11309700000.0 11309700000.0 11309700000.0 11309700000.0 11309700000.0 11309700000.0 11309700000.0 11309700000.0 11309700000.0 11309700000.0 11309700000.0 11309700000.0 11309700000.0 11309700000.0 11309700000.0 11309700000.0 11309700000.0 11309700000.0 11309700000.0 11309700000.0 11309700000.0 11309700000.0 11309700000.0 11309700000.0 11309700000.0 11309700000.0 11309700000.0 11309700000.0 11309700000.0 11309700000.0 11309700000.0 11309700000.0 11309700000.0 11309700000.0 11309700000.0 11309700000.0 11309700000.0 11309700000.0 11309700000.0 11309700000.0 11309700000.0 11309700000.0 11309700000.0 11309700000.0 11309700000.0 11309700000.0 11309700000.0 11309700000.0 11309700000.0 11309700000.0 11309700000.0 11309700000.0 11309700000.0 11309700000.0 11309700000.0 11309700000.0 11309700000.0 11309700000.0 11309700000.0 11309700000.0 11309700000.0 11309700000.0 11309700000.0 11309700000.0 11309700000.0 11309700000.0 11309700000.0 11309700000.0 11309700000.0 11309700000.0 11309700000.0 11309700000.0 11309700000.0 11309700000.0 11309700000.0 11309700000.0 11309700000.0 11309700000.0 11309700000.0 11309700000.0 11309700000.0 11309700000.0 11309700000.0 11309700000.0 11309700000.0 11309700000.0 11309700000.0 11309700000.0 11309700000.0 11309700000.0 11309700000.0 11309700000.0 11309700000.0 11309700000.0 11309700000.0 11309700000.0 11309700000.0 11309700000.0 11309700000.0 11309700000.0 11309700000.0 11309700000.0 11309700000.0 11309700000.0 11309700000.0 11309700000.0 11309700000.0 11309700000.0 11309700000.0 11309700000.0 11309700000.0 11309700000.0 11309700000.0 11309700000.0 11309700000.0 11309700000.0 11309700000.0 11309700000.0 11309700000.0 11309700000.0 11309700000.0 11309700000.0 11309700000.0 11309700000.0 11309700000.0 11309700000.0 11309700000.0 11309700000.0 11309700000.0 11309700000.0 11309700000.0 11309700000.0 11309700000.0 11309700000.0 11309700000.0 11309700000.0 11309700000.0 11309700000.0 11309700000.0 11309700000.0 11309700000.0 11309700000.0 11309700000.0 11309700000.0 11309700000.0 11309700000.0 11309700000.0 11309700000.0 11309700000.0 11309700000.0 11309700000.0 11309700000.0 11309700000.0 11309700000.0 11309700000.0 11309700000.0 11309700000.0 11309700000.0 11309700000.0 11309700000.0 11309700000.0 11309700000.0 11309700000.0 11309700000.0 11309700000.0 11309700000.0 11309700000.0 11309700000.0 11309700000.0 11309700000.0 11309700000.0 11309700000.0 11309700000.0 11309700000.0 11309700000.0 11309700000.0 11309700000.0 11309700000.0 11309700000.0 11309700000.0 11309700000.0 11309700000.0 11309700000.0 11309700000.0 11309700000.0 11309700000.0 11309700000.0 11309700000.0 11309700000.0 11309700000.0 11309700000.0 11309700000.0 11309700000.0 11309700000.0 11309700000.0 11309700000.0 11309700000.0 11309700000.0 11309700000.0 11309700000.0 11309700000.0 11309700000.0 11309700000.0 11309700000.0 11309700000.0 11309700000.0 11309700000.0 11309700000.0 11309700000.0 11309700000.0 11309700000.0 11309700000.0 11309700000.0 11309700000.0 11309700000.0 11309700000.0 11309700000.0 11309700000.0 11309700000.0 11309700000.0 11309700000.0 11309700000.0 11309700000.0 11309700000.0 11309700000.0 11309700000.0 11309700000.0 11309700000.0 11309700000.0 11309700000.0 11309700000.0 11309700000.0 11309700000.0 11309700000.0 11309700000.0 11309700000.0 11309700000.0 11309700000.0 11309700000.0 11309700000.0 11309700000.0 11309700000.0 11309700000.0 11309700000.0 11309700000.0 11309700000.0 11309700000.0 11309700000.0 11309700000.0 11309700000.0 11309700000.0 11309700000.0 11309700000.0 11309700000.0 11309700000.0 11309700000.0 11309700000.0 11309700000.0 11309700000.0 11309700000.0 11309700000.0 11309700000.0 11309700000.0 11309700000.0 11309700000.0 11309700000.0 11309700000.0 11309700000.0 11309700000.0 11309700000.0 11309700000.0 11309700000.0 11309700000.0 11309700000.0 11309700000.0 11309700000.0 11309700000.0 11309700000.0 11309700000.0 11309700000.0 11309700000.0 11309700000.0 11309700000.0 11309700000.0 11309700000.0 11309700000.0 11309700000.0 11309700000.0 11309700000.0 11309700000.0 11309700000.0 11309700000.0 11309700000.0 11309700000.0 11309700000.0 11309700000.0 11309700000.0 11309700000.0 11309700000.0 11309700000.0 11309700000.0 11309700000.0 11309700000.0 11309700000.0 11309700000.0 11309700000.0 11309700000.0 11309700000.0 11309700000.0 11309700000.0 11309700000.0 11309700000.0 11309700000.0 11309700000.0 11309700000.0 11309700000.0 11309700000.0 11309700000.0 11309700000.0 11309700000.0 11309700000.0 11309700000.0 11309700000.0 11309700000.0 11309700000.0 11309700000.0 11309700000.0 11309700000.0 11309700000.0 11309700000.0 11309700000.0 11309700000.0 11309700000.0 11309700000.0 11309700000.0 11309700000.0 11309700000.0 11309700000.0 11309700000.0 11309700000.0 11309700000.0 11309700000.0 11309700000.0 11309700000.0 11309700000.0 11309700000.0 11309700000.0 11309700000.0 11309700000.0 11309700000.0 11309700000.0 11309700000.0 11309700000.0 11309700000.0 11309700000.0 11309700000.0 11309700000.0 11309700000.0 11309700000.0 11309700000.0 11309700000.0 11309700000.0 11309700000.0 11309700000.0 11309700000.0 11309700000.0 11309700000.0 11309700000.0 11309700000.0 11309700000.0 11309700000.0 11309700000.0 11309700000.0 11309700000.0 11309700000.0 11309700000.0 11309700000.0 11309700000.0 11309700000.0 11309700000.0 11309700000.0 11309700000.0 11309700000.0 11309700000.0 11309700000.0 11309700000.0 11309700000.0 11309700000.0 11309700000.0 11309700000.0 11309700000.0 11309700000.0 11309700000.0 11309700000.0 11309700000.0 11309700000.0 11309700000.0 11309700000.0 11309700000.0 11309700000.0 11309700000.0 11309700000.0 11309700000.0 11309700000.0 11309700000.0 11309700000.0 11309700000.0 11309700000.0 11309700000.0 11309700000.0 11309700000.0 11309700000.0 11309700000.0 11309700000.0 11309700000.0 11309700000.0 11309700000.0 11309700000.0 11309700000.0 11309700000.0 11309700000.0 11309700000.0 11309700000.0 11309700000.0 11309700000.0 11309700000.0 11309700000.0 11309700000.0 11309700000.0 11309700000.0 11309700000.0 11309700000.0 11309700000.0 11309700000.0 11309700000.0 11309700000.0 11309700000.0 11309700000.0 11309700000.0 11309700000.0 11309700000.0 11309700000.0 11309700000.0 11309700000.0 11309700000.0 11309700000.0 11309700000.0 11309700000.0 11309700000.0 11309700000.0 11309700000.0 11309700000.0 11309700000.0 11309700000.0 11309700000.0 11309700000.0 11309700000.0 11309700000.0 11309700000.0 11309700000.0 11309700000.0 11309700000.0 11309700000.0 11309700000.0 11309700000.0 11309700000.0 11309700000.0 11309700000.0 11309700000.0 11309700000.0 11309700000.0 11309700000.0 11309700000.0 11309700000.0 11309700000.0 11309700000.0 11309700000.0 11309700000.0 11309700000.0 11309700000.0 11309700000.0 11309700000.0 11309700000.0 11309700000.0 11309700000.0 11309700000.0 11309700000.0 11309700000.0 11309700000.0 11309700000.0 11309700000.0 11309700000.0 11309700000.0 11309700000.0 11309700000.0 11309700000.0 11309700000.0 11309700000.0 11309700000.0 11309700000.0 11309700000.0 11309700000.0 11309700000.0 11309700000.0 11309700000.0 11309700000.0 11309700000.0 11309700000.0 11309700000.0 11309700000.0 11309700000.0 11309700000.0 11309700000.0 11309700000.0 11309700000.0 11309700000.0 11309700000.0 11309700000.0 11309700000.0 11309700000.0 11309700000.0 11309700000.0 11309700000.0 11309700000.0 11309700000.0 11309700000.0 11309700000.0 11309700000.0 11309700000.0 11309700000.0 11309700000.0 11309700000.0 11309700000.0 11309700000.0 11309700000.0 11309700000.0 11309700000.0 11309700000.0 11309700000.0 11309700000.0 11309700000.0 11309700000.0 11309700000.0 11309700000.0 11309700000.0 11309700000.0 11309700000.0 11309700000.0 11309700000.0 11309700000.0 11309700000.0 11309700000.0 11309700000.0 11309700000.0 11309700000.0 11309700000.0 11309700000.0 11309700000.0 11309700000.0 11309700000.0 11309700000.0 11309700000.0 11309700000.0 11309700000.0 11309700000.0 11309700000.0 11309700000.0 11309700000.0 11309700000.0 11309700000.0 11309700000.0 11309700000.0 11309700000.0 11309700000.0 11309700000.0 11309700000.0 11309700000.0 11309700000.0 11309700000.0 11309700000.0 11309700000.0 11309700000.0 11309700000.0 11309700000.0 11309700000.0 11309700000.0 11309700000.0 11309700000.0 11309700000.0 11309700000.0 11309700000.0 11309700000.0 11309700000.0 11309700000.0 11309700000.0 11309700000.0 11309700000.0 11309700000.0 11309700000.0 11309700000.0 11309700000.0 11309700000.0 11309700000.0 11309700000.0 11309700000.0 11309700000.0 11309700000.0 11309700000.0 11309700000.0 11309700000.0 11309700000.0 11309700000.0 11309700000.0 11309700000.0 11309700000.0 11309700000.0 11309700000.0 11309700000.0 11309700000.0 11309700000.0 11309700000.0 11309700000.0 11309700000.0 11309700000.0 11309700000.0 11309700000.0 11309700000.0 11309700000.0 11309700000.0 11309700000.0 11309700000.0 11309700000.0 11309700000.0 11309700000.0 11309700000.0 11309700000.0 11309700000.0 11309700000.0 11309700000.0 11309700000.0 11309700000.0 11309700000.0 11309700000.0 11309700000.0 11309700000.0 11309700000.0 11309700000.0 11309700000.0 11309700000.0 11309700000.0 11309700000.0 11309700000.0 11309700000.0 11309700000.0 11309700000.0 11309700000.0 11309700000.0 11309700000.0 11309700000.0 11309700000.0 11309700000.0 11309700000.0 11309700000.0 11309700000.0 11309700000.0 11309700000.0 11309700000.0 11309700000.0 11309700000.0 11309700000.0 11309700000.0 11309700000.0 11309700000.0 11309700000.0 11309700000.0 11309700000.0 11309700000.0 11309700000.0 11309700000.0 11309700000.0 11309700000.0 11309700000.0 11309700000.0 11309700000.0 11309700000.0 11309700000.0 11309700000.0 11309700000.0 11309700000.0 11309700000.0 11309700000.0 11309700000.0 11309700000.0 11309700000.0 11309700000.0 11309700000.0 11309700000.0 11309700000.0 11309700000.0 11309700000.0 11309700000.0 11309700000.0 11309700000.0 11309700000.0 11309700000.0 11309700000.0 11309700000.0 11309700000.0 11309700000.0 11309700000.0 11309700000.0 11309700000.0 11309700000.0 11309700000.0 11309700000.0 11309700000.0 11309700000.0 11309700000.0 11309700000.0 11309700000.0 11309700000.0 11309700000.0 11309700000.0 11309700000.0 11309700000.0 11309700000.0 11309700000.0 11309700000.0 11309700000.0 11309700000.0 11309700000.0 11309700000.0 11309700000.0 11309700000.0 11309700000.0 11309700000.0 11309700000.0 11309700000.0 11309700000.0 11309700000.0 11309700000.0 11309700000.0 11309700000.0 11309700000.0 11309700000.0 11309700000.0 11309700000.0 11309700000.0 11309700000.0 11309700000.0 11309700000.0 11309700000.0 11309700000.0 11309700000.0 11309700000.0 11309700000.0 11309700000.0 11309700000.0 11309700000.0 11309700000.0 11309700000.0 11309700000.0 11309700000.0 11309700000.0 11309700000.0 11309700000.0 11309700000.0 11309700000.0 11309700000.0 11309700000.0 11309700000.0 11309700000.0 11309700000.0 11309700000.0 11309700000.0 11309700000.0 11309700000.0 11309700000.0 11309700000.0 11309700000.0 11309700000.0 11309700000.0 11309700000.0 11309700000.0 11309700000.0 11309700000.0 11309700000.0 11309700000.0 11309700000.0 11309700000.0 11309700000.0 11309700000.0 11309700000.0 11309700000.0 11309700000.0 11309700000.0 11309700000.0 11309700000.0 11309700000.0 11309700000.0 11309700000.0 11309700000.0 11309700000.0 11309700000.0 11309700000.0 11309700000.0 11309700000.0 11309700000.0 11309700000.0 11309700000.0 11309700000.0 11309700000.0 11309700000.0 11309700000.0 11309700000.0 11309700000.0 11309700000.0 11309700000.0 11309700000.0 11309700000.0 11309700000.0 11309700000.0 11309700000.0 11309700000.0 11309700000.0 11309700000.0 11309700000.0 11309700000.0 11309700000.0 11309700000.0 11309700000.0 11309700000.0 11309700000.0 11309700000.0 11309700000.0 11309700000.0 11309700000.0 11309700000.0 11309700000.0 11309700000.0 11309700000.0 11309700000.0 11309700000.0 11309700000.0 11309700000.0 11309700000.0 11309700000.0 11309700000.0 11309700000.0 11309700000.0 11309700000.0 11309700000.0 11309700000.0 11309700000.0 11309700000.0 11309700000.0 11309700000.0 11309700000.0 11309700000.0 11309700000.0 11309700000.0 11309700000.0 11309700000.0 11309700000.0 11309700000.0 11309700000.0 11309700000.0 11309700000.0 11309700000.0 11309700000.0 11309700000.0 11309700000.0 11309700000.0 11309700000.0 11309700000.0 11309700000.0 11309700000.0 11309700000.0 11309700000.0 11309700000.0 11309700000.0 11309700000.0 11309700000.0 11309700000.0 11309700000.0 11309700000.0 11309700000.0 11309700000.0 11309700000.0 11309700000.0 11309700000.0 11309700000.0 11309700000.0 11309700000.0 11309700000.0 11309700000.0 11309700000.0 11309700000.0 11309700000.0 11309700000.0 11309700000.0 11309700000.0 11309700000.0 11309700000.0 11309700000.0 11309700000.0 11309700000.0 11309700000.0 11309700000.0 11309700000.0 11309700000.0 11309700000.0 11309700000.0 11309700000.0 11309700000.0 11309700000.0 11309700000.0 11309700000.0 11309700000.0 11309700000.0 11309700000.0 11309700000.0 11309700000.0 11309700000.0 11309700000.0 11309700000.0 11309700000.0 11309700000.0 11309700000.0 11309700000.0 11309700000.0 11309700000.0 11309700000.0 11309700000.0 11309700000.0 11309700000.0 11309700000.0 11309700000.0 11309700000.0 11309700000.0 11309700000.0 11309700000.0 11309700000.0 11309700000.0 11309700000.0 11309700000.0 11309700000.0 11309700000.0 11309700000.0 11309700000.0 11309700000.0 11309700000.0 11309700000.0 11309700000.0 11309700000.0 11309700000.0 11309700000.0 11309700000.0 11309700000.0 11309700000.0 11309700000.0 11309700000.0 11309700000.0 11309700000.0 11309700000.0 11309700000.0 11309700000.0 11309700000.0 11309700000.0 11309700000.0 11309700000.0 11309700000.0 11309700000.0 11309700000.0 11309700000.0 11309700000.0 11309700000.0 11309700000.0 11309700000.0 11309700000.0 11309700000.0 11309700000.0 11309700000.0 11309700000.0 11309700000.0 11309700000.0 11309700000.0 11309700000.0 11309700000.0 11309700000.0 11309700000.0 11309700000.0 11309700000.0 11309700000.0 11309700000.0 11309700000.0 11309700000.0 11309700000.0 11309700000.0 11309700000.0 11309700000.0 11309700000.0 11309700000.0 11309700000.0 11309700000.0 11309700000.0 11309700000.0 11309700000.0 11309700000.0 11309700000.0 11309700000.0 11309700000.0 11309700000.0 11309700000.0 11309700000.0 11309700000.0 11309700000.0 11309700000.0 11309700000.0 11309700000.0 11309700000.0 11309700000.0 11309700000.0 11309700000.0 11309700000.0 11309700000.0 11309700000.0 11309700000.0 11309700000.0 11309700000.0 11309700000.0 11309700000.0 11309700000.0 11309700000.0 11309700000.0 11309700000.0 11309700000.0 11309700000.0 11309700000.0 11309700000.0 11309700000.0 11309700000.0 11309700000.0 11309700000.0 11309700000.0 11309700000.0 11309700000.0 11309700000.0 11309700000.0 11309700000.0 11309700000.0 11309700000.0 11309700000.0 11309700000.0 11309700000.0 11309700000.0 11309700000.0 11309700000.0 11309700000.0 11309700000.0 11309700000.0 11309700000.0 11309700000.0 11309700000.0 11309700000.0 11309700000.0 11309700000.0 11309700000.0 11309700000.0 11309700000.0 11309700000.0 11309700000.0 11309700000.0 11309700000.0 11309700000.0 11309700000.0 11309700000.0 11309700000.0 11309700000.0 11309700000.0 11309700000.0 11309700000.0 11309700000.0 11309700000.0 11309700000.0 11309700000.0 11309700000.0 11309700000.0 11309700000.0 11309700000.0 11309700000.0 11309700000.0 11309700000.0 11309700000.0 11309700000.0 11309700000.0 11309700000.0 11309700000.0 11309700000.0 11309700000.0 11309700000.0 11309700000.0 11309700000.0 11309700000.0 11309700000.0 11309700000.0 11309700000.0 11309700000.0 11309700000.0 11309700000.0 11309700000.0 11309700000.0 11309700000.0 11309700000.0 11309700000.0 11309700000.0 11309700000.0 11309700000.0 11309700000.0 11309700000.0 11309700000.0 11309700000.0 11309700000.0 11309700000.0 11309700000.0 11309700000.0 11309700000.0 11309700000.0 11309700000.0 11309700000.0 11309700000.0 11309700000.0 11309700000.0 11309700000.0 11309700000.0 11309700000.0 11309700000.0 11309700000.0 11309700000.0 11309700000.0 11309700000.0 11309700000.0 11309700000.0 11309700000.0 11309700000.0 11309700000.0 11309700000.0 11309700000.0 11309700000.0 11309700000.0 11309700000.0 11309700000.0 11309700000.0 11309700000.0 11309700000.0 11309700000.0 11309700000.0 11309700000.0 11309700000.0 11309700000.0 11309700000.0 11309700000.0 11309700000.0 11309700000.0 11309700000.0 11309700000.0 11309700000.0 11309700000.0 11309700000.0 11309700000.0 11309700000.0 11309700000.0 11309700000.0 11309700000.0 11309700000.0 11309700000.0 11309700000.0 11309700000.0 11309700000.0 11309700000.0 11309700000.0 11309700000.0 11309700000.0 11309700000.0 11309700000.0 11309700000.0 11309700000.0 11309700000.0 11309700000.0 11309700000.0 11309700000.0 11309700000.0 11309700000.0 11309700000.0 11309700000.0 11309700000.0 11309700000.0 11309700000.0 11309700000.0 11309700000.0 11309700000.0 11309700000.0 11309700000.0 11309700000.0 11309700000.0 11309700000.0 11309700000.0 11309700000.0 11309700000.0 11309700000.0 11309700000.0 11309700000.0 11309700000.0 11309700000.0 11309700000.0 11309700000.0 11309700000.0 11309700000.0 11309700000.0 11309700000.0 11309700000.0 11309700000.0 11309700000.0 11309700000.0 11309700000.0 11309700000.0 11309700000.0 11309700000.0 11309700000.0 11309700000.0 11309700000.0 11309700000.0 11309700000.0 11309700000.0 11309700000.0 11309700000.0 11309700000.0 11309700000.0 11309700000.0 11309700000.0 11309700000.0 11309700000.0 11309700000.0 11309700000.0 11309700000.0 11309700000.0 11309700000.0 11309700000.0 11309700000.0 11309700000.0 11309700000.0 11309700000.0 11309700000.0 11309700000.0 11309700000.0 11309700000.0 11309700000.0 11309700000.0 11309700000.0 11309700000.0 11309700000.0 11309700000.0 11309700000.0 11309700000.0 11309700000.0 11309700000.0 11309700000.0 11309700000.0 11309700000.0 11309700000.0 11309700000.0 11309700000.0 11309700000.0 11309700000.0 11309700000.0 11309700000.0 11309700000.0 11309700000.0 11309700000.0 11309700000.0 11309700000.0 11309700000.0 11309700000.0 11309700000.0 11309700000.0 11309700000.0 11309700000.0 11309700000.0 11309700000.0 11309700000.0 11309700000.0 11309700000.0 11309700000.0 11309700000.0 11309700000.0 11309700000.0 11309700000.0 11309700000.0 11309700000.0 11309700000.0 11309700000.0 11309700000.0 11309700000.0 11309700000.0 11309700000.0 11309700000.0 11309700000.0 11309700000.0 11309700000.0 11309700000.0 11309700000.0 11309700000.0 11309700000.0 11309700000.0 11309700000.0 11309700000.0 11309700000.0 11309700000.0 11309700000.0 11309700000.0 11309700000.0 11309700000.0 11309700000.0 11309700000.0 
SCALARS Velocity float 1
LOOKUP_TABLE default
1.06746 1.07386 1.10253 1.07913 1.07723 1.07617 1.0751 1.07241 1.08118 1.07486 1.07537 1.06988 1.06624 1.06686 1.06721 1.06776 1.06836 1.07834 1.07986 1.07951 1.07819 1.07621 1.07397 1.07105 1.01362 1.0319 1.02094 1.07842 1.07404 1.06973 1.06656 1.06765 1.1026 1.07874 1.08018 1.07911 1.07724 1.07514 1.07248 1.03286 1.07559 1.07061 1.06944 1.06976 1.06631 1.06683 1.06899 1.10153 1.08012 1.07966 1.07823 1.07725 1.0762 1.07501 1.07386 1.07212 1.07108 1.07153 1.00947 1.083 1.07427 1.0701 1.06928 1.0686 1.06906 1.06955 1.06955 1.06648 1.06657 1.06718 1.07942 1.08047 1.08007 1.07966 1.07909 1.07831 1.07605 1.07353 1.06978 1.05969 1.07743 1.07105 1.06878 1.06927 1.06651 1.0669 1.06626 1.06989 1.10025 1.0803 1.08003 1.0793 1.07723 1.07455 1.07164 1.06402 1.07354 1.0738 1.06972 1.06913 1.06941 1.06655 1.06767 1.07086 1.0985 1.08052 1.08016 1.07852 1.07721 1.07574 1.07386 1.07273 1.07061 1.0691 1.06697 1.06541 1.07174 1.07546 1.07297 1.07129 1.07023 1.06933 1.06941 1.0693 1.06956 1.06691 1.06771 1.0795 1.08101 1.08117 1.07985 1.07888 1.07535 1.07173 1.06887 1.06798 1.07292 1.07137 1.06992 1.0696 1.06624 1.0663 1.06724 1.06855 1.0719 1.0708 1.08005 1.0812 1.08143 1.0823 1.08065 1.07717 1.07312 1.06989 1.06864 1.0713 1.07202 1.07064 1.06993 1.06999 1.06567 1.06722 1.06738 1.07773 1.08292 1.08235 1.07929 1.07487 1.07239 1.071 1.06947 1.06899 1.06898 1.06936 1.07061 1.07173 1.07125 1.07119 1.0708 1.07041 1.0702 1.06577 1.06584 1.07127 1.08149 1.08374 1.08348 1.08149 1.07967 1.07705 1.07421 1.07021 1.06864 1.06928 1.07061 1.07088 1.07086 1.07054 1.07097 1.07067 1.06525 1.06521 1.06511 1.06633 1.06784 1.07087 1.0764 1.08257 1.08421 1.08497 1.08226 1.07672 1.07131 1.06862 1.06834 1.06947 1.07046 1.07095 1.07129 1.07157 1.06472 1.06582 1.06827 1.0746 1.0859 1.08431 1.08009 1.07306 1.06957 1.06889 1.06729 1.06769 1.06729 1.06828 1.06822 1.0695 1.07062 1.07146 1.07197 1.06521 1.06788 1.06988 1.08508 1.08555 1.08537 1.08324 1.08091 1.07602 1.0711 1.06704 1.06652 1.06712 1.06847 1.06978 1.07053 1.07125 1.07232 1.07229 1.07325 1.07273 1.06434 1.06544 1.06697 1.07028 1.07072 1.07334 1.06969 1.0537 1.0865 1.08634 1.08515 1.07458 1.06706 1.06578 1.06629 1.06694 1.06924 1.0718 1.07361 1.0742 1.06389 1.06821 1.07463 1.07068 1.04819 1.08785 1.08269 1.07142 1.06791 1.06393 1.06491 1.0646 1.06555 1.06572 1.0661 1.06551 1.06749 1.06881 1.07061 1.07353 1.07537 1.07492 1.07606 1.06298 1.0655 1.07262 1.07826 1.05079 1.05014 1.08849 1.08653 1.06319 1.0632 1.0652 1.06556 1.06655 1.07078 1.0726 1.07517 1.07705 1.06509 1.06914 1.07457 1.07768 1.08196 1.07931 1.0452 1.05005 1.0534 1.06386 1.06157 1.06385 1.06612 1.06376 1.06848 1.07344 1.07771 1.07839 1.06146 1.06993 1.08081 1.08865 1.04896 1.05198 1.05573 1.05753 1.05559 1.05988 1.06021 1.06216 1.06315 1.06485 1.06571 1.06704 1.0657 1.06616 1.06694 1.07037 1.07401 1.07743 1.08082 1.07976 1.08121 1.05891 1.06431 1.07103 1.07719 1.0861 1.08716 1.04464 1.05237 1.03259 1.0567 1.06111 1.06402 1.06528 1.07002 1.06858 1.08086 1.08304 1.06295 1.0815 1.09342 1.09508 1.04886 1.02055 1.02527 1.03258 1.04709 1.05166 1.05793 1.06211 1.06416 1.06523 1.07496 1.0814 1.07386 1.08491 1.08445 1.0546 1.06007 1.07243 1.09465 1.09754 1.04811 1.02078 1.02389 1.04183 1.05472 1.05938 1.06069 1.06274 1.0629 1.06392 1.06425 1.06793 1.07204 1.09212 1.08667 1.08895 1.08658 1.08839 1.04725 1.07285 1.0878 1.10888 1.10116 1.09541 1.02955 1.01794 1.0302 1.04754 1.05726 1.06163 1.0628 1.06593 1.07998 1.10263 1.09647 1.0912 1.05549 1.09264 1.11426 1.03933 1.01614 1.01966 1.0144 1.02099 1.02814 1.03812 1.04444 1.05187 1.0554 1.05937 1.06107 1.06212 1.06263 1.06922 1.07944 1.09599 1.10566 1.09661 1.09309 1.0376 1.05702 1.06856 1.08044 1.1264 1.08842 1.04756 1.00515 1.0199 1.03577 1.04948 1.05845 1.06233 1.06197 1.06049 1.06237 1.06255 1.1053 1.10456 1.10227 1.09687 1.09824 1.02213 1.07927 1.10691 1.12105 1.09954 1.02272 1.01188 1.02734 1.04213 1.05365 1.06137 1.06256 1.05618 1.07685 1.12962 1.11559 1.11014 1.1012 0.988316 1.06978 1.10636 1.06882 0.995316 1.06575 1.04062 1.00979 1.01362 1.0197 1.02696 1.03429 1.04008 1.04729 1.05163 1.05737 1.06111 1.06452 1.05977 1.04757 1.07602 1.12454 1.1046 1.10339 1.09953 1.10716 1.1252 1.11315 1.06567 0.942413 0.93771 1.01523 1.02129 1.03279 1.04488 1.05556 1.06506 1.06814 1.07239 1.04853 1.01351 1.16535 1.12317 1.1094 1.10644 1.10506 1.10958 0.914628 1.13931 1.10728 0.999358 0.960316 0.959922 1.01958 1.02623 1.03774 1.04899 1.05931 1.06884 1.07586 0.690267 1.20367 1.10996 1.1118 0.791231 1.15602 1.13569 1.1048 1.05769 1.00561 0.957934 0.976822 1.00063 1.00994 1.02086 1.02407 1.03078 1.03494 1.04198 1.0457 1.05268 1.05567 1.06245 1.06305 1.06985 1.02684 1.16764 1.13352 1.12746 1.11557 1.12119 1.11655 0.419321 1.23484 1.17942 1.15429 1.05686 0.978797 0.977733 0.996489 1.01532 1.02795 1.03867 1.04888 1.05674 1.05293 1.04673 1.04926 1.09712 1.1428 1.1304 1.12223 0.119803 1.23963 1.10887 1.06106 1.01624 0.994378 0.986565 1.0049 1.02012 1.03175 1.04209 1.0508 1.05252 1.04917 1.09065 1.13674 1.14206 1.14085 1.1305 1.39717 1.27823 1.17759 1.11355 1.02309 0.989062 0.992462 0.996246 1.00315 1.01127 1.01716 1.02465 1.02881 1.03537 1.03882 1.04486 1.04597 1.04976 1.04731 1.04883 1.06097 1.12433 1.14893 1.14182 1.13276 1.12253 0.0555941 1.41216 1.17987 1.05805 1.01641 1.00099 0.994772 0.99815 1.01001 1.02241 1.03275 1.04168 1.04551 1.04664 1.05168 1.06474 1.09039 1.1262 1.14781 1.1469 1.11003 0.0353269 1.27634 1.1706 1.10205 1.03314 0.998901 0.997205 1.0047 1.01642 1.02701 1.03669 1.04343 1.04451 1.05118 1.09408 1.1663 1.15798 1.1428 1.12198 1.07809 0.893832 1.51301 1.40022 1.3141 1.05539 0.998448 0.99257 0.997921 1.00114 1.00221 1.00941 1.01173 1.01816 1.02198 1.02673 1.03144 1.03633 1.04059 1.04386 1.04368 1.04227 1.04414 1.04498 1.06506 1.14269 1.1685 1.09045 1.45014 1.15932 1.11323 0.970716 0.99184 0.974961 0.997109 1.0097 1.01618 1.02336 1.03162 1.04167 1.04583 1.0386 1.05264 1.10171 1.17233 1.20662 1.18193 1.12424 1.04431 1.02352 1.69023 1.36626 1.40357 0.947468 0.931014 0.985347 1.01071 1.01658 1.02164 1.02795 1.03741 1.04687 1.04487 1.03213 1.10244 1.28433 1.09801 0.941916 0.893832 1.55853 1.60773 1.03098 0.904498 0.875558 0.914217 0.959493 1.00249 1.00872 1.02058 1.01862 1.0235 1.02167 1.02516 1.02586 1.03032 1.03321 1.03951 1.04403 1.05082 1.05094 1.0515 1.03811 1.02548 1.03412 1.11301 1.21697 1.43166 1.19395 1.00593 0.959729 0.847727 1.32686 1.56577 1.03016 0.93999 0.97929 1.02364 1.02672 1.02576 1.02842 1.03611 1.04643 1.05662 1.04568 1.04089 1.32065 1.4148 1.06515 1.0749 0.924847 0.741242 0.820259 1.77978 1.86815 1.14793 0.966125 1.02617 1.03005 1.02773 1.02679 1.03332 1.04271 1.05266 1.06116 1.04511 1.26906 1.05055 1.29496 1.04565 1.07768 0.96507 1.5839 1.87368 1.56685 1.13218 0.937465 0.96671 1.06113 1.03751 1.04292 1.03487 1.03548 1.0307 1.02527 1.02544 1.02479 1.02987 1.03671 1.04052 1.04803 1.04898 1.05147 1.05594 1.05643 1.06974 1.10142 1.09857 0.604388 0.739882 0.839179 1.22293 1.22134 0.978687 0.536474 0.54442 1.05251 1.09691 1.30944 1.01058 1.14008 0.672296 0.67913 1.08581 1.07251 1.04052 1.02717 1.01849 1.02882 1.04754 1.05235 1.04648 1.06463 0.92936 0.641285 1.02675 1.21589 1.18904 1.17626 1.07755 0.661034 0.561027 0.821668 0.941181 0.887365 0.77673 0.424924 0.575991 0.200527 0.919144 1.11739 1.08104 1.05771 1.04297 1.03201 1.01337 1.01593 1.0406 1.0566 1.04653 1.03575 0.985033 0.990582 0.913161 0.764907 0.790682 1.07904 1.18516 0.778111 0.582985 0.574849 0.575885 0.608766 0.740046 0.737964 0.571711 0.653829 0.362057 0.196516 0.226668 0.399495 0.787363 1.03852 1.09849 1.11428 1.05799 1.01982 1.01352 0.98973 1.0006 0.996559 1.02332 1.04691 1.05913 1.06749 1.05443 1.03336 1.02643 0.981202 0.927099 0.843492 0.760006 0.792779 0.908156 1.08908 1.07067 0.825158 0.62581 0.630383 0.599398 0.646721 0.713858 0.693481 0.686388 0.613503 0.479585 0.360565 0.311392 0.432668 0.968811 1.12804 1.09756 1.07951 1.03514 0.987495 0.967115 1.01431 1.07785 1.05048 0.987608 0.931661 0.894224 0.813921 0.837934 0.960693 0.948765 1.21826 1.04366 0.863348 0.682366 0.668109 0.6449 0.685718 0.670918 0.651243 0.686714 0.689204 0.651929 0.667981 0.643759 0.507485 0.535703 0.485709 0.622955 0.743319 1.01417 1.0167 1.05897 1.04416 1.04939 1.02046 1.00043 0.951506 0.947541 0.912472 0.963718 1.06233 1.07769 1.00731 0.949695 0.936592 0.896706 0.90128 0.90103 0.868847 0.84202 0.810636 0.763425 1.40009 0.97794 0.790511 0.724662 0.774666 0.711098 0.690846 0.671643 0.653803 0.61581 0.649432 0.66504 0.640904 0.667531 0.687073 0.721686 0.661367 0.620403 0.688896 0.609803 0.997275 1.01102 1.04146 0.97662 0.896024 0.921938 1.00313 1.10004 1.1074 1.08897 1.03734 0.96755 0.895756 0.893284 0.892502 0.835932 0.878626 0.900143 0.466092 1.5519 1.02277 0.884728 0.729784 0.70549 0.691969 0.677667 0.626262 0.498547 0.567834 0.648476 0.638156 0.62499 0.636691 0.626886 0.600566 0.643306 0.553529 0.625865 0.992202 0.76725 0.719751 0.707779 0.895747 1.02053 1.04662 1.06195 1.01503 0.914238 0.85564 1.01416 1.13424 0.991404 0.902624 0.884029 0.880473 0.890642 0.912245 0.915504 0.850121 0.849194 0.955294 0.820272 0.79426 1.56847 1.0352 0.82181 0.793 0.717524 0.70099 0.674095 0.666426 0.646239 0.609359 0.593045 0.482785 0.608101 0.666916 0.653112 0.625919 0.590727 0.574662 0.511323 0.408985 0.738547 0.755331 0.852005 0.97104 1.09188 1.01687 0.957269 0.874171 0.84327 0.807545 0.899696 1.05211 1.18551 1.0547 0.908646 0.901395 0.890576 0.875513 0.913604 0.884022 0.792503 0.763998 0.747204 0.817171 0.869578 0.419628 0.620782 0.752111 0.678594 0.674738 0.645226 0.626721 0.593638 0.577747 0.56738 0.547284 0.464176 0.480399 0.506673 0.569613 0.613048 0.617493 0.615183 0.605243 0.551192 0.580322 0.558185 0.509455 0.623955 0.75546 0.60491 0.663426 0.771416 0.964027 1.04505 1.12426 1.09196 0.926919 0.801248 0.91755 1.296 1.05717 0.857012 0.945475 0.89614 0.881426 0.887479 0.937383 0.773236 0.741718 0.742952 0.843493 0.799904 0.644603 0.676859 0.648848 0.652942 0.632006 0.61325 0.563731 0.554792 0.531788 0.448903 0.405798 0.442159 0.383951 0.535476 0.609702 0.618323 0.595311 0.519341 0.594738 0.634393 0.656486 0.601105 0.745172 0.876712 1.05576 1.07984 1.00854 0.888879 0.823564 0.811167 0.832946 1.19211 1.32726 0.902714 0.922671 0.945997 0.910725 0.889302 0.854612 0.830447 0.922504 1.01293 0.980668 0.465949 0.798141 0.792117 0.721271 0.677507 0.687087 0.648865 0.632886 0.637819 0.618567 0.602681 0.581821 0.554813 0.54244 0.535873 0.521674 0.523208 0.422918 0.475766 0.538279 0.29648 0.279729 0.601985 0.570702 0.6596 0.532445 0.599964 0.601803 0.515866 0.617473 0.711406 0.615795 0.589368 0.562857 0.96203 0.705493 1.11091 1.1011 0.933234 0.95772 0.872516 0.943155 1.21111 0.743313 0.927561 0.863207 1.06611 0.958321 0.96098 0.825765 0.807322 1.24793 0.622193 0.698459 0.714955 0.704071 0.65142 0.664362 0.655924 0.623273 0.593122 0.573648 0.531167 0.524782 0.515164 0.520847 0.523736 0.384246 0.450183 0.435752 0.544499 0.804942 1.31432 0.791046 0.508004 0.53155 0.498076 0.830009 0.678894 0.621017 0.51803 0.448781 0.921481 0.760558 0.784229 0.845539 1.01742 0.974163 0.917751 0.895378 0.393563 0.374234 0.797127 0.972917 0.987976 0.915363 0.794294 0.777637 0.740099 0.808779 1.1623 0.400158 0.567733 0.642 0.649286 0.662437 0.636686 0.642522 0.637129 0.62595 0.608824 0.607354 0.582368 0.565131 0.545067 0.510106 0.510406 0.508786 0.517826 0.525498 0.523524 0.344102 0.359531 0.364545 0.397803 0.393692 0.421058 0.407042 1.14002 0.41992 0.475958 0.476979 0.32405 0.825931 0.552996 0.54173 0.509778 0.513393 0.823299 0.783373 0.791116 1.04024 0.791049 0.985816 0.986673 0.774463 0.586654 0.312595 0.104094 0.56134 0.776733 0.938335 0.95907 1.03217 0.967377 0.759832 0.86191 0.934515 0.721254 0.675315 0.660477 0.639257 0.625805 0.616336 0.617322 0.609828 0.591582 0.593446 0.555217 0.534707 0.517163 0.500031 0.498062 0.51762 0.52255 0.499449 0.413218 0.338568 0.357623 0.334955 0.355252 0.308614 0.334952 0.342599 0.286665 0.748816 0.905449 0.453047 0.455292 0.436483 0.369814 0.514821 0.67252 0.595566 0.543342 0.520641 0.754726 0.819335 0.882216 0.80109 0.871452 0.922693 0.848625 0.653383 0.279768 0.317484 0.485023 0.627824 0.656876 0.73693 0.691407 1.11607 0.801205 0.766252 0.777012 0.391203 0.69496 0.67079 0.666773 0.648318 0.621361 0.610982 0.601393 0.601439 0.594068 0.582757 0.572584 0.563403 0.539229 0.514725 0.488396 0.504792 0.519618 0.527374 0.519036 0.469604 0.288621 0.316436 0.340507 0.347235 0.347972 0.313736 0.307558 0.0741097 0.053316 0.621692 0.568017 0.51672 0.47381 0.490116 0.551527 0.623278 0.580075 0.543278 0.541718 0.72311 0.806421 0.848504 0.794597 0.859952 0.672078 0.244326 1.05847 0.699153 0.77019 0.48054 0.40087 0.577678 0.675125 0.955588 1.13653 1.08012 0.894928 0.944868 0.727109 0.58799 0.673998 0.646332 0.633547 0.608667 0.597673 0.590078 0.586857 0.589506 0.576955 0.560814 0.527812 0.498524 0.474786 0.503249 0.523363 0.528097 0.485399 0.287446 0.153189 0.256269 0.280218 0.301407 0.326817 0.347858 0.318357 0.317037 0.278612 0.29937 0.118757 0.113403 0.311876 0.547818 0.518567 0.504617 0.531733 0.616264 0.58315 0.571975 0.632905 0.708695 0.714972 0.62921 0.449356 0.923156 0.777904 0.701814 0.607841 0.451238 0.49271 0.50545 0.636427 0.811878 0.819579 0.845831 0.613056 1.10565 1.10783 0.658044 0.66358 0.65822 0.634428 0.615883 0.596903 0.588266 0.584118 0.580132 0.571348 0.570609 0.514226 0.509444 0.544878 0.529728 0.531508 0.245272 0.144987 0.454333 0.235525 0.289412 0.28776 0.330662 0.309675 0.287136 0.222888 0.222587 0.190999 0.263477 0.553239 0.554024 0.535008 0.55639 0.566208 0.577279 0.591736 0.60582 0.604533 0.625792 0.682527 0.751943 0.785265 0.573316 0.440845 0.0320562 0.418296 0.823208 0.740956 0.559371 0.548368 0.574386 0.63621 0.719593 0.750779 0.276263 0.209922 0.737478 0.654764 0.673296 0.658598 0.641685 0.619556 0.600547 0.589294 0.581617 0.576307 0.571828 0.569334 0.567811 0.602848 0.500603 0.453575 0.562487 0.570266 0.627344 0.587383 0.547399 0.458117 0.334577 1.00854 1.07688 1.08305 1.3943 0.193069 0.205259 0.25359 0.245913 0.290684 0.294019 0.292476 0.291135 0.267435 0.271709 0.250031 0.373458 0.417081 0.57282 0.565805 0.572502 0.575147 0.570134 0.569802 0.570553 0.592759 0.654543 0.703973 0.727384 0.727736 0.682855 0.247273 0.406689 0.62981 0.785245 0.716064 0.658796 0.563507 0.591592 0.666957 0.627764 0.535165 0.449247 0.740728 0.86518 0.357357 0.479647 0.573121 0.612809 0.620037 0.609587 0.597939 0.578671 0.568822 0.560957 0.558393 0.560592 0.570217 0.486276 0.590088 0.738417 0.971308 0.841113 0.425212 0.805641 1.3662 0.148726 0.143885 0.226533 0.258138 0.267235 0.297029 0.301412 0.319539 0.324818 0.248333 0.384288 0.520358 0.609278 0.588372 0.58908 0.584332 0.576807 0.57206 0.562596 0.558509 0.608485 0.737981 0.684976 0.649461 0.588358 0.495706 0.5694 0.687347 0.649291 0.610863 0.601329 0.583318 0.600774 0.610484 0.595053 0.610429 0.465769 0.942154 0.800909 0.331935 0.263184 0.483752 0.552493 0.583269 0.591302 0.587879 0.586308 0.575636 0.562376 0.551915 0.546349 0.545415 0.551052 0.580927 0.699285 0.129292 0.477573 0.571448 0.795459 1.11813 0.734469 0.984093 0.652363 0.388726 0.89247 1.21433 2.6842 1.11032 1.08795 0.0969796 0.109008 0.0957548 0.144476 0.196491 0.254469 0.292293 0.313698 0.305145 0.313202 0.323764 0.33121 0.223872 0.501681 0.507137 0.583727 0.630341 0.602339 0.592681 0.579591 0.574171 0.570669 0.565271 0.562095 0.667891 0.763196 0.662594 0.599516 0.566482 0.537457 0.405785 0.452345 0.685575 0.618937 0.602379 0.590601 0.544242 0.35458 0.696094 0.55997 0.38569 0.388113 0.507152 0.552876 0.574091 0.582048 0.569764 0.557024 0.545824 0.538476 0.532795 0.525063 0.512305 0.492947 0.698103 0.206925 0.261124 0.947407 1.72155 1.86932 1.00692 0.655401 0.634023 1.09082 1.80368 0.734334 0.743133 0.0912448 0.0720016 0.102187 0.221485 0.279297 0.291664 0.314166 0.32007 0.333276 0.333709 0.286975 0.144488 0.498827 0.607911 0.587125 0.588349 0.579145 0.573936 0.578988 0.586619 0.596857 0.617775 0.868984 0.777578 0.563125 0.538067 0.531298 0.500661 0.504558 0.477265 0.505803 0.662722 0.620236 0.616239 0.62591 0.600336 0.554116 0.477205 0.744965 0.626904 0.596661 0.514267 0.457483 0.477844 0.536222 0.580049 0.574475 0.56413 0.552119 0.541994 0.535774 0.532331 0.529486 0.526125 0.516357 0.585334 0.38912 0.290465 0.144814 1.44639 0.980995 0.82438 0.726605 0.840055 0.974478 0.453383 0.475985 0.48151 0.285791 0.0753559 0.0576244 0.0632973 0.099284 0.180971 0.248018 0.304921 0.317408 0.324094 0.338662 0.328088 0.341008 0.247474 0.583435 0.453179 0.593287 0.593256 0.520662 0.854953 0.646762 0.544271 0.534182 0.53413 0.535165 0.533235 0.541539 0.60632 0.630648 0.612426 0.601777 0.607101 0.575356 0.518842 0.549118 0.689833 0.607587 0.566118 0.54444 0.516017 0.510183 0.563048 0.572693 0.569105 0.55969 0.548465 0.539667 0.533723 0.531879 0.534483 0.541815 0.553336 0.567897 0.462818 0.31702 0.172156 0.832198 0.825551 0.66292 0.52913 0.604425 0.740923 0.599028 0.100425 0.310563 0.224363 0.299816 0.175739 0.168846 0.100624 0.0659804 0.0984346 0.15474 0.172331 0.226772 0.279373 0.296539 0.307954 0.31938 0.355151 0.36769 0.336088 0.342264 0.398532 0.21488 0.495275 0.589127 0.545296 0.550391 0.564512 0.566163 0.572514 0.583394 0.516047 0.436583 0.736897 0.568733 0.560697 0.558356 0.557162 0.565518 0.588141 0.607002 0.618195 0.616283 0.637893 0.592473 0.579675 0.559288 0.653571 0.60561 0.566958 0.548772 0.536928 0.531647 0.558095 0.567655 0.566218 0.558821 0.549587 0.539076 0.532708 0.529698 0.531713 0.543861 0.569395 0.607879 0.531348 0.384946 0.278727 0.119341 0.739 0.471553 0.428884 0.301049 0.330666 0.492344 0.172055 0.114281 0.131957 0.17672 0.104706 0.162688 0.105023 0.108012 0.0925905 0.128316 0.230202 0.281964 0.311041 0.322826 0.399124 0.376563 0.351388 0.314437 0.315306 0.391592 0.500764 0.555542 0.542 0.549535 0.557671 0.564115 0.571737 0.576083 0.567186 0.618087 0.585023 0.564899 0.581434 0.583212 0.591143 0.603058 0.614658 0.618731 0.613356 0.616066 0.603496 0.55246 0.600838 0.561363 0.595937 0.601975 0.574073 0.537473 0.544663 0.557325 0.56603 0.565935 0.561482 0.554835 0.546075 0.533994 0.52782 0.422047 0.377259 0.31088 0.481604 0.63953 0.568914 0.450894 0.34596 0.323675 0.344557 0.160518 0.146976 0.0529188 0.107839 0.0772957 0.0615576 0.0231873 0.0825699 0.141828 0.158801 0.106342 0.173941 0.263219 0.302592 0.343232 0.360162 0.323599 0.463969 0.344971 0.440275 0.5051 0.521993 0.556862 0.555423 0.551853 0.554554 0.559966 0.562902 0.560645 0.550297 0.515793 0.450438 0.391092 0.590523 0.5939 0.588692 0.583791 0.615128 0.619211 0.617076 0.614488 0.610838 0.584277 0.581598 0.58042 0.579176 0.553876 0.545556 0.547924 0.55616 0.561375 0.566573 0.56752 0.564877 0.561841 0.557818 0.526464 0.535001 0.563072 0.604987 0.648813 0.541257 0.471535 0.440582 0.451991 0.629016 0.529623 0.505993 0.437696 0.389639 0.342526 0.248913 0.142692 0.0664554 0.0787952 0.017253 0.0541884 0.0695983 0.0961021 0.119935 0.101106 0.128561 0.159462 0.112109 0.111123 0.21298 0.323424 0.344645 0.343371 0.369166 0.303441 0.382747 0.419059 0.444694 0.524803 0.557036 0.559291 0.5569 0.556011 0.557825 0.555572 0.544515 0.522011 0.481085 0.44143 0.487128 0.575728 0.598364 0.600621 0.599172 0.599878 0.602711 0.608465 0.583312 0.57977 0.564053 0.552159 0.554857 0.560673 0.565637 0.568638 0.569354 0.568037 0.567364 0.549544 0.532769 0.525041 0.530327 0.552753 0.594984 0.667921 0.446305 0.498377 0.472437 0.470659 0.559822 0.552065 0.506126 0.4803 0.427621 0.385774 0.309152 0.236115 0.219533 0.148242 0.123338 0.0497835 0.186809 0.144256 0.646488 0.0606582 0.0562017 0.188596 0.0606898 0.145118 0.16348 0.237473 0.153463 0.334725 0.348254 0.370536 0.350984 0.349923 0.224075 0.371728 0.412425 0.430482 0.428409 0.42428 0.449968 0.483449 0.522113 0.55442 0.559829 0.558073 0.556949 0.555339 0.546676 0.530477 0.505903 0.476526 0.482935 0.521264 0.581187 0.602474 0.606643 0.609794 0.611568 0.61429 0.617666 0.619903 0.619388 0.616748 0.611597 0.59913 0.589818 0.582354 0.581487 0.579023 0.578069 0.569308 0.561747 0.560756 0.565117 0.568705 0.570797 0.571328 0.568511 0.568802 0.560888 0.533852 0.534895 0.56132 0.59772 0.687547 0.320276 0.391397 0.437658 0.455621 0.482463 0.515208 0.510569 0.480218 0.453299 0.425086 0.34574 0.273539 0.243096 0.213887 0.212852 0.56618 0.477081 0.518452 0.532183 0.0540168 0.0560904 0.0570092 0.0678961 0.181779 0.322697 0.203651 0.309449 0.3884 0.387357 0.319401 0.252875 0.36078 0.450933 0.396818 0.417085 0.429204 0.458666 0.475704 0.499301 0.533483 0.557513 0.560423 0.558696 0.556245 0.549672 0.53811 0.52801 0.501785 0.487635 0.509467 0.550188 0.587665 0.604148 0.61107 0.616124 0.618701 0.620531 0.6214 0.620772 0.618701 0.614476 0.606258 0.598176 0.590016 0.584438 0.581937 0.578377 0.573762 0.569513 0.568763 0.570465 0.572254 0.5704 0.570581 0.573531 0.578031 0.582376 0.580647 0.547039 0.586984 0.619405 0.672238 0.191345 0.481493 0.473195 0.450556 0.425529 0.394116 0.361019 0.316124 0.268326 0.270963 0.292497 0.605701 0.614722 0.364574 0.417393 0.422485 0.3464 0.13243 0.0596995 0.04143 0.19615 0.19435 0.158656 0.126661 0.424682 0.442993 0.348674 0.452494 0.330775 0.257721 0.310911 0.376269 0.406066 0.398151 0.425042 0.455483 0.470978 0.487488 0.489761 0.507703 0.536599 0.568395 0.59318 0.609167 0.617345 0.621094 0.622742 0.623286 0.622548 0.620592 0.617271 0.611743 0.605137 0.597767 0.591029 0.586552 0.582546 0.578577 0.57695 0.576476 0.573503 0.573392 0.572643 0.572306 0.573958 0.577984 0.583929 0.594684 0.615339 0.623211 0.653066 0.668507 0.259279 0.342881 0.413393 0.448337 0.469041 0.453418 0.441579 0.421639 0.394675 0.342114 0.305022 0.29499 0.36688 0.596981 0.320084 0.298684 0.120524 0.312394 0.328257 0.292341 0.174828 0.0779865 0.127674 0.239697 0.162159 0.238591 0.267437 0.549471 0.643367 0.48673 0.358251 0.292506 0.297387 0.32974 0.365605 0.389655 0.409567 0.442276 0.465608 0.519439 0.542065 0.555684 0.560935 0.559253 0.553411 0.54668 0.539917 0.537447 0.624324 0.622828 0.620146 0.616095 0.611054 0.604893 0.598559 0.593081 0.576485 0.577076 0.576939 0.576477 0.575444 0.574586 0.574613 0.576244 0.57922 0.584093 0.598738 0.652956 0.731698 0.269446 0.19557 0.256344 0.355966 0.4126 0.43499 0.450198 0.428736 0.413921 0.39299 0.373919 0.346899 0.384958 0.553492 0.441782 0.129195 0.23604 0.300159 0.238821 0.276039 0.297364 0.251865 0.208574 0.158813 0.218771 0.306209 0.321622 0.242791 0.305248 0.386562 0.421415 0.676043 0.37559 0.292513 0.31112 0.324525 0.337168 0.364868 0.396478 0.481914 0.506272 0.530474 0.551589 0.563305 0.56376 0.560781 0.556993 0.552425 0.551357 0.574052 0.500871 0.533885 0.55947 0.583716 0.605225 0.615945 0.621204 0.623848 0.624731 0.588396 0.584933 0.583015 0.582496 0.582484 0.582109 0.581517 0.580595 0.579508 0.57841 0.577906 0.578173 0.579142 0.580632 0.590548 0.623517 0.643073 0.701896 0.455518 0.379975 0.192991 0.322212 0.388497 0.417483 0.429732 0.433684 0.411262 0.395275 0.369822 0.354219 0.340519 0.416001 0.491976 0.353284 0.242836 0.324726 0.209087 0.230417 0.291277 0.290407 0.301205 0.258438 0.129914 0.26771 0.196977 0.286108 0.377821 0.334135 0.371047 0.409698 0.468291 0.365935 0.717191 0.346699 0.327923 0.305755 0.347857 0.34878 0.427543 0.450367 0.473873 0.499438 0.528116 0.550897 0.56492 0.568967 0.56954 0.567751 0.564027 0.562859 0.573231 0.593517 0.520852 0.5559 0.58219 0.600021 0.613413 0.619848 0.623692 0.625403 0.625607 0.624732 0.622854 0.62001 0.616182 0.611285 0.605913 0.600601 0.595783 0.592098 0.589718 0.58845 0.587897 0.587517 0.586764 0.58568 0.584571 0.583411 0.582569 0.582732 0.584138 0.850833 0.683074 0.678087 0.689013 0.293931 0.375956 0.403254 0.417829 0.420574 0.419369 0.374396 0.360418 0.380524 0.402239 0.520963 0.599209 0.456731 0.56822 0.423716 0.540955 0.399653 0.339993 0.302727 0.242501 0.299204 0.121138 0.18334 0.163526 0.175753 0.153924 0.239895 0.31549 0.402068 0.382529 0.37927 0.34344 0.0990185 0.559117 0.581371 0.45424 0.37246 0.369391 0.373603 0.346913 0.378815 0.412512 0.434338 0.461464 0.497038 0.526188 0.551127 0.56622 0.574049 0.577234 0.578492 0.575657 0.573563 0.577711 0.589377 0.547235 0.578553 0.598508 0.610458 0.618059 0.622636 0.625355 0.626325 0.626142 0.625109 0.623298 0.62064 0.617011 0.612743 0.60821 0.603833 0.600096 0.597295 0.595406 0.59418 0.59332 0.592494 0.591439 0.590305 0.586204 0.592956 0.614173 0.634053 0.58762 0.61325 0.568732 0.455789 0.365524 0.380117 0.396263 0.411547 0.41567 0.413691 0.411189 0.399438 0.373751 0.387233 0.401605 0.415881 0.666452 0.586851 0.724034 0.659067 0.730617 0.487163 0.422526 0.197656 0.295591 0.298246 0.295225 0.104825 0.184097 0.157619 0.24986 0.213705 0.460074 0.435309 0.451023 0.375369 0.333954 0.387747 0.462417 0.490449 0.42839 0.414708 0.349931 0.361572 0.392881 0.423495 0.458238 0.49305 0.522955 0.54906 0.568124 0.606645 0.573086 0.596451 0.609461 0.616588 0.621571 0.624913 0.626635 0.627201 0.626893 0.62593 0.624309 0.621911 0.618829 0.615288 0.6116 0.608129 0.605194 0.602905 0.601132 0.589277 0.588378 0.588647 0.590714 0.594414 0.60091 0.618795 0.638138 0.64559 0.719194 0.370122 0.395672 0.406678 0.412573 0.413715 0.415211 0.413205 0.400089 0.37633 0.397067 0.4122 0.48033 0.563115 0.888344 0.845809 0.798455 0.431854 0.613707 0.218199 0.194666 0.210754 0.29327 0.300872 0.170052 0.216996 0.200818 0.348873 0.880279 0.464639 0.496501 0.441435 0.403653 0.313976 0.554018 0.478919 0.504177 0.497187 0.406039 0.373768 0.361608 0.384059 0.415968 0.454767 0.490165 0.520906 0.578864 0.586277 0.588696 0.587172 0.584453 0.584971 0.590004 0.600115 0.615115 0.596367 0.610899 0.61631 0.621234 0.599728 0.598573 0.597454 0.59631 0.595363 0.594837 0.595429 0.597886 0.602727 0.610532 0.625643 0.646443 0.666582 0.694115 0.646677 0.526169 0.405402 0.344961 0.409898 0.416559 0.420501 0.427543 0.426297 0.399971 0.413893 0.469677 0.976617 0.891948 0.402945 0.332598 0.179574 0.196483 0.185898 0.196156 0.284502 0.290043 0.167838 0.292803 0.238545 0.349806 0.694817 0.669626 0.556175 0.567225 0.368062 0.371864 0.60298 0.536253 0.461323 0.439206 0.408188 0.388063 0.390969 0.415993 0.446725 0.482917 0.5473 0.568942 0.584593 0.593341 0.598267 0.597952 0.595624 0.593962 0.594513 0.597907 0.605664 0.624328 0.624724 0.626916 0.62803 0.628345 0.628108 0.627348 0.625957 0.623944 0.621418 0.618531 0.615527 0.612707 0.61026 0.60817 0.606358 0.604808 0.603501 0.60243 0.601775 0.601647 0.602192 0.604481 0.609406 0.617678 0.63049 0.648454 0.667269 0.679804 0.653342 0.575903 0.466649 0.389708 0.369153 0.383056 0.402574 0.427249 0.434542 0.440587 0.437037 0.419719 0.408118 0.476873 0.574733 0.802444 0.652134 0.413647 0.0811124 0.15887 0.160762 0.117046 0.149892 0.332248 0.483414 0.90223 0.863543 0.658914 0.647005 0.556972 0.30386 0.35935 0.52333 0.501876 0.478733 0.434822 0.41407 0.408654 0.418516 0.517344 0.5466 0.569954 0.587474 0.599083 0.605876 0.607889 0.606921 0.604441 0.602483 0.601627 0.602421 0.607635 0.618464 0.618336 0.622454 0.625561 0.627732 0.629043 0.629835 0.630126 0.629972 0.62932 0.628159 0.626509 0.624414 0.622004 0.619499 0.617107 0.61492 0.612908 0.611077 0.609544 0.608412 0.607768 0.607812 0.60877 0.61131 0.61619 0.623988 0.634389 0.648703 0.664136 0.671559 0.656389 0.609685 0.53923 0.47033 0.426058 0.408011 0.413249 0.421174 0.422284 0.452148 0.4496 0.450699 0.431847 0.425761 0.750908 0.78315 0.195563 0.13806 0.0897531 0.0218452 0.173325 0.21155 0.55922 0.584428 0.816236 0.633905 0.623039 0.573377 0.258089 0.55032 0.525634 0.524386 0.497365 0.46899 0.433375 0.422759 0.44337 0.473104 0.510271 0.544089 0.570958 0.592494 0.60629 0.615226 0.618967 0.618898 0.61628 0.612672 0.609759 0.607691 0.641669 0.625373 0.627326 0.628617 0.629928 0.631007 0.6318 0.632302 0.63246 0.632279 0.631727 0.630772 0.629372 0.627572 0.625511 0.62335 0.621221 0.619173 0.617224 0.615481 0.614179 0.61357 0.613807 0.614974 0.583295 0.525252 0.478648 0.448653 0.437437 0.43496 0.431971 0.433434 0.441887 0.465279 0.458325 0.449296 0.460319 0.485085 0.730152 0.677713 0.0906132 0.0228558 0.0677245 0.165072 0.147925 0.853382 0.778528 0.658792 0.654499 0.444899 0.388928 0.544145 0.522902 0.520682 0.489439 0.456605 0.425628 0.44021 0.467869 0.503295 0.538886 0.57184 0.597817 0.616718 0.60681 0.610165 0.645568 0.63842 0.635559 0.634722 0.634614 0.634761 0.634971 0.635127 0.635153 0.634976 0.634513 0.633673 0.632434 0.630852 0.629023 0.627069 0.625099 0.617306 0.621336 0.62805 0.637946 0.649377 0.660641 0.66653 0.659171 0.630427 0.472842 0.457135 0.451579 0.448259 0.449859 0.453396 0.465184 0.449137 0.435406 0.4599 0.731877 0.630541 0.0736942 0.0194288 0.237509 0.130947 0.788814 0.59017 0.675657 0.309723 0.460248 0.551734 0.531739 0.510102 0.434754 0.432177 0.435028 0.459825 0.495253 0.532263 0.570474 0.628723 0.632254 0.632013 0.62924 0.624563 0.619636 0.615742 0.612668 0.609434 0.592772 0.658999 0.648166 0.643214 0.623173 0.621342 0.619784 0.618877 0.618981 0.620205 0.622784 0.627138 0.632954 0.64069 0.6497 0.65824 0.662545 0.657724 0.640883 0.610656 0.572452 0.532097 0.494569 0.481953 0.475364 0.467129 0.461258 0.462475 0.470063 0.459359 0.426265 0.689229 0.697595 0.137854 0.266091 0.266445 0.727015 0.925769 0.57055 0.417 0.64147 0.514805 0.481587 0.454353 0.438653 0.433829 0.444939 0.479373 0.518405 0.603046 0.626248 0.640069 0.646469 0.646516 0.642735 0.637447 0.631309 0.625084 0.619816 0.614218 0.6021 0.582343 0.64066 0.639296 0.638594 0.638316 0.638241 0.638192 0.63802 0.637589 0.636816 0.635692 0.634245 0.632539 0.630685 0.628812 0.62702 0.62539 0.624156 0.623804 0.624675 0.626775 0.630546 0.63639 0.643974 0.652565 0.660456 0.664207 0.660408 0.647593 0.62548 0.599449 0.570169 0.539771 0.515716 0.496496 0.486581 0.473852 0.463445 0.461311 0.454582 0.441747 0.438872 0.674261 0.684336 0.631154 0.0905606 0.213564 0.383955 0.726625 0.664933 0.650927 0.599047 0.580942 0.538458 0.526746 0.50426 0.481638 0.457012 0.436141 0.433444 0.453174 0.567253 0.605995 0.635246 0.653094 0.659245 0.660311 0.656779 0.650601 0.643533 0.635635 0.628002 0.620694 0.61056 0.595358 0.572096 0.667358 0.656534 0.649971 0.646055 0.643728 0.642425 0.641822 0.641603 0.641512 0.641341 0.640927 0.640187 0.639105 0.637696 0.636024 0.634216 0.632434 0.630794 0.629387 0.628543 0.628845 0.630507 0.633411 0.637985 0.644386 0.65217 0.660332 0.667058 0.668147 0.661069 0.644538 0.621224 0.595277 0.573617 0.55311 0.531543 0.514462 0.498928 0.475826 0.462747 0.45296 0.438038 0.430606 0.423214 0.672833 0.692756 0.634508 0.0339297 0.309548 0.180845 0.192257 0.864053 0.729312 0.641856 0.618292 0.561482 0.523731 0.533213 0.523917 0.504207 0.483656 0.447973 0.49523 0.549521 0.607959 0.644313 0.66842 0.675561 0.674868 0.670633 0.663535 0.655031 0.646117 0.673885 0.662649 0.655342 0.650704 0.647819 0.646191 0.645427 0.645159 0.645063 0.644891 0.644482 0.643725 0.642592 0.641128 0.63942 0.637634 0.635966 0.634533 0.63342 0.632976 0.627123 0.605274 0.584541 0.563693 0.540942 0.521577 0.503428 0.488198 0.441467 0.423157 0.410512 0.289614 0.401297 0.760711 0.749978 0.544809 0.538258 0.539105 0.527121 0.50641 0.433131 0.432018 0.449196 0.525063 0.598021 0.648718 0.681541 0.63693 0.628046 0.618318 0.605774 0.588318 0.564988 0.678072 0.666823 0.659338 0.654469 0.651455 0.649803 0.649066 0.64884 0.648774 0.648607 0.633805 0.636082 0.639624 0.644539 0.650833 0.657415 0.663791 0.66798 0.66818 0.661479 0.647334 0.572443 0.550561 0.52858 0.509697 0.490815 0.472112 0.456545 0.405465 0.679431 0.652707 0.66831 0.499483 0.793582 0.638534 0.674009 0.594706 0.554524 0.554103 0.481072 0.43132 0.426918 0.417908 0.436593 0.690546 0.691768 0.685052 0.6756 0.665827 0.655743 0.645658 0.635821 0.625878 0.614639 0.600638 0.58306 0.561744 0.648151 0.647303 0.646053 0.64447 0.642693 0.640922 0.639366 0.638163 0.637416 0.637432 0.63869 0.641285 0.645014 0.649844 0.655257 0.660418 0.664254 0.666176 0.664865 0.659409 0.64898 0.633624 0.614053 0.592782 0.56548 0.540262 0.511674 0.484363 0.460614 0.445426 0.427344 0.679627 0.664316 0.63469 0.430964 0.894531 0.733918 0.781634 0.697454 0.628113 0.589337 0.54671 0.529328 0.50808 0.475678 0.418819 0.414773 0.395292 0.607987 0.638472 0.694716 0.704996 0.703311 0.699588 0.687513 0.675575 0.664698 0.653876 0.643393 0.63341 0.623 0.611019 0.596813 0.580476 0.562761 0.680434 0.66948 0.661998 0.657246 0.654503 0.65314 0.652632 0.652577 0.652595 0.652383 0.651802 0.650797 0.649373 0.647631 0.645774 0.644045 0.642636 0.641674 0.641273 0.641713 0.643348 0.646085 0.64965 0.653927 0.658216 0.661785 0.663874 0.663864 0.661721 0.656547 0.647925 0.635932 0.621332 0.604529 0.587119 0.53884 0.502924 0.468854 0.446798 0.435513 0.417067 0.667405 0.665239 0.644489 0.588809 0.778378 0.678894 0.722469 0.599375 0.584001 0.571839 0.568432 0.557601 0.531445 0.499486 0.45956 0.796275 0.729488 0.706508 0.72159 0.714493 0.70819 0.698812 0.684939 0.672411 0.661315 0.650986 0.641057 0.631138 0.620431 0.608292 0.594849 0.580709 0.567229 0.681616 0.670932 0.663487 0.659048 0.65686 0.656096 0.65608 0.656308 0.656409 0.656109 0.655308 0.654062 0.652433 0.650533 0.648603 0.646935 0.645717 0.645054 0.645013 0.645798 0.647628 0.650356 0.653683 0.65718 0.660477 0.662762 0.663815 0.663516 0.661252 0.65652 0.650662 0.643203 0.633541 0.621121 0.604774 0.576004 0.456554 0.441696 0.429418 0.606992 0.782623 1.03241 0.844213 0.809642 0.591035 0.583155 0.566997 0.525744 0.501264 0.512974 0.458549 0.728775 0.725282 0.729008 0.71745 0.681936 0.671459 0.664182 0.66016 0.658704 0.658767 0.659413 0.659982 0.660097 0.659608 0.65853 0.656975 0.655114 0.653079 0.654416 0.645548 0.633268 0.611625 0.573643 0.524225 0.485711 0.660568 0.653972 0.646845 0.746831 0.284396 0.753636 0.58575 0.583759 0.612081 0.604468 0.410399 0.500053 0.833445 0.813466 0.706374 0.69292 0.679987 0.668584 0.658231 0.648561 0.639034 0.629214 0.61859 0.606878 0.594966 0.583543 0.573593 0.651127 0.649542 0.648523 0.648184 0.648562 0.649728 0.651688 0.654304 0.657293 0.660258 0.662651 0.664307 0.665174 0.665325 0.66449 0.660583 0.65895 0.639864 0.615029 0.572843 0.519744 0.463012 0.450994 0.440284 0.655298 0.64484 0.642472 0.6315 0.838664 0.812163 0.769589 0.583224 0.582107 0.576224 0.507958 0.519539 0.384376 0.852329 0.748643 0.73723 0.727084 0.713386 0.70123 0.687816 0.67554 0.664923 0.655731 0.646767 0.637793 0.628421 0.618086 0.607427 0.597233 0.588634 0.581318 0.681077 0.671261 0.664715 0.661352 0.660696 0.661573 0.662857 0.663579 0.66349 0.662683 0.661265 0.659404 0.657313 0.655189 0.653277 0.651825 0.651027 0.651 0.651796 0.653387 0.655603 0.658217 0.660977 0.663562 0.665557 0.666612 0.668018 0.669634 0.670255 0.668924 0.668478 0.66241 0.650585 0.560349 0.461633 0.45741 0.451205 0.647953 0.645123 0.645449 0.641519 0.716081 0.823058 0.493296 0.800249 0.774981 0.748592 0.651384 0.63699 0.595144 0.47057 0.535975 0.798464 0.836831 0.805888 0.759018 0.740367 0.725288 0.70937 0.695383 0.682647 0.671985 0.66259 0.654033 0.646053 0.637932 0.62883 0.619098 0.60938 0.601024 0.595154 0.591059 0.678628 0.670224 0.665453 0.663435 0.663711 0.665212 0.666505 0.666953 0.666406 0.665147 0.663351 0.66122 0.658971 0.656807 0.654987 0.65373 0.653198 0.653518 0.654714 0.656693 0.659255 0.662103 0.66495 0.667435 0.669118 0.669687 0.672475 0.676279 0.678548 0.680216 0.676826 0.664492 0.654593 0.64989 0.62487 0.470868 0.445809 0.465028 0.68435 0.685782 0.812312 0.799436 0.795653 0.706422 0.713707 0.815202 0.685543 0.635422 0.631993 0.500963 0.845989 0.838715 0.820843 0.794886 0.761626 0.739854 0.720053 0.703255 0.689806 0.679454 0.674873 0.668071 0.665958 0.666765 0.668334 0.669626 0.670236 0.669841 0.668634 0.666877 0.664699 0.662333 0.660012 0.657886 0.656219 0.65521 0.655015 0.655725 0.68426 0.688697 0.69276 0.683633 0.665106 0.663046 0.66724 0.649999 0.647123 0.634038 0.720233 0.77028 0.727647 0.680313 0.741302 0.765774 0.64641 0.677811 0.79132 0.807941 0.855208 0.814587 0.810256 0.785115 0.670824 0.662003 0.653773 0.646248 0.638321 0.629663 0.620274 0.611993 0.606205 0.602472 0.602602 0.670062 0.657329 0.659726 0.662661 0.665881 0.66905 0.671718 0.673288 0.672507 0.679871 0.672448 0.681044 0.687971 0.766763 0.447087 0.455078 0.861407 0.8412 0.76061 0.802783 0.860129 0.875394 0.87787 0.887642 0.842044 0.819735 0.806853 0.720686 0.893792 0.826708 0.807336 0.760125 0.734612 0.713212 0.698217 0.687642 0.679426 0.671936 0.663111 0.654221 0.646273 0.638637 0.630375 0.622196 0.616213 0.611927 0.610397 0.614084 0.66571 0.667328 0.671069 0.673649 0.674141 0.673438 0.671946 0.669981 0.667743 0.665262 0.66275 0.660402 0.658383 0.656958 0.656289 0.65641 0.657524 0.659653 0.662551 0.665929 0.669531 0.673042 0.675998 0.677419 0.676952 0.687562 0.695401 0.699743 0.704586 0.689106 0.83221 0.453942 0.829333 0.843181 0.852449 0.865594 0.870401 0.866431 0.840655 0.776545 0.817511 0.684694 0.732898 0.588667 0.788039 0.800034 0.779277 0.754524 0.72776 0.707632 0.699059 0.690496 0.681868 0.671931 0.663221 0.654767 0.646883 0.639201 0.631412 0.625548 0.62005 0.616803 0.619515 0.627769 0.664629 0.666026 0.67126 0.676271 0.677705 0.6772 0.675398 0.672964 0.670344 0.667702 0.66501 0.662433 0.660167 0.658435 0.657257 0.656768 0.657298 0.658936 0.661665 0.665164 0.669027 0.672978 0.676763 0.680074 0.682446 0.682131 0.697769 0.707861 0.715275 0.710609 0.699158 0.691414 0.705375 0.762554 0.858913 0.842125 0.841142 0.82396 0.714748 0.712286 0.793435 0.771323 0.702454 0.662293 0.720849 0.716238 0.833982 0.827948 0.797352 0.795455 0.77143 0.746256 0.720371 0.703717 0.710204 0.69899 0.678288 0.670076 0.662603 0.654521 0.622716 0.623905 0.629334 0.646503 0.660702 0.669478 0.679064 0.679997 0.679305 0.677877 0.67562 0.672681 0.669664 0.666744 0.663928 0.661523 0.659587 0.657943 0.656858 0.656679 0.657744 0.660005 0.66343 0.667529 0.671863 0.676183 0.68039 0.683487 0.690062 0.691002 0.704541 0.724478 0.730205 0.708227 0.72042 0.714239 0.746239 0.809756 0.858369 0.911957 0.878712 0.845709 0.845232 0.838545 0.831847 0.825699 0.900507 0.912468 0.845565 0.852831 0.876442 0.666473 0.738313 0.830531 0.802804 0.796616 0.784735 0.759658 0.647381 0.63989 0.633672 0.627355 0.660041 0.680538 0.713318 0.72206 0.740703 0.81774 0.886846 0.893833 0.840777 0.838296 0.833992 0.834646 0.840161 0.867843 0.807752 0.805999 0.728184 0.752434 0.736018 0.71289 0.699715 0.735323 0.691423 0.676767 0.668504 0.660452 0.653867 0.647299 0.641177 0.634952 0.629294 0.628297 0.630435 0.653446 0.674308 0.682445 0.680547 0.678432 0.676534 0.674091 0.671087 0.667933 0.66498 0.662445 0.660264 0.658241 0.656472 0.65596 0.656479 0.657699 0.660886 0.665024 0.669665 0.674404 0.679199 0.682095 0.691769 0.699721 0.699026 0.721182 0.740655 0.859113 0.875242 0.893832 0.894888 0.89464 0.893832 0.893832 0.81471 0.806775 0.817824 0.808825 0.717475 0.767818 0.927436 0.852071 0.848366 0.845268 0.825602 0.806111 0.802806 0.80161 0.822001 0.789005 0.785774 0.776804 0.770418 0.766916 0.761796 0.756346 0.748486 0.739635 0.731416 0.710984 0.710541 0.72846 0.679211 0.680638 0.679107 0.677769 0.67589 0.673586 0.671168 0.668449 0.665598 0.662894 0.660394 0.658064 0.655845 0.653927 0.65668 0.654864 0.657683 0.661685 0.666474 0.671584 0.676611 0.679536 0.690322 0.700828 0.707568 0.719369 0.748917 0.79608 0.789612 0.790034 0.797844 0.901109 0.924884 0.825263 0.874137 0.890257 0.866093 0.86375 0.858953 0.859183 0.860422 0.896631 0.89406 0.896049 0.897607 0.894849 0.894645 0.741415 0.784821 0.902848 0.87456 0.873934 0.867942 0.848036 0.574548 0.776876 0.765469 0.75944 0.754768 0.750296 0.746106 0.741967 0.737901 0.734404 0.731669 0.729588 0.789923 0.80407 0.839148 0.834478 0.83044 0.828843 0.893866 0.894405 0.83481 0.870091 0.866687 0.861251 0.863127 0.864539 0.893832 0.80982 0.888393 0.837211 0.830909 0.862994 0.869868 0.872876 0.879139 0.824626 0.793674 0.776217 0.770688 0.767108 0.762363 0.756974 0.75049 0.74318 0.732665 0.724594 0.719683 0.72284 0.728605 0.726178 0.727162 0.730535 0.728184 0.726726 0.724112 0.721469 0.722464 0.726476 0.741047 0.760239 0.775302 0.883964 0.893772 0.893669 0.893832 0.893832 0.893832 0.893832 0.812005 0.889993 0.841408 0.831592 0.749285 0.789064 0.893959 0.879733 0.879165 0.871357 0.85329 0.864357 0.870337 0.871908 0.883577 0.802485 0.776948 0.752982 0.749095 0.745901 0.74147 0.736439 0.729967 0.722332 0.714453 0.708104 0.70347 0.708541 0.578854 0.779677 0.771315 0.767109 0.762212 0.75944 0.75698 0.754688 0.752423 0.750098 0.746817 0.744155 0.742247 0.741109 0.742147 0.741057 0.737842 0.735456 0.731224 0.726975 0.727466 0.730605 0.744544 0.762725 0.776712 0.791744 0.826225 0.840525 0.836972 0.832109 0.8293 0.893916 0.893992 0.833613 0.883636 0.893487 0.867884 0.86391 0.85819 0.862852 0.862306 0.893832 
SCALARS Axial_Stress float 1
LOOKUP_TABLE default
-94398300000.0 -103201000000.0 -143262000000.0 -58188700000.0 -64806300000.0 -59117700000.0 -65842800000.0 -60708300000.0 -100019000000.0 -175811000000.0 -95590300000.0 -174650000000.0 -175455000000.0 -157504000000.0 -237173000000.0 -261487000000.0 -275287000000.0 -126898000000.0 -132095000000.0 -69105300000.0 -76140300000.0 -179862000000.0 -93566900000.0 -85707000000.0 -54965800000.0 -70699500000.0 -56260000000.0 -186856000000.0 -345517000000.0 -401855000000.0 -313890000000.0 -264830000000.0 -384858000000.0 -384199000000.0 -161070000000.0 -215823000000.0 -249688000000.0 -252881000000.0 -227745000000.0 -126284000000.0 -312131000000.0 -423620000000.0 -555177000000.0 -261165000000.0 -262735000000.0 -340142000000.0 -149891000000.0 -294412000000.0 -396012000000.0 -307867000000.0 -341525000000.0 -471984000000.0 -368527000000.0 -467945000000.0 -342949000000.0 -448595000000.0 -300228000000.0 -420109000000.0 -337673000000.0 -327400000000.0 -596126000000.0 -489240000000.0 -611547000000.0 -586071000000.0 -650112000000.0 -576590000000.0 -352757000000.0 -449014000000.0 -484512000000.0 -295391000000.0 -289857000000.0 -346834000000.0 -409382000000.0 -586438000000.0 -462725000000.0 -582859000000.0 -582886000000.0 -566700000000.0 -565328000000.0 -756499000000.0 -799050000000.0 -684150000000.0 -699682000000.0 -704586000000.0 -362608000000.0 -624097000000.0 -515962000000.0 -222397000000.0 -377534000000.0 -348722000000.0 -701798000000.0 -709100000000.0 -695361000000.0 -683576000000.0 -678644000000.0 -749676000000.0 -1.23603e+12 -809307000000.0 -760674000000.0 -766792000000.0 -436344000000.0 -460943000000.0 -708866000000.0 -557586000000.0 -567472000000.0 -933131000000.0 -837931000000.0 -813884000000.0 -913937000000.0 -798088000000.0 -896409000000.0 -785769000000.0 -897211000000.0 -811709000000.0 -968861000000.0 -1.00654e+12 -1.10067e+12 -1.02508e+12 -981705000000.0 -851361000000.0 -901564000000.0 -828139000000.0 -888588000000.0 -826968000000.0 -520323000000.0 -809176000000.0 -869765000000.0 -1.22903e+12 -1.00837e+12 -1.08448e+12 -940475000000.0 -1.03392e+12 -1.01004e+12 -995412000000.0 -1.01454e+12 -1.0817e+12 -1.07972e+12 -994527000000.0 -954205000000.0 -947339000000.0 -562476000000.0 -991097000000.0 -890223000000.0 -985283000000.0 -1.13505e+12 -2.39328e+12 -1.70748e+12 -1.51701e+12 -1.23207e+12 -1.25309e+12 -1.16315e+12 -1.12669e+12 -1.1033e+12 -1.09437e+12 -1.11311e+12 -1.14572e+12 -1.08354e+12 -1.02845e+12 -1.00796e+12 -606339000000.0 -682453000000.0 -986013000000.0 -1.9372e+12 -1.88264e+12 -1.45077e+12 -1.30394e+12 -1.24639e+12 -1.21759e+12 -1.30369e+12 -1.19295e+12 -1.27387e+12 -1.18208e+12 -1.2531e+12 -1.18759e+12 -1.23409e+12 -1.16293e+12 -1.18084e+12 -1.10514e+12 -1.13797e+12 -1.072e+12 -1.06397e+12 -1.20419e+12 -1.68643e+12 -1.9566e+12 -1.66147e+12 -1.4566e+12 -1.50256e+12 -1.3718e+12 -1.45008e+12 -1.33519e+12 -1.42195e+12 -1.38127e+12 -1.34146e+12 -1.305e+12 -1.25638e+12 -1.20493e+12 -1.17934e+12 -1.12146e+12 -1.17559e+12 -694781000000.0 -818080000000.0 -1.48109e+12 -1.45737e+12 -1.6355e+12 -1.77493e+12 -1.76193e+12 -1.76459e+12 -1.68499e+12 -1.60779e+12 -1.63127e+12 -1.56748e+12 -1.54112e+12 -1.50011e+12 -1.44696e+12 -1.39305e+12 -1.33584e+12 -1.27417e+12 -1.23688e+12 -1.22815e+12 -785869000000.0 -986007000000.0 -1.58693e+12 -1.6687e+12 -1.66756e+12 -1.72649e+12 -1.6847e+12 -1.64353e+12 -1.62639e+12 -1.69665e+12 -1.56601e+12 -1.61782e+12 -1.49824e+12 -1.53274e+12 -1.4262e+12 -1.43831e+12 -1.34966e+12 -1.29529e+12 -1.27831e+12 -1.28273e+12 -1.6324e+12 -1.65658e+12 -1.60045e+12 -1.70752e+12 -1.7921e+12 -1.84795e+12 -1.74834e+12 -1.82402e+12 -1.75055e+12 -1.83718e+12 -1.75045e+12 -1.65399e+12 -1.54676e+12 -1.43386e+12 -1.35852e+12 -1.37235e+12 -1.32553e+12 -1.36977e+12 -1.32974e+12 -1.38832e+12 -880117000000.0 -1.13072e+12 -1.74538e+12 -1.68629e+12 -1.71352e+12 -1.65242e+12 -1.57034e+12 -1.36347e+12 -1.08507e+12 -1.86601e+12 -1.91398e+12 -1.91647e+12 -1.97913e+12 -1.89703e+12 -1.78827e+12 -1.67175e+12 -1.533e+12 -1.42542e+12 -1.40146e+12 -1.42939e+12 -978644000000.0 -1.26321e+12 -1.78326e+12 -1.69685e+12 -1.41282e+12 -1.03685e+12 -1.96276e+12 -1.98177e+12 -2.26305e+12 -2.06286e+12 -2.10364e+12 -1.93605e+12 -1.95522e+12 -1.80934e+12 -1.81588e+12 -1.66516e+12 -1.60724e+12 -1.49644e+12 -1.45855e+12 -1.42815e+12 -1.45495e+12 -1.5334e+12 -1.49828e+12 -1.08329e+12 -1.38901e+12 -1.85463e+12 -1.80159e+12 -1.64332e+12 -1.10829e+12 -1.02625e+12 -2.03151e+12 -2.00483e+12 -2.34281e+12 -2.08541e+12 -1.99059e+12 -1.77865e+12 -1.50523e+12 -1.45231e+12 -1.4615e+12 -1.53792e+12 -1.62359e+12 -1.97861e+12 -1.89458e+12 -1.92195e+12 -1.79992e+12 -1.79356e+12 -1.57588e+12 -1.04257e+12 -1.10739e+12 -1.00437e+12 -2.85507e+12 -2.21576e+12 -2.11007e+12 -2.04565e+12 -1.57403e+12 -1.43534e+12 -1.50447e+12 -1.65383e+12 -1.19737e+12 -1.51283e+12 -2.0293e+12 -1.9413e+12 -1.79578e+12 -1.11624e+12 -1.14349e+12 -1.1643e+12 -887065000000.0 -1.96749e+12 -2.36073e+12 -2.26737e+12 -2.20303e+12 -2.24789e+12 -2.16933e+12 -2.2633e+12 -2.13063e+12 -2.42999e+12 -1.34246e+12 -1.24983e+12 -1.43792e+12 -1.52396e+12 -1.6259e+12 -1.81349e+12 -1.78431e+12 -1.32669e+12 -1.63582e+12 -2.12756e+12 -2.19583e+12 -2.06942e+12 -2.09617e+12 -1.96382e+12 -977671000000.0 -1.1826e+12 -1.25313e+12 -2.12622e+12 -2.29382e+12 -2.33042e+12 -2.44251e+12 -2.8838e+12 -1.24002e+12 -1.73251e+12 -2.01287e+12 -2.29749e+12 -2.26173e+12 -2.10126e+12 -1.97242e+12 -1.06635e+12 -1.42435e+12 -1.39533e+12 -1.72075e+12 -1.93825e+12 -2.1747e+12 -2.2522e+12 -2.36797e+12 -2.45827e+12 -2.72843e+12 -3.23383e+12 -3.43634e+12 -1.40066e+12 -2.054e+12 -1.47682e+12 -1.75975e+12 -2.49357e+12 -2.37388e+12 -2.33341e+12 -1.97188e+12 -823917000000.0 -1.37886e+12 -1.72343e+12 -2.08154e+12 -2.33841e+12 -2.36501e+12 -2.47522e+12 -2.47185e+12 -2.6011e+12 -2.63758e+12 -2.84575e+12 -3.0268e+12 -3.24174e+12 -3.43196e+12 -1.82938e+12 -2.42896e+12 -2.33838e+12 -1.633e+12 -1.89907e+12 -2.5547e+12 -2.42969e+12 -2.44235e+12 -2.47135e+12 -3.03102e+12 -1.17583e+12 -1.68343e+12 -1.98789e+12 -2.29897e+12 -2.47039e+12 -2.58736e+12 -2.7456e+12 -3.03299e+12 -3.30941e+12 -3.16812e+12 -2.88135e+12 -2.70797e+12 -2.77135e+12 -2.53386e+12 -2.51013e+12 -2.48855e+12 -2.42515e+12 -1.45595e+12 -1.90699e+12 -1.97501e+12 -2.22254e+12 -2.25305e+12 -2.44641e+12 -2.46026e+12 -2.58933e+12 -2.58527e+12 -2.68728e+12 -2.69927e+12 -2.88477e+12 -3.1407e+12 -3.12395e+12 -3.29567e+12 -3.2249e+12 -2.99909e+12 -1.79232e+12 -2.0324e+12 -3.04049e+12 -2.89628e+12 -3.05392e+12 -2.23506e+12 -2.53089e+12 -2.4131e+12 -2.28296e+12 -2.22589e+12 -2.43723e+12 -2.59549e+12 -2.69624e+12 -2.7724e+12 -2.80074e+12 -2.87197e+12 -2.98399e+12 -3.00917e+12 -3.28271e+12 -3.24574e+12 -3.35489e+12 -3.13304e+12 -1.96947e+12 -2.15264e+12 -3.17056e+12 -3.54518e+12 -1.91327e+12 -1.99724e+12 -2.43831e+12 -2.37608e+12 -2.44784e+12 -2.60454e+12 -2.71479e+12 -2.78283e+12 -2.82739e+12 -2.88362e+12 -2.89928e+12 -3.51385e+12 -3.4542e+12 -3.59155e+12 -3.44607e+12 -2.28265e+12 -3.24034e+12 -3.42372e+12 -4.13062e+12 -4.19037e+12 -2.20947e+12 -2.42632e+12 -2.5141e+12 -2.65053e+12 -2.53609e+12 -2.68281e+12 -2.62479e+12 -2.76641e+12 -2.73734e+12 -2.84459e+12 -2.8112e+12 -2.88579e+12 -2.84338e+12 -2.8273e+12 -2.80796e+12 -2.51178e+12 -3.88735e+12 -3.63847e+12 -2.12285e+12 -3.35424e+12 -3.36443e+12 -3.5695e+12 -3.80895e+12 -4.04307e+12 -3.85879e+12 -3.50699e+12 -2.72247e+12 -2.77446e+12 -2.81447e+12 -2.88178e+12 -2.93086e+12 -2.93466e+12 -2.86321e+12 -2.81191e+12 -2.72156e+12 -2.37618e+12 -4.28429e+12 -4.30964e+12 -3.89651e+12 -3.82937e+12 -3.66915e+12 -2.26593e+12 -2.45695e+12 -3.44566e+12 -3.77012e+12 -3.97189e+12 -3.75237e+12 -3.18134e+12 -2.87682e+12 -2.88737e+12 -2.92833e+12 -2.9765e+12 -2.9971e+12 -2.94891e+12 -2.576e+12 -2.44718e+12 -4.68388e+12 -4.05646e+12 -3.82922e+12 -2.68496e+12 -3.32206e+12 -3.57576e+12 -3.6935e+12 -3.85114e+12 -3.79759e+12 -3.53315e+12 -3.39043e+12 -3.12977e+12 -3.15205e+12 -2.98341e+12 -3.07306e+12 -2.99053e+12 -3.08263e+12 -3.02545e+12 -3.10764e+12 -3.05358e+12 -3.11424e+12 -3.04148e+12 -3.05967e+12 -2.90547e+12 -2.56674e+12 -4.09417e+12 -4.3068e+12 -4.06676e+12 -3.95032e+12 -3.9394e+12 -2.40845e+12 -3.20345e+12 -2.97805e+12 -3.41426e+12 -3.53704e+12 -3.7473e+12 -3.688e+12 -3.59618e+12 -3.35213e+12 -3.19695e+12 -3.15372e+12 -3.16368e+12 -3.17659e+12 -3.1594e+12 -3.09262e+12 -2.90982e+12 -3.0854e+12 -2.8847e+12 -4.02174e+12 -3.99762e+12 -2.54365e+12 -3.42733e+12 -3.33417e+12 -3.64808e+12 -3.73445e+12 -3.74448e+12 -3.71702e+12 -3.53681e+12 -3.35277e+12 -3.25008e+12 -3.22707e+12 -3.23461e+12 -3.23445e+12 -3.20707e+12 -3.19446e+12 -3.3243e+12 -3.7591e+12 -3.89132e+12 -3.98471e+12 -3.99234e+12 -2.87446e+12 -3.32888e+12 -3.50646e+12 -3.6806e+12 -3.78203e+12 -3.68745e+12 -3.66272e+12 -3.51441e+12 -3.50936e+12 -3.37251e+12 -3.40298e+12 -3.30552e+12 -3.3604e+12 -3.29377e+12 -3.35519e+12 -3.29734e+12 -3.35702e+12 -3.29028e+12 -3.36017e+12 -3.28637e+12 -3.3571e+12 -3.7374e+12 -3.95414e+12 -3.9914e+12 -4.00913e+12 -2.6558e+12 -3.18457e+12 -2.80366e+12 -3.60532e+12 -3.8061e+12 -3.87549e+12 -3.79731e+12 -3.79305e+12 -3.64688e+12 -3.51611e+12 -3.43946e+12 -3.41401e+12 -3.41458e+12 -3.42289e+12 -3.4517e+12 -3.40088e+12 -3.53778e+12 -3.54403e+12 -3.78304e+12 -3.88572e+12 -4.00464e+12 -2.74157e+12 -2.31287e+12 -3.48065e+12 -3.8215e+12 -3.81415e+12 -3.93511e+12 -3.90274e+12 -3.77816e+12 -3.63737e+12 -3.53191e+12 -3.47935e+12 -3.46799e+12 -3.47744e+12 -3.50205e+12 -3.5595e+12 -3.68461e+12 -3.92898e+12 -3.98156e+12 -4.05347e+12 -4.03742e+12 -2.808e+12 -9035750000.0 -4.79325e+12 -2.93864e+12 -3.7486e+12 -3.9957e+12 -3.99581e+12 -4.01197e+12 -3.90106e+12 -3.88308e+12 -3.76072e+12 -3.74597e+12 -3.63514e+12 -3.64039e+12 -3.55461e+12 -3.58302e+12 -3.52248e+12 -3.57108e+12 -3.52587e+12 -3.59168e+12 -3.54927e+12 -3.63181e+12 -3.59392e+12 -3.68878e+12 -3.6722e+12 -3.85001e+12 -4.04815e+12 -4.09389e+12 -4.31834e+12 -4.2894e+12 -4.05079e+12 -4.17407e+12 -4.08315e+12 -4.11142e+12 -4.00085e+12 -3.86247e+12 -3.73606e+12 -3.65269e+12 -3.61812e+12 -3.62833e+12 -3.66824e+12 -3.71988e+12 -3.77266e+12 -3.78516e+12 -3.91229e+12 -4.00087e+12 -4.14674e+12 -4.13911e+12 -4.1936e+12 -2.85004e+12 -3.95884e+12 -5.5755e+12 -5.07078e+12 -4.34394e+12 -4.20779e+12 -4.10714e+12 -3.98272e+12 -3.84145e+12 -3.73262e+12 -3.67218e+12 -3.66273e+12 -3.69703e+12 -3.75447e+12 -3.79729e+12 -3.84726e+12 -4.08847e+12 -4.25388e+12 -2.86459e+12 -9035750000.0 -4.07657e+12 -5.38118e+12 -4.68555e+12 -4.59205e+12 -4.34004e+12 -4.287e+12 -4.19704e+12 -4.21771e+12 -4.103e+12 -4.07897e+12 -3.95626e+12 -3.92812e+12 -3.82389e+12 -3.81222e+12 -3.73629e+12 -3.74845e+12 -3.70103e+12 -3.74271e+12 -3.71971e+12 -3.79098e+12 -3.77847e+12 -3.87008e+12 -3.8421e+12 -3.90969e+12 -3.83689e+12 -3.82475e+12 -3.93918e+12 -4.07874e+12 -4.22881e+12 -4.56748e+12 -4.40416e+12 -2.75475e+12 -3.84059e+12 -5.36027e+12 -4.68711e+12 -4.43091e+12 -4.32941e+12 -4.2075e+12 -4.04569e+12 -3.90222e+12 -3.80805e+12 -3.77244e+12 -3.8e+12 -3.87689e+12 -3.96211e+12 -3.91605e+12 -3.37458e+12 -4.92458e+12 -4.84199e+12 -5.11207e+12 -4.56593e+12 -2.27851e+12 -4.12014e+12 -5.07031e+12 -5.37443e+12 -4.5587e+12 -4.4733e+12 -4.34031e+12 -4.17566e+12 -4.00869e+12 -3.88195e+12 -3.81391e+12 -3.81247e+12 -3.87415e+12 -3.97438e+12 -4.03055e+12 -3.51946e+12 -5.55929e+12 -5.23614e+12 -5.19579e+12 -4.95052e+12 -4.91438e+12 -6.73938e+12 -6.18557e+12 -6.56433e+12 -3.7661e+12 -4.77521e+12 -4.6859e+12 -4.65846e+12 -4.48552e+12 -4.47852e+12 -4.31871e+12 -4.27303e+12 -4.13221e+12 -4.08326e+12 -3.9729e+12 -3.94356e+12 -3.87025e+12 -3.87075e+12 -3.83451e+12 -3.87507e+12 -3.87165e+12 -3.95051e+12 -3.9642e+12 -4.06539e+12 -4.07402e+12 -4.08538e+12 -3.79939e+12 -4.95828e+12 -5.41879e+12 -5.58514e+12 -5.48489e+12 -5.32053e+12 -5.57393e+12 -4.26256e+12 -4.56616e+12 -4.88032e+12 -7.30494e+12 -7.27269e+12 -6.82757e+12 -6.8662e+12 -5.8244e+12 -4.96062e+12 -4.82307e+12 -4.65587e+12 -4.43594e+12 -4.2135e+12 -4.03627e+12 -3.92431e+12 -3.89013e+12 -3.93904e+12 -4.04637e+12 -4.14745e+12 -4.51587e+12 -5.3051e+12 -5.50339e+12 -5.43316e+12 -5.62667e+12 -5.71118e+12 -5.97364e+12 -6.62794e+12 -4.48615e+12 -4.68397e+12 -4.7949e+12 -7.26623e+12 -7.01083e+12 -6.57017e+12 -6.34416e+12 -5.82167e+12 -5.15172e+12 -4.83653e+12 -4.8353e+12 -4.62506e+12 -4.54612e+12 -4.36561e+12 -4.14987e+12 -3.99709e+12 -3.92018e+12 -3.93481e+12 -4.02505e+12 -4.14811e+12 -4.32085e+12 -4.39045e+12 -4.65448e+12 -4.92178e+12 -5.40135e+12 -5.59636e+12 -5.89553e+12 -6.57565e+12 -6.96078e+12 -7.04002e+12 -4.4151e+12 -4.38093e+12 -4.57933e+12 -7.18472e+12 -6.97428e+12 -7.01818e+12 -6.71703e+12 -6.35139e+12 -6.25086e+12 -5.68872e+12 -5.16868e+12 -5.40245e+12 -5.13173e+12 -5.11482e+12 -4.76053e+12 -4.43958e+12 -4.28406e+12 -4.20825e+12 -4.09144e+12 -4.03878e+12 -3.9689e+12 -3.96225e+12 -3.9426e+12 -3.99605e+12 -4.00675e+12 -4.10042e+12 -4.12681e+12 -4.26521e+12 -4.52429e+12 -4.88447e+12 -5.13863e+12 -5.29755e+12 -5.49803e+12 -5.80031e+12 -6.32143e+12 -6.54958e+12 -6.74653e+12 -6.95196e+12 -7.11171e+12 -4.33547e+12 -4.51635e+12 -7.06761e+12 -7.10226e+12 -6.90795e+12 -6.75703e+12 -6.83157e+12 -6.51633e+12 -5.95848e+12 -5.00687e+12 -5.55595e+12 -5.46402e+12 -5.03827e+12 -4.61851e+12 -4.34558e+12 -4.13316e+12 -4.00034e+12 -3.99561e+12 -4.07755e+12 -4.2175e+12 -4.42838e+12 -4.71534e+12 -5.05577e+12 -5.47158e+12 -5.65446e+12 -5.82855e+12 -5.83926e+12 -6.61912e+12 -6.7482e+12 -6.67919e+12 -6.9804e+12 -7.10023e+12 -7.06541e+12 -4.25077e+12 -4.55401e+12 -4.53232e+12 -7.10178e+12 -6.98224e+12 -6.88484e+12 -6.73913e+12 -6.75085e+12 -6.28706e+12 -6.12172e+12 -5.81315e+12 -5.13255e+12 -6.45063e+12 -5.96743e+12 -5.41626e+12 -5.09666e+12 -4.83435e+12 -4.6859e+12 -4.50237e+12 -4.39476e+12 -4.25205e+12 -4.14835e+12 -4.0599e+12 -3.9967e+12 -4.06183e+12 -4.17961e+12 -4.29164e+12 -4.35119e+12 -4.48668e+12 -4.59442e+12 -4.75723e+12 -4.88605e+12 -5.03017e+12 -5.20192e+12 -5.63502e+12 -5.35241e+12 -6.96845e+12 -6.45174e+12 -6.8088e+12 -6.77267e+12 -6.91758e+12 -7.00283e+12 -4.1138e+12 -3.96326e+12 -4.56213e+12 -7.01712e+12 -7.08203e+12 -6.97631e+12 -6.89922e+12 -6.88041e+12 -6.6161e+12 -6.7526e+12 -5.94404e+12 -5.52037e+12 -4.46602e+12 -5.85274e+12 -5.39835e+12 -4.89926e+12 -4.56131e+12 -4.27267e+12 -4.0474e+12 -4.01116e+12 -4.02173e+12 -4.05264e+12 -4.13278e+12 -4.15186e+12 -4.2466e+12 -4.40032e+12 -4.62346e+12 -4.91957e+12 -5.12249e+12 -5.37231e+12 -5.45484e+12 -5.70599e+12 -5.06522e+12 -6.5803e+12 -6.48709e+12 -6.6893e+12 -6.86841e+12 -6.80828e+12 -6.88844e+12 -3.89242e+12 -4.55042e+12 -4.56382e+12 -6.94613e+12 -6.90637e+12 -6.80194e+12 -6.89942e+12 -6.83991e+12 -6.80977e+12 -6.93087e+12 -7.1549e+12 -5.73061e+12 -5.95231e+12 -5.97593e+12 -5.7569e+12 -5.16021e+12 -5.72823e+12 -5.32379e+12 -5.13301e+12 -4.96771e+12 -4.75298e+12 -4.42901e+12 -4.12681e+12 -3.99307e+12 -4.10818e+12 -4.21575e+12 -4.33127e+12 -4.40458e+12 -4.50995e+12 -4.63629e+12 -4.76441e+12 -4.88987e+12 -5.08226e+12 -5.13763e+12 -4.4778e+12 -4.97198e+12 -4.97913e+12 -5.7217e+12 -5.79783e+12 -6.20386e+12 -6.53099e+12 -6.45303e+12 -6.65765e+12 -6.67437e+12 -6.72193e+12 -6.76641e+12 -6.76198e+12 -3.94838e+12 -4.55916e+12 -6.87737e+12 -6.74945e+12 -6.82816e+12 -6.70686e+12 -6.69315e+12 -6.55628e+12 -6.62206e+12 -5.55594e+12 -6.08811e+12 -5.38626e+12 -5.49514e+12 -5.44909e+12 -5.14032e+12 -4.81789e+12 -4.60887e+12 -4.43679e+12 -4.26313e+12 -4.0505e+12 -3.9894e+12 -3.90187e+12 -4.02356e+12 -4.18778e+12 -4.28906e+12 -4.28739e+12 -4.31831e+12 -4.49842e+12 -4.77436e+12 -4.96786e+12 -5.1855e+12 -5.50409e+12 -6.40389e+12 -4.09201e+12 -6.08952e+12 -5.12081e+12 -6.15119e+12 -6.36823e+12 -6.32934e+12 -6.53616e+12 -6.72645e+12 -6.68132e+12 -6.64296e+12 -6.78695e+12 -4.03908e+12 -4.12548e+12 -4.40527e+12 -4.5003e+12 -6.92278e+12 -6.82998e+12 -6.68373e+12 -6.60697e+12 -6.46553e+12 -6.58845e+12 -6.44859e+12 -6.27511e+12 -6.37079e+12 -5.59478e+12 -5.69201e+12 -5.07698e+12 -6.36873e+12 -5.90884e+12 -5.18561e+12 -5.15895e+12 -5.00474e+12 -5.08134e+12 -5.02494e+12 -4.63592e+12 -4.21217e+12 -3.81961e+12 -3.82354e+12 -4.10137e+12 -4.37379e+12 -4.33048e+12 -4.28264e+12 -4.34996e+12 -4.63633e+12 -4.88451e+12 -4.55695e+12 -5.21562e+12 -5.33005e+12 -5.49197e+12 -5.95752e+12 -5.96622e+12 -6.43293e+12 -6.67483e+12 -6.75997e+12 -6.67254e+12 -6.59586e+12 -6.6505e+12 -6.81992e+12 -4.18854e+12 -4.30442e+12 -6.82556e+12 -6.89435e+12 -6.79457e+12 -6.62507e+12 -6.50864e+12 -6.31607e+12 -6.33006e+12 -6.12847e+12 -6.08705e+12 -5.95296e+12 -4.46173e+12 -5.00977e+12 -5.10215e+12 -4.71111e+12 -4.55923e+12 -5.06075e+12 -4.86796e+12 -4.63572e+12 -4.40814e+12 -4.10536e+12 -3.90712e+12 -3.26753e+12 -4.52261e+12 -4.38123e+12 -4.31046e+12 -4.2556e+12 -4.26405e+12 -4.25023e+12 -4.41061e+12 -4.51099e+12 -4.83907e+12 -5.17192e+12 -4.84249e+12 -3.28197e+12 -5.00927e+12 -5.46888e+12 -5.89669e+12 -6.58486e+12 -6.89017e+12 -6.54713e+12 -6.30044e+12 -6.61745e+12 -6.68186e+12 -6.51584e+12 -6.51754e+12 -6.47694e+12 -6.66106e+12 -6.83869e+12 -6.85586e+12 -4.22234e+12 -4.26979e+12 -4.27351e+12 -6.8021e+12 -6.73362e+12 -6.61487e+12 -6.30376e+12 -6.45286e+12 -6.25843e+12 -6.12475e+12 -6.13067e+12 -5.89764e+12 -5.44345e+12 -5.82045e+12 -5.73308e+12 -6.34617e+12 -5.01855e+12 -4.60539e+12 -3.93706e+12 -4.73181e+12 -3.42629e+12 -5.05157e+12 -5.38275e+12 -4.94279e+12 -4.30613e+12 -3.47264e+12 -3.25855e+12 -5.13639e+12 -5.06331e+12 -4.83961e+12 -4.5417e+12 -4.31032e+12 -4.19648e+12 -4.26016e+12 -4.65946e+12 -5.88258e+12 -4.65113e+12 -5.15035e+12 -5.16115e+12 -5.46521e+12 -5.94387e+12 -6.05864e+12 -5.70692e+12 -6.68477e+12 -6.36347e+12 -6.34901e+12 -6.47929e+12 -6.68114e+12 -6.86626e+12 -4.23283e+12 -4.19451e+12 -4.233e+12 -6.78647e+12 -6.6884e+12 -6.71243e+12 -6.67135e+12 -6.41362e+12 -6.15593e+12 -6.03506e+12 -6.0421e+12 -6.00294e+12 -5.46319e+12 -6.40302e+12 -4.83094e+12 -5.53467e+12 -5.23903e+12 -6.40297e+12 -5.33412e+12 -4.84823e+12 -6.0208e+12 -4.79915e+12 -4.47618e+12 -4.13185e+12 -3.93667e+12 -4.78328e+12 -4.99389e+12 -4.60511e+12 -4.43895e+12 -4.21698e+12 -4.12417e+12 -4.11185e+12 -4.27705e+12 -4.10751e+12 -4.87972e+12 -4.83271e+12 -3.69018e+12 -4.61407e+12 -4.98267e+12 -5.13941e+12 -5.81807e+12 -6.05197e+12 -6.17589e+12 -6.67594e+12 -6.11179e+12 -6.28711e+12 -6.51167e+12 -6.19036e+12 -6.15151e+12 -6.27853e+12 -6.53709e+12 -6.7268e+12 -6.70644e+12 -6.83676e+12 -6.77783e+12 -4.09106e+12 -4.07578e+12 -4.1677e+12 -6.60961e+12 -6.71372e+12 -6.61153e+12 -6.66392e+12 -6.7661e+12 -5.75238e+12 -5.85009e+12 -5.99353e+12 -5.99447e+12 -6.25827e+12 -6.48645e+12 -6.20945e+12 -5.87617e+12 -5.35215e+12 -5.50796e+12 -5.88035e+12 -5.69989e+12 -5.06577e+12 -4.30263e+12 -5.146e+12 -5.29189e+12 -4.16843e+12 -4.11484e+12 -4.23076e+12 -4.52357e+12 -4.84891e+12 -4.68721e+12 -4.4606e+12 -4.31887e+12 -4.14862e+12 -4.08353e+12 -3.83578e+12 -4.24988e+12 -3.00621e+12 -3.7342e+12 -4.05062e+12 -4.56279e+12 -4.87808e+12 -5.37764e+12 -5.61727e+12 -5.65705e+12 -5.87356e+12 -5.13635e+12 -6.51151e+12 -6.5293e+12 -6.30953e+12 -6.25987e+12 -6.36378e+12 -6.30003e+12 -6.54347e+12 -6.64264e+12 -6.67255e+12 -3.89273e+12 -3.60927e+12 -3.95658e+12 -6.50227e+12 -6.40108e+12 -6.51245e+12 -6.40825e+12 -6.53165e+12 -6.50583e+12 -6.48607e+12 -6.67597e+12 -4.84778e+12 -5.89413e+12 -5.91141e+12 -6.01284e+12 -6.11647e+12 -6.06746e+12 -5.07959e+12 -5.50398e+12 -5.52966e+12 -5.43256e+12 -5.44638e+12 -5.23728e+12 -4.78405e+12 -4.87641e+12 -4.67727e+12 -4.41273e+12 -3.97299e+12 -4.28325e+12 -4.44407e+12 -4.62862e+12 -4.41435e+12 -4.46823e+12 -4.3314e+12 -4.37196e+12 -4.32416e+12 -3.79332e+12 -3.65298e+12 -4.3527e+12 -5.58518e+12 -4.9523e+12 -4.60498e+12 -4.51052e+12 -4.68673e+12 -5.08203e+12 -5.29556e+12 -5.451e+12 -5.64833e+12 -5.52884e+12 -5.73289e+12 -7.05369e+12 -6.6055e+12 -6.49154e+12 -6.2168e+12 -6.19133e+12 -6.24773e+12 -6.47712e+12 -6.34346e+12 -6.54e+12 -6.4537e+12 -6.49945e+12 -3.29163e+12 -3.8079e+12 -6.27644e+12 -6.39421e+12 -6.28977e+12 -6.28715e+12 -6.30736e+12 -6.19501e+12 -5.86682e+12 -5.39867e+12 -5.69323e+12 -5.75384e+12 -5.81558e+12 -6.20568e+12 -5.80938e+12 -5.804e+12 -5.70068e+12 -5.53868e+12 -5.43459e+12 -5.60565e+12 -5.14678e+12 -4.94947e+12 -4.81949e+12 -4.42657e+12 -3.47661e+12 -5.2008e+12 -3.10891e+12 -4.36619e+12 -4.27647e+12 -4.23797e+12 -4.27907e+12 -4.24521e+12 -4.24945e+12 -4.2951e+12 -2.78732e+12 -2.69394e+12 -3.8815e+12 -4.44789e+12 -4.62251e+12 -4.53828e+12 -4.57117e+12 -4.87028e+12 -5.03325e+12 -5.17636e+12 -5.34647e+12 -5.36815e+12 -5.58638e+12 -6.2649e+12 -6.67276e+12 -6.05472e+12 -5.74409e+12 -5.84347e+12 -5.55185e+12 -6.06412e+12 -6.15742e+12 -6.32469e+12 -6.23376e+12 -6.19651e+12 -5.9079e+12 -3.05062e+12 -3.44347e+12 -3.63302e+12 -6.13506e+12 -6.17847e+12 -6.05353e+12 -6.16625e+12 -6.02982e+12 -6.16212e+12 -6.01173e+12 -5.9249e+12 -5.66062e+12 -5.62354e+12 -5.62626e+12 -5.93893e+12 -6.06903e+12 -6.6617e+12 -5.29106e+12 -5.29888e+12 -5.34479e+12 -5.28574e+12 -4.91413e+12 -4.77691e+12 -4.64925e+12 -5.39005e+12 -3.94135e+12 -4.07433e+12 -3.96358e+12 -4.11602e+12 -3.9713e+12 -4.13252e+12 -4.13652e+12 -4.24787e+12 -4.5714e+12 -5.13597e+12 -4.97036e+12 -3.57717e+12 -3.12041e+12 -3.40325e+12 -4.5871e+12 -4.70024e+12 -4.83355e+12 -4.95167e+12 -5.08078e+12 -5.15607e+12 -5.73463e+12 -5.89298e+12 -6.15142e+12 -5.35317e+12 -4.27145e+12 -6.00424e+12 -6.08638e+12 -6.22161e+12 -6.05004e+12 -5.93154e+12 -5.79397e+12 -3.11082e+12 -3.25515e+12 -5.96533e+12 -5.90812e+12 -6.05455e+12 -5.9437e+12 -5.90493e+12 -5.87409e+12 -5.66303e+12 -5.78049e+12 -5.56848e+12 -5.49409e+12 -5.40088e+12 -5.67517e+12 -5.76535e+12 -5.86709e+12 -5.96639e+12 -5.57441e+12 -5.26133e+12 -5.12653e+12 -5.17814e+12 -5.14613e+12 -5.08585e+12 -4.97985e+12 -4.73777e+12 -4.594e+12 -4.69661e+12 -4.8404e+12 -4.40523e+12 -3.77208e+12 -3.83543e+12 -3.87132e+12 -4.00375e+12 -3.94127e+12 -4.07795e+12 -4.17126e+12 -4.8065e+12 -4.14934e+12 -4.29509e+12 -4.20169e+12 -4.41961e+12 -4.53482e+12 -4.65137e+12 -4.75797e+12 -4.86064e+12 -4.94033e+12 -5.30747e+12 -5.49408e+12 -5.55011e+12 -5.60202e+12 -5.65896e+12 -5.43177e+12 -6.35766e+12 -5.58138e+12 -5.67898e+12 -5.89925e+12 -6.02928e+12 -6.11767e+12 -6.06037e+12 -5.88133e+12 -5.80276e+12 -5.93361e+12 -5.96185e+12 -3.37836e+12 -3.24652e+12 -3.0872e+12 -5.57182e+12 -5.77267e+12 -5.72967e+12 -5.82809e+12 -5.71469e+12 -5.79184e+12 -5.60671e+12 -5.74091e+12 -5.56222e+12 -5.39359e+12 -5.18968e+12 -5.43101e+12 -5.4333e+12 -5.44047e+12 -5.55624e+12 -6.03844e+12 -6.40887e+12 -4.21137e+12 -5.05913e+12 -5.05219e+12 -5.03193e+12 -5.05945e+12 -5.02849e+12 -4.95252e+12 -4.85946e+12 -4.38802e+12 -4.15653e+12 -3.73648e+12 -3.53426e+12 -3.34771e+12 -3.70815e+12 -3.69579e+12 -3.72616e+12 -3.93233e+12 -4.19091e+12 -3.98498e+12 -3.96141e+12 -3.51105e+12 -5.44964e+12 -5.39342e+12 -4.61097e+12 -4.5171e+12 -4.50205e+12 -4.54178e+12 -4.60723e+12 -4.67982e+12 -5.0616e+12 -5.21207e+12 -5.32133e+12 -5.38447e+12 -5.47824e+12 -5.59945e+12 -5.18987e+12 -5.90724e+12 -6.21493e+12 -6.08183e+12 -5.99092e+12 -5.93033e+12 -5.7709e+12 -3.91681e+12 -2.95173e+12 -5.37579e+12 -5.53005e+12 -5.50422e+12 -5.68499e+12 -5.61414e+12 -5.56129e+12 -5.3962e+12 -5.13081e+12 -5.31326e+12 -4.91693e+12 -5.126e+12 -5.18011e+12 -4.89127e+12 -4.98462e+12 -5.46834e+12 -5.74068e+12 -5.23216e+12 -4.81624e+12 -4.95703e+12 -4.96527e+12 -5.0208e+12 -4.93627e+12 -4.8059e+12 -4.65534e+12 -4.49975e+12 -2.63036e+12 -1.86175e+12 -3.82011e+12 -3.65534e+12 -3.30735e+12 -3.60898e+12 -3.39656e+12 -3.69075e+12 -3.52349e+12 -4.01976e+12 -4.10325e+12 -1.63962e+12 -4.57894e+12 -5.08792e+12 -4.86953e+12 -4.55985e+12 -4.48699e+12 -4.47397e+12 -4.4944e+12 -4.53344e+12 -4.74627e+12 -4.83606e+12 -4.94986e+12 -5.04483e+12 -5.11629e+12 -5.16444e+12 -5.1962e+12 -5.13946e+12 -4.88049e+12 -5.82216e+12 -6.04556e+12 -5.82609e+12 -6.02171e+12 -6.57098e+12 -6.32246e+12 -6.31369e+12 -6.1718e+12 -6.02794e+12 -5.84678e+12 -5.62051e+12 -4.77863e+12 -6.26424e+12 -3.93524e+12 -2.78321e+12 -2.85381e+12 -5.19773e+12 -5.13646e+12 -5.32783e+12 -5.30328e+12 -5.48571e+12 -5.42519e+12 -5.50793e+12 -5.34925e+12 -5.38663e+12 -5.24847e+12 -4.54175e+12 -3.37847e+12 -4.88404e+12 -5.50974e+12 -6.20354e+12 -3.27391e+12 -4.76042e+12 -5.09753e+12 -5.01939e+12 -4.98601e+12 -4.69463e+12 -4.60593e+12 -4.79637e+12 -5.00104e+12 -4.97676e+12 -4.78001e+12 -4.58586e+12 -4.38986e+12 -4.17365e+12 -3.74461e+12 -3.79248e+12 -3.28633e+12 -3.39397e+12 -3.38626e+12 -3.47352e+12 -4.8257e+12 -3.63392e+12 -4.26025e+12 -4.52338e+12 -4.50186e+12 -4.40828e+12 -4.38617e+12 -4.38879e+12 -4.57725e+12 -4.63755e+12 -4.71573e+12 -4.79224e+12 -4.86322e+12 -4.93942e+12 -5.03342e+12 -5.16068e+12 -5.40318e+12 -5.75835e+12 -5.76003e+12 -5.66465e+12 -5.87035e+12 -6.40881e+12 -6.45497e+12 -5.90003e+12 -5.89135e+12 -5.87928e+12 -5.56067e+12 -4.93976e+12 -5.9159e+12 -3.51309e+12 -2.72174e+12 -5.03489e+12 -4.96747e+12 -5.103e+12 -5.10508e+12 -5.30803e+12 -5.31493e+12 -5.334e+12 -5.15105e+12 -5.03348e+12 -5.19888e+12 -4.92494e+12 -4.78755e+12 -5.36503e+12 -4.85036e+12 -4.37776e+12 -4.76011e+12 -4.74875e+12 -4.74566e+12 -4.64555e+12 -4.40787e+12 -3.98387e+12 -4.96505e+12 -5.11632e+12 -4.75965e+12 -4.52792e+12 -4.34066e+12 -4.181e+12 -4.01623e+12 -3.83236e+12 -4.3087e+12 -3.94554e+12 -3.43325e+12 -3.18829e+12 -2.70212e+12 -2.95114e+12 -2.89403e+12 -3.01659e+12 -4.17439e+12 -3.55647e+12 -3.91683e+12 -4.12926e+12 -4.26347e+12 -4.27926e+12 -4.26332e+12 -4.40549e+12 -4.42842e+12 -4.46103e+12 -4.50587e+12 -4.55298e+12 -4.59907e+12 -4.64772e+12 -4.70363e+12 -4.76881e+12 -4.85971e+12 -5.00432e+12 -4.33844e+12 -6.37587e+12 -4.2302e+12 -5.64918e+12 -5.68698e+12 -5.75014e+12 -5.68243e+12 -5.64995e+12 -5.07355e+12 -5.54763e+12 -5.45187e+12 -3.2068e+12 -2.96159e+12 -2.64639e+12 -4.70559e+12 -4.87987e+12 -4.81233e+12 -4.92931e+12 -4.91906e+12 -5.14035e+12 -5.16924e+12 -5.26116e+12 -5.17585e+12 -5.15122e+12 -4.86298e+12 -5.11251e+12 -5.82264e+12 -4.81628e+12 -4.27173e+12 -3.99723e+12 -3.37885e+12 -5.20497e+12 -5.06536e+12 -4.40627e+12 -4.24055e+12 -4.10733e+12 -3.98348e+12 -3.8694e+12 -3.9565e+12 -3.92487e+12 -2.78785e+12 -4.94527e+12 -3.32184e+12 -1.84876e+12 -3.08785e+12 -2.09925e+12 -2.73652e+12 -3.21882e+12 -3.87777e+12 -3.70652e+12 -3.86496e+12 -3.98832e+12 -4.07646e+12 -4.26819e+12 -4.27973e+12 -4.29209e+12 -4.30533e+12 -4.32194e+12 -4.34262e+12 -4.36446e+12 -4.38977e+12 -4.42295e+12 -4.471e+12 -4.55982e+12 -4.69648e+12 -4.61039e+12 -4.9827e+12 -5.40013e+12 -4.9221e+12 -5.71496e+12 -5.79724e+12 -5.43855e+12 -5.39617e+12 -5.34561e+12 -4.99688e+12 -5.12391e+12 -5.33445e+12 -5.0073e+12 -5.03045e+12 -2.72125e+12 -2.44162e+12 -2.55731e+12 -4.51005e+12 -4.64829e+12 -4.61497e+12 -4.77889e+12 -4.76994e+12 -4.80496e+12 -4.95749e+12 -5.03468e+12 -5.13036e+12 -5.08946e+12 -4.94031e+12 -4.90455e+12 -4.87921e+12 -5.11345e+12 -4.52089e+12 -4.72981e+12 -5.056e+12 -4.82874e+12 -4.75624e+12 -4.48252e+12 -4.50958e+12 -4.48023e+12 -4.41376e+12 -3.6722e+12 -3.20888e+12 -4.95804e+12 -4.64513e+12 -4.01046e+12 -3.92005e+12 -3.83084e+12 -3.80125e+12 -3.72687e+12 -3.36677e+12 -3.59187e+12 -2.75983e+12 -1.67871e+12 -3.92215e+12 -4.23679e+12 -3.61508e+12 -3.21798e+12 -3.52343e+12 -3.73125e+12 -3.70229e+12 -3.78887e+12 -4.11161e+12 -4.12897e+12 -4.14699e+12 -4.16042e+12 -4.16672e+12 -4.16523e+12 -4.15844e+12 -4.1578e+12 -4.15844e+12 -4.16229e+12 -4.17522e+12 -4.21458e+12 -4.32064e+12 -4.35922e+12 -4.71683e+12 -4.73206e+12 -4.85495e+12 -5.0035e+12 -5.49107e+12 -5.49096e+12 -5.19696e+12 -5.14744e+12 -5.10595e+12 -4.86592e+12 -4.9453e+12 -4.63036e+12 -4.59451e+12 -2.4547e+12 -2.28291e+12 -4.29394e+12 -4.23664e+12 -4.45219e+12 -4.40776e+12 -4.60902e+12 -4.64012e+12 -4.91073e+12 -5.10301e+12 -5.0835e+12 -5.27667e+12 -4.3106e+12 -4.27084e+12 -4.59892e+12 -2.95401e+12 -4.58857e+12 -4.53706e+12 -4.50943e+12 -4.46063e+12 -4.29965e+12 -4.2587e+12 -4.19242e+12 -4.09273e+12 -3.92395e+12 -4.24478e+12 -4.19602e+12 -4.10238e+12 -3.7742e+12 -3.71465e+12 -3.64099e+12 -3.49429e+12 -3.59472e+12 -3.36401e+12 -3.71095e+12 -2.53927e+12 -3.70766e+12 -2.92173e+12 -3.48562e+12 -3.38678e+12 -3.58609e+12 -3.40315e+12 -3.51653e+12 -3.86887e+12 -3.93462e+12 -3.97667e+12 -4.00596e+12 -4.02773e+12 -4.03864e+12 -4.03453e+12 -4.01227e+12 -3.97682e+12 -3.95779e+12 -4.33783e+12 -4.34886e+12 -4.25849e+12 -4.39954e+12 -5.17937e+12 -5.11198e+12 -5.24188e+12 -4.95337e+12 -4.89744e+12 -4.83586e+12 -4.64107e+12 -4.64532e+12 -4.19715e+12 -4.10484e+12 -3.53003e+12 -2.15325e+12 -1.81699e+12 -2.09909e+12 -4.049e+12 -4.00767e+12 -4.15353e+12 -4.39732e+12 -4.43467e+12 -4.73016e+12 -4.89353e+12 -5.12013e+12 -5.40694e+12 -5.41433e+12 -1.76941e+12 -4.08807e+12 -5.46214e+12 -4.13276e+12 -4.18962e+12 -4.23527e+12 -4.23193e+12 -4.17667e+12 -4.07345e+12 -4.00509e+12 -3.92272e+12 -3.82212e+12 -3.69812e+12 -3.60051e+12 -3.57929e+12 -3.97761e+12 -3.97368e+12 -3.91858e+12 -3.84944e+12 -3.47067e+12 -3.36705e+12 -3.41712e+12 -3.24976e+12 -3.09425e+12 -3.37562e+12 -3.12075e+12 -3.45463e+12 -3.3468e+12 -3.61691e+12 -3.63987e+12 -3.69978e+12 -3.76086e+12 -3.816e+12 -3.85836e+12 -3.89067e+12 -3.91257e+12 -3.91909e+12 -3.90255e+12 -3.93511e+12 -3.9099e+12 -3.89252e+12 -3.89311e+12 -3.93195e+12 -4.11508e+12 -4.13754e+12 -3.9951e+12 -3.50648e+12 -5.39303e+12 -5.25384e+12 -5.04559e+12 -5.01554e+12 -4.70475e+12 -4.64508e+12 -4.63126e+12 -4.32571e+12 -4.27127e+12 -3.81923e+12 -3.68346e+12 -2.91401e+12 -1.32991e+12 -1.94557e+12 -3.51232e+12 -3.77446e+12 -3.74074e+12 -3.89919e+12 -3.76393e+12 -4.1011e+12 -4.12427e+12 -4.54986e+12 -4.75844e+12 -5.08574e+12 -5.2565e+12 -6.14955e+12 -4.74634e+12 -4.06903e+12 -3.74883e+12 -4.01951e+12 -4.02364e+12 -4.02236e+12 -3.98979e+12 -3.9283e+12 -3.84163e+12 -3.76338e+12 -3.68338e+12 -3.61866e+12 -3.58104e+12 -3.61402e+12 -3.65159e+12 -3.81739e+12 -3.81925e+12 -3.77543e+12 -3.71121e+12 -3.64405e+12 -3.57149e+12 -3.4811e+12 -3.42258e+12 -3.39408e+12 -3.45586e+12 -3.51711e+12 -3.5546e+12 -3.60536e+12 -3.65801e+12 -3.70678e+12 -3.74825e+12 -3.78166e+12 -3.80422e+12 -3.85545e+12 -3.77814e+12 -3.74426e+12 -3.69186e+12 -3.62608e+12 -3.53682e+12 -3.2115e+12 -4.41183e+12 -4.22055e+12 -4.07038e+12 -3.72765e+12 -4.77068e+12 -5.03204e+12 -4.9393e+12 -4.82059e+12 -4.76647e+12 -4.43124e+12 -4.39081e+12 -4.36255e+12 -4.0234e+12 -3.94069e+12 -3.25805e+12 -3.02703e+12 -2.11065e+12 -2.14637e+12 -2.1632e+12 -1.6643e+12 -1.80095e+12 -3.27442e+12 -3.45597e+12 -3.40179e+12 -3.66812e+12 -3.47011e+12 -3.69459e+12 -3.7735e+12 -4.23266e+12 -4.43311e+12 -4.71103e+12 -5.61853e+12 -6.28009e+12 -4.04014e+12 -4.63034e+12 -3.75209e+12 -3.52477e+12 -3.86217e+12 -3.9834e+12 -3.78298e+12 -3.84981e+12 -3.83346e+12 -3.80569e+12 -3.76013e+12 -3.69524e+12 -3.61462e+12 -3.53955e+12 -3.47067e+12 -3.46501e+12 -3.50607e+12 -3.56214e+12 -3.6152e+12 -3.69608e+12 -3.69081e+12 -3.6439e+12 -3.57831e+12 -3.5061e+12 -3.43028e+12 -3.38244e+12 -3.31411e+12 -3.29264e+12 -3.21586e+12 -3.18662e+12 -3.12155e+12 -3.19817e+12 -3.18384e+12 -3.28619e+12 -3.27279e+12 -3.31369e+12 -3.32876e+12 -3.37298e+12 -3.41962e+12 -3.46088e+12 -3.50767e+12 -3.55545e+12 -3.60122e+12 -3.80894e+12 -3.78308e+12 -3.70842e+12 -3.55291e+12 -3.51555e+12 -3.43763e+12 -3.33697e+12 -3.02968e+12 -4.26093e+12 -4.22154e+12 -4.07469e+12 -3.9713e+12 -4.24314e+12 -4.46501e+12 -4.59769e+12 -4.58827e+12 -4.5336e+12 -4.48564e+12 -4.13528e+12 -4.08309e+12 -3.62612e+12 -3.48741e+12 -2.24726e+12 -3.73245e+12 -3.27301e+12 -3.48709e+12 -1.92983e+12 -1.51403e+12 -2.99892e+12 -3.22775e+12 -3.221e+12 -3.23209e+12 -2.65575e+12 -3.21153e+12 -3.11866e+12 -3.97339e+12 -4.23373e+12 -5.05595e+12 -5.33541e+12 -4.94312e+12 -4.20735e+12 -4.13914e+12 -3.90934e+12 -3.65682e+12 -3.75934e+12 -3.77465e+12 -3.67249e+12 -3.66826e+12 -3.63502e+12 -3.59264e+12 -3.53837e+12 -3.47029e+12 -3.39443e+12 -3.32306e+12 -3.25058e+12 -3.33361e+12 -3.4336e+12 -3.53065e+12 -3.57138e+12 -3.59718e+12 -3.56977e+12 -3.51075e+12 -3.43958e+12 -3.36656e+12 -3.30493e+12 -3.24338e+12 -3.2012e+12 -3.14862e+12 -3.1152e+12 -3.0854e+12 -3.06329e+12 -3.11e+12 -3.12023e+12 -3.16742e+12 -3.18219e+12 -3.21427e+12 -3.24112e+12 -3.27924e+12 -3.3205e+12 -3.36186e+12 -3.64294e+12 -3.67926e+12 -3.7072e+12 -3.71811e+12 -3.69383e+12 -3.59331e+12 -3.24493e+12 -3.26979e+12 -3.18211e+12 -2.87746e+12 -3.94694e+12 -4.16586e+12 -4.24639e+12 -4.25484e+12 -4.22486e+12 -4.1831e+12 -3.86005e+12 -3.80096e+12 -3.72483e+12 -3.17321e+12 -2.90761e+12 -3.55647e+12 -3.82802e+12 -3.22651e+12 -3.1272e+12 -1.68953e+12 -1.46999e+12 -1.31895e+12 -2.68406e+12 -2.67054e+12 -2.97133e+12 -2.97023e+12 -3.25163e+12 -3.29369e+12 -2.07924e+12 -2.0602e+12 -3.3316e+12 -3.69687e+12 -4.48839e+12 -4.63441e+12 -4.43396e+12 -4.35357e+12 -3.96049e+12 -3.92659e+12 -3.71992e+12 -3.59796e+12 -3.60058e+12 -3.5755e+12 -3.23913e+12 -3.47843e+12 -3.52787e+12 -3.5216e+12 -3.4954e+12 -3.43973e+12 -3.3686e+12 -3.29468e+12 -3.22671e+12 -3.16447e+12 -3.11443e+12 -3.06783e+12 -3.03243e+12 -3.00485e+12 -2.98676e+12 -2.98877e+12 -3.01327e+12 -3.03099e+12 -3.06156e+12 -3.08423e+12 -3.11342e+12 -3.14347e+12 -3.40603e+12 -3.45137e+12 -3.49644e+12 -3.54077e+12 -3.58469e+12 -3.62652e+12 -3.66099e+12 -3.6751e+12 -3.61931e+12 -2.89457e+12 -3.09379e+12 -2.85917e+12 -3.96435e+12 -3.90361e+12 -3.87904e+12 -4.02263e+12 -4.08208e+12 -3.88548e+12 -3.92726e+12 -3.93128e+12 -3.90466e+12 -3.51683e+12 -3.43448e+12 -3.32014e+12 -2.89324e+12 -2.90598e+12 -3.2912e+12 -3.40581e+12 -2.91697e+12 -3.03493e+12 -2.77042e+12 -1.26904e+12 -1.00156e+12 -1.169e+12 -2.31059e+12 -2.31571e+12 -2.68473e+12 -3.03115e+12 -3.14816e+12 -3.5306e+12 -4.14571e+12 -2.85056e+12 -3.96566e+12 -4.10058e+12 -4.03114e+12 -4.01336e+12 -3.93553e+12 -3.75337e+12 -3.66501e+12 -3.538e+12 -3.45355e+12 -3.51059e+12 -3.47729e+12 -3.43144e+12 -3.3804e+12 -3.32052e+12 -3.24892e+12 -3.17045e+12 -3.08656e+12 -2.95245e+12 -3.02445e+12 -2.97856e+12 -2.94219e+12 -2.91413e+12 -2.8952e+12 -2.88913e+12 -2.8956e+12 -2.91328e+12 -3.17927e+12 -3.21781e+12 -3.25785e+12 -3.30008e+12 -3.34422e+12 -3.39025e+12 -3.43995e+12 -3.49655e+12 -3.56367e+12 -3.64912e+12 -3.77181e+12 -3.90715e+12 -2.88256e+12 -3.53009e+12 -3.50672e+12 -3.5427e+12 -3.63998e+12 -3.75729e+12 -3.81516e+12 -3.84209e+12 -3.60353e+12 -3.61623e+12 -3.60654e+12 -3.57274e+12 -3.06153e+12 -2.95057e+12 -2.54797e+12 -2.90437e+12 -2.85381e+12 -2.57695e+12 -2.69104e+12 -2.33916e+12 -2.43305e+12 -1.0974e+12 -833260000000.0 -1.63652e+12 -1.9561e+12 -1.92801e+12 -2.33732e+12 -2.42328e+12 -2.76e+12 -2.90396e+12 -3.37032e+12 -3.08633e+12 -4.23127e+12 -3.43766e+12 -3.64736e+12 -3.67754e+12 -3.68767e+12 -3.68225e+12 -3.63285e+12 -3.51444e+12 -3.42089e+12 -3.38126e+12 -3.32667e+12 -3.27892e+12 -3.22725e+12 -3.17067e+12 -3.10257e+12 -3.0208e+12 -2.9225e+12 -2.78384e+12 -2.41245e+12 -3.49954e+12 -3.56126e+12 -3.51087e+12 -3.44168e+12 -3.37015e+12 -3.29244e+12 -3.21471e+12 -3.1426e+12 -3.07823e+12 -2.93242e+12 -2.95734e+12 -2.98174e+12 -3.00998e+12 -3.04046e+12 -3.07442e+12 -3.1106e+12 -3.14865e+12 -3.18911e+12 -3.23229e+12 -3.27981e+12 -3.33585e+12 -3.40657e+12 -3.50183e+12 -3.64565e+12 -3.88577e+12 -4.11667e+12 -3.01687e+12 -3.14097e+12 -3.15006e+12 -2.83511e+12 -3.24731e+12 -3.43701e+12 -3.52636e+12 -3.56745e+12 -3.58635e+12 -3.31554e+12 -3.30545e+12 -3.27736e+12 -3.22632e+12 -3.15763e+12 -2.65543e+12 -2.51193e+12 -2.23297e+12 -2.62429e+12 -2.28704e+12 -2.43696e+12 -2.18228e+12 -2.11877e+12 -2.14768e+12 -924388000000.0 -647442000000.0 -1.33164e+12 -1.23774e+12 -1.53371e+12 -1.93616e+12 -1.99849e+12 -2.59657e+12 -2.87921e+12 -3.14475e+12 -3.42512e+12 -3.43645e+12 -3.62945e+12 -3.39617e+12 -3.40672e+12 -3.40039e+12 -3.3982e+12 -3.40584e+12 -3.43536e+12 -3.34506e+12 -3.27705e+12 -3.23295e+12 -3.18703e+12 -3.13294e+12 -3.08071e+12 -3.0256e+12 -2.96167e+12 -2.88487e+12 -2.79232e+12 -2.67119e+12 -2.48366e+12 -2.14481e+12 -3.59013e+12 -3.54772e+12 -3.42306e+12 -3.31034e+12 -3.21254e+12 -3.12594e+12 -3.04941e+12 -2.98306e+12 -2.92757e+12 -2.88161e+12 -2.84488e+12 -2.81643e+12 -2.79634e+12 -2.78605e+12 -2.78558e+12 -2.79412e+12 -2.80985e+12 -2.82883e+12 -2.8516e+12 -2.87607e+12 -2.90338e+12 -2.93288e+12 -2.96465e+12 -2.99827e+12 -3.03398e+12 -3.07238e+12 -3.11424e+12 -3.16213e+12 -3.22101e+12 -3.10756e+12 -2.76708e+12 -2.67374e+12 -2.61253e+12 -2.63683e+12 -3.04933e+12 -3.22005e+12 -3.29263e+12 -3.31981e+12 -3.32146e+12 -2.98951e+12 -2.9367e+12 -2.86696e+12 -2.77758e+12 -2.18761e+12 -1.86027e+12 -2.03085e+12 -1.83423e+12 -1.98612e+12 -2.32544e+12 -2.17323e+12 -1.79468e+12 -1.84768e+12 -1.44329e+12 -619437000000.0 -268391000000.0 -453159000000.0 -813242000000.0 -1.07669e+12 -1.00043e+12 -1.47343e+12 -1.51385e+12 -2.1597e+12 -2.41407e+12 -3.30918e+12 -3.93042e+12 -1.91446e+12 -3.42324e+12 -3.19629e+12 -3.11439e+12 -3.11164e+12 -3.11635e+12 -3.13126e+12 -3.40483e+12 -3.36097e+12 -3.28475e+12 -3.21825e+12 -3.14767e+12 -3.08929e+12 -3.04162e+12 -2.99234e+12 -2.93916e+12 -2.88514e+12 -2.82553e+12 -2.75657e+12 -2.67565e+12 -2.57554e+12 -2.44229e+12 -2.28208e+12 -3.54322e+12 -3.43067e+12 -3.26339e+12 -3.13019e+12 -3.02723e+12 -2.9445e+12 -2.87659e+12 -2.82115e+12 -2.7761e+12 -2.74014e+12 -2.71215e+12 -2.6917e+12 -2.67922e+12 -2.67479e+12 -2.67804e+12 -2.68802e+12 -2.70324e+12 -2.72182e+12 -2.74342e+12 -2.76717e+12 -2.79314e+12 -2.82087e+12 -2.85019e+12 -2.88127e+12 -3.29844e+12 -3.41069e+12 -3.59655e+12 -3.92485e+12 -4.42352e+12 -2.87255e+12 -3.47034e+12 -3.86953e+12 -3.64652e+12 -3.16327e+12 -3.10946e+12 -3.10185e+12 -3.09686e+12 -3.08067e+12 -3.05267e+12 -3.02425e+12 -2.65972e+12 -2.5856e+12 -2.48891e+12 -2.36386e+12 -1.69045e+12 -1.35455e+12 -1.64733e+12 -1.72418e+12 -2.51613e+12 -1.91659e+12 -1.82435e+12 -1.44207e+12 -928708000000.0 -477831000000.0 -304006000000.0 -88893300000.0 -523615000000.0 -772641000000.0 -885983000000.0 -935277000000.0 -967801000000.0 -1.64862e+12 -1.85695e+12 -2.77506e+12 -3.20667e+12 -2.63144e+12 -2.76361e+12 -2.77236e+12 -2.78877e+12 -2.82457e+12 -3.15352e+12 -3.14921e+12 -3.11683e+12 -3.06434e+12 -3.00853e+12 -2.95078e+12 -2.89835e+12 -2.85017e+12 -2.80058e+12 -1.9593e+12 -3.36449e+12 -3.21786e+12 -3.0407e+12 -2.91558e+12 -2.82473e+12 -2.756e+12 -2.70264e+12 -2.66045e+12 -2.62705e+12 -2.60096e+12 -2.58144e+12 -2.56843e+12 -2.56199e+12 -2.56196e+12 -2.56791e+12 -2.57898e+12 -2.59407e+12 -2.61213e+12 -2.63268e+12 -2.91446e+12 -2.94995e+12 -2.98874e+12 -3.03323e+12 -3.08614e+12 -3.14934e+12 -3.22216e+12 -3.28166e+12 -3.22556e+12 -1.7289e+12 -3.272e+12 -3.05859e+12 -2.97417e+12 -2.92194e+12 -2.87764e+12 -2.82827e+12 -2.7769e+12 -2.72448e+12 -2.3247e+12 -2.21878e+12 -2.08509e+12 -1.96012e+12 -1.61746e+12 -1.45748e+12 -2.84073e+12 -2.69387e+12 -2.22472e+12 -2.04306e+12 -1.46094e+12 -1.44457e+12 -1.1427e+12 -663718000000.0 -94374900000.0 -226938000000.0 -514812000000.0 -701366000000.0 -563361000000.0 -327820000000.0 -1.07152e+12 -1.21217e+12 -2.16702e+12 -2.49887e+12 -3.49685e+12 -1.56356e+12 -2.13092e+12 -2.3407e+12 -2.44158e+12 -2.85599e+12 -2.8945e+12 -2.91526e+12 -2.91386e+12 -2.89366e+12 -2.85361e+12 -2.80608e+12 -2.75671e+12 -2.74842e+12 -2.69303e+12 -2.63225e+12 -2.56355e+12 -2.48253e+12 -2.38362e+12 -2.26725e+12 -2.12672e+12 -1.82093e+12 -3.07952e+12 -2.92505e+12 -2.78208e+12 -2.68503e+12 -2.65523e+12 -2.67951e+12 -2.70502e+12 -2.73173e+12 -2.76004e+12 -2.79027e+12 -2.8227e+12 -2.8584e+12 -2.89874e+12 -2.94461e+12 -2.9941e+12 -3.03371e+12 -3.01622e+12 -2.61604e+12 -2.70181e+12 -3.09899e+12 -3.40803e+12 -3.48431e+12 -2.7709e+12 -2.70304e+12 -2.63639e+12 -2.56545e+12 -2.49468e+12 -2.41565e+12 -1.81976e+12 -1.67394e+12 -2.60828e+12 -3.00373e+12 -2.39131e+12 -1.70568e+12 -1.53751e+12 -1.01769e+12 -1.10732e+12 -796171000000.0 -543018000000.0 -172340000000.0 -217623000000.0 -238275000000.0 -478829000000.0 -428022000000.0 -557409000000.0 -404004000000.0 -1.507e+12 -1.84008e+12 -2.61903e+12 -2.77641e+12 -1.31213e+12 -1.80671e+12 -2.5229e+12 -2.58495e+12 -2.64021e+12 -2.6799e+12 -2.69738e+12 -2.70114e+12 -2.68574e+12 -2.65257e+12 -2.70903e+12 -2.66202e+12 -2.61351e+12 -2.56261e+12 -2.50917e+12 -2.4516e+12 -2.38682e+12 -2.31265e+12 -2.22902e+12 -2.13174e+12 -2.00506e+12 -1.68307e+12 -2.61771e+12 -2.56938e+12 -2.53286e+12 -2.50442e+12 -2.48217e+12 -2.46522e+12 -2.45334e+12 -2.44655e+12 -2.44488e+12 -2.44822e+12 -2.45614e+12 -2.46796e+12 -2.48288e+12 -2.50022e+12 -2.5196e+12 -2.54063e+12 -2.56285e+12 -2.58588e+12 -2.60997e+12 -2.63551e+12 -2.66248e+12 -2.6912e+12 -2.72266e+12 -2.75735e+12 -2.79304e+12 -2.82023e+12 -2.81297e+12 -2.68235e+12 -2.71378e+12 -2.78097e+12 -2.96876e+12 -3.07652e+12 -3.0696e+12 -2.96794e+12 -2.85194e+12 -2.46613e+12 -2.38449e+12 -2.29709e+12 -2.20045e+12 -2.09081e+12 -1.97065e+12 -1.35464e+12 -1.16282e+12 -1.79576e+12 -2.15611e+12 -2.51836e+12 -1.99612e+12 -1.85391e+12 -1.24797e+12 -1.09627e+12 -691418000000.0 -159174000000.0 -243488000000.0 -301163000000.0 -133636000000.0 -736210000000.0 -1.1142e+12 -2.10658e+12 -1.76904e+12 -2.0452e+12 -2.04467e+12 -2.21592e+12 -2.31643e+12 -2.39177e+12 -2.44624e+12 -2.4799e+12 -2.50128e+12 -2.61199e+12 -2.56805e+12 -2.52321e+12 -2.47795e+12 -2.43174e+12 -2.38489e+12 -2.33722e+12 -2.28636e+12 -2.23128e+12 -2.17307e+12 -2.11058e+12 -2.03628e+12 -1.92216e+12 -2.68841e+12 -2.60207e+12 -2.51473e+12 -2.45614e+12 -2.41823e+12 -2.39141e+12 -2.37104e+12 -2.35505e+12 -2.34261e+12 -2.33354e+12 -2.32799e+12 -2.32617e+12 -2.32822e+12 -2.33405e+12 -2.34332e+12 -2.3555e+12 -2.37002e+12 -2.38642e+12 -2.40442e+12 -2.42363e+12 -2.4435e+12 -2.46385e+12 -2.48511e+12 -2.50754e+12 -2.53112e+12 -2.55605e+12 -2.58216e+12 -2.60798e+12 -2.62762e+12 -2.62766e+12 -2.58382e+12 -2.5937e+12 -2.6326e+12 -2.68763e+12 -2.75624e+12 -2.78296e+12 -2.76339e+12 -2.69766e+12 -2.61613e+12 -2.5412e+12 -2.12489e+12 -2.02192e+12 -1.89625e+12 -1.76128e+12 -1.58836e+12 -1.88924e+12 -1.89634e+12 -2.10812e+12 -1.44052e+12 -1.32312e+12 -709455000000.0 -485247000000.0 -118395000000.0 -147980000000.0 -72354900000.0 -296467000000.0 -540714000000.0 -1.53921e+12 -1.84943e+12 -1.36307e+12 -1.18964e+12 -1.58309e+12 -1.90256e+12 -2.05261e+12 -2.14911e+12 -2.21827e+12 -2.26441e+12 -2.50614e+12 -2.49109e+12 -2.462e+12 -2.42515e+12 -2.3839e+12 -2.34114e+12 -2.29883e+12 -2.25778e+12 -2.21829e+12 -2.17948e+12 -2.14023e+12 -2.10228e+12 -2.06812e+12 -2.03945e+12 -1.4714e+12 -2.32221e+12 -2.29466e+12 -2.26166e+12 -2.24474e+12 -2.23398e+12 -2.2258e+12 -2.21895e+12 -2.21318e+12 -2.2087e+12 -2.20594e+12 -2.20537e+12 -2.20739e+12 -2.21218e+12 -2.21972e+12 -2.22975e+12 -2.24188e+12 -2.25569e+12 -2.27089e+12 -2.28727e+12 -2.30438e+12 -2.3217e+12 -2.33931e+12 -2.3576e+12 -2.49213e+12 -2.51509e+12 -2.53125e+12 -2.52799e+12 -2.49782e+12 -2.44291e+12 -2.37441e+12 -2.30089e+12 -2.21777e+12 -1.75615e+12 -1.62146e+12 -1.41758e+12 -1.13809e+12 -610562000000.0 -1.53639e+12 -1.19227e+12 -2.09393e+12 -1.67351e+12 -781291000000.0 -874679000000.0 -113540000000.0 -146171000000.0 -265051000000.0 -903588000000.0 -1.30631e+12 -1.48297e+12 -1.43932e+12 -1.15476e+12 -1.66353e+12 -1.81645e+12 -1.92386e+12 -1.99927e+12 -2.29909e+12 -2.32024e+12 -2.32179e+12 -2.30716e+12 -2.28017e+12 -2.24395e+12 -2.20314e+12 -2.16344e+12 -2.01722e+12 -2.01513e+12 -1.27256e+12 -1.97868e+12 -2.01342e+12 -2.04099e+12 -2.05764e+12 -2.06764e+12 -2.07348e+12 -2.07675e+12 -2.07866e+12 -2.08019e+12 -2.08219e+12 -2.08535e+12 -2.09014e+12 -2.09678e+12 -2.10532e+12 -2.11558e+12 -2.12726e+12 -2.37645e+12 -2.39584e+12 -2.41561e+12 -2.43444e+12 -2.44908e+12 -2.45283e+12 -2.43882e+12 -2.44257e+12 -2.4634e+12 -2.28888e+12 -2.2534e+12 -2.19997e+12 -2.13513e+12 -2.0602e+12 -1.97237e+12 -1.87102e+12 -1.31972e+12 -1.08424e+12 -679575000000.0 -1.9944e+12 -731597000000.0 -1.88174e+12 -1.35661e+12 -946730000000.0 -120397000000.0 -137884000000.0 -434626000000.0 -765621000000.0 -926298000000.0 -998252000000.0 -1.539e+12 -1.6379e+12 -1.72637e+12 -2.05304e+12 -2.09638e+12 -2.13014e+12 -2.14823e+12 -2.14923e+12 -2.13406e+12 -2.10399e+12 -2.12692e+12 -2.09401e+12 -2.06463e+12 -2.03822e+12 -2.01564e+12 -2.00038e+12 -1.99748e+12 -2.01434e+12 -2.06941e+12 -2.16205e+12 -1.24376e+12 -1.68154e+12 -1.79878e+12 -2.14004e+12 -2.15377e+12 -2.16826e+12 -2.183e+12 -2.1976e+12 -2.21233e+12 -2.22738e+12 -2.24231e+12 -2.25686e+12 -2.27004e+12 -2.27972e+12 -2.28326e+12 -2.27913e+12 -2.28087e+12 -2.29084e+12 -2.30509e+12 -2.3149e+12 -2.31506e+12 -2.30865e+12 -2.02209e+12 -1.96707e+12 -1.90184e+12 -1.82545e+12 -1.73259e+12 -1.62637e+12 -1.4881e+12 -759804000000.0 -1.9596e+12 -1.2442e+12 -511716000000.0 -471735000000.0 -276188000000.0 -261297000000.0 -302372000000.0 -1.03071e+12 -1.03229e+12 -615985000000.0 -1.62386e+12 -1.79813e+12 -1.85026e+12 -1.89447e+12 -1.93562e+12 -1.9681e+12 -1.99022e+12 -1.99143e+12 -2.06347e+12 -2.02472e+12 -1.99119e+12 -1.96367e+12 -1.94176e+12 -1.92501e+12 -1.91413e+12 -1.91123e+12 -1.92105e+12 -1.95043e+12 -2.00998e+12 -2.10773e+12 -2.20121e+12 -1.86026e+12 -1.89621e+12 -1.91878e+12 -1.93357e+12 -1.9436e+12 -1.95082e+12 -1.95658e+12 -1.96195e+12 -1.96768e+12 -1.97427e+12 -1.98199e+12 -1.9909e+12 -2.0009e+12 -2.01172e+12 -2.02316e+12 -2.03516e+12 -2.0475e+12 -2.05964e+12 -2.07133e+12 -2.08292e+12 -2.09424e+12 -2.10463e+12 -2.11361e+12 -2.11972e+12 -2.12127e+12 -2.11835e+12 -2.11679e+12 -2.11902e+12 -2.12396e+12 -2.12643e+12 -2.12181e+12 -2.1097e+12 -2.09156e+12 -2.06357e+12 -1.74443e+12 -1.6783e+12 -1.5973e+12 -1.49605e+12 -1.37043e+12 -1.2414e+12 -1.06031e+12 -1.78243e+12 -1.53819e+12 -534297000000.0 -1.64877e+12 -794198000000.0 -124787000000.0 -103024000000.0 -97643500000.0 -529864000000.0 -702854000000.0 -1.09778e+12 -1.53654e+12 -1.56926e+12 -1.62022e+12 -1.66665e+12 -1.69644e+12 -1.73208e+12 -1.77496e+12 -1.81856e+12 -1.96927e+12 -1.92354e+12 -1.882e+12 -1.84922e+12 -1.82543e+12 -1.81016e+12 -1.80153e+12 -1.79921e+12 -1.80499e+12 -1.82188e+12 -1.85494e+12 -1.9109e+12 -1.99507e+12 -2.10743e+12 -2.21528e+12 -1.26811e+12 -1.54581e+12 -1.65127e+12 -1.71526e+12 -1.75669e+12 -1.7847e+12 -1.80422e+12 -1.81824e+12 -1.82878e+12 -1.83728e+12 -1.8448e+12 -1.85209e+12 -1.85965e+12 -1.86775e+12 -1.8765e+12 -1.88577e+12 -1.89535e+12 -1.90513e+12 -1.91511e+12 -1.92503e+12 -1.93437e+12 -1.94295e+12 -1.95103e+12 -1.95809e+12 -1.96336e+12 -1.96623e+12 -1.96569e+12 -1.96168e+12 -1.95674e+12 -1.95256e+12 -1.94938e+12 -1.94557e+12 -1.93804e+12 -1.92432e+12 -1.90488e+12 -1.87916e+12 -1.84446e+12 -1.79961e+12 -1.46381e+12 -1.38087e+12 -1.28025e+12 -1.1661e+12 -1.02704e+12 -800759000000.0 -1.5803e+12 -1.47111e+12 -1.00678e+12 -1.52218e+12 -705163000000.0 -294007000000.0 -250455000000.0 -200103000000.0 -347079000000.0 -499617000000.0 -1.3942e+12 -1.38618e+12 -1.42972e+12 -1.42719e+12 -1.46049e+12 -1.49527e+12 -1.52753e+12 -1.52161e+12 -1.85607e+12 -1.85203e+12 -1.78811e+12 -1.73528e+12 -1.70095e+12 -1.67967e+12 -1.66866e+12 -1.66709e+12 -1.67248e+12 -1.68481e+12 -1.70615e+12 -1.23319e+12 -1.44186e+12 -1.53042e+12 -1.59032e+12 -1.63205e+12 -1.66175e+12 -1.68332e+12 -1.69935e+12 -1.71168e+12 -1.72167e+12 -1.73032e+12 -1.73832e+12 -1.74613e+12 -1.75403e+12 -1.76209e+12 -1.7702e+12 -1.7782e+12 -1.78602e+12 -1.79368e+12 -1.80089e+12 -1.75951e+12 -1.74397e+12 -1.72405e+12 -1.69974e+12 -1.6703e+12 -1.63367e+12 -1.58845e+12 -1.53203e+12 -1.08933e+12 -974717000000.0 -802311000000.0 -1.24773e+12 -502918000000.0 -110213000000.0 -67893500000.0 -1.09436e+12 -1.25095e+12 -1.30341e+12 -1.34018e+12 -1.36007e+12 -1.55153e+12 -1.61854e+12 -1.69519e+12 -1.7837e+12 -1.66917e+12 -1.58316e+12 -1.53925e+12 -1.73974e+12 -1.79004e+12 -1.86035e+12 -1.95125e+12 -2.06557e+12 -2.13986e+12 -1.1801e+12 -1.35078e+12 -1.42477e+12 -1.47866e+12 -1.51815e+12 -1.54733e+12 -1.56915e+12 -1.58575e+12 -1.59869e+12 -1.60919e+12 -1.80715e+12 -1.81236e+12 -1.8165e+12 -1.81888e+12 -1.81873e+12 -1.8156e+12 -1.80941e+12 -1.80128e+12 -1.79201e+12 -1.78205e+12 -1.77154e+12 -1.50042e+12 -1.46955e+12 -1.43268e+12 -1.38692e+12 -1.33073e+12 -1.26423e+12 -1.18444e+12 -754270000000.0 -1.38084e+12 -1.38188e+12 -1.33716e+12 -237262000000.0 -140421000000.0 -219213000000.0 -776016000000.0 -1.16816e+12 -1.03541e+12 -1.15552e+12 -1.38599e+12 -1.28349e+12 -1.34036e+12 -1.4797e+12 -1.71024e+12 -1.52344e+12 -1.51835e+12 -1.52249e+12 -1.5346e+12 -1.55277e+12 -1.57765e+12 -1.61142e+12 -1.6568e+12 -1.71611e+12 -1.78978e+12 -1.87764e+12 -1.97462e+12 -2.01947e+12 -1.61813e+12 -1.62612e+12 -1.63358e+12 -1.64073e+12 -1.64763e+12 -1.65418e+12 -1.66026e+12 -1.66582e+12 -1.67086e+12 -1.67509e+12 -1.67801e+12 -1.67949e+12 -1.67929e+12 -1.6767e+12 -1.67109e+12 -1.66231e+12 -1.6509e+12 -1.63728e+12 -1.62145e+12 -1.60424e+12 -1.58695e+12 -1.56872e+12 -1.54844e+12 -1.5261e+12 -1.27832e+12 -1.24302e+12 -1.19937e+12 -1.14706e+12 -1.08383e+12 -1.00541e+12 -906737000000.0 -1.17953e+12 -1.15798e+12 -1.10292e+12 -978656000000.0 -238088000000.0 -106373000000.0 -75050300000.0 -375033000000.0 -746982000000.0 -925209000000.0 -1.19913e+12 -1.22498e+12 -1.22386e+12 -1.29461e+12 -977774000000.0 -951756000000.0 -1.23615e+12 -1.62245e+12 -1.43564e+12 -1.35659e+12 -1.34741e+12 -1.35379e+12 -1.36749e+12 -1.38654e+12 -1.41062e+12 -1.43936e+12 -1.47374e+12 -1.5157e+12 -1.56712e+12 -1.62835e+12 -1.6985e+12 -1.77448e+12 -1.85229e+12 -1.87187e+12 -1.12183e+12 -1.26642e+12 -1.3286e+12 -1.37605e+12 -1.41205e+12 -1.43939e+12 -1.46028e+12 -1.47641e+12 -1.48909e+12 -1.49932e+12 -1.50787e+12 -1.51525e+12 -1.52179e+12 -1.5277e+12 -1.53302e+12 -1.53765e+12 -1.54148e+12 -1.54447e+12 -1.54659e+12 -1.54755e+12 -1.54688e+12 -1.54433e+12 -1.53951e+12 -1.5318e+12 -1.52074e+12 -1.50633e+12 -1.48879e+12 -1.46791e+12 -1.44345e+12 -1.41835e+12 -1.39624e+12 -1.37533e+12 -1.35554e+12 -1.33428e+12 -1.30879e+12 -1.06771e+12 -1.03018e+12 -982821000000.0 -920416000000.0 -836848000000.0 -700875000000.0 -994807000000.0 -978826000000.0 -914499000000.0 -659769000000.0 -734377000000.0 -144737000000.0 -443722000000.0 -688913000000.0 -723927000000.0 -1.0008e+12 -1.07206e+12 -1.10022e+12 -1.12312e+12 -1.05848e+12 -1.39461e+12 -293967000000.0 -888001000000.0 -1.03368e+12 -1.12244e+12 -1.16434e+12 -1.19801e+12 -1.22914e+12 -1.26028e+12 -1.29303e+12 -1.32904e+12 -1.3695e+12 -1.41573e+12 -1.46832e+12 -1.52651e+12 -1.58832e+12 -1.65083e+12 -1.70992e+12 -1.70925e+12 -1.0625e+12 -1.18609e+12 -1.23842e+12 -1.2795e+12 -1.31145e+12 -1.33623e+12 -1.35546e+12 -1.37044e+12 -1.38221e+12 -1.39158e+12 -1.39917e+12 -1.40541e+12 -1.41056e+12 -1.41479e+12 -1.41812e+12 -1.42049e+12 -1.42176e+12 -1.4219e+12 -1.42084e+12 -1.41827e+12 -1.41375e+12 -1.40694e+12 -1.39736e+12 -1.38444e+12 -1.36775e+12 -1.34717e+12 -1.32237e+12 -1.29224e+12 -1.25602e+12 -1.22154e+12 -1.1979e+12 -1.1831e+12 -1.16961e+12 -1.15023e+12 -1.12616e+12 -1.09873e+12 -838937000000.0 -774297000000.0 -656317000000.0 -626664000000.0 -47282400000.0 -117159000000.0 -68450000000.0 -256138000000.0 -937067000000.0 -974415000000.0 -1.01793e+12 -1.03867e+12 -750324000000.0 -668545000000.0 -881996000000.0 -886634000000.0 -931597000000.0 -977643000000.0 -1.02292e+12 -1.00289e+12 -1.10804e+12 -1.15179e+12 -1.1868e+12 -1.21459e+12 -1.2365e+12 -1.2537e+12 -1.26712e+12 -1.27751e+12 -1.28552e+12 -1.29167e+12 -1.29629e+12 -1.29961e+12 -1.30175e+12 -1.00455e+12 -994639000000.0 -976331000000.0 -953776000000.0 -932000000000.0 -907889000000.0 -880600000000.0 -819413000000.0 -809946000000.0 -743468000000.0 -234259000000.0 -264540000000.0 -394516000000.0 -571890000000.0 -532508000000.0 -809432000000.0 -915656000000.0 -1.02027e+12 -874567000000.0 -373711000000.0 -398542000000.0 -1.06407e+12 -1.10298e+12 -1.14083e+12 -1.17932e+12 -1.21972e+12 -1.26301e+12 -1.30994e+12 -1.36017e+12 -1.41244e+12 -1.46475e+12 -1.51414e+12 -1.55656e+12 -1.54101e+12 -1.30274e+12 -1.30252e+12 -1.30097e+12 -1.29803e+12 -1.29357e+12 -1.2873e+12 -1.27877e+12 -1.26757e+12 -1.25313e+12 -1.23484e+12 -1.21217e+12 -1.18478e+12 -1.15171e+12 -1.10974e+12 -1.05401e+12 -1.00302e+12 -1.00127e+12 -809245000000.0 -789904000000.0 -777988000000.0 -767959000000.0 -756135000000.0 -722208000000.0 -628611000000.0 -662403000000.0 -658789000000.0 -605419000000.0 -513349000000.0 -188098000000.0 -233422000000.0 -315388000000.0 -421304000000.0 -310507000000.0 -933263000000.0 -940742000000.0 -398573000000.0 -964992000000.0 -640406000000.0 -727192000000.0 -779838000000.0 -838711000000.0 -892212000000.0 -940245000000.0 -984056000000.0 -1.02569e+12 -1.06718e+12 -1.10945e+12 -1.15321e+12 -1.19844e+12 -1.2444e+12 -1.28989e+12 -1.33292e+12 -1.37069e+12 -1.39965e+12 -1.375e+12 -942112000000.0 -1.03072e+12 -1.06692e+12 -1.09638e+12 -1.12019e+12 -1.13925e+12 -1.15431e+12 -1.16587e+12 -1.17448e+12 -1.1807e+12 -1.18497e+12 -1.18756e+12 -1.18865e+12 -1.18833e+12 -1.18664e+12 -1.18354e+12 -1.17893e+12 -1.17271e+12 -1.16475e+12 -1.15473e+12 -1.14219e+12 -1.1266e+12 -1.1073e+12 -1.08349e+12 -1.0545e+12 -1.02009e+12 -978403000000.0 -920405000000.0 -818312000000.0 -785212000000.0 -838245000000.0 -842653000000.0 -829451000000.0 -633364000000.0 -647264000000.0 -675269000000.0 -627139000000.0 -532792000000.0 -528886000000.0 -483823000000.0 -418003000000.0 -228744000000.0 -149973000000.0 -79622900000.0 -108377000000.0 -154155000000.0 -270540000000.0 -901353000000.0 -803715000000.0 -859202000000.0 -621990000000.0 -553934000000.0 -393654000000.0 -524975000000.0 -460578000000.0 -541862000000.0 -642793000000.0 -713710000000.0 -773100000000.0 -823765000000.0 -869190000000.0 -912537000000.0 -955168000000.0 -997739000000.0 -1.04031e+12 -1.08239e+12 -1.12339e+12 -1.16215e+12 -1.19689e+12 -1.22557e+12 -1.2453e+12 -1.21782e+12 -878764000000.0 -952753000000.0 -982474000000.0 -1.00715e+12 -1.02752e+12 -1.04403e+12 -1.05684e+12 -1.06621e+12 -1.07262e+12 -1.07666e+12 -1.07866e+12 -1.07884e+12 -1.07733e+12 -1.07421e+12 -1.06955e+12 -1.06332e+12 -1.05546e+12 -1.04587e+12 -1.03441e+12 -1.02073e+12 -1.00435e+12 -984598000000.0 -960590000000.0 -931350000000.0 -896086000000.0 -856588000000.0 -814104000000.0 -758116000000.0 -693060000000.0 -707098000000.0 -712920000000.0 -689333000000.0 -666130000000.0 -648680000000.0 -627867000000.0 -505862000000.0 -567134000000.0 -665157000000.0 -323689000000.0 -230748000000.0 -143362000000.0 -70797800000.0 -123347000000.0 -319913000000.0 -191875000000.0 -450640000000.0 -591259000000.0 -624394000000.0 -706228000000.0 -661534000000.0 -404724000000.0 -44301200000.0 -331293000000.0 -433678000000.0 -435809000000.0 -534711000000.0 -605340000000.0 -662139000000.0 -710834000000.0 -756457000000.0 -811402000000.0 -872847000000.0 -897457000000.0 -918743000000.0 -936598000000.0 -950690000000.0 -960927000000.0 -967625000000.0 -971444000000.0 -972933000000.0 -972313000000.0 -969719000000.0 -965267000000.0 -959040000000.0 -951133000000.0 -941579000000.0 -930351000000.0 -917406000000.0 -639373000000.0 -613650000000.0 -609126000000.0 -576440000000.0 -513088000000.0 -510108000000.0 -491619000000.0 -461978000000.0 -458660000000.0 -419415000000.0 -401356000000.0 -172024000000.0 -193486000000.0 -142433000000.0 -261315000000.0 -296624000000.0 -340582000000.0 -443235000000.0 -727429000000.0 -424119000000.0 -150943000000.0 -182576000000.0 -260310000000.0 -373141000000.0 -800426000000.0 -843235000000.0 -884899000000.0 -924856000000.0 -962977000000.0 -998822000000.0 -1.03144e+12 -1.06003e+12 -1.08291e+12 -1.09824e+12 -1.07391e+12 -737970000000.0 -902598000000.0 -885587000000.0 -865789000000.0 -842302000000.0 -813900000000.0 -779041000000.0 -736072000000.0 -691872000000.0 -670700000000.0 -381861000000.0 -363851000000.0 -335751000000.0 -276301000000.0 -429835000000.0 -393634000000.0 -206237000000.0 -237383000000.0 -310608000000.0 -307444000000.0 -290683000000.0 -303953000000.0 -198659000000.0 -55384800000.0 -41380300000.0 -50730300000.0 -76678600000.0 -176316000000.0 -9034930000.0 -121920000000.0 -179592000000.0 -353408000000.0 -444113000000.0 -504178000000.0 -552559000000.0 -599635000000.0 -645546000000.0 -690070000000.0 -732215000000.0 -770947000000.0 -807109000000.0 -840814000000.0 -871802000000.0 -900267000000.0 -925416000000.0 -945430000000.0 -960957000000.0 -946378000000.0 -789837000000.0 -812032000000.0 -832005000000.0 -847899000000.0 -859009000000.0 -865977000000.0 -869574000000.0 -870443000000.0 -869041000000.0 -865455000000.0 -859758000000.0 -852042000000.0 -842414000000.0 -831011000000.0 -817967000000.0 -803341000000.0 -787187000000.0 -769431000000.0 -749731000000.0 -727320000000.0 -700909000000.0 -668534000000.0 -626886000000.0 -567626000000.0 -550334000000.0 -563203000000.0 -550707000000.0 -517328000000.0 -497062000000.0 -432268000000.0 -190701000000.0 -311970000000.0 -274731000000.0 -257348000000.0 -218078000000.0 -186310000000.0 -122081000000.0 -75251100000.0 -19339300000.0 -171147000000.0 -109085000000.0 -338360000000.0 -587160000000.0 -907661000000.0 -492757000000.0 -211470000000.0 -297427000000.0 -296354000000.0 -359964000000.0 -398449000000.0 -442542000000.0 -490267000000.0 -538124000000.0 -582638000000.0 -621029000000.0 -655470000000.0 -686893000000.0 -716003000000.0 -743979000000.0 -770868000000.0 -793901000000.0 -814001000000.0 -834343000000.0 -840125000000.0 -655788000000.0 -704389000000.0 -728748000000.0 -748733000000.0 -761233000000.0 -768134000000.0 -771378000000.0 -771488000000.0 -769095000000.0 -764495000000.0 -757622000000.0 -748476000000.0 -737164000000.0 -723868000000.0 -708718000000.0 -692026000000.0 -674066000000.0 -655059000000.0 -635144000000.0 -613896000000.0 -590391000000.0 -562902000000.0 -528914000000.0 -483582000000.0 -452961000000.0 -449064000000.0 -468728000000.0 -450683000000.0 -414459000000.0 -328601000000.0 -342490000000.0 -246411000000.0 -227608000000.0 -198821000000.0 -258064000000.0 -219855000000.0 -38586800000.0 -23394300000.0 -109873000000.0 -99482200000.0 -63658700000.0 -118003000000.0 -174698000000.0 -376852000000.0 -394429000000.0 -371691000000.0 -155966000000.0 -172882000000.0 -152063000000.0 -110955000000.0 -223548000000.0 -243145000000.0 -255425000000.0 -284112000000.0 -330615000000.0 -387002000000.0 -436255000000.0 -475556000000.0 -508971000000.0 -537242000000.0 -665240000000.0 -687597000000.0 -716805000000.0 -761803000000.0 -564783000000.0 -622938000000.0 -653206000000.0 -668521000000.0 -674721000000.0 -677232000000.0 -676433000000.0 -672771000000.0 -666874000000.0 -658778000000.0 -648271000000.0 -635335000000.0 -620142000000.0 -602821000000.0 -583565000000.0 -563083000000.0 -541998000000.0 -520934000000.0 -500058000000.0 -479077000000.0 -456930000000.0 -431114000000.0 -398442000000.0 -375417000000.0 -355128000000.0 -351309000000.0 -365479000000.0 -342649000000.0 -266010000000.0 -242273000000.0 -246535000000.0 -114299000000.0 -102509000000.0 -61555600000.0 -28928400000.0 -124249000000.0 -58703200000.0 -70564500000.0 -92336400000.0 -89395300000.0 -94919200000.0 -58421800000.0 -25151400000.0 -58113000000.0 -108395000000.0 -123956000000.0 -133652000000.0 -364176000000.0 -396764000000.0 -284682000000.0 -265855000000.0 -216664000000.0 -185565000000.0 -166891000000.0 -563116000000.0 -589294000000.0 -617029000000.0 -642672000000.0 -481297000000.0 -563758000000.0 -153657000000.0 -155000000000.0 -160801000000.0 -24849200000.0 -14545200000.0 -9035770000.0 -62085000000.0 -64249700000.0 -66227600000.0 -66257600000.0 -65820100000.0 -19454800000.0 -177476000000.0 -223573000000.0 -250500000000.0 -138024000000.0 -109491000000.0 -126425000000.0 -147994000000.0 -224798000000.0 -294154000000.0 -330536000000.0 -365724000000.0 -390755000000.0 -411259000000.0 -433619000000.0 -460528000000.0 -489054000000.0 -514725000000.0 -537567000000.0 -556924000000.0 -608598000000.0 -726761000000.0 -584416000000.0 -587059000000.0 -587481000000.0 -585309000000.0 -580256000000.0 -572800000000.0 -563235000000.0 -551330000000.0 -536851000000.0 -519811000000.0 -500294000000.0 -478450000000.0 -454574000000.0 -430150000000.0 -406656000000.0 -384600000000.0 -364554000000.0 -346772000000.0 -329583000000.0 -308270000000.0 -295494000000.0 -276705000000.0 -259527000000.0 -251212000000.0 -254650000000.0 -208956000000.0 -116693000000.0 -11930700000.0 -9035750000.0 -9288820000.0 -9231160000.0 -9035750000.0 -9035750000.0 -111391000000.0 -56614200000.0 -83335600000.0 -106084000000.0 -220292000000.0 -198729000000.0 -75943900000.0 -77935200000.0 -57243000000.0 -50272100000.0 -69237000000.0 -48709700000.0 -50444200000.0 -48563500000.0 -105686000000.0 -136914000000.0 -144293000000.0 -166146000000.0 -189026000000.0 -209782000000.0 -229895000000.0 -251526000000.0 -273975000000.0 -299453000000.0 -330730000000.0 -390544000000.0 -487221000000.0 -749397000000.0 -475456000000.0 -522098000000.0 -505136000000.0 -499164000000.0 -493461000000.0 -485786000000.0 -476228000000.0 -464658000000.0 -450881000000.0 -434396000000.0 -415253000000.0 -393216000000.0 -368416000000.0 -341204000000.0 -311608000000.0 -283116000000.0 -258304000000.0 -236097000000.0 -219825000000.0 -209616000000.0 -202933000000.0 -199399000000.0 -187165000000.0 -171696000000.0 -158661000000.0 -144359000000.0 -135616000000.0 -133030000000.0 -182394000000.0 -228079000000.0 -271494000000.0 -195087000000.0 -172379000000.0 -198251000000.0 -83626500000.0 -59073000000.0 -73204500000.0 -69775400000.0 -71037200000.0 -67000500000.0 -62685600000.0 -17823900000.0 -13262300000.0 -22020600000.0 -31023600000.0 -40564600000.0 -50510500000.0 -146554000000.0 -103796000000.0 -39509400000.0 -59155400000.0 -61069000000.0 -68964600000.0 -82697600000.0 -286398000000.0 -255537000000.0 -236925000000.0 -224954000000.0 -212125000000.0 -198190000000.0 -184577000000.0 -171531000000.0 -159211000000.0 -147892000000.0 -137933000000.0 -129678000000.0 -74581900000.0 -64524500000.0 -42952800000.0 -45707000000.0 -48624700000.0 -50535500000.0 -10332100000.0 -12774900000.0 -47725500000.0 -23494000000.0 -25408800000.0 -28719400000.0 -27665500000.0 -27739800000.0 -9035750000.0 -112805000000.0 -63438800000.0 -100097000000.0 -102681000000.0 -62013800000.0 -50638700000.0 -35731200000.0 -21262700000.0 -71538900000.0 -86497800000.0 -96915300000.0 -100308000000.0 -106576000000.0 -117356000000.0 -133273000000.0 -154497000000.0 -179481000000.0 -203115000000.0 -213281000000.0 -197331000000.0 -150772000000.0 -122563000000.0 -114357000000.0 -106610000000.0 -103353000000.0 -104672000000.0 -105539000000.0 -107149000000.0 -108740000000.0 -108145000000.0 -106518000000.0 -99265900000.0 -90110800000.0 -82740400000.0 -15535500000.0 -9034530000.0 -9066660000.0 -9035750000.0 -9035750000.0 -9035750000.0 -9035750000.0 -27524800000.0 -8958310000.0 -19824400000.0 -20855000000.0 -36654200000.0 -28290600000.0 -9322170000.0 -12543500000.0 -12104900000.0 -13480000000.0 -17584500000.0 -14746900000.0 -13560200000.0 -13137100000.0 -10567900000.0 -27887400000.0 -31996700000.0 -34972400000.0 -35531100000.0 -36362400000.0 -37112300000.0 -37972700000.0 -39221700000.0 -40985600000.0 -43345400000.0 -46594200000.0 -50103100000.0 -50535700000.0 -71252500000.0 -37884400000.0 -35829600000.0 -35403700000.0 -34734300000.0 -33647500000.0 -34110600000.0 -34563000000.0 -35035900000.0 -35485700000.0 -36609300000.0 -38315700000.0 -40177000000.0 -42263400000.0 -44270300000.0 -46169000000.0 -48735500000.0 -51049500000.0 -53454800000.0 -55532200000.0 -56536900000.0 -57051300000.0 -55408000000.0 -52526200000.0 -49734400000.0 -46224900000.0 -41137600000.0 -32534900000.0 -31078800000.0 -30130000000.0 -29127100000.0 -14097600000.0 -11554500000.0 -20878700000.0 -11106100000.0 -9028780000.0 -13675400000.0 -14229600000.0 -15275800000.0 -14905000000.0 -14764000000.0 -9035750000.0 
SCALARS Shear_Stress float 1
LOOKUP_TABLE default
26782100000.0 32840000000.0 3288860000.0 55679300000.0 50198200000.0 51430100000.0 43190100000.0 45152900000.0 27392500000.0 62109600000.0 24217400000.0 53980900000.0 2016440000.0 32202800000.0 29187300000.0 65152100000.0 139939000000.0 4339540000.0 3988080000.0 39527900000.0 36025500000.0 76804200000.0 17340400000.0 32031600000.0 13086300000.0 35957300000.0 8020060000.0 69904200000.0 143209000000.0 174129000000.0 5635080000.0 23525800000.0 49182300000.0 36772800000.0 7816840000.0 65648100000.0 45260800000.0 27354500000.0 28170000000.0 20791000000.0 63284700000.0 183258000000.0 216735000000.0 76158000000.0 75480900000.0 63257900000.0 25338500000.0 161966000000.0 3232510000.0 29054200000.0 5265400000.0 24813100000.0 18743700000.0 40112000000.0 35202800000.0 72101800000.0 23983500000.0 146372000000.0 46508800000.0 71229500000.0 196284000000.0 206433000000.0 248683000000.0 231375000000.0 212371000000.0 226279000000.0 78009100000.0 46938700000.0 85600800000.0 134555000000.0 153734000000.0 222247000000.0 43004900000.0 28704200000.0 11450800000.0 69782200000.0 60261000000.0 100034000000.0 175470000000.0 223220000000.0 227550000000.0 274440000000.0 232975000000.0 223106000000.0 93932800000.0 5492940000.0 112630000000.0 113337000000.0 245989000000.0 262968000000.0 2233130000.0 105608000000.0 100195000000.0 107568000000.0 168249000000.0 306859000000.0 394508000000.0 314254000000.0 271661000000.0 224802000000.0 55634300000.0 72804300000.0 59883900000.0 109821000000.0 226194000000.0 35817400000.0 151262000000.0 151195000000.0 168001000000.0 127775000000.0 157795000000.0 159862000000.0 212288000000.0 255907000000.0 295827000000.0 338559000000.0 175489000000.0 343444000000.0 315463000000.0 306967000000.0 278724000000.0 249349000000.0 229197000000.0 219748000000.0 27475500000.0 114085000000.0 125670000000.0 154670000000.0 246436000000.0 309132000000.0 213755000000.0 229298000000.0 175136000000.0 186820000000.0 242960000000.0 212981000000.0 223847000000.0 287936000000.0 247090000000.0 209373000000.0 46627400000.0 197920000000.0 241042000000.0 284703000000.0 79742700000.0 536191000000.0 284430000000.0 532099000000.0 372099000000.0 427366000000.0 314561000000.0 217744000000.0 180067000000.0 203093000000.0 214039000000.0 155917000000.0 244215000000.0 257604000000.0 216245000000.0 9145920000.0 29421500000.0 356442000000.0 602345000000.0 577275000000.0 544209000000.0 417588000000.0 290261000000.0 196613000000.0 175231000000.0 180238000000.0 167982000000.0 191060000000.0 158659000000.0 163841000000.0 142664000000.0 182683000000.0 201985000000.0 240597000000.0 219652000000.0 223336000000.0 184583000000.0 279887000000.0 558848000000.0 242063000000.0 596581000000.0 516607000000.0 477868000000.0 382963000000.0 327642000000.0 242754000000.0 191455000000.0 153922000000.0 142710000000.0 128720000000.0 158689000000.0 201506000000.0 184196000000.0 184773000000.0 142775000000.0 57674600000.0 39726100000.0 291746000000.0 479430000000.0 224022000000.0 273124000000.0 193885000000.0 422454000000.0 541916000000.0 571445000000.0 547093000000.0 427488000000.0 239090000000.0 151299000000.0 128930000000.0 111903000000.0 121120000000.0 171858000000.0 179264000000.0 137149000000.0 119264000000.0 119486000000.0 197679000000.0 62279000000.0 417758000000.0 569739000000.0 521382000000.0 349357000000.0 161959000000.0 119575000000.0 122360000000.0 93636100000.0 97371100000.0 60807600000.0 88277400000.0 84646300000.0 133337000000.0 166594000000.0 135727000000.0 84506400000.0 101588000000.0 6366680000.0 26514800000.0 641910000000.0 595283000000.0 577083000000.0 465998000000.0 374260000000.0 202370000000.0 112481000000.0 99393500000.0 52486100000.0 28862500000.0 95455000000.0 141127000000.0 127772000000.0 135655000000.0 78318600000.0 76004100000.0 12159000000.0 192877000000.0 282525000000.0 100159000000.0 31704000000.0 178508000000.0 120168000000.0 164294000000.0 126971000000.0 268659000000.0 679077000000.0 663700000000.0 517724000000.0 114130000000.0 97845900000.0 71195900000.0 5638340000.0 21876700000.0 96895800000.0 84615900000.0 3387180000.0 275104000000.0 447412000000.0 219112000000.0 276378000000.0 86860400000.0 175485000000.0 617399000000.0 444739000000.0 87574300000.0 52025100000.0 123417000000.0 107246000000.0 69825100000.0 7383980000.0 89443100000.0 66773400000.0 93715000000.0 27356100000.0 12992500000.0 73596500000.0 12991300000.0 74475400000.0 69073500000.0 358611000000.0 586205000000.0 268235000000.0 324079000000.0 301907000000.0 272511000000.0 56854300000.0 555420000000.0 558256000000.0 81099700000.0 107818000000.0 15540300000.0 232627000000.0 126575000000.0 8719390000.0 24275300000.0 50796300000.0 147014000000.0 388044000000.0 357663000000.0 422788000000.0 384531000000.0 400092000000.0 248370000000.0 338008000000.0 184007000000.0 66968000000.0 261743000000.0 72083300000.0 87137400000.0 40073900000.0 421930000000.0 152453000000.0 33190300000.0 141838000000.0 428712000000.0 688941000000.0 445861000000.0 457591000000.0 400196000000.0 169160000000.0 56729800000.0 80352400000.0 120109000000.0 744404000000.0 160669000000.0 80725700000.0 70715700000.0 114493000000.0 94808700000.0 149662000000.0 86469500000.0 53002400000.0 551366000000.0 521807000000.0 111792000000.0 57986300000.0 88629700000.0 166571000000.0 195451000000.0 458694000000.0 756716000000.0 454583000000.0 476540000000.0 482142000000.0 515906000000.0 497030000000.0 407823000000.0 35273900000.0 60661900000.0 401427000000.0 23957800000.0 205481000000.0 288374000000.0 117782000000.0 354804000000.0 49591800000.0 164409000000.0 478783000000.0 465906000000.0 638300000000.0 568967000000.0 50043900000.0 45130700000.0 2739540000.0 126882000000.0 349545000000.0 210952000000.0 156056000000.0 152573000000.0 347977000000.0 436261000000.0 385630000000.0 701929000000.0 94776900000.0 87718100000.0 411746000000.0 791869000000.0 464745000000.0 473980000000.0 415968000000.0 910005000000.0 263120000000.0 154866000000.0 152814000000.0 68778200000.0 33444100000.0 38272100000.0 210495000000.0 302839000000.0 455267000000.0 502508000000.0 596858000000.0 529974000000.0 601048000000.0 914466000000.0 152113000000.0 203134000000.0 11761900000.0 293263000000.0 761324000000.0 484762000000.0 442671000000.0 330247000000.0 372723000000.0 317825000000.0 123846000000.0 200971000000.0 164934000000.0 4563260000.0 133717000000.0 364621000000.0 571259000000.0 624181000000.0 630214000000.0 974275000000.0 825051000000.0 281537000000.0 313000000000.0 588023000000.0 223532000000.0 672522000000.0 715056000000.0 279551000000.0 349698000000.0 240963000000.0 272585000000.0 118442000000.0 170222000000.0 115883000000.0 237680000000.0 280176000000.0 396079000000.0 486676000000.0 628923000000.0 617432000000.0 625662000000.0 473541000000.0 401637000000.0 552184000000.0 153269000000.0 671419000000.0 48929100000.0 263683000000.0 259687000000.0 788570000000.0 325445000000.0 188246000000.0 739706000000.0 392208000000.0 282323000000.0 252625000000.0 339003000000.0 472124000000.0 563979000000.0 607745000000.0 651314000000.0 690409000000.0 189629000000.0 473085000000.0 521660000000.0 521250000000.0 57217000000.0 591498000000.0 114806000000.0 202389000000.0 919966000000.0 642878000000.0 419539000000.0 626169000000.0 419657000000.0 323209000000.0 332029000000.0 407583000000.0 510229000000.0 669395000000.0 857740000000.0 146333000000.0 112111000000.0 343898000000.0 588453000000.0 603433000000.0 203922000000.0 299198000000.0 130622000000.0 590100000000.0 46601100000.0 425403000000.0 580725000000.0 647557000000.0 577263000000.0 568149000000.0 434556000000.0 458630000000.0 374749000000.0 420108000000.0 391477000000.0 423607000000.0 438915000000.0 535492000000.0 813101000000.0 1.2898e+12 35155100000.0 531693000000.0 60440800000.0 380112000000.0 400003000000.0 437601000000.0 335774000000.0 215413000000.0 918572000000.0 1.02147e+12 650746000000.0 667249000000.0 568607000000.0 485835000000.0 450128000000.0 431321000000.0 440655000000.0 438308000000.0 609203000000.0 733162000000.0 389001000000.0 171694000000.0 395768000000.0 518710000000.0 583112000000.0 133132000000.0 776199000000.0 471083000000.0 248484000000.0 261346000000.0 460432000000.0 1.01367e+12 732015000000.0 672136000000.0 577396000000.0 508341000000.0 464352000000.0 432299000000.0 510760000000.0 1.54299e+12 393636000000.0 379386000000.0 500533000000.0 1.16429e+12 522796000000.0 317136000000.0 74244900000.0 60001900000.0 87397800000.0 630048000000.0 771678000000.0 893955000000.0 841095000000.0 752601000000.0 759366000000.0 674665000000.0 679673000000.0 589204000000.0 600045000000.0 523238000000.0 535556000000.0 473815000000.0 507593000000.0 473661000000.0 838153000000.0 396331000000.0 42101500000.0 158233000000.0 392876000000.0 332197000000.0 265632000000.0 1.40483e+12 783896000000.0 377101000000.0 124137000000.0 58746400000.0 263306000000.0 466893000000.0 803754000000.0 828192000000.0 764634000000.0 686316000000.0 610607000000.0 561005000000.0 630007000000.0 707107000000.0 921687000000.0 1.23379e+12 181096000000.0 160005000000.0 445631000000.0 1.4615e+12 209144000000.0 94182600000.0 138310000000.0 4651300000.0 192289000000.0 632437000000.0 826972000000.0 832025000000.0 770961000000.0 693969000000.0 627788000000.0 627941000000.0 790071000000.0 790356000000.0 118009000000.0 162919000000.0 75915900000.0 101370000000.0 943065000000.0 51861100000.0 102503000000.0 218396000000.0 14834000000.0 401214000000.0 580708000000.0 734328000000.0 811198000000.0 853598000000.0 880344000000.0 841744000000.0 852581000000.0 778040000000.0 785916000000.0 704702000000.0 722435000000.0 663444000000.0 711371000000.0 720417000000.0 777109000000.0 89382200000.0 181698000000.0 75884800000.0 126839000000.0 644224000000.0 1.48894e+12 341513000000.0 263633000000.0 149363000000.0 33597400000.0 193013000000.0 408664000000.0 715380000000.0 872321000000.0 904036000000.0 862442000000.0 794979000000.0 743159000000.0 728848000000.0 746240000000.0 648416000000.0 563489000000.0 153603000000.0 105504000000.0 244677000000.0 816791000000.0 1.643e+12 322143000000.0 257839000000.0 225737000000.0 64825800000.0 259071000000.0 592841000000.0 819100000000.0 920463000000.0 923003000000.0 870144000000.0 801547000000.0 745371000000.0 677755000000.0 448257000000.0 100466000000.0 250059000000.0 378082000000.0 301157000000.0 926795000000.0 9035750000.0 776265000000.0 591795000000.0 286997000000.0 95006700000.0 154453000000.0 374350000000.0 470494000000.0 641626000000.0 735815000000.0 846871000000.0 898893000000.0 959194000000.0 957017000000.0 982664000000.0 936217000000.0 941648000000.0 872512000000.0 861682000000.0 793111000000.0 753528000000.0 704815000000.0 615239000000.0 557126000000.0 154528000000.0 338650000000.0 422535000000.0 445149000000.0 340043000000.0 50384400000.0 159589000000.0 112979000000.0 324559000000.0 554150000000.0 777588000000.0 931917000000.0 1.00282e+12 997022000000.0 934553000000.0 827076000000.0 674540000000.0 488740000000.0 379377000000.0 121108000000.0 153588000000.0 477735000000.0 500982000000.0 482343000000.0 952796000000.0 695959000000.0 678300000000.0 444389000000.0 363396000000.0 353765000000.0 488112000000.0 704750000000.0 883478000000.0 995469000000.0 1.03097e+12 997749000000.0 908478000000.0 761549000000.0 559930000000.0 320914000000.0 304260000000.0 640106000000.0 803807000000.0 9035750000.0 1.43941e+12 358489000000.0 700201000000.0 783470000000.0 511146000000.0 484480000000.0 456578000000.0 591016000000.0 640078000000.0 765026000000.0 824438000000.0 918848000000.0 964872000000.0 1.02491e+12 1.03993e+12 1.06608e+12 1.04312e+12 1.03707e+12 981046000000.0 944427000000.0 859162000000.0 788952000000.0 665893000000.0 546833000000.0 415050000000.0 168586000000.0 37689900000.0 766518000000.0 758120000000.0 533009000000.0 359185000000.0 447015000000.0 1.89458e+12 551829000000.0 1.1401e+12 564147000000.0 568941000000.0 713186000000.0 866196000000.0 990992000000.0 1.0651e+12 1.07268e+12 1.01085e+12 891244000000.0 708045000000.0 412764000000.0 735156000000.0 361994000000.0 309996000000.0 86492100000.0 319125000000.0 253415000000.0 1.3742e+12 1.34566e+12 1.38611e+12 541097000000.0 563807000000.0 675966000000.0 814682000000.0 945852000000.0 1.04249e+12 1.08527e+12 1.05761e+12 966474000000.0 834535000000.0 630467000000.0 172160000000.0 78945400000.0 344214000000.0 231983000000.0 350689000000.0 312113000000.0 599590000000.0 505734000000.0 584400000000.0 1.18506e+12 391838000000.0 519112000000.0 609808000000.0 650543000000.0 730191000000.0 768959000000.0 853154000000.0 897917000000.0 958654000000.0 1.00411e+12 1.04326e+12 1.07444e+12 1.08551e+12 1.08289e+12 1.05497e+12 1.02057e+12 969055000000.0 914684000000.0 877411000000.0 797745000000.0 801795000000.0 506224000000.0 1.19513e+12 769620000000.0 366629000000.0 489727000000.0 574604000000.0 1.3426e+12 504288000000.0 393062000000.0 325409000000.0 561392000000.0 548334000000.0 29105900000.0 179014000000.0 174467000000.0 1.50508e+12 522334000000.0 677178000000.0 813955000000.0 915298000000.0 998177000000.0 1.06492e+12 1.06893e+12 1.00396e+12 921704000000.0 883401000000.0 1.26094e+12 596111000000.0 520311000000.0 640142000000.0 879909000000.0 1.0308e+12 926285000000.0 277508000000.0 290328000000.0 279521000000.0 301354000000.0 519974000000.0 631407000000.0 205155000000.0 184207000000.0 457522000000.0 827570000000.0 596097000000.0 693578000000.0 765609000000.0 855011000000.0 880904000000.0 948761000000.0 1.02432e+12 1.063e+12 1.02133e+12 946086000000.0 905054000000.0 973254000000.0 1.07335e+12 1.01116e+12 887592000000.0 471492000000.0 708299000000.0 976258000000.0 166818000000.0 199967000000.0 181956000000.0 241341000000.0 261751000000.0 279686000000.0 482252000000.0 692030000000.0 776588000000.0 591465000000.0 245169000000.0 47177200000.0 798479000000.0 1.41786e+12 585857000000.0 618056000000.0 607990000000.0 832254000000.0 871644000000.0 904529000000.0 912013000000.0 970002000000.0 985713000000.0 1.03444e+12 1.01124e+12 1.02196e+12 945316000000.0 952853000000.0 891978000000.0 907188000000.0 917401000000.0 962712000000.0 814068000000.0 655969000000.0 617000000000.0 577853000000.0 735634000000.0 442095000000.0 66261600000.0 85617200000.0 26838000000.0 149611000000.0 205084000000.0 326342000000.0 293763000000.0 400222000000.0 591151000000.0 689839000000.0 856056000000.0 330486000000.0 96880000000.0 1.78264e+12 98435800000.0 415980000000.0 815617000000.0 846097000000.0 859900000000.0 922067000000.0 980183000000.0 925955000000.0 858822000000.0 868760000000.0 915441000000.0 864456000000.0 679558000000.0 615605000000.0 605321000000.0 453033000000.0 1.20492e+12 98996600000.0 216273000000.0 290931000000.0 195003000000.0 199516000000.0 264160000000.0 129725000000.0 464143000000.0 420005000000.0 137431000000.0 189266000000.0 422342000000.0 535262000000.0 879114000000.0 185855000000.0 155828000000.0 134439000000.0 324006000000.0 31956200000.0 653504000000.0 796670000000.0 801650000000.0 828209000000.0 771686000000.0 814156000000.0 784478000000.0 852063000000.0 857372000000.0 930064000000.0 917813000000.0 810157000000.0 805155000000.0 800533000000.0 864596000000.0 843995000000.0 865920000000.0 769860000000.0 725444000000.0 576315000000.0 616403000000.0 585312000000.0 1.97554e+12 113722000000.0 479071000000.0 32146900000.0 393692000000.0 282883000000.0 342373000000.0 68473400000.0 85100800000.0 496952000000.0 44452600000.0 93911000000.0 149861000000.0 198714000000.0 194542000000.0 605292000000.0 912288000000.0 84871200000.0 603539000000.0 2.0296e+12 457861000000.0 773829000000.0 707217000000.0 720373000000.0 773420000000.0 849496000000.0 895425000000.0 754873000000.0 753207000000.0 597571000000.0 715307000000.0 697898000000.0 814947000000.0 770650000000.0 649238000000.0 430398000000.0 459367000000.0 373834000000.0 132430000000.0 200981000000.0 472842000000.0 335892000000.0 408074000000.0 358364000000.0 430534000000.0 383959000000.0 140442000000.0 526948000000.0 509146000000.0 18180800000.0 134036000000.0 224778000000.0 186856000000.0 234385000000.0 442415000000.0 14851800000.0 70771900000.0 1.28628e+12 142859000000.0 33610300000.0 571017000000.0 1.39955e+12 136874000000.0 601595000000.0 616791000000.0 466092000000.0 628643000000.0 697263000000.0 770284000000.0 747633000000.0 472258000000.0 541512000000.0 752379000000.0 794867000000.0 787191000000.0 679504000000.0 640081000000.0 464605000000.0 544314000000.0 211011000000.0 1.04634e+12 947881000000.0 502353000000.0 1.3284e+12 167237000000.0 641247000000.0 665882000000.0 489079000000.0 440122000000.0 450851000000.0 432266000000.0 289745000000.0 141292000000.0 225566000000.0 364550000000.0 55812700000.0 11833100000.0 62887800000.0 185990000000.0 316977000000.0 454562000000.0 742135000000.0 805601000000.0 321851000000.0 927897000000.0 374402000000.0 285046000000.0 231079000000.0 443670000000.0 610069000000.0 628902000000.0 692116000000.0 659639000000.0 710553000000.0 456118000000.0 459734000000.0 313178000000.0 460301000000.0 630398000000.0 733566000000.0 762636000000.0 482923000000.0 267129000000.0 765032000000.0 426043000000.0 50401800000.0 1.73523e+12 998268000000.0 68131400000.0 748937000000.0 850942000000.0 363975000000.0 388997000000.0 380803000000.0 258572000000.0 172692000000.0 98201600000.0 262064000000.0 296975000000.0 266451000000.0 318215000000.0 172752000000.0 138239000000.0 119793000000.0 113137000000.0 292267000000.0 323483000000.0 414146000000.0 497768000000.0 914554000000.0 916816000000.0 1.11058e+12 995225000000.0 42651100000.0 591833000000.0 3578530000.0 225698000000.0 466305000000.0 334790000000.0 114417000000.0 532943000000.0 634060000000.0 436296000000.0 261060000000.0 30259000000.0 81670300000.0 256016000000.0 613551000000.0 769989000000.0 658890000000.0 170798000000.0 1.21223e+12 267539000000.0 13223600000.0 37573200000.0 380421000000.0 594989000000.0 832611000000.0 69971200000.0 255190000000.0 530468000000.0 322352000000.0 82556600000.0 48385700000.0 297107000000.0 268455000000.0 232697000000.0 232502000000.0 307051000000.0 296195000000.0 20685800000.0 261768000000.0 481799000000.0 553132000000.0 860291000000.0 191076000000.0 282318000000.0 675287000000.0 27669400000.0 250472000000.0 658670000000.0 243594000000.0 269295000000.0 607401000000.0 636589000000.0 568573000000.0 532235000000.0 530096000000.0 139000000000.0 389606000000.0 470106000000.0 582384000000.0 704624000000.0 712668000000.0 709830000000.0 554405000000.0 521171000000.0 452617000000.0 480579000000.0 1.55651e+12 803221000000.0 80753300000.0 174959000000.0 179980000000.0 184063000000.0 336040000000.0 277995000000.0 442350000000.0 577485000000.0 332425000000.0 169182000000.0 86045900000.0 30469300000.0 37745100000.0 51794500000.0 291128000000.0 362460000000.0 335641000000.0 127174000000.0 320936000000.0 558774000000.0 563127000000.0 194205000000.0 41942500000.0 217906000000.0 516589000000.0 810026000000.0 900586000000.0 640450000000.0 1.51978e+12 154624000000.0 867625000000.0 928382000000.0 1.75035e+12 1.05751e+12 932492000000.0 1.03418e+12 94872700000.0 399233000000.0 611361000000.0 280342000000.0 260555000000.0 677422000000.0 147614000000.0 462518000000.0 423480000000.0 467731000000.0 628725000000.0 576033000000.0 342058000000.0 261929000000.0 129977000000.0 164633000000.0 194259000000.0 25276000000.0 26061900000.0 945237000000.0 1.0799e+12 192555000000.0 461745000000.0 221032000000.0 27017700000.0 20584400000.0 70903800000.0 273611000000.0 206525000000.0 340639000000.0 69983100000.0 6050260000.0 135458000000.0 276625000000.0 686861000000.0 156103000000.0 41112800000.0 316821000000.0 340775000000.0 705013000000.0 906593000000.0 898461000000.0 251219000000.0 916068000000.0 194327000000.0 134625000000.0 94298100000.0 660818000000.0 364846000000.0 631217000000.0 428313000000.0 488700000000.0 1.07999e+12 437707000000.0 524610000000.0 467042000000.0 434174000000.0 663567000000.0 565148000000.0 185691000000.0 653766000000.0 231771000000.0 109213000000.0 868077000000.0 140019000000.0 170651000000.0 41172000000.0 93692400000.0 105996000000.0 282260000000.0 130081000000.0 545783000000.0 554768000000.0 902085000000.0 460471000000.0 210607000000.0 51646600000.0 202561000000.0 32924200000.0 78677300000.0 154819000000.0 265426000000.0 100531000000.0 241273000000.0 300365000000.0 127080000000.0 92450100000.0 49906700000.0 32408400000.0 17936200000.0 840375000000.0 82558400000.0 125327000000.0 223041000000.0 25299600000.0 731947000000.0 235647000000.0 235369000000.0 513033000000.0 481819000000.0 24901400000.0 40900200000.0 315533000000.0 956169000000.0 223385000000.0 189011000000.0 465017000000.0 605833000000.0 1.12846e+12 785622000000.0 548561000000.0 460280000000.0 462307000000.0 341677000000.0 76923800000.0 380973000000.0 462414000000.0 244428000000.0 1.5404e+12 1.03233e+12 21335900000.0 188399000000.0 184791000000.0 175914000000.0 386804000000.0 373232000000.0 876763000000.0 236185000000.0 141844000000.0 986147000000.0 171026000000.0 219865000000.0 248877000000.0 372156000000.0 75466300000.0 236737000000.0 416219000000.0 13209800000.0 93990500000.0 171214000000.0 182929000000.0 167867000000.0 109938000000.0 67799400000.0 18241700000.0 10640400000.0 165867000000.0 461747000000.0 972481000000.0 68566500000.0 41744000000.0 22943700000.0 365664000000.0 636323000000.0 1.14967e+12 573666000000.0 88238900000.0 394584000000.0 83599000000.0 90918500000.0 496268000000.0 217918000000.0 527515000000.0 95405700000.0 111828000000.0 952119000000.0 552340000000.0 438484000000.0 441568000000.0 489008000000.0 468109000000.0 337985000000.0 166685000000.0 350610000000.0 374548000000.0 92919800000.0 360013000000.0 852485000000.0 585179000000.0 328940000000.0 28636300000.0 185657000000.0 315389000000.0 350258000000.0 488513000000.0 10613200000.0 125746000000.0 136822000000.0 134413000000.0 28215600000.0 157603000000.0 322771000000.0 28252200000.0 190942000000.0 456114000000.0 413009000000.0 547047000000.0 511972000000.0 113030000000.0 100383000000.0 346367000000.0 258443000000.0 253104000000.0 149963000000.0 46261000000.0 84178900000.0 279941000000.0 814295000000.0 164599000000.0 206032000000.0 141893000000.0 162258000000.0 180534000000.0 960856000000.0 606330000000.0 517112000000.0 467766000000.0 25021400000.0 112808000000.0 65645700000.0 238822000000.0 765424000000.0 1.13065e+12 893882000000.0 750003000000.0 660134000000.0 845445000000.0 731039000000.0 468145000000.0 479588000000.0 457792000000.0 127033000000.0 733542000000.0 357493000000.0 114874000000.0 160714000000.0 251893000000.0 21370000000.0 87157000000.0 134966000000.0 256163000000.0 333910000000.0 431140000000.0 218327000000.0 218013000000.0 621991000000.0 526451000000.0 283125000000.0 14710200000.0 450912000000.0 688121000000.0 572760000000.0 509179000000.0 509219000000.0 694338000000.0 571270000000.0 490688000000.0 154024000000.0 8638630000.0 37410000000.0 425279000000.0 358999000000.0 345067000000.0 235127000000.0 229108000000.0 141645000000.0 123733000000.0 210280000000.0 88686800000.0 459024000000.0 374946000000.0 73707000000.0 466651000000.0 336344000000.0 281931000000.0 243487000000.0 25519600000.0 138472000000.0 17703700000.0 124691000000.0 675988000000.0 507429000000.0 1.07135e+12 855216000000.0 533377000000.0 534853000000.0 481263000000.0 451136000000.0 496767000000.0 468910000000.0 557458000000.0 193424000000.0 1.23537e+12 629657000000.0 1.48074e+12 1.51703e+12 74101400000.0 66983300000.0 204492000000.0 297706000000.0 381950000000.0 320391000000.0 530557000000.0 772220000000.0 649418000000.0 861185000000.0 736141000000.0 527406000000.0 624450000000.0 729332000000.0 843939000000.0 661816000000.0 403405000000.0 43369600000.0 41420200000.0 473257000000.0 555889000000.0 468313000000.0 481100000000.0 324273000000.0 241742000000.0 163336000000.0 83765600000.0 93797600000.0 336032000000.0 604471000000.0 169736000000.0 256054000000.0 1.14294e+12 542209000000.0 110727000000.0 365455000000.0 88869500000.0 41297900000.0 159526000000.0 194791000000.0 87110700000.0 18143200000.0 182248000000.0 113847000000.0 75202000000.0 909532000000.0 584550000000.0 405129000000.0 442112000000.0 504603000000.0 502943000000.0 532551000000.0 478403000000.0 164971000000.0 1.71706e+12 910510000000.0 664350000000.0 213098000000.0 124370000000.0 190511000000.0 275322000000.0 352232000000.0 357736000000.0 339317000000.0 577985000000.0 750083000000.0 841235000000.0 851720000000.0 907569000000.0 499047000000.0 239693000000.0 784799000000.0 623656000000.0 471276000000.0 823158000000.0 825251000000.0 580121000000.0 530870000000.0 203250000000.0 236336000000.0 223064000000.0 453101000000.0 58789800000.0 474615000000.0 486807000000.0 600068000000.0 596130000000.0 591713000000.0 457409000000.0 441679000000.0 336572000000.0 356845000000.0 38655900000.0 91834700000.0 144260000000.0 274206000000.0 527305000000.0 308702000000.0 77413000000.0 524946000000.0 201254000000.0 279790000000.0 110649000000.0 146908000.0 205768000000.0 282581000000.0 233392000000.0 141062000000.0 229172000000.0 302622000000.0 238982000000.0 1.01886e+12 282025000000.0 84636500000.0 528873000000.0 478180000000.0 575736000000.0 73855700000.0 867653000000.0 1.27452e+12 1.08452e+12 475280000000.0 636527000000.0 564690000000.0 202036000000.0 29439300000.0 105313000000.0 225473000000.0 320559000000.0 396057000000.0 551022000000.0 674552000000.0 664838000000.0 508092000000.0 76651900000.0 82319300000.0 386069000000.0 754315000000.0 181540000000.0 233922000000.0 108650000000.0 190572000000.0 255930000000.0 57700300000.0 444888000000.0 595924000000.0 726393000000.0 691554000000.0 719524000000.0 508432000000.0 514384000000.0 703407000000.0 147424000000.0 316284000000.0 502719000000.0 1.25253e+12 884277000000.0 318879000000.0 118004000000.0 650158000000.0 73630300000.0 417433000000.0 202733000000.0 233225000000.0 373730000000.0 324856000000.0 241707000000.0 166530000000.0 106161000000.0 1.13759e+12 302611000000.0 3179510000.0 396556000000.0 582618000000.0 295337000000.0 383150000000.0 337623000000.0 415405000000.0 453094000000.0 510440000000.0 898800000000.0 369227000000.0 212703000000.0 79658100000.0 242971000000.0 94379100000.0 49103900000.0 180049000000.0 290234000000.0 368698000000.0 424616000000.0 540826000000.0 640945000000.0 660308000000.0 601703000000.0 519033000000.0 468115000000.0 933408000000.0 501167000000.0 528470000000.0 202082000000.0 77623000000.0 452924000000.0 436825000000.0 606987000000.0 261036000000.0 71577200000.0 261532000000.0 714080000000.0 1.66508e+12 403949000000.0 257881000000.0 4139970000.0 37649200000.0 390858000000.0 476186000000.0 551569000000.0 693905000000.0 829806000000.0 833038000000.0 685174000000.0 495800000000.0 391361000000.0 368601000000.0 703979000000.0 508695000000.0 27348100000.0 28713400000.0 523096000000.0 815411000000.0 464090000000.0 725292000000.0 595966000000.0 200805000000.0 203947000000.0 365447000000.0 270120000000.0 227493000000.0 352763000000.0 258337000000.0 214757000000.0 214887000000.0 380939000000.0 804441000000.0 509099000000.0 180631000000.0 79401200000.0 113291000000.0 108094000000.0 165550000000.0 133492000000.0 360581000000.0 361072000000.0 98587000000.0 4350860000.0 70025400000.0 173701000000.0 367478000000.0 439403000000.0 532128000000.0 604592000000.0 603417000000.0 504483000000.0 296148000000.0 53590700000.0 468488000000.0 686271000000.0 931795000000.0 207412000000.0 716671000000.0 489148000000.0 681604000000.0 286390000000.0 71480100000.0 82733900000.0 209118000000.0 1.00655e+12 485170000000.0 151424000000.0 20229600000.0 333673000000.0 384792000000.0 608948000000.0 777165000000.0 847230000000.0 970039000000.0 765023000000.0 218533000000.0 210737000000.0 419143000000.0 337088000000.0 550902000000.0 708025000000.0 7024380000.0 570618000000.0 333590000000.0 543940000000.0 499318000000.0 250027000000.0 1077400000.0 447745000000.0 119399000000.0 405673000000.0 245725000000.0 198160000000.0 159221000000.0 104967000000.0 19508700000.0 435141000000.0 600798000000.0 463998000000.0 1.01875e+12 564800000000.0 960635000000.0 439247000000.0 150968000000.0 157678000000.0 104366000000.0 903936000000.0 102047000000.0 224882000000.0 254374000000.0 154880000000.0 134247000000.0 279475000000.0 372117000000.0 455435000000.0 540352000000.0 605765000000.0 618566000000.0 563455000000.0 449120000000.0 312949000000.0 276890000000.0 611835000000.0 287787000000.0 550022000000.0 83963500000.0 562558000000.0 580124000000.0 268026000000.0 112649000000.0 16141500000.0 276759000000.0 562070000000.0 437185000000.0 131861000000.0 148844000000.0 35680900000.0 236306000000.0 270348000000.0 281830000000.0 471693000000.0 620715000000.0 961661000000.0 1.12088e+12 934311000000.0 885148000000.0 400101000000.0 191673000000.0 498491000000.0 679739000000.0 1.14282e+12 354174000000.0 202581000000.0 176926000000.0 435437000000.0 391144000000.0 332693000000.0 240529000000.0 139117000000.0 5499360000.0 193734000000.0 172904000000.0 35527200000.0 1.07705e+12 123186000000.0 818610000000.0 768906000000.0 970152000000.0 659542000000.0 854990000000.0 458193000000.0 265007000000.0 219360000000.0 64090800000.0 198131000000.0 222311000000.0 199397000000.0 290681000000.0 385460000000.0 474803000000.0 556059000000.0 618242000000.0 639507000000.0 606031000000.0 520417000000.0 405715000000.0 341682000000.0 430799000000.0 30371300000.0 957535000000.0 940809000000.0 610576000000.0 727298000000.0 421033000000.0 408905000000.0 288794000000.0 139217000000.0 210608000000.0 560904000000.0 642636000000.0 564221000000.0 375161000000.0 192737000000.0 3980380000.0 27401800000.0 238587000000.0 205026000000.0 194164000000.0 332064000000.0 419252000000.0 548403000000.0 806175000000.0 1.01428e+12 1.19877e+12 1.05653e+12 1.22026e+12 272002000000.0 13104000000.0 958569000000.0 1.08687e+12 146264000000.0 75939300000.0 218275000000.0 97580100000.0 33073000000.0 370196000000.0 507224000000.0 482204000000.0 308986000000.0 306827000000.0 1.06707e+12 485800000000.0 286066000000.0 124817000000.0 33680700000.0 87636400000.0 68196100000.0 431366000000.0 321152000000.0 561280000000.0 856316000000.0 765423000000.0 783792000000.0 247655000000.0 506075000000.0 27759400000.0 42792100000.0 46378900000.0 92533300000.0 206684000000.0 234981000000.0 307881000000.0 397977000000.0 491362000000.0 577292000000.0 639011000000.0 668739000000.0 655132000000.0 598639000000.0 514230000000.0 441057000000.0 472678000000.0 400856000000.0 961572000000.0 835393000000.0 69368400000.0 1.49337e+12 947645000000.0 550800000000.0 588400000000.0 502786000000.0 406423000000.0 579734000000.0 659355000000.0 477723000000.0 311717000000.0 240825000000.0 36978700000.0 285754000000.0 224941000000.0 167950000000.0 103712000000.0 233669000000.0 322725000000.0 708378000000.0 876044000000.0 929269000000.0 1.25806e+12 571757000000.0 1.04847e+12 11511700000.0 225070000000.0 22004500000.0 311059000000.0 344586000000.0 278428000000.0 246096000000.0 424422000000.0 490631000000.0 468403000000.0 385752000000.0 1.35495e+12 745605000000.0 471415000000.0 93936200000.0 20652100000.0 97587500000.0 285930000000.0 194216000000.0 416974000000.0 524710000000.0 1.13276e+12 202829000000.0 865485000000.0 390545000000.0 807975000000.0 349612000000.0 381456000000.0 131192000000.0 177152000000.0 219966000000.0 254329000000.0 313530000000.0 395975000000.0 490351000000.0 586859000000.0 666964000000.0 701457000000.0 702523000000.0 1.22775e+12 1.06658e+12 637126000000.0 479635000000.0 1.661e+12 1.14412e+12 808334000000.0 574860000000.0 519825000000.0 441997000000.0 645387000000.0 601841000000.0 386309000000.0 220526000000.0 103217000000.0 253608000000.0 153778000000.0 64937600000.0 359779000000.0 350416000000.0 111403000000.0 76982800000.0 106424000000.0 443620000000.0 621460000000.0 915321000000.0 986845000000.0 249639000000.0 581844000000.0 1.23884e+12 740604000000.0 749986000000.0 488508000000.0 484109000000.0 442928000000.0 386131000000.0 369153000000.0 429929000000.0 428822000000.0 372007000000.0 285940000000.0 260527000000.0 513241000000.0 1.0387e+12 712836000000.0 463380000000.0 264080000000.0 235829000000.0 352633000000.0 375951000000.0 665326000000.0 746896000000.0 428265000000.0 678896000000.0 394858000000.0 469336000000.0 27645000000.0 5854060000.0 99923800000.0 174033000000.0 234913000000.0 296714000000.0 372027000000.0 462385000000.0 564349000000.0 668612000000.0 668392000000.0 612301000000.0 560637000000.0 535548000000.0 580171000000.0 1.55391e+12 1.20206e+12 940779000000.0 398574000000.0 1.25554e+12 893181000000.0 775353000000.0 658133000000.0 576630000000.0 541038000000.0 596272000000.0 607617000000.0 528732000000.0 418934000000.0 275107000000.0 105821000000.0 258652000000.0 67112300000.0 408035000000.0 422341000000.0 485534000000.0 259995000000.0 98198900000.0 5113110000.0 4493710000.0 166254000000.0 201992000000.0 209682000000.0 1.44619e+12 340249000000.0 327871000000.0 749903000000.0 68103800000.0 457590000000.0 458260000000.0 479728000000.0 459223000000.0 421365000000.0 392798000000.0 376146000000.0 308167000000.0 229180000000.0 202647000000.0 326367000000.0 579100000000.0 804778000000.0 615221000000.0 403444000000.0 215655000000.0 64775600000.0 56156700000.0 192905000000.0 318480000000.0 270211000000.0 127683000000.0 33786200000.0 30179600000.0 109870000000.0 183926000000.0 254082000000.0 326779000000.0 409009000000.0 504580000000.0 749805000000.0 747395000000.0 718633000000.0 672658000000.0 637957000000.0 647902000000.0 584529000000.0 1.30537e+12 912153000000.0 721621000000.0 180143000000.0 931143000000.0 1.07007e+12 819962000000.0 701783000000.0 630199000000.0 609236000000.0 612798000000.0 627439000000.0 594646000000.0 526656000000.0 288256000000.0 113028000000.0 544136000000.0 619644000000.0 89573600000.0 25505600000.0 52458000000.0 357229000000.0 538813000000.0 701143000000.0 529513000000.0 396538000000.0 6291430000.0 66974400000.0 71733300000.0 141198000000.0 195914000000.0 214883000000.0 529309000000.0 308176000000.0 1.18148e+12 371410000000.0 360677000000.0 528757000000.0 468529000000.0 179082000000.0 409816000000.0 452488000000.0 471426000000.0 452840000000.0 411634000000.0 357364000000.0 278257000000.0 150851000000.0 106827000000.0 209427000000.0 403562000000.0 587113000000.0 654340000000.0 506245000000.0 322212000000.0 154976000000.0 12919900000.0 116487000000.0 202264000000.0 293993000000.0 348880000000.0 470904000000.0 576320000000.0 588577000000.0 509533000000.0 513997000000.0 376624000000.0 359838000000.0 271149000000.0 200932000000.0 102020000000.0 21142200000.0 49017800000.0 123656000000.0 196003000000.0 266663000000.0 614822000000.0 735542000000.0 837252000000.0 762147000000.0 694400000000.0 631602000000.0 553451000000.0 262848000000.0 994109000000.0 802795000000.0 578657000000.0 313672000000.0 838771000000.0 1.19819e+12 1.08196e+12 864783000000.0 735036000000.0 657744000000.0 655374000000.0 629784000000.0 475567000000.0 391218000000.0 209105000000.0 397866000000.0 478877000000.0 272495000000.0 23866900000.0 63196500000.0 261499000000.0 447418000000.0 548202000000.0 926871000000.0 1.06288e+12 227040000000.0 153269000000.0 211516000000.0 340537000000.0 330303000000.0 857402000000.0 867336000000.0 213819000000.0 425797000000.0 65166800000.0 46723100000.0 318507000000.0 348288000000.0 284015000000.0 399987000000.0 441150000000.0 452791000000.0 431125000000.0 379624000000.0 297602000000.0 171540000000.0 20360600000.0 25168200000.0 264481000000.0 473319000000.0 548614000000.0 524142000000.0 389598000000.0 231350000000.0 83745300000.0 46277700000.0 147782000000.0 236477000000.0 304798000000.0 386709000000.0 464996000000.0 517129000000.0 521445000000.0 462275000000.0 417424000000.0 337409000000.0 291748000000.0 220870000000.0 152015000000.0 73948200000.0 1087260000.0 68055100000.0 339780000000.0 420542000000.0 514305000000.0 628958000000.0 777324000000.0 958484000000.0 728138000000.0 646250000000.0 536579000000.0 149514000000.0 689170000000.0 1.1998e+12 1.07969e+12 909680000000.0 785385000000.0 701091000000.0 730689000000.0 658602000000.0 574233000000.0 298102000000.0 208557000000.0 899600000000.0 669244000000.0 402822000000.0 332210000000.0 67170100000.0 91384100000.0 120093000000.0 140626000000.0 135441000000.0 319642000000.0 423552000000.0 673653000000.0 659974000000.0 1.10782e+12 882987000000.0 279401000000.0 475414000000.0 522894000000.0 908415000000.0 1.12053e+12 911228000000.0 378395000000.0 347617000000.0 85350900000.0 103928000000.0 275163000000.0 321679000000.0 28724700000.0 379194000000.0 471842000000.0 462210000000.0 393741000000.0 271836000000.0 138655000000.0 15391200000.0 88856200000.0 177652000000.0 250757000000.0 320760000000.0 385680000000.0 437835000000.0 465199000000.0 449489000000.0 400652000000.0 351097000000.0 290326000000.0 237771000000.0 176019000000.0 112219000000.0 136933000000.0 203297000000.0 267608000000.0 331842000000.0 399184000000.0 476599000000.0 578938000000.0 741366000000.0 1.06838e+12 574524000000.0 543454000000.0 137928000000.0 755327000000.0 649593000000.0 556990000000.0 843594000000.0 1.12779e+12 1.18547e+12 1.07673e+12 937122000000.0 819352000000.0 698364000000.0 579999000000.0 444621000000.0 286380000000.0 882335000000.0 153588000000.0 228608000000.0 15043000000.0 219826000000.0 372016000000.0 102971000000.0 82270000000.0 103910000000.0 61837600000.0 42746400000.0 203075000000.0 509590000000.0 564299000000.0 21622500000.0 494603000000.0 716053000000.0 657213000000.0 922871000000.0 1.1095e+12 1.08712e+12 826362000000.0 472075000000.0 346002000000.0 196614000000.0 205178000000.0 329586000000.0 397685000000.0 431126000000.0 433458000000.0 404861000000.0 346014000000.0 248655000000.0 89920400000.0 224339000000.0 191803000000.0 257534000000.0 316350000000.0 365640000000.0 399155000000.0 405958000000.0 383246000000.0 341577000000.0 44020300000.0 22335000000.0 86070700000.0 147158000000.0 204003000000.0 255889000000.0 302785000000.0 345220000000.0 385978000000.0 437913000000.0 554609000000.0 927847000000.0 208458000000.0 506777000000.0 739044000000.0 744219000000.0 790159000000.0 928745000000.0 1.10424e+12 1.19954e+12 1.16492e+12 1.06686e+12 942677000000.0 819329000000.0 442241000000.0 156758000000.0 389005000000.0 261394000000.0 221921000000.0 383295000000.0 388601000000.0 497262000000.0 373314000000.0 90930100000.0 65894400000.0 11137400000.0 42120900000.0 106788000000.0 34607200000.0 79984100000.0 301623000000.0 412122000000.0 482431000000.0 715741000000.0 854192000000.0 698360000000.0 860112000000.0 1.01735e+12 1.06332e+12 978296000000.0 759777000000.0 508412000000.0 287462000000.0 326340000000.0 353066000000.0 395519000000.0 416560000000.0 414197000000.0 387216000000.0 333510000000.0 244990000000.0 90731600000.0 405546000000.0 78485600000.0 371863000000.0 397734000000.0 350500000000.0 270797000000.0 168782000000.0 63485600000.0 33242600000.0 118544000000.0 294863000000.0 242769000000.0 191005000000.0 134151000000.0 74772300000.0 13479600000.0 46273000000.0 102794000000.0 154949000000.0 201138000000.0 239293000000.0 266433000000.0 280219000000.0 282033000000.0 288948000000.0 374432000000.0 646410000000.0 86746400000.0 291177000000.0 873773000000.0 879287000000.0 1.06338e+12 1.08926e+12 1.14739e+12 1.20202e+12 1.21096e+12 1.13377e+12 1.03619e+12 909618000000.0 767689000000.0 618683000000.0 329033000000.0 4794050000.0 99623400000.0 316024000000.0 635836000000.0 448208000000.0 658438000000.0 327821000000.0 287244000000.0 94664100000.0 30424900000.0 84515500000.0 52437100000.0 156364000000.0 86611700000.0 61000700000.0 133341000000.0 191033000000.0 524375000000.0 871611000000.0 206288000000.0 902308000000.0 262194000000.0 386006000000.0 758921000000.0 932809000000.0 965591000000.0 375074000000.0 278457000000.0 272987000000.0 308680000000.0 335178000000.0 359626000000.0 387841000000.0 402243000000.0 399402000000.0 377475000000.0 330199000000.0 238311000000.0 32989800000.0 417802000000.0 293276000000.0 399213000000.0 337219000000.0 261034000000.0 182192000000.0 99190200000.0 16862500000.0 60278500000.0 130009000000.0 192831000000.0 248827000000.0 296683000000.0 332835000000.0 351034000000.0 347124000000.0 323083000000.0 286231000000.0 243579000000.0 196417000000.0 146720000000.0 93474200000.0 38445700000.0 16916500000.0 70384000000.0 120252000000.0 164868000000.0 202314000000.0 230918000000.0 249065000000.0 428203000000.0 205340000000.0 1.10712e+12 1.56361e+12 1.50857e+12 1.29657e+12 1.21351e+12 1.21048e+12 1.21232e+12 1.19097e+12 980630000000.0 850192000000.0 702969000000.0 542363000000.0 358568000000.0 91549800000.0 739547000000.0 951731000000.0 804849000000.0 362571000000.0 345632000000.0 222985000000.0 256838000000.0 237647000000.0 41653500000.0 24688400000.0 21894300000.0 74608800000.0 98252300000.0 130543000000.0 200219000000.0 180756000000.0 21068000000.0 36897800000.0 322300000000.0 883308000000.0 724534000000.0 32930000000.0 55679200000.0 207599000000.0 561800000000.0 786459000000.0 890038000000.0 880779000000.0 705846000000.0 519028000000.0 403401000000.0 330727000000.0 310314000000.0 320244000000.0 337722000000.0 357765000000.0 377091000000.0 387881000000.0 386022000000.0 367250000000.0 321126000000.0 219520000000.0 56070600000.0 517046000000.0 437280000000.0 306163000000.0 211737000000.0 136975000000.0 66785200000.0 1085530000.0 65414400000.0 125321000000.0 179843000000.0 227545000000.0 265957000000.0 291232000000.0 299861000000.0 291034000000.0 267565000000.0 234207000000.0 194763000000.0 150736000000.0 103532000000.0 53758600000.0 2925630000.0 47430800000.0 95517000000.0 255621000000.0 251731000000.0 239137000000.0 179095000000.0 90624100000.0 220330000000.0 196908000000.0 221607000000.0 272626000000.0 581206000000.0 903534000000.0 1.06318e+12 1.13737e+12 1.15933e+12 1.14108e+12 1.08116e+12 920680000000.0 776819000000.0 611889000000.0 470870000000.0 374989000000.0 416370000000.0 986919000000.0 1.06102e+12 274798000000.0 162205000000.0 184337000000.0 189363000000.0 79862500000.0 43955100000.0 90446000000.0 48216700000.0 33194200000.0 132942000000.0 153081000000.0 244237000000.0 130914000000.0 148932000000.0 45869100000.0 143513000000.0 361632000000.0 188549000000.0 361554000000.0 398202000000.0 542947000000.0 713525000000.0 889586000000.0 803939000000.0 663612000000.0 519558000000.0 414941000000.0 348556000000.0 323093000000.0 322110000000.0 331208000000.0 303603000000.0 703721000000.0 480537000000.0 307215000000.0 205213000000.0 130619000000.0 65550300000.0 4479470000.0 53625600000.0 107791000000.0 156421000000.0 197475000000.0 228244000000.0 245957000000.0 249039000000.0 238067000000.0 215514000000.0 184491000000.0 147477000000.0 106006000000.0 140072000000.0 180658000000.0 217266000000.0 250921000000.0 286984000000.0 341720000000.0 451399000000.0 678758000000.0 1.15446e+12 217656000000.0 472251000000.0 633583000000.0 851961000000.0 995660000000.0 1.07279e+12 1.09842e+12 1.07931e+12 1.01896e+12 821922000000.0 658402000000.0 482580000000.0 391267000000.0 227597000000.0 413612000000.0 109579000000.0 217426000000.0 189929000000.0 176843000000.0 67492300000.0 90838600000.0 100176000000.0 138374000000.0 48017100000.0 6174840000.0 34159500000.0 152081000000.0 160374000000.0 129572000000.0 196143000000.0 102341000000.0 119465000000.0 422113000000.0 859803000000.0 686608000000.0 268203000000.0 533095000000.0 641940000000.0 824295000000.0 863815000000.0 829970000000.0 740825000000.0 618055000000.0 496737000000.0 405216000000.0 345779000000.0 345482000000.0 359675000000.0 368161000000.0 367498000000.0 352358000000.0 312279000000.0 244021000000.0 152993000000.0 115191000000.0 816609000000.0 518612000000.0 337947000000.0 227963000000.0 61464500000.0 14998900000.0 32052100000.0 78460800000.0 123148000000.0 165452000000.0 205539000000.0 245372000000.0 290195000000.0 350384000000.0 441845000000.0 573980000000.0 690086000000.0 28303800000.0 158193000000.0 132344000000.0 371556000000.0 471688000000.0 853488000000.0 958980000000.0 1.01911e+12 1.03701e+12 1.01058e+12 939590000000.0 497914000000.0 259915000000.0 433935000000.0 200651000000.0 306257000000.0 118137000000.0 115276000000.0 63109800000.0 39620000000.0 7574180000.0 202848000000.0 13254800000.0 17381900000.0 27191800000.0 62664000000.0 151750000000.0 44313500000.0 48752700000.0 80025000000.0 388649000000.0 584070000000.0 785048000000.0 343896000000.0 416153000000.0 726354000000.0 791757000000.0 821669000000.0 811977000000.0 759091000000.0 669785000000.0 561528000000.0 458607000000.0 316498000000.0 307983000000.0 311774000000.0 322099000000.0 333777000000.0 342091000000.0 343886000000.0 336693000000.0 323559000000.0 314888000000.0 314477000000.0 95078200000.0 149662000000.0 84292400000.0 24271700000.0 31697300000.0 82722100000.0 127139000000.0 162887000000.0 187834000000.0 200387000000.0 200150000000.0 188128000000.0 166304000000.0 136893000000.0 101810000000.0 62605700000.0 20658300000.0 22896000000.0 66953800000.0 110505000000.0 153086000000.0 195356000000.0 238977000000.0 286682000000.0 343422000000.0 415662000000.0 497906000000.0 532597000000.0 258710000000.0 62930200000.0 127997000000.0 392535000000.0 554172000000.0 579566000000.0 602673000000.0 712721000000.0 922657000000.0 963403000000.0 967559000000.0 932439000000.0 855747000000.0 716335000000.0 292352000000.0 75824900000.0 107709000000.0 205790000000.0 493037000000.0 522665000000.0 253652000000.0 92878500000.0 14088600000.0 10443200000.0 1403760000.0 43552100000.0 29019400000.0 6124520000.0 82379200000.0 271761000000.0 807320000000.0 713176000000.0 736066000000.0 687292000000.0 773797000000.0 787367000000.0 793595000000.0 780086000000.0 741303000000.0 675301000000.0 378561000000.0 323461000000.0 292408000000.0 281061000000.0 282721000000.0 290954000000.0 300717000000.0 308960000000.0 315158000000.0 323704000000.0 348232000000.0 412869000000.0 541617000000.0 855967000000.0 560537000000.0 374594000000.0 259919000000.0 178300000000.0 109868000000.0 48535200000.0 6811310000.0 55503700000.0 96215300000.0 127419000000.0 147779000000.0 156591000000.0 154062000000.0 141289000000.0 119912000000.0 91691800000.0 58259800000.0 21061000000.0 18661200000.0 59930500000.0 101954000000.0 144208000000.0 186692000000.0 230236000000.0 276940000000.0 329789000000.0 389998000000.0 448483000000.0 467781000000.0 351697000000.0 229288000000.0 219672000000.0 350634000000.0 518490000000.0 603122000000.0 633656000000.0 676760000000.0 758863000000.0 850983000000.0 905184000000.0 893538000000.0 840950000000.0 752047000000.0 581571000000.0 625145000000.0 257350000000.0 1.03599e+12 304058000000.0 114455000000.0 3329640000.0 132594000000.0 107792000000.0 77830100000.0 35812700000.0 45677600000.0 69805700000.0 572200000000.0 847793000000.0 565675000000.0 58051000000.0 612478000000.0 798846000000.0 794364000000.0 772405000000.0 745236000000.0 706810000000.0 588884000000.0 495668000000.0 407581000000.0 334380000000.0 283131000000.0 254776000000.0 244415000000.0 245822000000.0 252939000000.0 261346000000.0 269375000000.0 279778000000.0 301147000000.0 350533000000.0 266922000000.0 818974000000.0 557846000000.0 392405000000.0 285140000000.0 201709000000.0 131157000000.0 69523500000.0 15740700000.0 29951600000.0 66735600000.0 93672900000.0 110077000000.0 115805000000.0 111376000000.0 97866900000.0 76669600000.0 49271200000.0 17132800000.0 18432500000.0 56414400000.0 96097400000.0 136909000000.0 178717000000.0 356612000000.0 464816000000.0 564064000000.0 624717000000.0 665006000000.0 712357000000.0 774812000000.0 837362000000.0 884155000000.0 787103000000.0 724785000000.0 620061000000.0 449562000000.0 24401600000.0 487385000000.0 336559000000.0 1.14149e+12 565206000000.0 233041000000.0 143458000000.0 94029600000.0 17359700000.0 37294700000.0 307271000000.0 599971000000.0 772201000000.0 568339000000.0 369287000000.0 737917000000.0 741077000000.0 731227000000.0 703788000000.0 651996000000.0 583088000000.0 505004000000.0 419810000000.0 337375000000.0 270333000000.0 226425000000.0 206051000000.0 456500000000.0 710218000000.0 315128000000.0 732191000000.0 522309000000.0 392359000000.0 292081000000.0 210704000000.0 142115000000.0 83292400000.0 33149700000.0 8311320000.0 40614900000.0 63231400000.0 75888700000.0 78759100000.0 72496400000.0 58126000000.0 36864600000.0 222151000000.0 268096000000.0 317116000000.0 368222000000.0 414317000000.0 433863000000.0 388324000000.0 323359000000.0 301824000000.0 631090000000.0 673265000000.0 716103000000.0 760691000000.0 799599000000.0 823294000000.0 823559000000.0 556280000000.0 390366000000.0 16370700000.0 871949000000.0 275918000000.0 1.16951e+12 548628000000.0 304936000000.0 83142600000.0 21294900000.0 45579800000.0 285137000000.0 499779000000.0 524977000000.0 638513000000.0 623419000000.0 645785000000.0 661920000000.0 609038000000.0 547867000000.0 482803000000.0 409873000000.0 327975000000.0 249587000000.0 202254000000.0 206392000000.0 212821000000.0 219264000000.0 226175000000.0 237955000000.0 264739000000.0 325004000000.0 461577000000.0 732708000000.0 258068000000.0 571252000000.0 460662000000.0 9988930000.0 21243700000.0 55732000000.0 92678400000.0 131523000000.0 171852000000.0 213647000000.0 257325000000.0 303206000000.0 350040000000.0 392066000000.0 416108000000.0 404877000000.0 374795000000.0 358081000000.0 380007000000.0 439055000000.0 513530000000.0 581144000000.0 656020000000.0 692029000000.0 724126000000.0 745584000000.0 746482000000.0 720227000000.0 653500000000.0 57648500000.0 922258000000.0 684896000000.0 274896000000.0 270842000000.0 229331000000.0 1879880000.0 40451400000.0 556713000000.0 741670000000.0 311098000000.0 563417000000.0 644483000000.0 609989000000.0 551202000000.0 486367000000.0 426531000000.0 371645000000.0 301375000000.0 192609000000.0 165173000000.0 159377000000.0 163847000000.0 170562000000.0 175440000000.0 178691000000.0 183525000000.0 196467000000.0 230008000000.0 309349000000.0 470771000000.0 695040000000.0 358943000000.0 274028000000.0 202576000000.0 141423000000.0 88912000000.0 44559100000.0 8550620000.0 18691400000.0 36816600000.0 45751500000.0 45807800000.0 37666100000.0 22258200000.0 647016000.0 26049200000.0 56751400000.0 90608000000.0 127082000000.0 165711000000.0 206051000000.0 247907000000.0 290851000000.0 333310000000.0 371579000000.0 398554000000.0 405679000000.0 398250000000.0 392028000000.0 401733000000.0 431940000000.0 478197000000.0 529639000000.0 577257000000.0 618519000000.0 652429000000.0 669522000000.0 673062000000.0 653613000000.0 585582000000.0 477041000000.0 301513000000.0 675452000000.0 710616000000.0 262630000000.0 954578000000.0 516953000000.0 47172400000.0 12189900000.0 16068600000.0 252318000000.0 321566000000.0 334187000000.0 456144000000.0 523078000000.0 561817000000.0 559442000000.0 500876000000.0 416290000000.0 343796000000.0 289418000000.0 216651000000.0 149403000000.0 122249000000.0 120273000000.0 127768000000.0 135810000000.0 141204000000.0 143492000000.0 144304000000.0 148850000000.0 166161000000.0 211242000000.0 303143000000.0 449955000000.0 610762000000.0 146788000000.0 372800000000.0 349529000000.0 294790000000.0 236385000000.0 181328000000.0 131491000000.0 87659100000.0 50509000000.0 20730100000.0 1094250000.0 14617200000.0 19821900000.0 17056700000.0 6969470000.0 9619810000.0 31814600000.0 58678800000.0 89309800000.0 123009000000.0 159342000000.0 197904000000.0 238150000000.0 279349000000.0 320047000000.0 357019000000.0 385167000000.0 399693000000.0 402550000000.0 402115000000.0 408020000000.0 425607000000.0 453581000000.0 487172000000.0 524119000000.0 561403000000.0 596074000000.0 626991000000.0 594205000000.0 571876000000.0 510433000000.0 402653000000.0 235706000000.0 85109000000.0 464799000000.0 601165000000.0 162603000000.0 496315000000.0 340363000000.0 116843000000.0 96370600000.0 98758300000.0 172963000000.0 141533000000.0 253001000000.0 118967000000.0 374903000000.0 432055000000.0 486512000000.0 504724000000.0 493238000000.0 385743000000.0 243209000000.0 161694000000.0 86589500000.0 69657000000.0 81818100000.0 99860200000.0 113211000000.0 119993000000.0 121470000000.0 120253000000.0 120409000000.0 41487400000.0 234842000000.0 250066000000.0 228262000000.0 192993000000.0 154093000000.0 116107000000.0 81535200000.0 52017200000.0 28713300000.0 12397800000.0 3462660000.0 1932910000.0 7497920000.0 19588200000.0 37496100000.0 60464000000.0 87728700000.0 118586000000.0 152482000000.0 429247000000.0 451442000000.0 478950000000.0 508607000000.0 536875000000.0 560672000000.0 580493000000.0 593974000000.0 342723000000.0 189497000000.0 89625500000.0 401130000000.0 193556000000.0 21919700000.0 2226460000.0 264503000000.0 419447000000.0 445538000000.0 464979000000.0 457461000000.0 262602000000.0 181640000000.0 117973000000.0 55716500000.0 20742700000.0 2653130000.0 45965200000.0 128364000000.0 153894000000.0 208897000000.0 300660000000.0 431050000000.0 513103000000.0 40865100000.0 137129000000.0 169576000000.0 168437000000.0 150497000000.0 125177000000.0 97943300000.0 72164500000.0 50046200000.0 33054900000.0 188936000000.0 227339000000.0 266876000000.0 306272000000.0 343197000000.0 374077000000.0 395038000000.0 405106000000.0 407597000000.0 408832000000.0 414952000000.0 478882000000.0 493484000000.0 506196000000.0 515818000000.0 515787000000.0 495496000000.0 441775000000.0 71852900000.0 289739000000.0 392786000000.0 143235000000.0 43454900000.0 80708000000.0 69034500000.0 158178000000.0 380217000000.0 265221000000.0 393563000000.0 468146000000.0 274931000000.0 102157000000.0 10024100000.0 247165000000.0 82090800000.0 103526000000.0 112467000000.0 113840000000.0 111119000000.0 107792000000.0 109246000000.0 122765000000.0 156251000000.0 215279000000.0 300495000000.0 398060000000.0 407823000000.0 22095000000.0 17602400000.0 19625400000.0 27911500000.0 41996800000.0 61300200000.0 85195400000.0 113047000000.0 144264000000.0 178367000000.0 214840000000.0 252821000000.0 291015000000.0 327683000000.0 360378000000.0 386303000000.0 403650000000.0 412323000000.0 413907000000.0 412196000000.0 413133000000.0 421877000000.0 439528000000.0 460788000000.0 433084000000.0 434615000000.0 433728000000.0 420598000000.0 380041000000.0 298330000000.0 166706000000.0 217843000000.0 373724000000.0 475696000000.0 340929000000.0 122814000000.0 1380070000.0 36321700000.0 53682200000.0 290336000000.0 287805000000.0 419748000000.0 432796000000.0 387429000000.0 487402000000.0 180380000000.0 185959000000.0 414164000000.0 254710000000.0 75467700000.0 37896100000.0 93048400000.0 113298000000.0 121336000000.0 120468000000.0 114107000000.0 107013000000.0 103633000000.0 108819000000.0 128062000000.0 165728000000.0 222449000000.0 290400000000.0 350876000000.0 305488000000.0 100559000000.0 66336500000.0 106271000000.0 117322000000.0 111427000000.0 96701200000.0 78554400000.0 60622400000.0 45322800000.0 34223300000.0 28283300000.0 27964600000.0 33336700000.0 44203800000.0 60207100000.0 80893300000.0 105760000000.0 134281000000.0 165920000000.0 200133000000.0 236248000000.0 273228000000.0 309535000000.0 343184000000.0 372150000000.0 394774000000.0 410082000000.0 417254000000.0 415244000000.0 407211000000.0 402887000000.0 408589000000.0 421097000000.0 430391000000.0 432909000000.0 347578000000.0 337645000000.0 314225000000.0 257750000000.0 151853000000.0 57498700000.0 147443000000.0 298118000000.0 353705000000.0 41828100000.0 173979000000.0 21148400000.0 122373000000.0 249379000000.0 163432000000.0 261891000000.0 355209000000.0 386819000000.0 403550000000.0 237807000000.0 450283000000.0 81338600000.0 300653000000.0 266811000000.0 197349000000.0 163730000000.0 148044000000.0 137309000000.0 126314000000.0 115266000000.0 106923000000.0 105251000000.0 114281000000.0 137044000000.0 174168000000.0 221285000000.0 267316000000.0 294390000000.0 212253000000.0 140266000000.0 14760300000.0 56711000000.0 74188800000.0 76167600000.0 69377300000.0 58685700000.0 47547000000.0 38326700000.0 32549500000.0 31147700000.0 34615400000.0 43062200000.0 56332500000.0 74139400000.0 96126400000.0 121888000000.0 150971000000.0 182876000000.0 216987000000.0 252424000000.0 287940000000.0 321965000000.0 352744000000.0 378688000000.0 398906000000.0 412684000000.0 417977000000.0 409774000000.0 392178000000.0 385612000000.0 394756000000.0 398855000000.0 389633000000.0 374568000000.0 358930000000.0 209475000000.0 132993000000.0 49929400000.0 285758000000.0 15095000000.0 97687900000.0 18081000000.0 55574000000.0 261434000000.0 331107000000.0 369268000000.0 417022000000.0 210120000000.0 168121000000.0 359997000000.0 248098000000.0 198479000000.0 180619000000.0 169244000000.0 163655000000.0 22802000000.0 17523900000.0 37475100000.0 44250300000.0 43289900000.0 38624700000.0 33231900000.0 29251300000.0 28119000000.0 30728200000.0 37552600000.0 48735500000.0 64166700000.0 387535000000.0 366526000000.0 333421000000.0 298703000000.0 269357000000.0 248686000000.0 237320000000.0 75529200000.0 231275000000.0 295001000000.0 66006500000.0 248230000000.0 109261000000.0 196771000000.0 73432000000.0 294851000000.0 326252000000.0 277305000000.0 42161700000.0 30171000000.0 56750900000.0 156892000000.0 142483000000.0 126933000000.0 114098000000.0 107189000000.0 108756000000.0 120559000000.0 143160000000.0 174394000000.0 207800000000.0 232418000000.0 233313000000.0 131087000000.0 83603900000.0 106748000000.0 133249000000.0 162687000000.0 194548000000.0 228167000000.0 262573000000.0 296409000000.0 328083000000.0 356066000000.0 379171000000.0 397145000000.0 410393000000.0 415932000000.0 400049000000.0 374160000000.0 381518000000.0 259316000000.0 207471000000.0 167562000000.0 149762000000.0 141218000000.0 103400000000.0 48717900000.0 7207340000.0 141489000000.0 214207000000.0 227859000000.0 83436500000.0 85844700000.0 150438000000.0 175313000000.0 23087000000.0 339026000000.0 377262000000.0 89812600000.0 141021000000.0 213712000000.0 189753000000.0 177649000000.0 180061000000.0 171393000000.0 155624000000.0 137692000000.0 121520000000.0 110520000000.0 106502000000.0 110199000000.0 121960000000.0 140770000000.0 162966000000.0 181921000000.0 188314000000.0 171167000000.0 62843700000.0 175164000000.0 50504500000.0 14113600000.0 5792340000.0 15199100000.0 18396000000.0 18454900000.0 17700400000.0 18024100000.0 20807900000.0 26875200000.0 36630900000.0 50206300000.0 67525100000.0 88368200000.0 112460000000.0 139480000000.0 169013000000.0 200517000000.0 233269000000.0 266260000000.0 298149000000.0 327332000000.0 352142000000.0 371372000000.0 386233000000.0 400604000000.0 413193000000.0 392212000000.0 382912000000.0 393929000000.0 359665000000.0 311153000000.0 61010800000.0 44836600000.0 44420800000.0 61594000000.0 100750000000.0 44060700000.0 119398000000.0 159352000000.0 73939400000.0 31946100000.0 60634900000.0 81292500000.0 72826800000.0 81809300000.0 306301000000.0 219384000000.0 347087000000.0 252639000000.0 178055000000.0 21713800000.0 188398000000.0 23968800000.0 154361000000.0 178506000000.0 176136000000.0 162578000000.0 143530000000.0 125357000000.0 111626000000.0 103669000000.0 101874000000.0 105914000000.0 114983000000.0 127339000000.0 139313000000.0 145094000000.0 137623000000.0 110141000000.0 6787060000.0 179844000000.0 72273700000.0 40766600000.0 21964500000.0 11165600000.0 5224340000.0 1980700000.0 616019000.0 4312990000.0 10324600000.0 19329900000.0 31636200000.0 47301900000.0 66231100000.0 88211700000.0 112974000000.0 140222000000.0 169554000000.0 200407000000.0 232017000000.0 263342000000.0 292967000000.0 319047000000.0 339288000000.0 351208000000.0 357084000000.0 364437000000.0 357130000000.0 331809000000.0 346071000000.0 340755000000.0 294611000000.0 237638000000.0 180938000000.0 110424000000.0 39613200000.0 49768300000.0 118340000000.0 93151000000.0 89985600000.0 53692300000.0 26897700000.0 21407700000.0 91842800000.0 5872430000.0 82498900000.0 232025000000.0 236997000000.0 294134000000.0 118670000000.0 45396800000.0 23731100000.0 79294500000.0 95549100000.0 124749000000.0 160394000000.0 158149000000.0 140725000000.0 121304000000.0 106980000000.0 182035000000.0 91802100000.0 65045600000.0 46778100000.0 35140400000.0 28220200000.0 23518700000.0 18753900000.0 12406200000.0 3694480000.0 7815670000.0 22318900000.0 39805400000.0 60111600000.0 82979800000.0 108138000000.0 135308000000.0 164106000000.0 300146000000.0 291928000000.0 298541000000.0 279094000000.0 226416000000.0 182676000000.0 107361000000.0 4843160000.0 220655000000.0 73423800000.0 46484900000.0 4366840000.0 33163800000.0 27340400000.0 60766100000.0 116605000000.0 201070000000.0 272450000000.0 398903000000.0 155656000000.0 66189400000.0 6294650000.0 67343200000.0 108417000000.0 98200100000.0 93436000000.0 91809200000.0 93256200000.0 97443200000.0 102426000000.0 104703000000.0 99676400000.0 82645400000.0 51247400000.0 38651400000.0 184837000000.0 193998000000.0 224249000000.0 253738000000.0 280813000000.0 303144000000.0 317317000000.0 317917000000.0 311778000000.0 314583000000.0 168940000000.0 115654000000.0 42364100000.0 67162200000.0 36453100000.0 30514600000.0 104795000000.0 45601900000.0 11649200000.0 4630050000.0 44124000000.0 49352600000.0 42051300000.0 15694600000.0 33345400000.0 38191600000.0 53796000000.0 69891200000.0 9034900000.0 38757800000.0 37648000000.0 104259000000.0 137737000000.0 127192000000.0 107021000000.0 92804000000.0 85817500000.0 82582400000.0 78744900000.0 74184300000.0 71215500000.0 69588400000.0 67376900000.0 61467700000.0 48203700000.0 25039700000.0 5556940000.0 74376900000.0 111118000000.0 87724700000.0 69854300000.0 58875900000.0 52771000000.0 47735500000.0 41332700000.0 32768400000.0 21701500000.0 7949720000.0 8517150000.0 27603600000.0 49095700000.0 72677700000.0 98025500000.0 124809000000.0 152739000000.0 181391000000.0 210004000000.0 237328000000.0 261405000000.0 279412000000.0 287243000000.0 274278000000.0 267810000000.0 266055000000.0 256096000000.0 246864000000.0 235183000000.0 198216000000.0 82283000000.0 81083200000.0 67854600000.0 39029900000.0 12512000000.0 27864000000.0 24021300000.0 24759200000.0 16569200000.0 65470900000.0 26112800000.0 25375600000.0 11982100000.0 73819200000.0 14312200000.0 46380000000.0 83433600000.0 85247900000.0 102328000000.0 84614300000.0 70282700000.0 64452900000.0 65663200000.0 63661000000.0 56339500000.0 48304400000.0 40683500000.0 33454600000.0 25089400000.0 12596600000.0 7140640000.0 34519500000.0 61825300000.0 100514000000.0 190748000000.0 129634000000.0 108154000000.0 93934500000.0 87058000000.0 82275200000.0 76232200000.0 68026400000.0 57331300000.0 44079400000.0 28247700000.0 9909990000.0 10759500000.0 33465900000.0 57621800000.0 82866000000.0 109076000000.0 136004000000.0 163121000000.0 189498000000.0 213696000000.0 232890000000.0 242545000000.0 233913000000.0 220814000000.0 215306000000.0 220097000000.0 210916000000.0 199345000000.0 156400000000.0 162243000000.0 101761000000.0 46442700000.0 25380400000.0 112971000000.0 128394000000.0 31879200000.0 16925800000.0 50185700000.0 42315500000.0 8249530000.0 28658300000.0 90644100000.0 181722000000.0 80023900000.0 2743600000.0 65394100000.0 2979310000.0 23201700000.0 48659900000.0 74266900000.0 60720900000.0 58483900000.0 48060100000.0 40798400000.0 45187200000.0 43572700000.0 34418700000.0 25252000000.0 14809300000.0 63097900000.0 94038900000.0 119644000000.0 118088000000.0 201871000000.0 147328000000.0 130341000000.0 126517000000.0 124239000000.0 118413000000.0 110144000000.0 99560300000.0 86558700000.0 71121700000.0 53197100000.0 32801700000.0 10275400000.0 13715700000.0 38328800000.0 63427900000.0 89274700000.0 115241000000.0 140258000000.0 163526000000.0 183205000000.0 194902000000.0 192236000000.0 182733000000.0 170578000000.0 168619000000.0 174123000000.0 162570000000.0 124550000000.0 113184000000.0 114505000000.0 45788800000.0 17376100000.0 385225000.0 4499700000.0 64830900000.0 14305500000.0 54777500000.0 70175200000.0 67849100000.0 72393800000.0 46834000000.0 7321140000.0 39285400000.0 47393800000.0 66381700000.0 99880500000.0 29245700000.0 95044200000.0 192351000000.0 138129000000.0 112180000000.0 51514600000.0 16894400000.0 4067200000.0 7252150000.0 20962400000.0 38797700000.0 226587000000.0 172829000000.0 76345300000.0 80834200000.0 84390000000.0 18156500000.0 12604000000.0 9035770000.0 31472900000.0 37659700000.0 45451300000.0 44333000000.0 45642000000.0 16394500000.0 76580200000.0 48354500000.0 44691200000.0 65728100000.0 65260500000.0 58425000000.0 34139200000.0 34752700000.0 31132800000.0 13310300000.0 3887910000.0 5123040000.0 16214100000.0 29163600000.0 45318000000.0 64288600000.0 86117400000.0 113332000000.0 146257000000.0 166818000000.0 126829000000.0 172997000000.0 175335000000.0 169602000000.0 160721000000.0 149545000000.0 136220000000.0 120775000000.0 102917000000.0 82429000000.0 59644700000.0 35120500000.0 9506860000.0 15975400000.0 41792100000.0 68008800000.0 92651800000.0 114835000000.0 133897000000.0 147409000000.0 149320000000.0 144758000000.0 132929000000.0 125074000000.0 123674000000.0 124280000000.0 101470000000.0 53108500000.0 10647100000.0 9035750000.0 9288760000.0 9230070000.0 9035750000.0 9035750000.0 74033300000.0 31459900000.0 40232100000.0 31032600000.0 101660000000.0 36591300000.0 55528600000.0 6189390000.0 6778680000.0 30820900000.0 61262700000.0 39233200000.0 38301300000.0 35020200000.0 68449000000.0 85152500000.0 87416100000.0 87234400000.0 75071300000.0 61253000000.0 47870800000.0 33412400000.0 16059800000.0 8133910000.0 46831100000.0 101901000000.0 182791000000.0 184309000000.0 305887000000.0 238933000000.0 235159000000.0 221225000000.0 207909000000.0 194281000000.0 178902000000.0 161709000000.0 142366000000.0 120568000000.0 96166100000.0 69709600000.0 41743500000.0 12491900000.0 16505600000.0 44915300000.0 72758500000.0 96428700000.0 115796000000.0 128901000000.0 132873000000.0 130588000000.0 120113000000.0 107206000000.0 98661300000.0 90144100000.0 64066700000.0 2351050000.0 39998200000.0 76620600000.0 109291000000.0 176831000000.0 152497000000.0 69205700000.0 52356800000.0 40628300000.0 4174940000.0 3412390000.0 11694700000.0 14351700000.0 20337600000.0 204800000.0 4859540000.0 3350040000.0 12058400000.0 21866500000.0 31931800000.0 48615100000.0 39014600000.0 20827500000.0 15820100000.0 22244300000.0 20969600000.0 4287910000.0 19338300000.0 92739700000.0 78792300000.0 60944100000.0 42615700000.0 24866700000.0 7540370000.0 9153210000.0 25150500000.0 39916300000.0 53527800000.0 64735000000.0 66864200000.0 58588200000.0 39466400000.0 42093700000.0 45362400000.0 48030700000.0 7737650000.0 5328280000.0 41600900000.0 23110200000.0 25031700000.0 28301900000.0 27323300000.0 27435800000.0 9035750000.0 20089300000.0 38456900000.0 15309000000.0 13287100000.0 14298300000.0 6359500000.0 6075880000.0 12067300000.0 49017000000.0 58258500000.0 65149600000.0 66377500000.0 64350700000.0 58164300000.0 47151100000.0 32094100000.0 14554300000.0 604149000.0 3429170000.0 18612600000.0 60152500000.0 73677400000.0 83581800000.0 91684400000.0 94237700000.0 96228700000.0 97779200000.0 100325000000.0 102889000000.0 102762000000.0 100889000000.0 93198400000.0 82864900000.0 74395700000.0 15322600000.0 9034520000.0 9066650000.0 9035750000.0 9035750000.0 9035750000.0 9035750000.0 27475600000.0 8958290000.0 19778600000.0 20794700000.0 36432500000.0 27519400000.0 8759260000.0 12500900000.0 12059900000.0 13409500000.0 17439100000.0 14440800000.0 13282500000.0 13014300000.0 10520200000.0 27331700000.0 31405000000.0 34364600000.0 34908000000.0 35708200000.0 36423800000.0 37089600000.0 38172100000.0 38982000000.0 39291900000.0 38323500000.0 36297200000.0 33530600000.0 52325700000.0 22081500000.0 26487700000.0 28467600000.0 30621900000.0 32571800000.0 32888900000.0 33202400000.0 33543400000.0 33871200000.0 33744500000.0 32765200000.0 31280900000.0 29669900000.0 27738200000.0 25529100000.0 24154200000.0 22799100000.0 22016800000.0 21578100000.0 20473900000.0 19005700000.0 16222600000.0 13480800000.0 11729400000.0 10501300000.0 9391150000.0 5636440000.0 8667250000.0 11733800000.0 14510000000.0 3975200000.0 6524110000.0 19587000000.0 11103300000.0 9028780000.0 13670200000.0 14226300000.0 15272900000.0 14903800000.0 14763700000.0 9035750000.0 