# vtk DataFile Version 2.0
Time step 47
ASCII
DATASET UNSTRUCTURED_GRID
POINTS 5000 float
297464.0 311588.0 0
202705.0 313822.0 0
207643.0 312006.0 0
206560.0 316307.0 0
213193.0 313174.0 0
209457.0 315227.0 0
221986.0 315278.0 0
228475.0 316581.0 0
231987.0 314457.0 0
237212.0 316334.0 0
272167.0 315007.0 0
279743.0 314056.0 0
290634.0 313103.0 0
297179.0 316848.0 0
202414.0 318858.0 0
206991.0 320616.0 0
211307.0 318334.0 0
217120.0 317408.0 0
214596.0 322051.0 0
220750.0 321669.0 0
224699.0 318875.0 0
232607.0 317766.0 0
230157.0 321004.0 0
235109.0 321477.0 0
242541.0 318666.0 0
249251.0 319233.0 0
255558.0 318492.0 0
260447.0 319611.0 0
264468.0 321537.0 0
267178.0 317533.0 0
271479.0 319521.0 0
275990.0 318986.0 0
281439.0 319847.0 0
286563.0 317395.0 0
288912.0 321744.0 0
292192.0 318722.0 0
203008.0 324119.0 0
210065.0 324666.0 0
217540.0 325660.0 0
225942.0 323024.0 0
231894.0 324977.0 0
236172.0 326557.0 0
244805.0 323752.0 0
239857.0 323428.0 0
249027.0 324807.0 0
252948.0 323901.0 0
257098.0 322941.0 0
261089.0 323976.0 0
268723.0 322455.0 0
265404.0 326450.0 0
269961.0 326345.0 0
273446.0 323707.0 0
278190.0 323310.0 0
276626.0 326929.0 0
285322.0 322117.0 0
282654.0 323781.0 0
280856.0 327075.0 0
285593.0 326359.0 0
289372.0 325157.0 0
292869.0 326199.0 0
296661.0 322886.0 0
201914.0 328670.0 0
206459.0 328324.0 0
213504.0 328679.0 0
218165.0 329921.0 0
222531.0 327263.0 0
228029.0 327693.0 0
225510.0 330912.0 0
232547.0 329148.0 0
236421.0 331044.0 0
241098.0 328813.0 0
246580.0 328402.0 0
251400.0 328168.0 0
254048.0 331983.0 0
256246.0 327606.0 0
260789.0 328233.0 0
268621.0 329951.0 0
273075.0 329163.0 0
270908.0 332027.0 0
278061.0 331718.0 0
283866.0 331274.0 0
289702.0 329379.0 0
296208.0 330760.0 0
203686.0 332647.0 0
202021.0 336601.0 0
209719.0 333077.0 0
215957.0 334821.0 0
221948.0 333047.0 0
228899.0 332547.0 0
225947.0 336714.0 0
232916.0 332714.0 0
231589.0 336968.0 0
235629.0 335171.0 0
239975.0 334525.0 0
244734.0 332972.0 0
243680.0 336595.0 0
249419.0 332509.0 0
247663.0 337206.0 0
252174.0 336320.0 0
258619.0 332245.0 0
256068.0 335547.0 0
264101.0 332448.0 0
268894.0 334065.0 0
273637.0 333755.0 0
271552.0 337243.0 0
281351.0 335357.0 0
285362.0 336350.0 0
287993.0 333183.0 0
289648.0 336272.0 0
291557.0 333230.0 0
293356.0 335998.0 0
297549.0 336422.0 0
202044.0 340316.0 0
206211.0 337599.0 0
211505.0 338828.0 0
216446.0 340455.0 0
220923.0 338385.0 0
224736.0 342209.0 0
228760.0 340297.0 0
232106.0 341198.0 0
236796.0 340250.0 0
241290.0 338601.0 0
244602.0 339482.0 0
247110.0 341894.0 0
250876.0 340625.0 0
260116.0 337574.0 0
255167.0 339519.0 0
266178.0 338689.0 0
270779.0 341576.0 0
276966.0 338196.0 0
280370.0 341695.0 0
282285.0 339125.0 0
287041.0 339862.0 0
291179.0 339617.0 0
294783.0 339053.0 0
297873.0 340799.0 0
202315.0 344203.0 0
207409.0 342767.0 0
205519.0 347440.0 0
213284.0 344240.0 0
209648.0 347013.0 0
220125.0 343120.0 0
222775.0 346066.0 0
229413.0 343739.0 0
226971.0 347144.0 0
233471.0 344948.0 0
238779.0 346218.0 0
242325.0 342704.0 0
245748.0 346207.0 0
249801.0 344458.0 0
253990.0 344162.0 0
258251.0 342474.0 0
262785.0 343289.0 0
267400.0 344426.0 0
274467.0 343139.0 0
270744.0 345268.0 0
273715.0 347490.0 0
277884.0 342823.0 0
276953.0 345442.0 0
280002.0 345005.0 0
284079.0 343084.0 0
289071.0 343350.0 0
286796.0 346827.0 0
294216.0 343409.0 0
291464.0 347271.0 0
298509.0 347190.0 0
298382.0 344347.0 0
201929.0 348020.0 0
201647.0 351029.0 0
204523.0 351407.0 0
208475.0 351256.0 0
213148.0 349415.0 0
218345.0 348037.0 0
223699.0 350326.0 0
228147.0 352319.0 0
230996.0 349056.0 0
235218.0 349492.0 0
238696.0 352045.0 0
242298.0 349451.0 0
246233.0 351004.0 0
249089.0 352289.0 0
249972.0 348678.0 0
254416.0 349042.0 0
259173.0 347568.0 0
264496.0 348258.0 0
261891.0 351607.0 0
269209.0 349545.0 0
273605.0 352098.0 0
277784.0 349242.0 0
282627.0 348043.0 0
280658.0 352389.0 0
284488.0 351875.0 0
288728.0 351006.0 0
295529.0 347663.0 0
293811.0 351577.0 0
297888.0 350540.0 0
202324.0 354458.0 0
205600.0 355187.0 0
212187.0 353271.0 0
209313.0 356083.0 0
212982.0 356449.0 0
216281.0 353767.0 0
220742.0 353622.0 0
224909.0 355455.0 0
229040.0 357120.0 0
233329.0 354382.0 0
238299.0 357279.0 0
242996.0 354403.0 0
247593.0 355605.0 0
252658.0 354210.0 0
257776.0 353002.0 0
261594.0 355905.0 0
265457.0 352935.0 0
269627.0 354701.0 0
273530.0 356857.0 0
277116.0 354059.0 0
282609.0 356198.0 0
286344.0 355059.0 0
290237.0 355410.0 0
294498.0 355774.0 0
297846.0 354365.0 0
202696.0 358714.0 0
201729.0 362535.0 0
204812.0 362468.0 0
206708.0 359382.0 0
208417.0 362851.0 0
211229.0 360215.0 0
215942.0 358825.0 0
220631.0 358795.0 0
225372.0 360263.0 0
229428.0 361535.0 0
232705.0 359334.0 0
236089.0 361471.0 0
239938.0 362633.0 0
242873.0 359193.0 0
246792.0 359679.0 0
250901.0 359298.0 0
256653.0 359515.0 0
262145.0 361014.0 0
265942.0 357929.0 0
269866.0 360009.0 0
273994.0 361845.0 0
278061.0 358384.0 0
282687.0 360800.0 0
286790.0 358457.0 0
291781.0 360168.0 0
297294.0 359072.0 0
202585.0 366233.0 0
206336.0 365349.0 0
214355.0 361906.0 0
210297.0 366134.0 0
212770.0 363982.0 0
214619.0 367104.0 0
217476.0 363657.0 0
222145.0 364244.0 0
226336.0 364753.0 0
229540.0 365560.0 0
233040.0 364066.0 0
237198.0 367233.0 0
244490.0 363909.0 0
241414.0 366570.0 0
249202.0 363558.0 0
247309.0 367312.0 0
252926.0 363517.0 0
251264.0 368174.0 0
259880.0 363988.0 0
256325.0 366638.0 0
262164.0 366800.0 0
265712.0 363358.0 0
266304.0 367848.0 0
269990.0 364884.0 0
274320.0 367128.0 0
278361.0 363362.0 0
279169.0 367364.0 0
282497.0 364954.0 0
284493.0 366865.0 0
286778.0 362873.0 0
287844.0 366497.0 0
291101.0 364316.0 0
291447.0 367847.0 0
296447.0 364608.0 0
202957.0 370972.0 0
207310.0 369020.0 0
211907.0 370054.0 0
215476.0 370335.0 0
218812.0 368344.0 0
218136.0 372158.0 0
223214.0 368774.0 0
221575.0 372582.0 0
227553.0 369200.0 0
232188.0 368948.0 0
235122.0 372511.0 0
239246.0 372485.0 0
240919.0 369615.0 0
244086.0 369096.0 0
242835.0 372264.0 0
247256.0 370711.0 0
250016.0 372764.0 0
254637.0 372748.0 0
259196.0 370266.0 0
263346.0 371645.0 0
267377.0 371518.0 0
270186.0 369462.0 0
273283.0 372194.0 0
276772.0 370775.0 0
278760.0 373008.0 0
281796.0 370542.0 0
286735.0 370789.0 0
294158.0 369758.0 0
290519.0 373035.0 0
297481.0 369884.0 0
195574.0 380047.0 0
198079.0 379000.0 0
200635.0 375850.0 0
204336.0 376319.0 0
206309.0 373513.0 0
208072.0 378132.0 0
210020.0 373834.0 0
211886.0 378456.0 0
214786.0 374834.0 0
219504.0 376369.0 0
223013.0 376460.0 0
225575.0 373143.0 0
230271.0 373881.0 0
226709.0 377569.0 0
233820.0 376486.0 0
237575.0 376358.0 0
241532.0 376180.0 0
245933.0 374875.0 0
250394.0 377804.0 0
259503.0 374617.0 0
256148.0 377604.0 0
262890.0 376236.0 0
266332.0 375159.0 0
269937.0 374133.0 0
269010.0 377584.0 0
272630.0 377336.0 0
275856.0 374959.0 0
279738.0 376141.0 0
283528.0 374635.0 0
282564.0 378061.0 0
286876.0 377310.0 0
290934.0 377725.0 0
299181.0 376169.0 0
295232.0 374727.0 0
300704.0 379322.0 0
303520.0 380802.0 0
190357.0 383480.0 0
187402.0 385447.0 0
193362.0 382314.0 0
194439.0 385114.0 0
197065.0 382402.0 0
201699.0 379916.0 0
199175.0 381896.0 0
197507.0 385108.0 0
200026.0 383984.0 0
205436.0 379682.0 0
203206.0 382976.0 0
207199.0 382762.0 0
210169.0 381986.0 0
214066.0 381609.0 0
217255.0 379825.0 0
219366.0 383227.0 0
222153.0 380253.0 0
226161.0 382020.0 0
229598.0 384220.0 0
230908.0 379506.0 0
233442.0 383120.0 0
235629.0 379519.0 0
239707.0 379930.0 0
236954.0 382412.0 0
244459.0 379492.0 0
242106.0 382651.0 0
247629.0 381704.0 0
253937.0 380713.0 0
251357.0 383735.0 0
255635.0 383842.0 0
257590.0 381395.0 0
260616.0 379158.0 0
263053.0 382315.0 0
259811.0 383766.0 0
265721.0 379381.0 0
273979.0 381104.0 0
270318.0 381367.0 0
276315.0 378811.0 0
276955.0 382676.0 0
279928.0 380236.0 0
283999.0 381078.0 0
286928.0 382373.0 0
289630.0 381539.0 0
297033.0 380572.0 0
293720.0 379998.0 0
296428.0 383881.0 0
299783.0 382498.0 0
299457.0 385304.0 0
306666.0 381832.0 0
303002.0 384385.0 0
306655.0 384871.0 0
310675.0 384692.0 0
309138.0 382573.0 0
313328.0 385647.0 0
179316.0 390566.0 0
184283.0 387139.0 0
182134.0 389515.0 0
190552.0 385917.0 0
187453.0 388647.0 0
190250.0 390321.0 0
192558.0 387233.0 0
194336.0 389076.0 0
196598.0 388209.0 0
200008.0 387404.0 0
197310.0 390770.0 0
203262.0 386642.0 0
206673.0 387007.0 0
209580.0 386475.0 0
212283.0 384833.0 0
212630.0 388510.0 0
216036.0 385234.0 0
215857.0 389355.0 0
219433.0 387283.0 0
222542.0 384683.0 0
225907.0 386420.0 0
228916.0 388187.0 0
232085.0 387543.0 0
235823.0 386418.0 0
239246.0 384581.0 0
244786.0 384142.0 0
241924.0 387432.0 0
245230.0 388156.0 0
247937.0 386293.0 0
254088.0 387293.0 0
250749.0 388467.0 0
257303.0 386559.0 0
260261.0 387433.0 0
263496.0 386294.0 0
266634.0 384100.0 0
269963.0 386082.0 0
273819.0 385082.0 0
271691.0 389183.0 0
278026.0 386516.0 0
275223.0 389633.0 0
281149.0 384320.0 0
282486.0 388346.0 0
285054.0 385308.0 0
292695.0 384232.0 0
288839.0 386076.0 0
291465.0 388200.0 0
297050.0 388246.0 0
294351.0 387353.0 0
300253.0 389440.0 0
303368.0 387990.0 0
306902.0 388338.0 0
309802.0 387703.0 0
312115.0 389047.0 0
315226.0 387996.0 0
317899.0 389777.0 0
320993.0 390279.0 0
174331.0 393821.0 0
171795.0 395276.0 0
176598.0 392042.0 0
179564.0 394096.0 0
176474.0 396186.0 0
182979.0 394850.0 0
184977.0 391775.0 0
188088.0 393710.0 0
193226.0 392100.0 0
191022.0 395821.0 0
196173.0 393825.0 0
200244.0 390776.0 0
200472.0 394412.0 0
203349.0 390189.0 0
204591.0 393809.0 0
206210.0 390180.0 0
209505.0 391252.0 0
211903.0 394838.0 0
213488.0 391767.0 0
215555.0 393711.0 0
218625.0 391757.0 0
222650.0 389582.0 0
224123.0 392946.0 0
226465.0 390497.0 0
226739.0 393632.0 0
230069.0 391856.0 0
234269.0 391245.0 0
238344.0 389278.0 0
237616.0 392818.0 0
241072.0 392384.0 0
243965.0 390750.0 0
250587.0 391813.0 0
247369.0 390936.0 0
253471.0 390403.0 0
253634.0 394813.0 0
257443.0 391098.0 0
262400.0 390841.0 0
266981.0 389548.0 0
268223.0 393878.0 0
270692.0 392137.0 0
273750.0 393292.0 0
277803.0 394151.0 0
279332.0 390275.0 0
282364.0 393064.0 0
286005.0 393924.0 0
286552.0 389970.0 0
292631.0 393298.0 0
290385.0 390659.0 0
289784.0 393996.0 0
293739.0 390794.0 0
297274.0 391882.0 0
295563.0 394990.0 0
303692.0 391370.0 0
300997.0 393467.0 0
307110.0 392641.0 0
314004.0 391537.0 0
310390.0 391277.0 0
311837.0 393716.0 0
317693.0 392968.0 0
314932.0 394654.0 0
322964.0 393114.0 0
320621.0 395436.0 0
326343.0 394045.0 0
328757.0 395340.0 0
163586.0 400285.0 0
169120.0 396998.0 0
166572.0 398980.0 0
167991.0 401459.0 0
173498.0 397390.0 0
171372.0 398916.0 0
174298.0 399656.0 0
180167.0 397248.0 0
177093.0 399102.0 0
180403.0 399569.0 0
183212.0 398562.0 0
185956.0 396446.0 0
187958.0 399309.0 0
191485.0 400250.0 0
193509.0 398112.0 0
196753.0 397254.0 0
201312.0 397933.0 0
204613.0 398028.0 0
207806.0 395917.0 0
209970.0 398850.0 0
214282.0 397366.0 0
217711.0 396391.0 0
216831.0 399505.0 0
220150.0 399719.0 0
221082.0 394773.0 0
224290.0 397240.0 0
228742.0 396315.0 0
232169.0 395502.0 0
234033.0 399251.0 0
235779.0 395712.0 0
239038.0 395625.0 0
244581.0 394111.0 0
241884.0 397200.0 0
245277.0 398180.0 0
248476.0 395636.0 0
251518.0 399086.0 0
254866.0 399868.0 0
257405.0 396784.0 0
260340.0 399103.0 0
260710.0 395081.0 0
263204.0 398426.0 0
264831.0 394613.0 0
267324.0 397748.0 0
271151.0 396676.0 0
274998.0 396610.0 0
277694.0 398633.0 0
280868.0 397239.0 0
284186.0 397144.0 0
287702.0 397306.0 0
290677.0 397629.0 0
292540.0 396348.0 0
292518.0 399588.0 0
295554.0 398797.0 0
299141.0 396670.0 0
298980.0 400609.0 0
302629.0 399000.0 0
304516.0 395903.0 0
307249.0 397962.0 0
309826.0 395980.0 0
310102.0 399663.0 0
313473.0 398444.0 0
317405.0 397469.0 0
318768.0 401090.0 0
322114.0 399023.0 0
325170.0 396827.0 0
326765.0 398417.0 0
324721.0 401540.0 0
329259.0 399628.0 0
331034.0 397288.0 0
333841.0 399137.0 0
336573.0 400853.0 0
154640.0 405599.0 0
157771.0 404718.0 0
160960.0 402382.0 0
164602.0 402661.0 0
161940.0 405234.0 0
164661.0 406501.0 0
166904.0 404165.0 0
168893.0 405955.0 0
170936.0 401597.0 0
173941.0 401678.0 0
171529.0 404455.0 0
174981.0 404299.0 0
177006.0 401684.0 0
180826.0 402041.0 0
178431.0 403977.0 0
184657.0 401479.0 0
182316.0 404867.0 0
186540.0 404220.0 0
189293.0 403078.0 0
192054.0 402192.0 0
194507.0 400903.0 0
191234.0 406000.0 0
194478.0 404293.0 0
198057.0 400653.0 0
199329.0 404460.0 0
202609.0 401048.0 0
204323.0 403390.0 0
206459.0 400470.0 0
206760.0 404626.0 0
208604.0 402428.0 0
213087.0 402094.0 0
217566.0 403056.0 0
223401.0 402068.0 0
220597.0 404622.0 0
227080.0 400011.0 0
227216.0 403510.0 0
230720.0 400120.0 0
234133.0 403289.0 0
230603.0 403770.0 0
238011.0 400088.0 0
242928.0 402648.0 0
247880.0 400897.0 0
251709.0 403534.0 0
257894.0 400381.0 0
256136.0 404120.0 0
261160.0 403829.0 0
266110.0 401818.0 0
269800.0 404913.0 0
270380.0 400998.0 0
273130.0 403791.0 0
273977.0 400274.0 0
277160.0 402567.0 0
281019.0 401360.0 0
284143.0 400344.0 0
288484.0 401556.0 0
284982.0 404977.0 0
292475.0 404009.0 0
295394.0 401994.0 0
297945.0 404014.0 0
302642.0 404231.0 0
306492.0 401742.0 0
308683.0 406068.0 0
310407.0 402939.0 0
314785.0 403229.0 0
321897.0 402551.0 0
320456.0 405318.0 0
328210.0 402351.0 0
324624.0 405755.0 0
327600.0 404738.0 0
332258.0 401634.0 0
331133.0 403838.0 0
334101.0 405353.0 0
330075.0 406368.0 0
335803.0 403620.0 0
339311.0 402144.0 0
337721.0 405414.0 0
341159.0 404151.0 0
344189.0 405266.0 0
346894.0 406629.0 0
144649.0 411878.0 0
147307.0 410039.0 0
152540.0 407178.0 0
150294.0 409233.0 0
151249.0 411622.0 0
154490.0 409111.0 0
157435.0 408259.0 0
160778.0 408272.0 0
163107.0 408762.0 0
160690.0 411356.0 0
164088.0 411307.0 0
166438.0 408648.0 0
170163.0 408271.0 0
168115.0 410544.0 0
172388.0 407314.0 0
175432.0 408109.0 0
171238.0 411184.0 0
179185.0 407782.0 0
184409.0 407140.0 0
182292.0 410825.0 0
188024.0 407745.0 0
186236.0 410657.0 0
190216.0 410597.0 0
192797.0 408855.0 0
195887.0 407759.0 0
199195.0 408743.0 0
202684.0 406953.0 0
205833.0 408773.0 0
210016.0 406403.0 0
212699.0 410019.0 0
214337.0 406514.0 0
217476.0 407374.0 0
220810.0 409201.0 0
224125.0 406894.0 0
228312.0 406869.0 0
229620.0 409866.0 0
231944.0 406903.0 0
235007.0 407706.0 0
237812.0 405114.0 0
240971.0 407435.0 0
242999.0 410494.0 0
244657.0 407154.0 0
247536.0 405200.0 0
247430.0 410000.0 0
250467.0 407607.0 0
254202.0 408516.0 0
258161.0 409004.0 0
262363.0 409661.0 0
265894.0 406840.0 0
268883.0 409089.0 0
272398.0 408203.0 0
276155.0 406234.0 0
279041.0 409560.0 0
280565.0 405480.0 0
288038.0 409111.0 0
288840.0 405920.0 0
291872.0 408329.0 0
295941.0 406092.0 0
295650.0 409378.0 0
300277.0 408651.0 0
304928.0 410378.0 0
305813.0 406841.0 0
309563.0 410443.0 0
312789.0 407405.0 0
317413.0 407226.0 0
316148.0 409745.0 0
323473.0 408977.0 0
320502.0 408934.0 0
328150.0 408831.0 0
325886.0 411207.0 0
333418.0 408093.0 0
331645.0 411524.0 0
337369.0 408826.0 0
340418.0 407309.0 0
343430.0 407660.0 0
340542.0 411573.0 0
342026.0 409883.0 0
345266.0 409707.0 0
349470.0 408242.0 0
348120.0 410302.0 0
350983.0 411625.0 0
352316.0 410001.0 0
354899.0 411956.0 0
138042.0 417038.0 0
140019.0 414694.0 0
142435.0 413354.0 0
141988.0 416916.0 0
143430.0 415371.0 0
147011.0 412916.0 0
145946.0 415822.0 0
154229.0 411868.0 0
150284.0 414579.0 0
153860.0 415469.0 0
157465.0 411831.0 0
157229.0 415442.0 0
160629.0 414816.0 0
163191.0 414225.0 0
165069.0 416355.0 0
166859.0 413282.0 0
169792.0 414525.0 0
174847.0 412137.0 0
173123.0 416614.0 0
178457.0 412889.0 0
180412.0 415533.0 0
184010.0 415031.0 0
187778.0 413065.0 0
194459.0 411281.0 0
192040.0 412703.0 0
190373.0 415086.0 0
194450.0 414204.0 0
197160.0 410996.0 0
197454.0 414204.0 0
201288.0 411700.0 0
204943.0 413057.0 0
208274.0 414544.0 0
209048.0 411113.0 0
211673.0 414239.0 0
214202.0 414269.0 0
215969.0 411401.0 0
219391.0 412639.0 0
223470.0 412777.0 0
226160.0 410278.0 0
225417.0 415274.0 0
228456.0 413716.0 0
232857.0 411457.0 0
235193.0 414156.0 0
237915.0 410694.0 0
237643.0 414895.0 0
241103.0 414402.0 0
245409.0 414302.0 0
248932.0 413921.0 0
251729.0 411749.0 0
255790.0 413482.0 0
259468.0 413051.0 0
262972.0 414616.0 0
266494.0 411912.0 0
271158.0 413217.0 0
275405.0 413663.0 0
275335.0 410783.0 0
277831.0 412680.0 0
280629.0 413290.0 0
283793.0 409979.0 0
283671.0 414219.0 0
287552.0 413571.0 0
294048.0 411948.0 0
291164.0 412402.0 0
294437.0 415262.0 0
297358.0 412730.0 0
301298.0 413589.0 0
304652.0 414574.0 0
307977.0 414336.0 0
313806.0 412359.0 0
311577.0 415344.0 0
319141.0 411717.0 0
317511.0 413840.0 0
322502.0 411862.0 0
322096.0 415139.0 0
328496.0 413061.0 0
325343.0 414169.0 0
327961.0 416306.0 0
331745.0 415853.0 0
335636.0 412410.0 0
338544.0 413210.0 0
335712.0 416137.0 0
339410.0 416682.0 0
344604.0 412497.0 0
342446.0 414979.0 0
348010.0 413839.0 0
345662.0 416405.0 0
352998.0 414040.0 0
350505.0 415965.0 0
357390.0 414032.0 0
355510.0 416854.0 0
360135.0 415672.0 0
129106.0 422004.0 0
131876.0 420430.0 0
134917.0 418180.0 0
135190.0 421056.0 0
139550.0 419243.0 0
143398.0 418528.0 0
141992.0 420599.0 0
145476.0 418309.0 0
149113.0 417499.0 0
145990.0 420308.0 0
149510.0 420872.0 0
152918.0 418533.0 0
154923.0 420509.0 0
158032.0 418776.0 0
161923.0 418011.0 0
163278.0 420921.0 0
168116.0 417156.0 0
166197.0 419101.0 0
167191.0 421674.0 0
169807.0 418911.0 0
173795.0 420606.0 0
177094.0 416853.0 0
177126.0 420632.0 0
180685.0 418867.0 0
183923.0 419659.0 0
187541.0 418032.0 0
191016.0 419129.0 0
192971.0 416895.0 0
196178.0 418743.0 0
200798.0 416810.0 0
204739.0 416801.0 0
208523.0 418393.0 0
213031.0 417916.0 0
216812.0 416156.0 0
219299.0 419434.0 0
216191.0 419994.0 0
220704.0 415758.0 0
223219.0 417828.0 0
227299.0 418237.0 0
230288.0 419681.0 0
231670.0 416204.0 0
235446.0 417792.0 0
239481.0 418416.0 0
243919.0 418089.0 0
247743.0 417598.0 0
251921.0 416392.0 0
250221.0 420136.0 0
255493.0 417950.0 0
259383.0 417880.0 0
262582.0 420097.0 0
263623.0 418105.0 0
267355.0 416701.0 0
270881.0 418044.0 0
273969.0 416592.0 0
278254.0 416135.0 0
276766.0 419295.0 0
281960.0 416785.0 0
280330.0 420873.0 0
283989.0 419437.0 0
285611.0 416936.0 0
287030.0 420980.0 0
288297.0 417819.0 0
291084.0 420854.0 0
291069.0 416341.0 0
298428.0 416765.0 0
295190.0 420052.0 0
299411.0 420711.0 0
302225.0 417839.0 0
305720.0 417727.0 0
309236.0 418235.0 0
313452.0 419910.0 0
315375.0 416321.0 0
319269.0 416843.0 0
317395.0 419713.0 0
320257.0 420792.0 0
322662.0 419464.0 0
324816.0 417735.0 0
328965.0 419764.0 0
326302.0 419917.0 0
332100.0 419447.0 0
335427.0 419710.0 0
338555.0 420285.0 0
343144.0 418654.0 0
341433.0 419911.0 0
344214.0 420952.0 0
348464.0 418340.0 0
345546.0 419236.0 0
347428.0 421747.0 0
353338.0 419096.0 0
350784.0 421212.0 0
358138.0 418653.0 0
358326.0 421366.0 0
362347.0 417508.0 0
361919.0 420470.0 0
365423.0 418018.0 0
367011.0 420398.0 0
369805.0 420705.0 0
371618.0 422108.0 0
123644.0 426692.0 0
126298.0 424315.0 0
132168.0 423684.0 0
134635.0 424062.0 0
129959.0 425685.0 0
138145.0 422080.0 0
135869.0 426630.0 0
139410.0 424991.0 0
143692.0 423339.0 0
147399.0 424061.0 0
152227.0 423062.0 0
150383.0 426820.0 0
154362.0 424826.0 0
156637.0 422862.0 0
159655.0 421928.0 0
157062.0 426124.0 0
163583.0 423858.0 0
160564.0 425727.0 0
166507.0 425495.0 0
170599.0 421955.0 0
170245.0 425733.0 0
174161.0 424327.0 0
177543.0 424229.0 0
180790.0 422345.0 0
184616.0 422537.0 0
182203.0 424962.0 0
187970.0 422037.0 0
189579.0 425100.0 0
192329.0 422032.0 0
195940.0 423182.0 0
200021.0 421786.0 0
204051.0 420710.0 0
202706.0 425538.0 0
206725.0 423378.0 0
210502.0 421807.0 0
210424.0 425429.0 0
213893.0 422231.0 0
217879.0 423993.0 0
221689.0 421463.0 0
224570.0 421189.0 0
222477.0 425434.0 0
228022.0 423887.0 0
233012.0 420634.0 0
232807.0 423834.0 0
236732.0 422133.0 0
239714.0 425902.0 0
241835.0 421917.0 0
246563.0 422106.0 0
253202.0 420599.0 0
251373.0 424939.0 0
256556.0 422654.0 0
260968.0 423235.0 0
266215.0 421482.0 0
271100.0 422373.0 0
274108.0 420081.0 0
276611.0 423557.0 0
284081.0 422440.0 0
286621.0 425107.0 0
289881.0 424138.0 0
293726.0 425742.0 0
297286.0 423796.0 0
302593.0 421235.0 0
301171.0 424216.0 0
305877.0 421669.0 0
305148.0 425198.0 0
309601.0 422448.0 0
313236.0 424250.0 0
317118.0 423549.0 0
321392.0 424225.0 0
324884.0 422645.0 0
328852.0 422845.0 0
326258.0 426352.0 0
332045.0 422390.0 0
330036.0 425738.0 0
333054.0 425462.0 0
335286.0 422670.0 0
336523.0 426165.0 0
338886.0 423449.0 0
342443.0 422421.0 0
342209.0 425275.0 0
346047.0 424322.0 0
349360.0 426265.0 0
351402.0 424162.0 0
354568.0 425097.0 0
355442.0 422055.0 0
359457.0 424210.0 0
363660.0 423581.0 0
365641.0 426400.0 0
368571.0 423979.0 0
373469.0 424122.0 0
370750.0 426425.0 0
376071.0 425873.0 0
379396.0 426701.0 0
112489.0 431637.0 0
117419.0 429568.0 0
114555.0 430849.0 0
120120.0 428186.0 0
120819.0 432336.0 0
127669.0 427681.0 0
124875.0 430455.0 0
128451.0 430621.0 0
131821.0 428443.0 0
133465.0 431693.0 0
136804.0 429733.0 0
138386.0 432137.0 0
139410.0 429075.0 0
142754.0 428108.0 0
140870.0 432027.0 0
146621.0 428091.0 0
147411.0 431233.0 0
153801.0 427655.0 0
150954.0 430820.0 0
156851.0 428992.0 0
159462.0 429877.0 0
163226.0 428385.0 0
162386.0 431755.0 0
166777.0 429537.0 0
170149.0 429595.0 0
173836.0 427827.0 0
177042.0 428293.0 0
180121.0 426759.0 0
181779.0 430196.0 0
185632.0 426816.0 0
185796.0 431401.0 0
189454.0 429251.0 0
192910.0 426649.0 0
197645.0 427454.0 0
201150.0 429994.0 0
203778.0 429641.0 0
207012.0 428298.0 0
213806.0 425843.0 0
211570.0 429610.0 0
215933.0 428324.0 0
219091.0 427936.0 0
224955.0 428239.0 0
221723.0 430925.0 0
227637.0 429420.0 0
231225.0 427905.0 0
235258.0 426557.0 0
237750.0 430371.0 0
244083.0 426312.0 0
241904.0 430019.0 0
247556.0 426959.0 0
245570.0 430551.0 0
249501.0 430451.0 0
252906.0 429776.0 0
255211.0 427072.0 0
258740.0 427512.0 0
261977.0 427979.0 0
264552.0 425685.0 0
268935.0 426971.0 0
265221.0 430645.0 0
272043.0 430311.0 0
273695.0 426594.0 0
275706.0 430661.0 0
277633.0 427649.0 0
281997.0 426507.0 0
286799.0 429183.0 0
289919.0 427378.0 0
291499.0 431052.0 0
295853.0 430146.0 0
298213.0 427433.0 0
302394.0 427976.0 0
300229.0 430170.0 0
309464.0 427051.0 0
305458.0 428777.0 0
312938.0 429849.0 0
318865.0 427309.0 0
314962.0 427264.0 0
317064.0 431239.0 0
322975.0 427333.0 0
321222.0 429469.0 0
325426.0 430931.0 0
329529.0 429120.0 0
333116.0 428788.0 0
337492.0 429773.0 0
340427.0 427288.0 0
344982.0 427375.0 0
340690.0 431362.0 0
342940.0 429569.0 0
345593.0 431612.0 0
348339.0 429438.0 0
352272.0 427777.0 0
354418.0 430097.0 0
357674.0 427593.0 0
359799.0 431578.0 0
361708.0 427158.0 0
363404.0 429743.0 0
367610.0 428630.0 0
368469.0 431610.0 0
372202.0 429157.0 0
372166.0 432525.0 0
376015.0 429272.0 0
380518.0 429132.0 0
382850.0 429954.0 0
385649.0 430238.0 0
387327.0 431899.0 0
105158.0 436520.0 0
108453.0 435952.0 0
110693.0 433727.0 0
113289.0 434253.0 0
113976.0 436882.0 0
116443.0 432891.0 0
116849.0 435954.0 0
120365.0 435754.0 0
123665.0 436367.0 0
125013.0 434042.0 0
129531.0 433153.0 0
127342.0 435219.0 0
131721.0 435397.0 0
135901.0 433953.0 0
139280.0 436022.0 0
144103.0 432516.0 0
142622.0 435474.0 0
146413.0 434804.0 0
149870.0 434431.0 0
154530.0 431329.0 0
153570.0 435334.0 0
158140.0 433987.0 0
162442.0 435663.0 0
165826.0 432983.0 0
169729.0 433833.0 0
173864.0 431852.0 0
172841.0 436424.0 0
177693.0 431345.0 0
176304.0 434925.0 0
179677.0 433898.0 0
183334.0 434956.0 0
188553.0 433716.0 0
193505.0 432311.0 0
198611.0 433263.0 0
203729.0 433898.0 0
207836.0 432474.0 0
211059.0 434377.0 0
214285.0 431837.0 0
215318.0 435362.0 0
217730.0 431630.0 0
219466.0 435696.0 0
225040.0 431411.0 0
223572.0 435628.0 0
226488.0 433350.0 0
229986.0 432780.0 0
233875.0 430841.0 0
232869.0 433861.0 0
236056.0 434852.0 0
240416.0 433558.0 0
243621.0 432977.0 0
243056.0 435856.0 0
246908.0 434939.0 0
251876.0 434959.0 0
256613.0 432459.0 0
261214.0 432220.0 0
268882.0 432835.0 0
273179.0 434965.0 0
277386.0 434310.0 0
280597.0 431650.0 0
283902.0 435140.0 0
284347.0 431312.0 0
287371.0 433696.0 0
295709.0 434753.0 0
299399.0 432991.0 0
303441.0 431830.0 0
302689.0 435325.0 0
307558.0 431954.0 0
306434.0 435663.0 0
311108.0 432052.0 0
310729.0 435655.0 0
313882.0 433565.0 0
317526.0 435595.0 0
321257.0 433074.0 0
324396.0 435294.0 0
330309.0 432178.0 0
327852.0 434508.0 0
334216.0 432530.0 0
331724.0 435506.0 0
338520.0 434975.0 0
343009.0 434550.0 0
347533.0 434802.0 0
351271.0 432436.0 0
354927.0 435222.0 0
356372.0 432600.0 0
358965.0 435482.0 0
364964.0 432586.0 0
362600.0 434763.0 0
366959.0 435640.0 0
375877.0 432743.0 0
370914.0 435889.0 0
375052.0 436245.0 0
379297.0 433159.0 0
378390.0 436362.0 0
384267.0 433150.0 0
381822.0 434469.0 0
389675.0 433777.0 0
386893.0 435557.0 0
391994.0 436152.0 0
395127.0 437433.0 0
97403.1 441801.0 0
103160.0 438878.0 0
99833.3 440003.0 0
108010.0 439006.0 0
105731.0 440784.0 0
108659.0 442542.0 0
111468.0 437680.0 0
111469.0 440302.0 0
114446.0 439790.0 0
117206.0 439231.0 0
120380.0 439510.0 0
128647.0 438137.0 0
124599.0 439811.0 0
128157.0 441792.0 0
131811.0 439985.0 0
134702.0 437559.0 0
137031.0 440563.0 0
140942.0 439599.0 0
144957.0 438660.0 0
149166.0 438122.0 0
148556.0 441591.0 0
152654.0 439080.0 0
156187.0 438170.0 0
159200.0 438002.0 0
155501.0 442035.0 0
159146.0 441362.0 0
162540.0 439364.0 0
166058.0 437205.0 0
165658.0 441340.0 0
169408.0 437909.0 0
168566.0 440623.0 0
172020.0 439952.0 0
175523.0 438797.0 0
179426.0 438155.0 0
183307.0 439899.0 0
186482.0 436959.0 0
187893.0 440118.0 0
190274.0 436866.0 0
192977.0 436686.0 0
192292.0 440322.0 0
200019.0 436754.0 0
196340.0 437366.0 0
199404.0 439495.0 0
202695.0 438386.0 0
205025.0 440834.0 0
207379.0 437052.0 0
209333.0 441458.0 0
212257.0 438471.0 0
216621.0 439575.0 0
221038.0 440095.0 0
225085.0 439851.0 0
227573.0 436443.0 0
228731.0 439674.0 0
231667.0 437183.0 0
234791.0 439386.0 0
239107.0 438396.0 0
244407.0 440546.0 0
249323.0 439327.0 0
252975.0 439909.0 0
256063.0 437908.0 0
258792.0 440956.0 0
260087.0 436772.0 0
264742.0 436228.0 0
269255.0 437498.0 0
272727.0 440316.0 0
276622.0 438255.0 0
279738.0 439655.0 0
280612.0 436424.0 0
283276.0 439108.0 0
286791.0 438252.0 0
291470.0 436726.0 0
294153.0 440645.0 0
296001.0 438348.0 0
299607.0 437899.0 0
301526.0 441611.0 0
304139.0 439496.0 0
308873.0 439279.0 0
314607.0 436671.0 0
312981.0 439572.0 0
317445.0 439679.0 0
320821.0 437372.0 0
325431.0 439116.0 0
329135.0 437905.0 0
329157.0 441611.0 0
332224.0 439119.0 0
335023.0 437026.0 0
335672.0 440002.0 0
339215.0 439505.0 0
343303.0 438269.0 0
346797.0 437760.0 0
345926.0 441054.0 0
349022.0 440094.0 0
351188.0 437417.0 0
353558.0 440610.0 0
356059.0 438407.0 0
359576.0 439280.0 0
363350.0 438005.0 0
366679.0 439220.0 0
370711.0 439730.0 0
375222.0 440146.0 0
378535.0 439572.0 0
379711.0 441981.0 0
381773.0 438215.0 0
384834.0 437640.0 0
383357.0 442383.0 0
390726.0 439421.0 0
388255.0 438271.0 0
386349.0 440070.0 0
388472.0 441559.0 0
395038.0 441635.0 0
398191.0 439280.0 0
400882.0 440791.0 0
91750.6 444678.0 0
89735.5 446984.0 0
94901.9 443238.0 0
94496.2 446256.0 0
98235.4 446661.0 0
102172.0 442765.0 0
99058.6 443935.0 0
103773.0 445495.0 0
107032.0 445278.0 0
112238.0 443738.0 0
115806.0 442402.0 0
116470.0 445761.0 0
119367.0 442803.0 0
122915.0 443395.0 0
119755.0 445908.0 0
123020.0 447131.0 0
126440.0 444501.0 0
126764.0 447263.0 0
130384.0 442661.0 0
133817.0 442996.0 0
129497.0 445671.0 0
132807.0 446561.0 0
137260.0 444407.0 0
136338.0 447464.0 0
140911.0 443732.0 0
144842.0 442860.0 0
148059.0 445231.0 0
151373.0 442483.0 0
152645.0 446134.0 0
157083.0 445568.0 0
162692.0 442195.0 0
161015.0 444993.0 0
165330.0 445261.0 0
170194.0 443541.0 0
175148.0 442727.0 0
179183.0 441797.0 0
178248.0 445833.0 0
181515.0 443369.0 0
185118.0 443467.0 0
188912.0 443854.0 0
192438.0 444401.0 0
196296.0 441602.0 0
196054.0 446066.0 0
201012.0 443399.0 0
205944.0 444933.0 0
210331.0 445828.0 0
213826.0 442822.0 0
218170.0 443913.0 0
223423.0 445163.0 0
227454.0 442791.0 0
228819.0 445991.0 0
231711.0 442314.0 0
236399.0 443136.0 0
239886.0 442035.0 0
241055.0 445341.0 0
248294.0 443509.0 0
251624.0 443479.0 0
255574.0 442911.0 0
262818.0 441089.0 0
264886.0 445067.0 0
267415.0 441616.0 0
270678.0 444122.0 0
274319.0 444041.0 0
276993.0 441994.0 0
281166.0 443028.0 0
285900.0 443330.0 0
290163.0 441692.0 0
294311.0 445162.0 0
298052.0 442103.0 0
300977.0 444730.0 0
304143.0 443969.0 0
307254.0 442510.0 0
307833.0 446661.0 0
311483.0 444067.0 0
314998.0 446002.0 0
315406.0 442628.0 0
318730.0 444843.0 0
321716.0 441756.0 0
323397.0 445576.0 0
326161.0 443550.0 0
330029.0 445331.0 0
333017.0 442571.0 0
334817.0 446244.0 0
336956.0 442967.0 0
339291.0 444195.0 0
342260.0 442529.0 0
343004.0 446783.0 0
346750.0 444458.0 0
350648.0 443440.0 0
354604.0 444944.0 0
357240.0 442535.0 0
359910.0 445098.0 0
362464.0 442367.0 0
364632.0 445728.0 0
366009.0 442546.0 0
369963.0 444150.0 0
367347.0 447235.0 0
374002.0 443728.0 0
377769.0 444262.0 0
381201.0 445970.0 0
384409.0 446718.0 0
387041.0 444674.0 0
390552.0 444770.0 0
391615.0 442654.0 0
394602.0 445260.0 0
392354.0 447335.0 0
398379.0 443478.0 0
397984.0 447194.0 0
401135.0 445799.0 0
403309.0 443343.0 0
406660.0 445613.0 0
410562.0 446780.0 0
81551.5 452581.0 0
84403.9 450349.0 0
86713.3 448304.0 0
86922.3 452690.0 0
90141.1 450598.0 0
93858.6 449657.0 0
97631.6 449507.0 0
101207.0 447922.0 0
103244.0 450169.0 0
99877.0 452196.0 0
105243.0 448776.0 0
108711.0 447622.0 0
107529.0 450903.0 0
112570.0 447431.0 0
111219.0 451524.0 0
118043.0 448477.0 0
115514.0 449776.0 0
117140.0 452372.0 0
120813.0 450913.0 0
126020.0 449428.0 0
128762.0 448456.0 0
124520.0 451292.0 0
128327.0 451638.0 0
131870.0 450335.0 0
135476.0 450404.0 0
138352.0 452415.0 0
140003.0 448361.0 0
144147.0 447407.0 0
142477.0 451515.0 0
144951.0 450489.0 0
148468.0 449652.0 0
153077.0 450139.0 0
156774.0 449426.0 0
161051.0 448914.0 0
168774.0 446893.0 0
165249.0 449874.0 0
168857.0 449638.0 0
173115.0 447519.0 0
176491.0 449622.0 0
179933.0 449548.0 0
182673.0 446897.0 0
189692.0 446921.0 0
186388.0 447241.0 0
188290.0 450615.0 0
192318.0 448675.0 0
195309.0 450905.0 0
199371.0 448789.0 0
203303.0 447700.0 0
204912.0 450083.0 0
207068.0 448508.0 0
210922.0 450548.0 0
214793.0 447019.0 0
219052.0 448453.0 0
215872.0 451185.0 0
222806.0 451002.0 0
226534.0 449202.0 0
230542.0 450081.0 0
233163.0 446594.0 0
234570.0 450843.0 0
237444.0 447902.0 0
241901.0 450343.0 0
245253.0 446451.0 0
249490.0 447232.0 0
246670.0 450646.0 0
253921.0 447868.0 0
250213.0 450837.0 0
260161.0 446893.0 0
264981.0 450628.0 0
267716.0 446754.0 0
269052.0 450484.0 0
272431.0 447999.0 0
275955.0 451334.0 0
277851.0 446921.0 0
282971.0 447898.0 0
286773.0 448177.0 0
289669.0 450653.0 0
290171.0 446503.0 0
293857.0 450255.0 0
298189.0 451547.0 0
298264.0 447308.0 0
303178.0 448728.0 0
308207.0 450705.0 0
312948.0 449453.0 0
316959.0 448753.0 0
321500.0 449241.0 0
325410.0 450916.0 0
326810.0 447554.0 0
328713.0 450838.0 0
331629.0 449268.0 0
338861.0 447743.0 0
335718.0 449818.0 0
342216.0 450450.0 0
346512.0 447645.0 0
349271.0 447844.0 0
345925.0 450449.0 0
350500.0 451142.0 0
352322.0 447368.0 0
354081.0 450061.0 0
356957.0 447752.0 0
359654.0 450599.0 0
362364.0 448097.0 0
365300.0 449155.0 0
363453.0 451891.0 0
366663.0 451564.0 0
369519.0 450347.0 0
372083.0 447910.0 0
372199.0 452044.0 0
373651.0 450632.0 0
375782.0 447486.0 0
379354.0 448981.0 0
376595.0 451786.0 0
383927.0 449230.0 0
381708.0 451278.0 0
386310.0 448284.0 0
388970.0 448637.0 0
386797.0 451365.0 0
390528.0 452069.0 0
395792.0 449300.0 0
392125.0 450245.0 0
393906.0 451124.0 0
400642.0 449624.0 0
396852.0 452093.0 0
398924.0 451502.0 0
403648.0 448221.0 0
402881.0 452449.0 0
405663.0 451012.0 0
408024.0 449187.0 0
410429.0 451436.0 0
413150.0 449278.0 0
416228.0 451474.0 0
71662.7 457612.0 0
75144.5 456387.0 0
78498.5 454704.0 0
80561.0 457910.0 0
83750.4 454698.0 0
84286.6 457697.0 0
87998.5 455810.0 0
91707.4 454417.0 0
92928.7 457598.0 0
95554.1 452938.0 0
96439.1 456492.0 0
100248.0 455999.0 0
103533.0 455733.0 0
104125.0 452849.0 0
107192.0 454866.0 0
110716.0 454932.0 0
114310.0 452530.0 0
114351.0 455262.0 0
118128.0 455925.0 0
122396.0 454528.0 0
125526.0 453484.0 0
124700.0 456666.0 0
128129.0 455818.0 0
130818.0 453840.0 0
134184.0 454174.0 0
137050.0 456222.0 0
141384.0 455860.0 0
145193.0 452964.0 0
148019.0 453683.0 0
151147.0 452787.0 0
154467.0 453294.0 0
151191.0 456891.0 0
155905.0 456566.0 0
158273.0 453248.0 0
162212.0 452861.0 0
160714.0 457113.0 0
167603.0 452560.0 0
165240.0 455072.0 0
168748.0 454756.0 0
171032.0 451943.0 0
171451.0 456149.0 0
174842.0 453179.0 0
179083.0 453212.0 0
183884.0 451892.0 0
180881.0 456248.0 0
184113.0 456431.0 0
187653.0 455045.0 0
191590.0 453326.0 0
195045.0 455121.0 0
197901.0 452684.0 0
198946.0 456203.0 0
202096.0 452436.0 0
206597.0 452699.0 0
209416.0 455995.0 0
213247.0 453991.0 0
216405.0 454967.0 0
219091.0 452589.0 0
219523.0 456021.0 0
223167.0 455595.0 0
227515.0 454097.0 0
232416.0 454380.0 0
238235.0 451818.0 0
236194.0 454078.0 0
240141.0 455551.0 0
244130.0 454083.0 0
248469.0 455261.0 0
253136.0 453045.0 0
256932.0 451503.0 0
256529.0 455359.0 0
260796.0 453643.0 0
264649.0 455194.0 0
268080.0 454447.0 0
272253.0 453189.0 0
276609.0 455787.0 0
280788.0 452702.0 0
283635.0 456485.0 0
285980.0 452553.0 0
290984.0 454849.0 0
295266.0 454800.0 0
299038.0 456081.0 0
301793.0 452749.0 0
302958.0 455823.0 0
305650.0 453482.0 0
309552.0 455079.0 0
311202.0 452654.0 0
313643.0 454684.0 0
317899.0 453085.0 0
322998.0 453776.0 0
327362.0 454142.0 0
334511.0 452686.0 0
330876.0 453527.0 0
333218.0 456060.0 0
339113.0 452331.0 0
336886.0 456115.0 0
341198.0 456618.0 0
343399.0 453503.0 0
345454.0 456638.0 0
347595.0 453920.0 0
351067.0 454830.0 0
353407.0 453431.0 0
355114.0 455100.0 0
356855.0 452811.0 0
356289.0 456516.0 0
358552.0 455777.0 0
361297.0 454179.0 0
362893.0 457550.0 0
366288.0 455257.0 0
370167.0 454661.0 0
374159.0 454329.0 0
376438.0 456928.0 0
379702.0 454599.0 0
384411.0 453038.0 0
384397.0 456581.0 0
388550.0 455087.0 0
393607.0 453569.0 0
392070.0 455746.0 0
400433.0 454475.0 0
397051.0 455823.0 0
405169.0 455466.0 0
402525.0 457371.0 0
407806.0 453586.0 0
407184.0 457927.0 0
409561.0 455936.0 0
412253.0 454127.0 0
415099.0 454530.0 0
414963.0 457144.0 0
419762.0 453492.0 0
417664.0 456140.0 0
423631.0 455123.0 0
421421.0 457301.0 0
426346.0 457287.0 0
65151.4 460931.0 0
68644.4 460612.0 0
72204.5 460538.0 0
72912.7 463251.0 0
75548.7 459537.0 0
83264.3 460472.0 0
79037.9 461155.0 0
86367.1 460174.0 0
89487.9 458574.0 0
90106.8 461516.0 0
97019.3 459478.0 0
93745.4 461063.0 0
100795.0 459230.0 0
98919.1 462142.0 0
103355.0 461917.0 0
104870.0 458502.0 0
108107.0 457823.0 0
107917.0 460843.0 0
111620.0 458384.0 0
111689.0 462137.0 0
115059.0 458930.0 0
118481.0 460412.0 0
121742.0 458126.0 0
122097.0 461646.0 0
125727.0 460154.0 0
131741.0 457025.0 0
129590.0 459407.0 0
131655.0 462192.0 0
134418.0 458764.0 0
138502.0 459507.0 0
141743.0 460387.0 0
145771.0 457317.0 0
144534.0 461399.0 0
148314.0 461067.0 0
151548.0 461055.0 0
154217.0 459772.0 0
157389.0 459991.0 0
161102.0 461510.0 0
164378.0 459253.0 0
168050.0 457838.0 0
167340.0 461826.0 0
171473.0 460250.0 0
176333.0 458240.0 0
181519.0 460663.0 0
186341.0 459303.0 0
191011.0 458362.0 0
195430.0 459441.0 0
199535.0 460008.0 0
203851.0 457397.0 0
207754.0 459804.0 0
211558.0 460352.0 0
213522.0 456995.0 0
216699.0 459831.0 0
221908.0 459717.0 0
226103.0 458851.0 0
230439.0 458506.0 0
235525.0 458451.0 0
244220.0 458295.0 0
240233.0 460133.0 0
248583.0 461218.0 0
252682.0 457876.0 0
256338.0 459252.0 0
259120.0 457857.0 0
262555.0 458864.0 0
266788.0 458771.0 0
272177.0 458258.0 0
276762.0 459771.0 0
280393.0 458139.0 0
284716.0 461218.0 0
287151.0 457082.0 0
290259.0 460645.0 0
293623.0 458035.0 0
296149.0 458051.0 0
298844.0 460510.0 0
302432.0 459254.0 0
306712.0 458513.0 0
312036.0 460084.0 0
316501.0 457400.0 0
316202.0 461610.0 0
318757.0 460094.0 0
321396.0 457409.0 0
321456.0 461780.0 0
324877.0 461807.0 0
330373.0 457413.0 0
326202.0 457823.0 0
329956.0 461981.0 0
334323.0 459699.0 0
338441.0 459323.0 0
341864.0 461304.0 0
343964.0 458924.0 0
349313.0 457785.0 0
346908.0 460762.0 0
353461.0 457233.0 0
352346.0 461386.0 0
360035.0 457882.0 0
357453.0 460220.0 0
361795.0 461200.0 0
369644.0 458244.0 0
366763.0 460305.0 0
372754.0 457914.0 0
371966.0 461896.0 0
376382.0 461115.0 0
380510.0 459282.0 0
383477.0 461832.0 0
389677.0 458788.0 0
386578.0 460273.0 0
394114.0 458576.0 0
391789.0 462405.0 0
399580.0 459327.0 0
396893.0 461451.0 0
404691.0 460093.0 0
402082.0 462617.0 0
409335.0 460233.0 0
407030.0 462242.0 0
411864.0 458077.0 0
414157.0 461219.0 0
417123.0 459950.0 0
418796.0 458371.0 0
419145.0 462703.0 0
424596.0 459334.0 0
421889.0 460791.0 0
426806.0 461306.0 0
429215.0 458356.0 0
429634.0 460900.0 0
431905.0 459278.0 0
433701.0 460954.0 0
436017.0 462795.0 0
56474.2 467787.0 0
59794.0 465790.0 0
63343.3 464029.0 0
64021.5 467543.0 0
67238.0 464336.0 0
70543.2 464211.0 0
68594.0 467752.0 0
72234.8 466992.0 0
75608.5 463070.0 0
75804.1 466365.0 0
78487.5 464842.0 0
82330.0 463216.0 0
81051.0 466721.0 0
86231.0 463841.0 0
84988.5 468045.0 0
92944.8 464276.0 0
90268.9 464971.0 0
88578.7 467558.0 0
96243.3 463327.0 0
94447.5 466487.0 0
97315.6 465732.0 0
100870.0 465591.0 0
106235.0 464179.0 0
104244.0 467318.0 0
109812.0 465093.0 0
113445.0 466132.0 0
115374.0 462689.0 0
116656.0 466167.0 0
119508.0 464540.0 0
127881.0 463055.0 0
124246.0 465102.0 0
128704.0 466166.0 0
132611.0 466203.0 0
135762.0 462704.0 0
136433.0 466281.0 0
139405.0 463235.0 0
140126.0 466865.0 0
142324.0 463822.0 0
143519.0 466856.0 0
146075.0 464551.0 0
150035.0 464453.0 0
154144.0 463399.0 0
156017.0 466622.0 0
157971.0 463495.0 0
164000.0 463244.0 0
160877.0 466996.0 0
166300.0 466522.0 0
170945.0 465332.0 0
174610.0 462708.0 0
175775.0 466196.0 0
177841.0 462897.0 0
180333.0 466448.0 0
184830.0 463920.0 0
188468.0 466862.0 0
188879.0 462542.0 0
192694.0 464003.0 0
196920.0 462968.0 0
201255.0 464094.0 0
204888.0 461728.0 0
208030.0 464353.0 0
213561.0 465234.0 0
219727.0 464355.0 0
224828.0 463203.0 0
228522.0 461875.0 0
228802.0 466289.0 0
232774.0 463397.0 0
237210.0 462512.0 0
239818.0 463952.0 0
243534.0 463066.0 0
251239.0 465635.0 0
254006.0 462510.0 0
259024.0 462822.0 0
264701.0 464316.0 0
269496.0 462320.0 0
269564.0 465932.0 0
274508.0 464311.0 0
279796.0 462759.0 0
288291.0 466110.0 0
292428.0 464865.0 0
295165.0 461988.0 0
295709.0 466611.0 0
299542.0 465166.0 0
304902.0 462050.0 0
302165.0 462632.0 0
304327.0 465677.0 0
307888.0 463415.0 0
311542.0 465889.0 0
315432.0 464994.0 0
319074.0 463715.0 0
322462.0 465047.0 0
326980.0 466131.0 0
334125.0 463780.0 0
337708.0 462608.0 0
337079.0 466668.0 0
341221.0 465716.0 0
345068.0 464257.0 0
347170.0 466348.0 0
349088.0 464360.0 0
353327.0 466607.0 0
356881.0 464329.0 0
360697.0 464981.0 0
364892.0 464266.0 0
364246.0 467483.0 0
368991.0 463921.0 0
372138.0 465561.0 0
380150.0 463986.0 0
376071.0 466120.0 0
384555.0 465348.0 0
388155.0 463974.0 0
389266.0 467240.0 0
390859.0 466044.0 0
394884.0 465604.0 0
399556.0 465500.0 0
403469.0 467807.0 0
405019.0 464967.0 0
411266.0 462814.0 0
409037.0 465994.0 0
415971.0 464394.0 0
413294.0 466420.0 0
417694.0 467219.0 0
421046.0 466211.0 0
424215.0 463470.0 0
424937.0 466574.0 0
427798.0 464170.0 0
431226.0 463261.0 0
427976.0 467482.0 0
430816.0 466264.0 0
434312.0 464952.0 0
433472.0 467478.0 0
438752.0 464569.0 0
441690.0 466068.0 0
437389.0 467057.0 0
444140.0 468038.0 0
46359.0 473394.0 0
50189.9 472053.0 0
53168.5 469144.0 0
53942.4 471776.0 0
57758.5 471025.0 0
60950.6 468626.0 0
62024.8 471462.0 0
65734.6 470451.0 0
71259.3 470911.0 0
73981.0 469800.0 0
77902.6 469933.0 0
82310.3 470285.0 0
80598.0 473610.0 0
84964.3 472678.0 0
91663.6 468123.0 0
88435.3 471154.0 0
93152.4 471495.0 0
97006.6 469527.0 0
101278.0 469884.0 0
107384.0 468210.0 0
104575.0 470094.0 0
107757.0 472303.0 0
110656.0 468545.0 0
113591.0 469058.0 0
112167.0 471502.0 0
116173.0 469041.0 0
115817.0 472670.0 0
120617.0 469144.0 0
123822.0 471859.0 0
125660.0 469022.0 0
126698.0 471926.0 0
133823.0 469090.0 0
130137.0 469967.0 0
133535.0 472453.0 0
136987.0 470057.0 0
141138.0 470782.0 0
144333.0 469232.0 0
147762.0 468156.0 0
152218.0 467582.0 0
150423.0 471521.0 0
155617.0 471064.0 0
160412.0 471954.0 0
165106.0 470757.0 0
169553.0 470161.0 0
173431.0 469429.0 0
177150.0 470259.0 0
181415.0 471860.0 0
184410.0 468388.0 0
186713.0 471610.0 0
192035.0 470040.0 0
196365.0 466982.0 0
196581.0 471057.0 0
204534.0 467646.0 0
200182.0 469343.0 0
203853.0 472073.0 0
208900.0 469685.0 0
213376.0 470190.0 0
217368.0 468646.0 0
220216.0 471503.0 0
223836.0 468273.0 0
228614.0 471239.0 0
232897.0 469026.0 0
236621.0 466656.0 0
237042.0 471303.0 0
241206.0 467934.0 0
243967.0 471547.0 0
246652.0 467153.0 0
247907.0 471511.0 0
251573.0 469851.0 0
255654.0 467196.0 0
258019.0 470108.0 0
260331.0 467724.0 0
263863.0 469654.0 0
267762.0 469271.0 0
271935.0 468475.0 0
276088.0 470160.0 0
278825.0 467191.0 0
283077.0 466732.0 0
280896.0 471404.0 0
285779.0 471240.0 0
292563.0 468450.0 0
290145.0 471327.0 0
295261.0 470221.0 0
298766.0 469428.0 0
301952.0 468541.0 0
308049.0 467148.0 0
305497.0 469997.0 0
310633.0 471518.0 0
315194.0 469445.0 0
319035.0 467242.0 0
319002.0 471276.0 0
323412.0 469676.0 0
328423.0 470943.0 0
331913.0 467793.0 0
336297.0 471158.0 0
340795.0 470018.0 0
345090.0 468927.0 0
349411.0 468605.0 0
353123.0 471358.0 0
357696.0 468939.0 0
361516.0 468725.0 0
361508.0 472391.0 0
364823.0 470933.0 0
368876.0 468031.0 0
368531.0 472528.0 0
372208.0 472692.0 0
373326.0 469331.0 0
374902.0 472415.0 0
377840.0 471116.0 0
381421.0 468346.0 0
381985.0 472656.0 0
384613.0 471048.0 0
386542.0 468415.0 0
389257.0 471624.0 0
391932.0 468738.0 0
393931.0 472300.0 0
396013.0 469692.0 0
399725.0 469992.0 0
406777.0 468641.0 0
403053.0 471353.0 0
405410.0 470724.0 0
410574.0 469737.0 0
408620.0 471632.0 0
414042.0 469414.0 0
412782.0 472128.0 0
417214.0 470625.0 0
421059.0 470021.0 0
423915.0 468968.0 0
426297.0 471145.0 0
431420.0 469390.0 0
429619.0 471243.0 0
436113.0 469816.0 0
433898.0 472003.0 0
440151.0 468447.0 0
439331.0 472165.0 0
442500.0 470564.0 0
446928.0 469755.0 0
445037.0 472168.0 0
449496.0 472075.0 0
452848.0 472964.0 0
40091.2 478141.0 0
43129.7 475571.0 0
46279.2 476912.0 0
49965.1 475416.0 0
51667.8 478452.0 0
53266.5 474927.0 0
55128.8 474037.0 0
54961.1 477002.0 0
58014.8 474754.0 0
61735.9 474031.0 0
59401.3 477989.0 0
63662.1 477438.0 0
67824.3 474534.0 0
72429.2 474859.0 0
74584.3 472966.0 0
73750.0 477564.0 0
77256.9 476003.0 0
83152.6 476727.0 0
87112.5 475669.0 0
90346.9 474603.0 0
92724.7 477332.0 0
95191.2 474300.0 0
97374.8 477502.0 0
99104.4 473364.0 0
103399.0 473450.0 0
101613.0 477209.0 0
106107.0 476995.0 0
111163.0 476510.0 0
116003.0 476622.0 0
120179.0 474236.0 0
125084.0 474915.0 0
129354.0 474187.0 0
130193.0 477361.0 0
133209.0 475944.0 0
137589.0 474290.0 0
141702.0 474679.0 0
145788.0 472846.0 0
148933.0 475402.0 0
152353.0 474853.0 0
157494.0 476720.0 0
163339.0 475513.0 0
168739.0 475125.0 0
173129.0 472877.0 0
173458.0 477008.0 0
176915.0 474284.0 0
180258.0 475962.0 0
184247.0 475729.0 0
189546.0 475646.0 0
194727.0 474519.0 0
199364.0 473887.0 0
207067.0 474205.0 0
211439.0 474533.0 0
215059.0 476583.0 0
215945.0 472841.0 0
219076.0 475526.0 0
224104.0 474070.0 0
228270.0 476125.0 0
233083.0 474299.0 0
237414.0 475401.0 0
240428.0 471844.0 0
241483.0 475348.0 0
246343.0 475896.0 0
250948.0 474540.0 0
255330.0 472619.0 0
257506.0 475710.0 0
260674.0 473059.0 0
265863.0 473967.0 0
271394.0 473129.0 0
276259.0 474400.0 0
279872.0 475524.0 0
284737.0 476268.0 0
290557.0 476286.0 0
293615.0 472662.0 0
295123.0 475656.0 0
297380.0 472997.0 0
301960.0 472967.0 0
306353.0 474268.0 0
309642.0 476999.0 0
312808.0 475613.0 0
316448.0 474614.0 0
321382.0 474480.0 0
325400.0 473636.0 0
328929.0 475162.0 0
332259.0 473244.0 0
336080.0 475678.0 0
340313.0 474012.0 0
343537.0 476366.0 0
344376.0 473058.0 0
348892.0 472725.0 0
347473.0 476556.0 0
352743.0 476434.0 0
357262.0 473667.0 0
361434.0 475642.0 0
365406.0 475332.0 0
370326.0 476457.0 0
375769.0 476250.0 0
379625.0 474770.0 0
383209.0 476155.0 0
385976.0 474241.0 0
388890.0 476084.0 0
391870.0 474923.0 0
395120.0 476099.0 0
397496.0 473537.0 0
401436.0 473970.0 0
399135.0 476770.0 0
405850.0 474274.0 0
403586.0 477672.0 0
410674.0 474780.0 0
415339.0 474589.0 0
419247.0 474005.0 0
419604.0 477143.0 0
422733.0 473037.0 0
424110.0 476991.0 0
431351.0 474254.0 0
427359.0 474765.0 0
429807.0 477433.0 0
436445.0 474606.0 0
434195.0 476714.0 0
438259.0 476980.0 0
441468.0 475379.0 0
443558.0 473507.0 0
446326.0 474580.0 0
444870.0 477587.0 0
449569.0 475619.0 0
453024.0 476391.0 0
455661.0 474955.0 0
458331.0 476426.0 0
460859.0 478033.0 0
36720.9 479878.0 0
33573.1 481805.0 0
38565.9 482544.0 0
41727.3 483120.0 0
43100.1 479888.0 0
45677.3 481756.0 0
48440.0 480054.0 0
49664.9 483622.0 0
56077.9 479300.0 0
53371.7 481269.0 0
56145.4 482658.0 0
59053.5 481566.0 0
62686.7 481683.0 0
66401.6 480754.0 0
69910.8 479280.0 0
68855.2 483024.0 0
73002.8 481926.0 0
76524.9 480522.0 0
79886.9 478831.0 0
79278.4 482423.0 0
82019.8 480569.0 0
85432.7 479744.0 0
87551.1 482826.0 0
88781.0 478416.0 0
91119.6 481223.0 0
94993.6 480532.0 0
99310.6 481980.0 0
103675.0 480275.0 0
106938.0 480772.0 0
110311.0 480987.0 0
117996.0 478597.0 0
114548.0 479965.0 0
121925.0 478583.0 0
123153.0 482505.0 0
126779.0 478825.0 0
127310.0 482729.0 0
131927.0 480832.0 0
135878.0 477881.0 0
137182.0 481818.0 0
140266.0 478194.0 0
145019.0 477697.0 0
146754.0 481578.0 0
153184.0 477762.0 0
149944.0 478945.0 0
154313.0 480978.0 0
161397.0 479336.0 0
165363.0 480523.0 0
169924.0 479628.0 0
173724.0 481949.0 0
177215.0 478411.0 0
178238.0 481944.0 0
181191.0 479587.0 0
185919.0 480679.0 0
190538.0 479956.0 0
193198.0 478213.0 0
193463.0 481656.0 0
197713.0 478862.0 0
203327.0 477404.0 0
206666.0 482033.0 0
208035.0 477814.0 0
211919.0 480554.0 0
217375.0 480100.0 0
222286.0 478482.0 0
226452.0 480935.0 0
231026.0 478633.0 0
235348.0 479409.0 0
239502.0 478757.0 0
243771.0 480535.0 0
248651.0 479683.0 0
254021.0 478865.0 0
260165.0 478178.0 0
264820.0 478456.0 0
269288.0 477787.0 0
273681.0 477281.0 0
272451.0 480925.0 0
277075.0 477423.0 0
275844.0 479942.0 0
280242.0 480622.0 0
284910.0 481155.0 0
288085.0 479829.0 0
291414.0 481242.0 0
294881.0 479356.0 0
299525.0 477552.0 0
301840.0 481615.0 0
304946.0 478577.0 0
309489.0 481303.0 0
314233.0 479378.0 0
320042.0 479443.0 0
324816.0 477277.0 0
325497.0 482181.0 0
328672.0 479006.0 0
330672.0 482065.0 0
332624.0 478002.0 0
336500.0 479449.0 0
340038.0 478125.0 0
344480.0 480648.0 0
349938.0 480714.0 0
354966.0 481799.0 0
358297.0 478391.0 0
361042.0 481115.0 0
363352.0 478892.0 0
367858.0 480359.0 0
372947.0 479882.0 0
380341.0 478253.0 0
377966.0 481935.0 0
383658.0 479442.0 0
382179.0 481407.0 0
385263.0 482060.0 0
386863.0 478467.0 0
391603.0 478587.0 0
389007.0 481911.0 0
396350.0 479771.0 0
393485.0 482763.0 0
400629.0 480432.0 0
404075.0 480803.0 0
406531.0 481317.0 0
408371.0 478249.0 0
411548.0 482564.0 0
413199.0 478186.0 0
416684.0 478047.0 0
416087.0 481151.0 0
418563.0 480233.0 0
421812.0 480679.0 0
425349.0 481380.0 0
427781.0 479446.0 0
427930.0 483288.0 0
430474.0 481394.0 0
432309.0 479065.0 0
433872.0 481630.0 0
436339.0 479390.0 0
440843.0 479750.0 0
438032.0 482270.0 0
445050.0 482191.0 0
448865.0 479201.0 0
449350.0 483033.0 0
452954.0 479856.0 0
456410.0 478815.0 0
452628.0 483296.0 0
455952.0 482654.0 0
459247.0 480888.0 0
462178.0 483249.0 0
463563.0 479971.0 0
466499.0 482527.0 0
26960.0 485552.0 0
24354.9 487857.0 0
30431.0 484037.0 0
29591.0 488007.0 0
32975.6 485600.0 0
35490.6 484286.0 0
33012.5 488218.0 0
36243.1 487183.0 0
38928.7 485764.0 0
41962.6 486999.0 0
38823.7 488625.0 0
45293.4 484850.0 0
45567.9 488619.0 0
49008.7 487485.0 0
53230.8 484975.0 0
56177.4 485013.0 0
53609.1 488445.0 0
59072.0 484589.0 0
58050.6 487447.0 0
62161.4 485173.0 0
65779.8 483738.0 0
65089.0 487175.0 0
68369.7 486554.0 0
71484.8 484911.0 0
75718.9 484550.0 0
73100.6 488038.0 0
76621.1 487575.0 0
79016.2 485550.0 0
81811.5 487568.0 0
82991.5 483574.0 0
85999.9 486267.0 0
90436.5 485277.0 0
93172.2 487056.0 0
94035.8 483753.0 0
96877.9 485786.0 0
98898.5 487980.0 0
100892.0 486142.0 0
103947.0 483729.0 0
103423.0 487329.0 0
107920.0 484597.0 0
105353.0 486355.0 0
112898.0 484069.0 0
110210.0 487987.0 0
118075.0 482929.0 0
120607.0 486651.0 0
124636.0 485954.0 0
129938.0 485260.0 0
134062.0 485696.0 0
138805.0 486372.0 0
142409.0 482565.0 0
143241.0 487488.0 0
146252.0 485161.0 0
150430.0 483780.0 0
154801.0 484352.0 0
159413.0 482945.0 0
164117.0 485504.0 0
168908.0 484066.0 0
172184.0 486823.0 0
176625.0 485668.0 0
181396.0 484518.0 0
186032.0 486060.0 0
189944.0 483493.0 0
193064.0 485150.0 0
196957.0 484098.0 0
201868.0 482635.0 0
200480.0 487206.0 0
205018.0 486376.0 0
210267.0 486445.0 0
215599.0 484705.0 0
221019.0 483001.0 0
223957.0 485566.0 0
228215.0 486010.0 0
231487.0 482576.0 0
232182.0 486447.0 0
235469.0 484368.0 0
239196.0 482420.0 0
241737.0 483902.0 0
245038.0 485680.0 0
250192.0 483873.0 0
258120.0 482131.0 0
254887.0 484075.0 0
262557.0 482853.0 0
267983.0 482692.0 0
272380.0 485024.0 0
275817.0 483235.0 0
279124.0 485982.0 0
275200.0 486964.0 0
283455.0 485121.0 0
288093.0 484485.0 0
292585.0 485948.0 0
294796.0 482891.0 0
298353.0 482421.0 0
296679.0 486363.0 0
300810.0 486269.0 0
305218.0 484293.0 0
309497.0 485442.0 0
313465.0 484273.0 0
317434.0 483221.0 0
317350.0 487029.0 0
321524.0 485693.0 0
326164.0 486951.0 0
329143.0 485016.0 0
334547.0 482383.0 0
332393.0 485667.0 0
339516.0 482871.0 0
336394.0 486427.0 0
340870.0 487289.0 0
343875.0 485095.0 0
347610.0 484237.0 0
351924.0 485780.0 0
359349.0 483104.0 0
356905.0 486941.0 0
360997.0 485897.0 0
363644.0 483030.0 0
364231.0 486521.0 0
367685.0 484834.0 0
372250.0 483972.0 0
375956.0 485755.0 0
379817.0 487818.0 0
382973.0 484641.0 0
387099.0 485759.0 0
390541.0 485615.0 0
394012.0 486569.0 0
398894.0 484932.0 0
403410.0 483478.0 0
403844.0 486594.0 0
407249.0 484965.0 0
411168.0 487471.0 0
416150.0 485572.0 0
419510.0 483478.0 0
420627.0 487771.0 0
423868.0 484961.0 0
431581.0 484345.0 0
428544.0 486904.0 0
431815.0 488220.0 0
435567.0 483707.0 0
434016.0 486230.0 0
441576.0 483934.0 0
438267.0 486716.0 0
443327.0 488059.0 0
446757.0 485785.0 0
451071.0 487623.0 0
455049.0 486287.0 0
458710.0 485458.0 0
465825.0 485982.0 0
462995.0 486198.0 0
470062.0 484365.0 0
468756.0 487752.0 0
472199.0 487950.0 0
473422.0 485540.0 0
476100.0 488445.0 0
15627.5 492583.0 0
21169.0 488737.0 0
18996.7 491277.0 0
22769.1 491352.0 0
26654.2 490028.0 0
25811.5 493566.0 0
29707.4 492297.0 0
35940.9 490021.0 0
32745.2 491391.0 0
35689.7 493051.0 0
38398.6 491172.0 0
41993.5 491165.0 0
46079.1 491995.0 0
49820.1 491154.0 0
54154.5 492050.0 0
61823.5 489122.0 0
57386.5 490905.0 0
60251.8 492682.0 0
66037.4 489768.0 0
63926.8 492473.0 0
69448.5 489638.0 0
67792.4 492428.0 0
71895.9 491624.0 0
75922.5 491131.0 0
78816.3 489162.0 0
80429.8 492165.0 0
84474.8 490219.0 0
87966.0 492730.0 0
88790.6 488317.0 0
91745.2 489614.0 0
95994.0 489682.0 0
101243.0 490716.0 0
106026.0 488921.0 0
105040.0 493004.0 0
108470.0 491552.0 0
111616.0 491249.0 0
115545.0 488427.0 0
113835.0 493037.0 0
117227.0 492789.0 0
123323.0 489869.0 0
119555.0 489966.0 0
120787.0 492866.0 0
127509.0 487917.0 0
127547.0 491938.0 0
131535.0 489224.0 0
135502.0 489831.0 0
139743.0 490236.0 0
144023.0 491528.0 0
146694.0 491911.0 0
148221.0 488963.0 0
152595.0 487623.0 0
153183.0 492448.0 0
157255.0 487878.0 0
158932.0 492090.0 0
161005.0 487628.0 0
163623.0 490009.0 0
168066.0 488466.0 0
171456.0 490774.0 0
174839.0 489207.0 0
178962.0 489047.0 0
182781.0 488613.0 0
186044.0 490906.0 0
190062.0 487553.0 0
190179.0 491038.0 0
195089.0 489434.0 0
199850.0 491621.0 0
203596.0 490060.0 0
207296.0 491021.0 0
211815.0 491826.0 0
214707.0 488641.0 0
219606.0 488004.0 0
224779.0 489680.0 0
230142.0 490861.0 0
234656.0 488648.0 0
239580.0 487709.0 0
243948.0 491011.0 0
248838.0 489347.0 0
253693.0 488136.0 0
258947.0 487004.0 0
256930.0 491862.0 0
260860.0 491753.0 0
265172.0 488529.0 0
269698.0 486909.0 0
272212.0 489624.0 0
277194.0 490659.0 0
282341.0 489807.0 0
286344.0 488512.0 0
290276.0 489764.0 0
294615.0 489845.0 0
298205.0 489429.0 0
302557.0 491301.0 0
307522.0 489085.0 0
311939.0 488533.0 0
314884.0 487915.0 0
315972.0 491122.0 0
319664.0 489754.0 0
323948.0 491127.0 0
327685.0 489684.0 0
330071.0 488214.0 0
333461.0 489179.0 0
337923.0 490621.0 0
342527.0 490749.0 0
347390.0 489137.0 0
353093.0 490442.0 0
357497.0 491320.0 0
361807.0 489913.0 0
367021.0 489210.0 0
370990.0 488205.0 0
370553.0 492150.0 0
374804.0 488163.0 0
373437.0 490864.0 0
376960.0 491266.0 0
384975.0 489462.0 0
381434.0 493279.0 0
390994.0 490383.0 0
395508.0 492886.0 0
396727.0 489529.0 0
398633.0 492217.0 0
401980.0 489524.0 0
407281.0 489403.0 0
414338.0 488584.0 0
412872.0 491704.0 0
417553.0 490702.0 0
425102.0 488989.0 0
422221.0 492086.0 0
425904.0 491569.0 0
429031.0 490911.0 0
435246.0 489119.0 0
432416.0 491122.0 0
435667.0 491980.0 0
439254.0 490841.0 0
443457.0 492065.0 0
447753.0 490826.0 0
456176.0 488842.0 0
453446.0 491089.0 0
456989.0 491575.0 0
460183.0 489106.0 0
464397.0 489601.0 0
468300.0 491428.0 0
472630.0 492110.0 0
477146.0 492588.0 0
479923.0 490686.0 0
483362.0 492587.0 0
8897.47 498061.0 0
12787.0 495982.0 0
16857.3 494700.0 0
15824.9 498234.0 0
19309.6 496098.0 0
22299.7 494432.0 0
25145.0 497187.0 0
21808.7 498652.0 0
28826.0 495947.0 0
32957.6 495860.0 0
36412.0 498456.0 0
38876.7 495258.0 0
43347.6 495495.0 0
47586.9 495367.0 0
51821.0 494588.0 0
49927.6 498515.0 0
54046.6 497850.0 0
56808.4 494845.0 0
60985.0 495925.0 0
65505.6 496169.0 0
70242.4 494736.0 0
73796.1 493975.0 0
77260.8 494821.0 0
73329.4 497068.0 0
81346.4 496527.0 0
83635.5 493616.0 0
85187.5 496195.0 0
92859.1 493164.0 0
89605.7 497087.0 0
97308.7 493369.0 0
94723.1 497873.0 0
100493.0 496244.0 0
105018.0 496905.0 0
109813.0 495822.0 0
114895.0 496773.0 0
118666.0 495705.0 0
121899.0 496072.0 0
123741.0 493440.0 0
126475.0 496515.0 0
132375.0 494136.0 0
136930.0 492593.0 0
136688.0 495587.0 0
140376.0 493826.0 0
144320.0 495602.0 0
148226.0 493871.0 0
147517.0 497399.0 0
151092.0 496956.0 0
156165.0 497229.0 0
161095.0 495565.0 0
167485.0 492615.0 0
163887.0 493356.0 0
165464.0 496784.0 0
170795.0 494246.0 0
172502.0 496382.0 0
176082.0 493922.0 0
180418.0 496638.0 0
181549.0 492506.0 0
184479.0 495484.0 0
188597.0 494490.0 0
192541.0 493503.0 0
191692.0 496784.0 0
196866.0 496065.0 0
203586.0 494907.0 0
208856.0 495746.0 0
213903.0 496861.0 0
216581.0 492402.0 0
218524.0 496643.0 0
221432.0 493050.0 0
226117.0 494162.0 0
229900.0 495339.0 0
235038.0 493246.0 0
239786.0 492806.0 0
243119.0 496075.0 0
247927.0 494787.0 0
252582.0 493147.0 0
256335.0 496447.0 0
263995.0 494392.0 0
268807.0 493584.0 0
273560.0 493987.0 0
277016.0 494386.0 0
281036.0 494865.0 0
286589.0 493331.0 0
292212.0 494479.0 0
297129.0 493140.0 0
300476.0 496020.0 0
304951.0 497037.0 0
307296.0 493342.0 0
309957.0 497116.0 0
311541.0 492679.0 0
315449.0 496119.0 0
319867.0 493827.0 0
325132.0 496571.0 0
329958.0 493330.0 0
334419.0 492469.0 0
332946.0 497465.0 0
336871.0 495673.0 0
340945.0 493876.0 0
345455.0 494326.0 0
350157.0 494137.0 0
355003.0 495131.0 0
360597.0 495195.0 0
366068.0 493966.0 0
370917.0 496213.0 0
373926.0 493970.0 0
377522.0 494897.0 0
379586.0 497902.0 0
383537.0 497629.0 0
386643.0 494369.0 0
390632.0 494651.0 0
390220.0 497902.0 0
393979.0 495750.0 0
401907.0 493260.0 0
398758.0 495697.0 0
405568.0 493146.0 0
403788.0 496715.0 0
409217.0 493256.0 0
408616.0 497179.0 0
412662.0 495586.0 0
417670.0 495748.0 0
422684.0 496260.0 0
427314.0 494789.0 0
432475.0 495376.0 0
436255.0 498271.0 0
437369.0 494908.0 0
441100.0 494104.0 0
440476.0 497983.0 0
446169.0 496327.0 0
451019.0 493940.0 0
451652.0 498264.0 0
455674.0 495441.0 0
460562.0 493486.0 0
460110.0 497151.0 0
464692.0 493524.0 0
464224.0 497486.0 0
468285.0 495308.0 0
471807.0 496947.0 0
467855.0 499187.0 0
476053.0 496169.0 0
480179.0 495236.0 0
482458.0 498511.0 0
483408.0 495573.0 0
486731.0 494421.0 0
485116.0 496536.0 0
486217.0 498413.0 0
489845.0 497236.0 0
5248.45 499184.0 0
2119.83 500068.0 0
9609.91 501942.0 0
6140.4 502340.0 0
12605.1 500514.0 0
17207.5 501382.0 0
21548.4 501998.0 0
25004.6 501114.0 0
28766.0 499913.0 0
32921.1 499998.0 0
36187.0 502257.0 0
40511.3 499892.0 0
45356.1 499250.0 0
48859.9 502308.0 0
53064.5 501197.0 0
56056.2 503387.0 0
57693.1 499269.0 0
62056.9 499436.0 0
59692.4 502401.0 0
65506.1 500086.0 0
69230.6 498371.0 0
68093.1 502137.0 0
72141.2 500720.0 0
77046.6 499264.0 0
78803.9 503395.0 0
82122.9 501007.0 0
86139.6 499639.0 0
90113.8 501218.0 0
93394.1 502468.0 0
98374.5 502164.0 0
102608.0 500434.0 0
106594.0 500856.0 0
111643.0 501396.0 0
115505.0 499920.0 0
118862.0 499415.0 0
122760.0 499367.0 0
126011.0 501286.0 0
130136.0 498958.0 0
132048.0 501329.0 0
134544.0 499012.0 0
137542.0 501597.0 0
139963.0 498000.0 0
141393.0 501774.0 0
144366.0 499490.0 0
148107.0 500995.0 0
152485.0 501272.0 0
156949.0 502616.0 0
160987.0 499682.0 0
166015.0 502130.0 0
169680.0 498189.0 0
174158.0 499293.0 0
178284.0 500674.0 0
183083.0 499931.0 0
187885.0 499160.0 0
192618.0 500243.0 0
196899.0 501787.0 0
201496.0 499700.0 0
206182.0 499654.0 0
210668.0 500316.0 0
219495.0 500476.0 0
215376.0 501784.0 0
222719.0 497516.0 0
223630.0 501755.0 0
227317.0 498642.0 0
232705.0 498860.0 0
238074.0 497275.0 0
241616.0 500880.0 0
247032.0 500577.0 0
251975.0 498225.0 0
259484.0 502123.0 0
255914.0 500863.0 0
260836.0 497956.0 0
262885.0 501760.0 0
266343.0 498839.0 0
271067.0 497902.0 0
270159.0 501936.0 0
276094.0 498681.0 0
281365.0 500045.0 0
284753.0 497535.0 0
288486.0 497991.0 0
285624.0 501495.0 0
292072.0 499115.0 0
296418.0 498635.0 0
301313.0 500589.0 0
305668.0 501994.0 0
309764.0 501823.0 0
313052.0 499503.0 0
312912.0 502245.0 0
316578.0 501946.0 0
320246.0 498616.0 0
323739.0 500441.0 0
327292.0 501860.0 0
329466.0 498201.0 0
332034.0 501403.0 0
336673.0 500693.0 0
342283.0 498875.0 0
347796.0 498270.0 0
346157.0 502530.0 0
351723.0 498094.0 0
350448.0 502076.0 0
355270.0 500590.0 0
357787.0 498010.0 0
364099.0 498357.0 0
360722.0 500641.0 0
367731.0 498518.0 0
375049.0 498367.0 0
370821.0 500401.0 0
378407.0 501966.0 0
381849.0 500977.0 0
385197.0 501806.0 0
387008.0 498936.0 0
389584.0 502356.0 0
396926.0 498994.0 0
393440.0 500524.0 0
397401.0 503105.0 0
401447.0 500567.0 0
405941.0 500517.0 0
409751.0 502160.0 0
413414.0 499407.0 0
417825.0 500799.0 0
421805.0 499906.0 0
426291.0 499206.0 0
425922.0 503244.0 0
430079.0 498708.0 0
430001.0 502007.0 0
433512.0 500329.0 0
438314.0 502269.0 0
443654.0 501138.0 0
448442.0 500964.0 0
452460.0 502382.0 0
456824.0 500406.0 0
461611.0 500238.0 0
461016.0 503429.0 0
468284.0 502831.0 0
464689.0 501670.0 0
472592.0 501128.0 0
477786.0 500126.0 0
482083.0 502185.0 0
485725.0 501117.0 0
490011.0 501253.0 0
493969.0 503843.0 0
494438.0 499751.0 0
498294.0 500112.0 0
498013.0 502561.0 0
2551.58 503853.0 0
8754.84 504724.0 0
6188.47 505613.0 0
8441.28 507946.0 0
12842.8 504789.0 0
12261.1 508972.0 0
19598.8 504616.0 0
16867.1 505993.0 0
20408.6 507500.0 0
23433.6 504800.0 0
24701.2 507721.0 0
27129.0 504231.0 0
28491.2 507847.0 0
31618.8 504255.0 0
32229.1 508423.0 0
35728.8 506811.0 0
39395.8 504319.0 0
43859.6 504186.0 0
45630.6 508429.0 0
48336.9 505809.0 0
52148.8 504894.0 0
55181.6 507246.0 0
59088.8 505744.0 0
63279.3 503518.0 0
62235.5 507820.0 0
66738.4 506220.0 0
71000.8 504601.0 0
74755.5 503305.0 0
73575.8 506596.0 0
76786.7 506173.0 0
81636.7 506371.0 0
86236.5 504390.0 0
90880.1 505000.0 0
94527.6 505308.0 0
103044.0 504547.0 0
98446.6 508094.0 0
107637.0 505510.0 0
112214.0 506760.0 0
116291.0 503592.0 0
121558.0 503223.0 0
119254.0 505674.0 0
125521.0 505433.0 0
129497.0 502936.0 0
129405.0 506683.0 0
133906.0 504506.0 0
139412.0 505073.0 0
144552.0 504208.0 0
149352.0 505144.0 0
153490.0 506078.0 0
158292.0 507816.0 0
161190.0 504018.0 0
168895.0 506320.0 0
171214.0 502518.0 0
173135.0 506118.0 0
174758.0 502994.0 0
177096.0 505329.0 0
181340.0 504351.0 0
185814.0 503699.0 0
188855.0 507288.0 0
189603.0 503009.0 0
193272.0 505049.0 0
197636.0 507286.0 0
203997.0 503377.0 0
200249.0 503698.0 0
201707.0 506346.0 0
208022.0 503800.0 0
212121.0 504017.0 0
220138.0 504597.0 0
224190.0 505987.0 0
228317.0 503607.0 0
233200.0 504391.0 0
237129.0 502227.0 0
243778.0 504375.0 0
240036.0 504661.0 0
251946.0 503145.0 0
256973.0 505176.0 0
261680.0 505824.0 0
266219.0 503899.0 0
274250.0 503918.0 0
270217.0 506489.0 0
278166.0 502776.0 0
278565.0 506900.0 0
280861.0 503677.0 0
283693.0 505685.0 0
287713.0 506676.0 0
289966.0 502658.0 0
294518.0 503216.0 0
292011.0 506953.0 0
298313.0 503120.0 0
297107.0 507237.0 0
302418.0 505599.0 0
308035.0 506576.0 0
312606.0 505304.0 0
316660.0 507008.0 0
321945.0 504845.0 0
326881.0 506186.0 0
330845.0 505707.0 0
335319.0 505282.0 0
340809.0 504726.0 0
346105.0 506986.0 0
350409.0 506138.0 0
353539.0 504328.0 0
358077.0 504763.0 0
362014.0 504702.0 0
364011.0 507448.0 0
365974.0 502756.0 0
370348.0 504177.0 0
374388.0 503087.0 0
372923.0 507426.0 0
377345.0 506389.0 0
381878.0 505504.0 0
386741.0 506063.0 0
390856.0 506636.0 0
393818.0 504839.0 0
397505.0 507152.0 0
401518.0 505265.0 0
405342.0 503886.0 0
408356.0 505990.0 0
411791.0 505856.0 0
414271.0 503360.0 0
415430.0 508013.0 0
421751.0 503838.0 0
417895.0 504620.0 0
420685.0 508027.0 0
425110.0 507420.0 0
429667.0 506041.0 0
433395.0 504214.0 0
436403.0 506386.0 0
440207.0 506547.0 0
446732.0 503769.0 0
443428.0 504995.0 0
447754.0 507593.0 0
449607.0 504185.0 0
452499.0 506678.0 0
456643.0 505069.0 0
460394.0 507167.0 0
464804.0 505493.0 0
463993.0 509108.0 0
471376.0 504615.0 0
468883.0 506110.0 0
472672.0 508182.0 0
475262.0 504866.0 0
478343.0 508566.0 0
479016.0 504502.0 0
482072.0 506185.0 0
484749.0 504125.0 0
488555.0 504895.0 0
485727.0 507571.0 0
491705.0 507769.0 0
497310.0 506131.0 0
3460.88 508743.0 0
1362.6 512328.0 0
9084.54 511471.0 0
5694.45 512993.0 0
13370.5 512797.0 0
16636.3 509228.0 0
18424.9 513053.0 0
21854.4 510570.0 0
26003.6 511172.0 0
30384.0 511901.0 0
34656.1 510710.0 0
40055.0 509000.0 0
37137.0 512679.0 0
43566.0 511442.0 0
50683.3 508816.0 0
47324.0 511149.0 0
50417.3 513384.0 0
54491.6 510768.0 0
58335.9 509304.0 0
57740.4 512969.0 0
61757.6 511751.0 0
65851.4 510611.0 0
70454.2 509014.0 0
69086.7 513151.0 0
74515.9 509542.0 0
72791.1 512346.0 0
76522.9 513171.0 0
78203.0 509399.0 0
81429.5 511864.0 0
84592.1 508933.0 0
85933.3 511752.0 0
88191.7 508515.0 0
88881.6 511554.0 0
92616.1 508632.0 0
91340.7 512329.0 0
94896.1 512025.0 0
100964.0 512257.0 0
103833.0 508932.0 0
108528.0 510312.0 0
113117.0 511536.0 0
116382.0 508369.0 0
118002.0 513071.0 0
121730.0 508597.0 0
126870.0 509990.0 0
130112.0 512033.0 0
132010.0 509272.0 0
136656.0 508995.0 0
141913.0 509007.0 0
146536.0 507897.0 0
145725.0 511626.0 0
150206.0 510014.0 0
154311.0 510084.0 0
157415.0 512502.0 0
164055.0 508072.0 0
166834.0 512346.0 0
170750.0 509776.0 0
175642.0 510352.0 0
179845.0 508305.0 0
184055.0 508174.0 0
187193.0 511966.0 0
193311.0 510262.0 0
198286.0 511986.0 0
201010.0 509431.0 0
205270.0 507919.0 0
207809.0 512284.0 0
210378.0 507921.0 0
212849.0 512243.0 0
215865.0 507437.0 0
221389.0 509600.0 0
227475.0 508570.0 0
225208.0 511561.0 0
231950.0 508941.0 0
237066.0 507912.0 0
241758.0 507701.0 0
243507.0 511436.0 0
247826.0 507624.0 0
253300.0 507594.0 0
252054.0 512144.0 0
257230.0 510575.0 0
261699.0 510356.0 0
265868.0 508854.0 0
274125.0 508488.0 0
270471.0 512073.0 0
277073.0 511649.0 0
282579.0 510759.0 0
288743.0 511803.0 0
293884.0 510703.0 0
300806.0 509748.0 0
304904.0 510197.0 0
309250.0 511818.0 0
312615.0 509284.0 0
315962.0 510835.0 0
320166.0 510890.0 0
325046.0 510029.0 0
328962.0 509166.0 0
332604.0 509925.0 0
337616.0 510149.0 0
342277.0 509116.0 0
344915.0 512097.0 0
349637.0 510405.0 0
354606.0 508866.0 0
357892.0 512272.0 0
360378.0 509074.0 0
365314.0 511720.0 0
368244.0 507929.0 0
371235.0 512687.0 0
375844.0 510413.0 0
380027.0 510296.0 0
384806.0 510613.0 0
389352.0 510373.0 0
393860.0 509655.0 0
400992.0 508993.0 0
398089.0 511274.0 0
405274.0 508434.0 0
402786.0 512567.0 0
407211.0 512258.0 0
410391.0 509752.0 0
414249.0 512169.0 0
418881.0 512030.0 0
423783.0 511584.0 0
426377.0 512191.0 0
428599.0 510296.0 0
432121.0 513303.0 0
433497.0 509283.0 0
443535.0 509159.0 0
438689.0 510509.0 0
442960.0 513054.0 0
447125.0 511677.0 0
451544.0 510621.0 0
450196.0 513798.0 0
456243.0 509796.0 0
458523.0 513123.0 0
460886.0 510830.0 0
462144.0 514331.0 0
467672.0 509314.0 0
464612.0 511988.0 0
467621.0 512900.0 0
471169.0 511977.0 0
475827.0 511672.0 0
482683.0 509977.0 0
480448.0 513088.0 0
487744.0 510685.0 0
484638.0 512859.0 0
494625.0 510257.0 0
490976.0 512754.0 0
498247.0 509128.0 0
497769.0 512096.0 0
2328.19 515282.0 0
9750.62 515963.0 0
5813.27 516968.0 0
15479.5 517166.0 0
20460.0 516294.0 0
23192.8 514177.0 0
24700.3 518708.0 0
26699.9 514448.0 0
29777.9 516321.0 0
33741.7 514534.0 0
33159.8 518562.0 0
40642.8 514251.0 0
36964.4 516736.0 0
45573.0 514085.0 0
43121.0 517535.0 0
47921.1 517306.0 0
54470.1 514263.0 0
52537.7 517516.0 0
56798.6 516946.0 0
60943.4 515901.0 0
65005.7 514577.0 0
68051.4 516691.0 0
72813.2 516319.0 0
78225.0 517003.0 0
83827.4 516093.0 0
88480.6 514379.0 0
92685.7 516037.0 0
97779.6 514957.0 0
104586.0 514078.0 0
109670.0 515331.0 0
114231.0 516560.0 0
118405.0 517901.0 0
123250.0 513716.0 0
127580.0 513746.0 0
126687.0 517400.0 0
130787.0 515736.0 0
134041.0 512949.0 0
142078.0 513063.0 0
138531.0 513207.0 0
140995.0 516243.0 0
144181.0 514946.0 0
148304.0 515128.0 0
153262.0 514233.0 0
157948.0 517432.0 0
161673.0 513062.0 0
164314.0 515673.0 0
167612.0 516663.0 0
171355.0 514051.0 0
175660.0 515551.0 0
181370.0 513506.0 0
186488.0 517199.0 0
191004.0 514736.0 0
193958.0 517548.0 0
195149.0 514196.0 0
197763.0 516947.0 0
202943.0 512577.0 0
201279.0 516045.0 0
205558.0 517082.0 0
210364.0 515999.0 0
214399.0 516827.0 0
217629.0 513135.0 0
222643.0 514628.0 0
229124.0 512873.0 0
226940.0 516681.0 0
234251.0 513285.0 0
239116.0 512770.0 0
242838.0 516152.0 0
247466.0 513892.0 0
251042.0 516793.0 0
255558.0 515633.0 0
259933.0 514412.0 0
264545.0 514118.0 0
268699.0 517454.0 0
274764.0 517016.0 0
279923.0 514950.0 0
284589.0 516109.0 0
293650.0 515530.0 0
297681.0 512516.0 0
302004.0 513908.0 0
305965.0 514164.0 0
308960.0 517251.0 0
313932.0 514739.0 0
319018.0 515678.0 0
323782.0 514796.0 0
329398.0 513983.0 0
335335.0 515728.0 0
340840.0 514374.0 0
344818.0 517053.0 0
348588.0 514621.0 0
353517.0 514698.0 0
358826.0 516208.0 0
361465.0 512822.0 0
363389.0 516026.0 0
366960.0 515310.0 0
370105.0 517418.0 0
374426.0 517759.0 0
377357.0 514505.0 0
382387.0 514849.0 0
388222.0 515395.0 0
391633.0 512860.0 0
394667.0 514698.0 0
399383.0 515110.0 0
401814.0 517847.0 0
405681.0 515993.0 0
410975.0 515127.0 0
416406.0 516340.0 0
421875.0 515753.0 0
427800.0 515449.0 0
435897.0 513403.0 0
433861.0 517339.0 0
437767.0 516146.0 0
439288.0 514136.0 0
441651.0 516790.0 0
446605.0 516481.0 0
451648.0 517403.0 0
454753.0 514359.0 0
459013.0 517036.0 0
463039.0 517693.0 0
465527.0 515619.0 0
473755.0 514788.0 0
470045.0 516597.0 0
477384.0 515269.0 0
475201.0 518296.0 0
483777.0 515593.0 0
480418.0 518157.0 0
487683.0 514886.0 0
494086.0 514272.0 0
491391.0 517227.0 0
497398.0 515514.0 0
2401.5 519247.0 0
2056.39 523113.0 0
6480.11 520996.0 0
11410.4 520400.0 0
19765.2 519314.0 0
16485.9 522060.0 0
21286.4 523158.0 0
29401.8 520183.0 0
32149.0 522889.0 0
35915.7 521089.0 0
39249.4 519273.0 0
41787.6 521441.0 0
45862.5 521109.0 0
49789.3 520246.0 0
55555.8 519521.0 0
52943.3 521204.0 0
56290.4 521662.0 0
59582.8 520172.0 0
64260.3 518998.0 0
69246.1 521501.0 0
74506.3 520143.0 0
77961.2 522011.0 0
81180.6 520095.0 0
84714.8 520767.0 0
88403.5 518436.0 0
91812.1 520439.0 0
96085.1 519764.0 0
101190.0 518578.0 0
103515.0 522719.0 0
106438.0 518981.0 0
111190.0 520147.0 0
115547.0 521330.0 0
122494.0 518421.0 0
120089.0 522338.0 0
125081.0 522110.0 0
130153.0 520597.0 0
136023.0 518077.0 0
140887.0 519987.0 0
144382.0 518035.0 0
144476.0 522130.0 0
147529.0 519434.0 0
151506.0 518583.0 0
154534.0 521736.0 0
163021.0 519228.0 0
167011.0 520397.0 0
171413.0 519005.0 0
175663.0 519499.0 0
178865.0 517972.0 0
178749.0 521930.0 0
182288.0 519114.0 0
188378.0 522081.0 0
190785.0 518813.0 0
195669.0 521609.0 0
201123.0 520490.0 0
206290.0 522369.0 0
210639.0 520147.0 0
218818.0 518105.0 0
215118.0 521571.0 0
223489.0 519707.0 0
228214.0 521541.0 0
231654.0 517607.0 0
233446.0 522430.0 0
237545.0 518278.0 0
243604.0 521395.0 0
246678.0 517964.0 0
249257.0 520767.0 0
253689.0 520093.0 0
259131.0 519764.0 0
264226.0 518720.0 0
263262.0 522480.0 0
267026.0 521650.0 0
271491.0 521897.0 0
280479.0 519611.0 0
289368.0 518229.0 0
285377.0 521547.0 0
293916.0 520478.0 0
298508.0 517643.0 0
303839.0 518486.0 0
313697.0 521048.0 0
318758.0 520178.0 0
321632.0 518301.0 0
324200.0 518438.0 0
327154.0 518746.0 0
331276.0 519048.0 0
339990.0 519348.0 0
345264.0 522769.0 0
349817.0 519108.0 0
355477.0 520684.0 0
361201.0 520276.0 0
366235.0 520002.0 0
371166.0 521777.0 0
375483.0 521745.0 0
379565.0 519548.0 0
384471.0 518857.0 0
387910.0 520425.0 0
392584.0 519535.0 0
396327.0 522752.0 0
397562.0 518761.0 0
400546.0 521851.0 0
405013.0 520539.0 0
409045.0 519168.0 0
413493.0 520513.0 0
419372.0 519809.0 0
424645.0 519779.0 0
429892.0 520629.0 0
434405.0 522317.0 0
438911.0 519997.0 0
444187.0 520388.0 0
449728.0 521453.0 0
455645.0 520125.0 0
458199.0 523861.0 0
461489.0 521412.0 0
466245.0 519770.0 0
466166.0 524254.0 0
471592.0 521623.0 0
477190.0 521708.0 0
482132.0 522322.0 0
486301.0 518985.0 0
491393.0 522053.0 0
496761.0 519477.0 0
2081.48 526667.0 0
5747.34 525349.0 0
9218.46 524087.0 0
9678.51 527406.0 0
13041.8 524885.0 0
17536.0 526448.0 0
21903.4 527780.0 0
26778.9 524574.0 0
31498.3 527535.0 0
35191.5 525154.0 0
38780.9 523509.0 0
38424.0 527665.0 0
43195.8 525298.0 0
49029.7 524698.0 0
46317.2 528078.0 0
52046.6 528894.0 0
54161.5 524703.0 0
56774.9 528241.0 0
58722.4 524151.0 0
60906.9 527403.0 0
63384.3 523715.0 0
67315.8 526613.0 0
73732.0 524343.0 0
77428.9 526499.0 0
82275.0 524811.0 0
88175.9 523675.0 0
90517.7 527946.0 0
93550.0 523935.0 0
95336.4 527862.0 0
98957.4 524047.0 0
104281.0 526641.0 0
107928.0 523609.0 0
112511.0 524655.0 0
117270.0 525988.0 0
122661.0 526877.0 0
128288.0 525598.0 0
131833.0 526848.0 0
134357.0 523696.0 0
134597.0 527574.0 0
139551.0 524406.0 0
144524.0 527381.0 0
149385.0 523408.0 0
153736.0 526189.0 0
159583.0 523666.0 0
164782.0 523653.0 0
169254.0 523710.0 0
174008.0 523513.0 0
177958.0 527338.0 0
183233.0 524043.0 0
187723.0 527374.0 0
192086.0 525004.0 0
196489.0 527054.0 0
202138.0 526288.0 0
206732.0 526732.0 0
210971.0 525393.0 0
216128.0 526624.0 0
220020.0 523272.0 0
224532.0 524780.0 0
220019.0 527330.0 0
229942.0 526033.0 0
234463.0 527373.0 0
238654.0 524282.0 0
242838.0 527527.0 0
247521.0 525400.0 0
251540.0 523758.0 0
255545.0 524326.0 0
260113.0 525384.0 0
264549.0 526207.0 0
268674.0 525526.0 0
273217.0 527138.0 0
276539.0 523138.0 0
281411.0 524746.0 0
290142.0 523124.0 0
286321.0 527059.0 0
294078.0 524469.0 0
291696.0 527547.0 0
298251.0 523108.0 0
302751.0 522836.0 0
302173.0 527200.0 0
307620.0 523160.0 0
311451.0 525007.0 0
314220.0 526348.0 0
318182.0 524895.0 0
323628.0 523050.0 0
329458.0 523630.0 0
335082.0 522698.0 0
340086.0 524957.0 0
343577.0 527785.0 0
347499.0 527691.0 0
351094.0 524532.0 0
355132.0 527447.0 0
359383.0 524956.0 0
364008.0 523895.0 0
363569.0 527878.0 0
368289.0 526145.0 0
373685.0 525664.0 0
378617.0 525208.0 0
384180.0 524001.0 0
390131.0 524481.0 0
394451.0 526034.0 0
399285.0 526596.0 0
404538.0 525237.0 0
409167.0 523429.0 0
408712.0 527949.0 0
412834.0 525799.0 0
417141.0 523714.0 0
422160.0 523410.0 0
420236.0 526837.0 0
426984.0 524224.0 0
424362.0 527351.0 0
431298.0 525383.0 0
437951.0 524186.0 0
435201.0 526569.0 0
442071.0 524028.0 0
439582.0 527893.0 0
446190.0 524196.0 0
449771.0 526413.0 0
454043.0 524703.0 0
457963.0 527679.0 0
461674.0 525749.0 0
464213.0 528111.0 0
468210.0 528741.0 0
470906.0 525927.0 0
475261.0 525385.0 0
479114.0 525137.0 0
478554.0 529051.0 0
483475.0 527658.0 0
486606.0 523521.0 0
488871.0 527344.0 0
493437.0 526525.0 0
497097.0 524081.0 0
1766.5 529900.0 0
5989.48 530034.0 0
13833.9 529023.0 0
10378.6 531488.0 0
13982.4 533653.0 0
17826.3 530803.0 0
21848.6 532087.0 0
26584.2 530423.0 0
30869.2 532285.0 0
34797.3 530397.0 0
38955.9 532956.0 0
42526.2 529554.0 0
45370.9 530602.0 0
48347.5 531216.0 0
51544.9 532515.0 0
55720.1 532612.0 0
59612.6 530246.0 0
60944.0 533484.0 0
63817.0 529811.0 0
71748.3 528296.0 0
67985.5 531399.0 0
75690.3 530186.0 0
80542.6 530306.0 0
85712.9 528649.0 0
84403.7 532634.0 0
88593.6 532617.0 0
92439.9 531557.0 0
96091.0 531889.0 0
100280.0 529479.0 0
104940.0 531030.0 0
108773.0 528132.0 0
113635.0 529455.0 0
118542.0 530640.0 0
122657.0 531468.0 0
127042.0 530233.0 0
132164.0 530626.0 0
137998.0 529953.0 0
142513.0 532407.0 0
149698.0 528080.0 0
153108.0 530699.0 0
157315.0 528662.0 0
156871.0 532946.0 0
161653.0 528582.0 0
164204.0 531577.0 0
166904.0 528126.0 0
169616.0 532112.0 0
172273.0 528470.0 0
178961.0 532208.0 0
182992.0 529753.0 0
192140.0 529946.0 0
196209.0 531822.0 0
199559.0 530365.0 0
203748.0 531766.0 0
208492.0 530224.0 0
213012.0 530107.0 0
218505.0 531447.0 0
223170.0 529075.0 0
227018.0 528682.0 0
230680.0 530854.0 0
238748.0 529206.0 0
235411.0 531733.0 0
241777.0 532052.0 0
246917.0 531113.0 0
252036.0 528021.0 0
251626.0 532381.0 0
256975.0 529215.0 0
261977.0 529937.0 0
267337.0 530279.0 0
272204.0 532082.0 0
277159.0 530790.0 0
281400.0 529110.0 0
284517.0 532023.0 0
289497.0 531980.0 0
294816.0 531298.0 0
297548.0 527780.0 0
299756.0 531516.0 0
304584.0 531866.0 0
306645.0 528124.0 0
308458.0 531278.0 0
310675.0 528273.0 0
312051.0 532475.0 0
316443.0 530230.0 0
321381.0 528813.0 0
326811.0 528545.0 0
332608.0 528042.0 0
335797.0 532516.0 0
336810.0 527192.0 0
339670.0 529646.0 0
343803.0 532194.0 0
347782.0 531372.0 0
351219.0 529480.0 0
355020.0 532595.0 0
359126.0 529729.0 0
362580.0 531393.0 0
367335.0 532466.0 0
372231.0 529648.0 0
376464.0 529449.0 0
381562.0 530203.0 0
387137.0 529007.0 0
391714.0 528582.0 0
390582.0 533423.0 0
395753.0 530713.0 0
400581.0 531054.0 0
404382.0 529808.0 0
408096.0 532845.0 0
412475.0 530719.0 0
416656.0 528594.0 0
416852.0 533321.0 0
421447.0 531037.0 0
427355.0 531461.0 0
425399.0 530693.0 0
428488.0 528493.0 0
430198.0 532747.0 0
432782.0 529479.0 0
436503.0 530182.0 0
440552.0 532932.0 0
444869.0 528833.0 0
449666.0 530366.0 0
453539.0 529274.0 0
457162.0 532949.0 0
461331.0 529948.0 0
465337.0 532180.0 0
473820.0 529710.0 0
470277.0 531976.0 0
477539.0 532900.0 0
481871.0 532222.0 0
487124.0 532263.0 0
492607.0 530884.0 0
497668.0 528669.0 0
497286.0 532888.0 0
2682.9 533691.0 0
2530.0 537746.0 0
7944.92 535538.0 0
13194.3 537849.0 0
18661.6 536320.0 0
24517.1 535645.0 0
29108.0 536444.0 0
34162.8 534740.0 0
37601.2 538177.0 0
44442.4 533876.0 0
41740.5 537083.0 0
45211.2 538327.0 0
49035.3 535932.0 0
52515.9 534480.0 0
53735.5 537095.0 0
57894.7 536552.0 0
61548.1 538314.0 0
65352.7 535106.0 0
72221.2 533421.0 0
69504.8 537079.0 0
76970.7 534241.0 0
74038.0 538078.0 0
78055.0 537973.0 0
81161.8 535320.0 0
85957.2 537035.0 0
93585.2 535271.0 0
99086.6 535315.0 0
104534.0 536033.0 0
109578.0 533318.0 0
114878.0 534614.0 0
120283.0 535986.0 0
125602.0 534799.0 0
130189.0 534880.0 0
135013.0 534664.0 0
139290.0 534855.0 0
143276.0 537226.0 0
147824.0 533071.0 0
152881.0 535572.0 0
157411.0 537599.0 0
161047.0 534189.0 0
166269.0 535356.0 0
170735.0 536665.0 0
174145.0 533380.0 0
178727.0 537433.0 0
182484.0 533959.0 0
184579.0 537521.0 0
187392.0 532996.0 0
188996.0 537444.0 0
192353.0 534722.0 0
197008.0 536148.0 0
199967.0 533486.0 0
202352.0 537015.0 0
207730.0 535322.0 0
213766.0 535272.0 0
219178.0 536392.0 0
223364.0 537248.0 0
225903.0 533262.0 0
232571.0 535376.0 0
237818.0 535908.0 0
244274.0 535526.0 0
249374.0 536730.0 0
254919.0 535262.0 0
259075.0 533357.0 0
264201.0 534531.0 0
268770.0 534909.0 0
274415.0 536649.0 0
280527.0 535831.0 0
286650.0 536688.0 0
292385.0 536788.0 0
297412.0 535710.0 0
302136.0 535763.0 0
307883.0 534659.0 0
315704.0 535152.0 0
311361.0 536891.0 0
320208.0 533699.0 0
324839.0 533600.0 0
322701.0 537359.0 0
330218.0 533425.0 0
339944.0 533483.0 0
338050.0 537318.0 0
342318.0 536076.0 0
350532.0 533441.0 0
347093.0 536873.0 0
352511.0 537186.0 0
360320.0 535171.0 0
370131.0 537011.0 0
373216.0 534080.0 0
373587.0 538158.0 0
376395.0 536321.0 0
377507.0 533129.0 0
379755.0 536352.0 0
384742.0 535530.0 0
389232.0 537915.0 0
395014.0 535184.0 0
392791.0 537894.0 0
398959.0 534702.0 0
401764.0 538221.0 0
403409.0 534250.0 0
406865.0 538136.0 0
412449.0 536392.0 0
421110.0 534947.0 0
418141.0 538224.0 0
422821.0 537871.0 0
425672.0 534615.0 0
430509.0 537162.0 0
435189.0 534398.0 0
439572.0 538407.0 0
447137.0 533441.0 0
443987.0 536235.0 0
448568.0 537546.0 0
451962.0 534072.0 0
457129.0 537876.0 0
461899.0 533414.0 0
460287.0 536428.0 0
468755.0 535297.0 0
464258.0 537003.0 0
473489.0 534759.0 0
471879.0 538505.0 0
480293.0 535380.0 0
476987.0 536922.0 0
484071.0 536010.0 0
487751.0 536580.0 0
492180.0 535816.0 0
497394.0 537325.0 0
2088.3 541560.0 0
6574.63 540681.0 0
10159.0 539150.0 0
12121.8 542041.0 0
16200.8 540762.0 0
20693.3 541053.0 0
25756.8 540757.0 0
30390.0 543484.0 0
32673.5 539068.0 0
36439.3 543784.0 0
41833.0 541187.0 0
46532.2 542160.0 0
50695.7 540427.0 0
56607.8 542111.0 0
65787.8 539990.0 0
70611.2 541270.0 0
75035.0 542696.0 0
78179.3 540881.0 0
81547.5 539774.0 0
85735.9 542661.0 0
90571.9 538119.0 0
90809.7 542439.0 0
95368.3 539922.0 0
101343.0 540690.0 0
98132.2 543125.0 0
108997.0 539138.0 0
114203.0 539572.0 0
118299.0 540589.0 0
122170.0 540929.0 0
124312.0 538475.0 0
127842.0 538844.0 0
132492.0 538777.0 0
130059.0 542477.0 0
137882.0 539597.0 0
133989.0 542699.0 0
142925.0 542698.0 0
148524.0 539276.0 0
153476.0 539617.0 0
151902.0 542855.0 0
156790.0 543028.0 0
162229.0 538963.0 0
167535.0 540976.0 0
173488.0 540704.0 0
177849.0 542609.0 0
182214.0 541979.0 0
187346.0 541069.0 0
193094.0 539654.0 0
198755.0 539964.0 0
202255.0 542143.0 0
205977.0 540007.0 0
210303.0 539454.0 0
214745.0 540828.0 0
219455.0 540852.0 0
224010.0 541688.0 0
228244.0 538438.0 0
233141.0 539776.0 0
237406.0 541263.0 0
241545.0 538922.0 0
245574.0 540532.0 0
249528.0 541860.0 0
253943.0 540556.0 0
260050.0 538957.0 0
266815.0 539511.0 0
272237.0 541507.0 0
277644.0 541239.0 0
281810.0 540644.0 0
285273.0 541236.0 0
289476.0 540835.0 0
294241.0 541812.0 0
299825.0 540559.0 0
306214.0 539621.0 0
315150.0 539498.0 0
311361.0 541229.0 0
318922.0 537940.0 0
318580.0 542077.0 0
323030.0 541866.0 0
327477.0 538845.0 0
333029.0 538064.0 0
336106.0 542104.0 0
331430.0 542487.0 0
342507.0 540641.0 0
347291.0 542469.0 0
351468.0 541453.0 0
355444.0 541347.0 0
356454.0 537838.0 0
359757.0 540564.0 0
365395.0 538914.0 0
370594.0 540710.0 0
374283.0 541311.0 0
377252.0 539415.0 0
381788.0 540949.0 0
386661.0 540459.0 0
390994.0 541646.0 0
396914.0 538674.0 0
395301.0 542563.0 0
399957.0 542452.0 0
403951.0 541274.0 0
408860.0 543176.0 0
414087.0 541904.0 0
422430.0 541282.0 0
418790.0 542326.0 0
426602.0 539534.0 0
431285.0 542167.0 0
434739.0 538968.0 0
436881.0 543013.0 0
444751.0 540808.0 0
449743.0 541818.0 0
453144.0 538700.0 0
456487.0 542088.0 0
460687.0 540117.0 0
464886.0 542151.0 0
468060.0 539217.0 0
470318.0 542961.0 0
475598.0 541464.0 0
480887.0 539546.0 0
482615.0 543117.0 0
486382.0 540407.0 0
491970.0 541045.0 0
497360.0 541640.0 0
3365.41 545975.0 0
8652.91 544506.0 0
12221.9 546134.0 0
17644.5 546164.0 0
22878.8 544518.0 0
26480.0 546233.0 0
32294.9 548682.0 0
41724.7 545624.0 0
42901.2 548389.0 0
46150.9 546860.0 0
50841.9 544895.0 0
54279.4 547378.0 0
59081.1 547828.0 0
62481.9 543722.0 0
67124.6 544335.0 0
71189.7 545880.0 0
75646.3 547575.0 0
80110.6 544500.0 0
84336.3 547646.0 0
89409.1 547047.0 0
94882.0 545684.0 0
100195.0 545613.0 0
105648.0 544187.0 0
111402.0 544126.0 0
115846.0 543404.0 0
119867.0 544795.0 0
125362.0 544865.0 0
131268.0 547642.0 0
137606.0 545827.0 0
147938.0 545014.0 0
143597.0 547979.0 0
152935.0 547237.0 0
158500.0 547691.0 0
162538.0 544508.0 0
167969.0 547189.0 0
170731.0 543969.0 0
173995.0 546572.0 0
179681.0 546614.0 0
185674.0 545205.0 0
190683.0 544361.0 0
196507.0 544401.0 0
202024.0 546186.0 0
205441.0 546253.0 0
208348.0 543516.0 0
212671.0 545009.0 0
217384.0 545179.0 0
222070.0 545884.0 0
228493.0 544074.0 0
233286.0 544028.0 0
237448.0 546453.0 0
241746.0 543572.0 0
246595.0 545572.0 0
251607.0 545611.0 0
257079.0 545756.0 0
263432.0 544852.0 0
268624.0 544349.0 0
272535.0 546573.0 0
277268.0 546169.0 0
282288.0 545013.0 0
286692.0 544607.0 0
290605.0 545136.0 0
293944.0 545226.0 0
297639.0 545750.0 0
303460.0 545584.0 0
309303.0 545538.0 0
314576.0 544020.0 0
318205.0 546440.0 0
322982.0 547052.0 0
327298.0 544472.0 0
336244.0 546783.0 0
331592.0 547345.0 0
339911.0 544680.0 0
344182.0 546202.0 0
349487.0 547496.0 0
353602.0 544982.0 0
357855.0 544876.0 0
362754.0 543959.0 0
364774.0 547320.0 0
367516.0 544032.0 0
372648.0 545183.0 0
377304.0 543650.0 0
380562.0 545324.0 0
386954.0 545452.0 0
392773.0 546540.0 0
397045.0 545474.0 0
400267.0 546644.0 0
404316.0 545146.0 0
408241.0 548427.0 0
413552.0 547619.0 0
417278.0 545267.0 0
421379.0 545344.0 0
426219.0 544181.0 0
428275.0 548614.0 0
429827.0 545582.0 0
433733.0 547889.0 0
438736.0 547049.0 0
441696.0 544310.0 0
446969.0 545978.0 0
452694.0 545533.0 0
457135.0 546157.0 0
460638.0 544314.0 0
464173.0 546355.0 0
468488.0 547401.0 0
473964.0 547415.0 0
479262.0 545323.0 0
485251.0 544548.0 0
483586.0 548166.0 0
489224.0 545901.0 0
494474.0 545570.0 0
498295.0 545370.0 0
497875.0 548746.0 0
3671.32 552277.0 0
8699.48 549167.0 0
13519.2 551249.0 0
18804.4 552540.0 0
22991.5 549318.0 0
27495.4 550701.0 0
38408.6 549717.0 0
44139.9 551854.0 0
50332.4 550203.0 0
55381.0 551640.0 0
60516.2 553102.0 0
64695.2 548580.0 0
65505.1 553018.0 0
70306.9 551217.0 0
75871.4 552617.0 0
79950.7 549700.0 0
79944.3 553570.0 0
83872.4 552405.0 0
88533.8 551943.0 0
93217.0 550612.0 0
98298.5 549783.0 0
103075.0 548826.0 0
108860.0 549760.0 0
115476.0 548404.0 0
118112.0 552604.0 0
120857.0 549369.0 0
121700.0 553455.0 0
125608.0 550635.0 0
134894.0 551241.0 0
139523.0 551229.0 0
148181.0 550068.0 0
144283.0 553041.0 0
152456.0 552163.0 0
157451.0 552193.0 0
162648.0 550324.0 0
167361.0 552712.0 0
171301.0 550706.0 0
175350.0 551539.0 0
183716.0 549569.0 0
179622.0 551358.0 0
188648.0 549085.0 0
194150.0 550622.0 0
199218.0 548901.0 0
203831.0 550370.0 0
209319.0 548879.0 0
214530.0 549011.0 0
218772.0 549537.0 0
216391.0 552489.0 0
222781.0 549949.0 0
226795.0 548608.0 0
232115.0 549230.0 0
238671.0 550603.0 0
242265.0 548516.0 0
247909.0 550296.0 0
253296.0 549827.0 0
257471.0 550605.0 0
260907.0 549401.0 0
267741.0 549277.0 0
272420.0 550961.0 0
276795.0 550773.0 0
281469.0 550083.0 0
289250.0 549545.0 0
285448.0 551237.0 0
293654.0 548520.0 0
293079.0 552771.0 0
298086.0 551410.0 0
303080.0 550690.0 0
308061.0 551086.0 0
313852.0 549326.0 0
319459.0 551231.0 0
327262.0 550046.0 0
331366.0 551762.0 0
335615.0 551229.0 0
340142.0 549246.0 0
345108.0 551484.0 0
350218.0 552744.0 0
355372.0 550142.0 0
360832.0 548081.0 0
359949.0 551660.0 0
364331.0 552025.0 0
368766.0 548711.0 0
373419.0 549963.0 0
376644.0 553039.0 0
377788.0 548277.0 0
380708.0 552089.0 0
382644.0 548416.0 0
385225.0 552512.0 0
389449.0 550200.0 0
397156.0 549720.0 0
393473.0 553300.0 0
403127.0 550639.0 0
407717.0 553125.0 0
411225.0 551789.0 0
415835.0 552936.0 0
418774.0 549077.0 0
422092.0 550778.0 0
424177.0 548379.0 0
425629.0 552377.0 0
430315.0 552408.0 0
434423.0 553047.0 0
438522.0 551180.0 0
442436.0 548694.0 0
442326.0 552699.0 0
446423.0 551272.0 0
451136.0 550166.0 0
455495.0 549562.0 0
453995.0 552965.0 0
457900.0 553165.0 0
460396.0 549061.0 0
465096.0 550196.0 0
469689.0 552869.0 0
474714.0 552224.0 0
478827.0 550382.0 0
483344.0 553240.0 0
487862.0 550900.0 0
493059.0 550079.0 0
497227.0 552826.0 0
3226.77 558342.0 0
9302.32 554774.0 0
14655.6 557032.0 0
19837.2 556856.0 0
23966.5 554424.0 0
28957.1 554909.0 0
34094.6 554177.0 0
39697.5 555063.0 0
43779.7 558281.0 0
48516.1 555426.0 0
52249.9 558327.0 0
56241.0 556382.0 0
63721.4 556053.0 0
67930.8 555529.0 0
72363.1 557297.0 0
77854.2 556859.0 0
82529.8 556811.0 0
91765.7 554867.0 0
87691.6 557062.0 0
96451.9 554537.0 0
101839.0 553600.0 0
99590.6 557476.0 0
106797.0 555191.0 0
103399.0 558373.0 0
111173.0 557812.0 0
113361.0 553410.0 0
116938.0 557443.0 0
125103.0 555464.0 0
130409.0 554268.0 0
136451.0 555870.0 0
141131.0 556138.0 0
144843.0 557699.0 0
148674.0 555107.0 0
153095.0 556765.0 0
157975.0 557400.0 0
162451.0 555471.0 0
166633.0 557546.0 0
171953.0 555561.0 0
177649.0 555844.0 0
183286.0 554864.0 0
189252.0 554460.0 0
194523.0 556722.0 0
199396.0 553814.0 0
203646.0 555162.0 0
207348.0 553862.0 0
212236.0 553645.0 0
216038.0 556276.0 0
220428.0 553824.0 0
225844.0 553666.0 0
230616.0 554118.0 0
235763.0 554516.0 0
241966.0 553905.0 0
246756.0 554174.0 0
250818.0 553621.0 0
255444.0 554108.0 0
260042.0 553495.0 0
264825.0 554105.0 0
269637.0 554059.0 0
274354.0 555325.0 0
279761.0 554595.0 0
284135.0 554898.0 0
288661.0 554433.0 0
286346.0 558140.0 0
295841.0 556712.0 0
304644.0 554088.0 0
300997.0 556036.0 0
305402.0 557987.0 0
309968.0 555904.0 0
314572.0 554754.0 0
319405.0 556481.0 0
324360.0 553009.0 0
328373.0 555297.0 0
333604.0 555582.0 0
340036.0 554898.0 0
346971.0 557194.0 0
353116.0 557176.0 0
359541.0 556383.0 0
365710.0 557544.0 0
369933.0 553654.0 0
370413.0 558237.0 0
373763.0 556299.0 0
377867.0 557879.0 0
382010.0 555921.0 0
386591.0 557911.0 0
389298.0 554224.0 0
391304.0 557302.0 0
395421.0 557935.0 0
398998.0 554592.0 0
404272.0 556235.0 0
412086.0 555072.0 0
409411.0 558120.0 0
415187.0 558502.0 0
421073.0 554584.0 0
426167.0 557620.0 0
431914.0 556738.0 0
437675.0 555676.0 0
444800.0 555637.0 0
450098.0 555504.0 0
455419.0 556923.0 0
462663.0 553962.0 0
459973.0 558038.0 0
464664.0 558327.0 0
469264.0 558126.0 0
474380.0 557009.0 0
479012.0 555018.0 0
484011.0 557795.0 0
487200.0 554886.0 0
491084.0 554048.0 0
494396.0 556166.0 0
498004.0 556737.0 0
2028.64 562915.0 0
9660.16 559830.0 0
6090.45 562790.0 0
13665.5 562639.0 0
18929.3 561376.0 0
22676.7 558638.0 0
23767.5 562292.0 0
26603.6 558752.0 0
31407.6 558879.0 0
33279.5 562689.0 0
36731.9 559562.0 0
44607.5 562680.0 0
40925.5 562107.0 0
48450.4 560863.0 0
55458.3 561396.0 0
60501.6 558598.0 0
59875.3 563275.0 0
65950.2 559842.0 0
76205.8 560398.0 0
73064.6 562624.0 0
80217.4 560793.0 0
84696.1 560762.0 0
89301.6 562515.0 0
93582.6 558949.0 0
94393.8 563570.0 0
98080.3 561107.0 0
107147.0 559464.0 0
102516.0 562842.0 0
113061.0 563074.0 0
122141.0 558636.0 0
119144.0 563125.0 0
127399.0 559280.0 0
124231.0 562467.0 0
132570.0 560090.0 0
137643.0 560698.0 0
142103.0 561595.0 0
145675.0 560874.0 0
149346.0 560080.0 0
154192.0 561255.0 0
158462.0 561820.0 0
162598.0 560237.0 0
170037.0 560090.0 0
174773.0 560579.0 0
179652.0 560108.0 0
183769.0 559844.0 0
188716.0 560112.0 0
193043.0 560805.0 0
199388.0 559080.0 0
203899.0 558715.0 0
209561.0 559437.0 0
214986.0 559860.0 0
217388.0 562644.0 0
219791.0 558795.0 0
224936.0 559095.0 0
230326.0 558821.0 0
235179.0 559944.0 0
239635.0 558694.0 0
245410.0 559244.0 0
252333.0 559218.0 0
258642.0 558357.0 0
263245.0 558179.0 0
267896.0 558852.0 0
272315.0 558973.0 0
277862.0 559416.0 0
282618.0 558677.0 0
290690.0 559419.0 0
286753.0 562625.0 0
295542.0 562278.0 0
300357.0 560619.0 0
309202.0 560168.0 0
314876.0 560805.0 0
320754.0 561294.0 0
324088.0 558063.0 0
330874.0 560247.0 0
336635.0 560069.0 0
341434.0 559656.0 0
344763.0 562427.0 0
350048.0 561112.0 0
356585.0 561999.0 0
362448.0 562026.0 0
368463.0 561386.0 0
373734.0 561180.0 0
378039.0 562380.0 0
382133.0 560685.0 0
392342.0 560880.0 0
388532.0 562672.0 0
396729.0 563059.0 0
400435.0 559353.0 0
401335.0 562669.0 0
406069.0 559118.0 0
405866.0 563155.0 0
412000.0 562897.0 0
420050.0 558955.0 0
423037.0 561823.0 0
418246.0 563308.0 0
427349.0 563639.0 0
430033.0 560552.0 0
435820.0 559920.0 0
438723.0 563075.0 0
441368.0 559147.0 0
446706.0 559717.0 0
452181.0 560855.0 0
457092.0 561275.0 0
461882.0 562076.0 0
467260.0 563043.0 0
471748.0 561005.0 0
475428.0 561868.0 0
479571.0 559446.0 0
483993.0 562668.0 0
489768.0 559508.0 0
496338.0 560755.0 0
2739.43 567159.0 0
9668.14 564462.0 0
12663.1 567507.0 0
17135.6 566233.0 0
21464.6 564649.0 0
24401.4 566410.0 0
28700.4 563631.0 0
27543.1 567714.0 0
31088.0 568436.0 0
37157.1 565610.0 0
42621.5 565993.0 0
47459.3 565777.0 0
51039.5 567751.0 0
51690.4 563947.0 0
55718.0 566989.0 0
61241.3 567973.0 0
64045.1 564376.0 0
66341.6 568205.0 0
68829.4 564030.0 0
72727.2 568654.0 0
77289.8 564450.0 0
82726.4 565331.0 0
87260.1 567149.0 0
92332.5 568433.0 0
98582.5 565929.0 0
103956.0 568359.0 0
107456.0 563595.0 0
110071.0 568015.0 0
114542.0 567611.0 0
118562.0 568374.0 0
123730.0 567432.0 0
128803.0 564405.0 0
135296.0 565886.0 0
141695.0 566925.0 0
146234.0 564262.0 0
151015.0 564937.0 0
156191.0 565968.0 0
161252.0 564782.0 0
165283.0 563735.0 0
164446.0 567985.0 0
169192.0 563896.0 0
173173.0 565321.0 0
178625.0 565245.0 0
184969.0 564768.0 0
193668.0 563783.0 0
190069.0 564685.0 0
198397.0 564652.0 0
202549.0 568042.0 0
204357.0 563445.0 0
213647.0 563126.0 0
209761.0 566439.0 0
215642.0 567014.0 0
221922.0 563421.0 0
222366.0 567215.0 0
227033.0 563791.0 0
232426.0 564237.0 0
238487.0 563613.0 0
242904.0 563697.0 0
241675.0 567803.0 0
247009.0 564948.0 0
250838.0 563952.0 0
254771.0 564833.0 0
252264.0 567765.0 0
259683.0 563528.0 0
264788.0 563502.0 0
270983.0 564231.0 0
276087.0 563642.0 0
276965.0 568042.0 0
281440.0 564176.0 0
286318.0 567760.0 0
290905.0 565040.0 0
299776.0 564877.0 0
305023.0 563635.0 0
310699.0 565419.0 0
315906.0 567139.0 0
321017.0 565996.0 0
325806.0 563254.0 0
330552.0 564952.0 0
334843.0 565032.0 0
339988.0 564672.0 0
347177.0 566758.0 0
351983.0 565341.0 0
357352.0 568057.0 0
362503.0 567011.0 0
366879.0 565356.0 0
371442.0 565138.0 0
375878.0 566373.0 0
380929.0 565490.0 0
385905.0 567382.0 0
392109.0 567056.0 0
397449.0 568268.0 0
400981.0 565818.0 0
410038.0 567714.0 0
415654.0 568116.0 0
422927.0 567105.0 0
432632.0 564149.0 0
429057.0 568808.0 0
436824.0 565763.0 0
442886.0 564394.0 0
448222.0 564508.0 0
453311.0 565940.0 0
458626.0 566042.0 0
463911.0 567484.0 0
468914.0 568419.0 0
472261.0 564954.0 0
475724.0 566171.0 0
479091.0 564272.0 0
482308.0 567161.0 0
488406.0 565492.0 0
492998.0 564546.0 0
494326.0 568364.0 0
497563.0 565673.0 0
3360.7 572468.0 0
7758.32 568870.0 0
11652.7 571931.0 0
16012.5 570861.0 0
20000.0 573506.0 0
20896.9 568827.0 0
25599.0 571441.0 0
34958.6 570294.0 0
31460.1 573231.0 0
40312.1 569886.0 0
44993.3 569867.0 0
42524.8 573261.0 0
52431.7 572243.0 0
58245.1 572237.0 0
63568.3 572480.0 0
68127.2 572229.0 0
78888.2 568964.0 0
76979.9 573709.0 0
84518.8 569237.0 0
82341.1 572251.0 0
87427.1 571851.0 0
98013.8 571668.0 0
102901.0 573471.0 0
107907.0 572767.0 0
113665.0 571879.0 0
119652.0 573090.0 0
124644.0 572587.0 0
130007.0 570454.0 0
136339.0 572568.0 0
140618.0 570930.0 0
146580.0 568857.0 0
143944.0 573133.0 0
152503.0 570152.0 0
148463.0 572602.0 0
160044.0 569044.0 0
163267.0 572573.0 0
169495.0 568732.0 0
173548.0 572687.0 0
175127.0 568514.0 0
178229.0 570670.0 0
182267.0 569152.0 0
187813.0 569807.0 0
193402.0 568366.0 0
198490.0 570247.0 0
202000.0 572611.0 0
206178.0 571475.0 0
213402.0 572182.0 0
217917.0 572442.0 0
219727.0 568687.0 0
222138.0 572455.0 0
226140.0 569369.0 0
231434.0 569210.0 0
236120.0 568318.0 0
238265.0 572718.0 0
242731.0 572189.0 0
246250.0 569752.0 0
252285.0 571432.0 0
256314.0 569248.0 0
261080.0 568536.0 0
266728.0 568719.0 0
272109.0 569984.0 0
281601.0 570481.0 0
290759.0 570575.0 0
295884.0 568362.0 0
302163.0 568995.0 0
307163.0 568905.0 0
308207.0 573311.0 0
311699.0 570343.0 0
315877.0 571932.0 0
320348.0 570884.0 0
325939.0 569427.0 0
331328.0 569377.0 0
337279.0 569980.0 0
342891.0 568777.0 0
347066.0 571782.0 0
352278.0 570760.0 0
361708.0 571293.0 0
365710.0 569777.0 0
370726.0 569890.0 0
375391.0 570851.0 0
379252.0 569682.0 0
383361.0 572357.0 0
389091.0 572583.0 0
394692.0 572277.0 0
399569.0 572204.0 0
404478.0 569697.0 0
412267.0 572067.0 0
416939.0 573609.0 0
420907.0 571575.0 0
424987.0 572279.0 0
432524.0 572459.0 0
434552.0 568876.0 0
437167.0 573185.0 0
439871.0 568631.0 0
445298.0 569259.0 0
450528.0 569811.0 0
452248.0 573407.0 0
455297.0 570551.0 0
460433.0 571379.0 0
465684.0 572422.0 0
473630.0 569326.0 0
470647.0 572814.0 0
478314.0 568937.0 0
476287.0 572873.0 0
481601.0 572738.0 0
485884.0 569598.0 0
490508.0 569549.0 0
494002.0 572630.0 0
497900.0 570152.0 0
1213.17 575697.0 0
7960.92 573583.0 0
8179.86 577892.0 0
13242.1 576542.0 0
17841.5 577371.0 0
23465.9 575436.0 0
27585.8 577139.0 0
33166.9 578160.0 0
37655.1 574537.0 0
42478.3 577759.0 0
46997.6 574493.0 0
50954.3 577244.0 0
55748.4 577067.0 0
60973.2 576725.0 0
66864.9 576950.0 0
71499.7 574437.0 0
74090.4 578350.0 0
79246.5 578513.0 0
85079.9 577403.0 0
90562.0 578591.0 0
92133.2 574172.0 0
95632.4 577791.0 0
100255.0 576724.0 0
105319.0 577530.0 0
110839.0 576230.0 0
114823.0 576256.0 0
118441.0 577284.0 0
122760.0 576931.0 0
129057.0 577652.0 0
134972.0 577532.0 0
140310.0 575792.0 0
147237.0 575813.0 0
143794.0 578147.0 0
151815.0 575795.0 0
157698.0 574030.0 0
162616.0 577584.0 0
168064.0 574063.0 0
178142.0 575228.0 0
183890.0 573788.0 0
187008.0 578421.0 0
189315.0 574262.0 0
193746.0 573774.0 0
198370.0 574865.0 0
203268.0 577075.0 0
209360.0 575206.0 0
212885.0 577849.0 0
217851.0 577186.0 0
222261.0 577294.0 0
228169.0 574377.0 0
233443.0 573436.0 0
231264.0 577883.0 0
236199.0 577690.0 0
241417.0 576720.0 0
248511.0 573517.0 0
253100.0 577604.0 0
256185.0 573431.0 0
258318.0 577519.0 0
260597.0 573549.0 0
262321.0 577389.0 0
265336.0 573906.0 0
270462.0 575120.0 0
276559.0 574016.0 0
281632.0 574862.0 0
286260.0 573660.0 0
292441.0 575492.0 0
298484.0 574360.0 0
303927.0 573468.0 0
306097.0 577637.0 0
312641.0 575453.0 0
318325.0 576245.0 0
323156.0 574652.0 0
327784.0 574716.0 0
333040.0 574346.0 0
337363.0 576577.0 0
341957.0 574224.0 0
346166.0 577605.0 0
350648.0 575703.0 0
357246.0 573502.0 0
361895.0 576846.0 0
367246.0 574117.0 0
372850.0 575761.0 0
378450.0 574280.0 0
382474.0 577279.0 0
387723.0 578331.0 0
397493.0 576649.0 0
392589.0 576307.0 0
402856.0 575995.0 0
407936.0 574344.0 0
412659.0 577251.0 0
417685.0 578583.0 0
421795.0 575956.0 0
426479.0 577809.0 0
428955.0 574055.0 0
433038.0 577469.0 0
442464.0 573903.0 0
439196.0 578490.0 0
447909.0 573934.0 0
445146.0 578680.0 0
451567.0 578558.0 0
457898.0 576596.0 0
463186.0 576394.0 0
468081.0 577486.0 0
473576.0 576675.0 0
478503.0 576812.0 0
482880.0 577484.0 0
486712.0 574660.0 0
490828.0 575155.0 0
493805.0 577415.0 0
497788.0 575327.0 0
3072.03 579041.0 0
1348.79 582786.0 0
6588.43 583187.0 0
11512.1 581514.0 0
17203.2 582563.0 0
22006.4 579175.0 0
24784.1 583445.0 0
29572.8 582107.0 0
34431.7 583379.0 0
37890.3 579863.0 0
43467.4 582637.0 0
47197.2 579685.0 0
51656.9 581871.0 0
57003.1 582446.0 0
62400.8 581666.0 0
67014.1 581864.0 0
71323.7 582501.0 0
76417.5 582744.0 0
82173.0 583682.0 0
88109.6 582087.0 0
93413.5 582409.0 0
99198.0 581586.0 0
104522.0 583148.0 0
109794.0 580979.0 0
115110.0 580707.0 0
120313.0 581423.0 0
125284.0 582815.0 0
134046.0 581890.0 0
138878.0 580003.0 0
147507.0 578779.0 0
143318.0 583409.0 0
151854.0 581534.0 0
157680.0 580355.0 0
163176.0 582512.0 0
167434.0 579022.0 0
173135.0 578884.0 0
177770.0 578804.0 0
177662.0 582478.0 0
181614.0 578711.0 0
186559.0 583049.0 0
193131.0 579615.0 0
199510.0 578941.0 0
203595.0 582196.0 0
207722.0 579289.0 0
213186.0 583046.0 0
217976.0 582197.0 0
221990.0 582105.0 0
226262.0 578721.0 0
225722.0 583015.0 0
230697.0 583367.0 0
236465.0 582890.0 0
242316.0 582618.0 0
246999.0 578440.0 0
256685.0 582016.0 0
266541.0 578740.0 0
273816.0 578944.0 0
272241.0 583371.0 0
278414.0 579248.0 0
282249.0 578332.0 0
283012.0 582614.0 0
286665.0 578835.0 0
290710.0 579940.0 0
295830.0 580268.0 0
300880.0 583135.0 0
301708.0 578571.0 0
310172.0 579330.0 0
314630.0 580651.0 0
319631.0 581272.0 0
324944.0 579804.0 0
330641.0 579036.0 0
335223.0 580435.0 0
341174.0 580845.0 0
345997.0 583514.0 0
350033.0 581050.0 0
355572.0 578702.0 0
360657.0 582933.0 0
367852.0 580017.0 0
377572.0 580835.0 0
383654.0 582001.0 0
390296.0 583052.0 0
394651.0 580814.0 0
400740.0 581081.0 0
407937.0 579159.0 0
404501.0 579534.0 0
406477.0 583787.0 0
412768.0 582531.0 0
417561.0 583194.0 0
421748.0 580873.0 0
426409.0 582985.0 0
431023.0 582118.0 0
435544.0 582260.0 0
441513.0 583695.0 0
446421.0 583548.0 0
456377.0 582121.0 0
461184.0 581152.0 0
466187.0 583105.0 0
472521.0 582419.0 0
478625.0 581906.0 0
483313.0 581487.0 0
488210.0 579560.0 0
492802.0 582716.0 0
497580.0 579926.0 0
2280.45 586217.0 0
5942.36 587470.0 0
10993.4 587401.0 0
22688.9 587823.0 0
28591.7 587284.0 0
34023.3 588788.0 0
39211.0 584145.0 0
39429.5 588951.0 0
47682.2 586422.0 0
53582.8 586628.0 0
58600.7 587635.0 0
63886.1 586870.0 0
68619.8 586066.0 0
72990.9 586980.0 0
77617.1 587188.0 0
84003.4 588316.0 0
87230.7 586355.0 0
92367.0 587471.0 0
97698.0 586888.0 0
102359.0 587322.0 0
108816.0 586217.0 0
112927.0 584604.0 0
117094.0 585327.0 0
122095.0 585735.0 0
126992.0 586904.0 0
129627.0 583599.0 0
132988.0 587527.0 0
138102.0 585045.0 0
148139.0 585022.0 0
154353.0 586657.0 0
159468.0 585513.0 0
167519.0 583569.0 0
172184.0 584776.0 0
182324.0 583624.0 0
190554.0 585131.0 0
198092.0 583896.0 0
208208.0 583863.0 0
248026.0 583939.0 0
252382.0 583297.0 0
261156.0 583930.0 0
266663.0 584525.0 0
277649.0 584433.0 0
288273.0 584230.0 0
293206.0 584690.0 0
297102.0 586146.0 0
307201.0 583969.0 0
313032.0 585547.0 0
318104.0 586005.0 0
322379.0 584320.0 0
326622.0 585478.0 0
331396.0 583936.0 0
336569.0 585496.0 0
341709.0 586794.0 0
346069.0 587473.0 0
350585.0 586437.0 0
355417.0 584522.0 0
359064.0 587779.0 0
364138.0 586847.0 0
367864.0 585066.0 0
372180.0 584129.0 0
371743.0 588601.0 0
376221.0 586207.0 0
380854.0 584945.0 0
386376.0 586360.0 0
392564.0 587556.0 0
397175.0 585192.0 0
402002.0 586130.0 0
405873.0 588754.0 0
410724.0 587277.0 0
416387.0 588430.0 0
421836.0 585886.0 0
426403.0 588161.0 0
431558.0 586872.0 0
437114.0 586917.0 0
442276.0 588926.0 0
446810.0 587829.0 0
451525.0 585204.0 0
456634.0 586725.0 0
461419.0 586260.0 0
465956.0 588383.0 0
471159.0 588546.0 0
476605.0 586946.0 0
481644.0 586206.0 0
486957.0 584909.0 0
491356.0 587911.0 0
497910.0 584373.0 0
495501.0 587553.0 0
17358.1 589003.0 0
43780.8 589961.0 0
453864.0 590588.0 0
487613.0 589974.0 0
POINT_DATA 5000
SCALARS Radius float 1
LOOKUP_TABLE default
5073.35 5415.48 5120.0 3863.18 6182.6 2356.98 5258.36 5061.3 3163.97 5812.43 5580.89 6810.52 5840.26 5670.04 4834.9 5085.53 4998.37 5492.18 5351.6 5867.73 3951.75 3642.12 4499.64 5542.27 5906.14 7513.1 5254.28 4436.4 4182.53 5733.48 3588.44 5645.7 5553.16 6110.27 4008.92 5561.06 6044.04 5484.83 4715.55 5013.56 4375.68 5054.98 5484.19 5122.66 3557.27 4688.68 4402.52 4517.56 4672.91 5903.42 3761.32 5176.86 4366.19 4118.05 3672.51 2938.66 5065.13 4940.78 3615.22 4380.59 6716.79 3850.77 5325.36 5538.89 4730.36 6059.59 5701.86 2720.68 4238.81 4468.59 6030.06 5170.02 4927.31 4862.64 5185.34 4432.58 3955.56 5292.64 2635.86 6166.5 5936.02 5305.17 7613.27 5546.39 4133.88 6759.9 7021.47 5926.61 4955.55 6051.14 3563.63 5836.15 4345.55 5885.03 5325.02 2837.58 5200.76 5246.2 5017.13 5205.43 3673.74 6684.56 3968.64 4385.06 4688.67 4290.3 4861.08 4231.61 3942.53 3379.84 3607.45 4951.03 4094.62 5945.65 5418.62 5493.32 5416.38 5740.68 4195.44 3261.21 6704.06 3653.41 3871.88 3856.01 4390.66 6116.18 4827.23 7447.37 4924.6 7184.19 2924.37 3867.67 4003.05 4827.82 3589.27 4333.2 4665.12 6483.19 4927.02 6230.49 4174.52 4601.27 3641.64 4277.89 5747.75 5539.32 6496.85 5600.93 5541.59 4124.71 5279.39 4911.47 5803.39 4381.97 4733.32 3255.82 5242.73 2899.43 2812.98 4065.69 5399.73 4805.87 4712.33 5759.91 5227.21 3038.33 3260.67 3936.02 3383.4 3856.1 5980.74 5109.54 7054.71 5489.43 5054.25 4796.33 5360.19 4794.96 4874.39 4839.34 2980.99 5083.08 5728.85 6337.56 5863.59 3998.5 6257.19 4737.14 5603.15 5390.22 4695.45 4660.72 6038.78 3997.1 5123.52 4295.38 4780.03 4044.71 3829.13 5816.2 3091.3 6458.82 5527.54 5573.7 4727.62 7325.81 6425.26 6186.19 4840.01 6834.49 5525.39 5938.34 4024.3 5555.28 5169.36 4686.65 5556.96 3888.21 5697.78 4667.36 4392.68 5495.39 3554.9 3996.0 4487.31 4002.16 5693.81 5789.98 6138.47 5697.4 5206.78 4055.8 5280.17 5028.96 5143.58 4484.76 5611.2 7933.0 5173.87 6394.38 5118.27 5932.23 5834.74 6052.7 3921.18 6902.81 5529.52 5252.48 4015.92 2540.31 4778.34 4138.16 4684.5 6029.66 6302.8 4270.95 4005.44 5555.88 6732.43 6362.12 3866.16 5152.36 4511.82 4220.65 5826.64 4455.12 6820.42 4894.16 5380.13 4896.52 5711.87 5791.61 5788.23 5581.75 3798.62 3666.57 5891.05 4254.17 4091.31 5615.42 7199.21 6124.89 5708.81 5043.05 3486.22 5120.49 4414.54 5409.61 5262.61 6038.2 5713.22 5861.71 5017.78 3183.98 4524.28 3794.63 3778.1 4727.24 6959.81 4816.2 6321.41 3372.79 4941.22 5282.64 4479.66 3369.13 6392.01 6644.76 4523.7 6372.62 5255.32 4049.23 4929.8 5337.48 5481.78 5542.21 4937.14 5924.89 5551.36 6894.71 5201.36 4306.53 5094.81 5972.06 6135.57 4312.67 4359.04 5015.69 6175.81 6677.09 4829.35 5813.4 4089.76 4751.02 5184.56 3192.41 4987.87 4715.72 5367.2 5308.1 3043.85 6730.19 4937.02 6037.08 7565.34 6756.95 6324.23 4382.74 4651.28 5601.05 4516.43 3586.91 5637.59 3103.0 4948.92 3115.91 3307.12 6084.86 5478.92 4467.94 4850.81 6038.14 4723.12 5024.9 5659.17 4562.29 5998.38 5423.8 4270.24 4989.15 3417.33 4947.52 4164.13 4520.1 4305.57 5874.89 4293.03 3791.79 5201.67 4754.05 4424.7 5526.55 3315.57 6084.93 4669.66 4764.96 4808.52 5461.13 3599.45 4907.89 5091.39 5629.19 5090.24 2240.39 5923.5 4727.24 5096.78 4612.68 5293.9 3320.52 4129.43 4685.34 4151.94 5927.43 4384.42 6355.42 5690.56 4362.19 3693.63 4493.48 4749.8 3937.74 5810.84 5094.44 4655.49 4933.21 4566.18 5375.47 4964.09 4809.42 4717.05 5287.2 4234.94 5013.13 5080.66 4926.42 4642.34 5248.77 4083.97 5153.74 4165.81 4528.09 4389.21 4128.98 4925.44 4951.47 5246.61 5215.15 4307.28 5046.33 5804.71 5607.24 5053.92 4726.76 5655.21 5839.13 3735.44 4786.6 4073.93 4645.41 5740.84 5530.87 4973.83 3912.37 6142.94 6342.25 3843.58 4931.38 4736.58 4329.05 6082.81 5110.37 6327.9 5492.26 5244.78 5762.84 6640.13 5478.47 5082.6 6142.37 4230.54 6061.47 3748.24 6163.38 4997.27 3459.9 4093.08 5543.27 5856.11 3327.49 4109.88 3960.8 4980.85 5714.58 5110.45 3329.99 5208.32 3296.27 3895.51 4607.02 3556.85 6673.96 6291.51 5882.89 6246.22 4188.32 4100.38 4739.42 5538.93 5020.12 5727.3 4242.52 6352.26 3057.03 3847.38 5356.51 4907.06 5163.9 5495.68 4433.59 6043.3 6445.94 4281.49 4310.18 4320.28 4218.06 5542.14 6691.39 7134.64 4602.25 4194.5 4501.51 4792.73 5513.6 4901.41 3485.26 4556.36 3240.09 3191.99 5664.98 4659.59 4048.37 4220.88 6519.71 3092.35 5210.03 5351.39 5119.37 3982.23 5806.08 5243.29 4853.39 4449.22 3130.65 5365.89 5628.24 5992.26 5070.39 4923.9 4613.31 4973.78 3947.47 4713.25 5091.68 4204.84 6243.0 5048.89 3991.03 5441.96 3435.9 5174.89 4288.3 5370.52 4652.29 5774.81 3697.96 4723.48 4899.11 4745.45 5281.28 2631.9 3818.59 4087.15 4863.72 5489.34 5002.48 5708.14 5952.75 4262.82 5537.72 3920.42 6332.36 4931.53 6122.55 5480.13 4270.53 4790.08 5978.9 5082.47 5191.63 5344.25 5344.0 4043.57 5925.6 5379.87 3708.04 6013.14 4602.86 5138.31 4621.75 5264.06 3369.23 4551.24 5358.59 3688.8 4548.16 4515.71 5449.18 5367.52 4322.15 4714.54 3629.96 3320.11 5030.91 5507.24 6022.17 6851.54 4583.31 4503.89 4336.42 4306.11 3402.32 7589.94 5004.67 5409.33 4466.03 4511.54 4898.94 5196.0 4733.04 4178.15 6119.09 7531.29 5069.25 5935.03 3161.47 6390.78 7435.25 6826.57 4788.87 4495.87 3746.31 5344.77 5027.98 5097.87 4278.07 7267.18 6475.1 6255.18 4143.08 4758.21 7500.97 6623.85 5228.18 5102.36 8332.24 2739.94 6155.31 4187.56 6308.71 3629.62 4840.84 4997.27 4301.06 4716.19 5135.69 4593.7 3456.98 6045.46 4763.45 4150.99 4107.03 3771.48 4478.15 5681.38 5147.67 4138.42 5987.17 3979.82 2765.2 5006.58 5586.81 4581.13 4219.07 3856.59 3610.4 6387.01 5413.79 6202.55 5025.39 7111.16 5893.5 3817.13 4547.19 4377.07 5101.59 3813.22 5570.3 5935.47 5903.66 5313.66 4528.49 5419.37 5275.32 5985.29 4247.23 4268.65 4694.83 4354.08 5788.66 4520.62 5229.48 3903.75 4755.47 5475.7 4485.99 5475.8 5314.69 6050.81 5543.46 4249.46 6022.72 5498.32 5527.33 5346.27 4969.21 2691.29 6256.02 4277.88 4668.71 7228.46 6362.14 3948.23 6719.88 5787.31 4342.9 5065.11 4223.33 4553.56 5911.67 5329.64 5514.76 6695.82 6405.76 4290.14 3815.26 4877.67 4020.32 5445.87 4216.92 4704.72 4571.7 4177.94 4742.68 5922.5 3929.19 4271.69 3633.87 3970.25 5198.77 4850.01 4292.06 5643.58 5577.04 5011.31 6318.18 4481.53 3948.17 5077.33 4746.52 5572.95 6338.89 6723.16 5584.06 3686.21 6480.17 5023.15 3695.36 3844.9 4564.34 3963.86 3848.93 5076.35 6020.48 5200.05 4091.8 5234.29 4645.58 2651.49 5512.23 4711.62 5349.31 4649.22 2976.22 5394.55 5509.42 4256.43 5936.36 2682.24 5928.32 5415.19 4016.18 5127.16 5435.74 4244.99 5327.45 5560.26 5965.81 3702.37 4643.31 2330.66 4177.19 6917.52 3691.0 5402.21 2845.98 4880.14 4982.31 5320.92 5269.18 4406.1 5034.59 5978.82 4942.77 5069.84 3927.99 4051.44 5868.82 3323.28 4050.9 6049.55 5709.62 5835.78 3498.2 5941.72 5794.24 4245.72 6562.18 5908.1 4541.21 4344.58 6048.7 5634.83 5896.46 5495.84 4862.21 5113.21 4502.5 5499.11 5347.48 2775.04 4810.12 4138.46 5215.05 3821.72 6035.6 4986.77 5137.34 5423.0 5330.45 5125.78 3689.45 3824.16 5045.38 3868.18 5130.91 5372.61 4948.5 5402.24 4519.22 6445.22 3838.56 4871.44 6248.81 6375.99 5273.35 6259.23 5181.4 5670.2 4662.56 3457.48 4114.24 5166.79 5417.15 3688.16 5094.52 4946.74 5996.33 3950.63 4612.62 5526.75 3619.07 4275.57 6385.23 2614.4 2983.99 6185.89 3997.96 4750.17 5660.85 3460.94 3990.25 6184.4 3758.07 4752.51 4373.45 3587.05 6229.37 4989.09 5289.52 6718.19 4307.48 5314.85 4305.43 5450.44 6510.17 5080.18 5266.5 4263.33 4454.63 4523.88 4066.38 4241.89 3279.1 5054.74 4981.9 4537.32 3066.13 4127.74 2476.04 4156.38 4302.5 5105.16 6009.88 6006.16 4164.68 5316.75 6268.1 5022.8 3784.5 6133.92 3719.84 4178.4 7034.11 5782.6 4011.77 4527.08 6261.42 4374.35 5965.78 6396.74 6898.19 5526.14 5198.29 6449.45 4044.45 3975.31 5344.43 5262.19 4373.47 6070.58 6034.41 5350.88 5452.83 4959.34 5383.07 4527.02 4531.14 4247.15 5013.42 4602.85 5651.07 4962.77 5872.05 4853.02 6101.92 5323.3 5088.44 4635.6 4998.21 6079.11 3931.07 3405.98 6430.39 7440.72 4681.72 3949.6 4945.39 6326.18 5661.62 6631.19 4467.04 6648.68 5626.61 5817.25 6363.92 6205.93 4439.35 5830.72 3828.81 5309.98 4236.14 5733.62 4407.87 3848.54 5282.91 5941.4 4425.84 5331.02 4871.96 5742.65 5592.32 5912.61 4978.31 5381.16 4099.77 4403.98 4948.98 4414.48 5227.52 5163.02 4656.78 4092.24 5991.09 5126.91 4678.38 5448.61 5050.65 4827.33 7055.53 5513.57 5013.67 5669.65 5729.23 5934.22 3780.23 3471.03 5253.55 4359.62 5820.48 6057.22 2586.12 6946.21 5433.8 6125.34 5975.63 5252.34 4410.55 2965.79 7099.43 4287.63 5315.4 4516.28 3627.82 5678.96 4244.9 4285.32 5490.43 4986.51 5022.28 5197.52 5178.99 4790.78 4591.87 6422.84 6552.22 4502.18 5379.09 5210.48 7552.94 4051.34 3627.55 6239.84 4256.67 5865.39 4427.28 3082.32 3658.37 5949.46 4765.02 5376.71 5703.6 5070.29 4867.08 4807.28 4266.03 5075.55 5280.69 4220.03 4713.74 5407.78 4084.49 5061.98 6632.99 6179.96 4537.6 4923.24 5147.36 4419.61 7177.44 4563.46 4082.57 6553.94 5255.18 5169.9 5282.51 3004.16 7256.35 3797.33 4105.55 4863.23 4800.69 6566.1 4402.67 3555.86 6386.78 5565.13 4560.84 6086.96 4729.43 4562.74 3701.27 5233.78 4806.34 5776.57 3942.07 5133.97 7443.72 6600.94 3937.08 5371.02 5260.34 6155.1 5206.48 4709.35 6586.45 5826.04 5624.49 3095.48 4166.08 3979.26 6608.73 5188.81 3745.84 4730.41 5011.84 5696.88 5690.26 4156.2 5062.71 4497.59 4289.17 5564.02 4274.61 6314.07 5776.37 3921.08 4190.31 5486.68 6048.86 5100.25 6894.26 5311.03 5339.38 6169.11 5615.35 4896.11 4027.09 5172.53 4135.62 5801.99 5534.94 7644.38 6004.68 6799.4 4409.63 5521.25 3661.9 5107.23 5370.85 5136.08 3178.54 5558.68 3776.94 5629.39 4448.13 2684.03 6157.04 4768.61 2261.36 4522.21 5506.19 6719.94 6923.84 5449.46 5703.07 6113.54 4662.43 6260.79 4043.66 3963.76 5528.53 5726.66 5460.65 4460.92 4767.78 5945.89 5235.17 4042.28 4779.5 4340.76 4435.36 6065.22 4221.28 4470.61 4996.99 6193.35 4631.83 6887.27 6008.49 5653.9 7144.24 5598.74 3600.43 4906.82 4788.58 5131.24 5196.67 5876.71 6496.67 5474.8 5226.0 4373.3 5339.78 4750.78 4861.06 5762.59 6481.79 5320.28 4796.58 5960.66 4298.67 3999.48 4962.09 5654.31 4203.26 4643.85 3923.03 4004.04 5607.14 6072.45 6915.83 4027.46 4470.98 6444.77 5759.46 5083.41 7055.42 5683.61 3836.45 5805.86 4049.02 4470.4 5346.68 5296.29 4611.53 5255.12 5094.48 4285.66 3872.61 4238.4 4318.48 6132.95 5266.22 4860.33 5226.97 3685.13 3312.06 5754.18 3361.26 5180.76 3418.99 4480.95 4993.35 5278.36 6218.95 5222.16 5533.72 5533.42 4802.32 4010.57 4599.38 5246.47 4187.31 6191.29 7422.36 5161.01 4298.15 4950.67 4628.4 5227.59 6166.29 5453.6 5409.63 5294.77 3077.84 4709.05 4630.82 4813.08 6799.88 4540.86 3062.43 5426.78 2967.38 5652.0 5463.41 4421.12 5225.33 4929.75 5254.49 6649.96 4456.39 4303.19 4896.39 4384.88 3633.79 6081.14 5480.83 4220.46 4607.85 4287.53 5683.26 5612.21 5046.21 5894.61 5687.83 5004.23 6442.69 6320.71 4648.04 3527.05 6262.72 5029.78 6607.87 5374.51 3365.82 3664.11 4163.5 7092.87 5224.12 4850.14 3637.61 5463.38 4569.12 6098.14 5750.71 5873.69 4472.17 6222.42 5470.77 6062.05 5082.74 4735.33 5411.85 4844.57 3999.94 6171.13 5092.37 2395.5 3901.8 5511.88 4864.22 5941.61 4512.11 4933.65 6248.6 5443.58 5687.85 4558.46 6401.43 5020.71 2681.29 5997.88 5839.71 5576.92 6408.83 3930.79 5365.24 4004.35 4763.96 5008.63 4270.74 5132.68 6293.89 6595.03 4983.39 5366.52 4690.55 5146.37 7132.12 3678.08 4836.16 5518.57 5463.48 3240.51 5730.33 4527.99 4376.7 5190.61 5832.37 3764.06 6051.83 4642.93 3973.12 4263.16 6024.75 6109.49 5860.67 5987.42 5990.52 3764.1 4835.83 4159.35 5604.35 6477.91 3091.67 4237.98 6439.37 6045.22 4081.97 4614.3 5134.39 5514.84 5784.3 4256.57 3914.2 5421.53 6088.68 5937.08 6070.3 5128.57 4929.14 6000.7 5945.08 3979.54 5139.5 7493.3 4968.03 4814.55 5833.06 5698.77 3464.83 6515.84 4143.78 4123.6 4538.95 5724.64 4970.88 5965.15 4763.66 6739.08 7042.12 4797.52 6343.14 5501.93 4471.58 5462.21 6313.06 5945.21 3493.7 4938.74 4200.03 6470.3 3474.39 4831.47 5516.95 6939.12 5563.79 4413.85 4406.4 3905.51 6853.85 4020.4 3497.9 3493.47 4596.75 5782.48 4031.78 5950.04 6098.1 5708.99 4231.83 2435.33 6333.29 4558.47 5731.57 5662.55 4360.23 5737.92 3755.95 6234.32 4585.31 4586.19 5293.51 3450.93 4446.06 5323.91 5097.45 4185.61 5737.75 4558.15 2761.07 3778.02 6552.21 5417.8 5227.02 4350.12 5670.0 4232.16 5300.96 5151.11 4344.51 5680.94 5581.55 5545.46 4543.1 5193.01 6550.44 3474.5 8325.01 5732.27 4440.81 4523.39 5941.9 5434.47 6642.76 5829.22 4497.78 4243.79 5567.93 5811.18 5433.65 5332.65 6451.33 5413.31 6316.56 4332.87 6420.81 4715.58 5401.99 3317.83 5580.92 5769.98 3532.3 3583.21 2221.99 4643.56 5442.32 5067.46 4135.08 4863.01 5620.74 5233.29 5604.21 3169.67 4312.56 4612.06 5204.04 5304.13 3361.92 3306.14 5944.09 4863.79 5490.58 4702.06 5395.14 2477.07 5117.47 4923.41 4497.31 4925.63 2990.77 3163.78 4888.6 4305.16 3293.56 4666.81 5882.65 5078.86 4780.2 5163.55 6326.39 6817.32 4319.79 5960.56 6643.85 5774.97 4020.95 5862.86 6049.79 5374.98 5226.56 6345.13 5274.19 5599.49 4097.57 4719.7 5313.22 5328.22 4151.76 4216.17 6484.17 4721.02 4254.37 3546.71 5768.57 3374.08 5564.23 3735.24 6574.95 4074.48 3614.96 4477.04 3886.68 6853.04 4745.43 5703.74 4747.55 5831.96 3056.7 5464.68 2685.81 5591.76 4510.8 5889.35 5010.04 6625.18 4394.56 4570.98 4275.07 5825.38 4573.72 4047.87 5099.21 5742.47 4917.99 5636.4 4367.78 4095.75 3603.51 4298.45 5222.51 6609.84 5135.96 3781.77 3834.43 5658.37 4707.06 6074.94 5491.37 3860.83 4250.88 6348.03 3475.67 4792.39 5278.56 5146.37 6917.62 4013.38 5631.14 6137.8 4343.78 5263.3 4442.22 4008.15 4887.76 4669.06 3012.99 4811.32 6400.08 4743.59 5208.14 5151.52 4450.7 3763.05 5973.33 5092.24 5369.08 4347.74 4518.04 5291.9 4009.62 3580.58 2081.58 5356.79 2511.46 4011.37 4778.82 5657.36 6124.08 5467.84 4750.58 5053.95 6710.88 3967.48 6667.68 6213.04 4721.32 3830.46 5092.28 6413.11 4739.14 5274.14 4918.77 4434.19 4636.5 4819.73 3382.7 4940.42 6471.55 3954.91 5085.71 4946.42 5923.4 2965.01 6263.44 4863.27 4584.5 5122.63 2315.64 6766.43 4703.08 4390.41 4890.5 4050.08 6113.95 5452.42 4901.07 5186.3 5017.5 3436.15 5005.85 5711.11 5325.44 4575.94 5021.88 4938.72 4597.29 5956.65 4188.87 4498.25 5931.77 5151.21 5398.64 3573.73 6817.57 4693.52 4568.41 3624.7 3420.08 4912.04 4691.91 4539.07 4475.83 5064.79 5480.3 7509.24 5896.26 5388.78 6101.13 5599.7 4163.74 6969.28 3665.95 5698.96 3319.67 6471.42 5283.8 4076.59 5164.1 6464.15 4972.17 4479.11 6685.4 5699.53 4222.77 3783.54 5268.38 5527.23 7038.89 3863.67 4814.12 6193.08 5067.56 6069.3 3352.35 2735.53 5116.6 4909.65 6523.86 7693.4 4286.49 4326.48 4437.07 6184.88 3449.37 5491.9 4396.25 5829.32 6405.0 5551.95 3918.87 5549.49 3101.75 4766.06 5423.42 4874.18 6605.86 2775.69 6505.78 4785.25 3619.79 6519.43 5029.47 5876.64 6306.21 5926.11 5253.37 5211.38 5235.11 6031.67 6515.8 5529.42 5384.76 5257.12 6138.12 4903.82 4428.78 5100.1 5746.28 4371.99 3703.1 5187.7 3561.29 6090.91 4152.85 4623.61 4082.47 3295.83 4219.78 4963.34 5499.39 5644.82 6413.02 4440.57 6235.57 3492.19 5203.08 5412.31 4118.84 5548.29 3623.87 5916.16 5163.77 6934.37 6027.62 3731.84 4488.85 3423.15 3981.07 4579.69 3554.48 6496.52 5966.61 3991.42 4893.49 4834.87 5102.75 3672.21 5760.22 4200.09 5938.17 4795.43 5097.95 5108.06 4914.45 4222.4 4698.87 4000.43 3984.88 4661.03 5160.59 5262.35 4281.98 4320.42 4255.34 7165.9 5344.83 7046.11 3427.63 4863.97 4146.81 6342.48 5756.75 5093.82 4587.67 5951.81 3924.14 6918.35 4296.69 6238.32 6804.79 6372.13 5369.5 4428.14 5404.01 6016.19 4124.49 3230.13 5714.25 5325.96 4850.06 6332.01 7044.29 4805.33 4234.18 7085.01 5980.95 6836.82 3862.77 5887.01 4631.99 5168.35 2783.85 3747.03 5388.39 4356.49 5335.47 4526.81 3994.07 4219.94 5907.46 4264.91 4659.16 5399.29 5789.55 4633.05 2275.45 4901.2 6522.59 5012.5 5435.19 5461.55 3562.79 4270.15 3298.2 5424.46 6865.76 5266.01 5767.9 2978.76 2040.66 7016.27 6622.11 5089.62 4689.15 4965.89 6790.73 5659.95 5243.43 4741.26 5920.32 5409.66 4186.6 4537.14 5551.9 5251.4 3867.19 4188.3 4453.64 5081.78 4459.28 5019.93 5235.29 4255.31 6116.33 4260.92 4479.94 6250.23 4407.9 4718.54 6736.03 5374.07 3087.09 7480.41 3766.55 5683.95 5469.13 5010.2 5765.42 6098.95 6123.03 4997.83 4388.63 3718.69 6192.0 4514.79 2216.82 4940.28 4509.89 5885.28 6752.75 3004.34 5269.38 3022.6 2928.82 5607.3 4811.76 5313.12 5351.56 3344.57 5318.53 4732.09 5220.76 6945.98 5138.2 5783.48 4701.5 4449.98 4771.65 5589.37 4840.44 5439.49 6639.64 5212.43 3687.65 4834.3 5454.12 5478.95 6348.54 4066.57 5642.35 5156.76 6357.47 6101.57 4891.38 5535.91 4793.65 5955.86 4532.89 6176.67 4533.37 4848.46 5412.24 2779.99 5016.02 4581.37 4920.21 4049.16 5851.61 3936.95 6153.94 5478.11 5526.31 3858.17 5030.15 3477.1 4740.98 3185.39 3728.18 5128.77 7122.87 5633.61 5048.19 4243.26 6799.23 4888.27 6740.71 6487.56 4854.11 5971.22 4909.31 5417.21 5711.62 4383.56 4798.17 4990.79 7093.13 5166.79 4516.53 4953.1 2895.63 5818.95 6449.64 4093.99 3940.49 4857.84 6464.8 4908.49 4684.44 4962.21 5884.9 3685.13 3468.42 3685.65 4590.55 4673.35 4655.16 3876.21 5869.4 4916.22 3701.16 6022.7 4345.67 4255.85 5511.6 5097.69 3885.86 6261.75 4517.73 5177.64 3757.34 6415.61 4338.08 5660.16 4541.8 6134.99 5453.3 5424.88 3838.47 2588.37 4062.5 5887.15 4435.51 5415.85 7234.66 8659.64 4055.54 4588.7 4886.12 6419.12 6107.89 4233.8 4976.12 5530.49 4817.16 5660.55 5453.98 5148.08 5653.03 5578.94 7610.49 4286.17 6579.31 5323.55 5375.1 3804.5 4172.6 5498.42 4196.37 6448.66 3556.79 4453.97 7317.04 6412.67 7001.83 4504.35 4593.7 5012.97 4036.91 5110.11 6379.14 5216.26 4887.52 3851.85 6318.23 4058.87 4206.98 5174.75 5932.07 4984.46 5948.71 3856.53 2949.12 5460.89 6040.74 5260.85 5742.09 2884.65 5887.38 5807.46 6942.34 3658.05 4549.69 6423.81 6192.77 3644.78 4312.15 4078.93 5934.82 4501.78 4922.49 3572.94 5797.36 5001.58 4153.84 5119.86 4592.15 5084.17 4901.44 3776.8 4998.22 5533.19 5096.43 6156.21 6602.43 3568.28 5425.98 5996.66 6479.39 4122.92 4997.91 5079.22 3604.14 4452.54 4406.05 4749.59 4858.44 4680.94 5799.69 5828.35 5571.72 5689.26 4992.42 4771.13 5297.19 7051.9 5895.77 4940.84 4608.41 4765.72 4732.09 3988.3 5857.79 2908.7 4039.91 6136.49 4642.66 5276.7 4752.14 4378.3 4419.71 5037.06 4950.97 5175.29 4863.96 5842.56 4094.73 5191.08 6200.54 4199.45 5148.58 3548.39 5421.64 4858.51 4207.54 6599.66 3375.28 5625.65 4936.96 4301.61 4481.76 3184.64 5206.33 5452.78 4446.84 5065.26 4304.41 6789.23 3989.7 4157.29 4777.03 3684.56 4246.61 6028.09 5327.75 5452.36 4609.02 6486.37 4638.18 6083.28 5211.6 5806.31 4745.79 3503.41 5456.71 4908.75 3971.08 6204.65 4482.9 6550.4 4349.13 3766.69 4891.67 6818.91 3503.65 3634.5 4027.63 6631.28 6571.31 5420.67 4392.65 6413.15 6103.11 5048.55 6459.51 4024.31 5844.72 3992.97 5989.05 4054.22 7228.94 5393.65 4961.99 4648.21 4393.16 4595.12 3311.29 3110.13 6484.43 4625.67 3485.54 4458.64 4583.52 6418.11 3492.83 6015.02 5244.22 5585.14 7039.98 4820.17 6456.58 4729.42 4159.81 5089.26 3886.72 5415.45 6592.93 6350.71 6436.74 6104.26 2460.79 5583.61 6063.64 4986.71 4405.42 7382.3 3598.08 2995.67 4022.56 4599.81 5381.54 5522.21 5810.77 5698.23 5089.1 2711.19 4028.32 5876.72 7519.2 5236.43 3809.69 4099.92 3208.96 5285.07 3858.06 4680.14 4478.6 4083.79 4184.23 4144.57 4833.46 5750.07 4351.38 5933.7 6543.13 4809.67 5149.72 4687.64 4757.74 5036.58 5469.47 5329.59 4888.12 6119.63 4244.21 5439.9 5411.02 5512.16 3197.63 4989.56 4617.55 4287.16 3645.12 5471.74 3456.47 5199.44 4344.34 5713.03 4652.01 3583.49 5849.65 3673.28 4928.27 5052.84 4366.74 4165.21 5297.16 4603.5 4647.67 5354.66 3566.79 4214.44 5378.23 5375.12 4787.97 4356.36 3746.36 4892.44 4741.28 2603.64 4215.2 5069.89 2856.55 5107.0 2205.51 6212.15 5361.87 6813.72 4783.07 4946.23 4896.65 5561.74 5975.23 6100.73 4788.08 4198.94 5470.04 4211.82 6556.26 5684.25 5438.92 4244.49 5036.98 5513.8 5188.53 4521.75 3429.57 5569.2 5350.88 5410.33 4642.74 6735.97 5305.59 5416.45 4330.58 5754.6 4955.16 3288.01 4904.51 4147.31 2202.77 5751.15 5950.88 4441.22 4149.55 5853.89 6551.93 4140.4 4386.8 5446.4 3639.44 4725.01 5966.75 5510.9 3657.69 4883.63 4505.28 4971.29 6280.13 3684.15 5832.29 4438.76 3994.39 6006.89 4618.73 3814.65 5244.98 3965.3 5792.98 4960.64 4983.3 4385.81 4034.05 5690.96 4456.11 5798.38 3862.91 4653.83 4125.9 5096.24 6171.71 3628.89 6589.82 4668.88 5027.43 3772.3 4855.01 7300.58 4714.83 3608.06 5474.15 4923.57 6633.61 4884.59 5217.95 6355.68 4511.7 5484.36 3953.55 4187.94 4304.63 5550.75 5980.59 6834.41 5021.77 7248.4 4356.25 5776.96 4209.49 4216.95 5464.25 5742.74 3946.28 3821.94 5984.81 4209.31 3498.16 5486.48 4409.27 4752.9 5301.47 4947.24 3875.05 4588.99 4321.21 3540.11 5950.45 5088.57 5580.34 3852.6 5775.31 5134.67 4110.59 3332.49 4847.14 4215.0 4706.5 3950.27 5116.66 3629.44 5003.78 5374.67 6246.56 4981.43 4061.6 5473.72 6214.73 4553.68 5175.89 3894.64 3703.49 6502.97 4268.19 4374.74 4757.2 3758.22 4062.56 4852.58 6200.63 4532.7 4504.86 4473.29 5079.64 996.652 6163.54 5212.37 6500.49 6003.78 5965.58 2628.22 5058.51 4901.29 4124.76 4050.03 4775.04 4120.07 4952.52 4882.66 3840.21 6746.66 4954.76 3908.56 4844.83 5244.78 3636.15 6114.89 5135.63 6384.7 4355.83 6870.97 5351.86 6056.87 5474.01 6201.86 5307.35 4342.18 7554.58 3380.69 5166.89 5491.63 5725.37 3868.62 5138.33 3743.76 3425.69 6711.21 5510.45 4730.14 2606.51 4941.02 3864.92 6119.99 2955.36 3668.93 4128.1 5372.82 4402.17 7778.01 5127.82 5124.17 5805.1 5366.11 5039.12 4064.58 3908.98 3419.87 4824.81 6328.42 5769.14 7307.21 3381.82 5522.75 3619.72 5867.64 6208.9 3340.09 6059.93 5602.53 4867.7 6061.63 2279.05 4829.35 4063.9 4075.28 4277.24 5263.27 4314.56 6300.92 3796.15 5161.1 3928.53 6045.67 5466.33 5280.12 7216.98 4444.97 5721.05 5271.02 6329.53 7013.17 3805.67 4590.01 5718.28 4247.69 4514.39 5367.73 4640.06 6242.79 4227.41 6506.86 5391.48 4803.57 5966.42 4923.43 5009.83 5131.15 5210.38 5717.8 4811.22 3683.86 4918.76 4474.83 5293.75 3299.24 4208.41 5826.78 5730.61 4508.18 7124.45 6358.93 5064.67 6618.21 5232.85 3717.47 4051.18 3205.68 5969.37 6816.66 3217.67 3844.54 5034.69 4509.46 4680.69 3538.53 4420.11 6127.39 4972.18 4607.18 3352.34 5329.76 3899.7 2403.72 7200.89 4147.49 4813.33 4802.98 4833.55 4081.34 3646.95 7224.99 6334.53 5377.37 5869.67 5652.87 4311.48 5483.7 5018.69 3152.86 5952.38 3896.27 5807.52 5963.36 5230.02 5087.14 5169.48 6016.08 4731.21 3124.7 6064.71 6102.98 6060.17 5153.18 4763.4 5902.67 4236.86 5454.11 5393.76 5806.61 4983.1 6010.59 7123.04 4009.24 3756.96 5906.57 4446.58 5401.4 5053.15 5910.86 6239.68 7320.78 4834.44 4234.88 4384.28 4456.26 5113.6 5944.3 3563.14 4810.98 5135.5 4646.51 5347.9 4438.58 5640.72 4565.93 5851.63 4504.52 7107.63 5073.02 6545.43 6760.92 4023.93 4989.2 4469.54 5868.89 8137.11 5291.05 5484.32 6650.77 6226.14 4173.54 5599.29 5606.51 4801.8 5740.65 5166.41 6038.68 5046.12 5067.56 3000.29 4807.4 2596.96 3834.47 6349.67 4350.15 4264.54 3516.27 5261.19 4139.3 6541.45 4263.78 4601.74 6101.86 5078.31 5228.75 5993.0 6047.14 5467.63 4568.64 4929.6 5666.95 4642.2 3919.62 4127.53 5210.75 4489.99 4548.45 6555.44 4551.26 5658.14 5114.07 4385.49 4263.18 7142.95 4383.68 5836.26 6666.67 2617.39 5144.44 4583.94 5046.31 4928.35 1937.5 5241.75 4731.53 5849.53 3763.9 4651.99 4788.7 5863.0 5084.5 5640.12 6638.25 5078.59 5134.33 5419.57 5162.67 5760.98 4705.68 5469.35 5384.86 4749.96 4658.24 4387.39 4906.11 4899.73 4564.1 5457.66 6394.19 5973.89 5366.22 6193.73 5518.11 3742.11 4192.21 5712.35 3597.43 5701.52 4743.9 4158.91 6776.22 5321.17 3719.11 4467.13 4869.25 3877.8 6273.6 5136.87 5024.32 4708.17 3779.45 2741.2 5790.42 5784.37 3142.09 5591.77 3682.35 5182.13 6110.48 7541.76 4775.49 4932.29 4681.29 4990.23 5499.59 3220.29 3845.9 5749.6 4141.21 5782.43 4439.71 4708.31 4027.33 4198.9 3873.92 5431.29 5091.22 5026.76 5023.41 6282.38 4546.44 5657.55 5727.79 5212.92 4831.93 5788.97 5615.84 3472.91 4464.73 4928.85 6440.38 5556.0 4711.04 5007.21 7144.05 4619.2 4506.18 4824.12 4067.96 6542.5 7104.73 4834.39 4383.47 6162.3 5493.89 5701.75 3272.75 4057.17 5262.47 3104.96 3512.94 4467.0 7043.44 4991.35 4263.65 3831.52 4587.7 4750.49 4258.98 4643.9 5196.92 6106.43 3787.08 5644.81 4807.35 6761.81 5334.36 3903.91 4728.55 4554.68 4368.28 5750.35 4692.32 5984.8 4945.0 4658.11 3127.83 4212.15 5678.58 6570.35 4242.63 3269.54 4559.74 7407.91 6015.22 4454.74 6063.44 4826.52 2904.46 5120.92 4337.32 4685.4 6240.42 5146.0 5721.14 4577.73 4987.28 6206.98 4918.64 4815.47 4759.99 4368.12 2646.13 4365.58 5214.4 4636.53 5399.43 3629.49 5766.05 5117.64 4019.34 3835.81 3916.42 4869.48 3623.19 4745.16 4697.91 5825.55 5509.51 4848.14 4316.5 3199.4 5254.24 4914.03 5086.29 5144.56 5311.55 5139.18 3360.86 5551.43 3034.16 5049.99 4201.03 5545.21 4333.87 5001.87 3667.93 5684.05 5638.7 5813.79 4644.88 5293.13 7350.26 3768.46 5167.53 5003.3 6245.52 5800.81 3954.77 3784.94 6016.87 3125.13 4506.66 6715.73 4174.44 5667.51 5209.55 4564.41 6331.74 5951.86 4252.18 4833.67 4659.88 5325.91 4092.07 4213.05 4224.3 4184.21 6203.03 5188.82 4700.07 5235.87 5273.37 5043.14 4717.73 4732.37 4985.3 3904.07 5072.5 5713.36 3274.85 5748.9 5545.59 5494.28 5610.53 3663.0 2970.9 4099.26 6304.49 5206.47 5755.15 4580.06 4608.34 3926.11 5971.21 4835.97 6419.64 5464.83 7066.96 2781.96 4431.23 5414.58 5917.34 4994.65 5740.98 5601.55 4462.87 5759.79 4013.86 6545.99 4177.47 4218.16 5630.9 2918.64 6139.64 4140.92 4512.07 4756.8 4896.43 5463.06 5236.24 4639.8 4585.04 3986.41 4241.68 5260.52 6102.49 3185.09 3469.18 5114.23 2945.34 5495.0 3372.95 4489.29 4301.93 5064.23 6061.85 5268.15 5512.44 5819.0 6449.06 4924.07 3200.6 4629.02 5914.5 6006.16 4288.45 4608.62 5407.96 4071.75 4626.72 6562.03 5549.71 4410.82 6443.99 3889.98 5193.58 5490.64 5695.44 4507.46 3422.21 5429.3 5603.68 5510.96 4944.51 6653.07 5532.72 4584.81 3220.8 5071.98 5719.79 4371.08 5148.1 7261.51 4968.14 5224.64 5949.73 4312.48 5527.13 4278.57 6370.33 5081.08 6318.25 6864.06 4493.79 4279.44 4899.19 5058.34 4028.22 3918.94 5575.11 5487.63 3852.82 4507.36 7145.73 4168.52 5403.97 5106.46 6793.1 4068.31 5166.05 5077.29 5515.73 7035.54 4850.5 5426.4 5763.05 5129.68 5357.39 3791.41 5076.84 5853.12 5247.01 4208.37 5157.38 4841.7 5702.4 5069.9 952.938 5473.89 4678.7 6089.45 4966.07 5810.17 5265.21 4657.24 4749.18 4400.14 5553.94 3669.32 4704.92 4762.1 4954.81 3742.31 4316.0 4546.96 5424.55 5134.72 4921.1 5695.79 3814.16 5287.25 4420.6 3622.8 4589.06 4770.51 5577.41 4184.47 6511.37 3999.5 4346.07 6710.14 4012.92 5034.05 4598.54 4426.02 5218.42 4816.51 4933.49 5345.73 4770.63 3990.94 4841.23 4357.11 5477.8 4176.32 4462.35 6069.78 5532.75 6949.65 4095.83 5695.25 5676.61 5846.95 5716.42 5701.63 4620.95 6347.72 3460.93 4488.39 5124.86 4927.73 3565.32 4602.57 3763.85 3419.07 5710.33 5344.44 6432.8 5131.77 3186.07 4369.86 4967.51 5173.82 7212.97 5698.53 5034.34 3856.73 3769.2 4450.49 5036.14 3468.45 5635.32 4526.34 4316.45 5610.95 5042.75 5179.17 4598.92 5579.39 5270.51 4979.52 5490.75 4407.79 5214.63 3495.68 5783.94 5352.24 7362.42 4202.77 5836.14 6008.81 4932.56 5192.49 3487.31 5726.42 6643.4 4674.9 5461.72 6599.28 6224.85 4556.19 5368.66 4795.08 6562.92 5501.73 3671.06 4697.24 3612.44 4983.43 5117.52 5233.76 5866.91 6405.69 2820.07 5679.74 4825.73 4165.36 5288.33 6296.54 5797.21 5685.74 6740.35 3673.6 6028.63 3450.07 3306.84 4550.92 6215.87 5191.26 5866.42 5544.27 3484.81 3987.69 4287.25 6502.99 4392.75 4666.12 4271.07 6219.34 4191.01 4475.38 5674.63 5340.05 4920.88 4140.04 5995.4 5890.25 4216.44 5700.79 5735.08 4726.2 4750.81 4711.15 3825.48 4658.59 5188.22 3810.68 2804.54 4196.62 2809.19 5005.6 5486.89 7208.19 4549.51 5196.08 3587.93 4517.29 4975.85 4495.75 5323.95 6171.01 4468.26 5796.26 4603.04 4870.94 5368.93 5293.37 5271.88 6121.56 7168.2 4571.74 4096.86 4796.12 3622.48 5001.51 5385.86 5115.42 4082.4 5482.76 3745.02 3720.7 4887.73 4211.36 5378.24 3604.31 5817.74 5887.71 5661.6 4827.61 5409.08 5285.75 5481.64 5673.75 5241.22 5360.67 6647.08 6263.3 3422.29 4501.05 4537.03 6548.29 3990.96 4114.2 4326.06 5034.46 5793.12 5473.05 5469.17 4373.2 5537.34 5884.99 7025.09 4433.12 3392.26 2549.95 4361.24 5138.93 6406.8 7086.69 5648.78 6875.73 5226.42 6081.3 5615.35 3967.76 6311.89 4683.28 4217.36 6549.8 4150.76 4851.18 5005.72 5368.52 4871.77 5811.26 5062.77 6019.35 6075.99 5262.79 5927.2 5146.1 6485.77 6060.06 3869.39 5960.5 5308.33 5393.43 6896.55 4685.65 5377.01 6023.07 6470.23 6506.63 4215.05 4668.8 3495.3 4271.93 5322.11 4697.49 5524.45 7133.44 5600.21 3953.26 4474.39 5467.51 5459.92 6478.35 4096.47 5114.67 5453.77 5353.66 4916.7 4104.04 5589.53 5593.79 5025.42 4965.24 6379.38 6257.79 5438.55 4849.5 5353.23 6229.83 4523.81 5578.18 5106.33 5198.94 5933.54 5559.79 2980.31 5879.24 3148.79 5740.78 6824.53 5997.91 4742.82 6791.86 4209.0 4930.72 5728.58 6424.77 6297.99 5918.95 4538.89 5689.56 6556.86 3242.31 6099.28 5372.25 5385.03 4169.15 3234.26 4778.37 5134.17 5968.54 4904.35 5592.54 3247.97 5124.34 4904.37 4358.81 4651.64 5729.92 5757.29 5016.46 5061.75 6224.13 3769.24 4761.84 6022.78 4087.32 5517.65 6647.85 2569.12 4161.32 5161.74 7336.37 5099.9 6945.69 5118.86 4298.7 4183.4 6170.9 4733.79 5833.78 4436.48 4823.06 5758.98 5288.64 6213.24 6734.39 5942.45 4228.53 6123.46 6142.88 5155.28 4461.14 5111.26 5388.73 5205.38 4574.54 4884.93 4949.55 4600.71 4494.15 3957.38 5035.71 5507.38 4419.79 4710.88 5407.69 5152.78 4117.9 4057.4 5534.23 4753.76 4638.09 4441.91 4781.9 6815.96 5330.26 5339.6 5828.25 5939.22 3626.86 6371.96 5125.17 4604.1 5322.07 4859.01 5076.11 5990.75 5101.6 4282.11 6589.13 4625.53 2347.41 4542.16 3543.37 5628.97 2638.82 5527.27 5030.33 5234.2 5104.39 4612.13 5846.6 5327.05 4109.44 4903.84 4290.49 4434.65 5977.66 5209.5 5065.74 5791.25 4873.23 4028.35 5464.05 5453.2 6348.93 5136.51 4332.64 5232.16 4422.23 4457.05 4820.68 3989.26 6031.22 3618.64 5485.84 4335.79 5453.69 5432.04 3921.27 3702.45 5265.63 4898.29 4431.06 5730.2 4830.13 3494.16 5370.9 4074.16 4529.77 4325.13 6172.27 5390.33 3783.79 5078.73 5278.54 5729.0 5192.92 5275.57 4179.87 4786.66 5891.25 5370.1 3661.67 5129.4 5114.51 4009.68 3303.49 4622.73 4655.37 5585.25 5256.75 6351.89 5932.28 5560.23 2960.5 4975.32 5237.55 3902.48 4304.64 6030.39 4905.53 3799.01 7392.65 5254.49 3757.23 6828.8 5987.88 3579.59 6883.86 6161.94 4065.28 5057.59 5939.29 5418.98 5285.6 5575.11 5615.06 1969.87 3132.34 4764.83 5203.54 4841.28 4047.95 6142.94 6889.5 4416.87 5300.17 6581.56 4052.43 4896.67 6025.77 3934.11 4466.22 4496.51 6153.71 5917.08 4725.11 5483.37 5418.12 5092.93 5934.05 4714.66 6771.18 5770.07 4984.17 4656.01 5781.62 5602.62 4037.86 4138.59 5714.51 2030.03 4938.33 4484.78 4621.33 5157.73 5847.91 4541.22 4934.66 4946.08 3539.68 4984.01 6217.33 4557.1 6688.53 5927.1 6175.27 5876.51 6731.89 5410.6 4733.41 5264.83 3901.53 5431.14 6815.51 5313.86 5178.07 5189.91 5777.26 4171.02 5703.84 7012.36 3530.82 5028.06 5797.32 4002.99 4886.99 5159.67 3161.1 5764.52 5684.88 6523.78 4645.86 4045.67 5620.88 4941.52 5900.0 4262.74 6241.77 5317.19 4248.14 5279.19 4016.6 5821.49 7050.08 5580.44 5998.13 5095.52 4746.15 3720.38 4731.37 4758.84 5023.61 4672.86 4068.41 6530.78 3043.77 5783.38 4139.39 3909.94 6264.03 5088.64 6589.8 3729.16 5319.1 3783.36 3038.91 4181.93 3922.28 6570.43 3445.92 3350.99 3820.19 4979.5 4586.82 4745.37 6026.04 6200.05 4052.49 5859.17 4034.41 5490.54 5326.03 6189.67 5717.45 5001.69 4948.96 5117.83 5256.82 4013.86 3980.46 4061.87 5383.9 5165.31 5158.44 3798.09 3886.56 4288.5 4511.05 3456.3 6561.94 5259.21 4256.08 5881.93 2803.01 4399.52 4444.0 4554.24 6182.19 5910.66 5327.39 7415.84 4981.81 5141.03 4970.55 8123.59 5765.14 4767.54 5121.08 2927.84 4696.03 6177.68 4605.39 4698.7 6270.59 6045.26 2848.44 6500.45 4907.55 4103.76 4286.61 2932.52 4603.66 4969.68 4757.87 6636.43 3557.46 5971.95 6298.8 3689.24 3979.46 6321.97 5151.19 6509.54 6119.0 3792.06 5128.59 4293.3 5587.3 3572.73 4864.38 3770.22 4390.64 5150.84 4608.01 5087.97 6005.95 4308.49 4930.17 4581.1 4745.44 4085.96 5762.82 7360.12 6223.98 5462.6 5617.29 3035.06 4262.19 4597.88 4878.93 6275.25 6892.33 4452.36 4505.3 3976.0 4511.34 4832.21 6463.71 5059.37 5394.79 4742.35 5645.54 5264.08 4526.87 4151.74 3562.8 5192.82 6920.92 4174.22 3573.84 4067.89 6294.09 4571.57 5131.07 5236.69 4121.07 5524.28 3133.28 5731.43 6353.81 4150.44 3518.14 5061.74 5771.98 4420.35 5899.78 5772.57 4813.81 5268.27 5244.95 4645.93 5448.64 4585.37 5901.8 6417.61 5715.51 3721.69 5783.69 6074.39 5317.83 6738.9 4460.89 4157.1 8052.53 3939.96 4867.12 6044.01 4637.3 1458.87 5734.07 4840.44 3997.68 6033.28 4819.83 4801.16 5071.38 5616.66 5688.77 5368.28 5466.13 6229.64 4220.43 6263.87 5743.8 4094.63 5084.76 6605.11 6834.92 6379.33 5652.73 5130.57 5402.45 3985.93 6412.84 6071.59 2589.19 6079.55 5485.61 4993.49 5310.33 6583.37 3688.83 3402.44 4848.98 4491.96 5184.98 4467.51 5339.82 4519.03 5460.57 5110.27 5703.34 4612.68 6668.98 6649.52 4232.33 4939.56 4747.68 5770.92 3093.38 4845.91 2002.78 5631.32 6322.0 5793.14 4491.26 4609.65 5704.61 5009.21 4379.91 5410.73 4574.03 5290.37 5850.38 4227.66 4691.01 4594.89 3677.85 5245.95 5821.42 4515.02 3463.53 6126.03 6044.69 2970.24 4197.87 5105.54 5462.1 6032.45 3414.67 5444.36 5522.34 5044.68 2649.69 6908.32 3467.11 5000.74 6153.26 5637.53 3882.37 4634.25 4095.4 5188.57 6351.48 5395.12 3830.7 5357.33 6210.0 5350.9 3483.61 4262.52 7430.48 5992.06 5545.68 6080.69 4970.12 4967.93 6520.19 5973.57 6241.48 5125.45 5957.82 6286.27 4188.16 6327.54 5507.07 4802.36 2943.17 5327.71 4880.78 5257.38 5075.23 4975.56 7282.36 6666.34 3826.01 4645.91 3928.99 5581.01 4125.75 5749.53 5090.48 5247.73 5034.02 5582.28 5945.25 5181.31 3856.4 4696.06 4937.36 4137.16 5308.4 6581.13 4569.32 5537.61 6084.88 4397.06 4199.44 3543.98 4053.12 4479.5 6261.67 3435.13 5065.78 4431.46 4521.42 3207.84 3977.98 6043.34 4128.93 4959.72 4712.17 4723.71 3808.04 4461.67 4405.61 6126.5 4034.88 6007.1 6345.2 5488.96 5128.03 3720.92 5087.3 4942.63 6139.74 4975.57 7066.26 4730.97 3057.3 6150.31 5214.71 4677.84 4996.91 4811.11 3920.44 4924.52 5379.52 4866.8 5658.05 5314.67 6593.1 4066.36 4000.51 6033.93 5011.37 2827.92 4026.03 5092.44 4441.44 4232.44 5336.61 4817.75 3312.3 5563.09 4848.15 4439.09 3282.57 4798.13 5523.81 4718.61 6697.45 3873.79 5717.67 5515.59 5252.37 5432.4 5037.58 6457.89 5640.67 6572.17 3751.73 5555.89 4766.47 6369.66 5678.08 5872.45 5922.62 4414.09 5191.29 3784.68 3717.22 6649.21 4654.92 5286.55 4322.56 5522.18 5509.09 5625.02 3873.72 5212.05 4592.49 5479.86 4829.77 6474.5 4444.92 6959.88 5971.9 3746.62 4532.67 4876.37 4769.62 5260.13 4649.5 4810.74 5985.75 5475.83 6189.29 5984.55 5672.46 5803.3 3228.27 4721.98 5252.82 4142.1 5056.26 5878.55 4014.44 6604.72 6002.77 3794.47 4610.55 4967.02 4614.49 5400.69 4462.5 5573.31 5004.68 4023.88 5348.11 3488.34 5428.24 3511.5 5108.84 4582.12 4520.14 5067.92 5357.14 3188.21 5919.27 4793.06 6637.38 6188.33 6111.23 6916.18 5786.06 5873.62 4137.41 3868.69 5447.74 4450.51 6033.72 3768.62 3851.47 4966.74 5563.47 5651.46 3162.27 5639.4 6185.73 5516.37 6520.96 5432.2 4612.4 4746.19 6381.58 5212.2 5648.59 4611.21 5108.42 4630.5 6296.36 4432.32 4451.76 3224.81 4499.54 3775.38 4046.22 4104.97 4844.2 4575.72 5114.61 6118.13 3374.62 4420.3 4926.62 4871.1 3917.09 6009.93 3482.73 4083.1 5270.1 5130.56 4947.64 4957.99 6305.9 3470.69 4542.62 4859.95 4132.08 6009.88 5223.1 4699.77 4850.49 3625.98 4981.55 6188.62 4702.32 6153.07 4763.04 4414.06 5944.52 4413.56 5050.2 2513.38 5316.05 4908.32 3995.08 5019.84 3900.93 5784.38 4149.17 4329.8 5728.27 3074.49 5202.33 3956.24 7558.99 3393.59 4032.06 5043.14 5333.04 5445.91 4521.99 4812.59 6842.54 7115.67 5675.45 3361.11 6038.56 2807.46 5599.16 4179.8 5658.35 4577.98 5886.81 4487.51 4295.25 7394.47 4729.45 4850.95 5374.09 6271.22 3421.81 5378.75 3920.64 6186.24 5822.7 3780.07 5466.49 4038.17 5007.41 3692.99 4907.48 6213.74 4959.94 2329.93 1635.31 6938.87 5412.07 4083.24 4806.99 5512.57 4813.55 3771.91 5217.62 3839.0 6178.19 4616.81 5715.25 4362.94 4469.82 6545.78 3354.94 4404.87 5237.27 5767.65 7885.41 5782.25 5497.27 4081.77 4948.21 4987.01 2181.29 4202.12 6332.64 2694.25 4735.99 6492.44 4613.32 5145.39 3352.46 3996.93 6351.95 5195.09 4063.26 5345.05 4997.89 7679.2 5093.28 6131.52 4311.92 6729.99 5093.41 6842.35 5144.23 5464.34 3621.63 4777.96 5801.89 5908.57 7296.47 5742.39 4821.41 4924.53 5616.11 4499.52 3874.12 4813.24 4028.13 4457.73 6476.35 6260.58 3053.19 4067.24 6571.26 4313.38 5580.95 3549.92 6598.99 5250.56 5246.81 2468.16 5089.1 5888.95 5394.78 3463.34 5169.09 5122.38 2853.68 5262.85 2459.88 4998.37 5329.84 6559.82 3879.83 5342.9 6565.95 5733.12 5043.34 4246.24 6805.02 5354.48 5640.63 4900.26 6261.13 4167.55 4720.34 5244.47 4731.16 5510.89 6470.87 4495.33 5282.67 4159.89 5178.55 5146.69 6203.24 6818.23 4488.41 4369.87 5652.19 5806.74 6578.62 5856.43 6284.12 3465.03 5349.85 5799.86 5172.1 6052.22 5376.41 5003.63 4870.14 2932.2 5105.72 4082.01 5003.49 4750.76 3964.03 4907.03 5832.72 5617.91 4444.95 4721.2 5161.02 4706.31 6265.48 4203.68 5003.81 4739.56 4701.03 3818.37 6225.05 5434.04 5200.1 3997.52 4881.51 5779.9 2626.41 4909.74 5310.33 6664.54 3922.98 5161.73 5259.48 5254.93 4803.4 6833.5 6608.94 2613.78 4780.16 5417.07 5738.37 3834.01 4433.23 4739.41 5759.19 5847.27 3113.64 4490.2 4304.75 5480.86 6139.9 4720.22 2832.83 5827.3 6036.99 3010.1 3633.58 3825.98 6294.14 4339.97 5203.75 4667.84 3906.41 4691.15 4512.6 4210.24 5470.67 5901.71 5225.11 5252.22 4962.35 6436.29 5402.81 4600.81 4328.76 4919.13 4124.33 5168.97 5783.88 5002.38 6705.93 4865.11 5449.09 5502.14 4465.56 4131.08 5747.9 3864.19 4287.93 5315.71 6158.93 5081.65 4823.14 6679.12 4621.32 5699.4 3878.8 4698.94 3948.21 4796.04 5669.15 5229.56 6011.4 4672.34 3330.85 5056.32 5533.52 5410.33 4695.7 4747.24 4944.08 4380.86 5576.16 5269.39 4305.35 5210.22 4216.33 2451.27 3903.9 4929.35 5606.22 3943.77 3124.49 6081.35 5459.52 6262.18 5566.5 5663.36 4276.59 5579.04 5125.53 5994.21 4444.54 5403.81 5082.25 6964.78 4374.05 5299.03 5036.84 4565.36 5813.68 4025.08 4008.67 3618.53 4770.21 8013.28 3846.55 3796.73 3082.16 4644.68 5656.84 6789.66 5416.41 5312.2 4706.59 5734.84 5551.79 3982.31 4950.07 4582.24 4474.96 4084.87 4790.63 5259.29 3584.05 4589.22 5087.03 4818.53 5097.85 5584.64 4123.08 6224.64 4260.38 4221.03 4636.45 3799.55 4932.27 5638.51 6793.49 3563.33 6060.19 5536.0 6786.37 4333.23 5145.13 5561.63 5940.5 4358.06 5093.51 5647.93 4280.92 6201.49 4696.92 5154.74 4605.61 6898.8 5386.95 6540.57 5332.11 4893.72 6004.72 5373.78 4072.4 5345.65 5438.5 5863.36 4632.75 5237.76 4994.98 4286.84 6423.96 5296.05 6058.13 5263.86 5894.69 6988.4 6635.51 4060.17 6051.35 5302.53 4909.13 4287.61 5648.02 3308.75 4604.34 4439.17 5677.42 2701.42 5442.79 5051.39 6673.92 5242.38 5151.68 4884.94 5362.15 4609.98 4738.72 4752.31 5240.97 5569.85 5405.6 3929.35 4884.93 4759.38 6960.97 4287.15 5282.51 5504.65 5669.41 5732.11 5040.9 5596.68 4868.66 5159.9 5283.65 2892.36 5943.61 5981.54 5911.29 4542.25 4694.27 6760.64 2515.5 4849.21 5177.88 3793.83 6981.47 3916.15 5367.05 4758.76 5647.11 4088.72 3945.62 4916.75 3743.85 6236.46 5342.17 6379.3 6189.04 5189.4 5082.66 4550.77 4894.15 4337.93 3550.88 5201.3 4345.51 4048.73 6223.33 5438.6 3860.8 3747.96 5611.29 4521.88 6568.45 5004.22 4601.54 7263.57 3832.09 5705.96 6437.99 5739.69 6632.04 7360.62 4977.64 4985.45 4983.56 5699.51 4489.18 2489.44 5499.37 4883.13 4836.76 4752.94 5551.09 3950.53 4501.1 5581.47 4384.91 4987.01 4713.56 6094.34 6779.82 5543.67 3999.81 4867.13 6377.45 4863.27 4502.12 3255.93 6853.07 4633.59 5733.59 5575.8 4455.61 5268.93 6874.6 5106.9 5306.31 5523.96 4223.53 4733.37 4535.94 3037.72 4523.9 5126.08 5604.0 3760.4 4951.02 3919.47 4602.7 3783.35 4037.16 4004.39 6395.63 4987.48 4248.58 5479.17 5020.37 4414.23 5233.88 4785.55 5245.4 6189.81 4449.73 5015.67 3795.63 4576.71 6538.04 6157.59 5848.41 4090.28 4246.83 7370.52 4726.5 5467.05 3724.23 5103.3 4963.88 5888.94 4727.98 4122.2 5175.88 5267.65 4516.26 4790.16 3509.34 5360.88 3647.26 3731.58 3166.37 5369.42 5207.08 5205.53 4714.52 4587.19 5543.05 6028.89 5333.16 4888.17 5755.98 5392.85 5077.2 4274.05 6550.61 4277.54 5529.09 4531.46 5925.82 5448.68 4739.5 6210.48 4491.62 4182.05 3865.5 6327.61 3695.72 5275.27 4072.95 
SCALARS Velocity float 1
LOOKUP_TABLE default
1.5763 1.54205 1.53673 1.53771 1.54544 1.53381 1.55597 1.57137 1.57361 1.55652 1.55284 1.5398 1.33623 1.57673 1.5411 1.54013 1.53961 1.55015 1.54412 1.56905 1.56879 1.57353 1.56855 1.57434 1.58292 1.57194 1.59726 1.51404 1.53161 1.52985 1.56157 1.52341 1.54788 1.56468 1.58496 1.58347 1.54014 1.54504 1.56147 1.56645 1.56121 1.58326 1.55305 1.61475 1.59752 1.60429 1.60792 1.5185 1.53076 1.53262 1.52996 1.52287 1.53543 1.52951 1.5528 1.54807 1.54005 1.54513 1.58454 1.63915 1.5816 1.53932 1.54526 1.56044 1.55904 1.57185 1.55763 1.49826 1.55854 1.59523 1.62993 1.59016 1.59577 1.57615 1.59161 1.51793 1.54014 1.51519 1.52862 1.5311 1.54776 1.59142 1.64429 1.54484 1.54258 1.55529 1.54911 1.57543 1.58017 1.59674 1.55927 1.56194 1.56426 1.63778 1.61762 1.62477 1.5929 1.6142 1.56108 1.53814 1.55283 1.51542 1.46717 1.50741 1.45409 1.54167 1.56413 1.59437 1.59693 1.59636 1.5849 1.60834 1.53677 1.55531 1.56001 1.54589 1.57993 1.57892 1.57007 1.55099 1.56022 1.62906 1.64377 1.48051 1.54113 1.54309 1.55167 1.50568 1.47412 1.55133 1.54628 1.54136 1.53326 1.56342 1.57762 1.58198 1.51984 1.55959 1.53141 1.57874 1.56155 1.59159 1.56528 1.54612 1.54517 1.55314 1.60029 1.6488 1.47229 1.5165 1.55072 1.57366 1.53977 1.50329 1.58663 1.51599 1.58137 1.55302 1.56324 1.54751 1.51688 1.53696 1.50961 1.56247 1.53795 1.52506 1.55354 1.49106 1.47533 1.50804 1.52799 1.61014 1.61848 1.53476 1.54599 1.56818 1.56558 1.3849 1.40112 1.45838 1.49894 1.51892 1.54006 1.58211 1.5522 1.61204 1.56565 1.59279 1.56632 1.53002 1.51309 1.57383 1.51723 1.52933 1.50323 1.49396 1.46821 1.50493 1.55429 1.48988 1.55549 1.71857 1.53716 1.53127 1.48263 1.55584 1.39936 1.41447 1.46402 1.50203 1.57519 1.67286 1.57471 1.57093 1.5742 1.63228 1.58684 1.55131 1.48853 1.45313 1.44343 1.46346 1.42218 1.39335 1.49344 1.51038 1.49778 1.72108 1.58332 1.46943 1.42448 1.47759 1.34254 1.43536 1.4523 1.46114 1.44861 1.55177 1.85349 1.55429 1.56704 1.60518 1.68726 1.64817 1.52907 1.4336 1.38863 1.06521 1.37403 1.71517 1.53737 1.54406 1.54671 1.62833 1.7063 1.30127 1.45646 1.4278 1.39985 1.46806 1.45696 1.45422 1.41387 1.42303 1.4685 1.79068 1.59022 1.3253 1.46608 1.53082 1.62387 1.65389 1.73091 1.7488 1.69719 1.50816 1.52372 1.4787 1.43821 1.52357 1.36109 1.02714 1.38915 1.60841 1.6348 1.65966 1.64248 1.88997 1.83171 1.37347 1.43381 1.38573 1.46483 1.4048 1.53781 1.47095 1.34966 1.39533 1.61935 1.25748 1.44935 1.50119 1.62067 1.68486 1.60428 1.47223 1.62902 1.35128 1.79113 1.56904 1.41138 0.0638459 0.538839 5.06171 1.54317 1.7565 1.63931 1.53008 1.61254 1.68332 1.63866 1.72952 1.55637 1.3196 1.42041 1.34888 1.44197 1.50783 1.17478 1.38149 1.39604 1.72491 1.4081 1.39465 1.57551 1.52324 1.5076 1.58098 1.44323 1.58715 1.48058 1.50744 1.92831 4.69035 1.68463 0.372826 0.539318 1.45434 1.25125 1.22986 0.950105 1.08626 1.71475 1.1565 1.23413 1.46615 1.78139 1.4938 1.36535 1.8962 1.23914 1.57751 1.5301 1.57481 1.2971 1.18136 1.29456 1.31797 1.3632 1.45222 1.33866 1.37179 1.50523 1.57034 0.999316 1.37776 1.22464 1.98785 1.31825 1.22594 1.36885 1.28538 1.49403 1.55463 1.5107 1.50979 1.54993 1.43731 1.30282 1.86805 1.84923 1.94683 1.03856 1.40011 0.967921 1.0665 0.89568 1.15105 1.07454 1.03754 1.01924 1.04462 1.12536 1.03978 1.11159 0.940385 1.04248 0.92034 0.827539 0.977686 1.18385 1.19941 1.29226 1.01296 1.54903 1.41932 1.41453 1.32116 1.33346 1.47463 1.47562 1.20361 1.14921 1.21635 1.32667 1.31019 1.42807 1.295 1.4026 1.71535 1.20131 1.25877 0.641811 1.33744 1.39488 1.37488 1.51655 1.45069 1.52743 1.35866 1.29579 1.60282 1.48431 1.41616 1.64398 1.51264 1.4452 1.51884 1.91823 1.27615 1.08011 1.02785 1.12161 1.00354 1.04789 0.98582 0.978767 0.941388 0.918113 0.962728 0.949031 0.946022 0.91096 0.942597 0.955697 0.89631 1.00743 1.23656 1.23207 1.17518 1.18577 1.22995 1.05676 1.44531 1.28852 1.35082 1.21086 1.31476 1.29515 1.1996 1.15937 1.15031 1.14814 1.21861 1.30666 1.28244 1.32903 1.38857 1.13359 1.32189 1.00615 0.948814 0.732981 1.26606 1.37728 1.31464 1.3516 1.15241 1.15516 1.25281 1.29342 1.26723 1.45832 1.25131 1.35193 1.20346 1.48132 1.15702 1.24143 1.12504 1.1761 1.02933 0.910588 1.08364 1.06589 0.912594 0.865891 0.963951 0.88041 0.956282 0.930959 0.933889 0.916041 0.921082 0.906809 0.929389 0.88778 0.964255 0.935322 0.968699 0.855331 0.923459 0.884181 1.10103 1.17829 1.1788 1.17116 1.12714 1.3373 1.35949 1.06535 1.04723 1.12881 1.08776 1.14814 1.19073 1.20069 1.15934 1.16309 1.17906 1.24025 1.30226 1.37481 1.38727 1.28316 1.16257 1.02692 0.962104 0.845859 0.94068 1.07585 1.16801 1.30147 1.21411 1.29809 1.22585 1.15566 1.13655 1.35068 1.04708 1.06282 1.25535 1.08834 1.17146 1.13953 1.14565 1.11575 1.13086 1.17749 0.966469 1.1109 1.04439 0.905357 0.953306 0.928722 0.914369 0.930226 0.944023 0.929545 0.917862 0.907432 0.892009 0.884858 0.915156 0.946927 0.917905 0.891931 0.905845 0.914932 0.894052 0.906402 0.960291 0.896369 0.889898 0.907047 0.998273 1.06674 1.21354 1.21009 1.10512 1.13246 1.16329 1.19035 1.02813 1.06213 1.21611 1.11319 1.25009 0.716272 1.05432 1.12034 1.05795 1.00929 1.10279 1.24374 1.12726 1.19819 1.24887 1.17858 1.19493 1.17565 1.29103 1.30278 1.15768 1.03957 0.923146 0.967344 1.00464 1.10677 1.20938 1.23959 1.32395 1.33266 1.16567 1.07738 1.26598 1.03129 1.18527 0.999555 1.0634 1.06403 1.1569 1.12486 1.12273 1.06461 1.1219 0.949174 0.950107 0.930004 0.945374 0.951136 0.919166 0.927968 0.929726 0.942992 0.915938 0.884896 0.933276 0.889804 0.88867 0.874084 0.832249 0.854748 0.86818 0.865721 0.854395 0.872498 0.888106 0.896927 0.911005 0.91345 0.908124 0.908031 0.978221 0.957139 0.905535 1.10326 0.87302 1.16059 0.998562 0.957837 1.01027 0.973942 1.03574 1.06096 1.0564 0.958518 0.758009 1.17409 1.09833 0.947593 1.04131 1.21631 1.19137 1.4263 1.19053 1.122 1.14349 1.15815 1.20172 1.20272 1.04714 1.15316 1.11274 1.06953 1.06854 1.03563 1.03635 1.05149 0.967413 0.901245 1.38947 1.05418 1.05324 1.09827 1.13388 1.03267 0.953176 0.971906 0.915959 1.00102 0.987138 1.16603 1.06974 1.0397 1.17331 1.01898 0.962437 1.03156 0.957916 0.942731 0.92854 0.931823 0.913214 0.938186 0.897986 0.892774 0.916197 0.870325 0.852851 0.836848 0.84295 0.825105 0.853888 0.866171 0.847421 0.83469 0.844634 0.847029 0.848283 0.8603 0.884971 0.856819 0.903132 0.914595 0.918843 0.899828 0.878433 0.9124 0.910546 0.926216 1.0462 0.966585 1.02466 0.959259 1.00104 0.99212 1.01418 1.00443 0.984307 1.0027 0.949794 0.886768 0.881402 1.14287 1.04465 1.05882 0.971542 1.2749 1.28419 1.08811 0.875219 1.22065 0.935965 1.16979 1.1474 1.10102 1.10179 1.03794 0.948015 1.00818 1.04719 1.05601 1.05694 1.05917 1.09003 1.05808 0.966576 0.930639 1.05688 0.858118 0.881442 1.24173 1.03857 1.1724 0.940224 1.03507 0.981945 0.957687 1.06155 0.959986 0.865972 1.02922 0.96628 0.972604 1.02903 0.959481 0.96263 0.942219 0.956258 0.910923 0.919376 0.900909 0.889062 0.903997 0.89182 0.910781 0.888028 0.883459 0.894586 0.80835 0.861413 0.901129 0.87523 1.08049 0.805449 0.836105 0.871317 0.824425 0.848726 0.854399 0.844227 0.867231 0.89534 0.902195 0.920524 0.904265 0.888321 0.916706 0.90049 1.01281 0.982877 1.06052 0.990764 1.03036 0.969016 1.02339 1.16042 1.10674 0.967309 0.953109 1.0672 1.02425 0.872048 0.899666 1.14073 0.98367 1.08879 1.08644 1.01462 1.05573 0.987777 0.926507 1.02953 1.06974 1.09077 1.06024 0.935409 0.962315 1.00427 1.04905 1.01971 1.06909 1.04018 1.07773 1.0907 1.21049 0.924485 0.985509 0.752031 0.751303 0.859759 0.818834 0.909587 1.09418 0.956256 1.01969 1.0278 1.09776 1.00203 1.00738 1.00221 1.26523 0.962871 0.957046 1.0483 0.986879 1.01337 1.01139 1.02206 0.931619 0.932877 0.888149 0.902244 0.90215 0.924685 0.902122 0.872643 0.908376 0.918365 0.905657 0.852589 0.963114 0.705532 1.09528 0.738743 0.626643 1.53253 0.556902 2.07553 1.18204 1.54727 0.54133 0.835662 0.800907 0.874508 0.849863 0.878134 0.826303 0.865955 0.845064 0.909561 0.890204 0.86797 0.784998 0.906502 0.931337 0.964391 0.909871 0.751702 0.847625 0.943776 0.976098 0.8478 0.851462 1.0374 0.968889 0.932281 0.838845 0.977432 0.802223 0.889586 0.875475 0.874185 1.00634 0.916166 0.990273 1.04765 1.05544 1.07167 1.00717 0.954654 0.977289 0.961737 1.03521 1.04968 1.02186 0.979131 0.952906 0.939422 0.96909 1.0528 1.02967 1.04439 1.08588 1.16256 0.755492 1.04873 0.879776 0.859268 0.922266 0.91836 0.924969 1.03941 1.58067 0.875411 0.96616 0.576023 0.966189 1.01418 0.953009 0.973386 0.963133 0.89764 0.950849 0.892785 0.873928 0.911436 0.911162 0.92639 0.851546 0.900927 0.818569 0.852252 0.80015 0.96872 0.892548 0.746205 0.788539 0.980399 1.00681 1.08153 0.489846 0.883634 0.904435 1.21835 0.838609 0.850038 0.849922 0.825254 0.798452 0.822227 0.676569 0.825549 0.854624 0.775705 0.799427 0.726197 0.791589 0.848136 0.80091 0.765575 0.796193 0.871636 0.829366 0.871163 0.789329 0.735811 0.784831 0.848846 0.754558 0.70036 1.09907 0.844235 0.870243 0.807888 0.858437 0.886898 0.881276 0.879224 1.00193 0.901796 1.021 1.0545 1.06132 1.03776 0.985216 1.06199 0.949699 1.02601 0.994403 0.96783 0.962577 0.948309 0.960449 0.975192 0.961705 0.989423 1.04491 1.0296 1.04971 1.09252 1.14889 0.930835 1.02337 0.883694 0.800521 0.851651 0.876713 0.856862 0.905379 0.933494 0.972164 0.832946 1.32972 0.837258 1.3899 0.746716 0.816592 0.772121 0.973697 0.939176 0.889066 0.969316 0.989124 0.975998 0.82907 0.900147 0.924908 0.830835 0.748725 0.873874 0.814916 0.817585 0.838287 0.888538 0.945065 0.840347 0.993883 0.965553 0.912364 1.02112 0.804395 0.804595 0.663865 0.652433 1.87772 0.271017 0.18252 0.236404 0.812691 0.814096 0.811682 0.840158 0.848855 0.850848 0.853921 0.907921 0.949213 0.878834 0.911751 0.959671 0.799726 0.780272 0.785633 0.786436 0.823056 0.853202 0.863597 0.913582 0.857703 0.764464 0.883497 0.923819 1.0152 0.917035 1.07383 1.06532 0.992044 0.960561 0.910402 0.909293 0.90655 0.966911 0.906676 1.01203 1.06176 1.04081 0.994675 0.996366 0.951371 1.16122 0.903776 0.961357 0.953278 0.946812 0.959089 0.965898 0.966878 0.971866 0.963109 0.973501 1.00118 1.03274 1.04277 0.929409 0.8873 0.85476 0.877607 0.913462 0.894008 0.971847 0.974306 0.494209 1.0407 0.703546 0.892962 0.792836 0.840891 0.814415 0.833044 0.878263 0.927164 0.874306 0.755503 1.05195 0.865605 0.799478 0.896068 0.860469 0.835522 0.906508 0.937992 0.930629 0.909838 0.845266 1.01409 0.747557 0.846712 0.805826 0.871726 1.1132 0.902618 0.830676 0.79903 0.207697 0.938254 0.491457 0.591139 0.784678 0.835724 0.812487 0.822512 0.876708 0.688646 0.872858 0.791451 0.848662 0.895154 0.944493 0.834248 0.871799 0.781848 0.799834 0.832228 0.761148 0.834625 0.882181 0.892619 0.918271 0.934642 0.905389 1.04718 0.822599 0.924214 0.931366 0.708969 0.869822 1.39145 1.48901 1.00603 0.930041 0.954745 0.921008 0.924764 0.938361 0.899052 0.893407 0.898124 0.92509 0.942369 0.947477 0.933188 0.943186 0.968333 0.893026 0.977914 0.954651 0.949509 0.967591 0.980629 0.985751 0.969392 0.965157 0.962505 0.968793 0.987248 0.980634 0.998606 0.992178 1.02641 0.996941 0.930119 0.890127 0.879805 0.892537 0.87522 0.890418 0.978021 1.03591 1.12617 1.03089 0.827227 0.866854 0.800106 0.806878 0.833447 0.836415 0.877329 0.920143 0.861318 1.11774 0.934224 0.890831 0.869733 0.987051 0.837487 0.786746 0.859308 0.855291 0.889644 0.845219 0.850613 0.886385 0.828841 0.860831 0.740614 0.822076 0.870593 0.82854 0.817113 0.925807 0.79853 0.828569 0.865786 0.963104 0.877118 0.911428 0.688268 0.607348 0.631929 0.74994 0.758236 0.767095 0.772248 0.79064 0.848086 0.808833 0.780457 0.599342 0.810236 0.836729 0.860106 0.889742 0.849182 0.850246 0.807266 0.769641 0.762553 0.791604 0.797883 0.813063 0.810686 0.815576 0.812535 0.872388 0.883709 0.876605 0.899343 0.812469 0.799025 0.963853 0.988444 0.590946 0.847952 0.698513 0.940466 1.015 1.01638 0.926883 0.904806 0.872576 0.974989 0.960036 0.929451 0.903616 0.88907 0.933713 0.942533 0.993547 0.984517 0.989611 0.978719 0.961787 0.963778 0.963997 0.980944 0.983434 0.974577 1.01833 1.02624 0.957307 0.891061 0.896702 0.885702 0.901513 0.900007 1.04553 1.15923 1.00822 0.907961 0.847313 0.861132 0.899946 0.859032 0.897486 0.883394 0.889906 0.940332 0.934059 0.869954 0.876368 0.767362 0.809968 1.07109 0.904616 0.875082 0.844981 0.860427 0.87225 0.843559 0.870596 0.851684 0.869835 0.842337 0.818903 0.779723 0.816935 0.825206 0.825881 0.812085 0.819532 0.846996 0.871891 0.815545 0.80344 0.842984 0.742671 0.759684 0.834071 0.65139 0.711811 0.735852 0.77047 0.76967 0.766309 0.784523 0.798066 0.803606 0.796448 0.799152 0.61032 0.67975 0.572272 0.755658 0.811817 0.821495 0.806291 0.826221 0.86061 0.855233 0.830837 0.769613 0.801339 0.76049 0.763909 0.808514 0.856807 0.844003 0.857021 0.85107 0.793654 0.803102 0.824627 0.747552 0.686046 0.784843 0.940678 0.729261 0.837204 0.791512 1.2894 1.07956 1.03053 0.901049 0.901663 0.91604 0.912616 0.912012 0.917544 0.918371 0.922093 0.912425 0.921403 0.922891 0.922288 0.915141 1.04498 1.0025 0.960686 0.96696 0.964821 0.963976 0.968368 0.974177 0.983784 0.979592 0.984581 0.989558 0.967617 0.889073 0.915622 0.911654 0.902068 0.903118 0.898552 0.902184 0.895188 0.897973 0.908441 0.948235 0.782697 1.06539 0.829335 0.939147 0.908245 0.890566 0.889498 0.84263 0.881455 0.867012 0.915153 0.636039 0.857614 0.739828 0.868039 0.867451 0.790509 0.829579 0.884313 0.856041 0.862067 0.871112 0.866033 0.848417 0.901552 0.887508 0.813849 0.799306 0.807131 0.804328 0.801651 0.800809 0.800978 0.790366 0.795063 0.829445 0.8322 0.792375 0.791105 0.817963 0.81968 0.827571 0.804616 0.806367 0.808754 0.815114 0.829732 0.840834 0.787132 0.807912 0.756593 0.789615 0.76691 0.763403 0.7642 0.767862 0.760252 0.776195 0.77162 0.773868 0.743322 0.736728 0.740093 0.801599 0.867847 0.920464 0.792629 0.760469 0.945133 0.817495 0.670203 0.717101 0.70793 0.709561 0.677533 0.809654 0.88973 0.748806 0.765044 0.844591 0.885809 0.798152 0.803971 0.835974 0.821144 0.81227 0.837975 0.799981 0.646641 0.68349 0.643799 0.663118 0.934494 1.10311 0.882746 0.918479 0.966447 0.924355 0.910631 0.908731 0.881259 0.870507 0.853034 0.95696 0.994951 0.928707 0.902148 0.896652 0.876549 0.770276 1.01864 0.952412 0.964842 0.963079 0.967894 0.964884 0.972475 0.987335 0.989099 0.979312 0.976746 0.951885 0.914919 0.909861 0.91366 0.923475 0.912313 0.92301 0.90422 0.933598 0.875571 0.635581 0.50143 0.267161 0.739671 0.867085 0.981073 0.914973 0.897537 0.876903 0.845401 0.869502 0.884742 0.865418 0.802456 0.860742 0.839836 0.799589 0.846604 0.814125 0.822563 0.846013 0.821493 0.835705 0.818136 0.85844 0.808664 0.803271 0.84754 0.809608 0.79787 0.809719 0.801439 0.794386 0.795948 0.78581 0.787312 0.766102 0.809402 0.766646 0.838909 0.766307 0.857853 0.786859 0.912346 0.839841 0.89232 0.636284 0.871005 0.808623 1.00045 0.751456 0.992631 0.752045 0.764432 0.755126 0.762665 0.759798 0.749315 0.755393 0.729279 0.752047 0.740971 0.748559 0.723699 0.771381 0.720905 0.67443 0.687225 0.730143 0.775689 0.727543 0.684795 0.746016 0.661137 0.686863 0.82548 0.912736 1.02054 1.02457 0.654407 0.655741 0.727967 0.792976 0.926579 0.927664 0.831019 0.812815 0.812175 0.821169 0.81439 0.791823 0.82573 0.861601 0.934545 1.0565 0.941329 0.907291 0.904545 0.897196 0.917164 1.13336 0.927108 0.809265 0.858435 0.829806 0.918101 0.977616 0.967423 0.972225 0.968645 0.965385 0.991918 0.984262 0.975739 0.970043 0.942738 0.926239 0.930992 0.937611 0.938758 0.953772 0.953195 0.955709 0.944003 0.904231 0.855136 0.427302 0.780024 0.801915 0.88858 0.810396 0.894712 0.873171 0.882364 0.85149 0.855214 0.844637 0.85021 0.852558 0.85855 0.854666 0.858507 0.838068 0.858021 0.847188 0.851436 0.880954 0.835268 0.864695 0.815544 0.836477 0.80778 0.809998 0.800667 0.84747 0.881746 0.786823 0.758726 0.743452 0.7688 0.714141 0.720551 0.719218 0.681889 0.778748 0.739407 0.852014 0.714215 0.624939 0.75573 0.757747 0.704768 0.635657 0.719511 1.03706 0.844672 0.833082 0.73742 0.683432 0.689324 0.714808 0.751031 0.726421 0.791223 0.766758 0.729206 0.753388 0.75316 0.740471 0.743239 0.737638 0.737628 0.715976 0.693935 0.709107 0.725582 0.738461 0.720242 0.774981 0.767607 0.789041 0.94032 0.901297 0.810725 0.749143 0.700384 0.840651 0.786399 0.848482 0.828097 0.750161 0.726303 0.788582 0.795592 0.80791 0.82885 0.860058 0.864431 0.893446 0.821064 0.800421 0.798744 0.808766 0.822173 0.825552 0.866748 0.95052 1.01612 0.980094 1.01143 0.955773 0.925358 0.918267 0.904232 0.919031 0.925591 0.7809 1.20565 0.887083 0.843457 0.91743 0.919091 0.971084 0.948908 0.987739 0.986066 0.947521 0.950843 1.02119 0.989698 0.966141 0.950228 0.942607 0.952017 0.951157 0.953594 0.95002 0.932687 0.927691 0.908968 0.823994 0.787289 0.6866 0.838323 0.92959 0.913145 0.838803 0.850539 0.861814 0.855071 0.853438 0.859381 0.863083 0.85727 0.858753 0.863397 0.863497 0.860641 0.830431 0.804427 0.833081 0.780471 0.83421 0.79976 0.812486 0.769769 0.883555 0.759806 0.750038 0.74288 0.763873 0.68297 0.653116 0.688458 0.835748 0.837284 0.758135 0.882451 0.815321 0.640196 0.709695 0.626937 0.728065 0.752753 0.563284 0.692495 0.699623 0.700608 0.651002 0.65763 0.750249 0.657712 0.665696 0.666847 0.673489 0.665052 0.670017 0.698016 0.689664 0.715668 0.712467 0.759334 0.807032 0.685025 0.663283 0.747699 0.770026 0.753437 0.720561 0.716813 0.780687 0.753199 0.795836 0.725351 0.761975 0.761008 0.760761 0.84759 0.817853 0.826908 0.762604 0.772604 0.741542 0.765129 0.757742 0.781718 0.810248 0.835408 0.840029 0.852828 0.815329 0.848218 0.806175 0.81589 0.844629 0.926365 0.939566 0.963651 0.929979 0.925135 0.913196 0.898011 0.886795 0.845055 0.634499 0.766534 0.757472 0.872363 0.881471 0.922563 0.851241 0.907291 0.952465 0.962367 1.0099 1.01597 0.926167 0.933548 0.984722 0.998407 1.05035 0.992118 0.978743 0.958851 0.951825 0.957413 0.958509 0.967639 0.962944 0.964388 0.969242 0.971429 0.907896 0.918706 0.901811 0.847927 0.881292 0.877833 0.873657 0.879569 0.892039 0.865847 0.886534 0.872638 0.8716 0.858479 0.871944 0.865412 0.86177 0.863351 0.857655 0.832353 0.797297 0.810768 0.774765 0.800532 0.780276 0.729402 0.773116 0.734818 0.758952 0.779367 0.764498 0.751859 0.837196 0.801628 0.730463 0.762069 0.724956 0.673249 0.611913 0.671709 0.767266 0.69379 0.745751 0.431089 0.838701 0.485334 0.58462 0.648044 0.641579 0.582832 0.609284 0.649441 0.574268 0.747971 0.703757 0.862813 0.635424 0.778235 0.631465 0.628302 0.737058 0.698239 0.593557 0.594467 0.649694 0.642141 0.657636 0.66716 0.682726 0.69598 0.680041 0.668115 0.678128 0.715609 0.731993 0.727846 0.711071 0.765955 0.713702 0.704553 0.729312 0.705884 0.77857 0.766229 0.792379 0.822083 0.759052 0.837601 0.804909 0.793859 0.734311 0.757307 0.752661 0.77758 0.818372 0.858113 0.865291 0.85754 0.840772 0.792832 0.823658 0.915219 0.902459 0.933574 0.944482 0.929915 0.91475 0.895119 0.862092 0.81673 0.863788 0.880561 0.881945 0.88917 0.871603 0.902761 0.963644 0.991682 1.04473 0.871189 0.908908 0.926903 1.08011 1.00529 0.980309 0.943242 0.968024 0.956974 0.967786 0.946233 0.939711 0.913903 0.920034 0.910224 0.887436 0.8918 0.87692 0.886987 0.883397 0.901421 0.892048 0.883969 0.89017 0.878294 0.886605 0.877909 0.879283 0.869241 0.86497 0.87188 0.859944 0.833023 0.809091 0.789217 0.765912 0.718886 0.733184 0.743268 0.745908 0.772032 0.80104 0.78067 0.746506 0.680866 0.752303 0.712969 0.709661 0.777233 0.964707 0.64044 0.640632 0.79946 0.723332 0.651445 0.776719 0.799222 0.573692 0.686162 0.531092 0.668114 0.839977 0.717266 0.81889 0.489143 0.592591 0.605667 0.61997 0.599654 0.79753 0.772489 0.655658 0.632324 0.616094 0.634635 0.625046 0.71263 0.693085 0.697638 0.754135 0.693172 0.679568 0.696571 0.717982 0.720767 0.770626 0.762191 0.837385 0.75179 0.68174 0.64897 0.720427 0.660799 0.706686 0.804636 0.770674 0.722665 0.621128 0.784454 0.751526 0.754185 0.768144 0.761305 0.650045 0.495129 0.814356 0.842671 0.884623 0.866762 0.874693 0.870795 0.834935 0.85397 0.827233 0.768612 0.968398 0.946958 0.938791 0.939923 0.924608 0.918818 0.908123 0.890752 0.873923 0.879654 0.857482 0.833514 0.867657 0.872421 0.887526 0.880697 0.914309 0.970027 0.986369 1.01001 0.94875 0.904981 0.894766 0.985499 0.978591 1.00284 0.976957 0.974659 0.987468 0.968891 0.976005 0.95877 0.9388 0.924518 0.929642 0.925316 0.892849 0.863193 0.865715 0.886588 0.890983 0.903358 0.897049 0.91133 0.903259 0.918271 0.901219 0.902078 0.893584 0.891984 0.876883 0.869425 0.839809 0.834213 0.804386 0.775686 0.749512 0.725982 0.69004 0.729121 0.722492 0.715071 0.748585 0.776549 0.751534 0.773293 0.784571 0.7722 0.726973 0.789571 0.749757 0.785281 0.804072 0.930279 0.848861 0.784082 0.647277 0.691719 0.668701 0.701468 0.713039 0.835419 0.733616 0.809973 0.615759 0.774187 0.815716 0.809499 0.729699 0.822814 0.643957 0.819756 0.735527 0.713492 0.836228 0.590596 0.620583 0.814924 0.825237 0.782473 0.773535 0.755184 0.736047 0.777051 0.728132 0.697638 0.721482 0.645299 0.661488 0.648668 0.660514 0.736646 0.705411 0.599973 0.693868 0.602382 0.710907 0.698448 0.667209 0.698237 0.753928 0.711116 0.693997 0.700676 0.725262 0.67016 0.705123 0.693146 0.724542 0.965044 0.833953 0.827546 0.732684 0.741122 0.695826 0.713357 0.733368 0.73276 0.769727 0.723405 0.751902 0.661966 0.583958 1.00313 0.905897 0.905574 0.884057 0.887018 0.882202 0.864533 0.823664 0.762239 1.08013 0.963515 0.907966 0.911322 0.914305 0.919516 0.896137 0.885794 0.879157 0.860735 0.884833 0.866043 0.8989 0.903513 0.935373 0.957868 0.969639 1.00267 1.02414 0.990248 0.932515 0.893367 0.894037 0.892978 0.989691 0.968429 0.994978 1.00578 0.99891 0.981539 0.97701 0.985416 0.949307 0.93086 0.936206 0.932068 0.931394 0.921778 0.963589 0.867705 0.890351 0.891034 0.892994 0.894275 0.906869 0.913829 0.923416 0.921209 0.939214 0.912103 0.938771 0.926813 0.907593 0.893907 0.883552 0.851185 0.875747 0.858577 0.82485 0.843951 0.810238 0.740134 0.664408 0.598947 0.714075 0.716558 0.747269 0.789311 0.790332 0.74859 0.772967 0.79583 0.785536 0.809336 0.786209 0.763407 0.707275 0.698431 0.648425 0.672268 0.705378 0.770431 0.631018 0.74535 0.60169 0.837971 0.789816 0.947895 0.749161 0.889268 0.688005 0.527903 0.847213 0.852817 0.456653 0.560118 0.533851 0.805514 0.751715 0.813126 0.810119 0.688415 0.606147 0.647726 0.648995 0.475701 0.549844 0.595418 0.526542 0.565209 0.586413 0.672468 0.600431 0.679221 0.647537 0.684751 0.629087 0.638595 0.69215 0.692291 0.689625 0.65511 0.675397 0.882859 0.688321 0.940513 0.733482 0.707424 0.717018 0.705869 0.711107 0.700418 0.710703 0.720159 0.736687 0.740558 0.712358 0.749352 1.10368 0.960724 0.844817 0.862425 0.878715 0.881052 0.881021 0.873342 0.854539 0.829233 0.757238 0.786145 1.44447 1.03848 0.907887 0.919371 0.905041 0.910635 0.922417 0.93588 0.89395 0.911458 0.897842 0.892367 0.881324 0.914467 0.917129 0.921657 0.953053 0.962305 0.947957 1.00231 0.902069 0.888029 0.879041 0.940731 0.996202 0.98699 1.00723 0.987448 1.02119 0.997786 0.988916 0.971031 0.989478 1.00518 0.928028 0.945331 0.971477 0.89223 0.884899 0.888571 0.888901 0.900497 0.922286 0.9062 0.92748 0.970051 0.962788 0.940096 0.911895 0.892376 0.889511 0.880986 0.858172 0.802022 0.861407 0.732701 0.783343 0.656804 0.700439 0.557371 0.737134 0.753637 0.802795 0.77453 0.801792 0.786009 0.776944 0.776633 0.776668 0.712042 0.754008 0.708479 0.699636 0.737048 0.694767 0.716499 0.721881 0.615376 0.670814 0.711513 0.783721 0.785589 0.402582 0.422643 0.110448 0.527671 0.281507 0.516844 0.453426 0.225598 0.362773 0.687142 0.971615 0.863089 0.754611 0.422893 0.406816 0.415399 0.492572 0.482183 0.517455 0.518203 0.527336 0.594883 0.569595 0.621761 0.629259 0.675478 0.677539 0.721183 0.722995 0.728417 0.706873 0.74144 0.763605 1.04663 0.806121 0.757402 0.699102 0.72426 0.682551 0.702703 0.7089 0.739543 0.754648 0.787818 0.797349 0.885864 0.887651 0.87505 0.900208 0.891652 0.88585 0.864977 0.868191 0.83481 0.822248 0.806262 0.944354 0.982607 0.976243 0.941598 0.955425 0.909263 0.954051 0.932544 0.945997 0.932056 0.912857 0.928513 0.900627 0.900563 0.92624 0.945992 0.955872 0.988971 0.972012 0.94704 0.963095 1.03247 0.922727 0.867515 0.857604 0.932475 1.00977 0.975151 0.982456 0.993911 0.986826 0.985371 0.984982 1.00896 0.95831 0.97027 0.973607 0.921227 0.897582 0.886064 0.900879 0.898645 0.959485 0.90939 1.01039 0.902108 0.996755 1.00472 0.948419 0.906338 0.910277 0.902052 0.919272 0.905715 0.834178 0.720929 0.64709 0.689928 0.726487 0.802788 0.775632 0.7455 0.771666 0.746648 0.75297 0.729972 0.761309 0.730738 0.748604 0.756773 0.740013 0.687009 0.667661 0.649105 0.693692 0.717474 0.659456 0.61287 0.769328 0.709994 0.783361 0.680856 0.615926 0.861423 0.582915 0.737967 0.993714 0.549132 0.788814 0.474205 0.287092 0.644291 0.359649 0.635556 0.403578 0.0827122 0.133155 1.62567 0.499493 0.375547 0.586051 0.515703 0.659734 0.499233 0.455739 0.478075 0.448693 0.487712 0.518613 0.558693 0.617233 0.64225 0.646713 0.673351 0.650605 0.677712 0.709859 0.710866 0.720057 0.727854 0.613562 0.527644 0.806074 0.751448 0.754806 0.665543 0.687422 0.715469 0.745733 0.747689 0.772273 0.828512 0.873625 0.939372 0.962156 0.930735 0.933695 0.908085 0.889794 0.882674 0.873588 0.843424 0.835152 0.85934 0.977568 0.960963 0.940998 0.975512 0.953404 0.944081 0.934298 0.888874 0.905557 0.924848 0.953325 1.00588 0.941698 0.972609 0.979841 0.919096 1.05047 0.967535 0.884747 0.808334 0.922382 0.928602 1.0279 0.928082 0.945666 0.975798 0.997002 0.989992 0.984785 0.999654 0.992384 0.99762 0.999588 1.01109 0.977414 0.967116 0.972312 0.884051 0.900646 0.877558 0.916062 0.921635 0.951978 0.983289 0.939834 0.925218 0.874245 1.066 0.935881 1.0781 0.931362 0.957149 0.995845 0.879682 0.937548 0.875344 0.976664 0.826953 1.04112 0.845914 0.981016 0.910677 0.771934 0.839768 0.712965 0.721673 0.710122 0.690256 0.701343 0.705191 0.732392 0.732258 0.795628 0.691438 0.595999 0.687617 0.671559 0.677695 0.690361 0.604804 0.626653 0.655332 0.707276 0.599223 0.57199 0.425447 0.47962 0.558442 0.433385 0.404511 0.361104 0.31471 0.375349 0.285575 1.45708 0.0278968 0.469262 0.319363 0.423023 0.2182 0.302489 0.328424 0.979498 0.931661 0.313668 0.525797 0.378281 0.476516 0.443512 0.482807 0.466405 0.399695 0.491896 0.513888 0.405449 0.508042 0.611802 0.658738 0.661431 0.682373 0.687765 0.707148 0.705404 0.716413 0.705977 0.683638 0.665228 0.761266 0.814524 0.821014 0.689303 0.584247 0.773277 0.80725 0.768684 0.822173 0.801527 0.870529 1.01322 1.1296 0.960847 0.885359 0.882671 0.863163 0.855 0.844262 0.878326 1.01422 0.976721 0.96807 0.94718 0.971239 0.965798 0.954627 0.956548 0.953325 0.941544 0.963824 0.90896 0.932247 0.908305 0.967094 0.948958 1.02176 1.0063 0.860467 1.05626 1.00013 0.831254 0.899224 0.955719 1.00019 0.94463 0.973769 0.97981 0.986891 0.989487 0.994292 0.997097 0.995288 0.980373 0.994943 0.982622 0.995972 0.979235 0.985621 0.972814 0.938457 0.863966 0.912786 0.930817 0.979763 1.05144 0.828959 0.878423 0.84707 0.794266 0.964158 1.05371 0.769252 0.698388 0.930932 0.971008 1.15625 0.875015 1.03065 0.717385 1.05216 0.862005 0.777097 0.717687 0.670688 0.684458 0.695247 0.721 0.713657 0.737869 0.741969 0.718857 0.742701 0.693163 0.660575 0.65939 0.647612 0.725171 0.606316 0.54058 0.577013 0.593018 0.574112 0.619583 0.523212 0.419513 0.399181 0.534605 0.379721 0.498943 0.560844 0.544912 0.582981 0.648924 0.575432 0.474028 0.919508 0.519153 0.328968 0.608577 0.716008 0.154514 0.772913 0.220367 0.467946 0.632559 0.435793 0.418498 0.465444 0.411081 0.565713 0.685256 0.345523 0.654688 0.704576 0.612815 0.649235 0.66619 0.667412 0.690363 0.707845 0.695708 0.682474 0.692431 0.683735 0.709359 0.713579 0.704592 0.771714 0.717443 0.752712 0.578483 0.942623 0.939422 0.781511 0.722653 0.782373 0.886333 0.840091 0.801064 0.81476 0.894412 1.09895 0.892642 0.960007 0.852711 0.895982 0.874512 0.888795 0.86345 0.861863 0.83602 1.00051 0.885959 0.954072 0.966733 0.96533 0.964004 0.973104 0.955339 0.946559 0.936542 0.991139 0.980175 0.955992 0.948634 0.943553 0.943999 0.880827 0.802027 1.0963 0.899619 0.875493 1.00683 1.02836 0.937572 0.983798 0.98816 0.957257 0.982554 0.988405 0.986875 1.00104 1.00285 0.990251 1.00133 0.990417 0.953435 0.933727 0.832915 0.917865 0.90319 0.934337 1.01603 1.16437 0.789795 0.868758 0.850524 0.80811 0.856289 0.908406 1.0729 0.766 0.782915 0.832765 1.06171 0.908485 0.830781 0.965829 0.827132 0.657188 0.773253 0.679302 0.656829 0.742244 0.721521 0.740011 0.742981 0.728892 0.750611 0.716609 0.727367 0.689931 0.652918 0.70952 0.700483 0.647041 0.563404 0.607141 0.507035 0.43497 0.43264 0.413003 0.390571 0.353627 0.26673 0.421833 0.448271 0.480231 0.471108 0.844998 0.63111 0.268483 0.529743 0.487113 0.483625 0.827422 0.153714 0.883843 0.464558 0.585587 0.426715 0.500073 0.441325 0.505307 0.559407 0.524133 0.293849 0.669578 0.72987 0.788449 0.624731 0.628042 0.560153 0.666207 0.711631 0.729022 0.657706 0.679156 0.767185 0.727503 0.676426 0.839889 1.01223 0.969847 0.842969 0.777004 0.592415 1.12693 0.907154 0.683589 0.582862 0.865148 0.902278 0.866732 0.933974 0.91914 0.898486 0.841139 0.942221 1.03925 0.872104 0.947222 0.972844 0.975334 0.975438 0.983404 0.961236 0.968896 0.963052 0.985114 0.997845 1.01105 0.980604 0.976747 1.01506 0.977254 0.923573 0.944885 1.01542 1.15181 1.01503 0.992151 1.00411 0.99728 0.995462 0.94601 0.983415 0.983294 1.00858 1.00687 1.00147 1.0057 1.00358 0.995473 0.942162 1.00235 1.00998 0.945849 0.903305 1.05929 0.732295 0.857826 0.841445 0.814926 0.830673 0.917973 1.00544 0.925717 0.858368 0.876343 0.846007 0.961534 0.881402 0.799629 0.979508 0.868576 0.89301 0.951599 0.736839 0.743714 0.743306 0.747922 0.750451 0.74099 0.762855 0.771668 0.735948 0.748657 0.707135 0.655309 0.520912 0.403447 0.365804 0.328565 0.413149 0.334194 0.459569 0.409546 0.640179 0.512788 0.669009 0.32727 0.578343 0.6276 0.750776 0.835073 0.940125 0.503149 0.569616 0.530487 0.537134 0.501643 0.621603 0.729006 1.10522 0.768106 0.518986 0.466025 0.631289 0.533092 0.643559 0.756008 0.817424 0.580483 0.755739 0.823459 0.767869 0.760514 0.732476 0.848029 0.957455 1.05414 0.949498 0.853093 0.761195 0.726802 1.02495 0.851628 0.999769 0.647363 0.91059 0.952334 0.921189 0.900332 0.898618 0.881074 0.972369 0.818417 1.02021 1.01944 0.999225 0.989613 0.982199 0.975874 0.98028 0.955307 0.973344 1.00553 0.969489 0.986423 0.964293 1.0067 0.952527 1.07307 1.12161 1.07397 1.04873 0.989118 1.03481 1.04708 0.99585 1.01065 1.00347 1.01578 0.999614 1.03311 1.00673 1.00723 1.00585 1.01391 0.990536 1.02062 1.00798 0.914468 0.984177 0.969109 1.33209 1.01918 0.891388 0.836951 0.81654 0.855005 0.914617 0.936357 0.895571 0.885396 0.893839 0.849499 0.810983 0.693805 0.816906 0.835079 0.894592 0.827629 0.744074 0.767241 0.763296 0.764137 0.773223 0.780492 0.783244 0.768851 0.738436 0.584676 0.567869 0.353306 0.295908 0.259144 0.36118 0.461955 0.536983 0.627981 0.652815 0.687179 0.822341 0.868013 0.692396 0.752277 0.552018 0.557954 0.538709 0.485059 0.610795 0.674571 0.678024 0.727526 0.746111 0.466097 0.759341 0.800289 0.641605 0.99374 0.77823 1.36348 1.03982 0.50649 0.830617 0.863046 0.793373 0.791135 0.821552 0.887465 0.9279 0.969879 0.927192 0.871992 0.714575 0.861637 0.878646 0.70732 1.11929 0.995611 0.83275 1.00108 0.923279 0.928912 0.950463 0.846414 1.13307 0.967765 1.01699 0.960749 0.962142 0.987221 0.98948 0.96098 0.996534 0.966793 0.993246 1.01955 0.987839 1.06714 1.00571 1.06712 1.05349 1.02094 1.02943 1.04001 1.05725 1.0143 1.01793 1.0364 1.02417 1.0136 1.01693 1.01255 1.01501 1.01723 1.01957 1.01816 1.00266 1.02085 1.02468 1.01922 1.04125 1.01901 0.941411 0.965777 0.910036 1.10656 0.989532 0.971931 0.759585 0.80329 0.835894 0.898851 0.932072 0.947977 0.879796 0.893715 0.91292 0.827319 0.765644 0.869373 0.895241 0.809458 0.790211 0.797471 0.795562 0.786992 0.777345 0.790406 0.779849 0.792821 0.779004 0.791466 0.784826 0.808179 0.800652 0.803425 0.799745 0.737322 0.741235 0.346514 0.383754 0.129173 0.335873 0.562232 0.432187 0.489643 0.670079 0.680011 0.683773 0.696703 0.702874 0.805344 0.811903 0.646089 0.790012 0.725992 0.640686 0.58668 0.392294 0.670123 0.746742 0.716675 0.70203 0.701342 0.984199 0.614735 0.601135 1.6376 0.525555 0.448085 0.934822 0.798346 0.931723 0.800323 0.768859 0.776069 0.761744 0.907456 0.966152 0.964841 0.92872 0.932502 0.871789 0.997877 0.868287 0.768023 0.967844 0.96611 0.959361 0.928597 0.916751 0.898006 0.926997 0.712097 0.971128 1.06495 1.06564 1.0483 0.99244 0.989608 0.980024 0.933768 0.98735 0.996534 0.978106 1.02524 1.01544 1.05392 1.09974 1.05661 1.02652 1.06659 1.05552 1.0541 1.04689 1.05759 1.01499 1.04488 1.03855 1.02553 1.04022 1.02178 1.013 1.03129 1.00717 1.01241 1.02183 1.03457 1.03175 1.0365 1.07102 1.09257 1.06259 0.987046 0.952686 0.985021 0.94784 1.08263 1.00766 1.02738 0.698698 0.804637 0.789376 0.914194 1.03041 0.869435 0.890817 0.923901 0.912349 0.722659 0.800959 0.796328 0.865179 0.892985 0.79067 0.792908 0.787082 0.795216 0.795195 0.803603 0.79438 0.798033 0.784301 0.779693 0.776962 0.785303 0.790631 0.839596 0.861184 0.786039 0.72281 0.898156 0.574394 0.61929 0.685236 0.511701 0.588982 0.691544 0.711508 0.709961 0.727578 0.788278 0.785144 0.760555 0.734015 0.765831 0.446017 0.774118 0.752978 0.715192 0.758276 0.737517 0.689361 0.699165 0.65758 0.689943 0.606586 0.548468 1.01803 0.959641 1.04707 0.868292 0.853431 0.80557 0.794119 0.728967 0.987702 0.960412 0.920957 0.928429 0.914292 0.918303 0.840213 0.93137 0.968496 0.964533 0.961789 0.907892 0.9341 0.971568 1.04333 0.966422 1.07527 1.08486 1.01225 0.991329 0.971631 0.997417 1.03536 1.00128 0.89734 0.982976 1.01408 0.983627 1.05012 1.01211 1.00196 1.03034 1.07344 1.08597 1.0583 1.06749 1.07422 1.04062 1.05028 1.04551 1.03171 1.03485 1.02153 1.05767 1.0183 1.03094 1.04742 1.08337 1.09203 1.03238 0.963438 0.99886 0.993184 0.988264 0.966496 1.01521 0.823669 1.03603 0.809428 0.951078 0.878022 0.902778 0.89078 0.907216 0.922698 0.96886 0.978465 0.846341 0.845599 0.812874 0.885606 0.862106 0.838884 0.818761 0.781286 0.804616 0.810503 0.79841 0.809757 0.779526 0.78572 0.779458 0.855747 0.791857 0.830952 0.899074 0.682753 0.835473 0.766741 0.789405 0.682702 0.514236 0.72848 0.574339 0.593459 0.637244 0.716554 0.731263 0.735101 0.770177 0.765685 0.678424 0.701087 0.804412 0.841112 0.513684 0.741766 0.814756 0.770046 0.729104 0.699678 0.717598 0.714081 1.00068 0.959433 0.853107 0.795926 0.794084 0.75486 1.11607 1.04934 0.946966 0.929479 0.919242 0.930569 0.948291 0.919697 0.917106 0.876019 0.902171 0.949905 0.946055 0.967953 0.951063 0.964955 0.943259 0.961372 0.965702 0.972625 1.0346 1.00472 1.03132 1.0159 0.997075 1.02377 0.984317 1.16118 1.17932 1.44472 1.01322 1.09454 1.02019 1.01078 1.05838 1.09353 1.0833 1.07781 1.08676 1.06617 1.08396 1.05104 1.05824 1.03889 1.03449 1.04882 1.01925 1.04275 1.07868 1.03268 1.04371 1.08437 1.09397 1.0891 1.1197 0.876664 1.02241 1.00539 0.972296 1.04541 1.01974 1.04546 0.869249 1.10321 1.10249 1.00478 0.851093 0.873824 0.896956 0.931101 0.980177 0.942089 0.864412 0.871965 0.896781 0.86776 0.859914 0.846105 0.807868 0.800415 0.814811 0.822117 0.803055 0.788659 0.796063 0.816038 0.853777 0.931152 0.800148 0.715494 0.694588 0.783655 0.827042 0.772267 0.446857 0.43507 0.731817 0.742356 0.748542 0.761981 0.773573 0.698364 0.874104 0.735531 1.05008 0.756902 0.752759 0.733946 0.699677 0.745537 0.777979 0.846223 0.956681 0.975786 0.927461 0.841696 0.773452 0.740214 0.999756 0.981542 0.946543 0.937095 0.932284 0.937826 0.918661 0.962159 0.973007 0.967029 0.967666 0.976028 0.974803 1.00307 1.04951 1.02118 1.02136 1.0453 1.01678 1.05007 0.956541 1.17382 1.04412 1.04256 1.07691 1.14104 1.07636 1.05448 1.06256 1.11206 1.08182 1.0843 1.09045 1.045 1.10774 1.07063 1.05832 1.04579 1.04538 1.05488 1.01289 1.05055 1.08803 1.04681 1.03985 1.08735 1.11424 1.15015 0.886574 1.01238 0.964577 1.06711 1.00197 0.995566 1.05661 1.00707 1.05154 0.961477 0.966192 0.902761 0.887376 0.949101 0.964374 0.921809 0.889254 0.892656 0.883115 0.877147 0.868299 0.846803 0.822861 0.811876 0.829374 0.822075 0.81187 0.802967 0.817473 0.850026 0.866246 0.814281 0.78693 0.793139 0.762769 1.03399 0.742682 0.869423 0.845566 0.910428 0.694266 0.721754 0.754679 0.751979 0.753755 0.755714 0.826856 0.912805 0.990941 1.02555 0.778741 0.720589 0.809673 0.827275 0.818473 0.988057 1.01715 0.929152 0.838914 0.784379 0.877678 0.752492 1.03374 0.963085 0.977725 0.924377 0.946984 0.945497 0.925324 0.906746 0.895838 0.9651 0.970593 0.968666 0.986744 1.01444 0.999684 1.00427 1.08898 1.0244 1.05281 1.06694 1.05405 1.02504 1.00462 1.04827 1.03027 1.04866 1.0928 1.13667 1.0928 1.13347 1.06887 1.08714 1.12221 1.094 1.08403 1.09303 1.0626 1.11397 1.09463 1.06583 1.05414 1.05694 1.07095 1.06142 1.05176 1.05506 1.06218 1.06883 1.04678 1.09274 1.10325 1.16083 1.02187 1.06811 0.965221 0.990251 1.00178 1.06426 1.03063 1.01459 1.02752 1.00857 0.938346 0.892683 0.958942 0.991735 0.930494 0.937521 0.946305 0.925968 0.89343 0.924142 0.891009 0.881537 0.865615 0.861264 0.836473 0.918492 0.869412 0.899776 0.792132 0.841967 0.816166 0.84879 0.838404 0.866884 0.832286 0.827483 0.835339 0.829952 0.778077 0.726179 1.16932 0.80404 0.888991 0.847688 0.830244 0.622402 0.816066 0.770814 0.770101 0.880064 0.897753 0.991051 0.994721 0.823616 0.770575 0.945896 0.875805 0.897173 0.830934 0.976223 0.967585 0.86092 0.813925 0.867816 0.946618 1.05361 0.970828 0.944383 0.948501 0.980496 0.958963 1.00835 0.970616 0.933793 0.981766 0.98991 0.972056 1.02513 1.04266 1.04973 0.977443 0.979807 1.08316 1.02612 1.07375 1.07222 1.05553 1.03125 1.0418 1.04741 1.15272 1.08791 1.09705 1.1298 1.06991 1.08378 1.12361 1.1127 1.09233 1.09104 1.11049 1.11654 1.11434 1.08037 1.06506 1.05655 1.07861 1.04483 1.06062 1.01581 1.07939 1.06596 1.0903 1.07263 1.11337 1.109 1.08165 1.11161 1.04179 0.981352 0.989712 1.00914 1.12428 1.03826 0.995996 0.951059 0.958747 1.00036 0.9388 0.938568 0.952106 0.928448 0.920049 0.93254 0.897433 0.89797 0.875387 0.886682 0.882277 0.926745 0.948975 0.801384 0.837058 0.856821 0.849115 0.839972 0.839829 0.788723 0.908615 1.09117 0.839089 0.872606 0.835882 0.81197 0.789682 0.997014 0.668399 0.784041 0.769807 0.772373 0.910422 0.893922 0.990037 0.97766 0.987429 0.917655 0.884193 0.851191 0.935969 0.969503 0.887751 0.864338 0.994986 0.961481 0.918843 0.83411 0.840427 0.855985 0.945303 1.07568 0.979069 0.95311 0.944193 0.98763 0.966913 1.0217 1.02954 0.986771 1.01676 1.04669 0.997484 0.952722 1.08019 1.03076 1.02826 0.952687 0.967871 1.07461 1.09489 1.08128 1.05693 1.05464 1.0468 1.05208 1.05969 1.16683 1.09134 1.12264 1.05244 1.0603 1.09569 1.1249 1.12637 1.10007 1.09888 1.11476 1.12204 1.08853 1.07755 1.06117 1.08983 1.02469 1.09767 1.13976 1.09073 1.08283 1.12343 1.10899 1.06589 1.0981 1.05126 1.0081 0.987128 1.0339 1.06194 1.08982 1.01678 0.988867 0.931125 0.931757 0.934397 0.924322 0.980546 0.934133 0.904296 0.899649 0.894669 0.896632 0.890407 0.940029 0.954782 0.930325 0.912977 0.904547 0.788532 0.845458 0.917843 0.822647 0.877209 0.852546 0.839081 0.978218 0.967223 0.875699 0.866438 0.847821 0.79761 0.703212 0.799034 0.981559 0.954357 0.906894 0.922546 0.950458 0.960882 0.955691 1.01606 0.93392 0.967893 0.904501 1.05333 0.855931 0.933099 0.934049 0.923287 0.848693 0.792434 0.820771 0.854768 0.93091 1.05859 0.939736 0.961724 0.989401 0.996637 1.01141 1.02585 0.996849 1.03922 1.03865 0.973874 1.07621 1.04264 0.966943 0.949189 1.05532 1.11787 1.10617 1.10383 1.09999 1.06419 1.05315 1.03578 1.05495 1.07841 1.14587 1.15951 1.11057 1.06715 1.1623 1.07715 1.07273 1.11564 1.11743 1.10944 1.12049 1.12008 1.09964 1.12782 1.10657 1.13338 1.1255 1.07503 1.11217 1.0974 1.11083 1.11846 1.13605 1.14598 1.08756 1.07206 1.07769 1.11371 1.04887 1.12987 1.05949 1.02995 1.06807 1.05871 1.02462 1.09321 1.02364 0.987822 0.942079 0.914584 0.934632 1.01293 0.961468 0.941959 0.897512 0.899131 0.964737 0.933937 0.933362 0.922755 1.00096 0.959075 0.822099 0.891709 0.909076 0.993249 0.954329 0.919702 0.895463 0.876258 0.853035 0.834746 0.749352 0.772982 0.729258 0.851655 0.983377 1.00327 0.928868 0.926277 0.915036 0.954515 0.938995 1.0008 0.964747 0.949642 0.930706 1.00875 0.939862 0.890596 0.847788 0.894807 0.89364 1.03344 1.00959 1.02099 0.968164 0.997607 1.00888 1.0245 0.982543 1.01621 1.05334 0.968011 1.12055 1.04928 1.15022 1.08571 0.978884 1.05239 1.13405 1.11203 1.06904 1.07324 1.07463 1.06908 1.0316 1.03925 1.08563 1.18864 1.06324 1.19029 1.19108 0.979572 1.16662 1.13379 1.12787 1.10104 1.1313 1.12773 1.09363 1.21543 1.13367 1.14745 1.09864 1.11567 1.1272 1.13389 1.10248 1.08582 1.07215 1.09561 1.09022 1.11075 1.03087 1.1918 1.07978 1.08214 1.082 1.06316 1.0298 1.03465 1.00415 0.948474 0.906012 0.918124 1.06429 0.988087 0.941353 0.96008 0.895214 0.939482 0.963645 0.933004 0.93428 0.948582 0.958309 0.98896 1.04436 0.906529 0.945946 0.930507 0.868811 0.949439 0.981976 0.917884 0.944266 0.884338 0.907713 0.884367 0.842138 0.858558 0.824574 0.72798 0.949486 0.991126 0.981651 0.99056 0.980283 0.955272 0.949277 1.01088 0.964673 0.927388 0.975367 1.01353 0.986681 0.918131 0.864539 0.818098 0.897954 0.925243 0.992673 0.861443 0.916711 1.05641 0.984348 1.01694 0.993573 1.01138 0.973259 1.00114 1.0695 0.96609 1.02952 1.05041 1.13688 1.06218 1.13215 1.13087 1.14813 1.08915 1.06675 1.08094 1.04588 1.05598 1.08988 1.19266 1.13432 1.15713 1.2004 1.19405 1.15518 1.14733 1.15091 1.13962 1.12946 1.13219 1.1395 1.13947 1.19108 1.15061 1.15719 1.10505 1.1176 1.116 1.12766 1.12752 1.14063 1.11908 1.09983 1.11527 1.09828 1.1021 1.01384 1.1735 1.09258 1.0701 1.07997 1.06984 1.05924 1.0764 1.02562 1.02342 1.0792 0.902999 1.0329 0.937008 0.949982 0.965466 1.03893 0.951279 0.952238 0.953737 0.943845 0.933387 0.927906 0.961732 0.919018 0.95887 0.926531 0.92887 0.917605 0.981778 1.01036 0.978373 0.922059 0.910108 0.881745 0.839546 0.797509 0.864516 0.928376 0.936217 0.92317 0.964453 1.00706 0.980654 0.987401 1.02155 0.96131 0.997937 0.973591 0.914379 0.97214 1.0305 1.00365 0.945102 0.866027 0.957774 0.936782 0.976619 0.915451 1.00308 0.995393 1.02068 0.998959 1.00348 0.976559 1.04146 0.99351 1.06324 1.06024 1.13628 1.06303 1.12881 1.13535 1.1544 1.06801 1.09022 1.10305 1.06935 1.08289 1.06869 1.07395 1.18512 1.15873 1.14528 1.19475 1.19722 1.16587 1.1643 1.15143 1.14061 1.13634 1.15295 1.15348 1.10986 1.12046 1.12102 1.14258 1.14166 1.13113 1.12831 1.14729 1.12928 1.14433 1.13649 1.09355 1.09242 1.11125 1.17871 1.12003 1.07747 1.07329 1.03234 1.05731 1.07654 1.01347 1.03234 1.14065 1.0142 0.864499 1.0305 1.0188 0.951541 1.05542 0.97097 0.95736 0.958367 0.94888 0.938463 0.949636 0.950124 0.991291 0.948711 0.964307 1.04923 0.956718 0.903836 0.900875 0.888879 0.901836 0.854944 0.935052 0.935447 0.959168 1.01403 1.02485 0.974748 1.00241 0.980155 0.98268 0.961139 1.09182 1.04758 0.993698 0.853663 1.04524 0.945717 0.895953 0.884401 1.03693 1.03564 1.09321 1.00849 0.999672 0.988516 1.00675 1.0556 1.0781 0.997146 1.04828 1.0783 1.08205 1.1399 1.15803 1.06487 1.07469 1.06832 1.11221 1.15551 1.15552 1.18756 1.16219 1.11 1.15039 1.13455 1.11804 1.13097 1.09872 1.0917 1.11509 1.1138 1.15215 1.12919 1.07641 1.07508 1.03066 1.0588 1.07456 1.03565 1.04355 1.03044 1.09546 1.09625 1.12884 1.08632 0.949067 0.924278 1.08515 0.99982 0.971657 0.975102 0.974046 0.949344 0.941948 0.94584 0.982711 0.98688 0.946515 0.918059 0.965388 1.03655 0.964246 0.916546 0.897424 1.18466 0.919132 0.875552 0.948299 0.994343 0.983018 1.05883 0.937994 0.912399 
SCALARS Stress float 1
LOOKUP_TABLE default
-158869000000.0 -192750000000.0 -131560000000.0 -314210000000.0 -252203000000.0 -136544000000.0 -217070000000.0 -241869000000.0 -60672600000.0 -249768000000.0 -266053000000.0 -292317000000.0 -103847000000.0 -743789000000.0 -384390000000.0 -1.04276e+12 -668498000000.0 -492878000000.0 -1.14832e+12 -678778000000.0 -482555000000.0 -249987000000.0 -353496000000.0 -1.01863e+12 -329384000000.0 -545304000000.0 -217378000000.0 -92320500000.0 -493283000000.0 -319056000000.0 -232972000000.0 -651874000000.0 -1.08476e+12 -555248000000.0 -1.05469e+12 -889055000000.0 -1.20428e+12 -1.16602e+12 -1.42637e+12 -824984000000.0 -1.0158e+12 -1.33012e+12 -1.49919e+12 -1.15008e+12 -453380000000.0 -950173000000.0 -877802000000.0 -1.14518e+12 -573506000000.0 -1.52218e+12 -933352000000.0 -389519000000.0 -885668000000.0 -1.54573e+12 -556529000000.0 -542870000000.0 -1.70429e+12 -1.00155e+12 -1.20584e+12 -1.87185e+12 -915259000000.0 -741607000000.0 -1.51973e+12 -1.30971e+12 -2.39772e+12 -1.6082e+12 -2.0915e+12 -395047000000.0 -916856000000.0 -1.05053e+12 -900068000000.0 -1.51647e+12 -1.58546e+12 -1.85332e+12 -711216000000.0 -1.32878e+12 -715924000000.0 -1.77116e+12 -1.05418e+12 -2.03862e+12 -2.21719e+12 -1.38444e+12 -1.48576e+12 -1.78866e+12 -1.76861e+12 -2.75536e+12 -3.07453e+12 -2.41314e+12 -1.61591e+12 -3.31692e+12 -1.21599e+12 -2.9263e+12 -2.44722e+12 -2.66081e+12 -2.4984e+12 -793513000000.0 -2.43864e+12 -1.94772e+12 -2.56711e+12 -1.91868e+12 -1.44518e+12 -2.49725e+12 -1.32591e+12 -1.79183e+12 -2.44106e+12 -2.11736e+12 -1.94114e+12 -2.42501e+12 -1.42196e+12 -835291000000.0 -493364000000.0 -1.47599e+12 -918963000000.0 -3.56884e+12 -1.69632e+12 -3.56673e+12 -2.21924e+12 -2.71218e+12 -2.8163e+12 -1.26168e+12 -2.48659e+12 -1.81651e+12 -2.38111e+12 -955397000000.0 -1.1678e+12 -2.12394e+12 -2.14976e+12 -5.33511e+12 -2.93936e+12 -3.13896e+12 -845224000000.0 -1.07638e+12 -1.55255e+12 -2.5596e+12 -1.8322e+12 -1.47821e+12 -1.58383e+12 -3.90732e+12 -3.33471e+12 -3.66256e+12 -2.9555e+12 -2.33812e+12 -1.79651e+12 -2.40993e+12 -3.95598e+12 -3.58891e+12 -4.99802e+12 -3.52257e+12 -3.02137e+12 -1.94206e+12 -2.33551e+12 -3.04713e+12 -4.00685e+12 -1.45042e+12 -2.71674e+12 -1.44926e+12 -3.86878e+12 -1.24771e+12 -1.17513e+12 -1.80319e+12 -2.06369e+12 -2.38095e+12 -3.13158e+12 -3.28121e+12 -3.7589e+12 -835947000000.0 -683781000000.0 -1.66929e+12 -1.53521e+12 -2.34503e+12 -5.24552e+12 -3.74599e+12 -4.85295e+12 -4.12741e+12 -3.04567e+12 -3.2622e+12 -5.19891e+12 -2.77397e+12 -3.42315e+12 -3.36107e+12 -2.03493e+12 -2.89621e+12 -4.81603e+12 -4.36907e+12 -4.5087e+12 -2.47662e+12 -4.26522e+12 -2.51442e+12 -3.55163e+12 -3.57324e+12 -3.74111e+12 -3.73827e+12 -5.49073e+12 -2.11347e+12 -2.68867e+12 -1.66229e+12 -2.86559e+12 -2.38957e+12 -3.24111e+12 -6.18026e+12 -2.29405e+12 -6.25786e+12 -5.23592e+12 -4.73853e+12 -3.17075e+12 -6.6599e+12 -5.72779e+12 -5.41078e+12 -2.84995e+12 -6.35036e+12 -4.01909e+12 -5.41719e+12 -1.1941e+12 -4.08742e+12 -3.60635e+12 -3.17304e+12 -4.396e+12 -2.94351e+12 -5.35024e+12 -4.12205e+12 -1.59202e+12 -3.15941e+12 -1.7031e+12 -2.80171e+12 -3.44855e+12 -2.87065e+12 -5.53729e+12 -6.15857e+12 -5.35198e+12 -5.48494e+12 -4.52449e+12 -2.42341e+12 -4.76001e+12 -4.07859e+12 -4.53758e+12 -3.37239e+12 -5.08129e+12 -7.59549e+12 -4.96324e+12 -6.38894e+12 -3.68281e+12 -5.74492e+12 -5.32806e+12 -6.17051e+12 -1.69964e+12 -6.80835e+12 -3.02358e+12 -2.72189e+12 -3.36535e+12 -2.23929e+12 -4.10368e+12 -3.46615e+12 -4.10775e+12 -6.12857e+12 -6.75262e+12 -3.21222e+12 -3.72659e+12 -5.54443e+12 -6.27201e+12 -6.57227e+12 -3.25496e+12 -4.54098e+12 -4.33855e+12 -3.16454e+12 -4.86501e+12 -4.25694e+12 -6.48595e+12 -3.00505e+12 -3.78114e+12 -4.06306e+12 -5.41725e+12 -5.2423e+12 -6.00906e+12 -6.08884e+12 -2.59081e+12 -2.64565e+12 -5.18165e+12 -4.15816e+12 -3.66781e+12 -6.09978e+12 -4.59271e+12 -5.03257e+12 -5.88958e+12 -4.86151e+12 -2.97504e+12 -4.39376e+12 -4.54994e+12 -5.43686e+12 -5.42982e+12 -6.5447e+12 -6.20051e+12 -6.28802e+12 -4.3122e+12 -2.29767e+12 -3.26548e+12 -2.80138e+12 -2.6106e+12 -4.5499e+12 -7.12473e+12 -4.43928e+12 -6.49818e+12 -2.55308e+12 -4.41474e+12 -5.03704e+12 -4.33156e+12 -3.03254e+12 -7.44613e+12 -8.40761e+12 -4.9956e+12 -8.85129e+12 -3.89062e+12 -3.23577e+12 -5.08693e+12 -4.67892e+12 -6.84209e+12 -6.93681e+12 -5.42575e+12 -7.27951e+12 -6.88106e+12 -9.06877e+12 -5.89774e+12 -4.39164e+12 -5.45744e+12 -6.03818e+12 -7.35298e+12 -3.99785e+12 -3.49644e+12 -4.39703e+12 -6.08031e+12 -5.76915e+12 -4.26965e+12 -6.17529e+12 -3.57907e+12 -4.47429e+12 -4.99584e+12 -2.52153e+12 -4.26397e+12 -4.6214e+12 -5.6129e+12 -6.48769e+12 -2.99626e+12 -8.51573e+12 -6.67598e+12 -6.27372e+12 -1.10637e+13 -9.06673e+12 -7.09824e+12 -3.56816e+12 -4.53316e+12 -5.9481e+12 -5.59372e+12 -4.12599e+12 -7.75204e+12 -3.58188e+12 -6.36503e+12 -3.16075e+12 -3.74395e+12 -8.55348e+12 -6.55912e+12 -4.6932e+12 -5.81987e+12 -7.16205e+12 -5.13266e+12 -4.73987e+12 -6.27114e+12 -4.24293e+12 -6.157e+12 -5.74787e+12 -3.47201e+12 -3.85027e+12 -2.64427e+12 -3.33801e+12 -3.45667e+12 -3.90506e+12 -4.31129e+12 -5.84037e+12 -3.77815e+12 -3.20232e+12 -4.36474e+12 -4.77505e+12 -3.36733e+12 -5.13522e+12 -2.55343e+12 -6.50627e+12 -4.59917e+12 -4.9829e+12 -5.22716e+12 -6.57953e+12 -3.3828e+12 -6.00318e+12 -6.79766e+12 -7.87809e+12 -6.68954e+12 -2.36554e+12 -8.98541e+12 -4.61963e+12 -7.30318e+12 -6.89243e+12 -5.42567e+12 -2.54e+12 -3.79155e+12 -4.4641e+12 -3.92688e+12 -8.0768e+12 -6.37061e+12 -1.08261e+13 -8.95585e+12 -4.96838e+12 -4.09728e+12 -5.57771e+12 -5.76811e+12 -4.60995e+12 -7.83723e+12 -6.31835e+12 -5.11307e+12 -5.72148e+12 -5.13767e+12 -6.1725e+12 -5.3986e+12 -5.43236e+12 -4.68612e+12 -5.89234e+12 -4.03017e+12 -5.02477e+12 -5.1492e+12 -4.61214e+12 -3.97995e+12 -4.67142e+12 -3.8399e+12 -5.13548e+12 -3.30237e+12 -4.0932e+12 -4.15639e+12 -4.06728e+12 -4.91194e+12 -4.89468e+12 -5.98787e+12 -5.07982e+12 -4.10308e+12 -5.75162e+12 -6.75112e+12 -6.85202e+12 -5.83798e+12 -5.62458e+12 -7.4835e+12 -7.40725e+12 -3.93988e+12 -6.2296e+12 -4.42436e+12 -6.64215e+12 -8.63798e+12 -8.00374e+12 -6.74349e+12 -4.68163e+12 -7.14908e+12 -8.48948e+12 -3.52126e+12 -4.97189e+12 -4.69651e+12 -4.39852e+12 -1.00801e+13 -7.03336e+12 -1.02426e+13 -7.86587e+12 -8.39151e+12 -8.03347e+12 -1.11349e+13 -7.71758e+12 -6.83663e+12 -8.84625e+12 -4.89026e+12 -8.64952e+12 -4.20689e+12 -8.21438e+12 -5.97641e+12 -3.39417e+12 -3.91835e+12 -6.51663e+12 -6.62559e+12 -2.98729e+12 -3.97558e+12 -3.65226e+12 -4.73954e+12 -5.92887e+12 -5.2916e+12 -3.01607e+12 -4.85839e+12 -2.70085e+12 -3.75622e+12 -3.79155e+12 -3.22975e+12 -8.40924e+12 -6.63171e+12 -7.17761e+12 -6.68645e+12 -4.19023e+12 -3.81424e+12 -4.9464e+12 -6.4179e+12 -6.05476e+12 -7.28453e+12 -5.10537e+12 -8.49216e+12 -2.84862e+12 -3.82199e+12 -6.37198e+12 -6.05391e+12 -6.87156e+12 -7.18215e+12 -6.52703e+12 -8.6225e+12 -1.01231e+13 -6.43969e+12 -5.7556e+12 -5.86581e+12 -5.37364e+12 -8.89727e+12 -8.78299e+12 -1.33504e+13 -4.42473e+12 -3.85771e+12 -3.95966e+12 -4.475e+12 -5.95447e+12 -6.70843e+12 -4.41138e+12 -6.23726e+12 -3.54235e+12 -4.36654e+12 -8.48585e+12 -5.57966e+12 -5.10343e+12 -5.43982e+12 -1.02922e+13 -3.47114e+12 -6.89425e+12 -7.32806e+12 -6.6639e+12 -4.35094e+12 -7.64003e+12 -6.54241e+12 -5.57178e+12 -4.48694e+12 -3.09836e+12 -5.59813e+12 -6.5028e+12 -7.27577e+12 -5.49443e+12 -4.85412e+12 -4.68627e+12 -5.17379e+12 -3.64951e+12 -4.52199e+12 -5.17451e+12 -4.36108e+12 -7.31081e+12 -5.61461e+12 -3.20166e+12 -5.64309e+12 -2.74517e+12 -5.35857e+12 -3.62971e+12 -5.73246e+12 -4.71395e+12 -6.47398e+12 -3.6841e+12 -5.15254e+12 -5.3278e+12 -5.22083e+12 -6.57555e+12 -2.47235e+12 -3.86229e+12 -4.59454e+12 -5.92838e+12 -7.88604e+12 -6.97734e+12 -8.78354e+12 -9.24604e+12 -5.3045e+12 -8.39518e+12 -5.49897e+12 -1.07608e+13 -7.58789e+12 -1.07442e+13 -8.65932e+12 -6.5859e+12 -6.89112e+12 -1.02479e+13 -7.88343e+12 -5.6969e+12 -6.01707e+12 -5.7253e+12 -4.10933e+12 -7.43281e+12 -5.84984e+12 -5.42044e+12 -1.01958e+13 -5.96659e+12 -7.43334e+12 -5.77594e+12 -7.55382e+12 -3.9734e+12 -5.85756e+12 -8.11178e+12 -4.17802e+12 -5.71557e+12 -6.22286e+12 -7.62684e+12 -7.97104e+12 -5.64301e+12 -5.9683e+12 -3.79245e+12 -3.46459e+12 -6.1402e+12 -7.44836e+12 -8.91564e+12 -1.06298e+13 -5.60248e+12 -4.88492e+12 -4.26478e+12 -4.52744e+12 -3.47316e+12 -1.14246e+13 -5.52874e+12 -6.33059e+12 -4.44762e+12 -5.0003e+12 -5.24602e+12 -5.06786e+12 -4.05188e+12 -3.94452e+12 -7.00878e+12 -9.98686e+12 -5.33412e+12 -6.36159e+12 -2.695e+12 -7.87658e+12 -9.29992e+12 -9.27811e+12 -4.96211e+12 -4.4072e+12 -3.07273e+12 -6.03747e+12 -5.5442e+12 -5.43106e+12 -4.63064e+12 -1.08943e+13 -8.76241e+12 -8.46307e+12 -4.61263e+12 -6.10731e+12 -1.30433e+13 -1.07157e+13 -7.18722e+12 -7.66405e+12 -1.60393e+13 -3.74975e+12 -1.09163e+13 -5.699e+12 -1.0217e+13 -5.0382e+12 -7.45079e+12 -7.22149e+12 -5.70322e+12 -6.19566e+12 -8.08171e+12 -4.60545e+12 -4.4522e+12 -7.52906e+12 -4.82811e+12 -3.97586e+12 -3.5845e+12 -3.21693e+12 -4.19067e+12 -6.7375e+12 -7.55057e+12 -5.96876e+12 -1.04366e+13 -5.17205e+12 -3.44124e+12 -7.72277e+12 -8.4296e+12 -5.87488e+12 -5.15628e+12 -5.01362e+12 -4.51332e+12 -1.0156e+13 -8.29798e+12 -9.98538e+12 -7.08529e+12 -1.17201e+13 -8.2507e+12 -4.7996e+12 -5.01041e+12 -4.81037e+12 -6.52752e+12 -4.52904e+12 -7.23498e+12 -7.87433e+12 -8.15075e+12 -6.00875e+12 -5.11747e+12 -5.91173e+12 -5.65691e+12 -7.00912e+12 -4.23752e+12 -4.3115e+12 -4.44602e+12 -4.0032e+12 -6.55022e+12 -4.75906e+12 -5.78409e+12 -3.79492e+12 -4.66569e+12 -5.336e+12 -4.49433e+12 -5.61856e+12 -5.22034e+12 -7.07925e+12 -6.66996e+12 -4.29791e+12 -7.19227e+12 -6.52365e+12 -6.59049e+12 -6.60792e+12 -5.83239e+12 -2.67653e+12 -8.38084e+12 -5.09732e+12 -5.67935e+12 -1.17572e+13 -9.88275e+12 -4.60619e+12 -1.05337e+13 -9.52526e+12 -6.00378e+12 -6.48195e+12 -5.67865e+12 -6.1569e+12 -9.4328e+12 -7.494e+12 -9.23e+12 -1.17301e+13 -1.1351e+13 -5.91441e+12 -5.15476e+12 -7.033e+12 -5.3212e+12 -8.71061e+12 -3.87854e+12 -6.67085e+12 -7.20699e+12 -3.3173e+12 -4.97583e+12 -6.95903e+12 -3.44281e+12 -3.77288e+12 -4.91734e+12 -4.71704e+12 -7.67112e+12 -6.90904e+12 -6.27247e+12 -9.09785e+12 -8.65806e+12 -7.35097e+12 -1.02778e+13 -6.00938e+12 -5.35966e+12 -6.84416e+12 -6.21945e+12 -8.25711e+12 -1.00445e+13 -1.05988e+13 -8.26232e+12 -4.70868e+12 -1.01187e+13 -6.59955e+12 -3.64955e+12 -3.78857e+12 -5.1448e+12 -4.00029e+12 -3.97669e+12 -6.15774e+12 -7.92559e+12 -6.32824e+12 -4.52606e+12 -6.56638e+12 -4.38385e+12 -2.16207e+12 -5.8836e+12 -5.27857e+12 -5.24388e+12 -4.76831e+12 -2.64782e+12 -5.46527e+12 -5.43034e+12 -4.01115e+12 -5.81922e+12 -1.93235e+12 -6.91663e+12 -5.86745e+12 -3.83558e+12 -5.20242e+12 -4.25062e+12 -3.8875e+12 -5.75683e+12 -6.44036e+12 -6.24778e+12 -3.44473e+12 -4.84829e+12 -1.75751e+12 -4.24742e+12 -9.79645e+12 -3.65884e+12 -6.08257e+12 -2.65666e+12 -5.50888e+12 -5.79273e+12 -7.02198e+12 -7.24359e+12 -5.23717e+12 -6.74825e+12 -8.9226e+12 -6.91533e+12 -6.21729e+12 -4.52171e+12 -5.316e+12 -8.04158e+12 -4.30942e+12 -5.06953e+12 -9.22299e+12 -8.67128e+12 -1.00055e+13 -5.17095e+12 -9.44961e+12 -8.74989e+12 -5.98754e+12 -1.11214e+13 -1.0439e+13 -6.47885e+12 -6.26849e+12 -1.09828e+13 -6.40259e+12 -1.04112e+13 -6.4594e+12 -5.48237e+12 -5.52516e+12 -4.27247e+12 -9.03633e+12 -7.72731e+12 -2.64177e+12 -6.84786e+12 -5.31328e+12 -7.86373e+12 -5.12133e+12 -9.43287e+12 -7.64306e+12 -7.00484e+12 -7.67104e+12 -8.12851e+12 -6.67875e+12 -4.03873e+12 -4.24851e+12 -6.74622e+12 -4.62677e+12 -6.64568e+12 -8.02781e+12 -6.52137e+12 -7.26196e+12 -5.52696e+12 -9.41228e+12 -3.98166e+12 -5.35171e+12 -8.61293e+12 -8.76137e+12 -6.56331e+12 -7.65124e+12 -5.56167e+12 -6.59801e+12 -4.58806e+12 -3.1695e+12 -4.0855e+12 -5.11594e+12 -5.68072e+12 -3.51927e+12 -4.70196e+12 -4.88474e+12 -6.81708e+12 -3.03911e+12 -4.24818e+12 -5.33549e+12 -3.01023e+12 -3.72715e+12 -5.95459e+12 -2.10194e+12 -2.36309e+12 -7.02943e+12 -3.46532e+12 -4.81379e+12 -6.3023e+12 -3.27165e+12 -3.76827e+12 -7.42447e+12 -3.57757e+12 -4.75665e+12 -4.0569e+12 -3.35493e+12 -7.82478e+12 -5.63924e+12 -6.8719e+12 -8.85307e+12 -4.9895e+12 -6.56537e+12 -4.95817e+12 -7.66783e+12 -1.00078e+13 -7.12548e+12 -6.72576e+12 -5.39604e+12 -5.48622e+12 -5.49734e+12 -4.77489e+12 -4.92268e+12 -3.72681e+12 -7.18648e+12 -6.37582e+12 -5.85912e+12 -3.30088e+12 -5.06267e+12 -2.57074e+12 -6.24674e+12 -5.01999e+12 -6.86641e+12 -8.97363e+12 -1.03647e+13 -6.17956e+12 -7.7539e+12 -8.56751e+12 -7.4053e+12 -3.16297e+12 -8.8036e+12 -3.21634e+12 -4.26329e+12 -9.53338e+12 -6.73362e+12 -6.01469e+12 -6.46576e+12 -1.09643e+13 -5.66158e+12 -9.09767e+12 -1.18085e+13 -1.253e+13 -8.91597e+12 -7.51628e+12 -1.05903e+13 -5.11649e+12 -5.03751e+12 -8.24355e+12 -7.15144e+12 -5.85658e+12 -8.709e+12 -8.77344e+12 -7.25304e+12 -7.43818e+12 -6.38528e+12 -6.62534e+12 -5.36228e+12 -5.24713e+12 -4.72121e+12 -6.04515e+12 -5.58179e+12 -6.92018e+12 -6.38751e+12 -7.68529e+12 -5.49227e+12 -7.83601e+12 -6.19415e+12 -5.93948e+12 -5.01155e+12 -5.29621e+12 -6.54014e+12 -3.71462e+12 -2.92389e+12 -7.48932e+12 -8.77819e+12 -4.10105e+12 -3.55627e+12 -4.46647e+12 -7.75263e+12 -6.19226e+12 -7.53645e+12 -4.29793e+12 -6.70681e+12 -4.87231e+12 -5.79201e+12 -7.03859e+12 -6.92358e+12 -4.54203e+12 -6.23499e+12 -4.10542e+12 -5.98265e+12 -4.34233e+12 -5.86721e+12 -4.86281e+12 -4.05897e+12 -6.19659e+12 -7.72292e+12 -4.93373e+12 -7.48951e+12 -6.66146e+12 -8.36496e+12 -7.51822e+12 -8.02131e+12 -6.44647e+12 -7.78609e+12 -4.8353e+12 -5.33185e+12 -6.08589e+12 -5.81255e+12 -7.20993e+12 -6.84473e+12 -5.59174e+12 -5.18533e+12 -8.86058e+12 -6.92826e+12 -5.84418e+12 -7.69039e+12 -7.80557e+12 -7.32153e+12 -1.29876e+13 -8.44185e+12 -8.78165e+12 -6.90324e+12 -9.60952e+12 -7.53392e+12 -3.65612e+12 -2.7262e+12 -6.05253e+12 -3.96392e+12 -7.68155e+12 -1.12489e+13 -3.94177e+12 -1.29555e+13 -8.67962e+12 -9.58821e+12 -1.00744e+13 -7.84104e+12 -5.59433e+12 -3.74074e+12 -1.28014e+13 -5.76575e+12 -8.66633e+12 -6.21644e+12 -4.73861e+12 -8.28555e+12 -5.22079e+12 -5.61339e+12 -7.84435e+12 -6.61456e+12 -6.54338e+12 -6.85511e+12 -6.64125e+12 -5.67655e+12 -5.27455e+12 -8.95828e+12 -9.24119e+12 -5.32533e+12 -7.13799e+12 -6.58731e+12 -1.14414e+13 -4.6045e+12 -3.72708e+12 -7.4902e+12 -4.21126e+12 -6.66461e+12 -3.85099e+12 -2.32517e+12 -3.29148e+12 -5.94359e+12 -4.74148e+12 -6.01896e+12 -6.50845e+12 -5.36862e+12 -4.8243e+12 -4.59475e+12 -4.12045e+12 -4.73767e+12 -4.75325e+12 -3.77279e+12 -4.56324e+12 -4.95833e+12 -3.78242e+12 -5.75377e+12 -8.09181e+12 -7.51377e+12 -4.64601e+12 -5.03199e+12 -5.30218e+12 -4.55014e+12 -8.6315e+12 -4.06569e+12 -4.20296e+12 -7.70316e+12 -5.75476e+12 -5.81158e+12 -6.08739e+12 -2.47509e+12 -1.07323e+13 -4.27179e+12 -4.63447e+12 -6.20026e+12 -6.16461e+12 -9.23251e+12 -5.21079e+12 -3.93512e+12 -9.51776e+12 -7.41791e+12 -5.81603e+12 -9.27033e+12 -6.01966e+12 -5.9367e+12 -4.50468e+12 -6.87605e+12 -6.60411e+12 -8.48119e+12 -5.64725e+12 -7.49732e+12 -1.33511e+13 -1.11841e+13 -6.21224e+12 -8.3601e+12 -7.94721e+12 -1.06806e+13 -8.69835e+12 -7.37762e+12 -1.23423e+13 -7.39399e+12 -6.26227e+12 -2.63871e+12 -4.27556e+12 -3.46444e+12 -8.48059e+12 -5.59372e+12 -4.9551e+12 -6.5359e+12 -7.48311e+12 -9.1719e+12 -9.04685e+12 -5.31946e+12 -7.61435e+12 -6.18856e+12 -5.77066e+12 -8.73209e+12 -6.30965e+12 -1.08553e+13 -8.68438e+12 -4.7463e+12 -5.61628e+12 -7.54956e+12 -8.77754e+12 -7.07563e+12 -1.12661e+13 -7.40954e+12 -6.97343e+12 -8.85226e+12 -7.58908e+12 -5.93916e+12 -4.3956e+12 -6.45197e+12 -4.80931e+12 -7.18034e+12 -6.78929e+12 -1.0974e+13 -7.88277e+12 -8.03748e+12 -4.44344e+12 -5.90763e+12 -3.33937e+12 -5.45341e+12 -5.71261e+12 -4.95606e+12 -2.43333e+12 -5.08401e+12 -3.25563e+12 -5.66775e+12 -4.33476e+12 -2.42823e+12 -6.98728e+12 -4.55085e+12 -1.1374e+12 -4.49743e+12 -4.51203e+12 -7.37752e+12 -7.70797e+12 -5.47955e+12 -6.49301e+12 -6.92965e+12 -5.21185e+12 -7.07661e+12 -2.79402e+12 -3.40294e+12 -5.82159e+12 -6.58647e+12 -5.94835e+12 -4.26331e+12 -5.15302e+12 -7.43836e+12 -5.76592e+12 -4.18938e+12 -5.02318e+12 -4.59522e+12 -4.96757e+12 -8.42288e+12 -5.20323e+12 -5.45822e+12 -6.18907e+12 -9.21512e+12 -5.86052e+12 -1.11973e+13 -8.88512e+12 -8.34799e+12 -1.21762e+13 -7.89321e+12 -4.67784e+12 -7.24295e+12 -6.67702e+12 -7.1993e+12 -8.31725e+12 -9.31809e+12 -1.13029e+13 -8.47201e+12 -8.45096e+12 -6.93351e+12 -8.55998e+12 -6.68425e+12 -4.74365e+12 -9.65444e+12 -8.95411e+12 -6.37828e+12 -4.92466e+12 -7.1141e+12 -4.28427e+12 -5.27206e+12 -7.71874e+12 -8.57451e+12 -5.58073e+12 -6.69817e+12 -5.16046e+12 -5.42303e+12 -8.86604e+12 -9.23277e+12 -1.22526e+13 -5.23809e+12 -5.85265e+12 -1.05095e+13 -8.92237e+12 -7.0107e+12 -1.16791e+13 -8.187e+12 -4.66731e+12 -7.87848e+12 -4.8948e+12 -5.54921e+12 -6.96972e+12 -6.59808e+12 -5.49381e+12 -6.75782e+12 -5.74889e+12 -4.79283e+12 -3.98484e+12 -4.74527e+12 -4.90888e+12 -7.46509e+12 -5.61634e+12 -5.41877e+12 -5.66356e+12 -3.17182e+12 -3.19299e+12 -6.11873e+12 -2.86802e+12 -5.24074e+12 -2.67796e+12 -3.71896e+12 -5.33256e+12 -4.82645e+12 -7.36566e+12 -5.257e+12 -5.56808e+12 -5.34445e+12 -4.06847e+12 -3.13867e+12 -4.47021e+12 -4.8505e+12 -3.6544e+12 -6.94851e+12 -8.79026e+12 -4.64195e+12 -3.65122e+12 -4.14084e+12 -4.19578e+12 -4.78643e+12 -5.8589e+12 -6.14911e+12 -4.70287e+12 -5.42305e+12 -2.23881e+12 -4.36829e+12 -3.88265e+12 -3.97228e+12 -8.50616e+12 -4.8323e+12 -2.31112e+12 -5.28557e+12 -2.16505e+12 -6.10157e+12 -6.16945e+12 -4.3769e+12 -5.87233e+12 -5.13849e+12 -6.71037e+12 -9.57808e+12 -5.26438e+12 -4.9616e+12 -5.89379e+12 -5.4055e+12 -3.90501e+12 -8.37981e+12 -7.67622e+12 -5.08678e+12 -5.67123e+12 -5.17365e+12 -8.6066e+12 -7.81921e+12 -7.0988e+12 -8.44989e+12 -8.37207e+12 -7.3179e+12 -1.10236e+13 -1.06392e+13 -6.42182e+12 -4.60696e+12 -1.03562e+13 -7.83859e+12 -1.17521e+13 -8.29291e+12 -4.55912e+12 -4.62326e+12 -5.43644e+12 -1.35379e+13 -6.15169e+12 -4.7446e+12 -3.04423e+12 -6.70035e+12 -4.37538e+12 -9.29008e+12 -9.5337e+12 -9.86518e+12 -6.04476e+12 -1.00166e+13 -7.92392e+12 -9.93505e+12 -6.62806e+12 -7.23795e+12 -7.79461e+12 -7.18409e+12 -5.17147e+12 -9.36691e+12 -7.12515e+12 -2.43336e+12 -4.59036e+12 -7.92404e+12 -5.98196e+12 -8.49106e+12 -6.15238e+12 -5.90145e+12 -9.52236e+12 -7.61003e+12 -8.16785e+12 -5.88649e+12 -9.38515e+12 -6.39267e+12 -2.61372e+12 -7.60434e+12 -6.92041e+12 -6.75237e+12 -7.99223e+12 -3.73548e+12 -5.95338e+12 -3.71152e+12 -4.9305e+12 -5.16739e+12 -3.76795e+12 -5.1948e+12 -7.40621e+12 -6.98489e+12 -4.82499e+12 -5.43205e+12 -3.94813e+12 -4.46303e+12 -6.64818e+12 -2.96079e+12 -3.93618e+12 -4.75707e+12 -4.87255e+12 -3.10754e+12 -6.06286e+12 -4.31408e+12 -3.04171e+12 -4.5792e+12 -5.75153e+12 -2.94087e+12 -5.49885e+12 -4.31997e+12 -3.37664e+12 -3.41799e+12 -6.78633e+12 -5.97909e+12 -6.68351e+12 -6.81151e+12 -6.56496e+12 -3.31936e+12 -4.66506e+12 -4.25701e+12 -6.0795e+12 -7.84042e+12 -2.82032e+12 -4.51249e+12 -8.16989e+12 -7.90145e+12 -4.30643e+12 -5.13316e+12 -6.01558e+12 -7.00757e+12 -7.28701e+12 -4.61205e+12 -4.0689e+12 -7.38597e+12 -8.41673e+12 -8.35148e+12 -8.41682e+12 -6.76191e+12 -6.59211e+12 -8.35592e+12 -8.75308e+12 -4.80627e+12 -7.17153e+12 -1.30083e+13 -6.76371e+12 -7.64303e+12 -9.57271e+12 -8.65707e+12 -4.37747e+12 -1.08163e+13 -5.3115e+12 -5.70202e+12 -6.67175e+12 -8.39098e+12 -8.69439e+12 -9.11777e+12 -7.34523e+12 -9.04054e+12 -9.9183e+12 -5.15774e+12 -8.30901e+12 -5.94832e+12 -4.78837e+12 -8.45367e+12 -1.10265e+13 -9.83809e+12 -4.96205e+12 -6.85301e+12 -5.71027e+12 -1.10254e+13 -4.12758e+12 -6.83781e+12 -7.91937e+12 -1.11414e+13 -8.14444e+12 -5.38744e+12 -5.85645e+12 -4.69534e+12 -1.1071e+13 -4.18248e+12 -3.79023e+12 -3.94497e+12 -5.60448e+12 -7.70342e+12 -4.85771e+12 -8.29317e+12 -8.79946e+12 -8.27948e+12 -4.97575e+12 -2.32342e+12 -8.91273e+12 -5.39041e+12 -7.29103e+12 -7.05657e+12 -4.84351e+12 -6.69083e+12 -3.58531e+12 -7.36466e+12 -4.9575e+12 -5.11905e+12 -5.81255e+12 -2.80878e+12 -4.05748e+12 -5.59146e+12 -5.1866e+12 -3.27257e+12 -6.24388e+12 -4.04882e+12 -2.07156e+12 -2.69024e+12 -6.94188e+12 -5.03587e+12 -4.50408e+12 -3.1204e+12 -4.94177e+12 -3.39295e+12 -4.85513e+12 -4.57012e+12 -3.28169e+12 -5.67976e+12 -4.47077e+12 -5.4239e+12 -3.55594e+12 -4.52754e+12 -6.36297e+12 -2.09484e+12 -8.7693e+12 -4.4984e+12 -2.68079e+12 -4.01768e+12 -5.8255e+12 -6.10011e+12 -7.3427e+12 -6.02422e+12 -4.16065e+12 -3.85225e+12 -5.83755e+12 -5.17703e+12 -5.26006e+12 -5.22434e+12 -6.47184e+12 -5.77181e+12 -6.12588e+12 -4.6976e+12 -8.03343e+12 -5.3301e+12 -5.86571e+12 -3.06506e+12 -6.2147e+12 -7.19246e+12 -3.69565e+12 -3.77051e+12 -2.35673e+12 -5.4827e+12 -6.66582e+12 -5.97855e+12 -4.70941e+12 -5.46575e+12 -7.4434e+12 -6.58426e+12 -7.31097e+12 -3.0932e+12 -5.12891e+12 -5.58824e+12 -6.42045e+12 -7.60691e+12 -3.47811e+12 -3.7384e+12 -9.06045e+12 -6.68458e+12 -7.66206e+12 -6.11878e+12 -7.22487e+12 -2.92517e+12 -7.17481e+12 -6.54328e+12 -5.74531e+12 -6.4021e+12 -3.21021e+12 -3.52244e+12 -6.6861e+12 -5.60437e+12 -3.79913e+12 -7.69488e+12 -9.53901e+12 -7.57234e+12 -7.26964e+12 -7.59229e+12 -7.71899e+12 -8.99843e+12 -4.06416e+12 -6.68486e+12 -8.05323e+12 -9.15677e+12 -5.63382e+12 -8.29329e+12 -1.00929e+13 -8.31078e+12 -7.57393e+12 -1.08916e+13 -7.68931e+12 -7.65741e+12 -5.01259e+12 -6.24793e+12 -7.31853e+12 -7.36763e+12 -5.03822e+12 -4.9972e+12 -1.00597e+13 -6.12842e+12 -4.89306e+12 -4.07326e+12 -7.85127e+12 -3.72923e+12 -7.38615e+12 -4.29112e+12 -9.0372e+12 -4.42705e+12 -4.08168e+12 -5.2806e+12 -3.92583e+12 -9.12513e+12 -5.08903e+12 -7.08256e+12 -5.58296e+12 -6.6535e+12 -2.59652e+12 -5.63111e+12 -1.95777e+12 -6.25401e+12 -4.588e+12 -7.19133e+12 -5.50866e+12 -7.33625e+12 -4.33028e+12 -4.36078e+12 -3.40103e+12 -6.13188e+12 -3.78542e+12 -3.60898e+12 -4.93618e+12 -5.93446e+12 -4.43359e+12 -4.96245e+12 -3.98179e+12 -2.79928e+12 -1.96658e+12 -3.36926e+12 -4.79893e+12 -6.38242e+12 -4.61461e+12 -2.8556e+12 -3.03702e+12 -4.1604e+12 -4.24777e+12 -4.85114e+12 -4.86127e+12 -2.76007e+12 -2.91279e+12 -5.45521e+12 -1.87416e+12 -3.4812e+12 -4.84794e+12 -4.55479e+12 -7.30198e+12 -3.02686e+12 -4.75972e+12 -5.48747e+12 -3.13484e+12 -4.72465e+12 -4.42118e+12 -3.85622e+12 -4.548e+12 -4.54404e+12 -2.75886e+12 -4.29064e+12 -6.56853e+12 -4.73931e+12 -5.52418e+12 -5.80773e+12 -4.3127e+12 -3.57605e+12 -7.29439e+12 -5.75974e+12 -5.96099e+12 -4.56467e+12 -4.64091e+12 -6.31471e+12 -4.14794e+12 -3.50131e+12 -1.61271e+12 -6.46079e+12 -2.08675e+12 -4.05754e+12 -5.44279e+12 -7.33073e+12 -8.56975e+12 -7.31652e+12 -6.08425e+12 -6.95529e+12 -1.0825e+13 -5.3564e+12 -1.08305e+13 -9.42073e+12 -6.25252e+12 -4.60555e+12 -7.07622e+12 -9.87368e+12 -6.55427e+12 -7.85672e+12 -7.10978e+12 -5.43668e+12 -6.19661e+12 -7.79433e+12 -4.06318e+12 -7.04375e+12 -7.76902e+12 -5.42614e+12 -4.919e+12 -7.51131e+12 -7.10056e+12 -2.5692e+12 -7.49845e+12 -6.47095e+12 -6.26685e+12 -7.4783e+12 -2.75886e+12 -1.07965e+13 -6.82521e+12 -5.47495e+12 -6.99827e+12 -4.78529e+12 -8.92309e+12 -7.52266e+12 -6.55322e+12 -7.23106e+12 -6.42272e+12 -4.03802e+12 -6.68096e+12 -7.61183e+12 -6.75652e+12 -5.745e+12 -6.72275e+12 -6.59358e+12 -5.84208e+12 -8.16859e+12 -4.65211e+12 -5.24838e+12 -7.3036e+12 -6.20135e+12 -6.58172e+12 -3.04939e+12 -9.54211e+12 -5.15482e+12 -5.12613e+12 -3.67848e+12 -3.26926e+12 -5.07041e+12 -4.63513e+12 -4.23567e+12 -4.13172e+12 -5.23801e+12 -6.25685e+12 -9.77727e+12 -5.76077e+12 -5.37533e+12 -5.52246e+12 -5.24402e+12 -3.50302e+12 -6.99773e+12 -3.07472e+12 -5.71879e+12 -2.33782e+12 -5.94057e+12 -4.53519e+12 -2.0763e+12 -3.79629e+12 -5.83417e+12 -3.30883e+12 -2.72631e+12 -5.35957e+12 -5.26967e+12 -3.49736e+12 -2.64091e+12 -3.74665e+12 -4.81186e+12 -7.27377e+12 -2.85317e+12 -3.33936e+12 -4.84144e+12 -4.94616e+12 -4.97861e+12 -2.04462e+12 -1.42732e+12 -4.76872e+12 -4.91767e+12 -7.5812e+12 -8.77853e+12 -3.78841e+12 -4.25208e+12 -4.38769e+12 -6.61476e+12 -2.85283e+12 -5.75524e+12 -3.99698e+12 -6.41633e+12 -6.97195e+12 -5.76864e+12 -3.76829e+12 -6.03871e+12 -2.91593e+12 -5.31824e+12 -5.89393e+12 -5.48224e+12 -8.85729e+12 -2.52846e+12 -8.33858e+12 -5.45473e+12 -4.01046e+12 -9.30848e+12 -6.66649e+12 -7.58463e+12 -9.48585e+12 -9.21835e+12 -7.31357e+12 -7.44267e+12 -6.93859e+12 -9.29761e+12 -1.03251e+13 -8.06163e+12 -8.63692e+12 -7.33725e+12 -9.52382e+12 -6.81982e+12 -5.96405e+12 -7.08245e+12 -8.90736e+12 -5.89809e+12 -4.39016e+12 -7.22404e+12 -4.19725e+12 -9.81884e+12 -5.54954e+12 -4.19194e+12 -4.83317e+12 -2.61228e+12 -3.52983e+12 -5.01366e+12 -5.66701e+12 -6.1962e+12 -7.39946e+12 -6.39266e+12 -9.82914e+12 -4.4919e+12 -7.32637e+12 -7.7536e+12 -5.51083e+12 -8.01869e+12 -5.08195e+12 -9.38483e+12 -7.2319e+12 -1.10782e+13 -9.40659e+12 -4.29297e+12 -5.57469e+12 -4.2749e+12 -4.42363e+12 -5.34661e+12 -4.14632e+12 -9.67154e+12 -8.15448e+12 -4.61484e+12 -6.09232e+12 -5.68619e+12 -6.22288e+12 -3.82663e+12 -7.75665e+12 -4.77483e+12 -8.09288e+12 -5.51218e+12 -5.69546e+12 -6.15628e+12 -5.03758e+12 -3.92311e+12 -4.65427e+12 -3.63237e+12 -3.21453e+12 -4.71113e+12 -5.66383e+12 -5.30389e+12 -4.4432e+12 -4.5359e+12 -4.06439e+12 -8.40369e+12 -5.51514e+12 -8.76988e+12 -2.98779e+12 -4.73437e+12 -3.94806e+12 -6.20673e+12 -6.13722e+12 -4.2072e+12 -4.38091e+12 -4.55293e+12 -3.21058e+12 -6.58591e+12 -4.36195e+12 -5.8766e+12 -5.97587e+12 -5.97404e+12 -4.2479e+12 -3.56504e+12 -3.95601e+12 -4.37989e+12 -3.24582e+12 -1.76463e+12 -4.74662e+12 -4.88192e+12 -3.22202e+12 -4.83951e+12 -5.24578e+12 -4.5872e+12 -3.40002e+12 -6.06296e+12 -5.84033e+12 -6.18087e+12 -3.01761e+12 -5.08152e+12 -3.5034e+12 -3.50575e+12 -1.73231e+12 -3.12845e+12 -4.37399e+12 -3.13791e+12 -4.42951e+12 -3.63682e+12 -3.25532e+12 -3.59476e+12 -6.4927e+12 -4.17938e+12 -4.54083e+12 -5.87369e+12 -6.69123e+12 -4.84892e+12 -1.93775e+12 -5.5975e+12 -8.73383e+12 -5.95732e+12 -5.99518e+12 -6.74581e+12 -3.37277e+12 -5.14745e+12 -3.45873e+12 -8.03964e+12 -9.97089e+12 -6.8453e+12 -7.75747e+12 -2.81184e+12 -2.07983e+12 -1.10407e+13 -1.04668e+13 -6.77002e+12 -5.99097e+12 -7.21312e+12 -1.0436e+13 -8.30295e+12 -7.61073e+12 -6.57937e+12 -9.51344e+12 -7.74381e+12 -5.48918e+12 -6.438e+12 -7.77982e+12 -7.06934e+12 -4.81082e+12 -5.00401e+12 -5.73095e+12 -4.79529e+12 -3.86445e+12 -7.0972e+12 -5.16566e+12 -3.85686e+12 -6.50108e+12 -3.72071e+12 -5.86784e+12 -1.00117e+13 -6.28078e+12 -6.09847e+12 -1.1129e+13 -8.41243e+12 -3.97948e+12 -1.31475e+13 -5.06105e+12 -8.34652e+12 -7.77816e+12 -6.40215e+12 -8.32663e+12 -8.43302e+12 -8.81579e+12 -6.45944e+12 -5.21247e+12 -4.01172e+12 -8.65886e+12 -5.06878e+12 -1.764e+12 -5.9505e+12 -4.8098e+12 -7.5198e+12 -9.1441e+12 -2.64373e+12 -6.06156e+12 -2.55421e+12 -2.32234e+12 -6.24909e+12 -4.66836e+12 -5.79893e+12 -5.36994e+12 -3.07446e+12 -5.54244e+12 -4.59602e+12 -5.30434e+12 -8.32594e+12 -5.87054e+12 -6.34365e+12 -3.87493e+12 -4.07787e+12 -3.65113e+12 -3.8316e+12 -4.70717e+12 -4.16945e+12 -5.23855e+12 -4.2424e+12 -2.38304e+12 -4.3862e+12 -4.85593e+12 -4.33329e+12 -5.05561e+12 -2.93389e+12 -5.32711e+12 -4.7727e+12 -5.04115e+12 -5.19802e+12 -2.30155e+12 -4.45042e+12 -1.84946e+12 -4.22754e+12 -2.74553e+12 -4.4216e+12 -3.57768e+12 -3.02132e+12 -2.93454e+12 -1.70773e+12 -3.44361e+12 -3.34249e+12 -3.26343e+12 -3.134e+12 -4.60052e+12 -2.6063e+12 -5.8657e+12 -3.31031e+12 -4.27332e+12 -2.37924e+12 -3.56329e+12 -1.90766e+12 -3.47353e+12 -1.5673e+12 -2.62878e+12 -4.35603e+12 -6.32294e+12 -5.19794e+12 -4.8052e+12 -3.8395e+12 -7.64133e+12 -4.23627e+12 -7.31685e+12 -7.78511e+12 -4.65182e+12 -6.63619e+12 -5.40858e+12 -6.11864e+12 -6.4892e+12 -4.49024e+12 -4.59142e+12 -5.77078e+12 -9.47364e+12 -6.46727e+12 -4.59941e+12 -5.66324e+12 -2.74217e+12 -7.12919e+12 -9.05493e+12 -4.15908e+12 -4.22478e+12 -5.83164e+12 -8.84182e+12 -6.1118e+12 -5.45758e+12 -6.63478e+12 -8.09294e+12 -3.99405e+12 -3.73469e+12 -3.96294e+12 -5.65947e+12 -5.42093e+12 -5.43463e+12 -4.29412e+12 -7.94364e+12 -6.66037e+12 -4.42645e+12 -8.75144e+12 -5.38747e+12 -5.47165e+12 -7.70266e+12 -6.85766e+12 -5.42113e+12 -9.47568e+12 -5.88908e+12 -5.06933e+12 -4.38686e+12 -7.71273e+12 -4.07176e+12 -5.48301e+12 -4.19446e+12 -8.99701e+12 -7.92064e+12 -7.62996e+12 -4.9713e+12 -2.84805e+12 -4.55363e+12 -8.48074e+12 -6.25838e+12 -7.63736e+12 -1.24314e+13 -1.62585e+13 -5.4181e+12 -5.87127e+12 -6.51924e+12 -1.00346e+13 -8.66061e+12 -4.79578e+12 -5.98397e+12 -6.85562e+12 -5.92224e+12 -7.84978e+12 -7.21058e+12 -6.42916e+12 -7.41499e+12 -7.00939e+12 -1.10375e+13 -4.60527e+12 -8.51851e+12 -5.92207e+12 -5.44191e+12 -3.70017e+12 -3.42802e+12 -5.28015e+12 -3.95497e+12 -7.64838e+12 -2.60026e+12 -3.83469e+12 -8.49368e+12 -7.93001e+12 -7.36496e+12 -3.17186e+12 -3.16663e+12 -3.58204e+12 -2.86102e+12 -3.47221e+12 -4.82805e+12 -3.81834e+12 -3.05761e+12 -2.54294e+12 -5.31692e+12 -2.96862e+12 -2.59742e+12 -4.25918e+12 -4.67326e+12 -3.62243e+12 -3.07763e+12 -1.69577e+12 -1.51751e+12 -3.52715e+12 -4.84723e+12 -4.16609e+12 -3.60815e+12 -1.659e+12 -3.44554e+12 -3.78396e+12 -6.37165e+12 -1.62544e+12 -2.80368e+12 -3.65629e+12 -3.5043e+12 -1.84779e+12 -3.26131e+12 -2.26532e+12 -4.38724e+12 -3.44746e+12 -3.3687e+12 -2.93094e+12 -4.00046e+12 -4.25188e+12 -3.62632e+12 -4.49292e+12 -3.11766e+12 -4.5952e+12 -4.54121e+12 -3.2161e+12 -4.54463e+12 -5.52315e+12 -4.71346e+12 -5.97687e+12 -8.39633e+12 -3.26688e+12 -5.28717e+12 -7.28857e+12 -7.60692e+12 -4.19694e+12 -5.22728e+12 -5.61411e+12 -3.56711e+12 -4.99523e+12 -4.66256e+12 -5.60229e+12 -5.97535e+12 -5.41945e+12 -8.10248e+12 -7.54934e+12 -7.45799e+12 -7.74965e+12 -6.66613e+12 -5.69975e+12 -7.03559e+12 -1.13703e+13 -8.36031e+12 -6.87653e+12 -5.64161e+12 -6.13781e+12 -5.76854e+12 -4.81545e+12 -8.58925e+12 -3.0337e+12 -4.68818e+12 -9.46457e+12 -6.24809e+12 -7.81169e+12 -4.39032e+12 -3.75482e+12 -3.56499e+12 -4.69475e+12 -4.16789e+12 -6.51781e+12 -6.10576e+12 -8.43787e+12 -5.16995e+12 -7.13515e+12 -9.26945e+12 -5.14451e+12 -6.41118e+12 -3.63078e+12 -7.03551e+12 -6.21981e+12 -5.12842e+12 -1.04174e+13 -3.53311e+12 -7.40187e+12 -6.19243e+12 -4.90444e+12 -4.65511e+12 -3.24768e+12 -6.16034e+12 -6.47857e+12 -4.96959e+12 -5.90763e+12 -4.97689e+12 -8.99354e+12 -4.14522e+12 -3.6307e+12 -5.09706e+12 -3.28542e+12 -4.24976e+12 -7.39651e+12 -5.51441e+12 -5.24313e+12 -4.23211e+12 -6.88307e+12 -4.61883e+12 -7.14474e+12 -5.07012e+12 -5.49657e+12 -4.82523e+12 -3.37821e+12 -4.76774e+12 -4.01079e+12 -4.24543e+12 -5.45193e+12 -3.8824e+12 -5.88757e+12 -2.74771e+12 -2.52905e+12 -3.33868e+12 -5.48711e+12 -2.16374e+12 -2.32671e+12 -2.02588e+12 -5.26983e+12 -5.01429e+12 -3.2272e+12 -3.29656e+12 -4.32115e+12 -5.67522e+12 -3.94831e+12 -3.91068e+12 -2.22798e+12 -3.32495e+12 -2.31813e+12 -2.60157e+12 -1.65464e+12 -4.0908e+12 -2.91841e+12 -3.02078e+12 -2.29081e+12 -2.65651e+12 -2.71642e+12 -1.86688e+12 -1.61413e+12 -3.82735e+12 -3.58919e+12 -1.58214e+12 -2.37263e+12 -2.65364e+12 -4.98301e+12 -1.94336e+12 -3.92269e+12 -3.42482e+12 -3.29974e+12 -5.83455e+12 -4.00944e+12 -5.94759e+12 -4.4275e+12 -2.44529e+12 -3.36648e+12 -3.08643e+12 -5.3941e+12 -7.19788e+12 -7.33751e+12 -7.29042e+12 -6.59871e+12 -1.87839e+12 -6.11196e+12 -5.96825e+12 -5.62514e+12 -4.34016e+12 -9.064e+12 -2.94934e+12 -2.26566e+12 -3.36623e+12 -4.15616e+12 -6.07406e+12 -6.17474e+12 -7.2764e+12 -6.98028e+12 -6.39891e+12 -2.45221e+12 -4.34627e+12 -8.10805e+12 -1.15258e+13 -6.8934e+12 -3.89613e+12 -4.51552e+12 -3.07662e+12 -7.13751e+12 -4.75944e+12 -5.49932e+12 -5.34901e+12 -4.46589e+12 -4.5198e+12 -4.16917e+12 -5.69931e+12 -8.88382e+12 -5.11466e+12 -9.31353e+12 -1.04353e+13 -6.73369e+12 -6.98978e+12 -6.31374e+12 -6.22885e+12 -7.02087e+12 -8.14045e+12 -7.43079e+12 -4.89973e+12 -6.73584e+12 -3.34158e+12 -5.03619e+12 -4.97115e+12 -7.3987e+12 -3.25832e+12 -6.32262e+12 -5.28006e+12 -4.49387e+12 -4.1273e+12 -7.03385e+12 -3.60693e+12 -7.02452e+12 -5.1176e+12 -7.70923e+12 -5.72916e+12 -3.47925e+12 -7.6613e+12 -3.68039e+12 -5.76161e+12 -6.30596e+12 -4.77026e+12 -4.56692e+12 -6.08828e+12 -5.03389e+12 -5.12066e+12 -5.96473e+12 -3.40627e+12 -4.22588e+12 -6.12534e+12 -6.37875e+12 -5.24908e+12 -4.09947e+12 -3.18601e+12 -5.13674e+12 -4.96827e+12 -2.28443e+12 -4.06483e+12 -5.11688e+12 -2.02719e+12 -4.92109e+12 -1.60101e+12 -7.63487e+12 -5.42614e+12 -8.17838e+12 -4.1382e+12 -4.69003e+12 -4.77236e+12 -5.78104e+12 -6.37636e+12 -5.90989e+12 -3.5621e+12 -3.46869e+12 -4.3403e+12 -3.7701e+12 -5.14471e+12 -4.53057e+12 -4.52518e+12 -1.87059e+12 -3.53078e+12 -2.81749e+12 -3.22037e+12 -2.87215e+12 -1.7692e+12 -4.19417e+12 -3.20557e+12 -3.75678e+12 -1.96165e+12 -3.69863e+12 -3.08022e+12 -3.79183e+12 -2.80644e+12 -4.69833e+12 -3.10317e+12 -1.34904e+12 -2.75486e+12 -1.4358e+12 -728486000000.0 -3.19362e+12 -2.78599e+12 -3.0009e+12 -2.27696e+12 -4.28845e+12 -5.1324e+12 -1.97305e+12 -2.44205e+12 -3.83834e+12 -1.91925e+12 -2.59959e+12 -4.10199e+12 -4.27332e+12 -2.30995e+12 -2.94259e+12 -2.66414e+12 -2.79965e+12 -4.29028e+12 -2.33051e+12 -4.69224e+12 -3.3137e+12 -2.17497e+12 -3.90633e+12 -3.38606e+12 -2.56597e+12 -4.22745e+12 -2.28267e+12 -4.88648e+12 -3.67928e+12 -3.8948e+12 -3.60043e+12 -3.59832e+12 -5.50889e+12 -3.78104e+12 -4.58722e+12 -3.07023e+12 -3.61324e+12 -3.74718e+12 -4.92142e+12 -6.60945e+12 -3.63165e+12 -7.1163e+12 -3.93507e+12 -4.58772e+12 -3.6593e+12 -5.87853e+12 -9.93424e+12 -5.31572e+12 -3.45058e+12 -6.8247e+12 -5.87443e+12 -9.12313e+12 -5.89131e+12 -6.36286e+12 -8.92616e+12 -4.95355e+12 -6.65289e+12 -3.94886e+12 -4.46695e+12 -4.58413e+12 -7.78598e+12 -8.45384e+12 -1.04354e+13 -6.80138e+12 -1.13372e+13 -5.39489e+12 -8.58343e+12 -5.26338e+12 -5.28029e+12 -5.44075e+12 -8.31695e+12 -5.04145e+12 -2.70509e+12 -6.50021e+12 -3.38114e+12 -2.60887e+12 -5.07841e+12 -5.29841e+12 -5.6928e+12 -6.60812e+12 -6.22872e+12 -4.0784e+12 -5.50818e+12 -5.06231e+12 -3.76014e+12 -8.21784e+12 -6.03473e+12 -7.0749e+12 -4.21008e+12 -7.29252e+12 -6.35961e+12 -4.48958e+12 -2.87222e+12 -5.3529e+12 -4.04153e+12 -4.76707e+12 -3.55203e+12 -5.33022e+12 -3.36147e+12 -4.71768e+12 -6.10697e+12 -7.4e+12 -5.13395e+12 -3.76808e+12 -5.80512e+12 -6.09306e+12 -3.45218e+12 -4.79272e+12 -3.36153e+12 -2.81182e+12 -6.3626e+12 -3.68832e+12 -3.50014e+12 -3.74854e+12 -3.02238e+12 -3.00283e+12 -4.60787e+12 -6.9376e+12 -3.7551e+12 -3.05722e+12 -3.20667e+12 -3.89644e+12 -670334000000.0 -4.98283e+12 -5.36958e+12 -4.62848e+12 -5.54975e+12 -4.5343e+12 -1.17801e+12 -2.95634e+12 -2.71202e+12 -1.44755e+12 -2.64144e+12 -2.67933e+12 -2.59668e+12 -1.81724e+12 -3.1118e+12 -2.18251e+12 -4.00235e+12 -3.81012e+12 -2.02843e+12 -1.97408e+12 -2.63893e+12 -1.34915e+12 -3.27729e+12 -2.85393e+12 -3.86548e+12 -2.53617e+12 -3.93283e+12 -2.63738e+12 -4.08667e+12 -3.30948e+12 -3.63437e+12 -3.5949e+12 -2.51494e+12 -5.39711e+12 -2.20008e+12 -2.22448e+12 -2.60838e+12 -3.78779e+12 -1.79025e+12 -2.74107e+12 -765493000000.0 -1.38017e+12 -3.58429e+12 -3.63754e+12 -3.35121e+12 -1.57996e+12 -2.25813e+12 -2.21463e+12 -3.8677e+12 -2.20985e+12 -1.7517e+12 -2.09318e+12 -3.86072e+12 -3.52039e+12 -8.32565e+12 -3.71384e+12 -4.91566e+12 -4.99278e+12 -5.25033e+12 -4.62539e+12 -2.89851e+12 -2.85027e+12 -2.55372e+12 -4.25421e+12 -6.72855e+12 -4.77502e+12 -7.23506e+12 -2.16478e+12 -6.18691e+12 -3.252e+12 -6.08644e+12 -6.92576e+12 -3.62468e+12 -6.69972e+12 -6.97384e+12 -5.51878e+12 -7.39386e+12 -2.08677e+12 -5.09714e+12 -4.13044e+12 -4.12669e+12 -4.61594e+12 -6.341e+12 -5.43509e+12 -9.4947e+12 -4.31391e+12 -6.48459e+12 -4.82183e+12 -8.42878e+12 -7.87128e+12 -7.31137e+12 -1.23864e+13 -6.04178e+12 -5.50219e+12 -4.60576e+12 -6.6839e+12 -8.11067e+12 -4.63593e+12 -5.72515e+12 -7.1205e+12 -4.68349e+12 -4.89731e+12 -6.52765e+12 -5.47938e+12 -8.36738e+12 -4.8385e+12 -9.08635e+12 -6.89013e+12 -5.7173e+12 -7.6083e+12 -5.80176e+12 -5.88982e+12 -5.95424e+12 -5.68513e+12 -6.3563e+12 -4.79576e+12 -3.31521e+12 -4.96145e+12 -4.20757e+12 -5.05028e+12 -2.79286e+12 -3.79777e+12 -7.10447e+12 -6.69965e+12 -4.6185e+12 -8.62288e+12 -6.41996e+12 -5.38783e+12 -5.97037e+12 -4.0859e+12 -2.68004e+12 -2.75683e+12 -2.2687e+12 -5.34802e+12 -5.76892e+12 -1.82437e+12 -2.95065e+12 -4.39884e+12 -2.81587e+12 -2.65743e+12 -1.90285e+12 -2.24474e+12 -3.54891e+12 -4.32028e+12 -1.99144e+12 -2.07319e+12 -3.4953e+12 -1.97203e+12 -1.46951e+12 -4.18997e+12 -1.89361e+12 -2.42205e+12 -2.3123e+12 -3.12783e+12 -2.79821e+12 -1.83761e+12 -3.78508e+12 -3.16102e+12 -2.46096e+12 -2.95427e+12 -3.9022e+12 -1.96796e+12 -3.55403e+12 -2.6859e+12 -872833000000.0 -3.10249e+12 -1.04961e+12 -3.58717e+12 -3.7627e+12 -2.88297e+12 -2.57263e+12 -3.44389e+12 -3.64698e+12 -2.4521e+12 -2.10285e+12 -3.30779e+12 -3.02286e+12 -2.73367e+12 -2.51151e+12 -3.39795e+12 -3.72594e+12 -2.64311e+12 -3.14624e+12 -3.48495e+12 -2.74127e+12 -2.64263e+12 -3.43834e+12 -5.08603e+12 -3.37514e+12 -1.57663e+12 -4.84413e+12 -3.64484e+12 -4.70262e+12 -3.55614e+12 -4.87296e+12 -5.91074e+12 -8.47882e+12 -3.86945e+12 -3.14071e+12 -3.88727e+12 -3.10465e+12 -4.39116e+12 -5.74785e+12 -3.46798e+12 -4.19819e+12 -4.05861e+12 -5.03015e+12 -4.69339e+12 -4.06188e+12 -6.22351e+12 -4.89566e+12 -5.80786e+12 -4.83924e+12 -8.22829e+12 -5.94781e+12 -8.25603e+12 -8.31786e+12 -4.08991e+12 -5.83991e+12 -5.19787e+12 -7.73344e+12 -1.30457e+13 -7.04032e+12 -7.03054e+12 -9.84042e+12 -8.92971e+12 -4.98658e+12 -7.54306e+12 -7.046e+12 -6.23978e+12 -8.02338e+12 -6.22732e+12 -9.04298e+12 -6.66216e+12 -6.01984e+12 -2.97342e+12 -3.93522e+12 -2.10381e+12 -3.97508e+12 -5.94791e+12 -3.56241e+12 -1.9574e+12 -3.50936e+12 -5.91203e+12 -5.06674e+12 -8.93062e+12 -4.88632e+12 -5.2077e+12 -7.69849e+12 -6.30855e+12 -5.87314e+12 -7.5244e+12 -7.88701e+12 -6.2567e+12 -4.39934e+12 -4.77211e+12 -6.22571e+12 -4.75325e+12 -3.73414e+12 -4.03832e+12 -5.53448e+12 -3.99466e+12 -4.07954e+12 -7.64501e+12 -4.64501e+12 -5.73053e+12 -5.19456e+12 -3.26878e+12 -3.85064e+12 -8.18143e+12 -4.09287e+12 -5.72405e+12 -6.23466e+12 -2.06801e+12 -3.8485e+12 -4.07187e+12 -3.99167e+12 -3.84517e+12 -927372000000.0 -3.69432e+12 -4.38346e+12 -4.92325e+12 -2.92995e+12 -3.34833e+12 -3.13754e+12 -4.32386e+12 -2.77757e+12 -4.31738e+12 -4.99308e+12 -3.16675e+12 -3.36172e+12 -2.5396e+12 -2.88785e+12 -3.22057e+12 -2.16659e+12 -3.65877e+12 -3.09786e+12 -1.59713e+12 -1.54146e+12 -1.61411e+12 -1.14268e+12 -2.45174e+12 -1.57494e+12 -3.02063e+12 -2.63614e+12 -4.32422e+12 -3.39873e+12 -1.95198e+12 -2.84213e+12 -1.26246e+12 -834075000000.0 -2.51101e+12 -1.23588e+12 -1.88568e+12 -2.41044e+12 -953575000000.0 -4.36725e+12 -3.08438e+12 -1.61618e+12 -1.50994e+12 -2.28461e+12 -2.15803e+12 -3.35008e+12 -2.86475e+12 -2.85891e+12 -2.34767e+12 -2.47428e+12 -1.81166e+12 -3.45677e+12 -3.74774e+12 -2.09876e+12 -2.88066e+12 -1.76435e+12 -3.43991e+12 -5.23875e+12 -7.76756e+12 -3.01275e+12 -3.26453e+12 -3.91132e+12 -2.87935e+12 -3.77544e+12 -2.53229e+12 -2.97624e+12 -4.4588e+12 -3.52495e+12 -4.83902e+12 -2.96627e+12 -3.3358e+12 -3.19667e+12 -2.7287e+12 -2.86769e+12 -4.4491e+12 -5.38996e+12 -4.34844e+12 -4.71014e+12 -6.53944e+12 -4.5712e+12 -5.17604e+12 -6.15559e+12 -5.06874e+12 -4.18441e+12 -6.62972e+12 -5.78625e+12 -3.00814e+12 -3.98688e+12 -4.62715e+12 -6.62855e+12 -6.54627e+12 -4.95019e+12 -5.46773e+12 -1.01497e+13 -5.26243e+12 -4.5046e+12 -5.21433e+12 -3.88476e+12 -9.01842e+12 -1.06971e+13 -5.81454e+12 -4.65815e+12 -8.48098e+12 -6.74995e+12 -4.99883e+12 -1.35345e+12 -2.70401e+12 -4.07353e+12 -2.7167e+12 -3.45383e+12 -3.96142e+12 -9.10937e+12 -5.47081e+12 -4.68056e+12 -4.0093e+12 -4.28568e+12 -4.83818e+12 -3.81535e+12 -4.79873e+12 -5.46554e+12 -7.3801e+12 -3.5724e+12 -6.25318e+12 -5.57543e+12 -8.52418e+12 -5.23202e+12 -3.79483e+12 -4.62816e+12 -3.63421e+12 -3.5208e+12 -5.89501e+12 -4.12536e+12 -6.84414e+12 -4.78341e+12 -4.51437e+12 -2.15622e+12 -3.49736e+12 -4.99588e+12 -6.6945e+12 -3.11931e+12 -2.09348e+12 -2.59898e+12 -6.90058e+12 -5.47243e+12 -1.69068e+12 -5.31472e+12 -2.63442e+12 -2.2856e+12 -3.6942e+12 -2.98163e+12 -3.71271e+12 -4.61313e+12 -4.02604e+12 -3.85061e+12 -2.12209e+12 -2.55361e+12 -4.24023e+12 -4.29636e+12 -2.94094e+12 -2.62992e+12 -1.82264e+12 -420949000000.0 -1.39136e+12 -3.04609e+12 -1.78101e+12 -2.70194e+12 -1.57352e+12 -4.01726e+12 -1.62178e+12 -1.13485e+12 -2.06031e+12 -2.36958e+12 -2.058e+12 -1.02764e+12 -1.79181e+12 -2.5613e+12 -2.63426e+12 -3.41317e+12 -2.05417e+12 -2.29554e+12 -739759000000.0 -1.79422e+12 -1.43487e+12 -1.12699e+12 -2.28117e+12 -2.19824e+12 -2.15089e+12 -1.53887e+12 -2.11727e+12 -1.55704e+12 -2.08155e+12 -1.53041e+12 -2.87716e+12 -1.49621e+12 -2.14228e+12 -1.20937e+12 -2.13591e+12 -1.7177e+12 -1.96882e+12 -2.26609e+12 -3.10036e+12 -4.28683e+12 -1.96826e+12 -2.99704e+12 -2.68591e+12 -3.71361e+12 -3.7266e+12 -1.86183e+12 -2.43586e+12 -5.39174e+12 -1.7332e+12 -3.04397e+12 -5.49076e+12 -3.37936e+12 -5.38104e+12 -4.43596e+12 -2.96383e+12 -5.47946e+12 -6.09063e+12 -3.59387e+12 -3.57027e+12 -3.51556e+12 -4.76267e+12 -2.60196e+12 -3.50718e+12 -3.64843e+12 -3.22295e+12 -6.08548e+12 -4.9592e+12 -4.60353e+12 -4.77516e+12 -4.85512e+12 -4.35733e+12 -3.96776e+12 -5.13178e+12 -5.52763e+12 -3.72052e+12 -4.8787e+12 -5.45858e+12 -2.89172e+12 -6.40665e+12 -6.35991e+12 -5.99651e+12 -5.89316e+12 -3.05882e+12 -2.72296e+12 -4.04792e+12 -7.25564e+12 -6.20473e+12 -6.24557e+12 -5.40814e+12 -5.06308e+12 -4.1816e+12 -7.50662e+12 -5.50304e+12 -7.642e+12 -4.28042e+12 -6.10531e+12 -1.32351e+12 -3.87112e+12 -5.30071e+12 -6.73839e+12 -4.50445e+12 -6.23178e+12 -5.83854e+12 -3.99139e+12 -5.6666e+12 -2.87174e+12 -6.65446e+12 -3.28787e+12 -3.92492e+12 -5.20521e+12 -2.04625e+12 -6.19904e+12 -2.92734e+12 -3.50092e+12 -4.10876e+12 -4.26341e+12 -5.28947e+12 -4.66734e+12 -3.55092e+12 -4.00193e+12 -3.19464e+12 -2.40212e+12 -5.51852e+12 -5.00733e+12 -1.56477e+12 -1.58404e+12 -4.24332e+12 -1.75144e+12 -4.66236e+12 -1.98745e+12 -3.69919e+12 -3.4128e+12 -3.48453e+12 -5.14074e+12 -3.49726e+12 -4.71406e+12 -4.16398e+12 -5.40228e+12 -2.62377e+12 -1.31515e+12 -3.10232e+12 -5.15686e+12 -4.52054e+12 -3.06658e+12 -3.05869e+12 -2.10709e+12 -2.6129e+12 -3.07084e+12 -4.75267e+12 -3.09182e+12 -2.07491e+12 -3.35424e+12 -1.52974e+12 -2.45939e+12 -2.67953e+12 -1.98318e+12 -683365000000.0 -1.39083e+12 -2.10195e+12 -3.1099e+12 -3.03251e+12 -1.55366e+12 -2.42702e+12 -1.62516e+12 -1.54096e+12 -440845000000.0 -2.14228e+12 -1.50773e+12 -1.76658e+12 -3.14332e+12 -2.80037e+12 -3.11433e+12 -1.73931e+12 -2.04463e+12 -1.86284e+12 -2.43233e+12 -1.4988e+12 -1.76752e+12 -1.84773e+12 -2.74342e+12 -2.58654e+12 -2.60474e+12 -2.51657e+12 -2.10514e+12 -1.52058e+12 -993930000000.0 -2.50601e+12 -2.32082e+12 -3.25695e+12 -2.29302e+12 -2.25474e+12 -5.34468e+12 -3.19168e+12 -3.18708e+12 -2.87829e+12 -5.78057e+12 -2.77722e+12 -3.0949e+12 -2.0218e+12 -4.3469e+12 -4.77685e+12 -4.11421e+12 -4.32189e+12 -4.79877e+12 -4.40432e+12 -3.83283e+12 -2.77822e+12 -4.12226e+12 -4.90646e+12 -3.79066e+12 -3.10169e+12 -3.35247e+12 -4.55868e+12 -5.43212e+12 -3.92303e+12 -709180000000.0 -5.14859e+12 -4.22297e+12 -5.59282e+12 -4.70214e+12 -5.39283e+12 -4.79847e+12 -3.84467e+12 -3.74695e+12 -4.14676e+12 -5.22898e+12 -3.14835e+12 -4.2951e+12 -4.34018e+12 -4.38952e+12 -2.69294e+12 -4.04871e+12 -4.32124e+12 -5.74868e+12 -5.46968e+12 -4.10099e+12 -6.10256e+12 -3.11835e+12 -5.61937e+12 -3.9855e+12 -2.55788e+12 -3.59305e+12 -3.02452e+12 -4.53238e+12 -3.73103e+12 -6.90818e+12 -3.23351e+12 -3.66076e+12 -6.15151e+12 -3.38422e+12 -4.40248e+12 -3.59021e+12 -2.98884e+12 -4.30492e+12 -3.39056e+12 -4.26548e+12 -4.59438e+12 -3.73189e+12 -3.3574e+12 -3.48898e+12 -3.00893e+12 -5.06004e+12 -2.67041e+12 -3.6364e+12 -4.75527e+12 -2.95962e+12 -6.7751e+12 -2.38997e+12 -4.01286e+12 -4.1744e+12 -4.05773e+12 -4.52019e+12 -4.20344e+12 -2.77052e+12 -5.45202e+12 -1.88263e+12 -2.46216e+12 -3.55765e+12 -3.30157e+12 -2.11011e+12 -2.35246e+12 -1.37126e+12 -1.89639e+12 -3.20034e+12 -2.71537e+12 -2.44774e+12 -1.7161e+12 -1.25831e+12 -1.97969e+12 -2.02461e+12 -2.51694e+12 -2.41195e+12 -1.79426e+12 -2.20731e+12 -1.64401e+12 -1.47846e+12 -1.27461e+12 -1.72783e+12 -1.11828e+12 -1.60275e+12 -1.93796e+12 -696989000000.0 -1.99959e+12 -691980000000.0 -1.58899e+12 -1.42251e+12 -2.13065e+12 -2.11596e+12 -1.18023e+12 -2.30847e+12 -1.00921e+12 -1.48211e+12 -62262700000.0 -1.36593e+12 -1.41647e+12 -3.05918e+12 -1.6099e+12 -2.66257e+12 -3.26891e+12 -2.18607e+12 -2.87131e+12 -1.03169e+12 -2.55756e+12 -3.74472e+12 -1.51313e+12 -2.34621e+12 -2.97892e+12 -2.53431e+12 -1.83206e+12 -2.98053e+12 -3.6353e+12 -4.36685e+12 -3.9927e+12 -1.8468e+12 -2.52988e+12 -1.85384e+12 -4.59581e+12 -2.83409e+12 -3.06064e+12 -4.54835e+12 -3.50199e+12 -1.70462e+12 -3.88158e+12 -3.9102e+12 -2.43202e+12 -4.01353e+12 -4.97324e+12 -4.60607e+12 -4.6596e+12 -5.94433e+12 -1.92569e+12 -4.59192e+12 -2.15349e+12 -2.14662e+12 -3.43005e+12 -5.79428e+12 -5.38584e+12 -5.29785e+12 -5.31468e+12 -2.65802e+12 -2.99599e+12 -4.19065e+12 -7.32403e+12 -4.3493e+12 -3.68574e+12 -3.6022e+12 -5.6863e+12 -3.17919e+12 -4.2558e+12 -4.82198e+12 -4.44357e+12 -3.10096e+12 -1.48635e+12 -5.22982e+12 -5.7346e+12 -3.67708e+12 -5.65436e+12 -5.20122e+12 -4.33425e+12 -3.13507e+12 -3.12934e+12 -2.34978e+12 -4.33131e+12 -4.60177e+12 -2.91717e+12 -1.31331e+12 -2.90326e+12 -1.4036e+12 -3.11615e+12 -4.53382e+12 -5.87605e+12 -3.48212e+12 -3.78012e+12 -2.05891e+12 -3.82952e+12 -3.74956e+12 -3.4624e+12 -3.45431e+12 -4.43697e+12 -2.94592e+12 -4.62565e+12 -1.88006e+12 -2.12009e+12 -4.63403e+12 -3.20519e+12 -2.96209e+12 -4.2143e+12 -4.35268e+12 -2.72676e+12 -1.68951e+12 -2.17736e+12 -1.53582e+12 -2.78092e+12 -3.39026e+12 -1.81674e+12 -1.78181e+12 -1.97409e+12 -1.84654e+12 -1.71328e+12 -2.19734e+12 -1.09177e+12 -2.00041e+12 -1.02705e+12 -1.54838e+12 -2.12195e+12 -2.31759e+12 -1.68113e+12 -1.99475e+12 -1.27537e+12 -2.5131e+12 -1.89525e+12 -1.13901e+12 -1.23291e+12 -1.27068e+12 -1.71614e+12 -746628000000.0 -530362000000.0 -718776000000.0 -1.35287e+12 -714228000000.0 -1.53699e+12 -1.35615e+12 -1.25697e+12 -2.76376e+12 -2.17596e+12 -1.92235e+12 -664624000000.0 -1.85612e+12 -2.83475e+12 -3.61237e+12 -1.6137e+12 -1.58132e+12 -1.2822e+12 -1.69387e+12 -3.09876e+12 -3.92682e+12 -4.54178e+12 -3.11647e+12 -4.3485e+12 -3.142e+12 -4.195e+12 -4.02244e+12 -2.36739e+12 -3.76507e+12 -3.44805e+12 -2.65259e+12 -4.90906e+12 -1.87528e+12 -3.14955e+12 -3.24371e+12 -4.47182e+12 -4.29261e+12 -3.31421e+12 -3.54877e+12 -5.75327e+12 -5.77001e+12 -4.29468e+12 -4.57731e+12 -3.75697e+12 -5.40884e+12 -4.47725e+12 -2.45021e+12 -4.27897e+12 -4.54931e+12 -2.59999e+12 -6.3075e+12 -2.98725e+12 -4.46393e+12 -4.92729e+12 -5.6758e+12 -4.95892e+12 -1.81209e+12 -3.0161e+12 -2.36965e+12 -2.58343e+12 -4.6533e+12 -2.88687e+12 -4.2018e+12 -6.52028e+12 -3.53195e+12 -2.05809e+12 -2.96901e+12 -3.57514e+12 -3.42174e+12 -5.15107e+12 -2.85923e+12 -3.36876e+12 -4.97719e+12 -4.46198e+12 -3.85831e+12 -2.52591e+12 -3.21818e+12 -4.24502e+12 -3.51644e+12 -3.42574e+12 -4.43029e+12 -4.31748e+12 -3.61846e+12 -2.41347e+12 -3.81902e+12 -3.5488e+12 -1.84512e+12 -3.94239e+12 -2.39004e+12 -2.07309e+12 -1.70288e+12 -2.81376e+12 -1.43748e+12 -3.74648e+12 -1.77327e+12 -2.49116e+12 -3.29078e+12 -2.60487e+12 -1.72035e+12 -2.86338e+12 -918446000000.0 -1.93941e+12 -3.29113e+12 -2.51792e+12 -2.72236e+12 -3.0372e+12 -1.28135e+12 -1.94212e+12 -2.66032e+12 -815508000000.0 -1.86718e+12 -1.96907e+12 -1.48274e+12 -55913700000.0 -1.10211e+12 -1.27373e+12 -1.54974e+12 -1.81384e+12 -553320000000.0 -1.36147e+12 -372977000000.0 -1.03814e+12 -1.05715e+12 -1.23354e+12 -1.68356e+12 -1.85875e+12 -2.24066e+12 -1.28601e+12 -1.57468e+12 -1.56236e+12 -1.27276e+12 -1.45911e+12 -2.05028e+12 -2.22409e+12 -1.36906e+12 -2.54808e+12 -1.08964e+12 -1.86232e+12 -1.70829e+12 -3.54987e+12 -1.556e+12 -4.29535e+12 -2.35996e+12 -1.81718e+12 -1.53878e+12 -3.71517e+12 -1.70726e+12 -3.35769e+12 -2.56427e+12 -2.16601e+12 -1.99337e+12 -3.52195e+12 -4.66953e+12 -3.83837e+12 -3.78104e+12 -1.90199e+12 -3.99437e+12 -5.0524e+12 -3.38901e+12 -1.56539e+12 -2.69454e+12 -3.79726e+12 -4.10246e+12 -3.94945e+12 -3.22162e+12 -3.89849e+12 -2.51963e+12 -4.01702e+12 -1.96731e+12 -4.01245e+12 -4.82794e+12 -3.61443e+12 -3.07769e+12 -4.07e+12 -3.45644e+12 -1.8334e+12 -2.54604e+12 -4.43542e+12 -3.9434e+12 -3.07894e+12 -3.48072e+12 -2.97284e+12 -6.38279e+12 -5.38048e+12 -4.37027e+12 -6.47135e+12 -4.53641e+12 -1.97666e+12 -5.51135e+12 -3.80951e+12 -3.40975e+12 -3.54161e+12 -2.76181e+12 -4.41717e+12 -3.72631e+12 -3.44557e+12 -2.13755e+12 -5.33206e+12 -3.32633e+12 -1.49826e+12 -2.71657e+12 -2.29589e+12 -3.31709e+12 -1.1795e+12 -3.34704e+12 -2.81994e+12 -3.05212e+12 -3.24384e+12 -2.92277e+12 -2.87013e+12 -2.90567e+12 -2.3496e+12 -1.88852e+12 -2.71398e+12 -3.36579e+12 -3.59997e+12 -3.08207e+12 -2.28991e+12 -3.32102e+12 -1.14446e+12 -1.59345e+12 -2.51495e+12 -2.24038e+12 -2.24754e+12 -3.35689e+12 -1.97049e+12 -2.52287e+12 -1.05344e+12 -1.45074e+12 -1.60749e+12 -2.28586e+12 -2.22516e+12 -108205000000.0 -1.71127e+12 -1.3805e+12 -1.94703e+12 -1.89669e+12 -561626000000.0 -1.02313e+12 -844838000000.0 -711605000000.0 -938566000000.0 -710987000000.0 -1.02391e+12 -670321000000.0 -1.25563e+12 -370020000000.0 -1.32199e+12 -102339000000.0 -718384000000.0 -1.02093e+12 -693802000000.0 -442232000000.0 -1.41808e+12 -1.3105e+12 -1.75277e+12 -669792000000.0 -685827000000.0 -1.60743e+12 -2.36998e+12 -1.18717e+12 -277122000000.0 -1.70729e+12 -1.50912e+12 -1.18976e+12 -778260000000.0 -1.31145e+12 -1.11572e+12 -1.51373e+12 -1.38e+12 -2.8073e+12 -2.43694e+12 -1.98243e+12 -609418000000.0 -1.93141e+12 -1.89072e+12 -1.41896e+12 -1.17751e+12 -2.6973e+12 -2.34581e+12 -2.85988e+12 -3.79073e+12 -3.49067e+12 -882681000000.0 -3.72455e+12 -3.92182e+12 -1.44608e+12 -4.73034e+12 -3.90501e+12 -2.10048e+12 -3.04044e+12 -4.09766e+12 -3.20006e+12 -3.72573e+12 -3.75289e+12 -3.49244e+12 -895413000000.0 -1.6403e+12 -2.66864e+12 -3.7757e+12 -2.98976e+12 -2.70897e+12 -4.26451e+12 -5.79146e+12 -3.46891e+12 -3.94775e+12 -4.58622e+12 -1.77573e+12 -2.51804e+12 -4.39967e+12 -2.91043e+12 -2.32924e+12 -1.96995e+12 -3.58156e+12 -5.12828e+12 -2.37583e+12 -2.93739e+12 -3.15546e+12 -2.63388e+12 -2.16097e+12 -1.93467e+12 -4.0308e+12 -3.78888e+12 -2.40639e+12 -2.44293e+12 -4.35673e+12 -3.94394e+12 -2.53676e+12 -1.98304e+12 -3.44568e+12 -968445000000.0 -3.61619e+12 -3.2633e+12 -1.70051e+12 -2.40528e+12 -3.92379e+12 -2.00184e+12 -2.50872e+12 -1.55091e+12 -1.17239e+12 -2.74214e+12 -3.7043e+12 -1.98926e+12 -4.6136e+12 -3.81294e+12 -3.65848e+12 -2.98366e+12 -3.38619e+12 -3.2022e+12 -1.67991e+12 -2.07602e+12 -1.31325e+12 -1.36716e+12 -2.98268e+12 -2.11512e+12 -1.36404e+12 -1.75919e+12 -1.83934e+12 -936501000000.0 -1.14256e+12 -2.68991e+12 -628454000000.0 -849748000000.0 -979930000000.0 -780994000000.0 -1.21154e+12 -927618000000.0 -690374000000.0 -863035000000.0 -800089000000.0 -898491000000.0 -590131000000.0 -306837000000.0 -802479000000.0 -1.089e+12 -1.2757e+12 -207684000000.0 -609051000000.0 -739171000000.0 -754444000000.0 -1.15852e+12 -440354000000.0 -1.54972e+12 -1.72828e+12 -971447000000.0 -1.58102e+12 -1.64305e+12 -1.24029e+12 -386085000000.0 -1.00504e+12 -791368000000.0 -1.01737e+12 -721154000000.0 -708739000000.0 -3.23832e+12 -497780000000.0 -2.41516e+12 -2.00879e+12 -1.5101e+12 -1.3653e+12 -1.83645e+12 -3.53025e+12 -1.18705e+12 -2.67173e+12 -1.08294e+12 -906007000000.0 -1.48223e+12 -613521000000.0 -2.59915e+12 -1.15048e+12 -1.25461e+12 -1.27377e+12 -2.77434e+12 -1.65063e+12 -2.17614e+12 -2.57945e+12 -2.74979e+12 -2.56125e+12 -3.20892e+12 -2.32571e+12 -2.12455e+12 -3.01187e+12 -3.53233e+12 -1.97653e+12 -3.66996e+12 -3.4071e+12 -3.1862e+12 -2.91493e+12 -2.05658e+12 -2.59952e+12 -2.96432e+12 -3.80713e+12 -2.45295e+12 -3.02744e+12 -1.41121e+12 -2.39955e+12 -2.42515e+12 -1.98185e+12 -1.87232e+12 -4.72877e+12 -2.74476e+12 -2.41088e+12 -3.47393e+12 -1.04747e+12 -877622000000.0 -2.16354e+12 -1.71818e+12 -2.77174e+12 -3.96793e+12 -3.28321e+12 -5.22365e+12 -1.85819e+12 -2.3796e+12 -2.88118e+12 -5.24125e+12 -3.49025e+12 -1.72946e+12 -1.78303e+12 -1.04632e+12 -1.94118e+12 -2.64209e+12 -2.01082e+12 -1.83506e+12 -3.3637e+12 -2.83613e+12 -1.43639e+12 -3.70438e+12 -1.76755e+12 -1.5757e+12 -1.5716e+12 -870913000000.0 -1.32674e+12 -1.91739e+12 -2.35459e+12 -2.58521e+12 -665969000000.0 -1.58607e+12 -1.55072e+12 -988570000000.0 -1.35823e+12 -2.10827e+12 -1.12059e+12 -2.11293e+12 -2.08166e+12 -757592000000.0 -1.01783e+12 -692974000000.0 -1.19766e+12 -437081000000.0 -606165000000.0 -203837000000.0 -520572000000.0 -905775000000.0 -755942000000.0 -980181000000.0 -856621000000.0 -607076000000.0 -320785000000.0 -1.19272e+12 -931737000000.0 -933962000000.0 -1.26388e+12 -1.3403e+12 -703511000000.0 -1.14663e+12 -1.06388e+12 -338224000000.0 -811688000000.0 -1.01478e+12 -202167000000.0 -1.42725e+12 -1.07141e+12 -914959000000.0 -1.77257e+12 -610325000000.0 -807709000000.0 -720121000000.0 -2.02289e+12 -1.58956e+12 -1.87409e+12 -1.58726e+12 -1.41954e+12 -1.91533e+12 -1.72461e+12 -1.14967e+12 -1.07588e+12 -2.01508e+12 -2.88543e+12 -751152000000.0 -1.49404e+12 -1.16314e+12 -2.24127e+12 -2.22615e+12 -1.75262e+12 -2.57391e+12 -1.50279e+12 -2.52489e+12 -817274000000.0 -2.50506e+12 -3.70884e+12 -1.41931e+12 -1.49283e+12 -2.37378e+12 -2.29449e+12 -2.51061e+12 -3.27183e+12 -3.01707e+12 -2.52113e+12 -2.81221e+12 -2.47816e+12 -2.19598e+12 -2.47761e+12 -3.52947e+12 -3.70799e+12 -3.79252e+12 -3.02678e+12 -2.00578e+12 -2.16383e+12 -3.70789e+12 -2.51756e+12 -2.83568e+12 -2.27323e+12 -1.99205e+12 -4.90406e+12 -1.65615e+12 -1.84326e+12 -2.24974e+12 -2.13866e+12 -75899600000.0 -3.27673e+12 -1.34216e+12 -1.36079e+12 -3.46987e+12 -1.53324e+12 -2.59699e+12 -2.1714e+12 -2.70159e+12 -1.28882e+12 -2.48387e+12 -1.60013e+12 -2.85536e+12 -732705000000.0 -2.66322e+12 -2.597e+12 -1.98e+12 -1.66186e+12 -2.28472e+12 -1.8346e+12 -1.1629e+12 -1.70095e+12 -981342000000.0 -854128000000.0 -567093000000.0 -2.37213e+12 -749079000000.0 -541734000000.0 -1.00001e+12 -780224000000.0 -1.23467e+12 -837496000000.0 -1.0939e+12 -631578000000.0 -375927000000.0 -482177000000.0 -696763000000.0 -627076000000.0 -431365000000.0 -470673000000.0 -628623000000.0 -531425000000.0 -911410000000.0 -1.10155e+12 -514714000000.0 -1.03903e+12 -1.6323e+12 -933401000000.0 -536226000000.0 -814524000000.0 -548399000000.0 -58784300000.0 -717342000000.0 -171716000000.0 -1.35422e+12 -833142000000.0 -1.29759e+12 -612556000000.0 -1.27697e+12 -1.36826e+12 -962557000000.0 -1.0894e+12 -944802000000.0 -1.75331e+12 -1.6652e+12 -787297000000.0 -1.12804e+12 -1.10572e+12 -1.04165e+12 -1.05719e+12 -2.17646e+12 -2.15842e+12 -1.1406e+12 -1.20961e+12 -1.35785e+12 -2.52114e+12 -508768000000.0 -2.39092e+12 -1.95095e+12 -2.07799e+12 -2.29109e+12 -1.23378e+12 -3.50007e+12 -2.53095e+12 -2.96302e+12 -1.327e+12 -3.06758e+12 -991086000000.0 -2.22535e+12 -2.34929e+12 -2.10756e+12 -1.79612e+12 -2.04071e+12 -1.69936e+12 -2.62267e+12 -2.30308e+12 -2.45329e+12 -2.61361e+12 -1.99821e+12 -3.26273e+12 -3.47696e+12 -1.5051e+12 -1.12078e+12 -4.29919e+12 -3.50299e+12 -1.98305e+12 -3.08204e+12 -1.49201e+12 -1.7156e+12 -3.05878e+12 -1.76643e+12 -2.78869e+12 -1.78459e+12 -1.9148e+12 -2.77965e+12 -1.91127e+12 -1.22213e+12 -1.9338e+12 -1.38226e+12 -93286300000.0 -2.37852e+12 -1.27588e+12 -1.8764e+12 -1.14878e+12 -1.76646e+12 -2.84965e+12 -2.59494e+12 -751622000000.0 -845021000000.0 -535285000000.0 -1.27466e+12 -1.21994e+12 -2.0661e+12 -1.18039e+12 -1.5291e+12 -1.58339e+12 -1.16341e+12 -1.49177e+12 -958797000000.0 -478951000000.0 -966559000000.0 -1.10836e+12 -433794000000.0 -1.40229e+12 -835418000000.0 -1.53915e+12 -852942000000.0 -707822000000.0 -149712000000.0 -380564000000.0 -292212000000.0 -485010000000.0 -189773000000.0 -156989000000.0 -479822000000.0 -664551000000.0 -392264000000.0 -131296000000.0 -182816000000.0 -321364000000.0 -833658000000.0 -721407000000.0 -889945000000.0 -439654000000.0 -535097000000.0 -318439000000.0 -595710000000.0 -574596000000.0 -681611000000.0 -189383000000.0 -879758000000.0 -1.15218e+12 -537903000000.0 -694099000000.0 -516545000000.0 -843605000000.0 -763771000000.0 -1.76141e+12 -1.33516e+12 -1.1e+12 -1.20262e+12 -1.00863e+12 -1.63291e+12 -2.01373e+12 -1.40227e+12 -1.11408e+12 -199212000000.0 -853784000000.0 -1.49679e+12 -1.51485e+12 -1.49579e+12 -2.37544e+12 -931431000000.0 -2.93051e+12 -707940000000.0 -1.29824e+12 -2.89917e+12 -2.02665e+12 -688262000000.0 -1.72158e+12 -2.05418e+12 -1.13964e+12 -1.64991e+12 -2.249e+12 -1.97548e+12 -586386000000.0 -2.88826e+12 -1.45332e+12 -1.30479e+12 -582580000000.0 -1.91326e+12 -2.04318e+12 -2.72209e+12 -2.18548e+12 -1.25512e+12 -2.66634e+12 -2.16255e+12 -2.11016e+12 -2.00266e+12 -1.42933e+12 -2.27127e+12 -1.61714e+12 -1.60048e+12 -1.08881e+12 -1.17334e+12 -1.7054e+12 -2.54945e+12 -3.16544e+12 -2.04714e+12 -2.43577e+12 -1.61191e+12 -1.49673e+12 -1.96056e+12 -1.3385e+12 -1.59267e+12 -1.36302e+12 -2.23201e+12 -1.54048e+12 -867030000000.0 -1.57824e+12 -1.47206e+12 -1.46529e+12 -1.66167e+12 -1.18423e+12 -1.46399e+12 -1.45996e+12 -1.52941e+12 -1.21147e+12 -2.01558e+12 -1.75376e+12 -411970000000.0 -679497000000.0 -767987000000.0 -839392000000.0 -667084000000.0 -447503000000.0 -403756000000.0 -638407000000.0 -704804000000.0 -1.09937e+12 -971632000000.0 -331234000000.0 -963009000000.0 -152742000000.0 -666917000000.0 -459774000000.0 -246031000000.0 -236372000000.0 -622989000000.0 -438920000000.0 -663915000000.0 -708191000000.0 -400581000000.0 -522247000000.0 -479706000000.0 -677924000000.0 -599852000000.0 -787136000000.0 -675278000000.0 -524000000000.0 -362333000000.0 -754657000000.0 -176092000000.0 -368256000000.0 -536100000000.0 -718157000000.0 -226629000000.0 -257651000000.0 -749676000000.0 -772676000000.0 -21307400000.0 -1.09356e+12 -493831000000.0 -1.28773e+12 -591389000000.0 -752837000000.0 -933623000000.0 -1.32474e+12 -1.94676e+12 -1.48211e+12 -764305000000.0 -1.64813e+12 -1.14561e+12 -1.88604e+12 -1.25472e+12 -690485000000.0 -1.32808e+12 -1.97383e+12 -1.85098e+12 -878601000000.0 -1.22991e+12 -1.9772e+12 -1.41136e+12 -1.99446e+12 -1.75944e+12 -1.45726e+12 -1.99616e+12 -2.28357e+12 -1.89344e+12 -2.51128e+12 -1.00512e+12 -1.93116e+12 -1.67692e+12 -1.99709e+12 -1.67328e+12 -1.10259e+12 -745582000000.0 -2.0258e+12 -651909000000.0 -1.40532e+12 -1.47728e+12 -416453000000.0 -1.04582e+12 -971632000000.0 -2.08148e+12 -670522000000.0 -1.16362e+12 -1.52059e+12 -1.01221e+12 -1.47137e+12 -1.82095e+12 -708029000000.0 -776563000000.0 -1.40608e+12 -993294000000.0 -927614000000.0 -1.12869e+12 -2.14096e+12 -689413000000.0 -1.15558e+12 -1.63804e+12 -706338000000.0 -686983000000.0 -923511000000.0 -1.58295e+12 -1.20119e+12 -820204000000.0 -883555000000.0 -766386000000.0 -849404000000.0 -957402000000.0 -490692000000.0 -915602000000.0 -1.58107e+12 -807451000000.0 -468669000000.0 -682012000000.0 -460932000000.0 -817944000000.0 -724224000000.0 -319617000000.0 -316024000000.0 -763050000000.0 -423004000000.0 -828767000000.0 -558639000000.0 -79598700000.0 -746007000000.0 -189484000000.0 -585344000000.0 -122226000000.0 -106089000000.0 -250051000000.0 -304514000000.0 -35744000000.0 -360119000000.0 -286911000000.0 -491591000000.0 -462416000000.0 -251844000000.0 -23236600000.0 -577360000000.0 -23016600000.0 -892868000000.0 -194383000000.0 -474378000000.0 -126878000000.0 -763024000000.0 -527585000000.0 -510902000000.0 -1.28085e+12 -706301000000.0 -864647000000.0 -299146000000.0 -1.07812e+12 -206051000000.0 -397754000000.0 -207619000000.0 -1.42114e+12 -843665000000.0 -587293000000.0 -1.2243e+12 -1.14214e+12 -772903000000.0 -287104000000.0 -1.03422e+12 -1.95296e+12 -1.44408e+12 -418372000000.0 -594938000000.0 -1.10742e+12 -1.11997e+12 -1.07845e+12 -1.75245e+12 -803924000000.0 -656869000000.0 -1.36005e+12 -1.40609e+12 -1.13327e+12 -2.00947e+12 -598238000000.0 -1.85814e+12 -705623000000.0 -456010000000.0 -2.29987e+12 -488041000000.0 -1.24779e+12 -1.05513e+12 -1.44043e+12 -3.20199e+12 -1.48275e+12 -1.30724e+12 -923760000000.0 -1.25096e+12 -1.35611e+12 -21471900000.0 -677993000000.0 -2.18103e+12 -712113000000.0 -586035000000.0 -1.63035e+12 -749883000000.0 -745769000000.0 -407175000000.0 -362173000000.0 -1.08205e+12 -1.04291e+12 -894370000000.0 -1.55989e+12 -1.89067e+12 -1.63022e+12 -1.35284e+12 -1.54198e+12 -1.06652e+12 -1.67107e+12 -577966000000.0 -910738000000.0 -732019000000.0 -633716000000.0 -428265000000.0 -624132000000.0 -293013000000.0 -878378000000.0 -1.09529e+12 -205871000000.0 -535747000000.0 -127458000000.0 -538060000000.0 -428773000000.0 -125684000000.0 -561975000000.0 -187712000000.0 -345769000000.0 -393092000000.0 -710250000000.0 -37053600000.0 -414332000000.0 -722192000000.0 -224769000000.0 -42387900000.0 -130169000000.0 -212501000000.0 -112369000000.0 -237390000000.0 -106595000000.0 -320692000000.0 -361388000000.0 -176854000000.0 -112715000000.0 -96049700000.0 -182717000000.0 -95157900000.0 -278148000000.0 -15621700000.0 -274122000000.0 -281645000000.0 -382963000000.0 -434415000000.0 -479162000000.0 -457860000000.0 -415526000000.0 -186306000000.0 -618639000000.0 -785409000000.0 -612395000000.0 -342530000000.0 -388577000000.0 -540728000000.0 -560844000000.0 -734670000000.0 -204483000000.0 -420398000000.0 -560229000000.0 -1.17112e+12 -989383000000.0 -870766000000.0 -708435000000.0 -232712000000.0 -1.27144e+12 -1.52332e+12 -2.10915e+12 -720409000000.0 -1.0929e+12 -1.44547e+12 -588778000000.0 -1.28896e+12 -1.54722e+12 -954778000000.0 -932136000000.0 -1.44303e+12 -1.77075e+12 -1.27191e+12 -1.36573e+12 -1.51139e+12 -806794000000.0 -1.43695e+12 -533967000000.0 -1.95536e+12 -981062000000.0 -1.37e+12 -1.4616e+12 -1.12216e+12 -819215000000.0 -911392000000.0 -857069000000.0 -703377000000.0 -521190000000.0 -709544000000.0 -878605000000.0 -918673000000.0 -721608000000.0 -197633000000.0 -1.06348e+12 -602266000000.0 -662272000000.0 -483370000000.0 -395597000000.0 -720962000000.0 -682434000000.0 -1.13951e+12 -816998000000.0 -219421000000.0 -367695000000.0 -503519000000.0 -656939000000.0 -554379000000.0 -403898000000.0 -333568000000.0 -403961000000.0 -240595000000.0 -895645000000.0 -652848000000.0 -103361000000.0 -458537000000.0 -356814000000.0 -240723000000.0 -439549000000.0 -414411000000.0 -104145000000.0 -637414000000.0 -501805000000.0 -102277000000.0 -320400000000.0 -471019000000.0 -248387000000.0 -627625000000.0 -126204000000.0 -13149500000.0 -218235000000.0 -45730000000.0 -13677000000.0 -61568500000.0 -19338100000.0 -196811000000.0 -135702000000.0 -162695000000.0 -105227000000.0 -94395000000.0 -99818900000.0 -23150800000.0 -160331000000.0 -154582000000.0 -311950000000.0 -233993000000.0 -204694000000.0 -436309000000.0 -551175000000.0 -205506000000.0 -49576000000.0 -134976000000.0 -314540000000.0 -401238000000.0 -271754000000.0 -18176600000.0 -211223000000.0 -730748000000.0 -209276000000.0 -556014000000.0 -836859000000.0 -397985000000.0 -443456000000.0 -363006000000.0 -122851000000.0 -453729000000.0 -450043000000.0 -717779000000.0 -378592000000.0 -955026000000.0 -1.70638e+12 -842486000000.0 -1.32909e+12 -1.02399e+12 -726612000000.0 -892319000000.0 -1.12764e+12 -1.16866e+12 -715130000000.0 -1.79681e+12 -463915000000.0 -39110200000.0 -308142000000.0 -1.22681e+12 -793937000000.0 -732014000000.0 -770625000000.0 -1.34815e+12 -727726000000.0 -837350000000.0 -1.52717e+12 -545455000000.0 -1.11193e+12 -286457000000.0 -491728000000.0 -461489000000.0 -329455000000.0 -430377000000.0 -429738000000.0 -702660000000.0 -748897000000.0 -371673000000.0 -906038000000.0 -794723000000.0 -647449000000.0 -525762000000.0 -551874000000.0 -587357000000.0 -254598000000.0 -690075000000.0 -888604000000.0 -523453000000.0 -678246000000.0 -401858000000.0 -814296000000.0 -374163000000.0 -398916000000.0 -618600000000.0 -123919000000.0 -284715000000.0 -209537000000.0 -331688000000.0 -604774000000.0 -183520000000.0 -357912000000.0 -38523500000.0 -61850800000.0 -401497000000.0 -380429000000.0 -157293000000.0 -42510000000.0 -134678000000.0 -293868000000.0 -174347000000.0 -66755300000.0 -343344000000.0 -82932000000.0 -12921000000.0 -152145000000.0 -82380800000.0 -42741000000.0 -26388300000.0 -106262000000.0 -85641600000.0 -88319900000.0 -127654000000.0 -220388000000.0 -42853300000.0 -193409000000.0 -175179000000.0 -23857000000.0 -119090000000.0 -37324100000.0 -164958000000.0 -159618000000.0 -281733000000.0 -149930000000.0 -162599000000.0 -157677000000.0 -283884000000.0 -240376000000.0 -111456000000.0 -280112000000.0 -284433000000.0 -290428000000.0 -266322000000.0 -572134000000.0 -337984000000.0 -747929000000.0 -217277000000.0 -349684000000.0 -252713000000.0 -749962000000.0 -815646000000.0 -469200000000.0 -570165000000.0 -575485000000.0 -565624000000.0 -521147000000.0 -51530300000.0 -195281000000.0 -953952000000.0 -727646000000.0 -486960000000.0 -594129000000.0 -394539000000.0 -623857000000.0 -611050000000.0 -703996000000.0 -582561000000.0 -947652000000.0 -490214000000.0 -891979000000.0 -994464000000.0 -183259000000.0 -711122000000.0 -1.10745e+12 -880259000000.0 -580060000000.0 -1.39921e+12 -761731000000.0 -735389000000.0 -293323000000.0 -561919000000.0 -118141000000.0 -336528000000.0 -411879000000.0 -433599000000.0 -490402000000.0 -293652000000.0 -422661000000.0 -400398000000.0 -340791000000.0 -518954000000.0 -180426000000.0 -254734000000.0 -175295000000.0 -340823000000.0 -175517000000.0 -382621000000.0 -236872000000.0 -300287000000.0 -190723000000.0 -175459000000.0 -279793000000.0 -216746000000.0 -344949000000.0 -267485000000.0 -425955000000.0 -226573000000.0 -234418000000.0 -225046000000.0 -18868800000.0 -66961400000.0 -195306000000.0 -67332400000.0 -58365200000.0 -94883800000.0 -273490000000.0 -35605400000.0 -72842800000.0 -107926000000.0 -70755000000.0 -281176000000.0 -27930700000.0 -62519300000.0 -59763400000.0 -36649600000.0 -19066100000.0 -18284400000.0 -28110400000.0 -21451300000.0 -37567500000.0 -36998800000.0 -51558200000.0 -186069000000.0 -71368600000.0 -120607000000.0 -96311700000.0 -88177500000.0 -42338500000.0 -71057300000.0 -92877300000.0 -30680900000.0 -64061700000.0 -152136000000.0 -119565000000.0 -69160900000.0 -220274000000.0 -170556000000.0 -185764000000.0 -133931000000.0 -189133000000.0 -67335300000.0 -366724000000.0 -122793000000.0 -268793000000.0 -394372000000.0 -284715000000.0 -257338000000.0 -234049000000.0 -160451000000.0 -402491000000.0 -341089000000.0 -134282000000.0 -492731000000.0 -82150200000.0 -332235000000.0 -214259000000.0 -314327000000.0 -227541000000.0 -335034000000.0 -309281000000.0 -163980000000.0 -376904000000.0 -403189000000.0 -179845000000.0 -144171000000.0 -545831000000.0 -607075000000.0 -395365000000.0 -335446000000.0 -310066000000.0 -463630000000.0 -481899000000.0 -57702600000.0 -39997900000.0 -199354000000.0 -85002500000.0 -135840000000.0 -115219000000.0 -303775000000.0 -106652000000.0 -383453000000.0 -305392000000.0 -233944000000.0 -266623000000.0 -196616000000.0 -63378700000.0 -63773700000.0 -32363000000.0 -94477400000.0 -58017300000.0 -75379100000.0 -27983000000.0 -89745600000.0 -119185000000.0 -92294200000.0 -38477200000.0 -33616400000.0 -127533000000.0 -118005000000.0 -63324700000.0 -52174000000.0 -64567700000.0 -45769300000.0 -35155100000.0 -60133900000.0 -69487300000.0 -64838500000.0 -92386000000.0 -25907500000.0 -25620600000.0 -18428900000.0 -60323600000.0 -101226000000.0 -62487500000.0 -77361600000.0 -57272700000.0 -33538300000.0 -138563000000.0 -50907500000.0 -42646200000.0 -48076600000.0 -50556400000.0 -97062800000.0 -112961000000.0 -67794100000.0 -58858300000.0 -94544800000.0 -127368000000.0 -47106000000.0 -66331300000.0 -77773800000.0 -152545000000.0 -23102900000.0 -23522900000.0 -24357700000.0 -112860000000.0 -107124000000.0 -162644000000.0 -134520000000.0 -57249100000.0 -109947000000.0 -107886000000.0 -132750000000.0 -86094300000.0 -127231000000.0 -119813000000.0 -76323600000.0 -75968700000.0 -575234000000.0 -285385000000.0 -296241000000.0 -105169000000.0 -173446000000.0 -139404000000.0 -21669800000.0 -366222000000.0 -123573000000.0 -113263000000.0 -62120500000.0 -176552000000.0 -50319900000.0 -98181000000.0 -59694400000.0 