# vtk DataFile Version 2.0
Time step 57
ASCII
DATASET UNSTRUCTURED_GRID
POINTS 5000 float
202706.0 268357.0 0
207596.0 266422.0 0
206634.0 270752.0 0
213767.0 267771.0 0
209508.0 269589.0 0
221782.0 270197.0 0
228906.0 270098.0 0
232548.0 268204.0 0
237500.0 270387.0 0
271182.0 269576.0 0
277995.0 268127.0 0
285668.0 271045.0 0
291153.0 268719.0 0
297464.0 266646.0 0
202414.0 273391.0 0
207034.0 275079.0 0
211345.0 272709.0 0
216973.0 272589.0 0
221644.0 275659.0 0
225726.0 273145.0 0
232947.0 271548.0 0
230337.0 274632.0 0
235155.0 275457.0 0
242952.0 272347.0 0
249615.0 272972.0 0
255889.0 272081.0 0
261054.0 273713.0 0
266305.0 272380.0 0
270608.0 274069.0 0
275078.0 273544.0 0
280527.0 273653.0 0
284156.0 276185.0 0
287709.0 275552.0 0
292082.0 274234.0 0
297167.0 271923.0 0
203018.0 278647.0 0
213955.0 276960.0 0
209436.0 279578.0 0
218121.0 279351.0 0
222998.0 281275.0 0
226731.0 277451.0 0
231974.0 279097.0 0
236423.0 280445.0 0
240048.0 277002.0 0
245117.0 277470.0 0
249516.0 278470.0 0
253464.0 277586.0 0
257659.0 276452.0 0
264103.0 276676.0 0
260805.0 279249.0 0
268386.0 277369.0 0
269921.0 281227.0 0
273113.0 278415.0 0
277767.0 277699.0 0
281371.0 277734.0 0
285079.0 280247.0 0
288961.0 278951.0 0
292344.0 280529.0 0
296673.0 277914.0 0
201898.0 283101.0 0
206089.0 283347.0 0
214042.0 282264.0 0
218600.0 283828.0 0
228432.0 282395.0 0
226666.0 286168.0 0
233149.0 283598.0 0
237160.0 284917.0 0
241583.0 282251.0 0
247138.0 281985.0 0
249830.0 286230.0 0
251963.0 281952.0 0
254528.0 286085.0 0
256737.0 281642.0 0
260938.0 283531.0 0
265317.0 281465.0 0
268653.0 284743.0 0
272981.0 284318.0 0
276285.0 281571.0 0
280479.0 281461.0 0
278041.0 286383.0 0
283803.0 285408.0 0
288947.0 283359.0 0
296212.0 284825.0 0
202761.0 287333.0 0
206616.0 291123.0 0
210504.0 286809.0 0
216607.0 288900.0 0
222574.0 286970.0 0
226722.0 290753.0 0
230280.0 286987.0 0
234286.0 287376.0 0
232407.0 291560.0 0
236824.0 290219.0 0
240791.0 288095.0 0
243494.0 291639.0 0
245177.0 286364.0 0
247276.0 290766.0 0
251986.0 290279.0 0
259003.0 287472.0 0
255913.0 290102.0 0
264557.0 287580.0 0
269325.0 289793.0 0
270581.0 287129.0 0
273386.0 288986.0 0
281920.0 289835.0 0
287899.0 287496.0 0
285990.0 291085.0 0
290223.0 290234.0 0
291438.0 286914.0 0
293625.0 289639.0 0
297548.0 290597.0 0
202042.0 291679.0 0
202035.0 295252.0 0
211827.0 292544.0 0
216771.0 294641.0 0
221539.0 292250.0 0
229339.0 294698.0 0
225325.0 296303.0 0
232363.0 296143.0 0
236852.0 295435.0 0
240508.0 292400.0 0
242542.0 296211.0 0
246428.0 294777.0 0
254511.0 293931.0 0
250274.0 294475.0 0
259751.0 292752.0 0
265940.0 293936.0 0
271814.0 293125.0 0
277479.0 292663.0 0
280303.0 296507.0 0
282687.0 293824.0 0
286350.0 294932.0 0
290502.0 294019.0 0
294384.0 293094.0 0
297851.0 294888.0 0
202300.0 299086.0 0
206892.0 296683.0 0
212598.0 297830.0 0
209419.0 301031.0 0
217864.0 300693.0 0
220855.0 296649.0 0
222771.0 299960.0 0
226650.0 301650.0 0
229654.0 298490.0 0
233692.0 300181.0 0
239377.0 300961.0 0
248239.0 297763.0 0
244915.0 300801.0 0
249213.0 301156.0 0
252654.0 298593.0 0
257082.0 297151.0 0
261624.0 298236.0 0
270139.0 297350.0 0
266092.0 299590.0 0
269302.0 300571.0 0
274311.0 297020.0 0
272934.0 301428.0 0
277755.0 297463.0 0
276439.0 299888.0 0
279662.0 299931.0 0
283658.0 298225.0 0
288875.0 297988.0 0
286530.0 301492.0 0
294041.0 297582.0 0
291208.0 301808.0 0
298375.0 298437.0 0
298501.0 301323.0 0
201937.0 302899.0 0
201649.0 305838.0 0
205554.0 301894.0 0
204638.0 305991.0 0
208692.0 305547.0 0
213112.0 303178.0 0
217269.0 306790.0 0
222331.0 304253.0 0
226696.0 306671.0 0
230648.0 304039.0 0
235229.0 304800.0 0
239567.0 305897.0 0
243585.0 305412.0 0
247715.0 305073.0 0
252448.0 304005.0 0
257265.0 302083.0 0
259612.0 305875.0 0
262936.0 303373.0 0
268101.0 304310.0 0
272655.0 305945.0 0
277257.0 303817.0 0
282336.0 303386.0 0
287982.0 305724.0 0
295385.0 301909.0 0
293477.0 305861.0 0
297872.0 304702.0 0
202338.0 309123.0 0
205856.0 309733.0 0
212857.0 307161.0 0
209908.0 310140.0 0
213931.0 310115.0 0
222043.0 309038.0 0
226296.0 311433.0 0
231907.0 309521.0 0
237088.0 309202.0 0
241964.0 310235.0 0
245956.0 308474.0 0
250612.0 309560.0 0
255848.0 307808.0 0
264774.0 307683.0 0
260646.0 309801.0 0
269209.0 309278.0 0
272932.0 311727.0 0
279823.0 307885.0 0
275678.0 308202.0 0
283679.0 307575.0 0
286092.0 310198.0 0
290046.0 309960.0 0
294376.0 309945.0 0
297841.0 308499.0 0
202727.0 313245.0 0
201741.0 316756.0 0
207147.0 313712.0 0
205238.0 316923.0 0
211920.0 313977.0 0
217129.0 312224.0 0
214849.0 315359.0 0
221829.0 314064.0 0
226434.0 316780.0 0
229775.0 314085.0 0
233410.0 314783.0 0
237576.0 314047.0 0
242401.0 315339.0 0
246174.0 312255.0 0
246303.0 316284.0 0
250177.0 315041.0 0
255831.0 314178.0 0
261235.0 314603.0 0
265371.0 312454.0 0
269475.0 314568.0 0
273834.0 316779.0 0
277481.0 312239.0 0
278896.0 316534.0 0
282433.0 312164.0 0
283663.0 317054.0 0
286906.0 313540.0 0
292047.0 314642.0 0
297302.0 313118.0 0
202586.0 320156.0 0
208911.0 317257.0 0
206601.0 320259.0 0
212812.0 317935.0 0
210486.0 320837.0 0
217380.0 317633.0 0
214668.0 321408.0 0
222000.0 319246.0 0
225708.0 321227.0 0
231069.0 318090.0 0
235322.0 318878.0 0
239524.0 319070.0 0
244284.0 320299.0 0
248997.0 319727.0 0
252761.0 318699.0 0
260058.0 318267.0 0
256601.0 321342.0 0
264528.0 317765.0 0
261738.0 321936.0 0
265511.0 322053.0 0
269075.0 319182.0 0
280524.0 320246.0 0
276697.0 321131.0 0
282892.0 321763.0 0
288324.0 317829.0 0
285746.0 321126.0 0
292104.0 319848.0 0
296480.0 318641.0 0
203010.0 324527.0 0
207883.0 324351.0 0
212582.0 324781.0 0
218628.0 322619.0 0
216232.0 325008.0 0
222855.0 324164.0 0
219621.0 326771.0 0
228697.0 320886.0 0
227681.0 325275.0 0
232261.0 322662.0 0
232075.0 327328.0 0
237037.0 324209.0 0
241003.0 322832.0 0
241149.0 325991.0 0
244026.0 324958.0 0
247715.0 323942.0 0
246581.0 327253.0 0
251869.0 323404.0 0
259521.0 325491.0 0
263973.0 326785.0 0
268524.0 324328.0 0
272555.0 322270.0 0
271845.0 327052.0 0
275509.0 325917.0 0
279882.0 324919.0 0
285245.0 325869.0 0
289429.0 322822.0 0
293538.0 323527.0 0
297449.0 323524.0 0
202572.0 329117.0 0
206227.0 328890.0 0
210626.0 328794.0 0
215737.0 329355.0 0
223736.0 328344.0 0
220473.0 331129.0 0
227967.0 329966.0 0
224703.0 332144.0 0
231810.0 332359.0 0
236030.0 329595.0 0
240005.0 328996.0 0
243511.0 328511.0 0
246847.0 331358.0 0
250091.0 327737.0 0
255133.0 327715.0 0
259854.0 329743.0 0
262927.0 331393.0 0
268027.0 327881.0 0
266380.0 331087.0 0
270276.0 330834.0 0
274599.0 330485.0 0
277646.0 328569.0 0
278580.0 332130.0 0
281659.0 329506.0 0
290620.0 327633.0 0
286421.0 331367.0 0
291992.0 332114.0 0
296285.0 328459.0 0
202775.0 333284.0 0
201519.0 336752.0 0
207778.0 332950.0 0
205773.0 337078.0 0
212291.0 333038.0 0
209850.0 335974.0 0
213238.0 336339.0 0
217070.0 334397.0 0
222318.0 335447.0 0
228022.0 335067.0 0
233155.0 337447.0 0
235565.0 333826.0 0
238898.0 333161.0 0
237290.0 336721.0 0
242417.0 332451.0 0
240734.0 336848.0 0
244698.0 335746.0 0
248431.0 335740.0 0
251870.0 332700.0 0
254723.0 336595.0 0
256849.0 333089.0 0
260604.0 334542.0 0
264805.0 335235.0 0
268341.0 334065.0 0
271887.0 334223.0 0
273204.0 337097.0 0
275751.0 334765.0 0
279936.0 335940.0 0
282267.0 333173.0 0
284220.0 336289.0 0
288607.0 335071.0 0
292481.0 336290.0 0
297032.0 333594.0 0
201969.0 339640.0 0
204835.0 340772.0 0
207707.0 340173.0 0
210855.0 339511.0 0
215667.0 338914.0 0
219269.0 338205.0 0
214662.0 342343.0 0
219114.0 342343.0 0
222561.0 340477.0 0
225566.0 338540.0 0
226192.0 342501.0 0
229662.0 339963.0 0
233744.0 342016.0 0
237442.0 340555.0 0
240989.0 340690.0 0
243488.0 339333.0 0
246871.0 339309.0 0
248757.0 342538.0 0
251354.0 338659.0 0
257802.0 337605.0 0
255351.0 340259.0 0
258530.0 341456.0 0
261079.0 338546.0 0
264579.0 339417.0 0
268879.0 338152.0 0
272660.0 340076.0 0
276663.0 339029.0 0
280867.0 339730.0 0
284127.0 339913.0 0
288254.0 339211.0 0
285957.0 342706.0 0
292320.0 340796.0 0
296718.0 338499.0 0
197272.0 344017.0 0
202705.0 343698.0 0
202118.0 347890.0 0
207258.0 343191.0 0
205381.0 346407.0 0
208651.0 347408.0 0
211023.0 344068.0 0
214155.0 346311.0 0
217103.0 345422.0 0
222974.0 344472.0 0
220336.0 346796.0 0
227002.0 346720.0 0
230268.0 344132.0 0
233343.0 345914.0 0
236638.0 345062.0 0
240379.0 344129.0 0
244289.0 342848.0 0
242850.0 347238.0 0
246619.0 346206.0 0
252763.0 342743.0 0
250654.0 345853.0 0
253578.0 346027.0 0
256114.0 344056.0 0
259194.0 345587.0 0
261831.0 342793.0 0
263238.0 347140.0 0
266004.0 342856.0 0
269859.0 343031.0 0
267332.0 346429.0 0
274021.0 343421.0 0
270938.0 347424.0 0
275174.0 346870.0 0
277942.0 343123.0 0
282100.0 343898.0 0
285636.0 346416.0 0
289609.0 344421.0 0
293135.0 343615.0 0
293929.0 346496.0 0
296921.0 343239.0 0
297704.0 347562.0 0
202258.0 351555.0 0
205373.0 349755.0 0
206225.0 352813.0 0
209066.0 350778.0 0
212103.0 348321.0 0
212871.0 351550.0 0
216811.0 349662.0 0
223658.0 348766.0 0
220802.0 350157.0 0
223890.0 352152.0 0
227782.0 351113.0 0
230863.0 348252.0 0
234698.0 349271.0 0
231489.0 351039.0 0
233783.0 352767.0 0
238931.0 348883.0 0
237082.0 352913.0 0
242312.0 350804.0 0
249035.0 348994.0 0
245650.0 350588.0 0
249420.0 352265.0 0
252039.0 349123.0 0
256194.0 348823.0 0
260067.0 350386.0 0
263862.0 351688.0 0
266774.0 349732.0 0
269880.0 351802.0 0
274316.0 350998.0 0
279086.0 347905.0 0
278011.0 351910.0 0
282952.0 347945.0 0
284457.0 350630.0 0
281305.0 351352.0 0
287465.0 349087.0 0
290653.0 348297.0 0
289942.0 351949.0 0
293914.0 350762.0 0
297761.0 350985.0 0
203079.0 355689.0 0
207627.0 356478.0 0
209814.0 353758.0 0
212683.0 354812.0 0
211241.0 357821.0 0
216698.0 354409.0 0
220413.0 353213.0 0
220006.0 358240.0 0
222765.0 355637.0 0
226424.0 355398.0 0
230675.0 354969.0 0
235040.0 356424.0 0
238477.0 357015.0 0
240554.0 353408.0 0
244070.0 353760.0 0
242174.0 357032.0 0
247076.0 354030.0 0
246008.0 356912.0 0
253443.0 353247.0 0
250183.0 357050.0 0
257431.0 354165.0 0
261378.0 354790.0 0
264359.0 356914.0 0
266356.0 353633.0 0
268749.0 355810.0 0
272124.0 355069.0 0
275806.0 354957.0 0
279916.0 355045.0 0
277522.0 357844.0 0
283210.0 353557.0 0
283360.0 356931.0 0
286776.0 353720.0 0
295139.0 354504.0 0
291420.0 355358.0 0
294895.0 358055.0 0
298399.0 353825.0 0
297916.0 356709.0 0
302750.0 357751.0 0
202004.0 359464.0 0
202871.0 363135.0 0
205877.0 359930.0 0
209992.0 361375.0 0
213982.0 362193.0 0
215302.0 358547.0 0
217902.0 361553.0 0
224367.0 359094.0 0
222071.0 362225.0 0
228458.0 359395.0 0
225667.0 361834.0 0
232409.0 362258.0 0
232267.0 358732.0 0
236081.0 360613.0 0
244398.0 359972.0 0
240273.0 361182.0 0
247868.0 360831.0 0
254765.0 358173.0 0
251882.0 361528.0 0
255199.0 362098.0 0
258633.0 357720.0 0
257680.0 360526.0 0
261338.0 359545.0 0
264293.0 361680.0 0
267219.0 359112.0 0
268575.0 362328.0 0
270946.0 358671.0 0
274258.0 358304.0 0
272388.0 362144.0 0
280206.0 359634.0 0
276223.0 361313.0 0
278287.0 362845.0 0
280624.0 362764.0 0
284366.0 361139.0 0
287579.0 357915.0 0
288108.0 363186.0 0
291555.0 360154.0 0
295162.0 361604.0 0
297994.0 359667.0 0
297922.0 362790.0 0
304194.0 363520.0 0
202263.0 366656.0 0
206806.0 364224.0 0
205734.0 367203.0 0
211034.0 366155.0 0
215749.0 365309.0 0
219058.0 364132.0 0
218411.0 367837.0 0
221071.0 365950.0 0
228683.0 363319.0 0
225322.0 366299.0 0
234933.0 365102.0 0
231127.0 365979.0 0
238054.0 364250.0 0
237207.0 367995.0 0
244023.0 364626.0 0
240163.0 366732.0 0
249058.0 365071.0 0
253137.0 366345.0 0
256224.0 364539.0 0
259878.0 363804.0 0
263538.0 365546.0 0
266273.0 364518.0 0
266411.0 368499.0 0
269763.0 365885.0 0
274736.0 366367.0 0
278538.0 365327.0 0
283040.0 364720.0 0
280589.0 367105.0 0
285601.0 366856.0 0
289289.0 366925.0 0
292788.0 364820.0 0
296928.0 366259.0 0
202899.0 374241.0 0
203060.0 370329.0 0
208648.0 369722.0 0
212570.0 372942.0 0
212090.0 370732.0 0
214760.0 372688.0 0
214450.0 369161.0 0
217951.0 371678.0 0
221494.0 369058.0 0
221724.0 372480.0 0
225115.0 371384.0 0
229328.0 369038.0 0
228765.0 372598.0 0
233659.0 369387.0 0
232173.0 373086.0 0
239640.0 370657.0 0
236662.0 371722.0 0
243475.0 369842.0 0
242112.0 373492.0 0
245336.0 373669.0 0
247196.0 368738.0 0
247484.0 371838.0 0
250409.0 369650.0 0
253505.0 371620.0 0
257577.0 369091.0 0
262047.0 369078.0 0
263505.0 372743.0 0
267531.0 372662.0 0
271119.0 370092.0 0
274346.0 371270.0 0
277468.0 370377.0 0
282607.0 370897.0 0
289328.0 371972.0 0
287152.0 369827.0 0
291810.0 368982.0 0
295226.0 369146.0 0
294461.0 372051.0 0
298162.0 370332.0 0
200028.0 377387.0 0
197646.0 379234.0 0
195547.0 380453.0 0
200783.0 380271.0 0
202610.0 378248.0 0
205553.0 379376.0 0
204247.0 376565.0 0
206756.0 373162.0 0
207593.0 376953.0 0
210212.0 373855.0 0
211426.0 376885.0 0
214538.0 376164.0 0
218350.0 376116.0 0
222740.0 376280.0 0
226150.0 375617.0 0
226222.0 378574.0 0
229695.0 376561.0 0
235162.0 374468.0 0
233042.0 377814.0 0
239137.0 375063.0 0
236741.0 378217.0 0
243245.0 377537.0 0
247267.0 376748.0 0
249868.0 378588.0 0
250063.0 373933.0 0
252359.0 376803.0 0
255247.0 374807.0 0
259035.0 373810.0 0
256727.0 377830.0 0
261776.0 376447.0 0
265210.0 376604.0 0
269219.0 376901.0 0
272169.0 373885.0 0
272893.0 378604.0 0
275705.0 374995.0 0
279614.0 374303.0 0
277630.0 378100.0 0
284855.0 374471.0 0
281519.0 378056.0 0
286803.0 378017.0 0
290953.0 375981.0 0
296822.0 374261.0 0
295907.0 378121.0 0
300618.0 377929.0 0
303103.0 379306.0 0
305671.0 380875.0 0
188963.0 384406.0 0
193419.0 381785.0 0
191424.0 383456.0 0
192853.0 385928.0 0
195796.0 385516.0 0
198878.0 382235.0 0
196529.0 383291.0 0
199736.0 383930.0 0
198888.0 385576.0 0
203240.0 381745.0 0
201777.0 384254.0 0
205341.0 383790.0 0
209745.0 379449.0 0
207802.0 381779.0 0
210316.0 384280.0 0
211946.0 381310.0 0
214235.0 380105.0 0
215231.0 383114.0 0
216917.0 380022.0 0
218265.0 383876.0 0
220323.0 380362.0 0
223987.0 380412.0 0
228570.0 379870.0 0
226504.0 382484.0 0
231294.0 380961.0 0
233983.0 380978.0 0
233093.0 384204.0 0
240035.0 379325.0 0
236746.0 381831.0 0
239586.0 382084.0 0
243006.0 382217.0 0
246706.0 381096.0 0
250775.0 381816.0 0
254255.0 380075.0 0
259489.0 379126.0 0
257365.0 382612.0 0
263733.0 380146.0 0
261464.0 383687.0 0
266794.0 379651.0 0
266165.0 382360.0 0
268888.0 381268.0 0
271445.0 381526.0 0
273976.0 383564.0 0
275411.0 380564.0 0
278090.0 381109.0 0
280404.0 382690.0 0
284176.0 380553.0 0
286946.0 381879.0 0
290089.0 381245.0 0
292732.0 384865.0 0
293704.0 381420.0 0
297028.0 382592.0 0
295911.0 385475.0 0
298936.0 380280.0 0
303335.0 382212.0 0
300766.0 383043.0 0
307718.0 382724.0 0
305634.0 385012.0 0
303713.0 386043.0 0
310122.0 384315.0 0
312591.0 385857.0 0
179072.0 390314.0 0
181956.0 389609.0 0
184570.0 388026.0 0
186822.0 386236.0 0
189220.0 387256.0 0
186882.0 390169.0 0
189388.0 390228.0 0
191565.0 388352.0 0
196227.0 388198.0 0
193793.0 389856.0 0
196320.0 390946.0 0
199606.0 388074.0 0
202300.0 386532.0 0
205088.0 387797.0 0
207538.0 385798.0 0
208805.0 389438.0 0
210642.0 387511.0 0
212914.0 388287.0 0
213427.0 384576.0 0
214471.0 386594.0 0
216950.0 387201.0 0
221089.0 387729.0 0
222254.0 384235.0 0
224867.0 385170.0 0
229452.0 384420.0 0
227151.0 387311.0 0
231164.0 388040.0 0
234061.0 387665.0 0
236520.0 385671.0 0
239762.0 385167.0 0
237354.0 388675.0 0
240072.0 389151.0 0
243274.0 386820.0 0
246133.0 385180.0 0
248800.0 384905.0 0
248825.0 389236.0 0
253849.0 384055.0 0
251622.0 385704.0 0
252914.0 388251.0 0
256218.0 387191.0 0
259152.0 386118.0 0
259306.0 388885.0 0
264636.0 385307.0 0
261240.0 387672.0 0
263684.0 388617.0 0
268371.0 385244.0 0
266401.0 388230.0 0
271165.0 384448.0 0
272438.0 386910.0 0
277167.0 384342.0 0
274874.0 386946.0 0
278539.0 387035.0 0
281500.0 387977.0 0
283270.0 384520.0 0
286930.0 386511.0 0
284210.0 389608.0 0
291990.0 389090.0 0
290113.0 385997.0 0
294647.0 388455.0 0
298038.0 389532.0 0
299303.0 386060.0 0
301909.0 388716.0 0
307994.0 386960.0 0
304722.0 388917.0 0
306998.0 389572.0 0
311580.0 388412.0 0
309779.0 390260.0 0
313330.0 389984.0 0
315280.0 387118.0 0
317117.0 389067.0 0
315915.0 391413.0 0
319843.0 390073.0 0
322096.0 391119.0 0
175234.0 392981.0 0
173514.0 394742.0 0
170796.0 395327.0 0
177182.0 391588.0 0
177106.0 395683.0 0
178940.0 394100.0 0
185096.0 392272.0 0
181824.0 392948.0 0
183166.0 395897.0 0
188013.0 392441.0 0
190684.0 392305.0 0
189802.0 394695.0 0
186579.0 394684.0 0
193052.0 392397.0 0
194799.0 394236.0 0
199924.0 391181.0 0
198137.0 394494.0 0
203924.0 391789.0 0
202250.0 395745.0 0
207476.0 393266.0 0
211285.0 391783.0 0
213944.0 390730.0 0
215784.0 394361.0 0
212183.0 394541.0 0
218020.0 390710.0 0
220975.0 392771.0 0
223898.0 389625.0 0
223525.0 394717.0 0
226367.0 392164.0 0
228570.0 390056.0 0
228956.0 394740.0 0
230622.0 391528.0 0
234725.0 391737.0 0
238682.0 392185.0 0
242193.0 392123.0 0
244900.0 390183.0 0
246793.0 393554.0 0
252769.0 391891.0 0
256830.0 391606.0 0
261108.0 392175.0 0
265751.0 392210.0 0
269714.0 389578.0 0
273134.0 390083.0 0
270135.0 394088.0 0
273239.0 392985.0 0
276567.0 390399.0 0
280345.0 391594.0 0
283568.0 392805.0 0
286509.0 393705.0 0
287417.0 390476.0 0
290105.0 394438.0 0
290235.0 391319.0 0
293507.0 395015.0 0
293645.0 392060.0 0
296428.0 391433.0 0
296725.0 395086.0 0
301475.0 391395.0 0
299481.0 392935.0 0
302881.0 394800.0 0
306030.0 392081.0 0
307999.0 395184.0 0
303971.0 392702.0 0
310464.0 392988.0 0
313618.0 393482.0 0
317602.0 394026.0 0
318552.0 396298.0 0
319511.0 392904.0 0
323921.0 393028.0 0
321518.0 394382.0 0
320847.0 396442.0 0
326341.0 393816.0 0
328253.0 395225.0 0
324465.0 396501.0 0
330345.0 396277.0 0
162447.0 400867.0 0
164112.0 399650.0 0
168914.0 397317.0 0
166244.0 398370.0 0
166921.0 400864.0 0
170545.0 399297.0 0
173643.0 397581.0 0
175923.0 399126.0 0
179015.0 399677.0 0
180323.0 397021.0 0
182348.0 400595.0 0
184362.0 398699.0 0
186944.0 397416.0 0
188793.0 398339.0 0
186401.0 400529.0 0
189344.0 400205.0 0
191467.0 396649.0 0
193820.0 398644.0 0
197761.0 398154.0 0
201337.0 398826.0 0
204933.0 396632.0 0
204185.0 400149.0 0
209023.0 396420.0 0
206560.0 399265.0 0
211468.0 399039.0 0
214298.0 397561.0 0
219023.0 396450.0 0
221891.0 398278.0 0
224835.0 399352.0 0
225945.0 396430.0 0
228013.0 399068.0 0
230384.0 398940.0 0
232514.0 396248.0 0
233890.0 399930.0 0
236737.0 396322.0 0
239981.0 395626.0 0
237293.0 399738.0 0
244104.0 396104.0 0
240599.0 399709.0 0
247434.0 398119.0 0
250269.0 395250.0 0
253125.0 398726.0 0
250243.0 399978.0 0
255136.0 395703.0 0
258654.0 395989.0 0
256650.0 399321.0 0
263040.0 396780.0 0
267122.0 396307.0 0
268558.0 399265.0 0
272339.0 398319.0 0
275185.0 395335.0 0
278583.0 399078.0 0
278578.0 395346.0 0
275975.0 399616.0 0
281695.0 399098.0 0
282220.0 395945.0 0
284782.0 396535.0 0
288069.0 397457.0 0
284500.0 399964.0 0
292437.0 398713.0 0
296143.0 398398.0 0
300104.0 396300.0 0
298993.0 399170.0 0
302713.0 398452.0 0
302354.0 400784.0 0
305492.0 397087.0 0
305135.0 400693.0 0
307890.0 400007.0 0
310717.0 398127.0 0
314127.0 396531.0 0
312000.0 400626.0 0
314672.0 401443.0 0
316452.0 398622.0 0
319109.0 400532.0 0
322218.0 399323.0 0
327276.0 398386.0 0
325066.0 400720.0 0
332088.0 397484.0 0
334024.0 398885.0 0
329701.0 400263.0 0
336179.0 400759.0 0
154184.0 406690.0 0
158829.0 404094.0 0
156278.0 404825.0 0
160355.0 401967.0 0
162991.0 403184.0 0
164798.0 402278.0 0
161697.0 405741.0 0
167677.0 403048.0 0
165510.0 404344.0 0
170191.0 404848.0 0
171376.0 401796.0 0
174296.0 401924.0 0
172778.0 406355.0 0
175489.0 404289.0 0
178487.0 403060.0 0
176846.0 406515.0 0
180452.0 405130.0 0
183161.0 403430.0 0
189717.0 402611.0 0
186252.0 403143.0 0
190321.0 405635.0 0
193063.0 401603.0 0
193732.0 404664.0 0
197303.0 401405.0 0
200648.0 401784.0 0
196900.0 404259.0 0
199949.0 404622.0 0
203694.0 403018.0 0
206379.0 403841.0 0
208447.0 401947.0 0
213026.0 403289.0 0
216869.0 400365.0 0
217399.0 404468.0 0
220529.0 402112.0 0
224728.0 402972.0 0
228300.0 402521.0 0
231235.0 401143.0 0
232055.0 403427.0 0
235109.0 403339.0 0
238908.0 403879.0 0
244073.0 400222.0 0
242498.0 403634.0 0
244950.0 403222.0 0
247250.0 401819.0 0
250001.0 404008.0 0
254171.0 402955.0 0
258254.0 403623.0 0
260234.0 400353.0 0
263580.0 402933.0 0
265339.0 400018.0 0
268165.0 402695.0 0
272207.0 402982.0 0
276181.0 402465.0 0
279777.0 402595.0 0
283411.0 403302.0 0
286612.0 404413.0 0
287681.0 401245.0 0
290858.0 401762.0 0
289572.0 404707.0 0
293783.0 405137.0 0
295552.0 401615.0 0
298991.0 402305.0 0
297792.0 405660.0 0
302407.0 404089.0 0
308311.0 402804.0 0
305731.0 403995.0 0
310847.0 402975.0 0
312503.0 405236.0 0
315246.0 403856.0 0
318411.0 403154.0 0
319105.0 405984.0 0
321986.0 403044.0 0
323999.0 403556.0 0
324050.0 405526.0 0
321747.0 405666.0 0
326010.0 403125.0 0
328543.0 402905.0 0
326558.0 406230.0 0
332869.0 401936.0 0
329823.0 405950.0 0
332932.0 404867.0 0
338532.0 402175.0 0
336394.0 404582.0 0
340780.0 403987.0 0
343752.0 404437.0 0
149307.0 409364.0 0
146651.0 411590.0 0
151870.0 407920.0 0
153015.0 410402.0 0
156318.0 408423.0 0
159089.0 407883.0 0
155385.0 410837.0 0
159814.0 411026.0 0
164584.0 407355.0 0
163536.0 411122.0 0
168164.0 407432.0 0
170128.0 410472.0 0
174131.0 408240.0 0
173077.0 410500.0 0
175249.0 411550.0 0
177118.0 409212.0 0
183765.0 407432.0 0
180581.0 408184.0 0
181612.0 411450.0 0
184565.0 411097.0 0
186410.0 406471.0 0
187617.0 409485.0 0
191106.0 408786.0 0
194133.0 408013.0 0
194965.0 410772.0 0
197055.0 407352.0 0
199042.0 409717.0 0
202219.0 406743.0 0
202544.0 411071.0 0
205747.0 407424.0 0
210131.0 407215.0 0
213438.0 409944.0 0
215608.0 406545.0 0
217963.0 409637.0 0
219624.0 406136.0 0
223024.0 406519.0 0
221956.0 410206.0 0
225522.0 410062.0 0
226464.0 406599.0 0
228684.0 410056.0 0
229693.0 405946.0 0
232359.0 409656.0 0
233398.0 406318.0 0
235500.0 409230.0 0
235831.0 406595.0 0
238580.0 407973.0 0
242686.0 407996.0 0
245916.0 405643.0 0
248555.0 407790.0 0
252940.0 408250.0 0
256989.0 407494.0 0
261313.0 406425.0 0
263834.0 409967.0 0
266467.0 406484.0 0
270238.0 406479.0 0
273685.0 406983.0 0
271443.0 409532.0 0
275829.0 405344.0 0
275747.0 409782.0 0
279076.0 406849.0 0
282849.0 407010.0 0
285678.0 407330.0 0
287002.0 410323.0 0
288696.0 407581.0 0
292038.0 408513.0 0
294702.0 410534.0 0
296685.0 408744.0 0
300473.0 407095.0 0
299690.0 410833.0 0
303641.0 407742.0 0
303185.0 409997.0 0
306692.0 407412.0 0
307742.0 410841.0 0
309808.0 406369.0 0
313695.0 408473.0 0
311295.0 409590.0 0
316331.0 406838.0 0
316927.0 410436.0 0
322687.0 408164.0 0
320252.0 409555.0 0
325521.0 409051.0 0
328430.0 410655.0 0
334474.0 407760.0 0
330487.0 408898.0 0
333540.0 410293.0 0
337555.0 407095.0 0
338247.0 409822.0 0
340695.0 407035.0 0
343610.0 409327.0 0
341124.0 411130.0 0
345623.0 406943.0 0
348518.0 407374.0 0
348332.0 410150.0 0
350779.0 409025.0 0
353066.0 411316.0 0
139055.0 416033.0 0
144472.0 413681.0 0
141513.0 414796.0 0
148487.0 414911.0 0
150259.0 412441.0 0
152315.0 414426.0 0
156155.0 413430.0 0
157034.0 415779.0 0
159832.0 414233.0 0
163676.0 414910.0 0
161171.0 415966.0 0
167258.0 412069.0 0
167613.0 414906.0 0
171410.0 414331.0 0
174442.0 414695.0 0
178471.0 412269.0 0
177873.0 415883.0 0
181908.0 414725.0 0
184758.0 415484.0 0
187711.0 413209.0 0
189468.0 416260.0 0
191543.0 411952.0 0
192821.0 414760.0 0
195634.0 413413.0 0
198448.0 413590.0 0
201681.0 414315.0 0
205455.0 411265.0 0
204513.0 414386.0 0
207063.0 414847.0 0
208423.0 411696.0 0
209025.0 415264.0 0
210857.0 412497.0 0
211705.0 414988.0 0
214384.0 413485.0 0
218352.0 414158.0 0
222308.0 413769.0 0
225860.0 414092.0 0
229595.0 413914.0 0
233303.0 412971.0 0
236723.0 412068.0 0
239742.0 411317.0 0
239359.0 415389.0 0
241818.0 412450.0 0
245801.0 411478.0 0
247746.0 415687.0 0
250317.0 412252.0 0
253404.0 413020.0 0
259534.0 410542.0 0
256134.0 411555.0 0
257921.0 415187.0 0
262038.0 414047.0 0
266140.0 413825.0 0
268108.0 410559.0 0
269584.0 414821.0 0
270658.0 412700.0 0
273468.0 412383.0 0
276810.0 414348.0 0
279783.0 411895.0 0
283522.0 410835.0 0
284280.0 414682.0 0
286512.0 413404.0 0
289012.0 414761.0 0
290544.0 411653.0 0
293772.0 413476.0 0
297226.0 412783.0 0
296931.0 415666.0 0
301161.0 414172.0 0
304812.0 412678.0 0
307564.0 415864.0 0
309849.0 414030.0 0
312524.0 412502.0 0
311446.0 416469.0 0
313986.0 416291.0 0
315604.0 413477.0 0
319352.0 413356.0 0
321741.0 412264.0 0
323002.0 416014.0 0
324418.0 411763.0 0
329014.0 413600.0 0
326072.0 414385.0 0
331931.0 412309.0 0
334061.0 414983.0 0
337065.0 412976.0 0
340012.0 414998.0 0
343066.0 414923.0 0
345102.0 412452.0 0
347499.0 413955.0 0
350537.0 412837.0 0
351469.0 416178.0 0
354989.0 416286.0 0
355703.0 413125.0 0
358733.0 413810.0 0
360397.0 416014.0 0
129001.0 422290.0 0
134646.0 418304.0 0
132309.0 419237.0 0
130620.0 420440.0 0
136767.0 417322.0 0
134545.0 421515.0 0
137943.0 421728.0 0
139739.0 419745.0 0
142561.0 422117.0 0
142529.0 418980.0 0
145697.0 417707.0 0
148578.0 417819.0 0
145581.0 421206.0 0
148803.0 421677.0 0
151950.0 417599.0 0
151457.0 421016.0 0
154932.0 418176.0 0
158886.0 417737.0 0
156823.0 420667.0 0
164582.0 417639.0 0
161176.0 418725.0 0
163232.0 421202.0 0
167783.0 417650.0 0
166875.0 421388.0 0
170851.0 418016.0 0
173564.0 418573.0 0
176298.0 419152.0 0
179434.0 421109.0 0
180723.0 418400.0 0
183681.0 419271.0 0
186922.0 417949.0 0
185668.0 421227.0 0
188246.0 420439.0 0
190805.0 418780.0 0
191958.0 421074.0 0
194420.0 417634.0 0
195109.0 420870.0 0
197947.0 417345.0 0
198072.0 421001.0 0
201561.0 417673.0 0
201204.0 421025.0 0
205216.0 417700.0 0
204415.0 421124.0 0
208334.0 418758.0 0
212007.0 418643.0 0
215762.0 416991.0 0
214824.0 421155.0 0
217838.0 419915.0 0
220442.0 417394.0 0
224097.0 417793.0 0
228543.0 418919.0 0
232114.0 416384.0 0
233242.0 419557.0 0
235592.0 416036.0 0
237052.0 419706.0 0
243255.0 415893.0 0
240754.0 419860.0 0
245809.0 418880.0 0
248970.0 419798.0 0
250679.0 416139.0 0
254286.0 416041.0 0
252701.0 420191.0 0
261006.0 417849.0 0
264142.0 417823.0 0
267164.0 417172.0 0
270571.0 419310.0 0
273397.0 416132.0 0
277607.0 418568.0 0
281135.0 416262.0 0
283436.0 419682.0 0
286720.0 417806.0 0
292168.0 416428.0 0
289797.0 418654.0 0
292128.0 420553.0 0
295315.0 418587.0 0
298644.0 419984.0 0
299634.0 416306.0 0
304286.0 416220.0 0
301986.0 418660.0 0
305872.0 419962.0 0
309592.0 419514.0 0
313446.0 420190.0 0
319161.0 417023.0 0
315893.0 418604.0 0
316838.0 421329.0 0
320374.0 420598.0 0
328097.0 418465.0 0
325116.0 418589.0 0
328484.0 421670.0 0
331200.0 416967.0 0
333460.0 419993.0 0
336290.0 417070.0 0
336900.0 419372.0 0
340187.0 418447.0 0
344692.0 417422.0 0
343281.0 419815.0 0
348083.0 417184.0 0
348462.0 420015.0 0
352916.0 419237.0 0
351857.0 421737.0 0
357547.0 418344.0 0
360347.0 420351.0 0
356577.0 421470.0 0
362859.0 417437.0 0
364694.0 419349.0 0
366631.0 418333.0 0
368125.0 419901.0 0
369562.0 421738.0 0
123690.0 424876.0 0
121604.0 427335.0 0
126986.0 424349.0 0
129045.0 426403.0 0
132148.0 423084.0 0
131770.0 425398.0 0
134465.0 425978.0 0
135649.0 424530.0 0
138928.0 424964.0 0
142814.0 425172.0 0
146884.0 424250.0 0
153839.0 423132.0 0
150500.0 425076.0 0
159261.0 422232.0 0
155487.0 425886.0 0
159187.0 425925.0 0
162853.0 424960.0 0
170166.0 421836.0 0
166767.0 424549.0 0
169621.0 425350.0 0
173078.0 422144.0 0
172861.0 425909.0 0
176169.0 422283.0 0
176346.0 426122.0 0
178961.0 423503.0 0
180040.0 426297.0 0
182188.0 422974.0 0
185383.0 424346.0 0
189532.0 423820.0 0
193975.0 423867.0 0
197555.0 424445.0 0
200728.0 424412.0 0
203370.0 423875.0 0
207494.0 422993.0 0
211243.0 423238.0 0
214306.0 425651.0 0
215133.0 423804.0 0
218712.0 424539.0 0
221767.0 421165.0 0
222689.0 425204.0 0
225194.0 422248.0 0
228376.0 424459.0 0
231512.0 422555.0 0
235029.0 423379.0 0
238630.0 423404.0 0
241335.0 424592.0 0
243825.0 422165.0 0
244369.0 426109.0 0
247584.0 423624.0 0
250875.0 423172.0 0
253676.0 424744.0 0
257638.0 421090.0 0
261129.0 425291.0 0
262610.0 421089.0 0
264525.0 424422.0 0
266653.0 421405.0 0
270550.0 424089.0 0
274541.0 421380.0 0
277818.0 423623.0 0
280427.0 421775.0 0
283285.0 425060.0 0
286348.0 422760.0 0
289182.0 421233.0 0
289677.0 425513.0 0
293000.0 423768.0 0
295908.0 422249.0 0
298639.0 424898.0 0
301387.0 422068.0 0
302062.0 425431.0 0
304673.0 423410.0 0
307721.0 424534.0 0
310023.0 423006.0 0
313555.0 422917.0 0
311610.0 425951.0 0
316449.0 424303.0 0
323867.0 421573.0 0
319871.0 423539.0 0
322948.0 424564.0 0
326646.0 423166.0 0
329191.0 426383.0 0
330879.0 421959.0 0
332028.0 424927.0 0
338096.0 422295.0 0
335222.0 423794.0 0
339680.0 426047.0 0
336950.0 426794.0 0
341158.0 422650.0 0
344414.0 425147.0 0
345946.0 422031.0 0
348825.0 424144.0 0
347970.0 426763.0 0
352984.0 424988.0 0
357228.0 424423.0 0
360067.0 425069.0 0
361364.0 422090.0 0
364810.0 422021.0 0
363455.0 425076.0 0
367431.0 423697.0 0
367668.0 426179.0 0
370209.0 425272.0 0
372143.0 422813.0 0
374181.0 425004.0 0
377216.0 426236.0 0
113779.0 431456.0 0
116078.0 430105.0 0
118279.0 428439.0 0
118119.0 431934.0 0
121109.0 430275.0 0
125063.0 427597.0 0
126499.0 429752.0 0
125112.0 432424.0 0
131783.0 428019.0 0
129700.0 430002.0 0
134197.0 431400.0 0
134782.0 428697.0 0
137805.0 428021.0 0
138298.0 430727.0 0
141298.0 428671.0 0
144135.0 430769.0 0
144955.0 427960.0 0
147587.0 427502.0 0
147141.0 430627.0 0
151029.0 427721.0 0
150409.0 430968.0 0
154653.0 428442.0 0
153695.0 431573.0 0
157039.0 431418.0 0
159633.0 429167.0 0
164909.0 427335.0 0
163060.0 430425.0 0
168426.0 428643.0 0
172150.0 429618.0 0
175832.0 429976.0 0
179441.0 430578.0 0
183094.0 427203.0 0
182645.0 429815.0 0
186769.0 428420.0 0
189497.0 431614.0 0
190523.0 427290.0 0
192968.0 430152.0 0
193743.0 426925.0 0
197465.0 428624.0 0
204738.0 426437.0 0
201449.0 427789.0 0
202555.0 431510.0 0
208224.0 426960.0 0
205634.0 429318.0 0
208672.0 430705.0 0
211622.0 427306.0 0
216040.0 427952.0 0
218044.0 431361.0 0
220170.0 428198.0 0
223312.0 428452.0 0
225372.0 426169.0 0
227205.0 429020.0 0
229666.0 431176.0 0
231830.0 427225.0 0
236245.0 427221.0 0
239290.0 426661.0 0
241700.0 429081.0 0
246941.0 429008.0 0
250477.0 426602.0 0
253332.0 428662.0 0
257019.0 427057.0 0
260266.0 429257.0 0
263648.0 428405.0 0
267409.0 426431.0 0
271017.0 428702.0 0
274736.0 426379.0 0
274373.0 431074.0 0
278292.0 429548.0 0
279791.0 426207.0 0
282617.0 429759.0 0
286545.0 427888.0 0
289601.0 430347.0 0
292464.0 428878.0 0
295306.0 426887.0 0
297563.0 429125.0 0
295484.0 430867.0 0
301131.0 429044.0 0
304525.0 427365.0 0
308051.0 428331.0 0
311693.0 429822.0 0
314617.0 430454.0 0
314769.0 427157.0 0
317497.0 429537.0 0
319940.0 426748.0 0
320159.0 431019.0 0
322873.0 429024.0 0
325619.0 426795.0 0
328457.0 429260.0 0
326834.0 430374.0 0
333880.0 427955.0 0
331424.0 429488.0 0
334665.0 431240.0 0
337371.0 429775.0 0
339956.0 431036.0 0
342367.0 427991.0 0
344746.0 430499.0 0
347082.0 429108.0 0
349527.0 431157.0 0
352460.0 428638.0 0
354216.0 431978.0 0
356723.0 427995.0 0
358961.0 430005.0 0
360468.0 427597.0 0
364749.0 428270.0 0
362593.0 430780.0 0
369659.0 427585.0 0
368236.0 430762.0 0
372672.0 427767.0 0
375095.0 429407.0 0
371786.0 430522.0 0
374978.0 431877.0 0
379347.0 428576.0 0
378041.0 431622.0 0
382419.0 429446.0 0
384905.0 430766.0 0
108790.0 434025.0 0
104289.0 437302.0 0
106968.0 436199.0 0
111873.0 433536.0 0
112028.0 436654.0 0
116573.0 434167.0 0
115560.0 436305.0 0
122058.0 433335.0 0
119580.0 435768.0 0
123662.0 436196.0 0
127273.0 434331.0 0
126268.0 437107.0 0
131120.0 433464.0 0
130071.0 437437.0 0
134155.0 435490.0 0
136436.0 432565.0 0
137788.0 435697.0 0
141081.0 432547.0 0
141225.0 436759.0 0
143014.0 434946.0 0
144952.0 433230.0 0
146896.0 433537.0 0
145138.0 435978.0 0
147643.0 436224.0 0
150083.0 434526.0 0
153560.0 434692.0 0
159616.0 432782.0 0
156724.0 435439.0 0
161673.0 433356.0 0
160068.0 435360.0 0
163663.0 434975.0 0
167881.0 431770.0 0
165587.0 433164.0 0
168453.0 434846.0 0
171524.0 433422.0 0
175312.0 433404.0 0
178393.0 434664.0 0
181794.0 432575.0 0
184827.0 432240.0 0
181291.0 434247.0 0
183393.0 435716.0 0
188031.0 436108.0 0
192723.0 433788.0 0
195647.0 432537.0 0
197069.0 435692.0 0
199135.0 432379.0 0
201486.0 436023.0 0
205743.0 432880.0 0
209111.0 434369.0 0
213086.0 431853.0 0
210853.0 436508.0 0
213662.0 435855.0 0
217175.0 435517.0 0
224529.0 431451.0 0
221576.0 430959.0 0
221816.0 434901.0 0
226903.0 433970.0 0
230840.0 434069.0 0
233557.0 431278.0 0
234330.0 435928.0 0
237742.0 431389.0 0
238164.0 435735.0 0
244087.0 432221.0 0
241067.0 433974.0 0
247479.0 434967.0 0
250685.0 431532.0 0
254123.0 432700.0 0
252089.0 435942.0 0
255899.0 430628.0 0
258529.0 432500.0 0
256192.0 436422.0 0
262391.0 432368.0 0
267348.0 431361.0 0
265290.0 435371.0 0
271403.0 432631.0 0
274508.0 435272.0 0
277583.0 433072.0 0
280907.0 433606.0 0
284218.0 433559.0 0
286365.0 431777.0 0
286245.0 434912.0 0
289306.0 433987.0 0
292913.0 432852.0 0
296499.0 435563.0 0
298406.0 432246.0 0
301637.0 433414.0 0
305374.0 431998.0 0
309617.0 432690.0 0
305258.0 435883.0 0
309093.0 436340.0 0
313508.0 433046.0 0
313179.0 436386.0 0
316703.0 436282.0 0
317042.0 433134.0 0
319580.0 436087.0 0
324351.0 432562.0 0
320570.0 433702.0 0
323824.0 436283.0 0
329718.0 431983.0 0
327662.0 434051.0 0
330685.0 436476.0 0
332405.0 433869.0 0
334809.0 435701.0 0
339132.0 434318.0 0
336380.0 433400.0 0
337493.0 437027.0 0
343430.0 433192.0 0
340668.0 436947.0 0
342336.0 435744.0 0
347313.0 432477.0 0
346158.0 434847.0 0
348536.0 435602.0 0
350937.0 434101.0 0
353917.0 435155.0 0
357511.0 432823.0 0
355863.0 435562.0 0
359938.0 435474.0 0
362407.0 433499.0 0
365050.0 435736.0 0
366247.0 433075.0 0
368161.0 435480.0 0
370600.0 433882.0 0
373708.0 433968.0 0
370688.0 437336.0 0
373129.0 436827.0 0
379129.0 434562.0 0
376602.0 436099.0 0
381918.0 432780.0 0
381451.0 436741.0 0
383987.0 434806.0 0
387012.0 433175.0 0
389583.0 434974.0 0
392844.0 435694.0 0
102251.0 439181.0 0
99801.5 441173.0 0
108757.0 438687.0 0
105416.0 440837.0 0
113944.0 439571.0 0
109808.0 441627.0 0
118056.0 439241.0 0
118310.0 442555.0 0
121823.0 437715.0 0
122306.0 440002.0 0
121950.0 442426.0 0
125559.0 439882.0 0
125085.0 442332.0 0
129030.0 440827.0 0
132883.0 438251.0 0
132334.0 441014.0 0
134958.0 438900.0 0
138165.0 438975.0 0
136308.0 442224.0 0
142189.0 438648.0 0
140493.0 440104.0 0
148289.0 438639.0 0
144923.0 439377.0 0
148363.0 441364.0 0
151544.0 437845.0 0
154278.0 438142.0 0
151636.0 441377.0 0
154818.0 442002.0 0
157806.0 439661.0 0
161974.0 438578.0 0
166267.0 437977.0 0
165587.0 441792.0 0
168351.0 441105.0 0
170330.0 437651.0 0
173913.0 437015.0 0
171148.0 440755.0 0
174319.0 441080.0 0
177082.0 438250.0 0
180789.0 437358.0 0
179935.0 440405.0 0
184365.0 439471.0 0
187360.0 440805.0 0
190189.0 439908.0 0
193140.0 437052.0 0
194393.0 440740.0 0
197698.0 439020.0 0
200832.0 440851.0 0
205804.0 436190.0 0
204188.0 439474.0 0
208525.0 439901.0 0
214087.0 439697.0 0
219096.0 439974.0 0
224822.0 438405.0 0
229484.0 437567.0 0
232558.0 440343.0 0
237119.0 439805.0 0
240101.0 437623.0 0
243440.0 437111.0 0
246092.0 441011.0 0
249788.0 439119.0 0
253568.0 440562.0 0
257706.0 440970.0 0
261160.0 437531.0 0
265436.0 438969.0 0
269755.0 436951.0 0
267778.0 441134.0 0
273997.0 438964.0 0
278563.0 437447.0 0
276519.0 441775.0 0
283487.0 437322.0 0
285417.0 440950.0 0
288193.0 438139.0 0
292195.0 437027.0 0
291945.0 441307.0 0
294863.0 439263.0 0
297371.0 439597.0 0
299673.0 441639.0 0
301298.0 437669.0 0
304118.0 440933.0 0
306615.0 439282.0 0
308585.0 441527.0 0
310314.0 439693.0 0
313625.0 440038.0 0
317841.0 440053.0 0
321527.0 438815.0 0
327315.0 437206.0 0
325102.0 439944.0 0
330129.0 439240.0 0
327877.0 441494.0 0
332105.0 441896.0 0
333243.0 438377.0 0
339946.0 438084.0 0
336578.0 440578.0 0
342087.0 438274.0 0
344841.0 437555.0 0
340851.0 441441.0 0
344983.0 440721.0 0
348947.0 439140.0 0
352385.0 437753.0 0
355126.0 438959.0 0
352946.0 441309.0 0
357636.0 437682.0 0
359552.0 440578.0 0
362621.0 438670.0 0
366585.0 438672.0 0
368202.0 437557.0 0
367688.0 441839.0 0
374678.0 437925.0 0
371064.0 440535.0 0
374110.0 440116.0 0
377774.0 438721.0 0
379825.0 438823.0 0
376881.0 440929.0 0
383802.0 439141.0 0
381636.0 441326.0 0
385629.0 442286.0 0
386158.0 437770.0 0
389922.0 438595.0 0
388187.0 440735.0 0
392514.0 439990.0 0
395127.0 437999.0 0
392553.0 442457.0 0
395755.0 442449.0 0
397700.0 439900.0 0
400416.0 441408.0 0
403416.0 442477.0 0
90849.9 445608.0 0
97040.5 443112.0 0
94008.6 444581.0 0
94102.4 447813.0 0
101928.0 443271.0 0
99077.4 446584.0 0
102405.0 446266.0 0
105376.0 443565.0 0
107142.0 445413.0 0
110599.0 444131.0 0
110895.0 447227.0 0
114205.0 442830.0 0
114546.0 445177.0 0
116322.0 447316.0 0
118739.0 445270.0 0
122566.0 445156.0 0
120813.0 448254.0 0
128824.0 443865.0 0
125486.0 444906.0 0
132609.0 443680.0 0
129732.0 447223.0 0
133060.0 446582.0 0
136398.0 446035.0 0
140099.0 442962.0 0
143666.0 442897.0 0
139768.0 445958.0 0
143072.0 446098.0 0
147146.0 444365.0 0
150808.0 444917.0 0
153680.0 445311.0 0
157019.0 444299.0 0
159496.0 443311.0 0
156319.0 446419.0 0
162528.0 442254.0 0
160251.0 446173.0 0
163885.0 445021.0 0
167613.0 444388.0 0
170738.0 443718.0 0
174073.0 445714.0 0
177252.0 441987.0 0
178562.0 445296.0 0
182544.0 443697.0 0
186605.0 443801.0 0
190602.0 443649.0 0
194335.0 445108.0 0
197578.0 443409.0 0
200702.0 446400.0 0
204353.0 443192.0 0
207753.0 445017.0 0
211485.0 443303.0 0
215500.0 444669.0 0
219494.0 444710.0 0
222791.0 442681.0 0
224969.0 445724.0 0
228084.0 442313.0 0
231626.0 445510.0 0
235087.0 443511.0 0
238206.0 444531.0 0
241291.0 441530.0 0
243965.0 445127.0 0
240960.0 445499.0 0
247443.0 445301.0 0
250410.0 443377.0 0
253661.0 445897.0 0
255678.0 443245.0 0
258348.0 445872.0 0
260917.0 442701.0 0
264089.0 442244.0 0
267353.0 445611.0 0
271547.0 442188.0 0
274682.0 445813.0 0
271392.0 446390.0 0
278783.0 446432.0 0
281422.0 442163.0 0
288366.0 442290.0 0
285254.0 444200.0 0
287806.0 445371.0 0
291006.0 445213.0 0
293774.0 444910.0 0
295936.0 442656.0 0
298884.0 444747.0 0
302369.0 444117.0 0
305998.0 443588.0 0
308969.0 445114.0 0
311779.0 442781.0 0
316262.0 444021.0 0
320234.0 443496.0 0
322851.0 442044.0 0
324924.0 444474.0 0
329051.0 445360.0 0
332915.0 445299.0 0
336145.0 444241.0 0
335761.0 446723.0 0
339755.0 446030.0 0
343592.0 444889.0 0
350313.0 443111.0 0
346787.0 443704.0 0
350220.0 447033.0 0
353958.0 444621.0 0
356377.0 442370.0 0
360905.0 444400.0 0
357230.0 445200.0 0
364229.0 442897.0 0
365767.0 446689.0 0
369091.0 445536.0 0
372390.0 444269.0 0
374948.0 443161.0 0
379716.0 443357.0 0
377284.0 445723.0 0
384999.0 444538.0 0
382573.0 446329.0 0
389498.0 443076.0 0
387276.0 447413.0 0
389029.0 445188.0 0
393479.0 444937.0 0
391935.0 446937.0 0
396406.0 445271.0 0
398702.0 444345.0 0
400531.0 445882.0 0
402736.0 445555.0 0
406182.0 444672.0 0
408742.0 445573.0 0
410799.0 446555.0 0
412786.0 447330.0 0
81759.9 450550.0 0
88465.2 448207.0 0
85216.3 450225.0 0
91523.4 449119.0 0
89445.5 451879.0 0
92083.9 451933.0 0
97183.9 449480.0 0
94531.9 451762.0 0
101117.0 449290.0 0
99242.2 452266.0 0
103224.0 452237.0 0
107326.0 448258.0 0
104092.0 448478.0 0
107187.0 450859.0 0
113565.0 448291.0 0
110663.0 450247.0 0
112476.0 452161.0 0
114207.0 450625.0 0
117731.0 450739.0 0
123605.0 449797.0 0
120694.0 452479.0 0
126299.0 447928.0 0
123739.0 452993.0 0
127376.0 451082.0 0
133461.0 449490.0 0
130359.0 450276.0 0
132752.0 452466.0 0
136700.0 449657.0 0
144046.0 449173.0 0
140488.0 449268.0 0
146818.0 447664.0 0
144878.0 452510.0 0
147372.0 450500.0 0
150427.0 448234.0 0
153729.0 448626.0 0
150116.0 451405.0 0
158003.0 448290.0 0
156155.0 450888.0 0
163068.0 448621.0 0
160146.0 449686.0 0
163608.0 451938.0 0
166594.0 448078.0 0
168229.0 451831.0 0
169982.0 447388.0 0
172343.0 450337.0 0
176683.0 449664.0 0
184431.0 447483.0 0
180726.0 448449.0 0
183380.0 450717.0 0
187837.0 447378.0 0
186887.0 450872.0 0
189995.0 451677.0 0
191519.0 448401.0 0
193870.0 451849.0 0
196209.0 448099.0 0
198584.0 451772.0 0
203097.0 450406.0 0
204756.0 447039.0 0
207190.0 449444.0 0
211082.0 447474.0 0
213867.0 449173.0 0
217684.0 449093.0 0
220671.0 451097.0 0
221484.0 447198.0 0
224108.0 449916.0 0
228206.0 448173.0 0
231424.0 450797.0 0
235258.0 448504.0 0
238786.0 447973.0 0
241902.0 448775.0 0
246127.0 449509.0 0
250279.0 448183.0 0
256072.0 448658.0 0
259001.0 450712.0 0
262698.0 447058.0 0
263097.0 451310.0 0
266627.0 450234.0 0
270296.0 449508.0 0
273131.0 449032.0 0
273115.0 451654.0 0
276119.0 449883.0 0
282959.0 447014.0 0
280588.0 450987.0 0
285640.0 451405.0 0
286124.0 447471.0 0
289060.0 448233.0 0
289812.0 451325.0 0
293243.0 449018.0 0
296528.0 447122.0 0
297340.0 451384.0 0
300969.0 448859.0 0
304386.0 451795.0 0
305516.0 447825.0 0
309211.0 448854.0 0
312971.0 446978.0 0
312143.0 451542.0 0
315496.0 450740.0 0
317470.0 447973.0 0
321291.0 447318.0 0
322459.0 452186.0 0
325655.0 449193.0 0
329983.0 448847.0 0
333547.0 448935.0 0
337665.0 448918.0 0
340156.0 451986.0 0
342774.0 449232.0 0
346416.0 447440.0 0
347269.0 450561.0 0
349679.0 450177.0 0
351943.0 451968.0 0
354199.0 448437.0 0
358471.0 448718.0 0
362593.0 448218.0 0
364039.0 451971.0 0
367205.0 449878.0 0
370756.0 448837.0 0
369377.0 452635.0 0
374305.0 447974.0 0
372177.0 451825.0 0
373482.0 451585.0 0
380062.0 448645.0 0
377165.0 451428.0 0
385206.0 449906.0 0
382472.0 452106.0 0
389930.0 449059.0 0
388103.0 452161.0 0
394310.0 449541.0 0
391991.0 452122.0 0
396862.0 448390.0 0
399773.0 448059.0 0
399028.0 451764.0 0
402161.0 449982.0 0
404812.0 448345.0 0
407461.0 449686.0 0
409986.0 448840.0 0
410449.0 452455.0 0
411804.0 450340.0 0
414356.0 449621.0 0
414415.0 452848.0 0
416813.0 450358.0 0
418935.0 452108.0 0
76517.2 455328.0 0
73285.0 457278.0 0
77282.0 458127.0 0
79917.1 453640.0 0
80792.5 456737.0 0
83457.2 453569.0 0
87225.6 453085.0 0
84623.8 457587.0 0
87916.5 456251.0 0
91273.7 455075.0 0
89143.6 458523.0 0
95553.1 453800.0 0
94095.7 457105.0 0
98545.0 455525.0 0
102724.0 456432.0 0
106307.0 454106.0 0
106335.0 457337.0 0
108983.0 452907.0 0
109867.0 456537.0 0
113429.0 455236.0 0
116645.0 453826.0 0
118256.0 456731.0 0
120441.0 454769.0 0
123646.0 456460.0 0
127104.0 453812.0 0
129812.0 452726.0 0
130763.0 455571.0 0
136457.0 453579.0 0
134364.0 457508.0 0
138826.0 456196.0 0
140882.0 452885.0 0
140753.0 455780.0 0
144057.0 456156.0 0
148068.0 454110.0 0
150785.0 456158.0 0
152920.0 453087.0 0
159604.0 453186.0 0
155654.0 454908.0 0
162002.0 455883.0 0
164735.0 455140.0 0
169620.0 456624.0 0
174121.0 454213.0 0
179469.0 453292.0 0
183867.0 454192.0 0
187248.0 454434.0 0
190776.0 454894.0 0
195118.0 456409.0 0
199166.0 455836.0 0
201715.0 454091.0 0
205704.0 454275.0 0
210622.0 452557.0 0
214806.0 452513.0 0
213434.0 456748.0 0
218036.0 455030.0 0
222984.0 454351.0 0
227371.0 452713.0 0
230835.0 455634.0 0
234526.0 452732.0 0
235385.0 456301.0 0
238619.0 452514.0 0
242713.0 452397.0 0
242277.0 455616.0 0
246202.0 454590.0 0
249397.0 452374.0 0
253693.0 452039.0 0
257396.0 454858.0 0
261236.0 455276.0 0
266338.0 455086.0 0
269948.0 452835.0 0
272532.0 454973.0 0
276397.0 454427.0 0
280395.0 455658.0 0
283213.0 454562.0 0
285813.0 456173.0 0
289056.0 454706.0 0
293504.0 453869.0 0
297938.0 455637.0 0
301533.0 453532.0 0
307850.0 452232.0 0
305658.0 455809.0 0
311414.0 456102.0 0
319045.0 451737.0 0
315716.0 454077.0 0
319653.0 455390.0 0
323088.0 456103.0 0
329285.0 452298.0 0
326042.0 453747.0 0
326772.0 457197.0 0
329935.0 456326.0 0
332601.0 452716.0 0
333484.0 455622.0 0
336453.0 452659.0 0
336921.0 456081.0 0
341066.0 456098.0 0
345028.0 453256.0 0
349291.0 453859.0 0
348811.0 456493.0 0
352466.0 456541.0 0
354974.0 453694.0 0
357853.0 452484.0 0
360830.0 451810.0 0
359459.0 454823.0 0
362456.0 455559.0 0
365534.0 456848.0 0
366929.0 454195.0 0
368646.0 457099.0 0
375024.0 454191.0 0
371891.0 455526.0 0
377170.0 456980.0 0
379547.0 455061.0 0
384077.0 455768.0 0
387025.0 454668.0 0
390990.0 455266.0 0
389253.0 456316.0 0
394679.0 455294.0 0
392969.0 457530.0 0
396575.0 453165.0 0
401372.0 454148.0 0
397011.0 457147.0 0
399118.0 456162.0 0
404427.0 453230.0 0
405097.0 456440.0 0
407841.0 452890.0 0
408133.0 455237.0 0
410251.0 457386.0 0
412298.0 454547.0 0
416882.0 455952.0 0
414641.0 456574.0 0
416823.0 453586.0 0
421414.0 453728.0 0
420190.0 456184.0 0
424374.0 455228.0 0
422810.0 457432.0 0
426740.0 457143.0 0
67695.9 461112.0 0
64380.8 462815.0 0
70299.8 458430.0 0
70940.2 461378.0 0
74472.5 460738.0 0
77581.8 461900.0 0
79605.9 459351.0 0
83786.6 461811.0 0
88262.8 460861.0 0
91233.4 459824.0 0
92821.2 463167.0 0
96133.9 460325.0 0
98823.6 458297.0 0
101460.0 459731.0 0
98974.3 462782.0 0
103710.0 461418.0 0
106372.0 460302.0 0
108385.0 462452.0 0
110933.0 459810.0 0
114861.0 458581.0 0
113874.0 462540.0 0
117774.0 461260.0 0
121101.0 459033.0 0
127523.0 458822.0 0
124300.0 461622.0 0
128500.0 462677.0 0
131592.0 460269.0 0
131728.0 462946.0 0
138336.0 459038.0 0
135514.0 462252.0 0
141353.0 458273.0 0
140289.0 462235.0 0
147336.0 457353.0 0
144536.0 460697.0 0
153779.0 457922.0 0
149712.0 460335.0 0
158168.0 457643.0 0
154610.0 461789.0 0
158864.0 461245.0 0
162394.0 459132.0 0
165620.0 457830.0 0
165952.0 460982.0 0
170274.0 461925.0 0
173363.0 459021.0 0
176887.0 458244.0 0
180799.0 457475.0 0
179834.0 461799.0 0
184329.0 458389.0 0
188185.0 457568.0 0
187420.0 461596.0 0
191176.0 459278.0 0
194698.0 461825.0 0
198292.0 459304.0 0
201583.0 457165.0 0
201120.0 460274.0 0
204713.0 459058.0 0
209284.0 457655.0 0
207675.0 461897.0 0
211811.0 461119.0 0
216385.0 460730.0 0
221203.0 458772.0 0
225999.0 457280.0 0
228726.0 459908.0 0
232813.0 460419.0 0
236737.0 459535.0 0
239177.0 457086.0 0
242200.0 458185.0 0
240747.0 461865.0 0
245467.0 459258.0 0
250391.0 457021.0 0
254556.0 456986.0 0
253675.0 461019.0 0
258239.0 459577.0 0
263827.0 460391.0 0
268174.0 459204.0 0
270336.0 457103.0 0
270780.0 460416.0 0
274198.0 459115.0 0
278378.0 459108.0 0
282719.0 459054.0 0
286610.0 460779.0 0
288602.0 458012.0 0
290133.0 461593.0 0
291760.0 458030.0 0
293828.0 461751.0 0
294977.0 458151.0 0
298010.0 460896.0 0
301808.0 457827.0 0
301930.0 461699.0 0
305397.0 460555.0 0
308724.0 459226.0 0
312560.0 461509.0 0
316663.0 458380.0 0
319733.0 461792.0 0
321080.0 459162.0 0
324905.0 459885.0 0
329226.0 460845.0 0
333724.0 459554.0 0
338845.0 460192.0 0
345562.0 457725.0 0
343364.0 461401.0 0
346998.0 461271.0 0
349684.0 459918.0 0
353895.0 460850.0 0
357004.0 457584.0 0
357738.0 462139.0 0
364954.0 459424.0 0
361196.0 459718.0 0
366057.0 462073.0 0
368647.0 460110.0 0
369967.0 462631.0 0
371753.0 459646.0 0
374461.0 458407.0 0
372728.0 462298.0 0
375892.0 461236.0 0
381182.0 458091.0 0
378835.0 460025.0 0
385578.0 459149.0 0
383029.0 460674.0 0
387864.0 458092.0 0
390703.0 459904.0 0
387929.0 462275.0 0
396008.0 459782.0 0
393655.0 462403.0 0
399192.0 461040.0 0
401724.0 458213.0 0
403725.0 460841.0 0
406982.0 459016.0 0
408045.0 462838.0 0
411496.0 461125.0 0
413882.0 458771.0 0
414436.0 462825.0 0
416621.0 460503.0 0
418760.0 458821.0 0
419414.0 463054.0 0
422239.0 460971.0 0
425091.0 459577.0 0
426144.0 462738.0 0
429489.0 458836.0 0
427256.0 461023.0 0
428810.0 463001.0 0
431950.0 461088.0 0
435125.0 461883.0 0
56190.8 468061.0 0
58756.1 465819.0 0
61331.7 464044.0 0
61707.8 467830.0 0
64954.8 465815.0 0
66930.3 468086.0 0
68127.8 464071.0 0
70792.0 463873.0 0
69374.5 465762.0 0
71614.8 467071.0 0
73771.4 464479.0 0
76306.9 466152.0 0
80125.0 464741.0 0
83449.3 467751.0 0
86637.8 465779.0 0
89569.8 463755.0 0
92251.6 467022.0 0
95983.7 464710.0 0
95369.9 467524.0 0
98103.0 466509.0 0
101649.0 464828.0 0
104751.0 464220.0 0
107199.0 466255.0 0
110957.0 463939.0 0
110950.0 466803.0 0
118061.0 464437.0 0
115273.0 466780.0 0
121298.0 462569.0 0
121012.0 465510.0 0
125280.0 465250.0 0
129927.0 466529.0 0
134396.0 465917.0 0
138436.0 465549.0 0
142464.0 465210.0 0
144597.0 467785.0 0
146711.0 464291.0 0
150988.0 464776.0 0
154799.0 466397.0 0
157861.0 464307.0 0
162094.0 463498.0 0
163904.0 467131.0 0
166132.0 464325.0 0
169272.0 466690.0 0
172619.0 465122.0 0
175163.0 462863.0 0
177758.0 465879.0 0
183508.0 462514.0 0
181494.0 465521.0 0
184949.0 465168.0 0
188175.0 465337.0 0
191034.0 463080.0 0
192528.0 466206.0 0
198502.0 463111.0 0
196035.0 465466.0 0
202734.0 464087.0 0
206616.0 466148.0 0
210104.0 464596.0 0
213287.0 465132.0 0
217185.0 465810.0 0
224511.0 461910.0 0
220152.0 462556.0 0
221261.0 466014.0 0
225645.0 466602.0 0
229067.0 463710.0 0
233085.0 465910.0 0
236218.0 462645.0 0
237901.0 466696.0 0
241865.0 466618.0 0
245101.0 464415.0 0
249280.0 462253.0 0
252779.0 465752.0 0
256924.0 464461.0 0
260713.0 463852.0 0
264687.0 466467.0 0
268244.0 463090.0 0
272700.0 463824.0 0
277193.0 463178.0 0
280897.0 462488.0 0
281068.0 466982.0 0
284434.0 464087.0 0
288264.0 464730.0 0
291511.0 464494.0 0
295628.0 466411.0 0
300337.0 465135.0 0
304253.0 464648.0 0
306940.0 464057.0 0
308969.0 462917.0 0
307953.0 467009.0 0
311038.0 465446.0 0
314880.0 466520.0 0
316528.0 462658.0 0
318551.0 464597.0 0
322958.0 462492.0 0
321197.0 464472.0 0
323931.0 466182.0 0
326431.0 464003.0 0
330259.0 465273.0 0
332984.0 463678.0 0
336305.0 463141.0 0
340065.0 464956.0 0
344195.0 466271.0 0
347258.0 463888.0 0
350407.0 463729.0 0
348026.0 467130.0 0
350964.0 466804.0 0
354190.0 464952.0 0
358151.0 466165.0 0
362775.0 464457.0 0
367618.0 463852.0 0
369820.0 465253.0 0
367047.0 466758.0 0
373404.0 465598.0 0
380725.0 463317.0 0
377203.0 464784.0 0
384967.0 463729.0 0
384009.0 467644.0 0
390585.0 463959.0 0
388619.0 466129.0 0
392505.0 465486.0 0
396965.0 464459.0 0
400670.0 463768.0 0
400149.0 466438.0 0
403389.0 463771.0 0
402433.0 466603.0 0
405769.0 466488.0 0
408909.0 467877.0 0
410328.0 465472.0 0
413051.0 465612.0 0
415709.0 467264.0 0
417426.0 465057.0 0
421474.0 465541.0 0
419834.0 467470.0 0
424166.0 464471.0 0
425474.0 467989.0 0
428709.0 465997.0 0
432415.0 464422.0 0
434652.0 466904.0 0
437206.0 463711.0 0
441163.0 465869.0 0
438805.0 466490.0 0
443743.0 467308.0 0
47504.6 473358.0 0
50308.4 471339.0 0
53170.7 469614.0 0
54787.7 472694.0 0
58439.6 470523.0 0
61032.9 472281.0 0
64336.9 471158.0 0
69547.5 469651.0 0
71713.0 470963.0 0
67950.9 472514.0 0
73382.9 468679.0 0
76521.6 469496.0 0
73947.0 471376.0 0
77606.7 472859.0 0
80258.5 468895.0 0
80349.7 471832.0 0
83400.8 470318.0 0
86130.7 470250.0 0
89413.7 468632.0 0
89517.5 472167.0 0
92786.4 470495.0 0
92759.3 473022.0 0
96237.8 470263.0 0
100071.0 468314.0 0
99950.6 471572.0 0
103163.0 472297.0 0
103847.0 468349.0 0
106322.0 470562.0 0
108562.0 469089.0 0
111882.0 470105.0 0
115373.0 470776.0 0
113386.0 472409.0 0
118092.0 471963.0 0
119081.0 468617.0 0
120903.0 470982.0 0
120794.0 473298.0 0
123199.0 469018.0 0
127340.0 470454.0 0
130805.0 472294.0 0
132632.0 469689.0 0
134475.0 472520.0 0
136606.0 468988.0 0
140500.0 468590.0 0
143801.0 471775.0 0
147922.0 468139.0 0
148011.0 470776.0 0
151289.0 468724.0 0
150865.0 472201.0 0
154795.0 470137.0 0
157575.0 470339.0 0
159189.0 467722.0 0
161750.0 471662.0 0
166604.0 470320.0 0
173986.0 467836.0 0
171129.0 469886.0 0
176986.0 470060.0 0
179973.0 468621.0 0
179964.0 471350.0 0
184200.0 469744.0 0
188986.0 468550.0 0
188117.0 472179.0 0
191884.0 470596.0 0
195586.0 468963.0 0
198466.0 470661.0 0
199064.0 467178.0 0
203127.0 470093.0 0
209617.0 469045.0 0
214306.0 469566.0 0
218800.0 470628.0 0
222917.0 469729.0 0
226221.0 471405.0 0
229091.0 468479.0 0
231770.0 469953.0 0
235125.0 471493.0 0
240125.0 471017.0 0
244510.0 469622.0 0
248663.0 467646.0 0
252093.0 470806.0 0
255916.0 468883.0 0
259092.0 471861.0 0
260364.0 467777.0 0
263661.0 471877.0 0
267313.0 470444.0 0
269309.0 467017.0 0
272363.0 467521.0 0
271656.0 471797.0 0
276057.0 467923.0 0
279555.0 470686.0 0
282865.0 471681.0 0
286132.0 468652.0 0
290702.0 467798.0 0
293752.0 470915.0 0
297585.0 471973.0 0
299956.0 468911.0 0
303937.0 468604.0 0
307553.0 471599.0 0
311509.0 469402.0 0
315857.0 471763.0 0
319870.0 468560.0 0
322678.0 472136.0 0
324349.0 469628.0 0
327536.0 468399.0 0
330245.0 471895.0 0
331455.0 468751.0 0
334106.0 472432.0 0
335952.0 467809.0 0
341185.0 469473.0 0
345592.0 470159.0 0
350023.0 470666.0 0
354027.0 469077.0 0
357599.0 470294.0 0
360653.0 471554.0 0
364275.0 468475.0 0
361233.0 468869.0 0
363808.0 471562.0 0
367955.0 470958.0 0
371254.0 468328.0 0
375522.0 468271.0 0
373237.0 471783.0 0
379570.0 467725.0 0
378156.0 471633.0 0
382574.0 471922.0 0
391014.0 468724.0 0
387638.0 469444.0 0
386743.0 472895.0 0
390667.0 472708.0 0
395791.0 468405.0 0
394593.0 472233.0 0
399924.0 470572.0 0
403454.0 469426.0 0
407218.0 470380.0 0
410599.0 472287.0 0
411749.0 468904.0 0
414268.0 469328.0 0
415792.0 471328.0 0
418116.0 469289.0 0
418516.0 472521.0 0
420923.0 471417.0 0
422331.0 469040.0 0
424998.0 472260.0 0
431113.0 468941.0 0
428519.0 471290.0 0
436001.0 470106.0 0
433329.0 472153.0 0
439152.0 469914.0 0
441786.0 469748.0 0
441375.0 473187.0 0
446202.0 469446.0 0
444348.0 471847.0 0
448953.0 470585.0 0
451888.0 472660.0 0
41489.4 476450.0 0
44509.9 475293.0 0
46721.5 478150.0 0
48405.4 476055.0 0
51790.0 474162.0 0
50666.4 476706.0 0
54110.6 476200.0 0
57541.7 474358.0 0
56632.2 477577.0 0
60694.9 475347.0 0
59496.5 478920.0 0
64333.7 475214.0 0
67656.7 476465.0 0
70872.4 474003.0 0
71693.5 477734.0 0
74384.8 474555.0 0
76174.9 477373.0 0
78994.0 475576.0 0
82717.3 473301.0 0
79656.2 478278.0 0
81829.1 476085.0 0
86092.2 473710.0 0
84461.5 477224.0 0
90327.6 474764.0 0
88023.5 476614.0 0
92895.4 476354.0 0
96028.3 473732.0 0
95722.3 477084.0 0
99676.8 475569.0 0
106384.0 473847.0 0
104001.0 476530.0 0
108019.0 476913.0 0
109516.0 472745.0 0
112175.0 475510.0 0
115292.0 473623.0 0
117520.0 475649.0 0
123229.0 472323.0 0
121779.0 477033.0 0
125141.0 474302.0 0
128454.0 474643.0 0
129932.0 477268.0 0
132009.0 475029.0 0
138532.0 472855.0 0
134951.0 475464.0 0
141326.0 475999.0 0
147420.0 473629.0 0
145040.0 476732.0 0
149724.0 476524.0 0
153855.0 474128.0 0
157498.0 472732.0 0
156616.0 475903.0 0
159951.0 475711.0 0
164984.0 475353.0 0
169452.0 472803.0 0
173508.0 472682.0 0
169726.0 476546.0 0
177648.0 473820.0 0
181773.0 474181.0 0
185742.0 475515.0 0
190499.0 474797.0 0
194974.0 473477.0 0
196313.0 476953.0 0
199159.0 474060.0 0
203004.0 475576.0 0
207260.0 473361.0 0
206094.0 477207.0 0
209389.0 476837.0 0
211582.0 473353.0 0
215519.0 473895.0 0
219148.0 475500.0 0
222559.0 473301.0 0
226002.0 475418.0 0
230139.0 473320.0 0
233830.0 476575.0 0
238197.0 475393.0 0
243004.0 474717.0 0
247724.0 473417.0 0
252039.0 475601.0 0
258295.0 475611.0 0
255376.0 473437.0 0
261216.0 475315.0 0
264213.0 476875.0 0
267488.0 474605.0 0
271112.0 476879.0 0
274441.0 475737.0 0
276428.0 472698.0 0
277098.0 476351.0 0
280132.0 474473.0 0
283819.0 476549.0 0
285931.0 473252.0 0
287921.0 476646.0 0
289957.0 472629.0 0
291099.0 476742.0 0
294429.0 475592.0 0
299045.0 476228.0 0
302303.0 472644.0 0
302703.0 476974.0 0
305543.0 474641.0 0
305601.0 477250.0 0
309046.0 476940.0 0
311895.0 473984.0 0
315114.0 475610.0 0
318443.0 476712.0 0
319675.0 473145.0 0
322602.0 475584.0 0
326682.0 473320.0 0
331529.0 477049.0 0
338585.0 472681.0 0
336400.0 475927.0 0
339922.0 476934.0 0
342896.0 473734.0 0
347715.0 474476.0 0
347144.0 478277.0 0
354032.0 474374.0 0
358568.0 473592.0 0
359116.0 476712.0 0
362021.0 474374.0 0
365806.0 474802.0 0
370126.0 475319.0 0
375022.0 476213.0 0
378817.0 475716.0 0
381303.0 475337.0 0
384083.0 475341.0 0
387313.0 477208.0 0
390858.0 476503.0 0
394404.0 475384.0 0
397329.0 473488.0 0
401314.0 474630.0 0
397786.0 476423.0 0
404992.0 473273.0 0
408626.0 475683.0 0
413873.0 473877.0 0
412612.0 477312.0 0
416866.0 475479.0 0
419888.0 475159.0 0
422258.0 474159.0 0
420505.0 477629.0 0
423386.0 476892.0 0
426493.0 475743.0 0
430700.0 474967.0 0
437560.0 474217.0 0
434699.0 477206.0 0
442613.0 475663.0 0
440154.0 477441.0 0
446000.0 474627.0 0
445627.0 478246.0 0
448952.0 473806.0 0
450851.0 476469.0 0
448970.0 478098.0 0
454438.0 474991.0 0
457672.0 476622.0 0
460660.0 477568.0 0
29945.3 483652.0 0
33294.2 482274.0 0
35366.8 479856.0 0
38646.0 478887.0 0
37486.4 481870.0 0
41366.7 479865.0 0
41200.0 483199.0 0
44066.2 479260.0 0
44781.0 482480.0 0
49664.3 479150.0 0
47716.5 481234.0 0
51504.6 480808.0 0
52670.7 478280.0 0
55033.0 480858.0 0
58651.3 482213.0 0
62725.2 479065.0 0
65732.2 479500.0 0
62382.9 483000.0 0
66236.0 482647.0 0
69192.7 480342.0 0
71235.7 482769.0 0
73697.8 479840.0 0
77505.2 480178.0 0
75184.5 483178.0 0
82197.7 479623.0 0
79974.0 482364.0 0
86315.9 479218.0 0
84577.7 481555.0 0
90452.9 478894.0 0
88755.7 482387.0 0
97315.8 478977.0 0
93947.5 480447.0 0
97327.2 482634.0 0
100895.0 480086.0 0
105505.0 481347.0 0
110623.0 480260.0 0
114854.0 478352.0 0
114217.0 482263.0 0
118028.0 480505.0 0
122593.0 482101.0 0
126246.0 478014.0 0
126688.0 480795.0 0
133104.0 478063.0 0
130006.0 480525.0 0
137339.0 477873.0 0
134320.0 481221.0 0
138404.0 481993.0 0
141499.0 479553.0 0
143977.0 479805.0 0
146702.0 480099.0 0
153543.0 477783.0 0
150318.0 480235.0 0
153530.0 481860.0 0
157220.0 479068.0 0
158608.0 482461.0 0
161672.0 479135.0 0
166085.0 479936.0 0
170180.0 480608.0 0
174531.0 477777.0 0
177796.0 481372.0 0
179453.0 477554.0 0
182748.0 477659.0 0
181446.0 480708.0 0
184851.0 479956.0 0
188678.0 478853.0 0
191152.0 482312.0 0
192875.0 477959.0 0
195526.0 481043.0 0
199622.0 478680.0 0
203604.0 480653.0 0
207122.0 479875.0 0
210383.0 480999.0 0
213029.0 477181.0 0
214755.0 481275.0 0
216593.0 477726.0 0
219840.0 481182.0 0
222549.0 477172.0 0
225108.0 479851.0 0
229291.0 478141.0 0
232528.0 481407.0 0
236973.0 480258.0 0
240360.0 477690.0 0
243496.0 478594.0 0
240827.0 480868.0 0
247971.0 479455.0 0
252785.0 480061.0 0
255937.0 477779.0 0
260121.0 479195.0 0
264036.0 481768.0 0
267701.0 479261.0 0
271216.0 481197.0 0
275163.0 479730.0 0
279634.0 478714.0 0
282893.0 480795.0 0
286906.0 480319.0 0
291879.0 480366.0 0
296821.0 479761.0 0
301648.0 481114.0 0
305718.0 480163.0 0
309537.0 481585.0 0
314113.0 479992.0 0
318733.0 480915.0 0
322040.0 479912.0 0
326187.0 478394.0 0
328731.0 481819.0 0
333217.0 482669.0 0
336671.0 479815.0 0
340576.0 481002.0 0
343957.0 478344.0 0
344108.0 482291.0 0
350798.0 478103.0 0
348104.0 481892.0 0
351997.0 481995.0 0
353853.0 479665.0 0
356576.0 478658.0 0
359887.0 480427.0 0
363297.0 477955.0 0
364387.0 481923.0 0
367421.0 478066.0 0
368202.0 481138.0 0
371824.0 479217.0 0
371049.0 482690.0 0
375763.0 479758.0 0
374427.0 482444.0 0
379259.0 478598.0 0
378624.0 482283.0 0
382956.0 478340.0 0
382343.0 482170.0 0
386136.0 480979.0 0
390849.0 480907.0 0
394500.0 478885.0 0
394666.0 483303.0 0
400668.0 478742.0 0
397977.0 480969.0 0
404900.0 478599.0 0
402429.0 482920.0 0
406948.0 482858.0 0
409732.0 479793.0 0
410831.0 483197.0 0
412539.0 480246.0 0
416445.0 479068.0 0
414477.0 482690.0 0
420620.0 481600.0 0
424079.0 479957.0 0
427110.0 478965.0 0
425659.0 482457.0 0
430112.0 478628.0 0
428975.0 482582.0 0
433689.0 481935.0 0
438418.0 480271.0 0
442611.0 479252.0 0
441912.0 482914.0 0
446479.0 482393.0 0
450291.0 481015.0 0
453626.0 479019.0 0
457631.0 479397.0 0
455248.0 482361.0 0
462868.0 480185.0 0
459778.0 482524.0 0
466099.0 482030.0 0
469559.0 483943.0 0
27181.3 486992.0 0
31412.7 486059.0 0
31341.3 488859.0 0
34626.3 485075.0 0
35166.3 488345.0 0
38121.5 484733.0 0
42042.2 486397.0 0
38933.2 487381.0 0
45905.8 485926.0 0
50027.9 484109.0 0
53971.1 484372.0 0
55207.4 488309.0 0
57777.2 485316.0 0
60544.1 486872.0 0
64198.4 486504.0 0
68099.2 485542.0 0
72080.6 486395.0 0
75242.5 486901.0 0
82660.1 484210.0 0
78396.3 485431.0 0
81355.4 487178.0 0
85674.4 485381.0 0
92640.8 484239.0 0
88793.2 486856.0 0
96681.8 486686.0 0
101015.0 483905.0 0
100936.0 487001.0 0
104227.0 485585.0 0
105899.0 487799.0 0
109561.0 485373.0 0
114249.0 485357.0 0
118186.0 485123.0 0
122300.0 486861.0 0
126500.0 484117.0 0
131321.0 483854.0 0
129007.0 486208.0 0
135117.0 485119.0 0
143235.0 483506.0 0
138991.0 485636.0 0
148342.0 483437.0 0
145928.0 487641.0 0
151343.0 486259.0 0
155898.0 484629.0 0
159470.0 486669.0 0
162764.0 483275.0 0
163594.0 486841.0 0
167483.0 484481.0 0
173449.0 483638.0 0
178348.0 484998.0 0
183166.0 484840.0 0
187180.0 482712.0 0
188869.0 487441.0 0
194393.0 485582.0 0
199465.0 483642.0 0
203932.0 484741.0 0
201627.0 487227.0 0
207020.0 483095.0 0
207408.0 486824.0 0
211703.0 485417.0 0
216347.0 485255.0 0
220023.0 487246.0 0
223975.0 484138.0 0
228203.0 482564.0 0
227307.0 486061.0 0
230978.0 485663.0 0
235517.0 485247.0 0
239855.0 484838.0 0
243982.0 483066.0 0
247512.0 485472.0 0
251613.0 484209.0 0
256421.0 482806.0 0
258591.0 486679.0 0
260359.0 483497.0 0
262840.0 486897.0 0
268231.0 484778.0 0
273737.0 484363.0 0
278886.0 483627.0 0
284493.0 485263.0 0
289086.0 483679.0 0
292478.0 485598.0 0
295215.0 483353.0 0
298951.0 484372.0 0
302966.0 485991.0 0
305754.0 483720.0 0
309110.0 484750.0 0
312988.0 485743.0 0
317702.0 484611.0 0
321302.0 483493.0 0
324865.0 483184.0 0
328714.0 486712.0 0
333803.0 486856.0 0
337928.0 484603.0 0
342018.0 484669.0 0
346298.0 486589.0 0
356108.0 483326.0 0
351376.0 485539.0 0
354741.0 487703.0 0
360862.0 483607.0 0
359497.0 487139.0 0
364054.0 486198.0 0
367902.0 484889.0 0
372297.0 486329.0 0
377147.0 485957.0 0
381426.0 485880.0 0
384958.0 485156.0 0
388578.0 484176.0 0
388430.0 487707.0 0
392259.0 486131.0 0
395763.0 486862.0 0
398818.0 485208.0 0
405163.0 485840.0 0
402320.0 487327.0 0
409012.0 486384.0 0
413017.0 486769.0 0
417111.0 486732.0 0
417812.0 483637.0 0
420868.0 485824.0 0
424161.0 484887.0 0
428243.0 486630.0 0
432693.0 486740.0 0
435961.0 487807.0 0
437642.0 484755.0 0
440629.0 487114.0 0
445218.0 487481.0 0
449066.0 485416.0 0
452073.0 484070.0 0
450200.0 488407.0 0
456741.0 485889.0 0
453603.0 487408.0 0
461942.0 486105.0 0
458932.0 488728.0 0
464979.0 484723.0 0
468008.0 486676.0 0
470684.0 487800.0 0
472686.0 485646.0 0
472251.0 488811.0 0
475669.0 488382.0 0
16129.4 492315.0 0
19259.5 490412.0 0
21575.9 492513.0 0
23157.5 489120.0 0
24196.2 493386.0 0
27828.7 492013.0 0
32252.1 491563.0 0
35392.0 491746.0 0
39310.2 490952.0 0
42839.4 489807.0 0
46256.8 489508.0 0
44238.9 493183.0 0
50426.0 488354.0 0
48077.3 491970.0 0
52894.0 492338.0 0
57143.0 493354.0 0
58568.4 490285.0 0
62661.6 490126.0 0
66275.5 489432.0 0
65302.3 493049.0 0
69768.7 488872.0 0
68914.0 491930.0 0
73161.3 490449.0 0
77741.5 489749.0 0
81837.8 490057.0 0
80137.8 492994.0 0
84686.8 488239.0 0
84176.9 491770.0 0
87668.6 490372.0 0
92231.1 488698.0 0
91018.9 493019.0 0
95012.0 490814.0 0
95327.7 493180.0 0
97774.8 493145.0 0
103052.0 489877.0 0
98616.3 490437.0 0
100586.0 493232.0 0
103963.0 493318.0 0
108799.0 491144.0 0
113721.0 488772.0 0
114208.0 493030.0 0
118273.0 489601.0 0
122585.0 491100.0 0
126140.0 488565.0 0
127566.0 492658.0 0
131537.0 488530.0 0
132969.0 492690.0 0
136679.0 489046.0 0
136818.0 492674.0 0
141254.0 488088.0 0
139366.0 491019.0 0
142813.0 491443.0 0
146865.0 492039.0 0
150408.0 492171.0 0
149489.0 489537.0 0
152741.0 490281.0 0
155219.0 487876.0 0
156882.0 491275.0 0
161711.0 490425.0 0
166225.0 489219.0 0
168764.0 491312.0 0
170456.0 487929.0 0
172170.0 491441.0 0
175196.0 488233.0 0
176611.0 492638.0 0
179667.0 488758.0 0
180709.0 492336.0 0
183888.0 489927.0 0
186758.0 492286.0 0
189974.0 492434.0 0
193948.0 490570.0 0
198016.0 488081.0 0
198088.0 491830.0 0
201469.0 490750.0 0
204390.0 488629.0 0
210311.0 490281.0 0
214646.0 488957.0 0
217572.0 491231.0 0
224558.0 488629.0 0
221394.0 492122.0 0
228797.0 489289.0 0
233421.0 489611.0 0
238768.0 490098.0 0
243459.0 487735.0 0
246984.0 489431.0 0
250510.0 488647.0 0
254663.0 487549.0 0
252975.0 491831.0 0
258015.0 491298.0 0
262494.0 491168.0 0
266561.0 489942.0 0
272066.0 489587.0 0
276631.0 487599.0 0
277256.0 492289.0 0
280812.0 489034.0 0
285262.0 491200.0 0
288975.0 488442.0 0
293226.0 490640.0 0
296369.0 487567.0 0
298154.0 492215.0 0
299993.0 488244.0 0
303236.0 490764.0 0
307815.0 488428.0 0
312422.0 490318.0 0
315447.0 492242.0 0
317067.0 488883.0 0
317923.0 492265.0 0
320703.0 491802.0 0
322659.0 487777.0 0
327126.0 491896.0 0
332365.0 490284.0 0
337093.0 489002.0 0
340462.0 492520.0 0
341525.0 488461.0 0
345792.0 491919.0 0
350264.0 489334.0 0
353482.0 490622.0 0
357591.0 490532.0 0
363409.0 491049.0 0
367743.0 488723.0 0
371612.0 490397.0 0
376324.0 490330.0 0
380490.0 489449.0 0
384650.0 489147.0 0
382570.0 491949.0 0
391785.0 489607.0 0
388732.0 491287.0 0
395599.0 490520.0 0
392908.0 493451.0 0
399157.0 488999.0 0
398878.0 492791.0 0
402200.0 491178.0 0
406423.0 489646.0 0
411219.0 490060.0 0
415876.0 490394.0 0
416541.0 493195.0 0
420402.0 489350.0 0
419480.0 492964.0 0
423993.0 488524.0 0
427449.0 490479.0 0
423918.0 492801.0 0
431477.0 490272.0 0
435452.0 491282.0 0
438632.0 489480.0 0
441496.0 490116.0 0
439369.0 493151.0 0
443937.0 492393.0 0
452442.0 491495.0 0
448351.0 491360.0 0
455755.0 490699.0 0
457575.0 493631.0 0
461365.0 492213.0 0
465063.0 489709.0 0
469195.0 490679.0 0
472058.0 491041.0 0
468951.0 493976.0 0
475458.0 492800.0 0
479610.0 490482.0 0
482931.0 491189.0 0
485374.0 493133.0 0
5875.98 497902.0 0
10178.7 497651.0 0
13414.9 494607.0 0
16240.1 496044.0 0
14728.3 498720.0 0
18598.3 494063.0 0
21527.9 497059.0 0
17728.0 497980.0 0
25839.3 496044.0 0
28627.7 496414.0 0
31641.6 494529.0 0
35176.5 494674.0 0
32140.8 497591.0 0
35786.7 497966.0 0
39517.8 494825.0 0
39577.3 498527.0 0
43466.2 496952.0 0
48694.9 495978.0 0
54345.0 496073.0 0
57968.7 495857.0 0
61210.7 493970.0 0
60752.7 498492.0 0
64667.3 496394.0 0
68293.0 495358.0 0
71735.2 494135.0 0
67848.9 498606.0 0
72139.1 497569.0 0
75803.4 494234.0 0
76290.1 497679.0 0
79759.7 496587.0 0
83288.1 494881.0 0
86733.3 494433.0 0
88374.1 497862.0 0
93313.0 497078.0 0
97892.3 495579.0 0
101659.0 496843.0 0
106675.0 496167.0 0
111070.0 495597.0 0
114872.0 498120.0 0
118543.0 494434.0 0
122961.0 495348.0 0
126747.0 496831.0 0
130794.0 496625.0 0
135374.0 496336.0 0
139383.0 494657.0 0
144067.0 496255.0 0
149335.0 495328.0 0
153153.0 493635.0 0
152769.0 497476.0 0
155929.0 495287.0 0
159727.0 494564.0 0
164976.0 493939.0 0
169338.0 494840.0 0
173151.0 494708.0 0
175202.0 497630.0 0
179478.0 496399.0 0
183677.0 494651.0 0
187827.0 496862.0 0
192827.0 495358.0 0
196480.0 494349.0 0
200744.0 495348.0 0
205489.0 492700.0 0
209812.0 495014.0 0
214193.0 493301.0 0
218248.0 495883.0 0
222923.0 496808.0 0
225918.0 493005.0 0
227488.0 497060.0 0
230473.0 493423.0 0
235179.0 494168.0 0
239958.0 495922.0 0
244133.0 492785.0 0
248979.0 492453.0 0
247514.0 496912.0 0
251224.0 495180.0 0
254934.0 495703.0 0
261042.0 494780.0 0
264667.0 493939.0 0
268949.0 494074.0 0
266206.0 497339.0 0
273626.0 495485.0 0
278230.0 497311.0 0
281757.0 494382.0 0
286212.0 495882.0 0
289506.0 493167.0 0
289830.0 496889.0 0
293803.0 495614.0 0
297909.0 496836.0 0
302494.0 495855.0 0
308286.0 494305.0 0
313138.0 494351.0 0
317908.0 496618.0 0
323184.0 494813.0 0
332015.0 494876.0 0
336188.0 492861.0 0
342885.0 496116.0 0
350766.0 493389.0 0
347891.0 497905.0 0
355349.0 493785.0 0
353298.0 497312.0 0
359149.0 493492.0 0
358319.0 497584.0 0
362229.0 495361.0 0
366356.0 496031.0 0
368777.0 493178.0 0
371315.0 497979.0 0
373978.0 494107.0 0
376155.0 497641.0 0
379660.0 494481.0 0
385283.0 493979.0 0
388551.0 498268.0 0
389496.0 495065.0 0
392718.0 497406.0 0
396622.0 495866.0 0
401766.0 496207.0 0
405271.0 494030.0 0
406957.0 498270.0 0
409232.0 493843.0 0
412070.0 497213.0 0
413806.0 493433.0 0
417424.0 496704.0 0
422223.0 496757.0 0
425772.0 496292.0 0
428863.0 494100.0 0
428682.0 497537.0 0
432400.0 497556.0 0
432910.0 493812.0 0
436122.0 495671.0 0
439580.0 497074.0 0
447194.0 495391.0 0
442838.0 496218.0 0
451321.0 494920.0 0
450407.0 498544.0 0
454612.0 494736.0 0
457413.0 497721.0 0
453811.0 498025.0 0
463255.0 496131.0 0
460602.0 495976.0 0
465752.0 494434.0 0
466268.0 498799.0 0
469729.0 497286.0 0
472052.0 494272.0 0
473517.0 497167.0 0
476726.0 496638.0 0
479621.0 494764.0 0
482939.0 494701.0 0
484212.0 498316.0 0
487843.0 495517.0 0
491252.0 496581.0 0
493600.0 498622.0 0
2503.34 500019.0 0
2397.0 503196.0 0
9167.51 501540.0 0
5661.09 500448.0 0
13338.5 501592.0 0
17832.9 501122.0 0
21835.5 501416.0 0
25447.2 499340.0 0
25511.1 503628.0 0
28984.7 500079.0 0
29953.0 503627.0 0
32922.5 500868.0 0
33764.7 503654.0 0
37403.8 501586.0 0
40783.2 503625.0 0
41822.6 500352.0 0
45934.1 499342.0 0
44624.0 502199.0 0
49146.2 501045.0 0
52010.5 498525.0 0
56434.5 498914.0 0
53627.1 501756.0 0
58072.7 502347.0 0
62179.1 502824.0 0
64504.7 499728.0 0
66217.8 502408.0 0
70273.2 501539.0 0
74895.1 500888.0 0
79354.0 500050.0 0
82612.3 502369.0 0
83889.4 498501.0 0
86768.1 502560.0 0
90281.6 501008.0 0
97453.5 499293.0 0
93694.6 501453.0 0
100632.0 500951.0 0
104746.0 500319.0 0
109934.0 499669.0 0
112856.0 502728.0 0
116980.0 502418.0 0
119578.0 498607.0 0
121098.0 502468.0 0
123855.0 499668.0 0
128298.0 500557.0 0
133124.0 500211.0 0
138460.0 499438.0 0
143049.0 501353.0 0
148327.0 499608.0 0
152781.0 502540.0 0
157405.0 499089.0 0
162182.0 497971.0 0
161607.0 502004.0 0
166896.0 499979.0 0
171314.0 498010.0 0
172478.0 502087.0 0
177691.0 501250.0 0
182955.0 500142.0 0
187763.0 502306.0 0
192193.0 500173.0 0
196494.0 498009.0 0
200223.0 500390.0 0
205447.0 498711.0 0
209750.0 498685.0 0
210159.0 501934.0 0
213925.0 498331.0 0
218256.0 501182.0 0
221804.0 500429.0 0
225368.0 500693.0 0
228932.0 500258.0 0
231677.0 497584.0 0
232390.0 501983.0 0
235962.0 498795.0 0
239779.0 500695.0 0
243495.0 499269.0 0
247326.0 502500.0 0
251836.0 499311.0 0
258455.0 497938.0 0
255922.0 501841.0 0
262695.0 498156.0 0
260860.0 501883.0 0
265918.0 502008.0 0
270149.0 498980.0 0
274684.0 500494.0 0
278773.0 501415.0 0
283071.0 499743.0 0
288022.0 500227.0 0
291820.0 499603.0 0
295791.0 500715.0 0
300065.0 499757.0 0
304019.0 500764.0 0
305931.0 498080.0 0
308216.0 499766.0 0
312209.0 498351.0 0
315747.0 501423.0 0
322483.0 499503.0 0
327448.0 497923.0 0
329652.0 502038.0 0
332541.0 499792.0 0
335634.0 502282.0 0
337806.0 497766.0 0
343133.0 501212.0 0
351899.0 501708.0 0
356054.0 500840.0 0
360179.0 502955.0 0
363146.0 499424.0 0
365646.0 502992.0 0
367430.0 499645.0 0
376004.0 502270.0 0
379537.0 499163.0 0
383905.0 498397.0 0
381861.0 502982.0 0
387138.0 501737.0 0
391446.0 501022.0 0
395657.0 500393.0 0
399362.0 499714.0 0
403555.0 501293.0 0
410575.0 500889.0 0
415396.0 500978.0 0
420819.0 500969.0 0
425655.0 500034.0 0
429558.0 500002.0 0
436901.0 500151.0 0
432727.0 501140.0 0
441681.0 500408.0 0
445860.0 499210.0 0
448968.0 501282.0 0
452876.0 501455.0 0
455899.0 500758.0 0
456548.0 503609.0 0
461760.0 499104.0 0
459324.0 501510.0 0
463562.0 502205.0 0
468242.0 502786.0 0
471723.0 500682.0 0
476505.0 499746.0 0
475136.0 503008.0 0
479093.0 502534.0 0
480233.0 498906.0 0
482405.0 501854.0 0
488888.0 499808.0 0
489461.0 503999.0 0
485542.0 502064.0 0
492755.0 502191.0 0
497330.0 500022.0 0
496825.0 503538.0 0
2015.98 506478.0 0
6225.03 504804.0 0
5284.24 508477.0 0
8677.55 508527.0 0
10859.8 505145.0 0
15726.1 504612.0 0
20656.5 505623.0 0
17053.3 509035.0 0
24198.0 508008.0 0
27596.2 506524.0 0
32041.2 507409.0 0
36291.2 509498.0 0
36896.6 505717.0 0
40242.9 507198.0 0
43888.5 505822.0 0
47354.8 504204.0 0
50821.0 504784.0 0
47324.6 507399.0 0
51079.0 508622.0 0
55143.4 505520.0 0
59163.1 505414.0 0
62230.5 506500.0 0
64796.0 504986.0 0
65457.5 507206.0 0
68306.7 505654.0 0
72890.7 505018.0 0
78341.9 504730.0 0
83353.2 506201.0 0
87063.6 506928.0 0
91300.6 505208.0 0
97031.8 504104.0 0
102194.0 504133.0 0
99205.2 508035.0 0
107476.0 504094.0 0
103687.0 507683.0 0
111732.0 506165.0 0
115631.0 506490.0 0
120723.0 506784.0 0
125197.0 503975.0 0
125709.0 508009.0 0
130232.0 504624.0 0
135707.0 503681.0 0
133875.0 507824.0 0
139645.0 503536.0 0
138885.0 507318.0 0
142106.0 505061.0 0
146774.0 504555.0 0
150725.0 507172.0 0
157645.0 503500.0 0
160674.0 506203.0 0
164769.0 504589.0 0
168728.0 505124.0 0
172449.0 506726.0 0
175566.0 504884.0 0
179807.0 505522.0 0
184216.0 504745.0 0
187372.0 506493.0 0
191676.0 505579.0 0
196166.0 502845.0 0
196460.0 507361.0 0
199941.0 505031.0 0
202998.0 503082.0 0
203007.0 506187.0 0
206586.0 504223.0 0
214103.0 503075.0 0
211122.0 506797.0 0
217067.0 506847.0 0
222455.0 504561.0 0
228106.0 504580.0 0
233618.0 506181.0 0
236760.0 503014.0 0
238729.0 506996.0 0
242336.0 503617.0 0
244772.0 506811.0 0
251958.0 503546.0 0
254823.0 506650.0 0
258793.0 505302.0 0
263268.0 506242.0 0
267484.0 506317.0 0
270900.0 503744.0 0
276266.0 505888.0 0
281451.0 504472.0 0
286308.0 504759.0 0
291341.0 503678.0 0
295746.0 505426.0 0
300148.0 503545.0 0
303883.0 504267.0 0
302819.0 506903.0 0
307165.0 503710.0 0
311359.0 503120.0 0
310983.0 507768.0 0
315270.0 505989.0 0
320111.0 503834.0 0
325926.0 503313.0 0
329109.0 507613.0 0
332263.0 504417.0 0
339141.0 502804.0 0
336724.0 506312.0 0
340994.0 505841.0 0
344629.0 505326.0 0
347831.0 503418.0 0
351624.0 506142.0 0
355875.0 504584.0 0
354827.0 507842.0 0
363729.0 506279.0 0
370488.0 503147.0 0
367876.0 506594.0 0
373604.0 507659.0 0
379128.0 507067.0 0
385758.0 504794.0 0
383484.0 507040.0 0
390234.0 505127.0 0
395081.0 505036.0 0
399477.0 503982.0 0
400433.0 508220.0 0
403613.0 505800.0 0
407815.0 503663.0 0
407454.0 507950.0 0
411143.0 507858.0 0
412697.0 504506.0 0
415682.0 507535.0 0
417687.0 504539.0 0
419973.0 508481.0 0
421514.0 505210.0 0
425191.0 504268.0 0
424075.0 507912.0 0
429756.0 503845.0 0
427961.0 507599.0 0
432407.0 507663.0 0
434844.0 504323.0 0
436637.0 507670.0 0
439986.0 504755.0 0
445269.0 503768.0 0
444036.0 508042.0 0
447773.0 507554.0 0
449979.0 504433.0 0
452021.0 508343.0 0
453836.0 504686.0 0
456389.0 507513.0 0
460746.0 505521.0 0
465438.0 505050.0 0
472124.0 505006.0 0
469094.0 506772.0 0
472908.0 508624.0 0
476864.0 506585.0 0
481681.0 505742.0 0
485793.0 505351.0 0
492916.0 506233.0 0
489394.0 508424.0 0
497089.0 507558.0 0
2064.22 509630.0 0
1774.84 512308.0 0
6407.08 512455.0 0
12756.5 508672.0 0
10501.7 511603.0 0
14760.9 512710.0 0
20551.8 510949.0 0
24059.1 511962.0 0
27697.1 510382.0 0
32246.8 512938.0 0
37240.5 513353.0 0
39552.1 510179.0 0
40847.9 512993.0 0
43702.9 509860.0 0
47745.6 511250.0 0
50846.5 511955.0 0
54472.3 509112.0 0
53804.4 512427.0 0
58394.4 509604.0 0
60961.5 513414.0 0
63569.2 510030.0 0
65562.4 514175.0 0
67773.8 509989.0 0
71087.0 508423.0 0
68848.1 513014.0 0
71960.3 512046.0 0
75349.9 509046.0 0
77065.5 512852.0 0
80323.4 509555.0 0
84672.4 510374.0 0
89629.4 510595.0 0
94482.6 508746.0 0
93337.3 512712.0 0
97230.6 512264.0 0
101101.0 511548.0 0
104884.0 511329.0 0
108412.0 509035.0 0
112598.0 510522.0 0
117189.0 510889.0 0
122310.0 511635.0 0
127338.0 512989.0 0
129644.0 508843.0 0
132367.0 512216.0 0
136578.0 511281.0 0
140656.0 511830.0 0
143500.0 508433.0 0
147479.0 509182.0 0
151010.0 511706.0 0
155589.0 508167.0 0
160096.0 510805.0 0
164136.0 508480.0 0
164289.0 512767.0 0
168141.0 509510.0 0
172669.0 511095.0 0
176119.0 508173.0 0
178072.0 512345.0 0
183490.0 509744.0 0
189015.0 510050.0 0
193033.0 509699.0 0
196440.0 512144.0 0
200691.0 509345.0 0
203260.0 512399.0 0
205962.0 509010.0 0
209837.0 510988.0 0
213647.0 510852.0 0
217776.0 512283.0 0
221622.0 509324.0 0
225475.0 508042.0 0
225791.0 512164.0 0
230097.0 509665.0 0
234847.0 510109.0 0
238345.0 512183.0 0
242168.0 509895.0 0
249616.0 507755.0 0
245960.0 511373.0 0
249594.0 512696.0 0
253782.0 511666.0 0
259612.0 510528.0 0
266171.0 511029.0 0
271282.0 508776.0 0
278991.0 509472.0 0
275803.0 511885.0 0
282758.0 508878.0 0
280161.0 512608.0 0
287697.0 510198.0 0
292428.0 508474.0 0
299169.0 507828.0 0
296618.0 511936.0 0
302656.0 511710.0 0
306622.0 507885.0 0
307861.0 512028.0 0
311706.0 511810.0 0
314738.0 509863.0 0
317134.0 512599.0 0
318706.0 508895.0 0
323744.0 508200.0 0
327161.0 512194.0 0
333152.0 507985.0 0
331926.0 512004.0 0
335582.0 510219.0 0
339971.0 510570.0 0
343596.0 508440.0 0
344777.0 512315.0 0
348016.0 508622.0 0
348585.0 513097.0 0
353050.0 511610.0 0
359429.0 509021.0 0
363071.0 512959.0 0
365561.0 510121.0 0
369617.0 509527.0 0
368877.0 512362.0 0
372198.0 512412.0 0
377093.0 512290.0 0
382732.0 511491.0 0
387656.0 509081.0 0
386906.0 513259.0 0
390815.0 512577.0 0
392658.0 509113.0 0
396816.0 509248.0 0
394967.0 512765.0 0
400055.0 513128.0 0
404154.0 510561.0 0
409211.0 512313.0 0
413744.0 511061.0 0
417644.0 510577.0 0
419796.0 511692.0 0
422848.0 511325.0 0
426338.0 510606.0 0
430370.0 511294.0 0
435731.0 512023.0 0
440136.0 509684.0 0
443668.0 511791.0 0
447828.0 511351.0 0
452305.0 512259.0 0
455951.0 511422.0 0
459913.0 510391.0 0
463147.0 513832.0 0
465020.0 509326.0 0
467783.0 513619.0 0
469782.0 510509.0 0
473028.0 513499.0 0
476173.0 510777.0 0
478353.0 513781.0 0
480365.0 510132.0 0
484815.0 509820.0 0
488626.0 512945.0 0
493362.0 510991.0 0
497705.0 511109.0 0
2657.51 515526.0 0
7226.93 517500.0 0
11042.4 515003.0 0
11520.8 518998.0 0
18563.9 514601.0 0
15079.5 516923.0 0
22536.4 515769.0 0
26874.3 515193.0 0
30334.2 517986.0 0
35454.6 517310.0 0
39870.9 516643.0 0
44605.7 514969.0 0
49668.7 515156.0 0
47203.6 518605.0 0
53616.9 516616.0 0
57000.8 513932.0 0
59013.7 515513.0 0
57480.8 517836.0 0
62126.3 517579.0 0
69659.4 516484.0 0
73937.8 515512.0 0
81578.9 514040.0 0
77616.9 517149.0 0
81178.6 518660.0 0
86435.2 514115.0 0
84376.2 517127.0 0
90498.4 515525.0 0
87499.6 518537.0 0
95265.6 516870.0 0
99834.6 515602.0 0
103433.0 514438.0 0
108472.0 514631.0 0
113489.0 515405.0 0
118708.0 515960.0 0
123627.0 516555.0 0
127734.0 517802.0 0
131048.0 516371.0 0
134327.0 515160.0 0
137659.0 515128.0 0
139710.0 518525.0 0
141580.0 515480.0 0
145705.0 513361.0 0
150287.0 516744.0 0
155618.0 514179.0 0
158565.0 517773.0 0
160273.0 514607.0 0
163215.0 517819.0 0
168557.0 514313.0 0
173465.0 516479.0 0
182414.0 514565.0 0
179151.0 517736.0 0
186709.0 514209.0 0
190012.0 517201.0 0
191840.0 513379.0 0
194791.0 516972.0 0
200288.0 515888.0 0
204926.0 517279.0 0
206840.0 513802.0 0
208283.0 517290.0 0
211344.0 514618.0 0
215425.0 516104.0 0
219889.0 516988.0 0
221943.0 513393.0 0
224685.0 516634.0 0
229641.0 514996.0 0
234223.0 514191.0 0
238121.0 517024.0 0
242424.0 514377.0 0
247059.0 516446.0 0
251718.0 516204.0 0
256903.0 516615.0 0
262811.0 516040.0 0
267620.0 515948.0 0
271275.0 513796.0 0
275390.0 516810.0 0
280391.0 517099.0 0
284499.0 517359.0 0
284053.0 513643.0 0
287875.0 515704.0 0
291606.0 513052.0 0
291031.0 516224.0 0
294582.0 516832.0 0
299924.0 517290.0 0
305658.0 516417.0 0
310288.0 515690.0 0
314229.0 514883.0 0
318041.0 516863.0 0
321743.0 513414.0 0
325799.0 516217.0 0
330321.0 516600.0 0
336562.0 514716.0 0
341674.0 515740.0 0
346281.0 516280.0 0
350207.0 516145.0 0
354137.0 516359.0 0
358899.0 514881.0 0
363872.0 516543.0 0
366396.0 514015.0 0
367280.0 517069.0 0
369938.0 515204.0 0
374174.0 516905.0 0
378815.0 517008.0 0
381691.0 515642.0 0
384842.0 516016.0 0
388688.0 516378.0 0
392769.0 516517.0 0
396964.0 517108.0 0
405253.0 515361.0 0
410363.0 517461.0 0
417422.0 514136.0 0
413197.0 514806.0 0
415204.0 517790.0 0
421946.0 514960.0 0
419335.0 518208.0 0
426913.0 514922.0 0
424415.0 518917.0 0
432143.0 516018.0 0
437428.0 516883.0 0
440604.0 513972.0 0
442144.0 517948.0 0
445380.0 515346.0 0
450298.0 516210.0 0
454999.0 514963.0 0
458588.0 513981.0 0
454294.0 518680.0 0
457298.0 517135.0 0
460994.0 517131.0 0
466002.0 517609.0 0
469872.0 516426.0 0
473169.0 518325.0 0
476449.0 516660.0 0
483445.0 514433.0 0
480045.0 517685.0 0
488102.0 517547.0 0
492873.0 515730.0 0
497311.0 514570.0 0
497402.0 518538.0 0
2502.27 519393.0 0
2068.92 523089.0 0
9439.94 521082.0 0
6224.32 522322.0 0
14787.6 521063.0 0
11641.0 523284.0 0
19595.3 519765.0 0
25151.1 520058.0 0
29264.5 522161.0 0
33635.9 521417.0 0
36579.7 524727.0 0
38572.2 520796.0 0
43012.2 520048.0 0
50355.0 519782.0 0
46761.5 522408.0 0
50669.9 524003.0 0
54182.0 521085.0 0
59765.3 522798.0 0
66028.7 518674.0 0
65497.8 522579.0 0
69325.5 521039.0 0
73510.7 519945.0 0
77754.7 521406.0 0
81952.7 522720.0 0
84498.2 520116.0 0
86845.9 523349.0 0
91674.6 520651.0 0
98919.1 519721.0 0
101754.0 523455.0 0
104012.0 518637.0 0
105791.0 522262.0 0
109490.0 520282.0 0
114918.0 520560.0 0
120584.0 520668.0 0
125182.0 520147.0 0
129276.0 521664.0 0
134473.0 519450.0 0
139191.0 523372.0 0
144752.0 519010.0 0
149522.0 521651.0 0
154638.0 519724.0 0
159485.0 522016.0 0
164114.0 522444.0 0
168341.0 519645.0 0
172923.0 522725.0 0
175648.0 519789.0 0
177384.0 521915.0 0
181070.0 522516.0 0
184258.0 518591.0 0
188028.0 521150.0 0
192429.0 521441.0 0
197757.0 521866.0 0
202503.0 520359.0 0
206744.0 521336.0 0
211921.0 519689.0 0
216772.0 520235.0 0
220651.0 521162.0 0
224275.0 520655.0 0
228035.0 519258.0 0
233089.0 519301.0 0
239503.0 520890.0 0
242848.0 519035.0 0
246795.0 521316.0 0
253115.0 520235.0 0
256850.0 521215.0 0
260487.0 520476.0 0
266272.0 520687.0 0
271134.0 518496.0 0
274769.0 521547.0 0
270570.0 522503.0 0
279217.0 521658.0 0
283077.0 521648.0 0
286710.0 520291.0 0
290675.0 519228.0 0
294856.0 522068.0 0
299415.0 522303.0 0
303932.0 521529.0 0
309382.0 520650.0 0
314197.0 519022.0 0
318356.0 521773.0 0
322276.0 518933.0 0
326932.0 520493.0 0
331285.0 521131.0 0
334377.0 518605.0 0
335404.0 522917.0 0
338815.0 519457.0 0
344054.0 520537.0 0
348528.0 519661.0 0
352554.0 520035.0 0
355491.0 523402.0 0
356960.0 519699.0 0
359126.0 522952.0 0
361390.0 519808.0 0
366117.0 520946.0 0
370264.0 519237.0 0
373368.0 521309.0 0
377684.0 521647.0 0
382466.0 519436.0 0
386365.0 519540.0 0
390747.0 520633.0 0
394488.0 520314.0 0
397877.0 522038.0 0
401512.0 518736.0 0
406339.0 520919.0 0
410838.0 521632.0 0
413513.0 520414.0 0
416850.0 521371.0 0
421151.0 522082.0 0
426304.0 523384.0 0
429041.0 519547.0 0
431342.0 523828.0 0
434160.0 520254.0 0
439019.0 521329.0 0
446894.0 519925.0 0
443421.0 522000.0 0
451015.0 520622.0 0
458332.0 520745.0 0
454518.0 522364.0 0
462946.0 520221.0 0
461690.0 523838.0 0
466900.0 522725.0 0
469601.0 519764.0 0
473057.0 522977.0 0
477049.0 520420.0 0
480593.0 521060.0 0
483887.0 519307.0 0
483886.0 523632.0 0
487222.0 521290.0 0
492487.0 520898.0 0
497382.0 522618.0 0
3336.61 527347.0 0
8421.04 525668.0 0
11927.9 527042.0 0
17092.4 525840.0 0
22376.2 523925.0 0
22255.6 527950.0 0
26512.7 525735.0 0
31644.8 525572.0 0
35045.7 528955.0 0
42028.6 525986.0 0
47123.4 526539.0 0
47831.4 529064.0 0
50947.0 529124.0 0
54535.1 525381.0 0
60016.2 527631.0 0
64507.5 527229.0 0
69700.7 525776.0 0
74320.9 524295.0 0
78387.7 525779.0 0
83100.0 527014.0 0
87183.7 528439.0 0
91201.3 525679.0 0
96098.3 523516.0 0
99176.8 527585.0 0
107467.0 524718.0 0
104193.0 527706.0 0
111833.0 525008.0 0
117604.0 525826.0 0
124256.0 524610.0 0
128859.0 526243.0 0
133303.0 524679.0 0
141910.0 527508.0 0
144960.0 524273.0 0
149211.0 526497.0 0
153447.0 524257.0 0
157370.0 526434.0 0
162265.0 526459.0 0
167836.0 525408.0 0
172538.0 527966.0 0
177503.0 526273.0 0
182776.0 527468.0 0
184684.0 523319.0 0
188413.0 526252.0 0
193888.0 526481.0 0
202573.0 525246.0 0
206652.0 525564.0 0
210087.0 524598.0 0
214543.0 524226.0 0
218541.0 523993.0 0
217326.0 527469.0 0
222430.0 525126.0 0
227458.0 524081.0 0
231838.0 524105.0 0
236591.0 524303.0 0
242639.0 524236.0 0
247152.0 525413.0 0
250418.0 523457.0 0
254720.0 524470.0 0
259059.0 524217.0 0
263436.0 525084.0 0
267976.0 525608.0 0
272634.0 526301.0 0
277447.0 525701.0 0
281600.0 525237.0 0
285916.0 525125.0 0
290013.0 523338.0 0
292886.0 527046.0 0
297844.0 526520.0 0
301559.0 525193.0 0
305199.0 526266.0 0
309452.0 526130.0 0
313662.0 523752.0 0
316565.0 527495.0 0
319908.0 525438.0 0
323316.0 523822.0 0
327562.0 524489.0 0
331489.0 525362.0 0
340285.0 524518.0 0
345044.0 525672.0 0
350276.0 524645.0 0
354619.0 526565.0 0
358948.0 527452.0 0
362882.0 524520.0 0
370383.0 523479.0 0
367053.0 525823.0 0
370682.0 528196.0 0
374343.0 525179.0 0
378813.0 527229.0 0
386719.0 523994.0 0
381956.0 523740.0 0
383275.0 527230.0 0
390768.0 524433.0 0
392116.0 527949.0 0
394031.0 523752.0 0
402218.0 524042.0 0
397669.0 527337.0 0
402148.0 528530.0 0
405224.0 527174.0 0
409139.0 525402.0 0
414030.0 524424.0 0
412826.0 528965.0 0
416186.0 527752.0 0
418130.0 525171.0 0
422220.0 526117.0 0
425305.0 527123.0 0
429062.0 528812.0 0
436315.0 524817.0 0
433745.0 527481.0 0
437521.0 528923.0 0
441571.0 526283.0 0
446798.0 524999.0 0
451137.0 524493.0 0
450090.0 528633.0 0
457246.0 525138.0 0
453828.0 527322.0 0
460578.0 527535.0 0
464621.0 527341.0 0
469762.0 527060.0 0
478616.0 524680.0 0
474981.0 527904.0 0
482319.0 527318.0 0
489094.0 524898.0 0
485478.0 527618.0 0
494134.0 526079.0 0
498287.0 525970.0 0
497895.0 528976.0 0
3678.96 533329.0 0
8558.88 530032.0 0
13669.7 531066.0 0
19226.6 531604.0 0
25537.8 530344.0 0
30017.6 529701.0 0
28544.3 533937.0 0
33616.1 533758.0 0
39611.6 531848.0 0
45638.7 531370.0 0
56108.6 529573.0 0
52876.0 534120.0 0
60947.5 531191.0 0
65593.2 532188.0 0
69781.8 530570.0 0
72232.1 533455.0 0
74401.1 529330.0 0
79651.9 530375.0 0
83985.1 530824.0 0
86899.8 533398.0 0
90890.5 530624.0 0
94802.3 528251.0 0
97160.8 531600.0 0
101698.0 531694.0 0
106127.0 532725.0 0
108680.0 528986.0 0
110321.0 533313.0 0
113459.0 529737.0 0
118124.0 531791.0 0
121955.0 529047.0 0
126046.0 529167.0 0
123738.0 533604.0 0
128549.0 531574.0 0
131536.0 529101.0 0
132559.0 533146.0 0
136778.0 529173.0 0
142162.0 531866.0 0
145578.0 528805.0 0
148942.0 531005.0 0
153084.0 528883.0 0
156964.0 530838.0 0
161424.0 531637.0 0
165640.0 529709.0 0
169569.0 531510.0 0
173710.0 532118.0 0
178222.0 531561.0 0
182839.0 532161.0 0
186396.0 530508.0 0
191183.0 531438.0 0
198439.0 528814.0 0
195454.0 531798.0 0
203038.0 530549.0 0
206896.0 528879.0 0
212177.0 529966.0 0
217186.0 531072.0 0
220875.0 529703.0 0
225635.0 529017.0 0
230773.0 528589.0 0
239762.0 528617.0 0
235449.0 529422.0 0
244948.0 529973.0 0
248498.0 532925.0 0
251439.0 529129.0 0
257459.0 528839.0 0
261591.0 528711.0 0
261073.0 532873.0 0
265768.0 530151.0 0
269885.0 529136.0 0
275731.0 530391.0 0
280369.0 529127.0 0
284061.0 528988.0 0
284903.0 532854.0 0
288495.0 529757.0 0
293493.0 532320.0 0
298236.0 531007.0 0
301975.0 528954.0 0
306425.0 530318.0 0
312009.0 531383.0 0
317783.0 532080.0 0
321102.0 528850.0 0
325984.0 528571.0 0
328291.0 533368.0 0
330967.0 529655.0 0
336237.0 528489.0 0
338577.0 533142.0 0
342200.0 530209.0 0
348077.0 530021.0 0
354292.0 530887.0 0
360163.0 532915.0 0
364353.0 529638.0 0
368342.0 531810.0 0
374884.0 528976.0 0
372741.0 532552.0 0
377359.0 531913.0 0
387084.0 528965.0 0
382163.0 531496.0 0
386390.0 532996.0 0
390420.0 532377.0 0
395393.0 532288.0 0
400625.0 532673.0 0
404300.0 531014.0 0
408349.0 530626.0 0
416017.0 532141.0 0
419454.0 529313.0 0
423754.0 530038.0 0
426167.0 532840.0 0
430268.0 534039.0 0
433925.0 531409.0 0
437948.0 532635.0 0
441695.0 531419.0 0
445967.0 529545.0 0
449565.0 532110.0 0
453310.0 531486.0 0
457275.0 529561.0 0
461775.0 531240.0 0
466956.0 531921.0 0
471920.0 530975.0 0
476010.0 532690.0 0
479653.0 529650.0 0
484311.0 531611.0 0
489131.0 529996.0 0
487674.0 534136.0 0
493974.0 530581.0 0
491460.0 534025.0 0
497514.0 533049.0 0
3211.12 539022.0 0
9746.98 534957.0 0
15199.9 536069.0 0
19927.3 536073.0 0
23729.0 534223.0 0
22633.4 538007.0 0
26669.4 537952.0 0
31145.2 537964.0 0
37544.4 537511.0 0
42987.3 535894.0 0
48241.8 536480.0 0
52771.7 539325.0 0
57564.8 533978.0 0
57404.0 538087.0 0
61631.5 535584.0 0
66052.0 537090.0 0
69134.1 534343.0 0
71318.4 538300.0 0
76650.2 535063.0 0
82182.4 533929.0 0
80594.3 537240.0 0
84490.6 537578.0 0
89762.9 536919.0 0
93557.7 534311.0 0
98410.3 535825.0 0
103130.0 535822.0 0
107505.0 536788.0 0
112262.0 537510.0 0
114241.0 533824.0 0
117674.0 537061.0 0
128647.0 535482.0 0
132901.0 538247.0 0
137361.0 534930.0 0
142002.0 536588.0 0
146155.0 534791.0 0
149542.0 534152.0 0
149869.0 537521.0 0
153061.0 533672.0 0
154395.0 538398.0 0
157760.0 535188.0 0
161738.0 536019.0 0
165713.0 534195.0 0
168499.0 537405.0 0
171495.0 535177.0 0
175553.0 535768.0 0
180741.0 536833.0 0
186764.0 535388.0 0
191549.0 536181.0 0
194561.0 534634.0 0
199243.0 534720.0 0
203862.0 537338.0 0
206941.0 533648.0 0
211795.0 536794.0 0
215711.0 534053.0 0
219252.0 533892.0 0
217462.0 538022.0 0
223511.0 533756.0 0
220993.0 536572.0 0
228242.0 533191.0 0
233127.0 533703.0 0
238400.0 533313.0 0
236240.0 538027.0 0
242376.0 534034.0 0
241307.0 537990.0 0
245984.0 535787.0 0
248960.0 537889.0 0
251545.0 535241.0 0
256210.0 533771.0 0
255203.0 538095.0 0
259868.0 537958.0 0
265214.0 536491.0 0
270559.0 533651.0 0
275185.0 534658.0 0
279958.0 534454.0 0
284675.0 537897.0 0
289047.0 535070.0 0
297565.0 535070.0 0
302716.0 534252.0 0
308117.0 535985.0 0
313239.0 537586.0 0
318248.0 536564.0 0
322809.0 533760.0 0
326199.0 537347.0 0
330404.0 537530.0 0
333945.0 533953.0 0
337625.0 537786.0 0
342034.0 535789.0 0
345862.0 533935.0 0
346690.0 538359.0 0
350679.0 535205.0 0
356336.0 536676.0 0
364864.0 534430.0 0
361882.0 537032.0 0
365468.0 538411.0 0
369290.0 536192.0 0
374023.0 536612.0 0
379375.0 535939.0 0
384144.0 536344.0 0
388202.0 535822.0 0
392679.0 536911.0 0
397884.0 536776.0 0
402265.0 535673.0 0
405751.0 535049.0 0
411567.0 535092.0 0
416448.0 536358.0 0
421214.0 534551.0 0
426433.0 536845.0 0
431044.0 538425.0 0
435611.0 536101.0 0
440829.0 535961.0 0
446037.0 534757.0 0
451773.0 535623.0 0
457789.0 534213.0 0
456010.0 538070.0 0
462632.0 535647.0 0
467120.0 536505.0 0
471924.0 535538.0 0
469651.0 539144.0 0
476821.0 537398.0 0
480571.0 534488.0 0
481172.0 539062.0 0
484837.0 536307.0 0
494605.0 536148.0 0
489930.0 539061.0 0
498013.0 536694.0 0
2013.57 543383.0 0
8539.18 539427.0 0
5849.42 543488.0 0
9624.05 543206.0 0
13405.0 541007.0 0
18969.6 540523.0 0
23986.7 541168.0 0
21718.3 543353.0 0
28994.0 542738.0 0
34006.3 540884.0 0
38435.1 543246.0 0
41664.2 539829.0 0
45247.5 539576.0 0
43877.6 543041.0 0
48574.6 541954.0 0
52739.0 543606.0 0
57718.4 543272.0 0
61977.2 539912.0 0
66143.8 540930.0 0
76252.0 540312.0 0
72648.3 543243.0 0
80915.9 540942.0 0
87588.0 541346.0 0
91940.8 543530.0 0
94215.0 539416.0 0
99318.9 540350.0 0
103831.0 540101.0 0
108892.0 542226.0 0
114704.0 541949.0 0
118900.0 541461.0 0
123125.0 539279.0 0
126374.0 543867.0 0
128240.0 539615.0 0
138687.0 540944.0 0
142870.0 543420.0 0
145251.0 540003.0 0
149979.0 541934.0 0
154794.0 543377.0 0
159302.0 540077.0 0
163531.0 542492.0 0
164638.0 538546.0 0
167852.0 541580.0 0
172551.0 539743.0 0
176831.0 539299.0 0
181190.0 542104.0 0
184859.0 539995.0 0
189583.0 540457.0 0
195193.0 539386.0 0
200440.0 540156.0 0
203513.0 542216.0 0
207429.0 540763.0 0
214079.0 542416.0 0
219157.0 541728.0 0
221561.0 539494.0 0
223552.0 542564.0 0
226328.0 538447.0 0
229032.0 542949.0 0
231501.0 538374.0 0
233764.0 542362.0 0
238684.0 542202.0 0
242899.0 542067.0 0
246670.0 540460.0 0
251499.0 540086.0 0
255289.0 542217.0 0
259618.0 542869.0 0
264188.0 541742.0 0
269844.0 539397.0 0
274971.0 538753.0 0
279889.0 540363.0 0
288942.0 540710.0 0
293731.0 538264.0 0
299556.0 539320.0 0
304516.0 539511.0 0
309031.0 540754.0 0
313024.0 542330.0 0
317186.0 541202.0 0
322297.0 539914.0 0
327908.0 541344.0 0
333521.0 541780.0 0
338853.0 542417.0 0
342759.0 540734.0 0
346970.0 543485.0 0
352172.0 540929.0 0
357484.0 541375.0 0
362176.0 541348.0 0
367263.0 542909.0 0
371913.0 540533.0 0
376760.0 539842.0 0
381862.0 540933.0 0
387936.0 540680.0 0
395650.0 539477.0 0
393298.0 541849.0 0
402568.0 539743.0 0
397599.0 541760.0 0
408634.0 539664.0 0
414017.0 540010.0 0
418984.0 539618.0 0
422195.0 542911.0 0
423012.0 539120.0 0
427244.0 541874.0 0
431797.0 542365.0 0
434674.0 540613.0 0
438896.0 540215.0 0
443557.0 539565.0 0
448429.0 539496.0 0
452854.0 540015.0 0
451219.0 543912.0 0
456709.0 543129.0 0
460051.0 539349.0 0
465113.0 540619.0 0
473608.0 540043.0 0
470251.0 542582.0 0
473952.0 543522.0 0
477577.0 541940.0 0
484578.0 542435.0 0
493427.0 543639.0 0
497117.0 540631.0 0
2735.89 547469.0 0
8132.96 547736.0 0
12578.1 545654.0 0
16660.3 544827.0 0
24407.4 544861.0 0
20679.4 546441.0 0
27060.4 548658.0 0
30705.1 546684.0 0
33707.6 545071.0 0
36944.8 548090.0 0
41966.4 547017.0 0
50349.2 546074.0 0
46553.5 546273.0 0
54541.1 548207.0 0
60294.1 548397.0 0
63201.4 544320.0 0
65506.1 548643.0 0
68205.6 544440.0 0
70085.1 548273.0 0
77548.8 546084.0 0
83467.0 544748.0 0
86923.1 547623.0 0
89229.5 545132.0 0
91649.3 548127.0 0
96824.1 545108.0 0
103194.0 545540.0 0
107993.0 547360.0 0
112432.0 546666.0 0
117342.0 546414.0 0
121467.0 544243.0 0
123408.0 548497.0 0
132518.0 544343.0 0
128247.0 548204.0 0
138385.0 547299.0 0
143175.0 548364.0 0
146352.0 545261.0 0
150861.0 545955.0 0
160012.0 546334.0 0
166269.0 545982.0 0
171194.0 545078.0 0
176465.0 543684.0 0
180721.0 546543.0 0
185512.0 544711.0 0
191879.0 544489.0 0
196278.0 544650.0 0
200934.0 544720.0 0
205373.0 545360.0 0
209800.0 545013.0 0
213913.0 547692.0 0
218514.0 545759.0 0
222825.0 546090.0 0
226848.0 547106.0 0
231634.0 546762.0 0
236469.0 546512.0 0
241641.0 546438.0 0
249388.0 543679.0 0
247162.0 548159.0 0
253209.0 546933.0 0
258339.0 546996.0 0
262608.0 545812.0 0
268577.0 544537.0 0
274684.0 544445.0 0
279816.0 544749.0 0
284449.0 543652.0 0
282094.0 547729.0 0
290146.0 545675.0 0
296059.0 544163.0 0
301490.0 543702.0 0
303610.0 547916.0 0
305679.0 543743.0 0
310029.0 545826.0 0
315685.0 546494.0 0
320289.0 544560.0 0
324743.0 544689.0 0
329707.0 546285.0 0
336723.0 547156.0 0
342346.0 545951.0 0
346910.0 548620.0 0
351061.0 546123.0 0
355392.0 545212.0 0
359608.0 544906.0 0
363757.0 547049.0 0
371498.0 544878.0 0
375196.0 543869.0 0
375030.0 548454.0 0
379445.0 545736.0 0
385073.0 546141.0 0
390662.0 545641.0 0
395412.0 545670.0 0
400743.0 545988.0 0
406170.0 544327.0 0
411420.0 544468.0 0
408441.0 548511.0 0
417278.0 544900.0 0
425238.0 547021.0 0
430547.0 545856.0 0
435382.0 544717.0 0
440752.0 544872.0 0
446013.0 544046.0 0
444297.0 549066.0 0
449037.0 548022.0 0
454027.0 547660.0 0
461910.0 544615.0 0
458817.0 548467.0 0
466977.0 545675.0 0
471749.0 546526.0 0
476462.0 546365.0 0
480719.0 545126.0 0
488946.0 545038.0 0
484724.0 547611.0 0
492514.0 547378.0 0
497558.0 545567.0 0
4855.7 552125.0 0
1215.4 553618.0 0
9587.43 552123.0 0
12729.8 549714.0 0
13788.6 554170.0 0
17190.6 549500.0 0
18447.6 553563.0 0
21894.4 550812.0 0
25302.8 552861.0 0
29590.5 553823.0 0
32832.3 549666.0 0
40193.4 551924.0 0
44698.2 549897.0 0
49244.8 550364.0 0
53091.6 553064.0 0
57773.9 552950.0 0
62984.0 552924.0 0
68680.3 552891.0 0
73430.6 550380.0 0
77757.0 552392.0 0
82551.0 549951.0 0
87771.4 553271.0 0
95766.8 550710.0 0
100638.0 550554.0 0
105325.0 550609.0 0
110297.0 551448.0 0
115075.0 550403.0 0
119230.0 550448.0 0
122325.0 552558.0 0
126456.0 552456.0 0
132940.0 551749.0 0
138631.0 552268.0 0
142886.0 552837.0 0
146806.0 550132.0 0
149867.0 552058.0 0
150344.0 549208.0 0
154516.0 548888.0 0
158930.0 552473.0 0
164235.0 550549.0 0
169175.0 549573.0 0
171079.0 553617.0 0
174945.0 549689.0 0
179527.0 549799.0 0
184161.0 549971.0 0
179555.0 553361.0 0
187629.0 552745.0 0
189380.0 548496.0 0
195170.0 550399.0 0
200274.0 548826.0 0
204628.0 550150.0 0
209523.0 549350.0 0
213333.0 552842.0 0
217450.0 550293.0 0
221325.0 549476.0 0
224849.0 550923.0 0
229728.0 551866.0 0
236625.0 551653.0 0
242448.0 552282.0 0
251988.0 551754.0 0
256495.0 551524.0 0
261170.0 550241.0 0
265755.0 548938.0 0
271252.0 548834.0 0
270093.0 553341.0 0
278320.0 548388.0 0
275560.0 552758.0 0
281273.0 552010.0 0
285877.0 548590.0 0
289577.0 550365.0 0
294576.0 550294.0 0
299205.0 548358.0 0
299632.0 552951.0 0
307646.0 549612.0 0
312104.0 550935.0 0
317102.0 551480.0 0
322252.0 549626.0 0
327891.0 551128.0 0
332599.0 550181.0 0
337267.0 553559.0 0
342573.0 550903.0 0
346738.0 553939.0 0
352024.0 551292.0 0
358334.0 549928.0 0
364105.0 552984.0 0
369272.0 549292.0 0
379805.0 550595.0 0
384903.0 552003.0 0
388937.0 549522.0 0
390020.0 553840.0 0
393506.0 550100.0 0
398692.0 551304.0 0
404046.0 550752.0 0
408943.0 553386.0 0
417889.0 549812.0 0
413334.0 549662.0 0
421799.0 550777.0 0
418416.0 554176.0 0
426058.0 551944.0 0
429292.0 549740.0 0
430520.0 554533.0 0
433878.0 549665.0 0
439091.0 549767.0 0
442270.0 554029.0 0
448306.0 553636.0 0
451805.0 550593.0 0
455638.0 553271.0 0
460873.0 552704.0 0
463922.0 549367.0 0
468820.0 549910.0 0
474068.0 549971.0 0
471561.0 553769.0 0
476569.0 553480.0 0
480078.0 549790.0 0
480942.0 554442.0 0
489048.0 549427.0 0
485539.0 552846.0 0
493752.0 551258.0 0
489986.0 552878.0 0
497906.0 549717.0 0
497783.0 553822.0 0
2836.81 557283.0 0
8001.25 556061.0 0
11792.6 558930.0 0
17543.0 558706.0 0
22579.9 555808.0 0
26992.5 558484.0 0
35111.6 554249.0 0
32083.6 558420.0 0
45446.2 554246.0 0
41425.8 557078.0 0
45571.7 559224.0 0
50017.3 556111.0 0
54799.1 557351.0 0
60130.2 557765.0 0
65485.8 557452.0 0
70076.0 557552.0 0
73522.5 554953.0 0
82024.0 555194.0 0
77622.7 557360.0 0
90723.6 557927.0 0
93178.9 554542.0 0
97886.4 555230.0 0
103101.0 555066.0 0
108239.0 556652.0 0
113752.0 555802.0 0
118842.0 554880.0 0
123722.0 556793.0 0
128848.0 556582.0 0
133118.0 557616.0 0
137514.0 556439.0 0
142356.0 557876.0 0
147560.0 555747.0 0
153377.0 554482.0 0
157623.0 558171.0 0
162530.0 556482.0 0
166856.0 554685.0 0
175254.0 555832.0 0
184028.0 554966.0 0
191395.0 555139.0 0
200518.0 554121.0 0
208018.0 553674.0 0
248014.0 553634.0 0
264554.0 554582.0 0
286349.0 554001.0 0
291292.0 554214.0 0
295478.0 555419.0 0
305669.0 554653.0 0
311458.0 556017.0 0
316437.0 556413.0 0
320360.0 554279.0 0
324654.0 554900.0 0
328490.0 558061.0 0
331422.0 554354.0 0
342352.0 555467.0 0
348880.0 558874.0 0
353585.0 556805.0 0
358932.0 556092.0 0
365627.0 557791.0 0
369345.0 555488.0 0
375395.0 554601.0 0
378538.0 558784.0 0
381277.0 555797.0 0
386340.0 557194.0 0
391148.0 558759.0 0
395129.0 555262.0 0
401486.0 553930.0 0
400088.0 557664.0 0
404474.0 555586.0 0
410743.0 558294.0 0
413769.0 554696.0 0
420112.0 558747.0 0
423289.0 555253.0 0
429553.0 559403.0 0
436576.0 554689.0 0
433671.0 558935.0 0
440242.0 559131.0 0
445119.0 558224.0 0
456013.0 558783.0 0
460464.0 556908.0 0
466007.0 554369.0 0
477898.0 558267.0 0
482678.0 558007.0 0
489123.0 556620.0 0
493715.0 555781.0 0
497575.0 558309.0 0
1347.24 561092.0 0
3182.15 564109.0 0
6972.29 560959.0 0
22742.8 560666.0 0
26807.2 563818.0 0
32428.9 563510.0 0
37052.5 559179.0 0
41628.4 561517.0 0
45246.9 563378.0 0
50744.1 561764.0 0
56921.1 561986.0 0
63128.1 562213.0 0
68525.1 561939.0 0
73638.7 559413.0 0
75894.8 563197.0 0
80056.0 561225.0 0
85572.0 559845.0 0
87910.5 564231.0 0
91110.4 562239.0 0
95073.6 559500.0 0
100404.0 559920.0 0
105030.0 560015.0 0
111575.0 560670.0 0
115918.0 560031.0 0
120099.0 560249.0 0
126706.0 560332.0 0
130572.0 560666.0 0
135933.0 561900.0 0
151330.0 559129.0 0
333800.0 559019.0 0
339860.0 558917.0 0
344271.0 558910.0 0
356625.0 560612.0 0
362247.0 560116.0 0
368584.0 559904.0 0
372162.0 559052.0 0
382310.0 560754.0 0
387347.0 562177.0 0
395814.0 560386.0 0
401477.0 562482.0 0
405995.0 560259.0 0
412414.0 563415.0 0
415478.0 558999.0 0
420961.0 563615.0 0
425013.0 560026.0 0
431029.0 563876.0 0
436459.0 562941.0 0
441511.0 564228.0 0
445788.0 562441.0 0
450446.0 559782.0 0
455246.0 563269.0 0
460020.0 561950.0 0
465485.0 560163.0 0
471866.0 559443.0 0
476327.0 563485.0 0
481165.0 562077.0 0
486473.0 561251.0 0
492682.0 560945.0 0
497910.0 562723.0 0
6884.29 565262.0 0
12726.4 564615.0 0
19294.7 564839.0 0
37750.8 564376.0 0
425864.0 565084.0 0
451077.0 565569.0 0
463809.0 565157.0 0
469001.0 564977.0 0
483778.0 565578.0 0
489724.0 565439.0 0
495000.0 565458.0 0
POINT_DATA 5000
SCALARS Radius float 1
LOOKUP_TABLE default
5415.48 5120.0 3863.18 6182.6 2356.98 5258.36 5061.3 3163.97 5812.43 5580.89 6810.52 6110.27 5840.26 5073.35 4834.9 5085.53 4998.37 5492.18 5867.73 3951.75 3642.12 4499.64 5542.27 5906.14 7513.1 5254.28 4436.4 5733.48 3588.44 5645.7 5553.16 3672.51 4008.92 5561.06 5670.04 6044.04 5351.6 5484.83 4715.55 6059.59 5013.56 4375.68 5054.98 5122.66 5484.19 3557.27 4688.68 4402.52 4182.53 4517.56 4672.91 3761.32 5176.86 4366.19 2938.66 4940.78 3615.22 4380.59 6716.79 3850.77 5325.36 5538.89 4730.36 5701.86 2720.68 4238.81 4468.59 6030.06 5170.02 5200.76 4927.31 4862.64 5185.34 4432.58 5903.42 3955.56 5292.64 4118.05 5065.13 6166.5 5936.02 5305.17 7613.27 5546.39 5945.65 6759.9 7021.47 5926.61 6051.14 4955.55 3563.63 5836.15 4345.55 5885.03 2837.58 5325.02 5246.2 5017.13 5205.43 3673.74 6684.56 3968.64 2635.86 4385.06 4290.3 4231.61 4861.08 3942.53 3379.84 3607.45 4951.03 4133.88 4094.62 5418.62 5493.32 5416.38 4195.44 5740.68 3261.21 6704.06 3653.41 5600.93 3871.88 4827.23 4390.66 6116.18 7447.37 4688.67 7184.19 2924.37 3867.67 4003.05 4827.82 3589.27 4333.2 4665.12 6483.19 6230.49 4174.52 7054.71 4601.27 3641.64 5747.75 4277.89 5539.32 6496.85 3856.01 5541.59 4124.71 5279.39 4911.47 5803.39 4924.6 4381.97 3255.82 4733.32 5242.73 2899.43 2812.98 4065.69 5399.73 4805.87 4712.33 5759.91 5227.21 3260.67 3038.33 3936.02 3383.4 4927.02 3856.1 5980.74 5109.54 6458.82 5489.43 5054.25 4796.33 5360.19 4874.39 4839.34 5083.08 5728.85 6337.56 3998.5 5863.59 6257.19 4737.14 5603.15 5390.22 6038.78 3997.1 5123.52 4295.38 4780.03 4044.71 3829.13 5816.2 3091.3 5527.54 5573.7 7325.81 4794.96 6186.19 2980.99 6834.49 5525.39 4024.3 5938.34 5555.28 5169.36 4695.45 4686.65 4660.72 3888.21 5697.78 4667.36 4392.68 5495.39 3554.9 4487.31 3996.0 5693.81 5789.98 2540.31 6138.47 5697.4 4727.62 4055.8 6425.26 5143.58 4840.01 4484.76 5611.2 7933.0 5173.87 6394.38 5118.27 5932.23 5834.74 5788.23 5556.96 6052.7 3921.18 6902.81 5529.52 5252.48 4002.16 4015.92 4138.16 4778.34 6029.66 4684.5 6302.8 4270.95 5206.78 5280.17 5028.96 6362.12 5152.36 4220.65 4455.12 6820.42 5380.13 4894.16 4896.52 5711.87 3798.62 5581.75 3666.57 5891.05 4254.17 4091.31 7199.21 6124.89 5708.81 5043.05 5120.49 3486.22 5409.61 4414.54 4005.44 6038.2 5555.88 5713.22 6732.43 3866.16 3183.98 4524.28 4511.82 3778.1 5826.64 4816.2 6321.41 4941.22 5791.61 5282.64 4479.66 6392.01 6644.76 5615.42 4523.7 5255.32 5337.48 5542.21 5924.89 6894.71 5262.61 5201.36 5094.81 4306.53 5972.06 5861.71 5017.78 3794.63 6175.81 4727.24 6959.81 4829.35 4089.76 3372.79 4751.02 5184.56 4715.72 3369.13 5367.2 5308.1 6372.62 6730.19 4937.02 7565.34 5637.59 3103.0 5481.78 6084.86 4937.14 3307.12 4467.94 5551.36 6038.14 6135.57 5998.38 4312.67 4359.04 4270.24 5015.69 4989.15 4947.52 4520.1 6677.09 4305.57 5813.4 5201.67 5526.55 3192.41 4987.87 3315.57 4669.66 4808.52 3043.85 5461.13 4907.89 5629.19 6037.08 4049.23 3586.91 3115.91 5478.92 4933.21 4850.81 5094.44 5375.47 4723.12 5024.9 4717.05 5659.17 4562.29 5423.8 3417.33 4164.13 4642.34 5153.74 5874.89 3791.79 4293.03 4424.7 4754.05 4951.47 6084.93 4764.96 5607.24 4726.76 3599.45 5655.21 5090.24 5091.39 6756.95 4929.8 5601.05 4382.74 4948.92 4516.43 4749.8 5810.84 3748.24 4655.49 4809.42 4566.18 5856.11 5287.2 4234.94 5013.13 5080.66 4926.42 5110.45 5248.77 4165.81 4528.09 3556.85 4389.21 4128.98 4925.44 6246.22 5246.61 5215.15 4307.28 5046.33 5804.71 5020.12 5053.92 5839.13 4073.93 5923.5 2240.39 5096.78 6324.23 4727.24 4651.28 4384.42 4362.19 4493.48 4230.54 5082.6 6163.38 4964.09 3459.9 4093.08 5543.27 4109.88 4980.85 3327.49 3960.8 5714.58 4923.9 3329.99 4083.97 5208.32 4607.02 3895.51 6291.51 5882.89 4188.32 4100.38 5538.93 5727.3 6352.26 4242.52 3735.44 4907.06 3847.38 4786.6 4645.41 4433.59 5740.84 4612.68 6355.42 5690.56 3693.63 3937.74 5478.47 6061.47 4997.27 5806.08 4449.22 5628.24 5992.26 5070.39 4613.31 4973.78 3947.47 5091.68 3296.27 4713.25 6673.96 6243.0 5174.89 5370.52 5774.81 4739.42 3697.96 4899.11 4745.45 5356.51 3818.59 3057.03 5495.68 5163.9 4973.83 5530.87 3912.37 3320.52 4310.18 5293.9 4151.94 5927.43 5244.78 5762.84 5119.37 6142.37 3982.23 4853.39 5243.29 5365.89 3130.65 5409.33 4511.54 5196.0 4204.84 6119.09 5069.25 5441.96 5048.89 3991.03 4288.3 3435.9 4652.29 4495.87 5344.77 5027.98 4723.48 4278.07 5097.87 4863.72 5281.28 2631.9 4087.15 5489.34 6043.3 5952.75 6445.94 4281.49 4129.43 4320.28 6142.94 4685.34 5492.26 4220.88 6640.13 5351.39 4336.42 4583.31 3402.32 5004.67 7589.94 4898.94 4466.03 4178.15 4247.23 7531.29 4733.04 5935.03 6390.78 3161.47 6826.57 4788.87 3746.31 5498.32 5346.27 7267.18 4143.08 5002.48 4758.21 5708.14 4262.82 5537.72 6342.25 6082.81 6327.9 6519.71 3629.96 3092.35 3320.11 5210.03 6022.17 4306.11 4503.89 5903.66 5419.37 4528.49 5985.29 5275.32 4694.83 4268.65 5788.66 4354.08 4520.62 4755.47 3903.75 4485.99 5475.8 7435.25 5543.46 6022.72 5527.33 6475.1 2691.29 6255.18 7500.97 6332.36 3920.42 5542.14 4218.06 4931.53 3843.58 4329.05 4931.38 4736.58 5110.37 3191.99 4659.59 4048.37 5449.18 5367.52 4714.54 5030.91 5507.24 6851.54 5935.47 5313.66 2651.49 5512.23 4649.22 5349.31 5509.42 5394.55 5936.36 5229.48 4016.18 5475.7 5127.16 5314.69 6050.81 4244.99 4249.46 4643.31 6917.52 4969.21 5402.21 6256.02 4277.88 4668.71 6623.85 7228.46 5102.36 8332.24 6691.39 7134.64 4602.25 4270.53 4194.5 4501.51 4792.73 5513.6 4901.41 5264.06 3485.26 4556.36 3240.09 3369.23 5664.98 3688.8 4548.16 4322.15 5025.39 5893.5 4377.07 5101.59 3848.93 3813.22 6020.48 5570.3 5234.29 4711.62 4645.58 4114.24 2976.22 5166.79 4256.43 5094.52 2682.24 5928.32 5415.19 5526.75 5435.74 5560.26 5327.45 5965.81 6185.89 2330.66 3702.37 4177.19 3691.0 4752.51 4880.14 2845.98 5320.92 3948.23 5228.18 5787.31 4342.9 6122.55 2739.94 6155.31 5480.13 4790.08 5978.9 5191.63 5082.47 4187.56 5344.25 5344.0 4043.57 5925.6 6013.14 5379.87 3708.04 4602.86 4581.13 5138.31 4551.24 4621.75 3610.4 5358.59 4515.71 6202.55 3817.13 5023.15 4547.19 3844.9 3695.36 3963.86 5076.35 5273.35 5200.05 4091.8 5670.2 5181.4 4662.56 3405.98 5417.15 4946.74 3688.16 4681.72 5996.33 3950.63 4612.62 6631.19 4275.57 3619.07 4467.04 6385.23 2983.99 2614.4 4750.17 3997.96 4439.35 5660.85 3460.94 3990.25 3758.07 4989.09 3587.05 4982.31 5269.18 6362.14 6719.88 4406.1 5065.11 5978.82 4553.56 4223.33 6308.71 5911.67 4840.84 3629.62 4997.27 5135.69 4301.06 3456.98 4593.7 6045.46 4290.14 4763.45 4150.99 4478.15 5681.38 3771.48 4138.42 4292.06 5011.31 3979.82 5987.17 5006.58 2765.2 3856.59 4746.52 5586.81 4219.07 5413.79 6387.01 6338.89 7111.16 5584.06 6480.17 4564.34 4871.44 6248.81 3838.56 6375.99 4853.02 6259.23 5088.44 4998.21 3457.48 6079.11 3931.07 7440.72 3949.6 4945.39 5661.62 4867.08 5626.61 5817.25 6363.92 6205.93 6184.4 4373.45 5830.72 3828.81 6229.37 5289.52 5314.85 4305.43 5034.59 5450.44 4942.77 5080.18 3927.99 5069.84 5266.5 5329.64 4051.44 4050.9 4716.19 6695.82 3323.28 5514.76 6405.76 4877.67 3498.2 4020.32 5445.87 3815.26 4245.72 4216.92 4571.7 4704.72 4177.94 4271.69 3970.25 5198.77 4107.03 4850.01 5643.58 5147.67 5577.04 6318.18 4481.53 5330.45 5077.33 3948.17 3689.45 3824.16 3868.18 5572.95 6723.16 5372.61 5402.24 3686.21 4519.22 6445.22 5013.42 5651.07 4962.77 5872.05 5323.3 4635.6 4256.67 4427.28 3082.32 6430.39 4765.02 5376.71 5703.6 4448.13 6326.18 5070.29 4266.03 6648.68 4713.74 4220.03 5407.78 5061.98 4084.49 6632.99 4923.24 4419.61 7177.44 5309.98 4236.14 6718.19 4082.57 4407.87 4307.48 3848.54 5941.4 5282.91 6510.17 4263.33 5868.82 4454.63 4066.38 4523.88 6049.55 3279.1 4241.89 5709.62 5835.78 5054.74 4981.9 5941.72 5794.24 6562.18 5908.1 4541.21 4344.58 4742.68 6048.7 5634.83 5499.11 5922.5 4502.5 3929.19 3633.87 2775.04 4810.12 4138.46 3821.72 6035.6 5215.05 4986.77 5198.29 5137.34 5423.0 3975.31 5344.43 5125.78 5350.88 5045.38 5452.83 5130.91 4959.34 4948.5 4527.02 5383.07 4247.15 4531.14 4602.85 5210.48 7552.94 6101.92 3627.55 6239.84 5865.39 5370.85 3658.37 3178.54 5629.39 6157.04 4807.28 4768.61 2261.36 5075.55 5280.69 6923.84 5449.46 6179.96 5703.07 4537.6 5147.36 6260.79 4563.46 5733.62 5169.9 5282.51 4425.84 5331.02 3797.33 7256.35 4871.96 5742.65 4800.69 5592.32 4978.31 5912.61 4099.77 4948.98 4414.48 4537.32 5163.02 4127.74 3066.13 2476.04 4656.78 4302.5 4156.38 5105.16 5896.46 6006.16 6009.88 5495.84 4164.68 6268.1 3784.5 4862.21 5782.6 5113.21 4011.77 4374.35 5347.48 4527.08 6396.74 6898.19 7099.43 5526.14 6449.45 4044.45 3627.82 4244.9 5262.19 4373.47 6070.58 5490.43 5022.28 6034.41 5197.52 5178.99 4790.78 4027.09 4591.87 6422.84 6552.22 4502.18 5379.09 7644.38 6004.68 4051.34 6799.4 4409.63 5521.25 5278.36 5107.23 3661.9 5136.08 5949.46 5558.68 3776.94 4010.57 2684.03 5246.47 6191.29 4522.21 5506.19 6719.94 4950.67 6166.29 5453.6 6113.54 4662.43 4043.66 4709.05 3963.76 5528.53 6553.94 5255.18 3004.16 5460.65 4460.92 5945.89 4042.28 4105.55 4863.23 6566.1 4402.67 3555.86 5381.16 6386.78 4403.98 4560.84 5565.13 5227.52 6086.96 4092.24 4729.43 5991.09 5126.91 5050.65 4678.38 5448.61 5316.75 4827.33 5022.8 7055.53 3937.08 6133.92 3719.84 5013.67 4178.4 5669.65 5253.55 7034.11 5820.48 2586.12 6261.42 6125.34 5965.78 5252.34 2965.79 5776.37 4287.63 5315.4 4516.28 5678.96 6048.86 4285.32 6894.26 4986.51 5339.38 6169.11 4896.11 5615.35 5172.53 4135.62 5801.99 4860.33 5534.94 3685.13 3312.06 5180.76 3418.99 3361.26 4480.95 4993.35 6218.95 5222.16 5533.72 5533.42 4802.32 4599.38 4187.31 5463.48 3240.51 7422.36 4527.99 5161.01 4298.15 5227.59 4628.4 5832.37 6051.83 5409.63 5294.77 4263.16 3077.84 4630.82 4813.08 6799.88 5726.66 4540.86 3062.43 5426.78 4767.78 5235.17 4340.76 4779.5 4435.36 6065.22 4221.28 4996.99 4470.61 4456.39 4631.83 6193.35 3701.27 5233.78 6008.49 4562.74 5776.57 4806.34 3942.07 5133.97 7443.72 6600.94 5371.02 5513.57 5260.34 5729.23 5206.48 6586.45 5934.22 3780.23 5826.04 5188.81 4359.62 3471.03 3745.84 5011.84 5696.88 5690.26 6057.22 4156.2 5062.71 6946.21 5433.8 4289.17 4497.59 5975.63 5564.02 4274.61 4410.55 6314.07 4190.31 3921.08 7055.42 5486.68 5683.61 5100.25 4049.02 4470.4 4611.53 5311.03 5255.12 4285.66 3872.61 4238.4 4318.48 3930.79 6132.95 4004.35 5266.22 4763.96 5226.97 5008.63 5754.18 4270.74 5132.68 6595.03 4983.39 4558.15 5366.52 4690.55 5146.37 7132.12 3678.08 4836.16 5518.57 5151.11 5730.33 5680.94 5545.46 4543.1 4376.7 5190.61 6550.44 3764.06 4642.93 3973.12 6642.76 6024.75 6109.49 5860.67 5987.42 5990.52 5652.0 2967.38 4835.83 5463.41 5225.33 4421.12 5254.49 4929.75 6045.22 6649.96 4896.39 6887.27 4384.88 3633.79 6081.14 5653.9 5480.83 4220.46 7144.24 5683.26 3600.43 5598.74 4906.82 4788.58 5131.24 6155.1 5196.67 4709.35 6496.67 5876.71 5226.0 5474.8 5624.49 5339.78 3095.48 4166.08 5762.59 3979.26 5960.66 6608.73 3999.48 4730.41 4203.26 3923.03 4004.04 5607.14 6915.83 6072.45 6444.77 4470.98 5083.41 5759.46 6248.6 5443.58 5805.86 3836.45 4558.46 5346.68 5020.71 5296.29 5997.88 2681.29 5839.71 5094.48 5576.92 6408.83 5365.24 5293.51 4446.06 3450.93 6293.89 5737.75 2761.07 3778.02 6552.21 5417.8 4350.12 5227.02 5670.0 4232.16 5300.96 4344.51 3781.77 5581.55 4707.06 5193.01 3474.5 3860.83 8325.01 5732.27 4440.81 4523.39 5941.9 5434.47 5829.22 4497.78 5567.93 5811.18 5332.65 3764.1 6451.33 5604.35 4159.35 6477.91 4237.98 3091.67 6439.37 4081.97 4614.3 4303.19 5401.99 5514.84 5421.53 4256.57 3914.2 4607.85 5937.08 4287.53 6070.3 5046.21 5612.21 4929.14 5128.57 5894.61 5945.08 5687.83 5004.23 5139.5 6442.69 6320.71 4648.04 4373.3 4750.78 6262.72 5029.78 3664.11 3365.82 4861.06 6481.79 5320.28 4569.12 4796.58 4298.67 4472.17 5873.69 4962.09 5654.31 5470.77 4643.85 6062.05 4735.33 5082.74 5411.85 3999.94 4844.57 5092.37 4027.46 3901.8 4864.22 5511.88 5941.61 4512.11 4933.65 6098.1 5708.99 5687.85 6333.29 6401.43 5731.57 5662.55 5737.92 4360.23 3755.95 6234.32 5889.35 4585.31 5010.04 4586.19 6625.18 5097.45 5323.91 5825.38 4185.61 4047.87 5099.21 5742.47 4917.99 5636.4 4367.78 4095.75 3603.51 5222.51 4076.59 6609.84 5135.96 3834.43 5658.37 6074.94 5491.37 4250.88 6348.03 3475.67 4792.39 5278.56 5146.37 6917.62 4814.12 5631.14 4243.79 6137.8 5433.65 4442.22 4887.76 5413.31 3012.99 4008.15 6316.56 4332.87 6420.81 4715.58 3317.83 5134.39 5580.92 5784.3 3532.3 5769.98 6088.68 2221.99 3583.21 4135.08 4643.56 5067.46 4863.01 5620.74 6000.7 5604.21 3979.54 4968.03 7493.3 5304.13 4814.55 5833.06 3527.05 6607.87 5698.77 4163.5 6515.84 5374.51 4123.6 4143.78 4538.95 7092.87 4970.88 5224.12 4850.14 3637.61 4471.58 5463.38 6098.14 5945.21 5750.71 3493.7 6222.42 4938.74 3474.39 4831.47 5516.95 6939.12 5563.79 4406.4 4413.85 6853.85 6171.13 3493.47 4020.4 2395.5 3497.9 4596.75 3374.08 5782.48 4031.78 2435.33 5950.04 4074.48 4231.83 3614.96 4558.47 4477.04 3886.68 5703.74 4747.55 5464.68 3056.7 5591.76 2685.81 4510.8 7509.24 4394.56 4570.98 5388.78 4275.07 6101.13 4573.72 4163.74 6969.28 4296.69 3665.95 5698.96 4298.45 3319.67 6471.42 5283.8 4428.14 5164.1 6016.19 6464.15 4124.49 4972.17 4479.11 6685.4 5699.53 4222.77 4850.06 3783.54 5268.38 6332.01 5527.23 7038.89 4805.33 3863.67 5980.95 4013.38 5067.56 3352.35 4343.78 2735.53 5263.3 4909.65 6523.86 4669.06 4811.32 6400.08 4743.59 4286.49 6184.88 5208.14 5829.32 4396.25 4450.7 3763.05 5973.33 5151.52 5092.24 5442.32 4347.74 4518.04 5291.9 4009.62 5356.79 3580.58 4874.18 5233.29 2081.58 4011.37 3169.67 4312.56 4612.06 5204.04 3361.92 5944.09 3306.14 5490.58 4863.79 5395.14 4702.06 3464.83 5117.47 5724.64 4923.41 2990.77 5965.15 4925.63 4763.66 4888.6 4666.81 6739.08 7042.12 4797.52 5501.93 6343.14 6313.06 5462.21 6345.13 5374.98 6470.3 5599.49 4200.03 4719.7 4097.57 5313.22 3436.15 5328.22 4151.76 4216.17 3905.51 4721.02 6484.17 4254.37 3546.71 4188.87 5768.57 4498.25 5564.23 3735.24 5151.21 5398.64 6574.95 6817.57 6853.04 3624.7 3420.08 4745.43 5831.96 4912.04 4691.91 4539.07 4475.83 5064.79 5480.3 3427.63 4146.81 5896.26 5756.75 4587.67 5951.81 5599.7 3924.14 6918.35 6238.32 6804.79 6372.13 5369.5 5404.01 5535.91 3230.13 5714.25 6176.67 5325.96 5412.24 5016.02 7044.29 4234.18 7085.01 4049.16 3936.95 6193.08 6153.94 6069.3 3862.77 5887.01 5116.6 5168.35 3747.03 2783.85 4356.49 7693.4 4326.48 4437.07 3994.07 3449.37 5491.9 6405.0 5551.95 5369.08 3918.87 3101.75 5549.49 5423.42 4766.06 2511.46 6605.86 2775.69 4778.82 6505.78 5657.36 6124.08 5467.84 5029.47 3619.79 4750.58 5053.95 6710.88 3967.48 2477.07 6667.68 3163.78 6213.04 4497.31 4305.16 3293.56 4721.32 5882.65 5092.28 4739.14 5078.86 4780.2 4918.77 5163.55 6326.39 4819.73 3382.7 6817.32 6471.55 5085.71 4319.79 6643.85 5960.56 5122.63 4020.95 5774.97 5862.86 6049.79 4390.41 5226.56 6113.95 5274.19 4050.08 4901.07 5452.42 5017.5 5186.3 5711.11 5005.85 4575.94 5325.44 5102.75 5021.88 4938.72 5956.65 4597.29 4200.09 5931.77 5108.06 4222.4 3573.73 4693.52 4000.43 4568.41 4661.03 5160.59 5262.35 4320.42 7165.9 4255.34 5344.83 7046.11 4863.97 6342.48 4840.44 5093.82 6639.64 5212.43 5454.12 4834.3 6348.54 4066.57 5642.35 5156.76 6357.47 6101.57 4891.38 4793.65 5955.86 4532.89 2949.12 4533.37 4848.46 5742.09 2779.99 5887.38 4581.37 4920.21 6942.34 5851.61 5478.11 3658.05 5526.31 6836.82 4631.99 3858.17 3477.1 4740.98 3185.39 5388.39 3728.18 5335.47 4526.81 5048.19 4219.94 5907.46 4264.91 4659.16 5399.29 5789.55 4633.05 4901.2 2275.45 6522.59 5012.5 6519.43 4785.25 5461.55 4270.15 5876.64 6306.21 3298.2 5926.11 5253.37 5235.11 5211.38 3830.46 6413.11 6031.67 5274.14 5529.42 4636.5 5257.12 4434.19 5100.1 4903.82 4940.42 3954.91 3703.1 4946.42 5923.4 4623.61 4082.47 3295.83 2965.01 6263.44 6235.57 4863.27 3492.19 4584.5 6766.43 4118.84 2315.64 5916.16 6934.37 4890.5 4703.08 4488.85 3981.07 3731.84 4579.69 3554.48 6496.52 5966.61 3991.42 4893.49 4388.63 4514.79 3672.21 4834.87 4509.89 5760.22 4795.43 5938.17 5097.95 5607.3 2928.82 4914.45 4698.87 5313.12 3984.88 5351.56 5318.53 3344.57 5220.76 4732.09 6945.98 4281.98 5138.2 5783.48 4449.98 4701.5 4504.35 4771.65 5012.97 4036.91 5589.37 5110.11 5439.49 6379.14 5216.26 3687.65 4887.52 5478.95 3851.85 6318.23 4058.87 4206.98 5174.75 5932.07 4984.46 5948.71 3856.53 5460.89 6040.74 5260.85 2884.65 5393.65 5807.46 4961.99 4648.21 4393.16 3311.29 3110.13 4549.69 5030.15 6423.81 6192.77 3644.78 4078.93 4312.15 5934.82 5128.77 4501.78 7122.87 3572.94 5633.61 4243.26 6799.23 5001.58 4153.84 4888.27 6740.71 4592.15 6487.56 4854.11 5971.22 4909.31 5417.21 5711.62 5435.19 4383.56 3562.79 4990.79 7093.13 6865.76 5424.46 6449.64 5266.01 5767.9 4857.84 6515.8 2978.76 2040.66 5384.76 7016.27 6138.12 6622.11 4428.78 4689.15 4965.89 6790.73 5746.28 4371.99 5659.95 5187.7 6090.91 5409.66 3561.29 4537.14 4152.85 5551.9 3867.19 4219.78 4963.34 5644.82 5499.39 4407.9 6413.02 4440.57 5203.08 5412.31 6736.03 5374.07 5548.29 3087.09 3623.87 7480.41 5163.77 6027.62 3423.15 5765.42 5010.2 6098.95 6123.03 4997.83 5148.08 3718.69 6192.0 4940.28 2216.82 5885.28 6752.75 6579.31 3004.34 5269.38 3022.6 5375.1 4811.76 4638.18 5498.42 6448.66 4196.37 3556.79 4453.97 7317.04 6412.67 7001.83 4593.7 4349.13 4891.67 6818.91 3503.65 3634.5 6631.28 6571.31 4392.65 5420.67 6413.15 6103.11 5048.55 6459.51 4024.31 4955.16 5844.72 3992.97 4147.31 5989.05 4054.22 7228.94 4441.22 5853.89 6551.93 4595.12 4386.8 6484.43 4625.67 3485.54 4458.64 4583.52 6418.11 6015.02 4922.49 5797.36 5585.14 7039.98 5119.86 4820.17 4729.42 5089.26 4901.44 5084.17 3886.72 5415.45 4998.22 3776.8 5533.19 5096.43 6156.21 6602.43 4798.17 3568.28 5425.98 5166.79 4953.1 2895.63 4516.53 5818.95 4093.99 3940.49 5079.22 4908.49 6464.8 4684.44 4962.21 5884.9 5089.62 3685.13 3685.65 4590.55 4673.35 5243.43 4741.26 3876.21 4655.16 5920.32 4916.22 4186.6 3701.16 6022.7 5251.4 4453.64 4345.67 4188.3 5081.78 5019.93 4459.28 3885.86 5235.29 6116.33 5453.3 4260.92 4479.94 6250.23 4435.51 4718.54 8659.64 4055.54 4588.7 6419.12 5683.95 3766.55 5469.13 6107.89 4233.8 4976.12 5530.49 4817.16 5453.98 5660.55 5653.03 5578.94 7610.49 4777.03 4246.61 4286.17 3684.56 5323.55 6028.09 3804.5 5452.36 4172.6 6486.37 5211.6 6083.28 5806.31 6100.73 4745.79 5456.71 3503.41 4908.75 6556.26 3971.08 6204.65 4482.9 5438.92 6550.4 3766.69 5036.98 5513.8 5188.53 4521.75 4027.63 3429.57 5569.2 5350.88 5410.33 4642.74 6735.97 5305.59 5416.45 4330.58 5754.6 3288.01 4904.51 2202.77 6870.97 5751.15 5950.88 4149.55 5474.01 6201.86 7554.58 3380.69 4140.4 3639.44 5446.4 4725.01 5966.75 5510.9 3657.69 4505.28 4883.63 4971.29 3492.83 6280.13 5244.22 3684.15 5832.29 4438.76 6006.89 6456.58 3814.65 4159.81 5244.98 5792.98 6592.93 6350.71 6104.26 6436.74 2460.79 5583.61 6063.64 5996.66 4986.71 4122.92 6479.39 4405.42 4997.91 3598.08 3604.14 4452.54 4599.81 5381.54 4749.59 4406.05 4858.44 4680.94 3468.42 5799.69 5828.35 5571.72 5876.72 5689.26 5869.4 4992.42 5297.19 7051.9 4940.84 4255.85 5895.77 5097.69 5511.6 4765.72 6261.75 4517.73 2908.7 5177.64 3757.34 4039.91 6415.61 4338.08 5660.16 4541.8 4255.31 6134.99 5191.08 5424.88 3838.47 2588.37 4062.5 4199.45 5887.15 5415.85 7234.66 4207.54 6599.66 4886.12 4936.96 4301.61 4481.76 3184.64 5206.33 4446.84 5065.26 4304.41 4892.44 3989.7 6789.23 4157.29 5107.0 6212.15 6813.72 5327.75 4609.02 4896.65 4532.7 5561.74 5975.23 4788.08 4198.94 5470.04 5212.37 4211.82 6003.78 2628.22 5684.25 4901.29 4244.49 4124.76 4050.03 4775.04 4120.07 4952.52 4882.66 3840.21 6746.66 4954.76 3908.56 4844.83 5244.78 6114.89 3636.15 5652.87 5483.7 5135.63 6384.7 4355.83 5952.38 3896.27 5351.86 6056.87 5230.02 5307.35 4342.18 6016.08 5166.89 5491.63 5725.37 3868.62 6102.98 5138.33 3743.76 3425.69 6711.21 5510.45 4730.14 2606.51 3994.39 4941.02 3864.92 6119.99 4618.73 2955.36 3965.3 3668.93 4128.1 4960.64 4983.3 4385.81 4034.05 5690.96 5798.38 4456.11 4653.83 3862.91 4125.9 5096.24 6171.71 7382.3 2995.67 4022.56 4668.88 5522.21 5810.77 5698.23 5089.1 7300.58 2711.19 4714.83 4028.32 5236.43 3809.69 4099.92 4771.13 3208.96 5285.07 3858.06 4680.14 4608.41 4184.23 4732.09 3988.3 4833.46 5857.79 5750.07 6136.49 4642.66 6543.13 5276.7 4752.14 5149.72 4378.3 5411.02 4950.97 5037.06 5175.29 5842.56 4094.73 6200.54 5148.58 3583.49 4652.01 3548.39 5421.64 3673.28 5052.84 4858.51 4366.74 3375.28 4603.5 5625.65 4647.67 4214.44 3629.44 5378.23 5375.12 4787.97 4981.43 5452.78 4356.36 3746.36 4741.28 4215.2 2603.64 4553.68 5069.89 2205.51 3894.64 5361.87 6502.97 3758.22 4783.07 4757.2 4946.23 4852.58 6816.66 4504.86 3217.67 4473.29 5034.69 5079.64 996.652 6163.54 6500.49 5965.58 5058.51 3352.34 4607.18 3899.7 2403.72 7200.89 4813.33 4147.49 4802.98 4833.55 3646.95 4081.34 7224.99 6334.53 5377.37 5869.67 4311.48 4899.73 5018.69 3152.86 6394.19 5973.89 5807.52 5963.36 5518.11 5087.14 5712.35 5169.48 5701.52 4743.9 4731.21 3124.7 6776.22 6064.71 3719.11 4467.13 6060.17 5153.18 4763.4 5902.67 4236.86 5393.76 5806.61 4983.1 6010.59 7123.04 3756.96 4009.24 5372.82 4446.58 4402.17 5401.4 7778.01 5127.82 5124.17 5805.1 5366.11 5039.12 3419.87 3628.89 3908.98 4824.81 6589.82 5027.43 3772.3 6328.42 4855.01 7307.21 5522.75 5474.15 3608.06 5867.64 6208.9 7519.2 4923.57 6633.61 4884.59 5217.95 6355.68 4478.6 4083.79 4511.7 4144.57 4304.63 4187.94 4351.38 5980.59 5933.7 5550.75 4809.67 5021.77 4757.74 4687.64 4356.25 5469.47 5036.58 4419.71 4888.12 4244.21 5512.16 4617.55 3197.63 4989.56 4287.16 3645.12 4863.96 5471.74 5199.44 4344.34 5713.03 5849.65 4928.27 5134.67 5775.31 4847.14 4165.21 5297.16 3332.49 4215.0 5354.66 3950.27 3566.79 5116.66 5003.78 5374.67 3299.24 6246.56 4061.6 5826.78 4508.18 5473.72 6214.73 2856.55 5175.89 3703.49 6618.21 4268.19 4374.74 3717.47 4062.56 6200.63 3205.68 4928.35 3844.54 5241.75 5849.53 4509.46 4680.69 3538.53 4420.11 6127.39 4972.18 5329.76 5640.12 5078.59 5134.33 5419.57 5162.67 5760.98 3629.49 4705.68 5469.35 5384.86 3835.81 4019.34 4749.96 4658.24 4906.11 4387.39 4564.1 5457.66 5509.51 4848.14 5366.22 6193.73 5254.24 3742.11 4192.21 3597.43 5144.56 4158.91 5311.55 3360.86 5321.17 3034.16 4869.25 5545.21 3877.8 4333.87 6273.6 3667.93 5136.87 5024.32 5454.11 4708.17 3779.45 2741.2 5790.42 5784.37 3142.09 5591.77 3682.35 5182.13 5906.57 7541.76 5053.15 4775.49 4681.29 5910.86 6239.68 3220.29 7320.78 4064.58 4834.44 4234.88 4384.28 5769.14 5944.3 3563.14 3381.82 3619.72 5347.9 4646.51 4438.58 3340.09 6059.93 4565.93 5602.53 6061.63 5484.36 4867.7 4829.35 3953.55 4063.9 4075.28 4277.24 5263.27 6834.41 7248.4 6300.92 3796.15 5161.1 5776.96 6045.67 5329.59 4209.49 4216.95 6119.63 5464.25 3821.94 4209.31 5486.48 3498.16 5439.9 4409.27 4752.9 5301.47 4588.99 4947.24 3875.05 4321.21 3540.11 3456.47 5950.45 5088.57 5580.34 3852.6 5966.42 5009.83 5131.15 5210.38 4110.59 4706.5 5717.8 4811.22 5210.75 3683.86 4474.83 4918.76 6555.44 4208.41 5293.75 5114.07 5730.61 7124.45 6358.93 5064.67 4383.68 5836.26 6666.67 5232.85 2617.39 4051.18 5144.44 5969.37 4583.94 5046.31 4337.32 1937.5 4731.53 4651.99 3763.9 5721.14 4788.7 4577.73 5863.0 5084.5 4918.64 6638.25 4815.47 4759.99 2646.13 4368.12 4365.58 5214.4 5193.58 4636.53 5399.43 5766.05 5117.64 3916.42 5429.3 4869.48 5510.96 3623.19 6653.07 4745.16 4697.91 5825.55 5071.98 5719.79 3199.4 4316.5 4371.08 7261.51 4968.14 4914.03 5086.29 5527.13 5139.18 4278.57 5551.43 5049.99 4201.03 5001.87 5684.05 5638.7 5813.79 4644.88 5293.13 7350.26 3768.46 5167.53 6110.48 5003.3 6245.52 4932.29 4990.23 5499.59 3784.94 5749.6 6016.87 3125.13 3845.9 4141.21 4439.71 5782.43 5667.51 4456.26 4708.31 5113.6 4027.33 3873.92 4198.9 4810.98 5431.29 5135.5 5026.76 5091.22 6282.38 5640.72 4546.44 4504.52 5851.63 7107.63 5727.79 5212.92 5073.02 4831.93 2279.05 6545.43 5788.97 6760.92 4989.2 4469.54 4023.93 4314.56 5868.89 8137.11 5291.05 3928.53 6650.77 6226.14 5466.33 5742.74 3946.28 5280.12 5984.81 7216.98 5721.05 5271.02 7013.17 3805.67 4590.01 5718.28 5367.73 4247.69 4640.06 4514.39 6242.79 6506.86 5391.48 6047.14 4803.57 4923.43 4568.64 5666.95 4642.2 4127.53 4548.45 4489.99 4945.0 4658.11 5658.14 4551.26 6570.35 4385.49 4242.63 4263.18 3269.54 7142.95 4559.74 6015.22 4454.74 6063.44 4826.52 2904.46 5120.92 6240.42 4685.4 5146.0 5914.5 6006.16 4288.45 5407.96 4987.28 4071.75 6206.98 6562.03 4410.82 6443.99 3889.98 7212.97 5490.64 5695.44 4507.46 3769.2 3422.21 5036.14 5603.68 4944.51 5610.95 5532.72 4584.81 3220.8 5179.17 5579.39 5270.51 5148.1 5490.75 5224.64 5949.73 3495.68 4312.48 5783.94 6370.33 5081.08 6318.25 6864.06 4493.79 4932.56 4279.44 4899.19 5058.34 4028.22 3918.94 5575.11 5487.63 3852.82 4507.36 7145.73 4168.52 5800.81 3954.77 6793.1 6715.73 5166.05 4506.66 4174.44 5515.73 5209.55 4564.41 6331.74 5951.86 4252.18 4833.67 5023.41 4659.88 5325.91 4092.07 5657.55 4184.21 4224.3 4700.07 5188.82 5615.84 3472.91 4464.73 4928.85 6440.38 5556.0 4711.04 5484.32 5007.21 7144.05 4173.54 5599.29 4619.2 4801.8 5606.51 6038.68 5740.65 4444.97 5046.12 3000.29 4807.4 2596.96 6349.67 4264.54 4350.15 3516.27 6329.53 4139.3 6541.45 4263.78 4601.74 6101.86 5078.31 4227.41 5228.75 5993.0 4807.35 6761.81 3903.91 5467.63 4728.55 4929.6 4554.68 3919.62 4368.28 5750.35 5984.8 3127.83 5236.24 4212.15 4585.04 5260.52 5678.58 6102.49 3185.09 3469.18 2945.34 5495.0 5114.23 3372.95 4489.29 7407.91 5064.23 5846.95 6061.85 5268.15 5512.44 5819.0 6449.06 6347.72 4924.07 3460.93 4629.02 3200.6 4927.73 4602.57 3763.85 3565.32 3419.07 4608.62 5710.33 5344.44 4626.72 3186.07 5131.77 4369.86 5549.71 5482.76 4967.51 3745.02 5173.82 3720.7 4211.36 5698.53 5034.34 3856.73 4450.49 3468.45 5635.32 4526.34 4316.45 5042.75 5409.08 4598.92 5241.22 6647.08 4979.52 3422.29 4407.79 5214.63 4537.03 6548.29 3990.96 5352.24 7362.42 4202.77 5793.12 5836.14 5473.05 6008.81 5537.34 5192.49 5884.99 3487.31 5726.42 6643.4 4674.9 3392.26 5461.72 2549.95 4361.24 6599.28 6224.85 4556.19 5403.97 4795.08 5106.46 6562.92 4068.31 3671.06 5077.29 7035.54 4850.5 5426.4 5763.05 5129.68 5357.39 2820.07 3791.41 5076.84 5853.12 5247.01 4213.05 4208.37 5157.38 6203.03 5235.87 5273.37 952.938 5043.14 5473.89 4717.73 4732.37 6089.45 4985.3 5072.5 3904.07 3274.85 5713.36 5748.9 4506.18 5545.59 5166.41 4824.12 6542.5 7104.73 5067.56 3834.47 4834.39 6162.3 5701.75 3272.75 4057.17 2781.96 7066.96 5262.47 3512.94 4467.0 5261.19 7043.44 3104.96 3831.52 4263.65 4750.49 4643.9 4258.98 5196.92 6106.43 3787.08 5644.81 6545.99 5334.36 2918.64 5630.9 6139.64 4140.92 4512.07 4692.32 4756.8 4896.43 5463.06 4176.32 4639.8 3986.41 4241.68 5532.75 6949.65 4095.83 5695.25 5676.61 4301.93 5796.26 5716.42 5701.63 4620.95 5368.93 4488.39 5124.86 7168.2 4571.74 4096.86 4796.12 3622.48 5001.51 6432.8 5115.42 4082.4 4930.72 5728.58 4887.73 6297.99 5378.24 3604.31 5817.74 5887.71 5661.6 4827.61 5285.75 5385.03 5481.64 4169.15 5673.75 5360.67 5968.54 6263.3 4501.05 5592.54 3247.97 5124.34 4114.2 4326.06 5034.46 4651.64 5757.29 5016.46 5469.17 5061.75 4373.2 3769.24 6022.78 4087.32 6647.85 7025.09 4433.12 7336.37 5138.93 6406.8 5368.66 5648.78 5501.73 6875.73 4697.24 5226.42 3612.44 6081.3 4983.43 5117.52 5233.76 6311.89 5866.91 4683.28 6405.69 5679.74 4851.18 4825.73 4165.36 5288.33 6296.54 4841.7 5797.21 5702.4 5685.74 5069.9 6740.35 4678.7 3673.6 5810.17 3306.84 5265.21 4966.07 4657.24 4400.14 5553.94 4749.18 5494.28 4704.92 4067.96 5610.53 3663.0 2970.9 4099.26 5206.47 6304.49 4580.06 4383.47 4608.34 3926.11 5971.21 5493.89 5695.79 5464.83 3622.8 4589.06 4770.51 4920.88 5414.58 4184.47 4431.23 4991.35 4994.65 4587.7 5740.98 5601.55 4346.07 4462.87 4012.92 5759.79 4598.54 4013.86 4177.47 4816.51 5218.42 4218.16 4933.49 5345.73 4770.63 4841.23 3990.94 4357.11 5477.8 5486.89 4462.35 4549.51 6069.78 5196.08 3587.93 4975.85 4517.29 4495.75 5323.95 6171.01 4468.26 5578.18 4603.04 5106.33 4870.94 5293.37 5271.88 6121.56 5879.24 5740.78 6824.53 5997.91 5385.86 4742.82 6791.86 4209.0 6031.22 5485.84 6424.77 5453.69 5918.95 4538.89 5689.56 6556.86 3242.31 4898.29 6099.28 5372.25 3234.26 4830.13 3494.16 4778.37 5370.9 5134.17 4074.16 4904.35 6172.27 5390.33 4904.37 5078.73 4358.81 5278.54 5729.0 5729.92 5275.57 4179.87 6224.13 4761.84 3661.67 5517.65 4009.68 4622.73 2569.12 4161.32 5161.74 5256.75 5099.9 6945.69 2960.5 5118.86 4298.7 7086.69 6170.9 5833.78 4436.48 5758.98 5615.35 5288.64 3967.76 6734.39 4217.36 6549.8 5942.45 4150.76 5005.72 5368.52 4871.77 5811.26 5062.77 6019.35 6075.99 6028.63 3450.07 6215.87 4550.92 5191.26 5866.42 3669.32 4762.1 3742.31 3987.69 4954.81 4316.0 4546.96 5424.55 5755.15 5134.72 4921.1 4271.07 4835.97 3814.16 6419.64 4420.6 4191.01 5287.25 5340.05 6506.63 4140.04 5995.4 4668.8 3495.3 5577.41 5917.34 6511.37 5322.11 4216.44 3999.5 6710.14 4726.2 5034.05 4426.02 4711.15 3825.48 4658.59 4474.39 5459.92 5188.22 3810.68 4196.62 2804.54 2809.19 5005.6 5589.53 7208.19 5025.42 4965.24 6379.38 6257.79 4849.5 5438.55 6229.83 5353.23 4523.81 5065.74 5791.25 5198.94 4873.23 5933.54 5559.79 5464.05 2980.31 5453.2 3148.79 6348.93 5136.51 4332.64 5232.16 4422.23 4820.68 3989.26 3618.64 5703.84 4335.79 3530.82 5797.32 5432.04 4886.99 3921.27 3702.45 3161.1 5265.63 4431.06 5684.88 6523.78 5730.2 5620.88 4941.52 4529.77 5900.0 4325.13 4262.74 3783.79 5317.19 4248.14 5279.19 4016.6 5192.92 7050.08 4786.66 5891.25 5370.1 5129.4 5114.51 3303.49 3720.38 4655.37 5585.25 4731.37 5023.61 6351.89 5932.28 5560.23 4975.32 4183.4 5237.55 3902.48 4304.64 4733.79 4905.53 4823.06 3799.01 5254.49 6213.24 3757.23 6828.8 5987.88 4228.53 3579.59 6123.46 6142.88 5155.28 4461.14 5111.26 5388.73 5285.6 4574.54 5205.38 4949.55 4884.93 4764.83 4600.71 5262.79 3957.38 5927.2 4494.15 5035.71 5146.1 4419.79 6485.77 6060.06 5407.69 3869.39 5544.27 5960.5 3484.81 5308.33 6502.99 4287.25 4392.75 4666.12 4685.65 6219.34 6023.07 5674.63 4475.38 6470.23 5939.22 4215.05 3626.86 6371.96 5890.25 4271.93 5125.17 5700.79 4697.49 5735.08 7133.44 4750.81 3953.26 4282.11 5467.51 4625.53 2347.41 4096.47 4542.16 6478.35 5114.67 5453.77 5353.66 4916.7 4104.04 2638.82 5030.33 5593.79 5104.39 5234.2 4612.13 5846.6 5327.05 4109.44 4903.84 4290.49 4434.65 5977.66 5209.5 6175.27 5876.51 6731.89 4028.35 5410.6 4733.41 4969.68 5264.83 3901.53 5431.14 6815.51 5313.86 4457.05 5178.07 5189.91 5777.26 4171.02 6119.0 7012.36 5028.06 4002.99 5587.3 5159.67 3572.73 5764.52 3770.22 4390.64 5150.84 4645.86 4045.67 5087.97 6005.95 4308.49 4930.17 4581.1 6241.77 4745.44 4085.96 5762.82 7360.12 6223.98 5821.49 3035.06 5617.29 5580.44 4262.19 5998.13 5095.52 4746.15 6275.25 6892.33 4758.84 4505.3 4452.36 3976.0 4068.41 4672.86 6530.78 5059.37 3043.77 5783.38 4139.39 6264.03 3909.94 5088.64 6030.39 3562.8 6589.8 7392.65 3729.16 5319.1 4181.93 3038.91 3922.28 6570.43 6883.86 6161.94 3350.99 4979.5 4065.28 5057.59 4745.37 5939.29 5418.98 5575.11 5615.06 3132.34 1969.87 4841.28 4047.95 5507.38 6889.5 4710.88 4416.87 5300.17 5152.78 4117.9 5393.43 5534.23 6896.55 4753.76 4638.09 6025.77 4441.91 4781.9 5377.01 5330.26 5339.6 5828.25 4725.11 5418.12 5934.05 4604.1 4714.66 4859.01 5322.07 5076.11 5524.45 5990.75 5600.21 4656.01 6589.13 5602.62 4037.86 5714.51 3543.37 2030.03 4938.33 5628.97 5527.27 5157.73 5847.91 4541.22 4946.08 4934.66 3539.68 4984.01 4696.03 6217.33 4605.39 4557.1 6688.53 5927.1 6500.45 4907.55 4103.76 4286.61 2932.52 4603.66 4757.87 3557.46 6636.43 5971.95 6298.8 3979.46 3689.24 6321.97 5151.19 6509.54 3792.06 6079.55 5128.59 4993.49 4293.3 5310.33 6583.37 3688.83 4864.38 3402.44 4848.98 4491.96 5184.98 4608.01 4467.51 5339.82 4519.03 5460.57 5110.27 5703.34 4612.68 6668.98 6649.52 4232.33 5462.6 4747.68 5770.92 3093.38 4597.88 4845.91 4878.93 2002.78 5631.32 6322.0 5793.14 4491.26 4511.34 4832.21 6463.71 4742.35 5394.79 5645.54 5264.08 4526.87 4151.74 5192.82 6920.92 4174.22 3783.36 3573.84 4067.89 6294.09 4571.57 3445.92 3820.19 5236.69 4586.82 6026.04 6200.05 5859.17 5490.54 4052.49 4034.41 5203.54 5061.74 6189.67 5326.03 6142.94 4948.96 5001.69 5117.83 5256.82 6581.56 4052.43 4057.4 4061.87 3980.46 4896.67 5383.9 3934.11 5158.44 4466.22 6815.96 4496.51 6153.71 5917.08 5483.37 5259.21 5092.93 4256.08 2803.01 5881.93 4444.0 4399.52 6771.18 5770.07 4984.17 5101.6 5910.66 5327.39 5781.62 4138.59 4981.81 5141.03 4970.55 8123.59 4484.78 4819.83 4621.33 5765.14 4767.54 5121.08 2927.84 5688.77 6177.68 4698.7 6229.64 6270.59 2848.44 6045.26 6263.87 5743.8 4094.63 5084.76 6605.11 6834.92 6379.33 5130.57 5652.73 5402.45 3985.93 6412.84 6071.59 2589.19 3856.4 4696.06 5485.61 4937.36 5308.4 6581.13 4569.32 5537.61 6084.88 4397.06 4199.44 4053.12 4479.5 6261.67 3435.13 5065.78 4431.46 4521.42 3207.84 3977.98 6043.34 4939.56 4959.72 4128.93 4712.17 3808.04 4723.71 4461.67 6126.5 4034.88 6007.1 6345.2 4609.65 5704.61 5009.21 5410.73 4379.91 4574.03 4942.63 5290.37 5850.38 4227.66 4691.01 4730.97 4594.89 3677.85 5245.95 5821.42 4515.02 3463.53 6126.03 5131.07 4121.07 5524.28 3133.28 5105.54 5731.43 6353.81 3414.67 3518.14 4150.44 5522.34 5771.98 4420.35 5899.78 5717.45 5772.57 5268.27 4813.81 4013.86 5165.31 4645.93 4585.37 5448.64 5901.8 3798.09 6417.61 4288.5 3886.56 4511.05 5783.69 3456.3 6561.94 5317.83 6738.9 4460.89 4157.1 8052.53 4554.24 3939.96 6182.19 4867.12 6044.01 7415.84 4637.3 1458.87 5734.07 4840.44 3997.68 6033.28 6286.27 4801.16 5071.38 5616.66 4802.36 5368.28 5466.13 5257.38 4220.43 5075.23 4975.56 7282.36 6666.34 4645.91 5581.01 4125.75 5749.53 5247.73 5090.48 5034.02 5582.28 5945.25 5181.31 5985.75 5475.83 4137.16 6189.29 5984.55 5803.3 3228.27 4721.98 5252.82 3543.98 4142.1 5056.26 5878.55 4014.44 6604.72 6002.77 3794.47 4610.55 4967.02 4614.49 5400.69 4462.5 5573.31 5004.68 4023.88 5348.11 4405.61 5428.24 5108.84 3511.5 4520.14 5067.92 5488.96 5357.14 3188.21 5128.03 3720.92 5087.3 6139.74 4975.57 7066.26 3057.3 6150.31 5214.71 4811.11 4677.84 4996.91 4924.52 5379.52 6044.69 4866.8 3768.62 2970.24 5658.05 4197.87 5462.1 6593.1 4066.36 4000.51 6032.45 5444.36 5011.37 2827.92 4026.03 5044.68 2649.69 6908.32 5000.74 3467.11 4817.75 6153.26 5637.53 5244.95 4439.09 4634.25 3882.37 4095.4 5188.57 6351.48 5715.51 5395.12 3721.69 6074.39 3830.7 5350.9 3483.61 4262.52 7430.48 5992.06 5545.68 6080.69 4970.12 4967.93 4766.47 6369.66 6520.19 5973.57 6241.48 5922.62 5125.45 5957.82 4188.16 3717.22 6327.54 5507.07 2943.17 5286.55 5327.71 4880.78 4322.56 5509.09 3873.72 5625.02 4592.49 5212.05 5479.86 4829.77 3826.01 6474.5 3928.99 4444.92 4763.04 6959.88 5971.9 3746.62 4532.67 4876.37 4769.62 5260.13 4649.5 4810.74 3900.93 5784.38 4149.17 4329.8 5728.27 5672.46 3074.49 5202.33 3956.24 7558.99 3393.59 5043.14 5333.04 5445.91 4812.59 4521.99 6842.54 2853.68 7115.67 5675.45 3361.11 5329.84 6038.56 2807.46 5599.16 4179.8 3488.34 4577.98 5658.35 5886.81 4487.51 4582.12 4295.25 7394.47 4729.45 4850.95 5919.27 5374.09 4793.06 6637.38 3421.81 6188.33 6111.23 6916.18 5786.06 5873.62 3868.69 3920.44 5447.74 4450.51 5314.67 6033.72 3851.47 4966.74 5563.47 5651.46 3162.27 6033.93 5516.37 5092.44 4441.44 4232.44 4612.4 5336.61 3312.3 5563.09 4848.15 3282.57 4798.13 5523.81 4718.61 6697.45 3873.79 5717.67 5357.33 5252.37 6210.0 3224.81 5432.4 4499.54 5037.58 6457.89 5640.67 6572.17 3751.73 5555.89 3374.62 4926.62 4871.1 6009.93 5678.08 5872.45 5270.1 4414.09 5130.56 5191.29 4947.64 3784.68 6305.9 6649.21 4654.92 3470.69 4859.95 4132.08 5522.18 5223.1 4850.49 4981.55 5144.23 3625.98 6188.62 4702.32 5908.57 5944.52 4413.56 5050.2 2513.38 4821.41 5316.05 4924.53 4908.32 3995.08 5019.84 3874.12 4028.13 4457.73 6476.35 6260.58 4067.24 3053.19 6571.26 4313.38 5580.95 6598.99 3549.92 4032.06 5250.56 5246.81 2468.16 5089.1 5888.95 5394.78 5203.75 3463.34 5169.09 5122.38 2459.88 5262.85 4998.37 4210.24 5470.67 5901.71 6559.82 3879.83 6565.95 5733.12 5043.34 4246.24 6805.02 5354.48 5640.63 4900.26 6261.13 4167.55 4720.34 6271.22 5244.47 5378.75 3920.64 5510.89 6186.24 5822.7 4137.41 3780.07 4159.89 5466.49 4038.17 5007.41 4907.48 3692.99 6213.74 4959.94 1635.31 5639.4 6185.73 4083.24 6520.96 5432.2 5217.62 6178.19 4746.19 6381.58 5212.2 5648.59 4611.21 5108.42 4630.5 6296.36 3354.94 4432.32 5515.59 5237.27 4451.76 3775.38 7885.41 4046.22 4104.97 4844.2 4575.72 4081.77 5114.61 6118.13 4420.3 2181.29 6332.64 3917.09 6492.44 4083.1 3482.73 4613.32 5145.39 3996.93 6351.95 4957.99 4063.26 4542.62 4997.89 5093.28 6131.52 4311.92 6009.88 4699.77 5093.41 6842.35 5464.34 3621.63 6153.07 5801.89 4414.06 7296.47 2613.78 5742.39 4780.16 5738.37 5616.11 4433.23 4499.52 4813.24 5759.19 3113.64 4490.2 4304.75 5480.86 6139.9 4720.22 2832.83 5827.3 6036.99 3010.1 3633.58 3825.98 6294.14 4589.22 4339.97 5087.03 4667.84 3906.41 4691.15 4512.6 4260.38 4636.45 4932.27 5225.11 5342.9 5252.22 4962.35 6436.29 5402.81 4600.81 4919.13 4124.33 5168.97 5783.88 5002.38 6705.93 4865.11 4731.16 5502.14 6470.87 4495.33 5282.67 5747.9 5178.55 5146.69 6203.24 6818.23 2329.93 4488.41 6938.87 4369.87 5412.07 5512.57 4806.99 4813.55 3771.91 5856.43 3465.03 3839.0 5349.85 4616.81 5715.25 4362.94 5172.1 6052.22 4469.82 6545.78 4404.87 4870.14 2932.2 5105.72 5767.65 4750.76 5782.25 5497.27 5617.91 4948.21 4987.01 4202.12 4706.31 6265.48 2694.25 4735.99 4203.68 4739.56 3352.46 4701.03 6225.05 5434.04 5195.09 5200.1 5345.05 3997.52 7679.2 4881.51 4909.74 2626.41 5310.33 6729.99 6664.54 3922.98 5161.73 5259.48 4777.96 5254.93 6833.5 4803.4 6608.94 3796.73 5417.07 3834.01 6789.66 4739.41 5312.2 5847.27 4706.59 5734.84 3982.31 4950.07 4582.24 4474.96 4084.87 4790.63 5259.29 3584.05 4916.75 4818.53 5097.85 5584.64 4123.08 6189.04 6224.64 4221.03 3799.55 5638.51 6793.49 3563.33 6060.19 3550.88 5536.0 6786.37 4333.23 5145.13 4328.76 5561.63 5940.5 4358.06 5093.51 5647.93 6201.49 5449.09 5154.74 4605.61 4465.56 4131.08 5386.95 3864.19 4287.93 5332.11 5315.71 6158.93 5081.65 4823.14 6679.12 5652.19 5806.74 4621.32 6578.62 6284.12 4796.04 5229.56 6011.4 5799.86 5263.86 4672.34 5056.32 5376.41 5533.52 5003.63 4695.7 4944.08 4082.01 5003.49 5269.39 3964.03 4907.03 5832.72 2451.27 3903.9 4444.95 5606.22 4721.2 3943.77 5161.02 3124.49 6081.35 5003.81 6262.18 3818.37 5663.36 4276.59 5579.04 5125.53 5994.21 4444.54 5403.81 5779.9 6964.78 5299.03 5036.84 4565.36 5813.68 4025.08 4008.67 3618.53 4770.21 8013.28 3846.55 5283.65 4644.68 2892.36 3082.16 5656.84 5911.29 5416.41 4694.27 4414.23 6760.64 2515.5 5177.88 4849.21 3793.83 5551.79 6981.47 3916.15 5367.05 4758.76 5647.11 4088.72 3945.62 3743.85 6236.46 5342.17 6379.3 3795.63 5189.4 4576.71 5082.66 4550.77 4894.15 4337.93 6157.59 5201.3 4345.51 4048.73 6223.33 3860.8 5438.6 3747.96 5611.29 4521.88 6568.45 5004.22 4280.92 7263.57 4696.92 5705.96 6437.99 6898.8 6632.04 6540.57 4893.72 6004.72 4072.4 4983.56 5373.78 5345.65 5438.5 5863.36 3878.8 5699.4 4698.94 5237.76 4286.84 3948.21 6423.96 5669.15 5296.05 5894.69 6988.4 3330.85 6635.51 4060.17 5410.33 4747.24 4380.86 5302.53 4909.13 5576.16 4287.61 4305.35 5648.02 5210.22 3308.75 4216.33 4439.17 5677.42 4929.35 5051.39 6673.92 5242.38 5151.68 5459.52 4884.94 5566.5 4609.98 4738.72 4752.31 5240.97 5569.85 5405.6 3929.35 4884.93 5082.25 4759.38 4287.15 4374.05 5282.51 5504.65 5669.41 5732.11 5040.9 5596.68 4868.66 4004.39 5159.9 4987.48 5943.61 5981.54 5479.17 5020.37 4542.25 5233.88 4785.55 5245.4 6189.81 4449.73 5015.67 6538.04 5848.41 4090.28 4246.83 7370.52 4726.5 5467.05 3724.23 5103.3 4963.88 4601.54 3832.09 5175.88 5267.65 5739.69 3509.34 5360.88 7360.62 3166.37 4977.64 4985.45 5205.53 5699.51 2489.44 5499.37 4489.18 4883.13 4632.75 4752.94 4994.98 3950.53 6058.13 4501.1 5581.47 4384.91 4987.01 4713.56 6051.35 5543.67 3999.81 4867.13 4604.34 4863.27 2701.42 4502.12 5442.79 4633.59 5733.59 5575.8 5362.15 4455.61 3695.72 6874.6 5106.9 5306.31 5523.96 4223.53 4733.37 4535.94 6960.97 3037.72 4523.9 5126.08 5604.0 3760.4 4951.02 3919.47 4602.7 3783.35 4037.16 6395.63 4248.58 5888.94 4727.98 4122.2 4516.26 4790.16 3647.26 3731.58 5369.42 5207.08 4714.52 4587.19 5543.05 6028.89 4836.76 5333.16 5551.09 5755.98 5392.85 5077.2 4274.05 6550.61 4277.54 5529.09 6094.34 6779.82 5448.68 4739.5 6210.48 6377.45 4182.05 3255.93 6853.07 6327.61 5268.93 4888.17 5275.27 4531.46 5925.82 4072.95 4491.62 3865.5 
SCALARS Velocity float 1
LOOKUP_TABLE default
1.52239 1.52806 1.52418 1.50532 1.53185 1.54406 1.60201 1.56253 1.51388 1.52664 1.52621 1.51851 1.51579 1.51794 1.52404 1.52095 1.53177 1.5077 1.54387 1.50048 1.55842 1.59165 1.53072 1.54309 1.52908 1.57617 1.56387 1.53073 1.52879 1.52112 1.53005 1.53254 1.52007 1.5167 1.51761 1.52719 1.54027 1.52307 1.56407 1.53698 1.48908 1.50493 1.54294 1.55535 1.54104 1.53461 1.5212 1.57454 1.5223 1.5252 1.52024 1.5195 1.5172 1.52524 1.53102 1.53089 1.52294 1.51657 1.51771 1.52907 1.53174 1.5459 1.55052 1.47081 1.44376 1.5367 1.54374 1.55176 1.54309 1.52992 1.52744 1.52065 1.51542 1.5218 1.5225 1.52058 1.52146 1.52206 1.52862 1.52357 1.52846 1.52252 1.51629 1.53129 1.54532 1.55236 1.55013 1.53849 1.52813 1.50255 1.47295 1.49629 1.45208 1.54364 1.30192 1.55285 1.53703 1.5265 1.52251 1.52293 1.52134 1.52119 1.52124 1.52076 1.52337 1.52079 1.51689 1.51993 1.52089 1.5158 1.51506 1.53154 1.53148 1.55355 1.54555 1.53829 1.51107 1.5224 1.48748 1.46465 1.5435 1.53475 1.5281 1.52717 1.53446 1.5235 1.52184 1.52131 1.52113 1.51617 1.52008 1.51559 1.51744 1.51442 1.51291 1.52986 1.53839 1.54757 1.54127 1.5405 1.53641 1.5221 1.50295 1.49642 1.4886 1.47695 1.53324 1.54241 1.52903 1.53048 1.52775 1.52314 1.5227 1.52172 1.52309 1.52154 1.52458 1.51734 1.51553 1.51413 1.51762 1.51601 1.51783 1.5119 1.50984 1.51041 1.50785 1.52778 1.52598 1.53078 1.52309 1.53567 1.53773 1.53633 1.50257 1.4705 1.53088 1.49371 1.46105 1.54702 1.53193 1.52902 1.52917 1.53195 1.52191 1.52306 1.53108 1.50975 1.51548 1.50983 1.50772 1.50713 1.50524 1.52349 1.51917 1.52154 1.53011 1.51042 1.45218 1.39358 1.56707 1.44248 1.52416 1.5385 1.53308 1.52881 1.52785 1.53593 1.51775 1.487 1.50013 1.50283 1.50721 1.50805 1.50581 1.50357 1.5017 1.5187 1.51427 1.52276 1.51842 1.53775 1.5292 1.56476 1.4217 1.40437 1.48333 1.7083 1.45824 1.49863 1.52751 1.50496 1.52951 1.53119 1.53 1.53863 1.50027 1.4985 1.50317 1.50176 1.50282 1.49869 1.50296 1.50008 1.49807 1.50999 1.5262 1.51499 1.53531 1.51334 1.53336 1.51283 1.50063 1.18795 1.71934 1.4886 1.46585 1.48207 1.51437 1.52759 1.53091 1.53079 1.53183 1.53039 1.51905 1.49684 1.49835 1.49953 1.49447 1.49622 1.49362 1.49247 1.49024 1.50209 1.50101 1.49202 1.50916 1.47418 1.34895 1.41804 2.02447 1.65314 1.65322 1.50699 1.50533 1.47014 1.50796 1.49689 1.50297 1.51303 1.52264 1.53014 1.51988 1.50304 1.49496 1.4969 1.49595 1.49462 1.48779 1.48897 1.48399 1.48006 1.49656 1.49093 1.48671 1.45244 1.4905 1.48582 1.55668 1.48974 1.47108 1.4562 1.51031 1.5126 1.51986 1.51895 1.52872 1.52733 1.52062 1.50483 1.51219 1.49963 1.49216 1.4918 1.48772 1.48692 1.47921 1.476 1.46208 1.46939 1.48668 1.4804 1.4777 1.47187 1.46209 1.4565 1.46579 1.47121 1.4857 1.5043 1.46647 1.45593 1.47775 1.46407 1.50801 1.48192 1.5059 1.52128 1.52518 1.52775 1.52846 1.5276 1.51552 1.50591 1.49696 1.49075 1.48698 1.48155 1.47844 1.4669 1.46063 1.44519 1.44998 1.47358 1.46307 1.46698 1.44845 1.45638 1.46421 1.43677 1.44737 1.47574 1.49565 1.49248 1.4971 1.47755 1.46694 1.47568 1.48657 1.5051 1.49417 1.51944 1.5301 1.52887 1.53574 1.53257 1.51829 1.50504 1.489 1.4802 1.47535 1.4581 1.44545 1.44594 1.42231 1.42704 1.19178 1.4677 1.46426 1.45406 1.45466 1.44086 1.43032 1.42459 1.42112 1.46372 1.429 1.49755 1.50006 1.48513 1.46923 1.46421 1.47909 1.46173 1.46866 1.5201 1.48213 1.5334 1.53821 1.5474 1.5458 1.59756 1.52507 1.48395 1.49025 1.48202 1.46913 1.47155 1.4724 1.46595 1.43707 1.41426 1.40706 1.39276 1.40101 1.37186 1.46568 1.44537 1.44371 1.43108 1.42317 1.40691 1.40325 1.45703 1.42104 1.44033 1.48633 1.49403 1.48171 1.49219 1.47616 1.458 1.46471 1.4513 1.46287 1.45289 1.45312 1.47769 1.55572 1.58772 1.77924 1.48653 1.43483 1.46228 1.45728 1.46328 1.45918 1.45593 1.44726 1.42217 1.38791 1.38359 1.3683 1.34855 1.46963 1.43714 1.41589 1.38525 1.3937 1.36467 1.39873 1.366 1.41676 1.49084 1.49326 1.44102 1.47549 1.44511 1.44788 1.44293 1.43026 1.43087 1.46082 1.42158 1.64501 1.65584 1.15399 1.40215 1.54311 1.47983 1.4587 1.44628 1.43097 1.44002 1.4253 1.44027 1.3609 1.37692 1.3992 1.32931 1.32998 1.19178 1.47296 1.51152 1.4647 1.40441 1.40562 1.34695 1.33687 1.45987 1.41875 1.51794 1.48551 1.43748 1.43876 1.40491 1.4119 1.53031 1.42262 1.53115 1.47387 1.52495 1.77295 1.58641 1.45872 1.39868 1.53169 1.49689 1.49073 1.46086 1.45559 1.45046 1.4321 1.48843 1.45936 1.4215 1.45353 1.53872 1.36082 1.40635 1.37014 1.44358 1.19178 1.80067 1.46723 1.45496 1.50512 1.4565 1.40572 1.49356 1.28582 1.56063 1.49603 1.41575 1.44835 1.4021 1.38347 1.44065 1.19437 1.5286 1.46665 1.44937 1.34408 1.38409 1.3973 1.36217 1.45999 1.42025 1.46402 1.50373 1.4724 1.65524 1.75682 1.33358 1.34301 2.79683 1.9587 1.78453 1.69701 1.56342 1.57764 1.55577 1.55444 1.25051 1.18468 1.44625 1.4134 1.44149 1.3419 1.31658 1.30973 1.39072 1.35926 1.37635 1.28609 1.62763 1.59579 1.45609 1.40708 1.39968 1.35994 1.33854 1.35644 1.4149 1.39784 1.45797 1.5561 1.63699 1.71587 1.77278 2.27964 2.49123 0.508476 3.06125 1.80419 1.21551 0.608891 1.10662 1.23881 2.63572 2.12864 2.09338 1.77382 1.605 1.55609 1.56888 1.19111 1.50752 1.49294 1.37493 1.32133 1.2678 1.337 1.26168 1.31734 1.23848 1.35813 1.41117 1.36805 1.37104 1.4115 1.3903 1.35339 1.33735 1.31459 1.38347 1.33783 1.47682 1.57222 1.60449 1.6939 1.48339 1.42497 1.59235 2.29273 1.75245 2.09005 1.7541 1.43227 0.919788 1.15227 1.03887 1.08151 1.06377 0.824835 1.08349 0.865757 1.24626 0.927325 0.960634 1.15586 1.41064 1.39245 1.53367 1.34057 1.56027 1.4214 1.50242 1.54944 1.45863 1.35713 1.35106 1.10553 1.29123 1.24202 1.23174 1.28069 1.24469 1.27525 1.27862 1.30076 1.29738 1.34707 1.34448 1.32678 1.29742 1.33731 1.30386 1.28613 1.30889 1.33729 1.27732 1.35922 1.64235 1.45719 1.08345 1.225 1.12948 1.1055 1.18809 1.19921 1.10862 1.19665 0.794563 1.28568 1.1031 1.11024 0.942796 1.08264 1.0317 0.990986 1.00035 0.985938 0.967261 1.0469 0.995676 1.0684 1.11437 1.25019 1.13128 1.18484 1.22792 1.06957 1.17049 1.49365 1.35336 1.36104 1.31517 1.24149 1.16519 1.60726 1.43881 1.40422 1.12904 1.34403 1.20392 1.20691 1.23407 1.22879 1.26871 1.21524 1.24819 1.19282 1.42369 1.23503 1.2862 1.26027 1.18064 1.16201 1.30403 1.29129 1.26591 1.28201 1.31562 1.12362 1.27586 1.34465 1.41586 1.27008 1.4747 1.47571 1.29039 1.26729 1.33562 1.45217 1.35414 1.2072 1.21753 1.02372 1.32986 1.0483 1.32424 1.0489 1.09924 1.19192 0.990601 0.989527 0.97875 1.01839 1.00229 0.960945 0.957065 0.949386 0.925113 0.929842 0.933122 0.948635 0.932344 0.979475 0.994276 0.979989 0.967588 1.04112 1.10298 1.04269 0.99458 1.10909 1.02952 1.23686 1.18538 1.10415 1.1216 1.15538 1.25967 1.27438 1.35177 1.31339 1.40217 1.51786 1.32488 1.13991 1.12002 1.06431 1.11105 1.11003 1.19611 1.18546 1.15367 1.03652 1.21468 1.24302 1.36753 1.2759 1.24371 1.24383 1.41411 1.33776 1.28468 1.266 1.22507 1.25497 1.21934 1.45581 1.57255 1.38528 1.40077 1.2184 0.973551 1.26953 1.21847 1.19193 1.22463 1.01341 1.05363 1.32199 0.947445 0.891062 0.924738 0.933264 0.952997 0.939161 0.931672 0.922572 0.931658 0.923138 0.917619 0.913863 0.886667 0.900375 0.932143 0.924851 0.898791 0.913944 0.93172 0.885605 0.939013 0.917907 0.930074 0.941135 0.987485 1.11132 1.01517 0.964579 1.02883 1.06822 1.27728 1.09734 1.13963 0.620855 1.30994 1.08282 1.00611 1.17312 1.41292 1.05443 1.11909 1.13447 1.08274 1.07403 1.07858 1.02159 1.20422 1.08328 1.14759 1.1638 1.07944 1.25834 1.03516 1.09597 1.04149 1.25542 1.14428 1.06845 1.21455 1.23154 1.12224 1.25133 1.25273 1.00389 1.25353 1.2927 1.14506 1.17139 1.1903 0.87152 1.15229 1.18228 1.23956 1.16063 1.33732 1.25271 1.02025 1.23888 1.15812 1.08683 0.981858 0.909337 0.87481 0.903448 0.906221 0.960422 0.907444 0.904519 0.896399 0.907301 0.88267 0.901989 0.87056 0.881818 0.882092 0.879 0.880946 0.903631 0.890486 0.915598 0.908747 0.906857 0.884107 0.902043 0.895701 0.885788 0.898946 0.932316 0.912098 0.960353 0.956766 0.903805 1.04734 0.859034 0.821242 0.938729 1.00469 0.811425 0.919962 0.883327 0.918565 1.28962 1.3243 1.03955 1.21648 1.06922 1.09718 1.06342 1.04908 1.01948 1.03944 0.987253 1.14621 1.14294 1.07609 1.15471 1.45788 0.954918 0.962298 1.07059 1.11263 1.15664 1.23725 1.08266 1.2159 1.34483 1.03485 1.26781 1.217 0.945332 0.529601 0.987555 0.858853 1.0062 1.06469 1.05663 0.8092 1.10866 0.977274 1.12772 1.04256 0.839273 0.904001 0.856901 0.921866 0.897527 0.890651 0.872711 0.893977 0.898701 0.876302 0.910616 0.874129 0.914934 0.871832 0.940996 0.870343 0.883226 0.858605 0.794358 0.882648 0.877189 0.873937 0.898378 0.873613 0.868224 0.884752 0.862759 0.876166 0.853766 0.859516 0.885506 0.898147 0.899418 0.800297 0.891295 0.863052 0.875461 0.864884 0.931108 0.894902 0.903987 0.915388 0.913515 0.936568 0.978472 0.910199 0.875155 1.02206 1.04131 1.01531 1.16845 1.12323 1.17042 1.26558 1.13866 1.03241 1.20191 1.08608 1.21941 1.0189 1.05223 0.957378 1.27194 1.15354 1.14293 0.707367 0.986701 0.991608 1.1018 0.977238 1.05121 1.12872 1.43908 1.27633 1.2773 1.18251 0.959435 1.02813 0.896698 0.959836 0.951055 1.00585 1.02118 1.0201 0.980276 1.11925 0.816395 0.897126 0.933842 0.899793 1.00295 1.04682 0.933955 0.840817 0.962329 0.890168 0.829074 0.878615 0.871387 0.871807 0.865886 0.862771 0.937263 0.865767 0.829645 0.827579 0.804287 0.880262 0.846251 0.850145 0.788529 0.798116 0.888374 0.83714 0.860662 0.818899 0.849652 0.841976 0.817567 0.831821 0.842785 0.824954 0.82573 0.839317 0.85214 0.894823 0.906063 0.886431 0.89078 0.873633 0.814975 0.869016 0.903745 0.885629 0.93405 0.946708 0.933499 0.936503 0.943696 0.930011 1.01444 1.05267 0.927178 0.937998 0.694745 0.91652 1.12975 1.03758 1.09465 1.10348 1.04077 0.977993 1.27261 1.02757 1.01009 0.867636 0.868472 0.805256 1.01339 0.99376 0.980781 0.965033 0.916706 0.975921 1.12563 0.934018 1.28468 1.04028 1.13112 1.1337 0.99486 1.0746 0.891972 0.785167 0.970954 0.938043 0.954472 0.83459 1.07758 0.796767 0.793887 0.811704 0.93525 0.779096 0.895413 0.969145 0.908284 0.9146 0.905938 0.942454 0.883704 0.909493 0.868117 0.859694 0.854754 0.838501 0.822151 0.81488 0.821496 0.84067 0.761983 0.916645 0.85376 0.926496 0.948347 0.765049 0.88009 0.821744 0.771289 0.865321 0.76013 0.699636 0.687437 0.708653 0.700157 0.704926 0.791694 0.760018 0.830812 0.81576 0.856482 0.827249 0.845874 0.856938 0.844687 0.845691 0.832039 0.870211 0.884169 0.887749 0.877113 0.858378 0.829799 0.808589 0.830895 0.879173 0.842275 0.887705 0.934623 0.921817 0.943554 0.936354 0.940027 0.945396 0.936818 0.956408 0.965677 0.99833 1.06893 0.93595 0.984263 0.850641 1.06277 1.03325 1.0735 1.06142 0.976586 0.944957 0.919553 0.951751 0.965428 1.04607 0.908502 0.897748 0.875072 1.00112 0.914794 0.915933 0.94446 0.965193 0.826457 0.923811 1.053 1.13577 1.0867 0.969411 0.886328 0.854995 0.903311 0.90615 0.916575 0.976685 0.873031 1.10687 0.978992 0.797102 0.873058 0.815822 1.01803 0.959718 0.938043 0.874252 0.894545 0.876168 0.872302 0.88382 0.854725 0.884611 0.809813 0.851409 0.800327 0.77163 0.948709 0.648633 0.903085 0.889826 0.744514 0.699191 0.902014 1.46029 0.296415 0.0490207 0.51385 0.762453 0.788503 0.78276 0.763033 0.767372 0.762931 0.767391 0.742593 0.740665 0.794201 0.841323 0.867556 0.888463 0.84796 0.8587 0.851784 0.855531 0.858675 0.836911 0.873258 0.862766 0.880669 0.865459 0.856827 0.834648 0.867807 0.841074 0.874918 0.929571 0.941756 0.955924 0.926073 0.951649 0.979427 0.846618 0.694528 0.519898 0.995192 1.04145 1.03454 1.03161 1.03257 1.0198 0.925173 0.985123 0.818269 0.913104 0.865704 0.928882 0.911875 0.928332 0.988774 0.920614 0.914557 0.878786 0.935068 0.917849 0.906072 0.961953 1.03672 0.97505 1.05889 0.97291 1.05459 0.957141 0.869601 0.878554 1.05649 0.944125 1.23144 1.12334 1.00245 0.882725 1.04129 0.870515 0.988777 0.964291 0.950475 0.985484 0.879723 0.898074 0.8294 0.886359 0.836397 0.831804 0.813431 0.897352 0.815292 0.892037 0.843756 0.711993 0.713585 0.745682 0.672097 0.687384 1.2172 0.850713 0.974845 0.673613 0.738637 0.669361 0.634701 0.667343 0.734874 0.734366 0.691932 0.722842 0.82068 0.838833 0.734047 0.728538 0.756231 0.746626 0.77182 0.759222 0.779395 0.813031 0.835091 0.618459 0.865301 0.932288 0.783667 0.820728 0.798803 0.823876 0.812909 0.804986 0.805309 0.785713 0.785605 0.945574 0.863445 0.826093 0.835365 0.861239 0.830081 0.876231 0.823343 0.921643 0.958471 0.970628 0.932409 0.999815 0.942148 0.809527 0.905197 0.870882 0.963449 0.902467 0.8713 0.828273 0.950227 1.0568 1.0655 0.97318 0.872341 0.921024 0.91791 0.94978 0.892747 0.830362 0.922559 0.939014 1.02421 0.894977 0.884333 0.875531 0.97072 1.01286 1.03965 0.900188 0.930548 0.877235 0.955549 0.967807 1.02549 0.959002 0.849281 0.997551 0.792207 1.12849 0.732952 0.764902 0.703747 0.890897 0.856304 0.893188 0.861489 0.881722 0.921368 0.903985 0.892885 0.815549 0.904311 0.827585 0.776794 0.759329 0.866875 0.841785 0.890171 0.823557 0.805088 0.838646 0.782047 0.829349 0.796154 0.893756 0.885134 0.777664 0.843041 0.731531 0.717603 0.76939 0.732507 0.675125 0.731622 0.70898 0.722846 0.744789 0.720747 0.727405 0.730181 0.717419 0.68572 0.721866 0.692627 0.665035 0.785806 0.741085 0.792378 0.754813 0.800478 0.81526 0.760281 0.84463 0.711673 0.840523 0.752001 0.75822 0.833884 0.806368 0.838782 0.825472 0.790307 0.79926 0.821936 0.799696 0.80602 0.868662 0.917072 0.914335 0.847254 0.834245 0.807413 0.864203 0.854726 0.886592 0.865475 0.872347 0.820197 0.973501 0.967372 0.973863 0.867798 0.903877 0.921062 1.18212 0.924401 0.651788 0.772152 0.64333 0.928044 1.02167 0.824131 0.866811 0.876501 0.887361 0.883735 0.895844 0.875441 0.881844 0.86183 0.896744 0.882 0.910906 0.90535 1.06901 0.89117 0.808258 0.835543 0.899121 0.836633 1.00836 1.12261 0.882692 0.804515 0.81867 0.884744 0.852418 0.877912 0.957649 0.997033 1.0362 0.907983 0.880159 0.759829 0.832273 0.775075 0.847674 0.848112 0.828597 0.801667 0.809468 0.883987 0.835846 0.829777 0.866945 0.901127 0.876925 0.864747 0.819325 0.755104 0.804352 0.814819 0.810197 0.617875 1.05399 0.823739 0.835394 0.84521 0.82946 0.904875 0.800637 0.823829 0.799256 0.835557 0.841902 0.839211 0.81274 0.834974 0.790912 0.836514 0.849773 0.754547 0.749805 0.728615 0.737006 0.745833 0.727158 0.744851 0.757918 0.717922 0.713863 0.742321 0.721938 0.734957 0.725753 0.731355 0.752511 0.79065 0.770328 0.801205 0.808116 0.817417 0.777517 0.737532 0.740508 0.646626 0.687305 0.770705 0.708782 0.833342 0.864451 0.824429 0.818102 0.814445 0.783142 0.820104 0.746365 0.724963 0.769089 0.803191 0.827318 0.813293 0.792706 0.795542 0.835919 0.852627 0.915373 0.854649 0.825105 0.801551 0.805088 0.858158 0.954573 0.824347 0.8836 0.758672 1.14735 0.926054 0.632802 0.771022 0.809996 0.854514 0.875835 0.884071 0.865044 0.858962 0.864684 0.881769 0.917017 0.855108 0.829955 0.866028 0.847083 0.865606 0.860027 0.929154 0.838207 0.687553 0.803364 0.787248 0.84392 0.881127 0.841088 0.899096 0.817727 0.787662 1.09659 1.4667 0.864572 0.802304 0.910434 0.888556 0.846263 0.802996 0.864156 0.835048 0.813109 0.870396 0.788024 0.884983 0.876573 0.847079 0.819015 0.928382 0.848642 0.803829 0.852243 0.819582 0.870739 0.870817 0.690101 0.719532 0.757069 0.798695 0.814275 0.728534 0.819821 0.801062 0.831561 0.716324 0.703557 0.788793 0.716778 0.723404 0.730854 0.736433 0.74813 0.729395 0.742199 0.775191 0.727522 0.706343 0.791282 0.821166 1.11886 0.729892 0.717572 0.717775 0.716838 0.731256 0.720566 0.741049 0.753132 0.731902 0.786107 0.738369 0.766865 0.795786 0.694318 0.770926 0.772626 0.579091 0.816952 0.872468 0.8069 0.798335 0.798427 0.974891 1.07983 0.788584 0.89086 0.805964 0.824195 0.706852 0.718424 0.850839 0.911266 0.555984 0.817592 0.818172 0.860214 0.862221 0.867128 0.809306 0.850553 0.838403 0.826055 0.722132 0.754565 0.771116 0.785965 0.769191 0.824067 0.724394 0.724179 0.821221 0.823198 0.830915 0.844178 0.869886 0.869498 0.871629 0.84838 0.856717 0.87347 0.856538 0.872109 0.881959 0.863337 0.851255 0.846884 0.854132 0.902302 0.917381 0.880245 0.695123 0.908564 0.718474 0.79284 0.821296 0.817162 0.824664 0.815373 0.851316 0.877449 0.877377 0.590007 1.06364 0.895134 0.741009 0.900903 0.794413 0.835942 0.830995 0.855992 0.783914 0.577251 0.73355 0.715276 0.799903 0.808396 0.755153 0.75364 0.85575 0.915181 0.739029 0.904879 0.744497 0.716453 0.717097 0.778082 0.798503 0.72638 0.770995 0.725254 0.711419 0.730132 0.751905 0.709382 0.715107 0.699893 0.703817 0.582125 0.697568 0.314598 1.03366 0.917471 0.791699 0.736865 0.709259 0.739839 0.719861 0.6982 0.692672 0.723661 0.710738 0.722988 0.714697 0.724754 0.719052 0.722146 0.69713 0.745798 0.740295 0.748649 0.720251 0.746785 0.669756 0.861902 0.724206 0.828985 0.702154 0.735052 0.675307 0.716743 0.783439 0.809452 0.747162 0.740919 0.749831 0.701284 0.700816 0.716075 0.735933 0.647015 1.00632 1.0434 0.753392 0.851499 0.798181 0.744204 0.844639 0.77978 0.810434 0.770633 0.746183 0.782579 0.732074 0.70948 0.728334 0.782954 0.752297 0.764892 0.758161 0.77836 0.794443 0.803682 0.784756 0.777326 0.838533 0.831544 0.841735 0.839545 0.845997 0.847582 0.833754 0.853425 0.850429 0.865011 0.872428 0.874341 0.865 0.871788 0.879503 0.877039 0.891569 0.909851 0.789363 0.808083 0.741925 0.815805 0.7762 0.81906 0.811744 0.824837 0.818 0.810821 0.835839 0.789847 0.762363 0.84572 0.869184 0.774888 0.879639 0.786995 0.938448 1.04804 0.740887 0.687551 0.77264 0.891103 0.844638 0.866119 0.757149 0.762103 0.819829 0.883168 0.741237 0.750382 0.881991 0.870012 0.733831 0.754303 0.673998 0.734504 0.716389 0.783375 0.775916 0.774681 0.743749 0.78682 0.772837 0.771673 0.71795 0.87262 0.678841 0.685103 0.692407 0.744106 0.67298 0.792096 0.482807 0.789952 0.621903 0.7536 0.509251 0.699907 0.636197 0.853391 0.813769 0.663147 0.675873 0.671272 0.685221 0.641822 0.677796 0.729034 0.755749 0.802182 0.741834 0.727249 0.709721 0.689523 0.707173 0.716608 0.727678 0.69083 0.716574 0.683898 0.679305 0.704386 0.707234 0.681109 0.750454 0.703361 0.721887 0.773607 0.778132 0.799338 0.767355 0.74339 0.752757 0.74364 0.739853 0.936507 0.978514 0.727076 0.763392 0.774473 0.856772 0.678838 0.719597 0.723121 0.74063 0.761066 0.79109 0.788173 0.793157 0.79785 0.808702 0.821603 0.843763 0.84404 0.845096 0.839885 0.841376 0.834771 0.838382 0.838417 0.854329 0.863716 0.860968 0.872206 0.878631 0.870907 0.8799 0.875303 0.879032 0.887688 0.840334 0.797637 0.803833 0.794918 0.817088 0.814961 0.795903 0.796904 0.777378 0.782665 0.811456 0.808544 0.901268 0.878001 0.830457 0.711985 0.817701 0.709038 0.719763 0.747621 0.680062 0.675282 0.838587 0.768734 0.719708 0.664547 0.769884 0.709425 0.790522 0.769799 0.969846 0.770103 0.842433 0.618782 0.600294 0.719834 0.65448 0.781261 0.781588 0.824168 0.752248 0.741584 0.511752 0.622625 0.524386 0.677179 0.617805 0.681515 0.690032 0.685373 0.690881 0.592452 0.690366 0.944041 0.71453 0.74244 0.61075 0.607145 0.588338 0.731002 0.823581 0.759816 0.814112 0.789576 0.809979 0.696933 0.685264 0.685365 0.693548 0.681724 0.70701 0.649969 0.782868 0.786221 0.717525 0.688262 0.696944 0.72255 0.689091 0.718349 0.725105 0.699276 0.707782 0.682585 0.687895 0.718745 0.676444 0.744967 0.82222 0.773857 0.80911 0.837041 0.665563 0.679567 0.720606 0.679069 0.731051 0.869829 0.780302 0.822151 0.824557 0.793609 0.735949 0.703043 0.595555 0.734885 0.769015 0.720323 0.735618 0.729404 0.728763 0.750274 0.762234 0.778896 0.79182 0.800724 0.806312 0.801045 0.809829 0.821839 0.826828 0.829416 0.838156 0.842354 0.852394 0.849127 0.840991 0.838476 0.834661 0.838019 0.850365 0.856531 0.849739 0.873248 0.882194 0.881575 0.889635 0.8834 0.876037 0.867156 0.861143 0.858476 0.841269 0.822678 0.819869 0.82894 0.822524 0.814716 0.793641 0.789766 0.792792 0.787995 0.79033 0.789795 0.807891 0.8325 0.831324 0.849706 0.808216 0.794867 0.720361 0.742224 0.77081 0.775877 0.636098 0.71167 0.603004 0.727213 0.870003 0.797995 0.804603 0.617853 0.80139 0.691924 0.648578 0.657318 0.697525 0.876604 0.661558 0.762904 0.840086 0.827138 0.751692 0.87165 0.664369 0.668075 0.707242 0.650664 0.685557 0.68226 0.721978 0.743042 0.697657 0.752696 0.693091 0.675456 0.681454 0.69085 0.596317 0.661053 0.67942 0.79164 0.682709 0.803574 0.822553 0.752841 0.813156 0.776449 0.566757 0.627917 0.667124 0.671637 0.695251 0.695915 0.698453 0.732328 0.745295 0.701387 0.731028 0.737171 0.697936 0.851599 0.883058 0.780418 0.72513 0.727637 0.758656 0.693108 0.663551 0.63942 0.794787 0.745029 0.696801 0.750928 0.695461 0.747884 0.809592 0.789978 0.522382 0.653208 0.707548 0.691494 0.742961 0.75361 0.795503 0.760511 0.733329 0.704868 0.730538 0.738658 0.736651 0.731723 0.747905 0.755934 0.774251 0.773223 0.781452 0.810607 0.807182 0.810264 0.813077 0.81365 0.831583 0.844647 0.844076 0.857092 0.864834 0.852941 0.857295 0.86324 0.858046 0.842622 0.834317 0.826751 0.829198 0.851599 0.871116 0.893664 0.901484 0.893006 0.879365 0.871179 0.862923 0.856348 0.848787 0.837928 0.861744 0.84352 0.829726 0.814778 0.784752 0.78926 0.807765 0.807055 0.831612 0.817774 0.840061 0.847368 0.852031 0.824097 0.77456 0.796927 0.785288 0.749234 0.746886 0.791533 0.77894 0.795513 0.750996 0.658868 0.836154 0.730694 0.847962 0.928571 0.84666 0.821952 0.713965 0.647015 0.8008 0.641724 0.856805 0.754792 0.864518 0.787353 0.724361 0.686109 0.704246 0.674667 0.665626 0.677838 0.651872 0.651649 0.658171 0.660976 0.880923 0.696805 0.664008 0.692592 0.648775 0.681327 0.705922 0.62593 0.679516 0.768304 0.758299 0.686668 0.129908 1.01899 0.532342 0.589488 0.51727 0.544712 0.49296 0.682857 0.651584 0.65215 0.671567 0.684622 0.655604 0.70454 0.643067 0.612072 0.419318 0.557114 0.323991 0.544719 0.712154 0.660846 0.711046 0.747885 0.697845 0.734153 0.850763 0.798417 0.705383 0.85311 0.63628 0.752081 0.635188 0.593698 0.622317 0.725389 0.709087 0.724946 0.703335 0.799767 0.595789 0.753911 0.715258 0.74745 0.763158 0.753444 0.731235 0.800528 0.72694 0.829727 0.803593 0.759798 0.738593 0.737412 0.739531 0.748941 0.745879 0.75866 0.765392 0.77268 0.783531 0.797228 0.816098 0.821031 0.824323 0.82009 0.826051 0.824999 0.837703 0.85625 0.873476 0.874171 0.865197 0.853383 0.844534 0.837888 0.843766 0.826748 0.862978 0.901093 0.906285 0.901782 0.891992 0.882421 0.872304 0.872985 0.863623 0.855163 0.855771 0.861622 0.872207 0.888123 0.870824 0.817689 0.751504 0.803105 0.782576 0.816236 0.824559 0.836682 0.84194 0.816691 0.807559 0.798276 0.76613 0.753044 0.751535 0.761915 0.781183 0.771004 0.728443 0.721487 0.855498 0.757003 0.740432 0.804833 0.807464 0.772294 0.772114 0.695527 0.70359 0.722881 0.759382 0.714964 0.749399 0.691252 0.72073 0.74545 0.597606 0.765595 0.673616 0.821838 0.681238 0.6687 0.603512 0.769429 0.547651 0.470723 0.615063 0.530024 0.576641 0.647167 0.55529 0.630418 0.472184 0.855915 0.526647 1.01384 0.764185 0.460884 0.764746 0.358301 0.803481 0.601394 0.531242 0.565916 0.491324 0.557588 0.566931 0.479573 0.679757 0.759101 0.892344 0.614055 0.609742 0.612447 0.625962 0.640122 0.51677 0.512359 0.402638 0.311223 0.763121 0.586237 0.715009 0.786162 0.714329 0.667113 0.644884 0.643113 0.609935 0.564551 0.683539 0.563605 0.496861 0.547067 0.739644 0.574743 0.601758 0.703931 0.728478 0.679095 0.625154 0.7021 0.777064 0.781703 0.749735 0.740021 0.736168 0.764277 0.765601 0.777234 0.761928 0.720724 0.746488 0.750168 0.772383 0.774531 0.758461 0.780392 0.78007 0.807164 0.826003 0.828007 0.827715 0.834384 0.834348 0.8333 0.852578 0.832517 0.871319 0.876234 0.889041 0.874214 0.864185 0.855037 0.84584 0.853172 0.849675 0.820794 0.914022 0.905087 0.895637 0.901197 0.885878 0.860026 0.870535 0.85298 0.848965 0.858346 0.848975 0.870207 0.886283 0.94796 1.03193 0.860379 0.903774 0.723765 0.927514 0.818542 0.815164 0.815724 0.845 0.842022 0.838387 0.843113 0.838278 0.823896 0.814579 0.79115 0.770701 0.759964 0.747559 0.73907 0.750105 0.694453 0.646767 0.736036 0.703667 0.714524 0.727712 0.754071 0.759485 0.717984 0.699777 0.716172 0.675591 0.637848 0.407435 0.520437 0.679371 0.775405 0.627186 0.619338 0.67065 0.550487 0.630377 0.549479 0.583498 0.58777 0.608567 0.608261 0.578343 0.493782 0.652083 0.591505 0.537605 0.586292 0.305438 0.451332 0.537114 0.668628 0.391807 0.542443 0.547364 0.538365 0.549887 0.536702 0.570642 0.577099 0.479696 0.400925 0.486403 0.449834 0.549625 0.511608 0.539495 0.670431 0.711394 0.690468 0.590906 0.637743 0.631727 0.620633 0.586082 0.557213 0.559038 0.541279 0.624761 0.647764 0.752559 0.703583 0.697193 0.657953 0.67043 0.690048 0.707466 0.6401 0.639682 0.593899 0.600923 0.621623 0.659053 0.58186 0.697885 0.780929 0.727808 0.78684 0.777189 0.770865 0.758504 0.777979 0.771902 0.75595 0.773166 0.765812 0.768416 0.775077 0.781573 0.766824 0.789351 0.781157 0.786889 0.788692 0.773322 0.794394 0.803716 0.838066 0.863391 0.835975 0.831358 0.832014 0.831979 0.838388 0.840629 0.82791 0.808052 0.92897 0.907596 0.885994 0.880957 0.86566 0.859838 0.854895 0.852645 0.852746 0.851407 0.845132 0.8136 0.82322 0.927504 0.924314 0.91256 0.894987 0.843674 0.833566 0.838653 0.84924 0.842382 0.874208 0.910022 0.887209 0.773852 0.724972 0.822853 0.821705 0.838612 0.839445 0.830676 0.813442 0.81111 0.774082 0.756103 0.742444 0.713727 0.727521 0.678979 0.649854 0.649153 0.695507 0.750481 0.730182 0.734059 0.736826 0.763905 0.752389 0.758324 0.7388 0.72462 0.727543 0.720914 0.719667 0.672621 0.679887 0.636276 0.554941 0.382645 0.522392 0.747591 0.490243 0.663788 0.602921 0.636819 0.68238 0.660018 0.641882 0.603573 0.633516 0.668897 0.661253 0.643891 0.637958 0.599816 0.633735 0.603291 0.617908 0.607178 0.671889 0.546167 0.458839 0.553825 0.493268 0.542234 0.531008 0.525806 0.530955 0.54082 0.552595 0.553675 0.53305 0.526093 0.544996 0.533975 0.559959 0.515887 0.614239 0.671579 0.700088 0.563036 0.555972 0.596209 0.521506 0.52479 0.577712 0.668018 0.667578 0.691058 0.602691 0.672874 0.631773 0.679063 0.6504 0.625394 0.634669 0.622802 0.654115 0.656848 0.682308 0.885442 0.74241 0.761089 0.790038 0.790629 0.787972 0.774509 0.781838 0.77624 0.786187 0.793368 0.802818 0.798526 0.790933 0.796834 0.79583 0.802624 0.768772 0.829272 0.824671 0.838327 0.842739 0.850018 0.858752 0.860124 0.80608 0.720845 0.884881 0.898865 0.860046 0.852945 0.853554 0.860929 0.861074 0.859946 0.841894 0.850123 0.895112 0.932865 0.944899 0.988832 0.905126 0.825797 0.828129 0.850654 0.862656 0.907227 0.923527 0.880528 0.8221 0.76737 0.771664 0.78095 0.800097 0.818081 0.838118 0.831724 0.835477 0.836929 0.781274 0.759687 0.751432 0.724422 0.711114 0.635596 0.716155 0.732403 0.716469 0.726988 0.746478 0.73319 0.728889 0.713144 0.685154 0.631153 0.623327 0.586324 0.512869 0.567916 0.544255 0.590159 0.609797 0.61771 0.630807 0.612935 0.624841 0.718436 0.684562 0.709622 0.727112 0.554342 0.604207 0.600058 0.496932 0.539952 0.552221 0.5555 0.581613 0.543644 0.566362 0.529003 0.543595 0.544864 0.542495 0.548041 0.547011 0.471525 0.508554 0.512883 0.523894 0.516315 0.555131 0.601476 0.582342 0.591265 0.593459 0.503669 0.469527 0.585066 0.581237 0.555943 0.579578 0.591082 0.557853 0.539113 0.568246 0.568533 0.584476 0.61064 0.645353 0.590036 0.623514 0.662648 0.668245 0.667834 0.638889 0.649301 0.647683 0.629049 0.634032 0.622776 0.642693 0.639512 0.596303 0.541874 0.389629 0.56861 0.734151 0.774519 0.780075 0.823927 0.802249 0.796348 0.792357 0.803058 0.78439 0.789657 0.791691 0.797007 0.806697 0.799159 0.804316 0.806482 0.804806 0.799695 0.795307 0.798311 0.801931 0.798954 0.789385 0.814397 0.808515 0.826767 0.838968 0.839521 0.841334 0.844189 0.847819 0.843621 0.837518 0.83046 0.861735 0.904806 0.849035 0.867106 0.86763 0.871471 0.87276 0.863952 0.855691 0.879492 0.904905 0.949069 0.929027 1.03764 0.785506 0.815872 0.853837 0.862994 0.867399 0.881448 0.896083 0.910816 0.873419 0.829392 0.838399 0.800726 0.813744 0.802036 0.824914 0.831964 0.826635 0.836953 0.823612 0.834759 0.827531 0.812189 0.789818 0.771898 0.75828 0.734281 0.729613 0.810795 0.742358 0.728693 0.732266 0.728098 0.72096 0.738615 0.731348 0.80836 0.594667 0.655429 0.501331 0.68461 0.476228 0.506451 0.483134 0.506425 0.575151 0.62287 0.626187 0.626211 0.632147 0.67479 0.609425 0.670521 0.607637 0.573562 0.805867 0.66008 0.674744 0.614573 0.564335 0.596646 0.569307 0.560592 0.54734 0.559791 0.537061 0.492525 0.561141 0.520194 0.536351 0.365005 0.0500647 0.897398 0.581687 0.50677 0.492583 0.430943 0.49619 0.421581 0.438585 0.480688 0.482919 0.538315 0.449291 0.426679 0.370334 0.452339 0.365594 0.397165 0.5607 0.550284 0.570279 0.584414 0.58796 0.583793 0.597352 0.60563 0.591791 0.600144 0.627935 0.632437 0.658378 0.674833 0.667381 0.675219 0.666509 0.662947 0.668007 0.640272 0.571071 0.678468 0.769068 0.835191 0.895121 0.82032 0.820402 0.79325 0.799225 0.809514 0.809787 0.813926 0.807007 0.801863 0.795454 0.798361 0.813604 0.824311 0.832358 0.839484 0.84308 0.848187 0.845181 0.855199 0.876969 0.860748 0.864154 0.856381 0.872059 0.875396 0.88219 0.883765 0.884234 0.886271 0.861664 0.888894 0.889652 0.907808 0.987442 0.889572 0.754368 0.853674 0.818106 0.866816 0.860526 0.86762 0.880324 0.885901 0.871078 0.865895 0.833304 0.857283 0.82544 0.827165 0.845274 0.823198 0.80699 0.81451 0.743115 0.744999 0.752392 0.797108 0.766881 0.758392 0.784377 0.750219 0.738834 0.733023 0.729784 0.724829 0.708274 0.727788 0.868503 0.478254 0.752654 0.700709 0.634513 0.575585 0.410633 0.552939 0.51362 0.606478 0.640371 0.623638 0.63875 0.638395 0.627859 0.602798 0.577502 0.616188 0.583301 0.637554 0.585262 0.603603 0.569168 0.546057 0.546699 0.511393 0.528609 0.512535 0.529364 0.512632 0.47034 0.483535 0.535111 0.449039 0.439358 0.475362 0.614702 0.567299 0.129899 0.0741765 0.0325987 0.631652 0.216394 0.448409 0.586274 0.327306 0.268185 0.237903 0.411549 0.457619 0.423733 0.459698 0.409955 0.468786 0.35709 0.432376 0.296996 0.716413 0.581438 0.540816 0.544286 0.55294 0.55733 0.567257 0.57811 0.577822 0.600052 0.610686 0.636738 0.656847 0.678293 0.672629 0.687265 0.676637 0.66698 0.67419 0.689812 0.704919 0.60677 0.967546 0.987637 0.845872 1.16079 0.95304 0.832624 0.84283 0.792222 0.788575 0.810912 0.822008 0.806216 0.7959 0.796988 0.794389 0.813365 0.831067 0.839504 0.842712 0.84534 0.849279 0.850933 0.854656 0.86413 0.862343 0.862782 0.86348 0.864779 0.880954 0.87479 0.893983 0.897886 0.92059 0.899157 0.898411 0.913133 0.907201 0.918401 0.781582 0.81616 0.934234 0.872236 0.874976 0.858918 0.862613 0.864173 0.845216 0.858744 0.890707 0.829287 0.857059 0.892125 0.85286 0.827377 0.819593 0.834834 0.829903 0.829676 0.826119 0.826253 0.826799 0.811361 0.756082 0.766199 0.764003 0.773202 0.764221 0.764721 0.751987 0.724926 0.700962 0.784727 0.726384 0.714118 0.671261 0.696276 0.752296 0.837302 0.532931 0.487893 0.595208 0.603538 0.575449 0.559978 0.565538 0.594478 0.573076 0.551767 0.530875 0.49608 0.48342 0.486768 0.49389 0.469247 0.503598 0.493431 0.449265 0.508386 0.425888 0.346347 0.153289 0.140413 0.188742 0.75458 0.137878 2.29053 0.179518 0.268869 0.474159 0.429427 0.53588 0.494344 0.399368 0.179093 0.724573 0.722384 0.606827 0.565366 0.403692 0.440119 0.447353 0.552042 0.522811 0.514433 0.534869 0.534188 0.553676 0.531334 0.579987 0.606581 0.601869 0.624356 0.654968 0.667171 0.712763 0.694589 0.67832 0.660264 0.636084 0.62678 0.56611 0.6028 0.664171 0.565393 0.913423 0.77425 0.672916 0.903908 0.801575 0.765649 0.760649 0.715986 0.756105 0.821676 0.845439 0.814288 0.806851 0.77985 0.820257 0.846399 0.839868 0.849835 0.844056 0.841237 0.847791 0.850374 0.852829 0.855708 0.859928 0.859683 0.862872 0.86318 0.866985 0.867619 0.885711 0.896662 0.916251 0.901237 0.919912 0.915286 0.909415 0.886059 0.857976 0.861089 0.871629 0.886347 0.876153 0.867588 0.863344 0.788512 0.915409 0.739963 0.873097 0.983979 0.899067 0.843524 0.81238 0.788046 0.835094 0.814523 0.826309 0.82819 0.825766 0.841428 0.825346 0.846867 0.775749 0.776147 0.773127 0.763928 0.768893 0.776983 0.749914 0.770212 0.762192 0.757692 0.613527 0.705353 0.6994 0.728643 0.627579 0.537374 0.649369 0.93878 0.917794 0.364943 0.604149 0.610003 0.597944 0.609273 0.630705 0.584782 0.602135 0.574162 0.575861 0.572985 0.562938 0.564787 0.556438 0.561902 0.540126 0.542477 0.536869 0.538846 0.529129 0.496062 0.471946 0.507403 0.517468 0.497699 0.482091 0.517346 0.49994 0.892348 0.169826 0.576411 0.273333 0.369088 0.374384 0.441717 0.616465 0.652728 0.673666 0.887327 1.08881 0.772148 0.412766 0.43088 0.425309 0.475744 0.513017 0.539598 0.521132 0.592138 0.559898 0.540971 0.509297 0.561644 0.6146 0.635021 0.6844 0.63327 0.696646 0.646677 0.807622 0.744573 0.713236 0.683665 0.64666 0.635599 0.620585 0.629896 0.60466 0.548305 0.646255 0.787012 0.784049 0.795234 0.887103 0.905267 0.655878 0.776188 0.803462 0.839255 0.84309 0.819665 0.79383 0.769986 0.782256 0.813537 0.844783 0.8369 0.826494 0.839551 0.846203 0.851714 0.855346 0.856577 0.856436 0.864124 0.871384 0.872561 0.871996 0.873009 0.947818 0.980142 0.862484 0.93854 0.916953 0.903749 0.889037 0.89502 0.889895 0.874381 0.871346 0.885567 0.894171 0.826036 0.883945 0.860344 0.823904 0.746805 0.979142 0.911218 1.05329 0.88774 0.809589 0.827466 0.78492 0.824493 0.804981 0.810938 0.817343 0.830069 0.827171 0.833831 0.821405 0.834507 0.821893 0.826109 0.790093 0.832381 0.780162 0.774414 0.779091 0.779804 0.77453 0.777741 0.772689 0.775051 0.735742 0.661047 0.70799 0.692848 0.670946 0.730699 0.716371 0.68115 0.649648 0.670724 0.519205 0.609418 0.61408 0.596889 0.59121 0.579877 0.571496 0.556088 0.536384 0.538663 0.538324 0.507719 0.489442 0.507109 0.516102 0.492227 0.488498 0.465177 0.453327 0.416584 0.357964 0.535983 0.441862 0.427677 0.335147 0.400601 0.371003 0.47052 0.384864 0.888052 0.360806 0.634547 0.386838 0.42424 0.360435 0.42608 0.539779 0.554904 0.541733 0.588887 0.570938 0.570375 0.595129 0.523952 0.775338 0.901819 0.732749 0.745476 0.677218 0.697693 0.676156 0.673943 0.663239 0.605264 0.666631 0.648757 0.64848 0.733207 0.787722 0.80707 0.851984 0.967432 1.00136 0.752424 0.736552 0.789924 0.843583 0.839612 0.809737 0.794887 0.797151 0.787074 0.831863 0.835433 0.845113 0.836731 0.848545 0.864578 0.853741 0.849228 0.856324 0.872515 0.870677 0.871436 0.877958 0.878048 0.86246 0.856562 0.968227 0.876657 0.949195 0.941906 0.907523 0.891063 0.891236 0.874628 0.885915 0.878146 0.885949 0.89295 0.805764 0.874085 0.84815 0.959046 0.921812 0.946452 0.981454 0.982286 0.881401 0.805991 0.769085 0.793767 0.811723 0.829089 0.802631 0.815744 0.818569 0.824971 0.840691 0.765523 0.778339 0.782402 0.781554 0.78146 0.77683 0.772779 0.777551 0.753764 0.739235 0.720193 0.730783 0.731934 0.652892 0.661679 0.591485 0.625099 0.634746 0.583001 0.611281 0.592087 0.595685 0.580271 0.584057 0.567075 0.580032 0.540729 0.555271 0.514995 0.510714 0.498441 0.52747 0.5216 0.503447 0.483984 0.47051 0.444413 0.436535 0.476551 0.38002 0.477975 0.445443 0.494454 0.412034 0.427839 0.341493 0.411693 0.42564 0.438384 0.686029 0.645264 0.544478 0.322967 0.276769 0.360328 0.52985 0.556705 0.579634 0.517754 0.54521 0.333934 0.913847 0.765072 0.644548 0.839756 0.666035 0.646359 0.657714 0.644292 0.657516 0.734416 0.687628 0.699532 0.74906 0.712966 0.766724 0.804876 0.822693 0.787849 0.854554 0.700066 0.874094 0.794032 0.783157 0.796364 0.806322 0.825674 0.837302 0.834501 0.84695 0.840661 0.858516 0.878594 0.859665 0.830596 0.875641 0.863926 0.892247 0.876783 0.855042 0.980037 0.847971 0.941682 0.919543 0.906054 0.90104 0.898815 0.891725 0.881225 0.878675 0.883231 0.890367 0.880971 0.832333 0.911857 0.932305 0.958027 0.97254 0.964288 0.965952 0.821906 0.787984 0.795444 0.817388 0.846501 0.78919 0.776679 0.789392 0.803402 0.805074 0.83795 0.760705 0.761247 0.764017 0.771548 0.778374 0.78199 0.775426 0.771043 0.765151 0.772401 0.737173 0.730728 0.73983 0.751098 0.718219 0.651514 0.668085 0.632359 0.62514 0.615742 0.605161 0.602294 0.608287 0.591438 0.595737 0.543343 0.609646 0.584964 0.535197 0.45681 0.537522 0.541382 0.519536 0.484818 0.473163 0.440788 0.465006 0.480573 0.425783 0.5267 0.508443 0.502511 0.448708 0.479948 0.486009 0.551519 0.640713 0.596051 0.594295 0.509025 0.469016 0.611616 0.566327 0.487531 0.387546 0.467478 0.538704 0.706535 0.532165 0.676777 0.660104 0.633583 0.682378 0.739632 0.801391 0.707678 0.673389 0.574358 0.747173 0.775557 0.793607 0.777652 0.762537 0.751673 0.808147 0.787647 0.775931 0.796586 0.817776 0.812999 0.83885 0.857712 0.907974 0.889228 0.872682 0.843746 0.902082 0.85778 0.906118 0.882985 0.907164 0.888729 0.830301 0.882006 0.963362 0.898548 0.915528 0.89923 0.894864 0.910566 0.904135 0.894261 0.864432 0.887192 0.863308 0.886799 0.930805 0.948574 0.966943 0.952372 0.953644 0.989322 0.817542 0.803924 0.8469 0.818986 0.824809 0.855498 0.779847 0.807681 0.801742 0.831689 0.785175 0.775844 0.778858 0.774246 0.78875 0.775059 0.765925 0.763513 0.741533 0.764492 0.758378 0.720658 0.717329 0.72401 0.783151 0.720453 0.73171 0.897841 0.671274 0.609097 0.607007 0.591884 0.610132 0.621986 0.605142 0.603316 0.601948 0.602323 0.601135 0.608251 0.598857 0.701544 0.633555 0.546208 0.714519 0.538163 0.539149 0.523964 0.408247 0.496237 0.271886 0.588237 0.529669 0.502072 0.512047 0.520802 0.489317 0.502555 0.529738 0.552398 0.549881 0.518881 0.523346 0.431707 0.678072 0.566963 0.663976 0.586306 0.652972 0.696816 0.604967 0.628601 0.655111 0.660631 0.864825 0.744268 0.816893 0.844796 0.664131 0.633347 0.79347 0.770023 0.763633 0.762593 0.765921 0.779634 0.781954 0.774261 0.679074 0.714175 0.704677 0.698422 0.744183 0.792815 0.77285 0.787051 0.809965 0.822407 0.81778 0.865688 0.818175 0.853808 0.899817 0.883571 0.860609 0.993514 1.0758 0.840041 0.831237 0.89162 0.875977 0.847764 0.878914 0.931315 0.920899 0.897682 0.903016 0.906577 0.895204 0.936375 0.936026 0.958969 0.861326 1.04105 0.843287 0.901588 0.928409 0.94017 0.952949 0.965607 0.950758 0.953506 0.986051 0.857906 0.845459 0.832877 0.83676 0.823574 0.776896 0.788275 0.778233 0.800096 0.797739 0.767559 0.769708 0.782462 0.756673 0.771393 0.789165 0.762282 0.749165 0.765231 0.75671 0.741645 0.729934 0.745274 0.720586 0.802718 0.673399 0.62761 0.611664 0.604329 0.605004 0.597795 0.605567 0.609777 0.60011 0.623192 0.687666 0.612724 0.568251 0.549214 0.52023 0.50131 0.48656 0.562662 0.536705 0.552277 0.485168 0.526391 0.524502 0.512223 0.521785 0.545351 0.53422 0.512978 0.519415 0.528561 0.517319 0.652798 0.657576 0.688453 0.527482 0.766021 0.73995 0.658614 0.633512 0.611962 0.628362 0.659501 0.833983 0.842659 0.740159 0.53662 0.583399 0.668469 0.748457 0.794278 0.773503 0.762801 0.759204 0.691493 0.705875 0.705638 0.727672 0.750176 0.792858 0.787371 0.8014 0.814498 0.832436 0.844879 0.828153 0.807272 0.831472 0.838992 0.889638 0.891213 0.868392 1.11813 0.93069 0.973686 0.890818 0.892986 0.878235 0.86265 0.868632 0.878489 0.870736 0.91311 0.906522 0.915409 0.916627 0.900288 0.916219 0.888284 0.841796 0.877074 0.955137 0.921534 0.924865 1.16698 1.06481 0.782315 0.921186 0.925621 0.961946 0.954431 0.952443 0.871258 0.864141 0.842514 0.846927 0.839282 0.832203 0.773167 0.785002 0.802148 0.778933 0.766753 0.788136 0.775188 0.776453 0.772141 0.784642 0.75483 0.796587 0.768118 0.758643 0.752247 0.746976 0.732514 0.74909 0.72935 0.779284 0.688484 0.62217 0.601415 0.60509 0.60237 0.618078 0.621284 0.635901 0.615333 0.606928 0.577962 0.57366 0.534978 0.571887 0.536621 0.518906 0.530608 0.541171 0.548396 0.545912 0.533141 0.525882 0.531892 0.505723 0.532103 0.559427 0.528572 0.524402 0.537876 0.549816 0.69827 0.633675 0.639066 0.69069 0.651803 0.640224 0.573148 0.693248 0.65325 0.620942 0.621937 0.571645 0.74963 0.579752 0.666351 0.646625 0.678565 0.784773 0.790371 0.767897 0.765437 0.761417 0.722933 0.704099 0.70054 0.739859 0.752286 0.807259 0.821508 0.85057 0.807096 0.811481 0.814296 0.836707 0.85382 0.893441 0.908818 0.876458 0.877212 0.936214 0.936459 0.978759 0.89141 0.864937 0.871251 0.902961 0.91185 0.91531 0.889688 0.88958 0.883056 0.902329 0.877605 0.878782 0.912546 0.933299 1.17999 1.05653 0.802754 0.98602 0.870039 0.964834 0.947741 0.94663 0.882546 0.863054 0.849334 0.824218 0.839159 0.861223 0.77344 0.822006 0.783024 0.795437 0.792332 0.762404 0.796839 0.788474 0.790244 0.762665 0.754808 0.74824 0.753302 0.746347 0.756122 0.762495 0.734443 0.647893 0.613682 0.619747 0.604822 0.606416 0.603811 0.621769 0.632045 0.643642 0.640423 0.649043 0.620707 0.572695 0.581784 0.551586 0.575761 0.563886 0.559397 0.558223 0.536247 0.536665 0.533778 0.522869 0.558872 0.533957 0.513159 0.567154 0.567169 0.62125 0.680218 0.644619 0.649328 0.595275 0.635022 0.636562 0.67548 0.648809 0.683443 0.69383 0.705536 0.707487 0.688193 0.727142 0.666466 0.650794 0.66446 0.806172 0.78608 0.773997 0.757537 0.758769 0.729927 0.708244 0.717357 0.682736 0.824052 0.781785 0.832305 0.786052 0.805262 0.833524 0.857369 0.896914 0.939235 0.885642 0.900078 0.934989 0.952379 0.971985 0.899128 0.864877 0.923117 0.934044 0.892603 0.856263 0.899371 0.892639 0.865695 0.916083 0.960814 1.10182 1.0499 0.811251 0.992389 0.936606 0.872788 0.8605 0.965735 0.934109 0.937462 0.938449 0.883759 0.856588 0.840701 0.819898 0.852912 0.837495 0.738535 0.77087 0.802752 0.797107 0.807348 0.853091 0.804963 0.788718 0.803017 0.769838 0.759227 0.757554 0.765441 0.739865 0.75982 0.776743 0.762949 0.678792 0.607541 0.603821 0.605338 0.635584 0.65213 0.652665 0.661754 0.644193 0.613133 0.627197 0.596886 0.57136 0.576171 0.5947 0.568 0.556962 0.554495 0.554407 0.538633 0.543537 0.533579 0.563775 0.590549 0.51787 0.545152 0.59721 0.568121 0.60697 0.648222 0.65866 0.640188 0.619904 0.64449 0.662142 0.68622 0.714814 0.755849 0.725129 0.701722 0.728055 0.680206 0.828601 0.786236 0.779397 0.760343 0.725228 0.727966 0.723436 0.707346 0.672796 0.811849 0.751215 0.845666 0.835446 0.795046 0.791494 0.790873 0.831756 0.849838 0.862379 0.896847 0.937048 0.887749 0.872782 0.89038 0.911917 0.943185 0.951306 0.970472 0.910479 0.864838 0.950684 0.956259 0.903772 0.856512 0.898427 0.91842 0.919863 0.989732 0.915012 0.987278 0.874313 0.935041 0.992562 0.887971 0.96595 0.840863 0.945311 0.988977 0.988955 0.881878 0.877059 0.850056 0.84242 0.863801 0.814534 0.834753 0.723374 0.751929 0.805472 0.801338 0.849249 0.867783 0.784217 0.764216 0.778089 0.780423 0.792759 0.741204 0.72481 0.777348 0.630113 0.803712 0.61642 0.60444 0.603304 0.594769 0.578741 0.603713 0.636709 0.650375 0.662242 0.66788 0.641598 0.640967 0.618719 0.607828 0.570602 0.6121 0.575032 0.603231 0.619071 0.582161 0.544882 0.574694 0.597597 0.563073 0.572097 0.540711 0.553501 0.604178 0.551116 0.601239 0.630507 0.67259 0.645614 0.643149 0.660051 0.648553 0.659876 0.65416 0.696184 0.719268 0.733229 0.74644 0.708663 0.730601 0.6988 0.693932 0.695369 0.792792 0.791537 0.740326 0.725754 0.727191 0.718738 0.708044 0.686315 0.812144 0.861946 0.790815 0.827526 0.824642 0.814722 0.795209 0.911592 0.867702 0.925002 0.963672 0.86435 0.934562 0.866245 0.946874 0.949482 0.85206 0.859031 0.825613 0.815937 0.853732 0.785766 0.805101 0.941083 0.759966 0.810682 0.789152 0.859658 0.944134 0.788075 0.764989 0.74017 0.762331 0.761732 0.819326 0.898475 0.975637 0.700873 0.781549 0.807645 0.59295 0.622116 0.548542 0.618217 0.57514 0.648415 0.651643 0.624521 0.588351 0.625692 0.598616 0.653974 0.587663 0.577341 0.577085 0.541891 0.560055 0.559404 0.611414 0.627789 0.643309 0.689806 0.658504 0.650212 0.667032 0.684938 0.717077 0.73407 0.744376 0.752557 0.743039 0.733799 0.742402 0.706132 0.703789 0.756398 0.741222 0.753746 0.708048 0.774465 0.721013 0.714386 0.69449 0.803793 0.810712 0.862933 0.974776 0.800133 0.82697 0.988259 0.891523 0.747864 0.766912 0.826731 0.977639 0.693334 0.787788 0.817779 0.593652 0.641984 0.564014 0.586014 0.683899 0.672322 0.720193 0.627825 0.588501 0.591578 0.606845 0.594454 0.641748 0.593335 0.57918 0.578259 0.56084 0.633296 0.579177 0.688644 0.647064 0.712552 0.594606 0.599928 0.608167 0.581583 0.576018 
SCALARS Stress float 1
LOOKUP_TABLE default
-180171000000.0 -129354000000.0 -274967000000.0 -215883000000.0 -116312000000.0 -162297000000.0 -236375000000.0 -59319700000.0 -274751000000.0 -200017000000.0 -292656000000.0 -281380000000.0 -197532000000.0 -134523000000.0 -373956000000.0 -857720000000.0 -580828000000.0 -370985000000.0 -996478000000.0 -337372000000.0 -293488000000.0 -451136000000.0 -1.03026e+12 -369530000000.0 -531738000000.0 -229221000000.0 -145794000000.0 -267804000000.0 -410218000000.0 -821917000000.0 -842352000000.0 -678758000000.0 -787889000000.0 -838010000000.0 -450398000000.0 -981855000000.0 -1.11861e+12 -1.2113e+12 -1.11928e+12 -1.99636e+12 -783146000000.0 -490008000000.0 -884367000000.0 -846893000000.0 -1.17856e+12 -286959000000.0 -674177000000.0 -698712000000.0 -637258000000.0 -1.05047e+12 -655317000000.0 -878532000000.0 -827000000000.0 -474267000000.0 -403273000000.0 -1.00914e+12 -686558000000.0 -1.66695e+12 -1.70338e+12 -1.24673e+12 -1.90997e+12 -1.5324e+12 -1.95582e+12 -1.53047e+12 -348535000000.0 -572248000000.0 -1.17494e+12 -817241000000.0 -1.68167e+12 -2.27854e+12 -1.21387e+12 -996474000000.0 -812079000000.0 -1.49748e+12 -1.74428e+12 -1.32214e+12 -1.73978e+12 -1.19448e+12 -1.58971e+12 -1.50859e+12 -1.96317e+12 -1.39329e+12 -1.84573e+12 -1.68433e+12 -3.05074e+12 -2.98993e+12 -3.06333e+12 -2.15158e+12 -2.41997e+12 -1.88326e+12 -742390000000.0 -2.6707e+12 -1.79878e+12 -2.76612e+12 -297946000000.0 -3.10963e+12 -1.69781e+12 -2.26858e+12 -2.26605e+12 -1.28007e+12 -2.3648e+12 -1.06868e+12 -828923000000.0 -870842000000.0 -1.40751e+12 -2.24454e+12 -1.56645e+12 -1.50395e+12 -701661000000.0 -793634000000.0 -1.39993e+12 -1.48035e+12 -1.30514e+12 -1.77402e+12 -2.59153e+12 -2.07731e+12 -2.59263e+12 -2.555e+12 -1.15664e+12 -3.96024e+12 -1.47667e+12 -2.56521e+12 -1.69471e+12 -2.04239e+12 -1.24e+12 -2.33251e+12 -4.60071e+12 -1.27749e+12 -3.61807e+12 -868988000000.0 -617173000000.0 -1.76112e+12 -1.87889e+12 -783135000000.0 -1.07356e+12 -2.03017e+12 -3.30942e+12 -4.39864e+12 -2.73314e+12 -5.39867e+12 -3.26333e+12 -1.80015e+12 -3.46425e+12 -2.08063e+12 -2.7777e+12 -3.68106e+12 -1.3043e+12 -2.71795e+12 -2.52313e+12 -1.35193e+12 -3.42872e+12 -3.44689e+12 -2.87694e+12 -1.78596e+12 -2.33897e+12 -2.46698e+12 -2.58853e+12 -1.08044e+12 -827592000000.0 -1.60306e+12 -2.28806e+12 -2.32984e+12 -3.21596e+12 -2.14283e+12 -3.24984e+12 -498754000000.0 -680998000000.0 -1.6281e+12 -1.62025e+12 -3.1846e+12 -1.98457e+12 -4.73835e+12 -3.30552e+12 -4.55932e+12 -3.46433e+12 -2.16022e+12 -2.37462e+12 -3.52233e+12 -3.91701e+12 -2.73195e+12 -3.24924e+12 -3.87489e+12 -3.63136e+12 -3.09657e+12 -3.54887e+12 -4.62744e+12 -2.77796e+12 -2.72396e+12 -2.21592e+12 -4.12627e+12 -1.71066e+12 -1.96124e+12 -1.3027e+12 -2.83392e+12 -1.82451e+12 -2.68973e+12 -5.60995e+12 -1.40258e+12 -3.73815e+12 -4.34949e+12 -5.27561e+12 -3.76334e+12 -4.5402e+12 -760694000000.0 -5.09267e+12 -3.48046e+12 -1.77003e+12 -4.61486e+12 -3.86974e+12 -3.88667e+12 -2.30648e+12 -3.46604e+12 -3.32582e+12 -2.59711e+12 -4.81137e+12 -3.97212e+12 -1.62873e+12 -2.86366e+12 -1.85019e+12 -2.55842e+12 -2.17072e+12 -4.33598e+12 -3.98519e+12 -1.8085e+12 -5.70485e+12 -4.82453e+12 -4.53854e+12 -2.78723e+12 -4.84459e+12 -3.68218e+12 -3.16554e+12 -3.98687e+12 -5.09556e+12 -6.65649e+12 -5.47519e+12 -6.06295e+12 -3.82328e+12 -4.11093e+12 -4.86846e+12 -5.4027e+12 -3.19658e+12 -5.31808e+12 -1.43294e+12 -7.31684e+12 -3.33571e+12 -3.31665e+12 -1.81906e+12 -2.28785e+12 -2.77929e+12 -3.62261e+12 -5.50357e+12 -3.68557e+12 -7.43544e+12 -4.03623e+12 -4.80678e+12 -4.1122e+12 -3.52685e+12 -6.26527e+12 -4.56789e+12 -3.39394e+12 -3.69728e+12 -6.40332e+12 -3.8854e+12 -3.81494e+12 -4.59033e+12 -4.81981e+12 -3.11402e+12 -5.13186e+12 -2.75836e+12 -6.26657e+12 -4.07067e+12 -3.61627e+12 -5.75719e+12 -4.56258e+12 -5.3666e+12 -4.44742e+12 -4.66148e+12 -2.52659e+12 -5.59707e+12 -3.49971e+12 -3.31547e+12 -6.06125e+12 -5.49196e+12 -5.9715e+12 -5.9273e+12 -3.33652e+12 -2.19249e+12 -3.78457e+12 -3.44315e+12 -3.10423e+12 -5.81562e+12 -4.52909e+12 -5.47455e+12 -4.22664e+12 -5.42544e+12 -4.98257e+12 -3.17025e+12 -6.79021e+12 -7.83576e+12 -6.04031e+12 -3.5748e+12 -4.22916e+12 -4.31038e+12 -5.90114e+12 -6.86327e+12 -7.93405e+12 -5.03764e+12 -4.99113e+12 -4.9669e+12 -4.06875e+12 -6.96935e+12 -6.5612e+12 -4.52231e+12 -2.6975e+12 -6.68301e+12 -3.7954e+12 -7.43151e+12 -4.19255e+12 -3.54677e+12 -2.5594e+12 -4.18536e+12 -5.06459e+12 -3.09092e+12 -2.35853e+12 -5.27609e+12 -5.39014e+12 -7.25139e+12 -7.26929e+12 -4.23944e+12 -7.01794e+12 -3.94651e+12 -1.47461e+12 -5.62962e+12 -6.07907e+12 -4.61937e+12 -2.54215e+12 -4.30792e+12 -5.30016e+12 -6.32259e+12 -6.65177e+12 -6.37358e+12 -4.47107e+12 -3.7902e+12 -4.16535e+12 -4.67501e+12 -4.28711e+12 -5.01032e+12 -4.68358e+12 -7.42507e+12 -4.12588e+12 -6.25197e+12 -4.91107e+12 -5.42651e+12 -2.38276e+12 -4.4358e+12 -2.80558e+12 -4.06572e+12 -4.31771e+12 -2.01651e+12 -5.001e+12 -5.24686e+12 -6.39323e+12 -4.95648e+12 -2.33784e+12 -3.47343e+12 -2.81019e+12 -5.15037e+12 -4.84657e+12 -5.18691e+12 -5.60449e+12 -5.7507e+12 -4.84709e+12 -5.71787e+12 -5.09257e+12 -6.59953e+12 -4.38044e+12 -5.0873e+12 -2.6908e+12 -3.93515e+12 -4.54935e+12 -5.35937e+12 -6.09478e+12 -2.56056e+12 -3.63391e+12 -3.57002e+12 -4.29257e+12 -5.32249e+12 -6.01389e+12 -5.22843e+12 -5.58174e+12 -4.38566e+12 -3.15115e+12 -5.90797e+12 -5.82721e+12 -5.56775e+12 -6.85269e+12 -12549700000.0 -4.41226e+12 -2.96873e+12 -5.22727e+12 -4.88433e+12 -5.12283e+12 -6.95214e+12 -3.72532e+12 -5.23704e+12 -4.90644e+12 -4.75095e+12 -7.07954e+12 -5.98254e+12 -4.14558e+12 -4.98556e+12 -5.11323e+12 -4.56001e+12 -5.49178e+12 -5.88027e+12 -3.57063e+12 -4.48218e+12 -3.13198e+12 -3.84368e+12 -3.44356e+12 -4.98867e+12 -7.41688e+12 -5.53158e+12 -5.78169e+12 -4.6064e+12 -5.28049e+12 -6.64053e+12 -5.82662e+12 -5.38936e+12 -6.7405e+12 -3.82064e+12 -6.61128e+12 -1.93766e+12 -6.06849e+12 -5.91953e+12 -3.63783e+12 -3.34266e+12 -4.43395e+12 -4.68769e+12 -4.56417e+12 -4.25903e+12 -5.92278e+12 -7.72312e+12 -5.32464e+12 -3.13616e+12 -4.01698e+12 -6.4935e+12 -3.9316e+12 -4.94875e+12 -2.96084e+12 -4.02735e+12 -6.20498e+12 -5.28031e+12 -2.92545e+12 -4.05384e+12 -5.54681e+12 -4.85592e+12 -3.71941e+12 -7.59419e+12 -7.17933e+12 -4.1615e+12 -3.887e+12 -6.49161e+12 -7.03665e+12 -7.85936e+12 -4.64727e+12 -3.42361e+12 -5.03361e+12 -3.60186e+12 -4.80195e+12 -5.41661e+12 -4.77306e+12 -6.89462e+12 -3.57035e+12 -6.38559e+12 -7.37654e+12 -3.60838e+12 -4.27426e+12 -6.79173e+12 -8.14271e+12 -5.56441e+12 -7.42134e+12 -5.0366e+12 -7.11441e+12 -7.72538e+12 -5.79448e+12 -4.96546e+12 -5.25187e+12 -3.66118e+12 -5.93608e+12 -2.89942e+12 -5.16518e+12 -9.15114e+12 -8.07477e+12 -6.0911e+12 -6.1571e+12 -6.76871e+12 -4.848e+12 -3.60119e+12 -5.4957e+12 -5.32068e+12 -6.09787e+12 -3.92769e+12 -2.82389e+12 -6.88374e+12 -5.73092e+12 -5.66721e+12 -6.75147e+12 -3.98021e+12 -2.11616e+12 -3.23678e+12 -12549700000.0 -3.29522e+12 -5.85771e+12 -6.88078e+12 -7.84236e+12 -6.50733e+12 -8.45897e+12 -4.3415e+12 -5.76639e+12 -6.34847e+12 -6.48294e+12 -3.34535e+12 -6.7494e+12 -5.21533e+12 -6.01129e+12 -5.04639e+12 -8.08089e+12 -6.34853e+12 -6.4233e+12 -5.93976e+12 -4.02228e+12 -4.3589e+12 -3.31858e+12 -4.99886e+12 -4.96763e+12 -6.26573e+12 -6.02785e+12 -5.35237e+12 -4.57287e+12 -6.35281e+12 -5.26101e+12 -6.28284e+12 -2.07086e+12 -4.31155e+12 -7.13077e+12 -8.57966e+12 -8.2696e+12 -9.26807e+12 -4.89672e+12 -2.9352e+12 -3.40662e+12 -12549700000.0 -4.04471e+12 -7.48381e+12 -4.99895e+12 -1.01305e+13 -6.90261e+12 -4.66106e+12 -5.53713e+12 -3.71937e+12 -6.18048e+12 -1.17903e+13 -5.5029e+12 -5.36502e+12 -4.26349e+12 -4.70784e+12 -1.19541e+13 -5.48179e+12 -8.24656e+12 -8.88591e+12 -3.53876e+12 -9.65876e+12 -5.80166e+12 -3.91721e+12 -7.53381e+12 -7.3888e+12 -1.10842e+13 -4.33349e+12 -5.80029e+12 -6.05374e+12 -7.92113e+12 -5.3176e+12 -7.20317e+12 -6.40806e+12 -7.71554e+12 -7.6744e+12 -9.86546e+12 -3.57477e+12 -3.10407e+12 -3.43321e+12 -6.81367e+12 -8.49983e+12 -5.49543e+12 -5.81931e+12 -8.79275e+12 -7.47311e+12 -5.71681e+12 -7.78168e+12 -6.67988e+12 -5.33633e+12 -4.67617e+12 -7.84384e+12 -5.16436e+12 -5.28105e+12 -5.88916e+12 -3.99279e+12 -5.27683e+12 -7.04455e+12 -1.16342e+13 -7.54578e+12 -8.28314e+12 -7.84316e+12 -9.61872e+12 -2.94104e+12 -9.22436e+12 -1.24368e+13 -9.72953e+12 -4.6075e+12 -7.36947e+12 -4.9044e+12 -7.26554e+12 -3.04831e+12 -4.3111e+12 -5.47129e+12 -4.4669e+12 -7.25733e+12 -4.44601e+12 -6.42222e+12 -5.0565e+12 -8.66217e+12 -8.54776e+12 -6.56315e+12 -6.88996e+12 -7.40845e+12 -1.10831e+13 -8.687e+12 -6.69805e+12 -2.4037e+12 -7.07801e+12 -5.51714e+12 -6.70762e+12 -7.06221e+12 -6.91813e+12 -8.20327e+12 -6.31846e+12 -4.39996e+12 -6.72939e+12 -6.00958e+12 -6.55097e+12 -8.39443e+12 -4.68906e+12 -5.41776e+12 -5.86281e+12 -1.01175e+13 -6.75759e+12 -7.00568e+12 -8.56883e+12 -5.83092e+12 -5.956e+12 -1.13486e+13 -1.20439e+13 -8.4603e+12 -1.86833e+13 -8.96204e+12 -1.28852e+13 -4.79388e+12 -4.68516e+12 -4.00185e+12 -4.61318e+12 -5.50416e+12 -6.47169e+12 -8.11658e+12 -8.02129e+12 -4.12115e+12 -6.59784e+12 -3.66399e+12 -4.25114e+12 -8.69458e+12 -4.40954e+12 -6.54695e+12 -5.63552e+12 -7.79601e+12 -8.44366e+12 -5.52133e+12 -6.43e+12 -4.26097e+12 -4.78381e+12 -8.88622e+12 -8.58178e+12 -6.60707e+12 -5.6429e+12 -5.32988e+12 -4.66662e+12 -3.01011e+12 -6.6882e+12 -5.07873e+12 -6.3986e+12 -2.54077e+12 -8.34714e+12 -7.04109e+12 -7.14604e+12 -6.82748e+12 -7.54759e+12 -6.89555e+12 -8.22609e+12 -8.61388e+12 -2.31671e+12 -3.96588e+12 -4.39033e+12 -3.82198e+12 -5.50941e+12 -5.8009e+12 -3.215e+12 -6.99495e+12 -5.1724e+12 -7.80124e+12 -9.40677e+12 -6.24784e+12 -1.14616e+13 -4.02159e+12 -1.08463e+13 -8.59099e+12 -7.04623e+12 -1.01237e+13 -6.09965e+12 -8.22121e+12 -6.08551e+12 -6.67266e+12 -5.82779e+12 -4.38457e+12 -7.23389e+12 -7.41382e+12 -6.29456e+12 -5.44643e+12 -7.25483e+12 -6.22136e+12 -7.57636e+12 -6.89819e+12 -6.79562e+12 -5.34172e+12 -8.48882e+12 -6.21696e+12 -1.00304e+13 -5.22069e+12 -7.6181e+12 -5.42893e+12 -4.08955e+12 -3.54643e+12 -4.53799e+12 -6.69194e+12 -7.36255e+12 -7.07416e+12 -4.56148e+12 -7.7027e+12 -6.59103e+12 -6.00749e+12 -3.86157e+12 -6.74968e+12 -6.30388e+12 -3.87431e+12 -5.62273e+12 -8.2874e+12 -4.24342e+12 -5.36202e+12 -1.00628e+13 -5.13261e+12 -4.03851e+12 -5.32623e+12 -8.98993e+12 -3.07913e+12 -2.6638e+12 -5.81675e+12 -4.51196e+12 -5.20406e+12 -7.44365e+12 -4.23394e+12 -4.05862e+12 -4.17212e+12 -6.16409e+12 -4.00951e+12 -6.50147e+12 -7.10925e+12 -9.83809e+12 -1.09274e+13 -6.10775e+12 -7.12456e+12 -9.15632e+12 -6.29312e+12 -6.599e+12 -1.02282e+13 -9.36891e+12 -8.04212e+12 -4.98962e+12 -7.18113e+12 -8.78733e+12 -6.3165e+12 -5.24249e+12 -4.78096e+12 -8.32482e+12 -6.0003e+12 -4.93768e+12 -3.95393e+12 -4.51182e+12 -7.38138e+12 -4.03252e+12 -3.82467e+12 -7.26188e+12 -7.8215e+12 -6.17234e+12 -1.10715e+13 -7.99419e+12 -3.82635e+12 -4.7897e+12 -6.71749e+12 -1.00833e+13 -5.37711e+12 -8.90614e+12 -1.10398e+13 -1.13515e+13 -1.35544e+13 -9.35564e+12 -1.07997e+13 -6.25222e+12 -6.49451e+12 -9.52675e+12 -4.98588e+12 -1.00615e+13 -6.03861e+12 -9.22098e+12 -6.89847e+12 -6.40075e+12 -3.50794e+12 -8.55468e+12 -4.59671e+12 -1.23704e+13 -4.57807e+12 -6.29419e+12 -7.40507e+12 -6.21671e+12 -8.06161e+12 -8.06577e+12 -9.61003e+12 -9.95961e+12 -8.88947e+12 -5.19952e+12 -8.64459e+12 -4.42043e+12 -9.62165e+12 -7.62734e+12 -7.48478e+12 -5.48796e+12 -7.66269e+12 -8.53467e+12 -6.00099e+12 -7.19841e+12 -5.30924e+12 -6.82784e+12 -7.8386e+12 -7.99447e+12 -5.41145e+12 -5.59141e+12 -7.14938e+12 -1.18918e+13 -3.39085e+12 -9.55572e+12 -1.30985e+13 -8.8667e+12 -4.52503e+12 -5.6978e+12 -6.46183e+12 -5.0893e+12 -6.47498e+12 -4.09571e+12 -4.91572e+12 -8.17454e+12 -4.64623e+12 -3.9642e+12 -3.59971e+12 -6.14789e+12 -3.99814e+12 -8.14517e+12 -9.89533e+12 -8.51634e+12 -9.4518e+12 -1.06833e+13 -7.53027e+12 -9.29104e+12 -7.76361e+12 -5.26516e+12 -4.56583e+12 -5.34069e+12 -5.07333e+12 -8.75209e+12 -1.2225e+13 -8.65165e+12 -7.98149e+12 -5.52996e+12 -5.9405e+12 -1.02403e+13 -6.5824e+12 -8.71992e+12 -7.50517e+12 -9.15014e+12 -7.22222e+12 -5.86201e+12 -5.35661e+12 -5.29652e+12 -3.06275e+12 -9.5454e+12 -5.86216e+12 -7.40241e+12 -7.62203e+12 -5.51484e+12 -9.18497e+12 -6.57976e+12 -5.01482e+12 -9.98627e+12 -6.00807e+12 -5.1297e+12 -7.47933e+12 -7.02492e+12 -4.94653e+12 -1.03439e+13 -7.01111e+12 -5.28988e+12 -1.15366e+13 -7.25989e+12 -5.01154e+12 -1.09675e+13 -4.88332e+12 -5.59537e+12 -5.03803e+12 -4.59057e+12 -9.45012e+12 -7.25126e+12 -1.1373e+13 -6.10953e+12 -9.69277e+12 -6.0397e+12 -5.13765e+12 -6.82341e+12 -1.0129e+13 -4.12334e+12 -6.46152e+12 -9.89497e+12 -1.0079e+13 -8.25637e+12 -8.24623e+12 -1.06471e+13 -9.31588e+12 -1.25278e+13 -1.10988e+13 -7.11741e+12 -4.80128e+12 -5.61067e+12 -1.19164e+13 -7.84391e+12 -7.39307e+12 -8.21246e+12 -4.80107e+12 -3.54533e+12 -5.3447e+12 -3.35375e+12 -7.22876e+12 -5.78842e+12 -5.61276e+12 -1.08118e+13 -8.38422e+12 -9.00115e+12 -8.51605e+12 -7.75188e+12 -1.01667e+13 -6.29224e+12 -8.16159e+12 -8.35122e+12 -8.92139e+12 -7.72614e+12 -9.20086e+12 -7.97561e+12 -7.45151e+12 -7.79659e+12 -6.64689e+12 -7.93945e+12 -5.61297e+12 -5.65991e+12 -6.50064e+12 -8.10191e+12 -1.36776e+13 -9.589e+12 -4.58933e+12 -9.75878e+12 -8.05092e+12 -6.80825e+12 -3.59477e+12 -3.2519e+12 -7.29532e+12 -8.64767e+12 -5.84198e+12 -5.79371e+12 -2.13816e+12 -6.01647e+12 -7.12117e+12 -1.03432e+13 -7.38094e+12 -8.60949e+12 -7.88628e+12 -5.91206e+12 -7.05918e+12 -9.06089e+12 -5.81859e+12 -7.69093e+12 -6.78158e+12 -7.46099e+12 -5.47813e+12 -8.10035e+12 -5.01812e+12 -1.33067e+13 -7.45329e+12 -9.14077e+12 -6.74017e+12 -8.36269e+12 -6.88561e+12 -9.49259e+12 -4.89332e+12 -7.8835e+12 -5.5347e+12 -7.12603e+12 -7.9838e+12 -6.48234e+12 -3.82219e+12 -2.81347e+12 -6.47874e+12 -6.14549e+12 -6.51633e+12 -7.75036e+12 -1.12304e+13 -1.18664e+13 -1.11645e+13 -5.92821e+12 -7.48701e+12 -1.01574e+13 -3.99625e+12 -5.56973e+12 -6.95517e+12 -6.17417e+12 -7.26406e+12 -7.03855e+12 -1.0097e+13 -7.21126e+12 -1.287e+13 -1.41128e+13 -1.38147e+13 -9.777e+12 -1.23284e+13 -5.76384e+12 -4.75522e+12 -6.20074e+12 -7.62369e+12 -6.59736e+12 -1.04217e+13 -8.48065e+12 -8.60716e+12 -1.03946e+13 -8.71618e+12 -7.47929e+12 -7.40649e+12 -5.34232e+12 -6.36898e+12 -1.05842e+13 -1.14487e+13 -6.28967e+12 -7.76342e+12 -1.42219e+13 -9.04144e+12 -5.62007e+12 -1.07616e+13 -5.48079e+12 -7.9672e+12 -7.19189e+12 -6.39185e+12 -4.05252e+12 -6.6341e+12 -8.00375e+12 -7.40305e+12 -4.16363e+12 -4.115e+12 -2.63898e+12 -6.59525e+12 -8.58995e+12 -5.43626e+12 -7.40124e+12 -1.01008e+13 -6.72113e+12 -9.03313e+12 -7.87133e+12 -8.84982e+12 -5.96757e+12 -4.57328e+12 -5.72859e+12 -4.62531e+12 -7.94152e+12 -1.03076e+13 -7.24978e+12 -3.32293e+12 -7.39611e+12 -5.77797e+12 -8.91245e+12 -4.93848e+12 -5.60969e+12 -6.7513e+12 -1.07512e+13 -6.65e+12 -4.35121e+12 -7.88598e+12 -1.04346e+13 -6.47184e+12 -6.01595e+12 -8.75937e+12 -8.11164e+12 -1.0553e+13 -5.6044e+12 -6.5946e+12 -1.02852e+13 -8.54614e+12 -8.72338e+12 -7.7205e+12 -8.8399e+12 -9.82538e+12 -8.27055e+12 -8.43186e+12 -1.43253e+13 -6.80941e+12 -9.00469e+12 -3.51587e+12 -1.00326e+13 -4.5395e+12 -7.52319e+12 -6.38177e+12 -1.13062e+13 -8.31279e+12 -4.15474e+12 -1.25497e+13 -1.15258e+13 -9.9034e+12 -8.79842e+12 -4.11153e+12 -1.05532e+13 -6.16772e+12 -9.65766e+12 -6.88939e+12 -9.55231e+12 -1.00335e+13 -6.74299e+12 -1.23418e+13 -7.61306e+12 -8.21343e+12 -1.01615e+13 -7.14468e+12 -9.12078e+12 -6.98152e+12 -5.51103e+12 -8.75461e+12 -6.90451e+12 -8.15711e+12 -4.11426e+12 -3.54157e+12 -7.01373e+12 -3.48396e+12 -3.66501e+12 -5.14047e+12 -7.18538e+12 -9.36147e+12 -6.94881e+12 -7.48708e+12 -7.43493e+12 -5.73281e+12 -5.37011e+12 -4.43618e+12 -6.87667e+12 -3.47243e+12 -1.14998e+13 -5.44503e+12 -6.65986e+12 -4.68441e+12 -6.97725e+12 -5.45827e+12 -7.93396e+12 -8.39653e+12 -6.98059e+12 -6.82947e+12 -4.93389e+12 -2.91176e+12 -5.46104e+12 -6.75744e+12 -1.09368e+13 -7.84859e+12 -5.80467e+12 -3.26129e+12 -7.69316e+12 -5.98989e+12 -7.33337e+12 -5.32448e+12 -6.25461e+12 -5.70169e+12 -9.82784e+12 -6.2465e+12 -7.31496e+12 -6.60916e+12 -5.87041e+12 -6.55655e+12 -9.4274e+12 -5.55508e+12 -8.86165e+12 -1.04662e+13 -6.65419e+12 -9.44288e+12 -7.52345e+12 -6.50443e+12 -8.29922e+12 -1.5548e+13 -1.21085e+13 -9.34933e+12 -9.59611e+12 -9.30016e+12 -1.1338e+13 -9.4913e+12 -1.36885e+13 -8.22129e+12 -3.7239e+12 -8.52539e+12 -5.85521e+12 -4.04015e+12 -3.03384e+12 -3.60287e+12 -6.33005e+12 -1.01444e+13 -9.2214e+12 -1.16533e+13 -6.39051e+12 -8.66767e+12 -1.37859e+13 -9.70183e+12 -7.33268e+12 -7.14945e+12 -1.06553e+13 -9.53396e+12 -6.73353e+12 -6.17418e+12 -1.25966e+13 -6.27975e+12 -5.48492e+12 -1.33945e+13 -9.63303e+12 -8.87463e+12 -8.08438e+12 -5.36868e+12 -6.57974e+12 -6.3147e+12 -7.9648e+12 -7.34158e+12 -5.90033e+12 -5.04734e+12 -5.07066e+12 -5.37808e+12 -5.20913e+12 -9.79124e+12 -4.80855e+12 -7.1437e+12 -6.21225e+12 -7.08158e+12 -6.38465e+12 -8.04082e+12 -5.10459e+12 -6.31368e+12 -9.94297e+12 -6.94042e+12 -6.18993e+12 -6.91428e+12 -6.08254e+12 -6.96285e+12 -1.11323e+13 -4.36061e+12 -6.17808e+12 -7.17236e+12 -6.40407e+12 -7.81738e+12 -7.0543e+12 -6.98261e+12 -4.76469e+12 -4.69862e+12 -6.69756e+12 -9.33656e+12 -4.57631e+12 -5.36121e+12 -4.6508e+12 -1.00237e+13 -8.71526e+12 -8.62429e+12 -8.34811e+12 -8.50938e+12 -8.38128e+12 -8.15633e+12 -3.26417e+12 -6.2069e+12 -7.14357e+12 -7.55796e+12 -4.97821e+12 -7.37441e+12 -6.76282e+12 -9.24726e+12 -1.06916e+13 -6.76911e+12 -1.22998e+13 -5.63154e+12 -4.66559e+12 -1.03261e+13 -9.15398e+12 -8.10185e+12 -5.38389e+12 -1.33788e+13 -9.67326e+12 -5.7027e+12 -9.66305e+12 -7.82662e+12 -7.52972e+12 -7.18038e+12 -1.14529e+13 -8.1053e+12 -7.40422e+12 -1.22004e+13 -1.0067e+13 -9.80631e+12 -1.0058e+13 -6.79786e+12 -7.63428e+12 -2.37195e+12 -4.66492e+12 -7.40034e+12 -4.12871e+12 -7.54092e+12 -9.80407e+12 -6.26243e+12 -7.06256e+12 -6.01965e+12 -5.77388e+12 -6.25002e+12 -9.56272e+12 -1.32074e+13 -1.05583e+13 -1.15206e+13 -6.53004e+12 -8.0856e+12 -9.11508e+12 -1.13062e+13 -8.9245e+12 -9.34235e+12 -6.05016e+12 -6.2164e+12 -8.12909e+12 -7.8353e+12 -7.3039e+12 -9.85868e+12 -3.50311e+12 -8.32921e+12 -7.55955e+12 -7.8741e+12 -1.05407e+13 -7.2001e+12 -7.30656e+12 -5.44666e+12 -3.82524e+12 -9.19898e+12 -8.09702e+12 -2.65998e+12 -3.93473e+12 -9.58558e+12 -7.53819e+12 -5.088e+12 -6.86132e+12 -7.68478e+12 -5.18132e+12 -6.5174e+12 -4.47505e+12 -3.49155e+12 -6.95335e+12 -5.44187e+12 -5.83397e+12 -3.55753e+12 -4.04093e+12 -1.42754e+13 -7.83554e+12 -5.51203e+12 -5.27309e+12 -8.18059e+12 -7.45995e+12 -8.47696e+12 -5.50426e+12 -7.23668e+12 -7.936e+12 -7.13692e+12 -4.18619e+12 -9.19163e+12 -7.27973e+12 -5.28941e+12 -1.02398e+13 -5.5044e+12 -3.92356e+12 -1.02401e+13 -4.91049e+12 -5.98012e+12 -5.55455e+12 -8.08118e+12 -8.31475e+12 -7.88983e+12 -5.59233e+12 -5.31767e+12 -6.23573e+12 -9.01682e+12 -6.34922e+12 -9.95341e+12 -7.59421e+12 -9.15997e+12 -7.85412e+12 -7.14736e+12 -1.05192e+13 -1.038e+13 -1.02411e+13 -9.31726e+12 -8.21657e+12 -1.22456e+13 -1.19154e+13 -6.49019e+12 -6.46634e+12 -7.38001e+12 -1.12832e+13 -8.44184e+12 -5.20398e+12 -5.52136e+12 -4.88901e+12 -9.79483e+12 -6.08648e+12 -4.52122e+12 -5.49578e+12 -4.88173e+12 -7.20774e+12 -1.0316e+13 -8.42477e+12 -9.94285e+12 -9.5893e+12 -6.99584e+12 -1.092e+13 -7.26818e+12 -7.72014e+12 -8.82685e+12 -5.81458e+12 -8.50861e+12 -7.5407e+12 -6.21426e+12 -5.31366e+12 -7.10949e+12 -9.19701e+12 -8.93462e+12 -6.3249e+12 -7.90761e+12 -9.85709e+12 -8.40425e+12 -7.71501e+12 -1.09837e+13 -1.09339e+13 -8.88648e+12 -8.24888e+12 -8.26388e+12 -5.57128e+12 -4.81927e+12 -1.02496e+13 -9.18755e+12 -6.25426e+12 -7.10491e+12 -6.13062e+12 -1.03465e+13 -6.36305e+12 -6.80797e+12 -7.691e+12 -5.09123e+12 -4.76308e+12 -6.52695e+12 -7.84369e+12 -6.40462e+12 -7.56251e+12 -5.02805e+12 -4.20484e+12 -3.77672e+12 -6.1681e+12 -4.40608e+12 -9.33183e+12 -6.02253e+12 -3.72732e+12 -6.60667e+12 -7.651e+12 -6.65029e+12 -4.40756e+12 -8.54252e+12 -3.42234e+12 -5.69511e+12 -6.66646e+12 -6.79712e+12 -1.06531e+13 -6.01633e+12 -7.45893e+12 -5.20724e+12 -8.60086e+12 -7.24399e+12 -5.30432e+12 -5.84122e+12 -6.92255e+12 -3.25814e+12 -4.45817e+12 -9.40541e+12 -5.68131e+12 -1.02132e+13 -6.61613e+12 -3.8739e+12 -7.16874e+12 -7.90319e+12 -8.86383e+12 -4.27972e+12 -8.70375e+12 -9.36761e+12 -2.627e+12 -4.52303e+12 -5.81942e+12 -6.84154e+12 -6.72157e+12 -6.65943e+12 -8.65803e+12 -9.27081e+12 -9.23003e+12 -4.74828e+12 -7.491e+12 -1.49119e+13 -8.37065e+12 -8.21062e+12 -9.22598e+12 -5.62092e+12 -1.18333e+13 -9.43849e+12 -5.95691e+12 -1.1835e+13 -8.86651e+12 -7.18103e+12 -6.65369e+12 -6.23131e+12 -1.17112e+13 -8.06254e+12 -5.65611e+12 -5.36594e+12 -3.59631e+12 -5.03986e+12 -6.65249e+12 -7.60275e+12 -1.0411e+13 -1.1078e+13 -5.00255e+12 -1.12886e+13 -7.3707e+12 -4.30055e+12 -7.93223e+12 -9.26315e+12 -1.28478e+13 -9.62104e+12 -6.8386e+12 -6.78802e+12 -1.19848e+13 -1.08061e+13 -4.33629e+12 -4.74636e+12 -2.68508e+12 -4.50397e+12 -5.80152e+12 -4.05763e+12 -9.37747e+12 -5.50269e+12 -2.9501e+12 -9.43834e+12 -5.01288e+12 -5.79957e+12 -4.95554e+12 -6.0417e+12 -5.90356e+12 -5.04366e+12 -8.70516e+12 -6.4013e+12 -7.4523e+12 -3.35168e+12 -8.33181e+12 -2.51868e+12 -5.86167e+12 -1.30708e+13 -5.86372e+12 -5.72405e+12 -6.75756e+12 -5.36717e+12 -8.35414e+12 -5.41986e+12 -4.58615e+12 -1.05707e+13 -4.77643e+12 -4.15219e+12 -8.03062e+12 -4.67314e+12 -3.45262e+12 -9.08037e+12 -6.20847e+12 -4.99947e+12 -6.30553e+12 -7.33789e+12 -8.27654e+12 -4.28764e+12 -5.85682e+12 -4.56485e+12 -8.90322e+12 -7.12749e+12 -4.34262e+12 -5.66699e+12 -3.79843e+12 -5.8567e+12 -8.28588e+12 -7.10187e+12 -1.05909e+13 -6.36654e+12 -4.50792e+12 -8.01671e+12 -4.53976e+12 -6.28662e+12 -3.339e+12 -4.86747e+12 -2.52024e+12 -6.42846e+12 -5.86283e+12 -9.30647e+12 -5.61806e+12 -6.45226e+12 -9.76254e+12 -6.40486e+12 -5.35994e+12 -8.53619e+12 -6.85082e+12 -7.88129e+12 -5.2448e+12 -5.27772e+12 -4.38682e+12 -8.96932e+12 -6.92247e+12 -6.87795e+12 -7.57619e+12 -5.29866e+12 -5.59864e+12 -7.39063e+12 -4.49399e+12 -7.48884e+12 -4.54166e+12 -6.46729e+12 -7.82002e+12 -1.82131e+12 -4.61284e+12 -3.70306e+12 -5.17843e+12 -6.26281e+12 -8.05659e+12 -4.12697e+12 -9.98448e+12 -4.2598e+12 -8.41611e+12 -7.58386e+12 -8.07118e+12 -7.44813e+12 -4.55897e+12 -7.68811e+12 -9.54742e+12 -7.65096e+12 -3.70599e+12 -1.05978e+13 -6.4813e+12 -9.19336e+12 -7.66888e+12 -8.19663e+12 -9.3328e+12 -1.04283e+13 -5.45342e+12 -6.63087e+12 -8.41374e+12 -1.16688e+13 -9.56275e+12 -1.18986e+13 -8.9574e+12 -1.23901e+13 -8.8146e+12 -6.38402e+12 -6.47771e+12 -5.43868e+12 -8.06706e+12 -4.25906e+12 -7.96692e+12 -5.11237e+12 -6.34666e+12 -5.67474e+12 -6.89051e+12 -1.11439e+13 -5.65582e+12 -4.16127e+12 -5.7195e+12 -8.8641e+12 -6.35454e+12 -7.96184e+12 -4.91178e+12 -7.02607e+12 -7.4561e+12 -1.096e+13 -1.17319e+13 -1.12139e+13 -4.67402e+12 -3.94582e+12 -6.36928e+12 -8.74714e+12 -6.39708e+12 -5.78423e+12 -5.67917e+12 -5.45327e+12 -6.52576e+12 -7.91548e+12 -3.86824e+12 -5.25312e+12 -8.28797e+12 -7.80179e+12 -5.65752e+12 -7.9852e+12 -7.11574e+12 -4.84031e+12 -9.86212e+12 -8.84234e+12 -9.49885e+12 -8.66598e+12 -6.58024e+12 -6.4163e+12 -6.32058e+12 -2.81905e+12 -7.02138e+12 -7.49147e+12 -6.48227e+12 -5.82877e+12 -5.89409e+12 -9.59782e+12 -4.84542e+12 -1.01861e+13 -4.59972e+12 -4.47199e+12 -8.50987e+12 -8.45299e+12 -8.07082e+12 -4.33416e+12 -7.54219e+12 -6.46655e+12 -5.78286e+12 -4.09711e+12 -2.93542e+12 -4.96698e+12 -1.18688e+13 -4.92973e+12 -5.07045e+12 -3.87165e+12 -3.67906e+12 -7.09547e+12 -9.7944e+12 -7.35112e+12 -7.19589e+12 -4.83867e+12 -3.62958e+12 -7.74143e+12 -8.02951e+12 -6.62178e+12 -2.63436e+12 -1.04114e+13 -3.16854e+12 -6.73365e+12 -1.05529e+13 -8.64964e+12 -1.0003e+13 -8.25234e+12 -6.89629e+12 -5.07498e+12 -7.09051e+12 -7.53728e+12 -1.3066e+13 -5.4697e+12 -2.61078e+12 -1.22945e+13 -3.65018e+12 -9.9409e+12 -6.15767e+12 -6.05947e+12 -4.35565e+12 -6.60196e+12 -9.9048e+12 -7.1775e+12 -6.64655e+12 -9.14914e+12 -7.52933e+12 -7.6745e+12 -8.9373e+12 -8.7165e+12 -6.77357e+12 -4.82857e+12 -9.54774e+12 -8.7194e+12 -5.28686e+12 -4.75771e+12 -8.89849e+12 -7.49583e+12 -8.19998e+12 -6.76595e+12 -9.868e+12 -9.77296e+12 -1.06084e+13 -6.09906e+12 -7.43254e+12 -9.60876e+12 -8.52812e+12 -5.51565e+12 -6.93224e+12 -8.33864e+12 -7.52923e+12 -7.57881e+12 -9.16882e+12 -6.77727e+12 -6.62744e+12 -7.69889e+12 -7.63661e+12 -7.01577e+12 -6.6879e+12 -9.18721e+12 -6.45421e+12 -5.99184e+12 -9.04054e+12 -7.14544e+12 -5.12564e+12 -4.03842e+12 -6.0527e+12 -4.15171e+12 -5.51654e+12 -5.71356e+12 -7.02086e+12 -6.4512e+12 -5.17766e+12 -1.16733e+13 -5.1238e+12 -7.38962e+12 -1.05597e+13 -6.09357e+12 -9.14878e+12 -6.18026e+12 -6.57889e+12 -9.10569e+12 -6.50276e+12 -6.82995e+12 -6.26703e+12 -8.06927e+12 -4.2718e+12 -7.07929e+12 -6.1757e+12 -8.36203e+12 -7.61107e+12 -5.46764e+12 -4.7693e+12 -7.01627e+12 -4.48479e+12 -2.47694e+12 -4.73675e+12 -5.06009e+12 -6.20907e+12 -2.56196e+12 -6.82448e+12 -4.86951e+12 -5.27122e+12 -9.22809e+12 -7.38669e+12 -6.49549e+12 -3.68025e+12 -6.90051e+12 -9.74252e+12 -5.07475e+12 -3.7866e+12 -3.15271e+12 -4.98277e+12 -2.85785e+12 -6.20277e+12 -4.25233e+12 -6.55452e+12 -5.13315e+12 -6.48618e+12 -4.84747e+12 -8.59003e+12 -5.02097e+12 -5.43926e+12 -7.52968e+12 -8.58655e+12 -5.67235e+12 -6.42273e+12 -2.52359e+12 -1.0142e+13 -7.95871e+12 -1.04743e+13 -6.83649e+12 -8.05359e+12 -5.93785e+12 -9.18182e+12 -1.14009e+13 -4.6799e+12 -8.94454e+12 -8.22549e+12 -7.97676e+12 -8.89748e+12 -5.44687e+12 -1.10694e+13 -1.08485e+13 -7.7664e+12 -9.08422e+12 -6.65157e+12 -7.65273e+12 -5.86599e+12 -7.46768e+12 -7.52951e+12 -7.08889e+12 -5.70484e+12 -4.22284e+12 -8.90003e+12 -7.8602e+12 -4.87024e+12 -3.41855e+12 -2.61773e+12 -2.5028e+12 -8.16467e+12 -7.56818e+12 -7.27725e+12 -4.92915e+12 -6.36477e+12 -1.21859e+13 -6.04444e+12 -3.57635e+12 -9.36589e+12 -1.31059e+13 -6.85546e+12 -6.51718e+12 -6.16039e+12 -5.16844e+12 -4.71364e+12 -6.07911e+12 -4.07045e+12 -1.06684e+13 -9.3044e+12 -5.1051e+12 -6.92211e+12 -5.69781e+12 -6.1009e+12 -4.22519e+12 -6.21375e+12 -6.03809e+12 -8.92548e+12 -6.0072e+12 -9.36984e+12 -6.64577e+12 -7.6508e+12 -3.10105e+12 -6.1736e+12 -5.83263e+12 -6.72802e+12 -3.92179e+12 -7.05371e+12 -6.7628e+12 -3.63827e+12 -6.65492e+12 -6.1147e+12 -1.06403e+13 -5.66069e+12 -6.99337e+12 -8.50248e+12 -5.24451e+12 -5.97624e+12 -5.15171e+12 -5.51926e+12 -5.28445e+12 -4.06643e+12 -6.9573e+12 -6.24246e+12 -6.95596e+12 -8.34675e+12 -6.2483e+12 -3.91435e+12 -5.48181e+12 -6.49781e+12 -3.909e+12 -7.59776e+12 -4.16087e+12 -3.96448e+12 -6.02442e+12 -7.34082e+12 -5.21906e+12 -6.53349e+12 -3.5225e+12 -6.04142e+12 -6.99544e+12 -5.83374e+12 -2.76554e+12 -5.39167e+12 -6.29347e+12 -5.39505e+12 -4.6159e+12 -4.13883e+12 -2.72178e+12 -2.1321e+12 -4.54934e+12 -5.72215e+12 -8.15051e+12 -7.07251e+12 -3.38783e+12 -4.03348e+12 -4.80102e+12 -7.10505e+12 -6.09587e+12 -4.68761e+12 -1.01859e+13 -3.63375e+12 -7.13177e+12 -5.1866e+12 -1.0401e+13 -6.42729e+12 -4.83807e+12 -6.51513e+12 -1.00768e+13 -5.52056e+12 -1.01142e+13 -6.29448e+12 -8.3396e+12 -6.49261e+12 -7.42461e+12 -8.59659e+12 -7.60851e+12 -5.53058e+12 -4.28246e+12 -6.36491e+12 -1.24886e+13 -1.15404e+13 -8.2155e+12 -1.00912e+13 -7.99911e+12 -8.70618e+12 -7.09452e+12 -1.06675e+13 -3.55277e+12 -2.0793e+12 -9.14641e+12 -1.31233e+13 -1.00259e+13 -1.16134e+13 -6.61074e+12 -5.96087e+12 -7.10953e+12 -1.25777e+13 -9.54755e+12 -6.63377e+12 -9.15393e+12 -7.98023e+12 -1.00976e+13 -8.65378e+12 -4.16552e+12 -6.40014e+12 -5.41004e+12 -6.20557e+12 -5.0196e+12 -4.05539e+12 -5.30385e+12 -6.34579e+12 -6.27215e+12 -6.61987e+12 -7.85299e+12 -7.53711e+12 -8.49828e+12 -9.68158e+12 -1.26759e+13 -7.52827e+12 -8.68064e+12 -3.36615e+12 -5.21321e+12 -1.47906e+13 -7.92372e+12 -9.92401e+12 -4.93345e+12 -8.57115e+12 -7.33033e+12 -9.5514e+12 -9.75663e+12 -6.73829e+12 -7.57078e+12 -4.59434e+12 -9.74302e+12 -7.41467e+12 -2.52971e+12 -9.10008e+12 -1.10893e+13 -1.04085e+13 -3.13818e+12 -7.43977e+12 -2.88454e+12 -7.57439e+12 -6.06655e+12 -5.66434e+12 -7.18878e+12 -9.08924e+12 -5.33142e+12 -3.728e+12 -5.31674e+12 -1.12607e+13 -9.38862e+12 -1.05106e+13 -5.13102e+12 -4.4456e+12 -5.51102e+12 -9.00471e+12 -3.41548e+12 -3.65766e+12 -8.48682e+12 -8.34225e+12 -4.76517e+12 -5.97294e+12 -7.49766e+12 -7.6872e+12 -5.47105e+12 -7.35497e+12 -3.77648e+12 -4.7251e+12 -5.41346e+12 -3.9653e+12 -3.3977e+12 -6.93201e+12 -4.00352e+12 -8.61e+12 -4.44081e+12 -6.88134e+12 -7.90507e+12 -4.23679e+12 -4.19888e+12 -7.65247e+12 -5.10782e+12 -3.14704e+12 -4.22395e+12 -4.70839e+12 -8.20482e+12 -7.44615e+12 -5.14636e+12 -7.4451e+12 -6.17174e+12 -9.84743e+12 -6.29482e+12 -5.86093e+12 -5.29897e+12 -5.85749e+12 -6.02717e+12 -6.34027e+12 -4.13863e+12 -7.05145e+12 -6.38344e+12 -4.46307e+12 -7.68057e+12 -6.70804e+12 -9.37815e+12 -1.03638e+13 -6.08866e+12 -4.01676e+12 -7.7217e+12 -6.97412e+12 -6.7011e+12 -3.56949e+12 -5.49261e+12 -8.16229e+12 -4.60075e+12 -4.84667e+12 -6.67417e+12 -6.62218e+12 -9.56016e+12 -6.34622e+12 -7.39822e+12 -8.75502e+12 -7.77653e+12 -4.22745e+12 -4.10404e+12 -6.27858e+12 -6.2763e+12 -8.29141e+12 -7.16218e+12 -4.58851e+12 -6.72434e+12 -1.01757e+13 -6.91144e+12 -4.81212e+12 -5.07102e+12 -1.03308e+13 -7.20652e+12 -6.01262e+12 -5.98236e+12 -5.47467e+12 -4.88735e+12 -7.78468e+12 -4.14541e+12 -5.87374e+12 -5.57786e+12 -7.10162e+12 -5.78557e+12 -4.30612e+12 -6.53422e+12 -1.00953e+13 -7.00444e+12 -7.47182e+12 -1.84978e+13 -5.74176e+12 -6.77263e+12 -1.08015e+13 -8.92108e+12 -5.56564e+12 -7.87495e+12 -9.11093e+12 -5.07125e+12 -6.68277e+12 -7.44465e+12 -6.6275e+12 -8.18235e+12 -8.25661e+12 -8.42345e+12 -8.12805e+12 -1.31574e+13 -6.38425e+12 -5.67287e+12 -5.68124e+12 -4.18931e+12 -7.39316e+12 -8.96923e+12 -4.4634e+12 -7.41816e+12 -5.09496e+12 -9.64042e+12 -6.82507e+12 -8.84309e+12 -8.03351e+12 -8.43161e+12 -5.8696e+12 -6.93265e+12 -3.79673e+12 -5.73069e+12 -9.14213e+12 -4.77263e+12 -8.48946e+12 -5.18401e+12 -5.82871e+12 -8.23113e+12 -3.74963e+12 -5.29575e+12 -6.4931e+12 -5.00415e+12 -4.31081e+12 -3.49868e+12 -3.1384e+12 -6.45524e+12 -5.96742e+12 -5.96851e+12 -4.20656e+12 -7.3578e+12 -5.6336e+12 -5.80585e+12 -4.25958e+12 -5.63154e+12 -2.63952e+12 -4.75638e+12 -1.70284e+12 -7.66207e+12 -5.56079e+12 -5.67742e+12 -3.89214e+12 -5.46125e+12 -6.71419e+12 -9.98971e+12 -3.00106e+12 -3.48433e+12 -3.03149e+12 -5.09518e+12 -4.51587e+12 -6.47855e+12 -5.92593e+12 -3.32067e+12 -4.20619e+12 -4.9034e+12 -5.15877e+12 -3.3547e+12 -7.50437e+12 -6.12551e+12 -3.76103e+12 -6.85027e+12 -4.87202e+12 -7.43789e+12 -8.55087e+12 -3.41116e+12 -4.00639e+12 -5.95817e+12 -7.27962e+12 -9.64709e+12 -9.52626e+12 -8.92639e+12 -9.50458e+12 -2.48705e+12 -7.5539e+12 -8.66347e+12 -9.04612e+12 -7.12357e+12 -5.22278e+12 -9.78519e+12 -4.94252e+12 -5.92073e+12 -3.34111e+12 -4.03593e+12 -5.60614e+12 -5.3147e+12 -7.49249e+12 -6.04364e+12 -5.05844e+12 -6.55593e+12 -6.01672e+12 -4.26047e+12 -8.40607e+12 -8.16661e+12 -8.57134e+12 -8.81691e+12 -8.48389e+12 -8.73702e+12 -7.49503e+12 -7.93517e+12 -1.29104e+13 -6.89593e+12 -6.11036e+12 -9.2509e+12 -6.84853e+12 -8.27602e+12 -7.32478e+12 -1.02679e+13 -6.11963e+12 -3.37578e+12 -5.54469e+12 -4.81663e+12 -5.35564e+12 -8.17043e+12 -4.35955e+12 -6.33543e+12 -4.57976e+12 -4.30414e+12 -1.06508e+13 -7.67043e+12 -8.16443e+12 -5.03868e+12 -2.77899e+12 -5.2511e+12 -4.55657e+12 -9.43875e+12 -7.74402e+12 -1.35476e+13 -6.09551e+12 -1.09619e+13 -7.62314e+12 -6.57195e+12 -5.76227e+12 -5.57039e+12 -3.56089e+12 -7.17251e+12 -5.80263e+12 -6.61902e+12 -5.34005e+12 -6.37922e+12 -4.82369e+12 -1.05462e+13 -5.30915e+12 -6.42837e+12 -9.59368e+12 -1.0508e+13 -7.17577e+12 -5.65299e+12 -6.04472e+12 -5.29047e+12 -7.51086e+12 -8.10466e+12 -5.55681e+12 -4.76345e+12 -6.51033e+12 -6.25371e+12 -4.64325e+12 -7.14902e+12 -2.4519e+12 -6.50166e+12 -4.78456e+12 -4.27416e+12 -3.77707e+12 -3.70823e+12 -4.51066e+12 -4.04308e+12 -4.31817e+12 -4.95817e+12 -3.29521e+12 -8.30642e+12 -5.69069e+12 -3.56466e+12 -3.99836e+12 -4.89861e+12 -6.49213e+12 -3.06317e+12 -6.06132e+12 -5.88103e+12 -4.98831e+12 -7.01287e+12 -4.50405e+12 -6.71392e+12 -3.35496e+12 -5.17816e+12 -6.35871e+12 -4.87899e+12 -4.92023e+12 -4.17531e+12 -5.61556e+12 -5.23292e+12 -5.14689e+12 -5.80972e+12 -3.21523e+12 -6.00801e+12 -5.01349e+12 -2.62292e+12 -2.77876e+12 -7.18646e+12 -6.30416e+12 -4.89102e+12 -2.08779e+12 -3.63418e+12 -4.60899e+12 -3.5577e+12 -7.26335e+12 -5.23555e+12 -2.7029e+12 -3.45282e+12 -3.46622e+12 -3.93424e+12 -5.33033e+12 -5.34878e+12 -5.0009e+12 -5.12061e+12 -8.12197e+12 -7.63153e+12 -4.93418e+12 -5.25156e+12 -3.83475e+12 -4.46302e+12 -6.50332e+12 -8.75059e+12 -1.20562e+13 -2.9434e+12 -4.49313e+12 -5.56896e+12 -7.34061e+12 -8.7863e+12 -7.51088e+12 -7.36951e+12 -1.18704e+13 -2.95967e+12 -6.30383e+12 -4.9962e+12 -7.74765e+12 -4.22131e+12 -5.27647e+12 -6.43361e+12 -3.48282e+12 -7.7884e+12 -4.9164e+12 -6.42388e+12 -5.7513e+12 -5.18984e+12 -6.24505e+12 -5.167e+12 -6.1411e+12 -9.3747e+12 -8.77544e+12 -1.07313e+13 -7.08034e+12 -1.15251e+13 -5.59837e+12 -4.3374e+12 -7.2119e+12 -3.79335e+12 -5.61292e+12 -4.74256e+12 -4.8889e+12 -7.69321e+12 -9.12718e+12 -5.74534e+12 -9.84095e+12 -7.30797e+12 -3.60248e+12 -6.72664e+12 -4.51917e+12 -7.75912e+12 -4.33087e+12 -6.55589e+12 -6.67933e+12 -5.09741e+12 -3.63334e+12 -6.56641e+12 -8.0044e+12 -5.82421e+12 -5.34903e+12 -3.85452e+12 -6.76702e+12 -7.17783e+12 -6.1981e+12 -6.67324e+12 -7.43944e+12 -5.3128e+12 -4.20848e+12 -5.99576e+12 -4.78479e+12 -2.48949e+12 -4.84537e+12 -6.48943e+12 -1.97207e+12 -3.96579e+12 -7.14223e+12 -9.56145e+12 -3.8959e+12 -5.91037e+12 -5.42665e+12 -6.04791e+12 -5.82687e+12 -9.21675e+12 -4.72825e+12 -2.75344e+12 -4.6515e+12 -5.36189e+12 -5.45922e+12 -834371000000.0 -7.65776e+12 -8.6703e+12 -7.38137e+12 -4.57604e+12 -2.93247e+12 -4.1991e+12 -3.61195e+12 -1.45697e+12 -8.0919e+12 -5.04807e+12 -4.01839e+12 -4.52761e+12 -4.43105e+12 -2.77468e+12 -3.19199e+12 -7.61407e+12 -6.36105e+12 -4.88586e+12 -5.3339e+12 -4.15181e+12 -4.29529e+12 -4.82673e+12 -2.86766e+12 -6.55919e+12 -6.43199e+12 -5.90363e+12 -6.09698e+12 -5.07095e+12 -4.48077e+12 -6.07794e+12 -4.67247e+12 -4.51663e+12 -4.45364e+12 -4.24681e+12 -2.68757e+12 -6.9282e+12 -6.33407e+12 -3.13943e+12 -3.2043e+12 -5.7101e+12 -5.09503e+12 -4.72581e+12 -6.15211e+12 -4.08345e+12 -5.61579e+12 -5.7436e+12 -4.97259e+12 -6.78475e+12 -9.72039e+12 -3.67774e+12 -4.01977e+12 -5.71245e+12 -4.62319e+12 -4.89733e+12 -6.77042e+12 -1.13586e+13 -6.17799e+12 -6.04296e+12 -7.52052e+12 -7.05294e+12 -6.16281e+12 -3.30814e+12 -4.17812e+12 -4.42641e+12 -5.57311e+12 -9.71926e+12 -6.43395e+12 -4.52498e+12 -9.6159e+12 -6.39438e+12 -1.17089e+13 -7.41329e+12 -7.50331e+12 -4.527e+12 -8.00694e+12 -8.92364e+12 -1.31192e+13 -6.3664e+12 -1.03257e+13 -6.26076e+12 -7.18848e+12 -9.74144e+12 -5.45971e+12 -4.77139e+12 -5.48595e+12 -4.80172e+12 -4.94387e+12 -5.05753e+12 -5.48435e+12 -9.17546e+12 -9.64524e+12 -9.08672e+12 -7.19885e+12 -8.06833e+12 -6.77193e+12 -6.73049e+12 -6.05469e+12 -6.11359e+12 -6.50062e+12 -3.87016e+12 -4.861e+12 -3.85871e+12 -5.77336e+12 -5.75548e+12 -3.43258e+12 -6.56521e+12 -4.87177e+12 -4.38972e+12 -6.57321e+12 -7.67535e+12 -7.73473e+12 -5.38483e+12 -8.70318e+12 -8.65007e+12 -7.03618e+12 -7.15929e+12 -8.08605e+12 -6.03016e+12 -4.75505e+12 -6.6635e+12 -3.51113e+12 -4.53819e+12 -6.546e+12 -4.45165e+12 -3.60029e+12 -6.25883e+12 -6.26633e+12 -7.24885e+12 -3.54957e+12 -9.27849e+12 -4.72912e+12 -8.36524e+12 -5.72131e+12 -7.08661e+12 -8.56715e+12 -2.69367e+12 -6.39899e+12 -3.76995e+12 -9.33756e+12 -4.7872e+12 -4.77644e+12 -3.55164e+12 -3.85295e+12 -8.2108e+12 -2.9075e+12 -5.96398e+12 -4.08156e+12 -5.76154e+12 -6.57289e+12 -4.40148e+12 -4.84915e+12 -3.02206e+12 -4.18844e+12 -7.02703e+12 -5.36099e+12 -4.89743e+12 -5.94567e+12 -5.0955e+12 -5.01833e+12 -4.63481e+12 -4.87744e+12 -5.41842e+12 -2.77791e+12 -3.96706e+12 -5.35285e+12 -5.32121e+12 -3.08607e+12 -2.79294e+12 -3.96715e+12 -3.68293e+12 -3.82998e+12 -3.52783e+12 -3.46102e+12 -4.63259e+12 -4.70054e+12 -3.64019e+12 -4.12401e+12 -5.78844e+12 -4.80505e+12 -2.99439e+12 -2.90634e+12 -2.75907e+12 -3.99525e+12 -2.28465e+12 -4.61811e+12 -2.38981e+12 -5.3711e+12 -1.98767e+12 -4.31844e+12 -4.48428e+12 -3.02206e+12 -3.40655e+12 -6.44756e+12 -3.08252e+12 -3.55113e+12 -4.32774e+12 -5.15329e+12 -4.34678e+12 -3.39229e+12 -2.28738e+12 -6.06675e+12 -6.2496e+12 -3.02182e+12 -5.62216e+12 -3.58155e+12 -5.79127e+12 -6.5405e+12 -9.78319e+12 -5.63731e+12 -5.29035e+12 -4.56121e+12 -7.01984e+12 -7.95395e+12 -3.36672e+12 -9.87225e+12 -4.3734e+12 -5.30696e+12 -4.45991e+12 -4.99406e+12 -7.53502e+12 -8.14689e+12 -3.76313e+12 -3.3828e+12 -3.94683e+12 -6.53441e+12 -5.59274e+12 -5.35822e+12 -3.71854e+12 -8.81689e+12 -5.47288e+12 -8.54267e+12 -9.20256e+12 -7.35084e+12 -6.30854e+12 -6.29724e+12 -4.19015e+12 -4.49143e+12 -5.04661e+12 -4.85297e+12 -7.44328e+12 -1.12372e+13 -1.26252e+13 -1.05969e+13 -4.88009e+12 -7.02129e+12 -8.27676e+12 -9.2719e+12 -7.41751e+12 -5.57404e+12 -5.4819e+12 -7.01135e+12 -5.6638e+12 -3.36903e+12 -3.42091e+12 -5.31149e+12 -2.69428e+12 -5.35109e+12 -5.88964e+12 -6.06949e+12 -7.35082e+12 -5.81138e+12 -6.46814e+12 -4.34113e+12 -5.37757e+12 -3.86478e+12 -3.92019e+12 -8.42293e+12 -6.37587e+12 -8.02107e+12 -4.61581e+12 -8.12077e+12 -6.38326e+12 -6.61739e+12 -6.58354e+12 -4.7176e+12 -5.44132e+12 -7.78704e+12 -5.35709e+12 -6.40676e+12 -3.99108e+12 -5.19178e+12 -5.9724e+12 -9.3742e+12 -4.96886e+12 -6.84684e+12 -6.39311e+12 -8.217e+12 -1.08544e+13 -9.3845e+12 -6.49799e+12 -4.67988e+12 -7.91722e+12 -9.10564e+12 -6.02859e+12 -2.45791e+12 -3.77022e+12 -5.33999e+12 -7.12795e+12 -4.46807e+12 -5.20194e+12 -4.19705e+12 -1.38671e+12 -4.74496e+12 -4.61432e+12 -3.39847e+12 -5.35986e+12 -4.49652e+12 -3.93631e+12 -6.57069e+12 -4.97394e+12 -5.29438e+12 -7.24852e+12 -4.36226e+12 -4.39283e+12 -1.37949e+12 -3.56808e+12 -3.07031e+12 -4.72228e+12 -4.36186e+12 -3.66186e+12 -5.06538e+12 -5.84274e+12 -3.59598e+12 -3.14014e+12 -4.82053e+12 -4.11557e+12 -5.40531e+12 -2.52757e+12 -5.15544e+12 -4.40046e+12 -3.53505e+12 -5.50375e+12 -3.89335e+12 -4.24077e+12 -2.08043e+12 -3.72202e+12 -3.9448e+12 -6.89811e+12 -5.10299e+12 -3.93707e+12 -3.44046e+12 -4.6604e+12 -4.06515e+12 -3.37017e+12 -4.25459e+12 -4.37412e+12 -3.24579e+12 -3.67477e+12 -3.65217e+12 -4.90316e+12 -4.79931e+12 -4.26695e+12 -5.23542e+12 -7.99474e+12 -3.2858e+12 -5.13216e+12 -7.37231e+12 -5.73511e+12 -7.15489e+12 -4.67611e+12 -4.80355e+12 -5.71469e+12 -3.28488e+12 -7.1803e+12 -6.79216e+12 -2.55152e+12 -3.782e+12 -4.12697e+12 -4.41095e+12 -6.87481e+12 -6.29592e+12 -4.52615e+12 -4.94836e+12 -5.56303e+12 -4.15231e+12 -3.86816e+12 -4.19929e+12 -5.10555e+12 -6.17915e+12 -5.84226e+12 -5.62052e+12 -6.20967e+12 -8.29357e+12 -7.55645e+12 -5.22854e+12 -5.73903e+12 -7.77772e+12 -1.17525e+13 -7.75662e+12 -6.8583e+12 -6.75406e+12 -5.81981e+12 -2.24049e+12 -9.79492e+12 -7.70053e+12 -1.01702e+13 -6.15385e+12 -5.61932e+12 -4.85398e+12 -6.21667e+12 -8.51745e+12 -1.44672e+13 -8.14378e+12 -4.71572e+12 -1.11145e+13 -9.59762e+12 -7.90155e+12 -9.02213e+12 -4.93978e+12 -7.68053e+12 -6.18475e+12 -1.20454e+13 -5.83155e+12 -4.79107e+12 -8.54871e+12 -4.81537e+12 -5.77499e+12 -7.63065e+12 -7.21269e+12 -4.94229e+12 -5.44039e+12 -5.44606e+12 -9.79542e+12 -1.00445e+13 -7.34424e+12 -8.44072e+12 -5.95654e+12 -5.72043e+12 -5.60493e+12 -7.33676e+12 -5.77076e+12 -4.83785e+12 -4.83645e+12 -5.23548e+12 -5.45786e+12 -5.30928e+12 -7.44857e+12 -5.09471e+12 -8.76794e+12 -4.77169e+12 -4.47312e+12 -4.29182e+12 -3.35006e+12 -1.01005e+13 -4.92954e+12 -7.15358e+12 -4.05544e+12 -7.26682e+12 -5.27964e+12 -2.99505e+12 -5.31991e+12 -6.40316e+12 -4.71639e+12 -4.88183e+12 -5.62858e+12 -6.17503e+12 -4.1489e+12 -4.80714e+12 -4.42626e+12 -3.48243e+12 -6.05672e+12 -6.61037e+12 -3.33994e+12 -5.12843e+12 -2.82489e+12 -5.74853e+12 -4.41894e+12 -4.49776e+12 -3.15267e+12 -2.77054e+12 -1.75683e+12 -3.66159e+12 -4.45447e+12 -4.14554e+12 -3.52744e+12 -4.71513e+12 -3.31225e+12 -1.91219e+12 -4.19202e+12 -4.34161e+12 -4.20678e+12 -4.61009e+12 -4.57085e+12 -4.16909e+12 -4.80015e+12 -1.73345e+12 -3.55322e+12 -3.78198e+12 -4.47008e+12 -3.48142e+12 -5.08115e+12 -6.6129e+12 -3.94158e+12 -3.82361e+12 -3.61508e+12 -3.98193e+12 -3.85714e+12 -2.62323e+12 -3.63176e+12 -3.98333e+12 -4.76113e+12 -3.15377e+12 -3.57033e+12 -7.7133e+12 -3.53761e+12 -5.37373e+12 -3.36795e+12 -7.68252e+12 -7.75982e+12 -4.80078e+12 -3.78338e+12 -4.22327e+12 -5.78792e+12 -5.62421e+12 -4.47989e+12 -7.62541e+12 -7.2736e+12 -4.00205e+12 -5.14825e+12 -6.01617e+12 -4.98906e+12 -5.63494e+12 -4.12545e+12 -6.83398e+12 -4.5461e+12 -4.26517e+12 -5.43327e+12 -6.46183e+12 -7.3323e+12 -4.01451e+12 -5.43016e+12 -6.05286e+12 -9.51165e+12 -7.4341e+12 -5.35528e+12 -8.00143e+12 -6.6561e+12 -1.19785e+13 -5.18385e+12 -7.81472e+12 -5.94094e+12 -6.45132e+12 -7.3815e+12 -8.82432e+12 -8.1922e+12 -5.95081e+12 -6.91685e+12 -2.71982e+12 -4.14467e+12 -2.50073e+12 -6.88809e+12 -3.12957e+12 -3.50458e+12 -4.17174e+12 -7.00357e+12 -4.94515e+12 -9.98775e+12 -5.0318e+12 -5.22125e+12 -8.25119e+12 -6.46405e+12 -5.04593e+12 -6.46619e+12 -9.34999e+12 -6.08451e+12 -9.92054e+12 -4.04032e+12 -6.57866e+12 -5.49531e+12 -5.81564e+12 -4.72883e+12 -4.33021e+12 -4.65146e+12 -7.38323e+12 -7.79972e+12 -2.88738e+12 -5.99781e+12 -4.03701e+12 -4.77513e+12 -6.05315e+12 -7.16862e+12 -7.0179e+12 -2.42643e+12 -2.68899e+12 -2.21868e+12 -5.71725e+12 -5.23567e+12 -2.56715e+12 -4.65987e+12 -9.71553e+12 -5.54696e+12 -6.70209e+12 -6.67702e+12 -5.0854e+12 -6.11471e+12 -5.5824e+12 -7.46848e+12 -7.38199e+12 -4.02546e+12 -2.64261e+12 -3.82665e+12 -2.19956e+12 -4.54412e+12 -4.05997e+12 -2.95545e+12 -2.83355e+12 -2.19116e+12 -4.54361e+12 -4.95744e+12 -4.87952e+12 -3.51554e+12 -1.92898e+12 -4.46673e+12 -3.17388e+12 -5.11901e+12 -4.1015e+12 -3.84956e+12 -2.62118e+12 -4.00191e+12 -2.29906e+12 -3.12711e+12 -4.17152e+12 -4.18442e+12 -2.70978e+12 -3.12606e+12 -1.92893e+12 -4.20211e+12 -2.83446e+12 -2.64397e+12 -3.86106e+12 -4.17777e+12 -3.07086e+12 -3.73464e+12 -4.70948e+12 -3.39393e+12 -1.81947e+12 -2.55843e+12 -3.73052e+12 -2.49349e+12 -4.44046e+12 -2.70105e+12 -4.08213e+12 -7.04431e+12 -3.10288e+12 -4.91593e+12 -4.94707e+12 -4.18709e+12 -5.95233e+12 -4.60704e+12 -4.49949e+12 -4.29141e+12 -2.15073e+12 -4.94078e+12 -6.15979e+12 -2.71817e+12 -2.41106e+12 -3.84374e+12 -1.85548e+12 -3.08852e+12 -4.86897e+12 -4.85556e+12 -3.06846e+12 -4.77727e+12 -3.39884e+12 -4.11543e+12 -5.83247e+12 -2.64917e+12 -2.5082e+12 -4.49867e+12 -7.27706e+12 -4.8081e+12 -6.54554e+12 -6.93266e+12 -5.60498e+12 -5.44794e+12 -2.57531e+12 -3.50639e+12 -5.36974e+12 -6.08941e+12 -5.47926e+12 -4.18703e+12 -4.10517e+12 -5.64246e+12 -7.80373e+12 -6.11378e+12 -6.10968e+12 -757518000000.0 -6.16069e+12 -6.58693e+12 -5.68867e+12 -5.80847e+12 -7.88618e+12 -6.23369e+12 -5.82599e+12 -4.20735e+12 -3.72888e+12 -7.05576e+12 -7.87662e+12 -5.37942e+12 -7.7521e+12 -6.18171e+12 -6.00907e+12 -9.64275e+12 -1.19394e+13 -6.44207e+12 -4.25293e+12 -5.50151e+12 -9.41853e+12 -6.03391e+12 -2.11724e+12 -2.92516e+12 -1.26234e+12 -7.38476e+12 -4.61116e+12 -3.35534e+12 -4.90493e+12 -6.49641e+12 -1.03153e+13 -3.08916e+12 -4.17504e+12 -4.53461e+12 -5.31908e+12 -5.15217e+12 -4.58382e+12 -6.13488e+12 -8.03637e+12 -4.01695e+12 -6.92956e+12 -8.80196e+12 -6.20088e+12 -2.55524e+12 -6.58298e+12 -7.32149e+12 -3.96983e+12 -4.3488e+12 -5.15516e+12 -4.55503e+12 -4.41259e+12 -6.10451e+12 -3.86524e+12 -4.64431e+12 -3.90344e+12 -3.84781e+12 -5.74603e+12 -8.81709e+12 -3.55456e+12 -5.84179e+12 -6.44434e+12 -4.34485e+12 -4.96771e+12 -5.99707e+12 -5.8408e+12 -4.73653e+12 -5.39504e+12 -3.54396e+12 -4.61691e+12 -8.00459e+12 -3.52544e+12 -2.7421e+12 -3.52925e+12 -2.60105e+12 -4.34035e+12 -6.0422e+12 -4.33131e+12 -3.38765e+12 -3.72608e+12 -5.20768e+12 -3.36394e+12 -4.79898e+12 -4.41713e+12 -2.08235e+12 -3.62855e+12 -3.72477e+12 -4.83031e+12 -2.80658e+12 -2.58701e+12 -3.29828e+12 -4.53016e+12 -1.87149e+12 -4.79566e+12 -3.79294e+12 -4.20167e+12 -4.43982e+12 -2.51154e+12 -3.31663e+12 -1.3122e+12 -3.04921e+12 -2.33732e+12 -2.62158e+12 -3.59674e+12 -3.72164e+12 -4.51282e+12 -2.8691e+12 -3.87816e+12 -3.42442e+12 -2.43253e+12 -2.43396e+12 -4.29821e+12 -2.84532e+12 -6.25967e+12 -5.39651e+12 -3.65885e+12 -6.07516e+12 -4.16604e+12 -6.39616e+12 -5.49703e+12 -5.90174e+12 -5.00669e+12 -6.41218e+12 -3.88576e+12 -4.78857e+12 -3.00241e+12 -5.83772e+12 -5.60458e+12 -4.72719e+12 -4.56722e+12 -5.9759e+12 -6.67863e+12 -4.86363e+12 -6.50995e+12 -5.88233e+12 -4.38544e+12 -4.99601e+12 -3.40543e+12 -4.60457e+12 -6.99363e+12 -5.61658e+12 -5.83279e+12 -7.00597e+12 -6.92638e+12 -5.9497e+12 -8.89512e+12 -5.01712e+12 -3.65104e+12 -7.2468e+12 -2.9773e+12 -5.80481e+12 -6.0265e+12 -5.17764e+12 -4.9655e+12 -7.38831e+12 -5.57173e+12 -6.80048e+12 -5.13235e+12 -4.22943e+12 -6.62229e+12 -3.3769e+12 -2.98002e+12 -4.71515e+12 -6.62918e+12 -8.12941e+12 -5.30142e+12 -5.13707e+12 -5.45916e+12 -4.44839e+12 -7.96179e+12 -6.95779e+12 -7.27355e+12 -5.4666e+12 -2.66328e+12 -3.69914e+12 -2.35664e+12 -3.99866e+12 -6.99987e+12 -4.14535e+12 -4.88953e+12 -5.40831e+12 -6.10589e+12 -5.23267e+12 -6.41873e+12 -6.49407e+12 -4.2816e+12 -4.59598e+12 -4.04675e+12 -6.68614e+12 -4.65709e+12 -3.70398e+12 -4.40033e+12 -4.76688e+12 -5.76567e+12 -4.50201e+12 -5.4416e+12 -5.81839e+12 -4.78532e+12 -4.31744e+12 -3.77417e+12 -3.83438e+12 -5.93906e+12 -6.18107e+12 -4.18652e+12 -4.59274e+12 -6.48542e+12 -4.21176e+12 -2.9635e+12 -5.23408e+12 -4.75589e+12 -4.4329e+12 -5.39e+12 -6.74963e+12 -3.11171e+12 -4.92293e+12 -3.66698e+12 -5.11037e+12 -4.2962e+12 -4.85946e+12 -4.12843e+12 -5.2406e+12 -5.87888e+12 -5.39143e+12 -6.30064e+12 -4.91998e+12 -5.49016e+12 -3.05621e+12 -4.80894e+12 -3.60122e+12 -4.41112e+12 -4.22031e+12 -4.50139e+12 -4.0233e+12 -4.91779e+12 -2.50973e+12 -4.46372e+12 -3.55643e+12 -2.52037e+12 -2.93614e+12 -4.43754e+12 -2.20656e+12 -1.83527e+12 -2.92205e+12 -1.81672e+12 -2.99798e+12 -3.78138e+12 -3.48937e+12 -1.94821e+12 -2.68019e+12 -2.81405e+12 -2.67347e+12 -2.6688e+12 -1.84994e+12 -2.39544e+12 -3.23897e+12 -3.08934e+12 -4.72748e+12 -3.46055e+12 -2.77338e+12 -3.6486e+12 -2.60176e+12 -1.98568e+12 -2.74258e+12 -2.62056e+12 -2.09116e+12 -1.54026e+12 -1.74629e+12 -3.49966e+12 -4.46555e+12 -4.06878e+12 -6.86e+12 -1.5717e+12 -4.0528e+12 -3.47391e+12 -5.79203e+12 -4.76909e+12 -5.66229e+12 -3.98983e+12 -4.47657e+12 -5.85102e+12 -4.86449e+12 -3.5405e+12 -6.52455e+12 -4.0668e+12 -7.36944e+12 -5.43423e+12 -3.08416e+12 -4.46595e+12 -4.96892e+12 -4.87515e+12 -5.9784e+12 -5.6109e+12 -7.29682e+12 -6.83277e+12 -6.70198e+12 -3.22963e+12 -7.56163e+12 -5.0942e+12 -6.14475e+12 -7.4199e+12 -3.63812e+12 -4.44714e+12 -3.35518e+12 -3.45029e+12 -5.6831e+12 -4.22014e+12 -4.81655e+12 -6.04563e+12 -7.09198e+12 -5.99751e+12 -5.70436e+12 -4.51187e+12 -5.37658e+12 -3.57202e+12 -8.92927e+12 -4.87286e+12 -4.27071e+12 -6.57294e+12 -3.44653e+12 -6.92357e+12 -2.97951e+12 -7.27614e+12 -4.90158e+12 -2.76932e+12 -6.84875e+12 -7.4641e+12 -8.12081e+12 -6.22592e+12 -3.61373e+12 -3.84885e+12 -8.79411e+12 -4.6014e+12 -5.37997e+12 -3.95061e+12 -4.70177e+12 -3.42722e+12 -4.3817e+12 -4.06007e+12 -5.29283e+12 -4.98755e+12 -3.22629e+12 -3.42829e+12 -1.80375e+12 -1.83225e+12 -4.4469e+12 -6.41917e+12 -9.27725e+12 -4.50502e+12 -4.84292e+12 -6.4622e+12 -6.25043e+12 -3.90524e+12 -5.00346e+12 -5.94564e+12 -5.10033e+12 -3.84148e+12 -3.7284e+12 -3.86754e+12 -4.06857e+12 -2.91437e+12 -4.37263e+12 -4.69413e+12 -4.80974e+12 -1.49284e+12 -3.81088e+12 -1.71915e+12 -5.69423e+12 -5.11813e+12 -3.25922e+12 -4.18688e+12 -2.77045e+12 -2.82762e+12 -1.64969e+12 -2.08396e+12 -3.50668e+12 -3.05419e+12 -1.50861e+12 -3.20015e+12 -3.73795e+12 -2.51022e+12 -1.31851e+12 -2.05836e+12 -1.23394e+12 -3.27453e+12 -2.73971e+12 -2.18399e+12 -2.94452e+12 -2.25168e+12 -2.39284e+12 -2.65418e+12 -2.73599e+12 -2.6645e+12 -1.10605e+12 -1.32527e+12 -1.35599e+12 -2.70846e+12 -2.47788e+12 -2.86857e+12 -1.86835e+12 -2.75519e+12 -4.67865e+12 -3.04775e+12 -2.78667e+12 -2.5086e+12 -3.20636e+12 -2.52889e+12 -1.81135e+12 -1.96257e+12 -2.69553e+12 -3.87245e+12 -1.83005e+12 -2.94351e+12 -4.38003e+12 -4.32029e+12 -3.53623e+12 -3.00856e+12 -3.03086e+12 -3.06613e+12 -1.63506e+12 -3.27967e+12 -2.84817e+12 -3.57893e+12 -3.88384e+12 -3.49892e+12 -5.19928e+12 -6.33897e+12 -2.19608e+12 -6.95295e+12 -5.84255e+12 -3.48111e+12 -2.53491e+12 -6.51416e+12 -5.93216e+12 -4.02893e+12 -3.17402e+12 -4.63834e+12 -4.52578e+12 -5.19944e+12 -3.7554e+12 -4.76235e+12 -4.46005e+12 -4.54928e+12 -3.53618e+12 -4.51497e+12 -5.33088e+12 -2.95504e+12 -6.33229e+12 -3.73871e+12 -4.65111e+12 -5.49587e+12 -4.46605e+12 -7.44447e+12 -7.26382e+12 -5.56227e+12 -3.53916e+12 -6.3078e+12 -6.36249e+12 -3.07366e+12 -5.62066e+12 -8.01593e+12 -4.62149e+12 -4.2858e+12 -4.76644e+12 -4.50035e+12 -7.47882e+12 -7.2555e+12 -6.88729e+12 -4.79745e+12 -8.6156e+12 -5.70938e+12 -2.65497e+12 -2.23958e+12 -6.50897e+12 -7.25794e+12 -3.93353e+12 -4.81297e+12 -5.69195e+12 -4.84811e+12 -6.76861e+12 -9.0815e+12 -4.57813e+12 -3.48281e+12 -4.1885e+12 -5.50126e+12 -4.3004e+12 -1.53353e+12 -4.17437e+12 -3.24675e+12 -6.63688e+12 -5.10346e+12 -5.65803e+12 -4.62159e+12 -3.96724e+12 -3.72025e+12 -1.83675e+12 -3.95676e+12 -5.75673e+12 -4.37752e+12 -4.72131e+12 -3.17274e+12 -4.58079e+12 -4.53445e+12 -3.1594e+12 -3.7888e+12 -3.14009e+12 -4.35814e+12 -6.58054e+12 -4.05448e+12 -5.93089e+12 -5.13696e+12 -6.36823e+12 -2.80545e+12 -4.50869e+12 -3.61272e+12 -3.49785e+12 -4.21419e+12 -2.91797e+12 -3.95964e+12 -5.88711e+12 -3.75721e+12 -2.76021e+12 -2.94462e+12 -2.77942e+12 -3.72626e+12 -2.18671e+12 -3.13578e+12 -4.97216e+12 -2.4974e+12 -2.31054e+12 -3.156e+12 -1.80425e+12 -1.66939e+12 -2.96923e+12 -1.67757e+12 -1.48884e+12 -1.98801e+12 -1.85211e+12 -1.75014e+12 -2.69794e+12 -2.88836e+12 -2.00686e+12 -2.21393e+12 -2.56963e+12 -3.05876e+12 -1.97148e+12 -2.14314e+12 -3.3208e+12 -4.79192e+12 -2.25514e+12 -3.71748e+12 -1.66553e+12 -2.77476e+12 -3.0376e+12 -2.25288e+12 -3.05839e+12 -2.45474e+12 -3.42753e+12 -3.42433e+12 -4.94559e+12 -2.01917e+12 -1.98144e+12 -2.51255e+12 -1.78637e+12 -2.03983e+12 -2.15677e+12 -5.77583e+12 -2.88727e+12 -1.21422e+12 -3.8468e+12 -2.99557e+12 -4.5826e+12 -2.87996e+12 -3.64315e+12 -4.33433e+12 -1.65168e+12 -3.8556e+12 -6.39428e+12 -2.30569e+12 -3.75154e+12 -3.03712e+12 -1.52793e+12 -1.86667e+12 -6.16742e+12 -6.80816e+12 -5.65972e+12 -2.15658e+12 -3.77529e+12 -2.16878e+12 -4.03354e+12 -3.12846e+12 -4.06435e+12 -4.6758e+12 -4.19671e+12 -5.65586e+12 -2.20111e+12 -731734000000.0 -3.82534e+12 -3.47894e+12 -5.60822e+12 -7.53072e+12 -4.29699e+12 -4.02143e+12 -4.58014e+12 -5.5312e+12 -3.10478e+12 -5.78198e+12 -5.47246e+12 -8.77411e+12 -4.11858e+12 -4.72591e+12 -5.33465e+12 -4.45137e+12 -4.1582e+12 -6.01622e+12 -6.09504e+12 -5.52055e+12 -6.52162e+12 -3.98258e+12 -4.47042e+12 -5.80902e+12 -3.66164e+12 -4.02748e+12 -4.48888e+12 -5.1865e+12 -4.60118e+12 -5.62638e+12 -6.46373e+12 -5.62431e+12 -4.0382e+12 -7.404e+12 -5.12827e+12 -3.35061e+12 -5.51095e+12 -2.09703e+12 -1.23155e+12 -4.65331e+12 -5.40941e+12 -4.73044e+12 -5.15855e+12 -4.77568e+12 -3.06131e+12 -4.07509e+12 -3.6183e+12 -2.48148e+12 -3.62502e+12 -3.17549e+12 -5.19155e+12 -3.12891e+12 -4.30883e+12 -5.97077e+12 -4.89339e+12 -6.33329e+12 -3.2514e+12 -2.47655e+12 -2.75244e+12 -1.54442e+12 -2.57269e+12 -3.47668e+12 -1.93557e+12 -5.45159e+12 -3.70452e+12 -3.68898e+12 -2.22332e+12 -1.97938e+12 -4.17792e+12 -2.67215e+12 -3.73639e+12 -1.50814e+12 -3.81272e+12 -2.36346e+12 -2.48421e+12 -1.41664e+12 -2.18946e+12 -3.25275e+12 -1.21766e+12 -2.08101e+12 -1.14045e+12 -1.80952e+12 -1.51822e+12 -1.95327e+12 -3.08387e+12 -989631000000.0 -2.07603e+12 -1.19526e+12 -1.91276e+12 -2.38688e+12 -2.23992e+12 -1.9804e+12 -3.69994e+12 -4.63613e+12 -2.06215e+12 -2.84538e+12 -1.0178e+12 -2.04407e+12 -842854000000.0 -1.65102e+12 -1.35859e+12 -2.72607e+12 -712922000000.0 -3.78659e+12 -2.4882e+12 -3.55651e+12 -1.96183e+12 -2.37912e+12 -2.27029e+12 -4.26126e+12 -3.32876e+12 -2.61087e+12 -2.91267e+12 -2.65546e+12 -2.20584e+12 -1.79369e+12 -4.81523e+12 -6.05148e+12 -2.08471e+12 -2.06237e+12 -2.22084e+12 -2.3551e+12 -5.07296e+12 -3.46434e+12 -2.37632e+12 -2.03213e+12 -4.45523e+12 -3.29163e+12 -5.54429e+12 -5.52579e+12 -4.36385e+12 -4.63523e+12 -3.09922e+12 -2.11135e+12 -4.67073e+12 -4.04759e+12 -5.51344e+12 -4.10388e+12 -6.01791e+12 -3.71381e+12 -4.15976e+12 -3.95694e+12 -4.53407e+12 -6.74364e+12 -2.93115e+12 -2.84939e+12 -2.45505e+12 -3.19505e+12 -4.19206e+12 -4.34796e+12 -3.22628e+12 -4.94535e+12 -3.97758e+12 -7.6616e+12 -3.57227e+12 -6.66773e+12 -6.19732e+12 -4.51615e+12 -3.59483e+12 -3.65782e+12 -2.95137e+12 -1.91842e+12 -5.68075e+12 -4.03452e+12 -2.43243e+12 -6.84039e+12 -4.08902e+12 -4.82704e+12 -4.49871e+12 -6.16725e+12 -4.64756e+12 -5.46686e+12 -2.34098e+12 -3.79806e+12 -3.76234e+12 -4.07179e+12 -8.56859e+12 -3.48819e+12 -3.53247e+12 -3.47078e+12 -4.72559e+12 -3.29783e+12 -3.9596e+12 -1.48488e+12 -3.31329e+12 -4.78794e+12 -3.10478e+12 -4.75363e+12 -5.0812e+12 -1.55856e+12 -3.39425e+12 -4.63883e+12 -4.35384e+12 -2.64865e+12 -1.74776e+12 -4.44042e+12 -4.57521e+12 -3.78014e+12 -2.25324e+12 -2.69733e+12 -1.72867e+12 -1.39322e+12 -4.24903e+12 -3.04555e+12 -1.51763e+12 -2.42745e+12 -1.72859e+12 -2.24779e+12 -3.26328e+12 -2.77014e+12 -2.86176e+12 -2.81425e+12 -2.32158e+12 -2.964e+12 -1.47755e+12 -1.82703e+12 -1.25097e+12 -1.6889e+12 -2.18782e+12 -1.51661e+12 -2.24623e+12 -958755000000.0 -1.42333e+12 -761546000000.0 -754586000000.0 -2.4678e+12 -2.11063e+12 -1.14601e+12 -2.07086e+12 -2.01396e+12 -904028000000.0 -1.41013e+12 -1.95224e+12 -2.9672e+12 -1.51196e+12 -3.44971e+12 -3.63859e+12 -1.84455e+12 -2.44189e+12 -2.07164e+12 -2.91568e+12 -2.04956e+12 -2.56057e+12 -2.07131e+12 -2.64472e+12 -2.52469e+12 -2.06421e+12 -2.83228e+12 -2.82759e+12 -2.99644e+12 -2.13825e+12 -3.68998e+12 -3.94649e+12 -3.00168e+12 -1.81376e+12 -3.89448e+12 -3.14629e+12 -2.61262e+12 -3.70778e+12 -1.55147e+12 -3.41023e+12 -4.43474e+12 -5.44844e+12 -2.0356e+12 -2.05953e+12 -2.31854e+12 -4.69554e+12 -4.04825e+12 -2.01573e+12 -4.8682e+12 -4.98598e+12 -5.23457e+12 -3.67917e+12 -4.46229e+12 -2.76932e+12 -3.79583e+12 -3.48961e+12 -4.02889e+12 -4.66211e+12 -4.27146e+12 -2.76025e+12 -5.18156e+12 -2.91891e+12 -2.91863e+12 -3.59047e+12 -4.70134e+12 -2.29322e+12 -6.24176e+12 -3.71346e+12 -4.60822e+12 -3.37478e+12 -3.20989e+12 -7.8292e+12 -3.45191e+12 -1.83574e+12 -4.58496e+12 -3.53366e+12 -5.67582e+12 -5.47415e+12 -3.67749e+12 -1.08042e+12 -3.36949e+12 -3.82244e+12 -3.68614e+12 -4.86555e+12 -4.21054e+12 -3.44938e+12 -3.36289e+12 -4.36159e+12 -2.31822e+12 -3.24864e+12 -2.16212e+12 -3.31184e+12 -1.75606e+12 -2.83732e+12 -1.67844e+12 -5.14239e+12 -4.79212e+12 -2.52706e+12 -3.24564e+12 -2.19805e+12 -3.53727e+12 -2.91539e+12 -2.77353e+12 -2.10244e+12 -2.11023e+12 -2.17313e+12 -1.89315e+12 -2.77841e+12 -1.16234e+12 -2.06552e+12 -2.76609e+12 -2.96255e+12 -1.87896e+12 -1.18934e+12 -2.2443e+12 -2.58782e+12 -1.10193e+12 -1.35507e+12 -1.44585e+12 -2.32794e+12 -1.6407e+12 -3.04069e+12 -2.0112e+12 -978717000000.0 -1.64778e+12 -2.03551e+12 -1.87295e+12 -2.18335e+12 -1.34629e+12 -2.3689e+12 -1.9138e+12 -885547000000.0 -1.53683e+12 -1.41314e+12 -2.14981e+12 -1.53707e+12 -1.4135e+12 -1.78742e+12 -1.9935e+12 -3.17304e+12 -2.53083e+12 -1.54091e+12 -1.20035e+12 -1.53718e+12 -2.29447e+12 -3.87963e+12 -2.59828e+12 -4.58083e+12 -1.79186e+12 -3.64342e+12 -3.45743e+12 -2.79913e+12 -2.91873e+12 -1.83839e+12 -2.72551e+12 -1.77463e+12 -3.73949e+12 -3.47249e+12 -1.80667e+12 -1.59837e+12 -3.00313e+12 -1.95539e+12 -3.19561e+12 -4.12111e+12 -2.44363e+12 -2.1872e+12 -5.01823e+12 -3.63203e+12 -3.19262e+12 -946459000000.0 -1.90438e+12 -4.06055e+12 -1.70178e+12 -5.15624e+12 -3.28231e+12 -1.78638e+12 -3.04089e+12 -4.10573e+12 -4.03061e+12 -4.11049e+12 -2.06382e+12 -2.82911e+12 -1.81028e+12 -3.1569e+12 -3.95612e+12 -6.2772e+12 -3.72203e+12 -4.05694e+12 -2.30696e+12 -5.39361e+12 -2.63522e+12 -3.44183e+12 -1.71883e+12 -1.929e+12 -5.00513e+12 -5.18967e+12 -3.59642e+12 -3.76128e+12 -3.18845e+12 -2.70917e+12 -2.1673e+12 -4.63147e+12 -4.17676e+12 -2.55636e+12 -5.30494e+12 -3.31121e+12 -4.04707e+12 -4.63158e+12 -2.0655e+12 -1.67407e+12 -4.01249e+12 -3.77411e+12 -774530000000.0 -1.62363e+12 -3.45651e+12 -2.94033e+12 -2.15458e+12 -2.96453e+12 -624122000000.0 -3.13761e+12 -1.5201e+12 -2.36146e+12 -2.45294e+12 -3.50062e+12 -1.39303e+12 -2.53361e+12 -1.09275e+12 -2.27082e+12 -1.37314e+12 -4.33968e+12 -3.35831e+12 -889066000000.0 -990977000000.0 -1.95765e+12 -2.32726e+12 -1.59362e+12 -2.27595e+12 -1.59832e+12 -1.036e+12 -2.0311e+12 -1.22163e+12 -1.84995e+12 -994907000000.0 -2.34363e+12 -406855000000.0 -2.13841e+12 -1.11735e+12 -2.86864e+12 -1.18741e+12 -1.84545e+12 -1.89149e+12 -893241000000.0 -1.89559e+12 -1.50849e+12 -2.82953e+12 -883902000000.0 -2.24124e+12 -1.91736e+12 -1.19065e+12 -1.29178e+12 -1.85156e+12 -578338000000.0 -1.86762e+12 -398555000000.0 -436425000000.0 -1.28261e+12 -1.52633e+12 -1.82983e+12 -1.36865e+12 -1.43662e+12 -614270000000.0 -2.56779e+12 -1.50859e+12 -2.06421e+12 -1.96928e+12 -2.40654e+12 -2.40283e+12 -3.02788e+12 -392815000000.0 -1.71495e+12 -3.3189e+12 -4.03164e+12 -2.39515e+12 -2.54257e+12 -941542000000.0 -2.01044e+12 -2.65355e+12 -1.44518e+12 -2.83474e+12 -2.80897e+12 -2.05769e+12 -2.7246e+12 -2.80633e+12 -2.03194e+12 -1.31169e+12 -4.58718e+12 -3.50311e+12 -3.20862e+12 -2.49868e+12 -2.51031e+12 -2.05879e+12 -3.69282e+12 -1.5172e+12 -3.73938e+12 -2.35738e+12 -1.10289e+12 -2.20868e+12 -4.51704e+12 -2.40652e+12 -5.2911e+12 -2.33302e+12 -4.66005e+12 -3.8408e+12 -2.50932e+12 -5.20358e+12 -892306000000.0 -4.5377e+12 -3.18447e+12 -2.52578e+12 -3.45818e+12 -2.90598e+12 -4.34098e+12 -2.04243e+12 -3.80707e+12 -1.56242e+12 -2.55494e+12 -2.20161e+12 -2.74278e+12 -3.77879e+12 -2.55537e+12 -1.98651e+12 -2.93714e+12 -2.33216e+12 -3.29816e+12 -2.30578e+12 -2.17068e+12 -2.18339e+12 -3.23179e+12 -2.08238e+12 -1.76438e+12 -1.86492e+12 -698534000000.0 -2.88405e+12 -1.79284e+12 -2.49904e+12 -1.82844e+12 -1.70812e+12 -1.04707e+12 -2.22889e+12 -1.75331e+12 -2.216e+12 -3.17142e+12 -2.05114e+12 -1.84453e+12 -1.11192e+12 -1.48577e+12 -1.54011e+12 -1.40479e+12 -1.55901e+12 -1.27608e+12 -1.50099e+12 -866707000000.0 -1.06334e+12 -831489000000.0 -1.87962e+12 -1.8776e+12 -1.08587e+12 -377123000000.0 -1.3552e+12 -601912000000.0 -1.39718e+12 -2.23556e+12 -970003000000.0 -1.07017e+12 -741602000000.0 -1.87529e+12 -221897000000.0 -1.71087e+12 -2.14383e+12 -1.36756e+12 -931834000000.0 -1.32131e+12 -558076000000.0 -923394000000.0 -512156000000.0 -949017000000.0 -1.07123e+12 -786154000000.0 -802001000000.0 -859904000000.0 -1.68127e+12 -2.10612e+12 -1.84172e+12 -1.47862e+12 -797742000000.0 -1.44797e+12 -2.19995e+12 -1.62354e+12 -935094000000.0 -1.30072e+12 -1.83142e+12 -1.52087e+12 -2.20706e+12 -2.72315e+12 -1.8381e+12 -1.56748e+12 -1.34062e+12 -2.47054e+12 -3.70966e+12 -1.85689e+12 -427061000000.0 -709782000000.0 -1.16102e+12 -1.5638e+12 -1.07718e+12 -1.30871e+12 -1.77896e+12 -1.67743e+12 -3.76792e+12 -1.80535e+12 -491406000000.0 -2.24802e+12 -2.76431e+12 -1.75183e+12 -2.49756e+12 -3.29572e+12 -2.95782e+12 -3.7254e+12 -1.84529e+12 -3.06362e+12 -1.52422e+12 -2.67594e+12 -2.29311e+12 -2.20031e+12 -3.73401e+12 -4.52112e+12 -1.66622e+12 -1.45492e+12 -3.84328e+12 -2.88821e+12 -1.6367e+12 -1.33359e+12 -4.58269e+12 -2.07703e+12 -2.01921e+12 -1.64452e+12 -1.75676e+12 -2.03038e+12 -1.47164e+12 -2.84416e+12 -2.01259e+12 -558750000000.0 -2.03253e+12 -777118000000.0 -3.34787e+12 -2.43446e+12 -1.3847e+12 -1.7306e+12 -939381000000.0 -1.12706e+12 -2.36232e+12 -2.07116e+12 -1.68092e+12 -1.13323e+12 -2.44105e+12 -1.57802e+12 -1.90736e+12 -1.95963e+12 -1.85604e+12 -1.50596e+12 -2.44171e+12 -2.80342e+12 -1.61341e+12 -1.27615e+12 -2.45284e+12 -2.45996e+12 -1.53513e+12 -2.67951e+12 -209952000000.0 -1.1154e+12 -1.33571e+12 -1.59119e+12 -689469000000.0 -1.4916e+12 -1.50294e+12 -1.31287e+12 -1.40382e+12 -465450000000.0 -902625000000.0 -1.29182e+12 -610264000000.0 -1.1226e+12 -521069000000.0 -340853000000.0 -1.03808e+12 -901508000000.0 -148640000000.0 -354875000000.0 -283574000000.0 -1.20764e+12 -508796000000.0 -571991000000.0 -678542000000.0 -244159000000.0 -684326000000.0 -747908000000.0 -529789000000.0 -355364000000.0 -484656000000.0 -298262000000.0 -621606000000.0 -1.36545e+12 -385135000000.0 -1.10986e+12 -1.72217e+12 -679946000000.0 -429247000000.0 -941435000000.0 -1.16129e+12 -1.33087e+12 -858159000000.0 -1.52532e+12 -2.53277e+12 -2.13116e+12 -1.37245e+12 -1.65172e+12 -1.8339e+12 -1.14863e+12 -1.40629e+12 -1.0647e+12 -1.37224e+12 -2.1824e+12 -2.45521e+12 -3.10944e+12 -785835000000.0 -1.40047e+12 -3.38017e+12 -1.26196e+12 -1.29507e+12 -2.14815e+12 -1.40103e+12 -1.95627e+12 -1.43746e+12 -2.50279e+12 -1.12141e+12 -1.76923e+12 -2.63682e+12 -1.11504e+12 -3.505e+12 -2.56029e+12 -2.13538e+12 -1.83624e+12 -1.28217e+12 -4.00459e+12 -1.91432e+12 -2.44509e+12 -515926000000.0 -1.95833e+12 -2.72561e+12 -2.41936e+12 -1.96997e+12 -1.58906e+12 -1.63027e+12 -2.95906e+12 -2.42994e+12 -2.01506e+12 -1.6582e+12 -2.08546e+12 -1.01066e+12 -1.72759e+12 -887552000000.0 -1.63867e+12 -609791000000.0 -1.51231e+12 -1.81929e+12 -1.25982e+12 -2.08274e+12 -1.48273e+12 -2.41211e+12 -907589000000.0 -3.11068e+12 -1.52333e+12 -2.00288e+12 -947136000000.0 -1.36059e+12 -2.12339e+12 -2.00258e+12 -738539000000.0 -1.33076e+12 -1.27305e+12 -1.96925e+12 -953860000000.0 -1.03075e+12 -1.96855e+12 -2.36169e+12 -801733000000.0 -1.00329e+12 -578076000000.0 -1.55749e+12 -521054000000.0 -746936000000.0 -1.20816e+12 -695902000000.0 -864011000000.0 -236425000000.0 -596350000000.0 -449953000000.0 -291226000000.0 -270131000000.0 -425878000000.0 -360382000000.0 -369295000000.0 -305149000000.0 -519166000000.0 -680435000000.0 -721233000000.0 -754351000000.0 -525168000000.0 -621738000000.0 -342421000000.0 -41021100000.0 -678987000000.0 -1.15522e+12 -156013000000.0 -696441000000.0 -315678000000.0 -353767000000.0 -1.26973e+12 -425277000000.0 -284464000000.0 -628364000000.0 -904388000000.0 -631278000000.0 -773404000000.0 -1.53614e+12 -1.03797e+12 -1.51287e+12 -818016000000.0 -528902000000.0 -1.0452e+12 -641921000000.0 -1.16641e+12 -417535000000.0 -889032000000.0 -1.16977e+12 -902750000000.0 -1.3028e+12 -1.0628e+12 -1.21016e+12 -1.57212e+12 -2.90619e+12 -2.79579e+12 -2.36594e+12 -1.40031e+12 -1.78094e+12 -2.61871e+12 -1.30612e+12 -1.20003e+12 -2.77347e+12 -2.64575e+12 -1.04377e+12 -1.20592e+12 -1.90491e+12 -2.44441e+12 -2.19112e+12 -1.82413e+12 -1.48218e+12 -1.58646e+12 -626322000000.0 -1.94518e+12 -1.38088e+12 -1.35661e+12 -1.20449e+12 -2.14077e+12 -263491000000.0 -814948000000.0 -1.5344e+12 -1.28459e+12 -551200000000.0 -446995000000.0 -1.20853e+12 -727032000000.0 -2.22354e+12 -1.12026e+12 -1.56665e+12 -1.13046e+12 -1.52341e+12 -1.20466e+12 -1.51731e+12 -567730000000.0 -1.13072e+12 -720993000000.0 -1.39326e+12 -1.9821e+12 -981201000000.0 -1.96736e+12 -979731000000.0 -593183000000.0 -1.26189e+12 -120213000000.0 -376983000000.0 -694503000000.0 -421433000000.0 -2.02213e+12 -1.11768e+12 -838341000000.0 -924580000000.0 -469877000000.0 -594911000000.0 -1.05813e+12 -520464000000.0 -462455000000.0 -331206000000.0 -454209000000.0 -482120000000.0 -301580000000.0 -197581000000.0 -291478000000.0 -270822000000.0 -722690000000.0 -770863000000.0 -349707000000.0 -440789000000.0 -388468000000.0 -129720000000.0 -167991000000.0 -154348000000.0 -89829900000.0 -160973000000.0 -110304000000.0 -168548000000.0 -63630300000.0 -136867000000.0 -301212000000.0 -321019000000.0 -270240000000.0 -182477000000.0 -618339000000.0 -150011000000.0 -237783000000.0 -250540000000.0 -458856000000.0 -786328000000.0 -270058000000.0 -441161000000.0 -515476000000.0 -349092000000.0 -233940000000.0 -775225000000.0 -332964000000.0 -432670000000.0 -1.03171e+12 -307447000000.0 -673044000000.0 -1.14587e+12 -1.53776e+12 -1.39713e+12 -887226000000.0 -753830000000.0 -1.43777e+12 -933320000000.0 -369139000000.0 -775401000000.0 -854539000000.0 -776286000000.0 -1.32662e+12 -1.05455e+12 -915868000000.0 -1.21947e+12 -995814000000.0 -1.2609e+12 -1.33605e+12 -1.36825e+12 -1.6118e+12 -1.592e+12 -2.03697e+12 -2.07984e+12 -1.65301e+12 -1.34594e+12 -630022000000.0 -2.0252e+12 -1.27326e+12 -1.45716e+12 -1.42746e+12 -1.1243e+12 -1.29608e+12 -709595000000.0 -817778000000.0 -537658000000.0 -1.49499e+12 -647166000000.0 -956339000000.0 -474483000000.0 -497719000000.0 -1.12298e+12 -952089000000.0 -1.1857e+12 -729222000000.0 -703641000000.0 -1.02406e+12 -644784000000.0 -1.50739e+12 -663147000000.0 -382618000000.0 -711758000000.0 -642311000000.0 -681075000000.0 -677908000000.0 -449548000000.0 -865321000000.0 -662869000000.0 -344260000000.0 -666260000000.0 -648477000000.0 -966498000000.0 -752843000000.0 -853773000000.0 -850999000000.0 -616900000000.0 -661257000000.0 -444631000000.0 -434955000000.0 -459333000000.0 -121814000000.0 -281517000000.0 -617987000000.0 -233488000000.0 -302389000000.0 -354479000000.0 -221710000000.0 -146848000000.0 -151811000000.0 -212468000000.0 -60554500000.0 -102975000000.0 -196763000000.0 -235798000000.0 -90182900000.0 -61542800000.0 -559351000000.0 -341912000000.0 -299620000000.0 -386237000000.0 -329014000000.0 -193246000000.0 -273689000000.0 -370830000000.0 -238398000000.0 -459005000000.0 -710839000000.0 -158776000000.0 -754692000000.0 -1.27634e+12 -80370800000.0 -734280000000.0 -222402000000.0 -462753000000.0 -864038000000.0 -156040000000.0 -394838000000.0 -740224000000.0 -537585000000.0 -948513000000.0 -742380000000.0 -1.09587e+12 -723585000000.0 -1.32694e+12 -408345000000.0 -716652000000.0 -323074000000.0 -868161000000.0 -274903000000.0 -1.09161e+12 -599361000000.0 -350620000000.0 -689120000000.0 -958424000000.0 -512283000000.0 -166412000000.0 -120749000000.0 -393005000000.0 -513019000000.0 -230591000000.0 -243805000000.0 -532813000000.0 -203749000000.0 -63340100000.0 -327614000000.0 -149272000000.0 -175951000000.0 -166321000000.0 -256477000000.0 -119527000000.0 -219881000000.0 -607552000000.0 -52153400000.0 -107488000000.0 -247950000000.0 -254194000000.0 -145361000000.0 -180559000000.0 -220307000000.0 -199246000000.0 -112461000000.0 -104130000000.0 -231226000000.0 -92562900000.0 -236425000000.0 -113406000000.0 -104978000000.0 -97571700000.0 -120236000000.0 -44409400000.0 -82471500000.0 -228215000000.0 -211873000000.0 -127859000000.0 -81887700000.0 -264238000000.0 -176507000000.0 -471552000000.0 -167613000000.0 -711871000000.0 -284041000000.0 -359942000000.0 -178339000000.0 -180930000000.0 -789785000000.0 -113820000000.0 -442166000000.0 -620382000000.0 -894407000000.0 -278533000000.0 -436238000000.0 -793973000000.0 -670387000000.0 -138692000000.0 -53398800000.0 -308786000000.0 -320454000000.0 -193620000000.0 -143662000000.0 -156881000000.0 -187341000000.0 -308167000000.0 -100253000000.0 -142511000000.0 -94489200000.0 