# vtk DataFile Version 2.0
Time step 6
ASCII
DATASET UNSTRUCTURED_GRID
POINTS 5000 float
35806.8 480980.0 0
26455.4 486514.0 0
30901.1 484055.0 0
40497.4 482602.0 0
43908.8 479198.0 0
45741.2 483264.0 0
48966.6 480912.0 0
53061.7 479700.0 0
57952.1 480148.0 0
63372.0 481691.0 0
68573.2 481769.0 0
73104.5 480781.0 0
77798.4 481561.0 0
82628.7 481511.0 0
87417.4 480853.0 0
92500.0 481548.0 0
97242.0 481569.0 0
101341.0 481481.0 0
106009.0 481000.0 0
111904.0 481440.0 0
117818.0 481539.0 0
123296.0 481617.0 0
128310.0 481732.0 0
133394.0 480991.0 0
138091.0 481668.0 0
142500.0 481591.0 0
147500.0 481525.0 0
152501.0 481494.0 0
157572.0 481173.0 0
162524.0 481350.0 0
167032.0 480978.0 0
171838.0 479781.0 0
177752.0 479826.0 0
182960.0 479029.0 0
187432.0 480856.0 0
192500.0 481943.0 0
196143.0 481172.0 0
201771.0 480496.0 0
207665.0 481229.0 0
213016.0 480721.0 0
218143.0 481651.0 0
222494.0 481660.0 0
225859.0 481152.0 0
230417.0 480932.0 0
235812.0 481799.0 0
241174.0 480521.0 0
246492.0 482550.0 0
252644.0 480459.0 0
259004.0 481014.0 0
263741.0 482029.0 0
268732.0 481056.0 0
273930.0 481265.0 0
278866.0 479884.0 0
286336.0 481515.0 0
291724.0 482011.0 0
297321.0 479866.0 0
303627.0 480802.0 0
312127.0 481050.0 0
317929.0 481682.0 0
323245.0 481670.0 0
327586.0 481829.0 0
332211.0 481438.0 0
337228.0 481166.0 0
341034.0 482341.0 0
345943.0 480779.0 0
350796.0 482524.0 0
355412.0 481757.0 0
361937.0 480326.0 0
372026.0 478480.0 0
368020.0 481853.0 0
377035.0 480467.0 0
382625.0 481253.0 0
388132.0 480486.0 0
394013.0 479819.0 0
399123.0 481672.0 0
403584.0 478949.0 0
408551.0 480031.0 0
412500.0 481664.0 0
417500.0 481559.0 0
422658.0 479898.0 0
427252.0 481296.0 0
432101.0 479255.0 0
436469.0 481445.0 0
440724.0 480511.0 0
444533.0 478807.0 0
448686.0 480464.0 0
453077.0 481617.0 0
456831.0 478335.0 0
459080.0 483368.0 0
463653.0 480911.0 0
468512.0 483136.0 0
472941.0 486182.0 0
19895.5 489873.0 0
22640.6 487851.0 0
24768.7 491723.0 0
30152.3 489339.0 0
35545.7 486869.0 0
41491.3 487805.0 0
46398.9 487322.0 0
53351.1 483926.0 0
50054.2 485822.0 0
54235.5 487966.0 0
58854.5 485767.0 0
63680.9 486696.0 0
67571.4 486209.0 0
72209.7 485983.0 0
77500.0 486678.0 0
82115.5 486272.0 0
87881.1 485613.0 0
92500.0 486687.0 0
97208.4 486476.0 0
102467.0 486221.0 0
108274.0 485603.0 0
112500.0 486624.0 0
117500.0 486705.0 0
122500.0 486628.0 0
127708.0 486231.0 0
132478.0 486521.0 0
137520.0 486537.0 0
142763.0 486026.0 0
147038.0 486385.0 0
152048.0 486241.0 0
156984.0 485245.0 0
161410.0 486101.0 0
166625.0 485657.0 0
172884.0 485366.0 0
178286.0 485248.0 0
183444.0 484107.0 0
188513.0 485335.0 0
193492.0 486110.0 0
198184.0 485578.0 0
203919.0 486125.0 0
213694.0 485272.0 0
209352.0 486384.0 0
217672.0 486696.0 0
222107.0 486663.0 0
226895.0 485378.0 0
232240.0 486235.0 0
237754.0 487026.0 0
243353.0 486982.0 0
248358.0 486663.0 0
252579.0 487064.0 0
257167.0 485632.0 0
262343.0 486220.0 0
267245.0 485957.0 0
271699.0 485244.0 0
276904.0 485636.0 0
282036.0 483195.0 0
282784.0 486892.0 0
287500.0 486602.0 0
292743.0 486545.0 0
298188.0 485386.0 0
303030.0 486463.0 0
307762.0 483257.0 0
307486.0 486577.0 0
312501.0 486796.0 0
317499.0 486559.0 0
322497.0 486147.0 0
327500.0 486582.0 0
332500.0 486654.0 0
337667.0 486079.0 0
343259.0 485412.0 0
347674.0 485970.0 0
352640.0 486480.0 0
361569.0 485639.0 0
357894.0 486183.0 0
365253.0 485577.0 0
373039.0 485251.0 0
378896.0 484982.0 0
382069.0 486147.0 0
388244.0 485577.0 0
393425.0 485883.0 0
398008.0 486294.0 0
402899.0 485138.0 0
408262.0 484299.0 0
412729.0 485627.0 0
417393.0 486072.0 0
422069.0 484522.0 0
427716.0 486296.0 0
432541.0 484554.0 0
437500.0 486596.0 0
441661.0 484792.0 0
445970.0 484103.0 0
450120.0 485015.0 0
454937.0 486432.0 0
460596.0 488374.0 0
463417.0 485485.0 0
467601.0 487962.0 0
472251.0 491064.0 0
477839.0 490069.0 0
482990.0 492122.0 0
11034.2 495883.0 0
14811.4 493218.0 0
19339.0 494116.0 0
23319.9 496366.0 0
29216.8 493801.0 0
34312.5 493218.0 0
38114.3 490530.0 0
40455.7 493384.0 0
44726.7 491520.0 0
49346.6 491004.0 0
53333.2 492870.0 0
57737.8 491649.0 0
63119.1 491305.0 0
68570.7 490959.0 0
74462.8 491301.0 0
78701.3 492239.0 0
82271.3 490991.0 0
87238.1 491164.0 0
92595.2 491444.0 0
97585.4 490990.0 0
102637.0 491984.0 0
107937.0 490373.0 0
112500.0 491544.0 0
116779.0 491384.0 0
120879.0 491177.0 0
125898.0 490619.0 0
131193.0 492305.0 0
136477.0 492171.0 0
141049.0 490176.0 0
146366.0 491269.0 0
151884.0 492897.0 0
156304.0 489796.0 0
161743.0 491792.0 0
170074.0 490245.0 0
176366.0 491057.0 0
182245.0 489279.0 0
188110.0 491505.0 0
194311.0 491116.0 0
200024.0 490638.0 0
204283.0 491697.0 0
208088.0 491207.0 0
213293.0 490077.0 0
217709.0 491656.0 0
222549.0 490945.0 0
227003.0 490371.0 0
232500.0 491698.0 0
237520.0 491475.0 0
241877.0 492082.0 0
246984.0 490816.0 0
251952.0 491995.0 0
257630.0 490384.0 0
262624.0 491004.0 0
267396.0 490423.0 0
272949.0 490531.0 0
279873.0 489579.0 0
283572.0 491826.0 0
287233.0 491907.0 0
291081.0 490944.0 0
296787.0 490461.0 0
302261.0 491706.0 0
307706.0 491008.0 0
313214.0 492080.0 0
318226.0 491287.0 0
322502.0 490150.0 0
326865.0 491869.0 0
336537.0 490759.0 0
331909.0 491826.0 0
341421.0 489639.0 0
346830.0 490367.0 0
351918.0 491322.0 0
356094.0 490022.0 0
361311.0 490337.0 0
366587.0 489673.0 0
371211.0 491396.0 0
377753.0 490903.0 0
384388.0 489503.0 0
392392.0 490726.0 0
388395.0 492655.0 0
397174.0 490657.0 0
402774.0 491358.0 0
409085.0 489931.0 0
414160.0 492539.0 0
418788.0 490829.0 0
423769.0 489409.0 0
427053.0 492624.0 0
431411.0 490170.0 0
436356.0 491208.0 0
441161.0 489975.0 0
447070.0 489317.0 0
452649.0 491642.0 0
457315.0 490821.0 0
461025.0 492872.0 0
464101.0 491025.0 0
464241.0 494397.0 0
467532.0 492987.0 0
470908.0 495108.0 0
475545.0 495061.0 0
481277.0 496581.0 0
487287.0 495733.0 0
7497.79 497982.0 0
4271.7 499948.0 0
11089.8 501439.0 0
15119.5 497646.0 0
19587.0 499152.0 0
23484.8 499989.0 0
27445.9 497802.0 0
35257.5 498917.0 0
40373.9 498235.0 0
45437.8 496401.0 0
50537.1 495710.0 0
55087.3 497108.0 0
60030.2 496508.0 0
64275.7 495704.0 0
68593.1 496848.0 0
73057.6 496399.0 0
77454.3 495896.0 0
82462.3 496069.0 0
87602.2 496326.0 0
92493.5 496828.0 0
97925.0 496328.0 0
102900.0 497682.0 0
107753.0 495860.0 0
113104.0 495896.0 0
118124.0 495879.0 0
123395.0 495187.0 0
127500.0 496703.0 0
132636.0 497157.0 0
137711.0 496103.0 0
142515.0 496329.0 0
147936.0 495919.0 0
156834.0 495334.0 0
153345.0 497587.0 0
160446.0 496597.0 0
166557.0 493625.0 0
164460.0 497319.0 0
170825.0 496280.0 0
177023.0 497622.0 0
182219.0 494756.0 0
186632.0 497119.0 0
191647.0 496660.0 0
197193.0 495891.0 0
203009.0 495827.0 0
208744.0 497480.0 0
214401.0 495729.0 0
218813.0 496738.0 0
222283.0 495223.0 0
227750.0 495891.0 0
234086.0 496194.0 0
237590.0 494828.0 0
242064.0 496669.0 0
246566.0 496014.0 0
251600.0 497206.0 0
255989.0 495181.0 0
260449.0 494858.0 0
266423.0 495134.0 0
271811.0 496839.0 0
278352.0 495079.0 0
284319.0 496672.0 0
288707.0 495151.0 0
292934.0 496844.0 0
298885.0 496796.0 0
303925.0 496921.0 0
307500.0 496746.0 0
312232.0 496557.0 0
321120.0 495519.0 0
316304.0 496061.0 0
325927.0 496991.0 0
329984.0 495668.0 0
334466.0 497607.0 0
339848.0 495046.0 0
346118.0 496621.0 0
352864.0 496895.0 0
357445.0 493968.0 0
361785.0 496318.0 0
366767.0 494359.0 0
371894.0 497025.0 0
382791.0 494990.0 0
387276.0 496793.0 0
392917.0 497090.0 0
399364.0 496431.0 0
407874.0 495226.0 0
404147.0 496322.0 0
412091.0 496975.0 0
416612.0 496353.0 0
420975.0 497361.0 0
425338.0 496381.0 0
430656.0 496393.0 0
435834.0 495326.0 0
440338.0 496515.0 0
444372.0 493880.0 0
448496.0 494204.0 0
452093.0 497418.0 0
457209.0 495518.0 0
461664.0 498926.0 0
466939.0 497777.0 0
477565.0 499645.0 0
485228.0 500608.0 0
481172.0 502594.0 0
488597.0 501689.0 0
492330.0 499131.0 0
2106.65 502721.0 0
16069.9 502142.0 0
10985.5 506247.0 0
20627.3 504200.0 0
26419.1 503025.0 0
30819.7 501040.0 0
34141.1 503465.0 0
43506.2 501182.0 0
38780.5 503232.0 0
49582.3 500746.0 0
54167.1 503106.0 0
58235.6 501023.0 0
63408.3 500474.0 0
68579.4 501991.0 0
73201.9 500532.0 0
78224.9 501098.0 0
83507.7 501059.0 0
88307.6 501196.0 0
92500.0 501611.0 0
97396.1 501736.0 0
101354.0 501656.0 0
105796.0 501422.0 0
111389.0 500525.0 0
116714.0 501159.0 0
122156.0 500390.0 0
126934.0 501177.0 0
131253.0 501563.0 0
136593.0 500664.0 0
142209.0 502020.0 0
147001.0 500207.0 0
151776.0 502165.0 0
157904.0 501112.0 0
167075.0 500188.0 0
163688.0 501795.0 0
170984.0 502275.0 0
182855.0 501540.0 0
193609.0 500782.0 0
189114.0 501524.0 0
198196.0 501738.0 0
203133.0 500923.0 0
207370.0 502853.0 0
212148.0 501699.0 0
216414.0 500321.0 0
221268.0 500374.0 0
226339.0 502305.0 0
232062.0 500843.0 0
237964.0 499549.0 0
242929.0 501196.0 0
248129.0 501161.0 0
252960.0 501384.0 0
257780.0 500378.0 0
262690.0 498463.0 0
267637.0 501000.0 0
272707.0 502721.0 0
278456.0 501748.0 0
283552.0 501252.0 0
288809.0 500469.0 0
293463.0 501434.0 0
297475.0 502827.0 0
302639.0 501228.0 0
307226.0 501584.0 0
312051.0 501285.0 0
317136.0 500473.0 0
322474.0 501079.0 0
331139.0 501212.0 0
327335.0 501868.0 0
341421.0 500492.0 0
337087.0 501592.0 0
346928.0 502469.0 0
351848.0 502594.0 0
357894.0 500405.0 0
362946.0 501315.0 0
367156.0 499268.0 0
370341.0 502572.0 0
374684.0 502598.0 0
377837.0 498276.0 0
383216.0 500915.0 0
388093.0 500937.0 0
397918.0 502401.0 0
402965.0 500318.0 0
408005.0 500152.0 0
414442.0 500657.0 0
417768.0 501674.0 0
422330.0 502131.0 0
427043.0 500485.0 0
430481.0 501791.0 0
435336.0 500364.0 0
440837.0 502125.0 0
446333.0 499258.0 0
451192.0 502644.0 0
456258.0 501157.0 0
460544.0 504166.0 0
464762.0 504385.0 0
468443.0 503118.0 0
472614.0 499998.0 0
476889.0 503979.0 0
488245.0 504973.0 0
484417.0 505897.0 0
491561.0 503617.0 0
496783.0 503294.0 0
1472.18 505909.0 0
2747.45 509508.0 0
6327.4 504879.0 0
15260.5 506578.0 0
19477.4 509636.0 0
24759.2 508079.0 0
30572.0 505760.0 0
35246.2 507846.0 0
42026.5 507448.0 0
45912.2 504431.0 0
46334.6 509387.0 0
50381.9 506597.0 0
55583.5 507991.0 0
60912.4 505918.0 0
66030.4 506965.0 0
69271.4 505869.0 0
72324.7 504500.0 0
76447.5 506038.0 0
82119.0 506549.0 0
88053.2 506270.0 0
92794.2 506670.0 0
101635.0 506345.0 0
97054.1 506300.0 0
106568.0 506747.0 0
111144.0 505369.0 0
115472.0 505872.0 0
120958.0 506404.0 0
127518.0 506429.0 0
133357.0 505997.0 0
138768.0 506489.0 0
143776.0 506610.0 0
148417.0 506286.0 0
152816.0 506692.0 0
157010.0 506809.0 0
161398.0 505588.0 0
166796.0 505558.0 0
172286.0 508022.0 0
176721.0 503895.0 0
176956.0 508217.0 0
181238.0 508256.0 0
186738.0 506487.0 0
192285.0 506051.0 0
197745.0 507440.0 0
202537.0 505391.0 0
206560.0 507433.0 0
210663.0 506380.0 0
216374.0 506121.0 0
222675.0 506158.0 0
228307.0 507848.0 0
236235.0 504570.0 0
241110.0 506981.0 0
246539.0 507512.0 0
251051.0 505569.0 0
256864.0 506579.0 0
262898.0 504024.0 0
268314.0 506367.0 0
272882.0 507604.0 0
277823.0 507694.0 0
282099.0 505181.0 0
287108.0 506555.0 0
293007.0 505816.0 0
297873.0 508041.0 0
301879.0 505131.0 0
306281.0 506755.0 0
311518.0 506975.0 0
317014.0 505590.0 0
322480.0 506991.0 0
328112.0 506491.0 0
333994.0 505535.0 0
342507.0 506398.0 0
348255.0 507188.0 0
355785.0 504779.0 0
352557.0 506952.0 0
360654.0 506109.0 0
366622.0 506160.0 0
372605.0 507489.0 0
378678.0 505920.0 0
383525.0 505041.0 0
387342.0 505417.0 0
392171.0 503528.0 0
390949.0 508214.0 0
396013.0 508189.0 0
400315.0 506576.0 0
405193.0 505544.0 0
411704.0 504771.0 0
417505.0 506480.0 0
422574.0 507507.0 0
426820.0 504861.0 0
431881.0 506245.0 0
436741.0 505571.0 0
441521.0 507537.0 0
446375.0 505473.0 0
451308.0 507897.0 0
456348.0 507004.0 0
460120.0 508396.0 0
463863.0 508368.0 0
468912.0 508372.0 0
472979.0 505624.0 0
478013.0 508204.0 0
482499.0 510668.0 0
487689.0 509497.0 0
492487.0 507694.0 0
497478.0 508719.0 0
3288.42 514780.0 0
8613.84 510132.0 0
14164.4 512119.0 0
24649.8 513405.0 0
29495.7 510813.0 0
34081.1 513238.0 0
38741.3 511469.0 0
43136.6 512224.0 0
50347.7 511502.0 0
54300.4 512627.0 0
59153.7 511887.0 0
63764.1 510477.0 0
67237.8 511214.0 0
71918.9 509844.0 0
78160.8 511265.0 0
83565.8 512538.0 0
88184.8 511285.0 0
93078.1 511295.0 0
97990.5 510792.0 0
105978.0 511166.0 0
102185.0 512067.0 0
110938.0 510667.0 0
116797.0 510623.0 0
126566.0 511327.0 0
122735.0 511983.0 0
131501.0 510788.0 0
135493.0 512619.0 0
139967.0 511997.0 0
145278.0 511153.0 0
150982.0 511278.0 0
156979.0 512156.0 0
162111.0 510223.0 0
167233.0 510648.0 0
171518.0 513305.0 0
176245.0 511969.0 0
185833.0 511798.0 0
191609.0 511944.0 0
197367.0 512978.0 0
202640.0 510772.0 0
207614.0 511429.0 0
212163.0 510760.0 0
217235.0 512535.0 0
223351.0 512160.0 0
233970.0 508976.0 0
233374.0 513431.0 0
238413.0 512623.0 0
243817.0 512185.0 0
248729.0 511796.0 0
252167.0 509936.0 0
255506.0 512636.0 0
262546.0 511233.0 0
268712.0 511334.0 0
273431.0 512132.0 0
278348.0 513078.0 0
282746.0 510474.0 0
287874.0 512558.0 0
293087.0 511145.0 0
297641.0 513252.0 0
302568.0 510983.0 0
308349.0 511832.0 0
313173.0 511576.0 0
317493.0 511141.0 0
322212.0 512543.0 0
326150.0 511084.0 0
330374.0 511517.0 0
335433.0 512026.0 0
337868.0 508651.0 0
340691.0 512405.0 0
346232.0 513388.0 0
351302.0 511383.0 0
356220.0 509471.0 0
361026.0 511963.0 0
366628.0 511888.0 0
371303.0 512443.0 0
377382.0 513029.0 0
383640.0 509482.0 0
387767.0 512811.0 0
392658.0 512656.0 0
403584.0 511526.0 0
409188.0 510319.0 0
414102.0 510868.0 0
417380.0 510741.0 0
420525.0 511269.0 0
427284.0 511257.0 0
432837.0 510606.0 0
437316.0 510527.0 0
441859.0 512378.0 0
447375.0 512286.0 0
452712.0 512751.0 0
457116.0 512481.0 0
461304.0 511765.0 0
465837.0 512929.0 0
471078.0 514030.0 0
473867.0 510137.0 0
477688.0 513002.0 0
482458.0 515268.0 0
486525.0 514196.0 0
492764.0 512725.0 0
490198.0 515506.0 0
497472.0 513446.0 0
2116.84 519403.0 0
9261.6 515744.0 0
14706.9 518204.0 0
19382.1 514846.0 0
23249.2 517723.0 0
28548.8 517623.0 0
33394.3 517546.0 0
38308.6 517082.0 0
43243.0 518477.0 0
47103.6 515244.0 0
51923.8 517419.0 0
57701.8 517863.0 0
63773.0 515795.0 0
68797.1 514526.0 0
73707.9 517425.0 0
79926.7 516736.0 0
85182.4 517436.0 0
90176.7 515801.0 0
94967.0 517833.0 0
98389.1 514980.0 0
101190.0 518230.0 0
105548.0 515632.0 0
111254.0 517020.0 0
118427.0 516146.0 0
124007.0 516511.0 0
128502.0 514716.0 0
133341.0 516844.0 0
137833.0 515841.0 0
141873.0 516884.0 0
147377.0 516466.0 0
152941.0 516549.0 0
157279.0 517902.0 0
161869.0 515760.0 0
167200.0 515606.0 0
170806.0 517283.0 0
176995.0 516948.0 0
181035.0 513866.0 0
187005.0 516800.0 0
191641.0 517239.0 0
196467.0 518432.0 0
201836.0 516401.0 0
207368.0 516407.0 0
213207.0 516460.0 0
219912.0 517613.0 0
228960.0 513895.0 0
225018.0 517446.0 0
228747.0 517992.0 0
232513.0 517152.0 0
237113.0 517897.0 0
241981.0 516213.0 0
246440.0 516224.0 0
251413.0 515595.0 0
257792.0 517862.0 0
262743.0 517273.0 0
268221.0 516946.0 0
274008.0 517066.0 0
279338.0 518572.0 0
284637.0 516747.0 0
289538.0 517514.0 0
293241.0 515849.0 0
296790.0 518235.0 0
302430.0 516951.0 0
307427.0 517248.0 0
311866.0 515684.0 0
316596.0 515696.0 0
321127.0 517611.0 0
326272.0 516307.0 0
331576.0 516623.0 0
337212.0 517382.0 0
342904.0 517785.0 0
346736.0 517993.0 0
351395.0 516537.0 0
356496.0 514816.0 0
362022.0 518026.0 0
367283.0 516727.0 0
371932.0 516905.0 0
382368.0 516910.0 0
387004.0 517526.0 0
391537.0 517176.0 0
395763.0 518282.0 0
398194.0 513759.0 0
405667.0 517455.0 0
411364.0 515766.0 0
416766.0 514625.0 0
422357.0 516186.0 0
427913.0 517319.0 0
432444.0 515213.0 0
438038.0 516128.0 0
443872.0 517201.0 0
449820.0 518215.0 0
455275.0 516973.0 0
461001.0 516957.0 0
467506.0 517509.0 0
471920.0 518804.0 0
476326.0 517582.0 0
480699.0 518601.0 0
484793.0 518318.0 0
488735.0 518488.0 0
493192.0 518370.0 0
497785.0 517843.0 0
2233.08 523462.0 0
6874.26 521155.0 0
12361.0 523838.0 0
19528.8 519444.0 0
17840.9 523363.0 0
23248.1 522468.0 0
28982.4 523746.0 0
32668.0 520856.0 0
36638.4 522698.0 0
41664.6 522621.0 0
47643.3 521655.0 0
53415.2 522001.0 0
62495.2 521338.0 0
68163.8 521243.0 0
78256.5 521331.0 0
82963.6 522179.0 0
88843.6 521944.0 0
94023.9 522477.0 0
97898.9 521033.0 0
101321.0 522501.0 0
105782.0 521098.0 0
110311.0 522358.0 0
115572.0 521913.0 0
121682.0 521264.0 0
128235.0 520859.0 0
137493.0 519994.0 0
133667.0 521668.0 0
142026.0 522137.0 0
148120.0 523031.0 0
153564.0 521352.0 0
158028.0 522075.0 0
163135.0 521582.0 0
168468.0 520777.0 0
173381.0 520469.0 0
177711.0 521410.0 0
182459.0 518655.0 0
181546.0 523181.0 0
186388.0 522044.0 0
191490.0 521739.0 0
201164.0 521974.0 0
207177.0 522437.0 0
212179.0 521352.0 0
216881.0 522469.0 0
221684.0 522799.0 0
226203.0 521965.0 0
231128.0 521324.0 0
235962.0 522515.0 0
241362.0 521146.0 0
246789.0 521135.0 0
252465.0 521062.0 0
257587.0 523042.0 0
263871.0 522713.0 0
269750.0 522562.0 0
274722.0 522002.0 0
283810.0 521152.0 0
288385.0 522516.0 0
292443.0 520924.0 0
298458.0 523152.0 0
303394.0 521992.0 0
307514.0 521830.0 0
311952.0 520911.0 0
317195.0 520494.0 0
323292.0 522528.0 0
328001.0 520923.0 0
332730.0 521684.0 0
337437.0 522679.0 0
342132.0 521710.0 0
345702.0 521789.0 0
349663.0 520677.0 0
355644.0 521009.0 0
360926.0 523181.0 0
366853.0 521443.0 0
373689.0 522029.0 0
378538.0 519615.0 0
383131.0 522580.0 0
388045.0 521923.0 0
392534.0 521546.0 0
397363.0 522288.0 0
400366.0 518846.0 0
403508.0 522732.0 0
412623.0 520898.0 0
408244.0 522274.0 0
417351.0 519715.0 0
420880.0 522237.0 0
425095.0 521312.0 0
431839.0 521065.0 0
437539.0 522332.0 0
443438.0 522657.0 0
453812.0 521141.0 0
458080.0 522029.0 0
462888.0 523394.0 0
464596.0 519964.0 0
468338.0 522604.0 0
473391.0 523067.0 0
477983.0 522258.0 0
482738.0 522827.0 0
486888.0 521819.0 0
491582.0 523805.0 0
497004.0 522287.0 0
2121.74 527473.0 0
6888.19 526858.0 0
12647.5 529151.0 0
16033.4 527087.0 0
20048.9 527369.0 0
24849.7 527473.0 0
32458.2 527793.0 0
37934.1 528346.0 0
43622.0 527188.0 0
48985.1 527625.0 0
53768.7 526506.0 0
58018.6 523977.0 0
57475.8 528790.0 0
62539.9 526513.0 0
67211.0 526581.0 0
73793.8 524132.0 0
79139.5 526912.0 0
84276.4 526892.0 0
88344.7 526955.0 0
92508.1 526462.0 0
97505.2 525404.0 0
102525.0 526891.0 0
107266.0 525830.0 0
111919.0 526508.0 0
117993.0 527425.0 0
123266.0 526495.0 0
127778.0 526228.0 0
132829.0 526723.0 0
138531.0 526056.0 0
143146.0 526941.0 0
151894.0 526797.0 0
156583.0 526895.0 0
161572.0 526546.0 0
166861.0 525616.0 0
173188.0 526650.0 0
178545.0 526851.0 0
183730.0 527674.0 0
189481.0 526830.0 0
195884.0 524084.0 0
193942.0 527913.0 0
199656.0 526882.0 0
203775.0 527543.0 0
208172.0 527619.0 0
212695.0 526008.0 0
219055.0 527241.0 0
223287.0 526612.0 0
227639.0 526715.0 0
232487.0 526388.0 0
238091.0 526819.0 0
242605.0 527501.0 0
247057.0 525945.0 0
252274.0 527290.0 0
257527.0 527341.0 0
267674.0 526918.0 0
271726.0 526384.0 0
279694.0 523929.0 0
276055.0 526857.0 0
283988.0 525545.0 0
288264.0 527833.0 0
293343.0 525474.0 0
298688.0 527907.0 0
302500.0 526609.0 0
306936.0 525884.0 0
312026.0 526580.0 0
317161.0 525371.0 0
325122.0 526400.0 0
321567.0 527454.0 0
328996.0 525598.0 0
334534.0 527183.0 0
339911.0 526391.0 0
344575.0 526043.0 0
350525.0 526277.0 0
357051.0 528003.0 0
363530.0 527810.0 0
369637.0 526285.0 0
375097.0 527344.0 0
378334.0 524090.0 0
379858.0 528017.0 0
384042.0 527715.0 0
388241.0 526377.0 0
393225.0 526558.0 0
397922.0 526498.0 0
402015.0 527026.0 0
406507.0 526796.0 0
412519.0 526760.0 0
418298.0 525565.0 0
423427.0 526417.0 0
428528.0 524943.0 0
433624.0 527340.0 0
439856.0 528417.0 0
445158.0 527210.0 0
450053.0 524612.0 0
455344.0 526416.0 0
459167.0 525978.0 0
461977.0 527308.0 0
466184.0 527497.0 0
471252.0 527149.0 0
476706.0 527363.0 0
481614.0 527230.0 0
486337.0 526451.0 0
493320.0 528691.0 0
497814.0 526758.0 0
3082.6 532237.0 0
8865.63 531076.0 0
12358.7 533654.0 0
16681.4 530948.0 0
21544.0 532088.0 0
27665.6 532454.0 0
32656.6 531399.0 0
37648.7 533675.0 0
42206.8 532215.0 0
47957.4 532991.0 0
53251.2 531524.0 0
59090.4 532521.0 0
62688.5 530928.0 0
71194.4 528831.0 0
67103.7 531046.0 0
71675.5 532977.0 0
76427.7 532038.0 0
82349.9 530638.0 0
86456.8 530635.0 0
91316.9 531433.0 0
96700.5 530516.0 0
101357.0 531524.0 0
106480.0 530980.0 0
112438.0 532005.0 0
118114.0 532809.0 0
123286.0 531734.0 0
128444.0 530713.0 0
133271.0 532186.0 0
138737.0 531776.0 0
147824.0 528996.0 0
143820.0 530984.0 0
146811.0 533276.0 0
152554.0 531345.0 0
157557.0 531533.0 0
162808.0 530687.0 0
168064.0 531028.0 0
172503.0 532470.0 0
177282.0 531974.0 0
182445.0 532576.0 0
187122.0 531722.0 0
192278.0 531915.0 0
197932.0 531628.0 0
202891.0 531542.0 0
207302.0 532427.0 0
212094.0 530964.0 0
217250.0 532325.0 0
222484.0 531000.0 0
227509.0 532076.0 0
232622.0 531089.0 0
237265.0 531082.0 0
241485.0 532008.0 0
246213.0 530913.0 0
250529.0 532180.0 0
254703.0 531827.0 0
258935.0 532477.0 0
262340.0 528877.0 0
267346.0 532240.0 0
272498.0 530260.0 0
277146.0 532114.0 0
283071.0 530941.0 0
288059.0 532396.0 0
292558.0 531052.0 0
297154.0 531819.0 0
301857.0 531554.0 0
306790.0 530606.0 0
311521.0 531876.0 0
316228.0 530232.0 0
320516.0 531826.0 0
326229.0 531224.0 0
332673.0 533131.0 0
338360.0 532166.0 0
343483.0 530914.0 0
348257.0 531612.0 0
353323.0 532288.0 0
358723.0 533405.0 0
363323.0 533285.0 0
367768.0 531872.0 0
372478.0 531390.0 0
377496.0 532639.0 0
382384.0 530979.0 0
386877.0 530843.0 0
391356.0 531028.0 0
395986.0 530697.0 0
401106.0 531852.0 0
406264.0 531633.0 0
411634.0 533078.0 0
417435.0 530770.0 0
422039.0 533495.0 0
427889.0 531162.0 0
435532.0 532564.0 0
440057.0 533331.0 0
448314.0 529645.0 0
444518.0 532183.0 0
448611.0 532656.0 0
452869.0 531353.0 0
458237.0 530194.0 0
462788.0 531293.0 0
468383.0 531986.0 0
473635.0 532021.0 0
478572.0 531875.0 0
482063.0 531979.0 0
485628.0 531252.0 0
490789.0 532252.0 0
497268.0 531451.0 0
2843.41 537911.0 0
7569.38 535375.0 0
10050.4 538923.0 0
12742.1 537258.0 0
17293.7 536461.0 0
23657.2 537519.0 0
28567.8 537523.0 0
32947.0 535689.0 0
44279.3 537453.0 0
49054.4 539022.0 0
51727.9 535984.0 0
56243.8 535916.0 0
61488.4 536518.0 0
67316.2 536553.0 0
73051.1 537467.0 0
81010.9 534925.0 0
77905.9 538555.0 0
86923.1 536225.0 0
93054.8 537432.0 0
98573.0 535832.0 0
103757.0 535914.0 0
108627.0 536318.0 0
113766.0 537361.0 0
118810.0 538070.0 0
123691.0 536748.0 0
128541.0 535870.0 0
133182.0 536688.0 0
137664.0 537147.0 0
143114.0 535115.0 0
146700.0 537300.0 0
150576.0 535314.0 0
155543.0 535513.0 0
161097.0 535558.0 0
167163.0 537058.0 0
172940.0 536748.0 0
178105.0 537463.0 0
183378.0 537393.0 0
189180.0 536483.0 0
194103.0 536472.0 0
198961.0 537234.0 0
203678.0 535726.0 0
208198.0 537475.0 0
213061.0 536082.0 0
217759.0 537633.0 0
222500.0 536663.0 0
227499.0 536651.0 0
232213.0 535334.0 0
236215.0 535339.0 0
241018.0 536376.0 0
246227.0 536652.0 0
252669.0 537003.0 0
257728.0 536183.0 0
262537.0 535573.0 0
268608.0 536932.0 0
272387.0 534901.0 0
276525.0 537126.0 0
282702.0 536718.0 0
287702.0 536788.0 0
293062.0 536514.0 0
297743.0 535693.0 0
301875.0 537745.0 0
306591.0 535467.0 0
311492.0 537095.0 0
317295.0 536094.0 0
323006.0 536420.0 0
326830.0 536208.0 0
331430.0 537506.0 0
335513.0 538118.0 0
340646.0 536966.0 0
345145.0 535382.0 0
349902.0 536238.0 0
355500.0 538174.0 0
361570.0 537953.0 0
367131.0 537147.0 0
372512.0 536280.0 0
377539.0 538351.0 0
382751.0 535686.0 0
388868.0 535677.0 0
397056.0 535559.0 0
393237.0 537834.0 0
402149.0 537458.0 0
407351.0 536290.0 0
411873.0 538357.0 0
416932.0 536485.0 0
421542.0 538202.0 0
426064.0 537244.0 0
431882.0 536512.0 0
437693.0 537362.0 0
443038.0 537147.0 0
447655.0 536143.0 0
452445.0 537209.0 0
457439.0 535093.0 0
462607.0 536301.0 0
467759.0 536955.0 0
472607.0 536961.0 0
477608.0 536576.0 0
482222.0 537014.0 0
487244.0 536342.0 0
493252.0 536121.0 0
497792.0 536166.0 0
2516.7 543080.0 0
7120.32 541872.0 0
11840.6 542991.0 0
17302.7 542689.0 0
23055.4 543477.0 0
28485.5 541996.0 0
32471.7 540162.0 0
38120.0 539307.0 0
39403.9 544282.0 0
43279.7 542829.0 0
47710.2 542795.0 0
52829.8 541835.0 0
58078.5 540737.0 0
63992.7 542153.0 0
69131.0 542635.0 0
71664.3 541158.0 0
75337.2 543109.0 0
81150.6 542512.0 0
87120.5 542867.0 0
92047.5 541978.0 0
96758.4 541606.0 0
101934.0 540236.0 0
107472.0 542373.0 0
113373.0 542340.0 0
118406.0 543299.0 0
123374.0 541794.0 0
128535.0 541025.0 0
133458.0 541216.0 0
137847.0 542681.0 0
141686.0 539668.0 0
145570.0 542118.0 0
150823.0 541018.0 0
156883.0 540699.0 0
162744.0 541500.0 0
170835.0 541541.0 0
175182.0 543199.0 0
179406.0 542214.0 0
182910.0 541338.0 0
186957.0 541447.0 0
192328.0 541046.0 0
197666.0 542818.0 0
202698.0 540763.0 0
206811.0 542646.0 0
211031.0 541467.0 0
215655.0 542000.0 0
221068.0 542075.0 0
227000.0 542139.0 0
231727.0 539490.0 0
237770.0 541245.0 0
244029.0 541881.0 0
249071.0 541608.0 0
254368.0 543046.0 0
257371.0 539523.0 0
260305.0 541569.0 0
265442.0 540666.0 0
272314.0 541194.0 0
279400.0 541815.0 0
285397.0 541022.0 0
290092.0 540668.0 0
293189.0 543764.0 0
297049.0 540849.0 0
301972.0 542885.0 0
306613.0 540833.0 0
312377.0 543153.0 0
318399.0 541910.0 0
323560.0 541362.0 0
328261.0 539712.0 0
332545.0 542256.0 0
337363.0 542543.0 0
341299.0 541493.0 0
346067.0 540420.0 0
351439.0 542477.0 0
359052.0 542610.0 0
364403.0 542424.0 0
368988.0 541761.0 0
373363.0 541125.0 0
377282.0 543411.0 0
381350.0 541516.0 0
386942.0 541819.0 0
393312.0 542669.0 0
398487.0 541170.0 0
402863.0 542368.0 0
407737.0 541588.0 0
415623.0 542262.0 0
420977.0 543215.0 0
424613.0 541282.0 0
428974.0 541756.0 0
434102.0 541406.0 0
438710.0 542472.0 0
442812.0 541402.0 0
447720.0 541387.0 0
453004.0 542164.0 0
458242.0 540866.0 0
463516.0 540912.0 0
468232.0 542170.0 0
473349.0 541313.0 0
477881.0 541687.0 0
482906.0 541153.0 0
487556.0 541823.0 0
492487.0 541044.0 0
497559.0 540643.0 0
2473.6 547933.0 0
7578.89 546865.0 0
11903.8 547159.0 0
15859.7 547805.0 0
20830.1 548529.0 0
26763.6 547507.0 0
34042.4 545205.0 0
39948.6 548507.0 0
44598.1 547307.0 0
48619.9 546533.0 0
52895.8 546981.0 0
59224.0 545854.0 0
63895.0 547264.0 0
67583.2 546422.0 0
71658.9 546450.0 0
78636.0 546480.0 0
82553.2 547498.0 0
87221.9 548448.0 0
92207.9 546663.0 0
97206.2 546696.0 0
102341.0 546081.0 0
106969.0 548325.0 0
110982.0 546784.0 0
115735.0 547841.0 0
120993.0 547937.0 0
126503.0 546522.0 0
132361.0 546195.0 0
137048.0 547223.0 0
142147.0 546193.0 0
147576.0 545986.0 0
152415.0 546767.0 0
157288.0 545803.0 0
161893.0 547009.0 0
167125.0 545674.0 0
172391.0 546677.0 0
178068.0 547485.0 0
183405.0 545439.0 0
190040.0 546072.0 0
195030.0 547467.0 0
203145.0 546239.0 0
199395.0 548084.0 0
207585.0 546793.0 0
212374.0 546297.0 0
217595.0 546729.0 0
223390.0 546768.0 0
227682.0 547104.0 0
232736.0 546460.0 0
238630.0 547174.0 0
242720.0 546172.0 0
247045.0 546059.0 0
251803.0 547577.0 0
257545.0 547544.0 0
262530.0 545792.0 0
268016.0 545889.0 0
273339.0 547844.0 0
279506.0 547951.0 0
283720.0 545213.0 0
288782.0 545690.0 0
293596.0 548007.0 0
298639.0 546798.0 0
302644.0 546816.0 0
307500.0 546449.0 0
312976.0 548951.0 0
316491.0 546713.0 0
321395.0 546874.0 0
327704.0 545481.0 0
333465.0 547285.0 0
340805.0 545591.0 0
337847.0 548432.0 0
346471.0 546985.0 0
352462.0 547437.0 0
358069.0 548227.0 0
362770.0 546304.0 0
367696.0 546973.0 0
373302.0 546095.0 0
377815.0 548105.0 0
383191.0 547084.0 0
388955.0 547633.0 0
397723.0 545614.0 0
393963.0 547912.0 0
402176.0 547012.0 0
407726.0 547368.0 0
417963.0 546172.0 0
413518.0 547627.0 0
421005.0 547373.0 0
426241.0 547175.0 0
432181.0 546148.0 0
436836.0 546353.0 0
442495.0 546309.0 0
448506.0 548269.0 0
453149.0 546285.0 0
458134.0 547508.0 0
463307.0 545337.0 0
467675.0 547418.0 0
471654.0 545218.0 0
476222.0 546712.0 0
480800.0 544943.0 0
485236.0 546157.0 0
490326.0 546700.0 0
495764.0 545691.0 0
3484.94 552897.0 0
8444.95 551919.0 0
12911.3 551393.0 0
17494.8 552532.0 0
22072.7 552994.0 0
26230.6 552290.0 0
30855.9 550760.0 0
35776.0 550968.0 0
43270.2 551483.0 0
47705.8 550581.0 0
51734.9 551036.0 0
56753.3 551139.0 0
62483.8 551205.0 0
67225.4 551666.0 0
72578.5 551615.0 0
78074.7 550543.0 0
82680.3 551917.0 0
86444.4 552521.0 0
90357.0 551779.0 0
95419.7 551701.0 0
101317.0 551732.0 0
106780.0 553304.0 0
111986.0 551555.0 0
118168.0 552542.0 0
123117.0 552387.0 0
127504.0 551663.0 0
132092.0 551607.0 0
137122.0 551814.0 0
141576.0 553162.0 0
145999.0 550884.0 0
151169.0 553160.0 0
155930.0 550702.0 0
161793.0 553271.0 0
169262.0 552017.0 0
175942.0 553271.0 0
181569.0 552317.0 0
186120.0 549796.0 0
190931.0 551302.0 0
195679.0 552104.0 0
200339.0 553623.0 0
204737.0 550762.0 0
208609.0 552266.0 0
212179.0 550961.0 0
217047.0 552138.0 0
222217.0 551343.0 0
227210.0 551669.0 0
232454.0 550760.0 0
236588.0 551959.0 0
241987.0 550679.0 0
247269.0 551159.0 0
251917.0 551824.0 0
256544.0 552751.0 0
261773.0 551169.0 0
267041.0 550538.0 0
271095.0 553064.0 0
276594.0 552624.0 0
284862.0 550271.0 0
290015.0 550502.0 0
293676.0 552595.0 0
297366.0 551185.0 0
302272.0 549953.0 0
307474.0 550377.0 0
310561.0 552449.0 0
317000.0 551286.0 0
326391.0 550854.0 0
321737.0 552830.0 0
331681.0 552235.0 0
336535.0 552341.0 0
341651.0 551466.0 0
346661.0 552611.0 0
350572.0 551476.0 0
354668.0 552486.0 0
363450.0 551489.0 0
368542.0 552195.0 0
372674.0 550886.0 0
377075.0 553215.0 0
381425.0 551643.0 0
385926.0 552127.0 0
391680.0 552661.0 0
397948.0 551410.0 0
403534.0 551996.0 0
408249.0 552474.0 0
412657.0 552654.0 0
417350.0 551428.0 0
422264.0 551223.0 0
426994.0 553645.0 0
433060.0 552103.0 0
438746.0 550512.0 0
443795.0 551828.0 0
448417.0 554086.0 0
453271.0 551216.0 0
457511.0 553206.0 0
462682.0 551920.0 0
467752.0 552130.0 0
471957.0 550128.0 0
476142.0 551609.0 0
481190.0 550387.0 0
486962.0 551014.0 0
492025.0 552917.0 0
497274.0 551135.0 0
2743.01 558210.0 0
7981.41 556922.0 0
14881.4 556671.0 0
11739.6 559341.0 0
19950.3 557230.0 0
25428.3 557142.0 0
32566.0 557521.0 0
39546.1 554388.0 0
42489.6 559070.0 0
47221.5 555844.0 0
52686.1 555200.0 0
57806.7 557342.0 0
63774.6 556507.0 0
69571.0 556914.0 0
74674.6 557309.0 0
78940.8 555278.0 0
82872.1 556776.0 0
87492.1 556963.0 0
93120.6 557044.0 0
98844.6 556994.0 0
103892.0 557322.0 0
107197.0 557344.0 0
111586.0 557356.0 0
120106.0 557317.0 0
123927.0 556845.0 0
128333.0 556287.0 0
132824.0 555926.0 0
136836.0 556503.0 0
141029.0 557354.0 0
146474.0 556806.0 0
151908.0 558496.0 0
156608.0 556705.0 0
161129.0 558887.0 0
166491.0 558177.0 0
172415.0 556921.0 0
179220.0 556834.0 0
184083.0 557522.0 0
189204.0 555768.0 0
193549.0 556660.0 0
197395.0 556763.0 0
203066.0 557253.0 0
207023.0 555029.0 0
212428.0 556491.0 0
217387.0 556645.0 0
221537.0 556181.0 0
226315.0 556671.0 0
231513.0 555014.0 0
236175.0 556874.0 0
241015.0 555906.0 0
248675.0 555994.0 0
252954.0 555582.0 0
256397.0 557731.0 0
260318.0 555813.0 0
265614.0 555629.0 0
273041.0 556704.0 0
275791.0 556574.0 0
281996.0 555797.0 0
288383.0 555314.0 0
293574.0 557267.0 0
298772.0 555611.0 0
304659.0 554424.0 0
309381.0 556048.0 0
314089.0 554452.0 0
312764.0 559099.0 0
318012.0 556006.0 0
323168.0 558123.0 0
327608.0 555456.0 0
332500.0 556727.0 0
336731.0 556948.0 0
341738.0 557038.0 0
347002.0 556987.0 0
351667.0 555991.0 0
357506.0 556347.0 0
363259.0 557815.0 0
368549.0 556442.0 0
373461.0 557535.0 0
379221.0 557570.0 0
382715.0 555489.0 0
387189.0 557715.0 0
392430.0 558673.0 0
395943.0 556082.0 0
400773.0 556663.0 0
405952.0 556364.0 0
411211.0 557799.0 0
416948.0 557082.0 0
422099.0 556094.0 0
426225.0 559182.0 0
431275.0 557773.0 0
438006.0 555889.0 0
443871.0 557654.0 0
448964.0 558555.0 0
453330.0 556444.0 0
458323.0 557335.0 0
462242.0 556934.0 0
467274.0 557139.0 0
472143.0 555015.0 0
477895.0 556273.0 0
483575.0 555261.0 0
487834.0 555572.0 0
491695.0 557885.0 0
496457.0 556575.0 0
2121.44 562981.0 0
6609.17 561858.0 0
11138.6 563045.0 0
16428.7 561850.0 0
22221.8 561997.0 0
26886.5 561721.0 0
37890.1 562961.0 0
44008.0 563537.0 0
47245.2 560968.0 0
52218.7 560561.0 0
57405.6 563418.0 0
62718.7 561869.0 0
67635.9 562299.0 0
72714.7 561840.0 0
77870.8 561476.0 0
83355.2 561491.0 0
88694.7 561948.0 0
93471.1 561894.0 0
97416.3 561607.0 0
102485.0 562530.0 0
107451.0 560588.0 0
111876.0 563675.0 0
116258.0 560166.0 0
120450.0 563101.0 0
125985.0 561309.0 0
131822.0 560672.0 0
137437.0 561368.0 0
143318.0 562204.0 0
148414.0 561443.0 0
157630.0 561636.0 0
153205.0 562940.0 0
163336.0 561594.0 0
168124.0 563482.0 0
171009.0 560347.0 0
176045.0 560952.0 0
182241.0 562964.0 0
189034.0 560999.0 0
194145.0 561537.0 0
199373.0 561092.0 0
203655.0 562719.0 0
207500.0 559920.0 0
210932.0 563606.0 0
216245.0 562067.0 0
221755.0 560489.0 0
226380.0 561988.0 0
232316.0 561095.0 0
238295.0 561178.0 0
245096.0 560324.0 0
251719.0 560720.0 0
257182.0 562241.0 0
262017.0 560438.0 0
269981.0 559805.0 0
266259.0 563923.0 0
274202.0 562279.0 0
277888.0 559712.0 0
283100.0 562176.0 0
288592.0 560628.0 0
292890.0 562847.0 0
296995.0 560413.0 0
302760.0 560800.0 0
308551.0 561618.0 0
318237.0 561306.0 0
323924.0 563552.0 0
328644.0 560631.0 0
333859.0 562414.0 0
339338.0 561801.0 0
344639.0 561377.0 0
349671.0 561025.0 0
354176.0 559845.0 0
358617.0 562597.0 0
363862.0 563383.0 0
368178.0 561138.0 0
372403.0 562069.0 0
377047.0 562057.0 0
382548.0 561076.0 0
387497.0 562339.0 0
392119.0 562771.0 0
396166.0 561576.0 0
401224.0 562124.0 0
406657.0 561498.0 0
411116.0 562660.0 0
415378.0 562090.0 0
421002.0 561638.0 0
428201.0 562795.0 0
430776.0 562364.0 0
435849.0 561834.0 0
442049.0 563554.0 0
446663.0 562011.0 0
451285.0 563124.0 0
456120.0 561030.0 0
461465.0 561957.0 0
466873.0 562510.0 0
472886.0 560176.0 0
477924.0 561703.0 0
482172.0 559578.0 0
487409.0 560624.0 0
493222.0 561666.0 0
498092.0 560967.0 0
3038.43 567698.0 0
8348.66 566722.0 0
12973.2 566264.0 0
16491.4 566673.0 0
20569.3 566650.0 0
25481.6 567756.0 0
31332.7 565355.0 0
37218.2 568315.0 0
41641.5 567297.0 0
47378.6 567506.0 0
53020.2 566779.0 0
58727.1 568693.0 0
63576.9 567017.0 0
68284.8 566724.0 0
72468.8 566681.0 0
77207.8 566567.0 0
82052.1 566602.0 0
86327.8 565594.0 0
91309.3 566454.0 0
96812.2 565997.0 0
101415.0 568530.0 0
107504.0 568552.0 0
116549.0 566349.0 0
113120.0 568485.0 0
121200.0 567848.0 0
125965.0 567314.0 0
132173.0 566936.0 0
137901.0 567004.0 0
142951.0 567575.0 0
147751.0 566023.0 0
152820.0 567570.0 0
157728.0 566621.0 0
162934.0 566098.0 0
167711.0 568508.0 0
172663.0 565704.0 0
178460.0 566038.0 0
182743.0 568063.0 0
186704.0 565557.0 0
192372.0 566184.0 0
197026.0 566632.0 0
201535.0 566378.0 0
207177.0 566577.0 0
212749.0 566703.0 0
217663.0 567992.0 0
221851.0 565146.0 0
227192.0 566998.0 0
231941.0 566757.0 0
236848.0 566357.0 0
241542.0 565291.0 0
240238.0 568607.0 0
246055.0 565664.0 0
250681.0 566586.0 0
255365.0 566311.0 0
260865.0 566728.0 0
266480.0 569232.0 0
271238.0 565928.0 0
277852.0 565838.0 0
283015.0 568745.0 0
288157.0 565884.0 0
293133.0 567739.0 0
298103.0 565620.0 0
303122.0 566337.0 0
307820.0 566587.0 0
313942.0 566361.0 0
318857.0 566068.0 0
322201.0 569107.0 0
329290.0 566033.0 0
333438.0 566679.0 0
336987.0 566387.0 0
342549.0 566813.0 0
347880.0 566456.0 0
353117.0 565516.0 0
357781.0 567894.0 0
362496.0 568182.0 0
367754.0 566626.0 0
373501.0 566693.0 0
378266.0 566928.0 0
382539.0 566300.0 0
387500.0 566876.0 0
390976.0 566706.0 0
394313.0 566094.0 0
398092.0 566084.0 0
406126.0 567526.0 0
412485.0 567186.0 0
418101.0 566733.0 0
423226.0 566724.0 0
428078.0 566731.0 0
432973.0 567027.0 0
437866.0 567397.0 0
441939.0 568208.0 0
447281.0 566503.0 0
451917.0 568307.0 0
456269.0 566004.0 0
461165.0 567576.0 0
466238.0 567208.0 0
470969.0 565078.0 0
476070.0 566683.0 0
482553.0 565555.0 0
488785.0 566018.0 0
492812.0 568654.0 0
497009.0 565658.0 0
2394.8 572110.0 0
7214.82 571476.0 0
12110.2 570260.0 0
17742.7 570954.0 0
22204.8 571595.0 0
25744.7 572295.0 0
29703.5 573968.0 0
33555.2 570969.0 0
36929.7 573316.0 0
41347.4 572517.0 0
46373.2 572768.0 0
51580.5 572128.0 0
56792.6 572887.0 0
62306.0 572506.0 0
67610.3 571501.0 0
72590.6 571283.0 0
76692.8 572383.0 0
81356.7 571729.0 0
87086.7 570598.0 0
92382.9 571703.0 0
97326.8 571816.0 0
102445.0 573677.0 0
106784.0 573692.0 0
111771.0 572406.0 0
117550.0 571904.0 0
123347.0 571834.0 0
128766.0 572355.0 0
134035.0 571900.0 0
137950.0 571707.0 0
142127.0 571637.0 0
147119.0 571751.0 0
152534.0 572489.0 0
159450.0 570885.0 0
163359.0 571389.0 0
166858.0 573010.0 0
172526.0 569977.0 0
178136.0 571552.0 0
183548.0 572756.0 0
188462.0 570561.0 0
194131.0 571260.0 0
199285.0 571093.0 0
204393.0 571365.0 0
209720.0 571728.0 0
214204.0 570476.0 0
217624.0 572374.0 0
222140.0 570619.0 0
226256.0 571101.0 0
230534.0 572167.0 0
235870.0 571033.0 0
243785.0 569719.0 0
240151.0 572827.0 0
250550.0 571958.0 0
256636.0 572038.0 0
262498.0 572399.0 0
272460.0 571530.0 0
278248.0 571620.0 0
282962.0 574290.0 0
289553.0 571329.0 0
294461.0 572171.0 0
298918.0 571000.0 0
303138.0 570311.0 0
307279.0 571694.0 0
312451.0 572486.0 0
317328.0 570902.0 0
323919.0 573671.0 0
327295.0 570751.0 0
332470.0 570827.0 0
338358.0 571583.0 0
343621.0 572301.0 0
346297.0 569753.0 0
350706.0 571462.0 0
358422.0 572230.0 0
363096.0 573054.0 0
367772.0 571972.0 0
373017.0 572324.0 0
377759.0 571277.0 0
383120.0 571416.0 0
387744.0 571598.0 0
390766.0 571659.0 0
394936.0 570738.0 0
400892.0 570396.0 0
404412.0 573753.0 0
409927.0 572999.0 0
416579.0 572667.0 0
423027.0 572354.0 0
428531.0 571497.0 0
433237.0 571832.0 0
438415.0 572682.0 0
444051.0 572181.0 0
448698.0 572090.0 0
452159.0 572289.0 0
457245.0 572328.0 0
462832.0 571984.0 0
466871.0 572829.0 0
470941.0 570224.0 0
476464.0 572994.0 0
482913.0 572267.0 0
488646.0 571323.0 0
492888.0 572322.0 0
497140.0 571463.0 0
2573.4 576198.0 0
8015.67 575865.0 0
12563.4 574851.0 0
16920.0 575779.0 0
22131.8 575834.0 0
26077.6 576183.0 0
34064.0 576394.0 0
38756.7 576788.0 0
43541.2 577492.0 0
47700.9 576668.0 0
51865.6 577772.0 0
58846.7 577421.0 0
64424.2 577747.0 0
68930.7 576470.0 0
73800.6 575794.0 0
77192.8 576398.0 0
80574.2 576798.0 0
86202.7 576861.0 0
92883.9 576705.0 0
98308.4 577078.0 0
103061.0 577647.0 0
108928.0 576944.0 0
113023.0 576563.0 0
117536.0 577605.0 0
122413.0 576641.0 0
126535.0 577240.0 0
131893.0 576630.0 0
136870.0 576144.0 0
140224.0 578447.0 0
143972.0 576731.0 0
149994.0 576302.0 0
157013.0 575845.0 0
162951.0 575759.0 0
167821.0 577543.0 0
173181.0 575649.0 0
178846.0 577658.0 0
183282.0 577058.0 0
187023.0 575966.0 0
192154.0 576169.0 0
197093.0 575461.0 0
202118.0 576181.0 0
207579.0 576829.0 0
213919.0 574752.0 0
217086.0 577568.0 0
220607.0 575469.0 0
225485.0 574989.0 0
229602.0 577234.0 0
236269.0 576488.0 0
240644.0 578246.0 0
245353.0 575749.0 0
252849.0 576876.0 0
257710.0 577408.0 0
262162.0 577142.0 0
267368.0 574685.0 0
272555.0 577572.0 0
277800.0 576629.0 0
289395.0 576028.0 0
285851.0 577961.0 0
293010.0 575705.0 0
297449.0 576616.0 0
303340.0 575381.0 0
308936.0 577049.0 0
314662.0 577906.0 0
319655.0 575249.0 0
323508.0 578250.0 0
328560.0 576219.0 0
334480.0 575925.0 0
338213.0 577847.0 0
342899.0 577607.0 0
348362.0 576524.0 0
354759.0 575588.0 0
358951.0 576191.0 0
362345.0 577077.0 0
366750.0 576970.0 0
371993.0 577675.0 0
376911.0 574926.0 0
377238.0 579179.0 0
380665.0 575621.0 0
386576.0 576061.0 0
391289.0 575091.0 0
396519.0 576489.0 0
400522.0 574752.0 0
401852.0 579767.0 0
407729.0 578472.0 0
413233.0 578375.0 0
418129.0 577778.0 0
422104.0 577447.0 0
426202.0 576763.0 0
430592.0 575686.0 0
435442.0 577665.0 0
441787.0 577431.0 0
447434.0 576434.0 0
452689.0 576606.0 0
457411.0 578185.0 0
461594.0 576182.0 0
465878.0 577120.0 0
470814.0 575954.0 0
476832.0 578858.0 0
480728.0 576775.0 0
485156.0 577288.0 0
491167.0 577068.0 0
497367.0 576918.0 0
2103.57 580400.0 0
7018.79 580904.0 0
12938.0 580251.0 0
19005.9 580469.0 0
24809.6 580650.0 0
30566.6 580564.0 0
35780.6 582234.0 0
40197.9 580824.0 0
43549.5 583333.0 0
47384.2 580838.0 0
51728.4 582613.0 0
56678.4 582459.0 0
61923.3 582625.0 0
66580.2 582231.0 0
71573.8 580659.0 0
77084.5 579975.0 0
82193.5 581734.0 0
88569.3 583079.0 0
92821.0 580837.0 0
94279.7 584733.0 0
97500.0 581723.0 0
102193.0 581527.0 0
107036.0 581101.0 0
112140.0 580818.0 0
117496.0 582214.0 0
122403.0 580309.0 0
127479.0 582237.0 0
122338.0 584699.0 0
132349.0 581221.0 0
135271.0 584600.0 0
137778.0 581043.0 0
142412.0 581532.0 0
147668.0 581109.0 0
153003.0 580000.0 0
157082.0 582495.0 0
160984.0 580291.0 0
165278.0 581450.0 0
171538.0 581470.0 0
176496.0 582031.0 0
180593.0 582203.0 0
185301.0 581008.0 0
190434.0 580399.0 0
189224.0 584568.0 0
195556.0 581054.0 0
201510.0 581602.0 0
206735.0 582141.0 0
212640.0 580573.0 0
218427.0 581980.0 0
223121.0 579835.0 0
227584.0 582699.0 0
232592.0 580972.0 0
238030.0 582174.0 0
243643.0 581959.0 0
248552.0 580803.0 0
251901.0 583860.0 0
255274.0 580979.0 0
260012.0 581526.0 0
266718.0 581719.0 0
272678.0 582435.0 0
276483.0 581026.0 0
281569.0 580311.0 0
286832.0 582543.0 0
292463.0 580475.0 0
298347.0 582471.0 0
303150.0 580636.0 0
307371.0 581698.0 0
312147.0 583200.0 0
318796.0 581773.0 0
323387.0 582741.0 0
327709.0 581796.0 0
332241.0 580378.0 0
337043.0 581572.0 0
341436.0 582743.0 0
347471.0 581914.0 0
353387.0 580910.0 0
358637.0 580015.0 0
363903.0 581441.0 0
368630.0 581175.0 0
372366.0 581747.0 0
378625.0 584118.0 0
383149.0 580587.0 0
388418.0 582113.0 0
392539.0 579860.0 0
396950.0 581854.0 0
408384.0 583155.0 0
412698.0 583294.0 0
417500.0 581621.0 0
423259.0 581452.0 0
429969.0 580498.0 0
433537.0 582067.0 0
438619.0 581400.0 0
445539.0 580695.0 0
449970.0 581300.0 0
454316.0 581118.0 0
458164.0 582707.0 0
461832.0 580491.0 0
462105.0 584655.0 0
466298.0 581823.0 0
472063.0 581899.0 0
477023.0 583409.0 0
481476.0 581412.0 0
487211.0 582286.0 0
492796.0 582927.0 0
497598.0 581920.0 0
3506.41 586207.0 0
8721.14 587642.0 0
12489.0 585780.0 0
17979.9 586610.0 0
23733.1 585937.0 0
29060.1 586110.0 0
33769.9 586248.0 0
38531.9 586935.0 0
43678.8 587888.0 0
47717.2 585589.0 0
52057.7 587161.0 0
57010.0 587857.0 0
61836.3 587335.0 0
66420.1 586823.0 0
71635.4 586540.0 0
78186.0 587182.0 0
84074.3 586446.0 0
87667.4 588122.0 0
99331.0 586462.0 0
103958.0 587594.0 0
108425.0 586018.0 0
113730.0 585581.0 0
118244.0 586722.0 0
126621.0 587156.0 0
131331.0 586280.0 0
139830.0 585560.0 0
145124.0 586189.0 0
152081.0 586129.0 0
157674.0 587732.0 0
162105.0 585394.0 0
167748.0 585597.0 0
173938.0 586874.0 0
179220.0 586252.0 0
184021.0 586756.0 0
193918.0 586925.0 0
198663.0 585536.0 0
202685.0 587110.0 0
207433.0 587264.0 0
212828.0 586932.0 0
217745.0 586457.0 0
222326.0 585190.0 0
226607.0 587340.0 0
231512.0 586387.0 0
236437.0 586855.0 0
241118.0 586891.0 0
247427.0 585726.0 0
251643.0 587851.0 0
256835.0 586390.0 0
262275.0 586400.0 0
266979.0 589005.0 0
272717.0 587120.0 0
277820.0 586718.0 0
282614.0 585776.0 0
287472.0 587899.0 0
293513.0 587074.0 0
298930.0 587342.0 0
303387.0 585659.0 0
308264.0 586434.0 0
315535.0 587533.0 0
311385.0 588621.0 0
320485.0 586638.0 0
326107.0 587236.0 0
333141.0 586445.0 0
339089.0 587158.0 0
343423.0 586623.0 0
347350.0 586720.0 0
351785.0 586316.0 0
357638.0 585299.0 0
363046.0 586433.0 0
368244.0 586012.0 0
372230.0 589566.0 0
373562.0 584987.0 0
377918.0 589747.0 0
383237.0 586737.0 0
388368.0 587842.0 0
392225.0 584832.0 0
397025.0 586481.0 0
402845.0 586475.0 0
407520.0 586756.0 0
411363.0 587639.0 0
416224.0 586237.0 0
421442.0 586004.0 0
426942.0 584995.0 0
431478.0 587658.0 0
436025.0 585379.0 0
442506.0 585630.0 0
449315.0 586878.0 0
454606.0 585757.0 0
458655.0 586889.0 0
462511.0 589202.0 0
465958.0 586675.0 0
470313.0 586851.0 0
475302.0 587216.0 0
480068.0 587140.0 0
485664.0 587885.0 0
491240.0 587042.0 0
496380.0 587341.0 0
3164.56 592866.0 0
8521.51 591834.0 0
13842.1 591357.0 0
18494.9 593597.0 0
23127.4 591441.0 0
28522.8 591274.0 0
33908.2 591151.0 0
38896.4 591860.0 0
42616.1 591762.0 0
47500.0 591498.0 0
52501.6 591567.0 0
57885.1 593155.0 0
62785.0 591807.0 0
67029.8 591377.0 0
73095.1 592544.0 0
78463.9 592971.0 0
82616.4 591541.0 0
87200.8 592050.0 0
92132.7 589979.0 0
97541.5 591852.0 0
102124.0 591319.0 0
107233.0 591790.0 0
113453.0 591018.0 0
117707.0 592225.0 0
121474.0 590057.0 0
125891.0 592912.0 0
129828.0 590305.0 0
135520.0 590292.0 0
141728.0 590400.0 0
147689.0 591896.0 0
152890.0 591479.0 0
156954.0 592172.0 0
162491.0 591475.0 0
168772.0 591065.0 0
173815.0 592164.0 0
178771.0 591287.0 0
183517.0 592186.0 0
188761.0 590476.0 0
193867.0 591953.0 0
198332.0 590552.0 0
203167.0 591296.0 0
201024.0 594310.0 0
206990.0 591630.0 0
211084.0 591737.0 0
216397.0 590975.0 0
218808.0 594879.0 0
222864.0 591413.0 0
228764.0 591530.0 0
233173.0 590764.0 0
237829.0 591431.0 0
242982.0 591658.0 0
248310.0 591260.0 0
254027.0 591643.0 0
258872.0 591409.0 0
262842.0 591894.0 0
266966.0 594793.0 0
271220.0 591425.0 0
276170.0 591067.0 0
282031.0 591839.0 0
287413.0 592429.0 0
291714.0 592555.0 0
297627.0 591650.0 0
305231.0 591232.0 0
309529.0 592332.0 0
313495.0 592258.0 0
318500.0 590923.0 0
322500.0 591784.0 0
328480.0 592066.0 0
332842.0 592508.0 0
336798.0 590985.0 0
340875.0 591033.0 0
345906.0 591159.0 0
352073.0 592403.0 0
357192.0 590582.0 0
361909.0 591288.0 0
367482.0 592178.0 0
383670.0 592873.0 0
388778.0 592503.0 0
393016.0 589957.0 0
398380.0 591894.0 0
406288.0 590688.0 0
408454.0 593687.0 0
411239.0 591927.0 0
415224.0 590966.0 0
420349.0 591421.0 0
426869.0 591506.0 0
432921.0 591560.0 0
438025.0 591145.0 0
444081.0 591752.0 0
449032.0 592561.0 0
453836.0 590679.0 0
458685.0 590966.0 0
466634.0 591492.0 0
471842.0 591276.0 0
477342.0 591479.0 0
482199.0 592026.0 0
489839.0 591226.0 0
493061.0 593177.0 0
497153.0 593292.0 0
2175.02 598111.0 0
6288.15 597066.0 0
11623.3 597272.0 0
17461.8 597965.0 0
22368.2 596922.0 0
28403.7 596369.0 0
33557.1 596574.0 0
38581.0 596466.0 0
43567.7 596560.0 0
47965.8 596590.0 0
52500.0 596501.0 0
57209.4 597569.0 0
62272.0 596866.0 0
67444.3 595719.0 0
71669.3 598122.0 0
76790.0 596949.0 0
81400.6 596411.0 0
85994.9 596066.0 0
91469.5 596354.0 0
97957.5 597222.0 0
102739.0 595630.0 0
107006.0 597721.0 0
111257.0 595596.0 0
115641.0 595768.0 0
120931.0 595926.0 0
125947.0 598026.0 0
131202.0 595849.0 0
137716.0 596386.0 0
134545.0 599833.0 0
143199.0 596561.0 0
149279.0 597493.0 0
153243.0 595348.0 0
157394.0 596825.0 0
161880.0 597710.0 0
166146.0 595654.0 0
171014.0 596010.0 0
176431.0 596897.0 0
181106.0 595421.0 0
186261.0 596976.0 0
191566.0 595321.0 0
192515.0 600088.0 0
196676.0 596275.0 0
202452.0 599162.0 0
208438.0 596423.0 0
214245.0 595766.0 0
218039.0 599523.0 0
222299.0 597182.0 0
226927.0 596315.0 0
232648.0 595818.0 0
237088.0 598883.0 0
240698.0 595886.0 0
246340.0 597295.0 0
252473.0 596967.0 0
257150.0 595336.0 0
261909.0 597565.0 0
272255.0 595745.0 0
275301.0 599474.0 0
277559.0 595637.0 0
282663.0 598846.0 0
288928.0 597111.0 0
295241.0 596708.0 0
301306.0 595898.0 0
307285.0 596866.0 0
312773.0 597288.0 0
317683.0 595411.0 0
321623.0 597640.0 0
325839.0 596068.0 0
331411.0 597364.0 0
336436.0 595589.0 0
338052.0 599912.0 0
342267.0 596359.0 0
348063.0 596528.0 0
352542.0 598045.0 0
357649.0 595934.0 0
363290.0 596178.0 0
367946.0 597631.0 0
372468.0 594996.0 0
377852.0 595680.0 0
382076.0 599504.0 0
387570.0 597527.0 0
393076.0 595678.0 0
397943.0 598253.0 0
403673.0 595967.0 0
409186.0 597352.0 0
413674.0 595777.0 0
418102.0 597136.0 0
422316.0 596299.0 0
427494.0 598176.0 0
432526.0 595806.0 0
436654.0 595936.0 0
442722.0 597174.0 0
447232.0 596291.0 0
451809.0 596513.0 0
455953.0 594953.0 0
461898.0 596223.0 0
468630.0 596946.0 0
474627.0 596412.0 0
479905.0 595951.0 0
481821.0 599904.0 0
486545.0 596297.0 0
493030.0 597525.0 0
498364.0 597611.0 0
2132.22 602416.0 0
6256.62 601639.0 0
10964.5 604028.0 0
16361.6 602336.0 0
20772.6 601725.0 0
25638.4 600900.0 0
32084.7 601844.0 0
37623.6 601442.0 0
42833.1 601637.0 0
48297.0 601453.0 0
52981.3 601679.0 0
57712.5 601817.0 0
62439.3 601475.0 0
67209.2 601322.0 0
73239.2 602226.0 0
77224.9 600964.0 0
81050.5 601483.0 0
77107.7 605000.0 0
86697.3 601195.0 0
92827.6 602853.0 0
98426.3 602279.0 0
102898.0 600405.0 0
106645.0 603555.0 0
111447.0 600946.0 0
117044.0 600256.0 0
121931.0 602792.0 0
126537.0 601977.0 0
131000.0 602556.0 0
139267.0 602416.0 0
146086.0 601929.0 0
152778.0 602159.0 0
158694.0 601381.0 0
162306.0 604048.0 0
165954.0 600860.0 0
171436.0 601190.0 0
177125.0 603140.0 0
182914.0 602017.0 0
188163.0 602830.0 0
197262.0 603180.0 0
202260.0 604555.0 0
206952.0 603423.0 0
212529.0 601332.0 0
222760.0 602038.0 0
228424.0 601679.0 0
233410.0 601021.0 0
237309.0 602956.0 0
241558.0 601142.0 0
246871.0 603726.0 0
252459.0 602447.0 0
256840.0 599870.0 0
258079.0 604816.0 0
262981.0 603123.0 0
268506.0 600768.0 0
273722.0 603686.0 0
278314.0 602250.0 0
283879.0 605197.0 0
287327.0 601775.0 0
292341.0 602110.0 0
298808.0 602105.0 0
303764.0 600201.0 0
303746.0 604146.0 0
307496.0 602166.0 0
312154.0 602130.0 0
316750.0 600546.0 0
321098.0 602011.0 0
316552.0 605101.0 0
327201.0 602120.0 0
333634.0 602645.0 0
338719.0 604451.0 0
342448.0 601824.0 0
347052.0 601383.0 0
352052.0 602846.0 0
357001.0 601672.0 0
361917.0 600823.0 0
366173.0 601632.0 0
370606.0 601868.0 0
376193.0 601224.0 0
386476.0 602512.0 0
383144.0 603633.0 0
391757.0 601640.0 0
396547.0 602317.0 0
401582.0 602745.0 0
406905.0 601044.0 0
411713.0 601097.0 0
416919.0 601619.0 0
422562.0 601647.0 0
427335.0 603455.0 0
432300.0 601929.0 0
437824.0 600249.0 0
442533.0 602730.0 0
447945.0 600645.0 0
451848.0 603761.0 0
455878.0 600623.0 0
461351.0 602706.0 0
465970.0 601278.0 0
471729.0 602642.0 0
477364.0 601220.0 0
480311.0 603475.0 0
486480.0 603086.0 0
491898.0 602648.0 0
497017.0 602048.0 0
4366.96 606620.0 0
8203.69 608285.0 0
14027.3 608516.0 0
17503.1 606444.0 0
22678.4 606749.0 0
27949.0 605345.0 0
32717.5 607554.0 0
38225.5 606745.0 0
43377.3 606583.0 0
48096.6 606845.0 0
52500.0 606611.0 0
57032.2 606722.0 0
62042.8 605752.0 0
66728.4 606513.0 0
71795.0 606951.0 0
82500.0 606764.0 0
87440.7 606520.0 0
91898.8 608686.0 0
97500.0 606602.0 0
102502.0 606498.0 0
106476.0 607580.0 0
110774.0 606721.0 0
116844.0 605900.0 0
122098.0 608081.0 0
126477.0 606120.0 0
131240.0 608009.0 0
136417.0 607811.0 0
143376.0 606273.0 0
148968.0 607522.0 0
154300.0 607689.0 0
158554.0 606167.0 0
162304.0 608570.0 0
166312.0 606174.0 0
171905.0 607017.0 0
177244.0 609047.0 0
180958.0 606594.0 0
185215.0 607069.0 0
192303.0 606334.0 0
196848.0 608436.0 0
201780.0 609669.0 0
206959.0 608319.0 0
211436.0 606963.0 0
217253.0 605587.0 0
223097.0 607723.0 0
228529.0 607103.0 0
233802.0 605778.0 0
236993.0 608523.0 0
241088.0 606881.0 0
249175.0 608534.0 0
253675.0 607354.0 0
260757.0 607869.0 0
265031.0 608164.0 0
269902.0 606390.0 0
278036.0 607682.0 0
282803.0 609927.0 0
289239.0 606971.0 0
295259.0 607158.0 0
300499.0 607748.0 0
304822.0 607751.0 0
307998.0 606180.0 0
311749.0 606468.0 0
322711.0 606543.0 0
327153.0 608105.0 0
331944.0 607022.0 0
337223.0 610237.0 0
342502.0 607575.0 0
347073.0 606264.0 0
351740.0 607990.0 0
355822.0 605981.0 0
360461.0 605736.0 0
366931.0 606747.0 0
362608.0 610120.0 0
373391.0 606816.0 0
379739.0 606423.0 0
384380.0 609241.0 0
388520.0 606890.0 0
397259.0 606003.0 0
393378.0 608202.0 0
401116.0 608899.0 0
406702.0 606638.0 0
413473.0 607004.0 0
418699.0 608113.0 0
421700.0 606314.0 0
425628.0 607594.0 0
430272.0 606837.0 0
436948.0 606537.0 0
442782.0 607655.0 0
447985.0 606775.0 0
452843.0 607358.0 0
457717.0 606705.0 0
462640.0 606577.0 0
466718.0 606066.0 0
471098.0 608893.0 0
476626.0 605438.0 0
476404.0 610269.0 0
482131.0 607096.0 0
486880.0 608585.0 0
491369.0 607203.0 0
497255.0 607746.0 0
2631.17 611585.0 0
7019.2 611628.0 0
11291.8 611974.0 0
16762.3 611710.0 0
21180.2 611703.0 0
23062.2 615245.0 0
27746.8 611109.0 0
34130.9 612007.0 0
38354.8 611861.0 0
42577.1 611559.0 0
46588.9 611549.0 0
51243.9 611431.0 0
56071.1 611306.0 0
61567.3 611656.0 0
67660.3 611340.0 0
73241.2 611911.0 0
78642.4 610625.0 0
83225.2 610874.0 0
82990.7 615149.0 0
87348.1 611379.0 0
91469.4 613264.0 0
95033.4 614512.0 0
97615.2 611482.0 0
102253.0 611050.0 0
107500.0 611533.0 0
112942.0 611252.0 0
118148.0 611785.0 0
123308.0 612543.0 0
127129.0 610534.0 0
131114.0 613826.0 0
136034.0 612349.0 0
141188.0 610980.0 0
146929.0 613063.0 0
152388.0 612246.0 0
158350.0 612246.0 0
163587.0 612416.0 0
167698.0 611064.0 0
173034.0 613468.0 0
178159.0 613305.0 0
181010.0 611192.0 0
185780.0 612791.0 0
192298.0 612309.0 0
197680.0 613023.0 0
206167.0 612345.0 0
210751.0 612056.0 0
216280.0 611651.0 0
221561.0 612979.0 0
227008.0 612740.0 0
231888.0 610531.0 0
236010.0 611741.0 0
236916.0 615518.0 0
240590.0 612544.0 0
245026.0 610259.0 0
246270.0 615342.0 0
252392.0 612208.0 0
257693.0 610778.0 0
262457.0 611706.0 0
269791.0 611535.0 0
274905.0 612467.0 0
279420.0 613154.0 0
283262.0 613380.0 0
286661.0 611233.0 0
292056.0 612190.0 0
298293.0 612880.0 0
303335.0 611436.0 0
306756.0 614243.0 0
311569.0 611656.0 0
317722.0 610918.0 0
323304.0 611389.0 0
331106.0 611521.0 0
327044.0 615453.0 0
343253.0 613202.0 0
347839.0 610605.0 0
351626.0 613072.0 0
357539.0 610491.0 0
366356.0 612008.0 0
371168.0 612382.0 0
376852.0 611785.0 0
381639.0 612358.0 0
384386.0 615251.0 0
388362.0 612096.0 0
392700.0 612722.0 0
396705.0 611793.0 0
403000.0 613987.0 0
408331.0 612543.0 0
412953.0 613587.0 0
417008.0 612082.0 0
422106.0 611073.0 0
427523.0 612455.0 0
432409.0 610808.0 0
436858.0 612666.0 0
442202.0 612814.0 0
447030.0 614032.0 0
450775.0 611302.0 0
456143.0 612953.0 0
461649.0 610824.0 0
466879.0 612379.0 0
471798.0 614055.0 0
481540.0 612505.0 0
486667.0 613244.0 0
493769.0 610841.0 0
497971.0 612473.0 0
3533.04 617680.0 0
9078.26 616149.0 0
13792.3 616362.0 0
18857.8 616785.0 0
27297.6 617268.0 0
32698.8 616382.0 0
37719.1 616488.0 0
42531.2 616729.0 0
47848.7 616394.0 0
52948.5 616129.0 0
57421.7 615595.0 0
61073.8 618357.0 0
65017.2 616000.0 0
70124.6 616446.0 0
76504.5 616934.0 0
88499.2 616573.0 0
93889.1 619538.0 0
99029.7 616464.0 0
98435.5 620322.0 0
103446.0 615081.0 0
106530.0 617406.0 0
111353.0 616352.0 0
117589.0 618143.0 0
122161.0 616191.0 0
126254.0 616570.0 0
132500.0 619520.0 0
137103.0 616935.0 0
142707.0 617023.0 0
147013.0 617206.0 0
153202.0 617416.0 0
157826.0 617586.0 0
162353.0 616638.0 0
167604.0 616343.0 0
172873.0 619429.0 0
177240.0 617310.0 0
181193.0 615495.0 0
184207.0 619200.0 0
189386.0 617498.0 0
195455.0 617366.0 0
201331.0 616969.0 0
207544.0 617174.0 0
213046.0 616592.0 0
218612.0 617816.0 0
223748.0 616891.0 0
227706.0 618925.0 0
232048.0 615794.0 0
236472.0 620318.0 0
241031.0 618227.0 0
251099.0 616637.0 0
256688.0 617153.0 0
262819.0 615822.0 0
267910.0 616511.0 0
273468.0 617814.0 0
279029.0 617609.0 0
282977.0 618409.0 0
287442.0 616657.0 0
293566.0 617503.0 0
297623.0 617658.0 0
302602.0 615974.0 0
307338.0 618302.0 0
312920.0 616385.0 0
311175.0 620155.0 0
317741.0 617026.0 0
322684.0 617263.0 0
329839.0 618605.0 0
332630.0 616457.0 0
338095.0 616675.0 0
342744.0 618304.0 0
346527.0 617247.0 0
351095.0 618195.0 0
355872.0 615575.0 0
362222.0 616172.0 0
357458.0 619922.0 0
368603.0 617121.0 0
373859.0 617057.0 0
379314.0 616992.0 0
388321.0 616782.0 0
392463.0 616535.0 0
395794.0 620269.0 0
398478.0 615989.0 0
401954.0 618648.0 0
406426.0 617567.0 0
411340.0 617588.0 0
416982.0 617767.0 0
422763.0 616503.0 0
428118.0 618141.0 0
433650.0 617030.0 0
439028.0 617775.0 0
444116.0 617768.0 0
448969.0 618147.0 0
453847.0 618174.0 0
458649.0 617471.0 0
463429.0 616840.0 0
468408.0 616687.0 0
471642.0 618484.0 0
476898.0 616264.0 0
482391.0 617853.0 0
487167.0 618627.0 0
491680.0 615511.0 0
497272.0 617182.0 0
1390.61 622102.0 0
6416.55 622652.0 0
11396.5 621261.0 0
17354.5 621965.0 0
22343.4 621310.0 0
27813.2 623296.0 0
33701.7 621759.0 0
38786.2 621673.0 0
43240.3 621570.0 0
47765.6 621612.0 0
52592.0 620897.0 0
57500.0 621700.0 0
63104.7 622271.0 0
67654.1 621252.0 0
72392.7 620954.0 0
76180.5 623026.0 0
81719.2 621768.0 0
86404.5 625194.0 0
88479.3 621261.0 0
91577.0 625297.0 0
97819.8 624900.0 0
102251.0 621010.0 0
106833.0 621255.0 0
108415.0 625242.0 0
112741.0 622267.0 0
117911.0 623981.0 0
122696.0 621305.0 0
127466.0 621187.0 0
131183.0 622709.0 0
135084.0 621447.0 0
140503.0 622778.0 0
149033.0 620983.0 0
152538.0 625172.0 0
154423.0 621462.0 0
158839.0 622009.0 0
163261.0 621473.0 0
167653.0 621475.0 0
171411.0 623809.0 0
177187.0 622011.0 0
181294.0 622625.0 0
187117.0 624605.0 0
192466.0 621824.0 0
197435.0 621975.0 0
202894.0 623337.0 0
208839.0 622661.0 0
214094.0 621708.0 0
218728.0 623148.0 0
223691.0 622401.0 0
228183.0 623128.0 0
232070.0 621138.0 0
231099.0 625608.0 0
241293.0 622310.0 0
245993.0 621202.0 0
251798.0 621539.0 0
256846.0 622817.0 0
260823.0 621259.0 0
265938.0 621471.0 0
272300.0 622619.0 0
276817.0 621910.0 0
279868.0 625438.0 0
281020.0 621606.0 0
285816.0 622336.0 0
291288.0 621585.0 0
296589.0 622256.0 0
302166.0 620921.0 0
302647.0 625506.0 0
306960.0 622355.0 0
315782.0 622245.0 0
321521.0 621699.0 0
326535.0 620679.0 0
327449.0 625394.0 0
332054.0 621043.0 0
332490.0 624941.0 0
336879.0 622580.0 0
342245.0 622485.0 0
346449.0 621289.0 0
350359.0 623038.0 0
355780.0 625583.0 0
361480.0 622683.0 0
366565.0 621765.0 0
371978.0 622228.0 0
377972.0 622841.0 0
384490.0 620969.0 0
390525.0 620623.0 0
397098.0 625307.0 0
400485.0 622601.0 0
404375.0 622008.0 0
408804.0 621951.0 0
413790.0 622420.0 0
418323.0 622754.0 0
423315.0 621563.0 0
421404.0 625497.0 0
427700.0 623011.0 0
431661.0 621538.0 0
436112.0 621905.0 0
441368.0 622450.0 0
446356.0 622077.0 0
451204.0 622413.0 0
457485.0 622129.0 0
462694.0 622346.0 0
467703.0 621199.0 0
473365.0 622252.0 0
478857.0 621722.0 0
484355.0 622479.0 0
488714.0 622518.0 0
493302.0 621284.0 0
498190.0 621598.0 0
2769.03 625951.0 0
8346.98 627277.0 0
13951.2 626496.0 0
18987.6 626689.0 0
23188.1 625844.0 0
22156.6 630617.0 0
27709.8 628602.0 0
32223.8 626440.0 0
37438.5 626751.0 0
40944.3 626346.0 0
45225.5 626955.0 0
50420.6 626236.0 0
55971.0 626986.0 0
60773.5 625997.0 0
65890.0 626328.0 0
62543.5 630588.0 0
71971.4 626402.0 0
78715.1 626995.0 0
82660.4 627561.0 0
94608.7 630321.0 0
103613.0 627513.0 0
108506.0 629909.0 0
114409.0 627497.0 0
118186.0 627585.0 0
121930.0 625671.0 0
126714.0 626295.0 0
122535.0 630154.0 0
131859.0 627230.0 0
136242.0 626159.0 0
140587.0 628885.0 0
145873.0 626104.0 0
157161.0 626416.0 0
153927.0 630123.0 0
161503.0 626565.0 0
167077.0 627432.0 0
173201.0 627853.0 0
177953.0 626863.0 0
182318.0 626779.0 0
185087.0 629593.0 0
192775.0 626924.0 0
198371.0 626146.0 0
201846.0 629027.0 0
206721.0 627888.0 0
210878.0 626559.0 0
215594.0 627273.0 0
221125.0 627179.0 0
226632.0 628480.0 0
232387.0 630577.0 0
236677.0 625805.0 0
242759.0 625786.0 0
248387.0 626510.0 0
254078.0 626705.0 0
258179.0 630054.0 0
262538.0 626399.0 0
269341.0 627195.0 0
275579.0 626347.0 0
278770.0 630062.0 0
283939.0 627468.0 0
289450.0 626473.0 0
294229.0 626561.0 0
298636.0 627411.0 0
303110.0 629913.0 0
306249.0 626787.0 0
307980.0 630521.0 0
311288.0 625911.0 0
317817.0 626338.0 0
322567.0 627042.0 0
330789.0 629010.0 0
336198.0 628577.0 0
340678.0 625929.0 0
344797.0 625886.0 0
342337.0 630685.0 0
348511.0 626832.0 0
364774.0 626511.0 0
369459.0 626866.0 0
374092.0 626273.0 0
372994.0 630489.0 0
381931.0 625878.0 0
378438.0 629143.0 0
386989.0 626640.0 0
383603.0 629425.0 0
391941.0 625641.0 0
397451.0 630756.0 0
401222.0 626978.0 0
405989.0 626349.0 0
411312.0 626677.0 0
416378.0 627038.0 0
421386.0 630511.0 0
425741.0 627227.0 0
431367.0 626691.0 0
437045.0 626778.0 0
442522.0 628022.0 0
448321.0 626934.0 0
454223.0 626328.0 0
456944.0 630267.0 0
459687.0 626674.0 0
463703.0 626430.0 0
467876.0 626287.0 0
472344.0 626698.0 0
476550.0 625928.0 0
481259.0 625951.0 0
486866.0 626708.0 0
488804.0 630670.0 0
491116.0 625830.0 0
493254.0 629692.0 0
496499.0 625681.0 0
497708.0 630383.0 0
2384.99 631015.0 0
6770.37 631896.0 0
12096.5 632327.0 0
17300.4 631155.0 0
16957.1 635145.0 0
27148.2 632900.0 0
31676.6 631108.0 0
36636.7 631999.0 0
42112.1 631463.0 0
47593.6 631269.0 0
52718.8 631747.0 0
57735.9 631586.0 0
62334.1 635172.0 0
66757.9 630670.0 0
70441.1 633482.0 0
75454.0 631040.0 0
80427.1 632703.0 0
86635.2 631123.0 0
91525.4 634881.0 0
99765.1 631207.0 0
104994.0 631777.0 0
102644.0 635266.0 0
108544.0 635509.0 0
113376.0 632433.0 0
117280.0 635351.0 0
117819.0 630868.0 0
127300.0 631537.0 0
131521.0 631421.0 0
135749.0 630999.0 0
138742.0 635688.0 0
143075.0 633668.0 0
148590.0 631302.0 0
158476.0 631763.0 0
162500.0 631921.0 0
166307.0 633550.0 0
170859.0 631629.0 0
176160.0 631621.0 0
180951.0 631228.0 0
184589.0 633400.0 0
190031.0 632307.0 0
196648.0 630974.0 0
201144.0 634163.0 0
206069.0 633112.0 0
211217.0 631167.0 0
217013.0 632860.0 0
222205.0 632112.0 0
227629.0 633109.0 0
237229.0 631129.0 0
242023.0 631312.0 0
247755.0 632409.0 0
253300.0 631972.0 0
258374.0 635180.0 0
262492.0 632108.0 0
267111.0 633081.0 0
273556.0 632503.0 0
279459.0 635748.0 0
282299.0 631707.0 0
286791.0 632479.0 0
292724.0 631310.0 0
298485.0 633016.0 0
308924.0 635316.0 0
313223.0 631886.0 0
318818.0 631049.0 0
322155.0 634184.0 0
326024.0 631430.0 0
331019.0 634359.0 0
337384.0 633276.0 0
347286.0 632728.0 0
351609.0 630686.0 0
358978.0 630937.0 0
361468.0 634994.0 0
363932.0 631290.0 0
368318.0 631221.0 0
377380.0 633563.0 0
382600.0 634712.0 0
387081.0 631627.0 0
391314.0 630674.0 0
393548.0 635091.0 0
403457.0 631915.0 0
408347.0 630540.0 0
412564.0 631856.0 0
408946.0 635290.0 0
416731.0 631580.0 0
418973.0 635490.0 0
428506.0 631881.0 0
423636.0 634977.0 0
434585.0 631298.0 0
436053.0 635144.0 0
439571.0 632982.0 0
444326.0 632552.0 0
447694.0 631638.0 0
447299.0 635308.0 0
452059.0 630934.0 0
457455.0 635156.0 0
461904.0 631902.0 0
467076.0 630915.0 0
467894.0 635979.0 0
471415.0 631002.0 0
472203.0 634651.0 0
476621.0 631271.0 0
483488.0 630715.0 0
480474.0 635252.0 0
491858.0 634543.0 0
497330.0 635247.0 0
2460.37 635844.0 0
7824.75 636822.0 0
13575.0 637474.0 0
19325.8 639946.0 0
23423.0 635845.0 0
25071.9 640264.0 0
28611.7 637342.0 0
33497.1 636062.0 0
38512.6 636465.0 0
42851.0 636849.0 0
47164.9 636297.0 0
52179.2 637187.0 0
56989.8 636051.0 0
60587.1 639851.0 0
66230.2 636446.0 0
73857.5 636833.0 0
77500.0 636741.0 0
81459.2 640490.0 0
83034.4 636922.0 0
87397.5 637056.0 0
91295.1 640273.0 0
96955.3 635810.0 0
113489.0 638262.0 0
117713.0 640417.0 0
122672.0 635877.0 0
128293.0 636351.0 0
133627.0 635776.0 0
136767.0 639628.0 0
142386.0 638789.0 0
147172.0 636361.0 0
152859.0 635968.0 0
158648.0 636244.0 0
163337.0 637502.0 0
166983.0 637591.0 0
168569.0 640698.0 0
170771.0 636362.0 0
175997.0 636583.0 0
181381.0 636823.0 0
186545.0 637068.0 0
191390.0 638516.0 0
196513.0 636812.0 0
200862.0 638515.0 0
205165.0 638020.0 0
210271.0 636814.0 0
215320.0 637438.0 0
219908.0 637142.0 0
225012.0 636507.0 0
230909.0 636542.0 0
237047.0 636021.0 0
242120.0 638511.0 0
247865.0 638401.0 0
253564.0 637310.0 0
259218.0 639482.0 0
263404.0 637036.0 0
268971.0 638130.0 0
274136.0 637838.0 0
285075.0 637898.0 0
289403.0 636599.0 0
289170.0 640875.0 0
293486.0 636501.0 0
297424.0 637858.0 0
303411.0 636644.0 0
307760.0 639509.0 0
313539.0 637321.0 0
318230.0 636091.0 0
321713.0 637363.0 0
325990.0 637221.0 0
322315.0 640950.0 0
335344.0 636007.0 0
332861.0 640621.0 0
339475.0 637418.0 0
344764.0 636410.0 0
350411.0 636465.0 0
347359.0 640982.0 0
356513.0 635950.0 0
362037.0 640364.0 0
366570.0 636545.0 0
372904.0 636213.0 0
377887.0 637676.0 0
381797.0 640743.0 0
386918.0 640887.0 0
388371.0 636111.0 0
392228.0 640520.0 0
398887.0 636605.0 0
402207.0 640799.0 0
404221.0 637403.0 0
410893.0 640384.0 0
413964.0 636512.0 0
421557.0 640626.0 0
427600.0 637042.0 0
432768.0 636337.0 0
438305.0 639053.0 0
443465.0 636634.0 0
447329.0 639357.0 0
451951.0 636597.0 0
462413.0 637836.0 0
471444.0 640112.0 0
475848.0 637094.0 0
481532.0 639786.0 0
485660.0 636388.0 0
490352.0 640400.0 0
2995.13 641259.0 0
8297.31 643061.0 0
13693.6 642422.0 0
18100.7 646009.0 0
23020.3 644307.0 0
29437.6 642015.0 0
34919.0 641132.0 0
32530.8 644947.0 0
39935.0 641044.0 0
37689.0 644726.0 0
43441.4 642551.0 0
46761.5 641227.0 0
51298.3 642340.0 0
55828.4 641695.0 0
66173.5 641311.0 0
68022.4 645966.0 0
72372.3 641825.0 0
77840.5 641295.0 0
81044.7 644988.0 0
85765.7 641818.0 0
93878.3 645356.0 0
97593.0 641350.0 0
103115.0 640909.0 0
104512.0 645926.0 0
109129.0 641824.0 0
114909.0 642180.0 0
121541.0 641164.0 0
118341.0 644789.0 0
126756.0 641625.0 0
123258.0 645743.0 0
132600.0 642608.0 0
139761.0 643377.0 0
147078.0 641839.0 0
143789.0 645766.0 0
154006.0 642434.0 0
159608.0 641461.0 0
162640.0 645915.0 0
164394.0 641921.0 0
168043.0 646045.0 0
173337.0 641010.0 0
173257.0 645532.0 0
178235.0 641515.0 0
182366.0 641409.0 0
182921.0 645886.0 0
187108.0 642213.0 0
192328.0 643711.0 0
197453.0 641885.0 0
203127.0 642292.0 0
207648.0 641610.0 0
212999.0 641401.0 0
217611.0 641145.0 0
217599.0 645688.0 0
222040.0 641668.0 0
227217.0 641671.0 0
232834.0 642122.0 0
237882.0 641328.0 0
241250.0 643393.0 0
244870.0 642636.0 0
251348.0 642889.0 0
255857.0 641551.0 0
258026.0 645512.0 0
262250.0 641503.0 0
262972.0 645730.0 0
267454.0 643294.0 0
272202.0 641833.0 0
277565.0 641479.0 0
282443.0 641761.0 0
288258.0 645724.0 0
294322.0 641400.0 0
292817.0 646036.0 0
299372.0 641460.0 0
297347.0 645655.0 0
304258.0 642532.0 0
311493.0 642238.0 0
317133.0 641311.0 0
322609.0 645239.0 0
326930.0 642671.0 0
336275.0 645481.0 0
338144.0 642171.0 0
342552.0 642423.0 0
351921.0 641295.0 0
356841.0 641952.0 0
352875.0 645907.0 0
366615.0 641963.0 0
363257.0 646062.0 0
371200.0 641519.0 0
376779.0 642315.0 0
373587.0 645221.0 0
388446.0 645650.0 0
393385.0 645610.0 0
397996.0 642595.0 0
406096.0 642463.0 0
412781.0 644868.0 0
415847.0 641310.0 0
427312.0 642293.0 0
433156.0 642794.0 0
443367.0 642859.0 0
451347.0 642163.0 0
456992.0 640960.0 0
461498.0 643441.0 0
466292.0 642447.0 0
476794.0 643085.0 0
484955.0 643450.0 0
496749.0 641053.0 0
2068.2 646820.0 0
5844.92 646678.0 0
7709.75 650523.0 0
11632.5 647194.0 0
23794.1 650151.0 0
28570.6 646649.0 0
32471.9 649085.0 0
37007.1 648885.0 0
42546.2 646009.0 0
46857.6 646740.0 0
50687.0 647244.0 0
55830.7 646523.0 0
62163.7 646256.0 0
67934.3 650725.0 0
71913.5 647058.0 0
76176.0 647117.0 0
86016.1 647298.0 0
81929.8 650000.0 0
90836.0 650345.0 0
99412.7 646443.0 0
101968.0 650789.0 0
109169.0 647623.0 0
113716.0 645932.0 0
116832.0 650183.0 0
127971.0 646720.0 0
131989.0 647352.0 0
136002.0 646654.0 0
133368.0 650554.0 0
143249.0 650415.0 0
147873.0 647124.0 0
152611.0 648086.0 0
157838.0 647114.0 0
161975.0 650535.0 0
172668.0 651021.0 0
177675.0 646567.0 0
188405.0 647747.0 0
184126.0 650956.0 0
192919.0 648215.0 0
196012.0 646288.0 0
200623.0 646758.0 0
206074.0 646513.0 0
212107.0 647051.0 0
218319.0 651020.0 0
221946.0 647417.0 0
226510.0 646815.0 0
231293.0 647124.0 0
236639.0 646459.0 0
241635.0 647108.0 0
247447.0 647768.0 0
253530.0 647476.0 0
257741.0 650923.0 0
262803.0 650397.0 0
267367.0 648605.0 0
272221.0 646456.0 0
280073.0 646260.0 0
276103.0 649068.0 0
284307.0 646253.0 0
285606.0 650737.0 0
298525.0 651003.0 0
301841.0 646933.0 0
303990.0 651030.0 0
307500.0 646550.0 0
313345.0 647141.0 0
318279.0 646585.0 0
321949.0 649134.0 0
326485.0 648040.0 0
331852.0 646929.0 0
340267.0 646661.0 0
346726.0 646954.0 0
351891.0 651143.0 0
357757.0 647146.0 0
369214.0 646458.0 0
376782.0 646953.0 0
373382.0 649361.0 0
382101.0 646962.0 0
377818.0 651118.0 0
387164.0 651242.0 0
397842.0 647883.0 0
393558.0 651243.0 0
403202.0 647832.0 0
408816.0 646965.0 0
417279.0 646163.0 0
413492.0 649565.0 0
422553.0 646833.0 0
418502.0 651022.0 0
427910.0 647623.0 0
432572.0 649303.0 0
437485.0 646958.0 0
442877.0 648481.0 0
448050.0 646492.0 0
453353.0 646488.0 0
451371.0 650767.0 0
458195.0 647244.0 0
463455.0 647480.0 0
468065.0 647162.0 0
472480.0 646938.0 0
476834.0 648976.0 0
481056.0 646890.0 0
485266.0 648474.0 0
489543.0 646182.0 0
492575.0 650795.0 0
497036.0 647174.0 0
2339.7 651628.0 0
2106.81 656060.0 0
6180.65 654932.0 0
12482.0 651893.0 0
10447.7 656145.0 0
17628.4 651549.0 0
21091.0 656080.0 0
29131.4 651610.0 0
26805.6 655754.0 0
34844.2 653439.0 0
41981.7 651314.0 0
47913.7 651602.0 0
52663.4 651292.0 0
52406.3 656011.0 0
57460.4 651814.0 0
62980.5 652558.0 0
69764.3 655347.0 0
72996.5 651289.0 0
77814.8 651791.0 0
85836.0 652540.0 0
81493.1 655933.0 0
96836.9 651598.0 0
92858.0 656097.0 0
106526.0 651903.0 0
102990.0 655688.0 0
111572.0 652345.0 0
119572.0 655275.0 0
124718.0 651596.0 0
130147.0 652118.0 0
137834.0 651447.0 0
133874.0 656102.0 0
137731.0 656080.0 0
141984.0 655409.0 0
148742.0 652507.0 0
153335.0 655951.0 0
154126.0 651915.0 0
157818.0 652624.0 0
162461.0 655722.0 0
166658.0 652461.0 0
178951.0 651847.0 0
182610.0 656091.0 0
188383.0 652448.0 0
187237.0 655917.0 0
192502.0 652143.0 0
197211.0 651396.0 0
197336.0 655646.0 0
202938.0 651736.0 0
208179.0 651261.0 0
208085.0 655935.0 0
213150.0 653053.0 0
222676.0 651282.0 0
221525.0 655221.0 0
226829.0 651714.0 0
232147.0 652328.0 0
237508.0 651879.0 0
242666.0 651702.0 0
247350.0 654105.0 0
252381.0 652411.0 0
255945.0 656191.0 0
266164.0 654114.0 0
271950.0 652314.0 0
280001.0 651604.0 0
282524.0 655488.0 0
292128.0 651517.0 0
301792.0 655717.0 0
308820.0 652278.0 0
313004.0 651295.0 0
312856.0 655894.0 0
317907.0 652400.0 0
324657.0 652866.0 0
329846.0 652331.0 0
330870.0 656165.0 0
335767.0 651473.0 0
342091.0 651679.0 0
347314.0 652746.0 0
357181.0 652280.0 0
363315.0 653138.0 0
369129.0 651803.0 0
373821.0 654887.0 0
382108.0 653642.0 0
399581.0 652911.0 0
404568.0 653031.0 0
408933.0 651883.0 0
413764.0 655439.0 0
419753.0 655988.0 0
423553.0 652380.0 0
428800.0 652619.0 0
433538.0 654081.0 0
437832.0 652277.0 0
442023.0 652986.0 0
446688.0 651486.0 0
445389.0 656259.0 0
456035.0 651961.0 0
457980.0 656078.0 0
460979.0 652260.0 0
465546.0 651552.0 0
466123.0 655975.0 0
470276.0 651548.0 0
470522.0 656269.0 0
475303.0 654285.0 0
481429.0 652584.0 0
487441.0 652822.0 0
497638.0 652463.0 0
1811.48 659959.0 0
6767.29 660193.0 0
15283.9 656270.0 0
12525.2 660644.0 0
18003.0 660955.0 0
28003.0 661222.0 0
31814.0 657948.0 0
38132.9 657249.0 0
42429.3 656563.0 0
43027.4 660822.0 0
47016.2 656793.0 0
50095.2 659805.0 0
56236.5 657142.0 0
60064.4 656964.0 0
65170.4 657465.0 0
75249.1 656588.0 0
83574.9 661372.0 0
87241.1 657440.0 0
98124.9 656765.0 0
98494.5 661229.0 0
104323.0 660745.0 0
108401.0 656568.0 0
110474.0 661331.0 0
114215.0 657262.0 0
119254.0 660723.0 0
124503.0 658106.0 0
129364.0 656205.0 0
127625.0 661316.0 0
131981.0 660637.0 0
137193.0 660220.0 0
142522.0 660860.0 0
147555.0 658232.0 0
157827.0 656849.0 0
162732.0 660899.0 0
168396.0 656567.0 0
168000.0 661298.0 0
173207.0 660519.0 0
173781.0 656312.0 0
177710.0 656650.0 0
188547.0 659374.0 0
192567.0 656606.0 0
198314.0 660220.0 0
203240.0 657328.0 0
207433.0 660537.0 0
212027.0 657842.0 0
216854.0 657515.0 0
222115.0 660425.0 0
226126.0 656621.0 0
230946.0 657551.0 0
236878.0 657800.0 0
242585.0 656735.0 0
247287.0 658489.0 0
249630.0 661625.0 0
251238.0 657161.0 0
258881.0 661247.0 0
262253.0 656614.0 0
265704.0 658943.0 0
270246.0 657888.0 0
276929.0 656995.0 0
283446.0 660384.0 0
287694.0 656430.0 0
293221.0 657572.0 0
297967.0 658849.0 0
302596.0 661368.0 0
307370.0 657789.0 0
318773.0 659121.0 0
324203.0 657404.0 0
327916.0 656284.0 0
330342.0 661049.0 0
334253.0 656713.0 0
336527.0 660830.0 0
338975.0 656381.0 0
344633.0 657423.0 0
352207.0 657376.0 0
358864.0 657871.0 0
364659.0 659375.0 0
368915.0 656617.0 0
371990.0 660857.0 0
378827.0 657781.0 0
384338.0 657575.0 0
389386.0 657088.0 0
395465.0 657241.0 0
399758.0 659247.0 0
402797.0 656811.0 0
407932.0 657337.0 0
412238.0 660876.0 0
416833.0 659763.0 0
421563.0 660847.0 0
424854.0 657186.0 0
429599.0 657568.0 0
434091.0 657983.0 0
436880.0 657203.0 0
437653.0 661288.0 0
440280.0 657019.0 0
442248.0 661097.0 0
452361.0 656604.0 0
461941.0 657535.0 0
468360.0 660587.0 0
473624.0 659578.0 0
479699.0 657947.0 0
485669.0 658256.0 0
491670.0 656488.0 0
497259.0 657543.0 0
2705.0 664381.0 0
12525.5 665628.0 0
23357.6 661873.0 0
28723.9 665632.0 0
34767.2 663114.0 0
39011.3 661582.0 0
41918.4 665748.0 0
47500.0 662138.0 0
52353.3 663765.0 0
57385.0 661480.0 0
62649.7 661921.0 0
67484.8 661796.0 0
72676.1 662120.0 0
78213.9 661580.0 0
80994.3 665815.0 0
88216.1 662965.0 0
93327.3 662081.0 0
101505.0 664934.0 0
106907.0 665438.0 0
112165.0 666047.0 0
114903.0 662554.0 0
120794.0 665880.0 0
123156.0 662323.0 0
126124.0 665311.0 0
138275.0 665900.0 0
147326.0 663235.0 0
143772.0 665841.0 0
152801.0 661820.0 0
158231.0 661332.0 0
157041.0 665683.0 0
162371.0 666351.0 0
178609.0 661860.0 0
173870.0 666092.0 0
184396.0 661322.0 0
188443.0 664581.0 0
192725.0 661724.0 0
203094.0 663425.0 0
208044.0 666578.0 0
212033.0 662579.0 0
217326.0 662889.0 0
227486.0 661741.0 0
232926.0 662439.0 0
238347.0 663925.0 0
244138.0 662109.0 0
248142.0 666429.0 0
253771.0 663340.0 0
264010.0 662586.0 0
261514.0 666319.0 0
268205.0 662258.0 0
266107.0 666237.0 0
273297.0 662067.0 0
270567.0 666056.0 0
278529.0 663324.0 0
288811.0 661966.0 0
293974.0 662768.0 0
298271.0 663565.0 0
307352.0 662930.0 0
312598.0 662022.0 0
316951.0 663520.0 0
320160.0 664518.0 0
324204.0 662202.0 0
335176.0 666131.0 0
341916.0 663427.0 0
348062.0 661997.0 0
352355.0 663679.0 0
356344.0 662402.0 0
360813.0 662921.0 0
367603.0 663815.0 0
377381.0 662948.0 0
382472.0 661786.0 0
383406.0 666190.0 0
388220.0 663500.0 0
395016.0 663620.0 0
399971.0 664624.0 0
403808.0 661880.0 0
408571.0 663547.0 0
412644.0 666357.0 0
418067.0 664861.0 0
426842.0 662040.0 0
432380.0 661937.0 0
443059.0 666166.0 0
447284.0 661684.0 0
452759.0 662501.0 0
458461.0 661551.0 0
463719.0 661121.0 0
463400.0 665109.0 0
467918.0 665840.0 0
471781.0 663620.0 0
477659.0 661586.0 0
479047.0 666168.0 0
481830.0 661913.0 0
486013.0 663570.0 0
491457.0 662604.0 0
497370.0 662900.0 0
2546.08 669605.0 0
7527.89 667270.0 0
11109.9 670729.0 0
14833.2 671701.0 0
18005.5 667123.0 0
23863.6 666882.0 0
27526.0 670480.0 0
32854.4 668995.0 0
37522.8 667558.0 0
43550.5 670422.0 0
47465.3 666508.0 0
52308.7 669395.0 0
56367.7 666785.0 0
57310.9 671217.0 0
61164.2 666782.0 0
62575.2 671371.0 0
66672.6 666953.0 0
71319.3 671633.0 0
72064.8 667467.0 0
75491.4 671049.0 0
76563.0 666634.0 0
81039.7 671305.0 0
85456.5 666882.0 0
86392.4 671206.0 0
90853.1 667842.0 0
96645.4 666511.0 0
103402.0 670178.0 0
109390.0 670662.0 0
116391.0 669947.0 0
122049.0 670780.0 0
127010.0 670586.0 0
131801.0 666663.0 0
135914.0 671371.0 0
142906.0 671237.0 0
148046.0 668157.0 0
152794.0 667448.0 0
154202.0 671650.0 0
158699.0 669717.0 0
168034.0 666900.0 0
164565.0 670645.0 0
173908.0 671471.0 0
178743.0 669366.0 0
183800.0 666911.0 0
188126.0 670534.0 0
192677.0 667443.0 0
198745.0 667669.0 0
203614.0 667984.0 0
214340.0 667337.0 0
218700.0 666971.0 0
222500.0 666561.0 0
222761.0 671701.0 0
228069.0 666917.0 0
226816.0 670845.0 0
234109.0 667542.0 0
238526.0 668908.0 0
242782.0 667510.0 0
252478.0 667083.0 0
251976.0 671368.0 0
256626.0 667204.0 0
262732.0 671247.0 0
268202.0 670800.0 0
275319.0 668023.0 0
282781.0 666609.0 0
282863.0 671196.0 0
288272.0 667779.0 0
294245.0 667658.0 0
299140.0 667151.0 0
297659.0 671389.0 0
303717.0 666998.0 0
308464.0 666799.0 0
307850.0 671303.0 0
311829.0 668189.0 0
315517.0 666780.0 0
317546.0 671383.0 0
322206.0 668734.0 0
327771.0 667326.0 0
332443.0 671682.0 0
339349.0 667640.0 0
342991.0 669207.0 0
346699.0 666477.0 0
350692.0 667325.0 0
348064.0 671044.0 0
352601.0 670705.0 0
357805.0 667329.0 0
363323.0 666987.0 0
367476.0 668188.0 0
372984.0 667354.0 0
379291.0 668073.0 0
386456.0 668696.0 0
391770.0 669487.0 0
398284.0 667856.0 0
402709.0 667707.0 0
407533.0 667822.0 0
416810.0 670736.0 0
423003.0 667202.0 0
427764.0 666753.0 0
426803.0 670656.0 0
432257.0 667180.0 0
437363.0 666556.0 0
441861.0 671362.0 0
448517.0 667020.0 0
452053.0 670476.0 0
455586.0 666726.0 0
460124.0 667394.0 0
461506.0 671464.0 0
474127.0 666867.0 0
470782.0 669747.0 0
483690.0 666963.0 0
481529.0 671100.0 0
487252.0 667352.0 0
491782.0 668806.0 0
497346.0 668174.0 0
2125.7 674223.0 0
7034.98 673113.0 0
11832.2 674899.0 0
17129.2 675567.0 0
21813.7 672223.0 0
26445.3 675971.0 0
32992.9 675586.0 0
37921.1 671957.0 0
42008.3 674794.0 0
47908.8 671786.0 0
46602.5 676473.0 0
52991.2 675888.0 0
59882.6 675706.0 0
65168.1 676701.0 0
67183.6 672316.0 0
70100.2 676596.0 0
76590.3 675762.0 0
86876.8 675741.0 0
92035.9 674154.0 0
97668.3 671924.0 0
103420.0 676421.0 0
109063.0 676146.0 0
112975.0 674051.0 0
116715.0 675827.0 0
119507.0 673608.0 0
122776.0 675418.0 0
127524.0 675807.0 0
131414.0 671727.0 0
133252.0 676601.0 0
139157.0 675951.0 0
148877.0 673363.0 0
153653.0 676427.0 0
158278.0 674225.0 0
163614.0 675241.0 0
168976.0 672397.0 0
177293.0 673559.0 0
183075.0 672928.0 0
187949.0 675645.0 0
192931.0 672287.0 0
197309.0 672580.0 0
196763.0 675954.0 0
202624.0 672113.0 0
207694.0 672038.0 0
212338.0 671779.0 0
217499.0 671865.0 0
226938.0 675395.0 0
231118.0 671853.0 0
236018.0 672367.0 0
240894.0 672354.0 0
242899.0 676135.0 0
246117.0 671917.0 0
252472.0 675920.0 0
257647.0 672173.0 0
261345.0 675793.0 0
266108.0 675887.0 0
273165.0 673014.0 0
278354.0 672563.0 0
286902.0 673103.0 0
292179.0 672558.0 0
299666.0 676189.0 0
302832.0 672216.0 0
308578.0 675647.0 0
312567.0 672509.0 0
317147.0 676436.0 0
322230.0 673871.0 0
326998.0 672998.0 0
336400.0 676648.0 0
338450.0 671785.0 0
341789.0 676357.0 0
344392.0 672874.0 0
346681.0 675570.0 0
351848.0 675739.0 0
356594.0 672688.0 0
358899.0 676261.0 0
362422.0 672638.0 0
369124.0 673278.0 0
374438.0 672956.0 0
377271.0 676620.0 0
378163.0 672479.0 0
382500.0 671719.0 0
381078.0 676620.0 0
387534.0 672569.0 0
391006.0 674994.0 0
396051.0 672078.0 0
400385.0 672228.0 0
399157.0 676725.0 0
405357.0 671980.0 0
408059.0 675642.0 0
410852.0 672043.0 0
422417.0 672876.0 0
427874.0 676337.0 0
431252.0 672341.0 0
436891.0 672468.0 0
437261.0 676663.0 0
446874.0 672081.0 0
452105.0 675852.0 0
456728.0 672639.0 0
461923.0 676381.0 0
466455.0 672186.0 0
472006.0 676747.0 0
475772.0 671939.0 0
482791.0 675853.0 0
486937.0 672005.0 0
494119.0 673968.0 0
498259.0 672473.0 0
497869.0 676956.0 0
3366.48 679530.0 0
8673.38 677985.0 0
12775.9 679047.0 0
21692.9 677251.0 0
24270.6 680802.0 0
38441.7 678087.0 0
38783.7 681616.0 0
43067.4 680365.0 0
48778.0 680241.0 0
57422.4 680570.0 0
62178.0 680387.0 0
73739.1 678288.0 0
77129.0 680927.0 0
81776.4 677381.0 0
86267.6 680332.0 0
93014.0 678543.0 0
97359.4 677842.0 0
107286.0 681143.0 0
113114.0 678108.0 0
117869.0 680313.0 0
123597.0 680949.0 0
129200.0 680484.0 0
133175.0 681672.0 0
137961.0 681467.0 0
144779.0 677475.0 0
147905.0 681545.0 0
149670.0 678191.0 0
157893.0 679352.0 0
168110.0 677246.0 0
173665.0 677323.0 0
179657.0 677100.0 0
183313.0 681838.0 0
184092.0 677784.0 0
188150.0 680855.0 0
192760.0 676992.0 0
192701.0 681349.0 0
197515.0 681363.0 0
200974.0 677359.0 0
202655.0 681819.0 0
206665.0 677201.0 0
208524.0 681858.0 0
212753.0 677217.0 0
218318.0 676970.0 0
217772.0 681553.0 0
222613.0 677513.0 0
228027.0 681098.0 0
232067.0 677147.0 0
233142.0 681653.0 0
237481.0 677346.0 0
241729.0 680388.0 0
247856.0 677842.0 0
256802.0 677275.0 0
261423.0 681589.0 0
268176.0 681288.0 0
270667.0 676847.0 0
276119.0 677651.0 0
282521.0 677040.0 0
288711.0 678102.0 0
294473.0 678035.0 0
304536.0 676837.0 0
301606.0 681483.0 0
308164.0 681381.0 0
312490.0 677218.0 0
313827.0 681647.0 0
318193.0 680821.0 0
321662.0 678333.0 0
325559.0 677125.0 0
330807.0 677894.0 0
326542.0 681493.0 0
335264.0 681391.0 0
340286.0 681678.0 0
347962.0 680249.0 0
353297.0 681303.0 0
362006.0 678473.0 0
358033.0 680158.0 0
366615.0 678705.0 0
371285.0 680966.0 0
373414.0 676775.0 0
376787.0 681406.0 0
381940.0 681488.0 0
386176.0 677463.0 0
394760.0 678033.0 0
397874.0 680913.0 0
401612.0 681135.0 0
403946.0 676878.0 0
407314.0 680986.0 0
411901.0 677813.0 0
417863.0 676921.0 0
422645.0 680300.0 0
424158.0 677207.0 0
426951.0 681285.0 0
432306.0 677486.0 0
436693.0 681488.0 0
441535.0 676729.0 0
446958.0 677431.0 0
451339.0 681705.0 0
457070.0 677651.0 0
462316.0 681230.0 0
466779.0 677192.0 0
466289.0 681505.0 0
478055.0 677891.0 0
487373.0 677906.0 0
493037.0 679216.0 0
3710.06 686536.0 0
9500.72 683144.0 0
18036.6 681975.0 0
23421.8 685631.0 0
28766.1 683705.0 0
34808.7 682271.0 0
40134.7 685405.0 0
46868.9 684956.0 0
52738.2 683231.0 0
61662.2 685850.0 0
66433.4 682744.0 0
71685.9 682184.0 0
77998.4 686053.0 0
82278.5 683354.0 0
91146.8 682598.0 0
86760.3 686392.0 0
96290.8 682803.0 0
101460.0 682419.0 0
112996.0 683449.0 0
117971.0 686031.0 0
127885.0 686078.0 0
134415.0 686453.0 0
143470.0 683265.0 0
152975.0 682231.0 0
148632.0 686161.0 0
163076.0 681920.0 0
158176.0 686104.0 0
168122.0 686392.0 0
169330.0 682211.0 0
174235.0 682822.0 0
178615.0 682046.0 0
183336.0 686463.0 0
188469.0 686272.0 0
194392.0 686129.0 0
199474.0 686771.0 0
206994.0 686200.0 0
213137.0 683023.0 0
217426.0 686435.0 0
222579.0 682074.0 0
222235.0 686835.0 0
227137.0 686698.0 0
232057.0 685990.0 0
237618.0 682748.0 0
241664.0 685751.0 0
245652.0 682859.0 0
250037.0 682497.0 0
254943.0 682473.0 0
251694.0 686499.0 0
268816.0 686461.0 0
273803.0 682793.0 0
279314.0 682451.0 0
283609.0 681960.0 0
283380.0 686433.0 0
287085.0 683056.0 0
287804.0 686717.0 0
291456.0 682376.0 0
292997.0 686822.0 0
296288.0 683157.0 0
312628.0 686646.0 0
317561.0 685206.0 0
322133.0 682812.0 0
330970.0 683599.0 0
326687.0 686746.0 0
337801.0 686569.0 0
342280.0 686177.0 0
347148.0 685618.0 0
356942.0 684344.0 0
352566.0 686794.0 0
361749.0 682877.0 0
366345.0 683534.0 0
368910.0 686738.0 0
373224.0 685799.0 0
377985.0 686984.0 0
385831.0 682299.0 0
387264.0 686205.0 0
391129.0 682295.0 0
396475.0 685198.0 0
402259.0 686012.0 0
413101.0 683255.0 0
408309.0 686881.0 0
418825.0 683032.0 0
423580.0 686397.0 0
427490.0 686120.0 0
431408.0 682850.0 0
432694.0 686880.0 0
441803.0 682140.0 0
442008.0 686533.0 0
445909.0 682220.0 0
448309.0 686813.0 0
453510.0 686700.0 0
457829.0 682803.0 0
462562.0 685926.0 0
467662.0 685670.0 0
471154.0 682190.0 0
475676.0 682413.0 0
478856.0 686058.0 0
482397.0 681808.0 0
487393.0 683567.0 0
492227.0 684091.0 0
497481.0 681968.0 0
497977.0 686482.0 0
9087.2 690012.0 0
13771.1 687151.0 0
19189.7 689165.0 0
27133.8 688919.0 0
32796.8 688370.0 0
38045.5 691307.0 0
43695.7 690083.0 0
50632.1 689186.0 0
56046.5 688175.0 0
61479.8 691057.0 0
67416.7 688333.0 0
73264.4 687926.0 0
77213.3 691703.0 0
82073.0 688958.0 0
86454.4 691553.0 0
91776.7 688237.0 0
96823.8 687356.0 0
101751.0 687953.0 0
107803.0 687962.0 0
114438.0 688487.0 0
122299.0 688658.0 0
117704.0 690573.0 0
132237.0 691152.0 0
140033.0 687315.0 0
144604.0 689485.0 0
153150.0 687373.0 0
153911.0 692083.0 0
164152.0 688113.0 0
172417.0 687409.0 0
168808.0 691428.0 0
178178.0 687317.0 0
177286.0 692037.0 0
181708.0 691137.0 0
186804.0 691289.0 0
197875.0 690578.0 0
202989.0 687140.0 0
202822.0 691604.0 0
208729.0 691374.0 0
212607.0 687792.0 0
214153.0 691942.0 0
218419.0 691503.0 0
222533.0 691640.0 0
226790.0 691593.0 0
232148.0 691384.0 0
236821.0 687863.0 0
238190.0 692085.0 0
242269.0 690910.0 0
246752.0 687940.0 0
252128.0 691025.0 0
257025.0 688323.0 0
263674.0 688210.0 0
269038.0 691588.0 0
273142.0 687946.0 0
277943.0 687413.0 0
283372.0 691670.0 0
287607.0 691681.0 0
291843.0 691450.0 0
296403.0 687101.0 0
300211.0 687207.0 0
296276.0 690331.0 0
306692.0 687830.0 0
317294.0 690582.0 0
321601.0 687295.0 0
323257.0 692054.0 0
328554.0 691796.0 0
332735.0 688467.0 0
336937.0 691587.0 0
341861.0 690855.0 0
347345.0 691304.0 0
358283.0 689793.0 0
363551.0 687221.0 0
367135.0 691284.0 0
373129.0 691335.0 0
382648.0 687630.0 0
378531.0 691788.0 0
387459.0 691327.0 0
391792.0 687982.0 0
395843.0 691019.0 0
401235.0 691514.0 0
411282.0 691298.0 0
413523.0 687957.0 0
414835.0 691904.0 0
418417.0 689035.0 0
428217.0 690012.0 0
433163.0 691793.0 0
437144.0 687026.0 0
438156.0 691318.0 0
442078.0 690853.0 0
446050.0 691442.0 0
451578.0 691931.0 0
457976.0 687827.0 0
456416.0 691456.0 0
460750.0 691482.0 0
465841.0 690491.0 0
472922.0 687849.0 0
484176.0 687848.0 0
480298.0 690924.0 0
488537.0 687603.0 0
494093.0 687760.0 0
497111.0 691442.0 0
3228.59 693576.0 0
8651.82 695134.0 0
14218.5 693254.0 0
19256.8 694213.0 0
23663.9 692844.0 0
21975.8 696962.0 0
28739.2 693484.0 0
33470.1 693898.0 0
43006.0 695871.0 0
47879.0 693042.0 0
52517.3 694241.0 0
57859.3 692647.0 0
56858.7 696844.0 0
65024.9 692728.0 0
62457.3 697033.0 0
68855.4 696170.0 0
73521.8 692991.0 0
77483.0 696891.0 0
81749.7 694197.0 0
90855.7 692854.0 0
87802.9 696568.0 0
95685.4 692477.0 0
93248.2 697249.0 0
101156.0 693137.0 0
97925.3 696569.0 0
106436.0 694019.0 0
112146.0 692155.0 0
110714.0 697103.0 0
116472.0 695766.0 0
121396.0 693545.0 0
127016.0 692877.0 0
137364.0 691989.0 0
133226.0 696050.0 0
142400.0 694148.0 0
138034.0 697084.0 0
146529.0 697046.0 0
148631.0 692487.0 0
151311.0 696555.0 0
159661.0 692092.0 0
164956.0 693789.0 0
172949.0 692727.0 0
176171.0 696706.0 0
181993.0 696680.0 0
188067.0 696769.0 0
192625.0 692450.0 0
198833.0 695675.0 0
205706.0 695846.0 0
212605.0 696494.0 0
216985.0 696795.0 0
221265.0 696461.0 0
226715.0 696771.0 0
231645.0 696492.0 0
236927.0 696933.0 0
243196.0 696365.0 0
247153.0 692970.0 0
248049.0 696966.0 0
251989.0 695571.0 0
257539.0 693230.0 0
256477.0 697174.0 0
261111.0 692857.0 0
261240.0 697148.0 0
266179.0 696532.0 0
274055.0 692382.0 0
271084.0 696637.0 0
278589.0 692195.0 0
276074.0 696786.0 0
282676.0 696477.0 0
287286.0 696579.0 0
291967.0 696466.0 0
296519.0 694750.0 0
301436.0 692912.0 0
306486.0 693070.0 0
308039.0 696503.0 0
311435.0 692423.0 0
316306.0 696146.0 0
321487.0 697175.0 0
325732.0 696157.0 0
330199.0 697042.0 0
332797.0 693015.0 0
335491.0 696307.0 0
341187.0 696553.0 0
352794.0 692172.0 0
360019.0 696539.0 0
362660.0 692318.0 0
366321.0 697155.0 0
374137.0 696091.0 0
378672.0 697108.0 0
382939.0 692367.0 0
383574.0 696501.0 0
391733.0 692936.0 0
388796.0 696857.0 0
393720.0 696575.0 0
398023.0 695663.0 0
402836.0 696855.0 0
406665.0 692772.0 0
407529.0 696338.0 0
411161.0 696144.0 0
417058.0 696007.0 0
423327.0 692047.0 0
422130.0 696690.0 0
427414.0 696453.0 0
432537.0 696607.0 0
436979.0 696077.0 0
442651.0 695710.0 0
448023.0 696118.0 0
457821.0 695501.0 0
466480.0 695822.0 0
470356.0 692895.0 0
472401.0 697184.0 0
475730.0 693693.0 0
484274.0 692898.0 0
480845.0 696316.0 0
490438.0 692778.0 0
497547.0 696848.0 0
2049.5 698721.0 0
6307.36 699138.0 0
12072.0 698681.0 0
17654.0 698864.0 0
23346.0 701276.0 0
26073.9 697497.0 0
29228.7 702140.0 0
32438.8 698161.0 0
37361.8 697578.0 0
41403.2 700545.0 0
48169.4 697829.0 0
47572.9 702127.0 0
52887.2 699875.0 0
57539.3 701732.0 0
61971.7 702294.0 0
66414.7 701670.0 0
71124.4 701268.0 0
73513.1 698061.0 0
75889.5 701604.0 0
83458.9 698533.0 0
87216.3 702232.0 0
92515.8 702154.0 0
97029.5 700789.0 0
102312.0 698062.0 0
106384.0 698444.0 0
121524.0 698096.0 0
126186.0 698637.0 0
123544.0 702364.0 0
130736.0 701360.0 0
135844.0 700526.0 0
142266.0 699031.0 0
143486.0 702336.0 0
147389.0 702059.0 0
152426.0 701245.0 0
156145.0 697785.0 0
161035.0 697191.0 0
165379.0 698975.0 0
170498.0 697418.0 0
177567.0 701311.0 0
181959.0 701931.0 0
193619.0 698482.0 0
198258.0 701276.0 0
202542.0 698249.0 0
202777.0 701880.0 0
208493.0 701381.0 0
216176.0 700609.0 0
220669.0 701548.0 0
231060.0 701183.0 0
246342.0 701976.0 0
253308.0 702305.0 0
259698.0 702049.0 0
268927.0 701544.0 0
273384.0 701329.0 0
278445.0 701806.0 0
283264.0 701030.0 0
287088.0 700981.0 0
291552.0 701930.0 0
296822.0 699650.0 0
301954.0 698475.0 0
306460.0 700224.0 0
310413.0 702215.0 0
311824.0 697829.0 0
316244.0 702330.0 0
326735.0 701117.0 0
337392.0 701708.0 0
342572.0 701386.0 0
347498.0 697446.0 0
351134.0 701971.0 0
353606.0 697607.0 0
363256.0 702050.0 0
371041.0 698608.0 0
368330.0 701487.0 0
374735.0 701649.0 0
379476.0 701782.0 0
383978.0 701452.0 0
392574.0 700166.0 0
388855.0 702316.0 0
397416.0 701199.0 0
402520.0 700485.0 0
407128.0 700969.0 0
413296.0 701218.0 0
418723.0 701655.0 0
423794.0 700802.0 0
428393.0 702143.0 0
433642.0 701289.0 0
438388.0 700371.0 0
442830.0 701476.0 0
448387.0 701336.0 0
452900.0 697803.0 0
457608.0 700278.0 0
462097.0 697896.0 0
467151.0 701600.0 0
472848.0 701349.0 0
476797.0 698928.0 0
482229.0 701839.0 0
486067.0 697995.0 0
489512.0 702124.0 0
493023.0 698531.0 0
497830.0 701514.0 0
3256.27 703472.0 0
8036.08 703035.0 0
12486.2 703655.0 0
17388.5 704397.0 0
20171.0 702148.0 0
24232.2 705481.0 0
27554.1 706318.0 0
31104.1 707337.0 0
37045.1 703779.0 0
42505.3 704695.0 0
47027.5 706372.0 0
50851.9 703924.0 0
55117.2 706823.0 0
60860.5 706781.0 0
66098.4 706832.0 0
72564.2 707190.0 0
81251.1 703084.0 0
82418.5 707297.0 0
85854.1 707143.0 0
101489.0 702733.0 0
97048.4 705756.0 0
106527.0 702821.0 0
112168.0 702697.0 0
113487.0 707395.0 0
118284.0 702417.0 0
127164.0 706020.0 0
133636.0 707234.0 0
139789.0 703127.0 0
144795.0 706398.0 0
157410.0 702228.0 0
154517.0 706054.0 0
161905.0 702419.0 0
159541.0 706532.0 0
167828.0 702569.0 0
163699.0 706973.0 0
167620.0 706524.0 0
172658.0 702863.0 0
177050.0 707112.0 0
183404.0 707019.0 0
187407.0 702570.0 0
188551.0 707323.0 0
192334.0 703052.0 0
191974.0 706097.0 0
197266.0 707069.0 0
203320.0 706614.0 0
213599.0 703353.0 0
213932.0 706806.0 0
217710.0 706548.0 0
222342.0 706717.0 0
225796.0 702309.0 0
227480.0 707240.0 0
232935.0 706673.0 0
235886.0 702393.0 0
238563.0 707059.0 0
240541.0 702357.0 0
242974.0 706655.0 0
264309.0 702479.0 0
260969.0 707228.0 0
266063.0 706454.0 0
271963.0 707058.0 0
277117.0 706340.0 0
282326.0 706467.0 0
287774.0 705363.0 0
296228.0 705272.0 0
300936.0 703144.0 0
305855.0 705881.0 0
311823.0 706886.0 0
322260.0 702720.0 0
327569.0 706601.0 0
331650.0 702482.0 0
332755.0 707116.0 0
337194.0 707164.0 0
346607.0 703138.0 0
341948.0 705682.0 0
351905.0 706623.0 0
357283.0 702466.0 0
362844.0 707174.0 0
367540.0 705939.0 0
372228.0 705750.0 0
376803.0 706547.0 0
381940.0 706642.0 0
393901.0 706662.0 0
402015.0 703795.0 0
411528.0 706442.0 0
417214.0 707106.0 0
423370.0 706475.0 0
437490.0 703910.0 0
441016.0 706443.0 0
446609.0 706953.0 0
453805.0 703147.0 0
458261.0 706543.0 0
461484.0 702388.0 0
463969.0 706630.0 0
469135.0 707039.0 0
473871.0 706019.0 0
477956.0 702406.0 0
478607.0 706885.0 0
483086.0 706371.0 0
487723.0 706936.0 0
493944.0 702784.0 0
492500.0 706655.0 0
497256.0 706545.0 0
2915.52 709213.0 0
8447.02 707816.0 0
7046.59 712362.0 0
14266.2 708106.0 0
11517.0 711754.0 0
17484.6 711814.0 0
20597.4 708016.0 0
21672.7 711828.0 0
26196.0 710574.0 0
35299.8 708800.0 0
32004.5 712119.0 0
40068.5 708644.0 0
42401.4 712233.0 0
50617.1 708575.0 0
46525.4 711223.0 0
58343.4 711745.0 0
63630.1 711487.0 0
68177.5 711016.0 0
78743.7 707913.0 0
81910.7 711610.0 0
91478.1 707759.0 0
86983.8 711758.0 0
97329.7 712061.0 0
102936.0 708402.0 0
108971.0 707529.0 0
112251.0 711747.0 0
116867.0 709821.0 0
121529.0 707418.0 0
128616.0 712189.0 0
139980.0 708515.0 0
144305.0 711461.0 0
149496.0 707635.0 0
148457.0 712515.0 0
153120.0 711537.0 0
158134.0 710762.0 0
162682.0 711546.0 0
167959.0 711406.0 0
171640.0 707874.0 0
173790.0 710987.0 0
181604.0 711978.0 0
186495.0 712007.0 0
192193.0 710879.0 0
201877.0 711345.0 0
209128.0 708427.0 0
214371.0 711182.0 0
218764.0 711836.0 0
222500.0 711893.0 0
232491.0 711811.0 0
237248.0 712192.0 0
242526.0 711337.0 0
247881.0 707741.0 0
251859.0 707576.0 0
252500.0 711897.0 0
255895.0 707923.0 0
261592.0 712422.0 0
267266.0 712081.0 0
277659.0 710909.0 0
286772.0 710691.0 0
291636.0 708224.0 0
300655.0 707713.0 0
296791.0 711392.0 0
302661.0 712095.0 0
307593.0 711306.0 0
312293.0 711990.0 0
316969.0 708793.0 0
320966.0 712419.0 0
322075.0 707519.0 0
326439.0 712502.0 0
331753.0 711586.0 0
342914.0 710643.0 0
347017.0 708157.0 0
352855.0 712269.0 0
357620.0 708723.0 0
362263.0 711601.0 0
366430.0 710549.0 0
372249.0 710704.0 0
377039.0 711057.0 0
381103.0 711326.0 0
387494.0 707691.0 0
396879.0 711798.0 0
399492.0 707488.0 0
401796.0 712326.0 0
405577.0 708003.0 0
412935.0 711371.0 0
422522.0 711631.0 0
426762.0 712268.0 0
429711.0 707524.0 0
432840.0 711558.0 0
435252.0 707387.0 0
437608.0 712074.0 0
443024.0 711306.0 0
448177.0 712425.0 0
451895.0 707663.0 0
452391.0 711616.0 0
456572.0 711832.0 0
461857.0 711646.0 0
467433.0 711966.0 0
472522.0 710543.0 0
477296.0 711396.0 0
482271.0 711208.0 0
488483.0 712340.0 0
492998.0 711477.0 0
497500.0 711540.0 0
1225.44 712989.0 0
2837.58 716715.0 0
8061.41 717464.0 0
13205.1 716447.0 0
17934.5 716305.0 0
27421.2 716610.0 0
33106.2 717264.0 0
37533.9 713493.0 0
42233.2 717032.0 0
47748.4 716218.0 0
52644.9 712883.0 0
56773.1 717078.0 0
62033.1 716389.0 0
67547.6 716494.0 0
71675.5 713346.0 0
76719.8 712801.0 0
84081.8 717127.0 0
91724.9 713980.0 0
98982.5 717420.0 0
102345.0 713738.0 0
107132.0 712676.0 0
108811.0 716946.0 0
112770.0 716338.0 0
117883.0 714701.0 0
121941.0 717615.0 0
122768.0 712751.0 0
135090.0 713998.0 0
139504.0 712665.0 0
138791.0 717640.0 0
143231.0 716435.0 0
150894.0 716778.0 0
157104.0 716350.0 0
162859.0 716317.0 0
167748.0 717444.0 0
172922.0 715382.0 0
177256.0 712582.0 0
177955.0 717125.0 0
183170.0 716741.0 0
188027.0 716764.0 0
192477.0 716405.0 0
197570.0 712706.0 0
197204.0 717341.0 0
202500.0 716770.0 0
206241.0 713925.0 0
212624.0 716548.0 0
217500.0 716726.0 0
222500.0 716594.0 0
226846.0 712896.0 0
232694.0 716525.0 0
237707.0 717105.0 0
242754.0 715879.0 0
247290.0 712599.0 0
247647.0 716982.0 0
252093.0 716168.0 0
256755.0 712578.0 0
256434.0 716799.0 0
260839.0 717417.0 0
265621.0 717250.0 0
272767.0 712891.0 0
277146.0 717005.0 0
282166.0 713677.0 0
286856.0 716829.0 0
291430.0 713286.0 0
304000.0 716768.0 0
308193.0 715725.0 0
312836.0 717397.0 0
316489.0 713643.0 0
323358.0 716526.0 0
333231.0 717203.0 0
337557.0 712829.0 0
342784.0 716575.0 0
347493.0 713207.0 0
351228.0 717324.0 0
357981.0 714217.0 0
362865.0 717237.0 0
368513.0 714828.0 0
378300.0 715474.0 0
385559.0 713103.0 0
382988.0 717508.0 0
391322.0 712633.0 0
398005.0 716897.0 0
407727.0 713666.0 0
403351.0 717161.0 0
412561.0 716592.0 0
417884.0 712818.0 0
422198.0 716175.0 0
430418.0 714877.0 0
435053.0 717553.0 0
441229.0 716685.0 0
452503.0 716761.0 0
459297.0 717161.0 0
464434.0 715686.0 0
469142.0 717510.0 0
474337.0 715227.0 0
479330.0 716287.0 0
483908.0 715860.0 0
492586.0 715412.0 0
497500.0 716513.0 0
1959.25 721828.0 0
6011.19 722226.0 0
11182.7 721353.0 0
17073.4 721532.0 0
22043.7 718235.0 0
28253.1 722105.0 0
33343.4 722650.0 0
37694.8 719296.0 0
42406.4 722174.0 0
47079.2 721366.0 0
52103.2 718531.0 0
57233.0 722631.0 0
62623.6 721621.0 0
67282.7 721443.0 0
72938.1 718275.0 0
76100.1 722478.0 0
78154.2 718019.0 0
89611.0 718314.0 0
87128.8 721852.0 0
94303.7 718424.0 0
97531.6 722564.0 0
104085.0 718270.0 0
108363.0 722127.0 0
115816.0 718607.0 0
113732.0 722387.0 0
119023.0 721896.0 0
128016.0 719557.0 0
134925.0 719207.0 0
138404.0 722158.0 0
146908.0 718562.0 0
143311.0 721460.0 0
146926.0 722496.0 0
151355.0 722585.0 0
157295.0 722691.0 0
162805.0 721393.0 0
167747.0 722444.0 0
173419.0 721664.0 0
177970.0 722552.0 0
181777.0 722013.0 0
187120.0 721536.0 0
193340.0 722298.0 0
198711.0 721314.0 0
202905.0 721402.0 0
207982.0 718564.0 0
212288.0 721951.0 0
217524.0 721495.0 0
222461.0 721619.0 0
228000.0 718213.0 0
231487.0 721370.0 0
236425.0 721816.0 0
241596.0 720481.0 0
247251.0 722116.0 0
253449.0 721362.0 0
258867.0 721811.0 0
262872.0 721626.0 0
267299.0 721975.0 0
270857.0 717969.0 0
273152.0 722516.0 0
277596.0 722552.0 0
282211.0 718082.0 0
282155.0 721637.0 0
287028.0 722034.0 0
292424.0 718431.0 0
298540.0 717758.0 0
301862.0 721915.0 0
306254.0 720927.0 0
310631.0 721676.0 0
318515.0 718237.0 0
327909.0 717730.0 0
331413.0 722198.0 0
336184.0 722691.0 0
337976.0 718632.0 0
347063.0 719942.0 0
351452.0 722740.0 0
356603.0 719538.0 0
367631.0 722023.0 0
373202.0 718512.0 0
384797.0 722106.0 0
388416.0 717981.0 0
393447.0 718112.0 0
394534.0 722506.0 0
399869.0 722245.0 0
407941.0 718905.0 0
403918.0 721640.0 0
412913.0 721972.0 0
417614.0 717987.0 0
422656.0 721251.0 0
426978.0 717978.0 0
431910.0 721677.0 0
441522.0 722495.0 0
446593.0 719311.0 0
462082.0 722102.0 0
473588.0 722131.0 0
484179.0 719994.0 0
479735.0 721730.0 0
488147.0 717586.0 0
492973.0 720888.0 0
2251.0 726263.0 0
10594.4 727261.0 0
23369.2 723237.0 0
22618.3 728062.0 0
27782.8 727474.0 0
38110.9 723800.0 0
47246.6 727167.0 0
51866.7 723260.0 0
63642.0 726989.0 0
68500.8 726718.0 0
71335.4 723160.0 0
72858.1 727730.0 0
77478.5 727448.0 0
81826.2 723700.0 0
91787.5 722919.0 0
87338.9 726541.0 0
102948.0 723893.0 0
107337.0 727367.0 0
112450.0 726676.0 0
117430.0 726738.0 0
123661.0 724295.0 0
127909.0 725557.0 0
133342.0 723413.0 0
137365.0 727184.0 0
142972.0 726742.0 0
148109.0 726669.0 0
162928.0 726483.0 0
167378.0 726982.0 0
172171.0 727530.0 0
177548.0 726516.0 0
182505.0 726940.0 0
186783.0 726639.0 0
197747.0 727187.0 0
203454.0 726292.0 0
207263.0 722926.0 0
208220.0 727459.0 0
213254.0 727092.0 0
218092.0 726562.0 0
222108.0 726542.0 0
226560.0 722743.0 0
225921.0 727026.0 0
230908.0 726867.0 0
236695.0 727029.0 0
242521.0 726394.0 0
248082.0 727654.0 0
252485.0 727522.0 0
256724.0 726035.0 0
266749.0 727758.0 0
272434.0 727182.0 0
283267.0 725867.0 0
288602.0 727293.0 0
291105.0 723030.0 0
296179.0 723813.0 0
301225.0 726730.0 0
307618.0 727030.0 0
315123.0 722968.0 0
320179.0 723185.0 0
325712.0 723120.0 0
323265.0 727642.0 0
332255.0 727106.0 0
342085.0 723250.0 0
347311.0 725093.0 0
356290.0 725373.0 0
361420.0 723382.0 0
367608.0 727527.0 0
372756.0 725123.0 0
378672.0 722799.0 0
382421.0 726685.0 0
386601.0 727545.0 0
389621.0 723341.0 0
392300.0 727674.0 0
397491.0 727280.0 0
402426.0 726780.0 0
407247.0 723846.0 0
411668.0 727153.0 0
418083.0 722695.0 0
422821.0 726410.0 0
427420.0 723226.0 0
432627.0 726476.0 0
436492.0 722822.0 0
438107.0 727497.0 0
446115.0 724426.0 0
451493.0 723447.0 0
457330.0 723463.0 0
462309.0 727217.0 0
467300.0 723506.0 0
477753.0 726876.0 0
482847.0 726869.0 0
487453.0 723911.0 0
492474.0 727080.0 0
497909.0 722762.0 0
497463.0 726761.0 0
5624.84 728174.0 0
17139.1 728026.0 0
33401.2 728110.0 0
38799.4 728606.0 0
42963.4 730255.0 0
53135.5 728266.0 0
58332.5 728024.0 0
82495.8 728653.0 0
92507.1 728069.0 0
98263.1 728062.0 0
102913.0 728605.0 0
121707.0 728153.0 0
125755.0 728951.0 0
131818.0 728976.0 0
153119.0 728037.0 0
158407.0 728039.0 0
191098.0 727983.0 0
261197.0 727991.0 0
277925.0 727790.0 0
293485.0 728208.0 0
297385.0 729679.0 0
313596.0 727906.0 0
318685.0 727944.0 0
327520.0 728800.0 0
337594.0 728042.0 0
342898.0 729186.0 0
347321.0 729067.0 0
351879.0 728161.0 0
359024.0 729425.0 0
363515.0 728210.0 0
372556.0 729622.0 0
377190.0 728147.0 0
406593.0 728845.0 0
417379.0 728080.0 0
427670.0 728437.0 0
443291.0 728220.0 0
448163.0 728240.0 0
452840.0 729202.0 0
457487.0 728103.0 0
467057.0 728876.0 0
472258.0 728342.0 0
487929.0 729030.0 0
POINT_DATA 5000
SCALARS Radius float 1
LOOKUP_TABLE default
5782.6 5253.55 5820.48 4862.21 5113.21 3929.19 4107.03 4478.15 5379.87 5925.6 4501.51 4792.73 4736.58 4931.38 3485.26 4329.05 4151.94 4049.23 5337.48 6124.89 5708.81 5252.48 4780.03 5495.39 3996.0 3856.1 4665.12 3383.4 4133.88 4834.9 3850.77 6044.04 5415.48 5120.0 3863.18 2356.98 4998.37 6182.6 5492.18 5258.36 5061.3 3642.12 3163.97 5812.43 5122.66 5906.14 5484.19 7513.1 5254.28 4436.4 5733.48 4672.91 5580.89 5645.7 5176.86 6810.52 5840.26 6110.27 5561.06 5073.35 3615.22 5670.04 4380.59 3589.27 6716.79 3607.45 5759.91 7613.27 5529.52 4951.03 5255.32 6037.08 5096.78 6756.95 4129.43 6324.23 3843.58 3320.52 4194.5 4270.53 5344.25 5191.63 4593.7 4150.99 4216.92 4742.68 4344.58 5634.83 5495.84 6268.1 4861.06 5320.28 3979.26 3471.03 6608.73 5011.84 7034.11 6261.42 4502.5 4043.57 3771.48 4271.69 5681.38 4138.42 3708.04 5513.6 3240.09 4556.36 6082.81 3191.99 4685.34 5601.05 4929.8 3586.91 3103.0 3554.9 4015.92 5542.21 4487.31 3936.02 4044.71 5980.74 4094.62 4927.02 5546.39 5325.36 5484.83 5085.53 5351.6 4730.36 4715.55 5867.73 3951.75 5013.56 4499.64 4375.68 5542.27 5054.98 6030.06 5170.02 3557.27 4927.31 4688.68 4402.52 4517.56 4182.53 5903.42 3588.44 3955.56 3761.32 4118.05 4366.19 5553.16 3672.51 2938.66 4940.78 4231.61 4008.92 3942.53 3379.84 4827.82 3997.1 3260.67 5123.52 3038.33 4392.68 4333.2 7199.21 4523.7 2240.39 5091.39 5293.9 3912.37 6142.94 4727.24 4602.25 4790.08 5082.47 4763.45 5445.87 3815.26 4704.72 4177.94 4571.7 5896.46 5022.8 3784.5 6481.79 5374.51 6739.08 4797.52 4796.58 4298.67 5960.66 3999.48 4359.62 6946.21 2586.12 5433.8 4011.77 5499.11 3633.87 5922.5 5198.77 5987.17 6013.14 2765.2 4901.41 5110.37 5664.98 4382.74 5927.43 4651.28 4384.42 3693.63 4516.43 5481.78 5637.59 4937.14 5043.05 5816.2 5693.81 5109.54 6483.19 5945.65 6759.9 5538.89 7021.47 5416.38 6059.59 2720.68 4955.55 5701.86 3563.63 4238.81 4468.59 5885.03 2837.58 5325.02 5200.76 5017.13 4862.64 5185.34 4432.58 6684.56 3968.64 4688.67 2635.86 5292.64 6166.5 5065.13 5936.02 5305.17 4861.08 4003.05 5390.22 4805.87 4712.33 5227.21 5697.78 4667.36 4091.31 6372.62 4295.38 5615.42 7565.34 5923.5 4612.68 4281.49 4973.83 6342.25 6691.39 4840.84 5135.69 5344.0 4020.32 6045.46 4245.72 5908.1 6048.7 6133.92 3719.84 4178.4 3780.23 3095.48 4166.08 4123.6 5224.12 7042.12 6326.39 4569.12 4471.58 6098.14 5873.69 4962.09 4203.26 5188.81 6057.22 5062.71 6125.34 4527.08 5347.48 4850.01 3970.25 5147.67 3979.82 5011.31 5138.31 5264.06 4659.59 6327.9 4048.37 6355.42 4362.19 5690.56 4948.92 3115.91 4493.48 3307.12 5924.89 4002.16 4174.52 4138.16 3486.22 3829.13 4684.5 6230.49 6458.82 5418.62 4601.27 5493.32 5740.68 5926.61 6051.14 5836.15 3261.21 4345.55 6704.06 3653.41 3871.88 3856.01 5246.2 4390.66 5279.39 3673.74 5205.43 6116.18 7447.37 4924.6 4385.06 4733.32 7184.19 2899.43 2924.37 3867.67 5399.73 4290.3 4660.72 3888.21 5891.05 6038.78 6902.81 6644.76 4254.17 5629.19 5090.24 5740.84 5530.87 4310.18 7134.64 5978.9 4187.56 3629.62 4997.27 4301.06 4877.67 4290.14 6562.18 4156.38 5316.75 4541.21 4164.68 5669.65 5934.22 5624.49 5762.59 4850.14 4819.73 5163.55 3382.7 6817.32 4319.79 4472.17 3637.61 6222.42 5654.31 4730.41 3745.84 4156.2 5690.26 5965.78 4374.35 4810.12 5643.58 5215.05 4292.06 5577.04 5006.58 4602.86 3688.8 4548.16 3369.23 5449.18 5492.26 5244.78 5762.84 3937.74 4749.8 6084.86 5478.92 4778.34 5551.36 6894.71 3091.3 4414.54 5789.98 7054.71 3641.64 5489.43 5747.75 4277.89 5054.25 4796.33 4195.44 5539.32 5360.19 6496.85 5600.93 4874.39 5541.59 4124.71 5728.85 4827.23 4911.47 5803.39 5863.59 4381.97 6257.19 3255.82 5242.73 2812.98 4065.69 5603.15 4695.45 6052.7 3921.18 3798.62 5308.1 3666.57 4907.89 4937.02 5655.21 4645.41 4786.6 4433.59 4320.28 6445.94 5542.14 4218.06 6308.71 4716.19 5514.76 3456.98 3498.2 5105.16 3066.13 4302.5 6006.16 6009.88 7055.53 5013.67 5826.04 5339.78 4143.78 4970.88 7092.87 4666.81 3703.1 4940.42 3954.91 6471.55 2965.01 5499.39 6643.85 5501.93 5463.38 5945.21 4938.74 5696.88 5607.14 4497.59 3923.03 5975.63 5252.34 6396.74 4138.46 2775.04 3821.72 4986.77 6318.18 5586.81 3948.17 4551.24 4621.75 5358.59 4220.88 4515.71 6519.71 6640.13 5082.6 5810.84 4230.54 5094.44 3748.24 4655.49 4467.94 4850.81 6038.14 6138.47 2540.31 6029.66 5527.54 5573.7 5697.4 4727.62 4270.95 4055.8 7325.81 5280.17 6425.26 4794.96 6186.19 4839.34 5083.08 6834.49 6337.56 5525.39 3998.5 5938.34 4024.3 6394.38 5555.28 5169.36 4737.14 4686.65 5834.74 5556.96 5788.23 5581.75 6392.01 6730.19 4907.06 4073.93 3735.44 6043.3 5952.75 6332.36 6122.55 2739.94 4931.53 5480.13 4223.33 5911.67 3323.28 6695.82 6405.76 5794.24 4678.38 5448.61 5050.65 4827.33 5206.48 5513.57 5729.23 5226.0 3365.82 4538.95 5965.15 4763.66 4636.5 6090.91 4946.42 5923.4 5085.71 6116.33 5644.82 6343.14 5462.21 5750.71 5470.77 4831.47 4643.85 4004.04 4289.17 5564.02 4274.61 2965.79 6898.19 6035.6 5137.34 4481.53 5330.45 4581.13 3610.4 4219.07 6387.01 5367.52 3092.35 4322.15 5210.03 3629.96 5478.47 5351.39 6142.37 6061.47 4933.21 5375.47 4723.12 5120.49 5262.61 6302.8 5409.61 6038.2 4005.44 5206.78 5555.88 6732.43 5143.58 3866.16 6362.12 4484.76 4840.01 2980.99 5611.2 7933.0 4455.12 5173.87 4894.16 5380.13 5711.87 5118.27 4941.22 5932.23 5791.61 3369.13 4479.66 5367.2 3043.85 5461.13 4726.76 3599.45 5839.13 5495.68 5489.34 5163.9 5708.14 5537.72 3920.42 8332.24 6155.31 4553.56 5329.64 5709.62 5835.78 4127.74 2476.04 3942.07 7443.72 3937.08 5260.34 4709.35 6586.45 4373.3 4750.78 4163.5 5724.64 5078.86 4780.2 5100.1 3561.29 4963.34 5019.93 3295.83 5081.78 4260.92 6263.44 5960.56 5774.97 4020.95 6313.06 3474.39 6470.3 4200.03 6062.05 5082.74 6915.83 6072.45 4410.55 7099.43 5526.14 5198.29 5423.0 5077.33 3856.59 4746.52 5413.79 6338.89 6202.55 5025.39 4714.54 5893.5 3320.11 5030.91 6022.17 5119.37 3982.23 6163.38 4566.18 3459.9 4964.09 5201.36 5024.9 4306.53 5659.17 5094.81 5972.06 5713.22 5861.71 5028.96 4359.04 3183.98 3794.63 4524.28 3778.1 5152.36 4511.82 5826.64 4220.65 6820.42 4816.2 6321.41 4896.52 4751.02 3372.79 5184.56 5282.64 4715.72 4669.66 4808.52 5046.33 5607.24 5053.92 6352.26 3847.38 3818.59 4863.72 5002.48 6623.85 4262.82 5102.36 4342.9 5069.84 4051.44 4241.89 6049.55 5941.72 5991.09 5133.97 6600.94 4788.58 5371.02 6155.1 5876.71 6262.72 5029.78 6515.84 4888.6 4739.14 4918.77 4371.99 4219.78 3885.86 5235.29 4459.28 4479.94 6250.23 6413.02 4118.84 4863.27 5862.86 6049.79 3493.7 5374.98 4719.7 6939.12 4735.33 5092.37 6444.77 4287.63 5315.4 6449.45 3975.31 3689.45 3824.16 5572.95 3868.18 6723.16 5584.06 7111.16 4547.19 3817.13 5507.24 6851.54 4583.31 4503.89 5806.08 4997.27 4853.39 4093.08 4809.42 4449.22 5543.27 4717.05 6135.57 5998.38 4312.67 5423.8 4270.24 4989.15 5017.78 5015.69 6175.81 4727.24 6677.09 4305.57 6959.81 4829.35 5201.67 4089.76 5526.55 3192.41 5215.15 4987.87 3315.57 5804.71 4764.96 5727.3 4242.52 5356.51 4277.88 3057.03 4087.15 4143.08 7500.97 3948.23 5228.18 5787.31 5065.11 5868.82 4050.9 4978.31 4099.77 5054.74 4981.9 4656.78 4537.32 5126.91 3600.43 5131.24 5196.67 6496.67 5474.8 3664.11 5117.47 4925.63 2990.77 5882.65 4434.19 5187.7 4623.61 4188.3 6261.75 5177.64 4255.31 5453.3 4407.9 3492.19 4584.5 5122.63 4703.08 6345.13 5274.19 5516.95 4406.4 5411.85 4413.85 4844.57 4027.46 6314.07 5776.37 4516.28 3627.82 4044.45 5125.78 5344.43 4373.47 5045.38 5350.88 5372.61 3686.21 6480.17 5023.15 4377.07 3813.22 5570.3 4336.42 5243.29 7589.94 3130.65 5628.24 5856.11 5287.2 3327.49 4109.88 4234.94 4562.29 5013.13 5080.66 3417.33 4926.42 4164.13 4642.34 4520.1 4947.52 5874.89 4293.03 4389.21 3791.79 4424.7 4925.44 4754.05 4951.47 6084.93 4307.28 3697.96 4739.42 5538.93 5020.12 2631.9 4745.45 5281.28 6255.18 4668.71 4758.21 7228.46 6362.14 6719.88 5978.82 5266.5 3927.99 4523.88 4066.38 4948.98 5227.52 4414.48 4092.24 5163.02 7144.24 4906.82 5687.83 5004.23 6442.69 6320.71 4648.04 6607.87 4721.32 3163.78 3293.56 5274.14 4903.82 5746.28 4082.47 5511.6 4338.08 4378.3 6134.99 4094.73 4718.54 4440.57 5548.29 6766.43 2315.64 4390.41 5226.56 5599.49 5313.22 3905.51 3999.94 4470.98 4864.22 3901.8 5759.46 3921.08 4190.31 5678.96 5262.19 4244.9 6070.58 6034.41 5452.83 5130.91 5402.24 4519.22 6445.22 5101.59 3844.9 3695.36 3963.86 3848.93 4306.11 5935.47 3402.32 5903.66 4528.49 5004.67 5365.89 5992.26 3960.8 5070.39 4980.85 5714.58 5110.45 5208.32 5248.77 4083.97 4607.02 5153.74 3895.51 4528.09 4165.81 5813.4 6291.51 4128.98 5882.89 6246.22 4188.32 5246.61 4100.38 5344.77 4723.48 5097.87 4899.11 4278.07 7267.18 6256.02 5320.92 5269.18 4406.1 5034.59 4942.77 4263.33 5080.18 4454.63 5912.61 3279.1 4403.98 4560.84 4729.43 5776.57 4562.74 5683.26 5598.74 5139.5 7493.3 4814.55 3527.05 3464.83 5698.77 2477.07 6413.11 4305.16 5092.28 4965.89 5659.95 4152.85 2908.7 4453.64 4517.73 5469.47 5660.16 4989.56 3838.47 2588.37 6736.03 6235.57 3623.87 5916.16 6113.95 4050.08 4097.57 5017.5 5563.79 6171.13 5511.88 5083.41 4512.11 7055.42 5486.68 6048.86 4285.32 5490.43 5022.28 5197.52 4959.34 4948.5 4527.02 4531.14 4564.34 3838.56 4871.44 5076.35 6020.48 6375.99 5200.05 5234.29 5313.66 5419.37 4466.03 5409.33 4511.54 5196.0 4923.9 4973.78 3329.99 3947.47 3296.27 4713.25 4204.84 6243.0 6673.96 3556.85 5441.96 3435.9 5174.89 4288.3 5370.52 4652.29 5774.81 3746.31 5498.32 5027.98 5346.27 6475.1 4969.21 2691.29 2845.98 5289.52 5314.85 4305.43 5450.44 6510.17 5742.65 5592.32 5381.16 5565.13 6193.35 6086.96 5233.78 3701.27 5653.9 5046.21 4929.14 5894.61 3979.54 5304.13 5944.09 5833.06 4923.41 4497.31 5384.76 5529.42 5257.12 5243.43 4537.14 5551.9 3757.34 6415.61 4687.64 4419.71 5037.06 4541.8 5175.29 5842.56 5887.15 5412.31 3087.09 6934.37 3423.15 4890.5 3981.07 5452.42 5328.22 6853.85 3497.9 2395.5 5941.61 5782.48 6248.6 3836.45 5683.61 5100.25 6894.26 4986.51 5339.38 5178.99 5383.07 4591.87 4790.78 5013.42 4247.15 6552.22 5651.07 6248.81 5273.35 4091.8 4645.58 2651.49 5512.23 5275.32 5985.29 4898.94 4178.15 4613.31 4733.04 6119.09 5788.66 5091.68 7531.29 5069.25 5048.89 5935.03 3161.47 3991.03 6390.78 7435.25 6826.57 4788.87 4495.87 3702.37 6022.72 4643.31 5527.33 6917.52 5402.21 4989.09 4880.14 4982.31 4307.48 3848.54 5941.4 5331.02 4871.96 4863.23 4402.67 4470.61 4631.83 4384.88 6887.27 6008.49 4806.34 4287.53 5612.21 5945.08 4968.03 3306.14 5490.58 4863.79 4702.06 3830.46 6031.67 4689.15 6138.12 4428.78 5409.66 4345.67 4765.72 4642.66 4752.14 5329.59 4888.12 4950.97 5512.16 3197.63 4863.96 5191.08 5203.08 7480.41 5163.77 4488.85 3731.84 4901.07 5186.3 3436.15 4151.76 4020.4 3493.47 4596.75 4933.65 5443.58 4558.46 5805.86 4049.02 4470.4 5311.03 5255.12 6169.11 5615.35 4027.09 6422.84 4502.18 5379.09 4602.85 4962.77 5872.05 4853.02 6259.23 5181.4 5670.2 4711.62 4247.23 4114.24 4268.65 4694.83 5509.42 4354.08 4256.43 5936.36 4520.62 3903.75 4755.47 4485.99 5127.16 5475.8 5314.69 6050.81 5543.46 4249.46 5965.81 4750.17 5660.85 2330.66 4177.19 4752.51 3587.05 6229.37 6718.19 5282.91 4425.84 3797.33 7256.35 4800.69 6566.1 3555.86 6386.78 4996.99 4896.39 6081.14 5480.83 4220.46 4607.85 5128.57 6000.7 3169.67 5604.21 3361.92 6710.88 5395.14 3967.48 6213.04 6622.11 3685.13 6790.73 4655.16 5251.4 3867.19 5857.79 4039.91 5276.7 5036.58 6119.63 5411.02 4752.9 4287.16 5199.44 4062.5 4435.51 5374.07 4588.7 3766.55 4579.69 3554.48 6496.52 5005.85 4216.17 6484.17 4721.02 4254.37 3374.08 4031.78 6098.1 5708.99 5687.85 5346.68 5296.29 4611.53 4285.66 4896.11 5172.53 4135.62 5801.99 5534.94 5210.48 7644.38 7552.94 6101.92 5323.3 5088.44 4998.21 4662.56 5166.79 5349.31 2976.22 4649.22 5394.55 5094.52 4946.74 2682.24 5928.32 5229.48 5475.7 4016.18 5526.75 5435.74 4244.99 5327.45 5560.26 6185.89 3997.96 4439.35 3460.94 3990.25 3691.0 3758.07 4236.14 4407.87 5733.62 5282.51 4460.92 5945.89 4042.28 4105.55 4340.76 6065.22 4221.28 4456.39 5514.84 3633.79 5421.53 5937.08 6070.3 5233.29 4312.56 4612.06 5204.04 4750.58 5926.11 6667.68 5235.11 5211.38 5089.62 4590.55 4741.26 5920.32 4255.85 5097.69 3988.3 6543.13 5149.72 5776.96 5464.25 5486.48 5301.47 4617.55 3645.12 5424.88 5415.85 8659.64 5683.95 5469.13 6027.62 5010.2 6123.03 5966.61 5711.11 4575.94 4938.72 3546.71 5768.57 5564.23 5950.04 4231.83 2435.33 6401.43 5020.71 2681.29 5094.48 3872.61 4238.4 4318.48 6132.95 5266.22 4860.33 3685.13 6004.68 4051.34 3627.55 6239.84 4635.6 4256.67 3457.48 3931.07 3405.98 5417.15 3688.16 4681.72 4945.39 5996.33 3950.63 5415.19 4612.62 3619.07 4467.04 4275.57 6385.23 2983.99 2614.4 6363.92 6205.93 4923.24 5830.72 6184.4 3828.81 4373.45 5309.98 4082.57 5255.18 5169.9 3004.16 4767.78 5235.17 4779.5 4421.12 5254.49 6649.96 4303.19 5784.3 4256.57 3914.2 6088.68 4643.56 4135.08 5620.74 4778.82 6124.08 5467.84 5053.95 5266.01 5253.37 5767.9 6515.8 3685.65 5869.4 3701.16 4186.6 5895.77 4732.09 6136.49 4356.25 4216.95 4209.49 5742.74 4244.21 4947.24 3875.05 6200.54 5148.58 4199.45 6599.66 4055.54 4233.8 5765.42 6098.95 4997.83 4893.49 5325.44 5021.88 5956.65 4498.25 4188.87 3735.24 6574.95 4074.48 6333.29 4558.47 5731.57 5997.88 5839.71 5576.92 6408.83 3930.79 5226.97 4004.35 3312.06 5180.76 3361.26 6799.4 5278.36 5865.39 4427.28 6079.11 3082.32 6430.39 3658.37 7440.72 3949.6 5703.6 6326.18 5661.62 6631.19 6648.68 4713.74 5626.61 5817.25 5407.78 4084.49 5061.98 6632.99 4537.6 5147.36 4419.61 7177.44 4563.46 6553.94 5726.66 5460.65 5652.0 5463.41 5225.33 4929.75 4435.36 6045.22 4614.3 5134.39 3532.3 5769.98 5442.32 2221.99 3580.58 4863.01 5356.79 5657.36 3619.79 5029.47 6306.21 2978.76 2040.66 7016.27 5884.9 3876.21 5689.26 4916.22 6022.7 4940.84 5750.07 4809.67 4757.74 6045.67 3946.28 3821.94 5439.9 5367.73 3540.11 3456.47 4652.01 5421.64 7234.66 4207.54 4886.12 6419.12 4976.12 4817.16 5453.98 3991.42 4388.63 5102.75 4597.29 4200.09 5931.77 5151.21 5398.64 6817.57 4477.04 3614.96 3886.68 5703.74 5662.55 5737.92 4360.23 5365.24 5293.51 4763.96 5754.18 5008.63 3418.99 4480.95 4993.35 4409.63 5521.25 3661.9 5370.85 5949.46 3178.54 4765.02 5376.71 4448.13 5070.29 4807.28 4867.08 2261.36 4266.03 5280.69 4220.03 6923.84 5227.59 5449.46 6179.96 5703.07 6113.54 4662.43 6260.79 3963.76 5528.53 6799.88 3062.43 5990.52 5426.78 2967.38 4159.35 6477.91 4237.98 6439.37 4081.97 5401.99 5580.92 5973.33 3583.21 5067.46 2511.46 4011.37 2775.69 4785.25 6519.43 5876.64 5424.46 4857.84 4908.49 4962.21 4858.44 3468.42 4673.35 4771.13 4992.42 5297.19 4351.38 4833.46 5933.7 7248.4 5280.12 4444.97 5984.81 3498.16 4409.27 4640.06 5471.74 3548.39 3673.28 4928.27 4858.51 3375.28 5625.65 4301.61 6107.89 4446.84 5660.55 5148.08 4834.87 3672.21 5760.22 5938.17 4795.43 5097.95 5108.06 3573.73 4693.52 6853.04 4745.43 5831.96 4747.55 3056.7 3755.95 6234.32 4586.19 4446.06 3450.93 4270.74 5132.68 6595.03 4558.15 6218.95 5222.16 5107.23 5136.08 5558.68 3776.94 4010.57 5629.39 2684.03 6157.04 4768.61 5075.55 4522.21 5506.19 6719.94 4950.67 6166.29 5453.6 5409.63 5294.77 4709.05 4630.82 4043.66 4813.08 5860.67 4540.86 3764.1 4835.83 5604.35 6316.56 4332.87 3091.67 6420.81 4715.58 4450.7 5151.52 5369.08 4347.74 5291.9 4009.62 2081.58 6505.78 5461.55 4270.15 6865.76 6449.64 6464.8 4684.44 4749.59 5799.69 5571.72 3809.69 3208.96 7051.9 4184.23 4144.57 5550.75 6834.41 6226.14 5466.33 3000.29 5721.05 4247.69 4514.39 4588.99 4321.21 4344.34 3583.49 5052.84 4366.74 5297.16 3184.64 5206.33 5530.49 5653.03 3718.69 4514.79 2216.82 4509.89 6752.75 5269.38 5607.3 2928.82 4222.4 4000.43 4568.41 3420.08 4912.04 4539.07 5464.68 2685.81 5591.76 4585.31 6625.18 5323.91 5097.45 6293.89 5737.75 2761.07 4983.39 5366.52 4690.55 5533.72 5533.42 4802.32 3678.08 4599.38 5246.47 4187.31 6191.29 3240.51 7422.36 5161.01 4298.15 4628.4 5832.37 6051.83 4642.93 4263.16 3973.12 3077.84 6024.75 6109.49 5567.93 5987.42 5332.65 4442.22 6451.33 5413.31 3012.99 6400.08 4743.59 5208.14 3317.83 3763.05 5092.24 5549.49 3101.75 5423.42 4518.04 4766.06 4874.18 5435.19 3298.2 7093.13 4953.1 5818.95 4093.99 3940.49 4406.05 4680.94 5828.35 5876.72 5236.43 5285.07 4680.14 4608.41 4187.94 5980.59 5021.77 3796.15 4801.8 7216.98 5271.02 4209.31 5718.28 6242.79 5950.45 5713.03 5849.65 5134.67 4165.21 4215.0 4936.96 4481.76 5452.78 5065.26 4304.41 6192.0 4940.28 5885.28 6579.31 3004.34 5323.55 3022.6 4811.76 4914.45 4698.87 4661.03 3624.7 5262.35 5160.59 4691.91 4255.34 4475.83 4510.8 5889.35 5010.04 4394.56 4570.98 4275.07 5825.38 4185.61 4047.87 5742.47 3778.02 4917.99 6552.21 5417.8 5146.37 7132.12 4836.16 5518.57 5151.11 5463.48 5730.33 5545.46 4527.99 4543.1 4376.7 5190.61 8325.01 3764.06 4440.81 5941.9 5434.47 6642.76 5829.22 4497.78 4243.79 5811.18 5433.65 4008.15 4887.76 4669.06 4811.32 4286.49 6184.88 5829.32 4396.25 5551.95 3918.87 2275.45 4901.2 6605.86 4383.56 5012.5 3562.79 4516.53 4122.92 3604.14 4452.54 5089.1 2711.19 4028.32 4099.92 4884.59 3858.06 4511.7 4083.79 4304.63 5263.27 6300.92 4173.54 5599.29 6038.68 5046.12 4807.4 7013.17 3805.67 4601.74 6506.86 5088.57 5580.34 3852.6 5775.31 4706.5 4603.5 4647.67 5375.12 4356.36 4892.44 5578.94 7610.49 4286.17 3684.56 5375.1 4172.6 5313.12 5351.56 3984.88 4732.09 4320.42 5064.79 5480.3 7509.24 4146.81 5896.26 5388.78 6101.13 4573.72 5099.21 5636.4 4367.78 4350.12 5227.02 5670.0 4232.16 5300.96 4344.51 5680.94 3781.77 5581.55 5193.01 3474.5 6550.44 3860.83 6348.03 5732.27 4523.39 5278.56 5146.37 6917.62 4013.38 5631.14 4343.78 5263.3 3352.35 4909.65 6523.86 7693.4 4326.48 4437.07 3449.37 5491.9 6405.0 4659.16 5789.55 4909.31 4633.05 6522.59 5711.62 4798.17 4990.79 5166.79 6479.39 2895.63 4997.91 5079.22 5381.54 5810.77 4714.83 5474.15 7519.2 6355.68 4478.6 3953.55 4063.9 4469.54 4314.56 3928.53 5606.51 5740.65 3834.47 6349.67 6329.53 4590.01 6101.86 4227.41 5993.0 4803.57 5966.42 4110.59 3332.49 5354.66 4214.44 5378.23 4787.97 3746.36 6789.23 3989.7 4777.03 4246.61 6028.09 5452.36 3804.5 6486.37 5498.42 3344.57 5318.53 5220.76 4281.98 7165.9 5344.83 7046.11 3427.63 4863.97 6342.48 5756.75 4587.67 5599.7 4163.74 6969.28 3665.95 5698.96 4095.75 3319.67 3603.51 4298.45 5222.51 4076.59 6609.84 5135.96 3834.43 5658.37 4707.06 6074.94 5491.37 4250.88 3783.54 5268.38 3475.67 4792.39 7038.89 3863.67 4814.12 5067.56 6137.8 2735.53 5116.6 3747.03 2783.85 4356.49 4526.81 3994.07 4219.94 5907.46 6740.71 4264.91 5399.29 5971.22 6602.43 3568.28 5425.98 5996.66 4405.42 2995.67 3598.08 4599.81 5698.23 7300.58 3608.06 6633.61 5217.95 4867.7 5484.36 4277.24 5291.05 5161.1 4619.2 5166.41 5067.56 2596.96 5701.75 4350.15 4139.3 6541.45 4750.49 5078.31 5391.48 4923.43 5131.15 4847.14 3950.27 5116.66 3566.79 5374.67 4981.43 4741.28 4215.2 5069.89 4157.29 6813.72 5327.75 4609.02 4896.65 4638.18 4196.37 6448.66 4453.97 6945.98 5138.2 3503.41 5783.48 4701.5 4449.98 4504.35 4771.65 4840.44 5093.82 5951.81 3924.14 6918.35 4296.69 4834.3 6238.32 6804.79 6471.42 5283.8 5369.5 4428.14 5164.1 6464.15 4479.11 4972.17 6685.4 5699.53 4222.77 6332.01 5527.23 4234.18 4805.33 7085.01 5980.95 6193.08 6069.3 5887.01 5168.35 5388.39 3728.18 5335.47 5633.61 5048.19 4243.26 6799.23 4888.27 4592.15 6487.56 4854.11 4998.22 5533.19 5417.21 6104.26 5583.61 6063.64 4986.71 7382.3 4022.56 5522.21 3772.3 4855.01 6208.9 4923.57 3340.09 6061.63 2279.05 4829.35 4075.28 8137.11 5484.32 6650.77 4067.96 4824.12 7104.73 6162.3 3272.75 4264.54 3516.27 7043.44 4263.78 4643.9 5228.75 6047.14 5009.83 5210.38 5717.8 3629.44 5003.78 3299.24 6246.56 4061.6 2603.64 5107.0 5473.72 6212.15 6502.97 4783.07 4946.23 4852.58 6083.28 5211.6 5806.31 3556.79 5456.71 7317.04 6412.67 7001.83 5012.97 4036.91 5589.37 5439.49 6639.64 5212.43 5454.12 6348.54 4066.57 5642.35 6372.13 5404.01 6016.19 4124.49 3230.13 5714.25 6176.67 5325.96 4850.06 5412.24 5016.02 7044.29 4920.21 4049.16 5851.61 3936.95 6153.94 6836.82 3862.77 3858.17 4631.99 4740.98 3185.39 5128.77 5934.82 7122.87 5797.36 5001.58 4153.84 5119.86 5089.26 5084.17 4901.44 3776.8 5096.43 6156.21 4653.83 2460.79 6171.71 3628.89 6589.82 4668.88 5027.43 5522.75 5867.64 4438.58 6059.93 5602.53 5073.02 6545.43 3472.91 6760.92 4989.2 4711.04 7144.05 4506.18 2970.9 6542.5 4383.47 5971.21 5261.19 3104.96 3831.52 4263.65 6106.43 4807.35 5467.63 5666.95 4642.2 4811.22 3683.86 4918.76 5293.75 4208.41 5826.78 2856.55 4553.68 5361.87 3758.22 4757.2 3205.68 5561.74 6100.73 4788.08 4745.79 5470.04 4908.75 3971.08 6204.65 4482.9 4593.7 4349.13 5110.11 6379.14 5216.26 3687.65 4887.52 5478.95 3851.85 6318.23 4206.98 5156.76 6357.47 6101.57 4891.38 5535.91 2949.12 5955.86 4533.37 4848.46 2779.99 5887.38 4581.37 6942.34 3658.05 5478.11 5526.31 5030.15 3644.78 3477.1 4078.93 4501.78 4922.49 3572.94 7039.98 4820.17 4729.42 5244.98 3886.72 5415.45 6592.93 4385.81 6350.71 6436.74 4456.11 5096.24 3908.98 5039.12 5769.14 6328.42 7307.21 3381.82 3619.72 4646.51 4565.93 7107.63 4831.93 5788.97 4023.93 5868.89 3274.85 5007.21 5494.28 4099.26 5610.53 5206.47 4580.06 4834.39 5493.89 5262.47 3512.94 4991.35 4587.7 4258.98 3787.08 6761.81 3903.91 4568.64 3919.62 4127.53 5210.75 4474.83 6555.44 5658.14 4508.18 6214.73 2205.51 6358.93 5175.89 3894.64 3703.49 4268.19 4374.74 4532.7 4504.86 5975.23 4473.29 4198.94 6163.54 4211.82 6556.26 5684.25 5438.92 6550.4 3766.69 4891.67 6818.91 3503.65 3634.5 6631.28 6571.31 4392.65 4058.87 5174.75 5932.07 4984.46 5948.71 4793.65 3856.53 3992.97 5460.89 4532.89 6040.74 5260.85 5742.09 2884.65 5807.46 4648.21 4393.16 3311.29 4549.69 6423.81 6192.77 4312.15 4583.52 6418.11 6015.02 5244.22 5585.14 5832.29 6456.58 4159.81 4960.64 5792.98 4034.05 5690.96 5798.38 3862.91 4125.9 5366.11 3419.87 4824.81 5113.6 5944.3 3563.14 5135.5 5347.9 5851.63 4504.52 5212.92 5615.84 4464.73 4928.85 6440.38 5556.0 5545.59 4954.81 5755.15 4835.97 3926.11 4057.17 7066.96 4467.0 4994.65 5196.92 5644.81 5334.36 4728.55 4929.6 5750.35 4489.99 4548.45 4658.11 4551.26 5730.61 7124.45 5064.67 6618.21 5232.85 2617.39 4062.56 3717.47 6200.63 6816.66 3217.67 5079.64 996.652 5212.37 6003.78 2628.22 5058.51 4244.49 5036.98 5513.8 5188.53 4521.75 4027.63 5569.2 5350.88 5420.67 6413.15 6103.11 5048.55 6459.51 4024.31 4955.16 5844.72 4147.31 5989.05 4054.22 7228.94 5393.65 4961.99 6551.93 4595.12 3110.13 6484.43 4625.67 3485.54 4458.64 3657.69 3492.83 4883.63 6280.13 3684.15 2606.51 4438.76 6006.89 3814.65 3965.3 5372.82 4983.3 7778.01 4402.17 5127.82 5124.17 5805.1 4064.58 4234.88 5782.43 4384.28 4456.26 4810.98 5091.22 6282.38 5640.72 5657.55 5727.79 5188.82 5043.14 4717.73 5072.5 3904.07 5748.9 3663.0 3742.31 6304.49 5134.72 4608.34 6419.64 5464.83 2781.96 4431.23 5917.34 5601.55 4462.87 6545.99 5630.9 4554.68 4368.28 4692.32 4945.0 3127.83 4212.15 5114.07 4385.49 4263.18 7142.95 4559.74 4383.68 5836.26 6666.67 5144.44 4051.18 4583.94 5969.37 4928.35 5034.69 4509.46 3538.53 4680.69 6500.49 5965.58 4972.18 3352.34 4901.29 4050.03 4775.04 4120.07 4882.66 3429.57 6746.66 5410.33 4642.74 6735.97 5305.59 5416.45 4330.58 5754.6 3288.01 4904.51 4355.83 2202.77 5751.15 5950.88 4149.55 4441.22 5853.89 3380.69 4140.4 3639.44 4386.8 5446.4 4725.01 5966.75 5510.9 3743.76 4505.28 4971.29 5510.45 4730.14 4941.02 3994.39 3864.92 6119.99 4618.73 4128.1 4446.58 7541.76 5401.4 5053.15 5910.86 6239.68 7320.78 4834.44 4708.31 4027.33 3873.92 5026.76 5023.41 4092.07 4546.44 4213.05 4224.3 4184.21 4700.07 5273.37 4732.37 4985.3 5713.36 4749.18 5553.94 4546.96 5424.55 4921.1 3814.16 5695.79 3622.8 5414.58 5577.41 5740.98 4346.07 4013.86 5759.79 4177.47 4218.16 2918.64 4140.92 4512.07 5984.8 5236.24 4585.04 5678.58 5260.52 6570.35 4242.63 3269.54 6015.22 6063.44 4826.52 5046.31 1937.5 3844.54 5849.53 5241.75 4651.99 4420.11 5863.0 6127.39 4607.18 5329.76 4124.76 7200.89 4813.33 4952.52 3840.21 4081.34 4954.76 3908.56 4844.83 5244.78 3636.15 6114.89 5135.63 6384.7 5952.38 6870.97 5351.86 6056.87 5474.01 5307.35 6201.86 7554.58 5166.89 4731.21 5491.63 5725.37 3868.62 5138.33 5153.18 3425.69 4763.4 6711.21 4236.86 5393.76 4983.1 6010.59 2955.36 3668.93 7123.04 4009.24 4775.49 4681.29 3220.29 5499.59 3845.9 5749.6 4439.71 4141.21 5667.51 6331.74 4198.9 5431.29 4833.67 5325.91 5853.12 5157.38 6203.03 5235.87 6089.45 5810.17 4966.07 4657.24 4400.14 3669.32 4704.92 4316.0 4287.25 4392.75 4271.07 4191.01 4420.6 4475.38 5287.25 4589.06 4770.51 4184.47 6511.37 4012.92 3999.5 4598.54 5218.42 4933.49 6139.64 4896.43 5463.06 4639.8 3986.41 3185.09 6102.49 5114.23 5495.0 7407.91 5064.23 4454.74 2904.46 5512.44 6449.06 5120.92 4685.4 4337.32 4731.53 3763.9 4788.7 4577.73 5084.5 5640.12 3899.7 2403.72 5134.33 4147.49 4802.98 4833.55 3646.95 7224.99 6334.53 4749.96 5377.37 5652.87 5483.7 5018.69 3152.86 3896.27 5807.52 5963.36 5230.02 5087.14 4342.18 5169.48 6016.08 6776.22 3124.7 6064.71 6102.98 6060.17 5136.87 5902.67 5454.11 3779.45 5806.61 5784.37 3682.35 3756.96 5906.57 4932.29 3954.77 4990.23 3784.94 3125.13 6715.73 4174.44 4564.41 5426.4 5951.86 4252.18 4659.88 5357.39 3791.41 5247.01 5702.4 4208.37 5069.9 952.938 5473.89 3673.6 3306.84 3450.07 5265.21 5191.26 5866.42 4762.1 5544.27 3987.69 3484.81 6502.99 6219.34 4666.12 5674.63 5340.05 4920.88 5890.25 4216.44 6710.14 5034.05 4426.02 4816.51 5345.73 4770.63 3990.94 4756.8 5477.8 4462.35 6069.78 4241.68 3469.18 2945.34 3372.95 4489.29 4301.93 5846.95 6061.85 4924.07 3200.6 6240.42 5146.0 5721.14 4288.45 4987.28 4918.64 6638.25 5078.59 4759.99 2646.13 4365.58 5419.57 5162.67 5760.98 4705.68 5469.35 5384.86 4019.34 4658.24 5869.67 4311.48 4899.73 5457.66 6394.19 5973.89 5366.22 6193.73 5518.11 3742.11 5712.35 5701.52 4743.9 5321.17 3719.11 4869.25 4467.13 3877.8 6273.6 3667.93 5024.32 4708.17 2741.2 5790.42 4644.88 3142.09 7350.26 5591.77 5182.13 6110.48 5003.3 6245.52 5106.46 6793.1 6016.87 4506.66 5515.73 4850.5 5209.55 5866.91 5763.05 2820.07 5129.68 4825.73 5076.84 6296.54 4841.7 5685.74 6740.35 4678.7 4550.92 6215.87 6060.06 5393.43 5308.33 4685.65 6023.07 6470.23 5995.4 5322.11 5700.79 5735.08 4726.2 4711.15 5188.22 3825.48 4841.23 3810.68 2804.54 4357.11 5005.6 4176.32 5532.75 4549.51 6949.65 4095.83 5695.25 5676.61 5716.42 5268.15 5819.0 4620.95 6347.72 3460.93 4629.02 5124.86 5914.5 4927.73 6006.16 5407.96 6206.98 4071.75 6562.03 4815.47 4410.82 4368.12 6443.99 5214.4 3889.98 4636.53 3629.49 5399.43 5766.05 5117.64 3835.81 4869.48 3623.19 4906.11 4387.39 4745.16 4564.1 5825.55 5509.51 4848.14 3199.4 4316.5 5254.24 4192.21 4914.03 3597.43 5086.29 5144.56 4158.91 5311.55 3360.86 5049.99 5545.21 4201.03 4333.87 5001.87 5684.05 5638.7 5813.79 4028.22 5293.13 3852.82 3768.46 5167.53 4168.52 5800.81 5403.97 4068.31 6562.92 5166.05 5077.29 3671.06 5233.76 4683.28 6405.69 5679.74 4165.36 5288.33 5797.21 6019.35 6028.63 5146.1 6485.77 3869.39 5960.5 6896.55 5377.01 6506.63 4140.04 3495.3 5125.17 4697.49 7133.44 4750.81 4474.39 4658.59 4196.62 2809.19 4916.7 5486.89 7208.19 5025.42 3587.93 4975.85 5323.95 4495.75 6171.01 5701.63 4603.04 5368.93 4488.39 6121.56 4602.57 3565.32 4608.62 3419.07 5344.44 4626.72 5131.77 5549.71 4967.51 7212.97 5193.58 5695.44 5034.34 3422.21 3916.42 5429.3 5510.96 6653.07 5532.72 4697.91 4584.81 5071.98 5719.79 4371.08 7261.51 4968.14 5949.73 4312.48 5527.13 5139.18 5551.43 4278.57 3034.16 6318.25 6008.81 4493.79 4932.56 4279.44 4899.19 5058.34 3918.94 5575.11 5487.63 4507.36 7145.73 5368.66 4795.08 5501.73 3612.44 4697.24 7035.54 4983.43 6311.89 4217.36 6734.39 6549.8 4851.18 4871.77 5368.52 5811.26 5155.28 5062.77 4884.93 6075.99 5262.79 5927.2 4419.79 5035.71 5407.69 5152.78 4117.9 4753.76 4781.9 4638.09 4441.91 5330.26 5828.25 5939.22 4668.8 4215.05 4271.93 4859.01 4604.1 5524.45 5990.75 3953.26 5600.21 5459.92 6478.35 5453.77 4104.04 5353.66 5589.53 5593.79 4965.24 5196.08 4517.29 4849.5 6257.79 5796.26 6229.83 4870.94 5578.18 5271.88 5559.79 7168.2 3763.85 5710.33 4096.86 3622.48 5001.51 6432.8 5115.42 3186.07 4369.86 5482.76 5173.82 5490.64 5698.53 3769.2 3604.31 4507.46 5036.14 3468.45 5603.68 4944.51 4526.34 5610.95 3220.8 5042.75 5179.17 5579.39 5270.51 5148.1 5490.75 5224.64 5214.63 5783.94 6370.33 5081.08 4202.77 6864.06 5537.34 5192.49 3487.31 5726.42 6643.4 4674.9 5461.72 2549.95 6599.28 6224.85 4556.19 5648.78 6875.73 5226.42 6081.3 5117.52 5942.45 4150.76 5005.72 6142.88 5111.26 5388.73 5205.38 4764.83 4600.71 3957.38 4494.15 5507.38 4710.88 4416.87 5300.17 4057.4 4896.67 5534.23 3934.11 6025.77 6815.96 5339.6 4725.11 3626.86 6371.96 5076.11 5322.07 5770.07 4282.11 5467.51 4625.53 4096.47 4542.16 5114.67 3543.37 2638.82 5030.33 5234.2 6379.38 5438.55 5353.23 4468.26 4523.81 5106.33 5293.37 5198.94 5933.54 5464.05 5879.24 4571.74 3148.79 5740.78 4796.12 5997.91 5385.86 4082.4 4930.72 3745.02 5728.58 4887.73 3720.7 4211.36 3856.73 4450.49 5887.71 5635.32 4827.61 4316.45 5409.08 5481.64 4598.92 5241.22 6647.08 4979.52 3422.29 4501.05 4407.79 6548.29 3495.68 3990.96 5352.24 7362.42 5793.12 5836.14 5473.05 4373.2 6022.78 5884.99 7025.09 4433.12 3392.26 7336.37 4361.24 5099.9 5138.93 6406.8 7086.69 6170.9 5833.78 4436.48 5758.98 5615.35 3967.76 6213.24 5987.88 3579.59 4228.53 6123.46 5057.59 4461.14 5285.6 4574.54 4949.55 3132.34 1969.87 5203.54 4841.28 4047.95 6889.5 4052.43 5383.9 5158.44 4466.22 6153.71 5917.08 5483.37 5418.12 4714.66 5101.6 4656.01 6589.13 2347.41 5602.62 2030.03 5628.97 5527.27 5104.39 4612.13 5846.6 5327.05 4903.84 4434.65 5977.66 5065.74 5791.25 4873.23 4028.35 5410.6 2980.31 5453.2 6824.53 4742.82 4332.64 6791.86 4209.0 4820.68 6031.22 6297.99 6424.77 5378.24 4538.89 5817.74 5661.6 6099.28 5285.75 5385.03 5673.75 5360.67 5968.54 6263.3 5592.54 4537.03 4114.2 4904.37 4326.06 4358.81 5034.46 4651.64 5757.29 5469.17 5061.75 3769.24 4087.32 6647.85 2569.12 4161.32 5161.74 5932.28 6945.69 5118.86 4183.4 4304.64 4733.79 4823.06 5254.49 5288.64 3757.23 6828.8 6883.86 3350.99 6161.94 4065.28 5939.29 5418.98 5615.06 5490.54 6189.67 6142.94 5001.69 6581.56 3980.46 4061.87 5165.31 3798.09 3886.56 5715.51 4496.51 4511.05 6561.94 5259.21 5092.93 5934.05 2803.01 4444.0 6771.18 4984.17 5327.39 5781.62 4037.86 4138.59 5714.51 4938.33 4484.78 4621.33 5157.73 4541.22 5847.91 3539.68 4934.66 4984.01 4109.44 6217.33 4290.49 4557.1 6688.53 5209.5 6175.27 5876.51 6731.89 4733.41 5264.83 6348.93 5136.51 6815.51 5232.16 4422.23 4457.05 3989.26 5485.84 3618.64 4335.79 5453.69 5918.95 5432.04 5689.56 6556.86 3242.31 5372.25 3234.26 4169.15 4830.13 4778.37 3494.16 5134.17 4074.16 4904.35 3247.97 5390.33 5124.34 5278.54 5729.0 5729.92 5016.46 4179.87 6224.13 4761.84 3661.67 5370.1 5517.65 4009.68 5114.51 3303.49 4622.73 5585.25 5256.75 6351.89 6530.78 2960.5 4975.32 4298.7 3902.48 5237.55 3909.94 6030.39 4905.53 3799.01 7392.65 5319.1 4181.93 6570.43 3820.19 4979.5 4745.37 6200.05 5575.11 4052.49 4034.41 5061.74 5326.03 4420.35 4948.96 5117.83 5256.82 4013.86 4645.93 4288.5 4585.37 3721.69 5395.12 3456.3 6074.39 5317.83 4256.08 5881.93 4399.52 4554.24 6182.19 5910.66 7415.84 4981.81 5141.03 4970.55 4840.44 8123.59 5765.14 4767.54 4946.08 5121.08 4696.03 4605.39 6270.59 5927.1 6500.45 4907.55 4103.76 4286.61 2932.52 4603.66 4969.68 3901.53 6636.43 5431.14 5313.86 5178.07 5189.91 5777.26 5703.84 3530.82 5797.32 4886.99 3921.27 3702.45 3161.1 5265.63 4898.29 4431.06 5730.2 5620.88 5370.9 4529.77 4325.13 4262.74 6172.27 3783.79 5078.73 4248.14 5279.19 5192.92 5275.57 4786.66 5891.25 5095.52 5129.4 3720.38 4655.37 4731.37 5023.61 4672.86 5059.37 5560.23 5783.38 3043.77 4139.39 6264.03 5088.64 3562.8 6589.8 6920.92 3729.16 3573.84 3783.36 3038.91 4067.89 3922.28 4571.57 3445.92 5236.69 4121.07 4586.82 3133.28 6026.04 5859.17 4150.44 5522.34 5771.98 2649.69 5717.45 5772.57 5268.27 5244.95 5448.64 5901.8 6417.61 3830.7 5783.69 5350.9 3483.61 4262.52 6738.9 4460.89 4157.1 3939.96 4867.12 4637.3 1458.87 5734.07 3997.68 4819.83 4801.16 2927.84 5688.77 6177.68 4698.7 2848.44 6045.26 5743.8 4094.63 5084.76 6605.11 4757.87 3557.46 5971.95 6298.8 3979.46 3689.24 5151.19 4171.02 7012.36 5028.06 4293.3 4002.99 5587.3 5159.67 3572.73 4864.38 5764.52 3770.22 5684.88 4390.64 6523.78 4645.86 4608.01 4045.67 6005.95 4941.52 4308.49 5900.0 4581.1 6241.77 5317.19 7360.12 6223.98 4016.6 5821.49 7050.08 5580.44 5998.13 4746.15 6275.25 6892.33 4758.84 4505.3 4452.36 3976.0 4068.41 6463.71 4832.21 4742.35 5394.79 5645.54 5264.08 4151.74 4526.87 5192.82 5245.95 4174.22 5821.42 4515.02 6294.09 5131.07 2970.24 4197.87 5524.28 5105.54 5731.43 6353.81 3414.67 3518.14 5444.36 5044.68 6908.32 5899.78 5000.74 6153.26 4813.81 3882.37 4634.25 4095.4 6351.48 6210.0 5432.4 7430.48 5992.06 8052.53 4970.12 6044.01 6520.19 5973.57 6241.48 6033.28 6286.27 5071.38 5616.66 4802.36 5368.28 6229.64 5466.13 4220.43 6263.87 6666.34 4645.91 6834.92 6379.33 5652.73 6321.97 5402.45 6509.54 6412.84 2589.19 6119.0 3792.06 5128.59 4993.49 5310.33 6583.37 3688.83 4848.98 5150.84 5184.98 5087.97 4467.51 5339.82 4519.03 4930.17 5110.27 4745.44 4085.96 5762.82 4612.68 4232.33 5462.6 5617.29 3035.06 5770.92 4262.19 3093.38 4597.88 4845.91 4878.93 5793.14 4491.26 4511.34 5009.21 5704.61 4379.91 4574.03 5290.37 4227.66 5850.38 4691.01 4594.89 3677.85 5214.71 4677.84 3463.53 4924.52 6126.03 6044.69 5658.05 5462.1 6593.1 6032.45 5011.37 2827.92 4026.03 4441.44 3467.11 5336.61 4817.75 5563.09 4848.15 5637.53 5523.81 4718.61 5188.57 3873.79 5717.67 5357.33 5252.37 4499.54 5037.58 4046.22 5640.67 5545.68 6080.69 4967.93 6369.66 5678.08 5922.62 5125.45 5957.82 4188.16 6327.54 5507.07 2943.17 5327.71 4880.78 5257.38 5075.23 4975.56 7282.36 3826.01 5581.01 3928.99 4125.75 5130.57 5090.48 3985.93 5582.28 6071.59 6079.55 3856.4 5485.61 4137.16 4937.36 5308.4 4569.32 3402.44 5537.61 6084.88 4491.96 4397.06 4199.44 4053.12 4479.5 6261.67 5460.57 3435.13 5065.78 5703.34 4521.42 6668.98 6649.52 6043.34 4939.56 4747.68 4712.17 3808.04 4723.71 2002.78 5631.32 4461.67 6322.0 6345.2 4609.65 5488.96 5128.03 5410.73 5087.3 4942.63 6139.74 7066.26 4730.97 6150.31 5873.62 4811.11 4996.91 5379.52 4866.8 5314.67 5563.47 4066.36 4000.51 3162.27 6033.93 5092.44 5432.2 4232.44 4612.4 3312.3 4746.19 6381.58 4439.09 3282.57 4798.13 5648.59 6697.45 5515.59 4432.32 3224.81 3775.38 5782.25 6457.89 4844.2 6572.17 3751.73 5555.89 3374.62 4766.47 4871.1 5872.45 4414.09 5191.29 3784.68 4947.64 3717.22 6305.9 6649.21 4654.92 4859.95 5286.55 4322.56 5522.18 5509.09 5223.1 5625.02 3873.72 5212.05 4829.77 5479.86 6474.5 4444.92 6959.88 5749.53 5971.9 5247.73 3746.62 4876.37 5034.02 4769.62 5945.25 5181.31 4696.06 5475.83 6189.29 5984.55 6581.13 5803.3 4721.98 5252.82 3543.98 5056.26 5878.55 4014.44 6604.72 6002.77 4431.46 3794.47 4610.55 3207.84 4967.02 3977.98 4614.49 5400.69 4128.93 4462.5 4959.72 5573.31 5004.68 4023.88 5348.11 4405.61 6126.5 4034.88 3511.5 6007.1 5067.92 5357.14 3188.21 5919.27 3720.92 4793.06 6637.38 4975.57 6916.18 3057.3 5786.06 3868.69 5447.74 3920.44 4450.51 3768.62 6033.72 3851.47 4966.74 4959.94 5651.46 1635.31 5639.4 6185.73 5516.37 4083.24 6520.96 3771.91 5217.62 6178.19 4616.81 5212.2 5108.42 4630.5 3354.94 6296.36 4451.76 5237.27 7885.41 4907.03 4104.97 4575.72 5114.61 6118.13 4420.3 4926.62 6332.64 3917.09 6009.93 4083.1 5270.1 3482.73 5130.56 4957.99 4063.26 4997.89 4542.62 3470.69 5093.28 4132.08 6009.88 4699.77 4850.49 4592.49 3625.98 4702.32 4763.04 4414.06 5944.52 4413.56 4532.67 2513.38 5316.05 4908.32 5260.13 4649.5 4810.74 5985.75 4149.17 4329.8 5672.46 5202.33 3228.27 3956.24 7558.99 4142.1 5043.14 5445.91 6842.54 7115.67 5675.45 6038.56 2807.46 5599.16 4179.8 3488.34 5658.35 5428.24 5108.84 4582.12 4295.25 4520.14 7394.47 4850.95 6271.22 3421.81 6188.33 3920.64 6111.23 5822.7 4137.41 3780.07 5466.49 4038.17 5007.41 3692.99 4907.48 6213.74 2329.93 6938.87 5412.07 5512.57 4806.99 4813.55 5856.43 3839.0 5349.85 5799.86 5715.25 4362.94 4611.21 6545.78 4870.14 4404.87 5105.72 5767.65 5003.49 4750.76 4216.33 5497.27 4081.77 4948.21 4987.01 2181.29 4202.12 2694.25 4735.99 6492.44 4613.32 5145.39 3996.93 6351.95 5195.09 5345.05 7679.2 6131.52 2626.41 4311.92 4981.55 5093.41 5144.23 6188.62 3621.63 6153.07 5908.57 7296.47 5050.2 4821.41 3995.08 5616.11 5019.84 4499.52 3900.93 3874.12 4028.13 5784.38 6476.35 6260.58 5728.27 4067.24 3074.49 3053.19 6571.26 5580.95 3393.59 3549.92 4032.06 5246.81 5333.04 5089.1 5888.95 4521.99 5394.78 4812.59 3463.34 3361.11 4998.37 5329.84 6559.82 3879.83 6565.95 4577.98 5886.81 4487.51 6805.02 5354.48 4729.45 6261.13 5374.09 4167.55 4720.34 5378.75 5244.47 5510.89 6186.24 4495.33 5282.67 4159.89 5178.55 5146.69 6818.23 4369.87 5652.19 5806.74 6578.62 3465.03 5229.56 6011.4 5172.1 6052.22 4469.82 5376.41 5003.63 4695.7 2932.2 4944.08 4082.01 5269.39 3964.03 4305.35 5210.22 5832.72 5617.91 3903.9 4721.2 4444.95 5161.02 4706.31 3124.49 6265.48 4203.68 5003.81 4739.56 3818.37 3352.46 4701.03 5434.04 5200.1 3997.52 4881.51 4909.74 6729.99 5310.33 6664.54 6842.35 5464.34 5259.48 4777.96 5801.89 6833.5 5742.39 4780.16 4924.53 3834.01 5738.37 4433.23 4813.24 5759.19 4457.73 3113.64 4304.75 5480.86 6139.9 4313.38 6598.99 5250.56 3633.58 2468.16 4339.97 5203.75 5169.09 5122.38 2853.68 2459.88 5262.85 5470.67 5901.71 5342.9 5733.12 5043.34 4246.24 6436.29 5402.81 4600.81 4919.13 5640.63 5168.97 4900.26 5783.88 5002.38 4865.11 4731.16 5502.14 6470.87 4465.56 4131.08 5747.9 3864.19 4287.93 6203.24 5081.65 4488.41 4823.14 6679.12 4621.32 3878.8 4698.94 6284.12 3948.21 4796.04 5669.15 5296.05 5263.86 4672.34 3330.85 5056.32 5533.52 5410.33 4747.24 4380.86 5576.16 5648.02 3308.75 4439.17 2451.27 5677.42 4929.35 5606.22 3943.77 6081.35 5459.52 6262.18 5566.5 5663.36 6225.05 5579.04 5125.53 5994.21 4444.54 5779.9 6964.78 5299.03 4565.36 3922.98 5161.73 4025.08 4008.67 5254.93 4770.21 4803.4 6608.94 2613.78 3796.73 5417.07 5656.84 6789.66 4739.41 5312.2 5847.27 4490.2 4706.59 5734.84 3982.31 4950.07 4720.22 4582.24 2832.83 5827.3 6036.99 3010.1 3825.98 6294.14 5087.03 4667.84 3906.41 4691.15 4123.08 4512.6 4210.24 4260.38 4636.45 4932.27 5225.11 6793.49 5252.22 6060.19 4962.35 4333.23 4328.76 5561.63 4124.33 4358.06 5647.93 6705.93 6201.49 5449.09 5154.74 4605.61 6898.8 5386.95 5332.11 5315.71 4893.72 6158.93 5373.78 5438.5 5345.65 5863.36 5699.4 5237.76 4286.84 6423.96 6058.13 6988.4 6635.51 4060.17 6051.35 5302.53 4909.13 4287.61 4604.34 4863.27 2701.42 5442.79 5051.39 6673.92 5242.38 4884.94 5362.15 4609.98 4738.72 4752.31 4276.59 5569.85 5405.6 3929.35 5403.81 4759.38 5082.25 4374.05 4287.15 5036.84 5504.65 5813.68 5732.11 3618.53 5040.9 5596.68 8013.28 3846.55 5283.65 3082.16 4644.68 2892.36 5981.54 5911.29 5416.41 4694.27 6760.64 2515.5 5177.88 5551.79 6981.47 3916.15 4474.96 4084.87 4790.63 5259.29 3584.05 4589.22 4818.53 5097.85 5584.64 6189.04 6224.64 4221.03 3799.55 5082.66 5638.51 4550.77 4337.93 3563.33 3550.88 4345.51 5536.0 6786.37 3860.8 5145.13 3747.96 5940.5 5093.51 5004.22 4601.54 4280.92 4696.92 5705.96 6437.99 6632.04 6540.57 4977.64 6004.72 4072.4 4983.56 5699.51 4489.18 2489.44 4883.13 4632.75 4752.94 4994.98 3950.53 5581.47 5894.69 4713.56 6779.82 3999.81 5543.67 4867.13 6377.45 4502.12 6853.07 5151.68 4633.59 5733.59 4455.61 6874.6 5240.97 5523.96 4223.53 4884.93 4733.37 4535.94 6960.97 5282.51 4523.9 5669.41 4951.02 3919.47 4602.7 4868.66 4004.39 5159.9 4987.48 5943.61 4248.58 4542.25 4414.23 5233.88 4849.21 4785.55 3793.83 6189.81 5367.05 4758.76 4449.73 5647.11 4088.72 3945.62 4916.75 3743.85 6236.46 5342.17 6379.3 5015.67 3795.63 5189.4 6538.04 4894.15 5201.3 5848.41 4048.73 6223.33 5438.6 7370.52 5611.29 4521.88 6568.45 3724.23 4963.88 7263.57 3832.09 5267.65 5739.69 3509.34 5360.88 7360.62 3166.37 5369.42 4985.45 5207.08 5205.53 4714.52 5499.37 5543.05 4836.76 5333.16 5551.09 5755.98 4501.1 5392.85 4384.91 6550.61 4987.01 5529.09 6094.34 5448.68 4739.5 6210.48 4491.62 4182.05 3865.5 3255.93 6327.61 5575.8 5268.93 3695.72 5106.9 5306.31 3037.72 5126.08 5604.0 3760.4 3783.35 4037.16 6395.63 5479.17 5020.37 5245.4 4576.71 6157.59 4090.28 4246.83 4726.5 5467.05 5103.3 5888.94 4727.98 4122.2 5175.88 4516.26 4790.16 3647.26 3731.58 4587.19 6028.89 4888.17 5077.2 4274.05 5275.27 4277.54 4531.46 5925.82 4072.95 
SCALARS Velocity float 1
LOOKUP_TABLE default
1.17253 1.05291 1.0569 1.5978 1.82985 1.41431 1.26334 1.37815 1.20411 1.22697 1.1794 1.2072 1.1864 1.19217 1.2087 1.19178 1.19173 1.19133 1.20421 1.20027 1.19174 1.19179 1.19126 1.1922 1.19158 1.19178 1.19178 1.19178 1.19605 1.19892 1.20427 1.19849 1.1979 1.2004 1.19744 1.19178 1.1971 1.19335 1.19171 1.20671 1.19178 1.19143 1.21465 1.20689 1.18984 1.19702 1.19958 1.19254 1.19646 1.19585 1.20341 1.19341 1.19329 1.19225 1.19673 1.19391 1.20766 1.19195 1.19175 1.20037 1.19078 1.19184 1.19461 1.18829 1.20158 1.18125 1.19658 1.19938 1.20394 1.21185 1.21141 1.20292 1.19987 1.2007 1.21352 1.21182 1.24644 1.19178 1.19178 1.29126 1.29282 1.22301 1.19336 1.43293 1.24157 1.18381 1.16896 1.36472 1.35971 1.17301 1.17676 0.868579 1.40281 1.23512 1.01747 1.09459 1.1683 1.33025 1.72295 1.62493 1.52927 1.1148 1.19178 1.23965 1.19439 1.19178 1.19178 1.22988 1.21061 1.19178 1.21256 1.19178 1.20658 1.19178 1.19178 1.19178 1.20678 1.19166 1.19178 1.19342 1.19461 1.19137 1.19759 1.20161 1.2051 1.20002 1.19868 1.20101 1.19984 1.19431 1.20195 1.19517 1.2069 1.19107 1.1889 1.20675 1.21398 1.19563 1.18989 1.19178 1.20388 1.19473 1.19355 1.19835 1.20772 1.19394 1.19429 1.1908 1.19202 1.19178 1.20072 1.19438 1.20682 1.19153 1.19937 1.19178 1.19164 1.20075 1.19178 1.19178 1.20233 1.19382 1.20689 1.19001 1.19889 1.20289 1.2207 1.21251 1.20842 1.22514 1.19981 1.19706 1.19137 1.21149 1.24831 1.21964 1.19439 1.29225 1.29318 1.22125 1.19178 1.42605 1.4592 1.53006 1.04092 1.04398 0.80169 0.831575 0.904283 0.874227 0.86802 1.18941 0.138717 1.06887 0.488981 1.41967 1.62252 1.42206 1.2832 1.28166 1.30553 0.798975 1.33144 1.25418 1.24189 1.28596 1.14854 1.24084 1.20638 1.18553 1.21855 1.18809 1.20798 1.19178 1.19236 1.19178 1.20832 1.19966 1.18991 1.1955 1.19392 1.19561 1.19667 1.20168 1.20666 1.20238 1.20306 1.20032 1.19282 1.19898 1.20162 1.19108 1.20683 1.19178 1.20788 1.2127 1.19533 1.20091 1.19054 1.21212 1.19835 1.19295 1.19843 1.20749 1.19471 1.19428 1.19121 1.19176 1.20726 1.19531 1.20648 1.19958 1.19139 1.20399 1.2005 1.18135 1.20412 1.19716 1.1961 1.208 1.19102 1.20528 1.19763 1.22446 1.20776 1.20933 1.21957 1.20456 1.20522 1.19828 1.21043 1.2466 1.22056 1.18178 1.27892 1.21878 1.24863 1.21779 1.36857 1.21596 0.976027 1.2416 1.21303 0.806713 1.06654 1.0911 1.0952 0.974576 0.951385 1.07038 1.32435 1.53667 0.745161 0.795468 1.22418 0.783758 0.902342 0.77367 0.784465 1.02201 1.02152 1.10246 1.25004 1.23409 1.22275 1.19553 1.18167 1.19526 1.2048 1.15138 1.21753 1.19318 1.20922 1.1915 1.1979 1.19969 1.19178 1.2021 1.19114 1.1997 1.19839 1.21038 1.19664 1.20344 1.1999 1.20181 1.20791 1.20185 1.20317 1.19928 1.20148 1.19465 1.20039 1.18003 1.20535 1.18269 1.20923 1.21154 1.20288 1.20136 1.19019 1.21228 1.18922 1.20039 1.20844 1.20725 1.20522 1.19431 1.20733 1.199 1.19346 1.19888 1.19167 1.19178 1.19367 1.1953 1.21377 1.19603 1.20361 1.20329 1.19755 1.20805 1.19022 1.2031 1.19615 1.22362 1.20952 1.21752 1.20198 1.16657 1.2029 1.24748 1.18465 1.21857 1.22771 1.10306 1.20394 1.24127 1.20925 0.998134 1.30528 1.19074 1.09107 1.24612 1.2078 0.991618 0.942528 0.786548 0.913843 1.33234 1.21669 1.26093 1.06628 0.693847 0.86628 0.796617 0.813206 0.866604 1.32981 0.831207 1.01337 1.20674 1.13 1.24328 1.23928 1.18891 1.17561 1.193 1.20267 1.19178 1.21782 1.1918 1.20243 1.19117 1.20228 1.20354 1.21866 1.20485 1.19186 1.19947 1.20003 1.19647 1.19717 1.21117 1.19697 1.20763 1.19312 1.20399 1.19764 1.18893 1.19987 1.1815 1.17701 1.20344 1.18204 1.18496 1.21415 1.19914 1.18113 1.21555 1.21364 1.20393 1.21235 1.20353 1.20531 1.19272 1.20672 1.19876 1.19924 1.19839 1.19178 1.19175 1.19266 1.21417 1.19563 1.18925 1.20943 1.19812 1.20844 1.20622 1.1923 1.1974 1.19931 1.22432 1.21009 1.20277 1.18993 1.20281 1.2017 1.20356 1.18908 1.21648 1.19178 1.19178 1.11132 1.22803 1.25593 1.21269 1.00529 1.28792 1.14123 1.18012 0.983477 1.36531 0.91962 1.02478 0.945497 1.72496 1.1913 0.710083 1.09236 1.09479 0.952995 0.651099 0.968622 0.900926 0.765667 0.826691 1.1216 0.852829 0.881342 0.965475 1.09084 1.18701 1.2023 1.22343 1.28758 1.1577 1.17595 1.23185 1.20556 1.21822 1.19374 1.21559 1.19707 1.19241 1.2024 1.20295 1.21805 1.20293 1.20274 1.19778 1.20004 1.1949 1.19639 1.19808 1.21193 1.2052 1.20054 1.19918 1.19617 1.19582 1.20152 1.18867 1.19386 1.17944 1.19983 1.19388 1.18256 1.1872 1.20023 1.19471 1.19561 1.21375 1.20325 1.21027 1.19973 1.20481 1.18695 1.20711 1.2002 1.19944 1.19029 1.18744 1.16101 1.19215 1.21366 1.19638 1.20819 1.20832 1.19212 1.20538 1.20186 1.20234 1.20125 1.19939 1.19941 1.19505 1.19975 1.20033 1.18783 1.19022 1.20072 1.20917 1.19421 1.21472 1.18632 1.21071 1.16288 1.27295 1.18122 1.0442 1.25603 1.11277 1.41628 1.14169 1.13395 0.86775 1.1002 0.894301 0.976002 1.12649 0.572566 1.02823 0.93586 0.768084 0.974247 0.812764 0.742726 1.04606 0.826297 0.947174 1.10588 1.12978 1.09122 1.3088 1.14494 1.1582 1.18584 1.17366 1.20997 1.22078 1.22056 1.19945 1.13982 1.19266 1.20099 1.1987 1.19178 1.20718 1.20657 1.19965 1.19467 1.19697 1.19507 1.19457 1.21105 1.20415 1.20051 1.19818 1.20293 1.19028 1.1933 1.17619 1.19843 1.20553 1.19306 1.18792 1.18734 1.18483 1.20433 1.2065 1.21651 1.20008 1.20901 1.19982 1.20388 1.18662 1.1872 1.20151 1.19866 1.1802 1.19946 1.18203 1.19178 1.20227 1.19611 1.22289 1.20268 1.18757 1.18939 1.18969 1.19842 1.20211 1.20227 1.19833 1.19868 1.20086 1.1933 1.19821 1.19601 1.19318 1.19217 1.19008 1.28851 1.26532 1.16279 1.17111 1.26635 1.17234 1.09555 1.18298 1.09533 1.26027 1.01888 0.94566 0.952215 0.985662 1.05961 0.921485 1.05861 0.567301 0.900219 1.00236 0.961754 0.98523 0.951014 0.930506 0.87786 1.02735 1.03469 1.03208 1.14762 1.0981 1.13622 1.10605 1.22677 1.15779 1.17282 1.1961 1.18013 1.21508 1.21721 1.22045 1.19018 1.19942 1.19275 1.1967 1.19964 1.19844 1.2 1.1919 1.20582 1.19351 1.2021 1.17573 1.19236 1.21031 1.20031 1.19914 1.19747 1.19771 1.20187 1.19108 1.1984 1.17621 1.21048 1.19163 1.1925 1.19035 1.19251 1.18384 1.18719 1.18976 1.21023 1.19324 1.19678 1.20611 1.19967 1.2021 1.18513 1.21189 1.19865 1.21041 1.1837 1.20189 1.19178 1.18204 1.19849 1.19184 1.212 1.20772 1.16833 1.19178 1.20062 1.199 1.18927 1.19353 1.19651 1.19963 1.1981 1.19342 1.19182 1.22115 1.20091 1.18368 1.1704 1.24017 1.13258 1.18328 1.26876 1.15979 1.10833 1.23682 1.08613 0.923861 0.984718 0.897154 1.06847 0.91254 0.985707 0.778677 1.05278 0.98643 0.9672 1.0492 0.999835 0.965883 1.05532 0.922021 0.969696 1.05713 1.11054 1.19717 1.10667 1.14457 1.10205 1.19916 1.21351 1.19474 1.16786 1.19773 1.18943 1.18926 1.2 1.1906 1.18883 1.19597 1.2013 1.20701 1.199 1.20469 1.1829 1.2 1.17421 1.18947 1.19847 1.19598 1.19962 1.19772 1.19591 1.19545 1.19987 1.19728 1.16935 1.20931 1.19676 1.13953 1.18914 1.1904 1.18598 1.19102 1.20788 1.18933 1.19266 1.20164 1.19677 1.19943 1.20543 1.1964 1.19744 1.19481 1.20627 1.14663 1.18034 1.19052 1.19044 1.22041 1.20411 1.16627 1.19191 1.2055 1.18707 1.19225 1.19201 1.19653 1.20073 1.19355 1.19107 1.19161 1.1907 1.22106 1.18118 1.19688 1.17406 1.21298 1.24311 1.24496 1.16142 1.20562 1.16833 1.09997 1.27553 1.36163 1.0489 1.00385 0.968986 0.87351 1.07486 0.946242 0.947689 1.07358 0.983446 0.975458 1.0392 1.00556 1.05461 1.08302 0.968944 1.03712 1.13404 1.21009 1.101 1.13191 1.1044 1.12066 1.21212 1.19178 1.16261 1.16249 1.20068 1.16886 1.19178 1.19018 1.18528 1.19558 1.18903 1.18868 1.1971 1.19951 1.19702 1.19518 1.20767 1.18325 1.17207 1.19178 1.19381 1.19259 1.19166 1.18886 1.18902 1.17211 1.17257 1.1916 1.20177 1.17322 1.21009 1.19656 1.19178 1.19178 1.21964 1.18543 1.14606 1.20539 1.1866 1.19289 1.21548 1.20621 1.18652 1.20426 1.20289 1.19252 1.19779 1.19342 1.19178 1.23005 1.179 1.19043 1.20147 1.1993 1.21672 1.18798 1.14571 1.21153 1.18212 1.19391 1.19625 1.20212 1.19851 1.19232 1.18958 1.17221 1.19014 1.19053 1.23038 1.19108 1.20452 1.16966 1.23039 1.16945 1.17318 1.15925 1.17996 1.13692 1.23545 1.21527 1.36872 1.07307 1.0318 0.941759 1.07434 1.18053 0.954008 1.13709 0.986357 0.997201 1.05868 0.999973 1.11487 1.13076 1.10076 1.19178 1.13158 1.1891 1.14188 1.19178 1.14553 1.21315 1.18881 1.18779 1.18259 1.19985 1.22067 1.17583 1.18119 1.19491 1.18199 1.19339 1.18761 1.18636 1.19671 1.19832 1.19639 1.19378 1.18135 1.20842 1.18816 1.19178 1.20582 1.19178 1.19043 1.19867 1.17576 1.1878 1.19045 1.16701 1.19545 1.20393 1.18652 1.21056 1.19503 1.1993 1.17055 1.21894 1.18511 1.19854 1.20097 1.17701 1.19042 1.19157 1.19984 1.21459 1.20435 1.20142 1.2036 1.19306 1.19858 1.19367 1.18625 1.22879 1.17354 1.18892 1.19626 1.20527 1.17729 1.18916 1.20893 1.17535 1.18569 1.19166 1.19528 1.19789 1.19119 1.18511 1.18042 1.18536 1.18497 1.19757 1.19038 1.19859 1.17143 1.1989 1.12028 1.17034 1.16566 1.17707 1.113 1.14815 1.19177 1.19906 1.20242 1.06241 1.13063 1.00557 1.13875 1.07821 1.01489 1.23243 0.991681 1.01338 1.05352 1.07694 1.01565 1.13754 1.11993 1.10498 1.14489 1.14867 1.17743 1.18501 1.15431 1.16076 1.18862 1.19948 1.22162 1.18626 1.17628 1.1853 1.19114 1.20422 1.18989 1.1856 1.18272 1.19568 1.19644 1.19513 1.19441 1.20637 1.18397 1.1994 1.21264 1.19178 1.18538 1.19842 1.17587 1.18948 1.19617 1.17209 1.19918 1.21867 1.18616 1.19515 1.19462 1.19178 1.1703 1.22138 1.19159 1.19664 1.1918 1.18211 1.19178 1.20205 1.21028 1.20387 1.20205 1.20062 1.19157 1.2007 1.19712 1.18167 1.22728 1.17307 1.18797 1.20167 1.20184 1.16693 1.19071 1.20153 1.21944 1.17811 1.16392 1.19065 1.19396 1.18989 1.18309 1.18193 1.1851 1.19551 1.18275 1.18982 1.19112 1.17273 1.20017 1.11765 1.17591 1.17318 1.16315 1.15076 1.13959 1.20443 1.17738 1.04959 1.14154 1.03211 1.16888 1.18836 1.10076 1.25538 1.01582 1.02838 1.18364 1.00764 1.14519 1.13227 1.10023 1.15501 1.11557 1.10276 1.16405 1.19268 1.18521 1.16093 1.17431 1.11455 1.21227 1.19948 1.15924 1.17783 1.1819 1.1965 1.20202 1.18711 1.18454 1.17867 1.1944 1.19543 1.19448 1.19517 1.20863 1.17769 1.19895 1.21189 1.19059 1.19253 1.18449 1.17743 1.18906 1.19326 1.20117 1.19093 1.18878 1.15936 1.18007 1.19452 1.19415 1.19403 1.21446 1.19928 1.18776 1.18276 1.17935 1.19178 1.19178 1.1937 1.20364 1.19958 1.20855 1.20084 1.14816 1.18875 1.20176 1.21999 1.17203 1.18619 1.20108 1.2017 1.20266 1.17195 1.1941 1.2126 1.18561 1.17949 1.18958 1.18986 1.18876 1.18093 1.17504 1.18735 1.18105 1.20043 1.18741 1.18673 1.18583 1.16536 1.15743 1.20604 1.18909 1.17156 1.15199 1.14115 1.2175 1.19086 1.08282 1.15238 1.03826 1.18627 1.1924 1.12381 1.23436 1.04342 1.03817 1.18162 1.00625 1.1419 1.1177 1.1705 1.1699 1.11084 1.17699 1.19379 1.18632 1.16399 1.17403 1.20745 1.18308 1.23841 1.16678 1.17866 1.19193 1.19336 1.20473 1.19178 1.19524 1.16913 1.17628 1.19416 1.19679 1.18591 1.16882 1.18215 1.20431 1.21305 1.18724 1.19899 1.19721 1.17728 1.19418 1.20088 1.1827 1.21527 1.18233 1.16087 1.2099 1.19427 1.1974 1.19349 1.19261 1.1936 1.1937 1.19218 1.19044 1.18857 1.18544 1.19197 1.2078 1.19496 1.21089 1.20102 1.19659 1.21032 1.22811 1.22887 1.17318 1.20318 1.18558 1.20139 1.2046 1.18794 1.18203 1.21379 1.19085 1.18119 1.19032 1.18813 1.17934 1.17801 1.19376 1.18386 1.20187 1.17951 1.18875 1.18388 1.1838 1.19654 1.16971 1.20786 1.19615 1.17962 1.15731 1.13128 1.21788 1.14126 1.09463 1.15365 1.0875 1.17768 1.21644 1.18424 1.14109 1.12192 1.06297 1.19124 1.2356 1.15923 1.16961 1.16715 1.17494 1.16864 1.17372 1.18838 1.18893 1.18106 1.17213 1.19178 1.18247 1.24263 1.16599 1.1863 1.19171 1.19192 1.20341 1.1862 1.18696 1.17074 1.17778 1.19403 1.20774 1.18543 1.19197 1.1793 1.18331 1.20331 1.18527 1.19694 1.17337 1.19485 1.19578 1.19663 1.18113 1.19826 1.21761 1.15462 1.21077 1.19658 1.20603 1.1957 1.19518 1.19083 1.19328 1.19275 1.19045 1.19183 1.18728 1.20819 1.24296 1.18819 1.20698 1.19898 1.19644 1.20465 1.22637 1.22888 1.2039 1.21519 1.20311 1.18378 1.19788 1.17329 1.20386 1.20906 1.20068 1.2033 1.18288 1.18732 1.21418 1.17922 1.19276 1.18951 1.18167 1.18113 1.19477 1.18404 1.1886 1.22127 1.18378 1.16999 1.19409 1.17507 1.15122 1.13387 1.187 1.13386 1.21473 1.15262 1.20217 1.18016 1.1634 1.19894 1.18046 1.15225 1.07678 1.19428 1.18092 1.19022 1.16647 1.17032 1.17503 1.21692 1.17977 1.18943 1.18817 1.17977 1.16886 1.17888 1.17799 1.23996 1.19304 1.18574 1.18737 1.19772 1.1738 1.1878 1.18031 1.17538 1.19297 1.19996 1.20687 1.18529 1.19278 1.18362 1.17884 1.19222 1.18827 1.19154 1.19933 1.16394 1.19674 1.19303 1.17974 1.20895 1.16694 1.185 1.19178 1.19527 1.20655 1.19833 1.18609 1.19358 1.19938 1.20148 1.18575 1.19178 1.18392 1.18194 1.25265 1.18813 1.20518 1.20186 1.19623 1.2042 1.21457 1.19304 1.22803 1.21644 1.20039 1.19267 1.21056 1.19178 1.17168 1.20574 1.20822 1.19178 1.22619 1.18264 1.18595 1.1632 1.18535 1.17588 1.19412 1.16556 1.18567 1.20163 1.18921 1.18843 1.19046 1.18401 1.17361 1.19534 1.17728 1.1511 1.19178 1.18534 1.13086 1.21166 1.15205 1.20326 1.17367 1.17497 1.19 1.18196 1.15926 1.08044 1.18648 1.18251 1.18502 1.16882 1.17852 1.17709 1.1787 1.18975 1.18951 1.17972 1.17005 1.18374 1.18148 1.19329 1.19418 1.19099 1.1871 1.18949 1.16844 1.18852 1.17695 1.19322 1.16308 1.21412 1.21106 1.18277 1.18688 1.19028 1.18839 1.17246 1.2059 1.20308 1.27473 1.186 1.20536 1.19046 1.18866 1.20995 1.18393 1.18925 1.17876 1.18897 1.20717 1.1983 1.18784 1.23019 1.22473 1.18674 1.1912 1.18334 1.20172 1.20518 1.18379 1.20139 1.20601 1.19987 1.19717 1.20315 1.21255 1.22486 1.20136 1.19033 1.20692 1.20818 1.20941 1.20681 1.20491 1.21441 1.20008 1.18314 1.18377 1.1589 1.17549 1.19756 1.19178 1.16777 1.13941 1.20052 1.18804 1.18601 1.19324 1.18928 1.216 1.19178 1.17954 1.15395 1.14919 1.15307 1.16286 1.21324 1.15313 1.20602 1.1751 1.1867 1.18532 1.19114 1.16994 1.08907 1.1836 1.18865 1.18472 1.19345 1.18892 1.17664 1.1749 1.18208 1.16937 1.17166 1.17903 1.17027 1.19375 1.1804 1.19247 1.19395 1.19282 1.18941 1.18953 1.18014 1.16794 1.16412 1.17376 1.16508 1.19557 1.19178 1.18419 1.18507 1.20126 1.17081 1.19065 1.20784 1.20261 1.19966 1.19612 1.20565 1.19352 1.19348 1.19144 1.19543 1.19474 1.19178 1.19913 1.20686 1.18808 1.18917 1.22398 1.18089 1.17237 1.22361 1.18784 1.18515 1.20688 1.20343 1.1887 1.1924 1.18171 1.19772 1.19716 1.20387 1.21353 1.22116 1.18995 1.20174 1.18647 1.20967 1.20526 1.19323 1.20776 1.21777 1.19601 1.22574 1.17693 1.19765 1.16211 1.18117 1.19736 1.19178 1.19106 1.1933 1.19352 1.1854 1.18412 1.18781 1.19205 1.21466 1.1674 1.18676 1.15227 1.19178 1.15602 1.19393 1.2089 1.19178 1.20141 1.17402 1.1896 1.18619 1.17771 1.17222 1.09796 1.18747 1.19491 1.18827 1.19319 1.1894 1.17107 1.17674 1.19474 1.18511 1.17048 1.17152 1.17472 1.17739 1.19498 1.17941 1.16996 1.19444 1.19164 1.18816 1.18502 1.18043 1.16704 1.16697 1.16688 1.18979 1.19378 1.20421 1.19178 1.1923 1.20479 1.17427 1.20761 1.20394 1.1954 1.19999 1.19671 1.20772 1.19242 1.19325 1.18249 1.21762 1.20298 1.19166 1.20648 1.20438 1.23541 1.16678 1.20944 1.20261 1.21207 1.18692 1.20655 1.20709 1.18815 1.1913 1.17979 1.19491 1.19057 1.20212 1.21296 1.2193 1.19398 1.18114 1.18742 1.20786 1.20317 1.17586 1.18446 1.21563 1.19874 1.21911 1.17632 1.1973 1.16109 1.19345 1.19369 1.18895 1.19646 1.19107 1.18902 1.18741 1.18125 1.19164 1.19082 1.2115 1.16595 1.18607 1.15314 1.21539 1.15363 1.2076 1.20675 1.21522 1.19908 1.17713 1.18916 1.18146 1.17653 1.17302 1.19893 1.18847 1.19459 1.18845 1.19346 1.20106 1.1949 1.18619 1.19081 1.19271 1.17238 1.18148 1.18687 1.20974 1.1872 1.19502 1.19185 1.1886 1.18848 1.18567 1.18078 1.1864 1.17843 1.16601 1.19229 1.19567 1.20385 1.19585 1.19165 1.19626 1.1775 1.23185 1.20357 1.19247 1.19965 1.19602 1.19178 1.19524 1.20064 1.19284 1.23315 1.21089 1.19003 1.18264 1.21334 1.24436 1.1784 1.20524 1.18114 1.19551 1.20467 1.20576 1.206 1.20025 1.18472 1.19383 1.19278 1.17613 1.18917 1.18614 1.21314 1.19322 1.19477 1.18438 1.17784 1.1997 1.19211 1.19602 1.18671 1.18877 1.2065 1.21816 1.18137 1.20337 1.16691 1.19178 1.19172 1.19262 1.22025 1.19552 1.19506 1.18676 1.18265 1.17521 1.16808 1.19648 1.19555 1.1663 1.18711 1.20338 1.16681 1.21031 1.19636 1.21131 1.20579 1.1771 1.19659 1.18057 1.19222 1.19302 1.17586 1.17282 1.19898 1.18907 1.19504 1.19449 1.18777 1.18747 1.19842 1.17834 1.1763 1.19299 1.17315 1.18904 1.18843 1.17762 1.19904 1.19502 1.19001 1.18801 1.18969 1.20525 1.19178 1.19142 1.20386 1.18907 1.16558 1.21061 1.19481 1.21094 1.20402 1.19474 1.19541 1.18699 1.20624 1.2211 1.18631 1.20904 1.20107 1.19612 1.18454 1.20164 1.18591 1.20341 1.1903 1.19199 1.2343 1.2155 1.1983 1.21077 1.21541 1.20818 1.21414 1.19574 1.1952 1.19591 1.19466 1.2048 1.20767 1.19862 1.17988 1.18057 1.19636 1.17186 1.18796 1.18476 1.21114 1.19834 1.20655 1.16842 1.184 1.19885 1.19295 1.19608 1.18783 1.18739 1.20523 1.21361 1.18867 1.20692 1.19812 1.19534 1.19807 1.20082 1.19875 1.19066 1.17187 1.16752 1.19178 1.19932 1.16567 1.1744 1.20954 1.20733 1.19188 1.23878 1.20505 1.19887 1.19625 1.17613 1.18907 1.18229 1.18985 1.18276 1.17211 1.17188 1.18965 1.19103 1.195 1.19529 1.18939 1.19409 1.20582 1.1874 1.17436 1.19142 1.17288 1.18795 1.18869 1.17753 1.19891 1.19426 1.18753 1.1878 1.18854 1.19549 1.20417 1.19306 1.19692 1.19676 1.21038 1.20289 1.2111 1.21405 1.18031 1.2084 1.20272 1.20334 1.19555 1.21059 1.17967 1.21153 1.16307 1.21564 1.19864 1.20748 1.21653 1.20573 1.211 1.19182 1.1932 1.19474 1.18977 1.20519 1.19178 1.19485 1.17402 1.21266 1.19216 1.19178 1.18637 1.18642 1.2101 1.1794 1.21104 1.1764 1.17102 1.19132 1.19262 1.19979 1.19467 1.18652 1.20212 1.21307 1.18892 1.20737 1.20341 1.2031 1.19517 1.19723 1.19114 1.19692 1.1951 1.18213 1.16807 1.16495 1.19234 1.18952 1.21354 1.1857 1.20377 1.21716 1.19497 1.22133 1.19962 1.19178 1.17683 1.1904 1.1917 1.18321 1.1765 1.17863 1.17147 1.1895 1.19089 1.19098 1.18956 1.1896 1.19384 1.20632 1.18661 1.17293 1.19178 1.17525 1.19037 1.19245 1.20872 1.20008 1.19416 1.19178 1.18545 1.20335 1.17846 1.21518 1.20084 1.19178 1.19178 1.18828 1.19878 1.20424 1.19464 1.20586 1.21591 1.20991 1.18088 1.2085 1.20071 1.20181 1.19762 1.19488 1.18887 1.18117 1.20773 1.1748 1.19774 1.21286 1.21388 1.20252 1.21258 1.20411 1.21735 1.21795 1.1807 1.19598 1.19908 1.18561 1.21087 1.08359 1.19096 1.17982 1.19975 1.18531 1.17877 1.18441 1.17769 1.21024 1.19047 1.20222 1.23754 1.19178 1.1668 1.19224 1.17236 1.18875 1.19143 1.19984 1.21206 1.19326 1.21379 1.19726 1.19178 1.19645 1.19645 1.20085 1.16802 1.16689 1.20008 1.19544 1.20857 1.19405 1.19843 1.21593 1.21346 1.21719 1.19463 1.18323 1.20521 1.21583 1.17742 1.16828 1.18964 1.16967 1.1893 1.18939 1.19124 1.19003 1.19399 1.19365 1.20619 1.18534 1.19168 1.19176 1.19178 1.19623 1.19178 1.20807 1.20058 1.19128 1.18957 1.19255 1.20463 1.17782 1.19561 1.20009 1.19044 1.20089 1.18259 1.19141 1.19671 1.19503 1.1958 1.20062 1.20594 1.20515 1.18018 1.18651 1.20068 1.1964 1.18732 1.19716 1.18891 1.18083 1.19386 1.20048 1.21516 1.21762 1.19008 1.21559 1.19574 1.21964 1.21312 1.18413 1.18668 1.20038 1.19705 1.16838 1.18322 1.20348 1.17357 1.19508 1.18548 1.18098 1.18637 1.21018 1.20449 1.19402 1.23302 1.19354 1.16678 1.18531 1.2036 1.19641 1.19017 1.1992 1.19591 1.20998 1.19752 1.21316 1.22656 1.19504 1.19038 1.19532 1.19524 1.19656 1.20693 1.19898 1.18747 1.2071 1.20944 1.20632 1.19357 1.19539 1.20496 1.20857 1.22377 1.22548 1.19519 1.20622 1.19682 1.14426 1.12702 1.16827 1.18734 1.16994 1.18914 1.19388 1.1918 1.19166 1.19946 1.20451 1.2054 1.18743 1.19178 1.19178 1.19178 1.2013 1.19927 1.20862 1.19153 1.20339 1.18916 1.20407 1.19234 1.20487 1.1694 1.19562 1.18567 1.1895 1.19551 1.20256 1.19216 1.1871 1.19136 1.19507 1.20721 1.18279 1.19298 1.20026 1.19405 1.18693 1.17692 1.19458 1.23964 1.21491 1.1889 1.19593 1.19381 1.2126 1.20749 1.19178 1.18465 1.19118 1.19582 1.22947 1.22595 1.17127 1.2312 1.18107 1.17457 1.18313 1.17842 1.1837 1.18009 1.20305 1.16486 1.18297 1.18799 1.20779 1.1873 1.20773 1.17599 1.19369 1.19591 1.19163 1.19776 1.18989 1.21091 1.20395 1.2194 1.19799 1.19847 1.19802 1.1905 1.19583 1.1958 1.19373 1.20281 1.19594 1.20932 1.20725 1.20035 1.21146 1.1953 1.20078 1.21245 1.18967 1.20294 1.19283 1.22613 1.21454 1.17361 1.13146 1.16369 1.17645 1.20347 1.19399 1.18274 1.19877 1.19519 1.20507 1.21207 1.20364 1.18783 1.19185 1.19174 1.19178 1.20466 1.19916 1.20851 1.18455 1.19178 1.19174 1.20286 1.19178 1.22722 1.18542 1.18886 1.19657 1.20093 1.19948 1.18899 1.18604 1.18967 1.19938 1.20844 1.18116 1.1817 1.19843 1.19111 1.18465 1.18264 1.20395 1.19835 1.19404 1.2124 1.18555 1.18839 1.1925 1.19346 1.21096 1.20217 1.18261 1.18625 1.16841 1.18347 1.22106 1.14591 1.22119 1.17587 1.1701 1.18885 1.18091 1.17816 1.16813 1.18378 1.1812 1.17309 1.17595 1.20832 1.19367 1.19108 1.19942 1.18219 1.20818 1.20555 1.21665 1.20785 1.19295 1.19954 1.17729 1.1915 1.19697 1.24036 1.19495 1.20429 1.20057 1.17722 1.20585 1.19849 1.20778 1.19682 1.19347 1.21137 1.18893 1.18595 1.18262 1.22467 1.21664 1.17828 1.17951 1.22781 1.15727 1.18144 1.20044 1.19718 1.19178 1.19788 1.17414 1.21445 1.22245 1.21231 1.19917 1.18737 1.19717 1.18995 1.19164 1.20383 1.19909 1.2082 1.18745 1.20468 1.20844 1.20893 1.19072 1.19984 1.22448 1.21401 1.2303 1.19178 1.20407 1.20339 1.20508 1.20414 1.1837 1.18698 1.1823 1.19683 1.2056 1.18386 1.18298 1.2 1.1879 1.18295 1.1822 1.20455 1.19486 1.19227 1.19146 1.19074 1.19505 1.19738 1.18036 1.19141 1.16996 1.17172 1.18002 1.21235 1.20845 1.17529 1.18972 1.21592 1.2176 1.14901 1.18932 1.18056 1.18814 1.18668 1.18258 1.17068 1.17 1.17588 1.20701 1.16573 1.2072 1.19355 1.16905 1.19669 1.17776 1.2062 1.21343 1.1876 1.19614 1.1564 1.19839 1.19851 1.22783 1.2362 1.1792 1.18897 1.19924 1.17642 1.20271 1.18901 1.18455 1.19397 1.18742 1.18004 1.20008 1.18801 1.17512 1.18184 1.22222 1.22436 1.15283 1.20442 1.1974 1.19721 1.19791 1.20187 1.18698 1.21177 1.19694 1.19345 1.1859 1.20272 1.18642 1.20348 1.20124 1.19999 1.21015 1.20172 1.21446 1.22667 1.21757 1.21756 1.24746 1.2075 1.21535 1.20586 1.21556 1.17992 1.19152 1.18982 1.18565 1.19719 1.20364 1.18355 1.1891 1.20404 1.18538 1.19807 1.19736 1.18783 1.19724 1.19129 1.192 1.19455 1.19762 1.18321 1.20516 1.19516 1.18983 1.22101 1.17645 1.17769 1.19353 1.21299 1.23648 1.16795 1.19353 1.19465 1.18624 1.18873 1.17973 1.18719 1.15785 1.17769 1.21303 1.20869 1.15205 1.18124 1.19226 1.19074 1.16935 1.18241 1.17006 1.20259 1.20765 1.20008 1.1885 1.20108 1.20717 1.20671 1.22618 1.22734 1.23969 1.18293 1.18319 1.19269 1.17718 1.19979 1.18743 1.17899 1.18363 1.18256 1.18074 1.16847 1.20354 1.17299 1.19609 1.19258 1.18698 1.2158 1.18932 1.19835 1.1976 1.1969 1.20039 1.20032 1.18601 1.19205 1.21159 1.20004 1.19176 1.19291 1.20191 1.19178 1.19178 1.19885 1.21254 1.20895 1.21961 1.20606 1.19919 1.2126 1.22925 1.21583 1.21562 1.20887 1.19546 1.21173 1.20483 1.22107 1.18758 1.13956 1.20198 1.19546 1.19335 1.20591 1.2018 1.18882 1.20848 1.20381 1.19178 1.19793 1.16434 1.18573 1.19312 1.18829 1.19351 1.19364 1.19622 1.18117 1.17118 1.19178 1.18796 1.18229 1.17019 1.20267 1.17256 1.18969 1.21549 1.21399 1.13679 1.19073 1.19285 1.20168 1.18674 1.20317 1.18887 1.19062 1.19367 1.14943 1.22457 1.17746 1.20158 1.19946 1.2122 1.20478 1.18964 1.16832 1.18238 1.17174 1.19364 1.20456 1.18005 1.20289 1.20865 1.19591 1.2241 1.20709 1.15903 1.21967 1.17476 1.16599 1.18125 1.20346 1.20574 1.18181 1.18108 1.22462 1.18318 1.18069 1.17453 1.19803 1.18836 1.19387 1.18533 1.18874 1.20423 1.17547 1.18799 1.19601 1.19904 1.19161 1.19441 1.21914 1.21674 1.21998 1.2087 1.21268 1.19083 1.19426 1.18737 1.18116 1.22142 1.19073 1.207 1.19524 1.20979 1.19178 1.20212 1.21972 1.16991 1.19292 1.20928 1.19178 1.22504 1.19086 1.22291 1.15578 1.18745 1.19353 1.20042 1.19359 1.19828 1.20875 1.20496 1.18766 1.1907 1.18678 1.18588 1.18997 1.18941 1.19681 1.18252 1.18433 1.19107 1.17335 1.17177 1.18556 1.22062 1.20664 1.19362 1.17372 1.16777 1.22498 1.19586 1.18688 1.19161 1.18055 1.19483 1.1885 1.19389 1.19443 1.19178 1.20926 1.20679 1.2007 1.17893 1.21655 1.19446 1.19282 1.22497 1.1986 1.20952 1.20371 1.20365 1.2115 1.21343 1.19716 1.16999 1.18996 1.21621 1.21858 1.1996 1.17656 1.20497 1.17914 1.18913 1.20316 1.17756 1.17737 1.22693 1.17189 1.17453 1.20013 1.19054 1.19054 1.17029 1.19045 1.15402 1.22726 1.1805 1.20759 1.19202 1.18023 1.18703 1.20096 1.20177 1.19917 1.19017 1.19284 1.20133 1.20058 1.20601 1.20528 1.20207 1.19829 1.21066 1.18929 1.2262 1.19801 1.20983 1.17164 1.19078 1.18297 1.19535 1.21451 1.2186 1.18696 1.21769 1.1889 1.20232 1.20305 1.21085 1.18951 1.15611 1.23854 1.20586 1.20488 1.20139 1.22689 1.19178 1.20181 1.19231 1.20331 1.18705 1.18273 1.1841 1.19289 1.19033 1.18235 1.18455 1.18847 1.16643 1.17279 1.22199 1.20133 1.18457 1.1705 1.15788 1.20907 1.1715 1.21682 1.19411 1.20399 1.18268 1.1918 1.18685 1.20589 1.19937 1.21281 1.18379 1.20022 1.21318 1.21335 1.18743 1.22979 1.19815 1.20613 1.20024 1.19194 1.19178 1.21782 1.18849 1.21459 1.20343 1.15783 1.22725 1.2196 1.22551 1.18929 1.19471 1.17489 1.20832 1.20305 1.19172 1.15075 1.18569 1.1949 1.22687 1.19965 1.19405 1.1804 1.17959 1.17456 1.22326 1.21356 1.21481 1.18679 1.18239 1.1861 1.19881 1.19869 1.19071 1.19575 1.20253 1.21994 1.21887 1.20333 1.20266 1.20264 1.15425 1.22752 1.19044 1.22629 1.19049 1.21561 1.20176 1.19178 1.20264 1.19472 1.21747 1.20713 1.21539 1.18864 1.31954 1.22063 1.19621 1.21796 1.20954 1.19347 1.19337 1.1877 1.22887 1.19975 1.16227 1.17133 1.18857 1.20804 1.1764 1.1824 1.1764 1.19218 1.18941 1.18051 1.18457 1.18361 1.19932 1.17273 1.1854 1.2198 1.19723 1.17584 1.16734 1.15828 1.19883 1.1578 1.21638 1.18174 1.1848 1.18209 1.19606 1.18631 1.17143 1.20196 1.195 1.21457 1.18297 1.20077 1.18845 1.23388 1.22498 1.1886 1.17051 1.20893 1.19866 1.20456 1.1863 1.19237 1.2115 1.21797 1.21441 1.18044 1.18086 1.19771 1.18849 1.16708 1.16927 1.21648 1.21887 1.19187 1.1754 1.21527 1.22731 1.18485 1.19475 1.1942 1.17854 1.18198 1.20992 1.18611 1.19416 1.18214 1.19812 1.2094 1.19557 1.20086 1.20614 1.20307 1.20772 1.20996 1.20912 1.25954 1.11843 1.21969 1.19894 1.1859 1.2137 1.22063 1.21361 1.2036 1.20406 1.20503 1.21042 1.21321 1.21723 1.21911 1.18582 1.21771 1.21701 1.20152 1.19597 1.18226 1.18578 1.20587 1.19062 1.19742 1.18721 1.19388 1.21254 1.20078 1.1718 1.20209 1.20775 1.19103 1.1788 1.17247 1.17906 1.17238 1.19178 1.18275 1.19178 1.18587 1.20395 1.20386 1.18219 1.16571 1.17564 1.21203 1.18857 1.17479 1.18481 1.17564 1.17514 1.1885 1.1756 1.15969 1.19788 1.20039 1.19178 1.18143 1.19583 1.19461 1.19515 1.20286 1.17369 1.19228 1.19194 1.18893 1.20854 1.25197 1.10748 1.18105 1.20475 1.20337 1.20077 1.19092 1.1867 1.21182 1.21596 1.21385 1.17723 1.18799 1.18289 1.17001 1.22293 1.21671 1.1717 1.23995 1.19845 1.19015 1.19472 1.20098 1.18447 1.20356 1.16972 1.19626 1.18268 1.21072 1.21023 1.204 1.20347 1.20251 1.20822 1.24627 1.20451 1.19278 1.19386 1.1849 1.19597 1.21993 1.2084 1.15182 1.20551 1.20568 1.21542 1.21321 1.19797 1.18142 1.23659 1.21249 1.20306 1.185 1.18413 1.20179 1.18997 1.18607 1.19222 1.1597 1.20497 1.20794 1.18416 1.18735 1.18272 1.19083 1.2291 1.17148 1.18973 1.18701 1.21798 1.22431 1.16134 1.1642 1.20205 1.18858 1.18274 1.18376 1.17546 1.17181 1.16382 1.19755 1.19671 1.20522 1.19786 1.19261 1.19746 1.18083 1.16561 1.19178 1.18333 1.18201 1.18852 1.20853 1.22455 1.19449 1.1936 1.19527 1.20231 1.21181 1.21046 1.21206 1.2079 1.20816 1.17954 1.18075 1.18084 1.16991 1.17053 1.22112 1.22542 1.19213 1.2194 1.1722 1.16363 1.22831 1.19664 1.1849 1.183 1.17711 1.18656 1.19574 1.18102 1.21285 1.19141 1.18961 1.18737 1.17827 1.17488 1.19402 1.20956 1.20909 1.20869 1.20628 1.20518 1.19988 1.19975 1.20977 1.20631 1.22967 1.20417 1.17994 1.20342 1.20384 1.18906 1.19588 1.21602 1.20383 1.18405 1.21009 1.19255 1.20629 1.21188 1.17973 1.19085 1.17064 1.22788 1.18798 1.19998 1.19677 1.21698 1.19572 1.20085 1.19458 1.21972 1.22379 1.13885 1.20476 1.20144 1.17781 1.19597 1.18444 1.19998 1.18967 1.19582 1.19431 1.17047 1.18773 1.18631 1.19054 1.22593 1.22531 1.19309 1.15999 1.1981 1.18367 1.17959 1.18471 1.17702 1.17061 1.16821 1.20486 1.2342 1.1967 1.17699 1.18938 1.18118 1.18058 1.17858 1.19178 1.19512 1.19453 1.20358 1.2002 1.19301 1.19819 1.16974 1.21131 1.20439 1.17923 1.17155 1.16477 1.17191 1.19219 1.2139 1.19597 1.16915 1.13672 1.22682 1.19919 1.18506 1.18575 1.18133 1.17517 1.15811 1.19942 1.19612 1.20053 1.19789 1.16957 1.19022 1.18564 1.19515 1.20732 1.2078 1.19991 1.20244 1.19793 1.19348 1.24443 1.14589 1.19795 1.21406 1.18813 1.21727 1.17878 1.19788 1.19161 1.1916 1.19993 1.21518 1.20379 1.20651 1.20092 1.16984 1.18019 1.18908 1.22464 1.18813 1.20893 1.18463 1.2132 1.19248 1.20103 1.1972 1.13722 1.20452 1.18958 1.17745 1.18879 1.19695 1.16336 1.21928 1.18817 1.1989 1.17302 1.18746 1.18424 1.17039 1.22437 1.18634 1.16062 1.19658 1.18055 1.1763 1.15803 1.17008 1.18244 1.19178 1.17301 1.16989 1.18059 1.22563 1.19939 1.19887 1.13589 1.17544 1.18988 1.17521 1.1918 1.19474 1.19429 1.19943 1.19766 1.2022 1.1967 1.19178 1.18879 1.18475 1.21061 1.20219 1.17402 1.19401 1.18602 1.17634 1.16457 1.16811 1.1746 1.18684 1.1989 1.22202 1.20403 1.17278 1.14333 1.1911 1.16971 1.20545 1.21861 1.172 1.22443 1.20709 1.17479 1.18977 1.17354 1.17182 1.19624 1.20527 1.20122 1.22433 1.19118 1.20703 1.19178 1.23052 1.19178 1.21689 1.19178 1.18709 1.19518 1.17559 1.20502 1.20166 1.20193 1.20709 1.20902 1.18379 1.1711 1.15724 1.21319 1.1902 1.18582 1.1914 1.19494 1.19717 1.21693 1.21348 1.21356 1.20459 1.18236 1.18781 1.21408 1.19411 1.18866 1.18895 1.18299 1.18269 1.16898 1.16209 1.15923 1.1959 1.18071 1.15953 1.18682 1.17365 1.17661 1.17364 1.17338 1.17648 1.18069 1.17316 1.19169 1.19193 1.16718 1.17884 1.17736 1.17263 1.17627 1.19159 1.18818 1.1935 1.20022 1.19713 1.19189 1.18616 1.18822 1.16108 1.19379 1.18309 1.18479 1.17206 1.15627 1.16852 1.18569 1.18668 1.21854 1.18709 1.15684 1.20716 1.19504 1.17281 1.17881 1.25319 1.25747 1.208 1.16831 1.20241 1.20766 1.21272 1.17058 1.16495 1.19678 1.2035 1.19711 1.19178 1.1799 1.19345 1.22282 1.19756 1.20381 1.20977 1.21353 1.20762 1.20062 1.19898 1.20698 1.19695 1.21053 1.19668 1.16784 1.17661 1.21222 1.21575 1.20064 1.18741 1.18888 1.20205 1.2046 1.19337 1.16754 1.17311 1.2203 1.19114 1.21106 1.17611 1.18787 1.19493 1.20582 1.20477 1.20821 1.1768 1.21107 1.18799 1.17465 1.21323 1.2 1.18682 1.19039 1.18102 1.17702 1.16832 1.19178 1.17712 1.17028 1.18942 1.1756 1.19223 1.18356 1.20239 1.20183 1.18015 1.17726 1.17492 1.177 1.20509 1.20241 1.18551 1.18973 1.18919 1.20711 1.1933 1.20469 1.20939 1.06987 1.17195 1.17485 1.181 1.18151 1.18109 1.18375 1.1944 1.19274 1.18582 1.19039 1.18116 1.18966 1.1805 1.17469 1.19981 1.17833 1.19169 1.18772 1.17581 1.15233 1.18716 1.18239 1.17367 1.1838 1.1799 1.15659 1.2019 1.20162 1.18398 1.18251 1.17251 1.18109 1.17292 1.18945 1.21755 1.16197 1.19395 1.17519 1.15868 1.19705 1.20207 1.19278 1.18963 1.17827 1.18319 1.19052 1.20313 1.20765 1.21292 1.20629 1.20234 1.20267 1.2084 1.19649 1.19591 1.21255 1.20159 1.18224 1.19116 1.19474 1.18337 1.15103 1.17549 1.20553 1.19984 1.19238 1.19597 1.20395 1.18888 1.18497 1.19205 1.20648 1.20352 1.21317 1.17593 1.17468 1.16972 1.19552 1.19178 1.19962 1.19271 1.18276 1.18182 1.17711 1.16607 1.18837 1.21109 1.18373 1.17468 1.19933 1.16569 1.20169 1.18115 1.17919 1.18005 1.17345 1.17909 1.19334 1.17814 1.20331 1.19909 1.20657 1.15245 1.17343 1.18153 1.19176 1.18649 1.1833 1.18023 1.18828 1.18968 1.17901 1.18194 1.1769 1.1766 1.18067 1.19129 1.19646 1.1713 1.19178 1.20581 1.18732 1.18798 1.17377 1.16973 1.16203 1.19178 1.19284 1.18642 1.17121 1.24588 1.15557 1.18848 1.18769 1.18056 1.17773 1.15647 1.17204 1.16753 1.18114 1.18184 1.19189 1.17358 1.16216 1.19713 1.14633 1.19943 1.19009 1.18867 1.18085 1.18297 1.21665 1.19178 1.21096 1.19865 1.18475 1.19684 1.19641 1.19232 1.1932 1.18115 1.19023 1.19062 1.16146 1.17423 1.19228 1.18991 1.18049 1.18981 1.17828 1.18309 1.18914 1.19402 1.20085 1.17765 1.171 1.17416 1.18248 1.1828 1.19383 1.17161 1.17078 1.20291 1.18077 1.18094 1.17868 1.17689 1.17764 1.17167 1.17825 1.1684 1.18672 1.19227 1.1999 1.17825 1.20245 1.17697 1.18182 1.17802 1.18084 1.19445 1.17463 1.1785 1.19814 1.17811 1.19192 1.1947 1.18789 1.1568 1.16333 1.17459 1.18201 1.19178 1.17674 1.18228 1.19345 1.18611 1.18625 1.176 1.16944 1.17542 1.17873 1.19411 1.19009 1.18872 1.20609 1.18221 1.1845 1.19947 1.20983 1.17883 1.18376 1.18456 1.17995 1.17035 1.16724 1.19564 1.14698 1.18155 1.19178 1.1788 1.17187 1.1579 1.21069 1.16359 1.16408 1.18878 1.16965 1.16463 1.19522 1.18929 1.17842 1.18246 1.18699 1.20229 1.19457 1.20562 1.17095 1.19807 1.11774 1.16211 1.19101 1.18347 1.1931 1.19692 1.18694 1.18404 1.17175 1.20474 1.17887 1.18785 1.17926 1.16032 1.18392 1.18696 1.19454 1.16402 1.17469 1.17613 1.17623 1.18051 1.19376 1.17549 1.18949 1.1714 1.17725 1.18321 1.16761 1.16832 1.18765 1.19178 1.17908 1.1871 1.18299 1.17003 1.18172 1.17489 1.18092 1.18277 1.18459 1.17493 1.19085 1.19139 1.19178 1.18779 1.19204 1.17158 1.16529 1.17387 1.16611 1.17426 1.17908 1.19178 1.1911 1.18538 1.17399 1.17529 1.16935 1.17457 1.18493 1.19985 1.18281 1.18115 1.17695 1.18612 1.20266 1.21377 1.18219 1.18507 1.17741 1.19174 1.20633 1.17487 1.17823 1.19106 1.19068 1.17579 1.18163 1.17339 1.1635 1.212 1.1815 1.17285 1.17068 1.19027 1.19999 1.16558 1.16111 1.18177 1.18165 1.17117 1.17404 1.18313 1.18317 1.19849 1.19052 1.18348 1.20741 1.16743 1.19854 1.11388 1.15503 1.19178 1.20419 1.19824 1.18696 1.1792 1.18075 1.1679 1.17621 1.1689 1.18382 1.18201 1.19211 1.17784 1.15922 1.16257 1.19226 1.17426 1.19446 1.17644 1.17669 1.17833 1.1928 1.19527 1.18251 1.18278 1.16215 1.1798 1.18844 1.20029 1.18896 1.18624 1.18972 1.17769 1.17451 1.18771 1.18216 1.17614 1.18428 1.17918 1.18079 1.18208 1.17895 1.19103 1.18125 1.19321 1.18315 1.18395 1.1832 1.18986 1.17322 1.16569 1.17096 1.18092 1.17563 1.17869 1.18827 1.18485 1.17273 1.17075 1.18184 1.20139 1.11261 1.18222 1.17529 1.19633 1.18514 1.212 1.18559 1.18227 1.18026 1.17626 1.20774 1.17674 1.18029 1.18495 1.19043 1.19066 1.17897 1.17071 1.19178 1.16975 1.1873 1.17215 1.1566 1.18085 1.16504 1.14806 1.16447 1.20734 1.16552 1.1763 1.16595 1.18123 1.18082 1.179 1.19538 1.18224 1.18079 1.19619 1.15702 1.14816 1.12398 1.18146 1.20372 1.15921 1.1658 1.19757 1.18309 1.19277 1.17819 1.17296 1.17794 1.17906 1.16934 1.1813 1.18542 1.1688 1.16751 1.1717 1.19789 1.17894 1.18349 1.19181 1.19061 1.19551 1.17738 1.19932 1.1872 1.17146 1.18046 1.17641 1.18839 1.17501 1.19327 1.17064 1.19109 1.18204 1.19631 1.18587 1.19048 1.17805 1.18775 1.17986 1.17564 1.17727 1.18176 1.17991 1.18572 1.18473 1.18741 1.18282 1.19302 1.17638 1.17935 1.19192 1.19171 1.19165 1.17991 1.17136 1.19241 1.20172 1.16892 1.16938 1.17375 1.19202 1.17686 1.17547 1.17694 1.1836 1.17465 1.17875 1.1894 1.17722 1.20242 1.17995 1.18371 1.1832 1.15556 1.16938 1.19745 1.1947 1.20386 1.18483 1.19166 1.18588 1.18161 1.19541 1.19656 1.18848 1.19226 1.18419 1.18394 1.1726 1.18256 1.18617 1.18113 1.18061 1.15993 1.19651 1.18091 1.15778 1.19558 1.20772 1.15502 1.17542 1.18054 1.21787 1.17957 1.1855 1.20052 1.16759 1.17912 1.17428 1.17565 1.15778 1.14554 1.15863 1.20518 1.19728 1.18652 1.17373 1.16766 1.17959 1.16783 1.17113 1.17787 1.1676 1.16873 1.16706 1.16725 1.17046 1.18197 1.18202 1.18572 1.19276 1.18091 1.19644 1.1939 1.17083 1.17525 1.18266 1.17602 1.17108 1.18968 1.17466 1.18782 1.17933 1.21127 1.19203 1.19134 1.17531 1.18035 1.18464 1.19278 1.19178 1.17827 1.19105 1.21188 1.18682 1.17959 1.17242 1.19728 1.16061 1.16942 1.16765 1.17548 1.18666 1.18022 1.18489 1.18943 1.17705 1.17629 1.18727 1.18157 1.1889 1.18379 1.19795 1.19704 1.17069 1.19245 1.20501 1.18427 1.18562 1.18614 1.19332 1.19237 1.19191 1.1838 1.17952 1.18448 1.17929 1.18313 1.1811 1.18627 1.19078 1.16424 1.17946 1.15144 1.17787 1.16289 1.19586 1.19178 1.1535 1.17181 1.16244 1.17828 1.2241 1.19416 1.17509 1.16644 1.16535 1.17321 1.17188 1.1629 1.16714 1.20636 1.19323 1.1314 1.12521 1.179 1.17148 1.17118 1.1672 1.18182 1.1826 1.17363 1.17054 1.1639 1.17468 1.19157 1.19406 1.17864 1.17533 1.16195 1.17755 1.1845 1.17686 1.17726 1.18108 1.18512 1.18647 1.18671 1.19178 1.19178 1.18914 1.18751 1.18757 1.1862 1.1947 1.19279 1.18518 1.19014 1.17607 1.183 1.18934 1.19685 1.19179 1.20111 1.18484 1.19953 1.18591 1.17849 1.17767 1.17354 1.17869 1.17433 1.19659 1.15702 1.18186 1.175 1.17616 1.17636 1.18362 1.18612 1.18862 1.19056 1.17668 1.17646 1.184 1.1983 1.18067 1.20772 1.1874 1.20213 1.18486 1.1861 1.19281 1.18556 1.18176 1.18599 1.17824 1.17744 1.18106 1.18397 1.1902 1.19119 1.16337 1.18517 1.19841 1.18829 1.16746 1.17705 1.19185 1.19053 1.15149 1.16082 1.16436 1.15099 1.17842 1.17559 1.18829 1.201 1.15233 1.1778 1.17226 1.19093 1.16463 1.16551 1.17762 1.20238 1.20063 1.14025 1.15013 1.16578 1.17706 1.18014 1.16584 1.17275 1.16868 1.16783 1.17667 1.16715 1.17408 1.18675 1.18784 1.11194 1.18031 1.16302 1.19509 1.17643 1.17543 1.18444 1.1864 1.18228 1.18258 1.19117 1.1788 1.18687 1.19096 1.19178 1.19185 1.18988 1.19288 1.1759 1.20349 1.19178 1.18147 1.18502 1.1936 1.17942 1.18728 1.16449 1.19054 1.18073 1.19229 1.19836 1.1564 1.16992 1.17643 1.17986 1.17327 1.17543 1.19003 1.18554 1.17398 1.1718 1.17616 1.19317 1.19801 1.17868 1.19961 1.17207 1.17424 1.19069 1.18087 1.18218 1.18497 1.19246 1.19556 1.19142 1.18846 1.19178 1.18705 1.18283 1.18364 1.1814 1.18142 1.17804 1.18379 1.19178 1.19092 1.19456 1.19264 1.18736 1.19245 1.19178 1.18984 1.18925 1.17442 1.14789 1.17419 1.20349 1.15753 1.151 1.15758 1.16374 1.17534 1.17965 1.19473 1.17495 1.20807 1.13178 1.16162 1.15542 1.18738 1.1656 1.16542 1.1687 1.1694 1.16496 1.17623 1.19178 1.16103 1.17583 1.1737 1.18805 1.18167 1.1783 1.19432 1.18175 1.18954 1.17989 1.17891 1.18461 1.19089 1.18188 1.18853 1.18845 1.19178 1.18572 1.19018 1.19178 1.19178 1.19073 1.19178 1.19003 1.19182 1.17583 1.17778 1.19258 1.18232 1.18198 1.18437 1.19197 1.18587 1.1904 1.18814 1.18734 1.1762 1.19107 1.19815 1.18446 1.17 1.17403 1.18101 1.18115 1.17166 1.18351 1.17235 1.16929 1.17537 1.18997 1.18247 1.18036 1.17137 1.19127 1.17527 1.1851 1.18294 1.18413 1.18615 1.19171 1.18914 1.18874 1.18436 1.18077 1.18561 1.18149 1.1894 1.19019 1.18978 1.19442 1.19208 1.19178 1.19275 1.18373 1.15889 1.17648 1.13424 1.19892 1.15819 1.16817 1.15777 1.16293 1.15575 1.17854 1.19321 1.17223 1.17328 1.15178 1.13821 1.14192 1.1507 1.16801 1.16732 1.17327 1.17836 1.16263 1.15451 1.1741 1.164 1.16104 1.17362 1.17045 1.18682 1.16571 1.19291 1.17784 1.19411 1.18142 1.18947 1.1809 1.18522 1.19199 1.18072 1.18943 1.19303 1.18863 1.19022 1.19178 1.19179 1.19114 1.19168 1.19056 1.19202 1.17887 1.19242 1.19163 1.19258 1.18827 1.18488 1.18875 1.19054 1.18843 1.18855 1.19261 1.17596 1.18157 1.17706 1.18522 1.19717 1.16911 1.17336 1.18084 1.17053 1.17079 1.17056 1.17143 1.16672 1.17826 1.19071 1.18359 1.18716 1.18713 1.18796 1.19215 1.18113 1.19508 1.19178 1.18654 1.19203 1.1801 1.18886 1.1844 1.18663 1.18761 1.18788 1.19423 1.19114 1.18706 1.19177 1.19576 1.15684 1.13766 1.14035 1.19193 1.1678 1.1625 1.15327 1.1921 1.1763 1.17962 1.18431 1.16452 1.16926 1.17467 1.19178 1.1711 1.18247 1.16531 1.18297 1.16387 1.16344 1.15632 1.17716 1.18715 1.19178 1.19205 1.18161 1.19024 1.19178 1.18474 1.19273 1.18348 1.19323 1.18892 1.18936 1.1917 1.19249 1.19253 1.1912 1.1908 1.19154 1.19059 1.19185 1.17933 1.1906 1.1925 1.18775 1.1898 1.19016 1.17525 1.17812 1.18517 1.18952 1.18439 1.1872 1.16848 1.17334 1.17322 1.18069 1.16995 1.17131 1.16651 1.17782 1.19245 1.17849 1.19333 1.19185 1.19093 1.18747 1.18632 1.19184 1.19139 1.18213 1.19064 1.18598 1.19178 1.17916 1.18949 1.18938 1.18997 1.18628 1.18035 1.19178 1.18727 1.1909 1.19199 1.19123 1.19058 1.19178 1.1912 1.1912 1.18076 1.17556 1.15815 1.16527 1.1594 1.14939 1.18825 1.17103 1.17461 1.16432 1.17072 1.17914 1.18234 1.15625 1.19027 1.17658 1.18255 1.18952 1.18922 1.18271 1.1862 1.18702 1.16808 1.18041 1.16939 1.16893 1.17102 1.17055 1.17646 1.18512 1.17882 1.19178 1.18158 1.18619 1.17909 1.18602 1.18892 1.18071 1.19181 1.19018 1.18871 1.19051 
SCALARS Stress float 1
LOOKUP_TABLE default
-1.2304e+12 -2.09551e+12 -2.0645e+12 -1.02152e+12 -300459000000.0 -220372000000.0 -63557000000.0 -88131100000.0 -59842700000.0 -74728600000.0 -38427800000.0 -31356500000.0 -24127900000.0 -16665600000.0 -15307600000.0 -12549700000.0 -12938600000.0 -13810300000.0 -18260300000.0 -20800500000.0 -17150500000.0 -15569300000.0 -14498700000.0 -13592700000.0 -12792100000.0 -12549700000.0 -12549700000.0 -12549700000.0 -13326800000.0 -14599900000.0 -14793100000.0 -15904700000.0 -14919600000.0 -15360400000.0 -13578900000.0 -12549700000.0 -14269900000.0 -13453800000.0 -12814600000.0 -17488900000.0 -12745100000.0 -12970000000.0 -15540900000.0 -24424800000.0 -21071500000.0 -20485800000.0 -23093400000.0 -14883100000.0 -15052200000.0 -14432500000.0 -19070900000.0 -15453100000.0 -13724000000.0 -13442400000.0 -15137600000.0 -14090300000.0 -19954300000.0 -13021600000.0 -13543700000.0 -16570600000.0 -14691900000.0 -15281400000.0 -15608600000.0 -16133400000.0 -23420700000.0 -24513600000.0 -31130700000.0 -40175100000.0 -21884600000.0 -57097300000.0 -28022000000.0 -33796700000.0 -35900600000.0 -35179300000.0 -37545500000.0 -25099900000.0 -22481800000.0 -12549700000.0 -12549700000.0 -39430300000.0 -70358400000.0 -33163600000.0 -51469100000.0 -96522700000.0 -34312900000.0 -26233700000.0 -20957600000.0 -92344000000.0 -1.723e+12 -1.7146e+12 -1.24007e+12 -903526000000.0 -1.13138e+12 -1.29227e+12 -3.1878e+12 -1.36771e+12 -4.42451e+12 -2.46531e+12 -1.20878e+12 -170991000000.0 -303482000000.0 -52380700000.0 -12549700000.0 -66499000000.0 -14835000000.0 -12549700000.0 -12549700000.0 -22274100000.0 -27263000000.0 -12549700000.0 -18026100000.0 -12549700000.0 -34048300000.0 -12549700000.0 -12549700000.0 -12549700000.0 -16332900000.0 -13198300000.0 -12549700000.0 -12865400000.0 -14007200000.0 -16126900000.0 -19336900000.0 -27544600000.0 -27804300000.0 -25779900000.0 -27494600000.0 -26280500000.0 -24478400000.0 -17741000000.0 -20225000000.0 -17780200000.0 -25701200000.0 -14292100000.0 -16220300000.0 -21094700000.0 -40394700000.0 -13848800000.0 -13566500000.0 -12685500000.0 -25279400000.0 -19063500000.0 -17300700000.0 -16067400000.0 -24470400000.0 -13069000000.0 -15774100000.0 -13538500000.0 -13248400000.0 -12549700000.0 -17682000000.0 -15612800000.0 -32410400000.0 -12626800000.0 -13359000000.0 -12549700000.0 -12573500000.0 -18291100000.0 -12549700000.0 -12549700000.0 -15530100000.0 -19918500000.0 -14514100000.0 -14368200000.0 -15124700000.0 -22458600000.0 -24105400000.0 -75035700000.0 -52266600000.0 -16948600000.0 -24966900000.0 -19742700000.0 -16819500000.0 -81038500000.0 -62343400000.0 -41279700000.0 -43288400000.0 -96310300000.0 -156399000000.0 -53054400000.0 -12549700000.0 -280774000000.0 -236894000000.0 -470394000000.0 -1.43889e+12 -802165000000.0 -1.21555e+12 -3.05802e+12 -2.20963e+12 -1.52616e+12 -1.68144e+12 -1.58436e+12 -1.31169e+12 -3.42971e+12 -1.67947e+12 -1.97605e+12 -3.19816e+12 -909335000000.0 -1.17761e+12 -638496000000.0 -848285000000.0 -518717000000.0 -517115000000.0 -490096000000.0 -336555000000.0 -251329000000.0 -136137000000.0 -115896000000.0 -115829000000.0 -60086200000.0 -51901700000.0 -21260200000.0 -41620900000.0 -12549700000.0 -12581900000.0 -12549800000.0 -27935400000.0 -21976700000.0 -17016200000.0 -17748400000.0 -20159400000.0 -22562900000.0 -20310800000.0 -38600800000.0 -64695600000.0 -63350700000.0 -41561900000.0 -54431300000.0 -32160300000.0 -40297300000.0 -18112100000.0 -17175900000.0 -35549400000.0 -12549700000.0 -22507600000.0 -49876300000.0 -16375900000.0 -13288600000.0 -14322400000.0 -34810800000.0 -24718500000.0 -15423100000.0 -22289300000.0 -38335500000.0 -26153200000.0 -15826400000.0 -12815100000.0 -12589300000.0 -30173800000.0 -24763800000.0 -68434200000.0 -40410200000.0 -41583000000.0 -37702300000.0 -32669600000.0 -29841500000.0 -40539800000.0 -36294300000.0 -33351700000.0 -38514400000.0 -31653200000.0 -28973900000.0 -60435500000.0 -71131500000.0 -113593000000.0 -222805000000.0 -45487900000.0 -37355300000.0 -38719900000.0 -45483100000.0 -214716000000.0 -221559000000.0 -236758000000.0 -163957000000.0 -276124000000.0 -279414000000.0 -319280000000.0 -326581000000.0 -553999000000.0 -202631000000.0 -1.3127e+12 -674428000000.0 -1.00592e+12 -996033000000.0 -289162000000.0 -774286000000.0 -1.47719e+12 -1.81014e+12 -4.51327e+12 -2.06073e+12 -1.73717e+12 -1.78149e+12 -2.18504e+12 -4.39893e+12 -2.64601e+12 -2.12632e+12 -1.34517e+12 -2.82691e+12 -1.78466e+12 -749735000000.0 -893791000000.0 -439477000000.0 -325648000000.0 -254759000000.0 -252082000000.0 -176783000000.0 -279533000000.0 -163099000000.0 -169319000000.0 -120540000000.0 -121900000000.0 -99438300000.0 -86616600000.0 -30857500000.0 -28419000000.0 -36635100000.0 -12549700000.0 -23594900000.0 -13084500000.0 -16326000000.0 -15820200000.0 -19732200000.0 -26938700000.0 -44962200000.0 -44910900000.0 -43237600000.0 -50557700000.0 -72192000000.0 -27930100000.0 -60612400000.0 -72364200000.0 -64340000000.0 -87224000000.0 -87533200000.0 -87029300000.0 -68748200000.0 -58239900000.0 -114402000000.0 -21991400000.0 -16324200000.0 -14290900000.0 -45460200000.0 -13784500000.0 -37817000000.0 -29869500000.0 -55649200000.0 -54985000000.0 -50034500000.0 -52581700000.0 -44972500000.0 -35925300000.0 -84501400000.0 -13051400000.0 -12549700000.0 -20352000000.0 -25315400000.0 -17239400000.0 -30223700000.0 -32115800000.0 -37832400000.0 -45678400000.0 -101381000000.0 -98383600000.0 -52936200000.0 -41144700000.0 -57866400000.0 -82617300000.0 -298950000000.0 -273840000000.0 -239011000000.0 -300045000000.0 -78267300000.0 -65571400000.0 -274792000000.0 -277154000000.0 -301001000000.0 -308142000000.0 -677523000000.0 -276099000000.0 -277218000000.0 -690839000000.0 -852969000000.0 -1.47616e+12 -1.65722e+12 -814951000000.0 -1.38385e+12 -3.47064e+12 -1.82119e+12 -2.03737e+12 -1.47872e+12 -3.19413e+12 -1.98276e+12 -2.08354e+12 -826588000000.0 -2.19256e+12 -2.40663e+12 -1.61754e+12 -810516000000.0 -634066000000.0 -1.12053e+12 -378989000000.0 -88257000000.0 -171358000000.0 -195900000000.0 -184401000000.0 -12974700000.0 -112275000000.0 -27671400000.0 -50825300000.0 -12549700000.0 -28489300000.0 -12669000000.0 -74839100000.0 -42134400000.0 -42887400000.0 -55755900000.0 -36297400000.0 -38985800000.0 -24721200000.0 -39818900000.0 -27111300000.0 -47253500000.0 -48371400000.0 -33097800000.0 -36765700000.0 -80413700000.0 -98162700000.0 -36812200000.0 -68825500000.0 -39338200000.0 -41728300000.0 -58978000000.0 -41630100000.0 -45723900000.0 -75120900000.0 -96407800000.0 -187802000000.0 -32661000000.0 -31837200000.0 -74696400000.0 -20816300000.0 -56002800000.0 -71758100000.0 -20854200000.0 -53928400000.0 -19883500000.0 -48105400000.0 -41383700000.0 -19656000000.0 -101952000000.0 -12549700000.0 -12669100000.0 -22692600000.0 -30470300000.0 -39564500000.0 -13333700000.0 -16664500000.0 -88072100000.0 -63316500000.0 -22270000000.0 -18492000000.0 -69842800000.0 -126667000000.0 -122976000000.0 -106049000000.0 -145072000000.0 -155258000000.0 -23726900000.0 -115958000000.0 -168952000000.0 -279805000000.0 -308439000000.0 -12549700000.0 -12549600000.0 -79379300000.0 -19022600000.0 -306149000000.0 -746094000000.0 -1.20176e+12 -1.5441e+12 -567774000000.0 -1.0911e+12 -1.55851e+12 -1.47332e+12 -1.9801e+12 -4.4598e+12 -1.7465e+12 -823390000000.0 -1.45396e+12 -2.08456e+12 -1.34322e+12 -724168000000.0 -1.39822e+12 -3.16246e+12 -1.59172e+12 -1.62225e+12 -2.5265e+12 -1.12758e+12 -878909000000.0 -962297000000.0 -833002000000.0 -106527000000.0 -929024000000.0 -636873000000.0 -303126000000.0 -128501000000.0 -171981000000.0 -28379800000.0 -113054000000.0 -61881000000.0 -82483100000.0 -40463100000.0 -25382700000.0 -53881600000.0 -97252100000.0 -47839300000.0 -53788300000.0 -94665700000.0 -91586200000.0 -63112000000.0 -61451300000.0 -50583200000.0 -45663700000.0 -36737900000.0 -52998100000.0 -48538400000.0 -18506400000.0 -164299000000.0 -147169000000.0 -37894900000.0 -19935200000.0 -36603900000.0 -31712800000.0 -23485500000.0 -13667000000.0 -37436100000.0 -14181600000.0 -17513600000.0 -19363900000.0 -57327100000.0 -172865000000.0 -193522000000.0 -186020000000.0 -196292000000.0 -269524000000.0 -140908000000.0 -102478000000.0 -126366000000.0 -89823200000.0 -73518600000.0 -122767000000.0 -113846000000.0 -44174400000.0 -62194300000.0 -60615600000.0 -103106000000.0 -104069000000.0 -137096000000.0 -115232000000.0 -106877000000.0 -82697400000.0 -72947700000.0 -54003600000.0 -50551800000.0 -181350000000.0 -136350000000.0 -86456400000.0 -95649200000.0 -22709000000.0 -152122000000.0 -126501000000.0 -61571500000.0 -115748000000.0 -70410600000.0 -190133000000.0 -199663000000.0 -174730000000.0 -260954000000.0 -292784000000.0 -100716000000.0 -239556000000.0 -554414000000.0 -406141000000.0 -1.18529e+12 -1.03047e+12 -765405000000.0 -1.03093e+12 -1.70175e+12 -1.67963e+12 -851523000000.0 -1.88992e+12 -904858000000.0 -2.33174e+12 -1.37505e+12 -1.39179e+12 -1.27729e+12 -1.22891e+12 -1.30931e+12 -1.45564e+12 -1.34585e+12 -877334000000.0 -1.05732e+12 -252392000000.0 -70290900000.0 -452703000000.0 -222671000000.0 -164780000000.0 -333353000000.0 -254813000000.0 -99528600000.0 -98217500000.0 -80049400000.0 -80303300000.0 -103752000000.0 -44529300000.0 -66278100000.0 -115115000000.0 -13351900000.0 -12549700000.0 -111653000000.0 -109518000000.0 -130394000000.0 -129806000000.0 -160965000000.0 -164213000000.0 -70540500000.0 -79176500000.0 -140967000000.0 -56379300000.0 -48967400000.0 -50643300000.0 -45059700000.0 -37161600000.0 -39195500000.0 -35907500000.0 -64763600000.0 -71132700000.0 -64135800000.0 -58804200000.0 -93653000000.0 -18083000000.0 -92034500000.0 -16823800000.0 -73738400000.0 -177714000000.0 -103703000000.0 -142698000000.0 -124139000000.0 -102881000000.0 -66599100000.0 -55883700000.0 -54165000000.0 -71379000000.0 -80109000000.0 -12549700000.0 -15667200000.0 -77847100000.0 -25909500000.0 -61013700000.0 -40917500000.0 -79521500000.0 -158893000000.0 -151796000000.0 -187549000000.0 -167376000000.0 -122415000000.0 -111495000000.0 -79108500000.0 -267335000000.0 -285790000000.0 -183853000000.0 -240368000000.0 -150320000000.0 -294207000000.0 -106650000000.0 -48189400000.0 -87957200000.0 -391332000000.0 -353998000000.0 -492517000000.0 -609271000000.0 -1.06099e+12 -339980000000.0 -444321000000.0 -997896000000.0 -1.58304e+12 -313520000000.0 -872795000000.0 -885432000000.0 -559899000000.0 -799351000000.0 -1.24418e+12 -935517000000.0 -1.17162e+12 -1.05837e+12 -1.67445e+12 -643067000000.0 -1.66062e+12 -563279000000.0 -338362000000.0 -312249000000.0 -808077000000.0 -619114000000.0 -1.17164e+12 -791628000000.0 -759949000000.0 -219633000000.0 -227453000000.0 -242807000000.0 -246732000000.0 -228455000000.0 -190485000000.0 -133963000000.0 -50447100000.0 -46371900000.0 -85778100000.0 -29130400000.0 -126146000000.0 -101342000000.0 -97228800000.0 -111377000000.0 -23984600000.0 -55375500000.0 -29306700000.0 -49928600000.0 -32514300000.0 -169588000000.0 -107294000000.0 -186020000000.0 -34406100000.0 -48790900000.0 -45753100000.0 -60563400000.0 -56523100000.0 -17103900000.0 -25681500000.0 -50181500000.0 -14701600000.0 -40754900000.0 -24192400000.0 -24971200000.0 -34271300000.0 -41852700000.0 -37425500000.0 -57069500000.0 -91894600000.0 -139592000000.0 -204353000000.0 -113573000000.0 -158872000000.0 -170492000000.0 -45994800000.0 -26694200000.0 -17070100000.0 -33907400000.0 -16148600000.0 -12549700000.0 -55301900000.0 -35081300000.0 -134594000000.0 -61913200000.0 -92724700000.0 -87951200000.0 -12549700000.0 -68911700000.0 -79601500000.0 -14582300000.0 -149088000000.0 -114046000000.0 -141518000000.0 -94773600000.0 -153047000000.0 -104945000000.0 -60924200000.0 -184062000000.0 -73976800000.0 -228106000000.0 -199448000000.0 -339000000000.0 -271544000000.0 -287350000000.0 -619320000000.0 -849367000000.0 -229745000000.0 -192657000000.0 -334216000000.0 -1.1961e+12 -823760000000.0 -867536000000.0 -820791000000.0 -619769000000.0 -665630000000.0 -623463000000.0 -1.01215e+12 -915409000000.0 -1.54305e+12 -847624000000.0 -957729000000.0 -649038000000.0 -909859000000.0 -382946000000.0 -256219000000.0 -287376000000.0 -101609000000.0 -557582000000.0 -337817000000.0 -346500000000.0 -302864000000.0 -99060500000.0 -90458400000.0 -46004800000.0 -21209100000.0 -110147000000.0 -118970000000.0 -109158000000.0 -63032100000.0 -147974000000.0 -62145800000.0 -40636500000.0 -46237200000.0 -74000100000.0 -108236000000.0 -81032500000.0 -76067700000.0 -77765500000.0 -140048000000.0 -79068200000.0 -182016000000.0 -120719000000.0 -47458400000.0 -158414000000.0 -72718700000.0 -74148600000.0 -126770000000.0 -119578000000.0 -121158000000.0 -106196000000.0 -90497700000.0 -99546200000.0 -122338000000.0 -139098000000.0 -88997100000.0 -127459000000.0 -213773000000.0 -12727700000.0 -144322000000.0 -63764000000.0 -106635000000.0 -149175000000.0 -108785000000.0 -13805200000.0 -108251000000.0 -84193500000.0 -72353900000.0 -92750300000.0 -100686000000.0 -67100000000.0 -36603900000.0 -76775600000.0 -50405900000.0 -12878100000.0 -57873600000.0 -68857800000.0 -123584000000.0 -81655900000.0 -63333000000.0 -113392000000.0 -83898400000.0 -14657800000.0 -119678000000.0 -136995000000.0 -34258200000.0 -113828000000.0 -68496200000.0 -148313000000.0 -30331600000.0 -73199500000.0 -141079000000.0 -374988000000.0 -25906700000.0 -474171000000.0 -638496000000.0 -90103500000.0 -126245000000.0 -251688000000.0 -334217000000.0 -829134000000.0 -442964000000.0 -962948000000.0 -291539000000.0 -875374000000.0 -579308000000.0 -745882000000.0 -830336000000.0 -414377000000.0 -202524000000.0 -173446000000.0 -400753000000.0 -731395000000.0 -93604500000.0 -214947000000.0 -111952000000.0 -386638000000.0 -191229000000.0 -310244000000.0 -252600000000.0 -17872300000.0 -12549700000.0 -196000000000.0 -54144300000.0 -86691600000.0 -19209700000.0 -12549700000.0 -60478500000.0 -96480600000.0 -55512700000.0 -74365900000.0 -69537600000.0 -67624000000.0 -58661900000.0 -113679000000.0 -61980100000.0 -37351500000.0 -16036400000.0 -20828500000.0 -12549700000.0 -157100000000.0 -170211000000.0 -12937700000.0 -125937000000.0 -16251800000.0 -91948000000.0 -42548300000.0 -18157800000.0 -16731300000.0 -17484900000.0 -18201900000.0 -37081700000.0 -12549700000.0 -12549700000.0 -18328100000.0 -85698400000.0 -51254600000.0 -104315000000.0 -184601000000.0 -14100600000.0 -34242400000.0 -36860900000.0 -24459300000.0 -105957000000.0 -82564600000.0 -18947300000.0 -152899000000.0 -15412000000.0 -12549700000.0 -24452800000.0 -23375000000.0 -60938600000.0 -14435400000.0 -80206400000.0 -31531400000.0 -122616000000.0 -104923000000.0 -164684000000.0 -237958000000.0 -210007000000.0 -285476000000.0 -220224000000.0 -298557000000.0 -53858700000.0 -280178000000.0 -253114000000.0 -303494000000.0 -403384000000.0 -300948000000.0 -317244000000.0 -430523000000.0 -560864000000.0 -368251000000.0 -365458000000.0 -279755000000.0 -635781000000.0 -197925000000.0 -701749000000.0 -317008000000.0 -269021000000.0 -246943000000.0 -399806000000.0 -673719000000.0 -88695800000.0 -539601000000.0 -29519100000.0 -410283000000.0 -327401000000.0 -510649000000.0 -844427000000.0 -281264000000.0 -234630000000.0 -128254000000.0 -354279000000.0 -723849000000.0 -12549700000.0 -144144000000.0 -160269000000.0 -289601000000.0 -12549700000.0 -245036000000.0 -52313600000.0 -73984500000.0 -57017800000.0 -38210200000.0 -18803200000.0 -31872000000.0 -66762400000.0 -36852200000.0 -78391500000.0 -62735300000.0 -111725000000.0 -89254400000.0 -86944700000.0 -70642400000.0 -77075400000.0 -62919500000.0 -44818000000.0 -22200600000.0 -47001800000.0 -18272000000.0 -12549700000.0 -15201300000.0 -12549700000.0 -203715000000.0 -14293000000.0 -112391000000.0 -82462700000.0 -139188000000.0 -91780800000.0 -62602600000.0 -54182700000.0 -59034700000.0 -57999500000.0 -70289500000.0 -67456200000.0 -68636700000.0 -80864400000.0 -104734000000.0 -86269000000.0 -89700500000.0 -76558700000.0 -232074000000.0 -189492000000.0 -146523000000.0 -131641000000.0 -33613300000.0 -163860000000.0 -142796000000.0 -83698900000.0 -136384000000.0 -48686500000.0 -40469500000.0 -62875200000.0 -47183800000.0 -57253300000.0 -125494000000.0 -152985000000.0 -197838000000.0 -71757800000.0 -106848000000.0 -79345100000.0 -60440900000.0 -13944900000.0 -61167300000.0 -135555000000.0 -149962000000.0 -101515000000.0 -48502500000.0 -57615800000.0 -142863000000.0 -30415000000.0 -95168200000.0 -73014900000.0 -109741000000.0 -96066500000.0 -65624200000.0 -445979000000.0 -188976000000.0 -34881100000.0 -189788000000.0 -490001000000.0 -12549400000.0 -301494000000.0 -33530500000.0 -477859000000.0 -363825000000.0 -328641000000.0 -190646000000.0 -82749800000.0 -331115000000.0 -169526000000.0 -585565000000.0 -538025000000.0 -278516000000.0 -243861000000.0 -121549000000.0 -405256000000.0 -361546000000.0 -170390000000.0 -498352000000.0 -434847000000.0 -170835000000.0 -127565000000.0 -126341000000.0 -264787000000.0 -130246000000.0 -132106000000.0 -80908300000.0 -122332000000.0 -100750000000.0 -90432400000.0 -142635000000.0 -16833700000.0 -122289000000.0 -76534100000.0 -117613000000.0 -105828000000.0 -110372000000.0 -117790000000.0 -84060500000.0 -50940500000.0 -14606400000.0 -22999500000.0 -28353400000.0 -12549700000.0 -223180000000.0 -24766900000.0 -59447800000.0 -47726000000.0 -105557000000.0 -69992000000.0 -68440800000.0 -31683400000.0 -43059900000.0 -15759900000.0 -47075400000.0 -12549700000.0 -15531700000.0 -34368500000.0 -52934100000.0 -59427500000.0 -33993100000.0 -158722000000.0 -12549700000.0 -178782000000.0 -56418300000.0 -163204000000.0 -185582000000.0 -93814800000.0 -61013100000.0 -108602000000.0 -37482600000.0 -87352500000.0 -88829400000.0 -92737400000.0 -114495000000.0 -29128500000.0 -13425100000.0 -16794400000.0 -173711000000.0 -125692000000.0 -141006000000.0 -226014000000.0 -195037000000.0 -211134000000.0 -190109000000.0 -154421000000.0 -211042000000.0 -103127000000.0 -244322000000.0 -72289500000.0 -86634900000.0 -99911000000.0 -120533000000.0 -143774000000.0 -72024200000.0 -55495200000.0 -166144000000.0 -148351000000.0 -236546000000.0 -344022000000.0 -137462000000.0 -202696000000.0 -275590000000.0 -570237000000.0 -375235000000.0 -193201000000.0 -188346000000.0 -65434400000.0 -363111000000.0 -80967300000.0 -453567000000.0 -435805000000.0 -107055000000.0 -158450000000.0 -293630000000.0 -354792000000.0 -137062000000.0 -17583500000.0 -469695000000.0 -131949000000.0 -107117000000.0 -38025500000.0 -138919000000.0 -129371000000.0 -154538000000.0 -40499000000.0 -43606900000.0 -64639000000.0 -142011000000.0 -134087000000.0 -104018000000.0 -125962000000.0 -203720000000.0 -299795000000.0 -133495000000.0 -256814000000.0 -205883000000.0 -182548000000.0 -194981000000.0 -190571000000.0 -133408000000.0 -135335000000.0 -110925000000.0 -132374000000.0 -194283000000.0 -120429000000.0 -106140000000.0 -115518000000.0 -89663600000.0 -150522000000.0 -30967400000.0 -34754800000.0 -55820000000.0 -49531100000.0 -61261800000.0 -70893400000.0 -83835500000.0 -86686900000.0 -81547200000.0 -154004000000.0 -39388600000.0 -71151600000.0 -98611300000.0 -12549700000.0 -12549700000.0 -247109000000.0 -148237000000.0 -294306000000.0 -19304400000.0 -121655000000.0 -72635200000.0 -95594200000.0 -48821600000.0 -41459000000.0 -66007100000.0 -89242000000.0 -42570900000.0 -20411800000.0 -143172000000.0 -19076800000.0 -46197200000.0 -92519700000.0 -20883800000.0 -65597600000.0 -39441400000.0 -93538100000.0 -61825300000.0 -157424000000.0 -111867000000.0 -257918000000.0 -129571000000.0 -75529500000.0 -69233200000.0 -120088000000.0 -85965900000.0 -63995600000.0 -60391700000.0 -166533000000.0 -180759000000.0 -296768000000.0 -320164000000.0 -91653100000.0 -191241000000.0 -55364600000.0 -361095000000.0 -310728000000.0 -47926100000.0 -132092000000.0 -23151700000.0 -322366000000.0 -188677000000.0 -424045000000.0 -346376000000.0 -77302100000.0 -72387400000.0 -127101000000.0 -42706700000.0 -194360000000.0 -205764000000.0 -121781000000.0 -104922000000.0 -61087300000.0 -118459000000.0 -40398200000.0 -100440000000.0 -33487300000.0 -46433300000.0 -20921500000.0 -30932600000.0 -34565100000.0 -15853300000.0 -63486600000.0 -77969600000.0 -12549700000.0 -143259000000.0 -226939000000.0 -80469100000.0 -87764600000.0 -83343900000.0 -80701500000.0 -238089000000.0 -126691000000.0 -115160000000.0 -77997900000.0 -169953000000.0 -110934000000.0 -51452200000.0 -74481900000.0 -25439400000.0 -108612000000.0 -39631400000.0 -18954600000.0 -18857200000.0 -17304100000.0 -17175100000.0 -55872000000.0 -16030800000.0 -42817600000.0 -14952400000.0 -121475000000.0 -17935800000.0 -43954500000.0 -21506600000.0 -102916000000.0 -126908000000.0 -123299000000.0 -96408300000.0 -190631000000.0 -146263000000.0 -230757000000.0 -76487300000.0 -70678600000.0 -14770800000.0 -19197600000.0 -28692200000.0 -18058600000.0 -83877300000.0 -146392000000.0 -77820200000.0 -42058700000.0 -46544200000.0 -149346000000.0 -74788800000.0 -106349000000.0 -12957300000.0 -144768000000.0 -61645400000.0 -143847000000.0 -88221800000.0 -139801000000.0 -34205400000.0 -142325000000.0 -61245800000.0 -93630900000.0 -13417900000.0 -54272000000.0 -24019400000.0 -178402000000.0 -116541000000.0 -93237300000.0 -570920000000.0 -373275000000.0 -345774000000.0 -383793000000.0 -432362000000.0 -418766000000.0 -156159000000.0 -237487000000.0 -170074000000.0 -407274000000.0 -124502000000.0 -528376000000.0 -301781000000.0 -81446900000.0 -63014900000.0 -139978000000.0 -86846200000.0 -104226000000.0 -314074000000.0 -205203000000.0 -20795000000.0 -77661000000.0 -55772800000.0 -135088000000.0 -117985000000.0 -12549700000.0 -31883600000.0 -43102400000.0 -18979500000.0 -29884500000.0 -14552600000.0 -63776500000.0 -84436900000.0 -80933100000.0 -241642000000.0 -35464700000.0 -20802800000.0 -17462500000.0 -19641200000.0 -32216300000.0 -13419300000.0 -152848000000.0 -78504300000.0 -98473900000.0 -284788000000.0 -207383000000.0 -126718000000.0 -27551000000.0 -21256300000.0 -104578000000.0 -52115600000.0 -62974200000.0 -41609500000.0 -36655300000.0 -45796900000.0 -93116300000.0 -55772700000.0 -77017400000.0 -13558200000.0 -150128000000.0 -153901000000.0 -161422000000.0 -136686000000.0 -201636000000.0 -108565000000.0 -97000200000.0 -63181700000.0 -163885000000.0 -312896000000.0 -67944500000.0 -32437300000.0 -14933300000.0 -55084200000.0 -35753700000.0 -37210000000.0 -21107900000.0 -109162000000.0 -89787100000.0 -105345000000.0 -59264100000.0 -94541200000.0 -66333600000.0 -18203900000.0 -29601900000.0 -139629000000.0 -54070700000.0 -25247900000.0 -135441000000.0 -13733700000.0 -136360000000.0 -17058300000.0 -133997000000.0 -144942000000.0 -171868000000.0 -179517000000.0 -163288000000.0 -235595000000.0 -135789000000.0 -183873000000.0 -346316000000.0 -159804000000.0 -150239000000.0 -19405400000.0 -98412700000.0 -89149000000.0 -156467000000.0 -334283000000.0 -351126000000.0 -310866000000.0 -269594000000.0 -273395000000.0 -460808000000.0 -189087000000.0 -21883500000.0 -43567100000.0 -32938600000.0 -47714800000.0 -24456900000.0 -154929000000.0 -137471000000.0 -174395000000.0 -98907900000.0 -86700800000.0 -124527000000.0 -144710000000.0 -91290600000.0 -99720300000.0 -108824000000.0 -103166000000.0 -119725000000.0 -148980000000.0 -140269000000.0 -103602000000.0 -69462500000.0 -233779000000.0 -20664000000.0 -13150600000.0 -15671300000.0 -24773600000.0 -30254100000.0 -13792400000.0 -101654000000.0 -123043000000.0 -114696000000.0 -38229800000.0 -176242000000.0 -16824400000.0 -84848700000.0 -99045300000.0 -114423000000.0 -34026100000.0 -40131200000.0 -30446000000.0 -21060500000.0 -12549700000.0 -78757200000.0 -40463100000.0 -56332300000.0 -162091000000.0 -31173400000.0 -33518800000.0 -41807900000.0 -13518900000.0 -61384400000.0 -140360000000.0 -215376000000.0 -122613000000.0 -161673000000.0 -185244000000.0 -205312000000.0 -75621700000.0 -23239100000.0 -110731000000.0 -50451600000.0 -47402200000.0 -121308000000.0 -56457500000.0 -135721000000.0 -183291000000.0 -12549700000.0 -16846500000.0 -72193800000.0 -74375500000.0 -12549700000.0 -60557400000.0 -138384000000.0 -68401600000.0 -62595600000.0 -122698000000.0 -57625400000.0 -156141000000.0 -118262000000.0 -78717400000.0 -61955800000.0 -123305000000.0 -111571000000.0 -54327000000.0 -139281000000.0 -76698500000.0 -86830400000.0 -245322000000.0 -191845000000.0 -12549700000.0 -109213000000.0 -36701900000.0 -77153600000.0 -119549000000.0 -80657800000.0 -226998000000.0 -81285500000.0 -201192000000.0 -127797000000.0 -329127000000.0 -119597000000.0 -13915800000.0 -27810400000.0 -28827300000.0 -21675800000.0 -16270900000.0 -84516100000.0 -147576000000.0 -45345000000.0 -48436000000.0 -125952000000.0 -76224200000.0 -36955300000.0 -60874200000.0 -25373300000.0 -51735700000.0 -28480400000.0 -52175100000.0 -53415100000.0 -28206200000.0 -12892900000.0 -155087000000.0 -86843400000.0 -154558000000.0 -154246000000.0 -159787000000.0 -171766000000.0 -197513000000.0 -98005600000.0 -42628200000.0 -25634500000.0 -40073300000.0 -148415000000.0 -39413000000.0 -55531700000.0 -56838300000.0 -71179900000.0 -30230300000.0 -51306300000.0 -14037100000.0 -36562400000.0 -66479300000.0 -107836000000.0 -21738200000.0 -67257600000.0 -127845000000.0 -75884600000.0 -72022100000.0 -67353100000.0 -85404900000.0 -93656000000.0 -306868000000.0 -353472000000.0 -296181000000.0 -337257000000.0 -344112000000.0 -160300000000.0 -50006700000.0 -112523000000.0 -180507000000.0 -108017000000.0 -245691000000.0 -186742000000.0 -188086000000.0 -162553000000.0 -157148000000.0 -164367000000.0 -135172000000.0 -81400100000.0 -91710300000.0 -166716000000.0 -42138600000.0 -31259000000.0 -138671000000.0 -148632000000.0 -12549700000.0 -16103700000.0 -67633000000.0 -133326000000.0 -236861000000.0 -109385000000.0 -77065700000.0 -156291000000.0 -23422200000.0 -12549700000.0 -282635000000.0 -120835000000.0 -90862000000.0 -101154000000.0 -157283000000.0 -208930000000.0 -181748000000.0 -104992000000.0 -218903000000.0 -232630000000.0 -358366000000.0 -12554800000.0 -231893000000.0 -72481700000.0 -26760800000.0 -16108700000.0 -22215600000.0 -14418400000.0 -21266700000.0 -65194000000.0 -41437200000.0 -101477000000.0 -95938300000.0 -45390900000.0 -72398500000.0 -33753400000.0 -25326300000.0 -46093000000.0 -25584500000.0 -35508400000.0 -60007900000.0 -113424000000.0 -79908600000.0 -79567000000.0 -98004400000.0 -111997000000.0 -33898200000.0 -16659000000.0 -14694100000.0 -12549700000.0 -15607200000.0 -13907200000.0 -180792000000.0 -107073000000.0 -105171000000.0 -103026000000.0 -230756000000.0 -13631500000.0 -55440100000.0 -85103200000.0 -67027900000.0 -15768200000.0 -13472000000.0 -72467100000.0 -70950800000.0 -12549700000.0 -65535400000.0 -103703000000.0 -18603900000.0 -103767000000.0 -72578700000.0 -125653000000.0 -13006300000.0 -181653000000.0 -185222000000.0 -168274000000.0 -351705000000.0 -27454200000.0 -277788000000.0 -121797000000.0 -103099000000.0 -506973000000.0 -270228000000.0 -201695000000.0 -175157000000.0 -195675000000.0 -202325000000.0 -36991500000.0 -261595000000.0 -29204100000.0 -69146900000.0 -14715100000.0 -202914000000.0 -63428800000.0 -149382000000.0 -84964000000.0 -88821000000.0 -133836000000.0 -141648000000.0 -27419400000.0 -99541900000.0 -12549700000.0 -13038200000.0 -13906100000.0 -72441500000.0 -149149000000.0 -91235700000.0 -60533700000.0 -153588000000.0 -105179000000.0 -186456000000.0 -77943300000.0 -71157300000.0 -12549700000.0 -24604900000.0 -14598000000.0 -115453000000.0 -12549700000.0 -221962000000.0 -250726000000.0 -111093000000.0 -317891000000.0 -206127000000.0 -262546000000.0 -22117700000.0 -14834300000.0 -16685100000.0 -22371800000.0 -17229000000.0 -18871600000.0 -37458900000.0 -57903400000.0 -40624100000.0 -95118400000.0 -16930700000.0 -63387400000.0 -54064700000.0 -37588900000.0 -28184900000.0 -40709700000.0 -26860200000.0 -46881600000.0 -95667000000.0 -29183800000.0 -18532300000.0 -25209300000.0 -24544800000.0 -34130700000.0 -57391900000.0 -15126600000.0 -17512500000.0 -18318500000.0 -12549700000.0 -14871300000.0 -136664000000.0 -44682200000.0 -40976800000.0 -23924500000.0 -164701000000.0 -117997000000.0 -207008000000.0 -130215000000.0 -59596700000.0 -38585700000.0 -64847400000.0 -49328200000.0 -77611000000.0 -44318900000.0 -30794300000.0 -99811900000.0 -41012000000.0 -94858500000.0 -55859300000.0 -100455000000.0 -75574800000.0 -130088000000.0 -154934000000.0 -126124000000.0 -263246000000.0 -132585000000.0 -70523100000.0 -247135000000.0 -264620000000.0 -154860000000.0 -179097000000.0 -353177000000.0 -387586000000.0 -216448000000.0 -15021600000.0 -206578000000.0 -171801000000.0 -202624000000.0 -62649000000.0 -92635800000.0 -117499000000.0 -51555000000.0 -51407000000.0 -72525600000.0 -60438200000.0 -14160500000.0 -122414000000.0 -56338400000.0 -60020600000.0 -118545000000.0 -81213000000.0 -15670700000.0 -162192000000.0 -14286500000.0 -97957900000.0 -45719400000.0 -147206000000.0 -146198000000.0 -135346000000.0 -99587000000.0 -105688000000.0 -158389000000.0 -136881000000.0 -110266000000.0 -159913000000.0 -318224000000.0 -177590000000.0 -269203000000.0 -161704000000.0 -154266000000.0 -13941800000.0 -13160500000.0 -19271300000.0 -19210500000.0 -15265800000.0 -28595900000.0 -35088900000.0 -14564300000.0 -86734400000.0 -13003900000.0 -22486600000.0 -42976200000.0 -31328700000.0 -17796000000.0 -20674100000.0 -12727400000.0 -33603400000.0 -82555300000.0 -25042000000.0 -17148200000.0 -13168900000.0 -17371300000.0 -23121100000.0 -31997300000.0 -12942800000.0 -18047000000.0 -17141500000.0 -24084800000.0 -48903000000.0 -83454300000.0 -88987300000.0 -154566000000.0 -129091000000.0 -218255000000.0 -79982500000.0 -78550500000.0 -12549700000.0 -167299000000.0 -132777000000.0 -121420000000.0 -146187000000.0 -138337000000.0 -43037600000.0 -107630000000.0 -149955000000.0 -73793600000.0 -116429000000.0 -109060000000.0 -15177200000.0 -172523000000.0 -17135200000.0 -108893000000.0 -120196000000.0 -84987500000.0 -268551000000.0 -91541900000.0 -290870000000.0 -227054000000.0 -213450000000.0 -172547000000.0 -237390000000.0 -13107400000.0 -246878000000.0 -31868400000.0 -17958200000.0 -114681000000.0 -208047000000.0 -52375100000.0 -70669100000.0 -23094500000.0 -119221000000.0 -110978000000.0 -107081000000.0 -131210000000.0 -109168000000.0 -12549700000.0 -133534000000.0 -107489000000.0 -36408800000.0 -60305000000.0 -41000800000.0 -33092500000.0 -45093300000.0 -44558500000.0 -120595000000.0 -70934900000.0 -123962000000.0 -61370600000.0 -163936000000.0 -81245800000.0 -62323000000.0 -22628400000.0 -21147200000.0 -52662800000.0 -117511000000.0 -46721800000.0 -264381000000.0 -157708000000.0 -15321900000.0 -55251200000.0 -468179000000.0 -167006000000.0 -42033200000.0 -86613300000.0 -91488200000.0 -94557600000.0 -95808900000.0 -82188900000.0 -66618400000.0 -43738700000.0 -16772000000.0 -69528500000.0 -57176400000.0 -63330600000.0 -41342300000.0 -51279800000.0 -61334500000.0 -50264800000.0 -56994100000.0 -55041100000.0 -21620800000.0 -49938000000.0 -12549700000.0 -13612200000.0 -21439100000.0 -21144000000.0 -17872900000.0 -15446100000.0 -23023600000.0 -32961700000.0 -24910100000.0 -60209300000.0 -40208500000.0 -20677100000.0 -59299600000.0 -206266000000.0 -14525800000.0 -34247900000.0 -77453700000.0 -202315000000.0 -49772800000.0 -142316000000.0 -148130000000.0 -29272700000.0 -122444000000.0 -42543700000.0 -133653000000.0 -117882000000.0 -284821000000.0 -107488000000.0 -103069000000.0 -112008000000.0 -221002000000.0 -116378000000.0 -181955000000.0 -13910400000.0 -76488300000.0 -76700100000.0 -264047000000.0 -347746000000.0 -246369000000.0 -148653000000.0 -267434000000.0 -147913000000.0 -456391000000.0 -99900800000.0 -166515000000.0 -58744800000.0 -175553000000.0 -145676000000.0 -88502500000.0 -162644000000.0 -202463000000.0 -39099800000.0 -21571300000.0 -52769200000.0 -93554200000.0 -63510700000.0 -120798000000.0 -16439300000.0 -12935600000.0 -132260000000.0 -83347200000.0 -37608100000.0 -65921300000.0 -12932900000.0 -24813200000.0 -69131400000.0 -12549700000.0 -88191200000.0 -95417500000.0 -15190500000.0 -85791200000.0 -84672200000.0 -63468700000.0 -64432300000.0 -98475800000.0 -96158200000.0 -108531000000.0 -59417800000.0 -284774000000.0 -224234000000.0 -59965500000.0 -308268000000.0 -176900000000.0 -108553000000.0 -27226000000.0 -15573300000.0 -15185300000.0 -37339200000.0 -38246900000.0 -25205400000.0 -32655100000.0 -41470300000.0 -32454800000.0 -41799500000.0 -44338900000.0 -55681100000.0 -40808200000.0 -47082000000.0 -64466800000.0 -61005300000.0 -69653600000.0 -78274300000.0 -38271900000.0 -41281100000.0 -47616000000.0 -43246400000.0 -43989300000.0 -41445700000.0 -23762300000.0 -25882500000.0 -31142200000.0 -277727000000.0 -48569000000.0 -109298000000.0 -37072000000.0 -183302000000.0 -126808000000.0 -37254800000.0 -181770000000.0 -189593000000.0 -109945000000.0 -167238000000.0 -219285000000.0 -63466300000.0 -91701800000.0 -110174000000.0 -229464000000.0 -13152000000.0 -122504000000.0 -118639000000.0 -34602600000.0 -200033000000.0 -12549700000.0 -186984000000.0 -175440000000.0 -50718000000.0 -254618000000.0 -12549700000.0 -372286000000.0 -202239000000.0 -210046000000.0 -139645000000.0 -210133000000.0 -96156800000.0 -201124000000.0 -297703000000.0 -264084000000.0 -65753600000.0 -48791000000.0 -69773100000.0 -108309000000.0 -119793000000.0 -137650000000.0 -39159900000.0 -92514000000.0 -16084900000.0 -191895000000.0 -54690900000.0 -29947800000.0 -83645400000.0 -25592000000.0 -33520700000.0 -21934200000.0 -40650200000.0 -38170600000.0 -65670500000.0 -161422000000.0 -34390600000.0 -40496600000.0 -196582000000.0 -76469900000.0 -37945900000.0 -107480000000.0 -12549700000.0 -111263000000.0 -187719000000.0 -13984300000.0 -219135000000.0 -319716000000.0 -100481000000.0 -97893200000.0 -27841500000.0 -24382200000.0 -36802600000.0 -14943100000.0 -22506000000.0 -15230500000.0 -33137300000.0 -23989600000.0 -14692200000.0 -12549700000.0 -15216200000.0 -31365600000.0 -14933000000.0 -15814600000.0 -36934300000.0 -31414300000.0 -12549700000.0 -31113500000.0 -89724500000.0 -57845300000.0 -49102200000.0 -81515700000.0 -12549700000.0 -12549700000.0 -36359500000.0 -126886000000.0 -112079000000.0 -181754000000.0 -172928000000.0 -258814000000.0 -193248000000.0 -87531400000.0 -138899000000.0 -55087200000.0 -270932000000.0 -208272000000.0 -183579000000.0 -237414000000.0 -17778300000.0 -47077800000.0 -49033300000.0 -36085500000.0 -92061300000.0 -18717400000.0 -170336000000.0 -222000000000.0 -22771100000.0 -108441000000.0 -250196000000.0 -134444000000.0 -182302000000.0 -253736000000.0 -308409000000.0 -55532200000.0 -52567300000.0 -122944000000.0 -166708000000.0 -76847500000.0 -298025000000.0 -102881000000.0 -343546000000.0 -109433000000.0 -67515400000.0 -12892800000.0 -191023000000.0 -21725200000.0 -12549700000.0 -215046000000.0 -244063000000.0 -85398100000.0 -95131600000.0 -128857000000.0 -311906000000.0 -231910000000.0 -258218000000.0 -152477000000.0 -80317700000.0 -12549700000.0 -95964300000.0 -45686500000.0 -19873400000.0 -14657400000.0 -28691800000.0 -34427400000.0 -59771400000.0 -183119000000.0 -15779100000.0 -16407400000.0 -190012000000.0 -89208100000.0 -96642300000.0 -150232000000.0 -83441200000.0 -189939000000.0 -25167400000.0 -310985000000.0 -251470000000.0 -166121000000.0 -144218000000.0 -19136300000.0 -15987300000.0 -28001600000.0 -12902200000.0 -21280600000.0 -16458600000.0 -48127900000.0 -25095800000.0 -15025200000.0 -13194600000.0 -12549700000.0 -28386500000.0 -12549700000.0 -23746200000.0 -40037900000.0 -13365900000.0 -34184000000.0 -43985000000.0 -67492300000.0 -17060900000.0 -14353200000.0 -51687600000.0 -105905000000.0 -87846000000.0 -132158000000.0 -58483900000.0 -115456000000.0 -13951800000.0 -92109000000.0 -17482000000.0 -323139000000.0 -220579000000.0 -202968000000.0 -247976000000.0 -277412000000.0 -352817000000.0 -124480000000.0 -133069000000.0 -231552000000.0 -219146000000.0 -13657300000.0 -231005000000.0 -329252000000.0 -247488000000.0 -105416000000.0 -230182000000.0 -281305000000.0 -277930000000.0 -371217000000.0 -316381000000.0 -155875000000.0 -255751000000.0 -252910000000.0 -76566500000.0 -138288000000.0 -216396000000.0 -301190000000.0 -194823000000.0 -180698000000.0 -200210000000.0 -298490000000.0 -54461500000.0 -98267800000.0 -240298000000.0 -99346700000.0 -112169000000.0 -150147000000.0 -92804100000.0 -189390000000.0 -98996200000.0 -179372000000.0 -236028000000.0 -69047000000.0 -112374000000.0 -207433000000.0 -197323000000.0 -154995000000.0 -222949000000.0 -194758000000.0 -105176000000.0 -112265000000.0 -85318500000.0 -94337300000.0 -70985800000.0 -65167600000.0 -61797400000.0 -96261000000.0 -267012000000.0 -22213600000.0 -21798400000.0 -215568000000.0 -13810200000.0 -121675000000.0 -92729400000.0 -319124000000.0 -170276000000.0 -370925000000.0 -230999000000.0 -199711000000.0 -277499000000.0 -228271000000.0 -14591600000.0 -17377500000.0 -13273100000.0 -26929400000.0 -13387900000.0 -17087700000.0 -32449700000.0 -61018400000.0 -17812700000.0 -12549700000.0 -12549700000.0 -12549700000.0 -32644700000.0 -14255000000.0 -46170700000.0 -33671900000.0 -13503500000.0 -35234800000.0 -50326700000.0 -49589900000.0 -114429000000.0 -52466100000.0 -55278500000.0 -26341500000.0 -51144800000.0 -58700200000.0 -29713900000.0 -44279800000.0 -38229200000.0 -129101000000.0 -327573000000.0 -171571000000.0 -192852000000.0 -101066000000.0 -122020000000.0 -264863000000.0 -162558000000.0 -106258000000.0 -157482000000.0 -119824000000.0 -202006000000.0 -199198000000.0 -300430000000.0 -240031000000.0 -181783000000.0 -230929000000.0 -12549700000.0 -409073000000.0 -126002000000.0 -130836000000.0 -133169000000.0 -186324000000.0 -116748000000.0 -116265000000.0 -267262000000.0 -196097000000.0 -161642000000.0 -121846000000.0 -254236000000.0 -265431000000.0 -141682000000.0 -22413200000.0 -91079000000.0 -233701000000.0 -14609800000.0 -128198000000.0 -180155000000.0 -193149000000.0 -26822700000.0 -147599000000.0 -56116200000.0 -134921000000.0 -48057400000.0 -56984700000.0 -110747000000.0 -50782000000.0 -134777000000.0 -23688000000.0 -266167000000.0 -119009000000.0 -199108000000.0 -185211000000.0 -206466000000.0 -134842000000.0 -130409000000.0 -190331000000.0 -169346000000.0 -302104000000.0 -292236000000.0 -198538000000.0 -83571900000.0 -197013000000.0 -58178500000.0 -69780100000.0 -240986000000.0 -79528300000.0 -156166000000.0 -164630000000.0 -93748500000.0 -229487000000.0 -141147000000.0 -142373000000.0 -18663000000.0 -13801000000.0 -27194100000.0 -14722200000.0 -28657300000.0 -63425300000.0 -52605900000.0 -15728500000.0 -13012100000.0 -12697500000.0 -12549700000.0 -43657100000.0 -23945300000.0 -58196400000.0 -17382700000.0 -12549700000.0 -29130900000.0 -88493300000.0 -12549700000.0 -21712900000.0 -13548800000.0 -42363300000.0 -40802200000.0 -28986200000.0 -32762700000.0 -42827400000.0 -55281900000.0 -210657000000.0 -151736000000.0 -82072200000.0 -79855600000.0 -173876000000.0 -283810000000.0 -446932000000.0 -269943000000.0 -23421200000.0 -40503700000.0 -199366000000.0 -14131700000.0 -228828000000.0 -83529900000.0 -93022500000.0 -39495600000.0 -237592000000.0 -143861000000.0 -168090000000.0 -124663000000.0 -274497000000.0 -150162000000.0 -222507000000.0 -139051000000.0 -173307000000.0 -253412000000.0 -422285000000.0 -85952600000.0 -182379000000.0 -57931300000.0 -155262000000.0 -48344500000.0 -53354400000.0 -176569000000.0 -21795000000.0 -141420000000.0 -15147300000.0 -293709000000.0 -67448300000.0 -142985000000.0 -94569300000.0 -74368200000.0 -118146000000.0 -86098500000.0 -92653000000.0 -219607000000.0 -188816000000.0 -76355100000.0 -157243000000.0 -58977600000.0 -117565000000.0 -125876000000.0 -168812000000.0 -171638000000.0 -17054600000.0 -16761000000.0 -187267000000.0 -71256500000.0 -176274000000.0 -168316000000.0 -185263000000.0 -104108000000.0 -108068000000.0 -156855000000.0 -119624000000.0 -299799000000.0 -57178600000.0 -245104000000.0 -102929000000.0 -140909000000.0 -74709700000.0 -110621000000.0 -21118900000.0 -12549700000.0 -19604400000.0 -22823800000.0 -40193600000.0 -67536900000.0 -85770700000.0 -57077000000.0 -35034200000.0 -36149100000.0 -39094600000.0 -44165900000.0 -72627200000.0 -43195000000.0 -78143600000.0 -13532500000.0 -66246700000.0 -13678500000.0 -114822000000.0 -30763500000.0 -109495000000.0 -70647800000.0 -17788700000.0 -37181700000.0 -12549700000.0 -50244500000.0 -71283500000.0 -73520200000.0 -72810400000.0 -150922000000.0 -156708000000.0 -278967000000.0 -242770000000.0 -161365000000.0 -172874000000.0 -21421100000.0 -19078800000.0 -235775000000.0 -100283000000.0 -257658000000.0 -358800000000.0 -332032000000.0 -230357000000.0 -209757000000.0 -121992000000.0 -47291200000.0 -248128000000.0 -57058600000.0 -238230000000.0 -125452000000.0 -183755000000.0 -99633300000.0 -209641000000.0 -237000000000.0 -138034000000.0 -138228000000.0 -28591300000.0 -222200000000.0 -248175000000.0 -73740600000.0 -15819800000.0 -144868000000.0 -172257000000.0 -155558000000.0 -74910400000.0 -130249000000.0 -212848000000.0 -204684000000.0 -102484000000.0 -229228000000.0 -204499000000.0 -152245000000.0 -155396000000.0 -156743000000.0 -120031000000.0 -153744000000.0 -185670000000.0 -198260000000.0 -37319600000.0 -23704500000.0 -101436000000.0 -42825400000.0 -153213000000.0 -61032400000.0 -61915200000.0 -71292100000.0 -182878000000.0 -176892000000.0 -149424000000.0 -114963000000.0 -269380000000.0 -246928000000.0 -227102000000.0 -262126000000.0 -329751000000.0 -367282000000.0 -325169000000.0 -220678000000.0 -454608000000.0 -386264000000.0 -165109000000.0 -13706700000.0 -52293700000.0 -51707900000.0 -45654900000.0 -51747200000.0 -173201000000.0 -83338800000.0 -38455500000.0 -41636400000.0 -50150000000.0 -45703900000.0 -73807800000.0 -80509000000.0 -51971900000.0 -151308000000.0 -145221000000.0 -123572000000.0 -59492800000.0 -79992700000.0 -69494200000.0 -78989700000.0 -89583200000.0 -101895000000.0 -205944000000.0 -129440000000.0 -132820000000.0 -12544300000.0 -24930000000.0 -317558000000.0 -46612900000.0 -96138300000.0 -141093000000.0 -55084500000.0 -84124300000.0 -126534000000.0 -14984200000.0 -69135400000.0 -83502600000.0 -224994000000.0 -220772000000.0 -183538000000.0 -305139000000.0 -200706000000.0 -285290000000.0 -113711000000.0 -222279000000.0 -244180000000.0 -156974000000.0 -371211000000.0 -225685000000.0 -241813000000.0 -132284000000.0 -314559000000.0 -280963000000.0 -78057900000.0 -13910000000.0 -199382000000.0 -15041800000.0 -44721200000.0 -87076000000.0 -54078800000.0 -121811000000.0 -116696000000.0 -215898000000.0 -111326000000.0 -24650100000.0 -12684600000.0 -130262000000.0 -29957200000.0 -29080900000.0 -50591200000.0 -197528000000.0 -204238000000.0 -259280000000.0 -66951600000.0 -64892600000.0 -175338000000.0 -96382200000.0 -38748400000.0 -148485000000.0 -158432000000.0 -157477000000.0 -110835000000.0 -148436000000.0 -214257000000.0 -185810000000.0 -285606000000.0 -231096000000.0 -91350700000.0 -144498000000.0 -145468000000.0 -174617000000.0 -35120900000.0 -29111800000.0 -119003000000.0 -16178200000.0 -294256000000.0 -150161000000.0 -118207000000.0 -547226000000.0 -205975000000.0 -35291200000.0 -24594600000.0 -25915600000.0 -25666500000.0 -13026700000.0 -158104000000.0 -63809700000.0 -29085900000.0 -24819300000.0 -30492200000.0 -12549700000.0 -12549700000.0 -75730500000.0 -70921400000.0 -61393200000.0 -81595000000.0 -172816000000.0 -214448000000.0 -110339000000.0 -190715000000.0 -131897000000.0 -40671900000.0 -76711200000.0 -136826000000.0 -134513000000.0 -113419000000.0 -21405200000.0 -68533900000.0 -28776900000.0 -40629700000.0 -306453000000.0 -115737000000.0 -37359500000.0 -13601800000.0 -121742000000.0 -58704500000.0 -81775600000.0 -146313000000.0 -33971400000.0 -18860800000.0 -188458000000.0 -406890000000.0 -189586000000.0 -258519000000.0 -267607000000.0 -79982200000.0 -254395000000.0 -131263000000.0 -12549700000.0 -216190000000.0 -227617000000.0 -21906900000.0 -349988000000.0 -253321000000.0 -117955000000.0 -85903300000.0 -279852000000.0 -62736400000.0 -191483000000.0 -64113600000.0 -183630000000.0 -293152000000.0 -20392500000.0 -56281300000.0 -66408900000.0 -51464900000.0 -37125400000.0 -181708000000.0 -40377600000.0 -96779200000.0 -118937000000.0 -25209400000.0 -44706100000.0 -123371000000.0 -28357500000.0 -23390500000.0 -46345800000.0 -464955000000.0 -350113000000.0 -181010000000.0 -202270000000.0 -187170000000.0 -217521000000.0 -182265000000.0 -214319000000.0 -87936300000.0 -101107000000.0 -82540100000.0 -65200100000.0 -88829900000.0 -23589200000.0 -90366000000.0 -149438000000.0 -103996000000.0 -21607400000.0 -16898500000.0 -100209000000.0 -184394000000.0 -108453000000.0 -56015900000.0 -126672000000.0 -13829600000.0 -284935000000.0 -30449700000.0 -77334600000.0 -202007000000.0 -90204600000.0 -47514000000.0 -13914400000.0 -41731700000.0 -25427800000.0 -17696200000.0 -49836200000.0 -150147000000.0 -53643700000.0 -13117000000.0 -15445900000.0 -19735400000.0 -39117400000.0 -49193100000.0 -33826000000.0 -219035000000.0 -183349000000.0 -185334000000.0 -12549700000.0 -14726800000.0 -316823000000.0 -45007500000.0 -108390000000.0 -120816000000.0 -12549700000.0 -98810200000.0 -110014000000.0 -113468000000.0 -70043300000.0 -83145400000.0 -346353000000.0 -117469000000.0 -144119000000.0 -173222000000.0 -67027200000.0 -100556000000.0 -158599000000.0 -88616600000.0 -91658000000.0 -117641000000.0 -236238000000.0 -12833300000.0 -119984000000.0 -269846000000.0 -329220000000.0 -413189000000.0 -399083000000.0 -341889000000.0 -211987000000.0 -169646000000.0 -111030000000.0 -388191000000.0 -416383000000.0 -411195000000.0 -218202000000.0 -384925000000.0 -254909000000.0 -146015000000.0 -65935900000.0 -265582000000.0 -66835800000.0 -64477500000.0 -171248000000.0 -12549700000.0 -240986000000.0 -271837000000.0 -100741000000.0 -76411400000.0 -279430000000.0 -276746000000.0 -18331600000.0 -22778600000.0 -258384000000.0 -43770800000.0 -132099000000.0 -107186000000.0 -18076100000.0 -124368000000.0 -234109000000.0 -54504800000.0 -14667200000.0 -189560000000.0 -144568000000.0 -236416000000.0 -25212400000.0 -94843200000.0 -16285100000.0 -21266100000.0 -221999000000.0 -211006000000.0 -238762000000.0 -153097000000.0 -170445000000.0 -263307000000.0 -144882000000.0 -150981000000.0 -41297100000.0 -39374000000.0 -143197000000.0 -66140000000.0 -181011000000.0 -134527000000.0 -25511800000.0 -12613300000.0 -100405000000.0 -111985000000.0 -227774000000.0 -246188000000.0 -54683100000.0 -23762800000.0 -41628300000.0 -14566400000.0 -18519300000.0 -233700000000.0 -139921000000.0 -123882000000.0 -106123000000.0 -100078000000.0 -98641900000.0 -143659000000.0 -110450000000.0 -37082000000.0 -98611200000.0 -198993000000.0 -206006000000.0 -267981000000.0 -341430000000.0 -25453100000.0 -16194800000.0 -243771000000.0 -386835000000.0 -203616000000.0 -140572000000.0 -58449100000.0 -119291000000.0 -69258600000.0 -140816000000.0 -145226000000.0 -304942000000.0 -100469000000.0 -18750400000.0 -12549700000.0 -21585800000.0 -147724000000.0 -69110200000.0 -41586600000.0 -74229000000.0 -248348000000.0 -246163000000.0 -114564000000.0 -190361000000.0 -145639000000.0 -119005000000.0 -84476600000.0 -100440000000.0 -231097000000.0 -155772000000.0 -374680000000.0 -171284000000.0 -237747000000.0 -131353000000.0 -261725000000.0 -43665300000.0 -186838000000.0 -101362000000.0 -157628000000.0 -341687000000.0 -263464000000.0 -283224000000.0 -137480000000.0 -128752000000.0 -148949000000.0 -170887000000.0 -128265000000.0 -15781000000.0 -270894000000.0 -466855000000.0 -16906100000.0 -162367000000.0 -95117700000.0 -13605900000.0 -12549700000.0 -229235000000.0 -125787000000.0 -158031000000.0 -336466000000.0 -78552500000.0 -144231000000.0 -140496000000.0 -214533000000.0 -136174000000.0 -188087000000.0 -114938000000.0 -155955000000.0 -84714200000.0 -12548500000.0 -37120200000.0 -23702400000.0 -13628600000.0 -27619600000.0 -279179000000.0 -90104000000.0 -163415000000.0 -187591000000.0 -99156400000.0 -96974000000.0 -31130100000.0 -232825000000.0 -150628000000.0 -154671000000.0 -83361700000.0 -246448000000.0 -54138600000.0 -12967900000.0 -37764600000.0 -266155000000.0 -241912000000.0 -113255000000.0 -145362000000.0 -99131100000.0 -96921000000.0 -66489100000.0 -71712000000.0 -99962900000.0 -118266000000.0 -232298000000.0 -84158700000.0 -14813100000.0 -12549700000.0 -108022000000.0 -116437000000.0 -92820900000.0 -262789000000.0 -417782000000.0 -116502000000.0 -44873000000.0 -209390000000.0 -256616000000.0 -228148000000.0 -176743000000.0 -13556900000.0 -393022000000.0 -332108000000.0 -188781000000.0 -168868000000.0 -128043000000.0 -137568000000.0 -248149000000.0 -241359000000.0 -212659000000.0 -325030000000.0 -107800000000.0 -117529000000.0 -126471000000.0 -112405000000.0 -191108000000.0 -65409800000.0 -129122000000.0 -185603000000.0 -236499000000.0 -177083000000.0 -112000000000.0 -416302000000.0 -225144000000.0 -88618700000.0 -204776000000.0 -271002000000.0 -203287000000.0 -120621000000.0 -52984800000.0 -133812000000.0 -124660000000.0 -49543400000.0 -182332000000.0 -160562000000.0 -194784000000.0 -54612600000.0 -119952000000.0 -42322900000.0 -202790000000.0 -26408500000.0 -283913000000.0 -17596100000.0 -23711200000.0 -573014000000.0 -359179000000.0 -185738000000.0 -84449800000.0 -233274000000.0 -273693000000.0 -241510000000.0 -317170000000.0 -234366000000.0 -181940000000.0 -226658000000.0 -226233000000.0 -97896800000.0 -207992000000.0 -79153200000.0 -201047000000.0 -187677000000.0 -258986000000.0 -173581000000.0 -205407000000.0 -40208600000.0 -15861300000.0 -263476000000.0 -71712400000.0 -120993000000.0 -150135000000.0 -93359200000.0 -252620000000.0 -346837000000.0 -117824000000.0 -243224000000.0 -262677000000.0 -248489000000.0 -147919000000.0 -61553600000.0 -21368200000.0 -38860600000.0 -45833600000.0 -49677200000.0 -23130000000.0 -30567700000.0 -83850000000.0 -59394400000.0 -157934000000.0 -132814000000.0 -107496000000.0 -85704100000.0 -114395000000.0 -83255400000.0 -410030000000.0 -284488000000.0 -39441300000.0 -122274000000.0 -197583000000.0 -91628400000.0 -164319000000.0 -165733000000.0 -214753000000.0 -83189700000.0 -124297000000.0 -166337000000.0 -246604000000.0 -182033000000.0 -118365000000.0 -16043100000.0 -138395000000.0 -83916400000.0 -145819000000.0 -102449000000.0 -94334000000.0 -14581400000.0 -21607600000.0 -50244400000.0 -189190000000.0 -68718100000.0 -12549700000.0 -184823000000.0 -12549700000.0 -217757000000.0 -121782000000.0 -146171000000.0 -52727500000.0 -134221000000.0 -292134000000.0 -254520000000.0 -186333000000.0 -222299000000.0 -154480000000.0 -138933000000.0 -174891000000.0 -141328000000.0 -255613000000.0 -116406000000.0 -76550800000.0 -101751000000.0 -12549700000.0 -181637000000.0 -168580000000.0 -151848000000.0 -43333400000.0 -285139000000.0 -208268000000.0 -107288000000.0 -191675000000.0 -108717000000.0 -217042000000.0 -59355900000.0 -152054000000.0 -181735000000.0 -244517000000.0 -118589000000.0 -320588000000.0 -62513000000.0 -240205000000.0 -79794300000.0 -151789000000.0 -185632000000.0 -137793000000.0 -261574000000.0 -181923000000.0 -106271000000.0 -93602000000.0 -193388000000.0 -325651000000.0 -163637000000.0 -174981000000.0 -340682000000.0 -168541000000.0 -106143000000.0 -66755400000.0 -268582000000.0 -51662600000.0 -381604000000.0 -48521600000.0 -131548000000.0 -123301000000.0 -17899600000.0 -201603000000.0 -76521400000.0 -109071000000.0 -132905000000.0 -15502000000.0 -13054700000.0 -78671600000.0 -43469800000.0 -196123000000.0 -134578000000.0 -108147000000.0 -60334900000.0 -148807000000.0 -69754000000.0 -448299000000.0 -398108000000.0 -319818000000.0 -382198000000.0 -239600000000.0 -186084000000.0 -92074900000.0 -51036200000.0 -116652000000.0 -39883500000.0 -109621000000.0 -316736000000.0 -177832000000.0 -93602000000.0 -84214800000.0 -239206000000.0 -26891600000.0 -161248000000.0 -72472100000.0 -74200000000.0 -104292000000.0 -149371000000.0 -168495000000.0 -310950000000.0 -57992700000.0 -136833000000.0 -115287000000.0 -210317000000.0 -46662700000.0 -128197000000.0 -215053000000.0 -193222000000.0 -163706000000.0 -166063000000.0 -272504000000.0 -109516000000.0 -182335000000.0 -216439000000.0 -139625000000.0 -137321000000.0 -146290000000.0 -287748000000.0 -286197000000.0 -12549700000.0 -91616800000.0 -149288000000.0 -262627000000.0 -355386000000.0 -219563000000.0 -93041300000.0 -325642000000.0 -359802000000.0 -298306000000.0 -217254000000.0 -32116900000.0 -232198000000.0 -231575000000.0 -307948000000.0 -521724000000.0 -114110000000.0 -608974000000.0 -108665000000.0 -84038700000.0 -113521000000.0 -221349000000.0 -76402400000.0 -143759000000.0 -229316000000.0 -112906000000.0 -227805000000.0 -241428000000.0 -427123000000.0 -61610600000.0 -284353000000.0 -48079700000.0 -105532000000.0 -47829900000.0 -133122000000.0 -12704600000.0 -167486000000.0 -144645000000.0 -243132000000.0 -535732000000.0 -369569000000.0 -16824500000.0 -44386300000.0 -106870000000.0 -115192000000.0 -70997400000.0 -281281000000.0 -427449000000.0 -83800300000.0 -243816000000.0 -100488000000.0 -126638000000.0 -121366000000.0 -70847800000.0 -25845200000.0 -70567800000.0 -244615000000.0 -164154000000.0 -120636000000.0 -59621700000.0 -160673000000.0 -170185000000.0 -30030700000.0 -410100000000.0 -313023000000.0 -376956000000.0 -94504600000.0 -328476000000.0 -163099000000.0 -45507000000.0 -118285000000.0 -20418100000.0 -95244300000.0 -77157700000.0 -273024000000.0 -209703000000.0 -112831000000.0 -49282000000.0 -95360900000.0 -58939000000.0 -50273400000.0 -97076300000.0 -88145200000.0 -97935900000.0 -56859200000.0 -17191500000.0 -13653700000.0 -91640100000.0 -201131000000.0 -212788000000.0 -152319000000.0 -107104000000.0 -121056000000.0 -72360700000.0 -243944000000.0 -150364000000.0 -266381000000.0 -295836000000.0 -180666000000.0 -123349000000.0 -166843000000.0 -289780000000.0 -126182000000.0 -45815100000.0 -116163000000.0 -256699000000.0 -204765000000.0 -140731000000.0 -225385000000.0 -370898000000.0 -12549700000.0 -244269000000.0 -123538000000.0 -329227000000.0 -483328000000.0 -393242000000.0 -426649000000.0 -287707000000.0 -305805000000.0 -290000000000.0 -404138000000.0 -275216000000.0 -174263000000.0 -216316000000.0 -13245600000.0 -74862600000.0 -141450000000.0 -289024000000.0 -81486100000.0 -83308600000.0 -119630000000.0 -185899000000.0 -246424000000.0 -161663000000.0 -64222300000.0 -147893000000.0 -204899000000.0 -69202300000.0 -222729000000.0 -39578400000.0 -247241000000.0 -251072000000.0 -315960000000.0 -37285400000.0 -82807300000.0 -311737000000.0 -98315100000.0 -284616000000.0 -423303000000.0 -14047600000.0 -261864000000.0 -34658100000.0 -84262400000.0 -61533300000.0 -72132700000.0 -75098600000.0 -17193900000.0 -91211900000.0 -199954000000.0 -284088000000.0 -177304000000.0 -69073500000.0 -134632000000.0 -74083900000.0 -328797000000.0 -149312000000.0 -262553000000.0 -141668000000.0 -197613000000.0 -126823000000.0 -39426400000.0 -127694000000.0 -146888000000.0 -180666000000.0 -155860000000.0 -193367000000.0 -49712000000.0 -181909000000.0 -12777300000.0 -138548000000.0 -230287000000.0 -177123000000.0 -62743600000.0 -133902000000.0 -47113200000.0 -205398000000.0 -160145000000.0 -119701000000.0 -220034000000.0 -74605500000.0 -175668000000.0 -40230400000.0 -172723000000.0 -54135000000.0 -99090900000.0 -191410000000.0 -121409000000.0 -23286300000.0 -147892000000.0 -12549700000.0 -107282000000.0 -124627000000.0 -144701000000.0 -168547000000.0 -71251100000.0 -84171700000.0 -36411400000.0 -275401000000.0 -15144400000.0 -252520000000.0 -94596900000.0 -112031000000.0 -243816000000.0 -139142000000.0 -265577000000.0 -179951000000.0 -425938000000.0 -12549700000.0 -303730000000.0 -186017000000.0 -182107000000.0 -18015900000.0 -363096000000.0 -86411000000.0 -86296800000.0 -267904000000.0 -122442000000.0 -127792000000.0 -92654600000.0 -103913000000.0 -91766900000.0 -154721000000.0 -26553400000.0 -184237000000.0 -21393100000.0 -13130000000.0 -100273000000.0 -42238700000.0 -75660900000.0 -140724000000.0 -57303500000.0 -69793900000.0 -135869000000.0 -25794200000.0 -96483300000.0 -413111000000.0 -60396100000.0 -227200000000.0 -228976000000.0 -29483900000.0 -12668100000.0 -240658000000.0 -12549700000.0 -205065000000.0 -12549700000.0 -251165000000.0 -164613000000.0 -205857000000.0 -102121000000.0 -109941000000.0 -198785000000.0 -226229000000.0 -97153900000.0 -388108000000.0 -186921000000.0 -468304000000.0 -186408000000.0 -77709300000.0 -316480000000.0 -25499000000.0 -258342000000.0 -307891000000.0 -417109000000.0 -455264000000.0 -428911000000.0 -137178000000.0 -264522000000.0 -245972000000.0 -101470000000.0 -282760000000.0 -142486000000.0 -101459000000.0 -265542000000.0 -150270000000.0 -157046000000.0 -278815000000.0 -155514000000.0 -177413000000.0 -165720000000.0 -202848000000.0 -252152000000.0 -177177000000.0 -113336000000.0 -149629000000.0 -170939000000.0 -68076800000.0 -157580000000.0 -69250400000.0 -150683000000.0 -245096000000.0 -138579000000.0 -156147000000.0 -139247000000.0 -155172000000.0 -254739000000.0 -94575600000.0 -73354600000.0 -20128500000.0 -152775000000.0 -358148000000.0 -154986000000.0 -152155000000.0 -198345000000.0 -266465000000.0 -13620500000.0 -323616000000.0 -267497000000.0 -72065200000.0 -233918000000.0 -296615000000.0 -179945000000.0 -236761000000.0 -197694000000.0 -261020000000.0 -174397000000.0 -159171000000.0 -174655000000.0 -155033000000.0 -315290000000.0 -188739000000.0 -44276900000.0 -67105600000.0 -121040000000.0 -125370000000.0 -141338000000.0 -59749200000.0 -152723000000.0 -84614200000.0 -44175500000.0 -372117000000.0 -49583400000.0 -110464000000.0 -254591000000.0 -12549700000.0 -107761000000.0 -511875000000.0 -72716400000.0 -103752000000.0 -87820400000.0 -335878000000.0 -17194600000.0 -250307000000.0 -15933600000.0 -108807000000.0 -78427800000.0 -161385000000.0 -181511000000.0 -38987200000.0 -121921000000.0 -31850500000.0 -137063000000.0 -17482300000.0 -336761000000.0 -34034700000.0 -131700000000.0 -299015000000.0 -221016000000.0 -465612000000.0 -181492000000.0 -354321000000.0 -121232000000.0 -107205000000.0 -302015000000.0 -77172200000.0 -432040000000.0 -109002000000.0 -79792000000.0 -34804300000.0 -165974000000.0 -234956000000.0 -21549500000.0 -16088900000.0 -289300000000.0 -234270000000.0 -234151000000.0 -225951000000.0 -199779000000.0 -72361600000.0 -173246000000.0 -14580900000.0 -12549700000.0 -51279600000.0 -48239500000.0 -65820500000.0 -32170300000.0 -117620000000.0 -60231700000.0 -93876900000.0 -27489000000.0 -174768000000.0 -78497400000.0 -103158000000.0 -241228000000.0 -51240400000.0 -62195900000.0 -45093600000.0 -53445800000.0 -78196200000.0 -145665000000.0 -123151000000.0 -82251600000.0 -92480300000.0 -39706600000.0 -224698000000.0 -320176000000.0 -216029000000.0 -292987000000.0 -342055000000.0 -68525700000.0 -314036000000.0 -100757000000.0 -109456000000.0 -99940700000.0 -110262000000.0 -199917000000.0 -128852000000.0 -92510200000.0 -373736000000.0 -42725100000.0 -95781800000.0 -85720500000.0 -15736400000.0 -131213000000.0 -117959000000.0 -118363000000.0 -114809000000.0 -162246000000.0 -98878000000.0 -211733000000.0 -146623000000.0 -24845300000.0 -295558000000.0 -313579000000.0 -171007000000.0 -145035000000.0 -163085000000.0 -143617000000.0 -208271000000.0 -30564000000.0 -333175000000.0 -29536400000.0 -567577000000.0 -173096000000.0 -166108000000.0 -190760000000.0 -121335000000.0 -15601200000.0 -360511000000.0 -471490000000.0 -432324000000.0 -343299000000.0 -288224000000.0 -147774000000.0 -402902000000.0 -297628000000.0 -279935000000.0 -108179000000.0 -163914000000.0 -38480700000.0 -21760400000.0 -159275000000.0 -293853000000.0 -331911000000.0 -454422000000.0 -193852000000.0 -359024000000.0 -170207000000.0 -138411000000.0 -88024500000.0 -69819100000.0 -194631000000.0 -436052000000.0 -441070000000.0 -16360800000.0 -204624000000.0 -273280000000.0 -152640000000.0 -53799500000.0 -153513000000.0 -95935600000.0 -172749000000.0 -12549700000.0 -41638100000.0 -76809300000.0 -74360200000.0 -116012000000.0 -95976900000.0 -97833300000.0 -73696100000.0 -88103400000.0 -105927000000.0 -55304400000.0 -52244300000.0 -134747000000.0 -53868000000.0 -95705700000.0 -41204400000.0 -17355600000.0 -162284000000.0 -192632000000.0 -129451000000.0 -117094000000.0 -217933000000.0 -152544000000.0 -73358900000.0 -51813300000.0 -247106000000.0 -19531200000.0 -13589900000.0 -163980000000.0 -206404000000.0 -221956000000.0 -253863000000.0 -161194000000.0 -124330000000.0 -290706000000.0 -213400000000.0 -132370000000.0 -354063000000.0 -14890500000.0 -38837500000.0 -16244900000.0 -12549700000.0 -42798300000.0 -104828000000.0 -78520700000.0 -22005900000.0 -67994500000.0 -114037000000.0 -12549700000.0 -98013500000.0 -133047000000.0 -158542000000.0 -51984400000.0 -133620000000.0 -27996600000.0 -12749600000.0 -45412900000.0 -213682000000.0 -133003000000.0 -61323100000.0 -162828000000.0 -170514000000.0 -331993000000.0 -12598000000.0 -455189000000.0 -154051000000.0 -35861800000.0 -25747700000.0 -301531000000.0 -245540000000.0 -240161000000.0 -106390000000.0 -493146000000.0 -192381000000.0 -12549700000.0 -163510000000.0 -198776000000.0 -167864000000.0 -375037000000.0 -40281200000.0 -306362000000.0 -394934000000.0 -271789000000.0 -215756000000.0 -314178000000.0 -203008000000.0 -103890000000.0 -309157000000.0 -290300000000.0 -296227000000.0 -90429200000.0 -205859000000.0 -276676000000.0 -199116000000.0 -201731000000.0 -189360000000.0 -181512000000.0 -208591000000.0 -158570000000.0 -68842700000.0 -102316000000.0 -80446700000.0 -81959700000.0 -33933000000.0 -80079700000.0 -138366000000.0 -14109400000.0 -146258000000.0 -76561900000.0 -115180000000.0 -86289700000.0 -64549100000.0 -58062600000.0 -60077100000.0 -15791600000.0 -41258700000.0 -84433500000.0 -95209700000.0 -138312000000.0 -120728000000.0 -159600000000.0 -149617000000.0 -82954200000.0 -34839700000.0 -259191000000.0 -118284000000.0 -129769000000.0 -90410100000.0 -237273000000.0 -102456000000.0 -71450600000.0 -110866000000.0 -265841000000.0 -13918700000.0 -12549700000.0 -312326000000.0 -225471000000.0 -147366000000.0 -221566000000.0 -137864000000.0 -108637000000.0 -155031000000.0 -178735000000.0 -305481000000.0 -114597000000.0 -55250200000.0 -51112400000.0 -45350900000.0 -114893000000.0 -123749000000.0 -13448000000.0 -30119100000.0 -97187400000.0 -15650000000.0 -109265000000.0 -71769500000.0 -76900600000.0 -73147500000.0 -39219700000.0 -131723000000.0 -149327000000.0 -12571200000.0 -35683600000.0 -215976000000.0 -91647800000.0 -25994900000.0 -118355000000.0 -68180700000.0 -41444300000.0 -241251000000.0 -106541000000.0 -349201000000.0 -14857100000.0 -515280000000.0 -64719700000.0 -384819000000.0 -387327000000.0 -251393000000.0 -235224000000.0 -230940000000.0 -253412000000.0 -214884000000.0 -185994000000.0 -262076000000.0 -84880900000.0 -477597000000.0 -185091000000.0 -333446000000.0 -383421000000.0 -494405000000.0 -147724000000.0 -409257000000.0 -439766000000.0 -271373000000.0 -129305000000.0 -92417800000.0 -198886000000.0 -75918700000.0 -18255100000.0 -289111000000.0 -43879200000.0 -89995600000.0 -88149700000.0 -127463000000.0 -138585000000.0 -39889700000.0 -55181200000.0 -103227000000.0 -15708000000.0 -56938700000.0 -17145900000.0 -18302800000.0 -12549700000.0 -82848900000.0 -17071700000.0 -115525000000.0 -101794000000.0 -126036000000.0 -95693500000.0 -67910700000.0 -75102600000.0 -157905000000.0 -23364000000.0 -26957200000.0 -27905900000.0 -12549700000.0 -65978700000.0 -56627800000.0 -20196800000.0 -35025600000.0 -113998000000.0 -218642000000.0 -229915000000.0 -182439000000.0 -12549700000.0 -202335000000.0 -175358000000.0 -148293000000.0 -148586000000.0 -37987000000.0 -157284000000.0 -120556000000.0 -136100000000.0 -107243000000.0 -99225900000.0 -201635000000.0 -95540300000.0 -43189300000.0 -78946200000.0 -113068000000.0 -77291700000.0 -107213000000.0 -12665700000.0 -14008800000.0 -42707100000.0 -17906800000.0 -100834000000.0 -20661500000.0 -108945000000.0 -31962700000.0 -187257000000.0 -57239500000.0 -54073200000.0 -144007000000.0 -116485000000.0 -19815500000.0 -39148200000.0 -41638300000.0 -223603000000.0 -80199300000.0 -23432700000.0 -14039600000.0 -554900000000.0 -357865000000.0 -113864000000.0 -147808000000.0 -198482000000.0 -75466800000.0 -377214000000.0 -127726000000.0 -249476000000.0 -111596000000.0 -212588000000.0 -185978000000.0 -12549700000.0 -251952000000.0 -56788500000.0 -285377000000.0 -278699000000.0 -420264000000.0 -379765000000.0 -24807300000.0 -215386000000.0 -14392700000.0 -232351000000.0 -361317000000.0 -171231000000.0 -78367100000.0 -68990300000.0 -34433500000.0 -183530000000.0 -13460800000.0 -104310000000.0 -85008400000.0 -122700000000.0 -120545000000.0 -16334900000.0 -37495500000.0 -17543600000.0 -44150300000.0 -69829600000.0 -60884600000.0 -33751400000.0 -32345800000.0 -36905400000.0 -44777000000.0 -63877900000.0 -40545000000.0 -29635900000.0 -95505200000.0 -58816000000.0 -54990700000.0 -81191600000.0 -63089800000.0 -63387300000.0 -106630000000.0 -75380100000.0 -63963900000.0 -102962000000.0 -26227400000.0 -203953000000.0 -73343400000.0 -18140300000.0 -273284000000.0 -212864000000.0 -39684700000.0 -109220000000.0 -91740800000.0 -108604000000.0 -259049000000.0 -188093000000.0 -231237000000.0 -148601000000.0 -184014000000.0 -79396500000.0 -99713700000.0 -48935300000.0 -91301400000.0 -95567600000.0 -101036000000.0 -136270000000.0 -59948300000.0 -43128600000.0 -39632000000.0 -77190300000.0 -31330800000.0 -30254900000.0 -46403900000.0 -62826400000.0 -42471100000.0 -60078100000.0 -140045000000.0 -126540000000.0 -12549700000.0 -133847000000.0 -142685000000.0 -94517700000.0 -87112900000.0 -74048700000.0 -118960000000.0 -55138200000.0 -81565800000.0 -29806500000.0 -300604000000.0 -121523000000.0 -118752000000.0 -200652000000.0 -75726100000.0 -222819000000.0 -310003000000.0 -290525000000.0 -176841000000.0 -36640000000.0 -154122000000.0 -188547000000.0 -110294000000.0 -82072200000.0 -162583000000.0 -31699300000.0 -75678700000.0 -179608000000.0 -347433000000.0 -333468000000.0 -278711000000.0 -24864400000.0 -390213000000.0 -136469000000.0 -253589000000.0 -72992100000.0 -310934000000.0 -245185000000.0 -228831000000.0 -270299000000.0 -208179000000.0 -316019000000.0 -81352100000.0 -12550300000.0 -69362400000.0 -116238000000.0 -128375000000.0 -84791700000.0 -16841200000.0 -161434000000.0 -56471000000.0 -76619000000.0 -119390000000.0 -85143800000.0 -13550100000.0 -22741100000.0 -71289700000.0 -28816000000.0 -31956400000.0 -35505800000.0 -45898700000.0 -57748300000.0 -42825100000.0 -61332600000.0 -98050700000.0 -84095900000.0 -22916500000.0 -91783900000.0 -26405100000.0 -96624300000.0 -101682000000.0 -42383000000.0 -75666700000.0 -124490000000.0 -140285000000.0 -15779900000.0 -16632300000.0 -87039600000.0 -67181400000.0 -176244000000.0 -89845400000.0 -27110600000.0 -103852000000.0 -171110000000.0 -18869400000.0 -12680600000.0 -172078000000.0 -105389000000.0 -57297100000.0 -255402000000.0 -230205000000.0 -153049000000.0 -45797400000.0 -184731000000.0 -49509200000.0 -36758700000.0 -43945100000.0 -38347200000.0 -29510800000.0 -78593100000.0 -39310800000.0 -96680200000.0 -25750300000.0 -120552000000.0 -12594000000.0 -105487000000.0 -62678800000.0 -62280600000.0 -67694300000.0 -76943500000.0 -66919700000.0 -81367100000.0 -54083500000.0 -42541000000.0 -114075000000.0 -66930500000.0 -104328000000.0 -14181300000.0 -143114000000.0 -24546400000.0 -69444500000.0 -177157000000.0 -15507700000.0 -84159500000.0 -229195000000.0 -181889000000.0 -134597000000.0 -49702500000.0 -104149000000.0 -78960000000.0 -45078300000.0 -305696000000.0 -157505000000.0 -250478000000.0 -89984300000.0 -220816000000.0 -149326000000.0 -116586000000.0 -114234000000.0 -168065000000.0 -106376000000.0 -149652000000.0 -231657000000.0 -336813000000.0 -177609000000.0 -202776000000.0 -146953000000.0 -59878400000.0 -153466000000.0 -210485000000.0 -85840200000.0 -414164000000.0 -34260300000.0 -28217200000.0 -16166500000.0 -56591100000.0 -77304300000.0 -97439600000.0 -109947000000.0 -152352000000.0 -197500000000.0 -14163300000.0 -30525800000.0 -88212800000.0 -79323100000.0 -15010100000.0 -67419200000.0 -84967400000.0 -19567900000.0 -22036000000.0 -35174300000.0 -100010000000.0 -44781600000.0 -28627500000.0 -24489400000.0 -12549700000.0 -114376000000.0 -33601400000.0 -33728200000.0 -108874000000.0 -31780200000.0 -97480200000.0 -52044800000.0 -43373100000.0 -25495500000.0 -217348000000.0 -133215000000.0 -188558000000.0 -15598900000.0 -198157000000.0 -13900000000.0 -244358000000.0 -103450000000.0 -78754300000.0 -37062500000.0 -59077900000.0 -33871900000.0 -27195900000.0 -23679400000.0 -53230700000.0 -91494800000.0 -15428300000.0 -24615900000.0 -93069300000.0 -63552900000.0 -83251300000.0 -70559100000.0 -61462500000.0 -58785000000.0 -56019000000.0 -93414200000.0 -175732000000.0 -27887600000.0 -46994500000.0 -49200300000.0 -29290100000.0 -35425800000.0 -17901000000.0 -86669700000.0 -29251200000.0 -37776300000.0 -14735300000.0 -12549700000.0 -167397000000.0 -146751000000.0 -66578700000.0 -36927300000.0 -72474500000.0 -79711900000.0 -78791700000.0 -143134000000.0 -202366000000.0 -246977000000.0 -105501000000.0 -139995000000.0 -104811000000.0 -118331000000.0 -213229000000.0 -338239000000.0 -71184500000.0 -191610000000.0 -246652000000.0 -18119800000.0 -81613600000.0 -277143000000.0 -111896000000.0 -177777000000.0 -266117000000.0 -311111000000.0 -33708400000.0 -73467200000.0 -42466000000.0 -97735300000.0 -68768500000.0 -59148800000.0 -27735900000.0 -21666800000.0 -22872600000.0 -95829300000.0 -81399300000.0 -81278100000.0 -64724700000.0 -51110000000.0 -12549700000.0 -12549700000.0 -53037500000.0 -34253900000.0 -23263200000.0 -26536400000.0 -21453700000.0 -22637300000.0 -27463200000.0 -25381200000.0 -27755800000.0 -52498100000.0 -17665700000.0 -50441600000.0 -12549800000.0 -13873800000.0 -49431900000.0 -48464400000.0 -67651600000.0 -79184600000.0 -98427600000.0 -53716000000.0 -125050000000.0 -86958900000.0 -111827000000.0 -121674000000.0 -122560000000.0 -92328700000.0 -128234000000.0 -33033300000.0 -122217000000.0 -74715400000.0 -20704700000.0 -12934100000.0 -257803000000.0 -139346000000.0 -97742300000.0 -84141700000.0 -87380700000.0 -77687400000.0 -101338000000.0 -43652300000.0 -77404300000.0 -32788100000.0 -37151300000.0 -25153000000.0 -27456800000.0 -70222200000.0 -85700400000.0 -40048900000.0 -35671200000.0 -68824600000.0 -31547400000.0 -28535100000.0 -14083100000.0 -23828200000.0 -22467700000.0 -26630400000.0 -25083400000.0 -18350700000.0 -13344300000.0 -46459000000.0 -155268000000.0 -17175600000.0 -124047000000.0 -125440000000.0 -122451000000.0 -78163100000.0 -13895100000.0 -50058500000.0 -129887000000.0 -16157900000.0 -94675300000.0 -42808900000.0 -111421000000.0 -133440000000.0 -82194700000.0 -88951400000.0 -88161400000.0 -305197000000.0 -126699000000.0 -39313300000.0 -276847000000.0 -213734000000.0 -324643000000.0 -196976000000.0 -83915300000.0 -173505000000.0 -167283000000.0 -143358000000.0 -161457000000.0 -87082800000.0 -43972600000.0 -62279400000.0 -118997000000.0 -46991200000.0 -34664700000.0 -30290500000.0 -40646100000.0 -15162400000.0 -40174100000.0 -21406100000.0 -65408100000.0 -14640000000.0 -42222700000.0 -18930200000.0 -13287200000.0 -12549700000.0 -12741100000.0 -15515100000.0 -13845900000.0 -58410200000.0 -26592600000.0 -12549700000.0 -41844100000.0 -22794100000.0 -19981500000.0 -43177000000.0 -63740200000.0 -26238700000.0 -57556500000.0 -90471600000.0 -48912700000.0 -48540300000.0 -50276300000.0 -80082600000.0 -59755900000.0 -65372700000.0 -52939200000.0 -17411100000.0 -13661400000.0 -59575300000.0 -149875000000.0 -277794000000.0 -57827900000.0 -13208700000.0 -21331600000.0 -31233800000.0 -20706700000.0 -111943000000.0 -49593800000.0 -14525500000.0 -39300800000.0 -63418900000.0 -41647400000.0 -23790400000.0 -15757500000.0 -46524500000.0 -51081800000.0 -12549700000.0 -48002200000.0 -70566800000.0 -29288700000.0 -64120300000.0 -61379300000.0 -32456300000.0 -50312900000.0 -12549700000.0 -16773600000.0 -13692300000.0 -13208600000.0 -17452000000.0 -12629100000.0 -12549700000.0 -22568800000.0 -51747400000.0 -85606300000.0 -171437000000.0 -183557000000.0 -166019000000.0 -191291000000.0 -226226000000.0 -144390000000.0 -217399000000.0 -125433000000.0 -149374000000.0 -146700000000.0 -147702000000.0 -117113000000.0 -165771000000.0 -169122000000.0 -242829000000.0 -62626900000.0 -55958200000.0 -47183300000.0 -43467800000.0 -54803200000.0 -92173800000.0 -58503400000.0 -12549700000.0 -105323000000.0 -13489300000.0 -38514500000.0 -41214800000.0 -20040700000.0 -61940800000.0 -41342000000.0 -40506900000.0 -41986000000.0 -47961000000.0 -15268500000.0 -26311600000.0 -16428500000.0 -45150900000.0 -16216600000.0 -13974200000.0 -12549700000.0 -18738400000.0 -14961400000.0 -12549700000.0 -12549700000.0 -14293100000.0 -12549700000.0 -14195300000.0 -12558300000.0 -38992500000.0 -31929600000.0 -12796400000.0 -19024200000.0 -14170600000.0 -14361300000.0 -13021900000.0 -41391600000.0 -15191500000.0 -38832400000.0 -26802400000.0 -65078900000.0 -57299800000.0 -41421400000.0 -40415500000.0 -57817700000.0 -66716100000.0 -107075000000.0 -140066000000.0 -157749000000.0 -130994000000.0 -57451500000.0 -104905000000.0 -80231700000.0 -22517700000.0 -23197400000.0 -49311700000.0 -20810300000.0 -14235000000.0 -36295100000.0 -15294100000.0 -37451800000.0 -42804500000.0 -26245600000.0 -37310800000.0 -38411400000.0 -29844300000.0 -40369500000.0 -62727500000.0 -38605200000.0 -31128000000.0 -29687900000.0 -20829000000.0 -15713400000.0 -14918900000.0 -13792900000.0 -12549700000.0 -13227000000.0 -18716100000.0 -71351700000.0 -37451500000.0 -162713000000.0 -24178800000.0 -61171700000.0 -63929300000.0 -30475200000.0 -52734200000.0 -133650000000.0 -24710400000.0 -24606400000.0 -31110600000.0 -74683100000.0 -44027400000.0 -123541000000.0 -72118400000.0 -45547400000.0 -121078000000.0 -64051000000.0 -88482000000.0 -56357900000.0 -75140900000.0 -51090500000.0 -54141800000.0 -130172000000.0 -47163800000.0 -46401400000.0 -16392800000.0 -38524300000.0 -26630000000.0 -28793000000.0 -40867700000.0 -21758500000.0 -24656900000.0 -21623300000.0 -16089900000.0 -20999800000.0 -13375000000.0 -36544600000.0 -12965700000.0 -12960800000.0 -14835700000.0 -12959700000.0 -12549700000.0 -12558300000.0 -13586200000.0 -13252700000.0 -13879600000.0 -12971100000.0 -25874000000.0 -13413200000.0 -13096500000.0 -14222900000.0 -19692000000.0 -26601600000.0 -15663200000.0 -13184500000.0 -18146600000.0 -16546500000.0 -13188100000.0 -51615700000.0 -68422700000.0 -16831100000.0 -36990900000.0 -25308400000.0 -72866800000.0 -88125200000.0 -56058400000.0 -32505100000.0 -43533500000.0 -30313300000.0 -48910500000.0 -71508900000.0 -42770500000.0 -20230700000.0 -27054500000.0 -38447900000.0 -28332500000.0 -16294400000.0 -14268500000.0 -39342300000.0 -13181900000.0 -12549700000.0 -32049800000.0 -12760000000.0 -40139400000.0 -16703700000.0 -17717400000.0 -28561400000.0 -20303300000.0 -22210100000.0 -14727600000.0 -15813100000.0 -14081500000.0 -14510500000.0 -14075400000.0 -38232000000.0 -58434500000.0 -25431100000.0 -13129000000.0 -42637800000.0 -44579600000.0 -66981200000.0 -29969700000.0 -32688200000.0 -39803100000.0 -24687000000.0 -30313800000.0 -69241900000.0 -34623300000.0 -12549700000.0 -43071800000.0 -15119600000.0 -16215900000.0 -14636800000.0 -43189300000.0 -39701200000.0 -63650600000.0 -16545100000.0 -14393700000.0 -12549700000.0 -12820000000.0 -14555600000.0 -13165900000.0 -12549700000.0 -14498700000.0 -13258100000.0 -20631800000.0 -17085900000.0 -13156500000.0 -15836400000.0 -15382600000.0 -14734400000.0 -14252900000.0 -12713000000.0 -14185300000.0 -14222000000.0 -13872400000.0 -12926600000.0 -16754200000.0 -13577000000.0 -14944200000.0 -18157300000.0 -17574100000.0 -21538600000.0 -24059900000.0 -30477700000.0 -30104800000.0 -25076300000.0 -36632900000.0 -27055300000.0 -57585800000.0 -64531800000.0 -29293900000.0 -31549600000.0 -88930300000.0 -31932000000.0 -36662200000.0 -25511400000.0 -13025200000.0 -31110900000.0 -28761000000.0 -12582500000.0 -12895300000.0 -21034400000.0 -14996900000.0 -13423100000.0 -12983300000.0 -21912300000.0 -13847300000.0 -18593700000.0 -12549700000.0 -24693600000.0 -13906100000.0 -14948900000.0 -14595000000.0 -20827900000.0 -31184200000.0 -12549700000.0 -16074400000.0 -14150500000.0 -13126700000.0 -13063700000.0 -14616100000.0 -12549700000.0 -13236100000.0 -12615200000.0 -15929600000.0 -24999000000.0 -27286900000.0 -27240100000.0 -21741300000.0 -29933000000.0 -25283300000.0 -14269400000.0 -17550900000.0 -23270300000.0 -15607800000.0 -14254600000.0 -14005000000.0 -33234600000.0 -13129100000.0 -17122000000.0 -16364400000.0 -15200100000.0 -17622900000.0 -16505100000.0 -14456600000.0 -31975300000.0 -35850300000.0 -22777300000.0 -32960500000.0 -20335300000.0 -18414600000.0 -23532300000.0 -16971100000.0 -15911000000.0 -14034900000.0 -12549700000.0 -14805100000.0 -15350000000.0 -15844300000.0 -15192700000.0 -13069300000.0 -16939600000.0 -13809900000.0 -14189200000.0 -15169400000.0 -12765400000.0 